# Cell file generated by matador (Matthew Evans 2016)

%BLOCK LATTICE_CART
9.78916 0.0 0.0
-4.89458 8.47766 0.0
0.0 0.0 7.54562
%ENDBLOCK LATTICE_CART

%BLOCK POSITIONS_FRAC
P           0.000000000000000   -0.000000000000000    0.000000000000000 
P           0.000000000000000   -0.000000000000000    0.500000000000000 
P           0.066302000000000    0.323008000000000    0.770153000000000 
P           0.177085000000000    0.815334000000000    0.750647000000000 
P           0.184666000000000    0.361751000000000    0.750647000000000 
P           0.256706000000000    0.933698000000000    0.770153000000000 
P           0.323008000000000    0.066302000000000    0.229847000000000 
P           0.361751000000000    0.184666000000000    0.249353000000000 
P           0.638249000000000    0.822915000000000    0.750647000000000 
P           0.676992000000000    0.743294000000000    0.770153000000000 
P           0.743294000000000    0.676992000000000    0.229847000000000 
P           0.815334000000000    0.177085000000000    0.249353000000000 
P           0.822915000000000    0.638249000000000    0.249353000000000 
P           0.933698000000000    0.256706000000000    0.229847000000000 
K           0.000000000000000    0.521814000000000    0.500000000000000 
K           0.000000000000000    0.557306000000000    0.000000000000000 
K           0.442694000000000    0.442694000000000    0.000000000000000 
K           0.478186000000000    0.478186000000000    0.500000000000000 
K           0.521814000000000   -0.000000000000000    0.500000000000000 
K           0.557306000000000   -0.000000000000000    0.000000000000000 
%ENDBLOCK POSITIONS_FRAC
