# Cell file generated by matador (Matthew Evans 2016)

%BLOCK LATTICE_CART
6.24579 0.0 0.0
1.10741 5.73056 0.0
0.269988 -1.72622 5.60717
%ENDBLOCK LATTICE_CART

%BLOCK POSITIONS_FRAC
P           0.000000000000000    0.500000000000000    0.500000000000000 
P           0.164157000000000    0.045692000000000    0.119193000000000 
P           0.500000000000000    0.500000000000000    0.000000000000000 
P           0.835843000000000    0.954308000000000    0.880807000000000 
K           0.000000000000000    0.000000000000000    0.500000000000000 
K           0.500000000000000    0.000000000000000    0.000000000000000 
K           0.500000000000000    0.000000000000000    0.500000000000000 
%ENDBLOCK POSITIONS_FRAC
