# Cell file generated by matador (Matthew Evans 2016)

%BLOCK LATTICE_CART
6.48579 0.0 0.0
-3.24289 5.61686 0.0
0.0 0.0 10.6608
%ENDBLOCK LATTICE_CART

%BLOCK POSITIONS_FRAC
P          -0.000000000000000    0.000000000000000    0.444726000000000 
P          -0.000000000000000    0.000000000000000    0.637429000000000 
P           0.333333000000000    0.666667000000000    0.111393000000000 
P           0.333333000000000    0.666667000000000    0.304096000000000 
P           0.666667000000000    0.333333000000000    0.778060000000000 
P           0.666667000000000    0.333333000000000    0.970762000000000 
K          -0.000000000000000    0.000000000000000    0.146888000000000 
K          -0.000000000000000    0.000000000000000    0.882483000000000 
K           0.333333000000000    0.666667000000000    0.549150000000000 
K           0.333333000000000    0.666667000000000    0.813554000000000 
K           0.666667000000000    0.333333000000000    0.215817000000000 
K           0.666667000000000    0.333333000000000    0.480221000000000 
%ENDBLOCK POSITIONS_FRAC
