# Cell file generated by matador (Matthew Evans 2016)

%BLOCK LATTICE_CART
7.62461 0.0 0.0
-3.81231 6.60311 0.0
0.0 0.0 4.76629
%ENDBLOCK LATTICE_CART

%BLOCK POSITIONS_FRAC
P          -0.000000000000000    0.000000000000000    0.263144000000000 
P          -0.000000000000000    0.000000000000000    0.763144000000000 
P           0.255282000000000    0.524427000000000    0.440918000000000 
P           0.269145000000000    0.744718000000000    0.440918000000000 
P           0.475573000000000    0.730855000000000    0.440918000000000 
P           0.524427000000000    0.255282000000000    0.940918000000000 
P           0.730855000000000    0.475573000000000    0.940918000000000 
P           0.744718000000000    0.269145000000000    0.940918000000000 
K           0.333333000000000    0.666667000000000    0.841308000000000 
K           0.666666000000000    0.333334000000000    0.341308000000000 
%ENDBLOCK POSITIONS_FRAC
