# Cell file generated by matador (Matthew Evans 2016)

%BLOCK LATTICE_CART
7.47163 0.0 0.0
-3.73582 6.47062 0.0
0.0 0.0 14.2248
%ENDBLOCK LATTICE_CART

%BLOCK POSITIONS_FRAC
P           0.000000000000000    0.000000000000000    0.000000000000000 
P           0.000000000000000    0.505788000000000    0.500000000000000 
P           0.494212000000000    0.494212000000000    0.500000000000000 
P           0.505788000000000    0.000000000000000    0.500000000000000 
K           0.000000000000000    0.379547000000000    0.344752000000000 
K           0.000000000000000    0.379547000000000    0.655248000000000 
K           0.000000000000000    0.730656000000000    0.165102000000000 
K           0.000000000000000    0.730656000000000    0.834898000000000 
K           0.269344000000000    0.269344000000000    0.165102000000000 
K           0.269344000000000    0.269344000000000    0.834898000000000 
K           0.379547000000000    0.000000000000000    0.344752000000000 
K           0.379547000000000    0.000000000000000    0.655248000000000 
K           0.620453000000000    0.620453000000000    0.344752000000000 
K           0.620453000000000    0.620453000000000    0.655248000000000 
K           0.730656000000000    0.000000000000000    0.165102000000000 
K           0.730656000000000    0.000000000000000    0.834898000000000 
%ENDBLOCK POSITIONS_FRAC
