# Cell file generated by matador (Matthew Evans 2016)

%BLOCK LATTICE_CART
7.88341 0.0 0.0
0.0 7.88341 0.0
0.0 0.0 5.18944
%ENDBLOCK LATTICE_CART

%BLOCK POSITIONS_FRAC
P           0.008469000000000    0.718262000000000    0.352606000000000 
P           0.281738000000000    0.008469000000000    0.602606000000000 
P           0.407626000000000    0.527996000000000    0.341226000000000 
P           0.472004000000000    0.407626000000000    0.591226000000000 
P           0.527996000000000    0.592374000000000    0.091226000000000 
P           0.592374000000000    0.472004000000000    0.841226000000000 
P           0.718262000000000    0.991531000000000    0.102606000000000 
P           0.991531000000000    0.281738000000000    0.852606000000000 
K           0.152093000000000    0.420581000000000    0.122082000000000 
K           0.420581000000000    0.847907000000000    0.872082000000000 
K           0.579419000000000    0.152093000000000    0.372082000000000 
K           0.847907000000000    0.579419000000000    0.622082000000000 
%ENDBLOCK POSITIONS_FRAC
