# Cell file generated by matador (Matthew Evans 2016)

%BLOCK LATTICE_CART
10.2678 0.0 0.0
-5.13389 8.89215 0.0
0.0 0.0 5.9403
%ENDBLOCK LATTICE_CART

%BLOCK POSITIONS_FRAC
P           0.000000000000000    0.000000000000000    0.000000000000000 
P           0.000000000000000    0.000000000000000    0.500000000000000 
K           0.000000000000000    0.289126000000000    0.000000000000000 
K           0.000000000000000    0.677085000000000    0.500000000000000 
K           0.150659000000000    0.628479000000000    0.211449000000000 
K           0.289126000000000    0.000000000000000    0.000000000000000 
K           0.322915000000000    0.322915000000000    0.500000000000000 
K           0.333333000000000    0.666667000000000    0.789512000000000 
K           0.371521000000000    0.522180000000000    0.211449000000000 
K           0.477820000000000    0.849341000000000    0.211449000000000 
K           0.522180000000000    0.371521000000000    0.788551000000000 
K           0.628479000000000    0.150659000000000    0.788551000000000 
K           0.666667000000000    0.333333000000000    0.210488000000000 
K           0.677085000000000    0.000000000000000    0.500000000000000 
K           0.710874000000000    0.710874000000000    0.000000000000000 
K           0.849341000000000    0.477820000000000    0.788551000000000 
%ENDBLOCK POSITIONS_FRAC
