# Cell file generated by matador (Matthew Evans 2016)

%BLOCK LATTICE_CART
7.46756 0.0 0.0
-3.73378 6.4671 0.0
0.0 0.0 8.5391
%ENDBLOCK LATTICE_CART

%BLOCK POSITIONS_FRAC
P           0.231565000000000    0.115782000000000    0.817982000000000 
P           0.333334000000000    0.666666000000000    0.406979000000000 
P           0.884218000000000    0.115782000000000    0.817982000000000 
P           0.884218000000000    0.768435000000000    0.817982000000000 
K           0.333334000000000    0.666666000000000    0.139736000000000 
K           0.355702000000000    0.011498000000000    0.444040000000000 
K           0.355702000000000    0.344204000000000    0.444040000000000 
K           0.655796000000000    0.011498000000000    0.444040000000000 
K           0.655796000000000    0.644298000000000    0.444040000000000 
K           0.666667000000000    0.333333000000000    0.285483000000000 
K           0.988502000000000    0.344204000000000    0.444040000000000 
K           0.988502000000000    0.644298000000000    0.444040000000000 
%ENDBLOCK POSITIONS_FRAC
