# Cell file generated by matador (Matthew Evans 2016)

%BLOCK LATTICE_CART
6.18838 0.0 0.0
0.0 6.18838 0.0
0.0 0.0 11.0993
%ENDBLOCK LATTICE_CART

%BLOCK POSITIONS_FRAC
P          -0.000000000000000    0.389602000000000    0.000000000000000 
P          -0.000000000000000    0.610398000000000    0.000000000000000 
P           0.389602000000000   -0.000000000000000    0.500000000000000 
P           0.610398000000000   -0.000000000000000    0.500000000000000 
K           0.178439000000000    0.307317000000000    0.500000000000000 
K           0.178439000000000    0.692683000000000    0.500000000000000 
K           0.307317000000000    0.178439000000000    0.000000000000000 
K           0.307317000000000    0.821561000000000    0.000000000000000 
K           0.692683000000000    0.178439000000000    0.000000000000000 
K           0.692683000000000    0.821561000000000    0.000000000000000 
K           0.821561000000000    0.307317000000000    0.500000000000000 
K           0.821561000000000    0.692683000000000    0.500000000000000 
%ENDBLOCK POSITIONS_FRAC
