# Cell file generated by matador (Matthew Evans 2016)

%BLOCK LATTICE_CART
5.63242 0.0 0.0
0.0 5.13509 0.0
-2.26083 0.0 5.62782
%ENDBLOCK LATTICE_CART

%BLOCK POSITIONS_FRAC
P           0.000000000000000    0.112266000000000    0.000000000000000 
P           0.023802000000000    0.875093000000000    0.682336000000000 
P           0.449404000000000    0.898460000000000    0.382037000000000 
P           0.500000000000000    0.621063000000000    0.500000000000000 
P           0.550596000000000    0.898460000000000    0.617963000000000 
P           0.976198000000000    0.875093000000000    0.317664000000000 
K           0.195592000000000    0.512331000000000    0.915158000000000 
K           0.804408000000000    0.512331000000000    0.084842000000000 
%ENDBLOCK POSITIONS_FRAC
