# Cell file generated by matador (Matthew Evans 2016)

%BLOCK LATTICE_CART
8.23588 0.0 0.0
-4.11794 7.13248 0.0
0.0 0.0 9.19278
%ENDBLOCK LATTICE_CART

%BLOCK POSITIONS_FRAC
P           0.148508000000000    0.297016000000000    0.500000000000000 
P           0.148508000000000    0.851492000000000    0.500000000000000 
P           0.666667000000000    0.333333000000000    0.217562000000000 
P           0.666667000000000    0.333333000000000    0.500000000000000 
P           0.666667000000000    0.333333000000000    0.782438000000000 
P           0.702984000000000    0.851492000000000    0.500000000000000 
K           0.000000000000000    0.000000000000000    0.500000000000000 
K           0.163432000000000    0.326864000000000    0.186299000000000 
K           0.163432000000000    0.326864000000000    0.813701000000000 
K           0.163432000000000    0.836568000000000    0.186299000000000 
K           0.163432000000000    0.836568000000000    0.813701000000000 
K           0.333333000000000    0.666667000000000    0.000000000000000 
K           0.333333000000000    0.666667000000000    0.500000000000000 
K           0.666667000000000    0.333333000000000    0.000000000000000 
K           0.673136000000000    0.836568000000000    0.186299000000000 
K           0.673136000000000    0.836568000000000    0.813701000000000 
%ENDBLOCK POSITIONS_FRAC
