# Cell file generated by matador (Matthew Evans 2016)

%BLOCK LATTICE_CART
8.01499 0.0 0.0
-4.00749 6.94118 0.0
0.0 0.0 5.27021
%ENDBLOCK LATTICE_CART

%BLOCK POSITIONS_FRAC
P           0.000000000000000    0.000000000000000    0.976745000000000 
P           0.309532000000000    0.058850000000000    0.192703000000000 
P           0.749318000000000    0.690468000000000    0.192703000000000 
P           0.941150000000000    0.250682000000000    0.192703000000000 
K           0.035067000000000    0.741038000000000    0.389294000000000 
K           0.258962000000000    0.294030000000000    0.389294000000000 
K           0.333333000000000    0.666667000000000    0.175008000000000 
K           0.666667000000000    0.333333000000000    0.302442000000000 
K           0.705970000000000    0.964933000000000    0.389294000000000 
%ENDBLOCK POSITIONS_FRAC
