# Cell file generated by matador (Matthew Evans 2016)

%BLOCK LATTICE_CART
8.36005 0.0 0.0
0.0 6.18113 0.0
0.0 0.0 6.64021
%ENDBLOCK LATTICE_CART

%BLOCK POSITIONS_FRAC
P           0.000000000000000    0.000000000000000   -0.000000000000000 
P           0.000000000000000    0.000000000000000    0.500000000000000 
P           0.000000000000000    0.500000000000000    0.500000000000000 
P           0.184964000000000    0.304205000000000    0.500000000000000 
P           0.315036000000000    0.804205000000000   -0.000000000000000 
P           0.500000000000000    0.000000000000000   -0.000000000000000 
P           0.500000000000000    0.500000000000000   -0.000000000000000 
P           0.500000000000000    0.500000000000000    0.500000000000000 
P           0.684964000000000    0.195795000000000   -0.000000000000000 
P           0.815036000000000    0.695795000000000    0.500000000000000 
K           0.000000000000000    0.500000000000000   -0.000000000000000 
K           0.500000000000000    0.000000000000000    0.500000000000000 
%ENDBLOCK POSITIONS_FRAC
