# Cell file generated by matador (Matthew Evans 2016)

%BLOCK LATTICE_CART
8.80254 0.0 0.0
-4.40127 7.62322 0.0
0.0 0.0 7.45459
%ENDBLOCK LATTICE_CART

%BLOCK POSITIONS_FRAC
P           0.000000000000000    0.000000000000000    0.000000000000000 
P           0.000000000000000    0.000000000000000    0.500000000000000 
P           0.000000000000000    0.159982000000000    0.000000000000000 
P           0.000000000000000    0.840018000000000    0.000000000000000 
P           0.159982000000000    0.000000000000000    0.000000000000000 
P           0.159982000000000    0.159982000000000    0.000000000000000 
P           0.840018000000000    0.000000000000000    0.000000000000000 
P           0.840018000000000    0.840018000000000    0.000000000000000 
K           0.000000000000000    0.500000000000000    0.000000000000000 
K           0.000000000000000    0.500000000000000    0.500000000000000 
K           0.148140000000000    0.574070000000000    0.721688000000000 
K           0.425930000000000    0.574070000000000    0.721688000000000 
K           0.425930000000000    0.851860000000000    0.721688000000000 
K           0.500000000000000    0.000000000000000    0.000000000000000 
K           0.500000000000000    0.000000000000000    0.500000000000000 
K           0.500000000000000    0.500000000000000    0.000000000000000 
K           0.500000000000000    0.500000000000000    0.500000000000000 
K           0.574070000000000    0.148140000000000    0.278312000000000 
K           0.574070000000000    0.425930000000000    0.278312000000000 
K           0.851860000000000    0.425930000000000    0.278312000000000 
%ENDBLOCK POSITIONS_FRAC
