# Cell file generated by matador (Matthew Evans 2016)

%BLOCK LATTICE_CART
7.26083 -0.0 0.0
-3.63042 6.28807 0.0
0.0 0.0 12.0215
%ENDBLOCK LATTICE_CART

%BLOCK POSITIONS_FRAC
P           0.000000000000000   -0.000000000000000    0.304751000000000 
P           0.217677000000000    0.196449000000000    0.754033000000000 
P           0.300186000000000    0.153156000000000    0.341274000000000 
P           0.666667000000000    0.333333000000000    0.452403000000000 
P           0.803551000000000    0.021228000000000    0.754033000000000 
P           0.846844000000000    0.147030000000000    0.341274000000000 
P           0.852970000000000    0.699814000000000    0.341274000000000 
P           0.978772000000000    0.782323000000000    0.754033000000000 
K           0.066288000000000    0.799182000000000    0.186588000000000 
K           0.102893000000000    0.227345000000000    0.976306000000000 
K           0.124452000000000    0.897107000000000    0.976306000000000 
K           0.200818000000000    0.267105000000000    0.186588000000000 
K           0.732895000000000    0.933712000000000    0.186588000000000 
K           0.772655000000000    0.875548000000000    0.976306000000000 
%ENDBLOCK POSITIONS_FRAC
