# Cell file generated by matador (Matthew Evans 2016)

%BLOCK LATTICE_CART
9.37971 0.0 0.0
0.0 7.23345 0.0
2.35164 0.0 6.55112
%ENDBLOCK LATTICE_CART

%BLOCK POSITIONS_FRAC
P           0.141433000000000    0.000000000000000    0.594903000000000 
P           0.203614000000000    0.500000000000000    0.035818000000000 
P           0.746998000000000    0.000000000000000    0.844621000000000 
P           0.896514000000000    0.500000000000000    0.335507000000000 
K           0.195321000000000    0.157441000000000    0.268797000000000 
K           0.195321000000000    0.842559000000000    0.268797000000000 
K           0.248087000000000    0.000000000000000    0.837706000000000 
K           0.264608000000000    0.500000000000000    0.357247000000000 
K           0.486691000000000    0.000000000000000    0.875535000000000 
K           0.496408000000000    0.000000000000000    0.249245000000000 
K           0.518192000000000    0.500000000000000    0.537268000000000 
K           0.629963000000000    0.500000000000000    0.864735000000000 
K           0.689963000000000    0.500000000000000    0.221620000000000 
K           0.767047000000000    0.000000000000000    0.323058000000000 
K           0.924241000000000    0.000000000000000    0.543554000000000 
K           0.931725000000000    0.500000000000000    0.746976000000000 
%ENDBLOCK POSITIONS_FRAC
