# Cell file generated by matador (Matthew Evans 2016)

%BLOCK LATTICE_CART
8.50615 0.0 0.0
-4.25307 7.36654 0.0
0.0 0.0 7.39039
%ENDBLOCK LATTICE_CART

%BLOCK POSITIONS_FRAC
P          -0.000000000000000    0.000000000000000    0.312190000000000 
P          -0.000000000000000    0.000000000000000    0.614395000000000 
P           0.333333000000000    0.666667000000000    0.295233000000000 
P           0.470922000000000    0.153834000000000    0.540466000000000 
P           0.666666000000000    0.333334000000000    0.811673000000000 
P           0.682912000000000    0.529078000000000    0.540466000000000 
P           0.846166000000000    0.317088000000000    0.540466000000000 
K           0.187764000000000    0.774438000000000    0.841831000000000 
K           0.225562000000000    0.413327000000000    0.841831000000000 
K           0.388250000000000    0.379190000000000    0.597670000000000 
K           0.586673000000000    0.812236000000000    0.841831000000000 
K           0.620810000000000    0.009060000000000    0.597670000000000 
K           0.990940000000000    0.611750000000000    0.597670000000000 
%ENDBLOCK POSITIONS_FRAC
