# Cell file generated by matador (Matthew Evans 2016)

%BLOCK LATTICE_CART
6.93824 0.0 0.0
0.0 7.49744 0.0
-0.977774 0.0 8.03311
%ENDBLOCK LATTICE_CART

%BLOCK POSITIONS_FRAC
P           0.643808000000000    0.255890000000000    0.006714000000000 
P           0.643808000000000    0.744110000000000    0.006714000000000 
P           0.929441000000000    0.153981000000000    0.681729000000000 
P           0.929441000000000    0.846019000000000    0.681729000000000 
K           0.247125000000000    0.500000000000000    0.770602000000000 
K           0.287970000000000    0.500000000000000    0.127896000000000 
K           0.288516000000000    0.000000000000000    0.244195000000000 
K           0.401062000000000    0.000000000000000    0.586240000000000 
K           0.418835000000000    0.500000000000000    0.446696000000000 
K           0.607591000000000    0.000000000000000    0.921379000000000 
K           0.911843000000000    0.500000000000000    0.743842000000000 
K           0.919843000000000    0.000000000000000    0.980722000000000 
%ENDBLOCK POSITIONS_FRAC
