# Cell file generated by matador (Matthew Evans 2016)

%BLOCK LATTICE_CART
6.39467 0.0 0.0
-3.19734 5.53795 0.0
0.0 0.0 6.88466
%ENDBLOCK LATTICE_CART

%BLOCK POSITIONS_FRAC
P           0.000000000000000    0.000000000000000    0.434105000000000 
K           0.000000000000000    0.000000000000000    0.024907000000000 
K           0.333333000000000    0.666667000000000    0.850491000000000 
K           0.454759000000000    0.409762000000000    0.660455000000000 
K           0.590238000000000    0.044997000000000    0.660455000000000 
K           0.955003000000000    0.545241000000000    0.660455000000000 
%ENDBLOCK POSITIONS_FRAC
