# Cell file generated by matador (Matthew Evans 2016)

%BLOCK LATTICE_CART
4.81908 0.0 0.0
0.0 4.81908 0.0
0.0 0.0 8.91129
%ENDBLOCK LATTICE_CART

%BLOCK POSITIONS_FRAC
P           0.000000000000000    0.500000000000000    0.756245000000000 
P           0.132310000000000    0.172478000000000    0.665883000000000 
P           0.172478000000000    0.867690000000000    0.665883000000000 
P           0.500000000000000    0.000000000000000    0.756245000000000 
P           0.827522000000000    0.132310000000000    0.665883000000000 
P           0.867690000000000    0.827522000000000    0.665883000000000 
K           0.000000000000000    0.000000000000000    0.375406000000000 
K           0.500000000000000    0.500000000000000    0.417076000000000 
%ENDBLOCK POSITIONS_FRAC
