# Cell file generated by matador (Matthew Evans 2016)

%BLOCK LATTICE_CART
8.47356 0.0 0.0
-4.23678 7.33831 0.0
0.0 0.0 6.31788
%ENDBLOCK LATTICE_CART

%BLOCK POSITIONS_FRAC
P           0.000000000000000   -0.000000000000000    0.091719000000000 
P           0.000000000000000   -0.000000000000000    0.250000000000000 
P           0.000000000000000   -0.000000000000000    0.408281000000000 
P           0.000000000000000   -0.000000000000000    0.591719000000000 
P           0.000000000000000   -0.000000000000000    0.750000000000000 
P           0.000000000000000   -0.000000000000000    0.908281000000000 
P           0.333334000000000    0.666666000000000    0.000000000000000 
P           0.333334000000000    0.666666000000000    0.250000000000000 
P           0.333334000000000    0.666666000000000    0.500000000000000 
P           0.333334000000000    0.666666000000000    0.750000000000000 
K           0.666667000000000    0.333333000000000    0.250000000000000 
K           0.666667000000000    0.333333000000000    0.750000000000000 
%ENDBLOCK POSITIONS_FRAC
