# Cell file generated by matador (Matthew Evans 2016)

%BLOCK LATTICE_CART
6.25024 0.0 0.0
-3.12512 5.41287 0.0
0.0 0.0 7.25291
%ENDBLOCK LATTICE_CART

%BLOCK POSITIONS_FRAC
P           0.000000000000000    0.000000000000000    0.083426000000000 
P           0.000000000000000    0.000000000000000    0.542391000000000 
P           0.162797000000000    0.655843000000000    0.234599000000000 
P           0.333333000000000    0.666667000000000    0.020779000000000 
P           0.344157000000000    0.506954000000000    0.234599000000000 
P           0.493046000000000    0.837203000000000    0.234599000000000 
P           0.666667000000000    0.333333000000000    0.434244000000000 
P           0.666667000000000    0.333333000000000    0.624634000000000 
P           0.666667000000000    0.333333000000000    0.797933000000000 
K           0.255692000000000    0.061573000000000    0.876464000000000 
K           0.805881000000000    0.744308000000000    0.876464000000000 
K           0.938427000000000    0.194119000000000    0.876464000000000 
%ENDBLOCK POSITIONS_FRAC
