# Cell file generated by matador (Matthew Evans 2016)

%BLOCK LATTICE_CART
7.35606 0.0 0.0
-3.67803 6.37053 0.0
0.0 0.0 9.09012
%ENDBLOCK LATTICE_CART

%BLOCK POSITIONS_FRAC
P           0.000000000000000    0.000000000000000    0.699188000000000 
P           0.333333000000000    0.666667000000000    0.365855000000000 
P           0.666667000000000    0.333333000000000    0.032521000000000 
K           0.190472000000000    0.380944000000000    0.869856000000000 
K           0.190472000000000    0.809528000000000    0.869856000000000 
K           0.285723000000000    0.142862000000000    0.203189000000000 
K           0.523805000000000    0.047610000000000    0.536523000000000 
K           0.523805000000000    0.476195000000000    0.536523000000000 
K           0.619056000000000    0.809528000000000    0.869856000000000 
K           0.857138000000000    0.142862000000000    0.203189000000000 
K           0.857138000000000    0.714277000000000    0.203189000000000 
K           0.952390000000000    0.476195000000000    0.536523000000000 
%ENDBLOCK POSITIONS_FRAC
