# Cell file generated by matador (Matthew Evans 2016)

%BLOCK LATTICE_CART
7.79601 0.0 0.0
-3.898 6.75154 0.0
0.0 0.0 8.99037
%ENDBLOCK LATTICE_CART

%BLOCK POSITIONS_FRAC
P           0.000000000000000    0.140247000000000    0.500000000000000 
P           0.000000000000000    0.256542000000000    0.000000000000000 
P           0.000000000000000    0.743458000000000    0.000000000000000 
P           0.000000000000000    0.859753000000000    0.500000000000000 
P           0.140247000000000    0.000000000000000    0.500000000000000 
P           0.140247000000000    0.140247000000000    0.500000000000000 
P           0.256542000000000    0.000000000000000    0.000000000000000 
P           0.256542000000000    0.256542000000000    0.000000000000000 
P           0.743458000000000    0.000000000000000    0.000000000000000 
P           0.743458000000000    0.743458000000000    0.000000000000000 
P           0.859753000000000    0.000000000000000    0.500000000000000 
P           0.859753000000000    0.859753000000000    0.500000000000000 
K           0.000000000000000    0.000000000000000    0.000000000000000 
K           0.333333000000000    0.666667000000000    0.802048000000000 
K           0.666667000000000    0.333333000000000    0.197952000000000 
%ENDBLOCK POSITIONS_FRAC
