# Cell file generated by matador (Matthew Evans 2016)

%BLOCK LATTICE_CART
9.03665 0.0 0.0
-4.51833 7.82597 0.0
0.0 0.0 5.70189
%ENDBLOCK LATTICE_CART

%BLOCK POSITIONS_FRAC
P           0.333333000000000    0.666667000000000    0.630458000000000 
P           0.666666000000000    0.333334000000000    0.630458000000000 
K          -0.000000000000000    0.167718000000000    0.242800000000000 
K          -0.000000000000000    0.568171000000000    0.270437000000000 
K           0.145942000000000    0.823319000000000    0.640694000000000 
K           0.167718000000000    0.000000000000000    0.242800000000000 
K           0.176681000000000    0.322623000000000    0.640694000000000 
K           0.322623000000000    0.176681000000000    0.640694000000000 
K           0.431829000000000    0.431829000000000    0.270437000000000 
K           0.568171000000000    0.000000000000000    0.270437000000000 
K           0.677377000000000    0.854058000000000    0.640694000000000 
K           0.823319000000000    0.145942000000000    0.640694000000000 
K           0.832282000000000    0.832282000000000    0.242800000000000 
K           0.854058000000000    0.677377000000000    0.640694000000000 
%ENDBLOCK POSITIONS_FRAC
