# Cell file generated by matador (Matthew Evans 2016)

%BLOCK LATTICE_CART
8.35301 0.0 0.0
-4.17651 7.23392 0.0
0.0 0.0 8.68881
%ENDBLOCK LATTICE_CART

%BLOCK POSITIONS_FRAC
P           0.000001000000000    0.000001000000000    0.385123000000000 
P           0.000001000000000    0.000001000000000    0.885123000000000 
P           0.113970000000000    0.556985000000000    0.215650000000000 
P           0.333334000000000    0.666668000000000    0.496697000000000 
P           0.443017000000000    0.556985000000000    0.215650000000000 
P           0.443017000000000    0.886032000000000    0.215650000000000 
P           0.556985000000000    0.113970000000000    0.715650000000000 
P           0.556985000000000    0.443017000000000    0.715650000000000 
P           0.666668000000000    0.333334000000000    0.996697000000000 
P           0.886032000000000    0.443017000000000    0.715650000000000 
K           0.162015000000000    0.324028000000000    0.321892000000000 
K           0.162015000000000    0.837987000000000    0.321892000000000 
K           0.324028000000000    0.162015000000000    0.821892000000000 
K           0.333334000000000    0.666668000000000    0.832209000000000 
K           0.666668000000000    0.333334000000000    0.332209000000000 
K           0.675974000000000    0.837987000000000    0.321892000000000 
K           0.837987000000000    0.162015000000000    0.821892000000000 
K           0.837987000000000    0.675974000000000    0.821892000000000 
%ENDBLOCK POSITIONS_FRAC
