# Cell file generated by matador (Matthew Evans 2016)

%BLOCK LATTICE_CART
4.1074 0.0 0.0
0.0 6.78492 0.0
4.22582 0.0 7.32243
%ENDBLOCK LATTICE_CART

%BLOCK POSITIONS_FRAC
P           0.302111000000000    0.969711000000000    0.331996000000000 
P           0.358631000000000    0.711083000000000    0.540653000000000 
P           0.641369000000000    0.711083000000000    0.459347000000000 
P           0.697889000000000    0.969711000000000    0.668004000000000 
K           0.000000000000000    0.212175000000000    0.000000000000000 
K           0.196091000000000    0.341492000000000    0.365367000000000 
K           0.803909000000000    0.341492000000000    0.634633000000000 
%ENDBLOCK POSITIONS_FRAC
