# Cell file generated by matador (Matthew Evans 2016)

%BLOCK LATTICE_CART
5.35471 0.0 0.0
0.0 7.00315 0.0
-2.00193 0.0 4.68532
%ENDBLOCK LATTICE_CART

%BLOCK POSITIONS_FRAC
P           0.000000000000000    0.408130000000000    0.000000000000000 
P           0.000000000000000    0.948588000000000    0.000000000000000 
P           0.263332000000000    0.989946000000000    0.797495000000000 
P           0.500000000000000    0.545234000000000    0.500000000000000 
P           0.500000000000000    0.923395000000000    0.000000000000000 
P           0.736668000000000    0.989946000000000    0.202505000000000 
K           0.500000000000000    0.502685000000000    0.000000000000000 
%ENDBLOCK POSITIONS_FRAC
