# Cell file generated by matador (Matthew Evans 2016)

%BLOCK LATTICE_CART
7.42352 0.0 0.0
-3.71176 6.42896 0.0
0.0 0.0 6.93796
%ENDBLOCK LATTICE_CART

%BLOCK POSITIONS_FRAC
P           0.333332000000000    0.666668000000000    0.000000000000000 
P           0.666666000000000    0.333334000000000    0.000000000000000 
K           0.999999000000000    0.621984000000000    0.274885000000000 
K           0.999999000000000    0.621984000000000    0.725115000000000 
K           0.378016000000000    0.378018000000000    0.274885000000000 
K           0.378016000000000    0.378018000000000    0.725115000000000 
K           0.621982000000000    0.000001000000000    0.274885000000000 
K           0.621982000000000    0.000001000000000    0.725115000000000 
%ENDBLOCK POSITIONS_FRAC
