# Cell file generated by matador (Matthew Evans 2016)

%BLOCK LATTICE_CART
7.49925 0.0 0.0
-3.74962 6.49454 0.0
0.0 0.0 9.23096
%ENDBLOCK LATTICE_CART

%BLOCK POSITIONS_FRAC
P           0.333332000000000    0.666666000000000    0.114139000000000 
P           0.333332000000000    0.666666000000000    0.250000000000000 
P           0.333332000000000    0.666666000000000    0.385861000000000 
P           0.666666000000000    0.333332000000000    0.614139000000000 
P           0.666666000000000    0.333332000000000    0.750000000000000 
P           0.666666000000000    0.333332000000000    0.885861000000000 
K           0.999999000000000    0.999999000000000    0.250000000000000 
K           0.999999000000000    0.999999000000000    0.750000000000000 
K           0.999999000000000    0.499999000000000    0.000000000000000 
K           0.999999000000000    0.499999000000000    0.500000000000000 
K           0.333332000000000    0.666666000000000    0.750000000000000 
K           0.499999000000000    0.999999000000000    0.000000000000000 
K           0.499999000000000    0.999999000000000    0.500000000000000 
K           0.499999000000000    0.499999000000000    0.000000000000000 
K           0.499999000000000    0.499999000000000    0.500000000000000 
K           0.666666000000000    0.333332000000000    0.250000000000000 
%ENDBLOCK POSITIONS_FRAC
