# Cell file generated by matador (Matthew Evans 2016)

%BLOCK LATTICE_CART
6.21232 0.0 0.0
-3.10616 5.38003 0.0
0.0 0.0 7.49195
%ENDBLOCK LATTICE_CART

%BLOCK POSITIONS_FRAC
P          -0.000000000000000    0.000000000000000    0.000000000000000 
P          -0.000000000000000    0.500000000000000    0.000000000000000 
P          -0.000000000000000    0.500000000000000    0.500000000000000 
P           0.500000000000000    0.000000000000000    0.000000000000000 
P           0.500000000000000    0.000000000000000    0.500000000000000 
P           0.500000000000000    0.500000000000000    0.000000000000000 
P           0.500000000000000    0.500000000000000    0.500000000000000 
K           0.333333000000000    0.666667000000000    0.812995000000000 
K           0.666666000000000    0.333334000000000    0.187005000000000 
%ENDBLOCK POSITIONS_FRAC
