# Cell file generated by matador (Matthew Evans 2016)

%BLOCK LATTICE_CART
8.91082 0.0 0.0
-4.45541 7.71699 0.0
0.0 0.0 4.12159
%ENDBLOCK LATTICE_CART

%BLOCK POSITIONS_FRAC
P           0.290176000000000    0.645088000000000    0.500000000000000 
P           0.354912000000000    0.645088000000000    0.166667000000000 
P           0.354912000000000    0.709824000000000    0.833333000000000 
K           0.079323000000000    0.158646000000000    0.833333000000000 
K           0.079323000000000    0.920677000000000    0.166667000000000 
K           0.611191000000000    0.222382000000000    0.833333000000000 
K           0.611191000000000    0.388809000000000    0.166667000000000 
K           0.777618000000000    0.388809000000000    0.500000000000000 
K           0.841354000000000    0.920677000000000    0.500000000000000 
%ENDBLOCK POSITIONS_FRAC
