# Cell file generated by matador (Matthew Evans 2016)

%BLOCK LATTICE_CART
6.20518 0.0 0.0
0.0 8.98738 0.0
0.0 0.0 5.44111
%ENDBLOCK LATTICE_CART

%BLOCK POSITIONS_FRAC
P           0.000000000000000    0.003548000000000    0.050942000000000 
P           0.000000000000000    0.378782000000000    0.149803000000000 
P           0.000000000000000    0.621218000000000    0.649803000000000 
P           0.000000000000000    0.996452000000000    0.550942000000000 
P           0.500000000000000    0.376897000000000    0.358431000000000 
P           0.500000000000000    0.623103000000000    0.858431000000000 
K           0.324312000000000    0.287753000000000    0.007529000000000 
K           0.324312000000000    0.712247000000000    0.507529000000000 
K           0.675688000000000    0.287753000000000    0.007529000000000 
K           0.675688000000000    0.712247000000000    0.507529000000000 
%ENDBLOCK POSITIONS_FRAC
