# Cell file generated by matador (Matthew Evans 2016)

%BLOCK LATTICE_CART
5.33067 0.0 0.0
-3.3293 6.67104 0.0
-3.7077 -1.15521 7.58628
%ENDBLOCK LATTICE_CART

%BLOCK POSITIONS_FRAC
P           0.153106000000000    0.770102000000000    0.386831000000000 
P           0.369518000000000    0.499511000000000    0.610930000000000 
P           0.500000000000000    0.000000000000000    0.500000000000000 
P           0.500000000000000    0.500000000000000    0.500000000000000 
P           0.630482000000000    0.500489000000000    0.389070000000000 
P           0.846894000000000    0.229898000000000    0.613169000000000 
K           0.000000000000000    0.000000000000000    0.000000000000000 
K           0.000000000000000    0.000000000000000    0.500000000000000 
K           0.500000000000000    0.500000000000000    0.000000000000000 
%ENDBLOCK POSITIONS_FRAC
