# Cell file generated by matador (Matthew Evans 2016)

%BLOCK LATTICE_CART
6.23493 0.0 0.0
0.0 6.23493 0.0
0.0 0.0 8.53564
%ENDBLOCK LATTICE_CART

%BLOCK POSITIONS_FRAC
P           0.000000000000000    0.500000000000000    0.400276000000000 
P           0.500000000000000    0.000000000000000    0.400276000000000 
K           0.000000000000000    0.000000000000000    0.298640000000000 
K           0.240935000000000    0.240935000000000    0.634654000000000 
K           0.240935000000000    0.759065000000000    0.634654000000000 
K           0.500000000000000    0.500000000000000    0.283100000000000 
K           0.759065000000000    0.240935000000000    0.634654000000000 
K           0.759065000000000    0.759065000000000    0.634654000000000 
%ENDBLOCK POSITIONS_FRAC
