# Cell file generated by matador (Matthew Evans 2016)

%BLOCK LATTICE_CART
6.29302 0.0 0.0
-3.14651 5.44992 0.0
0.0 0.0 8.20357
%ENDBLOCK LATTICE_CART

%BLOCK POSITIONS_FRAC
P          -0.000000000000000    0.000000000000000    0.656732000000000 
P          -0.000000000000000    0.000000000000000    0.885595000000000 
P           0.172107000000000    0.147489000000000    0.096572000000000 
P           0.333333000000000    0.666667000000000    0.399913000000000 
P           0.333333000000000    0.666667000000000    0.550633000000000 
P           0.333333000000000    0.666667000000000    0.894588000000000 
P           0.666666000000000    0.333334000000000    0.834894000000000 
P           0.852511000000000    0.024618000000000    0.096572000000000 
P           0.975382000000000    0.827893000000000    0.096572000000000 
K           0.489895000000000    0.466716000000000    0.290498000000000 
K           0.533284000000000    0.023180000000000    0.290498000000000 
K           0.976820000000000    0.510105000000000    0.290498000000000 
%ENDBLOCK POSITIONS_FRAC
