# Cell file generated by matador (Matthew Evans 2016)

%BLOCK LATTICE_CART
9.26092 0.0 0.0
-4.63046 8.02019 0.0
0.0 0.0 9.42329
%ENDBLOCK LATTICE_CART

%BLOCK POSITIONS_FRAC
P           0.000000000000000    0.000000000000000    0.000000000000000 
P           0.000000000000000    0.000000000000000    0.500000000000000 
P           0.333333000000000    0.666667000000000    0.750000000000000 
P           0.666667000000000    0.333333000000000    0.250000000000000 
K           0.091965000000000    0.509220000000000    0.250000000000000 
K           0.139278000000000    0.824824000000000    0.750000000000000 
K           0.175176000000000    0.314454000000000    0.750000000000000 
K           0.314454000000000    0.175176000000000    0.250000000000000 
K           0.417255000000000    0.908035000000000    0.250000000000000 
K           0.490780000000000    0.582745000000000    0.250000000000000 
K           0.509220000000000    0.091965000000000    0.750000000000000 
K           0.582745000000000    0.490780000000000    0.750000000000000 
K           0.685546000000000    0.860722000000000    0.750000000000000 
K           0.824824000000000    0.139278000000000    0.250000000000000 
K           0.860722000000000    0.685546000000000    0.250000000000000 
K           0.908035000000000    0.417255000000000    0.750000000000000 
%ENDBLOCK POSITIONS_FRAC
