# Cell file generated by matador (Matthew Evans 2016)

%BLOCK LATTICE_CART
8.03673 0.0 0.0
-4.01836 6.96001 0.0
0.0 0.0 9.31914
%ENDBLOCK LATTICE_CART

%BLOCK POSITIONS_FRAC
P           0.000000000000000    0.000000000000000    0.155961000000000 
P           0.000000000000000    0.000000000000000    0.655961000000000 
P           0.000000000000000    0.475870000000000    0.890403000000000 
P           0.000000000000000    0.524130000000000    0.390403000000000 
P           0.475870000000000    0.000000000000000    0.890403000000000 
P           0.475870000000000    0.475870000000000    0.390403000000000 
P           0.524130000000000    0.000000000000000    0.390403000000000 
P           0.524130000000000    0.524130000000000    0.890403000000000 
K           0.000000000000000    0.227429000000000    0.975206000000000 
K           0.000000000000000    0.772571000000000    0.475206000000000 
K           0.227429000000000    0.000000000000000    0.975206000000000 
K           0.227429000000000    0.227429000000000    0.475206000000000 
K           0.333333000000000    0.666667000000000    0.213314000000000 
K           0.333333000000000    0.666667000000000    0.713314000000000 
K           0.666667000000000    0.333333000000000    0.213314000000000 
K           0.666667000000000    0.333333000000000    0.713314000000000 
K           0.772571000000000    0.000000000000000    0.475206000000000 
K           0.772571000000000    0.772571000000000    0.975206000000000 
%ENDBLOCK POSITIONS_FRAC
