# Cell file generated by matador (Matthew Evans 2016)

%BLOCK LATTICE_CART
6.74313 0.0 0.0
-3.37157 5.83972 0.0
0.0 0.0 4.94235
%ENDBLOCK LATTICE_CART

%BLOCK POSITIONS_FRAC
P           0.000000000000000    0.296598000000000    0.500000000000000 
P           0.296598000000000    0.000000000000000    0.500000000000000 
P           0.333333000000000    0.666667000000000    0.000000000000000 
P           0.333333000000000    0.666667000000000    0.500000000000000 
P           0.666667000000000    0.333333000000000    0.000000000000000 
P           0.666667000000000    0.333333000000000    0.500000000000000 
P           0.703402000000000    0.703402000000000    0.500000000000000 
K           0.000000000000000    0.000000000000000    0.500000000000000 
%ENDBLOCK POSITIONS_FRAC
