# Cell file generated by matador (Matthew Evans 2016)

%BLOCK LATTICE_CART
9.54671 -0.0 0.0
-4.77335 8.26769 0.0
0.0 0.0 7.40618
%ENDBLOCK LATTICE_CART

%BLOCK POSITIONS_FRAC
P           0.000000000000000    0.000000000000000    0.101974000000000 
P           0.000000000000000    0.000000000000000    0.505482000000000 
P           0.000000000000000    0.000000000000000    0.876000000000000 
P           0.333333000000000    0.666667000000000    0.172148000000000 
P           0.333333000000000    0.666667000000000    0.542667000000000 
P           0.333333000000000    0.666667000000000    0.768641000000000 
P           0.666667000000000    0.333333000000000    0.209333000000000 
P           0.666667000000000    0.333333000000000    0.435307000000000 
P           0.666667000000000    0.333333000000000    0.838815000000000 
K           0.197212000000000    0.800969000000000    0.714357000000000 
K           0.199031000000000    0.396243000000000    0.714357000000000 
K           0.270423000000000    0.136121000000000    0.047690000000000 
K           0.530546000000000    0.467636000000000    0.381024000000000 
K           0.532364000000000    0.062910000000000    0.381024000000000 
K           0.603757000000000    0.802788000000000    0.714357000000000 
K           0.863879000000000    0.134302000000000    0.047690000000000 
K           0.865698000000000    0.729577000000000    0.047690000000000 
K           0.937090000000000    0.469454000000000    0.381024000000000 
%ENDBLOCK POSITIONS_FRAC
