# Cell file generated by matador (Matthew Evans 2016)

%BLOCK LATTICE_CART
6.33889 0.0 0.0
0.0 5.95837 0.0
0.0 0.0 6.54953
%ENDBLOCK LATTICE_CART

%BLOCK POSITIONS_FRAC
P           0.000000000000000   -0.000000000000000    0.943162000000000 
P           0.000000000000000    0.189557000000000    0.610970000000000 
P           0.000000000000000    0.500000000000000    0.021345000000000 
P           0.000000000000000    0.810443000000000    0.610970000000000 
P           0.500000000000000   -0.000000000000000    0.298927000000000 
P           0.500000000000000    0.394544000000000    0.190046000000000 
P           0.500000000000000    0.605456000000000    0.190046000000000 
K           0.000000000000000    0.216618000000000    0.292044000000000 
K           0.000000000000000    0.783382000000000    0.292044000000000 
K           0.500000000000000    0.186568000000000    0.609642000000000 
K           0.500000000000000    0.813432000000000    0.609642000000000 
%ENDBLOCK POSITIONS_FRAC
