# Cell file generated by matador (Matthew Evans 2016)

%BLOCK LATTICE_CART
10.831 0.0 0.0
-5.41552 9.37996 0.0
0.0 0.0 6.66166
%ENDBLOCK LATTICE_CART

%BLOCK POSITIONS_FRAC
P           0.000000000000000    0.000000000000000    0.000000000000000 
P           0.000000000000000    0.095492000000000    0.000000000000000 
P           0.095492000000000    0.000000000000000    0.000000000000000 
P           0.904508000000000    0.904508000000000    0.000000000000000 
K           0.000000000000000    0.787566000000000    0.000000000000000 
K           0.000000000000000    0.887625000000000    0.500000000000000 
K           0.112375000000000    0.112375000000000    0.500000000000000 
K           0.195143000000000    0.722082000000000    0.539340000000000 
K           0.212434000000000    0.212434000000000    0.000000000000000 
K           0.277918000000000    0.473061000000000    0.539340000000000 
K           0.333333000000000    0.666667000000000    0.651808000000000 
K           0.473061000000000    0.277918000000000    0.460660000000000 
K           0.526939000000000    0.804857000000000    0.539340000000000 
K           0.666667000000000    0.333333000000000    0.348192000000000 
K           0.722082000000000    0.195143000000000    0.460660000000000 
K           0.787566000000000    0.000000000000000    0.000000000000000 
K           0.804857000000000    0.526939000000000    0.460660000000000 
K           0.887625000000000    0.000000000000000    0.500000000000000 
%ENDBLOCK POSITIONS_FRAC
