# Cell file generated by matador (Matthew Evans 2016)

%BLOCK LATTICE_CART
9.39873 0.0 0.0
-4.69937 8.13954 0.0
0.0 0.0 14.5165
%ENDBLOCK LATTICE_CART

%BLOCK POSITIONS_FRAC
P           0.000000000000000    0.000000000000000    0.592768000000000 
P           0.173455000000000    0.346909000000000    0.072867000000000 
P           0.173455000000000    0.826545000000000    0.072867000000000 
P           0.523303000000000    0.261651000000000    0.204862000000000 
P           0.653091000000000    0.826545000000000    0.072867000000000 
P           0.738349000000000    0.261651000000000    0.204862000000000 
P           0.738349000000000    0.476697000000000    0.204862000000000 
K           0.000000000000000    0.000000000000000    0.101751000000000 
K           0.073629000000000    0.536814000000000    0.157188000000000 
K           0.081229000000000    0.540614000000000    0.679421000000000 
K           0.183975000000000    0.367951000000000    0.448490000000000 
K           0.183975000000000    0.816025000000000    0.448490000000000 
K           0.260365000000000    0.130182000000000    0.262677000000000 
K           0.333333000000000    0.666667000000000    0.871302000000000 
K           0.427767000000000    0.213883000000000    0.628718000000000 
K           0.459386000000000    0.540614000000000    0.679421000000000 
K           0.459386000000000    0.918771000000000    0.679421000000000 
K           0.463186000000000    0.536814000000000    0.157188000000000 
K           0.463186000000000    0.926371000000000    0.157188000000000 
K           0.535195000000000    0.070390000000000    0.953364000000000 
K           0.535195000000000    0.464805000000000    0.953364000000000 
K           0.632049000000000    0.816025000000000    0.448490000000000 
K           0.666667000000000    0.333333000000000    0.321836000000000 
K           0.786117000000000    0.213883000000000    0.628718000000000 
K           0.786117000000000    0.572233000000000    0.628718000000000 
K           0.869818000000000    0.130182000000000    0.262677000000000 
K           0.869818000000000    0.739635000000000    0.262677000000000 
K           0.929610000000000    0.464805000000000    0.953364000000000 
%ENDBLOCK POSITIONS_FRAC
