# Cell file generated by matador (Matthew Evans 2016)

%BLOCK LATTICE_CART
8.42063 0.0 0.0
0.0 4.55262 0.0
0.0 0.0 13.4815
%ENDBLOCK LATTICE_CART

%BLOCK POSITIONS_FRAC
P           0.114823000000000    0.079259000000000    0.750000000000000 
P           0.114823000000000    0.420741000000000    0.250000000000000 
P           0.500000000000000    0.000000000000000    0.000000000000000 
P           0.500000000000000    0.000000000000000    0.500000000000000 
P           0.500000000000000    0.500000000000000    0.000000000000000 
P           0.500000000000000    0.500000000000000    0.500000000000000 
P           0.885177000000000    0.579259000000000    0.750000000000000 
P           0.885177000000000    0.920741000000000    0.250000000000000 
K           0.282480000000000    0.743629000000000    0.153341000000000 
K           0.282480000000000    0.743629000000000    0.346659000000000 
K           0.282480000000000    0.756371000000000    0.653341000000000 
K           0.282480000000000    0.756371000000000    0.846659000000000 
K           0.483465000000000    0.558179000000000    0.750000000000000 
K           0.483465000000000    0.941821000000000    0.250000000000000 
K           0.516535000000000    0.058179000000000    0.750000000000000 
K           0.516535000000000    0.441821000000000    0.250000000000000 
K           0.717520000000000    0.243629000000000    0.153341000000000 
K           0.717520000000000    0.243629000000000    0.346659000000000 
K           0.717520000000000    0.256371000000000    0.653341000000000 
K           0.717520000000000    0.256371000000000    0.846659000000000 
%ENDBLOCK POSITIONS_FRAC
