# Cell file generated by matador (Matthew Evans 2016)

%BLOCK LATTICE_CART
8.89982 0.0 0.0
0.0 6.86505 0.0
1.2351 0.0 6.39474
%ENDBLOCK LATTICE_CART

%BLOCK POSITIONS_FRAC
P           0.587354000000000    0.500000000000000    0.880532000000000 
P           0.728361000000000    0.000000000000000    0.912620000000000 
K           0.017463000000000    0.000000000000000    0.633072000000000 
K           0.025690000000000    0.500000000000000    0.837750000000000 
K           0.171909000000000    0.000000000000000    0.887595000000000 
K           0.475766000000000    0.000000000000000    0.927871000000000 
K           0.520219000000000    0.000000000000000    0.562896000000000 
K           0.524183000000000    0.500000000000000    0.373143000000000 
K           0.850952000000000    0.500000000000000    0.649756000000000 
%ENDBLOCK POSITIONS_FRAC
