# Cell file generated by matador (Matthew Evans 2016)

%BLOCK LATTICE_CART
9.38459 0.0 0.0
-4.6923 8.1273 0.0
0.0 0.0 7.33999
%ENDBLOCK LATTICE_CART

%BLOCK POSITIONS_FRAC
P           0.098524000000000    0.487299000000000    0.000000000000000 
P           0.098524000000000    0.611226000000000    0.000000000000000 
P           0.388776000000000    0.487299000000000    0.000000000000000 
P           0.388776000000000    0.901478000000000    0.000000000000000 
P           0.487299000000000    0.098524000000000    0.000000000000000 
P           0.487299000000000    0.388776000000000    0.000000000000000 
P           0.512703000000000    0.611226000000000    0.000000000000000 
P           0.512703000000000    0.901478000000000    0.000000000000000 
P           0.611226000000000    0.098524000000000    0.000000000000000 
P           0.611226000000000    0.512703000000000    0.000000000000000 
P           0.901478000000000    0.388776000000000    0.000000000000000 
P           0.901478000000000    0.512703000000000    0.000000000000000 
K           0.333334000000000    0.666668000000000    0.500000000000000 
K           0.666668000000000    0.333334000000000    0.500000000000000 
%ENDBLOCK POSITIONS_FRAC
