# Cell file generated by matador (Matthew Evans 2016)

%BLOCK LATTICE_CART
8.13424 0.0 0.0
0.0 8.13424 0.0
0.0 0.0 8.13424
%ENDBLOCK LATTICE_CART

%BLOCK POSITIONS_FRAC
P           0.000000000000000    0.254125000000000    0.500000000000000 
P           0.000000000000000    0.745875000000000    0.500000000000000 
P           0.227841000000000    0.227841000000000    0.227841000000000 
P           0.227841000000000    0.772159000000000    0.772159000000000 
P           0.254125000000000    0.500000000000000    0.000000000000000 
P           0.401025000000000    0.401025000000000    0.598975000000000 
P           0.401025000000000    0.598975000000000    0.401025000000000 
P           0.500000000000000    0.000000000000000    0.254125000000000 
P           0.500000000000000    0.000000000000000    0.745875000000000 
P           0.598975000000000    0.401025000000000    0.401025000000000 
P           0.598975000000000    0.598975000000000    0.598975000000000 
P           0.745875000000000    0.500000000000000    0.000000000000000 
P           0.772159000000000    0.227841000000000    0.772159000000000 
P           0.772159000000000    0.772159000000000    0.227841000000000 
K           0.000000000000000    0.000000000000000    0.500000000000000 
K           0.000000000000000    0.500000000000000    0.000000000000000 
K           0.000000000000000    0.500000000000000    0.500000000000000 
K           0.500000000000000    0.000000000000000    0.000000000000000 
K           0.500000000000000    0.000000000000000    0.500000000000000 
K           0.500000000000000    0.500000000000000    0.000000000000000 
%ENDBLOCK POSITIONS_FRAC
