# Cell file generated by matador (Matthew Evans 2016)

%BLOCK LATTICE_CART
8.83728 0.0 0.0
0.0 11.8951 0.0
0.0 0.0 10.8007
%ENDBLOCK LATTICE_CART

%BLOCK POSITIONS_FRAC
P           0.000000000000000    0.000000000000000    0.000000000000000 
P           0.000000000000000    0.000000000000000    0.500000000000000 
P           0.000000000000000    0.500000000000000    0.000000000000000 
P           0.000000000000000    0.500000000000000    0.500000000000000 
P           0.500000000000000    0.000000000000000    0.000000000000000 
P           0.500000000000000    0.000000000000000    0.500000000000000 
P           0.500000000000000    0.500000000000000    0.000000000000000 
P           0.500000000000000    0.500000000000000    0.500000000000000 
K           0.000000000000000    0.083451000000000    0.815934000000000 
K           0.000000000000000    0.192267000000000    0.183435000000000 
K           0.000000000000000    0.307733000000000    0.683435000000000 
K           0.000000000000000    0.416549000000000    0.315934000000000 
K           0.000000000000000    0.583451000000000    0.684066000000000 
K           0.000000000000000    0.692267000000000    0.316565000000000 
K           0.000000000000000    0.807733000000000    0.816565000000000 
K           0.000000000000000    0.916549000000000    0.184066000000000 
K           0.250000000000000    0.250000000000000    0.000000000000000 
K           0.250000000000000    0.250000000000000    0.500000000000000 
K           0.250000000000000    0.750000000000000    0.000000000000000 
K           0.250000000000000    0.750000000000000    0.500000000000000 
K           0.500000000000000    0.083451000000000    0.684066000000000 
K           0.500000000000000    0.192267000000000    0.316565000000000 
K           0.500000000000000    0.307733000000000    0.816565000000000 
K           0.500000000000000    0.416549000000000    0.184066000000000 
K           0.500000000000000    0.583451000000000    0.815934000000000 
K           0.500000000000000    0.692267000000000    0.183435000000000 
K           0.500000000000000    0.807733000000000    0.683435000000000 
K           0.500000000000000    0.916549000000000    0.315934000000000 
K           0.750000000000000    0.250000000000000    0.000000000000000 
K           0.750000000000000    0.250000000000000    0.500000000000000 
K           0.750000000000000    0.750000000000000    0.000000000000000 
K           0.750000000000000    0.750000000000000    0.500000000000000 
%ENDBLOCK POSITIONS_FRAC
