# Cell file generated by matador (Matthew Evans 2016)

%BLOCK LATTICE_CART
7.28244 0.0 0.0
-3.64122 6.30678 0.0
0.0 0.0 6.33246
%ENDBLOCK LATTICE_CART

%BLOCK POSITIONS_FRAC
P           0.253109000000000    0.126555000000000    0.319022000000000 
P           0.666666000000000    0.333334000000000    0.356040000000000 
P           0.666666000000000    0.333334000000000    0.615411000000000 
P           0.873445000000000    0.126555000000000    0.319022000000000 
P           0.873445000000000    0.746891000000000    0.319022000000000 
K           0.101732000000000    0.203466000000000    0.741430000000000 
K           0.101732000000000    0.898268000000000    0.741430000000000 
K           0.112379000000000    0.556190000000000    0.256053000000000 
K           0.333333000000000    0.666667000000000    0.846055000000000 
K           0.443810000000000    0.556190000000000    0.256053000000000 
K           0.443810000000000    0.887621000000000    0.256053000000000 
K           0.796534000000000    0.898268000000000    0.741430000000000 
%ENDBLOCK POSITIONS_FRAC
