# Cell file generated by matador (Matthew Evans 2016)

%BLOCK LATTICE_CART
7.97842 0.0 0.0
-3.98921 6.90951 0.0
0.0 0.0 9.46034
%ENDBLOCK LATTICE_CART

%BLOCK POSITIONS_FRAC
P          -0.000000000000000    0.236056000000000    0.923927000000000 
P          -0.000000000000000    0.763944000000000    0.423927000000000 
P           0.236056000000000   -0.000000000000000    0.923927000000000 
P           0.236056000000000    0.236056000000000    0.423927000000000 
P           0.763944000000000   -0.000000000000000    0.423927000000000 
P           0.763944000000000    0.763944000000000    0.923927000000000 
K          -0.000000000000000    0.487371000000000    0.823746000000000 
K          -0.000000000000000    0.512629000000000    0.323746000000000 
K           0.333333000000000    0.666667000000000    0.480003000000000 
K           0.333333000000000    0.666667000000000    0.980003000000000 
K           0.487371000000000   -0.000000000000000    0.823746000000000 
K           0.487371000000000    0.487371000000000    0.323746000000000 
K           0.512629000000000   -0.000000000000000    0.323746000000000 
K           0.512629000000000    0.512629000000000    0.823746000000000 
K           0.666667000000000    0.333333000000000    0.480003000000000 
K           0.666667000000000    0.333333000000000    0.980003000000000 
%ENDBLOCK POSITIONS_FRAC
