# Cell file generated by matador (Matthew Evans 2016)

%BLOCK LATTICE_CART
6.8129 0.0 0.0
-3.40645 5.90014 0.0
0.0 0.0 5.43157
%ENDBLOCK LATTICE_CART

%BLOCK POSITIONS_FRAC
P           0.333333000000000    0.666667000000000    0.899746000000000 
K          -0.000000000000000    0.000000000000000    0.226511000000000 
K           0.143953000000000    0.419141000000000    0.413498000000000 
K           0.275188000000000    0.856047000000000    0.413498000000000 
K           0.580859000000000    0.724812000000000    0.413498000000000 
%ENDBLOCK POSITIONS_FRAC
