# Cell file generated by matador (Matthew Evans 2016)

%BLOCK LATTICE_CART
5.32976 0.0 0.0
0.0 5.32976 0.0
0.0 0.0 5.72268
%ENDBLOCK LATTICE_CART

%BLOCK POSITIONS_FRAC
P           0.000000000000000    0.500000000000000    0.357776000000000 
P           0.500000000000000    0.000000000000000    0.857776000000000 
K           0.254674000000000    0.500000000000000    0.772692000000000 
K           0.500000000000000    0.254674000000000    0.272692000000000 
K           0.500000000000000    0.745326000000000    0.272692000000000 
K           0.745326000000000    0.500000000000000    0.772692000000000 
%ENDBLOCK POSITIONS_FRAC
