# Cell file generated by matador (Matthew Evans 2016)

%BLOCK LATTICE_CART
7.86533 0.0 0.0
0.0 7.86533 0.0
0.0 0.0 8.47561
%ENDBLOCK LATTICE_CART

%BLOCK POSITIONS_FRAC
P           0.000000000000000    0.000000000000000    0.250000000000000 
P           0.000000000000000    0.000000000000000    0.750000000000000 
P           0.000000000000000    0.104447000000000    0.180012000000000 
P           0.000000000000000    0.104447000000000    0.819988000000000 
P           0.000000000000000    0.895553000000000    0.180012000000000 
P           0.000000000000000    0.895553000000000    0.819988000000000 
P           0.104447000000000    0.000000000000000    0.319988000000000 
P           0.104447000000000    0.000000000000000    0.680012000000000 
P           0.895553000000000    0.000000000000000    0.319988000000000 
P           0.895553000000000    0.000000000000000    0.680012000000000 
K           0.000000000000000    0.500000000000000    0.500000000000000 
K           0.500000000000000    0.000000000000000    0.000000000000000 
K           0.500000000000000    0.500000000000000    0.000000000000000 
K           0.500000000000000    0.500000000000000    0.500000000000000 
%ENDBLOCK POSITIONS_FRAC
