# Cell file generated by matador (Matthew Evans 2016)

%BLOCK LATTICE_CART
6.02481 0.0 0.0
0.0 5.89711 0.0
2.58596 0.0 6.77632
%ENDBLOCK LATTICE_CART

%BLOCK POSITIONS_FRAC
P          -0.000000000000000    0.000000000000000    0.000000000000000 
P          -0.000000000000000    0.099649000000000    0.500000000000000 
P          -0.000000000000000    0.900351000000000    0.500000000000000 
P           0.465290000000000    0.500000000000000    0.863091000000000 
P           0.500000000000000    0.000000000000000    0.000000000000000 
P           0.500000000000000    0.000000000000000    0.500000000000000 
P           0.500000000000000    0.500000000000000    0.500000000000000 
P           0.534710000000000    0.500000000000000    0.136909000000000 
K           0.158413000000000    0.500000000000000    0.678070000000000 
K           0.841587000000000    0.500000000000000    0.321930000000000 
%ENDBLOCK POSITIONS_FRAC
