# Cell file generated by matador (Matthew Evans 2016)

%BLOCK LATTICE_CART
7.48972 0.0 0.0
0.0 7.48972 0.0
0.0 0.0 7.98315
%ENDBLOCK LATTICE_CART

%BLOCK POSITIONS_FRAC
P           0.000000000000000    0.000000000000000    0.251172000000000 
P           0.000000000000000    0.000000000000000    0.748828000000000 
P           0.000000000000000    0.500000000000000    0.092689000000000 
P           0.000000000000000    0.500000000000000    0.501390000000000 
P           0.000000000000000    0.500000000000000    0.852530000000000 
P           0.500000000000000    0.000000000000000    0.147470000000000 
P           0.500000000000000    0.000000000000000    0.498610000000000 
P           0.500000000000000    0.000000000000000    0.907311000000000 
P           0.500000000000000    0.500000000000000    0.252294000000000 
P           0.500000000000000    0.500000000000000    0.747706000000000 
K           0.000000000000000    0.000000000000000    0.500000000000000 
K           0.073337000000000    0.219727000000000    0.848854000000000 
K           0.219727000000000    0.926662000000000    0.151146000000000 
K           0.500000000000000    0.500000000000000    0.500000000000000 
K           0.780273000000000    0.073337000000000    0.151146000000000 
K           0.926663000000000    0.780273000000000    0.848854000000000 
%ENDBLOCK POSITIONS_FRAC
