# Cell file generated by matador (Matthew Evans 2016)

%BLOCK LATTICE_CART
9.49716 0.0 0.0
0.0 9.49716 0.0
0.0 0.0 10.216
%ENDBLOCK LATTICE_CART

%BLOCK POSITIONS_FRAC
P          -0.000000000000000   -0.000000000000000    0.000000000000000 
P          -0.000000000000000    0.500000000000000    0.000000000000000 
P          -0.000000000000000    0.500000000000000    0.500000000000000 
P           0.500000000000000   -0.000000000000000    0.000000000000000 
P           0.500000000000000   -0.000000000000000    0.500000000000000 
P           0.500000000000000    0.500000000000000    0.500000000000000 
K          -0.000000000000000   -0.000000000000000    0.500000000000000 
K           0.082513000000000    0.703328000000000    0.500000000000000 
K           0.082732000000000    0.291181000000000    0.000000000000000 
K           0.203328000000000    0.582513000000000    0.000000000000000 
K           0.208819000000000    0.417268000000000    0.500000000000000 
K           0.291181000000000    0.917268000000000    0.000000000000000 
K           0.296672000000000    0.082513000000000    0.500000000000000 
K           0.417268000000000    0.791181000000000    0.500000000000000 
K           0.417487000000000    0.203328000000000    0.000000000000000 
K           0.500000000000000    0.500000000000000    0.000000000000000 
K           0.582513000000000    0.796672000000000    0.000000000000000 
K           0.582732000000000    0.208819000000000    0.500000000000000 
K           0.703328000000000    0.917487000000000    0.500000000000000 
K           0.708819000000000    0.082732000000000    0.000000000000000 
K           0.791181000000000    0.582732000000000    0.500000000000000 
K           0.796672000000000    0.417487000000000    0.000000000000000 
K           0.917268000000000    0.708819000000000    0.000000000000000 
K           0.917487000000000    0.296672000000000    0.500000000000000 
%ENDBLOCK POSITIONS_FRAC
