# Cell file generated by matador (Matthew Evans 2016)

%BLOCK LATTICE_CART
8.03351 0.0 0.0
-4.01676 6.95723 0.0
0.0 0.0 8.79241
%ENDBLOCK LATTICE_CART

%BLOCK POSITIONS_FRAC
P           0.146068000000000    0.292135000000000    0.500000000000000 
P           0.146068000000000    0.853932000000000    0.500000000000000 
P           0.292135000000000    0.146068000000000    0.500000000000000 
P           0.333333000000000    0.666667000000000    0.267035000000000 
P           0.333333000000000    0.666667000000000    0.732965000000000 
P           0.666667000000000    0.333333000000000    0.267035000000000 
P           0.666667000000000    0.333333000000000    0.732965000000000 
P           0.707865000000000    0.853932000000000    0.500000000000000 
P           0.853932000000000    0.146068000000000    0.500000000000000 
P           0.853932000000000    0.707865000000000    0.500000000000000 
K           0.000000000000000    0.500000000000000    0.000000000000000 
K           0.000000000000000    0.500000000000000    0.500000000000000 
K           0.333333000000000    0.666667000000000    0.000000000000000 
K           0.500000000000000    0.000000000000000    0.000000000000000 
K           0.500000000000000    0.000000000000000    0.500000000000000 
K           0.500000000000000    0.500000000000000    0.000000000000000 
K           0.500000000000000    0.500000000000000    0.500000000000000 
K           0.666667000000000    0.333333000000000    0.000000000000000 
%ENDBLOCK POSITIONS_FRAC
