# Cell file generated by matador (Matthew Evans 2016)

%BLOCK LATTICE_CART
7.52927 0.0 0.0
-3.76463 6.52054 0.0
0.0 0.0 8.01559
%ENDBLOCK LATTICE_CART

%BLOCK POSITIONS_FRAC
P          -0.000000000000000    0.000000000000000    0.840464000000000 
P           0.107336000000000    0.381977000000000    0.685945000000000 
P           0.274641000000000    0.892664000000000    0.685945000000000 
P           0.284690000000000    0.058692000000000    0.019279000000000 
P           0.333333000000000    0.666667000000000    0.507131000000000 
P           0.440669000000000    0.048643000000000    0.352612000000000 
P           0.607974000000000    0.559331000000000    0.352612000000000 
P           0.618023000000000    0.725359000000000    0.685945000000000 
P           0.666667000000000    0.333333000000000    0.173798000000000 
P           0.774002000000000    0.715310000000000    0.019279000000000 
P           0.941308000000000    0.225998000000000    0.019279000000000 
P           0.951357000000000    0.392026000000000    0.352612000000000 
K          -0.000000000000000    0.000000000000000    0.294161000000000 
K           0.333333000000000    0.666667000000000    0.960827000000000 
K           0.666667000000000    0.333333000000000    0.627494000000000 
%ENDBLOCK POSITIONS_FRAC
