# Cell file generated by matador (Matthew Evans 2016)

%BLOCK LATTICE_CART
7.51328 0.0 0.0
0.0 6.6669 0.0
-1.87821 0.0 6.90114
%ENDBLOCK LATTICE_CART

%BLOCK POSITIONS_FRAC
P           0.407937000000000    0.500000000000000    0.995311000000000 
P           0.907937000000000    0.000000000000000    0.995311000000000 
K           0.302612000000000    0.000000000000000    0.512103000000000 
K           0.303205000000000    0.500000000000000    0.402846000000000 
K           0.328674000000000    0.000000000000000    0.999596000000000 
K           0.802612000000000    0.500000000000000    0.512103000000000 
K           0.803205000000000    0.000000000000000    0.402846000000000 
K           0.828674000000000    0.500000000000000    0.999596000000000 
%ENDBLOCK POSITIONS_FRAC
