# Cell file generated by matador (Matthew Evans 2016)

%BLOCK LATTICE_CART
7.03356 0.0 0.0
-3.51678 6.09124 0.0
0.0 0.0 11.2567
%ENDBLOCK LATTICE_CART

%BLOCK POSITIONS_FRAC
P           0.000000000000000    0.000000000000000    0.072132000000000 
P           0.000000000000000    0.000000000000000    0.427868000000000 
P           0.000000000000000    0.000000000000000    0.572132000000000 
P           0.000000000000000    0.000000000000000    0.927868000000000 
P           0.098360000000000    0.319471000000000    0.250000000000000 
P           0.098360000000000    0.778889000000000    0.750000000000000 
P           0.221111000000000    0.319471000000000    0.750000000000000 
P           0.221111000000000    0.901640000000000    0.250000000000000 
P           0.680529000000000    0.778889000000000    0.250000000000000 
P           0.680529000000000    0.901640000000000    0.750000000000000 
K           0.000000000000000    0.000000000000000    0.250000000000000 
K           0.000000000000000    0.000000000000000    0.750000000000000 
K           0.333333000000000    0.666667000000000    0.250000000000000 
K           0.333333000000000    0.666667000000000    0.750000000000000 
%ENDBLOCK POSITIONS_FRAC
