# Cell file generated by matador (Matthew Evans 2016)

%BLOCK LATTICE_CART
8.76664 0.0 0.0
-4.38332 7.59213 0.0
0.0 0.0 7.46762
%ENDBLOCK LATTICE_CART

%BLOCK POSITIONS_FRAC
P           0.000000000000000    0.000000000000000    0.500064000000000 
P           0.333333000000000    0.666667000000000    0.166730000000000 
P           0.666667000000000    0.333333000000000    0.833397000000000 
K           0.170069000000000    0.340138000000000    0.431003000000000 
K           0.170069000000000    0.829931000000000    0.431003000000000 
K           0.326528000000000    0.163264000000000    0.764337000000000 
K           0.503402000000000    0.006805000000000    0.097670000000000 
K           0.503402000000000    0.496598000000000    0.097670000000000 
K           0.659862000000000    0.829931000000000    0.431003000000000 
K           0.836736000000000    0.163264000000000    0.764337000000000 
K           0.836736000000000    0.673472000000000    0.764337000000000 
K           0.993195000000000    0.496598000000000    0.097670000000000 
%ENDBLOCK POSITIONS_FRAC
