# Cell file generated by matador (Matthew Evans 2016)

%BLOCK LATTICE_CART
7.84401 0.0 0.0
-3.922 6.79311 0.0
0.0 0.0 7.33669
%ENDBLOCK LATTICE_CART

%BLOCK POSITIONS_FRAC
P           0.333333000000000    0.666667000000000    0.250000000000000 
P           0.333333000000000    0.666667000000000    0.750000000000000 
P           0.666666000000000    0.333334000000000    0.250000000000000 
P           0.666666000000000    0.333334000000000    0.750000000000000 
K          -0.000000000000000    0.000000000000000    0.000000000000000 
K          -0.000000000000000    0.000000000000000    0.500000000000000 
K           0.037507000000000    0.597016000000000    0.250000000000000 
K           0.402984000000000    0.440491000000000    0.250000000000000 
K           0.440491000000000    0.402984000000000    0.750000000000000 
K           0.559509000000000    0.962493000000000    0.250000000000000 
K           0.597016000000000    0.037507000000000    0.750000000000000 
K           0.962493000000000    0.559509000000000    0.750000000000000 
%ENDBLOCK POSITIONS_FRAC
