# Cell file generated by matador (Matthew Evans 2016)

%BLOCK LATTICE_CART
7.1914 0.0 0.0
0.0 7.1914 0.0
0.0 0.0 7.1914
%ENDBLOCK LATTICE_CART

%BLOCK POSITIONS_FRAC
P           0.000000000000000    0.000000000000000    0.278109000000000 
P           0.000000000000000    0.000000000000000    0.721891000000000 
P           0.000000000000000    0.278109000000000    0.000000000000000 
P           0.000000000000000    0.721891000000000    0.000000000000000 
P           0.221891000000000    0.500000000000000    0.500000000000000 
P           0.278109000000000    0.000000000000000    0.000000000000000 
P           0.500000000000000    0.221891000000000    0.500000000000000 
P           0.500000000000000    0.500000000000000    0.221891000000000 
P           0.500000000000000    0.500000000000000    0.778109000000000 
P           0.500000000000000    0.778109000000000    0.500000000000000 
P           0.721891000000000    0.000000000000000    0.000000000000000 
P           0.778109000000000    0.500000000000000    0.500000000000000 
K           0.000000000000000    0.000000000000000    0.000000000000000 
K           0.500000000000000    0.500000000000000    0.500000000000000 
%ENDBLOCK POSITIONS_FRAC
