# Cell file generated by matador (Matthew Evans 2016)

%BLOCK LATTICE_CART
10.3576 0.0 0.0
0.0 6.24652 0.0
0.0 0.0 9.25495
%ENDBLOCK LATTICE_CART

%BLOCK POSITIONS_FRAC
P           0.000000000000000    0.000000000000000    0.000000000000000 
P           0.000000000000000    0.000000000000000    0.108051000000000 
P           0.000000000000000    0.000000000000000    0.500000000000000 
P           0.000000000000000    0.000000000000000    0.891949000000000 
P           0.000000000000000    0.500000000000000    0.000000000000000 
P           0.181102000000000    0.146022000000000    0.500000000000000 
P           0.318898000000000    0.646022000000000    0.000000000000000 
P           0.500000000000000    0.000000000000000    0.500000000000000 
P           0.500000000000000    0.500000000000000    0.000000000000000 
P           0.500000000000000    0.500000000000000    0.391949000000000 
P           0.500000000000000    0.500000000000000    0.500000000000000 
P           0.500000000000000    0.500000000000000    0.608051000000000 
P           0.681102000000000    0.353978000000000    0.000000000000000 
P           0.818898000000000    0.853978000000000    0.500000000000000 
K           0.000000000000000    0.500000000000000    0.500000000000000 
K           0.500000000000000    0.000000000000000    0.000000000000000 
%ENDBLOCK POSITIONS_FRAC
