# Cell file generated by matador (Matthew Evans 2016)

%BLOCK LATTICE_CART
7.36312 0.0 0.0
0.0 10.0583 0.0
0.0 0.0 8.67568
%ENDBLOCK LATTICE_CART

%BLOCK POSITIONS_FRAC
P           0.000000000000000    0.227161000000000    0.042635000000000 
P           0.000000000000000    0.772839000000000    0.542635000000000 
P           0.500000000000000    0.272839000000000    0.542635000000000 
P           0.500000000000000    0.727161000000000    0.042635000000000 
K           0.000000000000000    0.087468000000000    0.822860000000000 
K           0.000000000000000    0.210563000000000    0.309152000000000 
K           0.000000000000000    0.460933000000000    0.529090000000000 
K           0.000000000000000    0.539067000000000    0.029090000000000 
K           0.000000000000000    0.789437000000000    0.809152000000000 
K           0.000000000000000    0.912532000000000    0.322860000000000 
K           0.500000000000000    0.039067000000000    0.029090000000000 
K           0.500000000000000    0.289437000000000    0.809152000000000 
K           0.500000000000000    0.412532000000000    0.322860000000000 
K           0.500000000000000    0.587468000000000    0.822860000000000 
K           0.500000000000000    0.710563000000000    0.309152000000000 
K           0.500000000000000    0.960933000000000    0.529090000000000 
%ENDBLOCK POSITIONS_FRAC
