# Cell file generated by matador (Matthew Evans 2016)

%BLOCK LATTICE_CART
5.6259 -0.0 0.0
-2.81295 4.87217 0.0
0.0 0.0 7.56149
%ENDBLOCK LATTICE_CART

%BLOCK POSITIONS_FRAC
P           0.333333000000000    0.666667000000000    0.793954000000000 
P           0.376725000000000    0.068613000000000    0.235659000000000 
P           0.394094000000000    0.164978000000000    0.683449000000000 
P           0.691888000000000    0.623275000000000    0.235659000000000 
P           0.770884000000000    0.605906000000000    0.683449000000000 
P           0.835022000000000    0.229116000000000    0.683449000000000 
P           0.931387000000000    0.308112000000000    0.235659000000000 
K           0.000000000000000    0.000000000000000    0.341744000000000 
K           0.666667000000000    0.333333000000000    0.414943000000000 
%ENDBLOCK POSITIONS_FRAC
