# Cell file generated by matador (Matthew Evans 2016)

%BLOCK LATTICE_CART
5.64322 0.0 0.0
-2.82161 4.88718 0.0
0.0 0.0 5.99002
%ENDBLOCK LATTICE_CART

%BLOCK POSITIONS_FRAC
P           0.333333000000000    0.666667000000000    0.288913000000000 
P           0.666666000000000    0.333334000000000    0.320009000000000 
K           0.345464000000000    0.172733000000000    0.036545000000000 
K           0.827267000000000    0.172733000000000    0.036545000000000 
K           0.827267000000000    0.654536000000000    0.036545000000000 
%ENDBLOCK POSITIONS_FRAC
