# Cell file generated by matador (Matthew Evans 2016)

%BLOCK LATTICE_CART
9.51721 0.0 0.0
-4.75861 8.24215 0.0
0.0 0.0 12.1666
%ENDBLOCK LATTICE_CART

%BLOCK POSITIONS_FRAC
P           0.000000000000000    0.338684000000000    0.000000000000000 
P           0.000000000000000    0.338684000000000    0.500000000000000 
P           0.338684000000000    0.000000000000000    0.000000000000000 
P           0.338684000000000    0.000000000000000    0.500000000000000 
P           0.661316000000000    0.661316000000000    0.000000000000000 
P           0.661316000000000    0.661316000000000    0.500000000000000 
K           0.077362000000000    0.542580000000000    0.250000000000000 
K           0.120340000000000    0.258701000000000    0.250000000000000 
K           0.138361000000000    0.879660000000000    0.250000000000000 
K           0.209234000000000    0.423658000000000    0.750000000000000 
K           0.214424000000000    0.790766000000000    0.750000000000000 
K           0.258701000000000    0.120340000000000    0.750000000000000 
K           0.423658000000000    0.209234000000000    0.250000000000000 
K           0.457420000000000    0.534782000000000    0.250000000000000 
K           0.465218000000000    0.922638000000000    0.250000000000000 
K           0.534782000000000    0.457420000000000    0.750000000000000 
K           0.542580000000000    0.077362000000000    0.750000000000000 
K           0.576342000000000    0.785576000000000    0.750000000000000 
K           0.741299000000000    0.861639000000000    0.250000000000000 
K           0.785576000000000    0.576342000000000    0.250000000000000 
K           0.790766000000000    0.214424000000000    0.250000000000000 
K           0.861639000000000    0.741299000000000    0.750000000000000 
K           0.879660000000000    0.138361000000000    0.750000000000000 
K           0.922638000000000    0.465218000000000    0.750000000000000 
%ENDBLOCK POSITIONS_FRAC
