# Cell file generated by matador (Matthew Evans 2016)

%BLOCK LATTICE_CART
10.3053 0.0 0.0
-5.15263 8.92461 0.0
0.0 0.0 3.79235
%ENDBLOCK LATTICE_CART

%BLOCK POSITIONS_FRAC
P          -0.000000000000000    0.000000000000000    0.000000000000000 
P          -0.000000000000000    0.000000000000000    0.500000000000000 
P           0.333333000000000    0.666667000000000    0.210099000000000 
P           0.333333000000000    0.666667000000000    0.500000000000000 
P           0.333333000000000    0.666667000000000    0.789901000000000 
P           0.666666000000000    0.333334000000000    0.309088000000000 
P           0.666666000000000    0.333334000000000    0.690912000000000 
K           0.428705000000000    0.074463000000000    0.000000000000000 
K           0.428705000000000    0.354243000000000    0.000000000000000 
K           0.645757000000000    0.074463000000000    0.000000000000000 
K           0.645757000000000    0.571295000000000    0.000000000000000 
K           0.925537000000000    0.354243000000000    0.000000000000000 
K           0.925537000000000    0.571295000000000    0.000000000000000 
%ENDBLOCK POSITIONS_FRAC
