# Cell file generated by matador (Matthew Evans 2016)

%BLOCK LATTICE_CART
7.18632 0.0 0.0
-3.59316 6.22353 0.0
0.0 0.0 13.8848
%ENDBLOCK LATTICE_CART

%BLOCK POSITIONS_FRAC
P           0.000000000000000    0.000000000000000    0.000000000000000 
P           0.000000000000000    0.000000000000000    0.500000000000000 
P           0.333333000000000    0.666667000000000    0.144042000000000 
P           0.333333000000000    0.666667000000000    0.355958000000000 
P           0.333333000000000    0.666667000000000    0.644042000000000 
P           0.333333000000000    0.666667000000000    0.855958000000000 
P           0.666667000000000    0.333333000000000    0.144042000000000 
P           0.666667000000000    0.333333000000000    0.355958000000000 
P           0.666667000000000    0.333333000000000    0.644042000000000 
P           0.666667000000000    0.333333000000000    0.855958000000000 
K           0.000000000000000    0.000000000000000    0.250000000000000 
K           0.000000000000000    0.000000000000000    0.750000000000000 
K           0.333333000000000    0.666667000000000    0.000000000000000 
K           0.333333000000000    0.666667000000000    0.500000000000000 
K           0.666667000000000    0.333333000000000    0.000000000000000 
K           0.666667000000000    0.333333000000000    0.500000000000000 
%ENDBLOCK POSITIONS_FRAC
