# Cell file generated by matador (Matthew Evans 2016)

%BLOCK LATTICE_CART
13.7069 0.0 0.0
0.0 3.28692 0.0
-0.0763775 0.0 6.81076
%ENDBLOCK LATTICE_CART

%BLOCK POSITIONS_FRAC
P           0.000000000000000    0.500000000000000    0.000000000000000 
P           0.500000000000000    0.000000000000000    0.000000000000000 
K           0.000000000000000    0.500000000000000    0.500000000000000 
K           0.123102000000000    0.000000000000000    0.229171000000000 
K           0.376898000000000    0.500000000000000    0.770829000000000 
K           0.500000000000000    0.000000000000000    0.500000000000000 
K           0.623102000000000    0.500000000000000    0.229171000000000 
K           0.876898000000000    0.000000000000000    0.770829000000000 
%ENDBLOCK POSITIONS_FRAC
