# Cell file generated by matador (Matthew Evans 2016)

%BLOCK LATTICE_CART
9.5788 0.0 0.0
0.0 9.5788 0.0
0.0 0.0 5.17094
%ENDBLOCK LATTICE_CART

%BLOCK POSITIONS_FRAC
P           0.000000000000000    0.000000000000000    0.000000000000000 
P           0.500000000000000    0.500000000000000    0.000000000000000 
P           0.500000000000000    0.500000000000000    0.500000000000000 
K           0.000000000000000    0.000000000000000    0.500000000000000 
K           0.000000000000000    0.215013000000000    0.043692000000000 
K           0.000000000000000    0.346676000000000    0.544076000000000 
K           0.000000000000000    0.653324000000000    0.544076000000000 
K           0.000000000000000    0.784987000000000    0.043692000000000 
K           0.215013000000000    0.000000000000000    0.956308000000000 
K           0.346676000000000    0.000000000000000    0.455924000000000 
K           0.653324000000000    0.000000000000000    0.455924000000000 
K           0.784987000000000    0.000000000000000    0.956308000000000 
%ENDBLOCK POSITIONS_FRAC
