# Cell file generated by matador (Matthew Evans 2016)

%BLOCK LATTICE_CART
8.29832 0.0 0.0
-4.14916 7.18656 0.0
0.0 0.0 7.16851
%ENDBLOCK LATTICE_CART

%BLOCK POSITIONS_FRAC
P           0.044743000000000    0.355745000000000    0.255713000000000 
P           0.310922000000000    0.022332000000000    0.589046000000000 
P           0.311001000000000    0.955257000000000    0.255713000000000 
P           0.378077000000000    0.022412000000000    0.922380000000000 
P           0.644255000000000    0.688999000000000    0.255713000000000 
P           0.644335000000000    0.621923000000000    0.922380000000000 
P           0.711410000000000    0.689078000000000    0.589046000000000 
P           0.977588000000000    0.355665000000000    0.922380000000000 
P           0.977668000000000    0.288590000000000    0.589046000000000 
K           0.000000000000000    0.000000000000000    0.339691000000000 
K           0.333333000000000    0.666667000000000    0.006358000000000 
K           0.666667000000000    0.333333000000000    0.673024000000000 
%ENDBLOCK POSITIONS_FRAC
