# Cell file generated by matador (Matthew Evans 2016)

%BLOCK LATTICE_CART
4.0779 0.0 0.0
-2.03895 3.53157 0.0
0.0 0.0 10.316
%ENDBLOCK LATTICE_CART

%BLOCK POSITIONS_FRAC
P           0.666667000000000    0.333333000000000    0.916719000000000 
K           0.000000000000000   -0.000000000000000    0.562771000000000 
K           0.333334000000000    0.666666000000000    0.635722000000000 
K           0.666667000000000    0.333333000000000    0.171227000000000 
%ENDBLOCK POSITIONS_FRAC
