# Cell file generated by matador (Matthew Evans 2016)

%BLOCK LATTICE_CART
7.54805 0.0 0.0
-3.77403 6.53681 0.0
0.0 0.0 10.7909
%ENDBLOCK LATTICE_CART

%BLOCK POSITIONS_FRAC
P           0.129837000000000    0.727244000000000    0.779820000000000 
P           0.134699000000000    0.614593000000000    0.301866000000000 
P           0.272756000000000    0.402593000000000    0.779820000000000 
P           0.385407000000000    0.520106000000000    0.301866000000000 
P           0.479894000000000    0.865301000000000    0.301866000000000 
P           0.597407000000000    0.870163000000000    0.779820000000000 
K          -0.000000000000000   -0.000000000000000    0.828055000000000 
K           0.091663000000000    0.777611000000000    0.047023000000000 
K           0.222389000000000    0.314053000000000    0.047023000000000 
K           0.333333000000000    0.666667000000000    0.995381000000000 
K           0.371789000000000    0.230511000000000    0.878357000000000 
K           0.666667000000000    0.333333000000000    0.804067000000000 
K           0.685947000000000    0.908337000000000    0.047023000000000 
K           0.769489000000000    0.141278000000000    0.878357000000000 
K           0.858722000000000    0.628211000000000    0.878357000000000 
%ENDBLOCK POSITIONS_FRAC
