# Cell file generated by matador (Matthew Evans 2016)

%BLOCK LATTICE_CART
8.33621 0.0 0.0
0.0 4.76616 0.0
0.0 0.0 6.09883
%ENDBLOCK LATTICE_CART

%BLOCK POSITIONS_FRAC
P           0.208486000000000    0.155410000000000    0.373931000000000 
P           0.208486000000000    0.844590000000000    0.373931000000000 
P           0.500000000000000    0.500000000000000    0.775565000000000 
P           0.791514000000000    0.155410000000000    0.373931000000000 
P           0.791514000000000    0.844590000000000    0.373931000000000 
K           0.000000000000000    0.500000000000000    0.571226000000000 
K           0.373366000000000    0.000000000000000    0.778409000000000 
K           0.626634000000000    0.000000000000000    0.778409000000000 
%ENDBLOCK POSITIONS_FRAC
