# Cell file generated by matador (Matthew Evans 2016)

%BLOCK LATTICE_CART
8.13863 0.0 0.0
0.0 8.13863 0.0
0.0 0.0 6.16822
%ENDBLOCK LATTICE_CART

%BLOCK POSITIONS_FRAC
P           0.142628000000000    0.405874000000000    0.084576000000000 
P           0.405874000000000    0.857372000000000    0.915424000000000 
P           0.594126000000000    0.142628000000000    0.915424000000000 
P           0.857372000000000    0.594126000000000    0.084576000000000 
K           0.000000000000000    0.000000000000000    0.500000000000000 
K           0.092200000000000    0.216642000000000    0.677058000000000 
K           0.216642000000000    0.907800000000000    0.322942000000000 
K           0.500000000000000    0.500000000000000    0.000000000000000 
K           0.500000000000000    0.500000000000000    0.500000000000000 
K           0.783358000000000    0.092200000000000    0.322942000000000 
K           0.907800000000000    0.783358000000000    0.677058000000000 
%ENDBLOCK POSITIONS_FRAC
