# Cell file generated by matador (Matthew Evans 2016)

%BLOCK LATTICE_CART
9.1051 0.0 0.0
0.0 9.1051 0.0
0.0 0.0 7.593
%ENDBLOCK LATTICE_CART

%BLOCK POSITIONS_FRAC
P           0.089536000000000    0.164736000000000    0.295602000000000 
P           0.089536000000000    0.835264000000000    0.295602000000000 
P           0.164736000000000    0.089536000000000    0.795602000000000 
P           0.164736000000000    0.910464000000000    0.795602000000000 
P           0.835264000000000    0.089536000000000    0.795602000000000 
P           0.835264000000000    0.910464000000000    0.795602000000000 
P           0.910464000000000    0.164736000000000    0.295602000000000 
P           0.910464000000000    0.835264000000000    0.295602000000000 
K           0.000000000000000    0.500000000000000    0.310289000000000 
K           0.254085000000000    0.262919000000000    0.029305000000000 
K           0.254085000000000    0.737081000000000    0.029305000000000 
K           0.262919000000000    0.254085000000000    0.529305000000000 
K           0.262919000000000    0.745915000000000    0.529305000000000 
K           0.500000000000000    0.000000000000000    0.810289000000000 
K           0.737081000000000    0.254085000000000    0.529305000000000 
K           0.737081000000000    0.745915000000000    0.529305000000000 
K           0.745915000000000    0.262919000000000    0.029305000000000 
K           0.745915000000000    0.737081000000000    0.029305000000000 
%ENDBLOCK POSITIONS_FRAC
