# Cell file generated by matador (Matthew Evans 2016)

%BLOCK LATTICE_CART
6.70465 0.0 0.0
0.0 6.70465 0.0
0.0 0.0 6.70465
%ENDBLOCK LATTICE_CART

%BLOCK POSITIONS_FRAC
P           0.120299000000000    0.120299000000000    0.879701000000000 
P           0.120299000000000    0.879701000000000    0.120299000000000 
P           0.500000000000000    0.500000000000000    0.500000000000000 
P           0.879701000000000    0.120299000000000    0.120299000000000 
P           0.879701000000000    0.879701000000000    0.879701000000000 
K           0.000000000000000    0.000000000000000    0.500000000000000 
K           0.000000000000000    0.500000000000000    0.000000000000000 
K           0.000000000000000    0.500000000000000    0.500000000000000 
K           0.500000000000000    0.000000000000000    0.000000000000000 
K           0.500000000000000    0.000000000000000    0.500000000000000 
K           0.500000000000000    0.500000000000000    0.000000000000000 
%ENDBLOCK POSITIONS_FRAC
