# Cell file generated by matador (Matthew Evans 2016)

%BLOCK LATTICE_CART
6.87331 -0.0 0.0
-3.43666 5.95246 0.0
0.0 0.0 7.23618
%ENDBLOCK LATTICE_CART

%BLOCK POSITIONS_FRAC
P           0.083052000000000    0.858481000000000    0.232659000000000 
P           0.141519000000000    0.224572000000000    0.232659000000000 
P           0.274895000000000    0.013442000000000    0.666809000000000 
P           0.666667000000000    0.333333000000000    0.763474000000000 
P           0.738547000000000    0.725105000000000    0.666809000000000 
P           0.775428000000000    0.916948000000000    0.232659000000000 
P           0.986558000000000    0.261453000000000    0.666809000000000 
K           0.357178000000000    0.111642000000000    0.348948000000000 
K           0.666667000000000    0.333333000000000    0.483654000000000 
K           0.754464000000000    0.642822000000000    0.348948000000000 
K           0.888358000000000    0.245536000000000    0.348948000000000 
%ENDBLOCK POSITIONS_FRAC
