# Cell file generated by matador (Matthew Evans 2016)

%BLOCK LATTICE_CART
13.1888 0.0 0.0
-6.5944 11.4218 0.0
0.0 0.0 5.89853
%ENDBLOCK LATTICE_CART

%BLOCK POSITIONS_FRAC
P           0.185791000000000    0.043705000000000    0.255076000000000 
P           0.185791000000000    0.142086000000000    0.744925000000000 
P           0.857914000000000    0.043705000000000    0.078258000000000 
P           0.857914000000000    0.814209000000000    0.921743000000000 
P           0.956295000000000    0.142086000000000    0.588409000000000 
P           0.956295000000000    0.814209000000000    0.411591000000000 
K           0.074678000000000    0.537339000000000    0.500000000000000 
K           0.127469000000000    0.254938000000000    0.166667000000000 
K           0.127469000000000    0.872531000000000    0.833334000000000 
K           0.157114000000000    0.314228000000000    0.666667000000000 
K           0.157114000000000    0.842886000000000    0.333334000000000 
K           0.213884000000000    0.606942000000000    0.000000000000000 
K           0.393058000000000    0.606942000000000    0.333334000000000 
K           0.393058000000000    0.786116000000000    0.666667000000000 
K           0.396433000000000    0.198216000000000    0.000000000000000 
K           0.462661000000000    0.537339000000000    0.833334000000000 
K           0.462661000000000    0.925322000000000    0.166667000000000 
K           0.472645000000000    0.236323000000000    0.500000000000000 
K           0.685772000000000    0.842886000000000    0.000000000000000 
K           0.745062000000000    0.872531000000000    0.500000000000000 
K           0.763677000000000    0.236323000000000    0.833334000000000 
K           0.763677000000000    0.527355000000000    0.166667000000000 
K           0.801784000000000    0.198216000000000    0.333334000000000 
K           0.801784000000000    0.603567000000000    0.666667000000000 
%ENDBLOCK POSITIONS_FRAC
