# Cell file generated by matador (Matthew Evans 2016)

%BLOCK LATTICE_CART
8.99318 -0.0 0.0
-4.49659 7.78832 0.0
0.0 0.0 6.28604
%ENDBLOCK LATTICE_CART

%BLOCK POSITIONS_FRAC
P           0.000000000000000    0.000000000000000    0.555147000000000 
P           0.000316000000000    0.199220000000000    0.044271000000000 
P           0.134114000000000    0.467763000000000    0.710937000000000 
P           0.198904000000000    0.999684000000000    0.044271000000000 
P           0.333333000000000    0.666667000000000    0.221814000000000 
P           0.333649000000000    0.865886000000000    0.710937000000000 
P           0.467447000000000    0.134429000000000    0.377604000000000 
P           0.532237000000000    0.666351000000000    0.710937000000000 
P           0.666667000000000    0.333333000000000    0.888481000000000 
P           0.666982000000000    0.532553000000000    0.377604000000000 
P           0.800780000000000    0.801096000000000    0.044271000000000 
P           0.865571000000000    0.333018000000000    0.377604000000000 
K           0.000000000000000    0.000000000000000    0.203264000000000 
K           0.333333000000000    0.666667000000000    0.869930000000000 
K           0.666667000000000    0.333333000000000    0.536597000000000 
%ENDBLOCK POSITIONS_FRAC
