# Cell file generated by matador (Matthew Evans 2016)

%BLOCK LATTICE_CART
6.26905 0.0 0.0
-3.13453 5.42916 0.0
0.0 0.0 11.0587
%ENDBLOCK LATTICE_CART

%BLOCK POSITIONS_FRAC
P           0.000001000000000    0.000001000000000    0.459519000000000 
P           0.000001000000000    0.000001000000000    0.566934000000000 
P           0.000001000000000    0.000001000000000    0.957814000000000 
P           0.000001000000000    0.500001000000000    0.155947000000000 
P           0.000001000000000    0.500001000000000    0.413854000000000 
P           0.000001000000000    0.500001000000000    0.724193000000000 
P           0.500001000000000    0.000001000000000    0.155947000000000 
P           0.500001000000000    0.000001000000000    0.413854000000000 
P           0.500001000000000    0.000001000000000    0.724193000000000 
P           0.500001000000000    0.500001000000000    0.155947000000000 
P           0.500001000000000    0.500001000000000    0.413854000000000 
P           0.500001000000000    0.500001000000000    0.724193000000000 
K           0.333334000000000    0.666668000000000    0.646470000000000 
K           0.666668000000000    0.333334000000000    0.646470000000000 
%ENDBLOCK POSITIONS_FRAC
