# Cell file generated by matador (Matthew Evans 2016)

%BLOCK LATTICE_CART
6.78834 0.0 0.0
0.0 6.77393 0.0
-3.889 0.0 6.96595
%ENDBLOCK LATTICE_CART

%BLOCK POSITIONS_FRAC
P          -0.000000000000000    0.205204000000000   -0.000000000000000 
P          -0.000000000000000    0.535299000000000   -0.000000000000000 
P          -0.000000000000000    0.652251000000000    0.500000000000000 
P          -0.000000000000000    0.891158000000000    0.500000000000000 
P           0.500000000000000    0.118332000000000    0.500000000000000 
P           0.500000000000000    0.854396000000000    0.500000000000000 
P           0.500000000000000    0.920999000000000   -0.000000000000000 
K           0.079219000000000    0.501498000000000    0.773320000000000 
K           0.213809000000000    0.335677000000000    0.448504000000000 
K           0.786191000000000    0.335677000000000    0.551496000000000 
K           0.920781000000000    0.501498000000000    0.226680000000000 
%ENDBLOCK POSITIONS_FRAC
