# Cell file generated by matador (Matthew Evans 2016)

%BLOCK LATTICE_CART
8.93797 0.0 0.0
-4.46898 7.74051 0.0
0.0 0.0 5.0052
%ENDBLOCK LATTICE_CART

%BLOCK POSITIONS_FRAC
P           0.000000000000000    0.000000000000000    0.399585000000000 
P           0.000000000000000    0.000000000000000    0.600415000000000 
P           0.333333000000000    0.666667000000000    0.000000000000000 
P           0.333333000000000    0.666667000000000    0.500000000000000 
P           0.666667000000000    0.333333000000000    0.000000000000000 
P           0.666667000000000    0.333333000000000    0.500000000000000 
K           0.000000000000000    0.000000000000000    0.000000000000000 
K           0.000000000000000    0.500000000000000    0.222238000000000 
K           0.000000000000000    0.500000000000000    0.777762000000000 
K           0.500000000000000    0.500000000000000    0.222238000000000 
K           0.500000000000000    0.500000000000000    0.777762000000000 
K           0.500000000000000    0.000000000000000    0.222238000000000 
K           0.500000000000000    0.000000000000000    0.777762000000000 
%ENDBLOCK POSITIONS_FRAC
