# Cell file generated by matador (Matthew Evans 2016)

%BLOCK LATTICE_CART
6.73185 0.0 0.0
1.27246 5.77717 0.0
-3.2109 -2.42431 7.40244
%ENDBLOCK LATTICE_CART

%BLOCK POSITIONS_FRAC
P           0.364537000000000    0.476315000000000    0.238645000000000 
P           0.635463000000000    0.523685000000000    0.761355000000000 
K           0.000000000000000    0.000000000000000    0.000000000000000 
K           0.000000000000000    0.500000000000000    0.500000000000000 
K           0.500000000000000    0.000000000000000    0.000000000000000 
K           0.500000000000000    0.000000000000000    0.500000000000000 
K           0.500000000000000    0.500000000000000    0.000000000000000 
K           0.500000000000000    0.500000000000000    0.500000000000000 
%ENDBLOCK POSITIONS_FRAC
