# Cell file generated by matador (Matthew Evans 2016)

%BLOCK LATTICE_CART
8.37632 0.0 0.0
0.0 7.18201 0.0
0.0 0.0 7.56564
%ENDBLOCK LATTICE_CART

%BLOCK POSITIONS_FRAC
P           0.000000000000000    0.024403000000000    0.750000000000000 
P           0.000000000000000    0.204748000000000    0.750000000000000 
P           0.000000000000000    0.795252000000000    0.250000000000000 
P           0.000000000000000    0.975597000000000    0.250000000000000 
P           0.086743000000000    0.000000000000000    0.500000000000000 
P           0.097721000000000    0.035382000000000    0.940836000000000 
P           0.097721000000000    0.964618000000000    0.059164000000000 
P           0.260813000000000    0.000000000000000    0.000000000000000 
P           0.329174000000000    0.500000000000000    0.500000000000000 
P           0.670826000000000    0.500000000000000    0.000000000000000 
P           0.739187000000000    0.000000000000000    0.500000000000000 
P           0.902278000000000    0.035382000000000    0.559164000000000 
P           0.902278000000000    0.964618000000000    0.440836000000000 
P           0.913257000000000    0.000000000000000    0.000000000000000 
K           0.000000000000000    0.326885000000000    0.250000000000000 
K           0.000000000000000    0.673115000000000    0.750000000000000 
K           0.072736000000000    0.500000000000000    0.000000000000000 
K           0.357404000000000    0.000000000000000    0.500000000000000 
K           0.642596000000000    0.000000000000000    0.000000000000000 
K           0.927264000000000    0.500000000000000    0.500000000000000 
%ENDBLOCK POSITIONS_FRAC
