# Cell file generated by matador (Matthew Evans 2016)

%BLOCK LATTICE_CART
7.83673 0.0 0.0
-3.91836 6.78681 0.0
0.0 0.0 10.4707
%ENDBLOCK LATTICE_CART

%BLOCK POSITIONS_FRAC
P           0.000000000000000    0.500000000000000    0.024343000000000 
P           0.000000000000000    0.500000000000000    0.642323000000000 
P           0.500000000000000    0.000000000000000    0.308990000000000 
P           0.500000000000000    0.000000000000000    0.691010000000000 
P           0.500000000000000    0.500000000000000    0.357677000000000 
P           0.500000000000000    0.500000000000000    0.975657000000000 
K           0.000000000000000    0.000000000000000   -0.000000000000000 
K           0.000000000000000    0.000000000000000    0.333333000000000 
K           0.000000000000000    0.000000000000000    0.666667000000000 
K           0.000000000000000    0.500000000000000    0.333333000000000 
K           0.000000000000000    0.500000000000000    0.833333000000000 
K           0.500000000000000    0.000000000000000   -0.000000000000000 
K           0.500000000000000    0.000000000000000    0.500000000000000 
K           0.500000000000000    0.500000000000000    0.166666000000000 
K           0.500000000000000    0.500000000000000    0.666667000000000 
%ENDBLOCK POSITIONS_FRAC
