# Cell file generated by matador (Matthew Evans 2016)

%BLOCK LATTICE_CART
9.8979 0.0 0.0
-4.94895 8.57184 0.0
0.0 0.0 7.12368
%ENDBLOCK LATTICE_CART

%BLOCK POSITIONS_FRAC
P           0.000000000000000    0.000000000000000    0.000000000000000 
P           0.333333000000000    0.666667000000000    0.000000000000000 
P           0.666667000000000    0.333333000000000    0.000000000000000 
P           0.666667000000000    0.333333000000000    0.500000000000000 
K           0.030988000000000    0.591938000000000    0.000000000000000 
K           0.070927000000000    0.607431000000000    0.500000000000000 
K           0.075450000000000    0.198125000000000    0.500000000000000 
K           0.122675000000000    0.924550000000000    0.500000000000000 
K           0.392569000000000    0.463497000000000    0.500000000000000 
K           0.408062000000000    0.439050000000000    0.000000000000000 
K           0.448269000000000    0.173986000000000    0.500000000000000 
K           0.536503000000000    0.929073000000000    0.500000000000000 
K           0.560950000000000    0.969012000000000    0.000000000000000 
K           0.725717000000000    0.551731000000000    0.500000000000000 
K           0.801875000000000    0.877325000000000    0.500000000000000 
K           0.826014000000000    0.274283000000000    0.500000000000000 
%ENDBLOCK POSITIONS_FRAC
