# Cell file generated by matador (Matthew Evans 2016)

%BLOCK LATTICE_CART
6.09424 0.0 0.0
-3.04712 5.27777 0.0
0.0 0.0 13.1699
%ENDBLOCK LATTICE_CART

%BLOCK POSITIONS_FRAC
P          -0.000000000000000    0.201480000000000    0.000000000000000 
P          -0.000000000000000    0.296101000000000    0.500000000000000 
P          -0.000000000000000    0.703899000000000    0.500000000000000 
P          -0.000000000000000    0.798520000000000    0.000000000000000 
P           0.201480000000000    0.000000000000000    0.000000000000000 
P           0.201480000000000    0.201480000000000    0.000000000000000 
P           0.296101000000000    0.000000000000000    0.500000000000000 
P           0.296101000000000    0.296101000000000    0.500000000000000 
P           0.333333000000000    0.666667000000000    0.565133000000000 
P           0.666666000000000    0.333334000000000    0.434867000000000 
P           0.703899000000000    0.000000000000000    0.500000000000000 
P           0.703899000000000    0.703899000000000    0.500000000000000 
P           0.798520000000000    0.000000000000000    0.000000000000000 
P           0.798520000000000    0.798520000000000    0.000000000000000 
K           0.333333000000000    0.666667000000000    0.408724000000000 
K           0.666666000000000    0.333334000000000    0.591276000000000 
%ENDBLOCK POSITIONS_FRAC
