# Cell file generated by matador (Matthew Evans 2016)

%BLOCK LATTICE_CART
8.5487 0.0 0.0
0.0 4.0252 0.0
-1.00156 0.0 6.22777
%ENDBLOCK LATTICE_CART

%BLOCK POSITIONS_FRAC
P           0.092395000000000    0.610349000000000    0.503426000000000 
P           0.156336000000000    0.406762000000000    0.849864000000000 
P           0.386817000000000    0.511312000000000    0.719603000000000 
P           0.613183000000000    0.511312000000000    0.280397000000000 
P           0.843664000000000    0.406762000000000    0.150136000000000 
P           0.907605000000000    0.610349000000000    0.496574000000000 
K           0.000000000000000    0.154631000000000    0.000000000000000 
K           0.371555000000000    0.067182000000000    0.261853000000000 
K           0.628445000000000    0.067182000000000    0.738147000000000 
%ENDBLOCK POSITIONS_FRAC
