# Cell file generated by matador (Matthew Evans 2016)

%BLOCK LATTICE_CART
6.1671 0.0 0.0
-3.08355 5.34086 0.0
0.0 0.0 7.12609
%ENDBLOCK LATTICE_CART

%BLOCK POSITIONS_FRAC
P           0.333334000000000    0.666668000000000    0.874630000000000 
P           0.666668000000000    0.333334000000000    0.874630000000000 
K           0.000001000000000    0.500001000000000    0.100093000000000 
K           0.333334000000000    0.666668000000000    0.348503000000000 
K           0.500001000000000    0.000001000000000    0.100093000000000 
K           0.500001000000000    0.500001000000000    0.100093000000000 
K           0.666668000000000    0.333334000000000    0.348503000000000 
%ENDBLOCK POSITIONS_FRAC
