# Cell file generated by matador (Matthew Evans 2016)

%BLOCK LATTICE_CART
7.45392 0.0 0.0
0.0 8.58781 0.0
4.74476 0.0 8.86316
%ENDBLOCK LATTICE_CART

%BLOCK POSITIONS_FRAC
P           0.110959000000000    0.285551000000000    0.507332000000000 
P           0.110959000000000    0.714449000000000    0.507332000000000 
P           0.610959000000000    0.214449000000000    0.507332000000000 
P           0.610959000000000    0.785551000000000    0.507332000000000 
K           0.006702000000000    0.000000000000000    0.120688000000000 
K           0.207990000000000    0.500000000000000    0.491002000000000 
K           0.225714000000000    0.000000000000000    0.788639000000000 
K           0.232878000000000    0.000000000000000    0.304803000000000 
K           0.476293000000000    0.500000000000000    0.642981000000000 
K           0.498498000000000    0.000000000000000    0.960093000000000 
K           0.506702000000000    0.500000000000000    0.120688000000000 
K           0.707990000000000    0.000000000000000    0.491002000000000 
K           0.725714000000000    0.500000000000000    0.788639000000000 
K           0.732878000000000    0.500000000000000    0.304803000000000 
K           0.976293000000000    0.000000000000000    0.642981000000000 
K           0.998498000000000    0.500000000000000    0.960093000000000 
%ENDBLOCK POSITIONS_FRAC
