# Cell file generated by matador (Matthew Evans 2016)

%BLOCK LATTICE_CART
8.21278 0.0 0.0
0.0 8.21278 0.0
0.0 0.0 5.93404
%ENDBLOCK LATTICE_CART

%BLOCK POSITIONS_FRAC
P           0.000000000000000    0.000000000000000    0.397880000000000 
P           0.000000000000000    0.000000000000000    0.602120000000000 
P           0.000000000000000    0.500000000000000    0.101191000000000 
P           0.000000000000000    0.500000000000000    0.398809000000000 
P           0.500000000000000    0.000000000000000    0.601191000000000 
P           0.500000000000000    0.000000000000000    0.898809000000000 
P           0.500000000000000    0.500000000000000    0.102120000000000 
P           0.500000000000000    0.500000000000000    0.897880000000000 
K           0.000000000000000    0.306015000000000    0.625903000000000 
K           0.000000000000000    0.693985000000000    0.625903000000000 
K           0.193985000000000    0.500000000000000    0.874097000000000 
K           0.306015000000000    0.000000000000000    0.374097000000000 
K           0.500000000000000    0.193985000000000    0.125903000000000 
K           0.500000000000000    0.806015000000000    0.125903000000000 
K           0.693985000000000    0.000000000000000    0.374097000000000 
K           0.806015000000000    0.500000000000000    0.874097000000000 
%ENDBLOCK POSITIONS_FRAC
