# Cell file generated by matador (Matthew Evans 2016)

%BLOCK LATTICE_CART
6.38695 0.0 0.0
-3.19347 5.53126 0.0
0.0 0.0 6.87293
%ENDBLOCK LATTICE_CART

%BLOCK POSITIONS_FRAC
P           0.257889000000000    0.530165000000000    0.508302000000000 
P           0.272276000000000    0.742111000000000    0.508302000000000 
P           0.469835000000000    0.727724000000000    0.508302000000000 
K           0.333333000000000    0.666667000000000    0.025495000000000 
K           0.498767000000000    0.081369000000000    0.690535000000000 
K           0.582603000000000    0.501233000000000    0.690535000000000 
K           0.918631000000000    0.417397000000000    0.690535000000000 
%ENDBLOCK POSITIONS_FRAC
