# Cell file generated by matador (Matthew Evans 2016)

%BLOCK LATTICE_CART
7.23711 0.0 0.0
-3.61856 6.26752 0.0
0.0 0.0 7.50089
%ENDBLOCK LATTICE_CART

%BLOCK POSITIONS_FRAC
P           0.999999000000000    0.999999000000000    0.164593000000000 
P           0.999999000000000    0.999999000000000    0.335407000000000 
P           0.999999000000000    0.999999000000000    0.664593000000000 
P           0.999999000000000    0.999999000000000    0.835407000000000 
P           0.021078000000000    0.811076000000000    0.250000000000000 
P           0.188922000000000    0.210001000000000    0.250000000000000 
P           0.210001000000000    0.021078000000000    0.750000000000000 
P           0.789997000000000    0.978920000000000    0.250000000000000 
P           0.811076000000000    0.789997000000000    0.750000000000000 
P           0.978920000000000    0.188922000000000    0.750000000000000 
K           0.333332000000000    0.666666000000000    0.250000000000000 
K           0.333332000000000    0.666666000000000    0.750000000000000 
K           0.666666000000000    0.333332000000000    0.250000000000000 
K           0.666666000000000    0.333332000000000    0.750000000000000 
%ENDBLOCK POSITIONS_FRAC
