# Cell file generated by matador (Matthew Evans 2016)

%BLOCK LATTICE_CART
8.3467 0.0 0.0
-4.17335 7.22845 0.0
0.0 0.0 8.96033
%ENDBLOCK LATTICE_CART

%BLOCK POSITIONS_FRAC
P           0.000000000000000   -0.000000000000000    0.185105000000000 
P           0.000000000000000   -0.000000000000000    0.308732000000000 
P           0.000000000000000   -0.000000000000000    0.687651000000000 
P           0.000000000000000   -0.000000000000000    0.908101000000000 
P           0.187836000000000    0.582920000000000    0.053357000000000 
P           0.333333000000000    0.666667000000000    0.175502000000000 
P           0.333333000000000    0.666667000000000    0.683296000000000 
P           0.395084000000000    0.812164000000000    0.053357000000000 
P           0.417080000000000    0.604916000000000    0.053357000000000 
P           0.582920000000000    0.187836000000000    0.053357000000000 
P           0.604916000000000    0.417080000000000    0.053357000000000 
P           0.666667000000000    0.333333000000000    0.175502000000000 
P           0.666667000000000    0.333333000000000    0.683296000000000 
P           0.812164000000000    0.395084000000000    0.053357000000000 
K           0.000000000000000    0.347874000000000    0.287954000000000 
K           0.000000000000000    0.745889000000000    0.128288000000000 
K           0.254111000000000    0.254111000000000    0.128288000000000 
K           0.347874000000000   -0.000000000000000    0.287954000000000 
K           0.652126000000000    0.652126000000000    0.287954000000000 
K           0.745889000000000   -0.000000000000000    0.128288000000000 
%ENDBLOCK POSITIONS_FRAC
