# Cell file generated by matador (Matthew Evans 2016)

%BLOCK LATTICE_CART
6.52352 0.0 0.0
-3.26176 5.64953 0.0
0.0 0.0 11.5372
%ENDBLOCK LATTICE_CART

%BLOCK POSITIONS_FRAC
P          -0.000000000000000   -0.000000000000000    0.500000000000000 
P          -0.000000000000000    0.511892000000000    0.000000000000000 
P           0.154774000000000    0.821441000000000    0.333333000000000 
P           0.178559000000000    0.333333000000000    0.333333000000000 
P           0.333333000000000    0.178559000000000    0.666667000000000 
P           0.333333000000000    0.666667000000000    0.166667000000000 
P           0.488108000000000    0.488108000000000    0.000000000000000 
P           0.511892000000000   -0.000000000000000    0.000000000000000 
P           0.666667000000000    0.333333000000000    0.833333000000000 
P           0.666667000000000    0.845226000000000    0.333333000000000 
P           0.821441000000000    0.154774000000000    0.666667000000000 
P           0.845226000000000    0.666667000000000    0.666667000000000 
K          -0.000000000000000   -0.000000000000000    0.000000000000000 
K           0.333333000000000    0.666667000000000    0.666667000000000 
K           0.666667000000000    0.333333000000000    0.333333000000000 
%ENDBLOCK POSITIONS_FRAC
