# Cell file generated by matador (Matthew Evans 2016)

%BLOCK LATTICE_CART
7.13853 0.0 0.0
1.66948 6.29431 0.0
5.44664 0.668316 11.4533
%ENDBLOCK LATTICE_CART

%BLOCK POSITIONS_FRAC
P           0.262769000000000    0.643838000000000    0.442630000000000 
P           0.335537000000000    0.786886000000000    0.010115000000000 
P           0.664463000000000    0.213114000000000    0.989885000000000 
P           0.737231000000000    0.356162000000000    0.557370000000000 
K           0.000000000000000    0.000000000000000    0.000000000000000 
K           0.000000000000000    0.000000000000000    0.500000000000000 
K           0.000000000000000    0.500000000000000    0.000000000000000 
K           0.000000000000000    0.500000000000000    0.500000000000000 
K           0.153976000000000    0.069682000000000    0.802376000000000 
K           0.287764000000000    0.401848000000000    0.896996000000000 
K           0.500000000000000    0.000000000000000    0.000000000000000 
K           0.500000000000000    0.000000000000000    0.500000000000000 
K           0.500000000000000    0.500000000000000    0.000000000000000 
K           0.500000000000000    0.500000000000000    0.500000000000000 
K           0.712236000000000    0.598152000000000    0.103004000000000 
K           0.846024000000000    0.930318000000000    0.197624000000000 
%ENDBLOCK POSITIONS_FRAC
