# Cell file generated by matador (Matthew Evans 2016)

%BLOCK LATTICE_CART
6.72066 0.0 0.0
-3.36033 5.82026 0.0
0.0 0.0 8.79568
%ENDBLOCK LATTICE_CART

%BLOCK POSITIONS_FRAC
P           0.000000000000000    0.000000000000000    0.633911000000000 
P           0.204309000000000    0.515616000000000    0.203072000000000 
P           0.311307000000000    0.795691000000000    0.203072000000000 
P           0.484384000000000    0.688693000000000    0.203072000000000 
P           0.515616000000000    0.311307000000000    0.203072000000000 
P           0.688693000000000    0.204309000000000    0.203072000000000 
P           0.795691000000000    0.484384000000000    0.203072000000000 
K           0.000000000000000    0.000000000000000    0.100788000000000 
K           0.000000000000000    0.500000000000000    0.761704000000000 
K           0.500000000000000    0.000000000000000    0.761704000000000 
K           0.500000000000000    0.500000000000000    0.761704000000000 
%ENDBLOCK POSITIONS_FRAC
