# Cell file generated by matador (Matthew Evans 2016)

%BLOCK LATTICE_CART
6.19977 0.0 0.0
0.146048 7.9972 0.0
2.20877 0.96008 8.10925
%ENDBLOCK LATTICE_CART

%BLOCK POSITIONS_FRAC
P           0.000000000000000    0.000000000000000    0.000000000000000 
P           0.000000000000000    0.500000000000000    0.000000000000000 
P           0.000000000000000    0.500000000000000    0.500000000000000 
P           0.135989000000000    0.381840000000000    0.202350000000000 
P           0.189029000000000    0.448109000000000    0.056532000000000 
P           0.275756000000000    0.667299000000000    0.881005000000000 
P           0.500000000000000    0.000000000000000    0.500000000000000 
P           0.724244000000000    0.332701000000000    0.118995000000000 
P           0.810971000000000    0.551891000000000    0.943468000000000 
P           0.864011000000000    0.618160000000000    0.797650000000000 
K           0.267962000000000    0.118319000000000    0.328633000000000 
K           0.289248000000000    0.286430000000000    0.579616000000000 
K           0.710752000000000    0.713570000000000    0.420384000000000 
K           0.732038000000000    0.881681000000000    0.671367000000000 
%ENDBLOCK POSITIONS_FRAC
