# Cell file generated by matador (Matthew Evans 2016)

%BLOCK LATTICE_CART
7.25285 0.0 0.0
0.0 7.25285 0.0
0.0 0.0 6.33011
%ENDBLOCK LATTICE_CART

%BLOCK POSITIONS_FRAC
P           0.213016000000000    0.213016000000000    0.000000000000000 
P           0.213016000000000    0.786984000000000    0.000000000000000 
P           0.500000000000000    0.500000000000000    0.000000000000000 
P           0.500000000000000    0.500000000000000    0.184050000000000 
P           0.500000000000000    0.500000000000000    0.815950000000000 
P           0.786984000000000    0.213016000000000    0.000000000000000 
P           0.786984000000000    0.786984000000000    0.000000000000000 
K           0.000000000000000    0.000000000000000    0.000000000000000 
K           0.000000000000000    0.000000000000000    0.500000000000000 
K           0.000000000000000    0.500000000000000    0.000000000000000 
K           0.500000000000000    0.000000000000000    0.000000000000000 
K           0.500000000000000    0.500000000000000    0.500000000000000 
%ENDBLOCK POSITIONS_FRAC
