# Cell file generated by matador (Matthew Evans 2016)

%BLOCK LATTICE_CART
4.91926 0.0 0.0
0.0 5.42754 0.0
-0.873749 0.0 7.28741
%ENDBLOCK LATTICE_CART

%BLOCK POSITIONS_FRAC
P           0.027675000000000    0.747650000000000    0.657722000000000 
P           0.068957000000000    0.106873000000000    0.632964000000000 
P           0.311226000000000    0.851363000000000    0.089711000000000 
P           0.500000000000000    0.401013000000000    0.000000000000000 
P           0.688774000000000    0.851363000000000    0.910289000000000 
P           0.931043000000000    0.106873000000000    0.367036000000000 
P           0.972325000000000    0.747650000000000    0.342278000000000 
K           0.500000000000000    0.660575000000000    0.500000000000000 
%ENDBLOCK POSITIONS_FRAC
