# Cell file generated by matador (Matthew Evans 2016)

%BLOCK LATTICE_CART
6.1364 0.0 0.0
-3.0682 5.31428 0.0
0.0 0.0 14.7027
%ENDBLOCK LATTICE_CART

%BLOCK POSITIONS_FRAC
P           0.000000000000000    0.356467000000000    0.427530000000000 
P           0.000000000000000    0.643533000000000    0.427530000000000 
P           0.333333000000000    0.666667000000000    0.793646000000000 
P           0.356467000000000    0.000000000000000    0.427530000000000 
P           0.356467000000000    0.356467000000000    0.427530000000000 
P           0.643533000000000    0.000000000000000    0.427530000000000 
P           0.643533000000000    0.643533000000000    0.427530000000000 
P           0.666667000000000    0.333333000000000    0.793646000000000 
K           0.000000000000000    0.500000000000000    0.164944000000000 
K           0.000000000000000    0.500000000000000    0.601180000000000 
K           0.500000000000000    0.000000000000000    0.164944000000000 
K           0.500000000000000    0.000000000000000    0.601180000000000 
K           0.500000000000000    0.500000000000000    0.164944000000000 
K           0.500000000000000    0.500000000000000    0.601180000000000 
%ENDBLOCK POSITIONS_FRAC
