# Cell file generated by matador (Matthew Evans 2016)

%BLOCK LATTICE_CART
6.71354 0.0 0.0
-3.35677 5.8141 0.0
0.0 0.0 5.39741
%ENDBLOCK LATTICE_CART

%BLOCK POSITIONS_FRAC
P           0.000000000000000    0.000000000000000    0.631153000000000 
P           0.333333000000000    0.666667000000000    0.294126000000000 
P           0.503429000000000    0.138504000000000    0.074732000000000 
P           0.635076000000000    0.496571000000000    0.074732000000000 
P           0.861496000000000    0.364924000000000    0.074732000000000 
K           0.000000000000000    0.000000000000000    0.096831000000000 
K           0.666667000000000    0.333333000000000    0.654187000000000 
%ENDBLOCK POSITIONS_FRAC
