# Cell file generated by matador (Matthew Evans 2016)

%BLOCK LATTICE_CART
5.02276 0.0 0.0
-2.51138 4.34984 0.0
0.0 0.0 4.97192
%ENDBLOCK LATTICE_CART

%BLOCK POSITIONS_FRAC
P           0.666667000000000    0.333333000000000    0.902037000000000 
K           0.000000000000000   -0.000000000000000    0.998367000000000 
K           0.333334000000000    0.666666000000000    0.805154000000000 
%ENDBLOCK POSITIONS_FRAC
