# Cell file generated by matador (Matthew Evans 2016)

%BLOCK LATTICE_CART
8.2045 0.0 0.0
0.0 7.50204 0.0
-2.38902 0.0 6.98996
%ENDBLOCK LATTICE_CART

%BLOCK POSITIONS_FRAC
P           0.000000000000000    0.158693000000000    0.000000000000000 
P           0.000000000000000    0.500968000000000    0.000000000000000 
P           0.000000000000000    0.966628000000000    0.500000000000000 
P           0.404442000000000    0.836285000000000    0.650513000000000 
P           0.595558000000000    0.836285000000000    0.349487000000000 
K           0.000000000000000    0.427319000000000    0.500000000000000 
K           0.050652000000000    0.229159000000000    0.710309000000000 
K           0.077309000000000    0.752221000000000    0.738170000000000 
K           0.292368000000000    0.142351000000000    0.246682000000000 
K           0.707632000000000    0.142351000000000    0.753318000000000 
K           0.922691000000000    0.752221000000000    0.261830000000000 
K           0.949348000000000    0.229159000000000    0.289691000000000 
%ENDBLOCK POSITIONS_FRAC
