# Cell file generated by matador (Matthew Evans 2016)

%BLOCK LATTICE_CART
8.93531 0.0 0.0
-4.46766 7.73821 0.0
0.0 0.0 8.25846
%ENDBLOCK LATTICE_CART

%BLOCK POSITIONS_FRAC
P           0.126834000000000    0.253669000000000    0.624472000000000 
P           0.126834000000000    0.873166000000000    0.624472000000000 
P           0.333333000000000    0.666667000000000    0.761572000000000 
P           0.746331000000000    0.873166000000000    0.624472000000000 
K          -0.000000000000000    0.000000000000000    0.099757000000000 
K           0.384792000000000    0.031399000000000    0.244125000000000 
K           0.384792000000000    0.353393000000000    0.244125000000000 
K           0.398790000000000    0.199395000000000    0.499458000000000 
K           0.543468000000000    0.086936000000000    0.907369000000000 
K           0.543468000000000    0.456532000000000    0.907369000000000 
K           0.646607000000000    0.031399000000000    0.244125000000000 
K           0.646607000000000    0.615208000000000    0.244125000000000 
K           0.666666000000000    0.333334000000000    0.606358000000000 
K           0.800605000000000    0.199395000000000    0.499458000000000 
K           0.800605000000000    0.601210000000000    0.499458000000000 
K           0.913064000000000    0.456532000000000    0.907369000000000 
K           0.968601000000000    0.353393000000000    0.244125000000000 
K           0.968601000000000    0.615208000000000    0.244125000000000 
%ENDBLOCK POSITIONS_FRAC
