# Cell file generated by matador (Matthew Evans 2016)

%BLOCK LATTICE_CART
9.19446 0.0 0.0
-4.59723 7.96264 0.0
0.0 0.0 4.67676
%ENDBLOCK LATTICE_CART

%BLOCK POSITIONS_FRAC
P           0.333334000000000    0.666668000000000    0.750000000000000 
P           0.666668000000000    0.333334000000000    0.250000000000000 
K           0.119131000000000    0.376018000000000    0.750000000000000 
K           0.256887000000000    0.880871000000000    0.750000000000000 
K           0.376018000000000    0.256887000000000    0.250000000000000 
K           0.623984000000000    0.743115000000000    0.750000000000000 
K           0.743115000000000    0.119131000000000    0.250000000000000 
K           0.880871000000000    0.623984000000000    0.250000000000000 
%ENDBLOCK POSITIONS_FRAC
