# Cell file generated by matador (Matthew Evans 2016)

%BLOCK LATTICE_CART
10.0959 0.0 0.0
0.0 10.4052 0.0
0.0 0.0 11.4861
%ENDBLOCK LATTICE_CART

%BLOCK POSITIONS_FRAC
P           0.100196000000000    0.648392000000000    0.417013000000000 
P           0.100196000000000    0.851608000000000    0.417013000000000 
P           0.399804000000000    0.148392000000000    0.917013000000000 
P           0.399804000000000    0.351608000000000    0.917013000000000 
P           0.600196000000000    0.648392000000000    0.082987000000000 
P           0.600196000000000    0.851608000000000    0.082987000000000 
P           0.899804000000000    0.148392000000000    0.582987000000000 
P           0.899804000000000    0.351608000000000    0.582987000000000 
K           0.000000000000000   -0.000000000000000   -0.000000000000000 
K           0.000000000000000   -0.000000000000000    0.500000000000000 
K           0.000000000000000    0.500000000000000   -0.000000000000000 
K           0.000000000000000    0.500000000000000    0.500000000000000 
K           0.009614000000000    0.750000000000000    0.177352000000000 
K           0.087497000000000    0.250000000000000    0.138823000000000 
K           0.107289000000000    0.750000000000000    0.645063000000000 
K           0.173014000000000    0.250000000000000    0.560546000000000 
K           0.326986000000000    0.750000000000000    0.060546000000000 
K           0.392711000000000    0.250000000000000    0.145063000000000 
K           0.412503000000000    0.750000000000000    0.638823000000000 
K           0.490386000000000    0.250000000000000    0.677352000000000 
K           0.500000000000000   -0.000000000000000   -0.000000000000000 
K           0.500000000000000   -0.000000000000000    0.500000000000000 
K           0.500000000000000    0.500000000000000   -0.000000000000000 
K           0.500000000000000    0.500000000000000    0.500000000000000 
K           0.509614000000000    0.750000000000000    0.322648000000000 
K           0.587497000000000    0.250000000000000    0.361177000000000 
K           0.607289000000000    0.750000000000000    0.854937000000000 
K           0.673014000000000    0.250000000000000    0.939454000000000 
K           0.826986000000000    0.750000000000000    0.439454000000000 
K           0.892711000000000    0.250000000000000    0.354937000000000 
K           0.912503000000000    0.750000000000000    0.861177000000000 
K           0.990386000000000    0.250000000000000    0.822648000000000 
%ENDBLOCK POSITIONS_FRAC
