# Cell file generated by matador (Matthew Evans 2016)

%BLOCK LATTICE_CART
8.38069 0.0 0.0
-4.19034 7.25789 0.0
0.0 0.0 7.81841
%ENDBLOCK LATTICE_CART

%BLOCK POSITIONS_FRAC
P           0.132917000000000    0.566459000000000    0.000000000000000 
P           0.132917000000000    0.566459000000000    0.500000000000000 
P           0.333333000000000    0.666667000000000    0.000000000000000 
P           0.333333000000000    0.666667000000000    0.500000000000000 
P           0.433541000000000    0.566459000000000    0.000000000000000 
P           0.433541000000000    0.566459000000000    0.500000000000000 
P           0.433541000000000    0.867083000000000    0.000000000000000 
P           0.433541000000000    0.867083000000000    0.500000000000000 
P           0.666667000000000    0.333333000000000    0.250000000000000 
P           0.666667000000000    0.333333000000000    0.750000000000000 
K           0.000000000000000    0.000000000000000    0.250000000000000 
K           0.000000000000000    0.000000000000000    0.750000000000000 
K           0.333333000000000    0.666667000000000    0.250000000000000 
K           0.333333000000000    0.666667000000000    0.750000000000000 
%ENDBLOCK POSITIONS_FRAC
