# Cell file generated by matador (Matthew Evans 2016)

%BLOCK LATTICE_CART
9.42535 0.0 0.0
-4.71267 8.16259 0.0
0.0 0.0 5.88538
%ENDBLOCK LATTICE_CART

%BLOCK POSITIONS_FRAC
P           0.333333000000000    0.666667000000000    0.500000000000000 
P           0.666666000000000    0.333334000000000    0.500000000000000 
K          -0.000000000000000    0.000000000000000    0.000000000000000 
K          -0.000000000000000    0.360238000000000    0.327493000000000 
K          -0.000000000000000    0.360238000000000    0.672507000000000 
K          -0.000000000000000    0.763917000000000    0.000000000000000 
K           0.236083000000000    0.236083000000000    0.000000000000000 
K           0.333333000000000    0.666667000000000    0.000000000000000 
K           0.360238000000000    0.000000000000000    0.327493000000000 
K           0.360238000000000    0.000000000000000    0.672507000000000 
K           0.639762000000000    0.639762000000000    0.327493000000000 
K           0.639762000000000    0.639762000000000    0.672507000000000 
K           0.666666000000000    0.333334000000000    0.000000000000000 
K           0.763917000000000    0.000000000000000    0.000000000000000 
%ENDBLOCK POSITIONS_FRAC
