# Cell file generated by matador (Matthew Evans 2016)

%BLOCK LATTICE_CART
7.11639 0.0 0.0
0.0 7.11639 0.0
0.0 0.0 10.429
%ENDBLOCK LATTICE_CART

%BLOCK POSITIONS_FRAC
P           0.000000000000000    0.500000000000000    0.072286000000000 
P           0.000000000000000    0.500000000000000    0.500000000000000 
P           0.000000000000000    0.500000000000000    0.927714000000000 
P           0.065849000000000    0.565849000000000    0.000000000000000 
P           0.434151000000000    0.065849000000000    0.000000000000000 
P           0.500000000000000    0.000000000000000    0.072286000000000 
P           0.500000000000000    0.000000000000000    0.500000000000000 
P           0.500000000000000    0.000000000000000    0.927714000000000 
P           0.565849000000000    0.934151000000000    0.000000000000000 
P           0.934151000000000    0.434151000000000    0.000000000000000 
K           0.139279000000000    0.151103000000000    0.627047000000000 
K           0.151103000000000    0.860721000000000    0.372953000000000 
K           0.348897000000000    0.360721000000000    0.372953000000000 
K           0.360721000000000    0.651103000000000    0.627047000000000 
K           0.639279000000000    0.348897000000000    0.627047000000000 
K           0.651103000000000    0.639279000000000    0.372953000000000 
K           0.848897000000000    0.139279000000000    0.372953000000000 
K           0.860721000000000    0.848897000000000    0.627047000000000 
%ENDBLOCK POSITIONS_FRAC
