# Cell file generated by matador (Matthew Evans 2016)

%BLOCK LATTICE_CART
6.78506 0.0 0.0
-3.39253 5.87604 0.0
0.0 0.0 6.24607
%ENDBLOCK LATTICE_CART

%BLOCK POSITIONS_FRAC
P           0.000000000000000   -0.000000000000000    0.929817000000000 
P           0.333334000000000    0.666666000000000    0.934412000000000 
P           0.508121000000000    0.455335000000000    0.805556000000000 
P           0.544665000000000    0.052786000000000    0.805556000000000 
P           0.666667000000000    0.333333000000000    0.516415000000000 
P           0.947214000000000    0.491879000000000    0.805556000000000 
K           0.254387000000000    0.159727000000000    0.351149000000000 
K           0.840273000000000    0.094659000000000    0.351149000000000 
K           0.905341000000000    0.745613000000000    0.351149000000000 
%ENDBLOCK POSITIONS_FRAC
