# Cell file generated by matador (Matthew Evans 2016)

%BLOCK LATTICE_CART
6.33519 0.0 0.0
-3.16759 5.48643 0.0
0.0 0.0 5.11456
%ENDBLOCK LATTICE_CART

%BLOCK POSITIONS_FRAC
P           0.000000000000000    0.000000000000000    0.241750000000000 
K           0.000000000000000    0.500000000000000    0.231986000000000 
K           0.333333000000000    0.666667000000000    0.948969000000000 
K           0.500000000000000    0.000000000000000    0.231986000000000 
K           0.500000000000000    0.500000000000000    0.231986000000000 
K           0.666667000000000    0.333333000000000    0.948969000000000 
%ENDBLOCK POSITIONS_FRAC
