# Cell file generated by matador (Matthew Evans 2016)

%BLOCK LATTICE_CART
9.29488 0.0 0.0
-4.64744 8.0496 0.0
0.0 0.0 7.0701
%ENDBLOCK LATTICE_CART

%BLOCK POSITIONS_FRAC
P           0.260087000000000    0.520174000000000    0.000000000000000 
P           0.260087000000000    0.739913000000000    0.000000000000000 
P           0.479826000000000    0.739913000000000    0.000000000000000 
P           0.520174000000000    0.260087000000000    0.000000000000000 
P           0.739913000000000    0.260087000000000    0.000000000000000 
P           0.739913000000000    0.479826000000000    0.000000000000000 
K           0.000000000000000    0.000000000000000    0.000000000000000 
K           0.000000000000000    0.000000000000000    0.500000000000000 
K           0.000000000000000    0.500000000000000    0.000000000000000 
K           0.000000000000000    0.500000000000000    0.500000000000000 
K           0.500000000000000    0.000000000000000    0.000000000000000 
K           0.500000000000000    0.000000000000000    0.500000000000000 
K           0.500000000000000    0.500000000000000    0.000000000000000 
K           0.500000000000000    0.500000000000000    0.500000000000000 
%ENDBLOCK POSITIONS_FRAC
