# Cell file generated by matador (Matthew Evans 2016)

%BLOCK LATTICE_CART
8.41608 0.0 0.0
-4.20804 7.28854 0.0
0.0 0.0 6.06366
%ENDBLOCK LATTICE_CART

%BLOCK POSITIONS_FRAC
P           0.000000000000000    0.316432000000000    0.000000000000000 
P           0.000000000000000    0.500000000000000    0.500000000000000 
P           0.000000000000000    0.683568000000000    0.000000000000000 
P           0.316432000000000    0.000000000000000    0.000000000000000 
P           0.316432000000000    0.316432000000000    0.000000000000000 
P           0.500000000000000    0.000000000000000    0.500000000000000 
P           0.500000000000000    0.500000000000000    0.500000000000000 
P           0.683568000000000    0.000000000000000    0.000000000000000 
P           0.683568000000000    0.683568000000000    0.000000000000000 
K           0.000000000000000    0.000000000000000    0.500000000000000 
K           0.333333000000000    0.666667000000000    0.325277000000000 
K           0.666667000000000    0.333333000000000    0.674723000000000 
%ENDBLOCK POSITIONS_FRAC
