# Cell file generated by matador (Matthew Evans 2016)

%BLOCK LATTICE_CART
8.64519 0.0 0.0
-4.3226 7.48696 0.0
0.0 0.0 5.68361
%ENDBLOCK LATTICE_CART

%BLOCK POSITIONS_FRAC
P           0.000001000000000    0.000001000000000    0.146078000000000 
P           0.000001000000000    0.000001000000000    0.353922000000000 
P           0.000001000000000    0.000001000000000    0.646078000000000 
P           0.000001000000000    0.000001000000000    0.853922000000000 
P           0.000001000000000    0.500001000000000    0.000000000000000 
P           0.000001000000000    0.500001000000000    0.500000000000000 
P           0.333334000000000    0.666668000000000    0.250000000000000 
P           0.500001000000000    0.000001000000000    0.000000000000000 
P           0.500001000000000    0.000001000000000    0.500000000000000 
P           0.500001000000000    0.500001000000000    0.000000000000000 
P           0.500001000000000    0.500001000000000    0.500000000000000 
P           0.666668000000000    0.333334000000000    0.750000000000000 
K           0.333334000000000    0.666668000000000    0.750000000000000 
K           0.666668000000000    0.333334000000000    0.250000000000000 
%ENDBLOCK POSITIONS_FRAC
