# Cell file generated by matador (Matthew Evans 2016)

%BLOCK LATTICE_CART
7.26479 0.0 0.0
-3.63239 6.29149 0.0
0.0 0.0 9.63116
%ENDBLOCK LATTICE_CART

%BLOCK POSITIONS_FRAC
P           0.152703000000000    0.576352000000000    0.457780000000000 
P           0.333333000000000    0.666667000000000    0.149395000000000 
P           0.333333000000000    0.666667000000000    0.479301000000000 
P           0.333333000000000    0.666667000000000    0.628419000000000 
P           0.333333000000000    0.666667000000000    0.855354000000000 
P           0.423648000000000    0.576352000000000    0.457780000000000 
P           0.423648000000000    0.847297000000000    0.457780000000000 
P           0.576352000000000    0.152703000000000    0.457780000000000 
P           0.576352000000000    0.423648000000000    0.457780000000000 
P           0.666667000000000    0.333333000000000    0.149395000000000 
P           0.666667000000000    0.333333000000000    0.479301000000000 
P           0.666667000000000    0.333333000000000    0.628419000000000 
P           0.666667000000000    0.333333000000000    0.855354000000000 
P           0.847297000000000    0.423648000000000    0.457780000000000 
K           0.000000000000000    0.000000000000000    0.138467000000000 
K           0.000000000000000    0.000000000000000    0.895131000000000 
%ENDBLOCK POSITIONS_FRAC
