# Cell file generated by matador (Matthew Evans 2016)

%BLOCK LATTICE_CART
8.44703 0.0 0.0
-4.22351 7.31534 0.0
0.0 0.0 7.51979
%ENDBLOCK LATTICE_CART

%BLOCK POSITIONS_FRAC
P           0.000000000000000    0.000000000000000    0.077555000000000 
P           0.000000000000000    0.000000000000000    0.922445000000000 
K           0.000000000000000    0.500000000000000    0.000000000000000 
K           0.000000000000000    0.500000000000000    0.500000000000000 
K           0.138762000000000    0.277523000000000    0.631521000000000 
K           0.138762000000000    0.861238000000000    0.631521000000000 
K           0.277523000000000    0.138762000000000    0.368479000000000 
K           0.500000000000000    0.000000000000000    0.000000000000000 
K           0.500000000000000    0.000000000000000    0.500000000000000 
K           0.500000000000000    0.500000000000000    0.000000000000000 
K           0.500000000000000    0.500000000000000    0.500000000000000 
K           0.722477000000000    0.861238000000000    0.631521000000000 
K           0.861238000000000    0.138762000000000    0.368479000000000 
K           0.861238000000000    0.722477000000000    0.368479000000000 
%ENDBLOCK POSITIONS_FRAC
