# Cell file generated by matador (Matthew Evans 2016)

%BLOCK LATTICE_CART
10.1504 0.0 0.0
-5.07522 8.79054 0.0
0.0 0.0 13.7966
%ENDBLOCK LATTICE_CART

%BLOCK POSITIONS_FRAC
P           0.000000000000000    0.000000000000000    0.000000000000000 
P           0.000000000000000    0.000000000000000    0.250000000000000 
P           0.000000000000000    0.000000000000000    0.500000000000000 
P           0.000000000000000    0.000000000000000    0.750000000000000 
P           0.333333000000000    0.666667000000000    0.250000000000000 
P           0.333333000000000    0.666667000000000    0.750000000000000 
P           0.666667000000000    0.333333000000000    0.250000000000000 
P           0.666667000000000    0.333333000000000    0.750000000000000 
K           0.000000000000000    0.500000000000000    0.000000000000000 
K           0.000000000000000    0.500000000000000    0.500000000000000 
K           0.040204000000000    0.527837000000000    0.250000000000000 
K           0.137120000000000    0.295573000000000    0.250000000000000 
K           0.158453000000000    0.862880000000000    0.250000000000000 
K           0.188705000000000    0.798578000000000    0.750000000000000 
K           0.201422000000000    0.390127000000000    0.750000000000000 
K           0.295573000000000    0.158453000000000    0.750000000000000 
K           0.390127000000000    0.188705000000000    0.250000000000000 
K           0.472163000000000    0.512367000000000    0.250000000000000 
K           0.487633000000000    0.959796000000000    0.250000000000000 
K           0.500000000000000    0.000000000000000    0.000000000000000 
K           0.500000000000000    0.000000000000000    0.500000000000000 
K           0.500000000000000    0.500000000000000    0.000000000000000 
K           0.500000000000000    0.500000000000000    0.500000000000000 
K           0.512367000000000    0.040204000000000    0.750000000000000 
K           0.527837000000000    0.487633000000000    0.750000000000000 
K           0.609873000000000    0.811295000000000    0.750000000000000 
K           0.704427000000000    0.841547000000000    0.250000000000000 
K           0.798578000000000    0.609873000000000    0.250000000000000 
K           0.811295000000000    0.201422000000000    0.250000000000000 
K           0.841547000000000    0.137120000000000    0.750000000000000 
K           0.862880000000000    0.704427000000000    0.750000000000000 
K           0.959796000000000    0.472163000000000    0.750000000000000 
%ENDBLOCK POSITIONS_FRAC
