# Cell file generated by matador (Matthew Evans 2016)

%BLOCK LATTICE_CART
9.39588 0.0 0.0
0.0 10.2951 0.0
2.74245 0.0 10.2914
%ENDBLOCK LATTICE_CART

%BLOCK POSITIONS_FRAC
P           0.087985000000000    0.000000000000000    0.907644000000000 
P           0.134553000000000    0.500000000000000    0.377272000000000 
P           0.321676000000000    0.000000000000000    0.213826000000000 
P           0.587985000000000    0.500000000000000    0.907644000000000 
P           0.634553000000000    0.000000000000000    0.377272000000000 
P           0.821676000000000    0.500000000000000    0.213826000000000 
K           0.002164000000000    0.500000000000000    0.985484000000000 
K           0.028914000000000    0.000000000000000    0.242114000000000 
K           0.046537000000000    0.000000000000000    0.640504000000000 
K           0.209477000000000    0.500000000000000    0.717037000000000 
K           0.278088000000000    0.210503000000000    0.233947000000000 
K           0.278088000000000    0.789497000000000    0.233947000000000 
K           0.287806000000000    0.500000000000000    0.062121000000000 
K           0.310513000000000    0.000000000000000    0.815346000000000 
K           0.405752000000000    0.000000000000000    0.501774000000000 
K           0.502164000000000    0.000000000000000    0.985484000000000 
K           0.528914000000000    0.500000000000000    0.242114000000000 
K           0.546537000000000    0.500000000000000    0.640504000000000 
K           0.709477000000000    0.000000000000000    0.717037000000000 
K           0.778088000000000    0.289497000000000    0.233947000000000 
K           0.778088000000000    0.710503000000000    0.233947000000000 
K           0.787806000000000    0.000000000000000    0.062121000000000 
K           0.810513000000000    0.500000000000000    0.815346000000000 
K           0.905752000000000    0.500000000000000    0.501774000000000 
%ENDBLOCK POSITIONS_FRAC
