# Cell file generated by matador (Matthew Evans 2016)

%BLOCK LATTICE_CART
8.66527 0.0 0.0
-5.02912 8.76905 0.0
1.55428 1.63225 4.94991
%ENDBLOCK LATTICE_CART

%BLOCK POSITIONS_FRAC
P           0.037112000000000    0.831332000000000    0.401934000000000 
P           0.379276000000000    0.321145000000000    0.592267000000000 
P           0.500000000000000    0.500000000000000    0.500000000000000 
P           0.620724000000000    0.678855000000000    0.407733000000000 
P           0.962888000000000    0.168668000000000    0.598066000000000 
K           0.000000000000000    0.000000000000000    0.000000000000000 
K           0.000000000000000    0.000000000000000    0.500000000000000 
K           0.000000000000000    0.500000000000000    0.000000000000000 
K           0.000000000000000    0.500000000000000    0.500000000000000 
K           0.280266000000000    0.627850000000000    0.689279000000000 
K           0.444802000000000    0.142797000000000    0.333416000000000 
K           0.500000000000000    0.000000000000000    0.000000000000000 
K           0.500000000000000    0.000000000000000    0.500000000000000 
K           0.555198000000000    0.857203000000000    0.666584000000000 
K           0.719734000000000    0.372150000000000    0.310721000000000 
%ENDBLOCK POSITIONS_FRAC
