# Cell file generated by matador (Matthew Evans 2016)

%BLOCK LATTICE_CART
5.60599 0.0 0.0
-2.80299 4.85493 0.0
0.0 0.0 9.93418
%ENDBLOCK LATTICE_CART

%BLOCK POSITIONS_FRAC
P          -0.000000000000000    0.000000000000000    0.063369000000000 
P          -0.000000000000000    0.000000000000000    0.525693000000000 
P          -0.000000000000000    0.000000000000000    0.725659000000000 
P          -0.000000000000000    0.000000000000000    0.843122000000000 
P           0.163438000000000    0.455278000000000    0.042772000000000 
P           0.291839000000000    0.836562000000000    0.042772000000000 
P           0.333333000000000    0.666667000000000    0.067370000000000 
P           0.455277000000000    0.163439000000000    0.042772000000000 
P           0.544722000000000    0.708161000000000    0.042772000000000 
P           0.666666000000000    0.333334000000000    0.067370000000000 
P           0.708160000000000    0.544723000000000    0.042772000000000 
P           0.836561000000000    0.291840000000000    0.042772000000000 
K           0.333333000000000    0.666667000000000    0.442744000000000 
K           0.666666000000000    0.333334000000000    0.442744000000000 
%ENDBLOCK POSITIONS_FRAC
