# Cell file generated by matador (Matthew Evans 2016)

%BLOCK LATTICE_CART
5.30502 0.0 0.0
0.0 5.30502 0.0
0.0 0.0 8.86807
%ENDBLOCK LATTICE_CART

%BLOCK POSITIONS_FRAC
P           0.000000000000000    0.000000000000000    0.000000000000000 
P           0.000000000000000    0.500000000000000    0.500000000000000 
P           0.500000000000000    0.000000000000000    0.500000000000000 
P           0.500000000000000    0.500000000000000    0.429055000000000 
P           0.500000000000000    0.500000000000000    0.570945000000000 
K           0.283813000000000    0.283813000000000    0.169177000000000 
K           0.283813000000000    0.716187000000000    0.830823000000000 
K           0.716187000000000    0.283813000000000    0.830823000000000 
K           0.716187000000000    0.716187000000000    0.169177000000000 
%ENDBLOCK POSITIONS_FRAC
