# Cell file generated by matador (Matthew Evans 2016)

%BLOCK LATTICE_CART
5.3407 0.0 0.0
-2.67035 4.62518 0.0
0.0 0.0 10.6388
%ENDBLOCK LATTICE_CART

%BLOCK POSITIONS_FRAC
P           0.000000000000000    0.000000000000000    0.318174000000000 
P           0.000000000000000    0.000000000000000    0.681826000000000 
P           0.104170000000000    0.552085000000000    0.500000000000000 
P           0.447915000000000    0.552085000000000    0.500000000000000 
P           0.447915000000000    0.895830000000000    0.500000000000000 
P           0.666667000000000    0.333333000000000    0.105846000000000 
P           0.666667000000000    0.333333000000000    0.894154000000000 
K           0.000000000000000    0.000000000000000    0.500000000000000 
K           0.333333000000000    0.666667000000000    0.000000000000000 
K           0.666667000000000    0.333333000000000    0.500000000000000 
%ENDBLOCK POSITIONS_FRAC
