# Cell file generated by matador (Matthew Evans 2016)

%BLOCK LATTICE_CART
7.01162 0.0 0.0
0.0 7.01162 0.0
0.0 0.0 12.6982
%ENDBLOCK LATTICE_CART

%BLOCK POSITIONS_FRAC
P           0.000000000000000    0.500000000000000    0.180891000000000 
P           0.000000000000000    0.500000000000000    0.680891000000000 
P           0.500000000000000    0.000000000000000    0.180891000000000 
P           0.500000000000000    0.000000000000000    0.680891000000000 
K           0.000000000000000    0.000000000000000    0.425633000000000 
K           0.000000000000000    0.000000000000000    0.925633000000000 
K           0.000000000000000    0.500000000000000    0.457037000000000 
K           0.000000000000000    0.500000000000000    0.957037000000000 
K           0.135391000000000    0.268702000000000    0.573970000000000 
K           0.135391000000000    0.731298000000000    0.073970000000000 
K           0.268702000000000    0.135391000000000    0.073970000000000 
K           0.268702000000000    0.864609000000000    0.573970000000000 
K           0.500000000000000    0.000000000000000    0.457037000000000 
K           0.500000000000000    0.000000000000000    0.957037000000000 
K           0.500000000000000    0.500000000000000    0.413209000000000 
K           0.500000000000000    0.500000000000000    0.913209000000000 
K           0.731298000000000    0.135391000000000    0.573970000000000 
K           0.731298000000000    0.864609000000000    0.073970000000000 
K           0.864609000000000    0.268702000000000    0.073970000000000 
K           0.864609000000000    0.731298000000000    0.573970000000000 
%ENDBLOCK POSITIONS_FRAC
