# Cell file generated by matador (Matthew Evans 2016)

%BLOCK LATTICE_CART
7.47147 0.0 0.0
0.0 8.89896 0.0
0.0 0.0 5.20623
%ENDBLOCK LATTICE_CART

%BLOCK POSITIONS_FRAC
P           0.250000000000000    0.711178000000000    0.625303000000000 
P           0.750000000000000    0.288822000000000    0.625303000000000 
K           0.250000000000000    0.178344000000000    0.782308000000000 
K           0.250000000000000    0.448686000000000    0.243479000000000 
K           0.250000000000000    0.831136000000000    0.025251000000000 
K           0.750000000000000    0.168864000000000    0.025251000000000 
K           0.750000000000000    0.551314000000000    0.243479000000000 
K           0.750000000000000    0.821656000000000    0.782308000000000 
%ENDBLOCK POSITIONS_FRAC
