# Cell file generated by matador (Matthew Evans 2016)

%BLOCK LATTICE_CART
6.59012 0.0 0.0
-3.29506 5.70721 0.0
0.0 0.0 6.35819
%ENDBLOCK LATTICE_CART

%BLOCK POSITIONS_FRAC
P           0.000000000000000    0.000000000000000    0.261904000000000 
K           0.000000000000000    0.000000000000000    0.615985000000000 
K           0.000000000000000    0.719073000000000    0.832891000000000 
K           0.280927000000000    0.280927000000000    0.832891000000000 
K           0.333333000000000    0.666667000000000    0.752046000000000 
K           0.666667000000000    0.333333000000000    0.752046000000000 
K           0.719073000000000    0.000000000000000    0.832891000000000 
%ENDBLOCK POSITIONS_FRAC
