# Cell file generated by matador (Matthew Evans 2016)

%BLOCK LATTICE_CART
9.62514 0.0 0.0
-4.81257 8.33561 0.0
0.0 0.0 8.39919
%ENDBLOCK LATTICE_CART

%BLOCK POSITIONS_FRAC
P           0.333334000000000    0.666666000000000    0.000000000000000 
P           0.333334000000000    0.666666000000000    0.500000000000000 
P           0.666668000000000    0.333332000000000    0.000000000000000 
P           0.666668000000000    0.333332000000000    0.500000000000000 
K           0.000001000000000    0.242090000000000    0.309579000000000 
K           0.000001000000000    0.499999000000000    0.000000000000000 
K           0.000001000000000    0.499999000000000    0.500000000000000 
K           0.000001000000000    0.757908000000000    0.690421000000000 
K           0.242092000000000    0.999999000000000    0.309579000000000 
K           0.242092000000000    0.242090000000000    0.690421000000000 
K           0.500001000000000    0.999999000000000    0.000000000000000 
K           0.500001000000000    0.999999000000000    0.500000000000000 
K           0.500001000000000    0.499999000000000    0.000000000000000 
K           0.500001000000000    0.499999000000000    0.500000000000000 
K           0.757910000000000    0.999999000000000    0.690421000000000 
K           0.757910000000000    0.757908000000000    0.309579000000000 
%ENDBLOCK POSITIONS_FRAC
