# Cell file generated by matador (Matthew Evans 2016)

%BLOCK LATTICE_CART
8.64089 0.0 0.0
0.0 8.09176 0.0
0.299909 0.0 8.45761
%ENDBLOCK LATTICE_CART

%BLOCK POSITIONS_FRAC
P           0.123234000000000    0.285504000000000    0.345408000000000 
P           0.123234000000000    0.714496000000000    0.345408000000000 
P           0.876766000000000    0.285504000000000    0.654592000000000 
P           0.876766000000000    0.714496000000000    0.654592000000000 
K           0.000000000000000    0.000000000000000    0.000000000000000 
K           0.000000000000000    0.000000000000000    0.500000000000000 
K           0.000000000000000    0.500000000000000    0.000000000000000 
K           0.244966000000000    0.500000000000000    0.265268000000000 
K           0.247102000000000    0.000000000000000    0.740421000000000 
K           0.251626000000000    0.500000000000000    0.714038000000000 
K           0.500000000000000    0.000000000000000    0.000000000000000 
K           0.500000000000000    0.000000000000000    0.500000000000000 
K           0.500000000000000    0.500000000000000    0.000000000000000 
K           0.748374000000000    0.500000000000000    0.285962000000000 
K           0.752898000000000    0.000000000000000    0.259579000000000 
K           0.755034000000000    0.500000000000000    0.734732000000000 
%ENDBLOCK POSITIONS_FRAC
