# Cell file generated by matador (Matthew Evans 2016)

%BLOCK LATTICE_CART
9.00643 0.0 0.0
0.0 9.00643 0.0
0.0 0.0 4.47741
%ENDBLOCK LATTICE_CART

%BLOCK POSITIONS_FRAC
P           0.019128000000000    0.980872000000000    0.750000000000000 
P           0.120913000000000    0.120913000000000   -0.000000000000000 
P           0.379087000000000    0.620913000000000    0.750000000000000 
P           0.480872000000000    0.480872000000000   -0.000000000000000 
P           0.519128000000000    0.519128000000000    0.500000000000000 
P           0.620913000000000    0.379087000000000    0.250000000000000 
P           0.879087000000000    0.879087000000000    0.500000000000000 
P           0.980872000000000    0.019128000000000    0.250000000000000 
K           0.194768000000000    0.805232000000000    0.250000000000000 
K           0.305232000000000    0.305232000000000    0.500000000000000 
K           0.694768000000000    0.694768000000000   -0.000000000000000 
K           0.805232000000000    0.194768000000000    0.750000000000000 
%ENDBLOCK POSITIONS_FRAC
