# Cell file generated by matador (Matthew Evans 2016)

%BLOCK LATTICE_CART
6.74881 0.0 0.0
-3.37441 5.84464 0.0
0.0 0.0 7.90679
%ENDBLOCK LATTICE_CART

%BLOCK POSITIONS_FRAC
P           0.000000000000000    0.000000000000000    0.500000000000000 
P           0.504430000000000    0.008859000000000    0.000000000000000 
P           0.504430000000000    0.495570000000000    0.000000000000000 
P           0.991141000000000    0.495570000000000    0.000000000000000 
K           0.000000000000000    0.000000000000000    0.000000000000000 
K           0.333333000000000    0.666667000000000    0.000000000000000 
K           0.333333000000000    0.666667000000000    0.500000000000000 
K           0.666667000000000    0.333333000000000    0.000000000000000 
K           0.666667000000000    0.333333000000000    0.500000000000000 
%ENDBLOCK POSITIONS_FRAC
