# Cell file generated by matador (Matthew Evans 2016)

%BLOCK LATTICE_CART
5.4202 0.0 0.0
0.0 6.91523 0.0
0.0 0.0 7.49605
%ENDBLOCK LATTICE_CART

%BLOCK POSITIONS_FRAC
P           0.368991000000000    0.000000000000000    0.500000000000000 
P           0.406535000000000    0.169760000000000    0.318942000000000 
P           0.406535000000000    0.830240000000000    0.681058000000000 
P           0.500000000000000    0.000000000000000    0.000000000000000 
P           0.593465000000000    0.169760000000000    0.681058000000000 
P           0.593465000000000    0.830240000000000    0.318942000000000 
P           0.631009000000000    0.000000000000000    0.500000000000000 
K           0.000000000000000    0.000000000000000    0.000000000000000 
K           0.000000000000000    0.000000000000000    0.500000000000000 
K           0.000000000000000    0.500000000000000    0.000000000000000 
K           0.500000000000000    0.500000000000000    0.000000000000000 
%ENDBLOCK POSITIONS_FRAC
