# Cell file generated by matador (Matthew Evans 2016)

%BLOCK LATTICE_CART
9.31822 0.0 0.0
-4.65911 8.06982 0.0
0.0 0.0 6.73943
%ENDBLOCK LATTICE_CART

%BLOCK POSITIONS_FRAC
P           0.333333000000000    0.666667000000000    0.000000000000000 
P           0.333333000000000    0.666667000000000    0.500000000000000 
P           0.666666000000000    0.333334000000000    0.000000000000000 
K           0.009232000000000    0.504616000000000    0.250151000000000 
K           0.009232000000000    0.504616000000000    0.749849000000000 
K           0.156836000000000    0.313673000000000    0.258355000000000 
K           0.156836000000000    0.313673000000000    0.741645000000000 
K           0.156836000000000    0.843164000000000    0.258355000000000 
K           0.156836000000000    0.843164000000000    0.741645000000000 
K           0.495384000000000    0.504616000000000    0.250151000000000 
K           0.495384000000000    0.504616000000000    0.749849000000000 
K           0.495384000000000    0.990768000000000    0.250151000000000 
K           0.495384000000000    0.990768000000000    0.749849000000000 
K           0.686327000000000    0.843164000000000    0.258355000000000 
K           0.686327000000000    0.843164000000000    0.741645000000000 
%ENDBLOCK POSITIONS_FRAC
