# Cell file generated by matador (Matthew Evans 2016)

%BLOCK LATTICE_CART
9.26577 0.0 0.0
-4.63289 8.0244 0.0
0.0 0.0 5.97523
%ENDBLOCK LATTICE_CART

%BLOCK POSITIONS_FRAC
P           0.000000000000000    0.000000000000000    0.165284000000000 
P           0.000000000000000    0.000000000000000    0.834716000000000 
P           0.333333000000000    0.666667000000000    0.306216000000000 
P           0.333333000000000    0.666667000000000    0.693784000000000 
K           0.000000000000000    0.000000000000000    0.500000000000000 
K           0.159525000000000    0.579763000000000    0.000000000000000 
K           0.338091000000000    0.059130000000000    0.562122000000000 
K           0.338091000000000    0.278961000000000    0.437878000000000 
K           0.420237000000000    0.579763000000000    0.000000000000000 
K           0.420237000000000    0.840475000000000    0.000000000000000 
K           0.721039000000000    0.059130000000000    0.437878000000000 
K           0.721039000000000    0.661909000000000    0.562122000000000 
K           0.940870000000000    0.278961000000000    0.562122000000000 
K           0.940870000000000    0.661909000000000    0.437878000000000 
%ENDBLOCK POSITIONS_FRAC
