# Cell file generated by matador (Matthew Evans 2016)

%BLOCK LATTICE_CART
7.15556 0.0 0.0
0.0 4.09653 0.0
1.08011 0.0 5.22642
%ENDBLOCK LATTICE_CART

%BLOCK POSITIONS_FRAC
P           0.354560000000000    0.000000000000000    0.432258000000000 
K           0.064891000000000    0.000000000000000    0.806646000000000 
K           0.377969000000000    0.500000000000000    0.517520000000000 
K           0.466244000000000    0.000000000000000    0.037765000000000 
K           0.939991000000000    0.500000000000000    0.296767000000000 
%ENDBLOCK POSITIONS_FRAC
