# Cell file generated by matador (Matthew Evans 2016)

%BLOCK LATTICE_CART
7.36447 0.0 0.0
-3.68224 6.37782 0.0
0.0 0.0 12.3286
%ENDBLOCK LATTICE_CART

%BLOCK POSITIONS_FRAC
P           0.000000000000000    0.252508000000000    0.666667000000000 
P           0.000000000000000    0.363143000000000    0.166667000000000 
P           0.000000000000000    0.662001000000000    0.166667000000000 
P           0.252508000000000   -0.000000000000000    0.333334000000000 
P           0.337999000000000    0.337999000000000    0.500000000000000 
P           0.363143000000000   -0.000000000000000    0.833334000000000 
P           0.636857000000000    0.636857000000000    0.500000000000000 
P           0.662001000000000   -0.000000000000000    0.833334000000000 
P           0.747492000000000    0.747492000000000    0.000000000000000 
K           0.010658000000000    0.576482000000000    0.871657000000000 
K           0.423518000000000    0.434176000000000    0.204990000000000 
K           0.434176000000000    0.423518000000000    0.795010000000000 
K           0.565824000000000    0.989342000000000    0.538324000000000 
K           0.576482000000000    0.010658000000000    0.128344000000000 
K           0.989342000000000    0.565824000000000    0.461677000000000 
%ENDBLOCK POSITIONS_FRAC
