# Cell file generated by matador (Matthew Evans 2016)

%BLOCK LATTICE_CART
8.61246 0.0 0.0
0.0 9.85421 0.0
0.429628 0.0 4.6698
%ENDBLOCK LATTICE_CART

%BLOCK POSITIONS_FRAC
P           0.000000000000000    0.094426000000000   -0.000000000000000 
P           0.000000000000000    0.901183000000000    0.500000000000000 
P           0.030287000000000    0.349405000000000    0.094853000000000 
P           0.261538000000000    0.913821000000000    0.369554000000000 
P           0.406389000000000    0.531393000000000    0.345849000000000 
P           0.460225000000000    0.236168000000000    0.719493000000000 
P           0.539775000000000    0.236168000000000    0.280507000000000 
P           0.593611000000000    0.531393000000000    0.654151000000000 
P           0.738462000000000    0.913821000000000    0.630446000000000 
P           0.969713000000000    0.349405000000000    0.905147000000000 
K           0.054473000000000    0.724107000000000    0.278611000000000 
K           0.208511000000000    0.795433000000000    0.852994000000000 
K           0.791489000000000    0.795433000000000    0.147006000000000 
K           0.945527000000000    0.724107000000000    0.721389000000000 
%ENDBLOCK POSITIONS_FRAC
