# Cell file generated by matador (Matthew Evans 2016)

%BLOCK LATTICE_CART
10.2665 0.0 0.0
0.0 6.26976 0.0
-1.571 0.0 8.94504
%ENDBLOCK LATTICE_CART

%BLOCK POSITIONS_FRAC
P           0.046695000000000    0.821896000000000    0.572767000000000 
P           0.072523000000000    0.445923000000000    0.017789000000000 
P           0.100400000000000    0.252276000000000    0.156572000000000 
P           0.125881000000000    0.140023000000000    0.930191000000000 
P           0.243701000000000    0.851167000000000    0.196203000000000 
P           0.258102000000000    0.193287000000000    0.628684000000000 
P           0.320225000000000    0.139231000000000    0.177087000000000 
P           0.679775000000000    0.139231000000000    0.822913000000000 
P           0.741898000000000    0.193287000000000    0.371316000000000 
P           0.756299000000000    0.851167000000000    0.803797000000000 
P           0.874119000000000    0.140023000000000    0.069809000000000 
P           0.899600000000000    0.252276000000000    0.843428000000000 
P           0.927477000000000    0.445923000000000    0.982211000000000 
P           0.953305000000000    0.821896000000000    0.427233000000000 
K           0.000000000000000    0.467128000000000    0.500000000000000 
K           0.000000000000000    0.904373000000000    0.000000000000000 
K           0.442053000000000    0.447350000000000    0.690089000000000 
K           0.500000000000000    0.032140000000000    0.500000000000000 
K           0.500000000000000    0.637750000000000    0.000000000000000 
K           0.557947000000000    0.447350000000000    0.309911000000000 
%ENDBLOCK POSITIONS_FRAC
