# Cell file generated by matador (Matthew Evans 2016)

%BLOCK LATTICE_CART
7.60281 0.0 0.0
0.0 7.60281 0.0
0.0 0.0 8.44744
%ENDBLOCK LATTICE_CART

%BLOCK POSITIONS_FRAC
P           0.000000000000000    0.500000000000000    0.500000000000000 
P           0.261724000000000    0.455209000000000    0.408124000000000 
P           0.261724000000000    0.544791000000000    0.591876000000000 
P           0.455209000000000    0.261724000000000    0.091876000000000 
P           0.455209000000000    0.738276000000000    0.908124000000000 
P           0.500000000000000    0.000000000000000    0.000000000000000 
P           0.544791000000000    0.261724000000000    0.908124000000000 
P           0.544791000000000    0.738276000000000    0.091876000000000 
P           0.738276000000000    0.455209000000000    0.591876000000000 
P           0.738276000000000    0.544791000000000    0.408124000000000 
K           0.500000000000000    0.500000000000000    0.000000000000000 
K           0.500000000000000    0.500000000000000    0.250000000000000 
K           0.500000000000000    0.500000000000000    0.500000000000000 
K           0.500000000000000    0.500000000000000    0.750000000000000 
%ENDBLOCK POSITIONS_FRAC
