# Cell file generated by matador (Matthew Evans 2016)

%BLOCK LATTICE_CART
6.12138 0.0 0.0
0.0 5.91905 0.0
3.46546 0.0 6.9142
%ENDBLOCK LATTICE_CART

%BLOCK POSITIONS_FRAC
P           0.038850000000000    0.347314000000000    0.258066000000000 
P           0.038850000000000    0.652686000000000    0.258066000000000 
P           0.500000000000000    0.000000000000000    0.000000000000000 
P           0.961150000000000    0.347314000000000    0.741934000000000 
P           0.961150000000000    0.652686000000000    0.741934000000000 
K           0.000000000000000    0.500000000000000    0.000000000000000 
K           0.000000000000000    0.500000000000000    0.500000000000000 
K           0.500000000000000    0.500000000000000    0.000000000000000 
%ENDBLOCK POSITIONS_FRAC
