# Cell file generated by matador (Matthew Evans 2016)

%BLOCK LATTICE_CART
8.92909 0.0 0.0
-4.46454 7.73282 0.0
0.0 0.0 2.30892
%ENDBLOCK LATTICE_CART

%BLOCK POSITIONS_FRAC
P           0.168539000000000    0.084269000000000    0.000000000000000 
P           0.537347000000000    0.074694000000000    0.000000000000000 
P           0.537347000000000    0.462653000000000    0.000000000000000 
P           0.915731000000000    0.084269000000000    0.000000000000000 
P           0.915731000000000    0.831461000000000    0.000000000000000 
P           0.925306000000000    0.462653000000000    0.000000000000000 
K           0.666667000000000    0.333333000000000    0.000000000000000 
%ENDBLOCK POSITIONS_FRAC
