# Cell file generated by matador (Matthew Evans 2016)

%BLOCK LATTICE_CART
6.57737 0.0 0.0
0.0 5.48337 0.0
2.46018 0.0 7.8609
%ENDBLOCK LATTICE_CART

%BLOCK POSITIONS_FRAC
P           0.500000000000000    0.000000000000000    0.500000000000000 
P           0.500000000000000    0.500000000000000    0.500000000000000 
K           0.000000000000000    0.000000000000000    0.000000000000000 
K           0.000000000000000    0.500000000000000    0.000000000000000 
K           0.172432000000000    0.250000000000000    0.612533000000000 
K           0.423544000000000    0.750000000000000    0.842449000000000 
K           0.576456000000000    0.250000000000000    0.157551000000000 
K           0.827568000000000    0.750000000000000    0.387467000000000 
%ENDBLOCK POSITIONS_FRAC
