# Cell file generated by matador (Matthew Evans 2016)

%BLOCK LATTICE_CART
10.6703 0.0 0.0
0.0 7.28394 0.0
0.0 0.0 8.69345
%ENDBLOCK LATTICE_CART

%BLOCK POSITIONS_FRAC
P           0.232240000000000    0.750000000000000    0.250000000000000 
P           0.267760000000000    0.250000000000000    0.250000000000000 
P           0.732240000000000    0.750000000000000    0.750000000000000 
P           0.767760000000000    0.250000000000000    0.750000000000000 
K           0.000000000000000    0.000000000000000    0.000000000000000 
K           0.000000000000000    0.000000000000000    0.500000000000000 
K           0.000000000000000    0.500000000000000    0.000000000000000 
K           0.000000000000000    0.500000000000000    0.500000000000000 
K           0.250000000000000    0.000000000000000    0.664425000000000 
K           0.250000000000000    0.500000000000000    0.835575000000000 
K           0.500000000000000    0.000000000000000    0.000000000000000 
K           0.500000000000000    0.000000000000000    0.500000000000000 
K           0.500000000000000    0.500000000000000    0.000000000000000 
K           0.500000000000000    0.500000000000000    0.500000000000000 
K           0.750000000000000    0.000000000000000    0.335575000000000 
K           0.750000000000000    0.500000000000000    0.164425000000000 
%ENDBLOCK POSITIONS_FRAC
