# Cell file generated by matador (Matthew Evans 2016)

%BLOCK LATTICE_CART
10.7555 -0.0 0.0
-5.37776 9.31455 0.0
0.0 0.0 4.47843
%ENDBLOCK LATTICE_CART

%BLOCK POSITIONS_FRAC
P           0.151695000000000    0.070348000000000    0.500000000000000 
P           0.918654000000000    0.848305000000000    0.500000000000000 
P           0.929652000000000    0.081346000000000    0.500000000000000 
K           0.047385000000000    0.205033000000000    0.000000000000000 
K           0.127264000000000    0.582674000000000    0.000000000000000 
K           0.157648000000000    0.952615000000000    0.000000000000000 
K           0.417326000000000    0.544589000000000    0.000000000000000 
K           0.455411000000000    0.872736000000000    0.000000000000000 
K           0.481305000000000    0.172899000000000    0.000000000000000 
K           0.691594000000000    0.518695000000000    0.000000000000000 
K           0.794967000000000    0.842352000000000    0.000000000000000 
K           0.827101000000000    0.308406000000000    0.000000000000000 
%ENDBLOCK POSITIONS_FRAC
