# Cell file generated by matador (Matthew Evans 2016)

%BLOCK LATTICE_CART
6.47008 0.0 0.0
0.0 7.94604 0.0
4.01125 0.0 7.25443
%ENDBLOCK LATTICE_CART

%BLOCK POSITIONS_FRAC
P           0.000000000000000    0.346975000000000    0.000000000000000 
P           0.000000000000000    0.818705000000000    0.000000000000000 
P           0.088853000000000    0.145940000000000    0.812711000000000 
P           0.223032000000000    0.744290000000000    0.410221000000000 
P           0.296954000000000    0.911617000000000    0.164611000000000 
P           0.405648000000000    0.180299000000000    0.280128000000000 
P           0.500000000000000    0.186962000000000    0.000000000000000 
P           0.500000000000000    0.827747000000000    0.000000000000000 
P           0.594352000000000    0.180299000000000    0.719872000000000 
P           0.703046000000000    0.911617000000000    0.835389000000000 
P           0.776968000000000    0.744290000000000    0.589779000000000 
P           0.911147000000000    0.145940000000000    0.187289000000000 
K           0.270077000000000    0.589533000000000    0.151824000000000 
K           0.729923000000000    0.589533000000000    0.848176000000000 
%ENDBLOCK POSITIONS_FRAC
