# Cell file generated by matador (Matthew Evans 2016)

%BLOCK LATTICE_CART
8.96055 0.0 0.0
0.0 8.96055 0.0
0.0 0.0 6.41421
%ENDBLOCK LATTICE_CART

%BLOCK POSITIONS_FRAC
P           0.000000000000000    0.000000000000000    0.500000000000000 
P           0.025809000000000    0.672527000000000    0.000000000000000 
P           0.172527000000000    0.474191000000000    0.500000000000000 
P           0.327473000000000    0.974191000000000    0.000000000000000 
P           0.474191000000000    0.172527000000000    0.500000000000000 
P           0.500000000000000    0.500000000000000    0.000000000000000 
P           0.525809000000000    0.827473000000000    0.500000000000000 
P           0.672527000000000    0.025809000000000    0.000000000000000 
P           0.827473000000000    0.525809000000000    0.500000000000000 
P           0.974191000000000    0.327473000000000    0.000000000000000 
K           0.089895000000000    0.737725000000000    0.500000000000000 
K           0.237725000000000    0.410105000000000    0.000000000000000 
K           0.262275000000000    0.910105000000000    0.500000000000000 
K           0.410105000000000    0.237725000000000    0.000000000000000 
K           0.589895000000000    0.762275000000000    0.000000000000000 
K           0.737725000000000    0.089895000000000    0.500000000000000 
K           0.762275000000000    0.589895000000000    0.000000000000000 
K           0.910105000000000    0.262275000000000    0.500000000000000 
%ENDBLOCK POSITIONS_FRAC
