# Cell file generated by matador (Matthew Evans 2016)

%BLOCK LATTICE_CART
9.16311 0.0 0.0
0.0 9.16311 0.0
0.0 0.0 12.1959
%ENDBLOCK LATTICE_CART

%BLOCK POSITIONS_FRAC
P           0.000000000000000    0.000000000000000    0.132977000000000 
P           0.000000000000000    0.000000000000000    0.867023000000000 
P           0.000000000000000    0.212101000000000    0.095775000000000 
P           0.000000000000000    0.787899000000000    0.095775000000000 
P           0.212101000000000    0.000000000000000    0.904225000000000 
P           0.787899000000000    0.000000000000000    0.904225000000000 
K           0.000000000000000    0.000000000000000    0.500000000000000 
K           0.000000000000000    0.160807000000000    0.754447000000000 
K           0.000000000000000    0.325771000000000    0.313280000000000 
K           0.000000000000000    0.337946000000000    0.958189000000000 
K           0.000000000000000    0.339118000000000    0.557087000000000 
K           0.000000000000000    0.660882000000000    0.557087000000000 
K           0.000000000000000    0.662054000000000    0.958189000000000 
K           0.000000000000000    0.674229000000000    0.313280000000000 
K           0.000000000000000    0.839193000000000    0.754447000000000 
K           0.160807000000000    0.000000000000000    0.245553000000000 
K           0.325771000000000    0.000000000000000    0.686720000000000 
K           0.337946000000000    0.000000000000000    0.041811000000000 
K           0.339118000000000    0.000000000000000    0.442913000000000 
K           0.500000000000000    0.500000000000000    0.500000000000000 
K           0.660882000000000    0.000000000000000    0.442913000000000 
K           0.662054000000000    0.000000000000000    0.041811000000000 
K           0.674229000000000    0.000000000000000    0.686720000000000 
K           0.839193000000000    0.000000000000000    0.245553000000000 
%ENDBLOCK POSITIONS_FRAC
