# Cell file generated by matador (Matthew Evans 2016)

%BLOCK LATTICE_CART
10.1857 0.0 0.0
0.0 5.95581 0.0
0.0 0.0 10.2357
%ENDBLOCK LATTICE_CART

%BLOCK POSITIONS_FRAC
P           0.193818000000000    0.856528000000000    0.191443000000000 
P           0.241899000000000    0.069953000000000    0.131433000000000 
P           0.258101000000000    0.569953000000000    0.131433000000000 
P           0.306182000000000    0.356528000000000    0.191443000000000 
P           0.693818000000000    0.643472000000000    0.191443000000000 
P           0.741899000000000    0.430047000000000    0.131433000000000 
P           0.758101000000000    0.930047000000000    0.131433000000000 
P           0.806182000000000    0.143472000000000    0.191443000000000 
K           0.000000000000000    0.000000000000000    0.400316000000000 
K           0.000000000000000    0.000000000000000    0.893931000000000 
K           0.000000000000000    0.500000000000000    0.773503000000000 
K           0.146980000000000    0.738466000000000    0.443521000000000 
K           0.353020000000000    0.238466000000000    0.443521000000000 
K           0.500000000000000    0.000000000000000    0.773503000000000 
K           0.500000000000000    0.500000000000000    0.400316000000000 
K           0.500000000000000    0.500000000000000    0.893931000000000 
K           0.646980000000000    0.761534000000000    0.443521000000000 
K           0.853020000000000    0.261534000000000    0.443521000000000 
%ENDBLOCK POSITIONS_FRAC
