# Cell file generated by matador (Matthew Evans 2016)

%BLOCK LATTICE_CART
10.599 0.0 0.0
-0.703864 4.33286 0.0
-4.31745 -3.22206 7.18498
%ENDBLOCK LATTICE_CART

%BLOCK POSITIONS_FRAC
P           0.000000000000000    0.500000000000000    0.000000000000000 
P           0.213524000000000    0.051502000000000    0.193119000000000 
P           0.358461000000000    0.501903000000000    0.686149000000000 
P           0.641539000000000    0.498097000000000    0.313851000000000 
P           0.786476000000000    0.948497000000000    0.806881000000000 
K           0.000000000000000    0.000000000000000    0.000000000000000 
K           0.000000000000000    0.500000000000000    0.500000000000000 
K           0.500000000000000    0.000000000000000    0.000000000000000 
K           0.500000000000000    0.000000000000000    0.500000000000000 
K           0.500000000000000    0.500000000000000    0.000000000000000 
K           0.500000000000000    0.500000000000000    0.500000000000000 
%ENDBLOCK POSITIONS_FRAC
