# Cell file generated by matador (Matthew Evans 2016)

%BLOCK LATTICE_CART
8.60553 0.0 0.0
-4.30276 7.4526 0.0
0.0 0.0 7.44236
%ENDBLOCK LATTICE_CART

%BLOCK POSITIONS_FRAC
P           0.000000000000000    0.551838000000000    0.710576000000000 
P           0.448162000000000    0.448162000000000    0.710576000000000 
P           0.551838000000000    0.000000000000000    0.710576000000000 
K           0.000000000000000    0.000000000000000    0.234278000000000 
K           0.000000000000000    0.222644000000000    0.843023000000000 
K           0.000000000000000    0.655232000000000    0.380204000000000 
K           0.222644000000000    0.000000000000000    0.843023000000000 
K           0.333333000000000    0.666667000000000    0.127217000000000 
K           0.344768000000000    0.344768000000000    0.380204000000000 
K           0.655232000000000    0.000000000000000    0.380204000000000 
K           0.666667000000000    0.333333000000000    0.127217000000000 
K           0.777356000000000    0.777356000000000    0.843023000000000 
%ENDBLOCK POSITIONS_FRAC
