# Cell file generated by matador (Matthew Evans 2016)

%BLOCK LATTICE_CART
11.8273 0.0 0.0
0.0 7.95667 0.0
0.781104 0.0 7.24088
%ENDBLOCK LATTICE_CART

%BLOCK POSITIONS_FRAC
P           0.000000000000000    0.000000000000000    0.000000000000000 
P           0.000000000000000    0.000000000000000    0.500000000000000 
P           0.000000000000000    0.500000000000000    0.000000000000000 
P           0.000000000000000    0.500000000000000    0.500000000000000 
K           0.091980000000000    0.250000000000000    0.182125000000000 
K           0.154633000000000    0.750000000000000    0.409541000000000 
K           0.273844000000000    0.250000000000000    0.505037000000000 
K           0.319977000000000    0.250000000000000    0.999117000000000 
K           0.500000000000000    0.000000000000000    0.000000000000000 
K           0.500000000000000    0.000000000000000    0.500000000000000 
K           0.500000000000000    0.500000000000000    0.000000000000000 
K           0.500000000000000    0.500000000000000    0.500000000000000 
K           0.680023000000000    0.750000000000000    0.000883000000000 
K           0.726156000000000    0.750000000000000    0.494963000000000 
K           0.845367000000000    0.250000000000000    0.590459000000000 
K           0.908020000000000    0.750000000000000    0.817875000000000 
%ENDBLOCK POSITIONS_FRAC
