# Cell file generated by matador (Matthew Evans 2016)

%BLOCK LATTICE_CART
8.01341 -0.0 0.0
-4.00671 6.93982 0.0
0.0 0.0 7.87066
%ENDBLOCK LATTICE_CART

%BLOCK POSITIONS_FRAC
P           0.098239000000000    0.882149000000000    0.086012000000000 
P           0.117851000000000    0.216090000000000    0.419346000000000 
P           0.264596000000000    0.261845000000000    0.446397000000000 
P           0.472901000000000    0.400721000000000    0.065838000000000 
P           0.599279000000000    0.072180000000000    0.399171000000000 
P           0.738155000000000    0.002751000000000    0.779730000000000 
P           0.783910000000000    0.901761000000000    0.752679000000000 
P           0.927820000000000    0.527099000000000    0.732504000000000 
P           0.997249000000000    0.735404000000000    0.113063000000000 
K           0.374532000000000    0.325370000000000    0.791381000000000 
K           0.674630000000000    0.049162000000000    0.124714000000000 
K           0.950838000000000    0.625468000000000    0.458047000000000 
%ENDBLOCK POSITIONS_FRAC
