# Cell file generated by matador (Matthew Evans 2016)

%BLOCK LATTICE_CART
10.3641 0.0 0.0
0.0 7.76312 0.0
-2.48778 0.0 4.78511
%ENDBLOCK LATTICE_CART

%BLOCK POSITIONS_FRAC
P           0.000000000000000    0.500000000000000    0.000000000000000 
P           0.037249000000000    0.204708000000000    0.391774000000000 
P           0.037249000000000    0.795292000000000    0.391774000000000 
P           0.311695000000000    0.000000000000000    0.145483000000000 
P           0.688305000000000    0.000000000000000    0.854517000000000 
P           0.962751000000000    0.204708000000000    0.608226000000000 
P           0.962751000000000    0.795292000000000    0.608226000000000 
K           0.000000000000000    0.000000000000000    0.000000000000000 
K           0.500000000000000    0.000000000000000    0.000000000000000 
K           0.500000000000000    0.000000000000000    0.500000000000000 
K           0.500000000000000    0.500000000000000    0.000000000000000 
K           0.500000000000000    0.500000000000000    0.500000000000000 
%ENDBLOCK POSITIONS_FRAC
