# Cell file generated by matador (Matthew Evans 2016)

%BLOCK LATTICE_CART
7.84217 0.0 0.0
-3.92108 6.79152 0.0
0.0 0.0 7.24191
%ENDBLOCK LATTICE_CART

%BLOCK POSITIONS_FRAC
P           0.057488000000000    0.385768000000000    0.675588000000000 
P           0.057488000000000    0.671720000000000    0.675588000000000 
P           0.096375000000000    0.446452000000000    0.495737000000000 
P           0.096375000000000    0.649924000000000    0.495737000000000 
P           0.328280000000000    0.385768000000000    0.675588000000000 
P           0.328280000000000    0.942512000000000    0.675588000000000 
P           0.350076000000000    0.446452000000000    0.495737000000000 
P           0.350076000000000    0.903625000000000    0.495737000000000 
P           0.553548000000000    0.649924000000000    0.495737000000000 
P           0.553548000000000    0.903625000000000    0.495737000000000 
P           0.614232000000000    0.671720000000000    0.675588000000000 
P           0.614232000000000    0.942512000000000    0.675588000000000 
K           0.000000000000000    0.000000000000000    0.605190000000000 
K           0.333333000000000    0.666667000000000    0.170143000000000 
K           0.333333000000000    0.666667000000000    0.689017000000000 
K           0.666667000000000    0.333333000000000    0.465773000000000 
%ENDBLOCK POSITIONS_FRAC
