# Cell file generated by matador (Matthew Evans 2016)

%BLOCK LATTICE_CART
9.48751 0.0 0.0
-4.74375 8.21642 0.0
0.0 0.0 6.91258
%ENDBLOCK LATTICE_CART

%BLOCK POSITIONS_FRAC
P           0.000000000000000   -0.000000000000000    0.000000000000000 
P           0.105538000000000    0.052768000000000    0.500000000000000 
P           0.182622000000000    0.091310000000000    0.000000000000000 
P           0.333334000000000    0.666666000000000    0.500000000000000 
P           0.908690000000000    0.091310000000000    0.000000000000000 
P           0.908690000000000    0.817378000000000    0.000000000000000 
P           0.947232000000000    0.052768000000000    0.500000000000000 
P           0.947232000000000    0.894462000000000    0.500000000000000 
K           0.036413000000000    0.396058000000000    0.000000000000000 
K           0.036413000000000    0.640354000000000    0.000000000000000 
K           0.359646000000000    0.396058000000000    0.000000000000000 
K           0.359646000000000    0.963587000000000    0.000000000000000 
K           0.603942000000000    0.640354000000000    0.000000000000000 
K           0.603942000000000    0.963587000000000    0.000000000000000 
%ENDBLOCK POSITIONS_FRAC
