# Cell file generated by matador (Matthew Evans 2016)

%BLOCK LATTICE_CART
6.99082 0.0 0.0
0.0 9.90867 0.0
-3.11482 0.0 7.2944
%ENDBLOCK LATTICE_CART

%BLOCK POSITIONS_FRAC
P           0.255511000000000    0.000000000000000    0.654866000000000 
P           0.446910000000000    0.000000000000000    0.325651000000000 
P           0.935549000000000    0.075874000000000    0.716148000000000 
P           0.935549000000000    0.924126000000000    0.716148000000000 
P           0.953307000000000    0.500000000000000    0.340033000000000 
K           0.060896000000000    0.000000000000000    0.056839000000000 
K           0.137758000000000    0.000000000000000    0.357487000000000 
K           0.184091000000000    0.500000000000000    0.036838000000000 
K           0.221212000000000    0.000000000000000    0.896875000000000 
K           0.556848000000000    0.000000000000000    0.120959000000000 
K           0.608593000000000    0.500000000000000    0.531292000000000 
K           0.699558000000000    0.000000000000000    0.779785000000000 
K           0.790873000000000    0.000000000000000    0.044662000000000 
K           0.842060000000000    0.000000000000000    0.408796000000000 
K           0.852520000000000    0.500000000000000    0.914664000000000 
%ENDBLOCK POSITIONS_FRAC
