# Cell file generated by matador (Matthew Evans 2016)

%BLOCK LATTICE_CART
8.17387 0.0 0.0
0.0 8.17387 0.0
0.0 0.0 13.759
%ENDBLOCK LATTICE_CART

%BLOCK POSITIONS_FRAC
P           0.000000000000000    0.000000000000000    0.500000000000000 
P           0.250000000000000    0.250000000000000    0.500000000000000 
P           0.250000000000000    0.750000000000000    0.500000000000000 
P           0.500000000000000    0.500000000000000    0.500000000000000 
P           0.750000000000000    0.250000000000000    0.500000000000000 
P           0.750000000000000    0.750000000000000    0.500000000000000 
K           0.000000000000000    0.189819000000000    0.382657000000000 
K           0.000000000000000    0.234958000000000    0.157499000000000 
K           0.000000000000000    0.500000000000000    0.586791000000000 
K           0.000000000000000    0.765042000000000    0.157499000000000 
K           0.000000000000000    0.810181000000000    0.382657000000000 
K           0.189819000000000    0.000000000000000    0.617343000000000 
K           0.234958000000000    0.000000000000000    0.842501000000000 
K           0.265042000000000    0.500000000000000    0.157499000000000 
K           0.310181000000000    0.500000000000000    0.382657000000000 
K           0.500000000000000    0.000000000000000    0.413209000000000 
K           0.500000000000000    0.265042000000000    0.842501000000000 
K           0.500000000000000    0.310181000000000    0.617343000000000 
K           0.500000000000000    0.689819000000000    0.617343000000000 
K           0.500000000000000    0.734958000000000    0.842501000000000 
K           0.689819000000000    0.500000000000000    0.382657000000000 
K           0.734958000000000    0.500000000000000    0.157499000000000 
K           0.765042000000000    0.000000000000000    0.842501000000000 
K           0.810181000000000    0.000000000000000    0.617343000000000 
%ENDBLOCK POSITIONS_FRAC
