# Cell file generated by matador (Matthew Evans 2016)

%BLOCK LATTICE_CART
7.89468 0.0 0.0
-3.94734 6.837 0.0
0.0 0.0 6.19277
%ENDBLOCK LATTICE_CART

%BLOCK POSITIONS_FRAC
P          -0.000000000000000    0.500000000000000    0.500000000000000 
P           0.333333000000000    0.666667000000000    0.322958000000000 
P           0.333333000000000    0.666667000000000    0.677042000000000 
P           0.500000000000000   -0.000000000000000    0.500000000000000 
P           0.500000000000000    0.500000000000000    0.500000000000000 
P           0.666667000000000    0.333333000000000    0.322958000000000 
P           0.666667000000000    0.333333000000000    0.677042000000000 
K          -0.000000000000000    0.500000000000000    0.000000000000000 
K           0.333333000000000    0.666667000000000    0.000000000000000 
K           0.500000000000000   -0.000000000000000    0.000000000000000 
K           0.500000000000000    0.500000000000000    0.000000000000000 
K           0.666667000000000    0.333333000000000    0.000000000000000 
%ENDBLOCK POSITIONS_FRAC
