# Cell file generated by matador (Matthew Evans 2016)

%BLOCK LATTICE_CART
5.76523 0.0 0.0
0.0 7.99808 0.0
1.47885 0.0 4.77436
%ENDBLOCK LATTICE_CART

%BLOCK POSITIONS_FRAC
P           0.000000000000000    0.000000000000000    0.500000000000000 
P           0.000000000000000    0.500000000000000    0.500000000000000 
P           0.321392000000000    0.184738000000000    0.026666000000000 
P           0.321392000000000    0.815262000000000    0.026666000000000 
P           0.500000000000000    0.000000000000000    0.000000000000000 
P           0.678608000000000    0.184738000000000    0.973334000000000 
P           0.678608000000000    0.815262000000000    0.973334000000000 
K           0.500000000000000    0.000000000000000    0.500000000000000 
%ENDBLOCK POSITIONS_FRAC
