# Cell file generated by matador (Matthew Evans 2016)

%BLOCK LATTICE_CART
8.16014 0.0 0.0
0.0 8.16014 0.0
0.0 0.0 8.16014
%ENDBLOCK LATTICE_CART

%BLOCK POSITIONS_FRAC
P           0.000000000000000    0.000000000000000    0.000000000000000 
P           0.085017000000000    0.085017000000000    0.914983000000000 
P           0.085017000000000    0.914983000000000    0.085017000000000 
P           0.414983000000000    0.414983000000000    0.585017000000000 
P           0.414983000000000    0.585017000000000    0.414983000000000 
P           0.500000000000000    0.500000000000000    0.500000000000000 
P           0.585017000000000    0.414983000000000    0.414983000000000 
P           0.585017000000000    0.585017000000000    0.585017000000000 
P           0.914983000000000    0.085017000000000    0.085017000000000 
P           0.914983000000000    0.914983000000000    0.914983000000000 
K           0.000000000000000    0.000000000000000    0.500000000000000 
K           0.000000000000000    0.500000000000000    0.000000000000000 
K           0.000000000000000    0.500000000000000    0.500000000000000 
K           0.500000000000000    0.000000000000000    0.000000000000000 
K           0.500000000000000    0.000000000000000    0.500000000000000 
K           0.500000000000000    0.500000000000000    0.000000000000000 
%ENDBLOCK POSITIONS_FRAC
