# Cell file generated by matador (Matthew Evans 2016)

%BLOCK LATTICE_CART
8.14256 0.0 0.0
-4.07128 7.05166 0.0
0.0 0.0 5.48067
%ENDBLOCK LATTICE_CART

%BLOCK POSITIONS_FRAC
P           0.000000000000000   -0.000000000000000    0.701990000000000 
P           0.214298000000000    0.607149000000000    0.305955000000000 
P           0.333333000000000    0.666667000000000    0.948260000000000 
P           0.392851000000000    0.607149000000000    0.305955000000000 
P           0.392851000000000    0.785702000000000    0.305955000000000 
P           0.607149000000000    0.214298000000000    0.305955000000000 
P           0.607149000000000    0.392851000000000    0.305955000000000 
P           0.666667000000000    0.333333000000000    0.948260000000000 
P           0.785702000000000    0.392851000000000    0.305955000000000 
K           0.000000000000000    0.500000000000000    0.949492000000000 
K           0.500000000000000   -0.000000000000000    0.949492000000000 
K           0.500000000000000    0.500000000000000    0.949492000000000 
%ENDBLOCK POSITIONS_FRAC
