# Cell file generated by matador (Matthew Evans 2016)

%BLOCK LATTICE_CART
4.40343 0.0 0.0
0.0 8.83619 0.0
3.59342 0.0 6.8391
%ENDBLOCK LATTICE_CART

%BLOCK POSITIONS_FRAC
P           0.000000000000000    0.082685000000000    0.500000000000000 
P           0.000000000000000    0.367991000000000    0.500000000000000 
P           0.000000000000000    0.755292000000000    0.000000000000000 
P           0.000000000000000    0.926539000000000    0.500000000000000 
P           0.000000000000000    0.932020000000000    0.000000000000000 
P           0.500000000000000    0.229204000000000    0.000000000000000 
P           0.500000000000000    0.549366000000000    0.500000000000000 
P           0.500000000000000    0.729852000000000    0.500000000000000 
K           0.291055000000000    0.716516000000000    0.135435000000000 
K           0.708945000000000    0.716516000000000    0.864565000000000 
%ENDBLOCK POSITIONS_FRAC
