# Cell file generated by matador (Matthew Evans 2016)

%BLOCK LATTICE_CART
8.91331 0.0 0.0
0.0 7.89815 0.0
0.0 0.0 7.09069
%ENDBLOCK LATTICE_CART

%BLOCK POSITIONS_FRAC
P           0.000000000000000    0.000000000000000    0.169711000000000 
P           0.000000000000000    0.088899000000000    0.804118000000000 
P           0.000000000000000    0.911101000000000    0.804118000000000 
P           0.107010000000000    0.500000000000000    0.480083000000000 
P           0.392990000000000    0.000000000000000    0.480083000000000 
P           0.500000000000000    0.411101000000000    0.804118000000000 
P           0.500000000000000    0.500000000000000    0.169711000000000 
P           0.500000000000000    0.588899000000000    0.804118000000000 
P           0.607010000000000    0.000000000000000    0.480083000000000 
P           0.892990000000000    0.500000000000000    0.480083000000000 
K           0.000000000000000    0.000000000000000    0.523711000000000 
K           0.000000000000000    0.500000000000000    0.972013000000000 
K           0.500000000000000    0.000000000000000    0.972013000000000 
K           0.500000000000000    0.500000000000000    0.523711000000000 
%ENDBLOCK POSITIONS_FRAC
