# Cell file generated by matador (Matthew Evans 2016)

%BLOCK LATTICE_CART
7.75837 0.0 0.0
-3.87919 6.71895 0.0
0.0 0.0 9.5689
%ENDBLOCK LATTICE_CART

%BLOCK POSITIONS_FRAC
P          -0.000000000000000    0.000000000000000    0.250000000000000 
P          -0.000000000000000    0.000000000000000    0.750000000000000 
P          -0.000000000000000    0.222970000000000    0.000000000000000 
P          -0.000000000000000    0.222970000000000    0.500000000000000 
P           0.052815000000000    0.671519000000000    0.250000000000000 
P           0.222970000000000    0.000000000000000    0.000000000000000 
P           0.222970000000000    0.000000000000000    0.500000000000000 
P           0.328481000000000    0.381296000000000    0.250000000000000 
P           0.381296000000000    0.328481000000000    0.750000000000000 
P           0.618704000000000    0.947185000000000    0.250000000000000 
P           0.671519000000000    0.052815000000000    0.750000000000000 
P           0.777030000000000    0.777030000000000    0.000000000000000 
P           0.777030000000000    0.777030000000000    0.500000000000000 
P           0.947185000000000    0.618704000000000    0.750000000000000 
K           0.333333000000000    0.666667000000000    0.250000000000000 
K           0.666666000000000    0.333334000000000    0.750000000000000 
%ENDBLOCK POSITIONS_FRAC
