# Cell file generated by matador (Matthew Evans 2016)

%BLOCK LATTICE_CART
7.76392 0.0 0.0
-3.88196 6.72375 0.0
0.0 0.0 10.4553
%ENDBLOCK LATTICE_CART

%BLOCK POSITIONS_FRAC
P           0.000000000000000    0.000000000000000    0.250000000000000 
P           0.000000000000000    0.000000000000000    0.750000000000000 
P           0.000000000000000    0.500000000000000    0.000000000000000 
P           0.000000000000000    0.500000000000000    0.500000000000000 
P           0.500000000000000    0.000000000000000    0.000000000000000 
P           0.500000000000000    0.000000000000000    0.500000000000000 
P           0.500000000000000    0.500000000000000    0.000000000000000 
P           0.500000000000000    0.500000000000000    0.500000000000000 
K           0.000000000000000    0.000000000000000    0.000000000000000 
K           0.000000000000000    0.000000000000000    0.500000000000000 
K           0.127808000000000    0.351091000000000    0.750000000000000 
K           0.223283000000000    0.872192000000000    0.750000000000000 
K           0.333333000000000    0.666667000000000    0.750000000000000 
K           0.351091000000000    0.223283000000000    0.250000000000000 
K           0.648909000000000    0.776717000000000    0.750000000000000 
K           0.666667000000000    0.333333000000000    0.250000000000000 
K           0.776717000000000    0.127808000000000    0.250000000000000 
K           0.872192000000000    0.648909000000000    0.250000000000000 
%ENDBLOCK POSITIONS_FRAC
