# Cell file generated by matador (Matthew Evans 2016)

%BLOCK LATTICE_CART
7.54583 0.0 0.0
-3.77292 6.53488 0.0
0.0 0.0 6.60659
%ENDBLOCK LATTICE_CART

%BLOCK POSITIONS_FRAC
P           0.025910000000000    0.196000000000000    0.776904000000000 
P           0.137334000000000    0.496577000000000    0.443571000000000 
P           0.170090000000000    0.974090000000000    0.776904000000000 
P           0.359243000000000    0.862666000000000    0.443571000000000 
P           0.470667000000000    0.163244000000000    0.110237000000000 
P           0.503423000000000    0.640757000000000    0.443571000000000 
P           0.692577000000000    0.529333000000000    0.110237000000000 
P           0.804000000000000    0.829910000000000    0.776904000000000 
P           0.836756000000000    0.307423000000000    0.110237000000000 
K          -0.000000000000000   -0.000000000000000    0.503686000000000 
K           0.333333000000000    0.666667000000000    0.170352000000000 
K           0.666667000000000    0.333333000000000    0.837019000000000 
%ENDBLOCK POSITIONS_FRAC
