# Cell file generated by matador (Matthew Evans 2016)

%BLOCK LATTICE_CART
10.8416 0.0 0.0
0.0 5.92072 0.0
1.7467 0.0 3.3217
%ENDBLOCK LATTICE_CART

%BLOCK POSITIONS_FRAC
P          -0.000000000000000    0.587846000000000    0.500000000000000 
P          -0.000000000000000    0.912257000000000    0.500000000000000 
P           0.267782000000000    0.002374000000000    0.877277000000000 
P           0.500000000000000    0.514893000000000    0.500000000000000 
P           0.732218000000000    0.002374000000000    0.122723000000000 
K           0.205482000000000    0.328775000000000    0.415730000000000 
K           0.794518000000000    0.328775000000000    0.584270000000000 
%ENDBLOCK POSITIONS_FRAC
