# Cell file generated by matador (Matthew Evans 2016)

%BLOCK LATTICE_CART
7.51457 0.0 0.0
0.0 7.51457 0.0
0.0 0.0 7.51457
%ENDBLOCK LATTICE_CART

%BLOCK POSITIONS_FRAC
P           0.000000000000000    0.000000000000000    0.000000000000000 
P           0.346338000000000    0.346338000000000    0.346338000000000 
P           0.346338000000000    0.653662000000000    0.653662000000000 
P           0.653662000000000    0.346338000000000    0.653662000000000 
P           0.653662000000000    0.653662000000000    0.346338000000000 
K           0.000000000000000    0.000000000000000    0.500000000000000 
K           0.000000000000000    0.500000000000000    0.000000000000000 
K           0.000000000000000    0.500000000000000    0.500000000000000 
K           0.500000000000000    0.000000000000000    0.000000000000000 
K           0.500000000000000    0.000000000000000    0.500000000000000 
K           0.500000000000000    0.500000000000000    0.000000000000000 
K           0.500000000000000    0.500000000000000    0.500000000000000 
%ENDBLOCK POSITIONS_FRAC
