# Cell file generated by matador (Matthew Evans 2016)

%BLOCK LATTICE_CART
6.5322 0.0 0.0
0.0 5.5319 0.0
0.0 0.0 9.01511
%ENDBLOCK LATTICE_CART

%BLOCK POSITIONS_FRAC
P           0.000000000000000    0.394149000000000    0.503707000000000 
P           0.500000000000000    0.605851000000000    0.003707000000000 
K           0.000000000000000    0.011315000000000    0.480795000000000 
K           0.000000000000000    0.620236000000000    0.722844000000000 
K           0.000000000000000    0.866740000000000    0.037007000000000 
K           0.500000000000000    0.133260000000000    0.537007000000000 
K           0.500000000000000    0.379764000000000    0.222844000000000 
K           0.500000000000000    0.988685000000000    0.980795000000000 
%ENDBLOCK POSITIONS_FRAC
