# Cell file generated by matador (Matthew Evans 2016)

%BLOCK LATTICE_CART
7.76058 0.0 0.0
0.0 7.76058 0.0
0.0 0.0 7.21637
%ENDBLOCK LATTICE_CART

%BLOCK POSITIONS_FRAC
P           0.000000000000000    0.000000000000000    0.500000000000000 
P           0.044026000000000    0.384184000000000    0.300377000000000 
P           0.135707000000000    0.269918000000000    0.150210000000000 
P           0.269918000000000    0.864293000000000    0.849790000000000 
P           0.384184000000000    0.955974000000000    0.699623000000000 
P           0.615816000000000    0.044026000000000    0.699623000000000 
P           0.730082000000000    0.135707000000000    0.849790000000000 
P           0.864293000000000    0.730082000000000    0.150210000000000 
P           0.955974000000000    0.615816000000000    0.300377000000000 
K           0.000000000000000    0.000000000000000    0.000000000000000 
K           0.000000000000000    0.500000000000000    0.584907000000000 
K           0.329240000000000    0.335322000000000    0.394082000000000 
K           0.335322000000000    0.670760000000000    0.605918000000000 
K           0.500000000000000    0.000000000000000    0.415093000000000 
K           0.500000000000000    0.500000000000000    0.000000000000000 
K           0.500000000000000    0.500000000000000    0.500000000000000 
K           0.664678000000000    0.329240000000000    0.605918000000000 
K           0.670760000000000    0.664678000000000    0.394082000000000 
%ENDBLOCK POSITIONS_FRAC
