# Cell file generated by matador (Matthew Evans 2016)

%BLOCK LATTICE_CART
8.40931 0.0 0.0
0.0 7.77807 0.0
-1.82727 0.0 5.92591
%ENDBLOCK LATTICE_CART

%BLOCK POSITIONS_FRAC
P           0.000000000000000    0.500000000000000    0.000000000000000 
P           0.246862000000000    0.000000000000000    0.551341000000000 
P           0.753138000000000    0.000000000000000    0.448659000000000 
K           0.000000000000000    0.000000000000000    0.500000000000000 
K           0.000000000000000    0.500000000000000    0.500000000000000 
K           0.371976000000000    0.231218000000000    0.263237000000000 
K           0.371976000000000    0.768782000000000    0.263237000000000 
K           0.500000000000000    0.000000000000000    0.000000000000000 
K           0.500000000000000    0.500000000000000    0.000000000000000 
K           0.500000000000000    0.500000000000000    0.500000000000000 
K           0.628024000000000    0.231218000000000    0.736763000000000 
K           0.628024000000000    0.768782000000000    0.736763000000000 
%ENDBLOCK POSITIONS_FRAC
