# Cell file generated by matador (Matthew Evans 2016)

%BLOCK LATTICE_CART
7.46023 -0.0 0.0
-3.73012 6.46075 0.0
0.0 0.0 4.45367
%ENDBLOCK LATTICE_CART

%BLOCK POSITIONS_FRAC
P           0.208399000000000    0.443688000000000    0.431008000000000 
P           0.235289000000000    0.791601000000000    0.431008000000000 
P           0.240359000000000    0.582235000000000    0.141616000000000 
P           0.333334000000000    0.666666000000000    0.971659000000000 
P           0.341877000000000    0.759641000000000    0.141616000000000 
P           0.417765000000000    0.658123000000000    0.141616000000000 
P           0.556312000000000    0.764711000000000    0.431008000000000 
K           0.666667000000000    0.333333000000000    0.745275000000000 
%ENDBLOCK POSITIONS_FRAC
