# Cell file generated by matador (Matthew Evans 2016)

%BLOCK LATTICE_CART
10.4582 0.0 0.0
-5.2291 9.05707 0.0
0.0 0.0 9.47288
%ENDBLOCK LATTICE_CART

%BLOCK POSITIONS_FRAC
P           0.000000000000000    0.000000000000000    0.260411000000000 
P           0.000000000000000    0.000000000000000    0.726165000000000 
P           0.333333000000000    0.666667000000000    0.392832000000000 
P           0.333333000000000    0.666667000000000    0.927077000000000 
P           0.666667000000000    0.333333000000000    0.059499000000000 
P           0.666667000000000    0.333333000000000    0.593744000000000 
K           0.006871000000000    0.503435000000000    0.274115000000000 
K           0.163231000000000    0.326463000000000    0.607448000000000 
K           0.163231000000000    0.836769000000000    0.607448000000000 
K           0.184645000000000    0.369291000000000    0.991908000000000 
K           0.184645000000000    0.815355000000000    0.991908000000000 
K           0.297376000000000    0.148688000000000    0.325242000000000 
K           0.340204000000000    0.170102000000000    0.940781000000000 
K           0.496565000000000    0.503435000000000    0.274115000000000 
K           0.496565000000000    0.993129000000000    0.274115000000000 
K           0.517979000000000    0.035958000000000    0.658575000000000 
K           0.517979000000000    0.482021000000000    0.658575000000000 
K           0.630709000000000    0.815355000000000    0.991908000000000 
K           0.673537000000000    0.836769000000000    0.607448000000000 
K           0.829898000000000    0.170102000000000    0.940781000000000 
K           0.829898000000000    0.659796000000000    0.940781000000000 
K           0.851312000000000    0.148688000000000    0.325242000000000 
K           0.851312000000000    0.702624000000000    0.325242000000000 
K           0.964042000000000    0.482021000000000    0.658575000000000 
%ENDBLOCK POSITIONS_FRAC
