# Cell file generated by matador (Matthew Evans 2016)

%BLOCK LATTICE_CART
10.4836 0.0 0.0
0.0 7.72606 0.0
-4.08758 0.0 7.77849
%ENDBLOCK LATTICE_CART

%BLOCK POSITIONS_FRAC
P          -0.000000000000000    0.000000000000000   -0.000000000000000 
P          -0.000000000000000    0.000000000000000    0.500000000000000 
P          -0.000000000000000    0.338018000000000    0.250000000000000 
P          -0.000000000000000    0.432076000000000    0.750000000000000 
P          -0.000000000000000    0.500000000000000   -0.000000000000000 
P          -0.000000000000000    0.500000000000000    0.500000000000000 
P          -0.000000000000000    0.567924000000000    0.250000000000000 
P          -0.000000000000000    0.661982000000000    0.750000000000000 
P           0.500000000000000    0.372617000000000    0.250000000000000 
P           0.500000000000000    0.500000000000000   -0.000000000000000 
P           0.500000000000000    0.500000000000000    0.500000000000000 
P           0.500000000000000    0.627383000000000    0.750000000000000 
K           0.204000000000000    0.257893000000000    0.333710000000000 
K           0.204000000000000    0.742107000000000    0.833710000000000 
K           0.245964000000000    0.119294000000000    0.559944000000000 
K           0.245964000000000    0.880706000000000    0.059944000000000 
K           0.754036000000000    0.119294000000000    0.940056000000000 
K           0.754036000000000    0.880706000000000    0.440056000000000 
K           0.796000000000000    0.257893000000000    0.166290000000000 
K           0.796000000000000    0.742107000000000    0.666290000000000 
%ENDBLOCK POSITIONS_FRAC
