# Cell file generated by matador (Matthew Evans 2016)

%BLOCK LATTICE_CART
8.09562 0.0 0.0
0.194144 6.91434 0.0
-0.951028 1.19226 6.30832
%ENDBLOCK LATTICE_CART

%BLOCK POSITIONS_FRAC
P           0.331341000000000    0.663779000000000    0.277117000000000 
P           0.352511000000000    0.185585000000000    0.260443000000000 
P           0.353384000000000    0.234650000000000    0.011406000000000 
P           0.646616000000000    0.765350000000000    0.988594000000000 
P           0.647489000000000    0.814415000000000    0.739557000000000 
P           0.668659000000000    0.336221000000000    0.722883000000000 
K           0.000000000000000    0.500000000000000    0.500000000000000 
K           0.054636000000000    0.773445000000000    0.625769000000000 
K           0.500000000000000    0.000000000000000    0.000000000000000 
K           0.500000000000000    0.000000000000000    0.500000000000000 
K           0.500000000000000    0.500000000000000    0.000000000000000 
K           0.500000000000000    0.500000000000000    0.500000000000000 
K           0.945364000000000    0.226555000000000    0.374231000000000 
%ENDBLOCK POSITIONS_FRAC
