# Cell file generated by matador (Matthew Evans 2016)

%BLOCK LATTICE_CART
9.71018 0.0 0.0
-4.85509 8.40926 0.0
0.0 0.0 8.12671
%ENDBLOCK LATTICE_CART

%BLOCK POSITIONS_FRAC
P          -0.000000000000000    0.166528000000000    0.617707000000000 
P          -0.000000000000000    0.833472000000000    0.617707000000000 
P           0.166528000000000   -0.000000000000000    0.617707000000000 
P           0.166528000000000    0.166528000000000    0.617707000000000 
P           0.333333000000000    0.666667000000000    0.877849000000000 
P           0.666667000000000    0.333333000000000    0.877849000000000 
P           0.833472000000000   -0.000000000000000    0.617707000000000 
P           0.833472000000000    0.833472000000000    0.617707000000000 
K          -0.000000000000000   -0.000000000000000    0.352022000000000 
K          -0.000000000000000    0.382754000000000    0.605707000000000 
K          -0.000000000000000    0.500000000000000    0.883364000000000 
K          -0.000000000000000    0.617246000000000    0.605707000000000 
K           0.382754000000000   -0.000000000000000    0.605707000000000 
K           0.382754000000000    0.382754000000000    0.605707000000000 
K           0.500000000000000   -0.000000000000000    0.883364000000000 
K           0.500000000000000    0.500000000000000    0.883364000000000 
K           0.617246000000000   -0.000000000000000    0.605707000000000 
K           0.617246000000000    0.617246000000000    0.605707000000000 
%ENDBLOCK POSITIONS_FRAC
