# Cell file generated by matador (Matthew Evans 2016)

%BLOCK LATTICE_CART
9.40172 0.0 0.0
0.0 5.24251 0.0
0.0 0.0 6.56473
%ENDBLOCK LATTICE_CART

%BLOCK POSITIONS_FRAC
P           0.000000000000000    0.000000000000000    0.213617000000000 
P           0.000000000000000    0.500000000000000    0.713617000000000 
P           0.500000000000000    0.000000000000000    0.190768000000000 
P           0.500000000000000    0.000000000000000    0.546787000000000 
P           0.500000000000000    0.500000000000000    0.046787000000000 
P           0.500000000000000    0.500000000000000    0.690768000000000 
K           0.206603000000000    0.170133000000000    0.410333000000000 
K           0.206603000000000    0.329867000000000    0.910333000000000 
K           0.793397000000000    0.670133000000000    0.910333000000000 
K           0.793397000000000    0.829867000000000    0.410333000000000 
%ENDBLOCK POSITIONS_FRAC
