# Cell file generated by matador (Matthew Evans 2016)

%BLOCK LATTICE_CART
9.30493 0.0 0.0
0.0 6.72609 0.0
-0.638249 0.0 5.0669
%ENDBLOCK LATTICE_CART

%BLOCK POSITIONS_FRAC
P           0.236009000000000    0.483607000000000    0.750782000000000 
P           0.236009000000000    0.516393000000000    0.250782000000000 
P           0.335015000000000    0.215026000000000    0.613340000000000 
P           0.335015000000000    0.784974000000000    0.113340000000000 
P           0.664985000000000    0.215026000000000    0.886660000000000 
P           0.664985000000000    0.784974000000000    0.386660000000000 
P           0.763991000000000    0.483607000000000    0.749218000000000 
P           0.763991000000000    0.516393000000000    0.249218000000000 
K           0.000000000000000    0.000000000000000    0.000000000000000 
K           0.000000000000000    0.000000000000000    0.500000000000000 
K           0.000000000000000    0.277761000000000    0.250000000000000 
K           0.000000000000000    0.722239000000000    0.750000000000000 
%ENDBLOCK POSITIONS_FRAC
