# Cell file generated by matador (Matthew Evans 2016)

%BLOCK LATTICE_CART
9.18902 0.0 0.0
-4.59451 7.95792 0.0
0.0 0.0 6.52909
%ENDBLOCK LATTICE_CART

%BLOCK POSITIONS_FRAC
P           0.137378000000000    0.716833000000000    0.932051000000000 
P           0.246122000000000    0.195956000000000    0.265384000000000 
P           0.283167000000000    0.420545000000000    0.932051000000000 
P           0.470711000000000    0.383500000000000    0.598718000000000 
P           0.579455000000000    0.862622000000000    0.932051000000000 
P           0.616500000000000    0.087211000000000    0.598718000000000 
P           0.804044000000000    0.050167000000000    0.265384000000000 
P           0.912789000000000    0.529289000000000    0.598718000000000 
P           0.949833000000000    0.753878000000000    0.265384000000000 
K           0.000000000000000    0.000000000000000    0.539149000000000 
K           0.333333000000000    0.666667000000000    0.205816000000000 
K           0.666667000000000    0.333333000000000    0.872483000000000 
%ENDBLOCK POSITIONS_FRAC
