# Cell file generated by matador (Matthew Evans 2016)

%BLOCK LATTICE_CART
9.76771 0.0 0.0
-4.88385 8.45908 0.0
0.0 0.0 5.94923
%ENDBLOCK LATTICE_CART

%BLOCK POSITIONS_FRAC
P          -0.000000000000000    0.500000000000000    0.000000000000000 
P          -0.000000000000000    0.500000000000000    0.500000000000000 
P           0.333333000000000    0.666667000000000    0.086179000000000 
P           0.333333000000000    0.666667000000000    0.413821000000000 
P           0.500000000000000   -0.000000000000000    0.000000000000000 
P           0.500000000000000   -0.000000000000000    0.500000000000000 
P           0.500000000000000    0.500000000000000    0.000000000000000 
P           0.500000000000000    0.500000000000000    0.500000000000000 
P           0.666667000000000    0.333333000000000    0.586179000000000 
P           0.666667000000000    0.333333000000000    0.913821000000000 
K           0.218285000000000    0.436570000000000    0.250000000000000 
K           0.218285000000000    0.781715000000000    0.250000000000000 
K           0.333333000000000    0.666667000000000    0.750000000000000 
K           0.436570000000000    0.218285000000000    0.750000000000000 
K           0.563430000000000    0.781715000000000    0.250000000000000 
K           0.666667000000000    0.333333000000000    0.250000000000000 
K           0.781715000000000    0.218285000000000    0.750000000000000 
K           0.781715000000000    0.563430000000000    0.750000000000000 
%ENDBLOCK POSITIONS_FRAC
