# Cell file generated by matador (Matthew Evans 2016)

%BLOCK LATTICE_CART
6.48692 0.0 0.0
0.0 6.48692 0.0
0.0 0.0 4.93214
%ENDBLOCK LATTICE_CART

%BLOCK POSITIONS_FRAC
P           0.000000000000000    0.000000000000000    0.000000000000000 
P           0.000000000000000    0.000000000000000    0.500000000000000 
P           0.281990000000000    0.281990000000000    0.500000000000000 
P           0.281990000000000    0.718010000000000    0.500000000000000 
P           0.718010000000000    0.281990000000000    0.500000000000000 
P           0.718010000000000    0.718010000000000    0.500000000000000 
K           0.500000000000000    0.500000000000000    0.000000000000000 
K           0.500000000000000    0.500000000000000    0.500000000000000 
%ENDBLOCK POSITIONS_FRAC
