# Cell file generated by matador (Matthew Evans 2016)

%BLOCK LATTICE_CART
9.23541 0.0 0.0
0.0 9.23541 0.0
0.0 0.0 6.78365
%ENDBLOCK LATTICE_CART

%BLOCK POSITIONS_FRAC
P           0.223158000000000    0.776842000000000    0.021768000000000 
P           0.276842000000000    0.276842000000000    0.521768000000000 
P           0.723158000000000    0.723158000000000    0.521768000000000 
P           0.776842000000000    0.223158000000000    0.021768000000000 
K           0.130241000000000    0.130241000000000    0.721818000000000 
K           0.139283000000000    0.860717000000000    0.331381000000000 
K           0.218565000000000    0.218565000000000    0.232006000000000 
K           0.281435000000000    0.718565000000000    0.732006000000000 
K           0.360717000000000    0.360717000000000    0.831381000000000 
K           0.369759000000000    0.630241000000000    0.221818000000000 
K           0.630241000000000    0.369759000000000    0.221818000000000 
K           0.639283000000000    0.639283000000000    0.831381000000000 
K           0.718565000000000    0.281435000000000    0.732006000000000 
K           0.781435000000000    0.781435000000000    0.232006000000000 
K           0.860717000000000    0.139283000000000    0.331381000000000 
K           0.869759000000000    0.869759000000000    0.721818000000000 
%ENDBLOCK POSITIONS_FRAC
