# Cell file generated by matador (Matthew Evans 2016)

%BLOCK LATTICE_CART
7.08006 0.0 0.0
0.0 7.08006 0.0
0.0 0.0 7.47578
%ENDBLOCK LATTICE_CART

%BLOCK POSITIONS_FRAC
P          -0.000000000000000   -0.000000000000000    0.893096000000000 
P          -0.000000000000000    0.500000000000000    0.514258000000000 
P          -0.000000000000000    0.500000000000000    0.775112000000000 
P           0.095271000000000    0.404729000000000    0.103766000000000 
P           0.205772000000000    0.705772000000000    0.064145000000000 
P           0.294228000000000    0.205772000000000    0.064145000000000 
P           0.404729000000000    0.904729000000000    0.103766000000000 
P           0.500000000000000   -0.000000000000000    0.514258000000000 
P           0.500000000000000   -0.000000000000000    0.775112000000000 
P           0.500000000000000    0.500000000000000    0.893096000000000 
P           0.595271000000000    0.095271000000000    0.103766000000000 
P           0.705772000000000    0.794228000000000    0.064145000000000 
P           0.794228000000000    0.294228000000000    0.064145000000000 
P           0.904729000000000    0.595271000000000    0.103766000000000 
K           0.224992000000000    0.724992000000000    0.623741000000000 
K           0.275008000000000    0.224992000000000    0.623741000000000 
K           0.724992000000000    0.775008000000000    0.623741000000000 
K           0.775008000000000    0.275008000000000    0.623741000000000 
%ENDBLOCK POSITIONS_FRAC
