# Cell file generated by matador (Matthew Evans 2016)

%BLOCK LATTICE_CART
7.25974 0.0 0.0
-3.62987 6.28712 0.0
0.0 0.0 10.3624
%ENDBLOCK LATTICE_CART

%BLOCK POSITIONS_FRAC
P           0.000000000000000    0.000000000000000    0.394629000000000 
P           0.000000000000000    0.000000000000000    0.509986000000000 
P           0.000000000000000    0.000000000000000    0.769059000000000 
P           0.000000000000000    0.000000000000000    0.978988000000000 
P           0.173926000000000    0.347853000000000    0.886264000000000 
P           0.173926000000000    0.826074000000000    0.886264000000000 
P           0.347853000000000    0.173926000000000    0.886264000000000 
P           0.652147000000000    0.826074000000000    0.886264000000000 
P           0.826074000000000    0.173926000000000    0.886264000000000 
P           0.826074000000000    0.652147000000000    0.886264000000000 
K           0.000000000000000    0.332315000000000    0.318852000000000 
K           0.000000000000000    0.667685000000000    0.318852000000000 
K           0.332315000000000    0.000000000000000    0.318852000000000 
K           0.332315000000000    0.332315000000000    0.318852000000000 
K           0.333333000000000    0.666667000000000    0.095374000000000 
K           0.666667000000000    0.333333000000000    0.095374000000000 
K           0.667685000000000    0.000000000000000    0.318852000000000 
K           0.667685000000000    0.667685000000000    0.318852000000000 
%ENDBLOCK POSITIONS_FRAC
