# Cell file generated by matador (Matthew Evans 2016)

%BLOCK LATTICE_CART
8.53153 0.0 0.0
0.0 7.53456 0.0
0.0 0.0 8.83451
%ENDBLOCK LATTICE_CART

%BLOCK POSITIONS_FRAC
P           0.015576000000000    0.750000000000000    0.750000000000000 
P           0.250000000000000    0.063529000000000    0.750000000000000 
P           0.250000000000000    0.250000000000000    0.250000000000000 
P           0.250000000000000    0.250000000000000    0.750000000000000 
P           0.250000000000000    0.436471000000000    0.750000000000000 
P           0.250000000000000    0.750000000000000    0.250000000000000 
P           0.484424000000000    0.750000000000000    0.750000000000000 
P           0.515576000000000    0.250000000000000    0.250000000000000 
P           0.750000000000000    0.250000000000000    0.750000000000000 
P           0.750000000000000    0.563529000000000    0.250000000000000 
P           0.750000000000000    0.750000000000000    0.250000000000000 
P           0.750000000000000    0.750000000000000    0.750000000000000 
P           0.750000000000000    0.936471000000000    0.250000000000000 
P           0.984424000000000    0.250000000000000    0.250000000000000 
K           0.250000000000000    0.750000000000000    0.750000000000000 
K           0.750000000000000    0.250000000000000    0.250000000000000 
%ENDBLOCK POSITIONS_FRAC
