# Cell file generated by matador (Matthew Evans 2016)

%BLOCK LATTICE_CART
7.8626 0.0 0.0
2.77524 5.14955 0.0
-1.89817 3.82191 7.14935
%ENDBLOCK LATTICE_CART

%BLOCK POSITIONS_FRAC
P           0.339972000000000    0.840661000000000    0.791850000000000 
P           0.380522000000000    0.632022000000000    0.183369000000000 
P           0.407045000000000    0.132861000000000    0.466208000000000 
P           0.422178000000000    0.058304000000000    0.796093000000000 
P           0.443577000000000    0.375208000000000    0.032503000000000 
P           0.556423000000000    0.624792000000000    0.967496000000000 
P           0.577822000000000    0.941696000000000    0.203907000000000 
P           0.592955000000000    0.867139000000000    0.533792000000000 
P           0.619478000000000    0.367978000000000    0.816631000000000 
P           0.660028000000000    0.159339000000000    0.208150000000000 
K           0.000000000000000    0.000000000000000    0.000000000000000 
K           0.000000000000000    0.500000000000000    0.500000000000000 
K           0.164960000000000    0.087503000000000    0.291108000000000 
K           0.835040000000000    0.912497000000000    0.708892000000000 
%ENDBLOCK POSITIONS_FRAC
