# Cell file generated by matador (Matthew Evans 2016)

%BLOCK LATTICE_CART
8.43359 0.0 0.0
0.0 5.32084 0.0
-1.90208 0.0 5.50022
%ENDBLOCK LATTICE_CART

%BLOCK POSITIONS_FRAC
P           0.021213000000000    0.612283000000000    0.131373000000000 
P           0.978787000000000    0.612283000000000    0.868627000000000 
K           0.000000000000000    0.212686000000000    0.000000000000000 
K           0.000000000000000    0.680737000000000    0.500000000000000 
K           0.340447000000000    0.390626000000000    0.108825000000000 
K           0.500000000000000    0.738889000000000    0.000000000000000 
K           0.659553000000000    0.390626000000000    0.891175000000000 
%ENDBLOCK POSITIONS_FRAC
