# Cell file generated by matador (Matthew Evans 2016)

%BLOCK LATTICE_CART
7.63935 0.0 0.0
-3.81968 6.61587 0.0
0.0 0.0 11.116
%ENDBLOCK LATTICE_CART

%BLOCK POSITIONS_FRAC
P           0.000000000000000    0.000000000000000   -0.000000000000000 
P           0.000000000000000    0.000000000000000    0.500000000000000 
K           0.000000000000000    0.000000000000000    0.250000000000000 
K           0.000000000000000    0.000000000000000    0.750000000000000 
K           0.182181000000000    0.364362000000000    0.250000000000000 
K           0.182181000000000    0.817819000000000    0.250000000000000 
K           0.333333000000000    0.666667000000000    0.250000000000000 
K           0.333333000000000    0.666667000000000    0.750000000000000 
K           0.364362000000000    0.182181000000000    0.750000000000000 
K           0.635638000000000    0.817819000000000    0.250000000000000 
K           0.666667000000000    0.333333000000000    0.250000000000000 
K           0.666667000000000    0.333333000000000    0.750000000000000 
K           0.817819000000000    0.182181000000000    0.750000000000000 
K           0.817819000000000    0.635638000000000    0.750000000000000 
%ENDBLOCK POSITIONS_FRAC
