# Cell file generated by matador (Matthew Evans 2016)

%BLOCK LATTICE_CART
7.44804 0.0 0.0
-3.72402 6.45019 0.0
0.0 0.0 5.56849
%ENDBLOCK LATTICE_CART

%BLOCK POSITIONS_FRAC
P          -0.000000000000000   -0.000000000000000    0.458884000000000 
P           0.151011000000000    0.532425000000000    0.501161000000000 
P           0.333333000000000    0.666667000000000    0.023904000000000 
P           0.381414000000000    0.848989000000000    0.501161000000000 
P           0.467575000000000    0.618586000000000    0.501161000000000 
K           0.043519000000000    0.824850000000000    0.802893000000000 
K           0.175150000000000    0.218669000000000    0.802893000000000 
K           0.666667000000000    0.333333000000000    0.096392000000000 
K           0.781331000000000    0.956481000000000    0.802893000000000 
%ENDBLOCK POSITIONS_FRAC
