# Cell file generated by matador (Matthew Evans 2016)

%BLOCK LATTICE_CART
5.40324 0.0 0.0
0.0 5.40324 0.0
0.0 0.0 5.60564
%ENDBLOCK LATTICE_CART

%BLOCK POSITIONS_FRAC
P           0.000000000000000    0.000000000000000    0.000000000000000 
P           0.194869000000000    0.194869000000000    0.257967000000000 
P           0.194869000000000    0.805131000000000    0.742033000000000 
P           0.805131000000000    0.194869000000000    0.742033000000000 
P           0.805131000000000    0.805131000000000    0.257967000000000 
K           0.000000000000000    0.000000000000000    0.500000000000000 
%ENDBLOCK POSITIONS_FRAC
