# Cell file generated by matador (Matthew Evans 2016)

%BLOCK LATTICE_CART
6.72238 0.0 0.0
0.0 6.72238 0.0
0.0 0.0 11.0255
%ENDBLOCK LATTICE_CART

%BLOCK POSITIONS_FRAC
P           0.000000000000000    0.000000000000000    0.230162000000000 
P           0.000000000000000    0.000000000000000    0.500000000000000 
P           0.000000000000000    0.000000000000000    0.769838000000000 
P           0.014886000000000    0.675530000000000    0.428927000000000 
P           0.175530000000000    0.514886000000000    0.428927000000000 
P           0.324470000000000    0.014886000000000    0.571073000000000 
P           0.485114000000000    0.175530000000000    0.571073000000000 
P           0.500000000000000    0.500000000000000    0.230162000000000 
P           0.500000000000000    0.500000000000000    0.500000000000000 
P           0.500000000000000    0.500000000000000    0.769838000000000 
P           0.514886000000000    0.824470000000000    0.571073000000000 
P           0.675530000000000    0.985114000000000    0.571073000000000 
P           0.824470000000000    0.485114000000000    0.428927000000000 
P           0.985114000000000    0.324470000000000    0.428927000000000 
K           0.000000000000000    0.500000000000000    0.178184000000000 
K           0.500000000000000    0.000000000000000    0.821816000000000 
%ENDBLOCK POSITIONS_FRAC
