# Cell file generated by matador (Matthew Evans 2016)

%BLOCK LATTICE_CART
7.26209 0.0 0.0
0.0 6.82455 0.0
1.96755 0.0 6.9792
%ENDBLOCK LATTICE_CART

%BLOCK POSITIONS_FRAC
P           0.308681000000000    0.338170000000000    0.877740000000000 
P           0.308681000000000    0.661830000000000    0.377740000000000 
P           0.386623000000000    0.111277000000000    0.975796000000000 
P           0.386623000000000    0.888723000000000    0.475796000000000 
P           0.500000000000000    0.000000000000000    0.000000000000000 
P           0.500000000000000    0.000000000000000    0.500000000000000 
P           0.613377000000000    0.111277000000000    0.524204000000000 
P           0.613377000000000    0.888723000000000    0.024204000000000 
P           0.691319000000000    0.338170000000000    0.622260000000000 
P           0.691319000000000    0.661830000000000    0.122260000000000 
K           0.000000000000000    0.500000000000000    0.000000000000000 
K           0.000000000000000    0.500000000000000    0.500000000000000 
K           0.108713000000000    0.102180000000000    0.381841000000000 
K           0.108713000000000    0.897820000000000    0.881841000000000 
K           0.891287000000000    0.102180000000000    0.118159000000000 
K           0.891287000000000    0.897820000000000    0.618159000000000 
%ENDBLOCK POSITIONS_FRAC
