# Cell file generated by matador (Matthew Evans 2016)

%BLOCK LATTICE_CART
6.84919 0.0 0.0
0.0 6.23907 0.0
0.0 0.0 5.6529
%ENDBLOCK LATTICE_CART

%BLOCK POSITIONS_FRAC
P           0.000000000000000    0.000000000000000    0.500000000000000 
P           0.000000000000000    0.500000000000000    0.000000000000000 
P           0.500000000000000    0.000000000000000    0.500000000000000 
P           0.500000000000000    0.500000000000000    0.108401000000000 
P           0.500000000000000    0.500000000000000    0.891599000000000 
K           0.000000000000000    0.000000000000000    0.000000000000000 
K           0.000000000000000    0.500000000000000    0.500000000000000 
K           0.500000000000000    0.000000000000000    0.000000000000000 
%ENDBLOCK POSITIONS_FRAC
