# Cell file generated by matador (Matthew Evans 2016)

%BLOCK LATTICE_CART
8.52964 0.0 0.0
0.0 8.66941 0.0
-2.96949 0.0 6.84774
%ENDBLOCK LATTICE_CART

%BLOCK POSITIONS_FRAC
P           0.226509000000000    0.500000000000000    0.334318000000000 
P           0.234210000000000    0.000000000000000    0.925504000000000 
P           0.338487000000000    0.500000000000000    0.490009000000000 
P           0.453020000000000    0.000000000000000    0.928982000000000 
P           0.471300000000000    0.500000000000000    0.018581000000000 
P           0.508267000000000    0.088262000000000    0.130654000000000 
P           0.508267000000000    0.911738000000000    0.130654000000000 
P           0.521506000000000    0.000000000000000    0.728441000000000 
P           0.690545000000000    0.000000000000000    0.735614000000000 
P           0.691750000000000    0.000000000000000    0.310798000000000 
P           0.732837000000000    0.000000000000000    0.527468000000000 
P           0.736936000000000    0.000000000000000    0.021524000000000 
P           0.799032000000000    0.000000000000000    0.861023000000000 
P           0.872389000000000    0.000000000000000    0.195382000000000 
P           0.903312000000000    0.000000000000000    0.826445000000000 
P           0.944024000000000    0.500000000000000    0.494664000000000 
K           0.131960000000000    0.500000000000000    0.853437000000000 
K           0.155902000000000    0.000000000000000    0.174554000000000 
K           0.670050000000000    0.500000000000000    0.876736000000000 
K           0.993544000000000    0.000000000000000    0.585475000000000 
%ENDBLOCK POSITIONS_FRAC
