# Cell file generated by matador (Matthew Evans 2016)

%BLOCK LATTICE_CART
7.65059 0.0 0.0
0.0 7.65059 0.0
0.0 0.0 7.65059
%ENDBLOCK LATTICE_CART

%BLOCK POSITIONS_FRAC
P           0.367992000000000    0.500000000000000    0.500000000000000 
P           0.500000000000000    0.367992000000000    0.500000000000000 
P           0.500000000000000    0.500000000000000    0.367992000000000 
P           0.500000000000000    0.500000000000000    0.632008000000000 
P           0.500000000000000    0.632008000000000    0.500000000000000 
P           0.632008000000000    0.500000000000000    0.500000000000000 
K           0.000000000000000    0.000000000000000    0.500000000000000 
K           0.000000000000000    0.500000000000000    0.000000000000000 
K           0.000000000000000    0.500000000000000    0.500000000000000 
K           0.133563000000000    0.133563000000000    0.133563000000000 
K           0.133563000000000    0.866437000000000    0.866437000000000 
K           0.500000000000000    0.000000000000000    0.000000000000000 
K           0.500000000000000    0.000000000000000    0.500000000000000 
K           0.500000000000000    0.500000000000000    0.000000000000000 
K           0.866437000000000    0.133563000000000    0.866437000000000 
K           0.866437000000000    0.866437000000000    0.133563000000000 
%ENDBLOCK POSITIONS_FRAC
