# Cell file generated by matador (Matthew Evans 2016)

%BLOCK LATTICE_CART
8.21096 0.0 0.0
-4.10548 7.1109 0.0
0.0 0.0 11.0154
%ENDBLOCK LATTICE_CART

%BLOCK POSITIONS_FRAC
P           0.333333000000000    0.666667000000000    0.000000000000000 
P           0.333333000000000    0.666667000000000    0.250000000000000 
P           0.333333000000000    0.666667000000000    0.500000000000000 
P           0.333333000000000    0.666667000000000    0.750000000000000 
K           0.000373000000000    0.208542000000000    0.250000000000000 
K           0.000373000000000    0.791833000000000    0.750000000000000 
K           0.053237000000000    0.467063000000000    0.750000000000000 
K           0.053237000000000    0.586174000000000    0.250000000000000 
K           0.208167000000000    0.208542000000000    0.750000000000000 
K           0.208167000000000    0.999627000000000    0.250000000000000 
K           0.413826000000000    0.467063000000000    0.250000000000000 
K           0.413826000000000    0.946763000000000    0.750000000000000 
K           0.532937000000000    0.586174000000000    0.750000000000000 
K           0.532937000000000    0.946763000000000    0.250000000000000 
K           0.791458000000000    0.791833000000000    0.250000000000000 
K           0.791458000000000    0.999627000000000    0.750000000000000 
%ENDBLOCK POSITIONS_FRAC
