# Cell file generated by matador (Matthew Evans 2016)

%BLOCK LATTICE_CART
6.35557 0.0 0.0
0.0 6.35557 0.0
0.0 0.0 6.94913
%ENDBLOCK LATTICE_CART

%BLOCK POSITIONS_FRAC
P           0.000000000000000    0.000000000000000    0.698358000000000 
P           0.500000000000000    0.500000000000000    0.518426000000000 
K           0.000000000000000    0.500000000000000    0.336437000000000 
K           0.255106000000000    0.255106000000000    0.712243000000000 
K           0.255106000000000    0.744894000000000    0.712243000000000 
K           0.500000000000000    0.000000000000000    0.336437000000000 
K           0.744894000000000    0.255106000000000    0.712243000000000 
K           0.744894000000000    0.744894000000000    0.712243000000000 
%ENDBLOCK POSITIONS_FRAC
