# Cell file generated by matador (Matthew Evans 2016)

%BLOCK LATTICE_CART
9.6001 0.0 0.0
0.0 11.1929 0.0
0.0 0.0 12.364
%ENDBLOCK LATTICE_CART

%BLOCK POSITIONS_FRAC
P           0.112574000000000    0.240683000000000    0.693150000000000 
P           0.112574000000000    0.759317000000000    0.693150000000000 
P           0.387426000000000    0.259317000000000    0.193150000000000 
P           0.387426000000000    0.740683000000000    0.193150000000000 
P           0.612574000000000    0.259317000000000    0.193150000000000 
P           0.612574000000000    0.740683000000000    0.193150000000000 
P           0.887426000000000    0.240683000000000    0.693150000000000 
P           0.887426000000000    0.759317000000000    0.693150000000000 
K           0.000000000000000    0.182658000000000    0.189876000000000 
K           0.000000000000000    0.252667000000000    0.875860000000000 
K           0.000000000000000    0.747333000000000    0.875860000000000 
K           0.000000000000000    0.817342000000000    0.189876000000000 
K           0.153073000000000    0.000000000000000    0.903191000000000 
K           0.154030000000000    0.500000000000000    0.584402000000000 
K           0.224209000000000    0.500000000000000    0.817380000000000 
K           0.235455000000000    0.000000000000000    0.669924000000000 
K           0.264545000000000    0.500000000000000    0.169924000000000 
K           0.275791000000000    0.000000000000000    0.317380000000000 
K           0.345970000000000    0.000000000000000    0.084402000000000 
K           0.346927000000000    0.500000000000000    0.403191000000000 
K           0.500000000000000    0.247333000000000    0.375860000000000 
K           0.500000000000000    0.317342000000000    0.689876000000000 
K           0.500000000000000    0.682658000000000    0.689876000000000 
K           0.500000000000000    0.752667000000000    0.375860000000000 
K           0.653073000000000    0.500000000000000    0.403191000000000 
K           0.654030000000000    0.000000000000000    0.084402000000000 
K           0.724209000000000    0.000000000000000    0.317380000000000 
K           0.735455000000000    0.500000000000000    0.169924000000000 
K           0.764545000000000    0.000000000000000    0.669924000000000 
K           0.775791000000000    0.500000000000000    0.817380000000000 
K           0.845970000000000    0.500000000000000    0.584402000000000 
K           0.846927000000000    0.000000000000000    0.903191000000000 
%ENDBLOCK POSITIONS_FRAC
