# Cell file generated by matador (Matthew Evans 2016)

%BLOCK LATTICE_CART
5.97387 0.0 0.0
-2.98693 5.17352 0.0
0.0 0.0 4.85814
%ENDBLOCK LATTICE_CART

%BLOCK POSITIONS_FRAC
P           0.046426000000000    0.325076000000000    0.126736000000000 
P           0.278650000000000    0.953574000000000    0.126736000000000 
P           0.333333000000000    0.666667000000000    0.847074000000000 
P           0.666667000000000    0.333333000000000    0.735221000000000 
P           0.674924000000000    0.721350000000000    0.126736000000000 
K           0.000000000000000    0.000000000000000    0.369504000000000 
%ENDBLOCK POSITIONS_FRAC
