# Cell file generated by matador (Matthew Evans 2016)

%BLOCK LATTICE_CART
6.54816 0.0 0.0
-3.27408 5.67087 0.0
0.0 0.0 9.38295
%ENDBLOCK LATTICE_CART

%BLOCK POSITIONS_FRAC
P           0.333333000000000    0.666667000000000    0.000000000000000 
P           0.666666000000000    0.333334000000000    0.500000000000000 
K           0.337958000000000    0.168979000000000    0.184621000000000 
K           0.337958000000000    0.168979000000000    0.815379000000000 
K           0.831021000000000    0.168979000000000    0.184621000000000 
K           0.831021000000000    0.168979000000000    0.815379000000000 
K           0.831021000000000    0.662042000000000    0.184621000000000 
K           0.831021000000000    0.662042000000000    0.815379000000000 
%ENDBLOCK POSITIONS_FRAC
