# Cell file generated by matador (Matthew Evans 2016)

%BLOCK LATTICE_CART
7.99961 0.0 0.0
-3.99981 6.92787 0.0
0.0 0.0 8.5483
%ENDBLOCK LATTICE_CART

%BLOCK POSITIONS_FRAC
P           0.000000000000000    0.000000000000000    0.886073000000000 
P           0.333333000000000    0.666667000000000    0.552739000000000 
P           0.666667000000000    0.333333000000000    0.219406000000000 
K           0.023327000000000    0.511663000000000    0.062096000000000 
K           0.155003000000000    0.310007000000000    0.395430000000000 
K           0.155003000000000    0.844997000000000    0.395430000000000 
K           0.356660000000000    0.178330000000000    0.728763000000000 
K           0.488337000000000    0.511663000000000    0.062096000000000 
K           0.488337000000000    0.976673000000000    0.062096000000000 
K           0.689993000000000    0.844997000000000    0.395430000000000 
K           0.821670000000000    0.178330000000000    0.728763000000000 
K           0.821670000000000    0.643340000000000    0.728763000000000 
%ENDBLOCK POSITIONS_FRAC
