# Cell file generated by matador (Matthew Evans 2016)

%BLOCK LATTICE_CART
9.236 0.0 0.0
-4.618 7.99861 0.0
0.0 0.0 8.47101
%ENDBLOCK LATTICE_CART

%BLOCK POSITIONS_FRAC
P           0.000000000000000    0.216543000000000    0.500000000000000 
P           0.000000000000000    0.783457000000000    0.500000000000000 
P           0.216543000000000    0.000000000000000    0.500000000000000 
P           0.216543000000000    0.216543000000000    0.500000000000000 
P           0.333333000000000    0.666667000000000    0.364981000000000 
P           0.666667000000000    0.333333000000000    0.635019000000000 
P           0.783457000000000    0.000000000000000    0.500000000000000 
P           0.783457000000000    0.783457000000000    0.500000000000000 
K           0.000000000000000    0.000000000000000    0.000000000000000 
K           0.000000000000000    0.000000000000000    0.500000000000000 
K           0.000000000000000    0.500000000000000    0.000000000000000 
K           0.000000000000000    0.500000000000000    0.500000000000000 
K           0.333333000000000    0.666667000000000    0.869943000000000 
K           0.500000000000000    0.000000000000000    0.000000000000000 
K           0.500000000000000    0.000000000000000    0.500000000000000 
K           0.500000000000000    0.500000000000000    0.000000000000000 
K           0.500000000000000    0.500000000000000    0.500000000000000 
K           0.666667000000000    0.333333000000000    0.130057000000000 
%ENDBLOCK POSITIONS_FRAC
