# Cell file generated by matador (Matthew Evans 2016)

%BLOCK LATTICE_CART
7.12095 -0.0 0.0
-3.56047 6.16692 0.0
0.0 0.0 7.95164
%ENDBLOCK LATTICE_CART

%BLOCK POSITIONS_FRAC
P           0.000000000000000    0.000000000000000    0.724058000000000 
P           0.000438000000000    0.224454000000000    0.938617000000000 
P           0.224017000000000    0.999562000000000    0.938617000000000 
P           0.775546000000000    0.775983000000000    0.938617000000000 
K           0.000000000000000    0.000000000000000    0.317030000000000 
K           0.333333000000000    0.666667000000000    0.397407000000000 
K           0.460651000000000    0.426237000000000    0.373349000000000 
K           0.573763000000000    0.034414000000000    0.373349000000000 
K           0.666667000000000    0.333333000000000    0.016483000000000 
K           0.666667000000000    0.333333000000000    0.630317000000000 
K           0.965586000000000    0.539349000000000    0.373349000000000 
%ENDBLOCK POSITIONS_FRAC
