# Cell file generated by matador (Matthew Evans 2016)

%BLOCK LATTICE_CART
6.069 0.0 0.0
0.0 5.41969 0.0
0.544759 0.0 8.33002
%ENDBLOCK LATTICE_CART

%BLOCK POSITIONS_FRAC
P           0.500000000000000    0.000000000000000    0.000000000000000 
P           0.500000000000000    0.000000000000000    0.500000000000000 
K           0.000000000000000    0.000000000000000    0.000000000000000 
K           0.000000000000000    0.000000000000000    0.500000000000000 
K           0.081205000000000    0.353801000000000    0.525895000000000 
K           0.081205000000000    0.646199000000000    0.025895000000000 
K           0.500000000000000    0.500000000000000    0.000000000000000 
K           0.500000000000000    0.500000000000000    0.500000000000000 
K           0.918794000000000    0.353801000000000    0.974105000000000 
K           0.918794000000000    0.646199000000000    0.474105000000000 
%ENDBLOCK POSITIONS_FRAC
