# Cell file generated by matador (Matthew Evans 2016)

%BLOCK LATTICE_CART
7.20493 0.0 0.0
0.0 7.20493 0.0
0.0 0.0 7.81984
%ENDBLOCK LATTICE_CART

%BLOCK POSITIONS_FRAC
P           0.000000000000000    0.000000000000000    0.636966000000000 
P           0.000000000000000    0.000000000000000    0.915096000000000 
P           0.000000000000000    0.380460000000000    0.734714000000000 
P           0.000000000000000    0.619540000000000    0.734714000000000 
P           0.380460000000000    0.000000000000000    0.734714000000000 
P           0.619540000000000    0.000000000000000    0.734714000000000 
K           0.000000000000000    0.262697000000000    0.065951000000000 
K           0.000000000000000    0.500000000000000    0.419866000000000 
K           0.000000000000000    0.737303000000000    0.065951000000000 
K           0.231298000000000    0.500000000000000    0.267433000000000 
K           0.262697000000000    0.000000000000000    0.065951000000000 
K           0.500000000000000    0.000000000000000    0.419866000000000 
K           0.500000000000000    0.231298000000000    0.267433000000000 
K           0.500000000000000    0.768702000000000    0.267433000000000 
K           0.737303000000000    0.000000000000000    0.065951000000000 
K           0.768702000000000    0.500000000000000    0.267433000000000 
%ENDBLOCK POSITIONS_FRAC
