# Cell file generated by matador (Matthew Evans 2016)

%BLOCK LATTICE_CART
6.41122 0.0 0.0
0.0 6.41122 0.0
0.0 0.0 7.86171
%ENDBLOCK LATTICE_CART

%BLOCK POSITIONS_FRAC
P           0.139772000000000    0.362052000000000    0.786021000000000 
P           0.362052000000000    0.860228000000000    0.786021000000000 
P           0.500000000000000    0.500000000000000    0.281463000000000 
P           0.500000000000000    0.500000000000000    0.466733000000000 
P           0.500000000000000    0.500000000000000    0.814435000000000 
P           0.637948000000000    0.139772000000000    0.786021000000000 
P           0.860228000000000    0.637948000000000    0.786021000000000 
K           0.000000000000000    0.000000000000000    0.789289000000000 
K           0.178415000000000    0.738880000000000    0.210251000000000 
K           0.261120000000000    0.178415000000000    0.210251000000000 
K           0.738880000000000    0.821585000000000    0.210251000000000 
K           0.821585000000000    0.261120000000000    0.210251000000000 
%ENDBLOCK POSITIONS_FRAC
