# Cell file generated by matador (Matthew Evans 2016)

%BLOCK LATTICE_CART
7.61195 0.0 0.0
0.0 7.61195 0.0
0.0 0.0 7.61195
%ENDBLOCK LATTICE_CART

%BLOCK POSITIONS_FRAC
P           0.348304000000000    0.348304000000000    0.348304000000000 
P           0.348304000000000    0.348304000000000    0.651696000000000 
P           0.348304000000000    0.651696000000000    0.348304000000000 
P           0.348304000000000    0.651696000000000    0.651696000000000 
P           0.651696000000000    0.348304000000000    0.348304000000000 
P           0.651696000000000    0.348304000000000    0.651696000000000 
P           0.651696000000000    0.651696000000000    0.348304000000000 
P           0.651696000000000    0.651696000000000    0.651696000000000 
K           0.000000000000000    0.000000000000000    0.500000000000000 
K           0.000000000000000    0.500000000000000    0.000000000000000 
K           0.500000000000000    0.000000000000000    0.000000000000000 
K           0.500000000000000    0.500000000000000    0.500000000000000 
%ENDBLOCK POSITIONS_FRAC
