# Cell file generated by matador (Matthew Evans 2016)

%BLOCK LATTICE_CART
8.84017 0.0 0.0
0.0 8.84017 0.0
0.0 0.0 12.0531
%ENDBLOCK LATTICE_CART

%BLOCK POSITIONS_FRAC
P           0.000000000000000    0.000000000000000    0.026463000000000 
P           0.000000000000000    0.000000000000000    0.611433000000000 
P           0.000000000000000    0.500000000000000    0.714022000000000 
P           0.500000000000000    0.000000000000000    0.714022000000000 
P           0.500000000000000    0.500000000000000    0.026463000000000 
P           0.500000000000000    0.500000000000000    0.611433000000000 
K           0.000000000000000    0.500000000000000    0.937236000000000 
K           0.155560000000000    0.344440000000000    0.668943000000000 
K           0.174419000000000    0.674419000000000    0.124834000000000 
K           0.221798000000000    0.278202000000000    0.404056000000000 
K           0.238992000000000    0.738992000000000    0.885743000000000 
K           0.261008000000000    0.238992000000000    0.885743000000000 
K           0.278202000000000    0.778202000000000    0.404056000000000 
K           0.325581000000000    0.174419000000000    0.124834000000000 
K           0.344440000000000    0.844440000000000    0.668943000000000 
K           0.500000000000000    0.000000000000000    0.937236000000000 
K           0.655560000000000    0.155560000000000    0.668943000000000 
K           0.674419000000000    0.825581000000000    0.124834000000000 
K           0.721798000000000    0.221798000000000    0.404056000000000 
K           0.738992000000000    0.761008000000000    0.885743000000000 
K           0.761008000000000    0.261008000000000    0.885743000000000 
K           0.778202000000000    0.721798000000000    0.404056000000000 
K           0.825581000000000    0.325581000000000    0.124834000000000 
K           0.844440000000000    0.655560000000000    0.668943000000000 
%ENDBLOCK POSITIONS_FRAC
