# Cell file generated by matador (Matthew Evans 2016)

%BLOCK LATTICE_CART
4.68234 0.0 0.0
0.0 9.63367 0.0
0.0 0.0 7.73881
%ENDBLOCK LATTICE_CART

%BLOCK POSITIONS_FRAC
P           0.000000000000000    0.000000000000000    0.000000000000000 
P           0.000000000000000    0.000000000000000    0.500000000000000 
P           0.000000000000000    0.500000000000000    0.500000000000000 
P           0.500000000000000    0.000000000000000    0.000000000000000 
P           0.500000000000000    0.500000000000000    0.500000000000000 
K           0.000000000000000    0.500000000000000    0.000000000000000 
K           0.257289000000000    0.167530000000000    0.944779000000000 
K           0.257289000000000    0.832470000000000    0.055221000000000 
K           0.500000000000000    0.500000000000000    0.000000000000000 
K           0.742711000000000    0.167530000000000    0.055221000000000 
K           0.742711000000000    0.832470000000000    0.944779000000000 
%ENDBLOCK POSITIONS_FRAC
