# Cell file generated by matador (Matthew Evans 2016)

%BLOCK LATTICE_CART
7.84733 0.0 0.0
-3.92367 6.79599 0.0
0.0 0.0 8.9928
%ENDBLOCK LATTICE_CART

%BLOCK POSITIONS_FRAC
P           0.033942000000000    0.333461000000000    0.500000000000000 
P           0.033942000000000    0.700482000000000    0.500000000000000 
P           0.299518000000000    0.333461000000000    0.500000000000000 
P           0.299518000000000    0.966058000000000    0.500000000000000 
P           0.666539000000000    0.700482000000000    0.500000000000000 
P           0.666539000000000    0.966058000000000    0.500000000000000 
K          -0.000000000000000    0.000000000000000    0.500000000000000 
K           0.333333000000000    0.666667000000000    0.500000000000000 
K           0.336052000000000    0.022692000000000    0.000000000000000 
K           0.336052000000000    0.313360000000000    0.000000000000000 
K           0.666666000000000    0.333334000000000    0.000000000000000 
K           0.666666000000000    0.333334000000000    0.500000000000000 
K           0.686640000000000    0.022692000000000    0.000000000000000 
K           0.686640000000000    0.663948000000000    0.000000000000000 
K           0.977308000000000    0.313360000000000    0.000000000000000 
K           0.977308000000000    0.663948000000000    0.000000000000000 
%ENDBLOCK POSITIONS_FRAC
