# Cell file generated by matador (Matthew Evans 2016)

%BLOCK LATTICE_CART
9.45948 0.0 0.0
0.0 9.45948 0.0
0.0 0.0 5.46693
%ENDBLOCK LATTICE_CART

%BLOCK POSITIONS_FRAC
P           0.000000000000000    0.000000000000000    0.500000000000000 
P           0.000000000000000    0.500000000000000    0.000000000000000 
P           0.000000000000000    0.500000000000000    0.500000000000000 
P           0.500000000000000    0.000000000000000    0.000000000000000 
P           0.500000000000000    0.000000000000000    0.500000000000000 
P           0.500000000000000    0.500000000000000    0.000000000000000 
K           0.219709000000000    0.219709000000000    0.500000000000000 
K           0.219709000000000    0.780291000000000    0.500000000000000 
K           0.280291000000000    0.280291000000000    0.000000000000000 
K           0.280291000000000    0.719709000000000    0.000000000000000 
K           0.719709000000000    0.280291000000000    0.000000000000000 
K           0.719709000000000    0.719709000000000    0.000000000000000 
K           0.780291000000000    0.219709000000000    0.500000000000000 
K           0.780291000000000    0.780291000000000    0.500000000000000 
%ENDBLOCK POSITIONS_FRAC
