# Cell file generated by matador (Matthew Evans 2016)

%BLOCK LATTICE_CART
4.78246 0.0 0.0
-2.39123 4.14174 0.0
0.0 0.0 6.29536
%ENDBLOCK LATTICE_CART

%BLOCK POSITIONS_FRAC
P           0.000000000000000    0.000000000000000    0.732791000000000 
K           0.000000000000000    0.500000000000000    0.592614000000000 
K           0.500000000000000    0.000000000000000    0.592614000000000 
K           0.500000000000000    0.500000000000000    0.592614000000000 
%ENDBLOCK POSITIONS_FRAC
