# Cell file generated by matador (Matthew Evans 2016)

%BLOCK LATTICE_CART
9.40958 0.0 0.0
-4.70479 8.14893 0.0
0.0 0.0 9.25385
%ENDBLOCK LATTICE_CART

%BLOCK POSITIONS_FRAC
P           0.125075000000000    0.250151000000000    0.273425000000000 
P           0.125075000000000    0.874925000000000    0.273425000000000 
P           0.207312000000000    0.603656000000000    0.632183000000000 
P           0.250151000000000    0.125075000000000    0.773425000000000 
P           0.333333000000000    0.666667000000000    0.176431000000000 
P           0.396344000000000    0.603656000000000    0.632183000000000 
P           0.396344000000000    0.792688000000000    0.632183000000000 
P           0.603656000000000    0.207312000000000    0.132183000000000 
P           0.603656000000000    0.396344000000000    0.132183000000000 
P           0.666667000000000    0.333333000000000    0.676431000000000 
P           0.749849000000000    0.874925000000000    0.273425000000000 
P           0.792688000000000    0.396344000000000    0.132183000000000 
P           0.874925000000000    0.125075000000000    0.773425000000000 
P           0.874925000000000    0.749849000000000    0.773425000000000 
K           0.000000000000000    0.000000000000000    0.066585000000000 
K           0.000000000000000    0.000000000000000    0.566585000000000 
K           0.333333000000000    0.666667000000000    0.886233000000000 
K           0.666667000000000    0.333333000000000    0.386233000000000 
%ENDBLOCK POSITIONS_FRAC
