# Cell file generated by matador (Matthew Evans 2016)

%BLOCK LATTICE_CART
8.33653 0.0 0.0
0.0 8.33653 0.0
0.0 0.0 4.51827
%ENDBLOCK LATTICE_CART

%BLOCK POSITIONS_FRAC
P           0.000000000000000    0.000000000000000    0.500000000000000 
P           0.022659000000000    0.717374000000000    0.500000000000000 
P           0.217374000000000    0.477341000000000    0.000000000000000 
P           0.244064000000000    0.244064000000000    0.500000000000000 
P           0.255936000000000    0.744064000000000    0.000000000000000 
P           0.282626000000000    0.977341000000000    0.500000000000000 
P           0.477341000000000    0.217374000000000    0.000000000000000 
P           0.500000000000000    0.500000000000000    0.000000000000000 
P           0.522659000000000    0.782626000000000    0.000000000000000 
P           0.717374000000000    0.022659000000000    0.500000000000000 
P           0.744064000000000    0.255936000000000    0.000000000000000 
P           0.755936000000000    0.755936000000000    0.500000000000000 
P           0.782626000000000    0.522659000000000    0.000000000000000 
P           0.977341000000000    0.282626000000000    0.500000000000000 
K           0.000000000000000    0.000000000000000    0.000000000000000 
K           0.500000000000000    0.500000000000000    0.500000000000000 
%ENDBLOCK POSITIONS_FRAC
