# Cell file generated by matador (Matthew Evans 2016)

%BLOCK LATTICE_CART
6.35726 0.0 0.0
-3.17863 5.50555 0.0
0.0 0.0 9.95937
%ENDBLOCK LATTICE_CART

%BLOCK POSITIONS_FRAC
P           0.059510000000000    0.711413000000000    0.199659000000000 
P           0.288587000000000    0.348098000000000    0.199659000000000 
P           0.348098000000000    0.288587000000000    0.699659000000000 
P           0.651902000000000    0.940490000000000    0.199659000000000 
P           0.711413000000000    0.059510000000000    0.699659000000000 
P           0.940490000000000    0.651902000000000    0.699659000000000 
K           0.000000000000000    0.000000000000000    0.271988000000000 
K           0.000000000000000    0.000000000000000    0.771988000000000 
K           0.333333000000000    0.666667000000000    0.917418000000000 
K           0.666667000000000    0.333333000000000    0.417418000000000 
%ENDBLOCK POSITIONS_FRAC
