# Cell file generated by matador (Matthew Evans 2016)

%BLOCK LATTICE_CART
6.60119 -0.0 0.0
-3.3006 5.7168 0.0
0.0 0.0 12.1891
%ENDBLOCK LATTICE_CART

%BLOCK POSITIONS_FRAC
P          -0.000000000000000   -0.000000000000000    0.464098000000000 
P           0.239203000000000    0.130382000000000    0.688512000000000 
P           0.308386000000000    0.030922000000000    0.796848000000000 
P           0.333333000000000    0.666667000000000    0.439427000000000 
P           0.333333000000000    0.666667000000000    0.587952000000000 
P           0.565831000000000    0.171181000000000    0.828342000000000 
P           0.605349000000000    0.434169000000000    0.828342000000000 
P           0.722537000000000    0.691614000000000    0.796848000000000 
P           0.828819000000000    0.394651000000000    0.828342000000000 
P           0.869618000000000    0.108821000000000    0.688512000000000 
P           0.891179000000000    0.760797000000000    0.688512000000000 
P           0.969078000000000    0.277463000000000    0.796848000000000 
K           0.496808000000000    0.070573000000000    0.060924000000000 
K           0.573765000000000    0.503192000000000    0.060924000000000 
K           0.929427000000000    0.426235000000000    0.060924000000000 
%ENDBLOCK POSITIONS_FRAC
