# Cell file generated by matador (Matthew Evans 2016)

%BLOCK LATTICE_CART
12.953 0.0 0.0
-6.47652 11.2177 0.0
0.0 0.0 6.81731
%ENDBLOCK LATTICE_CART

%BLOCK POSITIONS_FRAC
P           0.223641000000000    0.447282000000000    0.196238000000000 
P           0.223641000000000    0.776359000000000    0.196238000000000 
P           0.447282000000000    0.223641000000000    0.696238000000000 
P           0.552718000000000    0.776359000000000    0.196238000000000 
P           0.776359000000000    0.223641000000000    0.696238000000000 
P           0.776359000000000    0.552718000000000    0.696238000000000 
K           0.088392000000000    0.176784000000000    0.129543000000000 
K           0.088392000000000    0.911608000000000    0.129543000000000 
K           0.171808000000000    0.343617000000000    0.695963000000000 
K           0.171808000000000    0.828192000000000    0.695963000000000 
K           0.173298000000000    0.586649000000000    0.242426000000000 
K           0.176784000000000    0.088392000000000    0.629543000000000 
K           0.343616000000000    0.171808000000000    0.195963000000000 
K           0.413350000000000    0.586649000000000    0.242426000000000 
K           0.413350000000000    0.826701000000000    0.242426000000000 
K           0.586650000000000    0.173299000000000    0.742426000000000 
K           0.586650000000000    0.413351000000000    0.742426000000000 
K           0.656384000000000    0.828192000000000    0.695963000000000 
K           0.823216000000000    0.911608000000000    0.129543000000000 
K           0.826701000000000    0.413351000000000    0.742426000000000 
K           0.828191000000000    0.171808000000000    0.195963000000000 
K           0.828191000000000    0.656383000000000    0.195963000000000 
K           0.911608000000000    0.088392000000000    0.629543000000000 
K           0.911608000000000    0.823216000000000    0.629543000000000 
%ENDBLOCK POSITIONS_FRAC
