# Cell file generated by matador (Matthew Evans 2016)

%BLOCK LATTICE_CART
9.42344 0.0 0.0
0.0 7.96296 0.0
4.66114 0.0 8.93142
%ENDBLOCK LATTICE_CART

%BLOCK POSITIONS_FRAC
P           0.000000000000000    0.500000000000000    0.000000000000000 
P           0.500000000000000    0.000000000000000    0.500000000000000 
P           0.500000000000000    0.250872000000000    0.000000000000000 
P           0.500000000000000    0.749128000000000    0.000000000000000 
K           0.000000000000000    0.000000000000000    0.000000000000000 
K           0.000000000000000    0.000000000000000    0.500000000000000 
K           0.000000000000000    0.500000000000000    0.500000000000000 
K           0.065595000000000    0.320463000000000    0.255382000000000 
K           0.065595000000000    0.679537000000000    0.255382000000000 
K           0.399210000000000    0.306748000000000    0.432594000000000 
K           0.399210000000000    0.693252000000000    0.432594000000000 
K           0.500000000000000    0.000000000000000    0.000000000000000 
K           0.500000000000000    0.500000000000000    0.000000000000000 
K           0.500000000000000    0.500000000000000    0.500000000000000 
K           0.600790000000000    0.306748000000000    0.567406000000000 
K           0.600790000000000    0.693252000000000    0.567406000000000 
K           0.934405000000000    0.320463000000000    0.744618000000000 
K           0.934405000000000    0.679537000000000    0.744618000000000 
%ENDBLOCK POSITIONS_FRAC
