# Cell file generated by matador (Matthew Evans 2016)

%BLOCK LATTICE_CART
6.497 0.0 0.0
0.0 6.497 0.0
0.0 0.0 9.78441
%ENDBLOCK LATTICE_CART

%BLOCK POSITIONS_FRAC
P           0.000000000000000   -0.000000000000000   -0.000000000000000 
P           0.000000000000000   -0.000000000000000    0.500000000000000 
P           0.000000000000000    0.197831000000000    0.500000000000000 
P           0.000000000000000    0.500000000000000   -0.000000000000000 
P           0.000000000000000    0.500000000000000    0.500000000000000 
P           0.000000000000000    0.802169000000000    0.500000000000000 
P           0.197831000000000   -0.000000000000000    0.500000000000000 
P           0.302169000000000    0.500000000000000   -0.000000000000000 
P           0.500000000000000   -0.000000000000000   -0.000000000000000 
P           0.500000000000000   -0.000000000000000    0.500000000000000 
P           0.500000000000000    0.302169000000000   -0.000000000000000 
P           0.500000000000000    0.500000000000000   -0.000000000000000 
P           0.500000000000000    0.500000000000000    0.500000000000000 
P           0.500000000000000    0.697831000000000   -0.000000000000000 
P           0.697831000000000    0.500000000000000   -0.000000000000000 
P           0.802169000000000   -0.000000000000000    0.500000000000000 
K           0.000000000000000    0.500000000000000    0.250000000000000 
K           0.000000000000000    0.500000000000000    0.750000000000000 
K           0.500000000000000   -0.000000000000000    0.250000000000000 
K           0.500000000000000   -0.000000000000000    0.750000000000000 
%ENDBLOCK POSITIONS_FRAC
