# Cell file generated by matador (Matthew Evans 2016)

%BLOCK LATTICE_CART
9.19107 0.0 0.0
0.0 8.304 0.0
-0.292296 0.0 5.74184
%ENDBLOCK LATTICE_CART

%BLOCK POSITIONS_FRAC
P          -0.000000000000000    0.000000000000000    0.000000000000000 
P          -0.000000000000000    0.000000000000000    0.500000000000000 
P          -0.000000000000000    0.497893000000000    0.250000000000000 
P          -0.000000000000000    0.500000000000000    0.000000000000000 
P          -0.000000000000000    0.500000000000000    0.500000000000000 
P          -0.000000000000000    0.502107000000000    0.750000000000000 
P           0.500000000000000    0.000000000000000    0.000000000000000 
P           0.500000000000000    0.000000000000000    0.500000000000000 
P           0.500000000000000    0.240626000000000    0.750000000000000 
P           0.500000000000000    0.759374000000000    0.250000000000000 
K           0.267209000000000    0.268268000000000    0.134469000000000 
K           0.267209000000000    0.731732000000000    0.634469000000000 
K           0.500000000000000    0.338334000000000    0.250000000000000 
K           0.500000000000000    0.661666000000000    0.750000000000000 
K           0.732791000000000    0.268268000000000    0.365531000000000 
K           0.732791000000000    0.731732000000000    0.865531000000000 
%ENDBLOCK POSITIONS_FRAC
