# Cell file generated by matador (Matthew Evans 2016)

%BLOCK LATTICE_CART
5.04898 0.0 0.0
0.0 7.48732 0.0
-1.39506 0.0 6.70508
%ENDBLOCK LATTICE_CART

%BLOCK POSITIONS_FRAC
P           0.097637000000000    0.208066000000000    0.573298000000000 
P           0.902363000000000    0.208066000000000    0.426702000000000 
K           0.000000000000000    0.321878000000000    0.000000000000000 
K           0.000000000000000    0.832055000000000    0.500000000000000 
K           0.500000000000000    0.166197000000000    0.000000000000000 
K           0.500000000000000    0.617276000000000    0.500000000000000 
K           0.500000000000000    0.642054000000000    0.000000000000000 
%ENDBLOCK POSITIONS_FRAC
