# Cell file generated by matador (Matthew Evans 2016)

%BLOCK LATTICE_CART
7.1223 0.0 0.0
-3.56115 6.16809 0.0
0.0 0.0 8.11593
%ENDBLOCK LATTICE_CART

%BLOCK POSITIONS_FRAC
P           0.000000000000000    0.000000000000000    0.000000000000000 
P           0.000000000000000    0.000000000000000    0.253571000000000 
P           0.000000000000000    0.000000000000000    0.746429000000000 
P           0.333333000000000    0.666667000000000    0.000000000000000 
P           0.666667000000000    0.333333000000000    0.246430000000000 
P           0.666667000000000    0.333333000000000    0.753570000000000 
K           0.000000000000000    0.000000000000000    0.500000000000000 
K           0.333333000000000    0.666667000000000    0.500000000000000 
K           0.341727000000000    0.170863000000000    0.500000000000000 
K           0.666667000000000    0.333333000000000    0.000000000000000 
K           0.666667000000000    0.333333000000000    0.500000000000000 
K           0.829137000000000    0.170863000000000    0.500000000000000 
K           0.829137000000000    0.658273000000000    0.500000000000000 
%ENDBLOCK POSITIONS_FRAC
