# Cell file generated by matador (Matthew Evans 2016)

%BLOCK LATTICE_CART
11.401 0.0 0.0
0.0 9.42937 0.0
0.0 0.0 4.28619
%ENDBLOCK LATTICE_CART

%BLOCK POSITIONS_FRAC
P           0.250000000000000    0.500000000000000    0.356504000000000 
P           0.250000000000000    0.500000000000000    0.856504000000000 
P           0.750000000000000    0.500000000000000    0.143496000000000 
P           0.750000000000000    0.500000000000000    0.643496000000000 
K           0.000000000000000    0.086686000000000    0.250000000000000 
K           0.000000000000000    0.500000000000000    0.000000000000000 
K           0.000000000000000    0.500000000000000    0.500000000000000 
K           0.000000000000000    0.913314000000000    0.750000000000000 
K           0.500000000000000    0.086686000000000    0.750000000000000 
K           0.500000000000000    0.500000000000000    0.000000000000000 
K           0.500000000000000    0.500000000000000    0.500000000000000 
K           0.500000000000000    0.913314000000000    0.250000000000000 
%ENDBLOCK POSITIONS_FRAC
