# Cell file generated by matador (Matthew Evans 2016)

%BLOCK LATTICE_CART
7.32753 0.0 0.0
0.0 7.32753 0.0
0.0 0.0 8.583
%ENDBLOCK LATTICE_CART

%BLOCK POSITIONS_FRAC
P           0.000000000000000    0.000000000000000    0.235673000000000 
P           0.000000000000000    0.000000000000000    0.764327000000000 
P           0.000000000000000    0.500000000000000    0.085174000000000 
P           0.000000000000000    0.500000000000000    0.427321000000000 
P           0.307000000000000    0.307000000000000    0.000000000000000 
P           0.307000000000000    0.307000000000000    0.500000000000000 
P           0.307000000000000    0.693000000000000    0.000000000000000 
P           0.307000000000000    0.693000000000000    0.500000000000000 
P           0.500000000000000    0.000000000000000    0.572679000000000 
P           0.500000000000000    0.000000000000000    0.914826000000000 
P           0.693000000000000    0.307000000000000    0.000000000000000 
P           0.693000000000000    0.307000000000000    0.500000000000000 
P           0.693000000000000    0.693000000000000    0.000000000000000 
P           0.693000000000000    0.693000000000000    0.500000000000000 
K           0.500000000000000    0.500000000000000    0.000000000000000 
K           0.500000000000000    0.500000000000000    0.500000000000000 
%ENDBLOCK POSITIONS_FRAC
