# Cell file generated by matador (Matthew Evans 2016)

%BLOCK LATTICE_CART
15.4255 0.0 0.0
0.0 9.61098 0.0
3.6157 0.0 8.06295
%ENDBLOCK LATTICE_CART

%BLOCK POSITIONS_FRAC
P           0.038798000000000    0.366092000000000    0.338868000000000 
P           0.038798000000000    0.633908000000000    0.338868000000000 
P           0.181509000000000    0.500000000000000    0.130641000000000 
P           0.324611000000000    0.318588000000000    0.129583000000000 
P           0.324611000000000    0.681412000000000    0.129583000000000 
P           0.996655000000000    0.273198000000000    0.831653000000000 
P           0.996655000000000    0.726802000000000    0.831653000000000 
K           0.060877000000000    0.000000000000000    0.024887000000000 
K           0.070472000000000    0.000000000000000    0.675094000000000 
K           0.165323000000000    0.500000000000000    0.804246000000000 
K           0.198769000000000    0.500000000000000    0.405390000000000 
K           0.267554000000000    0.000000000000000    0.052893000000000 
K           0.293701000000000    0.000000000000000    0.442988000000000 
K           0.425837000000000    0.000000000000000    0.620655000000000 
K           0.434141000000000    0.500000000000000    0.185807000000000 
K           0.478648000000000    0.500000000000000    0.504883000000000 
K           0.488997000000000    0.000000000000000    0.167410000000000 
K           0.574612000000000    0.000000000000000    0.805337000000000 
K           0.605754000000000    0.292501000000000    0.878915000000000 
K           0.605754000000000    0.707499000000000    0.878915000000000 
K           0.642935000000000    0.000000000000000    0.427742000000000 
K           0.694346000000000    0.500000000000000    0.298987000000000 
K           0.741971000000000    0.000000000000000    0.888675000000000 
K           0.756007000000000    0.500000000000000    0.878707000000000 
K           0.822985000000000    0.000000000000000    0.156306000000000 
K           0.874322000000000    0.000000000000000    0.457996000000000 
K           0.905883000000000    0.500000000000000    0.299566000000000 
K           0.983358000000000    0.500000000000000    0.691152000000000 
%ENDBLOCK POSITIONS_FRAC
