# Cell file generated by matador (Matthew Evans 2016)

%BLOCK LATTICE_CART
5.67221 0.0 0.0
0.0 6.34308 0.0
0.0 0.0 6.48691
%ENDBLOCK LATTICE_CART

%BLOCK POSITIONS_FRAC
P           0.000000000000000    0.299270000000000    0.146894000000000 
P           0.000000000000000    0.500000000000000    0.365261000000000 
P           0.000000000000000    0.700730000000000    0.146894000000000 
P           0.315675000000000    0.310003000000000    0.960364000000000 
P           0.315675000000000    0.689997000000000    0.960364000000000 
P           0.407919000000000    0.500000000000000    0.767015000000000 
P           0.500000000000000    0.000000000000000    0.631338000000000 
P           0.592081000000000    0.500000000000000    0.767015000000000 
P           0.684325000000000    0.310003000000000    0.960364000000000 
P           0.684325000000000    0.689997000000000    0.960364000000000 
K           0.500000000000000    0.207296000000000    0.251381000000000 
K           0.500000000000000    0.792704000000000    0.251381000000000 
%ENDBLOCK POSITIONS_FRAC
