# Cell file generated by matador (Matthew Evans 2016)

%BLOCK LATTICE_CART
6.32951 0.0 0.0
-3.16476 5.48152 0.0
0.0 0.0 9.34495
%ENDBLOCK LATTICE_CART

%BLOCK POSITIONS_FRAC
P           0.000000000000000    0.315980000000000    0.500000000000000 
P           0.315980000000000    0.000000000000000    0.500000000000000 
P           0.684020000000000    0.684020000000000    0.500000000000000 
K           0.000000000000000    0.000000000000000    0.000000000000000 
K           0.000000000000000    0.000000000000000    0.500000000000000 
K           0.333333000000000    0.666667000000000    0.235048000000000 
K           0.333333000000000    0.666667000000000    0.599920000000000 
K           0.666667000000000    0.333333000000000    0.400080000000000 
K           0.666667000000000    0.333333000000000    0.764952000000000 
%ENDBLOCK POSITIONS_FRAC
