# Cell file generated by matador (Matthew Evans 2016)

%BLOCK LATTICE_CART
5.87133 0.0 0.0
-2.42847 9.94758 0.0
1.01736 -1.73584 5.42616
%ENDBLOCK LATTICE_CART

%BLOCK POSITIONS_FRAC
P           0.013750000000000    0.245493000000000    0.348780000000000 
P           0.022130000000000    0.082210000000000    0.090098000000000 
P           0.237119000000000    0.436763000000000    0.283649000000000 
P           0.762881000000000    0.563237000000000    0.716351000000000 
P           0.977870000000000    0.917790000000000    0.909902000000000 
P           0.986250000000000    0.754507000000000    0.651220000000000 
K           0.273946000000000    0.587575000000000    0.814830000000000 
K           0.368528000000000    0.102869000000000    0.670144000000000 
K           0.500000000000000    0.500000000000000    0.500000000000000 
K           0.631472000000000    0.897131000000000    0.329856000000000 
K           0.726054000000000    0.412425000000000    0.185170000000000 
%ENDBLOCK POSITIONS_FRAC
