# Cell file generated by matador (Matthew Evans 2016)

%BLOCK LATTICE_CART
4.71314 0.0 0.0
0.0 5.86991 0.0
0.0 0.0 5.15547
%ENDBLOCK LATTICE_CART

%BLOCK POSITIONS_FRAC
P           0.000000000000000    0.000000000000000    0.000000000000000 
P           0.000000000000000    0.326953000000000    0.500000000000000 
P           0.000000000000000    0.673047000000000    0.500000000000000 
P           0.212173000000000    0.000000000000000    0.000000000000000 
P           0.787827000000000    0.000000000000000    0.000000000000000 
K           0.500000000000000    0.500000000000000    0.000000000000000 
%ENDBLOCK POSITIONS_FRAC
