# Cell file generated by matador (Matthew Evans 2016)

%BLOCK LATTICE_CART
7.67119 0.0 0.0
0.0 9.38347 0.0
-3.02028 0.0 5.27215
%ENDBLOCK LATTICE_CART

%BLOCK POSITIONS_FRAC
P           0.403110000000000    0.287070000000000    0.889398000000000 
P           0.403110000000000    0.712930000000000    0.889398000000000 
P           0.500000000000000    0.054228000000000    0.500000000000000 
P           0.500000000000000    0.945772000000000    0.500000000000000 
P           0.596890000000000    0.287070000000000    0.110602000000000 
P           0.596890000000000    0.712930000000000    0.110602000000000 
K           0.000000000000000    0.000000000000000    0.000000000000000 
K           0.172570000000000    0.000000000000000    0.552345000000000 
K           0.266826000000000    0.000000000000000    0.998423000000000 
K           0.277890000000000    0.363127000000000    0.503122000000000 
K           0.277890000000000    0.636873000000000    0.503122000000000 
K           0.722110000000000    0.363127000000000    0.496878000000000 
K           0.722110000000000    0.636873000000000    0.496878000000000 
K           0.733174000000000    0.000000000000000    0.001577000000000 
K           0.827430000000000    0.000000000000000    0.447655000000000 
%ENDBLOCK POSITIONS_FRAC
