# Cell file generated by matador (Matthew Evans 2016)

%BLOCK LATTICE_CART
5.81509 0.0 0.0
-0.302657 11.1413 0.0
-1.3442 -0.498338 6.48594
%ENDBLOCK LATTICE_CART

%BLOCK POSITIONS_FRAC
P           0.127238000000000    0.246159000000000    0.034180000000000 
P           0.148417000000000    0.163597000000000    0.601937000000000 
P           0.157859000000000    0.849606000000000    0.178952000000000 
P           0.842141000000000    0.150394000000000    0.821048000000000 
P           0.851583000000000    0.836403000000000    0.398063000000000 
P           0.872762000000000    0.753841000000000    0.965820000000000 
K           0.000000000000000    0.000000000000000    0.000000000000000 
K           0.000000000000000    0.000000000000000    0.500000000000000 
K           0.000000000000000    0.500000000000000    0.000000000000000 
K           0.000000000000000    0.500000000000000    0.500000000000000 
K           0.238395000000000    0.777276000000000    0.508687000000000 
K           0.500000000000000    0.000000000000000    0.000000000000000 
K           0.500000000000000    0.000000000000000    0.500000000000000 
K           0.500000000000000    0.500000000000000    0.000000000000000 
K           0.500000000000000    0.500000000000000    0.500000000000000 
K           0.761605000000000    0.222724000000000    0.491313000000000 
%ENDBLOCK POSITIONS_FRAC
