# Cell file generated by matador (Matthew Evans 2016)

%BLOCK LATTICE_CART
5.986 0.0 0.0
-2.993 5.18403 0.0
0.0 0.0 4.73936
%ENDBLOCK LATTICE_CART

%BLOCK POSITIONS_FRAC
P           0.538619000000000    0.273884000000000    0.551303000000000 
P           0.726116000000000    0.264735000000000    0.551303000000000 
P           0.735265000000000    0.461381000000000    0.551303000000000 
K           0.000000000000000    0.000000000000000    0.644093000000000 
K           0.666667000000000    0.333333000000000    0.051837000000000 
%ENDBLOCK POSITIONS_FRAC
