# Cell file generated by matador (Matthew Evans 2016)

%BLOCK LATTICE_CART
8.72823 0.0 0.0
-4.36412 7.55887 0.0
0.0 0.0 14.3278
%ENDBLOCK LATTICE_CART

%BLOCK POSITIONS_FRAC
P           0.000000000000000    0.000000000000000    0.000000000000000 
P           0.000000000000000    0.000000000000000    0.500000000000000 
P           0.333333000000000    0.666667000000000    0.000000000000000 
P           0.333333000000000    0.666667000000000    0.500000000000000 
P           0.666667000000000    0.333333000000000    0.000000000000000 
P           0.666667000000000    0.333333000000000    0.500000000000000 
K           0.000000000000000    0.674903000000000    0.190455000000000 
K           0.000000000000000    0.674903000000000    0.809545000000000 
K           0.191183000000000    0.804989000000000    0.000000000000000 
K           0.193560000000000    0.806092000000000    0.500000000000000 
K           0.193908000000000    0.387468000000000    0.500000000000000 
K           0.195011000000000    0.386194000000000    0.000000000000000 
K           0.325097000000000    0.325097000000000    0.190455000000000 
K           0.325097000000000    0.325097000000000    0.809545000000000 
K           0.386194000000000    0.195011000000000    0.000000000000000 
K           0.387468000000000    0.193908000000000    0.500000000000000 
K           0.612532000000000    0.806440000000000    0.500000000000000 
K           0.613806000000000    0.808817000000000    0.000000000000000 
K           0.674903000000000    0.000000000000000    0.190455000000000 
K           0.674903000000000    0.000000000000000    0.809545000000000 
K           0.804989000000000    0.191183000000000    0.000000000000000 
K           0.806092000000000    0.193560000000000    0.500000000000000 
K           0.806440000000000    0.612532000000000    0.500000000000000 
K           0.808817000000000    0.613806000000000    0.000000000000000 
%ENDBLOCK POSITIONS_FRAC
