# Cell file generated by matador (Matthew Evans 2016)

%BLOCK LATTICE_CART
10.2681 0.0 0.0
0.0 6.68605 0.0
0.0 0.0 4.62719
%ENDBLOCK LATTICE_CART

%BLOCK POSITIONS_FRAC
P           0.000000000000000    0.000000000000000    0.500000000000000 
P           0.500000000000000    0.500000000000000    0.283886000000000 
P           0.500000000000000    0.500000000000000    0.500000000000000 
P           0.500000000000000    0.500000000000000    0.716114000000000 
K           0.398920000000000    0.140880000000000    0.407139000000000 
K           0.398920000000000    0.859120000000000    0.592861000000000 
K           0.500000000000000    0.000000000000000    0.000000000000000 
K           0.601080000000000    0.140880000000000    0.592861000000000 
K           0.601080000000000    0.859120000000000    0.407139000000000 
%ENDBLOCK POSITIONS_FRAC
