# Cell file generated by matador (Matthew Evans 2016)

%BLOCK LATTICE_CART
7.39407 0.0 0.0
0.0 8.16985 0.0
1.50056 0.0 5.65195
%ENDBLOCK LATTICE_CART

%BLOCK POSITIONS_FRAC
P           0.017399000000000    0.223782000000000    0.253914000000000 
P           0.017399000000000    0.776218000000000    0.253914000000000 
K           0.263142000000000    0.000000000000000    0.341338000000000 
K           0.266214000000000    0.500000000000000    0.256228000000000 
K           0.688153000000000    0.500000000000000    0.939340000000000 
K           0.734546000000000    0.000000000000000    0.343150000000000 
K           0.827072000000000    0.000000000000000    0.821386000000000 
K           0.835159000000000    0.500000000000000    0.388413000000000 
%ENDBLOCK POSITIONS_FRAC
