# Cell file generated by matador (Matthew Evans 2016)

%BLOCK LATTICE_CART
5.94359 0.0 0.0
-2.97179 5.1473 0.0
0.0 0.0 9.53362
%ENDBLOCK LATTICE_CART

%BLOCK POSITIONS_FRAC
P           0.333333000000000    0.666667000000000    0.000000000000000 
P           0.333333000000000    0.666667000000000    0.214379000000000 
P           0.333333000000000    0.666667000000000    0.785621000000000 
P           0.666667000000000    0.333333000000000    0.000000000000000 
P           0.666667000000000    0.333333000000000    0.214379000000000 
P           0.666667000000000    0.333333000000000    0.785621000000000 
K           0.000000000000000    0.000000000000000    0.500000000000000 
K           0.333333000000000    0.666667000000000    0.500000000000000 
K           0.666667000000000    0.333333000000000    0.500000000000000 
%ENDBLOCK POSITIONS_FRAC
