# Cell file generated by matador (Matthew Evans 2016)

%BLOCK LATTICE_CART
7.42839 0.0 0.0
-3.71419 6.43317 0.0
0.0 0.0 9.89332
%ENDBLOCK LATTICE_CART

%BLOCK POSITIONS_FRAC
P           0.000000000000000    0.000000000000000    0.349499000000000 
P           0.160061000000000    0.432810000000000    0.787499000000000 
P           0.233857000000000    0.060584000000000    0.120832000000000 
P           0.272750000000000    0.839939000000000    0.787499000000000 
P           0.333333000000000    0.666667000000000    0.016165000000000 
P           0.493394000000000    0.099477000000000    0.454166000000000 
P           0.567190000000000    0.727250000000000    0.787499000000000 
P           0.606083000000000    0.506606000000000    0.454166000000000 
P           0.666667000000000    0.333333000000000    0.682832000000000 
P           0.826727000000000    0.766143000000000    0.120832000000000 
P           0.900523000000000    0.393917000000000    0.454166000000000 
P           0.939416000000000    0.173273000000000    0.120832000000000 
K           0.000000000000000    0.000000000000000    0.600587000000000 
K           0.000000000000000    0.000000000000000    0.963847000000000 
K           0.333333000000000    0.666667000000000    0.267254000000000 
K           0.333333000000000    0.666667000000000    0.630513000000000 
K           0.666667000000000    0.333333000000000    0.297180000000000 
K           0.666667000000000    0.333333000000000    0.933921000000000 
%ENDBLOCK POSITIONS_FRAC
