# Cell file generated by matador (Matthew Evans 2016)

%BLOCK LATTICE_CART
7.4144 0.0 0.0
0.0 7.4144 0.0
0.0 0.0 8.19626
%ENDBLOCK LATTICE_CART

%BLOCK POSITIONS_FRAC
P           0.000000000000000    0.000000000000000    0.000000000000000 
P           0.000000000000000    0.000000000000000    0.500000000000000 
P           0.500000000000000    0.500000000000000    0.500000000000000 
K           0.272391000000000    0.272391000000000    0.258446000000000 
K           0.272391000000000    0.272391000000000    0.741554000000000 
K           0.272391000000000    0.727609000000000    0.258446000000000 
K           0.272391000000000    0.727609000000000    0.741554000000000 
K           0.500000000000000    0.500000000000000    0.000000000000000 
K           0.727609000000000    0.272391000000000    0.258446000000000 
K           0.727609000000000    0.272391000000000    0.741554000000000 
K           0.727609000000000    0.727609000000000    0.258446000000000 
K           0.727609000000000    0.727609000000000    0.741554000000000 
%ENDBLOCK POSITIONS_FRAC
