# Cell file generated by matador (Matthew Evans 2016)

%BLOCK LATTICE_CART
7.52757 0.0 0.0
-3.76379 6.51907 0.0
0.0 0.0 8.06557
%ENDBLOCK LATTICE_CART

%BLOCK POSITIONS_FRAC
P           0.000000000000000    0.000000000000000    0.757353000000000 
P           0.000000000000000    0.500000000000000    0.778419000000000 
P           0.333333000000000    0.666667000000000    0.355797000000000 
P           0.500000000000000    0.000000000000000    0.778419000000000 
P           0.500000000000000    0.500000000000000    0.778419000000000 
P           0.666667000000000    0.333333000000000    0.355797000000000 
K           0.000000000000000    0.500000000000000    0.072443000000000 
K           0.333333000000000    0.666667000000000    0.927066000000000 
K           0.500000000000000    0.000000000000000    0.072443000000000 
K           0.500000000000000    0.500000000000000    0.072443000000000 
K           0.666667000000000    0.333333000000000    0.927066000000000 
%ENDBLOCK POSITIONS_FRAC
