# Cell file generated by matador (Matthew Evans 2016)

%BLOCK LATTICE_CART
8.42917 0.0 0.0
-4.21458 7.29987 0.0
0.0 0.0 7.6067
%ENDBLOCK LATTICE_CART

%BLOCK POSITIONS_FRAC
P           0.004850000000000    0.726105000000000    0.000000000000000 
P           0.202958000000000    0.101420000000000    0.000000000000000 
P           0.273895000000000    0.278745000000000    0.000000000000000 
P           0.721255000000000    0.995150000000000    0.000000000000000 
P           0.898462000000000    0.797042000000000    0.000000000000000 
P           0.898580000000000    0.101538000000000    0.000000000000000 
K          -0.000000000000000   -0.000000000000000    0.500000000000000 
K           0.333333000000000    0.666667000000000    0.000000000000000 
K           0.333333000000000    0.666667000000000    0.500000000000000 
K           0.517258000000000    0.087759000000000    0.000000000000000 
K           0.570501000000000    0.482742000000000    0.000000000000000 
K           0.666667000000000    0.333333000000000    0.500000000000000 
K           0.912241000000000    0.429499000000000    0.000000000000000 
%ENDBLOCK POSITIONS_FRAC
