# Cell file generated by matador (Matthew Evans 2016)

%BLOCK LATTICE_CART
8.59068 0.0 0.0
-4.29534 7.43975 0.0
0.0 0.0 9.61381
%ENDBLOCK LATTICE_CART

%BLOCK POSITIONS_FRAC
P           0.000001000000000    0.500001000000000    0.000000000000000 
P           0.000001000000000    0.500001000000000    0.500000000000000 
P           0.333334000000000    0.666668000000000    0.250000000000000 
P           0.333334000000000    0.666668000000000    0.750000000000000 
P           0.500001000000000    0.000001000000000    0.000000000000000 
P           0.500001000000000    0.000001000000000    0.500000000000000 
P           0.500001000000000    0.500001000000000    0.000000000000000 
P           0.500001000000000    0.500001000000000    0.500000000000000 
P           0.666668000000000    0.333334000000000    0.250000000000000 
P           0.666668000000000    0.333334000000000    0.750000000000000 
K           0.172207000000000    0.344414000000000    0.750000000000000 
K           0.172207000000000    0.827795000000000    0.750000000000000 
K           0.344414000000000    0.172207000000000    0.250000000000000 
K           0.655588000000000    0.827795000000000    0.750000000000000 
K           0.827795000000000    0.172207000000000    0.250000000000000 
K           0.827795000000000    0.655588000000000    0.250000000000000 
%ENDBLOCK POSITIONS_FRAC
