# Cell file generated by matador (Matthew Evans 2016)

%BLOCK LATTICE_CART
8.6273 -0.0 0.0
-4.31365 7.47146 0.0
0.0 0.0 3.78207
%ENDBLOCK LATTICE_CART

%BLOCK POSITIONS_FRAC
P           0.666667000000000    0.333333000000000    0.500000000000000 
K           0.000000000000000   -0.000000000000000    0.500000000000000 
K           0.425255000000000    0.367670000000000    0.000000000000000 
K           0.632330000000000    0.057585000000000    0.000000000000000 
K           0.666667000000000    0.333333000000000    0.000000000000000 
K           0.942415000000000    0.574745000000000    0.000000000000000 
%ENDBLOCK POSITIONS_FRAC
