# Cell file generated by matador (Matthew Evans 2016)

%BLOCK LATTICE_CART
5.51309 0.0 0.0
-2.75655 4.77448 0.0
0.0 0.0 11.4876
%ENDBLOCK LATTICE_CART

%BLOCK POSITIONS_FRAC
P           0.333334000000000    0.666668000000000    0.966890000000000 
P           0.666668000000000    0.333334000000000    0.966890000000000 
K           0.000001000000000    0.000001000000000    0.790479000000000 
K           0.000001000000000    0.000001000000000    0.965570000000000 
K           0.000001000000000    0.500001000000000    0.265922000000000 
K           0.000001000000000    0.500001000000000    0.534079000000000 
K           0.500001000000000    0.000001000000000    0.265922000000000 
K           0.500001000000000    0.000001000000000    0.534079000000000 
K           0.500001000000000    0.500001000000000    0.265922000000000 
K           0.500001000000000    0.500001000000000    0.534079000000000 
%ENDBLOCK POSITIONS_FRAC
