# Cell file generated by matador (Matthew Evans 2016)

%BLOCK LATTICE_CART
12.3482 0.0 0.0
-6.17409 10.6938 0.0
0.0 0.0 6.71875
%ENDBLOCK LATTICE_CART

%BLOCK POSITIONS_FRAC
P           0.000000000000000    0.000000000000000   -0.000000000000000 
P           0.000000000000000    0.000000000000000    0.500000000000000 
P           0.333333000000000    0.666667000000000    0.166667000000000 
P           0.333333000000000    0.666667000000000    0.666667000000000 
P           0.666667000000000    0.333333000000000    0.333333000000000 
P           0.666667000000000    0.333333000000000    0.833333000000000 
K           0.000000000000000    0.168419000000000    0.500000000000000 
K           0.000000000000000    0.789343000000000   -0.000000000000000 
K           0.122676000000000    0.666667000000000    0.666667000000000 
K           0.164915000000000    0.498248000000000    0.166667000000000 
K           0.168419000000000   -0.000000000000000    0.500000000000000 
K           0.210657000000000    0.210657000000000   -0.000000000000000 
K           0.333333000000000    0.456009000000000    0.666667000000000 
K           0.333333000000000    0.835085000000000    0.166667000000000 
K           0.456009000000000    0.333333000000000    0.333333000000000 
K           0.498248000000000    0.164915000000000    0.833333000000000 
K           0.501752000000000    0.666667000000000    0.166667000000000 
K           0.543991000000000    0.877324000000000    0.666667000000000 
K           0.666667000000000    0.122676000000000    0.333333000000000 
K           0.666667000000000    0.501752000000000    0.833333000000000 
K           0.789343000000000   -0.000000000000000   -0.000000000000000 
K           0.831581000000000    0.831581000000000    0.500000000000000 
K           0.835085000000000    0.333333000000000    0.833333000000000 
K           0.877324000000000    0.543991000000000    0.333333000000000 
%ENDBLOCK POSITIONS_FRAC
