# Cell file generated by matador (Matthew Evans 2016)

%BLOCK LATTICE_CART
10.2596 0.0 0.0
0.0 10.2596 0.0
0.0 0.0 8.9757
%ENDBLOCK LATTICE_CART

%BLOCK POSITIONS_FRAC
P           0.000000000000000    0.000000000000000    0.500000000000000 
P           0.164016000000000    0.664016000000000    0.500000000000000 
P           0.335984000000000    0.164016000000000    0.500000000000000 
P           0.500000000000000    0.500000000000000    0.500000000000000 
P           0.664016000000000    0.835984000000000    0.500000000000000 
P           0.835984000000000    0.335984000000000    0.500000000000000 
K           0.000000000000000    0.500000000000000    0.500000000000000 
K           0.000212000000000    0.792410000000000    0.500000000000000 
K           0.095603000000000    0.803089000000000    0.000000000000000 
K           0.196911000000000    0.095603000000000    0.000000000000000 
K           0.207590000000000    0.000212000000000    0.500000000000000 
K           0.292410000000000    0.500212000000000    0.500000000000000 
K           0.303089000000000    0.595603000000000    0.000000000000000 
K           0.404397000000000    0.303089000000000    0.000000000000000 
K           0.499788000000000    0.292410000000000    0.500000000000000 
K           0.500000000000000    0.000000000000000    0.500000000000000 
K           0.500212000000000    0.707590000000000    0.500000000000000 
K           0.595603000000000    0.696911000000000    0.000000000000000 
K           0.696911000000000    0.404397000000000    0.000000000000000 
K           0.707590000000000    0.499788000000000    0.500000000000000 
K           0.792410000000000    0.999788000000000    0.500000000000000 
K           0.803089000000000    0.904397000000000    0.000000000000000 
K           0.904397000000000    0.196911000000000    0.000000000000000 
K           0.999788000000000    0.207590000000000    0.500000000000000 
%ENDBLOCK POSITIONS_FRAC
