# Cell file generated by matador (Matthew Evans 2016)

%BLOCK LATTICE_CART
3.72897 0.0 0.0
0.0 10.144 0.0
2.20151 0.0 4.29035
%ENDBLOCK LATTICE_CART

%BLOCK POSITIONS_FRAC
P           0.727697000000000    0.364937000000000    0.279965000000000 
P           0.727697000000000    0.635063000000000    0.279965000000000 
P           0.764614000000000    0.370670000000000    0.833478000000000 
P           0.764614000000000    0.629330000000000    0.833478000000000 
P           0.830915000000000    0.244617000000000    0.879143000000000 
P           0.830915000000000    0.755383000000000    0.879143000000000 
K           0.233680000000000    0.500000000000000    0.252834000000000 
%ENDBLOCK POSITIONS_FRAC
