# Cell file generated by matador (Matthew Evans 2016)

%BLOCK LATTICE_CART
7.34949 0.0 0.0
0.0 6.81585 0.0
0.0 0.0 8.78743
%ENDBLOCK LATTICE_CART

%BLOCK POSITIONS_FRAC
P           0.000000000000000   -0.000000000000000    0.421258000000000 
P           0.000000000000000    0.500000000000000    0.921258000000000 
P           0.500000000000000   -0.000000000000000    0.773187000000000 
P           0.500000000000000   -0.000000000000000    0.941764000000000 
P           0.500000000000000    0.500000000000000    0.273187000000000 
P           0.500000000000000    0.500000000000000    0.441764000000000 
K           0.319325000000000   -0.000000000000000    0.271488000000000 
K           0.319325000000000    0.500000000000000    0.771488000000000 
K           0.500000000000000   -0.000000000000000    0.489878000000000 
K           0.500000000000000    0.500000000000000    0.989878000000000 
K           0.680675000000000   -0.000000000000000    0.271488000000000 
K           0.680675000000000    0.500000000000000    0.771488000000000 
%ENDBLOCK POSITIONS_FRAC
