# Cell file generated by matador (Matthew Evans 2016)

%BLOCK LATTICE_CART
10.8955 0.0 0.0
-5.44777 9.43582 0.0
0.0 0.0 8.25018
%ENDBLOCK LATTICE_CART

%BLOCK POSITIONS_FRAC
P           0.155544000000000    0.577773000000000    0.313097000000000 
P           0.422229000000000    0.577773000000000    0.313097000000000 
P           0.422229000000000    0.844458000000000    0.313097000000000 
P           0.577773000000000    0.155544000000000    0.813097000000000 
P           0.577773000000000    0.422229000000000    0.813097000000000 
P           0.844458000000000    0.422229000000000    0.813097000000000 
K           0.060498000000000    0.530250000000000    0.987026000000000 
K           0.139162000000000    0.278324000000000    0.079326000000000 
K           0.139162000000000    0.860840000000000    0.079326000000000 
K           0.188901000000000    0.377801000000000    0.536301000000000 
K           0.188901000000000    0.811101000000000    0.536301000000000 
K           0.278324000000000    0.139162000000000    0.579326000000000 
K           0.377801000000000    0.188901000000000    0.036301000000000 
K           0.469752000000000    0.530250000000000    0.987026000000000 
K           0.469752000000000    0.939504000000000    0.987026000000000 
K           0.530250000000000    0.060498000000000    0.487026000000000 
K           0.530250000000000    0.469752000000000    0.487026000000000 
K           0.622201000000000    0.811101000000000    0.536301000000000 
K           0.721678000000000    0.860840000000000    0.079326000000000 
K           0.811101000000000    0.188901000000000    0.036301000000000 
K           0.811101000000000    0.622201000000000    0.036301000000000 
K           0.860840000000000    0.139162000000000    0.579326000000000 
K           0.860840000000000    0.721678000000000    0.579326000000000 
K           0.939504000000000    0.469752000000000    0.487026000000000 
%ENDBLOCK POSITIONS_FRAC
