# Cell file generated by matador (Matthew Evans 2016)

%BLOCK LATTICE_CART
9.00889 0.0 0.0
0.0 9.00889 0.0
0.0 0.0 7.65475
%ENDBLOCK LATTICE_CART

%BLOCK POSITIONS_FRAC
P           0.250000000000000    0.250000000000000    0.250000000000000 
P           0.250000000000000    0.750000000000000    0.750000000000000 
P           0.750000000000000    0.250000000000000    0.750000000000000 
P           0.750000000000000    0.750000000000000    0.250000000000000 
K           0.112117000000000    0.387883000000000    0.125591000000000 
K           0.112117000000000    0.612117000000000    0.625591000000000 
K           0.250000000000000    0.250000000000000    0.750000000000000 
K           0.250000000000000    0.750000000000000    0.250000000000000 
K           0.387883000000000    0.112117000000000    0.374409000000000 
K           0.387883000000000    0.887883000000000    0.874409000000000 
K           0.612117000000000    0.112117000000000    0.874409000000000 
K           0.612117000000000    0.887883000000000    0.374409000000000 
K           0.750000000000000    0.250000000000000    0.250000000000000 
K           0.750000000000000    0.750000000000000    0.750000000000000 
K           0.887883000000000    0.387883000000000    0.625591000000000 
K           0.887883000000000    0.612117000000000    0.125591000000000 
%ENDBLOCK POSITIONS_FRAC
