# Cell file generated by matador (Matthew Evans 2016)

%BLOCK LATTICE_CART
5.63881 0.0 0.0
-2.84144 9.36916 0.0
3.87613 -0.64754 8.29753
%ENDBLOCK LATTICE_CART

%BLOCK POSITIONS_FRAC
P           0.291062000000000    0.174451000000000    0.506045000000000 
P           0.311966000000000    0.428952000000000    0.335231000000000 
P           0.358122000000000    0.246770000000000    0.085861000000000 
P           0.500000000000000    0.500000000000000    0.000000000000000 
P           0.641878000000000    0.753230000000000    0.914139000000000 
P           0.688034000000000    0.571048000000000    0.664769000000000 
P           0.708938000000000    0.825549000000000    0.493955000000000 
K           0.000000000000000    0.000000000000000    0.000000000000000 
K           0.000000000000000    0.000000000000000    0.500000000000000 
K           0.000000000000000    0.500000000000000    0.000000000000000 
K           0.000000000000000    0.500000000000000    0.500000000000000 
K           0.500000000000000    0.000000000000000    0.500000000000000 
K           0.500000000000000    0.500000000000000    0.500000000000000 
%ENDBLOCK POSITIONS_FRAC
