# Cell file generated by matador (Matthew Evans 2016)

%BLOCK LATTICE_CART
7.12602 0.0 0.0
0.0 7.12602 0.0
0.0 0.0 7.4718
%ENDBLOCK LATTICE_CART

%BLOCK POSITIONS_FRAC
P           0.000000000000000    0.000000000000000    0.000000000000000 
P           0.000000000000000    0.500000000000000    0.000000000000000 
P           0.500000000000000    0.000000000000000    0.000000000000000 
P           0.500000000000000    0.500000000000000    0.000000000000000 
K           0.053586000000000    0.676447000000000    0.500000000000000 
K           0.177055000000000    0.738751000000000    0.000000000000000 
K           0.261249000000000    0.177055000000000    0.000000000000000 
K           0.323553000000000    0.053586000000000    0.500000000000000 
K           0.676447000000000    0.946414000000000    0.500000000000000 
K           0.738751000000000    0.822945000000000    0.000000000000000 
K           0.822945000000000    0.261249000000000    0.000000000000000 
K           0.946414000000000    0.323553000000000    0.500000000000000 
%ENDBLOCK POSITIONS_FRAC
