# Cell file generated by matador (Matthew Evans 2016)

%BLOCK LATTICE_CART
4.99897 0.0 0.0
-2.49949 4.32924 0.0
0.0 0.0 4.52827
%ENDBLOCK LATTICE_CART

%BLOCK POSITIONS_FRAC
P           0.000000000000000    0.000000000000000    0.500000000000000 
K           0.333333000000000    0.666667000000000    0.413143000000000 
K           0.666667000000000    0.333333000000000    0.586857000000000 
%ENDBLOCK POSITIONS_FRAC
