# Cell file generated by matador (Matthew Evans 2016)

%BLOCK LATTICE_CART
6.20644 0.0 0.0
0.0 5.91585 0.0
1.57374 0.0 5.47266
%ENDBLOCK LATTICE_CART

%BLOCK POSITIONS_FRAC
P           0.241506000000000    0.000000000000000    0.169379000000000 
P           0.265407000000000    0.184395000000000    0.363779000000000 
P           0.265407000000000    0.815605000000000    0.363779000000000 
P           0.285851000000000    0.000000000000000    0.589514000000000 
P           0.741305000000000    0.000000000000000    0.221860000000000 
P           0.774272000000000    0.500000000000000    0.517551000000000 
P           0.778331000000000    0.500000000000000    0.990500000000000 
K           0.829809000000000    0.000000000000000    0.830791000000000 
%ENDBLOCK POSITIONS_FRAC
