# Cell file generated by matador (Matthew Evans 2016)

%BLOCK LATTICE_CART
9.61608 0.0 0.0
0.0 9.61608 0.0
0.0 0.0 7.00795
%ENDBLOCK LATTICE_CART

%BLOCK POSITIONS_FRAC
P           0.000000000000000    0.000000000000000    0.500000000000000 
P           0.000000000000000    0.500000000000000    0.250000000000000 
P           0.500000000000000    0.000000000000000    0.750000000000000 
P           0.500000000000000    0.500000000000000    0.000000000000000 
K           0.000000000000000    0.000000000000000    0.000000000000000 
K           0.000000000000000    0.301722000000000    0.109578000000000 
K           0.000000000000000    0.500000000000000    0.750000000000000 
K           0.000000000000000    0.698278000000000    0.109578000000000 
K           0.198278000000000    0.500000000000000    0.390422000000000 
K           0.301722000000000    0.000000000000000    0.890422000000000 
K           0.500000000000000    0.000000000000000    0.250000000000000 
K           0.500000000000000    0.198278000000000    0.609578000000000 
K           0.500000000000000    0.500000000000000    0.500000000000000 
K           0.500000000000000    0.801722000000000    0.609578000000000 
K           0.698278000000000    0.000000000000000    0.890422000000000 
K           0.801722000000000    0.500000000000000    0.390422000000000 
%ENDBLOCK POSITIONS_FRAC
