# Cell file generated by matador (Matthew Evans 2016)

%BLOCK LATTICE_CART
7.89437 0.0 0.0
-3.94719 6.83673 0.0
0.0 0.0 6.38889
%ENDBLOCK LATTICE_CART

%BLOCK POSITIONS_FRAC
P          -0.000000000000000    0.000000000000000    0.696257000000000 
P           0.333333000000000    0.666667000000000    0.333218000000000 
P           0.423406000000000    0.135104000000000    0.173062000000000 
P           0.666666000000000    0.333334000000000    0.131147000000000 
P           0.666666000000000    0.333334000000000    0.361253000000000 
P           0.666666000000000    0.333334000000000    0.557434000000000 
P           0.711698000000000    0.576594000000000    0.173062000000000 
P           0.864896000000000    0.288302000000000    0.173062000000000 
K           0.155137000000000    0.459479000000000    0.551825000000000 
K           0.304341000000000    0.844863000000000    0.551825000000000 
K           0.333333000000000    0.666667000000000    0.833653000000000 
K           0.540521000000000    0.695659000000000    0.551825000000000 
%ENDBLOCK POSITIONS_FRAC
