# Cell file generated by matador (Matthew Evans 2016)

%BLOCK LATTICE_CART
4.98453 0.0 0.0
-2.49227 4.31673 0.0
0.0 0.0 6.17469
%ENDBLOCK LATTICE_CART

%BLOCK POSITIONS_FRAC
P           0.000000000000000    0.000000000000000    0.692107000000000 
P           0.000000000000000    0.500000000000000    0.128500000000000 
P           0.333333000000000    0.666667000000000    0.147620000000000 
P           0.500000000000000    0.000000000000000    0.128500000000000 
P           0.500000000000000    0.500000000000000    0.128500000000000 
P           0.666667000000000    0.333333000000000    0.147620000000000 
K           0.000000000000000    0.000000000000000    0.237445000000000 
%ENDBLOCK POSITIONS_FRAC
