# Cell file generated by matador (Matthew Evans 2016)

%BLOCK LATTICE_CART
8.20798 0.0 0.0
0.0 8.20798 0.0
0.0 0.0 8.14689
%ENDBLOCK LATTICE_CART

%BLOCK POSITIONS_FRAC
P           0.000000000000000    0.000000000000000    0.352425000000000 
P           0.000000000000000    0.000000000000000    0.647575000000000 
P           0.000000000000000    0.500000000000000    0.504507000000000 
P           0.000000000000000    0.500000000000000    0.995493000000000 
P           0.500000000000000    0.000000000000000    0.004507000000000 
P           0.500000000000000    0.000000000000000    0.495493000000000 
P           0.500000000000000    0.500000000000000    0.147575000000000 
P           0.500000000000000    0.500000000000000    0.852425000000000 
K           0.000000000000000    0.500000000000000    0.750000000000000 
K           0.223902000000000    0.223902000000000    0.000000000000000 
K           0.223902000000000    0.776098000000000    0.000000000000000 
K           0.276098000000000    0.276098000000000    0.500000000000000 
K           0.276098000000000    0.723902000000000    0.500000000000000 
K           0.500000000000000    0.000000000000000    0.250000000000000 
K           0.723902000000000    0.276098000000000    0.500000000000000 
K           0.723902000000000    0.723902000000000    0.500000000000000 
K           0.776098000000000    0.223902000000000    0.000000000000000 
K           0.776098000000000    0.776098000000000    0.000000000000000 
%ENDBLOCK POSITIONS_FRAC
