# Cell file generated by matador (Matthew Evans 2016)

%BLOCK LATTICE_CART
9.01827 0.0 0.0
-4.50913 7.81005 0.0
0.0 0.0 5.67439
%ENDBLOCK LATTICE_CART

%BLOCK POSITIONS_FRAC
P           0.000000000000000    0.000000000000000    0.147540000000000 
P           0.000000000000000    0.000000000000000    0.852460000000000 
P           0.333333000000000    0.666667000000000    0.000000000000000 
P           0.666667000000000    0.333333000000000    0.000000000000000 
K           0.000000000000000    0.000000000000000    0.500000000000000 
K           0.000000000000000    0.477849000000000    0.500000000000000 
K           0.333333000000000    0.666667000000000    0.500000000000000 
K           0.477849000000000    0.000000000000000    0.500000000000000 
K           0.522151000000000    0.522151000000000    0.500000000000000 
K           0.666667000000000    0.333333000000000    0.500000000000000 
%ENDBLOCK POSITIONS_FRAC
