# Cell file generated by matador (Matthew Evans 2016)

%BLOCK LATTICE_CART
8.60201 0.0 0.0
0.0 6.63202 0.0
0.0 0.0 6.24291
%ENDBLOCK LATTICE_CART

%BLOCK POSITIONS_FRAC
P           0.000000000000000    0.500000000000000    0.193388000000000 
P           0.159247000000000    0.199996000000000    0.827796000000000 
P           0.159247000000000    0.800004000000000    0.827796000000000 
P           0.500000000000000    0.000000000000000    0.569151000000000 
P           0.500000000000000    0.500000000000000    0.334385000000000 
P           0.840753000000000    0.199996000000000    0.827796000000000 
P           0.840753000000000    0.800004000000000    0.827796000000000 
K           0.216179000000000    0.308493000000000    0.143312000000000 
K           0.216179000000000    0.691507000000000    0.143312000000000 
K           0.381396000000000    0.500000000000000    0.843696000000000 
K           0.618604000000000    0.500000000000000    0.843696000000000 
K           0.783821000000000    0.308493000000000    0.143312000000000 
K           0.783821000000000    0.691507000000000    0.143312000000000 
%ENDBLOCK POSITIONS_FRAC
