# Cell file generated by matador (Matthew Evans 2016)

%BLOCK LATTICE_CART
5.09971 0.0 0.0
0.0 5.09971 0.0
0.0 0.0 11.1829
%ENDBLOCK LATTICE_CART

%BLOCK POSITIONS_FRAC
P           0.000000000000000    0.000000000000000    0.000000000000000 
P           0.000000000000000    0.000000000000000    0.500000000000000 
P           0.117035000000000    0.521915000000000    0.500000000000000 
P           0.478085000000000    0.117035000000000    0.500000000000000 
P           0.500000000000000    0.500000000000000    0.000000000000000 
P           0.500000000000000    0.500000000000000    0.250319000000000 
P           0.500000000000000    0.500000000000000    0.500000000000000 
P           0.500000000000000    0.500000000000000    0.749681000000000 
P           0.521915000000000    0.882965000000000    0.500000000000000 
P           0.882965000000000    0.478085000000000    0.500000000000000 
K           0.000000000000000    0.500000000000000    0.000000000000000 
K           0.500000000000000    0.000000000000000    0.000000000000000 
%ENDBLOCK POSITIONS_FRAC
