# Cell file generated by matador (Matthew Evans 2016)

%BLOCK LATTICE_CART
8.28058 0.0 0.0
-4.14029 7.17119 0.0
0.0 0.0 11.3314
%ENDBLOCK LATTICE_CART

%BLOCK POSITIONS_FRAC
P           0.000000000000000    0.000000000000000    0.035717000000000 
P           0.000000000000000    0.000000000000000    0.535717000000000 
P           0.333333000000000    0.666667000000000    0.376388000000000 
P           0.666667000000000    0.333333000000000    0.876388000000000 
K           0.166307000000000    0.332613000000000    0.121778000000000 
K           0.166307000000000    0.833693000000000    0.121778000000000 
K           0.194637000000000    0.389274000000000    0.447660000000000 
K           0.194637000000000    0.805363000000000    0.447660000000000 
K           0.332613000000000    0.166307000000000    0.621778000000000 
K           0.389274000000000    0.194637000000000    0.947660000000000 
K           0.610726000000000    0.805363000000000    0.447660000000000 
K           0.667387000000000    0.833693000000000    0.121778000000000 
K           0.805363000000000    0.194637000000000    0.947660000000000 
K           0.805363000000000    0.610726000000000    0.947660000000000 
K           0.833693000000000    0.166307000000000    0.621778000000000 
K           0.833693000000000    0.667387000000000    0.621778000000000 
%ENDBLOCK POSITIONS_FRAC
