# Cell file generated by matador (Matthew Evans 2016)

%BLOCK LATTICE_CART
4.78857 0.0 0.0
0.0 6.69711 0.0
3.84327 0.0 8.00857
%ENDBLOCK LATTICE_CART

%BLOCK POSITIONS_FRAC
P           0.167072000000000    0.000000000000000    0.557018000000000 
P           0.183837000000000    0.000000000000000    0.959114000000000 
P           0.325586000000000    0.500000000000000    0.649429000000000 
P           0.337350000000000    0.500000000000000    0.071033000000000 
P           0.958398000000000    0.500000000000000    0.730025000000000 
K           0.236411000000000    0.232381000000000    0.239425000000000 
K           0.236411000000000    0.767619000000000    0.239425000000000 
K           0.488875000000000    0.500000000000000    0.368406000000000 
K           0.653658000000000    0.000000000000000    0.982850000000000 
K           0.812918000000000    0.000000000000000    0.188885000000000 
K           0.950918000000000    0.500000000000000    0.013549000000000 
%ENDBLOCK POSITIONS_FRAC
