# Cell file generated by matador (Matthew Evans 2016)

%BLOCK LATTICE_CART
7.05024 0.0 0.0
0.0 6.53738 0.0
3.20864 0.0 5.81453
%ENDBLOCK LATTICE_CART

%BLOCK POSITIONS_FRAC
P           0.485655000000000    0.500000000000000    0.518790000000000 
P           0.598758000000000    0.000000000000000    0.012064000000000 
P           0.701192000000000    0.500000000000000    0.747931000000000 
P           0.796377000000000    0.500000000000000    0.844267000000000 
P           0.838932000000000    0.500000000000000    0.019630000000000 
K           0.151876000000000    0.313746000000000    0.392407000000000 
K           0.151876000000000    0.686254000000000    0.392407000000000 
K           0.240623000000000    0.000000000000000    0.868369000000000 
K           0.696766000000000    0.000000000000000    0.501839000000000 
K           0.842314000000000    0.500000000000000    0.361903000000000 
K           0.926019000000000    0.000000000000000    0.932386000000000 
%ENDBLOCK POSITIONS_FRAC
