# Cell file generated by matador (Matthew Evans 2016)

%BLOCK LATTICE_CART
6.57766 0.0 0.0
-3.28883 5.69642 0.0
0.0 0.0 10.0696
%ENDBLOCK LATTICE_CART

%BLOCK POSITIONS_FRAC
P           0.000000000000000    0.000000000000000    0.105995000000000 
P           0.078416000000000    0.762220000000000    0.219867000000000 
P           0.237780000000000    0.316196000000000    0.219867000000000 
P           0.683804000000000    0.921584000000000    0.219867000000000 
K           0.148866000000000    0.744714000000000    0.716905000000000 
K           0.255286000000000    0.404153000000000    0.716905000000000 
K           0.333333000000000    0.666667000000000    0.057356000000000 
K           0.595847000000000    0.851134000000000    0.716905000000000 
K           0.666667000000000    0.333333000000000    0.517959000000000 
K           0.666667000000000    0.333333000000000    0.762933000000000 
%ENDBLOCK POSITIONS_FRAC
