# Cell file generated by matador (Matthew Evans 2016)

%BLOCK LATTICE_CART
7.50915 0.0 0.0
-3.75457 6.50311 0.0
0.0 0.0 4.88667
%ENDBLOCK LATTICE_CART

%BLOCK POSITIONS_FRAC
P           0.000000000000000    0.000000000000000    0.398314000000000 
P           0.000000000000000    0.000000000000000    0.601686000000000 
P           0.333333000000000    0.666667000000000    0.064981000000000 
P           0.333333000000000    0.666667000000000    0.268353000000000 
P           0.666667000000000    0.333333000000000    0.731647000000000 
P           0.666667000000000    0.333333000000000    0.935019000000000 
K           0.000000000000000    0.000000000000000    0.000000000000000 
K           0.333333000000000    0.666667000000000    0.666667000000000 
K           0.666667000000000    0.333333000000000    0.333333000000000 
%ENDBLOCK POSITIONS_FRAC
