# Cell file generated by matador (Matthew Evans 2016)

%BLOCK LATTICE_CART
13.1357 0.0 0.0
-0.531094 9.62351 0.0
1.58498 0.337995 3.69013
%ENDBLOCK LATTICE_CART

%BLOCK POSITIONS_FRAC
P           0.185325000000000    0.426514000000000    0.239860000000000 
P           0.394175000000000    0.807285000000000    0.806479000000000 
P           0.473410000000000    0.191078000000000    0.345116000000000 
P           0.526590000000000    0.808922000000000    0.654884000000000 
P           0.605825000000000    0.192715000000000    0.193521000000000 
P           0.814675000000000    0.573486000000000    0.760140000000000 
K           0.000000000000000    0.000000000000000    0.000000000000000 
K           0.000000000000000    0.000000000000000    0.500000000000000 
K           0.000000000000000    0.500000000000000    0.000000000000000 
K           0.000000000000000    0.500000000000000    0.500000000000000 
K           0.058983000000000    0.723829000000000    0.611862000000000 
K           0.500000000000000    0.000000000000000    0.000000000000000 
K           0.500000000000000    0.000000000000000    0.500000000000000 
K           0.500000000000000    0.500000000000000    0.000000000000000 
K           0.500000000000000    0.500000000000000    0.500000000000000 
K           0.941017000000000    0.276171000000000    0.388138000000000 
%ENDBLOCK POSITIONS_FRAC
