# Cell file generated by matador (Matthew Evans 2016)

%BLOCK LATTICE_CART
5.11337 0.0 0.0
0.0 7.39318 0.0
0.0 0.0 7.53309
%ENDBLOCK LATTICE_CART

%BLOCK POSITIONS_FRAC
P           0.250000000000000    0.250000000000000    0.000000000000000 
P           0.250000000000000    0.250000000000000    0.132747000000000 
P           0.250000000000000    0.250000000000000    0.867253000000000 
P           0.250000000000000    0.750000000000000    0.500000000000000 
P           0.750000000000000    0.250000000000000    0.500000000000000 
P           0.750000000000000    0.750000000000000    0.000000000000000 
P           0.750000000000000    0.750000000000000    0.132747000000000 
P           0.750000000000000    0.750000000000000    0.867253000000000 
K           0.250000000000000    0.250000000000000    0.500000000000000 
K           0.750000000000000    0.750000000000000    0.500000000000000 
%ENDBLOCK POSITIONS_FRAC
