# Cell file generated by matador (Matthew Evans 2016)

%BLOCK LATTICE_CART
8.46776 0.0 0.0
-4.23388 7.33329 0.0
0.0 0.0 6.0022
%ENDBLOCK LATTICE_CART

%BLOCK POSITIONS_FRAC
P           0.000000000000000    0.500000000000000    0.114005000000000 
P           0.000000000000000    0.500000000000000    0.885995000000000 
P           0.132516000000000    0.662298000000000    0.000000000000000 
P           0.337702000000000    0.470219000000000    0.000000000000000 
P           0.470219000000000    0.132516000000000    0.000000000000000 
P           0.500000000000000    0.000000000000000    0.114005000000000 
P           0.500000000000000    0.000000000000000    0.885995000000000 
P           0.500000000000000    0.500000000000000    0.114005000000000 
P           0.500000000000000    0.500000000000000    0.885995000000000 
P           0.529781000000000    0.867484000000000    0.000000000000000 
P           0.662298000000000    0.529781000000000    0.000000000000000 
P           0.867484000000000    0.337702000000000    0.000000000000000 
K           0.000000000000000    0.000000000000000    0.000000000000000 
K           0.000000000000000    0.000000000000000    0.500000000000000 
%ENDBLOCK POSITIONS_FRAC
