# Cell file generated by matador (Matthew Evans 2016)

%BLOCK LATTICE_CART
7.81526 0.0 0.0
0.0 10.3877 0.0
0.75185 0.0 3.05581
%ENDBLOCK LATTICE_CART

%BLOCK POSITIONS_FRAC
P           0.000000000000000    0.332434000000000    0.500000000000000 
P           0.395409000000000    0.931902000000000    0.358933000000000 
P           0.500000000000000    0.324067000000000    0.000000000000000 
P           0.500000000000000    0.491421000000000    0.000000000000000 
P           0.604591000000000    0.931902000000000    0.641067000000000 
K           0.000000000000000    0.100165000000000    0.000000000000000 
K           0.500000000000000    0.116225000000000    0.500000000000000 
K           0.500000000000000    0.625267000000000    0.500000000000000 
K           0.500000000000000    0.747910000000000    0.000000000000000 
%ENDBLOCK POSITIONS_FRAC
