# Cell file generated by matador (Matthew Evans 2016)

%BLOCK LATTICE_CART
5.74605 0.0 0.0
-2.87303 4.97623 0.0
0.0 0.0 7.5633
%ENDBLOCK LATTICE_CART

%BLOCK POSITIONS_FRAC
P           0.000000000000000    0.000000000000000    0.318847000000000 
P           0.000000000000000    0.000000000000000    0.983361000000000 
P           0.333333000000000    0.666667000000000    0.740182000000000 
P           0.666667000000000    0.333333000000000    0.477096000000000 
P           0.666667000000000    0.333333000000000    0.962111000000000 
K           0.358071000000000    0.063701000000000    0.680344000000000 
K           0.705630000000000    0.641929000000000    0.680344000000000 
K           0.936299000000000    0.294370000000000    0.680344000000000 
%ENDBLOCK POSITIONS_FRAC
