# Cell file generated by matador (Matthew Evans 2016)

%BLOCK LATTICE_CART
7.6473 0.0 0.0
0.0 7.6473 0.0
0.0 0.0 5.4842
%ENDBLOCK LATTICE_CART

%BLOCK POSITIONS_FRAC
P           0.062522000000000    0.368736000000000    0.000000000000000 
P           0.174389000000000    0.690293000000000    0.000000000000000 
P           0.309707000000000    0.174389000000000    0.000000000000000 
P           0.368736000000000    0.937478000000000    0.000000000000000 
P           0.500000000000000    0.500000000000000    0.000000000000000 
P           0.631264000000000    0.062522000000000    0.000000000000000 
P           0.690293000000000    0.825611000000000    0.000000000000000 
P           0.825611000000000    0.309707000000000    0.000000000000000 
P           0.937478000000000    0.631264000000000    0.000000000000000 
K           0.000000000000000    0.000000000000000    0.000000000000000 
K           0.000000000000000    0.000000000000000    0.500000000000000 
K           0.500000000000000    0.500000000000000    0.500000000000000 
%ENDBLOCK POSITIONS_FRAC
