# Cell file generated by matador (Matthew Evans 2016)

%BLOCK LATTICE_CART
4.43913 0.0 0.0
-2.21956 3.8444 0.0
0.0 0.0 8.9859
%ENDBLOCK LATTICE_CART

%BLOCK POSITIONS_FRAC
P           0.666667000000000    0.333333000000000    0.352000000000000 
P           0.666667000000000    0.333333000000000    0.926390000000000 
K           0.000000000000000   -0.000000000000000    0.903857000000000 
K           0.333334000000000    0.666666000000000    0.603329000000000 
K           0.666667000000000    0.333333000000000    0.656754000000000 
%ENDBLOCK POSITIONS_FRAC
