# Cell file generated by matador (Matthew Evans 2016)

%BLOCK LATTICE_CART
5.70029 -0.0 0.0
-2.85014 4.93659 0.0
0.0 0.0 11.0577
%ENDBLOCK LATTICE_CART

%BLOCK POSITIONS_FRAC
P          -0.000000000000000    0.000000000000000    0.590449000000000 
P           0.333333000000000    0.666667000000000    0.449578000000000 
P           0.549125000000000    0.321856000000000    0.441205000000000 
P           0.666666000000000    0.333334000000000    0.977713000000000 
P           0.678144000000000    0.227269000000000    0.441205000000000 
P           0.772731000000000    0.450875000000000    0.441205000000000 
K           0.333333000000000    0.666667000000000    0.032652000000000 
K           0.486760000000000    0.468583000000000    0.606976000000000 
K           0.531417000000000    0.018178000000000    0.606976000000000 
K           0.666666000000000    0.333334000000000    0.243236000000000 
K           0.981822000000000    0.513240000000000    0.606976000000000 
%ENDBLOCK POSITIONS_FRAC
