# Cell file generated by matador (Matthew Evans 2016)

%BLOCK LATTICE_CART
4.75045 0.0 0.0
0.0 4.75045 0.0
0.0 0.0 8.57055
%ENDBLOCK LATTICE_CART

%BLOCK POSITIONS_FRAC
P           0.000000000000000    0.000000000000000    0.811936000000000 
P           0.000000000000000    0.500000000000000    0.416455000000000 
P           0.000000000000000    0.500000000000000    0.916455000000000 
P           0.500000000000000    0.000000000000000    0.416455000000000 
P           0.500000000000000    0.000000000000000    0.916455000000000 
P           0.500000000000000    0.500000000000000    0.311936000000000 
K           0.000000000000000    0.000000000000000    0.274930000000000 
K           0.500000000000000    0.500000000000000    0.774930000000000 
%ENDBLOCK POSITIONS_FRAC
