# Cell file generated by matador (Matthew Evans 2016)

%BLOCK LATTICE_CART
8.49575 0.0 0.0
0.0 8.49575 0.0
0.0 0.0 8.49575
%ENDBLOCK LATTICE_CART

%BLOCK POSITIONS_FRAC
P           0.000000000000000    0.000000000000000    0.500000000000000 
P           0.000000000000000    0.500000000000000    0.000000000000000 
P           0.000000000000000    0.500000000000000    0.500000000000000 
P           0.142385000000000    0.142385000000000    0.142385000000000 
P           0.142385000000000    0.857615000000000    0.857615000000000 
P           0.357615000000000    0.357615000000000    0.357615000000000 
P           0.357615000000000    0.642385000000000    0.642385000000000 
P           0.500000000000000    0.000000000000000    0.000000000000000 
P           0.500000000000000    0.000000000000000    0.500000000000000 
P           0.500000000000000    0.500000000000000    0.000000000000000 
P           0.642385000000000    0.357615000000000    0.642385000000000 
P           0.642385000000000    0.642385000000000    0.357615000000000 
P           0.857615000000000    0.142385000000000    0.857615000000000 
P           0.857615000000000    0.857615000000000    0.142385000000000 
K           0.000000000000000    0.000000000000000    0.000000000000000 
K           0.250000000000000    0.250000000000000    0.750000000000000 
K           0.250000000000000    0.750000000000000    0.250000000000000 
K           0.500000000000000    0.500000000000000    0.500000000000000 
K           0.750000000000000    0.250000000000000    0.250000000000000 
K           0.750000000000000    0.750000000000000    0.750000000000000 
%ENDBLOCK POSITIONS_FRAC
