# Cell file generated by matador (Matthew Evans 2016)

%BLOCK LATTICE_CART
7.93099 0.0 0.0
-3.9655 6.86844 0.0
0.0 0.0 4.54061
%ENDBLOCK LATTICE_CART

%BLOCK POSITIONS_FRAC
P           0.181982000000000    0.636196000000000    0.171984000000000 
P           0.363804000000000    0.545785000000000    0.171984000000000 
P           0.415072000000000    0.292677000000000    0.454129000000000 
P           0.454215000000000    0.818018000000000    0.171984000000000 
P           0.666667000000000    0.333333000000000    0.970309000000000 
P           0.707323000000000    0.122395000000000    0.454129000000000 
P           0.877605000000000    0.584928000000000    0.454129000000000 
K           0.000000000000000    0.000000000000000    0.475207000000000 
K           0.333333000000000    0.666667000000000    0.776619000000000 
%ENDBLOCK POSITIONS_FRAC
