# Cell file generated by matador (Matthew Evans 2016)

%BLOCK LATTICE_CART
8.27304 0.0 0.0
-4.13652 7.16466 0.0
0.0 0.0 7.72864
%ENDBLOCK LATTICE_CART

%BLOCK POSITIONS_FRAC
P           0.000000000000000    0.000000000000000    0.000000000000000 
P           0.000000000000000    0.500000000000000    0.000000000000000 
P           0.333333000000000    0.666667000000000    0.898086000000000 
P           0.500000000000000    0.000000000000000    0.000000000000000 
P           0.500000000000000    0.500000000000000    0.000000000000000 
P           0.666667000000000    0.333333000000000    0.101914000000000 
K           0.000000000000000    0.000000000000000    0.500000000000000 
K           0.124298000000000    0.712234000000000    0.219630000000000 
K           0.287766000000000    0.412064000000000    0.219630000000000 
K           0.412064000000000    0.124298000000000    0.780370000000000 
K           0.587936000000000    0.875702000000000    0.219630000000000 
K           0.712234000000000    0.587936000000000    0.780370000000000 
K           0.875702000000000    0.287766000000000    0.780370000000000 
%ENDBLOCK POSITIONS_FRAC
