# Cell file generated by matador (Matthew Evans 2016)

%BLOCK LATTICE_CART
6.78324 0.0 0.0
-3.39162 5.87446 0.0
0.0 0.0 8.28316
%ENDBLOCK LATTICE_CART

%BLOCK POSITIONS_FRAC
P           0.000000000000000    0.359646000000000    0.296832000000000 
P           0.000000000000000    0.640354000000000    0.796832000000000 
P           0.333333000000000    0.666667000000000    0.408561000000000 
P           0.333333000000000    0.666667000000000    0.908561000000000 
P           0.359646000000000    0.000000000000000    0.296832000000000 
P           0.359646000000000    0.359646000000000    0.796832000000000 
P           0.640354000000000    0.000000000000000    0.796832000000000 
P           0.640354000000000    0.640354000000000    0.296832000000000 
P           0.666667000000000    0.333333000000000    0.408561000000000 
P           0.666667000000000    0.333333000000000    0.908561000000000 
K           0.000000000000000    0.000000000000000    0.353839000000000 
K           0.000000000000000    0.000000000000000    0.853839000000000 
%ENDBLOCK POSITIONS_FRAC
