# Cell file generated by matador (Matthew Evans 2016)

%BLOCK LATTICE_CART
6.65554 0.0 0.0
-3.32777 5.76386 0.0
0.0 0.0 11.2876
%ENDBLOCK LATTICE_CART

%BLOCK POSITIONS_FRAC
P           0.000000000000000    0.500000000000000    0.023020000000000 
P           0.000000000000000    0.500000000000000    0.523020000000000 
P           0.333333000000000    0.666667000000000    0.053529000000000 
P           0.333333000000000    0.666667000000000    0.303597000000000 
P           0.333333000000000    0.666667000000000    0.553529000000000 
P           0.333333000000000    0.666667000000000    0.803597000000000 
P           0.500000000000000    0.000000000000000    0.023020000000000 
P           0.500000000000000    0.000000000000000    0.523020000000000 
P           0.500000000000000    0.500000000000000    0.023020000000000 
P           0.500000000000000    0.500000000000000    0.523020000000000 
P           0.666667000000000    0.333333000000000    0.053529000000000 
P           0.666667000000000    0.333333000000000    0.303597000000000 
P           0.666667000000000    0.333333000000000    0.553529000000000 
P           0.666667000000000    0.333333000000000    0.803597000000000 
K           0.000000000000000    0.000000000000000    0.479770000000000 
K           0.000000000000000    0.000000000000000    0.979770000000000 
%ENDBLOCK POSITIONS_FRAC
