# Cell file generated by matador (Matthew Evans 2016)

%BLOCK LATTICE_CART
9.63746 0.0 0.0
0.0 8.35866 0.0
0.0 0.0 8.19199
%ENDBLOCK LATTICE_CART

%BLOCK POSITIONS_FRAC
P           0.282094000000000    0.500000000000000    0.000000000000000 
P           0.717906000000000    0.500000000000000    0.500000000000000 
K           0.101137000000000    0.000000000000000    0.500000000000000 
K           0.123304000000000    0.500000000000000    0.500000000000000 
K           0.187497000000000    0.000000000000000    0.000000000000000 
K           0.440939000000000    0.381344000000000    0.632145000000000 
K           0.440939000000000    0.618656000000000    0.367855000000000 
K           0.500000000000000    0.016815000000000    0.750000000000000 
K           0.500000000000000    0.310965000000000    0.250000000000000 
K           0.500000000000000    0.689035000000000    0.750000000000000 
K           0.500000000000000    0.983186000000000    0.250000000000000 
K           0.559061000000000    0.381344000000000    0.867855000000000 
K           0.559061000000000    0.618656000000000    0.132145000000000 
K           0.812503000000000    0.000000000000000    0.500000000000000 
K           0.876696000000000    0.500000000000000    0.000000000000000 
K           0.898863000000000    0.000000000000000    0.000000000000000 
%ENDBLOCK POSITIONS_FRAC
