# Cell file generated by matador (Matthew Evans 2016)

%BLOCK LATTICE_CART
6.83756 0.0 0.0
0.0 10.1868 0.0
-1.00075 0.0 6.61871
%ENDBLOCK LATTICE_CART

%BLOCK POSITIONS_FRAC
P           0.000000000000000    0.300782000000000    0.500000000000000 
P           0.000000000000000    0.361800000000000    0.000000000000000 
P           0.000000000000000    0.638200000000000    0.000000000000000 
P           0.000000000000000    0.699218000000000    0.500000000000000 
P           0.298147000000000    0.500000000000000    0.678453000000000 
P           0.391460000000000    0.168438000000000    0.856709000000000 
P           0.391460000000000    0.831562000000000    0.856709000000000 
P           0.500000000000000    0.000000000000000    0.500000000000000 
P           0.500000000000000    0.161042000000000    0.500000000000000 
P           0.500000000000000    0.198099000000000    0.000000000000000 
P           0.500000000000000    0.801901000000000    0.000000000000000 
P           0.500000000000000    0.838958000000000    0.500000000000000 
P           0.608540000000000    0.168438000000000    0.143291000000000 
P           0.608540000000000    0.831562000000000    0.143291000000000 
P           0.701853000000000    0.500000000000000    0.321547000000000 
K           0.000000000000000    0.000000000000000    0.000000000000000 
K           0.000000000000000    0.500000000000000    0.500000000000000 
K           0.500000000000000    0.000000000000000    0.000000000000000 
K           0.500000000000000    0.500000000000000    0.000000000000000 
K           0.500000000000000    0.500000000000000    0.500000000000000 
%ENDBLOCK POSITIONS_FRAC
