# Cell file generated by matador (Matthew Evans 2016)

%BLOCK LATTICE_CART
9.826 0.0 0.0
-4.913 8.50956 0.0
0.0 0.0 6.96067
%ENDBLOCK LATTICE_CART

%BLOCK POSITIONS_FRAC
P           0.000000000000000    0.000000000000000   -0.000000000000000 
P           0.000000000000000    0.000000000000000    0.500000000000000 
P           0.333333000000000    0.666667000000000    0.250000000000000 
P           0.666667000000000    0.333333000000000    0.750000000000000 
K           0.000000000000000    0.500000000000000   -0.000000000000000 
K           0.000000000000000    0.500000000000000    0.500000000000000 
K           0.015466000000000    0.254808000000000    0.250000000000000 
K           0.239342000000000    0.984534000000000    0.250000000000000 
K           0.254808000000000    0.239342000000000    0.750000000000000 
K           0.500000000000000    0.000000000000000   -0.000000000000000 
K           0.500000000000000    0.000000000000000    0.500000000000000 
K           0.500000000000000    0.500000000000000   -0.000000000000000 
K           0.500000000000000    0.500000000000000    0.500000000000000 
K           0.745192000000000    0.760658000000000    0.250000000000000 
K           0.760658000000000    0.015466000000000    0.750000000000000 
K           0.984534000000000    0.745192000000000    0.750000000000000 
%ENDBLOCK POSITIONS_FRAC
