# Cell file generated by matador (Matthew Evans 2016)

%BLOCK LATTICE_CART
7.93794 0.0 0.0
-3.96897 6.87446 0.0
0.0 0.0 7.97671
%ENDBLOCK LATTICE_CART

%BLOCK POSITIONS_FRAC
P           0.000000000000000    0.000000000000000    0.675424000000000 
P           0.333333000000000    0.666667000000000    0.342090000000000 
P           0.666667000000000    0.333333000000000    0.008757000000000 
K           0.028239000000000    0.514120000000000    0.735633000000000 
K           0.152547000000000    0.305094000000000    0.068966000000000 
K           0.152547000000000    0.847453000000000    0.068966000000000 
K           0.361572000000000    0.180786000000000    0.402299000000000 
K           0.485880000000000    0.514120000000000    0.735633000000000 
K           0.485880000000000    0.971761000000000    0.735633000000000 
K           0.694906000000000    0.847453000000000    0.068966000000000 
K           0.819214000000000    0.180786000000000    0.402299000000000 
K           0.819214000000000    0.638428000000000    0.402299000000000 
%ENDBLOCK POSITIONS_FRAC
