# Cell file generated by matador (Matthew Evans 2016)

%BLOCK LATTICE_CART
6.48287 0.0 0.0
0.0 6.82492 0.0
3.26833 0.0 8.44085
%ENDBLOCK LATTICE_CART

%BLOCK POSITIONS_FRAC
P          -0.000000000000000    0.000000000000000    0.500000000000000 
P           0.365555000000000    0.228902000000000    0.765032000000000 
P           0.365555000000000    0.771098000000000    0.765032000000000 
P           0.634445000000000    0.228902000000000    0.234968000000000 
P           0.634445000000000    0.771098000000000    0.234968000000000 
K          -0.000000000000000    0.000000000000000    0.000000000000000 
K          -0.000000000000000    0.500000000000000    0.000000000000000 
K          -0.000000000000000    0.500000000000000    0.500000000000000 
K           0.500000000000000    0.000000000000000    0.000000000000000 
K           0.500000000000000    0.000000000000000    0.500000000000000 
K           0.500000000000000    0.500000000000000    0.000000000000000 
K           0.500000000000000    0.500000000000000    0.500000000000000 
%ENDBLOCK POSITIONS_FRAC
