# Cell file generated by matador (Matthew Evans 2016)

%BLOCK LATTICE_CART
6.37278 0.0 0.0
-3.18639 5.51899 0.0
0.0 0.0 9.42964
%ENDBLOCK LATTICE_CART

%BLOCK POSITIONS_FRAC
P           0.000000000000000   -0.000000000000000    0.466486000000000 
P           0.000000000000000   -0.000000000000000    0.768063000000000 
P           0.177129000000000    0.801893000000000    0.110950000000000 
P           0.198107000000000    0.375236000000000    0.110950000000000 
P           0.624764000000000    0.822871000000000    0.110950000000000 
P           0.666667000000000    0.333333000000000    0.747603000000000 
K           0.411585000000000    0.377220000000000    0.539106000000000 
K           0.622780000000000    0.034364000000000    0.539106000000000 
K           0.666667000000000    0.333333000000000    0.001142000000000 
K           0.666667000000000    0.333333000000000    0.417177000000000 
K           0.965636000000000    0.588415000000000    0.539106000000000 
%ENDBLOCK POSITIONS_FRAC
