# Cell file generated by matador (Matthew Evans 2016)

%BLOCK LATTICE_CART
9.20576 0.0 0.0
0.0 9.20576 0.0
0.0 0.0 7.68177
%ENDBLOCK LATTICE_CART

%BLOCK POSITIONS_FRAC
P           0.000000000000000    0.000000000000000   -0.000000000000000 
P           0.000000000000000    0.000000000000000    0.500000000000000 
P           0.000000000000000    0.500000000000000    0.238988000000000 
P           0.000000000000000    0.500000000000000    0.542392000000000 
P           0.000000000000000    0.500000000000000    0.896907000000000 
P           0.500000000000000    0.000000000000000    0.103093000000000 
P           0.500000000000000    0.000000000000000    0.457608000000000 
P           0.500000000000000    0.000000000000000    0.761012000000000 
P           0.500000000000000    0.500000000000000   -0.000000000000000 
P           0.500000000000000    0.500000000000000    0.500000000000000 
K           0.104580000000000    0.114184000000000    0.279663000000000 
K           0.114184000000000    0.895420000000000    0.720337000000000 
K           0.385816000000000    0.395420000000000    0.279663000000000 
K           0.395420000000000    0.614184000000000    0.720337000000000 
K           0.604580000000000    0.385816000000000    0.720337000000000 
K           0.614184000000000    0.604580000000000    0.279663000000000 
K           0.885816000000000    0.104580000000000    0.720337000000000 
K           0.895420000000000    0.885816000000000    0.279663000000000 
%ENDBLOCK POSITIONS_FRAC
