# Cell file generated by matador (Matthew Evans 2016)

%BLOCK LATTICE_CART
6.13995 0.0 0.0
-3.06998 5.31736 0.0
0.0 0.0 8.45256
%ENDBLOCK LATTICE_CART

%BLOCK POSITIONS_FRAC
P           0.000000000000000    0.000000000000000    0.183597000000000 
P           0.000000000000000    0.000000000000000    0.739554000000000 
P           0.333333000000000    0.666667000000000    0.410452000000000 
P           0.333333000000000    0.666667000000000    0.983821000000000 
K           0.524641000000000    0.086049000000000    0.569130000000000 
K           0.561408000000000    0.475359000000000    0.569130000000000 
K           0.666667000000000    0.333333000000000    0.127710000000000 
K           0.666667000000000    0.333333000000000    0.849034000000000 
K           0.913951000000000    0.438592000000000    0.569130000000000 
%ENDBLOCK POSITIONS_FRAC
