# Cell file generated by matador (Matthew Evans 2016)

%BLOCK LATTICE_CART
7.39086 0.0 0.0
0.0 7.39086 0.0
0.0 0.0 7.3811
%ENDBLOCK LATTICE_CART

%BLOCK POSITIONS_FRAC
P           0.000000000000000    0.500000000000000    0.487612000000000 
P           0.000000000000000    0.500000000000000    0.832025000000000 
P           0.013676000000000    0.902501000000000    0.652543000000000 
P           0.097499000000000    0.013676000000000    0.652543000000000 
P           0.500000000000000    0.000000000000000    0.487612000000000 
P           0.500000000000000    0.000000000000000    0.832025000000000 
P           0.902501000000000    0.986324000000000    0.652543000000000 
P           0.986324000000000    0.097499000000000    0.652543000000000 
K           0.000000000000000    0.500000000000000    0.221253000000000 
K           0.223520000000000    0.619620000000000    0.141181000000000 
K           0.380380000000000    0.223520000000000    0.141181000000000 
K           0.500000000000000    0.000000000000000    0.221253000000000 
K           0.619620000000000    0.776480000000000    0.141181000000000 
K           0.776480000000000    0.380380000000000    0.141181000000000 
%ENDBLOCK POSITIONS_FRAC
