# Cell file generated by matador (Matthew Evans 2016)

%BLOCK LATTICE_CART
9.66678 0.0 0.0
0.0 7.34226 0.0
-1.61382 0.0 6.76866
%ENDBLOCK LATTICE_CART

%BLOCK POSITIONS_FRAC
P           0.000000000000000    0.000000000000000    0.000000000000000 
P           0.000000000000000    0.000000000000000    0.500000000000000 
P           0.000000000000000    0.133815000000000    0.750000000000000 
P           0.000000000000000    0.866185000000000    0.250000000000000 
P           0.250000000000000    0.250000000000000    0.000000000000000 
P           0.250000000000000    0.250000000000000    0.500000000000000 
P           0.250000000000000    0.750000000000000    0.000000000000000 
P           0.250000000000000    0.750000000000000    0.500000000000000 
P           0.500000000000000    0.366185000000000    0.250000000000000 
P           0.500000000000000    0.500000000000000    0.000000000000000 
P           0.500000000000000    0.500000000000000    0.500000000000000 
P           0.500000000000000    0.633815000000000    0.750000000000000 
P           0.750000000000000    0.250000000000000    0.000000000000000 
P           0.750000000000000    0.250000000000000    0.500000000000000 
P           0.750000000000000    0.750000000000000    0.000000000000000 
P           0.750000000000000    0.750000000000000    0.500000000000000 
K           0.000000000000000    0.500000000000000    0.000000000000000 
K           0.000000000000000    0.500000000000000    0.500000000000000 
K           0.500000000000000    0.000000000000000    0.000000000000000 
K           0.500000000000000    0.000000000000000    0.500000000000000 
%ENDBLOCK POSITIONS_FRAC
