# Cell file generated by matador (Matthew Evans 2016)

%BLOCK LATTICE_CART
5.67794 0.0 0.0
0.0 5.67794 0.0
0.0 0.0 5.85966
%ENDBLOCK LATTICE_CART

%BLOCK POSITIONS_FRAC
P           0.164277000000000    0.506202000000000    0.896860000000000 
P           0.493798000000000    0.164277000000000    0.103140000000000 
P           0.506202000000000    0.835723000000000    0.103140000000000 
P           0.835723000000000    0.493798000000000    0.896860000000000 
K           0.000000000000000    0.000000000000000    0.000000000000000 
K           0.000000000000000    0.000000000000000    0.500000000000000 
K           0.500000000000000    0.500000000000000    0.000000000000000 
K           0.500000000000000    0.500000000000000    0.500000000000000 
%ENDBLOCK POSITIONS_FRAC
