# Cell file generated by matador (Matthew Evans 2016)

%BLOCK LATTICE_CART
8.07584 0.0 0.0
0.0 8.7311 0.0
0.0 0.0 9.09301
%ENDBLOCK LATTICE_CART

%BLOCK POSITIONS_FRAC
P           0.000000000000000    0.000000000000000    0.000000000000000 
P           0.000000000000000    0.000000000000000    0.500000000000000 
P           0.500000000000000    0.500000000000000    0.000000000000000 
P           0.500000000000000    0.500000000000000    0.500000000000000 
K           0.000000000000000    0.500000000000000    0.000000000000000 
K           0.000000000000000    0.500000000000000    0.500000000000000 
K           0.231298000000000    0.427086000000000    0.750000000000000 
K           0.231298000000000    0.572914000000000    0.250000000000000 
K           0.268702000000000    0.072914000000000    0.250000000000000 
K           0.268702000000000    0.927086000000000    0.750000000000000 
K           0.500000000000000    0.000000000000000    0.000000000000000 
K           0.500000000000000    0.000000000000000    0.500000000000000 
K           0.731298000000000    0.072914000000000    0.250000000000000 
K           0.731298000000000    0.927086000000000    0.750000000000000 
K           0.768702000000000    0.427086000000000    0.750000000000000 
K           0.768702000000000    0.572914000000000    0.250000000000000 
%ENDBLOCK POSITIONS_FRAC
