# Cell file generated by matador (Matthew Evans 2016)

%BLOCK LATTICE_CART
6.44259 0.0 0.0
0.0 6.30709 0.0
-0.953253 0.0 6.50918
%ENDBLOCK LATTICE_CART

%BLOCK POSITIONS_FRAC
P           0.000000000000000    0.425655000000000    0.000000000000000 
K           0.000000000000000    0.316766000000000    0.500000000000000 
K           0.284977000000000    0.649519000000000    0.787914000000000 
K           0.298781000000000    0.229003000000000    0.822348000000000 
K           0.500000000000000    0.278127000000000    0.500000000000000 
K           0.701219000000000    0.229003000000000    0.177652000000000 
K           0.715023000000000    0.649519000000000    0.212086000000000 
%ENDBLOCK POSITIONS_FRAC
