# Cell file generated by matador (Matthew Evans 2016)

%BLOCK LATTICE_CART
8.89944 0.0 0.0
-4.44972 7.70714 0.0
0.0 0.0 6.03348
%ENDBLOCK LATTICE_CART

%BLOCK POSITIONS_FRAC
P           0.333333000000000    0.666667000000000    0.279642000000000 
P           0.333333000000000    0.666667000000000    0.720358000000000 
P           0.549253000000000    0.315937000000000    0.000000000000000 
P           0.684063000000000    0.233316000000000    0.000000000000000 
P           0.766684000000000    0.450747000000000    0.000000000000000 
K          -0.000000000000000    0.000000000000000    0.500000000000000 
K           0.080596000000000    0.603155000000000    0.000000000000000 
K           0.329929000000000    0.060287000000000    0.500000000000000 
K           0.396845000000000    0.477441000000000    0.000000000000000 
K           0.522559000000000    0.919404000000000    0.000000000000000 
K           0.730358000000000    0.670071000000000    0.500000000000000 
K           0.939713000000000    0.269642000000000    0.500000000000000 
%ENDBLOCK POSITIONS_FRAC
