# Cell file generated by matador (Matthew Evans 2016)

%BLOCK LATTICE_CART
8.47573 0.0 0.0
-4.23787 7.3402 0.0
0.0 0.0 6.61562
%ENDBLOCK LATTICE_CART

%BLOCK POSITIONS_FRAC
P           0.076517000000000    0.332638000000000    0.826400000000000 
P           0.076517000000000    0.743880000000000    0.826400000000000 
P           0.248817000000000    0.624409000000000    0.033856000000000 
P           0.256120000000000    0.332638000000000    0.826400000000000 
P           0.256120000000000    0.923483000000000    0.826400000000000 
P           0.333333000000000    0.666667000000000    0.263451000000000 
P           0.375591000000000    0.624409000000000    0.033856000000000 
P           0.375591000000000    0.751183000000000    0.033856000000000 
P           0.667362000000000    0.743880000000000    0.826400000000000 
P           0.667362000000000    0.923483000000000    0.826400000000000 
K           0.000000000000000    0.000000000000000    0.539416000000000 
K           0.215306000000000    0.430612000000000    0.564434000000000 
K           0.215306000000000    0.784694000000000    0.564434000000000 
K           0.569388000000000    0.784694000000000    0.564434000000000 
%ENDBLOCK POSITIONS_FRAC
