# Cell file generated by matador (Matthew Evans 2016)

%BLOCK LATTICE_CART
8.00683 0.0 0.0
0.0 5.28607 0.0
0.0 0.0 9.05141
%ENDBLOCK LATTICE_CART

%BLOCK POSITIONS_FRAC
P          -0.000000000000000   -0.000000000000000    0.639589000000000 
P          -0.000000000000000    0.500000000000000    0.139589000000000 
P           0.250000000000000    0.562488000000000    0.598785000000000 
P           0.250000000000000    0.937512000000000    0.098785000000000 
P           0.500000000000000   -0.000000000000000    0.639589000000000 
P           0.500000000000000    0.500000000000000    0.139589000000000 
P           0.750000000000000    0.062488000000000    0.098785000000000 
P           0.750000000000000    0.437512000000000    0.598785000000000 
K           0.250000000000000    0.024661000000000    0.761697000000000 
K           0.250000000000000    0.475339000000000    0.261697000000000 
K           0.750000000000000    0.524661000000000    0.261697000000000 
K           0.750000000000000    0.975339000000000    0.761697000000000 
%ENDBLOCK POSITIONS_FRAC
