# Cell file generated by matador (Matthew Evans 2016)

%BLOCK LATTICE_CART
6.22519 0.0 0.0
0.0 6.22519 0.0
0.0 0.0 4.45467
%ENDBLOCK LATTICE_CART

%BLOCK POSITIONS_FRAC
P           0.000000000000000    0.000000000000000    0.000000000000000 
P           0.000000000000000    0.000000000000000    0.314250000000000 
P           0.000000000000000    0.000000000000000    0.685750000000000 
P           0.000000000000000    0.500000000000000    0.500000000000000 
P           0.500000000000000    0.000000000000000    0.500000000000000 
P           0.500000000000000    0.500000000000000    0.291801000000000 
P           0.500000000000000    0.500000000000000    0.708199000000000 
K           0.000000000000000    0.500000000000000    0.000000000000000 
K           0.500000000000000    0.000000000000000    0.000000000000000 
%ENDBLOCK POSITIONS_FRAC
