# Cell file generated by matador (Matthew Evans 2016)

%BLOCK LATTICE_CART
10.4044 0.0 0.0
-2.87311 5.52739 0.0
0.357727 3.54554 6.9789
%ENDBLOCK LATTICE_CART

%BLOCK POSITIONS_FRAC
P           0.000000000000000    0.000000000000000    0.500000000000000 
P           0.000000000000000    0.500000000000000    0.000000000000000 
P           0.083676000000000    0.296835000000000    0.725268000000000 
P           0.214309000000000    0.388765000000000    0.251475000000000 
P           0.500000000000000    0.000000000000000    0.500000000000000 
P           0.785691000000000    0.611235000000000    0.748525000000000 
P           0.916324000000000    0.703165000000000    0.274732000000000 
K           0.000000000000000    0.000000000000000    0.000000000000000 
K           0.000000000000000    0.500000000000000    0.500000000000000 
K           0.500000000000000    0.000000000000000    0.000000000000000 
K           0.500000000000000    0.500000000000000    0.000000000000000 
K           0.500000000000000    0.500000000000000    0.500000000000000 
%ENDBLOCK POSITIONS_FRAC
