# Cell file generated by matador (Matthew Evans 2016)

%BLOCK LATTICE_CART
7.27543 0.0 0.0
-3.63772 6.30071 0.0
0.0 0.0 10.2605
%ENDBLOCK LATTICE_CART

%BLOCK POSITIONS_FRAC
P          -0.000000000000000    0.000000000000000    0.334061000000000 
P          -0.000000000000000    0.000000000000000    0.500000000000000 
P          -0.000000000000000    0.000000000000000    0.665939000000000 
P          -0.000000000000000    0.628572000000000    0.500000000000000 
P           0.129549000000000    0.497666000000000    0.678252000000000 
P           0.368117000000000    0.870451000000000    0.678252000000000 
P           0.371428000000000    0.371428000000000    0.500000000000000 
P           0.497666000000000    0.129549000000000    0.321748000000000 
P           0.502334000000000    0.631883000000000    0.678252000000000 
P           0.628572000000000    0.000000000000000    0.500000000000000 
P           0.631883000000000    0.502334000000000    0.321748000000000 
P           0.870451000000000    0.368117000000000    0.321748000000000 
K           0.333333000000000    0.666667000000000    0.366183000000000 
K           0.333333000000000    0.666667000000000    0.967152000000000 
K           0.666666000000000    0.333334000000000    0.032848000000000 
K           0.666666000000000    0.333334000000000    0.633817000000000 
%ENDBLOCK POSITIONS_FRAC
