# Cell file generated by matador (Matthew Evans 2016)

%BLOCK LATTICE_CART
6.62125 0.0 0.0
0.0 6.62125 0.0
0.0 0.0 11.5939
%ENDBLOCK LATTICE_CART

%BLOCK POSITIONS_FRAC
P           0.000000000000000    0.000000000000000    0.331879000000000 
P           0.000000000000000    0.000000000000000    0.668121000000000 
P           0.264650000000000    0.357242000000000    0.421275000000000 
P           0.264650000000000    0.642758000000000    0.421275000000000 
P           0.357242000000000    0.264650000000000    0.578725000000000 
P           0.357242000000000    0.735350000000000    0.578725000000000 
P           0.642758000000000    0.264650000000000    0.578725000000000 
P           0.642758000000000    0.735350000000000    0.578725000000000 
P           0.735350000000000    0.357242000000000    0.421275000000000 
P           0.735350000000000    0.642758000000000    0.421275000000000 
K           0.000000000000000    0.000000000000000    0.500000000000000 
K           0.000000000000000    0.216473000000000    0.027160000000000 
K           0.000000000000000    0.500000000000000    0.523220000000000 
K           0.000000000000000    0.783527000000000    0.027160000000000 
K           0.216473000000000    0.000000000000000    0.972840000000000 
K           0.500000000000000    0.000000000000000    0.476780000000000 
K           0.500000000000000    0.500000000000000    0.500000000000000 
K           0.783527000000000    0.000000000000000    0.972840000000000 
%ENDBLOCK POSITIONS_FRAC
