# Cell file generated by matador (Matthew Evans 2016)

%BLOCK LATTICE_CART
5.98629 0.0 0.0
-2.99314 5.18428 0.0
0.0 0.0 9.63582
%ENDBLOCK LATTICE_CART

%BLOCK POSITIONS_FRAC
P           0.000000000000000    0.000000000000000    0.220822000000000 
P           0.000000000000000    0.000000000000000    0.779178000000000 
P           0.666667000000000    0.333333000000000    0.235090000000000 
P           0.666667000000000    0.333333000000000    0.764910000000000 
K           0.000000000000000    0.000000000000000    0.000000000000000 
K           0.000000000000000    0.000000000000000    0.500000000000000 
K           0.333333000000000    0.666667000000000    0.000000000000000 
K           0.333333000000000    0.666667000000000    0.500000000000000 
K           0.666667000000000    0.333333000000000    0.000000000000000 
%ENDBLOCK POSITIONS_FRAC
