# Cell file generated by matador (Matthew Evans 2016)

%BLOCK LATTICE_CART
4.9937 0.0 0.0
-2.49685 4.32467 0.0
0.0 0.0 7.46005
%ENDBLOCK LATTICE_CART

%BLOCK POSITIONS_FRAC
P          -0.000000000000000    0.000000000000000    0.313194000000000 
P           0.382291000000000    0.002840000000000    0.043769000000000 
P           0.465912000000000    0.385523000000000    0.496678000000000 
P           0.614477000000000    0.080390000000000    0.496678000000000 
P           0.620548000000000    0.617709000000000    0.043769000000000 
P           0.919610000000000    0.534088000000000    0.496678000000000 
P           0.997160000000000    0.379452000000000    0.043769000000000 
K           0.333333000000000    0.666667000000000    0.815249000000000 
%ENDBLOCK POSITIONS_FRAC
