# Cell file generated by matador (Matthew Evans 2016)

%BLOCK LATTICE_CART
7.57818 0.0 0.0
-3.78909 6.56289 0.0
0.0 0.0 8.54021
%ENDBLOCK LATTICE_CART

%BLOCK POSITIONS_FRAC
P           0.078133000000000    0.293583000000000    0.637066000000000 
P           0.078133000000000    0.784550000000000    0.637066000000000 
P           0.215450000000000    0.293583000000000    0.637066000000000 
P           0.215450000000000    0.921867000000000    0.637066000000000 
P           0.706417000000000    0.784550000000000    0.637066000000000 
P           0.706417000000000    0.921867000000000    0.637066000000000 
K           0.000000000000000    0.000000000000000    0.690551000000000 
K           0.241407000000000    0.482813000000000    0.127279000000000 
K           0.241407000000000    0.758593000000000    0.127279000000000 
K           0.333333000000000    0.666667000000000    0.445761000000000 
K           0.517187000000000    0.758593000000000    0.127279000000000 
%ENDBLOCK POSITIONS_FRAC
