# Cell file generated by matador (Matthew Evans 2016)

%BLOCK LATTICE_CART
8.44668 0.0 0.0
0.0 8.44668 0.0
0.0 0.0 6.95814
%ENDBLOCK LATTICE_CART

%BLOCK POSITIONS_FRAC
P           0.000000000000000    0.500000000000000    0.000000000000000 
P           0.000000000000000    0.500000000000000    0.500000000000000 
P           0.500000000000000    0.000000000000000    0.000000000000000 
P           0.500000000000000    0.000000000000000    0.500000000000000 
P           0.500000000000000    0.500000000000000    0.000000000000000 
P           0.500000000000000    0.500000000000000    0.500000000000000 
K           0.000000000000000    0.000000000000000    0.500000000000000 
K           0.267124000000000    0.696877000000000    0.500000000000000 
K           0.290820000000000    0.379875000000000    0.000000000000000 
K           0.303123000000000    0.267124000000000    0.500000000000000 
K           0.379875000000000    0.709180000000000    0.000000000000000 
K           0.620125000000000    0.290820000000000    0.000000000000000 
K           0.696877000000000    0.732876000000000    0.500000000000000 
K           0.709180000000000    0.620125000000000    0.000000000000000 
K           0.732876000000000    0.303123000000000    0.500000000000000 
%ENDBLOCK POSITIONS_FRAC
