# Cell file generated by matador (Matthew Evans 2016)

%BLOCK LATTICE_CART
9.63662 0.0 0.0
0.0 7.92078 0.0
0.0 0.0 8.9093
%ENDBLOCK LATTICE_CART

%BLOCK POSITIONS_FRAC
P           0.000000000000000    0.218630000000000    0.359985000000000 
P           0.000000000000000    0.281370000000000    0.859985000000000 
P           0.000000000000000    0.718630000000000    0.859985000000000 
P           0.000000000000000    0.781370000000000    0.359985000000000 
K           0.000000000000000    0.000000000000000    0.836792000000000 
K           0.000000000000000    0.193379000000000    0.135244000000000 
K           0.000000000000000    0.306621000000000    0.635244000000000 
K           0.000000000000000    0.500000000000000    0.336792000000000 
K           0.000000000000000    0.693379000000000    0.635244000000000 
K           0.000000000000000    0.806621000000000    0.135244000000000 
K           0.282215000000000    0.000000000000000    0.269426000000000 
K           0.282215000000000    0.500000000000000    0.769426000000000 
K           0.500000000000000    0.000000000000000    0.818606000000000 
K           0.500000000000000    0.500000000000000    0.318606000000000 
K           0.717785000000000    0.000000000000000    0.269426000000000 
K           0.717785000000000    0.500000000000000    0.769426000000000 
%ENDBLOCK POSITIONS_FRAC
