# Cell file generated by matador (Matthew Evans 2016)

%BLOCK LATTICE_CART
9.30867 0.0 0.0
-4.65433 8.06154 0.0
0.0 0.0 6.92452
%ENDBLOCK LATTICE_CART

%BLOCK POSITIONS_FRAC
P           0.999999000000000    0.999999000000000    0.000000000000000 
P           0.999999000000000    0.999999000000000    0.144415000000000 
P           0.999999000000000    0.999999000000000    0.355585000000000 
P           0.999999000000000    0.999999000000000    0.500000000000000 
P           0.999999000000000    0.999999000000000    0.644415000000000 
P           0.999999000000000    0.999999000000000    0.855585000000000 
P           0.117211000000000    0.234422000000000    0.750000000000000 
P           0.117211000000000    0.882787000000000    0.750000000000000 
P           0.234422000000000    0.117211000000000    0.250000000000000 
P           0.333332000000000    0.666666000000000    0.250000000000000 
P           0.666666000000000    0.333332000000000    0.750000000000000 
P           0.765576000000000    0.882787000000000    0.750000000000000 
P           0.882787000000000    0.117211000000000    0.250000000000000 
P           0.882787000000000    0.765576000000000    0.250000000000000 
K           0.333332000000000    0.666666000000000    0.750000000000000 
K           0.666666000000000    0.333332000000000    0.250000000000000 
%ENDBLOCK POSITIONS_FRAC
