# Cell file generated by matador (Matthew Evans 2016)

%BLOCK LATTICE_CART
8.36779 0.0 0.0
-4.18389 7.24672 0.0
0.0 0.0 5.55383
%ENDBLOCK LATTICE_CART

%BLOCK POSITIONS_FRAC
P           0.333334000000000    0.666668000000000    0.500000000000000 
P           0.666668000000000    0.333334000000000    0.500000000000000 
K           0.203868000000000    0.412755000000000    0.000000000000000 
K           0.208888000000000    0.796134000000000    0.000000000000000 
K           0.412755000000000    0.203868000000000    0.000000000000000 
K           0.587247000000000    0.791114000000000    0.000000000000000 
K           0.791114000000000    0.587247000000000    0.000000000000000 
K           0.796134000000000    0.208888000000000    0.000000000000000 
%ENDBLOCK POSITIONS_FRAC
