# Cell file generated by matador (Matthew Evans 2016)

%BLOCK LATTICE_CART
8.09055 0.0 0.0
0.0 8.09055 0.0
0.0 0.0 8.09055
%ENDBLOCK LATTICE_CART

%BLOCK POSITIONS_FRAC
P           0.000000000000000    0.000000000000000    0.500000000000000 
P           0.000000000000000    0.500000000000000    0.000000000000000 
P           0.000000000000000    0.500000000000000    0.427126000000000 
P           0.000000000000000    0.500000000000000    0.572874000000000 
P           0.427126000000000    0.000000000000000    0.500000000000000 
P           0.500000000000000    0.000000000000000    0.000000000000000 
P           0.500000000000000    0.427126000000000    0.000000000000000 
P           0.500000000000000    0.572874000000000    0.000000000000000 
P           0.572874000000000    0.000000000000000    0.500000000000000 
K           0.000000000000000    0.000000000000000    0.000000000000000 
K           0.142722000000000    0.142722000000000    0.142722000000000 
K           0.142722000000000    0.857278000000000    0.857278000000000 
K           0.500000000000000    0.500000000000000    0.500000000000000 
K           0.857278000000000    0.142722000000000    0.857278000000000 
K           0.857278000000000    0.857278000000000    0.142722000000000 
%ENDBLOCK POSITIONS_FRAC
