# Cell file generated by matador (Matthew Evans 2016)

%BLOCK LATTICE_CART
7.51844 0.0 0.0
-3.75922 6.51116 0.0
0.0 0.0 7.09818
%ENDBLOCK LATTICE_CART

%BLOCK POSITIONS_FRAC
P          -0.000000000000000    0.000000000000000    0.961268000000000 
P           0.048710000000000    0.556127000000000    0.145433000000000 
P           0.110540000000000    0.825917000000000    0.478767000000000 
P           0.174083000000000    0.284623000000000    0.478767000000000 
P           0.333333000000000    0.666667000000000    0.627935000000000 
P           0.382044000000000    0.222793000000000    0.812100000000000 
P           0.443873000000000    0.492584000000000    0.145433000000000 
P           0.507416000000000    0.951290000000000    0.145433000000000 
P           0.666667000000000    0.333333000000000    0.294601000000000 
P           0.715377000000000    0.889460000000000    0.478767000000000 
P           0.777207000000000    0.159251000000000    0.812100000000000 
P           0.840749000000000    0.617956000000000    0.812100000000000 
K          -0.000000000000000    0.000000000000000    0.291096000000000 
K           0.333333000000000    0.666667000000000    0.957762000000000 
K           0.666667000000000    0.333333000000000    0.624429000000000 
%ENDBLOCK POSITIONS_FRAC
