# Cell file generated by matador (Matthew Evans 2016)

%BLOCK LATTICE_CART
8.21756 0.0 0.0
-4.10878 7.11661 0.0
0.0 0.0 8.5879
%ENDBLOCK LATTICE_CART

%BLOCK POSITIONS_FRAC
P           0.000000000000000    0.256618000000000    0.500000000000000 
P           0.000000000000000    0.743382000000000    0.500000000000000 
P           0.256618000000000    0.000000000000000    0.500000000000000 
P           0.256618000000000    0.256618000000000    0.500000000000000 
P           0.743382000000000    0.000000000000000    0.500000000000000 
P           0.743382000000000    0.743382000000000    0.500000000000000 
K           0.000000000000000    0.000000000000000    0.000000000000000 
K           0.000000000000000    0.000000000000000    0.500000000000000 
K           0.000000000000000    0.500000000000000    0.000000000000000 
K           0.000000000000000    0.500000000000000    0.500000000000000 
K           0.333333000000000    0.666667000000000    0.417716000000000 
K           0.500000000000000    0.000000000000000    0.000000000000000 
K           0.500000000000000    0.000000000000000    0.500000000000000 
K           0.500000000000000    0.500000000000000    0.000000000000000 
K           0.500000000000000    0.500000000000000    0.500000000000000 
K           0.666667000000000    0.333333000000000    0.582284000000000 
%ENDBLOCK POSITIONS_FRAC
