# Cell file generated by matador (Matthew Evans 2016)

%BLOCK LATTICE_CART
8.30745 0.0 0.0
0.0 8.30745 0.0
0.0 0.0 6.78185
%ENDBLOCK LATTICE_CART

%BLOCK POSITIONS_FRAC
P           0.000000000000000    0.000000000000000    0.000000000000000 
P           0.000000000000000    0.000000000000000    0.500000000000000 
P           0.034350000000000    0.372964000000000    0.500000000000000 
P           0.034350000000000    0.627036000000000    0.000000000000000 
P           0.372964000000000    0.034350000000000    0.000000000000000 
P           0.372964000000000    0.965650000000000    0.500000000000000 
P           0.627036000000000    0.034350000000000    0.500000000000000 
P           0.627036000000000    0.965650000000000    0.000000000000000 
P           0.965650000000000    0.372964000000000    0.000000000000000 
P           0.965650000000000    0.627036000000000    0.500000000000000 
K           0.000000000000000    0.500000000000000    0.250000000000000 
K           0.000000000000000    0.500000000000000    0.750000000000000 
K           0.500000000000000    0.000000000000000    0.250000000000000 
K           0.500000000000000    0.000000000000000    0.750000000000000 
K           0.500000000000000    0.500000000000000    0.000000000000000 
K           0.500000000000000    0.500000000000000    0.500000000000000 
%ENDBLOCK POSITIONS_FRAC
