# Cell file generated by matador (Matthew Evans 2016)

%BLOCK LATTICE_CART
7.28024 0.0 0.0
0.0 7.28024 0.0
0.0 0.0 13.6985
%ENDBLOCK LATTICE_CART

%BLOCK POSITIONS_FRAC
P           0.500000000000000    0.500000000000000    0.089196000000000 
P           0.500000000000000    0.500000000000000    0.410804000000000 
P           0.500000000000000    0.500000000000000    0.589196000000000 
P           0.500000000000000    0.500000000000000    0.910804000000000 
K           0.000000000000000    0.000000000000000    0.000000000000000 
K           0.000000000000000    0.000000000000000    0.500000000000000 
K           0.000000000000000    0.500000000000000    0.000000000000000 
K           0.000000000000000    0.500000000000000    0.250000000000000 
K           0.000000000000000    0.500000000000000    0.500000000000000 
K           0.000000000000000    0.500000000000000    0.750000000000000 
K           0.194253000000000    0.194253000000000    0.500000000000000 
K           0.194253000000000    0.805747000000000    0.000000000000000 
K           0.500000000000000    0.000000000000000    0.000000000000000 
K           0.500000000000000    0.000000000000000    0.250000000000000 
K           0.500000000000000    0.000000000000000    0.500000000000000 
K           0.500000000000000    0.000000000000000    0.750000000000000 
K           0.805747000000000    0.194253000000000    0.000000000000000 
K           0.805747000000000    0.805747000000000    0.500000000000000 
%ENDBLOCK POSITIONS_FRAC
