# Cell file generated by matador (Matthew Evans 2016)

%BLOCK LATTICE_CART
6.43359 0.0 0.0
-3.2168 5.57165 0.0
0.0 0.0 9.58293
%ENDBLOCK LATTICE_CART

%BLOCK POSITIONS_FRAC
P           0.999999000000000    0.999999000000000    0.168065000000000 
P           0.999999000000000    0.999999000000000    0.331935000000000 
P           0.999999000000000    0.999999000000000    0.668065000000000 
P           0.999999000000000    0.999999000000000    0.831935000000000 
P           0.333332000000000    0.666666000000000    0.250000000000000 
P           0.333332000000000    0.666666000000000    0.750000000000000 
P           0.666666000000000    0.333332000000000    0.250000000000000 
P           0.666666000000000    0.333332000000000    0.750000000000000 
K           0.333332000000000    0.666666000000000    0.000000000000000 
K           0.333332000000000    0.666666000000000    0.500000000000000 
K           0.666666000000000    0.333332000000000    0.000000000000000 
K           0.666666000000000    0.333332000000000    0.500000000000000 
%ENDBLOCK POSITIONS_FRAC
