# Cell file generated by matador (Matthew Evans 2016)

%BLOCK LATTICE_CART
6.22124 0.0 0.0
0.0 6.22124 0.0
0.0 0.0 8.30517
%ENDBLOCK LATTICE_CART

%BLOCK POSITIONS_FRAC
P           0.000000000000000    0.000000000000000    0.000000000000000 
P           0.000000000000000    0.500000000000000    0.097041000000000 
P           0.000000000000000    0.500000000000000    0.573993000000000 
P           0.000000000000000    0.500000000000000    0.699468000000000 
P           0.250000000000000    0.250000000000000    0.000000000000000 
P           0.250000000000000    0.750000000000000    0.000000000000000 
P           0.500000000000000    0.000000000000000    0.300532000000000 
P           0.500000000000000    0.000000000000000    0.426007000000000 
P           0.500000000000000    0.000000000000000    0.902959000000000 
P           0.500000000000000    0.500000000000000    0.000000000000000 
P           0.750000000000000    0.250000000000000    0.000000000000000 
P           0.750000000000000    0.750000000000000    0.000000000000000 
K           0.250000000000000    0.250000000000000    0.500000000000000 
K           0.250000000000000    0.750000000000000    0.500000000000000 
K           0.750000000000000    0.250000000000000    0.500000000000000 
K           0.750000000000000    0.750000000000000    0.500000000000000 
%ENDBLOCK POSITIONS_FRAC
