# Cell file generated by matador (Matthew Evans 2016)

%BLOCK LATTICE_CART
7.84499 0.0 0.0
-3.9225 6.79396 0.0
0.0 0.0 7.0067
%ENDBLOCK LATTICE_CART

%BLOCK POSITIONS_FRAC
P          -0.000000000000000    0.000000000000000    0.083484000000000 
P          -0.000000000000000    0.000000000000000    0.583484000000000 
P           0.038822000000000    0.855886000000000    0.120638000000000 
P           0.131989000000000    0.320941000000000    0.431785000000000 
P           0.144114000000000    0.182936000000000    0.120638000000000 
P           0.182936000000000    0.144114000000000    0.620638000000000 
P           0.188952000000000    0.868011000000000    0.431785000000000 
P           0.320941000000000    0.131989000000000    0.931785000000000 
P           0.679059000000000    0.811048000000000    0.431785000000000 
P           0.811048000000000    0.679059000000000    0.931785000000000 
P           0.817064000000000    0.961178000000000    0.120638000000000 
P           0.855886000000000    0.038822000000000    0.620638000000000 
P           0.868011000000000    0.188952000000000    0.931785000000000 
P           0.961178000000000    0.817064000000000    0.620638000000000 
K           0.333333000000000    0.666667000000000    0.155422000000000 
K           0.666666000000000    0.333334000000000    0.655422000000000 
%ENDBLOCK POSITIONS_FRAC
