# Cell file generated by matador (Matthew Evans 2016)

%BLOCK LATTICE_CART
6.94567 0.0 0.0
-3.47283 6.01512 0.0
0.0 0.0 8.2409
%ENDBLOCK LATTICE_CART

%BLOCK POSITIONS_FRAC
P          -0.000000000000000   -0.000000000000000    0.169236000000000 
P          -0.000000000000000   -0.000000000000000    0.803878000000000 
P           0.153579000000000    0.058436000000000    0.636019000000000 
P           0.333333000000000    0.666667000000000    0.011208000000000 
P           0.666667000000000    0.333333000000000    0.083994000000000 
P           0.904856000000000    0.846421000000000    0.636019000000000 
P           0.941564000000000    0.095144000000000    0.636019000000000 
K           0.107393000000000    0.760572000000000    0.242385000000000 
K           0.239428000000000    0.346821000000000    0.242385000000000 
K           0.653179000000000    0.892607000000000    0.242385000000000 
K           0.666667000000000    0.333333000000000    0.397839000000000 
%ENDBLOCK POSITIONS_FRAC
