# Cell file generated by matador (Matthew Evans 2016)

%BLOCK LATTICE_CART
5.03372 0.0 0.0
0.0 7.90657 0.0
-1.04812 0.0 5.24696
%ENDBLOCK LATTICE_CART

%BLOCK POSITIONS_FRAC
P           0.000000000000000    0.011131000000000    0.500000000000000 
K           0.000000000000000    0.282103000000000    0.000000000000000 
K           0.000000000000000    0.596244000000000    0.500000000000000 
K           0.401952000000000    0.643285000000000    0.745228000000000 
K           0.598048000000000    0.643285000000000    0.254772000000000 
%ENDBLOCK POSITIONS_FRAC
