# Cell file generated by matador (Matthew Evans 2016)

%BLOCK LATTICE_CART
5.0705 0.0 0.0
0.0 5.0705 0.0
0.0 0.0 14.6146
%ENDBLOCK LATTICE_CART

%BLOCK POSITIONS_FRAC
P           0.000000000000000    0.000000000000000    0.000000000000000 
P           0.000000000000000    0.000000000000000    0.500000000000000 
P           0.000000000000000    0.500000000000000    0.500000000000000 
P           0.500000000000000    0.000000000000000    0.500000000000000 
P           0.500000000000000    0.500000000000000    0.000000000000000 
P           0.500000000000000    0.500000000000000    0.137692000000000 
P           0.500000000000000    0.500000000000000    0.862308000000000 
K           0.222667000000000    0.222667000000000    0.187199000000000 
K           0.222667000000000    0.777333000000000    0.812801000000000 
K           0.500000000000000    0.500000000000000    0.500000000000000 
K           0.777333000000000    0.222667000000000    0.812801000000000 
K           0.777333000000000    0.777333000000000    0.187199000000000 
%ENDBLOCK POSITIONS_FRAC
