# Cell file generated by matador (Matthew Evans 2016)

%BLOCK LATTICE_CART
7.48978 0.0 0.0
0.0 7.48978 0.0
0.0 0.0 7.51505
%ENDBLOCK LATTICE_CART

%BLOCK POSITIONS_FRAC
P           0.000000000000000    0.500000000000000    0.750000000000000 
P           0.121130000000000    0.405675000000000    0.996744000000000 
P           0.121130000000000    0.594325000000000    0.503256000000000 
P           0.405675000000000    0.121130000000000    0.496744000000000 
P           0.405675000000000    0.878870000000000    0.003256000000000 
P           0.500000000000000    0.000000000000000    0.250000000000000 
P           0.500000000000000    0.500000000000000    0.119408000000000 
P           0.500000000000000    0.500000000000000    0.380592000000000 
P           0.500000000000000    0.500000000000000    0.619408000000000 
P           0.500000000000000    0.500000000000000    0.880592000000000 
P           0.594325000000000    0.121130000000000    0.003256000000000 
P           0.594325000000000    0.878870000000000    0.496744000000000 
P           0.878870000000000    0.405675000000000    0.503256000000000 
P           0.878870000000000    0.594325000000000    0.996744000000000 
K           0.000000000000000    0.500000000000000    0.250000000000000 
K           0.500000000000000    0.000000000000000    0.750000000000000 
%ENDBLOCK POSITIONS_FRAC
