# Cell file generated by matador (Matthew Evans 2016)

%BLOCK LATTICE_CART
7.6283 0.0 0.0
-0.887948 6.32637 0.0
0.327008 -2.44056 5.33268
%ENDBLOCK LATTICE_CART

%BLOCK POSITIONS_FRAC
P           0.000000000000000    0.500000000000000    0.500000000000000 
P           0.500000000000000    0.000000000000000    0.000000000000000 
P           0.500000000000000    0.500000000000000    0.000000000000000 
K           0.000000000000000    0.000000000000000    0.500000000000000 
K           0.132961000000000    0.285302000000000    0.691613000000000 
K           0.500000000000000    0.000000000000000    0.500000000000000 
K           0.867039000000000    0.714698000000000    0.308387000000000 
%ENDBLOCK POSITIONS_FRAC
