# Cell file generated by matador (Matthew Evans 2016)

%BLOCK LATTICE_CART
7.66479 0.0 0.0
0.0 5.30049 0.0
-0.74796 0.0 6.31854
%ENDBLOCK LATTICE_CART

%BLOCK POSITIONS_FRAC
P           0.000000000000000    0.363588000000000    0.000000000000000 
P           0.097396000000000    0.005253000000000    0.001698000000000 
P           0.196879000000000    0.540970000000000    0.730411000000000 
P           0.370833000000000    0.754241000000000    0.734035000000000 
P           0.629167000000000    0.754241000000000    0.265965000000000 
P           0.803121000000000    0.540970000000000    0.269589000000000 
P           0.902604000000000    0.005253000000000    0.998302000000000 
K           0.000000000000000    0.896399000000000    0.500000000000000 
K           0.286865000000000    0.681067000000000    0.278136000000000 
K           0.500000000000000    0.461159000000000    0.500000000000000 
K           0.713135000000000    0.681067000000000    0.721864000000000 
%ENDBLOCK POSITIONS_FRAC
