# Cell file generated by matador (Matthew Evans 2016)

%BLOCK LATTICE_CART
8.25892 0.0 0.0
-4.12946 7.15244 0.0
0.0 0.0 9.76459
%ENDBLOCK LATTICE_CART

%BLOCK POSITIONS_FRAC
P          -0.000000000000000    0.757837000000000    0.000000000000000 
P           0.091171000000000    0.666667000000000    0.666667000000000 
P           0.242163000000000    0.242163000000000    0.000000000000000 
P           0.333333000000000    0.424504000000000    0.666667000000000 
P           0.424504000000000    0.333333000000000    0.333333000000000 
P           0.575496000000000    0.908829000000000    0.666667000000000 
P           0.666667000000000    0.091171000000000    0.333333000000000 
P           0.757837000000000   -0.000000000000000    0.000000000000000 
P           0.908829000000000    0.575496000000000    0.333333000000000 
K          -0.000000000000000   -0.000000000000000    0.000000000000000 
K          -0.000000000000000   -0.000000000000000    0.500000000000000 
K           0.333333000000000    0.666667000000000    0.166667000000000 
K           0.333333000000000    0.666667000000000    0.666667000000000 
K           0.666667000000000    0.333333000000000    0.333333000000000 
K           0.666667000000000    0.333333000000000    0.833333000000000 
%ENDBLOCK POSITIONS_FRAC
