# Cell file generated by matador (Matthew Evans 2016)

%BLOCK LATTICE_CART
8.35792 0.0 0.0
0.0 5.63465 0.0
0.0 0.0 5.51408
%ENDBLOCK LATTICE_CART

%BLOCK POSITIONS_FRAC
P           0.000000000000000    0.500000000000000    0.329791000000000 
P           0.000000000000000    0.500000000000000    0.670209000000000 
P           0.500000000000000    0.334682000000000    0.000000000000000 
P           0.500000000000000    0.500000000000000    0.231723000000000 
P           0.500000000000000    0.500000000000000    0.500000000000000 
P           0.500000000000000    0.500000000000000    0.768277000000000 
P           0.500000000000000    0.665318000000000    0.000000000000000 
K           0.000000000000000    0.000000000000000    0.000000000000000 
K           0.500000000000000    0.169998000000000    0.321077000000000 
K           0.500000000000000    0.169998000000000    0.678923000000000 
K           0.500000000000000    0.830002000000000    0.321077000000000 
K           0.500000000000000    0.830002000000000    0.678923000000000 
%ENDBLOCK POSITIONS_FRAC
