# Cell file generated by matador (Matthew Evans 2016)

%BLOCK LATTICE_CART
5.93655 0.0 0.0
0.0 9.25513 0.0
0.0 0.0 15.5048
%ENDBLOCK LATTICE_CART

%BLOCK POSITIONS_FRAC
P           0.000000000000000    0.383067000000000    0.807534000000000 
P           0.000000000000000    0.616933000000000    0.807534000000000 
P           0.221135000000000    0.000000000000000    0.253782000000000 
P           0.500000000000000    0.188425000000000    0.438752000000000 
P           0.500000000000000    0.811575000000000    0.438752000000000 
P           0.778865000000000    0.000000000000000    0.253782000000000 
K           0.000000000000000    0.240566000000000    0.919029000000000 
K           0.000000000000000    0.272578000000000    0.499853000000000 
K           0.000000000000000    0.500000000000000    0.036393000000000 
K           0.000000000000000    0.500000000000000    0.360049000000000 
K           0.000000000000000    0.727422000000000    0.499853000000000 
K           0.000000000000000    0.759434000000000    0.919029000000000 
K           0.248447000000000    0.000000000000000    0.628923000000000 
K           0.249322000000000    0.000000000000000    0.114768000000000 
K           0.250105000000000    0.000000000000000    0.430912000000000 
K           0.254702000000000    0.500000000000000    0.194553000000000 
K           0.500000000000000    0.198004000000000    0.277357000000000 
K           0.500000000000000    0.331882000000000    0.752800000000000 
K           0.500000000000000    0.668118000000000    0.752800000000000 
K           0.500000000000000    0.801996000000000    0.277357000000000 
K           0.745298000000000    0.500000000000000    0.194553000000000 
K           0.749895000000000    0.000000000000000    0.430912000000000 
K           0.750678000000000    0.000000000000000    0.114768000000000 
K           0.751553000000000    0.000000000000000    0.628923000000000 
%ENDBLOCK POSITIONS_FRAC
