# Cell file generated by matador (Matthew Evans 2016)

%BLOCK LATTICE_CART
7.74159 -0.0 0.0
-3.87079 6.70441 0.0
0.0 0.0 9.27055
%ENDBLOCK LATTICE_CART

%BLOCK POSITIONS_FRAC
P           0.324842000000000    0.301092000000000    0.862509000000000 
P           0.666667000000000    0.333333000000000    0.348553000000000 
P           0.666667000000000    0.333333000000000    0.531343000000000 
P           0.698908000000000    0.023750000000000    0.862509000000000 
P           0.976250000000000    0.675158000000000    0.862509000000000 
K           0.000000000000000    0.000000000000000    0.030048000000000 
K           0.000000000000000    0.000000000000000    0.346770000000000 
K           0.167023000000000    0.485813000000000    0.665540000000000 
K           0.318790000000000    0.832977000000000    0.665540000000000 
K           0.333333000000000    0.666667000000000    0.478771000000000 
K           0.356159000000000    0.236178000000000    0.631421000000000 
K           0.514187000000000    0.681210000000000    0.665540000000000 
K           0.666667000000000    0.333333000000000    0.851928000000000 
K           0.763822000000000    0.119981000000000    0.631421000000000 
K           0.880019000000000    0.643841000000000    0.631421000000000 
%ENDBLOCK POSITIONS_FRAC
