# Cell file generated by matador (Matthew Evans 2016)

%BLOCK LATTICE_CART
8.04517 -0.0 0.0
-4.02259 6.96732 0.0
0.0 0.0 7.29083
%ENDBLOCK LATTICE_CART

%BLOCK POSITIONS_FRAC
P           0.008336000000000    0.177625000000000    0.626352000000000 
P           0.155708000000000    0.497378000000000    0.293019000000000 
P           0.169289000000000    0.991664000000000    0.626352000000000 
P           0.341669000000000    0.844292000000000    0.293019000000000 
P           0.489042000000000    0.164044000000000    0.959686000000000 
P           0.502622000000000    0.658331000000000    0.293019000000000 
P           0.675003000000000    0.510958000000000    0.959686000000000 
P           0.822375000000000    0.830711000000000    0.626352000000000 
P           0.835956000000000    0.324997000000000    0.959686000000000 
K          -0.000000000000000   -0.000000000000000    0.284682000000000 
K           0.333333000000000    0.666667000000000    0.951349000000000 
K           0.666667000000000    0.333333000000000    0.618015000000000 
%ENDBLOCK POSITIONS_FRAC
