# Cell file generated by matador (Matthew Evans 2016)

%BLOCK LATTICE_CART
7.28752 0.0 0.0
-3.64376 6.31118 0.0
0.0 0.0 13.5952
%ENDBLOCK LATTICE_CART

%BLOCK POSITIONS_FRAC
P           0.252266000000000    0.126133000000000    0.628308000000000 
P           0.666667000000000    0.333333000000000    0.053151000000000 
P           0.873867000000000    0.126133000000000    0.628308000000000 
P           0.873867000000000    0.747734000000000    0.628308000000000 
K           0.001453000000000    0.500727000000000    0.772312000000000 
K           0.279767000000000    0.139883000000000    0.480862000000000 
K           0.290164000000000    0.145082000000000    0.012717000000000 
K           0.499273000000000    0.500727000000000    0.772312000000000 
K           0.499273000000000    0.998547000000000    0.772312000000000 
K           0.507806000000000    0.015611000000000    0.310337000000000 
K           0.507806000000000    0.492194000000000    0.310337000000000 
K           0.854918000000000    0.145082000000000    0.012717000000000 
K           0.854918000000000    0.709836000000000    0.012717000000000 
K           0.860117000000000    0.139883000000000    0.480862000000000 
K           0.860117000000000    0.720233000000000    0.480862000000000 
K           0.984389000000000    0.492194000000000    0.310337000000000 
%ENDBLOCK POSITIONS_FRAC
