# Cell file generated by matador (Matthew Evans 2016)

%BLOCK LATTICE_CART
12.4263 0.0 0.0
0.0 3.22244 0.0
0.0 0.0 14.1023
%ENDBLOCK LATTICE_CART

%BLOCK POSITIONS_FRAC
P           0.250000000000000    0.250000000000000    0.774805000000000 
P           0.250000000000000    0.750000000000000    0.274805000000000 
P           0.750000000000000    0.250000000000000    0.274805000000000 
P           0.750000000000000    0.750000000000000    0.774805000000000 
K           0.000000000000000    0.000000000000000    0.390381000000000 
K           0.000000000000000    0.000000000000000    0.890381000000000 
K           0.000000000000000    0.500000000000000    0.091713000000000 
K           0.000000000000000    0.500000000000000    0.591713000000000 
K           0.250000000000000    0.250000000000000    0.171815000000000 
K           0.250000000000000    0.750000000000000    0.671815000000000 
K           0.500000000000000    0.000000000000000    0.091713000000000 
K           0.500000000000000    0.000000000000000    0.591713000000000 
K           0.500000000000000    0.500000000000000    0.390381000000000 
K           0.500000000000000    0.500000000000000    0.890381000000000 
K           0.750000000000000    0.250000000000000    0.671815000000000 
K           0.750000000000000    0.750000000000000    0.171815000000000 
%ENDBLOCK POSITIONS_FRAC
