# Cell file generated by matador (Matthew Evans 2016)

%BLOCK LATTICE_CART
7.81616 0.0 0.0
0.0 10.0268 0.0
0.0 0.0 10.9847
%ENDBLOCK LATTICE_CART

%BLOCK POSITIONS_FRAC
P           0.000000000000000    0.463355000000000    0.277798000000000 
P           0.000000000000000    0.536645000000000    0.777798000000000 
P           0.199838000000000    0.178388000000000    0.226965000000000 
P           0.199838000000000    0.821612000000000    0.726965000000000 
P           0.800162000000000    0.178388000000000    0.226965000000000 
P           0.800162000000000    0.821612000000000    0.726965000000000 
K           0.000000000000000    0.044175000000000    0.571745000000000 
K           0.000000000000000    0.161222000000000    0.861982000000000 
K           0.000000000000000    0.242829000000000    0.122934000000000 
K           0.000000000000000    0.255039000000000    0.386013000000000 
K           0.000000000000000    0.338439000000000    0.646064000000000 
K           0.000000000000000    0.458780000000000    0.940631000000000 
K           0.000000000000000    0.541220000000000    0.440631000000000 
K           0.000000000000000    0.661561000000000    0.146064000000000 
K           0.000000000000000    0.744961000000000    0.886013000000000 
K           0.000000000000000    0.757171000000000    0.622934000000000 
K           0.000000000000000    0.838778000000000    0.361982000000000 
K           0.000000000000000    0.955825000000000    0.071745000000000 
K           0.500000000000000    0.002690000000000    0.119708000000000 
K           0.500000000000000    0.281164000000000    0.832807000000000 
K           0.500000000000000    0.335142000000000    0.475065000000000 
K           0.500000000000000    0.664858000000000    0.975065000000000 
K           0.500000000000000    0.718836000000000    0.332807000000000 
K           0.500000000000000    0.997310000000000    0.619708000000000 
%ENDBLOCK POSITIONS_FRAC
