# Cell file generated by matador (Matthew Evans 2016)

%BLOCK LATTICE_CART
7.85283 0.0 0.0
-3.92641 6.80075 0.0
0.0 0.0 6.88733
%ENDBLOCK LATTICE_CART

%BLOCK POSITIONS_FRAC
P           0.333333000000000    0.666667000000000    0.000000000000000 
P           0.382568000000000    0.121447000000000    0.000000000000000 
P           0.382568000000000    0.261120000000000    0.000000000000000 
P           0.738880000000000    0.121447000000000    0.000000000000000 
P           0.738880000000000    0.617432000000000    0.000000000000000 
P           0.878553000000000    0.261120000000000    0.000000000000000 
P           0.878553000000000    0.617432000000000    0.000000000000000 
K           0.000000000000000    0.000000000000000    0.000000000000000 
K           0.000000000000000    0.000000000000000    0.500000000000000 
K           0.333333000000000    0.666667000000000    0.500000000000000 
K           0.666667000000000    0.333333000000000    0.000000000000000 
K           0.666667000000000    0.333333000000000    0.500000000000000 
%ENDBLOCK POSITIONS_FRAC
