# Cell file generated by matador (Matthew Evans 2016)

%BLOCK LATTICE_CART
9.40774 0.0 0.0
-4.70387 8.14734 0.0
0.0 0.0 6.31635
%ENDBLOCK LATTICE_CART

%BLOCK POSITIONS_FRAC
P           0.000000000000000    0.000000000000000    0.500000000000000 
P           0.333333000000000    0.666667000000000    0.000000000000000 
P           0.333333000000000    0.666667000000000    0.500000000000000 
K           0.000000000000000    0.000000000000000    0.000000000000000 
K           0.319902000000000    0.000690000000000    0.500000000000000 
K           0.319902000000000    0.319213000000000    0.500000000000000 
K           0.666667000000000    0.333333000000000    0.000000000000000 
K           0.666667000000000    0.333333000000000    0.500000000000000 
K           0.680787000000000    0.000690000000000    0.500000000000000 
K           0.680787000000000    0.680098000000000    0.500000000000000 
K           0.999310000000000    0.319213000000000    0.500000000000000 
K           0.999310000000000    0.680098000000000    0.500000000000000 
%ENDBLOCK POSITIONS_FRAC
