# Cell file generated by matador (Matthew Evans 2016)

%BLOCK LATTICE_CART
7.12713 0.0 0.0
0.0 7.12713 0.0
0.0 0.0 11.9971
%ENDBLOCK LATTICE_CART

%BLOCK POSITIONS_FRAC
P           0.000000000000000    0.500000000000000    0.150418000000000 
P           0.000000000000000    0.500000000000000    0.349582000000000 
P           0.000000000000000    0.500000000000000    0.650418000000000 
P           0.000000000000000    0.500000000000000    0.849582000000000 
P           0.500000000000000    0.000000000000000    0.150418000000000 
P           0.500000000000000    0.000000000000000    0.349582000000000 
P           0.500000000000000    0.000000000000000    0.650418000000000 
P           0.500000000000000    0.000000000000000    0.849582000000000 
K           0.000000000000000    0.000000000000000    0.000000000000000 
K           0.143840000000000    0.856160000000000    0.301550000000000 
K           0.143840000000000    0.856160000000000    0.698450000000000 
K           0.356160000000000    0.356160000000000    0.198450000000000 
K           0.356160000000000    0.356160000000000    0.801550000000000 
K           0.500000000000000    0.500000000000000    0.500000000000000 
K           0.643840000000000    0.643840000000000    0.198450000000000 
K           0.643840000000000    0.643840000000000    0.801550000000000 
K           0.856160000000000    0.143840000000000    0.301550000000000 
K           0.856160000000000    0.143840000000000    0.698450000000000 
%ENDBLOCK POSITIONS_FRAC
