# Cell file generated by matador (Matthew Evans 2016)

%BLOCK LATTICE_CART
6.94671 0.0 0.0
0.0 6.89974 0.0
-1.1927 0.0 5.88046
%ENDBLOCK LATTICE_CART

%BLOCK POSITIONS_FRAC
P           0.032704000000000    0.671150000000000    0.458475000000000 
P           0.047232000000000    0.155634000000000    0.882125000000000 
P           0.053435000000000    0.841875000000000    0.955272000000000 
P           0.121413000000000    0.878506000000000    0.482713000000000 
P           0.180795000000000    0.583604000000000    0.416439000000000 
P           0.405249000000000    0.429190000000000    0.091307000000000 
P           0.594751000000000    0.929190000000000    0.908693000000000 
P           0.819205000000000    0.083604000000000    0.583561000000000 
P           0.878587000000000    0.378506000000000    0.517287000000000 
P           0.946565000000000    0.341875000000000    0.044728000000000 
P           0.952768000000000    0.655634000000000    0.117875000000000 
P           0.967296000000000    0.171150000000000    0.541525000000000 
K           0.385323000000000    0.431891000000000    0.680788000000000 
K           0.614677000000000    0.931891000000000    0.319212000000000 
%ENDBLOCK POSITIONS_FRAC
