# Cell file generated by matador (Matthew Evans 2016)

%BLOCK LATTICE_CART
9.10477 0.0 0.0
0.0 9.51692 0.0
0.0 0.0 7.54903
%ENDBLOCK LATTICE_CART

%BLOCK POSITIONS_FRAC
P           0.000000000000000   -0.000000000000000    0.977967000000000 
P           0.000000000000000    0.500000000000000    0.477967000000000 
P           0.116608000000000    0.151092000000000    0.127126000000000 
P           0.116608000000000    0.651092000000000    0.627126000000000 
P           0.383392000000000    0.151092000000000    0.627126000000000 
P           0.383392000000000    0.651092000000000    0.127126000000000 
P           0.500000000000000   -0.000000000000000    0.477967000000000 
P           0.500000000000000    0.500000000000000    0.977967000000000 
P           0.616608000000000    0.348908000000000    0.127126000000000 
P           0.616608000000000    0.848908000000000    0.627126000000000 
P           0.883392000000000    0.348908000000000    0.627126000000000 
P           0.883392000000000    0.848908000000000    0.127126000000000 
K           0.006080000000000    0.265768000000000    0.364747000000000 
K           0.006080000000000    0.765768000000000    0.864747000000000 
K           0.493920000000000    0.265768000000000    0.864747000000000 
K           0.493920000000000    0.765768000000000    0.364747000000000 
K           0.506080000000000    0.234232000000000    0.364747000000000 
K           0.506080000000000    0.734232000000000    0.864747000000000 
K           0.993920000000000    0.234232000000000    0.864747000000000 
K           0.993920000000000    0.734232000000000    0.364747000000000 
%ENDBLOCK POSITIONS_FRAC
