# Cell file generated by matador (Matthew Evans 2016)

%BLOCK LATTICE_CART
5.04224 0.0 0.0
-3.15389 5.74528 0.0
-2.53764 0.108792 4.72831
%ENDBLOCK LATTICE_CART

%BLOCK POSITIONS_FRAC
P           0.000000000000000    0.000000000000000    0.500000000000000 
P           0.000000000000000    0.500000000000000    0.000000000000000 
P           0.002383000000000    0.331119000000000    0.842727000000000 
P           0.500000000000000    0.500000000000000    0.500000000000000 
P           0.997617000000000    0.668881000000000    0.157273000000000 
K           0.000000000000000    0.000000000000000    0.000000000000000 
K           0.500000000000000    0.500000000000000    0.000000000000000 
%ENDBLOCK POSITIONS_FRAC
