# Cell file generated by matador (Matthew Evans 2016)

%BLOCK LATTICE_CART
7.94449 0.0 0.0
-3.97225 6.88013 0.0
0.0 0.0 9.95474
%ENDBLOCK LATTICE_CART

%BLOCK POSITIONS_FRAC
P           0.333332000000000    0.666666000000000    0.383276000000000 
P           0.333332000000000    0.666666000000000    0.687057000000000 
P           0.666666000000000    0.333332000000000    0.187057000000000 
P           0.666666000000000    0.333332000000000    0.883276000000000 
K           0.036625000000000    0.518312000000000    0.809539000000000 
K           0.107435000000000    0.214871000000000    0.542088000000000 
K           0.107435000000000    0.892563000000000    0.542088000000000 
K           0.214871000000000    0.107435000000000    0.042088000000000 
K           0.333332000000000    0.666666000000000    0.975706000000000 
K           0.481686000000000    0.518312000000000    0.809539000000000 
K           0.481686000000000    0.963373000000000    0.809539000000000 
K           0.518312000000000    0.036625000000000    0.309539000000000 
K           0.518312000000000    0.481686000000000    0.309539000000000 
K           0.666666000000000    0.333332000000000    0.475706000000000 
K           0.785127000000000    0.892563000000000    0.542088000000000 
K           0.892563000000000    0.107435000000000    0.042088000000000 
K           0.892563000000000    0.785127000000000    0.042088000000000 
K           0.963373000000000    0.481686000000000    0.309539000000000 
%ENDBLOCK POSITIONS_FRAC
