# Cell file generated by matador (Matthew Evans 2016)

%BLOCK LATTICE_CART
6.508 0.0 0.0
-3.254 5.63609 0.0
0.0 0.0 7.16537
%ENDBLOCK LATTICE_CART

%BLOCK POSITIONS_FRAC
P           0.123139000000000    0.676048000000000    0.333180000000000 
P           0.323952000000000    0.447091000000000    0.333180000000000 
P           0.447091000000000    0.123139000000000    0.666820000000000 
P           0.552909000000000    0.876861000000000    0.333180000000000 
P           0.676048000000000    0.552909000000000    0.666820000000000 
P           0.876861000000000    0.323952000000000    0.666820000000000 
K           0.000000000000000    0.000000000000000    0.000000000000000 
K           0.000000000000000    0.000000000000000    0.500000000000000 
K           0.000000000000000    0.500000000000000    0.000000000000000 
K           0.500000000000000    0.000000000000000    0.000000000000000 
K           0.500000000000000    0.500000000000000    0.000000000000000 
%ENDBLOCK POSITIONS_FRAC
