# Cell file generated by matador (Matthew Evans 2016)

%BLOCK LATTICE_CART
11.049 0.0 0.0
-5.52451 9.56873 0.0
0.0 0.0 4.4209
%ENDBLOCK LATTICE_CART

%BLOCK POSITIONS_FRAC
P           0.000000000000000    0.000000000000000    0.236571000000000 
P           0.333333000000000    0.666667000000000    0.903237000000000 
P           0.666667000000000    0.333333000000000    0.569904000000000 
K           0.167968000000000    0.335936000000000    0.793293000000000 
K           0.167968000000000    0.832032000000000    0.793293000000000 
K           0.330731000000000    0.165365000000000    0.126627000000000 
K           0.501301000000000    0.002603000000000    0.459960000000000 
K           0.501301000000000    0.498699000000000    0.459960000000000 
K           0.664064000000000    0.832032000000000    0.793293000000000 
K           0.834635000000000    0.165365000000000    0.126627000000000 
K           0.834635000000000    0.669269000000000    0.126627000000000 
K           0.997397000000000    0.498699000000000    0.459960000000000 
%ENDBLOCK POSITIONS_FRAC
