# Cell file generated by matador (Matthew Evans 2016)

%BLOCK LATTICE_CART
10.416 0.0 0.0
0.0 6.17312 0.0
3.95116 0.0 7.87451
%ENDBLOCK LATTICE_CART

%BLOCK POSITIONS_FRAC
P           0.000000000000000    0.000000000000000   -0.000000000000000 
P           0.000000000000000    0.000000000000000    0.500000000000000 
P           0.000000000000000    0.170903000000000    0.250000000000000 
P           0.000000000000000    0.500000000000000   -0.000000000000000 
P           0.000000000000000    0.500000000000000    0.500000000000000 
P           0.000000000000000    0.829097000000000    0.750000000000000 
P           0.339069000000000    0.050205000000000    0.917665000000000 
P           0.339069000000000    0.949795000000000    0.417665000000000 
P           0.500000000000000    0.000000000000000   -0.000000000000000 
P           0.500000000000000    0.000000000000000    0.500000000000000 
P           0.500000000000000    0.500000000000000   -0.000000000000000 
P           0.500000000000000    0.500000000000000    0.500000000000000 
P           0.660931000000000    0.050205000000000    0.582335000000000 
P           0.660931000000000    0.949795000000000    0.082335000000000 
K           0.337683000000000    0.447832000000000    0.241331000000000 
K           0.337683000000000    0.552168000000000    0.741331000000000 
K           0.662317000000000    0.447832000000000    0.258669000000000 
K           0.662317000000000    0.552168000000000    0.758669000000000 
%ENDBLOCK POSITIONS_FRAC
