# Cell file generated by matador (Matthew Evans 2016)

%BLOCK LATTICE_CART
5.91398 0.0 0.0
0.0 5.91398 0.0
0.0 0.0 9.05577
%ENDBLOCK LATTICE_CART

%BLOCK POSITIONS_FRAC
P           0.000000000000000    0.500000000000000    0.052490000000000 
P           0.000000000000000    0.500000000000000    0.246344000000000 
P           0.000000000000000    0.500000000000000    0.565625000000000 
P           0.500000000000000    0.000000000000000    0.052490000000000 
P           0.500000000000000    0.000000000000000    0.246344000000000 
P           0.500000000000000    0.000000000000000    0.565625000000000 
K           0.000000000000000    0.500000000000000    0.789352000000000 
K           0.288704000000000    0.300120000000000    0.039916000000000 
K           0.300120000000000    0.711296000000000    0.039916000000000 
K           0.500000000000000    0.000000000000000    0.789352000000000 
K           0.500000000000000    0.500000000000000    0.773936000000000 
K           0.699880000000000    0.288704000000000    0.039916000000000 
K           0.711296000000000    0.699880000000000    0.039916000000000 
%ENDBLOCK POSITIONS_FRAC
