# Cell file generated by matador (Matthew Evans 2016)

%BLOCK LATTICE_CART
6.46677 0.0 0.0
-3.23339 5.60039 0.0
0.0 0.0 7.30904
%ENDBLOCK LATTICE_CART

%BLOCK POSITIONS_FRAC
P           0.230126000000000    0.510135000000000    0.539485000000000 
P           0.280010000000000    0.769874000000000    0.872818000000000 
P           0.489865000000000    0.719990000000000    0.206151000000000 
P           0.510135000000000    0.230126000000000    0.460515000000000 
P           0.719990000000000    0.489865000000000    0.793848000000000 
P           0.769874000000000    0.280010000000000    0.127181000000000 
K           0.000000000000000    0.131248000000000    0.833333000000000 
K           0.131248000000000    0.000000000000000    0.166666000000000 
K           0.868752000000000    0.868752000000000    0.500000000000000 
%ENDBLOCK POSITIONS_FRAC
