# Cell file generated by matador (Matthew Evans 2016)

%BLOCK LATTICE_CART
5.32999 0.0 0.0
0.0 5.27329 0.0
0.258877 0.0 5.31394
%ENDBLOCK LATTICE_CART

%BLOCK POSITIONS_FRAC
P           0.000000000000000    0.774907000000000    0.500000000000000 
P           0.500000000000000    0.269951000000000    0.000000000000000 
P           0.500000000000000    0.467548000000000    0.000000000000000 
K           0.179865000000000    0.432992000000000    0.322612000000000 
K           0.820135000000000    0.432992000000000    0.677388000000000 
%ENDBLOCK POSITIONS_FRAC
