# Cell file generated by matador (Matthew Evans 2016)

%BLOCK LATTICE_CART
5.17907 0.0 0.0
-2.58953 4.48521 0.0
0.0 0.0 18.5253
%ENDBLOCK LATTICE_CART

%BLOCK POSITIONS_FRAC
P           0.000000000000000    0.000000000000000    0.279291000000000 
P           0.000000000000000    0.000000000000000    0.742900000000000 
P           0.058140000000000    0.582076000000000    0.696757000000000 
P           0.333333000000000    0.666667000000000    0.561321000000000 
P           0.417924000000000    0.476065000000000    0.696757000000000 
P           0.523935000000000    0.941860000000000    0.696757000000000 
P           0.666667000000000    0.333333000000000    0.050759000000000 
P           0.666667000000000    0.333333000000000    0.207016000000000 
K           0.000000000000000    0.000000000000000    0.034084000000000 
K           0.436025000000000    0.025936000000000    0.335359000000000 
K           0.589911000000000    0.563975000000000    0.335359000000000 
K           0.666667000000000    0.333333000000000    0.555140000000000 
K           0.666667000000000    0.333333000000000    0.811378000000000 
K           0.974064000000000    0.410089000000000    0.335359000000000 
%ENDBLOCK POSITIONS_FRAC
