# Cell file generated by matador (Matthew Evans 2016)

%BLOCK LATTICE_CART
5.829 0.0 0.0
0.0 9.1933 0.0
0.0 0.0 10.9873
%ENDBLOCK LATTICE_CART

%BLOCK POSITIONS_FRAC
P           0.189689000000000    0.188451000000000    0.467944000000000 
P           0.310311000000000    0.811549000000000    0.967944000000000 
P           0.689689000000000    0.811549000000000    0.967944000000000 
P           0.810311000000000    0.188451000000000    0.467944000000000 
K           0.000000000000000    0.053512000000000    0.914300000000000 
K           0.000000000000000    0.389111000000000    0.029408000000000 
K           0.000000000000000    0.411544000000000    0.756802000000000 
K           0.000000000000000    0.532183000000000    0.424593000000000 
K           0.000000000000000    0.750099000000000    0.662502000000000 
K           0.000000000000000    0.853458000000000    0.161689000000000 
K           0.500000000000000    0.146542000000000    0.661689000000000 
K           0.500000000000000    0.249901000000000    0.162502000000000 
K           0.500000000000000    0.467817000000000    0.924593000000000 
K           0.500000000000000    0.588456000000000    0.256802000000000 
K           0.500000000000000    0.610889000000000    0.529408000000000 
K           0.500000000000000    0.946488000000000    0.414300000000000 
%ENDBLOCK POSITIONS_FRAC
