# Cell file generated by matador (Matthew Evans 2016)

%BLOCK LATTICE_CART
6.76235 -0.0 0.0
-3.38117 5.85636 0.0
0.0 0.0 6.45837
%ENDBLOCK LATTICE_CART

%BLOCK POSITIONS_FRAC
P           0.000000000000000    0.000000000000000    0.759327000000000 
P           0.333333000000000    0.666667000000000    0.313296000000000 
K           0.013729000000000    0.326505000000000    0.478619000000000 
K           0.312777000000000    0.986271000000000    0.478619000000000 
K           0.333333000000000    0.666667000000000    0.907116000000000 
K           0.666667000000000    0.333333000000000    0.474510000000000 
K           0.673495000000000    0.687223000000000    0.478619000000000 
%ENDBLOCK POSITIONS_FRAC
