# Cell file generated by matador (Matthew Evans 2016)

%BLOCK LATTICE_CART
6.88688 0.0 0.0
0.0 9.44667 0.0
3.86768 0.0 8.69064
%ENDBLOCK LATTICE_CART

%BLOCK POSITIONS_FRAC
P           0.000000000000000    0.954753000000000    0.000000000000000 
P           0.187220000000000    0.455728000000000    0.115807000000000 
P           0.212057000000000    0.945831000000000    0.680692000000000 
P           0.234103000000000    0.106454000000000    0.190466000000000 
P           0.265897000000000    0.606454000000000    0.809534000000000 
P           0.287943000000000    0.445831000000000    0.319308000000000 
P           0.312780000000000    0.955728000000000    0.884193000000000 
P           0.500000000000000    0.454753000000000    0.000000000000000 
P           0.687220000000000    0.955728000000000    0.115807000000000 
P           0.712057000000000    0.445831000000000    0.680692000000000 
P           0.734103000000000    0.606454000000000    0.190466000000000 
P           0.765897000000000    0.106454000000000    0.809534000000000 
P           0.787943000000000    0.945831000000000    0.319308000000000 
P           0.812780000000000    0.455728000000000    0.884193000000000 
K           0.000000000000000    0.502119000000000    0.000000000000000 
K           0.500000000000000    0.002119000000000    0.000000000000000 
%ENDBLOCK POSITIONS_FRAC
