# Cell file generated by matador (Matthew Evans 2016)

%BLOCK LATTICE_CART
6.8392 0.0 0.0
-3.4196 5.92292 0.0
0.0 0.0 10.5162
%ENDBLOCK LATTICE_CART

%BLOCK POSITIONS_FRAC
P           0.000000000000000    0.000000000000000    0.151975000000000 
P           0.000000000000000    0.000000000000000    0.374550000000000 
P           0.333333000000000    0.666667000000000    0.041217000000000 
P           0.333333000000000    0.666667000000000    0.818642000000000 
P           0.666667000000000    0.333333000000000    0.485309000000000 
P           0.666667000000000    0.333333000000000    0.707884000000000 
K           0.208983000000000    0.417965000000000    0.230345000000000 
K           0.208983000000000    0.791017000000000    0.230345000000000 
K           0.248701000000000    0.124351000000000    0.563678000000000 
K           0.542316000000000    0.084632000000000    0.897011000000000 
K           0.542316000000000    0.457684000000000    0.897011000000000 
K           0.582035000000000    0.791017000000000    0.230345000000000 
K           0.875649000000000    0.124351000000000    0.563678000000000 
K           0.875649000000000    0.751299000000000    0.563678000000000 
K           0.915368000000000    0.457684000000000    0.897011000000000 
%ENDBLOCK POSITIONS_FRAC
