# Cell file generated by matador (Matthew Evans 2016)

%BLOCK LATTICE_CART
8.1676 0.0 0.0
-4.0838 7.07335 0.0
0.0 0.0 8.29875
%ENDBLOCK LATTICE_CART

%BLOCK POSITIONS_FRAC
P           0.240332000000000    0.480663000000000    0.000000000000000 
P           0.240332000000000    0.759668000000000    0.000000000000000 
P           0.519337000000000    0.759668000000000    0.000000000000000 
P           0.666667000000000    0.333333000000000    0.000000000000000 
P           0.666667000000000    0.333333000000000    0.431415000000000 
P           0.666667000000000    0.333333000000000    0.568585000000000 
K           0.000000000000000   -0.000000000000000    0.000000000000000 
K           0.000000000000000   -0.000000000000000    0.500000000000000 
K           0.333334000000000    0.666666000000000    0.500000000000000 
K           0.398749000000000    0.048518000000000    0.000000000000000 
K           0.398749000000000    0.350231000000000    0.000000000000000 
K           0.649769000000000    0.048518000000000    0.000000000000000 
K           0.649769000000000    0.601251000000000    0.000000000000000 
K           0.951482000000000    0.350231000000000    0.000000000000000 
K           0.951482000000000    0.601251000000000    0.000000000000000 
%ENDBLOCK POSITIONS_FRAC
