# Cell file generated by matador (Matthew Evans 2016)

%BLOCK LATTICE_CART
8.06634 0.0 0.0
0.0 8.06634 0.0
0.0 0.0 6.01799
%ENDBLOCK LATTICE_CART

%BLOCK POSITIONS_FRAC
P           0.000000000000000    0.000000000000000    0.000000000000000 
P           0.000000000000000    0.000000000000000    0.500000000000000 
P           0.500000000000000    0.500000000000000    0.500000000000000 
K           0.288326000000000    0.288326000000000    0.762609000000000 
K           0.288326000000000    0.711674000000000    0.237391000000000 
K           0.304605000000000    0.304605000000000    0.133046000000000 
K           0.304605000000000    0.695395000000000    0.866954000000000 
K           0.500000000000000    0.500000000000000    0.000000000000000 
K           0.695395000000000    0.304605000000000    0.866954000000000 
K           0.695395000000000    0.695395000000000    0.133046000000000 
K           0.711674000000000    0.288326000000000    0.237391000000000 
K           0.711674000000000    0.711674000000000    0.762609000000000 
%ENDBLOCK POSITIONS_FRAC
