# Cell file generated by matador (Matthew Evans 2016)

%BLOCK LATTICE_CART
6.331 0.0 0.0
-3.1655 5.4828 0.0
0.0 0.0 3.39619
%ENDBLOCK LATTICE_CART

%BLOCK POSITIONS_FRAC
P           0.537638000000000    0.075277000000000    0.500000000000000 
P           0.537638000000000    0.462362000000000    0.500000000000000 
P           0.924723000000000    0.462362000000000    0.500000000000000 
K           0.000000000000000    0.000000000000000    0.500000000000000 
K           0.666667000000000    0.333333000000000    0.000000000000000 
%ENDBLOCK POSITIONS_FRAC
