# Cell file generated by matador (Matthew Evans 2016)

%BLOCK LATTICE_CART
9.21648 -0.0 0.0
-4.60824 7.9817 0.0
0.0 0.0 7.87794
%ENDBLOCK LATTICE_CART

%BLOCK POSITIONS_FRAC
P           0.000000000000000    0.000000000000000    0.255504000000000 
P           0.000000000000000    0.000000000000000    0.588838000000000 
P           0.000000000000000    0.000000000000000    0.922171000000000 
P           0.000000000000000    0.500000000000000    0.113109000000000 
P           0.000000000000000    0.500000000000000    0.811224000000000 
P           0.500000000000000    0.000000000000000    0.477891000000000 
P           0.500000000000000    0.000000000000000    0.779775000000000 
P           0.500000000000000    0.500000000000000    0.144557000000000 
P           0.500000000000000    0.500000000000000    0.446442000000000 
K           0.163276000000000    0.458461000000000    0.368091000000000 
K           0.295185000000000    0.836724000000000    0.034758000000000 
K           0.458461000000000    0.295185000000000    0.701425000000000 
K           0.541539000000000    0.704815000000000    0.701425000000000 
K           0.704815000000000    0.163276000000000    0.034758000000000 
K           0.836724000000000    0.541539000000000    0.368091000000000 
%ENDBLOCK POSITIONS_FRAC
