# Cell file generated by matador (Matthew Evans 2016)

%BLOCK LATTICE_CART
7.41984 0.0 0.0
0.737494 6.84744 0.0
-1.84348 -0.0563119 7.52788
%ENDBLOCK LATTICE_CART

%BLOCK POSITIONS_FRAC
P           0.016842000000000    0.705709000000000    0.327085000000000 
P           0.271323000000000    0.370960000000000    0.372420000000000 
P           0.331643000000000    0.234025000000000    0.909801000000000 
P           0.668357000000000    0.765975000000000    0.090199000000000 
P           0.728677000000000    0.629040000000000    0.627580000000000 
P           0.983158000000000    0.294291000000000    0.672915000000000 
K           0.000000000000000    0.000000000000000    0.000000000000000 
K           0.000000000000000    0.000000000000000    0.500000000000000 
K           0.000000000000000    0.500000000000000    0.000000000000000 
K           0.000000000000000    0.500000000000000    0.500000000000000 
K           0.500000000000000    0.000000000000000    0.000000000000000 
K           0.500000000000000    0.000000000000000    0.500000000000000 
K           0.500000000000000    0.500000000000000    0.000000000000000 
K           0.500000000000000    0.500000000000000    0.500000000000000 
%ENDBLOCK POSITIONS_FRAC
