# Cell file generated by matador (Matthew Evans 2016)

%BLOCK LATTICE_CART
6.38163 0.0 0.0
0.0 6.38163 0.0
0.0 0.0 8.5851
%ENDBLOCK LATTICE_CART

%BLOCK POSITIONS_FRAC
P           0.221607000000000    0.221607000000000    0.000000000000000 
P           0.278393000000000    0.721607000000000    0.500000000000000 
P           0.721607000000000    0.278393000000000    0.500000000000000 
P           0.778393000000000    0.778393000000000    0.000000000000000 
K           0.000000000000000    0.000000000000000    0.000000000000000 
K           0.000000000000000    0.000000000000000    0.500000000000000 
K           0.000000000000000    0.500000000000000    0.000000000000000 
K           0.000000000000000    0.500000000000000    0.500000000000000 
K           0.500000000000000    0.000000000000000    0.000000000000000 
K           0.500000000000000    0.000000000000000    0.500000000000000 
K           0.500000000000000    0.500000000000000    0.000000000000000 
K           0.500000000000000    0.500000000000000    0.500000000000000 
%ENDBLOCK POSITIONS_FRAC
