# Cell file generated by matador (Matthew Evans 2016)

%BLOCK LATTICE_CART
8.129 0.0 0.0
0.0 8.129 0.0
0.0 0.0 7.31415
%ENDBLOCK LATTICE_CART

%BLOCK POSITIONS_FRAC
P           0.000000000000000    0.000000000000000    0.500000000000000 
P           0.500000000000000    0.500000000000000    0.000000000000000 
K           0.000000000000000    0.000000000000000    0.000000000000000 
K           0.000000000000000    0.258068000000000    0.831100000000000 
K           0.000000000000000    0.741932000000000    0.831100000000000 
K           0.241932000000000    0.500000000000000    0.331100000000000 
K           0.258068000000000    0.000000000000000    0.168900000000000 
K           0.500000000000000    0.241932000000000    0.668900000000000 
K           0.500000000000000    0.500000000000000    0.500000000000000 
K           0.500000000000000    0.758068000000000    0.668900000000000 
K           0.741932000000000    0.000000000000000    0.168900000000000 
K           0.758068000000000    0.500000000000000    0.331100000000000 
%ENDBLOCK POSITIONS_FRAC
