# Cell file generated by matador (Matthew Evans 2016)

%BLOCK LATTICE_CART
7.88224 0.0 0.0
0.0 7.88224 0.0
0.0 0.0 7.88224
%ENDBLOCK LATTICE_CART

%BLOCK POSITIONS_FRAC
P           0.000000000000000    0.500000000000000    0.135746000000000 
P           0.000000000000000    0.500000000000000    0.364254000000000 
P           0.000000000000000    0.500000000000000    0.635746000000000 
P           0.000000000000000    0.500000000000000    0.864254000000000 
P           0.135746000000000    0.000000000000000    0.500000000000000 
P           0.364254000000000    0.000000000000000    0.500000000000000 
P           0.500000000000000    0.135746000000000    0.000000000000000 
P           0.500000000000000    0.364254000000000    0.000000000000000 
P           0.500000000000000    0.635746000000000    0.000000000000000 
P           0.500000000000000    0.864254000000000    0.000000000000000 
P           0.635746000000000    0.000000000000000    0.500000000000000 
P           0.864254000000000    0.000000000000000    0.500000000000000 
K           0.000000000000000    0.000000000000000    0.000000000000000 
K           0.500000000000000    0.500000000000000    0.500000000000000 
%ENDBLOCK POSITIONS_FRAC
