# Cell file generated by matador (Matthew Evans 2016)

%BLOCK LATTICE_CART
7.51055 0.0 0.0
0.0 7.51055 0.0
0.0 0.0 9.36403
%ENDBLOCK LATTICE_CART

%BLOCK POSITIONS_FRAC
P           0.199154000000000    0.199154000000000    0.099428000000000 
P           0.199154000000000    0.199154000000000    0.900572000000000 
P           0.199154000000000    0.800846000000000    0.099428000000000 
P           0.199154000000000    0.800846000000000    0.900572000000000 
P           0.500000000000000    0.500000000000000    0.000000000000000 
P           0.500000000000000    0.500000000000000    0.500000000000000 
P           0.800846000000000    0.199154000000000    0.099428000000000 
P           0.800846000000000    0.199154000000000    0.900572000000000 
P           0.800846000000000    0.800846000000000    0.099428000000000 
P           0.800846000000000    0.800846000000000    0.900572000000000 
K           0.284127000000000    0.500000000000000    0.247610000000000 
K           0.284127000000000    0.500000000000000    0.752390000000000 
K           0.500000000000000    0.284127000000000    0.247610000000000 
K           0.500000000000000    0.284127000000000    0.752390000000000 
K           0.500000000000000    0.715873000000000    0.247610000000000 
K           0.500000000000000    0.715873000000000    0.752390000000000 
K           0.715873000000000    0.500000000000000    0.247610000000000 
K           0.715873000000000    0.500000000000000    0.752390000000000 
%ENDBLOCK POSITIONS_FRAC
