# Cell file generated by matador (Matthew Evans 2016)

%BLOCK LATTICE_CART
5.15385 0.0 0.0
-2.57693 4.46337 0.0
0.0 0.0 3.74587
%ENDBLOCK LATTICE_CART

%BLOCK POSITIONS_FRAC
P           0.000000000000000    0.442437000000000    0.000000000000000 
P           0.442437000000000    0.000000000000000    0.000000000000000 
P           0.557563000000000    0.557563000000000    0.000000000000000 
K           0.000000000000000    0.000000000000000    0.500000000000000 
%ENDBLOCK POSITIONS_FRAC
