# Cell file generated by matador (Matthew Evans 2016)

%BLOCK LATTICE_CART
6.39784 0.0 0.0
0.0 7.53947 0.0
0.0 0.0 7.1275
%ENDBLOCK LATTICE_CART

%BLOCK POSITIONS_FRAC
P           0.439170000000000    0.471610000000000    0.590107000000000 
P           0.439170000000000    0.528390000000000    0.409893000000000 
P           0.560830000000000    0.471610000000000    0.909893000000000 
P           0.560830000000000    0.528390000000000    0.090107000000000 
K           0.113310000000000    0.500000000000000    0.500000000000000 
K           0.120818000000000    0.000000000000000    0.000000000000000 
K           0.128258000000000    0.262642000000000    0.947209000000000 
K           0.128258000000000    0.737358000000000    0.052791000000000 
K           0.871742000000000    0.262642000000000    0.552791000000000 
K           0.871742000000000    0.737358000000000    0.447209000000000 
K           0.879182000000000    0.000000000000000    0.500000000000000 
K           0.886690000000000    0.500000000000000    0.000000000000000 
%ENDBLOCK POSITIONS_FRAC
