# Cell file generated by matador (Matthew Evans 2016)

%BLOCK LATTICE_CART
7.283 0.0 0.0
-3.6415 6.30726 0.0
0.0 0.0 14.6944
%ENDBLOCK LATTICE_CART

%BLOCK POSITIONS_FRAC
P           0.000001000000000    0.000001000000000    0.209098000000000 
P           0.000001000000000    0.000001000000000    0.327695000000000 
P           0.000001000000000    0.000001000000000    0.709098000000000 
P           0.000001000000000    0.000001000000000    0.827695000000000 
P           0.000001000000000    0.097439000000000    0.257263000000000 
P           0.000001000000000    0.902563000000000    0.757263000000000 
P           0.097439000000000    0.000001000000000    0.257263000000000 
P           0.097439000000000    0.097439000000000    0.757263000000000 
P           0.333334000000000    0.666668000000000    0.212158000000000 
P           0.333334000000000    0.666668000000000    0.712158000000000 
P           0.666668000000000    0.333334000000000    0.212158000000000 
P           0.666668000000000    0.333334000000000    0.712158000000000 
P           0.902563000000000    0.000001000000000    0.757263000000000 
P           0.902563000000000    0.902563000000000    0.257263000000000 
K           0.333334000000000    0.666668000000000    0.409906000000000 
K           0.333334000000000    0.666668000000000    0.909906000000000 
K           0.666668000000000    0.333334000000000    0.409906000000000 
K           0.666668000000000    0.333334000000000    0.909906000000000 
%ENDBLOCK POSITIONS_FRAC
