# Cell file generated by matador (Matthew Evans 2016)

%BLOCK LATTICE_CART
7.5638 0.0 0.0
0.0 7.21874 0.0
0.688669 0.0 6.13904
%ENDBLOCK LATTICE_CART

%BLOCK POSITIONS_FRAC
P           0.000000000000000    0.000000000000000    0.000000000000000 
P           0.000000000000000    0.500000000000000    0.000000000000000 
P           0.234144000000000    0.160507000000000    0.315489000000000 
P           0.234144000000000    0.339493000000000    0.315489000000000 
P           0.500000000000000    0.000000000000000    0.000000000000000 
P           0.500000000000000    0.000000000000000    0.500000000000000 
P           0.500000000000000    0.500000000000000    0.000000000000000 
P           0.500000000000000    0.500000000000000    0.500000000000000 
P           0.765856000000000    0.660507000000000    0.684511000000000 
P           0.765856000000000    0.839493000000000    0.684511000000000 
K           0.434909000000000    0.750000000000000    0.251713000000000 
K           0.565091000000000    0.250000000000000    0.748287000000000 
%ENDBLOCK POSITIONS_FRAC
