# Cell file generated by matador (Matthew Evans 2016)

%BLOCK LATTICE_CART
6.58995 0.0 0.0
-3.29497 5.70706 0.0
0.0 0.0 7.91497
%ENDBLOCK LATTICE_CART

%BLOCK POSITIONS_FRAC
P           0.000000000000000    0.000000000000000    0.008650000000000 
P           0.666667000000000    0.333333000000000    0.252833000000000 
P           0.666667000000000    0.333333000000000    0.567670000000000 
P           0.666667000000000    0.333333000000000    0.722269000000000 
K           0.000000000000000    0.000000000000000    0.535653000000000 
K           0.120461000000000    0.560230000000000    0.625873000000000 
K           0.155434000000000    0.310868000000000    0.381132000000000 
K           0.155434000000000    0.844566000000000    0.381132000000000 
K           0.439770000000000    0.560230000000000    0.625873000000000 
K           0.439770000000000    0.879539000000000    0.625873000000000 
K           0.689132000000000    0.844566000000000    0.381132000000000 
%ENDBLOCK POSITIONS_FRAC
