# Cell file generated by matador (Matthew Evans 2016)

%BLOCK LATTICE_CART
6.37054 0.0 0.0
0.0 6.37054 0.0
0.0 0.0 7.69805
%ENDBLOCK LATTICE_CART

%BLOCK POSITIONS_FRAC
P           0.000000000000000    0.000000000000000    0.368592000000000 
P           0.000000000000000    0.000000000000000    0.576791000000000 
P           0.000000000000000    0.000000000000000    0.746886000000000 
P           0.500000000000000    0.500000000000000    0.076791000000000 
P           0.500000000000000    0.500000000000000    0.246886000000000 
P           0.500000000000000    0.500000000000000    0.868592000000000 
K           0.000000000000000    0.500000000000000    0.171260000000000 
K           0.000000000000000    0.500000000000000    0.671260000000000 
K           0.500000000000000    0.000000000000000    0.171260000000000 
K           0.500000000000000    0.000000000000000    0.671260000000000 
%ENDBLOCK POSITIONS_FRAC
