# Cell file generated by matador (Matthew Evans 2016)

%BLOCK LATTICE_CART
4.08401 0.0 0.0
0.0 10.1493 0.0
0.0 0.0 9.59222
%ENDBLOCK LATTICE_CART

%BLOCK POSITIONS_FRAC
P           0.106154000000000    0.033679000000000    0.945127000000000 
P           0.106154000000000    0.966321000000000    0.054873000000000 
P           0.290471000000000    0.000000000000000    0.500000000000000 
P           0.500000000000000    0.238948000000000    0.750000000000000 
P           0.500000000000000    0.463247000000000    0.750000000000000 
P           0.500000000000000    0.536753000000000    0.250000000000000 
P           0.500000000000000    0.761052000000000    0.250000000000000 
P           0.709529000000000    0.000000000000000    0.000000000000000 
P           0.893846000000000    0.033679000000000    0.554873000000000 
P           0.893846000000000    0.966321000000000    0.445127000000000 
K           0.057278000000000    0.411592000000000    0.890298000000000 
K           0.057278000000000    0.588408000000000    0.109702000000000 
K           0.942722000000000    0.411592000000000    0.609702000000000 
K           0.942722000000000    0.588408000000000    0.390298000000000 
%ENDBLOCK POSITIONS_FRAC
