# Cell file generated by matador (Matthew Evans 2016)

%BLOCK LATTICE_CART
7.84584 0.0 0.0
0.0 9.34762 0.0
0.0 0.0 6.40201
%ENDBLOCK LATTICE_CART

%BLOCK POSITIONS_FRAC
P           0.000000000000000    0.500000000000000    0.000000000000000 
P           0.000000000000000    0.500000000000000    0.500000000000000 
P           0.500000000000000    0.500000000000000    0.500000000000000 
K           0.000000000000000    0.000000000000000    0.000000000000000 
K           0.000000000000000    0.000000000000000    0.500000000000000 
K           0.198926000000000    0.500000000000000    0.258576000000000 
K           0.198926000000000    0.500000000000000    0.741424000000000 
K           0.500000000000000    0.000000000000000    0.000000000000000 
K           0.500000000000000    0.000000000000000    0.500000000000000 
K           0.500000000000000    0.500000000000000    0.000000000000000 
K           0.801074000000000    0.500000000000000    0.258576000000000 
K           0.801074000000000    0.500000000000000    0.741424000000000 
%ENDBLOCK POSITIONS_FRAC
