# Cell file generated by matador (Matthew Evans 2016)

%BLOCK LATTICE_CART
8.17457 0.0 0.0
0.0 5.7744 0.0
-2.58693 0.0 12.1822
%ENDBLOCK LATTICE_CART

%BLOCK POSITIONS_FRAC
P           0.303441000000000    0.250000000000000    0.486100000000000 
P           0.500000000000000    0.000000000000000    0.000000000000000 
P           0.500000000000000    0.500000000000000    0.000000000000000 
P           0.696559000000000    0.750000000000000    0.513900000000000 
K           0.000000000000000    0.000000000000000    0.000000000000000 
K           0.000000000000000    0.000000000000000    0.500000000000000 
K           0.000000000000000    0.500000000000000    0.000000000000000 
K           0.000000000000000    0.500000000000000    0.500000000000000 
K           0.082217000000000    0.750000000000000    0.299602000000000 
K           0.228455000000000    0.250000000000000    0.879267000000000 
K           0.266923000000000    0.750000000000000    0.780640000000000 
K           0.500000000000000    0.000000000000000    0.500000000000000 
K           0.500000000000000    0.500000000000000    0.500000000000000 
K           0.733077000000000    0.250000000000000    0.219360000000000 
K           0.771545000000000    0.750000000000000    0.120733000000000 
K           0.917783000000000    0.250000000000000    0.700398000000000 
%ENDBLOCK POSITIONS_FRAC
