# Cell file generated by matador (Matthew Evans 2016)

%BLOCK LATTICE_CART
8.38605 0.0 0.0
0.0 8.38605 0.0
0.0 0.0 8.38605
%ENDBLOCK LATTICE_CART

%BLOCK POSITIONS_FRAC
P           0.000000000000000    0.000000000000000    0.000000000000000 
P           0.500000000000000    0.500000000000000    0.500000000000000 
K           0.000000000000000    0.000000000000000    0.500000000000000 
K           0.000000000000000    0.500000000000000    0.000000000000000 
K           0.000000000000000    0.500000000000000    0.500000000000000 
K           0.142573000000000    0.142573000000000    0.142573000000000 
K           0.142573000000000    0.857427000000000    0.857427000000000 
K           0.357427000000000    0.357427000000000    0.642573000000000 
K           0.357427000000000    0.642573000000000    0.357427000000000 
K           0.500000000000000    0.000000000000000    0.000000000000000 
K           0.500000000000000    0.000000000000000    0.500000000000000 
K           0.500000000000000    0.500000000000000    0.000000000000000 
K           0.642573000000000    0.357427000000000    0.357427000000000 
K           0.642573000000000    0.642573000000000    0.642573000000000 
K           0.857427000000000    0.142573000000000    0.857427000000000 
K           0.857427000000000    0.857427000000000    0.142573000000000 
%ENDBLOCK POSITIONS_FRAC
