# Cell file generated by matador (Matthew Evans 2016)

%BLOCK LATTICE_CART
7.12197 0.0 0.0
0.0 6.96212 0.0
-2.86544 0.0 6.45405
%ENDBLOCK LATTICE_CART

%BLOCK POSITIONS_FRAC
P           0.434100000000000    0.159247000000000    0.058865000000000 
P           0.434100000000000    0.840753000000000    0.058865000000000 
K           0.104572000000000    0.000000000000000    0.757786000000000 
K           0.294531000000000    0.000000000000000    0.203320000000000 
K           0.447276000000000    0.000000000000000    0.644731000000000 
K           0.498065000000000    0.500000000000000    0.332189000000000 
K           0.750276000000000    0.000000000000000    0.363921000000000 
K           0.838093000000000    0.000000000000000    0.993921000000000 
%ENDBLOCK POSITIONS_FRAC
