# Cell file generated by matador (Matthew Evans 2016)

%BLOCK LATTICE_CART
7.20917 0.0 0.0
-3.60459 6.24333 0.0
0.0 0.0 15.2021
%ENDBLOCK LATTICE_CART

%BLOCK POSITIONS_FRAC
P           0.000000000000000    0.500000000000000    0.000000000000000 
P           0.000000000000000    0.500000000000000    0.500000000000000 
P           0.333333000000000    0.666667000000000    0.585190000000000 
P           0.500000000000000    0.000000000000000    0.000000000000000 
P           0.500000000000000    0.000000000000000    0.500000000000000 
P           0.500000000000000    0.500000000000000    0.000000000000000 
P           0.500000000000000    0.500000000000000    0.500000000000000 
P           0.666667000000000    0.333333000000000    0.414810000000000 
K           0.000000000000000    0.000000000000000    0.000000000000000 
K           0.000000000000000    0.000000000000000    0.500000000000000 
K           0.044880000000000    0.638412000000000    0.154258000000000 
K           0.333333000000000    0.666667000000000    0.250262000000000 
K           0.361588000000000    0.406468000000000    0.154258000000000 
K           0.406468000000000    0.044880000000000    0.845742000000000 
K           0.593532000000000    0.955120000000000    0.154258000000000 
K           0.638412000000000    0.593532000000000    0.845742000000000 
K           0.666667000000000    0.333333000000000    0.749738000000000 
K           0.955120000000000    0.361588000000000    0.845742000000000 
%ENDBLOCK POSITIONS_FRAC
