# Cell file generated by matador (Matthew Evans 2016)

%BLOCK LATTICE_CART
5.88409 0.0 0.0
0.0 8.64306 0.0
-0.969059 0.0 9.13225
%ENDBLOCK LATTICE_CART

%BLOCK POSITIONS_FRAC
P           0.067641000000000    0.520656000000000    0.366522000000000 
P           0.125449000000000    0.651730000000000    0.524083000000000 
P           0.140690000000000    0.829831000000000    0.002699000000000 
P           0.159505000000000    0.756096000000000    0.427713000000000 
P           0.469155000000000    0.449905000000000    0.693028000000000 
P           0.530845000000000    0.449905000000000    0.306972000000000 
P           0.840495000000000    0.756096000000000    0.572287000000000 
P           0.859310000000000    0.829831000000000    0.997301000000000 
P           0.874551000000000    0.651730000000000    0.475917000000000 
P           0.932359000000000    0.520656000000000    0.633478000000000 
K           0.000000000000000    0.233791000000000    0.500000000000000 
K           0.142994000000000    0.331560000000000    0.729755000000000 
K           0.168279000000000    0.307143000000000    0.168182000000000 
K           0.500000000000000    0.282471000000000    0.000000000000000 
K           0.831721000000000    0.307143000000000    0.831818000000000 
K           0.857006000000000    0.331560000000000    0.270245000000000 
%ENDBLOCK POSITIONS_FRAC
