# Cell file generated by matador (Matthew Evans 2016)

%BLOCK LATTICE_CART
4.49627 0.0 0.0
-2.92222 7.30472 0.0
2.73293 -1.582 7.44876
%ENDBLOCK LATTICE_CART

%BLOCK POSITIONS_FRAC
P           0.000000000000000    0.500000000000000    0.500000000000000 
P           0.308836000000000    0.505915000000000    0.581096000000000 
P           0.448086000000000    0.231448000000000    0.750270000000000 
P           0.478775000000000    0.417805000000000    0.636225000000000 
P           0.521225000000000    0.582195000000000    0.363775000000000 
P           0.551914000000000    0.768552000000000    0.249730000000000 
P           0.691164000000000    0.494085000000000    0.418904000000000 
K           0.421524000000000    0.159104000000000    0.360310000000000 
K           0.500000000000000    0.000000000000000    0.500000000000000 
K           0.500000000000000    0.500000000000000    0.000000000000000 
K           0.578476000000000    0.840896000000000    0.639690000000000 
%ENDBLOCK POSITIONS_FRAC
