# Cell file generated by matador (Matthew Evans 2016)

%BLOCK LATTICE_CART
7.91568 0.0 0.0
-3.95784 6.85518 0.0
0.0 0.0 7.24814
%ENDBLOCK LATTICE_CART

%BLOCK POSITIONS_FRAC
P           0.333333000000000    0.666667000000000    0.750000000000000 
P           0.666666000000000    0.333334000000000    0.250000000000000 
K           0.177268000000000    0.369515000000000    0.750000000000000 
K           0.192247000000000    0.822732000000000    0.750000000000000 
K           0.333333000000000    0.666667000000000    0.250000000000000 
K           0.369515000000000    0.177268000000000    0.250000000000000 
K           0.630485000000000    0.807753000000000    0.750000000000000 
K           0.666666000000000    0.333334000000000    0.750000000000000 
K           0.807753000000000    0.630485000000000    0.250000000000000 
K           0.822732000000000    0.192247000000000    0.250000000000000 
%ENDBLOCK POSITIONS_FRAC
