# Cell file generated by matador (Matthew Evans 2016)

%BLOCK LATTICE_CART
7.59444 0.0 0.0
0.0 4.34726 0.0
0.0 0.0 6.68702
%ENDBLOCK LATTICE_CART

%BLOCK POSITIONS_FRAC
P           0.000000000000000    0.500000000000000    0.041475000000000 
P           0.500000000000000    0.000000000000000    0.541475000000000 
K           0.000000000000000    0.500000000000000    0.730896000000000 
K           0.160533000000000    0.500000000000000    0.464498000000000 
K           0.339467000000000    0.000000000000000    0.964498000000000 
K           0.500000000000000    0.000000000000000    0.230896000000000 
K           0.660533000000000    0.000000000000000    0.964498000000000 
K           0.839467000000000    0.500000000000000    0.464498000000000 
%ENDBLOCK POSITIONS_FRAC
