# Cell file generated by matador (Matthew Evans 2016)

%BLOCK LATTICE_CART
8.23073 0.0 0.0
-4.11537 7.12802 0.0
0.0 0.0 7.86564
%ENDBLOCK LATTICE_CART

%BLOCK POSITIONS_FRAC
P           0.000000000000000    0.000000000000000    0.000000000000000 
P           0.000000000000000    0.000000000000000    0.500000000000000 
P           0.000000000000000    0.138126000000000    0.500000000000000 
P           0.000000000000000    0.861874000000000    0.000000000000000 
P           0.138126000000000    0.000000000000000    0.500000000000000 
P           0.138126000000000    0.138126000000000    0.000000000000000 
P           0.861874000000000    0.000000000000000    0.000000000000000 
P           0.861874000000000    0.861874000000000    0.500000000000000 
K           0.052750000000000    0.526375000000000    0.750000000000000 
K           0.333333000000000    0.666667000000000    0.250000000000000 
K           0.333333000000000    0.666667000000000    0.750000000000000 
K           0.473625000000000    0.526375000000000    0.750000000000000 
K           0.473625000000000    0.947250000000000    0.750000000000000 
K           0.526375000000000    0.052750000000000    0.250000000000000 
K           0.526375000000000    0.473625000000000    0.250000000000000 
K           0.666667000000000    0.333333000000000    0.250000000000000 
K           0.666667000000000    0.333333000000000    0.750000000000000 
K           0.947250000000000    0.473625000000000    0.250000000000000 
%ENDBLOCK POSITIONS_FRAC
