# Cell file generated by matador (Matthew Evans 2016)

%BLOCK LATTICE_CART
4.45713 0.0 0.0
0.0 9.32207 0.0
0.0 0.0 11.2879
%ENDBLOCK LATTICE_CART

%BLOCK POSITIONS_FRAC
P           0.164285000000000    0.572601000000000    0.924053000000000 
P           0.335715000000000    0.072601000000000    0.424053000000000 
P           0.664285000000000    0.927399000000000    0.424053000000000 
P           0.835715000000000    0.427399000000000    0.924053000000000 
K           0.000000000000000    0.000000000000000    0.567291000000000 
K           0.000000000000000    0.000000000000000    0.933321000000000 
K           0.000000000000000    0.500000000000000    0.104322000000000 
K           0.183001000000000    0.226805000000000    0.072131000000000 
K           0.316999000000000    0.726805000000000    0.572131000000000 
K           0.500000000000000    0.000000000000000    0.604322000000000 
K           0.500000000000000    0.500000000000000    0.067291000000000 
K           0.500000000000000    0.500000000000000    0.433321000000000 
K           0.683001000000000    0.273195000000000    0.572131000000000 
K           0.816999000000000    0.773195000000000    0.072131000000000 
%ENDBLOCK POSITIONS_FRAC
