# Cell file generated by matador (Matthew Evans 2016)

%BLOCK LATTICE_CART
11.2121 0.0 0.0
-5.60605 9.70997 0.0
0.0 0.0 12.7568
%ENDBLOCK LATTICE_CART

%BLOCK POSITIONS_FRAC
P           0.000000000000000    0.000000000000000    0.000000000000000 
P           0.000000000000000    0.200177000000000    0.000000000000000 
P           0.200177000000000    0.000000000000000    0.000000000000000 
P           0.333333000000000    0.666667000000000    0.409424000000000 
P           0.333333000000000    0.666667000000000    0.590576000000000 
P           0.666667000000000    0.333333000000000    0.409424000000000 
P           0.666667000000000    0.333333000000000    0.590576000000000 
P           0.799823000000000    0.799823000000000    0.000000000000000 
K           0.000000000000000    0.267957000000000    0.195343000000000 
K           0.000000000000000    0.267957000000000    0.804657000000000 
K           0.000000000000000    0.586043000000000    0.319965000000000 
K           0.000000000000000    0.586043000000000    0.680035000000000 
K           0.210591000000000    0.781187000000000    0.500000000000000 
K           0.218813000000000    0.429404000000000    0.500000000000000 
K           0.227366000000000    0.466037000000000    0.000000000000000 
K           0.238672000000000    0.772634000000000    0.000000000000000 
K           0.267957000000000    0.000000000000000    0.195343000000000 
K           0.267957000000000    0.000000000000000    0.804657000000000 
K           0.413957000000000    0.413957000000000    0.319965000000000 
K           0.413957000000000    0.413957000000000    0.680035000000000 
K           0.429404000000000    0.218813000000000    0.500000000000000 
K           0.466037000000000    0.227366000000000    0.000000000000000 
K           0.533963000000000    0.761328000000000    0.000000000000000 
K           0.570596000000000    0.789409000000000    0.500000000000000 
K           0.586043000000000    0.000000000000000    0.319965000000000 
K           0.586043000000000    0.000000000000000    0.680035000000000 
K           0.732043000000000    0.732043000000000    0.195343000000000 
K           0.732043000000000    0.732043000000000    0.804657000000000 
K           0.761328000000000    0.533963000000000    0.000000000000000 
K           0.772634000000000    0.238672000000000    0.000000000000000 
K           0.781187000000000    0.210591000000000    0.500000000000000 
K           0.789409000000000    0.570596000000000    0.500000000000000 
%ENDBLOCK POSITIONS_FRAC
