# Cell file generated by matador (Matthew Evans 2016)

%BLOCK LATTICE_CART
9.07228 0.0 0.0
0.0 9.07228 0.0
0.0 0.0 7.79004
%ENDBLOCK LATTICE_CART

%BLOCK POSITIONS_FRAC
P          -0.000000000000000   -0.000000000000000    0.000000000000000 
P          -0.000000000000000   -0.000000000000000    0.500000000000000 
P           0.500000000000000    0.500000000000000    0.000000000000000 
P           0.500000000000000    0.500000000000000    0.500000000000000 
K          -0.000000000000000    0.500000000000000    0.000000000000000 
K          -0.000000000000000    0.500000000000000    0.500000000000000 
K           0.140091000000000    0.140091000000000    0.326794000000000 
K           0.140091000000000    0.859909000000000    0.673206000000000 
K           0.359909000000000    0.359909000000000    0.173206000000000 
K           0.359909000000000    0.640091000000000    0.826794000000000 
K           0.500000000000000   -0.000000000000000    0.000000000000000 
K           0.500000000000000   -0.000000000000000    0.500000000000000 
K           0.640091000000000    0.359909000000000    0.826794000000000 
K           0.640091000000000    0.640091000000000    0.173206000000000 
K           0.859909000000000    0.140091000000000    0.673206000000000 
K           0.859909000000000    0.859909000000000    0.326794000000000 
%ENDBLOCK POSITIONS_FRAC
