# Cell file generated by matador (Matthew Evans 2016)

%BLOCK LATTICE_CART
6.35058 0.0 0.0
-3.17529 5.49976 0.0
0.0 0.0 10.626
%ENDBLOCK LATTICE_CART

%BLOCK POSITIONS_FRAC
P           0.999999000000000    0.999999000000000    0.561765000000000 
P           0.999999000000000    0.499999000000000    0.307749000000000 
P           0.999999000000000    0.499999000000000    0.573005000000000 
P           0.999999000000000    0.499999000000000    0.997464000000000 
P           0.499999000000000    0.999999000000000    0.307749000000000 
P           0.499999000000000    0.999999000000000    0.573005000000000 
P           0.499999000000000    0.999999000000000    0.997464000000000 
P           0.499999000000000    0.499999000000000    0.307749000000000 
P           0.499999000000000    0.499999000000000    0.573005000000000 
P           0.499999000000000    0.499999000000000    0.997464000000000 
K           0.333332000000000    0.666666000000000    0.114414000000000 
K           0.666666000000000    0.333332000000000    0.114414000000000 
%ENDBLOCK POSITIONS_FRAC
