# Cell file generated by matador (Matthew Evans 2016)

%BLOCK LATTICE_CART
5.4456 0.0 0.0
0.0 8.9265 0.0
-1.91322 0.0 9.06778
%ENDBLOCK LATTICE_CART

%BLOCK POSITIONS_FRAC
P           0.061109000000000    0.770979000000000    0.837141000000000 
P           0.257895000000000    0.491105000000000    0.444804000000000 
P           0.336598000000000    0.160034000000000    0.819957000000000 
P           0.663402000000000    0.160034000000000    0.180043000000000 
P           0.742105000000000    0.491105000000000    0.555196000000000 
P           0.938891000000000    0.770979000000000    0.162859000000000 
K           0.000000000000000    0.565942000000000    0.000000000000000 
K           0.341409000000000    0.859093000000000    0.186812000000000 
K           0.372538000000000    0.493242000000000    0.821018000000000 
K           0.500000000000000    0.242914000000000    0.500000000000000 
K           0.500000000000000    0.345487000000000    0.000000000000000 
K           0.627462000000000    0.493242000000000    0.178982000000000 
K           0.658591000000000    0.859093000000000    0.813188000000000 
%ENDBLOCK POSITIONS_FRAC
