# Cell file generated by matador (Matthew Evans 2016)

%BLOCK LATTICE_CART
5.4526 0.0 0.0
0.0 8.06093 0.0
-1.5456 0.0 7.53015
%ENDBLOCK LATTICE_CART

%BLOCK POSITIONS_FRAC
P           0.273829000000000    0.500000000000000    0.756771000000000 
P           0.410037000000000    0.000000000000000    0.276578000000000 
P           0.713005000000000    0.500000000000000    0.990611000000000 
K           0.070795000000000    0.158000000000000    0.493768000000000 
K           0.070795000000000    0.842000000000000    0.493768000000000 
K           0.159592000000000    0.000000000000000    0.797706000000000 
K           0.244520000000000    0.500000000000000    0.336416000000000 
K           0.717430000000000    0.000000000000000    0.056977000000000 
K           0.737561000000000    0.500000000000000    0.617666000000000 
K           0.820082000000000    0.500000000000000    0.359388000000000 
K           0.999461000000000    0.365454000000000    0.899646000000000 
K           0.999461000000000    0.634546000000000    0.899646000000000 
%ENDBLOCK POSITIONS_FRAC
