# Cell file generated by matador (Matthew Evans 2016)

%BLOCK LATTICE_CART
5.9134 0.0 0.0
0.0 5.9134 0.0
0.0 0.0 7.82915
%ENDBLOCK LATTICE_CART

%BLOCK POSITIONS_FRAC
P          -0.000000000000000    0.000000000000000   -0.000000000000000 
P          -0.000000000000000    0.200012000000000   -0.000000000000000 
P          -0.000000000000000    0.799988000000000   -0.000000000000000 
P           0.200012000000000    0.000000000000000   -0.000000000000000 
P           0.299988000000000    0.500000000000000    0.500000000000000 
P           0.500000000000000    0.299988000000000    0.500000000000000 
P           0.500000000000000    0.500000000000000    0.500000000000000 
P           0.500000000000000    0.700012000000000    0.500000000000000 
P           0.700012000000000    0.500000000000000    0.500000000000000 
P           0.799988000000000    0.000000000000000   -0.000000000000000 
K          -0.000000000000000    0.500000000000000    0.250000000000000 
K          -0.000000000000000    0.500000000000000    0.750000000000000 
K           0.500000000000000    0.000000000000000    0.250000000000000 
K           0.500000000000000    0.000000000000000    0.750000000000000 
%ENDBLOCK POSITIONS_FRAC
