# Cell file generated by matador (Matthew Evans 2016)

%BLOCK LATTICE_CART
5.7369 0.0 0.0
-2.86845 4.9683 0.0
0.0 0.0 14.1474
%ENDBLOCK LATTICE_CART

%BLOCK POSITIONS_FRAC
P           0.000000000000000    0.500000000000000    0.500000000000000 
P           0.106117000000000    0.652415000000000    0.227112000000000 
P           0.347585000000000    0.453702000000000    0.227112000000000 
P           0.453702000000000    0.106117000000000    0.772888000000000 
P           0.500000000000000    0.000000000000000    0.500000000000000 
P           0.500000000000000    0.500000000000000    0.500000000000000 
P           0.546298000000000    0.893883000000000    0.227112000000000 
P           0.652415000000000    0.546298000000000    0.772888000000000 
P           0.893883000000000    0.347585000000000    0.772888000000000 
K           0.000000000000000    0.000000000000000    0.500000000000000 
K           0.000000000000000    0.500000000000000    0.000000000000000 
K           0.333333000000000    0.666667000000000    0.391888000000000 
K           0.500000000000000    0.000000000000000    0.000000000000000 
K           0.500000000000000    0.500000000000000    0.000000000000000 
K           0.666667000000000    0.333333000000000    0.608112000000000 
%ENDBLOCK POSITIONS_FRAC
