# Cell file generated by matador (Matthew Evans 2016)

%BLOCK LATTICE_CART
8.71479 0.0 0.0
0.0 8.71479 0.0
0.0 0.0 8.49289
%ENDBLOCK LATTICE_CART

%BLOCK POSITIONS_FRAC
P           0.000000000000000    0.500000000000000    0.250000000000000 
P           0.000000000000000    0.500000000000000    0.750000000000000 
P           0.500000000000000    0.000000000000000    0.250000000000000 
P           0.500000000000000    0.000000000000000    0.750000000000000 
K           0.000000000000000    0.500000000000000   -0.000000000000000 
K           0.000000000000000    0.500000000000000    0.500000000000000 
K           0.127990000000000    0.127990000000000    0.738123000000000 
K           0.127990000000000    0.872010000000000    0.261877000000000 
K           0.372010000000000    0.372010000000000    0.761877000000000 
K           0.372010000000000    0.627990000000000    0.238123000000000 
K           0.500000000000000    0.000000000000000   -0.000000000000000 
K           0.500000000000000    0.000000000000000    0.500000000000000 
K           0.627990000000000    0.372010000000000    0.238123000000000 
K           0.627990000000000    0.627990000000000    0.761877000000000 
K           0.872010000000000    0.127990000000000    0.261877000000000 
K           0.872010000000000    0.872010000000000    0.738123000000000 
%ENDBLOCK POSITIONS_FRAC
