# Cell file generated by matador (Matthew Evans 2016)

%BLOCK LATTICE_CART
14.3105 0.0 0.0
-7.15525 12.3933 0.0
0.0 0.0 5.57726
%ENDBLOCK LATTICE_CART

%BLOCK POSITIONS_FRAC
P           0.090134000000000    0.545066000000000    0.025552000000000 
P           0.454932000000000    0.545066000000000    0.025552000000000 
P           0.454932000000000    0.909864000000000    0.025552000000000 
P           0.545066000000000    0.090134000000000    0.525552000000000 
P           0.545066000000000    0.454932000000000    0.525552000000000 
P           0.909864000000000    0.454932000000000    0.525552000000000 
K           0.080720000000000    0.161441000000000    0.109446000000000 
K           0.080720000000000    0.919278000000000    0.109446000000000 
K           0.118263000000000    0.559131000000000    0.490280000000000 
K           0.161441000000000    0.080720000000000    0.609446000000000 
K           0.191201000000000    0.382403000000000    0.577160000000000 
K           0.191201000000000    0.808797000000000    0.577160000000000 
K           0.382403000000000    0.191201000000000    0.077160000000000 
K           0.440867000000000    0.559131000000000    0.490280000000000 
K           0.440867000000000    0.881735000000000    0.490280000000000 
K           0.559131000000000    0.118263000000000    0.990280000000000 
K           0.559131000000000    0.440867000000000    0.990280000000000 
K           0.617595000000000    0.808797000000000    0.577160000000000 
K           0.808797000000000    0.191201000000000    0.077160000000000 
K           0.808797000000000    0.617595000000000    0.077160000000000 
K           0.838557000000000    0.919278000000000    0.109446000000000 
K           0.881735000000000    0.440867000000000    0.990280000000000 
K           0.919278000000000    0.080720000000000    0.609446000000000 
K           0.919278000000000    0.838557000000000    0.609446000000000 
%ENDBLOCK POSITIONS_FRAC
