# Cell file generated by matador (Matthew Evans 2016)

%BLOCK LATTICE_CART
8.78997 0.0 0.0
0.0 8.63258 0.0
0.0 0.0 7.2261
%ENDBLOCK LATTICE_CART

%BLOCK POSITIONS_FRAC
P           0.000000000000000    0.000000000000000    0.396026000000000 
P           0.000000000000000    0.500000000000000    0.373780000000000 
P           0.000000000000000    0.500000000000000    0.961661000000000 
P           0.074121000000000    0.590680000000000    0.908930000000000 
P           0.117902000000000    0.084181000000000    0.124376000000000 
P           0.382098000000000    0.584181000000000    0.875624000000000 
P           0.425879000000000    0.090680000000000    0.091070000000000 
P           0.500000000000000    0.000000000000000    0.038339000000000 
P           0.500000000000000    0.000000000000000    0.626220000000000 
P           0.500000000000000    0.500000000000000    0.603974000000000 
P           0.574121000000000    0.909320000000000    0.091070000000000 
P           0.617902000000000    0.415819000000000    0.875624000000000 
P           0.882098000000000    0.915819000000000    0.124376000000000 
P           0.925879000000000    0.409320000000000    0.908930000000000 
K           0.000000000000000    0.000000000000000    0.907757000000000 
K           0.194601000000000    0.299204000000000    0.707657000000000 
K           0.305399000000000    0.799204000000000    0.292343000000000 
K           0.500000000000000    0.500000000000000    0.092243000000000 
K           0.694601000000000    0.200796000000000    0.292343000000000 
K           0.805399000000000    0.700796000000000    0.707657000000000 
%ENDBLOCK POSITIONS_FRAC
