# Cell file generated by matador (Matthew Evans 2016)

%BLOCK LATTICE_CART
7.52929 -0.0 0.0
-3.76465 6.52056 0.0
0.0 0.0 6.59615
%ENDBLOCK LATTICE_CART

%BLOCK POSITIONS_FRAC
P          -0.000000000000000   -0.000000000000000    0.500000000000000 
P           0.247324000000000    0.712419000000000    0.350829000000000 
P           0.287581000000000    0.534906000000000    0.350829000000000 
P           0.465094000000000    0.752676000000000    0.350829000000000 
P           0.534906000000000    0.247324000000000    0.649171000000000 
P           0.712419000000000    0.465094000000000    0.649171000000000 
P           0.752676000000000    0.287581000000000    0.649171000000000 
K          -0.000000000000000    0.500000000000000    0.000000000000000 
K          -0.000000000000000    0.500000000000000    0.500000000000000 
K           0.500000000000000   -0.000000000000000    0.000000000000000 
K           0.500000000000000   -0.000000000000000    0.500000000000000 
K           0.500000000000000    0.500000000000000    0.000000000000000 
K           0.500000000000000    0.500000000000000    0.500000000000000 
%ENDBLOCK POSITIONS_FRAC
