# Cell file generated by matador (Matthew Evans 2016)

%BLOCK LATTICE_CART
7.83449 0.0 0.0
0.0 7.83449 0.0
0.0 0.0 11.1236
%ENDBLOCK LATTICE_CART

%BLOCK POSITIONS_FRAC
P           0.000000000000000    0.322860000000000    0.221155000000000 
P           0.000000000000000    0.677140000000000    0.221155000000000 
P           0.322860000000000    0.000000000000000    0.778845000000000 
P           0.677140000000000    0.000000000000000    0.778845000000000 
K           0.000000000000000    0.000000000000000    0.000000000000000 
K           0.000000000000000    0.000000000000000    0.500000000000000 
K           0.000000000000000    0.313718000000000    0.635654000000000 
K           0.000000000000000    0.686282000000000    0.635654000000000 
K           0.211369000000000    0.500000000000000    0.816968000000000 
K           0.313718000000000    0.000000000000000    0.364346000000000 
K           0.500000000000000    0.211369000000000    0.183032000000000 
K           0.500000000000000    0.500000000000000    0.000000000000000 
K           0.500000000000000    0.500000000000000    0.500000000000000 
K           0.500000000000000    0.788631000000000    0.183032000000000 
K           0.686282000000000    0.000000000000000    0.364346000000000 
K           0.788631000000000    0.500000000000000    0.816968000000000 
%ENDBLOCK POSITIONS_FRAC
