# Cell file generated by matador (Matthew Evans 2016)

%BLOCK LATTICE_CART
12.1811 0.0 0.0
0.0 10.5999 0.0
3.60436 0.0 7.84651
%ENDBLOCK LATTICE_CART

%BLOCK POSITIONS_FRAC
P           0.067606000000000    0.000000000000000    0.909735000000000 
P           0.237027000000000    0.500000000000000    0.577150000000000 
P           0.383774000000000    0.500000000000000    0.298971000000000 
P           0.567606000000000    0.500000000000000    0.909735000000000 
P           0.737027000000000    0.000000000000000    0.577150000000000 
P           0.883774000000000    0.000000000000000    0.298971000000000 
K           0.018841000000000    0.500000000000000    0.156077000000000 
K           0.060620000000000    0.000000000000000    0.143409000000000 
K           0.143257000000000    0.500000000000000    0.384319000000000 
K           0.196681000000000    0.000000000000000    0.545289000000000 
K           0.224239000000000    0.500000000000000    0.813065000000000 
K           0.321645000000000    0.000000000000000    0.042091000000000 
K           0.379221000000000    0.500000000000000    0.008956000000000 
K           0.388564000000000    0.000000000000000    0.671965000000000 
K           0.463289000000000    0.500000000000000    0.515437000000000 
K           0.518841000000000    0.000000000000000    0.156077000000000 
K           0.560620000000000    0.500000000000000    0.143409000000000 
K           0.643257000000000    0.000000000000000    0.384319000000000 
K           0.696681000000000    0.500000000000000    0.545289000000000 
K           0.724239000000000    0.000000000000000    0.813065000000000 
K           0.821645000000000    0.500000000000000    0.042091000000000 
K           0.879221000000000    0.000000000000000    0.008956000000000 
K           0.888564000000000    0.500000000000000    0.671965000000000 
K           0.963289000000000    0.000000000000000    0.515437000000000 
%ENDBLOCK POSITIONS_FRAC
