# Cell file generated by matador (Matthew Evans 2016)

%BLOCK LATTICE_CART
6.05416 0.0 0.0
0.0 6.3492 0.0
2.13638 0.0 6.42618
%ENDBLOCK LATTICE_CART

%BLOCK POSITIONS_FRAC
P           0.000000000000000    0.869496000000000    0.500000000000000 
K           0.000000000000000    0.389652000000000    0.500000000000000 
K           0.000000000000000    0.541493000000000    0.000000000000000 
K           0.449924000000000    0.576200000000000    0.259116000000000 
K           0.500000000000000    0.324170000000000    0.500000000000000 
K           0.550076000000000    0.576200000000000    0.740884000000000 
%ENDBLOCK POSITIONS_FRAC
