# Cell file generated by matador (Matthew Evans 2016)

%BLOCK LATTICE_CART
6.73824 0.0 0.0
0.0 6.73824 0.0
0.0 0.0 6.73824
%ENDBLOCK LATTICE_CART

%BLOCK POSITIONS_FRAC
P           0.078634000000000    0.078634000000000    0.921366000000000 
P           0.078634000000000    0.921366000000000    0.078634000000000 
P           0.421366000000000    0.421366000000000    0.578634000000000 
P           0.421366000000000    0.578634000000000    0.421366000000000 
P           0.578634000000000    0.421366000000000    0.421366000000000 
P           0.578634000000000    0.578634000000000    0.578634000000000 
P           0.921366000000000    0.078634000000000    0.078634000000000 
P           0.921366000000000    0.921366000000000    0.921366000000000 
K           0.250000000000000    0.250000000000000    0.750000000000000 
K           0.250000000000000    0.750000000000000    0.250000000000000 
K           0.750000000000000    0.250000000000000    0.250000000000000 
K           0.750000000000000    0.750000000000000    0.750000000000000 
%ENDBLOCK POSITIONS_FRAC
