# Cell file generated by matador (Matthew Evans 2016)

%BLOCK LATTICE_CART
8.36474 0.0 0.0
-4.18237 7.24408 0.0
0.0 0.0 8.91935
%ENDBLOCK LATTICE_CART

%BLOCK POSITIONS_FRAC
P           0.333334000000000    0.666668000000000    0.151831000000000 
P           0.333334000000000    0.666668000000000    0.823828000000000 
P           0.333334000000000    0.666668000000000    0.965443000000000 
P           0.666668000000000    0.333334000000000    0.151831000000000 
P           0.666668000000000    0.333334000000000    0.823828000000000 
P           0.666668000000000    0.333334000000000    0.965443000000000 
K           0.000001000000000    0.000001000000000    0.654756000000000 
K           0.000001000000000    0.000001000000000    0.915001000000000 
K           0.000001000000000    0.500001000000000    0.153666000000000 
K           0.000001000000000    0.500001000000000    0.516170000000000 
K           0.500001000000000    0.000001000000000    0.153666000000000 
K           0.500001000000000    0.000001000000000    0.516170000000000 
K           0.500001000000000    0.500001000000000    0.153666000000000 
K           0.500001000000000    0.500001000000000    0.516170000000000 
%ENDBLOCK POSITIONS_FRAC
