# Cell file generated by matador (Matthew Evans 2016)

%BLOCK LATTICE_CART
8.56136 0.0 0.0
0.0 5.37219 0.0
-2.58072 0.0 6.88307
%ENDBLOCK LATTICE_CART

%BLOCK POSITIONS_FRAC
P           0.001003000000000    0.000000000000000    0.441307000000000 
P           0.020565000000000    0.000000000000000    0.136090000000000 
P           0.100504000000000    0.500000000000000    0.960559000000000 
P           0.191965000000000    0.500000000000000    0.105879000000000 
P           0.328295000000000    0.500000000000000    0.815974000000000 
P           0.501003000000000    0.500000000000000    0.441307000000000 
P           0.520565000000000    0.500000000000000    0.136090000000000 
P           0.600504000000000    0.000000000000000    0.960559000000000 
P           0.691965000000000    0.000000000000000    0.105879000000000 
P           0.828295000000000    0.000000000000000    0.815974000000000 
K           0.368655000000000    0.000000000000000    0.271783000000000 
K           0.868655000000000    0.500000000000000    0.271783000000000 
%ENDBLOCK POSITIONS_FRAC
