# Cell file generated by matador (Matthew Evans 2016)

%BLOCK LATTICE_CART
8.75492 0.0 0.0
0.0 8.75492 0.0
0.0 0.0 7.755
%ENDBLOCK LATTICE_CART

%BLOCK POSITIONS_FRAC
P           0.000000000000000    0.000000000000000    0.250000000000000 
P           0.000000000000000    0.000000000000000    0.750000000000000 
P           0.500000000000000    0.500000000000000    0.250000000000000 
P           0.500000000000000    0.500000000000000    0.750000000000000 
K           0.000000000000000    0.000000000000000    0.000000000000000 
K           0.000000000000000    0.000000000000000    0.500000000000000 
K           0.237245000000000    0.752748000000000    0.000000000000000 
K           0.247252000000000    0.237245000000000    0.500000000000000 
K           0.252748000000000    0.737245000000000    0.500000000000000 
K           0.262755000000000    0.252748000000000    0.000000000000000 
K           0.500000000000000    0.500000000000000    0.000000000000000 
K           0.500000000000000    0.500000000000000    0.500000000000000 
K           0.737245000000000    0.747252000000000    0.000000000000000 
K           0.747252000000000    0.262755000000000    0.500000000000000 
K           0.752748000000000    0.762755000000000    0.500000000000000 
K           0.762755000000000    0.247252000000000    0.000000000000000 
%ENDBLOCK POSITIONS_FRAC
