# Cell file generated by matador (Matthew Evans 2016)

%BLOCK LATTICE_CART
7.35442 0.0 0.0
-3.67721 6.36912 0.0
0.0 0.0 12.7732
%ENDBLOCK LATTICE_CART

%BLOCK POSITIONS_FRAC
P           0.000000000000000    0.000000000000000    0.250000000000000 
P           0.000000000000000    0.000000000000000    0.750000000000000 
P           0.333333000000000    0.666667000000000    0.250000000000000 
P           0.666667000000000    0.333333000000000    0.750000000000000 
K           0.000000000000000    0.500000000000000    0.000000000000000 
K           0.000000000000000    0.500000000000000    0.500000000000000 
K           0.176326000000000    0.352652000000000    0.750000000000000 
K           0.176326000000000    0.823674000000000    0.750000000000000 
K           0.333333000000000    0.666667000000000    0.750000000000000 
K           0.352652000000000    0.176326000000000    0.250000000000000 
K           0.500000000000000    0.000000000000000    0.000000000000000 
K           0.500000000000000    0.000000000000000    0.500000000000000 
K           0.500000000000000    0.500000000000000    0.000000000000000 
K           0.500000000000000    0.500000000000000    0.500000000000000 
K           0.647348000000000    0.823674000000000    0.750000000000000 
K           0.666667000000000    0.333333000000000    0.250000000000000 
K           0.823674000000000    0.176326000000000    0.250000000000000 
K           0.823674000000000    0.647348000000000    0.250000000000000 
%ENDBLOCK POSITIONS_FRAC
