# Cell file generated by matador (Matthew Evans 2016)

%BLOCK LATTICE_CART
5.63591 0.0 0.0
2.89282 6.40619 0.0
-1.2093 2.88844 5.47589
%ENDBLOCK LATTICE_CART

%BLOCK POSITIONS_FRAC
P           0.000000000000000    0.500000000000000    0.500000000000000 
P           0.263188000000000    0.875693000000000    0.341121000000000 
P           0.736812000000000    0.124307000000000    0.658879000000000 
K           0.000000000000000    0.000000000000000    0.000000000000000 
K           0.000000000000000    0.500000000000000    0.000000000000000 
K           0.500000000000000    0.000000000000000    0.000000000000000 
K           0.500000000000000    0.000000000000000    0.500000000000000 
K           0.500000000000000    0.500000000000000    0.000000000000000 
%ENDBLOCK POSITIONS_FRAC
