# Cell file generated by matador (Matthew Evans 2016)

%BLOCK LATTICE_CART
7.88549 0.0 0.0
-3.94274 6.82903 0.0
0.0 0.0 6.27849
%ENDBLOCK LATTICE_CART

%BLOCK POSITIONS_FRAC
P          -0.000000000000000    0.000000000000000    0.534937000000000 
P           0.333333000000000    0.666667000000000    0.192730000000000 
P           0.333333000000000    0.666667000000000    0.586232000000000 
P           0.333333000000000    0.666667000000000    0.870807000000000 
P           0.666667000000000    0.333333000000000    0.192730000000000 
P           0.666667000000000    0.333333000000000    0.586232000000000 
P           0.666667000000000    0.333333000000000    0.870807000000000 
K          -0.000000000000000    0.672165000000000    0.428920000000000 
K          -0.000000000000000    0.711865000000000    0.978643000000000 
K           0.288135000000000    0.288135000000000    0.978643000000000 
K           0.327835000000000    0.327835000000000    0.428920000000000 
K           0.672165000000000    0.000000000000000    0.428920000000000 
K           0.711865000000000    0.000000000000000    0.978643000000000 
%ENDBLOCK POSITIONS_FRAC
