# Cell file generated by matador (Matthew Evans 2016)

%BLOCK LATTICE_CART
8.90589 0.0 0.0
-4.45294 7.71273 0.0
0.0 0.0 7.75831
%ENDBLOCK LATTICE_CART

%BLOCK POSITIONS_FRAC
P           0.000000000000000    0.000000000000000    0.000000000000000 
P           0.000000000000000    0.000000000000000    0.500000000000000 
P           0.333333000000000    0.666667000000000    0.750000000000000 
P           0.666667000000000    0.333333000000000    0.250000000000000 
K           0.000000000000000    0.000000000000000    0.250000000000000 
K           0.000000000000000    0.000000000000000    0.750000000000000 
K           0.000000000000000    0.277643000000000    0.500000000000000 
K           0.000000000000000    0.722357000000000    0.000000000000000 
K           0.181084000000000    0.362168000000000    0.750000000000000 
K           0.181084000000000    0.818916000000000    0.750000000000000 
K           0.277643000000000    0.000000000000000    0.500000000000000 
K           0.277643000000000    0.277643000000000    0.000000000000000 
K           0.362168000000000    0.181084000000000    0.250000000000000 
K           0.637832000000000    0.818916000000000    0.750000000000000 
K           0.722357000000000    0.000000000000000    0.000000000000000 
K           0.722357000000000    0.722357000000000    0.500000000000000 
K           0.818916000000000    0.181084000000000    0.250000000000000 
K           0.818916000000000    0.637832000000000    0.250000000000000 
%ENDBLOCK POSITIONS_FRAC
