# Cell file generated by matador (Matthew Evans 2016)

%BLOCK LATTICE_CART
12.6004 0.0 0.0
-6.30019 10.9123 0.0
0.0 0.0 8.43398
%ENDBLOCK LATTICE_CART

%BLOCK POSITIONS_FRAC
P           0.000000000000000    0.000000000000000    0.000000000000000 
P           0.333333000000000    0.666667000000000    0.000000000000000 
P           0.333333000000000    0.666667000000000    0.266255000000000 
P           0.333333000000000    0.666667000000000    0.733745000000000 
P           0.666667000000000    0.333333000000000    0.000000000000000 
P           0.666667000000000    0.333333000000000    0.264589000000000 
P           0.666667000000000    0.333333000000000    0.735411000000000 
K           0.000000000000000    0.000000000000000    0.500000000000000 
K           0.059677000000000    0.529839000000000    0.500000000000000 
K           0.166772000000000    0.333543000000000    0.265760000000000 
K           0.166772000000000    0.333543000000000    0.734240000000000 
K           0.166772000000000    0.833228000000000    0.265760000000000 
K           0.166772000000000    0.833228000000000    0.734240000000000 
K           0.299034000000000    0.149517000000000    0.000000000000000 
K           0.301673000000000    0.035110000000000    0.500000000000000 
K           0.301673000000000    0.266563000000000    0.500000000000000 
K           0.333333000000000    0.666667000000000    0.500000000000000 
K           0.470161000000000    0.529839000000000    0.500000000000000 
K           0.470161000000000    0.940323000000000    0.500000000000000 
K           0.666457000000000    0.833228000000000    0.265760000000000 
K           0.666457000000000    0.833228000000000    0.734240000000000 
K           0.666667000000000    0.333333000000000    0.500000000000000 
K           0.733437000000000    0.035110000000000    0.500000000000000 
K           0.733437000000000    0.698327000000000    0.500000000000000 
K           0.850483000000000    0.149517000000000    0.000000000000000 
K           0.850483000000000    0.700966000000000    0.000000000000000 
K           0.964890000000000    0.266563000000000    0.500000000000000 
K           0.964890000000000    0.698327000000000    0.500000000000000 
%ENDBLOCK POSITIONS_FRAC
