# Cell file generated by matador (Matthew Evans 2016)

%BLOCK LATTICE_CART
6.2575 0.0 0.0
-3.12875 5.41915 0.0
0.0 0.0 13.9421
%ENDBLOCK LATTICE_CART

%BLOCK POSITIONS_FRAC
P           0.154792000000000    0.077396000000000    0.500000000000000 
P           0.272743000000000    0.545486000000000    0.833333000000000 
P           0.272743000000000    0.727257000000000    0.166666000000000 
P           0.394744000000000    0.197372000000000    0.500000000000000 
P           0.454514000000000    0.727257000000000    0.500000000000000 
P           0.557700000000000    0.115400000000000    0.333333000000000 
P           0.557700000000000    0.442300000000000    0.666666000000000 
P           0.802628000000000    0.197372000000000    0.166666000000000 
P           0.802628000000000    0.605256000000000    0.833333000000000 
P           0.884600000000000    0.442300000000000   -0.000000000000000 
P           0.922604000000000    0.077396000000000    0.166666000000000 
P           0.922604000000000    0.845208000000000    0.833333000000000 
K           0.605651000000000    0.211301000000000    0.833333000000000 
K           0.605651000000000    0.394349000000000    0.166666000000000 
K           0.788699000000000    0.394349000000000    0.500000000000000 
%ENDBLOCK POSITIONS_FRAC
