# Cell file generated by matador (Matthew Evans 2016)

%BLOCK LATTICE_CART
8.87607 0.0 0.0
0.0 8.87607 0.0
0.0 0.0 8.87607
%ENDBLOCK LATTICE_CART

%BLOCK POSITIONS_FRAC
P           0.225325000000000    0.500000000000000    0.500000000000000 
P           0.234021000000000    0.234021000000000    0.234021000000000 
P           0.234021000000000    0.234021000000000    0.765979000000000 
P           0.234021000000000    0.765979000000000    0.234021000000000 
P           0.234021000000000    0.765979000000000    0.765979000000000 
P           0.500000000000000    0.225325000000000    0.500000000000000 
P           0.500000000000000    0.500000000000000    0.225325000000000 
P           0.500000000000000    0.500000000000000    0.774675000000000 
P           0.500000000000000    0.774675000000000    0.500000000000000 
P           0.765979000000000    0.234021000000000    0.234021000000000 
P           0.765979000000000    0.234021000000000    0.765979000000000 
P           0.765979000000000    0.765979000000000    0.234021000000000 
P           0.765979000000000    0.765979000000000    0.765979000000000 
P           0.774675000000000    0.500000000000000    0.500000000000000 
K           0.000000000000000    0.000000000000000    0.500000000000000 
K           0.000000000000000    0.500000000000000    0.000000000000000 
K           0.000000000000000    0.500000000000000    0.500000000000000 
K           0.500000000000000    0.000000000000000    0.000000000000000 
K           0.500000000000000    0.000000000000000    0.500000000000000 
K           0.500000000000000    0.500000000000000    0.000000000000000 
%ENDBLOCK POSITIONS_FRAC
