# Cell file generated by matador (Matthew Evans 2016)

%BLOCK LATTICE_CART
8.07987 0.0 0.0
0.0 8.07987 0.0
0.0 0.0 6.67127
%ENDBLOCK LATTICE_CART

%BLOCK POSITIONS_FRAC
P           0.000000000000000    0.000000000000000    0.193405000000000 
P           0.000000000000000    0.000000000000000    0.806595000000000 
P           0.000000000000000    0.500000000000000    0.250000000000000 
P           0.000000000000000    0.500000000000000    0.643966000000000 
P           0.000000000000000    0.500000000000000    0.856034000000000 
P           0.500000000000000    0.000000000000000    0.143966000000000 
P           0.500000000000000    0.000000000000000    0.356034000000000 
P           0.500000000000000    0.000000000000000    0.750000000000000 
P           0.500000000000000    0.500000000000000    0.306595000000000 
P           0.500000000000000    0.500000000000000    0.693405000000000 
K           0.225608000000000    0.725608000000000    0.750000000000000 
K           0.274392000000000    0.225608000000000    0.250000000000000 
K           0.725608000000000    0.774392000000000    0.250000000000000 
K           0.774392000000000    0.274392000000000    0.750000000000000 
%ENDBLOCK POSITIONS_FRAC
