# Cell file generated by matador (Matthew Evans 2016)

%BLOCK LATTICE_CART
7.81436 0.0 0.0
-3.90718 6.76743 0.0
0.0 0.0 9.39754
%ENDBLOCK LATTICE_CART

%BLOCK POSITIONS_FRAC
P           0.000000000000000    0.487343000000000    0.564736000000000 
P           0.000000000000000    0.512657000000000    0.064736000000000 
P           0.333333000000000    0.666667000000000    0.465036000000000 
P           0.333333000000000    0.666667000000000    0.965036000000000 
P           0.487343000000000    0.000000000000000    0.564736000000000 
P           0.487343000000000    0.487343000000000    0.064736000000000 
P           0.512657000000000    0.000000000000000    0.064736000000000 
P           0.512657000000000    0.512657000000000    0.564736000000000 
P           0.666667000000000    0.333333000000000    0.465036000000000 
P           0.666667000000000    0.333333000000000    0.965036000000000 
K           0.000000000000000    0.000000000000000    0.429827000000000 
K           0.000000000000000    0.000000000000000    0.929827000000000 
K           0.000000000000000    0.259835000000000    0.241804000000000 
K           0.000000000000000    0.740165000000000    0.741804000000000 
K           0.259835000000000    0.000000000000000    0.241804000000000 
K           0.259835000000000    0.259835000000000    0.741804000000000 
K           0.740165000000000    0.000000000000000    0.741804000000000 
K           0.740165000000000    0.740165000000000    0.241804000000000 
%ENDBLOCK POSITIONS_FRAC
