# Cell file generated by matador (Matthew Evans 2016)

%BLOCK LATTICE_CART
7.54483 0.0 0.0
0.0 7.6904 0.0
0.0 0.0 5.72612
%ENDBLOCK LATTICE_CART

%BLOCK POSITIONS_FRAC
P           0.251072000000000    0.075114000000000    0.500000000000000 
P           0.251072000000000    0.924886000000000    0.500000000000000 
P           0.500000000000000    0.000000000000000    0.000000000000000 
P           0.500000000000000    0.000000000000000    0.174084000000000 
P           0.500000000000000    0.000000000000000    0.825916000000000 
P           0.748928000000000    0.075114000000000    0.500000000000000 
P           0.748928000000000    0.924886000000000    0.500000000000000 
K           0.000000000000000    0.000000000000000    0.500000000000000 
K           0.000000000000000    0.500000000000000    0.000000000000000 
K           0.365187000000000    0.358902000000000    0.000000000000000 
K           0.365187000000000    0.641098000000000    0.000000000000000 
K           0.634813000000000    0.358902000000000    0.000000000000000 
K           0.634813000000000    0.641098000000000    0.000000000000000 
%ENDBLOCK POSITIONS_FRAC
