# Cell file generated by matador (Matthew Evans 2016)

%BLOCK LATTICE_CART
5.87517 0.0 0.0
-2.93758 5.08805 0.0
0.0 0.0 4.36689
%ENDBLOCK LATTICE_CART

%BLOCK POSITIONS_FRAC
P          -0.000000000000000    0.000000000000000    0.370035000000000 
P          -0.000000000000000    0.583096000000000    0.790825000000000 
P           0.416904000000000    0.416904000000000    0.790825000000000 
P           0.583096000000000    0.000000000000000    0.790825000000000 
K           0.333333000000000    0.666667000000000    0.313161000000000 
K           0.666666000000000    0.333334000000000    0.313161000000000 
%ENDBLOCK POSITIONS_FRAC
