# Cell file generated by matador (Matthew Evans 2016)

%BLOCK LATTICE_CART
5.03943 0.0 0.0
0.0 7.86211 0.0
0.0 0.0 10.3965
%ENDBLOCK LATTICE_CART

%BLOCK POSITIONS_FRAC
P           0.000000000000000    0.000000000000000    0.500000000000000 
P           0.000000000000000    0.500000000000000    0.190683000000000 
P           0.000000000000000    0.500000000000000    0.500000000000000 
P           0.000000000000000    0.500000000000000    0.809317000000000 
P           0.500000000000000    0.000000000000000    0.000000000000000 
P           0.500000000000000    0.156647000000000    0.000000000000000 
P           0.500000000000000    0.500000000000000    0.500000000000000 
P           0.500000000000000    0.843353000000000    0.000000000000000 
K           0.000000000000000    0.000000000000000    0.000000000000000 
K           0.000000000000000    0.500000000000000    0.000000000000000 
K           0.463865000000000    0.293898000000000    0.315642000000000 
K           0.463865000000000    0.706102000000000    0.684358000000000 
K           0.500000000000000    0.000000000000000    0.500000000000000 
K           0.500000000000000    0.500000000000000    0.000000000000000 
K           0.536135000000000    0.293898000000000    0.684358000000000 
K           0.536135000000000    0.706102000000000    0.315642000000000 
%ENDBLOCK POSITIONS_FRAC
