# Cell file generated by matador (Matthew Evans 2016)

%BLOCK LATTICE_CART
7.91173 0.0 0.0
0.0 12.7599 0.0
0.0 0.0 10.3321
%ENDBLOCK LATTICE_CART

%BLOCK POSITIONS_FRAC
P           0.000000000000000    0.000000000000000    0.500000000000000 
P           0.000000000000000    0.500000000000000    0.000000000000000 
P           0.000000000000000    0.500000000000000    0.500000000000000 
P           0.500000000000000    0.000000000000000    0.000000000000000 
P           0.500000000000000    0.000000000000000    0.500000000000000 
P           0.500000000000000    0.500000000000000    0.500000000000000 
K           0.000000000000000    0.000000000000000    0.000000000000000 
K           0.197655000000000    0.123189000000000    0.500000000000000 
K           0.197655000000000    0.876811000000000    0.500000000000000 
K           0.216738000000000    0.500000000000000    0.193046000000000 
K           0.216738000000000    0.500000000000000    0.806954000000000 
K           0.283262000000000    0.000000000000000    0.193046000000000 
K           0.283262000000000    0.000000000000000    0.806954000000000 
K           0.302345000000000    0.376811000000000    0.500000000000000 
K           0.302345000000000    0.623189000000000    0.500000000000000 
K           0.500000000000000    0.500000000000000    0.000000000000000 
K           0.697655000000000    0.376811000000000    0.500000000000000 
K           0.697655000000000    0.623189000000000    0.500000000000000 
K           0.716738000000000    0.000000000000000    0.193046000000000 
K           0.716738000000000    0.000000000000000    0.806954000000000 
K           0.783262000000000    0.500000000000000    0.193046000000000 
K           0.783262000000000    0.500000000000000    0.806954000000000 
K           0.802345000000000    0.123189000000000    0.500000000000000 
K           0.802345000000000    0.876811000000000    0.500000000000000 
%ENDBLOCK POSITIONS_FRAC
