# Cell file generated by matador (Matthew Evans 2016)

%BLOCK LATTICE_CART
10.8084 0.0 0.0
-5.40421 9.36036 0.0
0.0 0.0 4.31986
%ENDBLOCK LATTICE_CART

%BLOCK POSITIONS_FRAC
P           0.000000000000000    0.000000000000000    0.280059000000000 
P           0.000000000000000    0.000000000000000    0.780059000000000 
P           0.045815000000000    0.184209000000000    0.613530000000000 
P           0.138394000000000    0.954185000000000    0.613530000000000 
P           0.184209000000000    0.138394000000000    0.113530000000000 
P           0.333333000000000    0.666667000000000    0.167721000000000 
P           0.333333000000000    0.666667000000000    0.489406000000000 
P           0.666667000000000    0.333333000000000    0.667721000000000 
P           0.666667000000000    0.333333000000000    0.989406000000000 
P           0.815791000000000    0.861606000000000    0.613530000000000 
P           0.861606000000000    0.045815000000000    0.113530000000000 
P           0.954185000000000    0.815791000000000    0.113530000000000 
K           0.088248000000000    0.436486000000000    0.666099000000000 
K           0.348238000000000    0.911752000000000    0.666099000000000 
K           0.436486000000000    0.348238000000000    0.166099000000000 
K           0.563514000000000    0.651762000000000    0.666099000000000 
K           0.651762000000000    0.088248000000000    0.166099000000000 
K           0.911752000000000    0.563514000000000    0.166099000000000 
%ENDBLOCK POSITIONS_FRAC
