# Cell file generated by matador (Matthew Evans 2016)

%BLOCK LATTICE_CART
12.4183 0.0 0.0
-6.20915 10.7546 0.0
0.0 0.0 8.69188
%ENDBLOCK LATTICE_CART

%BLOCK POSITIONS_FRAC
P           0.000000000000000    0.000000000000000    0.000000000000000 
P           0.333333000000000    0.666667000000000    0.000000000000000 
P           0.333333000000000    0.666667000000000    0.234553000000000 
P           0.333333000000000    0.666667000000000    0.765447000000000 
P           0.666667000000000    0.333333000000000    0.000000000000000 
P           0.666667000000000    0.333333000000000    0.234553000000000 
P           0.666667000000000    0.333333000000000    0.765447000000000 
K           0.000000000000000    0.678345000000000    0.273356000000000 
K           0.000000000000000    0.678345000000000    0.726644000000000 
K           0.000000000000000    0.861438000000000    0.500000000000000 
K           0.137907000000000    0.354877000000000    0.000000000000000 
K           0.138562000000000    0.138562000000000    0.500000000000000 
K           0.139055000000000    0.599518000000000    0.000000000000000 
K           0.216970000000000    0.862093000000000    0.000000000000000 
K           0.321655000000000    0.321655000000000    0.273356000000000 
K           0.321655000000000    0.321655000000000    0.726644000000000 
K           0.354877000000000    0.137907000000000    0.000000000000000 
K           0.400482000000000    0.539537000000000    0.000000000000000 
K           0.460463000000000    0.860945000000000    0.000000000000000 
K           0.539537000000000    0.400482000000000    0.000000000000000 
K           0.599518000000000    0.139055000000000    0.000000000000000 
K           0.645123000000000    0.783030000000000    0.000000000000000 
K           0.678345000000000    0.000000000000000    0.273356000000000 
K           0.678345000000000    0.000000000000000    0.726644000000000 
K           0.783030000000000    0.645123000000000    0.000000000000000 
K           0.860945000000000    0.460463000000000    0.000000000000000 
K           0.861438000000000    0.000000000000000    0.500000000000000 
K           0.862093000000000    0.216970000000000    0.000000000000000 
%ENDBLOCK POSITIONS_FRAC
