# Cell file generated by matador (Matthew Evans 2016)

%BLOCK LATTICE_CART
7.62763 0.0 0.0
0.0 5.19202 0.0
0.697221 0.0 7.30064
%ENDBLOCK LATTICE_CART

%BLOCK POSITIONS_FRAC
P           0.248847000000000    0.604493000000000    0.974181000000000 
P           0.248847000000000    0.895507000000000    0.474181000000000 
P           0.322862000000000    0.221326000000000    0.782750000000000 
P           0.322862000000000    0.278674000000000    0.282750000000000 
P           0.500000000000000    0.000000000000000   -0.000000000000000 
P           0.500000000000000    0.500000000000000    0.500000000000000 
P           0.677138000000000    0.721326000000000    0.717250000000000 
P           0.677138000000000    0.778674000000000    0.217250000000000 
P           0.751153000000000    0.104493000000000    0.525819000000000 
P           0.751153000000000    0.395507000000000    0.025819000000000 
K           0.000000000000000    0.000000000000000    0.500000000000000 
K           0.000000000000000    0.500000000000000   -0.000000000000000 
K           0.500000000000000    0.000000000000000    0.500000000000000 
K           0.500000000000000    0.500000000000000   -0.000000000000000 
%ENDBLOCK POSITIONS_FRAC
