# Cell file generated by matador (Matthew Evans 2016)

%BLOCK LATTICE_CART
8.04516 0.0 0.0
-4.02258 6.96731 0.0
0.0 0.0 8.31285
%ENDBLOCK LATTICE_CART

%BLOCK POSITIONS_FRAC
P           0.000000000000000    0.000000000000000    0.000000000000000 
P           0.000000000000000    0.000000000000000    0.500000000000000 
P           0.333333000000000    0.666667000000000    0.137967000000000 
P           0.333333000000000    0.666667000000000    0.637967000000000 
P           0.666667000000000    0.333333000000000    0.362033000000000 
P           0.666667000000000    0.333333000000000    0.862033000000000 
K           0.000000000000000    0.247515000000000    0.750000000000000 
K           0.000000000000000    0.500000000000000    0.000000000000000 
K           0.000000000000000    0.500000000000000    0.500000000000000 
K           0.000000000000000    0.752485000000000    0.250000000000000 
K           0.247515000000000    0.000000000000000    0.750000000000000 
K           0.247515000000000    0.247515000000000    0.250000000000000 
K           0.500000000000000    0.000000000000000    0.000000000000000 
K           0.500000000000000    0.000000000000000    0.500000000000000 
K           0.500000000000000    0.500000000000000    0.000000000000000 
K           0.500000000000000    0.500000000000000    0.500000000000000 
K           0.752485000000000    0.000000000000000    0.250000000000000 
K           0.752485000000000    0.752485000000000    0.750000000000000 
%ENDBLOCK POSITIONS_FRAC
