# Cell file generated by matador (Matthew Evans 2016)

%BLOCK LATTICE_CART
7.88786 0.0 0.0
-3.94393 6.83108 0.0
0.0 0.0 6.13678
%ENDBLOCK LATTICE_CART

%BLOCK POSITIONS_FRAC
P           0.124383000000000    0.511216000000000    0.071282000000000 
P           0.143336000000000    0.131891000000000    0.992944000000000 
P           0.386833000000000    0.875617000000000    0.071282000000000 
P           0.488784000000000    0.613167000000000    0.071282000000000 
P           0.868109000000000    0.011445000000000    0.992944000000000 
P           0.988555000000000    0.856664000000000    0.992944000000000 
K           0.000000000000000    0.000000000000000    0.690258000000000 
K           0.154315000000000    0.762962000000000    0.293984000000000 
K           0.237038000000000    0.391353000000000    0.293984000000000 
K           0.608647000000000    0.845685000000000    0.293984000000000 
K           0.666667000000000    0.333333000000000    0.783765000000000 
%ENDBLOCK POSITIONS_FRAC
