# Cell file generated by matador (Matthew Evans 2016)

%BLOCK LATTICE_CART
6.83853 0.0 0.0
0.0 7.22828 0.0
0.0 0.0 7.35867
%ENDBLOCK LATTICE_CART

%BLOCK POSITIONS_FRAC
P           0.500000000000000    0.000000000000000    0.424335000000000 
P           0.500000000000000    0.000000000000000    0.870305000000000 
P           0.500000000000000    0.084873000000000    0.195741000000000 
P           0.500000000000000    0.361747000000000    0.342458000000000 
P           0.500000000000000    0.500000000000000    0.150033000000000 
P           0.500000000000000    0.638253000000000    0.342458000000000 
P           0.500000000000000    0.915127000000000    0.195741000000000 
K           0.000000000000000    0.500000000000000    0.899427000000000 
K           0.500000000000000    0.203883000000000    0.687725000000000 
K           0.500000000000000    0.354373000000000    0.908478000000000 
K           0.500000000000000    0.645627000000000    0.908478000000000 
K           0.500000000000000    0.796117000000000    0.687725000000000 
%ENDBLOCK POSITIONS_FRAC
