# Cell file generated by matador (Matthew Evans 2016)

%BLOCK LATTICE_CART
6.47547 -0.0 0.0
-3.23774 5.60792 0.0
0.0 0.0 7.39499
%ENDBLOCK LATTICE_CART

%BLOCK POSITIONS_FRAC
P           0.134729000000000    0.583030000000000    0.289274000000000 
P           0.416970000000000    0.551699000000000    0.289274000000000 
P           0.448301000000000    0.865271000000000    0.289274000000000 
P           0.488244000000000    0.314508000000000    0.997254000000000 
P           0.666667000000000    0.333333000000000    0.017401000000000 
P           0.666667000000000    0.333333000000000    0.697713000000000 
P           0.685492000000000    0.173736000000000    0.997254000000000 
P           0.826264000000000    0.511756000000000    0.997254000000000 
K           0.000000000000000    0.000000000000000    0.646464000000000 
K           0.333333000000000    0.666667000000000    0.990155000000000 
%ENDBLOCK POSITIONS_FRAC
