# Cell file generated by matador (Matthew Evans 2016)

%BLOCK LATTICE_CART
8.07041 0.0 0.0
-4.0352 6.98918 0.0
0.0 0.0 11.1703
%ENDBLOCK LATTICE_CART

%BLOCK POSITIONS_FRAC
P           0.000000000000000    0.000000000000000    0.000000000000000 
P           0.000000000000000    0.000000000000000    0.500000000000000 
P           0.333333000000000    0.666667000000000    0.165107000000000 
P           0.666667000000000    0.333333000000000    0.834893000000000 
K           0.000000000000000    0.500000000000000    0.000000000000000 
K           0.000000000000000    0.500000000000000    0.500000000000000 
K           0.132689000000000    0.265378000000000    0.850714000000000 
K           0.132689000000000    0.867311000000000    0.850714000000000 
K           0.265378000000000    0.132689000000000    0.149286000000000 
K           0.500000000000000    0.000000000000000    0.000000000000000 
K           0.500000000000000    0.000000000000000    0.500000000000000 
K           0.500000000000000    0.500000000000000    0.000000000000000 
K           0.500000000000000    0.500000000000000    0.500000000000000 
K           0.734622000000000    0.867311000000000    0.850714000000000 
K           0.867311000000000    0.132689000000000    0.149286000000000 
K           0.867311000000000    0.734622000000000    0.149286000000000 
%ENDBLOCK POSITIONS_FRAC
