# Cell file generated by matador (Matthew Evans 2016)

%BLOCK LATTICE_CART
7.22049 0.0 0.0
-3.61025 6.25313 0.0
0.0 0.0 7.00723
%ENDBLOCK LATTICE_CART

%BLOCK POSITIONS_FRAC
P           0.124352000000000    0.248705000000000    0.000000000000000 
P           0.124352000000000    0.875648000000000    0.000000000000000 
P           0.666666000000000    0.333334000000000    0.000000000000000 
P           0.751295000000000    0.875648000000000    0.000000000000000 
K          -0.000000000000000    0.000000000000000    0.500000000000000 
K           0.233389000000000    0.116695000000000    0.303147000000000 
K           0.233389000000000    0.116695000000000    0.696853000000000 
K           0.883305000000000    0.116695000000000    0.303147000000000 
K           0.883305000000000    0.116695000000000    0.696853000000000 
K           0.883305000000000    0.766611000000000    0.303147000000000 
K           0.883305000000000    0.766611000000000    0.696853000000000 
%ENDBLOCK POSITIONS_FRAC
