# Cell file generated by matador (Matthew Evans 2016)

%BLOCK LATTICE_CART
7.72553 0.0 0.0
-3.41642 7.06994 0.0
-3.80493 2.56601 10.9141
%ENDBLOCK LATTICE_CART

%BLOCK POSITIONS_FRAC
P           0.000000000000000    0.500000000000000    0.000000000000000 
P           0.009818000000000    0.443000000000000    0.304745000000000 
P           0.237438000000000    0.160855000000000    0.426663000000000 
P           0.325113000000000    0.709622000000000    0.132284000000000 
P           0.500000000000000    0.500000000000000    0.500000000000000 
P           0.674887000000000    0.290378000000000    0.867716000000000 
P           0.762562000000000    0.839145000000000    0.573337000000000 
P           0.990182000000000    0.557000000000000    0.695255000000000 
K           0.000000000000000    0.000000000000000    0.500000000000000 
K           0.037109000000000    0.248650000000000    0.756827000000000 
K           0.176559000000000    0.148384000000000    0.989862000000000 
K           0.185931000000000    0.855716000000000    0.631528000000000 
K           0.497033000000000    0.320438000000000    0.378275000000000 
K           0.500000000000000    0.000000000000000    0.000000000000000 
K           0.500000000000000    0.000000000000000    0.500000000000000 
K           0.500000000000000    0.500000000000000    0.000000000000000 
K           0.502967000000000    0.679562000000000    0.621725000000000 
K           0.814069000000000    0.144284000000000    0.368472000000000 
K           0.823441000000000    0.851616000000000    0.010138000000000 
K           0.962891000000000    0.751350000000000    0.243173000000000 
%ENDBLOCK POSITIONS_FRAC
