# Cell file generated by matador (Matthew Evans 2016)

%BLOCK LATTICE_CART
7.41716 0.0 0.0
0.0 6.39043 0.0
0.0 0.0 9.50442
%ENDBLOCK LATTICE_CART

%BLOCK POSITIONS_FRAC
P           0.000000000000000    0.102166000000000    0.250000000000000 
P           0.000000000000000    0.897834000000000    0.750000000000000 
P           0.054683000000000    0.000000000000000    0.000000000000000 
P           0.135223000000000    0.500000000000000    0.500000000000000 
P           0.171173000000000    0.093394000000000    0.303091000000000 
P           0.171173000000000    0.906606000000000    0.696909000000000 
P           0.828827000000000    0.093394000000000    0.196909000000000 
P           0.828827000000000    0.906606000000000    0.803091000000000 
P           0.864777000000000    0.500000000000000    0.000000000000000 
P           0.945317000000000    0.000000000000000    0.500000000000000 
K           0.000000000000000    0.473478000000000    0.250000000000000 
K           0.000000000000000    0.526522000000000    0.750000000000000 
K           0.360033000000000    0.446218000000000    0.828829000000000 
K           0.360033000000000    0.553782000000000    0.171171000000000 
K           0.471463000000000    0.500000000000000    0.500000000000000 
K           0.500000000000000    0.045793000000000    0.750000000000000 
K           0.500000000000000    0.954206000000000    0.250000000000000 
K           0.528537000000000    0.500000000000000    0.000000000000000 
K           0.639967000000000    0.446218000000000    0.671171000000000 
K           0.639967000000000    0.553782000000000    0.328829000000000 
%ENDBLOCK POSITIONS_FRAC
