# Cell file generated by matador (Matthew Evans 2016)

%BLOCK LATTICE_CART
8.55656 0.0 0.0
-4.27828 7.4102 0.0
0.0 0.0 12.2716
%ENDBLOCK LATTICE_CART

%BLOCK POSITIONS_FRAC
P           0.000000000000000    0.000000000000000    0.194882000000000 
P           0.000000000000000    0.000000000000000    0.305118000000000 
P           0.000000000000000    0.000000000000000    0.694882000000000 
P           0.000000000000000    0.000000000000000    0.805118000000000 
K           0.000000000000000    0.000000000000000    0.000000000000000 
K           0.000000000000000    0.000000000000000    0.500000000000000 
K           0.005365000000000    0.285834000000000    0.750000000000000 
K           0.005365000000000    0.719532000000000    0.250000000000000 
K           0.111146000000000    0.459703000000000    0.250000000000000 
K           0.111146000000000    0.651443000000000    0.750000000000000 
K           0.280468000000000    0.285834000000000    0.250000000000000 
K           0.280468000000000    0.994635000000000    0.750000000000000 
K           0.348557000000000    0.459703000000000    0.750000000000000 
K           0.348557000000000    0.888854000000000    0.250000000000000 
K           0.540297000000000    0.651443000000000    0.250000000000000 
K           0.540297000000000    0.888854000000000    0.750000000000000 
K           0.666667000000000    0.333333000000000    0.000000000000000 
K           0.666667000000000    0.333333000000000    0.500000000000000 
K           0.714166000000000    0.719532000000000    0.750000000000000 
K           0.714166000000000    0.994635000000000    0.250000000000000 
%ENDBLOCK POSITIONS_FRAC
