# Cell file generated by matador (Matthew Evans 2016)

%BLOCK LATTICE_CART
8.30622 0.0 0.0
0.0 5.79028 0.0
-2.42087 0.0 7.34466
%ENDBLOCK LATTICE_CART

%BLOCK POSITIONS_FRAC
P           0.012060000000000    0.500000000000000    0.872360000000000 
P           0.071667000000000    0.500000000000000    0.686480000000000 
P           0.523665000000000    0.500000000000000    0.960331000000000 
P           0.576744000000000    0.500000000000000    0.318015000000000 
P           0.620207000000000    0.000000000000000    0.305946000000000 
P           0.766250000000000    0.000000000000000    0.514802000000000 
P           0.844095000000000    0.000000000000000    0.228730000000000 
K           0.019281000000000    0.000000000000000    0.974053000000000 
K           0.342255000000000    0.221817000000000    0.109357000000000 
K           0.342255000000000    0.778183000000000    0.109357000000000 
K           0.549057000000000    0.000000000000000    0.947917000000000 
%ENDBLOCK POSITIONS_FRAC
