# Cell file generated by matador (Matthew Evans 2016)

%BLOCK LATTICE_CART
6.17141 0.0 0.0
0.0 6.51335 0.0
0.0 0.0 7.91662
%ENDBLOCK LATTICE_CART

%BLOCK POSITIONS_FRAC
P           0.000000000000000    0.329737000000000    0.253612000000000 
P           0.000000000000000    0.670263000000000    0.753612000000000 
K           0.000000000000000    0.021398000000000    0.590410000000000 
K           0.000000000000000    0.092192000000000    0.839298000000000 
K           0.000000000000000    0.491055000000000    0.975151000000000 
K           0.000000000000000    0.508945000000000    0.475151000000000 
K           0.000000000000000    0.907809000000000    0.339298000000000 
K           0.000000000000000    0.978602000000000    0.090410000000000 
K           0.500000000000000    0.249542000000000    0.878756000000000 
K           0.500000000000000    0.750458000000000    0.378756000000000 
%ENDBLOCK POSITIONS_FRAC
