# Cell file generated by matador (Matthew Evans 2016)

%BLOCK LATTICE_CART
8.76577 0.0 0.0
-4.38288 7.59138 0.0
0.0 0.0 7.95054
%ENDBLOCK LATTICE_CART

%BLOCK POSITIONS_FRAC
P           0.000000000000000    0.000000000000000    0.500000000000000 
P           0.181205000000000    0.034873000000000    0.500000000000000 
P           0.181205000000000    0.146332000000000    0.500000000000000 
P           0.213286000000000    0.540556000000000    0.500000000000000 
P           0.213286000000000    0.672730000000000    0.500000000000000 
P           0.327270000000000    0.540556000000000    0.500000000000000 
P           0.327270000000000    0.786714000000000    0.500000000000000 
P           0.333333000000000    0.666667000000000    0.500000000000000 
P           0.459444000000000    0.672730000000000    0.500000000000000 
P           0.459444000000000    0.786714000000000    0.500000000000000 
P           0.853668000000000    0.034873000000000    0.500000000000000 
P           0.853668000000000    0.818795000000000    0.500000000000000 
P           0.965127000000000    0.146332000000000    0.500000000000000 
P           0.965127000000000    0.818795000000000    0.500000000000000 
K           0.409244000000000    0.043954000000000    0.500000000000000 
K           0.409244000000000    0.365290000000000    0.500000000000000 
K           0.634710000000000    0.043954000000000    0.500000000000000 
K           0.634710000000000    0.590756000000000    0.500000000000000 
K           0.956046000000000    0.365290000000000    0.500000000000000 
K           0.956046000000000    0.590756000000000    0.500000000000000 
%ENDBLOCK POSITIONS_FRAC
