# Cell file generated by matador (Matthew Evans 2016)

%BLOCK LATTICE_CART
9.1302 0.0 0.0
4.62767 8.08704 0.0
2.29974 -3.04228 4.9094
%ENDBLOCK LATTICE_CART

%BLOCK POSITIONS_FRAC
P           0.000000000000000    0.000000000000000    0.000000000000000 
P           0.181019000000000    0.979972000000000    0.811076000000000 
P           0.183673000000000    0.731557000000000    0.933671000000000 
P           0.240905000000000    0.582537000000000    0.538056000000000 
P           0.500000000000000    0.000000000000000    0.500000000000000 
P           0.759095000000000    0.417463000000000    0.461944000000000 
P           0.816327000000000    0.268443000000000    0.066329000000000 
P           0.818981000000000    0.020028000000000    0.188924000000000 
K           0.000000000000000    0.500000000000000    0.500000000000000 
K           0.175875000000000    0.248926000000000    0.923418000000000 
K           0.292967000000000    0.414432000000000    0.004899000000000 
K           0.500000000000000    0.500000000000000    0.000000000000000 
K           0.707033000000000    0.585568000000000    0.995101000000000 
K           0.824125000000000    0.751074000000000    0.076582000000000 
%ENDBLOCK POSITIONS_FRAC
