# Cell file generated by matador (Matthew Evans 2016)

%BLOCK LATTICE_CART
4.854 0.0 0.0
-2.427 4.20369 0.0
0.0 0.0 17.2443
%ENDBLOCK LATTICE_CART

%BLOCK POSITIONS_FRAC
P           0.000000000000000    0.000000000000000    0.176904000000000 
P           0.000000000000000    0.000000000000000    0.250000000000000 
P           0.000000000000000    0.000000000000000    0.323096000000000 
P           0.000000000000000    0.000000000000000    0.676904000000000 
P           0.000000000000000    0.000000000000000    0.750000000000000 
P           0.000000000000000    0.000000000000000    0.823096000000000 
K           0.000000000000000    0.000000000000000    0.000000000000000 
K           0.000000000000000    0.000000000000000    0.500000000000000 
K           0.000000000000000    0.500000000000000    0.000000000000000 
K           0.000000000000000    0.500000000000000    0.500000000000000 
K           0.500000000000000    0.000000000000000    0.000000000000000 
K           0.500000000000000    0.000000000000000    0.500000000000000 
K           0.500000000000000    0.500000000000000    0.000000000000000 
K           0.500000000000000    0.500000000000000    0.500000000000000 
%ENDBLOCK POSITIONS_FRAC
