# Cell file generated by matador (Matthew Evans 2016)

%BLOCK LATTICE_CART
8.55268 0.0 0.0
-4.27634 7.40684 0.0
0.0 0.0 10.9998
%ENDBLOCK LATTICE_CART

%BLOCK POSITIONS_FRAC
P           0.226031000000000    0.020565000000000    0.476392000000000 
P           0.226031000000000    0.205466000000000    0.476392000000000 
P           0.666667000000000    0.333333000000000    0.546871000000000 
P           0.666667000000000    0.333333000000000    0.805176000000000 
P           0.794534000000000    0.020565000000000    0.476392000000000 
P           0.794534000000000    0.773969000000000    0.476392000000000 
P           0.979435000000000    0.205466000000000    0.476392000000000 
P           0.979435000000000    0.773969000000000    0.476392000000000 
K           0.000000000000000    0.000000000000000    0.055033000000000 
K           0.000000000000000    0.000000000000000    0.275409000000000 
K           0.000000000000000    0.000000000000000    0.641130000000000 
K           0.083255000000000    0.541627000000000    0.810776000000000 
K           0.333333000000000    0.666667000000000    0.382610000000000 
K           0.333333000000000    0.666667000000000    0.600993000000000 
K           0.333333000000000    0.666667000000000    0.980776000000000 
K           0.458373000000000    0.541627000000000    0.810776000000000 
K           0.458373000000000    0.916745000000000    0.810776000000000 
K           0.666667000000000    0.333333000000000    0.099318000000000 
%ENDBLOCK POSITIONS_FRAC
