# Cell file generated by matador (Matthew Evans 2016)

%BLOCK LATTICE_CART
7.36635 0.0 0.0
0.0 7.36635 0.0
0.0 0.0 8.74961
%ENDBLOCK LATTICE_CART

%BLOCK POSITIONS_FRAC
P           0.000000000000000    0.000000000000000    0.000000000000000 
P           0.195377000000000    0.195377000000000    0.500000000000000 
P           0.195377000000000    0.804623000000000    0.500000000000000 
P           0.304623000000000    0.304623000000000    0.500000000000000 
P           0.304623000000000    0.695377000000000    0.500000000000000 
P           0.500000000000000    0.500000000000000    0.000000000000000 
P           0.695377000000000    0.304623000000000    0.500000000000000 
P           0.695377000000000    0.695377000000000    0.500000000000000 
P           0.804623000000000    0.195377000000000    0.500000000000000 
P           0.804623000000000    0.804623000000000    0.500000000000000 
K           0.000000000000000    0.000000000000000    0.500000000000000 
K           0.000000000000000    0.500000000000000    0.971706000000000 
K           0.250000000000000    0.250000000000000    0.000000000000000 
K           0.250000000000000    0.750000000000000    0.000000000000000 
K           0.500000000000000    0.000000000000000    0.028294000000000 
K           0.500000000000000    0.500000000000000    0.500000000000000 
K           0.750000000000000    0.250000000000000    0.000000000000000 
K           0.750000000000000    0.750000000000000    0.000000000000000 
%ENDBLOCK POSITIONS_FRAC
