# Cell file generated by matador (Matthew Evans 2016)

%BLOCK LATTICE_CART
5.63685 0.0 0.0
3.51957 6.85869 0.0
-1.20553 -3.32557 6.16533
%ENDBLOCK LATTICE_CART

%BLOCK POSITIONS_FRAC
P           0.000000000000000    0.000000000000000    0.000000000000000 
P           0.000000000000000    0.000000000000000    0.500000000000000 
P           0.500000000000000    0.000000000000000    0.500000000000000 
K           0.000000000000000    0.500000000000000    0.500000000000000 
K           0.194704000000000    0.482490000000000    0.812680000000000 
K           0.500000000000000    0.500000000000000    0.000000000000000 
K           0.805296000000000    0.517510000000000    0.187320000000000 
%ENDBLOCK POSITIONS_FRAC
