# Cell file generated by matador (Matthew Evans 2016)

%BLOCK LATTICE_CART
7.66899 0.0 0.0
0.0 6.43338 0.0
-2.44413 0.0 6.15833
%ENDBLOCK LATTICE_CART

%BLOCK POSITIONS_FRAC
P           0.100126000000000    0.899801000000000    0.478134000000000 
P           0.466654000000000    0.733264000000000    0.580672000000000 
P           0.533346000000000    0.733264000000000    0.419328000000000 
P           0.899874000000000    0.899801000000000    0.521866000000000 
K          -0.000000000000000    0.016429000000000    0.000000000000000 
K          -0.000000000000000    0.460838000000000    0.500000000000000 
K           0.296576000000000    0.473043000000000    0.320189000000000 
K           0.352794000000000    0.109753000000000    0.266350000000000 
K           0.500000000000000    0.302831000000000    0.500000000000000 
K           0.647206000000000    0.109753000000000    0.733650000000000 
K           0.703424000000000    0.473043000000000    0.679811000000000 
%ENDBLOCK POSITIONS_FRAC
