# Cell file generated by matador (Matthew Evans 2016)

%BLOCK LATTICE_CART
8.03118 0.0 0.0
0.0 4.79229 0.0
-1.46717 0.0 8.88012
%ENDBLOCK LATTICE_CART

%BLOCK POSITIONS_FRAC
P           0.126123000000000    0.000000000000000    0.826239000000000 
P           0.375079000000000    0.000000000000000    0.297127000000000 
P           0.543421000000000    0.297106000000000    0.223275000000000 
P           0.543421000000000    0.702894000000000    0.223275000000000 
P           0.572462000000000    0.000000000000000    0.637448000000000 
P           0.650812000000000    0.000000000000000    0.831510000000000 
P           0.768628000000000    0.000000000000000    0.568876000000000 
K           0.543568000000000    0.500000000000000    0.994993000000000 
K           0.804322000000000    0.000000000000000    0.160416000000000 
K           0.822126000000000    0.500000000000000    0.638108000000000 
K           0.857711000000000    0.500000000000000    0.151369000000000 
%ENDBLOCK POSITIONS_FRAC
