# Cell file generated by matador (Matthew Evans 2016)

%BLOCK LATTICE_CART
6.37625 0.0 0.0
0.0 6.34262 0.0
0.0 0.0 5.52252
%ENDBLOCK LATTICE_CART

%BLOCK POSITIONS_FRAC
P           0.000000000000000    0.000000000000000    0.795772000000000 
P           0.000000000000000    0.198699000000000    0.972884000000000 
P           0.000000000000000    0.801301000000000    0.972884000000000 
K           0.000000000000000    0.158771000000000    0.348289000000000 
K           0.000000000000000    0.841229000000000    0.348289000000000 
K           0.500000000000000    0.500000000000000    0.406307000000000 
%ENDBLOCK POSITIONS_FRAC
