# Cell file generated by matador (Matthew Evans 2016)

%BLOCK LATTICE_CART
4.49825 0.0 0.0
-2.24912 3.8956 0.0
0.0 0.0 10.8674
%ENDBLOCK LATTICE_CART

%BLOCK POSITIONS_FRAC
P           0.333333000000000    0.666667000000000    0.000000000000000 
P           0.425168000000000    0.057348000000000    0.589927000000000 
P           0.425168000000000    0.367819000000000    0.410073000000000 
P           0.632181000000000    0.057348000000000    0.410073000000000 
P           0.632181000000000    0.574832000000000    0.589927000000000 
P           0.942652000000000    0.367819000000000    0.589927000000000 
P           0.942652000000000    0.574832000000000    0.410073000000000 
K           0.000000000000000    0.000000000000000    0.500000000000000 
K           0.666667000000000    0.333333000000000    0.000000000000000 
%ENDBLOCK POSITIONS_FRAC
