# Cell file generated by matador (Matthew Evans 2016)

%BLOCK LATTICE_CART
9.21677 0.0 0.0
-4.60838 7.98195 0.0
0.0 0.0 6.02196
%ENDBLOCK LATTICE_CART

%BLOCK POSITIONS_FRAC
P           0.000000000000000    0.000000000000000    0.333942000000000 
P           0.000000000000000    0.000000000000000    0.500000000000000 
P           0.000000000000000    0.000000000000000    0.666058000000000 
P           0.333333000000000    0.666667000000000    0.000608000000000 
P           0.333333000000000    0.666667000000000    0.166667000000000 
P           0.333333000000000    0.666667000000000    0.332725000000000 
P           0.666667000000000    0.333333000000000    0.667275000000000 
P           0.666667000000000    0.333333000000000    0.833333000000000 
P           0.666667000000000    0.333333000000000    0.999392000000000 
K           0.000000000000000    0.000000000000000    0.000000000000000 
K           0.333333000000000    0.666667000000000    0.666667000000000 
K           0.666667000000000    0.333333000000000    0.333333000000000 
%ENDBLOCK POSITIONS_FRAC
