# Cell file generated by matador (Matthew Evans 2016)

%BLOCK LATTICE_CART
11.1641 0.0 0.0
0.0 11.1641 0.0
0.0 0.0 11.0749
%ENDBLOCK LATTICE_CART

%BLOCK POSITIONS_FRAC
P           0.236842000000000    0.263158000000000    0.750000000000000 
P           0.236842000000000    0.736842000000000    0.750000000000000 
P           0.263158000000000    0.236842000000000    0.250000000000000 
P           0.263158000000000    0.763158000000000    0.250000000000000 
P           0.736842000000000    0.236842000000000    0.250000000000000 
P           0.736842000000000    0.763158000000000    0.250000000000000 
P           0.763158000000000    0.263158000000000    0.750000000000000 
P           0.763158000000000    0.736842000000000    0.750000000000000 
K           0.000000000000000    0.000000000000000    0.000000000000000 
K           0.000000000000000    0.000000000000000    0.500000000000000 
K           0.000000000000000    0.223806000000000    0.350055000000000 
K           0.000000000000000    0.313625000000000    0.054910000000000 
K           0.000000000000000    0.500000000000000    0.250000000000000 
K           0.000000000000000    0.500000000000000    0.750000000000000 
K           0.000000000000000    0.686375000000000    0.054910000000000 
K           0.000000000000000    0.776194000000000    0.350055000000000 
K           0.186375000000000    0.500000000000000    0.445090000000000 
K           0.223806000000000    0.000000000000000    0.649945000000000 
K           0.276194000000000    0.500000000000000    0.149945000000000 
K           0.313625000000000    0.000000000000000    0.945090000000000 
K           0.500000000000000    0.000000000000000    0.250000000000000 
K           0.500000000000000    0.000000000000000    0.750000000000000 
K           0.500000000000000    0.186375000000000    0.554910000000000 
K           0.500000000000000    0.276194000000000    0.850055000000000 
K           0.500000000000000    0.500000000000000    0.000000000000000 
K           0.500000000000000    0.500000000000000    0.500000000000000 
K           0.500000000000000    0.723806000000000    0.850055000000000 
K           0.500000000000000    0.813625000000000    0.554910000000000 
K           0.686375000000000    0.000000000000000    0.945090000000000 
K           0.723806000000000    0.500000000000000    0.149945000000000 
K           0.776194000000000    0.000000000000000    0.649945000000000 
K           0.813625000000000    0.500000000000000    0.445090000000000 
%ENDBLOCK POSITIONS_FRAC
