# Cell file generated by matador (Matthew Evans 2016)

%BLOCK LATTICE_CART
7.84976 -0.0 0.0
-3.92488 6.79809 0.0
0.0 0.0 7.77249
%ENDBLOCK LATTICE_CART

%BLOCK POSITIONS_FRAC
P           0.999999000000000    0.999999000000000    0.251409000000000 
P           0.999999000000000    0.999999000000000    0.751409000000000 
P           0.333332000000000    0.666666000000000    0.157805000000000 
P           0.333332000000000    0.666666000000000    0.508388000000000 
P           0.333332000000000    0.666666000000000    0.742292000000000 
P           0.666666000000000    0.333332000000000    0.008388000000000 
P           0.666666000000000    0.333332000000000    0.242292000000000 
P           0.666666000000000    0.333332000000000    0.657805000000000 
K           0.103358000000000    0.352913000000000    0.084154000000000 
K           0.249555000000000    0.896640000000000    0.084154000000000 
K           0.352913000000000    0.249555000000000    0.584154000000000 
K           0.647085000000000    0.750443000000000    0.084154000000000 
K           0.750443000000000    0.103358000000000    0.584154000000000 
K           0.896640000000000    0.647085000000000    0.584154000000000 
%ENDBLOCK POSITIONS_FRAC
