# Cell file generated by matador (Matthew Evans 2016)

%BLOCK LATTICE_CART
6.76052 0.0 0.0
0.0 6.76052 0.0
0.0 0.0 7.06431
%ENDBLOCK LATTICE_CART

%BLOCK POSITIONS_FRAC
P          -0.000000000000000    0.500000000000000    0.903845000000000 
P           0.500000000000000   -0.000000000000000    0.903845000000000 
K          -0.000000000000000   -0.000000000000000    0.485764000000000 
K           0.235315000000000    0.264685000000000    0.040980000000000 
K           0.264685000000000    0.764685000000000    0.040980000000000 
K           0.500000000000000    0.500000000000000    0.485764000000000 
K           0.735315000000000    0.235315000000000    0.040980000000000 
K           0.764685000000000    0.735315000000000    0.040980000000000 
%ENDBLOCK POSITIONS_FRAC
