# Cell file generated by matador (Matthew Evans 2016)

%BLOCK LATTICE_CART
7.31095 0.0 0.0
-3.65547 6.33147 0.0
0.0 0.0 8.8412
%ENDBLOCK LATTICE_CART

%BLOCK POSITIONS_FRAC
P           0.000000000000000    0.000000000000000    0.226213000000000 
P           0.000000000000000    0.000000000000000    0.773787000000000 
K           0.000000000000000    0.000000000000000    0.000000000000000 
K           0.000000000000000    0.000000000000000    0.500000000000000 
K           0.139109000000000    0.417121000000000    0.285935000000000 
K           0.278012000000000    0.860891000000000    0.285935000000000 
K           0.333333000000000    0.666667000000000    0.540681000000000 
K           0.333333000000000    0.666667000000000    0.977063000000000 
K           0.417121000000000    0.139109000000000    0.714065000000000 
K           0.582879000000000    0.721988000000000    0.285935000000000 
K           0.666667000000000    0.333333000000000    0.022937000000000 
K           0.666667000000000    0.333333000000000    0.459319000000000 
K           0.721988000000000    0.582879000000000    0.714065000000000 
K           0.860891000000000    0.278012000000000    0.714065000000000 
%ENDBLOCK POSITIONS_FRAC
