# Cell file generated by matador (Matthew Evans 2016)

%BLOCK LATTICE_CART
7.45257 -0.0 0.0
-3.72629 6.45412 0.0
0.0 0.0 5.84699
%ENDBLOCK LATTICE_CART

%BLOCK POSITIONS_FRAC
P           0.000001000000000    0.000001000000000    0.474583000000000 
P           0.000001000000000    0.000001000000000    0.974583000000000 
P           0.020094000000000    0.443851000000000    0.229370000000000 
P           0.423758000000000    0.979908000000000    0.229370000000000 
P           0.443851000000000    0.423758000000000    0.729370000000000 
P           0.556151000000000    0.576244000000000    0.229370000000000 
P           0.576244000000000    0.020094000000000    0.729370000000000 
P           0.979908000000000    0.556151000000000    0.729370000000000 
K           0.333334000000000    0.666668000000000    0.903632000000000 
K           0.666668000000000    0.333334000000000    0.403632000000000 
%ENDBLOCK POSITIONS_FRAC
