# Cell file generated by matador (Matthew Evans 2016)

%BLOCK LATTICE_CART
6.2761 0.0 0.0
0.0 6.98913 0.0
0.0 0.0 6.74162
%ENDBLOCK LATTICE_CART

%BLOCK POSITIONS_FRAC
P           0.000000000000000    0.500000000000000    0.632672000000000 
P           0.500000000000000    0.500000000000000    0.632672000000000 
K           0.000000000000000    0.000000000000000    0.537358000000000 
K           0.250000000000000    0.303790000000000    0.909082000000000 
K           0.250000000000000    0.813692000000000    0.208078000000000 
K           0.500000000000000    0.000000000000000    0.537358000000000 
K           0.750000000000000    0.186308000000000    0.208078000000000 
K           0.750000000000000    0.696210000000000    0.909082000000000 
%ENDBLOCK POSITIONS_FRAC
