# Cell file generated by matador (Matthew Evans 2016)

%BLOCK LATTICE_CART
6.671 0.0 0.0
0.0 6.671 0.0
0.0 0.0 7.10525
%ENDBLOCK LATTICE_CART

%BLOCK POSITIONS_FRAC
P           0.250000000000000    0.750000000000000    0.500000000000000 
P           0.750000000000000    0.250000000000000    0.500000000000000 
K           0.000000000000000    0.000000000000000    0.500000000000000 
K           0.000000000000000    0.500000000000000    0.500000000000000 
K           0.250000000000000    0.250000000000000    0.428078000000000 
K           0.250000000000000    0.750000000000000    0.000000000000000 
K           0.500000000000000    0.000000000000000    0.500000000000000 
K           0.500000000000000    0.500000000000000    0.500000000000000 
K           0.750000000000000    0.250000000000000    0.000000000000000 
K           0.750000000000000    0.750000000000000    0.571922000000000 
%ENDBLOCK POSITIONS_FRAC
