# Cell file generated by matador (Matthew Evans 2016)

%BLOCK LATTICE_CART
6.32817 0.0 0.0
0.0 6.81073 0.0
0.0 0.0 7.29025
%ENDBLOCK LATTICE_CART

%BLOCK POSITIONS_FRAC
P           0.000000000000000    0.285560000000000    0.500000000000000 
P           0.000000000000000    0.500000000000000    0.000000000000000 
P           0.000000000000000    0.714440000000000    0.500000000000000 
P           0.046982000000000    0.500000000000000    0.866290000000000 
P           0.250000000000000    0.500000000000000    0.728850000000000 
P           0.453018000000000    0.500000000000000    0.866290000000000 
P           0.500000000000000    0.285560000000000    0.500000000000000 
P           0.500000000000000    0.500000000000000    0.000000000000000 
P           0.500000000000000    0.714440000000000    0.500000000000000 
P           0.546982000000000    0.500000000000000    0.133710000000000 
P           0.750000000000000    0.500000000000000    0.271150000000000 
P           0.953018000000000    0.500000000000000    0.133710000000000 
K           0.000000000000000    0.000000000000000    0.500000000000000 
K           0.500000000000000    0.000000000000000    0.500000000000000 
%ENDBLOCK POSITIONS_FRAC
