# Cell file generated by matador (Matthew Evans 2016)

%BLOCK LATTICE_CART
7.90521 0.0 0.0
-3.95261 6.84611 0.0
0.0 0.0 8.66652
%ENDBLOCK LATTICE_CART

%BLOCK POSITIONS_FRAC
P           0.000000000000000    0.273115000000000    0.500000000000000 
P           0.000000000000000    0.500000000000000    0.000000000000000 
P           0.000000000000000    0.500000000000000    0.500000000000000 
P           0.000000000000000    0.726885000000000    0.500000000000000 
P           0.273115000000000    0.000000000000000    0.500000000000000 
P           0.273115000000000    0.273115000000000    0.500000000000000 
P           0.333333000000000    0.666667000000000    0.000000000000000 
P           0.500000000000000    0.000000000000000    0.000000000000000 
P           0.500000000000000    0.000000000000000    0.500000000000000 
P           0.500000000000000    0.500000000000000    0.000000000000000 
P           0.500000000000000    0.500000000000000    0.500000000000000 
P           0.666667000000000    0.333333000000000    0.000000000000000 
P           0.726885000000000    0.000000000000000    0.500000000000000 
P           0.726885000000000    0.726885000000000    0.500000000000000 
K           0.000000000000000    0.000000000000000    0.000000000000000 
K           0.000000000000000    0.000000000000000    0.500000000000000 
%ENDBLOCK POSITIONS_FRAC
