# Cell file generated by matador (Matthew Evans 2016)

%BLOCK LATTICE_CART
8.94619 0.0 0.0
-4.47309 7.74763 0.0
0.0 0.0 8.78265
%ENDBLOCK LATTICE_CART

%BLOCK POSITIONS_FRAC
P           0.000000000000000    0.000000000000000    0.250000000000000 
P           0.000000000000000    0.000000000000000    0.750000000000000 
P           0.333333000000000    0.666667000000000    0.000000000000000 
P           0.333333000000000    0.666667000000000    0.500000000000000 
K           0.000000000000000    0.000000000000000    0.000000000000000 
K           0.000000000000000    0.000000000000000    0.500000000000000 
K           0.275481000000000    0.047449000000000    0.750000000000000 
K           0.275481000000000    0.228032000000000    0.250000000000000 
K           0.333333000000000    0.666667000000000    0.250000000000000 
K           0.333333000000000    0.666667000000000    0.750000000000000 
K           0.666667000000000    0.333333000000000    0.000000000000000 
K           0.666667000000000    0.333333000000000    0.500000000000000 
K           0.771968000000000    0.047449000000000    0.250000000000000 
K           0.771968000000000    0.724519000000000    0.750000000000000 
K           0.952551000000000    0.228032000000000    0.750000000000000 
K           0.952551000000000    0.724519000000000    0.250000000000000 
%ENDBLOCK POSITIONS_FRAC
