# Cell file generated by matador (Matthew Evans 2016)

%BLOCK LATTICE_CART
6.71038 0.0 0.0
0.0 9.391 0.0
0.775949 0.0 5.27901
%ENDBLOCK LATTICE_CART

%BLOCK POSITIONS_FRAC
P           0.161723000000000    0.240574000000000    0.425248000000000 
P           0.161723000000000    0.759426000000000    0.425248000000000 
P           0.180114000000000    0.000000000000000    0.777751000000000 
P           0.309826000000000    0.500000000000000    0.777163000000000 
P           0.632431000000000    0.500000000000000    0.700529000000000 
P           0.709598000000000    0.500000000000000    0.187176000000000 
P           0.751942000000000    0.229091000000000    0.576478000000000 
P           0.751942000000000    0.770909000000000    0.576478000000000 
P           0.991523000000000    0.399266000000000    0.158915000000000 
P           0.991523000000000    0.600734000000000    0.158915000000000 
K           0.428160000000000    0.203928000000000    0.849544000000000 
K           0.428160000000000    0.796072000000000    0.849544000000000 
K           0.943542000000000    0.140238000000000    0.816703000000000 
K           0.943542000000000    0.859762000000000    0.816703000000000 
%ENDBLOCK POSITIONS_FRAC
