# Cell file generated by matador (Matthew Evans 2016)

%BLOCK LATTICE_CART
9.52762 0.0 0.0
-4.76381 8.25116 0.0
0.0 0.0 6.42034
%ENDBLOCK LATTICE_CART

%BLOCK POSITIONS_FRAC
P           0.000000000000000    0.000000000000000    0.311511000000000 
P           0.000000000000000    0.000000000000000    0.688489000000000 
P           0.000000000000000    0.500000000000000    0.500000000000000 
P           0.166667000000000    0.333333000000000    0.833333000000000 
P           0.166667000000000    0.833333000000000    0.833333000000000 
P           0.333333000000000    0.166667000000000    0.166667000000000 
P           0.333333000000000    0.666667000000000    0.355156000000000 
P           0.333333000000000    0.666667000000000    0.978177000000000 
P           0.500000000000000    0.000000000000000    0.500000000000000 
P           0.500000000000000    0.500000000000000    0.500000000000000 
P           0.666667000000000    0.333333000000000    0.021823000000000 
P           0.666667000000000    0.333333000000000    0.644844000000000 
P           0.666667000000000    0.833333000000000    0.833333000000000 
P           0.833333000000000    0.166667000000000    0.166667000000000 
P           0.833333000000000    0.666667000000000    0.166667000000000 
K           0.000000000000000    0.000000000000000    0.000000000000000 
K           0.333333000000000    0.666667000000000    0.666667000000000 
K           0.666667000000000    0.333333000000000    0.333333000000000 
%ENDBLOCK POSITIONS_FRAC
