# Cell file generated by matador (Matthew Evans 2016)

%BLOCK LATTICE_CART
8.63415 0.0 0.0
-4.31708 7.4774 0.0
0.0 0.0 13.8293
%ENDBLOCK LATTICE_CART

%BLOCK POSITIONS_FRAC
P           0.185649000000000    0.371297000000000    0.155687000000000 
P           0.185649000000000    0.814351000000000    0.155687000000000 
P           0.521981000000000    0.043960000000000    0.122801000000000 
P           0.521981000000000    0.478019000000000    0.122801000000000 
P           0.628703000000000    0.814351000000000    0.155687000000000 
P           0.956040000000000    0.478019000000000    0.122801000000000 
K           0.195902000000000    0.391804000000000    0.657861000000000 
K           0.195902000000000    0.804098000000000    0.657861000000000 
K           0.207204000000000    0.414408000000000    0.995787000000000 
K           0.207204000000000    0.792796000000000    0.995787000000000 
K           0.209717000000000    0.419432000000000    0.367231000000000 
K           0.209717000000000    0.790283000000000    0.367231000000000 
K           0.322620000000000    0.161310000000000    0.903111000000000 
K           0.361866000000000    0.180932000000000    0.518231000000000 
K           0.366600000000000    0.183300000000000    0.288414000000000 
K           0.580568000000000    0.790283000000000    0.367231000000000 
K           0.585592000000000    0.792796000000000    0.995787000000000 
K           0.608196000000000    0.804098000000000    0.657861000000000 
K           0.816700000000000    0.183300000000000    0.288414000000000 
K           0.816700000000000    0.633400000000000    0.288414000000000 
K           0.819068000000000    0.180932000000000    0.518231000000000 
K           0.819068000000000    0.638134000000000    0.518231000000000 
K           0.838690000000000    0.161310000000000    0.903111000000000 
K           0.838690000000000    0.677380000000000    0.903111000000000 
%ENDBLOCK POSITIONS_FRAC
