# Cell file generated by matador (Matthew Evans 2016)

%BLOCK LATTICE_CART
9.04091 0.0 0.0
-4.52045 7.82966 0.0
0.0 0.0 14.2818
%ENDBLOCK LATTICE_CART

%BLOCK POSITIONS_FRAC
P           0.000000000000000    0.000000000000000    0.269759000000000 
P           0.000000000000000    0.000000000000000    0.791413000000000 
P           0.333333000000000    0.666667000000000    0.458080000000000 
P           0.333333000000000    0.666667000000000    0.936425000000000 
P           0.666667000000000    0.333333000000000    0.124746000000000 
P           0.666667000000000    0.333333000000000    0.603092000000000 
K           0.035591000000000    0.517795000000000    0.100955000000000 
K           0.037308000000000    0.518654000000000    0.313329000000000 
K           0.148012000000000    0.296025000000000    0.646662000000000 
K           0.148012000000000    0.851988000000000    0.646662000000000 
K           0.148871000000000    0.297743000000000    0.434289000000000 
K           0.148871000000000    0.851129000000000    0.434289000000000 
K           0.368924000000000    0.184462000000000    0.767622000000000 
K           0.370642000000000    0.185321000000000    0.979996000000000 
K           0.481346000000000    0.518654000000000    0.313329000000000 
K           0.481346000000000    0.962692000000000    0.313329000000000 
K           0.482205000000000    0.517795000000000    0.100955000000000 
K           0.482205000000000    0.964409000000000    0.100955000000000 
K           0.702257000000000    0.851129000000000    0.434289000000000 
K           0.703975000000000    0.851988000000000    0.646662000000000 
K           0.814679000000000    0.185321000000000    0.979996000000000 
K           0.814679000000000    0.629358000000000    0.979996000000000 
K           0.815538000000000    0.184462000000000    0.767622000000000 
K           0.815538000000000    0.631076000000000    0.767622000000000 
%ENDBLOCK POSITIONS_FRAC
