# Cell file generated by matador (Matthew Evans 2016)

%BLOCK LATTICE_CART
6.69028 0.0 0.0
0.0 6.48485 0.0
0.0 0.0 8.18132
%ENDBLOCK LATTICE_CART

%BLOCK POSITIONS_FRAC
P           0.000000000000000    0.000000000000000    0.159818000000000 
P           0.000000000000000    0.500000000000000    0.321325000000000 
P           0.500000000000000    0.000000000000000    0.821325000000000 
P           0.500000000000000    0.500000000000000    0.659818000000000 
K           0.000000000000000    0.500000000000000    0.698680000000000 
K           0.167398000000000    0.821546000000000    0.977268000000000 
K           0.332602000000000    0.321546000000000    0.477268000000000 
K           0.500000000000000    0.000000000000000    0.198680000000000 
K           0.667398000000000    0.678454000000000    0.477268000000000 
K           0.832602000000000    0.178454000000000    0.977268000000000 
%ENDBLOCK POSITIONS_FRAC
