# Cell file generated by matador (Matthew Evans 2016)

%BLOCK LATTICE_CART
6.54855 0.0 0.0
0.0 5.53307 0.0
-4.51904 0.0 8.30122
%ENDBLOCK LATTICE_CART

%BLOCK POSITIONS_FRAC
P           0.138902000000000    0.611191000000000    0.067059000000000 
P           0.162455000000000    0.399211000000000    0.340111000000000 
P           0.294932000000000    0.764861000000000    0.598985000000000 
P           0.705068000000000    0.764861000000000    0.401015000000000 
P           0.837545000000000    0.399211000000000    0.659889000000000 
P           0.861098000000000    0.611191000000000    0.932941000000000 
K           0.000000000000000    0.092726000000000    0.000000000000000 
K           0.000000000000000    0.390564000000000    0.500000000000000 
K           0.245174000000000    0.541107000000000    0.806905000000000 
K           0.500000000000000    0.643669000000000    0.500000000000000 
K           0.754826000000000    0.541107000000000    0.193095000000000 
%ENDBLOCK POSITIONS_FRAC
