# Cell file generated by matador (Matthew Evans 2016)

%BLOCK LATTICE_CART
8.07277 0.0 0.0
-4.03639 6.99123 0.0
0.0 0.0 11.6588
%ENDBLOCK LATTICE_CART

%BLOCK POSITIONS_FRAC
P           0.000000000000000    0.000000000000000    0.043122000000000 
P           0.000000000000000    0.000000000000000    0.456878000000000 
P           0.000000000000000    0.000000000000000    0.543122000000000 
P           0.000000000000000    0.000000000000000    0.956878000000000 
K           0.000000000000000    0.000000000000000    0.250000000000000 
K           0.000000000000000    0.000000000000000    0.750000000000000 
K           0.000000000000000    0.500000000000000    0.000000000000000 
K           0.000000000000000    0.500000000000000    0.500000000000000 
K           0.333333000000000    0.666667000000000    0.250000000000000 
K           0.333333000000000    0.666667000000000    0.629985000000000 
K           0.333333000000000    0.666667000000000    0.870015000000000 
K           0.500000000000000    0.000000000000000    0.000000000000000 
K           0.500000000000000    0.000000000000000    0.500000000000000 
K           0.500000000000000    0.500000000000000    0.000000000000000 
K           0.500000000000000    0.500000000000000    0.500000000000000 
K           0.666667000000000    0.333333000000000    0.129985000000000 
K           0.666667000000000    0.333333000000000    0.370015000000000 
K           0.666667000000000    0.333333000000000    0.750000000000000 
%ENDBLOCK POSITIONS_FRAC
