# Cell file generated by matador (Matthew Evans 2016)

%BLOCK LATTICE_CART
7.09088 0.0 0.0
0.0 7.09088 0.0
0.0 0.0 8.37444
%ENDBLOCK LATTICE_CART

%BLOCK POSITIONS_FRAC
P           0.000000000000000    0.000000000000000    0.215176000000000 
P           0.211229000000000    0.500000000000000    0.455357000000000 
P           0.335432000000000    0.335432000000000    0.357063000000000 
P           0.335432000000000    0.664568000000000    0.357063000000000 
P           0.500000000000000    0.211229000000000    0.455357000000000 
P           0.500000000000000    0.500000000000000    0.967701000000000 
P           0.500000000000000    0.788771000000000    0.455357000000000 
P           0.664568000000000    0.335432000000000    0.357063000000000 
P           0.664568000000000    0.664568000000000    0.357063000000000 
P           0.788771000000000    0.500000000000000    0.455357000000000 
K           0.000000000000000    0.213271000000000    0.721190000000000 
K           0.000000000000000    0.500000000000000    0.739070000000000 
K           0.000000000000000    0.786729000000000    0.721190000000000 
K           0.213271000000000    0.000000000000000    0.721190000000000 
K           0.500000000000000    0.000000000000000    0.739070000000000 
K           0.786729000000000    0.000000000000000    0.721190000000000 
%ENDBLOCK POSITIONS_FRAC
