# Cell file generated by matador (Matthew Evans 2016)

%BLOCK LATTICE_CART
5.81341 0.0 0.0
0.0 5.78923 0.0
0.0 0.0 6.91408
%ENDBLOCK LATTICE_CART

%BLOCK POSITIONS_FRAC
P           0.000000000000000    0.156801000000000    0.000000000000000 
P           0.000000000000000    0.843199000000000    0.000000000000000 
P           0.500000000000000    0.500000000000000    0.000000000000000 
K           0.000000000000000    0.000000000000000    0.500000000000000 
K           0.000000000000000    0.500000000000000    0.500000000000000 
K           0.500000000000000    0.000000000000000    0.000000000000000 
K           0.500000000000000    0.000000000000000    0.500000000000000 
K           0.500000000000000    0.500000000000000    0.500000000000000 
%ENDBLOCK POSITIONS_FRAC
