# Cell file generated by matador (Matthew Evans 2016)

%BLOCK LATTICE_CART
7.91384 0.0 0.0
-3.95692 6.85359 0.0
0.0 0.0 7.89756
%ENDBLOCK LATTICE_CART

%BLOCK POSITIONS_FRAC
P           0.000000000000000   -0.000000000000000    0.248295000000000 
P           0.000000000000000   -0.000000000000000    0.751705000000000 
P           0.333334000000000    0.666666000000000    0.066909000000000 
P           0.333334000000000    0.666666000000000    0.500000000000000 
P           0.333334000000000    0.666666000000000    0.933091000000000 
P           0.408542000000000    0.204270000000000    0.000000000000000 
P           0.666667000000000    0.333333000000000    0.000000000000000 
P           0.666667000000000    0.333333000000000    0.500000000000000 
P           0.795730000000000    0.204270000000000    0.000000000000000 
P           0.795730000000000    0.591458000000000    0.000000000000000 
K           0.413070000000000    0.072172000000000    0.662639000000000 
K           0.413070000000000    0.340897000000000    0.337361000000000 
K           0.659103000000000    0.072172000000000    0.337361000000000 
K           0.659103000000000    0.586930000000000    0.662639000000000 
K           0.927828000000000    0.340897000000000    0.662639000000000 
K           0.927828000000000    0.586930000000000    0.337361000000000 
%ENDBLOCK POSITIONS_FRAC
