# Cell file generated by matador (Matthew Evans 2016)

%BLOCK LATTICE_CART
5.97851 0.0 0.0
0.0 6.91711 0.0
4.43234 0.0 7.70736
%ENDBLOCK LATTICE_CART

%BLOCK POSITIONS_FRAC
P           0.000000000000000    0.000000000000000    0.000000000000000 
P           0.154031000000000    0.000000000000000    0.639131000000000 
P           0.273127000000000    0.000000000000000    0.691070000000000 
P           0.500000000000000    0.000000000000000    0.000000000000000 
P           0.500000000000000    0.000000000000000    0.500000000000000 
P           0.726873000000000    0.000000000000000    0.308930000000000 
P           0.845969000000000    0.000000000000000    0.360869000000000 
K           0.000000000000000    0.000000000000000    0.500000000000000 
K           0.000000000000000    0.500000000000000    0.000000000000000 
K           0.000000000000000    0.500000000000000    0.500000000000000 
K           0.500000000000000    0.500000000000000    0.500000000000000 
%ENDBLOCK POSITIONS_FRAC
