# Cell file generated by matador (Matthew Evans 2016)

%BLOCK LATTICE_CART
7.36568 0.0 0.0
-3.68284 6.37887 0.0
0.0 0.0 7.78198
%ENDBLOCK LATTICE_CART

%BLOCK POSITIONS_FRAC
P           0.000000000000000    0.000000000000000    0.500000000000000 
P           0.333333000000000    0.666667000000000    0.000000000000000 
P           0.666667000000000    0.333333000000000    0.000000000000000 
K           0.000000000000000    0.000000000000000    0.000000000000000 
K           0.000000000000000    0.573822000000000    0.285076000000000 
K           0.000000000000000    0.573822000000000    0.714924000000000 
K           0.333333000000000    0.666667000000000    0.500000000000000 
K           0.426178000000000    0.426178000000000    0.285076000000000 
K           0.426178000000000    0.426178000000000    0.714924000000000 
K           0.573822000000000    0.000000000000000    0.285076000000000 
K           0.573822000000000    0.000000000000000    0.714924000000000 
K           0.666667000000000    0.333333000000000    0.500000000000000 
%ENDBLOCK POSITIONS_FRAC
