# Cell file generated by matador (Matthew Evans 2016)

%BLOCK LATTICE_CART
8.46203 0.0 0.0
0.0 12.5412 0.0
0.0 0.0 11.4458
%ENDBLOCK LATTICE_CART

%BLOCK POSITIONS_FRAC
P          -0.000000000000000    0.008888000000000    0.172424000000000 
P          -0.000000000000000    0.270516000000000    0.583931000000000 
P          -0.000000000000000    0.729484000000000    0.083931000000000 
P          -0.000000000000000    0.991112000000000    0.672424000000000 
P           0.500000000000000    0.229484000000000    0.083931000000000 
P           0.500000000000000    0.491112000000000    0.672424000000000 
P           0.500000000000000    0.508888000000000    0.172424000000000 
P           0.500000000000000    0.770516000000000    0.583931000000000 
K          -0.000000000000000    0.067441000000000    0.862400000000000 
K          -0.000000000000000    0.120550000000000    0.520548000000000 
K          -0.000000000000000    0.275142000000000    0.329317000000000 
K          -0.000000000000000    0.285097000000000    0.757317000000000 
K          -0.000000000000000    0.336128000000000    0.080354000000000 
K          -0.000000000000000    0.495874000000000    0.896991000000000 
K          -0.000000000000000    0.504126000000000    0.396991000000000 
K          -0.000000000000000    0.663872000000000    0.580354000000000 
K          -0.000000000000000    0.714903000000000    0.257317000000000 
K          -0.000000000000000    0.724858000000000    0.829317000000000 
K          -0.000000000000000    0.879450000000000    0.020548000000000 
K          -0.000000000000000    0.932559000000000    0.362400000000000 
K           0.500000000000000    0.004126000000000    0.396991000000000 
K           0.500000000000000    0.163872000000000    0.580354000000000 
K           0.500000000000000    0.214903000000000    0.257317000000000 
K           0.500000000000000    0.224858000000000    0.829317000000000 
K           0.500000000000000    0.379450000000000    0.020548000000000 
K           0.500000000000000    0.432559000000000    0.362400000000000 
K           0.500000000000000    0.567441000000000    0.862400000000000 
K           0.500000000000000    0.620550000000000    0.520548000000000 
K           0.500000000000000    0.775142000000000    0.329317000000000 
K           0.500000000000000    0.785097000000000    0.757317000000000 
K           0.500000000000000    0.836128000000000    0.080354000000000 
K           0.500000000000000    0.995874000000000    0.896991000000000 
%ENDBLOCK POSITIONS_FRAC
