# Cell file generated by matador (Matthew Evans 2016)

%BLOCK LATTICE_CART
7.39251 0.0 0.0
-3.69625 6.4021 0.0
0.0 0.0 6.8582
%ENDBLOCK LATTICE_CART

%BLOCK POSITIONS_FRAC
P           0.333334000000000    0.666668000000000    0.000000000000000 
P           0.666668000000000    0.333334000000000    0.000000000000000 
K           0.000001000000000    0.431591000000000    0.248819000000000 
K           0.000001000000000    0.431591000000000    0.751181000000000 
K           0.431591000000000    0.000001000000000    0.248819000000000 
K           0.431591000000000    0.000001000000000    0.751181000000000 
K           0.568411000000000    0.568411000000000    0.248819000000000 
K           0.568411000000000    0.568411000000000    0.751181000000000 
%ENDBLOCK POSITIONS_FRAC
