# Cell file generated by matador (Matthew Evans 2016)

%BLOCK LATTICE_CART
6.83145 0.0 0.0
-3.41572 5.91621 0.0
0.0 0.0 6.46278
%ENDBLOCK LATTICE_CART

%BLOCK POSITIONS_FRAC
P          -0.000000000000000    0.000000000000000    0.000000000000000 
P          -0.000000000000000    0.000000000000000    0.500000000000000 
P           0.074252000000000    0.402933000000000    0.233034000000000 
P           0.328679000000000    0.925748000000000    0.233034000000000 
P           0.333333000000000    0.666667000000000    0.680337000000000 
P           0.402932000000000    0.328680000000000    0.766966000000000 
P           0.597067000000000    0.671321000000000    0.233034000000000 
P           0.666666000000000    0.333334000000000    0.319663000000000 
P           0.671320000000000    0.074253000000000    0.766966000000000 
P           0.925747000000000    0.597068000000000    0.766966000000000 
K           0.333333000000000    0.666667000000000    0.081761000000000 
K           0.666666000000000    0.333334000000000    0.918239000000000 
%ENDBLOCK POSITIONS_FRAC
