# Cell file generated by matador (Matthew Evans 2016)

%BLOCK LATTICE_CART
7.77111 0.0 0.0
-3.88556 6.72998 0.0
0.0 0.0 7.39223
%ENDBLOCK LATTICE_CART

%BLOCK POSITIONS_FRAC
P           0.142719000000000    0.285438000000000    0.402643000000000 
P           0.142719000000000    0.857281000000000    0.402643000000000 
P           0.285438000000000    0.142719000000000    0.597357000000000 
P           0.714562000000000    0.857281000000000    0.402643000000000 
P           0.857281000000000    0.142719000000000    0.597357000000000 
P           0.857281000000000    0.714562000000000    0.597357000000000 
K           0.000000000000000   -0.000000000000000    0.000000000000000 
K           0.000000000000000   -0.000000000000000    0.500000000000000 
K           0.000000000000000    0.500000000000000    0.000000000000000 
K           0.000000000000000    0.500000000000000    0.500000000000000 
K           0.500000000000000   -0.000000000000000    0.000000000000000 
K           0.500000000000000   -0.000000000000000    0.500000000000000 
K           0.500000000000000    0.500000000000000    0.000000000000000 
K           0.500000000000000    0.500000000000000    0.500000000000000 
%ENDBLOCK POSITIONS_FRAC
