# Cell file generated by matador (Matthew Evans 2016)

%BLOCK LATTICE_CART
5.43442 0.0 0.0
-2.71721 4.70635 0.0
0.0 0.0 9.9816
%ENDBLOCK LATTICE_CART

%BLOCK POSITIONS_FRAC
P           0.123132000000000    0.333109000000000    0.171966000000000 
P           0.209977000000000    0.876868000000000    0.171966000000000 
P           0.333333000000000    0.666667000000000    0.092580000000000 
P           0.333333000000000    0.666667000000000    0.302985000000000 
P           0.666667000000000    0.333333000000000    0.529730000000000 
P           0.666667000000000    0.333333000000000    0.911265000000000 
P           0.666891000000000    0.790023000000000    0.171966000000000 
K           0.330376000000000    0.223674000000000    0.748987000000000 
K           0.333333000000000    0.666667000000000    0.553487000000000 
K           0.776326000000000    0.106702000000000    0.748987000000000 
K           0.893298000000000    0.669624000000000    0.748987000000000 
%ENDBLOCK POSITIONS_FRAC
