# Cell file generated by matador (Matthew Evans 2016)

%BLOCK LATTICE_CART
7.76173 0.0 0.0
-3.88087 6.72186 0.0
0.0 0.0 6.00716
%ENDBLOCK LATTICE_CART

%BLOCK POSITIONS_FRAC
P           0.000000000000000    0.000000000000000    0.000000000000000 
K           0.000000000000000    0.000000000000000    0.500000000000000 
K           0.000000000000000    0.257674000000000    0.500000000000000 
K           0.257674000000000    0.000000000000000    0.500000000000000 
K           0.333333000000000    0.666667000000000    0.303682000000000 
K           0.666667000000000    0.333333000000000    0.696318000000000 
K           0.742326000000000    0.742326000000000    0.500000000000000 
%ENDBLOCK POSITIONS_FRAC
