# Cell file generated by matador (Matthew Evans 2016)

%BLOCK LATTICE_CART
11.7418 0.0 0.0
-5.87091 10.1687 0.0
0.0 0.0 8.11875
%ENDBLOCK LATTICE_CART

%BLOCK POSITIONS_FRAC
P           0.000000000000000    0.000000000000000    0.262249000000000 
P           0.000000000000000    0.000000000000000    0.916516000000000 
P           0.333333000000000    0.666667000000000    0.583183000000000 
P           0.333333000000000    0.666667000000000    0.928916000000000 
P           0.666667000000000    0.333333000000000    0.249849000000000 
P           0.666667000000000    0.333333000000000    0.595582000000000 
K           0.001233000000000    0.500616000000000    0.273239000000000 
K           0.107740000000000    0.215479000000000    0.180311000000000 
K           0.107740000000000    0.892260000000000    0.180311000000000 
K           0.117854000000000    0.558927000000000    0.846978000000000 
K           0.166050000000000    0.332100000000000    0.606573000000000 
K           0.166050000000000    0.833950000000000    0.606573000000000 
K           0.334566000000000    0.167283000000000    0.939906000000000 
K           0.441073000000000    0.558927000000000    0.846978000000000 
K           0.441073000000000    0.882146000000000    0.846978000000000 
K           0.451187000000000    0.225594000000000    0.513645000000000 
K           0.499384000000000    0.500616000000000    0.273239000000000 
K           0.499384000000000    0.998767000000000    0.273239000000000 
K           0.667900000000000    0.833950000000000    0.606573000000000 
K           0.774406000000000    0.225594000000000    0.513645000000000 
K           0.774406000000000    0.548813000000000    0.513645000000000 
K           0.784521000000000    0.892260000000000    0.180311000000000 
K           0.832717000000000    0.167283000000000    0.939906000000000 
K           0.832717000000000    0.665434000000000    0.939906000000000 
%ENDBLOCK POSITIONS_FRAC
