# Cell file generated by matador (Matthew Evans 2016)

%BLOCK LATTICE_CART
5.26967 0.0 0.0
0.0 11.1198 0.0
0.0 0.0 8.0831
%ENDBLOCK LATTICE_CART

%BLOCK POSITIONS_FRAC
P           0.048013000000000    0.182944000000000    0.767827000000000 
P           0.205170000000000    0.182448000000000    0.186585000000000 
P           0.207260000000000    0.530703000000000    0.595991000000000 
P           0.232801000000000    0.885493000000000    0.881471000000000 
P           0.267199000000000    0.385493000000000    0.381471000000000 
P           0.292740000000000    0.030703000000000    0.095991000000000 
P           0.294830000000000    0.682448000000000    0.686585000000000 
P           0.451987000000000    0.682944000000000    0.267827000000000 
P           0.548013000000000    0.317056000000000    0.767827000000000 
P           0.705170000000000    0.317552000000000    0.186585000000000 
P           0.707260000000000    0.969297000000000    0.595991000000000 
P           0.732801000000000    0.614507000000000    0.881471000000000 
P           0.767199000000000    0.114507000000000    0.381471000000000 
P           0.792740000000000    0.469297000000000    0.095991000000000 
P           0.794830000000000    0.817552000000000    0.686585000000000 
P           0.951987000000000    0.817056000000000    0.267827000000000 
K           0.062726000000000    0.225651000000000    0.503309000000000 
K           0.437274000000000    0.725651000000000    0.003309000000000 
K           0.562726000000000    0.274349000000000    0.503309000000000 
K           0.937274000000000    0.774349000000000    0.003309000000000 
%ENDBLOCK POSITIONS_FRAC
