# Cell file generated by matador (Matthew Evans 2016)

%BLOCK LATTICE_CART
8.8821 0.0 0.0
-4.44105 7.69213 0.0
0.0 0.0 9.08812
%ENDBLOCK LATTICE_CART

%BLOCK POSITIONS_FRAC
P           0.000000000000000    0.000000000000000    0.081894000000000 
P           0.000000000000000    0.000000000000000    0.548355000000000 
P           0.000000000000000    0.000000000000000    0.713791000000000 
P           0.333333000000000    0.666667000000000    0.215021000000000 
P           0.333333000000000    0.666667000000000    0.380457000000000 
P           0.333333000000000    0.666667000000000    0.748560000000000 
P           0.666667000000000    0.333333000000000    0.047124000000000 
P           0.666667000000000    0.333333000000000    0.415227000000000 
P           0.666667000000000    0.333333000000000    0.881688000000000 
K           0.117617000000000    0.351251000000000    0.217056000000000 
K           0.233633000000000    0.882383000000000    0.217056000000000 
K           0.315416000000000    0.099700000000000    0.550389000000000 
K           0.450951000000000    0.017917000000000    0.883722000000000 
K           0.566967000000000    0.549049000000000    0.883722000000000 
K           0.648749000000000    0.766367000000000    0.217056000000000 
K           0.784284000000000    0.684584000000000    0.550389000000000 
K           0.900300000000000    0.215716000000000    0.550389000000000 
K           0.982083000000000    0.433033000000000    0.883722000000000 
%ENDBLOCK POSITIONS_FRAC
