# Cell file generated by matador (Matthew Evans 2016)

%BLOCK LATTICE_CART
7.18454 -0.0 0.0
-3.59227 6.222 0.0
0.0 0.0 6.11488
%ENDBLOCK LATTICE_CART

%BLOCK POSITIONS_FRAC
P           0.000000000000000    0.000000000000000    0.917910000000000 
P           0.139460000000000    0.499043000000000    0.616208000000000 
P           0.359583000000000    0.860540000000000    0.616208000000000 
P           0.390269000000000    0.383712000000000    0.258692000000000 
P           0.500957000000000    0.640417000000000    0.616208000000000 
P           0.616288000000000    0.006557000000000    0.258692000000000 
P           0.993443000000000    0.609731000000000    0.258692000000000 
K           0.000000000000000    0.000000000000000    0.253592000000000 
K           0.666667000000000    0.333333000000000    0.345437000000000 
%ENDBLOCK POSITIONS_FRAC
