# Cell file generated by matador (Matthew Evans 2016)

%BLOCK LATTICE_CART
8.42103 0.0 0.0
0.0 8.42103 0.0
0.0 0.0 5.16577
%ENDBLOCK LATTICE_CART

%BLOCK POSITIONS_FRAC
P           0.000000000000000    0.000000000000000    0.000000000000000 
P           0.000000000000000    0.000000000000000    0.500000000000000 
P           0.149730000000000    0.523738000000000    0.711575000000000 
P           0.476262000000000    0.149730000000000    0.288425000000000 
P           0.500000000000000    0.500000000000000    0.500000000000000 
P           0.523738000000000    0.850270000000000    0.288425000000000 
P           0.850270000000000    0.476262000000000    0.711575000000000 
K           0.355609000000000    0.612741000000000    0.119840000000000 
K           0.387259000000000    0.355609000000000    0.880160000000000 
K           0.612741000000000    0.644391000000000    0.880160000000000 
K           0.644391000000000    0.387259000000000    0.119840000000000 
%ENDBLOCK POSITIONS_FRAC
