# Cell file generated by matador (Matthew Evans 2016)

%BLOCK LATTICE_CART
8.85593 0.0 0.0
-4.42796 7.66946 0.0
0.0 0.0 8.18139
%ENDBLOCK LATTICE_CART

%BLOCK POSITIONS_FRAC
P           0.000000000000000    0.000000000000000    0.484208000000000 
P           0.000000000000000    0.000000000000000    0.623516000000000 
P           0.000000000000000    0.000000000000000    0.776612000000000 
P           0.000000000000000    0.500000000000000    0.653927000000000 
P           0.333333000000000    0.666667000000000    0.796798000000000 
P           0.500000000000000    0.000000000000000    0.653927000000000 
P           0.500000000000000    0.500000000000000    0.653927000000000 
P           0.666667000000000    0.333333000000000    0.796798000000000 
K           0.130817000000000    0.635280000000000    0.128857000000000 
K           0.333333000000000    0.666667000000000    0.525051000000000 
K           0.364720000000000    0.495537000000000    0.128857000000000 
K           0.495537000000000    0.130817000000000    0.128857000000000 
K           0.504463000000000    0.869183000000000    0.128857000000000 
K           0.635280000000000    0.504463000000000    0.128857000000000 
K           0.666667000000000    0.333333000000000    0.525051000000000 
K           0.869183000000000    0.364720000000000    0.128857000000000 
%ENDBLOCK POSITIONS_FRAC
