# Cell file generated by matador (Matthew Evans 2016)

%BLOCK LATTICE_CART
6.15166 -0.0 0.0
-3.07583 5.32749 0.0
0.0 0.0 9.45542
%ENDBLOCK LATTICE_CART

%BLOCK POSITIONS_FRAC
P           0.146417000000000    0.710014000000000    0.816284000000000 
P           0.289986000000000    0.436403000000000    0.816284000000000 
P           0.466388000000000    0.180609000000000    0.443104000000000 
P           0.563597000000000    0.853583000000000    0.816284000000000 
P           0.666667000000000    0.333333000000000    0.464705000000000 
P           0.714221000000000    0.533612000000000    0.443104000000000 
P           0.819391000000000    0.285779000000000    0.443104000000000 
K           0.046804000000000    0.383334000000000    0.993565000000000 
K           0.333333000000000    0.666667000000000    0.213792000000000 
K           0.336530000000000    0.953196000000000    0.993565000000000 
K           0.616666000000000    0.663470000000000    0.993565000000000 
%ENDBLOCK POSITIONS_FRAC
