# Cell file generated by matador (Matthew Evans 2016)

%BLOCK LATTICE_CART
5.43551 0.0 0.0
0.0 7.83473 0.0
2.5089 0.0 6.08115
%ENDBLOCK LATTICE_CART

%BLOCK POSITIONS_FRAC
P           0.277899000000000    0.000000000000000    0.542911000000000 
P           0.812751000000000    0.000000000000000    0.393509000000000 
P           0.902977000000000    0.000000000000000    0.623200000000000 
K           0.178700000000000    0.311943000000000    0.106968000000000 
K           0.178700000000000    0.688057000000000    0.106968000000000 
K           0.295099000000000    0.500000000000000    0.861149000000000 
K           0.872117000000000    0.302449000000000    0.950437000000000 
K           0.872117000000000    0.697551000000000    0.950437000000000 
%ENDBLOCK POSITIONS_FRAC
