# Cell file generated by matador (Matthew Evans 2016)

%BLOCK LATTICE_CART
6.88905 0.0 0.0
-3.44453 5.9661 0.0
0.0 0.0 9.47744
%ENDBLOCK LATTICE_CART

%BLOCK POSITIONS_FRAC
P           0.097690000000000    0.195380000000000    0.000000000000000 
P           0.097690000000000    0.902310000000000    0.000000000000000 
P           0.333333000000000    0.666667000000000    0.500000000000000 
P           0.804620000000000    0.902310000000000    0.000000000000000 
K           0.144250000000000    0.288500000000000    0.500000000000000 
K           0.144250000000000    0.855750000000000    0.500000000000000 
K           0.155068000000000    0.318025000000000    0.222285000000000 
K           0.155068000000000    0.837043000000000    0.777715000000000 
K           0.162957000000000    0.318025000000000    0.777715000000000 
K           0.162957000000000    0.844932000000000    0.222285000000000 
K           0.666667000000000    0.333333000000000    0.000000000000000 
K           0.681975000000000    0.837043000000000    0.222285000000000 
K           0.681975000000000    0.844932000000000    0.777715000000000 
K           0.711500000000000    0.855750000000000    0.500000000000000 
%ENDBLOCK POSITIONS_FRAC
