# Cell file generated by matador (Matthew Evans 2016)

%BLOCK LATTICE_CART
7.44236 0.0 0.0
0.0 6.65031 0.0
0.0 0.0 7.86405
%ENDBLOCK LATTICE_CART

%BLOCK POSITIONS_FRAC
P           0.000000000000000    0.035945000000000    0.250000000000000 
P           0.000000000000000    0.500000000000000    0.000000000000000 
P           0.000000000000000    0.500000000000000    0.500000000000000 
P           0.000000000000000    0.964055000000000    0.750000000000000 
P           0.500000000000000    0.035945000000000    0.750000000000000 
P           0.500000000000000    0.500000000000000    0.000000000000000 
P           0.500000000000000    0.500000000000000    0.500000000000000 
P           0.500000000000000    0.964055000000000    0.250000000000000 
K           0.000000000000000    0.388269000000000    0.750000000000000 
K           0.000000000000000    0.611731000000000    0.250000000000000 
K           0.500000000000000    0.388269000000000    0.250000000000000 
K           0.500000000000000    0.611731000000000    0.750000000000000 
%ENDBLOCK POSITIONS_FRAC
