# Cell file generated by matador (Matthew Evans 2016)

%BLOCK LATTICE_CART
7.71083 -0.0 0.0
-3.85542 6.67778 0.0
0.0 0.0 7.39326
%ENDBLOCK LATTICE_CART

%BLOCK POSITIONS_FRAC
P           0.040765000000000    0.188059000000000    0.745325000000000 
P           0.147294000000000    0.959235000000000    0.745325000000000 
P           0.188059000000000    0.147294000000000    0.254675000000000 
P           0.811941000000000    0.852706000000000    0.745325000000000 
P           0.852706000000000    0.040765000000000    0.254675000000000 
P           0.959235000000000    0.811941000000000    0.254675000000000 
K           0.000000000000000    0.500000000000000    0.000000000000000 
K           0.000000000000000    0.500000000000000    0.500000000000000 
K           0.333333000000000    0.666667000000000    0.762855000000000 
K           0.500000000000000    0.000000000000000    0.000000000000000 
K           0.500000000000000    0.000000000000000    0.500000000000000 
K           0.500000000000000    0.500000000000000    0.000000000000000 
K           0.500000000000000    0.500000000000000    0.500000000000000 
K           0.666667000000000    0.333333000000000    0.237145000000000 
%ENDBLOCK POSITIONS_FRAC
