# Cell file generated by matador (Matthew Evans 2016)

%BLOCK LATTICE_CART
9.09405 0.0 0.0
0.0 8.75048 0.0
0.0 0.0 12.1251
%ENDBLOCK LATTICE_CART

%BLOCK POSITIONS_FRAC
P           0.000000000000000    0.000000000000000    0.000000000000000 
P           0.000000000000000    0.000000000000000    0.500000000000000 
P           0.000000000000000    0.500000000000000    0.000000000000000 
P           0.500000000000000    0.000000000000000    0.000000000000000 
P           0.500000000000000    0.000000000000000    0.500000000000000 
P           0.500000000000000    0.500000000000000    0.500000000000000 
K           0.000000000000000    0.168215000000000    0.158478000000000 
K           0.000000000000000    0.188774000000000    0.401739000000000 
K           0.000000000000000    0.492278000000000    0.252544000000000 
K           0.000000000000000    0.500000000000000    0.500000000000000 
K           0.000000000000000    0.507722000000000    0.747456000000000 
K           0.000000000000000    0.811226000000000    0.598261000000000 
K           0.000000000000000    0.831785000000000    0.841522000000000 
K           0.250000000000000    0.229375000000000    0.750000000000000 
K           0.250000000000000    0.770625000000000    0.250000000000000 
K           0.500000000000000    0.168215000000000    0.341522000000000 
K           0.500000000000000    0.188774000000000    0.098261000000000 
K           0.500000000000000    0.492278000000000    0.247456000000000 
K           0.500000000000000    0.500000000000000    0.000000000000000 
K           0.500000000000000    0.507722000000000    0.752544000000000 
K           0.500000000000000    0.811226000000000    0.901739000000000 
K           0.500000000000000    0.831785000000000    0.658478000000000 
K           0.750000000000000    0.229375000000000    0.750000000000000 
K           0.750000000000000    0.770625000000000    0.250000000000000 
%ENDBLOCK POSITIONS_FRAC
