# Cell file generated by matador (Matthew Evans 2016)

%BLOCK LATTICE_CART
8.82738 0.0 0.0
0.0 8.96707 0.0
2.53596 0.0 5.30738
%ENDBLOCK LATTICE_CART

%BLOCK POSITIONS_FRAC
P           0.000000000000000    0.000000000000000    0.500000000000000 
P           0.000000000000000    0.500000000000000    0.000000000000000 
P           0.500000000000000    0.000000000000000    0.500000000000000 
P           0.500000000000000    0.500000000000000    0.000000000000000 
P           0.500000000000000    0.500000000000000    0.500000000000000 
K           0.000000000000000    0.000000000000000    0.000000000000000 
K           0.000000000000000    0.500000000000000    0.500000000000000 
K           0.369420000000000    0.208470000000000    0.298426000000000 
K           0.369420000000000    0.791530000000000    0.298426000000000 
K           0.630580000000000    0.208470000000000    0.701574000000000 
K           0.630580000000000    0.791530000000000    0.701574000000000 
%ENDBLOCK POSITIONS_FRAC
