# Cell file generated by matador (Matthew Evans 2016)

%BLOCK LATTICE_CART
7.61651 0.0 0.0
0.0 8.44818 0.0
0.0 0.0 6.23306
%ENDBLOCK LATTICE_CART

%BLOCK POSITIONS_FRAC
P           0.136795000000000    0.535555000000000    0.520769000000000 
P           0.136795000000000    0.964445000000000    0.979231000000000 
P           0.363205000000000    0.535555000000000    0.979231000000000 
P           0.363205000000000    0.964445000000000    0.520769000000000 
P           0.636795000000000    0.035555000000000    0.479231000000000 
P           0.636795000000000    0.464445000000000    0.020769000000000 
P           0.863205000000000    0.035555000000000    0.020769000000000 
P           0.863205000000000    0.464445000000000    0.479231000000000 
K           0.250000000000000    0.250000000000000    0.750000000000000 
K           0.250000000000000    0.750000000000000    0.250000000000000 
K           0.250000000000000    0.750000000000000    0.750000000000000 
K           0.750000000000000    0.250000000000000    0.250000000000000 
K           0.750000000000000    0.250000000000000    0.750000000000000 
K           0.750000000000000    0.750000000000000    0.250000000000000 
%ENDBLOCK POSITIONS_FRAC
