# Cell file generated by matador (Matthew Evans 2016)

%BLOCK LATTICE_CART
6.07358 0.0 0.0
-2.44353 7.74259 0.0
4.54436 4.0081 7.99593
%ENDBLOCK LATTICE_CART

%BLOCK POSITIONS_FRAC
P           0.500000000000000    0.000000000000000    0.500000000000000 
P           0.500000000000000    0.500000000000000    0.000000000000000 
K           0.000000000000000    0.000000000000000    0.000000000000000 
K           0.000000000000000    0.000000000000000    0.500000000000000 
K           0.000000000000000    0.500000000000000    0.000000000000000 
K           0.000000000000000    0.500000000000000    0.500000000000000 
K           0.445588000000000    0.436433000000000    0.334500000000000 
K           0.451364000000000    0.801608000000000    0.282586000000000 
K           0.500000000000000    0.000000000000000    0.000000000000000 
K           0.500000000000000    0.500000000000000    0.500000000000000 
K           0.548636000000000    0.198392000000000    0.717414000000000 
K           0.554412000000000    0.563567000000000    0.665500000000000 
%ENDBLOCK POSITIONS_FRAC
