# Cell file generated by matador (Matthew Evans 2016)

%BLOCK LATTICE_CART
8.02983 -0.0 0.0
-4.01491 6.95403 0.0
0.0 0.0 8.5088
%ENDBLOCK LATTICE_CART

%BLOCK POSITIONS_FRAC
P           0.000001000000000    0.000001000000000    0.000000000000000 
P           0.000001000000000    0.000001000000000    0.119639000000000 
P           0.000001000000000    0.000001000000000    0.250000000000000 
P           0.000001000000000    0.000001000000000    0.380361000000000 
P           0.000001000000000    0.000001000000000    0.500000000000000 
P           0.000001000000000    0.000001000000000    0.619639000000000 
P           0.000001000000000    0.000001000000000    0.750000000000000 
P           0.000001000000000    0.000001000000000    0.880361000000000 
K           0.072722000000000    0.275077000000000    0.750000000000000 
K           0.202357000000000    0.927280000000000    0.750000000000000 
K           0.275077000000000    0.202357000000000    0.250000000000000 
K           0.724925000000000    0.797645000000000    0.750000000000000 
K           0.797645000000000    0.072722000000000    0.250000000000000 
K           0.927280000000000    0.724925000000000    0.250000000000000 
%ENDBLOCK POSITIONS_FRAC
