# Cell file generated by matador (Matthew Evans 2016)

%BLOCK LATTICE_CART
7.63843 0.0 0.0
0.0 7.05254 0.0
0.0 0.0 8.0241
%ENDBLOCK LATTICE_CART

%BLOCK POSITIONS_FRAC
P           0.000000000000000    0.240816000000000    0.917408000000000 
P           0.000000000000000    0.759184000000000    0.917408000000000 
P           0.375279000000000    0.000000000000000    0.412179000000000 
P           0.500000000000000    0.335606000000000    0.407498000000000 
P           0.500000000000000    0.500000000000000    0.957518000000000 
P           0.500000000000000    0.664394000000000    0.407498000000000 
P           0.624721000000000    0.000000000000000    0.412179000000000 
K           0.151988000000000    0.000000000000000    0.782110000000000 
K           0.291693000000000    0.226266000000000    0.986550000000000 
K           0.291693000000000    0.773734000000000    0.986550000000000 
K           0.708307000000000    0.226266000000000    0.986550000000000 
K           0.708307000000000    0.773734000000000    0.986550000000000 
K           0.848012000000000    0.000000000000000    0.782110000000000 
%ENDBLOCK POSITIONS_FRAC
