# Cell file generated by matador (Matthew Evans 2016)

%BLOCK LATTICE_CART
10.657 0.0 0.0
-5.32848 9.2292 0.0
0.0 0.0 5.5562
%ENDBLOCK LATTICE_CART

%BLOCK POSITIONS_FRAC
P          -0.000000000000000    0.500000000000000    0.333333000000000 
P           0.126297000000000    0.563149000000000    0.333333000000000 
P           0.436851000000000    0.563149000000000    0.666667000000000 
P           0.436851000000000    0.873703000000000    0.000000000000000 
P           0.500000000000000   -0.000000000000000    0.000000000000000 
P           0.500000000000000    0.500000000000000    0.666667000000000 
P           0.563149000000000    0.126297000000000    0.000000000000000 
P           0.563149000000000    0.436851000000000    0.666667000000000 
P           0.873703000000000    0.436851000000000    0.333333000000000 
K          -0.000000000000000    0.262264000000000    0.333333000000000 
K          -0.000000000000000    0.737736000000000    0.333333000000000 
K           0.262264000000000   -0.000000000000000    0.000000000000000 
K           0.262264000000000    0.262264000000000    0.666667000000000 
K           0.737736000000000   -0.000000000000000    0.000000000000000 
K           0.737736000000000    0.737736000000000    0.666667000000000 
%ENDBLOCK POSITIONS_FRAC
