# Cell file generated by matador (Matthew Evans 2016)

%BLOCK LATTICE_CART
5.37738 0.0 0.0
0.0 6.00524 0.0
-0.734706 0.0 5.37032
%ENDBLOCK LATTICE_CART

%BLOCK POSITIONS_FRAC
P           0.000000000000000    0.098164000000000    0.500000000000000 
P           0.343015000000000    0.351075000000000    0.066830000000000 
P           0.379947000000000    0.986614000000000    0.915366000000000 
P           0.500000000000000    0.703533000000000    0.000000000000000 
P           0.620053000000000    0.986614000000000    0.084633000000000 
P           0.656985000000000    0.351075000000000    0.933170000000000 
K           0.000000000000000    0.915253000000000    0.000000000000000 
%ENDBLOCK POSITIONS_FRAC
