# Cell file generated by matador (Matthew Evans 2016)

%BLOCK LATTICE_CART
9.44282 0.0 0.0
0.0 6.13597 0.0
2.99674 0.0 7.75048
%ENDBLOCK LATTICE_CART

%BLOCK POSITIONS_FRAC
P           0.000000000000000    0.212563000000000    0.500000000000000 
P           0.170033000000000    0.054271000000000    0.751610000000000 
P           0.500000000000000    0.684604000000000    0.000000000000000 
P           0.829967000000000    0.054271000000000    0.248390000000000 
K           0.000000000000000    0.127025000000000    0.000000000000000 
K           0.187533000000000    0.553416000000000    0.382389000000000 
K           0.314731000000000    0.879807000000000    0.033626000000000 
K           0.409737000000000    0.397456000000000    0.813542000000000 
K           0.590263000000000    0.397456000000000    0.186458000000000 
K           0.685269000000000    0.879807000000000    0.966374000000000 
K           0.812467000000000    0.553416000000000    0.617611000000000 
%ENDBLOCK POSITIONS_FRAC
