# Cell file generated by matador (Matthew Evans 2016)

%BLOCK LATTICE_CART
7.87588 0.0 0.0
0.0 7.87588 0.0
0.0 0.0 11.6878
%ENDBLOCK LATTICE_CART

%BLOCK POSITIONS_FRAC
P           0.000000000000000    0.000000000000000    0.000000000000000 
P           0.000000000000000    0.000000000000000    0.085610000000000 
P           0.000000000000000    0.000000000000000    0.914390000000000 
P           0.000000000000000    0.186343000000000    0.898782000000000 
P           0.000000000000000    0.813657000000000    0.898782000000000 
P           0.186343000000000    0.000000000000000    0.101218000000000 
P           0.313657000000000    0.500000000000000    0.398782000000000 
P           0.500000000000000    0.313657000000000    0.601218000000000 
P           0.500000000000000    0.500000000000000    0.414390000000000 
P           0.500000000000000    0.500000000000000    0.500000000000000 
P           0.500000000000000    0.500000000000000    0.585610000000000 
P           0.500000000000000    0.686343000000000    0.601218000000000 
P           0.686343000000000    0.500000000000000    0.398782000000000 
P           0.813657000000000    0.000000000000000    0.101218000000000 
K           0.000000000000000    0.000000000000000    0.500000000000000 
K           0.000000000000000    0.500000000000000    0.082485000000000 
K           0.000000000000000    0.500000000000000    0.582485000000000 
K           0.500000000000000    0.000000000000000    0.417515000000000 
K           0.500000000000000    0.000000000000000    0.917515000000000 
K           0.500000000000000    0.500000000000000    0.000000000000000 
%ENDBLOCK POSITIONS_FRAC
