# Cell file generated by matador (Matthew Evans 2016)

%BLOCK LATTICE_CART
7.83722 0.0 0.0
0.0 7.83722 0.0
0.0 0.0 6.64009
%ENDBLOCK LATTICE_CART

%BLOCK POSITIONS_FRAC
P           0.000000000000000    0.500000000000000    0.089671000000000 
P           0.000000000000000    0.500000000000000    0.910329000000000 
P           0.193130000000000    0.500000000000000    0.500000000000000 
P           0.500000000000000    0.000000000000000    0.089671000000000 
P           0.500000000000000    0.000000000000000    0.910329000000000 
P           0.500000000000000    0.193130000000000    0.500000000000000 
P           0.500000000000000    0.500000000000000    0.000000000000000 
P           0.500000000000000    0.806870000000000    0.500000000000000 
P           0.806870000000000    0.500000000000000    0.500000000000000 
K           0.000000000000000    0.000000000000000    0.000000000000000 
K           0.000000000000000    0.000000000000000    0.500000000000000 
K           0.500000000000000    0.500000000000000    0.500000000000000 
%ENDBLOCK POSITIONS_FRAC
