# Cell file generated by matador (Matthew Evans 2016)

%BLOCK LATTICE_CART
8.03107 0.0 0.0
0.0 8.03107 0.0
0.0 0.0 10.429
%ENDBLOCK LATTICE_CART

%BLOCK POSITIONS_FRAC
P           0.168816000000000    0.668816000000000    0.809784000000000 
P           0.331184000000000    0.168816000000000    0.809784000000000 
P           0.668816000000000    0.831184000000000    0.809784000000000 
P           0.831184000000000    0.331184000000000    0.809784000000000 
K           0.000000000000000    0.000000000000000    0.974778000000000 
K           0.000000000000000    0.500000000000000    0.747772000000000 
K           0.143790000000000    0.643790000000000    0.046242000000000 
K           0.190891000000000    0.309109000000000    0.442501000000000 
K           0.309109000000000    0.809109000000000    0.442501000000000 
K           0.356210000000000    0.143790000000000    0.046242000000000 
K           0.500000000000000    0.000000000000000    0.747772000000000 
K           0.500000000000000    0.500000000000000    0.974778000000000 
K           0.643790000000000    0.856210000000000    0.046242000000000 
K           0.690891000000000    0.190891000000000    0.442501000000000 
K           0.809109000000000    0.690891000000000    0.442501000000000 
K           0.856210000000000    0.356210000000000    0.046242000000000 
%ENDBLOCK POSITIONS_FRAC
