# Cell file generated by matador (Matthew Evans 2016)

%BLOCK LATTICE_CART
7.16169 0.0 0.0
-3.58085 6.20221 0.0
0.0 0.0 6.92102
%ENDBLOCK LATTICE_CART

%BLOCK POSITIONS_FRAC
P           0.000000000000000    0.000000000000000    0.929886000000000 
P           0.333333000000000    0.666667000000000    0.784583000000000 
K           0.386149000000000    0.193075000000000    0.638941000000000 
K           0.510928000000000    0.021856000000000    0.061499000000000 
K           0.510928000000000    0.489072000000000    0.061499000000000 
K           0.806925000000000    0.193075000000000    0.638941000000000 
K           0.806925000000000    0.613851000000000    0.638941000000000 
K           0.978144000000000    0.489072000000000    0.061499000000000 
%ENDBLOCK POSITIONS_FRAC
