# Cell file generated by matador (Matthew Evans 2016)

%BLOCK LATTICE_CART
6.99785 0.0 0.0
-3.49893 6.06032 0.0
0.0 0.0 11.1339
%ENDBLOCK LATTICE_CART

%BLOCK POSITIONS_FRAC
P           0.000000000000000    0.500000000000000    0.000000000000000 
P           0.500000000000000    0.000000000000000    0.000000000000000 
P           0.500000000000000    0.500000000000000    0.000000000000000 
K           0.000000000000000    0.000000000000000    0.000000000000000 
K           0.000000000000000    0.270823000000000    0.312619000000000 
K           0.000000000000000    0.729177000000000    0.687381000000000 
K           0.270823000000000    0.000000000000000    0.312619000000000 
K           0.270823000000000    0.270823000000000    0.687381000000000 
K           0.333333000000000    0.666667000000000    0.500000000000000 
K           0.666667000000000    0.333333000000000    0.500000000000000 
K           0.729177000000000    0.000000000000000    0.687381000000000 
K           0.729177000000000    0.729177000000000    0.312619000000000 
%ENDBLOCK POSITIONS_FRAC
