# Cell file generated by matador (Matthew Evans 2016)

%BLOCK LATTICE_CART
7.29426 0.0 0.0
0.0 7.29426 0.0
0.0 0.0 6.35593
%ENDBLOCK LATTICE_CART

%BLOCK POSITIONS_FRAC
P           0.000000000000000    0.343843000000000    0.020359000000000 
P           0.000000000000000    0.656157000000000    0.020359000000000 
P           0.170971000000000    0.271848000000000    0.708522000000000 
P           0.170971000000000    0.728152000000000    0.708522000000000 
P           0.271848000000000    0.170971000000000    0.208522000000000 
P           0.271848000000000    0.829029000000000    0.208522000000000 
P           0.343843000000000    0.000000000000000    0.520359000000000 
P           0.656157000000000    0.000000000000000    0.520359000000000 
P           0.728152000000000    0.170971000000000    0.208522000000000 
P           0.728152000000000    0.829029000000000    0.208522000000000 
P           0.829029000000000    0.271848000000000    0.708522000000000 
P           0.829029000000000    0.728152000000000    0.708522000000000 
K           0.000000000000000    0.500000000000000    0.546376000000000 
K           0.500000000000000    0.000000000000000    0.046376000000000 
%ENDBLOCK POSITIONS_FRAC
