# Cell file generated by matador (Matthew Evans 2016)

%BLOCK LATTICE_CART
7.10248 0.0 0.0
0.0 7.10248 0.0
0.0 0.0 7.10248
%ENDBLOCK LATTICE_CART

%BLOCK POSITIONS_FRAC
P           0.000000000000000    0.000000000000000    0.000000000000000 
P           0.281591000000000    0.500000000000000    0.500000000000000 
P           0.500000000000000    0.281591000000000    0.500000000000000 
P           0.500000000000000    0.500000000000000    0.281591000000000 
P           0.500000000000000    0.500000000000000    0.718409000000000 
P           0.500000000000000    0.718409000000000    0.500000000000000 
P           0.718409000000000    0.500000000000000    0.500000000000000 
K           0.000000000000000    0.000000000000000    0.500000000000000 
K           0.000000000000000    0.500000000000000    0.000000000000000 
K           0.000000000000000    0.500000000000000    0.500000000000000 
K           0.500000000000000    0.000000000000000    0.000000000000000 
K           0.500000000000000    0.000000000000000    0.500000000000000 
K           0.500000000000000    0.500000000000000    0.000000000000000 
%ENDBLOCK POSITIONS_FRAC
