# Cell file generated by matador (Matthew Evans 2016)

%BLOCK LATTICE_CART
5.92537 0.0 0.0
-2.96268 5.13152 0.0
0.0 0.0 7.35149
%ENDBLOCK LATTICE_CART

%BLOCK POSITIONS_FRAC
P           0.999999000000000    0.999999000000000    0.452802000000000 
P           0.999999000000000    0.499999000000000    0.103309000000000 
P           0.999999000000000    0.499999000000000    0.454457000000000 
P           0.499999000000000    0.999999000000000    0.103309000000000 
P           0.499999000000000    0.999999000000000    0.454457000000000 
P           0.499999000000000    0.499999000000000    0.103309000000000 
P           0.499999000000000    0.499999000000000    0.454457000000000 
K           0.333332000000000    0.666666000000000    0.658815000000000 
K           0.666666000000000    0.333332000000000    0.658815000000000 
%ENDBLOCK POSITIONS_FRAC
