# Cell file generated by matador (Matthew Evans 2016)

%BLOCK LATTICE_CART
8.58023 0.0 0.0
-4.29011 7.43069 0.0
0.0 0.0 13.246
%ENDBLOCK LATTICE_CART

%BLOCK POSITIONS_FRAC
P           0.000000000000000    0.000000000000000    0.181433000000000 
P           0.000000000000000    0.000000000000000    0.818567000000000 
P           0.333333000000000    0.666667000000000    0.000000000000000 
P           0.333333000000000    0.666667000000000    0.500000000000000 
P           0.666667000000000    0.333333000000000    0.000000000000000 
P           0.666667000000000    0.333333000000000    0.500000000000000 
K           0.000000000000000    0.226934000000000    0.307332000000000 
K           0.000000000000000    0.446121000000000    0.776171000000000 
K           0.000000000000000    0.500000000000000    0.000000000000000 
K           0.000000000000000    0.500000000000000    0.500000000000000 
K           0.000000000000000    0.553879000000000    0.223829000000000 
K           0.000000000000000    0.773066000000000    0.692668000000000 
K           0.226934000000000    0.000000000000000    0.307332000000000 
K           0.226934000000000    0.226934000000000    0.692668000000000 
K           0.446121000000000    0.000000000000000    0.776171000000000 
K           0.446121000000000    0.446121000000000    0.223829000000000 
K           0.500000000000000    0.000000000000000    0.000000000000000 
K           0.500000000000000    0.000000000000000    0.500000000000000 
K           0.500000000000000    0.500000000000000    0.000000000000000 
K           0.500000000000000    0.500000000000000    0.500000000000000 
K           0.553879000000000    0.000000000000000    0.223829000000000 
K           0.553879000000000    0.553879000000000    0.776171000000000 
K           0.773066000000000    0.000000000000000    0.692668000000000 
K           0.773066000000000    0.773066000000000    0.307332000000000 
%ENDBLOCK POSITIONS_FRAC
