# Cell file generated by matador (Matthew Evans 2016)

%BLOCK LATTICE_CART
7.06638 0.0 0.0
0.0 5.71348 0.0
2.36135 0.0 8.05828
%ENDBLOCK LATTICE_CART

%BLOCK POSITIONS_FRAC
P           0.163812000000000    0.341412000000000    0.130032000000000 
P           0.437098000000000    0.871140000000000    0.623800000000000 
P           0.472152000000000    0.412400000000000    0.849299000000000 
P           0.527848000000000    0.912400000000000    0.150701000000000 
P           0.562902000000000    0.371140000000000    0.376200000000000 
P           0.836188000000000    0.841412000000000    0.869968000000000 
K           0.088366000000000    0.744540000000000    0.231815000000000 
K           0.168370000000000    0.015119000000000    0.559357000000000 
K           0.831630000000000    0.515119000000000    0.440643000000000 
K           0.911634000000000    0.244540000000000    0.768185000000000 
%ENDBLOCK POSITIONS_FRAC
