# Cell file generated by matador (Matthew Evans 2016)

%BLOCK LATTICE_CART
7.27016 0.0 0.0
0.0 7.27016 0.0
0.0 0.0 10.8245
%ENDBLOCK LATTICE_CART

%BLOCK POSITIONS_FRAC
P          -0.000000000000000    0.000000000000000    0.000000000000000 
P          -0.000000000000000    0.276659000000000    0.500000000000000 
P          -0.000000000000000    0.500000000000000    0.000000000000000 
P          -0.000000000000000    0.500000000000000    0.500000000000000 
P          -0.000000000000000    0.723341000000000    0.500000000000000 
P           0.223341000000000    0.500000000000000    0.000000000000000 
P           0.276659000000000    0.000000000000000    0.500000000000000 
P           0.500000000000000    0.000000000000000    0.000000000000000 
P           0.500000000000000    0.000000000000000    0.500000000000000 
P           0.500000000000000    0.223341000000000    0.000000000000000 
P           0.500000000000000    0.500000000000000    0.500000000000000 
P           0.500000000000000    0.776659000000000    0.000000000000000 
P           0.723341000000000    0.000000000000000    0.500000000000000 
P           0.776659000000000    0.500000000000000    0.000000000000000 
K          -0.000000000000000    0.000000000000000    0.500000000000000 
K           0.500000000000000    0.500000000000000    0.000000000000000 
%ENDBLOCK POSITIONS_FRAC
