# Cell file generated by matador (Matthew Evans 2016)

%BLOCK LATTICE_CART
5.89461 0.0 0.0
0.0 5.89461 0.0
0.0 0.0 12.3952
%ENDBLOCK LATTICE_CART

%BLOCK POSITIONS_FRAC
P           0.013748000000000    0.266156000000000    0.860360000000000 
P           0.013748000000000    0.733844000000000    0.360360000000000 
P           0.266156000000000    0.013748000000000    0.639640000000000 
P           0.266156000000000    0.986252000000000    0.139640000000000 
P           0.500000000000000    0.500000000000000    0.000000000000000 
P           0.500000000000000    0.500000000000000    0.500000000000000 
P           0.733844000000000    0.013748000000000    0.139640000000000 
P           0.733844000000000    0.986252000000000    0.639640000000000 
P           0.986252000000000    0.266156000000000    0.360360000000000 
P           0.986252000000000    0.733844000000000    0.860360000000000 
K           0.000000000000000    0.000000000000000    0.000000000000000 
K           0.000000000000000    0.000000000000000    0.250000000000000 
K           0.000000000000000    0.000000000000000    0.500000000000000 
K           0.000000000000000    0.000000000000000    0.750000000000000 
K           0.500000000000000    0.500000000000000    0.250000000000000 
K           0.500000000000000    0.500000000000000    0.750000000000000 
%ENDBLOCK POSITIONS_FRAC
