# Cell file generated by matador (Matthew Evans 2016)

%BLOCK LATTICE_CART
6.41547 0.0 0.0
-3.20773 5.55596 0.0
0.0 0.0 7.05963
%ENDBLOCK LATTICE_CART

%BLOCK POSITIONS_FRAC
P           0.000000000000000   -0.000000000000000    0.000000000000000 
P           0.000000000000000   -0.000000000000000    0.500000000000000 
P           0.029604000000000    0.290171000000000    0.750000000000000 
P           0.029604000000000    0.739433000000000    0.250000000000000 
P           0.260567000000000    0.290171000000000    0.250000000000000 
P           0.260567000000000    0.970396000000000    0.750000000000000 
P           0.709829000000000    0.739433000000000    0.750000000000000 
P           0.709829000000000    0.970396000000000    0.250000000000000 
K           0.666667000000000    0.333333000000000    0.250000000000000 
K           0.666667000000000    0.333333000000000    0.750000000000000 
%ENDBLOCK POSITIONS_FRAC
