# Cell file generated by matador (Matthew Evans 2016)

%BLOCK LATTICE_CART
7.56051 0.0 0.0
-3.78025 6.54759 0.0
0.0 0.0 9.38011
%ENDBLOCK LATTICE_CART

%BLOCK POSITIONS_FRAC
P           0.000000000000000    0.000000000000000    0.000000000000000 
P           0.333333000000000    0.666667000000000    0.000000000000000 
K           0.079124000000000    0.539562000000000    0.285409000000000 
K           0.079124000000000    0.539562000000000    0.714591000000000 
K           0.361212000000000    0.180606000000000    0.000000000000000 
K           0.460438000000000    0.539562000000000    0.285409000000000 
K           0.460438000000000    0.539562000000000    0.714591000000000 
K           0.460438000000000    0.920876000000000    0.285409000000000 
K           0.460438000000000    0.920876000000000    0.714591000000000 
K           0.666667000000000    0.333333000000000    0.000000000000000 
K           0.819394000000000    0.180606000000000    0.000000000000000 
K           0.819394000000000    0.638788000000000    0.000000000000000 
%ENDBLOCK POSITIONS_FRAC
