# Cell file generated by matador (Matthew Evans 2016)

%BLOCK LATTICE_CART
7.02488 0.0 0.0
0.0 7.02488 0.0
0.0 0.0 8.26031
%ENDBLOCK LATTICE_CART

%BLOCK POSITIONS_FRAC
P           0.000000000000000    0.500000000000000    0.250000000000000 
P           0.500000000000000    0.000000000000000    0.750000000000000 
K           0.000000000000000    0.000000000000000    0.000000000000000 
K           0.000000000000000    0.000000000000000    0.500000000000000 
K           0.104858000000000    0.395142000000000    0.750000000000000 
K           0.395142000000000    0.895142000000000    0.250000000000000 
K           0.500000000000000    0.500000000000000    0.000000000000000 
K           0.500000000000000    0.500000000000000    0.500000000000000 
K           0.604858000000000    0.104858000000000    0.250000000000000 
K           0.895142000000000    0.604858000000000    0.750000000000000 
%ENDBLOCK POSITIONS_FRAC
