# Cell file generated by matador (Matthew Evans 2016)

%BLOCK LATTICE_CART
2.29382 0.0 0.0
0.0 8.00185 0.0
0.0 0.0 12.5177
%ENDBLOCK LATTICE_CART

%BLOCK POSITIONS_FRAC
P           0.000000000000000    0.500000000000000    0.544487000000000 
P           0.014088000000000    0.666179000000000    0.952046000000000 
P           0.485912000000000    0.666179000000000    0.952046000000000 
P           0.500000000000000    0.500000000000000    0.544487000000000 
P           0.514088000000000    0.333821000000000    0.952046000000000 
P           0.985912000000000    0.333821000000000    0.952046000000000 
K           0.250000000000000    0.816370000000000    0.307054000000000 
K           0.750000000000000    0.183630000000000    0.307054000000000 
%ENDBLOCK POSITIONS_FRAC
