# Cell file generated by matador (Matthew Evans 2016)

%BLOCK LATTICE_CART
5.85885 0.0 0.0
-2.92942 5.07391 0.0
0.0 0.0 10.6267
%ENDBLOCK LATTICE_CART

%BLOCK POSITIONS_FRAC
P           0.000000000000000    0.399847000000000    0.027266000000000 
P           0.333333000000000    0.666667000000000    0.091682000000000 
P           0.333333000000000    0.666667000000000    0.240932000000000 
P           0.399847000000000    0.000000000000000    0.027266000000000 
P           0.600153000000000    0.600153000000000    0.027266000000000 
P           0.666667000000000    0.333333000000000    0.091682000000000 
P           0.666667000000000    0.333333000000000    0.240932000000000 
K           0.000000000000000    0.000000000000000    0.225736000000000 
K           0.000000000000000    0.000000000000000    0.677017000000000 
K           0.000000000000000    0.000000000000000    0.876716000000000 
K           0.333333000000000    0.666667000000000    0.635473000000000 
K           0.666667000000000    0.333333000000000    0.635473000000000 
%ENDBLOCK POSITIONS_FRAC
