# Cell file generated by matador (Matthew Evans 2016)

%BLOCK LATTICE_CART
8.53699 0.0 0.0
-4.26849 7.39325 0.0
0.0 0.0 8.5821
%ENDBLOCK LATTICE_CART

%BLOCK POSITIONS_FRAC
P           0.000000000000000    0.000000000000000    0.112012000000000 
P           0.192573000000000    0.756700000000000    0.588803000000000 
P           0.230794000000000    0.140760000000000    0.922136000000000 
P           0.243300000000000    0.435873000000000    0.588803000000000 
P           0.333333000000000    0.666667000000000    0.778679000000000 
P           0.525906000000000    0.423367000000000    0.255469000000000 
P           0.564127000000000    0.807427000000000    0.588803000000000 
P           0.576633000000000    0.102540000000000    0.255469000000000 
P           0.666667000000000    0.333333000000000    0.445346000000000 
P           0.859240000000000    0.090033000000000    0.922136000000000 
P           0.897460000000000    0.474094000000000    0.255469000000000 
P           0.909967000000000    0.769206000000000    0.922136000000000 
K           0.000000000000000    0.000000000000000    0.738188000000000 
K           0.333333000000000    0.666667000000000    0.404855000000000 
K           0.666667000000000    0.333333000000000    0.071522000000000 
%ENDBLOCK POSITIONS_FRAC
