# Cell file generated by matador (Matthew Evans 2016)

%BLOCK LATTICE_CART
9.83305 0.0 0.0
0.0 6.73181 0.0
-0.325244 0.0 6.79313
%ENDBLOCK LATTICE_CART

%BLOCK POSITIONS_FRAC
P           0.000000000000000    0.097270000000000    0.000000000000000 
P           0.000000000000000    0.171995000000000    0.500000000000000 
P           0.000000000000000    0.378941000000000    0.500000000000000 
P           0.000000000000000    0.694013000000000    0.500000000000000 
P           0.500000000000000    0.194013000000000    0.500000000000000 
P           0.500000000000000    0.597270000000000    0.000000000000000 
P           0.500000000000000    0.671995000000000    0.500000000000000 
P           0.500000000000000    0.878941000000000    0.500000000000000 
K           0.000000000000000    0.629549000000000    0.000000000000000 
K           0.226208000000000    0.391191000000000    0.513520000000000 
K           0.273792000000000    0.891191000000000    0.486480000000000 
K           0.500000000000000    0.129549000000000    0.000000000000000 
K           0.726208000000000    0.891191000000000    0.513520000000000 
K           0.773792000000000    0.391191000000000    0.486480000000000 
%ENDBLOCK POSITIONS_FRAC
