# Cell file generated by matador (Matthew Evans 2016)

%BLOCK LATTICE_CART
9.06758 0.0 0.0
-4.53379 7.85276 0.0
0.0 0.0 7.00248
%ENDBLOCK LATTICE_CART

%BLOCK POSITIONS_FRAC
P           0.000000000000000    0.589871000000000    0.000000000000000 
P           0.410129000000000    0.410129000000000    0.000000000000000 
P           0.589871000000000    0.000000000000000    0.000000000000000 
K           0.000000000000000    0.000000000000000    0.000000000000000 
K           0.184627000000000    0.386387000000000    0.000000000000000 
K           0.201760000000000    0.815373000000000    0.000000000000000 
K           0.333333000000000    0.666667000000000    0.500000000000000 
K           0.386387000000000    0.184627000000000    0.000000000000000 
K           0.613613000000000    0.798240000000000    0.000000000000000 
K           0.666667000000000    0.333333000000000    0.500000000000000 
K           0.798240000000000    0.613613000000000    0.000000000000000 
K           0.815373000000000    0.201760000000000    0.000000000000000 
%ENDBLOCK POSITIONS_FRAC
