# Cell file generated by matador (Matthew Evans 2016)

%BLOCK LATTICE_CART
7.25535 0.0 0.0
0.0 7.25535 0.0
0.0 0.0 11.5585
%ENDBLOCK LATTICE_CART

%BLOCK POSITIONS_FRAC
P           0.250000000000000    0.250000000000000    0.250000000000000 
P           0.250000000000000    0.750000000000000    0.750000000000000 
P           0.750000000000000    0.250000000000000    0.750000000000000 
P           0.750000000000000    0.750000000000000    0.250000000000000 
K           0.232755000000000    0.267245000000000    0.442035000000000 
K           0.232755000000000    0.732755000000000    0.942035000000000 
K           0.250000000000000    0.250000000000000    0.750000000000000 
K           0.250000000000000    0.750000000000000    0.250000000000000 
K           0.267245000000000    0.232755000000000    0.057965000000000 
K           0.267245000000000    0.767245000000000    0.557965000000000 
K           0.732755000000000    0.232755000000000    0.557965000000000 
K           0.732755000000000    0.767245000000000    0.057965000000000 
K           0.750000000000000    0.250000000000000    0.250000000000000 
K           0.750000000000000    0.750000000000000    0.750000000000000 
K           0.767245000000000    0.267245000000000    0.942035000000000 
K           0.767245000000000    0.732755000000000    0.442035000000000 
%ENDBLOCK POSITIONS_FRAC
