# Cell file generated by matador (Matthew Evans 2016)

%BLOCK LATTICE_CART
5.05389 0.0 0.0
-2.52694 4.37679 0.0
0.0 0.0 8.29363
%ENDBLOCK LATTICE_CART

%BLOCK POSITIONS_FRAC
P          -0.000000000000000   -0.000000000000000    0.316073000000000 
P          -0.000000000000000   -0.000000000000000    0.500000000000000 
P          -0.000000000000000   -0.000000000000000    0.683927000000000 
P           0.666667000000000    0.333333000000000    0.301313000000000 
P           0.666667000000000    0.333333000000000    0.698687000000000 
K           0.426289000000000    0.131671000000000    0.500000000000000 
K           0.705382000000000    0.573711000000000    0.500000000000000 
K           0.868329000000000    0.294618000000000    0.500000000000000 
%ENDBLOCK POSITIONS_FRAC
