# Cell file generated by matador (Matthew Evans 2016)

%BLOCK LATTICE_CART
8.29433 0.0 0.0
0.0 5.9424 0.0
-2.2512 0.0 5.83873
%ENDBLOCK LATTICE_CART

%BLOCK POSITIONS_FRAC
P           0.213208000000000    0.500000000000000    0.656056000000000 
P           0.214862000000000    0.000000000000000    0.659732000000000 
K           0.083802000000000    0.000000000000000    0.101895000000000 
K           0.304972000000000    0.500000000000000    0.378585000000000 
K           0.504361000000000    0.000000000000000    0.685650000000000 
K           0.635185000000000    0.000000000000000    0.214058000000000 
K           0.658841000000000    0.500000000000000    0.123573000000000 
K           0.853004000000000    0.500000000000000    0.704277000000000 
%ENDBLOCK POSITIONS_FRAC
