# Cell file generated by matador (Matthew Evans 2016)

%BLOCK LATTICE_CART
10.9291 0.0 0.0
-5.46453 9.46484 0.0
0.0 0.0 8.39062
%ENDBLOCK LATTICE_CART

%BLOCK POSITIONS_FRAC
P           0.130340000000000    0.565170000000000    0.636181000000000 
P           0.272117000000000    0.544234000000000    0.076842000000000 
P           0.272117000000000    0.727883000000000    0.076842000000000 
P           0.434830000000000    0.565170000000000    0.636181000000000 
P           0.434830000000000    0.869660000000000    0.636181000000000 
P           0.455766000000000    0.727883000000000    0.076842000000000 
K           0.065287000000000    0.532643000000000    0.971987000000000 
K           0.135759000000000    0.271518000000000    0.133695000000000 
K           0.135759000000000    0.864241000000000    0.133695000000000 
K           0.177636000000000    0.355272000000000    0.545981000000000 
K           0.177636000000000    0.822364000000000    0.545981000000000 
K           0.310681000000000    0.155340000000000    0.379159000000000 
K           0.439209000000000    0.219605000000000    0.889137000000000 
K           0.467357000000000    0.532643000000000    0.971987000000000 
K           0.467357000000000    0.934713000000000    0.971987000000000 
K           0.553026000000000    0.106052000000000    0.306524000000000 
K           0.553026000000000    0.446974000000000    0.306524000000000 
K           0.644728000000000    0.822364000000000    0.545981000000000 
K           0.728482000000000    0.864241000000000    0.133695000000000 
K           0.780395000000000    0.219605000000000    0.889137000000000 
K           0.780395000000000    0.560791000000000    0.889137000000000 
K           0.844660000000000    0.155340000000000    0.379159000000000 
K           0.844660000000000    0.689319000000000    0.379159000000000 
K           0.893948000000000    0.446974000000000    0.306524000000000 
%ENDBLOCK POSITIONS_FRAC
