# Cell file generated by matador (Matthew Evans 2016)

%BLOCK LATTICE_CART
7.65036 0.0 0.0
0.0 8.78511 0.0
0.0 0.0 7.79391
%ENDBLOCK LATTICE_CART

%BLOCK POSITIONS_FRAC
P           0.016875000000000    0.750000000000000    0.500000000000000 
P           0.250000000000000    0.022343000000000    0.500000000000000 
P           0.250000000000000    0.477657000000000    0.500000000000000 
P           0.250000000000000    0.750000000000000    0.500000000000000 
P           0.483125000000000    0.750000000000000    0.500000000000000 
P           0.516875000000000    0.250000000000000    0.500000000000000 
P           0.750000000000000    0.250000000000000    0.500000000000000 
P           0.750000000000000    0.522343000000000    0.500000000000000 
P           0.750000000000000    0.977657000000000    0.500000000000000 
P           0.983125000000000    0.250000000000000    0.500000000000000 
K           0.250000000000000    0.250000000000000    0.000000000000000 
K           0.250000000000000    0.250000000000000    0.500000000000000 
K           0.250000000000000    0.750000000000000    0.000000000000000 
K           0.750000000000000    0.250000000000000    0.000000000000000 
K           0.750000000000000    0.750000000000000    0.000000000000000 
K           0.750000000000000    0.750000000000000    0.500000000000000 
%ENDBLOCK POSITIONS_FRAC
