# Cell file generated by matador (Matthew Evans 2016)

%BLOCK LATTICE_CART
6.56971 0.0 0.0
0.0 6.56971 0.0
0.0 0.0 6.26406
%ENDBLOCK LATTICE_CART

%BLOCK POSITIONS_FRAC
P           0.148627000000000    0.405808000000000    0.000000000000000 
P           0.405808000000000    0.851373000000000    0.000000000000000 
P           0.500000000000000    0.500000000000000    0.500000000000000 
P           0.594192000000000    0.148627000000000    0.000000000000000 
P           0.851373000000000    0.594192000000000    0.000000000000000 
K           0.000000000000000    0.000000000000000    0.000000000000000 
K           0.000000000000000    0.000000000000000    0.500000000000000 
K           0.000000000000000    0.500000000000000    0.500000000000000 
K           0.500000000000000    0.000000000000000    0.500000000000000 
%ENDBLOCK POSITIONS_FRAC
