# Cell file generated by matador (Matthew Evans 2016)

%BLOCK LATTICE_CART
8.16076 0.0 0.0
-4.08038 7.06743 0.0
0.0 0.0 5.54597
%ENDBLOCK LATTICE_CART

%BLOCK POSITIONS_FRAC
P           0.333333000000000    0.666667000000000    0.942937000000000 
P           0.666666000000000    0.333334000000000    0.057063000000000 
K           0.160745000000000    0.321490000000000    0.729395000000000 
K           0.160745000000000    0.839255000000000    0.729395000000000 
K           0.321490000000000    0.160745000000000    0.270605000000000 
K           0.678510000000000    0.839255000000000    0.729395000000000 
K           0.839255000000000    0.160745000000000    0.270605000000000 
K           0.839255000000000    0.678510000000000    0.270605000000000 
%ENDBLOCK POSITIONS_FRAC
