# Cell file generated by matador (Matthew Evans 2016)

%BLOCK LATTICE_CART
9.89704 0.0 0.0
0.0 9.89704 0.0
0.0 0.0 10.3034
%ENDBLOCK LATTICE_CART

%BLOCK POSITIONS_FRAC
P           0.000000000000000    0.000000000000000    0.000000000000000 
P           0.000000000000000    0.000000000000000    0.273393000000000 
P           0.000000000000000    0.000000000000000    0.726607000000000 
P           0.500000000000000    0.500000000000000    0.226607000000000 
P           0.500000000000000    0.500000000000000    0.500000000000000 
P           0.500000000000000    0.500000000000000    0.773393000000000 
K           0.000000000000000    0.000000000000000    0.500000000000000 
K           0.177530000000000    0.177530000000000    0.351071000000000 
K           0.177530000000000    0.822470000000000    0.648929000000000 
K           0.198533000000000    0.198533000000000    0.911065000000000 
K           0.198533000000000    0.801467000000000    0.088935000000000 
K           0.301467000000000    0.301467000000000    0.588935000000000 
K           0.301467000000000    0.698533000000000    0.411065000000000 
K           0.322470000000000    0.322470000000000    0.148929000000000 
K           0.322470000000000    0.677530000000000    0.851071000000000 
K           0.500000000000000    0.500000000000000    0.000000000000000 
K           0.677530000000000    0.322470000000000    0.851071000000000 
K           0.677530000000000    0.677530000000000    0.148929000000000 
K           0.698533000000000    0.301467000000000    0.411065000000000 
K           0.698533000000000    0.698533000000000    0.588935000000000 
K           0.801467000000000    0.198533000000000    0.088935000000000 
K           0.801467000000000    0.801467000000000    0.911065000000000 
K           0.822470000000000    0.177530000000000    0.648929000000000 
K           0.822470000000000    0.822470000000000    0.351071000000000 
%ENDBLOCK POSITIONS_FRAC
