# Cell file generated by matador (Matthew Evans 2016)

%BLOCK LATTICE_CART
7.88424 0.0 0.0
0.0 7.88424 0.0
0.0 0.0 7.88424
%ENDBLOCK LATTICE_CART

%BLOCK POSITIONS_FRAC
P           0.000000000000000    0.000000000000000    0.000000000000000 
P           0.102635000000000    0.102635000000000    0.897365000000000 
P           0.102635000000000    0.897365000000000    0.102635000000000 
P           0.397365000000000    0.397365000000000    0.602635000000000 
P           0.397365000000000    0.602635000000000    0.397365000000000 
P           0.500000000000000    0.500000000000000    0.500000000000000 
P           0.602635000000000    0.397365000000000    0.397365000000000 
P           0.602635000000000    0.602635000000000    0.602635000000000 
P           0.897365000000000    0.102635000000000    0.102635000000000 
P           0.897365000000000    0.897365000000000    0.897365000000000 
K           0.250000000000000    0.250000000000000    0.250000000000000 
K           0.250000000000000    0.750000000000000    0.750000000000000 
K           0.750000000000000    0.250000000000000    0.750000000000000 
K           0.750000000000000    0.750000000000000    0.250000000000000 
%ENDBLOCK POSITIONS_FRAC
