# Cell file generated by matador (Matthew Evans 2016)

%BLOCK LATTICE_CART
7.43629 0.0 0.0
0.0 7.43629 0.0
0.0 0.0 7.43629
%ENDBLOCK LATTICE_CART

%BLOCK POSITIONS_FRAC
P           0.125000000000000    0.125000000000000    0.125000000000000 
P           0.375000000000000    0.875000000000000    0.625000000000000 
P           0.625000000000000    0.375000000000000    0.875000000000000 
P           0.875000000000000    0.625000000000000    0.375000000000000 
K           0.010758000000000    0.989242000000000    0.489242000000000 
K           0.239242000000000    0.760758000000000    0.260758000000000 
K           0.260758000000000    0.239242000000000    0.760758000000000 
K           0.489242000000000    0.010758000000000    0.989242000000000 
K           0.510758000000000    0.510758000000000    0.510758000000000 
K           0.739242000000000    0.739242000000000    0.739242000000000 
K           0.760758000000000    0.260758000000000    0.239242000000000 
K           0.989242000000000    0.489242000000000    0.010758000000000 
%ENDBLOCK POSITIONS_FRAC
