# Cell file generated by matador (Matthew Evans 2016)

%BLOCK LATTICE_CART
8.5026 0.0 0.0
0.0 6.72455 0.0
0.0 0.0 5.63126
%ENDBLOCK LATTICE_CART

%BLOCK POSITIONS_FRAC
P           0.064209000000000    0.500000000000000    0.500000000000000 
P           0.157375000000000    0.294449000000000    0.088630000000000 
P           0.157375000000000    0.705551000000000    0.911370000000000 
P           0.251255000000000    0.500000000000000    0.000000000000000 
P           0.500000000000000    0.205566000000000    0.500000000000000 
P           0.500000000000000    0.794434000000000    0.500000000000000 
P           0.748745000000000    0.500000000000000    0.000000000000000 
P           0.842625000000000    0.294449000000000    0.911370000000000 
P           0.842625000000000    0.705551000000000    0.088630000000000 
P           0.935791000000000    0.500000000000000    0.500000000000000 
K           0.500000000000000    0.500000000000000    0.000000000000000 
K           0.500000000000000    0.500000000000000    0.500000000000000 
%ENDBLOCK POSITIONS_FRAC
