# Cell file generated by matador (Matthew Evans 2016)

%BLOCK LATTICE_CART
8.86757 0.0 0.0
-4.43379 7.67954 0.0
0.0 0.0 6.40639
%ENDBLOCK LATTICE_CART

%BLOCK POSITIONS_FRAC
P           0.000000000000000    0.278402000000000    0.489227000000000 
P           0.000000000000000    0.721598000000000    0.989227000000000 
P           0.278402000000000    0.000000000000000    0.489227000000000 
P           0.278402000000000    0.278402000000000    0.989227000000000 
P           0.333333000000000    0.666667000000000    0.496067000000000 
P           0.333333000000000    0.666667000000000    0.996067000000000 
P           0.666667000000000    0.333333000000000    0.496067000000000 
P           0.666667000000000    0.333333000000000    0.996067000000000 
P           0.721598000000000    0.000000000000000    0.989227000000000 
P           0.721598000000000    0.721598000000000    0.489227000000000 
K           0.000000000000000    0.415204000000000    0.207891000000000 
K           0.000000000000000    0.584796000000000    0.707891000000000 
K           0.415204000000000    0.000000000000000    0.207891000000000 
K           0.415204000000000    0.415204000000000    0.707891000000000 
K           0.584796000000000    0.000000000000000    0.707891000000000 
K           0.584796000000000    0.584796000000000    0.207891000000000 
%ENDBLOCK POSITIONS_FRAC
