# Cell file generated by matador (Matthew Evans 2016)

%BLOCK LATTICE_CART
8.39271 0.0 0.0
0.0 6.93633 0.0
0.0 0.0 7.80264
%ENDBLOCK LATTICE_CART

%BLOCK POSITIONS_FRAC
P           0.000000000000000    0.000000000000000    0.500000000000000 
P           0.000000000000000    0.500000000000000    0.500000000000000 
P           0.500000000000000    0.000000000000000    0.500000000000000 
P           0.500000000000000    0.500000000000000    0.500000000000000 
K           0.126678000000000    0.174572000000000    0.000000000000000 
K           0.126678000000000    0.825428000000000    0.000000000000000 
K           0.373322000000000    0.325428000000000    0.000000000000000 
K           0.373322000000000    0.674572000000000    0.000000000000000 
K           0.626678000000000    0.325428000000000    0.000000000000000 
K           0.626678000000000    0.674572000000000    0.000000000000000 
K           0.873322000000000    0.174572000000000    0.000000000000000 
K           0.873322000000000    0.825428000000000    0.000000000000000 
%ENDBLOCK POSITIONS_FRAC
