# Cell file generated by matador (Matthew Evans 2016)

%BLOCK LATTICE_CART
7.06183 0.0 0.0
0.0 7.08426 0.0
1.66195 0.0 8.25162
%ENDBLOCK LATTICE_CART

%BLOCK POSITIONS_FRAC
P          -0.000000000000000    0.000000000000000    0.500000000000000 
P           0.500000000000000    0.000000000000000    0.000000000000000 
P           0.500000000000000    0.000000000000000    0.500000000000000 
P           0.500000000000000    0.500000000000000    0.500000000000000 
K          -0.000000000000000    0.000000000000000    0.000000000000000 
K          -0.000000000000000    0.500000000000000    0.000000000000000 
K           0.239561000000000    0.350147000000000    0.372375000000000 
K           0.239561000000000    0.649853000000000    0.372375000000000 
K           0.500000000000000    0.500000000000000    0.000000000000000 
K           0.760439000000000    0.350147000000000    0.627625000000000 
K           0.760439000000000    0.649853000000000    0.627625000000000 
%ENDBLOCK POSITIONS_FRAC
