# Cell file generated by matador (Matthew Evans 2016)

%BLOCK LATTICE_CART
7.95808 0.0 0.0
0.0 9.32855 0.0
0.0 0.0 8.57172
%ENDBLOCK LATTICE_CART

%BLOCK POSITIONS_FRAC
P           0.211519000000000    0.500000000000000    0.832119000000000 
P           0.288481000000000    0.000000000000000    0.332119000000000 
P           0.711519000000000    0.000000000000000    0.332119000000000 
P           0.788481000000000    0.500000000000000    0.832119000000000 
K           0.000000000000000    0.179746000000000    0.399317000000000 
K           0.000000000000000    0.227397000000000    0.761498000000000 
K           0.000000000000000    0.772603000000000    0.761498000000000 
K           0.000000000000000    0.820254000000000    0.399317000000000 
K           0.242873000000000    0.500000000000000    0.565849000000000 
K           0.257127000000000    0.000000000000000    0.065849000000000 
K           0.500000000000000    0.272603000000000    0.261498000000000 
K           0.500000000000000    0.320254000000000    0.899317000000000 
K           0.500000000000000    0.679746000000000    0.899317000000000 
K           0.500000000000000    0.727397000000000    0.261498000000000 
K           0.742873000000000    0.000000000000000    0.065849000000000 
K           0.757127000000000    0.500000000000000    0.565849000000000 
%ENDBLOCK POSITIONS_FRAC
