# Cell file generated by matador (Matthew Evans 2016)

%BLOCK LATTICE_CART
9.1908 0.0 0.0
0.0 9.1908 0.0
0.0 0.0 7.71995
%ENDBLOCK LATTICE_CART

%BLOCK POSITIONS_FRAC
P           0.000000000000000    0.000000000000000    0.250000000000000 
P           0.000000000000000    0.000000000000000    0.750000000000000 
P           0.500000000000000    0.500000000000000    0.000000000000000 
P           0.500000000000000    0.500000000000000    0.500000000000000 
K           0.000000000000000    0.000000000000000    0.000000000000000 
K           0.000000000000000    0.000000000000000    0.500000000000000 
K           0.231427000000000    0.271528000000000    0.000000000000000 
K           0.231427000000000    0.728472000000000    0.500000000000000 
K           0.271528000000000    0.231427000000000    0.500000000000000 
K           0.271528000000000    0.768573000000000    0.000000000000000 
K           0.500000000000000    0.500000000000000    0.250000000000000 
K           0.500000000000000    0.500000000000000    0.750000000000000 
K           0.728472000000000    0.231427000000000    0.000000000000000 
K           0.728472000000000    0.768573000000000    0.500000000000000 
K           0.768573000000000    0.271528000000000    0.500000000000000 
K           0.768573000000000    0.728472000000000    0.000000000000000 
%ENDBLOCK POSITIONS_FRAC
