# Cell file generated by matador (Matthew Evans 2016)

%BLOCK LATTICE_CART
8.72177 0.0 0.0
0.0 11.7442 0.0
-1.13994 0.0 4.42487
%ENDBLOCK LATTICE_CART

%BLOCK POSITIONS_FRAC
P           0.620799000000000    0.051834000000000    0.926516000000000 
P           0.620799000000000    0.948166000000000    0.926516000000000 
P           0.673013000000000    0.184480000000000    0.195269000000000 
P           0.673013000000000    0.815520000000000    0.195269000000000 
P           0.917028000000000    0.386980000000000    0.808938000000000 
P           0.917028000000000    0.613020000000000    0.808938000000000 
K           0.027588000000000   -0.000000000000000    0.618630000000000 
K           0.131408000000000    0.310100000000000    0.230069000000000 
K           0.131408000000000    0.689900000000000    0.230069000000000 
K           0.257682000000000    0.500000000000000    0.707906000000000 
K           0.283674000000000   -0.000000000000000    0.838973000000000 
K           0.409355000000000   -0.000000000000000    0.464727000000000 
K           0.522623000000000    0.500000000000000    0.645573000000000 
K           0.738866000000000    0.500000000000000    0.978816000000000 
K           0.772099000000000   -0.000000000000000    0.387269000000000 
K           0.831324000000000   -0.000000000000000    0.839543000000000 
%ENDBLOCK POSITIONS_FRAC
