# Cell file generated by matador (Matthew Evans 2016)

%BLOCK LATTICE_CART
7.24378 0.0 0.0
-3.62189 6.27329 0.0
0.0 0.0 8.23248
%ENDBLOCK LATTICE_CART

%BLOCK POSITIONS_FRAC
P          -0.000000000000000    0.500000000000000    0.957618000000000 
P           0.333333000000000    0.666667000000000    0.427796000000000 
P           0.500000000000000   -0.000000000000000    0.957618000000000 
P           0.500000000000000    0.500000000000000    0.957618000000000 
P           0.666667000000000    0.333333000000000    0.427796000000000 
K          -0.000000000000000   -0.000000000000000    0.256959000000000 
K          -0.000000000000000   -0.000000000000000    0.850359000000000 
K          -0.000000000000000    0.500000000000000    0.331655000000000 
K           0.333333000000000    0.666667000000000    0.008689000000000 
K           0.500000000000000   -0.000000000000000    0.331655000000000 
K           0.500000000000000    0.500000000000000    0.331655000000000 
K           0.666667000000000    0.333333000000000    0.008689000000000 
%ENDBLOCK POSITIONS_FRAC
