# Cell file generated by matador (Matthew Evans 2016)

%BLOCK LATTICE_CART
7.85014 0.0 0.0
0.0 8.08379 0.0
0.0 0.0 4.76333
%ENDBLOCK LATTICE_CART

%BLOCK POSITIONS_FRAC
P           0.313423000000000    0.162923000000000    0.448732000000000 
P           0.313423000000000    0.837077000000000    0.948732000000000 
P           0.500000000000000    0.238593000000000    0.504942000000000 
P           0.500000000000000    0.250415000000000    0.940396000000000 
P           0.500000000000000    0.749585000000000    0.440396000000000 
P           0.500000000000000    0.761407000000000    0.004942000000000 
P           0.686577000000000    0.162923000000000    0.448732000000000 
P           0.686577000000000    0.837077000000000    0.948732000000000 
K           0.500000000000000    0.066705000000000    0.197215000000000 
K           0.500000000000000    0.453808000000000    0.349499000000000 
K           0.500000000000000    0.546192000000000    0.849499000000000 
K           0.500000000000000    0.933295000000000    0.697215000000000 
%ENDBLOCK POSITIONS_FRAC
