# Cell file generated by matador (Matthew Evans 2016)

%BLOCK LATTICE_CART
8.14107 0.0 0.0
0.0 8.14107 0.0
0.0 0.0 8.14107
%ENDBLOCK LATTICE_CART

%BLOCK POSITIONS_FRAC
P           0.000000000000000    0.000000000000000    0.135441000000000 
P           0.000000000000000    0.000000000000000    0.864559000000000 
P           0.000000000000000    0.135441000000000    0.000000000000000 
P           0.000000000000000    0.347927000000000    0.500000000000000 
P           0.000000000000000    0.652073000000000    0.500000000000000 
P           0.000000000000000    0.864559000000000    0.000000000000000 
P           0.135441000000000    0.000000000000000    0.000000000000000 
P           0.347927000000000    0.500000000000000    0.000000000000000 
P           0.500000000000000    0.000000000000000    0.347927000000000 
P           0.500000000000000    0.000000000000000    0.652073000000000 
P           0.652073000000000    0.500000000000000    0.000000000000000 
P           0.864559000000000    0.000000000000000    0.000000000000000 
K           0.000000000000000    0.000000000000000    0.500000000000000 
K           0.000000000000000    0.500000000000000    0.000000000000000 
K           0.500000000000000    0.000000000000000    0.000000000000000 
%ENDBLOCK POSITIONS_FRAC
