# Cell file generated by matador (Matthew Evans 2016)

%BLOCK LATTICE_CART
7.55449 0.0 0.0
-3.77725 6.54238 0.0
0.0 0.0 10.7898
%ENDBLOCK LATTICE_CART

%BLOCK POSITIONS_FRAC
P           0.183070000000000    0.367906000000000    0.750000000000000 
P           0.183070000000000    0.815164000000000    0.250000000000000 
P           0.184836000000000    0.367906000000000    0.250000000000000 
P           0.184836000000000    0.816930000000000    0.750000000000000 
P           0.632094000000000    0.815164000000000    0.750000000000000 
P           0.632094000000000    0.816930000000000    0.250000000000000 
K           0.190276000000000    0.082541000000000    0.750000000000000 
K           0.190276000000000    0.107734000000000    0.250000000000000 
K           0.333333000000000    0.666667000000000    0.250000000000000 
K           0.333333000000000    0.666667000000000    0.750000000000000 
K           0.666667000000000    0.333333000000000    0.250000000000000 
K           0.666667000000000    0.333333000000000    0.750000000000000 
K           0.892266000000000    0.082541000000000    0.250000000000000 
K           0.892266000000000    0.809724000000000    0.750000000000000 
K           0.917459000000000    0.107734000000000    0.750000000000000 
K           0.917459000000000    0.809724000000000    0.250000000000000 
%ENDBLOCK POSITIONS_FRAC
