# Cell file generated by matador (Matthew Evans 2016)

%BLOCK LATTICE_CART
8.07554 0.0 0.0
0.0 7.5951 0.0
1.69623 0.0 4.38977
%ENDBLOCK LATTICE_CART

%BLOCK POSITIONS_FRAC
P           0.002564000000000    0.500000000000000    0.787297000000000 
P           0.030593000000000    0.000000000000000    0.898588000000000 
P           0.896043000000000    0.298213000000000    0.558810000000000 
P           0.896043000000000    0.701787000000000    0.558810000000000 
K           0.047144000000000    0.000000000000000    0.325655000000000 
K           0.580378000000000    0.352948000000000    0.907476000000000 
K           0.580378000000000    0.647052000000000    0.907476000000000 
K           0.706796000000000    0.000000000000000    0.317953000000000 
K           0.767473000000000    0.000000000000000    0.787462000000000 
%ENDBLOCK POSITIONS_FRAC
