# Cell file generated by matador (Matthew Evans 2016)

%BLOCK LATTICE_CART
7.46045 0.0 0.0
0.0 7.46045 0.0
0.0 0.0 8.22234
%ENDBLOCK LATTICE_CART

%BLOCK POSITIONS_FRAC
P           0.000000000000000    0.000000000000000    0.967284000000000 
P           0.500000000000000    0.500000000000000    0.336823000000000 
K           0.000000000000000    0.500000000000000    0.136184000000000 
K           0.000000000000000    0.500000000000000    0.661908000000000 
K           0.196648000000000    0.500000000000000    0.942502000000000 
K           0.288479000000000    0.288479000000000    0.337444000000000 
K           0.288479000000000    0.711521000000000    0.337444000000000 
K           0.500000000000000    0.000000000000000    0.136184000000000 
K           0.500000000000000    0.000000000000000    0.661908000000000 
K           0.500000000000000    0.196648000000000    0.942502000000000 
K           0.500000000000000    0.803352000000000    0.942502000000000 
K           0.711521000000000    0.288479000000000    0.337444000000000 
K           0.711521000000000    0.711521000000000    0.337444000000000 
K           0.803352000000000    0.500000000000000    0.942502000000000 
%ENDBLOCK POSITIONS_FRAC
