# Cell file generated by matador (Matthew Evans 2016)

%BLOCK LATTICE_CART
6.93208 0.0 0.0
0.0 6.93208 0.0
0.0 0.0 6.93208
%ENDBLOCK LATTICE_CART

%BLOCK POSITIONS_FRAC
P           0.000000000000000    0.000000000000000    0.500000000000000 
P           0.000000000000000    0.500000000000000    0.000000000000000 
P           0.000000000000000    0.500000000000000    0.500000000000000 
P           0.320209000000000    0.320209000000000    0.320209000000000 
P           0.320209000000000    0.679791000000000    0.679791000000000 
P           0.500000000000000    0.000000000000000    0.000000000000000 
P           0.500000000000000    0.000000000000000    0.500000000000000 
P           0.500000000000000    0.500000000000000    0.000000000000000 
P           0.679791000000000    0.320209000000000    0.679791000000000 
P           0.679791000000000    0.679791000000000    0.320209000000000 
K           0.000000000000000    0.000000000000000    0.000000000000000 
K           0.500000000000000    0.500000000000000    0.500000000000000 
%ENDBLOCK POSITIONS_FRAC
