# Cell file generated by matador (Matthew Evans 2016)

%BLOCK LATTICE_CART
8.82635 0.0 0.0
0.0 7.24785 0.0
-1.8685 0.0 5.1717
%ENDBLOCK LATTICE_CART

%BLOCK POSITIONS_FRAC
P          -0.000000000000000    0.027017000000000    0.500000000000000 
P          -0.000000000000000    0.347486000000000   -0.000000000000000 
P          -0.000000000000000    0.625943000000000    0.500000000000000 
P           0.500000000000000    0.217510000000000   -0.000000000000000 
P           0.500000000000000    0.579147000000000   -0.000000000000000 
P           0.500000000000000    0.827799000000000   -0.000000000000000 
K           0.089531000000000    0.701030000000000    0.907671000000000 
K           0.152462000000000    0.393285000000000    0.404903000000000 
K           0.847538000000000    0.393285000000000    0.595097000000000 
K           0.910469000000000    0.701030000000000    0.092329000000000 
%ENDBLOCK POSITIONS_FRAC
