# Cell file generated by matador (Matthew Evans 2016)

%BLOCK LATTICE_CART
9.27439 0.0 0.0
0.0 8.1896 0.0
0.0133311 0.0 4.54219
%ENDBLOCK LATTICE_CART

%BLOCK POSITIONS_FRAC
P           0.042503000000000    0.193000000000000    0.732746000000000 
P           0.042503000000000    0.807000000000000    0.732746000000000 
P           0.908008000000000    0.219866000000000    0.321427000000000 
P           0.908008000000000    0.780134000000000    0.321427000000000 
P           0.918199000000000    0.500000000000000    0.678583000000000 
K           0.193290000000000    0.000000000000000    0.329461000000000 
K           0.338892000000000    0.000000000000000    0.840801000000000 
K           0.620182000000000    0.311139000000000    0.652261000000000 
K           0.620182000000000    0.688861000000000    0.652261000000000 
K           0.625304000000000    0.000000000000000    0.827587000000000 
K           0.922504000000000    0.000000000000000    0.111914000000000 
%ENDBLOCK POSITIONS_FRAC
