# Cell file generated by matador (Matthew Evans 2016)

%BLOCK LATTICE_CART
7.35191 0.0 0.0
-3.67596 6.36694 0.0
0.0 0.0 10.9051
%ENDBLOCK LATTICE_CART

%BLOCK POSITIONS_FRAC
P           0.000000000000000    0.000000000000000    0.230996000000000 
P           0.000000000000000    0.000000000000000    0.769004000000000 
P           0.333333000000000    0.666667000000000    0.126204000000000 
P           0.333333000000000    0.666667000000000    0.893276000000000 
P           0.666667000000000    0.333333000000000    0.106724000000000 
P           0.666667000000000    0.333333000000000    0.873796000000000 
K           0.000000000000000    0.000000000000000    0.000000000000000 
K           0.000000000000000    0.000000000000000    0.500000000000000 
K           0.000000000000000    0.500000000000000    0.000000000000000 
K           0.000000000000000    0.500000000000000    0.500000000000000 
K           0.500000000000000    0.000000000000000    0.000000000000000 
K           0.500000000000000    0.000000000000000    0.500000000000000 
K           0.500000000000000    0.500000000000000    0.000000000000000 
K           0.500000000000000    0.500000000000000    0.500000000000000 
%ENDBLOCK POSITIONS_FRAC
