# Cell file generated by matador (Matthew Evans 2016)

%BLOCK LATTICE_CART
7.43964 0.0 0.0
0.0 7.43964 0.0
0.0 0.0 7.43964
%ENDBLOCK LATTICE_CART

%BLOCK POSITIONS_FRAC
P           0.094791000000000    0.094791000000000    0.094791000000000 
P           0.094791000000000    0.905209000000000    0.905209000000000 
P           0.405209000000000    0.405209000000000    0.405209000000000 
P           0.405209000000000    0.594791000000000    0.594791000000000 
P           0.594791000000000    0.405209000000000    0.594791000000000 
P           0.594791000000000    0.594791000000000    0.405209000000000 
P           0.905209000000000    0.094791000000000    0.905209000000000 
P           0.905209000000000    0.905209000000000    0.094791000000000 
K           0.250000000000000    0.250000000000000    0.250000000000000 
K           0.250000000000000    0.750000000000000    0.750000000000000 
K           0.750000000000000    0.250000000000000    0.750000000000000 
K           0.750000000000000    0.750000000000000    0.250000000000000 
%ENDBLOCK POSITIONS_FRAC
