# Cell file generated by matador (Matthew Evans 2016)

%BLOCK LATTICE_CART
7.91995 0.0 0.0
-3.95997 6.85888 0.0
0.0 0.0 9.08617
%ENDBLOCK LATTICE_CART

%BLOCK POSITIONS_FRAC
P           0.000000000000000    0.000000000000000    0.561585000000000 
P           0.333333000000000    0.666667000000000    0.228252000000000 
P           0.666667000000000    0.333333000000000    0.894918000000000 
K           0.025849000000000    0.512925000000000    0.980069000000000 
K           0.153742000000000    0.307484000000000    0.313403000000000 
K           0.153742000000000    0.846258000000000    0.313403000000000 
K           0.359183000000000    0.179591000000000    0.646736000000000 
K           0.487075000000000    0.512925000000000    0.980069000000000 
K           0.487075000000000    0.974151000000000    0.980069000000000 
K           0.692516000000000    0.846258000000000    0.313403000000000 
K           0.820409000000000    0.179591000000000    0.646736000000000 
K           0.820409000000000    0.640817000000000    0.646736000000000 
%ENDBLOCK POSITIONS_FRAC
