# Cell file generated by matador (Matthew Evans 2016)

%BLOCK LATTICE_CART
10.9066 0.0 0.0
-5.45329 9.44538 0.0
0.0 0.0 3.25793
%ENDBLOCK LATTICE_CART

%BLOCK POSITIONS_FRAC
P           0.000001000000000    0.000001000000000    0.000000000000000 
P           0.000001000000000    0.000001000000000    0.333333000000000 
P           0.000001000000000    0.000001000000000    0.666667000000000 
P           0.000001000000000    0.500001000000000    0.166667000000000 
P           0.000001000000000    0.500001000000000    0.666667000000000 
P           0.500001000000000    0.000001000000000    0.000000000000000 
P           0.500001000000000    0.000001000000000    0.500000000000000 
P           0.500001000000000    0.500001000000000    0.333333000000000 
P           0.500001000000000    0.500001000000000    0.833333000000000 
K           0.262377000000000    0.524752000000000    0.000000000000000 
K           0.262377000000000    0.737625000000000    0.333333000000000 
K           0.475250000000000    0.737625000000000    0.666667000000000 
K           0.524752000000000    0.262377000000000    0.666667000000000 
K           0.737625000000000    0.262377000000000    0.333333000000000 
K           0.737625000000000    0.475250000000000    0.000000000000000 
%ENDBLOCK POSITIONS_FRAC
