# Cell file generated by matador (Matthew Evans 2016)

%BLOCK LATTICE_CART
7.49234 0.0 0.0
-3.74617 6.48856 0.0
0.0 0.0 10.7843
%ENDBLOCK LATTICE_CART

%BLOCK POSITIONS_FRAC
P           0.000000000000000    0.000000000000000    0.786868000000000 
P           0.333333000000000    0.666667000000000    0.453535000000000 
P           0.666667000000000    0.333333000000000    0.120202000000000 
K           0.190448000000000    0.380895000000000    0.772322000000000 
K           0.190448000000000    0.809552000000000    0.772322000000000 
K           0.285771000000000    0.142886000000000    0.105655000000000 
K           0.523781000000000    0.047562000000000    0.438988000000000 
K           0.523781000000000    0.476219000000000    0.438988000000000 
K           0.619105000000000    0.809552000000000    0.772322000000000 
K           0.857114000000000    0.142886000000000    0.105655000000000 
K           0.857114000000000    0.714229000000000    0.105655000000000 
K           0.952438000000000    0.476219000000000    0.438988000000000 
%ENDBLOCK POSITIONS_FRAC
