# Cell file generated by matador (Matthew Evans 2016)

%BLOCK LATTICE_CART
8.57154 0.0 0.0
-4.28577 7.42317 0.0
0.0 0.0 8.84432
%ENDBLOCK LATTICE_CART

%BLOCK POSITIONS_FRAC
P           0.000000000000000    0.500000000000000    0.226133000000000 
P           0.000000000000000    0.500000000000000    0.773867000000000 
P           0.333333000000000    0.666667000000000    0.000000000000000 
P           0.333333000000000    0.666667000000000    0.386926000000000 
P           0.333333000000000    0.666667000000000    0.613074000000000 
P           0.500000000000000    0.000000000000000    0.226133000000000 
P           0.500000000000000    0.000000000000000    0.773867000000000 
P           0.500000000000000    0.500000000000000    0.226133000000000 
P           0.500000000000000    0.500000000000000    0.773867000000000 
P           0.666667000000000    0.333333000000000    0.000000000000000 
P           0.666667000000000    0.333333000000000    0.386926000000000 
P           0.666667000000000    0.333333000000000    0.613074000000000 
K           0.000000000000000    0.500000000000000    0.000000000000000 
K           0.500000000000000    0.000000000000000    0.000000000000000 
K           0.500000000000000    0.500000000000000    0.000000000000000 
%ENDBLOCK POSITIONS_FRAC
