# Cell file generated by matador (Matthew Evans 2016)

%BLOCK LATTICE_CART
7.96865 0.0 0.0
-3.98432 6.90105 0.0
0.0 0.0 8.90059
%ENDBLOCK LATTICE_CART

%BLOCK POSITIONS_FRAC
P           0.132108000000000    0.264215000000000    0.910927000000000 
P           0.132108000000000    0.867892000000000    0.910927000000000 
P           0.258843000000000    0.517686000000000    0.574058000000000 
P           0.258843000000000    0.741157000000000    0.574058000000000 
P           0.333334000000000    0.666666000000000    0.187146000000000 
P           0.333334000000000    0.666666000000000    0.368860000000000 
P           0.482314000000000    0.741157000000000    0.574058000000000 
P           0.735785000000000    0.867892000000000    0.910927000000000 
K           0.000000000000000   -0.000000000000000    0.608594000000000 
K           0.079333000000000    0.539666000000000    0.936032000000000 
K           0.417544000000000    0.208772000000000    0.986345000000000 
K           0.426718000000000    0.213359000000000    0.698800000000000 
K           0.460334000000000    0.539666000000000    0.936032000000000 
K           0.460334000000000    0.920667000000000    0.936032000000000 
K           0.786641000000000    0.213359000000000    0.698800000000000 
K           0.786641000000000    0.573282000000000    0.698800000000000 
K           0.791228000000000    0.208772000000000    0.986345000000000 
K           0.791228000000000    0.582456000000000    0.986345000000000 
%ENDBLOCK POSITIONS_FRAC
