# Cell file generated by matador (Matthew Evans 2016)

%BLOCK LATTICE_CART
6.379 0.0 0.0
-3.1895 5.52437 0.0
0.0 0.0 5.30228
%ENDBLOCK LATTICE_CART

%BLOCK POSITIONS_FRAC
P           0.586564000000000    0.173129000000000    0.026936000000000 
P           0.586564000000000    0.413436000000000    0.026936000000000 
P           0.666667000000000    0.333333000000000    0.891640000000000 
P           0.826871000000000    0.413436000000000    0.026936000000000 
K           0.000000000000000    0.000000000000000    0.795510000000000 
K           0.333333000000000    0.666667000000000    0.266054000000000 
K           0.666667000000000    0.333333000000000    0.390438000000000 
%ENDBLOCK POSITIONS_FRAC
