# Cell file generated by matador (Matthew Evans 2016)

%BLOCK LATTICE_CART
8.82572 0.0 0.0
-4.41286 7.6433 0.0
0.0 0.0 6.87227
%ENDBLOCK LATTICE_CART

%BLOCK POSITIONS_FRAC
P           0.026333000000000    0.434522000000000    0.689931000000000 
P           0.055887000000000    0.685641000000000    0.036554000000000 
P           0.314361000000000    0.370247000000000    0.036554000000000 
P           0.370247000000000    0.055887000000000    0.536554000000000 
P           0.408191000000000    0.973669000000000    0.689931000000000 
P           0.434522000000000    0.408191000000000    0.189931000000000 
P           0.565480000000000    0.591811000000000    0.689931000000000 
P           0.591811000000000    0.026333000000000    0.189931000000000 
P           0.629755000000000    0.944115000000000    0.036554000000000 
P           0.685641000000000    0.629755000000000    0.536554000000000 
P           0.944115000000000    0.314361000000000    0.536554000000000 
P           0.973669000000000    0.565480000000000    0.189931000000000 
K           0.333334000000000    0.666668000000000    0.945773000000000 
K           0.666668000000000    0.333334000000000    0.445773000000000 
%ENDBLOCK POSITIONS_FRAC
