# Cell file generated by matador (Matthew Evans 2016)

%BLOCK LATTICE_CART
6.42449 0.0 0.0
0.0 5.33159 0.0
0.0 0.0 9.40766
%ENDBLOCK LATTICE_CART

%BLOCK POSITIONS_FRAC
P           0.272746000000000    0.000000000000000    0.000000000000000 
P           0.500000000000000    0.500000000000000    0.000000000000000 
P           0.727254000000000    0.000000000000000    0.000000000000000 
K           0.000000000000000    0.500000000000000    0.500000000000000 
K           0.080010000000000    0.182010000000000    0.146043000000000 
K           0.080010000000000    0.817990000000000    0.853957000000000 
K           0.919990000000000    0.182010000000000    0.853957000000000 
K           0.919990000000000    0.817990000000000    0.146043000000000 
%ENDBLOCK POSITIONS_FRAC
