# Cell file generated by matador (Matthew Evans 2016)

%BLOCK LATTICE_CART
6.73537 0.0 0.0
0.0 7.97857 0.0
0.0 0.0 7.50941
%ENDBLOCK LATTICE_CART

%BLOCK POSITIONS_FRAC
P           0.278658000000000    0.316797000000000    0.101870000000000 
P           0.278658000000000    0.316797000000000    0.898130000000000 
P           0.278658000000000    0.683203000000000    0.398130000000000 
P           0.278658000000000    0.683203000000000    0.601870000000000 
P           0.500000000000000    0.000000000000000    0.250000000000000 
P           0.500000000000000    0.000000000000000    0.750000000000000 
P           0.500000000000000    0.500000000000000    0.000000000000000 
P           0.500000000000000    0.500000000000000    0.500000000000000 
P           0.721342000000000    0.316797000000000    0.398130000000000 
P           0.721342000000000    0.316797000000000    0.601870000000000 
P           0.721342000000000    0.683203000000000    0.101870000000000 
P           0.721342000000000    0.683203000000000    0.898130000000000 
K           0.000000000000000    0.500000000000000    0.000000000000000 
K           0.000000000000000    0.500000000000000    0.500000000000000 
%ENDBLOCK POSITIONS_FRAC
