# Cell file generated by matador (Matthew Evans 2016)

%BLOCK LATTICE_CART
6.11845 0.0 0.0
1.75744 6.92604 0.0
4.56022 2.82459 8.10749
%ENDBLOCK LATTICE_CART

%BLOCK POSITIONS_FRAC
P           0.000000000000000    0.000000000000000    0.500000000000000 
P           0.222227000000000    0.211034000000000    0.429124000000000 
P           0.311887000000000    0.248520000000000    0.615013000000000 
P           0.500000000000000    0.000000000000000    0.500000000000000 
P           0.500000000000000    0.500000000000000    0.000000000000000 
P           0.688113000000000    0.751480000000000    0.384987000000000 
P           0.777773000000000    0.788966000000000    0.570876000000000 
K           0.000000000000000    0.000000000000000    0.000000000000000 
K           0.000000000000000    0.500000000000000    0.500000000000000 
K           0.356980000000000    0.893186000000000    0.857881000000000 
K           0.500000000000000    0.000000000000000    0.000000000000000 
K           0.500000000000000    0.500000000000000    0.500000000000000 
K           0.643020000000000    0.106814000000000    0.142119000000000 
%ENDBLOCK POSITIONS_FRAC
