# Cell file generated by matador (Matthew Evans 2016)

%BLOCK LATTICE_CART
8.21361 0.0 0.0
-4.10681 7.1132 0.0
0.0 0.0 7.88663
%ENDBLOCK LATTICE_CART

%BLOCK POSITIONS_FRAC
P           0.097999000000000    0.048999000000000    0.382693000000000 
P           0.284334000000000    0.568668000000000    0.049360000000000 
P           0.284334000000000    0.715666000000000    0.049360000000000 
P           0.431332000000000    0.715666000000000    0.049360000000000 
P           0.617667000000000    0.235335000000000    0.716027000000000 
P           0.617667000000000    0.382333000000000    0.716027000000000 
P           0.764665000000000    0.382333000000000    0.716027000000000 
P           0.951001000000000    0.048999000000000    0.382693000000000 
P           0.951001000000000    0.902001000000000    0.382693000000000 
K          -0.000000000000000   -0.000000000000000    0.119593000000000 
K           0.333333000000000    0.666667000000000    0.786259000000000 
K           0.666667000000000    0.333333000000000    0.452926000000000 
%ENDBLOCK POSITIONS_FRAC
