# Cell file generated by matador (Matthew Evans 2016)

%BLOCK LATTICE_CART
8.12656 0.0 0.0
-4.06328 7.0378 0.0
0.0 0.0 5.40214
%ENDBLOCK LATTICE_CART

%BLOCK POSITIONS_FRAC
P           0.168259000000000    0.150906000000000    0.781116000000000 
P           0.666667000000000    0.333333000000000    0.215462000000000 
P           0.849094000000000    0.017353000000000    0.781116000000000 
P           0.982647000000000    0.831741000000000    0.781116000000000 
K          -0.000000000000000   -0.000000000000000    0.348322000000000 
K           0.098713000000000    0.493008000000000    0.647835000000000 
K           0.333333000000000    0.666667000000000    0.435316000000000 
K           0.394295000000000    0.901287000000000    0.647835000000000 
K           0.506992000000000    0.605705000000000    0.647835000000000 
K           0.666667000000000    0.333333000000000    0.721453000000000 
%ENDBLOCK POSITIONS_FRAC
