# Cell file generated by matador (Matthew Evans 2016)

%BLOCK LATTICE_CART
9.27412 0.0 0.0
-4.63706 8.03162 0.0
0.0 0.0 9.0913
%ENDBLOCK LATTICE_CART

%BLOCK POSITIONS_FRAC
P           0.000000000000000    0.000000000000000    0.250000000000000 
P           0.000000000000000    0.000000000000000    0.750000000000000 
P           0.152107000000000    0.586849000000000    0.750000000000000 
P           0.333333000000000    0.666667000000000    0.750000000000000 
P           0.413151000000000    0.565258000000000    0.750000000000000 
P           0.434742000000000    0.847893000000000    0.750000000000000 
P           0.565258000000000    0.413151000000000    0.250000000000000 
P           0.586849000000000    0.152107000000000    0.250000000000000 
P           0.666667000000000    0.333333000000000    0.250000000000000 
P           0.847893000000000    0.434742000000000    0.250000000000000 
K           0.000000000000000    0.000000000000000    0.000000000000000 
K           0.000000000000000    0.000000000000000    0.500000000000000 
K           0.095432000000000    0.586950000000000    0.250000000000000 
K           0.333333000000000    0.666667000000000    0.250000000000000 
K           0.413050000000000    0.508482000000000    0.250000000000000 
K           0.491518000000000    0.904568000000000    0.250000000000000 
K           0.508482000000000    0.413050000000000    0.750000000000000 
K           0.586950000000000    0.095432000000000    0.750000000000000 
K           0.666667000000000    0.333333000000000    0.750000000000000 
K           0.904568000000000    0.491518000000000    0.750000000000000 
%ENDBLOCK POSITIONS_FRAC
