# Cell file generated by matador (Matthew Evans 2016)

%BLOCK LATTICE_CART
8.96253 0.0 0.0
-4.48127 7.76178 0.0
0.0 0.0 8.11953
%ENDBLOCK LATTICE_CART

%BLOCK POSITIONS_FRAC
P           0.174570000000000    0.604205000000000    0.228738000000000 
P           0.249564000000000    0.541926000000000    0.958922000000000 
P           0.292362000000000    0.750436000000000    0.958922000000000 
P           0.333333000000000    0.666667000000000    0.150149000000000 
P           0.395795000000000    0.570365000000000    0.228738000000000 
P           0.429635000000000    0.825430000000000    0.228738000000000 
P           0.458074000000000    0.707638000000000    0.958922000000000 
P           0.541926000000000    0.249564000000000    0.458922000000000 
P           0.570365000000000    0.395795000000000    0.728738000000000 
P           0.604205000000000    0.174570000000000    0.728738000000000 
P           0.666666000000000    0.333334000000000    0.650149000000000 
P           0.707638000000000    0.458074000000000    0.458922000000000 
P           0.750436000000000    0.292362000000000    0.458922000000000 
P           0.825430000000000    0.429635000000000    0.728738000000000 
K           0.333333000000000    0.666667000000000    0.488598000000000 
K           0.666666000000000    0.333334000000000    0.988598000000000 
%ENDBLOCK POSITIONS_FRAC
