# Cell file generated by matador (Matthew Evans 2016)

%BLOCK LATTICE_CART
7.77264 0.0 0.0
0.0 6.33921 0.0
-3.37679 0.0 9.20475
%ENDBLOCK LATTICE_CART

%BLOCK POSITIONS_FRAC
P           0.078605000000000    0.346027000000000    0.569889000000000 
P           0.078605000000000    0.653973000000000    0.569889000000000 
P           0.455098000000000    0.000000000000000    0.842148000000000 
P           0.734632000000000    0.000000000000000    0.901494000000000 
P           0.740237000000000    0.353271000000000    0.945810000000000 
P           0.740237000000000    0.646729000000000    0.945810000000000 
P           0.872493000000000    0.500000000000000    0.131839000000000 
K           0.062364000000000    0.223386000000000    0.226072000000000 
K           0.062364000000000    0.776614000000000    0.226072000000000 
K           0.369488000000000    0.241394000000000    0.957391000000000 
K           0.369488000000000    0.758606000000000    0.957391000000000 
K           0.478429000000000    0.245135000000000    0.536962000000000 
K           0.478429000000000    0.754865000000000    0.536962000000000 
%ENDBLOCK POSITIONS_FRAC
