# Cell file generated by matador (Matthew Evans 2016)

%BLOCK LATTICE_CART
8.41409 0.0 0.0
-4.20704 7.28681 0.0
0.0 0.0 4.14834
%ENDBLOCK LATTICE_CART

%BLOCK POSITIONS_FRAC
P           0.999999000000000    0.999999000000000    0.250000000000000 
P           0.999999000000000    0.999999000000000    0.750000000000000 
P           0.999999000000000    0.499999000000000    0.000000000000000 
P           0.999999000000000    0.499999000000000    0.500000000000000 
P           0.499999000000000    0.999999000000000    0.000000000000000 
P           0.499999000000000    0.999999000000000    0.500000000000000 
P           0.499999000000000    0.499999000000000    0.000000000000000 
P           0.499999000000000    0.499999000000000    0.500000000000000 
K           0.333332000000000    0.666666000000000    0.750000000000000 
K           0.666666000000000    0.333332000000000    0.250000000000000 
%ENDBLOCK POSITIONS_FRAC
