# Cell file generated by matador (Matthew Evans 2016)

%BLOCK LATTICE_CART
8.32182 0.0 0.0
-4.16091 7.2069 0.0
0.0 0.0 5.89898
%ENDBLOCK LATTICE_CART

%BLOCK POSITIONS_FRAC
P           0.000000000000000    0.367591000000000    0.000000000000000 
P           0.000000000000000    0.605610000000000    0.500000000000000 
P           0.048381000000000    0.504502000000000    0.677790000000000 
P           0.367591000000000    0.000000000000000    0.000000000000000 
P           0.394390000000000    0.394390000000000    0.500000000000000 
P           0.456122000000000    0.951619000000000    0.677790000000000 
P           0.495498000000000    0.543878000000000    0.677790000000000 
P           0.504502000000000    0.048381000000000    0.322210000000000 
P           0.543878000000000    0.495498000000000    0.322210000000000 
P           0.605610000000000    0.000000000000000    0.500000000000000 
P           0.632409000000000    0.632409000000000    0.000000000000000 
P           0.951619000000000    0.456122000000000    0.322210000000000 
K           0.000000000000000    0.000000000000000    0.000000000000000 
K           0.000000000000000    0.000000000000000    0.500000000000000 
%ENDBLOCK POSITIONS_FRAC
