# Cell file generated by matador (Matthew Evans 2016)

%BLOCK LATTICE_CART
9.67152 0.0 0.0
-4.83576 8.37578 0.0
0.0 0.0 8.63719
%ENDBLOCK LATTICE_CART

%BLOCK POSITIONS_FRAC
P           0.333334000000000    0.666666000000000    0.028522000000000 
P           0.333334000000000    0.666666000000000    0.783524000000000 
P           0.666668000000000    0.333332000000000    0.028522000000000 
P           0.666668000000000    0.333332000000000    0.783524000000000 
K           0.000001000000000    0.307314000000000    0.963198000000000 
K           0.000001000000000    0.583936000000000    0.412880000000000 
K           0.000001000000000    0.660392000000000    0.830143000000000 
K           0.000001000000000    0.809032000000000    0.149004000000000 
K           0.190968000000000    0.190966000000000    0.149004000000000 
K           0.307316000000000    0.999999000000000    0.963198000000000 
K           0.339608000000000    0.339606000000000    0.830143000000000 
K           0.416064000000000    0.416062000000000    0.412880000000000 
K           0.583938000000000    0.999999000000000    0.412880000000000 
K           0.660394000000000    0.999999000000000    0.830143000000000 
K           0.692686000000000    0.692684000000000    0.963198000000000 
K           0.809034000000000    0.999999000000000    0.149004000000000 
%ENDBLOCK POSITIONS_FRAC
