# Cell file generated by matador (Matthew Evans 2016)

%BLOCK LATTICE_CART
7.86008 0.0 0.0
-3.93004 6.80703 0.0
0.0 0.0 7.71681
%ENDBLOCK LATTICE_CART

%BLOCK POSITIONS_FRAC
P           0.000000000000000    0.000000000000000    0.814519000000000 
P           0.147244000000000    0.341840000000000    0.978062000000000 
P           0.194595000000000    0.852756000000000    0.978062000000000 
P           0.341840000000000    0.147244000000000    0.978062000000000 
P           0.658160000000000    0.805405000000000    0.978062000000000 
P           0.805405000000000    0.658160000000000    0.978062000000000 
P           0.852756000000000    0.194595000000000    0.978062000000000 
K           0.000000000000000    0.000000000000000    0.200938000000000 
K           0.000000000000000    0.334717000000000    0.255445000000000 
K           0.333333000000000    0.666667000000000    0.668634000000000 
K           0.334717000000000    0.000000000000000    0.255445000000000 
K           0.665283000000000    0.665283000000000    0.255445000000000 
K           0.666667000000000    0.333333000000000    0.668634000000000 
%ENDBLOCK POSITIONS_FRAC
