# Cell file generated by matador (Matthew Evans 2016)

%BLOCK LATTICE_CART
6.46454 0.0 0.0
-3.23227 5.59846 0.0
0.0 0.0 6.38269
%ENDBLOCK LATTICE_CART

%BLOCK POSITIONS_FRAC
P           0.273040000000000    0.136520000000000    0.196509000000000 
P           0.863480000000000    0.136520000000000    0.196509000000000 
P           0.863480000000000    0.726960000000000    0.196509000000000 
K           0.000000000000000    0.000000000000000    0.456382000000000 
K           0.143953000000000    0.287907000000000    0.764381000000000 
K           0.143953000000000    0.856047000000000    0.764381000000000 
K           0.333333000000000    0.666667000000000    0.983546000000000 
K           0.712093000000000    0.856047000000000    0.764381000000000 
%ENDBLOCK POSITIONS_FRAC
