# Cell file generated by matador (Matthew Evans 2016)

%BLOCK LATTICE_CART
7.40725 0.0 0.0
-0.389552 10.6113 0.0
-0.0211165 -1.79267 4.71661
%ENDBLOCK LATTICE_CART

%BLOCK POSITIONS_FRAC
P           0.000000000000000    0.000000000000000    0.000000000000000 
P           0.000000000000000    0.000000000000000    0.500000000000000 
P           0.000000000000000    0.500000000000000    0.000000000000000 
P           0.000000000000000    0.500000000000000    0.500000000000000 
P           0.148166000000000    0.568218000000000    0.652036000000000 
P           0.500000000000000    0.000000000000000    0.000000000000000 
P           0.500000000000000    0.000000000000000    0.500000000000000 
P           0.500000000000000    0.500000000000000    0.000000000000000 
P           0.500000000000000    0.500000000000000    0.500000000000000 
P           0.851834000000000    0.431782000000000    0.347964000000000 
K           0.044767000000000    0.270432000000000    0.338993000000000 
K           0.955233000000000    0.729568000000000    0.661007000000000 
%ENDBLOCK POSITIONS_FRAC
