# Cell file generated by matador (Matthew Evans 2016)

%BLOCK LATTICE_CART
6.90552 0.0 0.0
0.0 10.6254 0.0
-0.821322 0.0 7.53564
%ENDBLOCK LATTICE_CART

%BLOCK POSITIONS_FRAC
P           0.000000000000000    0.052398000000000    0.250000000000000 
P           0.000000000000000    0.947602000000000    0.750000000000000 
K           0.000000000000000    0.155745000000000    0.750000000000000 
K           0.000000000000000    0.494369000000000    0.750000000000000 
K           0.000000000000000    0.505631000000000    0.250000000000000 
K           0.000000000000000    0.844255000000000    0.250000000000000 
K           0.029717000000000    0.341974000000000    0.963122000000000 
K           0.029717000000000    0.658026000000000    0.463122000000000 
K           0.161950000000000    0.044721000000000    0.009531000000000 
K           0.161950000000000    0.955279000000000    0.509531000000000 
K           0.838050000000000    0.044721000000000    0.490469000000000 
K           0.838050000000000    0.955279000000000    0.990469000000000 
K           0.970283000000000    0.341974000000000    0.536878000000000 
K           0.970283000000000    0.658026000000000    0.036878000000000 
%ENDBLOCK POSITIONS_FRAC
