# Cell file generated by matador (Matthew Evans 2016)

%BLOCK LATTICE_CART
7.6408 0.0 0.0
-3.8204 6.61713 0.0
0.0 0.0 13.0035
%ENDBLOCK LATTICE_CART

%BLOCK POSITIONS_FRAC
P           0.333332000000000    0.666668000000000    0.078353000000000 
P           0.333332000000000    0.666668000000000    0.421647000000000 
P           0.666666000000000    0.333334000000000    0.578353000000000 
P           0.666666000000000    0.333334000000000    0.921647000000000 
K           0.999999000000000    0.000001000000000   -0.000000000000000 
K           0.999999000000000    0.000001000000000    0.500000000000000 
K           0.032285000000000    0.791206000000000    0.250000000000000 
K           0.208794000000000    0.241082000000000    0.250000000000000 
K           0.241080000000000    0.208796000000000    0.750000000000000 
K           0.333332000000000    0.666668000000000    0.250000000000000 
K           0.333332000000000    0.666668000000000    0.750000000000000 
K           0.666666000000000    0.333334000000000    0.250000000000000 
K           0.666666000000000    0.333334000000000    0.750000000000000 
K           0.758918000000000    0.967715000000000    0.250000000000000 
K           0.791204000000000    0.032287000000000    0.750000000000000 
K           0.967713000000000    0.758920000000000    0.750000000000000 
%ENDBLOCK POSITIONS_FRAC
