# Cell file generated by matador (Matthew Evans 2016)

%BLOCK LATTICE_CART
6.99594 0.0 0.0
-3.49797 6.05866 0.0
0.0 0.0 4.04114
%ENDBLOCK LATTICE_CART

%BLOCK POSITIONS_FRAC
P           0.257472000000000    0.514944000000000    0.567871000000000 
P           0.257472000000000    0.742528000000000    0.567871000000000 
P           0.485056000000000    0.742528000000000    0.567871000000000 
P           0.514944000000000    0.257472000000000    0.432129000000000 
P           0.742528000000000    0.257472000000000    0.432129000000000 
P           0.742528000000000    0.485056000000000    0.432129000000000 
K           0.000000000000000    0.000000000000000    0.500000000000000 
%ENDBLOCK POSITIONS_FRAC
