# Cell file generated by matador (Matthew Evans 2016)

%BLOCK LATTICE_CART
8.67909 0.0 0.0
-4.33954 7.51631 0.0
0.0 0.0 8.43769
%ENDBLOCK LATTICE_CART

%BLOCK POSITIONS_FRAC
P           0.000000000000000    0.000000000000000    0.719673000000000 
P           0.000000000000000    0.000000000000000    0.995435000000000 
P           0.333333000000000    0.666667000000000    0.386340000000000 
P           0.333333000000000    0.666667000000000    0.662102000000000 
P           0.666667000000000    0.333333000000000    0.053006000000000 
P           0.666667000000000    0.333333000000000    0.328769000000000 
K           0.020039000000000    0.510020000000000    0.024442000000000 
K           0.156647000000000    0.313294000000000    0.357775000000000 
K           0.156647000000000    0.843353000000000    0.357775000000000 
K           0.353373000000000    0.176686000000000    0.691108000000000 
K           0.489980000000000    0.510020000000000    0.024442000000000 
K           0.489980000000000    0.979961000000000    0.024442000000000 
K           0.686706000000000    0.843353000000000    0.357775000000000 
K           0.823314000000000    0.176686000000000    0.691108000000000 
K           0.823314000000000    0.646627000000000    0.691108000000000 
%ENDBLOCK POSITIONS_FRAC
