# Cell file generated by matador (Matthew Evans 2016)

%BLOCK LATTICE_CART
6.97509 0.0 0.0
0.0 6.97509 0.0
0.0 0.0 11.0686
%ENDBLOCK LATTICE_CART

%BLOCK POSITIONS_FRAC
P           0.500000000000000    0.500000000000000    0.113516000000000 
P           0.500000000000000    0.500000000000000    0.613516000000000 
K           0.218808000000000    0.261486000000000    0.564174000000000 
K           0.218808000000000    0.738514000000000    0.564174000000000 
K           0.261486000000000    0.218808000000000    0.064174000000000 
K           0.261486000000000    0.781192000000000    0.064174000000000 
K           0.343035000000000    0.500000000000000    0.919067000000000 
K           0.500000000000000    0.343035000000000    0.419067000000000 
K           0.500000000000000    0.656965000000000    0.419067000000000 
K           0.656965000000000    0.500000000000000    0.919067000000000 
K           0.738514000000000    0.218808000000000    0.064174000000000 
K           0.738514000000000    0.781192000000000    0.064174000000000 
K           0.781192000000000    0.261486000000000    0.564174000000000 
K           0.781192000000000    0.738514000000000    0.564174000000000 
%ENDBLOCK POSITIONS_FRAC
