# Cell file generated by matador (Matthew Evans 2016)

%BLOCK LATTICE_CART
7.39186 0.0 0.0
-3.69593 6.40154 0.0
0.0 0.0 5.24846
%ENDBLOCK LATTICE_CART

%BLOCK POSITIONS_FRAC
P           0.333333000000000    0.666667000000000    0.265257000000000 
P           0.666666000000000    0.333334000000000    0.734743000000000 
K          -0.000000000000000    0.000000000000000    0.500000000000000 
K          -0.000000000000000    0.678134000000000    0.500000000000000 
K           0.321866000000000    0.321866000000000    0.500000000000000 
K           0.333333000000000    0.666667000000000    0.727259000000000 
K           0.666666000000000    0.333334000000000    0.272741000000000 
K           0.678134000000000    0.000000000000000    0.500000000000000 
%ENDBLOCK POSITIONS_FRAC
