# Cell file generated by matador (Matthew Evans 2016)

%BLOCK LATTICE_CART
7.90906 0.0 0.0
-3.95453 6.84945 0.0
0.0 0.0 7.51397
%ENDBLOCK LATTICE_CART

%BLOCK POSITIONS_FRAC
P           0.000000000000000    0.000000000000000    0.983326000000000 
P           0.049183000000000    0.735572000000000    0.053082000000000 
P           0.082518000000000    0.725292000000000    0.457258000000000 
P           0.264428000000000    0.313611000000000    0.053082000000000 
P           0.274708000000000    0.357226000000000    0.457258000000000 
P           0.642774000000000    0.917482000000000    0.457258000000000 
P           0.686389000000000    0.950817000000000    0.053082000000000 
K           0.000000000000000    0.000000000000000    0.373297000000000 
K           0.062491000000000    0.400594000000000    0.129787000000000 
K           0.338103000000000    0.937509000000000    0.129787000000000 
K           0.599406000000000    0.661897000000000    0.129787000000000 
K           0.666667000000000    0.333333000000000    0.598559000000000 
%ENDBLOCK POSITIONS_FRAC
