# Cell file generated by matador (Matthew Evans 2016)

%BLOCK LATTICE_CART
4.74724 0.0 0.0
0.0 7.1735 0.0
0.0 0.0 10.5329
%ENDBLOCK LATTICE_CART

%BLOCK POSITIONS_FRAC
P           0.000000000000000    0.117953000000000    0.394510000000000 
P           0.000000000000000    0.448037000000000    0.766646000000000 
P           0.000000000000000    0.553957000000000    0.400104000000000 
P           0.000000000000000    0.671549000000000    0.334128000000000 
P           0.000000000000000    0.817960000000000    0.367988000000000 
P           0.500000000000000    0.182040000000000    0.867988000000000 
P           0.500000000000000    0.328451000000000    0.834128000000000 
P           0.500000000000000    0.446043000000000    0.900104000000000 
P           0.500000000000000    0.551963000000000    0.266646000000000 
P           0.500000000000000    0.882047000000000    0.894510000000000 
K           0.000000000000000    0.257264000000000    0.142979000000000 
K           0.500000000000000    0.742736000000000    0.642979000000000 
%ENDBLOCK POSITIONS_FRAC
