# Cell file generated by matador (Matthew Evans 2016)

%BLOCK LATTICE_CART
6.79081 0.0 0.0
-3.39541 5.88102 0.0
0.0 0.0 8.66831
%ENDBLOCK LATTICE_CART

%BLOCK POSITIONS_FRAC
P           0.333334000000000    0.666668000000000    0.126759000000000 
P           0.666668000000000    0.333334000000000    0.126759000000000 
K           0.000001000000000    0.500001000000000    0.220358000000000 
K           0.000001000000000    0.500001000000000    0.780925000000000 
K           0.333334000000000    0.666668000000000    0.512774000000000 
K           0.500001000000000    0.000001000000000    0.220358000000000 
K           0.500001000000000    0.000001000000000    0.780925000000000 
K           0.500001000000000    0.500001000000000    0.220358000000000 
K           0.500001000000000    0.500001000000000    0.780925000000000 
K           0.666668000000000    0.333334000000000    0.512774000000000 
%ENDBLOCK POSITIONS_FRAC
