# Cell file generated by matador (Matthew Evans 2016)

%BLOCK LATTICE_CART
7.64202 0.0 0.0
0.0 7.64202 0.0
0.0 0.0 7.64202
%ENDBLOCK LATTICE_CART

%BLOCK POSITIONS_FRAC
P           0.026098000000000    0.026098000000000    0.026098000000000 
P           0.223902000000000    0.776098000000000    0.276098000000000 
P           0.276098000000000    0.223902000000000    0.776098000000000 
P           0.473902000000000    0.973902000000000    0.526098000000000 
P           0.526098000000000    0.473902000000000    0.973902000000000 
P           0.723902000000000    0.723902000000000    0.723902000000000 
P           0.776098000000000    0.276098000000000    0.223902000000000 
P           0.973902000000000    0.526098000000000    0.473902000000000 
K           0.125000000000000    0.375000000000000    0.625000000000000 
K           0.375000000000000    0.625000000000000    0.125000000000000 
K           0.625000000000000    0.125000000000000    0.375000000000000 
K           0.875000000000000    0.875000000000000    0.875000000000000 
%ENDBLOCK POSITIONS_FRAC
