# Cell file generated by matador (Matthew Evans 2016)

%BLOCK LATTICE_CART
9.2206 0.0 0.0
0.0 6.75539 0.0
0.0 0.0 9.90797
%ENDBLOCK LATTICE_CART

%BLOCK POSITIONS_FRAC
P           0.000000000000000    0.000000000000000    0.042089000000000 
P           0.000000000000000    0.500000000000000    0.542089000000000 
P           0.500000000000000    0.000000000000000    0.542089000000000 
P           0.500000000000000    0.500000000000000    0.042089000000000 
K           0.000000000000000    0.000000000000000    0.243224000000000 
K           0.000000000000000    0.216672000000000    0.505922000000000 
K           0.000000000000000    0.283328000000000    0.005922000000000 
K           0.000000000000000    0.500000000000000    0.743224000000000 
K           0.000000000000000    0.716672000000000    0.005922000000000 
K           0.000000000000000    0.783328000000000    0.505922000000000 
K           0.500000000000000    0.000000000000000    0.743224000000000 
K           0.500000000000000    0.216672000000000    0.005922000000000 
K           0.500000000000000    0.283328000000000    0.505922000000000 
K           0.500000000000000    0.500000000000000    0.243224000000000 
K           0.500000000000000    0.716672000000000    0.505922000000000 
K           0.500000000000000    0.783328000000000    0.005922000000000 
%ENDBLOCK POSITIONS_FRAC
