# Cell file generated by matador (Matthew Evans 2016)

%BLOCK LATTICE_CART
7.69595 0.0 0.0
-3.84798 6.66489 0.0
0.0 0.0 8.24992
%ENDBLOCK LATTICE_CART

%BLOCK POSITIONS_FRAC
P           0.000000000000000    0.000000000000000    0.079014000000000 
P           0.000000000000000    0.000000000000000    0.641873000000000 
P           0.333333000000000    0.666667000000000    0.308540000000000 
P           0.333333000000000    0.666667000000000    0.745680000000000 
P           0.666667000000000    0.333333000000000    0.412347000000000 
P           0.666667000000000    0.333333000000000    0.975206000000000 
K           0.188788000000000    0.094394000000000    0.328187000000000 
K           0.238939000000000    0.477878000000000    0.994854000000000 
K           0.238939000000000    0.761061000000000    0.994854000000000 
K           0.522122000000000    0.761061000000000    0.994854000000000 
K           0.572272000000000    0.144545000000000    0.661520000000000 
K           0.572272000000000    0.427728000000000    0.661520000000000 
K           0.855455000000000    0.427728000000000    0.661520000000000 
K           0.905606000000000    0.094394000000000    0.328187000000000 
K           0.905606000000000    0.811212000000000    0.328187000000000 
%ENDBLOCK POSITIONS_FRAC
