# Cell file generated by matador (Matthew Evans 2016)

%BLOCK LATTICE_CART
7.44134 0.0 0.0
0.0 7.44134 0.0
0.0 0.0 9.88044
%ENDBLOCK LATTICE_CART

%BLOCK POSITIONS_FRAC
P           0.195003000000000    0.402450000000000    0.211300000000000 
P           0.195003000000000    0.597550000000000    0.211300000000000 
P           0.285011000000000    0.355866000000000    0.471671000000000 
P           0.285011000000000    0.644134000000000    0.471671000000000 
P           0.355866000000000    0.285011000000000    0.971671000000000 
P           0.355866000000000    0.714989000000000    0.971671000000000 
P           0.402450000000000    0.195003000000000    0.711300000000000 
P           0.402450000000000    0.804997000000000    0.711300000000000 
P           0.597550000000000    0.195003000000000    0.711300000000000 
P           0.597550000000000    0.804997000000000    0.711300000000000 
P           0.644134000000000    0.285011000000000    0.971671000000000 
P           0.644134000000000    0.714989000000000    0.971671000000000 
P           0.714989000000000    0.355866000000000    0.471671000000000 
P           0.714989000000000    0.644134000000000    0.471671000000000 
P           0.804997000000000    0.402450000000000    0.211300000000000 
P           0.804997000000000    0.597550000000000    0.211300000000000 
K           0.000000000000000    0.349275000000000    0.347418000000000 
K           0.000000000000000    0.650725000000000    0.347418000000000 
K           0.349275000000000    0.000000000000000    0.847418000000000 
K           0.650725000000000    0.000000000000000    0.847418000000000 
%ENDBLOCK POSITIONS_FRAC
