# Cell file generated by matador (Matthew Evans 2016)

%BLOCK LATTICE_CART
7.62432 0.0 0.0
-3.81216 6.60286 0.0
0.0 0.0 6.84188
%ENDBLOCK LATTICE_CART

%BLOCK POSITIONS_FRAC
P           0.495139000000000    0.474055000000000    0.165234000000000 
P           0.495139000000000    0.474055000000000    0.834766000000000 
P           0.525945000000000    0.021083000000000    0.165234000000000 
P           0.525945000000000    0.021083000000000    0.834766000000000 
P           0.978917000000000    0.504861000000000    0.165234000000000 
P           0.978917000000000    0.504861000000000    0.834766000000000 
K           0.000000000000000   -0.000000000000000    0.500000000000000 
K           0.010615000000000    0.747407000000000    0.500000000000000 
K           0.252593000000000    0.263208000000000    0.500000000000000 
K           0.333334000000000    0.666666000000000    0.500000000000000 
K           0.666667000000000    0.333333000000000    0.000000000000000 
K           0.666667000000000    0.333333000000000    0.500000000000000 
K           0.736792000000000    0.989385000000000    0.500000000000000 
%ENDBLOCK POSITIONS_FRAC
