# Cell file generated by matador (Matthew Evans 2016)

%BLOCK LATTICE_CART
7.55631 0.0 0.0
0.0 7.55631 0.0
0.0 0.0 7.55631
%ENDBLOCK LATTICE_CART

%BLOCK POSITIONS_FRAC
P           0.000000000000000    0.000000000000000    0.000000000000000 
P           0.076978000000000    0.076978000000000    0.076978000000000 
P           0.076978000000000    0.923022000000000    0.923022000000000 
P           0.423022000000000    0.423022000000000    0.576978000000000 
P           0.423022000000000    0.576978000000000    0.423022000000000 
P           0.500000000000000    0.500000000000000    0.500000000000000 
P           0.576978000000000    0.423022000000000    0.423022000000000 
P           0.576978000000000    0.576978000000000    0.576978000000000 
P           0.923022000000000    0.076978000000000    0.923022000000000 
P           0.923022000000000    0.923022000000000    0.076978000000000 
K           0.000000000000000    0.000000000000000    0.500000000000000 
K           0.000000000000000    0.500000000000000    0.000000000000000 
K           0.000000000000000    0.500000000000000    0.500000000000000 
K           0.500000000000000    0.000000000000000    0.000000000000000 
K           0.500000000000000    0.000000000000000    0.500000000000000 
K           0.500000000000000    0.500000000000000    0.000000000000000 
%ENDBLOCK POSITIONS_FRAC
