# Cell file generated by matador (Matthew Evans 2016)

%BLOCK LATTICE_CART
9.40275 0.0 0.0
-4.70138 8.14302 0.0
0.0 0.0 5.73428
%ENDBLOCK LATTICE_CART

%BLOCK POSITIONS_FRAC
P           0.000000000000000    0.000000000000000    0.325611000000000 
P           0.000000000000000    0.000000000000000    0.500000000000000 
P           0.000000000000000    0.000000000000000    0.674389000000000 
P           0.333333000000000    0.666667000000000    0.869929000000000 
P           0.666667000000000    0.333333000000000    0.130071000000000 
K           0.118154000000000    0.770617000000000    0.258270000000000 
K           0.229383000000000    0.347537000000000    0.258270000000000 
K           0.347537000000000    0.229383000000000    0.741730000000000 
K           0.652463000000000    0.881846000000000    0.258270000000000 
K           0.770617000000000    0.118154000000000    0.741730000000000 
K           0.881846000000000    0.652463000000000    0.741730000000000 
%ENDBLOCK POSITIONS_FRAC
