# Cell file generated by matador (Matthew Evans 2016)

%BLOCK LATTICE_CART
9.20129 0.0 0.0
0.0 9.20129 0.0
0.0 0.0 6.63127
%ENDBLOCK LATTICE_CART

%BLOCK POSITIONS_FRAC
P          -0.000000000000000   -0.000000000000000   -0.000000000000000 
P          -0.000000000000000   -0.000000000000000    0.500000000000000 
P           0.500000000000000    0.500000000000000   -0.000000000000000 
P           0.500000000000000    0.500000000000000    0.500000000000000 
K          -0.000000000000000    0.500000000000000    0.250000000000000 
K          -0.000000000000000    0.500000000000000    0.750000000000000 
K           0.174423000000000    0.719055000000000    0.500000000000000 
K           0.219055000000000    0.674423000000000   -0.000000000000000 
K           0.280945000000000    0.174423000000000    0.500000000000000 
K           0.325577000000000    0.219055000000000   -0.000000000000000 
K           0.500000000000000   -0.000000000000000    0.250000000000000 
K           0.500000000000000   -0.000000000000000    0.750000000000000 
K           0.674423000000000    0.780945000000000   -0.000000000000000 
K           0.719055000000000    0.825577000000000    0.500000000000000 
K           0.780945000000000    0.325577000000000   -0.000000000000000 
K           0.825577000000000    0.280945000000000    0.500000000000000 
%ENDBLOCK POSITIONS_FRAC
