# Cell file generated by matador (Matthew Evans 2016)

%BLOCK LATTICE_CART
8.98639 0.0 0.0
-4.4932 7.78244 0.0
0.0 0.0 9.11276
%ENDBLOCK LATTICE_CART

%BLOCK POSITIONS_FRAC
P           0.333332000000000    0.666666000000000    0.487127000000000 
P           0.333332000000000    0.666666000000000    0.987127000000000 
P           0.666666000000000    0.333332000000000    0.487127000000000 
P           0.666666000000000    0.333332000000000    0.987127000000000 
K           0.999999000000000    0.262022000000000    0.191153000000000 
K           0.999999000000000    0.330268000000000    0.549382000000000 
K           0.999999000000000    0.669730000000000    0.049382000000000 
K           0.999999000000000    0.737976000000000    0.691153000000000 
K           0.262022000000000    0.999999000000000    0.191153000000000 
K           0.262022000000000    0.262022000000000    0.691153000000000 
K           0.330268000000000    0.999999000000000    0.549382000000000 
K           0.330268000000000    0.330268000000000    0.049382000000000 
K           0.669730000000000    0.999999000000000    0.049382000000000 
K           0.669730000000000    0.669730000000000    0.549382000000000 
K           0.737976000000000    0.999999000000000    0.691153000000000 
K           0.737976000000000    0.737976000000000    0.191153000000000 
%ENDBLOCK POSITIONS_FRAC
