# Cell file generated by matador (Matthew Evans 2016)

%BLOCK LATTICE_CART
8.98538 0.0 0.0
-4.49269 7.78157 0.0
0.0 0.0 12.1061
%ENDBLOCK LATTICE_CART

%BLOCK POSITIONS_FRAC
P           0.000000000000000    0.000000000000000    0.507431000000000 
P           0.000000000000000    0.500000000000000    0.923140000000000 
P           0.333333000000000    0.666667000000000    0.892728000000000 
P           0.500000000000000    0.000000000000000    0.923140000000000 
P           0.500000000000000    0.500000000000000    0.923140000000000 
P           0.666667000000000    0.333333000000000    0.892728000000000 
K           0.000000000000000    0.333062000000000    0.297565000000000 
K           0.000000000000000    0.666938000000000    0.297565000000000 
K           0.194190000000000    0.388380000000000    0.076640000000000 
K           0.194190000000000    0.805810000000000    0.076640000000000 
K           0.208035000000000    0.416071000000000    0.611064000000000 
K           0.208035000000000    0.791965000000000    0.611064000000000 
K           0.333062000000000    0.000000000000000    0.297565000000000 
K           0.333062000000000    0.333062000000000    0.297565000000000 
K           0.388380000000000    0.194190000000000    0.076640000000000 
K           0.416071000000000    0.208035000000000    0.611064000000000 
K           0.583929000000000    0.791965000000000    0.611064000000000 
K           0.611620000000000    0.805810000000000    0.076640000000000 
K           0.666938000000000    0.000000000000000    0.297565000000000 
K           0.666938000000000    0.666938000000000    0.297565000000000 
K           0.791965000000000    0.208035000000000    0.611064000000000 
K           0.791965000000000    0.583929000000000    0.611064000000000 
K           0.805810000000000    0.194190000000000    0.076640000000000 
K           0.805810000000000    0.611620000000000    0.076640000000000 
%ENDBLOCK POSITIONS_FRAC
