# Cell file generated by matador (Matthew Evans 2016)

%BLOCK LATTICE_CART
7.31726 0.0 0.0
0.0 5.70478 0.0
1.32535 0.0 6.77908
%ENDBLOCK LATTICE_CART

%BLOCK POSITIONS_FRAC
P           0.106763000000000    0.246488000000000    0.540993000000000 
P           0.106763000000000    0.753512000000000    0.540993000000000 
P           0.708476000000000    0.500000000000000    0.611730000000000 
P           0.730318000000000    0.500000000000000    0.929969000000000 
P           0.986476000000000    0.500000000000000    0.748952000000000 
K           0.535084000000000    0.194872000000000    0.290627000000000 
K           0.535084000000000    0.805128000000000    0.290627000000000 
K           0.684826000000000   -0.000000000000000    0.590131000000000 
K           0.979086000000000   -0.000000000000000    0.256221000000000 
%ENDBLOCK POSITIONS_FRAC
