# Cell file generated by matador (Matthew Evans 2016)

%BLOCK LATTICE_CART
7.1516 0.0 0.0
-3.5758 6.19347 0.0
0.0 0.0 10.0295
%ENDBLOCK LATTICE_CART

%BLOCK POSITIONS_FRAC
P           0.000000000000000    0.000000000000000    0.486920000000000 
P           0.333333000000000    0.666667000000000    0.153586000000000 
P           0.666667000000000    0.333333000000000    0.820253000000000 
K           0.031353000000000    0.515677000000000    0.370887000000000 
K           0.150990000000000    0.301980000000000    0.704220000000000 
K           0.150990000000000    0.849010000000000    0.704220000000000 
K           0.364687000000000    0.182343000000000    0.037554000000000 
K           0.484323000000000    0.515677000000000    0.370887000000000 
K           0.484323000000000    0.968647000000000    0.370887000000000 
K           0.698020000000000    0.849010000000000    0.704220000000000 
K           0.817657000000000    0.182343000000000    0.037554000000000 
K           0.817657000000000    0.635313000000000    0.037554000000000 
%ENDBLOCK POSITIONS_FRAC
