# Cell file generated by matador (Matthew Evans 2016)

%BLOCK LATTICE_CART
8.01577 0.0 0.0
0.0 8.07383 0.0
0.0 0.0 4.54744
%ENDBLOCK LATTICE_CART

%BLOCK POSITIONS_FRAC
P           0.000000000000000    0.000000000000000    0.500000000000000 
P           0.500000000000000    0.000000000000000    0.500000000000000 
P           0.500000000000000    0.500000000000000    0.000000000000000 
P           0.500000000000000    0.500000000000000    0.500000000000000 
K           0.000000000000000    0.500000000000000    0.500000000000000 
K           0.131009000000000    0.263996000000000    0.878261000000000 
K           0.131009000000000    0.736004000000000    0.121739000000000 
K           0.868991000000000    0.263996000000000    0.121739000000000 
K           0.868991000000000    0.736004000000000    0.878261000000000 
%ENDBLOCK POSITIONS_FRAC
