# Cell file generated by matador (Matthew Evans 2016)

%BLOCK LATTICE_CART
9.90487 0.0 0.0
-4.95243 8.57787 0.0
0.0 0.0 13.2438
%ENDBLOCK LATTICE_CART

%BLOCK POSITIONS_FRAC
P           0.000000000000000    0.000000000000000    0.000000000000000 
P           0.000000000000000    0.000000000000000    0.500000000000000 
P           0.333333000000000    0.666667000000000    0.000000000000000 
P           0.333333000000000    0.666667000000000    0.153304000000000 
P           0.333333000000000    0.666667000000000    0.846696000000000 
P           0.666667000000000    0.333333000000000    0.000000000000000 
P           0.666667000000000    0.333333000000000    0.153304000000000 
P           0.666667000000000    0.333333000000000    0.846696000000000 
K           0.000000000000000    0.172462000000000    0.113870000000000 
K           0.000000000000000    0.172462000000000    0.886130000000000 
K           0.000000000000000    0.367035000000000    0.287715000000000 
K           0.000000000000000    0.367035000000000    0.712285000000000 
K           0.000000000000000    0.801567000000000    0.289689000000000 
K           0.000000000000000    0.801567000000000    0.710311000000000 
K           0.169424000000000    0.340731000000000    0.500000000000000 
K           0.171308000000000    0.830576000000000    0.500000000000000 
K           0.172462000000000    0.000000000000000    0.113870000000000 
K           0.172462000000000    0.000000000000000    0.886130000000000 
K           0.198433000000000    0.198433000000000    0.289689000000000 
K           0.198433000000000    0.198433000000000    0.710311000000000 
K           0.340731000000000    0.169424000000000    0.500000000000000 
K           0.367035000000000    0.000000000000000    0.287715000000000 
K           0.367035000000000    0.000000000000000    0.712285000000000 
K           0.632965000000000    0.632965000000000    0.287715000000000 
K           0.632965000000000    0.632965000000000    0.712285000000000 
K           0.659269000000000    0.828692000000000    0.500000000000000 
K           0.801567000000000    0.000000000000000    0.289689000000000 
K           0.801567000000000    0.000000000000000    0.710311000000000 
K           0.827538000000000    0.827538000000000    0.113870000000000 
K           0.827538000000000    0.827538000000000    0.886130000000000 
K           0.828692000000000    0.659269000000000    0.500000000000000 
K           0.830576000000000    0.171308000000000    0.500000000000000 
%ENDBLOCK POSITIONS_FRAC
