# Cell file generated by matador (Matthew Evans 2016)

%BLOCK LATTICE_CART
6.42359 0.0 0.0
-3.21179 5.56299 0.0
0.0 0.0 6.46504
%ENDBLOCK LATTICE_CART

%BLOCK POSITIONS_FRAC
P           0.000000000000000    0.000000000000000    0.737706000000000 
P           0.666667000000000    0.333333000000000    0.577645000000000 
K           0.199079000000000    0.189775000000000    0.402548000000000 
K           0.333333000000000    0.666667000000000    0.803533000000000 
K           0.666667000000000    0.333333000000000    0.190636000000000 
K           0.810225000000000    0.009304000000000    0.402548000000000 
K           0.990696000000000    0.800921000000000    0.402548000000000 
%ENDBLOCK POSITIONS_FRAC
