# Cell file generated by matador (Matthew Evans 2016)

%BLOCK LATTICE_CART
9.20855 0.0 0.0
0.0 5.42521 0.0
0.0871192 0.0 5.69466
%ENDBLOCK LATTICE_CART

%BLOCK POSITIONS_FRAC
P           0.009096000000000    0.500000000000000    0.607728000000000 
P           0.639751000000000    0.500000000000000    0.766285000000000 
K           0.080023000000000    0.500000000000000    0.015285000000000 
K           0.262626000000000    0.000000000000000    0.158575000000000 
K           0.283307000000000    0.500000000000000    0.596997000000000 
K           0.419845000000000    0.500000000000000    0.080679000000000 
K           0.749074000000000    0.500000000000000    0.402362000000000 
K           0.900058000000000    0.000000000000000    0.886292000000000 
%ENDBLOCK POSITIONS_FRAC
