# Cell file generated by matador (Matthew Evans 2016)

%BLOCK LATTICE_CART
7.01368 0.0 0.0
0.0 7.43611 0.0
1.43347 0.0 8.62489
%ENDBLOCK LATTICE_CART

%BLOCK POSITIONS_FRAC
P          -0.000000000000000    0.000000000000000    0.000000000000000 
P          -0.000000000000000    0.500000000000000    0.000000000000000 
P           0.255244000000000    0.566419000000000    0.772792000000000 
P           0.255244000000000    0.933581000000000    0.772792000000000 
P           0.348966000000000    0.639340000000000    0.364579000000000 
P           0.348966000000000    0.860660000000000    0.364579000000000 
P           0.651034000000000    0.139340000000000    0.635421000000000 
P           0.651034000000000    0.360660000000000    0.635421000000000 
P           0.744756000000000    0.066419000000000    0.227208000000000 
P           0.744756000000000    0.433581000000000    0.227208000000000 
K          -0.000000000000000    0.000000000000000    0.500000000000000 
K          -0.000000000000000    0.500000000000000    0.500000000000000 
K           0.077454000000000    0.750000000000000    0.470022000000000 
K           0.500000000000000    0.000000000000000    0.000000000000000 
K           0.500000000000000    0.000000000000000    0.500000000000000 
K           0.500000000000000    0.500000000000000    0.000000000000000 
K           0.500000000000000    0.500000000000000    0.500000000000000 
K           0.922546000000000    0.250000000000000    0.529978000000000 
%ENDBLOCK POSITIONS_FRAC
