# Cell file generated by matador (Matthew Evans 2016)

%BLOCK LATTICE_CART
4.44748 0.0 0.0
-2.22374 3.85163 0.0
0.0 0.0 9.34985
%ENDBLOCK LATTICE_CART

%BLOCK POSITIONS_FRAC
P          -0.000000000000000    0.000000000000000    0.244388000000000 
P           0.178358000000000    0.650902000000000    0.726331000000000 
P           0.333333000000000    0.666667000000000    0.334572000000000 
P           0.333333000000000    0.666667000000000    0.607173000000000 
P           0.349098000000000    0.527457000000000    0.726331000000000 
P           0.472543000000000    0.821642000000000    0.726331000000000 
K           0.333333000000000    0.666667000000000    0.998741000000000 
%ENDBLOCK POSITIONS_FRAC
