# Cell file generated by matador (Matthew Evans 2016)

%BLOCK LATTICE_CART
10.7538 0.0 0.0
0.0 7.71222 0.0
-0.898552 0.0 3.53014
%ENDBLOCK LATTICE_CART

%BLOCK POSITIONS_FRAC
P           0.000000000000000    0.088452000000000    0.000000000000000 
P           0.000000000000000    0.526824000000000    0.000000000000000 
P           0.500000000000000    0.549933000000000    0.000000000000000 
K           0.000000000000000    0.372481000000000    0.500000000000000 
K           0.121931000000000    0.872978000000000    0.707617000000000 
K           0.296390000000000    0.729932000000000    0.679378000000000 
K           0.703610000000000    0.729932000000000    0.320622000000000 
K           0.878069000000000    0.872978000000000    0.292383000000000 
%ENDBLOCK POSITIONS_FRAC
