# Cell file generated by matador (Matthew Evans 2016)

%BLOCK LATTICE_CART
8.55048 0.0 0.0
-4.27524 7.40494 0.0
0.0 0.0 8.50125
%ENDBLOCK LATTICE_CART

%BLOCK POSITIONS_FRAC
P           0.333333000000000    0.666667000000000    0.066757000000000 
P           0.333333000000000    0.666667000000000    0.433243000000000 
P           0.333333000000000    0.666667000000000    0.566757000000000 
P           0.333333000000000    0.666667000000000    0.933243000000000 
K          -0.000000000000000    0.000000000000000    0.000000000000000 
K          -0.000000000000000    0.000000000000000    0.500000000000000 
K           0.091022000000000    0.476062000000000    0.750000000000000 
K           0.091022000000000    0.614961000000000    0.250000000000000 
K           0.385039000000000    0.476062000000000    0.250000000000000 
K           0.385039000000000    0.908978000000000    0.750000000000000 
K           0.523938000000000    0.614961000000000    0.750000000000000 
K           0.523938000000000    0.908978000000000    0.250000000000000 
K           0.666666000000000    0.333334000000000    0.000000000000000 
K           0.666666000000000    0.333334000000000    0.500000000000000 
%ENDBLOCK POSITIONS_FRAC
