# Cell file generated by matador (Matthew Evans 2016)

%BLOCK LATTICE_CART
6.95933 0.0 0.0
-3.47966 6.02695 0.0
0.0 0.0 8.50315
%ENDBLOCK LATTICE_CART

%BLOCK POSITIONS_FRAC
P           0.000000000000000    0.000000000000000    0.034217000000000 
P           0.000000000000000    0.000000000000000    0.516040000000000 
P           0.333333000000000    0.666667000000000    0.018571000000000 
P           0.333333000000000    0.666667000000000    0.216326000000000 
P           0.333333000000000    0.666667000000000    0.574092000000000 
P           0.333333000000000    0.666667000000000    0.865663000000000 
P           0.666667000000000    0.333333000000000    0.018571000000000 
P           0.666667000000000    0.333333000000000    0.216326000000000 
P           0.666667000000000    0.333333000000000    0.574092000000000 
P           0.666667000000000    0.333333000000000    0.865663000000000 
K           0.000000000000000    0.000000000000000    0.782811000000000 
K           0.000000000000000    0.500000000000000    0.156481000000000 
K           0.500000000000000    0.000000000000000    0.156481000000000 
K           0.500000000000000    0.500000000000000    0.156481000000000 
%ENDBLOCK POSITIONS_FRAC
