# Cell file generated by matador (Matthew Evans 2016)

%BLOCK LATTICE_CART
7.80013 0.0 0.0
-3.90006 6.75511 0.0
0.0 0.0 9.426
%ENDBLOCK LATTICE_CART

%BLOCK POSITIONS_FRAC
P           0.196627000000000    0.393254000000000    0.845238000000000 
P           0.196627000000000    0.803373000000000    0.845238000000000 
P           0.606746000000000    0.803373000000000    0.845238000000000 
K           0.000000000000000    0.000000000000000    0.232920000000000 
K           0.298782000000000    0.149391000000000    0.651334000000000 
K           0.333333000000000    0.666667000000000    0.478059000000000 
K           0.537252000000000    0.074504000000000    0.299227000000000 
K           0.537252000000000    0.462748000000000    0.299227000000000 
K           0.666667000000000    0.333333000000000    0.019625000000000 
K           0.850609000000000    0.149391000000000    0.651334000000000 
K           0.850609000000000    0.701218000000000    0.651334000000000 
K           0.925496000000000    0.462748000000000    0.299227000000000 
%ENDBLOCK POSITIONS_FRAC
