# Cell file generated by matador (Matthew Evans 2016)

%BLOCK LATTICE_CART
10.6538 0.0 0.0
0.0 10.6538 0.0
0.0 0.0 5.84839
%ENDBLOCK LATTICE_CART

%BLOCK POSITIONS_FRAC
P           0.000000000000000    0.500000000000000    0.250000000000000 
P           0.000000000000000    0.500000000000000    0.750000000000000 
P           0.500000000000000    0.000000000000000    0.250000000000000 
P           0.500000000000000    0.000000000000000    0.750000000000000 
K           0.000000000000000    0.000000000000000    0.000000000000000 
K           0.000000000000000    0.000000000000000    0.500000000000000 
K           0.000000000000000    0.315438000000000    0.077870000000000 
K           0.000000000000000    0.684562000000000    0.077870000000000 
K           0.184562000000000    0.500000000000000    0.422130000000000 
K           0.315438000000000    0.000000000000000    0.922130000000000 
K           0.500000000000000    0.184562000000000    0.577870000000000 
K           0.500000000000000    0.500000000000000    0.000000000000000 
K           0.500000000000000    0.500000000000000    0.500000000000000 
K           0.500000000000000    0.815438000000000    0.577870000000000 
K           0.684562000000000    0.000000000000000    0.922130000000000 
K           0.815438000000000    0.500000000000000    0.422130000000000 
%ENDBLOCK POSITIONS_FRAC
