# Cell file generated by matador (Matthew Evans 2016)

%BLOCK LATTICE_CART
8.28549 0.0 0.0
-4.14275 7.17545 0.0
0.0 0.0 3.69652
%ENDBLOCK LATTICE_CART

%BLOCK POSITIONS_FRAC
P           0.000000000000000    0.000000000000000    0.000000000000000 
P           0.199968000000000    0.599984000000000    0.500000000000000 
P           0.400016000000000    0.599984000000000    0.500000000000000 
P           0.400016000000000    0.800032000000000    0.500000000000000 
P           0.599984000000000    0.199968000000000    0.500000000000000 
P           0.599984000000000    0.400016000000000    0.500000000000000 
P           0.800032000000000    0.400016000000000    0.500000000000000 
K           0.000000000000000    0.000000000000000    0.500000000000000 
%ENDBLOCK POSITIONS_FRAC
