# Cell file generated by matador (Matthew Evans 2016)

%BLOCK LATTICE_CART
7.88787 -0.0 0.0
-3.94393 6.83109 0.0
0.0 0.0 8.32336
%ENDBLOCK LATTICE_CART

%BLOCK POSITIONS_FRAC
P           0.000000000000000    0.000000000000000    0.000000000000000 
P           0.000000000000000    0.500000000000000    0.500000000000000 
P           0.500000000000000    0.000000000000000    0.500000000000000 
P           0.500000000000000    0.500000000000000    0.500000000000000 
K           0.000000000000000    0.000000000000000    0.500000000000000 
K           0.000000000000000    0.500000000000000    0.000000000000000 
K           0.039227000000000    0.783736000000000    0.417943000000000 
K           0.216264000000000    0.255491000000000    0.417943000000000 
K           0.255491000000000    0.039227000000000    0.582057000000000 
K           0.333333000000000    0.666667000000000    0.341704000000000 
K           0.500000000000000    0.000000000000000    0.000000000000000 
K           0.500000000000000    0.500000000000000    0.000000000000000 
K           0.666667000000000    0.333333000000000    0.658296000000000 
K           0.744509000000000    0.960773000000000    0.417943000000000 
K           0.783736000000000    0.744509000000000    0.582057000000000 
K           0.960773000000000    0.216264000000000    0.582057000000000 
%ENDBLOCK POSITIONS_FRAC
