# Cell file generated by matador (Matthew Evans 2016)

%BLOCK LATTICE_CART
7.60832 0.0 0.0
0.0 7.60832 0.0
0.0 0.0 5.95419
%ENDBLOCK LATTICE_CART

%BLOCK POSITIONS_FRAC
P           0.000000000000000    0.500000000000000    0.765459000000000 
P           0.500000000000000    0.000000000000000    0.234541000000000 
K           0.000000000000000    0.000000000000000    0.000000000000000 
K           0.141491000000000    0.641491000000000    0.052300000000000 
K           0.358509000000000    0.141491000000000    0.947700000000000 
K           0.500000000000000    0.500000000000000    0.000000000000000 
K           0.641491000000000    0.858509000000000    0.947700000000000 
K           0.858509000000000    0.358509000000000    0.052300000000000 
%ENDBLOCK POSITIONS_FRAC
