# Cell file generated by matador (Matthew Evans 2016)

%BLOCK LATTICE_CART
8.4408 0.0 0.0
-4.2204 7.30995 0.0
0.0 0.0 7.6476
%ENDBLOCK LATTICE_CART

%BLOCK POSITIONS_FRAC
P           0.000001000000000    0.000001000000000    0.074172000000000 
P           0.000001000000000    0.000001000000000    0.500000000000000 
P           0.000001000000000    0.000001000000000    0.925828000000000 
P           0.000001000000000    0.500001000000000    0.121274000000000 
P           0.000001000000000    0.500001000000000    0.500000000000000 
P           0.000001000000000    0.500001000000000    0.878726000000000 
P           0.333334000000000    0.666668000000000    0.000000000000000 
P           0.500001000000000    0.000001000000000    0.121274000000000 
P           0.500001000000000    0.000001000000000    0.500000000000000 
P           0.500001000000000    0.000001000000000    0.878726000000000 
P           0.500001000000000    0.500001000000000    0.121274000000000 
P           0.500001000000000    0.500001000000000    0.500000000000000 
P           0.500001000000000    0.500001000000000    0.878726000000000 
P           0.666668000000000    0.333334000000000    0.000000000000000 
K           0.333334000000000    0.666668000000000    0.500000000000000 
K           0.666668000000000    0.333334000000000    0.500000000000000 
%ENDBLOCK POSITIONS_FRAC
