# Cell file generated by matador (Matthew Evans 2016)

%BLOCK LATTICE_CART
4.75449 0.0 0.0
0.0 7.05454 0.0
0.0 0.0 4.80351
%ENDBLOCK LATTICE_CART

%BLOCK POSITIONS_FRAC
P           0.013724000000000    0.221904000000000    0.164438000000000 
P           0.486276000000000    0.221904000000000    0.164438000000000 
P           0.513724000000000    0.778096000000000    0.164438000000000 
P           0.986276000000000    0.778096000000000    0.164438000000000 
K           0.000000000000000    0.000000000000000    0.876879000000000 
K           0.500000000000000    0.000000000000000    0.876879000000000 
%ENDBLOCK POSITIONS_FRAC
