# Cell file generated by matador (Matthew Evans 2016)

%BLOCK LATTICE_CART
7.76877 0.0 0.0
-3.88439 6.72796 0.0
0.0 0.0 10.2418
%ENDBLOCK LATTICE_CART

%BLOCK POSITIONS_FRAC
P          -0.000000000000000    0.417851000000000    0.000000000000000 
P           0.417851000000000   -0.000000000000000    0.000000000000000 
P           0.582149000000000    0.582149000000000    0.000000000000000 
K          -0.000000000000000   -0.000000000000000    0.000000000000000 
K           0.148019000000000    0.766900000000000    0.000000000000000 
K           0.163857000000000    0.413735000000000    0.500000000000000 
K           0.233100000000000    0.381120000000000    0.000000000000000 
K           0.249878000000000    0.836143000000000    0.500000000000000 
K           0.333333000000000    0.666667000000000    0.000000000000000 
K           0.381120000000000    0.233100000000000    0.000000000000000 
K           0.413735000000000    0.163857000000000    0.500000000000000 
K           0.586265000000000    0.750122000000000    0.500000000000000 
K           0.618880000000000    0.851981000000000    0.000000000000000 
K           0.666667000000000    0.333333000000000    0.000000000000000 
K           0.750122000000000    0.586265000000000    0.500000000000000 
K           0.766900000000000    0.148019000000000    0.000000000000000 
K           0.836143000000000    0.249878000000000    0.500000000000000 
K           0.851981000000000    0.618880000000000    0.000000000000000 
%ENDBLOCK POSITIONS_FRAC
