# Cell file generated by matador (Matthew Evans 2016)

%BLOCK LATTICE_CART
7.63114 0.0 0.0
-3.81557 6.60876 0.0
0.0 0.0 4.95864
%ENDBLOCK LATTICE_CART

%BLOCK POSITIONS_FRAC
P           0.175334000000000    0.087667000000000    0.871528000000000 
P           0.666667000000000    0.333333000000000    0.153052000000000 
P           0.912333000000000    0.087667000000000    0.871528000000000 
P           0.912333000000000    0.824666000000000    0.871528000000000 
K           0.101375000000000    0.202751000000000    0.271336000000000 
K           0.101375000000000    0.898625000000000    0.271336000000000 
K           0.562780000000000    0.125560000000000    0.819058000000000 
K           0.562780000000000    0.437220000000000    0.819058000000000 
K           0.797249000000000    0.898625000000000    0.271336000000000 
K           0.874440000000000    0.437220000000000    0.819058000000000 
%ENDBLOCK POSITIONS_FRAC
