# Cell file generated by matador (Matthew Evans 2016)

%BLOCK LATTICE_CART
4.77675 0.0 0.0
-2.38837 4.13678 0.0
0.0 0.0 4.85831
%ENDBLOCK LATTICE_CART

%BLOCK POSITIONS_FRAC
P           0.000000000000000    0.000000000000000    0.394674000000000 
P           0.000000000000000    0.000000000000000    0.605326000000000 
K           0.000000000000000    0.000000000000000    0.000000000000000 
%ENDBLOCK POSITIONS_FRAC
