# Cell file generated by matador (Matthew Evans 2016)

%BLOCK LATTICE_CART
9.12866 0.0 0.0
0.0 7.22252 0.0
1.16262 0.0 5.62071
%ENDBLOCK LATTICE_CART

%BLOCK POSITIONS_FRAC
P           0.100586000000000    0.500000000000000    0.283690000000000 
P           0.117673000000000    0.500000000000000    0.695626000000000 
P           0.224529000000000    0.500000000000000    0.825395000000000 
P           0.328190000000000    0.500000000000000    0.485200000000000 
P           0.378131000000000    0.500000000000000    0.123955000000000 
P           0.418946000000000    0.000000000000000    0.534352000000000 
P           0.520230000000000    0.500000000000000    0.540250000000000 
P           0.550974000000000    0.500000000000000    0.081649000000000 
P           0.565336000000000    0.500000000000000    0.699418000000000 
P           0.837092000000000    0.000000000000000    0.313540000000000 
P           0.951466000000000    0.500000000000000    0.685689000000000 
P           0.962738000000000    0.500000000000000    0.933590000000000 
K           0.467452000000000    0.223581000000000    0.799059000000000 
K           0.467452000000000    0.776419000000000    0.799059000000000 
%ENDBLOCK POSITIONS_FRAC
