# Cell file generated by matador (Matthew Evans 2016)

%BLOCK LATTICE_CART
8.48476 0.0 0.0
0.0 8.48476 0.0
0.0 0.0 8.48476
%ENDBLOCK LATTICE_CART

%BLOCK POSITIONS_FRAC
P           0.000000000000000    0.000000000000000    0.000000000000000 
P           0.500000000000000    0.500000000000000    0.500000000000000 
K           0.000000000000000    0.000000000000000    0.500000000000000 
K           0.000000000000000    0.500000000000000    0.000000000000000 
K           0.000000000000000    0.500000000000000    0.500000000000000 
K           0.151024000000000    0.151024000000000    0.151024000000000 
K           0.151024000000000    0.848976000000000    0.848976000000000 
K           0.348976000000000    0.348976000000000    0.348976000000000 
K           0.348976000000000    0.651024000000000    0.651024000000000 
K           0.500000000000000    0.000000000000000    0.000000000000000 
K           0.500000000000000    0.000000000000000    0.500000000000000 
K           0.500000000000000    0.500000000000000    0.000000000000000 
K           0.651024000000000    0.348976000000000    0.651024000000000 
K           0.651024000000000    0.651024000000000    0.348976000000000 
K           0.848976000000000    0.151024000000000    0.848976000000000 
K           0.848976000000000    0.848976000000000    0.151024000000000 
%ENDBLOCK POSITIONS_FRAC
