# Cell file generated by matador (Matthew Evans 2016)

%BLOCK LATTICE_CART
8.35359 0.0 0.0
-4.17679 7.23442 0.0
0.0 0.0 5.93297
%ENDBLOCK LATTICE_CART

%BLOCK POSITIONS_FRAC
P           0.000000000000000    0.500000000000000    0.388067000000000 
P           0.333333000000000    0.666667000000000    0.754430000000000 
P           0.333333000000000    0.666667000000000    0.976210000000000 
P           0.500000000000000    0.000000000000000    0.388067000000000 
P           0.500000000000000    0.500000000000000    0.388067000000000 
P           0.666667000000000    0.333333000000000    0.754430000000000 
P           0.666667000000000    0.333333000000000    0.976210000000000 
K           0.000000000000000    0.252662000000000    0.100680000000000 
K           0.000000000000000    0.747338000000000    0.100680000000000 
K           0.252662000000000    0.000000000000000    0.100680000000000 
K           0.252662000000000    0.252662000000000    0.100680000000000 
K           0.747338000000000    0.000000000000000    0.100680000000000 
K           0.747338000000000    0.747338000000000    0.100680000000000 
%ENDBLOCK POSITIONS_FRAC
