# Cell file generated by matador (Matthew Evans 2016)

%BLOCK LATTICE_CART
6.43699 0.0 0.0
-2.87741 6.08191 0.0
0.979225 3.35222 7.004
%ENDBLOCK LATTICE_CART

%BLOCK POSITIONS_FRAC
P           0.000000000000000    0.000000000000000    0.000000000000000 
P           0.000000000000000    0.000000000000000    0.500000000000000 
P           0.000000000000000    0.500000000000000    0.500000000000000 
P           0.127099000000000    0.835342000000000    0.756324000000000 
P           0.160551000000000    0.748196000000000    0.275907000000000 
P           0.435885000000000    0.135366000000000    0.188832000000000 
P           0.500000000000000    0.000000000000000    0.500000000000000 
P           0.500000000000000    0.500000000000000    0.000000000000000 
P           0.500000000000000    0.500000000000000    0.500000000000000 
P           0.564115000000000    0.864634000000000    0.811168000000000 
P           0.839449000000000    0.251804000000000    0.724093000000000 
P           0.872901000000000    0.164658000000000    0.243676000000000 
K           0.000000000000000    0.500000000000000    0.000000000000000 
K           0.500000000000000    0.000000000000000    0.000000000000000 
%ENDBLOCK POSITIONS_FRAC
