# Cell file generated by matador (Matthew Evans 2016)

%BLOCK LATTICE_CART
11.7645 0.0 0.0
-5.88223 10.1883 0.0
0.0 0.0 8.14199
%ENDBLOCK LATTICE_CART

%BLOCK POSITIONS_FRAC
P           0.000000000000000    0.000000000000000    0.000000000000000 
P           0.000000000000000    0.000000000000000    0.500000000000000 
P           0.333333000000000    0.666667000000000    0.166667000000000 
P           0.333333000000000    0.666667000000000    0.666667000000000 
P           0.666667000000000    0.333333000000000    0.333333000000000 
P           0.666667000000000    0.333333000000000    0.833333000000000 
K           0.000000000000000    0.458365000000000    0.000000000000000 
K           0.000000000000000    0.579710000000000    0.500000000000000 
K           0.086957000000000    0.753624000000000    0.833333000000000 
K           0.125032000000000    0.333333000000000    0.333333000000000 
K           0.208302000000000    0.874968000000000    0.333333000000000 
K           0.246376000000000    0.333333000000000    0.833333000000000 
K           0.333333000000000    0.125032000000000    0.666667000000000 
K           0.333333000000000    0.246376000000000    0.166667000000000 
K           0.420290000000000    0.420290000000000    0.500000000000000 
K           0.458365000000000    0.000000000000000    0.000000000000000 
K           0.541635000000000    0.541635000000000    0.000000000000000 
K           0.579710000000000    0.000000000000000    0.500000000000000 
K           0.666667000000000    0.791698000000000    0.333333000000000 
K           0.666667000000000    0.913043000000000    0.833333000000000 
K           0.753624000000000    0.086957000000000    0.166667000000000 
K           0.791698000000000    0.666667000000000    0.666667000000000 
K           0.874968000000000    0.208302000000000    0.666667000000000 
K           0.913043000000000    0.666667000000000    0.166667000000000 
%ENDBLOCK POSITIONS_FRAC
