# Cell file generated by matador (Matthew Evans 2016)

%BLOCK LATTICE_CART
9.28193 0.0 0.0
0.0 9.28193 0.0
0.0 0.0 14.0474
%ENDBLOCK LATTICE_CART

%BLOCK POSITIONS_FRAC
P           0.187399000000000    0.334906000000000    0.040614000000000 
P           0.187399000000000    0.665094000000000    0.040614000000000 
P           0.334906000000000    0.187399000000000    0.540614000000000 
P           0.334906000000000    0.812601000000000    0.540614000000000 
P           0.665094000000000    0.187399000000000    0.540614000000000 
P           0.665094000000000    0.812601000000000    0.540614000000000 
P           0.812601000000000    0.334906000000000    0.040614000000000 
P           0.812601000000000    0.665094000000000    0.040614000000000 
K           0.000000000000000    0.195648000000000    0.211630000000000 
K           0.000000000000000    0.234138000000000    0.540090000000000 
K           0.000000000000000    0.327887000000000    0.855530000000000 
K           0.000000000000000    0.500000000000000    0.417007000000000 
K           0.000000000000000    0.672113000000000    0.855530000000000 
K           0.000000000000000    0.765862000000000    0.540090000000000 
K           0.000000000000000    0.804352000000000    0.211630000000000 
K           0.195648000000000    0.000000000000000    0.711630000000000 
K           0.234138000000000    0.000000000000000    0.040090000000000 
K           0.277953000000000    0.500000000000000    0.242932000000000 
K           0.292733000000000    0.500000000000000    0.885654000000000 
K           0.327887000000000    0.000000000000000    0.355530000000000 
K           0.500000000000000    0.000000000000000    0.917007000000000 
K           0.500000000000000    0.277953000000000    0.742932000000000 
K           0.500000000000000    0.292733000000000    0.385654000000000 
K           0.500000000000000    0.500000000000000    0.075325000000000 
K           0.500000000000000    0.500000000000000    0.575325000000000 
K           0.500000000000000    0.707267000000000    0.385654000000000 
K           0.500000000000000    0.722047000000000    0.742932000000000 
K           0.672113000000000    0.000000000000000    0.355530000000000 
K           0.707267000000000    0.500000000000000    0.885654000000000 
K           0.722047000000000    0.500000000000000    0.242932000000000 
K           0.765862000000000    0.000000000000000    0.040090000000000 
K           0.804352000000000    0.000000000000000    0.711630000000000 
%ENDBLOCK POSITIONS_FRAC
