# Cell file generated by matador (Matthew Evans 2016)

%BLOCK LATTICE_CART
8.13571 0.0 0.0
-4.06785 7.04573 0.0
0.0 0.0 5.62594
%ENDBLOCK LATTICE_CART

%BLOCK POSITIONS_FRAC
P           0.139078000000000    0.447460000000000    0.436828000000000 
P           0.186755000000000    0.718512000000000    0.195197000000000 
P           0.217448000000000    0.738046000000000    0.827333000000000 
P           0.261954000000000    0.479402000000000    0.160667000000000 
P           0.281488000000000    0.468243000000000    0.528530000000000 
P           0.308382000000000    0.860922000000000    0.103495000000000 
P           0.520598000000000    0.782552000000000    0.494000000000000 
P           0.531757000000000    0.813245000000000    0.861864000000000 
P           0.552540000000000    0.691618000000000    0.770162000000000 
K           0.536938000000000    0.404164000000000    0.742665000000000 
K           0.595836000000000    0.132773000000000    0.075998000000000 
K           0.867227000000000    0.463062000000000    0.409332000000000 
%ENDBLOCK POSITIONS_FRAC
