# Cell file generated by matador (Matthew Evans 2016)

%BLOCK LATTICE_CART
11.7198 0.0 0.0
0.0 8.25149 0.0
1.54982 0.0 6.03809
%ENDBLOCK LATTICE_CART

%BLOCK POSITIONS_FRAC
P           0.000000000000000    0.457778000000000    0.750000000000000 
P           0.000000000000000    0.542222000000000    0.250000000000000 
K           0.026235000000000    0.256850000000000    0.056116000000000 
K           0.026235000000000    0.743150000000000    0.556116000000000 
K           0.251852000000000    0.289835000000000    0.060671000000000 
K           0.251852000000000    0.710165000000000    0.560671000000000 
K           0.500000000000000    0.000000000000000    0.000000000000000 
K           0.500000000000000    0.000000000000000    0.500000000000000 
K           0.500000000000000    0.500000000000000    0.000000000000000 
K           0.500000000000000    0.500000000000000    0.500000000000000 
K           0.748148000000000    0.289835000000000    0.439329000000000 
K           0.748148000000000    0.710165000000000    0.939329000000000 
K           0.973765000000000    0.256850000000000    0.443884000000000 
K           0.973765000000000    0.743150000000000    0.943884000000000 
%ENDBLOCK POSITIONS_FRAC
