# Cell file generated by matador (Matthew Evans 2016)

%BLOCK LATTICE_CART
7.13206 0.0 0.0
-3.56603 6.17655 0.0
0.0 0.0 7.62173
%ENDBLOCK LATTICE_CART

%BLOCK POSITIONS_FRAC
P           0.000000000000000    0.000000000000000    0.605295000000000 
P           0.000000000000000    0.000000000000000    0.874983000000000 
P           0.333333000000000    0.666667000000000    0.364382000000000 
P           0.333333000000000    0.666667000000000    0.998850000000000 
K           0.000000000000000    0.000000000000000    0.249985000000000 
K           0.403162000000000    0.385626000000000    0.649919000000000 
K           0.614374000000000    0.017536000000000    0.649919000000000 
K           0.666667000000000    0.333333000000000    0.099401000000000 
K           0.666667000000000    0.333333000000000    0.761155000000000 
K           0.982464000000000    0.596838000000000    0.649919000000000 
%ENDBLOCK POSITIONS_FRAC
