# Cell file generated by matador (Matthew Evans 2016)

%BLOCK LATTICE_CART
6.50532 0.0 0.0
-3.25266 5.63378 0.0
0.0 0.0 6.86702
%ENDBLOCK LATTICE_CART

%BLOCK POSITIONS_FRAC
P           0.148237000000000    0.074118000000000    0.449497000000000 
P           0.333333000000000    0.666667000000000    0.831158000000000 
P           0.574764000000000    0.149528000000000    0.322410000000000 
P           0.574764000000000    0.425236000000000    0.322410000000000 
P           0.850472000000000    0.425236000000000    0.322410000000000 
P           0.925882000000000    0.074118000000000    0.449497000000000 
P           0.925882000000000    0.851763000000000    0.449497000000000 
K           0.000000000000000    0.000000000000000    0.162596000000000 
K           0.666667000000000    0.333333000000000    0.736288000000000 
%ENDBLOCK POSITIONS_FRAC
