# Cell file generated by matador (Matthew Evans 2016)

%BLOCK LATTICE_CART
7.08396 0.0 0.0
0.0 6.07792 0.0
-0.854055 0.0 7.03931
%ENDBLOCK LATTICE_CART

%BLOCK POSITIONS_FRAC
P           0.000000000000000    0.500000000000000    0.000000000000000 
P           0.000000000000000    0.500000000000000    0.500000000000000 
P           0.246913000000000    0.500000000000000    0.661201000000000 
P           0.753087000000000    0.500000000000000    0.338799000000000 
K           0.000000000000000    0.000000000000000    0.500000000000000 
K           0.283200000000000    0.218715000000000    0.063149000000000 
K           0.283200000000000    0.781285000000000    0.063149000000000 
K           0.500000000000000    0.500000000000000    0.000000000000000 
K           0.500000000000000    0.500000000000000    0.500000000000000 
K           0.716800000000000    0.218715000000000    0.936851000000000 
K           0.716800000000000    0.781285000000000    0.936851000000000 
%ENDBLOCK POSITIONS_FRAC
