# Cell file generated by matador (Matthew Evans 2016)

%BLOCK LATTICE_CART
5.724 0.0 0.0
0.957773 7.48316 0.0
-0.829694 0.185596 5.12323
%ENDBLOCK LATTICE_CART

%BLOCK POSITIONS_FRAC
P           0.000000000000000    0.000000000000000    0.000000000000000 
P           0.000000000000000    0.000000000000000    0.500000000000000 
P           0.227304000000000    0.669432000000000    0.094999000000000 
P           0.489556000000000    0.250452000000000    0.175215000000000 
P           0.510444000000000    0.749548000000000    0.824785000000000 
P           0.772696000000000    0.330568000000000    0.905001000000000 
K           0.000000000000000    0.500000000000000    0.000000000000000 
K           0.000000000000000    0.500000000000000    0.500000000000000 
K           0.500000000000000    0.000000000000000    0.500000000000000 
K           0.500000000000000    0.500000000000000    0.000000000000000 
%ENDBLOCK POSITIONS_FRAC
