# Cell file generated by matador (Matthew Evans 2016)

%BLOCK LATTICE_CART
6.7129 0.0 0.0
-3.35645 5.81354 0.0
0.0 0.0 10.9108
%ENDBLOCK LATTICE_CART

%BLOCK POSITIONS_FRAC
P           0.000000000000000    0.000000000000000    0.250000000000000 
P           0.000000000000000    0.000000000000000    0.750000000000000 
P           0.059612000000000    0.272612000000000    0.586912000000000 
P           0.059612000000000    0.272612000000000    0.913088000000000 
P           0.213000000000000    0.940388000000000    0.586912000000000 
P           0.213000000000000    0.940388000000000    0.913088000000000 
P           0.272612000000000    0.213000000000000    0.086912000000000 
P           0.272612000000000    0.213000000000000    0.413088000000000 
P           0.727388000000000    0.787000000000000    0.586912000000000 
P           0.727388000000000    0.787000000000000    0.913088000000000 
P           0.787000000000000    0.059612000000000    0.086912000000000 
P           0.787000000000000    0.059612000000000    0.413088000000000 
P           0.940388000000000    0.727388000000000    0.086912000000000 
P           0.940388000000000    0.727388000000000    0.413088000000000 
K           0.000000000000000    0.500000000000000    0.000000000000000 
K           0.000000000000000    0.500000000000000    0.500000000000000 
K           0.500000000000000    0.000000000000000    0.000000000000000 
K           0.500000000000000    0.000000000000000    0.500000000000000 
K           0.500000000000000    0.500000000000000    0.000000000000000 
K           0.500000000000000    0.500000000000000    0.500000000000000 
%ENDBLOCK POSITIONS_FRAC
