# Cell file generated by matador (Matthew Evans 2016)

%BLOCK LATTICE_CART
6.82659 0.0 0.0
-3.4133 5.912 0.0
0.0 0.0 8.28638
%ENDBLOCK LATTICE_CART

%BLOCK POSITIONS_FRAC
P           0.153798000000000    0.404689000000000    0.681150000000000 
P           0.250890000000000    0.846202000000000    0.681150000000000 
P           0.555109000000000    0.258717000000000    0.520786000000000 
P           0.595311000000000    0.749110000000000    0.681150000000000 
P           0.703608000000000    0.444891000000000    0.520786000000000 
P           0.741283000000000    0.296392000000000    0.520786000000000 
K          -0.000000000000000    0.000000000000000    0.622080000000000 
K           0.076677000000000    0.517095000000000    0.402745000000000 
K           0.333333000000000    0.666667000000000    0.212037000000000 
K           0.333333000000000    0.666667000000000    0.958098000000000 
K           0.440418000000000    0.923323000000000    0.402745000000000 
K           0.482905000000000    0.559582000000000    0.402745000000000 
K           0.666666000000000    0.333334000000000    0.755603000000000 
%ENDBLOCK POSITIONS_FRAC
