# Cell file generated by matador (Matthew Evans 2016)

%BLOCK LATTICE_CART
6.74238 0.0 0.0
-3.37119 5.83907 0.0
0.0 0.0 4.4299
%ENDBLOCK LATTICE_CART

%BLOCK POSITIONS_FRAC
P          -0.000000000000000    0.000000000000000    0.000000000000000 
P          -0.000000000000000    0.000000000000000    0.241594000000000 
P          -0.000000000000000    0.000000000000000    0.500000000000000 
P          -0.000000000000000    0.000000000000000    0.758406000000000 
P          -0.000000000000000    0.536970000000000    0.500000000000000 
P           0.463030000000000    0.463030000000000    0.500000000000000 
P           0.536970000000000    0.000000000000000    0.500000000000000 
K           0.333333000000000    0.666667000000000    0.111656000000000 
K           0.666666000000000    0.333334000000000    0.888344000000000 
%ENDBLOCK POSITIONS_FRAC
