# Cell file generated by matador (Matthew Evans 2016)

%BLOCK LATTICE_CART
7.77828 0.0 0.0
-3.88914 6.73619 0.0
0.0 0.0 5.79456
%ENDBLOCK LATTICE_CART

%BLOCK POSITIONS_FRAC
P           0.333333000000000    0.666667000000000    0.547773000000000 
P           0.666666000000000    0.333334000000000    0.547773000000000 
K          -0.000000000000000    0.257527000000000    0.850127000000000 
K          -0.000000000000000    0.666420000000000    0.239005000000000 
K           0.257527000000000    0.000000000000000    0.850127000000000 
K           0.333580000000000    0.333580000000000    0.239005000000000 
K           0.666420000000000    0.000000000000000    0.239005000000000 
K           0.742473000000000    0.742473000000000    0.850127000000000 
%ENDBLOCK POSITIONS_FRAC
