# Cell file generated by matador (Matthew Evans 2016)

%BLOCK LATTICE_CART
5.89002 0.0 0.0
0.0 5.60729 0.0
-3.455 0.0 8.56127
%ENDBLOCK LATTICE_CART

%BLOCK POSITIONS_FRAC
P           0.000000000000000    0.843773000000000    0.000000000000000 
P           0.251840000000000    0.313610000000000    0.744537000000000 
P           0.297042000000000    0.342629000000000    0.173051000000000 
P           0.443597000000000    0.998704000000000    0.818008000000000 
P           0.556403000000000    0.998704000000000    0.181992000000000 
P           0.702958000000000    0.342629000000000    0.826949000000000 
P           0.748160000000000    0.313610000000000    0.255463000000000 
K           0.120702000000000    0.179266000000000    0.922702000000000 
K           0.500000000000000    0.678077000000000    0.500000000000000 
K           0.879298000000000    0.179266000000000    0.077298000000000 
%ENDBLOCK POSITIONS_FRAC
