# Cell file generated by matador (Matthew Evans 2016)

%BLOCK LATTICE_CART
8.25325 0.0 0.0
-4.12662 7.14752 0.0
0.0 0.0 5.8835
%ENDBLOCK LATTICE_CART

%BLOCK POSITIONS_FRAC
P           0.333333000000000    0.666667000000000    0.142664000000000 
P           0.333333000000000    0.666667000000000    0.500000000000000 
P           0.333333000000000    0.666667000000000    0.857336000000000 
P           0.666666000000000    0.333334000000000    0.142664000000000 
P           0.666666000000000    0.333334000000000    0.500000000000000 
P           0.666666000000000    0.333334000000000    0.857336000000000 
K          -0.000000000000000    0.715604000000000    0.500000000000000 
K          -0.000000000000000    0.757003000000000    0.000000000000000 
K           0.242997000000000    0.242997000000000    0.000000000000000 
K           0.284396000000000    0.284396000000000    0.500000000000000 
K           0.715604000000000    0.000000000000000    0.500000000000000 
K           0.757003000000000    0.000000000000000    0.000000000000000 
%ENDBLOCK POSITIONS_FRAC
