# Cell file generated by matador (Matthew Evans 2016)

%BLOCK LATTICE_CART
5.74922 0.0 0.0
-2.87461 4.97897 0.0
0.0 0.0 12.0931
%ENDBLOCK LATTICE_CART

%BLOCK POSITIONS_FRAC
P           0.156180000000000    0.561945000000000    0.067752000000000 
P           0.199129000000000    0.597781000000000    0.886776000000000 
P           0.199369000000000    0.478848000000000    0.339484000000000 
P           0.279479000000000    0.800631000000000    0.339484000000000 
P           0.398652000000000    0.800871000000000    0.886776000000000 
P           0.402219000000000    0.601348000000000    0.886776000000000 
P           0.405765000000000    0.843820000000000    0.067752000000000 
P           0.438055000000000    0.594235000000000    0.067752000000000 
P           0.521152000000000    0.720521000000000    0.339484000000000 
P           0.524406000000000    0.298415000000000    0.555173000000000 
P           0.701585000000000    0.225991000000000    0.555173000000000 
P           0.774009000000000    0.475594000000000    0.555173000000000 
K           0.000000000000000    0.000000000000000    0.774741000000000 
K           0.000000000000000    0.000000000000000    0.975992000000000 
K           0.333333000000000    0.666667000000000    0.665739000000000 
%ENDBLOCK POSITIONS_FRAC
