# Cell file generated by matador (Matthew Evans 2016)

%BLOCK LATTICE_CART
7.92326 0.0 0.0
-3.96163 6.86175 0.0
0.0 0.0 8.72857
%ENDBLOCK LATTICE_CART

%BLOCK POSITIONS_FRAC
P           0.045148000000000    0.090296000000000    0.333333000000000 
P           0.045148000000000    0.954852000000000    0.666667000000000 
P           0.909704000000000    0.954852000000000   -0.000000000000000 
K           0.081574000000000    0.163147000000000    0.833333000000000 
K           0.081574000000000    0.918426000000000    0.166667000000000 
K           0.092106000000000    0.546053000000000   -0.000000000000000 
K           0.275243000000000    0.137622000000000    0.500000000000000 
K           0.453947000000000    0.546053000000000    0.666667000000000 
K           0.453947000000000    0.907894000000000    0.333333000000000 
K           0.836853000000000    0.918426000000000    0.500000000000000 
K           0.862378000000000    0.137622000000000    0.166667000000000 
K           0.862378000000000    0.724757000000000    0.833333000000000 
%ENDBLOCK POSITIONS_FRAC
