# Cell file generated by matador (Matthew Evans 2016)

%BLOCK LATTICE_CART
7.81767 0.0 0.0
0.0 7.81767 0.0
0.0 0.0 9.1845
%ENDBLOCK LATTICE_CART

%BLOCK POSITIONS_FRAC
P           0.000000000000000    0.500000000000000    0.250000000000000 
P           0.000000000000000    0.500000000000000    0.750000000000000 
P           0.500000000000000    0.000000000000000    0.250000000000000 
P           0.500000000000000    0.000000000000000    0.750000000000000 
K           0.000000000000000    0.000000000000000    0.000000000000000 
K           0.000000000000000    0.000000000000000    0.500000000000000 
K           0.120315000000000    0.649760000000000    0.000000000000000 
K           0.149760000000000    0.620315000000000    0.500000000000000 
K           0.350240000000000    0.120315000000000    0.000000000000000 
K           0.379685000000000    0.149760000000000    0.500000000000000 
K           0.500000000000000    0.500000000000000    0.000000000000000 
K           0.500000000000000    0.500000000000000    0.500000000000000 
K           0.620315000000000    0.850240000000000    0.500000000000000 
K           0.649760000000000    0.879685000000000    0.000000000000000 
K           0.850240000000000    0.379685000000000    0.500000000000000 
K           0.879685000000000    0.350240000000000    0.000000000000000 
%ENDBLOCK POSITIONS_FRAC
