# Cell file generated by matador (Matthew Evans 2016)

%BLOCK LATTICE_CART
7.1751 0.0 0.0
0.0 7.1751 0.0
0.0 0.0 5.55835
%ENDBLOCK LATTICE_CART

%BLOCK POSITIONS_FRAC
P           0.000000000000000    0.000000000000000    0.359820000000000 
P           0.000000000000000    0.000000000000000    0.640180000000000 
P           0.000000000000000    0.500000000000000    0.750000000000000 
P           0.500000000000000    0.000000000000000    0.250000000000000 
P           0.500000000000000    0.500000000000000    0.140180000000000 
P           0.500000000000000    0.500000000000000    0.859820000000000 
K           0.000000000000000    0.000000000000000    0.000000000000000 
K           0.000000000000000    0.500000000000000    0.250000000000000 
K           0.500000000000000    0.000000000000000    0.750000000000000 
K           0.500000000000000    0.500000000000000    0.500000000000000 
%ENDBLOCK POSITIONS_FRAC
