# Cell file generated by matador (Matthew Evans 2016)

%BLOCK LATTICE_CART
6.96082 0.0 0.0
0.0 6.96082 0.0
0.0 0.0 5.32406
%ENDBLOCK LATTICE_CART

%BLOCK POSITIONS_FRAC
P           0.000000000000000    0.000000000000000    0.145147000000000 
P           0.000000000000000    0.500000000000000    0.171286000000000 
P           0.000000000000000    0.500000000000000    0.917347000000000 
P           0.500000000000000    0.000000000000000    0.171286000000000 
P           0.500000000000000    0.000000000000000    0.917347000000000 
P           0.500000000000000    0.500000000000000    0.171720000000000 
P           0.500000000000000    0.500000000000000    0.553368000000000 
K           0.164350000000000    0.379789000000000    0.519070000000000 
K           0.379789000000000    0.835650000000000    0.519070000000000 
K           0.620211000000000    0.164350000000000    0.519070000000000 
K           0.835650000000000    0.620211000000000    0.519070000000000 
%ENDBLOCK POSITIONS_FRAC
