# Cell file generated by matador (Matthew Evans 2016)

%BLOCK LATTICE_CART
10.5219 0.0 0.0
0.0 5.278 0.0
0.0 0.0 5.89597
%ENDBLOCK LATTICE_CART

%BLOCK POSITIONS_FRAC
P           0.000000000000000    0.144437000000000    0.227183000000000 
P           0.000000000000000    0.369558000000000    0.947202000000000 
P           0.000000000000000    0.742703000000000    0.183447000000000 
P           0.120262000000000    0.701608000000000    0.467481000000000 
P           0.379738000000000    0.298392000000000    0.967481000000000 
P           0.500000000000000    0.257297000000000    0.683447000000000 
P           0.500000000000000    0.630442000000000    0.447202000000000 
P           0.500000000000000    0.855563000000000    0.727183000000000 
P           0.620262000000000    0.298392000000000    0.967481000000000 
P           0.879738000000000    0.701608000000000    0.467481000000000 
K           0.000000000000000    0.847717000000000    0.835009000000000 
K           0.500000000000000    0.152283000000000    0.335009000000000 
%ENDBLOCK POSITIONS_FRAC
