# Cell file generated by matador (Matthew Evans 2016)

%BLOCK LATTICE_CART
6.70148 0.0 0.0
0.0 10.1966 0.0
0.0 0.0 8.83162
%ENDBLOCK LATTICE_CART

%BLOCK POSITIONS_FRAC
P           0.179757000000000    0.750000000000000    0.421591000000000 
P           0.320243000000000    0.250000000000000    0.921591000000000 
P           0.679757000000000    0.750000000000000    0.078409000000000 
P           0.820243000000000    0.250000000000000    0.578409000000000 
K           0.000000000000000    0.000000000000000    0.000000000000000 
K           0.000000000000000    0.000000000000000    0.500000000000000 
K           0.000000000000000    0.500000000000000    0.000000000000000 
K           0.000000000000000    0.500000000000000    0.500000000000000 
K           0.221931000000000    0.750000000000000    0.658327000000000 
K           0.278069000000000    0.250000000000000    0.158327000000000 
K           0.500000000000000    0.000000000000000    0.000000000000000 
K           0.500000000000000    0.000000000000000    0.500000000000000 
K           0.500000000000000    0.500000000000000    0.000000000000000 
K           0.500000000000000    0.500000000000000    0.500000000000000 
K           0.721931000000000    0.750000000000000    0.841673000000000 
K           0.778069000000000    0.250000000000000    0.341673000000000 
%ENDBLOCK POSITIONS_FRAC
