# Cell file generated by matador (Matthew Evans 2016)

%BLOCK LATTICE_CART
9.17789 0.0 0.0
0.0 9.77992 0.0
0.0 0.0 7.06894
%ENDBLOCK LATTICE_CART

%BLOCK POSITIONS_FRAC
P           0.250000000000000    0.035193000000000    0.732854000000000 
P           0.250000000000000    0.535193000000000    0.232854000000000 
P           0.750000000000000    0.464807000000000    0.232854000000000 
P           0.750000000000000    0.964807000000000    0.732854000000000 
K           0.000000000000000    0.000000000000000    0.764064000000000 
K           0.000000000000000    0.500000000000000    0.264064000000000 
K           0.250000000000000    0.311574000000000    0.165461000000000 
K           0.250000000000000    0.375114000000000    0.591976000000000 
K           0.250000000000000    0.811574000000000    0.665461000000000 
K           0.250000000000000    0.875114000000000    0.091976000000000 
K           0.500000000000000    0.000000000000000    0.764064000000000 
K           0.500000000000000    0.500000000000000    0.264064000000000 
K           0.750000000000000    0.124886000000000    0.091976000000000 
K           0.750000000000000    0.188426000000000    0.665461000000000 
K           0.750000000000000    0.624886000000000    0.591976000000000 
K           0.750000000000000    0.688426000000000    0.165461000000000 
%ENDBLOCK POSITIONS_FRAC
