# Cell file generated by matador (Matthew Evans 2016)

%BLOCK LATTICE_CART
6.34124 0.0 0.0
-3.17062 5.49167 0.0
0.0 0.0 8.50998
%ENDBLOCK LATTICE_CART

%BLOCK POSITIONS_FRAC
P           0.047756000000000    0.516433000000000    0.577683000000000 
P           0.089094000000000    0.212536000000000    0.803149000000000 
P           0.123441000000000    0.910906000000000    0.803149000000000 
P           0.333333000000000    0.666667000000000    0.500829000000000 
P           0.468677000000000    0.952244000000000    0.577683000000000 
P           0.483567000000000    0.531323000000000    0.577683000000000 
P           0.787464000000000    0.876559000000000    0.803149000000000 
K           0.333333000000000    0.666667000000000    0.974800000000000 
K           0.334197000000000    0.112203000000000    0.252992000000000 
K           0.778006000000000    0.665803000000000    0.252992000000000 
K           0.887797000000000    0.221994000000000    0.252992000000000 
%ENDBLOCK POSITIONS_FRAC
