# Cell file generated by matador (Matthew Evans 2016)

%BLOCK LATTICE_CART
6.25773 0.0 0.0
0.0 9.57106 0.0
1.06627 0.0 5.94022
%ENDBLOCK LATTICE_CART

%BLOCK POSITIONS_FRAC
P           0.000000000000000    0.181725000000000    0.000000000000000 
K           0.000000000000000    0.896250000000000    0.000000000000000 
K           0.184909000000000    0.449753000000000    0.358321000000000 
K           0.260381000000000    0.022031000000000    0.937741000000000 
K           0.500000000000000    0.387061000000000    0.500000000000000 
K           0.500000000000000    0.758579000000000    0.500000000000000 
K           0.739619000000000    0.022031000000000    0.062259000000000 
K           0.815091000000000    0.449753000000000    0.641679000000000 
%ENDBLOCK POSITIONS_FRAC
