# Cell file generated by matador (Matthew Evans 2016)

%BLOCK LATTICE_CART
6.989 0.0 0.0
0.0 6.989 0.0
0.0 0.0 13.6591
%ENDBLOCK LATTICE_CART

%BLOCK POSITIONS_FRAC
P           0.000000000000000    0.000000000000000    0.000000000000000 
P           0.000000000000000    0.288146000000000    0.500000000000000 
P           0.000000000000000    0.500000000000000    0.250000000000000 
P           0.000000000000000    0.500000000000000    0.750000000000000 
P           0.000000000000000    0.711854000000000    0.500000000000000 
P           0.211854000000000    0.500000000000000    0.000000000000000 
P           0.288146000000000    0.000000000000000    0.500000000000000 
P           0.500000000000000    0.000000000000000    0.250000000000000 
P           0.500000000000000    0.000000000000000    0.750000000000000 
P           0.500000000000000    0.211854000000000    0.000000000000000 
P           0.500000000000000    0.500000000000000    0.500000000000000 
P           0.500000000000000    0.788146000000000    0.000000000000000 
P           0.711854000000000    0.000000000000000    0.500000000000000 
P           0.788146000000000    0.500000000000000    0.000000000000000 
K           0.000000000000000    0.000000000000000    0.190333000000000 
K           0.000000000000000    0.000000000000000    0.809667000000000 
K           0.500000000000000    0.500000000000000    0.309667000000000 
K           0.500000000000000    0.500000000000000    0.690333000000000 
%ENDBLOCK POSITIONS_FRAC
