# Cell file generated by matador (Matthew Evans 2016)

%BLOCK LATTICE_CART
10.4347 0.0 0.0
0.0 5.7736 0.0
2.35486 0.0 9.5531
%ENDBLOCK LATTICE_CART

%BLOCK POSITIONS_FRAC
P           0.500000000000000    0.000000000000000    0.500000000000000 
P           0.500000000000000    0.500000000000000    0.000000000000000 
K           0.000000000000000    0.000000000000000    0.000000000000000 
K           0.000000000000000    0.000000000000000    0.500000000000000 
K           0.000000000000000    0.500000000000000    0.000000000000000 
K           0.000000000000000    0.500000000000000    0.500000000000000 
K           0.098995000000000    0.084196000000000    0.696885000000000 
K           0.098995000000000    0.415804000000000    0.196885000000000 
K           0.472154000000000    0.707731000000000    0.267918000000000 
K           0.472154000000000    0.792269000000000    0.767918000000000 
K           0.527846000000000    0.207731000000000    0.232082000000000 
K           0.527846000000000    0.292269000000000    0.732082000000000 
K           0.901005000000000    0.584196000000000    0.803115000000000 
K           0.901005000000000    0.915804000000000    0.303115000000000 
%ENDBLOCK POSITIONS_FRAC
