# Cell file generated by matador (Matthew Evans 2016)

%BLOCK LATTICE_CART
7.56448 -0.0 0.0
-3.78224 6.55103 0.0
0.0 0.0 9.52968
%ENDBLOCK LATTICE_CART

%BLOCK POSITIONS_FRAC
P          -0.000000000000000    0.000000000000000    0.000000000000000 
P          -0.000000000000000    0.000000000000000    0.500000000000000 
P           0.028778000000000    0.749027000000000    0.500000000000000 
P           0.126665000000000    0.551355000000000    0.000000000000000 
P           0.250973000000000    0.279751000000000    0.500000000000000 
P           0.333333000000000    0.666667000000000    0.000000000000000 
P           0.333333000000000    0.666667000000000    0.500000000000000 
P           0.424690000000000    0.873335000000000    0.000000000000000 
P           0.448645000000000    0.575310000000000    0.000000000000000 
P           0.666666000000000    0.333334000000000    0.000000000000000 
P           0.666666000000000    0.333334000000000    0.500000000000000 
P           0.720249000000000    0.971222000000000    0.500000000000000 
K           0.333333000000000    0.666667000000000    0.245848000000000 
K           0.333333000000000    0.666667000000000    0.754152000000000 
%ENDBLOCK POSITIONS_FRAC
