# Cell file generated by matador (Matthew Evans 2016)

%BLOCK LATTICE_CART
10.912 0.0 0.0
-5.45602 9.45011 0.0
0.0 0.0 5.99933
%ENDBLOCK LATTICE_CART

%BLOCK POSITIONS_FRAC
P           0.333334000000000    0.666668000000000    0.250000000000000 
P           0.333334000000000    0.666668000000000    0.750000000000000 
P           0.666668000000000    0.333334000000000    0.250000000000000 
P           0.666668000000000    0.333334000000000    0.750000000000000 
K           0.000001000000000    0.500001000000000    0.000000000000000 
K           0.000001000000000    0.500001000000000    0.500000000000000 
K           0.154567000000000    0.309134000000000    0.250000000000000 
K           0.154567000000000    0.845435000000000    0.250000000000000 
K           0.309134000000000    0.154567000000000    0.750000000000000 
K           0.500001000000000    0.000001000000000    0.000000000000000 
K           0.500001000000000    0.000001000000000    0.500000000000000 
K           0.500001000000000    0.500001000000000    0.000000000000000 
K           0.500001000000000    0.500001000000000    0.500000000000000 
K           0.690868000000000    0.845435000000000    0.250000000000000 
K           0.845435000000000    0.154567000000000    0.750000000000000 
K           0.845435000000000    0.690868000000000    0.750000000000000 
%ENDBLOCK POSITIONS_FRAC
