# Cell file generated by matador (Matthew Evans 2016)

%BLOCK LATTICE_CART
7.87704 0.0 0.0
-3.93852 6.82171 0.0
0.0 0.0 7.69335
%ENDBLOCK LATTICE_CART

%BLOCK POSITIONS_FRAC
P           0.000000000000000   -0.000000000000000    0.500000000000000 
P           0.333333000000000    0.666667000000000    0.166667000000000 
P           0.666667000000000    0.333333000000000    0.833333000000000 
K           0.000000000000000    0.300698000000000   -0.000000000000000 
K           0.032635000000000    0.365968000000000    0.666667000000000 
K           0.300698000000000   -0.000000000000000   -0.000000000000000 
K           0.333333000000000    0.967365000000000    0.666667000000000 
K           0.365968000000000    0.032635000000000    0.333333000000000 
K           0.634032000000000    0.666667000000000    0.666667000000000 
K           0.666667000000000    0.634032000000000    0.333333000000000 
K           0.699302000000000    0.699302000000000   -0.000000000000000 
K           0.967365000000000    0.333333000000000    0.333333000000000 
%ENDBLOCK POSITIONS_FRAC
