# Cell file generated by matador (Matthew Evans 2016)

%BLOCK LATTICE_CART
7.78778 0.0 0.0
-3.89389 6.74442 0.0
0.0 0.0 10.8198
%ENDBLOCK LATTICE_CART

%BLOCK POSITIONS_FRAC
P          -0.000000000000000    0.000000000000000    0.111839000000000 
P          -0.000000000000000    0.000000000000000    0.388161000000000 
P          -0.000000000000000    0.000000000000000    0.611839000000000 
P          -0.000000000000000    0.000000000000000    0.888161000000000 
P           0.045588000000000    0.522794000000000    0.750000000000000 
P           0.333333000000000    0.666667000000000    0.630678000000000 
P           0.333333000000000    0.666667000000000    0.869322000000000 
P           0.477206000000000    0.522794000000000    0.750000000000000 
P           0.477206000000000    0.954412000000000    0.750000000000000 
P           0.522794000000000    0.045588000000000    0.250000000000000 
P           0.522794000000000    0.477206000000000    0.250000000000000 
P           0.666667000000000    0.333333000000000    0.130678000000000 
P           0.666667000000000    0.333333000000000    0.369322000000000 
P           0.954412000000000    0.477206000000000    0.250000000000000 
K          -0.000000000000000    0.500000000000000    0.000000000000000 
K          -0.000000000000000    0.500000000000000    0.500000000000000 
K           0.500000000000000    0.000000000000000    0.000000000000000 
K           0.500000000000000    0.000000000000000    0.500000000000000 
K           0.500000000000000    0.500000000000000    0.000000000000000 
K           0.500000000000000    0.500000000000000    0.500000000000000 
%ENDBLOCK POSITIONS_FRAC
