# Cell file generated by matador (Matthew Evans 2016)

%BLOCK LATTICE_CART
8.15486 0.0 0.0
-4.07743 7.06232 0.0
0.0 0.0 8.80672
%ENDBLOCK LATTICE_CART

%BLOCK POSITIONS_FRAC
P           0.000001000000000    0.500001000000000    0.000000000000000 
P           0.000001000000000    0.500001000000000    0.500000000000000 
P           0.094309000000000    0.547155000000000    0.250000000000000 
P           0.452847000000000    0.547155000000000    0.250000000000000 
P           0.452847000000000    0.905693000000000    0.250000000000000 
P           0.500001000000000    0.000001000000000    0.000000000000000 
P           0.500001000000000    0.000001000000000    0.500000000000000 
P           0.500001000000000    0.500001000000000    0.000000000000000 
P           0.500001000000000    0.500001000000000    0.500000000000000 
P           0.547155000000000    0.094309000000000    0.750000000000000 
P           0.547155000000000    0.452847000000000    0.750000000000000 
P           0.905693000000000    0.452847000000000    0.750000000000000 
K           0.333334000000000    0.666668000000000    0.750000000000000 
K           0.666668000000000    0.333334000000000    0.250000000000000 
%ENDBLOCK POSITIONS_FRAC
