# Cell file generated by matador (Matthew Evans 2016)

%BLOCK LATTICE_CART
7.84265 0.0 0.0
0.0 10.0435 0.0
0.0 0.0 7.27572
%ENDBLOCK LATTICE_CART

%BLOCK POSITIONS_FRAC
P           0.000000000000000    0.500000000000000    0.000000000000000 
P           0.000000000000000    0.500000000000000    0.500000000000000 
P           0.500000000000000    0.000000000000000    0.000000000000000 
P           0.500000000000000    0.000000000000000    0.500000000000000 
K           0.000000000000000    0.000000000000000    0.000000000000000 
K           0.000000000000000    0.000000000000000    0.500000000000000 
K           0.196878000000000    0.500000000000000    0.263275000000000 
K           0.196878000000000    0.500000000000000    0.736725000000000 
K           0.303122000000000    0.000000000000000    0.263275000000000 
K           0.303122000000000    0.000000000000000    0.736725000000000 
K           0.500000000000000    0.500000000000000    0.000000000000000 
K           0.500000000000000    0.500000000000000    0.500000000000000 
K           0.696878000000000    0.000000000000000    0.263275000000000 
K           0.696878000000000    0.000000000000000    0.736725000000000 
K           0.803122000000000    0.500000000000000    0.263275000000000 
K           0.803122000000000    0.500000000000000    0.736725000000000 
%ENDBLOCK POSITIONS_FRAC
