# Cell file generated by matador (Matthew Evans 2016)

%BLOCK LATTICE_CART
7.07083 0.0 0.0
0.0 9.40324 0.0
3.74876 0.0 8.49173
%ENDBLOCK LATTICE_CART

%BLOCK POSITIONS_FRAC
P           0.000000000000000    0.107433000000000    0.500000000000000 
P           0.000000000000000    0.194754000000000    0.000000000000000 
P           0.000000000000000    0.359207000000000    0.500000000000000 
P           0.000000000000000    0.681042000000000    0.500000000000000 
P           0.163013000000000    0.301997000000000    0.590819000000000 
P           0.336987000000000    0.801997000000000    0.409181000000000 
P           0.500000000000000    0.181042000000000    0.500000000000000 
P           0.500000000000000    0.607433000000000    0.500000000000000 
P           0.500000000000000    0.694754000000000    0.000000000000000 
P           0.500000000000000    0.859207000000000    0.500000000000000 
P           0.663013000000000    0.801997000000000    0.590819000000000 
P           0.836987000000000    0.301997000000000    0.409181000000000 
K           0.119496000000000    0.024646000000000    0.748577000000000 
K           0.133110000000000    0.722128000000000    0.841903000000000 
K           0.366890000000000    0.222128000000000    0.158097000000000 
K           0.380504000000000    0.524646000000000    0.251423000000000 
K           0.619496000000000    0.524646000000000    0.748577000000000 
K           0.633110000000000    0.222128000000000    0.841903000000000 
K           0.866890000000000    0.722128000000000    0.158097000000000 
K           0.880504000000000    0.024646000000000    0.251423000000000 
%ENDBLOCK POSITIONS_FRAC
