# Cell file generated by matador (Matthew Evans 2016)

%BLOCK LATTICE_CART
8.61707 0.0 0.0
0.0 8.61707 0.0
0.0 0.0 8.61707
%ENDBLOCK LATTICE_CART

%BLOCK POSITIONS_FRAC
P           0.000000000000000    0.000000000000000    0.000000000000000 
P           0.000000000000000    0.424569000000000    0.500000000000000 
P           0.000000000000000    0.500000000000000    0.075431000000000 
P           0.000000000000000    0.500000000000000    0.924569000000000 
P           0.000000000000000    0.575431000000000    0.500000000000000 
P           0.075431000000000    0.000000000000000    0.500000000000000 
P           0.424569000000000    0.500000000000000    0.000000000000000 
P           0.500000000000000    0.000000000000000    0.424569000000000 
P           0.500000000000000    0.000000000000000    0.575431000000000 
P           0.500000000000000    0.075431000000000    0.000000000000000 
P           0.500000000000000    0.500000000000000    0.500000000000000 
P           0.500000000000000    0.924569000000000    0.000000000000000 
P           0.575431000000000    0.500000000000000    0.000000000000000 
P           0.924569000000000    0.000000000000000    0.500000000000000 
K           0.250000000000000    0.250000000000000    0.250000000000000 
K           0.250000000000000    0.750000000000000    0.750000000000000 
K           0.750000000000000    0.250000000000000    0.750000000000000 
K           0.750000000000000    0.750000000000000    0.250000000000000 
%ENDBLOCK POSITIONS_FRAC
