# Cell file generated by matador (Matthew Evans 2016)

%BLOCK LATTICE_CART
6.75988 0.0 0.0
-3.37994 5.85423 0.0
0.0 0.0 8.80215
%ENDBLOCK LATTICE_CART

%BLOCK POSITIONS_FRAC
P           0.000000000000000    0.000000000000000    0.252919000000000 
P           0.000000000000000    0.000000000000000    0.500000000000000 
P           0.000000000000000    0.000000000000000    0.747081000000000 
P           0.333333000000000    0.666667000000000    0.143979000000000 
P           0.333333000000000    0.666667000000000    0.856021000000000 
P           0.666667000000000    0.333333000000000    0.143979000000000 
P           0.666667000000000    0.333333000000000    0.856021000000000 
K           0.000000000000000    0.000000000000000    0.000000000000000 
K           0.000000000000000    0.500000000000000    0.500000000000000 
K           0.500000000000000    0.000000000000000    0.500000000000000 
K           0.500000000000000    0.500000000000000    0.500000000000000 
%ENDBLOCK POSITIONS_FRAC
