# Cell file generated by matador (Matthew Evans 2016)

%BLOCK LATTICE_CART
7.65969 0.0 0.0
-3.82984 6.63348 0.0
0.0 0.0 9.5175
%ENDBLOCK LATTICE_CART

%BLOCK POSITIONS_FRAC
P          -0.000000000000000   -0.000000000000000    0.057158000000000 
P          -0.000000000000000   -0.000000000000000    0.557158000000000 
P           0.086533000000000    0.420508000000000    0.825169000000000 
P           0.333333000000000    0.666667000000000    0.133538000000000 
P           0.333975000000000    0.913467000000000    0.825169000000000 
P           0.420508000000000    0.333975000000000    0.325169000000000 
P           0.579492000000000    0.666025000000000    0.825169000000000 
P           0.666025000000000    0.086533000000000    0.325169000000000 
P           0.666667000000000    0.333333000000000    0.633538000000000 
P           0.913467000000000    0.579492000000000    0.325169000000000 
K           0.018804000000000    0.772155000000000    0.799260000000000 
K           0.227845000000000    0.246649000000000    0.799260000000000 
K           0.246649000000000    0.018804000000000    0.299260000000000 
K           0.333333000000000    0.666667000000000    0.898502000000000 
K           0.666667000000000    0.333333000000000    0.398502000000000 
K           0.753351000000000    0.981196000000000    0.799260000000000 
K           0.772155000000000    0.753351000000000    0.299260000000000 
K           0.981196000000000    0.227845000000000    0.299260000000000 
%ENDBLOCK POSITIONS_FRAC
