# Cell file generated by matador (Matthew Evans 2016)

%BLOCK LATTICE_CART
11.4133 0.0 0.0
-5.70663 9.88417 0.0
0.0 0.0 7.97561
%ENDBLOCK LATTICE_CART

%BLOCK POSITIONS_FRAC
P           0.000000000000000    0.000000000000000    0.146453000000000 
P           0.000000000000000    0.000000000000000    0.646453000000000 
P           0.333333000000000    0.666667000000000    0.416541000000000 
P           0.333333000000000    0.666667000000000    0.916541000000000 
P           0.666667000000000    0.333333000000000    0.416541000000000 
P           0.666667000000000    0.333333000000000    0.916541000000000 
K           0.000000000000000    0.182380000000000    0.068435000000000 
K           0.000000000000000    0.274764000000000    0.719767000000000 
K           0.000000000000000    0.490678000000000    0.514304000000000 
K           0.000000000000000    0.509322000000000    0.014304000000000 
K           0.000000000000000    0.725236000000000    0.219767000000000 
K           0.000000000000000    0.817620000000000    0.568434000000000 
K           0.182380000000000    0.000000000000000    0.068435000000000 
K           0.182380000000000    0.182380000000000    0.568434000000000 
K           0.274764000000000    0.000000000000000    0.719767000000000 
K           0.274764000000000    0.274764000000000    0.219767000000000 
K           0.490678000000000    0.000000000000000    0.514304000000000 
K           0.490678000000000    0.490678000000000    0.014304000000000 
K           0.509322000000000    0.000000000000000    0.014304000000000 
K           0.509322000000000    0.509322000000000    0.514304000000000 
K           0.725236000000000    0.000000000000000    0.219767000000000 
K           0.725236000000000    0.725236000000000    0.719767000000000 
K           0.817620000000000    0.000000000000000    0.568434000000000 
K           0.817620000000000    0.817620000000000    0.068435000000000 
%ENDBLOCK POSITIONS_FRAC
