# Cell file generated by matador (Matthew Evans 2016)

%BLOCK LATTICE_CART
7.66394 0.0 0.0
0.0 12.2598 0.0
0.0 0.0 6.26266
%ENDBLOCK LATTICE_CART

%BLOCK POSITIONS_FRAC
P           0.000000000000000    0.000000000000000    0.000000000000000 
P           0.000000000000000    0.000000000000000    0.500000000000000 
P           0.500000000000000    0.500000000000000    0.000000000000000 
P           0.500000000000000    0.500000000000000    0.500000000000000 
K           0.223592000000000    0.125578000000000    0.500000000000000 
K           0.223592000000000    0.874422000000000    0.500000000000000 
K           0.250000000000000    0.250000000000000    0.000000000000000 
K           0.250000000000000    0.750000000000000    0.000000000000000 
K           0.276408000000000    0.374422000000000    0.500000000000000 
K           0.276408000000000    0.625578000000000    0.500000000000000 
K           0.723592000000000    0.374422000000000    0.500000000000000 
K           0.723592000000000    0.625578000000000    0.500000000000000 
K           0.750000000000000    0.250000000000000    0.000000000000000 
K           0.750000000000000    0.750000000000000    0.000000000000000 
K           0.776408000000000    0.125578000000000    0.500000000000000 
K           0.776408000000000    0.874422000000000    0.500000000000000 
%ENDBLOCK POSITIONS_FRAC
