# Cell file generated by matador (Matthew Evans 2016)

%BLOCK LATTICE_CART
9.06392 0.0 0.0
0.0 9.06392 0.0
0.0 0.0 7.04577
%ENDBLOCK LATTICE_CART

%BLOCK POSITIONS_FRAC
P           0.031878000000000    0.919295000000000    0.069676000000000 
P           0.080705000000000    0.531878000000000    0.569676000000000 
P           0.250000000000000    0.250000000000000    0.750000000000000 
P           0.419295000000000    0.968122000000000    0.569676000000000 
P           0.468122000000000    0.580705000000000    0.069676000000000 
P           0.531878000000000    0.419295000000000    0.930324000000000 
P           0.580705000000000    0.031878000000000    0.430324000000000 
P           0.750000000000000    0.750000000000000    0.250000000000000 
P           0.919295000000000    0.468122000000000    0.430324000000000 
P           0.968122000000000    0.080705000000000    0.930324000000000 
K          -0.000000000000000   -0.000000000000000    0.500000000000000 
K          -0.000000000000000    0.500000000000000   -0.000000000000000 
K           0.250000000000000    0.250000000000000    0.250000000000000 
K           0.500000000000000   -0.000000000000000   -0.000000000000000 
K           0.500000000000000    0.500000000000000    0.500000000000000 
K           0.750000000000000    0.750000000000000    0.750000000000000 
%ENDBLOCK POSITIONS_FRAC
