# Cell file generated by matador (Matthew Evans 2016)

%BLOCK LATTICE_CART
7.31553 0.0 0.0
0.0 7.31553 0.0
0.0 0.0 7.36789
%ENDBLOCK LATTICE_CART

%BLOCK POSITIONS_FRAC
P           0.000000000000000    0.000000000000000    0.000000000000000 
P           0.000000000000000    0.000000000000000    0.500000000000000 
P           0.500000000000000    0.500000000000000    0.000000000000000 
P           0.500000000000000    0.500000000000000    0.500000000000000 
K           0.000000000000000    0.500000000000000    0.612813000000000 
K           0.172843000000000    0.500000000000000    0.194992000000000 
K           0.257519000000000    0.500000000000000    0.735626000000000 
K           0.500000000000000    0.000000000000000    0.387187000000000 
K           0.500000000000000    0.172843000000000    0.805008000000000 
K           0.500000000000000    0.257519000000000    0.264374000000000 
K           0.500000000000000    0.742481000000000    0.264374000000000 
K           0.500000000000000    0.827157000000000    0.805008000000000 
K           0.742481000000000    0.500000000000000    0.735626000000000 
K           0.827157000000000    0.500000000000000    0.194992000000000 
%ENDBLOCK POSITIONS_FRAC
