# Cell file generated by matador (Matthew Evans 2016)

%BLOCK LATTICE_CART
8.65176 0.0 0.0
-4.32588 7.49264 0.0
0.0 0.0 7.82058
%ENDBLOCK LATTICE_CART

%BLOCK POSITIONS_FRAC
P           0.000000000000000    0.000000000000000    0.188519000000000 
P           0.333333000000000    0.666667000000000    0.855185000000000 
P           0.666667000000000    0.333333000000000    0.521852000000000 
K           0.197943000000000    0.395887000000000    0.075580000000000 
K           0.197943000000000    0.802057000000000    0.075580000000000 
K           0.270780000000000    0.135390000000000    0.408914000000000 
K           0.531277000000000    0.062553000000000    0.742247000000000 
K           0.531277000000000    0.468723000000000    0.742247000000000 
K           0.604113000000000    0.802057000000000    0.075580000000000 
K           0.864610000000000    0.135390000000000    0.408914000000000 
K           0.864610000000000    0.729220000000000    0.408914000000000 
K           0.937447000000000    0.468723000000000    0.742247000000000 
%ENDBLOCK POSITIONS_FRAC
