# Cell file generated by matador (Matthew Evans 2016)

%BLOCK LATTICE_CART
6.67872 0.0 0.0
-3.33936 5.78394 0.0
0.0 0.0 12.4245
%ENDBLOCK LATTICE_CART

%BLOCK POSITIONS_FRAC
P           0.000000000000000    0.000000000000000    0.821526000000000 
P           0.333333000000000    0.666667000000000    0.488193000000000 
P           0.666667000000000    0.333333000000000    0.154859000000000 
K           0.014065000000000    0.507033000000000    0.868244000000000 
K           0.159634000000000    0.319268000000000    0.201577000000000 
K           0.159634000000000    0.840366000000000    0.201577000000000 
K           0.347399000000000    0.173699000000000    0.534910000000000 
K           0.492967000000000    0.507033000000000    0.868244000000000 
K           0.492967000000000    0.985935000000000    0.868244000000000 
K           0.680732000000000    0.840366000000000    0.201577000000000 
K           0.826301000000000    0.173699000000000    0.534910000000000 
K           0.826301000000000    0.652601000000000    0.534910000000000 
%ENDBLOCK POSITIONS_FRAC
