# Cell file generated by matador (Matthew Evans 2016)

%BLOCK LATTICE_CART
8.29724 0.0 0.0
-4.14862 7.18562 0.0
0.0 0.0 8.53901
%ENDBLOCK LATTICE_CART

%BLOCK POSITIONS_FRAC
P           0.000000000000000    0.000000000000000    0.482230000000000 
P           0.000000000000000    0.000000000000000    0.982230000000000 
P           0.333333000000000    0.666667000000000    0.002093000000000 
P           0.333333000000000    0.666667000000000    0.690077000000000 
P           0.666667000000000    0.333333000000000    0.190077000000000 
P           0.666667000000000    0.333333000000000    0.502093000000000 
K           0.041218000000000    0.520609000000000    0.728629000000000 
K           0.333333000000000    0.666667000000000    0.445571000000000 
K           0.479391000000000    0.520609000000000    0.728629000000000 
K           0.479391000000000    0.958782000000000    0.728629000000000 
K           0.520609000000000    0.041218000000000    0.228629000000000 
K           0.520609000000000    0.479391000000000    0.228629000000000 
K           0.666667000000000    0.333333000000000    0.945571000000000 
K           0.958782000000000    0.479391000000000    0.228629000000000 
%ENDBLOCK POSITIONS_FRAC
