# Cell file generated by matador (Matthew Evans 2016)

%BLOCK LATTICE_CART
7.89411 0.0 0.0
0.0 8.24834 0.0
-1.19047 0.0 9.96717
%ENDBLOCK LATTICE_CART

%BLOCK POSITIONS_FRAC
P           0.153217000000000    0.233069000000000    0.817684000000000 
P           0.153217000000000    0.766931000000000    0.817684000000000 
P           0.269364000000000    0.000000000000000    0.624645000000000 
P           0.544855000000000    0.000000000000000    0.983452000000000 
K           0.178098000000000    0.500000000000000    0.903377000000000 
K           0.253850000000000    0.000000000000000    0.952792000000000 
K           0.292262000000000    0.500000000000000    0.517530000000000 
K           0.387806000000000    0.000000000000000    0.437068000000000 
K           0.441091000000000    0.290161000000000    0.788160000000000 
K           0.441091000000000    0.709839000000000    0.788160000000000 
K           0.531871000000000    0.500000000000000    0.256405000000000 
K           0.700739000000000    0.500000000000000    0.962094000000000 
K           0.781199000000000    0.000000000000000    0.337621000000000 
K           0.866278000000000    0.000000000000000    0.842470000000000 
K           0.906971000000000    0.500000000000000    0.549140000000000 
K           0.989588000000000    0.500000000000000    0.194178000000000 
%ENDBLOCK POSITIONS_FRAC
