# Cell file generated by matador (Matthew Evans 2016)

%BLOCK LATTICE_CART
5.76679 0.0 0.0
-2.8834 4.99419 0.0
0.0 0.0 8.72381
%ENDBLOCK LATTICE_CART

%BLOCK POSITIONS_FRAC
P           0.266202000000000    0.133101000000000    0.000000000000000 
P           0.377965000000000    0.164586000000000    0.400162000000000 
P           0.377965000000000    0.213380000000000    0.599838000000000 
P           0.786620000000000    0.164586000000000    0.599838000000000 
P           0.786620000000000    0.622035000000000    0.400162000000000 
P           0.835414000000000    0.213380000000000    0.400162000000000 
P           0.835414000000000    0.622035000000000    0.599838000000000 
P           0.866899000000000    0.133101000000000    0.000000000000000 
P           0.866899000000000    0.733798000000000    0.000000000000000 
K           0.000000000000000    0.000000000000000    0.500000000000000 
K           0.333333000000000    0.666667000000000    0.500000000000000 
K           0.666667000000000    0.333333000000000    0.000000000000000 
%ENDBLOCK POSITIONS_FRAC
