# Cell file generated by matador (Matthew Evans 2016)

%BLOCK LATTICE_CART
7.52045 -0.0 0.0
-3.76022 6.5129 0.0
0.0 0.0 6.03654
%ENDBLOCK LATTICE_CART

%BLOCK POSITIONS_FRAC
P           0.140368000000000    0.070251000000000    0.425052000000000 
P           0.929749000000000    0.070117000000000    0.425052000000000 
P           0.929883000000000    0.859632000000000    0.425052000000000 
K          -0.000000000000000   -0.000000000000000    0.878065000000000 
K           0.333333000000000    0.666667000000000    0.042106000000000 
K           0.532791000000000    0.134225000000000    0.115796000000000 
K           0.601435000000000    0.467209000000000    0.115796000000000 
K           0.666667000000000    0.333333000000000    0.404551000000000 
K           0.865775000000000    0.398565000000000    0.115796000000000 
%ENDBLOCK POSITIONS_FRAC
