# Cell file generated by matador (Matthew Evans 2016)

%BLOCK LATTICE_CART
5.52572 0.0 0.0
-2.76286 4.78541 0.0
0.0 0.0 5.85433
%ENDBLOCK LATTICE_CART

%BLOCK POSITIONS_FRAC
P           0.432131000000000    0.002777000000000    0.190740000000000 
P           0.457220000000000    0.234351000000000    0.964621000000000 
P           0.570645000000000    0.567869000000000    0.190740000000000 
P           0.765649000000000    0.222869000000000    0.964621000000000 
P           0.777131000000000    0.542780000000000    0.964621000000000 
P           0.997223000000000    0.429355000000000    0.190740000000000 
K           0.333333000000000    0.666667000000000    0.404048000000000 
%ENDBLOCK POSITIONS_FRAC
