# Cell file generated by matador (Matthew Evans 2016)

%BLOCK LATTICE_CART
7.58255 0.0 0.0
0.0 7.02979 0.0
2.05679 0.0 8.07817
%ENDBLOCK LATTICE_CART

%BLOCK POSITIONS_FRAC
P           0.168020000000000    0.257566000000000    0.724003000000000 
P           0.168020000000000    0.742434000000000    0.724003000000000 
P           0.342312000000000    0.076849000000000    0.688021000000000 
P           0.342312000000000    0.923151000000000    0.688021000000000 
P           0.408010000000000    0.253566000000000    0.945672000000000 
P           0.408010000000000    0.746434000000000    0.945672000000000 
P           0.650998000000000    0.205869000000000    0.524542000000000 
P           0.650998000000000    0.794131000000000    0.524542000000000 
P           0.861701000000000    0.197127000000000    0.473907000000000 
P           0.861701000000000    0.802873000000000    0.473907000000000 
P           0.909462000000000    0.000000000000000    0.509044000000000 
P           0.922113000000000    0.500000000000000    0.769799000000000 
K           0.120669000000000    0.500000000000000    0.126771000000000 
K           0.144318000000000    0.500000000000000    0.509444000000000 
K           0.348531000000000    0.500000000000000    0.759619000000000 
K           0.506201000000000    0.500000000000000    0.411196000000000 
K           0.715140000000000    0.000000000000000    0.056710000000000 
K           0.774400000000000    0.000000000000000    0.804855000000000 
%ENDBLOCK POSITIONS_FRAC
