# Cell file generated by matador (Matthew Evans 2016)

%BLOCK LATTICE_CART
8.12628 0.0 0.0
-4.06314 7.03756 0.0
0.0 0.0 10.0961
%ENDBLOCK LATTICE_CART

%BLOCK POSITIONS_FRAC
P           0.000000000000000    0.000000000000000    0.858689000000000 
P           0.000000000000000    0.500000000000000    0.921397000000000 
P           0.500000000000000    0.000000000000000    0.921397000000000 
P           0.500000000000000    0.500000000000000    0.921397000000000 
K           0.000000000000000    0.000000000000000    0.660800000000000 
K           0.000000000000000    0.500000000000000    0.441672000000000 
K           0.212360000000000    0.424719000000000    0.233492000000000 
K           0.212360000000000    0.787640000000000    0.233492000000000 
K           0.333333000000000    0.666667000000000    0.614905000000000 
K           0.424719000000000    0.212360000000000    0.233492000000000 
K           0.500000000000000    0.000000000000000    0.441672000000000 
K           0.500000000000000    0.500000000000000    0.441672000000000 
K           0.575281000000000    0.787640000000000    0.233492000000000 
K           0.666667000000000    0.333333000000000    0.614905000000000 
K           0.787640000000000    0.212360000000000    0.233492000000000 
K           0.787640000000000    0.575281000000000    0.233492000000000 
%ENDBLOCK POSITIONS_FRAC
