# Cell file generated by matador (Matthew Evans 2016)

%BLOCK LATTICE_CART
6.56106 0.0 0.0
0.0 6.88849 0.0
0.269012 0.0 6.44598
%ENDBLOCK LATTICE_CART

%BLOCK POSITIONS_FRAC
P           0.000000000000000    0.000000000000000    0.500000000000000 
P           0.500000000000000    0.500000000000000    0.000000000000000 
K           0.000000000000000    0.500000000000000    0.000000000000000 
K           0.091437000000000    0.000000000000000    0.211798000000000 
K           0.500000000000000    0.000000000000000    0.000000000000000 
K           0.500000000000000    0.000000000000000    0.500000000000000 
K           0.500000000000000    0.500000000000000    0.500000000000000 
K           0.908563000000000    0.000000000000000    0.788202000000000 
%ENDBLOCK POSITIONS_FRAC
