# Cell file generated by matador (Matthew Evans 2016)

%BLOCK LATTICE_CART
7.76711 0.0 0.0
0.0 7.76711 0.0
0.0 0.0 7.76711
%ENDBLOCK LATTICE_CART

%BLOCK POSITIONS_FRAC
P           0.177578000000000    0.500000000000000    0.313532000000000 
P           0.177578000000000    0.500000000000000    0.686468000000000 
P           0.313532000000000    0.177578000000000    0.500000000000000 
P           0.313532000000000    0.822422000000000    0.500000000000000 
P           0.500000000000000    0.313532000000000    0.177578000000000 
P           0.500000000000000    0.313532000000000    0.822422000000000 
P           0.500000000000000    0.686468000000000    0.177578000000000 
P           0.500000000000000    0.686468000000000    0.822422000000000 
P           0.686468000000000    0.177578000000000    0.500000000000000 
P           0.686468000000000    0.822422000000000    0.500000000000000 
P           0.822422000000000    0.500000000000000    0.313532000000000 
P           0.822422000000000    0.500000000000000    0.686468000000000 
K           0.000000000000000    0.500000000000000    0.500000000000000 
K           0.500000000000000    0.000000000000000    0.500000000000000 
K           0.500000000000000    0.500000000000000    0.000000000000000 
%ENDBLOCK POSITIONS_FRAC
