# Cell file generated by matador (Matthew Evans 2016)

%BLOCK LATTICE_CART
10.2341 0.0 0.0
0.0 8.09035 0.0
0.0 0.0 6.29742
%ENDBLOCK LATTICE_CART

%BLOCK POSITIONS_FRAC
P           0.080285000000000    0.251871000000000    0.500000000000000 
P           0.080285000000000    0.748129000000000    0.500000000000000 
P           0.419715000000000    0.248129000000000    0.500000000000000 
P           0.419715000000000    0.751871000000000    0.500000000000000 
P           0.580285000000000    0.248129000000000    0.500000000000000 
P           0.580285000000000    0.751871000000000    0.500000000000000 
P           0.919715000000000    0.251871000000000    0.500000000000000 
P           0.919715000000000    0.748129000000000    0.500000000000000 
K          -0.000000000000000    0.000000000000000    0.000000000000000 
K          -0.000000000000000    0.000000000000000    0.500000000000000 
K          -0.000000000000000    0.500000000000000    0.500000000000000 
K           0.500000000000000    0.000000000000000    0.500000000000000 
K           0.500000000000000    0.500000000000000    0.000000000000000 
K           0.500000000000000    0.500000000000000    0.500000000000000 
%ENDBLOCK POSITIONS_FRAC
