# Cell file generated by matador (Matthew Evans 2016)

%BLOCK LATTICE_CART
7.61889 0.0 0.0
-3.80944 6.59815 0.0
0.0 0.0 7.11693
%ENDBLOCK LATTICE_CART

%BLOCK POSITIONS_FRAC
P           0.000000000000000    0.238936000000000    0.166667000000000 
P           0.000000000000000    0.746867000000000    0.666667000000000 
P           0.238936000000000    0.000000000000000    0.833333000000000 
P           0.253133000000000    0.253133000000000   -0.000000000000000 
P           0.746867000000000    0.000000000000000    0.333333000000000 
P           0.761064000000000    0.761064000000000    0.500000000000000 
K           0.000000000000000    0.279720000000000    0.666667000000000 
K           0.000000000000000    0.940694000000000    0.166667000000000 
K           0.059306000000000    0.059306000000000    0.500000000000000 
K           0.279720000000000    0.000000000000000    0.333333000000000 
K           0.720280000000000    0.720280000000000   -0.000000000000000 
K           0.940694000000000    0.000000000000000    0.833333000000000 
%ENDBLOCK POSITIONS_FRAC
