# Cell file generated by matador (Matthew Evans 2016)

%BLOCK LATTICE_CART
5.07304 0.0 0.0
0.0 5.48598 0.0
-3.42203 0.0 6.86535
%ENDBLOCK LATTICE_CART

%BLOCK POSITIONS_FRAC
P           0.073209000000000    0.368362000000000    0.298360000000000 
P           0.073209000000000    0.631638000000000    0.298360000000000 
P           0.422395000000000    0.335236000000000    0.372957000000000 
P           0.422395000000000    0.664764000000000    0.372957000000000 
P           0.674892000000000    0.000000000000000    0.197754000000000 
K           0.077261000000000    0.000000000000000    0.513740000000000 
K           0.555089000000000    0.000000000000000    0.796315000000000 
%ENDBLOCK POSITIONS_FRAC
