# Cell file generated by matador (Matthew Evans 2016)

%BLOCK LATTICE_CART
8.14354 0.0 0.0
0.0 8.4109 0.0
0.0 0.0 5.71187
%ENDBLOCK LATTICE_CART

%BLOCK POSITIONS_FRAC
P           0.127327000000000    0.368464000000000    0.268631000000000 
P           0.127327000000000    0.631536000000000    0.731369000000000 
P           0.872673000000000    0.368464000000000    0.731369000000000 
P           0.872673000000000    0.631536000000000    0.268631000000000 
K           0.000000000000000    0.000000000000000    0.000000000000000 
K           0.000000000000000    0.000000000000000    0.500000000000000 
K           0.000000000000000    0.500000000000000    0.000000000000000 
K           0.000000000000000    0.500000000000000    0.500000000000000 
K           0.500000000000000    0.000000000000000    0.500000000000000 
K           0.500000000000000    0.500000000000000    0.000000000000000 
K           0.500000000000000    0.500000000000000    0.500000000000000 
%ENDBLOCK POSITIONS_FRAC
