# Cell file generated by matador (Matthew Evans 2016)

%BLOCK LATTICE_CART
11.4267 -0.0 0.0
-5.71333 9.89578 0.0
0.0 0.0 8.8493
%ENDBLOCK LATTICE_CART

%BLOCK POSITIONS_FRAC
P           0.227567000000000    0.534513000000000    0.750000000000000 
P           0.306946000000000    0.772433000000000    0.750000000000000 
P           0.465487000000000    0.693054000000000    0.750000000000000 
P           0.534513000000000    0.306946000000000    0.250000000000000 
P           0.693054000000000    0.227567000000000    0.250000000000000 
P           0.772433000000000    0.465487000000000    0.250000000000000 
K           0.000000000000000    0.500000000000000    0.000000000000000 
K           0.000000000000000    0.500000000000000    0.500000000000000 
K           0.084347000000000    0.822531000000000    0.250000000000000 
K           0.177305000000000    0.522138000000000    0.250000000000000 
K           0.177469000000000    0.261816000000000    0.250000000000000 
K           0.261816000000000    0.084347000000000    0.750000000000000 
K           0.344833000000000    0.822695000000000    0.250000000000000 
K           0.477862000000000    0.655167000000000    0.250000000000000 
K           0.500000000000000    0.000000000000000    0.000000000000000 
K           0.500000000000000    0.000000000000000    0.500000000000000 
K           0.500000000000000    0.500000000000000    0.000000000000000 
K           0.500000000000000    0.500000000000000    0.500000000000000 
K           0.522138000000000    0.344833000000000    0.750000000000000 
K           0.655167000000000    0.177305000000000    0.750000000000000 
K           0.738184000000000    0.915653000000000    0.250000000000000 
K           0.822531000000000    0.738184000000000    0.750000000000000 
K           0.822695000000000    0.477862000000000    0.750000000000000 
K           0.915653000000000    0.177469000000000    0.750000000000000 
%ENDBLOCK POSITIONS_FRAC
