# Cell file generated by matador (Matthew Evans 2016)

%BLOCK LATTICE_CART
8.19062 0.0 0.0
-4.09531 7.09328 0.0
0.0 0.0 8.3476
%ENDBLOCK LATTICE_CART

%BLOCK POSITIONS_FRAC
P           0.000000000000000    0.000000000000000    0.146879000000000 
P           0.000000000000000    0.000000000000000    0.646879000000000 
P           0.138076000000000    0.276152000000000    0.492401000000000 
P           0.138076000000000    0.861924000000000    0.492401000000000 
P           0.276152000000000    0.138076000000000    0.992401000000000 
P           0.723848000000000    0.861924000000000    0.492401000000000 
P           0.861924000000000    0.138076000000000    0.992401000000000 
P           0.861924000000000    0.723848000000000    0.992401000000000 
K           0.218364000000000    0.436728000000000    0.855595000000000 
K           0.218364000000000    0.781636000000000    0.855595000000000 
K           0.436728000000000    0.218364000000000    0.355595000000000 
K           0.563272000000000    0.781636000000000    0.855595000000000 
K           0.781636000000000    0.218364000000000    0.355595000000000 
K           0.781636000000000    0.563272000000000    0.355595000000000 
%ENDBLOCK POSITIONS_FRAC
