# Cell file generated by matador (Matthew Evans 2016)

%BLOCK LATTICE_CART
7.81767 -0.0 0.0
-3.90884 6.7703 0.0
0.0 0.0 7.58954
%ENDBLOCK LATTICE_CART

%BLOCK POSITIONS_FRAC
P           0.000000000000000    0.000000000000000    0.426113000000000 
P           0.039713000000000    0.823502000000000    0.842993000000000 
P           0.117122000000000    0.626954000000000    0.509660000000000 
P           0.176498000000000    0.216211000000000    0.842993000000000 
P           0.333333000000000    0.666667000000000    0.092780000000000 
P           0.373046000000000    0.490169000000000    0.509660000000000 
P           0.450456000000000    0.293620000000000    0.176327000000000 
P           0.509831000000000    0.882878000000000    0.509660000000000 
P           0.666667000000000    0.333333000000000    0.759446000000000 
P           0.706380000000000    0.156836000000000    0.176327000000000 
P           0.783789000000000    0.960287000000000    0.842993000000000 
P           0.843164000000000    0.549544000000000    0.176327000000000 
K           0.000000000000000    0.000000000000000    0.139673000000000 
K           0.333333000000000    0.666667000000000    0.806339000000000 
K           0.666667000000000    0.333333000000000    0.473006000000000 
%ENDBLOCK POSITIONS_FRAC
