# Cell file generated by matador (Matthew Evans 2016)

%BLOCK LATTICE_CART
8.80006 0.0 0.0
-4.40003 7.62107 0.0
0.0 0.0 6.39933
%ENDBLOCK LATTICE_CART

%BLOCK POSITIONS_FRAC
P           0.000000000000000    0.000000000000000    0.068437000000000 
P           0.333333000000000    0.666667000000000    0.735103000000000 
P           0.666667000000000    0.333333000000000    0.401770000000000 
K           0.071255000000000    0.535628000000000    0.271026000000000 
K           0.131039000000000    0.262078000000000    0.604359000000000 
K           0.131039000000000    0.868961000000000    0.604359000000000 
K           0.404588000000000    0.202294000000000    0.937692000000000 
K           0.464372000000000    0.535628000000000    0.271026000000000 
K           0.464372000000000    0.928745000000000    0.271026000000000 
K           0.737922000000000    0.868961000000000    0.604359000000000 
K           0.797706000000000    0.202294000000000    0.937692000000000 
K           0.797706000000000    0.595412000000000    0.937692000000000 
%ENDBLOCK POSITIONS_FRAC
