# Cell file generated by matador (Matthew Evans 2016)

%BLOCK LATTICE_CART
9.98319 0.0 0.0
-4.99159 8.64569 0.0
0.0 0.0 6.96525
%ENDBLOCK LATTICE_CART

%BLOCK POSITIONS_FRAC
P           0.000000000000000    0.500000000000000    0.000000000000000 
P           0.000000000000000    0.500000000000000    0.500000000000000 
P           0.162894000000000    0.325787000000000    0.750000000000000 
P           0.162894000000000    0.837106000000000    0.750000000000000 
P           0.325787000000000    0.162894000000000    0.250000000000000 
P           0.333333000000000    0.666667000000000    0.750000000000000 
P           0.500000000000000    0.000000000000000    0.000000000000000 
P           0.500000000000000    0.000000000000000    0.500000000000000 
P           0.500000000000000    0.500000000000000    0.000000000000000 
P           0.500000000000000    0.500000000000000    0.500000000000000 
P           0.666667000000000    0.333333000000000    0.250000000000000 
P           0.674213000000000    0.837106000000000    0.750000000000000 
P           0.837106000000000    0.162894000000000    0.250000000000000 
P           0.837106000000000    0.674213000000000    0.250000000000000 
K           0.000000000000000    0.000000000000000    0.250000000000000 
K           0.000000000000000    0.000000000000000    0.750000000000000 
K           0.333333000000000    0.666667000000000    0.250000000000000 
K           0.666667000000000    0.333333000000000    0.750000000000000 
%ENDBLOCK POSITIONS_FRAC
