# Cell file generated by matador (Matthew Evans 2016)

%BLOCK LATTICE_CART
7.66446 0.0 0.0
0.0 7.66446 0.0
0.0 0.0 7.66446
%ENDBLOCK LATTICE_CART

%BLOCK POSITIONS_FRAC
P           0.000000000000000    0.000000000000000    0.000000000000000 
P           0.144415000000000    0.144415000000000    0.144415000000000 
P           0.144415000000000    0.855585000000000    0.855585000000000 
P           0.355585000000000    0.355585000000000    0.644415000000000 
P           0.355585000000000    0.644415000000000    0.355585000000000 
P           0.500000000000000    0.500000000000000    0.500000000000000 
P           0.644415000000000    0.355585000000000    0.355585000000000 
P           0.644415000000000    0.644415000000000    0.644415000000000 
P           0.855585000000000    0.144415000000000    0.855585000000000 
P           0.855585000000000    0.855585000000000    0.144415000000000 
K           0.000000000000000    0.000000000000000    0.500000000000000 
K           0.000000000000000    0.500000000000000    0.000000000000000 
K           0.000000000000000    0.500000000000000    0.500000000000000 
K           0.500000000000000    0.000000000000000    0.000000000000000 
K           0.500000000000000    0.000000000000000    0.500000000000000 
K           0.500000000000000    0.500000000000000    0.000000000000000 
%ENDBLOCK POSITIONS_FRAC
