# Cell file generated by matador (Matthew Evans 2016)

%BLOCK LATTICE_CART
11.3629 0.0 0.0
0.0 11.7224 0.0
0.0 0.0 10.3578
%ENDBLOCK LATTICE_CART

%BLOCK POSITIONS_FRAC
P           0.091250000000000    0.013215000000000    0.008096000000000 
P           0.091250000000000    0.986785000000000    0.508096000000000 
P           0.408750000000000    0.486785000000000    0.508096000000000 
P           0.408750000000000    0.513215000000000    0.008096000000000 
P           0.591250000000000    0.486785000000000    0.508096000000000 
P           0.591250000000000    0.513215000000000    0.008096000000000 
P           0.908750000000000    0.013215000000000    0.008096000000000 
P           0.908750000000000    0.986785000000000    0.508096000000000 
K           0.000000000000000    0.067457000000000    0.742504000000000 
K           0.000000000000000    0.158283000000000    0.365893000000000 
K           0.000000000000000    0.171771000000000    0.077396000000000 
K           0.000000000000000    0.311125000000000    0.832978000000000 
K           0.000000000000000    0.392654000000000    0.471102000000000 
K           0.000000000000000    0.460793000000000    0.199821000000000 
K           0.000000000000000    0.539207000000000    0.699821000000000 
K           0.000000000000000    0.607346000000000    0.971102000000000 
K           0.000000000000000    0.688875000000000    0.332978000000000 
K           0.000000000000000    0.828229000000000    0.577396000000000 
K           0.000000000000000    0.841717000000000    0.865893000000000 
K           0.000000000000000    0.932543000000000    0.242504000000000 
K           0.500000000000000    0.039207000000000    0.699821000000000 
K           0.500000000000000    0.107346000000000    0.971102000000000 
K           0.500000000000000    0.188875000000000    0.332978000000000 
K           0.500000000000000    0.328229000000000    0.577396000000000 
K           0.500000000000000    0.341717000000000    0.865893000000000 
K           0.500000000000000    0.432543000000000    0.242504000000000 
K           0.500000000000000    0.567457000000000    0.742504000000000 
K           0.500000000000000    0.658283000000000    0.365893000000000 
K           0.500000000000000    0.671771000000000    0.077396000000000 
K           0.500000000000000    0.811125000000000    0.832978000000000 
K           0.500000000000000    0.892654000000000    0.471102000000000 
K           0.500000000000000    0.960793000000000    0.199821000000000 
%ENDBLOCK POSITIONS_FRAC
