# Cell file generated by matador (Matthew Evans 2016)

%BLOCK LATTICE_CART
6.38908 0.0 0.0
-3.19454 5.53311 0.0
0.0 0.0 8.43937
%ENDBLOCK LATTICE_CART

%BLOCK POSITIONS_FRAC
P           0.000000000000000    0.000000000000000    0.051916000000000 
P           0.252800000000000    0.126400000000000    0.135817000000000 
P           0.333333000000000    0.666667000000000    0.413779000000000 
P           0.666667000000000    0.333333000000000    0.282211000000000 
P           0.666667000000000    0.333333000000000    0.769017000000000 
P           0.873600000000000    0.126400000000000    0.135817000000000 
P           0.873600000000000    0.747200000000000    0.135817000000000 
K           0.164202000000000    0.328404000000000    0.747365000000000 
K           0.164202000000000    0.835798000000000    0.747365000000000 
K           0.671596000000000    0.835798000000000    0.747365000000000 
%ENDBLOCK POSITIONS_FRAC
