# Cell file generated by matador (Matthew Evans 2016)

%BLOCK LATTICE_CART
8.15639 0.0 0.0
0.0 8.15639 0.0
0.0 0.0 8.15639
%ENDBLOCK LATTICE_CART

%BLOCK POSITIONS_FRAC
P           0.000000000000000    0.500000000000000    0.254793000000000 
P           0.000000000000000    0.500000000000000    0.745207000000000 
P           0.254793000000000    0.000000000000000    0.500000000000000 
P           0.500000000000000    0.254793000000000    0.000000000000000 
P           0.500000000000000    0.745207000000000    0.000000000000000 
P           0.745207000000000    0.000000000000000    0.500000000000000 
K           0.000000000000000    0.000000000000000    0.000000000000000 
K           0.000000000000000    0.000000000000000    0.500000000000000 
K           0.000000000000000    0.500000000000000    0.000000000000000 
K           0.000000000000000    0.500000000000000    0.500000000000000 
K           0.500000000000000    0.000000000000000    0.000000000000000 
K           0.500000000000000    0.000000000000000    0.500000000000000 
K           0.500000000000000    0.500000000000000    0.000000000000000 
K           0.500000000000000    0.500000000000000    0.500000000000000 
%ENDBLOCK POSITIONS_FRAC
