# Cell file generated by matador (Matthew Evans 2016)

%BLOCK LATTICE_CART
7.13563 0.0 0.0
-3.56782 6.17964 0.0
0.0 0.0 9.53952
%ENDBLOCK LATTICE_CART

%BLOCK POSITIONS_FRAC
P           0.000000000000000    0.000000000000000    0.275251000000000 
P           0.000000000000000    0.000000000000000    0.724749000000000 
P           0.333333000000000    0.666667000000000    0.391416000000000 
P           0.333333000000000    0.666667000000000    0.941917000000000 
P           0.666667000000000    0.333333000000000    0.058082000000000 
P           0.666667000000000    0.333333000000000    0.608584000000000 
K           0.000000000000000    0.000000000000000   -0.000000000000000 
K           0.000000000000000    0.000000000000000    0.500000000000000 
K           0.333333000000000    0.666667000000000    0.166667000000000 
K           0.333333000000000    0.666667000000000    0.666667000000000 
K           0.666667000000000    0.333333000000000    0.333333000000000 
K           0.666667000000000    0.333333000000000    0.833333000000000 
%ENDBLOCK POSITIONS_FRAC
