# Cell file generated by matador (Matthew Evans 2016)

%BLOCK LATTICE_CART
11.635 0.0 0.0
0.0 10.1748 0.0
0.0 0.0 9.79453
%ENDBLOCK LATTICE_CART

%BLOCK POSITIONS_FRAC
P           0.223437000000000    0.000000000000000    0.352140000000000 
P           0.223437000000000    0.000000000000000    0.647860000000000 
P           0.276563000000000    0.500000000000000    0.147860000000000 
P           0.276563000000000    0.500000000000000    0.852140000000000 
P           0.723437000000000    0.500000000000000    0.147860000000000 
P           0.723437000000000    0.500000000000000    0.852140000000000 
P           0.776563000000000    0.000000000000000    0.352140000000000 
P           0.776563000000000    0.000000000000000    0.647860000000000 
K           0.127370000000000    0.277688000000000    0.500000000000000 
K           0.127370000000000    0.722312000000000    0.500000000000000 
K           0.148161000000000    0.352819000000000   -0.000000000000000 
K           0.148161000000000    0.647181000000000   -0.000000000000000 
K           0.228949000000000    0.500000000000000    0.342133000000000 
K           0.228949000000000    0.500000000000000    0.657867000000000 
K           0.271051000000000    0.000000000000000    0.157867000000000 
K           0.271051000000000    0.000000000000000    0.842133000000000 
K           0.351839000000000    0.147181000000000    0.500000000000000 
K           0.351839000000000    0.852819000000000    0.500000000000000 
K           0.372630000000000    0.222312000000000   -0.000000000000000 
K           0.372630000000000    0.777688000000000   -0.000000000000000 
K           0.627370000000000    0.222312000000000   -0.000000000000000 
K           0.627370000000000    0.777688000000000   -0.000000000000000 
K           0.648161000000000    0.147181000000000    0.500000000000000 
K           0.648161000000000    0.852819000000000    0.500000000000000 
K           0.728949000000000    0.000000000000000    0.157867000000000 
K           0.728949000000000    0.000000000000000    0.842133000000000 
K           0.771051000000000    0.500000000000000    0.342133000000000 
K           0.771051000000000    0.500000000000000    0.657867000000000 
K           0.851839000000000    0.352819000000000   -0.000000000000000 
K           0.851839000000000    0.647181000000000   -0.000000000000000 
K           0.872630000000000    0.277688000000000    0.500000000000000 
K           0.872630000000000    0.722312000000000    0.500000000000000 
%ENDBLOCK POSITIONS_FRAC
