# Cell file generated by matador (Matthew Evans 2016)

%BLOCK LATTICE_CART
12.0293 0.0 0.0
-6.01463 10.4176 0.0
0.0 0.0 10.6233
%ENDBLOCK LATTICE_CART

%BLOCK POSITIONS_FRAC
P           0.000000000000000    0.000000000000000    0.171040000000000 
P           0.000000000000000    0.000000000000000    0.671040000000000 
P           0.000000000000000    0.302061000000000    0.351672000000000 
P           0.000000000000000    0.697939000000000    0.851672000000000 
P           0.302061000000000    0.000000000000000    0.351672000000000 
P           0.302061000000000    0.302061000000000    0.851672000000000 
P           0.697939000000000    0.000000000000000    0.851672000000000 
P           0.697939000000000    0.697939000000000    0.351672000000000 
K           0.000000000000000    0.157188000000000    0.447234000000000 
K           0.000000000000000    0.204299000000000    0.734282000000000 
K           0.000000000000000    0.253550000000000    0.104442000000000 
K           0.000000000000000    0.470032000000000    0.585215000000000 
K           0.000000000000000    0.529968000000000    0.085215000000000 
K           0.000000000000000    0.746450000000000    0.604442000000000 
K           0.000000000000000    0.795701000000000    0.234282000000000 
K           0.000000000000000    0.842812000000000    0.947234000000000 
K           0.157188000000000    0.000000000000000    0.447234000000000 
K           0.157188000000000    0.157188000000000    0.947234000000000 
K           0.204299000000000    0.000000000000000    0.734282000000000 
K           0.204299000000000    0.204299000000000    0.234282000000000 
K           0.253550000000000    0.000000000000000    0.104442000000000 
K           0.253550000000000    0.253550000000000    0.604442000000000 
K           0.470032000000000    0.000000000000000    0.585215000000000 
K           0.470032000000000    0.470032000000000    0.085215000000000 
K           0.529968000000000    0.000000000000000    0.085215000000000 
K           0.529968000000000    0.529968000000000    0.585215000000000 
K           0.746450000000000    0.000000000000000    0.604442000000000 
K           0.746450000000000    0.746450000000000    0.104442000000000 
K           0.795701000000000    0.000000000000000    0.234282000000000 
K           0.795701000000000    0.795701000000000    0.734282000000000 
K           0.842812000000000    0.000000000000000    0.947234000000000 
K           0.842812000000000    0.842812000000000    0.447234000000000 
%ENDBLOCK POSITIONS_FRAC
