# Cell file generated by matador (Matthew Evans 2016)

%BLOCK LATTICE_CART
8.79789 -0.0 0.0
-4.39895 7.6192 0.0
0.0 0.0 5.81593
%ENDBLOCK LATTICE_CART

%BLOCK POSITIONS_FRAC
P           0.000000000000000    0.000000000000000    0.566691000000000 
P           0.085102000000000    0.042808000000000    0.759163000000000 
P           0.290526000000000    0.708961000000000    0.425830000000000 
P           0.291039000000000    0.581565000000000    0.425830000000000 
P           0.333333000000000    0.666667000000000    0.233358000000000 
P           0.418435000000000    0.709474000000000    0.425830000000000 
P           0.623859000000000    0.375627000000000    0.092496000000000 
P           0.624373000000000    0.248232000000000    0.092496000000000 
P           0.666667000000000    0.333333000000000    0.900024000000000 
P           0.751768000000000    0.376141000000000    0.092496000000000 
P           0.957192000000000    0.042294000000000    0.759163000000000 
P           0.957706000000000    0.914898000000000    0.759163000000000 
K           0.000000000000000    0.000000000000000    0.208491000000000 
K           0.333333000000000    0.666667000000000    0.875157000000000 
K           0.666667000000000    0.333333000000000    0.541824000000000 
%ENDBLOCK POSITIONS_FRAC
