# Cell file generated by matador (Matthew Evans 2016)

%BLOCK LATTICE_CART
9.43621 0.0 0.0
0.0 10.6827 0.0
0.70104 0.0 5.63137
%ENDBLOCK LATTICE_CART

%BLOCK POSITIONS_FRAC
P           0.000000000000000    0.508756000000000    0.000000000000000 
P           0.500000000000000    0.008756000000000    0.000000000000000 
K           0.000000000000000    0.165414000000000    0.500000000000000 
K           0.000000000000000    0.967879000000000    0.000000000000000 
K           0.139407000000000    0.769847000000000    0.882485000000000 
K           0.240719000000000    0.404692000000000    0.952525000000000 
K           0.259281000000000    0.904692000000000    0.047475000000000 
K           0.360593000000000    0.269847000000000    0.117515000000000 
K           0.500000000000000    0.467879000000000    0.000000000000000 
K           0.500000000000000    0.665414000000000    0.500000000000000 
K           0.639407000000000    0.269847000000000    0.882485000000000 
K           0.740719000000000    0.904692000000000    0.952525000000000 
K           0.759281000000000    0.404692000000000    0.047475000000000 
K           0.860593000000000    0.769847000000000    0.117515000000000 
%ENDBLOCK POSITIONS_FRAC
