# Cell file generated by matador (Matthew Evans 2016)

%BLOCK LATTICE_CART
9.59039 0.0 0.0
-4.7952 8.30552 0.0
0.0 0.0 7.51286
%ENDBLOCK LATTICE_CART

%BLOCK POSITIONS_FRAC
P           0.000000000000000    0.000000000000000    0.776984000000000 
P           0.000000000000000    0.347895000000000    0.156533000000000 
P           0.347895000000000    0.000000000000000    0.156533000000000 
P           0.652105000000000    0.652105000000000    0.156533000000000 
K           0.000000000000000    0.232494000000000    0.473039000000000 
K           0.000000000000000    0.278367000000000    0.872527000000000 
K           0.000000000000000    0.598633000000000    0.424911000000000 
K           0.000000000000000    0.606508000000000    0.935881000000000 
K           0.232494000000000    0.000000000000000    0.473039000000000 
K           0.278367000000000    0.000000000000000    0.872527000000000 
K           0.393492000000000    0.393492000000000    0.935881000000000 
K           0.401367000000000    0.401367000000000    0.424911000000000 
K           0.598633000000000    0.000000000000000    0.424911000000000 
K           0.606508000000000    0.000000000000000    0.935881000000000 
K           0.721633000000000    0.721633000000000    0.872527000000000 
K           0.767506000000000    0.767506000000000    0.473039000000000 
%ENDBLOCK POSITIONS_FRAC
