# Cell file generated by matador (Matthew Evans 2016)

%BLOCK LATTICE_CART
7.95205 0.0 0.0
-3.97602 6.88668 0.0
0.0 0.0 8.95143
%ENDBLOCK LATTICE_CART

%BLOCK POSITIONS_FRAC
P           0.000000000000000    0.000000000000000    0.223428000000000 
P           0.000000000000000    0.000000000000000    0.776572000000000 
P           0.150093000000000    0.300186000000000    0.000000000000000 
P           0.150093000000000    0.849907000000000    0.000000000000000 
P           0.300186000000000    0.150093000000000    0.000000000000000 
P           0.333333000000000    0.666667000000000    0.000000000000000 
P           0.333333000000000    0.666667000000000    0.283938000000000 
P           0.333333000000000    0.666667000000000    0.716062000000000 
P           0.666667000000000    0.333333000000000    0.000000000000000 
P           0.666667000000000    0.333333000000000    0.283938000000000 
P           0.666667000000000    0.333333000000000    0.716062000000000 
P           0.699814000000000    0.849907000000000    0.000000000000000 
P           0.849907000000000    0.150093000000000    0.000000000000000 
P           0.849907000000000    0.699814000000000    0.000000000000000 
K           0.000000000000000    0.000000000000000    0.000000000000000 
K           0.000000000000000    0.000000000000000    0.500000000000000 
%ENDBLOCK POSITIONS_FRAC
