# Cell file generated by matador (Matthew Evans 2016)

%BLOCK LATTICE_CART
5.62093 0.0 0.0
-2.81047 4.86787 0.0
0.0 0.0 11.2276
%ENDBLOCK LATTICE_CART

%BLOCK POSITIONS_FRAC
P           0.205428000000000    0.410856000000000    0.000000000000000 
P           0.205428000000000    0.794572000000000    0.000000000000000 
P           0.333333000000000    0.666667000000000    0.067574000000000 
P           0.333333000000000    0.666667000000000    0.932426000000000 
P           0.410856000000000    0.205428000000000    0.000000000000000 
P           0.589144000000000    0.794572000000000    0.000000000000000 
P           0.666667000000000    0.333333000000000    0.067574000000000 
P           0.666667000000000    0.333333000000000    0.932426000000000 
P           0.794572000000000    0.205428000000000    0.000000000000000 
P           0.794572000000000    0.589144000000000    0.000000000000000 
K           0.000000000000000    0.000000000000000    0.000000000000000 
K           0.000000000000000    0.000000000000000    0.500000000000000 
%ENDBLOCK POSITIONS_FRAC
