# Cell file generated by matador (Matthew Evans 2016)

%BLOCK LATTICE_CART
7.07975 0.0 0.0
0.0 7.07975 0.0
0.0 0.0 8.46761
%ENDBLOCK LATTICE_CART

%BLOCK POSITIONS_FRAC
P           0.000000000000000    0.500000000000000    0.500000000000000 
P           0.028750000000000    0.221353000000000    0.355221000000000 
P           0.028750000000000    0.778647000000000    0.644779000000000 
P           0.221353000000000    0.028750000000000    0.644779000000000 
P           0.221353000000000    0.971250000000000    0.355221000000000 
P           0.500000000000000    0.000000000000000    0.500000000000000 
P           0.778647000000000    0.028750000000000    0.355221000000000 
P           0.778647000000000    0.971250000000000    0.644779000000000 
P           0.971250000000000    0.221353000000000    0.644779000000000 
P           0.971250000000000    0.778647000000000    0.355221000000000 
K           0.000000000000000    0.000000000000000    0.500000000000000 
K           0.000000000000000    0.500000000000000    0.000000000000000 
K           0.500000000000000    0.000000000000000    0.000000000000000 
K           0.500000000000000    0.500000000000000    0.000000000000000 
%ENDBLOCK POSITIONS_FRAC
