# Cell file generated by matador (Matthew Evans 2016)

%BLOCK LATTICE_CART
7.71219 0.0 0.0
-3.85609 6.67895 0.0
0.0 0.0 6.02346
%ENDBLOCK LATTICE_CART

%BLOCK POSITIONS_FRAC
P           0.333332000000000    0.666666000000000    0.240498000000000 
P           0.666666000000000    0.333332000000000    0.740498000000000 
K           0.184795000000000    0.369591000000000    0.880211000000000 
K           0.184795000000000    0.815203000000000    0.880211000000000 
K           0.369591000000000    0.184795000000000    0.380211000000000 
K           0.630407000000000    0.815203000000000    0.880211000000000 
K           0.815203000000000    0.184795000000000    0.380211000000000 
K           0.815203000000000    0.630407000000000    0.380211000000000 
%ENDBLOCK POSITIONS_FRAC
