# Cell file generated by matador (Matthew Evans 2016)

%BLOCK LATTICE_CART
6.86494 0.0 0.0
-3.43247 5.94521 0.0
0.0 0.0 10.9142
%ENDBLOCK LATTICE_CART

%BLOCK POSITIONS_FRAC
P           0.077528000000000    0.457532000000000    0.571581000000000 
P           0.077528000000000    0.457532000000000    0.928419000000000 
P           0.380004000000000    0.922472000000000    0.571581000000000 
P           0.380004000000000    0.922472000000000    0.928419000000000 
P           0.457532000000000    0.077528000000000    0.071581000000000 
P           0.457532000000000    0.077528000000000    0.428419000000000 
P           0.542468000000000    0.619996000000000    0.571581000000000 
P           0.542468000000000    0.619996000000000    0.928419000000000 
P           0.619996000000000    0.542468000000000    0.071581000000000 
P           0.619996000000000    0.542468000000000    0.428419000000000 
P           0.922472000000000    0.380004000000000    0.071581000000000 
P           0.922472000000000    0.380004000000000    0.428419000000000 
K           0.333333000000000    0.666667000000000    0.750000000000000 
K           0.666666000000000    0.333334000000000    0.250000000000000 
%ENDBLOCK POSITIONS_FRAC
