# Cell file generated by matador (Matthew Evans 2016)

%BLOCK LATTICE_CART
8.64223 0.0 0.0
-4.32112 7.48439 0.0
0.0 0.0 9.39406
%ENDBLOCK LATTICE_CART

%BLOCK POSITIONS_FRAC
P          -0.000000000000000    0.000000000000000    0.250000000000000 
P          -0.000000000000000    0.000000000000000    0.750000000000000 
P          -0.000000000000000    0.154917000000000    0.000000000000000 
P          -0.000000000000000    0.154917000000000    0.500000000000000 
P           0.097079000000000    0.784757000000000    0.250000000000000 
P           0.154917000000000    0.000000000000000    0.000000000000000 
P           0.154917000000000    0.000000000000000    0.500000000000000 
P           0.215243000000000    0.312322000000000    0.250000000000000 
P           0.312322000000000    0.215243000000000    0.750000000000000 
P           0.687678000000000    0.902921000000000    0.250000000000000 
P           0.784757000000000    0.097079000000000    0.750000000000000 
P           0.845083000000000    0.845083000000000    0.000000000000000 
P           0.845083000000000    0.845083000000000    0.500000000000000 
P           0.902921000000000    0.687678000000000    0.750000000000000 
K           0.333333000000000    0.666667000000000    0.250000000000000 
K           0.666666000000000    0.333334000000000    0.750000000000000 
%ENDBLOCK POSITIONS_FRAC
