# Cell file generated by matador (Matthew Evans 2016)

%BLOCK LATTICE_CART
4.69046 0.0 0.0
-2.34523 4.06206 0.0
0.0 0.0 5.99256
%ENDBLOCK LATTICE_CART

%BLOCK POSITIONS_FRAC
P           0.333334000000000    0.666668000000000    0.250000000000000 
P           0.666668000000000    0.333334000000000    0.750000000000000 
K           0.000001000000000    0.000001000000000    0.250000000000000 
K           0.000001000000000    0.000001000000000    0.750000000000000 
%ENDBLOCK POSITIONS_FRAC
