# Cell file generated by matador (Matthew Evans 2016)

%BLOCK LATTICE_CART
7.7428 0.0 0.0
0.0 7.99068 0.0
-0.488378 0.0 9.26645
%ENDBLOCK LATTICE_CART

%BLOCK POSITIONS_FRAC
P           0.112571000000000    0.281295000000000    0.553397000000000 
P           0.112571000000000    0.718705000000000    0.053397000000000 
P           0.887429000000000    0.281295000000000    0.946603000000000 
P           0.887429000000000    0.718705000000000    0.446603000000000 
K           0.000000000000000    0.000000000000000    0.000000000000000 
K           0.000000000000000    0.000000000000000    0.500000000000000 
K           0.000000000000000    0.227670000000000    0.750000000000000 
K           0.000000000000000    0.500000000000000    0.000000000000000 
K           0.000000000000000    0.500000000000000    0.500000000000000 
K           0.000000000000000    0.772330000000000    0.250000000000000 
K           0.500000000000000    0.000000000000000    0.000000000000000 
K           0.500000000000000    0.000000000000000    0.500000000000000 
K           0.500000000000000    0.285460000000000    0.750000000000000 
K           0.500000000000000    0.500000000000000    0.000000000000000 
K           0.500000000000000    0.500000000000000    0.500000000000000 
K           0.500000000000000    0.714540000000000    0.250000000000000 
%ENDBLOCK POSITIONS_FRAC
