# Cell file generated by matador (Matthew Evans 2016)

%BLOCK LATTICE_CART
6.94865 0.0 0.0
-3.47433 6.01771 0.0
0.0 0.0 8.04642
%ENDBLOCK LATTICE_CART

%BLOCK POSITIONS_FRAC
P           0.000000000000000    0.000000000000000    0.000000000000000 
P           0.000000000000000    0.000000000000000    0.500000000000000 
P           0.333333000000000    0.666667000000000    0.251442000000000 
P           0.333333000000000    0.666667000000000    0.748558000000000 
P           0.666667000000000    0.333333000000000    0.251442000000000 
P           0.666667000000000    0.333333000000000    0.748558000000000 
K           0.000000000000000    0.500000000000000    0.000000000000000 
K           0.333333000000000    0.666667000000000    0.500000000000000 
K           0.500000000000000    0.000000000000000    0.000000000000000 
K           0.500000000000000    0.500000000000000    0.000000000000000 
K           0.666667000000000    0.333333000000000    0.500000000000000 
%ENDBLOCK POSITIONS_FRAC
