# Cell file generated by matador (Matthew Evans 2016)

%BLOCK LATTICE_CART
8.34735 0.0 0.0
-4.17368 7.22902 0.0
0.0 0.0 10.3173
%ENDBLOCK LATTICE_CART

%BLOCK POSITIONS_FRAC
P           0.000000000000000    0.000000000000000    0.062356000000000 
P           0.000000000000000    0.000000000000000    0.500000000000000 
P           0.000000000000000    0.000000000000000    0.937645000000000 
P           0.333333000000000    0.666667000000000    0.166667000000000 
P           0.333333000000000    0.666667000000000    0.604311000000000 
P           0.333333000000000    0.666667000000000    0.729022000000000 
P           0.666667000000000    0.333333000000000    0.270978000000000 
P           0.666667000000000    0.333333000000000    0.395689000000000 
P           0.666667000000000    0.333333000000000    0.833333000000000 
K           0.000000000000000    0.500000000000000    0.500000000000000 
K           0.166667000000000    0.333333000000000    0.833333000000000 
K           0.166667000000000    0.833333000000000    0.833333000000000 
K           0.333333000000000    0.166667000000000    0.166667000000000 
K           0.500000000000000    0.000000000000000    0.500000000000000 
K           0.500000000000000    0.500000000000000    0.500000000000000 
K           0.666667000000000    0.833333000000000    0.833333000000000 
K           0.833333000000000    0.166667000000000    0.166667000000000 
K           0.833333000000000    0.666667000000000    0.166667000000000 
%ENDBLOCK POSITIONS_FRAC
