# Cell file generated by matador (Matthew Evans 2016)

%BLOCK LATTICE_CART
7.87092 -0.0 0.0
-3.93546 6.81642 0.0
0.0 0.0 8.17834
%ENDBLOCK LATTICE_CART

%BLOCK POSITIONS_FRAC
P           0.000000000000000    0.000000000000000    0.500000000000000 
P           0.028588000000000    0.663989000000000    0.000000000000000 
P           0.336011000000000    0.364599000000000    0.000000000000000 
P           0.366401000000000    0.177132000000000    0.500000000000000 
P           0.635401000000000    0.971412000000000    0.000000000000000 
P           0.810732000000000    0.633599000000000    0.500000000000000 
P           0.822868000000000    0.189268000000000    0.500000000000000 
K           0.000000000000000    0.000000000000000    0.000000000000000 
K           0.333333000000000    0.666667000000000    0.000000000000000 
K           0.333333000000000    0.666667000000000    0.500000000000000 
K           0.666667000000000    0.333333000000000    0.000000000000000 
K           0.666667000000000    0.333333000000000    0.500000000000000 
%ENDBLOCK POSITIONS_FRAC
