# Cell file generated by matador (Matthew Evans 2016)

%BLOCK LATTICE_CART
8.21012 0.0 0.0
-4.10506 7.11017 0.0
0.0 0.0 7.68678
%ENDBLOCK LATTICE_CART

%BLOCK POSITIONS_FRAC
P           0.019574000000000    0.039148000000000    0.833333000000000 
P           0.019574000000000    0.980426000000000    0.166666000000000 
P           0.960852000000000    0.980426000000000    0.500000000000000 
K           0.150619000000000    0.301239000000000    0.333333000000000 
K           0.150619000000000    0.849381000000000    0.666666000000000 
K           0.196511000000000    0.393022000000000    0.833333000000000 
K           0.196511000000000    0.803489000000000    0.166666000000000 
K           0.583319000000000    0.166639000000000    0.333333000000000 
K           0.583319000000000    0.416681000000000    0.666666000000000 
K           0.606978000000000    0.803489000000000    0.500000000000000 
K           0.698761000000000    0.849381000000000   -0.000000000000000 
K           0.833361000000000    0.416681000000000   -0.000000000000000 
%ENDBLOCK POSITIONS_FRAC
