# Cell file generated by matador (Matthew Evans 2016)

%BLOCK LATTICE_CART
7.55284 0.0 0.0
-3.77642 6.54095 0.0
0.0 0.0 8.32091
%ENDBLOCK LATTICE_CART

%BLOCK POSITIONS_FRAC
P           0.000000000000000    0.000000000000000    0.000000000000000 
P           0.096054000000000    0.331383000000000    0.000000000000000 
P           0.235329000000000    0.903946000000000    0.000000000000000 
P           0.331383000000000    0.096054000000000    0.000000000000000 
P           0.668617000000000    0.764671000000000    0.000000000000000 
P           0.764671000000000    0.668617000000000    0.000000000000000 
P           0.903946000000000    0.235329000000000    0.000000000000000 
K           0.000000000000000    0.000000000000000    0.500000000000000 
K           0.000000000000000    0.587490000000000    0.000000000000000 
K           0.412510000000000    0.412510000000000    0.000000000000000 
K           0.587490000000000    0.000000000000000    0.000000000000000 
%ENDBLOCK POSITIONS_FRAC
