# Cell file generated by matador (Matthew Evans 2016)

%BLOCK LATTICE_CART
10.2274 0.0 0.0
0.0 10.2274 0.0
0.0 0.0 12.9941
%ENDBLOCK LATTICE_CART

%BLOCK POSITIONS_FRAC
P           0.000000000000000    0.500000000000000    0.201798000000000 
P           0.000000000000000    0.500000000000000    0.798202000000000 
P           0.142758000000000    0.357242000000000    0.000000000000000 
P           0.357242000000000    0.857242000000000    0.000000000000000 
P           0.500000000000000    0.000000000000000    0.201798000000000 
P           0.500000000000000    0.000000000000000    0.798202000000000 
P           0.642758000000000    0.142758000000000    0.000000000000000 
P           0.857242000000000    0.642758000000000    0.000000000000000 
K           0.019287000000000    0.231494000000000    0.500000000000000 
K           0.051761000000000    0.763357000000000    0.000000000000000 
K           0.136730000000000    0.636730000000000    0.317855000000000 
K           0.136730000000000    0.636730000000000    0.682145000000000 
K           0.231494000000000    0.980713000000000    0.500000000000000 
K           0.236643000000000    0.051761000000000    0.000000000000000 
K           0.263357000000000    0.551761000000000    0.000000000000000 
K           0.268506000000000    0.480713000000000    0.500000000000000 
K           0.363270000000000    0.136730000000000    0.317855000000000 
K           0.363270000000000    0.136730000000000    0.682145000000000 
K           0.448239000000000    0.263357000000000    0.000000000000000 
K           0.480713000000000    0.731494000000000    0.500000000000000 
K           0.519287000000000    0.268506000000000    0.500000000000000 
K           0.551761000000000    0.736643000000000    0.000000000000000 
K           0.636730000000000    0.863270000000000    0.317855000000000 
K           0.636730000000000    0.863270000000000    0.682145000000000 
K           0.731494000000000    0.519287000000000    0.500000000000000 
K           0.736643000000000    0.448239000000000    0.000000000000000 
K           0.763357000000000    0.948239000000000    0.000000000000000 
K           0.768506000000000    0.019287000000000    0.500000000000000 
K           0.863270000000000    0.363270000000000    0.317855000000000 
K           0.863270000000000    0.363270000000000    0.682145000000000 
K           0.948239000000000    0.236643000000000    0.000000000000000 
K           0.980713000000000    0.768506000000000    0.500000000000000 
%ENDBLOCK POSITIONS_FRAC
