# Cell file generated by matador (Matthew Evans 2016)

%BLOCK LATTICE_CART
7.80861 0.0 0.0
-3.9043 6.76245 0.0
0.0 0.0 7.01418
%ENDBLOCK LATTICE_CART

%BLOCK POSITIONS_FRAC
P           0.000000000000000    0.500000000000000    0.259413000000000 
P           0.333333000000000    0.666667000000000    0.458975000000000 
P           0.333333000000000    0.666667000000000    0.844968000000000 
P           0.500000000000000    0.000000000000000    0.259413000000000 
P           0.500000000000000    0.500000000000000    0.259413000000000 
P           0.666667000000000    0.333333000000000    0.458975000000000 
P           0.666667000000000    0.333333000000000    0.844968000000000 
K           0.000000000000000    0.000000000000000    0.584075000000000 
K           0.000000000000000    0.500000000000000    0.833162000000000 
K           0.500000000000000    0.000000000000000    0.833162000000000 
K           0.500000000000000    0.500000000000000    0.833162000000000 
%ENDBLOCK POSITIONS_FRAC
