# Cell file generated by matador (Matthew Evans 2016)

%BLOCK LATTICE_CART
5.5645 0.0 0.0
-2.78225 4.819 0.0
0.0 0.0 7.25424
%ENDBLOCK LATTICE_CART

%BLOCK POSITIONS_FRAC
P           0.666667000000000    0.333333000000000    0.099885000000000 
P           0.666667000000000    0.333333000000000    0.900115000000000 
K           0.000000000000000   -0.000000000000000    0.000000000000000 
K           0.000000000000000   -0.000000000000000    0.500000000000000 
K           0.333334000000000    0.666666000000000    0.000000000000000 
K           0.333334000000000    0.666666000000000    0.500000000000000 
K           0.666667000000000    0.333333000000000    0.500000000000000 
%ENDBLOCK POSITIONS_FRAC
