# Cell file generated by matador (Matthew Evans 2016)

%BLOCK LATTICE_CART
7.15431 0.0 0.0
0.0 8.92863 0.0
-1.3628 0.0 6.13225
%ENDBLOCK LATTICE_CART

%BLOCK POSITIONS_FRAC
P           0.000000000000000    0.696707000000000    0.500000000000000 
P           0.015201000000000    0.437076000000000    0.667804000000000 
P           0.500000000000000    0.030341000000000    0.500000000000000 
P           0.984799000000000    0.437076000000000    0.332196000000000 
K           0.000000000000000    0.090954000000000    0.500000000000000 
K           0.337856000000000    0.241417000000000    0.919302000000000 
K           0.415336000000000    0.724861000000000    0.774456000000000 
K           0.500000000000000    0.432578000000000    0.000000000000000 
K           0.500000000000000    0.982296000000000    0.000000000000000 
K           0.584664000000000    0.724861000000000    0.225544000000000 
K           0.662144000000000    0.241417000000000    0.080698000000000 
%ENDBLOCK POSITIONS_FRAC
