# Cell file generated by matador (Matthew Evans 2016)

%BLOCK LATTICE_CART
6.79999 0.0 0.0
0.0 6.79999 0.0
0.0 0.0 7.14433
%ENDBLOCK LATTICE_CART

%BLOCK POSITIONS_FRAC
P           0.000000000000000    0.000000000000000    0.398677000000000 
P           0.000000000000000    0.000000000000000    0.601323000000000 
P           0.000000000000000    0.367596000000000    0.500000000000000 
P           0.000000000000000    0.632404000000000    0.500000000000000 
P           0.132404000000000    0.500000000000000    0.000000000000000 
P           0.367596000000000    0.000000000000000    0.500000000000000 
P           0.500000000000000    0.132404000000000    0.000000000000000 
P           0.500000000000000    0.500000000000000    0.101323000000000 
P           0.500000000000000    0.500000000000000    0.898677000000000 
P           0.500000000000000    0.867596000000000    0.000000000000000 
P           0.632404000000000    0.000000000000000    0.500000000000000 
P           0.867596000000000    0.500000000000000    0.000000000000000 
K           0.000000000000000    0.500000000000000    0.250000000000000 
K           0.000000000000000    0.500000000000000    0.750000000000000 
K           0.500000000000000    0.000000000000000    0.250000000000000 
K           0.500000000000000    0.000000000000000    0.750000000000000 
%ENDBLOCK POSITIONS_FRAC
