# Cell file generated by matador (Matthew Evans 2016)

%BLOCK LATTICE_CART
7.85047 0.0 0.0
0.0 7.79918 0.0
0.0 0.0 9.84551
%ENDBLOCK LATTICE_CART

%BLOCK POSITIONS_FRAC
P          -0.000000000000000    0.282724000000000    0.500000000000000 
P          -0.000000000000000    0.329410000000000    0.000000000000000 
P          -0.000000000000000    0.500000000000000    0.000000000000000 
P          -0.000000000000000    0.670590000000000    0.000000000000000 
P          -0.000000000000000    0.717276000000000    0.500000000000000 
P           0.127381000000000    0.500000000000000    0.000000000000000 
P           0.372619000000000   -0.000000000000000    0.000000000000000 
P           0.500000000000000   -0.000000000000000    0.000000000000000 
P           0.500000000000000    0.170590000000000    0.000000000000000 
P           0.500000000000000    0.217276000000000    0.500000000000000 
P           0.500000000000000    0.782724000000000    0.500000000000000 
P           0.500000000000000    0.829410000000000    0.000000000000000 
P           0.627381000000000   -0.000000000000000    0.000000000000000 
P           0.872619000000000    0.500000000000000    0.000000000000000 
K          -0.000000000000000   -0.000000000000000    0.500000000000000 
K           0.500000000000000    0.500000000000000    0.500000000000000 
%ENDBLOCK POSITIONS_FRAC
