# Cell file generated by matador (Matthew Evans 2016)

%BLOCK LATTICE_CART
8.08966 -0.0 0.0
-4.04483 7.00585 0.0
0.0 0.0 8.26553
%ENDBLOCK LATTICE_CART

%BLOCK POSITIONS_FRAC
P          -0.000000000000000    0.500000000000000    0.009977000000000 
P           0.500000000000000   -0.000000000000000    0.009977000000000 
P           0.500000000000000    0.500000000000000    0.009977000000000 
K          -0.000000000000000    0.500000000000000    0.765184000000000 
K           0.026281000000000    0.702124000000000    0.459510000000000 
K           0.297876000000000    0.324157000000000    0.459510000000000 
K           0.324157000000000    0.026281000000000    0.459510000000000 
K           0.500000000000000   -0.000000000000000    0.765184000000000 
K           0.500000000000000    0.500000000000000    0.765184000000000 
K           0.675843000000000    0.973719000000000    0.459510000000000 
K           0.702124000000000    0.675843000000000    0.459510000000000 
K           0.973719000000000    0.297876000000000    0.459510000000000 
%ENDBLOCK POSITIONS_FRAC
