# Cell file generated by matador (Matthew Evans 2016)

%BLOCK LATTICE_CART
7.39027 0.0 0.0
0.0 14.0769 0.0
0.0 0.0 9.02215
%ENDBLOCK LATTICE_CART

%BLOCK POSITIONS_FRAC
P           0.000000000000000    0.000000000000000    0.000000000000000 
P           0.000000000000000    0.000000000000000    0.500000000000000 
P           0.000000000000000    0.500000000000000    0.500000000000000 
P           0.500000000000000    0.000000000000000    0.500000000000000 
P           0.500000000000000    0.500000000000000    0.000000000000000 
P           0.500000000000000    0.500000000000000    0.500000000000000 
K           0.000000000000000    0.244262000000000    0.187975000000000 
K           0.000000000000000    0.244262000000000    0.812025000000000 
K           0.000000000000000    0.500000000000000    0.000000000000000 
K           0.000000000000000    0.755738000000000    0.187975000000000 
K           0.000000000000000    0.755738000000000    0.812025000000000 
K           0.214425000000000    0.500000000000000    0.303923000000000 
K           0.214425000000000    0.500000000000000    0.696077000000000 
K           0.285575000000000    0.000000000000000    0.303923000000000 
K           0.285575000000000    0.000000000000000    0.696077000000000 
K           0.500000000000000    0.000000000000000    0.000000000000000 
K           0.500000000000000    0.255738000000000    0.187975000000000 
K           0.500000000000000    0.255738000000000    0.812025000000000 
K           0.500000000000000    0.744262000000000    0.187975000000000 
K           0.500000000000000    0.744262000000000    0.812025000000000 
K           0.714425000000000    0.000000000000000    0.303923000000000 
K           0.714425000000000    0.000000000000000    0.696077000000000 
K           0.785575000000000    0.500000000000000    0.303923000000000 
K           0.785575000000000    0.500000000000000    0.696077000000000 
%ENDBLOCK POSITIONS_FRAC
