# Cell file generated by matador (Matthew Evans 2016)

%BLOCK LATTICE_CART
7.68244 0.0 0.0
0.0 7.68244 0.0
0.0 0.0 7.68244
%ENDBLOCK LATTICE_CART

%BLOCK POSITIONS_FRAC
P           0.000000000000000    0.500000000000000    0.500000000000000 
P           0.500000000000000    0.000000000000000    0.500000000000000 
P           0.500000000000000    0.500000000000000    0.000000000000000 
K           0.084844000000000    0.292983000000000    0.707017000000000 
K           0.084844000000000    0.707017000000000    0.292983000000000 
K           0.292983000000000    0.084844000000000    0.707017000000000 
K           0.292983000000000    0.292983000000000    0.915156000000000 
K           0.292983000000000    0.707017000000000    0.084844000000000 
K           0.292983000000000    0.915156000000000    0.292983000000000 
K           0.707017000000000    0.084844000000000    0.292983000000000 
K           0.707017000000000    0.292983000000000    0.084844000000000 
K           0.707017000000000    0.707017000000000    0.915156000000000 
K           0.707017000000000    0.915156000000000    0.707017000000000 
K           0.915156000000000    0.292983000000000    0.292983000000000 
K           0.915156000000000    0.707017000000000    0.707017000000000 
%ENDBLOCK POSITIONS_FRAC
