# Cell file generated by matador (Matthew Evans 2016)

%BLOCK LATTICE_CART
4.64697 0.0 0.0
-2.32349 4.0244 0.0
0.0 0.0 4.71055
%ENDBLOCK LATTICE_CART

%BLOCK POSITIONS_FRAC
P           0.000000000000000    0.500000000000000    0.359902000000000 
P           0.500000000000000    0.000000000000000    0.359902000000000 
P           0.500000000000000    0.500000000000000    0.359902000000000 
K           0.000000000000000    0.000000000000000    0.044501000000000 
%ENDBLOCK POSITIONS_FRAC
