# Cell file generated by matador (Matthew Evans 2016)

%BLOCK LATTICE_CART
5.58549 0.0 0.0
0.0 5.58549 0.0
0.0 0.0 12.6122
%ENDBLOCK LATTICE_CART

%BLOCK POSITIONS_FRAC
P           0.000000000000000    0.000000000000000    0.000000000000000 
P           0.000000000000000    0.000000000000000    0.500000000000000 
P           0.000000000000000    0.500000000000000    0.271888000000000 
P           0.000000000000000    0.500000000000000    0.393314000000000 
P           0.500000000000000    0.000000000000000    0.606686000000000 
P           0.500000000000000    0.000000000000000    0.728112000000000 
P           0.500000000000000    0.500000000000000    0.363356000000000 
P           0.500000000000000    0.500000000000000    0.636644000000000 
K           0.000000000000000    0.500000000000000    0.074006000000000 
K           0.247182000000000    0.358685000000000    0.968657000000000 
K           0.358685000000000    0.752818000000000    0.031343000000000 
K           0.500000000000000    0.000000000000000    0.925994000000000 
K           0.641315000000000    0.247182000000000    0.031343000000000 
K           0.752818000000000    0.641315000000000    0.968657000000000 
%ENDBLOCK POSITIONS_FRAC
