# Cell file generated by matador (Matthew Evans 2016)

%BLOCK LATTICE_CART
9.72466 0.0 0.0
-4.86233 8.4218 0.0
0.0 0.0 10.2443
%ENDBLOCK LATTICE_CART

%BLOCK POSITIONS_FRAC
P           0.000000000000000    0.500000000000000    0.000000000000000 
P           0.333333000000000    0.666667000000000    0.512971000000000 
P           0.500000000000000    0.000000000000000    0.000000000000000 
P           0.500000000000000    0.500000000000000    0.000000000000000 
P           0.666667000000000    0.333333000000000    0.487029000000000 
K           0.000000000000000    0.500000000000000    0.500000000000000 
K           0.111610000000000    0.223220000000000    0.206104000000000 
K           0.111610000000000    0.888390000000000    0.206104000000000 
K           0.186092000000000    0.372184000000000    0.921717000000000 
K           0.186092000000000    0.813908000000000    0.921717000000000 
K           0.223220000000000    0.111610000000000    0.793896000000000 
K           0.372184000000000    0.186092000000000    0.078283000000000 
K           0.500000000000000    0.000000000000000    0.500000000000000 
K           0.500000000000000    0.500000000000000    0.500000000000000 
K           0.627816000000000    0.813908000000000    0.921717000000000 
K           0.776780000000000    0.888390000000000    0.206104000000000 
K           0.813908000000000    0.186092000000000    0.078283000000000 
K           0.813908000000000    0.627816000000000    0.078283000000000 
K           0.888390000000000    0.111610000000000    0.793896000000000 
K           0.888390000000000    0.776780000000000    0.793896000000000 
%ENDBLOCK POSITIONS_FRAC
