# Cell file generated by matador (Matthew Evans 2016)

%BLOCK LATTICE_CART
7.48474 0.0 0.0
0.0 6.35612 0.0
1.02423 0.0 10.9814
%ENDBLOCK LATTICE_CART

%BLOCK POSITIONS_FRAC
P           0.000000000000000    0.000000000000000    0.000000000000000 
P           0.000000000000000    0.000000000000000    0.500000000000000 
P           0.000000000000000    0.500000000000000    0.500000000000000 
P           0.213166000000000    0.222105000000000    0.126733000000000 
P           0.213166000000000    0.777895000000000    0.126733000000000 
P           0.286834000000000    0.277895000000000    0.873267000000000 
P           0.286834000000000    0.722105000000000    0.873267000000000 
P           0.500000000000000    0.000000000000000    0.500000000000000 
P           0.500000000000000    0.500000000000000    0.000000000000000 
P           0.500000000000000    0.500000000000000    0.500000000000000 
P           0.713166000000000    0.277895000000000    0.126733000000000 
P           0.713166000000000    0.722105000000000    0.126733000000000 
P           0.786834000000000    0.222105000000000    0.873267000000000 
P           0.786834000000000    0.777895000000000    0.873267000000000 
K           0.250000000000000    0.250000000000000    0.500000000000000 
K           0.250000000000000    0.750000000000000    0.500000000000000 
K           0.750000000000000    0.250000000000000    0.500000000000000 
K           0.750000000000000    0.750000000000000    0.500000000000000 
%ENDBLOCK POSITIONS_FRAC
