# Cell file generated by matador (Matthew Evans 2016)

%BLOCK LATTICE_CART
7.50125 0.0 0.0
0.0 8.74045 0.0
0.0 0.0 4.88343
%ENDBLOCK LATTICE_CART

%BLOCK POSITIONS_FRAC
P           0.000000000000000    0.621119000000000    0.059131000000000 
P           0.192361000000000    0.422458000000000    0.598139000000000 
P           0.307639000000000    0.577542000000000    0.098139000000000 
P           0.500000000000000    0.378881000000000    0.559131000000000 
P           0.692361000000000    0.577542000000000    0.098139000000000 
P           0.807639000000000    0.422458000000000    0.598139000000000 
K           0.000000000000000    0.076594000000000    0.145865000000000 
K           0.000000000000000    0.400688000000000    0.235357000000000 
K           0.500000000000000    0.599312000000000    0.735357000000000 
K           0.500000000000000    0.923406000000000    0.645865000000000 
%ENDBLOCK POSITIONS_FRAC
