# Cell file generated by matador (Matthew Evans 2016)

%BLOCK LATTICE_CART
9.66121 0.0 0.0
0.0 7.24967 0.0
0.068716 0.0 6.58055
%ENDBLOCK LATTICE_CART

%BLOCK POSITIONS_FRAC
P           0.000000000000000    0.581823000000000    0.500000000000000 
P           0.432908000000000    0.703007000000000    0.986786000000000 
P           0.500000000000000    0.085741000000000    0.500000000000000 
P           0.500000000000000    0.307252000000000    0.000000000000000 
P           0.500000000000000    0.991104000000000    0.000000000000000 
P           0.567092000000000    0.703007000000000    0.013214000000000 
K           0.000000000000000    0.132553000000000    0.000000000000000 
K           0.094431000000000    0.045195000000000    0.651414000000000 
K           0.106744000000000    0.763137000000000    0.906716000000000 
K           0.212364000000000    0.389795000000000    0.283390000000000 
K           0.500000000000000    0.547651000000000    0.500000000000000 
K           0.787636000000000    0.389795000000000    0.716610000000000 
K           0.893256000000000    0.763137000000000    0.093284000000000 
K           0.905569000000000    0.045195000000000    0.348586000000000 
%ENDBLOCK POSITIONS_FRAC
