# Cell file generated by matador (Matthew Evans 2016)

%BLOCK LATTICE_CART
18.1005 0.0 0.0
0.0 9.62812 0.0
0.0 0.0 6.8715
%ENDBLOCK LATTICE_CART

%BLOCK POSITIONS_FRAC
P           0.000000000000000    0.250000000000000    0.240445000000000 
P           0.000000000000000    0.250000000000000    0.740445000000000 
P           0.000000000000000    0.750000000000000    0.259555000000000 
P           0.000000000000000    0.750000000000000    0.759555000000000 
P           0.500000000000000    0.250000000000000    0.259555000000000 
P           0.500000000000000    0.250000000000000    0.759555000000000 
P           0.500000000000000    0.750000000000000    0.240445000000000 
P           0.500000000000000    0.750000000000000    0.740445000000000 
K           0.000000000000000    0.000000000000000    0.000000000000000 
K           0.000000000000000    0.000000000000000    0.500000000000000 
K           0.000000000000000    0.500000000000000    0.000000000000000 
K           0.000000000000000    0.500000000000000    0.500000000000000 
K           0.153575000000000    0.000000000000000    0.750000000000000 
K           0.153575000000000    0.500000000000000    0.250000000000000 
K           0.250000000000000    0.250000000000000    0.250000000000000 
K           0.250000000000000    0.250000000000000    0.750000000000000 
K           0.250000000000000    0.750000000000000    0.250000000000000 
K           0.250000000000000    0.750000000000000    0.750000000000000 
K           0.346425000000000    0.000000000000000    0.250000000000000 
K           0.346425000000000    0.500000000000000    0.750000000000000 
K           0.500000000000000    0.000000000000000    0.000000000000000 
K           0.500000000000000    0.000000000000000    0.500000000000000 
K           0.500000000000000    0.500000000000000    0.000000000000000 
K           0.500000000000000    0.500000000000000    0.500000000000000 
K           0.653575000000000    0.000000000000000    0.750000000000000 
K           0.653575000000000    0.500000000000000    0.250000000000000 
K           0.750000000000000    0.250000000000000    0.250000000000000 
K           0.750000000000000    0.250000000000000    0.750000000000000 
K           0.750000000000000    0.750000000000000    0.250000000000000 
K           0.750000000000000    0.750000000000000    0.750000000000000 
K           0.846425000000000    0.000000000000000    0.250000000000000 
K           0.846425000000000    0.500000000000000    0.750000000000000 
%ENDBLOCK POSITIONS_FRAC
