# Cell file generated by matador (Matthew Evans 2016)

%BLOCK LATTICE_CART
8.6177 -0.0 0.0
-4.30885 7.46314 0.0
0.0 0.0 10.1643
%ENDBLOCK LATTICE_CART

%BLOCK POSITIONS_FRAC
P           0.000000000000000    0.000000000000000    0.000000000000000 
P           0.000000000000000    0.000000000000000    0.500000000000000 
P           0.333333000000000    0.666667000000000    0.000000000000000 
P           0.333333000000000    0.666667000000000    0.500000000000000 
K           0.125610000000000    0.409684000000000    0.500000000000000 
K           0.239107000000000    0.197593000000000    0.000000000000000 
K           0.284073000000000    0.874390000000000    0.500000000000000 
K           0.431496000000000    0.292862000000000    0.500000000000000 
K           0.448965000000000    0.011370000000000    0.000000000000000 
K           0.562406000000000    0.551035000000000    0.000000000000000 
K           0.590316000000000    0.715927000000000    0.500000000000000 
K           0.707138000000000    0.138634000000000    0.500000000000000 
K           0.802407000000000    0.041514000000000    0.000000000000000 
K           0.861366000000000    0.568504000000000    0.500000000000000 
K           0.958486000000000    0.760893000000000    0.000000000000000 
K           0.988630000000000    0.437594000000000    0.000000000000000 
%ENDBLOCK POSITIONS_FRAC
