# Cell file generated by matador (Matthew Evans 2016)

%BLOCK LATTICE_CART
4.96062 0.0 0.0
0.0 9.02344 0.0
0.0 0.0 7.2827
%ENDBLOCK LATTICE_CART

%BLOCK POSITIONS_FRAC
P           0.000000000000000    0.079286000000000    0.926274000000000 
P           0.000000000000000    0.920714000000000    0.426274000000000 
K           0.000000000000000    0.237474000000000    0.667418000000000 
K           0.000000000000000    0.762526000000000    0.167418000000000 
K           0.500000000000000    0.052360000000000    0.278335000000000 
K           0.500000000000000    0.456499000000000    0.899198000000000 
K           0.500000000000000    0.543501000000000    0.399198000000000 
K           0.500000000000000    0.947640000000000    0.778335000000000 
%ENDBLOCK POSITIONS_FRAC
