# Cell file generated by matador (Matthew Evans 2016)

%BLOCK LATTICE_CART
7.07347 0.0 0.0
0.0 10.0151 0.0
0.0 0.0 9.67191
%ENDBLOCK LATTICE_CART

%BLOCK POSITIONS_FRAC
P           0.000000000000000    0.000000000000000    0.000000000000000 
P           0.000000000000000    0.000000000000000    0.500000000000000 
P           0.500000000000000    0.500000000000000    0.000000000000000 
P           0.500000000000000    0.500000000000000    0.500000000000000 
K           0.000000000000000    0.500000000000000    0.000000000000000 
K           0.000000000000000    0.500000000000000    0.500000000000000 
K           0.010381000000000    0.200345000000000    0.500000000000000 
K           0.037051000000000    0.201527000000000    0.000000000000000 
K           0.462949000000000    0.701527000000000    0.000000000000000 
K           0.489619000000000    0.700345000000000    0.500000000000000 
K           0.500000000000000    0.000000000000000    0.000000000000000 
K           0.500000000000000    0.000000000000000    0.500000000000000 
K           0.510381000000000    0.299655000000000    0.500000000000000 
K           0.537051000000000    0.298473000000000    0.000000000000000 
K           0.962949000000000    0.798473000000000    0.000000000000000 
K           0.989619000000000    0.799655000000000    0.500000000000000 
%ENDBLOCK POSITIONS_FRAC
