# Cell file generated by matador (Matthew Evans 2016)

%BLOCK LATTICE_CART
8.86448 0.0 0.0
0.0 10.8035 0.0
0.0 0.0 6.45334
%ENDBLOCK LATTICE_CART

%BLOCK POSITIONS_FRAC
P           0.250000000000000    0.269044000000000    0.500000000000000 
P           0.250000000000000    0.730956000000000   -0.000000000000000 
P           0.750000000000000    0.230956000000000    0.500000000000000 
P           0.750000000000000    0.769044000000000   -0.000000000000000 
K           0.000000000000000    0.250000000000000    0.076085000000000 
K           0.000000000000000    0.750000000000000    0.423915000000000 
K           0.052024000000000    0.500000000000000    0.750000000000000 
K           0.250000000000000    0.041611000000000   -0.000000000000000 
K           0.250000000000000    0.495334000000000    0.500000000000000 
K           0.250000000000000    0.504666000000000   -0.000000000000000 
K           0.250000000000000    0.958389000000000    0.500000000000000 
K           0.447976000000000    0.500000000000000    0.250000000000000 
K           0.500000000000000    0.250000000000000    0.923915000000000 
K           0.500000000000000    0.750000000000000    0.576085000000000 
K           0.552024000000000   -0.000000000000000    0.250000000000000 
K           0.750000000000000    0.004666000000000    0.500000000000000 
K           0.750000000000000    0.458389000000000   -0.000000000000000 
K           0.750000000000000    0.541611000000000    0.500000000000000 
K           0.750000000000000    0.995334000000000   -0.000000000000000 
K           0.947976000000000   -0.000000000000000    0.750000000000000 
%ENDBLOCK POSITIONS_FRAC
