# Cell file generated by matador (Matthew Evans 2016)

%BLOCK LATTICE_CART
7.36871 0.0 0.0
0.0 8.27356 0.0
0.0 0.0 5.61042
%ENDBLOCK LATTICE_CART

%BLOCK POSITIONS_FRAC
P           0.119751000000000    0.000000000000000    0.000000000000000 
P           0.880249000000000    0.000000000000000    0.500000000000000 
K           0.000000000000000    0.136204000000000    0.750000000000000 
K           0.000000000000000    0.863796000000000    0.250000000000000 
K           0.171904000000000    0.500000000000000    0.500000000000000 
K           0.500000000000000    0.334746000000000    0.750000000000000 
K           0.500000000000000    0.665254000000000    0.250000000000000 
K           0.828096000000000    0.500000000000000    0.000000000000000 
%ENDBLOCK POSITIONS_FRAC
