# Cell file generated by matador (Matthew Evans 2016)

%BLOCK LATTICE_CART
10.2884 0.0 0.0
-5.1442 8.91001 0.0
0.0 0.0 7.82164
%ENDBLOCK LATTICE_CART

%BLOCK POSITIONS_FRAC
P           0.031599000000000    0.515800000000000    0.884440000000000 
P           0.484200000000000    0.515800000000000    0.884440000000000 
P           0.484200000000000    0.968401000000000    0.884440000000000 
P           0.666666000000000    0.333334000000000    0.293222000000000 
P           0.666666000000000    0.333334000000000    0.886270000000000 
K           0.207073000000000    0.103537000000000    0.738194000000000 
K           0.213716000000000    0.427432000000000    0.104414000000000 
K           0.213716000000000    0.786284000000000    0.104414000000000 
K           0.217930000000000    0.435861000000000    0.531274000000000 
K           0.217930000000000    0.782070000000000    0.531274000000000 
K           0.425666000000000    0.212833000000000    0.170682000000000 
K           0.551440000000000    0.102881000000000    0.560369000000000 
K           0.551440000000000    0.448560000000000    0.560369000000000 
K           0.564139000000000    0.782070000000000    0.531274000000000 
K           0.572568000000000    0.786284000000000    0.104414000000000 
K           0.787167000000000    0.212833000000000    0.170682000000000 
K           0.787167000000000    0.574334000000000    0.170682000000000 
K           0.896463000000000    0.103537000000000    0.738194000000000 
K           0.896463000000000    0.792927000000000    0.738194000000000 
K           0.897119000000000    0.448560000000000    0.560369000000000 
%ENDBLOCK POSITIONS_FRAC
