# Cell file generated by matador (Matthew Evans 2016)

%BLOCK LATTICE_CART
10.0187 0.0 0.0
-5.00937 8.67648 0.0
0.0 0.0 7.25079
%ENDBLOCK LATTICE_CART

%BLOCK POSITIONS_FRAC
P           0.000000000000000    0.000000000000000    0.235432000000000 
P           0.000000000000000    0.000000000000000    0.764568000000000 
K           0.000000000000000    0.365210000000000    0.218787000000000 
K           0.000000000000000    0.365210000000000    0.781213000000000 
K           0.000000000000000    0.752941000000000    0.212849000000000 
K           0.000000000000000    0.752941000000000    0.787151000000000 
K           0.247059000000000    0.247059000000000    0.212849000000000 
K           0.247059000000000    0.247059000000000    0.787151000000000 
K           0.333333000000000    0.666667000000000    0.000000000000000 
K           0.365210000000000    0.000000000000000    0.218787000000000 
K           0.365210000000000    0.000000000000000    0.781213000000000 
K           0.634790000000000    0.634790000000000    0.218787000000000 
K           0.634790000000000    0.634790000000000    0.781213000000000 
K           0.666667000000000    0.333333000000000    0.000000000000000 
K           0.752941000000000    0.000000000000000    0.212849000000000 
K           0.752941000000000    0.000000000000000    0.787151000000000 
%ENDBLOCK POSITIONS_FRAC
