# Cell file generated by matador (Matthew Evans 2016)

%BLOCK LATTICE_CART
14.6355 0.0 0.0
0.0 7.30619 0.0
0.0 0.0 9.63279
%ENDBLOCK LATTICE_CART

%BLOCK POSITIONS_FRAC
P           0.000000000000000    0.000000000000000    0.106655000000000 
P           0.000000000000000    0.145150000000000    0.838003000000000 
P           0.000000000000000    0.854850000000000    0.838003000000000 
P           0.500000000000000    0.354850000000000    0.838003000000000 
P           0.500000000000000    0.500000000000000    0.106655000000000 
P           0.500000000000000    0.645150000000000    0.838003000000000 
K           0.000000000000000    0.288390000000000    0.297071000000000 
K           0.000000000000000    0.500000000000000    0.723867000000000 
K           0.000000000000000    0.711610000000000    0.297071000000000 
K           0.169888000000000    0.000000000000000    0.345520000000000 
K           0.184866000000000    0.000000000000000    0.868775000000000 
K           0.250000000000000    0.250000000000000    0.128987000000000 
K           0.250000000000000    0.750000000000000    0.128987000000000 
K           0.315134000000000    0.500000000000000    0.868775000000000 
K           0.330112000000000    0.500000000000000    0.345520000000000 
K           0.500000000000000    0.000000000000000    0.723867000000000 
K           0.500000000000000    0.211610000000000    0.297071000000000 
K           0.500000000000000    0.788390000000000    0.297071000000000 
K           0.669888000000000    0.500000000000000    0.345520000000000 
K           0.684866000000000    0.500000000000000    0.868775000000000 
K           0.750000000000000    0.250000000000000    0.128987000000000 
K           0.750000000000000    0.750000000000000    0.128987000000000 
K           0.815134000000000    0.000000000000000    0.868775000000000 
K           0.830112000000000    0.000000000000000    0.345520000000000 
%ENDBLOCK POSITIONS_FRAC
