# Cell file generated by matador (Matthew Evans 2016)

%BLOCK LATTICE_CART
7.67576 0.0 0.0
0.0 7.67576 0.0
0.0 0.0 6.46128
%ENDBLOCK LATTICE_CART

%BLOCK POSITIONS_FRAC
P           0.000000000000000    0.000000000000000    0.263085000000000 
P           0.500000000000000    0.500000000000000    0.763085000000000 
K           0.193339000000000    0.193339000000000    0.317098000000000 
K           0.206269000000000    0.793731000000000    0.436208000000000 
K           0.293731000000000    0.293731000000000    0.936208000000000 
K           0.306661000000000    0.693339000000000    0.817098000000000 
K           0.693339000000000    0.306661000000000    0.817098000000000 
K           0.706269000000000    0.706269000000000    0.936208000000000 
K           0.793731000000000    0.206269000000000    0.436208000000000 
K           0.806661000000000    0.806661000000000    0.317098000000000 
%ENDBLOCK POSITIONS_FRAC
