# Cell file generated by matador (Matthew Evans 2016)

%BLOCK LATTICE_CART
8.56129 0.0 0.0
-4.28064 7.41429 0.0
0.0 0.0 7.54521
%ENDBLOCK LATTICE_CART

%BLOCK POSITIONS_FRAC
P          -0.000000000000000   -0.000000000000000    0.569803000000000 
P           0.163045000000000    0.452677000000000    0.268015000000000 
P           0.213990000000000    0.043702000000000    0.601348000000000 
P           0.289631000000000    0.836955000000000    0.268015000000000 
P           0.333333000000000    0.666667000000000    0.236469000000000 
P           0.496379000000000    0.119343000000000    0.934682000000000 
P           0.547323000000000    0.710369000000000    0.268015000000000 
P           0.622965000000000    0.503621000000000    0.934682000000000 
P           0.666667000000000    0.333333000000000    0.903136000000000 
P           0.829712000000000    0.786010000000000    0.601348000000000 
P           0.880657000000000    0.377035000000000    0.934682000000000 
P           0.956298000000000    0.170288000000000    0.601348000000000 
K          -0.000000000000000   -0.000000000000000    0.867924000000000 
K           0.333333000000000    0.666667000000000    0.534591000000000 
K           0.666667000000000    0.333333000000000    0.201258000000000 
%ENDBLOCK POSITIONS_FRAC
