# Cell file generated by matador (Matthew Evans 2016)

%BLOCK LATTICE_CART
6.21485 0.0 0.0
0.0 6.21485 0.0
0.0 0.0 6.03594
%ENDBLOCK LATTICE_CART

%BLOCK POSITIONS_FRAC
P           0.000000000000000    0.314142000000000    0.184909000000000 
P           0.000000000000000    0.314142000000000    0.815091000000000 
P           0.000000000000000    0.685858000000000    0.184909000000000 
P           0.000000000000000    0.685858000000000    0.815091000000000 
P           0.314142000000000    0.000000000000000    0.315091000000000 
P           0.314142000000000    0.000000000000000    0.684909000000000 
P           0.685858000000000    0.000000000000000    0.315091000000000 
P           0.685858000000000    0.000000000000000    0.684909000000000 
K           0.000000000000000    0.000000000000000    0.000000000000000 
K           0.000000000000000    0.000000000000000    0.500000000000000 
%ENDBLOCK POSITIONS_FRAC
