# Cell file generated by matador (Matthew Evans 2016)

%BLOCK LATTICE_CART
6.11087 0.0 0.0
-3.05544 5.29217 0.0
0.0 0.0 13.9439
%ENDBLOCK LATTICE_CART

%BLOCK POSITIONS_FRAC
P           0.000000000000000    0.000000000000000    0.155202000000000 
P           0.333333000000000    0.666667000000000    0.084524000000000 
P           0.333333000000000    0.666667000000000    0.330975000000000 
P           0.333333000000000    0.666667000000000    0.458704000000000 
P           0.526471000000000    0.052941000000000    0.910415000000000 
P           0.526471000000000    0.473529000000000    0.910415000000000 
P           0.666667000000000    0.333333000000000    0.096929000000000 
P           0.947059000000000    0.473529000000000    0.910415000000000 
K           0.000000000000000    0.000000000000000    0.826586000000000 
K           0.400780000000000    0.200390000000000    0.712125000000000 
K           0.799610000000000    0.200390000000000    0.712125000000000 
K           0.799610000000000    0.599220000000000    0.712125000000000 
%ENDBLOCK POSITIONS_FRAC
