# Cell file generated by matador (Matthew Evans 2016)

%BLOCK LATTICE_CART
10.9156 0.0 0.0
0.0 7.39243 0.0
0.0 0.0 7.30683
%ENDBLOCK LATTICE_CART

%BLOCK POSITIONS_FRAC
P           0.000000000000000   -0.000000000000000    0.938389000000000 
P           0.000000000000000    0.500000000000000    0.439007000000000 
P           0.500000000000000   -0.000000000000000    0.439007000000000 
P           0.500000000000000    0.500000000000000    0.938389000000000 
K           0.000000000000000    0.286521000000000    0.999951000000000 
K           0.000000000000000    0.713479000000000    0.999951000000000 
K           0.164364000000000    0.500000000000000    0.608648000000000 
K           0.227804000000000   -0.000000000000000    0.165359000000000 
K           0.272196000000000    0.500000000000000    0.165359000000000 
K           0.335636000000000   -0.000000000000000    0.608648000000000 
K           0.500000000000000    0.213479000000000    0.999951000000000 
K           0.500000000000000    0.786521000000000    0.999951000000000 
K           0.664364000000000   -0.000000000000000    0.608648000000000 
K           0.727804000000000    0.500000000000000    0.165359000000000 
K           0.772196000000000   -0.000000000000000    0.165359000000000 
K           0.835636000000000    0.500000000000000    0.608648000000000 
%ENDBLOCK POSITIONS_FRAC
