# Cell file generated by matador (Matthew Evans 2016)

%BLOCK LATTICE_CART
6.6474 0.0 0.0
0.0 9.99931 0.0
-0.984149 0.0 5.97682
%ENDBLOCK LATTICE_CART

%BLOCK POSITIONS_FRAC
P           0.154240000000000    0.500000000000000    0.104336000000000 
P           0.680404000000000    0.000000000000000    0.303364000000000 
P           0.763454000000000    0.500000000000000    0.392221000000000 
P           0.904881000000000    0.104948000000000    0.815173000000000 
P           0.904881000000000    0.895052000000000    0.815173000000000 
K           0.007794000000000    0.130876000000000    0.394301000000000 
K           0.007794000000000    0.869124000000000    0.394301000000000 
K           0.325647000000000    0.000000000000000    0.077366000000000 
K           0.456579000000000    0.000000000000000    0.541792000000000 
K           0.473272000000000    0.500000000000000    0.186123000000000 
K           0.578972000000000    0.346505000000000    0.769127000000000 
K           0.578972000000000    0.653495000000000    0.769127000000000 
%ENDBLOCK POSITIONS_FRAC
