# Cell file generated by matador (Matthew Evans 2016)

%BLOCK LATTICE_CART
5.19853 0.0 0.0
5.10952 11.4964 0.0
-1.43711 0.351293 6.49517
%ENDBLOCK LATTICE_CART

%BLOCK POSITIONS_FRAC
P           0.073974000000000    0.541490000000000    0.597325000000000 
P           0.263931000000000    0.009981000000000    0.211091000000000 
P           0.736069000000000    0.990019000000000    0.788909000000000 
P           0.926026000000000    0.458510000000000    0.402675000000000 
K           0.000000000000000    0.500000000000000    0.000000000000000 
K           0.305667000000000    0.915933000000000    0.746579000000000 
K           0.500000000000000    0.000000000000000    0.000000000000000 
K           0.500000000000000    0.000000000000000    0.500000000000000 
K           0.500000000000000    0.500000000000000    0.000000000000000 
K           0.500000000000000    0.500000000000000    0.500000000000000 
K           0.694333000000000    0.084067000000000    0.253421000000000 
%ENDBLOCK POSITIONS_FRAC
