# Cell file generated by matador (Matthew Evans 2016)

%BLOCK LATTICE_CART
9.05324 0.0 0.0
-4.52662 7.84033 0.0
0.0 0.0 9.74198
%ENDBLOCK LATTICE_CART

%BLOCK POSITIONS_FRAC
P           0.000000000000000    0.000000000000000    0.000000000000000 
P           0.333333000000000    0.666667000000000    0.000000000000000 
P           0.666667000000000    0.333333000000000    0.000000000000000 
K           0.000000000000000    0.500000000000000    0.500000000000000 
K           0.013782000000000    0.786969000000000    0.000000000000000 
K           0.096612000000000    0.618463000000000    0.000000000000000 
K           0.213031000000000    0.226813000000000    0.000000000000000 
K           0.226813000000000    0.013782000000000    0.000000000000000 
K           0.381537000000000    0.478149000000000    0.000000000000000 
K           0.478149000000000    0.096612000000000    0.000000000000000 
K           0.500000000000000    0.000000000000000    0.500000000000000 
K           0.500000000000000    0.500000000000000    0.500000000000000 
K           0.521851000000000    0.903388000000000    0.000000000000000 
K           0.618463000000000    0.521851000000000    0.000000000000000 
K           0.773187000000000    0.986218000000000    0.000000000000000 
K           0.786969000000000    0.773187000000000    0.000000000000000 
K           0.903388000000000    0.381537000000000    0.000000000000000 
K           0.986218000000000    0.213031000000000    0.000000000000000 
%ENDBLOCK POSITIONS_FRAC
