# Cell file generated by matador (Matthew Evans 2016)

%BLOCK LATTICE_CART
13.3785 0.0 0.0
0.0 5.16409 0.0
0.0 0.0 9.40478
%ENDBLOCK LATTICE_CART

%BLOCK POSITIONS_FRAC
P           0.000000000000000    0.171825000000000    0.750000000000000 
P           0.000000000000000    0.828175000000000    0.250000000000000 
P           0.500000000000000    0.328175000000000    0.250000000000000 
P           0.500000000000000    0.671825000000000    0.750000000000000 
K           0.000000000000000    0.500000000000000    0.000000000000000 
K           0.000000000000000    0.500000000000000    0.500000000000000 
K           0.138402000000000    0.321866000000000    0.750000000000000 
K           0.138402000000000    0.678134000000000    0.250000000000000 
K           0.361598000000000    0.178134000000000    0.250000000000000 
K           0.361598000000000    0.821866000000000    0.750000000000000 
K           0.500000000000000    0.000000000000000    0.000000000000000 
K           0.500000000000000    0.000000000000000    0.500000000000000 
K           0.638402000000000    0.178134000000000    0.250000000000000 
K           0.638402000000000    0.821866000000000    0.750000000000000 
K           0.861598000000000    0.321866000000000    0.750000000000000 
K           0.861598000000000    0.678134000000000    0.250000000000000 
%ENDBLOCK POSITIONS_FRAC
