# Cell file generated by matador (Matthew Evans 2016)

%BLOCK LATTICE_CART
7.15875 0.0 0.0
0.0 7.15875 0.0
0.0 0.0 7.37129
%ENDBLOCK LATTICE_CART

%BLOCK POSITIONS_FRAC
P           0.185733000000000    0.291300000000000    0.000000000000000 
P           0.208700000000000    0.685733000000000    0.500000000000000 
P           0.291300000000000    0.185733000000000    0.000000000000000 
P           0.314267000000000    0.791300000000000    0.500000000000000 
P           0.685733000000000    0.208700000000000    0.500000000000000 
P           0.708700000000000    0.814267000000000    0.000000000000000 
P           0.791300000000000    0.314267000000000    0.500000000000000 
P           0.814267000000000    0.708700000000000    0.000000000000000 
K           0.000000000000000    0.000000000000000    0.000000000000000 
K           0.000000000000000    0.500000000000000    0.000000000000000 
K           0.000000000000000    0.500000000000000    0.500000000000000 
K           0.500000000000000    0.000000000000000    0.000000000000000 
K           0.500000000000000    0.000000000000000    0.500000000000000 
K           0.500000000000000    0.500000000000000    0.500000000000000 
%ENDBLOCK POSITIONS_FRAC
