# Cell file generated by matador (Matthew Evans 2016)

%BLOCK LATTICE_CART
4.40187 0.0 0.0
-2.20094 3.81213 0.0
0.0 0.0 12.7407
%ENDBLOCK LATTICE_CART

%BLOCK POSITIONS_FRAC
P           0.333333000000000    0.666667000000000    0.214945000000000 
P           0.666666000000000    0.333334000000000    0.033055000000000 
P           0.666666000000000    0.333334000000000    0.953885000000000 
K           0.333333000000000    0.666667000000000    0.039435000000000 
K           0.333333000000000    0.666667000000000    0.798321000000000 
K           0.666666000000000    0.333334000000000    0.637409000000000 
%ENDBLOCK POSITIONS_FRAC
