# Cell file generated by matador (Matthew Evans 2016)

%BLOCK LATTICE_CART
5.26629 0.0 0.0
0.0 7.47027 0.0
-1.21988 0.0 7.11519
%ENDBLOCK LATTICE_CART

%BLOCK POSITIONS_FRAC
P           0.029373000000000    0.248416000000000    0.671138000000000 
P           0.083758000000000    0.059976000000000    0.198001000000000 
P           0.196708000000000    0.643618000000000    0.584108000000000 
P           0.803292000000000    0.643618000000000    0.415892000000000 
P           0.916242000000000    0.059976000000000    0.801999000000000 
P           0.970627000000000    0.248416000000000    0.328862000000000 
K           0.000000000000000    0.866758000000000    0.500000000000000 
K           0.275611000000000    0.296616000000000    0.108491000000000 
K           0.724389000000000    0.296616000000000    0.891509000000000 
%ENDBLOCK POSITIONS_FRAC
