# Cell file generated by matador (Matthew Evans 2016)

%BLOCK LATTICE_CART
4.87911 0.0 0.0
0.0 4.87911 0.0
0.0 0.0 14.656
%ENDBLOCK LATTICE_CART

%BLOCK POSITIONS_FRAC
P           0.500000000000000    0.500000000000000    0.385540000000000 
P           0.500000000000000    0.500000000000000    0.885540000000000 
K           0.000000000000000    0.000000000000000    0.425312000000000 
K           0.000000000000000    0.000000000000000    0.925312000000000 
K           0.000000000000000    0.500000000000000    0.090547000000000 
K           0.000000000000000    0.500000000000000    0.303944000000000 
K           0.500000000000000    0.000000000000000    0.590547000000000 
K           0.500000000000000    0.000000000000000    0.803944000000000 
%ENDBLOCK POSITIONS_FRAC
