# Cell file generated by matador (Matthew Evans 2016)

%BLOCK LATTICE_CART
4.96462 0.0 0.0
-4.07365 8.25042 0.0
1.16234 -2.69252 6.28478
%ENDBLOCK LATTICE_CART

%BLOCK POSITIONS_FRAC
P           0.000000000000000    0.000000000000000    0.000000000000000 
P           0.000000000000000    0.000000000000000    0.500000000000000 
P           0.000000000000000    0.500000000000000    0.000000000000000 
P           0.000000000000000    0.500000000000000    0.500000000000000 
P           0.207878000000000    0.415953000000000    0.183332000000000 
P           0.500000000000000    0.500000000000000    0.000000000000000 
P           0.792122000000000    0.584047000000000    0.816668000000000 
K           0.245852000000000    0.806979000000000    0.208366000000000 
K           0.500000000000000    0.000000000000000    0.000000000000000 
K           0.500000000000000    0.500000000000000    0.500000000000000 
K           0.754148000000000    0.193021000000000    0.791634000000000 
%ENDBLOCK POSITIONS_FRAC
