# Cell file generated by matador (Matthew Evans 2016)

%BLOCK LATTICE_CART
8.84901 0.0 0.0
0.0 8.84901 0.0
0.0 0.0 8.17649
%ENDBLOCK LATTICE_CART

%BLOCK POSITIONS_FRAC
P           0.000000000000000    0.000000000000000    0.000000000000000 
P           0.000000000000000    0.500000000000000    0.000000000000000 
P           0.500000000000000    0.000000000000000    0.000000000000000 
P           0.500000000000000    0.500000000000000    0.000000000000000 
K           0.000000000000000    0.000000000000000    0.500000000000000 
K           0.000000000000000    0.500000000000000    0.500000000000000 
K           0.221077000000000    0.278923000000000    0.701152000000000 
K           0.221077000000000    0.721077000000000    0.298848000000000 
K           0.278923000000000    0.221077000000000    0.298848000000000 
K           0.278923000000000    0.778923000000000    0.701152000000000 
K           0.500000000000000    0.000000000000000    0.500000000000000 
K           0.500000000000000    0.500000000000000    0.500000000000000 
K           0.721077000000000    0.221077000000000    0.701152000000000 
K           0.721077000000000    0.778923000000000    0.298848000000000 
K           0.778923000000000    0.278923000000000    0.298848000000000 
K           0.778923000000000    0.721077000000000    0.701152000000000 
%ENDBLOCK POSITIONS_FRAC
