# Cell file generated by matador (Matthew Evans 2016)

%BLOCK LATTICE_CART
4.30443 0.0 0.0
-2.15221 3.72774 0.0
0.0 0.0 12.3981
%ENDBLOCK LATTICE_CART

%BLOCK POSITIONS_FRAC
P           0.000000000000000    0.369795000000000    0.904721000000000 
P           0.333333000000000    0.666667000000000    0.791491000000000 
P           0.369795000000000    0.000000000000000    0.904721000000000 
P           0.630205000000000    0.630205000000000    0.904721000000000 
P           0.666667000000000    0.333333000000000    0.791491000000000 
K           0.000000000000000    0.000000000000000    0.232696000000000 
K           0.000000000000000    0.000000000000000    0.794156000000000 
%ENDBLOCK POSITIONS_FRAC
