# Cell file generated by matador (Matthew Evans 2016)

%BLOCK LATTICE_CART
5.36409 -0.0 0.0
-2.68204 4.64544 0.0
0.0 0.0 3.75483
%ENDBLOCK LATTICE_CART

%BLOCK POSITIONS_FRAC
P           0.337931000000000    0.151078000000000    0.682617000000000 
P           0.813147000000000    0.662069000000000    0.682617000000000 
P           0.848922000000000    0.186853000000000    0.682617000000000 
K           0.666667000000000    0.333333000000000    0.242344000000000 
%ENDBLOCK POSITIONS_FRAC
