# Cell file generated by matador (Matthew Evans 2016)

%BLOCK LATTICE_CART
7.11683 0.0 0.0
-3.55841 6.16335 0.0
0.0 0.0 6.57324
%ENDBLOCK LATTICE_CART

%BLOCK POSITIONS_FRAC
P           0.067104000000000    0.349207000000000    0.151060000000000 
P           0.067104000000000    0.717897000000000    0.151060000000000 
P           0.282103000000000    0.349207000000000    0.151060000000000 
P           0.282103000000000    0.932896000000000    0.151060000000000 
P           0.333333000000000    0.666667000000000    0.769219000000000 
P           0.650793000000000    0.717897000000000    0.151060000000000 
P           0.650793000000000    0.932896000000000    0.151060000000000 
K           0.000000000000000    0.000000000000000    0.883522000000000 
K           0.293039000000000    0.146520000000000    0.580520000000000 
K           0.666667000000000    0.333333000000000    0.897412000000000 
K           0.853480000000000    0.146520000000000    0.580520000000000 
K           0.853480000000000    0.706961000000000    0.580520000000000 
%ENDBLOCK POSITIONS_FRAC
