# Cell file generated by matador (Matthew Evans 2016)

%BLOCK LATTICE_CART
6.41946 0.0 0.0
0.0 11.1874 0.0
-2.17413 0.0 12.1432
%ENDBLOCK LATTICE_CART

%BLOCK POSITIONS_FRAC
P           0.190507000000000    0.500000000000000    0.128613000000000 
P           0.197666000000000    0.000000000000000    0.424096000000000 
P           0.456870000000000    0.000000000000000    0.614686000000000 
P           0.690507000000000    0.000000000000000    0.128613000000000 
P           0.697666000000000    0.500000000000000    0.424096000000000 
P           0.956870000000000    0.500000000000000    0.614686000000000 
K           0.011090000000000    0.500000000000000    0.460882000000000 
K           0.016186000000000    0.000000000000000    0.260197000000000 
K           0.197393000000000    0.197951000000000    0.082008000000000 
K           0.197393000000000    0.802049000000000    0.082008000000000 
K           0.292829000000000    0.500000000000000    0.837310000000000 
K           0.329775000000000    0.000000000000000    0.749188000000000 
K           0.410181000000000    0.500000000000000    0.613781000000000 
K           0.464248000000000    0.000000000000000    0.222175000000000 
K           0.477352000000000    0.000000000000000    0.987552000000000 
K           0.511090000000000    0.000000000000000    0.460882000000000 
K           0.516186000000000    0.500000000000000    0.260197000000000 
K           0.697393000000000    0.302049000000000    0.082008000000000 
K           0.697393000000000    0.697951000000000    0.082008000000000 
K           0.792829000000000    0.000000000000000    0.837310000000000 
K           0.829775000000000    0.500000000000000    0.749188000000000 
K           0.910181000000000    0.000000000000000    0.613781000000000 
K           0.964248000000000    0.500000000000000    0.222175000000000 
K           0.977352000000000    0.500000000000000    0.987552000000000 
%ENDBLOCK POSITIONS_FRAC
