# Cell file generated by matador (Matthew Evans 2016)

%BLOCK LATTICE_CART
6.78427 0.0 0.0
-3.39213 5.87535 0.0
0.0 0.0 7.93745
%ENDBLOCK LATTICE_CART

%BLOCK POSITIONS_FRAC
P           0.000000000000000    0.000000000000000    0.493243000000000 
P           0.000000000000000    0.000000000000000    0.779781000000000 
P           0.333333000000000    0.666667000000000    0.088247000000000 
P           0.333333000000000    0.666667000000000    0.338496000000000 
P           0.666667000000000    0.333333000000000    0.280617000000000 
P           0.666667000000000    0.333333000000000    0.428466000000000 
P           0.666667000000000    0.333333000000000    0.891230000000000 
K           0.291982000000000    0.248821000000000    0.169804000000000 
K           0.333333000000000    0.666667000000000    0.826805000000000 
K           0.751179000000000    0.043161000000000    0.169804000000000 
K           0.956839000000000    0.708018000000000    0.169804000000000 
%ENDBLOCK POSITIONS_FRAC
