# Cell file generated by matador (Matthew Evans 2016)

%BLOCK LATTICE_CART
6.42294 0.0 0.0
-3.21147 5.56243 0.0
0.0 0.0 8.12337
%ENDBLOCK LATTICE_CART

%BLOCK POSITIONS_FRAC
P           0.000000000000000    0.000000000000000    0.000000000000000 
P           0.000000000000000    0.000000000000000    0.500000000000000 
P           0.000000000000000    0.500000000000000    0.000000000000000 
P           0.500000000000000    0.000000000000000    0.000000000000000 
P           0.500000000000000    0.500000000000000    0.000000000000000 
K           0.143181000000000    0.760010000000000    0.500000000000000 
K           0.239990000000000    0.383171000000000    0.500000000000000 
K           0.383171000000000    0.143181000000000    0.500000000000000 
K           0.616829000000000    0.856819000000000    0.500000000000000 
K           0.760010000000000    0.616829000000000    0.500000000000000 
K           0.856819000000000    0.239990000000000    0.500000000000000 
%ENDBLOCK POSITIONS_FRAC
