# Cell file generated by matador (Matthew Evans 2016)

%BLOCK LATTICE_CART
9.86502 0.0 0.0
0.0 5.76034 0.0
0.0 0.0 5.38085
%ENDBLOCK LATTICE_CART

%BLOCK POSITIONS_FRAC
P           0.131120000000000    0.095374000000000    0.136629000000000 
P           0.131120000000000    0.404626000000000    0.636629000000000 
P           0.242651000000000    0.583578000000000    0.335723000000000 
P           0.242651000000000    0.916422000000000    0.835723000000000 
P           0.403031000000000    0.565777000000000    0.573967000000000 
P           0.403031000000000    0.934223000000000    0.073968000000000 
P           0.596969000000000    0.065777000000000    0.073968000000000 
P           0.596969000000000    0.434223000000000    0.573967000000000 
P           0.757349000000000    0.083578000000000    0.835723000000000 
P           0.757349000000000    0.416422000000000    0.335723000000000 
P           0.868880000000000    0.595374000000000    0.636629000000000 
P           0.868880000000000    0.904626000000000    0.136629000000000 
K           0.000000000000000    0.000000000000000    0.869080000000000 
K           0.000000000000000    0.500000000000000    0.369080000000000 
K           0.500000000000000    0.000000000000000    0.418872000000000 
K           0.500000000000000    0.500000000000000    0.918872000000000 
%ENDBLOCK POSITIONS_FRAC
