# Cell file generated by matador (Matthew Evans 2016)

%BLOCK LATTICE_CART
6.17555 0.0 0.0
-3.08778 5.34818 0.0
0.0 0.0 8.97799
%ENDBLOCK LATTICE_CART

%BLOCK POSITIONS_FRAC
P           0.000000000000000    0.500000000000000    0.243157000000000 
P           0.333333000000000    0.666667000000000    0.302708000000000 
P           0.500000000000000    0.000000000000000    0.243157000000000 
P           0.500000000000000    0.500000000000000    0.243157000000000 
P           0.666667000000000    0.333333000000000    0.302708000000000 
K           0.000000000000000    0.000000000000000    0.141290000000000 
K           0.218174000000000    0.436349000000000    0.720779000000000 
K           0.218174000000000    0.781826000000000    0.720779000000000 
K           0.436349000000000    0.218174000000000    0.720779000000000 
K           0.563651000000000    0.781826000000000    0.720779000000000 
K           0.781826000000000    0.218174000000000    0.720779000000000 
K           0.781826000000000    0.563651000000000    0.720779000000000 
%ENDBLOCK POSITIONS_FRAC
