# Cell file generated by matador (Matthew Evans 2016)

%BLOCK LATTICE_CART
5.66305 0.0 0.0
-2.83152 4.90434 0.0
0.0 0.0 5.36979
%ENDBLOCK LATTICE_CART

%BLOCK POSITIONS_FRAC
P          -0.000000000000000    0.000000000000000    0.424970000000000 
P          -0.000000000000000    0.000000000000000    0.691053000000000 
P          -0.000000000000000    0.794581000000000    0.285321000000000 
P           0.205419000000000    0.205419000000000    0.285321000000000 
P           0.794581000000000    0.000000000000000    0.285321000000000 
K           0.333333000000000    0.666667000000000    0.686099000000000 
K           0.666666000000000    0.333334000000000    0.686099000000000 
%ENDBLOCK POSITIONS_FRAC
