# Cell file generated by matador (Matthew Evans 2016)

%BLOCK LATTICE_CART
4.84389 0.0 0.0
-2.42195 4.19493 0.0
0.0 0.0 7.97076
%ENDBLOCK LATTICE_CART

%BLOCK POSITIONS_FRAC
P           0.000000000000000    0.500000000000000    0.433316000000000 
P           0.333333000000000    0.666667000000000    0.210968000000000 
P           0.333333000000000    0.666667000000000    0.671485000000000 
P           0.500000000000000    0.000000000000000    0.433316000000000 
P           0.500000000000000    0.500000000000000    0.433316000000000 
P           0.666667000000000    0.333333000000000    0.210968000000000 
P           0.666667000000000    0.333333000000000    0.671485000000000 
K           0.000000000000000    0.000000000000000    0.842569000000000 
%ENDBLOCK POSITIONS_FRAC
