# Cell file generated by matador (Matthew Evans 2016)

%BLOCK LATTICE_CART
4.5918 0.0 0.0
-2.2959 3.97661 0.0
0.0 0.0 11.8567
%ENDBLOCK LATTICE_CART

%BLOCK POSITIONS_FRAC
P           0.000000000000000    0.000000000000000    0.000000000000000 
P           0.199034000000000    0.680178000000000    0.000000000000000 
P           0.319822000000000    0.518857000000000    0.000000000000000 
P           0.481143000000000    0.800966000000000    0.000000000000000 
P           0.518857000000000    0.319822000000000    0.000000000000000 
P           0.680178000000000    0.199034000000000    0.000000000000000 
P           0.800966000000000    0.481143000000000    0.000000000000000 
K           0.000000000000000    0.000000000000000    0.500000000000000 
%ENDBLOCK POSITIONS_FRAC
