# Cell file generated by matador (Matthew Evans 2016)

%BLOCK LATTICE_CART
10.9521 0.0 0.0
0.0 6.69469 0.0
0.0 0.0 5.35518
%ENDBLOCK LATTICE_CART

%BLOCK POSITIONS_FRAC
P           0.237927000000000    0.285188000000000    0.531607000000000 
P           0.237927000000000    0.714812000000000    0.468393000000000 
P           0.443036000000000   -0.000000000000000    0.500000000000000 
P           0.556964000000000   -0.000000000000000    0.500000000000000 
P           0.762073000000000    0.285188000000000    0.468393000000000 
P           0.762073000000000    0.714812000000000    0.531607000000000 
K           0.000000000000000   -0.000000000000000   -0.000000000000000 
K           0.000000000000000   -0.000000000000000    0.500000000000000 
K           0.000000000000000    0.500000000000000   -0.000000000000000 
K           0.000000000000000    0.500000000000000    0.500000000000000 
K           0.379163000000000    0.383675000000000    0.260513000000000 
K           0.379163000000000    0.616325000000000    0.739487000000000 
K           0.500000000000000    0.500000000000000    0.500000000000000 
K           0.620837000000000    0.383675000000000    0.739487000000000 
K           0.620837000000000    0.616325000000000    0.260513000000000 
%ENDBLOCK POSITIONS_FRAC
