# Cell file generated by matador (Matthew Evans 2016)

%BLOCK LATTICE_CART
4.83728 0.0 0.0
-2.41864 4.1892 0.0
0.0 0.0 6.38575
%ENDBLOCK LATTICE_CART

%BLOCK POSITIONS_FRAC
P           0.572183000000000    0.144366000000000    0.223462000000000 
P           0.572183000000000    0.427817000000000    0.223462000000000 
P           0.666666000000000    0.333334000000000    0.409538000000000 
P           0.855634000000000    0.427817000000000    0.223462000000000 
K           0.333333000000000    0.666667000000000    0.835668000000000 
%ENDBLOCK POSITIONS_FRAC
