# Cell file generated by matador (Matthew Evans 2016)

%BLOCK LATTICE_CART
4.99184 0.0 0.0
0.0 8.48989 0.0
0.0 0.0 7.32354
%ENDBLOCK LATTICE_CART

%BLOCK POSITIONS_FRAC
P           0.500000000000000    0.090414000000000    0.188685000000000 
P           0.500000000000000    0.909586000000000    0.688685000000000 
K           0.000000000000000    0.051772000000000    0.547428000000000 
K           0.000000000000000    0.425431000000000    0.986709000000000 
K           0.000000000000000    0.574569000000000    0.486709000000000 
K           0.000000000000000    0.948228000000000    0.047428000000000 
K           0.500000000000000    0.230347000000000    0.663930000000000 
K           0.500000000000000    0.769653000000000    0.163930000000000 
%ENDBLOCK POSITIONS_FRAC
