# Cell file generated by matador (Matthew Evans 2016)

%BLOCK LATTICE_CART
6.60813 0.0 0.0
0.0 4.99013 0.0
-2.64142 0.0 6.39406
%ENDBLOCK LATTICE_CART

%BLOCK POSITIONS_FRAC
P          -0.000000000000000    0.071629000000000    0.000000000000000 
P          -0.000000000000000    0.864063000000000    0.500000000000000 
P           0.441030000000000    0.688681000000000    0.121687000000000 
P           0.487160000000000    0.475490000000000    0.257233000000000 
P           0.512840000000000    0.475490000000000    0.742767000000000 
P           0.558970000000000    0.688681000000000    0.878313000000000 
K           0.142904000000000    0.480938000000000    0.702399000000000 
K           0.857096000000000    0.480938000000000    0.297601000000000 
%ENDBLOCK POSITIONS_FRAC
