# Cell file generated by matador (Matthew Evans 2016)

%BLOCK LATTICE_CART
7.94634 0.0 0.0
0.0 9.41156 0.0
-0.136855 0.0 4.49089
%ENDBLOCK LATTICE_CART

%BLOCK POSITIONS_FRAC
P           0.388779000000000    0.000000000000000    0.331992000000000 
P           0.937486000000000    0.500000000000000    0.698439000000000 
K           0.009478000000000    0.500000000000000    0.180402000000000 
K           0.121727000000000    0.000000000000000    0.161473000000000 
K           0.337182000000000    0.500000000000000    0.793928000000000 
K           0.502184000000000    0.000000000000000    0.945674000000000 
K           0.626744000000000    0.500000000000000    0.286702000000000 
K           0.834415000000000    0.000000000000000    0.726322000000000 
%ENDBLOCK POSITIONS_FRAC
