# Cell file generated by matador (Matthew Evans 2016)

%BLOCK LATTICE_CART
8.92606 0.0 0.0
-4.46303 7.7302 0.0
0.0 0.0 5.48165
%ENDBLOCK LATTICE_CART

%BLOCK POSITIONS_FRAC
P          -0.000000000000000    0.000000000000000    0.510502000000000 
P          -0.000000000000000    0.651991000000000    0.899999000000000 
P          -0.000000000000000    0.662835000000000    0.442314000000000 
P          -0.000000000000000    0.889455000000000    0.760910000000000 
P           0.110545000000000    0.110545000000000    0.760910000000000 
P           0.337165000000000    0.337165000000000    0.442314000000000 
P           0.348009000000000    0.348009000000000    0.899999000000000 
P           0.651991000000000    0.000000000000000    0.899999000000000 
P           0.662835000000000    0.000000000000000    0.442314000000000 
P           0.889455000000000    0.000000000000000    0.760910000000000 
K           0.333333000000000    0.666667000000000    0.226319000000000 
K           0.666666000000000    0.333334000000000    0.226319000000000 
%ENDBLOCK POSITIONS_FRAC
