# Cell file generated by matador (Matthew Evans 2016)

%BLOCK LATTICE_CART
6.4147 0.0 0.0
0.0 4.58702 0.0
0.103654 0.0 8.0741
%ENDBLOCK LATTICE_CART

%BLOCK POSITIONS_FRAC
P           0.321170000000000    0.391890000000000    0.573190000000000 
P           0.321170000000000    0.608110000000000    0.073190000000000 
P           0.606336000000000    0.472189000000000    0.202258000000000 
P           0.606336000000000    0.527811000000000    0.702258000000000 
P           0.995863000000000    0.455257000000000    0.614499000000000 
P           0.995863000000000    0.544743000000000    0.114499000000000 
K           0.143663000000000    0.231642000000000    0.888952000000000 
K           0.143663000000000    0.768358000000000    0.388952000000000 
%ENDBLOCK POSITIONS_FRAC
