# Cell file generated by matador (Matthew Evans 2016)

%BLOCK LATTICE_CART
8.12166 -0.0 0.0
-4.06083 7.03357 0.0
0.0 0.0 6.59905
%ENDBLOCK LATTICE_CART

%BLOCK POSITIONS_FRAC
P           0.011359000000000    0.812790000000000    0.603435000000000 
P           0.134764000000000    0.655308000000000    0.270102000000000 
P           0.187210000000000    0.198569000000000    0.603435000000000 
P           0.344692000000000    0.479456000000000    0.270102000000000 
P           0.468098000000000    0.321975000000000    0.936769000000000 
P           0.520544000000000    0.865236000000000    0.270102000000000 
P           0.678025000000000    0.146123000000000    0.936769000000000 
P           0.801431000000000    0.988641000000000    0.603435000000000 
P           0.853877000000000    0.531902000000000    0.936769000000000 
K           0.000000000000000    0.000000000000000    0.391148000000000 
K           0.333333000000000    0.666667000000000    0.057814000000000 
K           0.666667000000000    0.333333000000000    0.724481000000000 
%ENDBLOCK POSITIONS_FRAC
