# Cell file generated by matador (Matthew Evans 2016)

%BLOCK LATTICE_CART
9.4978 -0.0 0.0
-4.7489 8.22534 0.0
0.0 0.0 7.55726
%ENDBLOCK LATTICE_CART

%BLOCK POSITIONS_FRAC
P           0.000000000000000    0.000000000000000    0.846711000000000 
P           0.125679000000000    0.045960000000000    0.645325000000000 
P           0.253614000000000    0.540988000000000    0.311992000000000 
P           0.287373000000000    0.746386000000000    0.311992000000000 
P           0.333333000000000    0.666667000000000    0.513378000000000 
P           0.459012000000000    0.712627000000000    0.311992000000000 
P           0.586948000000000    0.207654000000000    0.978659000000000 
P           0.620707000000000    0.413052000000000    0.978659000000000 
P           0.666667000000000    0.333333000000000    0.180045000000000 
P           0.792346000000000    0.379293000000000    0.978659000000000 
P           0.920281000000000    0.874321000000000    0.645325000000000 
P           0.954040000000000    0.079719000000000    0.645325000000000 
K           0.000000000000000    0.000000000000000    0.240489000000000 
K           0.333333000000000    0.666667000000000    0.907156000000000 
K           0.666667000000000    0.333333000000000    0.573823000000000 
%ENDBLOCK POSITIONS_FRAC
