# Cell file generated by matador (Matthew Evans 2016)

%BLOCK LATTICE_CART
3.48597 0.0 0.0
0.0 12.3748 0.0
3.08706 0.0 11.7982
%ENDBLOCK LATTICE_CART

%BLOCK POSITIONS_FRAC
P           0.219199000000000    0.000000000000000    0.639640000000000 
P           0.340294000000000    0.500000000000000    0.543496000000000 
P           0.807216000000000    0.500000000000000    0.939994000000000 
K           0.151719000000000    0.000000000000000    0.485198000000000 
K           0.513575000000000    0.000000000000000    0.101506000000000 
K           0.514341000000000    0.000000000000000    0.787230000000000 
K           0.534176000000000    0.500000000000000    0.185868000000000 
K           0.713071000000000    0.000000000000000    0.313466000000000 
K           0.714938000000000    0.225203000000000    0.010947000000000 
K           0.714938000000000    0.774797000000000    0.010947000000000 
K           0.834923000000000    0.500000000000000    0.401856000000000 
K           0.898379000000000    0.500000000000000    0.726285000000000 
%ENDBLOCK POSITIONS_FRAC
