# Cell file generated by matador (Matthew Evans 2016)

%BLOCK LATTICE_CART
6.28332 0.0 0.0
0.0 6.28332 0.0
0.0 0.0 10.4359
%ENDBLOCK LATTICE_CART

%BLOCK POSITIONS_FRAC
P           0.111885000000000    0.223944000000000    0.205259000000000 
P           0.174803000000000    0.246998000000000    0.746543000000000 
P           0.208983000000000    0.709099000000000    0.905606000000000 
P           0.223944000000000    0.888115000000000    0.205259000000000 
P           0.246998000000000    0.825197000000000    0.746543000000000 
P           0.290901000000000    0.208983000000000    0.905606000000000 
P           0.709099000000000    0.791017000000000    0.905606000000000 
P           0.753002000000000    0.174803000000000    0.746543000000000 
P           0.776056000000000    0.111885000000000    0.205259000000000 
P           0.791017000000000    0.290901000000000    0.905606000000000 
P           0.825197000000000    0.753002000000000    0.746543000000000 
P           0.888115000000000    0.776056000000000    0.205259000000000 
K           0.000000000000000    0.500000000000000    0.423030000000000 
K           0.500000000000000    0.000000000000000    0.423030000000000 
K           0.500000000000000    0.500000000000000    0.186778000000000 
%ENDBLOCK POSITIONS_FRAC
