# Cell file generated by matador (Matthew Evans 2016)

%BLOCK LATTICE_CART
7.15512 -0.0 0.0
-3.57756 6.19651 0.0
0.0 0.0 7.13202
%ENDBLOCK LATTICE_CART

%BLOCK POSITIONS_FRAC
P           0.306732000000000    0.056833000000000    0.776925000000000 
P           0.333333000000000    0.666667000000000    0.562221000000000 
P           0.666667000000000    0.333333000000000    0.289762000000000 
P           0.750101000000000    0.693268000000000    0.776925000000000 
P           0.943167000000000    0.249899000000000    0.776925000000000 
K           0.049779000000000    0.787769000000000    0.419004000000000 
K           0.212231000000000    0.262010000000000    0.419004000000000 
K           0.666667000000000    0.333333000000000    0.874361000000000 
K           0.737990000000000    0.950221000000000    0.419004000000000 
%ENDBLOCK POSITIONS_FRAC
