# Cell file generated by matador (Matthew Evans 2016)

%BLOCK LATTICE_CART
4.5081 0.0 0.0
-0.717614 4.56931 0.0
-1.36606 -0.430313 7.20108
%ENDBLOCK LATTICE_CART

%BLOCK POSITIONS_FRAC
P           0.000000000000000    0.000000000000000    0.500000000000000 
P           0.000000000000000    0.500000000000000    0.500000000000000 
P           0.325631000000000    0.923924000000000    0.039726000000000 
P           0.674369000000000    0.076076000000000    0.960274000000000 
K           0.416493000000000    0.161019000000000    0.414080000000000 
K           0.583507000000000    0.838981000000000    0.585920000000000 
%ENDBLOCK POSITIONS_FRAC
