# Cell file generated by matador (Matthew Evans 2016)

%BLOCK LATTICE_CART
6.22206 0.0 0.0
-3.11103 5.38846 0.0
0.0 0.0 10.1662
%ENDBLOCK LATTICE_CART

%BLOCK POSITIONS_FRAC
P           0.000000000000000    0.000000000000000    0.266785000000000 
P           0.000000000000000    0.000000000000000    0.766785000000000 
K           0.000000000000000    0.335639000000000    0.316773000000000 
K           0.000000000000000    0.664361000000000    0.816773000000000 
K           0.335639000000000    0.000000000000000    0.316773000000000 
K           0.335639000000000    0.335639000000000    0.816773000000000 
K           0.664361000000000    0.000000000000000    0.816773000000000 
K           0.664361000000000    0.664361000000000    0.316773000000000 
%ENDBLOCK POSITIONS_FRAC
