# Cell file generated by matador (Matthew Evans 2016)

%BLOCK LATTICE_CART
6.02277 0.0 0.0
0.0 6.02277 0.0
0.0 0.0 11.2046
%ENDBLOCK LATTICE_CART

%BLOCK POSITIONS_FRAC
P           0.000000000000000    0.000000000000000    0.282129000000000 
P           0.000000000000000    0.000000000000000    0.717871000000000 
P           0.234812000000000    0.234812000000000    0.000000000000000 
P           0.265188000000000    0.734812000000000    0.000000000000000 
P           0.500000000000000    0.500000000000000    0.282129000000000 
P           0.500000000000000    0.500000000000000    0.717871000000000 
P           0.734812000000000    0.265188000000000    0.000000000000000 
P           0.765188000000000    0.765188000000000    0.000000000000000 
K           0.000000000000000    0.000000000000000    0.000000000000000 
K           0.000000000000000    0.500000000000000    0.744804000000000 
K           0.500000000000000    0.000000000000000    0.255196000000000 
K           0.500000000000000    0.500000000000000    0.000000000000000 
%ENDBLOCK POSITIONS_FRAC
