# Cell file generated by matador (Matthew Evans 2016)

%BLOCK LATTICE_CART
6.90225 0.0 0.0
0.0 8.28165 0.0
1.37674 0.0 8.69828
%ENDBLOCK LATTICE_CART

%BLOCK POSITIONS_FRAC
P           0.009995000000000    0.500000000000000    0.156691000000000 
P           0.367032000000000    0.500000000000000    0.395879000000000 
K           0.030515000000000    0.200218000000000    0.313256000000000 
K           0.030515000000000    0.799782000000000    0.313256000000000 
K           0.334950000000000    0.000000000000000    0.486450000000000 
K           0.524484000000000    0.295040000000000    0.147640000000000 
K           0.524484000000000    0.704960000000000    0.147640000000000 
K           0.537791000000000    0.500000000000000    0.922205000000000 
K           0.568164000000000    0.500000000000000    0.607502000000000 
K           0.575506000000000    0.000000000000000    0.838174000000000 
K           0.669681000000000    0.500000000000000    0.321675000000000 
K           0.937105000000000    0.500000000000000    0.662272000000000 
K           0.942681000000000    0.000000000000000    0.853877000000000 
K           0.996927000000000    0.500000000000000    0.885230000000000 
%ENDBLOCK POSITIONS_FRAC
