# Cell file generated by matador (Matthew Evans 2016)

%BLOCK LATTICE_CART
7.91676 0.0 0.0
-3.95838 6.85612 0.0
0.0 0.0 5.26156
%ENDBLOCK LATTICE_CART

%BLOCK POSITIONS_FRAC
P           0.333334000000000    0.666668000000000    0.253138000000000 
P           0.666668000000000    0.333334000000000    0.753138000000000 
K           0.156792000000000    0.313583000000000    0.457810000000000 
K           0.156792000000000    0.843210000000000    0.457810000000000 
K           0.313583000000000    0.156792000000000    0.957810000000000 
K           0.686419000000000    0.843210000000000    0.457810000000000 
K           0.843210000000000    0.156792000000000    0.957810000000000 
K           0.843210000000000    0.686419000000000    0.957810000000000 
%ENDBLOCK POSITIONS_FRAC
