# Cell file generated by matador (Matthew Evans 2016)

%BLOCK LATTICE_CART
9.73455 0.0 0.0
-4.86728 8.43037 0.0
0.0 0.0 7.79095
%ENDBLOCK LATTICE_CART

%BLOCK POSITIONS_FRAC
P           0.000000000000000    0.000000000000000    0.000000000000000 
P           0.000000000000000    0.000000000000000    0.500000000000000 
P           0.333333000000000    0.666667000000000    0.000000000000000 
P           0.666667000000000    0.333333000000000    0.000000000000000 
K           0.000000000000000    0.526267000000000    0.253329000000000 
K           0.000000000000000    0.526267000000000    0.746671000000000 
K           0.193808000000000    0.404918000000000    0.000000000000000 
K           0.211110000000000    0.806192000000000    0.000000000000000 
K           0.404918000000000    0.193808000000000    0.000000000000000 
K           0.473733000000000    0.473733000000000    0.253329000000000 
K           0.473733000000000    0.473733000000000    0.746671000000000 
K           0.526267000000000    0.000000000000000    0.253329000000000 
K           0.526267000000000    0.000000000000000    0.746671000000000 
K           0.595082000000000    0.788890000000000    0.000000000000000 
K           0.788890000000000    0.595082000000000    0.000000000000000 
K           0.806192000000000    0.211110000000000    0.000000000000000 
%ENDBLOCK POSITIONS_FRAC
