# Cell file generated by matador (Matthew Evans 2016)

%BLOCK LATTICE_CART
5.86015 0.0 0.0
-2.93007 5.07504 0.0
0.0 0.0 9.78632
%ENDBLOCK LATTICE_CART

%BLOCK POSITIONS_FRAC
P          -0.000000000000000    0.000000000000000    0.347054000000000 
P          -0.000000000000000    0.000000000000000    0.870737000000000 
P           0.333333000000000    0.666667000000000    0.013721000000000 
P           0.333333000000000    0.666667000000000    0.537404000000000 
P           0.666667000000000    0.333333000000000    0.204071000000000 
P           0.666667000000000    0.333333000000000    0.680387000000000 
K          -0.000000000000000    0.000000000000000    0.111119000000000 
K           0.333333000000000    0.666667000000000    0.777785000000000 
K           0.666667000000000    0.333333000000000    0.444452000000000 
%ENDBLOCK POSITIONS_FRAC
