# Cell file generated by matador (Matthew Evans 2016)

%BLOCK LATTICE_CART
6.29203 0.0 0.0
0.0 7.41829 0.0
-2.03573 0.0 5.95747
%ENDBLOCK LATTICE_CART

%BLOCK POSITIONS_FRAC
P           0.168041000000000    0.375974000000000    0.947275000000000 
P           0.168041000000000    0.624026000000000    0.947275000000000 
P           0.876545000000000    0.500000000000000    0.912659000000000 
P           0.973653000000000    0.500000000000000    0.270523000000000 
P           0.991007000000000   -0.000000000000000    0.789850000000000 
K           0.215999000000000    0.500000000000000    0.569252000000000 
K           0.409390000000000    0.166366000000000    0.722366000000000 
K           0.409390000000000    0.833634000000000    0.722366000000000 
K           0.416557000000000   -0.000000000000000    0.424897000000000 
K           0.514421000000000    0.500000000000000    0.328851000000000 
K           0.540006000000000    0.500000000000000    0.789571000000000 
%ENDBLOCK POSITIONS_FRAC
