# Cell file generated by matador (Matthew Evans 2016)

%BLOCK LATTICE_CART
4.38486 0.0 0.0
0.0 6.41746 0.0
5.17309 0.0 9.22517
%ENDBLOCK LATTICE_CART

%BLOCK POSITIONS_FRAC
P           0.000000000000000    0.444458000000000    0.000000000000000 
P           0.500000000000000    0.281293000000000    0.000000000000000 
K           0.000000000000000    0.107254000000000    0.000000000000000 
K           0.000000000000000    0.968534000000000    0.500000000000000 
K           0.079397000000000    0.763908000000000    0.273604000000000 
K           0.166370000000000    0.264924000000000    0.785095000000000 
K           0.500000000000000    0.625624000000000    0.000000000000000 
K           0.833630000000000    0.264924000000000    0.214905000000000 
K           0.920603000000000    0.763908000000000    0.726396000000000 
%ENDBLOCK POSITIONS_FRAC
