# Cell file generated by matador (Matthew Evans 2016)

%BLOCK LATTICE_CART
7.69249 0.0 0.0
0.0 7.69249 0.0
0.0 0.0 9.57582
%ENDBLOCK LATTICE_CART

%BLOCK POSITIONS_FRAC
P           0.000000000000000    0.000000000000000    0.500000000000000 
P           0.000000000000000    0.500000000000000    0.500000000000000 
P           0.250000000000000    0.250000000000000    0.435803000000000 
P           0.250000000000000    0.750000000000000    0.160945000000000 
P           0.250000000000000    0.750000000000000    0.839055000000000 
P           0.500000000000000    0.000000000000000    0.500000000000000 
P           0.500000000000000    0.500000000000000    0.500000000000000 
P           0.750000000000000    0.250000000000000    0.160945000000000 
P           0.750000000000000    0.250000000000000    0.839055000000000 
P           0.750000000000000    0.750000000000000    0.564197000000000 
K           0.047731000000000    0.224607000000000    0.171331000000000 
K           0.224607000000000    0.452269000000000    0.171331000000000 
K           0.275393000000000    0.047731000000000    0.171331000000000 
K           0.452269000000000    0.275393000000000    0.171331000000000 
K           0.547731000000000    0.724607000000000    0.828669000000000 
K           0.724607000000000    0.952269000000000    0.828669000000000 
K           0.775393000000000    0.547731000000000    0.828669000000000 
K           0.952269000000000    0.775393000000000    0.828669000000000 
%ENDBLOCK POSITIONS_FRAC
