# Cell file generated by matador (Matthew Evans 2016)

%BLOCK LATTICE_CART
8.3153 0.0 0.0
-4.15765 7.20126 0.0
0.0 0.0 7.49166
%ENDBLOCK LATTICE_CART

%BLOCK POSITIONS_FRAC
P           0.333333000000000    0.666667000000000    0.000000000000000 
P           0.666666000000000    0.333334000000000    0.000000000000000 
K          -0.000000000000000    0.000000000000000    0.000000000000000 
K          -0.000000000000000    0.377112000000000    0.687324000000000 
K          -0.000000000000000    0.500000000000000    0.000000000000000 
K          -0.000000000000000    0.622888000000000    0.312676000000000 
K           0.377112000000000    0.000000000000000    0.687324000000000 
K           0.377112000000000    0.377112000000000    0.312676000000000 
K           0.500000000000000    0.000000000000000    0.000000000000000 
K           0.500000000000000    0.500000000000000    0.000000000000000 
K           0.622888000000000    0.000000000000000    0.312676000000000 
K           0.622888000000000    0.622888000000000    0.687324000000000 
%ENDBLOCK POSITIONS_FRAC
