# Cell file generated by matador (Matthew Evans 2016)

%BLOCK LATTICE_CART
8.2366 0.0 0.0
0.0 9.77217 0.0
0.0 0.0 8.5458
%ENDBLOCK LATTICE_CART

%BLOCK POSITIONS_FRAC
P           0.250000000000000    0.615866000000000    0.436951000000000 
P           0.250000000000000    0.884134000000000    0.936951000000000 
P           0.750000000000000    0.115866000000000    0.936951000000000 
P           0.750000000000000    0.384134000000000    0.436951000000000 
K           0.250000000000000    0.232525000000000    0.225232000000000 
K           0.250000000000000    0.267475000000000    0.725232000000000 
K           0.250000000000000    0.533184000000000    0.116342000000000 
K           0.250000000000000    0.574700000000000    0.762664000000000 
K           0.250000000000000    0.925300000000000    0.262664000000000 
K           0.250000000000000    0.966816000000000    0.616342000000000 
K           0.750000000000000    0.033184000000000    0.616342000000000 
K           0.750000000000000    0.074700000000000    0.262664000000000 
K           0.750000000000000    0.425300000000000    0.762664000000000 
K           0.750000000000000    0.466816000000000    0.116342000000000 
K           0.750000000000000    0.732525000000000    0.725232000000000 
K           0.750000000000000    0.767475000000000    0.225232000000000 
%ENDBLOCK POSITIONS_FRAC
