# Cell file generated by matador (Matthew Evans 2016)

%BLOCK LATTICE_CART
7.91035 0.0 0.0
-3.95518 6.85056 0.0
0.0 0.0 7.51358
%ENDBLOCK LATTICE_CART

%BLOCK POSITIONS_FRAC
P           0.000000000000000    0.000000000000000    0.000000000000000 
P           0.000000000000000    0.349963000000000    0.500000000000000 
P           0.000000000000000    0.873583000000000    0.000000000000000 
P           0.126417000000000    0.126417000000000    0.000000000000000 
P           0.349963000000000    0.000000000000000    0.500000000000000 
P           0.650037000000000    0.650037000000000    0.500000000000000 
P           0.873583000000000    0.000000000000000    0.000000000000000 
K           0.000000000000000    0.000000000000000    0.500000000000000 
K           0.333333000000000    0.666667000000000    0.000000000000000 
K           0.333333000000000    0.666667000000000    0.500000000000000 
K           0.666667000000000    0.333333000000000    0.000000000000000 
K           0.666667000000000    0.333333000000000    0.500000000000000 
%ENDBLOCK POSITIONS_FRAC
