# Cell file generated by matador (Matthew Evans 2016)

%BLOCK LATTICE_CART
7.21059 0.0 0.0
0.0 7.21059 0.0
0.0 0.0 5.7623
%ENDBLOCK LATTICE_CART

%BLOCK POSITIONS_FRAC
P           0.000000000000000    0.000000000000000    0.234171000000000 
P           0.000000000000000    0.000000000000000    0.734171000000000 
P           0.000000000000000    0.500000000000000    0.138534000000000 
P           0.000000000000000    0.500000000000000    0.731755000000000 
P           0.500000000000000    0.000000000000000    0.231755000000000 
P           0.500000000000000    0.000000000000000    0.638534000000000 
K           0.183756000000000    0.691043000000000    0.960865000000000 
K           0.308957000000000    0.183756000000000    0.460865000000000 
K           0.691043000000000    0.816244000000000    0.460865000000000 
K           0.816244000000000    0.308957000000000    0.960865000000000 
%ENDBLOCK POSITIONS_FRAC
