# Cell file generated by matador (Matthew Evans 2016)

%BLOCK LATTICE_CART
3.94246 0.0 0.0
0.0 9.8534 0.0
0.0 0.0 12.0575
%ENDBLOCK LATTICE_CART

%BLOCK POSITIONS_FRAC
P           0.000000000000000    0.209803000000000    0.833351000000000 
P           0.000000000000000    0.790197000000000    0.833351000000000 
P           0.500000000000000    0.500000000000000    0.637745000000000 
K           0.000000000000000    0.000000000000000    0.695497000000000 
K           0.000000000000000    0.183771000000000    0.405520000000000 
K           0.000000000000000    0.233236000000000    0.067025000000000 
K           0.000000000000000    0.317279000000000    0.668357000000000 
K           0.000000000000000    0.500000000000000    0.236631000000000 
K           0.000000000000000    0.682721000000000    0.668357000000000 
K           0.000000000000000    0.766764000000000    0.067025000000000 
K           0.000000000000000    0.816229000000000    0.405520000000000 
K           0.500000000000000    0.000000000000000    0.145596000000000 
%ENDBLOCK POSITIONS_FRAC
