# Cell file generated by matador (Matthew Evans 2016)

%BLOCK LATTICE_CART
7.37019 0.0 0.0
-3.68509 6.38277 0.0
0.0 0.0 6.02334
%ENDBLOCK LATTICE_CART

%BLOCK POSITIONS_FRAC
P           0.000000000000000    0.000000000000000    0.167959000000000 
P           0.000000000000000    0.000000000000000    0.832041000000000 
P           0.333333000000000    0.666667000000000    0.447130000000000 
P           0.666667000000000    0.333333000000000    0.552870000000000 
K           0.000000000000000    0.000000000000000    0.500000000000000 
K           0.000000000000000    0.500000000000000    0.000000000000000 
K           0.000000000000000    0.500000000000000    0.500000000000000 
K           0.500000000000000    0.000000000000000    0.000000000000000 
K           0.500000000000000    0.000000000000000    0.500000000000000 
K           0.500000000000000    0.500000000000000    0.000000000000000 
K           0.500000000000000    0.500000000000000    0.500000000000000 
%ENDBLOCK POSITIONS_FRAC
