# Cell file generated by matador (Matthew Evans 2016)

%BLOCK LATTICE_CART
10.6542 0.0 0.0
-5.32711 9.22682 0.0
0.0 0.0 3.39049
%ENDBLOCK LATTICE_CART

%BLOCK POSITIONS_FRAC
P           0.333332000000000    0.666668000000000    0.500000000000000 
P           0.666666000000000    0.333334000000000    0.500000000000000 
K           0.167610000000000    0.339189000000000    0.500000000000000 
K           0.171575000000000    0.832390000000000    0.500000000000000 
K           0.339187000000000    0.167612000000000    0.500000000000000 
K           0.660811000000000    0.828425000000000    0.500000000000000 
K           0.828423000000000    0.660813000000000    0.500000000000000 
K           0.832388000000000    0.171577000000000    0.500000000000000 
%ENDBLOCK POSITIONS_FRAC
