# Cell file generated by matador (Matthew Evans 2016)

%BLOCK LATTICE_CART
8.34251 0.0 0.0
-4.17125 7.22482 0.0
0.0 0.0 5.91154
%ENDBLOCK LATTICE_CART

%BLOCK POSITIONS_FRAC
P           0.000000000000000    0.000000000000000    0.161679000000000 
P           0.000000000000000    0.000000000000000    0.838321000000000 
P           0.000000000000000    0.764492000000000    0.330379000000000 
P           0.000000000000000    0.764492000000000    0.669621000000000 
P           0.235508000000000    0.235508000000000    0.330379000000000 
P           0.235508000000000    0.235508000000000    0.669621000000000 
P           0.333333000000000    0.666667000000000    0.500000000000000 
P           0.666667000000000    0.333333000000000    0.500000000000000 
P           0.764492000000000    0.000000000000000    0.330379000000000 
P           0.764492000000000    0.000000000000000    0.669621000000000 
K           0.000000000000000    0.000000000000000    0.500000000000000 
K           0.000000000000000    0.595748000000000    0.000000000000000 
K           0.333333000000000    0.666667000000000    0.000000000000000 
K           0.404252000000000    0.404252000000000    0.000000000000000 
K           0.595748000000000    0.000000000000000    0.000000000000000 
K           0.666667000000000    0.333333000000000    0.000000000000000 
%ENDBLOCK POSITIONS_FRAC
