# Cell file generated by matador (Matthew Evans 2016)

%BLOCK LATTICE_CART
6.35911 0.0 0.0
-3.17955 5.50715 0.0
0.0 0.0 8.76758
%ENDBLOCK LATTICE_CART

%BLOCK POSITIONS_FRAC
P           0.000000000000000    0.000000000000000    0.077084000000000 
P           0.000000000000000    0.000000000000000    0.743896000000000 
P           0.333333000000000    0.666667000000000    0.828392000000000 
P           0.485635000000000    0.242818000000000    0.738785000000000 
P           0.666667000000000    0.333333000000000    0.993460000000000 
P           0.757182000000000    0.242818000000000    0.738785000000000 
P           0.757182000000000    0.514365000000000    0.738785000000000 
K           0.000000000000000    0.000000000000000    0.377542000000000 
K           0.226280000000000    0.452561000000000    0.137555000000000 
K           0.226280000000000    0.773720000000000    0.137555000000000 
K           0.547439000000000    0.773720000000000    0.137555000000000 
%ENDBLOCK POSITIONS_FRAC
