# Cell file generated by matador (Matthew Evans 2016)

%BLOCK LATTICE_CART
11.3285 0.0 0.0
0.0 11.3285 0.0
0.0 0.0 9.16864
%ENDBLOCK LATTICE_CART

%BLOCK POSITIONS_FRAC
P           0.148982000000000    0.351018000000000    0.102120000000000 
P           0.148982000000000    0.648982000000000    0.602120000000000 
P           0.351018000000000    0.148982000000000    0.602120000000000 
P           0.351018000000000    0.851018000000000    0.102120000000000 
P           0.648982000000000    0.148982000000000    0.102120000000000 
P           0.648982000000000    0.851018000000000    0.602120000000000 
P           0.851018000000000    0.351018000000000    0.602120000000000 
P           0.851018000000000    0.648982000000000    0.102120000000000 
K           0.093014000000000    0.406986000000000    0.909882000000000 
K           0.093014000000000    0.593014000000000    0.409882000000000 
K           0.153256000000000    0.346744000000000    0.325862000000000 
K           0.153256000000000    0.653256000000000    0.825862000000000 
K           0.195607000000000    0.304393000000000    0.639683000000000 
K           0.195607000000000    0.695607000000000    0.139683000000000 
K           0.304393000000000    0.195607000000000    0.139683000000000 
K           0.304393000000000    0.804393000000000    0.639683000000000 
K           0.346744000000000    0.153256000000000    0.825862000000000 
K           0.346744000000000    0.846744000000000    0.325862000000000 
K           0.406986000000000    0.093014000000000    0.409882000000000 
K           0.406986000000000    0.906986000000000    0.909882000000000 
K           0.593014000000000    0.093014000000000    0.909882000000000 
K           0.593014000000000    0.906986000000000    0.409882000000000 
K           0.653256000000000    0.153256000000000    0.325862000000000 
K           0.653256000000000    0.846744000000000    0.825862000000000 
K           0.695607000000000    0.195607000000000    0.639683000000000 
K           0.695607000000000    0.804393000000000    0.139683000000000 
K           0.804393000000000    0.304393000000000    0.139683000000000 
K           0.804393000000000    0.695607000000000    0.639683000000000 
K           0.846744000000000    0.346744000000000    0.825862000000000 
K           0.846744000000000    0.653256000000000    0.325862000000000 
K           0.906986000000000    0.406986000000000    0.409882000000000 
K           0.906986000000000    0.593014000000000    0.909882000000000 
%ENDBLOCK POSITIONS_FRAC
