# Cell file generated by matador (Matthew Evans 2016)

%BLOCK LATTICE_CART
7.49898 0.0 0.0
-3.74949 6.49431 0.0
0.0 0.0 9.34647
%ENDBLOCK LATTICE_CART

%BLOCK POSITIONS_FRAC
P           0.000000000000000    0.000000000000000    0.350013000000000 
P           0.082803000000000    0.574837000000000    0.210202000000000 
P           0.091830000000000    0.841300000000000    0.543536000000000 
P           0.158700000000000    0.250530000000000    0.543536000000000 
P           0.333333000000000    0.666667000000000    0.016680000000000 
P           0.416137000000000    0.241503000000000    0.876869000000000 
P           0.425163000000000    0.507967000000000    0.210202000000000 
P           0.492033000000000    0.917197000000000    0.210202000000000 
P           0.666667000000000    0.333333000000000    0.683347000000000 
P           0.749470000000000    0.908170000000000    0.543536000000000 
P           0.758497000000000    0.174633000000000    0.876869000000000 
P           0.825367000000000    0.583863000000000    0.876869000000000 
K           0.000000000000000    0.000000000000000    0.774193000000000 
K           0.333333000000000    0.666667000000000    0.440859000000000 
K           0.666667000000000    0.333333000000000    0.107526000000000 
%ENDBLOCK POSITIONS_FRAC
