# Cell file generated by matador (Matthew Evans 2016)

%BLOCK LATTICE_CART
5.97494 0.0 0.0
0.0 5.8183 0.0
-0.851597 0.0 2.96122
%ENDBLOCK LATTICE_CART

%BLOCK POSITIONS_FRAC
P           0.000000000000000    0.772662000000000    0.500000000000000 
K           0.000000000000000    0.275955000000000    0.000000000000000 
K           0.500000000000000    0.260874000000000    0.500000000000000 
%ENDBLOCK POSITIONS_FRAC
