# Cell file generated by matador (Matthew Evans 2016)

%BLOCK LATTICE_CART
7.10163 0.0 0.0
0.0 7.10163 0.0
0.0 0.0 8.54446
%ENDBLOCK LATTICE_CART

%BLOCK POSITIONS_FRAC
P           0.000000000000000    0.000000000000000    0.000000000000000 
P           0.000000000000000    0.000000000000000    0.419762000000000 
P           0.000000000000000    0.000000000000000    0.580238000000000 
P           0.500000000000000    0.500000000000000    0.000000000000000 
P           0.500000000000000    0.500000000000000    0.170031000000000 
P           0.500000000000000    0.500000000000000    0.500000000000000 
P           0.500000000000000    0.500000000000000    0.829969000000000 
K           0.000000000000000    0.500000000000000    0.899911000000000 
K           0.128375000000000    0.759145000000000    0.255811000000000 
K           0.240855000000000    0.128375000000000    0.744189000000000 
K           0.500000000000000    0.000000000000000    0.100089000000000 
K           0.759145000000000    0.871625000000000    0.744189000000000 
K           0.871625000000000    0.240855000000000    0.255811000000000 
%ENDBLOCK POSITIONS_FRAC
