# Cell file generated by matador (Matthew Evans 2016)

%BLOCK LATTICE_CART
9.58683 0.0 0.0
0.0 9.58683 0.0
0.0 0.0 10.1544
%ENDBLOCK LATTICE_CART

%BLOCK POSITIONS_FRAC
P           0.000000000000000    0.500000000000000    0.929836000000000 
P           0.214056000000000    0.714056000000000    0.826220000000000 
P           0.285944000000000    0.214056000000000    0.826220000000000 
P           0.500000000000000    0.000000000000000    0.929836000000000 
P           0.714056000000000    0.785944000000000    0.826220000000000 
P           0.785944000000000    0.285944000000000    0.826220000000000 
K           0.000000000000000    0.000000000000000    0.167535000000000 
K           0.113111000000000    0.386889000000000    0.366141000000000 
K           0.137322000000000    0.362678000000000    0.763763000000000 
K           0.182628000000000    0.682628000000000    0.489073000000000 
K           0.228341000000000    0.728341000000000    0.149973000000000 
K           0.271659000000000    0.228341000000000    0.149973000000000 
K           0.317372000000000    0.182628000000000    0.489073000000000 
K           0.362678000000000    0.862678000000000    0.763763000000000 
K           0.386889000000000    0.886889000000000    0.366141000000000 
K           0.500000000000000    0.500000000000000    0.167535000000000 
K           0.613111000000000    0.113111000000000    0.366141000000000 
K           0.637322000000000    0.137322000000000    0.763763000000000 
K           0.682628000000000    0.817372000000000    0.489073000000000 
K           0.728341000000000    0.771659000000000    0.149973000000000 
K           0.771659000000000    0.271659000000000    0.149973000000000 
K           0.817372000000000    0.317372000000000    0.489073000000000 
K           0.862678000000000    0.637322000000000    0.763763000000000 
K           0.886889000000000    0.613111000000000    0.366141000000000 
%ENDBLOCK POSITIONS_FRAC
