# Cell file generated by matador (Matthew Evans 2016)

%BLOCK LATTICE_CART
6.82335 0.0 0.0
0.0 6.55678 0.0
0.0 0.0 8.02496
%ENDBLOCK LATTICE_CART

%BLOCK POSITIONS_FRAC
P          -0.000000000000000    0.265100000000000    0.721307000000000 
P          -0.000000000000000    0.734900000000000    0.221307000000000 
P           0.500000000000000    0.234900000000000    0.221307000000000 
P           0.500000000000000    0.765100000000000    0.721307000000000 
K          -0.000000000000000    0.081151000000000    0.374697000000000 
K          -0.000000000000000    0.271444000000000    0.164706000000000 
K          -0.000000000000000    0.728556000000000    0.664706000000000 
K          -0.000000000000000    0.918849000000000    0.874697000000000 
K           0.500000000000000    0.228556000000000    0.664706000000000 
K           0.500000000000000    0.418849000000000    0.874697000000000 
K           0.500000000000000    0.581151000000000    0.374697000000000 
K           0.500000000000000    0.771444000000000    0.164706000000000 
%ENDBLOCK POSITIONS_FRAC
