# Cell file generated by matador (Matthew Evans 2016)

%BLOCK LATTICE_CART
9.44551 0.0 0.0
-4.72275 8.18005 0.0
0.0 0.0 5.21482
%ENDBLOCK LATTICE_CART

%BLOCK POSITIONS_FRAC
P           0.999999000000000    0.999999000000000    0.000000000000000 
P           0.999999000000000    0.999999000000000    0.250000000000000 
P           0.999999000000000    0.999999000000000    0.500000000000000 
P           0.999999000000000    0.999999000000000    0.750000000000000 
P           0.061288000000000    0.569905000000000    0.750000000000000 
P           0.333332000000000    0.666666000000000    0.250000000000000 
P           0.333332000000000    0.666666000000000    0.750000000000000 
P           0.430093000000000    0.491383000000000    0.750000000000000 
P           0.491383000000000    0.061288000000000    0.250000000000000 
P           0.508615000000000    0.938710000000000    0.750000000000000 
P           0.569905000000000    0.508615000000000    0.250000000000000 
P           0.666666000000000    0.333332000000000    0.250000000000000 
P           0.666666000000000    0.333332000000000    0.750000000000000 
P           0.938710000000000    0.430093000000000    0.250000000000000 
K           0.165541000000000    0.367378000000000    0.750000000000000 
K           0.201835000000000    0.834457000000000    0.750000000000000 
K           0.367378000000000    0.201835000000000    0.250000000000000 
K           0.632620000000000    0.798163000000000    0.750000000000000 
K           0.798163000000000    0.165541000000000    0.250000000000000 
K           0.834457000000000    0.632620000000000    0.250000000000000 
%ENDBLOCK POSITIONS_FRAC
