# Cell file generated by matador (Matthew Evans 2016)

%BLOCK LATTICE_CART
8.34061 0.0 0.0
0.0 6.98569 0.0
0.0 0.0 9.93913
%ENDBLOCK LATTICE_CART

%BLOCK POSITIONS_FRAC
P           0.000000000000000    0.000000000000000    0.000000000000000 
P           0.000000000000000    0.500000000000000    0.500000000000000 
P           0.500000000000000    0.000000000000000    0.000000000000000 
P           0.500000000000000    0.500000000000000    0.500000000000000 
K           0.000000000000000    0.000000000000000    0.500000000000000 
K           0.074122000000000    0.000000000000000    0.191374000000000 
K           0.250000000000000    0.000000000000000    0.705434000000000 
K           0.250000000000000    0.283023000000000    0.020864000000000 
K           0.250000000000000    0.716977000000000    0.020864000000000 
K           0.425878000000000    0.000000000000000    0.191374000000000 
K           0.500000000000000    0.000000000000000    0.500000000000000 
K           0.574122000000000    0.000000000000000    0.808626000000000 
K           0.750000000000000    0.000000000000000    0.294566000000000 
K           0.750000000000000    0.283023000000000    0.979136000000000 
K           0.750000000000000    0.716977000000000    0.979136000000000 
K           0.925878000000000    0.000000000000000    0.808626000000000 
%ENDBLOCK POSITIONS_FRAC
