# Cell file generated by matador (Matthew Evans 2016)

%BLOCK LATTICE_CART
8.79711 0.0 0.0
0.0 7.32215 0.0
0.0 0.0 9.45717
%ENDBLOCK LATTICE_CART

%BLOCK POSITIONS_FRAC
P           0.000000000000000    0.344499000000000    0.990039000000000 
P           0.000000000000000    0.655501000000000    0.490039000000000 
P           0.500000000000000    0.155501000000000    0.490039000000000 
P           0.500000000000000    0.844499000000000    0.990039000000000 
K           0.000000000000000    0.049974000000000    0.186823000000000 
K           0.000000000000000    0.287820000000000    0.445670000000000 
K           0.000000000000000    0.377751000000000    0.762480000000000 
K           0.000000000000000    0.622249000000000    0.262480000000000 
K           0.000000000000000    0.712180000000000    0.945670000000000 
K           0.000000000000000    0.950026000000000    0.686823000000000 
K           0.500000000000000    0.122249000000000    0.262480000000000 
K           0.500000000000000    0.212180000000000    0.945670000000000 
K           0.500000000000000    0.450026000000000    0.686823000000000 
K           0.500000000000000    0.549974000000000    0.186823000000000 
K           0.500000000000000    0.787820000000000    0.445670000000000 
K           0.500000000000000    0.877751000000000    0.762480000000000 
%ENDBLOCK POSITIONS_FRAC
