# Cell file generated by matador (Matthew Evans 2016)

%BLOCK LATTICE_CART
7.45424 0.0 0.0
-3.72712 6.45556 0.0
0.0 0.0 9.57359
%ENDBLOCK LATTICE_CART

%BLOCK POSITIONS_FRAC
P           0.066361000000000    0.132722000000000    0.166667000000000 
P           0.066361000000000    0.933639000000000    0.833334000000000 
P           0.867278000000000    0.933639000000000    0.500000000000000 
K           0.081715000000000    0.540857000000000    0.000000000000000 
K           0.231283000000000    0.115641000000000    0.000000000000000 
K           0.459143000000000    0.540857000000000    0.333334000000000 
K           0.459143000000000    0.918285000000000    0.666667000000000 
K           0.622946000000000    0.245891000000000    0.166667000000000 
K           0.622946000000000    0.377054000000000    0.833334000000000 
K           0.754109000000000    0.377054000000000    0.500000000000000 
K           0.884359000000000    0.115641000000000    0.333334000000000 
K           0.884359000000000    0.768717000000000    0.666667000000000 
%ENDBLOCK POSITIONS_FRAC
