# Cell file generated by matador (Matthew Evans 2016)

%BLOCK LATTICE_CART
7.95934 0.0 0.0
0.0 9.97892 0.0
0.0 0.0 7.53923
%ENDBLOCK LATTICE_CART

%BLOCK POSITIONS_FRAC
P           0.000000000000000    0.096238000000000    0.251139000000000 
P           0.067640000000000    0.527408000000000    0.344820000000000 
P           0.155448000000000    0.079509000000000    0.302279000000000 
P           0.217037000000000    0.746592000000000    0.578208000000000 
P           0.282963000000000    0.253408000000000    0.078208000000000 
P           0.344552000000000    0.920491000000000    0.802279000000000 
P           0.432360000000000    0.472592000000000    0.844820000000000 
P           0.500000000000000    0.903762000000000    0.751139000000000 
P           0.567640000000000    0.472592000000000    0.844820000000000 
P           0.655448000000000    0.920491000000000    0.802279000000000 
P           0.717037000000000    0.253408000000000    0.078208000000000 
P           0.782963000000000    0.746592000000000    0.578208000000000 
P           0.844552000000000    0.079509000000000    0.302279000000000 
P           0.932360000000000    0.527408000000000    0.344820000000000 
K           0.000000000000000    0.043417000000000    0.867247000000000 
K           0.222730000000000    0.595021000000000    0.780136000000000 
K           0.277270000000000    0.404979000000000    0.280136000000000 
K           0.500000000000000    0.956583000000000    0.367247000000000 
K           0.722730000000000    0.404979000000000    0.280136000000000 
K           0.777270000000000    0.595021000000000    0.780136000000000 
%ENDBLOCK POSITIONS_FRAC
