# Cell file generated by matador (Matthew Evans 2016)

%BLOCK LATTICE_CART
10.0689 0.0 0.0
-5.03447 8.71996 0.0
0.0 0.0 6.13427
%ENDBLOCK LATTICE_CART

%BLOCK POSITIONS_FRAC
P           0.004759000000000    0.854365000000000    0.776579000000000 
P           0.061827000000000    0.576211000000000    0.660360000000000 
P           0.145635000000000    0.150394000000000    0.776579000000000 
P           0.189048000000000    0.793297000000000    0.652046000000000 
P           0.206703000000000    0.395750000000000    0.652046000000000 
P           0.423789000000000    0.485616000000000    0.660360000000000 
P           0.424019000000000    0.347538000000000    0.698650000000000 
P           0.514384000000000    0.938173000000000    0.660360000000000 
P           0.604250000000000    0.810952000000000    0.652046000000000 
P           0.652462000000000    0.076481000000000    0.698650000000000 
P           0.849606000000000    0.995241000000000    0.776579000000000 
P           0.923519000000000    0.575981000000000    0.698650000000000 
K           0.000000000000000    0.000000000000000    0.464085000000000 
K           0.333333000000000    0.666667000000000    0.315460000000000 
%ENDBLOCK POSITIONS_FRAC
