# Cell file generated by matador (Matthew Evans 2016)

%BLOCK LATTICE_CART
8.01991 0.0 0.0
0.0 7.62396 0.0
-2.49067 0.0 6.90251
%ENDBLOCK LATTICE_CART

%BLOCK POSITIONS_FRAC
P           0.271670000000000    0.500000000000000    0.170500000000000 
P           0.770925000000000    0.500000000000000    0.107230000000000 
P           0.802238000000000    0.000000000000000    0.284676000000000 
K           0.105293000000000    0.500000000000000    0.779078000000000 
K           0.109202000000000    0.500000000000000    0.349633000000000 
K           0.331736000000000    0.000000000000000    0.077244000000000 
K           0.343399000000000    0.000000000000000    0.621827000000000 
K           0.527029000000000    0.500000000000000    0.672186000000000 
K           0.558615000000000    0.500000000000000    0.233759000000000 
K           0.611117000000000    0.000000000000000    0.457874000000000 
K           0.672622000000000    0.000000000000000    0.959248000000000 
K           0.983629000000000    0.000000000000000    0.636708000000000 
%ENDBLOCK POSITIONS_FRAC
