# Cell file generated by matador (Matthew Evans 2016)

%BLOCK LATTICE_CART
5.83551 0.0 0.0
0.0 5.80656 0.0
0.437608 0.0 6.21163
%ENDBLOCK LATTICE_CART

%BLOCK POSITIONS_FRAC
P           0.000000000000000    0.514660000000000   -0.000000000000000 
P           0.271732000000000    0.299659000000000    0.934711000000000 
P           0.395388000000000    0.920583000000000    0.347353000000000 
P           0.604612000000000    0.920583000000000    0.652647000000000 
P           0.728268000000000    0.299659000000000    0.065289000000000 
K           0.112930000000000    0.938595000000000    0.757967000000000 
K           0.500000000000000    0.204537000000000    0.500000000000000 
K           0.887070000000000    0.938595000000000    0.242033000000000 
%ENDBLOCK POSITIONS_FRAC
