# Cell file generated by matador (Matthew Evans 2016)

%BLOCK LATTICE_CART
5.53234 0.0 0.0
0.0 5.53234 0.0
0.0 0.0 10.2803
%ENDBLOCK LATTICE_CART

%BLOCK POSITIONS_FRAC
P           0.193981000000000    0.806019000000000    0.171592000000000 
P           0.306019000000000    0.306019000000000    0.671592000000000 
P           0.693981000000000    0.693981000000000    0.671592000000000 
P           0.806019000000000    0.193981000000000    0.171592000000000 
K           0.000000000000000    0.000000000000000    0.732329000000000 
K           0.000000000000000    0.000000000000000    0.966817000000000 
K           0.212918000000000    0.787082000000000    0.472061000000000 
K           0.287082000000000    0.287082000000000    0.972061000000000 
K           0.500000000000000    0.500000000000000    0.232329000000000 
K           0.500000000000000    0.500000000000000    0.466817000000000 
K           0.712918000000000    0.712918000000000    0.972061000000000 
K           0.787082000000000    0.212918000000000    0.472061000000000 
%ENDBLOCK POSITIONS_FRAC
