# Cell file generated by matador (Matthew Evans 2016)

%BLOCK LATTICE_CART
8.12215 0.0 0.0
-4.06108 7.03399 0.0
0.0 0.0 13.6901
%ENDBLOCK LATTICE_CART

%BLOCK POSITIONS_FRAC
P           0.000000000000000    0.000000000000000    0.500000000000000 
P           0.333333000000000    0.666667000000000    0.354815000000000 
P           0.333333000000000    0.666667000000000    0.645185000000000 
P           0.666667000000000    0.333333000000000    0.354815000000000 
P           0.666667000000000    0.333333000000000    0.645185000000000 
K           0.000000000000000    0.230752000000000    0.650213000000000 
K           0.000000000000000    0.412126000000000    0.879227000000000 
K           0.000000000000000    0.500000000000000    0.500000000000000 
K           0.000000000000000    0.587874000000000    0.120773000000000 
K           0.000000000000000    0.769248000000000    0.349787000000000 
K           0.230752000000000    0.000000000000000    0.650213000000000 
K           0.230752000000000    0.230752000000000    0.349787000000000 
K           0.412126000000000    0.000000000000000    0.879227000000000 
K           0.412126000000000    0.412126000000000    0.120773000000000 
K           0.500000000000000    0.000000000000000    0.500000000000000 
K           0.500000000000000    0.500000000000000    0.500000000000000 
K           0.587874000000000    0.000000000000000    0.120773000000000 
K           0.587874000000000    0.587874000000000    0.879227000000000 
K           0.769248000000000    0.000000000000000    0.349787000000000 
K           0.769248000000000    0.769248000000000    0.650213000000000 
%ENDBLOCK POSITIONS_FRAC
