# Cell file generated by matador (Matthew Evans 2016)

%BLOCK LATTICE_CART
9.35168 0.0 0.0
0.0 9.35168 0.0
0.0 0.0 5.20019
%ENDBLOCK LATTICE_CART

%BLOCK POSITIONS_FRAC
P           0.000000000000000    0.286257000000000    0.500000000000000 
P           0.000000000000000    0.500000000000000    0.500000000000000 
P           0.000000000000000    0.713743000000000    0.500000000000000 
P           0.106932000000000    0.500000000000000    0.500000000000000 
P           0.286257000000000    0.000000000000000    0.500000000000000 
P           0.500000000000000    0.000000000000000    0.500000000000000 
P           0.500000000000000    0.106932000000000    0.500000000000000 
P           0.500000000000000    0.893068000000000    0.500000000000000 
P           0.713743000000000    0.000000000000000    0.500000000000000 
P           0.893068000000000    0.500000000000000    0.500000000000000 
K           0.000000000000000    0.000000000000000    0.000000000000000 
K           0.000000000000000    0.000000000000000    0.500000000000000 
K           0.500000000000000    0.500000000000000    0.000000000000000 
K           0.500000000000000    0.500000000000000    0.500000000000000 
%ENDBLOCK POSITIONS_FRAC
