# Cell file generated by matador (Matthew Evans 2016)

%BLOCK LATTICE_CART
5.58841 0.0 0.0
0.0 7.52672 0.0
1.97788 0.0 10.2645
%ENDBLOCK LATTICE_CART

%BLOCK POSITIONS_FRAC
P           0.009587000000000    0.648002000000000    0.383014000000000 
P           0.040722000000000    0.473287000000000    0.239118000000000 
P           0.046048000000000    0.959189000000000    0.083115000000000 
P           0.133489000000000    0.917627000000000    0.766603000000000 
P           0.229467000000000    0.744822000000000    0.801807000000000 
P           0.270718000000000    0.307092000000000    0.600601000000000 
P           0.385199000000000    0.105696000000000    0.653678000000000 
P           0.614801000000000    0.105696000000000    0.346322000000000 
P           0.729282000000000    0.307092000000000    0.399399000000000 
P           0.770533000000000    0.744822000000000    0.198193000000000 
P           0.866511000000000    0.917627000000000    0.233397000000000 
P           0.953952000000000    0.959189000000000    0.916885000000000 
P           0.959278000000000    0.473287000000000    0.760882000000000 
P           0.990413000000000    0.648002000000000    0.616986000000000 
K           0.000000000000000    0.179008000000000    0.500000000000000 
K           0.000000000000000    0.213231000000000    0.000000000000000 
K           0.189808000000000    0.658304000000000    0.090776000000000 
K           0.406994000000000    0.952662000000000    0.128095000000000 
K           0.593006000000000    0.952662000000000    0.871905000000000 
K           0.810192000000000    0.658304000000000    0.909224000000000 
%ENDBLOCK POSITIONS_FRAC
