# Cell file generated by matador (Matthew Evans 2016)

%BLOCK LATTICE_CART
8.10975 0.0 0.0
-4.05488 7.02325 0.0
0.0 0.0 6.22218
%ENDBLOCK LATTICE_CART

%BLOCK POSITIONS_FRAC
P           0.000000000000000    0.000000000000000    0.080360000000000 
P           0.000000000000000    0.000000000000000    0.919640000000000 
P           0.333333000000000    0.666667000000000    0.178570000000000 
P           0.333333000000000    0.666667000000000    0.821430000000000 
P           0.666667000000000    0.333333000000000    0.178570000000000 
P           0.666667000000000    0.333333000000000    0.821430000000000 
K           0.000000000000000    0.509880000000000    0.500000000000000 
K           0.333333000000000    0.666667000000000    0.500000000000000 
K           0.490120000000000    0.490120000000000    0.500000000000000 
K           0.509880000000000    0.000000000000000    0.500000000000000 
K           0.666667000000000    0.333333000000000    0.500000000000000 
%ENDBLOCK POSITIONS_FRAC
