# Cell file generated by matador (Matthew Evans 2016)

%BLOCK LATTICE_CART
7.3107 0.0 0.0
0.0 11.4571 0.0
-2.87269 0.0 12.0354
%ENDBLOCK LATTICE_CART

%BLOCK POSITIONS_FRAC
P           0.000000000000000    0.000000000000000    0.500000000000000 
P           0.000000000000000    0.500000000000000    0.500000000000000 
P           0.309945000000000    0.250000000000000    0.005025000000000 
P           0.500000000000000    0.000000000000000    0.000000000000000 
P           0.500000000000000    0.500000000000000    0.000000000000000 
P           0.690055000000000    0.750000000000000    0.994975000000000 
K           0.000000000000000    0.000000000000000    0.000000000000000 
K           0.000000000000000    0.500000000000000    0.000000000000000 
K           0.001651000000000    0.750000000000000    0.730154000000000 
K           0.082659000000000    0.750000000000000    0.432689000000000 
K           0.166465000000000    0.618538000000000    0.210180000000000 
K           0.166465000000000    0.881462000000000    0.210180000000000 
K           0.452206000000000    0.250000000000000    0.835369000000000 
K           0.481731000000000    0.750000000000000    0.837559000000000 
K           0.483360000000000    0.250000000000000    0.473982000000000 
K           0.500000000000000    0.000000000000000    0.500000000000000 
K           0.500000000000000    0.500000000000000    0.500000000000000 
K           0.516640000000000    0.750000000000000    0.526018000000000 
K           0.518269000000000    0.250000000000000    0.162441000000000 
K           0.547794000000000    0.750000000000000    0.164631000000000 
K           0.833535000000000    0.118538000000000    0.789820000000000 
K           0.833535000000000    0.381462000000000    0.789820000000000 
K           0.917341000000000    0.250000000000000    0.567311000000000 
K           0.998349000000000    0.250000000000000    0.269846000000000 
%ENDBLOCK POSITIONS_FRAC
