# Cell file generated by matador (Matthew Evans 2016)

%BLOCK LATTICE_CART
7.33594 0.0 0.0
0.0 7.33594 0.0
0.0 0.0 8.70161
%ENDBLOCK LATTICE_CART

%BLOCK POSITIONS_FRAC
P           0.000000000000000    0.000000000000000    0.255085000000000 
P           0.000000000000000    0.000000000000000    0.744915000000000 
P           0.192779000000000    0.192779000000000    0.500000000000000 
P           0.192779000000000    0.807221000000000    0.500000000000000 
P           0.307221000000000    0.307221000000000    0.000000000000000 
P           0.307221000000000    0.692779000000000    0.000000000000000 
P           0.500000000000000    0.500000000000000    0.244915000000000 
P           0.500000000000000    0.500000000000000    0.755085000000000 
P           0.692779000000000    0.307221000000000    0.000000000000000 
P           0.692779000000000    0.692779000000000    0.000000000000000 
P           0.807221000000000    0.192779000000000    0.500000000000000 
P           0.807221000000000    0.807221000000000    0.500000000000000 
K           0.000000000000000    0.000000000000000    0.500000000000000 
K           0.500000000000000    0.500000000000000    0.000000000000000 
%ENDBLOCK POSITIONS_FRAC
