# Cell file generated by matador (Matthew Evans 2016)

%BLOCK LATTICE_CART
7.19996 0.0 0.0
0.0 7.19996 0.0
0.0 0.0 10.0136
%ENDBLOCK LATTICE_CART

%BLOCK POSITIONS_FRAC
P           0.000000000000000    0.000000000000000    0.703994000000000 
P           0.000000000000000    0.500000000000000    0.403317000000000 
P           0.500000000000000    0.000000000000000    0.403317000000000 
K           0.263707000000000    0.263707000000000    0.177677000000000 
K           0.263707000000000    0.736293000000000    0.177677000000000 
K           0.291495000000000    0.291495000000000    0.704148000000000 
K           0.291495000000000    0.708505000000000    0.704148000000000 
K           0.500000000000000    0.500000000000000    0.368807000000000 
K           0.708505000000000    0.291495000000000    0.704148000000000 
K           0.708505000000000    0.708505000000000    0.704148000000000 
K           0.736293000000000    0.263707000000000    0.177677000000000 
K           0.736293000000000    0.736293000000000    0.177677000000000 
%ENDBLOCK POSITIONS_FRAC
