# Cell file generated by matador (Matthew Evans 2016)

%BLOCK LATTICE_CART
7.1657 0.0 0.0
-3.58285 6.20568 0.0
0.0 0.0 13.029
%ENDBLOCK LATTICE_CART

%BLOCK POSITIONS_FRAC
P          -0.000000000000000   -0.000000000000000    0.345533000000000 
P          -0.000000000000000   -0.000000000000000    0.436617000000000 
P           0.333333000000000    0.666667000000000    0.012200000000000 
P           0.333333000000000    0.666667000000000    0.103284000000000 
P           0.666667000000000    0.333333000000000    0.678866000000000 
P           0.666667000000000    0.333333000000000    0.769950000000000 
K           0.085243000000000    0.226818000000000    0.036347000000000 
K           0.106515000000000    0.525092000000000    0.703014000000000 
K           0.141575000000000    0.914757000000000    0.036347000000000 
K           0.418576000000000    0.893485000000000    0.703014000000000 
K           0.439849000000000    0.191758000000000    0.369680000000000 
K           0.474908000000000    0.581424000000000    0.703014000000000 
K           0.751909000000000    0.560151000000000    0.369680000000000 
K           0.773182000000000    0.858425000000000    0.036347000000000 
K           0.808242000000000    0.248091000000000    0.369680000000000 
%ENDBLOCK POSITIONS_FRAC
