# Cell file generated by matador (Matthew Evans 2016)

%BLOCK LATTICE_CART
8.64551 0.0 0.0
0.0 7.48089 0.0
0.0 0.0 6.90986
%ENDBLOCK LATTICE_CART

%BLOCK POSITIONS_FRAC
P           0.223953000000000    0.334711000000000    0.143805000000000 
P           0.223953000000000    0.665289000000000    0.856195000000000 
P           0.276047000000000    0.165289000000000    0.643805000000000 
P           0.276047000000000    0.834711000000000    0.356195000000000 
P           0.723953000000000    0.165289000000000    0.356195000000000 
P           0.723953000000000    0.834711000000000    0.643805000000000 
P           0.776047000000000    0.334711000000000    0.856195000000000 
P           0.776047000000000    0.665289000000000    0.143805000000000 
K           0.000000000000000    0.000000000000000    0.000000000000000 
K           0.000000000000000    0.500000000000000    0.500000000000000 
K           0.500000000000000    0.000000000000000    0.000000000000000 
K           0.500000000000000    0.500000000000000    0.500000000000000 
%ENDBLOCK POSITIONS_FRAC
