# Cell file generated by matador (Matthew Evans 2016)

%BLOCK LATTICE_CART
9.37232 0.0 0.0
0.0 8.66288 0.0
1.67307 0.0 3.36979
%ENDBLOCK LATTICE_CART

%BLOCK POSITIONS_FRAC
P           0.204241000000000    0.252113000000000    0.140689000000000 
P           0.204241000000000    0.747887000000000    0.140689000000000 
P           0.474205000000000    0.500000000000000    0.357904000000000 
P           0.797537000000000    0.000000000000000    0.232703000000000 
P           0.927540000000000    0.500000000000000    0.967313000000000 
K           0.081196000000000    0.500000000000000    0.429997000000000 
K           0.407528000000000    0.184651000000000    0.543133000000000 
K           0.407528000000000    0.815349000000000    0.543133000000000 
K           0.695643000000000    0.500000000000000    0.500442000000000 
%ENDBLOCK POSITIONS_FRAC
