# Cell file generated by matador (Matthew Evans 2016)

%BLOCK LATTICE_CART
7.94534 0.0 0.0
-3.97267 6.88087 0.0
0.0 0.0 8.16068
%ENDBLOCK LATTICE_CART

%BLOCK POSITIONS_FRAC
P           0.000000000000000    0.000000000000000    0.000000000000000 
P           0.333333000000000    0.666667000000000    0.886847000000000 
P           0.666667000000000    0.333333000000000    0.113153000000000 
K           0.000000000000000    0.500000000000000    0.000000000000000 
K           0.195429000000000    0.390857000000000    0.648328000000000 
K           0.195429000000000    0.804571000000000    0.648328000000000 
K           0.390857000000000    0.195429000000000    0.351672000000000 
K           0.500000000000000    0.000000000000000    0.000000000000000 
K           0.500000000000000    0.500000000000000    0.000000000000000 
K           0.609143000000000    0.804571000000000    0.648328000000000 
K           0.804571000000000    0.195429000000000    0.351672000000000 
K           0.804571000000000    0.609143000000000    0.351672000000000 
%ENDBLOCK POSITIONS_FRAC
