# Cell file generated by matador (Matthew Evans 2016)

%BLOCK LATTICE_CART
10.6931 0.0 0.0
0.0 10.6931 0.0
0.0 0.0 11.0372
%ENDBLOCK LATTICE_CART

%BLOCK POSITIONS_FRAC
P          -0.000000000000000   -0.000000000000000    0.250000000000000 
P          -0.000000000000000   -0.000000000000000    0.750000000000000 
P          -0.000000000000000    0.500000000000000    0.000000000000000 
P          -0.000000000000000    0.500000000000000    0.500000000000000 
P           0.500000000000000   -0.000000000000000    0.000000000000000 
P           0.500000000000000   -0.000000000000000    0.500000000000000 
P           0.500000000000000    0.500000000000000    0.250000000000000 
P           0.500000000000000    0.500000000000000    0.750000000000000 
K          -0.000000000000000   -0.000000000000000    0.000000000000000 
K          -0.000000000000000   -0.000000000000000    0.500000000000000 
K          -0.000000000000000    0.500000000000000    0.250000000000000 
K          -0.000000000000000    0.500000000000000    0.750000000000000 
K           0.023091000000000    0.276265000000000    0.500000000000000 
K           0.041231000000000    0.273665000000000    0.000000000000000 
K           0.223735000000000    0.476909000000000    0.000000000000000 
K           0.226335000000000    0.458769000000000    0.500000000000000 
K           0.273665000000000    0.958769000000000    0.500000000000000 
K           0.276265000000000    0.976909000000000    0.000000000000000 
K           0.458769000000000    0.773665000000000    0.000000000000000 
K           0.476909000000000    0.776265000000000    0.500000000000000 
K           0.500000000000000   -0.000000000000000    0.250000000000000 
K           0.500000000000000   -0.000000000000000    0.750000000000000 
K           0.500000000000000    0.500000000000000    0.000000000000000 
K           0.500000000000000    0.500000000000000    0.500000000000000 
K           0.523091000000000    0.223735000000000    0.500000000000000 
K           0.541231000000000    0.226335000000000    0.000000000000000 
K           0.723735000000000    0.023091000000000    0.000000000000000 
K           0.726335000000000    0.041231000000000    0.500000000000000 
K           0.773665000000000    0.541231000000000    0.500000000000000 
K           0.776265000000000    0.523091000000000    0.000000000000000 
K           0.958769000000000    0.726335000000000    0.000000000000000 
K           0.976909000000000    0.723735000000000    0.500000000000000 
%ENDBLOCK POSITIONS_FRAC
