# Cell file generated by matador (Matthew Evans 2016)

%BLOCK LATTICE_CART
9.3429 0.0 0.0
-4.67145 8.09119 0.0
0.0 0.0 5.49679
%ENDBLOCK LATTICE_CART

%BLOCK POSITIONS_FRAC
P           0.303249000000000    0.151625000000000    0.139428000000000 
P           0.333333000000000    0.666667000000000    0.548318000000000 
P           0.666666000000000    0.333334000000000    0.310480000000000 
P           0.666666000000000    0.333334000000000    0.812124000000000 
P           0.848375000000000    0.151625000000000    0.139428000000000 
P           0.848375000000000    0.696751000000000    0.139428000000000 
K           0.077574000000000    0.155148000000000    0.027785000000000 
K           0.077574000000000    0.922426000000000    0.027785000000000 
K           0.109034000000000    0.554517000000000    0.896464000000000 
K           0.445483000000000    0.554517000000000    0.896464000000000 
K           0.445483000000000    0.890966000000000    0.896464000000000 
K           0.844852000000000    0.922426000000000    0.027785000000000 
%ENDBLOCK POSITIONS_FRAC
