# Cell file generated by matador (Matthew Evans 2016)

%BLOCK LATTICE_CART
11.6496 0.0 0.0
0.0 4.99171 0.0
1.6375 0.0 6.40718
%ENDBLOCK LATTICE_CART

%BLOCK POSITIONS_FRAC
P           0.000000000000000    0.520122000000000    0.500000000000000 
P           0.064664000000000    0.863158000000000    0.458970000000000 
P           0.065581000000000    0.251437000000000    0.894301000000000 
P           0.160919000000000    0.428110000000000    0.255342000000000 
P           0.839081000000000    0.428110000000000    0.744658000000000 
P           0.934419000000000    0.251437000000000    0.105699000000000 
P           0.935336000000000    0.863158000000000    0.541030000000000 
K           0.000000000000000    0.628396000000000    0.000000000000000 
K           0.163082000000000    0.803173000000000    0.946449000000000 
K           0.334999000000000    0.118244000000000    0.337941000000000 
K           0.665001000000000    0.118244000000000    0.662059000000000 
K           0.836918000000000    0.803173000000000    0.053551000000000 
%ENDBLOCK POSITIONS_FRAC
