# Cell file generated by matador (Matthew Evans 2016)

%BLOCK LATTICE_CART
4.70573 0.0 0.0
0.0 8.4054 0.0
-0.510601 0.0 10.3688
%ENDBLOCK LATTICE_CART

%BLOCK POSITIONS_FRAC
P           0.011600000000000    0.931235000000000    0.388083000000000 
P           0.050276000000000    0.498615000000000    0.034703000000000 
P           0.162331000000000    0.706312000000000    0.213304000000000 
P           0.207240000000000    0.154263000000000    0.021556000000000 
P           0.329728000000000    0.769793000000000    0.169528000000000 
P           0.352989000000000    0.096516000000000    0.537785000000000 
P           0.442479000000000    0.614837000000000    0.606069000000000 
P           0.557521000000000    0.114837000000000    0.393931000000000 
P           0.647011000000000    0.596516000000000    0.462215000000000 
P           0.670272000000000    0.269793000000000    0.830472000000000 
P           0.792760000000000    0.654263000000000    0.978444000000000 
P           0.837669000000000    0.206312000000000    0.786696000000000 
P           0.949724000000000    0.998615000000000    0.965297000000000 
P           0.988400000000000    0.431235000000000    0.611917000000000 
K           0.450784000000000    0.809304000000000    0.389025000000000 
K           0.549216000000000    0.309304000000000    0.610975000000000 
%ENDBLOCK POSITIONS_FRAC
