# Cell file generated by matador (Matthew Evans 2016)

%BLOCK LATTICE_CART
6.33668 0.0 0.0
-3.16834 5.48773 0.0
0.0 0.0 10.6145
%ENDBLOCK LATTICE_CART

%BLOCK POSITIONS_FRAC
P           0.000000000000000    0.000000000000000    0.305142000000000 
P           0.000000000000000    0.000000000000000    0.404167000000000 
P           0.000000000000000    0.000000000000000    0.500000000000000 
P           0.000000000000000    0.000000000000000    0.595833000000000 
P           0.000000000000000    0.000000000000000    0.694858000000000 
P           0.333333000000000    0.666667000000000    0.956230000000000 
P           0.666667000000000    0.333333000000000    0.043770000000000 
K           0.000000000000000    0.500000000000000    0.500000000000000 
K           0.333333000000000    0.666667000000000    0.640297000000000 
K           0.500000000000000    0.000000000000000    0.500000000000000 
K           0.500000000000000    0.500000000000000    0.500000000000000 
K           0.666667000000000    0.333333000000000    0.359703000000000 
%ENDBLOCK POSITIONS_FRAC
