# Cell file generated by matador (Matthew Evans 2016)

%BLOCK LATTICE_CART
10.183 0.0 0.0
-0.531391 6.53452 0.0
-1.11644 3.34216 7.47951
%ENDBLOCK LATTICE_CART

%BLOCK POSITIONS_FRAC
P           0.000000000000000    0.500000000000000    0.000000000000000 
P           0.000000000000000    0.500000000000000    0.500000000000000 
P           0.215772000000000    0.893716000000000    0.905836000000000 
P           0.355693000000000    0.129488000000000    0.374328000000000 
P           0.400615000000000    0.941982000000000    0.499830000000000 
P           0.500000000000000    0.000000000000000    0.000000000000000 
P           0.500000000000000    0.000000000000000    0.500000000000000 
P           0.599385000000000    0.058018000000000    0.500170000000000 
P           0.644307000000000    0.870512000000000    0.625672000000000 
P           0.784228000000000    0.106284000000000    0.094164000000000 
K           0.010101000000000    0.366621000000000    0.266933000000000 
K           0.290083000000000    0.002396000000000    0.187145000000000 
K           0.427050000000000    0.796898000000000    0.879340000000000 
K           0.572950000000000    0.203102000000000    0.120660000000000 
K           0.709917000000000    0.997604000000000    0.812855000000000 
K           0.989899000000000    0.633379000000000    0.733067000000000 
%ENDBLOCK POSITIONS_FRAC
