# Cell file generated by matador (Matthew Evans 2016)

%BLOCK LATTICE_CART
6.53305 0.0 0.0
0.0 6.46342 0.0
-3.47577 0.0 6.44056
%ENDBLOCK LATTICE_CART

%BLOCK POSITIONS_FRAC
P          -0.000000000000000    0.000000000000000    0.500000000000000 
P          -0.000000000000000    0.500000000000000    0.000000000000000 
P           0.500000000000000    0.000000000000000    0.500000000000000 
P           0.500000000000000    0.500000000000000    0.000000000000000 
P           0.500000000000000    0.500000000000000    0.500000000000000 
K          -0.000000000000000    0.000000000000000    0.000000000000000 
K           0.413029000000000    0.246742000000000    0.700651000000000 
K           0.413029000000000    0.753258000000000    0.700651000000000 
K           0.500000000000000    0.000000000000000    0.000000000000000 
K           0.586971000000000    0.246742000000000    0.299349000000000 
K           0.586971000000000    0.753258000000000    0.299349000000000 
%ENDBLOCK POSITIONS_FRAC
