# Cell file generated by matador (Matthew Evans 2016)

%BLOCK LATTICE_CART
6.55223 0.0 0.0
0.0 6.55223 0.0
0.0 0.0 8.63392
%ENDBLOCK LATTICE_CART

%BLOCK POSITIONS_FRAC
P           0.000000000000000    0.000000000000000    0.361304000000000 
P           0.298688000000000    0.633655000000000    0.485264000000000 
P           0.366345000000000    0.298688000000000    0.485264000000000 
P           0.378796000000000    0.385180000000000    0.313584000000000 
P           0.385180000000000    0.621204000000000    0.313584000000000 
P           0.614820000000000    0.378796000000000    0.313584000000000 
P           0.621204000000000    0.614820000000000    0.313584000000000 
P           0.633655000000000    0.701312000000000    0.485264000000000 
P           0.701312000000000    0.366345000000000    0.485264000000000 
K           0.000000000000000    0.500000000000000    0.929819000000000 
K           0.500000000000000    0.000000000000000    0.929819000000000 
K           0.500000000000000    0.500000000000000    0.750086000000000 
%ENDBLOCK POSITIONS_FRAC
