# Cell file generated by matador (Matthew Evans 2016)

%BLOCK LATTICE_CART
7.68887 0.0 0.0
-3.84443 6.65876 0.0
0.0 0.0 10.8216
%ENDBLOCK LATTICE_CART

%BLOCK POSITIONS_FRAC
P           0.000000000000000    0.000000000000000    0.500000000000000 
P           0.054576000000000    0.899825000000000    0.500000000000000 
P           0.100175000000000    0.154751000000000    0.500000000000000 
P           0.154751000000000    0.054576000000000    0.500000000000000 
P           0.333333000000000    0.666667000000000    0.000000000000000 
P           0.666667000000000    0.333333000000000    0.000000000000000 
P           0.845249000000000    0.945424000000000    0.500000000000000 
P           0.899825000000000    0.845249000000000    0.500000000000000 
P           0.945424000000000    0.100175000000000    0.500000000000000 
K           0.000000000000000    0.000000000000000    0.000000000000000 
K           0.069971000000000    0.647634000000000    0.500000000000000 
K           0.333333000000000    0.666667000000000    0.500000000000000 
K           0.352366000000000    0.422337000000000    0.500000000000000 
K           0.422337000000000    0.069971000000000    0.500000000000000 
K           0.577663000000000    0.930029000000000    0.500000000000000 
K           0.647634000000000    0.577663000000000    0.500000000000000 
K           0.666667000000000    0.333333000000000    0.500000000000000 
K           0.930029000000000    0.352366000000000    0.500000000000000 
%ENDBLOCK POSITIONS_FRAC
