# Cell file generated by matador (Matthew Evans 2016)

%BLOCK LATTICE_CART
5.21674 0.0 0.0
-2.60837 4.51783 0.0
0.0 0.0 7.18477
%ENDBLOCK LATTICE_CART

%BLOCK POSITIONS_FRAC
P           0.333333000000000    0.666667000000000    0.278367000000000 
P           0.333333000000000    0.666667000000000    0.721633000000000 
P           0.666666000000000    0.333334000000000    0.246923000000000 
P           0.666666000000000    0.333334000000000    0.500000000000000 
P           0.666666000000000    0.333334000000000    0.753077000000000 
K           0.333333000000000    0.666667000000000    0.000000000000000 
%ENDBLOCK POSITIONS_FRAC
