# Cell file generated by matador (Matthew Evans 2016)

%BLOCK LATTICE_CART
9.83522 0.0 0.0
0.0 9.83522 0.0
0.0 0.0 5.21465
%ENDBLOCK LATTICE_CART

%BLOCK POSITIONS_FRAC
P           0.000000000000000    0.500000000000000    0.000000000000000 
P           0.000000000000000    0.500000000000000    0.500000000000000 
P           0.241045000000000    0.500000000000000    0.500000000000000 
P           0.500000000000000    0.000000000000000    0.000000000000000 
P           0.500000000000000    0.000000000000000    0.500000000000000 
P           0.500000000000000    0.241045000000000    0.500000000000000 
P           0.500000000000000    0.758955000000000    0.500000000000000 
P           0.758955000000000    0.500000000000000    0.500000000000000 
K           0.000000000000000    0.000000000000000    0.000000000000000 
K           0.357257000000000    0.500000000000000    0.186893000000000 
K           0.357257000000000    0.500000000000000    0.813107000000000 
K           0.500000000000000    0.357257000000000    0.186893000000000 
K           0.500000000000000    0.357257000000000    0.813107000000000 
K           0.500000000000000    0.500000000000000    0.500000000000000 
K           0.500000000000000    0.642743000000000    0.186893000000000 
K           0.500000000000000    0.642743000000000    0.813107000000000 
K           0.642743000000000    0.500000000000000    0.186893000000000 
K           0.642743000000000    0.500000000000000    0.813107000000000 
%ENDBLOCK POSITIONS_FRAC
