# Cell file generated by matador (Matthew Evans 2016)

%BLOCK LATTICE_CART
6.56929 0.0 0.0
0.0 6.56929 0.0
0.0 0.0 10.5472
%ENDBLOCK LATTICE_CART

%BLOCK POSITIONS_FRAC
P           0.193240000000000    0.403091000000000    0.212397000000000 
P           0.193240000000000    0.596909000000000    0.287603000000000 
P           0.222949000000000    0.222949000000000    0.875000000000000 
P           0.222949000000000    0.777051000000000    0.625000000000000 
P           0.403091000000000    0.193240000000000    0.537603000000000 
P           0.403091000000000    0.806760000000000    0.962397000000000 
P           0.596909000000000    0.193240000000000    0.462397000000000 
P           0.596909000000000    0.806760000000000    0.037603000000000 
P           0.777051000000000    0.222949000000000    0.125000000000000 
P           0.777051000000000    0.777051000000000    0.375000000000000 
P           0.806760000000000    0.403091000000000    0.787603000000000 
P           0.806760000000000    0.596909000000000    0.712397000000000 
K           0.000000000000000    0.045021000000000    0.000000000000000 
K           0.000000000000000    0.954979000000000    0.500000000000000 
K           0.045021000000000    0.000000000000000    0.750000000000000 
K           0.498158000000000    0.498158000000000    0.375000000000000 
K           0.498158000000000    0.501842000000000    0.125000000000000 
K           0.501842000000000    0.498158000000000    0.625000000000000 
K           0.501842000000000    0.501842000000000    0.875000000000000 
K           0.954979000000000    0.000000000000000    0.250000000000000 
%ENDBLOCK POSITIONS_FRAC
