# Cell file generated by matador (Matthew Evans 2016)

%BLOCK LATTICE_CART
6.47429 0.0 0.0
-3.23715 5.6069 0.0
0.0 0.0 8.29103
%ENDBLOCK LATTICE_CART

%BLOCK POSITIONS_FRAC
P           0.000000000000000    0.308914000000000    0.500000000000000 
P           0.000000000000000    0.578875000000000    0.000000000000000 
P           0.308914000000000    0.000000000000000    0.500000000000000 
P           0.421125000000000    0.421125000000000    0.000000000000000 
P           0.578875000000000    0.000000000000000    0.000000000000000 
P           0.691086000000000    0.691086000000000    0.500000000000000 
K           0.000000000000000    0.000000000000000    0.000000000000000 
K           0.000000000000000    0.000000000000000    0.500000000000000 
K           0.333333000000000    0.666667000000000    0.769014000000000 
K           0.666667000000000    0.333333000000000    0.230986000000000 
%ENDBLOCK POSITIONS_FRAC
