# Cell file generated by matador (Matthew Evans 2016)

%BLOCK LATTICE_CART
8.17704 0.0 0.0
-4.08852 7.08152 0.0
0.0 0.0 7.96629
%ENDBLOCK LATTICE_CART

%BLOCK POSITIONS_FRAC
P           0.000000000000000    0.000000000000000    0.000000000000000 
P           0.333333000000000    0.666667000000000    0.500000000000000 
P           0.666667000000000    0.333333000000000    0.500000000000000 
K           0.000000000000000    0.000000000000000    0.500000000000000 
K           0.119479000000000    0.409521000000000    0.500000000000000 
K           0.290042000000000    0.880521000000000    0.500000000000000 
K           0.333333000000000    0.666667000000000    0.000000000000000 
K           0.409521000000000    0.290042000000000    0.500000000000000 
K           0.590479000000000    0.709958000000000    0.500000000000000 
K           0.666667000000000    0.333333000000000    0.000000000000000 
K           0.709958000000000    0.119479000000000    0.500000000000000 
K           0.880521000000000    0.590479000000000    0.500000000000000 
%ENDBLOCK POSITIONS_FRAC
