# Cell file generated by matador (Matthew Evans 2016)

%BLOCK LATTICE_CART
7.20122 0.0 0.0
0.0 5.41352 0.0
-0.0689959 0.0 6.42256
%ENDBLOCK LATTICE_CART

%BLOCK POSITIONS_FRAC
P           0.000000000000000    0.109711000000000    0.000000000000000 
P           0.000000000000000    0.769462000000000    0.000000000000000 
P           0.354703000000000    0.892210000000000    0.756056000000000 
P           0.500000000000000    0.243827000000000    0.000000000000000 
P           0.500000000000000    0.375931000000000    0.500000000000000 
P           0.500000000000000    0.725914000000000    0.500000000000000 
P           0.645297000000000    0.892210000000000    0.243944000000000 
K           0.160926000000000    0.416694000000000    0.791938000000000 
K           0.839074000000000    0.416694000000000    0.208062000000000 
%ENDBLOCK POSITIONS_FRAC
