# Cell file generated by matador (Matthew Evans 2016)

%BLOCK LATTICE_CART
6.18083 0.0 0.0
0.0 5.26283 0.0
0.457986 0.0 9.79886
%ENDBLOCK LATTICE_CART

%BLOCK POSITIONS_FRAC
P           0.000000000000000    0.009531000000000    0.000000000000000 
P           0.000000000000000    0.686956000000000    0.500000000000000 
P           0.500000000000000    0.265990000000000    0.000000000000000 
P           0.500000000000000    0.586317000000000    0.500000000000000 
K           0.096075000000000    0.194027000000000    0.781386000000000 
K           0.340724000000000    0.042524000000000    0.305308000000000 
K           0.500000000000000    0.154665000000000    0.500000000000000 
K           0.659276000000000    0.042524000000000    0.694692000000000 
K           0.903925000000000    0.194027000000000    0.218614000000000 
%ENDBLOCK POSITIONS_FRAC
