# Cell file generated by matador (Matthew Evans 2016)

%BLOCK LATTICE_CART
5.68382 0.0 0.0
-2.84191 4.92234 0.0
0.0 0.0 14.5203
%ENDBLOCK LATTICE_CART

%BLOCK POSITIONS_FRAC
P           0.000000000000000    0.000000000000000    0.500000000000000 
P           0.000000000000000    0.500000000000000    0.000000000000000 
P           0.024914000000000    0.512457000000000    0.316403000000000 
P           0.487543000000000    0.512457000000000    0.316403000000000 
P           0.487543000000000    0.975086000000000    0.316403000000000 
P           0.500000000000000    0.000000000000000    0.000000000000000 
P           0.500000000000000    0.500000000000000    0.000000000000000 
P           0.512457000000000    0.024914000000000    0.683597000000000 
P           0.512457000000000    0.487543000000000    0.683597000000000 
P           0.975086000000000    0.487543000000000    0.683597000000000 
K           0.000000000000000    0.000000000000000    0.000000000000000 
K           0.000000000000000    0.500000000000000    0.500000000000000 
K           0.500000000000000    0.000000000000000    0.500000000000000 
K           0.500000000000000    0.500000000000000    0.500000000000000 
%ENDBLOCK POSITIONS_FRAC
