# Cell file generated by matador (Matthew Evans 2016)

%BLOCK LATTICE_CART
9.44742 0.0 0.0
0.0 13.7924 0.0
0.0 0.0 10.5967
%ENDBLOCK LATTICE_CART

%BLOCK POSITIONS_FRAC
P           0.000000000000000    0.281239000000000    0.731261000000000 
P           0.000000000000000    0.426498000000000    0.697167000000000 
P           0.000000000000000    0.573502000000000    0.197167000000000 
P           0.000000000000000    0.718761000000000    0.231261000000000 
P           0.500000000000000    0.073502000000000    0.197167000000000 
P           0.500000000000000    0.218761000000000    0.231261000000000 
P           0.500000000000000    0.781239000000000    0.731261000000000 
P           0.500000000000000    0.926498000000000    0.697167000000000 
K           0.000000000000000    0.026073000000000    0.055828000000000 
K           0.000000000000000    0.081946000000000    0.789799000000000 
K           0.000000000000000    0.200755000000000    0.559603000000000 
K           0.000000000000000    0.279610000000000    0.941775000000000 
K           0.000000000000000    0.292206000000000    0.240371000000000 
K           0.000000000000000    0.441856000000000    0.503381000000000 
K           0.000000000000000    0.558144000000000    0.003381000000000 
K           0.000000000000000    0.707794000000000    0.740371000000000 
K           0.000000000000000    0.720390000000000    0.441775000000000 
K           0.000000000000000    0.799245000000000    0.059603000000000 
K           0.000000000000000    0.918054000000000    0.289799000000000 
K           0.000000000000000    0.973927000000000    0.555828000000000 
K           0.500000000000000    0.058144000000000    0.003381000000000 
K           0.500000000000000    0.207794000000000    0.740371000000000 
K           0.500000000000000    0.220390000000000    0.441775000000000 
K           0.500000000000000    0.299245000000000    0.059603000000000 
K           0.500000000000000    0.418054000000000    0.289799000000000 
K           0.500000000000000    0.473927000000000    0.555828000000000 
K           0.500000000000000    0.526073000000000    0.055828000000000 
K           0.500000000000000    0.581946000000000    0.789799000000000 
K           0.500000000000000    0.700755000000000    0.559603000000000 
K           0.500000000000000    0.779610000000000    0.941775000000000 
K           0.500000000000000    0.792206000000000    0.240371000000000 
K           0.500000000000000    0.941856000000000    0.503381000000000 
%ENDBLOCK POSITIONS_FRAC
