# Cell file generated by matador (Matthew Evans 2016)

%BLOCK LATTICE_CART
11.5604 0.0 0.0
-5.78022 10.0116 0.0
0.0 0.0 9.01896
%ENDBLOCK LATTICE_CART

%BLOCK POSITIONS_FRAC
P           0.000000000000000    0.000000000000000    0.500000000000000 
P           0.333333000000000    0.666667000000000    0.225740000000000 
P           0.333333000000000    0.666667000000000    0.500000000000000 
P           0.333333000000000    0.666667000000000    0.774260000000000 
P           0.666667000000000    0.333333000000000    0.225740000000000 
P           0.666667000000000    0.333333000000000    0.500000000000000 
P           0.666667000000000    0.333333000000000    0.774260000000000 
K           0.000000000000000    0.000000000000000    0.000000000000000 
K           0.000000000000000    0.501042000000000    0.253361000000000 
K           0.000000000000000    0.501042000000000    0.746639000000000 
K           0.000000000000000    0.823356000000000    0.284967000000000 
K           0.000000000000000    0.823356000000000    0.715033000000000 
K           0.155286000000000    0.774833000000000    0.000000000000000 
K           0.176644000000000    0.176644000000000    0.284967000000000 
K           0.176644000000000    0.176644000000000    0.715033000000000 
K           0.225167000000000    0.380453000000000    0.000000000000000 
K           0.333333000000000    0.666667000000000    0.000000000000000 
K           0.380453000000000    0.225167000000000    0.000000000000000 
K           0.498958000000000    0.498958000000000    0.253361000000000 
K           0.498958000000000    0.498958000000000    0.746639000000000 
K           0.501042000000000    0.000000000000000    0.253361000000000 
K           0.501042000000000    0.000000000000000    0.746639000000000 
K           0.619547000000000    0.844714000000000    0.000000000000000 
K           0.666667000000000    0.333333000000000    0.000000000000000 
K           0.774833000000000    0.155286000000000    0.000000000000000 
K           0.823356000000000    0.000000000000000    0.284967000000000 
K           0.823356000000000    0.000000000000000    0.715033000000000 
K           0.844714000000000    0.619547000000000    0.000000000000000 
%ENDBLOCK POSITIONS_FRAC
