# Cell file generated by matador (Matthew Evans 2016)

%BLOCK LATTICE_CART
8.29004 0.0 0.0
-4.14502 7.17938 0.0
0.0 0.0 7.61015
%ENDBLOCK LATTICE_CART

%BLOCK POSITIONS_FRAC
P           0.333333000000000    0.666667000000000    0.500000000000000 
P           0.537901000000000    0.075803000000000    0.200512000000000 
P           0.537901000000000    0.075803000000000    0.799488000000000 
P           0.537901000000000    0.462099000000000    0.200512000000000 
P           0.537901000000000    0.462099000000000    0.799488000000000 
P           0.666667000000000    0.333333000000000    0.365346000000000 
P           0.666667000000000    0.333333000000000    0.634654000000000 
P           0.924197000000000    0.462099000000000    0.200512000000000 
P           0.924197000000000    0.462099000000000    0.799488000000000 
K           0.167404000000000    0.083702000000000    0.500000000000000 
K           0.916298000000000    0.083702000000000    0.500000000000000 
K           0.916298000000000    0.832596000000000    0.500000000000000 
%ENDBLOCK POSITIONS_FRAC
