# Cell file generated by matador (Matthew Evans 2016)

%BLOCK LATTICE_CART
7.43795 0.0 0.0
-3.71898 6.44146 0.0
0.0 0.0 7.15681
%ENDBLOCK LATTICE_CART

%BLOCK POSITIONS_FRAC
P           0.000000000000000    0.000000000000000   -0.000000000000000 
P           0.000000000000000    0.000000000000000    0.250000000000000 
P           0.000000000000000    0.000000000000000    0.500000000000000 
P           0.000000000000000    0.000000000000000    0.750000000000000 
K           0.127498000000000    0.476402000000000    0.750000000000000 
K           0.348904000000000    0.872502000000000    0.750000000000000 
K           0.476402000000000    0.127498000000000    0.250000000000000 
K           0.523598000000000    0.651096000000000    0.750000000000000 
K           0.651096000000000    0.523598000000000    0.250000000000000 
K           0.872502000000000    0.348904000000000    0.250000000000000 
%ENDBLOCK POSITIONS_FRAC
