# Cell file generated by matador (Matthew Evans 2016)

%BLOCK LATTICE_CART
7.46724 0.0 0.0
0.0 11.4451 0.0
0.0 0.0 7.28996
%ENDBLOCK LATTICE_CART

%BLOCK POSITIONS_FRAC
P           0.000000000000000    0.099370000000000    0.005388000000000 
P           0.000000000000000    0.900630000000000    0.005388000000000 
P           0.165428000000000    0.000000000000000    0.328201000000000 
P           0.834572000000000    0.000000000000000    0.328201000000000 
K           0.000000000000000    0.175726000000000    0.737326000000000 
K           0.000000000000000    0.254084000000000    0.116161000000000 
K           0.000000000000000    0.374365000000000    0.475868000000000 
K           0.000000000000000    0.625635000000000    0.475868000000000 
K           0.000000000000000    0.745916000000000    0.116161000000000 
K           0.000000000000000    0.824274000000000    0.737326000000000 
K           0.259189000000000    0.000000000000000    0.587960000000000 
K           0.500000000000000    0.182765000000000    0.403059000000000 
K           0.500000000000000    0.239613000000000    0.998727000000000 
K           0.500000000000000    0.760387000000000    0.998727000000000 
K           0.500000000000000    0.817235000000000    0.403059000000000 
K           0.740811000000000    0.000000000000000    0.587960000000000 
%ENDBLOCK POSITIONS_FRAC
