# Cell file generated by matador (Matthew Evans 2016)

%BLOCK LATTICE_CART
8.57132 0.0 0.0
0.0 8.57132 0.0
0.0 0.0 8.57132
%ENDBLOCK LATTICE_CART

%BLOCK POSITIONS_FRAC
P           0.000000000000000    0.000000000000000    0.000000000000000 
P           0.500000000000000    0.500000000000000    0.500000000000000 
K           0.000000000000000    0.000000000000000    0.500000000000000 
K           0.000000000000000    0.500000000000000    0.000000000000000 
K           0.000000000000000    0.500000000000000    0.500000000000000 
K           0.189008000000000    0.189008000000000    0.189008000000000 
K           0.189008000000000    0.810992000000000    0.810992000000000 
K           0.310992000000000    0.310992000000000    0.689008000000000 
K           0.310992000000000    0.689008000000000    0.310992000000000 
K           0.500000000000000    0.000000000000000    0.000000000000000 
K           0.500000000000000    0.000000000000000    0.500000000000000 
K           0.500000000000000    0.500000000000000    0.000000000000000 
K           0.689008000000000    0.310992000000000    0.310992000000000 
K           0.689008000000000    0.689008000000000    0.689008000000000 
K           0.810992000000000    0.189008000000000    0.810992000000000 
K           0.810992000000000    0.810992000000000    0.189008000000000 
%ENDBLOCK POSITIONS_FRAC
