# Cell file generated by matador (Matthew Evans 2016)

%BLOCK LATTICE_CART
6.30171 0.0 0.0
0.0 6.30171 0.0
0.0 0.0 11.4497
%ENDBLOCK LATTICE_CART

%BLOCK POSITIONS_FRAC
P           0.000000000000000    0.500000000000000   -0.000000000000000 
P           0.500000000000000    0.000000000000000    0.500000000000000 
K           0.000000000000000    0.000000000000000   -0.000000000000000 
K           0.000000000000000    0.000000000000000    0.250000000000000 
K           0.000000000000000    0.000000000000000    0.500000000000000 
K           0.000000000000000    0.000000000000000    0.750000000000000 
K           0.309801000000000    0.500000000000000    0.339015000000000 
K           0.309801000000000    0.500000000000000    0.660985000000000 
K           0.500000000000000    0.309801000000000    0.160985000000000 
K           0.500000000000000    0.309801000000000    0.839015000000000 
K           0.500000000000000    0.690199000000000    0.160985000000000 
K           0.500000000000000    0.690199000000000    0.839015000000000 
K           0.690199000000000    0.500000000000000    0.339015000000000 
K           0.690199000000000    0.500000000000000    0.660985000000000 
%ENDBLOCK POSITIONS_FRAC
