# Cell file generated by matador (Matthew Evans 2016)

%BLOCK LATTICE_CART
8.97149 0.0 0.0
-4.48574 7.76954 0.0
0.0 0.0 9.15997
%ENDBLOCK LATTICE_CART

%BLOCK POSITIONS_FRAC
P           0.000000000000000    0.000000000000000    0.000000000000000 
P           0.000000000000000    0.500000000000000    0.500000000000000 
P           0.500000000000000    0.000000000000000    0.500000000000000 
P           0.500000000000000    0.500000000000000    0.500000000000000 
K           0.000000000000000    0.000000000000000    0.500000000000000 
K           0.000000000000000    0.247452000000000    0.714249000000000 
K           0.000000000000000    0.500000000000000    0.000000000000000 
K           0.000000000000000    0.752548000000000    0.285751000000000 
K           0.247452000000000    0.000000000000000    0.714249000000000 
K           0.247452000000000    0.247452000000000    0.285751000000000 
K           0.333333000000000    0.666667000000000    0.500000000000000 
K           0.500000000000000    0.000000000000000    0.000000000000000 
K           0.500000000000000    0.500000000000000    0.000000000000000 
K           0.666667000000000    0.333333000000000    0.500000000000000 
K           0.752548000000000    0.000000000000000    0.285751000000000 
K           0.752548000000000    0.752548000000000    0.714249000000000 
%ENDBLOCK POSITIONS_FRAC
