# Cell file generated by matador (Matthew Evans 2016)

%BLOCK LATTICE_CART
5.02295 0.0 0.0
0.0 4.89561 0.0
2.15041 0.0 5.63251
%ENDBLOCK LATTICE_CART

%BLOCK POSITIONS_FRAC
P           0.000000000000000    0.905527000000000    0.500000000000000 
P           0.133771000000000    0.587089000000000    0.546705000000000 
P           0.448632000000000    0.847139000000000    0.811085000000000 
P           0.551368000000000    0.847139000000000    0.188915000000000 
P           0.866229000000000    0.587089000000000    0.453295000000000 
K           0.000000000000000    0.693542000000000    0.000000000000000 
K           0.500000000000000    0.206315000000000    0.500000000000000 
%ENDBLOCK POSITIONS_FRAC
