# Cell file generated by matador (Matthew Evans 2016)

%BLOCK LATTICE_CART
7.42038 0.0 0.0
-3.71019 6.42624 0.0
0.0 0.0 7.5556
%ENDBLOCK LATTICE_CART

%BLOCK POSITIONS_FRAC
P           0.000000000000000    0.500000000000000    0.000000000000000 
P           0.000000000000000    0.500000000000000    0.500000000000000 
P           0.333333000000000    0.666667000000000    0.205992000000000 
P           0.333333000000000    0.666667000000000    0.705992000000000 
P           0.500000000000000    0.000000000000000    0.000000000000000 
P           0.500000000000000    0.000000000000000    0.500000000000000 
P           0.500000000000000    0.500000000000000    0.000000000000000 
P           0.500000000000000    0.500000000000000    0.500000000000000 
P           0.666667000000000    0.333333000000000    0.294008000000000 
P           0.666667000000000    0.333333000000000    0.794008000000000 
K           0.000000000000000    0.365579000000000    0.750000000000000 
K           0.000000000000000    0.634421000000000    0.250000000000000 
K           0.365579000000000    0.000000000000000    0.750000000000000 
K           0.365579000000000    0.365579000000000    0.250000000000000 
K           0.634421000000000    0.000000000000000    0.250000000000000 
K           0.634421000000000    0.634421000000000    0.750000000000000 
%ENDBLOCK POSITIONS_FRAC
