# Cell file generated by matador (Matthew Evans 2016)

%BLOCK LATTICE_CART
10.0572 0.0 0.0
-5.02861 8.70981 0.0
0.0 0.0 4.93909
%ENDBLOCK LATTICE_CART

%BLOCK POSITIONS_FRAC
P           0.000000000000000    0.000000000000000    0.333851000000000 
P           0.056840000000000    0.125767000000000    0.932074000000000 
P           0.068927000000000    0.943160000000000    0.932074000000000 
P           0.333333000000000    0.666667000000000    0.170453000000000 
P           0.874233000000000    0.931073000000000    0.932074000000000 
K           0.031764000000000    0.684761000000000    0.789724000000000 
K           0.123563000000000    0.447702000000000    0.430200000000000 
K           0.315239000000000    0.347003000000000    0.789724000000000 
K           0.324138000000000    0.876437000000000    0.430200000000000 
K           0.552298000000000    0.675862000000000    0.430200000000000 
K           0.652997000000000    0.968236000000000    0.789724000000000 
K           0.666667000000000    0.333333000000000    0.428665000000000 
%ENDBLOCK POSITIONS_FRAC
