# Cell file generated by matador (Matthew Evans 2016)

%BLOCK LATTICE_CART
7.52526 0.0 0.0
-3.76263 6.51706 0.0
0.0 0.0 8.86978
%ENDBLOCK LATTICE_CART

%BLOCK POSITIONS_FRAC
P           0.000000000000000   -0.000000000000000    0.314403000000000 
P           0.333333000000000    0.666667000000000    0.981069000000000 
P           0.666667000000000    0.333333000000000    0.647736000000000 
K           0.009221000000000    0.504610000000000    0.975691000000000 
K           0.162056000000000    0.324113000000000    0.309024000000000 
K           0.162056000000000    0.837944000000000    0.309024000000000 
K           0.342554000000000    0.171277000000000    0.642358000000000 
K           0.495390000000000    0.504610000000000    0.975691000000000 
K           0.495390000000000    0.990779000000000    0.975691000000000 
K           0.675887000000000    0.837944000000000    0.309024000000000 
K           0.828723000000000    0.171277000000000    0.642358000000000 
K           0.828723000000000    0.657446000000000    0.642358000000000 
%ENDBLOCK POSITIONS_FRAC
