# Cell file generated by matador (Matthew Evans 2016)

%BLOCK LATTICE_CART
7.70166 0.0 0.0
0.0 7.70166 0.0
0.0 0.0 7.70166
%ENDBLOCK LATTICE_CART

%BLOCK POSITIONS_FRAC
P           0.000000000000000    0.000000000000000    0.000000000000000 
P           0.100072000000000    0.100072000000000    0.100072000000000 
P           0.100072000000000    0.899928000000000    0.899928000000000 
P           0.399928000000000    0.399928000000000    0.399928000000000 
P           0.399928000000000    0.600072000000000    0.600072000000000 
P           0.500000000000000    0.500000000000000    0.500000000000000 
P           0.600072000000000    0.399928000000000    0.600072000000000 
P           0.600072000000000    0.600072000000000    0.399928000000000 
P           0.899928000000000    0.100072000000000    0.899928000000000 
P           0.899928000000000    0.899928000000000    0.100072000000000 
K           0.250000000000000    0.250000000000000    0.250000000000000 
K           0.250000000000000    0.250000000000000    0.750000000000000 
K           0.250000000000000    0.750000000000000    0.250000000000000 
K           0.250000000000000    0.750000000000000    0.750000000000000 
K           0.750000000000000    0.250000000000000    0.250000000000000 
K           0.750000000000000    0.250000000000000    0.750000000000000 
K           0.750000000000000    0.750000000000000    0.250000000000000 
K           0.750000000000000    0.750000000000000    0.750000000000000 
%ENDBLOCK POSITIONS_FRAC
