# Cell file generated by matador (Matthew Evans 2016)

%BLOCK LATTICE_CART
6.12815 0.0 0.0
0.0 9.06055 0.0
0.292287 0.0 6.48012
%ENDBLOCK LATTICE_CART

%BLOCK POSITIONS_FRAC
P           0.078142000000000    0.500000000000000    0.343343000000000 
P           0.203471000000000    0.000000000000000    0.338428000000000 
P           0.522111000000000    0.000000000000000    0.052634000000000 
P           0.655575000000000    0.500000000000000    0.346399000000000 
P           0.749721000000000    0.500000000000000    0.614374000000000 
K           0.197832000000000    0.500000000000000    0.038696000000000 
K           0.354424000000000    0.500000000000000    0.639631000000000 
K           0.492298000000000    0.000000000000000    0.500105000000000 
K           0.939075000000000    0.218308000000000    0.563172000000000 
K           0.939075000000000    0.781692000000000    0.563172000000000 
K           0.999138000000000    0.000000000000000    0.804515000000000 
%ENDBLOCK POSITIONS_FRAC
