# Cell file generated by matador (Matthew Evans 2016)

%BLOCK LATTICE_CART
10.6446 0.0 0.0
-5.32229 9.21848 0.0
0.0 0.0 10.5822
%ENDBLOCK LATTICE_CART

%BLOCK POSITIONS_FRAC
P           0.000000000000000    0.000000000000000    0.008558000000000 
P           0.000000000000000    0.000000000000000    0.599213000000000 
P           0.333333000000000    0.666667000000000    0.265879000000000 
P           0.333333000000000    0.666667000000000    0.675224000000000 
P           0.666667000000000    0.333333000000000    0.341891000000000 
P           0.666667000000000    0.333333000000000    0.932546000000000 
K           0.083476000000000    0.541738000000000    0.637212000000000 
K           0.105462000000000    0.210923000000000    0.359928000000000 
K           0.105462000000000    0.894538000000000    0.359928000000000 
K           0.122410000000000    0.561205000000000    0.026595000000000 
K           0.124928000000000    0.249857000000000    0.970545000000000 
K           0.124928000000000    0.875072000000000    0.970545000000000 
K           0.416810000000000    0.208405000000000    0.303878000000000 
K           0.438795000000000    0.561205000000000    0.026595000000000 
K           0.438795000000000    0.877590000000000    0.026595000000000 
K           0.455743000000000    0.227872000000000    0.693261000000000 
K           0.458262000000000    0.541738000000000    0.637212000000000 
K           0.458262000000000    0.916524000000000    0.637212000000000 
K           0.750143000000000    0.875072000000000    0.970545000000000 
K           0.772128000000000    0.227872000000000    0.693261000000000 
K           0.772128000000000    0.544257000000000    0.693261000000000 
K           0.789077000000000    0.894538000000000    0.359928000000000 
K           0.791595000000000    0.208405000000000    0.303878000000000 
K           0.791595000000000    0.583190000000000    0.303878000000000 
%ENDBLOCK POSITIONS_FRAC
