# Cell file generated by matador (Matthew Evans 2016)

%BLOCK LATTICE_CART
5.23396 0.0 0.0
0.0 5.23396 0.0
0.0 0.0 15.4638
%ENDBLOCK LATTICE_CART

%BLOCK POSITIONS_FRAC
P           0.000000000000000    0.000000000000000    0.353146000000000 
P           0.000000000000000    0.000000000000000    0.646854000000000 
P           0.000000000000000    0.500000000000000    0.150141000000000 
P           0.000000000000000    0.500000000000000    0.250000000000000 
P           0.000000000000000    0.500000000000000    0.349859000000000 
P           0.500000000000000    0.000000000000000    0.650141000000000 
P           0.500000000000000    0.000000000000000    0.750000000000000 
P           0.500000000000000    0.000000000000000    0.849859000000000 
P           0.500000000000000    0.500000000000000    0.146854000000000 
P           0.500000000000000    0.500000000000000    0.853146000000000 
K           0.000000000000000    0.000000000000000    0.500000000000000 
K           0.500000000000000    0.500000000000000    0.000000000000000 
%ENDBLOCK POSITIONS_FRAC
