# Cell file generated by matador (Matthew Evans 2016)

%BLOCK LATTICE_CART
8.37874 0.0 0.0
0.0 8.37874 0.0
0.0 0.0 6.52933
%ENDBLOCK LATTICE_CART

%BLOCK POSITIONS_FRAC
P           0.000000000000000    0.000000000000000    0.000000000000000 
P           0.500000000000000    0.500000000000000    0.000000000000000 
K           0.000000000000000    0.000000000000000    0.500000000000000 
K           0.000000000000000    0.500000000000000    0.500000000000000 
K           0.230164000000000    0.269836000000000    0.305251000000000 
K           0.230164000000000    0.730164000000000    0.694749000000000 
K           0.269836000000000    0.230164000000000    0.694749000000000 
K           0.269836000000000    0.769836000000000    0.305251000000000 
K           0.500000000000000    0.000000000000000    0.500000000000000 
K           0.500000000000000    0.500000000000000    0.500000000000000 
K           0.730164000000000    0.230164000000000    0.305251000000000 
K           0.730164000000000    0.769836000000000    0.694749000000000 
K           0.769836000000000    0.269836000000000    0.694749000000000 
K           0.769836000000000    0.730164000000000    0.305251000000000 
%ENDBLOCK POSITIONS_FRAC
