# Cell file generated by matador (Matthew Evans 2016)

%BLOCK LATTICE_CART
6.65892 0.0 0.0
-3.32946 5.76679 0.0
0.0 0.0 9.07635
%ENDBLOCK LATTICE_CART

%BLOCK POSITIONS_FRAC
P           0.000000000000000    0.000000000000000    0.500000000000000 
K           0.000000000000000    0.774628000000000    0.000000000000000 
K           0.225372000000000    0.225372000000000    0.000000000000000 
K           0.333333000000000    0.666667000000000    0.081270000000000 
K           0.333333000000000    0.666667000000000    0.442689000000000 
K           0.666667000000000    0.333333000000000    0.557311000000000 
K           0.666667000000000    0.333333000000000    0.918730000000000 
K           0.774628000000000    0.000000000000000    0.000000000000000 
%ENDBLOCK POSITIONS_FRAC
