# Cell file generated by matador (Matthew Evans 2016)

%BLOCK LATTICE_CART
7.36523 0.0 0.0
0.0 7.36523 0.0
0.0 0.0 7.36523
%ENDBLOCK LATTICE_CART

%BLOCK POSITIONS_FRAC
P           0.000000000000000    0.000000000000000    0.000000000000000 
P           0.000000000000000    0.000000000000000    0.500000000000000 
P           0.000000000000000    0.500000000000000    0.000000000000000 
P           0.000000000000000    0.500000000000000    0.500000000000000 
P           0.500000000000000    0.000000000000000    0.000000000000000 
P           0.500000000000000    0.000000000000000    0.500000000000000 
P           0.500000000000000    0.500000000000000    0.000000000000000 
K           0.214584000000000    0.214584000000000    0.214584000000000 
K           0.214584000000000    0.785416000000000    0.785416000000000 
K           0.785416000000000    0.214584000000000    0.785416000000000 
K           0.785416000000000    0.785416000000000    0.214584000000000 
%ENDBLOCK POSITIONS_FRAC
