# Cell file generated by matador (Matthew Evans 2016)

%BLOCK LATTICE_CART
7.14462 0.0 0.0
-3.57231 6.18742 0.0
0.0 0.0 7.06325
%ENDBLOCK LATTICE_CART

%BLOCK POSITIONS_FRAC
P           0.000000000000000    0.000000000000000    0.992229000000000 
P           0.666667000000000    0.333333000000000    0.319363000000000 
K           0.000000000000000    0.000000000000000    0.378631000000000 
K           0.031833000000000    0.506725000000000    0.333632000000000 
K           0.333333000000000    0.666667000000000    0.513931000000000 
K           0.474892000000000    0.968167000000000    0.333632000000000 
K           0.493275000000000    0.525108000000000    0.333632000000000 
K           0.666667000000000    0.333333000000000    0.681785000000000 
%ENDBLOCK POSITIONS_FRAC
