# Cell file generated by matador (Matthew Evans 2016)

%BLOCK LATTICE_CART
11.7227 0.0 0.0
-5.86134 10.1521 0.0
0.0 0.0 5.06057
%ENDBLOCK LATTICE_CART

%BLOCK POSITIONS_FRAC
P           0.000000000000000    0.000000000000000    0.250000000000000 
P           0.000000000000000    0.000000000000000    0.750000000000000 
P           0.000000000000000    0.342801000000000    0.500000000000000 
P           0.000000000000000    0.657199000000000    0.000000000000000 
P           0.342801000000000    0.000000000000000    0.500000000000000 
P           0.342801000000000    0.342801000000000    0.000000000000000 
P           0.657199000000000    0.000000000000000    0.000000000000000 
P           0.657199000000000    0.657199000000000    0.500000000000000 
K           0.104802000000000    0.209603000000000    0.750000000000000 
K           0.104802000000000    0.895198000000000    0.750000000000000 
K           0.209603000000000    0.104802000000000    0.250000000000000 
K           0.333333000000000    0.666667000000000    0.250000000000000 
K           0.333333000000000    0.666667000000000    0.750000000000000 
K           0.666667000000000    0.333333000000000    0.250000000000000 
K           0.666667000000000    0.333333000000000    0.750000000000000 
K           0.790397000000000    0.895198000000000    0.750000000000000 
K           0.895198000000000    0.104802000000000    0.250000000000000 
K           0.895198000000000    0.790397000000000    0.250000000000000 
%ENDBLOCK POSITIONS_FRAC
