# Cell file generated by matador (Matthew Evans 2016)

%BLOCK LATTICE_CART
7.60237 0.0 0.0
1.34882 5.18976 0.0
-1.40483 1.36236 8.19526
%ENDBLOCK LATTICE_CART

%BLOCK POSITIONS_FRAC
P           0.500000000000000    0.500000000000000    0.500000000000000 
K           0.000000000000000    0.000000000000000    0.000000000000000 
K           0.000000000000000    0.000000000000000    0.500000000000000 
K           0.000000000000000    0.500000000000000    0.500000000000000 
K           0.197664000000000    0.762575000000000    0.914814000000000 
K           0.500000000000000    0.000000000000000    0.000000000000000 
K           0.802336000000000    0.237425000000000    0.085186000000000 
%ENDBLOCK POSITIONS_FRAC
