# Cell file generated by matador (Matthew Evans 2016)

%BLOCK LATTICE_CART
6.9855 0.0 0.0
0.0 6.88373 0.0
2.77319 0.0 6.83603
%ENDBLOCK LATTICE_CART

%BLOCK POSITIONS_FRAC
P           0.133427000000000    0.267212000000000    0.870436000000000 
P           0.133427000000000    0.732788000000000    0.870436000000000 
P           0.187341000000000    0.500000000000000    0.913852000000000 
P           0.390867000000000    0.500000000000000    0.597145000000000 
P           0.536629000000000    0.500000000000000    0.463684000000000 
P           0.608917000000000    0.333978000000000    0.669480000000000 
P           0.608917000000000    0.666022000000000    0.669480000000000 
P           0.647331000000000    0.500000000000000    0.730716000000000 
P           0.724748000000000    0.000000000000000    0.724591000000000 
P           0.818463000000000    0.000000000000000    0.061212000000000 
K           0.076719000000000    0.199499000000000    0.213497000000000 
K           0.076719000000000    0.800501000000000    0.213497000000000 
K           0.935310000000000    0.284927000000000    0.723632000000000 
K           0.935310000000000    0.715073000000000    0.723632000000000 
%ENDBLOCK POSITIONS_FRAC
