# Cell file generated by matador (Matthew Evans 2016)

%BLOCK LATTICE_CART
7.36897 0.0 0.0
-3.68448 6.38171 0.0
0.0 0.0 9.56718
%ENDBLOCK LATTICE_CART

%BLOCK POSITIONS_FRAC
P           0.000000000000000    0.000000000000000    0.290193000000000 
P           0.000000000000000    0.000000000000000    0.795920000000000 
P           0.194025000000000    0.097013000000000    0.335956000000000 
P           0.236321000000000    0.472641000000000    0.002623000000000 
P           0.236321000000000    0.763679000000000    0.002623000000000 
P           0.333333000000000    0.666667000000000    0.462586000000000 
P           0.333333000000000    0.666667000000000    0.956859000000000 
P           0.527359000000000    0.763679000000000    0.002623000000000 
P           0.569654000000000    0.139308000000000    0.669290000000000 
P           0.569654000000000    0.430346000000000    0.669290000000000 
P           0.666667000000000    0.333333000000000    0.129253000000000 
P           0.666667000000000    0.333333000000000    0.623526000000000 
P           0.860692000000000    0.430346000000000    0.669290000000000 
P           0.902987000000000    0.097013000000000    0.335956000000000 
P           0.902987000000000    0.805975000000000    0.335956000000000 
K           0.000000000000000    0.000000000000000    0.053247000000000 
K           0.333333000000000    0.666667000000000    0.719914000000000 
K           0.666667000000000    0.333333000000000    0.386581000000000 
%ENDBLOCK POSITIONS_FRAC
