# Cell file generated by matador (Matthew Evans 2016)

%BLOCK LATTICE_CART
6.59682 0.0 0.0
0.0 6.59682 0.0
0.0 0.0 6.81762
%ENDBLOCK LATTICE_CART

%BLOCK POSITIONS_FRAC
P           0.000000000000000   -0.000000000000000   -0.000000000000000 
P           0.240818000000000    0.240818000000000    0.588683000000000 
P           0.240818000000000    0.759182000000000    0.411317000000000 
P           0.259182000000000    0.259182000000000    0.088683000000000 
P           0.259182000000000    0.740818000000000    0.911317000000000 
P           0.500000000000000    0.500000000000000    0.500000000000000 
P           0.740818000000000    0.259182000000000    0.911317000000000 
P           0.740818000000000    0.740818000000000    0.088683000000000 
P           0.759182000000000    0.240818000000000    0.411317000000000 
P           0.759182000000000    0.759182000000000    0.588683000000000 
K           0.000000000000000    0.500000000000000    0.250000000000000 
K           0.000000000000000    0.500000000000000    0.750000000000000 
K           0.500000000000000   -0.000000000000000    0.250000000000000 
K           0.500000000000000   -0.000000000000000    0.750000000000000 
%ENDBLOCK POSITIONS_FRAC
