# Cell file generated by matador (Matthew Evans 2016)

%BLOCK LATTICE_CART
9.14462 0.0 0.0
-4.57231 7.91948 0.0
0.0 0.0 6.89372
%ENDBLOCK LATTICE_CART

%BLOCK POSITIONS_FRAC
P           0.000000000000000    0.000000000000000    0.945067000000000 
P           0.333333000000000    0.666667000000000    0.322435000000000 
P           0.666667000000000    0.333333000000000    0.233220000000000 
K           0.160257000000000    0.320514000000000    0.334190000000000 
K           0.160257000000000    0.839743000000000    0.334190000000000 
K           0.266663000000000    0.133331000000000    0.644701000000000 
K           0.535749000000000    0.071497000000000    0.160335000000000 
K           0.535749000000000    0.464251000000000    0.160335000000000 
K           0.679486000000000    0.839743000000000    0.334190000000000 
K           0.866669000000000    0.133331000000000    0.644701000000000 
K           0.866669000000000    0.733337000000000    0.644701000000000 
K           0.928503000000000    0.464251000000000    0.160335000000000 
%ENDBLOCK POSITIONS_FRAC
