# Cell file generated by matador (Matthew Evans 2016)

%BLOCK LATTICE_CART
6.46027 0.0 0.0
-3.23013 5.59475 0.0
0.0 0.0 12.8711
%ENDBLOCK LATTICE_CART

%BLOCK POSITIONS_FRAC
P           0.000000000000000    0.000000000000000    0.787227000000000 
P           0.125717000000000    0.828360000000000    0.638684000000000 
P           0.171640000000000    0.297358000000000    0.638684000000000 
P           0.297358000000000    0.171640000000000    0.638684000000000 
P           0.702642000000000    0.874283000000000    0.638684000000000 
P           0.828360000000000    0.125717000000000    0.638684000000000 
P           0.874283000000000    0.702642000000000    0.638684000000000 
K           0.000000000000000    0.000000000000000    0.235479000000000 
K           0.000000000000000    0.000000000000000    0.473186000000000 
K           0.000000000000000    0.233645000000000    0.044741000000000 
K           0.233645000000000    0.000000000000000    0.044741000000000 
K           0.766355000000000    0.766355000000000    0.044741000000000 
%ENDBLOCK POSITIONS_FRAC
