# Cell file generated by matador (Matthew Evans 2016)

%BLOCK LATTICE_CART
7.12962 0.0 0.0
-3.56481 6.17443 0.0
0.0 0.0 6.18608
%ENDBLOCK LATTICE_CART

%BLOCK POSITIONS_FRAC
P           0.000000000000000    0.000000000000000    0.846509000000000 
P           0.333333000000000    0.666667000000000    0.586507000000000 
P           0.333333000000000    0.666667000000000    0.757174000000000 
P           0.666667000000000    0.333333000000000    0.586507000000000 
P           0.666667000000000    0.333333000000000    0.757174000000000 
K           0.000000000000000    0.314793000000000    0.001970000000000 
K           0.000000000000000    0.685207000000000    0.001970000000000 
K           0.314793000000000    0.000000000000000    0.001970000000000 
K           0.314793000000000    0.314793000000000    0.001970000000000 
K           0.685207000000000    0.000000000000000    0.001970000000000 
K           0.685207000000000    0.685207000000000    0.001970000000000 
%ENDBLOCK POSITIONS_FRAC
