# Cell file generated by matador (Matthew Evans 2016)

%BLOCK LATTICE_CART
12.5236 0.0 0.0
-6.26181 10.8458 0.0
0.0 0.0 4.57938
%ENDBLOCK LATTICE_CART

%BLOCK POSITIONS_FRAC
P           0.000000000000000    0.000000000000000    0.000000000000000 
P           0.000000000000000    0.000000000000000    0.500000000000000 
P           0.333333000000000    0.666667000000000    0.000000000000000 
P           0.666667000000000    0.333333000000000    0.000000000000000 
K           0.109836000000000    0.741402000000000    0.000000000000000 
K           0.155019000000000    0.126617000000000    0.277398000000000 
K           0.155019000000000    0.126617000000000    0.722602000000000 
K           0.258598000000000    0.368434000000000    0.000000000000000 
K           0.333333000000000    0.666667000000000    0.500000000000000 
K           0.511056000000000    0.432175000000000    0.500000000000000 
K           0.567825000000000    0.078881000000000    0.500000000000000 
K           0.631566000000000    0.890164000000000    0.000000000000000 
K           0.666667000000000    0.333333000000000    0.500000000000000 
K           0.873383000000000    0.028401000000000    0.277398000000000 
K           0.873383000000000    0.028401000000000    0.722602000000000 
K           0.921119000000000    0.488944000000000    0.500000000000000 
K           0.971599000000000    0.844981000000000    0.277398000000000 
K           0.971599000000000    0.844981000000000    0.722602000000000 
%ENDBLOCK POSITIONS_FRAC
