# Cell file generated by matador (Matthew Evans 2016)

%BLOCK LATTICE_CART
4.80055 0.0 0.0
0.0 10.6511 0.0
0.0 0.0 9.11951
%ENDBLOCK LATTICE_CART

%BLOCK POSITIONS_FRAC
P           0.000000000000000   -0.000000000000000    0.106501000000000 
P           0.000000000000000   -0.000000000000000    0.339273000000000 
P           0.000000000000000    0.500000000000000    0.606501000000000 
P           0.000000000000000    0.500000000000000    0.839273000000000 
P           0.312555000000000    0.103166000000000    0.256011000000000 
P           0.312555000000000    0.396834000000000    0.756011000000000 
P           0.312555000000000    0.603166000000000    0.756011000000000 
P           0.312555000000000    0.896834000000000    0.256011000000000 
P           0.687445000000000    0.103166000000000    0.256011000000000 
P           0.687445000000000    0.396834000000000    0.756011000000000 
P           0.687445000000000    0.603166000000000    0.756011000000000 
P           0.687445000000000    0.896834000000000    0.256011000000000 
K           0.000000000000000   -0.000000000000000    0.809338000000000 
K           0.000000000000000    0.500000000000000    0.309338000000000 
%ENDBLOCK POSITIONS_FRAC
