# Cell file generated by matador (Matthew Evans 2016)

%BLOCK LATTICE_CART
7.04443 0.0 0.0
0.0 7.04443 0.0
0.0 0.0 7.95479
%ENDBLOCK LATTICE_CART

%BLOCK POSITIONS_FRAC
P           0.000000000000000    0.000000000000000    0.000000000000000 
P           0.000000000000000    0.000000000000000    0.129581000000000 
P           0.000000000000000    0.000000000000000    0.370419000000000 
P           0.000000000000000    0.000000000000000    0.500000000000000 
P           0.000000000000000    0.000000000000000    0.629581000000000 
P           0.000000000000000    0.000000000000000    0.870419000000000 
P           0.000000000000000    0.500000000000000    0.250374000000000 
P           0.000000000000000    0.500000000000000    0.500000000000000 
P           0.000000000000000    0.500000000000000    0.749626000000000 
P           0.500000000000000    0.000000000000000    0.000000000000000 
P           0.500000000000000    0.000000000000000    0.249626000000000 
P           0.500000000000000    0.000000000000000    0.750374000000000 
P           0.500000000000000    0.500000000000000    0.000000000000000 
P           0.500000000000000    0.500000000000000    0.500000000000000 
K           0.000000000000000    0.500000000000000    0.000000000000000 
K           0.500000000000000    0.000000000000000    0.500000000000000 
%ENDBLOCK POSITIONS_FRAC
