# Cell file generated by matador (Matthew Evans 2016)

%BLOCK LATTICE_CART
5.31077 0.0 0.0
0.0 5.31077 0.0
0.0 0.0 7.09291
%ENDBLOCK LATTICE_CART

%BLOCK POSITIONS_FRAC
P           0.000000000000000    0.000000000000000    0.141312000000000 
P           0.000000000000000    0.000000000000000    0.858688000000000 
P           0.000000000000000    0.500000000000000    0.420372000000000 
P           0.500000000000000    0.000000000000000    0.579628000000000 
P           0.500000000000000    0.500000000000000    0.500000000000000 
K           0.000000000000000    0.500000000000000    0.787072000000000 
K           0.500000000000000    0.000000000000000    0.212928000000000 
%ENDBLOCK POSITIONS_FRAC
