# Cell file generated by matador (Matthew Evans 2016)

%BLOCK LATTICE_CART
7.4592 0.0 0.0
-3.7296 6.45986 0.0
0.0 0.0 12.3007
%ENDBLOCK LATTICE_CART

%BLOCK POSITIONS_FRAC
P           0.000000000000000    0.000000000000000    0.250000000000000 
P           0.000000000000000    0.000000000000000    0.750000000000000 
P           0.333333000000000    0.666667000000000    0.250000000000000 
P           0.333333000000000    0.666667000000000    0.750000000000000 
P           0.666667000000000    0.333333000000000    0.250000000000000 
P           0.666667000000000    0.333333000000000    0.750000000000000 
K           0.075524000000000    0.383950000000000    0.250000000000000 
K           0.308426000000000    0.924476000000000    0.250000000000000 
K           0.333333000000000    0.666667000000000    0.080102000000000 
K           0.333333000000000    0.666667000000000    0.419898000000000 
K           0.383950000000000    0.308426000000000    0.750000000000000 
K           0.616050000000000    0.691574000000000    0.250000000000000 
K           0.666667000000000    0.333333000000000    0.580102000000000 
K           0.666667000000000    0.333333000000000    0.919898000000000 
K           0.691574000000000    0.075524000000000    0.750000000000000 
K           0.924476000000000    0.616050000000000    0.750000000000000 
%ENDBLOCK POSITIONS_FRAC
