# Cell file generated by matador (Matthew Evans 2016)

%BLOCK LATTICE_CART
6.15324 0.0 0.0
0.0 6.15324 0.0
0.0 0.0 5.94294
%ENDBLOCK LATTICE_CART

%BLOCK POSITIONS_FRAC
P           0.000000000000000    0.000000000000000    0.093153000000000 
P           0.000000000000000    0.000000000000000    0.906847000000000 
P           0.077208000000000    0.716285000000000    0.029444000000000 
P           0.283715000000000    0.077208000000000    0.970556000000000 
P           0.716285000000000    0.922792000000000    0.970556000000000 
P           0.922792000000000    0.283715000000000    0.029444000000000 
K           0.000000000000000    0.000000000000000    0.500000000000000 
K           0.500000000000000    0.500000000000000    0.000000000000000 
K           0.500000000000000    0.500000000000000    0.500000000000000 
%ENDBLOCK POSITIONS_FRAC
