# Cell file generated by matador (Matthew Evans 2016)

%BLOCK LATTICE_CART
7.21832 0.0 0.0
-3.60916 6.25125 0.0
0.0 0.0 6.13992
%ENDBLOCK LATTICE_CART

%BLOCK POSITIONS_FRAC
P          -0.000000000000000   -0.000000000000000    0.177640000000000 
P          -0.000000000000000   -0.000000000000000    0.822360000000000 
P           0.333333000000000    0.666667000000000    0.489027000000000 
P           0.333333000000000    0.666667000000000    0.844306000000000 
P           0.666667000000000    0.333333000000000    0.155694000000000 
P           0.666667000000000    0.333333000000000    0.510973000000000 
K          -0.000000000000000   -0.000000000000000    0.500000000000000 
K           0.333333000000000    0.666667000000000    0.166667000000000 
K           0.666667000000000    0.333333000000000    0.833333000000000 
%ENDBLOCK POSITIONS_FRAC
