# Cell file generated by matador (Matthew Evans 2016)

%BLOCK LATTICE_CART
3.9117 0.0 0.0
0.0 3.9117 0.0
0.0 0.0 5.89482
%ENDBLOCK LATTICE_CART

%BLOCK POSITIONS_FRAC
P           0.500000000000000    0.500000000000000    0.000000000000000 
P           0.500000000000000    0.500000000000000    0.285535000000000 
P           0.500000000000000    0.500000000000000    0.714465000000000 
K           0.000000000000000    0.000000000000000    0.500000000000000 
%ENDBLOCK POSITIONS_FRAC
