# Cell file generated by matador (Matthew Evans 2016)

%BLOCK LATTICE_CART
5.69826 0.0 0.0
0.0 5.81617 0.0
0.0 0.0 7.71788
%ENDBLOCK LATTICE_CART

%BLOCK POSITIONS_FRAC
P           0.500000000000000    0.187721000000000    0.250000000000000 
P           0.500000000000000    0.187721000000000    0.750000000000000 
P           0.500000000000000    0.812279000000000    0.250000000000000 
P           0.500000000000000    0.812279000000000    0.750000000000000 
K           0.138237000000000    0.211381000000000    0.000000000000000 
K           0.138237000000000    0.788619000000000    0.500000000000000 
K           0.861763000000000    0.211381000000000    0.500000000000000 
K           0.861763000000000    0.788619000000000    0.000000000000000 
%ENDBLOCK POSITIONS_FRAC
