# Cell file generated by matador (Matthew Evans 2016)

%BLOCK LATTICE_CART
6.22481 0.0 0.0
0.0 6.22481 0.0
0.0 0.0 8.04698
%ENDBLOCK LATTICE_CART

%BLOCK POSITIONS_FRAC
P           0.000000000000000    0.500000000000000    0.764492000000000 
P           0.261549000000000    0.573250000000000    0.429122000000000 
P           0.310634000000000    0.589503000000000    0.059627000000000 
P           0.410497000000000    0.310634000000000    0.559627000000000 
P           0.426750000000000    0.261549000000000    0.929122000000000 
P           0.500000000000000    0.000000000000000    0.264492000000000 
P           0.573250000000000    0.738451000000000    0.929122000000000 
P           0.589503000000000    0.689366000000000    0.559627000000000 
P           0.689366000000000    0.410497000000000    0.059627000000000 
P           0.738451000000000    0.426750000000000    0.429122000000000 
K           0.000000000000000    0.000000000000000    0.097129000000000 
K           0.000000000000000    0.000000000000000    0.597129000000000 
%ENDBLOCK POSITIONS_FRAC
