# Cell file generated by matador (Matthew Evans 2016)

%BLOCK LATTICE_CART
10.7251 0.0 0.0
0.0 10.7251 0.0
0.0 0.0 11.9438
%ENDBLOCK LATTICE_CART

%BLOCK POSITIONS_FRAC
P           0.000000000000000    0.000000000000000    0.132653000000000 
P           0.000000000000000    0.000000000000000    0.867347000000000 
P           0.000000000000000    0.500000000000000    0.250000000000000 
P           0.000000000000000    0.500000000000000    0.750000000000000 
P           0.500000000000000    0.000000000000000    0.250000000000000 
P           0.500000000000000    0.000000000000000    0.750000000000000 
P           0.500000000000000    0.500000000000000    0.367347000000000 
P           0.500000000000000    0.500000000000000    0.632653000000000 
K           0.000000000000000    0.220176000000000    0.750867000000000 
K           0.000000000000000    0.245369000000000    0.497130000000000 
K           0.000000000000000    0.278666000000000    0.120810000000000 
K           0.000000000000000    0.721334000000000    0.120810000000000 
K           0.000000000000000    0.754631000000000    0.497130000000000 
K           0.000000000000000    0.779824000000000    0.750867000000000 
K           0.220176000000000    0.000000000000000    0.249133000000000 
K           0.221334000000000    0.500000000000000    0.379190000000000 
K           0.245369000000000    0.000000000000000    0.502870000000000 
K           0.254631000000000    0.500000000000000    0.002870000000000 
K           0.278666000000000    0.000000000000000    0.879190000000000 
K           0.279824000000000    0.500000000000000    0.749133000000000 
K           0.500000000000000    0.221334000000000    0.620810000000000 
K           0.500000000000000    0.254631000000000    0.997130000000000 
K           0.500000000000000    0.279824000000000    0.250867000000000 
K           0.500000000000000    0.720176000000000    0.250867000000000 
K           0.500000000000000    0.745369000000000    0.997130000000000 
K           0.500000000000000    0.778666000000000    0.620810000000000 
K           0.720176000000000    0.500000000000000    0.749133000000000 
K           0.721334000000000    0.000000000000000    0.879190000000000 
K           0.745369000000000    0.500000000000000    0.002870000000000 
K           0.754631000000000    0.000000000000000    0.502870000000000 
K           0.778666000000000    0.500000000000000    0.379190000000000 
K           0.779824000000000    0.000000000000000    0.249133000000000 
%ENDBLOCK POSITIONS_FRAC
