# Cell file generated by matador (Matthew Evans 2016)

%BLOCK LATTICE_CART
7.5245 0.0 0.0
-3.76225 6.51641 0.0
0.0 0.0 3.87691
%ENDBLOCK LATTICE_CART

%BLOCK POSITIONS_FRAC
P           0.188195000000000    0.376389000000000    0.000000000000000 
P           0.188195000000000    0.811805000000000    0.000000000000000 
P           0.623611000000000    0.811805000000000    0.000000000000000 
K           0.000000000000000   -0.000000000000000    0.000000000000000 
K           0.000000000000000   -0.000000000000000    0.500000000000000 
K           0.333334000000000    0.666666000000000    0.500000000000000 
K           0.666667000000000    0.333333000000000    0.500000000000000 
%ENDBLOCK POSITIONS_FRAC
