# Cell file generated by matador (Matthew Evans 2016)

%BLOCK LATTICE_CART
8.35311 0.0 0.0
0.0 8.35311 0.0
0.0 0.0 8.35311
%ENDBLOCK LATTICE_CART

%BLOCK POSITIONS_FRAC
P           0.000000000000000    0.500000000000000    0.239431000000000 
P           0.000000000000000    0.500000000000000    0.760569000000000 
P           0.239431000000000    0.000000000000000    0.500000000000000 
P           0.260569000000000    0.500000000000000    0.500000000000000 
P           0.500000000000000    0.239431000000000    0.000000000000000 
P           0.500000000000000    0.260569000000000    0.500000000000000 
P           0.500000000000000    0.500000000000000    0.260569000000000 
P           0.500000000000000    0.500000000000000    0.739431000000000 
P           0.500000000000000    0.739431000000000    0.500000000000000 
P           0.500000000000000    0.760569000000000    0.000000000000000 
P           0.739431000000000    0.500000000000000    0.500000000000000 
P           0.760569000000000    0.000000000000000    0.500000000000000 
K           0.000000000000000    0.000000000000000    0.500000000000000 
K           0.000000000000000    0.500000000000000    0.000000000000000 
K           0.286203000000000    0.286203000000000    0.713797000000000 
K           0.286203000000000    0.713797000000000    0.286203000000000 
K           0.500000000000000    0.000000000000000    0.000000000000000 
K           0.500000000000000    0.500000000000000    0.500000000000000 
K           0.713797000000000    0.286203000000000    0.286203000000000 
K           0.713797000000000    0.713797000000000    0.713797000000000 
%ENDBLOCK POSITIONS_FRAC
