# Cell file generated by matador (Matthew Evans 2016)

%BLOCK LATTICE_CART
4.71666 -0.0 0.0
-2.35833 4.08475 0.0
0.0 0.0 9.21526
%ENDBLOCK LATTICE_CART

%BLOCK POSITIONS_FRAC
P           0.000000000000000   -0.000000000000000    0.249385000000000 
P           0.000000000000000   -0.000000000000000    0.750615000000000 
P           0.155578000000000    0.600747000000000    0.500000000000000 
P           0.399253000000000    0.554831000000000    0.500000000000000 
P           0.445169000000000    0.844422000000000    0.500000000000000 
P           0.666667000000000    0.333333000000000    0.000000000000000 
K           0.666667000000000    0.333333000000000    0.500000000000000 
%ENDBLOCK POSITIONS_FRAC
