# Cell file generated by matador (Matthew Evans 2016)

%BLOCK LATTICE_CART
8.50014 0.0 0.0
0.0 8.50014 0.0
0.0 0.0 8.50014
%ENDBLOCK LATTICE_CART

%BLOCK POSITIONS_FRAC
P           0.000000000000000    0.000000000000000    0.000000000000000 
P           0.082903000000000    0.082903000000000    0.917097000000000 
P           0.082903000000000    0.917097000000000    0.082903000000000 
P           0.417097000000000    0.417097000000000    0.417097000000000 
P           0.417097000000000    0.582903000000000    0.582903000000000 
P           0.500000000000000    0.500000000000000    0.500000000000000 
P           0.582903000000000    0.417097000000000    0.582903000000000 
P           0.582903000000000    0.582903000000000    0.417097000000000 
P           0.917097000000000    0.082903000000000    0.082903000000000 
P           0.917097000000000    0.917097000000000    0.917097000000000 
K           0.000000000000000    0.000000000000000    0.500000000000000 
K           0.000000000000000    0.500000000000000    0.000000000000000 
K           0.000000000000000    0.500000000000000    0.500000000000000 
K           0.500000000000000    0.000000000000000    0.000000000000000 
K           0.500000000000000    0.000000000000000    0.500000000000000 
K           0.500000000000000    0.500000000000000    0.000000000000000 
%ENDBLOCK POSITIONS_FRAC
