# Cell file generated by matador (Matthew Evans 2016)

%BLOCK LATTICE_CART
6.82537 0.0 0.0
-3.41268 5.91094 0.0
0.0 0.0 8.0143
%ENDBLOCK LATTICE_CART

%BLOCK POSITIONS_FRAC
P           0.000000000000000    0.000000000000000    0.500000000000000 
P           0.000000000000000    0.582272000000000    0.000000000000000 
P           0.417728000000000    0.417728000000000    0.000000000000000 
P           0.582272000000000    0.000000000000000    0.000000000000000 
K           0.000000000000000    0.000000000000000    0.000000000000000 
K           0.000000000000000    0.459414000000000    0.500000000000000 
K           0.333333000000000    0.666667000000000    0.712869000000000 
K           0.459414000000000    0.000000000000000    0.500000000000000 
K           0.540586000000000    0.540586000000000    0.500000000000000 
K           0.666667000000000    0.333333000000000    0.287131000000000 
%ENDBLOCK POSITIONS_FRAC
