# Cell file generated by matador (Matthew Evans 2016)

%BLOCK LATTICE_CART
7.70978 0.0 0.0
0.0 7.70978 0.0
0.0 0.0 11.177
%ENDBLOCK LATTICE_CART

%BLOCK POSITIONS_FRAC
P           0.000000000000000    0.000000000000000    0.710885000000000 
P           0.000000000000000    0.500000000000000    0.960885000000000 
P           0.500000000000000    0.000000000000000    0.460885000000000 
P           0.500000000000000    0.500000000000000    0.210885000000000 
K           0.000000000000000    0.000000000000000    0.228981000000000 
K           0.000000000000000    0.197532000000000    0.963073000000000 
K           0.000000000000000    0.500000000000000    0.478981000000000 
K           0.000000000000000    0.802468000000000    0.963073000000000 
K           0.197532000000000    0.500000000000000    0.213073000000000 
K           0.302468000000000    0.000000000000000    0.713073000000000 
K           0.500000000000000    0.000000000000000    0.978981000000000 
K           0.500000000000000    0.302468000000000    0.463073000000000 
K           0.500000000000000    0.500000000000000    0.728981000000000 
K           0.500000000000000    0.697532000000000    0.463073000000000 
K           0.697532000000000    0.000000000000000    0.713073000000000 
K           0.802468000000000    0.500000000000000    0.213073000000000 
%ENDBLOCK POSITIONS_FRAC
