# Cell file generated by matador (Matthew Evans 2016)

%BLOCK LATTICE_CART
8.9081 0.0 0.0
-4.45405 7.71464 0.0
0.0 0.0 6.75214
%ENDBLOCK LATTICE_CART

%BLOCK POSITIONS_FRAC
P           0.000000000000000    0.000000000000000    0.251847000000000 
P           0.000000000000000    0.000000000000000    0.748153000000000 
P           0.333333000000000    0.666667000000000    0.414820000000000 
P           0.333333000000000    0.666667000000000    0.918514000000000 
P           0.666667000000000    0.333333000000000    0.081486000000000 
P           0.666667000000000    0.333333000000000    0.585180000000000 
K           0.000000000000000    0.500000000000000    0.000000000000000 
K           0.166667000000000    0.333333000000000    0.333333000000000 
K           0.166667000000000    0.833333000000000    0.333333000000000 
K           0.333333000000000    0.166667000000000    0.666667000000000 
K           0.500000000000000    0.000000000000000    0.000000000000000 
K           0.500000000000000    0.500000000000000    0.000000000000000 
K           0.666667000000000    0.833333000000000    0.333333000000000 
K           0.833333000000000    0.166667000000000    0.666667000000000 
K           0.833333000000000    0.666667000000000    0.666667000000000 
%ENDBLOCK POSITIONS_FRAC
