# Cell file generated by matador (Matthew Evans 2016)

%BLOCK LATTICE_CART
3.28102 0.0 0.0
0.0 8.12425 0.0
0.0999035 0.0 6.15142
%ENDBLOCK LATTICE_CART

%BLOCK POSITIONS_FRAC
P           0.391944000000000    0.339174000000000    0.836958000000000 
P           0.395950000000000    0.063765000000000    0.154493000000000 
P           0.500000000000000    0.401298000000000    0.500000000000000 
P           0.500000000000000    0.774168000000000    0.500000000000000 
P           0.604050000000000    0.063765000000000    0.845507000000000 
P           0.608056000000000    0.339174000000000    0.163042000000000 
K           0.000000000000000    0.588004000000000    0.000000000000000 
%ENDBLOCK POSITIONS_FRAC
