# Cell file generated by matador (Matthew Evans 2016)

%BLOCK LATTICE_CART
10.0977 0.0 0.0
0.0 10.0977 0.0
0.0 0.0 6.25115
%ENDBLOCK LATTICE_CART

%BLOCK POSITIONS_FRAC
P           0.202214000000000    0.297786000000000    0.500000000000000 
P           0.297786000000000    0.797786000000000    0.500000000000000 
P           0.702214000000000    0.202214000000000    0.500000000000000 
P           0.797786000000000    0.702214000000000    0.500000000000000 
K           0.000000000000000    0.000000000000000    0.500000000000000 
K           0.000000000000000    0.500000000000000    0.500000000000000 
K           0.023656000000000    0.755036000000000    0.000000000000000 
K           0.244964000000000    0.023656000000000    0.000000000000000 
K           0.255036000000000    0.523656000000000    0.000000000000000 
K           0.476344000000000    0.255036000000000    0.000000000000000 
K           0.500000000000000    0.000000000000000    0.500000000000000 
K           0.500000000000000    0.500000000000000    0.500000000000000 
K           0.523656000000000    0.744964000000000    0.000000000000000 
K           0.744964000000000    0.476344000000000    0.000000000000000 
K           0.755036000000000    0.976344000000000    0.000000000000000 
K           0.976344000000000    0.244964000000000    0.000000000000000 
%ENDBLOCK POSITIONS_FRAC
