# Cell file generated by matador (Matthew Evans 2016)

%BLOCK LATTICE_CART
7.44198 0.0 0.0
-3.72099 6.44495 0.0
0.0 0.0 11.7303
%ENDBLOCK LATTICE_CART

%BLOCK POSITIONS_FRAC
P           0.000000000000000    0.000000000000000    0.483340000000000 
P           0.000000000000000    0.000000000000000    0.983340000000000 
P           0.059760000000000    0.888598000000000    0.907464000000000 
P           0.111402000000000    0.171161000000000    0.907464000000000 
P           0.171161000000000    0.059760000000000    0.407464000000000 
P           0.333333000000000    0.666667000000000    0.204050000000000 
P           0.333333000000000    0.666667000000000    0.319687000000000 
P           0.333333000000000    0.666667000000000    0.720924000000000 
P           0.666667000000000    0.333333000000000    0.220924000000000 
P           0.666667000000000    0.333333000000000    0.704050000000000 
P           0.666667000000000    0.333333000000000    0.819687000000000 
P           0.828839000000000    0.940240000000000    0.907464000000000 
P           0.888598000000000    0.828839000000000    0.407464000000000 
P           0.940240000000000    0.111402000000000    0.407464000000000 
K           0.002288000000000    0.501471000000000    0.849082000000000 
K           0.498529000000000    0.500817000000000    0.849082000000000 
K           0.499183000000000    0.997712000000000    0.849082000000000 
K           0.500817000000000    0.002288000000000    0.349082000000000 
K           0.501471000000000    0.499183000000000    0.349082000000000 
K           0.997712000000000    0.498529000000000    0.349082000000000 
%ENDBLOCK POSITIONS_FRAC
