# Cell file generated by matador (Matthew Evans 2016)

%BLOCK LATTICE_CART
6.25495 0.0 0.0
0.0 6.95309 0.0
-3.0341 0.0 6.52503
%ENDBLOCK LATTICE_CART

%BLOCK POSITIONS_FRAC
P           0.109643000000000    0.277619000000000    0.776547000000000 
P           0.109643000000000    0.722381000000000    0.776547000000000 
P           0.182192000000000    0.000000000000000    0.603405000000000 
P           0.409261000000000    0.000000000000000    0.622276000000000 
P           0.464374000000000    0.000000000000000    0.922314000000000 
P           0.979704000000000    0.000000000000000    0.903736000000000 
K           0.448694000000000    0.000000000000000    0.292205000000000 
K           0.843148000000000    0.000000000000000    0.566979000000000 
K           0.857571000000000    0.000000000000000    0.206551000000000 
K           0.860070000000000    0.500000000000000    0.160615000000000 
%ENDBLOCK POSITIONS_FRAC
