# Cell file generated by matador (Matthew Evans 2016)

%BLOCK LATTICE_CART
6.71994 0.0 0.0
-3.35997 5.81963 0.0
0.0 0.0 10.1568
%ENDBLOCK LATTICE_CART

%BLOCK POSITIONS_FRAC
P           0.156340000000000    0.529210000000000    0.918227000000000 
P           0.170049000000000    0.139364000000000    0.890851000000000 
P           0.333333000000000    0.666667000000000    0.364913000000000 
P           0.333333000000000    0.666667000000000    0.919203000000000 
P           0.371334000000000    0.212538000000000    0.614517000000000 
P           0.372870000000000    0.843660000000000    0.918227000000000 
P           0.470790000000000    0.627130000000000    0.918227000000000 
P           0.666667000000000    0.333333000000000    0.365108000000000 
P           0.787462000000000    0.158796000000000    0.614517000000000 
P           0.841204000000000    0.628666000000000    0.614517000000000 
P           0.860636000000000    0.030685000000000    0.890851000000000 
P           0.969315000000000    0.829951000000000    0.890851000000000 
K           0.000000000000000    0.000000000000000    0.143598000000000 
K           0.333333000000000    0.666667000000000    0.664935000000000 
%ENDBLOCK POSITIONS_FRAC
