# Cell file generated by matador (Matthew Evans 2016)

%BLOCK LATTICE_CART
4.87624 0.0 0.0
0.0 8.56907 0.0
0.029092 0.0 3.04096
%ENDBLOCK LATTICE_CART

%BLOCK POSITIONS_FRAC
P           0.065786000000000    0.500000000000000    0.100299000000000 
P           0.279371000000000    0.500000000000000    0.874538000000000 
P           0.287396000000000    0.500000000000000    0.446753000000000 
P           0.463310000000000    0.000000000000000    0.005063000000000 
P           0.557023000000000    0.000000000000000    0.335330000000000 
P           0.928481000000000    0.500000000000000    0.518723000000000 
K           0.650712000000000    0.500000000000000    0.071129000000000 
%ENDBLOCK POSITIONS_FRAC
