# Cell file generated by matador (Matthew Evans 2016)

%BLOCK LATTICE_CART
10.0068 0.0 0.0
-5.00338 8.6661 0.0
0.0 0.0 11.0811
%ENDBLOCK LATTICE_CART

%BLOCK POSITIONS_FRAC
P           0.000000000000000    0.000000000000000    0.413527000000000 
P           0.000000000000000    0.000000000000000    0.781678000000000 
P           0.333333000000000    0.666667000000000    0.080194000000000 
P           0.333333000000000    0.666667000000000    0.448345000000000 
P           0.666667000000000    0.333333000000000    0.115012000000000 
P           0.666667000000000    0.333333000000000    0.746861000000000 
K           0.028547000000000    0.514273000000000    0.467426000000000 
K           0.046369000000000    0.523185000000000    0.181058000000000 
K           0.143482000000000    0.286964000000000    0.514391000000000 
K           0.143482000000000    0.856518000000000    0.514391000000000 
K           0.152393000000000    0.304786000000000    0.800759000000000 
K           0.152393000000000    0.847607000000000    0.800759000000000 
K           0.361880000000000    0.180940000000000    0.134093000000000 
K           0.379702000000000    0.189851000000000    0.847725000000000 
K           0.476815000000000    0.523185000000000    0.181058000000000 
K           0.476815000000000    0.953631000000000    0.181058000000000 
K           0.485727000000000    0.514273000000000    0.467426000000000 
K           0.485727000000000    0.971453000000000    0.467426000000000 
K           0.695214000000000    0.847607000000000    0.800759000000000 
K           0.713036000000000    0.856518000000000    0.514391000000000 
K           0.810149000000000    0.189851000000000    0.847725000000000 
K           0.810149000000000    0.620298000000000    0.847725000000000 
K           0.819060000000000    0.180940000000000    0.134093000000000 
K           0.819060000000000    0.638120000000000    0.134093000000000 
%ENDBLOCK POSITIONS_FRAC
