# Cell file generated by matador (Matthew Evans 2016)

%BLOCK LATTICE_CART
7.21726 0.0 0.0
0.0 6.5461 0.0
0.0 0.0 9.12275
%ENDBLOCK LATTICE_CART

%BLOCK POSITIONS_FRAC
P           0.000000000000000    0.521692000000000    0.973755000000000 
P           0.202629000000000    0.658612000000000    0.119976000000000 
P           0.205057000000000    0.648490000000000    0.369991000000000 
P           0.245234000000000    0.427169000000000    0.008120000000000 
P           0.254766000000000    0.572831000000000    0.508120000000000 
P           0.294943000000000    0.351510000000000    0.869991000000000 
P           0.297371000000000    0.341388000000000    0.619976000000000 
P           0.500000000000000    0.478308000000000    0.473755000000000 
P           0.702629000000000    0.341388000000000    0.619976000000000 
P           0.705057000000000    0.351510000000000    0.869991000000000 
P           0.745234000000000    0.572831000000000    0.508120000000000 
P           0.754766000000000    0.427169000000000    0.008120000000000 
P           0.794943000000000    0.648490000000000    0.369991000000000 
P           0.797371000000000    0.658612000000000    0.119976000000000 
K           0.000000000000000    0.718670000000000    0.775983000000000 
K           0.500000000000000    0.281330000000000    0.275983000000000 
%ENDBLOCK POSITIONS_FRAC
