# Cell file generated by matador (Matthew Evans 2016)

%BLOCK LATTICE_CART
9.00957 0.0 0.0
-4.50478 7.80251 0.0
0.0 0.0 6.00411
%ENDBLOCK LATTICE_CART

%BLOCK POSITIONS_FRAC
P           0.000000000000000    0.000000000000000    0.530126000000000 
P           0.333333000000000    0.666667000000000    0.196793000000000 
P           0.666667000000000    0.333333000000000    0.863460000000000 
K           0.167431000000000    0.334863000000000    0.554252000000000 
K           0.167431000000000    0.832569000000000    0.554252000000000 
K           0.331804000000000    0.165902000000000    0.887585000000000 
K           0.500765000000000    0.001530000000000    0.220919000000000 
K           0.500765000000000    0.499235000000000    0.220919000000000 
K           0.665137000000000    0.832569000000000    0.554252000000000 
K           0.834098000000000    0.165902000000000    0.887585000000000 
K           0.834098000000000    0.668196000000000    0.887585000000000 
K           0.998470000000000    0.499235000000000    0.220919000000000 
%ENDBLOCK POSITIONS_FRAC
