# Cell file generated by matador (Matthew Evans 2016)

%BLOCK LATTICE_CART
6.93517 0.0 0.0
0.0 6.93517 0.0
0.0 0.0 6.87411
%ENDBLOCK LATTICE_CART

%BLOCK POSITIONS_FRAC
P           0.000000000000000    0.000000000000000    0.000000000000000 
P           0.000000000000000    0.500000000000000    0.956751000000000 
P           0.500000000000000    0.000000000000000    0.043249000000000 
P           0.500000000000000    0.500000000000000    0.000000000000000 
K           0.000000000000000    0.000000000000000    0.500000000000000 
K           0.265660000000000    0.661133000000000    0.698083000000000 
K           0.338867000000000    0.265660000000000    0.301917000000000 
K           0.661133000000000    0.734340000000000    0.301917000000000 
K           0.734340000000000    0.338867000000000    0.698083000000000 
%ENDBLOCK POSITIONS_FRAC
