# Cell file generated by matador (Matthew Evans 2016)

%BLOCK LATTICE_CART
6.68761 0.0 0.0
-3.3438 5.79164 0.0
0.0 0.0 13.8998
%ENDBLOCK LATTICE_CART

%BLOCK POSITIONS_FRAC
P           0.000000000000000    0.500000000000000    0.000000000000000 
P           0.000000000000000    0.500000000000000    0.500000000000000 
P           0.500000000000000    0.000000000000000    0.000000000000000 
P           0.500000000000000    0.000000000000000    0.500000000000000 
P           0.500000000000000    0.500000000000000    0.000000000000000 
P           0.500000000000000    0.500000000000000    0.500000000000000 
K           0.000000000000000    0.000000000000000    0.000000000000000 
K           0.000000000000000    0.000000000000000    0.250000000000000 
K           0.000000000000000    0.000000000000000    0.500000000000000 
K           0.000000000000000    0.000000000000000    0.750000000000000 
K           0.000000000000000    0.363157000000000    0.750000000000000 
K           0.000000000000000    0.636843000000000    0.250000000000000 
K           0.363157000000000    0.000000000000000    0.750000000000000 
K           0.363157000000000    0.363157000000000    0.250000000000000 
K           0.636843000000000    0.000000000000000    0.250000000000000 
K           0.636843000000000    0.636843000000000    0.750000000000000 
%ENDBLOCK POSITIONS_FRAC
