# Cell file generated by matador (Matthew Evans 2016)

%BLOCK LATTICE_CART
9.07838 0.0 0.0
0.0 9.07838 0.0
0.0 0.0 4.43631
%ENDBLOCK LATTICE_CART

%BLOCK POSITIONS_FRAC
P           0.000000000000000    0.000000000000000    0.355728000000000 
K           0.000000000000000    0.500000000000000    0.410379000000000 
K           0.193989000000000    0.704211000000000    0.273623000000000 
K           0.295789000000000    0.193989000000000    0.273623000000000 
K           0.500000000000000    0.000000000000000    0.410379000000000 
K           0.500000000000000    0.500000000000000    0.542014000000000 
K           0.704211000000000    0.806011000000000    0.273623000000000 
K           0.806011000000000    0.295789000000000    0.273623000000000 
%ENDBLOCK POSITIONS_FRAC
