# Cell file generated by matador (Matthew Evans 2016)

%BLOCK LATTICE_CART
9.15661 0.0 0.0
-4.5783 7.92985 0.0
0.0 0.0 8.30197
%ENDBLOCK LATTICE_CART

%BLOCK POSITIONS_FRAC
P           0.311522000000000    0.655761000000000    0.500000000000000 
P           0.344239000000000    0.655761000000000    0.166667000000000 
P           0.344239000000000    0.688478000000000    0.833333000000000 
K           0.113255000000000    0.226510000000000    0.333333000000000 
K           0.113255000000000    0.886745000000000    0.666667000000000 
K           0.159990000000000    0.579995000000000   -0.000000000000000 
K           0.320271000000000    0.160136000000000   -0.000000000000000 
K           0.420005000000000    0.579995000000000    0.666667000000000 
K           0.420005000000000    0.840010000000000    0.333333000000000 
K           0.615065000000000    0.307533000000000   -0.000000000000000 
K           0.692467000000000    0.307533000000000    0.666667000000000 
K           0.692467000000000    0.384935000000000    0.333333000000000 
K           0.773490000000000    0.886745000000000   -0.000000000000000 
K           0.839864000000000    0.160136000000000    0.666667000000000 
K           0.839864000000000    0.679729000000000    0.333333000000000 
%ENDBLOCK POSITIONS_FRAC
