# Cell file generated by matador (Matthew Evans 2016)

%BLOCK LATTICE_CART
6.4547 0.0 0.0
0.0 6.4547 0.0
0.0 0.0 15.4631
%ENDBLOCK LATTICE_CART

%BLOCK POSITIONS_FRAC
P           0.000000000000000    0.000000000000000    0.500000000000000 
P           0.000000000000000    0.500000000000000    0.750000000000000 
P           0.500000000000000    0.000000000000000    0.250000000000000 
P           0.500000000000000    0.500000000000000    0.000000000000000 
K           0.000000000000000    0.000000000000000    0.000000000000000 
K           0.000000000000000    0.500000000000000    0.250000000000000 
K           0.063187000000000    0.250000000000000    0.625000000000000 
K           0.250000000000000    0.063187000000000    0.375000000000000 
K           0.250000000000000    0.436813000000000    0.875000000000000 
K           0.436813000000000    0.250000000000000    0.125000000000000 
K           0.500000000000000    0.000000000000000    0.750000000000000 
K           0.500000000000000    0.500000000000000    0.500000000000000 
K           0.563187000000000    0.750000000000000    0.125000000000000 
K           0.750000000000000    0.563187000000000    0.875000000000000 
K           0.750000000000000    0.936813000000000    0.375000000000000 
K           0.936813000000000    0.750000000000000    0.625000000000000 
%ENDBLOCK POSITIONS_FRAC
