# Cell file generated by matador (Matthew Evans 2016)

%BLOCK LATTICE_CART
7.32755 0.0 0.0
-3.66377 6.34584 0.0
0.0 0.0 5.56478
%ENDBLOCK LATTICE_CART

%BLOCK POSITIONS_FRAC
P           0.085568000000000    0.405466000000000    0.129022000000000 
P           0.085568000000000    0.680102000000000    0.870978000000000 
P           0.319898000000000    0.405466000000000    0.870978000000000 
P           0.319898000000000    0.914432000000000    0.129022000000000 
P           0.594534000000000    0.680102000000000    0.129022000000000 
P           0.594534000000000    0.914432000000000    0.870978000000000 
K           0.000000000000000    0.000000000000000    0.000000000000000 
K           0.000000000000000    0.000000000000000    0.500000000000000 
K           0.333333000000000    0.666667000000000    0.000000000000000 
K           0.666667000000000    0.333333000000000    0.000000000000000 
K           0.666667000000000    0.333333000000000    0.500000000000000 
%ENDBLOCK POSITIONS_FRAC
