# Cell file generated by matador (Matthew Evans 2016)

%BLOCK LATTICE_CART
10.6394 0.0 0.0
-5.31971 9.214 0.0
0.0 0.0 13.849
%ENDBLOCK LATTICE_CART

%BLOCK POSITIONS_FRAC
P           0.000000000000000    0.000000000000000    0.000000000000000 
P           0.000000000000000    0.000000000000000    0.250000000000000 
P           0.000000000000000    0.000000000000000    0.500000000000000 
P           0.000000000000000    0.000000000000000    0.750000000000000 
P           0.333333000000000    0.666667000000000    0.250000000000000 
P           0.333333000000000    0.666667000000000    0.750000000000000 
P           0.666667000000000    0.333333000000000    0.250000000000000 
P           0.666667000000000    0.333333000000000    0.750000000000000 
K           0.000000000000000    0.500000000000000    0.000000000000000 
K           0.000000000000000    0.500000000000000    0.500000000000000 
K           0.058373000000000    0.851965000000000    0.250000000000000 
K           0.064250000000000    0.435970000000000    0.250000000000000 
K           0.148035000000000    0.206408000000000    0.250000000000000 
K           0.156090000000000    0.463191000000000    0.750000000000000 
K           0.206408000000000    0.058373000000000    0.750000000000000 
K           0.307101000000000    0.843910000000000    0.750000000000000 
K           0.371720000000000    0.935750000000000    0.250000000000000 
K           0.435970000000000    0.371720000000000    0.750000000000000 
K           0.463191000000000    0.307101000000000    0.250000000000000 
K           0.500000000000000    0.000000000000000    0.000000000000000 
K           0.500000000000000    0.000000000000000    0.500000000000000 
K           0.500000000000000    0.500000000000000    0.000000000000000 
K           0.500000000000000    0.500000000000000    0.500000000000000 
K           0.536809000000000    0.692899000000000    0.750000000000000 
K           0.564030000000000    0.628280000000000    0.250000000000000 
K           0.628280000000000    0.064250000000000    0.750000000000000 
K           0.692899000000000    0.156090000000000    0.250000000000000 
K           0.793592000000000    0.941627000000000    0.250000000000000 
K           0.843910000000000    0.536809000000000    0.250000000000000 
K           0.851965000000000    0.793592000000000    0.750000000000000 
K           0.935750000000000    0.564030000000000    0.750000000000000 
K           0.941627000000000    0.148035000000000    0.750000000000000 
%ENDBLOCK POSITIONS_FRAC
