# Cell file generated by matador (Matthew Evans 2016)

%BLOCK LATTICE_CART
6.26605 0.0 0.0
-3.13303 5.42656 0.0
0.0 0.0 7.96445
%ENDBLOCK LATTICE_CART

%BLOCK POSITIONS_FRAC
P           0.000000000000000    0.000000000000000    0.543365000000000 
P           0.333333000000000    0.666667000000000    0.698307000000000 
P           0.666667000000000    0.333333000000000    0.698307000000000 
K           0.000000000000000    0.000000000000000    0.059211000000000 
K           0.000000000000000    0.500000000000000    0.045421000000000 
K           0.500000000000000    0.000000000000000    0.045421000000000 
K           0.500000000000000    0.500000000000000    0.045421000000000 
%ENDBLOCK POSITIONS_FRAC
