# Cell file generated by matador (Matthew Evans 2016)

%BLOCK LATTICE_CART
7.96822 0.0 0.0
-3.98411 6.90068 0.0
0.0 0.0 8.08563
%ENDBLOCK LATTICE_CART

%BLOCK POSITIONS_FRAC
P           0.070545000000000    0.662446000000000    0.702153000000000 
P           0.337554000000000    0.408099000000000    0.035486000000000 
P           0.459322000000000    0.380395000000000    0.866107000000000 
P           0.591901000000000    0.929455000000000    0.368819000000000 
P           0.619605000000000    0.078927000000000    0.199441000000000 
P           0.921073000000000    0.540678000000000    0.532774000000000 
K           0.017322000000000    0.403600000000000    0.137958000000000 
K           0.034943000000000    0.933274000000000    0.386531000000000 
K           0.066726000000000    0.101669000000000    0.719864000000000 
K           0.386278000000000    0.982678000000000    0.804625000000000 
K           0.596400000000000    0.613722000000000    0.471291000000000 
K           0.898331000000000    0.965057000000000    0.053198000000000 
%ENDBLOCK POSITIONS_FRAC
