# Cell file generated by matador (Matthew Evans 2016)

%BLOCK LATTICE_CART
8.06911 0.0 0.0
-4.03455 6.98805 0.0
0.0 0.0 8.18149
%ENDBLOCK LATTICE_CART

%BLOCK POSITIONS_FRAC
P           0.333332000000000    0.666666000000000    0.000000000000000 
P           0.333332000000000    0.666666000000000    0.373410000000000 
P           0.333332000000000    0.666666000000000    0.626590000000000 
P           0.666666000000000    0.333332000000000    0.000000000000000 
P           0.666666000000000    0.333332000000000    0.373410000000000 
P           0.666666000000000    0.333332000000000    0.626590000000000 
K           0.999999000000000    0.999999000000000    0.000000000000000 
K           0.000182000000000    0.356435000000000    0.500000000000000 
K           0.356252000000000    0.999816000000000    0.500000000000000 
K           0.356435000000000    0.356252000000000    0.500000000000000 
K           0.643563000000000    0.643746000000000    0.500000000000000 
K           0.643746000000000    0.000182000000000    0.500000000000000 
K           0.999816000000000    0.643563000000000    0.500000000000000 
%ENDBLOCK POSITIONS_FRAC
