# Cell file generated by matador (Matthew Evans 2016)

%BLOCK LATTICE_CART
7.34007 0.0 0.0
0.0 7.34007 0.0
0.0 0.0 8.60276
%ENDBLOCK LATTICE_CART

%BLOCK POSITIONS_FRAC
P           0.000000000000000    0.500000000000000    0.250000000000000 
P           0.000000000000000    0.500000000000000    0.750000000000000 
P           0.207146000000000    0.252808000000000    0.000000000000000 
P           0.247192000000000    0.292854000000000    0.500000000000000 
P           0.252808000000000    0.792854000000000    0.000000000000000 
P           0.292854000000000    0.752808000000000    0.500000000000000 
P           0.500000000000000    0.000000000000000    0.250000000000000 
P           0.500000000000000    0.000000000000000    0.750000000000000 
P           0.707146000000000    0.247192000000000    0.500000000000000 
P           0.747192000000000    0.207146000000000    0.000000000000000 
P           0.752808000000000    0.707146000000000    0.500000000000000 
P           0.792854000000000    0.747192000000000    0.000000000000000 
K           0.000000000000000    0.000000000000000    0.500000000000000 
K           0.000000000000000    0.500000000000000    0.000000000000000 
K           0.000000000000000    0.500000000000000    0.500000000000000 
K           0.500000000000000    0.000000000000000    0.000000000000000 
K           0.500000000000000    0.000000000000000    0.500000000000000 
K           0.500000000000000    0.500000000000000    0.000000000000000 
%ENDBLOCK POSITIONS_FRAC
