# Cell file generated by matador (Matthew Evans 2016)

%BLOCK LATTICE_CART
11.3136 0.0 0.0
0.0 6.23004 0.0
2.84679 0.0 7.86331
%ENDBLOCK LATTICE_CART

%BLOCK POSITIONS_FRAC
P           0.001295000000000    0.622136000000000    0.640667000000000 
P           0.001295000000000    0.877864000000000    0.140667000000000 
P           0.190911000000000    0.633163000000000    0.040488000000000 
P           0.190911000000000    0.866837000000000    0.540488000000000 
P           0.448837000000000    0.689902000000000    0.011475000000000 
P           0.448837000000000    0.810098000000000    0.511475000000000 
P           0.551163000000000    0.189902000000000    0.488525000000000 
P           0.551163000000000    0.310098000000000    0.988525000000000 
P           0.809089000000000    0.133163000000000    0.459512000000000 
P           0.809089000000000    0.366837000000000    0.959512000000000 
P           0.998705000000000    0.122136000000000    0.859333000000000 
P           0.998705000000000    0.377864000000000    0.359333000000000 
K           0.500000000000000    0.000000000000000    0.000000000000000 
K           0.500000000000000    0.500000000000000    0.500000000000000 
%ENDBLOCK POSITIONS_FRAC
