# Cell file generated by matador (Matthew Evans 2016)

%BLOCK LATTICE_CART
6.53292 0.0 0.0
-3.26646 5.65767 0.0
0.0 0.0 10.7418
%ENDBLOCK LATTICE_CART

%BLOCK POSITIONS_FRAC
P           0.000000000000000    0.000000000000000    0.000000000000000 
P           0.000000000000000    0.000000000000000    0.500000000000000 
P           0.000000000000000    0.153070000000000    0.500000000000000 
P           0.153070000000000    0.000000000000000    0.500000000000000 
P           0.846930000000000    0.846930000000000    0.500000000000000 
K           0.000000000000000    0.192613000000000    0.300430000000000 
K           0.000000000000000    0.192613000000000    0.699570000000000 
K           0.192613000000000    0.000000000000000    0.300430000000000 
K           0.192613000000000    0.000000000000000    0.699570000000000 
K           0.333333000000000    0.666667000000000    0.000000000000000 
K           0.333333000000000    0.666667000000000    0.500000000000000 
K           0.666667000000000    0.333333000000000    0.000000000000000 
K           0.666667000000000    0.333333000000000    0.500000000000000 
K           0.807387000000000    0.807387000000000    0.300430000000000 
K           0.807387000000000    0.807387000000000    0.699570000000000 
%ENDBLOCK POSITIONS_FRAC
