# Cell file generated by matador (Matthew Evans 2016)

%BLOCK LATTICE_CART
6.84185 0.0 0.0
-3.42092 5.92522 0.0
0.0 0.0 7.14377
%ENDBLOCK LATTICE_CART

%BLOCK POSITIONS_FRAC
P           0.000000000000000    0.000000000000000    0.000000000000000 
P           0.000000000000000    0.000000000000000    0.500000000000000 
K           0.077828000000000    0.672244000000000    0.250000000000000 
K           0.327756000000000    0.405583000000000    0.250000000000000 
K           0.405583000000000    0.327756000000000    0.750000000000000 
K           0.594417000000000    0.922172000000000    0.250000000000000 
K           0.672244000000000    0.077828000000000    0.750000000000000 
K           0.922172000000000    0.594417000000000    0.750000000000000 
%ENDBLOCK POSITIONS_FRAC
