# Cell file generated by matador (Matthew Evans 2016)

%BLOCK LATTICE_CART
7.99063 0.0 0.0
0.0 7.99063 0.0
0.0 0.0 6.08438
%ENDBLOCK LATTICE_CART

%BLOCK POSITIONS_FRAC
P           0.250293000000000    0.500000000000000    0.500000000000000 
P           0.500000000000000    0.250293000000000    0.500000000000000 
P           0.500000000000000    0.749707000000000    0.500000000000000 
P           0.749707000000000    0.500000000000000    0.500000000000000 
K           0.000000000000000    0.000000000000000    0.000000000000000 
K           0.000000000000000    0.500000000000000    0.000000000000000 
K           0.000000000000000    0.500000000000000    0.500000000000000 
K           0.500000000000000    0.000000000000000    0.000000000000000 
K           0.500000000000000    0.000000000000000    0.500000000000000 
K           0.500000000000000    0.500000000000000    0.000000000000000 
K           0.500000000000000    0.500000000000000    0.500000000000000 
%ENDBLOCK POSITIONS_FRAC
