# Cell file generated by matador (Matthew Evans 2016)

%BLOCK LATTICE_CART
6.92914 -0.0 0.0
-3.46457 6.00081 0.0
0.0 0.0 6.09115
%ENDBLOCK LATTICE_CART

%BLOCK POSITIONS_FRAC
P           0.000000000000000    0.000000000000000    0.505482000000000 
P           0.000000000000000    0.000000000000000    0.885832000000000 
K           0.333333000000000    0.666667000000000    0.983715000000000 
K           0.380883000000000    0.083794000000000    0.229186000000000 
K           0.666667000000000    0.333333000000000    0.041433000000000 
K           0.702910000000000    0.619117000000000    0.229186000000000 
K           0.916206000000000    0.297090000000000    0.229186000000000 
%ENDBLOCK POSITIONS_FRAC
