# Cell file generated by matador (Matthew Evans 2016)

%BLOCK LATTICE_CART
6.50219 0.0 0.0
0.0 6.50219 0.0
0.0 0.0 7.81611
%ENDBLOCK LATTICE_CART

%BLOCK POSITIONS_FRAC
P           0.500000000000000    0.500000000000000    0.122027000000000 
P           0.500000000000000    0.500000000000000    0.250000000000000 
P           0.500000000000000    0.500000000000000    0.377973000000000 
P           0.500000000000000    0.500000000000000    0.622027000000000 
P           0.500000000000000    0.500000000000000    0.750000000000000 
P           0.500000000000000    0.500000000000000    0.877973000000000 
K           0.283088000000000    0.283088000000000    0.127958000000000 
K           0.283088000000000    0.283088000000000    0.872042000000000 
K           0.283088000000000    0.716912000000000    0.372042000000000 
K           0.283088000000000    0.716912000000000    0.627958000000000 
K           0.716912000000000    0.283088000000000    0.372042000000000 
K           0.716912000000000    0.283088000000000    0.627958000000000 
K           0.716912000000000    0.716912000000000    0.127958000000000 
K           0.716912000000000    0.716912000000000    0.872042000000000 
%ENDBLOCK POSITIONS_FRAC
