# Cell file generated by matador (Matthew Evans 2016)

%BLOCK LATTICE_CART
8.75982 0.0 0.0
-4.37991 7.58623 0.0
0.0 0.0 8.69641
%ENDBLOCK LATTICE_CART

%BLOCK POSITIONS_FRAC
P          -0.000000000000000    0.000000000000000    0.280615000000000 
P          -0.000000000000000    0.000000000000000    0.719385000000000 
P          -0.000000000000000    0.170779000000000    0.500000000000000 
P          -0.000000000000000    0.829221000000000    0.500000000000000 
P           0.161386000000000    0.322774000000000    0.817660000000000 
P           0.161386000000000    0.838614000000000    0.817660000000000 
P           0.170779000000000    0.000000000000000    0.500000000000000 
P           0.170779000000000    0.170779000000000    0.500000000000000 
P           0.322773000000000    0.161387000000000    0.182340000000000 
P           0.677226000000000    0.838614000000000    0.817660000000000 
P           0.829221000000000    0.000000000000000    0.500000000000000 
P           0.829221000000000    0.829221000000000    0.500000000000000 
P           0.838613000000000    0.161387000000000    0.182340000000000 
P           0.838613000000000    0.677227000000000    0.182340000000000 
K           0.333333000000000    0.666667000000000    0.160376000000000 
K           0.666666000000000    0.333334000000000    0.839624000000000 
%ENDBLOCK POSITIONS_FRAC
