# Cell file generated by matador (Matthew Evans 2016)

%BLOCK LATTICE_CART
6.61205 0.0 0.0
-3.30603 5.7262 0.0
0.0 0.0 10.0167
%ENDBLOCK LATTICE_CART

%BLOCK POSITIONS_FRAC
P           0.333333000000000    0.666667000000000    0.302489000000000 
P           0.333333000000000    0.666667000000000    0.578309000000000 
P           0.333333000000000    0.666667000000000    0.915657000000000 
P           0.666666000000000    0.333334000000000    0.084343000000000 
P           0.666666000000000    0.333334000000000    0.421691000000000 
P           0.666666000000000    0.333334000000000    0.697511000000000 
K          -0.000000000000000    0.000000000000000    0.000000000000000 
K          -0.000000000000000    0.500000000000000    0.000000000000000 
K          -0.000000000000000    0.500000000000000    0.500000000000000 
K           0.333333000000000    0.666667000000000    0.107935000000000 
K           0.500000000000000    0.000000000000000    0.000000000000000 
K           0.500000000000000    0.000000000000000    0.500000000000000 
K           0.500000000000000    0.500000000000000    0.000000000000000 
K           0.500000000000000    0.500000000000000    0.500000000000000 
K           0.666666000000000    0.333334000000000    0.892065000000000 
%ENDBLOCK POSITIONS_FRAC
