# Cell file generated by matador (Matthew Evans 2016)

%BLOCK LATTICE_CART
9.07105 0.0 0.0
0.0 5.59124 0.0
0.0 0.0 8.22742
%ENDBLOCK LATTICE_CART

%BLOCK POSITIONS_FRAC
P           0.220482000000000    0.000000000000000    0.000000000000000 
P           0.279518000000000    0.000000000000000    0.500000000000000 
P           0.720482000000000    0.000000000000000    0.500000000000000 
P           0.779518000000000    0.000000000000000    0.000000000000000 
K           0.000000000000000    0.000000000000000    0.000000000000000 
K           0.000000000000000    0.000000000000000    0.500000000000000 
K           0.000000000000000    0.500000000000000    0.000000000000000 
K           0.250000000000000    0.360537000000000    0.250000000000000 
K           0.250000000000000    0.639463000000000    0.750000000000000 
K           0.500000000000000    0.000000000000000    0.000000000000000 
K           0.500000000000000    0.000000000000000    0.500000000000000 
K           0.500000000000000    0.500000000000000    0.500000000000000 
K           0.750000000000000    0.360537000000000    0.250000000000000 
K           0.750000000000000    0.639463000000000    0.750000000000000 
%ENDBLOCK POSITIONS_FRAC
