# Cell file generated by matador (Matthew Evans 2016)

%BLOCK LATTICE_CART
6.91793 0.0 0.0
0.0 6.91793 0.0
0.0 0.0 9.01238
%ENDBLOCK LATTICE_CART

%BLOCK POSITIONS_FRAC
P           0.000000000000000    0.000000000000000    0.221918000000000 
P           0.000000000000000    0.000000000000000    0.778082000000000 
P           0.500000000000000    0.500000000000000    0.278082000000000 
P           0.500000000000000    0.500000000000000    0.721918000000000 
K           0.000000000000000    0.000000000000000    0.000000000000000 
K           0.000000000000000    0.000000000000000    0.500000000000000 
K           0.000000000000000    0.500000000000000    0.010902000000000 
K           0.000000000000000    0.500000000000000    0.510902000000000 
K           0.500000000000000    0.000000000000000    0.489098000000000 
K           0.500000000000000    0.000000000000000    0.989098000000000 
K           0.500000000000000    0.500000000000000    0.000000000000000 
K           0.500000000000000    0.500000000000000    0.500000000000000 
%ENDBLOCK POSITIONS_FRAC
