# Cell file generated by matador (Matthew Evans 2016)

%BLOCK LATTICE_CART
6.85827 0.0 0.0
0.0 4.40778 0.0
0.0 0.0 8.22665
%ENDBLOCK LATTICE_CART

%BLOCK POSITIONS_FRAC
P           0.133409000000000    0.653402000000000    0.586418000000000 
P           0.366591000000000    0.346598000000000    0.086418000000000 
P           0.633409000000000    0.346598000000000    0.086418000000000 
P           0.866591000000000    0.653402000000000    0.586418000000000 
K           0.000000000000000    0.251497000000000    0.254428000000000 
K           0.000000000000000    0.808871000000000    0.800330000000000 
K           0.500000000000000    0.191129000000000    0.300330000000000 
K           0.500000000000000    0.748503000000000    0.754428000000000 
%ENDBLOCK POSITIONS_FRAC
