# Cell file generated by matador (Matthew Evans 2016)

%BLOCK LATTICE_CART
3.93208 0.0 0.0
-0.727004 4.18625 0.0
-0.433756 0.458727 4.23921
%ENDBLOCK LATTICE_CART

%BLOCK POSITIONS_FRAC
P           0.000000000000000    0.000000000000000    0.000000000000000 
P           0.500000000000000    0.000000000000000    0.000000000000000 
K           0.000000000000000    0.500000000000000    0.000000000000000 
%ENDBLOCK POSITIONS_FRAC
