# Cell file generated by matador (Matthew Evans 2016)

%BLOCK LATTICE_CART
11.2184 0.0 0.0
0.0 7.9507 0.0
-2.84173 0.0 7.10612
%ENDBLOCK LATTICE_CART

%BLOCK POSITIONS_FRAC
P           0.240861000000000    0.500000000000000    0.543493000000000 
P           0.902746000000000    0.075642000000000    0.515868000000000 
P           0.902746000000000    0.924358000000000    0.515868000000000 
K           0.156162000000000    0.000000000000000    0.804079000000000 
K           0.156684000000000    0.000000000000000    0.171926000000000 
K           0.236708000000000    0.500000000000000    0.948522000000000 
K           0.239079000000000    0.000000000000000    0.508472000000000 
K           0.275225000000000    0.500000000000000    0.261876000000000 
K           0.424827000000000    0.000000000000000    0.080764000000000 
K           0.516142000000000    0.500000000000000    0.603182000000000 
K           0.516845000000000    0.500000000000000    0.898555000000000 
K           0.613376000000000    0.000000000000000    0.914065000000000 
K           0.695516000000000    0.000000000000000    0.672724000000000 
K           0.723856000000000    0.000000000000000    0.326522000000000 
K           0.863128000000000    0.500000000000000    0.567473000000000 
K           0.889279000000000    0.336433000000000    0.941444000000000 
K           0.889279000000000    0.663567000000000    0.941444000000000 
K           0.989058000000000    0.000000000000000    0.845046000000000 
%ENDBLOCK POSITIONS_FRAC
