# Cell file generated by matador (Matthew Evans 2016)

%BLOCK LATTICE_CART
5.49629 0.0 0.0
0.0 10.1279 0.0
2.07371 0.0 5.02055
%ENDBLOCK LATTICE_CART

%BLOCK POSITIONS_FRAC
P           0.000000000000000    0.181132000000000    0.500000000000000 
P           0.120081000000000    0.048938000000000    0.247720000000000 
P           0.303783000000000    0.702065000000000    0.444109000000000 
P           0.458511000000000    0.339789000000000    0.176557000000000 
P           0.541489000000000    0.339789000000000    0.823443000000000 
P           0.696217000000000    0.702065000000000    0.555891000000000 
P           0.879919000000000    0.048938000000000    0.752280000000000 
K           0.000000000000000    0.540260000000000    0.500000000000000 
K           0.000000000000000    0.740053000000000    0.000000000000000 
K           0.326715000000000    0.517115000000000    0.782093000000000 
K           0.500000000000000    0.954142000000000    0.500000000000000 
K           0.673285000000000    0.517115000000000    0.217907000000000 
%ENDBLOCK POSITIONS_FRAC
