# Cell file generated by matador (Matthew Evans 2016)

%BLOCK LATTICE_CART
7.63672 0.0 0.0
0.0 7.63672 0.0
0.0 0.0 7.63381
%ENDBLOCK LATTICE_CART

%BLOCK POSITIONS_FRAC
P           0.000000000000000    0.000000000000000    0.000000000000000 
P           0.000000000000000    0.500000000000000    0.509370000000000 
P           0.000000000000000    0.500000000000000    0.750000000000000 
P           0.000000000000000    0.500000000000000    0.990630000000000 
P           0.500000000000000    0.000000000000000    0.009370000000000 
P           0.500000000000000    0.000000000000000    0.250000000000000 
P           0.500000000000000    0.000000000000000    0.490630000000000 
P           0.500000000000000    0.500000000000000    0.500000000000000 
K           0.000000000000000    0.247515000000000    0.939788000000000 
K           0.000000000000000    0.500000000000000    0.250000000000000 
K           0.000000000000000    0.752485000000000    0.939788000000000 
K           0.247515000000000    0.000000000000000    0.060212000000000 
K           0.252485000000000    0.500000000000000    0.560212000000000 
K           0.500000000000000    0.000000000000000    0.750000000000000 
K           0.500000000000000    0.252485000000000    0.439788000000000 
K           0.500000000000000    0.747515000000000    0.439788000000000 
K           0.747515000000000    0.500000000000000    0.560212000000000 
K           0.752485000000000    0.000000000000000    0.060212000000000 
%ENDBLOCK POSITIONS_FRAC
