# Cell file generated by matador (Matthew Evans 2016)

%BLOCK LATTICE_CART
6.18932 0.0 0.0
-3.09466 5.36011 0.0
0.0 0.0 11.363
%ENDBLOCK LATTICE_CART

%BLOCK POSITIONS_FRAC
P           0.013566000000000    0.696375000000000    0.780218000000000 
P           0.053617000000000    0.402982000000000    0.063477000000000 
P           0.110627000000000    0.507618000000000    0.934294000000000 
P           0.163362000000000    0.162590000000000    0.496262000000000 
P           0.303625000000000    0.317191000000000    0.446885000000000 
P           0.349366000000000    0.946383000000000    0.396810000000000 
P           0.396991000000000    0.889373000000000    0.267627000000000 
P           0.492382000000000    0.603009000000000    0.600961000000000 
P           0.504530000000000    0.052341000000000    0.633174000000000 
P           0.547811000000000    0.495470000000000    0.966507000000000 
P           0.597018000000000    0.650634000000000    0.730144000000000 
P           0.682809000000000    0.986434000000000    0.113551000000000 
P           0.837410000000000    0.000772000000000    0.162929000000000 
P           0.947659000000000    0.452189000000000    0.299841000000000 
P           0.999228000000000    0.836638000000000    0.829596000000000 
K           0.477167000000000    0.055200000000000    0.821254000000000 
K           0.578033000000000    0.522833000000000    0.154587000000000 
K           0.944800000000000    0.421967000000000    0.487920000000000 
%ENDBLOCK POSITIONS_FRAC
