# Cell file generated by matador (Matthew Evans 2016)

%BLOCK LATTICE_CART
10.3977 0.0 0.0
-5.19883 9.00465 0.0
0.0 0.0 10.7391
%ENDBLOCK LATTICE_CART

%BLOCK POSITIONS_FRAC
P           0.000000000000000    0.000000000000000    0.255083000000000 
P           0.000000000000000    0.000000000000000    0.744917000000000 
P           0.000000000000000    0.387436000000000    0.500000000000000 
P           0.333333000000000    0.666667000000000    0.000000000000000 
P           0.387436000000000    0.000000000000000    0.500000000000000 
P           0.612564000000000    0.612564000000000    0.500000000000000 
P           0.666667000000000    0.333333000000000    0.000000000000000 
K           0.000000000000000    0.000000000000000    0.000000000000000 
K           0.000000000000000    0.405890000000000    0.197593000000000 
K           0.000000000000000    0.405890000000000    0.802407000000000 
K           0.000000000000000    0.766121000000000    0.189927000000000 
K           0.000000000000000    0.766121000000000    0.810073000000000 
K           0.162616000000000    0.819839000000000    0.500000000000000 
K           0.180161000000000    0.342777000000000    0.500000000000000 
K           0.233879000000000    0.233879000000000    0.189927000000000 
K           0.233879000000000    0.233879000000000    0.810073000000000 
K           0.333333000000000    0.666667000000000    0.500000000000000 
K           0.342777000000000    0.180161000000000    0.500000000000000 
K           0.405890000000000    0.000000000000000    0.197593000000000 
K           0.405890000000000    0.000000000000000    0.802407000000000 
K           0.594110000000000    0.594110000000000    0.197593000000000 
K           0.594110000000000    0.594110000000000    0.802407000000000 
K           0.657223000000000    0.837384000000000    0.500000000000000 
K           0.666667000000000    0.333333000000000    0.500000000000000 
K           0.766121000000000    0.000000000000000    0.189927000000000 
K           0.766121000000000    0.000000000000000    0.810073000000000 
K           0.819839000000000    0.162616000000000    0.500000000000000 
K           0.837384000000000    0.657223000000000    0.500000000000000 
%ENDBLOCK POSITIONS_FRAC
