# Cell file generated by matador (Matthew Evans 2016)

%BLOCK LATTICE_CART
8.23103 -0.0 0.0
-4.11552 7.12828 0.0
0.0 0.0 8.83299
%ENDBLOCK LATTICE_CART

%BLOCK POSITIONS_FRAC
P           0.000000000000000    0.000000000000000    0.500000000000000 
P           0.333333000000000    0.666667000000000    0.500000000000000 
P           0.666667000000000    0.333333000000000    0.000000000000000 
K           0.000000000000000    0.000000000000000    0.000000000000000 
K           0.072416000000000    0.612597000000000    0.500000000000000 
K           0.257112000000000    0.042517000000000    0.500000000000000 
K           0.333333000000000    0.666667000000000    0.000000000000000 
K           0.387403000000000    0.459820000000000    0.500000000000000 
K           0.540180000000000    0.927584000000000    0.500000000000000 
K           0.666667000000000    0.333333000000000    0.500000000000000 
K           0.785405000000000    0.742888000000000    0.500000000000000 
K           0.957483000000000    0.214595000000000    0.500000000000000 
%ENDBLOCK POSITIONS_FRAC
