# Cell file generated by matador (Matthew Evans 2016)

%BLOCK LATTICE_CART
6.64809 -0.0 0.0
-3.32405 5.75741 0.0
0.0 0.0 7.64905
%ENDBLOCK LATTICE_CART

%BLOCK POSITIONS_FRAC
P          -0.000000000000000    0.000000000000000    0.168834000000000 
P           0.181343000000000    0.407538000000000    0.207046000000000 
P           0.226195000000000    0.818657000000000    0.207046000000000 
P           0.333333000000000    0.666667000000000    0.050487000000000 
P           0.557308000000000    0.161532000000000    0.799724000000000 
P           0.592462000000000    0.773805000000000    0.207046000000000 
P           0.604224000000000    0.442692000000000    0.799724000000000 
P           0.838468000000000    0.395776000000000    0.799724000000000 
K           0.333333000000000    0.666667000000000    0.432315000000000 
K           0.666666000000000    0.333334000000000    0.165911000000000 
%ENDBLOCK POSITIONS_FRAC
