# Cell file generated by matador (Matthew Evans 2016)

%BLOCK LATTICE_CART
3.72002 0.0 0.0
0.0 3.72002 0.0
0.0 0.0 6.18852
%ENDBLOCK LATTICE_CART

%BLOCK POSITIONS_FRAC
P           0.000000000000000    0.000000000000000    0.603624000000000 
P           0.000000000000000    0.000000000000000    0.877264000000000 
K           0.500000000000000    0.500000000000000    0.964037000000000 
%ENDBLOCK POSITIONS_FRAC
