# Cell file generated by matador (Matthew Evans 2016)

%BLOCK LATTICE_CART
7.26368 0.0 0.0
0.0 4.61824 0.0
1.28807 0.0 5.86905
%ENDBLOCK LATTICE_CART

%BLOCK POSITIONS_FRAC
P           0.030965000000000    0.500000000000000    0.542595000000000 
K           0.301666000000000    0.000000000000000    0.932859000000000 
K           0.398534000000000    0.500000000000000    0.435377000000000 
K           0.693911000000000    0.267144000000000    0.579935000000000 
K           0.693911000000000    0.732856000000000    0.579935000000000 
%ENDBLOCK POSITIONS_FRAC
