# Cell file generated by matador (Matthew Evans 2016)

%BLOCK LATTICE_CART
6.95258 0.0 0.0
-3.47629 6.02111 0.0
0.0 0.0 9.78381
%ENDBLOCK LATTICE_CART

%BLOCK POSITIONS_FRAC
P           0.000000000000000    0.000000000000000    0.300953000000000 
P           0.000000000000000    0.216458000000000    0.443917000000000 
P           0.000000000000000    0.783542000000000    0.443917000000000 
P           0.216458000000000    0.000000000000000    0.443917000000000 
P           0.216458000000000    0.216458000000000    0.443917000000000 
P           0.783542000000000    0.000000000000000    0.443917000000000 
P           0.783542000000000    0.783542000000000    0.443917000000000 
K           0.000000000000000    0.000000000000000    0.599348000000000 
K           0.000000000000000    0.500000000000000    0.749785000000000 
K           0.333333000000000    0.666667000000000    0.714592000000000 
K           0.500000000000000    0.000000000000000    0.749785000000000 
K           0.500000000000000    0.500000000000000    0.749785000000000 
K           0.666667000000000    0.333333000000000    0.714592000000000 
%ENDBLOCK POSITIONS_FRAC
