# Cell file generated by matador (Matthew Evans 2016)

%BLOCK LATTICE_CART
12.1233 0.0 0.0
0.0 11.2635 0.0
0.0 0.0 8.7351
%ENDBLOCK LATTICE_CART

%BLOCK POSITIONS_FRAC
P           0.000000000000000    0.000000000000000    0.717305000000000 
P           0.000000000000000    0.000000000000000    0.956956000000000 
P           0.000000000000000    0.500000000000000    0.217305000000000 
P           0.000000000000000    0.500000000000000    0.456956000000000 
P           0.500000000000000    0.000000000000000    0.217305000000000 
P           0.500000000000000    0.000000000000000    0.456956000000000 
P           0.500000000000000    0.500000000000000    0.717305000000000 
P           0.500000000000000    0.500000000000000    0.956956000000000 
K           0.000000000000000    0.174542000000000    0.541302000000000 
K           0.000000000000000    0.325458000000000    0.041302000000000 
K           0.000000000000000    0.674542000000000    0.041302000000000 
K           0.000000000000000    0.825458000000000    0.541302000000000 
K           0.122275000000000    0.000000000000000    0.313926000000000 
K           0.122275000000000    0.500000000000000    0.813926000000000 
K           0.167608000000000    0.000000000000000    0.646210000000000 
K           0.167608000000000    0.500000000000000    0.146210000000000 
K           0.332392000000000    0.000000000000000    0.146210000000000 
K           0.332392000000000    0.500000000000000    0.646210000000000 
K           0.377725000000000    0.000000000000000    0.813926000000000 
K           0.377725000000000    0.500000000000000    0.313926000000000 
K           0.500000000000000    0.174542000000000    0.041302000000000 
K           0.500000000000000    0.325458000000000    0.541302000000000 
K           0.500000000000000    0.674542000000000    0.541302000000000 
K           0.500000000000000    0.825458000000000    0.041302000000000 
K           0.622275000000000    0.000000000000000    0.813926000000000 
K           0.622275000000000    0.500000000000000    0.313926000000000 
K           0.667608000000000    0.000000000000000    0.146210000000000 
K           0.667608000000000    0.500000000000000    0.646210000000000 
K           0.832392000000000    0.000000000000000    0.646210000000000 
K           0.832392000000000    0.500000000000000    0.146210000000000 
K           0.877725000000000    0.000000000000000    0.313926000000000 
K           0.877725000000000    0.500000000000000    0.813926000000000 
%ENDBLOCK POSITIONS_FRAC
