# Cell file generated by matador (Matthew Evans 2016)

%BLOCK LATTICE_CART
6.51782 0.0 0.0
0.0 8.79624 0.0
-2.05777 0.0 4.9038
%ENDBLOCK LATTICE_CART

%BLOCK POSITIONS_FRAC
P           0.000000000000000    0.000000000000000    0.000000000000000 
P           0.000000000000000    0.500000000000000    0.000000000000000 
P           0.421844000000000    0.000000000000000    0.196798000000000 
P           0.500000000000000    0.000000000000000    0.500000000000000 
P           0.500000000000000    0.500000000000000    0.000000000000000 
P           0.578156000000000    0.000000000000000    0.803202000000000 
K           0.000000000000000    0.000000000000000    0.500000000000000 
K           0.311894000000000    0.304469000000000    0.128820000000000 
K           0.311894000000000    0.695531000000000    0.128820000000000 
K           0.688106000000000    0.304469000000000    0.871180000000000 
K           0.688106000000000    0.695531000000000    0.871180000000000 
%ENDBLOCK POSITIONS_FRAC
