# Cell file generated by matador (Matthew Evans 2016)

%BLOCK LATTICE_CART
8.51859 0.0 0.0
-4.2593 7.37732 0.0
0.0 0.0 9.15873
%ENDBLOCK LATTICE_CART

%BLOCK POSITIONS_FRAC
P           0.000000000000000    0.000000000000000    0.250000000000000 
P           0.000000000000000    0.000000000000000    0.750000000000000 
P           0.333333000000000    0.666667000000000   -0.000000000000000 
P           0.333333000000000    0.666667000000000    0.500000000000000 
K           0.000000000000000    0.000000000000000   -0.000000000000000 
K           0.000000000000000    0.000000000000000    0.500000000000000 
K           0.333333000000000    0.666667000000000    0.250000000000000 
K           0.333333000000000    0.666667000000000    0.750000000000000 
K           0.478369000000000    0.068209000000000    0.750000000000000 
K           0.478369000000000    0.410160000000000    0.250000000000000 
K           0.589840000000000    0.068209000000000    0.250000000000000 
K           0.589840000000000    0.521631000000000    0.750000000000000 
K           0.666667000000000    0.333333000000000   -0.000000000000000 
K           0.666667000000000    0.333333000000000    0.500000000000000 
K           0.931791000000000    0.410160000000000    0.750000000000000 
K           0.931791000000000    0.521631000000000    0.250000000000000 
%ENDBLOCK POSITIONS_FRAC
