# Cell file generated by matador (Matthew Evans 2016)

%BLOCK LATTICE_CART
6.37233 0.0 0.0
0.0001366 6.72327 0.0
3.28175 0.188263 7.20536
%ENDBLOCK LATTICE_CART

%BLOCK POSITIONS_FRAC
P           0.000000000000000    0.000000000000000    0.000000000000000 
P           0.000000000000000    0.000000000000000    0.500000000000000 
P           0.000000000000000    0.500000000000000    0.000000000000000 
P           0.310267000000000    0.688693000000000    0.385681000000000 
P           0.417238000000000    0.836848000000000    0.302350000000000 
P           0.421895000000000    0.752331000000000    0.902181000000000 
P           0.500000000000000    0.000000000000000    0.000000000000000 
P           0.500000000000000    0.000000000000000    0.500000000000000 
P           0.500000000000000    0.500000000000000    0.500000000000000 
P           0.578105000000000    0.247669000000000    0.097819000000000 
P           0.582762000000000    0.163152000000000    0.697650000000000 
P           0.689733000000000    0.311307000000000    0.614319000000000 
K           0.000000000000000    0.500000000000000    0.500000000000000 
K           0.080265000000000    0.262575000000000    0.622912000000000 
K           0.500000000000000    0.500000000000000    0.000000000000000 
K           0.919735000000000    0.737425000000000    0.377088000000000 
%ENDBLOCK POSITIONS_FRAC
