# Cell file generated by matador (Matthew Evans 2016)

%BLOCK LATTICE_CART
9.10877 0.0 0.0
0.0 9.10877 0.0
0.0 0.0 8.01464
%ENDBLOCK LATTICE_CART

%BLOCK POSITIONS_FRAC
P           0.000000000000000    0.000000000000000    0.000000000000000 
P           0.000000000000000    0.500000000000000    0.000000000000000 
P           0.500000000000000    0.000000000000000    0.000000000000000 
P           0.500000000000000    0.500000000000000    0.000000000000000 
K           0.000000000000000    0.000000000000000    0.500000000000000 
K           0.000000000000000    0.500000000000000    0.500000000000000 
K           0.008456000000000    0.241130000000000    0.000000000000000 
K           0.241130000000000    0.991544000000000    0.000000000000000 
K           0.258870000000000    0.491544000000000    0.000000000000000 
K           0.491544000000000    0.741130000000000    0.000000000000000 
K           0.500000000000000    0.000000000000000    0.500000000000000 
K           0.500000000000000    0.500000000000000    0.500000000000000 
K           0.508456000000000    0.258870000000000    0.000000000000000 
K           0.741130000000000    0.508456000000000    0.000000000000000 
K           0.758870000000000    0.008456000000000    0.000000000000000 
K           0.991544000000000    0.758870000000000    0.000000000000000 
%ENDBLOCK POSITIONS_FRAC
