# Cell file generated by matador (Matthew Evans 2016)

%BLOCK LATTICE_CART
5.53595 -0.0 0.0
-2.76797 4.79427 0.0
0.0 0.0 8.22979
%ENDBLOCK LATTICE_CART

%BLOCK POSITIONS_FRAC
P           0.999999000000000    0.999999000000000    0.211602000000000 
P           0.999999000000000    0.999999000000000    0.788398000000000 
P           0.091575000000000    0.840677000000000    0.000000000000000 
P           0.159321000000000    0.250897000000000    0.000000000000000 
P           0.250897000000000    0.091575000000000    0.000000000000000 
P           0.749101000000000    0.908423000000000    0.000000000000000 
P           0.840677000000000    0.749101000000000    0.000000000000000 
P           0.908423000000000    0.159321000000000    0.000000000000000 
K           0.333332000000000    0.666666000000000    0.000000000000000 
K           0.666666000000000    0.333332000000000    0.000000000000000 
%ENDBLOCK POSITIONS_FRAC
