# Cell file generated by matador (Matthew Evans 2016)

%BLOCK LATTICE_CART
5.68189 0.0 0.0
0.0 6.66584 0.0
0.0 0.0 9.10574
%ENDBLOCK LATTICE_CART

%BLOCK POSITIONS_FRAC
P           0.000000000000000    0.000000000000000    0.000000000000000 
P           0.000000000000000    0.000000000000000    0.500000000000000 
P           0.000000000000000    0.500000000000000    0.000000000000000 
P           0.177298000000000    0.116800000000000    0.039554000000000 
P           0.177298000000000    0.883200000000000    0.960446000000000 
P           0.322702000000000    0.116800000000000    0.460446000000000 
P           0.322702000000000    0.883200000000000    0.539554000000000 
P           0.500000000000000    0.000000000000000    0.000000000000000 
P           0.500000000000000    0.000000000000000    0.500000000000000 
P           0.500000000000000    0.500000000000000    0.500000000000000 
P           0.677298000000000    0.116800000000000    0.460446000000000 
P           0.677298000000000    0.883200000000000    0.539554000000000 
P           0.822702000000000    0.116800000000000    0.039554000000000 
P           0.822702000000000    0.883200000000000    0.960446000000000 
K           0.000000000000000    0.500000000000000    0.500000000000000 
K           0.500000000000000    0.500000000000000    0.000000000000000 
%ENDBLOCK POSITIONS_FRAC
