# Cell file generated by matador (Matthew Evans 2016)

%BLOCK LATTICE_CART
11.6551 0.0 0.0
-5.82755 10.0936 0.0
0.0 0.0 9.13466
%ENDBLOCK LATTICE_CART

%BLOCK POSITIONS_FRAC
P           0.000000000000000    0.863885000000000    0.000000000000000 
P           0.136115000000000    0.136115000000000    0.000000000000000 
P           0.333333000000000    0.666667000000000    0.240092000000000 
P           0.333333000000000    0.666667000000000    0.759908000000000 
P           0.666667000000000    0.333333000000000    0.240092000000000 
P           0.666667000000000    0.333333000000000    0.759908000000000 
P           0.863885000000000    0.000000000000000    0.000000000000000 
K           0.000000000000000    0.000000000000000    0.500000000000000 
K           0.147030000000000    0.328756000000000    0.500000000000000 
K           0.149432000000000    0.586487000000000    0.500000000000000 
K           0.162315000000000    0.813789000000000    0.000000000000000 
K           0.181726000000000    0.852970000000000    0.500000000000000 
K           0.186211000000000    0.348525000000000    0.000000000000000 
K           0.328756000000000    0.147030000000000    0.500000000000000 
K           0.333333000000000    0.666667000000000    0.000000000000000 
K           0.348525000000000    0.186211000000000    0.000000000000000 
K           0.413513000000000    0.562945000000000    0.500000000000000 
K           0.437055000000000    0.850568000000000    0.500000000000000 
K           0.562945000000000    0.413513000000000    0.500000000000000 
K           0.586487000000000    0.149432000000000    0.500000000000000 
K           0.651475000000000    0.837685000000000    0.000000000000000 
K           0.666667000000000    0.333333000000000    0.000000000000000 
K           0.671244000000000    0.818274000000000    0.500000000000000 
K           0.813789000000000    0.162315000000000    0.000000000000000 
K           0.818274000000000    0.671244000000000    0.500000000000000 
K           0.837685000000000    0.651475000000000    0.000000000000000 
K           0.850568000000000    0.437055000000000    0.500000000000000 
K           0.852970000000000    0.181726000000000    0.500000000000000 
%ENDBLOCK POSITIONS_FRAC
