# Cell file generated by matador (Matthew Evans 2016)

%BLOCK LATTICE_CART
9.91888 0.0 0.0
0.0 7.88564 0.0
0.0 0.0 8.92929
%ENDBLOCK LATTICE_CART

%BLOCK POSITIONS_FRAC
P           0.176960000000000    0.176155000000000    0.325105000000000 
P           0.176960000000000    0.823845000000000    0.825105000000000 
P           0.823040000000000    0.176155000000000    0.325105000000000 
P           0.823040000000000    0.823845000000000    0.825105000000000 
K           0.000000000000000    0.112504000000000    0.144703000000000 
K           0.000000000000000    0.196570000000000    0.467342000000000 
K           0.000000000000000    0.430741000000000    0.972988000000000 
K           0.000000000000000    0.569259000000000    0.472988000000000 
K           0.000000000000000    0.803430000000000    0.967342000000000 
K           0.000000000000000    0.887496000000000    0.644703000000000 
K           0.500000000000000    0.096290000000000    0.177550000000000 
K           0.500000000000000    0.207544000000000    0.494949000000000 
K           0.500000000000000    0.471068000000000    0.156712000000000 
K           0.500000000000000    0.528932000000000    0.656712000000000 
K           0.500000000000000    0.792456000000000    0.994949000000000 
K           0.500000000000000    0.903710000000000    0.677550000000000 
%ENDBLOCK POSITIONS_FRAC
