# Cell file generated by matador (Matthew Evans 2016)

%BLOCK LATTICE_CART
6.74442 0.0 0.0
-3.37221 5.84084 0.0
0.0 0.0 7.81274
%ENDBLOCK LATTICE_CART

%BLOCK POSITIONS_FRAC
P           0.000000000000000    0.000000000000000    0.095409000000000 
P           0.000000000000000    0.000000000000000    0.595409000000000 
K           0.121739000000000    0.243477000000000    0.317537000000000 
K           0.121739000000000    0.878261000000000    0.317537000000000 
K           0.243477000000000    0.121739000000000    0.817537000000000 
K           0.756523000000000    0.878261000000000    0.317537000000000 
K           0.878261000000000    0.121739000000000    0.817537000000000 
K           0.878261000000000    0.756523000000000    0.817537000000000 
%ENDBLOCK POSITIONS_FRAC
