# Cell file generated by matador (Matthew Evans 2016)

%BLOCK LATTICE_CART
6.70504 0.0 0.0
-3.35252 5.80674 0.0
0.0 0.0 9.97804
%ENDBLOCK LATTICE_CART

%BLOCK POSITIONS_FRAC
P           0.099536000000000    0.026743000000000    0.000000000000000 
P           0.333333000000000    0.666667000000000    0.299560000000000 
P           0.333333000000000    0.666667000000000    0.700440000000000 
P           0.927207000000000    0.900464000000000    0.000000000000000 
P           0.973257000000000    0.072793000000000    0.000000000000000 
K           0.000000000000000    0.000000000000000    0.500000000000000 
K           0.333333000000000    0.666667000000000    0.000000000000000 
K           0.333333000000000    0.666667000000000    0.500000000000000 
K           0.557187000000000    0.422501000000000    0.000000000000000 
K           0.577499000000000    0.134686000000000    0.000000000000000 
K           0.666667000000000    0.333333000000000    0.500000000000000 
K           0.865314000000000    0.442813000000000    0.000000000000000 
%ENDBLOCK POSITIONS_FRAC
