# Cell file generated by matador (Matthew Evans 2016)

%BLOCK LATTICE_CART
4.19914 -0.0 0.0
-2.09957 3.63656 0.0
0.0 0.0 16.8084
%ENDBLOCK LATTICE_CART

%BLOCK POSITIONS_FRAC
P           0.000000000000000    0.000000000000000    0.524798000000000 
P           0.000000000000000    0.000000000000000    0.779989000000000 
P           0.209787000000000    0.494404000000000    0.402390000000000 
P           0.284617000000000    0.790213000000000    0.402390000000000 
P           0.333333000000000    0.666667000000000    0.702684000000000 
P           0.505596000000000    0.715383000000000    0.402390000000000 
P           0.666667000000000    0.333333000000000    0.890236000000000 
K           0.000000000000000    0.000000000000000    0.936023000000000 
K           0.333333000000000    0.666667000000000    0.899628000000000 
%ENDBLOCK POSITIONS_FRAC
