# Cell file generated by matador (Matthew Evans 2016)

%BLOCK LATTICE_CART
7.3081 0.0 0.0
0.0 7.3081 0.0
0.0 0.0 7.10946
%ENDBLOCK LATTICE_CART

%BLOCK POSITIONS_FRAC
P           0.027749000000000    0.065201000000000    0.841499000000000 
P           0.065201000000000    0.972251000000000    0.341499000000000 
P           0.237093000000000    0.368822000000000    0.906602000000000 
P           0.314000000000000    0.392059000000000    0.714365000000000 
P           0.368822000000000    0.762907000000000    0.406602000000000 
P           0.392059000000000    0.686000000000000    0.214365000000000 
P           0.607941000000000    0.314000000000000    0.214365000000000 
P           0.631178000000000    0.237093000000000    0.406602000000000 
P           0.686000000000000    0.607941000000000    0.714365000000000 
P           0.762907000000000    0.631178000000000    0.906602000000000 
P           0.934799000000000    0.027749000000000    0.341499000000000 
P           0.972251000000000    0.934799000000000    0.841499000000000 
K           0.000000000000000    0.500000000000000    0.082801000000000 
K           0.500000000000000    0.000000000000000    0.582801000000000 
%ENDBLOCK POSITIONS_FRAC
