# Cell file generated by matador (Matthew Evans 2016)

%BLOCK LATTICE_CART
7.02236 0.0 0.0
0.0 7.2646 0.0
2.57224 0.0 5.79535
%ENDBLOCK LATTICE_CART

%BLOCK POSITIONS_FRAC
P           0.152741000000000    0.149169000000000    0.722584000000000 
P           0.272442000000000    0.633578000000000    0.910817000000000 
P           0.292472000000000    0.076655000000000    0.457661000000000 
P           0.707528000000000    0.076655000000000    0.542339000000000 
P           0.727558000000000    0.633578000000000    0.089183000000000 
P           0.847259000000000    0.149169000000000    0.277416000000000 
K           0.000000000000000    0.406846000000000    0.000000000000000 
K           0.000000000000000    0.686562000000000    0.500000000000000 
K           0.083420000000000    0.866691000000000    0.696082000000000 
K           0.500000000000000    0.213654000000000    0.000000000000000 
K           0.916581000000000    0.866691000000000    0.303918000000000 
%ENDBLOCK POSITIONS_FRAC
