# Cell file generated by matador (Matthew Evans 2016)

%BLOCK LATTICE_CART
7.93272 0.0 0.0
-3.96636 6.86994 0.0
0.0 0.0 3.3118
%ENDBLOCK LATTICE_CART

%BLOCK POSITIONS_FRAC
P           0.019098000000000    0.250243000000000    0.212350000000000 
P           0.231145000000000    0.980902000000000    0.212350000000000 
P           0.250243000000000    0.231145000000000    0.787650000000000 
P           0.749757000000000    0.768855000000000    0.212350000000000 
P           0.768855000000000    0.019098000000000    0.787650000000000 
P           0.980902000000000    0.749757000000000    0.787650000000000 
K           0.000000000000000    0.000000000000000    0.000000000000000 
%ENDBLOCK POSITIONS_FRAC
