# Cell file generated by matador (Matthew Evans 2016)

%BLOCK LATTICE_CART
5.98247 0.0 0.0
0.0 5.98247 0.0
0.0 0.0 6.24254
%ENDBLOCK LATTICE_CART

%BLOCK POSITIONS_FRAC
P           0.000000000000000    0.000000000000000    0.510983000000000 
P           0.000000000000000    0.000000000000000    0.931932000000000 
P           0.112715000000000    0.243717000000000    0.498686000000000 
P           0.243717000000000    0.887285000000000    0.498686000000000 
P           0.500000000000000    0.500000000000000    0.110305000000000 
P           0.756283000000000    0.112715000000000    0.498686000000000 
P           0.887285000000000    0.756283000000000    0.498686000000000 
K           0.000000000000000    0.500000000000000    0.852948000000000 
K           0.500000000000000    0.000000000000000    0.852948000000000 
%ENDBLOCK POSITIONS_FRAC
