# Cell file generated by matador (Matthew Evans 2016)

%BLOCK LATTICE_CART
6.28594 0.0 0.0
0.0 6.28594 0.0
0.0 0.0 6.4106
%ENDBLOCK LATTICE_CART

%BLOCK POSITIONS_FRAC
P           0.000000000000000    0.000000000000000    0.000000000000000 
P           0.000000000000000    0.500000000000000    0.561984000000000 
P           0.000000000000000    0.500000000000000    0.750000000000000 
P           0.000000000000000    0.500000000000000    0.938016000000000 
P           0.500000000000000    0.000000000000000    0.061984000000000 
P           0.500000000000000    0.000000000000000    0.250000000000000 
P           0.500000000000000    0.000000000000000    0.438016000000000 
P           0.500000000000000    0.500000000000000    0.500000000000000 
K           0.000000000000000    0.500000000000000    0.250000000000000 
K           0.500000000000000    0.000000000000000    0.750000000000000 
%ENDBLOCK POSITIONS_FRAC
