# Cell file generated by matador (Matthew Evans 2016)

%BLOCK LATTICE_CART
18.4299 0.0 0.0
6.27833 12.0782 0.0
-2.13137 3.58441 1.70775
%ENDBLOCK LATTICE_CART

%BLOCK POSITIONS_FRAC
P           0.036094000000000    0.298396000000000    0.394486000000000 
P           0.963906000000000    0.701604000000000    0.605514000000000 
K           0.000000000000000    0.500000000000000    0.000000000000000 
K           0.000000000000000    0.500000000000000    0.500000000000000 
K           0.004845000000000    0.209114000000000    0.762109000000000 
K           0.500000000000000    0.000000000000000    0.000000000000000 
K           0.500000000000000    0.000000000000000    0.500000000000000 
K           0.500000000000000    0.500000000000000    0.500000000000000 
K           0.995155000000000    0.790886000000000    0.237891000000000 
%ENDBLOCK POSITIONS_FRAC
