# Cell file generated by matador (Matthew Evans 2016)

%BLOCK LATTICE_CART
7.78958 0.0 0.0
0.0 8.13613 0.0
0.0 0.0 10.5158
%ENDBLOCK LATTICE_CART

%BLOCK POSITIONS_FRAC
P           0.000000000000000    0.000000000000000    0.500000000000000 
P           0.000000000000000    0.500000000000000    0.500000000000000 
P           0.500000000000000    0.000000000000000    0.500000000000000 
P           0.500000000000000    0.500000000000000    0.500000000000000 
K           0.000000000000000    0.000000000000000    0.000000000000000 
K           0.000000000000000    0.500000000000000    0.000000000000000 
K           0.232885000000000    0.000000000000000    0.225147000000000 
K           0.232885000000000    0.000000000000000    0.774853000000000 
K           0.267115000000000    0.500000000000000    0.225147000000000 
K           0.267115000000000    0.500000000000000    0.774853000000000 
K           0.500000000000000    0.000000000000000    0.000000000000000 
K           0.500000000000000    0.500000000000000    0.000000000000000 
K           0.732885000000000    0.500000000000000    0.225147000000000 
K           0.732885000000000    0.500000000000000    0.774853000000000 
K           0.767115000000000    0.000000000000000    0.225147000000000 
K           0.767115000000000    0.000000000000000    0.774853000000000 
%ENDBLOCK POSITIONS_FRAC
