# Cell file generated by matador (Matthew Evans 2016)

%BLOCK LATTICE_CART
7.47869 0.0 0.0
0.0 7.47869 0.0
0.0 0.0 7.47869
%ENDBLOCK LATTICE_CART

%BLOCK POSITIONS_FRAC
P           0.000000000000000    0.500000000000000    0.500000000000000 
P           0.500000000000000    0.000000000000000    0.500000000000000 
P           0.500000000000000    0.500000000000000    0.000000000000000 
K           0.000000000000000    0.000000000000000    0.000000000000000 
K           0.000000000000000    0.000000000000000    0.500000000000000 
K           0.000000000000000    0.500000000000000    0.000000000000000 
K           0.250281000000000    0.250281000000000    0.749719000000000 
K           0.250281000000000    0.749719000000000    0.250281000000000 
K           0.500000000000000    0.000000000000000    0.000000000000000 
K           0.500000000000000    0.500000000000000    0.500000000000000 
K           0.749719000000000    0.250281000000000    0.250281000000000 
K           0.749719000000000    0.749719000000000    0.749719000000000 
%ENDBLOCK POSITIONS_FRAC
