# Cell file generated by matador (Matthew Evans 2016)

%BLOCK LATTICE_CART
7.15476 0.0 0.0
-3.57738 6.1962 0.0
0.0 0.0 10.3657
%ENDBLOCK LATTICE_CART

%BLOCK POSITIONS_FRAC
P           0.000000000000000    0.000000000000000    0.082405000000000 
P           0.000000000000000    0.000000000000000    0.182050000000000 
P           0.000000000000000    0.000000000000000    0.582405000000000 
P           0.000000000000000    0.000000000000000    0.682050000000000 
P           0.333333000000000    0.666667000000000    0.022562000000000 
P           0.333333000000000    0.666667000000000    0.693385000000000 
P           0.333333000000000    0.666667000000000    0.811006000000000 
P           0.666667000000000    0.333333000000000    0.193385000000000 
P           0.666667000000000    0.333333000000000    0.311006000000000 
P           0.666667000000000    0.333333000000000    0.522562000000000 
K           0.073700000000000    0.536850000000000    0.367881000000000 
K           0.463150000000000    0.536850000000000    0.367881000000000 
K           0.463150000000000    0.926300000000000    0.367881000000000 
K           0.536850000000000    0.073700000000000    0.867881000000000 
K           0.536850000000000    0.463150000000000    0.867881000000000 
K           0.926300000000000    0.463150000000000    0.867881000000000 
%ENDBLOCK POSITIONS_FRAC
