# Cell file generated by matador (Matthew Evans 2016)

%BLOCK LATTICE_CART
9.36305 0.0 0.0
0.0 9.36305 0.0
0.0 0.0 5.0137
%ENDBLOCK LATTICE_CART

%BLOCK POSITIONS_FRAC
P           0.059922000000000    0.380266000000000    0.964251000000000 
P           0.063303000000000    0.374211000000000    0.629362000000000 
P           0.215803000000000    0.572975000000000    0.073319000000000 
P           0.374211000000000    0.936697000000000    0.129362000000000 
P           0.380266000000000    0.940078000000000    0.464251000000000 
P           0.427025000000000    0.215803000000000    0.573319000000000 
P           0.500000000000000    0.500000000000000    0.476657000000000 
P           0.500000000000000    0.500000000000000    0.976657000000000 
P           0.572975000000000    0.784197000000000    0.573319000000000 
P           0.619734000000000    0.059922000000000    0.464251000000000 
P           0.625789000000000    0.063303000000000    0.129362000000000 
P           0.784197000000000    0.427025000000000    0.073319000000000 
P           0.936697000000000    0.625789000000000    0.629362000000000 
P           0.940078000000000    0.619734000000000    0.964251000000000 
K           0.000000000000000    0.500000000000000    0.292346000000000 
K           0.500000000000000    0.000000000000000    0.792346000000000 
%ENDBLOCK POSITIONS_FRAC
