# Cell file generated by matador (Matthew Evans 2016)

%BLOCK LATTICE_CART
6.24684 0.0 0.0
0.0 6.31927 0.0
0.0 0.0 5.19974
%ENDBLOCK LATTICE_CART

%BLOCK POSITIONS_FRAC
P           0.000000000000000    0.726165000000000    0.534954000000000 
P           0.134964000000000    0.556435000000000    0.619461000000000 
P           0.365036000000000    0.443565000000000    0.119461000000000 
P           0.500000000000000    0.273835000000000    0.034953000000000 
P           0.634964000000000    0.443565000000000    0.119461000000000 
P           0.865036000000000    0.556435000000000    0.619461000000000 
K           0.000000000000000    0.998855000000000    0.337164000000000 
K           0.500000000000000    0.001145000000000    0.837164000000000 
%ENDBLOCK POSITIONS_FRAC
