# Cell file generated by matador (Matthew Evans 2016)

%BLOCK LATTICE_CART
6.86096 0.0 0.0
-3.43048 5.94177 0.0
0.0 0.0 6.51513
%ENDBLOCK LATTICE_CART

%BLOCK POSITIONS_FRAC
P          -0.000000000000000    0.000000000000000    0.234159000000000 
P          -0.000000000000000    0.000000000000000    0.500000000000000 
P          -0.000000000000000    0.000000000000000    0.765841000000000 
P          -0.000000000000000    0.650234000000000    0.000000000000000 
P           0.333333000000000    0.666667000000000    0.000000000000000 
P           0.349766000000000    0.349766000000000    0.000000000000000 
P           0.650234000000000    0.000000000000000    0.000000000000000 
P           0.666666000000000    0.333334000000000    0.000000000000000 
K           0.333333000000000    0.666667000000000    0.500000000000000 
K           0.666666000000000    0.333334000000000    0.500000000000000 
%ENDBLOCK POSITIONS_FRAC
