# Cell file generated by matador (Matthew Evans 2016)

%BLOCK LATTICE_CART
11.5166 0.0 0.0
-5.75832 9.9737 0.0
0.0 0.0 12.0714
%ENDBLOCK LATTICE_CART

%BLOCK POSITIONS_FRAC
P           0.000000000000000    0.000000000000000    0.136088000000000 
P           0.000000000000000    0.000000000000000    0.636088000000000 
P           0.000000000000000    0.334851000000000    0.251509000000000 
P           0.000000000000000    0.665149000000000    0.751509000000000 
P           0.334851000000000    0.000000000000000    0.251509000000000 
P           0.334851000000000    0.334851000000000    0.751509000000000 
P           0.665149000000000    0.000000000000000    0.751509000000000 
P           0.665149000000000    0.665149000000000    0.251509000000000 
K           0.000000000000000    0.175042000000000    0.326425000000000 
K           0.000000000000000    0.180632000000000    0.044832000000000 
K           0.000000000000000    0.297687000000000    0.682339000000000 
K           0.000000000000000    0.445290000000000    0.964751000000000 
K           0.000000000000000    0.554710000000000    0.464751000000000 
K           0.000000000000000    0.702313000000000    0.182339000000000 
K           0.000000000000000    0.819368000000000    0.544832000000000 
K           0.000000000000000    0.824958000000000    0.826425000000000 
K           0.175042000000000    0.000000000000000    0.326425000000000 
K           0.175042000000000    0.175042000000000    0.826425000000000 
K           0.180632000000000    0.000000000000000    0.044832000000000 
K           0.180632000000000    0.180632000000000    0.544832000000000 
K           0.297687000000000    0.000000000000000    0.682339000000000 
K           0.297687000000000    0.297687000000000    0.182339000000000 
K           0.445290000000000    0.000000000000000    0.964751000000000 
K           0.445290000000000    0.445290000000000    0.464751000000000 
K           0.554710000000000    0.000000000000000    0.464751000000000 
K           0.554710000000000    0.554710000000000    0.964751000000000 
K           0.702313000000000    0.000000000000000    0.182339000000000 
K           0.702313000000000    0.702313000000000    0.682339000000000 
K           0.819368000000000    0.000000000000000    0.544832000000000 
K           0.819368000000000    0.819368000000000    0.044832000000000 
K           0.824958000000000    0.000000000000000    0.826425000000000 
K           0.824958000000000    0.824958000000000    0.326425000000000 
%ENDBLOCK POSITIONS_FRAC
