# Cell file generated by matador (Matthew Evans 2016)

%BLOCK LATTICE_CART
7.70099 0.0 0.0
0.0 7.70099 0.0
0.0 0.0 8.16165
%ENDBLOCK LATTICE_CART

%BLOCK POSITIONS_FRAC
P           0.000000000000000    0.000000000000000    0.204425000000000 
P           0.000000000000000    0.000000000000000    0.795575000000000 
P           0.183641000000000    0.183641000000000    0.500000000000000 
P           0.183641000000000    0.816359000000000    0.500000000000000 
P           0.816359000000000    0.183641000000000    0.500000000000000 
P           0.816359000000000    0.816359000000000    0.500000000000000 
K           0.000000000000000    0.000000000000000    0.500000000000000 
K           0.000000000000000    0.500000000000000    0.000000000000000 
K           0.000000000000000    0.500000000000000    0.500000000000000 
K           0.500000000000000    0.000000000000000    0.000000000000000 
K           0.500000000000000    0.000000000000000    0.500000000000000 
K           0.500000000000000    0.500000000000000    0.000000000000000 
K           0.500000000000000    0.500000000000000    0.500000000000000 
%ENDBLOCK POSITIONS_FRAC
