# Cell file generated by matador (Matthew Evans 2016)

%BLOCK LATTICE_CART
10.7638 0.0 0.0
-5.38191 9.32175 0.0
0.0 0.0 8.61542
%ENDBLOCK LATTICE_CART

%BLOCK POSITIONS_FRAC
P           0.000000000000000    0.000000000000000    0.512637000000000 
P           0.000000000000000    0.000000000000000    0.973112000000000 
P           0.333333000000000    0.666667000000000    0.179304000000000 
P           0.333333000000000    0.666667000000000    0.639778000000000 
P           0.666667000000000    0.333333000000000    0.306445000000000 
P           0.666667000000000    0.333333000000000    0.845971000000000 
K           0.201871000000000    0.403742000000000    0.866117000000000 
K           0.201871000000000    0.798129000000000    0.866117000000000 
K           0.222033000000000    0.444065000000000    0.299189000000000 
K           0.222033000000000    0.777967000000000    0.299189000000000 
K           0.222601000000000    0.111301000000000    0.632522000000000 
K           0.262924000000000    0.131462000000000    0.199451000000000 
K           0.535204000000000    0.070409000000000    0.532784000000000 
K           0.535204000000000    0.464796000000000    0.532784000000000 
K           0.555366000000000    0.110732000000000    0.965855000000000 
K           0.555366000000000    0.444634000000000    0.965855000000000 
K           0.555935000000000    0.777967000000000    0.299189000000000 
K           0.596258000000000    0.798129000000000    0.866117000000000 
K           0.868538000000000    0.131462000000000    0.199451000000000 
K           0.868538000000000    0.737076000000000    0.199451000000000 
K           0.888699000000000    0.111301000000000    0.632522000000000 
K           0.888699000000000    0.777399000000000    0.632522000000000 
K           0.889268000000000    0.444634000000000    0.965855000000000 
K           0.929591000000000    0.464796000000000    0.532784000000000 
%ENDBLOCK POSITIONS_FRAC
