# Cell file generated by matador (Matthew Evans 2016)

%BLOCK LATTICE_CART
7.04293 0.0 0.0
-3.52146 6.09936 0.0
0.0 0.0 7.06972
%ENDBLOCK LATTICE_CART

%BLOCK POSITIONS_FRAC
P           0.000000000000000    0.000000000000000    0.440156000000000 
P           0.207658000000000    0.603829000000000    0.455543000000000 
P           0.333333000000000    0.666667000000000    0.203414000000000 
P           0.333333000000000    0.666667000000000    0.577470000000000 
P           0.333333000000000    0.666667000000000    0.825784000000000 
P           0.396171000000000    0.603829000000000    0.455543000000000 
P           0.396171000000000    0.792342000000000    0.455543000000000 
K           0.222622000000000    0.111311000000000    0.223774000000000 
K           0.888689000000000    0.111311000000000    0.223774000000000 
K           0.888689000000000    0.777378000000000    0.223774000000000 
%ENDBLOCK POSITIONS_FRAC
