# Cell file generated by matador (Matthew Evans 2016)

%BLOCK LATTICE_CART
6.18843 0.0 0.0
-3.09422 5.35934 0.0
0.0 0.0 12.7032
%ENDBLOCK LATTICE_CART

%BLOCK POSITIONS_FRAC
P           0.000000000000000    0.000000000000000    0.107281000000000 
P           0.000000000000000    0.000000000000000    0.892719000000000 
P           0.333333000000000    0.666667000000000    0.342559000000000 
P           0.333333000000000    0.666667000000000    0.657441000000000 
P           0.666667000000000    0.333333000000000    0.342559000000000 
P           0.666667000000000    0.333333000000000    0.657441000000000 
K           0.000000000000000    0.000000000000000    0.500000000000000 
K           0.333333000000000    0.666667000000000    0.000000000000000 
K           0.333333000000000    0.666667000000000    0.500000000000000 
K           0.666667000000000    0.333333000000000    0.000000000000000 
K           0.666667000000000    0.333333000000000    0.500000000000000 
%ENDBLOCK POSITIONS_FRAC
