# Cell file generated by matador (Matthew Evans 2016)

%BLOCK LATTICE_CART
10.2123 0.0 0.0
-5.10615 8.84411 0.0
0.0 0.0 7.74944
%ENDBLOCK LATTICE_CART

%BLOCK POSITIONS_FRAC
P           0.233160000000000    0.616580000000000    0.500000000000000 
P           0.333333000000000    0.666667000000000    0.280774000000000 
P           0.333333000000000    0.666667000000000    0.719226000000000 
P           0.383420000000000    0.616580000000000    0.500000000000000 
P           0.383420000000000    0.766840000000000    0.500000000000000 
P           0.488176000000000    0.244088000000000    0.500000000000000 
P           0.495594000000000    0.247797000000000    0.000000000000000 
P           0.614512000000000    0.229024000000000    0.000000000000000 
P           0.614512000000000    0.385488000000000    0.000000000000000 
P           0.752203000000000    0.247797000000000    0.000000000000000 
P           0.752203000000000    0.504406000000000    0.000000000000000 
P           0.755912000000000    0.244088000000000    0.500000000000000 
P           0.755912000000000    0.511824000000000    0.500000000000000 
P           0.770976000000000    0.385488000000000    0.000000000000000 
K           0.497900000000000    0.135601000000000    0.226034000000000 
K           0.497900000000000    0.362300000000000    0.773966000000000 
K           0.637700000000000    0.135601000000000    0.773966000000000 
K           0.637700000000000    0.502100000000000    0.226034000000000 
K           0.864399000000000    0.362300000000000    0.226034000000000 
K           0.864399000000000    0.502100000000000    0.773966000000000 
%ENDBLOCK POSITIONS_FRAC
