# Cell file generated by matador (Matthew Evans 2016)

%BLOCK LATTICE_CART
7.62425 0.0 0.0
0.0 6.94779 0.0
-1.83155 0.0 4.01308
%ENDBLOCK LATTICE_CART

%BLOCK POSITIONS_FRAC
P           0.144182000000000    0.883153000000000    0.961972000000000 
P           0.227051000000000    0.998918000000000    0.190206000000000 
P           0.241817000000000    0.641343000000000    0.728349000000000 
P           0.256706000000000    0.097767000000000    0.575284000000000 
P           0.743294000000000    0.597767000000000    0.424716000000000 
P           0.758183000000000    0.141343000000000    0.271651000000000 
P           0.772949000000000    0.498918000000000    0.809794000000000 
P           0.855818000000000    0.383153000000000    0.038028000000000 
K           0.476338000000000    0.216216000000000    0.010398000000000 
K           0.523662000000000    0.716216000000000    0.989602000000000 
%ENDBLOCK POSITIONS_FRAC
