# Cell file generated by matador (Matthew Evans 2016)

%BLOCK LATTICE_CART
6.86858 0.0 0.0
0.0 6.97957 0.0
2.84513 0.0 5.23626
%ENDBLOCK LATTICE_CART

%BLOCK POSITIONS_FRAC
P           0.000000000000000    0.929980000000000    0.000000000000000 
K           0.000000000000000    0.546456000000000    0.500000000000000 
K           0.000000000000000    0.936235000000000    0.500000000000000 
K           0.138984000000000    0.246749000000000    0.666615000000000 
K           0.500000000000000    0.147372000000000    0.500000000000000 
K           0.861016000000000    0.246749000000000    0.333385000000000 
%ENDBLOCK POSITIONS_FRAC
