# Cell file generated by matador (Matthew Evans 2016)

%BLOCK LATTICE_CART
9.26137 0.0 0.0
-4.63069 8.02058 0.0
0.0 0.0 8.28759
%ENDBLOCK LATTICE_CART

%BLOCK POSITIONS_FRAC
P           0.000000000000000    0.000000000000000   -0.000000000000000 
P           0.000000000000000    0.000000000000000    0.500000000000000 
P           0.333333000000000    0.666667000000000    0.750000000000000 
P           0.666667000000000    0.333333000000000    0.250000000000000 
K           0.000000000000000    0.500000000000000   -0.000000000000000 
K           0.000000000000000    0.500000000000000    0.500000000000000 
K           0.025372000000000    0.746091000000000    0.750000000000000 
K           0.253909000000000    0.279281000000000    0.750000000000000 
K           0.279281000000000    0.025372000000000    0.250000000000000 
K           0.500000000000000    0.000000000000000   -0.000000000000000 
K           0.500000000000000    0.000000000000000    0.500000000000000 
K           0.500000000000000    0.500000000000000   -0.000000000000000 
K           0.500000000000000    0.500000000000000    0.500000000000000 
K           0.720719000000000    0.974628000000000    0.750000000000000 
K           0.746091000000000    0.720719000000000    0.250000000000000 
K           0.974628000000000    0.253909000000000    0.250000000000000 
%ENDBLOCK POSITIONS_FRAC
