# Cell file generated by matador (Matthew Evans 2016)

%BLOCK LATTICE_CART
8.06128 0.0 0.0
0.0 11.4844 0.0
0.0 0.0 5.30739
%ENDBLOCK LATTICE_CART

%BLOCK POSITIONS_FRAC
P           0.000000000000000    0.655494000000000    0.656046000000000 
P           0.500000000000000    0.344506000000000    0.156046000000000 
K           0.000000000000000    0.146101000000000    0.252727000000000 
K           0.000000000000000    0.162593000000000    0.748696000000000 
K           0.000000000000000    0.506451000000000    0.874767000000000 
K           0.000000000000000    0.940926000000000    0.899783000000000 
K           0.190758000000000    0.763763000000000    0.923799000000000 
K           0.309242000000000    0.236237000000000    0.423799000000000 
K           0.500000000000000    0.059074000000000    0.399783000000000 
K           0.500000000000000    0.493549000000000    0.374767000000000 
K           0.500000000000000    0.837407000000000    0.248696000000000 
K           0.500000000000000    0.853899000000000    0.752727000000000 
K           0.690758000000000    0.236237000000000    0.423799000000000 
K           0.809242000000000    0.763763000000000    0.923799000000000 
%ENDBLOCK POSITIONS_FRAC
