# Cell file generated by matador (Matthew Evans 2016)

%BLOCK LATTICE_CART
10.0413 0.0 0.0
0.0 10.1979 0.0
0.0 0.0 4.80785
%ENDBLOCK LATTICE_CART

%BLOCK POSITIONS_FRAC
P           0.000000000000000    0.500000000000000    0.396386000000000 
P           0.000000000000000    0.500000000000000    0.603614000000000 
P           0.085439000000000    0.159868000000000    0.312259000000000 
P           0.085439000000000    0.840132000000000    0.687741000000000 
P           0.914562000000000    0.159868000000000    0.687741000000000 
P           0.914562000000000    0.840132000000000    0.312259000000000 
K           0.000000000000000    0.000000000000000    0.000000000000000 
K           0.000000000000000    0.000000000000000    0.500000000000000 
K           0.000000000000000    0.500000000000000    0.000000000000000 
K           0.500000000000000    0.000000000000000    0.000000000000000 
K           0.500000000000000    0.000000000000000    0.500000000000000 
K           0.500000000000000    0.500000000000000    0.000000000000000 
K           0.500000000000000    0.500000000000000    0.500000000000000 
%ENDBLOCK POSITIONS_FRAC
