# Cell file generated by matador (Matthew Evans 2016)

%BLOCK LATTICE_CART
7.1035 0.0 0.0
0.0 7.1035 0.0
0.0 0.0 8.1554
%ENDBLOCK LATTICE_CART

%BLOCK POSITIONS_FRAC
P           0.000000000000000    0.000000000000000    0.000000000000000 
P           0.000000000000000    0.000000000000000    0.500000000000000 
P           0.500000000000000    0.500000000000000    0.500000000000000 
K           0.150766000000000    0.150766000000000    0.240576000000000 
K           0.150766000000000    0.150766000000000    0.759424000000000 
K           0.150766000000000    0.849234000000000    0.240576000000000 
K           0.150766000000000    0.849234000000000    0.759424000000000 
K           0.500000000000000    0.500000000000000    0.000000000000000 
K           0.849234000000000    0.150766000000000    0.240576000000000 
K           0.849234000000000    0.150766000000000    0.759424000000000 
K           0.849234000000000    0.849234000000000    0.240576000000000 
K           0.849234000000000    0.849234000000000    0.759424000000000 
%ENDBLOCK POSITIONS_FRAC
