# Cell file generated by matador (Matthew Evans 2016)

%BLOCK LATTICE_CART
7.57602 0.0 0.0
-3.78801 6.56103 0.0
0.0 0.0 8.46931
%ENDBLOCK LATTICE_CART

%BLOCK POSITIONS_FRAC
P           0.333333000000000    0.666667000000000    0.000000000000000 
P           0.365572000000000    0.312764000000000    0.000000000000000 
P           0.666666000000000    0.333334000000000    0.236147000000000 
P           0.666666000000000    0.333334000000000    0.763853000000000 
P           0.687236000000000    0.052808000000000    0.000000000000000 
P           0.947192000000000    0.634428000000000    0.000000000000000 
K          -0.000000000000000    0.000000000000000    0.000000000000000 
K          -0.000000000000000    0.000000000000000    0.500000000000000 
K           0.066713000000000    0.663222000000000    0.500000000000000 
K           0.308581000000000    0.004854000000000    0.500000000000000 
K           0.333333000000000    0.666667000000000    0.500000000000000 
K           0.336778000000000    0.403491000000000    0.500000000000000 
K           0.596509000000000    0.933287000000000    0.500000000000000 
K           0.666666000000000    0.333334000000000    0.000000000000000 
K           0.696273000000000    0.691419000000000    0.500000000000000 
K           0.995146000000000    0.303727000000000    0.500000000000000 
%ENDBLOCK POSITIONS_FRAC
