# Cell file generated by matador (Matthew Evans 2016)

%BLOCK LATTICE_CART
6.58334 0.0 0.0
0.0 7.63296 0.0
-1.71401 0.0 6.86683
%ENDBLOCK LATTICE_CART

%BLOCK POSITIONS_FRAC
P           0.102453000000000    0.500000000000000    0.972667000000000 
P           0.408818000000000    0.500000000000000    0.774232000000000 
K           0.123648000000000    0.500000000000000    0.533277000000000 
K           0.169099000000000   -0.000000000000000    0.051151000000000 
K           0.611091000000000   -0.000000000000000    0.463609000000000 
K           0.619487000000000   -0.000000000000000    0.012367000000000 
K           0.623763000000000    0.500000000000000    0.286958000000000 
K           0.748887000000000    0.500000000000000    0.798839000000000 
%ENDBLOCK POSITIONS_FRAC
