# Cell file generated by matador (Matthew Evans 2016)

%BLOCK LATTICE_CART
8.35393 0.0 0.0
-4.17696 7.23471 0.0
0.0 0.0 9.35605
%ENDBLOCK LATTICE_CART

%BLOCK POSITIONS_FRAC
P           0.254603000000000    0.134945000000000    0.738768000000000 
P           0.419933000000000    0.099686000000000    0.719601000000000 
P           0.679753000000000    0.580067000000000    0.719601000000000 
P           0.865055000000000    0.119658000000000    0.738768000000000 
P           0.880342000000000    0.745397000000000    0.738768000000000 
P           0.900314000000000    0.320247000000000    0.719601000000000 
K           0.000000000000000    0.000000000000000    0.275762000000000 
K           0.055511000000000    0.231979000000000    0.505501000000000 
K           0.176468000000000    0.944489000000000    0.505501000000000 
K           0.333333000000000    0.666667000000000    0.601228000000000 
K           0.333333000000000    0.666667000000000    0.929553000000000 
K           0.507778000000000    0.189824000000000    0.275460000000000 
K           0.666667000000000    0.333333000000000    0.559357000000000 
K           0.682046000000000    0.492222000000000    0.275460000000000 
K           0.768021000000000    0.823532000000000    0.505501000000000 
K           0.810176000000000    0.317954000000000    0.275460000000000 
%ENDBLOCK POSITIONS_FRAC
