# Cell file generated by matador (Matthew Evans 2016)

%BLOCK LATTICE_CART
10.0378 0.0 0.0
-5.01892 8.69302 0.0
0.0 0.0 6.45058
%ENDBLOCK LATTICE_CART

%BLOCK POSITIONS_FRAC
P           0.068249000000000    0.172321000000000    0.747972000000000 
P           0.074891000000000    0.630142000000000    0.226135000000000 
P           0.104072000000000    0.931751000000000    0.747972000000000 
P           0.160659000000000    0.743504000000000    0.126494000000000 
P           0.256496000000000    0.417155000000000    0.126494000000000 
P           0.369858000000000    0.444750000000000    0.226135000000000 
P           0.433194000000000    0.316604000000000    0.897074000000000 
P           0.555250000000000    0.925109000000000    0.226135000000000 
P           0.582845000000000    0.839341000000000    0.126494000000000 
P           0.683396000000000    0.116591000000000    0.897074000000000 
P           0.827679000000000    0.895928000000000    0.747972000000000 
P           0.883409000000000    0.566806000000000    0.897074000000000 
K           0.333333000000000    0.666667000000000    0.226830000000000 
K           0.361834000000000    0.285733000000000    0.453215000000000 
K           0.386747000000000    0.055356000000000    0.934168000000000 
K           0.666666000000000    0.333334000000000    0.811841000000000 
K           0.668609000000000    0.613253000000000    0.934168000000000 
K           0.714267000000000    0.076101000000000    0.453215000000000 
K           0.923899000000000    0.638166000000000    0.453215000000000 
K           0.944644000000000    0.331391000000000    0.934168000000000 
%ENDBLOCK POSITIONS_FRAC
