# Cell file generated by matador (Matthew Evans 2016)

%BLOCK LATTICE_CART
6.74492 0.0 0.0
0.0 10.8491 0.0
0.0 0.0 6.96235
%ENDBLOCK LATTICE_CART

%BLOCK POSITIONS_FRAC
P           0.128674000000000    0.479747000000000    0.403521000000000 
P           0.128674000000000    0.479747000000000    0.596479000000000 
P           0.128674000000000    0.520253000000000    0.096479000000000 
P           0.128674000000000    0.520253000000000    0.903521000000000 
P           0.371326000000000    0.020253000000000    0.096479000000000 
P           0.371326000000000    0.020253000000000    0.903521000000000 
P           0.371326000000000    0.979747000000000    0.403521000000000 
P           0.371326000000000    0.979747000000000    0.596479000000000 
P           0.628674000000000    0.020253000000000    0.403521000000000 
P           0.628674000000000    0.020253000000000    0.596479000000000 
P           0.628674000000000    0.979747000000000    0.096479000000000 
P           0.628674000000000    0.979747000000000    0.903521000000000 
P           0.871326000000000    0.479747000000000    0.096479000000000 
P           0.871326000000000    0.479747000000000    0.903521000000000 
P           0.871326000000000    0.520253000000000    0.403521000000000 
P           0.871326000000000    0.520253000000000    0.596479000000000 
K           0.000000000000000    0.000000000000000    0.000000000000000 
K           0.000000000000000    0.000000000000000    0.500000000000000 
K           0.500000000000000    0.500000000000000    0.000000000000000 
K           0.500000000000000    0.500000000000000    0.500000000000000 
%ENDBLOCK POSITIONS_FRAC
