# Cell file generated by matador (Matthew Evans 2016)

%BLOCK LATTICE_CART
7.96929 0.0 0.0
-3.98465 6.90161 0.0
0.0 0.0 12.4419
%ENDBLOCK LATTICE_CART

%BLOCK POSITIONS_FRAC
P           0.333332000000000    0.666666000000000    0.023370000000000 
P           0.333332000000000    0.666666000000000    0.523370000000000 
P           0.666666000000000    0.333332000000000    0.023370000000000 
P           0.666666000000000    0.333332000000000    0.523370000000000 
K           0.999999000000000    0.409710000000000    0.981817000000000 
K           0.999999000000000    0.455942000000000    0.713281000000000 
K           0.999999000000000    0.544056000000000    0.213281000000000 
K           0.999999000000000    0.590288000000000    0.481817000000000 
K           0.409710000000000    0.999999000000000    0.981817000000000 
K           0.409710000000000    0.409710000000000    0.481817000000000 
K           0.455942000000000    0.999999000000000    0.713281000000000 
K           0.455942000000000    0.455942000000000    0.213281000000000 
K           0.544056000000000    0.999999000000000    0.213281000000000 
K           0.544056000000000    0.544056000000000    0.713281000000000 
K           0.590288000000000    0.999999000000000    0.481817000000000 
K           0.590288000000000    0.590288000000000    0.981817000000000 
%ENDBLOCK POSITIONS_FRAC
