# Cell file generated by matador (Matthew Evans 2016)

%BLOCK LATTICE_CART
9.11029 0.0 0.0
-4.55515 7.88974 0.0
0.0 0.0 8.09975
%ENDBLOCK LATTICE_CART

%BLOCK POSITIONS_FRAC
P           0.106344000000000    0.212688000000000    0.500000000000000 
P           0.106344000000000    0.893656000000000    0.500000000000000 
P           0.666667000000000    0.333333000000000    0.000000000000000 
P           0.787312000000000    0.893656000000000    0.500000000000000 
K           0.197362000000000    0.394724000000000    0.191896000000000 
K           0.197362000000000    0.394724000000000    0.808104000000000 
K           0.197362000000000    0.802638000000000    0.191896000000000 
K           0.197362000000000    0.802638000000000    0.808104000000000 
K           0.410599000000000    0.205299000000000    0.285156000000000 
K           0.410599000000000    0.205299000000000    0.714844000000000 
K           0.605276000000000    0.802638000000000    0.191896000000000 
K           0.605276000000000    0.802638000000000    0.808104000000000 
K           0.794701000000000    0.205299000000000    0.285156000000000 
K           0.794701000000000    0.205299000000000    0.714844000000000 
K           0.794701000000000    0.589401000000000    0.285156000000000 
K           0.794701000000000    0.589401000000000    0.714844000000000 
%ENDBLOCK POSITIONS_FRAC
