# Cell file generated by matador (Matthew Evans 2016)

%BLOCK LATTICE_CART
7.37748 0.0 0.0
-3.04855 9.02376 0.0
1.33038 1.04074 4.54802
%ENDBLOCK LATTICE_CART

%BLOCK POSITIONS_FRAC
P           0.013161000000000    0.529475000000000    0.293201000000000 
P           0.204796000000000    0.123905000000000    0.002847000000000 
P           0.254574000000000    0.082524000000000    0.578370000000000 
P           0.745426000000000    0.917476000000000    0.421630000000000 
P           0.795204000000000    0.876095000000000    0.997153000000000 
P           0.986839000000000    0.470525000000000    0.706799000000000 
K           0.000000000000000    0.000000000000000    0.500000000000000 
K           0.433351000000000    0.289326000000000    0.297716000000000 
K           0.500000000000000    0.000000000000000    0.000000000000000 
K           0.500000000000000    0.000000000000000    0.500000000000000 
K           0.500000000000000    0.500000000000000    0.000000000000000 
K           0.500000000000000    0.500000000000000    0.500000000000000 
K           0.566649000000000    0.710674000000000    0.702284000000000 
%ENDBLOCK POSITIONS_FRAC
