# Cell file generated by matador (Matthew Evans 2016)

%BLOCK LATTICE_CART
7.17225 0.0 0.0
0.0 7.17225 0.0
0.0 0.0 8.57392
%ENDBLOCK LATTICE_CART

%BLOCK POSITIONS_FRAC
P           0.022412000000000    0.910926000000000    0.705124000000000 
P           0.089074000000000    0.022412000000000    0.955124000000000 
P           0.248595000000000    0.539820000000000    0.813584000000000 
P           0.460180000000000    0.248595000000000    0.063584000000000 
P           0.539820000000000    0.751405000000000    0.563584000000000 
P           0.751405000000000    0.460180000000000    0.313584000000000 
P           0.910926000000000    0.977588000000000    0.455124000000000 
P           0.977588000000000    0.089074000000000    0.205124000000000 
K           0.254237000000000    0.351189000000000    0.416168000000000 
K           0.351189000000000    0.745763000000000    0.166168000000000 
K           0.648811000000000    0.254237000000000    0.666168000000000 
K           0.745763000000000    0.648811000000000    0.916168000000000 
%ENDBLOCK POSITIONS_FRAC
