# Cell file generated by matador (Matthew Evans 2016)

%BLOCK LATTICE_CART
11.8467 0.0 0.0
0.0 11.7888 0.0
0.0 0.0 9.59972
%ENDBLOCK LATTICE_CART

%BLOCK POSITIONS_FRAC
P           0.133457000000000    0.533839000000000    0.501672000000000 
P           0.230177000000000    0.661666000000000    0.029673000000000 
P           0.269823000000000    0.338334000000000    0.529673000000000 
P           0.366543000000000    0.466161000000000    0.001672000000000 
P           0.633457000000000    0.466161000000000    0.001672000000000 
P           0.730177000000000    0.338334000000000    0.529673000000000 
P           0.769823000000000    0.661666000000000    0.029673000000000 
P           0.866543000000000    0.533839000000000    0.501672000000000 
K           0.000000000000000    0.068486000000000    0.144011000000000 
K           0.000000000000000    0.125008000000000    0.484879000000000 
K           0.000000000000000    0.227907000000000    0.910760000000000 
K           0.000000000000000    0.335801000000000    0.239489000000000 
K           0.000000000000000    0.354654000000000    0.612825000000000 
K           0.000000000000000    0.480355000000000    0.882435000000000 
K           0.000000000000000    0.574431000000000    0.346541000000000 
K           0.000000000000000    0.639950000000000    0.647246000000000 
K           0.000000000000000    0.679612000000000    0.057644000000000 
K           0.000000000000000    0.844819000000000    0.287399000000000 
K           0.000000000000000    0.889586000000000    0.590826000000000 
K           0.000000000000000    0.900089000000000    0.902775000000000 
K           0.500000000000000    0.099910000000000    0.402775000000000 
K           0.500000000000000    0.110414000000000    0.090826000000000 
K           0.500000000000000    0.155181000000000    0.787399000000000 
K           0.500000000000000    0.320388000000000    0.557644000000000 
K           0.500000000000000    0.360050000000000    0.147246000000000 
K           0.500000000000000    0.425569000000000    0.846541000000000 
K           0.500000000000000    0.519645000000000    0.382435000000000 
K           0.500000000000000    0.645346000000000    0.112825000000000 
K           0.500000000000000    0.664199000000000    0.739489000000000 
K           0.500000000000000    0.772093000000000    0.410760000000000 
K           0.500000000000000    0.874992000000000    0.984879000000000 
K           0.500000000000000    0.931514000000000    0.644011000000000 
%ENDBLOCK POSITIONS_FRAC
