# Cell file generated by matador (Matthew Evans 2016)

%BLOCK LATTICE_CART
7.29406 0.0 0.0
-3.64703 6.31684 0.0
0.0 0.0 6.46448
%ENDBLOCK LATTICE_CART

%BLOCK POSITIONS_FRAC
P          -0.000000000000000    0.500000000000000    0.396609000000000 
P           0.333333000000000    0.666667000000000    0.866165000000000 
P           0.500000000000000   -0.000000000000000    0.396609000000000 
P           0.500000000000000    0.500000000000000    0.396609000000000 
P           0.666667000000000    0.333333000000000    0.866165000000000 
K          -0.000000000000000   -0.000000000000000    0.232676000000000 
K          -0.000000000000000    0.500000000000000    0.792371000000000 
K           0.333333000000000    0.666667000000000    0.303742000000000 
K           0.500000000000000   -0.000000000000000    0.792371000000000 
K           0.500000000000000    0.500000000000000    0.792371000000000 
K           0.666667000000000    0.333333000000000    0.303742000000000 
%ENDBLOCK POSITIONS_FRAC
