# Cell file generated by matador (Matthew Evans 2016)

%BLOCK LATTICE_CART
6.4366 0.0 0.0
-3.2183 5.57426 0.0
0.0 0.0 8.90749
%ENDBLOCK LATTICE_CART

%BLOCK POSITIONS_FRAC
P           0.333333000000000    0.666667000000000    0.202850000000000 
P           0.333333000000000    0.666667000000000    0.534340000000000 
P           0.333333000000000    0.666667000000000    0.799917000000000 
P           0.666667000000000    0.333333000000000    0.202850000000000 
P           0.666667000000000    0.333333000000000    0.534340000000000 
P           0.666667000000000    0.333333000000000    0.799917000000000 
K           0.000000000000000    0.000000000000000    0.138076000000000 
K           0.000000000000000    0.230692000000000    0.629362000000000 
K           0.230692000000000    0.000000000000000    0.629362000000000 
K           0.769308000000000    0.769308000000000    0.629362000000000 
%ENDBLOCK POSITIONS_FRAC
