# Cell file generated by matador (Matthew Evans 2016)

%BLOCK LATTICE_CART
8.61615 0.0 0.0
0.0 8.61615 0.0
0.0 0.0 7.91436
%ENDBLOCK LATTICE_CART

%BLOCK POSITIONS_FRAC
P           0.250000000000000    0.250000000000000    0.240624000000000 
P           0.250000000000000    0.750000000000000    0.000000000000000 
P           0.250000000000000    0.750000000000000    0.500000000000000 
P           0.750000000000000    0.250000000000000    0.000000000000000 
P           0.750000000000000    0.250000000000000    0.500000000000000 
P           0.750000000000000    0.750000000000000    0.759376000000000 
K           0.061248000000000    0.701512000000000    0.638788000000000 
K           0.201512000000000    0.938752000000000    0.361212000000000 
K           0.250000000000000    0.250000000000000    0.899830000000000 
K           0.298488000000000    0.561248000000000    0.361212000000000 
K           0.438752000000000    0.798488000000000    0.638788000000000 
K           0.561248000000000    0.201512000000000    0.361212000000000 
K           0.701512000000000    0.438752000000000    0.638788000000000 
K           0.750000000000000    0.750000000000000    0.100170000000000 
K           0.798488000000000    0.061248000000000    0.638788000000000 
K           0.938752000000000    0.298488000000000    0.361212000000000 
%ENDBLOCK POSITIONS_FRAC
