# Cell file generated by matador (Matthew Evans 2016)

%BLOCK LATTICE_CART
9.49066 0.0 0.0
0.0 9.49066 0.0
0.0 0.0 9.4636
%ENDBLOCK LATTICE_CART

%BLOCK POSITIONS_FRAC
P           0.000000000000000    0.000000000000000    0.500000000000000 
P           0.129768000000000    0.370232000000000    0.075574000000000 
P           0.370232000000000    0.870232000000000    0.924426000000000 
P           0.500000000000000    0.500000000000000    0.500000000000000 
P           0.629768000000000    0.129768000000000    0.924426000000000 
P           0.870232000000000    0.629768000000000    0.075574000000000 
K           0.000000000000000    0.500000000000000    0.858294000000000 
K           0.127269000000000    0.627269000000000    0.463111000000000 
K           0.138671000000000    0.638671000000000    0.121078000000000 
K           0.183406000000000    0.316594000000000    0.677103000000000 
K           0.196198000000000    0.303802000000000    0.287984000000000 
K           0.303802000000000    0.803802000000000    0.712016000000000 
K           0.316594000000000    0.816594000000000    0.322897000000000 
K           0.361329000000000    0.138671000000000    0.878922000000000 
K           0.372731000000000    0.127269000000000    0.536889000000000 
K           0.500000000000000    0.000000000000000    0.141706000000000 
K           0.627269000000000    0.872731000000000    0.536889000000000 
K           0.638671000000000    0.861329000000000    0.878922000000000 
K           0.683406000000000    0.183406000000000    0.322897000000000 
K           0.696198000000000    0.196198000000000    0.712016000000000 
K           0.803802000000000    0.696198000000000    0.287984000000000 
K           0.816594000000000    0.683406000000000    0.677103000000000 
K           0.861329000000000    0.361329000000000    0.121078000000000 
K           0.872731000000000    0.372731000000000    0.463111000000000 
%ENDBLOCK POSITIONS_FRAC
