# Cell file generated by matador (Matthew Evans 2016)

%BLOCK LATTICE_CART
7.61235 0.0 0.0
0.0 4.4125 0.0
-3.08724 0.0 5.67346
%ENDBLOCK LATTICE_CART

%BLOCK POSITIONS_FRAC
P           0.000000000000000    0.023236000000000    0.000000000000000 
P           0.033585000000000    0.019469000000000    0.365135000000000 
P           0.500000000000000    0.264789000000000    0.500000000000000 
P           0.500000000000000    0.983583000000000    0.500000000000000 
P           0.966415000000000    0.019469000000000    0.634865000000000 
K           0.260189000000000    0.410469000000000    0.079486000000000 
K           0.739811000000000    0.410469000000000    0.920514000000000 
%ENDBLOCK POSITIONS_FRAC
