# Cell file generated by matador (Matthew Evans 2016)

%BLOCK LATTICE_CART
8.87622 0.0 0.0
-4.43811 7.68703 0.0
0.0 0.0 5.79663
%ENDBLOCK LATTICE_CART

%BLOCK POSITIONS_FRAC
P           0.000000000000000    0.500000000000000    0.000000000000000 
P           0.333333000000000    0.666667000000000    0.000000000000000 
P           0.500000000000000    0.000000000000000    0.000000000000000 
P           0.500000000000000    0.500000000000000    0.000000000000000 
P           0.666667000000000    0.333333000000000    0.000000000000000 
K           0.000000000000000    0.295205000000000    0.460714000000000 
K           0.000000000000000    0.704795000000000    0.539286000000000 
K           0.295205000000000    0.000000000000000    0.460714000000000 
K           0.295205000000000    0.295205000000000    0.539286000000000 
K           0.704795000000000    0.000000000000000    0.539286000000000 
K           0.704795000000000    0.704795000000000    0.460714000000000 
%ENDBLOCK POSITIONS_FRAC
