# Cell file generated by matador (Matthew Evans 2016)

%BLOCK LATTICE_CART
7.92665 0.0 0.0
0.0 7.92665 0.0
0.0 0.0 10.2972
%ENDBLOCK LATTICE_CART

%BLOCK POSITIONS_FRAC
P           0.000000000000000    0.000000000000000    0.107576000000000 
P           0.000000000000000    0.000000000000000    0.892424000000000 
P           0.200166000000000    0.200166000000000    0.168603000000000 
P           0.200166000000000    0.200166000000000    0.831397000000000 
P           0.200166000000000    0.799834000000000    0.168603000000000 
P           0.200166000000000    0.799834000000000    0.831397000000000 
P           0.252314000000000    0.500000000000000    0.000000000000000 
P           0.500000000000000    0.252314000000000    0.000000000000000 
P           0.500000000000000    0.747686000000000    0.000000000000000 
P           0.747686000000000    0.500000000000000    0.000000000000000 
P           0.799834000000000    0.200166000000000    0.168603000000000 
P           0.799834000000000    0.200166000000000    0.831397000000000 
P           0.799834000000000    0.799834000000000    0.168603000000000 
P           0.799834000000000    0.799834000000000    0.831397000000000 
K           0.000000000000000    0.000000000000000    0.500000000000000 
K           0.000000000000000    0.500000000000000    0.000000000000000 
K           0.500000000000000    0.000000000000000    0.000000000000000 
K           0.500000000000000    0.500000000000000    0.500000000000000 
%ENDBLOCK POSITIONS_FRAC
