# Cell file generated by matador (Matthew Evans 2016)

%BLOCK LATTICE_CART
7.45513 0.0 0.0
0.0 7.45513 0.0
0.0 0.0 7.238
%ENDBLOCK LATTICE_CART

%BLOCK POSITIONS_FRAC
P           0.000000000000000    0.500000000000000    0.250000000000000 
P           0.500000000000000   -0.000000000000000    0.750000000000000 
K           0.000000000000000   -0.000000000000000   -0.000000000000000 
K           0.000000000000000   -0.000000000000000    0.500000000000000 
K           0.000000000000000    0.244639000000000    0.834687000000000 
K           0.000000000000000    0.500000000000000    0.750000000000000 
K           0.000000000000000    0.755361000000000    0.834687000000000 
K           0.244639000000000   -0.000000000000000    0.165313000000000 
K           0.255361000000000    0.500000000000000    0.665313000000000 
K           0.500000000000000   -0.000000000000000    0.250000000000000 
K           0.500000000000000    0.255361000000000    0.334687000000000 
K           0.500000000000000    0.500000000000000   -0.000000000000000 
K           0.500000000000000    0.500000000000000    0.500000000000000 
K           0.500000000000000    0.744639000000000    0.334687000000000 
K           0.744639000000000    0.500000000000000    0.665313000000000 
K           0.755361000000000   -0.000000000000000    0.165313000000000 
%ENDBLOCK POSITIONS_FRAC
