# Cell file generated by matador (Matthew Evans 2016)

%BLOCK LATTICE_CART
7.54805 0.0 0.0
-3.77402 6.5368 0.0
0.0 0.0 6.32687
%ENDBLOCK LATTICE_CART

%BLOCK POSITIONS_FRAC
P           0.333333000000000    0.666667000000000    0.069281000000000 
P           0.666666000000000    0.333334000000000    0.844844000000000 
K           0.268432000000000    0.134216000000000    0.584816000000000 
K           0.347601000000000    0.173801000000000    0.095088000000000 
K           0.826199000000000    0.173801000000000    0.095088000000000 
K           0.826199000000000    0.652399000000000    0.095088000000000 
K           0.865784000000000    0.134216000000000    0.584816000000000 
K           0.865784000000000    0.731568000000000    0.584816000000000 
%ENDBLOCK POSITIONS_FRAC
