# Cell file generated by matador (Matthew Evans 2016)

%BLOCK LATTICE_CART
8.09001 0.0 0.0
1.82581 4.96318 0.0
2.36791 -4.12189 6.95025
%ENDBLOCK LATTICE_CART

%BLOCK POSITIONS_FRAC
P           0.308087000000000    0.784155000000000    0.294790000000000 
P           0.691913000000000    0.215845000000000    0.705210000000000 
K           0.000000000000000    0.000000000000000    0.500000000000000 
K           0.000000000000000    0.500000000000000    0.000000000000000 
K           0.000000000000000    0.500000000000000    0.500000000000000 
K           0.148430000000000    0.546184000000000    0.787726000000000 
K           0.500000000000000    0.000000000000000    0.500000000000000 
K           0.500000000000000    0.500000000000000    0.500000000000000 
K           0.851570000000000    0.453816000000000    0.212274000000000 
%ENDBLOCK POSITIONS_FRAC
