# Cell file generated by matador (Matthew Evans 2016)

%BLOCK LATTICE_CART
5.07763 0.0 0.0
0.0 9.82971 0.0
1.68513 0.0 5.3611
%ENDBLOCK LATTICE_CART

%BLOCK POSITIONS_FRAC
P           0.156078000000000    0.000000000000000    0.401568000000000 
P           0.224801000000000    0.000000000000000    0.146986000000000 
P           0.335395000000000    0.000000000000000    0.264937000000000 
P           0.356303000000000    0.000000000000000    0.974052000000000 
P           0.383998000000000    0.500000000000000    0.522900000000000 
P           0.887493000000000    0.500000000000000    0.866788000000000 
P           0.954993000000000    0.000000000000000    0.260730000000000 
K           0.070868000000000    0.000000000000000    0.810738000000000 
K           0.439756000000000    0.000000000000000    0.578425000000000 
K           0.709694000000000    0.000000000000000    0.045694000000000 
K           0.790177000000000    0.000000000000000    0.641582000000000 
%ENDBLOCK POSITIONS_FRAC
