# Cell file generated by matador (Matthew Evans 2016)

%BLOCK LATTICE_CART
8.86768 0.0 0.0
-4.43384 7.67963 0.0
0.0 0.0 13.3932
%ENDBLOCK LATTICE_CART

%BLOCK POSITIONS_FRAC
P           0.000000000000000    0.000000000000000    0.107741000000000 
P           0.000000000000000    0.000000000000000    0.303719000000000 
P           0.333333000000000    0.666667000000000    0.774408000000000 
P           0.333333000000000    0.666667000000000    0.970386000000000 
P           0.666667000000000    0.333333000000000    0.441075000000000 
P           0.666667000000000    0.333333000000000    0.637053000000000 
K           0.051047000000000    0.525524000000000    0.172131000000000 
K           0.141143000000000    0.282286000000000    0.505465000000000 
K           0.141143000000000    0.858857000000000    0.505465000000000 
K           0.201685000000000    0.403370000000000    0.999415000000000 
K           0.201685000000000    0.798315000000000    0.999415000000000 
K           0.263297000000000    0.131648000000000    0.332748000000000 
K           0.384381000000000    0.192190000000000    0.838798000000000 
K           0.474476000000000    0.525524000000000    0.172131000000000 
K           0.474476000000000    0.948953000000000    0.172131000000000 
K           0.535018000000000    0.070037000000000    0.666082000000000 
K           0.535018000000000    0.464982000000000    0.666082000000000 
K           0.596630000000000    0.798315000000000    0.999415000000000 
K           0.717714000000000    0.858857000000000    0.505465000000000 
K           0.807810000000000    0.192190000000000    0.838798000000000 
K           0.807810000000000    0.615619000000000    0.838798000000000 
K           0.868352000000000    0.131648000000000    0.332748000000000 
K           0.868352000000000    0.736703000000000    0.332748000000000 
K           0.929963000000000    0.464982000000000    0.666082000000000 
%ENDBLOCK POSITIONS_FRAC
