# Cell file generated by matador (Matthew Evans 2016)

%BLOCK LATTICE_CART
4.5817 0.0 0.0
0.0 9.31981 0.0
1.71356 0.0 3.8665
%ENDBLOCK LATTICE_CART

%BLOCK POSITIONS_FRAC
P           0.000000000000000    0.729793000000000    0.500000000000000 
P           0.000000000000000    0.924923000000000    0.000000000000000 
P           0.500000000000000    0.001059000000000    0.500000000000000 
P           0.500000000000000    0.100066000000000    0.000000000000000 
P           0.500000000000000    0.440554000000000    0.500000000000000 
K           0.500000000000000    0.729410000000000    0.000000000000000 
%ENDBLOCK POSITIONS_FRAC
