# Cell file generated by matador (Matthew Evans 2016)

%BLOCK LATTICE_CART
7.1716 -0.0 0.0
-3.5858 6.21079 0.0
0.0 0.0 9.35547
%ENDBLOCK LATTICE_CART

%BLOCK POSITIONS_FRAC
P           0.000000000000000    0.000000000000000    0.233385000000000 
P           0.000000000000000    0.000000000000000    0.766615000000000 
P           0.000000000000000    0.500000000000000    0.000000000000000 
P           0.500000000000000    0.000000000000000    0.000000000000000 
P           0.500000000000000    0.500000000000000    0.000000000000000 
K           0.000000000000000    0.000000000000000    0.500000000000000 
K           0.035761000000000    0.462468000000000    0.737099000000000 
K           0.426707000000000    0.964239000000000    0.737099000000000 
K           0.462468000000000    0.426707000000000    0.262901000000000 
K           0.537532000000000    0.573293000000000    0.737099000000000 
K           0.573293000000000    0.035761000000000    0.262901000000000 
K           0.964239000000000    0.537532000000000    0.262901000000000 
%ENDBLOCK POSITIONS_FRAC
