# Cell file generated by matador (Matthew Evans 2016)

%BLOCK LATTICE_CART
6.0403 0.0 0.0
0.0 6.65624 0.0
2.97254 0.0 6.79972
%ENDBLOCK LATTICE_CART

%BLOCK POSITIONS_FRAC
P           0.306546000000000    0.500000000000000    0.278445000000000 
P           0.378840000000000    0.000000000000000    0.449537000000000 
P           0.897753000000000    0.121072000000000    0.515812000000000 
P           0.897753000000000    0.878928000000000    0.515812000000000 
P           0.989965000000000    0.500000000000000    0.338549000000000 
K           0.133995000000000    0.000000000000000    0.147908000000000 
K           0.214999000000000    0.500000000000000    0.043218000000000 
K           0.367880000000000    0.500000000000000    0.649574000000000 
K           0.789099000000000    0.500000000000000    0.702582000000000 
K           0.836178000000000    0.500000000000000    0.060019000000000 
K           0.982402000000000    0.000000000000000    0.764554000000000 
%ENDBLOCK POSITIONS_FRAC
