# Cell file generated by matador (Matthew Evans 2016)

%BLOCK LATTICE_CART
7.45186 0.0 0.0
0.0 7.45186 0.0
0.0 0.0 7.45186
%ENDBLOCK LATTICE_CART

%BLOCK POSITIONS_FRAC
P           0.146883000000000    0.178708000000000    0.304684000000000 
P           0.146883000000000    0.821292000000000    0.695316000000000 
P           0.178708000000000    0.304684000000000    0.146883000000000 
P           0.178708000000000    0.695316000000000    0.853117000000000 
P           0.304684000000000    0.146883000000000    0.178708000000000 
P           0.304684000000000    0.853117000000000    0.821292000000000 
P           0.695316000000000    0.146883000000000    0.821292000000000 
P           0.695316000000000    0.853117000000000    0.178708000000000 
P           0.821292000000000    0.304684000000000    0.853117000000000 
P           0.821292000000000    0.695316000000000    0.146883000000000 
P           0.853117000000000    0.178708000000000    0.695316000000000 
P           0.853117000000000    0.821292000000000    0.304684000000000 
K           0.000000000000000    0.500000000000000    0.500000000000000 
K           0.500000000000000    0.000000000000000    0.500000000000000 
K           0.500000000000000    0.500000000000000    0.000000000000000 
%ENDBLOCK POSITIONS_FRAC
