# Cell file generated by matador (Matthew Evans 2016)

%BLOCK LATTICE_CART
7.37964 0.0 0.0
-3.68982 6.39096 0.0
0.0 0.0 10.6271
%ENDBLOCK LATTICE_CART

%BLOCK POSITIONS_FRAC
P           0.000000000000000    0.000000000000000    0.000000000000000 
P           0.000000000000000    0.000000000000000    0.237981000000000 
P           0.000000000000000    0.000000000000000    0.500000000000000 
P           0.000000000000000    0.000000000000000    0.762019000000000 
P           0.000000000000000    0.500000000000000    0.000000000000000 
P           0.000000000000000    0.500000000000000    0.500000000000000 
P           0.500000000000000    0.000000000000000    0.000000000000000 
P           0.500000000000000    0.000000000000000    0.500000000000000 
P           0.500000000000000    0.500000000000000    0.000000000000000 
P           0.500000000000000    0.500000000000000    0.500000000000000 
K           0.086889000000000    0.280361000000000    0.590986000000000 
K           0.193472000000000    0.913111000000000    0.590986000000000 
K           0.280361000000000    0.193472000000000    0.409014000000000 
K           0.719639000000000    0.806528000000000    0.590986000000000 
K           0.806528000000000    0.086889000000000    0.409014000000000 
K           0.913111000000000    0.719639000000000    0.409014000000000 
%ENDBLOCK POSITIONS_FRAC
