# Cell file generated by matador (Matthew Evans 2016)

%BLOCK LATTICE_CART
7.32216 0.0 0.0
0.0 6.29727 0.0
0.0 0.0 6.8943
%ENDBLOCK LATTICE_CART

%BLOCK POSITIONS_FRAC
P           0.000000000000000    0.245506000000000    0.000000000000000 
P           0.000000000000000    0.754494000000000    0.000000000000000 
P           0.242766000000000    0.349811000000000    0.000000000000000 
P           0.242766000000000    0.650189000000000    0.000000000000000 
P           0.757234000000000    0.349811000000000    0.000000000000000 
P           0.757234000000000    0.650189000000000    0.000000000000000 
K           0.230625000000000    0.000000000000000    0.154057000000000 
K           0.230625000000000    0.000000000000000    0.845943000000000 
K           0.769375000000000    0.000000000000000    0.154057000000000 
K           0.769375000000000    0.000000000000000    0.845943000000000 
%ENDBLOCK POSITIONS_FRAC
