# Cell file generated by matador (Matthew Evans 2016)

%BLOCK LATTICE_CART
6.76129 0.0 0.0
0.0 9.97194 0.0
0.0 0.0 9.18867
%ENDBLOCK LATTICE_CART

%BLOCK POSITIONS_FRAC
P           0.500000000000000    0.115720000000000    0.868706000000000 
P           0.500000000000000    0.884280000000000    0.368706000000000 
K           0.000000000000000    0.311463000000000    0.044534000000000 
K           0.000000000000000    0.688537000000000    0.544534000000000 
K           0.184331000000000    0.153031000000000    0.066625000000000 
K           0.184331000000000    0.846969000000000    0.566625000000000 
K           0.310481000000000    0.018544000000000    0.285580000000000 
K           0.310481000000000    0.981456000000000    0.785580000000000 
K           0.500000000000000    0.179801000000000    0.519012000000000 
K           0.500000000000000    0.388660000000000    0.587466000000000 
K           0.500000000000000    0.611340000000000    0.087466000000000 
K           0.500000000000000    0.820199000000000    0.019012000000000 
K           0.689519000000000    0.018544000000000    0.285580000000000 
K           0.689519000000000    0.981456000000000    0.785580000000000 
K           0.815669000000000    0.153031000000000    0.066625000000000 
K           0.815669000000000    0.846969000000000    0.566625000000000 
%ENDBLOCK POSITIONS_FRAC
