# Cell file generated by matador (Matthew Evans 2016)

%BLOCK LATTICE_CART
8.09702 0.0 0.0
0.0 8.41276 0.0
0.0 0.0 7.71155
%ENDBLOCK LATTICE_CART

%BLOCK POSITIONS_FRAC
P           0.036466000000000    0.136854000000000    0.194372000000000 
P           0.036466000000000    0.363146000000000    0.805628000000000 
P           0.250000000000000    0.250000000000000    0.000000000000000 
P           0.250000000000000    0.750000000000000    0.500000000000000 
P           0.463534000000000    0.136854000000000    0.805628000000000 
P           0.463534000000000    0.363146000000000    0.194372000000000 
P           0.536466000000000    0.636854000000000    0.805628000000000 
P           0.536466000000000    0.863146000000000    0.194372000000000 
P           0.750000000000000    0.250000000000000    0.500000000000000 
P           0.750000000000000    0.750000000000000    0.000000000000000 
P           0.963534000000000    0.636854000000000    0.194372000000000 
P           0.963534000000000    0.863146000000000    0.805628000000000 
K           0.250000000000000    0.750000000000000    0.000000000000000 
K           0.750000000000000    0.250000000000000    0.000000000000000 
%ENDBLOCK POSITIONS_FRAC
