# Cell file generated by matador (Matthew Evans 2016)

%BLOCK LATTICE_CART
7.7214 0.0 0.0
-3.8607 6.68693 0.0
0.0 0.0 8.94573
%ENDBLOCK LATTICE_CART

%BLOCK POSITIONS_FRAC
P           0.000000000000000    0.000000000000000    0.537503000000000 
P           0.000000000000000    0.000000000000000    0.677692000000000 
P           0.000000000000000    0.000000000000000    0.996426000000000 
P           0.333333000000000    0.666667000000000    0.384862000000000 
P           0.333333000000000    0.666667000000000    0.569785000000000 
P           0.666667000000000    0.333333000000000    0.525677000000000 
K           0.324349000000000    0.118097000000000    0.397241000000000 
K           0.372889000000000    0.323429000000000    0.814094000000000 
K           0.676571000000000    0.049460000000000    0.814094000000000 
K           0.793748000000000    0.675651000000000    0.397241000000000 
K           0.881903000000000    0.206252000000000    0.397241000000000 
K           0.950540000000000    0.627111000000000    0.814094000000000 
%ENDBLOCK POSITIONS_FRAC
