# Cell file generated by matador (Matthew Evans 2016)

%BLOCK LATTICE_CART
5.72162 0.0 0.0
-2.86081 4.95507 0.0
0.0 0.0 6.63337
%ENDBLOCK LATTICE_CART

%BLOCK POSITIONS_FRAC
P           0.000000000000000    0.000000000000000    0.343104000000000 
P           0.000000000000000    0.000000000000000    0.656896000000000 
P           0.333333000000000    0.666667000000000    0.000000000000000 
P           0.333333000000000    0.666667000000000    0.500000000000000 
P           0.666667000000000    0.333333000000000    0.000000000000000 
P           0.666667000000000    0.333333000000000    0.500000000000000 
K           0.000000000000000    0.000000000000000    0.000000000000000 
%ENDBLOCK POSITIONS_FRAC
