# Cell file generated by matador (Matthew Evans 2016)

%BLOCK LATTICE_CART
8.63338 0.0 0.0
-4.31669 7.47672 0.0
0.0 0.0 6.56042
%ENDBLOCK LATTICE_CART

%BLOCK POSITIONS_FRAC
P           0.150489000000000    0.395820000000000    0.949887000000000 
P           0.150489000000000    0.754669000000000    0.050113000000000 
P           0.245331000000000    0.395820000000000    0.050113000000000 
P           0.245331000000000    0.849511000000000    0.949887000000000 
P           0.333333000000000    0.666667000000000    0.000000000000000 
P           0.395820000000000    0.150489000000000    0.949887000000000 
P           0.395820000000000    0.245331000000000    0.050113000000000 
P           0.604180000000000    0.754669000000000    0.949887000000000 
P           0.604180000000000    0.849511000000000    0.050113000000000 
P           0.666667000000000    0.333333000000000    0.000000000000000 
P           0.754669000000000    0.150489000000000    0.050113000000000 
P           0.754669000000000    0.604180000000000    0.949887000000000 
P           0.849511000000000    0.245331000000000    0.949887000000000 
P           0.849511000000000    0.604180000000000    0.050113000000000 
K          -0.000000000000000    0.500000000000000    0.000000000000000 
K          -0.000000000000000    0.500000000000000    0.500000000000000 
K           0.500000000000000   -0.000000000000000    0.000000000000000 
K           0.500000000000000   -0.000000000000000    0.500000000000000 
K           0.500000000000000    0.500000000000000    0.000000000000000 
K           0.500000000000000    0.500000000000000    0.500000000000000 
%ENDBLOCK POSITIONS_FRAC
