# Cell file generated by matador (Matthew Evans 2016)

%BLOCK LATTICE_CART
6.74982 0.0 0.0
-3.37491 5.84551 0.0
0.0 0.0 5.98078
%ENDBLOCK LATTICE_CART

%BLOCK POSITIONS_FRAC
P          -0.000000000000000   -0.000000000000000    0.000000000000000 
P          -0.000000000000000   -0.000000000000000    0.385677000000000 
P          -0.000000000000000   -0.000000000000000    0.614323000000000 
P          -0.000000000000000    0.500000000000000    0.000000000000000 
P           0.500000000000000   -0.000000000000000    0.000000000000000 
P           0.500000000000000    0.500000000000000    0.000000000000000 
K          -0.000000000000000    0.500000000000000    0.500000000000000 
K           0.500000000000000   -0.000000000000000    0.500000000000000 
K           0.500000000000000    0.500000000000000    0.500000000000000 
%ENDBLOCK POSITIONS_FRAC
