# Cell file generated by matador (Matthew Evans 2016)

%BLOCK LATTICE_CART
9.74369 0.0 0.0
-4.87184 8.43828 0.0
0.0 0.0 7.21104
%ENDBLOCK LATTICE_CART

%BLOCK POSITIONS_FRAC
P           0.000000000000000    0.000000000000000    0.517404000000000 
P           0.044296000000000    0.358182000000000    0.247730000000000 
P           0.308484000000000    0.019447000000000    0.581063000000000 
P           0.313886000000000    0.955704000000000    0.247730000000000 
P           0.333333000000000    0.666667000000000    0.184071000000000 
P           0.377629000000000    0.024849000000000    0.914396000000000 
P           0.641818000000000    0.686114000000000    0.247730000000000 
P           0.647220000000000    0.622371000000000    0.914396000000000 
P           0.666667000000000    0.333333000000000    0.850738000000000 
P           0.710963000000000    0.691516000000000    0.581063000000000 
P           0.975151000000000    0.352780000000000    0.914396000000000 
P           0.980553000000000    0.289037000000000    0.581063000000000 
K           0.000000000000000    0.000000000000000    0.236841000000000 
K           0.333333000000000    0.666667000000000    0.903508000000000 
K           0.666667000000000    0.333333000000000    0.570174000000000 
%ENDBLOCK POSITIONS_FRAC
