# Cell file generated by matador (Matthew Evans 2016)

%BLOCK LATTICE_CART
7.88078 0.0 0.0
0.0 7.88078 0.0
0.0 0.0 7.88078
%ENDBLOCK LATTICE_CART

%BLOCK POSITIONS_FRAC
P           0.217617000000000    0.217617000000000    0.217617000000000 
P           0.217617000000000    0.782383000000000    0.782383000000000 
P           0.253782000000000    0.500000000000000    0.500000000000000 
P           0.500000000000000    0.253782000000000    0.500000000000000 
P           0.500000000000000    0.500000000000000    0.253782000000000 
P           0.500000000000000    0.500000000000000    0.746218000000000 
P           0.500000000000000    0.746218000000000    0.500000000000000 
P           0.746218000000000    0.500000000000000    0.500000000000000 
P           0.782383000000000    0.217617000000000    0.782383000000000 
P           0.782383000000000    0.782383000000000    0.217617000000000 
K           0.000000000000000    0.000000000000000    0.500000000000000 
K           0.000000000000000    0.500000000000000    0.000000000000000 
K           0.000000000000000    0.500000000000000    0.500000000000000 
K           0.500000000000000    0.000000000000000    0.000000000000000 
K           0.500000000000000    0.000000000000000    0.500000000000000 
K           0.500000000000000    0.500000000000000    0.000000000000000 
%ENDBLOCK POSITIONS_FRAC
