# Cell file generated by matador (Matthew Evans 2016)

%BLOCK LATTICE_CART
8.23348 0.0 0.0
0.0 8.23348 0.0
0.0 0.0 7.22945
%ENDBLOCK LATTICE_CART

%BLOCK POSITIONS_FRAC
P           0.000000000000000    0.500000000000000    0.058204000000000 
P           0.000000000000000    0.500000000000000    0.206919000000000 
P           0.000000000000000    0.500000000000000    0.410695000000000 
P           0.183169000000000    0.316831000000000    0.669635000000000 
P           0.316831000000000    0.816831000000000    0.330365000000000 
P           0.500000000000000    0.000000000000000    0.589305000000000 
P           0.500000000000000    0.000000000000000    0.793081000000000 
P           0.500000000000000    0.000000000000000    0.941796000000000 
P           0.683169000000000    0.183169000000000    0.330365000000000 
P           0.816831000000000    0.683169000000000    0.669635000000000 
K           0.000000000000000    0.000000000000000    0.000000000000000 
K           0.000000000000000    0.000000000000000    0.500000000000000 
K           0.190820000000000    0.309180000000000    0.334734000000000 
K           0.309180000000000    0.809180000000000    0.665266000000000 
K           0.500000000000000    0.500000000000000    0.000000000000000 
K           0.500000000000000    0.500000000000000    0.500000000000000 
K           0.690820000000000    0.190820000000000    0.665266000000000 
K           0.809180000000000    0.690820000000000    0.334734000000000 
%ENDBLOCK POSITIONS_FRAC
