# Cell file generated by matador (Matthew Evans 2016)

%BLOCK LATTICE_CART
5.79507 0.0 0.0
-2.89753 5.01868 0.0
0.0 0.0 6.32467
%ENDBLOCK LATTICE_CART

%BLOCK POSITIONS_FRAC
P           0.226025000000000    0.452050000000000    0.000000000000000 
P           0.226025000000000    0.773975000000000    0.000000000000000 
P           0.452050000000000    0.226025000000000    0.000000000000000 
P           0.547950000000000    0.773975000000000    0.000000000000000 
P           0.773975000000000    0.226025000000000    0.000000000000000 
P           0.773975000000000    0.547950000000000    0.000000000000000 
K           0.000000000000000    0.000000000000000    0.500000000000000 
%ENDBLOCK POSITIONS_FRAC
