# Cell file generated by matador (Matthew Evans 2016)

%BLOCK LATTICE_CART
10.9889 0.0 0.0
-5.49446 9.51668 0.0
0.0 0.0 12.9099
%ENDBLOCK LATTICE_CART

%BLOCK POSITIONS_FRAC
P           0.000000000000000    0.000000000000000    0.000000000000000 
P           0.000000000000000    0.000000000000000    0.250000000000000 
P           0.000000000000000    0.000000000000000    0.500000000000000 
P           0.000000000000000    0.000000000000000    0.750000000000000 
P           0.333333000000000    0.666667000000000    0.250000000000000 
P           0.333333000000000    0.666667000000000    0.750000000000000 
P           0.666667000000000    0.333333000000000    0.250000000000000 
P           0.666667000000000    0.333333000000000    0.750000000000000 
K           0.000000000000000    0.815473000000000    0.000000000000000 
K           0.000000000000000    0.815473000000000    0.500000000000000 
K           0.058618000000000    0.828637000000000    0.250000000000000 
K           0.083565000000000    0.337528000000000    0.750000000000000 
K           0.087757000000000    0.606687000000000    0.750000000000000 
K           0.171363000000000    0.229981000000000    0.250000000000000 
K           0.184527000000000    0.184527000000000    0.000000000000000 
K           0.184527000000000    0.184527000000000    0.500000000000000 
K           0.229981000000000    0.171363000000000    0.750000000000000 
K           0.253963000000000    0.916435000000000    0.750000000000000 
K           0.337528000000000    0.083565000000000    0.250000000000000 
K           0.393313000000000    0.481070000000000    0.750000000000000 
K           0.481070000000000    0.393313000000000    0.250000000000000 
K           0.518930000000000    0.912243000000000    0.750000000000000 
K           0.606687000000000    0.087757000000000    0.250000000000000 
K           0.662472000000000    0.746037000000000    0.750000000000000 
K           0.746037000000000    0.662472000000000    0.250000000000000 
K           0.770019000000000    0.941382000000000    0.250000000000000 
K           0.815473000000000    0.000000000000000    0.000000000000000 
K           0.815473000000000    0.000000000000000    0.500000000000000 
K           0.828637000000000    0.058618000000000    0.750000000000000 
K           0.912243000000000    0.518930000000000    0.250000000000000 
K           0.916435000000000    0.253963000000000    0.250000000000000 
K           0.941382000000000    0.770019000000000    0.750000000000000 
%ENDBLOCK POSITIONS_FRAC
