# Cell file generated by matador (Matthew Evans 2016)

%BLOCK LATTICE_CART
7.55256 0.0 0.0
0.0 7.55256 0.0
0.0 0.0 7.55256
%ENDBLOCK LATTICE_CART

%BLOCK POSITIONS_FRAC
P           0.320250000000000    0.500000000000000    0.500000000000000 
P           0.500000000000000    0.320250000000000    0.500000000000000 
P           0.500000000000000    0.500000000000000    0.320250000000000 
P           0.500000000000000    0.500000000000000    0.679750000000000 
P           0.500000000000000    0.679750000000000    0.500000000000000 
P           0.679750000000000    0.500000000000000    0.500000000000000 
K           0.000000000000000    0.000000000000000    0.000000000000000 
K           0.000000000000000    0.000000000000000    0.500000000000000 
K           0.000000000000000    0.500000000000000    0.000000000000000 
K           0.000000000000000    0.500000000000000    0.500000000000000 
K           0.500000000000000    0.000000000000000    0.000000000000000 
K           0.500000000000000    0.000000000000000    0.500000000000000 
K           0.500000000000000    0.500000000000000    0.000000000000000 
%ENDBLOCK POSITIONS_FRAC
