# Cell file generated by matador (Matthew Evans 2016)

%BLOCK LATTICE_CART
6.68196 0.0 0.0
-3.34098 5.78674 0.0
0.0 0.0 12.8349
%ENDBLOCK LATTICE_CART

%BLOCK POSITIONS_FRAC
P           0.000001000000000    0.000001000000000    0.076407000000000 
P           0.000001000000000    0.000001000000000    0.423593000000000 
P           0.000001000000000    0.000001000000000    0.576407000000000 
P           0.000001000000000    0.000001000000000    0.923593000000000 
P           0.219125000000000    0.609563000000000    0.250000000000000 
P           0.390439000000000    0.609563000000000    0.250000000000000 
P           0.390439000000000    0.780877000000000    0.250000000000000 
P           0.609563000000000    0.219125000000000    0.750000000000000 
P           0.609563000000000    0.390439000000000    0.750000000000000 
P           0.780877000000000    0.390439000000000    0.750000000000000 
K           0.333334000000000    0.666668000000000    0.003036000000000 
K           0.333334000000000    0.666668000000000    0.496964000000000 
K           0.666668000000000    0.333334000000000    0.503036000000000 
K           0.666668000000000    0.333334000000000    0.996964000000000 
%ENDBLOCK POSITIONS_FRAC
