# Cell file generated by matador (Matthew Evans 2016)

%BLOCK LATTICE_CART
6.14352 0.0 0.0
-3.07176 5.32045 0.0
0.0 0.0 4.99412
%ENDBLOCK LATTICE_CART

%BLOCK POSITIONS_FRAC
P           0.155179000000000    0.027123000000000    0.530574000000000 
P           0.333333000000000    0.666667000000000    0.442885000000000 
P           0.666667000000000    0.333333000000000    0.528862000000000 
P           0.871944000000000    0.844821000000000    0.530574000000000 
P           0.972877000000000    0.128056000000000    0.530574000000000 
K           0.000000000000000    0.000000000000000    0.112165000000000 
%ENDBLOCK POSITIONS_FRAC
