# Cell file generated by matador (Matthew Evans 2016)

%BLOCK LATTICE_CART
7.19547 0.0 0.0
0.0 7.19547 0.0
0.0 0.0 7.19547
%ENDBLOCK LATTICE_CART

%BLOCK POSITIONS_FRAC
P           0.000000000000000    0.075864000000000    0.500000000000000 
P           0.000000000000000    0.924136000000000    0.500000000000000 
P           0.075864000000000    0.500000000000000    0.000000000000000 
P           0.500000000000000    0.000000000000000    0.075864000000000 
P           0.500000000000000    0.000000000000000    0.924136000000000 
P           0.924136000000000    0.500000000000000    0.000000000000000 
K           0.000000000000000    0.000000000000000    0.000000000000000 
K           0.000000000000000    0.500000000000000    0.500000000000000 
K           0.500000000000000    0.000000000000000    0.500000000000000 
K           0.500000000000000    0.500000000000000    0.000000000000000 
K           0.500000000000000    0.500000000000000    0.500000000000000 
%ENDBLOCK POSITIONS_FRAC
