# Cell file generated by matador (Matthew Evans 2016)

%BLOCK LATTICE_CART
4.84463 0.0 0.0
0.0 9.03011 0.0
0.0 0.0 7.82231
%ENDBLOCK LATTICE_CART

%BLOCK POSITIONS_FRAC
P           0.072792000000000    0.603687000000000    0.789352000000000 
P           0.072792000000000    0.896313000000000    0.289352000000000 
P           0.177009000000000    0.178861000000000    0.898934000000000 
P           0.177009000000000    0.321139000000000    0.398934000000000 
P           0.412808000000000    0.711814000000000    0.904958000000000 
P           0.412808000000000    0.788186000000000    0.404958000000000 
P           0.587192000000000    0.211814000000000    0.404958000000000 
P           0.587192000000000    0.288186000000000    0.904958000000000 
P           0.822991000000000    0.678861000000000    0.398934000000000 
P           0.822991000000000    0.821139000000000    0.898934000000000 
P           0.927208000000000    0.103687000000000    0.289352000000000 
P           0.927208000000000    0.396313000000000    0.789352000000000 
K           0.500000000000000    0.000000000000000    0.888397000000000 
K           0.500000000000000    0.500000000000000    0.388397000000000 
%ENDBLOCK POSITIONS_FRAC
