# Cell file generated by matador (Matthew Evans 2016)

%BLOCK LATTICE_CART
11.1071 0.0 0.0
0.0 11.1071 0.0
0.0 0.0 10.3515
%ENDBLOCK LATTICE_CART

%BLOCK POSITIONS_FRAC
P           0.000000000000000    0.000000000000000    0.113767000000000 
P           0.000000000000000    0.000000000000000    0.364137000000000 
P           0.000000000000000    0.500000000000000    0.037200000000000 
P           0.000000000000000    0.500000000000000    0.537200000000000 
P           0.500000000000000    0.000000000000000    0.037200000000000 
P           0.500000000000000    0.000000000000000    0.537200000000000 
P           0.500000000000000    0.500000000000000    0.613767000000000 
P           0.500000000000000    0.500000000000000    0.864137000000000 
K           0.000000000000000    0.224959000000000    0.095231000000000 
K           0.000000000000000    0.288575000000000    0.676590000000000 
K           0.000000000000000    0.711425000000000    0.676590000000000 
K           0.000000000000000    0.775041000000000    0.095231000000000 
K           0.211425000000000    0.500000000000000    0.176590000000000 
K           0.224959000000000    0.000000000000000    0.095231000000000 
K           0.248744000000000    0.248744000000000    0.911892000000000 
K           0.248744000000000    0.751256000000000    0.911892000000000 
K           0.251256000000000    0.251256000000000    0.411892000000000 
K           0.251256000000000    0.748744000000000    0.411892000000000 
K           0.275041000000000    0.500000000000000    0.595231000000000 
K           0.288575000000000    0.000000000000000    0.676590000000000 
K           0.500000000000000    0.211425000000000    0.176590000000000 
K           0.500000000000000    0.275041000000000    0.595231000000000 
K           0.500000000000000    0.724959000000000    0.595231000000000 
K           0.500000000000000    0.788575000000000    0.176590000000000 
K           0.711425000000000    0.000000000000000    0.676590000000000 
K           0.724959000000000    0.500000000000000    0.595231000000000 
K           0.748744000000000    0.251256000000000    0.411892000000000 
K           0.748744000000000    0.748744000000000    0.411892000000000 
K           0.751256000000000    0.248744000000000    0.911892000000000 
K           0.751256000000000    0.751256000000000    0.911892000000000 
K           0.775041000000000    0.000000000000000    0.095231000000000 
K           0.788575000000000    0.500000000000000    0.176590000000000 
%ENDBLOCK POSITIONS_FRAC
