# Cell file generated by matador (Matthew Evans 2016)

%BLOCK LATTICE_CART
4.4715 0.0 0.0
0.0 8.57472 0.0
-1.58324 0.0 7.07994
%ENDBLOCK LATTICE_CART

%BLOCK POSITIONS_FRAC
P           0.000000000000000    0.079240000000000    0.500000000000000 
P           0.000000000000000    0.548865000000000    0.500000000000000 
P           0.110414000000000    0.212535000000000    0.437056000000000 
P           0.330338000000000    0.538443000000000    0.546212000000000 
P           0.500000000000000    0.062399000000000    0.500000000000000 
P           0.500000000000000    0.597075000000000    0.000000000000000 
P           0.669662000000000    0.538443000000000    0.453788000000000 
P           0.889586000000000    0.212535000000000    0.562944000000000 
K           0.000000000000000    0.843796000000000    0.500000000000000 
K           0.077931000000000    0.907783000000000    0.241972000000000 
K           0.500000000000000    0.253316000000000    0.000000000000000 
K           0.922069000000000    0.907783000000000    0.758028000000000 
%ENDBLOCK POSITIONS_FRAC
