# Cell file generated by matador (Matthew Evans 2016)

%BLOCK LATTICE_CART
7.54945 0.0 0.0
4.31181 7.60957 0.0
2.34008 0.497928 5.60454
%ENDBLOCK LATTICE_CART

%BLOCK POSITIONS_FRAC
P           0.000000000000000    0.000000000000000    0.000000000000000 
P           0.000000000000000    0.500000000000000    0.500000000000000 
P           0.185003000000000    0.114886000000000    0.556018000000000 
P           0.331973000000000    0.874828000000000    0.392922000000000 
P           0.668027000000000    0.125172000000000    0.607078000000000 
P           0.814997000000000    0.885114000000000    0.443982000000000 
K           0.323350000000000    0.253836000000000    0.146379000000000 
K           0.401882000000000    0.357858000000000    0.551848000000000 
K           0.500000000000000    0.500000000000000    0.000000000000000 
K           0.598118000000000    0.642142000000000    0.448152000000000 
K           0.676650000000000    0.746164000000000    0.853621000000000 
%ENDBLOCK POSITIONS_FRAC
