# Cell file generated by matador (Matthew Evans 2016)

%BLOCK LATTICE_CART
10.1272 0.0 0.0
-5.06362 8.77045 0.0
0.0 0.0 13.1009
%ENDBLOCK LATTICE_CART

%BLOCK POSITIONS_FRAC
P           0.000000000000000    0.000000000000000    0.284536000000000 
P           0.000000000000000    0.235052000000000    0.267973000000000 
P           0.000000000000000    0.764948000000000    0.267973000000000 
P           0.235052000000000    0.000000000000000    0.267973000000000 
P           0.235052000000000    0.235052000000000    0.267973000000000 
P           0.764948000000000    0.000000000000000    0.267973000000000 
P           0.764948000000000    0.764948000000000    0.267973000000000 
K           0.000000000000000    0.000000000000000    0.667798000000000 
K           0.000000000000000    0.316592000000000    0.927634000000000 
K           0.000000000000000    0.500000000000000    0.393331000000000 
K           0.000000000000000    0.500000000000000    0.623866000000000 
K           0.000000000000000    0.683408000000000    0.927634000000000 
K           0.207458000000000    0.414916000000000    0.215445000000000 
K           0.207458000000000    0.792542000000000    0.215445000000000 
K           0.316592000000000    0.000000000000000    0.927634000000000 
K           0.316592000000000    0.316592000000000    0.927634000000000 
K           0.333333000000000    0.666667000000000    0.048150000000000 
K           0.414916000000000    0.207458000000000    0.215445000000000 
K           0.500000000000000    0.000000000000000    0.393331000000000 
K           0.500000000000000    0.000000000000000    0.623866000000000 
K           0.500000000000000    0.500000000000000    0.393331000000000 
K           0.500000000000000    0.500000000000000    0.623866000000000 
K           0.585084000000000    0.792542000000000    0.215445000000000 
K           0.666667000000000    0.333333000000000    0.048150000000000 
K           0.683408000000000    0.000000000000000    0.927634000000000 
K           0.683408000000000    0.683408000000000    0.927634000000000 
K           0.792542000000000    0.207458000000000    0.215445000000000 
K           0.792542000000000    0.585084000000000    0.215445000000000 
%ENDBLOCK POSITIONS_FRAC
