# Cell file generated by matador (Matthew Evans 2016)

%BLOCK LATTICE_CART
6.91277 0.0 0.0
-3.45638 5.98663 0.0
0.0 0.0 10.1238
%ENDBLOCK LATTICE_CART

%BLOCK POSITIONS_FRAC
P           0.000000000000000    0.000000000000000    0.500000000000000 
P           0.000000000000000    0.500000000000000    0.000000000000000 
P           0.186862000000000    0.382106000000000    0.214567000000000 
P           0.195244000000000    0.813138000000000    0.214567000000000 
P           0.382106000000000    0.195244000000000    0.785433000000000 
P           0.500000000000000    0.000000000000000    0.000000000000000 
P           0.500000000000000    0.500000000000000    0.000000000000000 
P           0.617894000000000    0.804756000000000    0.214567000000000 
P           0.804756000000000    0.186862000000000    0.785433000000000 
P           0.813138000000000    0.617894000000000    0.785433000000000 
K           0.000000000000000    0.000000000000000    0.000000000000000 
K           0.000000000000000    0.500000000000000    0.500000000000000 
K           0.500000000000000    0.000000000000000    0.500000000000000 
K           0.500000000000000    0.500000000000000    0.500000000000000 
%ENDBLOCK POSITIONS_FRAC
