# Cell file generated by matador (Matthew Evans 2016)

%BLOCK LATTICE_CART
9.74342 0.0 0.0
-4.87171 8.43805 0.0
0.0 0.0 4.18709
%ENDBLOCK LATTICE_CART

%BLOCK POSITIONS_FRAC
P           0.000000000000000    0.000000000000000    0.000000000000000 
P           0.000000000000000    0.000000000000000    0.500000000000000 
K           0.152459000000000    0.304919000000000    0.224407000000000 
K           0.152459000000000    0.847541000000000    0.224407000000000 
K           0.304919000000000    0.152459000000000    0.775593000000000 
K           0.695081000000000    0.847541000000000    0.224407000000000 
K           0.847541000000000    0.152459000000000    0.775593000000000 
K           0.847541000000000    0.695081000000000    0.775593000000000 
%ENDBLOCK POSITIONS_FRAC
