# Cell file generated by matador (Matthew Evans 2016)

%BLOCK LATTICE_CART
8.83091 0.0 0.0
-4.41546 7.6478 0.0
0.0 0.0 9.32736
%ENDBLOCK LATTICE_CART

%BLOCK POSITIONS_FRAC
P           0.000000000000000    0.000000000000000    0.000000000000000 
P           0.000000000000000    0.000000000000000    0.500000000000000 
P           0.228883000000000    0.614442000000000    0.250000000000000 
P           0.385558000000000    0.614442000000000    0.250000000000000 
P           0.385558000000000    0.771117000000000    0.250000000000000 
P           0.614442000000000    0.228883000000000    0.750000000000000 
P           0.614442000000000    0.385558000000000    0.750000000000000 
P           0.771117000000000    0.385558000000000    0.750000000000000 
K           0.000000000000000    0.000000000000000    0.250000000000000 
K           0.000000000000000    0.000000000000000    0.750000000000000 
K           0.000000000000000    0.350704000000000    0.500000000000000 
K           0.000000000000000    0.649296000000000    0.000000000000000 
K           0.333333000000000    0.666667000000000    0.750000000000000 
K           0.350704000000000    0.000000000000000    0.500000000000000 
K           0.350704000000000    0.350704000000000    0.000000000000000 
K           0.649296000000000    0.000000000000000    0.000000000000000 
K           0.649296000000000    0.649296000000000    0.500000000000000 
K           0.666667000000000    0.333333000000000    0.250000000000000 
%ENDBLOCK POSITIONS_FRAC
