# Cell file generated by matador (Matthew Evans 2016)

%BLOCK LATTICE_CART
8.66013 0.0 0.0
-4.33007 7.49989 0.0
0.0 0.0 4.90394
%ENDBLOCK LATTICE_CART

%BLOCK POSITIONS_FRAC
P           0.081730000000000    0.163460000000000    0.470106000000000 
P           0.081730000000000    0.918270000000000    0.470106000000000 
P           0.333333000000000    0.666667000000000    0.277928000000000 
P           0.333333000000000    0.666667000000000    0.915412000000000 
P           0.836540000000000    0.918270000000000    0.470106000000000 
K           0.000000000000000    0.000000000000000    0.098558000000000 
K           0.354172000000000    0.177086000000000    0.424616000000000 
K           0.822914000000000    0.177086000000000    0.424616000000000 
K           0.822914000000000    0.645828000000000    0.424616000000000 
%ENDBLOCK POSITIONS_FRAC
