# Cell file generated by matador (Matthew Evans 2016)

%BLOCK LATTICE_CART
7.11963 0.0 0.0
-3.55981 6.16578 0.0
0.0 0.0 7.85657
%ENDBLOCK LATTICE_CART

%BLOCK POSITIONS_FRAC
P           0.000000000000000    0.000000000000000    0.012675000000000 
P           0.000000000000000    0.000000000000000    0.391896000000000 
P           0.173715000000000    0.770937000000000    0.544491000000000 
P           0.229063000000000    0.402778000000000    0.544491000000000 
P           0.423065000000000    0.107568000000000    0.953298000000000 
P           0.597222000000000    0.826285000000000    0.544491000000000 
P           0.684503000000000    0.576935000000000    0.953298000000000 
P           0.892432000000000    0.315497000000000    0.953298000000000 
K           0.323079000000000    0.110134000000000    0.328523000000000 
K           0.666667000000000    0.333333000000000    0.548141000000000 
K           0.787055000000000    0.676921000000000    0.328523000000000 
K           0.889866000000000    0.212945000000000    0.328523000000000 
%ENDBLOCK POSITIONS_FRAC
