# Cell file generated by matador (Matthew Evans 2016)

%BLOCK LATTICE_CART
8.46677 0.0 0.0
-4.23338 7.33243 0.0
0.0 0.0 6.78799
%ENDBLOCK LATTICE_CART

%BLOCK POSITIONS_FRAC
P           0.475042000000000    0.219488000000000    0.500000000000000 
P           0.744446000000000    0.524958000000000    0.500000000000000 
P           0.780512000000000    0.255554000000000    0.500000000000000 
K           0.065630000000000    0.449226000000000    0.500000000000000 
K           0.143194000000000    0.407351000000000   -0.000000000000000 
K           0.264156000000000    0.856806000000000   -0.000000000000000 
K           0.383596000000000    0.934370000000000    0.500000000000000 
K           0.440683000000000    0.304181000000000   -0.000000000000000 
K           0.550774000000000    0.616404000000000    0.500000000000000 
K           0.592649000000000    0.735844000000000   -0.000000000000000 
K           0.695819000000000    0.136502000000000   -0.000000000000000 
K           0.863498000000000    0.559317000000000   -0.000000000000000 
%ENDBLOCK POSITIONS_FRAC
