# Cell file generated by matador (Matthew Evans 2016)

%BLOCK LATTICE_CART
6.9334 0.0 0.0
-3.4667 6.0045 0.0
0.0 0.0 10.9504
%ENDBLOCK LATTICE_CART

%BLOCK POSITIONS_FRAC
P           0.000000000000000    0.000000000000000    0.309685000000000 
P           0.000000000000000    0.000000000000000    0.445013000000000 
P           0.000000000000000    0.000000000000000    0.809685000000000 
P           0.000000000000000    0.000000000000000    0.945013000000000 
P           0.333333000000000    0.666667000000000    0.452172000000000 
P           0.666667000000000    0.333333000000000    0.952172000000000 
K           0.074571000000000    0.415895000000000    0.131027000000000 
K           0.333333000000000    0.666667000000000    0.746809000000000 
K           0.341324000000000    0.925429000000000    0.131027000000000 
K           0.415895000000000    0.074571000000000    0.631027000000000 
K           0.584105000000000    0.658676000000000    0.131027000000000 
K           0.658676000000000    0.584105000000000    0.631027000000000 
K           0.666667000000000    0.333333000000000    0.246809000000000 
K           0.925429000000000    0.341324000000000    0.631027000000000 
%ENDBLOCK POSITIONS_FRAC
