# Cell file generated by matador (Matthew Evans 2016)

%BLOCK LATTICE_CART
7.77983 0.0 0.0
0.0 7.77983 0.0
0.0 0.0 5.70277
%ENDBLOCK LATTICE_CART

%BLOCK POSITIONS_FRAC
P           0.000000000000000    0.000000000000000    0.000000000000000 
P           0.000000000000000    0.000000000000000    0.170141000000000 
P           0.000000000000000    0.000000000000000    0.829859000000000 
P           0.000000000000000    0.500000000000000    0.721143000000000 
P           0.151955000000000    0.500000000000000    0.502779000000000 
P           0.500000000000000    0.000000000000000    0.278857000000000 
P           0.500000000000000    0.151955000000000    0.497221000000000 
P           0.500000000000000    0.848045000000000    0.497221000000000 
P           0.848045000000000    0.500000000000000    0.502779000000000 
K           0.000000000000000    0.000000000000000    0.500000000000000 
K           0.500000000000000    0.500000000000000    0.000000000000000 
K           0.500000000000000    0.500000000000000    0.500000000000000 
%ENDBLOCK POSITIONS_FRAC
