# Cell file generated by matador (Matthew Evans 2016)

%BLOCK LATTICE_CART
6.50216 0.0 0.0
-3.25108 5.63104 0.0
0.0 0.0 5.26211
%ENDBLOCK LATTICE_CART

%BLOCK POSITIONS_FRAC
P           0.666667000000000    0.333333000000000    0.570797000000000 
K           0.000000000000000   -0.000000000000000    0.726430000000000 
K           0.059194000000000    0.529597000000000    0.424309000000000 
K           0.333334000000000    0.666666000000000    0.811700000000000 
K           0.470403000000000    0.529597000000000    0.424309000000000 
K           0.470403000000000    0.940806000000000    0.424309000000000 
%ENDBLOCK POSITIONS_FRAC
