# Cell file generated by matador (Matthew Evans 2016)

%BLOCK LATTICE_CART
6.86198 0.0 0.0
-3.43099 5.94265 0.0
0.0 0.0 12.6273
%ENDBLOCK LATTICE_CART

%BLOCK POSITIONS_FRAC
P           0.000000000000000    0.000000000000000    0.000000000000000 
P           0.083624000000000    0.322815000000000    0.500000000000000 
P           0.239191000000000    0.916376000000000    0.500000000000000 
P           0.415458000000000    0.174740000000000    0.500000000000000 
P           0.666667000000000    0.333333000000000    0.500000000000000 
P           0.677185000000000    0.760809000000000    0.500000000000000 
P           0.759282000000000    0.584542000000000    0.500000000000000 
P           0.825260000000000    0.240718000000000    0.500000000000000 
K           0.000000000000000    0.000000000000000    0.500000000000000 
K           0.333333000000000    0.666667000000000    0.000000000000000 
K           0.333333000000000    0.666667000000000    0.500000000000000 
K           0.666667000000000    0.333333000000000    0.000000000000000 
K           0.666667000000000    0.333333000000000    0.338384000000000 
K           0.666667000000000    0.333333000000000    0.661616000000000 
%ENDBLOCK POSITIONS_FRAC
