# Cell file generated by matador (Matthew Evans 2016)

%BLOCK LATTICE_CART
7.68035 0.0 0.0
-3.84017 6.65138 0.0
0.0 0.0 6.09064
%ENDBLOCK LATTICE_CART

%BLOCK POSITIONS_FRAC
P           0.000000000000000    0.000000000000000    0.539282000000000 
P           0.000000000000000    0.825750000000000    0.364169000000000 
P           0.174250000000000    0.174250000000000    0.364169000000000 
P           0.825750000000000    0.000000000000000    0.364169000000000 
K           0.000000000000000    0.000000000000000    0.103318000000000 
K           0.000000000000000    0.514948000000000    0.003084000000000 
K           0.000000000000000    0.778680000000000    0.946292000000000 
K           0.221320000000000    0.221320000000000    0.946292000000000 
K           0.485052000000000    0.485052000000000    0.003084000000000 
K           0.514948000000000    0.000000000000000    0.003084000000000 
K           0.778680000000000    0.000000000000000    0.946292000000000 
%ENDBLOCK POSITIONS_FRAC
