# Cell file generated by matador (Matthew Evans 2016)

%BLOCK LATTICE_CART
6.18049 0.0 0.0
-3.09024 5.35246 0.0
0.0 0.0 6.4245
%ENDBLOCK LATTICE_CART

%BLOCK POSITIONS_FRAC
P           0.131728000000000    0.606171000000000    0.459140000000000 
P           0.138374000000000    0.331287000000000    0.807461000000000 
P           0.192913000000000    0.861626000000000    0.807461000000000 
P           0.333334000000000    0.666666000000000    0.297565000000000 
P           0.393829000000000    0.525557000000000    0.459140000000000 
P           0.474443000000000    0.868272000000000    0.459140000000000 
P           0.668713000000000    0.807087000000000    0.807461000000000 
K           0.666667000000000    0.333333000000000    0.069590000000000 
%ENDBLOCK POSITIONS_FRAC
