# Cell file generated by matador (Matthew Evans 2016)

%BLOCK LATTICE_CART
9.20043 0.0 0.0
-4.60021 7.9678 0.0
0.0 0.0 16.5516
%ENDBLOCK LATTICE_CART

%BLOCK POSITIONS_FRAC
P           0.222471000000000    0.444944000000000    0.360056000000000 
P           0.222471000000000    0.777527000000000    0.360056000000000 
P           0.333332000000000    0.666666000000000    0.027350000000000 
P           0.444944000000000    0.222471000000000    0.360056000000000 
P           0.555054000000000    0.777527000000000    0.360056000000000 
P           0.666666000000000    0.333332000000000    0.027350000000000 
P           0.777527000000000    0.222471000000000    0.360056000000000 
P           0.777527000000000    0.555054000000000    0.360056000000000 
K           0.999999000000000    0.999999000000000    0.413181000000000 
K           0.999999000000000    0.326703000000000    0.217324000000000 
K           0.999999000000000    0.332612000000000    0.949714000000000 
K           0.999999000000000    0.499999000000000    0.724337000000000 
K           0.999999000000000    0.667386000000000    0.949714000000000 
K           0.999999000000000    0.673295000000000    0.217324000000000 
K           0.201502000000000    0.403005000000000    0.526442000000000 
K           0.201502000000000    0.798496000000000    0.526442000000000 
K           0.326703000000000    0.999999000000000    0.217324000000000 
K           0.326703000000000    0.326703000000000    0.217324000000000 
K           0.332612000000000    0.999999000000000    0.949714000000000 
K           0.332612000000000    0.332612000000000    0.949714000000000 
K           0.333332000000000    0.666666000000000    0.836580000000000 
K           0.403005000000000    0.201502000000000    0.526442000000000 
K           0.499999000000000    0.999999000000000    0.724337000000000 
K           0.499999000000000    0.499999000000000    0.724337000000000 
K           0.596993000000000    0.798496000000000    0.526442000000000 
K           0.666666000000000    0.333332000000000    0.836580000000000 
K           0.667386000000000    0.999999000000000    0.949714000000000 
K           0.667386000000000    0.667386000000000    0.949714000000000 
K           0.673295000000000    0.999999000000000    0.217324000000000 
K           0.673295000000000    0.673295000000000    0.217324000000000 
K           0.798496000000000    0.201502000000000    0.526442000000000 
K           0.798496000000000    0.596993000000000    0.526442000000000 
%ENDBLOCK POSITIONS_FRAC
