# Cell file generated by matador (Matthew Evans 2016)

%BLOCK LATTICE_CART
10.4126 0.0 0.0
0.0 8.30809 0.0
0.0 0.0 6.70459
%ENDBLOCK LATTICE_CART

%BLOCK POSITIONS_FRAC
P           0.000000000000000    0.000000000000000    0.091712000000000 
P           0.000000000000000    0.000000000000000    0.759250000000000 
P           0.000000000000000    0.500000000000000    0.259250000000000 
P           0.000000000000000    0.500000000000000    0.591712000000000 
P           0.500000000000000    0.000000000000000    0.174054000000000 
P           0.500000000000000    0.000000000000000    0.399691000000000 
P           0.500000000000000    0.000000000000000    0.632241000000000 
P           0.500000000000000    0.099183000000000    0.905223000000000 
P           0.500000000000000    0.400817000000000    0.405223000000000 
P           0.500000000000000    0.500000000000000    0.132241000000000 
P           0.500000000000000    0.500000000000000    0.674054000000000 
P           0.500000000000000    0.500000000000000    0.899691000000000 
P           0.500000000000000    0.599183000000000    0.405223000000000 
P           0.500000000000000    0.900817000000000    0.905223000000000 
K           0.500000000000000    0.249529000000000    0.650920000000000 
K           0.500000000000000    0.250471000000000    0.150920000000000 
K           0.500000000000000    0.749529000000000    0.150920000000000 
K           0.500000000000000    0.750471000000000    0.650920000000000 
%ENDBLOCK POSITIONS_FRAC
