# Cell file generated by matador (Matthew Evans 2016)

%BLOCK LATTICE_CART
8.46072 0.0 0.0
-4.23036 7.3272 0.0
0.0 0.0 6.64469
%ENDBLOCK LATTICE_CART

%BLOCK POSITIONS_FRAC
P           0.167492000000000    0.377435000000000    0.453051000000000 
P           0.209943000000000    0.832508000000000    0.453051000000000 
P           0.333333000000000    0.666667000000000    0.283618000000000 
P           0.493265000000000    0.348443000000000    0.009807000000000 
P           0.622565000000000    0.790057000000000    0.453051000000000 
P           0.651557000000000    0.144823000000000    0.009807000000000 
P           0.855177000000000    0.506735000000000    0.009807000000000 
K           0.333333000000000    0.666667000000000    0.816475000000000 
K           0.423638000000000    0.154661000000000    0.290101000000000 
K           0.666666000000000    0.333334000000000    0.678526000000000 
K           0.731023000000000    0.576362000000000    0.290101000000000 
K           0.845339000000000    0.268977000000000    0.290101000000000 
%ENDBLOCK POSITIONS_FRAC
