# Cell file generated by matador (Matthew Evans 2016)

%BLOCK LATTICE_CART
9.56399 -0.0 0.0
-4.78199 8.28266 0.0
0.0 0.0 14.4064
%ENDBLOCK LATTICE_CART

%BLOCK POSITIONS_FRAC
P           0.000000000000000    0.000000000000000    0.071333000000000 
P           0.000000000000000    0.000000000000000    0.250000000000000 
P           0.000000000000000    0.000000000000000    0.428667000000000 
P           0.000000000000000    0.000000000000000    0.571333000000000 
P           0.000000000000000    0.000000000000000    0.750000000000000 
P           0.000000000000000    0.000000000000000    0.928667000000000 
P           0.333333000000000    0.666667000000000    0.250000000000000 
P           0.666667000000000    0.333333000000000    0.750000000000000 
K           0.000000000000000    0.500000000000000    0.000000000000000 
K           0.000000000000000    0.500000000000000    0.500000000000000 
K           0.076678000000000    0.526507000000000    0.750000000000000 
K           0.114208000000000    0.236994000000000    0.750000000000000 
K           0.122786000000000    0.885792000000000    0.750000000000000 
K           0.198182000000000    0.416058000000000    0.250000000000000 
K           0.217876000000000    0.801818000000000    0.250000000000000 
K           0.236994000000000    0.122786000000000    0.250000000000000 
K           0.416058000000000    0.217876000000000    0.750000000000000 
K           0.449829000000000    0.923322000000000    0.750000000000000 
K           0.473493000000000    0.550171000000000    0.750000000000000 
K           0.500000000000000    0.000000000000000    0.000000000000000 
K           0.500000000000000    0.000000000000000    0.500000000000000 
K           0.500000000000000    0.500000000000000    0.000000000000000 
K           0.500000000000000    0.500000000000000    0.500000000000000 
K           0.526507000000000    0.449829000000000    0.250000000000000 
K           0.550171000000000    0.076678000000000    0.250000000000000 
K           0.583942000000000    0.782124000000000    0.250000000000000 
K           0.763006000000000    0.877214000000000    0.750000000000000 
K           0.782124000000000    0.198182000000000    0.750000000000000 
K           0.801818000000000    0.583942000000000    0.750000000000000 
K           0.877214000000000    0.114208000000000    0.250000000000000 
K           0.885792000000000    0.763006000000000    0.250000000000000 
K           0.923322000000000    0.473493000000000    0.250000000000000 
%ENDBLOCK POSITIONS_FRAC
