# Cell file generated by matador (Matthew Evans 2016)

%BLOCK LATTICE_CART
9.68822 0.0 0.0
-4.84411 8.39024 0.0
0.0 0.0 6.00986
%ENDBLOCK LATTICE_CART

%BLOCK POSITIONS_FRAC
P           0.000000000000000    0.000000000000000    0.201224000000000 
P           0.333333000000000    0.666667000000000    0.867891000000000 
P           0.666667000000000    0.333333000000000    0.534557000000000 
K           0.203442000000000    0.406884000000000    0.970561000000000 
K           0.203442000000000    0.796558000000000    0.970561000000000 
K           0.259783000000000    0.129891000000000    0.303894000000000 
K           0.536775000000000    0.073551000000000    0.637227000000000 
K           0.536775000000000    0.463225000000000    0.637227000000000 
K           0.593116000000000    0.796558000000000    0.970561000000000 
K           0.870109000000000    0.129891000000000    0.303894000000000 
K           0.870109000000000    0.740217000000000    0.303894000000000 
K           0.926449000000000    0.463225000000000    0.637227000000000 
%ENDBLOCK POSITIONS_FRAC
