# Cell file generated by matador (Matthew Evans 2016)

%BLOCK LATTICE_CART
6.60385 0.0 0.0
0.0 6.60385 0.0
0.0 0.0 5.83754
%ENDBLOCK LATTICE_CART

%BLOCK POSITIONS_FRAC
P           0.000000000000000    0.500000000000000    0.000000000000000 
P           0.000000000000000    0.500000000000000    0.500000000000000 
P           0.214150000000000    0.214150000000000    0.000000000000000 
P           0.285850000000000    0.714150000000000    0.500000000000000 
P           0.500000000000000    0.000000000000000    0.000000000000000 
P           0.500000000000000    0.000000000000000    0.500000000000000 
P           0.714150000000000    0.285850000000000    0.500000000000000 
P           0.785850000000000    0.785850000000000    0.000000000000000 
K           0.000000000000000    0.000000000000000    0.000000000000000 
K           0.500000000000000    0.500000000000000    0.500000000000000 
%ENDBLOCK POSITIONS_FRAC
