# Cell file generated by matador (Matthew Evans 2016)

%BLOCK LATTICE_CART
6.96636 0.0 0.0
-3.48318 6.03304 0.0
0.0 0.0 12.6153
%ENDBLOCK LATTICE_CART

%BLOCK POSITIONS_FRAC
P           0.333333000000000    0.666667000000000    0.349317000000000 
P           0.333333000000000    0.666667000000000    0.849317000000000 
P           0.465798000000000    0.163230000000000    0.417868000000000 
P           0.465798000000000    0.302568000000000    0.917868000000000 
P           0.666667000000000    0.333333000000000    0.387703000000000 
P           0.666667000000000    0.333333000000000    0.887703000000000 
P           0.697432000000000    0.163230000000000    0.917868000000000 
P           0.697432000000000    0.534202000000000    0.417868000000000 
P           0.836770000000000    0.302568000000000    0.417868000000000 
P           0.836770000000000    0.534202000000000    0.917868000000000 
K           0.025599000000000    0.283313000000000    0.154128000000000 
K           0.025599000000000    0.742286000000000    0.654128000000000 
K           0.257714000000000    0.283313000000000    0.654128000000000 
K           0.257714000000000    0.974401000000000    0.154128000000000 
K           0.666667000000000    0.333333000000000    0.183280000000000 
K           0.666667000000000    0.333333000000000    0.683280000000000 
K           0.716687000000000    0.742286000000000    0.154128000000000 
K           0.716687000000000    0.974401000000000    0.654128000000000 
%ENDBLOCK POSITIONS_FRAC
