# Cell file generated by matador (Matthew Evans 2016)

%BLOCK LATTICE_CART
8.36715 0.0 0.0
-4.18358 7.24617 0.0
0.0 0.0 7.23001
%ENDBLOCK LATTICE_CART

%BLOCK POSITIONS_FRAC
P           0.000000000000000    0.000000000000000    0.500000000000000 
P           0.333333000000000    0.666667000000000    0.000000000000000 
P           0.666667000000000    0.333333000000000    0.000000000000000 
K           0.000000000000000    0.000000000000000    0.000000000000000 
K           0.117489000000000    0.405519000000000    0.000000000000000 
K           0.288030000000000    0.882511000000000    0.000000000000000 
K           0.333333000000000    0.666667000000000    0.500000000000000 
K           0.405519000000000    0.288030000000000    0.000000000000000 
K           0.594481000000000    0.711970000000000    0.000000000000000 
K           0.666667000000000    0.333333000000000    0.500000000000000 
K           0.711970000000000    0.117489000000000    0.000000000000000 
K           0.882511000000000    0.594481000000000    0.000000000000000 
%ENDBLOCK POSITIONS_FRAC
