# Cell file generated by matador (Matthew Evans 2016)

%BLOCK LATTICE_CART
7.63646 0.0 0.0
1.95267 9.26725 0.0
0.213958 -2.50575 4.19204
%ENDBLOCK LATTICE_CART

%BLOCK POSITIONS_FRAC
P           0.264413000000000    0.376033000000000    0.319412000000000 
P           0.273161000000000    0.553284000000000    0.293300000000000 
P           0.377441000000000    0.329123000000000    0.697805000000000 
P           0.500000000000000    0.000000000000000    0.000000000000000 
P           0.622559000000000    0.670877000000000    0.302195000000000 
P           0.726839000000000    0.446716000000000    0.706700000000000 
P           0.735587000000000    0.623967000000000    0.680588000000000 
K           0.000000000000000    0.000000000000000    0.000000000000000 
K           0.500000000000000    0.500000000000000    0.000000000000000 
K           0.500000000000000    0.500000000000000    0.500000000000000 
%ENDBLOCK POSITIONS_FRAC
