# Cell file generated by matador (Matthew Evans 2016)

%BLOCK LATTICE_CART
6.07261 0.0 0.0
-3.03631 5.25904 0.0
0.0 0.0 13.3868
%ENDBLOCK LATTICE_CART

%BLOCK POSITIONS_FRAC
P           0.000000000000000    0.000000000000000    0.022647000000000 
P           0.090193000000000    0.551664000000000    0.035350000000000 
P           0.333333000000000    0.666667000000000    0.787116000000000 
P           0.448336000000000    0.538528000000000    0.035350000000000 
P           0.461472000000000    0.909807000000000    0.035350000000000 
P           0.666667000000000    0.333333000000000    0.699286000000000 
P           0.666667000000000    0.333333000000000    0.873752000000000 
K           0.000000000000000    0.000000000000000    0.338083000000000 
K           0.000000000000000    0.000000000000000    0.533384000000000 
K           0.026484000000000    0.585129000000000    0.644842000000000 
K           0.333333000000000    0.666667000000000    0.425501000000000 
K           0.414871000000000    0.441355000000000    0.644842000000000 
K           0.558645000000000    0.973516000000000    0.644842000000000 
%ENDBLOCK POSITIONS_FRAC
