# Cell file generated by matador (Matthew Evans 2016)

%BLOCK LATTICE_CART
5.58198 0.0 0.0
-2.79099 4.83414 0.0
0.0 0.0 4.6041
%ENDBLOCK LATTICE_CART

%BLOCK POSITIONS_FRAC
P           0.000000000000000    0.000000000000000    0.702267000000000 
P           0.000000000000000    0.000000000000000    0.988999000000000 
K           0.333333000000000    0.666667000000000    0.151701000000000 
K           0.666667000000000    0.333333000000000    0.268038000000000 
%ENDBLOCK POSITIONS_FRAC
