# Cell file generated by matador (Matthew Evans 2016)

%BLOCK LATTICE_CART
4.9188 0.0 0.0
0.0 8.24281 0.0
0.0 0.0 9.83623
%ENDBLOCK LATTICE_CART

%BLOCK POSITIONS_FRAC
P           0.024441000000000    0.923789000000000    0.033240000000000 
P           0.147575000000000    0.847015000000000    0.898003000000000 
P           0.250000000000000    0.142468000000000    0.632847000000000 
P           0.352425000000000    0.847015000000000    0.898003000000000 
P           0.475559000000000    0.923789000000000    0.033240000000000 
P           0.524441000000000    0.076211000000000    0.033240000000000 
P           0.647575000000000    0.152985000000000    0.898003000000000 
P           0.750000000000000    0.857532000000000    0.632847000000000 
P           0.852425000000000    0.152985000000000    0.898003000000000 
P           0.975559000000000    0.076211000000000    0.033240000000000 
K           0.000000000000000    0.000000000000000    0.757020000000000 
K           0.000000000000000    0.500000000000000    0.000235000000000 
K           0.037567000000000    0.234370000000000    0.450664000000000 
K           0.462433000000000    0.234370000000000    0.450664000000000 
K           0.500000000000000    0.000000000000000    0.757020000000000 
K           0.500000000000000    0.500000000000000    0.000235000000000 
K           0.537567000000000    0.765630000000000    0.450664000000000 
K           0.962433000000000    0.765630000000000    0.450664000000000 
%ENDBLOCK POSITIONS_FRAC
