# Cell file generated by matador (Matthew Evans 2016)

%BLOCK LATTICE_CART
8.04663 0.0 0.0
0.0 8.04663 0.0
0.0 0.0 8.04663
%ENDBLOCK LATTICE_CART

%BLOCK POSITIONS_FRAC
P           0.000000000000000    0.000000000000000    0.293084000000000 
P           0.000000000000000    0.000000000000000    0.706916000000000 
P           0.000000000000000    0.293084000000000    0.000000000000000 
P           0.000000000000000    0.706916000000000    0.000000000000000 
P           0.206916000000000    0.500000000000000    0.500000000000000 
P           0.293084000000000    0.000000000000000    0.000000000000000 
P           0.500000000000000    0.206916000000000    0.500000000000000 
P           0.500000000000000    0.500000000000000    0.206916000000000 
P           0.500000000000000    0.500000000000000    0.793084000000000 
P           0.500000000000000    0.793084000000000    0.500000000000000 
P           0.706916000000000    0.000000000000000    0.000000000000000 
P           0.793084000000000    0.500000000000000    0.500000000000000 
K           0.000000000000000    0.000000000000000    0.000000000000000 
K           0.500000000000000    0.500000000000000    0.500000000000000 
%ENDBLOCK POSITIONS_FRAC
