# Cell file generated by matador (Matthew Evans 2016)

%BLOCK LATTICE_CART
8.58835 0.0 0.0
-4.29418 7.43773 0.0
0.0 0.0 6.48038
%ENDBLOCK LATTICE_CART

%BLOCK POSITIONS_FRAC
P           0.335808000000000    0.128796000000000    0.636774000000000 
P           0.335808000000000    0.207013000000000    0.363226000000000 
P           0.792987000000000    0.128796000000000    0.363226000000000 
P           0.792987000000000    0.664192000000000    0.636774000000000 
P           0.871204000000000    0.207013000000000    0.636774000000000 
P           0.871204000000000    0.664192000000000    0.363226000000000 
K          -0.000000000000000    0.000000000000000    0.000000000000000 
K          -0.000000000000000    0.000000000000000    0.500000000000000 
K           0.333333000000000    0.666667000000000    0.000000000000000 
K           0.333333000000000    0.666667000000000    0.500000000000000 
K           0.510285000000000    0.020570000000000    0.000000000000000 
K           0.510285000000000    0.489715000000000    0.000000000000000 
K           0.666666000000000    0.333334000000000    0.000000000000000 
K           0.666666000000000    0.333334000000000    0.500000000000000 
K           0.979430000000000    0.489715000000000    0.000000000000000 
%ENDBLOCK POSITIONS_FRAC
