# Cell file generated by matador (Matthew Evans 2016)

%BLOCK LATTICE_CART
8.49662 0.0 0.0
-4.24831 7.35828 0.0
0.0 0.0 8.64831
%ENDBLOCK LATTICE_CART

%BLOCK POSITIONS_FRAC
P           0.002655000000000    0.756046000000000    0.250000000000000 
P           0.009981000000000    0.542512000000000    0.750000000000000 
P           0.243954000000000    0.246609000000000    0.250000000000000 
P           0.246609000000000    0.243954000000000    0.750000000000000 
P           0.457488000000000    0.467469000000000    0.750000000000000 
P           0.467469000000000    0.457488000000000    0.250000000000000 
P           0.532531000000000    0.990019000000000    0.750000000000000 
P           0.542512000000000    0.009981000000000    0.250000000000000 
P           0.753391000000000    0.997345000000000    0.250000000000000 
P           0.756046000000000    0.002655000000000    0.750000000000000 
P           0.990019000000000    0.532531000000000    0.250000000000000 
P           0.997345000000000    0.753391000000000    0.750000000000000 
K           0.000000000000000    0.000000000000000    0.250000000000000 
K           0.000000000000000    0.000000000000000    0.750000000000000 
%ENDBLOCK POSITIONS_FRAC
