# Cell file generated by matador (Matthew Evans 2016)

%BLOCK LATTICE_CART
7.99021 0.0 0.0
0.0 6.13161 0.0
-3.18899 0.0 7.40191
%ENDBLOCK LATTICE_CART

%BLOCK POSITIONS_FRAC
P           0.099455000000000    0.060148000000000    0.960567000000000 
P           0.109475000000000    0.513100000000000    0.176831000000000 
P           0.121780000000000    0.457864000000000    0.322547000000000 
P           0.274701000000000    0.821761000000000    0.790008000000000 
P           0.379214000000000    0.120702000000000    0.794330000000000 
P           0.443037000000000    0.200332000000000    0.535582000000000 
P           0.462399000000000    0.964821000000000    0.891277000000000 
P           0.537601000000000    0.964821000000000    0.108723000000000 
P           0.556963000000000    0.200332000000000    0.464418000000000 
P           0.620786000000000    0.120702000000000    0.205670000000000 
P           0.725299000000000    0.821761000000000    0.209992000000000 
P           0.878220000000000    0.457864000000000    0.677453000000000 
P           0.890525000000000    0.513100000000000    0.823169000000000 
P           0.900545000000000    0.060148000000000    0.039433000000000 
K           0.000000000000000    0.759565000000000    0.000000000000000 
K           0.500000000000000    0.604627000000000    0.000000000000000 
%ENDBLOCK POSITIONS_FRAC
