# Cell file generated by matador (Matthew Evans 2016)

%BLOCK LATTICE_CART
7.40228 0.0 0.0
0.0 7.40228 0.0
0.0 0.0 7.40228
%ENDBLOCK LATTICE_CART

%BLOCK POSITIONS_FRAC
P           0.000000000000000    0.000000000000000    0.000000000000000 
P           0.270133000000000    0.270133000000000    0.270133000000000 
P           0.270133000000000    0.729867000000000    0.729867000000000 
P           0.729867000000000    0.270133000000000    0.729867000000000 
P           0.729867000000000    0.729867000000000    0.270133000000000 
K           0.000000000000000    0.000000000000000    0.500000000000000 
K           0.000000000000000    0.500000000000000    0.000000000000000 
K           0.000000000000000    0.500000000000000    0.500000000000000 
K           0.500000000000000    0.000000000000000    0.000000000000000 
K           0.500000000000000    0.000000000000000    0.500000000000000 
K           0.500000000000000    0.500000000000000    0.000000000000000 
%ENDBLOCK POSITIONS_FRAC
