# Cell file generated by matador (Matthew Evans 2016)

%BLOCK LATTICE_CART
6.92048 0.0 0.0
-3.46024 5.99331 0.0
0.0 0.0 7.42656
%ENDBLOCK LATTICE_CART

%BLOCK POSITIONS_FRAC
P           0.000000000000000    0.000000000000000    0.131686000000000 
P           0.000000000000000    0.000000000000000    0.469442000000000 
P           0.000000000000000    0.000000000000000    0.617384000000000 
P           0.000000000000000    0.500000000000000    0.425697000000000 
P           0.500000000000000    0.000000000000000    0.425697000000000 
P           0.500000000000000    0.500000000000000    0.425697000000000 
K           0.000000000000000    0.500000000000000    0.906034000000000 
K           0.333333000000000    0.666667000000000    0.386052000000000 
K           0.500000000000000    0.000000000000000    0.906034000000000 
K           0.500000000000000    0.500000000000000    0.906034000000000 
K           0.666667000000000    0.333333000000000    0.386052000000000 
%ENDBLOCK POSITIONS_FRAC
