# Cell file generated by matador (Matthew Evans 2016)

%BLOCK LATTICE_CART
7.19478 0.0 0.0
0.0 7.19478 0.0
0.0 0.0 9.03354
%ENDBLOCK LATTICE_CART

%BLOCK POSITIONS_FRAC
P           0.000000000000000    0.000000000000000    0.278603000000000 
P           0.000000000000000    0.000000000000000    0.721397000000000 
P           0.000000000000000    0.500000000000000    0.105309000000000 
P           0.000000000000000    0.500000000000000    0.250000000000000 
P           0.000000000000000    0.500000000000000    0.394691000000000 
P           0.000000000000000    0.500000000000000    0.750000000000000 
P           0.101538000000000    0.398462000000000    0.250000000000000 
P           0.398462000000000    0.898462000000000    0.750000000000000 
P           0.500000000000000    0.000000000000000    0.250000000000000 
P           0.500000000000000    0.000000000000000    0.605309000000000 
P           0.500000000000000    0.000000000000000    0.750000000000000 
P           0.500000000000000    0.000000000000000    0.894691000000000 
P           0.500000000000000    0.500000000000000    0.221397000000000 
P           0.500000000000000    0.500000000000000    0.778603000000000 
P           0.601538000000000    0.101538000000000    0.750000000000000 
P           0.898462000000000    0.601538000000000    0.250000000000000 
K           0.000000000000000    0.000000000000000    0.000000000000000 
K           0.000000000000000    0.000000000000000    0.500000000000000 
K           0.500000000000000    0.500000000000000    0.000000000000000 
K           0.500000000000000    0.500000000000000    0.500000000000000 
%ENDBLOCK POSITIONS_FRAC
