# Cell file generated by matador (Matthew Evans 2016)

%BLOCK LATTICE_CART
3.58404 0.0 0.0
0.0 6.9772 0.0
0.0 0.0 15.0044
%ENDBLOCK LATTICE_CART

%BLOCK POSITIONS_FRAC
P           0.000000000000000    0.262175000000000    0.975373000000000 
P           0.000000000000000    0.737825000000000    0.475373000000000 
K           0.000000000000000    0.370277000000000    0.432097000000000 
K           0.000000000000000    0.455894000000000    0.628392000000000 
K           0.000000000000000    0.544106000000000    0.128392000000000 
K           0.000000000000000    0.629723000000000    0.932097000000000 
K           0.500000000000000    0.131739000000000    0.077616000000000 
K           0.500000000000000    0.135179000000000    0.409224000000000 
K           0.500000000000000    0.371409000000000    0.230451000000000 
K           0.500000000000000    0.628591000000000    0.730451000000000 
K           0.500000000000000    0.864821000000000    0.909224000000000 
K           0.500000000000000    0.868261000000000    0.577616000000000 
%ENDBLOCK POSITIONS_FRAC
