# Cell file generated by matador (Matthew Evans 2016)

%BLOCK LATTICE_CART
5.11521 0.0 0.0
0.0 5.49391 0.0
0.0 0.0 5.0965
%ENDBLOCK LATTICE_CART

%BLOCK POSITIONS_FRAC
P           0.000000000000000    0.000000000000000    0.000000000000000 
P           0.000000000000000    0.000000000000000    0.500000000000000 
P           0.500000000000000    0.000000000000000    0.000000000000000 
P           0.500000000000000    0.000000000000000    0.500000000000000 
K           0.250000000000000    0.500000000000000    0.159821000000000 
K           0.750000000000000    0.500000000000000    0.840179000000000 
%ENDBLOCK POSITIONS_FRAC
