# Cell file generated by matador (Matthew Evans 2016)

%BLOCK LATTICE_CART
4.91354 0.0 0.0
-2.45677 4.25525 0.0
0.0 0.0 7.06058
%ENDBLOCK LATTICE_CART

%BLOCK POSITIONS_FRAC
P           0.333334000000000    0.666666000000000    0.061195000000000 
P           0.387430000000000    0.300379000000000    0.650343000000000 
P           0.666667000000000    0.333333000000000    0.803627000000000 
P           0.699621000000000    0.087049000000000    0.650343000000000 
P           0.912951000000000    0.612570000000000    0.650343000000000 
K           0.666667000000000    0.333333000000000    0.140310000000000 
%ENDBLOCK POSITIONS_FRAC
