# Cell file generated by matador (Matthew Evans 2016)

%BLOCK LATTICE_CART
6.82132 -0.0 0.0
-3.41066 5.90743 0.0
0.0 0.0 6.88059
%ENDBLOCK LATTICE_CART

%BLOCK POSITIONS_FRAC
P           0.000000000000000    0.000000000000000    0.860316000000000 
P           0.333333000000000    0.666667000000000    0.181270000000000 
P           0.333333000000000    0.666667000000000    0.920747000000000 
P           0.666667000000000    0.333333000000000    0.509648000000000 
K           0.000000000000000    0.000000000000000    0.288355000000000 
K           0.442561000000000    0.063195000000000    0.741511000000000 
K           0.620634000000000    0.557439000000000    0.741511000000000 
K           0.666667000000000    0.333333000000000    0.177590000000000 
K           0.936805000000000    0.379366000000000    0.741511000000000 
%ENDBLOCK POSITIONS_FRAC
