# Cell file generated by matador (Matthew Evans 2016)

%BLOCK LATTICE_CART
8.16687 0.0 0.0
0.0 8.16687 0.0
0.0 0.0 9.79825
%ENDBLOCK LATTICE_CART

%BLOCK POSITIONS_FRAC
P           0.000000000000000    0.500000000000000    0.000000000000000 
P           0.000000000000000    0.500000000000000    0.500000000000000 
P           0.500000000000000    0.000000000000000    0.000000000000000 
P           0.500000000000000    0.000000000000000    0.500000000000000 
K           0.000000000000000    0.000000000000000    0.000000000000000 
K           0.000000000000000    0.000000000000000    0.500000000000000 
K           0.207905000000000    0.207905000000000    0.683585000000000 
K           0.207905000000000    0.792095000000000    0.316415000000000 
K           0.292095000000000    0.292095000000000    0.183585000000000 
K           0.292095000000000    0.707905000000000    0.816415000000000 
K           0.500000000000000    0.500000000000000    0.000000000000000 
K           0.500000000000000    0.500000000000000    0.500000000000000 
K           0.707905000000000    0.292095000000000    0.816415000000000 
K           0.707905000000000    0.707905000000000    0.183585000000000 
K           0.792095000000000    0.207905000000000    0.316415000000000 
K           0.792095000000000    0.792095000000000    0.683585000000000 
%ENDBLOCK POSITIONS_FRAC
