# Cell file generated by matador (Matthew Evans 2016)

%BLOCK LATTICE_CART
7.17175 0.0 0.0
0.0 7.17175 0.0
0.0 0.0 6.03388
%ENDBLOCK LATTICE_CART

%BLOCK POSITIONS_FRAC
P           0.000000000000000    0.000000000000000    0.000000000000000 
P           0.000000000000000    0.000000000000000    0.500000000000000 
P           0.500000000000000    0.500000000000000    0.000000000000000 
P           0.500000000000000    0.500000000000000    0.500000000000000 
K           0.091753000000000    0.287789000000000    0.000000000000000 
K           0.212211000000000    0.408247000000000    0.500000000000000 
K           0.287789000000000    0.908247000000000    0.000000000000000 
K           0.408247000000000    0.787789000000000    0.500000000000000 
K           0.591753000000000    0.212211000000000    0.500000000000000 
K           0.712211000000000    0.091753000000000    0.000000000000000 
K           0.787789000000000    0.591753000000000    0.500000000000000 
K           0.908247000000000    0.712211000000000    0.000000000000000 
%ENDBLOCK POSITIONS_FRAC
