# Cell file generated by matador (Matthew Evans 2016)

%BLOCK LATTICE_CART
7.29835 0.0 0.0
-3.64918 6.32056 0.0
0.0 0.0 7.7492
%ENDBLOCK LATTICE_CART

%BLOCK POSITIONS_FRAC
P           0.023836000000000    0.203673000000000    0.387952000000000 
P           0.094647000000000    0.641673000000000    0.360586000000000 
P           0.179837000000000    0.976164000000000    0.387952000000000 
P           0.358327000000000    0.452974000000000    0.360586000000000 
P           0.401373000000000    0.398913000000000    0.513425000000000 
P           0.547026000000000    0.905353000000000    0.360586000000000 
P           0.601087000000000    0.002460000000000    0.513425000000000 
P           0.796327000000000    0.820163000000000    0.387952000000000 
P           0.997540000000000    0.598627000000000    0.513425000000000 
K           0.412537000000000    0.273332000000000    0.877817000000000 
K           0.726668000000000    0.139205000000000    0.877817000000000 
K           0.860795000000000    0.587463000000000    0.877817000000000 
%ENDBLOCK POSITIONS_FRAC
