# Cell file generated by matador (Matthew Evans 2016)

%BLOCK LATTICE_CART
8.2025 0.0 0.0
-4.10125 7.10357 0.0
0.0 0.0 5.55552
%ENDBLOCK LATTICE_CART

%BLOCK POSITIONS_FRAC
P           0.013289000000000    0.102224000000000    0.476089000000000 
P           0.088935000000000    0.986711000000000    0.476089000000000 
P           0.231109000000000    0.577731000000000    0.142756000000000 
P           0.346622000000000    0.768891000000000    0.142756000000000 
P           0.422269000000000    0.653378000000000    0.142756000000000 
P           0.564443000000000    0.244398000000000    0.809422000000000 
P           0.679955000000000    0.435557000000000    0.809422000000000 
P           0.755602000000000    0.320045000000000    0.809422000000000 
P           0.897776000000000    0.911065000000000    0.476089000000000 
K          -0.000000000000000    0.000000000000000    0.077200000000000 
K           0.333333000000000    0.666667000000000    0.743866000000000 
K           0.666667000000000    0.333333000000000    0.410533000000000 
%ENDBLOCK POSITIONS_FRAC
