# Cell file generated by matador (Matthew Evans 2016)

%BLOCK LATTICE_CART
7.78822 0.0 0.0
-3.89411 6.74479 0.0
0.0 0.0 6.2691
%ENDBLOCK LATTICE_CART

%BLOCK POSITIONS_FRAC
P           0.000000000000000    0.000000000000000    0.770561000000000 
P           0.000000000000000    0.892182000000000    0.621860000000000 
P           0.107818000000000    0.107818000000000    0.621860000000000 
P           0.892182000000000    0.000000000000000    0.621860000000000 
K           0.000000000000000    0.000000000000000    0.299156000000000 
K           0.000000000000000    0.266545000000000    0.400330000000000 
K           0.000000000000000    0.424962000000000    0.845367000000000 
K           0.266545000000000    0.000000000000000    0.400330000000000 
K           0.424962000000000    0.000000000000000    0.845367000000000 
K           0.575038000000000    0.575038000000000    0.845367000000000 
K           0.733455000000000    0.733455000000000    0.400330000000000 
%ENDBLOCK POSITIONS_FRAC
