# Cell file generated by matador (Matthew Evans 2016)

%BLOCK LATTICE_CART
7.34778 0.0 0.0
0.0 6.42827 0.0
0.0 0.0 10.1564
%ENDBLOCK LATTICE_CART

%BLOCK POSITIONS_FRAC
P           0.000000000000000    0.000000000000000    0.965099000000000 
P           0.000000000000000    0.376682000000000    0.584308000000000 
P           0.000000000000000    0.500000000000000    0.329075000000000 
P           0.000000000000000    0.500000000000000    0.467394000000000 
P           0.000000000000000    0.623318000000000    0.584308000000000 
P           0.115971000000000    0.230730000000000    0.362958000000000 
P           0.115971000000000    0.769270000000000    0.362958000000000 
P           0.500000000000000    0.500000000000000    0.512644000000000 
P           0.884029000000000    0.230730000000000    0.362958000000000 
P           0.884029000000000    0.769270000000000    0.362958000000000 
K           0.000000000000000    0.000000000000000    0.709053000000000 
K           0.298220000000000    0.161866000000000    0.212207000000000 
K           0.298220000000000    0.838134000000000    0.212207000000000 
K           0.500000000000000    0.500000000000000    0.796739000000000 
K           0.701780000000000    0.161866000000000    0.212207000000000 
K           0.701780000000000    0.838134000000000    0.212207000000000 
%ENDBLOCK POSITIONS_FRAC
