# Cell file generated by matador (Matthew Evans 2016)

%BLOCK LATTICE_CART
7.24231 0.0 0.0
0.0 6.09289 0.0
0.0 0.0 6.41438
%ENDBLOCK LATTICE_CART

%BLOCK POSITIONS_FRAC
P           0.000000000000000    0.000000000000000    0.500000000000000 
P           0.500000000000000    0.000000000000000    0.000000000000000 
P           0.500000000000000    0.500000000000000    0.000000000000000 
K           0.000000000000000    0.000000000000000    0.000000000000000 
K           0.500000000000000    0.215786000000000    0.315409000000000 
K           0.500000000000000    0.215786000000000    0.684591000000000 
K           0.500000000000000    0.784214000000000    0.315409000000000 
K           0.500000000000000    0.784214000000000    0.684591000000000 
%ENDBLOCK POSITIONS_FRAC
