# Cell file generated by matador (Matthew Evans 2016)

%BLOCK LATTICE_CART
6.97605 0.0 0.0
0.0 6.97605 0.0
0.0 0.0 6.97605
%ENDBLOCK LATTICE_CART

%BLOCK POSITIONS_FRAC
P           0.000000000000000    0.500000000000000    0.500000000000000 
P           0.143348000000000    0.500000000000000    0.500000000000000 
P           0.500000000000000    0.000000000000000    0.500000000000000 
P           0.500000000000000    0.143348000000000    0.500000000000000 
P           0.500000000000000    0.500000000000000    0.000000000000000 
P           0.500000000000000    0.500000000000000    0.143348000000000 
P           0.500000000000000    0.500000000000000    0.856652000000000 
P           0.500000000000000    0.856652000000000    0.500000000000000 
P           0.856652000000000    0.500000000000000    0.500000000000000 
K           0.000000000000000    0.000000000000000    0.500000000000000 
K           0.000000000000000    0.500000000000000    0.000000000000000 
K           0.500000000000000    0.000000000000000    0.000000000000000 
%ENDBLOCK POSITIONS_FRAC
