# Cell file generated by matador (Matthew Evans 2016)

%BLOCK LATTICE_CART
7.44786 0.0 0.0
0.0 7.44786 0.0
0.0 0.0 10.9828
%ENDBLOCK LATTICE_CART

%BLOCK POSITIONS_FRAC
P          -0.000000000000000   -0.000000000000000    0.500000000000000 
P          -0.000000000000000    0.500000000000000    0.046618000000000 
P          -0.000000000000000    0.500000000000000    0.453382000000000 
P           0.176447000000000    0.176447000000000    0.500000000000000 
P           0.176447000000000    0.823553000000000    0.500000000000000 
P           0.323553000000000    0.323553000000000    0.000000000000000 
P           0.323553000000000    0.676447000000000    0.000000000000000 
P           0.500000000000000   -0.000000000000000    0.546618000000000 
P           0.500000000000000   -0.000000000000000    0.953382000000000 
P           0.500000000000000    0.500000000000000    0.000000000000000 
P           0.676447000000000    0.323553000000000    0.000000000000000 
P           0.676447000000000    0.676447000000000    0.000000000000000 
P           0.823553000000000    0.176447000000000    0.500000000000000 
P           0.823553000000000    0.823553000000000    0.500000000000000 
K          -0.000000000000000    0.500000000000000    0.750000000000000 
K           0.500000000000000   -0.000000000000000    0.250000000000000 
%ENDBLOCK POSITIONS_FRAC
