# Cell file generated by matador (Matthew Evans 2016)

%BLOCK LATTICE_CART
7.63593 0.0 0.0
0.0 6.53355 0.0
-2.09333 0.0 5.86103
%ENDBLOCK LATTICE_CART

%BLOCK POSITIONS_FRAC
P           0.000000000000000    0.631516000000000    0.000000000000000 
P           0.062258000000000    0.445013000000000    0.253298000000000 
P           0.500000000000000    0.103255000000000    0.000000000000000 
P           0.937742000000000    0.445013000000000    0.746702000000000 
K           0.000000000000000    0.099129000000000    0.500000000000000 
K           0.000000000000000    0.227761000000000    0.000000000000000 
K           0.201992000000000    0.997292000000000    0.105887000000000 
K           0.309286000000000    0.862482000000000    0.425783000000000 
K           0.500000000000000    0.416162000000000    0.000000000000000 
K           0.690714000000000    0.862482000000000    0.574217000000000 
K           0.798008000000000    0.997292000000000    0.894113000000000 
%ENDBLOCK POSITIONS_FRAC
