# Cell file generated by matador (Matthew Evans 2016)

%BLOCK LATTICE_CART
8.26048 0.0 0.0
-4.13024 7.15379 0.0
0.0 0.0 9.98452
%ENDBLOCK LATTICE_CART

%BLOCK POSITIONS_FRAC
P           0.000000000000000    0.000000000000000    0.694652000000000 
P           0.000000000000000    0.500000000000000    0.816827000000000 
P           0.333333000000000    0.666667000000000    0.063490000000000 
P           0.333333000000000    0.666667000000000    0.317242000000000 
P           0.333333000000000    0.666667000000000    0.505854000000000 
P           0.333333000000000    0.666667000000000    0.938370000000000 
P           0.500000000000000    0.000000000000000    0.816827000000000 
P           0.500000000000000    0.500000000000000    0.816827000000000 
P           0.666667000000000    0.333333000000000    0.063490000000000 
P           0.666667000000000    0.333333000000000    0.317242000000000 
P           0.666667000000000    0.333333000000000    0.505854000000000 
P           0.666667000000000    0.333333000000000    0.938370000000000 
K           0.000000000000000    0.000000000000000    0.916207000000000 
K           0.333333000000000    0.666667000000000    0.714147000000000 
K           0.666667000000000    0.333333000000000    0.714147000000000 
%ENDBLOCK POSITIONS_FRAC
