# Cell file generated by matador (Matthew Evans 2016)

%BLOCK LATTICE_CART
11.1711 0.0 0.0
0.0 11.1711 0.0
0.0 0.0 10.2991
%ENDBLOCK LATTICE_CART

%BLOCK POSITIONS_FRAC
P           0.000000000000000    0.408218000000000    0.048068000000000 
P           0.000000000000000    0.591782000000000    0.048068000000000 
P           0.091782000000000    0.000000000000000    0.798068000000000 
P           0.408218000000000    0.500000000000000    0.298068000000000 
P           0.500000000000000    0.091782000000000    0.548068000000000 
P           0.500000000000000    0.908218000000000    0.548068000000000 
P           0.591782000000000    0.500000000000000    0.298068000000000 
P           0.908218000000000    0.000000000000000    0.798068000000000 
K           0.000000000000000    0.189804000000000    0.591037000000000 
K           0.000000000000000    0.197857000000000    0.922498000000000 
K           0.000000000000000    0.364061000000000    0.376104000000000 
K           0.000000000000000    0.635939000000000    0.376104000000000 
K           0.000000000000000    0.802143000000000    0.922498000000000 
K           0.000000000000000    0.810196000000000    0.591037000000000 
K           0.135939000000000    0.000000000000000    0.126104000000000 
K           0.189804000000000    0.500000000000000    0.841037000000000 
K           0.197857000000000    0.500000000000000    0.172498000000000 
K           0.302143000000000    0.000000000000000    0.672498000000000 
K           0.310196000000000    0.000000000000000    0.341037000000000 
K           0.364061000000000    0.500000000000000    0.626104000000000 
K           0.500000000000000    0.135939000000000    0.876104000000000 
K           0.500000000000000    0.302143000000000    0.422498000000000 
K           0.500000000000000    0.310196000000000    0.091037000000000 
K           0.500000000000000    0.689804000000000    0.091037000000000 
K           0.500000000000000    0.697857000000000    0.422498000000000 
K           0.500000000000000    0.864061000000000    0.876104000000000 
K           0.635939000000000    0.500000000000000    0.626104000000000 
K           0.689804000000000    0.000000000000000    0.341037000000000 
K           0.697857000000000    0.000000000000000    0.672498000000000 
K           0.802143000000000    0.500000000000000    0.172498000000000 
K           0.810196000000000    0.500000000000000    0.841037000000000 
K           0.864061000000000    0.000000000000000    0.126104000000000 
%ENDBLOCK POSITIONS_FRAC
