# Cell file generated by matador (Matthew Evans 2016)

%BLOCK LATTICE_CART
9.62107 0.0 0.0
0.0 9.62107 0.0
0.0 0.0 12.8706
%ENDBLOCK LATTICE_CART

%BLOCK POSITIONS_FRAC
P           0.000000000000000    0.160192000000000    0.621257000000000 
P           0.000000000000000    0.839808000000000    0.621257000000000 
P           0.160192000000000    0.000000000000000    0.378743000000000 
P           0.339808000000000    0.500000000000000    0.878743000000000 
P           0.500000000000000    0.339808000000000    0.121257000000000 
P           0.500000000000000    0.660192000000000    0.121257000000000 
P           0.660192000000000    0.500000000000000    0.878743000000000 
P           0.839808000000000    0.000000000000000    0.378743000000000 
K           0.000000000000000    0.199755000000000    0.182053000000000 
K           0.000000000000000    0.239712000000000    0.435069000000000 
K           0.000000000000000    0.327166000000000    0.936133000000000 
K           0.000000000000000    0.672834000000000    0.936133000000000 
K           0.000000000000000    0.760288000000000    0.435069000000000 
K           0.000000000000000    0.800245000000000    0.182053000000000 
K           0.172834000000000    0.500000000000000    0.563867000000000 
K           0.199755000000000    0.000000000000000    0.817947000000000 
K           0.239712000000000    0.000000000000000    0.564931000000000 
K           0.260288000000000    0.500000000000000    0.064931000000000 
K           0.300245000000000    0.500000000000000    0.317947000000000 
K           0.327166000000000    0.000000000000000    0.063867000000000 
K           0.500000000000000    0.172834000000000    0.436133000000000 
K           0.500000000000000    0.260288000000000    0.935069000000000 
K           0.500000000000000    0.300245000000000    0.682053000000000 
K           0.500000000000000    0.699755000000000    0.682053000000000 
K           0.500000000000000    0.739712000000000    0.935069000000000 
K           0.500000000000000    0.827166000000000    0.436133000000000 
K           0.672834000000000    0.000000000000000    0.063867000000000 
K           0.699755000000000    0.500000000000000    0.317947000000000 
K           0.739712000000000    0.500000000000000    0.064931000000000 
K           0.760288000000000    0.000000000000000    0.564931000000000 
K           0.800245000000000    0.000000000000000    0.817947000000000 
K           0.827166000000000    0.500000000000000    0.563867000000000 
%ENDBLOCK POSITIONS_FRAC
