# Cell file generated by matador (Matthew Evans 2016)

%BLOCK LATTICE_CART
8.34304 0.0 0.0
-0.893984 9.97 0.0
3.30286 2.6085 5.72501
%ENDBLOCK LATTICE_CART

%BLOCK POSITIONS_FRAC
P           0.000000000000000    0.000000000000000    0.500000000000000 
P           0.000000000000000    0.500000000000000    0.000000000000000 
P           0.000000000000000    0.500000000000000    0.500000000000000 
P           0.149181000000000    0.829205000000000    0.041366000000000 
P           0.500000000000000    0.000000000000000    0.000000000000000 
P           0.850819000000000    0.170795000000000    0.958634000000000 
K           0.000000000000000    0.000000000000000    0.000000000000000 
K           0.275166000000000    0.240767000000000    0.673054000000000 
K           0.434045000000000    0.164997000000000    0.310724000000000 
K           0.500000000000000    0.000000000000000    0.500000000000000 
K           0.500000000000000    0.500000000000000    0.000000000000000 
K           0.500000000000000    0.500000000000000    0.500000000000000 
K           0.565955000000000    0.835003000000000    0.689276000000000 
K           0.724834000000000    0.759233000000000    0.326946000000000 
%ENDBLOCK POSITIONS_FRAC
