# Cell file generated by matador (Matthew Evans 2016)

%BLOCK LATTICE_CART
7.98804 0.0 0.0
0.0 7.55554 0.0
0.826541 0.0 9.49351
%ENDBLOCK LATTICE_CART

%BLOCK POSITIONS_FRAC
P           0.000000000000000    0.000000000000000    0.000000000000000 
P           0.000000000000000    0.500000000000000    0.500000000000000 
P           0.331175000000000    0.135103000000000    0.163287000000000 
P           0.331175000000000    0.364897000000000    0.663287000000000 
P           0.500000000000000    0.000000000000000    0.000000000000000 
P           0.500000000000000    0.000000000000000    0.500000000000000 
P           0.500000000000000    0.500000000000000    0.000000000000000 
P           0.500000000000000    0.500000000000000    0.500000000000000 
P           0.668825000000000    0.635103000000000    0.336713000000000 
P           0.668825000000000    0.864897000000000    0.836713000000000 
K           0.000000000000000    0.000000000000000    0.500000000000000 
K           0.000000000000000    0.500000000000000    0.000000000000000 
K           0.269888000000000    0.696513000000000    0.889306000000000 
K           0.269888000000000    0.803487000000000    0.389306000000000 
K           0.730112000000000    0.196513000000000    0.610694000000000 
K           0.730112000000000    0.303487000000000    0.110694000000000 
%ENDBLOCK POSITIONS_FRAC
