# Cell file generated by matador (Matthew Evans 2016)

%BLOCK LATTICE_CART
3.91407 0.0 0.0
0.0 5.3579 0.0
-2.96051 0.0 8.2364
%ENDBLOCK LATTICE_CART

%BLOCK POSITIONS_FRAC
P           0.000000000000000    0.128641000000000    0.000000000000000 
P           0.160419000000000    0.319267000000000    0.871912000000000 
P           0.500000000000000    0.239527000000000    0.000000000000000 
P           0.839581000000000    0.319267000000000    0.128088000000000 
K           0.165826000000000    0.772634000000000    0.831056000000000 
K           0.500000000000000    0.418454000000000    0.500000000000000 
K           0.834174000000000    0.772634000000000    0.168944000000000 
%ENDBLOCK POSITIONS_FRAC
