# Cell file generated by matador (Matthew Evans 2016)

%BLOCK LATTICE_CART
5.80207 0.0 0.0
0.0 6.91734 0.0
-2.66855 0.0 7.78891
%ENDBLOCK LATTICE_CART

%BLOCK POSITIONS_FRAC
P          -0.000000000000000    0.223477000000000    0.500000000000000 
P          -0.000000000000000    0.484468000000000   -0.000000000000000 
P           0.015121000000000    0.554945000000000    0.259211000000000 
P           0.481716000000000    0.074660000000000    0.409557000000000 
P           0.500000000000000    0.558181000000000    0.500000000000000 
P           0.518284000000000    0.074660000000000    0.590443000000000 
P           0.984879000000000    0.554945000000000    0.740789000000000 
K           0.082702000000000    0.974751000000000    0.694753000000000 
K           0.411878000000000    0.681284000000000    0.718214000000000 
K           0.588122000000000    0.681284000000000    0.281786000000000 
K           0.917298000000000    0.974751000000000    0.305247000000000 
%ENDBLOCK POSITIONS_FRAC
