# Cell file generated by matador (Matthew Evans 2016)

%BLOCK LATTICE_CART
7.11887 0.0 0.0
-3.55943 6.16512 0.0
0.0 0.0 9.76109
%ENDBLOCK LATTICE_CART

%BLOCK POSITIONS_FRAC
P           0.000000000000000    0.000000000000000    0.844286000000000 
P           0.333333000000000    0.666667000000000    0.510953000000000 
P           0.666667000000000    0.333333000000000    0.177619000000000 
K           0.051864000000000    0.525932000000000    0.073626000000000 
K           0.140735000000000    0.281469000000000    0.406959000000000 
K           0.140735000000000    0.859265000000000    0.406959000000000 
K           0.385198000000000    0.192599000000000    0.740293000000000 
K           0.474068000000000    0.525932000000000    0.073626000000000 
K           0.474068000000000    0.948136000000000    0.073626000000000 
K           0.718531000000000    0.859265000000000    0.406959000000000 
K           0.807401000000000    0.192599000000000    0.740293000000000 
K           0.807401000000000    0.614802000000000    0.740293000000000 
%ENDBLOCK POSITIONS_FRAC
