# Cell file generated by matador (Matthew Evans 2016)

%BLOCK LATTICE_CART
5.42959 0.0 0.0
0.0 7.13236 0.0
0.0 0.0 5.87404
%ENDBLOCK LATTICE_CART

%BLOCK POSITIONS_FRAC
P           0.000000000000000    0.833438000000000    0.959019000000000 
P           0.129040000000000    0.062616000000000    0.157338000000000 
P           0.370960000000000    0.937384000000000    0.657338000000000 
P           0.500000000000000    0.166562000000000    0.459019000000000 
P           0.629040000000000    0.937384000000000    0.657338000000000 
P           0.870960000000000    0.062616000000000    0.157338000000000 
K           0.000000000000000    0.342183000000000    0.189284000000000 
K           0.500000000000000    0.657817000000000    0.689284000000000 
%ENDBLOCK POSITIONS_FRAC
