# Cell file generated by matador (Matthew Evans 2016)

%BLOCK LATTICE_CART
6.70867 0.0 0.0
-3.35434 5.80988 0.0
0.0 0.0 10.2952
%ENDBLOCK LATTICE_CART

%BLOCK POSITIONS_FRAC
P           0.333333000000000    0.666667000000000    0.143840000000000 
P           0.333333000000000    0.666667000000000    0.856160000000000 
P           0.666666000000000    0.333334000000000    0.245986000000000 
P           0.666666000000000    0.333334000000000    0.754014000000000 
K          -0.000000000000000    0.000000000000000    0.500000000000000 
K           0.169783000000000    0.339567000000000    0.271592000000000 
K           0.169783000000000    0.339567000000000    0.728408000000000 
K           0.169783000000000    0.830217000000000    0.271592000000000 
K           0.169783000000000    0.830217000000000    0.728408000000000 
K           0.660433000000000    0.830217000000000    0.271592000000000 
K           0.660433000000000    0.830217000000000    0.728408000000000 
%ENDBLOCK POSITIONS_FRAC
