# Cell file generated by matador (Matthew Evans 2016)

%BLOCK LATTICE_CART
6.04138 0.0 0.0
-3.02069 5.23199 0.0
0.0 0.0 8.47191
%ENDBLOCK LATTICE_CART

%BLOCK POSITIONS_FRAC
P          -0.000000000000000    0.500000000000000    0.819652000000000 
P           0.333333000000000    0.666667000000000    0.310785000000000 
P           0.500000000000000    0.000000000000000    0.819652000000000 
P           0.500000000000000    0.500000000000000    0.819652000000000 
P           0.666667000000000    0.333333000000000    0.310785000000000 
K          -0.000000000000000    0.000000000000000    0.144870000000000 
K          -0.000000000000000    0.500000000000000    0.155528000000000 
K           0.333333000000000    0.666667000000000    0.992745000000000 
K           0.500000000000000    0.000000000000000    0.155528000000000 
K           0.500000000000000    0.500000000000000    0.155528000000000 
K           0.666667000000000    0.333333000000000    0.992745000000000 
%ENDBLOCK POSITIONS_FRAC
