# Cell file generated by matador (Matthew Evans 2016)

%BLOCK LATTICE_CART
7.43957 0.0 0.0
1.85649 5.02883 0.0
1.20738 -1.32338 5.54151
%ENDBLOCK LATTICE_CART

%BLOCK POSITIONS_FRAC
P           0.000000000000000    0.500000000000000    0.500000000000000 
P           0.322373000000000    0.513481000000000    0.531219000000000 
P           0.500000000000000    0.000000000000000    0.000000000000000 
P           0.500000000000000    0.500000000000000    0.000000000000000 
P           0.677627000000000    0.486519000000000    0.468781000000000 
K           0.000000000000000    0.000000000000000    0.000000000000000 
K           0.032926000000000    0.317590000000000    0.902734000000000 
K           0.500000000000000    0.000000000000000    0.500000000000000 
K           0.967074000000000    0.682410000000000    0.097266000000000 
%ENDBLOCK POSITIONS_FRAC
