# Cell file generated by matador (Matthew Evans 2016)

%BLOCK LATTICE_CART
8.51793 0.0 0.0
-4.25897 7.37675 0.0
0.0 0.0 5.98723
%ENDBLOCK LATTICE_CART

%BLOCK POSITIONS_FRAC
P           0.224379000000000    0.448757000000000    0.860167000000000 
P           0.224379000000000    0.775621000000000    0.860167000000000 
P           0.551243000000000    0.775621000000000    0.860167000000000 
P           0.666667000000000    0.333333000000000    0.492595000000000 
K           0.000000000000000   -0.000000000000000    0.125015000000000 
K           0.216832000000000    0.108416000000000    0.419097000000000 
K           0.524110000000000    0.048219000000000    0.166564000000000 
K           0.524110000000000    0.475890000000000    0.166564000000000 
K           0.891584000000000    0.108416000000000    0.419097000000000 
K           0.891584000000000    0.783168000000000    0.419097000000000 
K           0.951781000000000    0.475890000000000    0.166564000000000 
%ENDBLOCK POSITIONS_FRAC
