# Cell file generated by matador (Matthew Evans 2016)

%BLOCK LATTICE_CART
8.86818 0.0 0.0
-2.91445 5.18733 0.0
-0.0630676 -3.9858 8.78851
%ENDBLOCK LATTICE_CART

%BLOCK POSITIONS_FRAC
P           0.000000000000000    0.500000000000000    0.000000000000000 
P           0.175919000000000    0.625713000000000    0.918874000000000 
P           0.264553000000000    0.566831000000000    0.450414000000000 
P           0.372082000000000    0.477290000000000    0.322793000000000 
P           0.387559000000000    0.095751000000000    0.358505000000000 
P           0.387776000000000    0.445438000000000    0.174795000000000 
P           0.423371000000000    0.680097000000000    0.736805000000000 
P           0.500000000000000    0.500000000000000    0.500000000000000 
P           0.576629000000000    0.319903000000000    0.263195000000000 
P           0.612224000000000    0.554562000000000    0.825205000000000 
P           0.612441000000000    0.904249000000000    0.641495000000000 
P           0.627918000000000    0.522710000000000    0.677207000000000 
P           0.735447000000000    0.433169000000000    0.549586000000000 
P           0.824081000000000    0.374287000000000    0.081126000000000 
K           0.000000000000000    0.000000000000000    0.000000000000000 
K           0.356720000000000    0.039338000000000    0.686826000000000 
K           0.500000000000000    0.000000000000000    0.000000000000000 
K           0.500000000000000    0.000000000000000    0.500000000000000 
K           0.500000000000000    0.500000000000000    0.000000000000000 
K           0.643280000000000    0.960662000000000    0.313174000000000 
%ENDBLOCK POSITIONS_FRAC
