# Cell file generated by matador (Matthew Evans 2016)

%BLOCK LATTICE_CART
6.48044 0.0 0.0
-3.24022 5.61223 0.0
0.0 0.0 11.006
%ENDBLOCK LATTICE_CART

%BLOCK POSITIONS_FRAC
P           0.000000000000000    0.000000000000000    0.553059000000000 
P           0.000000000000000    0.143341000000000    0.378748000000000 
P           0.000000000000000    0.577133000000000    0.995881000000000 
P           0.143341000000000    0.000000000000000    0.378748000000000 
P           0.333333000000000    0.666667000000000    0.223188000000000 
P           0.422867000000000    0.422867000000000    0.995881000000000 
P           0.577133000000000    0.000000000000000    0.995881000000000 
P           0.666667000000000    0.333333000000000    0.223188000000000 
P           0.856659000000000    0.856659000000000    0.378748000000000 
K           0.000000000000000    0.000000000000000    0.078676000000000 
K           0.333333000000000    0.666667000000000    0.729609000000000 
K           0.666667000000000    0.333333000000000    0.729609000000000 
%ENDBLOCK POSITIONS_FRAC
