# Cell file generated by matador (Matthew Evans 2016)

%BLOCK LATTICE_CART
7.4783 0.0 0.0
0.0 7.4783 0.0
0.0 0.0 5.93607
%ENDBLOCK LATTICE_CART

%BLOCK POSITIONS_FRAC
P           0.000000000000000    0.000000000000000    0.500000000000000 
P           0.037185000000000    0.265113000000000    0.336446000000000 
P           0.100878000000000    0.899122000000000    0.000000000000000 
P           0.234887000000000    0.537185000000000    0.836446000000000 
P           0.265113000000000    0.037185000000000    0.663554000000000 
P           0.399122000000000    0.399122000000000    0.500000000000000 
P           0.462815000000000    0.765113000000000    0.163554000000000 
P           0.500000000000000    0.500000000000000    0.000000000000000 
P           0.537185000000000    0.234887000000000    0.163554000000000 
P           0.600878000000000    0.600878000000000    0.500000000000000 
P           0.734887000000000    0.962815000000000    0.663554000000000 
P           0.765113000000000    0.462815000000000    0.836446000000000 
P           0.899122000000000    0.100878000000000    0.000000000000000 
P           0.962815000000000    0.734887000000000    0.336446000000000 
K           0.213329000000000    0.213329000000000    0.000000000000000 
K           0.286671000000000    0.713329000000000    0.500000000000000 
K           0.713329000000000    0.286671000000000    0.500000000000000 
K           0.786671000000000    0.786671000000000    0.000000000000000 
%ENDBLOCK POSITIONS_FRAC
