# Cell file generated by matador (Matthew Evans 2016)

%BLOCK LATTICE_CART
7.80278 0.0 0.0
0.0 7.80278 0.0
0.0 0.0 7.80278
%ENDBLOCK LATTICE_CART

%BLOCK POSITIONS_FRAC
P           0.000000000000000    0.396787000000000    0.500000000000000 
P           0.000000000000000    0.603213000000000    0.500000000000000 
P           0.396787000000000    0.500000000000000    0.000000000000000 
P           0.500000000000000    0.000000000000000    0.396787000000000 
P           0.500000000000000    0.000000000000000    0.603213000000000 
P           0.603213000000000    0.500000000000000    0.000000000000000 
K           0.000000000000000    0.000000000000000    0.000000000000000 
K           0.000000000000000    0.000000000000000    0.500000000000000 
K           0.000000000000000    0.500000000000000    0.000000000000000 
K           0.352015000000000    0.352015000000000    0.647985000000000 
K           0.352015000000000    0.647985000000000    0.352015000000000 
K           0.500000000000000    0.000000000000000    0.000000000000000 
K           0.500000000000000    0.500000000000000    0.500000000000000 
K           0.647985000000000    0.352015000000000    0.352015000000000 
K           0.647985000000000    0.647985000000000    0.647985000000000 
%ENDBLOCK POSITIONS_FRAC
