# Cell file generated by matador (Matthew Evans 2016)

%BLOCK LATTICE_CART
7.13192 0.0 0.0
-3.56596 6.17642 0.0
0.0 0.0 8.02363
%ENDBLOCK LATTICE_CART

%BLOCK POSITIONS_FRAC
P           0.588787000000000    0.177574000000000    0.281445000000000 
P           0.588787000000000    0.177574000000000    0.718555000000000 
P           0.588787000000000    0.411213000000000    0.281445000000000 
P           0.588787000000000    0.411213000000000    0.718555000000000 
P           0.666667000000000    0.333333000000000    0.000000000000000 
P           0.822426000000000    0.411213000000000    0.281445000000000 
P           0.822426000000000    0.411213000000000    0.718555000000000 
K           0.000000000000000    0.000000000000000    0.000000000000000 
K           0.000000000000000    0.000000000000000    0.500000000000000 
K           0.333333000000000    0.666667000000000    0.000000000000000 
K           0.333333000000000    0.666667000000000    0.500000000000000 
K           0.666667000000000    0.333333000000000    0.500000000000000 
%ENDBLOCK POSITIONS_FRAC
