# Cell file generated by matador (Matthew Evans 2016)

%BLOCK LATTICE_CART
10.5743 0.0 0.0
0.0 7.19749 0.0
-2.08384 0.0 7.01605
%ENDBLOCK LATTICE_CART

%BLOCK POSITIONS_FRAC
P           0.167177000000000    0.247658000000000    0.537923000000000 
P           0.167177000000000    0.752342000000000    0.537923000000000 
P           0.186441000000000    0.103205000000000    0.353092000000000 
P           0.186441000000000    0.896795000000000    0.353092000000000 
P           0.254161000000000    0.229902000000000    0.887488000000000 
P           0.254161000000000    0.770098000000000    0.887488000000000 
P           0.667177000000000    0.252342000000000    0.537923000000000 
P           0.667177000000000    0.747658000000000    0.537923000000000 
P           0.686441000000000    0.396795000000000    0.353092000000000 
P           0.686441000000000    0.603205000000000    0.353092000000000 
P           0.754161000000000    0.270098000000000    0.887488000000000 
P           0.754161000000000    0.729902000000000    0.887488000000000 
K           0.084791000000000   -0.000000000000000    0.013435000000000 
K           0.584791000000000    0.500000000000000    0.013435000000000 
%ENDBLOCK POSITIONS_FRAC
