# Cell file generated by matador (Matthew Evans 2016)

%BLOCK LATTICE_CART
8.16818 0.0 0.0
-4.08409 7.07385 0.0
0.0 0.0 7.02982
%ENDBLOCK LATTICE_CART

%BLOCK POSITIONS_FRAC
P           0.000000000000000    0.000000000000000    0.287597000000000 
P           0.000000000000000    0.000000000000000    0.822373000000000 
P           0.666667000000000    0.333333000000000    0.194213000000000 
P           0.666667000000000    0.333333000000000    0.390204000000000 
P           0.666667000000000    0.333333000000000    0.681348000000000 
K           0.239661000000000    0.004124000000000    0.928338000000000 
K           0.351051000000000    0.331439000000000    0.739067000000000 
K           0.668561000000000    0.019612000000000    0.739067000000000 
K           0.764464000000000    0.760339000000000    0.928338000000000 
K           0.980388000000000    0.648949000000000    0.739067000000000 
K           0.995876000000000    0.235536000000000    0.928338000000000 
%ENDBLOCK POSITIONS_FRAC
