# Cell file generated by matador (Matthew Evans 2016)

%BLOCK LATTICE_CART
9.43353 0.0 0.0
-4.71677 8.16968 0.0
0.0 0.0 7.34148
%ENDBLOCK LATTICE_CART

%BLOCK POSITIONS_FRAC
P           0.333333000000000    0.666667000000000    0.229277000000000 
P           0.333333000000000    0.666667000000000    0.770723000000000 
P           0.666666000000000    0.333334000000000    0.229277000000000 
P           0.666666000000000    0.333334000000000    0.770723000000000 
K          -0.000000000000000    0.000000000000000    0.500000000000000 
K          -0.000000000000000    0.292277000000000    0.500000000000000 
K           0.213428000000000    0.700525000000000    0.000000000000000 
K           0.292277000000000    0.000000000000000    0.500000000000000 
K           0.299475000000000    0.512903000000000    0.000000000000000 
K           0.333333000000000    0.666667000000000    0.500000000000000 
K           0.487097000000000    0.786572000000000    0.000000000000000 
K           0.512903000000000    0.299475000000000    0.000000000000000 
K           0.666666000000000    0.333334000000000    0.500000000000000 
K           0.700525000000000    0.213428000000000    0.000000000000000 
K           0.707723000000000    0.707723000000000    0.500000000000000 
K           0.786572000000000    0.487097000000000    0.000000000000000 
%ENDBLOCK POSITIONS_FRAC
