# Cell file generated by matador (Matthew Evans 2016)

%BLOCK LATTICE_CART
10.3042 0.0 0.0
-5.15212 8.92373 0.0
0.0 0.0 5.25235
%ENDBLOCK LATTICE_CART

%BLOCK POSITIONS_FRAC
P           0.000000000000000    0.000000000000000    0.318728000000000 
P           0.000000000000000    0.000000000000000    0.500000000000000 
P           0.000000000000000    0.000000000000000    0.681272000000000 
P           0.555165000000000    0.277583000000000    0.500000000000000 
P           0.722417000000000    0.277583000000000    0.500000000000000 
P           0.722417000000000    0.444835000000000    0.500000000000000 
K           0.025108000000000    0.195863000000000    0.796067000000000 
K           0.025108000000000    0.829245000000000    0.203933000000000 
K           0.170755000000000    0.195863000000000    0.203933000000000 
K           0.170755000000000    0.974892000000000    0.796067000000000 
K           0.666667000000000    0.333333000000000    0.000000000000000 
K           0.804137000000000    0.829245000000000    0.796067000000000 
K           0.804137000000000    0.974892000000000    0.203933000000000 
%ENDBLOCK POSITIONS_FRAC
