# Cell file generated by matador (Matthew Evans 2016)

%BLOCK LATTICE_CART
8.47811 0.0 0.0
-4.23905 7.34226 0.0
0.0 0.0 7.4399
%ENDBLOCK LATTICE_CART

%BLOCK POSITIONS_FRAC
P           0.000000000000000    0.261376000000000    0.500000000000000 
P           0.000000000000000    0.738624000000000    0.500000000000000 
P           0.261376000000000    0.000000000000000    0.500000000000000 
P           0.261376000000000    0.261376000000000    0.500000000000000 
P           0.333333000000000    0.666667000000000    0.214436000000000 
P           0.666667000000000    0.333333000000000    0.785564000000000 
P           0.738624000000000    0.000000000000000    0.500000000000000 
P           0.738624000000000    0.738624000000000    0.500000000000000 
K           0.000000000000000    0.000000000000000    0.000000000000000 
K           0.000000000000000    0.000000000000000    0.500000000000000 
K           0.000000000000000    0.500000000000000    0.000000000000000 
K           0.000000000000000    0.500000000000000    0.500000000000000 
K           0.333333000000000    0.666667000000000    0.948323000000000 
K           0.500000000000000    0.000000000000000    0.000000000000000 
K           0.500000000000000    0.000000000000000    0.500000000000000 
K           0.500000000000000    0.500000000000000    0.000000000000000 
K           0.500000000000000    0.500000000000000    0.500000000000000 
K           0.666667000000000    0.333333000000000    0.051677000000000 
%ENDBLOCK POSITIONS_FRAC
