# Cell file generated by matador (Matthew Evans 2016)

%BLOCK LATTICE_CART
6.22409 0.0 0.0
0.407251 5.57232 0.0
-3.51379 -0.675236 6.05098
%ENDBLOCK LATTICE_CART

%BLOCK POSITIONS_FRAC
P           0.007904000000000    0.810470000000000    0.852375000000000 
P           0.360603000000000    0.329339000000000    0.440214000000000 
P           0.500000000000000    0.000000000000000    0.500000000000000 
P           0.639397000000000    0.670661000000000    0.559786000000000 
P           0.992096000000000    0.189530000000000    0.147625000000000 
K           0.103782000000000    0.391927000000000    0.879139000000000 
K           0.896218000000000    0.608073000000000    0.120861000000000 
%ENDBLOCK POSITIONS_FRAC
