# Cell file generated by matador (Matthew Evans 2016)

%BLOCK LATTICE_CART
9.16493 0.0 0.0
-4.58247 7.93706 0.0
0.0 0.0 6.3462
%ENDBLOCK LATTICE_CART

%BLOCK POSITIONS_FRAC
P          -0.000000000000000    0.000000000000000    0.685904000000000 
P           0.333333000000000    0.666667000000000    0.352570000000000 
P           0.666667000000000    0.333333000000000    0.019237000000000 
K           0.203323000000000    0.406647000000000    0.614027000000000 
K           0.203323000000000    0.796677000000000    0.614027000000000 
K           0.260020000000000    0.130010000000000    0.947361000000000 
K           0.536657000000000    0.073313000000000    0.280694000000000 
K           0.536657000000000    0.463343000000000    0.280694000000000 
K           0.593353000000000    0.796677000000000    0.614027000000000 
K           0.869990000000000    0.130010000000000    0.947361000000000 
K           0.869990000000000    0.739980000000000    0.947361000000000 
K           0.926687000000000    0.463343000000000    0.280694000000000 
%ENDBLOCK POSITIONS_FRAC
