# Cell file generated by matador (Matthew Evans 2016)

%BLOCK LATTICE_CART
7.56814 0.0 0.0
0.0 6.59078 0.0
0.0 0.0 7.5714
%ENDBLOCK LATTICE_CART

%BLOCK POSITIONS_FRAC
P           0.000000000000000    0.000000000000000    0.717233000000000 
P           0.000000000000000    0.500000000000000    0.217233000000000 
P           0.316862000000000    0.720253000000000    0.974343000000000 
P           0.316862000000000    0.779747000000000    0.474343000000000 
P           0.683138000000000    0.220253000000000    0.474343000000000 
P           0.683138000000000    0.279747000000000    0.974343000000000 
K           0.241396000000000    0.003415000000000    0.125160000000000 
K           0.241396000000000    0.496585000000000    0.625160000000000 
K           0.500000000000000    0.000000000000000    0.616804000000000 
K           0.500000000000000    0.500000000000000    0.116804000000000 
K           0.758604000000000    0.503415000000000    0.625160000000000 
K           0.758604000000000    0.996585000000000    0.125160000000000 
%ENDBLOCK POSITIONS_FRAC
