# Cell file generated by matador (Matthew Evans 2016)

%BLOCK LATTICE_CART
6.46723 0.0 0.0
1.65515 4.98595 0.0
3.9717 2.40077 9.02202
%ENDBLOCK LATTICE_CART

%BLOCK POSITIONS_FRAC
P           0.500000000000000    0.000000000000000    0.500000000000000 
K           0.000000000000000    0.000000000000000    0.000000000000000 
K           0.166285000000000    0.911835000000000    0.722202000000000 
K           0.500000000000000    0.000000000000000    0.000000000000000 
K           0.500000000000000    0.500000000000000    0.000000000000000 
K           0.500000000000000    0.500000000000000    0.500000000000000 
K           0.833715000000000    0.088165000000000    0.277798000000000 
%ENDBLOCK POSITIONS_FRAC
