# Cell file generated by matador (Matthew Evans 2016)

%BLOCK LATTICE_CART
11.2398 0.0 0.0
0.0 8.50783 0.0
-0.409344 0.0 6.76716
%ENDBLOCK LATTICE_CART

%BLOCK POSITIONS_FRAC
P           0.146444000000000    0.500000000000000    0.765339000000000 
P           0.424514000000000    0.500000000000000    0.254627000000000 
P           0.646444000000000    0.000000000000000    0.765339000000000 
P           0.924514000000000    0.000000000000000    0.254627000000000 
K           0.042348000000000    0.500000000000000    0.342138000000000 
K           0.069273000000000    0.000000000000000    0.991131000000000 
K           0.164653000000000    0.000000000000000    0.572501000000000 
K           0.256878000000000    0.500000000000000    0.095624000000000 
K           0.371185000000000    0.500000000000000    0.531034000000000 
K           0.397092000000000    0.000000000000000    0.824216000000000 
K           0.542348000000000    0.000000000000000    0.342138000000000 
K           0.569273000000000    0.500000000000000    0.991131000000000 
K           0.664653000000000    0.500000000000000    0.572501000000000 
K           0.756878000000000    0.000000000000000    0.095624000000000 
K           0.871185000000000    0.000000000000000    0.531034000000000 
K           0.897092000000000    0.500000000000000    0.824216000000000 
%ENDBLOCK POSITIONS_FRAC
