# Cell file generated by matador (Matthew Evans 2016)

%BLOCK LATTICE_CART
6.30769 -0.0 0.0
-3.15385 5.46262 0.0
0.0 0.0 5.79999
%ENDBLOCK LATTICE_CART

%BLOCK POSITIONS_FRAC
P           0.180371000000000    0.722465000000000    0.079632000000000 
P           0.277535000000000    0.457906000000000    0.079632000000000 
P           0.333333000000000    0.666667000000000    0.097264000000000 
P           0.333333000000000    0.666667000000000    0.885615000000000 
P           0.542094000000000    0.819629000000000    0.079632000000000 
K           0.000000000000000    0.000000000000000    0.416503000000000 
K           0.666667000000000    0.333333000000000    0.694375000000000 
%ENDBLOCK POSITIONS_FRAC
