# Cell file generated by matador (Matthew Evans 2016)

%BLOCK LATTICE_CART
5.95526 0.0 0.0
-2.97763 5.15741 0.0
0.0 0.0 7.99791
%ENDBLOCK LATTICE_CART

%BLOCK POSITIONS_FRAC
P           0.333333000000000    0.666667000000000    0.000000000000000 
P           0.666666000000000    0.333334000000000    0.000000000000000 
K          -0.000000000000000    0.000000000000000    0.000000000000000 
K          -0.000000000000000    0.702459000000000    0.342055000000000 
K          -0.000000000000000    0.702459000000000    0.657945000000000 
K           0.297541000000000    0.297541000000000    0.342055000000000 
K           0.297541000000000    0.297541000000000    0.657945000000000 
K           0.702459000000000    0.000000000000000    0.342055000000000 
K           0.702459000000000    0.000000000000000    0.657945000000000 
%ENDBLOCK POSITIONS_FRAC
