# Cell file generated by matador (Matthew Evans 2016)

%BLOCK LATTICE_CART
7.81228 0.0 0.0
0.0 7.81228 0.0
0.0 0.0 8.90066
%ENDBLOCK LATTICE_CART

%BLOCK POSITIONS_FRAC
P           0.058785000000000    0.170347000000000    0.780655000000000 
P           0.170347000000000    0.941215000000000    0.780655000000000 
P           0.329653000000000    0.441215000000000    0.780655000000000 
P           0.441215000000000    0.670347000000000    0.780655000000000 
P           0.558785000000000    0.329653000000000    0.780655000000000 
P           0.670347000000000    0.558785000000000    0.780655000000000 
P           0.829653000000000    0.058785000000000    0.780655000000000 
P           0.941215000000000    0.829653000000000    0.780655000000000 
K           0.000000000000000    0.500000000000000    0.555387000000000 
K           0.135926000000000    0.635926000000000    0.898551000000000 
K           0.235046000000000    0.735046000000000    0.254353000000000 
K           0.264954000000000    0.235046000000000    0.254353000000000 
K           0.364074000000000    0.135926000000000    0.898551000000000 
K           0.500000000000000    0.000000000000000    0.555387000000000 
K           0.635926000000000    0.864074000000000    0.898551000000000 
K           0.735046000000000    0.764954000000000    0.254353000000000 
K           0.764954000000000    0.264954000000000    0.254353000000000 
K           0.864074000000000    0.364074000000000    0.898551000000000 
%ENDBLOCK POSITIONS_FRAC
