# Cell file generated by matador (Matthew Evans 2016)

%BLOCK LATTICE_CART
9.0421 0.0 0.0
-4.52105 7.83069 0.0
0.0 0.0 7.89274
%ENDBLOCK LATTICE_CART

%BLOCK POSITIONS_FRAC
P           0.172502000000000    0.377683000000000    0.219753000000000 
P           0.205181000000000    0.827498000000000    0.219753000000000 
P           0.333333000000000    0.666667000000000    0.146663000000000 
P           0.333333000000000    0.666667000000000    0.415539000000000 
P           0.377683000000000    0.205181000000000    0.719753000000000 
P           0.622317000000000    0.794819000000000    0.219753000000000 
P           0.666667000000000    0.333333000000000    0.646663000000000 
P           0.666667000000000    0.333333000000000    0.915539000000000 
P           0.794819000000000    0.172502000000000    0.719753000000000 
P           0.827498000000000    0.622317000000000    0.719753000000000 
K           0.000000000000000    0.000000000000000    0.210683000000000 
K           0.000000000000000    0.000000000000000    0.710683000000000 
K           0.022427000000000    0.534557000000000    0.705938000000000 
K           0.465443000000000    0.487870000000000    0.705938000000000 
K           0.487870000000000    0.022427000000000    0.205938000000000 
K           0.512130000000000    0.977573000000000    0.705938000000000 
K           0.534557000000000    0.512130000000000    0.205938000000000 
K           0.977573000000000    0.465443000000000    0.205938000000000 
%ENDBLOCK POSITIONS_FRAC
