# Cell file generated by matador (Matthew Evans 2016)

%BLOCK LATTICE_CART
6.38153 0.0 0.0
0.0 6.38153 0.0
0.0 0.0 6.38153
%ENDBLOCK LATTICE_CART

%BLOCK POSITIONS_FRAC
P           0.000000000000000    0.000000000000000    0.000000000000000 
P           0.000000000000000    0.000000000000000    0.500000000000000 
P           0.000000000000000    0.500000000000000    0.000000000000000 
P           0.000000000000000    0.500000000000000    0.500000000000000 
P           0.500000000000000    0.000000000000000    0.000000000000000 
P           0.500000000000000    0.000000000000000    0.500000000000000 
P           0.500000000000000    0.500000000000000    0.000000000000000 
K           0.206540000000000    0.206540000000000    0.206540000000000 
K           0.206540000000000    0.793460000000000    0.793460000000000 
K           0.500000000000000    0.500000000000000    0.500000000000000 
K           0.793460000000000    0.206540000000000    0.793460000000000 
K           0.793460000000000    0.793460000000000    0.206540000000000 
%ENDBLOCK POSITIONS_FRAC
