# Cell file generated by matador (Matthew Evans 2016)

%BLOCK LATTICE_CART
7.13849 0.0 0.0
-3.56924 6.18211 0.0
0.0 0.0 6.07583
%ENDBLOCK LATTICE_CART

%BLOCK POSITIONS_FRAC
P          -0.000000000000000   -0.000000000000000    0.345741000000000 
P          -0.000000000000000   -0.000000000000000    0.917535000000000 
P           0.309528000000000    0.205565000000000    0.723895000000000 
P           0.333333000000000    0.666667000000000    0.000241000000000 
P           0.666667000000000    0.333333000000000    0.210904000000000 
P           0.794435000000000    0.103963000000000    0.723895000000000 
P           0.896037000000000    0.690472000000000    0.723895000000000 
K           0.195261000000000    0.728901000000000    0.623191000000000 
K           0.271099000000000    0.466360000000000    0.623191000000000 
K           0.533640000000000    0.804739000000000    0.623191000000000 
K           0.666667000000000    0.333333000000000    0.735342000000000 
%ENDBLOCK POSITIONS_FRAC
