# Cell file generated by matador (Matthew Evans 2016)

%BLOCK LATTICE_CART
10.7488 0.0 0.0
0.0 5.05522 0.0
0.0 0.0 6.62909
%ENDBLOCK LATTICE_CART

%BLOCK POSITIONS_FRAC
P           0.000000000000000    0.000000000000000    0.891659000000000 
P           0.000000000000000    0.500000000000000    0.618252000000000 
P           0.000000000000000    0.500000000000000    0.807953000000000 
P           0.500000000000000    0.000000000000000    0.118252000000000 
P           0.500000000000000    0.000000000000000    0.307953000000000 
P           0.500000000000000    0.500000000000000    0.391659000000000 
K           0.000000000000000    0.500000000000000    0.159226000000000 
K           0.208006000000000    0.561337000000000    0.671337000000000 
K           0.291994000000000    0.061337000000000    0.171337000000000 
K           0.500000000000000    0.000000000000000    0.659226000000000 
K           0.708006000000000    0.938663000000000    0.171337000000000 
K           0.791994000000000    0.438663000000000    0.671337000000000 
%ENDBLOCK POSITIONS_FRAC
