# Cell file generated by matador (Matthew Evans 2016)

%BLOCK LATTICE_CART
8.01906 0.0 0.0
0.0 8.24147 0.0
0.0 0.0 6.65564
%ENDBLOCK LATTICE_CART

%BLOCK POSITIONS_FRAC
P           0.000000000000000    0.000000000000000    0.000000000000000 
P           0.000000000000000    0.132097000000000    0.000000000000000 
P           0.000000000000000    0.500000000000000    0.000000000000000 
P           0.000000000000000    0.867903000000000    0.000000000000000 
P           0.500000000000000    0.000000000000000    0.000000000000000 
P           0.500000000000000    0.000000000000000    0.500000000000000 
K           0.000000000000000    0.000000000000000    0.500000000000000 
K           0.000000000000000    0.500000000000000    0.500000000000000 
K           0.140834000000000    0.311335000000000    0.583400000000000 
K           0.140834000000000    0.688665000000000    0.416600000000000 
K           0.500000000000000    0.500000000000000    0.000000000000000 
K           0.859166000000000    0.311335000000000    0.416600000000000 
K           0.859166000000000    0.688665000000000    0.583400000000000 
%ENDBLOCK POSITIONS_FRAC
