# Cell file generated by matador (Matthew Evans 2016)

%BLOCK LATTICE_CART
8.13433 0.0 0.0
0.0 8.13433 0.0
0.0 0.0 8.13433
%ENDBLOCK LATTICE_CART

%BLOCK POSITIONS_FRAC
P           0.000000000000000    0.000000000000000    0.000000000000000 
P           0.075385000000000    0.075385000000000    0.075385000000000 
P           0.075385000000000    0.924615000000000    0.924615000000000 
P           0.424615000000000    0.424615000000000    0.424615000000000 
P           0.424615000000000    0.575385000000000    0.575385000000000 
P           0.500000000000000    0.500000000000000    0.500000000000000 
P           0.575385000000000    0.424615000000000    0.575385000000000 
P           0.575385000000000    0.575385000000000    0.424615000000000 
P           0.924615000000000    0.075385000000000    0.924615000000000 
P           0.924615000000000    0.924615000000000    0.075385000000000 
K           0.250000000000000    0.250000000000000    0.250000000000000 
K           0.250000000000000    0.250000000000000    0.750000000000000 
K           0.250000000000000    0.750000000000000    0.250000000000000 
K           0.250000000000000    0.750000000000000    0.750000000000000 
K           0.750000000000000    0.250000000000000    0.250000000000000 
K           0.750000000000000    0.250000000000000    0.750000000000000 
K           0.750000000000000    0.750000000000000    0.250000000000000 
K           0.750000000000000    0.750000000000000    0.750000000000000 
%ENDBLOCK POSITIONS_FRAC
