# Cell file generated by matador (Matthew Evans 2016)

%BLOCK LATTICE_CART
10.9066 0.0 0.0
0.0 10.9066 0.0
0.0 0.0 10.8581
%ENDBLOCK LATTICE_CART

%BLOCK POSITIONS_FRAC
P           0.000000000000000    0.250000000000000    0.372491000000000 
P           0.000000000000000    0.250000000000000    0.877509000000000 
P           0.000000000000000    0.750000000000000    0.122491000000000 
P           0.000000000000000    0.750000000000000    0.627509000000000 
P           0.500000000000000    0.250000000000000    0.127509000000000 
P           0.500000000000000    0.250000000000000    0.622491000000000 
P           0.500000000000000    0.750000000000000    0.377509000000000 
P           0.500000000000000    0.750000000000000    0.872491000000000 
K           0.000000000000000    0.000000000000000    0.000000000000000 
K           0.000000000000000    0.000000000000000    0.500000000000000 
K           0.000000000000000    0.250000000000000    0.125000000000000 
K           0.000000000000000    0.250000000000000    0.625000000000000 
K           0.000000000000000    0.500000000000000    0.000000000000000 
K           0.000000000000000    0.500000000000000    0.500000000000000 
K           0.000000000000000    0.750000000000000    0.375000000000000 
K           0.000000000000000    0.750000000000000    0.875000000000000 
K           0.250000000000000    0.250000000000000    0.250000000000000 
K           0.250000000000000    0.250000000000000    0.750000000000000 
K           0.250000000000000    0.750000000000000    0.250000000000000 
K           0.250000000000000    0.750000000000000    0.750000000000000 
K           0.500000000000000    0.000000000000000    0.000000000000000 
K           0.500000000000000    0.000000000000000    0.500000000000000 
K           0.500000000000000    0.250000000000000    0.375000000000000 
K           0.500000000000000    0.250000000000000    0.875000000000000 
K           0.500000000000000    0.500000000000000    0.000000000000000 
K           0.500000000000000    0.500000000000000    0.500000000000000 
K           0.500000000000000    0.750000000000000    0.125000000000000 
K           0.500000000000000    0.750000000000000    0.625000000000000 
K           0.750000000000000    0.250000000000000    0.250000000000000 
K           0.750000000000000    0.250000000000000    0.750000000000000 
K           0.750000000000000    0.750000000000000    0.250000000000000 
K           0.750000000000000    0.750000000000000    0.750000000000000 
%ENDBLOCK POSITIONS_FRAC
