# Cell file generated by matador (Matthew Evans 2016)

%BLOCK LATTICE_CART
6.75111 0.0 0.0
-3.37555 5.84663 0.0
0.0 0.0 10.3401
%ENDBLOCK LATTICE_CART

%BLOCK POSITIONS_FRAC
P          -0.000000000000000   -0.000000000000000    0.000000000000000 
P          -0.000000000000000   -0.000000000000000    0.279094000000000 
P          -0.000000000000000   -0.000000000000000    0.500000000000000 
P          -0.000000000000000   -0.000000000000000    0.720906000000000 
P           0.229055000000000    0.579787000000000    0.000000000000000 
P           0.333333000000000    0.666667000000000    0.363035000000000 
P           0.333333000000000    0.666667000000000    0.636965000000000 
P           0.350733000000000    0.770945000000000    0.000000000000000 
P           0.420213000000000    0.649267000000000    0.000000000000000 
P           0.579787000000000    0.350733000000000    0.000000000000000 
P           0.649267000000000    0.229055000000000    0.000000000000000 
P           0.666667000000000    0.333333000000000    0.363035000000000 
P           0.666667000000000    0.333333000000000    0.636965000000000 
P           0.770945000000000    0.420213000000000    0.000000000000000 
K           0.043222000000000    0.729991000000000    0.000000000000000 
K           0.270009000000000    0.313231000000000    0.000000000000000 
K           0.313231000000000    0.043222000000000    0.000000000000000 
K           0.686769000000000    0.956778000000000    0.000000000000000 
K           0.729991000000000    0.686769000000000    0.000000000000000 
K           0.956778000000000    0.270009000000000    0.000000000000000 
%ENDBLOCK POSITIONS_FRAC
