# Cell file generated by matador (Matthew Evans 2016)

%BLOCK LATTICE_CART
7.84782 0.0 0.0
0.0 7.8176 0.0
0.0 0.0 5.73356
%ENDBLOCK LATTICE_CART

%BLOCK POSITIONS_FRAC
P           0.017298000000000    0.134824000000000    0.045815000000000 
P           0.017298000000000    0.865176000000000    0.545815000000000 
P           0.285713000000000    0.324848000000000    0.543593000000000 
P           0.285713000000000    0.675152000000000    0.043593000000000 
P           0.500000000000000    0.500000000000000    0.133305000000000 
P           0.500000000000000    0.500000000000000    0.633305000000000 
P           0.714287000000000    0.324848000000000    0.043593000000000 
P           0.714287000000000    0.675152000000000    0.543593000000000 
P           0.982702000000000    0.134824000000000    0.545815000000000 
P           0.982702000000000    0.865176000000000    0.045815000000000 
K           0.105127000000000    0.320082000000000    0.291425000000000 
K           0.105127000000000    0.679918000000000    0.791425000000000 
K           0.894873000000000    0.320082000000000    0.791425000000000 
K           0.894873000000000    0.679918000000000    0.291425000000000 
%ENDBLOCK POSITIONS_FRAC
