# Cell file generated by matador (Matthew Evans 2016)

%BLOCK LATTICE_CART
6.67992 0.0 0.0
-3.33996 5.78498 0.0
0.0 0.0 7.94748
%ENDBLOCK LATTICE_CART

%BLOCK POSITIONS_FRAC
P           0.000000000000000    0.000000000000000    0.252516000000000 
P           0.333333000000000    0.666667000000000    0.076363000000000 
K           0.000000000000000    0.000000000000000    0.816320000000000 
K           0.104568000000000    0.714579000000000    0.409588000000000 
K           0.285421000000000    0.389990000000000    0.409588000000000 
K           0.333333000000000    0.666667000000000    0.605489000000000 
K           0.610010000000000    0.895432000000000    0.409588000000000 
K           0.666667000000000    0.333333000000000    0.063089000000000 
%ENDBLOCK POSITIONS_FRAC
