# Cell file generated by matador (Matthew Evans 2016)

%BLOCK LATTICE_CART
10.251 0.0 0.0
0.0 8.79658 0.0
0.0 0.0 7.505
%ENDBLOCK LATTICE_CART

%BLOCK POSITIONS_FRAC
P           0.241846000000000    0.500000000000000    0.500000000000000 
P           0.758154000000000    0.500000000000000   -0.000000000000000 
K           0.000000000000000    0.453397000000000    0.250000000000000 
K           0.000000000000000    0.546603000000000    0.750000000000000 
K           0.028476000000000    0.000000000000000    0.500000000000000 
K           0.144503000000000    0.234223000000000    0.005628000000000 
K           0.144503000000000    0.765777000000000    0.994372000000000 
K           0.316628000000000    0.321437000000000    0.693228000000000 
K           0.316628000000000    0.678563000000000    0.306772000000000 
K           0.446822000000000    0.500000000000000   -0.000000000000000 
K           0.553178000000000    0.500000000000000    0.500000000000000 
K           0.683372000000000    0.321437000000000    0.806772000000000 
K           0.683372000000000    0.678563000000000    0.193228000000000 
K           0.855497000000000    0.234223000000000    0.494372000000000 
K           0.855497000000000    0.765777000000000    0.505628000000000 
K           0.971524000000000    0.000000000000000   -0.000000000000000 
%ENDBLOCK POSITIONS_FRAC
