# Cell file generated by matador (Matthew Evans 2016)

%BLOCK LATTICE_CART
7.74527 0.0 0.0
-3.87263 6.7076 0.0
0.0 0.0 8.68624
%ENDBLOCK LATTICE_CART

%BLOCK POSITIONS_FRAC
P          -0.000000000000000    0.000000000000000    0.142221000000000 
P          -0.000000000000000    0.000000000000000    0.370209000000000 
P           0.333333000000000    0.666667000000000    0.649696000000000 
P           0.342268000000000    0.006436000000000    0.679899000000000 
P           0.664167000000000    0.657732000000000    0.679899000000000 
P           0.666666000000000    0.333334000000000    0.021090000000000 
P           0.993564000000000    0.335833000000000    0.679899000000000 
K           0.333333000000000    0.666667000000000    0.994830000000000 
K           0.434185000000000    0.368420000000000    0.567045000000000 
K           0.631580000000000    0.065765000000000    0.567045000000000 
K           0.666666000000000    0.333334000000000    0.475354000000000 
K           0.934235000000000    0.565815000000000    0.567045000000000 
%ENDBLOCK POSITIONS_FRAC
