# Cell file generated by matador (Matthew Evans 2016)

%BLOCK LATTICE_CART
7.00637 -0.0 0.0
-3.50319 6.0677 0.0
0.0 0.0 10.401
%ENDBLOCK LATTICE_CART

%BLOCK POSITIONS_FRAC
P           0.000000000000000    0.500000000000000    0.000000000000000 
P           0.000000000000000    0.500000000000000    0.500000000000000 
P           0.005135000000000    0.585048000000000    0.250000000000000 
P           0.333333000000000    0.666667000000000    0.250000000000000 
P           0.414952000000000    0.420087000000000    0.250000000000000 
P           0.420087000000000    0.005135000000000    0.750000000000000 
P           0.500000000000000    0.000000000000000    0.000000000000000 
P           0.500000000000000    0.000000000000000    0.500000000000000 
P           0.500000000000000    0.500000000000000    0.000000000000000 
P           0.500000000000000    0.500000000000000    0.500000000000000 
P           0.579913000000000    0.994865000000000    0.250000000000000 
P           0.585048000000000    0.579913000000000    0.750000000000000 
P           0.666667000000000    0.333333000000000    0.750000000000000 
P           0.994865000000000    0.414952000000000    0.750000000000000 
K           0.000000000000000    0.000000000000000    0.250000000000000 
K           0.000000000000000    0.000000000000000    0.750000000000000 
K           0.333333000000000    0.666667000000000    0.750000000000000 
K           0.666667000000000    0.333333000000000    0.250000000000000 
%ENDBLOCK POSITIONS_FRAC
