# Cell file generated by matador (Matthew Evans 2016)

%BLOCK LATTICE_CART
7.84427 0.0 0.0
0.0 7.84427 0.0
0.0 0.0 7.84427
%ENDBLOCK LATTICE_CART

%BLOCK POSITIONS_FRAC
P           0.000000000000000    0.000000000000000    0.000000000000000 
P           0.229721000000000    0.419819000000000    0.487436000000000 
P           0.229721000000000    0.580181000000000    0.512564000000000 
P           0.419819000000000    0.487436000000000    0.229721000000000 
P           0.419819000000000    0.512564000000000    0.770279000000000 
P           0.487436000000000    0.229721000000000    0.419819000000000 
P           0.487436000000000    0.770279000000000    0.580181000000000 
P           0.500000000000000    0.500000000000000    0.500000000000000 
P           0.512564000000000    0.229721000000000    0.580181000000000 
P           0.512564000000000    0.770279000000000    0.419819000000000 
P           0.580181000000000    0.487436000000000    0.770279000000000 
P           0.580181000000000    0.512564000000000    0.229721000000000 
P           0.770279000000000    0.419819000000000    0.512564000000000 
P           0.770279000000000    0.580181000000000    0.487436000000000 
K           0.150524000000000    0.150524000000000    0.849476000000000 
K           0.150524000000000    0.849476000000000    0.150524000000000 
K           0.849476000000000    0.150524000000000    0.150524000000000 
K           0.849476000000000    0.849476000000000    0.849476000000000 
%ENDBLOCK POSITIONS_FRAC
