# Cell file generated by matador (Matthew Evans 2016)

%BLOCK LATTICE_CART
7.90886 0.0 0.0
-3.95443 6.84928 0.0
0.0 0.0 6.68703
%ENDBLOCK LATTICE_CART

%BLOCK POSITIONS_FRAC
P          -0.000000000000000    0.000000000000000    0.000000000000000 
P          -0.000000000000000    0.000000000000000    0.500000000000000 
P           0.081321000000000    0.542848000000000    0.000000000000000 
P           0.117524000000000    0.729314000000000    0.500000000000000 
P           0.270686000000000    0.388210000000000    0.500000000000000 
P           0.388210000000000    0.270686000000000    0.500000000000000 
P           0.457152000000000    0.538475000000000    0.000000000000000 
P           0.461525000000000    0.918679000000000    0.000000000000000 
P           0.538474000000000    0.457153000000000    0.000000000000000 
P           0.542847000000000    0.081322000000000    0.000000000000000 
P           0.611790000000000    0.882476000000000    0.500000000000000 
P           0.729314000000000    0.117524000000000    0.500000000000000 
P           0.882476000000000    0.611790000000000    0.500000000000000 
P           0.918678000000000    0.461526000000000    0.000000000000000 
K           0.333333000000000    0.666667000000000    0.500000000000000 
K           0.666666000000000    0.333334000000000    0.500000000000000 
%ENDBLOCK POSITIONS_FRAC
