# Cell file generated by matador (Matthew Evans 2016)

%BLOCK LATTICE_CART
6.87094 0.0 0.0
-3.43547 5.95041 0.0
0.0 0.0 8.92889
%ENDBLOCK LATTICE_CART

%BLOCK POSITIONS_FRAC
P          -0.000000000000000    0.000000000000000    0.237509000000000 
P          -0.000000000000000    0.000000000000000    0.762491000000000 
P           0.246624000000000    0.522933000000000    0.390410000000000 
P           0.276309000000000    0.753376000000000    0.390410000000000 
P           0.333333000000000    0.666667000000000    0.640751000000000 
P           0.333333000000000    0.666667000000000    0.826080000000000 
P           0.477067000000000    0.723691000000000    0.390410000000000 
P           0.522933000000000    0.276309000000000    0.609590000000000 
P           0.666666000000000    0.333334000000000    0.173920000000000 
P           0.666666000000000    0.333334000000000    0.359249000000000 
P           0.723691000000000    0.246624000000000    0.609590000000000 
P           0.753376000000000    0.477067000000000    0.609590000000000 
K           0.333333000000000    0.666667000000000    0.171315000000000 
K           0.666666000000000    0.333334000000000    0.828685000000000 
%ENDBLOCK POSITIONS_FRAC
