# Cell file generated by matador (Matthew Evans 2016)

%BLOCK LATTICE_CART
12.7208 0.0 0.0
0.0 8.29799 0.0
0.0 0.0 7.66941
%ENDBLOCK LATTICE_CART

%BLOCK POSITIONS_FRAC
P           0.170978000000000    0.000000000000000    0.532520000000000 
P           0.500000000000000    0.296955000000000    0.986065000000000 
P           0.500000000000000    0.500000000000000    0.287042000000000 
P           0.500000000000000    0.703045000000000    0.986065000000000 
P           0.829022000000000    0.000000000000000    0.532520000000000 
K           0.000000000000000    0.183584000000000    0.678097000000000 
K           0.000000000000000    0.316491000000000    0.306607000000000 
K           0.000000000000000    0.683509000000000    0.306607000000000 
K           0.000000000000000    0.816416000000000    0.678097000000000 
K           0.208561000000000    0.500000000000000    0.144867000000000 
K           0.245075000000000    0.000000000000000    0.286590000000000 
K           0.300285000000000    0.000000000000000    0.685183000000000 
K           0.500000000000000    0.000000000000000    0.951043000000000 
K           0.500000000000000    0.204686000000000    0.626625000000000 
K           0.500000000000000    0.260416000000000    0.242156000000000 
K           0.500000000000000    0.739584000000000    0.242156000000000 
K           0.500000000000000    0.795314000000000    0.626625000000000 
K           0.699715000000000    0.000000000000000    0.685183000000000 
K           0.754925000000000    0.000000000000000    0.286590000000000 
K           0.791439000000000    0.500000000000000    0.144867000000000 
%ENDBLOCK POSITIONS_FRAC
