# Cell file generated by matador (Matthew Evans 2016)

%BLOCK LATTICE_CART
5.54967 0.0 0.0
0.0 6.95467 0.0
0.0 0.0 4.7516
%ENDBLOCK LATTICE_CART

%BLOCK POSITIONS_FRAC
P           0.000000000000000    0.187582000000000    0.000000000000000 
P           0.000000000000000    0.812418000000000    0.000000000000000 
P           0.132943000000000    0.000000000000000    0.000000000000000 
P           0.500000000000000    0.000000000000000    0.104832000000000 
P           0.500000000000000    0.000000000000000    0.895168000000000 
P           0.867057000000000    0.000000000000000    0.000000000000000 
K           0.500000000000000    0.000000000000000    0.500000000000000 
%ENDBLOCK POSITIONS_FRAC
