# Cell file generated by matador (Matthew Evans 2016)

%BLOCK LATTICE_CART
8.38633 0.0 0.0
0.0 8.38633 0.0
0.0 0.0 6.50065
%ENDBLOCK LATTICE_CART

%BLOCK POSITIONS_FRAC
P           0.000000000000000    0.000000000000000    0.307662000000000 
P           0.000000000000000    0.000000000000000    0.692338000000000 
P           0.000000000000000    0.500000000000000    0.116810000000000 
P           0.000000000000000    0.500000000000000    0.383190000000000 
P           0.500000000000000    0.000000000000000    0.616810000000000 
P           0.500000000000000    0.000000000000000    0.883190000000000 
P           0.500000000000000    0.500000000000000    0.192338000000000 
P           0.500000000000000    0.500000000000000    0.807662000000000 
K           0.000000000000000    0.000000000000000    0.000000000000000 
K           0.093443000000000    0.593443000000000    0.750000000000000 
K           0.176184000000000    0.323816000000000    0.750000000000000 
K           0.323816000000000    0.823816000000000    0.250000000000000 
K           0.406557000000000    0.093443000000000    0.250000000000000 
K           0.500000000000000    0.500000000000000    0.500000000000000 
K           0.593443000000000    0.906557000000000    0.250000000000000 
K           0.676184000000000    0.176184000000000    0.250000000000000 
K           0.823816000000000    0.676184000000000    0.750000000000000 
K           0.906557000000000    0.406557000000000    0.750000000000000 
%ENDBLOCK POSITIONS_FRAC
