# Cell file generated by matador (Matthew Evans 2016)

%BLOCK LATTICE_CART
6.98506 0.0 0.0
0.0 6.98506 0.0
0.0 0.0 11.7984
%ENDBLOCK LATTICE_CART

%BLOCK POSITIONS_FRAC
P           0.000000000000000    0.000000000000000    0.000000000000000 
P           0.000000000000000    0.000000000000000    0.500000000000000 
P           0.500000000000000    0.500000000000000    0.000000000000000 
P           0.500000000000000    0.500000000000000    0.500000000000000 
K           0.000000000000000    0.500000000000000    0.250000000000000 
K           0.000000000000000    0.500000000000000    0.750000000000000 
K           0.148871000000000    0.148871000000000    0.363013000000000 
K           0.148871000000000    0.148871000000000    0.636987000000000 
K           0.351129000000000    0.648871000000000    0.136987000000000 
K           0.351129000000000    0.648871000000000    0.863013000000000 
K           0.500000000000000    0.000000000000000    0.250000000000000 
K           0.500000000000000    0.000000000000000    0.750000000000000 
K           0.648871000000000    0.351129000000000    0.136987000000000 
K           0.648871000000000    0.351129000000000    0.863013000000000 
K           0.851129000000000    0.851129000000000    0.363013000000000 
K           0.851129000000000    0.851129000000000    0.636987000000000 
%ENDBLOCK POSITIONS_FRAC
