# Cell file generated by matador (Matthew Evans 2016)

%BLOCK LATTICE_CART
10.3594 0.0 0.0
0.0 10.3594 0.0
0.0 0.0 12.041
%ENDBLOCK LATTICE_CART

%BLOCK POSITIONS_FRAC
P           0.129590000000000    0.291117000000000    0.176669000000000 
P           0.129590000000000    0.708883000000000    0.176669000000000 
P           0.291117000000000    0.129590000000000    0.176669000000000 
P           0.291117000000000    0.870410000000000    0.176669000000000 
P           0.708883000000000    0.129590000000000    0.176669000000000 
P           0.708883000000000    0.870410000000000    0.176669000000000 
P           0.870410000000000    0.291117000000000    0.176669000000000 
P           0.870410000000000    0.708883000000000    0.176669000000000 
K           0.000000000000000    0.500000000000000    0.485517000000000 
K           0.143147000000000    0.500000000000000    0.860087000000000 
K           0.150007000000000    0.150007000000000    0.708526000000000 
K           0.150007000000000    0.849993000000000    0.708526000000000 
K           0.218450000000000    0.500000000000000    0.097973000000000 
K           0.229187000000000    0.500000000000000    0.340348000000000 
K           0.234648000000000    0.500000000000000    0.626020000000000 
K           0.500000000000000    0.000000000000000    0.485517000000000 
K           0.500000000000000    0.143147000000000    0.860087000000000 
K           0.500000000000000    0.218450000000000    0.097973000000000 
K           0.500000000000000    0.229187000000000    0.340348000000000 
K           0.500000000000000    0.234648000000000    0.626020000000000 
K           0.500000000000000    0.500000000000000    0.150813000000000 
K           0.500000000000000    0.500000000000000    0.413827000000000 
K           0.500000000000000    0.765352000000000    0.626020000000000 
K           0.500000000000000    0.770813000000000    0.340348000000000 
K           0.500000000000000    0.781550000000000    0.097973000000000 
K           0.500000000000000    0.856853000000000    0.860087000000000 
K           0.765352000000000    0.500000000000000    0.626020000000000 
K           0.770813000000000    0.500000000000000    0.340348000000000 
K           0.781550000000000    0.500000000000000    0.097973000000000 
K           0.849993000000000    0.150007000000000    0.708526000000000 
K           0.849993000000000    0.849993000000000    0.708526000000000 
K           0.856853000000000    0.500000000000000    0.860087000000000 
%ENDBLOCK POSITIONS_FRAC
