# Cell file generated by matador (Matthew Evans 2016)

%BLOCK LATTICE_CART
5.53878 0.0 0.0
-2.76939 4.79672 0.0
0.0 0.0 14.1256
%ENDBLOCK LATTICE_CART

%BLOCK POSITIONS_FRAC
P          -0.000000000000000    0.000000000000000    0.000000000000000 
P          -0.000000000000000    0.000000000000000    0.092733000000000 
P          -0.000000000000000    0.000000000000000    0.500000000000000 
P          -0.000000000000000    0.000000000000000    0.907267000000000 
P           0.333333000000000    0.666667000000000    0.000000000000000 
P           0.333333000000000    0.666667000000000    0.500000000000000 
P           0.666666000000000    0.333334000000000    0.000000000000000 
P           0.666666000000000    0.333334000000000    0.500000000000000 
K           0.333333000000000    0.666667000000000    0.357944000000000 
K           0.333333000000000    0.666667000000000    0.642056000000000 
K           0.666666000000000    0.333334000000000    0.316089000000000 
K           0.666666000000000    0.333334000000000    0.683911000000000 
%ENDBLOCK POSITIONS_FRAC
