# Cell file generated by matador (Matthew Evans 2016)

%BLOCK LATTICE_CART
10.3324 0.0 0.0
-5.16622 8.94816 0.0
0.0 0.0 11.2461
%ENDBLOCK LATTICE_CART

%BLOCK POSITIONS_FRAC
P           0.000000000000000    0.000000000000000    0.000000000000000 
P           0.000000000000000    0.306434000000000    0.500000000000000 
P           0.000000000000000    0.693566000000000    0.500000000000000 
P           0.306434000000000    0.000000000000000    0.500000000000000 
P           0.306434000000000    0.306434000000000    0.500000000000000 
P           0.693566000000000    0.000000000000000    0.500000000000000 
P           0.693566000000000    0.693566000000000    0.500000000000000 
K           0.000000000000000    0.000000000000000    0.500000000000000 
K           0.000000000000000    0.500000000000000    0.000000000000000 
K           0.000000000000000    0.500000000000000    0.500000000000000 
K           0.150016000000000    0.300032000000000    0.702246000000000 
K           0.150016000000000    0.849984000000000    0.702246000000000 
K           0.154092000000000    0.308184000000000    0.151127000000000 
K           0.154092000000000    0.845908000000000    0.151127000000000 
K           0.300032000000000    0.150016000000000    0.297754000000000 
K           0.308184000000000    0.154092000000000    0.848873000000000 
K           0.333333000000000    0.666667000000000    0.317910000000000 
K           0.500000000000000    0.000000000000000    0.000000000000000 
K           0.500000000000000    0.000000000000000    0.500000000000000 
K           0.500000000000000    0.500000000000000    0.000000000000000 
K           0.500000000000000    0.500000000000000    0.500000000000000 
K           0.666667000000000    0.333333000000000    0.682090000000000 
K           0.691816000000000    0.845908000000000    0.151127000000000 
K           0.699968000000000    0.849984000000000    0.702246000000000 
K           0.845908000000000    0.154092000000000    0.848873000000000 
K           0.845908000000000    0.691816000000000    0.848873000000000 
K           0.849984000000000    0.150016000000000    0.297754000000000 
K           0.849984000000000    0.699968000000000    0.297754000000000 
%ENDBLOCK POSITIONS_FRAC
