# Cell file generated by matador (Matthew Evans 2016)

%BLOCK LATTICE_CART
8.82193 0.0 0.0
0.0 8.82193 0.0
0.0 0.0 6.0868
%ENDBLOCK LATTICE_CART

%BLOCK POSITIONS_FRAC
P           0.000000000000000    0.500000000000000    0.408834000000000 
P           0.000000000000000    0.500000000000000    0.908834000000000 
P           0.500000000000000    0.000000000000000    0.408834000000000 
P           0.500000000000000    0.000000000000000    0.908834000000000 
K           0.000000000000000    0.000000000000000    0.023580000000000 
K           0.000000000000000    0.285225000000000    0.654989000000000 
K           0.000000000000000    0.714775000000000    0.654989000000000 
K           0.214775000000000    0.500000000000000    0.154989000000000 
K           0.285225000000000    0.000000000000000    0.654989000000000 
K           0.500000000000000    0.214775000000000    0.154989000000000 
K           0.500000000000000    0.500000000000000    0.523580000000000 
K           0.500000000000000    0.785225000000000    0.154989000000000 
K           0.714775000000000    0.000000000000000    0.654989000000000 
K           0.785225000000000    0.500000000000000    0.154989000000000 
%ENDBLOCK POSITIONS_FRAC
