# Cell file generated by matador (Matthew Evans 2016)

%BLOCK LATTICE_CART
5.74083 0.0 0.0
0.0 5.74083 0.0
0.0 0.0 12.0438
%ENDBLOCK LATTICE_CART

%BLOCK POSITIONS_FRAC
P           0.000000000000000    0.000000000000000    0.000000000000000 
P           0.149204000000000    0.350796000000000    0.036292000000000 
P           0.350796000000000    0.850796000000000    0.963708000000000 
P           0.500000000000000    0.500000000000000    0.000000000000000 
P           0.649204000000000    0.149204000000000    0.963708000000000 
P           0.850796000000000    0.649204000000000    0.036292000000000 
K           0.000000000000000    0.000000000000000    0.500000000000000 
K           0.000000000000000    0.500000000000000    0.278058000000000 
K           0.000000000000000    0.500000000000000    0.558231000000000 
K           0.000000000000000    0.500000000000000    0.731796000000000 
K           0.500000000000000    0.000000000000000    0.268204000000000 
K           0.500000000000000    0.000000000000000    0.441769000000000 
K           0.500000000000000    0.000000000000000    0.721942000000000 
K           0.500000000000000    0.500000000000000    0.500000000000000 
%ENDBLOCK POSITIONS_FRAC
