# Cell file generated by matador (Matthew Evans 2016)

%BLOCK LATTICE_CART
11.0116 0.0 0.0
-5.50579 9.53631 0.0
0.0 0.0 5.77882
%ENDBLOCK LATTICE_CART

%BLOCK POSITIONS_FRAC
P           0.333333000000000    0.666667000000000    0.250000000000000 
P           0.666666000000000    0.333334000000000    0.750000000000000 
K          -0.000000000000000    0.221709000000000    0.000000000000000 
K          -0.000000000000000    0.221709000000000    0.500000000000000 
K           0.039903000000000    0.500621000000000    0.250000000000000 
K           0.221709000000000    0.000000000000000    0.000000000000000 
K           0.221709000000000    0.000000000000000    0.500000000000000 
K           0.333333000000000    0.666667000000000    0.750000000000000 
K           0.460717000000000    0.960097000000000    0.250000000000000 
K           0.499379000000000    0.539283000000000    0.250000000000000 
K           0.500621000000000    0.039904000000000    0.750000000000000 
K           0.539282000000000    0.499379000000000    0.750000000000000 
K           0.666666000000000    0.333334000000000    0.250000000000000 
K           0.778291000000000    0.778291000000000    0.000000000000000 
K           0.778291000000000    0.778291000000000    0.500000000000000 
K           0.960096000000000    0.460718000000000    0.750000000000000 
%ENDBLOCK POSITIONS_FRAC
