# Cell file generated by matador (Matthew Evans 2016)

%BLOCK LATTICE_CART
7.56699 0.0 0.0
-3.7835 6.55321 0.0
0.0 0.0 6.60792
%ENDBLOCK LATTICE_CART

%BLOCK POSITIONS_FRAC
P           0.333332000000000    0.666666000000000    0.313814000000000 
P           0.666666000000000    0.333332000000000    0.686186000000000 
K           0.161994000000000    0.323989000000000    0.294341000000000 
K           0.161994000000000    0.838004000000000    0.294341000000000 
K           0.323989000000000    0.161994000000000    0.705659000000000 
K           0.676009000000000    0.838004000000000    0.294341000000000 
K           0.838004000000000    0.161994000000000    0.705659000000000 
K           0.838004000000000    0.676009000000000    0.705659000000000 
%ENDBLOCK POSITIONS_FRAC
