# Cell file generated by matador (Matthew Evans 2016)

%BLOCK LATTICE_CART
6.9544 0.0 0.0
-3.4772 6.02269 0.0
0.0 0.0 11.085
%ENDBLOCK LATTICE_CART

%BLOCK POSITIONS_FRAC
P           0.000000000000000    0.000000000000000    0.250000000000000 
P           0.000000000000000    0.000000000000000    0.750000000000000 
P           0.000000000000000    0.500000000000000    0.000000000000000 
P           0.000000000000000    0.500000000000000    0.500000000000000 
P           0.500000000000000    0.000000000000000    0.000000000000000 
P           0.500000000000000    0.000000000000000    0.500000000000000 
P           0.500000000000000    0.500000000000000    0.000000000000000 
P           0.500000000000000    0.500000000000000    0.500000000000000 
K           0.000000000000000    0.000000000000000    0.000000000000000 
K           0.000000000000000    0.000000000000000    0.500000000000000 
K           0.000000000000000    0.455568000000000    0.250000000000000 
K           0.000000000000000    0.544432000000000    0.750000000000000 
K           0.455568000000000    0.000000000000000    0.250000000000000 
K           0.455568000000000    0.455568000000000    0.750000000000000 
K           0.544432000000000    0.000000000000000    0.750000000000000 
K           0.544432000000000    0.544432000000000    0.250000000000000 
%ENDBLOCK POSITIONS_FRAC
