# Cell file generated by matador (Matthew Evans 2016)

%BLOCK LATTICE_CART
10.803 0.0 0.0
0.0 10.803 0.0
0.0 0.0 5.72361
%ENDBLOCK LATTICE_CART

%BLOCK POSITIONS_FRAC
P           0.074252000000000    0.175349000000000    0.597762000000000 
P           0.175349000000000    0.425748000000000    0.597762000000000 
P           0.250000000000000    0.250000000000000    0.486964000000000 
P           0.250000000000000    0.750000000000000    0.393792000000000 
P           0.250000000000000    0.750000000000000    0.606208000000000 
P           0.324651000000000    0.074252000000000    0.597762000000000 
P           0.425748000000000    0.324651000000000    0.597762000000000 
P           0.574252000000000    0.675349000000000    0.402238000000000 
P           0.675349000000000    0.925748000000000    0.402238000000000 
P           0.750000000000000    0.250000000000000    0.393792000000000 
P           0.750000000000000    0.250000000000000    0.606208000000000 
P           0.750000000000000    0.750000000000000    0.513036000000000 
P           0.824651000000000    0.574252000000000    0.402238000000000 
P           0.925748000000000    0.824651000000000    0.402238000000000 
K          -0.000000000000000    0.000000000000000    0.500000000000000 
K          -0.000000000000000    0.500000000000000    0.500000000000000 
K           0.250000000000000    0.750000000000000    0.000000000000000 
K           0.500000000000000    0.000000000000000    0.500000000000000 
K           0.500000000000000    0.500000000000000    0.500000000000000 
K           0.750000000000000    0.250000000000000    0.000000000000000 
%ENDBLOCK POSITIONS_FRAC
