# Cell file generated by matador (Matthew Evans 2016)

%BLOCK LATTICE_CART
17.0489 0.0 0.0
1.29258 4.51262 0.0
-1.41194 -0.0467412 5.89833
%ENDBLOCK LATTICE_CART

%BLOCK POSITIONS_FRAC
P           0.000000000000000    0.000000000000000    0.500000000000000 
P           0.438954000000000    0.979281000000000    0.405520000000000 
P           0.500000000000000    0.000000000000000    0.500000000000000 
P           0.561046000000000    0.020719000000000    0.594480000000000 
K           0.000000000000000    0.000000000000000    0.000000000000000 
K           0.000000000000000    0.500000000000000    0.000000000000000 
K           0.000000000000000    0.500000000000000    0.500000000000000 
K           0.273825000000000    0.490988000000000    0.411720000000000 
K           0.402348000000000    0.436630000000000    0.252188000000000 
K           0.500000000000000    0.000000000000000    0.000000000000000 
K           0.500000000000000    0.500000000000000    0.000000000000000 
K           0.500000000000000    0.500000000000000    0.500000000000000 
K           0.597652000000000    0.563370000000000    0.747812000000000 
K           0.726175000000000    0.509012000000000    0.588280000000000 
%ENDBLOCK POSITIONS_FRAC
