# Cell file generated by matador (Matthew Evans 2016)

%BLOCK LATTICE_CART
11.4059 0.0 0.0
0.0 11.4059 0.0
0.0 0.0 4.34768
%ENDBLOCK LATTICE_CART

%BLOCK POSITIONS_FRAC
P           0.092523000000000    0.148951000000000    0.000000000000000 
P           0.148951000000000    0.907477000000000    0.000000000000000 
P           0.351049000000000    0.592523000000000    0.500000000000000 
P           0.407477000000000    0.351049000000000    0.500000000000000 
P           0.592523000000000    0.648951000000000    0.500000000000000 
P           0.648951000000000    0.407477000000000    0.500000000000000 
P           0.851049000000000    0.092523000000000    0.000000000000000 
P           0.907477000000000    0.851049000000000    0.000000000000000 
K           0.000000000000000    0.000000000000000    0.000000000000000 
K           0.000000000000000    0.000000000000000    0.500000000000000 
K           0.250000000000000    0.250000000000000    0.250000000000000 
K           0.250000000000000    0.250000000000000    0.750000000000000 
K           0.250000000000000    0.750000000000000    0.250000000000000 
K           0.250000000000000    0.750000000000000    0.750000000000000 
K           0.500000000000000    0.500000000000000    0.000000000000000 
K           0.500000000000000    0.500000000000000    0.500000000000000 
K           0.750000000000000    0.250000000000000    0.250000000000000 
K           0.750000000000000    0.250000000000000    0.750000000000000 
K           0.750000000000000    0.750000000000000    0.250000000000000 
K           0.750000000000000    0.750000000000000    0.750000000000000 
%ENDBLOCK POSITIONS_FRAC
