# Cell file generated by matador (Matthew Evans 2016)

%BLOCK LATTICE_CART
5.23119 0.0 0.0
0.0 5.80703 0.0
1.34192 0.0 7.00244
%ENDBLOCK LATTICE_CART

%BLOCK POSITIONS_FRAC
P           0.890886000000000    0.307641000000000    0.703468000000000 
P           0.890886000000000    0.692359000000000    0.703468000000000 
K           0.474942000000000    0.500000000000000    0.634454000000000 
K           0.486728000000000    0.186621000000000    0.816885000000000 
K           0.486728000000000    0.813379000000000    0.816885000000000 
K           0.511673000000000    0.500000000000000    0.093882000000000 
%ENDBLOCK POSITIONS_FRAC
