# Cell file generated by matador (Matthew Evans 2016)

%BLOCK LATTICE_CART
8.14126 0.0 0.0
-4.07063 7.05054 0.0
0.0 0.0 10.0527
%ENDBLOCK LATTICE_CART

%BLOCK POSITIONS_FRAC
P           0.140309000000000    0.501676000000000    0.974841000000000 
P           0.140309000000000    0.638634000000000    0.974841000000000 
P           0.206144000000000    0.412288000000000    0.386994000000000 
P           0.206144000000000    0.793856000000000    0.386994000000000 
P           0.282850000000000    0.565701000000000    0.458071000000000 
P           0.282850000000000    0.717150000000000    0.458071000000000 
P           0.333333000000000    0.666667000000000    0.922771000000000 
P           0.361366000000000    0.501676000000000    0.974841000000000 
P           0.361366000000000    0.859691000000000    0.974841000000000 
P           0.434299000000000    0.717150000000000    0.458071000000000 
P           0.498324000000000    0.638634000000000    0.974841000000000 
P           0.498324000000000    0.859691000000000    0.974841000000000 
P           0.513051000000000    0.026102000000000    0.410734000000000 
P           0.513051000000000    0.486949000000000    0.410734000000000 
P           0.587712000000000    0.793856000000000    0.386994000000000 
P           0.973898000000000    0.486949000000000    0.410734000000000 
K           0.000000000000000    0.000000000000000    0.152378000000000 
K           0.501594000000000    0.003189000000000    0.711172000000000 
K           0.501594000000000    0.498406000000000    0.711172000000000 
K           0.996811000000000    0.498406000000000    0.711172000000000 
%ENDBLOCK POSITIONS_FRAC
