# Cell file generated by matador (Matthew Evans 2016)

%BLOCK LATTICE_CART
7.12289 -0.0 0.0
-3.56145 6.16861 0.0
0.0 0.0 8.62955
%ENDBLOCK LATTICE_CART

%BLOCK POSITIONS_FRAC
P           0.000000000000000    0.000000000000000    0.143725000000000 
P           0.000000000000000    0.000000000000000    0.477058000000000 
P           0.000000000000000    0.000000000000000    0.810391000000000 
P           0.000000000000000    0.500000000000000    0.778141000000000 
P           0.013193000000000    0.746572000000000    0.603037000000000 
P           0.253428000000000    0.266621000000000    0.936371000000000 
P           0.266621000000000    0.013193000000000    0.269704000000000 
P           0.500000000000000    0.000000000000000    0.444808000000000 
P           0.500000000000000    0.500000000000000    0.111474000000000 
P           0.733379000000000    0.986807000000000    0.269704000000000 
P           0.746572000000000    0.733379000000000    0.936371000000000 
P           0.986807000000000    0.253428000000000    0.603037000000000 
K           0.000000000000000    0.500000000000000    0.261906000000000 
K           0.500000000000000    0.000000000000000    0.928572000000000 
K           0.500000000000000    0.500000000000000    0.595239000000000 
%ENDBLOCK POSITIONS_FRAC
