# Cell file generated by matador (Matthew Evans 2016)

%BLOCK LATTICE_CART
8.0912 0.0 0.0
0.0 8.0912 0.0
0.0 0.0 9.2523
%ENDBLOCK LATTICE_CART

%BLOCK POSITIONS_FRAC
P           0.000000000000000    0.500000000000000    0.500000000000000 
P           0.067579000000000    0.657099000000000    0.500000000000000 
P           0.157099000000000    0.567579000000000    0.500000000000000 
P           0.342901000000000    0.067579000000000    0.500000000000000 
P           0.432421000000000    0.157099000000000    0.500000000000000 
P           0.500000000000000    0.000000000000000    0.500000000000000 
P           0.567579000000000    0.842901000000000    0.500000000000000 
P           0.657099000000000    0.932421000000000    0.500000000000000 
P           0.842901000000000    0.432421000000000    0.500000000000000 
P           0.932421000000000    0.342901000000000    0.500000000000000 
K           0.131758000000000    0.189709000000000    0.500000000000000 
K           0.189709000000000    0.868242000000000    0.500000000000000 
K           0.310291000000000    0.368242000000000    0.500000000000000 
K           0.368242000000000    0.689709000000000    0.500000000000000 
K           0.631758000000000    0.310291000000000    0.500000000000000 
K           0.689709000000000    0.631758000000000    0.500000000000000 
K           0.810291000000000    0.131758000000000    0.500000000000000 
K           0.868242000000000    0.810291000000000    0.500000000000000 
%ENDBLOCK POSITIONS_FRAC
