# Cell file generated by matador (Matthew Evans 2016)

%BLOCK LATTICE_CART
7.25362 0.0 0.0
0.0 6.16402 0.0
0.724935 0.0 4.80566
%ENDBLOCK LATTICE_CART

%BLOCK POSITIONS_FRAC
P           0.000000000000000    0.927162000000000    0.500000000000000 
P           0.500000000000000    0.558422000000000    0.000000000000000 
K           0.000000000000000    0.363025000000000    0.000000000000000 
K           0.000000000000000    0.505470000000000    0.500000000000000 
K           0.134052000000000    0.055809000000000    0.105870000000000 
K           0.500000000000000    0.788911000000000    0.500000000000000 
K           0.865948000000000    0.055809000000000    0.894130000000000 
%ENDBLOCK POSITIONS_FRAC
