# Cell file generated by matador (Matthew Evans 2016)

%BLOCK LATTICE_CART
7.00509 0.0 0.0
0.0 7.30251 0.0
0.0 0.0 9.64725
%ENDBLOCK LATTICE_CART

%BLOCK POSITIONS_FRAC
P           0.000000000000000    0.000000000000000    0.263284000000000 
P           0.335877000000000    0.000000000000000    0.157388000000000 
P           0.391369000000000    0.000000000000000    0.877575000000000 
P           0.500000000000000    0.500000000000000    0.950846000000000 
P           0.608631000000000    0.000000000000000    0.877575000000000 
P           0.664123000000000    0.000000000000000    0.157388000000000 
K           0.000000000000000    0.186316000000000    0.522106000000000 
K           0.000000000000000    0.813684000000000    0.522106000000000 
K           0.220261000000000    0.000000000000000    0.625943000000000 
K           0.260950000000000    0.293644000000000    0.151735000000000 
K           0.260950000000000    0.706356000000000    0.151735000000000 
K           0.739050000000000    0.293644000000000    0.151735000000000 
K           0.739050000000000    0.706356000000000    0.151735000000000 
K           0.779739000000000    0.000000000000000    0.625943000000000 
%ENDBLOCK POSITIONS_FRAC
