# Cell file generated by matador (Matthew Evans 2016)

%BLOCK LATTICE_CART
5.00708 -0.0 0.0
-2.50354 4.33626 0.0
0.0 0.0 12.1443
%ENDBLOCK LATTICE_CART

%BLOCK POSITIONS_FRAC
P           0.000000000000000    0.000000000000000    0.308167000000000 
P           0.081381000000000    0.673127000000000    0.269736000000000 
P           0.326873000000000    0.408254000000000    0.269736000000000 
P           0.591746000000000    0.918619000000000    0.269736000000000 
K           0.237149000000000    0.003629000000000    0.466495000000000 
K           0.333333000000000    0.666667000000000    0.526935000000000 
K           0.333333000000000    0.666667000000000    0.959803000000000 
K           0.666667000000000    0.333333000000000    0.550363000000000 
K           0.766480000000000    0.762851000000000    0.466495000000000 
K           0.996371000000000    0.233520000000000    0.466495000000000 
%ENDBLOCK POSITIONS_FRAC
