# Cell file generated by matador (Matthew Evans 2016)

%BLOCK LATTICE_CART
6.48026 0.0 0.0
0.391652 7.1456 0.0
-4.87309 -2.87448 10.2633
%ENDBLOCK LATTICE_CART

%BLOCK POSITIONS_FRAC
P           0.031157000000000    0.433254000000000    0.974125000000000 
P           0.115414000000000    0.541723000000000    0.453926000000000 
P           0.198404000000000    0.127133000000000    0.688342000000000 
P           0.263323000000000    0.849419000000000    0.992585000000000 
P           0.287531000000000    0.465894000000000    0.086317000000000 
P           0.388875000000000    0.306978000000000    0.209316000000000 
P           0.611125000000000    0.693022000000000    0.790684000000000 
P           0.712469000000000    0.534106000000000    0.913683000000000 
P           0.736677000000000    0.150581000000000    0.007415000000000 
P           0.801596000000000    0.872867000000000    0.311658000000000 
P           0.884586000000000    0.458277000000000    0.546074000000000 
P           0.968843000000000    0.566746000000000    0.025875000000000 
K           0.049531000000000    0.873354000000000    0.109094000000000 
K           0.500000000000000    0.500000000000000    0.000000000000000 
K           0.500000000000000    0.500000000000000    0.500000000000000 
K           0.950469000000000    0.126646000000000    0.890906000000000 
%ENDBLOCK POSITIONS_FRAC
