# Cell file generated by matador (Matthew Evans 2016)

%BLOCK LATTICE_CART
12.5766 0.0 0.0
-6.28828 10.8916 0.0
0.0 0.0 7.46648
%ENDBLOCK LATTICE_CART

%BLOCK POSITIONS_FRAC
P           0.249729000000000    0.040429000000000    0.179199000000000 
P           0.249729000000000    0.209300000000000    0.179199000000000 
P           0.790700000000000    0.040429000000000    0.179199000000000 
P           0.790700000000000    0.750271000000000    0.179199000000000 
P           0.959571000000000    0.209300000000000    0.179199000000000 
P           0.959571000000000    0.750271000000000    0.179199000000000 
K           0.124654000000000    0.249307000000000    0.607893000000000 
K           0.124654000000000    0.875346000000000    0.607893000000000 
K           0.131897000000000    0.565949000000000    0.425828000000000 
K           0.178515000000000    0.089257000000000    0.887671000000000 
K           0.205210000000000    0.410421000000000    0.039573000000000 
K           0.205210000000000    0.794790000000000    0.039573000000000 
K           0.290773000000000    0.145387000000000    0.415817000000000 
K           0.434051000000000    0.565949000000000    0.425828000000000 
K           0.434051000000000    0.868103000000000    0.425828000000000 
K           0.569730000000000    0.139460000000000    0.267105000000000 
K           0.569730000000000    0.430270000000000    0.267105000000000 
K           0.589579000000000    0.794790000000000    0.039573000000000 
K           0.750693000000000    0.875346000000000    0.607893000000000 
K           0.854613000000000    0.145387000000000    0.415817000000000 
K           0.854613000000000    0.709227000000000    0.415817000000000 
K           0.860540000000000    0.430270000000000    0.267105000000000 
K           0.910743000000000    0.089257000000000    0.887671000000000 
K           0.910743000000000    0.821485000000000    0.887671000000000 
%ENDBLOCK POSITIONS_FRAC
