# Cell file generated by matador (Matthew Evans 2016)

%BLOCK LATTICE_CART
6.22626 0.0 0.0
-3.11313 5.3921 0.0
0.0 0.0 6.27685
%ENDBLOCK LATTICE_CART

%BLOCK POSITIONS_FRAC
P           0.333333000000000    0.666667000000000    0.537651000000000 
P           0.464635000000000    0.004768000000000    0.179925000000000 
P           0.540133000000000    0.535365000000000    0.179925000000000 
P           0.666667000000000    0.333333000000000    0.250805000000000 
P           0.995232000000000    0.459867000000000    0.179925000000000 
K           0.000000000000000    0.000000000000000    0.234885000000000 
K           0.666667000000000    0.333333000000000    0.756576000000000 
%ENDBLOCK POSITIONS_FRAC
