# Cell file generated by matador (Matthew Evans 2016)

%BLOCK LATTICE_CART
5.1042 0.0 0.0
0.0 8.79978 0.0
0.0 0.0 6.14483
%ENDBLOCK LATTICE_CART

%BLOCK POSITIONS_FRAC
P           0.000000000000000    0.000000000000000    0.500000000000000 
P           0.000000000000000    0.500000000000000    0.000000000000000 
P           0.250000000000000    0.250000000000000    0.075477000000000 
P           0.250000000000000    0.250000000000000    0.424523000000000 
P           0.250000000000000    0.570035000000000    0.750000000000000 
P           0.250000000000000    0.750000000000000    0.250000000000000 
P           0.250000000000000    0.929965000000000    0.750000000000000 
P           0.500000000000000    0.000000000000000    0.000000000000000 
P           0.500000000000000    0.500000000000000    0.500000000000000 
P           0.750000000000000    0.070035000000000    0.250000000000000 
P           0.750000000000000    0.250000000000000    0.750000000000000 
P           0.750000000000000    0.429965000000000    0.250000000000000 
P           0.750000000000000    0.750000000000000    0.575477000000000 
P           0.750000000000000    0.750000000000000    0.924523000000000 
K           0.250000000000000    0.250000000000000    0.750000000000000 
K           0.750000000000000    0.750000000000000    0.250000000000000 
%ENDBLOCK POSITIONS_FRAC
