# Cell file generated by matador (Matthew Evans 2016)

%BLOCK LATTICE_CART
5.96939 0.0 0.0
-2.9847 5.16965 0.0
0.0 0.0 8.53107
%ENDBLOCK LATTICE_CART

%BLOCK POSITIONS_FRAC
P           0.088050000000000    0.472980000000000    0.219855000000000 
P           0.333333000000000    0.666667000000000    0.018857000000000 
P           0.333333000000000    0.666667000000000    0.777272000000000 
P           0.384930000000000    0.911950000000000    0.219855000000000 
P           0.527020000000000    0.615070000000000    0.219855000000000 
K           0.000000000000000   -0.000000000000000    0.137896000000000 
K           0.000000000000000   -0.000000000000000    0.382401000000000 
K           0.278590000000000    0.085249000000000    0.830612000000000 
K           0.666667000000000    0.333333000000000    0.335792000000000 
K           0.806659000000000    0.721410000000000    0.830612000000000 
K           0.914751000000000    0.193341000000000    0.830612000000000 
%ENDBLOCK POSITIONS_FRAC
