# Cell file generated by matador (Matthew Evans 2016)

%BLOCK LATTICE_CART
6.81022 0.0 0.0
-3.40511 5.89783 0.0
0.0 0.0 7.36029
%ENDBLOCK LATTICE_CART

%BLOCK POSITIONS_FRAC
P           0.000000000000000    0.000000000000000    0.017638000000000 
P           0.000000000000000    0.000000000000000    0.337123000000000 
K           0.000000000000000    0.500000000000000    0.431308000000000 
K           0.333333000000000    0.666667000000000    0.685795000000000 
K           0.500000000000000    0.000000000000000    0.431308000000000 
K           0.500000000000000    0.500000000000000    0.431308000000000 
K           0.666667000000000    0.333333000000000    0.685795000000000 
%ENDBLOCK POSITIONS_FRAC
