# Cell file generated by matador (Matthew Evans 2016)

%BLOCK LATTICE_CART
10.9439 0.0 0.0
-5.47197 9.47772 0.0
0.0 0.0 6.28947
%ENDBLOCK LATTICE_CART

%BLOCK POSITIONS_FRAC
P           0.333333000000000    0.666667000000000    0.899678000000000 
P           0.666666000000000    0.333334000000000    0.899678000000000 
K          -0.000000000000000    0.165327000000000    0.601157000000000 
K          -0.000000000000000    0.743984000000000    0.060873000000000 
K           0.159034000000000    0.395756000000000    0.135006000000000 
K           0.165327000000000    0.000000000000000    0.601157000000000 
K           0.236722000000000    0.840966000000000    0.135006000000000 
K           0.256016000000000    0.256016000000000    0.060873000000000 
K           0.333333000000000    0.666667000000000    0.357949000000000 
K           0.395756000000000    0.159034000000000    0.135006000000000 
K           0.604244000000000    0.763278000000000    0.135006000000000 
K           0.666666000000000    0.333334000000000    0.357949000000000 
K           0.743984000000000    0.000000000000000    0.060873000000000 
K           0.763278000000000    0.604244000000000    0.135006000000000 
K           0.834673000000000    0.834673000000000    0.601157000000000 
K           0.840966000000000    0.236722000000000    0.135006000000000 
%ENDBLOCK POSITIONS_FRAC
