# Cell file generated by matador (Matthew Evans 2016)

%BLOCK LATTICE_CART
8.34227 0.0 0.0
-4.17114 7.22462 0.0
0.0 0.0 11.5027
%ENDBLOCK LATTICE_CART

%BLOCK POSITIONS_FRAC
P           0.000000000000000    0.000000000000000    0.385447000000000 
P           0.000000000000000    0.000000000000000    0.766545000000000 
P           0.333333000000000    0.666667000000000    0.674506000000000 
P           0.666667000000000    0.333333000000000    0.674506000000000 
K           0.000000000000000    0.207727000000000    0.601243000000000 
K           0.000000000000000    0.268493000000000    0.287410000000000 
K           0.000000000000000    0.511375000000000    0.957899000000000 
K           0.000000000000000    0.597974000000000    0.395083000000000 
K           0.207727000000000    0.000000000000000    0.601243000000000 
K           0.268493000000000    0.000000000000000    0.287410000000000 
K           0.402026000000000    0.402026000000000    0.395083000000000 
K           0.488625000000000    0.488625000000000    0.957899000000000 
K           0.511375000000000    0.000000000000000    0.957899000000000 
K           0.597974000000000    0.000000000000000    0.395083000000000 
K           0.731507000000000    0.731507000000000    0.287410000000000 
K           0.792273000000000    0.792273000000000    0.601243000000000 
%ENDBLOCK POSITIONS_FRAC
