# Cell file generated by matador (Matthew Evans 2016)

%BLOCK LATTICE_CART
6.90935 0.0 0.0
0.0 6.90935 0.0
0.0 0.0 8.83105
%ENDBLOCK LATTICE_CART

%BLOCK POSITIONS_FRAC
P           0.000000000000000    0.000000000000000    0.091359000000000 
P           0.000000000000000    0.000000000000000    0.709868000000000 
P           0.000000000000000    0.000000000000000    0.974576000000000 
P           0.000000000000000    0.500000000000000    0.113985000000000 
P           0.000000000000000    0.500000000000000    0.613985000000000 
P           0.500000000000000    0.000000000000000    0.113985000000000 
P           0.500000000000000    0.000000000000000    0.613985000000000 
P           0.500000000000000    0.500000000000000    0.209868000000000 
P           0.500000000000000    0.500000000000000    0.474576000000000 
P           0.500000000000000    0.500000000000000    0.591359000000000 
K           0.218094000000000    0.218094000000000    0.031612000000000 
K           0.218094000000000    0.781906000000000    0.031612000000000 
K           0.281906000000000    0.281906000000000    0.531612000000000 
K           0.281906000000000    0.718094000000000    0.531612000000000 
K           0.718094000000000    0.281906000000000    0.531612000000000 
K           0.718094000000000    0.718094000000000    0.531612000000000 
K           0.781906000000000    0.218094000000000    0.031612000000000 
K           0.781906000000000    0.781906000000000    0.031612000000000 
%ENDBLOCK POSITIONS_FRAC
