# Cell file generated by matador (Matthew Evans 2016)

%BLOCK LATTICE_CART
8.0523 0.0 0.0
0.0 8.0523 0.0
0.0 0.0 7.09635
%ENDBLOCK LATTICE_CART

%BLOCK POSITIONS_FRAC
P           0.000000000000000    0.000000000000000    0.358086000000000 
P           0.000000000000000    0.000000000000000    0.858086000000000 
P           0.500000000000000    0.500000000000000    0.437096000000000 
P           0.500000000000000    0.500000000000000    0.937096000000000 
K           0.147090000000000    0.147090000000000    0.703992000000000 
K           0.147090000000000    0.852910000000000    0.203992000000000 
K           0.364838000000000    0.364838000000000    0.120826000000000 
K           0.364838000000000    0.635162000000000    0.620826000000000 
K           0.635162000000000    0.364838000000000    0.620826000000000 
K           0.635162000000000    0.635162000000000    0.120826000000000 
K           0.852910000000000    0.147090000000000    0.203992000000000 
K           0.852910000000000    0.852910000000000    0.703992000000000 
%ENDBLOCK POSITIONS_FRAC
