# Cell file generated by matador (Matthew Evans 2016)

%BLOCK LATTICE_CART
7.30816 0.0 0.0
-3.65408 6.32905 0.0
0.0 0.0 8.73377
%ENDBLOCK LATTICE_CART

%BLOCK POSITIONS_FRAC
P          -0.000000000000000   -0.000000000000000    0.203226000000000 
P          -0.000000000000000   -0.000000000000000    0.500000000000000 
P          -0.000000000000000   -0.000000000000000    0.796774000000000 
P           0.333333000000000    0.666667000000000    0.000000000000000 
P           0.333333000000000    0.666667000000000    0.500000000000000 
P           0.666667000000000    0.333333000000000    0.000000000000000 
P           0.666667000000000    0.333333000000000    0.500000000000000 
K           0.075552000000000    0.738152000000000    0.500000000000000 
K           0.261848000000000    0.337400000000000    0.500000000000000 
K           0.337400000000000    0.075552000000000    0.500000000000000 
K           0.662600000000000    0.924448000000000    0.500000000000000 
K           0.738152000000000    0.662600000000000    0.500000000000000 
K           0.924448000000000    0.261848000000000    0.500000000000000 
%ENDBLOCK POSITIONS_FRAC
