# Cell file generated by matador (Matthew Evans 2016)

%BLOCK LATTICE_CART
10.4405 0.0 0.0
0.0 10.4405 0.0
0.0 0.0 8.95372
%ENDBLOCK LATTICE_CART

%BLOCK POSITIONS_FRAC
P           0.000000000000000   -0.000000000000000    0.000000000000000 
P           0.250000000000000    0.250000000000000    0.500000000000000 
P           0.250000000000000    0.750000000000000    0.500000000000000 
P           0.500000000000000    0.500000000000000    0.000000000000000 
P           0.750000000000000    0.250000000000000    0.500000000000000 
P           0.750000000000000    0.750000000000000    0.500000000000000 
K           0.000000000000000    0.233253000000000    0.878657000000000 
K           0.000000000000000    0.261359000000000    0.534028000000000 
K           0.000000000000000    0.500000000000000    0.024266000000000 
K           0.000000000000000    0.738641000000000    0.534028000000000 
K           0.000000000000000    0.766747000000000    0.878657000000000 
K           0.233253000000000   -0.000000000000000    0.121343000000000 
K           0.238641000000000    0.500000000000000    0.534028000000000 
K           0.261359000000000   -0.000000000000000    0.465972000000000 
K           0.266747000000000    0.500000000000000    0.878657000000000 
K           0.500000000000000   -0.000000000000000    0.975734000000000 
K           0.500000000000000    0.238641000000000    0.465972000000000 
K           0.500000000000000    0.266747000000000    0.121343000000000 
K           0.500000000000000    0.733253000000000    0.121343000000000 
K           0.500000000000000    0.761359000000000    0.465972000000000 
K           0.733253000000000    0.500000000000000    0.878657000000000 
K           0.738641000000000   -0.000000000000000    0.465972000000000 
K           0.761359000000000    0.500000000000000    0.534028000000000 
K           0.766747000000000   -0.000000000000000    0.121343000000000 
%ENDBLOCK POSITIONS_FRAC
