# Cell file generated by matador (Matthew Evans 2016)

%BLOCK LATTICE_CART
11.1087 0.0 0.0
0.0 9.17023 0.0
-2.56853 0.0 6.58166
%ENDBLOCK LATTICE_CART

%BLOCK POSITIONS_FRAC
P           0.198385000000000    0.228982000000000    0.922775000000000 
P           0.801615000000000    0.228982000000000    0.077225000000000 
K           0.000000000000000    0.109147000000000    0.000000000000000 
K           0.000000000000000    0.260342000000000    0.500000000000000 
K           0.000000000000000    0.899441000000000    0.500000000000000 
K           0.052966000000000    0.707031000000000    0.889878000000000 
K           0.135716000000000    0.738473000000000    0.635309000000000 
K           0.225380000000000    0.250119000000000    0.586757000000000 
K           0.249441000000000    0.713394000000000    0.253412000000000 
K           0.500000000000000    0.238715000000000    0.500000000000000 
K           0.500000000000000    0.734825000000000    0.500000000000000 
K           0.500000000000000    0.823808000000000    0.000000000000000 
K           0.750559000000000    0.713394000000000    0.746588000000000 
K           0.774620000000000    0.250119000000000    0.413243000000000 
K           0.864284000000000    0.738473000000000    0.364691000000000 
K           0.947034000000000    0.707031000000000    0.110122000000000 
%ENDBLOCK POSITIONS_FRAC
