# Cell file generated by matador (Matthew Evans 2016)

%BLOCK LATTICE_CART
14.5964 0.0 0.0
0.0 11.0002 0.0
0.0 0.0 7.44158
%ENDBLOCK LATTICE_CART

%BLOCK POSITIONS_FRAC
P           0.058603000000000    0.644210000000000    0.872073000000000 
P           0.058603000000000    0.855790000000000    0.627927000000000 
P           0.441397000000000    0.144210000000000    0.627927000000000 
P           0.441397000000000    0.355790000000000    0.872073000000000 
P           0.558603000000000    0.644210000000000    0.127927000000000 
P           0.558603000000000    0.855790000000000    0.372073000000000 
P           0.941397000000000    0.144210000000000    0.372073000000000 
P           0.941397000000000    0.355790000000000    0.127927000000000 
K           0.000000000000000   -0.000000000000000    0.000000000000000 
K           0.000000000000000   -0.000000000000000    0.500000000000000 
K           0.000000000000000    0.500000000000000    0.000000000000000 
K           0.000000000000000    0.500000000000000    0.500000000000000 
K           0.016005000000000    0.750000000000000    0.250000000000000 
K           0.082942000000000    0.250000000000000    0.250000000000000 
K           0.173079000000000    0.750000000000000    0.750000000000000 
K           0.250000000000000   -0.000000000000000    0.034595000000000 
K           0.250000000000000    0.500000000000000    0.465405000000000 
K           0.326921000000000    0.250000000000000    0.750000000000000 
K           0.417058000000000    0.750000000000000    0.250000000000000 
K           0.483995000000000    0.250000000000000    0.250000000000000 
K           0.500000000000000   -0.000000000000000    0.000000000000000 
K           0.500000000000000   -0.000000000000000    0.500000000000000 
K           0.500000000000000    0.500000000000000    0.000000000000000 
K           0.500000000000000    0.500000000000000    0.500000000000000 
K           0.516005000000000    0.750000000000000    0.750000000000000 
K           0.582942000000000    0.250000000000000    0.750000000000000 
K           0.673079000000000    0.750000000000000    0.250000000000000 
K           0.750000000000000   -0.000000000000000    0.965405000000000 
K           0.750000000000000    0.500000000000000    0.534595000000000 
K           0.826921000000000    0.250000000000000    0.250000000000000 
K           0.917058000000000    0.750000000000000    0.750000000000000 
K           0.983995000000000    0.250000000000000    0.750000000000000 
%ENDBLOCK POSITIONS_FRAC
