# Cell file generated by matador (Matthew Evans 2016)

%BLOCK LATTICE_CART
10.4676 0.0 0.0
0.0 5.81005 0.0
0.0 0.0 6.24952
%ENDBLOCK LATTICE_CART

%BLOCK POSITIONS_FRAC
P           0.000000000000000    0.000000000000000    0.570087000000000 
P           0.250000000000000    0.592590000000000    0.292546000000000 
P           0.500000000000000    0.000000000000000    0.570087000000000 
P           0.750000000000000    0.407410000000000    0.292546000000000 
K           0.110440000000000    0.310443000000000    0.011296000000000 
K           0.250000000000000    0.026798000000000    0.751566000000000 
K           0.250000000000000    0.122566000000000    0.271945000000000 
K           0.250000000000000    0.592329000000000    0.926174000000000 
K           0.389560000000000    0.310443000000000    0.011296000000000 
K           0.610440000000000    0.689557000000000    0.011296000000000 
K           0.750000000000000    0.407671000000000    0.926174000000000 
K           0.750000000000000    0.877434000000000    0.271945000000000 
K           0.750000000000000    0.973202000000000    0.751566000000000 
K           0.889560000000000    0.689557000000000    0.011296000000000 
%ENDBLOCK POSITIONS_FRAC
