# Cell file generated by matador (Matthew Evans 2016)

%BLOCK LATTICE_CART
10.9382 0.0 0.0
0.0 9.99138 0.0
0.0 0.0 9.47416
%ENDBLOCK LATTICE_CART

%BLOCK POSITIONS_FRAC
P           0.000000000000000    0.000000000000000    0.500000000000000 
P           0.153961000000000    0.404157000000000    0.500000000000000 
P           0.346039000000000    0.904157000000000    0.500000000000000 
P           0.500000000000000    0.500000000000000    0.500000000000000 
P           0.653961000000000    0.095843000000000    0.500000000000000 
P           0.846039000000000    0.595843000000000    0.500000000000000 
K           0.000000000000000    0.000000000000000    0.000000000000000 
K           0.000000000000000    0.500000000000000    0.000000000000000 
K           0.000000000000000    0.500000000000000    0.500000000000000 
K           0.067262000000000    0.212939000000000    0.500000000000000 
K           0.167849000000000    0.936366000000000    0.500000000000000 
K           0.227698000000000    0.771148000000000    0.000000000000000 
K           0.272302000000000    0.271148000000000    0.000000000000000 
K           0.332151000000000    0.436366000000000    0.500000000000000 
K           0.432738000000000    0.712939000000000    0.500000000000000 
K           0.500000000000000    0.000000000000000    0.000000000000000 
K           0.500000000000000    0.000000000000000    0.500000000000000 
K           0.500000000000000    0.500000000000000    0.000000000000000 
K           0.567262000000000    0.287061000000000    0.500000000000000 
K           0.667849000000000    0.563634000000000    0.500000000000000 
K           0.727698000000000    0.728852000000000    0.000000000000000 
K           0.772302000000000    0.228852000000000    0.000000000000000 
K           0.832151000000000    0.063634000000000    0.500000000000000 
K           0.932738000000000    0.787061000000000    0.500000000000000 
%ENDBLOCK POSITIONS_FRAC
