# Cell file generated by matador (Matthew Evans 2016)

%BLOCK LATTICE_CART
9.28108 0.0 0.0
0.0 7.87863 0.0
0.0 0.0 8.42153
%ENDBLOCK LATTICE_CART

%BLOCK POSITIONS_FRAC
P           0.000000000000000   -0.000000000000000    0.224366000000000 
P           0.000000000000000    0.500000000000000    0.675910000000000 
P           0.500000000000000   -0.000000000000000    0.175910000000000 
P           0.500000000000000    0.500000000000000    0.724366000000000 
K           0.000000000000000    0.199064000000000    0.786039000000000 
K           0.000000000000000    0.289574000000000    0.278923000000000 
K           0.000000000000000    0.710426000000000    0.278923000000000 
K           0.000000000000000    0.800936000000000    0.786039000000000 
K           0.236755000000000    0.500000000000000    0.136125000000000 
K           0.263245000000000   -0.000000000000000    0.636125000000000 
K           0.500000000000000    0.210426000000000    0.778923000000000 
K           0.500000000000000    0.300936000000000    0.286039000000000 
K           0.500000000000000    0.699064000000000    0.286039000000000 
K           0.500000000000000    0.789574000000000    0.778923000000000 
K           0.736755000000000   -0.000000000000000    0.636125000000000 
K           0.763245000000000    0.500000000000000    0.136125000000000 
%ENDBLOCK POSITIONS_FRAC
