# Cell file generated by matador (Matthew Evans 2016)

%BLOCK LATTICE_CART
7.63022 0.0 0.0
-3.81511 6.60797 0.0
0.0 0.0 6.99226
%ENDBLOCK LATTICE_CART

%BLOCK POSITIONS_FRAC
P           0.000000000000000    0.331761000000000    0.500000000000000 
P           0.000000000000000    0.429096000000000    0.000000000000000 
P           0.331761000000000    0.000000000000000    0.500000000000000 
P           0.429096000000000    0.000000000000000    0.000000000000000 
P           0.570904000000000    0.570904000000000    0.000000000000000 
P           0.668239000000000    0.668239000000000    0.500000000000000 
K           0.000000000000000    0.000000000000000    0.000000000000000 
K           0.333333000000000    0.666667000000000    0.000000000000000 
K           0.333333000000000    0.666667000000000    0.500000000000000 
K           0.666667000000000    0.333333000000000    0.000000000000000 
K           0.666667000000000    0.333333000000000    0.500000000000000 
%ENDBLOCK POSITIONS_FRAC
