# Cell file generated by matador (Matthew Evans 2016)

%BLOCK LATTICE_CART
7.08413 0.0 0.0
-3.54206 6.13503 0.0
0.0 0.0 10.4182
%ENDBLOCK LATTICE_CART

%BLOCK POSITIONS_FRAC
P           0.000000000000000    0.000000000000000    0.232797000000000 
P           0.000000000000000    0.000000000000000    0.767203000000000 
K           0.000000000000000    0.000000000000000    0.000000000000000 
K           0.000000000000000    0.000000000000000    0.500000000000000 
K           0.000000000000000    0.292804000000000    0.180963000000000 
K           0.000000000000000    0.292804000000000    0.819037000000000 
K           0.000000000000000    0.651576000000000    0.297370000000000 
K           0.000000000000000    0.651576000000000    0.702630000000000 
K           0.292804000000000    0.000000000000000    0.180963000000000 
K           0.292804000000000    0.000000000000000    0.819037000000000 
K           0.348424000000000    0.348424000000000    0.297370000000000 
K           0.348424000000000    0.348424000000000    0.702630000000000 
K           0.651576000000000    0.000000000000000    0.297370000000000 
K           0.651576000000000    0.000000000000000    0.702630000000000 
K           0.707196000000000    0.707196000000000    0.180963000000000 
K           0.707196000000000    0.707196000000000    0.819037000000000 
%ENDBLOCK POSITIONS_FRAC
