# Cell file generated by matador (Matthew Evans 2016)

%BLOCK LATTICE_CART
6.79943 0.0 0.0
0.0 5.94303 0.0
-2.88878 0.0 5.89504
%ENDBLOCK LATTICE_CART

%BLOCK POSITIONS_FRAC
P           0.707739000000000    0.000000000000000    0.712292000000000 
K           0.063333000000000    0.000000000000000    0.397905000000000 
K           0.277984000000000    0.000000000000000    0.264853000000000 
K           0.303779000000000    0.500000000000000    0.787266000000000 
K           0.308948000000000    0.500000000000000    0.328766000000000 
K           0.403042000000000    0.000000000000000    0.826311000000000 
K           0.690713000000000    0.000000000000000    0.341271000000000 
K           0.743143000000000    0.500000000000000    0.263472000000000 
%ENDBLOCK POSITIONS_FRAC
