# Cell file generated by matador (Matthew Evans 2016)

%BLOCK LATTICE_CART
6.42243 0.0 0.0
-1.47347 6.53922 0.0
3.09602 3.57133 10.1797
%ENDBLOCK LATTICE_CART

%BLOCK POSITIONS_FRAC
P           0.000000000000000    0.000000000000000    0.500000000000000 
P           0.000000000000000    0.500000000000000    0.500000000000000 
P           0.026862000000000    0.114882000000000    0.661859000000000 
P           0.298241000000000    0.303171000000000    0.826964000000000 
P           0.409085000000000    0.390478000000000    0.432589000000000 
P           0.481089000000000    0.125853000000000    0.541579000000000 
P           0.500000000000000    0.000000000000000    0.000000000000000 
P           0.500000000000000    0.000000000000000    0.500000000000000 
P           0.500000000000000    0.500000000000000    0.000000000000000 
P           0.500000000000000    0.500000000000000    0.500000000000000 
P           0.518911000000000    0.874147000000000    0.458421000000000 
P           0.590915000000000    0.609522000000000    0.567411000000000 
P           0.701759000000000    0.696829000000000    0.173036000000000 
P           0.973138000000000    0.885118000000000    0.338141000000000 
K           0.031990000000000    0.759614000000000    0.802547000000000 
K           0.968010000000000    0.240386000000000    0.197453000000000 
%ENDBLOCK POSITIONS_FRAC
