# Cell file generated by matador (Matthew Evans 2016)

%BLOCK LATTICE_CART
9.70463 -0.0 0.0
-4.85231 8.40445 0.0
0.0 0.0 4.32953
%ENDBLOCK LATTICE_CART

%BLOCK POSITIONS_FRAC
P           0.171981000000000    0.597210000000000    0.395664000000000 
P           0.402790000000000    0.574771000000000    0.395664000000000 
P           0.425229000000000    0.828019000000000    0.395664000000000 
P           0.574771000000000    0.171981000000000    0.395664000000000 
P           0.597210000000000    0.425229000000000    0.395664000000000 
P           0.828019000000000    0.402790000000000    0.395664000000000 
K           0.000000000000000    0.500000000000000    0.941200000000000 
K           0.333333000000000    0.666667000000000    0.799891000000000 
K           0.500000000000000    0.000000000000000    0.941200000000000 
K           0.500000000000000    0.500000000000000    0.941200000000000 
K           0.666667000000000    0.333333000000000    0.799891000000000 
%ENDBLOCK POSITIONS_FRAC
