# Cell file generated by matador (Matthew Evans 2016)

%BLOCK LATTICE_CART
5.36411 0.0 0.0
0.0 7.86608 0.0
0.0 0.0 9.13504
%ENDBLOCK LATTICE_CART

%BLOCK POSITIONS_FRAC
P           0.000000000000000    0.000000000000000    0.355330000000000 
P           0.500000000000000    0.500000000000000    0.355330000000000 
K           0.000000000000000    0.000000000000000    0.722796000000000 
K           0.000000000000000    0.500000000000000    0.384427000000000 
K           0.203714000000000    0.884879000000000    0.939976000000000 
K           0.296286000000000    0.384879000000000    0.939976000000000 
K           0.500000000000000    0.000000000000000    0.384427000000000 
K           0.500000000000000    0.500000000000000    0.722796000000000 
K           0.703714000000000    0.615121000000000    0.939976000000000 
K           0.796286000000000    0.115121000000000    0.939976000000000 
%ENDBLOCK POSITIONS_FRAC
