# Cell file generated by matador (Matthew Evans 2016)

%BLOCK LATTICE_CART
10.2657 0.0 0.0
0.0 7.85034 0.0
0.0 0.0 7.13131
%ENDBLOCK LATTICE_CART

%BLOCK POSITIONS_FRAC
P           0.155158000000000    0.685194000000000    0.500000000000000 
P           0.344842000000000    0.185194000000000    0.000000000000000 
P           0.655158000000000    0.814806000000000    0.000000000000000 
P           0.844842000000000    0.314806000000000    0.500000000000000 
K           0.000000000000000    0.000000000000000    0.000000000000000 
K           0.000000000000000    0.000000000000000    0.500000000000000 
K           0.000000000000000    0.500000000000000    0.000000000000000 
K           0.000000000000000    0.500000000000000    0.500000000000000 
K           0.245069000000000    0.188395000000000    0.500000000000000 
K           0.254931000000000    0.688395000000000    0.000000000000000 
K           0.500000000000000    0.000000000000000    0.000000000000000 
K           0.500000000000000    0.000000000000000    0.500000000000000 
K           0.500000000000000    0.500000000000000    0.000000000000000 
K           0.500000000000000    0.500000000000000    0.500000000000000 
K           0.745069000000000    0.311605000000000    0.000000000000000 
K           0.754931000000000    0.811605000000000    0.500000000000000 
%ENDBLOCK POSITIONS_FRAC
