# Cell file generated by matador (Matthew Evans 2016)

%BLOCK LATTICE_CART
5.8005 0.0 0.0
0.0 5.8005 0.0
0.0 0.0 10.0094
%ENDBLOCK LATTICE_CART

%BLOCK POSITIONS_FRAC
P           0.000000000000000    0.344797000000000    0.000000000000000 
P           0.000000000000000    0.500000000000000    0.339585000000000 
P           0.000000000000000    0.500000000000000    0.660415000000000 
P           0.000000000000000    0.655203000000000    0.000000000000000 
P           0.221303000000000    0.500000000000000    0.500000000000000 
P           0.344797000000000    0.000000000000000    0.500000000000000 
P           0.500000000000000    0.000000000000000    0.160415000000000 
P           0.500000000000000    0.000000000000000    0.839585000000000 
P           0.500000000000000    0.221303000000000    0.000000000000000 
P           0.500000000000000    0.778697000000000    0.000000000000000 
P           0.655203000000000    0.000000000000000    0.500000000000000 
P           0.778697000000000    0.500000000000000    0.500000000000000 
K           0.000000000000000    0.000000000000000    0.000000000000000 
K           0.000000000000000    0.000000000000000    0.250000000000000 
K           0.000000000000000    0.000000000000000    0.500000000000000 
K           0.000000000000000    0.000000000000000    0.750000000000000 
%ENDBLOCK POSITIONS_FRAC
