# Cell file generated by matador (Matthew Evans 2016)

%BLOCK LATTICE_CART
7.70999 -0.0 0.0
-3.855 6.67705 0.0
0.0 0.0 11.6112
%ENDBLOCK LATTICE_CART

%BLOCK POSITIONS_FRAC
P          -0.000000000000000   -0.000000000000000    0.629096000000000 
P          -0.000000000000000   -0.000000000000000    0.749227000000000 
P           0.333333000000000    0.666667000000000    0.295762000000000 
P           0.333333000000000    0.666667000000000    0.415894000000000 
P           0.666667000000000    0.333333000000000    0.082561000000000 
P           0.666667000000000    0.333333000000000    0.962429000000000 
K           0.050195000000000    0.870154000000000    0.117806000000000 
K           0.129846000000000    0.180041000000000    0.117806000000000 
K           0.153292000000000    0.616471000000000    0.784472000000000 
K           0.383529000000000    0.536821000000000    0.784472000000000 
K           0.463179000000000    0.846708000000000    0.784472000000000 
K           0.486625000000000    0.283138000000000    0.451139000000000 
K           0.716862000000000    0.203487000000000    0.451139000000000 
K           0.796513000000000    0.513375000000000    0.451139000000000 
K           0.819959000000000    0.949805000000000    0.117806000000000 
%ENDBLOCK POSITIONS_FRAC
