# Cell file generated by matador (Matthew Evans 2016)

%BLOCK LATTICE_CART
11.0142 0.0 0.0
0.0 9.345 0.0
0.0 0.0 5.0304
%ENDBLOCK LATTICE_CART

%BLOCK POSITIONS_FRAC
P           0.000000000000000    0.000000000000000    0.500000000000000 
P           0.500000000000000    0.000000000000000    0.500000000000000 
K           0.000000000000000    0.000000000000000    0.000000000000000 
K           0.000000000000000    0.500000000000000    0.000000000000000 
K           0.000000000000000    0.500000000000000    0.500000000000000 
K           0.242273000000000    0.136173000000000    0.035242000000000 
K           0.242273000000000    0.863827000000000    0.964758000000000 
K           0.277195000000000    0.295516000000000    0.584752000000000 
K           0.277195000000000    0.704484000000000    0.415248000000000 
K           0.500000000000000    0.000000000000000    0.000000000000000 
K           0.500000000000000    0.500000000000000    0.000000000000000 
K           0.500000000000000    0.500000000000000    0.500000000000000 
K           0.722805000000000    0.295516000000000    0.415248000000000 
K           0.722805000000000    0.704484000000000    0.584752000000000 
K           0.757727000000000    0.136173000000000    0.964758000000000 
K           0.757727000000000    0.863827000000000    0.035242000000000 
%ENDBLOCK POSITIONS_FRAC
