# Cell file generated by matador (Matthew Evans 2016)

%BLOCK LATTICE_CART
8.39272 0.0 0.0
0.0 8.39272 0.0
0.0 0.0 12.4552
%ENDBLOCK LATTICE_CART

%BLOCK POSITIONS_FRAC
P           0.000000000000000    0.000000000000000    0.000000000000000 
P           0.000000000000000    0.000000000000000    0.500000000000000 
P           0.184654000000000    0.184654000000000    0.000000000000000 
P           0.184654000000000    0.815346000000000    0.000000000000000 
P           0.815346000000000    0.184654000000000    0.000000000000000 
P           0.815346000000000    0.815346000000000    0.000000000000000 
K           0.178781000000000    0.178781000000000    0.218411000000000 
K           0.178781000000000    0.178781000000000    0.781589000000000 
K           0.178781000000000    0.821219000000000    0.218411000000000 
K           0.178781000000000    0.821219000000000    0.781589000000000 
K           0.232382000000000    0.500000000000000    0.340322000000000 
K           0.232382000000000    0.500000000000000    0.659678000000000 
K           0.500000000000000    0.232382000000000    0.340322000000000 
K           0.500000000000000    0.232382000000000    0.659678000000000 
K           0.500000000000000    0.500000000000000    0.000000000000000 
K           0.500000000000000    0.500000000000000    0.500000000000000 
K           0.500000000000000    0.767618000000000    0.340322000000000 
K           0.500000000000000    0.767618000000000    0.659678000000000 
K           0.767618000000000    0.500000000000000    0.340322000000000 
K           0.767618000000000    0.500000000000000    0.659678000000000 
K           0.821219000000000    0.178781000000000    0.218411000000000 
K           0.821219000000000    0.178781000000000    0.781589000000000 
K           0.821219000000000    0.821219000000000    0.218411000000000 
K           0.821219000000000    0.821219000000000    0.781589000000000 
%ENDBLOCK POSITIONS_FRAC
