# Cell file generated by matador (Matthew Evans 2016)

%BLOCK LATTICE_CART
8.39619 -0.0 0.0
-4.1981 7.27132 0.0
0.0 0.0 5.63658
%ENDBLOCK LATTICE_CART

%BLOCK POSITIONS_FRAC
P           0.000001000000000    0.000001000000000    0.095508000000000 
P           0.000001000000000    0.000001000000000    0.617310000000000 
P           0.000001000000000    0.500001000000000    0.130115000000000 
P           0.000001000000000    0.500001000000000    0.367460000000000 
P           0.276517000000000    0.697354000000000    0.574404000000000 
P           0.302648000000000    0.579165000000000    0.574404000000000 
P           0.420837000000000    0.723485000000000    0.574404000000000 
P           0.500001000000000    0.000001000000000    0.130115000000000 
P           0.500001000000000    0.000001000000000    0.367460000000000 
P           0.500001000000000    0.500001000000000    0.130115000000000 
P           0.500001000000000    0.500001000000000    0.367460000000000 
P           0.579165000000000    0.276517000000000    0.574404000000000 
P           0.697354000000000    0.420837000000000    0.574404000000000 
P           0.723485000000000    0.302648000000000    0.574404000000000 
K           0.333334000000000    0.666668000000000    0.968652000000000 
K           0.666668000000000    0.333334000000000    0.968652000000000 
%ENDBLOCK POSITIONS_FRAC
