# Cell file generated by matador (Matthew Evans 2016)

%BLOCK LATTICE_CART
8.37611 0.0 0.0
-4.18806 7.25393 0.0
0.0 0.0 7.59188
%ENDBLOCK LATTICE_CART

%BLOCK POSITIONS_FRAC
P           0.070959000000000    0.471143000000000    0.000000000000000 
P           0.333333000000000    0.666667000000000    0.254819000000000 
P           0.333333000000000    0.666667000000000    0.745181000000000 
P           0.400184000000000    0.929041000000000    0.000000000000000 
P           0.471143000000000    0.070959000000000    0.000000000000000 
P           0.528857000000000    0.599816000000000    0.000000000000000 
P           0.599816000000000    0.528857000000000    0.000000000000000 
P           0.666667000000000    0.333333000000000    0.254819000000000 
P           0.666667000000000    0.333333000000000    0.745181000000000 
P           0.929041000000000    0.400184000000000    0.000000000000000 
K           0.000000000000000    0.000000000000000    0.000000000000000 
K           0.000000000000000    0.000000000000000    0.500000000000000 
K           0.333333000000000    0.666667000000000    0.000000000000000 
K           0.666667000000000    0.333333000000000    0.000000000000000 
%ENDBLOCK POSITIONS_FRAC
