# Cell file generated by matador (Matthew Evans 2016)

%BLOCK LATTICE_CART
7.20063 0.0 0.0
-3.60032 6.23593 0.0
0.0 0.0 10.0758
%ENDBLOCK LATTICE_CART

%BLOCK POSITIONS_FRAC
P           0.000000000000000    0.000000000000000    0.092310000000000 
P           0.098745000000000    0.003747000000000    0.716165000000000 
P           0.666667000000000    0.333333000000000    0.227417000000000 
P           0.666667000000000    0.333333000000000    0.500707000000000 
P           0.905002000000000    0.901255000000000    0.716165000000000 
P           0.996253000000000    0.094998000000000    0.716165000000000 
K           0.333333000000000    0.666667000000000    0.728642000000000 
K           0.405123000000000    0.312714000000000    0.849172000000000 
K           0.453354000000000    0.028979000000000    0.020410000000000 
K           0.575625000000000    0.546646000000000    0.020410000000000 
K           0.687286000000000    0.092409000000000    0.849172000000000 
K           0.907591000000000    0.594877000000000    0.849172000000000 
K           0.971021000000000    0.424375000000000    0.020410000000000 
%ENDBLOCK POSITIONS_FRAC
