# Cell file generated by matador (Matthew Evans 2016)

%BLOCK LATTICE_CART
7.81263 0.0 0.0
0.0 7.81263 0.0
0.0 0.0 6.74189
%ENDBLOCK LATTICE_CART

%BLOCK POSITIONS_FRAC
P           0.071039000000000    0.071039000000000    0.000000000000000 
P           0.071039000000000    0.928961000000000    0.000000000000000 
P           0.428961000000000    0.428961000000000    0.500000000000000 
P           0.428961000000000    0.571039000000000    0.500000000000000 
P           0.571039000000000    0.428961000000000    0.500000000000000 
P           0.571039000000000    0.571039000000000    0.500000000000000 
P           0.928961000000000    0.071039000000000    0.000000000000000 
P           0.928961000000000    0.928961000000000    0.000000000000000 
K           0.000000000000000    0.000000000000000    0.500000000000000 
K           0.000000000000000    0.500000000000000    0.250000000000000 
K           0.000000000000000    0.500000000000000    0.750000000000000 
K           0.500000000000000    0.000000000000000    0.250000000000000 
K           0.500000000000000    0.000000000000000    0.750000000000000 
K           0.500000000000000    0.500000000000000    0.000000000000000 
%ENDBLOCK POSITIONS_FRAC
