# Cell file generated by matador (Matthew Evans 2016)

%BLOCK LATTICE_CART
8.98204 0.0 0.0
0.0 8.92952 0.0
0.0 0.0 14.3409
%ENDBLOCK LATTICE_CART

%BLOCK POSITIONS_FRAC
P           0.194461000000000    0.059164000000000    0.006271000000000 
P           0.194461000000000    0.940836000000000    0.506271000000000 
P           0.305539000000000    0.440836000000000    0.506271000000000 
P           0.305539000000000    0.559164000000000    0.006271000000000 
P           0.694461000000000    0.440836000000000    0.506271000000000 
P           0.694461000000000    0.559164000000000    0.006271000000000 
P           0.805539000000000    0.059164000000000    0.006271000000000 
P           0.805539000000000    0.940836000000000    0.506271000000000 
K           0.000000000000000    0.117115000000000    0.495774000000000 
K           0.000000000000000    0.170316000000000    0.903492000000000 
K           0.000000000000000    0.185525000000000    0.168735000000000 
K           0.000000000000000    0.190789000000000    0.695680000000000 
K           0.000000000000000    0.380535000000000    0.371047000000000 
K           0.000000000000000    0.481556000000000    0.068559000000000 
K           0.000000000000000    0.518444000000000    0.568559000000000 
K           0.000000000000000    0.619465000000000    0.871047000000000 
K           0.000000000000000    0.809211000000000    0.195680000000000 
K           0.000000000000000    0.814475000000000    0.668735000000000 
K           0.000000000000000    0.829684000000000    0.403492000000000 
K           0.000000000000000    0.882885000000000    0.995774000000000 
K           0.500000000000000    0.018444000000000    0.568559000000000 
K           0.500000000000000    0.119465000000000    0.871047000000000 
K           0.500000000000000    0.309211000000000    0.195680000000000 
K           0.500000000000000    0.314475000000000    0.668735000000000 
K           0.500000000000000    0.329684000000000    0.403492000000000 
K           0.500000000000000    0.382885000000000    0.995774000000000 
K           0.500000000000000    0.617115000000000    0.495774000000000 
K           0.500000000000000    0.670316000000000    0.903492000000000 
K           0.500000000000000    0.685525000000000    0.168735000000000 
K           0.500000000000000    0.690789000000000    0.695680000000000 
K           0.500000000000000    0.880535000000000    0.371047000000000 
K           0.500000000000000    0.981556000000000    0.068559000000000 
%ENDBLOCK POSITIONS_FRAC
