# Cell file generated by matador (Matthew Evans 2016)

%BLOCK LATTICE_CART
8.29754 0.0 0.0
0.0 6.97091 0.0
0.0 0.0 8.5318
%ENDBLOCK LATTICE_CART

%BLOCK POSITIONS_FRAC
P           0.000000000000000   -0.000000000000000    0.500000000000000 
P           0.000000000000000    0.099236000000000    0.404211000000000 
P           0.000000000000000    0.099236000000000    0.595789000000000 
P           0.000000000000000    0.500000000000000    0.226114000000000 
P           0.000000000000000    0.500000000000000    0.773886000000000 
P           0.000000000000000    0.900764000000000    0.404211000000000 
P           0.000000000000000    0.900764000000000    0.595789000000000 
P           0.500000000000000   -0.000000000000000    0.273886000000000 
P           0.500000000000000   -0.000000000000000    0.726114000000000 
P           0.500000000000000    0.400764000000000    0.095789000000000 
P           0.500000000000000    0.400764000000000    0.904211000000000 
P           0.500000000000000    0.500000000000000   -0.000000000000000 
P           0.500000000000000    0.599236000000000    0.095789000000000 
P           0.500000000000000    0.599236000000000    0.904211000000000 
K           0.000000000000000   -0.000000000000000   -0.000000000000000 
K           0.000000000000000    0.500000000000000   -0.000000000000000 
K           0.000000000000000    0.500000000000000    0.500000000000000 
K           0.500000000000000   -0.000000000000000   -0.000000000000000 
K           0.500000000000000   -0.000000000000000    0.500000000000000 
K           0.500000000000000    0.500000000000000    0.500000000000000 
%ENDBLOCK POSITIONS_FRAC
