# Cell file generated by matador (Matthew Evans 2016)

%BLOCK LATTICE_CART
7.32655 0.0 0.0
0.0 7.32655 0.0
0.0 0.0 4.61779
%ENDBLOCK LATTICE_CART

%BLOCK POSITIONS_FRAC
P           0.000000000000000    0.500000000000000    0.500000000000000 
P           0.500000000000000    0.000000000000000    0.500000000000000 
P           0.500000000000000    0.500000000000000    0.000000000000000 
K           0.000000000000000    0.500000000000000    0.000000000000000 
K           0.264251000000000    0.350321000000000    0.500000000000000 
K           0.350321000000000    0.735749000000000    0.500000000000000 
K           0.500000000000000    0.000000000000000    0.000000000000000 
K           0.649679000000000    0.264251000000000    0.500000000000000 
K           0.735749000000000    0.649679000000000    0.500000000000000 
%ENDBLOCK POSITIONS_FRAC
