# Cell file generated by matador (Matthew Evans 2016)

%BLOCK LATTICE_CART
6.47554 0.0 0.0
0.0 5.41148 0.0
-1.58453 0.0 4.1446
%ENDBLOCK LATTICE_CART

%BLOCK POSITIONS_FRAC
P           0.000000000000000    0.140473000000000    0.000000000000000 
P           0.000000000000000    0.382675000000000    0.000000000000000 
P           0.257949000000000    0.121880000000000    0.992974000000000 
P           0.742051000000000    0.121880000000000    0.007026000000000 
K           0.500000000000000    0.639823000000000    0.500000000000000 
%ENDBLOCK POSITIONS_FRAC
