# Cell file generated by matador (Matthew Evans 2016)

%BLOCK LATTICE_CART
4.4679 0.0 0.0
-2.23395 3.86932 0.0
0.0 0.0 7.17327
%ENDBLOCK LATTICE_CART

%BLOCK POSITIONS_FRAC
P           0.000000000000000    0.000000000000000    0.000000000000000 
P           0.000000000000000    0.505531000000000    0.500000000000000 
P           0.494469000000000    0.494469000000000    0.500000000000000 
P           0.505531000000000    0.000000000000000    0.500000000000000 
K           0.000000000000000    0.000000000000000    0.500000000000000 
%ENDBLOCK POSITIONS_FRAC
