# Cell file generated by matador (Matthew Evans 2016)

%BLOCK LATTICE_CART
9.75139 0.0 0.0
0.0 9.75139 0.0
0.0 0.0 10.6828
%ENDBLOCK LATTICE_CART

%BLOCK POSITIONS_FRAC
P          -0.000000000000000   -0.000000000000000   -0.000000000000000 
P          -0.000000000000000    0.500000000000000    0.250000000000000 
P          -0.000000000000000    0.500000000000000    0.750000000000000 
P           0.500000000000000   -0.000000000000000    0.250000000000000 
P           0.500000000000000   -0.000000000000000    0.750000000000000 
P           0.500000000000000    0.500000000000000    0.500000000000000 
K          -0.000000000000000   -0.000000000000000    0.500000000000000 
K           0.062855000000000    0.699206000000000    0.500000000000000 
K           0.135115000000000    0.263137000000000   -0.000000000000000 
K           0.199206000000000    0.562855000000000   -0.000000000000000 
K           0.236863000000000    0.364885000000000    0.500000000000000 
K           0.263137000000000    0.864885000000000   -0.000000000000000 
K           0.300794000000000    0.062855000000000    0.500000000000000 
K           0.364885000000000    0.763137000000000    0.500000000000000 
K           0.437145000000000    0.199206000000000   -0.000000000000000 
K           0.500000000000000    0.500000000000000   -0.000000000000000 
K           0.562855000000000    0.800794000000000   -0.000000000000000 
K           0.635115000000000    0.236863000000000    0.500000000000000 
K           0.699206000000000    0.937145000000000    0.500000000000000 
K           0.736863000000000    0.135115000000000   -0.000000000000000 
K           0.763137000000000    0.635115000000000    0.500000000000000 
K           0.800794000000000    0.437145000000000   -0.000000000000000 
K           0.864885000000000    0.736863000000000   -0.000000000000000 
K           0.937145000000000    0.300794000000000    0.500000000000000 
%ENDBLOCK POSITIONS_FRAC
