# Cell file generated by matador (Matthew Evans 2016)

%BLOCK LATTICE_CART
6.32882 0.0 0.0
0.0 6.32882 0.0
0.0 0.0 13.7439
%ENDBLOCK LATTICE_CART

%BLOCK POSITIONS_FRAC
P           0.000000000000000    0.000000000000000    0.500000000000000 
P           0.000000000000000    0.500000000000000    0.000000000000000 
P           0.000000000000000    0.500000000000000    0.217066000000000 
P           0.000000000000000    0.500000000000000    0.782934000000000 
P           0.228805000000000    0.462519000000000    0.781096000000000 
P           0.228805000000000    0.537481000000000    0.218904000000000 
P           0.462519000000000    0.228805000000000    0.781096000000000 
P           0.462519000000000    0.771195000000000    0.218904000000000 
P           0.500000000000000    0.000000000000000    0.000000000000000 
P           0.500000000000000    0.000000000000000    0.217066000000000 
P           0.500000000000000    0.000000000000000    0.782934000000000 
P           0.537481000000000    0.228805000000000    0.218904000000000 
P           0.537481000000000    0.771195000000000    0.781096000000000 
P           0.771195000000000    0.462519000000000    0.218904000000000 
P           0.771195000000000    0.537481000000000    0.781096000000000 
K           0.000000000000000    0.000000000000000    0.000000000000000 
K           0.000000000000000    0.000000000000000    0.145520000000000 
K           0.000000000000000    0.000000000000000    0.854480000000000 
K           0.500000000000000    0.500000000000000    0.000000000000000 
K           0.500000000000000    0.500000000000000    0.500000000000000 
%ENDBLOCK POSITIONS_FRAC
