# Cell file generated by matador (Matthew Evans 2016)

%BLOCK LATTICE_CART
11.2619 0.0 0.0
0.0 4.98018 0.0
0.0 0.0 10.9307
%ENDBLOCK LATTICE_CART

%BLOCK POSITIONS_FRAC
P           0.000000000000000    0.000000000000000    0.080791000000000 
P           0.000000000000000    0.000000000000000    0.919209000000000 
P           0.143166000000000    0.225759000000000    0.500000000000000 
P           0.143166000000000    0.774241000000000    0.500000000000000 
P           0.340150000000000    0.000000000000000    0.418664000000000 
P           0.340150000000000    0.000000000000000    0.581336000000000 
P           0.408726000000000    0.500000000000000    0.228112000000000 
P           0.408726000000000    0.500000000000000    0.771888000000000 
P           0.591274000000000    0.500000000000000    0.228112000000000 
P           0.591274000000000    0.500000000000000    0.771888000000000 
P           0.659850000000000    0.000000000000000    0.418664000000000 
P           0.659850000000000    0.000000000000000    0.581336000000000 
P           0.856834000000000    0.225759000000000    0.500000000000000 
P           0.856834000000000    0.774241000000000    0.500000000000000 
K           0.000000000000000    0.000000000000000    0.500000000000000 
K           0.000000000000000    0.500000000000000    0.500000000000000 
K           0.500000000000000    0.000000000000000    0.000000000000000 
K           0.500000000000000    0.000000000000000    0.500000000000000 
K           0.500000000000000    0.500000000000000    0.000000000000000 
K           0.500000000000000    0.500000000000000    0.500000000000000 
%ENDBLOCK POSITIONS_FRAC
