# Cell file generated by matador (Matthew Evans 2016)

%BLOCK LATTICE_CART
7.61822 0.0 0.0
-3.80911 6.59758 0.0
0.0 0.0 11.5693
%ENDBLOCK LATTICE_CART

%BLOCK POSITIONS_FRAC
P           0.000001000000000    0.000001000000000    0.361337000000000 
P           0.000001000000000    0.000001000000000    0.791202000000000 
P           0.000001000000000    0.169934000000000    0.517905000000000 
P           0.000001000000000    0.830068000000000    0.517905000000000 
P           0.169934000000000    0.000001000000000    0.517905000000000 
P           0.169934000000000    0.169934000000000    0.517905000000000 
P           0.333334000000000    0.666668000000000    0.520311000000000 
P           0.333334000000000    0.666668000000000    0.808191000000000 
P           0.666668000000000    0.333334000000000    0.520311000000000 
P           0.666668000000000    0.333334000000000    0.808191000000000 
P           0.830068000000000    0.000001000000000    0.517905000000000 
P           0.830068000000000    0.830068000000000    0.517905000000000 
K           0.233631000000000    0.467262000000000    0.156143000000000 
K           0.233631000000000    0.766371000000000    0.156143000000000 
K           0.333334000000000    0.666668000000000    0.333078000000000 
K           0.467262000000000    0.233631000000000    0.156143000000000 
K           0.532740000000000    0.766371000000000    0.156143000000000 
K           0.666668000000000    0.333334000000000    0.333078000000000 
K           0.766371000000000    0.233631000000000    0.156143000000000 
K           0.766371000000000    0.532740000000000    0.156143000000000 
%ENDBLOCK POSITIONS_FRAC
