# Cell file generated by matador (Matthew Evans 2016)

%BLOCK LATTICE_CART
4.93036 0.0 0.0
-2.46518 4.26982 0.0
0.0 0.0 4.65718
%ENDBLOCK LATTICE_CART

%BLOCK POSITIONS_FRAC
P           0.333333000000000    0.666667000000000    0.056618000000000 
P           0.333333000000000    0.666667000000000    0.313197000000000 
K           0.000000000000000    0.000000000000000    0.556551000000000 
%ENDBLOCK POSITIONS_FRAC
