# Cell file generated by matador (Matthew Evans 2016)

%BLOCK LATTICE_CART
4.36841 0.0 0.0
-2.18421 3.78316 0.0
0.0 0.0 7.18607
%ENDBLOCK LATTICE_CART

%BLOCK POSITIONS_FRAC
P           0.000000000000000    0.000000000000000    0.000000000000000 
P           0.000000000000000    0.000000000000000    0.500000000000000 
K           0.333333000000000    0.666667000000000    0.500000000000000 
K           0.666667000000000    0.333333000000000    0.500000000000000 
%ENDBLOCK POSITIONS_FRAC
