# Cell file generated by matador (Matthew Evans 2016)

%BLOCK LATTICE_CART
9.39231 0.0 0.0
-4.69615 8.13398 0.0
0.0 0.0 6.13073
%ENDBLOCK LATTICE_CART

%BLOCK POSITIONS_FRAC
P          -0.000000000000000   -0.000000000000000    0.000000000000000 
P          -0.000000000000000   -0.000000000000000    0.500000000000000 
P           0.174266000000000    0.348532000000000    0.500000000000000 
P           0.174266000000000    0.825734000000000    0.500000000000000 
P           0.333333000000000    0.666667000000000    0.000000000000000 
P           0.333333000000000    0.666667000000000    0.500000000000000 
P           0.651468000000000    0.825734000000000    0.500000000000000 
P           0.666667000000000    0.333333000000000    0.000000000000000 
P           0.666667000000000    0.333333000000000    0.500000000000000 
K           0.362935000000000    0.060378000000000    0.500000000000000 
K           0.362935000000000    0.302557000000000    0.500000000000000 
K           0.697443000000000    0.060378000000000    0.500000000000000 
K           0.697443000000000    0.637065000000000    0.500000000000000 
K           0.939622000000000    0.302557000000000    0.500000000000000 
K           0.939622000000000    0.637065000000000    0.500000000000000 
%ENDBLOCK POSITIONS_FRAC
