# Cell file generated by matador (Matthew Evans 2016)

%BLOCK LATTICE_CART
4.83361 0.0 0.0
0.0 7.93284 0.0
0.0 0.0 8.41745
%ENDBLOCK LATTICE_CART

%BLOCK POSITIONS_FRAC
P           0.214736000000000    0.383875000000000    0.379846000000000 
P           0.214736000000000    0.616125000000000    0.879846000000000 
P           0.262386000000000    0.139119000000000    0.580439000000000 
P           0.262386000000000    0.860881000000000    0.080439000000000 
P           0.267763000000000    0.041226000000000    0.375826000000000 
P           0.267763000000000    0.958774000000000    0.875826000000000 
P           0.732237000000000    0.041226000000000    0.375826000000000 
P           0.732237000000000    0.958774000000000    0.875826000000000 
P           0.737614000000000    0.139119000000000    0.580439000000000 
P           0.737614000000000    0.860881000000000    0.080439000000000 
P           0.785264000000000    0.383875000000000    0.379846000000000 
P           0.785264000000000    0.616125000000000    0.879846000000000 
K           0.500000000000000    0.273916000000000    0.797825000000000 
K           0.500000000000000    0.726084000000000    0.297825000000000 
%ENDBLOCK POSITIONS_FRAC
