# Cell file generated by matador (Matthew Evans 2016)

%BLOCK LATTICE_CART
6.3871 0.0 0.0
-3.19355 5.53139 0.0
0.0 0.0 7.11979
%ENDBLOCK LATTICE_CART

%BLOCK POSITIONS_FRAC
P           0.000000000000000    0.000000000000000    0.419130000000000 
P           0.333333000000000    0.666667000000000    0.717243000000000 
K           0.000000000000000    0.000000000000000    0.085913000000000 
K           0.332299000000000    0.083650000000000    0.247719000000000 
K           0.666667000000000    0.333333000000000    0.037832000000000 
K           0.751352000000000    0.667701000000000    0.247719000000000 
K           0.916350000000000    0.248648000000000    0.247719000000000 
%ENDBLOCK POSITIONS_FRAC
