# Cell file generated by matador (Matthew Evans 2016)

%BLOCK LATTICE_CART
6.65017 0.0 0.0
0.0 8.11948 0.0
-0.245692 0.0 10.4187
%ENDBLOCK LATTICE_CART

%BLOCK POSITIONS_FRAC
P           0.024338000000000    0.742711000000000    0.806031000000000 
P           0.024338000000000    0.757289000000000    0.306031000000000 
P           0.975662000000000    0.242711000000000    0.693969000000000 
P           0.975662000000000    0.257289000000000    0.193969000000000 
K           0.000000000000000    0.000000000000000   -0.000000000000000 
K           0.000000000000000    0.500000000000000    0.500000000000000 
K           0.224832000000000    0.069140000000000    0.325693000000000 
K           0.224832000000000    0.430860000000000    0.825693000000000 
K           0.369906000000000    0.068793000000000    0.162685000000000 
K           0.369906000000000    0.431207000000000    0.662685000000000 
K           0.500000000000000    0.000000000000000   -0.000000000000000 
K           0.500000000000000    0.000000000000000    0.500000000000000 
K           0.500000000000000    0.500000000000000   -0.000000000000000 
K           0.500000000000000    0.500000000000000    0.500000000000000 
K           0.630094000000000    0.568793000000000    0.337315000000000 
K           0.630094000000000    0.931207000000000    0.837315000000000 
K           0.775168000000000    0.569140000000000    0.174307000000000 
K           0.775168000000000    0.930860000000000    0.674307000000000 
%ENDBLOCK POSITIONS_FRAC
