# Cell file generated by matador (Matthew Evans 2016)

%BLOCK LATTICE_CART
7.80807 0.0 0.0
-3.90404 6.76199 0.0
0.0 0.0 8.80447
%ENDBLOCK LATTICE_CART

%BLOCK POSITIONS_FRAC
P           0.000000000000000    0.000000000000000    0.907196000000000 
P           0.333333000000000    0.666667000000000    0.573863000000000 
P           0.666667000000000    0.333333000000000    0.240529000000000 
K           0.199029000000000    0.398058000000000    0.988240000000000 
K           0.199029000000000    0.800971000000000    0.988240000000000 
K           0.268608000000000    0.134304000000000    0.321574000000000 
K           0.532363000000000    0.064725000000000    0.654907000000000 
K           0.532363000000000    0.467637000000000    0.654907000000000 
K           0.601942000000000    0.800971000000000    0.988240000000000 
K           0.865696000000000    0.134304000000000    0.321574000000000 
K           0.865696000000000    0.731392000000000    0.321574000000000 
K           0.935275000000000    0.467637000000000    0.654907000000000 
%ENDBLOCK POSITIONS_FRAC
