# Cell file generated by matador (Matthew Evans 2016)

%BLOCK LATTICE_CART
6.56094 -0.0 0.0
-3.28047 5.68194 0.0
0.0 0.0 6.50739
%ENDBLOCK LATTICE_CART

%BLOCK POSITIONS_FRAC
P           0.088854000000000    0.653578000000000    0.718124000000000 
P           0.333333000000000    0.666667000000000    0.140166000000000 
P           0.333333000000000    0.666667000000000    0.733350000000000 
P           0.346422000000000    0.435275000000000    0.718124000000000 
P           0.564325000000000    0.257894000000000    0.007096000000000 
P           0.564725000000000    0.911146000000000    0.718124000000000 
P           0.693569000000000    0.435675000000000    0.007096000000000 
P           0.742106000000000    0.306431000000000    0.007096000000000 
K           0.000000000000000    0.000000000000000    0.856085000000000 
K           0.666667000000000    0.333333000000000    0.547245000000000 
%ENDBLOCK POSITIONS_FRAC
