# Cell file generated by matador (Matthew Evans 2016)

%BLOCK LATTICE_CART
6.48229 0.0 0.0
0.0 6.48229 0.0
0.0 0.0 8.81848
%ENDBLOCK LATTICE_CART

%BLOCK POSITIONS_FRAC
P           0.000000000000000    0.000000000000000    0.018626000000000 
P           0.000000000000000    0.000000000000000    0.156526000000000 
P           0.000000000000000    0.000000000000000    0.831397000000000 
P           0.500000000000000    0.500000000000000    0.018207000000000 
P           0.500000000000000    0.500000000000000    0.536883000000000 
K           0.000000000000000    0.500000000000000    0.287032000000000 
K           0.014669000000000    0.289318000000000    0.498245000000000 
K           0.289318000000000    0.985331000000000    0.498245000000000 
K           0.500000000000000    0.000000000000000    0.287032000000000 
K           0.710682000000000    0.014669000000000    0.498245000000000 
K           0.985331000000000    0.710682000000000    0.498245000000000 
%ENDBLOCK POSITIONS_FRAC
