# Cell file generated by matador (Matthew Evans 2016)

%BLOCK LATTICE_CART
10.4907 0.0 0.0
0.0 6.0775 0.0
0.0 0.0 7.32981
%ENDBLOCK LATTICE_CART

%BLOCK POSITIONS_FRAC
P           0.195915000000000    0.500000000000000    0.338104000000000 
P           0.500000000000000    0.500000000000000    0.333619000000000 
P           0.804085000000000    0.500000000000000    0.338104000000000 
K           0.000000000000000    0.237513000000000    0.532182000000000 
K           0.000000000000000    0.500000000000000    0.864057000000000 
K           0.000000000000000    0.762487000000000    0.532182000000000 
K           0.149965000000000    0.000000000000000    0.159813000000000 
K           0.244821000000000    0.500000000000000    0.070901000000000 
K           0.328164000000000    0.500000000000000    0.670672000000000 
K           0.671836000000000    0.500000000000000    0.670672000000000 
K           0.755179000000000    0.500000000000000    0.070901000000000 
K           0.850035000000000    0.000000000000000    0.159813000000000 
%ENDBLOCK POSITIONS_FRAC
