# Cell file generated by matador (Matthew Evans 2016)

%BLOCK LATTICE_CART
7.67405 0.0 0.0
0.0 7.67405 0.0
0.0 0.0 9.73101
%ENDBLOCK LATTICE_CART

%BLOCK POSITIONS_FRAC
P          -0.000000000000000    0.000000000000000   -0.000000000000000 
P          -0.000000000000000    0.000000000000000    0.250000000000000 
P          -0.000000000000000    0.000000000000000    0.500000000000000 
P          -0.000000000000000    0.000000000000000    0.750000000000000 
P           0.123075000000000    0.123075000000000    0.750000000000000 
P           0.123075000000000    0.876925000000000    0.250000000000000 
P           0.376925000000000    0.376925000000000    0.250000000000000 
P           0.376925000000000    0.623075000000000    0.750000000000000 
P           0.500000000000000    0.500000000000000   -0.000000000000000 
P           0.500000000000000    0.500000000000000    0.250000000000000 
P           0.500000000000000    0.500000000000000    0.500000000000000 
P           0.500000000000000    0.500000000000000    0.750000000000000 
P           0.623075000000000    0.376925000000000    0.750000000000000 
P           0.623075000000000    0.623075000000000    0.250000000000000 
P           0.876925000000000    0.123075000000000    0.250000000000000 
P           0.876925000000000    0.876925000000000    0.750000000000000 
K          -0.000000000000000    0.500000000000000    0.250000000000000 
K          -0.000000000000000    0.500000000000000    0.750000000000000 
K           0.500000000000000    0.000000000000000    0.250000000000000 
K           0.500000000000000    0.000000000000000    0.750000000000000 
%ENDBLOCK POSITIONS_FRAC
