# Cell file generated by matador (Matthew Evans 2016)

%BLOCK LATTICE_CART
7.10666 0.0 0.0
0.0 9.56844 0.0
-2.989 0.0 7.10215
%ENDBLOCK LATTICE_CART

%BLOCK POSITIONS_FRAC
P           0.000000000000000   -0.000000000000000   -0.000000000000000 
P           0.000000000000000    0.500000000000000    0.500000000000000 
P           0.176242000000000    0.584199000000000    0.248072000000000 
P           0.176242000000000    0.915801000000000    0.748072000000000 
P           0.823758000000000    0.084199000000000    0.251928000000000 
P           0.823758000000000    0.415801000000000    0.751928000000000 
K           0.000000000000000   -0.000000000000000    0.500000000000000 
K           0.000000000000000    0.500000000000000   -0.000000000000000 
K           0.260067000000000    0.133874000000000    0.730730000000000 
K           0.260067000000000    0.366126000000000    0.230730000000000 
K           0.500000000000000   -0.000000000000000   -0.000000000000000 
K           0.500000000000000   -0.000000000000000    0.500000000000000 
K           0.500000000000000    0.500000000000000   -0.000000000000000 
K           0.500000000000000    0.500000000000000    0.500000000000000 
K           0.739933000000000    0.633874000000000    0.769270000000000 
K           0.739933000000000    0.866126000000000    0.269270000000000 
%ENDBLOCK POSITIONS_FRAC
