# Cell file generated by matador (Matthew Evans 2016)

%BLOCK LATTICE_CART
8.08309 0.0 0.0
0.0 7.71164 0.0
-0.81978 0.0 4.71052
%ENDBLOCK LATTICE_CART

%BLOCK POSITIONS_FRAC
P           0.122856000000000    0.500000000000000    0.569528000000000 
P           0.621247000000000    0.366124000000000    0.369760000000000 
P           0.621247000000000    0.633876000000000    0.369760000000000 
P           0.935137000000000    0.112562000000000    0.641677000000000 
P           0.935137000000000    0.887438000000000    0.641677000000000 
K           0.402846000000000    0.500000000000000    0.606517000000000 
K           0.422259000000000    0.500000000000000    0.169055000000000 
K           0.554577000000000    0.000000000000000    0.876709000000000 
K           0.804171000000000    0.000000000000000    0.025281000000000 
K           0.835329000000000    0.500000000000000    0.900401000000000 
K           0.846035000000000    0.500000000000000    0.321444000000000 
%ENDBLOCK POSITIONS_FRAC
