# Cell file generated by matador (Matthew Evans 2016)

%BLOCK LATTICE_CART
15.8954 0.0 0.0
0.0 8.00314 0.0
-2.6018 0.0 4.60539
%ENDBLOCK LATTICE_CART

%BLOCK POSITIONS_FRAC
P           0.000000000000000    0.000000000000000    0.500000000000000 
P           0.000000000000000    0.500000000000000    0.000000000000000 
K           0.205715000000000    0.250481000000000    0.786697000000000 
K           0.205715000000000    0.749519000000000    0.786697000000000 
K           0.225583000000000    0.000000000000000    0.484014000000000 
K           0.385335000000000    0.373094000000000    0.223822000000000 
K           0.385335000000000    0.626906000000000    0.223822000000000 
K           0.500000000000000    0.000000000000000    0.000000000000000 
K           0.500000000000000    0.500000000000000    0.000000000000000 
K           0.614665000000000    0.373094000000000    0.776178000000000 
K           0.614665000000000    0.626906000000000    0.776178000000000 
K           0.774417000000000    0.000000000000000    0.515986000000000 
K           0.794285000000000    0.250481000000000    0.213303000000000 
K           0.794285000000000    0.749519000000000    0.213303000000000 
%ENDBLOCK POSITIONS_FRAC
