# Cell file generated by matador (Matthew Evans 2016)

%BLOCK LATTICE_CART
8.33592 0.0 0.0
-4.16796 7.21912 0.0
0.0 0.0 6.66313
%ENDBLOCK LATTICE_CART

%BLOCK POSITIONS_FRAC
P          -0.000000000000000    0.500000000000000    0.541018000000000 
P           0.333333000000000    0.666667000000000    0.395927000000000 
P           0.333333000000000    0.666667000000000    0.841128000000000 
P           0.500000000000000   -0.000000000000000    0.541018000000000 
P           0.500000000000000    0.500000000000000    0.541018000000000 
P           0.666667000000000    0.333333000000000    0.395927000000000 
P           0.666667000000000    0.333333000000000    0.841128000000000 
K          -0.000000000000000    0.377492000000000    0.961346000000000 
K          -0.000000000000000    0.622508000000000    0.961346000000000 
K           0.377492000000000   -0.000000000000000    0.961346000000000 
K           0.377492000000000    0.377492000000000    0.961346000000000 
K           0.622508000000000   -0.000000000000000    0.961346000000000 
K           0.622508000000000    0.622508000000000    0.961346000000000 
%ENDBLOCK POSITIONS_FRAC
