# Cell file generated by matador (Matthew Evans 2016)

%BLOCK LATTICE_CART
3.74299 0.0 0.0
0.0 6.66976 0.0
2.09524 0.0 8.73141
%ENDBLOCK LATTICE_CART

%BLOCK POSITIONS_FRAC
P           0.102877000000000    0.735775000000000    0.605495000000000 
P           0.500000000000000    0.488308000000000    0.000000000000000 
P           0.500000000000000    0.748929000000000    0.500000000000000 
P           0.897123000000000    0.735775000000000    0.394505000000000 
K           0.000000000000000    0.167320000000000    0.500000000000000 
K           0.377721000000000    0.437581000000000    0.741483000000000 
K           0.622279000000000    0.437581000000000    0.258517000000000 
%ENDBLOCK POSITIONS_FRAC
