# Cell file generated by matador (Matthew Evans 2016)

%BLOCK LATTICE_CART
9.01766 0.0 0.0
0.0 9.00029 0.0
0.0 0.0 7.86513
%ENDBLOCK LATTICE_CART

%BLOCK POSITIONS_FRAC
P          -0.000000000000000    0.500000000000000    0.133194000000000 
P           0.123970000000000    0.065265000000000    0.625519000000000 
P           0.376030000000000    0.565265000000000    0.374481000000000 
P           0.500000000000000    0.000000000000000    0.866806000000000 
P           0.623970000000000    0.434735000000000    0.374481000000000 
P           0.876030000000000    0.934735000000000    0.625519000000000 
K          -0.000000000000000    0.000000000000000    0.090003000000000 
K          -0.000000000000000    0.000000000000000    0.372643000000000 
K           0.084401000000000    0.601095000000000    0.865194000000000 
K           0.122002000000000    0.674842000000000    0.549382000000000 
K           0.377998000000000    0.174842000000000    0.450618000000000 
K           0.415599000000000    0.101095000000000    0.134806000000000 
K           0.500000000000000    0.500000000000000    0.627357000000000 
K           0.500000000000000    0.500000000000000    0.909997000000000 
K           0.584401000000000    0.898905000000000    0.134806000000000 
K           0.622002000000000    0.825158000000000    0.450618000000000 
K           0.877998000000000    0.325158000000000    0.549382000000000 
K           0.915599000000000    0.398905000000000    0.865194000000000 
%ENDBLOCK POSITIONS_FRAC
