# Cell file generated by matador (Matthew Evans 2016)

%BLOCK LATTICE_CART
5.98071 0.0 0.0
0.0 6.91883 0.0
0.0 0.0 9.66141
%ENDBLOCK LATTICE_CART

%BLOCK POSITIONS_FRAC
P           0.000000000000000    0.000000000000000    0.403920000000000 
P           0.000000000000000    0.000000000000000    0.596080000000000 
P           0.000000000000000    0.500000000000000    0.500000000000000 
P           0.500000000000000    0.316329000000000    0.500000000000000 
P           0.500000000000000    0.683671000000000    0.500000000000000 
K           0.000000000000000    0.000000000000000    0.000000000000000 
K           0.000000000000000    0.500000000000000    0.000000000000000 
K           0.228128000000000    0.187151000000000    0.210556000000000 
K           0.228128000000000    0.812849000000000    0.789444000000000 
K           0.500000000000000    0.500000000000000    0.000000000000000 
K           0.771872000000000    0.187151000000000    0.789444000000000 
K           0.771872000000000    0.812849000000000    0.210556000000000 
%ENDBLOCK POSITIONS_FRAC
