# Cell file generated by matador (Matthew Evans 2016)

%BLOCK LATTICE_CART
8.24788 0.0 0.0
-4.12394 7.14288 0.0
0.0 0.0 7.57152
%ENDBLOCK LATTICE_CART

%BLOCK POSITIONS_FRAC
P           0.333333000000000    0.666667000000000    0.162878000000000 
P           0.666666000000000    0.333334000000000    0.837122000000000 
K           0.169572000000000    0.371753000000000    0.186212000000000 
K           0.202179000000000    0.830428000000000    0.186212000000000 
K           0.333333000000000    0.666667000000000    0.842853000000000 
K           0.371752000000000    0.202180000000000    0.813788000000000 
K           0.628247000000000    0.797821000000000    0.186212000000000 
K           0.666666000000000    0.333334000000000    0.157147000000000 
K           0.797820000000000    0.169573000000000    0.813788000000000 
K           0.830427000000000    0.628248000000000    0.813788000000000 
%ENDBLOCK POSITIONS_FRAC
