# Cell file generated by matador (Matthew Evans 2016)

%BLOCK LATTICE_CART
10.9701 0.0 0.0
-5.48506 9.5004 0.0
0.0 0.0 9.86293
%ENDBLOCK LATTICE_CART

%BLOCK POSITIONS_FRAC
P           0.000000000000000    0.000000000000000    0.270623000000000 
P           0.000000000000000    0.000000000000000    0.729377000000000 
P           0.333333000000000    0.666667000000000    0.396044000000000 
P           0.333333000000000    0.666667000000000    0.937289000000000 
P           0.666667000000000    0.333333000000000    0.062711000000000 
P           0.666667000000000    0.333333000000000    0.603956000000000 
K           0.000000000000000    0.500000000000000   -0.000000000000000 
K           0.000000000000000    0.500000000000000    0.500000000000000 
K           0.166667000000000    0.333333000000000    0.333333000000000 
K           0.166667000000000    0.333333000000000    0.833333000000000 
K           0.166667000000000    0.833333000000000    0.333333000000000 
K           0.166667000000000    0.833333000000000    0.833333000000000 
K           0.333333000000000    0.166667000000000    0.166667000000000 
K           0.333333000000000    0.166667000000000    0.666667000000000 
K           0.500000000000000    0.000000000000000   -0.000000000000000 
K           0.500000000000000    0.000000000000000    0.500000000000000 
K           0.500000000000000    0.500000000000000   -0.000000000000000 
K           0.500000000000000    0.500000000000000    0.500000000000000 
K           0.666667000000000    0.833333000000000    0.333333000000000 
K           0.666667000000000    0.833333000000000    0.833333000000000 
K           0.833333000000000    0.166667000000000    0.166667000000000 
K           0.833333000000000    0.166667000000000    0.666667000000000 
K           0.833333000000000    0.666667000000000    0.166667000000000 
K           0.833333000000000    0.666667000000000    0.666667000000000 
%ENDBLOCK POSITIONS_FRAC
