# Cell file generated by matador (Matthew Evans 2016)

%BLOCK LATTICE_CART
8.05251 0.0 0.0
-4.02625 6.97368 0.0
0.0 0.0 12.0867
%ENDBLOCK LATTICE_CART

%BLOCK POSITIONS_FRAC
P           0.266116000000000    0.133058000000000    0.715816000000000 
P           0.333333000000000    0.666667000000000    0.927539000000000 
P           0.866942000000000    0.133058000000000    0.715816000000000 
P           0.866942000000000    0.733884000000000    0.715816000000000 
K           0.084720000000000    0.542360000000000    0.463991000000000 
K           0.132822000000000    0.265644000000000    0.292126000000000 
K           0.132822000000000    0.867178000000000    0.292126000000000 
K           0.368098000000000    0.184049000000000    0.888500000000000 
K           0.396316000000000    0.198158000000000    0.136863000000000 
K           0.457640000000000    0.542360000000000    0.463991000000000 
K           0.457640000000000    0.915280000000000    0.463991000000000 
K           0.734356000000000    0.867178000000000    0.292126000000000 
K           0.801842000000000    0.198158000000000    0.136863000000000 
K           0.801842000000000    0.603684000000000    0.136863000000000 
K           0.815951000000000    0.184049000000000    0.888500000000000 
K           0.815951000000000    0.631902000000000    0.888500000000000 
%ENDBLOCK POSITIONS_FRAC
