# Cell file generated by matador (Matthew Evans 2016)

%BLOCK LATTICE_CART
8.08397 0.0 0.0
-4.04199 7.00093 0.0
0.0 0.0 7.64511
%ENDBLOCK LATTICE_CART

%BLOCK POSITIONS_FRAC
P           0.333333000000000    0.666667000000000    0.000000000000000 
P           0.333333000000000    0.666667000000000    0.239876000000000 
P           0.333333000000000    0.666667000000000    0.760124000000000 
P           0.666667000000000    0.333333000000000    0.000000000000000 
P           0.666667000000000    0.333333000000000    0.239876000000000 
P           0.666667000000000    0.333333000000000    0.760124000000000 
K           0.000000000000000    0.500000000000000    0.000000000000000 
K           0.333333000000000    0.666667000000000    0.500000000000000 
K           0.500000000000000    0.000000000000000    0.000000000000000 
K           0.500000000000000    0.500000000000000    0.000000000000000 
K           0.666667000000000    0.333333000000000    0.500000000000000 
%ENDBLOCK POSITIONS_FRAC
