# Cell file generated by matador (Matthew Evans 2016)

%BLOCK LATTICE_CART
5.2957 0.0 0.0
-2.64785 4.58621 0.0
0.0 0.0 10.1012
%ENDBLOCK LATTICE_CART

%BLOCK POSITIONS_FRAC
P           0.000000000000000    0.000000000000000    0.505132000000000 
K           0.000000000000000    0.000000000000000    0.035911000000000 
K           0.333333000000000    0.666667000000000    0.171740000000000 
K           0.333333000000000    0.666667000000000    0.616127000000000 
K           0.666667000000000    0.333333000000000    0.171740000000000 
K           0.666667000000000    0.333333000000000    0.616127000000000 
%ENDBLOCK POSITIONS_FRAC
