# Cell file generated by matador (Matthew Evans 2016)

%BLOCK LATTICE_CART
7.92398 0.0 0.0
-3.96199 6.86237 0.0
0.0 0.0 8.45187
%ENDBLOCK LATTICE_CART

%BLOCK POSITIONS_FRAC
P           0.000000000000000    0.000000000000000    0.102996000000000 
P           0.333333000000000    0.666667000000000    0.769663000000000 
P           0.666667000000000    0.333333000000000    0.436329000000000 
K           0.037019000000000    0.518510000000000    0.564258000000000 
K           0.148157000000000    0.296314000000000    0.897591000000000 
K           0.148157000000000    0.851843000000000    0.897591000000000 
K           0.370352000000000    0.185176000000000    0.230924000000000 
K           0.481490000000000    0.518510000000000    0.564258000000000 
K           0.481490000000000    0.962981000000000    0.564258000000000 
K           0.703686000000000    0.851843000000000    0.897591000000000 
K           0.814824000000000    0.185176000000000    0.230924000000000 
K           0.814824000000000    0.629648000000000    0.230924000000000 
%ENDBLOCK POSITIONS_FRAC
