# Cell file generated by matador (Matthew Evans 2016)

%BLOCK LATTICE_CART
13.4956 0.0 0.0
-6.74778 11.6875 0.0
0.0 0.0 5.89852
%ENDBLOCK LATTICE_CART

%BLOCK POSITIONS_FRAC
P           0.000000000000000    0.000000000000000   -0.000000000000000 
P           0.000000000000000    0.000000000000000    0.500000000000000 
P           0.333333000000000    0.666667000000000    0.166667000000000 
P           0.333333000000000    0.666667000000000    0.666667000000000 
P           0.666667000000000    0.333333000000000    0.333333000000000 
P           0.666667000000000    0.333333000000000    0.833333000000000 
K           0.000000000000000    0.482612000000000    0.500000000000000 
K           0.000000000000000    0.568417000000000   -0.000000000000000 
K           0.098249000000000    0.764916000000000    0.333333000000000 
K           0.149278000000000    0.333333000000000    0.833333000000000 
K           0.184055000000000    0.850722000000000    0.833333000000000 
K           0.235084000000000    0.333333000000000    0.333333000000000 
K           0.333333000000000    0.149278000000000    0.166667000000000 
K           0.333333000000000    0.235084000000000    0.666667000000000 
K           0.431583000000000    0.431583000000000   -0.000000000000000 
K           0.482612000000000   -0.000000000000000    0.500000000000000 
K           0.517388000000000    0.517388000000000    0.500000000000000 
K           0.568417000000000   -0.000000000000000   -0.000000000000000 
K           0.666667000000000    0.815945000000000    0.833333000000000 
K           0.666667000000000    0.901751000000000    0.333333000000000 
K           0.764916000000000    0.098249000000000    0.666667000000000 
K           0.815945000000000    0.666667000000000    0.166667000000000 
K           0.850722000000000    0.184055000000000    0.166667000000000 
K           0.901751000000000    0.666667000000000    0.666667000000000 
%ENDBLOCK POSITIONS_FRAC
