# Cell file generated by matador (Matthew Evans 2016)

%BLOCK LATTICE_CART
13.1943 0.0 0.0
0.0 9.65283 0.0
3.45765 0.0 6.88879
%ENDBLOCK LATTICE_CART

%BLOCK POSITIONS_FRAC
P           0.145581000000000    0.000000000000000    0.814660000000000 
P           0.666037000000000    0.202138000000000    0.206877000000000 
P           0.666037000000000    0.797862000000000    0.206877000000000 
P           0.948856000000000    0.000000000000000    0.748493000000000 
P           0.998555000000000    0.188988000000000    0.931430000000000 
P           0.998555000000000    0.811012000000000    0.931430000000000 
K           0.072638000000000    0.500000000000000    0.036516000000000 
K           0.117499000000000    0.000000000000000    0.576111000000000 
K           0.197546000000000    0.000000000000000    0.112321000000000 
K           0.232629000000000    0.500000000000000    0.246623000000000 
K           0.293908000000000    0.500000000000000    0.621003000000000 
K           0.319334000000000    0.000000000000000    0.658732000000000 
K           0.445249000000000    0.000000000000000    0.973343000000000 
K           0.548274000000000    0.000000000000000    0.232511000000000 
K           0.574379000000000    0.306095000000000    0.472867000000000 
K           0.574379000000000    0.693905000000000    0.472867000000000 
K           0.592123000000000    0.500000000000000    0.105480000000000 
K           0.597989000000000    0.000000000000000    0.568473000000000 
K           0.770263000000000    0.500000000000000    0.493827000000000 
K           0.774726000000000    0.000000000000000    0.777132000000000 
K           0.800493000000000    0.000000000000000    0.200126000000000 
K           0.865797000000000    0.500000000000000    0.968734000000000 
K           0.961157000000000    0.000000000000000    0.377652000000000 
K           0.986343000000000    0.500000000000000    0.533361000000000 
%ENDBLOCK POSITIONS_FRAC
