# Cell file generated by matador (Matthew Evans 2016)

%BLOCK LATTICE_CART
5.8068 0.0 0.0
0.0 7.83045 0.0
3.25741 0.0 6.9564
%ENDBLOCK LATTICE_CART

%BLOCK POSITIONS_FRAC
P          -0.000000000000000    0.423715000000000    0.500000000000000 
P           0.014625000000000    0.136303000000000    0.593919000000000 
P           0.347947000000000    0.764956000000000    0.798278000000000 
P           0.376622000000000    0.666299000000000    0.069739000000000 
P           0.623378000000000    0.666299000000000    0.930261000000000 
P           0.652053000000000    0.764956000000000    0.201722000000000 
P           0.985375000000000    0.136303000000000    0.406081000000000 
K          -0.000000000000000    0.774354000000000    0.500000000000000 
K           0.332184000000000    0.519172000000000    0.621276000000000 
K           0.500000000000000    0.026376000000000    0.000000000000000 
K           0.500000000000000    0.167968000000000    0.500000000000000 
K           0.667816000000000    0.519172000000000    0.378724000000000 
%ENDBLOCK POSITIONS_FRAC
