# Cell file generated by matador (Matthew Evans 2016)

%BLOCK LATTICE_CART
6.09365 0.0 0.0
0.0 6.09365 0.0
0.0 0.0 8.20268
%ENDBLOCK LATTICE_CART

%BLOCK POSITIONS_FRAC
P           0.000000000000000    0.000000000000000    0.000000000000000 
P           0.000000000000000    0.500000000000000    0.000000000000000 
P           0.500000000000000    0.000000000000000    0.000000000000000 
K           0.000000000000000    0.000000000000000    0.500000000000000 
K           0.000000000000000    0.500000000000000    0.500000000000000 
K           0.212574000000000    0.212574000000000    0.854106000000000 
K           0.212574000000000    0.787426000000000    0.145894000000000 
K           0.500000000000000    0.000000000000000    0.500000000000000 
K           0.500000000000000    0.500000000000000    0.000000000000000 
K           0.500000000000000    0.500000000000000    0.500000000000000 
K           0.787426000000000    0.212574000000000    0.145894000000000 
K           0.787426000000000    0.787426000000000    0.854106000000000 
%ENDBLOCK POSITIONS_FRAC
