# Cell file generated by matador (Matthew Evans 2016)

%BLOCK LATTICE_CART
6.65484 0.0 0.0
-3.32742 5.76326 0.0
0.0 0.0 12.5717
%ENDBLOCK LATTICE_CART

%BLOCK POSITIONS_FRAC
P          -0.000000000000000   -0.000000000000000    0.000000000000000 
P          -0.000000000000000   -0.000000000000000    0.219677000000000 
P          -0.000000000000000   -0.000000000000000    0.780323000000000 
P           0.333333000000000    0.666667000000000    0.446341000000000 
P           0.333333000000000    0.666667000000000    0.553659000000000 
P           0.666667000000000    0.333333000000000    0.446341000000000 
P           0.666667000000000    0.333333000000000    0.553659000000000 
K           0.067197000000000    0.697656000000000    0.000000000000000 
K           0.302344000000000    0.369541000000000    0.000000000000000 
K           0.369541000000000    0.067197000000000    0.000000000000000 
K           0.630459000000000    0.932803000000000    0.000000000000000 
K           0.697656000000000    0.630459000000000    0.000000000000000 
K           0.932803000000000    0.302344000000000    0.000000000000000 
%ENDBLOCK POSITIONS_FRAC
