# Cell file generated by matador (Matthew Evans 2016)

%BLOCK LATTICE_CART
7.4612 0.0 0.0
-3.7306 6.46159 0.0
0.0 0.0 9.16954
%ENDBLOCK LATTICE_CART

%BLOCK POSITIONS_FRAC
P           0.212507000000000    0.664499000000000    0.849857000000000 
P           0.333333000000000    0.666667000000000    0.580202000000000 
P           0.333333000000000    0.666667000000000    0.987888000000000 
P           0.335501000000000    0.548009000000000    0.849857000000000 
P           0.451991000000000    0.787493000000000    0.849857000000000 
P           0.548009000000000    0.335501000000000    0.349857000000000 
P           0.664499000000000    0.212507000000000    0.349857000000000 
P           0.666667000000000    0.333333000000000    0.080202000000000 
P           0.666667000000000    0.333333000000000    0.487888000000000 
P           0.787493000000000    0.451991000000000    0.349857000000000 
K           0.000000000000000    0.000000000000000    0.355229000000000 
K           0.000000000000000    0.000000000000000    0.855229000000000 
K           0.027977000000000    0.410461000000000    0.166765000000000 
K           0.382484000000000    0.972023000000000    0.166765000000000 
K           0.410461000000000    0.027977000000000    0.666765000000000 
K           0.589539000000000    0.617516000000000    0.166765000000000 
K           0.617516000000000    0.589539000000000    0.666765000000000 
K           0.972023000000000    0.382484000000000    0.666765000000000 
%ENDBLOCK POSITIONS_FRAC
