# Cell file generated by matador (Matthew Evans 2016)

%BLOCK LATTICE_CART
8.49169 0.0 0.0
-4.24585 7.35402 0.0
0.0 0.0 6.06946
%ENDBLOCK LATTICE_CART

%BLOCK POSITIONS_FRAC
P           0.000000000000000    0.000000000000000    0.000000000000000 
P           0.333333000000000    0.666667000000000    0.376181000000000 
P           0.333333000000000    0.666667000000000    0.623819000000000 
P           0.666667000000000    0.333333000000000    0.376181000000000 
P           0.666667000000000    0.333333000000000    0.623819000000000 
K           0.000000000000000    0.500000000000000    0.000000000000000 
K           0.000000000000000    0.500000000000000    0.500000000000000 
K           0.500000000000000    0.000000000000000    0.000000000000000 
K           0.500000000000000    0.000000000000000    0.500000000000000 
K           0.500000000000000    0.500000000000000    0.000000000000000 
K           0.500000000000000    0.500000000000000    0.500000000000000 
%ENDBLOCK POSITIONS_FRAC
