# Cell file generated by matador (Matthew Evans 2016)

%BLOCK LATTICE_CART
6.86311 0.0 0.0
-3.43155 5.94362 0.0
0.0 0.0 9.3483
%ENDBLOCK LATTICE_CART

%BLOCK POSITIONS_FRAC
P           0.000000000000000    0.000000000000000    0.589026000000000 
P           0.000000000000000    0.000000000000000    0.814249000000000 
P           0.267597000000000    0.081101000000000    0.355672000000000 
P           0.333333000000000    0.666667000000000    0.864916000000000 
P           0.666667000000000    0.333333000000000    0.305840000000000 
P           0.813505000000000    0.732403000000000    0.355672000000000 
P           0.918899000000000    0.186495000000000    0.355672000000000 
K           0.000000000000000    0.000000000000000    0.130783000000000 
K           0.319697000000000    0.150661000000000    0.954963000000000 
K           0.666667000000000    0.333333000000000    0.788240000000000 
K           0.830965000000000    0.680303000000000    0.954963000000000 
K           0.849339000000000    0.169035000000000    0.954963000000000 
%ENDBLOCK POSITIONS_FRAC
