# Cell file generated by matador (Matthew Evans 2016)

%BLOCK LATTICE_CART
6.92819 0.0 0.0
-3.46409 5.99999 0.0
0.0 0.0 11.3175
%ENDBLOCK LATTICE_CART

%BLOCK POSITIONS_FRAC
P           0.000000000000000    0.000000000000000    0.005919000000000 
P           0.000000000000000    0.000000000000000    0.142218000000000 
P           0.666667000000000    0.333333000000000    0.785932000000000 
K           0.036304000000000    0.674754000000000    0.382616000000000 
K           0.191066000000000    0.398359000000000    0.669070000000000 
K           0.207293000000000    0.808934000000000    0.669070000000000 
K           0.325246000000000    0.361550000000000    0.382616000000000 
K           0.333333000000000    0.666667000000000    0.926238000000000 
K           0.601641000000000    0.792707000000000    0.669070000000000 
K           0.638450000000000    0.963696000000000    0.382616000000000 
K           0.666667000000000    0.333333000000000    0.191570000000000 
K           0.666667000000000    0.333333000000000    0.992530000000000 
%ENDBLOCK POSITIONS_FRAC
