# Cell file generated by matador (Matthew Evans 2016)

%BLOCK LATTICE_CART
7.64996 0.0 0.0
0.0 5.36055 0.0
2.36122 0.0 6.8483
%ENDBLOCK LATTICE_CART

%BLOCK POSITIONS_FRAC
P           0.000000000000000    0.000000000000000    0.000000000000000 
P           0.000000000000000    0.000000000000000    0.500000000000000 
P           0.500000000000000    0.252835000000000    0.750000000000000 
P           0.500000000000000    0.500000000000000    0.000000000000000 
P           0.500000000000000    0.500000000000000    0.500000000000000 
P           0.500000000000000    0.747165000000000    0.250000000000000 
K           0.000000000000000    0.492272000000000    0.750000000000000 
K           0.000000000000000    0.507728000000000    0.250000000000000 
K           0.500000000000000    0.000000000000000    0.000000000000000 
K           0.500000000000000    0.000000000000000    0.500000000000000 
%ENDBLOCK POSITIONS_FRAC
