# Cell file generated by matador (Matthew Evans 2016)

%BLOCK LATTICE_CART
8.94612 0.0 0.0
0.0 6.11018 0.0
0.0 0.0 8.16397
%ENDBLOCK LATTICE_CART

%BLOCK POSITIONS_FRAC
P           0.134696000000000    0.770574000000000    0.761402000000000 
P           0.365304000000000    0.270574000000000    0.261402000000000 
P           0.634696000000000    0.729426000000000    0.261402000000000 
P           0.865304000000000    0.229426000000000    0.761402000000000 
K           0.000000000000000    0.000000000000000    0.328537000000000 
K           0.000000000000000    0.000000000000000    0.953668000000000 
K           0.000000000000000    0.500000000000000    0.209986000000000 
K           0.174286000000000    0.431546000000000    0.757512000000000 
K           0.325714000000000    0.931546000000000    0.257512000000000 
K           0.500000000000000    0.000000000000000    0.709986000000000 
K           0.500000000000000    0.500000000000000    0.453668000000000 
K           0.500000000000000    0.500000000000000    0.828537000000000 
K           0.674286000000000    0.068454000000000    0.257512000000000 
K           0.825714000000000    0.568454000000000    0.757512000000000 
%ENDBLOCK POSITIONS_FRAC
