# Cell file generated by matador (Matthew Evans 2016)

%BLOCK LATTICE_CART
9.21176 0.0 0.0
-4.60588 7.97762 0.0
0.0 0.0 6.27175
%ENDBLOCK LATTICE_CART

%BLOCK POSITIONS_FRAC
P           0.188111000000000    0.594055000000000    0.448118000000000 
P           0.405945000000000    0.594055000000000    0.448118000000000 
P           0.405945000000000    0.811889000000000    0.448118000000000 
P           0.619428000000000    0.238856000000000    0.559812000000000 
P           0.619428000000000    0.380572000000000    0.559812000000000 
P           0.761144000000000    0.380572000000000    0.559812000000000 
K           0.000000000000000   -0.000000000000000    0.993036000000000 
K           0.401472000000000    0.034409000000000    0.654532000000000 
K           0.401472000000000    0.367063000000000    0.654532000000000 
K           0.632937000000000    0.034409000000000    0.654532000000000 
K           0.632937000000000    0.598528000000000    0.654532000000000 
K           0.965591000000000    0.367063000000000    0.654532000000000 
K           0.965591000000000    0.598528000000000    0.654532000000000 
%ENDBLOCK POSITIONS_FRAC
