# Cell file generated by matador (Matthew Evans 2016)

%BLOCK LATTICE_CART
8.10743 0.0 0.0
-4.05371 7.02124 0.0
0.0 0.0 6.05901
%ENDBLOCK LATTICE_CART

%BLOCK POSITIONS_FRAC
P           0.000000000000000    0.500000000000000    0.247765000000000 
P           0.000000000000000    0.500000000000000    0.752235000000000 
P           0.333333000000000    0.666667000000000    0.226159000000000 
P           0.333333000000000    0.666667000000000    0.773841000000000 
P           0.500000000000000    0.000000000000000    0.247765000000000 
P           0.500000000000000    0.000000000000000    0.752235000000000 
P           0.500000000000000    0.500000000000000    0.247765000000000 
P           0.500000000000000    0.500000000000000    0.752235000000000 
P           0.666667000000000    0.333333000000000    0.226159000000000 
P           0.666667000000000    0.333333000000000    0.773841000000000 
K           0.000000000000000    0.000000000000000    0.000000000000000 
K           0.000000000000000    0.000000000000000    0.500000000000000 
%ENDBLOCK POSITIONS_FRAC
