# Cell file generated by matador (Matthew Evans 2016)

%BLOCK LATTICE_CART
4.84744 0.0 0.0
-2.42372 4.19801 0.0
0.0 0.0 8.09421
%ENDBLOCK LATTICE_CART

%BLOCK POSITIONS_FRAC
P           0.310629000000000    0.106461000000000    0.600872000000000 
P           0.333333000000000    0.666667000000000    0.328589000000000 
P           0.333333000000000    0.666667000000000    0.965351000000000 
P           0.795831000000000    0.689371000000000    0.600872000000000 
P           0.893539000000000    0.204169000000000    0.600872000000000 
K           0.000000000000000    0.000000000000000    0.037054000000000 
%ENDBLOCK POSITIONS_FRAC
