# Cell file generated by matador (Matthew Evans 2016)

%BLOCK LATTICE_CART
6.59583 0.0 0.0
0.0 7.03156 0.0
0.0 0.0 7.26874
%ENDBLOCK LATTICE_CART

%BLOCK POSITIONS_FRAC
P           0.500000000000000    0.090629000000000    0.250000000000000 
P           0.500000000000000    0.909371000000000    0.750000000000000 
K           0.000000000000000    0.013742000000000    0.250000000000000 
K           0.000000000000000    0.986258000000000    0.750000000000000 
K           0.255021000000000    0.500000000000000    0.500000000000000 
K           0.403516000000000    0.000000000000000   -0.000000000000000 
K           0.596484000000000    0.000000000000000    0.500000000000000 
K           0.744979000000000    0.500000000000000   -0.000000000000000 
%ENDBLOCK POSITIONS_FRAC
