# Cell file generated by matador (Matthew Evans 2016)

%BLOCK LATTICE_CART
7.2199 0.0 0.0
-3.60995 6.25261 0.0
0.0 0.0 9.38262
%ENDBLOCK LATTICE_CART

%BLOCK POSITIONS_FRAC
P           0.248990000000000    0.545454000000000    0.360111000000000 
P           0.296463000000000    0.751010000000000    0.360111000000000 
P           0.451473000000000    0.413664000000000    0.158882000000000 
P           0.454546000000000    0.703537000000000    0.360111000000000 
P           0.586336000000000    0.037809000000000    0.158882000000000 
P           0.962191000000000    0.548527000000000    0.158882000000000 
K           0.000000000000000    0.000000000000000    0.294072000000000 
K           0.000000000000000    0.000000000000000    0.707250000000000 
K           0.475978000000000    0.126308000000000    0.833506000000000 
K           0.650330000000000    0.524022000000000    0.833506000000000 
K           0.873692000000000    0.349670000000000    0.833506000000000 
%ENDBLOCK POSITIONS_FRAC
