# Cell file generated by matador (Matthew Evans 2016)

%BLOCK LATTICE_CART
7.53718 0.0 0.0
0.0 7.63566 0.0
0.0 0.0 7.36792
%ENDBLOCK LATTICE_CART

%BLOCK POSITIONS_FRAC
P           0.081870000000000    0.325497000000000    0.330065000000000 
P           0.081870000000000    0.674503000000000    0.669935000000000 
P           0.147183000000000    0.192611000000000    0.436029000000000 
P           0.147183000000000    0.807389000000000    0.563971000000000 
P           0.373890000000000    0.000000000000000    0.500000000000000 
P           0.399892000000000    0.097510000000000    0.977651000000000 
P           0.399892000000000    0.902490000000000    0.022349000000000 
P           0.600108000000000    0.097510000000000    0.522349000000000 
P           0.600108000000000    0.902490000000000    0.477651000000000 
P           0.626110000000000    0.000000000000000    0.000000000000000 
P           0.852817000000000    0.192611000000000    0.063971000000000 
P           0.852817000000000    0.807389000000000    0.936029000000000 
P           0.918130000000000    0.325497000000000    0.169935000000000 
P           0.918130000000000    0.674503000000000    0.830065000000000 
K           0.192206000000000    0.337371000000000    0.891230000000000 
K           0.192206000000000    0.662629000000000    0.108770000000000 
K           0.807794000000000    0.337371000000000    0.608770000000000 
K           0.807794000000000    0.662629000000000    0.391230000000000 
%ENDBLOCK POSITIONS_FRAC
