# Cell file generated by matador (Matthew Evans 2016)

%BLOCK LATTICE_CART
5.45222 0.0 0.0
0.0 5.45222 0.0
0.0 0.0 4.19302
%ENDBLOCK LATTICE_CART

%BLOCK POSITIONS_FRAC
P           0.154153000000000    0.386939000000000    0.560605000000000 
P           0.386939000000000    0.845847000000000    0.439395000000000 
P           0.613061000000000    0.154153000000000    0.439395000000000 
P           0.845847000000000    0.613061000000000    0.560605000000000 
K           0.500000000000000    0.500000000000000    0.500000000000000 
%ENDBLOCK POSITIONS_FRAC
