# Cell file generated by matador (Matthew Evans 2016)

%BLOCK LATTICE_CART
6.59125 0.0 0.0
-3.29562 5.70819 0.0
0.0 0.0 9.2094
%ENDBLOCK LATTICE_CART

%BLOCK POSITIONS_FRAC
P           0.333332000000000    0.666666000000000    0.744359000000000 
P           0.666666000000000    0.333332000000000    0.744359000000000 
K           0.999999000000000    0.999999000000000    0.254107000000000 
K           0.999999000000000    0.499999000000000    0.275854000000000 
K           0.333332000000000    0.666666000000000    0.971746000000000 
K           0.499999000000000    0.999999000000000    0.275854000000000 
K           0.499999000000000    0.499999000000000    0.275854000000000 
K           0.666666000000000    0.333332000000000    0.971746000000000 
%ENDBLOCK POSITIONS_FRAC
