# Cell file generated by matador (Matthew Evans 2016)

%BLOCK LATTICE_CART
6.15197 0.0 0.0
0.0 6.15197 0.0
0.0 0.0 7.49541
%ENDBLOCK LATTICE_CART

%BLOCK POSITIONS_FRAC
P           0.000000000000000    0.000000000000000    0.500000000000000 
P           0.500000000000000    0.500000000000000    0.500000000000000 
K           0.000000000000000    0.000000000000000    0.000000000000000 
K           0.234318000000000    0.265682000000000    0.275668000000000 
K           0.265682000000000    0.765682000000000    0.724332000000000 
K           0.500000000000000    0.500000000000000    0.000000000000000 
K           0.734318000000000    0.234318000000000    0.724332000000000 
K           0.765682000000000    0.734318000000000    0.275668000000000 
%ENDBLOCK POSITIONS_FRAC
