# Cell file generated by matador (Matthew Evans 2016)

%BLOCK LATTICE_CART
5.63232 0.0 0.0
-2.81616 4.87773 0.0
0.0 0.0 9.26534
%ENDBLOCK LATTICE_CART

%BLOCK POSITIONS_FRAC
P           0.104410000000000    0.453804000000000    0.938480000000000 
P           0.333333000000000    0.666667000000000    0.010082000000000 
P           0.349394000000000    0.895590000000000    0.938480000000000 
P           0.406922000000000    0.152240000000000    0.208580000000000 
P           0.411886000000000    0.207730000000000    0.520699000000000 
P           0.546196000000000    0.650606000000000    0.938480000000000 
P           0.745318000000000    0.593078000000000    0.208580000000000 
P           0.792270000000000    0.204156000000000    0.520699000000000 
P           0.795844000000000    0.588114000000000    0.520699000000000 
P           0.847760000000000    0.254682000000000    0.208580000000000 
K           0.000000000000000    0.000000000000000    0.243183000000000 
K           0.666667000000000    0.333333000000000    0.910332000000000 
%ENDBLOCK POSITIONS_FRAC
