# Cell file generated by matador (Matthew Evans 2016)

%BLOCK LATTICE_CART
8.2499 0.0 0.0
-4.12495 7.14462 0.0
0.0 0.0 6.39443
%ENDBLOCK LATTICE_CART

%BLOCK POSITIONS_FRAC
P           0.000000000000000    0.000000000000000    0.094871000000000 
P           0.333333000000000    0.666667000000000    0.680468000000000 
P           0.333333000000000    0.666667000000000    0.978684000000000 
P           0.666667000000000    0.333333000000000    0.348580000000000 
K           0.000000000000000    0.000000000000000    0.715083000000000 
K           0.168813000000000    0.337627000000000    0.226093000000000 
K           0.168813000000000    0.831187000000000    0.226093000000000 
K           0.213049000000000    0.106524000000000    0.492995000000000 
K           0.457942000000000    0.228971000000000    0.953254000000000 
K           0.662373000000000    0.831187000000000    0.226093000000000 
K           0.771029000000000    0.228971000000000    0.953254000000000 
K           0.771029000000000    0.542058000000000    0.953254000000000 
K           0.893476000000000    0.106524000000000    0.492995000000000 
K           0.893476000000000    0.786951000000000    0.492995000000000 
%ENDBLOCK POSITIONS_FRAC
