# Cell file generated by matador (Matthew Evans 2016)

%BLOCK LATTICE_CART
10.0362 0.0 0.0
-5.0181 8.69161 0.0
0.0 0.0 5.09922
%ENDBLOCK LATTICE_CART

%BLOCK POSITIONS_FRAC
P           0.000000000000000    0.000000000000000    0.977495000000000 
P           0.105134000000000    0.552567000000000    0.270203000000000 
P           0.333333000000000    0.666667000000000    0.527467000000000 
P           0.447433000000000    0.552567000000000    0.270203000000000 
P           0.447433000000000    0.894866000000000    0.270203000000000 
P           0.666667000000000    0.333333000000000    0.962411000000000 
K           0.016310000000000    0.325870000000000    0.661251000000000 
K           0.016310000000000    0.690440000000000    0.661251000000000 
K           0.186899000000000    0.373799000000000    0.937924000000000 
K           0.186899000000000    0.813101000000000    0.937924000000000 
K           0.309560000000000    0.325870000000000    0.661251000000000 
K           0.309560000000000    0.983690000000000    0.661251000000000 
K           0.626201000000000    0.813101000000000    0.937924000000000 
K           0.666667000000000    0.333333000000000    0.523354000000000 
K           0.674130000000000    0.690440000000000    0.661251000000000 
K           0.674130000000000    0.983690000000000    0.661251000000000 
%ENDBLOCK POSITIONS_FRAC
