# Cell file generated by matador (Matthew Evans 2016)

%BLOCK LATTICE_CART
10.5488 0.0 0.0
-5.2744 9.13553 0.0
0.0 0.0 6.37504
%ENDBLOCK LATTICE_CART

%BLOCK POSITIONS_FRAC
P           0.002447000000000    0.200080000000000    0.500000000000000 
P           0.197632000000000    0.997553000000000    0.500000000000000 
P           0.333333000000000    0.666667000000000    0.000000000000000 
P           0.799920000000000    0.802368000000000    0.500000000000000 
K           0.021164000000000    0.549339000000000    0.500000000000000 
K           0.061017000000000    0.245618000000000    0.000000000000000 
K           0.118577000000000    0.553834000000000    0.000000000000000 
K           0.184601000000000    0.938983000000000    0.000000000000000 
K           0.396171000000000    0.166409000000000    0.500000000000000 
K           0.435257000000000    0.881423000000000    0.000000000000000 
K           0.446166000000000    0.564743000000000    0.000000000000000 
K           0.450661000000000    0.471825000000000    0.500000000000000 
K           0.528175000000000    0.978836000000000    0.500000000000000 
K           0.754382000000000    0.815399000000000    0.000000000000000 
K           0.770236000000000    0.603829000000000    0.500000000000000 
K           0.833591000000000    0.229764000000000    0.500000000000000 
%ENDBLOCK POSITIONS_FRAC
