# Cell file generated by matador (Matthew Evans 2016)

%BLOCK LATTICE_CART
7.32075 0.0 0.0
-3.66037 6.33995 0.0
0.0 0.0 8.3782
%ENDBLOCK LATTICE_CART

%BLOCK POSITIONS_FRAC
P           0.000000000000000    0.000000000000000    0.824443000000000 
P           0.000000000000000    0.500000000000000    0.888078000000000 
P           0.333333000000000    0.666667000000000    0.626710000000000 
P           0.500000000000000    0.000000000000000    0.888078000000000 
P           0.500000000000000    0.500000000000000    0.888078000000000 
P           0.666667000000000    0.333333000000000    0.626710000000000 
K           0.000000000000000    0.500000000000000    0.599753000000000 
K           0.333333000000000    0.666667000000000    0.873736000000000 
K           0.500000000000000    0.000000000000000    0.599753000000000 
K           0.500000000000000    0.500000000000000    0.599753000000000 
K           0.666667000000000    0.333333000000000    0.873736000000000 
%ENDBLOCK POSITIONS_FRAC
