# Cell file generated by matador (Matthew Evans 2016)

%BLOCK LATTICE_CART
9.04843 0.0 0.0
0.0 4.90724 0.0
0.0 0.0 9.81703
%ENDBLOCK LATTICE_CART

%BLOCK POSITIONS_FRAC
P           0.076437000000000    0.562589000000000    0.181757000000000 
P           0.423563000000000    0.562589000000000    0.181757000000000 
P           0.576437000000000    0.437411000000000    0.181757000000000 
P           0.923563000000000    0.437411000000000    0.181757000000000 
K           0.000000000000000    0.000000000000000    0.162810000000000 
K           0.000000000000000    0.000000000000000    0.470669000000000 
K           0.000000000000000    0.500000000000000    0.578024000000000 
K           0.063204000000000    0.815038000000000    0.898321000000000 
K           0.250000000000000    0.387285000000000    0.961520000000000 
K           0.436796000000000    0.815038000000000    0.898321000000000 
K           0.500000000000000    0.000000000000000    0.162810000000000 
K           0.500000000000000    0.000000000000000    0.470669000000000 
K           0.500000000000000    0.500000000000000    0.578024000000000 
K           0.563204000000000    0.184962000000000    0.898321000000000 
K           0.750000000000000    0.612715000000000    0.961520000000000 
K           0.936796000000000    0.184962000000000    0.898321000000000 
%ENDBLOCK POSITIONS_FRAC
