# Cell file generated by matador (Matthew Evans 2016)

%BLOCK LATTICE_CART
8.48253 0.0 0.0
-4.24127 7.34609 0.0
0.0 0.0 7.93256
%ENDBLOCK LATTICE_CART

%BLOCK POSITIONS_FRAC
P           0.000000000000000    0.000000000000000    0.250000000000000 
P           0.000000000000000    0.000000000000000    0.750000000000000 
P           0.230790000000000    0.461580000000000    0.750000000000000 
P           0.230790000000000    0.769210000000000    0.750000000000000 
P           0.333333000000000    0.666667000000000    0.750000000000000 
P           0.461580000000000    0.230790000000000    0.250000000000000 
P           0.538420000000000    0.769210000000000    0.750000000000000 
P           0.666667000000000    0.333333000000000    0.250000000000000 
P           0.769210000000000    0.230790000000000    0.250000000000000 
P           0.769210000000000    0.538420000000000    0.250000000000000 
K           0.000000000000000    0.397670000000000    0.000000000000000 
K           0.000000000000000    0.602330000000000    0.500000000000000 
K           0.397670000000000    0.000000000000000    0.000000000000000 
K           0.397670000000000    0.397670000000000    0.500000000000000 
K           0.602330000000000    0.000000000000000    0.500000000000000 
K           0.602330000000000    0.602330000000000    0.000000000000000 
%ENDBLOCK POSITIONS_FRAC
