# Cell file generated by matador (Matthew Evans 2016)

%BLOCK LATTICE_CART
7.83107 0.0 0.0
-3.91553 6.7819 0.0
0.0 0.0 6.9087
%ENDBLOCK LATTICE_CART

%BLOCK POSITIONS_FRAC
P           0.000000000000000    0.500000000000000    0.718509000000000 
P           0.333333000000000    0.666667000000000    0.040153000000000 
P           0.333333000000000    0.666667000000000    0.312042000000000 
P           0.500000000000000    0.000000000000000    0.718509000000000 
P           0.500000000000000    0.500000000000000    0.718509000000000 
P           0.666667000000000    0.333333000000000    0.040153000000000 
P           0.666667000000000    0.333333000000000    0.312042000000000 
K           0.000000000000000    0.000000000000000    0.137558000000000 
K           0.000000000000000    0.500000000000000    0.146172000000000 
K           0.500000000000000    0.000000000000000    0.146172000000000 
K           0.500000000000000    0.500000000000000    0.146172000000000 
%ENDBLOCK POSITIONS_FRAC
