# Cell file generated by matador (Matthew Evans 2016)

%BLOCK LATTICE_CART
10.4718 0.0 0.0
0.0 6.14975 0.0
0.863494 0.0 5.93644
%ENDBLOCK LATTICE_CART

%BLOCK POSITIONS_FRAC
P           0.000000000000000    0.036052000000000    0.500000000000000 
P           0.388817000000000    0.299973000000000    0.978075000000000 
P           0.445946000000000    0.516372000000000    0.633442000000000 
P           0.500000000000000    0.138440000000000    0.000000000000000 
P           0.554054000000000    0.516372000000000    0.366558000000000 
P           0.611183000000000    0.299973000000000    0.021925000000000 
K           0.000000000000000    0.361467000000000    0.500000000000000 
K           0.051643000000000    0.494409000000000    0.810335000000000 
K           0.292529000000000    0.497774000000000    0.347373000000000 
K           0.500000000000000    0.739581000000000    0.000000000000000 
K           0.500000000000000    0.810931000000000    0.500000000000000 
K           0.707471000000000    0.497774000000000    0.652627000000000 
K           0.948357000000000    0.494409000000000    0.189665000000000 
%ENDBLOCK POSITIONS_FRAC
