# Cell file generated by matador (Matthew Evans 2016)

%BLOCK LATTICE_CART
9.65329 0.0 0.0
-2.19598 4.79872 0.0
-1.25318 -2.3236 4.30102
%ENDBLOCK LATTICE_CART

%BLOCK POSITIONS_FRAC
P           0.000000000000000    0.000000000000000    0.000000000000000 
K           0.000000000000000    0.000000000000000    0.500000000000000 
K           0.000000000000000    0.500000000000000    0.000000000000000 
K           0.000000000000000    0.500000000000000    0.500000000000000 
K           0.500000000000000    0.000000000000000    0.500000000000000 
%ENDBLOCK POSITIONS_FRAC
