# Cell file generated by matador (Matthew Evans 2016)

%BLOCK LATTICE_CART
7.903 0.0 0.0
-3.9515 6.8442 0.0
0.0 0.0 9.14573
%ENDBLOCK LATTICE_CART

%BLOCK POSITIONS_FRAC
P           0.499671000000000    0.045291000000000    0.250000000000000 
P           0.499671000000000    0.454380000000000    0.750000000000000 
P           0.545620000000000    0.045291000000000    0.750000000000000 
P           0.545620000000000    0.500329000000000    0.250000000000000 
P           0.666667000000000    0.333333000000000    0.109499000000000 
P           0.666667000000000    0.333333000000000    0.390501000000000 
P           0.666667000000000    0.333333000000000    0.609499000000000 
P           0.666667000000000    0.333333000000000    0.890501000000000 
P           0.954709000000000    0.454380000000000    0.250000000000000 
P           0.954709000000000    0.500329000000000    0.750000000000000 
K           0.000000000000000    0.000000000000000    0.000000000000000 
K           0.000000000000000    0.000000000000000    0.500000000000000 
K           0.046922000000000    0.188469000000000    0.750000000000000 
K           0.046922000000000    0.858453000000000    0.250000000000000 
K           0.141547000000000    0.188469000000000    0.250000000000000 
K           0.141547000000000    0.953078000000000    0.750000000000000 
K           0.811531000000000    0.858453000000000    0.750000000000000 
K           0.811531000000000    0.953078000000000    0.250000000000000 
%ENDBLOCK POSITIONS_FRAC
