# Cell file generated by matador (Matthew Evans 2016)

%BLOCK LATTICE_CART
7.35501 0.0 0.0
0.0 6.21236 0.0
0.0 0.0 7.41985
%ENDBLOCK LATTICE_CART

%BLOCK POSITIONS_FRAC
P           0.250000000000000    0.661474000000000    0.195083000000000 
P           0.750000000000000    0.338526000000000    0.195083000000000 
K          -0.000000000000000    0.500000000000000    0.392440000000000 
K           0.250000000000000    0.058150000000000    0.320801000000000 
K           0.250000000000000    0.558533000000000    0.829785000000000 
K           0.500000000000000    0.500000000000000    0.392440000000000 
K           0.750000000000000    0.441467000000000    0.829785000000000 
K           0.750000000000000    0.941850000000000    0.320801000000000 
%ENDBLOCK POSITIONS_FRAC
