# Cell file generated by matador (Matthew Evans 2016)

%BLOCK LATTICE_CART
6.84475 0.0 0.0
0.0 6.84475 0.0
0.0 0.0 9.3397
%ENDBLOCK LATTICE_CART

%BLOCK POSITIONS_FRAC
P           0.000000000000000    0.000000000000000    0.000000000000000 
P           0.252796000000000    0.650139000000000    0.500000000000000 
P           0.349861000000000    0.252796000000000    0.500000000000000 
P           0.650139000000000    0.747204000000000    0.500000000000000 
P           0.747204000000000    0.349861000000000    0.500000000000000 
K           0.000000000000000    0.500000000000000    0.500000000000000 
K           0.118638000000000    0.294939000000000    0.000000000000000 
K           0.294939000000000    0.881362000000000    0.000000000000000 
K           0.500000000000000    0.000000000000000    0.500000000000000 
K           0.500000000000000    0.500000000000000    0.500000000000000 
K           0.705061000000000    0.118638000000000    0.000000000000000 
K           0.881362000000000    0.705061000000000    0.000000000000000 
%ENDBLOCK POSITIONS_FRAC
