# Cell file generated by matador (Matthew Evans 2016)

%BLOCK LATTICE_CART
6.71708 0.0 0.0
-3.35854 5.81717 0.0
0.0 0.0 10.8759
%ENDBLOCK LATTICE_CART

%BLOCK POSITIONS_FRAC
P           0.306560000000000    0.265727000000000    0.000000000000000 
P           0.531552000000000    0.173494000000000    0.500000000000000 
P           0.641941000000000    0.468448000000000    0.500000000000000 
P           0.666667000000000    0.333333000000000    0.000000000000000 
P           0.666667000000000    0.333333000000000    0.500000000000000 
P           0.734273000000000    0.040833000000000    0.000000000000000 
P           0.826506000000000    0.358059000000000    0.500000000000000 
P           0.959167000000000    0.693440000000000    0.000000000000000 
K           0.114496000000000    0.842288000000000    0.187428000000000 
K           0.114496000000000    0.842288000000000    0.812572000000000 
K           0.157712000000000    0.272208000000000    0.187428000000000 
K           0.157712000000000    0.272208000000000    0.812572000000000 
K           0.727792000000000    0.885504000000000    0.187428000000000 
K           0.727792000000000    0.885504000000000    0.812572000000000 
%ENDBLOCK POSITIONS_FRAC
