# Cell file generated by matador (Matthew Evans 2016)

%BLOCK LATTICE_CART
8.2278 0.0 0.0
-4.1139 7.12548 0.0
0.0 0.0 10.0655
%ENDBLOCK LATTICE_CART

%BLOCK POSITIONS_FRAC
P           0.000000000000000    0.180207000000000    0.546875000000000 
P           0.000000000000000    0.819793000000000    0.046875000000000 
P           0.180207000000000    0.000000000000000    0.546875000000000 
P           0.180207000000000    0.180207000000000    0.046875000000000 
P           0.333333000000000    0.666667000000000    0.490179000000000 
P           0.333333000000000    0.666667000000000    0.990179000000000 
P           0.666667000000000    0.333333000000000    0.490179000000000 
P           0.666667000000000    0.333333000000000    0.990179000000000 
P           0.819793000000000    0.000000000000000    0.046875000000000 
P           0.819793000000000    0.819793000000000    0.546875000000000 
K           0.000000000000000    0.000000000000000    0.377087000000000 
K           0.000000000000000    0.000000000000000    0.877087000000000 
K           0.000000000000000    0.361850000000000    0.794207000000000 
K           0.000000000000000    0.638150000000000    0.294207000000000 
K           0.361850000000000    0.000000000000000    0.794207000000000 
K           0.361850000000000    0.361850000000000    0.294207000000000 
K           0.638150000000000    0.000000000000000    0.294207000000000 
K           0.638150000000000    0.638150000000000    0.794207000000000 
%ENDBLOCK POSITIONS_FRAC
