# Cell file generated by matador (Matthew Evans 2016)

%BLOCK LATTICE_CART
7.65191 0.0 0.0
3.87648 8.55001 0.0
-1.00488 1.51271 6.28833
%ENDBLOCK LATTICE_CART

%BLOCK POSITIONS_FRAC
P           0.000000000000000    0.500000000000000    0.500000000000000 
P           0.337677000000000    0.483264000000000    0.741189000000000 
P           0.662323000000000    0.516736000000000    0.258811000000000 
K           0.000000000000000    0.000000000000000    0.000000000000000 
K           0.000000000000000    0.000000000000000    0.500000000000000 
K           0.000000000000000    0.500000000000000    0.000000000000000 
K           0.194813000000000    0.038738000000000    0.260313000000000 
K           0.270713000000000    0.204549000000000    0.859665000000000 
K           0.500000000000000    0.000000000000000    0.500000000000000 
K           0.500000000000000    0.500000000000000    0.000000000000000 
K           0.729287000000000    0.795451000000000    0.140335000000000 
K           0.805187000000000    0.961262000000000    0.739687000000000 
%ENDBLOCK POSITIONS_FRAC
