# Cell file generated by matador (Matthew Evans 2016)

%BLOCK LATTICE_CART
9.11341 0.0 0.0
-4.55671 7.89245 0.0
0.0 0.0 8.85638
%ENDBLOCK LATTICE_CART

%BLOCK POSITIONS_FRAC
P           0.000000000000000    0.000000000000000    0.386105000000000 
P           0.000000000000000    0.000000000000000    0.700517000000000 
P           0.333333000000000    0.666667000000000    0.747468000000000 
P           0.666667000000000    0.333333000000000    0.747468000000000 
K           0.000000000000000    0.256341000000000    0.099737000000000 
K           0.000000000000000    0.373667000000000    0.510356000000000 
K           0.000000000000000    0.616934000000000    0.064670000000000 
K           0.000000000000000    0.709594000000000    0.499657000000000 
K           0.256341000000000    0.000000000000000    0.099737000000000 
K           0.290406000000000    0.290406000000000    0.499657000000000 
K           0.373667000000000    0.000000000000000    0.510356000000000 
K           0.383066000000000    0.383066000000000    0.064670000000000 
K           0.616934000000000    0.000000000000000    0.064670000000000 
K           0.626333000000000    0.626333000000000    0.510356000000000 
K           0.709594000000000    0.000000000000000    0.499657000000000 
K           0.743659000000000    0.743659000000000    0.099737000000000 
%ENDBLOCK POSITIONS_FRAC
