# Cell file generated by matador (Matthew Evans 2016)

%BLOCK LATTICE_CART
9.51852 0.0 0.0
0.0 6.97213 0.0
0.62034 0.0 5.47817
%ENDBLOCK LATTICE_CART

%BLOCK POSITIONS_FRAC
P           0.046397000000000    0.221225000000000    0.829788000000000 
P           0.098774000000000    0.811084000000000    0.439523000000000 
P           0.213750000000000    0.238614000000000    0.553536000000000 
P           0.291231000000000    0.797235000000000    0.097222000000000 
P           0.308387000000000    0.665473000000000    0.809283000000000 
P           0.468811000000000    0.480214000000000    0.334027000000000 
P           0.473845000000000    0.051375000000000    0.587573000000000 
P           0.526155000000000    0.051375000000000    0.412427000000000 
P           0.531189000000000    0.480214000000000    0.665973000000000 
P           0.691613000000000    0.665473000000000    0.190717000000000 
P           0.708769000000000    0.797235000000000    0.902778000000000 
P           0.786250000000000    0.238614000000000    0.446464000000000 
P           0.901226000000000    0.811084000000000    0.560477000000000 
P           0.953603000000000    0.221225000000000    0.170212000000000 
K           0.000000000000000    0.334644000000000    0.500000000000000 
K           0.000000000000000    0.629221000000000    0.000000000000000 
%ENDBLOCK POSITIONS_FRAC
