# Cell file generated by matador (Matthew Evans 2016)

%BLOCK LATTICE_CART
3.39454 0.0 0.0
0.0 11.6607 0.0
-0.372928 0.0 6.19351
%ENDBLOCK LATTICE_CART

%BLOCK POSITIONS_FRAC
P           0.204494000000000    0.173159000000000    0.031590000000000 
P           0.204494000000000    0.826841000000000    0.031590000000000 
P           0.704494000000000    0.326841000000000    0.031590000000000 
P           0.704494000000000    0.673159000000000    0.031590000000000 
K           0.054604000000000    0.500000000000000    0.192266000000000 
K           0.298693000000000   -0.000000000000000    0.561371000000000 
K           0.357799000000000    0.500000000000000    0.823447000000000 
K           0.554604000000000   -0.000000000000000    0.192266000000000 
K           0.798693000000000    0.500000000000000    0.561371000000000 
K           0.857799000000000   -0.000000000000000    0.823447000000000 
%ENDBLOCK POSITIONS_FRAC
