# Cell file generated by matador (Matthew Evans 2016)

%BLOCK LATTICE_CART
9.44575 0.0 0.0
-4.72287 8.18026 0.0
0.0 0.0 6.91997
%ENDBLOCK LATTICE_CART

%BLOCK POSITIONS_FRAC
P           0.000000000000000    0.000000000000000    0.297201000000000 
P           0.000000000000000    0.000000000000000    0.702799000000000 
K           0.083909000000000    0.541955000000000    0.225024000000000 
K           0.129416000000000    0.258832000000000    0.195921000000000 
K           0.129416000000000    0.870584000000000    0.195921000000000 
K           0.258832000000000    0.129416000000000    0.804079000000000 
K           0.333333000000000    0.666667000000000    0.517629000000000 
K           0.458045000000000    0.541955000000000    0.225024000000000 
K           0.458045000000000    0.916091000000000    0.225024000000000 
K           0.541955000000000    0.083909000000000    0.774976000000000 
K           0.541955000000000    0.458045000000000    0.774976000000000 
K           0.666667000000000    0.333333000000000    0.482371000000000 
K           0.741168000000000    0.870584000000000    0.195921000000000 
K           0.870584000000000    0.129416000000000    0.804079000000000 
K           0.870584000000000    0.741168000000000    0.804079000000000 
K           0.916091000000000    0.458045000000000    0.774976000000000 
%ENDBLOCK POSITIONS_FRAC
