# Cell file generated by matador (Matthew Evans 2016)

%BLOCK LATTICE_CART
7.70801 0.0 0.0
-3.85401 6.67533 0.0
0.0 0.0 7.64619
%ENDBLOCK LATTICE_CART

%BLOCK POSITIONS_FRAC
P           0.666667000000000    0.333333000000000    0.100190000000000 
P           0.666667000000000    0.333333000000000    0.899810000000000 
K           0.000000000000000   -0.000000000000000    0.000000000000000 
K           0.000000000000000   -0.000000000000000    0.500000000000000 
K           0.333334000000000    0.666666000000000    0.500000000000000 
K           0.353417000000000    0.176708000000000    0.500000000000000 
K           0.666667000000000    0.333333000000000    0.500000000000000 
K           0.823292000000000    0.176708000000000    0.500000000000000 
K           0.823292000000000    0.646583000000000    0.500000000000000 
%ENDBLOCK POSITIONS_FRAC
