# Cell file generated by matador (Matthew Evans 2016)

%BLOCK LATTICE_CART
6.2865 0.0 0.0
3.48777 6.31798 0.0
-0.382048 2.45191 8.60244
%ENDBLOCK LATTICE_CART

%BLOCK POSITIONS_FRAC
P           0.323091000000000    0.599558000000000    0.760931000000000 
P           0.676909000000000    0.400442000000000    0.239069000000000 
K           0.000000000000000    0.000000000000000    0.000000000000000 
K           0.000000000000000    0.000000000000000    0.500000000000000 
K           0.000000000000000    0.500000000000000    0.500000000000000 
K           0.500000000000000    0.000000000000000    0.000000000000000 
K           0.500000000000000    0.000000000000000    0.500000000000000 
K           0.500000000000000    0.500000000000000    0.000000000000000 
%ENDBLOCK POSITIONS_FRAC
