# Cell file generated by matador (Matthew Evans 2016)

%BLOCK LATTICE_CART
8.11472 0.0 0.0
-4.05736 7.02755 0.0
0.0 0.0 10.1041
%ENDBLOCK LATTICE_CART

%BLOCK POSITIONS_FRAC
P           0.000000000000000   -0.000000000000000    0.015853000000000 
P           0.000000000000000   -0.000000000000000    0.846397000000000 
P           0.333333000000000    0.666667000000000    0.513064000000000 
P           0.333333000000000    0.666667000000000    0.682520000000000 
P           0.666667000000000    0.333333000000000    0.179730000000000 
P           0.666667000000000    0.333333000000000    0.349187000000000 
K           0.019108000000000    0.548451000000000    0.518777000000000 
K           0.118215000000000    0.803990000000000    0.852110000000000 
K           0.196010000000000    0.314226000000000    0.852110000000000 
K           0.352441000000000    0.215118000000000    0.185443000000000 
K           0.451549000000000    0.470656000000000    0.518777000000000 
K           0.529344000000000    0.980892000000000    0.518777000000000 
K           0.685774000000000    0.881785000000000    0.852110000000000 
K           0.784882000000000    0.137323000000000    0.185443000000000 
K           0.862677000000000    0.647559000000000    0.185443000000000 
%ENDBLOCK POSITIONS_FRAC
