# Cell file generated by matador (Matthew Evans 2016)

%BLOCK LATTICE_CART
7.53912 0.0 0.0
-3.76956 6.52907 0.0
0.0 0.0 6.58966
%ENDBLOCK LATTICE_CART

%BLOCK POSITIONS_FRAC
P           0.333333000000000    0.666667000000000    0.764507000000000 
P           0.666666000000000    0.333334000000000    0.235493000000000 
K          -0.000000000000000    0.500000000000000    0.000000000000000 
K          -0.000000000000000    0.500000000000000    0.500000000000000 
K           0.500000000000000    0.000000000000000    0.000000000000000 
K           0.500000000000000    0.000000000000000    0.500000000000000 
K           0.500000000000000    0.500000000000000    0.000000000000000 
K           0.500000000000000    0.500000000000000    0.500000000000000 
%ENDBLOCK POSITIONS_FRAC
