# Cell file generated by matador (Matthew Evans 2016)

%BLOCK LATTICE_CART
7.52171 0.0 0.0
0.0 7.52171 0.0
0.0 0.0 6.60604
%ENDBLOCK LATTICE_CART

%BLOCK POSITIONS_FRAC
P          -0.000000000000000   -0.000000000000000   -0.000000000000000 
P          -0.000000000000000    0.154840000000000    0.500000000000000 
P          -0.000000000000000    0.845160000000000    0.500000000000000 
P           0.154840000000000   -0.000000000000000    0.500000000000000 
P           0.345160000000000    0.500000000000000   -0.000000000000000 
P           0.500000000000000    0.345160000000000   -0.000000000000000 
P           0.500000000000000    0.500000000000000    0.500000000000000 
P           0.500000000000000    0.654840000000000   -0.000000000000000 
P           0.654840000000000    0.500000000000000   -0.000000000000000 
P           0.845160000000000   -0.000000000000000    0.500000000000000 
K          -0.000000000000000    0.500000000000000    0.250000000000000 
K          -0.000000000000000    0.500000000000000    0.750000000000000 
K           0.500000000000000   -0.000000000000000    0.250000000000000 
K           0.500000000000000   -0.000000000000000    0.750000000000000 
%ENDBLOCK POSITIONS_FRAC
