# Cell file generated by matador (Matthew Evans 2016)

%BLOCK LATTICE_CART
6.82646 0.0 0.0
-3.41323 5.91189 0.0
0.0 0.0 7.61692
%ENDBLOCK LATTICE_CART

%BLOCK POSITIONS_FRAC
P           0.000000000000000    0.593333000000000    0.771047000000000 
P           0.333333000000000    0.666667000000000    0.667638000000000 
P           0.406667000000000    0.406667000000000    0.771047000000000 
P           0.593333000000000    0.000000000000000    0.771047000000000 
P           0.666667000000000    0.333333000000000    0.667638000000000 
K           0.000000000000000    0.000000000000000    0.053732000000000 
K           0.000000000000000    0.209891000000000    0.471440000000000 
K           0.000000000000000    0.471639000000000    0.218053000000000 
K           0.209891000000000    0.000000000000000    0.471440000000000 
K           0.471639000000000    0.000000000000000    0.218053000000000 
K           0.528361000000000    0.528361000000000    0.218053000000000 
K           0.790109000000000    0.790109000000000    0.471440000000000 
%ENDBLOCK POSITIONS_FRAC
