# Cell file generated by matador (Matthew Evans 2016)

%BLOCK LATTICE_CART
8.19568 0.0 0.0
-4.09784 7.09767 0.0
0.0 0.0 7.91875
%ENDBLOCK LATTICE_CART

%BLOCK POSITIONS_FRAC
P          -0.000000000000000    0.486766000000000    0.333333000000000 
P          -0.000000000000000    0.526171000000000    0.833333000000000 
P          -0.000000000000000    0.876077000000000    0.333333000000000 
P           0.123923000000000    0.123923000000000   -0.000000000000000 
P           0.130903000000000    0.542318000000000    0.748817000000000 
P           0.411415000000000    0.869097000000000    0.082150000000000 
P           0.457682000000000    0.588585000000000    0.415484000000000 
P           0.473829000000000    0.473829000000000    0.500000000000000 
P           0.486766000000000   -0.000000000000000    0.666666000000000 
P           0.513234000000000    0.513234000000000   -0.000000000000000 
P           0.526171000000000   -0.000000000000000    0.166666000000000 
P           0.542318000000000    0.130903000000000    0.251182000000000 
P           0.588585000000000    0.457682000000000    0.584516000000000 
P           0.869097000000000    0.411415000000000    0.917849000000000 
P           0.876077000000000   -0.000000000000000    0.666666000000000 
K          -0.000000000000000    0.183039000000000    0.333333000000000 
K           0.183039000000000   -0.000000000000000    0.666666000000000 
K           0.816961000000000    0.816961000000000   -0.000000000000000 
%ENDBLOCK POSITIONS_FRAC
