# Cell file generated by matador (Matthew Evans 2016)

%BLOCK LATTICE_CART
9.13447 0.0 0.0
-4.56724 7.91069 0.0
0.0 0.0 8.79845
%ENDBLOCK LATTICE_CART

%BLOCK POSITIONS_FRAC
P           0.000000000000000    0.000000000000000    0.227312000000000 
P           0.000000000000000    0.000000000000000    0.772688000000000 
P           0.491527000000000    0.178336000000000    0.171427000000000 
P           0.491527000000000    0.178336000000000    0.828573000000000 
P           0.491527000000000    0.313192000000000    0.171427000000000 
P           0.491527000000000    0.313192000000000    0.828573000000000 
P           0.686808000000000    0.178336000000000    0.171427000000000 
P           0.686808000000000    0.178336000000000    0.828573000000000 
P           0.686808000000000    0.508473000000000    0.171427000000000 
P           0.686808000000000    0.508473000000000    0.828573000000000 
P           0.821664000000000    0.313192000000000    0.171427000000000 
P           0.821664000000000    0.313192000000000    0.828573000000000 
P           0.821664000000000    0.508473000000000    0.171427000000000 
P           0.821664000000000    0.508473000000000    0.828573000000000 
K           0.000000000000000    0.000000000000000    0.000000000000000 
K           0.000000000000000    0.000000000000000    0.500000000000000 
%ENDBLOCK POSITIONS_FRAC
