# Cell file generated by matador (Matthew Evans 2016)

%BLOCK LATTICE_CART
15.5725 0.0 0.0
0.0 6.15563 0.0
0.0 0.0 6.69203
%ENDBLOCK LATTICE_CART

%BLOCK POSITIONS_FRAC
P           0.212281000000000    0.000000000000000    0.000000000000000 
P           0.287719000000000    0.000000000000000    0.500000000000000 
P           0.712281000000000    0.000000000000000    0.500000000000000 
P           0.787719000000000    0.000000000000000    0.000000000000000 
K          -0.000000000000000    0.000000000000000    0.000000000000000 
K          -0.000000000000000    0.000000000000000    0.500000000000000 
K          -0.000000000000000    0.500000000000000    0.000000000000000 
K          -0.000000000000000    0.500000000000000    0.500000000000000 
K           0.250000000000000    0.310571000000000    0.250000000000000 
K           0.250000000000000    0.689429000000000    0.750000000000000 
K           0.500000000000000    0.000000000000000    0.000000000000000 
K           0.500000000000000    0.000000000000000    0.500000000000000 
K           0.500000000000000    0.500000000000000    0.000000000000000 
K           0.500000000000000    0.500000000000000    0.500000000000000 
K           0.750000000000000    0.310571000000000    0.250000000000000 
K           0.750000000000000    0.689429000000000    0.750000000000000 
%ENDBLOCK POSITIONS_FRAC
