# Cell file generated by matador (Matthew Evans 2016)

%BLOCK LATTICE_CART
5.38635 0.0 0.0
-2.69318 4.66472 0.0
0.0 0.0 8.08946
%ENDBLOCK LATTICE_CART

%BLOCK POSITIONS_FRAC
P           0.088070000000000    0.442151000000000    0.694879000000000 
P           0.088070000000000    0.645919000000000    0.694879000000000 
P           0.354081000000000    0.442151000000000    0.694879000000000 
P           0.354081000000000    0.911930000000000    0.694879000000000 
P           0.557849000000000    0.645919000000000    0.694879000000000 
P           0.557849000000000    0.911930000000000    0.694879000000000 
K           0.333333000000000    0.666667000000000    0.056342000000000 
K           0.333333000000000    0.666667000000000    0.390416000000000 
%ENDBLOCK POSITIONS_FRAC
