# Cell file generated by matador (Matthew Evans 2016)

%BLOCK LATTICE_CART
8.18592 0.0 0.0
-4.09296 7.08922 0.0
0.0 0.0 5.85111
%ENDBLOCK LATTICE_CART

%BLOCK POSITIONS_FRAC
P           0.201199000000000    0.113283000000000    0.708826000000000 
P           0.220051000000000    0.754583000000000    0.375492000000000 
P           0.245417000000000    0.465468000000000    0.375492000000000 
P           0.534532000000000    0.779949000000000    0.375492000000000 
P           0.553384000000000    0.421249000000000    0.042159000000000 
P           0.578751000000000    0.132135000000000    0.042159000000000 
P           0.867865000000000    0.446616000000000    0.042159000000000 
P           0.886717000000000    0.087916000000000    0.708826000000000 
P           0.912084000000000    0.798801000000000    0.708826000000000 
K           0.000000000000000    0.000000000000000    0.031084000000000 
K           0.333333000000000    0.666667000000000    0.697751000000000 
K           0.666667000000000    0.333333000000000    0.364418000000000 
%ENDBLOCK POSITIONS_FRAC
