# Cell file generated by matador (Matthew Evans 2016)

%BLOCK LATTICE_CART
8.1993 -0.0 0.0
-4.09965 7.1008 0.0
0.0 0.0 11.859
%ENDBLOCK LATTICE_CART

%BLOCK POSITIONS_FRAC
P           0.000000000000000    0.000000000000000   -0.000000000000000 
P           0.000000000000000    0.000000000000000    0.500000000000000 
P           0.333333000000000    0.666667000000000    0.250000000000000 
P           0.666667000000000    0.333333000000000    0.750000000000000 
K           0.000000000000000    0.500000000000000   -0.000000000000000 
K           0.000000000000000    0.500000000000000    0.500000000000000 
K           0.018797000000000    0.570282000000000    0.250000000000000 
K           0.429718000000000    0.448515000000000    0.250000000000000 
K           0.448515000000000    0.018797000000000    0.750000000000000 
K           0.500000000000000    0.000000000000000   -0.000000000000000 
K           0.500000000000000    0.000000000000000    0.500000000000000 
K           0.500000000000000    0.500000000000000   -0.000000000000000 
K           0.500000000000000    0.500000000000000    0.500000000000000 
K           0.551485000000000    0.981203000000000    0.250000000000000 
K           0.570282000000000    0.551485000000000    0.750000000000000 
K           0.981203000000000    0.429718000000000    0.750000000000000 
%ENDBLOCK POSITIONS_FRAC
