# Cell file generated by matador (Matthew Evans 2016)

%BLOCK LATTICE_CART
11.2775 0.0 0.0
-0.719305 2.93852 0.0
-2.08725 3.6468 9.68631
%ENDBLOCK LATTICE_CART

%BLOCK POSITIONS_FRAC
P           0.490533000000000    0.488645000000000    0.163453000000000 
P           0.509467000000000    0.511355000000000    0.836547000000000 
K           0.000000000000000    0.000000000000000    0.500000000000000 
K           0.000000000000000    0.500000000000000    0.000000000000000 
K           0.204228000000000    0.141930000000000    0.350184000000000 
K           0.278299000000000    0.032215000000000    0.847782000000000 
K           0.500000000000000    0.000000000000000    0.000000000000000 
K           0.721701000000000    0.967785000000000    0.152218000000000 
K           0.795772000000000    0.858070000000000    0.649816000000000 
%ENDBLOCK POSITIONS_FRAC
