# Cell file generated by matador (Matthew Evans 2016)

%BLOCK LATTICE_CART
8.41283 0.0 0.0
0.0 8.41283 0.0
0.0 0.0 9.07372
%ENDBLOCK LATTICE_CART

%BLOCK POSITIONS_FRAC
P           0.000000000000000    0.000000000000000   -0.000000000000000 
P           0.000000000000000    0.000000000000000    0.250000000000000 
P           0.000000000000000    0.000000000000000    0.500000000000000 
P           0.000000000000000    0.000000000000000    0.750000000000000 
P           0.332960000000000    0.487624000000000    0.500000000000000 
P           0.332960000000000    0.512376000000000   -0.000000000000000 
P           0.487624000000000    0.332960000000000   -0.000000000000000 
P           0.487624000000000    0.667040000000000    0.500000000000000 
P           0.500000000000000    0.500000000000000   -0.000000000000000 
P           0.500000000000000    0.500000000000000    0.500000000000000 
P           0.512376000000000    0.332960000000000    0.500000000000000 
P           0.512376000000000    0.667040000000000   -0.000000000000000 
P           0.667040000000000    0.487624000000000   -0.000000000000000 
P           0.667040000000000    0.512376000000000    0.500000000000000 
K           0.000000000000000    0.500000000000000   -0.000000000000000 
K           0.000000000000000    0.500000000000000    0.500000000000000 
K           0.500000000000000    0.000000000000000   -0.000000000000000 
K           0.500000000000000    0.000000000000000    0.500000000000000 
%ENDBLOCK POSITIONS_FRAC
