# Cell file generated by matador (Matthew Evans 2016)

%BLOCK LATTICE_CART
5.10603 0.0 0.0
-2.55301 4.42195 0.0
0.0 0.0 12.6527
%ENDBLOCK LATTICE_CART

%BLOCK POSITIONS_FRAC
P           0.000000000000000    0.000000000000000    0.427254000000000 
P           0.666667000000000    0.333333000000000    0.226513000000000 
K           0.000000000000000    0.000000000000000    0.028102000000000 
K           0.052089000000000    0.272995000000000    0.726086000000000 
K           0.220906000000000    0.947911000000000    0.726086000000000 
K           0.333333000000000    0.666667000000000    0.502238000000000 
K           0.666667000000000    0.333333000000000    0.942789000000000 
K           0.727005000000000    0.779094000000000    0.726086000000000 
%ENDBLOCK POSITIONS_FRAC
