# Cell file generated by matador (Matthew Evans 2016)

%BLOCK LATTICE_CART
6.52084 0.0 0.0
-3.26042 5.64721 0.0
0.0 0.0 5.73203
%ENDBLOCK LATTICE_CART

%BLOCK POSITIONS_FRAC
P           0.000000000000000    0.000000000000000    0.292791000000000 
P           0.000000000000000    0.000000000000000    0.707209000000000 
K           0.107826000000000    0.791879000000000    0.500000000000000 
K           0.208121000000000    0.315947000000000    0.500000000000000 
K           0.333333000000000    0.666667000000000    0.000000000000000 
K           0.333333000000000    0.666667000000000    0.500000000000000 
K           0.684053000000000    0.892174000000000    0.500000000000000 
%ENDBLOCK POSITIONS_FRAC
