# Cell file generated by matador (Matthew Evans 2016)

%BLOCK LATTICE_CART
8.22714 0.0 0.0
-4.11357 7.12491 0.0
0.0 0.0 6.52961
%ENDBLOCK LATTICE_CART

%BLOCK POSITIONS_FRAC
P           0.041274000000000    0.240386000000000    0.090237000000000 
P           0.199110000000000    0.958724000000000    0.090237000000000 
P           0.240386000000000    0.199110000000000    0.090237000000000 
P           0.759612000000000    0.800888000000000    0.090237000000000 
P           0.800888000000000    0.041274000000000    0.090237000000000 
P           0.958724000000000    0.759612000000000    0.090237000000000 
K           0.999999000000000    0.999999000000000    0.248766000000000 
K           0.999999000000000    0.499999000000000    0.322945000000000 
K           0.333332000000000    0.666666000000000    0.792013000000000 
K           0.499999000000000    0.999999000000000    0.322945000000000 
K           0.499999000000000    0.499999000000000    0.322945000000000 
K           0.666666000000000    0.333332000000000    0.792013000000000 
%ENDBLOCK POSITIONS_FRAC
