# Cell file generated by matador (Matthew Evans 2016)

%BLOCK LATTICE_CART
7.98169 0.0 0.0
-3.99085 6.91235 0.0
0.0 0.0 7.83733
%ENDBLOCK LATTICE_CART

%BLOCK POSITIONS_FRAC
P           0.333334000000000    0.666668000000000    0.505190000000000 
P           0.333334000000000    0.666668000000000    0.750000000000000 
P           0.333334000000000    0.666668000000000    0.994810000000000 
P           0.666668000000000    0.333334000000000    0.005190000000000 
P           0.666668000000000    0.333334000000000    0.250000000000000 
P           0.666668000000000    0.333334000000000    0.494810000000000 
K           0.000001000000000    0.000001000000000    0.000000000000000 
K           0.000001000000000    0.000001000000000    0.250000000000000 
K           0.000001000000000    0.000001000000000    0.500000000000000 
K           0.000001000000000    0.000001000000000    0.750000000000000 
K           0.333334000000000    0.666668000000000    0.250000000000000 
K           0.666668000000000    0.333334000000000    0.750000000000000 
%ENDBLOCK POSITIONS_FRAC
