# Cell file generated by matador (Matthew Evans 2016)

%BLOCK LATTICE_CART
9.57421 0.0 0.0
0.0 3.28723 0.0
0.0 0.0 10.5418
%ENDBLOCK LATTICE_CART

%BLOCK POSITIONS_FRAC
P           0.500000000000000    0.000000000000000    0.107286000000000 
P           0.500000000000000    0.500000000000000    0.607286000000000 
K           0.315775000000000    0.000000000000000    0.802520000000000 
K           0.315775000000000    0.500000000000000    0.302520000000000 
K           0.500000000000000    0.000000000000000    0.480446000000000 
K           0.500000000000000    0.500000000000000    0.980446000000000 
K           0.684225000000000    0.000000000000000    0.802520000000000 
K           0.684225000000000    0.500000000000000    0.302520000000000 
%ENDBLOCK POSITIONS_FRAC
