# Cell file generated by matador (Matthew Evans 2016)

%BLOCK LATTICE_CART
7.25491 0.0 0.0
0.0 7.25491 0.0
0.0 0.0 13.9985
%ENDBLOCK LATTICE_CART

%BLOCK POSITIONS_FRAC
P           0.000000000000000    0.500000000000000    0.036281000000000 
P           0.000000000000000    0.500000000000000    0.536281000000000 
P           0.286112000000000    0.315495000000000    0.585494000000000 
P           0.286112000000000    0.684505000000000    0.085494000000000 
P           0.315495000000000    0.286112000000000    0.085494000000000 
P           0.315495000000000    0.713888000000000    0.585494000000000 
P           0.500000000000000    0.000000000000000    0.036281000000000 
P           0.500000000000000    0.000000000000000    0.536281000000000 
P           0.500000000000000    0.500000000000000    0.393115000000000 
P           0.500000000000000    0.500000000000000    0.893115000000000 
P           0.684505000000000    0.286112000000000    0.585494000000000 
P           0.684505000000000    0.713888000000000    0.085494000000000 
P           0.713888000000000    0.315495000000000    0.085494000000000 
P           0.713888000000000    0.684505000000000    0.585494000000000 
K           0.000000000000000    0.000000000000000    0.337608000000000 
K           0.000000000000000    0.000000000000000    0.837608000000000 
K           0.000000000000000    0.500000000000000    0.284108000000000 
K           0.000000000000000    0.500000000000000    0.784108000000000 
K           0.500000000000000    0.000000000000000    0.284108000000000 
K           0.500000000000000    0.000000000000000    0.784108000000000 
%ENDBLOCK POSITIONS_FRAC
