# Cell file generated by matador (Matthew Evans 2016)

%BLOCK LATTICE_CART
8.65688 0.0 0.0
-4.32844 7.49708 0.0
0.0 0.0 7.96072
%ENDBLOCK LATTICE_CART

%BLOCK POSITIONS_FRAC
P           0.024463000000000    0.175730000000000    0.119797000000000 
P           0.135966000000000    0.531816000000000    0.367854000000000 
P           0.138617000000000    0.095325000000000    0.506140000000000 
P           0.151268000000000    0.975537000000000    0.119797000000000 
P           0.333333000000000    0.666667000000000    0.624015000000000 
P           0.395849000000000    0.864034000000000    0.367854000000000 
P           0.430628000000000    0.412523000000000    0.289303000000000 
P           0.468184000000000    0.604151000000000    0.367854000000000 
P           0.587477000000000    0.018104000000000    0.289303000000000 
P           0.666667000000000    0.333333000000000    0.798244000000000 
P           0.824270000000000    0.848732000000000    0.119797000000000 
P           0.904675000000000    0.043292000000000    0.506140000000000 
P           0.956708000000000    0.861383000000000    0.506140000000000 
P           0.981896000000000    0.569372000000000    0.289303000000000 
K           0.000000000000000    0.000000000000000    0.288678000000000 
K           0.000000000000000    0.000000000000000    0.796499000000000 
K           0.333333000000000    0.666667000000000    0.891691000000000 
K           0.371448000000000    0.226228000000000    0.922355000000000 
K           0.773772000000000    0.145220000000000    0.922355000000000 
K           0.854780000000000    0.628552000000000    0.922355000000000 
%ENDBLOCK POSITIONS_FRAC
