# Cell file generated by matador (Matthew Evans 2016)

%BLOCK LATTICE_CART
10.2922 0.0 0.0
0.0 10.2922 0.0
0.0 0.0 6.98719
%ENDBLOCK LATTICE_CART

%BLOCK POSITIONS_FRAC
P           0.000000000000000    0.000000000000000    0.000000000000000 
P           0.079128000000000    0.920872000000000    0.000000000000000 
P           0.218274000000000    0.781726000000000    0.178970000000000 
P           0.218274000000000    0.781726000000000    0.821030000000000 
P           0.281726000000000    0.281726000000000    0.321030000000000 
P           0.281726000000000    0.281726000000000    0.678970000000000 
P           0.420872000000000    0.420872000000000    0.500000000000000 
P           0.500000000000000    0.500000000000000    0.500000000000000 
P           0.579128000000000    0.579128000000000    0.500000000000000 
P           0.718274000000000    0.718274000000000    0.321030000000000 
P           0.718274000000000    0.718274000000000    0.678970000000000 
P           0.781726000000000    0.218274000000000    0.178970000000000 
P           0.781726000000000    0.218274000000000    0.821030000000000 
P           0.920872000000000    0.079128000000000    0.000000000000000 
K           0.000000000000000    0.000000000000000    0.500000000000000 
K           0.000000000000000    0.500000000000000    0.250000000000000 
K           0.000000000000000    0.500000000000000    0.750000000000000 
K           0.500000000000000    0.000000000000000    0.250000000000000 
K           0.500000000000000    0.000000000000000    0.750000000000000 
K           0.500000000000000    0.500000000000000    0.000000000000000 
%ENDBLOCK POSITIONS_FRAC
