# Cell file generated by matador (Matthew Evans 2016)

%BLOCK LATTICE_CART
6.02968 0.0 0.0
-3.01484 5.22186 0.0
0.0 0.0 5.36637
%ENDBLOCK LATTICE_CART

%BLOCK POSITIONS_FRAC
P           0.000000000000000    0.000000000000000    0.000000000000000 
K           0.000000000000000    0.500000000000000    0.000000000000000 
K           0.500000000000000    0.000000000000000    0.000000000000000 
K           0.500000000000000    0.500000000000000    0.000000000000000 
%ENDBLOCK POSITIONS_FRAC
