# Cell file generated by matador (Matthew Evans 2016)

%BLOCK LATTICE_CART
7.08997 0.0 0.0
0.0 6.35058 0.0
2.73233 0.0 7.45162
%ENDBLOCK LATTICE_CART

%BLOCK POSITIONS_FRAC
P           0.379751000000000    0.500000000000000    0.966697000000000 
P           0.879751000000000    0.000000000000000    0.966697000000000 
K           0.112180000000000    0.500000000000000    0.495180000000000 
K           0.188406000000000    0.000000000000000    0.489363000000000 
K           0.469616000000000    0.000000000000000    0.052591000000000 
K           0.612180000000000    0.000000000000000    0.495180000000000 
K           0.688406000000000    0.500000000000000    0.489363000000000 
K           0.969616000000000    0.500000000000000    0.052591000000000 
%ENDBLOCK POSITIONS_FRAC
