# Cell file generated by matador (Matthew Evans 2016)

%BLOCK LATTICE_CART
9.97328 0.0 0.0
-4.98664 8.63712 0.0
0.0 0.0 4.947
%ENDBLOCK LATTICE_CART

%BLOCK POSITIONS_FRAC
P          -0.000000000000000    0.000000000000000    0.078266000000000 
P           0.084072000000000    0.168145000000000    0.467796000000000 
P           0.084072000000000    0.915928000000000    0.467796000000000 
P           0.333333000000000    0.666667000000000    0.442756000000000 
P           0.333333000000000    0.666667000000000    0.813057000000000 
P           0.666666000000000    0.333334000000000    0.020468000000000 
P           0.831855000000000    0.915928000000000    0.467796000000000 
K           0.065853000000000    0.532927000000000    0.865809000000000 
K           0.222691000000000    0.445382000000000    0.174729000000000 
K           0.222691000000000    0.777309000000000    0.174729000000000 
K           0.467073000000000    0.532927000000000    0.865809000000000 
K           0.467073000000000    0.934147000000000    0.865809000000000 
K           0.554618000000000    0.777309000000000    0.174729000000000 
%ENDBLOCK POSITIONS_FRAC
