# Cell file generated by matador (Matthew Evans 2016)

%BLOCK LATTICE_CART
5.18183 0.0 0.0
0.0 5.71436 0.0
-1.76708 0.0 8.77558
%ENDBLOCK LATTICE_CART

%BLOCK POSITIONS_FRAC
P           0.520999000000000    0.000000000000000    0.930778000000000 
P           0.618101000000000    0.500000000000000    0.428075000000000 
P           0.760927000000000    0.500000000000000    0.357727000000000 
P           0.806816000000000    0.299333000000000    0.577283000000000 
P           0.806816000000000    0.700667000000000    0.577283000000000 
P           0.870449000000000    0.000000000000000    0.817867000000000 
K           0.219028000000000    0.000000000000000    0.162500000000000 
K           0.331415000000000    0.000000000000000    0.499636000000000 
K           0.339901000000000    0.500000000000000    0.846594000000000 
K           0.473761000000000    0.500000000000000    0.147287000000000 
K           0.878443000000000    0.000000000000000    0.366457000000000 
%ENDBLOCK POSITIONS_FRAC
