# Cell file generated by matador (Matthew Evans 2016)

%BLOCK LATTICE_CART
6.10606 0.0 0.0
0.0 6.10606 0.0
0.0 0.0 8.70934
%ENDBLOCK LATTICE_CART

%BLOCK POSITIONS_FRAC
P           0.000000000000000    0.000000000000000    0.500000000000000 
P           0.500000000000000    0.500000000000000    0.500000000000000 
K           0.000000000000000    0.000000000000000    0.000000000000000 
K           0.193927000000000    0.683334000000000    0.500000000000000 
K           0.316666000000000    0.193927000000000    0.500000000000000 
K           0.500000000000000    0.500000000000000    0.000000000000000 
K           0.683334000000000    0.806073000000000    0.500000000000000 
K           0.806073000000000    0.316666000000000    0.500000000000000 
%ENDBLOCK POSITIONS_FRAC
