# Cell file generated by matador (Matthew Evans 2016)

%BLOCK LATTICE_CART
8.64904 0.0 0.0
0.0 8.64904 0.0
0.0 0.0 6.63169
%ENDBLOCK LATTICE_CART

%BLOCK POSITIONS_FRAC
P           0.000000000000000    0.000000000000000    0.500000000000000 
P           0.500000000000000    0.500000000000000    0.000000000000000 
P           0.500000000000000    0.500000000000000    0.500000000000000 
K           0.000000000000000    0.000000000000000    0.000000000000000 
K           0.067300000000000    0.272249000000000    0.500000000000000 
K           0.261081000000000    0.559950000000000    0.500000000000000 
K           0.272249000000000    0.932700000000000    0.500000000000000 
K           0.440050000000000    0.261081000000000    0.500000000000000 
K           0.559950000000000    0.738919000000000    0.500000000000000 
K           0.727751000000000    0.067300000000000    0.500000000000000 
K           0.738919000000000    0.440050000000000    0.500000000000000 
K           0.932700000000000    0.727751000000000    0.500000000000000 
%ENDBLOCK POSITIONS_FRAC
