# Cell file generated by matador (Matthew Evans 2016)

%BLOCK LATTICE_CART
9.68442 0.0 0.0
-4.84221 8.38695 0.0
0.0 0.0 5.84318
%ENDBLOCK LATTICE_CART

%BLOCK POSITIONS_FRAC
P           0.000000000000000    0.000000000000000    0.607582000000000 
P           0.333333000000000    0.666667000000000    0.274249000000000 
P           0.666667000000000    0.333333000000000    0.940915000000000 
K           0.078809000000000    0.539405000000000    0.166434000000000 
K           0.127262000000000    0.254524000000000    0.499767000000000 
K           0.127262000000000    0.872738000000000    0.499767000000000 
K           0.412142000000000    0.206071000000000    0.833100000000000 
K           0.460595000000000    0.539405000000000    0.166434000000000 
K           0.460595000000000    0.921191000000000    0.166434000000000 
K           0.745476000000000    0.872738000000000    0.499767000000000 
K           0.793929000000000    0.206071000000000    0.833100000000000 
K           0.793929000000000    0.587858000000000    0.833100000000000 
%ENDBLOCK POSITIONS_FRAC
