# Cell file generated by matador (Matthew Evans 2016)

%BLOCK LATTICE_CART
11.2477 0.0 0.0
-5.62384 9.74077 0.0
0.0 0.0 12.5273
%ENDBLOCK LATTICE_CART

%BLOCK POSITIONS_FRAC
P           0.000000000000000    0.000000000000000    0.164357000000000 
P           0.000000000000000    0.000000000000000    0.335643000000000 
P           0.000000000000000    0.000000000000000    0.664357000000000 
P           0.000000000000000    0.000000000000000    0.835643000000000 
P           0.333333000000000    0.666667000000000    0.064167000000000 
P           0.333333000000000    0.666667000000000    0.435833000000000 
P           0.666667000000000    0.333333000000000    0.564167000000000 
P           0.666667000000000    0.333333000000000    0.935833000000000 
K           0.000000000000000    0.000000000000000    0.000000000000000 
K           0.000000000000000    0.000000000000000    0.500000000000000 
K           0.000000000000000    0.500000000000000    0.000000000000000 
K           0.000000000000000    0.500000000000000    0.500000000000000 
K           0.053438000000000    0.416620000000000    0.750000000000000 
K           0.112024000000000    0.235260000000000    0.250000000000000 
K           0.123236000000000    0.887976000000000    0.250000000000000 
K           0.235260000000000    0.123236000000000    0.750000000000000 
K           0.333333000000000    0.666667000000000    0.250000000000000 
K           0.333333000000000    0.666667000000000    0.750000000000000 
K           0.363182000000000    0.946562000000000    0.750000000000000 
K           0.416620000000000    0.363182000000000    0.250000000000000 
K           0.500000000000000    0.000000000000000    0.000000000000000 
K           0.500000000000000    0.000000000000000    0.500000000000000 
K           0.500000000000000    0.500000000000000    0.000000000000000 
K           0.500000000000000    0.500000000000000    0.500000000000000 
K           0.583380000000000    0.636818000000000    0.750000000000000 
K           0.636818000000000    0.053438000000000    0.250000000000000 
K           0.666667000000000    0.333333000000000    0.250000000000000 
K           0.666667000000000    0.333333000000000    0.750000000000000 
K           0.764740000000000    0.876764000000000    0.250000000000000 
K           0.876764000000000    0.112024000000000    0.750000000000000 
K           0.887976000000000    0.764740000000000    0.750000000000000 
K           0.946562000000000    0.583380000000000    0.250000000000000 
%ENDBLOCK POSITIONS_FRAC
