# Cell file generated by matador (Matthew Evans 2016)

%BLOCK LATTICE_CART
6.15746 0.0 0.0
-3.07873 5.33252 0.0
0.0 0.0 9.54337
%ENDBLOCK LATTICE_CART

%BLOCK POSITIONS_FRAC
P           0.333334000000000    0.666668000000000    0.543433000000000 
P           0.666668000000000    0.333334000000000    0.043433000000000 
K           0.007071000000000    0.503536000000000    0.380139000000000 
K           0.496466000000000    0.503536000000000    0.380139000000000 
K           0.496466000000000    0.992931000000000    0.380139000000000 
K           0.503536000000000    0.007071000000000    0.880139000000000 
K           0.503536000000000    0.496466000000000    0.880139000000000 
K           0.992931000000000    0.496466000000000    0.880139000000000 
%ENDBLOCK POSITIONS_FRAC
