# Cell file generated by matador (Matthew Evans 2016)

%BLOCK LATTICE_CART
7.12164 0.0 0.0
0.0 7.60165 0.0
1.66247 0.0 5.14723
%ENDBLOCK LATTICE_CART

%BLOCK POSITIONS_FRAC
P           0.000000000000000    0.000000000000000    0.500000000000000 
P           0.000000000000000    0.271700000000000    0.000000000000000 
P           0.000000000000000    0.728300000000000    0.000000000000000 
P           0.208998000000000    0.000000000000000    0.685555000000000 
P           0.226349000000000    0.500000000000000    0.060011000000000 
P           0.773651000000000    0.500000000000000    0.939989000000000 
P           0.791002000000000    0.000000000000000    0.314445000000000 
K           0.000000000000000    0.000000000000000    0.000000000000000 
K           0.000000000000000    0.500000000000000    0.500000000000000 
K           0.500000000000000    0.000000000000000    0.000000000000000 
K           0.500000000000000    0.000000000000000    0.500000000000000 
K           0.500000000000000    0.500000000000000    0.500000000000000 
%ENDBLOCK POSITIONS_FRAC
