# Cell file generated by matador (Matthew Evans 2016)

%BLOCK LATTICE_CART
5.05295 0.0 0.0
-2.52648 4.37599 0.0
0.0 0.0 4.99933
%ENDBLOCK LATTICE_CART

%BLOCK POSITIONS_FRAC
P           0.000000000000000    0.000000000000000    0.350013000000000 
P           0.000000000000000    0.000000000000000    0.803082000000000 
K           0.333333000000000    0.666667000000000    0.240314000000000 
K           0.666667000000000    0.333333000000000    0.240314000000000 
%ENDBLOCK POSITIONS_FRAC
