# Cell file generated by matador (Matthew Evans 2016)

%BLOCK LATTICE_CART
6.2246 0.0 0.0
0.0 6.2246 0.0
0.0 0.0 8.71011
%ENDBLOCK LATTICE_CART

%BLOCK POSITIONS_FRAC
P           0.000000000000000    0.000000000000000    0.316589000000000 
P           0.000000000000000    0.500000000000000    0.430662000000000 
P           0.000000000000000    0.500000000000000    0.780167000000000 
P           0.000000000000000    0.500000000000000    0.943057000000000 
P           0.500000000000000    0.000000000000000    0.430662000000000 
P           0.500000000000000    0.000000000000000    0.780167000000000 
P           0.500000000000000    0.000000000000000    0.943057000000000 
K           0.252302000000000    0.326206000000000    0.289367000000000 
K           0.326206000000000    0.747698000000000    0.289367000000000 
K           0.500000000000000    0.500000000000000    0.210696000000000 
K           0.500000000000000    0.500000000000000    0.443488000000000 
K           0.673794000000000    0.252302000000000    0.289367000000000 
K           0.747698000000000    0.673794000000000    0.289367000000000 
%ENDBLOCK POSITIONS_FRAC
