# Cell file generated by matador (Matthew Evans 2016)

%BLOCK LATTICE_CART
6.02006 0.0 0.0
-3.01003 5.21352 0.0
0.0 0.0 8.90899
%ENDBLOCK LATTICE_CART

%BLOCK POSITIONS_FRAC
P           0.000000000000000   -0.000000000000000    0.053428000000000 
P           0.000000000000000   -0.000000000000000    0.917854000000000 
P           0.214509000000000    0.760619000000000    0.455669000000000 
P           0.239381000000000    0.453890000000000    0.455669000000000 
P           0.333333000000000    0.666667000000000    0.716935000000000 
P           0.546110000000000    0.785491000000000    0.455669000000000 
P           0.666667000000000    0.333333000000000    0.284509000000000 
K           0.114056000000000    0.720590000000000    0.901081000000000 
K           0.279410000000000    0.393466000000000    0.901081000000000 
K           0.606534000000000    0.885944000000000    0.901081000000000 
%ENDBLOCK POSITIONS_FRAC
