# Cell file generated by matador (Matthew Evans 2016)

%BLOCK LATTICE_CART
4.45365 0.0 0.0
0.0 6.45066 0.0
1.6796 0.0 7.34194
%ENDBLOCK LATTICE_CART

%BLOCK POSITIONS_FRAC
P           0.170350000000000    0.500000000000000    0.377306000000000 
P           0.258875000000000    0.500000000000000    0.528205000000000 
P           0.513811000000000    0.500000000000000    0.892896000000000 
P           0.562052000000000    0.000000000000000    0.483783000000000 
P           0.600031000000000    0.500000000000000    0.155928000000000 
K           0.038783000000000    0.000000000000000    0.897480000000000 
K           0.522606000000000    0.000000000000000    0.078542000000000 
%ENDBLOCK POSITIONS_FRAC
