# Cell file generated by matador (Matthew Evans 2016)

%BLOCK LATTICE_CART
9.87957 0.0 0.0
-4.93979 8.55596 0.0
0.0 0.0 5.30306
%ENDBLOCK LATTICE_CART

%BLOCK POSITIONS_FRAC
P           0.000000000000000    0.000000000000000    0.048032000000000 
P           0.333333000000000    0.666667000000000    0.714698000000000 
P           0.666667000000000    0.333333000000000    0.381365000000000 
K           0.188356000000000    0.376712000000000    0.005401000000000 
K           0.188356000000000    0.811644000000000    0.005401000000000 
K           0.289954000000000    0.144977000000000    0.338734000000000 
K           0.521690000000000    0.043379000000000    0.672067000000000 
K           0.521690000000000    0.478310000000000    0.672067000000000 
K           0.623288000000000    0.811644000000000    0.005401000000000 
K           0.855023000000000    0.144977000000000    0.338734000000000 
K           0.855023000000000    0.710046000000000    0.338734000000000 
K           0.956621000000000    0.478310000000000    0.672067000000000 
%ENDBLOCK POSITIONS_FRAC
