# Cell file generated by matador (Matthew Evans 2016)

%BLOCK LATTICE_CART
8.59593 0.0 0.0
0.0 8.59593 0.0
0.0 0.0 7.51981
%ENDBLOCK LATTICE_CART

%BLOCK POSITIONS_FRAC
P           0.164522000000000    0.164522000000000    0.500000000000000 
P           0.244064000000000    0.755936000000000    0.000000000000000 
P           0.255936000000000    0.255936000000000    0.500000000000000 
P           0.335478000000000    0.664522000000000    0.000000000000000 
P           0.664522000000000    0.335478000000000    0.000000000000000 
P           0.744064000000000    0.744064000000000    0.500000000000000 
P           0.755936000000000    0.244064000000000    0.000000000000000 
P           0.835478000000000    0.835478000000000    0.500000000000000 
K           0.000000000000000    0.000000000000000    0.500000000000000 
K           0.181658000000000    0.818342000000000    0.500000000000000 
K           0.318342000000000    0.318342000000000    0.000000000000000 
K           0.500000000000000    0.500000000000000    0.000000000000000 
K           0.681658000000000    0.681658000000000    0.000000000000000 
K           0.818342000000000    0.181658000000000    0.500000000000000 
%ENDBLOCK POSITIONS_FRAC
