# Cell file generated by matador (Matthew Evans 2016)

%BLOCK LATTICE_CART
12.4323 0.0 0.0
-6.21617 10.7667 0.0
0.0 0.0 9.67718
%ENDBLOCK LATTICE_CART

%BLOCK POSITIONS_FRAC
P           0.000000000000000    0.000000000000000    0.339772000000000 
P           0.013487000000000    0.506743000000000    0.870407000000000 
P           0.333333000000000    0.666667000000000    0.453785000000000 
P           0.493257000000000    0.506743000000000    0.870407000000000 
P           0.493257000000000    0.986513000000000    0.870407000000000 
P           0.612189000000000    0.224378000000000    0.274267000000000 
P           0.612189000000000    0.387811000000000    0.274267000000000 
P           0.775622000000000    0.387811000000000    0.274267000000000 
K           0.006271000000000    0.503135000000000    0.210349000000000 
K           0.055394000000000    0.527697000000000    0.666734000000000 
K           0.167236000000000    0.334472000000000    0.855388000000000 
K           0.167236000000000    0.832764000000000    0.855388000000000 
K           0.173644000000000    0.347288000000000    0.181337000000000 
K           0.173644000000000    0.826356000000000    0.181337000000000 
K           0.182728000000000    0.365457000000000    0.505596000000000 
K           0.182728000000000    0.817272000000000    0.505596000000000 
K           0.193127000000000    0.096564000000000    0.451003000000000 
K           0.284221000000000    0.142110000000000    0.884109000000000 
K           0.466062000000000    0.233031000000000    0.647220000000000 
K           0.472303000000000    0.527697000000000    0.666734000000000 
K           0.472303000000000    0.944606000000000    0.666734000000000 
K           0.496865000000000    0.503135000000000    0.210349000000000 
K           0.496865000000000    0.993729000000000    0.210349000000000 
K           0.634543000000000    0.817272000000000    0.505596000000000 
K           0.652712000000000    0.826356000000000    0.181337000000000 
K           0.665528000000000    0.832764000000000    0.855388000000000 
K           0.766969000000000    0.233031000000000    0.647220000000000 
K           0.766969000000000    0.533938000000000    0.647220000000000 
K           0.857890000000000    0.142110000000000    0.884109000000000 
K           0.857890000000000    0.715779000000000    0.884109000000000 
K           0.903436000000000    0.096564000000000    0.451003000000000 
K           0.903436000000000    0.806873000000000    0.451003000000000 
%ENDBLOCK POSITIONS_FRAC
