# Cell file generated by matador (Matthew Evans 2016)

%BLOCK LATTICE_CART
8.03148 0.0 0.0
0.0 8.03148 0.0
0.0 0.0 7.29684
%ENDBLOCK LATTICE_CART

%BLOCK POSITIONS_FRAC
P           0.000000000000000    0.000000000000000    0.329337000000000 
P           0.000000000000000    0.000000000000000    0.500000000000000 
P           0.000000000000000    0.000000000000000    0.670663000000000 
P           0.000000000000000    0.500000000000000    0.050216000000000 
P           0.000000000000000    0.500000000000000    0.550216000000000 
P           0.500000000000000    0.000000000000000    0.449784000000000 
P           0.500000000000000    0.000000000000000    0.949784000000000 
P           0.500000000000000    0.500000000000000    0.000000000000000 
P           0.500000000000000    0.500000000000000    0.170663000000000 
P           0.500000000000000    0.500000000000000    0.829337000000000 
K           0.000000000000000    0.000000000000000    0.000000000000000 
K           0.500000000000000    0.500000000000000    0.500000000000000 
%ENDBLOCK POSITIONS_FRAC
