# Cell file generated by matador (Matthew Evans 2016)

%BLOCK LATTICE_CART
6.19267 0.0 0.0
0.0 3.33653 0.0
0.0 0.0 4.14482
%ENDBLOCK LATTICE_CART

%BLOCK POSITIONS_FRAC
P           0.000000000000000    0.000000000000000    0.500000000000000 
P           0.500000000000000    0.000000000000000    0.500000000000000 
K           0.500000000000000    0.500000000000000    0.000000000000000 
%ENDBLOCK POSITIONS_FRAC
