# Cell file generated by matador (Matthew Evans 2016)

%BLOCK LATTICE_CART
9.11746 -0.0 0.0
-4.55873 7.89596 0.0
0.0 0.0 6.39425
%ENDBLOCK LATTICE_CART

%BLOCK POSITIONS_FRAC
P           0.161681000000000    0.771265000000000    0.000000000000000 
P           0.228735000000000    0.390416000000000    0.000000000000000 
P           0.333333000000000    0.666667000000000    0.500000000000000 
P           0.423569000000000    0.256593000000000    0.000000000000000 
P           0.556876000000000    0.145351000000000    0.000000000000000 
P           0.588475000000000    0.443124000000000    0.000000000000000 
P           0.609584000000000    0.838319000000000    0.000000000000000 
P           0.666667000000000    0.333333000000000    0.000000000000000 
P           0.666667000000000    0.333333000000000    0.500000000000000 
P           0.743407000000000    0.166976000000000    0.000000000000000 
P           0.833024000000000    0.576431000000000    0.000000000000000 
P           0.854649000000000    0.411525000000000    0.000000000000000 
K           0.167054000000000    0.095009000000000    0.000000000000000 
K           0.333333000000000    0.666667000000000    0.000000000000000 
K           0.904991000000000    0.072045000000000    0.000000000000000 
K           0.927955000000000    0.832946000000000    0.000000000000000 
%ENDBLOCK POSITIONS_FRAC
