# Cell file generated by matador (Matthew Evans 2016)

%BLOCK LATTICE_CART
7.42159 0.0 0.0
0.0 7.42159 0.0
0.0 0.0 7.71319
%ENDBLOCK LATTICE_CART

%BLOCK POSITIONS_FRAC
P           0.000000000000000    0.000000000000000    0.612251000000000 
P           0.000000000000000    0.500000000000000    0.159953000000000 
P           0.500000000000000    0.000000000000000    0.159953000000000 
P           0.500000000000000    0.500000000000000    0.600609000000000 
P           0.500000000000000    0.500000000000000    0.899524000000000 
K           0.000000000000000    0.500000000000000    0.491735000000000 
K           0.131057000000000    0.586182000000000    0.715159000000000 
K           0.413818000000000    0.131057000000000    0.715159000000000 
K           0.500000000000000    0.000000000000000    0.491735000000000 
K           0.500000000000000    0.500000000000000    0.271826000000000 
K           0.586182000000000    0.868943000000000    0.715159000000000 
K           0.868943000000000    0.413818000000000    0.715159000000000 
%ENDBLOCK POSITIONS_FRAC
