# Cell file generated by matador (Matthew Evans 2016)

%BLOCK LATTICE_CART
7.63576 0.0 0.0
0.0 7.63576 0.0
0.0 0.0 9.44279
%ENDBLOCK LATTICE_CART

%BLOCK POSITIONS_FRAC
P           0.000000000000000    0.000000000000000    0.000000000000000 
P           0.500000000000000    0.500000000000000    0.500000000000000 
K           0.000000000000000    0.000000000000000    0.381289000000000 
K           0.000000000000000    0.000000000000000    0.618711000000000 
K           0.123635000000000    0.681334000000000    0.953827000000000 
K           0.181334000000000    0.376365000000000    0.453827000000000 
K           0.318666000000000    0.876365000000000    0.046173000000000 
K           0.376365000000000    0.181334000000000    0.546173000000000 
K           0.500000000000000    0.500000000000000    0.118711000000000 
K           0.500000000000000    0.500000000000000    0.881289000000000 
K           0.623635000000000    0.818666000000000    0.546173000000000 
K           0.681334000000000    0.123635000000000    0.046173000000000 
K           0.818666000000000    0.623635000000000    0.453827000000000 
K           0.876365000000000    0.318666000000000    0.953827000000000 
%ENDBLOCK POSITIONS_FRAC
