# Cell file generated by matador (Matthew Evans 2016)

%BLOCK LATTICE_CART
6.35833 0.0 0.0
-3.17917 5.50648 0.0
0.0 0.0 6.36866
%ENDBLOCK LATTICE_CART

%BLOCK POSITIONS_FRAC
P           0.000001000000000    0.000001000000000    0.083311000000000 
P           0.000001000000000    0.000001000000000    0.435148000000000 
P           0.000001000000000    0.500001000000000    0.369540000000000 
P           0.500001000000000    0.000001000000000    0.369540000000000 
P           0.500001000000000    0.500001000000000    0.369540000000000 
K           0.333334000000000    0.666668000000000    0.964293000000000 
K           0.666668000000000    0.333334000000000    0.964293000000000 
%ENDBLOCK POSITIONS_FRAC
