# Cell file generated by matador (Matthew Evans 2016)

%BLOCK LATTICE_CART
6.80953 0.0 0.0
-3.40476 5.89722 0.0
0.0 0.0 6.99879
%ENDBLOCK LATTICE_CART

%BLOCK POSITIONS_FRAC
P           0.000000000000000    0.500000000000000    0.202635000000000 
P           0.000000000000000    0.500000000000000    0.702635000000000 
P           0.333333000000000    0.666667000000000    0.483848000000000 
P           0.333333000000000    0.666667000000000    0.983848000000000 
P           0.500000000000000    0.000000000000000    0.202635000000000 
P           0.500000000000000    0.000000000000000    0.702635000000000 
P           0.500000000000000    0.500000000000000    0.202635000000000 
P           0.500000000000000    0.500000000000000    0.702635000000000 
P           0.666667000000000    0.333333000000000    0.483848000000000 
P           0.666667000000000    0.333333000000000    0.983848000000000 
K           0.000000000000000    0.000000000000000    0.009895000000000 
K           0.000000000000000    0.000000000000000    0.509895000000000 
%ENDBLOCK POSITIONS_FRAC
