# Cell file generated by matador (Matthew Evans 2016)

%BLOCK LATTICE_CART
8.2316 0.0 0.0
-4.1158 7.12878 0.0
0.0 0.0 7.92294
%ENDBLOCK LATTICE_CART

%BLOCK POSITIONS_FRAC
P          -0.000000000000000   -0.000000000000000    0.573329000000000 
P           0.333333000000000    0.666667000000000    0.239996000000000 
P           0.666667000000000    0.333333000000000    0.906662000000000 
K           0.171418000000000    0.342837000000000    0.411644000000000 
K           0.171418000000000    0.828582000000000    0.411644000000000 
K           0.323830000000000    0.161915000000000    0.744977000000000 
K           0.504752000000000    0.009503000000000    0.078311000000000 
K           0.504752000000000    0.495248000000000    0.078311000000000 
K           0.657163000000000    0.828582000000000    0.411644000000000 
K           0.838085000000000    0.161915000000000    0.744977000000000 
K           0.838085000000000    0.676170000000000    0.744977000000000 
K           0.990497000000000    0.495248000000000    0.078311000000000 
%ENDBLOCK POSITIONS_FRAC
