# Cell file generated by matador (Matthew Evans 2016)

%BLOCK LATTICE_CART
6.52598 0.0 0.0
2.41996 8.66781 0.0
1.56981 3.25172 8.55465
%ENDBLOCK LATTICE_CART

%BLOCK POSITIONS_FRAC
P           0.000000000000000    0.500000000000000    0.000000000000000 
P           0.000000000000000    0.500000000000000    0.500000000000000 
P           0.500000000000000    0.000000000000000    0.000000000000000 
P           0.500000000000000    0.000000000000000    0.500000000000000 
P           0.500000000000000    0.500000000000000    0.000000000000000 
P           0.500000000000000    0.500000000000000    0.500000000000000 
K           0.000000000000000    0.000000000000000    0.000000000000000 
K           0.104293000000000    0.300557000000000    0.698469000000000 
K           0.167820000000000    0.956145000000000    0.240448000000000 
K           0.184135000000000    0.795568000000000    0.490158000000000 
K           0.815865000000000    0.204432000000000    0.509842000000000 
K           0.832180000000000    0.043855000000000    0.759552000000000 
K           0.895707000000000    0.699443000000000    0.301531000000000 
%ENDBLOCK POSITIONS_FRAC
