# Cell file generated by matador (Matthew Evans 2016)

%BLOCK LATTICE_CART
6.55231 0.0 0.0
-3.27616 5.67447 0.0
0.0 0.0 5.72973
%ENDBLOCK LATTICE_CART

%BLOCK POSITIONS_FRAC
P           0.000000000000000    0.500000000000000    0.500000000000000 
P           0.333333000000000    0.666667000000000    0.000000000000000 
P           0.500000000000000    0.000000000000000    0.500000000000000 
P           0.500000000000000    0.500000000000000    0.500000000000000 
P           0.666667000000000    0.333333000000000    0.000000000000000 
K           0.000000000000000    0.000000000000000    0.000000000000000 
K           0.000000000000000    0.000000000000000    0.500000000000000 
%ENDBLOCK POSITIONS_FRAC
