# Cell file generated by matador (Matthew Evans 2016)

%BLOCK LATTICE_CART
9.95021 0.0 0.0
-4.9751 8.61713 0.0
0.0 0.0 5.35997
%ENDBLOCK LATTICE_CART

%BLOCK POSITIONS_FRAC
P           0.000000000000000    0.500000000000000    0.500000000000000 
P           0.500000000000000    0.000000000000000    0.500000000000000 
P           0.500000000000000    0.500000000000000    0.500000000000000 
K           0.000000000000000    0.500000000000000    0.000000000000000 
K           0.228719000000000    0.457438000000000    0.684685000000000 
K           0.228719000000000    0.771281000000000    0.684685000000000 
K           0.457438000000000    0.228719000000000    0.315315000000000 
K           0.500000000000000    0.000000000000000    0.000000000000000 
K           0.500000000000000    0.500000000000000    0.000000000000000 
K           0.542562000000000    0.771281000000000    0.684685000000000 
K           0.771281000000000    0.228719000000000    0.315315000000000 
K           0.771281000000000    0.542562000000000    0.315315000000000 
%ENDBLOCK POSITIONS_FRAC
