# Cell file generated by matador (Matthew Evans 2016)

%BLOCK LATTICE_CART
6.50328 0.0 0.0
0.0 6.50328 0.0
0.0 0.0 6.44836
%ENDBLOCK LATTICE_CART

%BLOCK POSITIONS_FRAC
P           0.053120000000000    0.288120000000000    0.500000000000000 
P           0.211880000000000    0.446880000000000    0.500000000000000 
P           0.288120000000000    0.946880000000000    0.500000000000000 
P           0.446880000000000    0.788120000000000    0.500000000000000 
P           0.553120000000000    0.211880000000000    0.500000000000000 
P           0.711880000000000    0.053120000000000    0.500000000000000 
P           0.788120000000000    0.553120000000000    0.500000000000000 
P           0.946880000000000    0.711880000000000    0.500000000000000 
K           0.000000000000000    0.000000000000000    0.000000000000000 
K           0.500000000000000    0.500000000000000    0.000000000000000 
%ENDBLOCK POSITIONS_FRAC
