# Cell file generated by matador (Matthew Evans 2016)

%BLOCK LATTICE_CART
6.3757 0.0 0.0
0.0 6.3757 0.0
0.0 0.0 9.46325
%ENDBLOCK LATTICE_CART

%BLOCK POSITIONS_FRAC
P           0.000000000000000    0.000000000000000    0.211343000000000 
P           0.000000000000000    0.000000000000000    0.788657000000000 
P           0.000000000000000    0.500000000000000    0.104334000000000 
P           0.000000000000000    0.500000000000000    0.250000000000000 
P           0.000000000000000    0.500000000000000    0.395666000000000 
P           0.500000000000000    0.000000000000000    0.604334000000000 
P           0.500000000000000    0.000000000000000    0.750000000000000 
P           0.500000000000000    0.000000000000000    0.895666000000000 
P           0.500000000000000    0.500000000000000    0.288657000000000 
P           0.500000000000000    0.500000000000000    0.711343000000000 
K           0.000000000000000    0.000000000000000    0.000000000000000 
K           0.000000000000000    0.000000000000000    0.500000000000000 
K           0.000000000000000    0.500000000000000    0.750000000000000 
K           0.500000000000000    0.000000000000000    0.250000000000000 
K           0.500000000000000    0.500000000000000    0.000000000000000 
K           0.500000000000000    0.500000000000000    0.500000000000000 
%ENDBLOCK POSITIONS_FRAC
