# Cell file generated by matador (Matthew Evans 2016)

%BLOCK LATTICE_CART
4.55145 0.0 0.0
-2.27573 3.94167 0.0
0.0 0.0 7.43482
%ENDBLOCK LATTICE_CART

%BLOCK POSITIONS_FRAC
P           0.489779000000000    0.178011000000000    0.728650000000000 
P           0.688232000000000    0.510221000000000    0.728650000000000 
P           0.821989000000000    0.311768000000000    0.728650000000000 
K           0.000000000000000    0.000000000000000    0.296339000000000 
K           0.333333000000000    0.666667000000000    0.174511000000000 
%ENDBLOCK POSITIONS_FRAC
