# Cell file generated by matador (Matthew Evans 2016)

%BLOCK LATTICE_CART
7.69 0.0 0.0
-3.845 6.65974 0.0
0.0 0.0 5.61338
%ENDBLOCK LATTICE_CART

%BLOCK POSITIONS_FRAC
P           0.000000000000000    0.000000000000000    0.000000000000000 
P           0.000000000000000    0.000000000000000    0.283758000000000 
P           0.000000000000000    0.000000000000000    0.716242000000000 
P           0.333333000000000    0.666667000000000    0.000000000000000 
P           0.666667000000000    0.333333000000000    0.000000000000000 
K           0.000000000000000    0.738030000000000    0.201911000000000 
K           0.000000000000000    0.738030000000000    0.798089000000000 
K           0.261970000000000    0.261970000000000    0.201911000000000 
K           0.261970000000000    0.261970000000000    0.798089000000000 
K           0.738030000000000    0.000000000000000    0.201911000000000 
K           0.738030000000000    0.000000000000000    0.798089000000000 
%ENDBLOCK POSITIONS_FRAC
