# Cell file generated by matador (Matthew Evans 2016)

%BLOCK LATTICE_CART
5.81898 0.0 0.0
0.0 6.91827 0.0
0.0 0.0 8.95735
%ENDBLOCK LATTICE_CART

%BLOCK POSITIONS_FRAC
P           0.035498000000000    0.502949000000000    0.424260000000000 
P           0.098712000000000    0.246184000000000    0.052336000000000 
P           0.401288000000000    0.746184000000000    0.552336000000000 
P           0.464502000000000    0.002949000000000    0.924260000000000 
P           0.535498000000000    0.997051000000000    0.424260000000000 
P           0.598712000000000    0.253816000000000    0.052336000000000 
P           0.901288000000000    0.753816000000000    0.552336000000000 
P           0.964502000000000    0.497051000000000    0.924260000000000 
K           0.116827000000000    0.031772000000000    0.669107000000000 
K           0.383173000000000    0.531772000000000    0.169107000000000 
K           0.616827000000000    0.468228000000000    0.669107000000000 
K           0.883173000000000    0.968228000000000    0.169107000000000 
%ENDBLOCK POSITIONS_FRAC
