# Cell file generated by matador (Matthew Evans 2016)

%BLOCK LATTICE_CART
9.88268 0.0 0.0
0.0 9.88268 0.0
0.0 0.0 11.5309
%ENDBLOCK LATTICE_CART

%BLOCK POSITIONS_FRAC
P           0.000000000000000    0.000000000000000    0.174636000000000 
P           0.000000000000000    0.000000000000000    0.825364000000000 
P           0.000000000000000    0.500000000000000    0.000000000000000 
P           0.000000000000000    0.500000000000000    0.500000000000000 
P           0.500000000000000    0.000000000000000    0.000000000000000 
P           0.500000000000000    0.000000000000000    0.500000000000000 
P           0.500000000000000    0.500000000000000    0.325364000000000 
P           0.500000000000000    0.500000000000000    0.674636000000000 
K           0.000000000000000    0.000000000000000    0.000000000000000 
K           0.000000000000000    0.000000000000000    0.500000000000000 
K           0.000000000000000    0.500000000000000    0.250000000000000 
K           0.000000000000000    0.500000000000000    0.750000000000000 
K           0.044716000000000    0.698826000000000    0.000000000000000 
K           0.161375000000000    0.248178000000000    0.500000000000000 
K           0.198826000000000    0.544716000000000    0.500000000000000 
K           0.248178000000000    0.838625000000000    0.500000000000000 
K           0.251822000000000    0.338625000000000    0.000000000000000 
K           0.301174000000000    0.044716000000000    0.000000000000000 
K           0.338625000000000    0.748178000000000    0.000000000000000 
K           0.455284000000000    0.198826000000000    0.500000000000000 
K           0.500000000000000    0.000000000000000    0.250000000000000 
K           0.500000000000000    0.000000000000000    0.750000000000000 
K           0.500000000000000    0.500000000000000    0.000000000000000 
K           0.500000000000000    0.500000000000000    0.500000000000000 
K           0.544716000000000    0.801174000000000    0.500000000000000 
K           0.661375000000000    0.251822000000000    0.000000000000000 
K           0.698826000000000    0.955284000000000    0.000000000000000 
K           0.748178000000000    0.661375000000000    0.000000000000000 
K           0.751822000000000    0.161375000000000    0.500000000000000 
K           0.801174000000000    0.455284000000000    0.500000000000000 
K           0.838625000000000    0.751822000000000    0.500000000000000 
K           0.955284000000000    0.301174000000000    0.000000000000000 
%ENDBLOCK POSITIONS_FRAC
