# Cell file generated by matador (Matthew Evans 2016)

%BLOCK LATTICE_CART
6.37481 0.0 0.0
-3.18741 5.52075 0.0
0.0 0.0 11.4565
%ENDBLOCK LATTICE_CART

%BLOCK POSITIONS_FRAC
P          -0.000000000000000    0.000000000000000    0.500000000000000 
P          -0.000000000000000    0.380911000000000    0.500000000000000 
P          -0.000000000000000    0.619089000000000    0.500000000000000 
P           0.380911000000000    0.000000000000000    0.500000000000000 
P           0.380911000000000    0.380911000000000    0.500000000000000 
P           0.619089000000000    0.000000000000000    0.500000000000000 
P           0.619089000000000    0.619089000000000    0.500000000000000 
K           0.333333000000000    0.666667000000000    0.166434000000000 
K           0.333333000000000    0.666667000000000    0.410829000000000 
K           0.666666000000000    0.333334000000000    0.589171000000000 
K           0.666666000000000    0.333334000000000    0.833566000000000 
%ENDBLOCK POSITIONS_FRAC
