# Cell file generated by matador (Matthew Evans 2016)

%BLOCK LATTICE_CART
6.44411 0.0 0.0
-3.22205 5.58076 0.0
0.0 0.0 10.1495
%ENDBLOCK LATTICE_CART

%BLOCK POSITIONS_FRAC
P           0.000000000000000    0.000000000000000    0.354295000000000 
P           0.000000000000000    0.000000000000000    0.500000000000000 
P           0.000000000000000    0.000000000000000    0.645705000000000 
P           0.333333000000000    0.666667000000000    0.020962000000000 
P           0.333333000000000    0.666667000000000    0.166667000000000 
P           0.333333000000000    0.666667000000000    0.312371000000000 
P           0.666667000000000    0.333333000000000    0.687629000000000 
P           0.666667000000000    0.333333000000000    0.833333000000000 
P           0.666667000000000    0.333333000000000    0.979038000000000 
K           0.000000000000000    0.000000000000000    0.000000000000000 
K           0.333333000000000    0.666667000000000    0.666667000000000 
K           0.666667000000000    0.333333000000000    0.333333000000000 
%ENDBLOCK POSITIONS_FRAC
