# Cell file generated by matador (Matthew Evans 2016)

%BLOCK LATTICE_CART
5.94228 0.0 0.0
-2.97114 5.14617 0.0
0.0 0.0 4.63823
%ENDBLOCK LATTICE_CART

%BLOCK POSITIONS_FRAC
P          -0.000000000000000    0.000000000000000    0.000000000000000 
P          -0.000000000000000    0.000000000000000    0.500000000000000 
P           0.126765000000000    0.278144000000000    0.500000000000000 
P           0.151379000000000    0.873235000000000    0.500000000000000 
P           0.721856000000000    0.848621000000000    0.500000000000000 
K           0.333333000000000    0.666667000000000    0.500000000000000 
K           0.666666000000000    0.333334000000000    0.000000000000000 
%ENDBLOCK POSITIONS_FRAC
