# Cell file generated by matador (Matthew Evans 2016)

%BLOCK LATTICE_CART
6.60186 0.0 0.0
0.0 6.60186 0.0
0.0 0.0 7.5171
%ENDBLOCK LATTICE_CART

%BLOCK POSITIONS_FRAC
P           0.000000000000000    0.000000000000000    0.112848000000000 
P           0.500000000000000    0.500000000000000    0.054996000000000 
P           0.500000000000000    0.500000000000000    0.232575000000000 
P           0.500000000000000    0.500000000000000    0.515536000000000 
P           0.500000000000000    0.500000000000000    0.810383000000000 
K           0.000000000000000    0.223723000000000    0.800980000000000 
K           0.000000000000000    0.500000000000000    0.466632000000000 
K           0.000000000000000    0.776277000000000    0.800980000000000 
K           0.223723000000000    0.000000000000000    0.800980000000000 
K           0.500000000000000    0.000000000000000    0.466632000000000 
K           0.776277000000000    0.000000000000000    0.800980000000000 
%ENDBLOCK POSITIONS_FRAC
