# Cell file generated by matador (Matthew Evans 2016)

%BLOCK LATTICE_CART
7.17975 0.0 0.0
0.0 7.17975 0.0
0.0 0.0 7.18961
%ENDBLOCK LATTICE_CART

%BLOCK POSITIONS_FRAC
P           0.000000000000000    0.500000000000000    0.408314000000000 
P           0.026462000000000    0.350790000000000    0.247167000000000 
P           0.086443000000000    0.744138000000000    0.621107000000000 
P           0.255862000000000    0.086443000000000    0.121107000000000 
P           0.350790000000000    0.973538000000000    0.747167000000000 
P           0.500000000000000    0.000000000000000    0.908314000000000 
P           0.649210000000000    0.026462000000000    0.747167000000000 
P           0.744138000000000    0.913557000000000    0.121107000000000 
P           0.913557000000000    0.255862000000000    0.621107000000000 
P           0.973538000000000    0.649210000000000    0.247167000000000 
K           0.241066000000000    0.286828000000000    0.779938000000000 
K           0.286828000000000    0.758934000000000    0.279938000000000 
K           0.713172000000000    0.241066000000000    0.279938000000000 
K           0.758934000000000    0.713172000000000    0.779938000000000 
%ENDBLOCK POSITIONS_FRAC
