# Cell file generated by matador (Matthew Evans 2016)

%BLOCK LATTICE_CART
9.07862 0.0 0.0
-4.53931 7.86231 0.0
0.0 0.0 4.64348
%ENDBLOCK LATTICE_CART

%BLOCK POSITIONS_FRAC
P           0.333333000000000    0.666667000000000    0.000000000000000 
P           0.333333000000000    0.666667000000000    0.500000000000000 
P           0.666666000000000    0.333334000000000    0.000000000000000 
P           0.666666000000000    0.333334000000000    0.500000000000000 
K          -0.000000000000000    0.000000000000000    0.000000000000000 
K          -0.000000000000000    0.398117000000000    0.879087000000000 
K          -0.000000000000000    0.601883000000000    0.120913000000000 
K           0.398117000000000    0.000000000000000    0.879087000000000 
K           0.398117000000000    0.398117000000000    0.120913000000000 
K           0.601883000000000    0.000000000000000    0.120913000000000 
K           0.601883000000000    0.601883000000000    0.879087000000000 
%ENDBLOCK POSITIONS_FRAC
