# Cell file generated by matador (Matthew Evans 2016)

%BLOCK LATTICE_CART
6.52044 0.0 0.0
-3.26022 5.64687 0.0
0.0 0.0 11.4577
%ENDBLOCK LATTICE_CART

%BLOCK POSITIONS_FRAC
P          -0.000000000000000   -0.000000000000000    0.000000000000000 
P          -0.000000000000000   -0.000000000000000    0.143674000000000 
P          -0.000000000000000   -0.000000000000000    0.856326000000000 
P          -0.000000000000000    0.169022000000000    0.000000000000000 
P          -0.000000000000000    0.830978000000000    0.000000000000000 
P           0.169022000000000   -0.000000000000000    0.000000000000000 
P           0.169022000000000    0.169022000000000    0.000000000000000 
P           0.830978000000000   -0.000000000000000    0.000000000000000 
P           0.830978000000000    0.830978000000000    0.000000000000000 
K          -0.000000000000000    0.500000000000000    0.500000000000000 
K           0.500000000000000   -0.000000000000000    0.500000000000000 
K           0.500000000000000    0.500000000000000    0.500000000000000 
%ENDBLOCK POSITIONS_FRAC
