# Cell file generated by matador (Matthew Evans 2016)

%BLOCK LATTICE_CART
6.32915 0.0 0.0
0.0 9.34617 0.0
-0.718866 0.0 8.05532
%ENDBLOCK LATTICE_CART

%BLOCK POSITIONS_FRAC
P           0.100088000000000    0.500000000000000    0.755510000000000 
P           0.423375000000000   -0.000000000000000    0.868570000000000 
P           0.444271000000000    0.263619000000000    0.494910000000000 
P           0.444271000000000    0.736381000000000    0.494910000000000 
P           0.483744000000000   -0.000000000000000    0.233981000000000 
P           0.600088000000000   -0.000000000000000    0.755510000000000 
P           0.923375000000000    0.500000000000000    0.868570000000000 
P           0.944271000000000    0.236381000000000    0.494910000000000 
P           0.944271000000000    0.763619000000000    0.494910000000000 
P           0.983744000000000    0.500000000000000    0.233981000000000 
K           0.141649000000000    0.159381000000000    0.960731000000000 
K           0.141649000000000    0.840619000000000    0.960731000000000 
K           0.448807000000000    0.500000000000000    0.132391000000000 
K           0.641649000000000    0.340619000000000    0.960731000000000 
K           0.641649000000000    0.659381000000000    0.960731000000000 
K           0.948807000000000   -0.000000000000000    0.132391000000000 
%ENDBLOCK POSITIONS_FRAC
