# Cell file generated by matador (Matthew Evans 2016)

%BLOCK LATTICE_CART
7.33518 0.0 0.0
-3.66759 6.35245 0.0
0.0 0.0 7.47546
%ENDBLOCK LATTICE_CART

%BLOCK POSITIONS_FRAC
P           0.000000000000000    0.000000000000000    0.916085000000000 
P           0.400379000000000    0.059537000000000    0.668116000000000 
P           0.659159000000000    0.599621000000000    0.668116000000000 
P           0.666667000000000    0.333333000000000    0.011801000000000 
P           0.940463000000000    0.340841000000000    0.668116000000000 
K           0.000000000000000    0.000000000000000    0.472757000000000 
K           0.280612000000000    0.119352000000000    0.235724000000000 
K           0.666667000000000    0.333333000000000    0.447634000000000 
K           0.838739000000000    0.719388000000000    0.235724000000000 
K           0.880648000000000    0.161261000000000    0.235724000000000 
%ENDBLOCK POSITIONS_FRAC
