# Cell file generated by matador (Matthew Evans 2016)

%BLOCK LATTICE_CART
6.09977 0.0 0.0
0.0 4.92782 0.0
0.0 0.0 10.0711
%ENDBLOCK LATTICE_CART

%BLOCK POSITIONS_FRAC
P           0.250000000000000    0.000000000000000    0.432221000000000 
P           0.750000000000000    0.000000000000000    0.567779000000000 
K           0.004089000000000    0.000000000000000    0.192059000000000 
K           0.250000000000000    0.500000000000000    0.520287000000000 
K           0.495911000000000    0.000000000000000    0.192059000000000 
K           0.504089000000000    0.000000000000000    0.807941000000000 
K           0.750000000000000    0.500000000000000    0.479713000000000 
K           0.995911000000000    0.000000000000000    0.807941000000000 
%ENDBLOCK POSITIONS_FRAC
