# Cell file generated by matador (Matthew Evans 2016)

%BLOCK LATTICE_CART
12.3123 0.0 0.0
0.601597 8.87962 0.0
2.36502 1.31369 4.12917
%ENDBLOCK LATTICE_CART

%BLOCK POSITIONS_FRAC
P           0.186640000000000    0.157642000000000    0.185975000000000 
P           0.345243000000000    0.666486000000000    0.569702000000000 
P           0.500000000000000    0.500000000000000    0.000000000000000 
P           0.500000000000000    0.500000000000000    0.500000000000000 
P           0.654757000000000    0.333514000000000    0.430298000000000 
P           0.813360000000000    0.842358000000000    0.814025000000000 
K           0.000000000000000    0.500000000000000    0.500000000000000 
K           0.065523000000000    0.607311000000000    0.814855000000000 
K           0.072995000000000    0.883787000000000    0.078307000000000 
K           0.500000000000000    0.000000000000000    0.000000000000000 
K           0.500000000000000    0.000000000000000    0.500000000000000 
K           0.927005000000000    0.116213000000000    0.921693000000000 
K           0.934477000000000    0.392689000000000    0.185145000000000 
%ENDBLOCK POSITIONS_FRAC
