# Cell file generated by matador (Matthew Evans 2016)

%BLOCK LATTICE_CART
6.56943 -0.0 0.0
-3.28472 5.6893 0.0
0.0 0.0 6.22458
%ENDBLOCK LATTICE_CART

%BLOCK POSITIONS_FRAC
P           0.000000000000000    0.000000000000000    0.500000000000000 
P           0.350424000000000    0.144652000000000    0.000000000000000 
P           0.522490000000000    0.188664000000000    0.000000000000000 
P           0.666174000000000    0.477510000000000    0.000000000000000 
P           0.794228000000000    0.649576000000000    0.000000000000000 
P           0.811336000000000    0.333826000000000    0.000000000000000 
P           0.855348000000000    0.205772000000000    0.000000000000000 
K           0.000000000000000    0.000000000000000    0.000000000000000 
K           0.333333000000000    0.666667000000000    0.000000000000000 
%ENDBLOCK POSITIONS_FRAC
