# Cell file generated by matador (Matthew Evans 2016)

%BLOCK LATTICE_CART
6.95376 0.0 0.0
-3.47688 6.02213 0.0
0.0 0.0 6.25848
%ENDBLOCK LATTICE_CART

%BLOCK POSITIONS_FRAC
P           0.173731000000000    0.806759000000000    0.244726000000000 
P           0.193241000000000    0.366972000000000    0.911393000000000 
P           0.502108000000000    0.492016000000000    0.441439000000000 
P           0.507984000000000    0.010092000000000    0.108106000000000 
P           0.633028000000000    0.826269000000000    0.578059000000000 
P           0.989908000000000    0.497892000000000    0.774772000000000 
K           0.019146000000000    0.352405000000000    0.325559000000000 
K           0.333259000000000    0.980854000000000    0.658892000000000 
K           0.647595000000000    0.666741000000000    0.992225000000000 
%ENDBLOCK POSITIONS_FRAC
