# Cell file generated by matador (Matthew Evans 2016)

%BLOCK LATTICE_CART
7.96561 0.0 0.0
0.0 8.7971 0.0
2.80471 0.0 5.19193
%ENDBLOCK LATTICE_CART

%BLOCK POSITIONS_FRAC
P           0.132453000000000    0.474473000000000    0.380809000000000 
P           0.256338000000000    0.258529000000000    0.548642000000000 
P           0.401486000000000    0.660249000000000    0.541348000000000 
P           0.598514000000000    0.660249000000000    0.458652000000000 
P           0.743662000000000    0.258529000000000    0.451358000000000 
P           0.867547000000000    0.474473000000000    0.619191000000000 
K          -0.000000000000000    0.865197000000000    0.000000000000000 
K           0.240066000000000    0.606106000000000    0.017170000000000 
K           0.255674000000000    0.123641000000000    0.169780000000000 
K           0.500000000000000    0.558707000000000    0.000000000000000 
K           0.500000000000000    0.887906000000000    0.500000000000000 
K           0.500000000000000    0.900089000000000    0.000000000000000 
K           0.744326000000000    0.123641000000000    0.830220000000000 
K           0.759934000000000    0.606106000000000    0.982830000000000 
%ENDBLOCK POSITIONS_FRAC
