# Cell file generated by matador (Matthew Evans 2016)

%BLOCK LATTICE_CART
8.31958 0.0 0.0
0.0 8.31958 0.0
0.0 0.0 5.42728
%ENDBLOCK LATTICE_CART

%BLOCK POSITIONS_FRAC
P           0.000000000000000    0.000000000000000    0.000000000000000 
P           0.000000000000000    0.000000000000000    0.500000000000000 
P           0.076541000000000    0.626421000000000    0.058463000000000 
P           0.126421000000000    0.423459000000000    0.558463000000000 
P           0.139657000000000    0.860343000000000    0.500000000000000 
P           0.360343000000000    0.360343000000000    0.000000000000000 
P           0.373579000000000    0.923459000000000    0.941537000000000 
P           0.423459000000000    0.126421000000000    0.441537000000000 
P           0.500000000000000    0.500000000000000    0.000000000000000 
P           0.500000000000000    0.500000000000000    0.500000000000000 
P           0.576541000000000    0.873579000000000    0.441537000000000 
P           0.626421000000000    0.076541000000000    0.941537000000000 
P           0.639657000000000    0.639657000000000    0.000000000000000 
P           0.860343000000000    0.139657000000000    0.500000000000000 
P           0.873579000000000    0.576541000000000    0.558463000000000 
P           0.923459000000000    0.373579000000000    0.058463000000000 
K           0.186705000000000    0.186705000000000    0.500000000000000 
K           0.313295000000000    0.686705000000000    0.000000000000000 
K           0.686705000000000    0.313295000000000    0.000000000000000 
K           0.813295000000000    0.813295000000000    0.500000000000000 
%ENDBLOCK POSITIONS_FRAC
