# Cell file generated by matador (Matthew Evans 2016)

%BLOCK LATTICE_CART
8.19442 0.0 0.0
0.0 7.63668 0.0
0.0 0.0 9.57932
%ENDBLOCK LATTICE_CART

%BLOCK POSITIONS_FRAC
P           0.057064000000000    0.250000000000000    0.595296000000000 
P           0.442936000000000    0.750000000000000    0.095296000000000 
P           0.557064000000000    0.250000000000000    0.904704000000000 
P           0.942936000000000    0.750000000000000    0.404704000000000 
K          -0.000000000000000   -0.000000000000000    0.500000000000000 
K          -0.000000000000000    0.500000000000000    0.500000000000000 
K           0.180431000000000    0.250000000000000    0.998352000000000 
K           0.205169000000000    0.250000000000000    0.334004000000000 
K           0.294831000000000    0.750000000000000    0.834004000000000 
K           0.319569000000000    0.750000000000000    0.498352000000000 
K           0.500000000000000   -0.000000000000000   -0.000000000000000 
K           0.500000000000000    0.500000000000000   -0.000000000000000 
K           0.680431000000000    0.250000000000000    0.501648000000000 
K           0.705169000000000    0.250000000000000    0.165996000000000 
K           0.794831000000000    0.750000000000000    0.665996000000000 
K           0.819569000000000    0.750000000000000    0.001648000000000 
%ENDBLOCK POSITIONS_FRAC
