# Cell file generated by matador (Matthew Evans 2016)

%BLOCK LATTICE_CART
4.27853 0.0 0.0
2.63872 6.46217 0.0
-1.94257 2.3825 5.56947
%ENDBLOCK LATTICE_CART

%BLOCK POSITIONS_FRAC
P           0.000000000000000    0.000000000000000    0.500000000000000 
P           0.000000000000000    0.500000000000000    0.000000000000000 
P           0.039669000000000    0.078856000000000    0.610960000000000 
P           0.422952000000000    0.088177000000000    0.379965000000000 
P           0.500000000000000    0.500000000000000    0.500000000000000 
P           0.577048000000000    0.911823000000000    0.620035000000000 
P           0.960331000000000    0.921144000000000    0.389040000000000 
K           0.000000000000000    0.500000000000000    0.500000000000000 
%ENDBLOCK POSITIONS_FRAC
