# Cell file generated by matador (Matthew Evans 2016)

%BLOCK LATTICE_CART
8.16313 0.0 0.0
-4.08157 7.06948 0.0
0.0 0.0 11.0896
%ENDBLOCK LATTICE_CART

%BLOCK POSITIONS_FRAC
P           0.000000000000000    0.000000000000000    0.000000000000000 
P           0.000000000000000    0.000000000000000    0.500000000000000 
P           0.333333000000000    0.666667000000000    0.000000000000000 
P           0.333333000000000    0.666667000000000    0.500000000000000 
K           0.002383000000000    0.420768000000000    0.750000000000000 
K           0.002383000000000    0.581615000000000    0.250000000000000 
K           0.226976000000000    0.003419000000000    0.250000000000000 
K           0.226976000000000    0.223557000000000    0.750000000000000 
K           0.418385000000000    0.420768000000000    0.250000000000000 
K           0.418385000000000    0.997617000000000    0.750000000000000 
K           0.579232000000000    0.581615000000000    0.750000000000000 
K           0.579232000000000    0.997617000000000    0.250000000000000 
K           0.776443000000000    0.003419000000000    0.750000000000000 
K           0.776443000000000    0.773024000000000    0.250000000000000 
K           0.996581000000000    0.223557000000000    0.250000000000000 
K           0.996581000000000    0.773024000000000    0.750000000000000 
%ENDBLOCK POSITIONS_FRAC
