# Cell file generated by matador (Matthew Evans 2016)

%BLOCK LATTICE_CART
4.74549 0.0 0.0
0.0 8.53968 0.0
-1.9287 0.0 9.40176
%ENDBLOCK LATTICE_CART

%BLOCK POSITIONS_FRAC
P           0.327355000000000    0.046949000000000    0.904690000000000 
P           0.327355000000000    0.453051000000000    0.404690000000000 
P           0.427985000000000    0.624624000000000    0.166966000000000 
P           0.427985000000000    0.875376000000000    0.666966000000000 
P           0.500000000000000    0.000000000000000    0.000000000000000 
P           0.500000000000000    0.500000000000000    0.500000000000000 
P           0.572015000000000    0.124624000000000    0.333034000000000 
P           0.572015000000000    0.375376000000000    0.833034000000000 
P           0.672645000000000    0.546949000000000    0.595310000000000 
P           0.672645000000000    0.953051000000000    0.095310000000000 
K           0.000000000000000    0.000000000000000    0.000000000000000 
K           0.000000000000000    0.000000000000000    0.500000000000000 
K           0.000000000000000    0.500000000000000    0.000000000000000 
K           0.000000000000000    0.500000000000000    0.500000000000000 
K           0.500000000000000    0.000000000000000    0.500000000000000 
K           0.500000000000000    0.500000000000000    0.000000000000000 
%ENDBLOCK POSITIONS_FRAC
