# Cell file generated by matador (Matthew Evans 2016)

%BLOCK LATTICE_CART
5.88362 0.0 0.0
0.0 5.88362 0.0
0.0 0.0 5.88362
%ENDBLOCK LATTICE_CART

%BLOCK POSITIONS_FRAC
P           0.500000000000000    0.500000000000000    0.500000000000000 
K           0.000000000000000    0.000000000000000    0.000000000000000 
K           0.203262000000000    0.203262000000000    0.203262000000000 
K           0.203262000000000    0.796738000000000    0.796738000000000 
K           0.796738000000000    0.203262000000000    0.796738000000000 
K           0.796738000000000    0.796738000000000    0.203262000000000 
%ENDBLOCK POSITIONS_FRAC
