# Cell file generated by matador (Matthew Evans 2016)

%BLOCK LATTICE_CART
8.07773 0.0 0.0
0.0 8.07773 0.0
0.0 0.0 8.07773
%ENDBLOCK LATTICE_CART

%BLOCK POSITIONS_FRAC
P           0.000000000000000    0.000000000000000    0.252406000000000 
P           0.000000000000000    0.000000000000000    0.747594000000000 
P           0.000000000000000    0.252406000000000    0.000000000000000 
P           0.000000000000000    0.747594000000000    0.000000000000000 
P           0.195744000000000    0.195744000000000    0.195744000000000 
P           0.195744000000000    0.804256000000000    0.804256000000000 
P           0.252406000000000    0.000000000000000    0.000000000000000 
P           0.347042000000000    0.347042000000000    0.652958000000000 
P           0.347042000000000    0.652958000000000    0.347042000000000 
P           0.652958000000000    0.347042000000000    0.347042000000000 
P           0.652958000000000    0.652958000000000    0.652958000000000 
P           0.747594000000000    0.000000000000000    0.000000000000000 
P           0.804256000000000    0.195744000000000    0.804256000000000 
P           0.804256000000000    0.804256000000000    0.195744000000000 
K           0.000000000000000    0.000000000000000    0.500000000000000 
K           0.000000000000000    0.500000000000000    0.000000000000000 
K           0.000000000000000    0.500000000000000    0.500000000000000 
K           0.500000000000000    0.000000000000000    0.000000000000000 
K           0.500000000000000    0.000000000000000    0.500000000000000 
K           0.500000000000000    0.500000000000000    0.000000000000000 
%ENDBLOCK POSITIONS_FRAC
