# Cell file generated by matador (Matthew Evans 2016)

%BLOCK LATTICE_CART
9.15832 0.0 0.0
0.0 8.45914 0.0
2.2367 0.0 9.01708
%ENDBLOCK LATTICE_CART

%BLOCK POSITIONS_FRAC
P           0.000000000000000    0.253400000000000    0.000000000000000 
P           0.000000000000000    0.408643000000000    0.000000000000000 
P           0.076712000000000    0.864041000000000    0.125586000000000 
P           0.116769000000000    0.656487000000000    0.667713000000000 
P           0.198925000000000    0.395639000000000    0.761162000000000 
P           0.211180000000000    0.050390000000000    0.861890000000000 
P           0.354258000000000    0.463033000000000    0.288623000000000 
P           0.500000000000000    0.391357000000000    0.500000000000000 
P           0.500000000000000    0.674319000000000    0.500000000000000 
P           0.645742000000000    0.463033000000000    0.711377000000000 
P           0.788820000000000    0.050390000000000    0.138110000000000 
P           0.801075000000000    0.395639000000000    0.238838000000000 
P           0.883231000000000    0.656487000000000    0.332287000000000 
P           0.923288000000000    0.864041000000000    0.874414000000000 
K           0.000000000000000    0.645074000000000    0.000000000000000 
K           0.298695000000000    0.206750000000000    0.478027000000000 
K           0.500000000000000    0.928418000000000    0.500000000000000 
K           0.701305000000000    0.206750000000000    0.521973000000000 
%ENDBLOCK POSITIONS_FRAC
