# Cell file generated by matador (Matthew Evans 2016)

%BLOCK LATTICE_CART
5.48498 0.0 0.0
-1.7706 8.41495 0.0
-0.813342 -1.04056 4.98025
%ENDBLOCK LATTICE_CART

%BLOCK POSITIONS_FRAC
P           0.274889000000000    0.700934000000000    0.594129000000000 
P           0.500000000000000    0.000000000000000    0.000000000000000 
P           0.725111000000000    0.299066000000000    0.405871000000000 
K           0.000000000000000    0.000000000000000    0.000000000000000 
K           0.000000000000000    0.500000000000000    0.500000000000000 
K           0.419467000000000    0.310085000000000    0.692108000000000 
K           0.500000000000000    0.500000000000000    0.000000000000000 
K           0.500000000000000    0.500000000000000    0.500000000000000 
K           0.580533000000000    0.689915000000000    0.307892000000000 
%ENDBLOCK POSITIONS_FRAC
