# Cell file generated by matador (Matthew Evans 2016)

%BLOCK LATTICE_CART
8.0296 0.0 0.0
0.0 7.37903 0.0
0.0 0.0 9.855
%ENDBLOCK LATTICE_CART

%BLOCK POSITIONS_FRAC
P           0.000000000000000    0.322324000000000    0.081757000000000 
P           0.000000000000000    0.677676000000000    0.581757000000000 
P           0.500000000000000    0.497716000000000    0.104601000000000 
P           0.500000000000000    0.502284000000000    0.604601000000000 
K           0.000000000000000    0.032696000000000    0.478558000000000 
K           0.000000000000000    0.417623000000000    0.640893000000000 
K           0.000000000000000    0.582377000000000    0.140893000000000 
K           0.000000000000000    0.967304000000000    0.978558000000000 
K           0.500000000000000    0.043034000000000    0.763278000000000 
K           0.500000000000000    0.195990000000000    0.036018000000000 
K           0.500000000000000    0.260948000000000    0.507739000000000 
K           0.500000000000000    0.445283000000000    0.796423000000000 
K           0.500000000000000    0.554717000000000    0.296423000000000 
K           0.500000000000000    0.739052000000000    0.007739000000000 
K           0.500000000000000    0.804010000000000    0.536018000000000 
K           0.500000000000000    0.956966000000000    0.263278000000000 
%ENDBLOCK POSITIONS_FRAC
