# Cell file generated by matador (Matthew Evans 2016)

%BLOCK LATTICE_CART
8.02273 0.0 0.0
0.0 7.16178 0.0
0.0 0.0 10.6237
%ENDBLOCK LATTICE_CART

%BLOCK POSITIONS_FRAC
P           0.000000000000000    0.000000000000000    0.885968000000000 
P           0.000000000000000    0.500000000000000    0.591503000000000 
P           0.500000000000000    0.000000000000000    0.007605000000000 
P           0.500000000000000    0.000000000000000    0.774078000000000 
K           0.000000000000000    0.265510000000000    0.256162000000000 
K           0.000000000000000    0.734490000000000    0.256162000000000 
K           0.235279000000000    0.000000000000000    0.387314000000000 
K           0.265378000000000    0.500000000000000    0.388513000000000 
K           0.500000000000000    0.222176000000000    0.200077000000000 
K           0.500000000000000    0.249264000000000    0.548038000000000 
K           0.500000000000000    0.259630000000000    0.883951000000000 
K           0.500000000000000    0.740370000000000    0.883951000000000 
K           0.500000000000000    0.750736000000000    0.548038000000000 
K           0.500000000000000    0.777824000000000    0.200077000000000 
K           0.734622000000000    0.500000000000000    0.388513000000000 
K           0.764721000000000    0.000000000000000    0.387314000000000 
%ENDBLOCK POSITIONS_FRAC
