# Cell file generated by matador (Matthew Evans 2016)

%BLOCK LATTICE_CART
7.84509 0.0 0.0
-3.92254 6.79405 0.0
0.0 0.0 5.90769
%ENDBLOCK LATTICE_CART

%BLOCK POSITIONS_FRAC
P           0.333333000000000    0.666667000000000    0.019832000000000 
P           0.666666000000000    0.333334000000000    0.019832000000000 
K          -0.000000000000000    0.244678000000000    0.513733000000000 
K          -0.000000000000000    0.581037000000000    0.857974000000000 
K           0.244678000000000    0.000000000000000    0.513733000000000 
K           0.418963000000000    0.418963000000000    0.857974000000000 
K           0.581037000000000    0.000000000000000    0.857974000000000 
K           0.755322000000000    0.755322000000000    0.513733000000000 
%ENDBLOCK POSITIONS_FRAC
