# Cell file generated by matador (Matthew Evans 2016)

%BLOCK LATTICE_CART
9.10914 0.0 0.0
0.0 9.10914 0.0
0.0 0.0 7.12833
%ENDBLOCK LATTICE_CART

%BLOCK POSITIONS_FRAC
P           0.000000000000000    0.177370000000000    0.250000000000000 
P           0.000000000000000    0.177370000000000    0.750000000000000 
P           0.000000000000000    0.822630000000000    0.250000000000000 
P           0.000000000000000    0.822630000000000    0.750000000000000 
P           0.177370000000000    0.000000000000000    0.250000000000000 
P           0.177370000000000    0.000000000000000    0.750000000000000 
P           0.500000000000000    0.500000000000000    0.000000000000000 
P           0.500000000000000    0.500000000000000    0.140285000000000 
P           0.500000000000000    0.500000000000000    0.359715000000000 
P           0.500000000000000    0.500000000000000    0.500000000000000 
P           0.500000000000000    0.500000000000000    0.640285000000000 
P           0.500000000000000    0.500000000000000    0.859715000000000 
P           0.822630000000000    0.000000000000000    0.250000000000000 
P           0.822630000000000    0.000000000000000    0.750000000000000 
K           0.000000000000000    0.000000000000000    0.000000000000000 
K           0.000000000000000    0.000000000000000    0.500000000000000 
K           0.000000000000000    0.500000000000000    0.000000000000000 
K           0.000000000000000    0.500000000000000    0.500000000000000 
K           0.500000000000000    0.000000000000000    0.000000000000000 
K           0.500000000000000    0.000000000000000    0.500000000000000 
%ENDBLOCK POSITIONS_FRAC
