# Cell file generated by matador (Matthew Evans 2016)

%BLOCK LATTICE_CART
8.08056 0.0 0.0
0.0 8.57841 0.0
0.0 0.0 14.4253
%ENDBLOCK LATTICE_CART

%BLOCK POSITIONS_FRAC
P           0.500000000000000    0.000000000000000    0.034566000000000 
P           0.500000000000000    0.000000000000000    0.453845000000000 
P           0.500000000000000    0.000000000000000    0.696534000000000 
P           0.500000000000000    0.500000000000000    0.196534000000000 
P           0.500000000000000    0.500000000000000    0.534566000000000 
P           0.500000000000000    0.500000000000000    0.953845000000000 
K           0.000000000000000    0.000000000000000    0.256468000000000 
K           0.000000000000000    0.188483000000000    0.854880000000000 
K           0.000000000000000    0.243858000000000    0.573328000000000 
K           0.000000000000000    0.256142000000000    0.073328000000000 
K           0.000000000000000    0.311517000000000    0.354880000000000 
K           0.000000000000000    0.500000000000000    0.756468000000000 
K           0.000000000000000    0.688483000000000    0.354880000000000 
K           0.000000000000000    0.743858000000000    0.073328000000000 
K           0.000000000000000    0.756142000000000    0.573328000000000 
K           0.000000000000000    0.811517000000000    0.854880000000000 
K           0.500000000000000    0.181310000000000    0.312518000000000 
K           0.500000000000000    0.206482000000000    0.531544000000000 
K           0.500000000000000    0.293518000000000    0.031544000000000 
K           0.500000000000000    0.318690000000000    0.812518000000000 
K           0.500000000000000    0.681310000000000    0.812518000000000 
K           0.500000000000000    0.706482000000000    0.031544000000000 
K           0.500000000000000    0.793518000000000    0.531544000000000 
K           0.500000000000000    0.818690000000000    0.312518000000000 
%ENDBLOCK POSITIONS_FRAC
