# Cell file generated by matador (Matthew Evans 2016)

%BLOCK LATTICE_CART
9.11156 0.0 0.0
0.0 9.11156 0.0
0.0 0.0 11.1569
%ENDBLOCK LATTICE_CART

%BLOCK POSITIONS_FRAC
P           0.000000000000000    0.000000000000000    0.179261000000000 
P           0.000000000000000    0.000000000000000    0.820739000000000 
P           0.000000000000000    0.500000000000000    0.379849000000000 
P           0.500000000000000    0.000000000000000    0.620151000000000 
P           0.500000000000000    0.500000000000000    0.179261000000000 
P           0.500000000000000    0.500000000000000    0.820739000000000 
K           0.000000000000000    0.000000000000000    0.000000000000000 
K           0.000000000000000    0.000000000000000    0.500000000000000 
K           0.000000000000000    0.500000000000000    0.862305000000000 
K           0.150404000000000    0.349596000000000    0.192376000000000 
K           0.188441000000000    0.688441000000000    0.547978000000000 
K           0.207260000000000    0.707260000000000    0.085737000000000 
K           0.292740000000000    0.207260000000000    0.914263000000000 
K           0.311559000000000    0.188441000000000    0.452022000000000 
K           0.349596000000000    0.849596000000000    0.807624000000000 
K           0.500000000000000    0.000000000000000    0.137695000000000 
K           0.500000000000000    0.500000000000000    0.000000000000000 
K           0.500000000000000    0.500000000000000    0.500000000000000 
K           0.650404000000000    0.150404000000000    0.807624000000000 
K           0.688441000000000    0.811559000000000    0.452022000000000 
K           0.707260000000000    0.792740000000000    0.914263000000000 
K           0.792740000000000    0.292740000000000    0.085737000000000 
K           0.811559000000000    0.311559000000000    0.547978000000000 
K           0.849596000000000    0.650404000000000    0.192376000000000 
%ENDBLOCK POSITIONS_FRAC
