# Cell file generated by matador (Matthew Evans 2016)

%BLOCK LATTICE_CART
8.61139 0.0 0.0
-4.3057 7.45768 0.0
0.0 0.0 6.69199
%ENDBLOCK LATTICE_CART

%BLOCK POSITIONS_FRAC
P           0.109852000000000    0.419785000000000    0.863850000000000 
P           0.139860000000000    0.023508000000000    0.458365000000000 
P           0.309932000000000    0.890148000000000    0.863850000000000 
P           0.457249000000000    0.038334000000000    0.571920000000000 
P           0.580215000000000    0.690068000000000    0.863850000000000 
P           0.581085000000000    0.542751000000000    0.571920000000000 
P           0.666667000000000    0.333333000000000    0.147354000000000 
P           0.883648000000000    0.860140000000000    0.458365000000000 
P           0.961666000000000    0.418915000000000    0.571920000000000 
P           0.976492000000000    0.116352000000000    0.458365000000000 
K           0.000000000000000    0.000000000000000    0.811483000000000 
K           0.333333000000000    0.666667000000000    0.773728000000000 
%ENDBLOCK POSITIONS_FRAC
