# Cell file generated by matador (Matthew Evans 2016)

%BLOCK LATTICE_CART
7.74272 0.0 0.0
-3.87136 6.70539 0.0
0.0 0.0 8.19873
%ENDBLOCK LATTICE_CART

%BLOCK POSITIONS_FRAC
P           0.000000000000000    0.000000000000000    0.250000000000000 
P           0.000000000000000    0.000000000000000    0.750000000000000 
P           0.333333000000000    0.666667000000000    0.593984000000000 
P           0.333333000000000    0.666667000000000    0.906016000000000 
P           0.666667000000000    0.333333000000000    0.093984000000000 
P           0.666667000000000    0.333333000000000    0.406016000000000 
K           0.161464000000000    0.386455000000000    0.750000000000000 
K           0.224991000000000    0.838536000000000    0.750000000000000 
K           0.386455000000000    0.161464000000000    0.250000000000000 
K           0.613545000000000    0.775009000000000    0.750000000000000 
K           0.775009000000000    0.613545000000000    0.250000000000000 
K           0.838536000000000    0.224991000000000    0.250000000000000 
%ENDBLOCK POSITIONS_FRAC
