# Cell file generated by matador (Matthew Evans 2016)

%BLOCK LATTICE_CART
7.94282 0.0 0.0
-3.97141 6.87868 0.0
0.0 0.0 8.1105
%ENDBLOCK LATTICE_CART

%BLOCK POSITIONS_FRAC
P          -0.000000000000000    0.000000000000000    0.460141000000000 
P           0.333333000000000    0.666667000000000    0.126808000000000 
P           0.666667000000000    0.333333000000000    0.793474000000000 
K           0.190917000000000    0.381835000000000    0.514086000000000 
K           0.190917000000000    0.809083000000000    0.514086000000000 
K           0.284832000000000    0.142416000000000    0.847419000000000 
K           0.524251000000000    0.048501000000000    0.180752000000000 
K           0.524251000000000    0.475749000000000    0.180752000000000 
K           0.618165000000000    0.809083000000000    0.514086000000000 
K           0.857584000000000    0.142416000000000    0.847419000000000 
K           0.857584000000000    0.715168000000000    0.847419000000000 
K           0.951499000000000    0.475749000000000    0.180752000000000 
%ENDBLOCK POSITIONS_FRAC
