# Cell file generated by matador (Matthew Evans 2016)

%BLOCK LATTICE_CART
6.28797 0.0 0.0
-3.14398 5.44554 0.0
0.0 0.0 6.43579
%ENDBLOCK LATTICE_CART

%BLOCK POSITIONS_FRAC
P           0.000000000000000    0.000000000000000    0.216514000000000 
P           0.000000000000000    0.000000000000000    0.500000000000000 
P           0.000000000000000    0.000000000000000    0.783486000000000 
P           0.333333000000000    0.666667000000000    0.668981000000000 
P           0.666667000000000    0.333333000000000    0.331019000000000 
K           0.000000000000000    0.500000000000000    0.500000000000000 
K           0.500000000000000    0.000000000000000    0.500000000000000 
K           0.500000000000000    0.500000000000000    0.500000000000000 
%ENDBLOCK POSITIONS_FRAC
