# Cell file generated by matador (Matthew Evans 2016)

%BLOCK LATTICE_CART
9.06967 0.0 0.0
0.0 7.68046 0.0
0.0 0.0 11.2711
%ENDBLOCK LATTICE_CART

%BLOCK POSITIONS_FRAC
P           0.000000000000000    0.000000000000000    0.500000000000000 
P           0.220515000000000    0.500000000000000    0.500000000000000 
P           0.362516000000000    0.000000000000000    0.000000000000000 
P           0.424708000000000    0.245793000000000    0.035588000000000 
P           0.424708000000000    0.754207000000000    0.964412000000000 
P           0.485999000000000    0.066733000000000    0.111645000000000 
P           0.485999000000000    0.933267000000000    0.888355000000000 
P           0.500000000000000    0.000000000000000    0.500000000000000 
P           0.514001000000000    0.066733000000000    0.888355000000000 
P           0.514001000000000    0.933267000000000    0.111645000000000 
P           0.575292000000000    0.245793000000000    0.964412000000000 
P           0.575292000000000    0.754207000000000    0.035588000000000 
P           0.637484000000000    0.000000000000000    0.000000000000000 
P           0.779485000000000    0.500000000000000    0.500000000000000 
K           0.000000000000000    0.500000000000000    0.500000000000000 
K           0.336647000000000    0.062121000000000    0.666494000000000 
K           0.336647000000000    0.937879000000000    0.333506000000000 
K           0.500000000000000    0.500000000000000    0.500000000000000 
K           0.663353000000000    0.062121000000000    0.333506000000000 
K           0.663353000000000    0.937879000000000    0.666494000000000 
%ENDBLOCK POSITIONS_FRAC
