# Cell file generated by matador (Matthew Evans 2016)

%BLOCK LATTICE_CART
8.87583 0.0 0.0
0.0 8.50576 0.0
-0.12295 0.0 4.36006
%ENDBLOCK LATTICE_CART

%BLOCK POSITIONS_FRAC
P           0.000000000000000    0.165658000000000    0.500000000000000 
P           0.000000000000000    0.371614000000000   -0.000000000000000 
P           0.000000000000000    0.523847000000000   -0.000000000000000 
P           0.000000000000000    0.898196000000000   -0.000000000000000 
P           0.500000000000000    0.023847000000000   -0.000000000000000 
P           0.500000000000000    0.398196000000000   -0.000000000000000 
P           0.500000000000000    0.665658000000000    0.500000000000000 
P           0.500000000000000    0.871614000000000   -0.000000000000000 
K           0.211208000000000    0.364704000000000    0.542786000000000 
K           0.288792000000000    0.864704000000000    0.457214000000000 
K           0.711208000000000    0.864704000000000    0.542786000000000 
K           0.788792000000000    0.364704000000000    0.457214000000000 
%ENDBLOCK POSITIONS_FRAC
