# Cell file generated by matador (Matthew Evans 2016)

%BLOCK LATTICE_CART
8.62473 0.0 0.0
0.0 8.62473 0.0
0.0 0.0 5.78675
%ENDBLOCK LATTICE_CART

%BLOCK POSITIONS_FRAC
P           0.250000000000000    0.750000000000000    0.500000000000000 
P           0.750000000000000    0.250000000000000    0.500000000000000 
K          -0.000000000000000   -0.000000000000000    0.000000000000000 
K          -0.000000000000000   -0.000000000000000    0.500000000000000 
K          -0.000000000000000    0.500000000000000    0.000000000000000 
K          -0.000000000000000    0.500000000000000    0.500000000000000 
K           0.250000000000000    0.250000000000000    0.629444000000000 
K           0.250000000000000    0.750000000000000    0.000000000000000 
K           0.500000000000000   -0.000000000000000    0.000000000000000 
K           0.500000000000000   -0.000000000000000    0.500000000000000 
K           0.500000000000000    0.500000000000000    0.000000000000000 
K           0.500000000000000    0.500000000000000    0.500000000000000 
K           0.750000000000000    0.250000000000000    0.000000000000000 
K           0.750000000000000    0.750000000000000    0.370556000000000 
%ENDBLOCK POSITIONS_FRAC
