# Cell file generated by matador (Matthew Evans 2016)

%BLOCK LATTICE_CART
6.87026 0.0 0.0
0.0 6.87026 0.0
0.0 0.0 6.87026
%ENDBLOCK LATTICE_CART

%BLOCK POSITIONS_FRAC
P           0.278502000000000    0.278502000000000    0.278502000000000 
P           0.278502000000000    0.721498000000000    0.721498000000000 
P           0.291110000000000    0.500000000000000    0.500000000000000 
P           0.500000000000000    0.291110000000000    0.500000000000000 
P           0.500000000000000    0.500000000000000    0.291110000000000 
P           0.500000000000000    0.500000000000000    0.708890000000000 
P           0.500000000000000    0.708890000000000    0.500000000000000 
P           0.708890000000000    0.500000000000000    0.500000000000000 
P           0.721498000000000    0.278502000000000    0.721498000000000 
P           0.721498000000000    0.721498000000000    0.278502000000000 
K           0.000000000000000    0.000000000000000    0.000000000000000 
K           0.000000000000000    0.500000000000000    0.500000000000000 
K           0.500000000000000    0.000000000000000    0.500000000000000 
K           0.500000000000000    0.500000000000000    0.000000000000000 
%ENDBLOCK POSITIONS_FRAC
