# Cell file generated by matador (Matthew Evans 2016)

%BLOCK LATTICE_CART
7.59715 0.0 0.0
-3.79858 6.57933 0.0
0.0 0.0 6.32032
%ENDBLOCK LATTICE_CART

%BLOCK POSITIONS_FRAC
P           0.333334000000000    0.666668000000000    0.750000000000000 
P           0.666668000000000    0.333334000000000    0.250000000000000 
K           0.048596000000000    0.845605000000000    0.250000000000000 
K           0.154397000000000    0.202992000000000    0.250000000000000 
K           0.202992000000000    0.048596000000000    0.750000000000000 
K           0.333334000000000    0.666668000000000    0.250000000000000 
K           0.666668000000000    0.333334000000000    0.750000000000000 
K           0.797010000000000    0.951406000000000    0.250000000000000 
K           0.845605000000000    0.797010000000000    0.750000000000000 
K           0.951406000000000    0.154397000000000    0.750000000000000 
%ENDBLOCK POSITIONS_FRAC
