# Cell file generated by matador (Matthew Evans 2016)

%BLOCK LATTICE_CART
7.14816 0.0 0.0
-3.57408 6.19049 0.0
0.0 0.0 6.59334
%ENDBLOCK LATTICE_CART

%BLOCK POSITIONS_FRAC
P           0.000000000000000    0.000000000000000    0.696303000000000 
P           0.000000000000000    0.500000000000000    0.145110000000000 
P           0.500000000000000    0.000000000000000    0.145110000000000 
P           0.500000000000000    0.500000000000000    0.145110000000000 
K           0.000000000000000    0.000000000000000    0.208189000000000 
K           0.000000000000000    0.500000000000000    0.535613000000000 
K           0.333333000000000    0.666667000000000    0.731027000000000 
K           0.500000000000000    0.000000000000000    0.535613000000000 
K           0.500000000000000    0.500000000000000    0.535613000000000 
K           0.666667000000000    0.333333000000000    0.731027000000000 
%ENDBLOCK POSITIONS_FRAC
