# Cell file generated by matador (Matthew Evans 2016)

%BLOCK LATTICE_CART
6.49741 0.0 0.0
-3.24871 5.62692 0.0
0.0 0.0 7.44539
%ENDBLOCK LATTICE_CART

%BLOCK POSITIONS_FRAC
P           0.000000000000000   -0.000000000000000    0.206540000000000 
P           0.325136000000000    0.066255000000000    0.495223000000000 
P           0.494515000000000    0.172534000000000    0.558345000000000 
P           0.678019000000000    0.505485000000000    0.558345000000000 
P           0.741119000000000    0.674864000000000    0.495223000000000 
P           0.827466000000000    0.321981000000000    0.558345000000000 
P           0.933745000000000    0.258881000000000    0.495223000000000 
K           0.031079000000000    0.312685000000000    0.910238000000000 
K           0.281606000000000    0.968921000000000    0.910238000000000 
K           0.333333000000000    0.666667000000000    0.051161000000000 
K           0.666667000000000    0.333333000000000    0.038386000000000 
K           0.687315000000000    0.718394000000000    0.910238000000000 
%ENDBLOCK POSITIONS_FRAC
