# Cell file generated by matador (Matthew Evans 2016)

%BLOCK LATTICE_CART
9.81807 0.0 0.0
0.157087 5.79419 0.0
1.01722 -0.425381 7.84234
%ENDBLOCK LATTICE_CART

%BLOCK POSITIONS_FRAC
P           0.000000000000000    0.000000000000000    0.000000000000000 
P           0.000000000000000    0.000000000000000    0.500000000000000 
P           0.000000000000000    0.500000000000000    0.500000000000000 
P           0.183216000000000    0.722128000000000    0.741589000000000 
P           0.500000000000000    0.500000000000000    0.000000000000000 
P           0.500000000000000    0.500000000000000    0.500000000000000 
P           0.816784000000000    0.277872000000000    0.258411000000000 
K           0.000000000000000    0.500000000000000    0.000000000000000 
K           0.191233000000000    0.704790000000000    0.302401000000000 
K           0.500000000000000    0.000000000000000    0.000000000000000 
K           0.500000000000000    0.000000000000000    0.500000000000000 
K           0.808767000000000    0.295210000000000    0.697599000000000 
%ENDBLOCK POSITIONS_FRAC
