# Cell file generated by matador (Matthew Evans 2016)

%BLOCK LATTICE_CART
7.18447 0.0 0.0
-3.59224 6.22193 0.0
0.0 0.0 8.13817
%ENDBLOCK LATTICE_CART

%BLOCK POSITIONS_FRAC
P           0.000000000000000    0.000000000000000    0.000000000000000 
P           0.000000000000000    0.000000000000000    0.500000000000000 
P           0.333333000000000    0.666667000000000    0.245755000000000 
P           0.333333000000000    0.666667000000000    0.754245000000000 
P           0.666667000000000    0.333333000000000    0.245755000000000 
P           0.666667000000000    0.333333000000000    0.754245000000000 
K           0.000000000000000    0.500000000000000    0.500000000000000 
K           0.333333000000000    0.666667000000000    0.000000000000000 
K           0.500000000000000    0.000000000000000    0.500000000000000 
K           0.500000000000000    0.500000000000000    0.500000000000000 
K           0.666667000000000    0.333333000000000    0.000000000000000 
%ENDBLOCK POSITIONS_FRAC
