# Cell file generated by matador (Matthew Evans 2016)

%BLOCK LATTICE_CART
6.21905 0.0 0.0
0.0 6.68243 0.0
0.0 0.0 8.51386
%ENDBLOCK LATTICE_CART

%BLOCK POSITIONS_FRAC
P           0.039121000000000    0.154345000000000    0.039901000000000 
P           0.460879000000000    0.154345000000000    0.039901000000000 
P           0.539121000000000    0.845655000000000    0.039901000000000 
P           0.960879000000000    0.845655000000000    0.039901000000000 
K           0.046434000000000    0.252055000000000    0.557890000000000 
K           0.250000000000000    0.574878000000000    0.110837000000000 
K           0.250000000000000    0.930171000000000    0.281063000000000 
K           0.453566000000000    0.252055000000000    0.557890000000000 
K           0.546434000000000    0.747945000000000    0.557890000000000 
K           0.750000000000000    0.069829000000000    0.281063000000000 
K           0.750000000000000    0.425122000000000    0.110837000000000 
K           0.953566000000000    0.747945000000000    0.557890000000000 
%ENDBLOCK POSITIONS_FRAC
