# Cell file generated by matador (Matthew Evans 2016)

%BLOCK LATTICE_CART
10.0042 0.0 0.0
-5.0021 8.66389 0.0
0.0 0.0 4.07058
%ENDBLOCK LATTICE_CART

%BLOCK POSITIONS_FRAC
P           0.000000000000000    0.000000000000000    0.128191000000000 
P           0.111172000000000    0.387515000000000    0.648340000000000 
P           0.111172000000000    0.723658000000000    0.648340000000000 
P           0.276342000000000    0.387515000000000    0.648340000000000 
P           0.276342000000000    0.888828000000000    0.648340000000000 
P           0.528898000000000    0.057796000000000    0.284006000000000 
P           0.528898000000000    0.471102000000000    0.284006000000000 
P           0.612485000000000    0.723658000000000    0.648340000000000 
P           0.612485000000000    0.888828000000000    0.648340000000000 
P           0.942204000000000    0.471102000000000    0.284006000000000 
K           0.272712000000000    0.136356000000000    0.361328000000000 
K           0.666667000000000    0.333333000000000    0.298728000000000 
K           0.863644000000000    0.136356000000000    0.361328000000000 
K           0.863644000000000    0.727288000000000    0.361328000000000 
%ENDBLOCK POSITIONS_FRAC
