# Cell file generated by matador (Matthew Evans 2016)

%BLOCK LATTICE_CART
6.43743 0.0 0.0
-3.21872 5.57498 0.0
0.0 0.0 7.80456
%ENDBLOCK LATTICE_CART

%BLOCK POSITIONS_FRAC
P          -0.000000000000000    0.000000000000000    0.320996000000000 
P          -0.000000000000000    0.000000000000000    0.648404000000000 
P           0.333333000000000    0.666667000000000    0.505005000000000 
P           0.341387000000000    0.144428000000000    0.744607000000000 
P           0.666666000000000    0.333334000000000    0.069259000000000 
P           0.803041000000000    0.658613000000000    0.744607000000000 
P           0.855572000000000    0.196959000000000    0.744607000000000 
K           0.333333000000000    0.666667000000000    0.818104000000000 
K           0.444758000000000    0.318761000000000    0.358930000000000 
K           0.666666000000000    0.333334000000000    0.584353000000000 
K           0.681239000000000    0.125997000000000    0.358930000000000 
K           0.874003000000000    0.555242000000000    0.358930000000000 
%ENDBLOCK POSITIONS_FRAC
