# Cell file generated by matador (Matthew Evans 2016)

%BLOCK LATTICE_CART
7.97615 0.0 0.0
-3.98807 6.90755 0.0
0.0 0.0 5.8223
%ENDBLOCK LATTICE_CART

%BLOCK POSITIONS_FRAC
P          -0.000000000000000    0.000000000000000    0.000000000000000 
P          -0.000000000000000    0.835464000000000    0.000000000000000 
P          -0.000000000000000    0.896208000000000    0.172901000000000 
P          -0.000000000000000    0.896208000000000    0.827099000000000 
P           0.103792000000000    0.103792000000000    0.172901000000000 
P           0.103792000000000    0.103792000000000    0.827099000000000 
P           0.164536000000000    0.164536000000000    0.000000000000000 
P           0.835464000000000    0.000000000000000    0.000000000000000 
P           0.896208000000000    0.000000000000000    0.172901000000000 
P           0.896208000000000    0.000000000000000    0.827099000000000 
K           0.333333000000000    0.666667000000000    0.000000000000000 
K           0.333333000000000    0.666667000000000    0.500000000000000 
K           0.666666000000000    0.333334000000000    0.000000000000000 
K           0.666666000000000    0.333334000000000    0.500000000000000 
%ENDBLOCK POSITIONS_FRAC
