# Cell file generated by matador (Matthew Evans 2016)

%BLOCK LATTICE_CART
6.68131 0.0 0.0
0.0 6.46852 0.0
-2.4148 0.0 4.7026
%ENDBLOCK LATTICE_CART

%BLOCK POSITIONS_FRAC
P           0.094592000000000    0.534592000000000    0.746313000000000 
P           0.115724000000000    0.365162000000000    0.228653000000000 
P           0.332119000000000    0.678058000000000    0.230916000000000 
P           0.667881000000000    0.178058000000000    0.769084000000000 
P           0.884276000000000    0.865162000000000    0.771347000000000 
P           0.905408000000000    0.034592000000000    0.253687000000000 
K           0.224980000000000    0.922862000000000    0.719934000000000 
K           0.775020000000000    0.422862000000000    0.280066000000000 
%ENDBLOCK POSITIONS_FRAC
