# Cell file generated by matador (Matthew Evans 2016)

%BLOCK LATTICE_CART
8.5932 0.0 0.0
0.0 8.3795 0.0
1.51411 0.0 6.781
%ENDBLOCK LATTICE_CART

%BLOCK POSITIONS_FRAC
P           0.021003000000000    0.500000000000000    0.974805000000000 
P           0.197970000000000    0.500000000000000    0.978180000000000 
P           0.315693000000000    0.500000000000000    0.127355000000000 
P           0.597941000000000    0.500000000000000    0.015563000000000 
P           0.611501000000000    0.166920000000000    0.009220000000000 
P           0.611501000000000    0.833080000000000    0.009220000000000 
P           0.657330000000000    0.200982000000000    0.464342000000000 
P           0.657330000000000    0.799018000000000    0.464342000000000 
P           0.673477000000000    0.000000000000000    0.268961000000000 
P           0.699907000000000    0.190352000000000    0.137030000000000 
P           0.699907000000000    0.809648000000000    0.137030000000000 
P           0.807904000000000    0.000000000000000    0.610496000000000 
P           0.994625000000000    0.176168000000000    0.628571000000000 
P           0.994625000000000    0.823832000000000    0.628571000000000 
K           0.398407000000000    0.248004000000000    0.792200000000000 
K           0.398407000000000    0.751996000000000    0.792200000000000 
K           0.939894000000000    0.167421000000000    0.280320000000000 
K           0.939894000000000    0.832579000000000    0.280320000000000 
%ENDBLOCK POSITIONS_FRAC
