# Cell file generated by matador (Matthew Evans 2016)

%BLOCK LATTICE_CART
10.5203 0.0 0.0
0.0 10.5203 0.0
0.0 0.0 10.6637
%ENDBLOCK LATTICE_CART

%BLOCK POSITIONS_FRAC
P           0.000000000000000    0.000000000000000    0.000000000000000 
P           0.000000000000000    0.000000000000000    0.500000000000000 
P           0.000000000000000    0.500000000000000    0.000000000000000 
P           0.000000000000000    0.500000000000000    0.500000000000000 
P           0.500000000000000    0.000000000000000    0.000000000000000 
P           0.500000000000000    0.000000000000000    0.500000000000000 
P           0.500000000000000    0.500000000000000    0.000000000000000 
P           0.500000000000000    0.500000000000000    0.500000000000000 
K           0.022500000000000    0.797303000000000    0.000000000000000 
K           0.107213000000000    0.607213000000000    0.321718000000000 
K           0.107213000000000    0.607213000000000    0.678282000000000 
K           0.175931000000000    0.324069000000000    0.167984000000000 
K           0.175931000000000    0.324069000000000    0.832016000000000 
K           0.202697000000000    0.022500000000000    0.000000000000000 
K           0.297303000000000    0.522500000000000    0.000000000000000 
K           0.324069000000000    0.824069000000000    0.167984000000000 
K           0.324069000000000    0.824069000000000    0.832016000000000 
K           0.392787000000000    0.107213000000000    0.321718000000000 
K           0.392787000000000    0.107213000000000    0.678282000000000 
K           0.477500000000000    0.297303000000000    0.000000000000000 
K           0.522500000000000    0.702697000000000    0.000000000000000 
K           0.607213000000000    0.892787000000000    0.321718000000000 
K           0.607213000000000    0.892787000000000    0.678282000000000 
K           0.675931000000000    0.175931000000000    0.167984000000000 
K           0.675931000000000    0.175931000000000    0.832016000000000 
K           0.702697000000000    0.477500000000000    0.000000000000000 
K           0.797303000000000    0.977500000000000    0.000000000000000 
K           0.824069000000000    0.675931000000000    0.167984000000000 
K           0.824069000000000    0.675931000000000    0.832016000000000 
K           0.892787000000000    0.392787000000000    0.321718000000000 
K           0.892787000000000    0.392787000000000    0.678282000000000 
K           0.977500000000000    0.202697000000000    0.000000000000000 
%ENDBLOCK POSITIONS_FRAC
