# Cell file generated by matador (Matthew Evans 2016)

%BLOCK LATTICE_CART
4.83987 0.0 0.0
0.0 4.83987 0.0
0.0 0.0 8.47881
%ENDBLOCK LATTICE_CART

%BLOCK POSITIONS_FRAC
P           0.500000000000000    0.500000000000000    0.000000000000000 
K           0.000000000000000    0.000000000000000    0.000000000000000 
K           0.000000000000000    0.000000000000000    0.500000000000000 
K           0.000000000000000    0.500000000000000    0.010212000000000 
K           0.500000000000000    0.000000000000000    0.989788000000000 
K           0.500000000000000    0.500000000000000    0.500000000000000 
%ENDBLOCK POSITIONS_FRAC
