# Cell file generated by matador (Matthew Evans 2016)

%BLOCK LATTICE_CART
8.21276 0.0 0.0
-4.10638 7.11245 0.0
0.0 0.0 6.79226
%ENDBLOCK LATTICE_CART

%BLOCK POSITIONS_FRAC
P          -0.000000000000000    0.756476000000000   -0.000000000000000 
P           0.089809000000000    0.666667000000000    0.666667000000000 
P           0.243524000000000    0.243524000000000   -0.000000000000000 
P           0.333333000000000    0.423143000000000    0.666667000000000 
P           0.423143000000000    0.333333000000000    0.333333000000000 
P           0.576857000000000    0.910191000000000    0.666667000000000 
P           0.666667000000000    0.089809000000000    0.333333000000000 
P           0.756476000000000   -0.000000000000000   -0.000000000000000 
P           0.910191000000000    0.576857000000000    0.333333000000000 
K          -0.000000000000000   -0.000000000000000   -0.000000000000000 
K          -0.000000000000000   -0.000000000000000    0.500000000000000 
K           0.333333000000000    0.666667000000000    0.166667000000000 
K           0.333333000000000    0.666667000000000    0.666667000000000 
K           0.666667000000000    0.333333000000000    0.333333000000000 
K           0.666667000000000    0.333333000000000    0.833333000000000 
%ENDBLOCK POSITIONS_FRAC
