# Cell file generated by matador (Matthew Evans 2016)

%BLOCK LATTICE_CART
9.05677 0.0 0.0
-4.52838 7.84339 0.0
0.0 0.0 6.49149
%ENDBLOCK LATTICE_CART

%BLOCK POSITIONS_FRAC
P           0.000000000000000    0.000000000000000    0.190402000000000 
P           0.000000000000000    0.000000000000000    0.777649000000000 
P           0.000000000000000    0.000000000000000    0.981893000000000 
P           0.000000000000000    0.500000000000000    0.808004000000000 
P           0.500000000000000    0.000000000000000    0.808004000000000 
P           0.500000000000000    0.500000000000000    0.808004000000000 
K           0.000000000000000    0.370266000000000    0.435142000000000 
K           0.000000000000000    0.629734000000000    0.435142000000000 
K           0.333333000000000    0.666667000000000    0.872726000000000 
K           0.370266000000000    0.000000000000000    0.435142000000000 
K           0.370266000000000    0.370266000000000    0.435142000000000 
K           0.629734000000000    0.000000000000000    0.435142000000000 
K           0.629734000000000    0.629734000000000    0.435142000000000 
K           0.666667000000000    0.333333000000000    0.872726000000000 
%ENDBLOCK POSITIONS_FRAC
