# Cell file generated by matador (Matthew Evans 2016)

%BLOCK LATTICE_CART
7.78396 0.0 0.0
0.0 5.79224 0.0
1.77614 0.0 7.4581
%ENDBLOCK LATTICE_CART

%BLOCK POSITIONS_FRAC
P           0.190777000000000   -0.000000000000000    0.232448000000000 
P           0.250018000000000   -0.000000000000000    0.671014000000000 
P           0.270358000000000   -0.000000000000000    0.433295000000000 
P           0.285782000000000    0.500000000000000    0.315905000000000 
P           0.654690000000000   -0.000000000000000    0.307410000000000 
P           0.903810000000000    0.500000000000000    0.332857000000000 
P           0.948090000000000   -0.000000000000000    0.161878000000000 
K           0.561925000000000    0.199445000000000    0.746267000000000 
K           0.561925000000000    0.800555000000000    0.746267000000000 
K           0.758733000000000   -0.000000000000000    0.916710000000000 
K           0.924130000000000    0.290746000000000    0.763001000000000 
K           0.924130000000000    0.709254000000000    0.763001000000000 
%ENDBLOCK POSITIONS_FRAC
