# Cell file generated by matador (Matthew Evans 2016)

%BLOCK LATTICE_CART
6.35853 0.0 0.0
-3.17926 5.50665 0.0
0.0 0.0 12.4867
%ENDBLOCK LATTICE_CART

%BLOCK POSITIONS_FRAC
P           0.666667000000000    0.333333000000000    0.431919000000000 
P           0.666667000000000    0.333333000000000    0.568081000000000 
K           0.000000000000000   -0.000000000000000    0.500000000000000 
K           0.333334000000000    0.666666000000000    0.000000000000000 
K           0.333334000000000    0.666666000000000    0.500000000000000 
K           0.373403000000000    0.006789000000000    0.815757000000000 
K           0.373403000000000    0.366614000000000    0.184243000000000 
K           0.633386000000000    0.006789000000000    0.184243000000000 
K           0.633386000000000    0.626597000000000    0.815757000000000 
K           0.666667000000000    0.333333000000000    0.000000000000000 
K           0.993211000000000    0.366614000000000    0.815757000000000 
K           0.993211000000000    0.626597000000000    0.184243000000000 
%ENDBLOCK POSITIONS_FRAC
