# Cell file generated by matador (Matthew Evans 2016)

%BLOCK LATTICE_CART
4.81042 0.0 0.0
0.0 7.52458 0.0
0.648298 0.0 9.49613
%ENDBLOCK LATTICE_CART

%BLOCK POSITIONS_FRAC
P           0.000000000000000    0.000000000000000    0.000000000000000 
P           0.000000000000000    0.000000000000000    0.500000000000000 
P           0.000000000000000    0.289685000000000    0.500000000000000 
P           0.000000000000000    0.500000000000000    0.000000000000000 
P           0.000000000000000    0.500000000000000    0.500000000000000 
P           0.000000000000000    0.710315000000000    0.500000000000000 
P           0.295460000000000    0.000000000000000    0.090361000000000 
P           0.500000000000000    0.000000000000000    0.000000000000000 
P           0.704540000000000    0.000000000000000    0.909639000000000 
K           0.500000000000000    0.000000000000000    0.500000000000000 
K           0.500000000000000    0.500000000000000    0.000000000000000 
K           0.500000000000000    0.500000000000000    0.500000000000000 
%ENDBLOCK POSITIONS_FRAC
