# Cell file generated by matador (Matthew Evans 2016)

%BLOCK LATTICE_CART
6.9853 0.0 0.0
0.0 6.9853 0.0
0.0 0.0 6.94781
%ENDBLOCK LATTICE_CART

%BLOCK POSITIONS_FRAC
P           0.000000000000000    0.500000000000000    0.344119000000000 
P           0.000000000000000    0.500000000000000    0.705648000000000 
P           0.500000000000000    0.000000000000000    0.344119000000000 
P           0.500000000000000    0.000000000000000    0.705648000000000 
K           0.000000000000000    0.000000000000000    0.973668000000000 
K           0.319254000000000    0.604487000000000    0.865880000000000 
K           0.395513000000000    0.319254000000000    0.865880000000000 
K           0.604487000000000    0.680746000000000    0.865880000000000 
K           0.680746000000000    0.395513000000000    0.865880000000000 
%ENDBLOCK POSITIONS_FRAC
