# Cell file generated by matador (Matthew Evans 2016)

%BLOCK LATTICE_CART
6.55959 0.0 0.0
-0.92399 4.48266 0.0
1.69861 -0.947734 4.76826
%ENDBLOCK LATTICE_CART

%BLOCK POSITIONS_FRAC
P           0.000000000000000    0.000000000000000    0.500000000000000 
P           0.000000000000000    0.500000000000000    0.000000000000000 
P           0.000000000000000    0.500000000000000    0.500000000000000 
P           0.500000000000000    0.000000000000000    0.000000000000000 
P           0.500000000000000    0.000000000000000    0.500000000000000 
P           0.500000000000000    0.500000000000000    0.000000000000000 
K           0.000000000000000    0.000000000000000    0.000000000000000 
%ENDBLOCK POSITIONS_FRAC
