# Cell file generated by matador (Matthew Evans 2016)

%BLOCK LATTICE_CART
7.55384 0.0 0.0
0.0 7.55384 0.0
0.0 0.0 6.4495
%ENDBLOCK LATTICE_CART

%BLOCK POSITIONS_FRAC
P           0.000000000000000    0.500000000000000    0.000000000000000 
P           0.162267000000000    0.300663000000000    0.000000000000000 
P           0.300663000000000    0.837733000000000    0.000000000000000 
P           0.500000000000000    0.000000000000000    0.000000000000000 
P           0.699337000000000    0.162267000000000    0.000000000000000 
P           0.837733000000000    0.699337000000000    0.000000000000000 
K           0.000000000000000    0.000000000000000    0.000000000000000 
K           0.000000000000000    0.000000000000000    0.500000000000000 
K           0.120251000000000    0.293506000000000    0.500000000000000 
K           0.293506000000000    0.879749000000000    0.500000000000000 
K           0.500000000000000    0.500000000000000    0.000000000000000 
K           0.500000000000000    0.500000000000000    0.500000000000000 
K           0.706494000000000    0.120251000000000    0.500000000000000 
K           0.879749000000000    0.706494000000000    0.500000000000000 
%ENDBLOCK POSITIONS_FRAC
