# Cell file generated by matador (Matthew Evans 2016)

%BLOCK LATTICE_CART
7.66647 0.0 0.0
0.0 7.34911 0.0
-0.497228 0.0 5.08937
%ENDBLOCK LATTICE_CART

%BLOCK POSITIONS_FRAC
P           0.000000000000000    0.000000000000000    0.500000000000000 
P           0.000000000000000    0.500000000000000    0.500000000000000 
K           0.000000000000000    0.000000000000000    0.000000000000000 
K           0.000000000000000    0.500000000000000    0.000000000000000 
K           0.264928000000000    0.750000000000000    0.279851000000000 
K           0.500000000000000    0.000000000000000    0.000000000000000 
K           0.500000000000000    0.500000000000000    0.000000000000000 
K           0.735072000000000    0.250000000000000    0.720149000000000 
%ENDBLOCK POSITIONS_FRAC
