# Cell file generated by matador (Matthew Evans 2016)

%BLOCK LATTICE_CART
8.83059 0.0 0.0
0.0 9.41728 0.0
0.0 0.0 15.1807
%ENDBLOCK LATTICE_CART

%BLOCK POSITIONS_FRAC
P           0.250000000000000    0.229211000000000    0.750000000000000 
P           0.250000000000000    0.270789000000000    0.250000000000000 
P           0.250000000000000    0.729211000000000    0.750000000000000 
P           0.250000000000000    0.770789000000000    0.250000000000000 
P           0.750000000000000    0.229211000000000    0.750000000000000 
P           0.750000000000000    0.270789000000000    0.250000000000000 
P           0.750000000000000    0.729211000000000    0.750000000000000 
P           0.750000000000000    0.770789000000000    0.250000000000000 
K           0.000000000000000    0.000000000000000    0.000000000000000 
K           0.000000000000000    0.000000000000000    0.500000000000000 
K           0.000000000000000    0.001645000000000    0.697618000000000 
K           0.000000000000000    0.498355000000000    0.197618000000000 
K           0.000000000000000    0.500000000000000    0.000000000000000 
K           0.000000000000000    0.500000000000000    0.500000000000000 
K           0.000000000000000    0.501645000000000    0.802382000000000 
K           0.000000000000000    0.998355000000000    0.302382000000000 
K           0.250000000000000    0.250000000000000    0.000000000000000 
K           0.250000000000000    0.250000000000000    0.500000000000000 
K           0.250000000000000    0.750000000000000    0.000000000000000 
K           0.250000000000000    0.750000000000000    0.500000000000000 
K           0.500000000000000    0.000000000000000    0.000000000000000 
K           0.500000000000000    0.000000000000000    0.500000000000000 
K           0.500000000000000    0.001645000000000    0.802382000000000 
K           0.500000000000000    0.498355000000000    0.302382000000000 
K           0.500000000000000    0.500000000000000    0.000000000000000 
K           0.500000000000000    0.500000000000000    0.500000000000000 
K           0.500000000000000    0.501645000000000    0.697618000000000 
K           0.500000000000000    0.998355000000000    0.197618000000000 
K           0.750000000000000    0.250000000000000    0.000000000000000 
K           0.750000000000000    0.250000000000000    0.500000000000000 
K           0.750000000000000    0.750000000000000    0.000000000000000 
K           0.750000000000000    0.750000000000000    0.500000000000000 
%ENDBLOCK POSITIONS_FRAC
