# Cell file generated by matador (Matthew Evans 2016)

%BLOCK LATTICE_CART
8.02159 0.0 0.0
-4.01079 6.9469 0.0
0.0 0.0 8.54119
%ENDBLOCK LATTICE_CART

%BLOCK POSITIONS_FRAC
P           0.129594000000000    0.259189000000000    0.666667000000000 
P           0.129594000000000    0.870406000000000    0.333334000000000 
P           0.740811000000000    0.870406000000000    0.000000000000000 
K           0.266418000000000    0.133210000000000    0.500000000000000 
K           0.272182000000000    0.544365000000000    0.166667000000000 
K           0.272182000000000    0.727818000000000    0.833333000000000 
K           0.455635000000000    0.727818000000000    0.500000000000000 
K           0.543151000000000    0.271576000000000    0.000000000000000 
K           0.728424000000000    0.271576000000000    0.333334000000000 
K           0.728424000000000    0.456849000000000    0.666667000000000 
K           0.866790000000000    0.133210000000000    0.833333000000000 
K           0.866790000000000    0.733582000000000    0.166667000000000 
%ENDBLOCK POSITIONS_FRAC
