# Cell file generated by matador (Matthew Evans 2016)

%BLOCK LATTICE_CART
7.8352 0.0 0.0
0.0 9.25368 0.0
0.0 0.0 8.23147
%ENDBLOCK LATTICE_CART

%BLOCK POSITIONS_FRAC
P           0.000000000000000    0.546826000000000    0.347615000000000 
P           0.000000000000000    0.879211000000000    0.247871000000000 
P           0.500000000000000    0.120789000000000    0.747871000000000 
P           0.500000000000000    0.453174000000000    0.847615000000000 
K           0.000000000000000    0.232581000000000    0.431143000000000 
K           0.000000000000000    0.352959000000000    0.108203000000000 
K           0.000000000000000    0.366636000000000    0.751899000000000 
K           0.000000000000000    0.641541000000000    0.948344000000000 
K           0.000000000000000    0.866513000000000    0.612632000000000 
K           0.000000000000000    0.951700000000000    0.981935000000000 
K           0.500000000000000    0.048300000000000    0.481935000000000 
K           0.500000000000000    0.133487000000000    0.112632000000000 
K           0.500000000000000    0.358459000000000    0.448344000000000 
K           0.500000000000000    0.633364000000000    0.251899000000000 
K           0.500000000000000    0.647041000000000    0.608203000000000 
K           0.500000000000000    0.767419000000000    0.931143000000000 
%ENDBLOCK POSITIONS_FRAC
