# Cell file generated by matador (Matthew Evans 2016)

%BLOCK LATTICE_CART
8.57075 0.0 0.0
0.0 8.46165 0.0
0.0 0.0 7.84852
%ENDBLOCK LATTICE_CART

%BLOCK POSITIONS_FRAC
P           0.000000000000000    0.000000000000000    0.500000000000000 
P           0.000000000000000    0.500000000000000    0.000000000000000 
P           0.500000000000000    0.000000000000000    0.500000000000000 
P           0.500000000000000    0.500000000000000    0.000000000000000 
K           0.000000000000000    0.000000000000000    0.000000000000000 
K           0.000000000000000    0.500000000000000    0.500000000000000 
K           0.205526000000000    0.750000000000000    0.750000000000000 
K           0.250000000000000    0.000000000000000    0.271791000000000 
K           0.250000000000000    0.500000000000000    0.228209000000000 
K           0.294474000000000    0.250000000000000    0.750000000000000 
K           0.500000000000000    0.000000000000000    0.000000000000000 
K           0.500000000000000    0.500000000000000    0.500000000000000 
K           0.705526000000000    0.750000000000000    0.250000000000000 
K           0.750000000000000    0.000000000000000    0.728209000000000 
K           0.750000000000000    0.500000000000000    0.771791000000000 
K           0.794474000000000    0.250000000000000    0.250000000000000 
%ENDBLOCK POSITIONS_FRAC
