# Cell file generated by matador (Matthew Evans 2016)

%BLOCK LATTICE_CART
8.54471 0.0 0.0
0.0 8.54471 0.0
0.0 0.0 8.54471
%ENDBLOCK LATTICE_CART

%BLOCK POSITIONS_FRAC
P           0.000000000000000    0.000000000000000    0.000000000000000 
P           0.104202000000000    0.104202000000000    0.104202000000000 
P           0.104202000000000    0.895798000000000    0.895798000000000 
P           0.395798000000000    0.395798000000000    0.604202000000000 
P           0.395798000000000    0.604202000000000    0.395798000000000 
P           0.500000000000000    0.500000000000000    0.500000000000000 
P           0.604202000000000    0.395798000000000    0.395798000000000 
P           0.604202000000000    0.604202000000000    0.604202000000000 
P           0.895798000000000    0.104202000000000    0.895798000000000 
P           0.895798000000000    0.895798000000000    0.104202000000000 
K           0.000000000000000    0.000000000000000    0.500000000000000 
K           0.000000000000000    0.500000000000000    0.000000000000000 
K           0.000000000000000    0.500000000000000    0.500000000000000 
K           0.500000000000000    0.000000000000000    0.000000000000000 
K           0.500000000000000    0.000000000000000    0.500000000000000 
K           0.500000000000000    0.500000000000000    0.000000000000000 
%ENDBLOCK POSITIONS_FRAC
