# Cell file generated by matador (Matthew Evans 2016)

%BLOCK LATTICE_CART
6.44191 0.0 0.0
-3.22095 5.57886 0.0
0.0 0.0 9.59849
%ENDBLOCK LATTICE_CART

%BLOCK POSITIONS_FRAC
P           0.092622000000000    0.743171000000000    0.787366000000000 
P           0.256829000000000    0.349451000000000    0.787366000000000 
P           0.333333000000000    0.666667000000000    0.881139000000000 
P           0.349451000000000    0.092622000000000    0.287366000000000 
P           0.650549000000000    0.907378000000000    0.787366000000000 
P           0.666667000000000    0.333333000000000    0.381139000000000 
P           0.743171000000000    0.650549000000000    0.287366000000000 
P           0.907378000000000    0.256829000000000    0.287366000000000 
K           0.000000000000000    0.000000000000000    0.271994000000000 
K           0.000000000000000    0.000000000000000    0.771994000000000 
K           0.333333000000000    0.666667000000000    0.179250000000000 
K           0.666667000000000    0.333333000000000    0.679250000000000 
%ENDBLOCK POSITIONS_FRAC
