# Cell file generated by matador (Matthew Evans 2016)

%BLOCK LATTICE_CART
8.49813 0.0 0.0
0.0 8.49813 0.0
0.0 0.0 8.49813
%ENDBLOCK LATTICE_CART

%BLOCK POSITIONS_FRAC
P           0.000000000000000    0.000000000000000    0.000000000000000 
P           0.114123000000000    0.114123000000000    0.114123000000000 
P           0.114123000000000    0.885877000000000    0.885877000000000 
P           0.385877000000000    0.385877000000000    0.385877000000000 
P           0.385877000000000    0.614123000000000    0.614123000000000 
P           0.500000000000000    0.500000000000000    0.500000000000000 
P           0.614123000000000    0.385877000000000    0.614123000000000 
P           0.614123000000000    0.614123000000000    0.385877000000000 
P           0.885877000000000    0.114123000000000    0.885877000000000 
P           0.885877000000000    0.885877000000000    0.114123000000000 
K           0.250000000000000    0.250000000000000    0.250000000000000 
K           0.250000000000000    0.250000000000000    0.750000000000000 
K           0.250000000000000    0.750000000000000    0.250000000000000 
K           0.250000000000000    0.750000000000000    0.750000000000000 
K           0.750000000000000    0.250000000000000    0.250000000000000 
K           0.750000000000000    0.250000000000000    0.750000000000000 
K           0.750000000000000    0.750000000000000    0.250000000000000 
K           0.750000000000000    0.750000000000000    0.750000000000000 
%ENDBLOCK POSITIONS_FRAC
