# Cell file generated by matador (Matthew Evans 2016)

%BLOCK LATTICE_CART
5.60562 -0.0 0.0
-2.80281 4.85461 0.0
0.0 0.0 7.96091
%ENDBLOCK LATTICE_CART

%BLOCK POSITIONS_FRAC
P           0.000000000000000    0.000000000000000    0.611449000000000 
P           0.333333000000000    0.666667000000000    0.285899000000000 
K           0.333333000000000    0.666667000000000    0.668945000000000 
K           0.545686000000000    0.453257000000000    0.687101000000000 
K           0.546743000000000    0.092429000000000    0.687101000000000 
K           0.666667000000000    0.333333000000000    0.367739000000000 
K           0.907571000000000    0.454314000000000    0.687101000000000 
%ENDBLOCK POSITIONS_FRAC
