# Cell file generated by matador (Matthew Evans 2016)

%BLOCK LATTICE_CART
12.2304 0.0 0.0
0.0 8.94456 0.0
0.0 0.0 10.5303
%ENDBLOCK LATTICE_CART

%BLOCK POSITIONS_FRAC
P          -0.000000000000000    0.102154000000000    0.319900000000000 
P          -0.000000000000000    0.397846000000000    0.819900000000000 
P          -0.000000000000000    0.602154000000000    0.180100000000000 
P          -0.000000000000000    0.897846000000000    0.680100000000000 
P           0.500000000000000    0.102154000000000    0.180100000000000 
P           0.500000000000000    0.397846000000000    0.680100000000000 
P           0.500000000000000    0.602154000000000    0.319900000000000 
P           0.500000000000000    0.897846000000000    0.819900000000000 
K          -0.000000000000000   -0.000000000000000    0.000000000000000 
K          -0.000000000000000   -0.000000000000000    0.500000000000000 
K          -0.000000000000000    0.249465000000000    0.182525000000000 
K          -0.000000000000000    0.250535000000000    0.682525000000000 
K          -0.000000000000000    0.500000000000000    0.000000000000000 
K          -0.000000000000000    0.500000000000000    0.500000000000000 
K          -0.000000000000000    0.749465000000000    0.317475000000000 
K          -0.000000000000000    0.750535000000000    0.817475000000000 
K           0.250000000000000    0.250000000000000    0.000000000000000 
K           0.250000000000000    0.250000000000000    0.500000000000000 
K           0.250000000000000    0.750000000000000    0.000000000000000 
K           0.250000000000000    0.750000000000000    0.500000000000000 
K           0.500000000000000   -0.000000000000000    0.000000000000000 
K           0.500000000000000   -0.000000000000000    0.500000000000000 
K           0.500000000000000    0.249465000000000    0.317475000000000 
K           0.500000000000000    0.250535000000000    0.817475000000000 
K           0.500000000000000    0.500000000000000    0.000000000000000 
K           0.500000000000000    0.500000000000000    0.500000000000000 
K           0.500000000000000    0.749465000000000    0.182525000000000 
K           0.500000000000000    0.750535000000000    0.682525000000000 
K           0.750000000000000    0.250000000000000    0.000000000000000 
K           0.750000000000000    0.250000000000000    0.500000000000000 
K           0.750000000000000    0.750000000000000    0.000000000000000 
K           0.750000000000000    0.750000000000000    0.500000000000000 
%ENDBLOCK POSITIONS_FRAC
