# Cell file generated by matador (Matthew Evans 2016)

%BLOCK LATTICE_CART
2.79396 0.0 0.0
0.0 6.11795 0.0
1.23526 0.0 5.98524
%ENDBLOCK LATTICE_CART

%BLOCK POSITIONS_FRAC
P           0.320631000000000    0.000000000000000    0.796442000000000 
P           0.490238000000000    0.390091000000000    0.532651000000000 
P           0.490238000000000    0.609909000000000    0.532651000000000 
K           0.933420000000000    0.500000000000000    0.985059000000000 
%ENDBLOCK POSITIONS_FRAC
