# Cell file generated by matador (Matthew Evans 2016)

%BLOCK LATTICE_CART
7.12585 0.0 0.0
0.0 7.22896 0.0
2.36921 0.0 7.29799
%ENDBLOCK LATTICE_CART

%BLOCK POSITIONS_FRAC
P           0.057053000000000    0.992668000000000    0.921565000000000 
P           0.181819000000000    0.385784000000000    0.678307000000000 
P           0.368345000000000    0.116600000000000    0.857792000000000 
P           0.631655000000000    0.116600000000000    0.142208000000000 
P           0.818181000000000    0.385784000000000    0.321693000000000 
P           0.942947000000000    0.992668000000000    0.078435000000000 
K          -0.000000000000000    0.567046000000000    0.000000000000000 
K          -0.000000000000000    0.610559000000000    0.500000000000000 
K           0.099377000000000    0.201801000000000    0.292490000000000 
K           0.239580000000000    0.806501000000000    0.462699000000000 
K           0.500000000000000    0.664519000000000    0.500000000000000 
K           0.760420000000000    0.806501000000000    0.537301000000000 
K           0.900623000000000    0.201801000000000    0.707510000000000 
%ENDBLOCK POSITIONS_FRAC
