# Cell file generated by matador (Matthew Evans 2016)

%BLOCK LATTICE_CART
8.30863 0.0 0.0
0.0 8.5549 0.0
0.0 0.0 6.40485
%ENDBLOCK LATTICE_CART

%BLOCK POSITIONS_FRAC
P           0.250000000000000    0.250000000000000    0.444791000000000 
P           0.750000000000000    0.750000000000000    0.555209000000000 
K           0.000000000000000    0.000000000000000    0.000000000000000 
K           0.000000000000000    0.500000000000000    0.000000000000000 
K           0.055933000000000    0.750000000000000    0.781596000000000 
K           0.250000000000000    0.250000000000000    0.036915000000000 
K           0.444067000000000    0.750000000000000    0.781596000000000 
K           0.500000000000000    0.000000000000000    0.000000000000000 
K           0.500000000000000    0.500000000000000    0.000000000000000 
K           0.555933000000000    0.250000000000000    0.218404000000000 
K           0.750000000000000    0.750000000000000    0.963085000000000 
K           0.944067000000000    0.250000000000000    0.218404000000000 
%ENDBLOCK POSITIONS_FRAC
