# Cell file generated by matador (Matthew Evans 2016)

%BLOCK LATTICE_CART
5.50645 0.0 0.0
-2.75323 4.76873 0.0
0.0 0.0 13.7433
%ENDBLOCK LATTICE_CART

%BLOCK POSITIONS_FRAC
P           0.000000000000000    0.000000000000000    0.218961000000000 
P           0.000000000000000    0.000000000000000    0.339324000000000 
P           0.000000000000000    0.000000000000000    0.455878000000000 
P           0.000000000000000    0.000000000000000    0.586202000000000 
P           0.000000000000000    0.000000000000000    0.660278000000000 
P           0.000000000000000    0.000000000000000    0.851797000000000 
K           0.000000000000000    0.000000000000000    0.065544000000000 
K           0.000000000000000    0.500000000000000    0.030080000000000 
K           0.000000000000000    0.500000000000000    0.709513000000000 
K           0.333333000000000    0.666667000000000    0.475583000000000 
K           0.500000000000000    0.000000000000000    0.030080000000000 
K           0.500000000000000    0.000000000000000    0.709513000000000 
K           0.500000000000000    0.500000000000000    0.030080000000000 
K           0.500000000000000    0.500000000000000    0.709513000000000 
K           0.666667000000000    0.333333000000000    0.475583000000000 
%ENDBLOCK POSITIONS_FRAC
