# Cell file generated by matador (Matthew Evans 2016)

%BLOCK LATTICE_CART
8.36538 0.0 0.0
-4.18269 7.24463 0.0
0.0 0.0 11.4454
%ENDBLOCK LATTICE_CART

%BLOCK POSITIONS_FRAC
P          -0.000000000000000    0.500000000000000    0.000000000000000 
P          -0.000000000000000    0.500000000000000    0.500000000000000 
P           0.333333000000000    0.666667000000000    0.221980000000000 
P           0.333333000000000    0.666667000000000    0.778020000000000 
P           0.500000000000000   -0.000000000000000    0.000000000000000 
P           0.500000000000000   -0.000000000000000    0.500000000000000 
P           0.500000000000000    0.500000000000000    0.000000000000000 
P           0.500000000000000    0.500000000000000    0.500000000000000 
P           0.666667000000000    0.333333000000000    0.221980000000000 
P           0.666667000000000    0.333333000000000    0.778020000000000 
K          -0.000000000000000   -0.000000000000000    0.000000000000000 
K          -0.000000000000000   -0.000000000000000    0.500000000000000 
K          -0.000000000000000    0.233536000000000    0.285861000000000 
K          -0.000000000000000    0.766464000000000    0.714139000000000 
K           0.233536000000000   -0.000000000000000    0.285861000000000 
K           0.233536000000000    0.233536000000000    0.714139000000000 
K           0.333333000000000    0.666667000000000    0.000000000000000 
K           0.666667000000000    0.333333000000000    0.000000000000000 
K           0.766464000000000   -0.000000000000000    0.714139000000000 
K           0.766464000000000    0.766464000000000    0.285861000000000 
%ENDBLOCK POSITIONS_FRAC
