# Cell file generated by matador (Matthew Evans 2016)

%BLOCK LATTICE_CART
6.59041 0.0 0.0
0.0 6.59041 0.0
0.0 0.0 10.8598
%ENDBLOCK LATTICE_CART

%BLOCK POSITIONS_FRAC
P           0.000000000000000    0.000000000000000    0.000000000000000 
P           0.000000000000000    0.202770000000000    0.000000000000000 
P           0.000000000000000    0.303447000000000    0.500000000000000 
P           0.000000000000000    0.500000000000000    0.000000000000000 
P           0.000000000000000    0.500000000000000    0.500000000000000 
P           0.000000000000000    0.696553000000000    0.500000000000000 
P           0.000000000000000    0.797230000000000    0.000000000000000 
P           0.202770000000000    0.000000000000000    0.000000000000000 
P           0.303447000000000    0.000000000000000    0.500000000000000 
P           0.500000000000000    0.000000000000000    0.000000000000000 
P           0.500000000000000    0.000000000000000    0.500000000000000 
P           0.500000000000000    0.500000000000000    0.314374000000000 
P           0.500000000000000    0.500000000000000    0.685626000000000 
P           0.696553000000000    0.000000000000000    0.500000000000000 
P           0.797230000000000    0.000000000000000    0.000000000000000 
K           0.000000000000000    0.000000000000000    0.295347000000000 
K           0.000000000000000    0.000000000000000    0.500000000000000 
K           0.000000000000000    0.000000000000000    0.704653000000000 
K           0.500000000000000    0.500000000000000    0.000000000000000 
K           0.500000000000000    0.500000000000000    0.500000000000000 
%ENDBLOCK POSITIONS_FRAC
