# Cell file generated by matador (Matthew Evans 2016)

%BLOCK LATTICE_CART
8.02741 0.0 0.0
0.0 8.02741 0.0
0.0 0.0 8.74875
%ENDBLOCK LATTICE_CART

%BLOCK POSITIONS_FRAC
P           0.000000000000000    0.500000000000000    0.612013000000000 
P           0.073941000000000    0.228061000000000    0.083220000000000 
P           0.206731000000000    0.412744000000000    0.522415000000000 
P           0.228061000000000    0.926059000000000    0.583220000000000 
P           0.412744000000000    0.793269000000000    0.022415000000000 
P           0.500000000000000    0.000000000000000    0.112013000000000 
P           0.587256000000000    0.206731000000000    0.022415000000000 
P           0.771939000000000    0.073941000000000    0.583220000000000 
P           0.793269000000000    0.587256000000000    0.522415000000000 
P           0.926059000000000    0.771939000000000    0.083220000000000 
K           0.000000000000000    0.000000000000000    0.209435000000000 
K           0.000000000000000    0.000000000000000    0.709435000000000 
K           0.000000000000000    0.500000000000000    0.363469000000000 
K           0.230233000000000    0.670459000000000    0.587512000000000 
K           0.329541000000000    0.230233000000000    0.087512000000000 
K           0.500000000000000    0.000000000000000    0.863469000000000 
K           0.670459000000000    0.769767000000000    0.087512000000000 
K           0.769767000000000    0.329541000000000    0.587512000000000 
%ENDBLOCK POSITIONS_FRAC
