# Cell file generated by matador (Matthew Evans 2016)

%BLOCK LATTICE_CART
7.0667 0.0 0.0
-3.53335 6.11994 0.0
0.0 0.0 8.55475
%ENDBLOCK LATTICE_CART

%BLOCK POSITIONS_FRAC
P           0.333599000000000    0.291987000000000    0.171454000000000 
P           0.502830000000000    0.188204000000000    0.126511000000000 
P           0.685373000000000    0.497170000000000    0.126511000000000 
P           0.708013000000000    0.041612000000000    0.171454000000000 
P           0.811796000000000    0.314627000000000    0.126511000000000 
P           0.958388000000000    0.666401000000000    0.171454000000000 
K           0.000000000000000    0.000000000000000    0.160645000000000 
K           0.333333000000000    0.666667000000000    0.894020000000000 
K           0.398098000000000    0.393317000000000    0.845794000000000 
K           0.606683000000000    0.004781000000000    0.845794000000000 
K           0.666667000000000    0.333333000000000    0.582955000000000 
K           0.666667000000000    0.333333000000000    0.825489000000000 
K           0.995219000000000    0.601902000000000    0.845794000000000 
%ENDBLOCK POSITIONS_FRAC
