# Cell file generated by matador (Matthew Evans 2016)

%BLOCK LATTICE_CART
8.25643 0.0 0.0
-4.12822 7.15028 0.0
0.0 0.0 3.18488
%ENDBLOCK LATTICE_CART

%BLOCK POSITIONS_FRAC
P           0.193478000000000    0.386956000000000    0.500000000000000 
P           0.193478000000000    0.806522000000000    0.500000000000000 
P           0.613044000000000    0.806522000000000    0.500000000000000 
K           0.000000000000000    0.000000000000000    0.000000000000000 
K           0.333333000000000    0.666667000000000    0.500000000000000 
K           0.666667000000000    0.333333000000000    0.500000000000000 
%ENDBLOCK POSITIONS_FRAC
