# Cell file generated by matador (Matthew Evans 2016)

%BLOCK LATTICE_CART
7.90649 0.0 0.0
0.0 7.90649 0.0
0.0 0.0 5.73223
%ENDBLOCK LATTICE_CART

%BLOCK POSITIONS_FRAC
P           0.000000000000000    0.500000000000000    0.212565000000000 
P           0.000000000000000    0.500000000000000    0.787435000000000 
P           0.074236000000000    0.574236000000000    0.500000000000000 
P           0.425764000000000    0.074236000000000    0.500000000000000 
P           0.500000000000000    0.000000000000000    0.212565000000000 
P           0.500000000000000    0.000000000000000    0.787435000000000 
P           0.574236000000000    0.925764000000000    0.500000000000000 
P           0.925764000000000    0.425764000000000    0.500000000000000 
K           0.000000000000000    0.000000000000000    0.000000000000000 
K           0.192328000000000    0.307672000000000    0.000000000000000 
K           0.307672000000000    0.807672000000000    0.000000000000000 
K           0.500000000000000    0.500000000000000    0.000000000000000 
K           0.692328000000000    0.192328000000000    0.000000000000000 
K           0.807672000000000    0.692328000000000    0.000000000000000 
%ENDBLOCK POSITIONS_FRAC
