# Cell file generated by matador (Matthew Evans 2016)

%BLOCK LATTICE_CART
5.23792 0.0 0.0
0.0 5.23792 0.0
0.0 0.0 8.33233
%ENDBLOCK LATTICE_CART

%BLOCK POSITIONS_FRAC
P           0.000000000000000    0.000000000000000    0.240029000000000 
P           0.000000000000000    0.000000000000000    0.759971000000000 
P           0.198205000000000    0.198205000000000    0.500000000000000 
P           0.198205000000000    0.801795000000000    0.500000000000000 
P           0.801795000000000    0.198205000000000    0.500000000000000 
P           0.801795000000000    0.801795000000000    0.500000000000000 
K           0.000000000000000    0.000000000000000    0.000000000000000 
K           0.500000000000000    0.500000000000000    0.500000000000000 
%ENDBLOCK POSITIONS_FRAC
