# Cell file generated by matador (Matthew Evans 2016)

%BLOCK LATTICE_CART
7.20682 0.0 0.0
0.0 7.64317 0.0
1.66975 0.0 6.28781
%ENDBLOCK LATTICE_CART

%BLOCK POSITIONS_FRAC
P           0.000000000000000    0.054599000000000    0.000000000000000 
P           0.201496000000000    0.012587000000000    0.789522000000000 
P           0.227356000000000    0.867826000000000    0.132031000000000 
P           0.349334000000000    0.357530000000000    0.564674000000000 
P           0.500000000000000    0.842581000000000    0.500000000000000 
P           0.650666000000000    0.357530000000000    0.435326000000000 
P           0.772644000000000    0.867826000000000    0.867969000000000 
P           0.798504000000000    0.012587000000000    0.210478000000000 
K           0.238151000000000    0.755092000000000    0.818084000000000 
K           0.325335000000000    0.222901000000000    0.171045000000000 
K           0.674665000000000    0.222901000000000    0.828955000000000 
K           0.761849000000000    0.755092000000000    0.181916000000000 
%ENDBLOCK POSITIONS_FRAC
