# Cell file generated by matador (Matthew Evans 2016)

%BLOCK LATTICE_CART
5.75215 0.0 0.0
-2.87607 4.98151 0.0
0.0 0.0 10.7019
%ENDBLOCK LATTICE_CART

%BLOCK POSITIONS_FRAC
P           0.000000000000000    0.000000000000000    0.103857000000000 
P           0.000000000000000    0.000000000000000    0.304277000000000 
P           0.000000000000000    0.000000000000000    0.475632000000000 
P           0.000000000000000    0.000000000000000    0.730997000000000 
P           0.000000000000000    0.000000000000000    0.979128000000000 
K           0.000000000000000    0.398742000000000    0.706103000000000 
K           0.000000000000000    0.533121000000000    0.167594000000000 
K           0.398742000000000    0.000000000000000    0.706103000000000 
K           0.466879000000000    0.466879000000000    0.167594000000000 
K           0.533121000000000    0.000000000000000    0.167594000000000 
K           0.601258000000000    0.601258000000000    0.706103000000000 
%ENDBLOCK POSITIONS_FRAC
