# Cell file generated by matador (Matthew Evans 2016)

%BLOCK LATTICE_CART
7.5527 0.0 0.0
0.0 7.5527 0.0
0.0 0.0 11.5673
%ENDBLOCK LATTICE_CART

%BLOCK POSITIONS_FRAC
P          -0.000000000000000    0.500000000000000    0.000000000000000 
P          -0.000000000000000    0.500000000000000    0.500000000000000 
P           0.500000000000000   -0.000000000000000    0.000000000000000 
P           0.500000000000000   -0.000000000000000    0.500000000000000 
K          -0.000000000000000   -0.000000000000000    0.000000000000000 
K          -0.000000000000000   -0.000000000000000    0.500000000000000 
K           0.240359000000000    0.759641000000000    0.146739000000000 
K           0.240359000000000    0.759641000000000    0.853261000000000 
K           0.259641000000000    0.259641000000000    0.353261000000000 
K           0.259641000000000    0.259641000000000    0.646739000000000 
K           0.500000000000000    0.500000000000000    0.000000000000000 
K           0.500000000000000    0.500000000000000    0.500000000000000 
K           0.740359000000000    0.740359000000000    0.353261000000000 
K           0.740359000000000    0.740359000000000    0.646739000000000 
K           0.759641000000000    0.240359000000000    0.146739000000000 
K           0.759641000000000    0.240359000000000    0.853261000000000 
%ENDBLOCK POSITIONS_FRAC
