# Cell file generated by matador (Matthew Evans 2016)

%BLOCK LATTICE_CART
7.67703 0.0 0.0
-3.83851 6.6485 0.0
0.0 0.0 6.55031
%ENDBLOCK LATTICE_CART

%BLOCK POSITIONS_FRAC
P           0.666667000000000    0.333333000000000    0.189890000000000 
P           0.666667000000000    0.333333000000000    0.810110000000000 
K           0.393296000000000    0.070996000000000    0.500000000000000 
K           0.516291000000000    0.428508000000000    0.000000000000000 
K           0.571492000000000    0.087783000000000    0.000000000000000 
K           0.666667000000000    0.333333000000000    0.500000000000000 
K           0.677700000000000    0.606704000000000    0.500000000000000 
K           0.912217000000000    0.483709000000000    0.000000000000000 
K           0.929004000000000    0.322300000000000    0.500000000000000 
%ENDBLOCK POSITIONS_FRAC
