# Cell file generated by matador (Matthew Evans 2016)

%BLOCK LATTICE_CART
7.42548 0.0 0.0
-3.71274 6.43066 0.0
0.0 0.0 8.63743
%ENDBLOCK LATTICE_CART

%BLOCK POSITIONS_FRAC
P           0.000000000000000    0.000000000000000    0.254993000000000 
P           0.000000000000000    0.000000000000000    0.745007000000000 
P           0.333333000000000    0.666667000000000    0.411674000000000 
P           0.333333000000000    0.666667000000000    0.921660000000000 
P           0.666667000000000    0.333333000000000    0.078340000000000 
P           0.666667000000000    0.333333000000000    0.588326000000000 
K           0.000000000000000    0.000000000000000   -0.000000000000000 
K           0.000000000000000    0.000000000000000    0.500000000000000 
K           0.333333000000000    0.666667000000000    0.166667000000000 
K           0.333333000000000    0.666667000000000    0.666667000000000 
K           0.666667000000000    0.333333000000000    0.333333000000000 
K           0.666667000000000    0.333333000000000    0.833333000000000 
%ENDBLOCK POSITIONS_FRAC
