# Cell file generated by matador (Matthew Evans 2016)

%BLOCK LATTICE_CART
8.38056 0.0 0.0
-4.19028 7.25778 0.0
0.0 0.0 6.16824
%ENDBLOCK LATTICE_CART

%BLOCK POSITIONS_FRAC
P           0.029643000000000    0.751259000000000    0.745149000000000 
P           0.248741000000000    0.278384000000000    0.745149000000000 
P           0.278384000000000    0.029643000000000    0.745149000000000 
P           0.721616000000000    0.970357000000000    0.745149000000000 
P           0.751259000000000    0.721616000000000    0.745149000000000 
P           0.970357000000000    0.248741000000000    0.745149000000000 
K           0.000000000000000    0.500000000000000    0.423202000000000 
K           0.333333000000000    0.666667000000000    0.910198000000000 
K           0.500000000000000    0.000000000000000    0.423202000000000 
K           0.500000000000000    0.500000000000000    0.423202000000000 
K           0.666667000000000    0.333333000000000    0.910198000000000 
%ENDBLOCK POSITIONS_FRAC
