# Cell file generated by matador (Matthew Evans 2016)

%BLOCK LATTICE_CART
9.42291 0.0 0.0
0.0 8.78235 0.0
0.0 0.0 9.42999
%ENDBLOCK LATTICE_CART

%BLOCK POSITIONS_FRAC
P           0.000000000000000    0.000000000000000    0.500000000000000 
P           0.000000000000000    0.500000000000000    0.000000000000000 
P           0.000000000000000    0.500000000000000    0.303925000000000 
P           0.000000000000000    0.500000000000000    0.500000000000000 
P           0.000000000000000    0.500000000000000    0.696075000000000 
P           0.156293000000000    0.500000000000000    0.000000000000000 
P           0.343707000000000    0.000000000000000    0.000000000000000 
P           0.500000000000000    0.000000000000000    0.000000000000000 
P           0.500000000000000    0.000000000000000    0.303925000000000 
P           0.500000000000000    0.000000000000000    0.500000000000000 
P           0.500000000000000    0.000000000000000    0.696075000000000 
P           0.500000000000000    0.500000000000000    0.500000000000000 
P           0.656293000000000    0.000000000000000    0.000000000000000 
P           0.843707000000000    0.500000000000000    0.000000000000000 
K           0.000000000000000    0.000000000000000    0.000000000000000 
K           0.250000000000000    0.250000000000000    0.500000000000000 
K           0.250000000000000    0.750000000000000    0.500000000000000 
K           0.500000000000000    0.500000000000000    0.000000000000000 
K           0.750000000000000    0.250000000000000    0.500000000000000 
K           0.750000000000000    0.750000000000000    0.500000000000000 
%ENDBLOCK POSITIONS_FRAC
