# Cell file generated by matador (Matthew Evans 2016)

%BLOCK LATTICE_CART
6.2254 0.0 0.0
2.8579 5.30968 0.0
3.19297 0.180546 8.01794
%ENDBLOCK LATTICE_CART

%BLOCK POSITIONS_FRAC
P           0.000000000000000    0.500000000000000    0.000000000000000 
P           0.007467000000000    0.704285000000000    0.921811000000000 
P           0.066127000000000    0.178822000000000    0.266116000000000 
P           0.339247000000000    0.120588000000000    0.793108000000000 
P           0.660753000000000    0.879412000000000    0.206892000000000 
P           0.933873000000000    0.821178000000000    0.733884000000000 
P           0.992533000000000    0.295715000000000    0.078189000000000 
K           0.000000000000000    0.000000000000000    0.000000000000000 
K           0.000000000000000    0.000000000000000    0.500000000000000 
K           0.500000000000000    0.000000000000000    0.000000000000000 
K           0.500000000000000    0.500000000000000    0.500000000000000 
%ENDBLOCK POSITIONS_FRAC
