# Cell file generated by matador (Matthew Evans 2016)

%BLOCK LATTICE_CART
3.9457 0.0 0.0
-2.19523 6.51326 0.0
-0.607794 -1.17465 5.04954
%ENDBLOCK LATTICE_CART

%BLOCK POSITIONS_FRAC
P           0.000000000000000    0.000000000000000    0.000000000000000 
P           0.325603000000000    0.014349000000000    0.435554000000000 
P           0.500000000000000    0.000000000000000    0.000000000000000 
P           0.500000000000000    0.500000000000000    0.500000000000000 
P           0.674397000000000    0.985651000000000    0.564446000000000 
K           0.500000000000000    0.500000000000000    0.000000000000000 
%ENDBLOCK POSITIONS_FRAC
