# Cell file generated by matador (Matthew Evans 2016)

%BLOCK LATTICE_CART
8.99827 0.0 0.0
-4.49913 7.79273 0.0
0.0 0.0 7.33518
%ENDBLOCK LATTICE_CART

%BLOCK POSITIONS_FRAC
P           0.000000000000000   -0.000000000000000    0.000000000000000 
P           0.000000000000000   -0.000000000000000    0.334846000000000 
P           0.000000000000000   -0.000000000000000    0.665154000000000 
P           0.000000000000000    0.500000000000000    0.000000000000000 
P           0.333333000000000    0.666667000000000    0.089809000000000 
P           0.333333000000000    0.666667000000000    0.256652000000000 
P           0.333333000000000    0.666667000000000    0.921887000000000 
P           0.500000000000000   -0.000000000000000    0.000000000000000 
P           0.500000000000000    0.500000000000000    0.000000000000000 
P           0.666667000000000    0.333333000000000    0.078113000000000 
P           0.666667000000000    0.333333000000000    0.743348000000000 
P           0.666667000000000    0.333333000000000    0.910191000000000 
K           0.000000000000000    0.500000000000000    0.500000000000000 
K           0.500000000000000   -0.000000000000000    0.500000000000000 
K           0.500000000000000    0.500000000000000    0.500000000000000 
%ENDBLOCK POSITIONS_FRAC
