# Cell file generated by matador (Matthew Evans 2016)

%BLOCK LATTICE_CART
10.0437 0.0 0.0
-5.02184 8.69808 0.0
0.0 0.0 13.9764
%ENDBLOCK LATTICE_CART

%BLOCK POSITIONS_FRAC
P           0.000000000000000    0.000000000000000    0.088919000000000 
P           0.000000000000000    0.000000000000000    0.411081000000000 
P           0.000000000000000    0.000000000000000    0.588919000000000 
P           0.000000000000000    0.000000000000000    0.911081000000000 
P           0.333333000000000    0.666667000000000    0.039712000000000 
P           0.333333000000000    0.666667000000000    0.460288000000000 
P           0.666667000000000    0.333333000000000    0.539712000000000 
P           0.666667000000000    0.333333000000000    0.960288000000000 
K           0.000000000000000    0.000000000000000    0.250000000000000 
K           0.000000000000000    0.000000000000000    0.750000000000000 
K           0.000000000000000    0.500000000000000    0.000000000000000 
K           0.000000000000000    0.500000000000000    0.500000000000000 
K           0.027950000000000    0.641682000000000    0.750000000000000 
K           0.081684000000000    0.752075000000000    0.250000000000000 
K           0.247925000000000    0.329609000000000    0.250000000000000 
K           0.329609000000000    0.081684000000000    0.750000000000000 
K           0.333333000000000    0.666667000000000    0.250000000000000 
K           0.333333000000000    0.666667000000000    0.750000000000000 
K           0.358318000000000    0.386268000000000    0.750000000000000 
K           0.386268000000000    0.027950000000000    0.250000000000000 
K           0.500000000000000    0.000000000000000    0.000000000000000 
K           0.500000000000000    0.000000000000000    0.500000000000000 
K           0.500000000000000    0.500000000000000    0.000000000000000 
K           0.500000000000000    0.500000000000000    0.500000000000000 
K           0.613732000000000    0.972050000000000    0.750000000000000 
K           0.641682000000000    0.613732000000000    0.250000000000000 
K           0.666667000000000    0.333333000000000    0.250000000000000 
K           0.666667000000000    0.333333000000000    0.750000000000000 
K           0.670391000000000    0.918316000000000    0.250000000000000 
K           0.752075000000000    0.670391000000000    0.750000000000000 
K           0.918316000000000    0.247925000000000    0.750000000000000 
K           0.972050000000000    0.358318000000000    0.250000000000000 
%ENDBLOCK POSITIONS_FRAC
