# Cell file generated by matador (Matthew Evans 2016)

%BLOCK LATTICE_CART
8.85775 0.0 0.0
0.0 9.30495 0.0
0.0 0.0 7.36505
%ENDBLOCK LATTICE_CART

%BLOCK POSITIONS_FRAC
P           0.000758000000000    0.653020000000000    0.076012000000000 
P           0.012205000000000    0.090970000000000    0.123510000000000 
P           0.487795000000000    0.090970000000000    0.123510000000000 
P           0.499242000000000    0.653020000000000    0.076012000000000 
P           0.500758000000000    0.346980000000000    0.076012000000000 
P           0.512205000000000    0.909030000000000    0.123510000000000 
P           0.987795000000000    0.909030000000000    0.123510000000000 
P           0.999242000000000    0.346980000000000    0.076012000000000 
K           0.000000000000000    0.500000000000000    0.310375000000000 
K           0.011914000000000    0.739746000000000    0.827277000000000 
K           0.076215000000000    0.586022000000000    0.546561000000000 
K           0.250000000000000    0.413213000000000    0.920315000000000 
K           0.423785000000000    0.586022000000000    0.546561000000000 
K           0.488086000000000    0.739746000000000    0.827277000000000 
K           0.500000000000000    0.500000000000000    0.310375000000000 
K           0.511914000000000    0.260254000000000    0.827277000000000 
K           0.576215000000000    0.413978000000000    0.546561000000000 
K           0.750000000000000    0.586787000000000    0.920315000000000 
K           0.923785000000000    0.413978000000000    0.546561000000000 
K           0.988086000000000    0.260254000000000    0.827277000000000 
%ENDBLOCK POSITIONS_FRAC
