# Cell file generated by matador (Matthew Evans 2016)

%BLOCK LATTICE_CART
7.54164 0.0 0.0
0.0 7.54164 0.0
0.0 0.0 4.86852
%ENDBLOCK LATTICE_CART

%BLOCK POSITIONS_FRAC
P           0.220310000000000    0.684968000000000    0.289789000000000 
P           0.220310000000000    0.684968000000000    0.710211000000000 
P           0.315032000000000    0.220310000000000    0.210211000000000 
P           0.315032000000000    0.220310000000000    0.789789000000000 
P           0.684968000000000    0.779690000000000    0.210211000000000 
P           0.684968000000000    0.779690000000000    0.789789000000000 
P           0.779690000000000    0.315032000000000    0.289789000000000 
P           0.779690000000000    0.315032000000000    0.710211000000000 
K           0.000000000000000    0.000000000000000    0.000000000000000 
K           0.000000000000000    0.000000000000000    0.500000000000000 
%ENDBLOCK POSITIONS_FRAC
