# Cell file generated by matador (Matthew Evans 2016)

%BLOCK LATTICE_CART
7.25752 0.0 0.0
0.0 7.25752 0.0
0.0 0.0 6.5902
%ENDBLOCK LATTICE_CART

%BLOCK POSITIONS_FRAC
P           0.000000000000000    0.000000000000000    0.500000000000000 
P           0.500000000000000    0.500000000000000    0.000000000000000 
P           0.500000000000000    0.500000000000000    0.187882000000000 
P           0.500000000000000    0.500000000000000    0.812118000000000 
K           0.000000000000000    0.000000000000000    0.000000000000000 
K           0.030868000000000    0.297560000000000    0.500000000000000 
K           0.297560000000000    0.969132000000000    0.500000000000000 
K           0.500000000000000    0.500000000000000    0.500000000000000 
K           0.702440000000000    0.030868000000000    0.500000000000000 
K           0.969132000000000    0.702440000000000    0.500000000000000 
%ENDBLOCK POSITIONS_FRAC
