# Cell file generated by matador (Matthew Evans 2016)

%BLOCK LATTICE_CART
7.2229 0.0 0.0
-3.61145 6.25521 0.0
0.0 0.0 7.13721
%ENDBLOCK LATTICE_CART

%BLOCK POSITIONS_FRAC
P           0.000000000000000    0.000000000000000    0.000000000000000 
P           0.218765000000000    0.609382000000000    0.000000000000000 
P           0.390618000000000    0.609382000000000    0.000000000000000 
P           0.390618000000000    0.781235000000000    0.000000000000000 
P           0.609382000000000    0.218765000000000    0.000000000000000 
P           0.609382000000000    0.390618000000000    0.000000000000000 
P           0.781235000000000    0.390618000000000    0.000000000000000 
K           0.000000000000000    0.000000000000000    0.500000000000000 
K           0.000000000000000    0.500000000000000    0.500000000000000 
K           0.500000000000000    0.000000000000000    0.500000000000000 
K           0.500000000000000    0.500000000000000    0.500000000000000 
%ENDBLOCK POSITIONS_FRAC
