# Cell file generated by matador (Matthew Evans 2016)

%BLOCK LATTICE_CART
5.12484 0.0 0.0
3.5969 8.33834 0.0
1.78435 -3.12487 5.85664
%ENDBLOCK LATTICE_CART

%BLOCK POSITIONS_FRAC
P           0.000000000000000    0.000000000000000    0.000000000000000 
P           0.000000000000000    0.500000000000000    0.000000000000000 
P           0.249318000000000    0.539793000000000    0.809715000000000 
P           0.475731000000000    0.558350000000000    0.812743000000000 
P           0.500000000000000    0.500000000000000    0.000000000000000 
P           0.524269000000000    0.441650000000000    0.187257000000000 
P           0.750682000000000    0.460207000000000    0.190285000000000 
K           0.500000000000000    0.000000000000000    0.000000000000000 
K           0.500000000000000    0.500000000000000    0.500000000000000 
%ENDBLOCK POSITIONS_FRAC
