# Cell file generated by matador (Matthew Evans 2016)

%BLOCK LATTICE_CART
10.2276 0.0 0.0
0.0 4.61815 0.0
0.0 0.0 7.59575
%ENDBLOCK LATTICE_CART

%BLOCK POSITIONS_FRAC
P           0.000000000000000    0.000000000000000    0.132178000000000 
P           0.000000000000000    0.000000000000000    0.619570000000000 
P           0.000000000000000    0.000000000000000    0.970969000000000 
P           0.000000000000000    0.500000000000000    0.119570000000000 
P           0.000000000000000    0.500000000000000    0.470969000000000 
P           0.000000000000000    0.500000000000000    0.632178000000000 
P           0.258189000000000    0.642384000000000    0.318061000000000 
P           0.258189000000000    0.857616000000000    0.818061000000000 
P           0.500000000000000    0.000000000000000    0.077700000000000 
P           0.500000000000000    0.000000000000000    0.298216000000000 
P           0.500000000000000    0.500000000000000    0.577700000000000 
P           0.500000000000000    0.500000000000000    0.798216000000000 
P           0.741811000000000    0.142384000000000    0.818061000000000 
P           0.741811000000000    0.357616000000000    0.318061000000000 
K           0.164233000000000    0.168961000000000    0.236866000000000 
K           0.164233000000000    0.331039000000000    0.736866000000000 
K           0.835767000000000    0.668961000000000    0.736866000000000 
K           0.835767000000000    0.831039000000000    0.236866000000000 
%ENDBLOCK POSITIONS_FRAC
