# Cell file generated by matador (Matthew Evans 2016)

%BLOCK LATTICE_CART
11.0067 0.0 0.0
-5.50333 9.53204 0.0
0.0 0.0 12.1195
%ENDBLOCK LATTICE_CART

%BLOCK POSITIONS_FRAC
P           0.000000000000000    0.000000000000000    0.182528000000000 
P           0.000000000000000    0.000000000000000    0.682528000000000 
P           0.208740000000000    0.417480000000000    0.119909000000000 
P           0.208740000000000    0.791260000000000    0.119909000000000 
P           0.417480000000000    0.208740000000000    0.619909000000000 
P           0.582520000000000    0.791260000000000    0.119909000000000 
P           0.791260000000000    0.208740000000000    0.619909000000000 
P           0.791260000000000    0.582520000000000    0.619909000000000 
K           0.082542000000000    0.541271000000000    0.031781000000000 
K           0.133603000000000    0.267206000000000    0.329589000000000 
K           0.133603000000000    0.866397000000000    0.329589000000000 
K           0.147568000000000    0.573784000000000    0.706043000000000 
K           0.164650000000000    0.329299000000000    0.959113000000000 
K           0.164650000000000    0.835350000000000    0.959113000000000 
K           0.267206000000000    0.133603000000000    0.829589000000000 
K           0.329299000000000    0.164650000000000    0.459113000000000 
K           0.426216000000000    0.573784000000000    0.706043000000000 
K           0.426216000000000    0.852432000000000    0.706043000000000 
K           0.458729000000000    0.541271000000000    0.031781000000000 
K           0.458729000000000    0.917458000000000    0.031781000000000 
K           0.541271000000000    0.082542000000000    0.531781000000000 
K           0.541271000000000    0.458729000000000    0.531781000000000 
K           0.573784000000000    0.147568000000000    0.206043000000000 
K           0.573784000000000    0.426216000000000    0.206043000000000 
K           0.670701000000000    0.835350000000000    0.959113000000000 
K           0.732794000000000    0.866397000000000    0.329589000000000 
K           0.835350000000000    0.164650000000000    0.459113000000000 
K           0.835350000000000    0.670701000000000    0.459113000000000 
K           0.852432000000000    0.426216000000000    0.206043000000000 
K           0.866397000000000    0.133603000000000    0.829589000000000 
K           0.866397000000000    0.732794000000000    0.829589000000000 
K           0.917458000000000    0.458729000000000    0.531781000000000 
%ENDBLOCK POSITIONS_FRAC
