# Cell file generated by matador (Matthew Evans 2016)

%BLOCK LATTICE_CART
8.83346 0.0 0.0
0.0 8.83346 0.0
0.0 0.0 8.74639
%ENDBLOCK LATTICE_CART

%BLOCK POSITIONS_FRAC
P           0.000000000000000    0.500000000000000    0.000000000000000 
P           0.000000000000000    0.500000000000000    0.500000000000000 
P           0.500000000000000    0.000000000000000    0.000000000000000 
P           0.500000000000000    0.000000000000000    0.500000000000000 
K           0.000000000000000    0.000000000000000    0.000000000000000 
K           0.000000000000000    0.000000000000000    0.500000000000000 
K           0.237775000000000    0.237775000000000    0.951904000000000 
K           0.237775000000000    0.762225000000000    0.048096000000000 
K           0.262225000000000    0.262225000000000    0.451904000000000 
K           0.262225000000000    0.737775000000000    0.548096000000000 
K           0.500000000000000    0.500000000000000    0.000000000000000 
K           0.500000000000000    0.500000000000000    0.500000000000000 
K           0.737775000000000    0.262225000000000    0.548096000000000 
K           0.737775000000000    0.737775000000000    0.451904000000000 
K           0.762225000000000    0.237775000000000    0.048096000000000 
K           0.762225000000000    0.762225000000000    0.951904000000000 
%ENDBLOCK POSITIONS_FRAC
