# Cell file generated by matador (Matthew Evans 2016)

%BLOCK LATTICE_CART
5.59151 0.0 0.0
-2.79575 4.84239 0.0
0.0 0.0 9.9451
%ENDBLOCK LATTICE_CART

%BLOCK POSITIONS_FRAC
P           0.173767000000000    0.459924000000000    0.791858000000000 
P           0.286156000000000    0.826233000000000    0.791858000000000 
P           0.333333000000000    0.666667000000000    0.432769000000000 
P           0.459924000000000    0.286156000000000    0.208142000000000 
P           0.540076000000000    0.713844000000000    0.791858000000000 
P           0.666667000000000    0.333333000000000    0.567231000000000 
P           0.713844000000000    0.173767000000000    0.208142000000000 
P           0.826233000000000    0.540076000000000    0.208142000000000 
K           0.000000000000000    0.000000000000000    0.000000000000000 
K           0.000000000000000    0.000000000000000    0.500000000000000 
%ENDBLOCK POSITIONS_FRAC
