# Cell file generated by matador (Matthew Evans 2016)

%BLOCK LATTICE_CART
8.59725 0.0 0.0
0.0 7.16983 0.0
0.0 0.0 6.40608
%ENDBLOCK LATTICE_CART

%BLOCK POSITIONS_FRAC
P           0.000000000000000    0.313231000000000    0.822132000000000 
P           0.000000000000000    0.398446000000000    0.625921000000000 
P           0.000000000000000    0.601554000000000    0.625921000000000 
P           0.000000000000000    0.686769000000000    0.822132000000000 
P           0.088051000000000    0.000000000000000    0.119472000000000 
P           0.411949000000000    0.500000000000000    0.119472000000000 
P           0.500000000000000    0.101554000000000    0.625921000000000 
P           0.500000000000000    0.186769000000000    0.822132000000000 
P           0.500000000000000    0.813231000000000    0.822132000000000 
P           0.500000000000000    0.898446000000000    0.625921000000000 
P           0.588051000000000    0.500000000000000    0.119472000000000 
P           0.911949000000000    0.000000000000000    0.119472000000000 
K           0.000000000000000    0.000000000000000    0.783682000000000 
K           0.500000000000000    0.500000000000000    0.783682000000000 
%ENDBLOCK POSITIONS_FRAC
