# Cell file generated by matador (Matthew Evans 2016)

%BLOCK LATTICE_CART
8.57887 0.0 0.0
0.0 6.67612 0.0
0.0 0.0 6.72649
%ENDBLOCK LATTICE_CART

%BLOCK POSITIONS_FRAC
P           0.129131000000000    0.259402000000000    0.759913000000000 
P           0.129131000000000    0.740598000000000    0.240087000000000 
P           0.158829000000000    0.000000000000000    0.000000000000000 
P           0.341171000000000    0.000000000000000    0.500000000000000 
P           0.370869000000000    0.259402000000000    0.740087000000000 
P           0.370869000000000    0.740598000000000    0.259913000000000 
P           0.629131000000000    0.259402000000000    0.740087000000000 
P           0.629131000000000    0.740598000000000    0.259913000000000 
P           0.658829000000000    0.000000000000000    0.500000000000000 
P           0.841171000000000    0.000000000000000    0.000000000000000 
P           0.870869000000000    0.259402000000000    0.759913000000000 
P           0.870869000000000    0.740598000000000    0.240087000000000 
K           0.000000000000000    0.000000000000000    0.500000000000000 
K           0.500000000000000    0.000000000000000    0.000000000000000 
%ENDBLOCK POSITIONS_FRAC
