# Cell file generated by matador (Matthew Evans 2016)

%BLOCK LATTICE_CART
6.01149 0.0 0.0
0.0 6.01149 0.0
0.0 0.0 7.7731
%ENDBLOCK LATTICE_CART

%BLOCK POSITIONS_FRAC
P           0.000000000000000    0.000000000000000    0.798923000000000 
P           0.500000000000000    0.500000000000000    0.169206000000000 
K           0.000000000000000    0.500000000000000    0.815318000000000 
K           0.256833000000000    0.256833000000000    0.279235000000000 
K           0.256833000000000    0.743167000000000    0.279235000000000 
K           0.500000000000000    0.000000000000000    0.815318000000000 
K           0.743167000000000    0.256833000000000    0.279235000000000 
K           0.743167000000000    0.743167000000000    0.279235000000000 
%ENDBLOCK POSITIONS_FRAC
