# Cell file generated by matador (Matthew Evans 2016)

%BLOCK LATTICE_CART
9.31509 0.0 0.0
-4.65755 8.06711 0.0
0.0 0.0 11.4245
%ENDBLOCK LATTICE_CART

%BLOCK POSITIONS_FRAC
P          -0.000000000000000   -0.000000000000000    0.482446000000000 
P          -0.000000000000000   -0.000000000000000    0.758329000000000 
P           0.333333000000000    0.666667000000000    0.149112000000000 
P           0.333333000000000    0.666667000000000    0.424995000000000 
P           0.666667000000000    0.333333000000000    0.091662000000000 
P           0.666667000000000    0.333333000000000    0.815779000000000 
K           0.055283000000000    0.527642000000000    0.365305000000000 
K           0.139025000000000    0.278050000000000    0.698638000000000 
K           0.139025000000000    0.860975000000000    0.698638000000000 
K           0.197068000000000    0.394135000000000    0.080228000000000 
K           0.197068000000000    0.802932000000000    0.080228000000000 
K           0.272532000000000    0.136266000000000    0.413561000000000 
K           0.388617000000000    0.194308000000000    0.031972000000000 
K           0.472358000000000    0.527642000000000    0.365305000000000 
K           0.472358000000000    0.944717000000000    0.365305000000000 
K           0.530401000000000    0.060802000000000    0.746895000000000 
K           0.530401000000000    0.469599000000000    0.746895000000000 
K           0.605865000000000    0.802932000000000    0.080228000000000 
K           0.721950000000000    0.860975000000000    0.698638000000000 
K           0.805692000000000    0.194308000000000    0.031972000000000 
K           0.805692000000000    0.611383000000000    0.031972000000000 
K           0.863734000000000    0.136266000000000    0.413561000000000 
K           0.863734000000000    0.727468000000000    0.413561000000000 
K           0.939198000000000    0.469599000000000    0.746895000000000 
%ENDBLOCK POSITIONS_FRAC
