# Cell file generated by matador (Matthew Evans 2016)

%BLOCK LATTICE_CART
9.7008 0.0 0.0
0.0 9.7008 0.0
0.0 0.0 8.3282
%ENDBLOCK LATTICE_CART

%BLOCK POSITIONS_FRAC
P           0.000000000000000    0.000000000000000    0.500000000000000 
P           0.000000000000000    0.500000000000000    0.000000000000000 
P           0.000000000000000    0.500000000000000    0.500000000000000 
P           0.198433000000000    0.698433000000000    0.062146000000000 
P           0.198433000000000    0.698433000000000    0.937854000000000 
P           0.301567000000000    0.198433000000000    0.062146000000000 
P           0.301567000000000    0.198433000000000    0.937854000000000 
P           0.500000000000000    0.000000000000000    0.000000000000000 
P           0.500000000000000    0.000000000000000    0.500000000000000 
P           0.500000000000000    0.500000000000000    0.500000000000000 
P           0.698433000000000    0.801567000000000    0.062146000000000 
P           0.698433000000000    0.801567000000000    0.937854000000000 
P           0.801567000000000    0.301567000000000    0.062146000000000 
P           0.801567000000000    0.301567000000000    0.937854000000000 
K           0.000000000000000    0.000000000000000    0.000000000000000 
K           0.249283000000000    0.749283000000000    0.500000000000000 
K           0.250717000000000    0.249283000000000    0.500000000000000 
K           0.500000000000000    0.500000000000000    0.000000000000000 
K           0.749283000000000    0.750717000000000    0.500000000000000 
K           0.750717000000000    0.250717000000000    0.500000000000000 
%ENDBLOCK POSITIONS_FRAC
