# Cell file generated by matador (Matthew Evans 2016)

%BLOCK LATTICE_CART
6.01485 0.0 0.0
-3.00742 5.20901 0.0
0.0 0.0 10.1326
%ENDBLOCK LATTICE_CART

%BLOCK POSITIONS_FRAC
P          -0.000000000000000    0.000000000000000    0.096008000000000 
P           0.333333000000000    0.666667000000000    0.762674000000000 
P           0.666667000000000    0.333333000000000    0.429341000000000 
K           0.185885000000000    0.371770000000000    0.566610000000000 
K           0.185885000000000    0.814115000000000    0.566610000000000 
K           0.294897000000000    0.147448000000000    0.899943000000000 
K           0.519218000000000    0.038436000000000    0.233276000000000 
K           0.519218000000000    0.480782000000000    0.233276000000000 
K           0.628230000000000    0.814115000000000    0.566610000000000 
K           0.852552000000000    0.147448000000000    0.899943000000000 
K           0.852552000000000    0.705103000000000    0.899943000000000 
K           0.961564000000000    0.480782000000000    0.233276000000000 
%ENDBLOCK POSITIONS_FRAC
