# Cell file generated by matador (Matthew Evans 2016)

%BLOCK LATTICE_CART
6.3786 0.0 0.0
-3.1893 5.52403 0.0
0.0 0.0 8.71225
%ENDBLOCK LATTICE_CART

%BLOCK POSITIONS_FRAC
P           0.000000000000000    0.000000000000000    0.218944000000000 
P           0.073320000000000    0.410031000000000    0.879612000000000 
P           0.191894000000000    0.394196000000000    0.748490000000000 
P           0.202302000000000    0.808106000000000    0.748490000000000 
P           0.336711000000000    0.926680000000000    0.879612000000000 
P           0.589969000000000    0.663289000000000    0.879612000000000 
P           0.605804000000000    0.797698000000000    0.748490000000000 
K           0.000000000000000    0.000000000000000    0.547421000000000 
K           0.086383000000000    0.685099000000000    0.359604000000000 
K           0.314901000000000    0.401284000000000    0.359604000000000 
K           0.598716000000000    0.913617000000000    0.359604000000000 
K           0.666667000000000    0.333333000000000    0.095947000000000 
K           0.666667000000000    0.333333000000000    0.382630000000000 
%ENDBLOCK POSITIONS_FRAC
