# Cell file generated by matador (Matthew Evans 2016)

%BLOCK LATTICE_CART
13.0764 0.0 0.0
0.0 8.39223 0.0
0.0 0.0 11.9614
%ENDBLOCK LATTICE_CART

%BLOCK POSITIONS_FRAC
P           0.250000000000000    0.242803000000000    0.250000000000000 
P           0.250000000000000    0.257197000000000    0.750000000000000 
P           0.250000000000000    0.742803000000000    0.250000000000000 
P           0.250000000000000    0.757197000000000    0.750000000000000 
P           0.750000000000000    0.242803000000000    0.250000000000000 
P           0.750000000000000    0.257197000000000    0.750000000000000 
P           0.750000000000000    0.742803000000000    0.250000000000000 
P           0.750000000000000    0.757197000000000    0.750000000000000 
K           0.000000000000000    0.176423000000000    0.836986000000000 
K           0.000000000000000    0.183420000000000    0.104360000000000 
K           0.000000000000000    0.316580000000000    0.604360000000000 
K           0.000000000000000    0.323577000000000    0.336986000000000 
K           0.000000000000000    0.676423000000000    0.663014000000000 
K           0.000000000000000    0.683420000000000    0.395640000000000 
K           0.000000000000000    0.816580000000000    0.895640000000000 
K           0.000000000000000    0.823577000000000    0.163014000000000 
K           0.250000000000000    0.250000000000000    0.000000000000000 
K           0.250000000000000    0.250000000000000    0.500000000000000 
K           0.250000000000000    0.750000000000000    0.000000000000000 
K           0.250000000000000    0.750000000000000    0.500000000000000 
K           0.500000000000000    0.176423000000000    0.663014000000000 
K           0.500000000000000    0.183420000000000    0.395640000000000 
K           0.500000000000000    0.316580000000000    0.895640000000000 
K           0.500000000000000    0.323577000000000    0.163014000000000 
K           0.500000000000000    0.676423000000000    0.836986000000000 
K           0.500000000000000    0.683420000000000    0.104360000000000 
K           0.500000000000000    0.816580000000000    0.604360000000000 
K           0.500000000000000    0.823577000000000    0.336986000000000 
K           0.750000000000000    0.250000000000000    0.000000000000000 
K           0.750000000000000    0.250000000000000    0.500000000000000 
K           0.750000000000000    0.750000000000000    0.000000000000000 
K           0.750000000000000    0.750000000000000    0.500000000000000 
%ENDBLOCK POSITIONS_FRAC
