# Cell file generated by matador (Matthew Evans 2016)

%BLOCK LATTICE_CART
7.14439 0.0 0.0
0.0 6.17912 0.0
0.0 0.0 6.40091
%ENDBLOCK LATTICE_CART

%BLOCK POSITIONS_FRAC
P          -0.000000000000000    0.179346000000000    0.422627000000000 
P          -0.000000000000000    0.820654000000000    0.422627000000000 
P           0.237840000000000   -0.000000000000000    0.009100000000000 
P           0.262160000000000    0.500000000000000    0.509100000000000 
P           0.500000000000000    0.320654000000000    0.922627000000000 
P           0.500000000000000    0.679346000000000    0.922627000000000 
P           0.737840000000000    0.500000000000000    0.509100000000000 
P           0.762160000000000   -0.000000000000000    0.009100000000000 
K          -0.000000000000000   -0.000000000000000    0.688242000000000 
K           0.500000000000000    0.500000000000000    0.188242000000000 
%ENDBLOCK POSITIONS_FRAC
