# Cell file generated by matador (Matthew Evans 2016)

%BLOCK LATTICE_CART
7.90742 0.0 0.0
-3.95371 6.84803 0.0
0.0 0.0 6.24136
%ENDBLOCK LATTICE_CART

%BLOCK POSITIONS_FRAC
P           0.333333000000000    0.666667000000000    0.780204000000000 
P           0.521798000000000    0.260900000000000    0.277856000000000 
P           0.739100000000000    0.260900000000000    0.277856000000000 
P           0.739100000000000    0.478202000000000    0.277856000000000 
K           0.113011000000000    0.556506000000000    0.496420000000000 
K           0.443494000000000    0.556506000000000    0.496420000000000 
K           0.443494000000000    0.886989000000000    0.496420000000000 
K           0.458818000000000    0.229409000000000    0.897995000000000 
K           0.666666000000000    0.333334000000000    0.635320000000000 
K           0.770591000000000    0.229409000000000    0.897995000000000 
K           0.770591000000000    0.541182000000000    0.897995000000000 
%ENDBLOCK POSITIONS_FRAC
