# Cell file generated by matador (Matthew Evans 2016)

%BLOCK LATTICE_CART
6.33055 0.0 0.0
0.0 10.1423 0.0
-0.247145 0.0 7.58145
%ENDBLOCK LATTICE_CART

%BLOCK POSITIONS_FRAC
P           0.084707000000000    0.201168000000000    0.602552000000000 
P           0.084707000000000    0.798832000000000    0.102552000000000 
P           0.300856000000000    0.305154000000000    0.664213000000000 
P           0.300856000000000    0.694846000000000    0.164213000000000 
P           0.340092000000000    0.049803000000000    0.088834000000000 
P           0.340092000000000    0.950197000000000    0.588834000000000 
P           0.368872000000000    0.359663000000000    0.923760000000000 
P           0.368872000000000    0.640337000000000    0.423760000000000 
P           0.631128000000000    0.359663000000000    0.576240000000000 
P           0.631128000000000    0.640337000000000    0.076240000000000 
P           0.659908000000000    0.049803000000000    0.411166000000000 
P           0.659908000000000    0.950197000000000    0.911166000000000 
P           0.699144000000000    0.305154000000000    0.835787000000000 
P           0.699144000000000    0.694846000000000    0.335787000000000 
P           0.915293000000000    0.201168000000000    0.897448000000000 
P           0.915293000000000    0.798832000000000    0.397448000000000 
K           0.000000000000000    0.000000000000000    0.000000000000000 
K           0.000000000000000    0.000000000000000    0.500000000000000 
K           0.000000000000000    0.500000000000000    0.000000000000000 
K           0.000000000000000    0.500000000000000    0.500000000000000 
%ENDBLOCK POSITIONS_FRAC
