# Cell file generated by matador (Matthew Evans 2016)

%BLOCK LATTICE_CART
6.54529 0.0 0.0
-3.27264 5.66839 0.0
0.0 0.0 5.22574
%ENDBLOCK LATTICE_CART

%BLOCK POSITIONS_FRAC
P          -0.000000000000000    0.000000000000000    0.924658000000000 
P           0.048838000000000    0.769534000000000    0.565765000000000 
P           0.076460000000000    0.900632000000000    0.991691000000000 
P           0.099368000000000    0.175828000000000    0.991691000000000 
P           0.230466000000000    0.279304000000000    0.565765000000000 
P           0.720696000000000    0.951162000000000    0.565765000000000 
P           0.824172000000000    0.923540000000000    0.991691000000000 
K           0.333333000000000    0.666667000000000    0.624168000000000 
%ENDBLOCK POSITIONS_FRAC
