# Cell file generated by matador (Matthew Evans 2016)

%BLOCK LATTICE_CART
9.27493 0.0 0.0
-4.63746 8.03232 0.0
0.0 0.0 6.4089
%ENDBLOCK LATTICE_CART

%BLOCK POSITIONS_FRAC
P           0.302119000000000    0.181552000000000    0.945068000000000 
P           0.484722000000000    0.422079000000000    0.095259000000000 
P           0.577921000000000    0.062642000000000    0.095259000000000 
P           0.592569000000000    0.390218000000000    0.841205000000000 
P           0.609782000000000    0.202351000000000    0.841205000000000 
P           0.797649000000000    0.407431000000000    0.841205000000000 
P           0.818448000000000    0.120567000000000    0.945068000000000 
P           0.879433000000000    0.697881000000000    0.945068000000000 
P           0.937358000000000    0.515278000000000    0.095259000000000 
K           0.175595000000000    0.367599000000000    0.971022000000000 
K           0.192004000000000    0.824405000000000    0.971022000000000 
K           0.266412000000000    0.057252000000000    0.616398000000000 
K           0.632401000000000    0.807996000000000    0.971022000000000 
K           0.790840000000000    0.733588000000000    0.616398000000000 
K           0.942748000000000    0.209160000000000    0.616398000000000 
%ENDBLOCK POSITIONS_FRAC
