# Cell file generated by matador (Matthew Evans 2016)

%BLOCK LATTICE_CART
15.0938 0.0 0.0
0.0 10.5681 0.0
0.0 0.0 6.209
%ENDBLOCK LATTICE_CART

%BLOCK POSITIONS_FRAC
P           0.000000000000000    0.224504000000000    0.000000000000000 
P           0.000000000000000    0.775496000000000    0.000000000000000 
P           0.135413000000000    0.171777000000000    0.000000000000000 
P           0.135413000000000    0.828223000000000    0.000000000000000 
P           0.500000000000000    0.000000000000000    0.500000000000000 
P           0.864587000000000    0.171777000000000    0.000000000000000 
P           0.864587000000000    0.828223000000000    0.000000000000000 
K           0.000000000000000    0.000000000000000    0.500000000000000 
K           0.000000000000000    0.336448000000000    0.264738000000000 
K           0.000000000000000    0.336448000000000    0.735262000000000 
K           0.000000000000000    0.663552000000000    0.264738000000000 
K           0.000000000000000    0.663552000000000    0.735262000000000 
K           0.164099000000000    0.359481000000000    0.000000000000000 
K           0.164099000000000    0.640519000000000    0.000000000000000 
K           0.285159000000000    0.138433000000000    0.000000000000000 
K           0.285159000000000    0.861567000000000    0.000000000000000 
K           0.401853000000000    0.360166000000000    0.000000000000000 
K           0.401853000000000    0.639834000000000    0.000000000000000 
K           0.500000000000000    0.158662000000000    0.243678000000000 
K           0.500000000000000    0.158662000000000    0.756322000000000 
K           0.500000000000000    0.841338000000000    0.243678000000000 
K           0.500000000000000    0.841338000000000    0.756322000000000 
K           0.598147000000000    0.360166000000000    0.000000000000000 
K           0.598147000000000    0.639834000000000    0.000000000000000 
K           0.714841000000000    0.138433000000000    0.000000000000000 
K           0.714841000000000    0.861567000000000    0.000000000000000 
K           0.835901000000000    0.359481000000000    0.000000000000000 
K           0.835901000000000    0.640519000000000    0.000000000000000 
%ENDBLOCK POSITIONS_FRAC
