# Cell file generated by matador (Matthew Evans 2016)

%BLOCK LATTICE_CART
7.66822 0.0 0.0
-3.83411 6.64087 0.0
0.0 0.0 5.43735
%ENDBLOCK LATTICE_CART

%BLOCK POSITIONS_FRAC
P           0.191051000000000    0.744744000000000    0.561233000000000 
P           0.220359000000000    0.142282000000000    0.894566000000000 
P           0.255256000000000    0.446307000000000    0.561233000000000 
P           0.524384000000000    0.411410000000000    0.227899000000000 
P           0.553693000000000    0.808949000000000    0.561233000000000 
P           0.588590000000000    0.112974000000000    0.227899000000000 
P           0.857718000000000    0.078077000000000    0.894566000000000 
P           0.887026000000000    0.475616000000000    0.227899000000000 
P           0.921923000000000    0.779641000000000    0.894566000000000 
K           0.000000000000000    0.000000000000000    0.634462000000000 
K           0.333333000000000    0.666667000000000    0.301129000000000 
K           0.666667000000000    0.333333000000000    0.967796000000000 
%ENDBLOCK POSITIONS_FRAC
