# Cell file generated by matador (Matthew Evans 2016)

%BLOCK LATTICE_CART
6.35605 0.0 0.0
-3.17802 5.5045 0.0
0.0 0.0 4.78102
%ENDBLOCK LATTICE_CART

%BLOCK POSITIONS_FRAC
P           0.000000000000000    0.000000000000000    0.500000000000000 
P           0.000000000000000    0.671413000000000    0.000000000000000 
P           0.000000000000000    0.794490000000000    0.500000000000000 
P           0.205510000000000    0.205510000000000    0.500000000000000 
P           0.328587000000000    0.328587000000000    0.000000000000000 
P           0.671413000000000    0.000000000000000    0.000000000000000 
P           0.794490000000000    0.000000000000000    0.500000000000000 
K           0.000000000000000    0.000000000000000    0.000000000000000 
%ENDBLOCK POSITIONS_FRAC
