# Cell file generated by matador (Matthew Evans 2016)

%BLOCK LATTICE_CART
12.5322 0.0 0.0
0.0 10.9515 0.0
0.0 0.0 9.35867
%ENDBLOCK LATTICE_CART

%BLOCK POSITIONS_FRAC
P           0.250000000000000    0.250000000000000    0.000000000000000 
P           0.250000000000000    0.250000000000000    0.500000000000000 
P           0.250000000000000    0.750000000000000    0.000000000000000 
P           0.250000000000000    0.750000000000000    0.500000000000000 
P           0.750000000000000    0.250000000000000    0.000000000000000 
P           0.750000000000000    0.250000000000000    0.500000000000000 
P           0.750000000000000    0.750000000000000    0.000000000000000 
P           0.750000000000000    0.750000000000000    0.500000000000000 
K           0.000000000000000    0.240114000000000    0.524813000000000 
K           0.000000000000000    0.240114000000000    0.975187000000000 
K           0.000000000000000    0.759886000000000    0.024813000000000 
K           0.000000000000000    0.759886000000000    0.475187000000000 
K           0.119875000000000    0.055922000000000    0.250000000000000 
K           0.119875000000000    0.944078000000000    0.750000000000000 
K           0.219631000000000    0.343032000000000    0.250000000000000 
K           0.219631000000000    0.656968000000000    0.750000000000000 
K           0.280369000000000    0.156968000000000    0.750000000000000 
K           0.280369000000000    0.843032000000000    0.250000000000000 
K           0.380125000000000    0.444078000000000    0.750000000000000 
K           0.380125000000000    0.555922000000000    0.250000000000000 
K           0.500000000000000    0.259886000000000    0.024813000000000 
K           0.500000000000000    0.259886000000000    0.475187000000000 
K           0.500000000000000    0.740114000000000    0.524813000000000 
K           0.500000000000000    0.740114000000000    0.975187000000000 
K           0.619875000000000    0.444078000000000    0.750000000000000 
K           0.619875000000000    0.555922000000000    0.250000000000000 
K           0.719631000000000    0.156968000000000    0.750000000000000 
K           0.719631000000000    0.843032000000000    0.250000000000000 
K           0.780369000000000    0.343032000000000    0.250000000000000 
K           0.780369000000000    0.656968000000000    0.750000000000000 
K           0.880125000000000    0.055922000000000    0.250000000000000 
K           0.880125000000000    0.944078000000000    0.750000000000000 
%ENDBLOCK POSITIONS_FRAC
