# Cell file generated by matador (Matthew Evans 2016)

%BLOCK LATTICE_CART
6.15891 0.0 0.0
0.0 9.8687 0.0
0.0 0.0 5.09958
%ENDBLOCK LATTICE_CART

%BLOCK POSITIONS_FRAC
P           0.000000000000000    0.500000000000000    0.000000000000000 
P           0.000000000000000    0.500000000000000    0.500000000000000 
P           0.406010000000000    0.000000000000000    0.250000000000000 
P           0.406010000000000    0.000000000000000    0.750000000000000 
P           0.593990000000000    0.000000000000000    0.250000000000000 
P           0.593990000000000    0.000000000000000    0.750000000000000 
K           0.434779000000000    0.169447000000000    0.000000000000000 
K           0.434779000000000    0.830553000000000    0.500000000000000 
K           0.565221000000000    0.169447000000000    0.500000000000000 
K           0.565221000000000    0.830553000000000    0.000000000000000 
%ENDBLOCK POSITIONS_FRAC
