# Cell file generated by matador (Matthew Evans 2016)

%BLOCK LATTICE_CART
7.73127 0.0 0.0
-3.86564 6.69548 0.0
0.0 0.0 8.58202
%ENDBLOCK LATTICE_CART

%BLOCK POSITIONS_FRAC
P           0.000000000000000    0.184539000000000    0.059837000000000 
P           0.000000000000000    0.270551000000000    0.538327000000000 
P           0.184539000000000    0.000000000000000    0.059837000000000 
P           0.270551000000000    0.000000000000000    0.538327000000000 
P           0.333333000000000    0.666667000000000    0.199699000000000 
P           0.666667000000000    0.333333000000000    0.199699000000000 
P           0.729449000000000    0.729449000000000    0.538327000000000 
P           0.815461000000000    0.815461000000000    0.059837000000000 
K           0.000000000000000    0.348822000000000    0.861158000000000 
K           0.000000000000000    0.563985000000000    0.532809000000000 
K           0.333333000000000    0.666667000000000    0.599906000000000 
K           0.348822000000000    0.000000000000000    0.861158000000000 
K           0.436015000000000    0.436015000000000    0.532809000000000 
K           0.563985000000000    0.000000000000000    0.532809000000000 
K           0.651178000000000    0.651178000000000    0.861158000000000 
K           0.666667000000000    0.333333000000000    0.599906000000000 
%ENDBLOCK POSITIONS_FRAC
