# Cell file generated by matador (Matthew Evans 2016)

%BLOCK LATTICE_CART
8.677 0.0 0.0
-4.3385 7.5145 0.0
0.0 0.0 7.4253
%ENDBLOCK LATTICE_CART

%BLOCK POSITIONS_FRAC
P           0.000000000000000    0.000000000000000    0.193219000000000 
P           0.000000000000000    0.000000000000000    0.693466000000000 
P           0.000000000000000    0.000000000000000    0.929878000000000 
P           0.000000000000000    0.293304000000000    0.099624000000000 
P           0.293304000000000    0.000000000000000    0.099624000000000 
P           0.333333000000000    0.666667000000000    0.480560000000000 
P           0.666667000000000    0.333333000000000    0.480560000000000 
P           0.706696000000000    0.706696000000000    0.099624000000000 
K           0.000000000000000    0.312315000000000    0.578137000000000 
K           0.000000000000000    0.712408000000000    0.968550000000000 
K           0.287592000000000    0.287592000000000    0.968550000000000 
K           0.312315000000000    0.000000000000000    0.578137000000000 
K           0.333333000000000    0.666667000000000    0.761962000000000 
K           0.666667000000000    0.333333000000000    0.761962000000000 
K           0.687685000000000    0.687685000000000    0.578137000000000 
K           0.712408000000000    0.000000000000000    0.968550000000000 
%ENDBLOCK POSITIONS_FRAC
