# Cell file generated by matador (Matthew Evans 2016)

%BLOCK LATTICE_CART
8.30489 0.0 0.0
-4.15244 7.19224 0.0
0.0 0.0 8.26594
%ENDBLOCK LATTICE_CART

%BLOCK POSITIONS_FRAC
P           0.000000000000000    0.000000000000000    0.000000000000000 
P           0.000000000000000    0.500000000000000    0.500000000000000 
P           0.227404000000000    0.613702000000000    0.832569000000000 
P           0.386298000000000    0.613702000000000    0.832569000000000 
P           0.386298000000000    0.772596000000000    0.832569000000000 
P           0.500000000000000    0.000000000000000    0.500000000000000 
P           0.500000000000000    0.500000000000000    0.500000000000000 
P           0.613702000000000    0.227404000000000    0.167431000000000 
P           0.613702000000000    0.386298000000000    0.167431000000000 
P           0.772596000000000    0.386298000000000    0.167431000000000 
K           0.000000000000000    0.000000000000000    0.500000000000000 
K           0.000000000000000    0.500000000000000    0.000000000000000 
K           0.333333000000000    0.666667000000000    0.386167000000000 
K           0.500000000000000    0.000000000000000    0.000000000000000 
K           0.500000000000000    0.500000000000000    0.000000000000000 
K           0.666667000000000    0.333333000000000    0.613833000000000 
%ENDBLOCK POSITIONS_FRAC
