# Cell file generated by matador (Matthew Evans 2016)

%BLOCK LATTICE_CART
7.63355 0.0 0.0
-3.81677 6.61085 0.0
0.0 0.0 12.2284
%ENDBLOCK LATTICE_CART

%BLOCK POSITIONS_FRAC
P           0.000000000000000    0.000000000000000    0.000000000000000 
P           0.000000000000000    0.500000000000000    0.000000000000000 
P           0.000000000000000    0.500000000000000    0.247919000000000 
P           0.000000000000000    0.500000000000000    0.752081000000000 
P           0.333333000000000    0.666667000000000    0.336446000000000 
P           0.333333000000000    0.666667000000000    0.663554000000000 
P           0.500000000000000    0.000000000000000    0.000000000000000 
P           0.500000000000000    0.000000000000000    0.247919000000000 
P           0.500000000000000    0.000000000000000    0.752081000000000 
P           0.500000000000000    0.500000000000000    0.000000000000000 
P           0.500000000000000    0.500000000000000    0.247919000000000 
P           0.500000000000000    0.500000000000000    0.752081000000000 
P           0.666667000000000    0.333333000000000    0.336446000000000 
P           0.666667000000000    0.333333000000000    0.663554000000000 
K           0.000000000000000    0.000000000000000    0.252121000000000 
K           0.000000000000000    0.000000000000000    0.747879000000000 
K           0.333333000000000    0.666667000000000    0.500000000000000 
K           0.666667000000000    0.333333000000000    0.500000000000000 
%ENDBLOCK POSITIONS_FRAC
