# Cell file generated by matador (Matthew Evans 2016)

%BLOCK LATTICE_CART
5.38118 0.0 0.0
-2.69059 4.66024 0.0
0.0 0.0 10.22
%ENDBLOCK LATTICE_CART

%BLOCK POSITIONS_FRAC
P           0.000000000000000    0.000000000000000    0.130180000000000 
P           0.000000000000000    0.000000000000000    0.369820000000000 
P           0.000000000000000    0.000000000000000    0.630180000000000 
P           0.000000000000000    0.000000000000000    0.869820000000000 
K           0.196690000000000    0.787806000000000    0.750000000000000 
K           0.212194000000000    0.408883000000000    0.750000000000000 
K           0.408883000000000    0.212194000000000    0.250000000000000 
K           0.591117000000000    0.803310000000000    0.750000000000000 
K           0.787806000000000    0.196690000000000    0.250000000000000 
K           0.803310000000000    0.591117000000000    0.250000000000000 
%ENDBLOCK POSITIONS_FRAC
