# Cell file generated by matador (Matthew Evans 2016)

%BLOCK LATTICE_CART
7.88282 0.0 0.0
0.0 7.88282 0.0
0.0 0.0 5.87058
%ENDBLOCK LATTICE_CART

%BLOCK POSITIONS_FRAC
P           0.000000000000000    0.000000000000000    0.000000000000000 
P           0.000000000000000    0.500000000000000    0.000000000000000 
P           0.000000000000000    0.500000000000000    0.166775000000000 
P           0.000000000000000    0.500000000000000    0.333225000000000 
P           0.000000000000000    0.500000000000000    0.500000000000000 
P           0.000000000000000    0.500000000000000    0.666775000000000 
P           0.000000000000000    0.500000000000000    0.833225000000000 
P           0.500000000000000    0.000000000000000    0.000000000000000 
P           0.500000000000000    0.000000000000000    0.166775000000000 
P           0.500000000000000    0.000000000000000    0.333225000000000 
P           0.500000000000000    0.000000000000000    0.500000000000000 
P           0.500000000000000    0.000000000000000    0.666775000000000 
P           0.500000000000000    0.000000000000000    0.833225000000000 
P           0.500000000000000    0.500000000000000    0.500000000000000 
K           0.000000000000000    0.000000000000000    0.500000000000000 
K           0.500000000000000    0.500000000000000    0.000000000000000 
%ENDBLOCK POSITIONS_FRAC
