# Cell file generated by matador (Matthew Evans 2016)

%BLOCK LATTICE_CART
6.95506 0.0 0.0
-3.47753 6.02326 0.0
0.0 0.0 9.56947
%ENDBLOCK LATTICE_CART

%BLOCK POSITIONS_FRAC
P          -0.000000000000000    0.184369000000000    0.888762000000000 
P          -0.000000000000000    0.765255000000000    0.000403000000000 
P           0.184369000000000   -0.000000000000000    0.888762000000000 
P           0.234745000000000    0.234745000000000    0.000403000000000 
P           0.333333000000000    0.666667000000000    0.290827000000000 
P           0.333333000000000    0.666667000000000    0.533183000000000 
P           0.333333000000000    0.666667000000000    0.708554000000000 
P           0.666667000000000    0.333333000000000    0.290827000000000 
P           0.666667000000000    0.333333000000000    0.533183000000000 
P           0.666667000000000    0.333333000000000    0.708554000000000 
P           0.765255000000000   -0.000000000000000    0.000403000000000 
P           0.815631000000000    0.815631000000000    0.888762000000000 
K           0.186355000000000    0.394043000000000    0.413255000000000 
K           0.207688000000000    0.813645000000000    0.413255000000000 
K           0.394043000000000    0.186355000000000    0.413255000000000 
K           0.605957000000000    0.792312000000000    0.413255000000000 
K           0.792312000000000    0.605957000000000    0.413255000000000 
K           0.813645000000000    0.207688000000000    0.413255000000000 
%ENDBLOCK POSITIONS_FRAC
