# Cell file generated by matador (Matthew Evans 2016)

%BLOCK LATTICE_CART
7.79724 0.0 0.0
0.0 7.79724 0.0
0.0 0.0 7.79724
%ENDBLOCK LATTICE_CART

%BLOCK POSITIONS_FRAC
P           0.000000000000000    0.500000000000000    0.250000000000000 
P           0.000000000000000    0.500000000000000    0.750000000000000 
P           0.250000000000000    0.000000000000000    0.500000000000000 
P           0.500000000000000    0.250000000000000    0.000000000000000 
P           0.500000000000000    0.750000000000000    0.000000000000000 
P           0.750000000000000    0.000000000000000    0.500000000000000 
K           0.230731000000000    0.230731000000000    0.230731000000000 
K           0.230731000000000    0.769269000000000    0.769269000000000 
K           0.269269000000000    0.269269000000000    0.730731000000000 
K           0.269269000000000    0.730731000000000    0.269269000000000 
K           0.730731000000000    0.269269000000000    0.269269000000000 
K           0.730731000000000    0.730731000000000    0.730731000000000 
K           0.769269000000000    0.230731000000000    0.769269000000000 
K           0.769269000000000    0.769269000000000    0.230731000000000 
%ENDBLOCK POSITIONS_FRAC
