# Cell file generated by matador (Matthew Evans 2016)

%BLOCK LATTICE_CART
8.59906 0.0 0.0
-4.29953 7.44701 0.0
0.0 0.0 7.39086
%ENDBLOCK LATTICE_CART

%BLOCK POSITIONS_FRAC
P           0.000000000000000    0.000000000000000    0.267710000000000 
P           0.000000000000000    0.000000000000000    0.732290000000000 
P           0.172535000000000    0.382751000000000    0.819735000000000 
P           0.172535000000000    0.789784000000000    0.180265000000000 
P           0.210216000000000    0.382751000000000    0.180265000000000 
P           0.210216000000000    0.827465000000000    0.819735000000000 
P           0.333333000000000    0.666667000000000    0.000000000000000 
P           0.617249000000000    0.789784000000000    0.819735000000000 
P           0.617249000000000    0.827465000000000    0.180265000000000 
P           0.666667000000000    0.333333000000000    0.500000000000000 
K           0.359795000000000    0.067585000000000    0.639787000000000 
K           0.359795000000000    0.292210000000000    0.360213000000000 
K           0.707790000000000    0.067585000000000    0.360213000000000 
K           0.707790000000000    0.640205000000000    0.639787000000000 
K           0.932415000000000    0.292210000000000    0.639787000000000 
K           0.932415000000000    0.640205000000000    0.360213000000000 
%ENDBLOCK POSITIONS_FRAC
