# Cell file generated by matador (Matthew Evans 2016)

%BLOCK LATTICE_CART
7.87331 0.0 0.0
-3.93666 6.81849 0.0
0.0 0.0 5.11197
%ENDBLOCK LATTICE_CART

%BLOCK POSITIONS_FRAC
P           0.194086000000000    0.675978000000000    0.885910000000000 
P           0.324022000000000    0.518109000000000    0.552577000000000 
P           0.481891000000000    0.805914000000000    0.219244000000000 
P           0.518109000000000    0.324022000000000    0.447422000000000 
P           0.675978000000000    0.194086000000000    0.114089000000000 
P           0.805914000000000    0.481891000000000    0.780756000000000 
K          -0.000000000000000    0.460500000000000    0.333333000000000 
K           0.460500000000000   -0.000000000000000    0.666666000000000 
K           0.539500000000000    0.539500000000000   -0.000000000000000 
%ENDBLOCK POSITIONS_FRAC
