# Cell file generated by matador (Matthew Evans 2016)

%BLOCK LATTICE_CART
8.18092 -0.0 0.0
-4.09046 7.08489 0.0
0.0 0.0 7.96194
%ENDBLOCK LATTICE_CART

%BLOCK POSITIONS_FRAC
P           0.166218000000000    0.018198000000000    0.819173000000000 
P           0.387839000000000    0.000965000000000    0.773524000000000 
P           0.426897000000000    0.143157000000000    0.055996000000000 
P           0.613126000000000    0.612161000000000    0.106857000000000 
P           0.716260000000000    0.573103000000000    0.389329000000000 
P           0.851980000000000    0.833782000000000    0.152506000000000 
P           0.856843000000000    0.283740000000000    0.722663000000000 
P           0.981802000000000    0.148020000000000    0.485840000000000 
P           0.999035000000000    0.386874000000000    0.440190000000000 
K           0.067007000000000    0.731311000000000    0.885845000000000 
K           0.118586000000000    0.028661000000000    0.083424000000000 
K           0.268689000000000    0.335696000000000    0.552511000000000 
K           0.664304000000000    0.932993000000000    0.219178000000000 
K           0.910075000000000    0.881414000000000    0.416757000000000 
K           0.971339000000000    0.089925000000000    0.750090000000000 
%ENDBLOCK POSITIONS_FRAC
