# Cell file generated by matador (Matthew Evans 2016)

%BLOCK LATTICE_CART
7.41316 0.0 0.0
0.0 7.41316 0.0
0.0 0.0 9.37692
%ENDBLOCK LATTICE_CART

%BLOCK POSITIONS_FRAC
P           0.000000000000000    0.000000000000000    0.250000000000000 
P           0.000000000000000    0.000000000000000    0.750000000000000 
P           0.000000000000000    0.500000000000000    0.000000000000000 
P           0.000000000000000    0.500000000000000    0.500000000000000 
P           0.060821000000000    0.060821000000000    0.500000000000000 
P           0.060821000000000    0.939179000000000    0.000000000000000 
P           0.500000000000000    0.000000000000000    0.000000000000000 
P           0.500000000000000    0.000000000000000    0.500000000000000 
P           0.939179000000000    0.060821000000000    0.000000000000000 
P           0.939179000000000    0.939179000000000    0.500000000000000 
K           0.281553000000000    0.475539000000000    0.500000000000000 
K           0.281553000000000    0.524461000000000    0.000000000000000 
K           0.475539000000000    0.281553000000000    0.500000000000000 
K           0.475539000000000    0.718447000000000    0.000000000000000 
K           0.524461000000000    0.281553000000000    0.000000000000000 
K           0.524461000000000    0.718447000000000    0.500000000000000 
K           0.718447000000000    0.475539000000000    0.000000000000000 
K           0.718447000000000    0.524461000000000    0.500000000000000 
%ENDBLOCK POSITIONS_FRAC
