# Cell file generated by matador (Matthew Evans 2016)

%BLOCK LATTICE_CART
6.26907 -0.0 0.0
-3.13454 5.42918 0.0
0.0 0.0 9.38775
%ENDBLOCK LATTICE_CART

%BLOCK POSITIONS_FRAC
P           0.666667000000000    0.333333000000000    0.242225000000000 
K           0.000000000000000   -0.000000000000000    0.378697000000000 
K           0.000000000000000   -0.000000000000000    0.927832000000000 
K           0.123723000000000    0.779982000000000    0.791645000000000 
K           0.220018000000000    0.343739000000000    0.791645000000000 
K           0.333334000000000    0.666666000000000    0.389981000000000 
K           0.656261000000000    0.876277000000000    0.791645000000000 
K           0.666667000000000    0.333333000000000    0.558724000000000 
%ENDBLOCK POSITIONS_FRAC
