# Cell file generated by matador (Matthew Evans 2016)

%BLOCK LATTICE_CART
6.37985 0.0 0.0
-3.18992 5.52511 0.0
0.0 0.0 9.47698
%ENDBLOCK LATTICE_CART

%BLOCK POSITIONS_FRAC
P           0.000000000000000    0.500000000000000    0.500000000000000 
P           0.166667000000000    0.333333000000000    0.833333000000000 
P           0.166667000000000    0.833333000000000    0.833333000000000 
P           0.333333000000000    0.166667000000000    0.166667000000000 
P           0.500000000000000    0.000000000000000    0.500000000000000 
P           0.500000000000000    0.500000000000000    0.500000000000000 
P           0.666667000000000    0.833333000000000    0.833333000000000 
P           0.833333000000000    0.166667000000000    0.166667000000000 
P           0.833333000000000    0.666667000000000    0.166667000000000 
K           0.000000000000000    0.000000000000000    0.000000000000000 
K           0.000000000000000    0.000000000000000    0.500000000000000 
K           0.333333000000000    0.666667000000000    0.166667000000000 
K           0.333333000000000    0.666667000000000    0.666667000000000 
K           0.666667000000000    0.333333000000000    0.333333000000000 
K           0.666667000000000    0.333333000000000    0.833333000000000 
%ENDBLOCK POSITIONS_FRAC
