# Cell file generated by matador (Matthew Evans 2016)

%BLOCK LATTICE_CART
6.82377 0.0 0.0
-3.41188 5.90956 0.0
0.0 0.0 11.5699
%ENDBLOCK LATTICE_CART

%BLOCK POSITIONS_FRAC
P          -0.000000000000000    0.000000000000000    0.277507000000000 
P          -0.000000000000000    0.000000000000000    0.462353000000000 
P           0.147251000000000    0.610157000000000    0.541634000000000 
P           0.333333000000000    0.666667000000000    0.158479000000000 
P           0.333333000000000    0.666667000000000    0.264614000000000 
P           0.333333000000000    0.666667000000000    0.431597000000000 
P           0.389843000000000    0.537095000000000    0.541634000000000 
P           0.462905000000000    0.852749000000000    0.541634000000000 
P           0.666666000000000    0.333334000000000    0.162258000000000 
K           0.104278000000000    0.769679000000000    0.797818000000000 
K           0.230321000000000    0.334600000000000    0.797818000000000 
K           0.400623000000000    0.077184000000000    0.641541000000000 
K           0.665400000000000    0.895722000000000    0.797818000000000 
K           0.676561000000000    0.599377000000000    0.641541000000000 
K           0.922816000000000    0.323439000000000    0.641541000000000 
%ENDBLOCK POSITIONS_FRAC
