# Cell file generated by matador (Matthew Evans 2016)

%BLOCK LATTICE_CART
7.64367 0.0 0.0
0.0 7.64367 0.0
0.0 0.0 10.9188
%ENDBLOCK LATTICE_CART

%BLOCK POSITIONS_FRAC
P           0.000000000000000    0.000000000000000    0.000000000000000 
P           0.000000000000000    0.000000000000000    0.282246000000000 
P           0.000000000000000    0.000000000000000    0.717754000000000 
P           0.500000000000000    0.500000000000000    0.217754000000000 
P           0.500000000000000    0.500000000000000    0.500000000000000 
P           0.500000000000000    0.500000000000000    0.782246000000000 
K           0.000000000000000    0.000000000000000    0.500000000000000 
K           0.194449000000000    0.194449000000000    0.568781000000000 
K           0.194449000000000    0.805551000000000    0.431219000000000 
K           0.305551000000000    0.305551000000000    0.068781000000000 
K           0.305551000000000    0.694449000000000    0.931219000000000 
K           0.500000000000000    0.500000000000000    0.000000000000000 
K           0.694449000000000    0.305551000000000    0.931219000000000 
K           0.694449000000000    0.694449000000000    0.068781000000000 
K           0.805551000000000    0.194449000000000    0.431219000000000 
K           0.805551000000000    0.805551000000000    0.568781000000000 
%ENDBLOCK POSITIONS_FRAC
