# Cell file generated by matador (Matthew Evans 2016)

%BLOCK LATTICE_CART
8.20626 0.0 0.0
0.0 8.20626 0.0
0.0 0.0 8.20626
%ENDBLOCK LATTICE_CART

%BLOCK POSITIONS_FRAC
P           0.196178000000000    0.196178000000000    0.803822000000000 
P           0.196178000000000    0.803822000000000    0.196178000000000 
P           0.303822000000000    0.303822000000000    0.303822000000000 
P           0.303822000000000    0.696178000000000    0.696178000000000 
P           0.696178000000000    0.303822000000000    0.696178000000000 
P           0.696178000000000    0.696178000000000    0.303822000000000 
P           0.803822000000000    0.196178000000000    0.196178000000000 
P           0.803822000000000    0.803822000000000    0.803822000000000 
K           0.000000000000000    0.000000000000000    0.500000000000000 
K           0.000000000000000    0.500000000000000    0.000000000000000 
K           0.000000000000000    0.500000000000000    0.500000000000000 
K           0.500000000000000    0.000000000000000    0.000000000000000 
K           0.500000000000000    0.000000000000000    0.500000000000000 
K           0.500000000000000    0.500000000000000    0.000000000000000 
%ENDBLOCK POSITIONS_FRAC
