# Cell file generated by matador (Matthew Evans 2016)

%BLOCK LATTICE_CART
7.4694 0.0 0.0
0.0 7.4694 0.0
0.0 0.0 4.64961
%ENDBLOCK LATTICE_CART

%BLOCK POSITIONS_FRAC
P           0.275086000000000    0.348948000000000    0.252390000000000 
P           0.275086000000000    0.651052000000000    0.252390000000000 
P           0.348948000000000    0.275086000000000    0.752390000000000 
P           0.348948000000000    0.724914000000000    0.752390000000000 
P           0.651052000000000    0.275086000000000    0.752390000000000 
P           0.651052000000000    0.724914000000000    0.752390000000000 
P           0.724914000000000    0.348948000000000    0.252390000000000 
P           0.724914000000000    0.651052000000000    0.252390000000000 
K           0.176664000000000    0.500000000000000    0.571328000000000 
K           0.500000000000000    0.176664000000000    0.071328000000000 
K           0.500000000000000    0.823336000000000    0.071328000000000 
K           0.823336000000000    0.500000000000000    0.571328000000000 
%ENDBLOCK POSITIONS_FRAC
