# Cell file generated by matador (Matthew Evans 2016)

%BLOCK LATTICE_CART
7.87507 -0.0 0.0
-3.93754 6.82001 0.0
0.0 0.0 8.41689
%ENDBLOCK LATTICE_CART

%BLOCK POSITIONS_FRAC
P          -0.000000000000000   -0.000000000000000    0.000000000000000 
P          -0.000000000000000   -0.000000000000000    0.500000000000000 
P           0.036457000000000    0.401333000000000    0.250000000000000 
P           0.364877000000000    0.963543000000000    0.250000000000000 
P           0.401333000000000    0.364877000000000    0.750000000000000 
P           0.598667000000000    0.635123000000000    0.250000000000000 
P           0.635123000000000    0.036457000000000    0.750000000000000 
P           0.963543000000000    0.598667000000000    0.750000000000000 
K          -0.000000000000000    0.500000000000000    0.000000000000000 
K          -0.000000000000000    0.500000000000000    0.500000000000000 
K           0.500000000000000   -0.000000000000000    0.000000000000000 
K           0.500000000000000   -0.000000000000000    0.500000000000000 
K           0.500000000000000    0.500000000000000    0.000000000000000 
K           0.500000000000000    0.500000000000000    0.500000000000000 
%ENDBLOCK POSITIONS_FRAC
