# Cell file generated by matador (Matthew Evans 2016)

%BLOCK LATTICE_CART
10.6682 0.0 0.0
0.0 10.6682 0.0
0.0 0.0 10.5999
%ENDBLOCK LATTICE_CART

%BLOCK POSITIONS_FRAC
P           0.000000000000000    0.000000000000000    0.016180000000000 
P           0.000000000000000    0.000000000000000    0.812549000000000 
P           0.000000000000000    0.500000000000000    0.062549000000000 
P           0.000000000000000    0.500000000000000    0.266180000000000 
P           0.500000000000000    0.000000000000000    0.562549000000000 
P           0.500000000000000    0.000000000000000    0.766180000000000 
P           0.500000000000000    0.500000000000000    0.312549000000000 
P           0.500000000000000    0.500000000000000    0.516180000000000 
K           0.000000000000000    0.214110000000000    0.860518000000000 
K           0.000000000000000    0.223139000000000    0.147617000000000 
K           0.000000000000000    0.239063000000000    0.540746000000000 
K           0.000000000000000    0.760937000000000    0.540746000000000 
K           0.000000000000000    0.776861000000000    0.147617000000000 
K           0.000000000000000    0.785890000000000    0.860518000000000 
K           0.214110000000000    0.500000000000000    0.110518000000000 
K           0.223139000000000    0.500000000000000    0.397617000000000 
K           0.239063000000000    0.500000000000000    0.790746000000000 
K           0.260937000000000    0.000000000000000    0.290746000000000 
K           0.276861000000000    0.000000000000000    0.897617000000000 
K           0.285890000000000    0.000000000000000    0.610518000000000 
K           0.500000000000000    0.260937000000000    0.040746000000000 
K           0.500000000000000    0.276861000000000    0.647617000000000 
K           0.500000000000000    0.285890000000000    0.360518000000000 
K           0.500000000000000    0.714110000000000    0.360518000000000 
K           0.500000000000000    0.723139000000000    0.647617000000000 
K           0.500000000000000    0.739063000000000    0.040746000000000 
K           0.714110000000000    0.000000000000000    0.610518000000000 
K           0.723139000000000    0.000000000000000    0.897617000000000 
K           0.739063000000000    0.000000000000000    0.290746000000000 
K           0.760937000000000    0.500000000000000    0.790746000000000 
K           0.776861000000000    0.500000000000000    0.397617000000000 
K           0.785890000000000    0.500000000000000    0.110518000000000 
%ENDBLOCK POSITIONS_FRAC
