# Cell file generated by matador (Matthew Evans 2016)

%BLOCK LATTICE_CART
6.92167 0.0 0.0
-3.46084 5.99434 0.0
0.0 0.0 8.03741
%ENDBLOCK LATTICE_CART

%BLOCK POSITIONS_FRAC
P           0.000000000000000    0.000000000000000    0.500000000000000 
P           0.333333000000000    0.666667000000000    0.000000000000000 
P           0.333333000000000    0.666667000000000    0.500000000000000 
P           0.666667000000000    0.333333000000000    0.000000000000000 
K           0.005373000000000    0.352138000000000    0.500000000000000 
K           0.005373000000000    0.653235000000000    0.500000000000000 
K           0.346765000000000    0.352138000000000    0.500000000000000 
K           0.346765000000000    0.994627000000000    0.500000000000000 
K           0.647862000000000    0.653235000000000    0.500000000000000 
K           0.647862000000000    0.994627000000000    0.500000000000000 
%ENDBLOCK POSITIONS_FRAC
