# Cell file generated by matador (Matthew Evans 2016)

%BLOCK LATTICE_CART
5.71553 0.0 0.0
-1.64865 5.85621 0.0
2.45868 2.41657 4.66393
%ENDBLOCK LATTICE_CART

%BLOCK POSITIONS_FRAC
P           0.000000000000000    0.500000000000000    0.000000000000000 
P           0.086059000000000    0.664352000000000    0.726479000000000 
P           0.168650000000000    0.142033000000000    0.936236000000000 
P           0.500000000000000    0.000000000000000    0.000000000000000 
P           0.500000000000000    0.000000000000000    0.500000000000000 
P           0.831350000000000    0.857967000000000    0.063764000000000 
P           0.913941000000000    0.335648000000000    0.273521000000000 
K           0.000000000000000    0.500000000000000    0.500000000000000 
%ENDBLOCK POSITIONS_FRAC
