# Cell file generated by matador (Matthew Evans 2016)

%BLOCK LATTICE_CART
11.1116 0.0 0.0
0.0 11.1116 0.0
0.0 0.0 6.89296
%ENDBLOCK LATTICE_CART

%BLOCK POSITIONS_FRAC
P           0.000000000000000    0.000000000000000    0.000000000000000 
P           0.000000000000000    0.500000000000000    0.000000000000000 
P           0.000000000000000    0.500000000000000    0.500000000000000 
P           0.500000000000000    0.000000000000000    0.000000000000000 
P           0.500000000000000    0.000000000000000    0.500000000000000 
P           0.500000000000000    0.500000000000000    0.000000000000000 
K           0.000000000000000    0.000000000000000    0.500000000000000 
K           0.020375000000000    0.730782000000000    0.500000000000000 
K           0.230782000000000    0.520375000000000    0.500000000000000 
K           0.244729000000000    0.255271000000000    0.225218000000000 
K           0.244729000000000    0.255271000000000    0.774782000000000 
K           0.255271000000000    0.755271000000000    0.225218000000000 
K           0.255271000000000    0.755271000000000    0.774782000000000 
K           0.269218000000000    0.020375000000000    0.500000000000000 
K           0.479625000000000    0.230782000000000    0.500000000000000 
K           0.500000000000000    0.500000000000000    0.500000000000000 
K           0.520375000000000    0.769218000000000    0.500000000000000 
K           0.730782000000000    0.979625000000000    0.500000000000000 
K           0.744729000000000    0.244729000000000    0.225218000000000 
K           0.744729000000000    0.244729000000000    0.774782000000000 
K           0.755271000000000    0.744729000000000    0.225218000000000 
K           0.755271000000000    0.744729000000000    0.774782000000000 
K           0.769218000000000    0.479625000000000    0.500000000000000 
K           0.979625000000000    0.269218000000000    0.500000000000000 
%ENDBLOCK POSITIONS_FRAC
