# Cell file generated by matador (Matthew Evans 2016)

%BLOCK LATTICE_CART
6.38214 0.0 0.0
-3.19107 5.5271 0.0
0.0 0.0 12.8802
%ENDBLOCK LATTICE_CART

%BLOCK POSITIONS_FRAC
P           0.068673000000000    0.534336000000000    0.165692000000000 
P           0.465664000000000    0.534336000000000    0.165692000000000 
P           0.465664000000000    0.931327000000000    0.165692000000000 
P           0.534337000000000    0.068672000000000    0.834308000000000 
P           0.534337000000000    0.465663000000000    0.834308000000000 
P           0.931328000000000    0.465663000000000    0.834308000000000 
K           0.000000000000000   -0.000000000000000    0.500000000000000 
K           0.193840000000000    0.387680000000000    0.029162000000000 
K           0.193840000000000    0.806160000000000    0.029162000000000 
K           0.333334000000000    0.666666000000000    0.541266000000000 
K           0.387680000000000    0.193840000000000    0.970838000000000 
K           0.612320000000000    0.806160000000000    0.029162000000000 
K           0.666667000000000    0.333333000000000    0.458734000000000 
K           0.806160000000000    0.193840000000000    0.970838000000000 
K           0.806160000000000    0.612320000000000    0.970838000000000 
%ENDBLOCK POSITIONS_FRAC
