# Cell file generated by matador (Matthew Evans 2016)

%BLOCK LATTICE_CART
10.8441 0.0 0.0
-5.42203 9.39124 0.0
0.0 0.0 9.70038
%ENDBLOCK LATTICE_CART

%BLOCK POSITIONS_FRAC
P           0.333333000000000    0.666667000000000    0.000000000000000 
P           0.496341000000000    0.146348000000000    0.000000000000000 
P           0.650005000000000    0.503659000000000    0.000000000000000 
P           0.666666000000000    0.333334000000000    0.000000000000000 
P           0.666666000000000    0.333334000000000    0.500000000000000 
P           0.853652000000000    0.349995000000000    0.000000000000000 
K          -0.000000000000000    0.000000000000000    0.000000000000000 
K          -0.000000000000000    0.000000000000000    0.500000000000000 
K           0.055271000000000    0.504584000000000    0.000000000000000 
K           0.088430000000000    0.778381000000000    0.500000000000000 
K           0.135588000000000    0.808251000000000    0.000000000000000 
K           0.191749000000000    0.327339000000000    0.000000000000000 
K           0.221619000000000    0.310049000000000    0.500000000000000 
K           0.307424000000000    0.131528000000000    0.000000000000000 
K           0.333333000000000    0.666667000000000    0.500000000000000 
K           0.449313000000000    0.944729000000000    0.000000000000000 
K           0.494110000000000    0.032206000000000    0.500000000000000 
K           0.495416000000000    0.550687000000000    0.000000000000000 
K           0.538096000000000    0.505890000000000    0.500000000000000 
K           0.672661000000000    0.864412000000000    0.000000000000000 
K           0.689951000000000    0.911570000000000    0.500000000000000 
K           0.824104000000000    0.692576000000000    0.000000000000000 
K           0.868472000000000    0.175896000000000    0.000000000000000 
K           0.967794000000000    0.461904000000000    0.500000000000000 
%ENDBLOCK POSITIONS_FRAC
