# Cell file generated by matador (Matthew Evans 2016)

%BLOCK LATTICE_CART
8.51083 0.0 0.0
0.0 8.51083 0.0
0.0 0.0 7.89759
%ENDBLOCK LATTICE_CART

%BLOCK POSITIONS_FRAC
P           0.219835000000000    0.219835000000000    0.500000000000000 
P           0.219835000000000    0.780165000000000    0.500000000000000 
P           0.780165000000000    0.219835000000000    0.500000000000000 
P           0.780165000000000    0.780165000000000    0.500000000000000 
K           0.000000000000000    0.000000000000000    0.500000000000000 
K           0.000000000000000    0.500000000000000    0.154335000000000 
K           0.200670000000000    0.500000000000000    0.680009000000000 
K           0.317176000000000    0.500000000000000    0.324265000000000 
K           0.500000000000000    0.000000000000000    0.845665000000000 
K           0.500000000000000    0.200670000000000    0.319991000000000 
K           0.500000000000000    0.317176000000000    0.675735000000000 
K           0.500000000000000    0.500000000000000    0.000000000000000 
K           0.500000000000000    0.682824000000000    0.675735000000000 
K           0.500000000000000    0.799330000000000    0.319991000000000 
K           0.682824000000000    0.500000000000000    0.324265000000000 
K           0.799330000000000    0.500000000000000    0.680009000000000 
%ENDBLOCK POSITIONS_FRAC
