# Cell file generated by matador (Matthew Evans 2016)

%BLOCK LATTICE_CART
8.09361 0.0 0.0
-4.04681 7.00927 0.0
0.0 0.0 7.99766
%ENDBLOCK LATTICE_CART

%BLOCK POSITIONS_FRAC
P           0.102463000000000    0.430987000000000    0.100350000000000 
P           0.102463000000000    0.430987000000000    0.899650000000000 
P           0.102463000000000    0.671475000000000    0.100350000000000 
P           0.102463000000000    0.671475000000000    0.899650000000000 
P           0.328525000000000    0.430987000000000    0.100350000000000 
P           0.328525000000000    0.430987000000000    0.899650000000000 
P           0.328525000000000    0.897537000000000    0.100350000000000 
P           0.328525000000000    0.897537000000000    0.899650000000000 
P           0.569013000000000    0.671475000000000    0.100350000000000 
P           0.569013000000000    0.671475000000000    0.899650000000000 
P           0.569013000000000    0.897537000000000    0.100350000000000 
P           0.569013000000000    0.897537000000000    0.899650000000000 
P           0.666667000000000    0.333333000000000    0.000000000000000 
P           0.666667000000000    0.333333000000000    0.120290000000000 
P           0.666667000000000    0.333333000000000    0.879710000000000 
K           0.000000000000000    0.000000000000000    0.000000000000000 
K           0.000000000000000    0.000000000000000    0.500000000000000 
K           0.333333000000000    0.666667000000000    0.000000000000000 
K           0.333333000000000    0.666667000000000    0.500000000000000 
K           0.666667000000000    0.333333000000000    0.500000000000000 
%ENDBLOCK POSITIONS_FRAC
