# Cell file generated by matador (Matthew Evans 2016)

%BLOCK LATTICE_CART
6.48651 0.0 0.0
0.0 6.48651 0.0
0.0 0.0 7.55181
%ENDBLOCK LATTICE_CART

%BLOCK POSITIONS_FRAC
P          -0.000000000000000   -0.000000000000000   -0.000000000000000 
P          -0.000000000000000   -0.000000000000000    0.132419000000000 
P          -0.000000000000000   -0.000000000000000    0.867581000000000 
P          -0.000000000000000    0.500000000000000   -0.000000000000000 
P          -0.000000000000000    0.500000000000000    0.500000000000000 
P           0.500000000000000   -0.000000000000000   -0.000000000000000 
P           0.500000000000000   -0.000000000000000    0.500000000000000 
P           0.500000000000000    0.500000000000000    0.367581000000000 
P           0.500000000000000    0.500000000000000    0.500000000000000 
P           0.500000000000000    0.500000000000000    0.632419000000000 
K          -0.000000000000000   -0.000000000000000    0.500000000000000 
K           0.500000000000000    0.500000000000000   -0.000000000000000 
%ENDBLOCK POSITIONS_FRAC
