# Cell file generated by matador (Matthew Evans 2016)

%BLOCK LATTICE_CART
8.7978 0.0 0.0
-4.3989 7.61912 0.0
0.0 0.0 6.8255
%ENDBLOCK LATTICE_CART

%BLOCK POSITIONS_FRAC
P           0.000000000000000    0.000000000000000    0.373000000000000 
P           0.333333000000000    0.666667000000000    0.351350000000000 
P           0.666667000000000    0.333333000000000    0.233596000000000 
K           0.007650000000000    0.503825000000000    0.356501000000000 
K           0.175612000000000    0.351224000000000    0.646399000000000 
K           0.175612000000000    0.824388000000000    0.646399000000000 
K           0.496175000000000    0.503825000000000    0.356501000000000 
K           0.496175000000000    0.992350000000000    0.356501000000000 
K           0.549150000000000    0.098300000000000    0.828141000000000 
K           0.549150000000000    0.450850000000000    0.828141000000000 
K           0.648776000000000    0.824388000000000    0.646399000000000 
K           0.901700000000000    0.450850000000000    0.828141000000000 
%ENDBLOCK POSITIONS_FRAC
