# Cell file generated by matador (Matthew Evans 2016)

%BLOCK LATTICE_CART
7.09225 0.0 0.0
0.0 7.21496 0.0
0.0 0.0 5.54531
%ENDBLOCK LATTICE_CART

%BLOCK POSITIONS_FRAC
P           0.000000000000000    0.500000000000000    0.500000000000000 
P           0.500000000000000   -0.000000000000000    0.000000000000000 
K           0.000000000000000    0.500000000000000    0.000000000000000 
K           0.247470000000000    0.162782000000000    0.000000000000000 
K           0.252530000000000    0.662782000000000    0.500000000000000 
K           0.500000000000000   -0.000000000000000    0.500000000000000 
K           0.747470000000000    0.337218000000000    0.500000000000000 
K           0.752530000000000    0.837218000000000    0.000000000000000 
%ENDBLOCK POSITIONS_FRAC
