# Cell file generated by matador (Matthew Evans 2016)

%BLOCK LATTICE_CART
4.89466 0.0 0.0
2.01503 6.4739 0.0
-0.169707 1.05596 11.1485
%ENDBLOCK LATTICE_CART

%BLOCK POSITIONS_FRAC
P           0.280939000000000    0.720631000000000    0.944733000000000 
P           0.719061000000000    0.279369000000000    0.055267000000000 
K           0.000000000000000    0.500000000000000    0.000000000000000 
K           0.000000000000000    0.500000000000000    0.500000000000000 
K           0.309898000000000    0.169083000000000    0.212035000000000 
K           0.356765000000000    0.686938000000000    0.157951000000000 
K           0.500000000000000    0.000000000000000    0.000000000000000 
K           0.643235000000000    0.313062000000000    0.842049000000000 
K           0.690102000000000    0.830917000000000    0.787965000000000 
%ENDBLOCK POSITIONS_FRAC
