# Cell file generated by matador (Matthew Evans 2016)

%BLOCK LATTICE_CART
7.04232 0.0 0.0
0.0 7.26888 0.0
-2.05434 0.0 12.6475
%ENDBLOCK LATTICE_CART

%BLOCK POSITIONS_FRAC
P          -0.000000000000000    0.000000000000000    0.500000000000000 
P          -0.000000000000000    0.500000000000000    0.500000000000000 
P           0.298072000000000    0.250000000000000    0.174684000000000 
P           0.701928000000000    0.750000000000000    0.825316000000000 
K          -0.000000000000000    0.000000000000000    0.000000000000000 
K          -0.000000000000000    0.500000000000000    0.000000000000000 
K           0.064850000000000    0.250000000000000    0.345194000000000 
K           0.167739000000000    0.750000000000000    0.207938000000000 
K           0.226390000000000    0.750000000000000    0.862318000000000 
K           0.293570000000000    0.250000000000000    0.794931000000000 
K           0.500000000000000    0.000000000000000    0.000000000000000 
K           0.500000000000000    0.500000000000000    0.000000000000000 
K           0.706430000000000    0.750000000000000    0.205069000000000 
K           0.773610000000000    0.250000000000000    0.137682000000000 
K           0.832261000000000    0.250000000000000    0.792062000000000 
K           0.935150000000000    0.750000000000000    0.654806000000000 
%ENDBLOCK POSITIONS_FRAC
