# Cell file generated by matador (Matthew Evans 2016)

%BLOCK LATTICE_CART
7.57438 0.0 0.0
0.0 7.57438 0.0
0.0 0.0 12.1895
%ENDBLOCK LATTICE_CART

%BLOCK POSITIONS_FRAC
P          -0.000000000000000    0.000000000000000    0.164075000000000 
P          -0.000000000000000    0.000000000000000    0.500000000000000 
P          -0.000000000000000    0.000000000000000    0.835925000000000 
P          -0.000000000000000    0.500000000000000    0.207091000000000 
P          -0.000000000000000    0.500000000000000    0.292909000000000 
P          -0.000000000000000    0.500000000000000    0.707091000000000 
P          -0.000000000000000    0.500000000000000    0.792909000000000 
P           0.500000000000000    0.000000000000000    0.207091000000000 
P           0.500000000000000    0.000000000000000    0.292909000000000 
P           0.500000000000000    0.000000000000000    0.707091000000000 
P           0.500000000000000    0.000000000000000    0.792909000000000 
P           0.500000000000000    0.500000000000000    0.000000000000000 
P           0.500000000000000    0.500000000000000    0.335925000000000 
P           0.500000000000000    0.500000000000000    0.664075000000000 
K          -0.000000000000000    0.000000000000000    0.000000000000000 
K          -0.000000000000000    0.500000000000000    0.000000000000000 
K          -0.000000000000000    0.500000000000000    0.500000000000000 
K           0.500000000000000    0.000000000000000    0.000000000000000 
K           0.500000000000000    0.000000000000000    0.500000000000000 
K           0.500000000000000    0.500000000000000    0.500000000000000 
%ENDBLOCK POSITIONS_FRAC
