# Cell file generated by matador (Matthew Evans 2016)

%BLOCK LATTICE_CART
5.14916 0.0 0.0
0.0 6.91001 0.0
2.50116 0.0 9.73477
%ENDBLOCK LATTICE_CART

%BLOCK POSITIONS_FRAC
P           0.229309000000000    0.292999000000000    0.243991000000000 
P           0.229309000000000    0.707001000000000    0.243991000000000 
P           0.432669000000000    0.000000000000000    0.707351000000000 
P           0.503534000000000    0.000000000000000    0.950868000000000 
P           0.754235000000000    0.500000000000000    0.581211000000000 
P           0.915563000000000    0.143614000000000    0.207385000000000 
P           0.915563000000000    0.856386000000000    0.207385000000000 
K           0.058051000000000    0.000000000000000    0.933362000000000 
K           0.396817000000000    0.500000000000000    0.340956000000000 
K           0.527914000000000    0.500000000000000    0.816362000000000 
K           0.927613000000000    0.000000000000000    0.546903000000000 
%ENDBLOCK POSITIONS_FRAC
