# Cell file generated by matador (Matthew Evans 2016)

%BLOCK LATTICE_CART
7.7459 0.0 0.0
0.0 7.7459 0.0
0.0 0.0 7.7459
%ENDBLOCK LATTICE_CART

%BLOCK POSITIONS_FRAC
P           0.000000000000000    0.500000000000000    0.153860000000000 
P           0.000000000000000    0.500000000000000    0.500000000000000 
P           0.000000000000000    0.500000000000000    0.846140000000000 
P           0.153860000000000    0.000000000000000    0.500000000000000 
P           0.500000000000000    0.000000000000000    0.500000000000000 
P           0.500000000000000    0.153860000000000    0.000000000000000 
P           0.500000000000000    0.500000000000000    0.000000000000000 
P           0.500000000000000    0.846140000000000    0.000000000000000 
P           0.846140000000000    0.000000000000000    0.500000000000000 
K           0.000000000000000    0.000000000000000    0.000000000000000 
K           0.149072000000000    0.149072000000000    0.149072000000000 
K           0.149072000000000    0.850928000000000    0.850928000000000 
K           0.500000000000000    0.500000000000000    0.500000000000000 
K           0.850928000000000    0.149072000000000    0.850928000000000 
K           0.850928000000000    0.850928000000000    0.149072000000000 
%ENDBLOCK POSITIONS_FRAC
