# Cell file generated by matador (Matthew Evans 2016)

%BLOCK LATTICE_CART
9.47668 0.0 0.0
0.0 8.11207 0.0
4.67796 0.0 8.90114
%ENDBLOCK LATTICE_CART

%BLOCK POSITIONS_FRAC
P           0.018365000000000    0.000000000000000    0.430434000000000 
P           0.585918000000000    0.000000000000000    0.509538000000000 
P           0.709299000000000    0.000000000000000    0.024613000000000 
P           0.971950000000000    0.000000000000000    0.874498000000000 
K           0.000313000000000    0.500000000000000    0.596723000000000 
K           0.137704000000000    0.500000000000000    0.907591000000000 
K           0.221793000000000    0.000000000000000    0.080797000000000 
K           0.330645000000000    0.000000000000000    0.504989000000000 
K           0.347490000000000    0.500000000000000    0.213261000000000 
K           0.411956000000000    0.000000000000000    0.748687000000000 
K           0.462630000000000    0.000000000000000    0.183628000000000 
K           0.637073000000000    0.000000000000000    0.867442000000000 
K           0.673288000000000    0.500000000000000    0.618832000000000 
K           0.773218000000000    0.500000000000000    0.107245000000000 
K           0.826655000000000    0.000000000000000    0.154301000000000 
K           0.976021000000000    0.000000000000000    0.651415000000000 
%ENDBLOCK POSITIONS_FRAC
