# Cell file generated by matador (Matthew Evans 2016)

%BLOCK LATTICE_CART
7.67086 0.0 0.0
0.0 9.90049 0.0
0.0 0.0 7.84688
%ENDBLOCK LATTICE_CART

%BLOCK POSITIONS_FRAC
P           0.000000000000000    0.447071000000000    0.250000000000000 
P           0.000000000000000    0.552929000000000    0.750000000000000 
P           0.500000000000000    0.052929000000000    0.750000000000000 
P           0.500000000000000    0.947071000000000    0.250000000000000 
K           0.000000000000000    0.000000000000000    0.000000000000000 
K           0.000000000000000    0.000000000000000    0.500000000000000 
K           0.000000000000000    0.252812000000000    0.250000000000000 
K           0.000000000000000    0.500000000000000    0.000000000000000 
K           0.000000000000000    0.500000000000000    0.500000000000000 
K           0.000000000000000    0.747188000000000    0.750000000000000 
K           0.500000000000000    0.000000000000000    0.000000000000000 
K           0.500000000000000    0.000000000000000    0.500000000000000 
K           0.500000000000000    0.247188000000000    0.750000000000000 
K           0.500000000000000    0.500000000000000    0.000000000000000 
K           0.500000000000000    0.500000000000000    0.500000000000000 
K           0.500000000000000    0.752812000000000    0.250000000000000 
%ENDBLOCK POSITIONS_FRAC
