# Cell file generated by matador (Matthew Evans 2016)

%BLOCK LATTICE_CART
9.52246 0.0 0.0
0.0 12.8314 0.0
0.0 0.0 9.5201
%ENDBLOCK LATTICE_CART

%BLOCK POSITIONS_FRAC
P           0.047563000000000    0.111011000000000    0.153807000000000 
P           0.047563000000000    0.388989000000000    0.653807000000000 
P           0.452437000000000    0.111011000000000    0.153807000000000 
P           0.452437000000000    0.388989000000000    0.653807000000000 
P           0.547563000000000    0.611011000000000    0.653807000000000 
P           0.547563000000000    0.888989000000000    0.153807000000000 
P           0.952437000000000    0.611011000000000    0.653807000000000 
P           0.952437000000000    0.888989000000000    0.153807000000000 
K           0.000000000000000    0.000000000000000    0.955568000000000 
K           0.000000000000000    0.500000000000000    0.455568000000000 
K           0.250000000000000    0.119343000000000    0.847116000000000 
K           0.250000000000000    0.122633000000000    0.459221000000000 
K           0.250000000000000    0.189286000000000    0.149271000000000 
K           0.250000000000000    0.310714000000000    0.649271000000000 
K           0.250000000000000    0.377367000000000    0.959221000000000 
K           0.250000000000000    0.380657000000000    0.347116000000000 
K           0.250000000000000    0.606434000000000    0.648470000000000 
K           0.250000000000000    0.660528000000000    0.273825000000000 
K           0.250000000000000    0.839472000000000    0.773825000000000 
K           0.250000000000000    0.893566000000000    0.148470000000000 
K           0.500000000000000    0.000000000000000    0.955568000000000 
K           0.500000000000000    0.500000000000000    0.455568000000000 
K           0.750000000000000    0.106434000000000    0.148470000000000 
K           0.750000000000000    0.160528000000000    0.773825000000000 
K           0.750000000000000    0.339472000000000    0.273825000000000 
K           0.750000000000000    0.393566000000000    0.648470000000000 
K           0.750000000000000    0.619343000000000    0.347116000000000 
K           0.750000000000000    0.622633000000000    0.959221000000000 
K           0.750000000000000    0.689286000000000    0.649271000000000 
K           0.750000000000000    0.810714000000000    0.149271000000000 
K           0.750000000000000    0.877367000000000    0.459221000000000 
K           0.750000000000000    0.880657000000000    0.847116000000000 
%ENDBLOCK POSITIONS_FRAC
