# Cell file generated by matador (Matthew Evans 2016)

%BLOCK LATTICE_CART
3.59548 0.0 0.0
-1.79774 3.11378 0.0
0.0 0.0 5.38147
%ENDBLOCK LATTICE_CART

%BLOCK POSITIONS_FRAC
P           0.000000000000000    0.000000000000000    0.000000000000000 
K           0.333333000000000    0.666667000000000    0.500000000000000 
%ENDBLOCK POSITIONS_FRAC
