# Cell file generated by matador (Matthew Evans 2016)

%BLOCK LATTICE_CART
6.76807 0.0 0.0
0.0 6.76807 0.0
0.0 0.0 9.84298
%ENDBLOCK LATTICE_CART

%BLOCK POSITIONS_FRAC
P           0.000000000000000    0.500000000000000    0.003236000000000 
P           0.103360000000000    0.103360000000000    0.566503000000000 
P           0.103360000000000    0.896640000000000    0.566503000000000 
P           0.247969000000000    0.247969000000000    0.823466000000000 
P           0.247969000000000    0.752031000000000    0.823466000000000 
P           0.342354000000000    0.342354000000000    0.118164000000000 
P           0.342354000000000    0.657646000000000    0.118164000000000 
P           0.500000000000000    0.000000000000000    0.003236000000000 
P           0.657646000000000    0.342354000000000    0.118164000000000 
P           0.657646000000000    0.657646000000000    0.118164000000000 
P           0.752031000000000    0.247969000000000    0.823466000000000 
P           0.752031000000000    0.752031000000000    0.823466000000000 
P           0.896640000000000    0.103360000000000    0.566503000000000 
P           0.896640000000000    0.896640000000000    0.566503000000000 
K           0.000000000000000    0.500000000000000    0.330417000000000 
K           0.500000000000000    0.000000000000000    0.330417000000000 
%ENDBLOCK POSITIONS_FRAC
