# Cell file generated by matador (Matthew Evans 2016)

%BLOCK LATTICE_CART
7.31952 0.0 0.0
-2.16805 4.65858 0.0
0.449428 1.34296 6.72754
%ENDBLOCK LATTICE_CART

%BLOCK POSITIONS_FRAC
P           0.198676000000000    0.204611000000000    0.187097000000000 
P           0.277848000000000    0.282190000000000    0.546694000000000 
P           0.722152000000000    0.717810000000000    0.453306000000000 
P           0.801324000000000    0.795389000000000    0.812903000000000 
K           0.000000000000000    0.000000000000000    0.000000000000000 
K           0.000000000000000    0.500000000000000    0.500000000000000 
K           0.078957000000000    0.335525000000000    0.759129000000000 
K           0.921043000000000    0.664475000000000    0.240871000000000 
%ENDBLOCK POSITIONS_FRAC
