# Cell file generated by matador (Matthew Evans 2016)

%BLOCK LATTICE_CART
5.8665 0.0 0.0
0.960237 7.27437 0.0
1.11253 -3.15632 5.92061
%ENDBLOCK LATTICE_CART

%BLOCK POSITIONS_FRAC
P           0.032286000000000    0.814682000000000    0.669490000000000 
P           0.500000000000000    0.000000000000000    0.500000000000000 
P           0.967715000000000    0.185318000000000    0.330510000000000 
K           0.000000000000000    0.000000000000000    0.000000000000000 
K           0.000000000000000    0.000000000000000    0.500000000000000 
K           0.000000000000000    0.500000000000000    0.000000000000000 
K           0.500000000000000    0.000000000000000    0.000000000000000 
K           0.500000000000000    0.500000000000000    0.500000000000000 
%ENDBLOCK POSITIONS_FRAC
