# Cell file generated by matador (Matthew Evans 2016)

%BLOCK LATTICE_CART
6.86913 0.0 0.0
0.0 7.8982 0.0
-2.6946 0.0 7.71926
%ENDBLOCK LATTICE_CART

%BLOCK POSITIONS_FRAC
P           0.000000000000000    0.116299000000000   -0.000000000000000 
P           0.000000000000000    0.149413000000000    0.500000000000000 
P           0.000000000000000    0.614840000000000   -0.000000000000000 
P           0.000000000000000    0.754932000000000    0.500000000000000 
P           0.000000000000000    0.757955000000000   -0.000000000000000 
P           0.000000000000000    0.905583000000000    0.500000000000000 
P           0.500000000000000    0.353392000000000   -0.000000000000000 
K           0.355304000000000    0.020391000000000    0.626029000000000 
K           0.486630000000000    0.535033000000000    0.358341000000000 
K           0.513370000000000    0.535033000000000    0.641659000000000 
K           0.644696000000000    0.020391000000000    0.373971000000000 
%ENDBLOCK POSITIONS_FRAC
