# Cell file generated by matador (Matthew Evans 2016)

%BLOCK LATTICE_CART
5.76979 0.0 0.0
-2.88489 4.99678 0.0
0.0 0.0 9.5843
%ENDBLOCK LATTICE_CART

%BLOCK POSITIONS_FRAC
P           0.000000000000000    0.000000000000000    0.169455000000000 
P           0.000000000000000    0.000000000000000    0.542236000000000 
P           0.011132000000000    0.167448000000000    0.617342000000000 
P           0.097020000000000    0.563893000000000    0.382126000000000 
P           0.156316000000000    0.988868000000000    0.617342000000000 
P           0.333333000000000    0.666667000000000    0.992255000000000 
P           0.436107000000000    0.533127000000000    0.382126000000000 
P           0.466873000000000    0.902980000000000    0.382126000000000 
P           0.666667000000000    0.333333000000000    0.879023000000000 
P           0.832552000000000    0.843684000000000    0.617342000000000 
K           0.293469000000000    0.029771000000000    0.941440000000000 
K           0.666667000000000    0.333333000000000    0.465868000000000 
K           0.736302000000000    0.706531000000000    0.941440000000000 
K           0.970229000000000    0.263698000000000    0.941440000000000 
%ENDBLOCK POSITIONS_FRAC
