# Cell file generated by matador (Matthew Evans 2016)

%BLOCK LATTICE_CART
9.11776 0.0 0.0
0.0 9.11776 0.0
0.0 0.0 7.1021
%ENDBLOCK LATTICE_CART

%BLOCK POSITIONS_FRAC
P           0.197261000000000    0.802739000000000    0.934185000000000 
P           0.302739000000000    0.302739000000000    0.434185000000000 
P           0.697261000000000    0.697261000000000    0.434185000000000 
P           0.802739000000000    0.197261000000000    0.934185000000000 
K           0.115948000000000    0.115948000000000    0.898653000000000 
K           0.173878000000000    0.826122000000000    0.245304000000000 
K           0.210251000000000    0.789749000000000    0.661374000000000 
K           0.289749000000000    0.289749000000000    0.161374000000000 
K           0.326122000000000    0.326122000000000    0.745304000000000 
K           0.384052000000000    0.615948000000000    0.398653000000000 
K           0.615948000000000    0.384052000000000    0.398653000000000 
K           0.673878000000000    0.673878000000000    0.745304000000000 
K           0.710251000000000    0.710251000000000    0.161374000000000 
K           0.789749000000000    0.210251000000000    0.661374000000000 
K           0.826122000000000    0.173878000000000    0.245304000000000 
K           0.884052000000000    0.884052000000000    0.898653000000000 
%ENDBLOCK POSITIONS_FRAC
