# Cell file generated by matador (Matthew Evans 2016)

%BLOCK LATTICE_CART
7.00988 0.0 0.0
0.0 5.63762 0.0
1.40692 0.0 4.5298
%ENDBLOCK LATTICE_CART

%BLOCK POSITIONS_FRAC
P           0.000000000000000    0.007431000000000    0.000000000000000 
P           0.000000000000000    0.228474000000000    0.000000000000000 
P           0.000000000000000    0.847864000000000    0.500000000000000 
P           0.500000000000000    0.240272000000000    0.500000000000000 
P           0.500000000000000    0.607468000000000    0.500000000000000 
K           0.183730000000000    0.161901000000000    0.346810000000000 
K           0.816270000000000    0.161901000000000    0.653190000000000 
%ENDBLOCK POSITIONS_FRAC
