# Cell file generated by matador (Matthew Evans 2016)

%BLOCK LATTICE_CART
8.96928 0.0 0.0
-0.786943 8.32338 0.0
0.43778 2.09605 4.20175
%ENDBLOCK LATTICE_CART

%BLOCK POSITIONS_FRAC
P           0.000000000000000    0.000000000000000    0.500000000000000 
P           0.177937000000000    0.110201000000000    0.763267000000000 
P           0.451508000000000    0.656956000000000    0.372479000000000 
P           0.500000000000000    0.000000000000000    0.500000000000000 
P           0.500000000000000    0.500000000000000    0.000000000000000 
P           0.548492000000000    0.343044000000000    0.627521000000000 
P           0.822063000000000    0.889799000000000    0.236733000000000 
K           0.058913000000000    0.398388000000000    0.802306000000000 
K           0.329040000000000    0.889580000000000    0.160220000000000 
K           0.670960000000000    0.110420000000000    0.839780000000000 
K           0.941087000000000    0.601612000000000    0.197694000000000 
%ENDBLOCK POSITIONS_FRAC
