# Cell file generated by matador (Matthew Evans 2016)

%BLOCK LATTICE_CART
6.88104 0.0 0.0
-3.44052 5.95916 0.0
0.0 0.0 9.4397
%ENDBLOCK LATTICE_CART

%BLOCK POSITIONS_FRAC
P           0.000000000000000    0.000000000000000    0.000000000000000 
P           0.000000000000000    0.000000000000000    0.307810000000000 
P           0.000000000000000    0.000000000000000    0.500000000000000 
P           0.000000000000000    0.000000000000000    0.692190000000000 
P           0.000000000000000    0.220824000000000    0.000000000000000 
P           0.220824000000000    0.000000000000000    0.000000000000000 
P           0.779176000000000    0.779176000000000    0.000000000000000 
K           0.000000000000000    0.439802000000000    0.500000000000000 
K           0.333333000000000    0.666667000000000    0.750886000000000 
K           0.439802000000000    0.000000000000000    0.500000000000000 
K           0.560198000000000    0.560198000000000    0.500000000000000 
K           0.666667000000000    0.333333000000000    0.249114000000000 
%ENDBLOCK POSITIONS_FRAC
