# Cell file generated by matador (Matthew Evans 2016)

%BLOCK LATTICE_CART
7.67973 0.0 0.0
0.0 7.67973 0.0
0.0 0.0 5.95125
%ENDBLOCK LATTICE_CART

%BLOCK POSITIONS_FRAC
P           0.033380000000000    0.304664000000000    0.135337000000000 
P           0.087024000000000    0.269361000000000    0.614963000000000 
P           0.269361000000000    0.912976000000000    0.864963000000000 
P           0.304664000000000    0.966620000000000    0.385337000000000 
P           0.695336000000000    0.033380000000000    0.885337000000000 
P           0.730639000000000    0.087024000000000    0.364963000000000 
P           0.912976000000000    0.730639000000000    0.114963000000000 
P           0.966620000000000    0.695336000000000    0.635337000000000 
K           0.144558000000000    0.782236000000000    0.260229000000000 
K           0.217764000000000    0.144558000000000    0.010229000000000 
K           0.782236000000000    0.855442000000000    0.510229000000000 
K           0.855442000000000    0.217764000000000    0.760229000000000 
%ENDBLOCK POSITIONS_FRAC
