# Cell file generated by matador (Matthew Evans 2016)

%BLOCK LATTICE_CART
6.41077 0.0 0.0
0.0 7.22606 0.0
0.762914 0.0 9.9643
%ENDBLOCK LATTICE_CART

%BLOCK POSITIONS_FRAC
P           0.389206000000000    0.000000000000000    0.108817000000000 
P           0.465151000000000    0.500000000000000    0.228638000000000 
P           0.889206000000000    0.500000000000000    0.108817000000000 
P           0.965151000000000    0.000000000000000    0.228638000000000 
K           0.000278000000000    0.000000000000000    0.502193000000000 
K           0.048782000000000    0.000000000000000    0.958481000000000 
K           0.214184000000000    0.500000000000000    0.983736000000000 
K           0.254447000000000    0.500000000000000    0.737515000000000 
K           0.375092000000000    0.000000000000000    0.559741000000000 
K           0.500278000000000    0.500000000000000    0.502193000000000 
K           0.548782000000000    0.500000000000000    0.958481000000000 
K           0.714184000000000    0.000000000000000    0.983736000000000 
K           0.754447000000000    0.000000000000000    0.737515000000000 
K           0.875092000000000    0.500000000000000    0.559741000000000 
%ENDBLOCK POSITIONS_FRAC
