# Cell file generated by matador (Matthew Evans 2016)

%BLOCK LATTICE_CART
6.40993 0.0 0.0
-3.20497 5.55117 0.0
0.0 0.0 8.02451
%ENDBLOCK LATTICE_CART

%BLOCK POSITIONS_FRAC
P          -0.000000000000000    0.000000000000000    0.419912000000000 
P           0.062329000000000    0.124660000000000    0.756904000000000 
P           0.062329000000000    0.937671000000000    0.756904000000000 
P           0.189215000000000    0.378430000000000    0.460596000000000 
P           0.189215000000000    0.810785000000000    0.460596000000000 
P           0.203651000000000    0.601826000000000    0.533464000000000 
P           0.333333000000000    0.666667000000000    0.353005000000000 
P           0.398174000000000    0.601826000000000    0.533464000000000 
P           0.398174000000000    0.796349000000000    0.533464000000000 
P           0.510614000000000    0.021228000000000    0.306051000000000 
P           0.510614000000000    0.489386000000000    0.306051000000000 
P           0.621570000000000    0.810785000000000    0.460596000000000 
P           0.875340000000000    0.937671000000000    0.756904000000000 
P           0.978772000000000    0.489386000000000    0.306051000000000 
K           0.333333000000000    0.666667000000000    0.783653000000000 
K           0.666666000000000    0.333334000000000    0.772537000000000 
%ENDBLOCK POSITIONS_FRAC
