# Cell file generated by matador (Matthew Evans 2016)

%BLOCK LATTICE_CART
7.79411 0.0 0.0
0.0 7.79411 0.0
0.0 0.0 5.32599
%ENDBLOCK LATTICE_CART

%BLOCK POSITIONS_FRAC
P           0.000000000000000    0.000000000000000    0.384831000000000 
P           0.000000000000000    0.000000000000000    0.615169000000000 
P           0.500000000000000    0.500000000000000    0.384831000000000 
P           0.500000000000000    0.500000000000000    0.615169000000000 
K           0.000000000000000    0.000000000000000    0.000000000000000 
K           0.250000000000000    0.250000000000000    0.000000000000000 
K           0.250000000000000    0.750000000000000    0.000000000000000 
K           0.500000000000000    0.500000000000000    0.000000000000000 
K           0.750000000000000    0.250000000000000    0.000000000000000 
K           0.750000000000000    0.750000000000000    0.000000000000000 
%ENDBLOCK POSITIONS_FRAC
