# Cell file generated by matador (Matthew Evans 2016)

%BLOCK LATTICE_CART
8.94261 0.0 0.0
0.0 4.92463 0.0
-0.0398798 0.0 7.22119
%ENDBLOCK LATTICE_CART

%BLOCK POSITIONS_FRAC
P           0.103164000000000    0.367296000000000    0.359381000000000 
P           0.103164000000000    0.632704000000000    0.359381000000000 
K           0.004596000000000    0.000000000000000    0.365226000000000 
K           0.359793000000000    0.500000000000000    0.239308000000000 
K           0.506694000000000    0.500000000000000    0.014599000000000 
K           0.678890000000000    0.500000000000000    0.650427000000000 
K           0.760063000000000    0.000000000000000    0.161816000000000 
K           0.936540000000000    0.000000000000000    0.947865000000000 
%ENDBLOCK POSITIONS_FRAC
