# Cell file generated by matador (Matthew Evans 2016)

%BLOCK LATTICE_CART
5.66028 0.0 0.0
-0.239538 7.16186 0.0
0.98819 -2.74847 8.2167
%ENDBLOCK LATTICE_CART

%BLOCK POSITIONS_FRAC
P           0.000000000000000    0.000000000000000    0.500000000000000 
P           0.000000000000000    0.500000000000000    0.500000000000000 
P           0.172421000000000    0.020275000000000    0.731827000000000 
P           0.348476000000000    0.657085000000000    0.643220000000000 
P           0.500000000000000    0.500000000000000    0.000000000000000 
P           0.651524000000000    0.342915000000000    0.356780000000000 
P           0.827579000000000    0.979725000000000    0.268173000000000 
K           0.000000000000000    0.500000000000000    0.000000000000000 
K           0.154427000000000    0.595225000000000    0.207136000000000 
K           0.363962000000000    0.197257000000000    0.185694000000000 
K           0.636038000000000    0.802743000000000    0.814306000000000 
K           0.845573000000000    0.404775000000000    0.792864000000000 
%ENDBLOCK POSITIONS_FRAC
