# Cell file generated by matador (Matthew Evans 2016)

%BLOCK LATTICE_CART
6.99065 0.0 0.0
-3.49533 6.05408 0.0
0.0 0.0 10.3941
%ENDBLOCK LATTICE_CART

%BLOCK POSITIONS_FRAC
P           0.000000000000000    0.000000000000000    0.397226000000000 
P           0.333333000000000    0.666667000000000    0.063893000000000 
P           0.666667000000000    0.333333000000000    0.730559000000000 
K           0.043432000000000    0.521716000000000    0.677038000000000 
K           0.144950000000000    0.289901000000000    0.010371000000000 
K           0.144950000000000    0.855050000000000    0.010371000000000 
K           0.376766000000000    0.188383000000000    0.343704000000000 
K           0.478284000000000    0.521716000000000    0.677038000000000 
K           0.478284000000000    0.956568000000000    0.677038000000000 
K           0.710099000000000    0.855050000000000    0.010371000000000 
K           0.811617000000000    0.188383000000000    0.343704000000000 
K           0.811617000000000    0.623234000000000    0.343704000000000 
%ENDBLOCK POSITIONS_FRAC
