# Cell file generated by matador (Matthew Evans 2016)

%BLOCK LATTICE_CART
9.39301 0.0 0.0
-4.69651 8.13459 0.0
0.0 0.0 8.88702
%ENDBLOCK LATTICE_CART

%BLOCK POSITIONS_FRAC
P           0.333334000000000    0.666668000000000    0.381558000000000 
P           0.333334000000000    0.666668000000000    0.881558000000000 
P           0.666668000000000    0.333334000000000    0.381558000000000 
P           0.666668000000000    0.333334000000000    0.881558000000000 
K           0.000001000000000    0.314325000000000    0.919673000000000 
K           0.000001000000000    0.331059000000000    0.405995000000000 
K           0.000001000000000    0.668943000000000    0.905995000000000 
K           0.000001000000000    0.685677000000000    0.419673000000000 
K           0.314325000000000    0.000001000000000    0.919673000000000 
K           0.314325000000000    0.314325000000000    0.419673000000000 
K           0.331059000000000    0.000001000000000    0.405995000000000 
K           0.331059000000000    0.331059000000000    0.905995000000000 
K           0.668943000000000    0.000001000000000    0.905995000000000 
K           0.668943000000000    0.668943000000000    0.405995000000000 
K           0.685677000000000    0.000001000000000    0.419673000000000 
K           0.685677000000000    0.685677000000000    0.919673000000000 
%ENDBLOCK POSITIONS_FRAC
