# Cell file generated by matador (Matthew Evans 2016)

%BLOCK LATTICE_CART
7.47866 0.0 0.0
0.0 7.47866 0.0
0.0 0.0 8.22951
%ENDBLOCK LATTICE_CART

%BLOCK POSITIONS_FRAC
P          -0.000000000000000   -0.000000000000000    0.233521000000000 
P          -0.000000000000000   -0.000000000000000    0.500000000000000 
P          -0.000000000000000   -0.000000000000000    0.766479000000000 
P          -0.000000000000000    0.232573000000000    0.500000000000000 
P          -0.000000000000000    0.767427000000000    0.500000000000000 
P           0.232573000000000   -0.000000000000000    0.500000000000000 
P           0.267427000000000    0.500000000000000   -0.000000000000000 
P           0.500000000000000    0.267427000000000   -0.000000000000000 
P           0.500000000000000    0.500000000000000   -0.000000000000000 
P           0.500000000000000    0.500000000000000    0.266479000000000 
P           0.500000000000000    0.500000000000000    0.733521000000000 
P           0.500000000000000    0.732573000000000   -0.000000000000000 
P           0.732573000000000    0.500000000000000   -0.000000000000000 
P           0.767427000000000   -0.000000000000000    0.500000000000000 
K          -0.000000000000000    0.500000000000000   -0.000000000000000 
K          -0.000000000000000    0.500000000000000    0.500000000000000 
K           0.500000000000000   -0.000000000000000   -0.000000000000000 
K           0.500000000000000   -0.000000000000000    0.500000000000000 
%ENDBLOCK POSITIONS_FRAC
