# Cell file generated by matador (Matthew Evans 2016)

%BLOCK LATTICE_CART
8.44701 0.0 0.0
-4.22351 7.31533 0.0
0.0 0.0 5.72123
%ENDBLOCK LATTICE_CART

%BLOCK POSITIONS_FRAC
P           0.062420000000000    0.665351000000000    0.956386000000000 
P           0.138609000000000    0.793534000000000    0.791870000000000 
P           0.206466000000000    0.345077000000000    0.791870000000000 
P           0.334649000000000    0.397070000000000    0.956386000000000 
P           0.345076000000000    0.206467000000000    0.291870000000000 
P           0.397069000000000    0.334650000000000    0.456386000000000 
P           0.602930000000000    0.937580000000000    0.956386000000000 
P           0.654923000000000    0.861391000000000    0.791870000000000 
P           0.665350000000000    0.062421000000000    0.456386000000000 
P           0.793533000000000    0.138610000000000    0.291870000000000 
P           0.861390000000000    0.654924000000000    0.291870000000000 
P           0.937579000000000    0.602931000000000    0.456386000000000 
K           0.333333000000000    0.666667000000000    0.972684000000000 
K           0.666666000000000    0.333334000000000    0.472684000000000 
%ENDBLOCK POSITIONS_FRAC
