# Cell file generated by matador (Matthew Evans 2016)

%BLOCK LATTICE_CART
7.75145 0.0 0.0
-3.87572 6.71295 0.0
0.0 0.0 6.00575
%ENDBLOCK LATTICE_CART

%BLOCK POSITIONS_FRAC
P           0.000000000000000    0.000000000000000    0.500000000000000 
P           0.227263000000000    0.739607000000000    0.721840000000000 
P           0.260393000000000    0.487656000000000    0.721840000000000 
P           0.487656000000000    0.260393000000000    0.278160000000000 
P           0.512344000000000    0.772737000000000    0.721840000000000 
P           0.739607000000000    0.227263000000000    0.278160000000000 
P           0.772737000000000    0.512344000000000    0.278160000000000 
K           0.000000000000000    0.306632000000000    0.500000000000000 
K           0.306632000000000    0.000000000000000    0.500000000000000 
K           0.693368000000000    0.693368000000000    0.500000000000000 
%ENDBLOCK POSITIONS_FRAC
