# Cell file generated by matador (Matthew Evans 2016)

%BLOCK LATTICE_CART
8.14707 0.0 0.0
0.0 8.14707 0.0
0.0 0.0 9.55507
%ENDBLOCK LATTICE_CART

%BLOCK POSITIONS_FRAC
P           0.000000000000000    0.000000000000000    0.000000000000000 
P           0.000000000000000    0.000000000000000    0.500000000000000 
P           0.500000000000000    0.500000000000000    0.000000000000000 
P           0.500000000000000    0.500000000000000    0.500000000000000 
K           0.000000000000000    0.500000000000000    0.000000000000000 
K           0.000000000000000    0.500000000000000    0.500000000000000 
K           0.170825000000000    0.170825000000000    0.114676000000000 
K           0.170825000000000    0.829175000000000    0.885324000000000 
K           0.329175000000000    0.329175000000000    0.614676000000000 
K           0.329175000000000    0.670825000000000    0.385324000000000 
K           0.500000000000000    0.000000000000000    0.000000000000000 
K           0.500000000000000    0.000000000000000    0.500000000000000 
K           0.670825000000000    0.329175000000000    0.385324000000000 
K           0.670825000000000    0.670825000000000    0.614676000000000 
K           0.829175000000000    0.170825000000000    0.885324000000000 
K           0.829175000000000    0.829175000000000    0.114676000000000 
%ENDBLOCK POSITIONS_FRAC
