# Cell file generated by matador (Matthew Evans 2016)

%BLOCK LATTICE_CART
9.37417 0.0 0.0
0.0 9.37417 0.0
0.0 0.0 5.82132
%ENDBLOCK LATTICE_CART

%BLOCK POSITIONS_FRAC
P           0.000000000000000    0.000000000000000    0.000000000000000 
P           0.000000000000000    0.000000000000000    0.500000000000000 
P           0.500000000000000    0.500000000000000    0.000000000000000 
K           0.174310000000000    0.174310000000000    0.136230000000000 
K           0.174310000000000    0.825690000000000    0.863770000000000 
K           0.262537000000000    0.262537000000000    0.634552000000000 
K           0.262537000000000    0.737463000000000    0.365448000000000 
K           0.500000000000000    0.500000000000000    0.500000000000000 
K           0.737463000000000    0.262537000000000    0.365448000000000 
K           0.737463000000000    0.737463000000000    0.634552000000000 
K           0.825690000000000    0.174310000000000    0.863770000000000 
K           0.825690000000000    0.825690000000000    0.136230000000000 
%ENDBLOCK POSITIONS_FRAC
