# Cell file generated by matador (Matthew Evans 2016)

%BLOCK LATTICE_CART
9.54102 0.0 0.0
0.0 7.26479 0.0
1.62742 0.0 4.86813
%ENDBLOCK LATTICE_CART

%BLOCK POSITIONS_FRAC
P           0.000000000000000    0.348273000000000    0.500000000000000 
P           0.000000000000000    0.500000000000000    0.000000000000000 
P           0.000000000000000    0.651727000000000    0.500000000000000 
K           0.000000000000000    0.000000000000000    0.500000000000000 
K           0.182163000000000    0.149546000000000    0.004194000000000 
K           0.182163000000000    0.850454000000000    0.004194000000000 
K           0.500000000000000    0.000000000000000    0.000000000000000 
K           0.500000000000000    0.000000000000000    0.500000000000000 
K           0.500000000000000    0.500000000000000    0.000000000000000 
K           0.500000000000000    0.500000000000000    0.500000000000000 
K           0.817837000000000    0.149546000000000    0.995806000000000 
K           0.817837000000000    0.850454000000000    0.995806000000000 
%ENDBLOCK POSITIONS_FRAC
