# Cell file generated by matador (Matthew Evans 2016)

%BLOCK LATTICE_CART
4.89513 0.0 0.0
-2.44756 4.2393 0.0
0.0 0.0 7.69957
%ENDBLOCK LATTICE_CART

%BLOCK POSITIONS_FRAC
P           0.333333000000000    0.666667000000000    0.259653000000000 
P           0.333333000000000    0.666667000000000    0.740347000000000 
P           0.666667000000000    0.333333000000000    0.259653000000000 
P           0.666667000000000    0.333333000000000    0.740347000000000 
K           0.000000000000000    0.000000000000000    0.500000000000000 
K           0.333333000000000    0.666667000000000    0.000000000000000 
K           0.666667000000000    0.333333000000000    0.000000000000000 
%ENDBLOCK POSITIONS_FRAC
