# Cell file generated by matador (Matthew Evans 2016)

%BLOCK LATTICE_CART
7.37548 -0.0 0.0
-3.68774 6.38735 0.0
0.0 0.0 6.63366
%ENDBLOCK LATTICE_CART

%BLOCK POSITIONS_FRAC
P           0.200117000000000    0.456459000000000    0.702751000000000 
P           0.256342000000000    0.799883000000000    0.702751000000000 
P           0.333333000000000    0.666667000000000    0.007354000000000 
P           0.543541000000000    0.743658000000000    0.702751000000000 
K           0.000000000000000    0.000000000000000    0.795392000000000 
K           0.373243000000000    0.268302000000000    0.164037000000000 
K           0.666667000000000    0.333333000000000    0.465093000000000 
K           0.731698000000000    0.104941000000000    0.164037000000000 
K           0.895059000000000    0.626757000000000    0.164037000000000 
%ENDBLOCK POSITIONS_FRAC
