# Cell file generated by matador (Matthew Evans 2016)

%BLOCK LATTICE_CART
8.70462 0.0 0.0
0.0 8.70462 0.0
0.0 0.0 6.55449
%ENDBLOCK LATTICE_CART

%BLOCK POSITIONS_FRAC
P           0.000000000000000    0.000000000000000    0.393299000000000 
P           0.000000000000000    0.000000000000000    0.606701000000000 
P           0.000000000000000    0.500000000000000    0.969154000000000 
P           0.005429000000000    0.308194000000000    0.682080000000000 
P           0.094279000000000    0.684153000000000    0.913354000000000 
P           0.308194000000000    0.994571000000000    0.317920000000000 
P           0.315847000000000    0.094279000000000    0.086646000000000 
P           0.500000000000000    0.000000000000000    0.030846000000000 
P           0.684153000000000    0.905721000000000    0.086646000000000 
P           0.691806000000000    0.005429000000000    0.317920000000000 
P           0.905721000000000    0.315847000000000    0.913354000000000 
P           0.994571000000000    0.691806000000000    0.682080000000000 
K           0.000000000000000    0.000000000000000    0.000000000000000 
K           0.500000000000000    0.500000000000000    0.000000000000000 
K           0.500000000000000    0.500000000000000    0.500000000000000 
%ENDBLOCK POSITIONS_FRAC
