# Cell file generated by matador (Matthew Evans 2016)

%BLOCK LATTICE_CART
5.88367 0.0 0.0
-2.94183 5.0954 0.0
0.0 0.0 5.89512
%ENDBLOCK LATTICE_CART

%BLOCK POSITIONS_FRAC
P           0.333332000000000    0.666666000000000    0.589263000000000 
P           0.333332000000000    0.666666000000000    0.910737000000000 
P           0.666666000000000    0.333332000000000    0.089263000000000 
P           0.666666000000000    0.333332000000000    0.410737000000000 
K           0.333332000000000    0.666666000000000    0.250000000000000 
K           0.666666000000000    0.333332000000000    0.750000000000000 
%ENDBLOCK POSITIONS_FRAC
