# Cell file generated by matador (Matthew Evans 2016)

%BLOCK LATTICE_CART
8.70082 0.0 0.0
0.0 8.70082 0.0
0.0 0.0 9.03399
%ENDBLOCK LATTICE_CART

%BLOCK POSITIONS_FRAC
P           0.306286000000000    0.500000000000000    0.902749000000000 
P           0.500000000000000    0.306286000000000    0.402749000000000 
P           0.500000000000000    0.693714000000000    0.402749000000000 
P           0.693714000000000    0.500000000000000    0.902749000000000 
K           0.000000000000000    0.293602000000000    0.289025000000000 
K           0.000000000000000    0.500000000000000    0.624316000000000 
K           0.000000000000000    0.706398000000000    0.289025000000000 
K           0.293602000000000    0.000000000000000    0.789025000000000 
K           0.310723000000000    0.321322000000000    0.131966000000000 
K           0.310723000000000    0.678678000000000    0.131966000000000 
K           0.321322000000000    0.310723000000000    0.631966000000000 
K           0.321322000000000    0.689277000000000    0.631966000000000 
K           0.500000000000000    0.000000000000000    0.124316000000000 
K           0.678678000000000    0.310723000000000    0.631966000000000 
K           0.678678000000000    0.689277000000000    0.631966000000000 
K           0.689277000000000    0.321322000000000    0.131966000000000 
K           0.689277000000000    0.678678000000000    0.131966000000000 
K           0.706398000000000    0.000000000000000    0.789025000000000 
%ENDBLOCK POSITIONS_FRAC
