# Cell file generated by matador (Matthew Evans 2016)

%BLOCK LATTICE_CART
7.05285 0.0 0.0
-3.52642 6.10795 0.0
0.0 0.0 9.66209
%ENDBLOCK LATTICE_CART

%BLOCK POSITIONS_FRAC
P           0.115670000000000    0.557835000000000    0.553086000000000 
P           0.442167000000000    0.557835000000000    0.553086000000000 
P           0.442167000000000    0.884332000000000    0.553086000000000 
P           0.557835000000000    0.115670000000000    0.053086000000000 
P           0.557835000000000    0.442167000000000    0.053086000000000 
P           0.884332000000000    0.442167000000000    0.053086000000000 
K           0.144174000000000    0.288348000000000    0.328917000000000 
K           0.144174000000000    0.855828000000000    0.328917000000000 
K           0.288348000000000    0.144174000000000    0.828917000000000 
K           0.333334000000000    0.666668000000000    0.171761000000000 
K           0.333334000000000    0.666668000000000    0.780317000000000 
K           0.666668000000000    0.333334000000000    0.280317000000000 
K           0.666668000000000    0.333334000000000    0.671761000000000 
K           0.711654000000000    0.855828000000000    0.328917000000000 
K           0.855828000000000    0.144174000000000    0.828917000000000 
K           0.855828000000000    0.711654000000000    0.828917000000000 
%ENDBLOCK POSITIONS_FRAC
