# Cell file generated by matador (Matthew Evans 2016)

%BLOCK LATTICE_CART
9.47441 0.0 0.0
0.0 9.47441 0.0
0.0 0.0 5.45212
%ENDBLOCK LATTICE_CART

%BLOCK POSITIONS_FRAC
P           0.000000000000000    0.000000000000000    0.000000000000000 
P           0.000000000000000    0.000000000000000    0.176051000000000 
P           0.000000000000000    0.000000000000000    0.823949000000000 
P           0.128739000000000    0.628739000000000    0.500000000000000 
P           0.154717000000000    0.654717000000000    0.000000000000000 
P           0.345283000000000    0.154717000000000    0.000000000000000 
P           0.371261000000000    0.128739000000000    0.500000000000000 
P           0.500000000000000    0.500000000000000    0.000000000000000 
P           0.500000000000000    0.500000000000000    0.176051000000000 
P           0.500000000000000    0.500000000000000    0.823949000000000 
P           0.628739000000000    0.871261000000000    0.500000000000000 
P           0.654717000000000    0.845283000000000    0.000000000000000 
P           0.845283000000000    0.345283000000000    0.000000000000000 
P           0.871261000000000    0.371261000000000    0.500000000000000 
K           0.000000000000000    0.500000000000000    0.000000000000000 
K           0.500000000000000    0.000000000000000    0.000000000000000 
%ENDBLOCK POSITIONS_FRAC
