# Cell file generated by matador (Matthew Evans 2016)

%BLOCK LATTICE_CART
8.53916 0.0 0.0
-4.26958 7.39513 0.0
0.0 0.0 10.8766
%ENDBLOCK LATTICE_CART

%BLOCK POSITIONS_FRAC
P           0.000000000000000    0.000000000000000    0.500000000000000 
P           0.333333000000000    0.666667000000000    0.500000000000000 
P           0.666667000000000    0.333333000000000    0.500000000000000 
K           0.000000000000000    0.000000000000000    0.000000000000000 
K           0.000000000000000    0.410750000000000    0.742681000000000 
K           0.000000000000000    0.500000000000000    0.000000000000000 
K           0.000000000000000    0.500000000000000    0.500000000000000 
K           0.000000000000000    0.589250000000000    0.257319000000000 
K           0.333333000000000    0.666667000000000    0.000000000000000 
K           0.410750000000000    0.000000000000000    0.742681000000000 
K           0.410750000000000    0.410750000000000    0.257319000000000 
K           0.500000000000000    0.000000000000000    0.000000000000000 
K           0.500000000000000    0.000000000000000    0.500000000000000 
K           0.500000000000000    0.500000000000000    0.000000000000000 
K           0.500000000000000    0.500000000000000    0.500000000000000 
K           0.589250000000000    0.000000000000000    0.257319000000000 
K           0.589250000000000    0.589250000000000    0.742681000000000 
K           0.666667000000000    0.333333000000000    0.000000000000000 
%ENDBLOCK POSITIONS_FRAC
