# Cell file generated by matador (Matthew Evans 2016)

%BLOCK LATTICE_CART
10.2051 0.0 0.0
0.0 9.37362 0.0
0.0 0.0 7.61834
%ENDBLOCK LATTICE_CART

%BLOCK POSITIONS_FRAC
P           0.000000000000000    0.000000000000000    0.925217000000000 
P           0.000000000000000    0.500000000000000    0.622286000000000 
P           0.151278000000000    0.342376000000000    0.650216000000000 
P           0.348722000000000    0.842376000000000    0.349784000000000 
P           0.500000000000000    0.000000000000000    0.377714000000000 
P           0.500000000000000    0.500000000000000    0.074783000000000 
P           0.651278000000000    0.157624000000000    0.349784000000000 
P           0.848722000000000    0.657624000000000    0.650216000000000 
K           0.000000000000000    0.000000000000000    0.212368000000000 
K           0.000000000000000    0.500000000000000    0.995176000000000 
K           0.058918000000000    0.710414000000000    0.715331000000000 
K           0.176681000000000    0.462839000000000    0.268103000000000 
K           0.323319000000000    0.962839000000000    0.731897000000000 
K           0.441082000000000    0.210414000000000    0.284669000000000 
K           0.500000000000000    0.000000000000000    0.004824000000000 
K           0.500000000000000    0.500000000000000    0.787632000000000 
K           0.558918000000000    0.789586000000000    0.284669000000000 
K           0.676681000000000    0.037161000000000    0.731897000000000 
K           0.823319000000000    0.537161000000000    0.268103000000000 
K           0.941082000000000    0.289586000000000    0.715331000000000 
%ENDBLOCK POSITIONS_FRAC
