# Cell file generated by matador (Matthew Evans 2016)

%BLOCK LATTICE_CART
7.11704 0.0 0.0
0.929509 8.17545 0.0
2.46996 -2.39209 6.53278
%ENDBLOCK LATTICE_CART

%BLOCK POSITIONS_FRAC
P           0.104628000000000    0.242313000000000    0.882653000000000 
P           0.203128000000000    0.656643000000000    0.989421000000000 
P           0.796872000000000    0.343357000000000    0.010579000000000 
P           0.895372000000000    0.757687000000000    0.117347000000000 
K           0.000000000000000    0.000000000000000    0.000000000000000 
K           0.000000000000000    0.000000000000000    0.500000000000000 
K           0.000000000000000    0.500000000000000    0.000000000000000 
K           0.000000000000000    0.500000000000000    0.500000000000000 
K           0.228620000000000    0.661827000000000    0.365008000000000 
K           0.500000000000000    0.000000000000000    0.000000000000000 
K           0.500000000000000    0.000000000000000    0.500000000000000 
K           0.500000000000000    0.500000000000000    0.000000000000000 
K           0.500000000000000    0.500000000000000    0.500000000000000 
K           0.771380000000000    0.338173000000000    0.634992000000000 
%ENDBLOCK POSITIONS_FRAC
