# Cell file generated by matador (Matthew Evans 2016)

%BLOCK LATTICE_CART
6.38248 0.0 0.0
0.0 6.38248 0.0
0.0 0.0 6.08819
%ENDBLOCK LATTICE_CART

%BLOCK POSITIONS_FRAC
P           0.193776000000000    0.193776000000000    0.746112000000000 
P           0.198998000000000    0.198998000000000    0.442479000000000 
P           0.301002000000000    0.698998000000000    0.942479000000000 
P           0.306224000000000    0.693776000000000    0.246112000000000 
P           0.693776000000000    0.306224000000000    0.246112000000000 
P           0.698998000000000    0.301002000000000    0.942479000000000 
P           0.801002000000000    0.801002000000000    0.442479000000000 
P           0.806224000000000    0.806224000000000    0.746112000000000 
K           0.000000000000000    0.000000000000000    0.109262000000000 
K           0.500000000000000    0.500000000000000    0.609262000000000 
%ENDBLOCK POSITIONS_FRAC
