# Cell file generated by matador (Matthew Evans 2016)

%BLOCK LATTICE_CART
3.69164 0.0 0.0
0.0 8.98373 0.0
0.0 0.0 12.6525
%ENDBLOCK LATTICE_CART

%BLOCK POSITIONS_FRAC
P           0.000000000000000    0.000000000000000    0.329395000000000 
P           0.323763000000000    0.357791000000000    0.827342000000000 
P           0.323763000000000    0.642209000000000    0.827342000000000 
P           0.500000000000000    0.000000000000000    0.171109000000000 
P           0.500000000000000    0.000000000000000    0.658310000000000 
P           0.500000000000000    0.000000000000000    0.750927000000000 
P           0.500000000000000    0.500000000000000    0.560000000000000 
P           0.676237000000000    0.357791000000000    0.827342000000000 
P           0.676237000000000    0.642209000000000    0.827342000000000 
K           0.000000000000000    0.000000000000000    0.505852000000000 
K           0.500000000000000    0.500000000000000    0.081192000000000 
K           0.500000000000000    0.500000000000000    0.251707000000000 
%ENDBLOCK POSITIONS_FRAC
