# Cell file generated by matador (Matthew Evans 2016)

%BLOCK LATTICE_CART
8.88806 0.0 0.0
0.0 7.31257 0.0
0.0 0.0 4.91497
%ENDBLOCK LATTICE_CART

%BLOCK POSITIONS_FRAC
P           0.000000000000000    0.000000000000000    0.500000000000000 
P           0.500000000000000    0.000000000000000    0.500000000000000 
K           0.000000000000000    0.000000000000000    0.000000000000000 
K           0.080629000000000    0.500000000000000    0.744960000000000 
K           0.419371000000000    0.500000000000000    0.744960000000000 
K           0.500000000000000    0.000000000000000    0.000000000000000 
K           0.580629000000000    0.500000000000000    0.255040000000000 
K           0.919371000000000    0.500000000000000    0.255040000000000 
%ENDBLOCK POSITIONS_FRAC
