# Cell file generated by matador (Matthew Evans 2016)

%BLOCK LATTICE_CART
8.09688 0.0 0.0
0.0 12.1673 0.0
0.0 0.0 13.0338
%ENDBLOCK LATTICE_CART

%BLOCK POSITIONS_FRAC
P           0.108062000000000    0.149354000000000    0.398047000000000 
P           0.108062000000000    0.850646000000000    0.398047000000000 
P           0.391938000000000    0.149354000000000    0.398047000000000 
P           0.391938000000000    0.850646000000000    0.398047000000000 
P           0.608062000000000    0.149354000000000    0.601953000000000 
P           0.608062000000000    0.850646000000000    0.601953000000000 
P           0.891938000000000    0.149354000000000    0.601953000000000 
P           0.891938000000000    0.850646000000000    0.601953000000000 
K           0.000000000000000    0.000000000000000    0.000000000000000 
K           0.000000000000000    0.000000000000000    0.500000000000000 
K           0.000000000000000    0.500000000000000    0.500000000000000 
K           0.036535000000000    0.000000000000000    0.270845000000000 
K           0.056319000000000    0.500000000000000    0.278278000000000 
K           0.250000000000000    0.176292000000000    0.682250000000000 
K           0.250000000000000    0.366854000000000    0.886249000000000 
K           0.250000000000000    0.500000000000000    0.084041000000000 
K           0.250000000000000    0.633146000000000    0.886249000000000 
K           0.250000000000000    0.823708000000000    0.682250000000000 
K           0.443681000000000    0.500000000000000    0.278278000000000 
K           0.463465000000000    0.000000000000000    0.270845000000000 
K           0.500000000000000    0.000000000000000    0.000000000000000 
K           0.500000000000000    0.000000000000000    0.500000000000000 
K           0.500000000000000    0.500000000000000    0.500000000000000 
K           0.536535000000000    0.000000000000000    0.729155000000000 
K           0.556319000000000    0.500000000000000    0.721722000000000 
K           0.750000000000000    0.176292000000000    0.317750000000000 
K           0.750000000000000    0.366854000000000    0.113751000000000 
K           0.750000000000000    0.500000000000000    0.915959000000000 
K           0.750000000000000    0.633146000000000    0.113751000000000 
K           0.750000000000000    0.823708000000000    0.317750000000000 
K           0.943681000000000    0.500000000000000    0.721722000000000 
K           0.963465000000000    0.000000000000000    0.729155000000000 
%ENDBLOCK POSITIONS_FRAC
