# Cell file generated by matador (Matthew Evans 2016)

%BLOCK LATTICE_CART
8.69482 0.0 0.0
-4.34741 7.52993 0.0
0.0 0.0 7.64692
%ENDBLOCK LATTICE_CART

%BLOCK POSITIONS_FRAC
P          -0.000000000000000   -0.000000000000000    0.546177000000000 
P           0.333333000000000    0.666667000000000    0.212843000000000 
P           0.666667000000000    0.333333000000000    0.879510000000000 
K           0.181503000000000    0.363007000000000    0.715097000000000 
K           0.181503000000000    0.818497000000000    0.715097000000000 
K           0.303660000000000    0.151830000000000    0.048430000000000 
K           0.514837000000000    0.029673000000000    0.381764000000000 
K           0.514837000000000    0.485163000000000    0.381764000000000 
K           0.636993000000000    0.818497000000000    0.715097000000000 
K           0.848170000000000    0.151830000000000    0.048430000000000 
K           0.848170000000000    0.696340000000000    0.048430000000000 
K           0.970327000000000    0.485163000000000    0.381764000000000 
%ENDBLOCK POSITIONS_FRAC
