# Cell file generated by matador (Matthew Evans 2016)

%BLOCK LATTICE_CART
7.19492 0.0 0.0
-3.59746 6.23098 0.0
0.0 0.0 9.96908
%ENDBLOCK LATTICE_CART

%BLOCK POSITIONS_FRAC
P          -0.000000000000000    0.000000000000000    0.500000000000000 
P          -0.000000000000000    0.337312000000000    0.000000000000000 
P           0.003978000000000    0.333333000000000    0.333333000000000 
P           0.329355000000000    0.996022000000000    0.333333000000000 
P           0.333333000000000    0.003978000000000    0.666667000000000 
P           0.333333000000000    0.666667000000000    0.166667000000000 
P           0.337312000000000    0.000000000000000    0.000000000000000 
P           0.662688000000000    0.662688000000000    0.000000000000000 
P           0.666667000000000    0.333333000000000    0.833333000000000 
P           0.666667000000000    0.670645000000000    0.333333000000000 
P           0.670645000000000    0.666667000000000    0.666667000000000 
P           0.996022000000000    0.329355000000000    0.666667000000000 
K          -0.000000000000000    0.000000000000000    0.000000000000000 
K           0.333333000000000    0.666667000000000    0.666667000000000 
K           0.666667000000000    0.333333000000000    0.333333000000000 
%ENDBLOCK POSITIONS_FRAC
