# Cell file generated by matador (Matthew Evans 2016)

%BLOCK LATTICE_CART
9.23738 0.0 0.0
-4.61869 7.99981 0.0
0.0 0.0 6.54868
%ENDBLOCK LATTICE_CART

%BLOCK POSITIONS_FRAC
P           0.011047000000000    0.042738000000000    0.030042000000000 
P           0.031691000000000    0.988953000000000    0.696709000000000 
P           0.078543000000000    0.702123000000000    0.618310000000000 
P           0.080764000000000    0.009977000000000    0.131909000000000 
P           0.297877000000000    0.376420000000000    0.951644000000000 
P           0.405210000000000    0.173713000000000    0.620287000000000 
P           0.407132000000000    0.114822000000000    0.045592000000000 
P           0.623580000000000    0.921457000000000    0.284977000000000 
P           0.707690000000000    0.592868000000000    0.712259000000000 
P           0.768503000000000    0.594790000000000    0.286953000000000 
P           0.826287000000000    0.231497000000000    0.953620000000000 
P           0.885178000000000    0.292310000000000    0.378925000000000 
P           0.929214000000000    0.919236000000000    0.798575000000000 
P           0.957262000000000    0.968309000000000    0.363376000000000 
P           0.990023000000000    0.070786000000000    0.465242000000000 
K           0.175512000000000    0.465445000000000    0.220360000000000 
K           0.289933000000000    0.824488000000000    0.887027000000000 
K           0.534555000000000    0.710067000000000    0.553693000000000 
%ENDBLOCK POSITIONS_FRAC
