# Cell file generated by matador (Matthew Evans 2016)

%BLOCK LATTICE_CART
6.0629 0.0 0.0
0.0 9.52731 0.0
3.43637 0.0 6.63344
%ENDBLOCK LATTICE_CART

%BLOCK POSITIONS_FRAC
P           0.336610000000000    0.012854000000000    0.934092000000000 
P           0.663390000000000    0.012854000000000    0.065908000000000 
K           0.000000000000000    0.191884000000000    0.500000000000000 
K           0.000000000000000    0.448295000000000    0.500000000000000 
K           0.000000000000000    0.536531000000000    0.000000000000000 
K           0.000000000000000    0.930901000000000    0.000000000000000 
K           0.251055000000000    0.785842000000000    0.423522000000000 
K           0.315476000000000    0.263669000000000    0.907932000000000 
K           0.500000000000000    0.533448000000000    0.000000000000000 
K           0.500000000000000    0.559205000000000    0.500000000000000 
K           0.684524000000000    0.263669000000000    0.092068000000000 
K           0.748945000000000    0.785842000000000    0.576478000000000 
%ENDBLOCK POSITIONS_FRAC
