# Cell file generated by matador (Matthew Evans 2016)

%BLOCK LATTICE_CART
8.29487 0.0 0.0
-4.14743 7.18357 0.0
0.0 0.0 7.8634
%ENDBLOCK LATTICE_CART

%BLOCK POSITIONS_FRAC
P           0.000000000000000    0.000000000000000    0.462419000000000 
P           0.333333000000000    0.666667000000000    0.129086000000000 
P           0.666667000000000    0.333333000000000    0.795753000000000 
K           0.035449000000000    0.517724000000000    0.307963000000000 
K           0.148942000000000    0.297885000000000    0.641296000000000 
K           0.148942000000000    0.851058000000000    0.641296000000000 
K           0.368782000000000    0.184391000000000    0.974630000000000 
K           0.482276000000000    0.517724000000000    0.307963000000000 
K           0.482276000000000    0.964551000000000    0.307963000000000 
K           0.702115000000000    0.851058000000000    0.641296000000000 
K           0.815609000000000    0.184391000000000    0.974630000000000 
K           0.815609000000000    0.631218000000000    0.974630000000000 
%ENDBLOCK POSITIONS_FRAC
