# Cell file generated by matador (Matthew Evans 2016)

%BLOCK LATTICE_CART
9.71504 -0.0 0.0
-4.85752 8.41347 0.0
0.0 0.0 6.99153
%ENDBLOCK LATTICE_CART

%BLOCK POSITIONS_FRAC
P           0.043017000000000    0.478451000000000    0.250000000000000 
P           0.333333000000000    0.666667000000000    0.750000000000000 
P           0.435434000000000    0.956983000000000    0.250000000000000 
P           0.478451000000000    0.435434000000000    0.750000000000000 
P           0.521549000000000    0.564566000000000    0.250000000000000 
P           0.564566000000000    0.043017000000000    0.750000000000000 
P           0.666667000000000    0.333333000000000    0.250000000000000 
P           0.956983000000000    0.521549000000000    0.750000000000000 
K           0.000000000000000    0.000000000000000    0.000000000000000 
K           0.000000000000000    0.000000000000000    0.500000000000000 
K           0.156156000000000    0.418817000000000    0.750000000000000 
K           0.262661000000000    0.843844000000000    0.750000000000000 
K           0.333333000000000    0.666667000000000    0.250000000000000 
K           0.418817000000000    0.262661000000000    0.250000000000000 
K           0.581183000000000    0.737339000000000    0.750000000000000 
K           0.666667000000000    0.333333000000000    0.750000000000000 
K           0.737339000000000    0.156156000000000    0.250000000000000 
K           0.843844000000000    0.581183000000000    0.250000000000000 
%ENDBLOCK POSITIONS_FRAC
