# Cell file generated by matador (Matthew Evans 2016)

%BLOCK LATTICE_CART
8.4471 0.0 0.0
0.0 9.99044 0.0
0.0 0.0 6.37496
%ENDBLOCK LATTICE_CART

%BLOCK POSITIONS_FRAC
P           0.000000000000000    0.000000000000000    0.000000000000000 
P           0.000000000000000    0.500000000000000    0.500000000000000 
P           0.093038000000000    0.000000000000000    0.500000000000000 
P           0.500000000000000    0.000000000000000    0.500000000000000 
P           0.500000000000000    0.500000000000000    0.500000000000000 
P           0.906962000000000    0.000000000000000    0.500000000000000 
K           0.241146000000000    0.275182000000000    0.636931000000000 
K           0.241146000000000    0.724818000000000    0.363069000000000 
K           0.405278000000000    0.327033000000000    0.235046000000000 
K           0.405278000000000    0.672967000000000    0.764954000000000 
K           0.500000000000000    0.000000000000000    0.000000000000000 
K           0.594722000000000    0.327033000000000    0.764954000000000 
K           0.594722000000000    0.672967000000000    0.235046000000000 
K           0.758854000000000    0.275182000000000    0.363069000000000 
K           0.758854000000000    0.724818000000000    0.636931000000000 
%ENDBLOCK POSITIONS_FRAC
