# Cell file generated by matador (Matthew Evans 2016)

%BLOCK LATTICE_CART
8.05331 0.0 0.0
-4.02666 6.97437 0.0
0.0 0.0 5.90369
%ENDBLOCK LATTICE_CART

%BLOCK POSITIONS_FRAC
P           0.000000000000000    0.000000000000000    0.000000000000000 
P           0.000000000000000    0.000000000000000    0.500000000000000 
P           0.000000000000000    0.248959000000000    0.000000000000000 
P           0.000000000000000    0.610866000000000    0.000000000000000 
P           0.248959000000000    0.000000000000000    0.000000000000000 
P           0.333333000000000    0.666667000000000    0.476401000000000 
P           0.333333000000000    0.666667000000000    0.985831000000000 
P           0.389134000000000    0.389134000000000    0.000000000000000 
P           0.610866000000000    0.000000000000000    0.000000000000000 
P           0.666667000000000    0.333333000000000    0.014169000000000 
P           0.666667000000000    0.333333000000000    0.523599000000000 
P           0.751041000000000    0.751041000000000    0.000000000000000 
K           0.000000000000000    0.510953000000000    0.500000000000000 
K           0.489047000000000    0.489047000000000    0.500000000000000 
K           0.510953000000000    0.000000000000000    0.500000000000000 
%ENDBLOCK POSITIONS_FRAC
