# Cell file generated by matador (Matthew Evans 2016)

%BLOCK LATTICE_CART
5.72769 0.0 0.0
-2.86385 4.96033 0.0
0.0 0.0 7.55609
%ENDBLOCK LATTICE_CART

%BLOCK POSITIONS_FRAC
P           0.000001000000000    0.000001000000000    0.131194000000000 
P           0.000001000000000    0.000001000000000    0.481006000000000 
P           0.000001000000000    0.000001000000000    0.724147000000000 
P           0.333334000000000    0.666668000000000    0.530842000000000 
P           0.666668000000000    0.333334000000000    0.530842000000000 
K           0.333334000000000    0.666668000000000    0.251744000000000 
K           0.666668000000000    0.333334000000000    0.251744000000000 
%ENDBLOCK POSITIONS_FRAC
