# Cell file generated by matador (Matthew Evans 2016)

%BLOCK LATTICE_CART
11.2239 0.0 0.0
0.0 7.37654 0.0
0.0 0.0 8.43662
%ENDBLOCK LATTICE_CART

%BLOCK POSITIONS_FRAC
P           0.500000000000000    0.146363000000000    0.879241000000000 
P           0.500000000000000    0.228324000000000    0.128864000000000 
P           0.500000000000000    0.771676000000000    0.128864000000000 
P           0.500000000000000    0.853637000000000    0.879241000000000 
K           0.000000000000000    0.213079000000000    0.016578000000000 
K           0.000000000000000    0.786921000000000    0.016578000000000 
K           0.167000000000000    0.000000000000000    0.439905000000000 
K           0.219169000000000    0.500000000000000    0.046320000000000 
K           0.262401000000000    0.000000000000000    0.109397000000000 
K           0.326213000000000    0.000000000000000    0.770847000000000 
K           0.352660000000000    0.500000000000000    0.437041000000000 
K           0.647340000000000    0.500000000000000    0.437041000000000 
K           0.673787000000000    0.000000000000000    0.770847000000000 
K           0.737599000000000    0.000000000000000    0.109397000000000 
K           0.780831000000000    0.500000000000000    0.046320000000000 
K           0.833000000000000    0.000000000000000    0.439905000000000 
%ENDBLOCK POSITIONS_FRAC
