# Cell file generated by matador (Matthew Evans 2016)

%BLOCK LATTICE_CART
10.3184 0.0 0.0
0.0 6.18695 0.0
0.0 0.0 10.7521
%ENDBLOCK LATTICE_CART

%BLOCK POSITIONS_FRAC
P           0.000000000000000    0.000000000000000    0.500000000000000 
P           0.000000000000000    0.500000000000000    0.000000000000000 
P           0.500000000000000    0.000000000000000    0.500000000000000 
P           0.500000000000000    0.500000000000000    0.500000000000000 
K           0.000000000000000    0.000000000000000    0.000000000000000 
K           0.000000000000000    0.500000000000000    0.500000000000000 
K           0.173415000000000    0.500000000000000    0.240776000000000 
K           0.173415000000000    0.500000000000000    0.759224000000000 
K           0.241222000000000    0.264964000000000    0.000000000000000 
K           0.241222000000000    0.735036000000000    0.000000000000000 
K           0.500000000000000    0.000000000000000    0.000000000000000 
K           0.500000000000000    0.500000000000000    0.000000000000000 
K           0.758778000000000    0.264964000000000    0.000000000000000 
K           0.758778000000000    0.735036000000000    0.000000000000000 
K           0.826585000000000    0.500000000000000    0.240776000000000 
K           0.826585000000000    0.500000000000000    0.759224000000000 
%ENDBLOCK POSITIONS_FRAC
