# Cell file generated by matador (Matthew Evans 2016)

%BLOCK LATTICE_CART
8.79505 0.0 0.0
0.0 8.79505 0.0
0.0 0.0 5.65254
%ENDBLOCK LATTICE_CART

%BLOCK POSITIONS_FRAC
P           0.000000000000000    0.000000000000000    0.000000000000000 
P           0.000000000000000    0.500000000000000    0.246471000000000 
P           0.000000000000000    0.500000000000000    0.746471000000000 
P           0.019724000000000    0.554515000000000    0.414114000000000 
P           0.054515000000000    0.519724000000000    0.914114000000000 
P           0.445485000000000    0.019724000000000    0.585886000000000 
P           0.480276000000000    0.054515000000000    0.085886000000000 
P           0.500000000000000    0.000000000000000    0.253529000000000 
P           0.500000000000000    0.000000000000000    0.753529000000000 
P           0.500000000000000    0.500000000000000    0.500000000000000 
P           0.519724000000000    0.945485000000000    0.085886000000000 
P           0.554515000000000    0.980276000000000    0.585886000000000 
P           0.945485000000000    0.480276000000000    0.914114000000000 
P           0.980276000000000    0.445485000000000    0.414114000000000 
K           0.000000000000000    0.000000000000000    0.500000000000000 
K           0.500000000000000    0.500000000000000    0.000000000000000 
%ENDBLOCK POSITIONS_FRAC
