# Cell file generated by matador (Matthew Evans 2016)

%BLOCK LATTICE_CART
6.79922 0.0 0.0
0.0 7.49618 0.0
0.0 0.0 5.78104
%ENDBLOCK LATTICE_CART

%BLOCK POSITIONS_FRAC
P           0.250000000000000    0.402216000000000    0.380893000000000 
P           0.750000000000000    0.597784000000000    0.380893000000000 
K           0.000000000000000    0.000000000000000    0.424006000000000 
K           0.250000000000000    0.203189000000000    0.775832000000000 
K           0.250000000000000    0.827079000000000    0.092499000000000 
K           0.500000000000000    0.000000000000000    0.424006000000000 
K           0.750000000000000    0.172921000000000    0.092499000000000 
K           0.750000000000000    0.796811000000000    0.775832000000000 
%ENDBLOCK POSITIONS_FRAC
