# Cell file generated by matador (Matthew Evans 2016)

%BLOCK LATTICE_CART
12.2215 0.0 0.0
0.0 12.2215 0.0
0.0 0.0 8.04442
%ENDBLOCK LATTICE_CART

%BLOCK POSITIONS_FRAC
P           0.000000000000000    0.257591000000000    0.000000000000000 
P           0.000000000000000    0.500000000000000    0.000000000000000 
P           0.000000000000000    0.742409000000000    0.000000000000000 
P           0.257591000000000    0.000000000000000    0.000000000000000 
P           0.500000000000000    0.000000000000000    0.000000000000000 
P           0.500000000000000    0.500000000000000    0.000000000000000 
P           0.742409000000000    0.000000000000000    0.000000000000000 
K           0.000000000000000    0.000000000000000    0.000000000000000 
K           0.000000000000000    0.000000000000000    0.500000000000000 
K           0.000000000000000    0.500000000000000    0.500000000000000 
K           0.180499000000000    0.359019000000000    0.000000000000000 
K           0.180499000000000    0.640981000000000    0.000000000000000 
K           0.198343000000000    0.366038000000000    0.500000000000000 
K           0.198343000000000    0.633962000000000    0.500000000000000 
K           0.359019000000000    0.180499000000000    0.000000000000000 
K           0.359019000000000    0.819501000000000    0.000000000000000 
K           0.366038000000000    0.198343000000000    0.500000000000000 
K           0.366038000000000    0.801657000000000    0.500000000000000 
K           0.500000000000000    0.000000000000000    0.500000000000000 
K           0.500000000000000    0.500000000000000    0.500000000000000 
K           0.633962000000000    0.198343000000000    0.500000000000000 
K           0.633962000000000    0.801657000000000    0.500000000000000 
K           0.640981000000000    0.180499000000000    0.000000000000000 
K           0.640981000000000    0.819501000000000    0.000000000000000 
K           0.801657000000000    0.366038000000000    0.500000000000000 
K           0.801657000000000    0.633962000000000    0.500000000000000 
K           0.819501000000000    0.359019000000000    0.000000000000000 
K           0.819501000000000    0.640981000000000    0.000000000000000 
%ENDBLOCK POSITIONS_FRAC
