# Cell file generated by matador (Matthew Evans 2016)

%BLOCK LATTICE_CART
6.53841 0.0 0.0
0.0 7.46655 0.0
-1.15168 0.0 5.52821
%ENDBLOCK LATTICE_CART

%BLOCK POSITIONS_FRAC
P           0.414023000000000    0.500000000000000    0.618219000000000 
P           0.593540000000000   -0.000000000000000    0.144683000000000 
P           0.606463000000000    0.500000000000000    0.867489000000000 
P           0.736168000000000   -0.000000000000000    0.713458000000000 
P           0.823429000000000    0.500000000000000    0.210614000000000 
P           0.848168000000000   -0.000000000000000    0.918857000000000 
P           0.850809000000000   -0.000000000000000    0.297422000000000 
P           0.998868000000000   -0.000000000000000    0.258827000000000 
K           0.932392000000000    0.349413000000000    0.915012000000000 
K           0.932392000000000    0.650587000000000    0.915012000000000 
%ENDBLOCK POSITIONS_FRAC
