# Cell file generated by matador (Matthew Evans 2016)

%BLOCK LATTICE_CART
5.98403 0.0 0.0
-2.99202 5.18232 0.0
0.0 0.0 8.9835
%ENDBLOCK LATTICE_CART

%BLOCK POSITIONS_FRAC
P           0.117443000000000    0.680533000000000    0.275488000000000 
P           0.229756000000000    0.215890000000000    0.608822000000000 
P           0.319467000000000    0.436911000000000    0.275488000000000 
P           0.450776000000000    0.347199000000000    0.942155000000000 
P           0.563089000000000    0.882557000000000    0.275488000000000 
P           0.652801000000000    0.103577000000000    0.942155000000000 
P           0.784110000000000    0.013866000000000    0.608822000000000 
P           0.896423000000000    0.549224000000000    0.942155000000000 
P           0.986134000000000    0.770244000000000    0.608822000000000 
K           0.000000000000000    0.000000000000000    0.095253000000000 
K           0.333333000000000    0.666667000000000    0.761919000000000 
K           0.666667000000000    0.333333000000000    0.428586000000000 
%ENDBLOCK POSITIONS_FRAC
