# Cell file generated by matador (Matthew Evans 2016)

%BLOCK LATTICE_CART
9.672 0.0 0.0
0.0 8.97911 0.0
-2.29325 0.0 5.40326
%ENDBLOCK LATTICE_CART

%BLOCK POSITIONS_FRAC
P           0.000000000000000    0.000000000000000    0.000000000000000 
P           0.000000000000000    0.000000000000000    0.500000000000000 
P           0.000000000000000    0.500000000000000    0.000000000000000 
P           0.250000000000000    0.250000000000000    0.500000000000000 
P           0.250000000000000    0.750000000000000    0.500000000000000 
P           0.500000000000000    0.000000000000000    0.000000000000000 
P           0.500000000000000    0.500000000000000    0.000000000000000 
P           0.500000000000000    0.500000000000000    0.500000000000000 
P           0.750000000000000    0.250000000000000    0.500000000000000 
P           0.750000000000000    0.750000000000000    0.500000000000000 
K           0.192376000000000    0.500000000000000    0.938841000000000 
K           0.307624000000000    0.000000000000000    0.061159000000000 
K           0.692376000000000    0.000000000000000    0.938841000000000 
K           0.807624000000000    0.500000000000000    0.061159000000000 
%ENDBLOCK POSITIONS_FRAC
