# Cell file generated by matador (Matthew Evans 2016)

%BLOCK LATTICE_CART
7.35409 0.0 0.0
-3.67705 6.36883 0.0
0.0 0.0 6.90739
%ENDBLOCK LATTICE_CART

%BLOCK POSITIONS_FRAC
P           0.000000000000000    0.000000000000000    0.210456000000000 
P           0.000000000000000    0.000000000000000    0.789544000000000 
P          -0.000000000000000    0.264261000000000    0.000000000000000 
P           0.069073000000000    0.402406000000000    0.666667000000000 
P           0.264261000000000    0.000000000000000    0.000000000000000 
P           0.333333000000000    0.666667000000000    0.456211000000000 
P           0.333333000000000    0.666667000000000    0.877122000000000 
P           0.333333000000000    0.930927000000000    0.666667000000000 
P           0.402406000000000    0.069073000000000    0.333333000000000 
P           0.597594000000000    0.666667000000000    0.666667000000000 
P           0.666667000000000    0.333333000000000    0.122878000000000 
P           0.666667000000000    0.333333000000000    0.543789000000000 
P           0.666667000000000    0.597594000000000    0.333333000000000 
P           0.735739000000000    0.735739000000000    0.000000000000000 
P           0.930927000000000    0.333333000000000    0.333333000000000 
K           0.000000000000000    0.000000000000000    0.500000000000000 
K           0.333333000000000    0.666667000000000    0.166667000000000 
K           0.666667000000000    0.333333000000000    0.833333000000000 
%ENDBLOCK POSITIONS_FRAC
