# Cell file generated by matador (Matthew Evans 2016)

%BLOCK LATTICE_CART
9.46783 0.0 0.0
0.0 7.93526 0.0
-0.244023 0.0 3.58765
%ENDBLOCK LATTICE_CART

%BLOCK POSITIONS_FRAC
P           0.500000000000000    0.302136000000000    0.000000000000000 
P           0.500000000000000    0.475569000000000    0.500000000000000 
P           0.500000000000000    0.640889000000000    0.500000000000000 
K           0.000000000000000    0.143505000000000    0.000000000000000 
K           0.151231000000000    0.916504000000000    0.105088000000000 
K           0.500000000000000    0.086080000000000    0.500000000000000 
K           0.848769000000000    0.916504000000000    0.894912000000000 
%ENDBLOCK POSITIONS_FRAC
