# Cell file generated by matador (Matthew Evans 2016)

%BLOCK LATTICE_CART
7.52272 0.0 0.0
0.0 7.52272 0.0
0.0 0.0 6.2467
%ENDBLOCK LATTICE_CART

%BLOCK POSITIONS_FRAC
P           0.000000000000000    0.000000000000000    0.387396000000000 
P           0.000000000000000    0.000000000000000    0.612604000000000 
P           0.500000000000000    0.500000000000000    0.387396000000000 
P           0.500000000000000    0.500000000000000    0.612604000000000 
K           0.000000000000000    0.000000000000000    0.000000000000000 
K           0.156517000000000    0.343483000000000    0.410224000000000 
K           0.156517000000000    0.656517000000000    0.410224000000000 
K           0.343483000000000    0.156517000000000    0.589776000000000 
K           0.343483000000000    0.843483000000000    0.589776000000000 
K           0.500000000000000    0.500000000000000    0.000000000000000 
K           0.656517000000000    0.156517000000000    0.589776000000000 
K           0.656517000000000    0.843483000000000    0.589776000000000 
K           0.843483000000000    0.343483000000000    0.410224000000000 
K           0.843483000000000    0.656517000000000    0.410224000000000 
%ENDBLOCK POSITIONS_FRAC
