# Cell file generated by matador (Matthew Evans 2016)

%BLOCK LATTICE_CART
7.92184 0.0 0.0
0.0 8.08456 0.0
0.0 0.0 6.17181
%ENDBLOCK LATTICE_CART

%BLOCK POSITIONS_FRAC
P           0.038165000000000    0.500000000000000    0.000000000000000 
P           0.461835000000000   -0.000000000000000    0.500000000000000 
P           0.538165000000000   -0.000000000000000    0.000000000000000 
P           0.961835000000000    0.500000000000000    0.500000000000000 
K          -0.000000000000000    0.087793000000000    0.250000000000000 
K          -0.000000000000000    0.248627000000000    0.750000000000000 
K          -0.000000000000000    0.751373000000000    0.250000000000000 
K          -0.000000000000000    0.912207000000000    0.750000000000000 
K           0.500000000000000    0.251373000000000    0.250000000000000 
K           0.500000000000000    0.412207000000000    0.750000000000000 
K           0.500000000000000    0.587793000000000    0.250000000000000 
K           0.500000000000000    0.748627000000000    0.750000000000000 
%ENDBLOCK POSITIONS_FRAC
