# Cell file generated by matador (Matthew Evans 2016)

%BLOCK LATTICE_CART
5.86282 0.0 0.0
-2.93141 5.07735 0.0
0.0 0.0 10.5363
%ENDBLOCK LATTICE_CART

%BLOCK POSITIONS_FRAC
P           0.000000000000000    0.000000000000000    0.420531000000000 
P           0.000000000000000    0.000000000000000    0.920531000000000 
K           0.168825000000000    0.337650000000000    0.065575000000000 
K           0.168825000000000    0.831175000000000    0.065575000000000 
K           0.337650000000000    0.168825000000000    0.565575000000000 
K           0.662350000000000    0.831175000000000    0.065575000000000 
K           0.831175000000000    0.168825000000000    0.565575000000000 
K           0.831175000000000    0.662350000000000    0.565575000000000 
%ENDBLOCK POSITIONS_FRAC
