# Cell file generated by matador (Matthew Evans 2016)

%BLOCK LATTICE_CART
7.05201 0.0 0.0
0.0 7.05201 0.0
0.0 0.0 7.88783
%ENDBLOCK LATTICE_CART

%BLOCK POSITIONS_FRAC
P           0.000000000000000    0.000000000000000    0.863575000000000 
P           0.087427000000000    0.690797000000000    0.623044000000000 
P           0.309203000000000    0.087427000000000    0.623044000000000 
P           0.690797000000000    0.912573000000000    0.623044000000000 
P           0.912573000000000    0.309203000000000    0.623044000000000 
K           0.000000000000000    0.000000000000000    0.378319000000000 
K           0.000000000000000    0.500000000000000    0.247969000000000 
K           0.310000000000000    0.663324000000000    0.335219000000000 
K           0.336676000000000    0.310000000000000    0.335219000000000 
K           0.500000000000000    0.000000000000000    0.247969000000000 
K           0.663324000000000    0.690000000000000    0.335219000000000 
K           0.690000000000000    0.336676000000000    0.335219000000000 
%ENDBLOCK POSITIONS_FRAC
