# Cell file generated by matador (Matthew Evans 2016)

%BLOCK LATTICE_CART
8.15159 -0.0 0.0
-4.0758 7.05948 0.0
0.0 0.0 8.98169
%ENDBLOCK LATTICE_CART

%BLOCK POSITIONS_FRAC
P           0.000000000000000    0.500000000000000    0.391988000000000 
P           0.000000000000000    0.500000000000000    0.564890000000000 
P           0.500000000000000    0.000000000000000    0.391988000000000 
P           0.500000000000000    0.000000000000000    0.564890000000000 
P           0.500000000000000    0.500000000000000    0.391988000000000 
P           0.500000000000000    0.500000000000000    0.564890000000000 
K           0.000000000000000    0.000000000000000    0.272618000000000 
K           0.108169000000000    0.692288000000000    0.062349000000000 
K           0.307712000000000    0.415881000000000    0.062349000000000 
K           0.333333000000000    0.666667000000000    0.222917000000000 
K           0.415881000000000    0.108169000000000    0.062349000000000 
K           0.584119000000000    0.891831000000000    0.062349000000000 
K           0.666667000000000    0.333333000000000    0.222917000000000 
K           0.692288000000000    0.584119000000000    0.062349000000000 
K           0.891831000000000    0.307712000000000    0.062349000000000 
%ENDBLOCK POSITIONS_FRAC
