# Cell file generated by matador (Matthew Evans 2016)

%BLOCK LATTICE_CART
7.52437 0.0 0.0
-3.76219 6.5163 0.0
0.0 0.0 3.96151
%ENDBLOCK LATTICE_CART

%BLOCK POSITIONS_FRAC
P           0.024706000000000    0.368655000000000    0.500000000000000 
P           0.024706000000000    0.656051000000000    0.500000000000000 
P           0.343949000000000    0.368655000000000    0.500000000000000 
P           0.343949000000000    0.975294000000000    0.500000000000000 
P           0.631345000000000    0.656051000000000    0.500000000000000 
P           0.631345000000000    0.975294000000000    0.500000000000000 
K           0.666667000000000    0.333333000000000    0.000000000000000 
%ENDBLOCK POSITIONS_FRAC
