# Cell file generated by matador (Matthew Evans 2016)

%BLOCK LATTICE_CART
9.80289 0.0 0.0
-4.90145 8.48955 0.0
0.0 0.0 6.3139
%ENDBLOCK LATTICE_CART

%BLOCK POSITIONS_FRAC
P           0.000000000000000    0.000000000000000    0.000000000000000 
P           0.000000000000000    0.394575000000000    0.000000000000000 
P           0.000000000000000    0.500000000000000    0.000000000000000 
P           0.000000000000000    0.605425000000000    0.000000000000000 
P           0.333333000000000    0.666667000000000    0.109797000000000 
P           0.333333000000000    0.666667000000000    0.890203000000000 
P           0.394575000000000    0.000000000000000    0.000000000000000 
P           0.394575000000000    0.394575000000000    0.000000000000000 
P           0.500000000000000    0.000000000000000    0.000000000000000 
P           0.500000000000000    0.500000000000000    0.000000000000000 
P           0.605425000000000    0.000000000000000    0.000000000000000 
P           0.605425000000000    0.605425000000000    0.000000000000000 
P           0.666667000000000    0.333333000000000    0.109797000000000 
P           0.666667000000000    0.333333000000000    0.890203000000000 
K           0.000000000000000    0.000000000000000    0.500000000000000 
K           0.000000000000000    0.500000000000000    0.500000000000000 
K           0.500000000000000    0.000000000000000    0.500000000000000 
K           0.500000000000000    0.500000000000000    0.500000000000000 
%ENDBLOCK POSITIONS_FRAC
