# Cell file generated by matador (Matthew Evans 2016)

%BLOCK LATTICE_CART
7.53413 0.0 0.0
-3.76706 6.52475 0.0
0.0 0.0 6.06762
%ENDBLOCK LATTICE_CART

%BLOCK POSITIONS_FRAC
P           0.263632000000000    0.527264000000000    0.500000000000000 
P           0.263632000000000    0.736368000000000    0.500000000000000 
P           0.472736000000000    0.736368000000000    0.500000000000000 
P           0.666667000000000    0.333333000000000    0.000000000000000 
K          -0.000000000000000   -0.000000000000000    0.000000000000000 
K           0.324610000000000    0.030384000000000    0.500000000000000 
K           0.324610000000000    0.294225000000000    0.500000000000000 
K           0.705775000000000    0.030384000000000    0.500000000000000 
K           0.705775000000000    0.675390000000000    0.500000000000000 
K           0.969616000000000    0.294225000000000    0.500000000000000 
K           0.969616000000000    0.675390000000000    0.500000000000000 
%ENDBLOCK POSITIONS_FRAC
