# Cell file generated by matador (Matthew Evans 2016)

%BLOCK LATTICE_CART
11.0622 0.0 0.0
-5.53112 9.58018 0.0
0.0 0.0 6.5466
%ENDBLOCK LATTICE_CART

%BLOCK POSITIONS_FRAC
P           0.000000000000000    0.000000000000000    0.250000000000000 
P           0.000000000000000    0.000000000000000    0.750000000000000 
P           0.666667000000000    0.333333000000000    0.000000000000000 
P           0.666667000000000    0.333333000000000    0.500000000000000 
K           0.098679000000000    0.549340000000000    0.000000000000000 
K           0.098679000000000    0.549340000000000    0.500000000000000 
K           0.333333000000000    0.666667000000000    0.250000000000000 
K           0.333333000000000    0.666667000000000    0.750000000000000 
K           0.400842000000000    0.080995000000000    0.750000000000000 
K           0.400842000000000    0.319848000000000    0.250000000000000 
K           0.450660000000000    0.549340000000000    0.000000000000000 
K           0.450660000000000    0.549340000000000    0.500000000000000 
K           0.450660000000000    0.901321000000000    0.000000000000000 
K           0.450660000000000    0.901321000000000    0.500000000000000 
K           0.680152000000000    0.080995000000000    0.250000000000000 
K           0.680152000000000    0.599158000000000    0.750000000000000 
K           0.919005000000000    0.319848000000000    0.750000000000000 
K           0.919005000000000    0.599158000000000    0.250000000000000 
%ENDBLOCK POSITIONS_FRAC
