# Cell file generated by matador (Matthew Evans 2016)

%BLOCK LATTICE_CART
9.32493 0.0 0.0
-4.66246 8.07562 0.0
0.0 0.0 9.9702
%ENDBLOCK LATTICE_CART

%BLOCK POSITIONS_FRAC
P           0.000000000000000    0.000000000000000    0.000000000000000 
P           0.000000000000000    0.000000000000000    0.319120000000000 
P           0.000000000000000    0.000000000000000    0.680880000000000 
P           0.333333000000000    0.666667000000000    0.363762000000000 
P           0.666667000000000    0.333333000000000    0.636238000000000 
K           0.000000000000000    0.500000000000000    0.000000000000000 
K           0.110558000000000    0.555279000000000    0.281423000000000 
K           0.189154000000000    0.378308000000000    0.698848000000000 
K           0.189154000000000    0.810846000000000    0.698848000000000 
K           0.378308000000000    0.189154000000000    0.301152000000000 
K           0.444721000000000    0.555279000000000    0.281423000000000 
K           0.444721000000000    0.889442000000000    0.281423000000000 
K           0.500000000000000    0.000000000000000    0.000000000000000 
K           0.500000000000000    0.500000000000000    0.000000000000000 
K           0.555279000000000    0.110558000000000    0.718577000000000 
K           0.555279000000000    0.444721000000000    0.718577000000000 
K           0.621692000000000    0.810846000000000    0.698848000000000 
K           0.810846000000000    0.189154000000000    0.301152000000000 
K           0.810846000000000    0.621692000000000    0.301152000000000 
K           0.889442000000000    0.444721000000000    0.718577000000000 
%ENDBLOCK POSITIONS_FRAC
