# Cell file generated by matador (Matthew Evans 2016)

%BLOCK LATTICE_CART
9.6476 0.0 0.0
-4.8238 8.35506 0.0
0.0 0.0 10.7532
%ENDBLOCK LATTICE_CART

%BLOCK POSITIONS_FRAC
P           0.000000000000000    0.000000000000000    0.331027000000000 
P           0.000000000000000    0.000000000000000    0.668973000000000 
P           0.000000000000000    0.500000000000000    0.000000000000000 
P           0.500000000000000    0.000000000000000    0.000000000000000 
P           0.500000000000000    0.500000000000000    0.000000000000000 
K           0.000000000000000    0.000000000000000    0.000000000000000 
K           0.000000000000000    0.215839000000000    0.203075000000000 
K           0.000000000000000    0.392407000000000    0.824430000000000 
K           0.000000000000000    0.607593000000000    0.175570000000000 
K           0.000000000000000    0.784161000000000    0.796925000000000 
K           0.215839000000000    0.000000000000000    0.203075000000000 
K           0.215839000000000    0.215839000000000    0.796925000000000 
K           0.333333000000000    0.666667000000000    0.500000000000000 
K           0.392407000000000    0.000000000000000    0.824430000000000 
K           0.392407000000000    0.392407000000000    0.175570000000000 
K           0.607593000000000    0.000000000000000    0.175570000000000 
K           0.607593000000000    0.607593000000000    0.824430000000000 
K           0.666667000000000    0.333333000000000    0.500000000000000 
K           0.784161000000000    0.000000000000000    0.796925000000000 
K           0.784161000000000    0.784161000000000    0.203075000000000 
%ENDBLOCK POSITIONS_FRAC
