# Cell file generated by matador (Matthew Evans 2016)

%BLOCK LATTICE_CART
7.83759 0.0 0.0
0.0 5.98222 0.0
0.0 0.0 7.19244
%ENDBLOCK LATTICE_CART

%BLOCK POSITIONS_FRAC
P           0.000000000000000    0.000000000000000    0.247552000000000 
P           0.500000000000000    0.500000000000000    0.247552000000000 
K           0.000000000000000    0.500000000000000    0.364058000000000 
K           0.250000000000000    0.250000000000000    0.624582000000000 
K           0.250000000000000    0.750000000000000    0.624582000000000 
K           0.500000000000000    0.000000000000000    0.364058000000000 
K           0.750000000000000    0.250000000000000    0.624582000000000 
K           0.750000000000000    0.750000000000000    0.624582000000000 
%ENDBLOCK POSITIONS_FRAC
