# Cell file generated by matador (Matthew Evans 2016)

%BLOCK LATTICE_CART
7.76866 0.0 0.0
-3.88433 6.72786 0.0
0.0 0.0 8.04183
%ENDBLOCK LATTICE_CART

%BLOCK POSITIONS_FRAC
P           0.000000000000000    0.000000000000000    0.449045000000000 
P           0.333333000000000    0.666667000000000    0.115712000000000 
P           0.666667000000000    0.333333000000000    0.782378000000000 
K           0.006151000000000    0.503076000000000    0.228357000000000 
K           0.163591000000000    0.327182000000000    0.561691000000000 
K           0.163591000000000    0.836409000000000    0.561691000000000 
K           0.339485000000000    0.169742000000000    0.895024000000000 
K           0.496924000000000    0.503076000000000    0.228357000000000 
K           0.496924000000000    0.993849000000000    0.228357000000000 
K           0.672818000000000    0.836409000000000    0.561691000000000 
K           0.830258000000000    0.169742000000000    0.895024000000000 
K           0.830258000000000    0.660515000000000    0.895024000000000 
%ENDBLOCK POSITIONS_FRAC
