# Cell file generated by matador (Matthew Evans 2016)

%BLOCK LATTICE_CART
7.31499 0.0 0.0
0.0 9.09723 0.0
0.0 0.0 6.53577
%ENDBLOCK LATTICE_CART

%BLOCK POSITIONS_FRAC
P           0.000000000000000    0.828167000000000    0.905410000000000 
P           0.500000000000000    0.171833000000000    0.405410000000000 
K           0.000000000000000    0.009241000000000    0.116725000000000 
K           0.000000000000000    0.257776000000000    0.961825000000000 
K           0.000000000000000    0.287408000000000    0.467880000000000 
K           0.000000000000000    0.684732000000000    0.291009000000000 
K           0.000000000000000    0.960927000000000    0.651504000000000 
K           0.197027000000000    0.456708000000000    0.803742000000000 
K           0.302973000000000    0.543292000000000    0.303742000000000 
K           0.500000000000000    0.039073000000000    0.151504000000000 
K           0.500000000000000    0.315268000000000    0.791009000000000 
K           0.500000000000000    0.712592000000000    0.967880000000000 
K           0.500000000000000    0.742224000000000    0.461825000000000 
K           0.500000000000000    0.990759000000000    0.616725000000000 
K           0.697027000000000    0.543292000000000    0.303742000000000 
K           0.802973000000000    0.456708000000000    0.803742000000000 
%ENDBLOCK POSITIONS_FRAC
