# Cell file generated by matador (Matthew Evans 2016)

%BLOCK LATTICE_CART
7.41093 0.0 0.0
0.0 7.41093 0.0
0.0 0.0 10.3879
%ENDBLOCK LATTICE_CART

%BLOCK POSITIONS_FRAC
P          -0.000000000000000   -0.000000000000000   -0.000000000000000 
P          -0.000000000000000   -0.000000000000000    0.500000000000000 
P           0.500000000000000    0.500000000000000   -0.000000000000000 
P           0.500000000000000    0.500000000000000    0.500000000000000 
K           0.240590000000000    0.240590000000000    0.428834000000000 
K           0.240590000000000    0.759410000000000    0.571166000000000 
K           0.250000000000000    0.250000000000000    0.750000000000000 
K           0.250000000000000    0.750000000000000    0.250000000000000 
K           0.259410000000000    0.259410000000000    0.071166000000000 
K           0.259410000000000    0.740590000000000    0.928834000000000 
K           0.740590000000000    0.259410000000000    0.928834000000000 
K           0.740590000000000    0.740590000000000    0.071166000000000 
K           0.750000000000000    0.250000000000000    0.250000000000000 
K           0.750000000000000    0.750000000000000    0.750000000000000 
K           0.759410000000000    0.240590000000000    0.571166000000000 
K           0.759410000000000    0.759410000000000    0.428834000000000 
%ENDBLOCK POSITIONS_FRAC
