# Cell file generated by matador (Matthew Evans 2016)

%BLOCK LATTICE_CART
14.0127 0.0 0.0
0.0 14.0127 0.0
0.0 0.0 5.22883
%ENDBLOCK LATTICE_CART

%BLOCK POSITIONS_FRAC
P           0.000000000000000    0.000000000000000    0.000000000000000 
P           0.000000000000000    0.000000000000000    0.500000000000000 
P           0.000000000000000    0.500000000000000    0.750000000000000 
P           0.500000000000000    0.000000000000000    0.250000000000000 
P           0.500000000000000    0.500000000000000    0.000000000000000 
P           0.500000000000000    0.500000000000000    0.500000000000000 
K           0.000000000000000    0.164032000000000    0.650522000000000 
K           0.000000000000000    0.283318000000000    0.166810000000000 
K           0.000000000000000    0.500000000000000    0.250000000000000 
K           0.000000000000000    0.716682000000000    0.166810000000000 
K           0.000000000000000    0.835968000000000    0.650522000000000 
K           0.164032000000000    0.000000000000000    0.349478000000000 
K           0.216682000000000    0.500000000000000    0.333190000000000 
K           0.283318000000000    0.000000000000000    0.833190000000000 
K           0.335968000000000    0.500000000000000    0.849478000000000 
K           0.500000000000000    0.000000000000000    0.750000000000000 
K           0.500000000000000    0.216682000000000    0.666810000000000 
K           0.500000000000000    0.335968000000000    0.150522000000000 
K           0.500000000000000    0.664032000000000    0.150522000000000 
K           0.500000000000000    0.783318000000000    0.666810000000000 
K           0.664032000000000    0.500000000000000    0.849478000000000 
K           0.716682000000000    0.000000000000000    0.833190000000000 
K           0.783318000000000    0.500000000000000    0.333190000000000 
K           0.835968000000000    0.000000000000000    0.349478000000000 
%ENDBLOCK POSITIONS_FRAC
