# Cell file generated by matador (Matthew Evans 2016)

%BLOCK LATTICE_CART
5.60324 0.0 0.0
-2.80162 4.85255 0.0
0.0 0.0 15.6817
%ENDBLOCK LATTICE_CART

%BLOCK POSITIONS_FRAC
P          -0.000000000000000    0.500000000000000    0.500000000000000 
P           0.333333000000000    0.666667000000000    0.500000000000000 
P           0.500000000000000   -0.000000000000000    0.500000000000000 
P           0.500000000000000    0.500000000000000    0.500000000000000 
P           0.666667000000000    0.333333000000000    0.500000000000000 
K          -0.000000000000000   -0.000000000000000    0.270654000000000 
K          -0.000000000000000   -0.000000000000000    0.500000000000000 
K          -0.000000000000000   -0.000000000000000    0.729346000000000 
K          -0.000000000000000    0.500000000000000    0.000000000000000 
K           0.500000000000000   -0.000000000000000    0.000000000000000 
K           0.500000000000000    0.500000000000000    0.000000000000000 
%ENDBLOCK POSITIONS_FRAC
