# Cell file generated by matador (Matthew Evans 2016)

%BLOCK LATTICE_CART
7.97563 0.0 0.0
2.54834 7.91707 0.0
0.440069 -1.05897 6.47705
%ENDBLOCK LATTICE_CART

%BLOCK POSITIONS_FRAC
P           0.000000000000000    0.500000000000000    0.000000000000000 
P           0.000000000000000    0.500000000000000    0.500000000000000 
P           0.500000000000000    0.000000000000000    0.500000000000000 
K           0.000000000000000    0.000000000000000    0.000000000000000 
K           0.163775000000000    0.107986000000000    0.617139000000000 
K           0.364060000000000    0.615339000000000    0.786098000000000 
K           0.400484000000000    0.181864000000000    0.761633000000000 
K           0.500000000000000    0.000000000000000    0.000000000000000 
K           0.500000000000000    0.500000000000000    0.000000000000000 
K           0.599516000000000    0.818136000000000    0.238367000000000 
K           0.635940000000000    0.384661000000000    0.213902000000000 
K           0.836225000000000    0.892014000000000    0.382861000000000 
%ENDBLOCK POSITIONS_FRAC
