# Cell file generated by matador (Matthew Evans 2016)

%BLOCK LATTICE_CART
8.49315 0.0 0.0
-4.24657 7.35528 0.0
0.0 0.0 9.97486
%ENDBLOCK LATTICE_CART

%BLOCK POSITIONS_FRAC
P           0.333333000000000    0.666667000000000    0.250000000000000 
P           0.666666000000000    0.333334000000000    0.750000000000000 
K          -0.000000000000000    0.000000000000000    0.000000000000000 
K          -0.000000000000000    0.000000000000000    0.500000000000000 
K          -0.000000000000000    0.536941000000000    0.000000000000000 
K          -0.000000000000000    0.536941000000000    0.500000000000000 
K           0.019042000000000    0.593456000000000    0.250000000000000 
K           0.406544000000000    0.425586000000000    0.250000000000000 
K           0.425586000000000    0.406544000000000    0.750000000000000 
K           0.463059000000000    0.463059000000000    0.000000000000000 
K           0.463059000000000    0.463059000000000    0.500000000000000 
K           0.536941000000000    0.000000000000000    0.000000000000000 
K           0.536941000000000    0.000000000000000    0.500000000000000 
K           0.574414000000000    0.980958000000000    0.250000000000000 
K           0.593456000000000    0.019042000000000    0.750000000000000 
K           0.980958000000000    0.574414000000000    0.750000000000000 
%ENDBLOCK POSITIONS_FRAC
