# Cell file generated by matador (Matthew Evans 2016)

%BLOCK LATTICE_CART
7.10101 0.0 0.0
-3.5505 6.14965 0.0
0.0 0.0 8.38361
%ENDBLOCK LATTICE_CART

%BLOCK POSITIONS_FRAC
P           0.333333000000000    0.666667000000000    0.261440000000000 
P           0.333333000000000    0.666667000000000    0.738560000000000 
P           0.561377000000000    0.122755000000000    0.000000000000000 
P           0.561377000000000    0.438623000000000    0.000000000000000 
P           0.666667000000000    0.333333000000000    0.223325000000000 
P           0.666667000000000    0.333333000000000    0.776675000000000 
P           0.877245000000000    0.438623000000000    0.000000000000000 
K           0.000000000000000    0.000000000000000    0.000000000000000 
K           0.000000000000000    0.000000000000000    0.500000000000000 
K           0.333333000000000    0.666667000000000    0.500000000000000 
K           0.666667000000000    0.333333000000000    0.500000000000000 
%ENDBLOCK POSITIONS_FRAC
