# Cell file generated by matador (Matthew Evans 2016)

%BLOCK LATTICE_CART
9.63929 0.0 0.0
0.0 10.7948 0.0
0.0 0.0 8.80523
%ENDBLOCK LATTICE_CART

%BLOCK POSITIONS_FRAC
P           0.000000000000000    0.000000000000000    0.729826000000000 
P           0.250000000000000    0.250000000000000    0.828015000000000 
P           0.250000000000000    0.750000000000000    0.828015000000000 
P           0.500000000000000    0.500000000000000    0.729826000000000 
P           0.750000000000000    0.250000000000000    0.828015000000000 
P           0.750000000000000    0.750000000000000    0.828015000000000 
K           0.000000000000000    0.230925000000000    0.799265000000000 
K           0.000000000000000    0.500000000000000    0.558069000000000 
K           0.000000000000000    0.769075000000000    0.799265000000000 
K           0.190994000000000    0.500000000000000    0.173501000000000 
K           0.192382000000000    0.000000000000000    0.476043000000000 
K           0.214810000000000    0.000000000000000    0.853018000000000 
K           0.285190000000000    0.500000000000000    0.853018000000000 
K           0.307618000000000    0.500000000000000    0.476043000000000 
K           0.309006000000000    0.000000000000000    0.173501000000000 
K           0.500000000000000    0.000000000000000    0.558069000000000 
K           0.500000000000000    0.269075000000000    0.799265000000000 
K           0.500000000000000    0.730925000000000    0.799265000000000 
K           0.690994000000000    0.000000000000000    0.173501000000000 
K           0.692382000000000    0.500000000000000    0.476043000000000 
K           0.714810000000000    0.500000000000000    0.853018000000000 
K           0.785190000000000    0.000000000000000    0.853018000000000 
K           0.807618000000000    0.000000000000000    0.476043000000000 
K           0.809006000000000    0.500000000000000    0.173501000000000 
%ENDBLOCK POSITIONS_FRAC
