# Cell file generated by matador (Matthew Evans 2016)

%BLOCK LATTICE_CART
8.14081 0.0 0.0
0.0 8.14081 0.0
0.0 0.0 8.14081
%ENDBLOCK LATTICE_CART

%BLOCK POSITIONS_FRAC
P           0.000000000000000    0.000000000000000    0.000000000000000 
P           0.098918000000000    0.098918000000000    0.901082000000000 
P           0.098918000000000    0.901082000000000    0.098918000000000 
P           0.170168000000000    0.170168000000000    0.829832000000000 
P           0.170168000000000    0.829832000000000    0.170168000000000 
P           0.829832000000000    0.170168000000000    0.170168000000000 
P           0.829832000000000    0.829832000000000    0.829832000000000 
P           0.901082000000000    0.098918000000000    0.098918000000000 
P           0.901082000000000    0.901082000000000    0.901082000000000 
K           0.000000000000000    0.000000000000000    0.500000000000000 
K           0.000000000000000    0.500000000000000    0.000000000000000 
K           0.000000000000000    0.500000000000000    0.500000000000000 
K           0.500000000000000    0.000000000000000    0.000000000000000 
K           0.500000000000000    0.000000000000000    0.500000000000000 
K           0.500000000000000    0.500000000000000    0.000000000000000 
%ENDBLOCK POSITIONS_FRAC
