# Cell file generated by matador (Matthew Evans 2016)

%BLOCK LATTICE_CART
6.73706 0.0 0.0
0.0 4.70512 0.0
3.47357 0.0 6.93439
%ENDBLOCK LATTICE_CART

%BLOCK POSITIONS_FRAC
P           0.494589000000000    0.500000000000000    0.592565000000000 
P           0.530126000000000    0.177713000000000    0.014591000000000 
P           0.530126000000000    0.822287000000000    0.014591000000000 
P           0.727391000000000    0.000000000000000    0.009672000000000 
P           0.749260000000000    0.500000000000000    0.780083000000000 
P           0.996185000000000    0.329008000000000    0.262062000000000 
P           0.996185000000000    0.670992000000000    0.262062000000000 
K           0.122441000000000    0.000000000000000    0.003771000000000 
%ENDBLOCK POSITIONS_FRAC
