# Cell file generated by matador (Matthew Evans 2016)

%BLOCK LATTICE_CART
10.7656 0.0 0.0
-5.38279 9.32326 0.0
0.0 0.0 8.5286
%ENDBLOCK LATTICE_CART

%BLOCK POSITIONS_FRAC
P           0.000000000000000    0.000000000000000    0.548257000000000 
P           0.000000000000000    0.000000000000000    0.951645000000000 
P           0.333333000000000    0.666667000000000    0.214923000000000 
P           0.333333000000000    0.666667000000000    0.618312000000000 
P           0.666667000000000    0.333333000000000    0.284978000000000 
P           0.666667000000000    0.333333000000000    0.881590000000000 
K           0.002278000000000    0.501139000000000    0.030742000000000 
K           0.165528000000000    0.331055000000000    0.364075000000000 
K           0.165528000000000    0.834472000000000    0.364075000000000 
K           0.188136000000000    0.376272000000000    0.817473000000000 
K           0.188136000000000    0.811864000000000    0.817473000000000 
K           0.290394000000000    0.145197000000000    0.150806000000000 
K           0.335611000000000    0.167806000000000    0.697408000000000 
K           0.498861000000000    0.501139000000000    0.030742000000000 
K           0.498861000000000    0.997722000000000    0.030742000000000 
K           0.521470000000000    0.042939000000000    0.484140000000000 
K           0.521470000000000    0.478530000000000    0.484140000000000 
K           0.623728000000000    0.811864000000000    0.817473000000000 
K           0.668945000000000    0.834472000000000    0.364075000000000 
K           0.832194000000000    0.167806000000000    0.697408000000000 
K           0.832194000000000    0.664389000000000    0.697408000000000 
K           0.854803000000000    0.145197000000000    0.150806000000000 
K           0.854803000000000    0.709606000000000    0.150806000000000 
K           0.957061000000000    0.478530000000000    0.484140000000000 
%ENDBLOCK POSITIONS_FRAC
