# Cell file generated by matador (Matthew Evans 2016)

%BLOCK LATTICE_CART
8.33087 0.0 0.0
0.0 10.6952 0.0
0.0 0.0 12.7777
%ENDBLOCK LATTICE_CART

%BLOCK POSITIONS_FRAC
P           0.000000000000000    0.161868000000000    0.010664000000000 
P           0.000000000000000    0.338132000000000    0.510664000000000 
P           0.000000000000000    0.661868000000000    0.510664000000000 
P           0.000000000000000    0.838132000000000    0.010664000000000 
P           0.500000000000000    0.161868000000000    0.510664000000000 
P           0.500000000000000    0.338132000000000    0.010664000000000 
P           0.500000000000000    0.661868000000000    0.010664000000000 
P           0.500000000000000    0.838132000000000    0.510664000000000 
K           0.204124000000000   -0.000000000000000    0.239396000000000 
K           0.204124000000000    0.500000000000000    0.739396000000000 
K           0.230080000000000   -0.000000000000000    0.999480000000000 
K           0.230080000000000    0.500000000000000    0.499480000000000 
K           0.250000000000000    0.250000000000000    0.107211000000000 
K           0.250000000000000    0.250000000000000    0.607211000000000 
K           0.250000000000000    0.750000000000000    0.107211000000000 
K           0.250000000000000    0.750000000000000    0.607211000000000 
K           0.269920000000000   -0.000000000000000    0.499480000000000 
K           0.269920000000000    0.500000000000000    0.999480000000000 
K           0.295876000000000   -0.000000000000000    0.739396000000000 
K           0.295876000000000    0.500000000000000    0.239396000000000 
K           0.704124000000000   -0.000000000000000    0.739396000000000 
K           0.704124000000000    0.500000000000000    0.239396000000000 
K           0.730080000000000   -0.000000000000000    0.499480000000000 
K           0.730080000000000    0.500000000000000    0.999480000000000 
K           0.750000000000000    0.250000000000000    0.107211000000000 
K           0.750000000000000    0.250000000000000    0.607211000000000 
K           0.750000000000000    0.750000000000000    0.107211000000000 
K           0.750000000000000    0.750000000000000    0.607211000000000 
K           0.769920000000000   -0.000000000000000    0.999480000000000 
K           0.769920000000000    0.500000000000000    0.499480000000000 
K           0.795876000000000   -0.000000000000000    0.239396000000000 
K           0.795876000000000    0.500000000000000    0.739396000000000 
%ENDBLOCK POSITIONS_FRAC
