# Cell file generated by matador (Matthew Evans 2016)

%BLOCK LATTICE_CART
8.19248 0.0 0.0
0.0 8.19248 0.0
0.0 0.0 6.30603
%ENDBLOCK LATTICE_CART

%BLOCK POSITIONS_FRAC
P           0.000000000000000    0.000000000000000    0.794677000000000 
P           0.138456000000000    0.617528000000000    0.362796000000000 
P           0.152424000000000    0.457831000000000    0.113033000000000 
P           0.334915000000000    0.625769000000000    0.382917000000000 
P           0.374231000000000    0.334915000000000    0.382917000000000 
P           0.382472000000000    0.138456000000000    0.362796000000000 
P           0.457831000000000    0.847576000000000    0.113033000000000 
P           0.500000000000000    0.500000000000000    0.861608000000000 
P           0.542169000000000    0.152424000000000    0.113033000000000 
P           0.617528000000000    0.861544000000000    0.362796000000000 
P           0.625769000000000    0.665085000000000    0.382917000000000 
P           0.665085000000000    0.374231000000000    0.382917000000000 
P           0.847576000000000    0.542169000000000    0.113033000000000 
P           0.861544000000000    0.382472000000000    0.362796000000000 
K           0.000000000000000    0.500000000000000    0.718250000000000 
K           0.500000000000000    0.000000000000000    0.718250000000000 
%ENDBLOCK POSITIONS_FRAC
