# Cell file generated by matador (Matthew Evans 2016)

%BLOCK LATTICE_CART
8.43995 0.0 0.0
-4.21997 7.30921 0.0
0.0 0.0 5.79785
%ENDBLOCK LATTICE_CART

%BLOCK POSITIONS_FRAC
P           0.000000000000000    0.000000000000000    0.500000000000000 
P           0.333333000000000    0.666667000000000    0.331009000000000 
P           0.333333000000000    0.666667000000000    0.500000000000000 
P           0.333333000000000    0.666667000000000    0.668991000000000 
P           0.666667000000000    0.333333000000000    0.000000000000000 
P           0.666667000000000    0.333333000000000    0.500000000000000 
K           0.000000000000000    0.000000000000000    0.000000000000000 
K           0.333333000000000    0.666667000000000    0.000000000000000 
K           0.536300000000000    0.072600000000000    0.284487000000000 
K           0.536300000000000    0.072600000000000    0.715513000000000 
K           0.536300000000000    0.463700000000000    0.284487000000000 
K           0.536300000000000    0.463700000000000    0.715513000000000 
K           0.927400000000000    0.463700000000000    0.284487000000000 
K           0.927400000000000    0.463700000000000    0.715513000000000 
%ENDBLOCK POSITIONS_FRAC
