# Cell file generated by matador (Matthew Evans 2016)

%BLOCK LATTICE_CART
7.42676 0.0 0.0
0.0 10.4481 0.0
-1.55088 0.0 5.8232
%ENDBLOCK LATTICE_CART

%BLOCK POSITIONS_FRAC
P           0.000000000000000    0.104036000000000    0.000000000000000 
P           0.000000000000000    0.214943000000000    0.000000000000000 
P           0.000000000000000    0.780677000000000    0.000000000000000 
P           0.032031000000000    0.295620000000000    0.144680000000000 
P           0.386075000000000    0.760794000000000    0.490143000000000 
P           0.500000000000000    0.724506000000000    0.000000000000000 
P           0.613925000000000    0.760794000000000    0.509857000000000 
P           0.967969000000000    0.295620000000000    0.855320000000000 
K           0.000000000000000    0.239745000000000    0.500000000000000 
K           0.000000000000000    0.563489000000000    0.000000000000000 
K           0.000000000000000    0.822879000000000    0.500000000000000 
K           0.196455000000000    0.412543000000000    0.399951000000000 
K           0.289036000000000    0.466499000000000    0.035406000000000 
K           0.500000000000000    0.269164000000000    0.500000000000000 
K           0.500000000000000    0.533805000000000    0.500000000000000 
K           0.500000000000000    0.932794000000000    0.000000000000000 
K           0.710964000000000    0.466499000000000    0.964594000000000 
K           0.803545000000000    0.412543000000000    0.600049000000000 
%ENDBLOCK POSITIONS_FRAC
