# Cell file generated by matador (Matthew Evans 2016)

%BLOCK LATTICE_CART
7.56732 0.0 0.0
-3.78366 6.55349 0.0
0.0 0.0 8.63408
%ENDBLOCK LATTICE_CART

%BLOCK POSITIONS_FRAC
P           0.000000000000000    0.000000000000000    0.500000000000000 
P           0.146739000000000    0.610477000000000    0.188210000000000 
P           0.146739000000000    0.610477000000000    0.811790000000000 
P           0.333333000000000    0.666667000000000    0.500000000000000 
P           0.389523000000000    0.536261000000000    0.188210000000000 
P           0.389523000000000    0.536261000000000    0.811790000000000 
P           0.463739000000000    0.853261000000000    0.188210000000000 
P           0.463739000000000    0.853261000000000    0.811790000000000 
K           0.000000000000000    0.000000000000000    0.000000000000000 
K           0.011751000000000    0.730840000000000    0.500000000000000 
K           0.269160000000000    0.280911000000000    0.500000000000000 
K           0.300159000000000    0.102267000000000    0.000000000000000 
K           0.333333000000000    0.666667000000000    0.000000000000000 
K           0.666667000000000    0.333333000000000    0.000000000000000 
K           0.666667000000000    0.333333000000000    0.500000000000000 
K           0.719089000000000    0.988249000000000    0.500000000000000 
K           0.802108000000000    0.699841000000000    0.000000000000000 
K           0.897733000000000    0.197892000000000    0.000000000000000 
%ENDBLOCK POSITIONS_FRAC
