# Cell file generated by matador (Matthew Evans 2016)

%BLOCK LATTICE_CART
9.34341 0.0 0.0
-4.67171 8.09163 0.0
0.0 0.0 6.81729
%ENDBLOCK LATTICE_CART

%BLOCK POSITIONS_FRAC
P           0.590262000000000    0.295131000000000    0.500000000000000 
P           0.704869000000000    0.295131000000000    0.833333000000000 
P           0.704869000000000    0.409738000000000    0.166667000000000 
K           0.074729000000000    0.149459000000000    0.166667000000000 
K           0.074729000000000    0.925271000000000    0.833333000000000 
K           0.154370000000000    0.577185000000000    0.500000000000000 
K           0.422815000000000    0.577185000000000    0.833333000000000 
K           0.422815000000000    0.845630000000000    0.166667000000000 
K           0.459841000000000    0.229920000000000   -0.000000000000000 
K           0.770080000000000    0.229920000000000    0.333333000000000 
K           0.770080000000000    0.540159000000000    0.666667000000000 
K           0.850541000000000    0.925271000000000    0.500000000000000 
%ENDBLOCK POSITIONS_FRAC
