# Cell file generated by matador (Matthew Evans 2016)

%BLOCK LATTICE_CART
8.43433 0.0 0.0
-4.21716 7.30434 0.0
0.0 0.0 7.16288
%ENDBLOCK LATTICE_CART

%BLOCK POSITIONS_FRAC
P          -0.000000000000000    0.000000000000000    0.000000000000000 
P          -0.000000000000000    0.000000000000000    0.200554000000000 
P          -0.000000000000000    0.000000000000000    0.500000000000000 
P          -0.000000000000000    0.000000000000000    0.799446000000000 
P           0.333333000000000    0.666667000000000    0.000000000000000 
P           0.333333000000000    0.666667000000000    0.411618000000000 
P           0.333333000000000    0.666667000000000    0.588382000000000 
K           0.380225000000000    0.009057000000000    0.000000000000000 
K           0.380225000000000    0.371168000000000    0.000000000000000 
K           0.628832000000000    0.009057000000000    0.000000000000000 
K           0.628832000000000    0.619775000000000    0.000000000000000 
K           0.990943000000000    0.371168000000000    0.000000000000000 
K           0.990943000000000    0.619775000000000    0.000000000000000 
%ENDBLOCK POSITIONS_FRAC
