# Cell file generated by matador (Matthew Evans 2016)

%BLOCK LATTICE_CART
8.52005 0.0 0.0
0.0 8.52005 0.0
0.0 0.0 7.25804
%ENDBLOCK LATTICE_CART

%BLOCK POSITIONS_FRAC
P           0.000000000000000    0.000000000000000    0.000000000000000 
P           0.000000000000000    0.000000000000000    0.356789000000000 
P           0.000000000000000    0.000000000000000    0.643211000000000 
P           0.000000000000000    0.500000000000000    0.254188000000000 
P           0.000000000000000    0.500000000000000    0.814364000000000 
P           0.500000000000000    0.000000000000000    0.185636000000000 
P           0.500000000000000    0.000000000000000    0.745812000000000 
P           0.500000000000000    0.500000000000000    0.000000000000000 
P           0.500000000000000    0.500000000000000    0.356789000000000 
P           0.500000000000000    0.500000000000000    0.643211000000000 
K           0.042274000000000    0.240531000000000    0.412251000000000 
K           0.240531000000000    0.957726000000000    0.587749000000000 
K           0.259469000000000    0.457726000000000    0.412251000000000 
K           0.457726000000000    0.740531000000000    0.587749000000000 
K           0.542274000000000    0.259469000000000    0.587749000000000 
K           0.740531000000000    0.542274000000000    0.412251000000000 
K           0.759469000000000    0.042274000000000    0.587749000000000 
K           0.957726000000000    0.759469000000000    0.412251000000000 
%ENDBLOCK POSITIONS_FRAC
