# Cell file generated by matador (Matthew Evans 2016)

%BLOCK LATTICE_CART
8.55941 0.0 0.0
-4.27971 7.41267 0.0
0.0 0.0 8.76293
%ENDBLOCK LATTICE_CART

%BLOCK POSITIONS_FRAC
P           0.000000000000000   -0.000000000000000    0.251381000000000 
P           0.000000000000000   -0.000000000000000    0.992937000000000 
P           0.333333000000000    0.666667000000000    0.659604000000000 
P           0.333333000000000    0.666667000000000    0.918048000000000 
P           0.666667000000000    0.333333000000000    0.326271000000000 
P           0.666667000000000    0.333333000000000    0.584714000000000 
K           0.067233000000000    0.533616000000000    0.996133000000000 
K           0.133050000000000    0.266100000000000    0.329466000000000 
K           0.133050000000000    0.866950000000000    0.329466000000000 
K           0.400566000000000    0.200283000000000    0.662800000000000 
K           0.466384000000000    0.533616000000000    0.996133000000000 
K           0.466384000000000    0.932767000000000    0.996133000000000 
K           0.733900000000000    0.866950000000000    0.329466000000000 
K           0.799717000000000    0.200283000000000    0.662800000000000 
K           0.799717000000000    0.599434000000000    0.662800000000000 
%ENDBLOCK POSITIONS_FRAC
