# Cell file generated by matador (Matthew Evans 2016)

%BLOCK LATTICE_CART
6.8076 0.0 0.0
0.0 6.8076 0.0
0.0 0.0 7.46649
%ENDBLOCK LATTICE_CART

%BLOCK POSITIONS_FRAC
P           0.028961000000000    0.205182000000000    0.949798000000000 
P           0.205182000000000    0.028961000000000    0.949798000000000 
P           0.294818000000000    0.528961000000000    0.449798000000000 
P           0.471039000000000    0.705182000000000    0.449798000000000 
P           0.528961000000000    0.294818000000000    0.449798000000000 
P           0.705182000000000    0.471039000000000    0.449798000000000 
P           0.794818000000000    0.971039000000000    0.949798000000000 
P           0.971039000000000    0.794818000000000    0.949798000000000 
K           0.198982000000000    0.198982000000000    0.420016000000000 
K           0.301018000000000    0.698982000000000    0.920016000000000 
K           0.698982000000000    0.301018000000000    0.920016000000000 
K           0.801018000000000    0.801018000000000    0.420016000000000 
%ENDBLOCK POSITIONS_FRAC
