# Cell file generated by matador (Matthew Evans 2016)

%BLOCK LATTICE_CART
7.30858 0.0 0.0
0.0 7.8086 0.0
0.0923372 0.0 6.20345
%ENDBLOCK LATTICE_CART

%BLOCK POSITIONS_FRAC
P           0.021078000000000    0.067813000000000    0.674069000000000 
P           0.097877000000000    0.888230000000000    0.061589000000000 
P           0.902123000000000    0.888230000000000    0.938411000000000 
P           0.978922000000000    0.067813000000000    0.325931000000000 
K          -0.000000000000000    0.617259000000000    0.500000000000000 
K          -0.000000000000000    0.648989000000000    0.000000000000000 
K          -0.000000000000000    0.849969000000000    0.500000000000000 
K           0.090150000000000    0.413206000000000    0.279598000000000 
K           0.446422000000000    0.314689000000000    0.283507000000000 
K           0.500000000000000    0.149929000000000    0.000000000000000 
K           0.553578000000000    0.314689000000000    0.716493000000000 
K           0.909850000000000    0.413206000000000    0.720402000000000 
%ENDBLOCK POSITIONS_FRAC
