# Cell file generated by matador (Matthew Evans 2016)

%BLOCK LATTICE_CART
9.49274 0.0 0.0
0.0 9.49274 0.0
0.0 0.0 7.05492
%ENDBLOCK LATTICE_CART

%BLOCK POSITIONS_FRAC
P           0.319171000000000    0.500000000000000    0.250000000000000 
P           0.500000000000000    0.319171000000000    0.500000000000000 
P           0.500000000000000    0.680829000000000   -0.000000000000000 
P           0.680829000000000    0.500000000000000    0.750000000000000 
K           0.000000000000000    0.267196000000000   -0.000000000000000 
K           0.000000000000000    0.732804000000000    0.500000000000000 
K           0.162657000000000    0.162657000000000    0.375000000000000 
K           0.162657000000000    0.837343000000000    0.125000000000000 
K           0.208526000000000    0.500000000000000    0.750000000000000 
K           0.267196000000000    0.000000000000000    0.750000000000000 
K           0.500000000000000    0.208526000000000   -0.000000000000000 
K           0.500000000000000    0.791474000000000    0.500000000000000 
K           0.732804000000000    0.000000000000000    0.250000000000000 
K           0.791474000000000    0.500000000000000    0.250000000000000 
K           0.837343000000000    0.162657000000000    0.625000000000000 
K           0.837343000000000    0.837343000000000    0.875000000000000 
%ENDBLOCK POSITIONS_FRAC
