# Cell file generated by matador (Matthew Evans 2016)

%BLOCK LATTICE_CART
8.60349 -0.0 0.0
-4.30175 7.45084 0.0
0.0 0.0 4.90427
%ENDBLOCK LATTICE_CART

%BLOCK POSITIONS_FRAC
P           0.012893000000000    0.843368000000000    0.207495000000000 
P           0.156632000000000    0.169524000000000    0.207495000000000 
P           0.212518000000000    0.035478000000000    0.265675000000000 
P           0.466937000000000    0.435794000000000    0.982373000000000 
P           0.564206000000000    0.031144000000000    0.982373000000000 
P           0.666667000000000    0.333333000000000    0.579763000000000 
P           0.822961000000000    0.787482000000000    0.265675000000000 
P           0.830476000000000    0.987107000000000    0.207495000000000 
P           0.964522000000000    0.177039000000000    0.265675000000000 
P           0.968856000000000    0.533063000000000    0.982373000000000 
K           0.000000000000000    0.000000000000000    0.502429000000000 
K           0.333333000000000    0.666667000000000    0.947416000000000 
%ENDBLOCK POSITIONS_FRAC
