# Cell file generated by matador (Matthew Evans 2016)

%BLOCK LATTICE_CART
7.20364 0.0 0.0
0.0 7.20364 0.0
0.0 0.0 10.8786
%ENDBLOCK LATTICE_CART

%BLOCK POSITIONS_FRAC
P           0.000000000000000    0.000000000000000    0.403529000000000 
P           0.000000000000000    0.000000000000000    0.596471000000000 
P           0.000000000000000    0.500000000000000    0.495575000000000 
P           0.000000000000000    0.500000000000000    0.995575000000000 
P           0.500000000000000    0.000000000000000    0.004425000000000 
P           0.500000000000000    0.000000000000000    0.504425000000000 
P           0.500000000000000    0.500000000000000    0.096471000000000 
P           0.500000000000000    0.500000000000000    0.903529000000000 
K           0.000000000000000    0.000000000000000    0.000000000000000 
K           0.126756000000000    0.745121000000000    0.248545000000000 
K           0.245121000000000    0.373244000000000    0.748545000000000 
K           0.254879000000000    0.873244000000000    0.751455000000000 
K           0.373244000000000    0.245121000000000    0.251455000000000 
K           0.500000000000000    0.500000000000000    0.500000000000000 
K           0.626756000000000    0.754879000000000    0.251455000000000 
K           0.745121000000000    0.126756000000000    0.751455000000000 
K           0.754879000000000    0.626756000000000    0.748545000000000 
K           0.873244000000000    0.254879000000000    0.248545000000000 
%ENDBLOCK POSITIONS_FRAC
