# Cell file generated by matador (Matthew Evans 2016)

%BLOCK LATTICE_CART
10.5653 0.0 0.0
-5.28265 9.14981 0.0
0.0 0.0 6.04572
%ENDBLOCK LATTICE_CART

%BLOCK POSITIONS_FRAC
P           0.231689000000000    0.032557000000000    0.371096000000000 
P           0.231689000000000    0.199133000000000    0.371096000000000 
P           0.372330000000000    0.186165000000000    0.077160000000000 
P           0.666667000000000    0.333333000000000    0.466504000000000 
P           0.800867000000000    0.032557000000000    0.371096000000000 
P           0.800867000000000    0.768311000000000    0.371096000000000 
P           0.813835000000000    0.186165000000000    0.077160000000000 
P           0.813835000000000    0.627670000000000    0.077160000000000 
P           0.967443000000000    0.199133000000000    0.371096000000000 
P           0.967443000000000    0.768311000000000    0.371096000000000 
K           0.000000000000000    0.000000000000000    0.285150000000000 
K           0.085958000000000    0.435476000000000    0.143031000000000 
K           0.085958000000000    0.650482000000000    0.143031000000000 
K           0.349518000000000    0.435476000000000    0.143031000000000 
K           0.349518000000000    0.914042000000000    0.143031000000000 
K           0.564524000000000    0.650482000000000    0.143031000000000 
K           0.564524000000000    0.914042000000000    0.143031000000000 
K           0.666667000000000    0.333333000000000    0.812922000000000 
%ENDBLOCK POSITIONS_FRAC
