# Cell file generated by matador (Matthew Evans 2016)

%BLOCK LATTICE_CART
7.76655 0.0 0.0
-3.88328 6.72603 0.0
0.0 0.0 6.60441
%ENDBLOCK LATTICE_CART

%BLOCK POSITIONS_FRAC
P           0.000000000000000    0.500000000000000    0.265603000000000 
P           0.333333000000000    0.666667000000000    0.346943000000000 
P           0.500000000000000    0.000000000000000    0.265603000000000 
P           0.500000000000000    0.500000000000000    0.265603000000000 
P           0.666667000000000    0.333333000000000    0.346943000000000 
K           0.000000000000000    0.000000000000000    0.536565000000000 
K           0.000000000000000    0.500000000000000    0.711380000000000 
K           0.333333000000000    0.666667000000000    0.031482000000000 
K           0.500000000000000    0.000000000000000    0.711380000000000 
K           0.500000000000000    0.500000000000000    0.711380000000000 
K           0.666667000000000    0.333333000000000    0.031482000000000 
%ENDBLOCK POSITIONS_FRAC
