# Cell file generated by matador (Matthew Evans 2016)

%BLOCK LATTICE_CART
8.24681 -0.0 0.0
-4.12341 7.14195 0.0
0.0 0.0 7.7747
%ENDBLOCK LATTICE_CART

%BLOCK POSITIONS_FRAC
P          -0.000000000000000    0.000000000000000    0.712655000000000 
P          -0.000000000000000    0.500000000000000    0.056518000000000 
P           0.031275000000000    0.336194000000000    0.613808000000000 
P           0.304919000000000    0.968725000000000    0.613808000000000 
P           0.333333000000000    0.666667000000000    0.239889000000000 
P           0.336194000000000    0.304919000000000    0.613808000000000 
P           0.500000000000000    0.000000000000000    0.056518000000000 
P           0.500000000000000    0.500000000000000    0.056518000000000 
P           0.663806000000000    0.695081000000000    0.613808000000000 
P           0.666667000000000    0.333333000000000    0.239889000000000 
P           0.695081000000000    0.031275000000000    0.613808000000000 
P           0.968725000000000    0.663806000000000    0.613808000000000 
K          -0.000000000000000    0.500000000000000    0.392075000000000 
K           0.500000000000000    0.000000000000000    0.392075000000000 
K           0.500000000000000    0.500000000000000    0.392075000000000 
%ENDBLOCK POSITIONS_FRAC
