# Cell file generated by matador (Matthew Evans 2016)

%BLOCK LATTICE_CART
8.3529 0.0 0.0
-4.17645 7.23382 0.0
0.0 0.0 5.71695
%ENDBLOCK LATTICE_CART

%BLOCK POSITIONS_FRAC
P           0.000000000000000    0.000000000000000    0.000000000000000 
P           0.000000000000000    0.000000000000000    0.500000000000000 
K           0.000000000000000    0.286071000000000    0.686221000000000 
K           0.000000000000000    0.713929000000000    0.313779000000000 
K           0.286071000000000    0.000000000000000    0.686221000000000 
K           0.286071000000000    0.286071000000000    0.313779000000000 
K           0.713929000000000    0.000000000000000    0.313779000000000 
K           0.713929000000000    0.713929000000000    0.686221000000000 
%ENDBLOCK POSITIONS_FRAC
