# Cell file generated by matador (Matthew Evans 2016)

%BLOCK LATTICE_CART
5.24153 0.0 0.0
0.0 6.98107 0.0
-4.75518 0.0 10.074
%ENDBLOCK LATTICE_CART

%BLOCK POSITIONS_FRAC
P           0.288486000000000    0.318237000000000    0.663110000000000 
P           0.288486000000000    0.681763000000000    0.163110000000000 
P           0.447755000000000    0.082548000000000    0.872092000000000 
P           0.447755000000000    0.917452000000000    0.372092000000000 
P           0.513680000000000    0.123539000000000    0.974115000000000 
P           0.513680000000000    0.876461000000000    0.474115000000000 
P           0.849343000000000    0.306918000000000    0.892502000000000 
P           0.849343000000000    0.693082000000000    0.392502000000000 
P           0.915354000000000    0.279563000000000    0.128993000000000 
P           0.915354000000000    0.720437000000000    0.628993000000000 
P           0.936201000000000    0.299985000000000    0.449400000000000 
P           0.936201000000000    0.700015000000000    0.949400000000000 
K           0.027904000000000    0.499349000000000    0.268388000000000 
K           0.027904000000000    0.500651000000000    0.768388000000000 
K           0.625620000000000    0.173606000000000    0.261063000000000 
K           0.625620000000000    0.826394000000000    0.761063000000000 
%ENDBLOCK POSITIONS_FRAC
