# Cell file generated by matador (Matthew Evans 2016)

%BLOCK LATTICE_CART
7.71657 0.0 0.0
0.0 2.11781 0.0
2.79703 0.0 9.84232
%ENDBLOCK LATTICE_CART

%BLOCK POSITIONS_FRAC
P           0.088310000000000    0.882670000000000    0.837960000000000 
P           0.162912000000000    0.454281000000000    0.916523000000000 
P           0.837088000000000    0.954281000000000    0.083477000000000 
P           0.911690000000000    0.382670000000000    0.162040000000000 
K           0.374512000000000    0.073873000000000    0.016779000000000 
K           0.625488000000000    0.573873000000000    0.983221000000000 
%ENDBLOCK POSITIONS_FRAC
