# Cell file generated by matador (Matthew Evans 2016)

%BLOCK LATTICE_CART
6.52435 0.0 0.0
-3.26218 5.65025 0.0
0.0 0.0 6.76431
%ENDBLOCK LATTICE_CART

%BLOCK POSITIONS_FRAC
P           0.000000000000000    0.000000000000000    0.500000000000000 
P           0.333333000000000    0.666667000000000    0.112015000000000 
P           0.333333000000000    0.666667000000000    0.887985000000000 
P           0.666667000000000    0.333333000000000    0.112015000000000 
P           0.666667000000000    0.333333000000000    0.887985000000000 
K           0.000000000000000    0.000000000000000    0.000000000000000 
K           0.333333000000000    0.666667000000000    0.500000000000000 
K           0.666667000000000    0.333333000000000    0.500000000000000 
%ENDBLOCK POSITIONS_FRAC
