# Cell file generated by matador (Matthew Evans 2016)

%BLOCK LATTICE_CART
8.20211 0.0 0.0
-4.10106 7.10324 0.0
0.0 0.0 6.02832
%ENDBLOCK LATTICE_CART

%BLOCK POSITIONS_FRAC
P           0.000000000000000    0.000000000000000    0.779862000000000 
P           0.134641000000000    0.067321000000000    0.646313000000000 
P           0.333333000000000    0.666667000000000    0.441624000000000 
P           0.666667000000000    0.333333000000000    0.591972000000000 
P           0.666667000000000    0.333333000000000    0.827372000000000 
P           0.932679000000000    0.067321000000000    0.646313000000000 
P           0.932679000000000    0.865359000000000    0.646313000000000 
K           0.085025000000000    0.170050000000000    0.188625000000000 
K           0.085025000000000    0.914975000000000    0.188625000000000 
K           0.198387000000000    0.396775000000000    0.585476000000000 
K           0.198387000000000    0.801613000000000    0.585476000000000 
K           0.603225000000000    0.801613000000000    0.585476000000000 
K           0.829950000000000    0.914975000000000    0.188625000000000 
%ENDBLOCK POSITIONS_FRAC
