# Cell file generated by matador (Matthew Evans 2016)

%BLOCK LATTICE_CART
7.9276 0.0 0.0
0.0 6.66241 0.0
0.0 0.0 11.4256
%ENDBLOCK LATTICE_CART

%BLOCK POSITIONS_FRAC
P           0.000000000000000    0.250000000000000    0.632264000000000 
P           0.000000000000000    0.750000000000000    0.867736000000000 
P           0.500000000000000    0.250000000000000    0.367736000000000 
P           0.500000000000000    0.750000000000000    0.132264000000000 
K           0.000000000000000    0.250000000000000    0.445205000000000 
K           0.000000000000000    0.750000000000000    0.054795000000000 
K           0.189991000000000    0.000000000000000    0.750000000000000 
K           0.250000000000000    0.402697000000000   -0.000000000000000 
K           0.250000000000000    0.597303000000000    0.500000000000000 
K           0.310009000000000    0.000000000000000    0.250000000000000 
K           0.500000000000000    0.250000000000000    0.554795000000000 
K           0.500000000000000    0.750000000000000    0.945205000000000 
K           0.689991000000000    0.500000000000000    0.250000000000000 
K           0.750000000000000    0.097303000000000   -0.000000000000000 
K           0.750000000000000    0.902697000000000    0.500000000000000 
K           0.810009000000000    0.500000000000000    0.750000000000000 
%ENDBLOCK POSITIONS_FRAC
