# Cell file generated by matador (Matthew Evans 2016)

%BLOCK LATTICE_CART
7.03276 0.0 0.0
-3.51638 6.09055 0.0
0.0 0.0 10.1405
%ENDBLOCK LATTICE_CART

%BLOCK POSITIONS_FRAC
P           0.000000000000000    0.000000000000000    0.504503000000000 
P           0.000000000000000    0.000000000000000    0.709032000000000 
P           0.020763000000000    0.681992000000000    0.446865000000000 
P           0.318008000000000    0.338770000000000    0.446865000000000 
P           0.333333000000000    0.666667000000000    0.095198000000000 
P           0.389905000000000    0.343317000000000    0.690857000000000 
P           0.568065000000000    0.284817000000000    0.162178000000000 
P           0.656683000000000    0.046588000000000    0.690857000000000 
P           0.661230000000000    0.979237000000000    0.446865000000000 
P           0.666667000000000    0.333333000000000    0.347348000000000 
P           0.666667000000000    0.333333000000000    0.630719000000000 
P           0.715183000000000    0.283247000000000    0.162178000000000 
P           0.716753000000000    0.431935000000000    0.162178000000000 
P           0.953412000000000    0.610095000000000    0.690857000000000 
K           0.000000000000000    0.000000000000000    0.013472000000000 
K           0.333333000000000    0.666667000000000    0.521298000000000 
K           0.376983000000000    0.030552000000000    0.475733000000000 
K           0.653569000000000    0.623017000000000    0.475733000000000 
K           0.666667000000000    0.333333000000000    0.911842000000000 
K           0.969448000000000    0.346431000000000    0.475733000000000 
%ENDBLOCK POSITIONS_FRAC
