# Cell file generated by matador (Matthew Evans 2016)

%BLOCK LATTICE_CART
8.21332 0.0 0.0
0.0 8.21332 0.0
0.0 0.0 8.2916
%ENDBLOCK LATTICE_CART

%BLOCK POSITIONS_FRAC
P           0.000000000000000    0.500000000000000    0.750000000000000 
P           0.087450000000000    0.412550000000000    0.750000000000000 
P           0.242340000000000    0.257660000000000    0.250000000000000 
P           0.257660000000000    0.757660000000000    0.750000000000000 
P           0.412550000000000    0.912550000000000    0.250000000000000 
P           0.500000000000000    0.000000000000000    0.250000000000000 
P           0.587450000000000    0.087450000000000    0.250000000000000 
P           0.742340000000000    0.242340000000000    0.750000000000000 
P           0.757660000000000    0.742340000000000    0.250000000000000 
P           0.912550000000000    0.587450000000000    0.750000000000000 
K           0.075668000000000    0.636317000000000    0.935959000000000 
K           0.136317000000000    0.575668000000000    0.564041000000000 
K           0.363683000000000    0.075668000000000    0.064041000000000 
K           0.424332000000000    0.136317000000000    0.435959000000000 
K           0.575668000000000    0.863683000000000    0.435959000000000 
K           0.636317000000000    0.924332000000000    0.064041000000000 
K           0.863683000000000    0.424332000000000    0.564041000000000 
K           0.924332000000000    0.363683000000000    0.935959000000000 
%ENDBLOCK POSITIONS_FRAC
