# Cell file generated by matador (Matthew Evans 2016)

%BLOCK LATTICE_CART
6.60974 0.0 0.0
-3.30487 5.7242 0.0
0.0 0.0 8.89184
%ENDBLOCK LATTICE_CART

%BLOCK POSITIONS_FRAC
P           0.000000000000000   -0.000000000000000    0.115872000000000 
P           0.114838000000000    0.442191000000000    0.122404000000000 
P           0.327353000000000    0.885162000000000    0.122404000000000 
P           0.442191000000000    0.114838000000000    0.122404000000000 
P           0.557809000000000    0.672647000000000    0.122404000000000 
P           0.672647000000000    0.557809000000000    0.122404000000000 
P           0.885162000000000    0.327353000000000    0.122404000000000 
K           0.000000000000000    0.265713000000000    0.871017000000000 
K           0.000000000000000    0.805022000000000    0.351541000000000 
K           0.194978000000000    0.194978000000000    0.351541000000000 
K           0.265713000000000   -0.000000000000000    0.871017000000000 
K           0.734287000000000    0.734287000000000    0.871017000000000 
K           0.805022000000000   -0.000000000000000    0.351541000000000 
%ENDBLOCK POSITIONS_FRAC
