# Cell file generated by matador (Matthew Evans 2016)

%BLOCK LATTICE_CART
6.60216 0.0 0.0
0.0 7.79211 0.0
0.0 0.0 6.42716
%ENDBLOCK LATTICE_CART

%BLOCK POSITIONS_FRAC
P           0.160042000000000    0.931113000000000    0.000000000000000 
P           0.339958000000000    0.431113000000000    0.500000000000000 
P           0.660042000000000    0.568887000000000    0.500000000000000 
P           0.839958000000000    0.068887000000000    0.000000000000000 
K           0.043633000000000    0.628512000000000    0.500000000000000 
K           0.219938000000000    0.110159000000000    0.500000000000000 
K           0.280062000000000    0.610159000000000    0.000000000000000 
K           0.456367000000000    0.128512000000000    0.000000000000000 
K           0.543633000000000    0.871488000000000    0.000000000000000 
K           0.719938000000000    0.389841000000000    0.000000000000000 
K           0.780062000000000    0.889841000000000    0.500000000000000 
K           0.956367000000000    0.371488000000000    0.500000000000000 
%ENDBLOCK POSITIONS_FRAC
