# Cell file generated by matador (Matthew Evans 2016)

%BLOCK LATTICE_CART
4.2475 0.0 0.0
0.0 7.89805 0.0
0.0 0.0 11.2958
%ENDBLOCK LATTICE_CART

%BLOCK POSITIONS_FRAC
P           0.000000000000000    0.401294000000000    0.500000000000000 
P           0.000000000000000    0.598706000000000    0.500000000000000 
P           0.190078000000000    0.000000000000000    0.000000000000000 
P           0.809922000000000    0.000000000000000    0.000000000000000 
K           0.000000000000000    0.000000000000000    0.500000000000000 
K           0.000000000000000    0.500000000000000    0.000000000000000 
K           0.266692000000000    0.203593000000000    0.535732000000000 
K           0.266692000000000    0.796407000000000    0.464268000000000 
K           0.500000000000000    0.000000000000000    0.500000000000000 
K           0.733308000000000    0.203593000000000    0.464268000000000 
K           0.733308000000000    0.796407000000000    0.535732000000000 
%ENDBLOCK POSITIONS_FRAC
