# Cell file generated by matador (Matthew Evans 2016)

%BLOCK LATTICE_CART
6.22468 0.0 0.0
0.0 6.46537 0.0
0.0 0.0 10.8274
%ENDBLOCK LATTICE_CART

%BLOCK POSITIONS_FRAC
P           0.000000000000000    0.500000000000000    0.000000000000000 
P           0.000000000000000    0.500000000000000    0.500000000000000 
P           0.500000000000000    0.000000000000000    0.000000000000000 
P           0.500000000000000    0.000000000000000    0.500000000000000 
P           0.500000000000000    0.500000000000000    0.000000000000000 
P           0.500000000000000    0.500000000000000    0.500000000000000 
K           0.000000000000000    0.000000000000000    0.000000000000000 
K           0.000000000000000    0.000000000000000    0.500000000000000 
K           0.178279000000000    0.089427000000000    0.822333000000000 
K           0.178279000000000    0.910573000000000    0.177667000000000 
K           0.821721000000000    0.089427000000000    0.177667000000000 
K           0.821721000000000    0.910573000000000    0.822333000000000 
%ENDBLOCK POSITIONS_FRAC
