# Cell file generated by matador (Matthew Evans 2016)

%BLOCK LATTICE_CART
9.02256 0.0 0.0
-1.64295 6.13456 0.0
-2.45083 1.11801 4.60729
%ENDBLOCK LATTICE_CART

%BLOCK POSITIONS_FRAC
P           0.000000000000000    0.000000000000000    0.000000000000000 
P           0.000000000000000    0.500000000000000    0.500000000000000 
P           0.500000000000000    0.000000000000000    0.000000000000000 
P           0.500000000000000    0.000000000000000    0.500000000000000 
P           0.500000000000000    0.500000000000000    0.500000000000000 
K           0.241400000000000    0.947674000000000    0.714539000000000 
K           0.500000000000000    0.500000000000000    0.000000000000000 
K           0.758600000000000    0.052326000000000    0.285461000000000 
%ENDBLOCK POSITIONS_FRAC
