# Cell file generated by matador (Matthew Evans 2016)

%BLOCK LATTICE_CART
6.14272 0.0 0.0
-3.07136 5.31975 0.0
0.0 0.0 6.99481
%ENDBLOCK LATTICE_CART

%BLOCK POSITIONS_FRAC
P          -0.000000000000000    0.000000000000000    0.349013000000000 
P          -0.000000000000000    0.000000000000000    0.650987000000000 
P           0.290710000000000    0.145355000000000    0.000000000000000 
P           0.333333000000000    0.666667000000000    0.375895000000000 
P           0.333333000000000    0.666667000000000    0.624105000000000 
P           0.854645000000000    0.145355000000000    0.000000000000000 
P           0.854645000000000    0.709290000000000    0.000000000000000 
K           0.333333000000000    0.666667000000000    0.000000000000000 
K           0.666666000000000    0.333334000000000    0.000000000000000 
K           0.666666000000000    0.333334000000000    0.500000000000000 
%ENDBLOCK POSITIONS_FRAC
