# Cell file generated by matador (Matthew Evans 2016)

%BLOCK LATTICE_CART
6.31909 0.0 0.0
0.0 6.31909 0.0
0.0 0.0 8.02039
%ENDBLOCK LATTICE_CART

%BLOCK POSITIONS_FRAC
P           0.000000000000000    0.000000000000000    0.000000000000000 
P           0.179611000000000    0.179611000000000    0.000000000000000 
P           0.179611000000000    0.820389000000000    0.000000000000000 
P           0.346447000000000    0.500000000000000    0.793646000000000 
P           0.500000000000000    0.346447000000000    0.206354000000000 
P           0.500000000000000    0.653553000000000    0.206354000000000 
P           0.653553000000000    0.500000000000000    0.793646000000000 
P           0.820389000000000    0.179611000000000    0.000000000000000 
P           0.820389000000000    0.820389000000000    0.000000000000000 
K           0.000000000000000    0.000000000000000    0.500000000000000 
K           0.500000000000000    0.500000000000000    0.000000000000000 
K           0.500000000000000    0.500000000000000    0.500000000000000 
%ENDBLOCK POSITIONS_FRAC
