# Cell file generated by matador (Matthew Evans 2016)

%BLOCK LATTICE_CART
6.78764 0.0 0.0
-3.39382 5.87827 0.0
0.0 0.0 8.46538
%ENDBLOCK LATTICE_CART

%BLOCK POSITIONS_FRAC
P           0.242267000000000    0.530065000000000    0.758711000000000 
P           0.287798000000000    0.757733000000000    0.758711000000000 
P           0.348786000000000    0.299627000000000    0.895065000000000 
P           0.469935000000000    0.712202000000000    0.758711000000000 
P           0.700373000000000    0.049159000000000    0.895065000000000 
P           0.950841000000000    0.651214000000000    0.895065000000000 
K           0.190132000000000    0.165653000000000    0.587491000000000 
K           0.666667000000000    0.333333000000000    0.708814000000000 
K           0.834347000000000    0.024479000000000    0.587491000000000 
K           0.975521000000000    0.809868000000000    0.587491000000000 
%ENDBLOCK POSITIONS_FRAC
