# Cell file generated by matador (Matthew Evans 2016)

%BLOCK LATTICE_CART
9.14547 0.0 0.0
0.0 9.14547 0.0
0.0 0.0 9.14547
%ENDBLOCK LATTICE_CART

%BLOCK POSITIONS_FRAC
P           0.000000000000000    0.000000000000000    0.000000000000000 
P           0.000000000000000    0.123092000000000    0.168814000000000 
P           0.000000000000000    0.123092000000000    0.831186000000000 
P           0.000000000000000    0.876908000000000    0.168814000000000 
P           0.000000000000000    0.876908000000000    0.831186000000000 
P           0.123092000000000    0.168814000000000    0.000000000000000 
P           0.123092000000000    0.831186000000000    0.000000000000000 
P           0.168814000000000    0.000000000000000    0.123092000000000 
P           0.168814000000000    0.000000000000000    0.876908000000000 
P           0.500000000000000    0.500000000000000    0.500000000000000 
P           0.831186000000000    0.000000000000000    0.123092000000000 
P           0.831186000000000    0.000000000000000    0.876908000000000 
P           0.876908000000000    0.168814000000000    0.000000000000000 
P           0.876908000000000    0.831186000000000    0.000000000000000 
K           0.000000000000000    0.000000000000000    0.500000000000000 
K           0.000000000000000    0.500000000000000    0.000000000000000 
K           0.000000000000000    0.500000000000000    0.500000000000000 
K           0.500000000000000    0.000000000000000    0.000000000000000 
K           0.500000000000000    0.000000000000000    0.500000000000000 
K           0.500000000000000    0.500000000000000    0.000000000000000 
%ENDBLOCK POSITIONS_FRAC
