# Cell file generated by matador (Matthew Evans 2016)

%BLOCK LATTICE_CART
6.81286 0.0 0.0
0.0 5.79131 0.0
0.0 0.0 10.5913
%ENDBLOCK LATTICE_CART

%BLOCK POSITIONS_FRAC
P           0.000000000000000    0.000000000000000    0.000000000000000 
P           0.000000000000000    0.500000000000000    0.000000000000000 
P           0.500000000000000    0.000000000000000    0.000000000000000 
P           0.500000000000000    0.500000000000000    0.000000000000000 
K           0.000000000000000    0.058093000000000    0.706131000000000 
K           0.000000000000000    0.441907000000000    0.706131000000000 
K           0.000000000000000    0.558093000000000    0.293869000000000 
K           0.000000000000000    0.941907000000000    0.293869000000000 
K           0.500000000000000    0.058093000000000    0.293869000000000 
K           0.500000000000000    0.441907000000000    0.293869000000000 
K           0.500000000000000    0.558093000000000    0.706131000000000 
K           0.500000000000000    0.941907000000000    0.706131000000000 
%ENDBLOCK POSITIONS_FRAC
