# Cell file generated by matador (Matthew Evans 2016)

%BLOCK LATTICE_CART
7.42473 0.0 0.0
-3.71237 6.43001 0.0
0.0 0.0 10.2759
%ENDBLOCK LATTICE_CART

%BLOCK POSITIONS_FRAC
P           0.000000000000000    0.000000000000000    0.583973000000000 
P           0.333333000000000    0.666667000000000    0.250639000000000 
P           0.666667000000000    0.333333000000000    0.917306000000000 
K           0.033851000000000    0.516925000000000    0.809345000000000 
K           0.149741000000000    0.299483000000000    0.142679000000000 
K           0.149741000000000    0.850259000000000    0.142679000000000 
K           0.367184000000000    0.183592000000000    0.476012000000000 
K           0.483075000000000    0.516925000000000    0.809345000000000 
K           0.483075000000000    0.966149000000000    0.809345000000000 
K           0.700517000000000    0.850259000000000    0.142679000000000 
K           0.816408000000000    0.183592000000000    0.476012000000000 
K           0.816408000000000    0.632816000000000    0.476012000000000 
%ENDBLOCK POSITIONS_FRAC
