# Cell file generated by matador (Matthew Evans 2016)

%BLOCK LATTICE_CART
12.4138 0.0 0.0
-6.20691 10.7507 0.0
0.0 0.0 7.6291
%ENDBLOCK LATTICE_CART

%BLOCK POSITIONS_FRAC
P           0.000000000000000   -0.000000000000000    0.542694000000000 
P           0.000000000000000   -0.000000000000000    0.975070000000000 
P           0.333333000000000    0.666667000000000    0.209360000000000 
P           0.333333000000000    0.666667000000000    0.641736000000000 
P           0.666667000000000    0.333333000000000    0.308403000000000 
P           0.666667000000000    0.333333000000000    0.876027000000000 
K           0.189809000000000    0.379618000000000    0.503486000000000 
K           0.189809000000000    0.810191000000000    0.503486000000000 
K           0.205103000000000    0.410205000000000    0.962016000000000 
K           0.205103000000000    0.794897000000000    0.962016000000000 
K           0.256461000000000    0.128231000000000    0.295350000000000 
K           0.287049000000000    0.143525000000000    0.836819000000000 
K           0.523142000000000    0.046284000000000    0.170153000000000 
K           0.523142000000000    0.476858000000000    0.170153000000000 
K           0.538436000000000    0.076872000000000    0.628683000000000 
K           0.538436000000000    0.461564000000000    0.628683000000000 
K           0.589795000000000    0.794897000000000    0.962016000000000 
K           0.620382000000000    0.810191000000000    0.503486000000000 
K           0.856475000000000    0.143525000000000    0.836819000000000 
K           0.856475000000000    0.712951000000000    0.836819000000000 
K           0.871769000000000    0.128231000000000    0.295350000000000 
K           0.871769000000000    0.743539000000000    0.295350000000000 
K           0.923128000000000    0.461564000000000    0.628683000000000 
K           0.953716000000000    0.476858000000000    0.170153000000000 
%ENDBLOCK POSITIONS_FRAC
