# Cell file generated by matador (Matthew Evans 2016)

%BLOCK LATTICE_CART
7.38824 0.0 0.0
-3.69412 6.3984 0.0
0.0 0.0 3.70225
%ENDBLOCK LATTICE_CART

%BLOCK POSITIONS_FRAC
P           0.112563000000000    0.050203000000000    0.000000000000000 
P           0.214726000000000    0.613900000000000    0.000000000000000 
P           0.386100000000000    0.600824000000000    0.000000000000000 
P           0.399176000000000    0.785274000000000    0.000000000000000 
P           0.937641000000000    0.887437000000000    0.000000000000000 
P           0.949797000000000    0.062359000000000    0.000000000000000 
K           0.666667000000000    0.333333000000000    0.000000000000000 
%ENDBLOCK POSITIONS_FRAC
