# Cell file generated by matador (Matthew Evans 2016)

%BLOCK LATTICE_CART
8.10873 0.0 0.0
-4.05436 7.02236 0.0
0.0 0.0 17.283
%ENDBLOCK LATTICE_CART

%BLOCK POSITIONS_FRAC
P           0.147201000000000    0.843369000000000    0.143011000000000 
P           0.156631000000000    0.303832000000000    0.143011000000000 
P           0.303832000000000    0.156631000000000    0.143011000000000 
P           0.696168000000000    0.852799000000000    0.143011000000000 
P           0.843369000000000    0.147201000000000    0.143011000000000 
P           0.852799000000000    0.696168000000000    0.143011000000000 
K           0.000000000000000    0.000000000000000    0.126603000000000 
K           0.000000000000000    0.368323000000000    0.844041000000000 
K           0.000000000000000    0.463851000000000    0.274099000000000 
K           0.000000000000000    0.520374000000000    0.080722000000000 
K           0.000000000000000    0.698273000000000    0.508235000000000 
K           0.000000000000000    0.772185000000000    0.936497000000000 
K           0.227815000000000    0.227815000000000    0.936497000000000 
K           0.301727000000000    0.301727000000000    0.508235000000000 
K           0.333333000000000    0.666667000000000    0.429962000000000 
K           0.368323000000000    0.000000000000000    0.844041000000000 
K           0.463851000000000    0.000000000000000    0.274099000000000 
K           0.479626000000000    0.479626000000000    0.080722000000000 
K           0.520374000000000    0.000000000000000    0.080722000000000 
K           0.536149000000000    0.536149000000000    0.274099000000000 
K           0.631677000000000    0.631677000000000    0.844041000000000 
K           0.666667000000000    0.333333000000000    0.429962000000000 
K           0.698273000000000    0.000000000000000    0.508235000000000 
K           0.772185000000000    0.000000000000000    0.936497000000000 
%ENDBLOCK POSITIONS_FRAC
