# Cell file generated by matador (Matthew Evans 2016)

%BLOCK LATTICE_CART
8.68184 0.0 0.0
-4.34092 7.51869 0.0
0.0 0.0 4.69901
%ENDBLOCK LATTICE_CART

%BLOCK POSITIONS_FRAC
P           0.333332000000000    0.666666000000000    0.900183000000000 
P           0.666666000000000    0.333332000000000    0.900183000000000 
K           0.211891000000000    0.423782000000000    0.580694000000000 
K           0.211891000000000    0.788107000000000    0.580694000000000 
K           0.423782000000000    0.211891000000000    0.580694000000000 
K           0.576216000000000    0.788107000000000    0.580694000000000 
K           0.788107000000000    0.211891000000000    0.580694000000000 
K           0.788107000000000    0.576216000000000    0.580694000000000 
%ENDBLOCK POSITIONS_FRAC
