# Cell file generated by matador (Matthew Evans 2016)

%BLOCK LATTICE_CART
7.66789 0.0 0.0
-3.83394 6.64058 0.0
0.0 0.0 8.36191
%ENDBLOCK LATTICE_CART

%BLOCK POSITIONS_FRAC
P           0.449152000000000    0.034928000000000    0.916371000000000 
P           0.449152000000000    0.414224000000000    0.083629000000000 
P           0.517560000000000    0.107512000000000    0.305540000000000 
P           0.517560000000000    0.410048000000000    0.694460000000000 
P           0.585776000000000    0.034928000000000    0.083629000000000 
P           0.585776000000000    0.550848000000000    0.916371000000000 
P           0.589952000000000    0.107512000000000    0.694460000000000 
P           0.589952000000000    0.482440000000000    0.305540000000000 
P           0.892488000000000    0.410048000000000    0.305540000000000 
P           0.892488000000000    0.482440000000000    0.694460000000000 
P           0.965072000000000    0.414224000000000    0.916371000000000 
P           0.965072000000000    0.550848000000000    0.083629000000000 
K           0.000000000000000    0.000000000000000    0.500000000000000 
K           0.333333000000000    0.666667000000000    0.500000000000000 
K           0.666667000000000    0.333333000000000    0.500000000000000 
%ENDBLOCK POSITIONS_FRAC
