# Cell file generated by matador (Matthew Evans 2016)

%BLOCK LATTICE_CART
7.1723 0.0 0.0
-3.58615 6.21139 0.0
0.0 0.0 7.21507
%ENDBLOCK LATTICE_CART

%BLOCK POSITIONS_FRAC
P           0.333332000000000    0.666668000000000    0.250000000000000 
P           0.666666000000000    0.333334000000000    0.750000000000000 
K           0.053589000000000    0.381822000000000    0.250000000000000 
K           0.328229000000000    0.946411000000000    0.250000000000000 
K           0.381820000000000    0.053591000000000    0.750000000000000 
K           0.618178000000000    0.671771000000000    0.250000000000000 
K           0.671769000000000    0.618180000000000    0.750000000000000 
K           0.946409000000000    0.328231000000000    0.750000000000000 
%ENDBLOCK POSITIONS_FRAC
