# Cell file generated by matador (Matthew Evans 2016)

%BLOCK LATTICE_CART
6.55181 0.0 0.0
0.0 6.55181 0.0
0.0 0.0 11.2125
%ENDBLOCK LATTICE_CART

%BLOCK POSITIONS_FRAC
P           0.000000000000000    0.000000000000000    0.510006000000000 
P           0.066306000000000    0.578985000000000    0.012014000000000 
P           0.421015000000000    0.066306000000000    0.012014000000000 
P           0.500000000000000    0.500000000000000    0.330707000000000 
P           0.578985000000000    0.933694000000000    0.012014000000000 
P           0.933694000000000    0.421015000000000    0.012014000000000 
K           0.000000000000000    0.000000000000000    0.239349000000000 
K           0.000000000000000    0.000000000000000    0.772422000000000 
K           0.000000000000000    0.500000000000000    0.203254000000000 
K           0.000000000000000    0.500000000000000    0.446478000000000 
K           0.000000000000000    0.500000000000000    0.783000000000000 
K           0.500000000000000    0.000000000000000    0.203254000000000 
K           0.500000000000000    0.000000000000000    0.446478000000000 
K           0.500000000000000    0.000000000000000    0.783000000000000 
%ENDBLOCK POSITIONS_FRAC
