# Cell file generated by matador (Matthew Evans 2016)

%BLOCK LATTICE_CART
7.4785 0.0 0.0
-3.73925 6.47657 0.0
0.0 0.0 8.27712
%ENDBLOCK LATTICE_CART

%BLOCK POSITIONS_FRAC
P           0.000000000000000    0.500000000000000    0.000000000000000 
P           0.000000000000000    0.500000000000000    0.500000000000000 
P           0.333333000000000    0.666667000000000    0.187078000000000 
P           0.333333000000000    0.666667000000000    0.312922000000000 
P           0.333333000000000    0.666667000000000    0.687078000000000 
P           0.333333000000000    0.666667000000000    0.812922000000000 
P           0.500000000000000    0.000000000000000    0.000000000000000 
P           0.500000000000000    0.000000000000000    0.500000000000000 
P           0.500000000000000    0.500000000000000    0.000000000000000 
P           0.500000000000000    0.500000000000000    0.500000000000000 
P           0.666667000000000    0.333333000000000    0.187078000000000 
P           0.666667000000000    0.333333000000000    0.312922000000000 
P           0.666667000000000    0.333333000000000    0.687078000000000 
P           0.666667000000000    0.333333000000000    0.812922000000000 
K           0.000000000000000    0.000000000000000    0.250000000000000 
K           0.000000000000000    0.000000000000000    0.750000000000000 
%ENDBLOCK POSITIONS_FRAC
