# Cell file generated by matador (Matthew Evans 2016)

%BLOCK LATTICE_CART
6.26332 0.0 0.0
0.0 6.21287 0.0
0.0 0.0 8.73433
%ENDBLOCK LATTICE_CART

%BLOCK POSITIONS_FRAC
P          -0.000000000000000   -0.000000000000000    0.271018000000000 
P          -0.000000000000000   -0.000000000000000    0.728982000000000 
P           0.500000000000000    0.500000000000000    0.271018000000000 
P           0.500000000000000    0.500000000000000    0.728982000000000 
K          -0.000000000000000   -0.000000000000000    0.500000000000000 
K          -0.000000000000000    0.500000000000000    0.000000000000000 
K          -0.000000000000000    0.500000000000000    0.500000000000000 
K           0.500000000000000   -0.000000000000000    0.000000000000000 
K           0.500000000000000   -0.000000000000000    0.500000000000000 
K           0.500000000000000    0.500000000000000    0.500000000000000 
%ENDBLOCK POSITIONS_FRAC
