# Cell file generated by matador (Matthew Evans 2016)

%BLOCK LATTICE_CART
7.91018 0.0 0.0
0.0 7.91018 0.0
0.0 0.0 9.30568
%ENDBLOCK LATTICE_CART

%BLOCK POSITIONS_FRAC
P           0.000000000000000    0.000000000000000    0.000000000000000 
P           0.000000000000000    0.000000000000000    0.500000000000000 
P           0.500000000000000    0.500000000000000    0.000000000000000 
P           0.500000000000000    0.500000000000000    0.500000000000000 
K           0.000000000000000    0.500000000000000    0.250000000000000 
K           0.000000000000000    0.500000000000000    0.750000000000000 
K           0.024991000000000    0.731968000000000    0.000000000000000 
K           0.231968000000000    0.524991000000000    0.500000000000000 
K           0.268032000000000    0.024991000000000    0.000000000000000 
K           0.475009000000000    0.231968000000000    0.500000000000000 
K           0.500000000000000    0.000000000000000    0.250000000000000 
K           0.500000000000000    0.000000000000000    0.750000000000000 
K           0.524991000000000    0.768032000000000    0.500000000000000 
K           0.731968000000000    0.975009000000000    0.000000000000000 
K           0.768032000000000    0.475009000000000    0.500000000000000 
K           0.975009000000000    0.268032000000000    0.000000000000000 
%ENDBLOCK POSITIONS_FRAC
