# Cell file generated by matador (Matthew Evans 2016)

%BLOCK LATTICE_CART
8.07817 0.0 0.0
0.0 8.29144 0.0
0.0 0.0 7.15322
%ENDBLOCK LATTICE_CART

%BLOCK POSITIONS_FRAC
P           0.250000000000000    0.032667000000000    0.250000000000000 
P           0.250000000000000    0.467333000000000    0.250000000000000 
P           0.750000000000000    0.532667000000000    0.750000000000000 
P           0.750000000000000    0.967333000000000    0.750000000000000 
K          -0.000000000000000    0.000000000000000    0.000000000000000 
K          -0.000000000000000    0.000000000000000    0.500000000000000 
K          -0.000000000000000    0.500000000000000    0.000000000000000 
K          -0.000000000000000    0.500000000000000    0.500000000000000 
K           0.250000000000000    0.750000000000000    0.750000000000000 
K           0.500000000000000    0.000000000000000    0.000000000000000 
K           0.500000000000000    0.000000000000000    0.500000000000000 
K           0.500000000000000    0.500000000000000    0.000000000000000 
K           0.500000000000000    0.500000000000000    0.500000000000000 
K           0.750000000000000    0.250000000000000    0.250000000000000 
%ENDBLOCK POSITIONS_FRAC
