# Cell file generated by matador (Matthew Evans 2016)

%BLOCK LATTICE_CART
8.52011 0.0 0.0
-4.26006 7.37863 0.0
0.0 0.0 7.60938
%ENDBLOCK LATTICE_CART

%BLOCK POSITIONS_FRAC
P           0.333333000000000    0.666667000000000    0.469496000000000 
P           0.355762000000000    0.287231000000000    0.319317000000000 
P           0.415376000000000    0.055689000000000    0.916410000000000 
P           0.514118000000000    0.203228000000000    0.329141000000000 
P           0.527582000000000    0.429339000000000    0.075722000000000 
P           0.570661000000000    0.098243000000000    0.075722000000000 
P           0.640313000000000    0.584624000000000    0.916410000000000 
P           0.666667000000000    0.333333000000000    0.187593000000000 
P           0.666667000000000    0.333333000000000    0.783643000000000 
P           0.689110000000000    0.485882000000000    0.329141000000000 
P           0.712769000000000    0.068531000000000    0.319317000000000 
P           0.796772000000000    0.310890000000000    0.329141000000000 
P           0.901757000000000    0.472418000000000    0.075722000000000 
P           0.931469000000000    0.644238000000000    0.319317000000000 
P           0.944311000000000    0.359687000000000    0.916410000000000 
K           0.125614000000000    0.316736000000000    0.669255000000000 
K           0.191122000000000    0.874386000000000    0.669255000000000 
K           0.683264000000000    0.808878000000000    0.669255000000000 
%ENDBLOCK POSITIONS_FRAC
