# Cell file generated by matador (Matthew Evans 2016)

%BLOCK LATTICE_CART
9.52264 0.0 0.0
-4.76132 8.24685 0.0
0.0 0.0 4.96717
%ENDBLOCK LATTICE_CART

%BLOCK POSITIONS_FRAC
P           0.000000000000000    0.000000000000000   -0.000000000000000 
P           0.333333000000000    0.666667000000000    0.666667000000000 
P           0.666667000000000    0.333333000000000    0.333333000000000 
K           0.000000000000000    0.000000000000000    0.500000000000000 
K           0.000000000000000    0.444607000000000    0.500000000000000 
K           0.111273000000000    0.333333000000000    0.833333000000000 
K           0.222060000000000    0.888727000000000    0.833333000000000 
K           0.333333000000000    0.111273000000000    0.166667000000000 
K           0.333333000000000    0.666667000000000    0.166667000000000 
K           0.444607000000000    0.000000000000000    0.500000000000000 
K           0.555393000000000    0.555393000000000    0.500000000000000 
K           0.666667000000000    0.333333000000000    0.833333000000000 
K           0.666667000000000    0.777940000000000    0.833333000000000 
K           0.777940000000000    0.666667000000000    0.166667000000000 
K           0.888727000000000    0.222060000000000    0.166667000000000 
%ENDBLOCK POSITIONS_FRAC
