# Cell file generated by matador (Matthew Evans 2016)

%BLOCK LATTICE_CART
6.69963 0.0 0.0
0.0 6.69963 0.0
0.0 0.0 8.15037
%ENDBLOCK LATTICE_CART

%BLOCK POSITIONS_FRAC
P           0.000000000000000    0.500000000000000    0.502667000000000 
P           0.353271000000000    0.609543000000000    0.485404000000000 
P           0.390457000000000    0.353271000000000    0.514596000000000 
P           0.500000000000000    0.000000000000000    0.497333000000000 
P           0.609543000000000    0.646729000000000    0.514596000000000 
P           0.646729000000000    0.390457000000000    0.485404000000000 
K           0.000000000000000    0.000000000000000    0.500000000000000 
K           0.054067000000000    0.290992000000000    0.759248000000000 
K           0.290992000000000    0.945933000000000    0.240752000000000 
K           0.709008000000000    0.054067000000000    0.240752000000000 
K           0.945933000000000    0.709008000000000    0.759248000000000 
%ENDBLOCK POSITIONS_FRAC
