# Cell file generated by matador (Matthew Evans 2016)

%BLOCK LATTICE_CART
7.34525 0.0 0.0
-3.67262 6.36117 0.0
0.0 0.0 9.38312
%ENDBLOCK LATTICE_CART

%BLOCK POSITIONS_FRAC
P           0.039560000000000    0.098744000000000    0.404310000000000 
P           0.039560000000000    0.940816000000000    0.595690000000000 
P           0.059184000000000    0.098744000000000    0.929023000000000 
P           0.059184000000000    0.960440000000000    0.070977000000000 
P           0.552788000000000    0.216294000000000    0.309841000000000 
P           0.552788000000000    0.336494000000000    0.690159000000000 
P           0.663506000000000    0.216294000000000    0.023493000000000 
P           0.663506000000000    0.447212000000000    0.976507000000000 
P           0.783706000000000    0.336494000000000    0.643174000000000 
P           0.783706000000000    0.447212000000000    0.356826000000000 
P           0.901256000000000    0.940816000000000    0.737643000000000 
P           0.901256000000000    0.960440000000000    0.262357000000000 
K           0.329650000000000    0.164825000000000    0.500000000000000 
K           0.835175000000000    0.164825000000000    0.833333000000000 
K           0.835175000000000    0.670350000000000    0.166667000000000 
%ENDBLOCK POSITIONS_FRAC
