# Cell file generated by matador (Matthew Evans 2016)

%BLOCK LATTICE_CART
5.5627 0.0 0.0
0.0 7.5845 0.0
-1.23009 0.0 5.9419
%ENDBLOCK LATTICE_CART

%BLOCK POSITIONS_FRAC
P           0.092554000000000    0.299506000000000    0.740740000000000 
P           0.092554000000000    0.700494000000000    0.740740000000000 
K           0.077203000000000    0.000000000000000    0.798147000000000 
K           0.523192000000000    0.000000000000000    0.447109000000000 
K           0.582005000000000    0.000000000000000    0.958526000000000 
K           0.677089000000000    0.500000000000000    0.000937000000000 
K           0.877067000000000    0.500000000000000    0.477266000000000 
K           0.911566000000000    0.187721000000000    0.101796000000000 
K           0.911566000000000    0.812279000000000    0.101796000000000 
%ENDBLOCK POSITIONS_FRAC
