# Cell file generated by matador (Matthew Evans 2016)

%BLOCK LATTICE_CART
7.48467 0.0 0.0
-3.74234 6.48192 0.0
0.0 0.0 6.80183
%ENDBLOCK LATTICE_CART

%BLOCK POSITIONS_FRAC
P           0.000000000000000    0.000000000000000    0.000000000000000 
P           0.333333000000000    0.666667000000000    0.194715000000000 
P           0.333333000000000    0.666667000000000    0.805285000000000 
P           0.666667000000000    0.333333000000000    0.194715000000000 
P           0.666667000000000    0.333333000000000    0.805285000000000 
K           0.000000000000000    0.000000000000000    0.500000000000000 
K           0.000000000000000    0.481882000000000    0.300931000000000 
K           0.000000000000000    0.481882000000000    0.699069000000000 
K           0.481882000000000    0.000000000000000    0.300931000000000 
K           0.481882000000000    0.000000000000000    0.699069000000000 
K           0.518118000000000    0.518118000000000    0.300931000000000 
K           0.518118000000000    0.518118000000000    0.699069000000000 
%ENDBLOCK POSITIONS_FRAC
