# Cell file generated by matador (Matthew Evans 2016)

%BLOCK LATTICE_CART
4.28085 0.0 0.0
3.42303 10.329 0.0
2.25616 -3.19585 7.58524
%ENDBLOCK LATTICE_CART

%BLOCK POSITIONS_FRAC
P           0.331871000000000    0.069537000000000    0.330105000000000 
P           0.446500000000000    0.375616000000000    0.686744000000000 
P           0.553500000000000    0.624384000000000    0.313256000000000 
P           0.668129000000000    0.930462000000000    0.669895000000000 
K           0.000000000000000    0.000000000000000    0.000000000000000 
K           0.000000000000000    0.000000000000000    0.500000000000000 
K           0.500000000000000    0.000000000000000    0.500000000000000 
K           0.500000000000000    0.500000000000000    0.000000000000000 
K           0.500000000000000    0.500000000000000    0.500000000000000 
%ENDBLOCK POSITIONS_FRAC
