# Cell file generated by matador (Matthew Evans 2016)

%BLOCK LATTICE_CART
8.05629 0.0 0.0
0.0 7.10458 0.0
3.99244 0.0 7.73699
%ENDBLOCK LATTICE_CART

%BLOCK POSITIONS_FRAC
P           0.000000000000000    0.170365000000000    0.500000000000000 
P           0.000000000000000    0.295841000000000    0.000000000000000 
P           0.036351000000000    0.922270000000000    0.111697000000000 
P           0.463649000000000    0.422270000000000    0.888303000000000 
P           0.500000000000000    0.670365000000000    0.500000000000000 
P           0.500000000000000    0.795841000000000    0.000000000000000 
P           0.536351000000000    0.422270000000000    0.111697000000000 
P           0.963649000000000    0.922270000000000    0.888303000000000 
K           0.000000000000000    0.633688000000000    0.000000000000000 
K           0.000000000000000    0.699844000000000    0.500000000000000 
K           0.500000000000000    0.133688000000000    0.000000000000000 
K           0.500000000000000    0.199844000000000    0.500000000000000 
%ENDBLOCK POSITIONS_FRAC
