# Cell file generated by matador (Matthew Evans 2016)

%BLOCK LATTICE_CART
4.91415 0.0 0.0
0.0 5.70312 0.0
-0.671382 0.0 5.00699
%ENDBLOCK LATTICE_CART

%BLOCK POSITIONS_FRAC
P           0.007088000000000    0.500000000000000    0.506250000000000 
P           0.096665000000000    0.000000000000000    0.453997000000000 
P           0.113153000000000    0.500000000000000    0.863837000000000 
P           0.754081000000000    0.000000000000000    0.651612000000000 
P           0.892381000000000    0.000000000000000    0.924081000000000 
K           0.354670000000000    0.000000000000000    0.960701000000000 
%ENDBLOCK POSITIONS_FRAC
