# Cell file generated by matador (Matthew Evans 2016)

%BLOCK LATTICE_CART
7.28843 0.0 0.0
0.0 7.28843 0.0
0.0 0.0 7.28843
%ENDBLOCK LATTICE_CART

%BLOCK POSITIONS_FRAC
P           0.033430000000000    0.533430000000000    0.966570000000000 
P           0.216570000000000    0.283430000000000    0.716570000000000 
P           0.283430000000000    0.716570000000000    0.216570000000000 
P           0.466570000000000    0.466570000000000    0.466570000000000 
P           0.533430000000000    0.966570000000000    0.033430000000000 
P           0.716570000000000    0.216570000000000    0.283430000000000 
P           0.783430000000000    0.783430000000000    0.783430000000000 
P           0.966570000000000    0.033430000000000    0.533430000000000 
K           0.125000000000000    0.875000000000000    0.375000000000000 
K           0.375000000000000    0.125000000000000    0.875000000000000 
K           0.625000000000000    0.625000000000000    0.625000000000000 
K           0.875000000000000    0.375000000000000    0.125000000000000 
%ENDBLOCK POSITIONS_FRAC
