# Cell file generated by matador (Matthew Evans 2016)

%BLOCK LATTICE_CART
8.08185 -0.0 0.0
-4.04093 6.99909 0.0
0.0 0.0 7.92607
%ENDBLOCK LATTICE_CART

%BLOCK POSITIONS_FRAC
P           0.000000000000000   -0.000000000000000    0.251101000000000 
P           0.000000000000000   -0.000000000000000    0.751101000000000 
P           0.333333000000000    0.666667000000000    0.075841000000000 
P           0.333333000000000    0.666667000000000    0.669948000000000 
P           0.333333000000000    0.666667000000000    0.906672000000000 
P           0.666667000000000    0.333333000000000    0.169948000000000 
P           0.666667000000000    0.333333000000000    0.406672000000000 
P           0.666667000000000    0.333333000000000    0.575841000000000 
K           0.040655000000000    0.879574000000000    0.990632000000000 
K           0.120426000000000    0.161081000000000    0.990632000000000 
K           0.161081000000000    0.040655000000000    0.490632000000000 
K           0.838919000000000    0.959345000000000    0.990632000000000 
K           0.879574000000000    0.838919000000000    0.490632000000000 
K           0.959345000000000    0.120426000000000    0.490632000000000 
%ENDBLOCK POSITIONS_FRAC
