# Cell file generated by matador (Matthew Evans 2016)

%BLOCK LATTICE_CART
8.99931 0.0 0.0
-4.49965 7.79363 0.0
0.0 0.0 11.084
%ENDBLOCK LATTICE_CART

%BLOCK POSITIONS_FRAC
P           0.000000000000000    0.000000000000000    0.000000000000000 
P           0.000000000000000    0.000000000000000    0.500000000000000 
P           0.000000000000000    0.500000000000000    0.500000000000000 
P           0.500000000000000    0.000000000000000    0.500000000000000 
P           0.500000000000000    0.500000000000000    0.500000000000000 
K           0.000000000000000    0.500000000000000    0.000000000000000 
K           0.121692000000000    0.243384000000000    0.794331000000000 
K           0.121692000000000    0.878308000000000    0.794331000000000 
K           0.193534000000000    0.387067000000000    0.377404000000000 
K           0.193534000000000    0.806466000000000    0.377404000000000 
K           0.243384000000000    0.121692000000000    0.205669000000000 
K           0.387067000000000    0.193534000000000    0.622596000000000 
K           0.500000000000000    0.000000000000000    0.000000000000000 
K           0.500000000000000    0.500000000000000    0.000000000000000 
K           0.612933000000000    0.806466000000000    0.377404000000000 
K           0.756616000000000    0.878308000000000    0.794331000000000 
K           0.806466000000000    0.193534000000000    0.622596000000000 
K           0.806466000000000    0.612933000000000    0.622596000000000 
K           0.878308000000000    0.121692000000000    0.205669000000000 
K           0.878308000000000    0.756616000000000    0.205669000000000 
%ENDBLOCK POSITIONS_FRAC
