# Cell file generated by matador (Matthew Evans 2016)

%BLOCK LATTICE_CART
6.91608 0.0 0.0
0.0 6.91608 0.0
0.0 0.0 7.53687
%ENDBLOCK LATTICE_CART

%BLOCK POSITIONS_FRAC
P           0.000000000000000    0.000000000000000    0.244986000000000 
P           0.000000000000000    0.000000000000000    0.755014000000000 
P           0.000000000000000    0.500000000000000    0.332611000000000 
P           0.182114000000000    0.317886000000000    0.855148000000000 
P           0.317886000000000    0.817886000000000    0.144852000000000 
P           0.500000000000000    0.000000000000000    0.667389000000000 
P           0.500000000000000    0.500000000000000    0.244986000000000 
P           0.500000000000000    0.500000000000000    0.755014000000000 
P           0.682114000000000    0.182114000000000    0.144852000000000 
P           0.817886000000000    0.682114000000000    0.855148000000000 
K           0.000000000000000    0.000000000000000    0.500000000000000 
K           0.000000000000000    0.500000000000000    0.638757000000000 
K           0.500000000000000    0.000000000000000    0.361243000000000 
K           0.500000000000000    0.500000000000000    0.500000000000000 
%ENDBLOCK POSITIONS_FRAC
