%BLOCK LATTICE_CART
3.107231 0 0
0 3.107231 0
0 0 3.107231
%ENDBLOCK LATTICE_CART

#VARVOL=30 

%BLOCK POSITIONS_FRAC
Li 0.0 0.0 0.0 # Li1 % NUM=1
N 0.0 0.0 0.0 # N1 % NUM=1
N 0.0 0.0 0.0 # N2 % NUM=1
%ENDBLOCK POSITIONS_FRAC

##SPECIES=Li,N
##NATOM=3-9
##FOCUS=2
 
#SYMMOPS=2-4
##SGRANK=20
#NFORM={2,3,4,6}
##ADJGEN=0-1
#SLACK=0.25
#OVERLAP=0.1
#MINSEP=1.2 Li-Li=2.5 Li-N=1.9 N-N=1.5
#COMPACT
#CELLADAPT
##SYSTEM={Rhom,Tric,Mono,Cubi,Hexa,Orth,Tetra}
 
KPOINTS_MP_SPACING 0.07
 
SYMMETRY_GENERATE
SNAP_TO_SYMMETRY
 
%BLOCK SPECIES_POT
QC5
%ENDBLOCK SPECIES_POT
 
%BLOCK EXTERNAL_PRESSURE
0 0 0
0 0
0
%ENDBLOCK EXTERNAL_PRESSURE
