#              Generated by Buildcell
#
# at 02:44:20 (GMT+1.0) 4th August 2020
# in /lustre/scratch/uccabz1/launch_tmp
# on node-c12f-007
# by uccabz1
#
# compiler GCC version 4.9.2
# options -cpp -iprefix /lustre/shared/ucl/apps/gcc/4.9.2/bin/../lib/gcc/x86_64-unknown-linux-gnu/4.9.2/ -mtune=corei7 -march=x86-64 -g -Og
#
# seed  1172869346  1554106060   828149329    16864302  -442259199   685119986  -972819045   152942864  -282898275  1446281762  -896439970  -192099814
#
#      Author: C. J. Pickard (cjp20@cam.ac.uk)
#                Space group: Iba2
#

%BLOCK LATTICE_ABC
      4.68695      6.45649      7.71970
    114.71990    107.67220     90.00000
%ENDBLOCK LATTICE_ABC

%BLOCK POSITIONS_FRAC
  Li  -0.0101031  -0.0101031  -0.0202062 SPIN=   0.00000
  Li   0.4898969   0.4898969  -0.0202062 SPIN=   0.00000
  Fe  -0.3644605   0.1355395   0.2710791 SPIN=   4.00000
  Fe   0.1355395  -0.3644605   0.2710791 SPIN=   4.00000
   O   0.1381795  -0.4046469  -0.4224472 SPIN=   0.00000
   O   0.6109121  -0.2484162  -0.1276171 SPIN=   0.00000
   O   0.4393733  -0.0178003  -0.4224472 SPIN=   0.00000
   O   0.2614708   0.1207991  -0.1276171 SPIN=   0.00000
   O  -0.3618205  -0.5178003  -0.4224472 SPIN=   0.00000
   O   0.1109121  -0.3792009  -0.1276171 SPIN=   0.00000
   O  -0.0606267   0.0953531  -0.4224472 SPIN=   0.00000
   O  -0.2385292   0.2515838  -0.1276171 SPIN=   0.00000
   S  -0.1151621   0.3848379  -0.2303242 SPIN=   0.00000
   S   0.3848379  -0.1151621  -0.2303242 SPIN=   0.00000
   F   0.1265237   0.1265237   0.2530473 SPIN=   0.00000
   F  -0.3734763  -0.3734763   0.2530473 SPIN=   0.00000
%ENDBLOCK POSITIONS_FRAC

# Note: total spin =   8.00

KPOINTS_MP_SPACING 0.07

%BLOCK SPECIES_POT
QC5
%ENDBLOCK SPECIES_POT

SNAP_TO_SYMMETRY
SYMMETRY_GENERATE

