#              Generated by Buildcell
#
# at 03:56:57 (GMT+1.0) 4th August 2020
# in /lustre/scratch/uccabz1/launch_tmp
# on node-c12f-001
# by uccabz1
#
# compiler GCC version 4.9.2
# options -cpp -iprefix /lustre/shared/ucl/apps/gcc/4.9.2/bin/../lib/gcc/x86_64-unknown-linux-gnu/4.9.2/ -mtune=corei7 -march=x86-64 -g -Og
#
# seed -1212065893   482626831 -1341922993  -133053458 -2068655531  -412853518  -382158097 -1950907543   608572174  1949757054  -763629561   781004515
#
#      Author: C. J. Pickard (cjp20@cam.ac.uk)
#                Space group: P21
#

%BLOCK LATTICE_ABC
      4.14338      5.94730      8.23313
     90.00000     99.66573     90.00000
%ENDBLOCK LATTICE_ABC

%BLOCK POSITIONS_FRAC
  Li  -0.1468654   0.4490309  -0.1842001 SPIN=   0.00000
  Li   0.1468654  -0.0509691   0.1842001 SPIN=   0.00000
  Fe  -0.1175029  -0.0474525  -0.1721716 SPIN=   4.00000
  Fe   0.1175029   0.4525475   0.1721716 SPIN=   4.00000
   O   1.0269630   0.1864123   0.3350639 SPIN=   0.00000
   O   0.8294282   0.1811942   0.6025239 SPIN=   0.00000
   O   0.5321743  -0.0319650   0.3655039 SPIN=   0.00000
   O   0.5145318   0.3839907   0.3649803 SPIN=   0.00000
   S   0.7257743   0.1799080   0.4170180 SPIN=   0.00000
   O  -1.0269630  -0.3135877  -0.3350639 SPIN=   0.00000
   O  -0.8294282  -0.3188058  -0.6025239 SPIN=   0.00000
   O  -0.5321743  -0.5319650  -0.3655039 SPIN=   0.00000
   O  -0.5145318  -0.1160093  -0.3649803 SPIN=   0.00000
   S  -0.7257743  -0.3200920  -0.4170180 SPIN=   0.00000
   F  -0.2789147  -0.3213981   0.1385866 SPIN=   0.00000
   F   0.2789147   0.1786019  -0.1385866 SPIN=   0.00000
%ENDBLOCK POSITIONS_FRAC

# Note: total spin =   8.00

KPOINTS_MP_SPACING 0.07

%BLOCK SPECIES_POT
QC5
%ENDBLOCK SPECIES_POT

SNAP_TO_SYMMETRY
SYMMETRY_GENERATE

