#              Generated by Buildcell
#
# at 02:16:41 (GMT+1.0) 19th August 2020
# in /lustre/scratch/uccabz1/launch_tmp
# on node-c12l-016
# by uccabz1
#
# compiler GCC version 4.9.2
# options -cpp -iprefix /lustre/shared/ucl/apps/gcc/4.9.2/bin/../lib/gcc/x86_64-unknown-linux-gnu/4.9.2/ -mtune=corei7 -march=x86-64 -g -Og
#
# seed -1113739915 -1287834499  1752059727  1346073984  -775520942 -1287193872   596476640  -298785435  -222045135  1946799875   728818603   946032262
#
#      Author: C. J. Pickard (cjp20@cam.ac.uk)
#                Space group: Pc
#

%BLOCK LATTICE_ABC
      3.96951      4.56711     11.09367
     90.00000     90.00000     96.04716
%ENDBLOCK LATTICE_ABC

%BLOCK POSITIONS_FRAC
  Li  -0.2315976  -0.3072642  -0.1735591 SPIN=   0.00000
  Li   0.2684024  -0.3072642   0.1735591 SPIN=   0.00000
  Fe   0.3238993   0.1521849  -0.1379380 SPIN=   4.00000
  Fe  -0.1761007   0.1521849   0.1379380 SPIN=   4.00000
   O   0.2292047  -0.2989946  -0.2223248 SPIN=   0.00000
   O   0.2162977  -0.0936877  -0.4285312 SPIN=   0.00000
   O   0.1196256  -0.6324511  -0.3970236 SPIN=   0.00000
   O   0.6908583  -0.3700031  -0.3658855 SPIN=   0.00000
   S   0.3139966  -0.3487841  -0.3534413 SPIN=   0.00000
   O  -0.2707953  -0.2989946   0.2223248 SPIN=   0.00000
   O  -0.2837023  -0.0936877   0.4285312 SPIN=   0.00000
   O  -0.3803744  -0.6324511   0.3970236 SPIN=   0.00000
   O   0.1908583  -0.3700031   0.3658855 SPIN=   0.00000
   S  -0.1860034  -0.3487841   0.3534413 SPIN=   0.00000
   F   0.3072868   0.1191985   0.1308219 SPIN=   0.00000
   F  -0.1927132   0.1191985  -0.1308219 SPIN=   0.00000
%ENDBLOCK POSITIONS_FRAC

# Note: total spin =   8.00

KPOINTS_MP_SPACING 0.07

%BLOCK SPECIES_POT
QC5
%ENDBLOCK SPECIES_POT

SNAP_TO_SYMMETRY
SYMMETRY_GENERATE

