#              Generated by Buildcell
#
# at 04:43:15 (GMT+1.0) 4th August 2020
# in /lustre/scratch/uccabz1/launch_tmp
# on node-c12l-023
# by uccabz1
#
# compiler GCC version 4.9.2
# options -cpp -iprefix /lustre/shared/ucl/apps/gcc/4.9.2/bin/../lib/gcc/x86_64-unknown-linux-gnu/4.9.2/ -mtune=corei7 -march=x86-64 -g -Og
#
# seed   647692736  1874226288   642279538  2025973836   -15404228 -1714532060  1422650545   962903656  1604247766   879415714 -1264536990  1671208612
#
#      Author: C. J. Pickard (cjp20@cam.ac.uk)
#                Space group: C2
#

%BLOCK LATTICE_ABC
      5.58679      5.58679      7.24079
     70.36164     70.36164     87.02057
%ENDBLOCK LATTICE_ABC

%BLOCK POSITIONS_FRAC
  Li   0.4411629  -0.2523126   0.1988377 SPIN=   0.00000
  Li   0.2523126  -0.4411629  -0.1988377 SPIN=   0.00000
  Fe   0.0962542   0.1577743   0.2090209 SPIN=   4.00000
  Fe  -0.1577743  -0.0962542  -0.2090209 SPIN=   4.00000
   O  -0.0584090  -0.2277392  -0.4984371 SPIN=   0.00000
   O   0.2378761  -0.5593490  -0.4167250 SPIN=   0.00000
   O   0.0785990  -0.5140304  -0.7062649 SPIN=   0.00000
   O  -0.2132269  -0.6826427  -0.3410820 SPIN=   0.00000
   S   0.0112098  -0.4959403  -0.4906273 SPIN=   0.00000
   O   0.2277392   0.0584090   0.4984371 SPIN=   0.00000
   O   0.5593490  -0.2378761   0.4167250 SPIN=   0.00000
   O   0.5140304  -0.0785990   0.7062649 SPIN=   0.00000
   O   0.6826427   0.2132269   0.3410820 SPIN=   0.00000
   S   0.4959403  -0.0112098   0.4906273 SPIN=   0.00000
   F   0.3528567   0.2080679  -0.0437816 SPIN=   0.00000
   F  -0.2080679  -0.3528567   0.0437816 SPIN=   0.00000
%ENDBLOCK POSITIONS_FRAC

# Note: total spin =   8.00

KPOINTS_MP_SPACING 0.07

%BLOCK SPECIES_POT
QC5
%ENDBLOCK SPECIES_POT

SNAP_TO_SYMMETRY
SYMMETRY_GENERATE

