#              Generated by Buildcell
#
# at 23:25:14 (GMT+1.0) 18th August 2020
# in /lustre/scratch/uccabz1/launch_tmp
# on node-c12j-023
# by uccabz1
#
# compiler GCC version 4.9.2
# options -cpp -iprefix /lustre/shared/ucl/apps/gcc/4.9.2/bin/../lib/gcc/x86_64-unknown-linux-gnu/4.9.2/ -mtune=corei7 -march=x86-64 -g -Og
#
# seed  -948454350  -413055786 -1831582999    84044189  1456522373   797976301   990090057   493724933   919486809  -967836050 -1441684027  -841991469
#
#      Author: C. J. Pickard (cjp20@cam.ac.uk)
#                Space group: Cm
#

%BLOCK LATTICE_ABC
      5.60431      5.60431      6.82696
    103.78724    103.78724     94.78085
%ENDBLOCK LATTICE_ABC

%BLOCK POSITIONS_FRAC
  Li  -0.3346121   0.2222861   0.4950219 SPIN=   0.00000
  Li   0.2222861  -0.3346121   0.4950219 SPIN=   0.00000
  Fe   0.1116128   0.1116128   0.2658493 SPIN=   3.74792
  Fe  -0.3861727  -0.3861727   0.2649992 SPIN=   4.25208
   O  -0.4491119  -0.1613088  -0.1231618 SPIN=   0.00000
   O  -0.4166301   0.2954451   0.0032699 SPIN=   0.00000
   O  -0.6316983   0.0803609  -0.3661020 SPIN=   0.00000
   O  -0.1749477   0.1128329  -0.2396503 SPIN=   0.00000
   O  -0.1613088  -0.4491119  -0.1231618 SPIN=   0.00000
   O   0.2954451  -0.4166301   0.0032699 SPIN=   0.00000
   O   0.0803609  -0.6316983  -0.3661020 SPIN=   0.00000
   O   0.1128329  -0.1749477  -0.2396503 SPIN=   0.00000
   S  -0.2382290  -0.2382290  -0.2066681 SPIN=   0.00000
   S   0.2620413   0.2620413  -0.2055325 SPIN=   0.00000
   F   0.3651897   0.3651897   0.3346024 SPIN=   0.00000
   F  -0.1326343  -0.1326343   0.3342375 SPIN=   0.00000
%ENDBLOCK POSITIONS_FRAC

# Note: total spin =   8.00

KPOINTS_MP_SPACING 0.07

%BLOCK SPECIES_POT
QC5
%ENDBLOCK SPECIES_POT

SNAP_TO_SYMMETRY
SYMMETRY_GENERATE

