#              Generated by Buildcell
#
# at 04:09:44 (GMT+1.0) 4th August 2020
# in /lustre/scratch/uccabz1/launch_tmp
# on node-c12g-005
# by uccabz1
#
# compiler GCC version 4.9.2
# options -cpp -iprefix /lustre/shared/ucl/apps/gcc/4.9.2/bin/../lib/gcc/x86_64-unknown-linux-gnu/4.9.2/ -mtune=corei7 -march=x86-64 -g -Og
#
# seed -1182849706 -1184913601  1418626533 -1090978457  1537795482  -752797487  1505740587  1572606744 -1031960868     1654522 -1769622433   584992035
#
#      Author: C. J. Pickard (cjp20@cam.ac.uk)
#                Space group: C2
#

%BLOCK LATTICE_ABC
      4.24724      7.52754      7.54647
    119.91707    104.66603     90.00000
%ENDBLOCK LATTICE_ABC

%BLOCK POSITIONS_FRAC
  Li  -0.3534231   0.2788846   0.7580236 SPIN=   0.00000
  Li   0.3534231  -0.4791390  -0.7580236 SPIN=   0.00000
  Fe   0.0714496  -0.1181311  -0.3974621 SPIN=   4.00000
  Fe  -0.0714496   0.2793310   0.3974621 SPIN=   4.00000
   O  -0.4805443  -0.1372308  -0.1732492 SPIN=   0.00000
   O  -0.5090962  -0.4637883  -0.1697192 SPIN=   0.00000
   O   0.0091253  -0.3152519  -0.1715126 SPIN=   0.00000
   O  -0.4724068  -0.4693213  -0.4945071 SPIN=   0.00000
   S  -0.3632305  -0.3463981  -0.2522470 SPIN=   0.00000
   O   0.4805443   0.0360185   0.1732492 SPIN=   0.00000
   O   0.5090962  -0.2940691   0.1697192 SPIN=   0.00000
   O  -0.0091253  -0.1437394   0.1715126 SPIN=   0.00000
   O   0.4724068   0.0251858   0.4945071 SPIN=   0.00000
   S   0.3632305  -0.0941511   0.2522470 SPIN=   0.00000
   F  -0.0772454   0.4883795   0.2725755 SPIN=   0.00000
   F   0.0772454   0.2158040  -0.2725755 SPIN=   0.00000
%ENDBLOCK POSITIONS_FRAC

# Note: total spin =   8.00

KPOINTS_MP_SPACING 0.07

%BLOCK SPECIES_POT
QC5
%ENDBLOCK SPECIES_POT

SNAP_TO_SYMMETRY
SYMMETRY_GENERATE

