#              Generated by Buildcell
#
# at 04:19:27 (GMT+1.0) 4th August 2020
# in /lustre/scratch/uccabz1/launch_tmp
# on node-c12p-018
# by uccabz1
#
# compiler GCC version 4.9.2
# options -cpp -iprefix /lustre/shared/ucl/apps/gcc/4.9.2/bin/../lib/gcc/x86_64-unknown-linux-gnu/4.9.2/ -mtune=corei7 -march=x86-64 -g -Og
#
# seed   339809863  1642201510   354229327   193798282  -472721462   -45251084  1968185930  1696368473  1440012379 -1936932204   677349810  1889511279
#
#      Author: C. J. Pickard (cjp20@cam.ac.uk)
#                Space group: P-1
#

%BLOCK LATTICE_ABC
      3.95294      6.09066      8.61117
     89.30819     80.99058     77.67955
%ENDBLOCK LATTICE_ABC

%BLOCK POSITIONS_FRAC
  Li  -0.3833067  -0.6527948   0.3079292 SPIN=   0.00000
  Li   0.3833067   0.6527948  -0.3079292 SPIN=   0.00000
  Fe   0.5477898   0.1154747  -0.3177508 SPIN=   4.00000
  Fe  -0.5477898  -0.1154747   0.3177508 SPIN=   4.00000
   O   0.8854711  -0.3454504  -0.2913855 SPIN=   0.00000
   O   0.4659567  -0.0548112  -0.1190860 SPIN=   0.00000
   O   1.0225503   0.0270554  -0.2562806 SPIN=   0.00000
   O   1.0290417  -0.2392441  -0.0368556 SPIN=   0.00000
   O  -0.8854711   0.3454504   0.2913855 SPIN=   0.00000
   O  -0.4659567   0.0548112   0.1190860 SPIN=   0.00000
   O  -1.0225503  -0.0270554   0.2562806 SPIN=   0.00000
   O  -1.0290417   0.2392441   0.0368556 SPIN=   0.00000
   S   0.0000000   0.0000000  -0.0000000 SPIN=   0.00000
   S   0.0000000   0.5000000  -0.5000000 SPIN=   0.00000
   F   0.4351952   0.3871037  -0.1822161 SPIN=   0.00000
   F  -0.4351952  -0.3871037   0.1822161 SPIN=   0.00000
%ENDBLOCK POSITIONS_FRAC

# Note: total spin =   8.00

KPOINTS_MP_SPACING 0.07

%BLOCK SPECIES_POT
QC5
%ENDBLOCK SPECIES_POT

SNAP_TO_SYMMETRY
SYMMETRY_GENERATE

