#              Generated by Buildcell
#
# at 05:06:51 (GMT+1.0) 4th August 2020
# in /lustre/scratch/uccabz1/launch_tmp
# on node-c12l-009
# by uccabz1
#
# compiler GCC version 4.9.2
# options -cpp -iprefix /lustre/shared/ucl/apps/gcc/4.9.2/bin/../lib/gcc/x86_64-unknown-linux-gnu/4.9.2/ -mtune=corei7 -march=x86-64 -g -Og
#
# seed  1421233295 -1903783909    -7877367 -1621431554   898681058 -1430948453   495687761  -364769531  1177300236 -1690155651  -183390439   965635047
#
#      Author: C. J. Pickard (cjp20@cam.ac.uk)
#                Space group: Pc
#

%BLOCK LATTICE_ABC
      5.00670      6.17834      6.60347
    101.72969     90.00000     90.00000
%ENDBLOCK LATTICE_ABC

%BLOCK POSITIONS_FRAC
  Li  -0.2342239  -0.3927817  -0.0099083 SPIN=   0.00000
  Li   0.2342239  -0.3927817   0.4900917 SPIN=   0.00000
  Fe   0.1646247   0.2453229  -0.2445321 SPIN=   4.00000
  Fe  -0.1646247   0.2453229   0.2554679 SPIN=   4.00000
   O  -0.5238776  -0.2568931   0.2968227 SPIN=   0.00000
   O  -0.3068172  -0.0229429   0.6010261 SPIN=   0.00000
   O  -0.0495103  -0.1497848   0.2787361 SPIN=   0.00000
   O  -0.1815064  -0.4170846   0.4933872 SPIN=   0.00000
   S  -0.2654279  -0.2116763   0.4174930 SPIN=   0.00000
   O   0.5238776  -0.2568931  -0.2031773 SPIN=   0.00000
   O   0.3068172  -0.0229429   0.1010261 SPIN=   0.00000
   O   0.0495103  -0.1497848  -0.2212639 SPIN=   0.00000
   O   0.1815064  -0.4170846  -0.0066128 SPIN=   0.00000
   S   0.2654279  -0.2116763  -0.0825070 SPIN=   0.00000
   F  -0.2977253   0.2886841  -0.0094929 SPIN=   0.00000
   F   0.2977253   0.2886841   0.4905071 SPIN=   0.00000
%ENDBLOCK POSITIONS_FRAC

# Note: total spin =   8.00

KPOINTS_MP_SPACING 0.07

%BLOCK SPECIES_POT
QC5
%ENDBLOCK SPECIES_POT

SNAP_TO_SYMMETRY
SYMMETRY_GENERATE

