#              Generated by Buildcell
#
# at 03:30:43 (GMT+1.0) 4th August 2020
# in /lustre/scratch/uccabz1/launch_tmp
# on node-c12k-031
# by uccabz1
#
# compiler GCC version 4.9.2
# options -cpp -iprefix /lustre/shared/ucl/apps/gcc/4.9.2/bin/../lib/gcc/x86_64-unknown-linux-gnu/4.9.2/ -mtune=corei7 -march=x86-64 -g -Og
#
# seed -1587310325 -1620568027 -1869897650  1554408426 -1104311389  1649937370  1941541761 -1051104691  2048627905 -1828948043 -1198413852    47514597
#
#      Author: C. J. Pickard (cjp20@cam.ac.uk)
#                Space group: C2
#

%BLOCK LATTICE_ABC
      5.48417      5.48417      6.94308
    100.75382    100.75382     94.85732
%ENDBLOCK LATTICE_ABC

%BLOCK POSITIONS_FRAC
  Li  -0.3837589  -0.3799394  -0.2151389 SPIN=   0.00000
  Li   0.3799394   0.3837589   0.2151389 SPIN=   0.00000
  Fe  -0.4552616   0.0291658  -0.4151546 SPIN=   4.00000
  Fe  -0.0291658   0.4552616   0.4151546 SPIN=   4.00000
   O  -0.6843146   0.0376145   0.0478314 SPIN=   0.00000
   O  -0.4319643  -0.2964306   0.1303792 SPIN=   0.00000
   O  -0.2773020   0.1464224   0.2874843 SPIN=   0.00000
   O  -0.2904769  -0.0085851  -0.0731435 SPIN=   0.00000
   S  -0.4210144  -0.0302447   0.0981378 SPIN=   0.00000
   O  -0.0376145   0.6843146  -0.0478314 SPIN=   0.00000
   O   0.2964306   0.4319643  -0.1303792 SPIN=   0.00000
   O  -0.1464224   0.2773020  -0.2874843 SPIN=   0.00000
   O   0.0085851   0.2904769   0.0731435 SPIN=   0.00000
   S   0.0302447   0.4210144  -0.0981378 SPIN=   0.00000
   F  -0.2155737  -0.2595445  -0.4540581 SPIN=   0.00000
   F   0.2595445   0.2155737   0.4540581 SPIN=   0.00000
%ENDBLOCK POSITIONS_FRAC

# Note: total spin =   8.00

KPOINTS_MP_SPACING 0.07

%BLOCK SPECIES_POT
QC5
%ENDBLOCK SPECIES_POT

SNAP_TO_SYMMETRY
SYMMETRY_GENERATE

