#              Generated by Buildcell
#
# at 02:21:34 (GMT+1.0) 19th August 2020
# in /scratch/scratch/uccabz1/launch_tmp
# on node-k10d-010
# by uccabz1
#
# compiler GCC version 4.9.2
# options -cpp -iprefix /scratch/UCL/applications/gcc/4.9.2/bin/../lib/gcc/x86_64-unknown-linux-gnu/4.9.2/ -mtune=corei7 -march=x86-64 -g -O2
#
# seed -1737566210  1561345165  1068777322  -734819418 -2025183338 -1025636823 -1698757371   955251110  1142575326  1849005725   740854190  -598963212
#
#      Author: C. J. Pickard (cjp20@cam.ac.uk)
#                Space group: P21
#

%BLOCK LATTICE_ABC
      4.56010      5.79781      7.57328
     90.00000     92.72752     90.00000
%ENDBLOCK LATTICE_ABC

%BLOCK POSITIONS_FRAC
  Li   0.3524430   0.4917736   0.3527601 SPIN=   0.00000
  Li  -0.3524430  -0.0082264  -0.3527601 SPIN=   0.00000
  Fe  -0.0568560   0.0404040   0.2905566 SPIN=   4.00000
  Fe   0.0568560  -0.4595960  -0.2905566 SPIN=   4.00000
   O   0.3000957   0.2574089  -0.1923000 SPIN=   0.00000
   O  -0.1124107   0.0156755  -0.0992872 SPIN=   0.00000
   O   0.3488406   0.0341235   0.0860665 SPIN=   0.00000
   O   0.3387528  -0.1681417  -0.2019335 SPIN=   0.00000
   S   0.2188196   0.0347666  -0.1018636 SPIN=   0.00000
   O  -0.3000957  -0.2425911   0.1923000 SPIN=   0.00000
   O   0.1124107  -0.4843245   0.0992872 SPIN=   0.00000
   O  -0.3488406  -0.4658765  -0.0860665 SPIN=   0.00000
   O  -0.3387528  -0.6681417   0.2019335 SPIN=   0.00000
   S  -0.2188196  -0.4652334   0.1018636 SPIN=   0.00000
   F   0.2421750  -0.1666404   0.3979923 SPIN=   0.00000
   F  -0.2421750   0.3333596  -0.3979923 SPIN=   0.00000
%ENDBLOCK POSITIONS_FRAC

# Note: total spin =   8.00

KPOINTS_MP_SPACING 0.07

%BLOCK SPECIES_POT
QC5
%ENDBLOCK SPECIES_POT

SNAP_TO_SYMMETRY
SYMMETRY_GENERATE

