#              Generated by Buildcell
#
# at 00:19:39 (GMT+1.0) 19th August 2020
# in /lustre/scratch/uccabz1/launch_tmp
# on node-c12n-031
# by uccabz1
#
# compiler GCC version 4.9.2
# options -cpp -iprefix /lustre/shared/ucl/apps/gcc/4.9.2/bin/../lib/gcc/x86_64-unknown-linux-gnu/4.9.2/ -mtune=corei7 -march=x86-64 -g -Og
#
# seed  -104128780 -1909013617  1534130956  1514759630  -959611773  -121459328  1663901124 -1347299160  2075003673   -93872062 -1376274866 -1154239965
#
#      Author: C. J. Pickard (cjp20@cam.ac.uk)
#                Space group: Cm
#

%BLOCK LATTICE_ABC
      3.83791      7.49034      8.07023
    115.99608    100.80707     96.21988
%ENDBLOCK LATTICE_ABC

%BLOCK POSITIONS_FRAC
  Li   0.6049690   0.2410127   0.3816081 SPIN=   0.00000
  Li   0.2233610  -0.1405953  -0.3816081 SPIN=   0.00000
  Fe  -0.2347176  -0.1603707   0.2637922 SPIN=   4.00000
  Fe  -0.4985097  -0.4241628  -0.2637922 SPIN=   4.00000
   O   0.0322024   0.4460590   0.4198038 SPIN=   0.00000
   O   0.5541470   0.6697846   0.4180605 SPIN=   0.00000
   O  -0.0256581   0.5546119   0.1688799 SPIN=   0.00000
   O   0.3582993   0.3096163   0.1688745 SPIN=   0.00000
   S   0.2297476   0.4950180   0.2939047 SPIN=   0.00000
   O  -0.3876015   0.0262552  -0.4198038 SPIN=   0.00000
   O   0.1360864   0.2517241  -0.4180605 SPIN=   0.00000
   O  -0.1945380   0.3857320  -0.1688799 SPIN=   0.00000
   O   0.1894248   0.1407418  -0.1688745 SPIN=   0.00000
   S  -0.0641570   0.2011133  -0.2939047 SPIN=   0.00000
   F   0.2558048   0.0034896   0.2601260 SPIN=   0.00000
   F  -0.0043212  -0.2566364  -0.2601260 SPIN=   0.00000
%ENDBLOCK POSITIONS_FRAC

# Note: total spin =   8.00

KPOINTS_MP_SPACING 0.07

%BLOCK SPECIES_POT
QC5
%ENDBLOCK SPECIES_POT

SNAP_TO_SYMMETRY
SYMMETRY_GENERATE

