#              Generated by Buildcell
#
# at 00:32:15 (GMT+1.0) 19th August 2020
# in /lustre/scratch/uccabz1/launch_tmp
# on node-c12l-020
# by uccabz1
#
# compiler GCC version 4.9.2
# options -cpp -iprefix /lustre/shared/ucl/apps/gcc/4.9.2/bin/../lib/gcc/x86_64-unknown-linux-gnu/4.9.2/ -mtune=corei7 -march=x86-64 -g -Og
#
# seed   486389759  -910846964   -11209945  1626319452  1173595581 -1549809996 -1784270778   524670637   649662110   135110302   722107564  -360875138
#
#      Author: C. J. Pickard (cjp20@cam.ac.uk)
#                Space group: P21
#

%BLOCK LATTICE_ABC
      4.14039      4.25591     12.42687
     90.00000     90.00000    114.02831
%ENDBLOCK LATTICE_ABC

%BLOCK POSITIONS_FRAC
  Li   0.0997780  -0.3447308   0.2953413 SPIN=   0.00000
  Li  -0.0997780   0.3447308  -0.2046587 SPIN=   0.00000
  Fe  -0.4587655   0.2087679   0.1479341 SPIN=   4.00000
  Fe   0.4587655  -0.2087679  -0.3520659 SPIN=   4.00000
   O  -0.1803900   0.4913256   0.4926564 SPIN=   0.00000
   O  -0.5245274   0.7786010   0.4051956 SPIN=   0.00000
   O  -0.8268994   0.1777041   0.4688087 SPIN=   0.00000
   O  -0.4299838   0.3111518   0.3106715 SPIN=   0.00000
   S  -0.4904502   0.4396956   0.4193331 SPIN=   0.00000
   O   0.1803900  -0.4913256  -0.0073436 SPIN=   0.00000
   O   0.5245274  -0.7786010  -0.0948044 SPIN=   0.00000
   O   0.8268994  -0.1777041  -0.0311913 SPIN=   0.00000
   O   0.4299838  -0.3111518  -0.1893285 SPIN=   0.00000
   S   0.4904502  -0.4396956  -0.0806669 SPIN=   0.00000
   F   0.1224330   0.0671480  -0.3235793 SPIN=   0.00000
   F  -0.1224330  -0.0671480   0.1764207 SPIN=   0.00000
%ENDBLOCK POSITIONS_FRAC

# Note: total spin =   8.00

KPOINTS_MP_SPACING 0.07

%BLOCK SPECIES_POT
QC5
%ENDBLOCK SPECIES_POT

SNAP_TO_SYMMETRY
SYMMETRY_GENERATE

