#              Generated by Buildcell
#
# at 05:14:34 (GMT+1.0) 4th August 2020
# in /lustre/scratch/uccabz1/launch_tmp
# on node-c12p-017
# by uccabz1
#
# compiler GCC version 4.9.2
# options -cpp -iprefix /lustre/shared/ucl/apps/gcc/4.9.2/bin/../lib/gcc/x86_64-unknown-linux-gnu/4.9.2/ -mtune=corei7 -march=x86-64 -g -Og
#
# seed  1373332378 -2001468835  -925923259  -713559860 -2025957780  -298874849 -1792066931   116514034   423345775  -596827174 -1516951026  1975343276
#
#      Author: C. J. Pickard (cjp20@cam.ac.uk)
#                Space group: P21212
#

%BLOCK LATTICE_ABC
      4.75325      4.85387      8.66865
     90.00000     90.00000     90.00000
%ENDBLOCK LATTICE_ABC

%BLOCK POSITIONS_FRAC
  Li   0.0000000  -0.5000000  -0.3373130 SPIN=   0.00000
  Li   0.5000000   0.0000000   0.3373130 SPIN=   0.00000
  Fe   0.0000000   0.0000000   0.0908384 SPIN=   4.00000
  Fe   0.5000000  -0.5000000  -0.0908384 SPIN=   4.00000
   O  -0.2057231  -0.1411738   0.4920293 SPIN=   0.00000
   O  -0.2611498  -0.4246212   0.2566669 SPIN=   0.00000
   O   0.2057231   0.1411738   0.4920293 SPIN=   0.00000
   O   0.2611498   0.4246212   0.2566669 SPIN=   0.00000
   O  -0.2942769   0.3588262  -0.4920293 SPIN=   0.00000
   O  -0.2388502   0.0753788  -0.2566669 SPIN=   0.00000
   O   0.2942769  -0.3588262  -0.4920293 SPIN=   0.00000
   O   0.2388502  -0.0753788  -0.2566669 SPIN=   0.00000
   S   0.0000000  -0.5000000   0.3394604 SPIN=   0.00000
   S  -0.5000000   0.0000000  -0.3394604 SPIN=   0.00000
   F   0.0000000  -0.5000000  -0.1045599 SPIN=   0.00000
   F  -0.5000000   0.0000000   0.1045599 SPIN=   0.00000
%ENDBLOCK POSITIONS_FRAC

# Note: total spin =   8.00

KPOINTS_MP_SPACING 0.07

%BLOCK SPECIES_POT
QC5
%ENDBLOCK SPECIES_POT

SNAP_TO_SYMMETRY
SYMMETRY_GENERATE

