#              Generated by Buildcell
#
# at 23:08:39 (GMT+1.0) 18th August 2020
# in /lustre/scratch/uccabz1/launch_tmp
# on node-c12d-020
# by uccabz1
#
# compiler GCC version 4.9.2
# options -cpp -iprefix /lustre/shared/ucl/apps/gcc/4.9.2/bin/../lib/gcc/x86_64-unknown-linux-gnu/4.9.2/ -mtune=corei7 -march=x86-64 -g -Og
#
# seed -1356337912  -524389490  -659698699 -2006711854  1175953164  1772293950   340062581    26994048  1508051265  1426991330  -702475807   932439737
#
#      Author: C. J. Pickard (cjp20@cam.ac.uk)
#                Space group: P-1
#

%BLOCK LATTICE_ABC
      4.10094      6.20995      8.40822
    103.74216     90.01364    105.47061
%ENDBLOCK LATTICE_ABC

%BLOCK POSITIONS_FRAC
  Li  -0.3132317   0.2885896   0.2982543 SPIN=   0.00000
  Li   0.3132317  -0.2885896  -0.2982543 SPIN=   0.00000
  Fe   0.3270631   0.1908112  -0.0892811 SPIN=   4.00000
  Fe  -0.3270631  -0.1908112   0.0892811 SPIN=   4.00000
   O   0.4013532  -0.0512660   0.3557265 SPIN=   0.00000
   O  -0.0875442  -0.3827219   0.2313336 SPIN=   0.00000
   O  -0.0641258  -0.1877028   0.5259524 SPIN=   0.00000
   O   0.3278445  -0.4248783   0.4272332 SPIN=   0.00000
   S   0.1443819  -0.2616422   0.3850614 SPIN=   0.00000
   O  -0.4013532   0.0512660  -0.3557265 SPIN=   0.00000
   O   0.0875442   0.3827219  -0.2313336 SPIN=   0.00000
   O   0.0641258   0.1877028  -0.5259524 SPIN=   0.00000
   O  -0.3278445   0.4248783  -0.4272332 SPIN=   0.00000
   S  -0.1443819   0.2616422  -0.3850614 SPIN=   0.00000
   F   0.3224571   0.2444927   0.1344744 SPIN=   0.00000
   F  -0.3224571  -0.2444927  -0.1344744 SPIN=   0.00000
%ENDBLOCK POSITIONS_FRAC

# Note: total spin =   8.00

KPOINTS_MP_SPACING 0.07

%BLOCK SPECIES_POT
QC5
%ENDBLOCK SPECIES_POT

SNAP_TO_SYMMETRY
SYMMETRY_GENERATE

