#              Generated by Buildcell
#
# at 03:24:30 (GMT+1.0) 4th August 2020
# in /lustre/scratch/uccabz1/launch_tmp
# on node-c12p-017
# by uccabz1
#
# compiler GCC version 4.9.2
# options -cpp -iprefix /lustre/shared/ucl/apps/gcc/4.9.2/bin/../lib/gcc/x86_64-unknown-linux-gnu/4.9.2/ -mtune=corei7 -march=x86-64 -g -Og
#
# seed   474836594   256994064   386771525 -1360056188  1490949553  1512227308    90163960 -1535161772  1493636973   155860789  -271111638  -453568480
#
#      Author: C. J. Pickard (cjp20@cam.ac.uk)
#                Space group: P21
#

%BLOCK LATTICE_ABC
      5.33894      5.44766      7.00717
     90.00000     90.00000    101.08368
%ENDBLOCK LATTICE_ABC

%BLOCK POSITIONS_FRAC
  Li  -0.1780834   0.4304512   0.4091194 SPIN=   0.00000
  Li   0.1780834  -0.4304512  -0.0908806 SPIN=   0.00000
  Fe   0.1530028   0.0232481   0.1873731 SPIN=   4.00000
  Fe  -0.1530028  -0.0232481  -0.3126269 SPIN=   4.00000
   O  -0.3732061   0.7139987  -0.1172283 SPIN=   0.00000
   O  -0.1333410   0.5180199   0.1224028 SPIN=   0.00000
   O  -0.2591587   0.3030290  -0.1838298 SPIN=   0.00000
   O  -0.5874449   0.3379150   0.0587308 SPIN=   0.00000
   S  -0.3382877   0.4682406  -0.0299811 SPIN=   0.00000
   O   0.3732061  -0.7139987   0.3827717 SPIN=   0.00000
   O   0.1333410  -0.5180199   0.6224028 SPIN=   0.00000
   O   0.2591587  -0.3030290   0.3161702 SPIN=   0.00000
   O   0.5874449  -0.3379150   0.5587308 SPIN=   0.00000
   S   0.3382877  -0.4682406   0.4700189 SPIN=   0.00000
   F  -0.1530011   0.0314019   0.3017600 SPIN=   0.00000
   F   0.1530011  -0.0314019  -0.1982400 SPIN=   0.00000
%ENDBLOCK POSITIONS_FRAC

# Note: total spin =   8.00

KPOINTS_MP_SPACING 0.07

%BLOCK SPECIES_POT
QC5
%ENDBLOCK SPECIES_POT

SNAP_TO_SYMMETRY
SYMMETRY_GENERATE

