#              Generated by Buildcell
#
# at 21:09:36 (GMT+1.0) 18th August 2020
# in /lustre/scratch/uccabz1/launch_tmp
# on node-c12o-035
# by uccabz1
#
# compiler GCC version 4.9.2
# options -cpp -iprefix /lustre/shared/ucl/apps/gcc/4.9.2/bin/../lib/gcc/x86_64-unknown-linux-gnu/4.9.2/ -mtune=corei7 -march=x86-64 -g -Og
#
# seed -1049897057 -1561353603  -945610496   946752985  1654290153   261852827 -1342361202   199723125  1079264588   965591301  2143129555  -271548286
#
#      Author: C. J. Pickard (cjp20@cam.ac.uk)
#                Space group: C2
#

%BLOCK LATTICE_ABC
      4.71313      4.71313      9.01313
     88.12782     88.12782     89.93917
%ENDBLOCK LATTICE_ABC

%BLOCK POSITIONS_FRAC
  Li   0.2488892   0.2394037   0.0901895 SPIN=   0.00000
  Li  -0.2394037  -0.2488892  -0.0901895 SPIN=   0.00000
  Fe  -0.2641847   0.1947345   0.2941929 SPIN=   4.00000
  Fe  -0.1947345   0.2641847  -0.2941929 SPIN=   4.00000
   O   0.5988517  -0.2088098  -0.3345750 SPIN=   0.00000
   O   0.2951583  -0.1039084  -0.1139266 SPIN=   0.00000
   O   0.2260603  -0.5492023  -0.2463154 SPIN=   0.00000
   O   0.0920402  -0.0885524  -0.3638263 SPIN=   0.00000
   S   0.3030276  -0.2376182  -0.2646608 SPIN=   0.00000
   O   0.2088098  -0.5988517   0.3345750 SPIN=   0.00000
   O   0.1039084  -0.2951583   0.1139266 SPIN=   0.00000
   O   0.5492023  -0.2260603   0.2463154 SPIN=   0.00000
   O   0.0885524  -0.0920402   0.3638263 SPIN=   0.00000
   S   0.2376182  -0.3030276   0.2646608 SPIN=   0.00000
   F  -0.3000762   0.3000762  -0.5000000 SPIN=   0.00000
   F  -0.3371071   0.3371071   0.0000000 SPIN=   0.00000
%ENDBLOCK POSITIONS_FRAC

# Note: total spin =   8.00

KPOINTS_MP_SPACING 0.07

%BLOCK SPECIES_POT
QC5
%ENDBLOCK SPECIES_POT

SNAP_TO_SYMMETRY
SYMMETRY_GENERATE

