#              Generated by Buildcell
#
# at 23:42:02 (GMT+1.0) 18th August 2020
# in /lustre/scratch/uccabz1/launch_tmp
# on node-c12a-026
# by uccabz1
#
# compiler GCC version 4.9.2
# options -cpp -iprefix /lustre/shared/ucl/apps/gcc/4.9.2/bin/../lib/gcc/x86_64-unknown-linux-gnu/4.9.2/ -mtune=corei7 -march=x86-64 -g -Og
#
# seed  -923948877  -789356225 -2139167768   929465664   800158321   735180803 -1723855861 -1981898052  1554910420   668601537 -1383922489  -790684535
#
#      Author: C. J. Pickard (cjp20@cam.ac.uk)
#                Space group: Pmc21
#

%BLOCK LATTICE_ABC
      4.40658      5.38530      8.42789
     90.00000     90.00000     90.00000
%ENDBLOCK LATTICE_ABC

%BLOCK POSITIONS_FRAC
  Li   0.0255628   0.5000000  -0.0627151 SPIN=   0.00000
  Li  -0.0255628   0.5000000   0.4372849 SPIN=   0.00000
  Fe  -0.4727628   0.5000000   0.1739729 SPIN=   4.00000
  Fe   0.4727628  -0.5000000  -0.3260271 SPIN=   4.00000
   O   0.2753047   0.2211558  -0.1304024 SPIN=   0.00000
   O  -0.2317788   0.2211041  -0.0041604 SPIN=   0.00000
   O  -0.2753047  -0.2211558   0.3695976 SPIN=   0.00000
   O   0.2317788  -0.2211041   0.4958396 SPIN=   0.00000
   O  -0.2753047   0.2211558   0.3695976 SPIN=   0.00000
   O   0.2317788   0.2211041   0.4958396 SPIN=   0.00000
   O   0.2753047  -0.2211558  -0.1304024 SPIN=   0.00000
   O  -0.2317788  -0.2211041  -0.0041604 SPIN=   0.00000
   S   0.1240005   0.0000000  -0.0616197 SPIN=   0.00000
   S  -0.1240005   0.0000000   0.4383803 SPIN=   0.00000
   F   0.0381018  -0.5000000   0.1919889 SPIN=   0.00000
   F  -0.0381018  -0.5000000  -0.3080111 SPIN=   0.00000
%ENDBLOCK POSITIONS_FRAC

# Note: total spin =   8.00

KPOINTS_MP_SPACING 0.07

%BLOCK SPECIES_POT
QC5
%ENDBLOCK SPECIES_POT

SNAP_TO_SYMMETRY
SYMMETRY_GENERATE

