#              Generated by Buildcell
#
# at 05:17:53 (GMT+1.0) 4th August 2020
# in /lustre/scratch/uccabz1/launch_tmp
# on node-c12f-020
# by uccabz1
#
# compiler GCC version 4.9.2
# options -cpp -iprefix /lustre/shared/ucl/apps/gcc/4.9.2/bin/../lib/gcc/x86_64-unknown-linux-gnu/4.9.2/ -mtune=corei7 -march=x86-64 -g -Og
#
# seed   284548085   521699448  -220897113  1120626332  2097603049  -838384780  1279066106  -182902865  -617775313 -1830227535   986220570   349224492
#
#      Author: C. J. Pickard (cjp20@cam.ac.uk)
#                Space group: P2
#

%BLOCK LATTICE_ABC
      3.91620      7.04296      7.26816
     90.00000     90.00000     93.91598
%ENDBLOCK LATTICE_ABC

%BLOCK POSITIONS_FRAC
  Li  -0.2908129   0.2698460   0.1441060 SPIN=   0.00000
  Li   0.2908129  -0.2698460   0.1441060 SPIN=   0.00000
  Fe   0.2078872   0.2751445   0.4664429 SPIN=   4.00000
  Fe  -0.2078872  -0.2751445   0.4664429 SPIN=   4.00000
   O   0.6955798  -0.1096381  -0.3049938 SPIN=   0.00000
   O   0.2558605  -0.3755904  -0.2633298 SPIN=   0.00000
   O   0.2514140  -0.0903009  -0.0647713 SPIN=   0.00000
   O   0.7073327  -0.3140318  -0.0283950 SPIN=   0.00000
   O  -0.6955798   0.1096381  -0.3049938 SPIN=   0.00000
   O  -0.2558605   0.3755904  -0.2633298 SPIN=   0.00000
   O  -0.2514140   0.0903009  -0.0647713 SPIN=   0.00000
   O  -0.7073327   0.3140318  -0.0283950 SPIN=   0.00000
   S  -0.5000000   0.5000000  -0.1738184 SPIN=   0.00000
   S   0.0000000   0.0000000  -0.1822751 SPIN=   0.00000
   F   0.0000000   0.0000000   0.3244331 SPIN=   0.00000
   F  -0.5000000   0.5000000   0.3153499 SPIN=   0.00000
%ENDBLOCK POSITIONS_FRAC

# Note: total spin =   8.00

KPOINTS_MP_SPACING 0.07

%BLOCK SPECIES_POT
QC5
%ENDBLOCK SPECIES_POT

SNAP_TO_SYMMETRY
SYMMETRY_GENERATE

