#              Generated by Buildcell
#
# at 22:51:17 (GMT+1.0) 18th August 2020
# in /lustre/scratch/uccabz1/launch_tmp
# on node-c12i-005
# by uccabz1
#
# compiler GCC version 4.9.2
# options -cpp -iprefix /lustre/shared/ucl/apps/gcc/4.9.2/bin/../lib/gcc/x86_64-unknown-linux-gnu/4.9.2/ -mtune=corei7 -march=x86-64 -g -Og
#
# seed -2088023133 -1259975617  -578433372  1836783914  1187158806  -853175231  1710557698   680987745  -356825179 -2054805117   904949702 -1902352998
#
#      Author: C. J. Pickard (cjp20@cam.ac.uk)
#                Space group: Cc
#

%BLOCK LATTICE_ABC
      4.14334      7.41279      7.41279
    115.05826     97.53381     97.53381
%ENDBLOCK LATTICE_ABC

%BLOCK POSITIONS_FRAC
  Li   0.0502881  -0.3478687   0.0387715 SPIN=   0.00000
  Li  -0.4497119   0.0387715  -0.3478687 SPIN=   0.00000
  Fe   0.4618942   0.3140965   0.0608168 SPIN=   4.00000
  Fe  -0.0381058   0.0608168   0.3140965 SPIN=   4.00000
   O  -0.2540169   0.6238276  -0.2974463 SPIN=   0.00000
   O  -0.5076190   0.3909228  -0.1706914 SPIN=   0.00000
   O  -0.0398083   0.3132391  -0.3474534 SPIN=   0.00000
   O  -0.5937958   0.2846167  -0.5411296 SPIN=   0.00000
   S  -0.3488100   0.4031515  -0.3391801 SPIN=   0.00000
   O   0.2459831  -0.2974463   0.6238276 SPIN=   0.00000
   O  -0.0076190  -0.1706914   0.3909228 SPIN=   0.00000
   O   0.4601917  -0.3474534   0.3132391 SPIN=   0.00000
   O  -0.0937958  -0.5411296   0.2846167 SPIN=   0.00000
   S   0.1511900  -0.3391801   0.4031515 SPIN=   0.00000
   F  -0.0012717   0.0732777  -0.1741398 SPIN=   0.00000
   F   0.4987283  -0.1741398   0.0732777 SPIN=   0.00000
%ENDBLOCK POSITIONS_FRAC

# Note: total spin =   8.00

KPOINTS_MP_SPACING 0.07

%BLOCK SPECIES_POT
QC5
%ENDBLOCK SPECIES_POT

SNAP_TO_SYMMETRY
SYMMETRY_GENERATE

