#              Generated by Buildcell
#
# at 22:44:32 (GMT+1.0) 18th August 2020
# in /scratch/scratch/uccabz1/launch_tmp
# on node-k10g-003
# by uccabz1
#
# compiler GCC version 4.9.2
# options -cpp -iprefix /scratch/UCL/applications/gcc/4.9.2/bin/../lib/gcc/x86_64-unknown-linux-gnu/4.9.2/ -mtune=corei7 -march=x86-64 -g -O2
#
# seed   182669655  -408934918 -1753158586 -1906256297  1959683320  1914830165 -1376188419  1082947722  -456827230   340395427  1600837863 -1281559524
#
#      Author: C. J. Pickard (cjp20@cam.ac.uk)
#                Space group: P2
#

%BLOCK LATTICE_ABC
      4.22434      5.00269      9.46440
     90.62062     90.00000     90.00000
%ENDBLOCK LATTICE_ABC

%BLOCK POSITIONS_FRAC
  Li  -0.2992377  -0.2531203   0.3569976 SPIN=   0.00000
  Li  -0.2992377   0.2531203  -0.3569976 SPIN=   0.00000
  Fe   0.2007971  -0.2492390   0.1329734 SPIN=   4.00000
  Fe   0.2007971   0.2492390  -0.1329734 SPIN=   4.00000
   O  -0.4169463   0.0034137  -0.1210886 SPIN=   0.00000
   O  -0.3789305  -0.2498861  -0.3465175 SPIN=   0.00000
   O  -0.4309428  -0.4911471  -0.1207893 SPIN=   0.00000
   O   0.0673899  -0.2550556  -0.1771770 SPIN=   0.00000
   S  -0.2898574  -0.2481688  -0.1913931 SPIN=   0.00000
   O  -0.4169463  -0.0034137   0.1210886 SPIN=   0.00000
   O  -0.3789305   0.2498861   0.3465175 SPIN=   0.00000
   O  -0.4309428   0.4911471   0.1207893 SPIN=   0.00000
   O   0.0673899   0.2550556   0.1771770 SPIN=   0.00000
   S  -0.2898574   0.2481688   0.1913931 SPIN=   0.00000
   F   0.2101836  -0.2506686   0.3643170 SPIN=   0.00000
   F   0.2101836   0.2506686  -0.3643170 SPIN=   0.00000
%ENDBLOCK POSITIONS_FRAC

# Note: total spin =   8.00

KPOINTS_MP_SPACING 0.07

%BLOCK SPECIES_POT
QC5
%ENDBLOCK SPECIES_POT

SNAP_TO_SYMMETRY
SYMMETRY_GENERATE

