#              Generated by Buildcell
#
# at 02:34:41 (GMT+1.0) 19th August 2020
# in /lustre/scratch/uccabz1/launch_tmp
# on node-c12m-014
# by uccabz1
#
# compiler GCC version 4.9.2
# options -cpp -iprefix /lustre/shared/ucl/apps/gcc/4.9.2/bin/../lib/gcc/x86_64-unknown-linux-gnu/4.9.2/ -mtune=corei7 -march=x86-64 -g -Og
#
# seed   732130076   375041242 -1856732884   410150211 -1265792874 -1167645986  1059176290 -1443903355  -957282876  -485086646 -2094728452  1928515259
#
#      Author: C. J. Pickard (cjp20@cam.ac.uk)
#                Space group: P21/m
#

%BLOCK LATTICE_ABC
      4.04738      6.51235      7.72401
     90.00000     90.00000    100.77462
%ENDBLOCK LATTICE_ABC

%BLOCK POSITIONS_FRAC
  Li   0.1494667  -0.2389924  -0.2500000 SPIN=   0.00000
  Li  -0.1494667   0.2389924   0.2500000 SPIN=   0.00000
  Fe  -0.5000000  -0.5000000  -0.0000000 SPIN=   4.00000
  Fe  -0.5000000  -0.5000000  -0.5000000 SPIN=   4.00000
   O   0.2047034   0.0420825  -0.1023190 SPIN=   0.00000
   O   0.0439925  -0.3137288   0.0202422 SPIN=   0.00000
   O  -0.2047034  -0.0420825   0.3976810 SPIN=   0.00000
   O  -0.0439925   0.3137288   0.5202422 SPIN=   0.00000
   O  -0.2047034  -0.0420825   0.1023190 SPIN=   0.00000
   O  -0.0439925   0.3137288  -0.0202422 SPIN=   0.00000
   O   0.2047034   0.0420825  -0.3976810 SPIN=   0.00000
   O   0.0439925  -0.3137288  -0.5202422 SPIN=   0.00000
   S  -0.5000000  -1.0000000  -0.0000000 SPIN=   0.00000
   S  -0.5000000  -1.0000000  -0.5000000 SPIN=   0.00000
   F  -0.3587356  -0.4600408  -0.2500000 SPIN=   0.00000
   F   0.3587356   0.4600408   0.2500000 SPIN=   0.00000
%ENDBLOCK POSITIONS_FRAC

# Note: total spin =   8.00

KPOINTS_MP_SPACING 0.07

%BLOCK SPECIES_POT
QC5
%ENDBLOCK SPECIES_POT

SNAP_TO_SYMMETRY
SYMMETRY_GENERATE

