#              Generated by Buildcell
#
# at 02:51:31 (GMT+1.0) 4th August 2020
# in /lustre/scratch/uccabz1/launch_tmp
# on node-c12d-025
# by uccabz1
#
# compiler GCC version 4.9.2
# options -cpp -iprefix /lustre/shared/ucl/apps/gcc/4.9.2/bin/../lib/gcc/x86_64-unknown-linux-gnu/4.9.2/ -mtune=corei7 -march=x86-64 -g -Og
#
# seed  -761361328  1369005024 -1819043038    66342224 -1455824767 -1631944476  2069594585  1120695798 -1762050237  2004579885  1917697973  1701912483
#
#      Author: C. J. Pickard (cjp20@cam.ac.uk)
#                Space group: P2
#

%BLOCK LATTICE_ABC
      3.79167      4.69192     11.24213
     90.09514     90.00000     90.00000
%ENDBLOCK LATTICE_ABC

%BLOCK POSITIONS_FRAC
  Li  -0.2138290  -0.2396913   0.2043404 SPIN=   0.00000
  Li  -0.2138290   0.2396913  -0.2043404 SPIN=   0.00000
  Fe  -0.0751769   0.2490868   0.3740515 SPIN=   4.00000
  Fe  -0.0751769  -0.2490868  -0.3740515 SPIN=   4.00000
   O   0.1608704   0.0153832  -0.1116266 SPIN=   0.00000
   O   0.4986303  -0.2679897  -0.2584477 SPIN=   0.00000
   O   0.1607581  -0.5113075  -0.0999821 SPIN=   0.00000
   O   0.7007167  -0.2406561  -0.0494141 SPIN=   0.00000
   S   0.3802439  -0.2511425  -0.1298676 SPIN=   0.00000
   O   0.1608704  -0.0153832   0.1116266 SPIN=   0.00000
   O   0.4986303   0.2679897   0.2584477 SPIN=   0.00000
   O   0.1607581   0.5113075   0.0999821 SPIN=   0.00000
   O   0.7007167   0.2406561   0.0494141 SPIN=   0.00000
   S   0.3802439   0.2511425   0.1298676 SPIN=   0.00000
   F  -0.1192765  -0.2868335   0.3651704 SPIN=   0.00000
   F  -0.1192765   0.2868335  -0.3651704 SPIN=   0.00000
%ENDBLOCK POSITIONS_FRAC

# Note: total spin =   8.00

KPOINTS_MP_SPACING 0.07

%BLOCK SPECIES_POT
QC5
%ENDBLOCK SPECIES_POT

SNAP_TO_SYMMETRY
SYMMETRY_GENERATE

