#              Generated by Buildcell
#
# at 01:38:02 (GMT+1.0) 4th August 2020
# in /lustre/scratch/uccabz1/launch_tmp
# on node-c12a-007
# by uccabz1
#
# compiler GCC version 4.9.2
# options -cpp -iprefix /lustre/shared/ucl/apps/gcc/4.9.2/bin/../lib/gcc/x86_64-unknown-linux-gnu/4.9.2/ -mtune=corei7 -march=x86-64 -g -Og
#
# seed  2130230435  -802342355    11372257  -239282799  -852395031 -1309679800  1713509663  -721572552 -1858837013   716106016  1333620143    59841244
#
#      Author: C. J. Pickard (cjp20@cam.ac.uk)
#                Space group: Ima2
#

%BLOCK LATTICE_ABC
      6.22685      6.49145      6.49145
     70.18390     61.33948     61.33948
%ENDBLOCK LATTICE_ABC

%BLOCK POSITIONS_FRAC
  Li   0.1549973  -0.1081755  -0.3918245 SPIN=   0.00000
  Li  -0.1549973   0.3918245   0.1081755 SPIN=   0.00000
  Fe  -0.0000000  -0.1339629   0.1339629 SPIN=   4.00000
  Fe   0.5000000  -0.6339629  -0.3660371 SPIN=   4.00000
   O   0.1929689   0.0615790   0.1775959 SPIN=   0.00000
   O   0.5148658   0.0145040  -0.2359600 SPIN=   0.00000
   O  -0.1929689  -0.1775959  -0.0615790 SPIN=   0.00000
   O  -0.5148658   0.2359600  -0.0145040 SPIN=   0.00000
   O   0.0678562  -0.4384210   0.6775959 SPIN=   0.00000
   O   0.2065902  -0.4854960   0.2640400 SPIN=   0.00000
   O  -0.0678562  -0.6775959   0.4384210 SPIN=   0.00000
   O  -0.2065902  -0.2640400   0.4854960 SPIN=   0.00000
   S   0.3398686  -0.7415855   0.2415855 SPIN=   0.00000
   S  -0.3398686   0.7584145  -0.2584145 SPIN=   0.00000
   F   0.0000000   0.1475230  -0.1475230 SPIN=   0.00000
   F  -0.5000000   0.6475230   0.3524770 SPIN=   0.00000
%ENDBLOCK POSITIONS_FRAC

# Note: total spin =   8.00

KPOINTS_MP_SPACING 0.07

%BLOCK SPECIES_POT
QC5
%ENDBLOCK SPECIES_POT

SNAP_TO_SYMMETRY
SYMMETRY_GENERATE

