#              Generated by Buildcell
#
# at 23:57:11 (GMT+1.0) 18th August 2020
# in /scratch/scratch/uccabz1/launch_tmp
# on node-k10h-025
# by uccabz1
#
# compiler GCC version 4.9.2
# options -cpp -iprefix /scratch/UCL/applications/gcc/4.9.2/bin/../lib/gcc/x86_64-unknown-linux-gnu/4.9.2/ -mtune=corei7 -march=x86-64 -g -O2
#
# seed   295046636  -630953346   673011168   -69794465  1344961895 -1054611889  -983379171  -182389101 -1492084284  -293451173   554154740  1097384127
#
#      Author: C. J. Pickard (cjp20@cam.ac.uk)
#                Space group: P-1
#

%BLOCK LATTICE_ABC
      5.21000      6.27493      6.74517
     66.89286     88.07801     80.62022
%ENDBLOCK LATTICE_ABC

%BLOCK POSITIONS_FRAC
  Li  -0.2009768  -0.3668053  -0.2465809 SPIN=   0.00000
  Li   0.2009768   0.3668053   0.2465809 SPIN=   0.00000
  Fe  -0.2947466   0.1387173   0.1400781 SPIN=   4.00000
  Fe   0.2947466  -0.1387173  -0.1400781 SPIN=   4.00000
   O  -0.1702784   0.1117613  -0.1650653 SPIN=   0.00000
   O  -0.1035100   0.3703668  -0.5427876 SPIN=   0.00000
   O  -0.5483220   0.3075931  -0.4199407 SPIN=   0.00000
   O  -0.2383517  -0.0149872  -0.4608906 SPIN=   0.00000
   S  -0.2651155   0.1936835  -0.3971711 SPIN=   0.00000
   O   0.1702784  -0.1117613   0.1650653 SPIN=   0.00000
   O   0.1035100  -0.3703668   0.5427876 SPIN=   0.00000
   O   0.5483220  -0.3075931   0.4199407 SPIN=   0.00000
   O   0.2383517   0.0149872   0.4608906 SPIN=   0.00000
   S   0.2651155  -0.1936835   0.3971711 SPIN=   0.00000
   F   0.2908457   0.3032885  -0.0521420 SPIN=   0.00000
   F  -0.2908457  -0.3032885   0.0521420 SPIN=   0.00000
%ENDBLOCK POSITIONS_FRAC

# Note: total spin =   8.00

KPOINTS_MP_SPACING 0.07

%BLOCK SPECIES_POT
QC5
%ENDBLOCK SPECIES_POT

SNAP_TO_SYMMETRY
SYMMETRY_GENERATE

