#              Generated by Buildcell
#
# at 05:33:43 (GMT+1.0) 4th August 2020
# in /lustre/scratch/uccabz1/launch_tmp
# on node-c12d-030
# by uccabz1
#
# compiler GCC version 4.9.2
# options -cpp -iprefix /lustre/shared/ucl/apps/gcc/4.9.2/bin/../lib/gcc/x86_64-unknown-linux-gnu/4.9.2/ -mtune=corei7 -march=x86-64 -g -Og
#
# seed  1567612271  1453728562   907950562   247443302  1697802482  1348117627 -2055276588  1161287510 -1115908975  1867557546  -449844599   886887712
#
#      Author: C. J. Pickard (cjp20@cam.ac.uk)
#                Space group: Cm
#

%BLOCK LATTICE_ABC
      4.42820      6.75269      6.75269
     94.15989     94.57953     94.57953
%ENDBLOCK LATTICE_ABC

%BLOCK POSITIONS_FRAC
  Li   0.0947825   0.3174984  -0.1458707 SPIN=   0.00000
  Li   0.0947825  -0.1458707   0.3174984 SPIN=   0.00000
  Fe   0.0598354  -0.1819356  -0.1819356 SPIN=   3.42470
  Fe   0.0604244   0.3205622   0.3205622 SPIN=   4.57530
   O  -0.6293848  -0.2172864   0.0687944 SPIN=   0.00000
   O  -0.1832304  -0.3895208  -0.0258411 SPIN=   0.00000
   O  -0.6181932  -0.5793288   0.1016840 SPIN=   0.00000
   O  -0.2806438  -0.3384235   0.3292937 SPIN=   0.00000
   S  -0.4278631  -0.3811399   0.1184828 SPIN=   0.00000
   O  -0.6293848   0.0687944  -0.2172864 SPIN=   0.00000
   O  -0.1832304  -0.0258411  -0.3895208 SPIN=   0.00000
   O  -0.6181932   0.1016840  -0.5793288 SPIN=   0.00000
   O  -0.2806438   0.3292937  -0.3384235 SPIN=   0.00000
   S  -0.4278631   0.1184828  -0.3811399 SPIN=   0.00000
   F   0.2643538  -0.3871300  -0.3871300 SPIN=   0.00000
   F  -0.0374396   0.0819179   0.0819179 SPIN=   0.00000
%ENDBLOCK POSITIONS_FRAC

# Note: total spin =   8.00

KPOINTS_MP_SPACING 0.07

%BLOCK SPECIES_POT
QC5
%ENDBLOCK SPECIES_POT

SNAP_TO_SYMMETRY
SYMMETRY_GENERATE

