#              Generated by Buildcell
#
# at 17:36:26 (GMT+1.0) 18th August 2020
# in /lustre/scratch/uccabz1/launch_tmp
# on node-c12g-023
# by uccabz1
#
# compiler GCC version 4.9.2
# options -cpp -iprefix /lustre/shared/ucl/apps/gcc/4.9.2/bin/../lib/gcc/x86_64-unknown-linux-gnu/4.9.2/ -mtune=corei7 -march=x86-64 -g -Og
#
# seed  1834477168  1207636654    74360951 -1106296172   556043097   318148791  1849721667 -1463909733 -1497887538 -1335333789 -1412911068  1838259384
#
#      Author: C. J. Pickard (cjp20@cam.ac.uk)
#                Space group: P21
#

%BLOCK LATTICE_ABC
      4.54238      6.35709      6.98788
     97.62481     90.00000     90.00000
%ENDBLOCK LATTICE_ABC

%BLOCK POSITIONS_FRAC
  Li  -0.2521509  -0.2722643   0.4501298 SPIN=   0.00000
  Li   0.2478491   0.2722643  -0.4501298 SPIN=   0.00000
  Fe  -0.1201950  -0.3573634  -0.1523078 SPIN=   4.00000
  Fe   0.3798050   0.3573634   0.1523078 SPIN=   4.00000
   O  -0.3463871   0.3520084  -0.1370533 SPIN=   0.00000
   O  -0.3662966  -0.0306285  -0.1043196 SPIN=   0.00000
   O   0.0667390   0.1163280  -0.2558125 SPIN=   0.00000
   O  -0.4116011   0.0867822  -0.4268349 SPIN=   0.00000
   S  -0.2643865   0.1311225  -0.2310051 SPIN=   0.00000
   O   0.1536129  -0.3520084   0.1370533 SPIN=   0.00000
   O   0.1337034   0.0306285   0.1043196 SPIN=   0.00000
   O   0.5667390  -0.1163280   0.2558125 SPIN=   0.00000
   O   0.0883989  -0.0867822   0.4268349 SPIN=   0.00000
   S   0.2356135  -0.1311225   0.2310051 SPIN=   0.00000
   F  -0.2375206   0.3601113   0.2961880 SPIN=   0.00000
   F   0.2624794  -0.3601113  -0.2961880 SPIN=   0.00000
%ENDBLOCK POSITIONS_FRAC

# Note: total spin =   8.00

KPOINTS_MP_SPACING 0.07

%BLOCK SPECIES_POT
QC5
%ENDBLOCK SPECIES_POT

SNAP_TO_SYMMETRY
SYMMETRY_GENERATE

