#              Generated by Buildcell
#
# at 05:29:22 (GMT+1.0) 4th August 2020
# in /lustre/scratch/uccabz1/launch_tmp
# on node-c12d-009
# by uccabz1
#
# compiler GCC version 4.9.2
# options -cpp -iprefix /lustre/shared/ucl/apps/gcc/4.9.2/bin/../lib/gcc/x86_64-unknown-linux-gnu/4.9.2/ -mtune=corei7 -march=x86-64 -g -Og
#
# seed   562162901 -1631438574  1130251034  1313220829 -2121986932   637448017 -2029584486  1157921322  -832258197  -804862278 -1380037096 -1719952249
#
#      Author: C. J. Pickard (cjp20@cam.ac.uk)
#                Space group: Cm
#

%BLOCK LATTICE_ABC
      3.88010      7.71186      7.71186
    119.87169     90.91737     90.91737
%ENDBLOCK LATTICE_ABC

%BLOCK POSITIONS_FRAC
  Li   0.0343618   0.0085499   0.3105003 SPIN=   0.00000
  Li   0.0343618   0.3105003   0.0085499 SPIN=   0.00000
  Fe  -0.4742433   0.3368211  -0.3894264 SPIN=   4.00000
  Fe  -0.4742433  -0.3894264   0.3368211 SPIN=   4.00000
   O  -0.1131605  -0.3053963   0.1493179 SPIN=   0.00000
   O   0.2916535  -0.1819068  -0.0123114 SPIN=   0.00000
   O  -0.2518967  -0.3588208  -0.1884886 SPIN=   0.00000
   O   0.2180287  -0.5455231  -0.1406789 SPIN=   0.00000
   S   0.0361562  -0.3479117  -0.0480402 SPIN=   0.00000
   O  -0.1131605   0.1493179  -0.3053963 SPIN=   0.00000
   O   0.2916535  -0.0123114  -0.1819068 SPIN=   0.00000
   O  -0.2518967  -0.1884886  -0.3588208 SPIN=   0.00000
   O   0.2180287  -0.1406789  -0.5455231 SPIN=   0.00000
   S   0.0361562  -0.0480402  -0.3479117 SPIN=   0.00000
   F   0.5936343   0.0870668   0.3455238 SPIN=   0.00000
   F   0.5936343   0.3455238   0.0870668 SPIN=   0.00000
%ENDBLOCK POSITIONS_FRAC

# Note: total spin =   8.00

KPOINTS_MP_SPACING 0.07

%BLOCK SPECIES_POT
QC5
%ENDBLOCK SPECIES_POT

SNAP_TO_SYMMETRY
SYMMETRY_GENERATE

