#              Generated by Buildcell
#
# at 04:30:27 (GMT+1.0) 4th August 2020
# in /lustre/scratch/uccabz1/launch_tmp
# on node-c12k-031
# by uccabz1
#
# compiler GCC version 4.9.2
# options -cpp -iprefix /lustre/shared/ucl/apps/gcc/4.9.2/bin/../lib/gcc/x86_64-unknown-linux-gnu/4.9.2/ -mtune=corei7 -march=x86-64 -g -Og
#
# seed  1241942469   633090128 -1332635036  1815831110   528161905 -1283391842   980754335  1313220207 -1155363343  -410294458  -515711054  2010816063
#
#      Author: C. J. Pickard (cjp20@cam.ac.uk)
#                Space group: P-1
#

%BLOCK LATTICE_ABC
      4.14652      6.72288      7.54569
    101.88006    102.90291     91.74389
%ENDBLOCK LATTICE_ABC

%BLOCK POSITIONS_FRAC
  Li   0.1636968   0.0898472  -0.1808943 SPIN=   0.00000
  Li  -0.1636968  -0.0898472   0.1808943 SPIN=   0.00000
  Fe   0.3293780  -0.3989781   0.1952217 SPIN=   4.00000
  Fe  -0.3293780   0.3989781  -0.1952217 SPIN=   4.00000
   O  -0.6854373   0.0405924   0.2239442 SPIN=   0.00000
   O  -0.4416896   0.1649476   0.5613380 SPIN=   0.00000
   O  -0.6538459   0.4088491   0.3665723 SPIN=   0.00000
   O  -0.1412039   0.2417832   0.3313979 SPIN=   0.00000
   S  -0.4805442   0.2140431   0.3708131 SPIN=   0.00000
   O   0.6854373  -0.0405924  -0.2239442 SPIN=   0.00000
   O   0.4416896  -0.1649476  -0.5613380 SPIN=   0.00000
   O   0.6538459  -0.4088491  -0.3665723 SPIN=   0.00000
   O   0.1412039  -0.2417832  -0.3313979 SPIN=   0.00000
   S   0.4805442  -0.2140431  -0.3708131 SPIN=   0.00000
   F   0.1545949   0.3786836  -0.2338635 SPIN=   0.00000
   F  -0.1545949  -0.3786836   0.2338635 SPIN=   0.00000
%ENDBLOCK POSITIONS_FRAC

# Note: total spin =   8.00

KPOINTS_MP_SPACING 0.07

%BLOCK SPECIES_POT
QC5
%ENDBLOCK SPECIES_POT

SNAP_TO_SYMMETRY
SYMMETRY_GENERATE

