#              Generated by Buildcell
#
# at 00:44:41 (GMT+1.0) 19th August 2020
# in /scratch/scratch/uccabz1/launch_tmp
# on node-k10b-033
# by uccabz1
#
# compiler GCC version 4.9.2
# options -cpp -iprefix /scratch/UCL/applications/gcc/4.9.2/bin/../lib/gcc/x86_64-unknown-linux-gnu/4.9.2/ -mtune=corei7 -march=x86-64 -g -O2
#
# seed -1807833920 -2039945381 -1521566513 -1956471507  -440572234  -780394900  1181924114 -2117125736  -448732516 -2087327446  -537881455  1536837699
#
#      Author: C. J. Pickard (cjp20@cam.ac.uk)
#                Space group: Ima2
#

%BLOCK LATTICE_ABC
      6.40912      6.40912      6.40912
    105.64609    106.03598    117.00477
%ENDBLOCK LATTICE_ABC

%BLOCK POSITIONS_FRAC
  Li   0.0709464   0.1279464  -0.4430000 SPIN=   0.00000
  Li  -0.0709464   0.4860535   0.0570000 SPIN=   0.00000
  Fe   0.0000000  -0.0307922  -0.0307922 SPIN=   4.00000
  Fe   0.5000000  -0.0307922   0.4692078 SPIN=   4.00000
   O  -0.3915071  -0.4065124  -0.1662875 SPIN=   0.00000
   O  -0.0641297  -0.4788786  -0.2375414 SPIN=   0.00000
   O   0.3915071   0.2252195  -0.0150054 SPIN=   0.00000
   O   0.0641297  -0.1734118  -0.4147490 SPIN=   0.00000
   O  -0.2597751   0.2252195   0.3337125 SPIN=   0.00000
   O  -0.2586628  -0.1734118   0.2624586 SPIN=   0.00000
   O   0.2597751  -0.4065124   0.4849946 SPIN=   0.00000
   O   0.2586628  -0.4788786   0.0852510 SPIN=   0.00000
   S  -0.0000000  -0.4689624  -0.4689624 SPIN=   0.00000
   S  -0.5000000  -0.4689624   0.0310376 SPIN=   0.00000
   F   0.2533596   0.1142009   0.3608412 SPIN=   0.00000
   F  -0.2533596   0.1074816  -0.1391588 SPIN=   0.00000
%ENDBLOCK POSITIONS_FRAC

# Note: total spin =   8.00

KPOINTS_MP_SPACING 0.07

%BLOCK SPECIES_POT
QC5
%ENDBLOCK SPECIES_POT

SNAP_TO_SYMMETRY
SYMMETRY_GENERATE

