#              Generated by Buildcell
#
# at 01:10:45 (GMT+1.0) 19th August 2020
# in /lustre/scratch/uccabz1/launch_tmp
# on node-c12p-013
# by uccabz1
#
# compiler GCC version 4.9.2
# options -cpp -iprefix /lustre/shared/ucl/apps/gcc/4.9.2/bin/../lib/gcc/x86_64-unknown-linux-gnu/4.9.2/ -mtune=corei7 -march=x86-64 -g -Og
#
# seed   728183156  -421932647 -1249221243 -1546377780 -1185586332 -1685633083   402092377  1918506978  1476196406  -768787016   563496086   563004481
#
#      Author: C. J. Pickard (cjp20@cam.ac.uk)
#                Space group: P2
#

%BLOCK LATTICE_ABC
      4.03338      6.57106      7.71099
     90.00000    101.86877     90.00000
%ENDBLOCK LATTICE_ABC

%BLOCK POSITIONS_FRAC
  Li  -0.0000000   0.3515693  -0.0000000 SPIN=   0.00000
  Li   0.5000000   0.4524455   0.5000000 SPIN=   0.00000
  Fe  -0.2120571  -0.3071258   0.2243103 SPIN=   4.00000
  Fe   0.2120571  -0.3071258  -0.2243103 SPIN=   4.00000
   O  -0.2529040   0.0081975   0.4048961 SPIN=   0.00000
   O  -0.6741063   0.2315643   0.2171294 SPIN=   0.00000
   O  -0.1891115   0.0966538   0.1014960 SPIN=   0.00000
   O  -0.0947553   0.3587689   0.3370047 SPIN=   0.00000
   S  -0.3027193   0.1737961   0.2651315 SPIN=   0.00000
   O   0.2529040   0.0081975  -0.4048961 SPIN=   0.00000
   O   0.6741063   0.2315643  -0.2171294 SPIN=   0.00000
   O   0.1891115   0.0966538  -0.1014960 SPIN=   0.00000
   O   0.0947553   0.3587689  -0.3370047 SPIN=   0.00000
   S   0.3027193   0.1737961  -0.2651315 SPIN=   0.00000
   F  -0.2952419  -0.3148221  -0.2416274 SPIN=   0.00000
   F   0.2952419  -0.3148221   0.2416274 SPIN=   0.00000
%ENDBLOCK POSITIONS_FRAC

# Note: total spin =   8.00

KPOINTS_MP_SPACING 0.07

%BLOCK SPECIES_POT
QC5
%ENDBLOCK SPECIES_POT

SNAP_TO_SYMMETRY
SYMMETRY_GENERATE

