#              Generated by Buildcell
#
# at 05:06:33 (GMT+1.0) 4th August 2020
# in /lustre/scratch/uccabz1/launch_tmp
# on node-c12p-017
# by uccabz1
#
# compiler GCC version 4.9.2
# options -cpp -iprefix /lustre/shared/ucl/apps/gcc/4.9.2/bin/../lib/gcc/x86_64-unknown-linux-gnu/4.9.2/ -mtune=corei7 -march=x86-64 -g -Og
#
# seed  1469185325   776725692   905844486  -376674113   409330878  -747272330 -2129461435  1443758298  1363964648 -1374135554  2116439808   316364774
#
#      Author: C. J. Pickard (cjp20@cam.ac.uk)
#                Space group: P-1
#

%BLOCK LATTICE_ABC
      4.60744      6.47763      6.91843
     79.04920     86.80475     80.71586
%ENDBLOCK LATTICE_ABC

%BLOCK POSITIONS_FRAC
  Li  -0.0525131  -0.3724775  -0.2711909 SPIN=   0.00000
  Li   0.0525131   0.3724775   0.2711909 SPIN=   0.00000
  Fe  -0.3833390   0.1177326   0.2066817 SPIN=   4.00000
  Fe   0.3833390  -0.1177326  -0.2066817 SPIN=   4.00000
   O   0.1002221   0.3221177  -0.4485690 SPIN=   0.00000
   O  -0.3148542   0.1366698  -0.4910622 SPIN=   0.00000
   O  -0.4038964   0.4609350  -0.3428540 SPIN=   0.00000
   O  -0.1385113   0.1254047  -0.1572521 SPIN=   0.00000
   S  -0.1892599   0.2612818  -0.3599343 SPIN=   0.00000
   O  -0.1002221  -0.3221177   0.4485690 SPIN=   0.00000
   O   0.3148542  -0.1366698   0.4910622 SPIN=   0.00000
   O   0.4038964  -0.4609350   0.3428540 SPIN=   0.00000
   O   0.1385113  -0.1254047   0.1572521 SPIN=   0.00000
   S   0.1892599  -0.2612818   0.3599343 SPIN=   0.00000
   F  -0.2959742  -0.2721623  -0.0717101 SPIN=   0.00000
   F   0.2959742   0.2721623   0.0717101 SPIN=   0.00000
%ENDBLOCK POSITIONS_FRAC

# Note: total spin =   8.00

KPOINTS_MP_SPACING 0.07

%BLOCK SPECIES_POT
QC5
%ENDBLOCK SPECIES_POT

SNAP_TO_SYMMETRY
SYMMETRY_GENERATE

