#              Generated by Buildcell
#
# at 05:45:17 (GMT+1.0) 4th August 2020
# in /lustre/scratch/uccabz1/launch_tmp
# on node-c12m-029
# by uccabz1
#
# compiler GCC version 4.9.2
# options -cpp -iprefix /lustre/shared/ucl/apps/gcc/4.9.2/bin/../lib/gcc/x86_64-unknown-linux-gnu/4.9.2/ -mtune=corei7 -march=x86-64 -g -Og
#
# seed  -957871810     1458256  1653801472  -255679289  -358070168 -1617099645   450317062  1947719433 -1644796439  1553909309  1622180242   651031627
#
#      Author: C. J. Pickard (cjp20@cam.ac.uk)
#                Space group: Cc
#

%BLOCK LATTICE_ABC
      5.14085      5.14085      7.59493
     93.27732     93.27732     91.26835
%ENDBLOCK LATTICE_ABC

%BLOCK POSITIONS_FRAC
  Li   0.2655802   0.0361394  -0.2404765 SPIN=   0.00000
  Li   0.0361394   0.2655802   0.2595235 SPIN=   0.00000
  Fe   0.4695434  -0.4694884  -0.4238794 SPIN=   4.00000
  Fe  -0.4694884   0.4695434   0.0761206 SPIN=   4.00000
   O  -0.1262338  -0.3188287  -0.0745475 SPIN=   0.00000
   O  -0.1824367   0.0187069  -0.2922907 SPIN=   0.00000
   O  -0.0182049   0.1433829   0.0142612 SPIN=   0.00000
   O  -0.4784652  -0.0010759  -0.0473686 SPIN=   0.00000
   S  -0.2013352  -0.0394537  -0.0999864 SPIN=   0.00000
   O  -0.3188287  -0.1262338   0.4254525 SPIN=   0.00000
   O   0.0187069  -0.1824367   0.2077093 SPIN=   0.00000
   O   0.1433829  -0.0182049   0.5142612 SPIN=   0.00000
   O  -0.0010759  -0.4784652   0.4526314 SPIN=   0.00000
   S  -0.0394537  -0.2013352   0.4000136 SPIN=   0.00000
   F   0.4378350   0.2988763   0.2678922 SPIN=   0.00000
   F   0.2988763   0.4378350  -0.2321078 SPIN=   0.00000
%ENDBLOCK POSITIONS_FRAC

# Note: total spin =   8.00

KPOINTS_MP_SPACING 0.07

%BLOCK SPECIES_POT
QC5
%ENDBLOCK SPECIES_POT

SNAP_TO_SYMMETRY
SYMMETRY_GENERATE

