#              Generated by Buildcell
#
# at 01:44:45 (GMT+1.0) 19th August 2020
# in /lustre/scratch/uccabz1/launch_tmp
# on node-c12k-019
# by uccabz1
#
# compiler GCC version 4.9.2
# options -cpp -iprefix /lustre/shared/ucl/apps/gcc/4.9.2/bin/../lib/gcc/x86_64-unknown-linux-gnu/4.9.2/ -mtune=corei7 -march=x86-64 -g -Og
#
# seed   566820770  1239673495  -626512924 -1044713673  1933527103 -1731391038   772115780  1870475325 -1461262320  2064958248  1026274448  -650112288
#
#      Author: C. J. Pickard (cjp20@cam.ac.uk)
#                Space group: P-1
#

%BLOCK LATTICE_ABC
      4.85962      5.28905      8.18918
     73.09775     89.33378     83.38921
%ENDBLOCK LATTICE_ABC

%BLOCK POSITIONS_FRAC
  Li   0.2898175   0.2950710  -0.1628050 SPIN=   0.00000
  Li  -0.2898175  -0.2950710   0.1628050 SPIN=   0.00000
  Fe  -0.2208435   0.2594388  -0.3715382 SPIN=   4.00000
  Fe   0.2208435  -0.2594388   0.3715382 SPIN=   4.00000
   O  -0.3893955   0.3594587   0.3659188 SPIN=   0.00000
   O  -0.0312647   0.1581546   0.2092231 SPIN=   0.00000
   O  -0.5182830   0.2546287   0.1034208 SPIN=   0.00000
   O  -0.3872669  -0.1094930   0.3677265 SPIN=   0.00000
   S  -0.3315525   0.1656872   0.2615723 SPIN=   0.00000
   O   0.3893955  -0.3594587  -0.3659188 SPIN=   0.00000
   O   0.0312647  -0.1581546  -0.2092231 SPIN=   0.00000
   O   0.5182830  -0.2546287  -0.1034208 SPIN=   0.00000
   O   0.3872669   0.1094930  -0.3677265 SPIN=   0.00000
   S   0.3315525  -0.1656872  -0.2615723 SPIN=   0.00000
   F  -0.1108111   0.3340569  -0.1585389 SPIN=   0.00000
   F   0.1108111  -0.3340569   0.1585389 SPIN=   0.00000
%ENDBLOCK POSITIONS_FRAC

# Note: total spin =   8.00

KPOINTS_MP_SPACING 0.07

%BLOCK SPECIES_POT
QC5
%ENDBLOCK SPECIES_POT

SNAP_TO_SYMMETRY
SYMMETRY_GENERATE

