#              Generated by Buildcell
#
# at 21:57:18 (GMT+1.0) 18th August 2020
# in /lustre/scratch/uccabz1/launch_tmp
# on node-c12e-025
# by uccabz1
#
# compiler GCC version 4.9.2
# options -cpp -iprefix /lustre/shared/ucl/apps/gcc/4.9.2/bin/../lib/gcc/x86_64-unknown-linux-gnu/4.9.2/ -mtune=corei7 -march=x86-64 -g -Og
#
# seed -1550577933  -112222222 -1129450667 -1911055378  1806649863  -173018888 -1387982659  -919223777  1023551906  -130631894  -380001551  1046090928
#
#      Author: C. J. Pickard (cjp20@cam.ac.uk)
#                Space group: C2
#

%BLOCK LATTICE_ABC
      3.96783      6.72389      7.83587
     98.26211    104.66598     90.00000
%ENDBLOCK LATTICE_ABC

%BLOCK POSITIONS_FRAC
  Li  -0.0890903   0.0085011  -0.2720412 SPIN=   0.00000
  Li   0.1829508  -0.0085011   0.2720412 SPIN=   0.00000
  Fe  -0.3336743  -0.3541480   0.2236222 SPIN=   4.00000
  Fe   0.4427035   0.3541480  -0.2236222 SPIN=   4.00000
   O  -0.1908255   0.3026228   0.2544104 SPIN=   0.00000
   O  -0.0026246   0.3800116   0.5837100 SPIN=   0.00000
   O  -0.1447964   0.0280826   0.4373948 SPIN=   0.00000
   O  -0.6146072   0.2708000   0.4335453 SPIN=   0.00000
   S  -0.2382134   0.2453792   0.4272651 SPIN=   0.00000
   O   0.5547641  -0.3026228  -0.2544104 SPIN=   0.00000
   O   0.4136654  -0.3800116  -0.5837100 SPIN=   0.00000
   O   0.4178089  -0.0280826  -0.4373948 SPIN=   0.00000
   O  -0.0481525  -0.2708000  -0.4335453 SPIN=   0.00000
   S   0.3345215  -0.2453792  -0.4272651 SPIN=   0.00000
   F   0.2173558  -0.2368949   0.0820132 SPIN=   0.00000
   F   0.1353427   0.2368949  -0.0820132 SPIN=   0.00000
%ENDBLOCK POSITIONS_FRAC

# Note: total spin =   8.00

KPOINTS_MP_SPACING 0.07

%BLOCK SPECIES_POT
QC5
%ENDBLOCK SPECIES_POT

SNAP_TO_SYMMETRY
SYMMETRY_GENERATE

