#              Generated by Buildcell
#
# at 04:18:31 (GMT+1.0) 4th August 2020
# in /lustre/scratch/uccabz1/launch_tmp
# on node-c12f-027
# by uccabz1
#
# compiler GCC version 4.9.2
# options -cpp -iprefix /lustre/shared/ucl/apps/gcc/4.9.2/bin/../lib/gcc/x86_64-unknown-linux-gnu/4.9.2/ -mtune=corei7 -march=x86-64 -g -Og
#
# seed   110739175   618704857  -787612086  -733910030   166037978 -1693686806  1304949433   -16074380  1533303559   421081540 -2016671870   113537768
#
#      Author: C. J. Pickard (cjp20@cam.ac.uk)
#                Space group: P2
#

%BLOCK LATTICE_ABC
      4.09414      6.73378      7.68532
    109.27518     90.00000     90.00000
%ENDBLOCK LATTICE_ABC

%BLOCK POSITIONS_FRAC
  Li   0.3113164  -0.5000000   0.0000000 SPIN=   0.00000
  Li  -0.1131217  -0.5000000  -0.5000000 SPIN=   0.00000
  Fe  -0.1886884  -0.1690027   0.1479672 SPIN=   4.00000
  Fe  -0.1886884   0.1690027  -0.1479672 SPIN=   4.00000
   O   0.4094082   0.1021725   0.3043013 SPIN=   0.00000
   O   0.4094152   0.2231060   0.0331803 SPIN=   0.00000
   O   0.2668249   0.4710377   0.3412849 SPIN=   0.00000
   O  -0.1130220   0.1831338   0.1802038 SPIN=   0.00000
   S   0.2431566   0.2448625   0.2147426 SPIN=   0.00000
   O   0.4094082  -0.1021725  -0.3043013 SPIN=   0.00000
   O   0.4094152  -0.2231060  -0.0331803 SPIN=   0.00000
   O   0.2668249  -0.4710377  -0.3412849 SPIN=   0.00000
   O  -0.1130220  -0.1831338  -0.1802038 SPIN=   0.00000
   S   0.2431566  -0.2448625  -0.2147426 SPIN=   0.00000
   F  -0.2534094   0.2665451  -0.3744654 SPIN=   0.00000
   F  -0.2534094  -0.2665451   0.3744654 SPIN=   0.00000
%ENDBLOCK POSITIONS_FRAC

# Note: total spin =   8.00

KPOINTS_MP_SPACING 0.07

%BLOCK SPECIES_POT
QC5
%ENDBLOCK SPECIES_POT

SNAP_TO_SYMMETRY
SYMMETRY_GENERATE

