#              Generated by Buildcell
#
# at 04:33:32 (GMT+1.0) 4th August 2020
# in /lustre/scratch/uccabz1/launch_tmp
# on node-c12m-023
# by uccabz1
#
# compiler GCC version 4.9.2
# options -cpp -iprefix /lustre/shared/ucl/apps/gcc/4.9.2/bin/../lib/gcc/x86_64-unknown-linux-gnu/4.9.2/ -mtune=corei7 -march=x86-64 -g -Og
#
# seed  -593721968  -983643772   248046891  1350699825  1477074396   770570611 -1279521067 -1388118047  1596438248  1964149055  -456692250   684088783
#
#      Author: C. J. Pickard (cjp20@cam.ac.uk)
#                Space group: Pc
#

%BLOCK LATTICE_ABC
      5.03653      5.78921      6.98982
     90.00000    101.09030     90.00000
%ENDBLOCK LATTICE_ABC

%BLOCK POSITIONS_FRAC
  Li  -0.1907020  -0.3632415  -0.0170622 SPIN=   0.00000
  Li   0.3092980   0.3632415   0.4829378 SPIN=   0.00000
  Fe  -0.2416858   0.0566101  -0.2867097 SPIN=   4.00000
  Fe   0.2583142  -0.0566101   0.2132903 SPIN=   4.00000
   O   0.0140141  -0.3845543   0.3387247 SPIN=   0.00000
   O  -0.2459804  -0.6822827   0.4780759 SPIN=   0.00000
   O  -0.4589700  -0.3071528   0.3701271 SPIN=   0.00000
   O  -0.0979343  -0.3267202   0.6649742 SPIN=   0.00000
   S  -0.1972177  -0.4251775   0.4629755 SPIN=   0.00000
   O   0.5140141   0.3845543  -0.1612753 SPIN=   0.00000
   O   0.2540196   0.6822827  -0.0219241 SPIN=   0.00000
   O   0.0410300   0.3071528  -0.1298729 SPIN=   0.00000
   O   0.4020657   0.3267202   0.1649742 SPIN=   0.00000
   S   0.3027823   0.4251775  -0.0370245 SPIN=   0.00000
   F   0.2733335   0.0251988  -0.4185990 SPIN=   0.00000
   F  -0.2266665  -0.0251988   0.0814010 SPIN=   0.00000
%ENDBLOCK POSITIONS_FRAC

# Note: total spin =   8.00

KPOINTS_MP_SPACING 0.07

%BLOCK SPECIES_POT
QC5
%ENDBLOCK SPECIES_POT

SNAP_TO_SYMMETRY
SYMMETRY_GENERATE

