#              Generated by Buildcell
#
# at 23:30:30 (GMT+1.0) 18th August 2020
# in /lustre/scratch/uccabz1/launch_tmp
# on node-c12e-001
# by uccabz1
#
# compiler GCC version 4.9.2
# options -cpp -iprefix /lustre/shared/ucl/apps/gcc/4.9.2/bin/../lib/gcc/x86_64-unknown-linux-gnu/4.9.2/ -mtune=corei7 -march=x86-64 -g -Og
#
# seed  1472421705  1469653269  1117840923  1027888628 -1784713921 -1100885577   609484162  -479662485 -2025501701  -946271081   -52195499  -602313796
#
#      Author: C. J. Pickard (cjp20@cam.ac.uk)
#                Space group: P21
#

%BLOCK LATTICE_ABC
      3.99022      5.45083      9.30883
     98.95341     90.00000     90.00000
%ENDBLOCK LATTICE_ABC

%BLOCK POSITIONS_FRAC
  Li   0.3437216  -0.2266550   0.0878361 SPIN=   0.00000
  Li  -0.1562784   0.2266550  -0.0878361 SPIN=   0.00000
  Fe  -0.2522642  -0.2241620  -0.3116071 SPIN=   4.00000
  Fe   0.2477358   0.2241620   0.3116071 SPIN=   4.00000
   O   0.4953098   0.4494023  -0.2240732 SPIN=   0.00000
   O   0.0910864   0.4085435  -0.4280521 SPIN=   0.00000
   O   0.1225795   0.0827317  -0.2707002 SPIN=   0.00000
   O   0.5851149   0.1314380  -0.4411342 SPIN=   0.00000
   S   0.3235227   0.2680289  -0.3409899 SPIN=   0.00000
   O  -0.0046902  -0.4494023   0.2240732 SPIN=   0.00000
   O  -0.4089136  -0.4085435   0.4280521 SPIN=   0.00000
   O  -0.3774205  -0.0827317   0.2707002 SPIN=   0.00000
   O   0.0851149  -0.1314380   0.4411342 SPIN=   0.00000
   S  -0.1764773  -0.2680289   0.3409899 SPIN=   0.00000
   F  -0.0165761  -0.2420349  -0.1009460 SPIN=   0.00000
   F   0.4834239   0.2420349   0.1009460 SPIN=   0.00000
%ENDBLOCK POSITIONS_FRAC

# Note: total spin =   8.00

KPOINTS_MP_SPACING 0.07

%BLOCK SPECIES_POT
QC5
%ENDBLOCK SPECIES_POT

SNAP_TO_SYMMETRY
SYMMETRY_GENERATE

