#              Generated by Buildcell
#
# at 02:25:38 (GMT+1.0) 19th August 2020
# in /scratch/scratch/uccabz1/launch_tmp
# on node-k10b-028
# by uccabz1
#
# compiler GCC version 4.9.2
# options -cpp -iprefix /scratch/UCL/applications/gcc/4.9.2/bin/../lib/gcc/x86_64-unknown-linux-gnu/4.9.2/ -mtune=corei7 -march=x86-64 -g -O2
#
# seed  -805103650 -1354596973 -1605502337 -1253328909  -652778837  -272656823  -927792853   130000481 -1644885220  1491434338   764322439 -1888310550
#
#      Author: C. J. Pickard (cjp20@cam.ac.uk)
#                Space group: P2
#

%BLOCK LATTICE_ABC
      4.11759      6.40188      7.69270
     90.00000     99.50146     90.00000
%ENDBLOCK LATTICE_ABC

%BLOCK POSITIONS_FRAC
  Li   0.0000000  -0.1686967   0.0000000 SPIN=   0.00000
  Li  -0.5000000  -0.3591810  -0.5000000 SPIN=   0.00000
  Fe  -0.6486299   0.0228330  -0.2826718 SPIN=   4.00000
  Fe   0.6486299   0.0228330   0.2826718 SPIN=   4.00000
   O   0.2227869  -0.6269205  -0.0652915 SPIN=   0.00000
   O   0.2837818  -0.5763735  -0.3772280 SPIN=   0.00000
   O   0.3555661  -0.2769719  -0.1709257 SPIN=   0.00000
   O  -0.1982214  -0.4284015  -0.2662283 SPIN=   0.00000
   S   0.1659783  -0.4771668  -0.2199184 SPIN=   0.00000
   O  -0.2227869  -0.6269205   0.0652915 SPIN=   0.00000
   O  -0.2837818  -0.5763735   0.3772280 SPIN=   0.00000
   O  -0.3555661  -0.2769719   0.1709257 SPIN=   0.00000
   O   0.1982214  -0.4284015   0.2662283 SPIN=   0.00000
   S  -0.1659783  -0.4771668   0.2199184 SPIN=   0.00000
   F  -0.1797152   0.0228330  -0.2648212 SPIN=   0.00000
   F   0.1797152   0.0228330   0.2648212 SPIN=   0.00000
%ENDBLOCK POSITIONS_FRAC

# Note: total spin =   8.00

KPOINTS_MP_SPACING 0.07

%BLOCK SPECIES_POT
QC5
%ENDBLOCK SPECIES_POT

SNAP_TO_SYMMETRY
SYMMETRY_GENERATE

