#              Generated by Buildcell
#
# at 04:00:59 (GMT+1.0) 4th August 2020
# in /lustre/scratch/uccabz1/launch_tmp
# on node-c12g-029
# by uccabz1
#
# compiler GCC version 4.9.2
# options -cpp -iprefix /lustre/shared/ucl/apps/gcc/4.9.2/bin/../lib/gcc/x86_64-unknown-linux-gnu/4.9.2/ -mtune=corei7 -march=x86-64 -g -Og
#
# seed -1653803004  2120527759 -2107240964   428344541   387652551  2065608095   371902999    -3264694 -1326878633 -1621425429  -640760456  1190868252
#
#      Author: C. J. Pickard (cjp20@cam.ac.uk)
#                Space group: C2
#

%BLOCK LATTICE_ABC
      5.74870      6.54075      6.54075
     97.78763    112.05923    112.05923
%ENDBLOCK LATTICE_ABC

%BLOCK POSITIONS_FRAC
  Li  -0.6425090  -0.3411013  -0.1771067 SPIN=   0.00000
  Li   0.6425090   0.1771067   0.3411013 SPIN=   0.00000
  Fe   0.1627163   0.2635437   0.2415079 SPIN=   4.00000
  Fe  -0.1627163  -0.2415079  -0.2635437 SPIN=   4.00000
   O  -0.5743630  -0.2278637  -0.5819201 SPIN=   0.00000
   O  -0.3746645   0.1266545  -0.2525478 SPIN=   0.00000
   O  -0.8520821  -0.1947912  -0.3792222 SPIN=   0.00000
   S  -0.6437456  -0.0618378  -0.4606671 SPIN=   0.00000
   O   0.5743630   0.5819201   0.2278637 SPIN=   0.00000
   O   0.3746645   0.2525478  -0.1266545 SPIN=   0.00000
   O   0.8520821   0.3792222   0.1947912 SPIN=   0.00000
   S   0.6437456   0.4606671   0.0618378 SPIN=   0.00000
   O  -0.5000000   0.4079915  -0.4079915 SPIN=   0.00000
   O   0.0000000  -0.2404741   0.2404741 SPIN=   0.00000
   F  -0.0000000   0.0128927  -0.0128927 SPIN=   0.00000
   F  -0.0000000   0.3877241  -0.3877241 SPIN=   0.00000
%ENDBLOCK POSITIONS_FRAC

# Note: total spin =   8.00

KPOINTS_MP_SPACING 0.07

%BLOCK SPECIES_POT
QC5
%ENDBLOCK SPECIES_POT

SNAP_TO_SYMMETRY
SYMMETRY_GENERATE

