#              Generated by Buildcell
#
# at 03:18:45 (GMT+1.0) 4th August 2020
# in /lustre/scratch/uccabz1/launch_tmp
# on node-c12e-010
# by uccabz1
#
# compiler GCC version 4.9.2
# options -cpp -iprefix /lustre/shared/ucl/apps/gcc/4.9.2/bin/../lib/gcc/x86_64-unknown-linux-gnu/4.9.2/ -mtune=corei7 -march=x86-64 -g -Og
#
# seed   861714551   387295646  1703182593  -588712218   713110968 -1310273283 -1564370998  -635452050 -1120938686  2115052314  -382233473   671262830
#
#      Author: C. J. Pickard (cjp20@cam.ac.uk)
#                Space group: Cc
#

%BLOCK LATTICE_ABC
      4.11000      4.78725     11.39090
     86.20338     81.12658     64.57904
%ENDBLOCK LATTICE_ABC

%BLOCK POSITIONS_FRAC
  Li   0.2686601  -0.3627376  -0.0397638 SPIN=   0.00000
  Li  -0.0940776   0.3627376   0.4602362 SPIN=   0.00000
  Fe   0.3390488   0.0875474   0.1180141 SPIN=   4.00000
  Fe   0.4265962  -0.0875474  -0.3819859 SPIN=   4.00000
   O   0.0375947  -0.4119859   0.2907114 SPIN=   0.00000
   O  -0.5885804  -0.0057935   0.3404262 SPIN=   0.00000
   O  -0.0947390   0.1372941   0.2487105 SPIN=   0.00000
   O  -0.1066638  -0.0499077   0.4564271 SPIN=   0.00000
   S  -0.1880971  -0.0825983   0.3340688 SPIN=   0.00000
   O  -0.3743912   0.4119859  -0.2092886 SPIN=   0.00000
   O  -0.5943740   0.0057935  -0.1595738 SPIN=   0.00000
   O   0.0425551  -0.1372941  -0.2512895 SPIN=   0.00000
   O  -0.1565715   0.0499077  -0.0435729 SPIN=   0.00000
   S  -0.2706954   0.0825983  -0.1659312 SPIN=   0.00000
   F  -0.4247208   0.5995438   0.0865661 SPIN=   0.00000
   F   0.1748230  -0.5995438  -0.4134339 SPIN=   0.00000
%ENDBLOCK POSITIONS_FRAC

# Note: total spin =   8.00

KPOINTS_MP_SPACING 0.07

%BLOCK SPECIES_POT
QC5
%ENDBLOCK SPECIES_POT

SNAP_TO_SYMMETRY
SYMMETRY_GENERATE

