#              Generated by Buildcell
#
# at 04:42:43 (GMT+1.0) 4th August 2020
# in /lustre/scratch/uccabz1/launch_tmp
# on node-c12d-004
# by uccabz1
#
# compiler GCC version 4.9.2
# options -cpp -iprefix /lustre/shared/ucl/apps/gcc/4.9.2/bin/../lib/gcc/x86_64-unknown-linux-gnu/4.9.2/ -mtune=corei7 -march=x86-64 -g -Og
#
# seed  2051979488 -1431898670 -1202518431   396238330   977771247  -115957117 -1344148582   673490704  -209455141   145330137  -236525411  1393132556
#
#      Author: C. J. Pickard (cjp20@cam.ac.uk)
#                Space group: P-1
#

%BLOCK LATTICE_ABC
      3.97670      6.86878      8.17108
     67.26243     77.13331     80.79339
%ENDBLOCK LATTICE_ABC

%BLOCK POSITIONS_FRAC
  Li  -0.3308606  -0.2804670   0.0182457 SPIN=   0.00000
  Li   0.3308606   0.2804670  -0.0182457 SPIN=   0.00000
  Fe  -0.1137132   0.1356988  -0.2830321 SPIN=   4.00000
  Fe   0.1137132  -0.1356988   0.2830321 SPIN=   4.00000
   O   0.2622761  -0.5740989  -0.2911981 SPIN=   0.00000
   O  -0.0222424  -0.2191470  -0.4380845 SPIN=   0.00000
   O   0.1201023  -0.3188105  -0.1346612 SPIN=   0.00000
   O  -0.3485281  -0.4849858  -0.1747635 SPIN=   0.00000
   S   0.0029020  -0.3992605  -0.2596768 SPIN=   0.00000
   O  -0.2622761   0.5740989   0.2911981 SPIN=   0.00000
   O   0.0222424   0.2191470   0.4380845 SPIN=   0.00000
   O  -0.1201023   0.3188105   0.1346612 SPIN=   0.00000
   O   0.3485281   0.4849858   0.1747635 SPIN=   0.00000
   S  -0.0029020   0.3992605   0.2596768 SPIN=   0.00000
   F  -0.4117648  -0.0269104   0.2730072 SPIN=   0.00000
   F   0.4117648   0.0269104  -0.2730072 SPIN=   0.00000
%ENDBLOCK POSITIONS_FRAC

# Note: total spin =   8.00

KPOINTS_MP_SPACING 0.07

%BLOCK SPECIES_POT
QC5
%ENDBLOCK SPECIES_POT

SNAP_TO_SYMMETRY
SYMMETRY_GENERATE

