#              Generated by Buildcell
#
# at 05:17:15 (GMT+1.0) 4th August 2020
# in /lustre/scratch/uccabz1/launch_tmp
# on node-c12c-024
# by uccabz1
#
# compiler GCC version 4.9.2
# options -cpp -iprefix /lustre/shared/ucl/apps/gcc/4.9.2/bin/../lib/gcc/x86_64-unknown-linux-gnu/4.9.2/ -mtune=corei7 -march=x86-64 -g -Og
#
# seed  2074233012 -1386236034 -1042333954   655601748  1620469387   818549056  -646111614 -1891959118  1945089011    63502395  -844258712  1872236472
#
#      Author: C. J. Pickard (cjp20@cam.ac.uk)
#                Space group: P21
#

%BLOCK LATTICE_ABC
      4.11261      4.14084     12.03970
     90.00000     90.00000    102.71984
%ENDBLOCK LATTICE_ABC

%BLOCK POSITIONS_FRAC
  Li   0.1326408  -0.4371178   0.4768929 SPIN=   0.00000
  Li  -0.1326408   0.4371178  -0.0231071 SPIN=   0.00000
  Fe  -0.3552499  -0.4963010  -0.3370674 SPIN=   4.00000
  Fe   0.3552499   0.4963010   0.1629326 SPIN=   4.00000
   O   0.5962900   0.1384137  -0.1759634 SPIN=   0.00000
   O   0.0775982  -0.2259587  -0.2462157 SPIN=   0.00000
   O   0.0763743   0.0614724  -0.0660389 SPIN=   0.00000
   O   0.3684555  -0.3984599  -0.0841416 SPIN=   0.00000
   S   0.2796795  -0.1061331  -0.1430899 SPIN=   0.00000
   O  -0.5962900  -0.1384137   0.3240366 SPIN=   0.00000
   O  -0.0775982   0.2259587   0.2537843 SPIN=   0.00000
   O  -0.0763743  -0.0614724   0.4339611 SPIN=   0.00000
   O  -0.3684555   0.3984599   0.4158584 SPIN=   0.00000
   S  -0.2796795   0.1061331   0.3569101 SPIN=   0.00000
   F   0.2417500   0.3526525  -0.3993867 SPIN=   0.00000
   F  -0.2417500  -0.3526525   0.1006133 SPIN=   0.00000
%ENDBLOCK POSITIONS_FRAC

# Note: total spin =   8.00

KPOINTS_MP_SPACING 0.07

%BLOCK SPECIES_POT
QC5
%ENDBLOCK SPECIES_POT

SNAP_TO_SYMMETRY
SYMMETRY_GENERATE

