#              Generated by Buildcell
#
# at 04:38:36 (GMT+1.0) 4th August 2020
# in /lustre/scratch/uccabz1/launch_tmp
# on node-c12j-007
# by uccabz1
#
# compiler GCC version 4.9.2
# options -cpp -iprefix /lustre/shared/ucl/apps/gcc/4.9.2/bin/../lib/gcc/x86_64-unknown-linux-gnu/4.9.2/ -mtune=corei7 -march=x86-64 -g -Og
#
# seed  -731620269  1919948504 -1969814385  1769284747  1127111442  1556442981  1483934287  1400173652  -437244485   725074365  1958166980  1641495870
#
#      Author: C. J. Pickard (cjp20@cam.ac.uk)
#                Space group: Cc
#

%BLOCK LATTICE_ABC
      4.26125      4.40934     12.35837
     82.72447     80.07240     61.10489
%ENDBLOCK LATTICE_ABC

%BLOCK POSITIONS_FRAC
  Li   0.3223386  -0.5287551   0.3550378 SPIN=   0.00000
  Li   0.3513786  -0.0287551  -0.1449622 SPIN=   0.00000
  Fe  -0.1900124   0.2475094  -0.3179914 SPIN=   4.00000
  Fe  -0.2395056  -0.2524906   0.1820086 SPIN=   4.00000
   O  -0.2762140  -0.1145048   0.3542322 SPIN=   0.00000
   O  -0.4768526  -0.4563702   0.4957739 SPIN=   0.00000
   O  -0.7072657   0.1695762   0.5168934 SPIN=   0.00000
   O  -0.0694072  -0.2466604   0.5378698 SPIN=   0.00000
   S  -0.3824349  -0.1619898   0.4761923 SPIN=   0.00000
   O  -0.4635134   0.3854952  -0.1457678 SPIN=   0.00000
   O  -0.0625510   0.0436298  -0.0042261 SPIN=   0.00000
   O  -0.4792039   0.6695762   0.0168934 SPIN=   0.00000
   O  -0.7218022   0.2533396   0.0378698 SPIN=   0.00000
   S  -0.4317676   0.3380102  -0.0238077 SPIN=   0.00000
   F  -0.0011038   0.7103238  -0.2574489 SPIN=   0.00000
   F   0.0482290   0.2103238   0.2425511 SPIN=   0.00000
%ENDBLOCK POSITIONS_FRAC

# Note: total spin =   8.00

KPOINTS_MP_SPACING 0.07

%BLOCK SPECIES_POT
QC5
%ENDBLOCK SPECIES_POT

SNAP_TO_SYMMETRY
SYMMETRY_GENERATE

