#              Generated by Buildcell
#
# at 02:57:55 (GMT+1.0) 4th August 2020
# in /lustre/scratch/uccabz1/launch_tmp
# on node-c12l-034
# by uccabz1
#
# compiler GCC version 4.9.2
# options -cpp -iprefix /lustre/shared/ucl/apps/gcc/4.9.2/bin/../lib/gcc/x86_64-unknown-linux-gnu/4.9.2/ -mtune=corei7 -march=x86-64 -g -Og
#
# seed   -89796602  -480653197 -1617998968   756736893     1415742  1231449388   773323938   510412701 -1342576680  2133673498  -573770000   -35205613
#
#      Author: C. J. Pickard (cjp20@cam.ac.uk)
#                Space group: P21
#

%BLOCK LATTICE_ABC
      3.89986      5.26289      9.84736
     90.00000     90.00000     98.29087
%ENDBLOCK LATTICE_ABC

%BLOCK POSITIONS_FRAC
  Li   0.0483302  -0.2844442   0.0969559 SPIN=   0.00000
  Li  -0.0483302   0.2844442  -0.4030441 SPIN=   0.00000
  Fe  -0.4358776   0.2077356   0.0541540 SPIN=   4.00000
  Fe   0.4358776  -0.2077356  -0.4458460 SPIN=   4.00000
   O  -0.0603696   0.3033618   0.3796102 SPIN=   0.00000
   O   0.3998056   0.0433006   0.3219225 SPIN=   0.00000
   O  -0.1270244   0.0160743   0.1794574 SPIN=   0.00000
   O  -0.1631579  -0.1680239   0.4111557 SPIN=   0.00000
   S   0.0123134   0.0486782   0.3230365 SPIN=   0.00000
   O   0.0603696  -0.3033618  -0.1203898 SPIN=   0.00000
   O  -0.3998056  -0.0433006  -0.1780775 SPIN=   0.00000
   O   0.1270244  -0.0160743  -0.3205426 SPIN=   0.00000
   O   0.1631579   0.1680239  -0.0888443 SPIN=   0.00000
   S  -0.0123134  -0.0486782  -0.1769635 SPIN=   0.00000
   F  -0.4521047   0.4215181  -0.4031774 SPIN=   0.00000
   F   0.4521047  -0.4215181   0.0968226 SPIN=   0.00000
%ENDBLOCK POSITIONS_FRAC

# Note: total spin =   8.00

KPOINTS_MP_SPACING 0.07

%BLOCK SPECIES_POT
QC5
%ENDBLOCK SPECIES_POT

SNAP_TO_SYMMETRY
SYMMETRY_GENERATE

