#              Generated by Buildcell
#
# at 02:21:50 (GMT+1.0) 19th August 2020
# in /lustre/scratch/uccabz1/launch_tmp
# on node-c12g-030
# by uccabz1
#
# compiler GCC version 4.9.2
# options -cpp -iprefix /lustre/shared/ucl/apps/gcc/4.9.2/bin/../lib/gcc/x86_64-unknown-linux-gnu/4.9.2/ -mtune=corei7 -march=x86-64 -g -Og
#
# seed -1555754289 -2024627044  1660293446   -27043893 -1181900063  2039460139  1196714662  2093075332  1372006358 -1532396941  -524508519   -11178617
#
#      Author: C. J. Pickard (cjp20@cam.ac.uk)
#                Space group: P-1
#

%BLOCK LATTICE_ABC
      5.47233      5.47481      8.12909
     93.39992    104.33907    119.74865
%ENDBLOCK LATTICE_ABC

%BLOCK POSITIONS_FRAC
  Li  -0.0136076   0.3251670   0.2416901 SPIN=   0.00000
  Li   0.0136076  -0.3251670  -0.2416901 SPIN=   0.00000
  Fe   0.6685066   0.6105189   0.2972192 SPIN=   4.00000
  Fe  -0.6685066  -0.6105189  -0.2972192 SPIN=   4.00000
   O   0.2873162  -0.0310927   0.0051708 SPIN=   0.00000
   O   0.1148717   0.0326938   0.2493459 SPIN=   0.00000
   O   0.5732804   0.0191631   0.3066840 SPIN=   0.00000
   S   0.2646732  -0.1010752   0.1804255 SPIN=   0.00000
   O  -0.2873162   0.0310927  -0.0051708 SPIN=   0.00000
   O  -0.1148717  -0.0326938  -0.2493459 SPIN=   0.00000
   O  -0.5732804  -0.0191631  -0.3066840 SPIN=   0.00000
   S  -0.2646732   0.1010752  -0.1804255 SPIN=   0.00000
   O   0.0000000   0.5000000   0.0000000 SPIN=   0.00000
   O   1.0000000   1.0000000   0.5000000 SPIN=   0.00000
   F   0.5000000   0.5000000   0.5000000 SPIN=   0.00000
   F  -0.5000000  -0.5000000   0.0000000 SPIN=   0.00000
%ENDBLOCK POSITIONS_FRAC

# Note: total spin =   8.00

KPOINTS_MP_SPACING 0.07

%BLOCK SPECIES_POT
QC5
%ENDBLOCK SPECIES_POT

SNAP_TO_SYMMETRY
SYMMETRY_GENERATE

