#              Generated by Buildcell
#
# at 03:06:54 (GMT+1.0) 4th August 2020
# in /lustre/scratch/uccabz1/launch_tmp
# on node-c12g-019
# by uccabz1
#
# compiler GCC version 4.9.2
# options -cpp -iprefix /lustre/shared/ucl/apps/gcc/4.9.2/bin/../lib/gcc/x86_64-unknown-linux-gnu/4.9.2/ -mtune=corei7 -march=x86-64 -g -Og
#
# seed  -434843892   477212531  1094622742 -1236057547  1745807070  -607096815  1224951643  -915459712 -1474772314   569143865   583513281 -1263430079
#
#      Author: C. J. Pickard (cjp20@cam.ac.uk)
#                Space group: Pc
#

%BLOCK LATTICE_ABC
      4.10985      5.40235      9.02201
     90.00000     90.00000     93.21030
%ENDBLOCK LATTICE_ABC

%BLOCK POSITIONS_FRAC
  Li  -0.1046275   0.0444324   0.3788063 SPIN=   0.00000
  Li   0.3953725  -0.4555676  -0.3788063 SPIN=   0.00000
  Fe   0.3743802   0.0490038  -0.2508882 SPIN=   4.00000
  Fe  -0.1256198  -0.4509962   0.2508882 SPIN=   4.00000
   O   0.1849917   0.2657537   0.2337033 SPIN=   0.00000
   O   0.1194559   0.1666614  -0.0328211 SPIN=   0.00000
   O   0.1528975  -0.1715387   0.1506446 SPIN=   0.00000
   O   0.6419835   0.0996941   0.0933271 SPIN=   0.00000
   S   0.2748322   0.0901426   0.1112135 SPIN=   0.00000
   O  -0.3150083  -0.2342463  -0.2337033 SPIN=   0.00000
   O  -0.3805441  -0.3333386   0.0328211 SPIN=   0.00000
   O  -0.3471025  -0.6715387  -0.1506446 SPIN=   0.00000
   O   0.1419835  -0.4003059  -0.0933271 SPIN=   0.00000
   S  -0.2251678  -0.4098574  -0.1112135 SPIN=   0.00000
   F   0.0383652   0.1013802  -0.3748031 SPIN=   0.00000
   F  -0.4616348  -0.3986198   0.3748031 SPIN=   0.00000
%ENDBLOCK POSITIONS_FRAC

# Note: total spin =   8.00

KPOINTS_MP_SPACING 0.07

%BLOCK SPECIES_POT
QC5
%ENDBLOCK SPECIES_POT

SNAP_TO_SYMMETRY
SYMMETRY_GENERATE

