#              Generated by Buildcell
#
# at 23:10:42 (GMT+1.0) 18th August 2020
# in /lustre/scratch/uccabz1/launch_tmp
# on node-c12j-010
# by uccabz1
#
# compiler GCC version 4.9.2
# options -cpp -iprefix /lustre/shared/ucl/apps/gcc/4.9.2/bin/../lib/gcc/x86_64-unknown-linux-gnu/4.9.2/ -mtune=corei7 -march=x86-64 -g -Og
#
# seed  1747947934  1881219285  1195542254  -611805488  1405740368  -790241821 -1045377421  1769727621  -639160855   678339512  -512766128  1054714004
#
#      Author: C. J. Pickard (cjp20@cam.ac.uk)
#                Space group: C2
#

%BLOCK LATTICE_ABC
      3.98937      6.60836      7.96019
     89.54944     88.50715     72.43170
%ENDBLOCK LATTICE_ABC

%BLOCK POSITIONS_FRAC
  Li   0.3430004   0.3139992   0.5000000 SPIN=   0.00000
  Li   0.3322722   0.3354556  -0.0000000 SPIN=   0.00000
  Fe  -0.1055357   0.1915916  -0.2513844 SPIN=   4.00000
  Fe  -0.0860559   0.1915916   0.2513844 SPIN=   4.00000
   O   0.0158290  -0.1377514   0.2398233 SPIN=   0.00000
   O   0.4521881  -0.3910432   0.4157762 SPIN=   0.00000
   O   0.4885126  -0.4288198   0.1062063 SPIN=   0.00000
   O   0.0058758  -0.5091370   0.2680191 SPIN=   0.00000
   S   0.2406014  -0.3666878   0.2574562 SPIN=   0.00000
   O   0.1219224  -0.1377514  -0.2398233 SPIN=   0.00000
   O  -0.0611448  -0.3910432  -0.4157762 SPIN=   0.00000
   O  -0.0596928  -0.4288198  -0.1062063 SPIN=   0.00000
   O   0.5032612  -0.5091370  -0.2680191 SPIN=   0.00000
   S   0.1260865  -0.3666878  -0.2574562 SPIN=   0.00000
   F   0.4866355   0.0267290   0.5000000 SPIN=   0.00000
   F   0.4758223   0.0483554   0.0000000 SPIN=   0.00000
%ENDBLOCK POSITIONS_FRAC

# Note: total spin =   8.00

KPOINTS_MP_SPACING 0.07

%BLOCK SPECIES_POT
QC5
%ENDBLOCK SPECIES_POT

SNAP_TO_SYMMETRY
SYMMETRY_GENERATE

