#              Generated by Buildcell
#
# at 03:43:04 (GMT+1.0) 4th August 2020
# in /lustre/scratch/uccabz1/launch_tmp
# on node-c12p-019
# by uccabz1
#
# compiler GCC version 4.9.2
# options -cpp -iprefix /lustre/shared/ucl/apps/gcc/4.9.2/bin/../lib/gcc/x86_64-unknown-linux-gnu/4.9.2/ -mtune=corei7 -march=x86-64 -g -Og
#
# seed   906170195  1492564482  -970123803  1915419617  1174618476 -1237073256   761840647   219305988   913774162 -1150465775  -783559471  -687590876
#
#      Author: C. J. Pickard (cjp20@cam.ac.uk)
#                Space group: Cc
#

%BLOCK LATTICE_ABC
      4.46822      4.46822     11.55864
     90.88882     90.88882    119.87826
%ENDBLOCK LATTICE_ABC

%BLOCK POSITIONS_FRAC
  Li   0.3100534  -0.3028607  -0.0970156 SPIN=   0.00000
  Li  -0.3028607   0.3100534   0.4029844 SPIN=   0.00000
  Fe   0.1482409   0.0620418  -0.2871600 SPIN=   4.00000
  Fe   0.0620418   0.1482409   0.2128400 SPIN=   4.00000
   O  -0.5686673   0.1866741  -0.0548400 SPIN=   0.00000
   O   0.0019492   0.4098552   0.0433447 SPIN=   0.00000
   O  -0.4507608   0.4884308   0.1359952 SPIN=   0.00000
   O  -0.1652345   0.8164905  -0.0379178 SPIN=   0.00000
   S  -0.2956783   0.4753627   0.0216455 SPIN=   0.00000
   O   0.1866741  -0.5686673  -0.5548400 SPIN=   0.00000
   O   0.4098552   0.0019492  -0.4566553 SPIN=   0.00000
   O   0.4884308  -0.4507608  -0.3640048 SPIN=   0.00000
   O   0.8164905  -0.1652345  -0.5379178 SPIN=   0.00000
   S   0.4753627  -0.2956783  -0.4783545 SPIN=   0.00000
   F   0.3168733  -0.1132688   0.2436387 SPIN=   0.00000
   F  -0.1132688   0.3168733  -0.2563613 SPIN=   0.00000
%ENDBLOCK POSITIONS_FRAC

# Note: total spin =   8.00

KPOINTS_MP_SPACING 0.07

%BLOCK SPECIES_POT
QC5
%ENDBLOCK SPECIES_POT

SNAP_TO_SYMMETRY
SYMMETRY_GENERATE

