#              Generated by Buildcell
#
# at 02:09:39 (GMT+1.0) 19th August 2020
# in /scratch/scratch/uccabz1/launch_tmp
# on node-k10b-027
# by uccabz1
#
# compiler GCC version 4.9.2
# options -cpp -iprefix /scratch/UCL/applications/gcc/4.9.2/bin/../lib/gcc/x86_64-unknown-linux-gnu/4.9.2/ -mtune=corei7 -march=x86-64 -g -O2
#
# seed   942344453   445481523  -433129345  1269269274 -1017631012   569837538 -1778765487  1840119778  -877187818 -1934333380   -26051212 -1182744449
#
#      Author: C. J. Pickard (cjp20@cam.ac.uk)
#                Space group: Cc
#

%BLOCK LATTICE_ABC
      6.36203      6.36203      6.48136
    100.63105    115.93446    111.50051
%ENDBLOCK LATTICE_ABC

%BLOCK POSITIONS_FRAC
  Li  -0.2640202   0.2202752   0.2327190 SPIN=   0.00000
  Li   0.0124438  -0.0032608  -0.2672810 SPIN=   0.00000
  Fe   0.1812577  -0.3929651  -0.2278690 SPIN=   4.00000
  Fe   0.1650962   0.0908733   0.2721310 SPIN=   4.00000
   O  -0.4646418  -0.2255007   0.3427645 SPIN=   0.00000
   O  -0.6159590  -0.6455351   0.0656219 SPIN=   0.00000
   O  -0.2640094  -0.4670768   0.5206299 SPIN=   0.00000
   O  -0.1574375  -0.2981583   0.2421287 SPIN=   0.00000
   S  -0.3755119  -0.4090677   0.2927863 SPIN=   0.00000
   O  -0.4317347   0.3074063  -0.1572355 SPIN=   0.00000
   O  -0.2888430   0.1815808  -0.4343781 SPIN=   0.00000
   O  -0.0122932   0.2846393   0.0206299 SPIN=   0.00000
   O  -0.4597129  -0.1004337  -0.2578713 SPIN=   0.00000
   S  -0.2981460   0.1682982  -0.2072137 SPIN=   0.00000
   F   0.1572951   0.3672836  -0.4846086 SPIN=   0.00000
   F   0.1481078  -0.1419037   0.0153914 SPIN=   0.00000
%ENDBLOCK POSITIONS_FRAC

# Note: total spin =   8.00

KPOINTS_MP_SPACING 0.07

%BLOCK SPECIES_POT
QC5
%ENDBLOCK SPECIES_POT

SNAP_TO_SYMMETRY
SYMMETRY_GENERATE

