#              Generated by Buildcell
#
# at 04:32:31 (GMT+1.0) 4th August 2020
# in /lustre/scratch/uccabz1/launch_tmp
# on node-c12a-007
# by uccabz1
#
# compiler GCC version 4.9.2
# options -cpp -iprefix /lustre/shared/ucl/apps/gcc/4.9.2/bin/../lib/gcc/x86_64-unknown-linux-gnu/4.9.2/ -mtune=corei7 -march=x86-64 -g -Og
#
# seed  1719433866  -880180060   128960002   876110266  1865537085  -985184498  2075606948 -1175069346    15780752  -278696555  -442857306  1442494886
#
#      Author: C. J. Pickard (cjp20@cam.ac.uk)
#                Space group: Pcc2
#

%BLOCK LATTICE_ABC
      3.97524      6.38826      7.87561
     90.00000     90.00000     90.00000
%ENDBLOCK LATTICE_ABC

%BLOCK POSITIONS_FRAC
  Li  -0.0000000  -0.5000000   0.2567185 SPIN=   0.00000
  Li   0.0000000   0.5000000  -0.2432815 SPIN=   0.00000
  Fe  -0.5000000  -0.0000000   0.1310507 SPIN=   4.00000
  Fe  -0.5000000   0.0000000  -0.3689493 SPIN=   4.00000
   O   0.3438140  -0.2667832  -0.2368112 SPIN=   0.00000
   O   0.2249283  -0.3548834   0.0632594 SPIN=   0.00000
   O  -0.3438140   0.2667832  -0.2368112 SPIN=   0.00000
   O  -0.2249283   0.3548834   0.0632594 SPIN=   0.00000
   O  -0.3438140  -0.2667832   0.2631888 SPIN=   0.00000
   O  -0.2249283  -0.3548834   0.5632594 SPIN=   0.00000
   O   0.3438140   0.2667832   0.2631888 SPIN=   0.00000
   O   0.2249283   0.3548834   0.5632594 SPIN=   0.00000
   S   0.5000000  -0.5000000   0.0067240 SPIN=   0.00000
   S  -0.5000000   0.5000000  -0.4932760 SPIN=   0.00000
   F  -0.0000000  -0.0000000  -0.0478619 SPIN=   0.00000
   F  -0.0000000  -0.0000000   0.4521381 SPIN=   0.00000
%ENDBLOCK POSITIONS_FRAC

# Note: total spin =   8.00

KPOINTS_MP_SPACING 0.07

%BLOCK SPECIES_POT
QC5
%ENDBLOCK SPECIES_POT

SNAP_TO_SYMMETRY
SYMMETRY_GENERATE

