#              Generated by Buildcell
#
# at 01:42:53 (GMT+1.0) 4th August 2020
# in /lustre/scratch/uccabz1/launch_tmp
# on node-c12h-014
# by uccabz1
#
# compiler GCC version 4.9.2
# options -cpp -iprefix /lustre/shared/ucl/apps/gcc/4.9.2/bin/../lib/gcc/x86_64-unknown-linux-gnu/4.9.2/ -mtune=corei7 -march=x86-64 -g -Og
#
# seed  1080359329  1150287705 -1094387850   -94723596   546714978  -231248054  -409741956  1978074811  1820946024  1186180372   631154005 -1489298433
#
#      Author: C. J. Pickard (cjp20@cam.ac.uk)
#                Space group: P-1
#

%BLOCK LATTICE_ABC
      3.92988      5.94076      8.87994
     80.77069     77.78718     88.13906
%ENDBLOCK LATTICE_ABC

%BLOCK POSITIONS_FRAC
  Li  -0.7588915  -0.2404792   0.4387471 SPIN=   0.00000
  Li   0.7588915   0.2404792  -0.4387471 SPIN=   0.00000
  Fe  -0.1458732  -0.2115884   0.1792385 SPIN=   4.00000
  Fe   0.1458732   0.2115884  -0.1792385 SPIN=   4.00000
   O  -0.4158724  -0.0643586  -0.1742024 SPIN=   0.00000
   O   0.0313343  -0.2842269  -0.3306588 SPIN=   0.00000
   O  -0.4496388  -0.4856655  -0.1344620 SPIN=   0.00000
   O   0.0127597  -0.2966838  -0.0491163 SPIN=   0.00000
   S  -0.2053543  -0.2827337  -0.1721099 SPIN=   0.00000
   O   0.4158724   0.0643586   0.1742024 SPIN=   0.00000
   O  -0.0313343   0.2842269   0.3306588 SPIN=   0.00000
   O   0.4496388   0.4856655   0.1344620 SPIN=   0.00000
   O  -0.0127597   0.2966838   0.0491163 SPIN=   0.00000
   S   0.2053543   0.2827337   0.1721099 SPIN=   0.00000
   F  -0.2781927  -0.2431516   0.4070521 SPIN=   0.00000
   F   0.2781927   0.2431516  -0.4070521 SPIN=   0.00000
%ENDBLOCK POSITIONS_FRAC

# Note: total spin =   8.00

KPOINTS_MP_SPACING 0.07

%BLOCK SPECIES_POT
QC5
%ENDBLOCK SPECIES_POT

SNAP_TO_SYMMETRY
SYMMETRY_GENERATE

