#              Generated by Buildcell
#
# at 03:52:24 (GMT+1.0) 4th August 2020
# in /lustre/scratch/uccabz1/launch_tmp
# on node-c12d-002
# by uccabz1
#
# compiler GCC version 4.9.2
# options -cpp -iprefix /lustre/shared/ucl/apps/gcc/4.9.2/bin/../lib/gcc/x86_64-unknown-linux-gnu/4.9.2/ -mtune=corei7 -march=x86-64 -g -Og
#
# seed  2063857089 -1997063839  1861282615  1986814762   371951093    27899426   816419004  1232282905    46094417  -945038149  -225823567  2107473491
#
#      Author: C. J. Pickard (cjp20@cam.ac.uk)
#                Space group: P-1
#

%BLOCK LATTICE_ABC
      4.18134      5.54665      9.02243
     77.13489     83.85139     79.33488
%ENDBLOCK LATTICE_ABC

%BLOCK POSITIONS_FRAC
  Li  -0.0000000   0.5000000   0.0000000 SPIN=   0.00000
  Li   0.5000000   0.5000000  -0.5000000 SPIN=   0.00000
  Fe   0.4418518  -0.1486799  -0.1778824 SPIN=   4.00000
  Fe  -0.4418518   0.1486799   0.1778824 SPIN=   4.00000
   O   0.0690612  -0.6551015   0.3732026 SPIN=   0.00000
   O  -0.3073017  -0.2903662   0.2419881 SPIN=   0.00000
   O   0.2630855  -0.3827751   0.1372008 SPIN=   0.00000
   O   0.1450390  -0.2242514   0.3762651 SPIN=   0.00000
   S   0.0424710  -0.3881236   0.2821642 SPIN=   0.00000
   O  -0.0690612   0.6551015  -0.3732026 SPIN=   0.00000
   O   0.3073017   0.2903662  -0.2419881 SPIN=   0.00000
   O  -0.2630855   0.3827751  -0.1372008 SPIN=   0.00000
   O  -0.1450390   0.2242514  -0.3762651 SPIN=   0.00000
   S  -0.0424710   0.3881236  -0.2821642 SPIN=   0.00000
   F  -0.5000000   1.0000000  -0.5000000 SPIN=   0.00000
   F   0.5000000   0.0000000   0.0000000 SPIN=   0.00000
%ENDBLOCK POSITIONS_FRAC

# Note: total spin =   8.00

KPOINTS_MP_SPACING 0.07

%BLOCK SPECIES_POT
QC5
%ENDBLOCK SPECIES_POT

SNAP_TO_SYMMETRY
SYMMETRY_GENERATE

