#              Generated by Buildcell
#
# at 05:20:42 (GMT+1.0) 4th August 2020
# in /lustre/scratch/uccabz1/launch_tmp
# on node-c12f-022
# by uccabz1
#
# compiler GCC version 4.9.2
# options -cpp -iprefix /lustre/shared/ucl/apps/gcc/4.9.2/bin/../lib/gcc/x86_64-unknown-linux-gnu/4.9.2/ -mtune=corei7 -march=x86-64 -g -Og
#
# seed   819071441  1564700150 -1978016895 -1742474127   664212932   770600267 -1226821038   745330249  2013643930   637601634   198811328   626647567
#
#      Author: C. J. Pickard (cjp20@cam.ac.uk)
#                Space group: Pnc2
#

%BLOCK LATTICE_ABC
      4.26140      4.50967     10.40717
     90.00000     90.00000     90.00000
%ENDBLOCK LATTICE_ABC

%BLOCK POSITIONS_FRAC
  Li   0.0000000  -0.5000000   0.0473803 SPIN=   0.00000
  Li   0.0000000  -0.0000000  -0.4526197 SPIN=   0.00000
  Fe   0.0000000   0.0000000   0.2583660 SPIN=   4.00000
  Fe  -0.0000000  -0.5000000  -0.2416340 SPIN=   4.00000
   O   0.7310494   0.3519277  -0.0860990 SPIN=   0.00000
   O   0.2086616   0.1617943  -0.0227793 SPIN=   0.00000
   O  -0.7310494  -0.3519277  -0.0860990 SPIN=   0.00000
   O  -0.2086616  -0.1617943  -0.0227793 SPIN=   0.00000
   O   0.7310494   0.1480723   0.4139010 SPIN=   0.00000
   O   0.2086616   0.3382057   0.4772207 SPIN=   0.00000
   O  -0.7310494  -0.1480723   0.4139010 SPIN=   0.00000
   O  -0.2086616  -0.3382057   0.4772207 SPIN=   0.00000
   S  -0.5000000   0.0000000   0.0091634 SPIN=   0.00000
   S  -0.5000000  -0.5000000  -0.4908366 SPIN=   0.00000
   F  -0.0000000   0.0000000  -0.2745935 SPIN=   0.00000
   F  -0.0000000  -0.5000000   0.2254065 SPIN=   0.00000
%ENDBLOCK POSITIONS_FRAC

# Note: total spin =   8.00

KPOINTS_MP_SPACING 0.07

%BLOCK SPECIES_POT
QC5
%ENDBLOCK SPECIES_POT

SNAP_TO_SYMMETRY
SYMMETRY_GENERATE

