#              Generated by Buildcell
#
# at 02:48:26 (GMT+1.0) 19th August 2020
# in /lustre/scratch/uccabz1/launch_tmp
# on node-c12m-026
# by uccabz1
#
# compiler GCC version 4.9.2
# options -cpp -iprefix /lustre/shared/ucl/apps/gcc/4.9.2/bin/../lib/gcc/x86_64-unknown-linux-gnu/4.9.2/ -mtune=corei7 -march=x86-64 -g -Og
#
# seed  1737684147  1627664058  1873095763 -2063102154   787888260  1641167410  1615463546    23512377 -2065836202 -1016218991  -232256577   701869891
#
#      Author: C. J. Pickard (cjp20@cam.ac.uk)
#                Space group: P-1
#

%BLOCK LATTICE_ABC
      4.15327      5.54494      9.03413
     95.58267     90.08278    104.92942
%ENDBLOCK LATTICE_ABC

%BLOCK POSITIONS_FRAC
  Li  -0.3214722   0.2960539  -0.3910978 SPIN=   0.00000
  Li   0.3214722  -0.2960539   0.3910978 SPIN=   0.00000
  Fe  -0.1870399  -0.3184127   0.1445670 SPIN=   4.00000
  Fe   0.1870399   0.3184127  -0.1445670 SPIN=   4.00000
   O  -0.3195679  -0.2534388  -0.3982163 SPIN=   0.00000
   O   0.0681086  -0.1581133  -0.1795058 SPIN=   0.00000
   O   0.2665925  -0.0143572  -0.4221064 SPIN=   0.00000
   O   0.1343932  -0.4661437  -0.3869099 SPIN=   0.00000
   S   0.0373816  -0.2230133  -0.3466846 SPIN=   0.00000
   O   0.3195679   0.2534388   0.3982163 SPIN=   0.00000
   O  -0.0681086   0.1581133   0.1795058 SPIN=   0.00000
   O  -0.2665925   0.0143572   0.4221064 SPIN=   0.00000
   O  -0.1343932   0.4661437   0.3869099 SPIN=   0.00000
   S  -0.0373816   0.2230133   0.3466846 SPIN=   0.00000
   F   0.3300889  -0.2548320   0.1544812 SPIN=   0.00000
   F  -0.3300889   0.2548320  -0.1544812 SPIN=   0.00000
%ENDBLOCK POSITIONS_FRAC

# Note: total spin =   8.00

KPOINTS_MP_SPACING 0.07

%BLOCK SPECIES_POT
QC5
%ENDBLOCK SPECIES_POT

SNAP_TO_SYMMETRY
SYMMETRY_GENERATE

