#              Generated by Buildcell
#
# at 00:28:27 (GMT+1.0) 19th August 2020
# in /lustre/scratch/uccabz1/launch_tmp
# on node-c12b-022
# by uccabz1
#
# compiler GCC version 4.9.2
# options -cpp -iprefix /lustre/shared/ucl/apps/gcc/4.9.2/bin/../lib/gcc/x86_64-unknown-linux-gnu/4.9.2/ -mtune=corei7 -march=x86-64 -g -Og
#
# seed   380475629   173435630  1648651564  1593898986  -437254129 -2048529572  1615150528  -235206622  -961738150  -477405719  -821170543   936086841
#
#      Author: C. J. Pickard (cjp20@cam.ac.uk)
#                Space group: P21
#

%BLOCK LATTICE_ABC
      4.20817      6.38426      7.45839
     90.00000     93.51853     90.00000
%ENDBLOCK LATTICE_ABC

%BLOCK POSITIONS_FRAC
  Li  -0.1164378  -0.1214639  -0.2893168 SPIN=   0.00000
  Li   0.1164378   0.3785361   0.2893168 SPIN=   0.00000
  Fe   0.2457579   0.1663381  -0.0475748 SPIN=   4.00000
  Fe  -0.2457579  -0.3336619   0.0475748 SPIN=   4.00000
   O   0.3788119  -0.1469982  -0.3025842 SPIN=   0.00000
   O   0.2248367  -0.5125959  -0.2397015 SPIN=   0.00000
   O   0.7122447  -0.4407519  -0.3988417 SPIN=   0.00000
   O   0.1818811  -0.3782705  -0.5515139 SPIN=   0.00000
   S   0.3744436  -0.3696541  -0.3731603 SPIN=   0.00000
   O  -0.3788119   0.3530018   0.3025842 SPIN=   0.00000
   O  -0.2248367  -0.0125959   0.2397015 SPIN=   0.00000
   O  -0.7122447   0.0592481   0.3988417 SPIN=   0.00000
   O  -0.1818811   0.1217295   0.5515139 SPIN=   0.00000
   S  -0.3744436   0.1303459   0.3731603 SPIN=   0.00000
   F  -0.2578607   0.2406919  -0.0808065 SPIN=   0.00000
   F   0.2578607  -0.2593081   0.0808065 SPIN=   0.00000
%ENDBLOCK POSITIONS_FRAC

# Note: total spin =   8.00

KPOINTS_MP_SPACING 0.07

%BLOCK SPECIES_POT
QC5
%ENDBLOCK SPECIES_POT

SNAP_TO_SYMMETRY
SYMMETRY_GENERATE

