#              Generated by Buildcell
#
# at 04:50:13 (GMT+1.0) 4th August 2020
# in /lustre/scratch/uccabz1/launch_tmp
# on node-c12c-001
# by uccabz1
#
# compiler GCC version 4.9.2
# options -cpp -iprefix /lustre/shared/ucl/apps/gcc/4.9.2/bin/../lib/gcc/x86_64-unknown-linux-gnu/4.9.2/ -mtune=corei7 -march=x86-64 -g -Og
#
# seed   883988165   -96384620 -1327076772  -951528105   -29962336   860185943   589850155  2040762149 -1999191872   216644881 -1989578481  1421632573
#
#      Author: C. J. Pickard (cjp20@cam.ac.uk)
#                Space group: Cc
#

%BLOCK LATTICE_ABC
      5.05450      6.18154      7.26477
    108.68332    110.35755     90.00000
%ENDBLOCK LATTICE_ABC

%BLOCK POSITIONS_FRAC
  Li   0.4312690  -0.4720059   0.3271954 SPIN=   0.00000
  Li  -0.1040736   0.0279941   0.3271954 SPIN=   0.00000
  Fe  -0.4721320   0.2036526  -0.4089215 SPIN=   4.00000
  Fe   0.0632105  -0.2963474  -0.4089215 SPIN=   4.00000
   O  -0.0937419   0.2500597   0.1702627 SPIN=   0.00000
   O  -0.1099347   0.4506451  -0.0779359 SPIN=   0.00000
   O  -0.1170200   0.6698014   0.2709845 SPIN=   0.00000
   O  -0.5362754   0.3980637   0.0042304 SPIN=   0.00000
   S  -0.2142430   0.4421425   0.0918854 SPIN=   0.00000
   O   0.2640046  -0.2499403   0.1702627 SPIN=   0.00000
   O   0.0319988  -0.0493549  -0.0779359 SPIN=   0.00000
   O   0.3880045   0.1698014   0.2709845 SPIN=   0.00000
   O   0.5405058  -0.1019363   0.0042304 SPIN=   0.00000
   S   0.3061284  -0.0578575   0.0918854 SPIN=   0.00000
   F   0.0558688   0.3689939  -0.3882624 SPIN=   0.00000
   F  -0.4441312  -0.1310061  -0.3882624 SPIN=   0.00000
%ENDBLOCK POSITIONS_FRAC

# Note: total spin =   8.00

KPOINTS_MP_SPACING 0.07

%BLOCK SPECIES_POT
QC5
%ENDBLOCK SPECIES_POT

SNAP_TO_SYMMETRY
SYMMETRY_GENERATE

