#              Generated by Buildcell
#
# at 02:13:33 (GMT+1.0) 19th August 2020
# in /lustre/scratch/uccabz1/launch_tmp
# on node-c12k-012
# by uccabz1
#
# compiler GCC version 4.9.2
# options -cpp -iprefix /lustre/shared/ucl/apps/gcc/4.9.2/bin/../lib/gcc/x86_64-unknown-linux-gnu/4.9.2/ -mtune=corei7 -march=x86-64 -g -Og
#
# seed -1944324045 -1613205528 -1326426372     2638640  1426501399   815471354  2061275388 -2138098763  2039149611    65480523  -321208359   -87020718
#
#      Author: C. J. Pickard (cjp20@cam.ac.uk)
#                Space group: Pcc2
#

%BLOCK LATTICE_ABC
      3.94133      6.40289      7.92522
     90.00000     90.00000     90.00000
%ENDBLOCK LATTICE_ABC

%BLOCK POSITIONS_FRAC
  Li  -0.0000000  -0.5000000  -0.0400294 SPIN=   0.00000
  Li  -0.0000000  -0.5000000   0.4599706 SPIN=   0.00000
  Fe  -0.0000000   0.0000000  -0.2022972 SPIN=   4.00000
  Fe  -0.0000000   0.0000000   0.2977028 SPIN=   4.00000
   O  -0.1962964  -0.3262136  -0.3337532 SPIN=   0.00000
   O  -0.3009405  -0.6710782  -0.2026807 SPIN=   0.00000
   O   0.1962964   0.3262136  -0.3337532 SPIN=   0.00000
   O   0.3009405   0.6710782  -0.2026807 SPIN=   0.00000
   O   0.1962964  -0.3262136   0.1662468 SPIN=   0.00000
   O   0.3009405  -0.6710782   0.2973193 SPIN=   0.00000
   O  -0.1962964   0.3262136   0.1662468 SPIN=   0.00000
   O  -0.3009405   0.6710782   0.2973193 SPIN=   0.00000
   S   0.5000000   0.5000000   0.2152581 SPIN=   0.00000
   S   0.5000000   0.5000000  -0.2847419 SPIN=   0.00000
   F   0.5000000   0.0000000  -0.0020065 SPIN=   0.00000
   F   0.5000000   0.0000000   0.4979935 SPIN=   0.00000
%ENDBLOCK POSITIONS_FRAC

# Note: total spin =   8.00

KPOINTS_MP_SPACING 0.07

%BLOCK SPECIES_POT
QC5
%ENDBLOCK SPECIES_POT

SNAP_TO_SYMMETRY
SYMMETRY_GENERATE

