#              Generated by Buildcell
#
# at 21:36:04 (GMT+1.0) 18th August 2020
# in /lustre/scratch/uccabz1/launch_tmp
# on node-c12f-029
# by uccabz1
#
# compiler GCC version 4.9.2
# options -cpp -iprefix /lustre/shared/ucl/apps/gcc/4.9.2/bin/../lib/gcc/x86_64-unknown-linux-gnu/4.9.2/ -mtune=corei7 -march=x86-64 -g -Og
#
# seed   503170264   187876224  -596854418  -630178426   562740351 -1715680712 -1408942478  1060734981 -2011063827  1841547223 -1245669660   380205615
#
#      Author: C. J. Pickard (cjp20@cam.ac.uk)
#                Space group: Cm
#

%BLOCK LATTICE_ABC
      3.90778      7.65788      7.65788
     62.16467     82.06692     82.06692
%ENDBLOCK LATTICE_ABC

%BLOCK POSITIONS_FRAC
  Li  -0.0012937   0.1745374  -0.3281408 SPIN=   0.00000
  Li  -0.0012937  -0.3281408   0.1745374 SPIN=   0.00000
  Fe   0.4989978   0.0441289   0.0441289 SPIN=   4.63753
  Fe   0.3699200  -0.2243784  -0.2243784 SPIN=   3.36247
   O  -0.1210408   0.3982356   0.1043279 SPIN=   0.00000
   O  -0.0698860   0.2076239  -0.0861301 SPIN=   0.00000
   O   0.2857265   0.4902502  -0.1969563 SPIN=   0.00000
   S  -0.0631433   0.4116467  -0.1012341 SPIN=   0.00000
   O  -0.1210408   0.1043279   0.3982356 SPIN=   0.00000
   O  -0.0698860  -0.0861301   0.2076239 SPIN=   0.00000
   O   0.2857265  -0.1969563   0.4902502 SPIN=   0.00000
   S  -0.0631433  -0.1012341   0.4116467 SPIN=   0.00000
   O   0.1847433   0.3824825   0.3824825 SPIN=   0.00000
   O   0.4046258   0.2054915   0.2054915 SPIN=   0.00000
   F  -0.4742269  -0.3137288   0.1509768 SPIN=   0.00000
   F  -0.4742269   0.1509768  -0.3137288 SPIN=   0.00000
%ENDBLOCK POSITIONS_FRAC

# Note: total spin =   8.00

KPOINTS_MP_SPACING 0.07

%BLOCK SPECIES_POT
QC5
%ENDBLOCK SPECIES_POT

SNAP_TO_SYMMETRY
SYMMETRY_GENERATE

