#              Generated by Buildcell
#
# at 01:58:24 (GMT+1.0) 19th August 2020
# in /lustre/scratch/uccabz1/launch_tmp
# on node-c12p-024
# by uccabz1
#
# compiler GCC version 4.9.2
# options -cpp -iprefix /lustre/shared/ucl/apps/gcc/4.9.2/bin/../lib/gcc/x86_64-unknown-linux-gnu/4.9.2/ -mtune=corei7 -march=x86-64 -g -Og
#
# seed -2091983956 -1342710982   426880916   701386293   -84738618  -675938616   135399628   602907148  -678563329 -1888919589   495913199  1480986954
#
#      Author: C. J. Pickard (cjp20@cam.ac.uk)
#                Space group: Pc
#

%BLOCK LATTICE_ABC
      4.32532      6.80524      6.93519
     90.00000    101.55340     90.00000
%ENDBLOCK LATTICE_ABC

%BLOCK POSITIONS_FRAC
  Li  -0.4003774  -0.2862514   0.2874870 SPIN=   0.00000
  Li   0.0996226   0.2862514   0.2874870 SPIN=   0.00000
  Fe   0.3789030  -0.2763006  -0.3350832 SPIN=   4.00000
  Fe  -0.1210970   0.2763006  -0.3350832 SPIN=   4.00000
   O   0.1885671  -0.1399627  -0.1057727 SPIN=   0.00000
   O   0.0276393  -0.0865464   0.2131396 SPIN=   0.00000
   O   0.1885514  -0.4180207   0.1242281 SPIN=   0.00000
   O  -0.3171485  -0.2757289  -0.0501555 SPIN=   0.00000
   S   0.0219023  -0.2300647   0.0453599 SPIN=   0.00000
   O  -0.3114329   0.1399627  -0.1057727 SPIN=   0.00000
   O  -0.4723607   0.0865464   0.2131396 SPIN=   0.00000
   O  -0.3114486   0.4180207   0.1242281 SPIN=   0.00000
   O  -0.8171485   0.2757289  -0.0501555 SPIN=   0.00000
   S  -0.4780977   0.2300647   0.0453599 SPIN=   0.00000
   F   0.3905836   0.2602115  -0.4651462 SPIN=   0.00000
   F  -0.1094164  -0.2602115  -0.4651462 SPIN=   0.00000
%ENDBLOCK POSITIONS_FRAC

# Note: total spin =   8.00

KPOINTS_MP_SPACING 0.07

%BLOCK SPECIES_POT
QC5
%ENDBLOCK SPECIES_POT

SNAP_TO_SYMMETRY
SYMMETRY_GENERATE

