#              Generated by Buildcell
#
# at 05:06:07 (GMT+1.0) 4th August 2020
# in /lustre/scratch/uccabz1/launch_tmp
# on node-c12c-006
# by uccabz1
#
# compiler GCC version 4.9.2
# options -cpp -iprefix /lustre/shared/ucl/apps/gcc/4.9.2/bin/../lib/gcc/x86_64-unknown-linux-gnu/4.9.2/ -mtune=corei7 -march=x86-64 -g -Og
#
# seed   826386551 -1727502346   683997204   665239268 -1201691853  1764445359   572137770 -1839078057 -1312969681  -202470413   756486758  -175452955
#
#      Author: C. J. Pickard (cjp20@cam.ac.uk)
#                Space group: Cc
#

%BLOCK LATTICE_ABC
      5.94501      6.48901      6.48901
     72.97571     63.78748     63.78748
%ENDBLOCK LATTICE_ABC

%BLOCK POSITIONS_FRAC
  Li  -0.3540540   0.4353387   0.1769656 SPIN=   0.00000
  Li  -0.8540540   0.1769656   0.4353387 SPIN=   0.00000
  Fe   0.0824191  -0.2641213   0.4468564 SPIN=   4.00000
  Fe  -0.4175809   0.4468564  -0.2641213 SPIN=   4.00000
   O  -0.2625833  -0.3243795   0.3640778 SPIN=   0.00000
   O  -0.4025460   0.0973200   0.2387432 SPIN=   0.00000
   O  -0.6122129  -0.1314079   0.1893581 SPIN=   0.00000
   O  -0.1378432  -0.1781681  -0.0531907 SPIN=   0.00000
   S  -0.3537963  -0.1341589   0.1847471 SPIN=   0.00000
   O   0.2374167   0.3640778  -0.3243795 SPIN=   0.00000
   O   0.0974540   0.2387432   0.0973200 SPIN=   0.00000
   O  -0.1122129   0.1893581  -0.1314079 SPIN=   0.00000
   O   0.3621568  -0.0531907  -0.1781681 SPIN=   0.00000
   S   0.1462037   0.1847471  -0.1341589 SPIN=   0.00000
   F   0.8682981   0.0672818  -0.4844281 SPIN=   0.00000
   F   0.3682981  -0.4844281   0.0672818 SPIN=   0.00000
%ENDBLOCK POSITIONS_FRAC

# Note: total spin =   8.00

KPOINTS_MP_SPACING 0.07

%BLOCK SPECIES_POT
QC5
%ENDBLOCK SPECIES_POT

SNAP_TO_SYMMETRY
SYMMETRY_GENERATE

