#              Generated by Buildcell
#
# at 21:02:33 (GMT+1.0) 18th August 2020
# in /lustre/scratch/uccabz1/launch_tmp
# on node-c12a-035
# by uccabz1
#
# compiler GCC version 4.9.2
# options -cpp -iprefix /lustre/shared/ucl/apps/gcc/4.9.2/bin/../lib/gcc/x86_64-unknown-linux-gnu/4.9.2/ -mtune=corei7 -march=x86-64 -g -Og
#
# seed -1511321695 -1304183885   697040433   939393377  -370272502   932848431  1014751528   856288726  1782459437   682542926 -1335679917  2037728003
#
#      Author: C. J. Pickard (cjp20@cam.ac.uk)
#                Space group: Cm
#

%BLOCK LATTICE_ABC
      3.95201      7.16191      7.16191
     86.14953     83.75840     83.75840
%ENDBLOCK LATTICE_ABC

%BLOCK POSITIONS_FRAC
  Li  -0.3939346  -0.0687201   0.4289177 SPIN=   0.00000
  Li  -0.3939346   0.4289177  -0.0687201 SPIN=   0.00000
  Fe   0.4576753  -0.4810387  -0.4810387 SPIN=   0.81426
  Fe   0.0938480   0.1619358   0.1619358 SPIN=   7.18574
   O   0.1178406  -0.1788563   0.2307373 SPIN=   0.00000
   O  -0.2426834  -0.3538878   0.0573799 SPIN=   0.00000
   O   0.2244835  -0.5254056   0.2236995 SPIN=   0.00000
   S   0.1151994  -0.3458855   0.1119005 SPIN=   0.00000
   O   0.1178406   0.2307373  -0.1788563 SPIN=   0.00000
   O  -0.2426834   0.0573799  -0.3538878 SPIN=   0.00000
   O   0.2244835   0.2236995  -0.5254056 SPIN=   0.00000
   S   0.1151994   0.1119005  -0.3458855 SPIN=   0.00000
   O  -0.2854077   0.3238124   0.3238124 SPIN=   0.00000
   O   0.1704180  -0.1361921  -0.1361921 SPIN=   0.00000
   F  -0.2245489  -0.3391384  -0.3391384 SPIN=   0.00000
   F  -0.4138954   0.0636409   0.0636409 SPIN=   0.00000
%ENDBLOCK POSITIONS_FRAC

# Note: total spin =   8.00

KPOINTS_MP_SPACING 0.07

%BLOCK SPECIES_POT
QC5
%ENDBLOCK SPECIES_POT

SNAP_TO_SYMMETRY
SYMMETRY_GENERATE

