#              Generated by Buildcell
#
# at 05:45:54 (GMT+1.0) 4th August 2020
# in /lustre/scratch/uccabz1/launch_tmp
# on node-c12g-016
# by uccabz1
#
# compiler GCC version 4.9.2
# options -cpp -iprefix /lustre/shared/ucl/apps/gcc/4.9.2/bin/../lib/gcc/x86_64-unknown-linux-gnu/4.9.2/ -mtune=corei7 -march=x86-64 -g -Og
#
# seed   454139432  1283163651  1026744134  1618519530 -2106713761  -211006268  -738139372   825711498  1628337063   221511715  1915246415 -1972402316
#
#      Author: C. J. Pickard (cjp20@cam.ac.uk)
#                Space group: C2
#

%BLOCK LATTICE_ABC
      3.97652      7.74914      7.74914
    113.41284    102.96113    102.96113
%ENDBLOCK LATTICE_ABC

%BLOCK POSITIONS_FRAC
  Li  -0.5000000  -0.4631729  -0.5368271 SPIN=   0.00000
  Li   0.0000000  -0.2005722   0.2005722 SPIN=   0.00000
  Fe  -0.0000000   0.0199640  -0.0199640 SPIN=   1.53685
  Fe   1.0000000   0.3244617   0.6755383 SPIN=   6.46315
   O  -0.6998892   0.2400663  -0.0669438 SPIN=   0.00000
   O  -0.2297329   0.3926747   0.2718324 SPIN=   0.00000
   O  -0.4555842   0.6088410   0.1468284 SPIN=   0.00000
   O  -0.0585693   0.4361091  -0.0002000 SPIN=   0.00000
   S  -0.3609439   0.4194228   0.0878792 SPIN=   0.00000
   O  -0.3001108   0.0669438  -0.2400663 SPIN=   0.00000
   O  -0.7702671  -0.2718324  -0.3926747 SPIN=   0.00000
   O  -0.5444158  -0.1468284  -0.6088410 SPIN=   0.00000
   O  -0.9414307   0.0002000  -0.4361091 SPIN=   0.00000
   S  -0.6390561  -0.0878792  -0.4194228 SPIN=   0.00000
   F   0.1108087   0.1738352   0.3348710 SPIN=   0.00000
   F  -0.1108087  -0.3348710  -0.1738352 SPIN=   0.00000
%ENDBLOCK POSITIONS_FRAC

# Note: total spin =   8.00

KPOINTS_MP_SPACING 0.07

%BLOCK SPECIES_POT
QC5
%ENDBLOCK SPECIES_POT

SNAP_TO_SYMMETRY
SYMMETRY_GENERATE

