#              Generated by Buildcell
#
# at 03:22:27 (GMT+1.0) 4th August 2020
# in /lustre/scratch/uccabz1/launch_tmp
# on node-c12e-020
# by uccabz1
#
# compiler GCC version 4.9.2
# options -cpp -iprefix /lustre/shared/ucl/apps/gcc/4.9.2/bin/../lib/gcc/x86_64-unknown-linux-gnu/4.9.2/ -mtune=corei7 -march=x86-64 -g -Og
#
# seed  1851788743   967245829   247878155   613585545 -1271114472 -1461002815  1404615575  1565141094  -271721129  1236938006   -23364797   117240001
#
#      Author: C. J. Pickard (cjp20@cam.ac.uk)
#                Space group: Pc
#

%BLOCK LATTICE_ABC
      5.46977      5.67770      6.67252
     90.00000     90.00000    105.16905
%ENDBLOCK LATTICE_ABC

%BLOCK POSITIONS_FRAC
  Li   0.1264803   0.2984114   0.2956983 SPIN=   0.00000
  Li   0.1264803  -0.2015886  -0.2956983 SPIN=   0.00000
  Fe   0.3482940  -0.1719440   0.1879031 SPIN=   4.00000
  Fe   0.3482940   0.3280560  -0.1879031 SPIN=   4.00000
   O  -0.3847038   0.5328428   0.0996717 SPIN=   0.00000
   O  -0.0880018   0.5316184   0.3794591 SPIN=   0.00000
   O  -0.3546463   0.1414027   0.2470717 SPIN=   0.00000
   O  -0.5503523   0.4162287   0.4407541 SPIN=   0.00000
   S  -0.3444260   0.4055232   0.2917392 SPIN=   0.00000
   O  -0.3847038   0.0328428  -0.0996717 SPIN=   0.00000
   O  -0.0880018   0.0316184  -0.3794591 SPIN=   0.00000
   O  -0.3546463  -0.3585973  -0.2470717 SPIN=   0.00000
   O  -0.5503523  -0.0837713  -0.4407541 SPIN=   0.00000
   S  -0.3444260  -0.0944768  -0.2917392 SPIN=   0.00000
   F   0.0608384   0.4654161  -0.1785062 SPIN=   0.00000
   F   0.0608384  -0.0345839   0.1785062 SPIN=   0.00000
%ENDBLOCK POSITIONS_FRAC

# Note: total spin =   8.00

KPOINTS_MP_SPACING 0.07

%BLOCK SPECIES_POT
QC5
%ENDBLOCK SPECIES_POT

SNAP_TO_SYMMETRY
SYMMETRY_GENERATE

