#              Generated by Buildcell
#
# at 03:47:40 (GMT+1.0) 4th August 2020
# in /lustre/scratch/uccabz1/launch_tmp
# on node-c12a-007
# by uccabz1
#
# compiler GCC version 4.9.2
# options -cpp -iprefix /lustre/shared/ucl/apps/gcc/4.9.2/bin/../lib/gcc/x86_64-unknown-linux-gnu/4.9.2/ -mtune=corei7 -march=x86-64 -g -Og
#
# seed  -339423175  1860440048   593626056  1780138009  1387740149  -329795888  -613390044   595567924   581314394   543699993 -1550618763 -1398892571
#
#      Author: C. J. Pickard (cjp20@cam.ac.uk)
#                Space group: Cc
#

%BLOCK LATTICE_ABC
      4.31256      6.63895      7.90760
    114.82086    102.02561     90.00000
%ENDBLOCK LATTICE_ABC

%BLOCK POSITIONS_FRAC
  Li   0.2495471   0.4200788   0.4207793 SPIN=   0.00000
  Li  -0.2504529   0.0007005   0.4207793 SPIN=   0.00000
  Fe   0.3695959   0.0911009  -0.2879876 SPIN=   4.00000
  Fe  -0.1304041  -0.3790885  -0.2879876 SPIN=   4.00000
   O  -0.4383231   0.5663923   0.2876060 SPIN=   0.00000
   O  -0.1164050   0.3576813   0.0562231 SPIN=   0.00000
   O  -0.6416360   0.1876646   0.0357785 SPIN=   0.00000
   O  -0.1872901   0.2378843   0.3040587 SPIN=   0.00000
   S  -0.3459136   0.3374056   0.1709166 SPIN=   0.00000
   O   0.0616769  -0.2787863   0.2876060 SPIN=   0.00000
   O   0.3835950  -0.3014581   0.0562231 SPIN=   0.00000
   O  -0.1416360  -0.1518861   0.0357785 SPIN=   0.00000
   O   0.3127099   0.0661744   0.3040587 SPIN=   0.00000
   S   0.1540864  -0.1664890   0.1709166 SPIN=   0.00000
   F  -0.1105891   0.0847465  -0.3054344 SPIN=   0.00000
   F   0.3894109  -0.3901809  -0.3054344 SPIN=   0.00000
%ENDBLOCK POSITIONS_FRAC

# Note: total spin =   8.00

KPOINTS_MP_SPACING 0.07

%BLOCK SPECIES_POT
QC5
%ENDBLOCK SPECIES_POT

SNAP_TO_SYMMETRY
SYMMETRY_GENERATE

