#              Generated by Buildcell
#
# at 22:59:19 (GMT+1.0) 18th August 2020
# in /scratch/scratch/uccabz1/launch_tmp
# on node-k10h-029
# by uccabz1
#
# compiler GCC version 4.9.2
# options -cpp -iprefix /scratch/UCL/applications/gcc/4.9.2/bin/../lib/gcc/x86_64-unknown-linux-gnu/4.9.2/ -mtune=corei7 -march=x86-64 -g -O2
#
# seed  1639431297 -1277192453  2042767476 -1597113830 -1663918546   482694595  -390124911    58028862   -26439207 -2125914563    35738884  1802250445
#
#      Author: C. J. Pickard (cjp20@cam.ac.uk)
#                Space group: Pmn21
#

%BLOCK LATTICE_ABC
      4.40859      6.67705      6.79431
     90.00000     90.00000     90.00000
%ENDBLOCK LATTICE_ABC

%BLOCK POSITIONS_FRAC
  Li   0.4117671   0.0000000  -0.2765706 SPIN=   0.00000
  Li  -0.4117671  -0.5000000   0.2234294 SPIN=   0.00000
  Fe   0.0841781  -0.5000000  -0.0790953 SPIN=   4.00000
  Fe  -0.0841781   0.0000000   0.4209047 SPIN=   4.00000
   O   0.2927068  -0.1721172   0.0190036 SPIN=   0.00000
   O  -0.1811765  -0.2575404   0.1953206 SPIN=   0.00000
   O  -0.2927068  -0.3278828  -0.4809964 SPIN=   0.00000
   O   0.1811765  -0.2424596  -0.3046794 SPIN=   0.00000
   O  -0.2927068   0.3278828  -0.4809964 SPIN=   0.00000
   O   0.1811765   0.2424596  -0.3046794 SPIN=   0.00000
   O   0.2927068   0.1721172   0.0190036 SPIN=   0.00000
   O  -0.1811765   0.2575404   0.1953206 SPIN=   0.00000
   S  -0.0932354   0.0000000  -0.0502460 SPIN=   0.00000
   S   0.0932354  -0.5000000   0.4497540 SPIN=   0.00000
   F   0.3849672   0.0000000   0.3848449 SPIN=   0.00000
   F  -0.3849672  -0.5000000  -0.1151551 SPIN=   0.00000
%ENDBLOCK POSITIONS_FRAC

# Note: total spin =   8.00

KPOINTS_MP_SPACING 0.07

%BLOCK SPECIES_POT
QC5
%ENDBLOCK SPECIES_POT

SNAP_TO_SYMMETRY
SYMMETRY_GENERATE

