#              Generated by Buildcell
#
# at 02:20:42 (GMT+1.0) 4th August 2020
# in /lustre/scratch/uccabz1/launch_tmp
# on node-c12d-014
# by uccabz1
#
# compiler GCC version 4.9.2
# options -cpp -iprefix /lustre/shared/ucl/apps/gcc/4.9.2/bin/../lib/gcc/x86_64-unknown-linux-gnu/4.9.2/ -mtune=corei7 -march=x86-64 -g -Og
#
# seed  1742471078   300006340  1498710033  2006660409   609022880  1347720943 -1077783686 -1871777334  -841655147  -210639390  -704186216  -880036852
#
#      Author: C. J. Pickard (cjp20@cam.ac.uk)
#                Space group: P42
#

%BLOCK LATTICE_ABC
      5.18831      5.18831      7.42983
     90.00000     90.00000     90.00000
%ENDBLOCK LATTICE_ABC

%BLOCK POSITIONS_FRAC
  Li  -0.5000000   0.5000000   0.0973537 SPIN=   0.00000
  Li  -0.5000000   0.5000000  -0.4026463 SPIN=   0.00000
  Fe   0.0000000   0.0000000   0.2206408 SPIN=   4.00000
  Fe   0.0000000   0.0000000  -0.2793592 SPIN=   4.00000
   O   0.2189861   0.0333653   0.4934564 SPIN=   0.00000
   O   0.5593599   0.2674766   0.3269191 SPIN=   0.00000
   O  -0.2189861  -0.0333653   0.4934564 SPIN=   0.00000
   O  -0.5593599  -0.2674766   0.3269191 SPIN=   0.00000
   O  -0.0333653   0.2189861  -0.0065436 SPIN=   0.00000
   O  -0.2674766   0.5593599  -0.1730809 SPIN=   0.00000
   O   0.0333653  -0.2189861  -0.0065436 SPIN=   0.00000
   O   0.2674766  -0.5593599  -0.1730809 SPIN=   0.00000
   S   0.0000000  -0.5000000  -0.0296280 SPIN=   0.00000
   S   0.5000000  -0.0000000   0.4703720 SPIN=   0.00000
   F   0.0000000  -0.5000000   0.4702800 SPIN=   0.00000
   F   0.5000000  -0.0000000  -0.0297200 SPIN=   0.00000
%ENDBLOCK POSITIONS_FRAC

# Note: total spin =   8.00

KPOINTS_MP_SPACING 0.07

%BLOCK SPECIES_POT
QC5
%ENDBLOCK SPECIES_POT

SNAP_TO_SYMMETRY
SYMMETRY_GENERATE

