#              Generated by Buildcell
#
# at 19:42:11 (GMT+1.0) 18th August 2020
# in /lustre/scratch/uccabz1/launch_tmp
# on node-c12b-022
# by uccabz1
#
# compiler GCC version 4.9.2
# options -cpp -iprefix /lustre/shared/ucl/apps/gcc/4.9.2/bin/../lib/gcc/x86_64-unknown-linux-gnu/4.9.2/ -mtune=corei7 -march=x86-64 -g -Og
#
# seed  -845601415  1642141299 -1115426136    45849335 -1131567465  -439236871   557020400  2006479688 -1465005486 -1477419084   229468104  1659332983
#
#      Author: C. J. Pickard (cjp20@cam.ac.uk)
#                Space group: P-1
#

%BLOCK LATTICE_ABC
      5.32588      6.00151      6.83389
     68.02401     82.17347     82.74557
%ENDBLOCK LATTICE_ABC

%BLOCK POSITIONS_FRAC
  Li  -0.2282135  -0.0551741  -0.2701784 SPIN=   0.00000
  Li   0.2282135   0.0551741   0.2701784 SPIN=   0.00000
  Fe  -0.2342160  -0.1622012   0.2024287 SPIN=   4.00000
  Fe   0.2342160   0.1622012  -0.2024287 SPIN=   4.00000
   O  -0.3262504   0.6059738  -0.0997917 SPIN=   0.00000
   O  -0.1540190   0.2705257  -0.2194755 SPIN=   0.00000
   O  -0.1696746   0.6907790  -0.4765400 SPIN=   0.00000
   O  -0.5680461   0.4904878  -0.3269963 SPIN=   0.00000
   S  -0.3044975   0.5144416  -0.2807009 SPIN=   0.00000
   O   0.3262504  -0.6059738   0.0997917 SPIN=   0.00000
   O   0.1540190  -0.2705257   0.2194755 SPIN=   0.00000
   O   0.1696746  -0.6907790   0.4765400 SPIN=   0.00000
   O   0.5680461  -0.4904878   0.3269963 SPIN=   0.00000
   S   0.3044975  -0.5144416   0.2807009 SPIN=   0.00000
   F   0.1354422  -0.1518750  -0.2149554 SPIN=   0.00000
   F  -0.1354422   0.1518750   0.2149554 SPIN=   0.00000
%ENDBLOCK POSITIONS_FRAC

# Note: total spin =   8.00

KPOINTS_MP_SPACING 0.07

%BLOCK SPECIES_POT
QC5
%ENDBLOCK SPECIES_POT

SNAP_TO_SYMMETRY
SYMMETRY_GENERATE

