#              Generated by Buildcell
#
# at 20:37:51 (GMT+1.0) 18th August 2020
# in /lustre/scratch/uccabz1/launch_tmp
# on node-c12e-015
# by uccabz1
#
# compiler GCC version 4.9.2
# options -cpp -iprefix /lustre/shared/ucl/apps/gcc/4.9.2/bin/../lib/gcc/x86_64-unknown-linux-gnu/4.9.2/ -mtune=corei7 -march=x86-64 -g -Og
#
# seed  -310202937 -2134329652  2136806255   578420357  1681484401  1955394023  -852123956  1296525978  2012580105 -1064435948 -2081925138 -1783191323
#
#      Author: C. J. Pickard (cjp20@cam.ac.uk)
#                Space group: Pc
#

%BLOCK LATTICE_ABC
      4.64062      5.79713      7.58264
     90.00000     90.00000    101.35150
%ENDBLOCK LATTICE_ABC

%BLOCK POSITIONS_FRAC
  Li   0.3804707  -0.2637126   0.1629757 SPIN=   0.00000
  Li   0.3804707   0.2362874  -0.1629757 SPIN=   0.00000
  Fe  -0.2002655   0.3651301   0.1422389 SPIN=   4.00000
  Fe  -0.2002655  -0.1348699  -0.1422389 SPIN=   4.00000
   O  -0.0615326   0.3288166  -0.1303863 SPIN=   0.00000
   O   0.1853632   0.3292956  -0.4197272 SPIN=   0.00000
   O  -0.1019483   0.6352620  -0.3511703 SPIN=   0.00000
   O  -0.3570492   0.2236245  -0.4007131 SPIN=   0.00000
   S  -0.0837917   0.3792497  -0.3254992 SPIN=   0.00000
   O  -0.0615326  -0.1711834   0.1303863 SPIN=   0.00000
   O   0.1853632  -0.1707044   0.4197272 SPIN=   0.00000
   O  -0.1019483   0.1352620   0.3511703 SPIN=   0.00000
   O  -0.3570492  -0.2763755   0.4007131 SPIN=   0.00000
   S  -0.0837917  -0.1207503   0.3254992 SPIN=   0.00000
   F   0.3644482   0.4047879   0.1908915 SPIN=   0.00000
   F   0.3644482  -0.0952121  -0.1908915 SPIN=   0.00000
%ENDBLOCK POSITIONS_FRAC

# Note: total spin =   8.00

KPOINTS_MP_SPACING 0.07

%BLOCK SPECIES_POT
QC5
%ENDBLOCK SPECIES_POT

SNAP_TO_SYMMETRY
SYMMETRY_GENERATE

