#              Generated by Buildcell
#
# at 05:19:02 (GMT+1.0) 4th August 2020
# in /lustre/scratch/uccabz1/launch_tmp
# on node-c12e-019
# by uccabz1
#
# compiler GCC version 4.9.2
# options -cpp -iprefix /lustre/shared/ucl/apps/gcc/4.9.2/bin/../lib/gcc/x86_64-unknown-linux-gnu/4.9.2/ -mtune=corei7 -march=x86-64 -g -Og
#
# seed -1390835694  -558724021 -1381486397  2061351833 -1113501681 -1336668027  -464829479   728762982 -1445822381   832864276 -2122398237    36661001
#
#      Author: C. J. Pickard (cjp20@cam.ac.uk)
#                Space group: Pc
#

%BLOCK LATTICE_ABC
      4.05042      6.93659      7.11866
     90.00000     90.47467     90.00000
%ENDBLOCK LATTICE_ABC

%BLOCK POSITIONS_FRAC
  Li   0.1603867   0.3848036  -0.1851971 SPIN=   0.00000
  Li   0.1603867  -0.3848036   0.3148029 SPIN=   0.00000
  Fe   0.0860940   0.1954382   0.2821643 SPIN=   4.00000
  Fe   0.0860940  -0.1954382  -0.2178357 SPIN=   4.00000
   O  -0.2668927   0.2156831  -0.1870777 SPIN=   0.00000
   O  -0.3045884   0.2528747  -0.5323554 SPIN=   0.00000
   O  -0.7894901   0.1400280  -0.3539227 SPIN=   0.00000
   O  -0.3040043  -0.0729016  -0.3905901 SPIN=   0.00000
   S  -0.4162439   0.1339211  -0.3659865 SPIN=   0.00000
   O  -0.2668927  -0.2156831   0.3129223 SPIN=   0.00000
   O  -0.3045884  -0.2528747  -0.0323554 SPIN=   0.00000
   O  -0.7894901  -0.1400280   0.1460773 SPIN=   0.00000
   O  -0.3040043   0.0729016   0.1094099 SPIN=   0.00000
   S  -0.4162439  -0.1339211   0.1340135 SPIN=   0.00000
   F   0.0872115  -0.4067246  -0.4018600 SPIN=   0.00000
   F   0.0872115   0.4067246   0.0981400 SPIN=   0.00000
%ENDBLOCK POSITIONS_FRAC

# Note: total spin =   8.00

KPOINTS_MP_SPACING 0.07

%BLOCK SPECIES_POT
QC5
%ENDBLOCK SPECIES_POT

SNAP_TO_SYMMETRY
SYMMETRY_GENERATE

