#              Generated by Buildcell
#
# at 00:35:54 (GMT+1.0) 19th August 2020
# in /lustre/scratch/uccabz1/launch_tmp
# on node-c12k-032
# by uccabz1
#
# compiler GCC version 4.9.2
# options -cpp -iprefix /lustre/shared/ucl/apps/gcc/4.9.2/bin/../lib/gcc/x86_64-unknown-linux-gnu/4.9.2/ -mtune=corei7 -march=x86-64 -g -Og
#
# seed   203675880   394217484   678430089   294998730   493885904  1832719128  -931132349   113505683  1322144704   -68239052 -1994096879  2024734783
#
#      Author: C. J. Pickard (cjp20@cam.ac.uk)
#                Space group: Cc
#

%BLOCK LATTICE_ABC
      5.34125      6.59281      6.84207
    113.46741    112.97470     90.00000
%ENDBLOCK LATTICE_ABC

%BLOCK POSITIONS_FRAC
  Li   0.1504193   0.4719864  -0.1000455 SPIN=   0.00000
  Li  -0.2504647  -0.0280136  -0.1000455 SPIN=   0.00000
  Fe  -0.2385493  -0.4351672   0.1220192 SPIN=   4.00000
  Fe   0.3605685   0.0648328   0.1220192 SPIN=   4.00000
   O   0.1804239   0.0389396   0.6589230 SPIN=   0.00000
   O  -0.2591094  -0.1003563   0.2977603 SPIN=   0.00000
   O   0.1405757   0.1150159   0.3227213 SPIN=   0.00000
   O  -0.1105512   0.3072702   0.5610014 SPIN=   0.00000
   S  -0.0121652   0.0902173   0.4601015 SPIN=   0.00000
   O   0.4784990  -0.4610604   0.6589230 SPIN=   0.00000
   O   0.5568697  -0.6003563   0.2977603 SPIN=   0.00000
   O   0.1821456  -0.3849841   0.3227213 SPIN=   0.00000
   O   0.6715525  -0.1927298   0.5610014 SPIN=   0.00000
   S   0.4722667  -0.4097827   0.4601015 SPIN=   0.00000
   F   0.1863598  -0.2550561  -0.1117125 SPIN=   0.00000
   F  -0.2980724   0.2449439  -0.1117125 SPIN=   0.00000
%ENDBLOCK POSITIONS_FRAC

# Note: total spin =   8.00

KPOINTS_MP_SPACING 0.07

%BLOCK SPECIES_POT
QC5
%ENDBLOCK SPECIES_POT

SNAP_TO_SYMMETRY
SYMMETRY_GENERATE

