#              Generated by Buildcell
#
# at 05:47:01 (GMT+1.0) 4th August 2020
# in /lustre/scratch/uccabz1/launch_tmp
# on node-c12k-033
# by uccabz1
#
# compiler GCC version 4.9.2
# options -cpp -iprefix /lustre/shared/ucl/apps/gcc/4.9.2/bin/../lib/gcc/x86_64-unknown-linux-gnu/4.9.2/ -mtune=corei7 -march=x86-64 -g -Og
#
# seed -1238624120  -589282655 -2114586914  -393760994 -1974972188   571685692   662293457  1810200497   -48612136  1302121173  -568784109  -353083040
#
#      Author: C. J. Pickard (cjp20@cam.ac.uk)
#                Space group: Ccc2
#

%BLOCK LATTICE_ABC
      4.22320      4.22320     12.17869
     90.00000     90.00000    112.96283
%ENDBLOCK LATTICE_ABC

%BLOCK POSITIONS_FRAC
  Li  -0.0000000   0.5000000  -0.3412040 SPIN=   0.00000
  Li  -0.5000000   0.0000000   0.1587960 SPIN=   0.00000
  Fe   0.5000000  -0.0000000  -0.1742330 SPIN=   4.00000
  Fe   0.0000000  -0.5000000   0.3257670 SPIN=   4.00000
   O   0.3027314   0.6320816  -0.5342213 SPIN=   0.00000
   O   0.2883211   0.1997084  -0.3950267 SPIN=   0.00000
   O  -0.3027314  -0.6320816  -0.5342213 SPIN=   0.00000
   O  -0.2883211  -0.1997084  -0.3950267 SPIN=   0.00000
   O  -0.6320816  -0.3027314  -0.0342213 SPIN=   0.00000
   O  -0.1997084  -0.2883211   0.1049733 SPIN=   0.00000
   O   0.6320816   0.3027314  -0.0342213 SPIN=   0.00000
   O   0.1997084   0.2883211   0.1049733 SPIN=   0.00000
   S  -0.0000000   0.5000000   0.0473314 SPIN=   0.00000
   S   0.5000000  -0.0000000  -0.4526686 SPIN=   0.00000
   F   0.0000000   0.0000000   0.2973060 SPIN=   0.00000
   F   0.0000000   0.0000000  -0.2026940 SPIN=   0.00000
%ENDBLOCK POSITIONS_FRAC

# Note: total spin =   8.00

KPOINTS_MP_SPACING 0.07

%BLOCK SPECIES_POT
QC5
%ENDBLOCK SPECIES_POT

SNAP_TO_SYMMETRY
SYMMETRY_GENERATE

