#              Generated by Buildcell
#
# at 01:29:25 (GMT+1.0) 19th August 2020
# in /lustre/scratch/uccabz1/launch_tmp
# on node-c12l-030
# by uccabz1
#
# compiler GCC version 4.9.2
# options -cpp -iprefix /lustre/shared/ucl/apps/gcc/4.9.2/bin/../lib/gcc/x86_64-unknown-linux-gnu/4.9.2/ -mtune=corei7 -march=x86-64 -g -Og
#
# seed -2070123234  1988087483   109652657   951951236   864523883 -1029355869  1891644532  1241036523  1144404720   503003062  2063435071   245336501
#
#      Author: C. J. Pickard (cjp20@cam.ac.uk)
#                Space group: Pc
#

%BLOCK LATTICE_ABC
      4.58922      5.86875      7.42796
     90.00000     90.00000     91.37299
%ENDBLOCK LATTICE_ABC

%BLOCK POSITIONS_FRAC
  Li  -0.1505753  -0.0177040   0.1575544 SPIN=   0.00000
  Li  -0.1505753   0.4822960  -0.1575544 SPIN=   0.00000
  Fe   0.3379691   0.1559507  -0.1520329 SPIN=   4.00000
  Fe   0.3379691  -0.3440493   0.1520329 SPIN=   4.00000
   O   0.1124499  -0.3915523  -0.4594783 SPIN=   0.00000
   O   0.4380668  -0.0906657  -0.3317406 SPIN=   0.00000
   O   0.6296587  -0.4724001  -0.3974932 SPIN=   0.00000
   O   0.2853892  -0.4217299  -0.1449877 SPIN=   0.00000
   S   0.3663911  -0.3440870  -0.3334250 SPIN=   0.00000
   O   0.1124499   0.1084477   0.4594783 SPIN=   0.00000
   O   0.4380668   0.4093343   0.3317406 SPIN=   0.00000
   O   0.6296587   0.0275999   0.3974932 SPIN=   0.00000
   O   0.2853892   0.0782701   0.1449877 SPIN=   0.00000
   S   0.3663911   0.1559130   0.3334250 SPIN=   0.00000
   F  -0.1048182   0.1573290  -0.1789005 SPIN=   0.00000
   F  -0.1048182  -0.3426710   0.1789005 SPIN=   0.00000
%ENDBLOCK POSITIONS_FRAC

# Note: total spin =   8.00

KPOINTS_MP_SPACING 0.07

%BLOCK SPECIES_POT
QC5
%ENDBLOCK SPECIES_POT

SNAP_TO_SYMMETRY
SYMMETRY_GENERATE

