#              Generated by Buildcell
#
# at 03:52:42 (GMT+1.0) 4th August 2020
# in /lustre/scratch/uccabz1/launch_tmp
# on node-c12c-003
# by uccabz1
#
# compiler GCC version 4.9.2
# options -cpp -iprefix /lustre/shared/ucl/apps/gcc/4.9.2/bin/../lib/gcc/x86_64-unknown-linux-gnu/4.9.2/ -mtune=corei7 -march=x86-64 -g -Og
#
# seed   519165101   826368625  -209409604 -1833367671  -557889352  -483265563  1116557204   998302227 -1300250708 -1090186360  1572236874 -1014184524
#
#      Author: C. J. Pickard (cjp20@cam.ac.uk)
#                Space group: P-1
#

%BLOCK LATTICE_ABC
      5.20663      6.59516      6.68214
    115.69963     96.26318     99.14564
%ENDBLOCK LATTICE_ABC

%BLOCK POSITIONS_FRAC
  Li   0.2682757  -0.2253759  -0.2697892 SPIN=   0.00000
  Li  -0.2682757   0.2253759   0.2697892 SPIN=   0.00000
  Fe   0.2729200   0.4601078   0.2266153 SPIN=   4.00000
  Fe  -0.2729200  -0.4601078  -0.2266153 SPIN=   4.00000
   O   0.2929802   0.0190484   0.4701974 SPIN=   0.00000
   O   0.4828077  -0.0840674   0.1244916 SPIN=   0.00000
   O   0.1135639   0.1165823   0.1729808 SPIN=   0.00000
   O   0.0317649  -0.2914352   0.1012729 SPIN=   0.00000
   S   0.2302792  -0.0599680   0.2172357 SPIN=   0.00000
   O  -0.2929802  -0.0190484  -0.4701974 SPIN=   0.00000
   O  -0.4828077   0.0840674  -0.1244916 SPIN=   0.00000
   O  -0.1135639  -0.1165823  -0.1729808 SPIN=   0.00000
   O  -0.0317649   0.2914352  -0.1012729 SPIN=   0.00000
   S  -0.2302792   0.0599680  -0.2172357 SPIN=   0.00000
   F  -0.3014700  -0.4615982   0.2775585 SPIN=   0.00000
   F   0.3014700   0.4615982  -0.2775585 SPIN=   0.00000
%ENDBLOCK POSITIONS_FRAC

# Note: total spin =   8.00

KPOINTS_MP_SPACING 0.07

%BLOCK SPECIES_POT
QC5
%ENDBLOCK SPECIES_POT

SNAP_TO_SYMMETRY
SYMMETRY_GENERATE

