#              Generated by Buildcell
#
# at 04:21:44 (GMT+1.0) 4th August 2020
# in /lustre/scratch/uccabz1/launch_tmp
# on node-c12f-008
# by uccabz1
#
# compiler GCC version 4.9.2
# options -cpp -iprefix /lustre/shared/ucl/apps/gcc/4.9.2/bin/../lib/gcc/x86_64-unknown-linux-gnu/4.9.2/ -mtune=corei7 -march=x86-64 -g -Og
#
# seed  1166318213  1454511328  -350275736  1399358128  -118211025   517854998  2034398252  1584299607  1798068430 -1514988082  -634891029 -1222682687
#
#      Author: C. J. Pickard (cjp20@cam.ac.uk)
#                Space group: P-1
#

%BLOCK LATTICE_ABC
      4.56418      6.52504      6.81032
     91.41181     90.08395     99.45870
%ENDBLOCK LATTICE_ABC

%BLOCK POSITIONS_FRAC
  Li   0.0840333  -0.4359243   0.2516011 SPIN=   0.00000
  Li  -0.0840333   0.4359243  -0.2516011 SPIN=   0.00000
  Fe  -0.4584839   0.2786950   0.3288626 SPIN=   4.00000
  Fe   0.4584839  -0.2786950  -0.3288626 SPIN=   4.00000
   O   0.5208343   0.0409595  -0.2326062 SPIN=   0.00000
   O   0.4859975   0.3153314   0.0196698 SPIN=   0.00000
   O   0.0349377   0.1462496  -0.1595493 SPIN=   0.00000
   O   0.4218646   0.3855514  -0.3319187 SPIN=   0.00000
   S   0.3659085   0.2220230  -0.1761011 SPIN=   0.00000
   O  -0.5208343  -0.0409595   0.2326062 SPIN=   0.00000
   O  -0.4859975  -0.3153314  -0.0196698 SPIN=   0.00000
   O  -0.0349377  -0.1462496   0.1595493 SPIN=   0.00000
   O  -0.4218646  -0.3855514   0.3319187 SPIN=   0.00000
   S  -0.3659085  -0.2220230   0.1761011 SPIN=   0.00000
   F  -0.1083135  -0.2579571  -0.3244697 SPIN=   0.00000
   F   0.1083135   0.2579571   0.3244697 SPIN=   0.00000
%ENDBLOCK POSITIONS_FRAC

# Note: total spin =   8.00

KPOINTS_MP_SPACING 0.07

%BLOCK SPECIES_POT
QC5
%ENDBLOCK SPECIES_POT

SNAP_TO_SYMMETRY
SYMMETRY_GENERATE

