#              Generated by Buildcell
#
# at 04:52:12 (GMT+1.0) 4th August 2020
# in /lustre/scratch/uccabz1/launch_tmp
# on node-c12l-029
# by uccabz1
#
# compiler GCC version 4.9.2
# options -cpp -iprefix /lustre/shared/ucl/apps/gcc/4.9.2/bin/../lib/gcc/x86_64-unknown-linux-gnu/4.9.2/ -mtune=corei7 -march=x86-64 -g -Og
#
# seed  1071973798   883566407  -596786860 -1904166629  -963866176 -1616656572  -669930747   934540161  -393692342 -1202894284 -1221810747  -949326569
#
#      Author: C. J. Pickard (cjp20@cam.ac.uk)
#                Space group: Pnn2
#

%BLOCK LATTICE_ABC
      4.10151      4.28171     11.38854
     90.00000     90.00000     90.00000
%ENDBLOCK LATTICE_ABC

%BLOCK POSITIONS_FRAC
  Li   0.0000000   0.0000000  -0.0249395 SPIN=   0.00000
  Li   0.5000000   0.5000000   0.4750605 SPIN=   0.00000
  Fe   0.5000000   0.5000000  -0.1577068 SPIN=   4.00000
  Fe   0.0000000   0.0000000   0.3422932 SPIN=   4.00000
   O   0.2596922   0.3410798   0.2408601 SPIN=   0.00000
   O   0.6501171   0.2587658   0.0780839 SPIN=   0.00000
   O  -0.2596922  -0.3410798   0.2408601 SPIN=   0.00000
   O  -0.6501171  -0.2587658   0.0780839 SPIN=   0.00000
   O  -0.2403078   0.1589202  -0.2591399 SPIN=   0.00000
   O   0.1501171   0.2412342  -0.4219161 SPIN=   0.00000
   O   0.2403078  -0.1589202  -0.2591399 SPIN=   0.00000
   O  -0.1501171  -0.2412342  -0.4219161 SPIN=   0.00000
   S   0.5000000   0.5000000   0.1626412 SPIN=   0.00000
   S   0.0000000   0.0000000  -0.3373588 SPIN=   0.00000
   F   0.0000000  -0.5000000  -0.0902772 SPIN=   0.00000
   F   0.5000000   0.0000000   0.4097228 SPIN=   0.00000
%ENDBLOCK POSITIONS_FRAC

# Note: total spin =   8.00

KPOINTS_MP_SPACING 0.07

%BLOCK SPECIES_POT
QC5
%ENDBLOCK SPECIES_POT

SNAP_TO_SYMMETRY
SYMMETRY_GENERATE

