#              Generated by Buildcell
#
# at 03:13:16 (GMT+1.0) 4th August 2020
# in /lustre/scratch/uccabz1/launch_tmp
# on node-c12g-019
# by uccabz1
#
# compiler GCC version 4.9.2
# options -cpp -iprefix /lustre/shared/ucl/apps/gcc/4.9.2/bin/../lib/gcc/x86_64-unknown-linux-gnu/4.9.2/ -mtune=corei7 -march=x86-64 -g -Og
#
# seed   535352672 -2120809841   -57638835 -1083096419  -156863081 -1430786732  2144791948  1945812258   304310580 -1183852517    74637395  -298146860
#
#      Author: C. J. Pickard (cjp20@cam.ac.uk)
#                Space group: Pnn2
#

%BLOCK LATTICE_ABC
      3.85147      3.89159     13.34372
     90.00000     90.00000     90.00000
%ENDBLOCK LATTICE_ABC

%BLOCK POSITIONS_FRAC
  Li  -0.5000000  -0.0000000  -0.2015599 SPIN=   0.00000
  Li   0.0000000   0.5000000   0.2984401 SPIN=   0.00000
  Fe  -0.0000000  -0.0000000   0.1237179 SPIN=   4.00000
  Fe  -0.5000000  -0.5000000  -0.3762821 SPIN=   4.00000
   O  -0.1631806  -0.2470735   0.5183329 SPIN=   0.00000
   O  -0.6922787  -0.2260451   0.4132635 SPIN=   0.00000
   O   0.1631806   0.2470735   0.5183329 SPIN=   0.00000
   O   0.6922787   0.2260451   0.4132635 SPIN=   0.00000
   O   0.3368194  -0.2529265   0.0183329 SPIN=   0.00000
   O  -0.1922787  -0.2739549  -0.0867365 SPIN=   0.00000
   O  -0.3368194   0.2529265   0.0183329 SPIN=   0.00000
   O   0.1922787   0.2739549  -0.0867365 SPIN=   0.00000
   S   0.5000000  -0.5000000  -0.0515086 SPIN=   0.00000
   S   0.0000000  -0.0000000   0.4484914 SPIN=   0.00000
   F   0.5000000  -0.5000000   0.2256606 SPIN=   0.00000
   F   0.0000000  -0.0000000  -0.2743394 SPIN=   0.00000
%ENDBLOCK POSITIONS_FRAC

# Note: total spin =   8.00

KPOINTS_MP_SPACING 0.07

%BLOCK SPECIES_POT
QC5
%ENDBLOCK SPECIES_POT

SNAP_TO_SYMMETRY
SYMMETRY_GENERATE

