#              Generated by Buildcell
#
# at 04:43:21 (GMT+1.0) 4th August 2020
# in /lustre/scratch/uccabz1/launch_tmp
# on node-c12c-023
# by uccabz1
#
# compiler GCC version 4.9.2
# options -cpp -iprefix /lustre/shared/ucl/apps/gcc/4.9.2/bin/../lib/gcc/x86_64-unknown-linux-gnu/4.9.2/ -mtune=corei7 -march=x86-64 -g -Og
#
# seed  1053397985 -1471097600  -630154762 -1288411195  1153728638   -80474773   196340963   454749220  1559319773 -1548596377 -1310485608 -1931201224
#
#      Author: C. J. Pickard (cjp20@cam.ac.uk)
#                Space group: P2
#

%BLOCK LATTICE_ABC
      3.95163      6.91836      7.31748
     91.29724     90.00000     90.00000
%ENDBLOCK LATTICE_ABC

%BLOCK POSITIONS_FRAC
  Li  -0.2597148  -0.2206439   0.3270588 SPIN=   0.00000
  Li  -0.2597148   0.2206439  -0.3270588 SPIN=   0.00000
  Fe   0.4212051   0.5000000   0.0000000 SPIN=   5.69467
  Fe   0.2282737  -0.5000000   0.5000000 SPIN=   2.30533
   O  -0.2850190   0.0138463   0.1708980 SPIN=   0.00000
   O  -0.2866814   0.3540274   0.2830471 SPIN=   0.00000
   O   0.0444633   0.2606224   0.0078905 SPIN=   0.00000
   O   0.2298503   0.1549154   0.3128457 SPIN=   0.00000
   S  -0.0743467   0.1958529   0.1936703 SPIN=   0.00000
   O  -0.2850190  -0.0138463  -0.1708980 SPIN=   0.00000
   O  -0.2866814  -0.3540274  -0.2830471 SPIN=   0.00000
   O   0.0444633  -0.2606224  -0.0078905 SPIN=   0.00000
   O   0.2298503  -0.1549154  -0.3128457 SPIN=   0.00000
   S  -0.0743467  -0.1958529  -0.1936703 SPIN=   0.00000
   F   0.2300338   0.2905791  -0.3350511 SPIN=   0.00000
   F   0.2300338  -0.2905791   0.3350511 SPIN=   0.00000
%ENDBLOCK POSITIONS_FRAC

# Note: total spin =   8.00

KPOINTS_MP_SPACING 0.07

%BLOCK SPECIES_POT
QC5
%ENDBLOCK SPECIES_POT

SNAP_TO_SYMMETRY
SYMMETRY_GENERATE

