#              Generated by Buildcell
#
# at 04:22:44 (GMT+1.0) 4th August 2020
# in /lustre/scratch/uccabz1/launch_tmp
# on node-c12n-013
# by uccabz1
#
# compiler GCC version 4.9.2
# options -cpp -iprefix /lustre/shared/ucl/apps/gcc/4.9.2/bin/../lib/gcc/x86_64-unknown-linux-gnu/4.9.2/ -mtune=corei7 -march=x86-64 -g -Og
#
# seed  -258388787  -286884367  1594217062  -272157441   454362683   859933863   582537647 -2114305441   539209365   504187589  1923462378  -653988239
#
#      Author: C. J. Pickard (cjp20@cam.ac.uk)
#                Space group: P2
#

%BLOCK LATTICE_ABC
      3.97876      6.65129      7.81452
     90.00000    104.73682     90.00000
%ENDBLOCK LATTICE_ABC

%BLOCK POSITIONS_FRAC
  Li   0.0000000   0.3702321  -0.5000000 SPIN=   0.00000
  Li  -0.0000000   0.3532114  -0.0000000 SPIN=   0.00000
  Fe   0.4690133  -0.3764110   0.2574490 SPIN=   4.00000
  Fe  -0.4690133  -0.3764110  -0.2574490 SPIN=   4.00000
   O  -0.7100976   0.0983528  -0.4256513 SPIN=   0.00000
   O  -0.5007900   0.2857921  -0.1451147 SPIN=   0.00000
   O  -0.4930870  -0.0862704  -0.1441903 SPIN=   0.00000
   O  -1.0531285   0.0959030  -0.2021889 SPIN=   0.00000
   O   0.7100976   0.0983528   0.4256513 SPIN=   0.00000
   O   0.5007900   0.2857921   0.1451147 SPIN=   0.00000
   O   0.4930870  -0.0862704   0.1441903 SPIN=   0.00000
   O   1.0531285   0.0959030   0.2021889 SPIN=   0.00000
   S   0.0000000  -0.0466055   0.0000000 SPIN=   0.00000
   S  -0.0000000  -0.0415730   0.5000000 SPIN=   0.00000
   F   0.0484471  -0.4789472   0.2564882 SPIN=   0.00000
   F  -0.0484471  -0.4789472  -0.2564882 SPIN=   0.00000
%ENDBLOCK POSITIONS_FRAC

# Note: total spin =   8.00

KPOINTS_MP_SPACING 0.07

%BLOCK SPECIES_POT
QC5
%ENDBLOCK SPECIES_POT

SNAP_TO_SYMMETRY
SYMMETRY_GENERATE

