#              Generated by Buildcell
#
# at 23:42:33 (GMT+1.0) 18th August 2020
# in /lustre/scratch/uccabz1/launch_tmp
# on node-c12d-020
# by uccabz1
#
# compiler GCC version 4.9.2
# options -cpp -iprefix /lustre/shared/ucl/apps/gcc/4.9.2/bin/../lib/gcc/x86_64-unknown-linux-gnu/4.9.2/ -mtune=corei7 -march=x86-64 -g -Og
#
# seed  1263281200  1091265350 -1415046907   446175432  1895019005   659207100  2126674562   -97384404    62487656   761979385 -1598091215  -938143440
#
#      Author: C. J. Pickard (cjp20@cam.ac.uk)
#                Space group: C2/c
#

%BLOCK LATTICE_ABC
      4.04245      5.19063     10.34842
     89.94366     89.85531     67.08291
%ENDBLOCK LATTICE_ABC

%BLOCK POSITIONS_FRAC
  Li   0.1711454  -0.3422909  -0.2500000 SPIN=   0.00000
  Li  -0.1711454   0.3422909   0.2500000 SPIN=   0.00000
  Fe  -0.0000000   0.0000000   0.0000000 SPIN=   4.00000
  Fe   1.0000000  -0.0000000  -0.5000000 SPIN=   4.00000
   O   0.7261836  -0.0989195  -0.3537395 SPIN=   0.00000
   O   1.0952036   0.1842088  -0.3367956 SPIN=   0.00000
   O   0.3727359  -0.0989195  -0.1462605 SPIN=   0.00000
   O  -0.2794125   0.1842088  -0.1632044 SPIN=   0.00000
   O  -0.7261836   0.0989195   0.3537395 SPIN=   0.00000
   O  -1.0952036  -0.1842088   0.3367956 SPIN=   0.00000
   O  -0.3727359   0.0989195   0.1462605 SPIN=   0.00000
   O   0.2794125  -0.1842088   0.1632044 SPIN=   0.00000
   S   0.4655938   0.0688124  -0.2500000 SPIN=   0.00000
   S  -0.4655938  -0.0688124   0.2500000 SPIN=   0.00000
   F  -0.0000000  -0.5000000   0.0000000 SPIN=   0.00000
   F  -1.5000000  -0.5000000   0.5000000 SPIN=   0.00000
%ENDBLOCK POSITIONS_FRAC

# Note: total spin =   8.00

KPOINTS_MP_SPACING 0.07

%BLOCK SPECIES_POT
QC5
%ENDBLOCK SPECIES_POT

SNAP_TO_SYMMETRY
SYMMETRY_GENERATE

