#              Generated by Buildcell
#
# at 00:20:30 (GMT+1.0) 19th August 2020
# in /lustre/scratch/uccabz1/launch_tmp
# on node-c12f-002
# by uccabz1
#
# compiler GCC version 4.9.2
# options -cpp -iprefix /lustre/shared/ucl/apps/gcc/4.9.2/bin/../lib/gcc/x86_64-unknown-linux-gnu/4.9.2/ -mtune=corei7 -march=x86-64 -g -Og
#
# seed   170316948 -1391800813 -1753422889  1622562995   323938459   559194057  -655405726  1238156904  1557133333  2000920383 -1123801877  1212665842
#
#      Author: C. J. Pickard (cjp20@cam.ac.uk)
#                Space group: C2
#

%BLOCK LATTICE_ABC
      5.70345      6.34104      6.34104
    104.51841    105.40797    105.40797
%ENDBLOCK LATTICE_ABC

%BLOCK POSITIONS_FRAC
  Li   0.1755400  -0.1567816  -0.2994118 SPIN=   0.00000
  Li  -0.1755400   0.2994118   0.1567816 SPIN=   0.00000
  Fe  -0.3209925  -0.0397768  -0.4338916 SPIN=   4.00000
  Fe   0.3209925   0.4338916   0.0397768 SPIN=   4.00000
   O  -0.1177816  -0.0183225   0.3222546 SPIN=   0.00000
   O   0.1846579   0.3824449   0.5690768 SPIN=   0.00000
   O   0.2327693   0.1823017   0.2028429 SPIN=   0.00000
   O   0.3414856   0.0516829   0.5409922 SPIN=   0.00000
   S   0.1602828   0.1495268   0.4087916 SPIN=   0.00000
   O   0.1177816  -0.3222546   0.0183225 SPIN=   0.00000
   O  -0.1846579  -0.5690768  -0.3824449 SPIN=   0.00000
   O  -0.2327693  -0.2028429  -0.1823017 SPIN=   0.00000
   O  -0.3414856  -0.5409922  -0.0516829 SPIN=   0.00000
   S  -0.1602828  -0.4087916  -0.1495268 SPIN=   0.00000
   F   0.5000000  -0.3391245   0.3391245 SPIN=   0.00000
   F  -0.5000000   0.0390352  -0.0390352 SPIN=   0.00000
%ENDBLOCK POSITIONS_FRAC

# Note: total spin =   8.00

KPOINTS_MP_SPACING 0.07

%BLOCK SPECIES_POT
QC5
%ENDBLOCK SPECIES_POT

SNAP_TO_SYMMETRY
SYMMETRY_GENERATE

