#              Generated by Buildcell
#
# at 02:17:44 (GMT+1.0) 4th August 2020
# in /lustre/scratch/uccabz1/launch_tmp
# on node-c12e-020
# by uccabz1
#
# compiler GCC version 4.9.2
# options -cpp -iprefix /lustre/shared/ucl/apps/gcc/4.9.2/bin/../lib/gcc/x86_64-unknown-linux-gnu/4.9.2/ -mtune=corei7 -march=x86-64 -g -Og
#
# seed -1408394261  -551922255   284578174  1980676410 -1307086950  1820154335 -1711392464 -2109429069   705863139 -1019448514  1845099813 -2013077261
#
#      Author: C. J. Pickard (cjp20@cam.ac.uk)
#                Space group: Cmc21
#

%BLOCK LATTICE_ABC
      5.44131      5.44131      7.21551
     90.00000     90.00000    110.58146
%ENDBLOCK LATTICE_ABC

%BLOCK POSITIONS_FRAC
  Li   0.3047480  -0.3047480   0.0292232 SPIN=   0.00000
  Li  -0.3047480   0.3047480  -0.4707768 SPIN=   0.00000
  Fe  -0.1520634   0.1520634  -0.1118389 SPIN=   4.00000
  Fe   0.1520634  -0.1520634   0.3881611 SPIN=   4.00000
   O   0.3731774   0.0487682  -0.3884788 SPIN=   0.00000
   O   0.5659709  -0.2029436  -0.1858153 SPIN=   0.00000
   O  -0.3731774  -0.0487682   0.1115212 SPIN=   0.00000
   O  -0.5659709   0.2029436   0.3141847 SPIN=   0.00000
   O   0.0487682   0.3731774   0.1115212 SPIN=   0.00000
   O  -0.2029436   0.5659709   0.3141847 SPIN=   0.00000
   O  -0.0487682  -0.3731774  -0.3884788 SPIN=   0.00000
   O   0.2029436  -0.5659709  -0.1858153 SPIN=   0.00000
   S  -0.4294461   0.4294461   0.1935301 SPIN=   0.00000
   S   0.4294461  -0.4294461  -0.3064699 SPIN=   0.00000
   F   0.0843263  -0.0843263  -0.0552739 SPIN=   0.00000
   F  -0.0843263   0.0843263   0.4447261 SPIN=   0.00000
%ENDBLOCK POSITIONS_FRAC

# Note: total spin =   8.00

KPOINTS_MP_SPACING 0.07

%BLOCK SPECIES_POT
QC5
%ENDBLOCK SPECIES_POT

SNAP_TO_SYMMETRY
SYMMETRY_GENERATE

