#              Generated by Buildcell
#
# at 03:06:29 (GMT+1.0) 4th August 2020
# in /lustre/scratch/uccabz1/launch_tmp
# on node-c12g-018
# by uccabz1
#
# compiler GCC version 4.9.2
# options -cpp -iprefix /lustre/shared/ucl/apps/gcc/4.9.2/bin/../lib/gcc/x86_64-unknown-linux-gnu/4.9.2/ -mtune=corei7 -march=x86-64 -g -Og
#
# seed   144266579 -1026645683 -1710658082  -563195600  1298653365  -209914356   222416559   871870910  -593810620   -15421515   708740111   382320495
#
#      Author: C. J. Pickard (cjp20@cam.ac.uk)
#                Space group: P2
#

%BLOCK LATTICE_ABC
      3.92670      7.06712      7.40916
    103.41209     90.00000     90.00000
%ENDBLOCK LATTICE_ABC

%BLOCK POSITIONS_FRAC
  Li   0.1378562   0.0882317  -0.2304210 SPIN=   0.00000
  Li   0.1378562  -0.0882317   0.2304210 SPIN=   0.00000
  Fe  -0.3763425  -0.2664618   0.4370682 SPIN=   4.00000
  Fe  -0.3763425   0.2664618  -0.4370682 SPIN=   4.00000
   O   0.6252619  -0.2987518   0.0713651 SPIN=   0.00000
   O   0.1065309  -0.2737324  -0.1114009 SPIN=   0.00000
   O   0.6124855  -0.4488265  -0.2653853 SPIN=   0.00000
   O   0.6252594  -0.0904512  -0.1549894 SPIN=   0.00000
   S   0.4923844  -0.2779405  -0.1151026 SPIN=   0.00000
   O   0.6252619   0.2987518  -0.0713651 SPIN=   0.00000
   O   0.1065309   0.2737324   0.1114009 SPIN=   0.00000
   O   0.6124855   0.4488265   0.2653853 SPIN=   0.00000
   O   0.6252594   0.0904512   0.1549894 SPIN=   0.00000
   S   0.4923844   0.2779405   0.1151026 SPIN=   0.00000
   F   0.0857497   0.3048609  -0.3495958 SPIN=   0.00000
   F   0.0857497  -0.3048609   0.3495958 SPIN=   0.00000
%ENDBLOCK POSITIONS_FRAC

# Note: total spin =   8.00

KPOINTS_MP_SPACING 0.07

%BLOCK SPECIES_POT
QC5
%ENDBLOCK SPECIES_POT

SNAP_TO_SYMMETRY
SYMMETRY_GENERATE

