#              Generated by Buildcell
#
# at 03:02:17 (GMT+1.0) 4th August 2020
# in /lustre/scratch/uccabz1/launch_tmp
# on node-c12f-021
# by uccabz1
#
# compiler GCC version 4.9.2
# options -cpp -iprefix /lustre/shared/ucl/apps/gcc/4.9.2/bin/../lib/gcc/x86_64-unknown-linux-gnu/4.9.2/ -mtune=corei7 -march=x86-64 -g -Og
#
# seed   143382327 -1540303412 -1881096038  -977599617   417859381 -1691353165   762687879 -1864892163  1546392089 -1962355505   277247715  -500642749
#
#      Author: C. J. Pickard (cjp20@cam.ac.uk)
#                Space group: C2221
#

%BLOCK LATTICE_ABC
      5.73327      5.73327      6.99557
     90.00000     90.00000    119.56880
%ENDBLOCK LATTICE_ABC

%BLOCK POSITIONS_FRAC
  Li  -0.1912263   0.1912263  -0.2500000 SPIN=   0.00000
  Li   0.1912263  -0.1912263   0.2500000 SPIN=   0.00000
  Fe  -0.4278557   0.4278557   0.2500000 SPIN=   4.00000
  Fe   0.4278557  -0.4278557  -0.2500000 SPIN=   4.00000
   O   0.0582150  -0.1659791  -0.0122878 SPIN=   0.00000
   O   0.0517500  -0.4147410  -0.3032026 SPIN=   0.00000
   O  -0.0582150   0.1659791   0.4877122 SPIN=   0.00000
   O  -0.0517500   0.4147410   0.1967974 SPIN=   0.00000
   O   0.1659791  -0.0582150  -0.4877122 SPIN=   0.00000
   O   0.4147410  -0.0517500  -0.1967974 SPIN=   0.00000
   O  -0.1659791   0.0582150   0.0122878 SPIN=   0.00000
   O  -0.4147410   0.0517500   0.3032026 SPIN=   0.00000
   S  -0.0969043   0.0969043   0.2500000 SPIN=   0.00000
   S   0.0969043  -0.0969043  -0.2500000 SPIN=   0.00000
   F   0.4893613   0.4893613   0.0000000 SPIN=   0.00000
   F  -0.4893613  -0.4893613  -0.5000000 SPIN=   0.00000
%ENDBLOCK POSITIONS_FRAC

# Note: total spin =   8.00

KPOINTS_MP_SPACING 0.07

%BLOCK SPECIES_POT
QC5
%ENDBLOCK SPECIES_POT

SNAP_TO_SYMMETRY
SYMMETRY_GENERATE

