#              Generated by Buildcell
#
# at 01:52:22 (GMT+1.0) 19th August 2020
# in /scratch/scratch/uccabz1/launch_tmp
# on node-k10i-027
# by uccabz1
#
# compiler GCC version 4.9.2
# options -cpp -iprefix /scratch/UCL/applications/gcc/4.9.2/bin/../lib/gcc/x86_64-unknown-linux-gnu/4.9.2/ -mtune=corei7 -march=x86-64 -g -O2
#
# seed  1368415584  -776818428  1272646653  1852713665  1700060214  1186244829   174864953 -1980340394 -1471411743  -352651799  -620260111  1424380414
#
#      Author: C. J. Pickard (cjp20@cam.ac.uk)
#                Space group: Pmn21
#

%BLOCK LATTICE_ABC
      5.36377      5.64913      6.60052
     90.00000     90.00000     90.00000
%ENDBLOCK LATTICE_ABC

%BLOCK POSITIONS_FRAC
  Li   0.2485187   0.5000000  -0.3791990 SPIN=   0.00000
  Li  -0.2514813  -0.0000000   0.3791990 SPIN=   0.00000
  Fe  -0.2908532  -0.0000000  -0.0883586 SPIN=   4.00000
  Fe   0.2091468  -0.5000000   0.0883586 SPIN=   4.00000
   O  -0.3842304  -0.2370496  -0.4269564 SPIN=   0.00000
   O  -0.0001930  -0.2886406  -0.2238679 SPIN=   0.00000
   O   0.1157696  -0.2629504   0.4269564 SPIN=   0.00000
   O   0.4998070  -0.2113594   0.2238679 SPIN=   0.00000
   O   0.1157696   0.2629504   0.4269564 SPIN=   0.00000
   O   0.4998070   0.2113594   0.2238679 SPIN=   0.00000
   O  -0.3842304   0.2370496  -0.4269564 SPIN=   0.00000
   O  -0.0001930   0.2886406  -0.2238679 SPIN=   0.00000
   S   0.2106373   0.0000000  -0.3904452 SPIN=   0.00000
   S  -0.2893627  -0.5000000   0.3904452 SPIN=   0.00000
   F  -0.0508900  -0.0000000   0.1105492 SPIN=   0.00000
   F   0.4491100  -0.5000000  -0.1105492 SPIN=   0.00000
%ENDBLOCK POSITIONS_FRAC

# Note: total spin =   8.00

KPOINTS_MP_SPACING 0.07

%BLOCK SPECIES_POT
QC5
%ENDBLOCK SPECIES_POT

SNAP_TO_SYMMETRY
SYMMETRY_GENERATE

