#              Generated by Buildcell
#
# at 02:32:32 (GMT+1.0) 19th August 2020
# in /lustre/scratch/uccabz1/launch_tmp
# on node-c12h-024
# by uccabz1
#
# compiler GCC version 4.9.2
# options -cpp -iprefix /lustre/shared/ucl/apps/gcc/4.9.2/bin/../lib/gcc/x86_64-unknown-linux-gnu/4.9.2/ -mtune=corei7 -march=x86-64 -g -Og
#
# seed -1224408278  1885531150  -186274549  1367883598  2096938186  -639256097 -1639645164  1576586354   992083996 -1309482372  1754185546  2001933026
#
#      Author: C. J. Pickard (cjp20@cam.ac.uk)
#                Space group: Cmc21
#

%BLOCK LATTICE_ABC
      4.77792      5.72520      7.85182
    111.38159     90.00000     90.00000
%ENDBLOCK LATTICE_ABC

%BLOCK POSITIONS_FRAC
  Li  -0.2553970   0.4070569  -0.1858862 SPIN=   0.00000
  Li   0.2446030  -0.4070569   0.1858862 SPIN=   0.00000
  Fe  -0.4703698  -0.0976419  -0.1952837 SPIN=   4.00000
  Fe   0.0296302   0.0976419   0.1952837 SPIN=   4.00000
   O   0.2496157  -0.5048131  -0.4461345 SPIN=   0.00000
   O   0.3617774  -0.3631957  -0.1161773 SPIN=   0.00000
   O  -0.2503843   0.5048131   0.4461345 SPIN=   0.00000
   O  -0.1382226   0.3631957   0.1161773 SPIN=   0.00000
   O  -0.2503843  -0.0586785   0.4461345 SPIN=   0.00000
   O  -0.1382226  -0.2470185   0.1161773 SPIN=   0.00000
   O   0.2496157   0.0586785  -0.4461345 SPIN=   0.00000
   O   0.3617774   0.2470185  -0.1161773 SPIN=   0.00000
   S  -0.2553997  -0.3311335   0.3377331 SPIN=   0.00000
   S   0.2446003   0.3311335  -0.3377331 SPIN=   0.00000
   F  -0.0943142  -0.1051625  -0.2103250 SPIN=   0.00000
   F   0.4056858   0.1051625   0.2103250 SPIN=   0.00000
%ENDBLOCK POSITIONS_FRAC

# Note: total spin =   8.00

KPOINTS_MP_SPACING 0.07

%BLOCK SPECIES_POT
QC5
%ENDBLOCK SPECIES_POT

SNAP_TO_SYMMETRY
SYMMETRY_GENERATE

