#              Generated by Buildcell
#
# at 03:38:29 (GMT+1.0) 4th August 2020
# in /lustre/scratch/uccabz1/launch_tmp
# on node-c12d-004
# by uccabz1
#
# compiler GCC version 4.9.2
# options -cpp -iprefix /lustre/shared/ucl/apps/gcc/4.9.2/bin/../lib/gcc/x86_64-unknown-linux-gnu/4.9.2/ -mtune=corei7 -march=x86-64 -g -Og
#
# seed  -129097380   -75617989 -1060404642  1279011594 -1321900473 -1535688987 -1469729300  -158965565   832885215  2050319615   318973962 -1668389757
#
#      Author: C. J. Pickard (cjp20@cam.ac.uk)
#                Space group: Cc
#

%BLOCK LATTICE_ABC
      5.53960      6.66575      6.66575
    112.64837    105.24249    105.24249
%ENDBLOCK LATTICE_ABC

%BLOCK POSITIONS_FRAC
  Li   0.3485749   0.2254453  -0.4003669 SPIN=   0.00000
  Li  -0.1514251  -0.4003669   0.2254453 SPIN=   0.00000
  Fe   0.1174943   0.1956182  -0.0326771 SPIN=   4.00000
  Fe  -0.3825057  -0.0326771   0.1956182 SPIN=   4.00000
   O   0.3447326  -0.3854485  -0.3897628 SPIN=   0.00000
   O   0.7189782  -0.0631679  -0.3637268 SPIN=   0.00000
   O   0.3500505   0.0183005  -0.2501714 SPIN=   0.00000
   O   0.2501262  -0.2329237  -0.6734891 SPIN=   0.00000
   S   0.4159719  -0.1658099  -0.4192875 SPIN=   0.00000
   O  -0.1552674  -0.3897628  -0.3854485 SPIN=   0.00000
   O   0.2189782  -0.3637268  -0.0631679 SPIN=   0.00000
   O  -0.1499495  -0.2501714   0.0183005 SPIN=   0.00000
   O  -0.2498738  -0.6734891  -0.2329237 SPIN=   0.00000
   S  -0.0840281  -0.4192875  -0.1658099 SPIN=   0.00000
   F  -0.4866600   0.3580606   0.1598829 SPIN=   0.00000
   F   0.0133400   0.1598829   0.3580606 SPIN=   0.00000
%ENDBLOCK POSITIONS_FRAC

# Note: total spin =   8.00

KPOINTS_MP_SPACING 0.07

%BLOCK SPECIES_POT
QC5
%ENDBLOCK SPECIES_POT

SNAP_TO_SYMMETRY
SYMMETRY_GENERATE

