#              Generated by Buildcell
#
# at 01:43:25 (GMT+1.0) 19th August 2020
# in /scratch/scratch/uccabz1/launch_tmp
# on node-k10b-026
# by uccabz1
#
# compiler GCC version 4.9.2
# options -cpp -iprefix /scratch/UCL/applications/gcc/4.9.2/bin/../lib/gcc/x86_64-unknown-linux-gnu/4.9.2/ -mtune=corei7 -march=x86-64 -g -O2
#
# seed  1098935945   826020618 -1482232513  -631391045  1427268865  1807811527 -1273311265  1844341989  -556457069  -378631343 -1893979012 -1808616667
#
#      Author: C. J. Pickard (cjp20@cam.ac.uk)
#                Space group: Cm
#

%BLOCK LATTICE_ABC
      5.40515      6.66019      6.66019
     99.24461    110.26077    110.26077
%ENDBLOCK LATTICE_ABC

%BLOCK POSITIONS_FRAC
  Li  -0.4063314   0.2594815  -0.1812441 SPIN=   0.00000
  Li  -0.4063314  -0.1812441   0.2594815 SPIN=   0.00000
  Fe  -0.3150763  -0.1607849  -0.1607849 SPIN=   3.39748
  Fe  -0.1019559   0.4641988   0.4641988 SPIN=   4.60252
   O   0.4109835   0.1661329   0.3940270 SPIN=   0.00000
   O  -0.0681290  -0.1630030   0.1578883 SPIN=   0.00000
   O   0.0966134  -0.0148232   0.5698753 SPIN=   0.00000
   O   0.3405806  -0.2135909   0.4235985 SPIN=   0.00000
   S   0.1950121  -0.0563211   0.3863473 SPIN=   0.00000
   O   0.4109835   0.3940270   0.1661329 SPIN=   0.00000
   O  -0.0681290   0.1578883  -0.1630030 SPIN=   0.00000
   O   0.0966134   0.5698753  -0.0148232 SPIN=   0.00000
   O   0.3405806   0.4235985  -0.2135909 SPIN=   0.00000
   S   0.1950121   0.3863473  -0.0563211 SPIN=   0.00000
   F  -0.3463911  -0.4128811  -0.4128811 SPIN=   0.00000
   F   0.4275014  -0.0467784  -0.0467784 SPIN=   0.00000
%ENDBLOCK POSITIONS_FRAC

# Note: total spin =   8.00

KPOINTS_MP_SPACING 0.07

%BLOCK SPECIES_POT
QC5
%ENDBLOCK SPECIES_POT

SNAP_TO_SYMMETRY
SYMMETRY_GENERATE

