#              Generated by Buildcell
#
# at 05:45:57 (GMT+1.0) 4th August 2020
# in /lustre/scratch/uccabz1/launch_tmp
# on node-c12a-002
# by uccabz1
#
# compiler GCC version 4.9.2
# options -cpp -iprefix /lustre/shared/ucl/apps/gcc/4.9.2/bin/../lib/gcc/x86_64-unknown-linux-gnu/4.9.2/ -mtune=corei7 -march=x86-64 -g -Og
#
# seed -1881153313  1819382748 -1881051915  1040162087 -1213904442 -1712662390  1839067393  -199348778  2103672180  2037981104  -998710293 -1060137575
#
#      Author: C. J. Pickard (cjp20@cam.ac.uk)
#                Space group: P-1
#

%BLOCK LATTICE_ABC
      5.05950      6.68678      7.05173
     61.95877     74.70494     74.19394
%ENDBLOCK LATTICE_ABC

%BLOCK POSITIONS_FRAC
  Li   0.2195092   0.2126549  -0.4328158 SPIN=   0.00000
  Li  -0.2195092  -0.2126549   0.4328158 SPIN=   0.00000
  Fe  -0.2638665  -0.0520196  -0.2190728 SPIN=   4.00000
  Fe   0.2638665   0.0520196   0.2190728 SPIN=   4.00000
   O  -0.1373571  -0.2454312   0.1445808 SPIN=   0.00000
   O   0.1749091  -0.5879112   0.1120453 SPIN=   0.00000
   O   0.2354409  -0.4578025   0.3711775 SPIN=   0.00000
   O   0.3557237  -0.2273920  -0.0253371 SPIN=   0.00000
   S   0.1571791  -0.3796342   0.1506166 SPIN=   0.00000
   O   0.1373571   0.2454312  -0.1445808 SPIN=   0.00000
   O  -0.1749091   0.5879112  -0.1120453 SPIN=   0.00000
   O  -0.2354409   0.4578025  -0.3711775 SPIN=   0.00000
   O  -0.3557237   0.2273920   0.0253371 SPIN=   0.00000
   S  -0.1571791   0.3796342  -0.1506166 SPIN=   0.00000
   F   0.3129120  -0.2412364  -0.4323938 SPIN=   0.00000
   F  -0.3129120   0.2412364   0.4323938 SPIN=   0.00000
%ENDBLOCK POSITIONS_FRAC

# Note: total spin =   8.00

KPOINTS_MP_SPACING 0.07

%BLOCK SPECIES_POT
QC5
%ENDBLOCK SPECIES_POT

SNAP_TO_SYMMETRY
SYMMETRY_GENERATE

