#              Generated by Buildcell
#
# at 03:56:50 (GMT+1.0) 4th August 2020
# in /lustre/scratch/uccabz1/launch_tmp
# on node-c12l-009
# by uccabz1
#
# compiler GCC version 4.9.2
# options -cpp -iprefix /lustre/shared/ucl/apps/gcc/4.9.2/bin/../lib/gcc/x86_64-unknown-linux-gnu/4.9.2/ -mtune=corei7 -march=x86-64 -g -Og
#
# seed -1447334836 -1201041522  -935052548   934896128  1202543118  1023421341  -557451594 -2017101100  1895560658  1484873231  1480625818 -1256164922
#
#      Author: C. J. Pickard (cjp20@cam.ac.uk)
#                Space group: P21
#

%BLOCK LATTICE_ABC
      4.03974      5.31347      9.44789
     90.00000     90.00000     99.53086
%ENDBLOCK LATTICE_ABC

%BLOCK POSITIONS_FRAC
  Li   0.0806965   0.0652097   0.3090925 SPIN=   0.00000
  Li  -0.0806965  -0.0652097  -0.1909075 SPIN=   0.00000
  Fe   0.4668899  -0.0990965  -0.4448375 SPIN=   4.00000
  Fe  -0.4668899   0.0990965   0.0551625 SPIN=   4.00000
   O  -0.0033613   0.5167679   0.3110147 SPIN=   0.00000
   O  -0.5105826   0.4214760   0.4612097 SPIN=   0.00000
   O   0.0147001   0.6638097   0.5598740 SPIN=   0.00000
   O  -0.0244822   0.2039250   0.5062241 SPIN=   0.00000
   S  -0.1309315   0.4514947   0.4595807 SPIN=   0.00000
   O   0.0033613  -0.5167679  -0.1889853 SPIN=   0.00000
   O   0.5105826  -0.4214760  -0.0387903 SPIN=   0.00000
   O  -0.0147001  -0.6638097   0.0598740 SPIN=   0.00000
   O   0.0244822  -0.2039250   0.0062241 SPIN=   0.00000
   S   0.1309315  -0.4514947  -0.0404193 SPIN=   0.00000
   F  -0.4774504  -0.0920810   0.2523347 SPIN=   0.00000
   F   0.4774504   0.0920810  -0.2476653 SPIN=   0.00000
%ENDBLOCK POSITIONS_FRAC

# Note: total spin =   8.00

KPOINTS_MP_SPACING 0.07

%BLOCK SPECIES_POT
QC5
%ENDBLOCK SPECIES_POT

SNAP_TO_SYMMETRY
SYMMETRY_GENERATE

