#              Generated by Buildcell
#
# at 23:38:32 (GMT+1.0) 18th August 2020
# in /lustre/scratch/uccabz1/launch_tmp
# on node-c12m-014
# by uccabz1
#
# compiler GCC version 4.9.2
# options -cpp -iprefix /lustre/shared/ucl/apps/gcc/4.9.2/bin/../lib/gcc/x86_64-unknown-linux-gnu/4.9.2/ -mtune=corei7 -march=x86-64 -g -Og
#
# seed -1992419602   194655179 -1671707378  1117075366 -1957496464    85139822 -1587252428  -379794189 -1442171486  1089393003  1659660984 -2131492375
#
#      Author: C. J. Pickard (cjp20@cam.ac.uk)
#                Space group: Pc
#

%BLOCK LATTICE_ABC
      3.99339      5.61434      8.92540
     90.00000     90.00000     91.89713
%ENDBLOCK LATTICE_ABC

%BLOCK POSITIONS_FRAC
  Li  -0.2607877  -0.2831277  -0.3408146 SPIN=   0.00000
  Li   0.2392123   0.2168723   0.3408146 SPIN=   0.00000
  Fe  -0.2787891  -0.1702572   0.3364945 SPIN=   4.00000
  Fe   0.2212109   0.3297428  -0.3364945 SPIN=   4.00000
   O  -0.1192283   0.0777644   0.1444636 SPIN=   0.00000
   O  -0.1172866   0.4672176   0.2744096 SPIN=   0.00000
   O  -0.6193383   0.3260130   0.1334810 SPIN=   0.00000
   O  -0.1032182   0.4516512  -0.0026230 SPIN=   0.00000
   S  -0.2397678   0.3306616   0.1374328 SPIN=   0.00000
   O   0.3807717  -0.4222356  -0.1444636 SPIN=   0.00000
   O   0.3827134  -0.0327824  -0.2744096 SPIN=   0.00000
   O  -0.1193383  -0.1739870  -0.1334810 SPIN=   0.00000
   O   0.3967818  -0.0483488   0.0026230 SPIN=   0.00000
   S   0.2602322  -0.1693384  -0.1374328 SPIN=   0.00000
   F   0.2751212  -0.1435562   0.3762729 SPIN=   0.00000
   F  -0.2248788   0.3564438  -0.3762729 SPIN=   0.00000
%ENDBLOCK POSITIONS_FRAC

# Note: total spin =   8.00

KPOINTS_MP_SPACING 0.07

%BLOCK SPECIES_POT
QC5
%ENDBLOCK SPECIES_POT

SNAP_TO_SYMMETRY
SYMMETRY_GENERATE

