#              Generated by Buildcell
#
# at 02:58:23 (GMT+1.0) 4th August 2020
# in /lustre/scratch/uccabz1/launch_tmp
# on node-c12l-009
# by uccabz1
#
# compiler GCC version 4.9.2
# options -cpp -iprefix /lustre/shared/ucl/apps/gcc/4.9.2/bin/../lib/gcc/x86_64-unknown-linux-gnu/4.9.2/ -mtune=corei7 -march=x86-64 -g -Og
#
# seed -1184577107   830656932  -823921418  2085947387    81204161 -1470646029 -1413183447   502291230  -154981292  -214566288  -970443248  1503063359
#
#      Author: C. J. Pickard (cjp20@cam.ac.uk)
#                Space group: Pnc2
#

%BLOCK LATTICE_ABC
      5.41515      6.02068      6.13443
     90.00000     90.00000     90.00000
%ENDBLOCK LATTICE_ABC

%BLOCK POSITIONS_FRAC
  Li  -0.2137815  -0.0000000   0.5000000 SPIN=   0.00000
  Li   0.2862185   0.5000000  -0.5000000 SPIN=   0.00000
  Fe  -0.0672319   0.0000000  -0.0000000 SPIN=   4.00000
  Fe   0.4327681  -0.5000000  -0.0000000 SPIN=   4.00000
   O  -0.3824632   0.5782852  -0.2836892 SPIN=   0.00000
   O  -0.0741636   0.2884167  -0.3717872 SPIN=   0.00000
   O  -0.3824632  -0.5782852   0.2836892 SPIN=   0.00000
   O  -0.0741636  -0.2884167   0.3717872 SPIN=   0.00000
   O   0.1175368  -0.0782852  -0.2836892 SPIN=   0.00000
   O   0.4258364   0.2115833  -0.3717872 SPIN=   0.00000
   O   0.1175368   0.0782852   0.2836892 SPIN=   0.00000
   O   0.4258364  -0.2115833   0.3717872 SPIN=   0.00000
   S   0.2862390  -0.0000000  -0.5000000 SPIN=   0.00000
   S  -0.2137610   0.5000000  -0.5000000 SPIN=   0.00000
   F  -0.4390939  -0.0000000   0.0000000 SPIN=   0.00000
   F   0.0609061   0.5000000  -0.0000000 SPIN=   0.00000
%ENDBLOCK POSITIONS_FRAC

# Note: total spin =   8.00

KPOINTS_MP_SPACING 0.07

%BLOCK SPECIES_POT
QC5
%ENDBLOCK SPECIES_POT

SNAP_TO_SYMMETRY
SYMMETRY_GENERATE

