#              Generated by Buildcell
#
# at 03:23:19 (GMT+1.0) 4th August 2020
# in /lustre/scratch/uccabz1/launch_tmp
# on node-c12n-011
# by uccabz1
#
# compiler GCC version 4.9.2
# options -cpp -iprefix /lustre/shared/ucl/apps/gcc/4.9.2/bin/../lib/gcc/x86_64-unknown-linux-gnu/4.9.2/ -mtune=corei7 -march=x86-64 -g -Og
#
# seed -2082417027  -713697776  2060031364   529592823 -1829277294   731581085  1604141626 -1304657591  1812592015   663369059 -1067731084  1189400652
#
#      Author: C. J. Pickard (cjp20@cam.ac.uk)
#                Space group: Cm
#

%BLOCK LATTICE_ABC
      5.37986      6.20176      6.20176
     79.71058     81.74623     81.74623
%ENDBLOCK LATTICE_ABC

%BLOCK POSITIONS_FRAC
  Li  -0.1007284  -0.4479626   0.0294866 SPIN=   0.00000
  Li  -0.1007284   0.0294866  -0.4479626 SPIN=   0.00000
  Fe   0.0205366   0.0470782   0.0470782 SPIN=   2.04921
  Fe   0.2455448   0.3996752   0.3996752 SPIN=   5.95079
   O   0.5521584   0.5936371  -0.1274490 SPIN=   0.00000
   O   0.6731538   0.2578660  -0.3007734 SPIN=   0.00000
   O   0.2239628   0.3676965  -0.1698101 SPIN=   0.00000
   S   0.4946558   0.3608893  -0.1245425 SPIN=   0.00000
   O   0.5521584  -0.1274490   0.5936371 SPIN=   0.00000
   O   0.6731538  -0.3007734   0.2578660 SPIN=   0.00000
   O   0.2239628  -0.1698101   0.3676965 SPIN=   0.00000
   S   0.4946558  -0.1245425   0.3608893 SPIN=   0.00000
   O  -0.4226447   0.0386047   0.0386047 SPIN=   0.00000
   O  -0.1746899  -0.4260787  -0.4260787 SPIN=   0.00000
   F   0.0364911  -0.1729663  -0.1729663 SPIN=   0.00000
   F  -0.0379034   0.2698347   0.2698347 SPIN=   0.00000
%ENDBLOCK POSITIONS_FRAC

# Note: total spin =   8.00

KPOINTS_MP_SPACING 0.07

%BLOCK SPECIES_POT
QC5
%ENDBLOCK SPECIES_POT

SNAP_TO_SYMMETRY
SYMMETRY_GENERATE

