#              Generated by Buildcell
#
# at 03:13:13 (GMT+1.0) 4th August 2020
# in /lustre/scratch/uccabz1/launch_tmp
# on node-c12g-032
# by uccabz1
#
# compiler GCC version 4.9.2
# options -cpp -iprefix /lustre/shared/ucl/apps/gcc/4.9.2/bin/../lib/gcc/x86_64-unknown-linux-gnu/4.9.2/ -mtune=corei7 -march=x86-64 -g -Og
#
# seed   -47201945  -811314303  -962185622   227381643  -547304828   397633200  -854617187  -115030401  1095371762 -1228945343   111817881  1009706726
#
#      Author: C. J. Pickard (cjp20@cam.ac.uk)
#                Space group: C2221
#

%BLOCK LATTICE_ABC
      5.28339      5.28339      7.20227
     90.00000     90.00000     95.84575
%ENDBLOCK LATTICE_ABC

%BLOCK POSITIONS_FRAC
  Li   0.2942002  -0.2942002  -0.0000000 SPIN=   0.00000
  Li  -0.2942002   0.2942002   0.5000000 SPIN=   0.00000
  Fe  -0.1339865  -0.1339865   0.2500000 SPIN=   4.00000
  Fe   0.1339865   0.1339865  -0.2500000 SPIN=   4.00000
   O  -0.2819763  -0.6606026  -0.2083412 SPIN=   0.00000
   O  -0.3300863  -0.3390351   0.0355656 SPIN=   0.00000
   O   0.2819763   0.6606026   0.2916588 SPIN=   0.00000
   O   0.3300863   0.3390351   0.5355656 SPIN=   0.00000
   O  -0.6606026  -0.2819763  -0.2916588 SPIN=   0.00000
   O  -0.3390351  -0.3300863  -0.5355656 SPIN=   0.00000
   O   0.6606026   0.2819763   0.2083412 SPIN=   0.00000
   O   0.3390351   0.3300863  -0.0355656 SPIN=   0.00000
   S  -0.3562981   0.3562981  -0.0000000 SPIN=   0.00000
   S   0.3562981  -0.3562981   0.5000000 SPIN=   0.00000
   F  -0.1220980  -0.1220980  -0.2500000 SPIN=   0.00000
   F   0.1220980   0.1220980   0.2500000 SPIN=   0.00000
%ENDBLOCK POSITIONS_FRAC

# Note: total spin =   8.00

KPOINTS_MP_SPACING 0.07

%BLOCK SPECIES_POT
QC5
%ENDBLOCK SPECIES_POT

SNAP_TO_SYMMETRY
SYMMETRY_GENERATE

