#              Generated by Buildcell
#
# at 04:20:49 (GMT+1.0) 4th August 2020
# in /lustre/scratch/uccabz1/launch_tmp
# on node-c12f-007
# by uccabz1
#
# compiler GCC version 4.9.2
# options -cpp -iprefix /lustre/shared/ucl/apps/gcc/4.9.2/bin/../lib/gcc/x86_64-unknown-linux-gnu/4.9.2/ -mtune=corei7 -march=x86-64 -g -Og
#
# seed  1749698423  -980205749 -1335495802  1489951679  1593757631   259409911 -1401991508  1055518563 -1602738387 -1648705660  1476122093  -957460559
#
#      Author: C. J. Pickard (cjp20@cam.ac.uk)
#                Space group: Ama2
#

%BLOCK LATTICE_ABC
      3.81101      6.96621      7.83214
     90.00000     90.00000    105.87476
%ENDBLOCK LATTICE_ABC

%BLOCK POSITIONS_FRAC
  Li   0.1415803  -0.1359584   0.2500000 SPIN=   0.00000
  Li  -0.2775387  -0.1359584  -0.2500000 SPIN=   0.00000
  Fe   0.0480476  -0.4855255  -0.2500000 SPIN=   4.00000
  Fe   0.4664269  -0.4855255   0.2500000 SPIN=   4.00000
   O  -0.1498380   0.2421812  -0.1010743 SPIN=   0.00000
   O  -0.2500023  -0.0409790   0.1008140 SPIN=   0.00000
   O   0.3920192   0.2421812   0.1010743 SPIN=   0.00000
   O   0.2090233  -0.0409790  -0.1008140 SPIN=   0.00000
   O   0.3920192   0.2421812   0.3989257 SPIN=   0.00000
   O   0.2090233  -0.0409790   0.6008140 SPIN=   0.00000
   O  -0.1498380   0.2421812  -0.3989257 SPIN=   0.00000
   O  -0.2500023  -0.0409790  -0.6008140 SPIN=   0.00000
   S  -0.4454453   0.1091094   0.0000000 SPIN=   0.00000
   S  -0.4454453   0.1091094  -0.5000000 SPIN=   0.00000
   F   0.3000318  -0.3999365   0.0000000 SPIN=   0.00000
   F   0.3000318  -0.3999365  -0.5000000 SPIN=   0.00000
%ENDBLOCK POSITIONS_FRAC

# Note: total spin =   8.00

KPOINTS_MP_SPACING 0.07

%BLOCK SPECIES_POT
QC5
%ENDBLOCK SPECIES_POT

SNAP_TO_SYMMETRY
SYMMETRY_GENERATE

