#              Generated by Buildcell
#
# at 02:29:39 (GMT+1.0) 19th August 2020
# in /scratch/scratch/uccabz1/launch_tmp
# on node-k10f-002
# by uccabz1
#
# compiler GCC version 4.9.2
# options -cpp -iprefix /scratch/UCL/applications/gcc/4.9.2/bin/../lib/gcc/x86_64-unknown-linux-gnu/4.9.2/ -mtune=corei7 -march=x86-64 -g -O2
#
# seed  2107452327  1530822831   -84758227 -1850757222  2103766197  -532064063  1871490850  1928247861   883712598  1432579633   -26546186  -682090640
#
#      Author: C. J. Pickard (cjp20@cam.ac.uk)
#                Space group: Cc
#

%BLOCK LATTICE_ABC
      5.87866      6.40743      6.43912
    119.83729    105.61980     90.00000
%ENDBLOCK LATTICE_ABC

%BLOCK POSITIONS_FRAC
  Li   0.4310836   0.3364183   0.0239169 SPIN=   0.00000
  Li  -0.0689164  -0.3125014   0.0239169 SPIN=   0.00000
  Fe   0.0324628   0.2942499   0.2241115 SPIN=   4.00000
  Fe  -0.4675372  -0.0701385   0.2241115 SPIN=   4.00000
   O  -0.2964643  -0.2092965  -0.2038150 SPIN=   0.00000
   O  -0.6297345  -0.5398956  -0.5345362 SPIN=   0.00000
   O  -0.2118362  -0.6186435  -0.4800629 SPIN=   0.00000
   O  -0.3550581  -0.3566287  -0.6530984 SPIN=   0.00000
   S  -0.3732733  -0.4311161  -0.4678781 SPIN=   0.00000
   O   0.2035357   0.0054815  -0.2038150 SPIN=   0.00000
   O  -0.1297345   0.0053593  -0.5345362 SPIN=   0.00000
   O   0.2881638   0.1385806  -0.4800629 SPIN=   0.00000
   O   0.1449419  -0.2964696  -0.6530984 SPIN=   0.00000
   S   0.1267267  -0.0367621  -0.4678781 SPIN=   0.00000
   F  -0.2568436   0.2556124  -0.0740701 SPIN=   0.00000
   F   0.2431564  -0.3296824  -0.0740701 SPIN=   0.00000
%ENDBLOCK POSITIONS_FRAC

# Note: total spin =   8.00

KPOINTS_MP_SPACING 0.07

%BLOCK SPECIES_POT
QC5
%ENDBLOCK SPECIES_POT

SNAP_TO_SYMMETRY
SYMMETRY_GENERATE

