#              Generated by Buildcell
#
# at 02:32:48 (GMT+1.0) 19th August 2020
# in /lustre/scratch/uccabz1/launch_tmp
# on node-c12j-002
# by uccabz1
#
# compiler GCC version 4.9.2
# options -cpp -iprefix /lustre/shared/ucl/apps/gcc/4.9.2/bin/../lib/gcc/x86_64-unknown-linux-gnu/4.9.2/ -mtune=corei7 -march=x86-64 -g -Og
#
# seed  2012840724 -1760806823   120385257 -1477089300 -1885890621 -1091000917   603676154  -250043037 -1963174279 -2090801568   105672485 -1624897675
#
#      Author: C. J. Pickard (cjp20@cam.ac.uk)
#                Space group: Imm2
#

%BLOCK LATTICE_ABC
      6.18089      6.29249      6.77442
    117.67334    117.14171     90.00000
%ENDBLOCK LATTICE_ABC

%BLOCK POSITIONS_FRAC
  Li  -0.2421437   0.2701788  -0.4842874 SPIN=   0.00000
  Li   0.2421437  -0.2455338   0.4842874 SPIN=   0.00000
  Fe  -0.0000000  -0.2258202   0.0000000 SPIN=   0.97830
  Fe  -0.5000000   0.2368560   0.0000000 SPIN=   7.02170
   O   0.3629862  -0.0505900   0.3685934 SPIN=   0.00000
   O   0.3107792   0.2810042   0.2639786 SPIN=   0.00000
   O  -0.3629862  -0.4191835  -0.3685934 SPIN=   0.00000
   O  -0.3107792   0.0170256  -0.2639786 SPIN=   0.00000
   O  -0.0056072  -0.4191835  -0.3685934 SPIN=   0.00000
   O   0.0468006   0.0170256  -0.2639786 SPIN=   0.00000
   O   0.0056072  -0.0505900   0.3685934 SPIN=   0.00000
   O  -0.0468006   0.2810042   0.2639786 SPIN=   0.00000
   S   0.2590730   0.3271314  -0.4818540 SPIN=   0.00000
   S  -0.2590730  -0.1910146   0.4818540 SPIN=   0.00000
   F  -0.5000000  -0.0553660  -0.0000000 SPIN=   0.00000
   F   0.0000000   0.4820389  -0.0000000 SPIN=   0.00000
%ENDBLOCK POSITIONS_FRAC

# Note: total spin =   8.00

KPOINTS_MP_SPACING 0.07

%BLOCK SPECIES_POT
QC5
%ENDBLOCK SPECIES_POT

SNAP_TO_SYMMETRY
SYMMETRY_GENERATE

