#              Generated by Buildcell
#
# at 02:08:00 (GMT+1.0) 19th August 2020
# in /lustre/scratch/uccabz1/launch_tmp
# on node-c12e-014
# by uccabz1
#
# compiler GCC version 4.9.2
# options -cpp -iprefix /lustre/shared/ucl/apps/gcc/4.9.2/bin/../lib/gcc/x86_64-unknown-linux-gnu/4.9.2/ -mtune=corei7 -march=x86-64 -g -Og
#
# seed  1644027244  -807935839  -815447389 -1835789593  -359394557   909108782  2141154212 -1639064909 -1605285427  1624773228   452642935 -1101037863
#
#      Author: C. J. Pickard (cjp20@cam.ac.uk)
#                Space group: P21
#

%BLOCK LATTICE_ABC
      4.77161      5.91782      7.10823
     90.00000     90.00000     94.84930
%ENDBLOCK LATTICE_ABC

%BLOCK POSITIONS_FRAC
  Li  -0.1420239  -0.3054128  -0.1199075 SPIN=   0.00000
  Li   0.1420239   0.3054128   0.3800925 SPIN=   0.00000
  Fe   0.4913122  -0.0495624   0.2291620 SPIN=   4.00000
  Fe  -0.4913122   0.0495624  -0.2708380 SPIN=   4.00000
   O   0.5927590   0.3547384   0.0421701 SPIN=   0.00000
   O   0.1281097   0.3157915  -0.1146534 SPIN=   0.00000
   O   0.4212871   0.6809741  -0.1278900 SPIN=   0.00000
   O   0.1979342   0.5514506   0.1718575 SPIN=   0.00000
   S   0.3350225   0.4757386  -0.0071289 SPIN=   0.00000
   O  -0.5927590  -0.3547384   0.5421701 SPIN=   0.00000
   O  -0.1281097  -0.3157915   0.3853466 SPIN=   0.00000
   O  -0.4212871  -0.6809741   0.3721100 SPIN=   0.00000
   O  -0.1979342  -0.5514506   0.6718575 SPIN=   0.00000
   S  -0.3350225  -0.4757386   0.4928711 SPIN=   0.00000
   F  -0.1289226  -0.0467858   0.0745502 SPIN=   0.00000
   F   0.1289226   0.0467858  -0.4254498 SPIN=   0.00000
%ENDBLOCK POSITIONS_FRAC

# Note: total spin =   8.00

KPOINTS_MP_SPACING 0.07

%BLOCK SPECIES_POT
QC5
%ENDBLOCK SPECIES_POT

SNAP_TO_SYMMETRY
SYMMETRY_GENERATE

