#              Generated by Buildcell
#
# at 19:16:14 (GMT+1.0) 18th August 2020
# in /scratch/scratch/uccabz1/launch_tmp
# on node-k10e-035
# by uccabz1
#
# compiler GCC version 4.9.2
# options -cpp -iprefix /scratch/UCL/applications/gcc/4.9.2/bin/../lib/gcc/x86_64-unknown-linux-gnu/4.9.2/ -mtune=corei7 -march=x86-64 -g -O2
#
# seed -1608025677  1633530112  -604522387 -2091854111  1375153008  1272863803  1231319431   364372907  1995866679  1633726004  1909067561 -1309942582
#
#      Author: C. J. Pickard (cjp20@cam.ac.uk)
#                Space group: Cc
#

%BLOCK LATTICE_ABC
      4.28638      6.07868      8.22161
     93.63976     90.00000    110.64490
%ENDBLOCK LATTICE_ABC

%BLOCK POSITIONS_FRAC
  Li   0.2341179   0.3611161   0.1777390 SPIN=   0.00000
  Li   0.1269982   0.3611161  -0.3222610 SPIN=   0.00000
  Fe  -0.2851817  -0.4632343   0.4619826 SPIN=   4.00000
  Fe  -0.1780526  -0.4632343  -0.0380174 SPIN=   4.00000
   O   0.4212658   0.0877321   0.1729272 SPIN=   0.00000
   O   0.6837724  -0.2045904   0.0921149 SPIN=   0.00000
   O   0.1591030  -0.3257127   0.2447834 SPIN=   0.00000
   O   0.6867520  -0.0680969   0.3823848 SPIN=   0.00000
   S   0.4877233  -0.1276670   0.2230525 SPIN=   0.00000
   O   0.6664663   0.0877321  -0.3270728 SPIN=   0.00000
   O   0.1116372  -0.2045904  -0.4078851 SPIN=   0.00000
   O   0.5151843  -0.3257127  -0.2552166 SPIN=   0.00000
   O   0.2451511  -0.0680969  -0.1176152 SPIN=   0.00000
   S   0.3846097  -0.1276670  -0.2769475 SPIN=   0.00000
   F   0.1075775   0.3182931  -0.0444189 SPIN=   0.00000
   F   0.2107156   0.3182931   0.4555811 SPIN=   0.00000
%ENDBLOCK POSITIONS_FRAC

# Note: total spin =   8.00

KPOINTS_MP_SPACING 0.07

%BLOCK SPECIES_POT
QC5
%ENDBLOCK SPECIES_POT

SNAP_TO_SYMMETRY
SYMMETRY_GENERATE

