#              Generated by Buildcell
#
# at 04:57:46 (GMT+1.0) 4th August 2020
# in /lustre/scratch/uccabz1/launch_tmp
# on node-c12f-029
# by uccabz1
#
# compiler GCC version 4.9.2
# options -cpp -iprefix /lustre/shared/ucl/apps/gcc/4.9.2/bin/../lib/gcc/x86_64-unknown-linux-gnu/4.9.2/ -mtune=corei7 -march=x86-64 -g -Og
#
# seed -1150243200   448981264 -1356530015    86382859  2053576490 -1988131786  -583308267  1654252765  -818148742 -1751869041   785366154  1675590847
#
#      Author: C. J. Pickard (cjp20@cam.ac.uk)
#                Space group: Cc
#

%BLOCK LATTICE_ABC
      4.67467      4.67467      9.42658
     90.77810     90.77810    103.79978
%ENDBLOCK LATTICE_ABC

%BLOCK POSITIONS_FRAC
  Li  -0.3961070   0.4688877  -0.2572857 SPIN=   0.00000
  Li  -0.0311123   0.1038930   0.2427143 SPIN=   0.00000
  Fe   0.0236436   0.1127557  -0.1522660 SPIN=   4.00000
  Fe  -0.3872443  -0.4763564   0.3477340 SPIN=   4.00000
   O   0.6252962  -0.2099588   0.0566445 SPIN=   0.00000
   O   0.3800770  -0.1053535   0.2757912 SPIN=   0.00000
   O   0.1438958  -0.0776439   0.0414583 SPIN=   0.00000
   O   0.5920763   0.2993699   0.1135797 SPIN=   0.00000
   S   0.4353363  -0.0233966   0.1218684 SPIN=   0.00000
   O   0.2900412   0.1252962  -0.4433555 SPIN=   0.00000
   O   0.3946465  -0.1199230  -0.2242088 SPIN=   0.00000
   O   0.4223561  -0.3561042  -0.4585417 SPIN=   0.00000
   O   0.7993699   0.0920763  -0.3864203 SPIN=   0.00000
   S   0.4766034  -0.0646637  -0.3781316 SPIN=   0.00000
   F  -0.0376327   0.4246247   0.3793339 SPIN=   0.00000
   F  -0.0753753   0.4623673  -0.1206661 SPIN=   0.00000
%ENDBLOCK POSITIONS_FRAC

# Note: total spin =   8.00

KPOINTS_MP_SPACING 0.07

%BLOCK SPECIES_POT
QC5
%ENDBLOCK SPECIES_POT

SNAP_TO_SYMMETRY
SYMMETRY_GENERATE

