#              Generated by Buildcell
#
# at 02:30:16 (GMT+1.0) 19th August 2020
# in /lustre/scratch/uccabz1/launch_tmp
# on node-c12j-021
# by uccabz1
#
# compiler GCC version 4.9.2
# options -cpp -iprefix /lustre/shared/ucl/apps/gcc/4.9.2/bin/../lib/gcc/x86_64-unknown-linux-gnu/4.9.2/ -mtune=corei7 -march=x86-64 -g -Og
#
# seed -2024515932 -1155646184  -691606108  -309951982   436475961  -774665333   424798373 -1437965911  -565737268  1184676534   845091872  2123356989
#
#      Author: C. J. Pickard (cjp20@cam.ac.uk)
#                Space group: P21
#

%BLOCK LATTICE_ABC
      5.56984      5.72964      6.75594
     90.00000    111.93182     90.00000
%ENDBLOCK LATTICE_ABC

%BLOCK POSITIONS_FRAC
  Li  -0.4206656   0.4172349  -0.2806674 SPIN=   0.00000
  Li   0.4206656  -0.0827651   0.2806674 SPIN=   0.00000
  Fe   0.6079196   0.3867883   0.1746742 SPIN=   4.00000
  Fe  -0.6079196  -0.1132117  -0.1746742 SPIN=   4.00000
   O  -0.1265753   0.2200389  -0.2712027 SPIN=   0.00000
   O   0.3471591   0.2796159  -0.1448604 SPIN=   0.00000
   O   0.0579729   0.6145582  -0.1661484 SPIN=   0.00000
   O   0.0626563   0.4327943  -0.4969996 SPIN=   0.00000
   S   0.0853033   0.3867518  -0.2698028 SPIN=   0.00000
   O   0.1265753  -0.2799611   0.2712027 SPIN=   0.00000
   O  -0.3471591  -0.2203841   0.1448604 SPIN=   0.00000
   O  -0.0579729   0.1145582   0.1661484 SPIN=   0.00000
   O  -0.0626563  -0.0672057   0.4969996 SPIN=   0.00000
   S  -0.0853033  -0.1132482   0.2698028 SPIN=   0.00000
   F  -0.4031388  -0.1389116  -0.3279699 SPIN=   0.00000
   F   0.4031388   0.3610884   0.3279699 SPIN=   0.00000
%ENDBLOCK POSITIONS_FRAC

# Note: total spin =   8.00

KPOINTS_MP_SPACING 0.07

%BLOCK SPECIES_POT
QC5
%ENDBLOCK SPECIES_POT

SNAP_TO_SYMMETRY
SYMMETRY_GENERATE

