#              Generated by Buildcell
#
# at 21:24:03 (GMT+1.0) 18th August 2020
# in /lustre/scratch/uccabz1/launch_tmp
# on node-c12a-003
# by uccabz1
#
# compiler GCC version 4.9.2
# options -cpp -iprefix /lustre/shared/ucl/apps/gcc/4.9.2/bin/../lib/gcc/x86_64-unknown-linux-gnu/4.9.2/ -mtune=corei7 -march=x86-64 -g -Og
#
# seed  -823593279  1240366052 -1639443933  1433552331   689092511  -419288766   580798899   706347360 -1153955615  1781387046   175142838   -19652452
#
#      Author: C. J. Pickard (cjp20@cam.ac.uk)
#                Space group: P-1
#

%BLOCK LATTICE_ABC
      3.84955      7.36250      7.50790
     90.01583    103.97412    103.96785
%ENDBLOCK LATTICE_ABC

%BLOCK POSITIONS_FRAC
  Li  -0.4299611   0.3547759  -0.2212853 SPIN=   0.00000
  Li   0.4299611  -0.3547759   0.2212853 SPIN=   0.00000
  Fe  -0.5000000  -0.0000000  -0.5000000 SPIN=   0.28146
  Fe  -1.0000000  -0.5000000  -0.5000000 SPIN=   7.71854
   O  -0.3056560   0.1287109  -0.0221206 SPIN=   0.00000
   O   0.3105810   0.1544901   0.1878496 SPIN=   0.00000
   O  -0.2520365  -0.0216522   0.2747341 SPIN=   0.00000
   O  -0.1167377   0.3241790   0.2697412 SPIN=   0.00000
   S  -0.0909623   0.1464320   0.1775511 SPIN=   0.00000
   O   0.3056560  -0.1287109   0.0221206 SPIN=   0.00000
   O  -0.3105810  -0.1544901  -0.1878496 SPIN=   0.00000
   O   0.2520365   0.0216522  -0.2747341 SPIN=   0.00000
   O   0.1167377  -0.3241790  -0.2697412 SPIN=   0.00000
   S   0.0909623  -0.1464320  -0.1775511 SPIN=   0.00000
   F   0.5000000  -0.5000000   0.5000000 SPIN=   0.00000
   F  -0.5000000   0.5000000   0.0000000 SPIN=   0.00000
%ENDBLOCK POSITIONS_FRAC

# Note: total spin =   8.00

KPOINTS_MP_SPACING 0.07

%BLOCK SPECIES_POT
QC5
%ENDBLOCK SPECIES_POT

SNAP_TO_SYMMETRY
SYMMETRY_GENERATE

