#              Generated by Buildcell
#
# at 02:34:44 (GMT+1.0) 4th August 2020
# in /lustre/scratch/uccabz1/launch_tmp
# on node-c12e-015
# by uccabz1
#
# compiler GCC version 4.9.2
# options -cpp -iprefix /lustre/shared/ucl/apps/gcc/4.9.2/bin/../lib/gcc/x86_64-unknown-linux-gnu/4.9.2/ -mtune=corei7 -march=x86-64 -g -Og
#
# seed    -2802631   700537127 -2109143336  1481606917  1040715303  -222168990  1986019183  1695411557  1061346090   973250414  -238826314  -839452082
#
#      Author: C. J. Pickard (cjp20@cam.ac.uk)
#                Space group: Cc
#

%BLOCK LATTICE_ABC
      4.94808      4.94808      8.66935
     90.52073     90.52073    109.54537
%ENDBLOCK LATTICE_ABC

%BLOCK POSITIONS_FRAC
  Li  -0.3338577  -0.2047599   0.2186247 SPIN=   0.00000
  Li  -0.2047599  -0.3338577  -0.2813753 SPIN=   0.00000
  Fe   0.0261644  -0.4162792   0.4194224 SPIN=   4.00000
  Fe  -0.4162792   0.0261644  -0.0805776 SPIN=   4.00000
   O  -0.0826506   0.3310215  -0.3200441 SPIN=   0.00000
   O   0.3660513   0.2143805  -0.3098465 SPIN=   0.00000
   O   0.1576122   0.3257370  -0.0690132 SPIN=   0.00000
   O   0.3780512   0.7102125  -0.2555975 SPIN=   0.00000
   S   0.2047660   0.3953379  -0.2386253 SPIN=   0.00000
   O   0.3310215  -0.0826506   0.1799559 SPIN=   0.00000
   O   0.2143805   0.3660513   0.1901535 SPIN=   0.00000
   O   0.3257370   0.1576122   0.4309868 SPIN=   0.00000
   O   0.7102125   0.3780512   0.2444025 SPIN=   0.00000
   S   0.3953379   0.2047660   0.2613747 SPIN=   0.00000
   F  -0.1717097  -0.2350033   0.0021609 SPIN=   0.00000
   F  -0.2350033  -0.1717097  -0.4978391 SPIN=   0.00000
%ENDBLOCK POSITIONS_FRAC

# Note: total spin =   8.00

KPOINTS_MP_SPACING 0.07

%BLOCK SPECIES_POT
QC5
%ENDBLOCK SPECIES_POT

SNAP_TO_SYMMETRY
SYMMETRY_GENERATE

