#              Generated by Buildcell
#
# at 03:04:32 (GMT+1.0) 19th August 2020
# in /lustre/scratch/uccabz1/launch_tmp
# on node-c12p-024
# by uccabz1
#
# compiler GCC version 4.9.2
# options -cpp -iprefix /lustre/shared/ucl/apps/gcc/4.9.2/bin/../lib/gcc/x86_64-unknown-linux-gnu/4.9.2/ -mtune=corei7 -march=x86-64 -g -Og
#
# seed -1800261991  1047666382 -1760536219  1951791542  1503482957  -155784014 -1157297448  1110112740 -2117785055 -2064251815  2048881018  1505470622
#
#      Author: C. J. Pickard (cjp20@cam.ac.uk)
#                Space group: Pc
#

%BLOCK LATTICE_ABC
      3.98193      6.19204      8.18490
     97.67684     90.00000     90.00000
%ENDBLOCK LATTICE_ABC

%BLOCK POSITIONS_FRAC
  Li  -0.1515661   0.1392771   0.4422731 SPIN=   0.00000
  Li   0.1515661   0.1392771  -0.0577269 SPIN=   0.00000
  Fe   0.0132423  -0.4900762   0.2254827 SPIN=   4.00000
  Fe  -0.0132423  -0.4900762  -0.2745173 SPIN=   4.00000
   O  -0.2727949  -0.4184834  -0.0208614 SPIN=   0.00000
   O  -0.2830206  -0.0200701  -0.0272669 SPIN=   0.00000
   O  -0.5993516  -0.1794259   0.1878651 SPIN=   0.00000
   O  -0.7920142  -0.2406466  -0.1021105 SPIN=   0.00000
   S  -0.4867953  -0.2146565   0.0094066 SPIN=   0.00000
   O   0.2727949  -0.4184834  -0.5208614 SPIN=   0.00000
   O   0.2830206  -0.0200701  -0.5272669 SPIN=   0.00000
   O   0.5993516  -0.1794259  -0.3121349 SPIN=   0.00000
   O   0.7920142  -0.2406466  -0.6021105 SPIN=   0.00000
   S   0.4867953  -0.2146565  -0.4905934 SPIN=   0.00000
   F   0.2921141   0.2771636  -0.2266545 SPIN=   0.00000
   F  -0.2921141   0.2771636   0.2733455 SPIN=   0.00000
%ENDBLOCK POSITIONS_FRAC

# Note: total spin =   8.00

KPOINTS_MP_SPACING 0.07

%BLOCK SPECIES_POT
QC5
%ENDBLOCK SPECIES_POT

SNAP_TO_SYMMETRY
SYMMETRY_GENERATE

