#              Generated by Buildcell
#
# at 02:25:40 (GMT+1.0) 4th August 2020
# in /lustre/scratch/uccabz1/launch_tmp
# on node-c12m-020
# by uccabz1
#
# compiler GCC version 4.9.2
# options -cpp -iprefix /lustre/shared/ucl/apps/gcc/4.9.2/bin/../lib/gcc/x86_64-unknown-linux-gnu/4.9.2/ -mtune=corei7 -march=x86-64 -g -Og
#
# seed  1500059984  -763085392 -1022365146   778256873   605294285  -298058137 -2043541863  1170571808   384802922   748785881   180727948  1383328150
#
#      Author: C. J. Pickard (cjp20@cam.ac.uk)
#                Space group: C2
#

%BLOCK LATTICE_ABC
      4.00714      4.00714     13.49014
     87.82889     87.82889     67.55771
%ENDBLOCK LATTICE_ABC

%BLOCK POSITIONS_FRAC
  Li   0.0167993   0.2979870  -0.3901278 SPIN=   0.00000
  Li  -0.2979870  -0.0167993   0.3901278 SPIN=   0.00000
  Fe   0.3389936  -0.3795497   0.2497438 SPIN=   4.00000
  Fe   0.3795497  -0.3389936  -0.2497438 SPIN=   4.00000
   O  -0.3604015  -0.1105230   0.0274798 SPIN=   0.00000
   O  -0.1475748  -0.6952619   0.1205050 SPIN=   0.00000
   O  -0.2815610  -0.1266692   0.2089051 SPIN=   0.00000
   O   0.2535429  -0.3567116   0.0958028 SPIN=   0.00000
   O   0.1105230   0.3604015  -0.0274798 SPIN=   0.00000
   O   0.6952619   0.1475748  -0.1205050 SPIN=   0.00000
   O   0.1266692   0.2815610  -0.2089051 SPIN=   0.00000
   O   0.3567116  -0.2535429  -0.0958028 SPIN=   0.00000
   S   0.0955941  -0.0955941   0.0000000 SPIN=   0.00000
   S   0.4210497  -0.4210497   0.5000000 SPIN=   0.00000
   F  -0.2264988  -0.0702118  -0.3211498 SPIN=   0.00000
   F   0.0702118   0.2264988   0.3211498 SPIN=   0.00000
%ENDBLOCK POSITIONS_FRAC

# Note: total spin =   8.00

KPOINTS_MP_SPACING 0.07

%BLOCK SPECIES_POT
QC5
%ENDBLOCK SPECIES_POT

SNAP_TO_SYMMETRY
SYMMETRY_GENERATE

