#              Generated by Buildcell
#
# at 05:13:31 (GMT+1.0) 4th August 2020
# in /lustre/scratch/uccabz1/launch_tmp
# on node-c12g-010
# by uccabz1
#
# compiler GCC version 4.9.2
# options -cpp -iprefix /lustre/shared/ucl/apps/gcc/4.9.2/bin/../lib/gcc/x86_64-unknown-linux-gnu/4.9.2/ -mtune=corei7 -march=x86-64 -g -Og
#
# seed   823373463   765429006  -525289598  -153477048  -251686547  -967137714  -249836107  1281302274  1901327452  -290400799   813710088  -301169350
#
#      Author: C. J. Pickard (cjp20@cam.ac.uk)
#                Space group: P-1
#

%BLOCK LATTICE_ABC
      6.33936      6.43241      6.47093
    119.72777     97.56008    110.05163
%ENDBLOCK LATTICE_ABC

%BLOCK POSITIONS_FRAC
  Li   0.3860424   0.6381985   0.8203969 SPIN=   0.00000
  Li  -0.3860424  -0.6381985  -0.8203969 SPIN=   0.00000
  Fe   0.1541492   0.0784591   0.3064336 SPIN=   4.00000
  Fe  -0.1541492  -0.0784591  -0.3064336 SPIN=   4.00000
   O   0.2980638   0.8616436   0.3711101 SPIN=   0.00000
   O   0.1276112   0.4190436  -0.0503265 SPIN=   0.00000
   O   0.2744649   0.4578125   0.3473530 SPIN=   0.00000
   O   0.5659866   0.6722186   0.2050428 SPIN=   0.00000
   S   0.3165316   0.6026796   0.2182949 SPIN=   0.00000
   O  -0.2980638  -0.8616436  -0.3711101 SPIN=   0.00000
   O  -0.1276112  -0.4190436   0.0503265 SPIN=   0.00000
   O  -0.2744649  -0.4578125  -0.3473530 SPIN=   0.00000
   O  -0.5659866  -0.6722186  -0.2050428 SPIN=   0.00000
   S  -0.3165316  -0.6026796  -0.2182949 SPIN=   0.00000
   F   0.1878715  -0.1022872  -0.2018526 SPIN=   0.00000
   F  -0.1878715   0.1022872   0.2018526 SPIN=   0.00000
%ENDBLOCK POSITIONS_FRAC

# Note: total spin =   8.00

KPOINTS_MP_SPACING 0.07

%BLOCK SPECIES_POT
QC5
%ENDBLOCK SPECIES_POT

SNAP_TO_SYMMETRY
SYMMETRY_GENERATE

