#              Generated by Buildcell
#
# at 22:14:01 (GMT+1.0) 18th August 2020
# in /lustre/scratch/uccabz1/launch_tmp
# on node-c12n-011
# by uccabz1
#
# compiler GCC version 4.9.2
# options -cpp -iprefix /lustre/shared/ucl/apps/gcc/4.9.2/bin/../lib/gcc/x86_64-unknown-linux-gnu/4.9.2/ -mtune=corei7 -march=x86-64 -g -Og
#
# seed -2139476119  1251850538 -1957793220 -1240841958 -1769358241  -148456612  1946881467  1737009949  -752804970 -1279724721  1590319227   488425062
#
#      Author: C. J. Pickard (cjp20@cam.ac.uk)
#                Space group: Cm
#

%BLOCK LATTICE_ABC
      3.89463      7.60567      7.60567
     62.82929     86.80086     86.80086
%ENDBLOCK LATTICE_ABC

%BLOCK POSITIONS_FRAC
  Li  -0.2123765   0.1630320   0.1630320 SPIN=   0.00000
  Li   0.0182192   0.6738694  -0.3261306 SPIN=   0.00000
  Fe   0.0601707  -0.6108725   0.3891275 SPIN=   3.77898
  Fe   0.3668631  -0.1281143  -0.1281143 SPIN=   4.22102
   O   0.3263953   0.3495444  -0.3711767 SPIN=   0.00000
   O   0.1973794   0.2605091  -0.0187705 SPIN=   0.00000
   O   0.6288014   0.5113895  -0.2093315 SPIN=   0.00000
   O   0.7578175   0.1589833  -0.1202965 SPIN=   0.00000
   S   0.4775984   0.3201066  -0.1798938 SPIN=   0.00000
   O   0.3263953  -0.3711767   0.3495444 SPIN=   0.00000
   O   0.1973794  -0.0187705   0.2605091 SPIN=   0.00000
   O   0.6288014  -0.2093315   0.5113895 SPIN=   0.00000
   O   0.7578175  -0.1202965   0.1589833 SPIN=   0.00000
   S   0.4775984  -0.1798938   0.3201066 SPIN=   0.00000
   F   0.4877680  -0.6905804   0.3094196 SPIN=   0.00000
   F  -0.1386067  -0.1595249  -0.1595249 SPIN=   0.00000
%ENDBLOCK POSITIONS_FRAC

# Note: total spin =   8.00

KPOINTS_MP_SPACING 0.07

%BLOCK SPECIES_POT
QC5
%ENDBLOCK SPECIES_POT

SNAP_TO_SYMMETRY
SYMMETRY_GENERATE

