#              Generated by Buildcell
#
# at 03:40:53 (GMT+1.0) 4th August 2020
# in /lustre/scratch/uccabz1/launch_tmp
# on node-c12k-034
# by uccabz1
#
# compiler GCC version 4.9.2
# options -cpp -iprefix /lustre/shared/ucl/apps/gcc/4.9.2/bin/../lib/gcc/x86_64-unknown-linux-gnu/4.9.2/ -mtune=corei7 -march=x86-64 -g -Og
#
# seed   148023077  -859624999  1852062486  -223106808   -56050259  2013353512   580502779  -272972452   743508991  1555934067   715216541    49034353
#
#      Author: C. J. Pickard (cjp20@cam.ac.uk)
#                Space group: P21
#

%BLOCK LATTICE_ABC
      6.01049      6.03740      6.21912
     90.00000     90.00000    117.59807
%ENDBLOCK LATTICE_ABC

%BLOCK POSITIONS_FRAC
  Li  -0.0169270  -0.3490457  -0.3968106 SPIN=   0.00000
  Li   0.0169270   0.3490457   0.1031894 SPIN=   0.00000
  Fe   0.4952726   0.3261035  -0.1326722 SPIN=   4.00000
  Fe  -0.4952726  -0.3261035   0.3673278 SPIN=   4.00000
   O  -0.2085285   0.2873788  -0.5133750 SPIN=   0.00000
   O   0.0997844   0.3102766  -0.2391166 SPIN=   0.00000
   O   0.1923141   0.3002738  -0.6257237 SPIN=   0.00000
   O  -0.1347892  -0.0778980  -0.4491563 SPIN=   0.00000
   S  -0.0128048   0.2050078  -0.4568429 SPIN=   0.00000
   O   0.2085285  -0.2873788  -0.0133750 SPIN=   0.00000
   O  -0.0997844  -0.3102766   0.2608834 SPIN=   0.00000
   O  -0.1923141  -0.3002738  -0.1257237 SPIN=   0.00000
   O   0.1347892   0.0778980   0.0508437 SPIN=   0.00000
   S   0.0128048  -0.2050078   0.0431571 SPIN=   0.00000
   F   0.3177955  -0.1425274  -0.4529453 SPIN=   0.00000
   F  -0.3177955   0.1425274   0.0470547 SPIN=   0.00000
%ENDBLOCK POSITIONS_FRAC

# Note: total spin =   8.00

KPOINTS_MP_SPACING 0.07

%BLOCK SPECIES_POT
QC5
%ENDBLOCK SPECIES_POT

SNAP_TO_SYMMETRY
SYMMETRY_GENERATE

