#              Generated by Buildcell
#
# at 17:39:58 (GMT+1.0) 18th August 2020
# in /scratch/scratch/uccabz1/launch_tmp
# on node-k10e-027
# by uccabz1
#
# compiler GCC version 4.9.2
# options -cpp -iprefix /scratch/UCL/applications/gcc/4.9.2/bin/../lib/gcc/x86_64-unknown-linux-gnu/4.9.2/ -mtune=corei7 -march=x86-64 -g -O2
#
# seed  -171706061   118930126  -227501989   909168769   386920483 -1411006567  -758362649   489538271    57325802  -913159207  1842556081 -2018251503
#
#      Author: C. J. Pickard (cjp20@cam.ac.uk)
#                Space group: P2221
#

%BLOCK LATTICE_ABC
      4.10339      6.55824      7.43190
     90.00000     90.00000     90.00000
%ENDBLOCK LATTICE_ABC

%BLOCK POSITIONS_FRAC
  Li   0.1231807   0.0000000   0.2500000 SPIN=   0.00000
  Li  -0.1231807   0.0000000  -0.2500000 SPIN=   0.00000
  Fe   0.0318358   0.5000000  -0.2500000 SPIN=   4.00000
  Fe  -0.0318358  -0.5000000   0.2500000 SPIN=   4.00000
   O   0.1775013  -0.2661364   0.3805328 SPIN=   0.00000
   O  -0.2714229  -0.0162800   0.4095660 SPIN=   0.00000
   O  -0.1775013   0.2661364  -0.1194672 SPIN=   0.00000
   O   0.2714229   0.0162800  -0.0904340 SPIN=   0.00000
   O   0.1775013   0.2661364   0.1194672 SPIN=   0.00000
   O  -0.2714229   0.0162800   0.0904340 SPIN=   0.00000
   O  -0.1775013  -0.2661364  -0.3805328 SPIN=   0.00000
   O   0.2714229  -0.0162800  -0.4095660 SPIN=   0.00000
   S   0.5000000   0.2181296  -0.0000000 SPIN=   0.00000
   S   0.5000000  -0.2181296   0.5000000 SPIN=   0.00000
   F  -0.0000000  -0.3553429  -0.0000000 SPIN=   0.00000
   F   0.0000000   0.3553429  -0.5000000 SPIN=   0.00000
%ENDBLOCK POSITIONS_FRAC

# Note: total spin =   8.00

KPOINTS_MP_SPACING 0.07

%BLOCK SPECIES_POT
QC5
%ENDBLOCK SPECIES_POT

SNAP_TO_SYMMETRY
SYMMETRY_GENERATE

