#              Generated by Buildcell
#
# at 04:28:28 (GMT+1.0) 4th August 2020
# in /lustre/scratch/uccabz1/launch_tmp
# on node-c12o-004
# by uccabz1
#
# compiler GCC version 4.9.2
# options -cpp -iprefix /lustre/shared/ucl/apps/gcc/4.9.2/bin/../lib/gcc/x86_64-unknown-linux-gnu/4.9.2/ -mtune=corei7 -march=x86-64 -g -Og
#
# seed  1575516200 -1710665496   781587866  -652375368   340047298 -1951365158  1147134389   306043575  1079248532   -49315220   265813680     4869937
#
#      Author: C. J. Pickard (cjp20@cam.ac.uk)
#                Space group: Pnn2
#

%BLOCK LATTICE_ABC
      3.98740      3.99124     12.56702
     90.00000     90.00000     90.00000
%ENDBLOCK LATTICE_ABC

%BLOCK POSITIONS_FRAC
  Li  -0.5000000   0.0000000   0.0616476 SPIN=   0.00000
  Li   0.0000000  -0.5000000  -0.4383524 SPIN=   0.00000
  Fe   0.0000000   0.0000000   0.3150432 SPIN=   4.00000
  Fe  -0.5000000   0.5000000  -0.1849568 SPIN=   4.00000
   O   0.1171698   0.2488908   0.1280251 SPIN=   0.00000
   O  -0.2653111   0.3571850  -0.0232111 SPIN=   0.00000
   O  -0.1171698  -0.2488908   0.1280251 SPIN=   0.00000
   O   0.2653111  -0.3571850  -0.0232111 SPIN=   0.00000
   O   0.6171698   0.2511092  -0.3719749 SPIN=   0.00000
   O   0.2346889   0.1428150  -0.5232111 SPIN=   0.00000
   O  -0.6171698  -0.2511092  -0.3719749 SPIN=   0.00000
   O  -0.2346889  -0.1428150  -0.5232111 SPIN=   0.00000
   S   0.0000000   0.5000000   0.0499766 SPIN=   0.00000
   S   0.5000000   0.0000000  -0.4500234 SPIN=   0.00000
   F   0.0000000   0.0000000  -0.1995678 SPIN=   0.00000
   F  -0.5000000   0.5000000   0.3004322 SPIN=   0.00000
%ENDBLOCK POSITIONS_FRAC

# Note: total spin =   8.00

KPOINTS_MP_SPACING 0.07

%BLOCK SPECIES_POT
QC5
%ENDBLOCK SPECIES_POT

SNAP_TO_SYMMETRY
SYMMETRY_GENERATE

