#              Generated by Buildcell
#
# at 21:54:41 (GMT+1.0) 18th August 2020
# in /lustre/scratch/uccabz1/launch_tmp
# on node-c12j-020
# by uccabz1
#
# compiler GCC version 4.9.2
# options -cpp -iprefix /lustre/shared/ucl/apps/gcc/4.9.2/bin/../lib/gcc/x86_64-unknown-linux-gnu/4.9.2/ -mtune=corei7 -march=x86-64 -g -Og
#
# seed -1841727207  1771038104 -1255087830   -76228567  -120551874  1838870633 -1725403981 -1178727159  -305181043 -2140687476  1826851567  -159227194
#
#      Author: C. J. Pickard (cjp20@cam.ac.uk)
#                Space group: P21
#

%BLOCK LATTICE_ABC
      4.37620      6.90947      6.93246
     90.00000    107.42391     90.00000
%ENDBLOCK LATTICE_ABC

%BLOCK POSITIONS_FRAC
  Li   0.1041855  -0.3811962   0.2254335 SPIN=   0.00000
  Li  -0.1041855   0.1188038  -0.2254335 SPIN=   0.00000
  Fe   0.2244068   0.1961423   0.4686092 SPIN=   4.00000
  Fe  -0.2244068  -0.3038577  -0.4686092 SPIN=   4.00000
   O   0.3253244  -0.3789714  -0.3670136 SPIN=   0.00000
   O   0.1172919  -0.5447768  -0.1157534 SPIN=   0.00000
   O   0.6326411  -0.3684272  -0.0038386 SPIN=   0.00000
   O   0.5928761  -0.6745320  -0.1951875 SPIN=   0.00000
   S   0.4170334  -0.4916769  -0.1704483 SPIN=   0.00000
   O  -0.3253244   0.1210286   0.3670136 SPIN=   0.00000
   O  -0.1172919  -0.0447768   0.1157534 SPIN=   0.00000
   O  -0.6326411   0.1315728   0.0038386 SPIN=   0.00000
   O  -0.5928761  -0.1745320   0.1951875 SPIN=   0.00000
   S  -0.4170334   0.0083231   0.1704483 SPIN=   0.00000
   F   0.2686025  -0.0082612  -0.3543407 SPIN=   0.00000
   F  -0.2686025   0.4917388   0.3543407 SPIN=   0.00000
%ENDBLOCK POSITIONS_FRAC

# Note: total spin =   8.00

KPOINTS_MP_SPACING 0.07

%BLOCK SPECIES_POT
QC5
%ENDBLOCK SPECIES_POT

SNAP_TO_SYMMETRY
SYMMETRY_GENERATE

