#              Generated by Buildcell
#
# at 04:02:36 (GMT+1.0) 4th August 2020
# in /lustre/scratch/uccabz1/launch_tmp
# on node-c12g-022
# by uccabz1
#
# compiler GCC version 4.9.2
# options -cpp -iprefix /lustre/shared/ucl/apps/gcc/4.9.2/bin/../lib/gcc/x86_64-unknown-linux-gnu/4.9.2/ -mtune=corei7 -march=x86-64 -g -Og
#
# seed -1410604558  1884939922 -2051537384  -982713565  -582196782    25008805   673745267  1364921104 -1376072945  2073819008  -635763469 -1052081251
#
#      Author: C. J. Pickard (cjp20@cam.ac.uk)
#                Space group: C2221
#

%BLOCK LATTICE_ABC
      5.65208      5.65208      6.49334
     90.00000     90.00000    105.38777
%ENDBLOCK LATTICE_ABC

%BLOCK POSITIONS_FRAC
  Li   0.1367552   0.1367552  -0.2500000 SPIN=   0.00000
  Li  -0.1367552  -0.1367552   0.2500000 SPIN=   0.00000
  Fe   0.3514324  -0.3514324  -0.0000000 SPIN=   4.00000
  Fe  -0.3514324   0.3514324  -0.5000000 SPIN=   4.00000
   O  -0.0221750   0.3467220  -0.0810267 SPIN=   0.00000
   O  -0.4562749   0.2750319  -0.1864307 SPIN=   0.00000
   O   0.0221750  -0.3467220   0.4189733 SPIN=   0.00000
   O   0.4562749  -0.2750319   0.3135693 SPIN=   0.00000
   O   0.3467220  -0.0221750  -0.4189733 SPIN=   0.00000
   O   0.2750319  -0.4562749  -0.3135693 SPIN=   0.00000
   O  -0.3467220   0.0221750   0.0810267 SPIN=   0.00000
   O  -0.2750319   0.4562749   0.1864307 SPIN=   0.00000
   S  -0.2799304   0.2799304  -0.0000000 SPIN=   0.00000
   S   0.2799304  -0.2799304  -0.5000000 SPIN=   0.00000
   F   0.1152499  -0.1152499  -0.0000000 SPIN=   0.00000
   F  -0.1152499   0.1152499  -0.5000000 SPIN=   0.00000
%ENDBLOCK POSITIONS_FRAC

# Note: total spin =   8.00

KPOINTS_MP_SPACING 0.07

%BLOCK SPECIES_POT
QC5
%ENDBLOCK SPECIES_POT

SNAP_TO_SYMMETRY
SYMMETRY_GENERATE

