#              Generated by Buildcell
#
# at 05:19:22 (GMT+1.0) 4th August 2020
# in /lustre/scratch/uccabz1/launch_tmp
# on node-c12k-002
# by uccabz1
#
# compiler GCC version 4.9.2
# options -cpp -iprefix /lustre/shared/ucl/apps/gcc/4.9.2/bin/../lib/gcc/x86_64-unknown-linux-gnu/4.9.2/ -mtune=corei7 -march=x86-64 -g -Og
#
# seed  -730980085  1581849650   560765967   791590215  -444422168  -581790744   675988105   596254588 -1267918457   651033969 -1829871128 -1127482370
#
#      Author: C. J. Pickard (cjp20@cam.ac.uk)
#                Space group: Pc
#

%BLOCK LATTICE_ABC
      4.54846      6.92847      6.97643
    114.53709     90.00000     90.00000
%ENDBLOCK LATTICE_ABC

%BLOCK POSITIONS_FRAC
  Li  -0.1780095   0.3988548   0.0867151 SPIN=   0.00000
  Li   0.1780095  -0.1011452   0.0867151 SPIN=   0.00000
  Fe   0.3093004   0.4157197  -0.1809985 SPIN=   4.00000
  Fe  -0.3093004  -0.0842803  -0.1809985 SPIN=   4.00000
   O  -0.5083534   0.1559203   0.5513335 SPIN=   0.00000
   O  -0.1416841   0.0921318   0.2693391 SPIN=   0.00000
   O  -0.5016769  -0.1873968   0.2376238 SPIN=   0.00000
   O  -0.1010609  -0.0975486   0.5005910 SPIN=   0.00000
   S  -0.3131938  -0.0092233   0.3897218 SPIN=   0.00000
   O   0.5083534   0.6559203   0.5513335 SPIN=   0.00000
   O   0.1416841   0.5921318   0.2693391 SPIN=   0.00000
   O   0.5016769   0.3126032   0.2376238 SPIN=   0.00000
   O   0.1010609   0.4024514   0.5005910 SPIN=   0.00000
   S   0.3131938   0.4907767   0.3897218 SPIN=   0.00000
   F  -0.2496168  -0.4812730  -0.1373363 SPIN=   0.00000
   F   0.2496168   0.0187270  -0.1373363 SPIN=   0.00000
%ENDBLOCK POSITIONS_FRAC

# Note: total spin =   8.00

KPOINTS_MP_SPACING 0.07

%BLOCK SPECIES_POT
QC5
%ENDBLOCK SPECIES_POT

SNAP_TO_SYMMETRY
SYMMETRY_GENERATE

