#              Generated by Buildcell
#
# at 04:08:07 (GMT+1.0) 4th August 2020
# in /lustre/scratch/uccabz1/launch_tmp
# on node-c12e-012
# by uccabz1
#
# compiler GCC version 4.9.2
# options -cpp -iprefix /lustre/shared/ucl/apps/gcc/4.9.2/bin/../lib/gcc/x86_64-unknown-linux-gnu/4.9.2/ -mtune=corei7 -march=x86-64 -g -Og
#
# seed  -367918951  1919858655 -1682302584  1674666901  1716558839  -558395841   479282495  -859272110  2137679591    92897903  1535830086  1412126626
#
#      Author: C. J. Pickard (cjp20@cam.ac.uk)
#                Space group: C2
#

%BLOCK LATTICE_ABC
      5.76728      5.76728      6.36171
    103.32603    103.32603     90.20061
%ENDBLOCK LATTICE_ABC

%BLOCK POSITIONS_FRAC
  Li   0.4887839  -0.4887839   0.0000000 SPIN=   0.00000
  Li   0.0326008  -0.0326008   0.0000000 SPIN=   0.00000
  Fe   0.3481842   0.0790267   0.4497547 SPIN=   4.00000
  Fe  -0.0790267  -0.3481842  -0.4497547 SPIN=   4.00000
   O  -0.3866842  -0.0181509   0.2035752 SPIN=   0.00000
   O  -0.2868903   0.0298820  -0.1426863 SPIN=   0.00000
   O  -0.6576010   0.1874165  -0.0470546 SPIN=   0.00000
   O  -0.6225906  -0.2487067  -0.1617207 SPIN=   0.00000
   S  -0.4884415  -0.0123897  -0.0369716 SPIN=   0.00000
   O   0.0181509   0.3866842  -0.2035752 SPIN=   0.00000
   O  -0.0298820   0.2868903   0.1426863 SPIN=   0.00000
   O  -0.1874165   0.6576010   0.0470546 SPIN=   0.00000
   O   0.2487067   0.6225906   0.1617207 SPIN=   0.00000
   S   0.0123897   0.4884415   0.0369716 SPIN=   0.00000
   F   0.0183032  -0.0183032  -0.5000000 SPIN=   0.00000
   F  -0.4816968   0.4816968   0.5000000 SPIN=   0.00000
%ENDBLOCK POSITIONS_FRAC

# Note: total spin =   8.00

KPOINTS_MP_SPACING 0.07

%BLOCK SPECIES_POT
QC5
%ENDBLOCK SPECIES_POT

SNAP_TO_SYMMETRY
SYMMETRY_GENERATE

