#              Generated by Buildcell
#
# at 04:30:25 (GMT+1.0) 4th August 2020
# in /lustre/scratch/uccabz1/launch_tmp
# on node-c12d-028
# by uccabz1
#
# compiler GCC version 4.9.2
# options -cpp -iprefix /lustre/shared/ucl/apps/gcc/4.9.2/bin/../lib/gcc/x86_64-unknown-linux-gnu/4.9.2/ -mtune=corei7 -march=x86-64 -g -Og
#
# seed  1979757096  2113687062   792703866  1003787145  -423855885  -422114125  2073230876 -1243157445  -346761974  1370986561   107527917  1984050462
#
#      Author: C. J. Pickard (cjp20@cam.ac.uk)
#                Space group: Pma2
#

%BLOCK LATTICE_ABC
      3.83952      6.77618      7.68719
     90.00000     90.00000     90.00000
%ENDBLOCK LATTICE_ABC

%BLOCK POSITIONS_FRAC
  Li   0.4582711   0.2261021  -0.2500000 SPIN=   0.00000
  Li  -0.4582711   0.2261021   0.2500000 SPIN=   0.00000
  Fe   0.1346435  -0.1826684  -0.2500000 SPIN=   4.00000
  Fe  -0.1346435  -0.1826684   0.2500000 SPIN=   4.00000
   O  -0.2182800  -0.5936204   0.3990975 SPIN=   0.00000
   O  -0.2685678  -0.3064780   0.5964631 SPIN=   0.00000
   O   0.2182800  -0.5936204  -0.3990975 SPIN=   0.00000
   O   0.2685678  -0.3064780  -0.5964631 SPIN=   0.00000
   O   0.2182800  -0.5936204  -0.1009025 SPIN=   0.00000
   O   0.2685678  -0.3064780   0.0964631 SPIN=   0.00000
   O  -0.2182800  -0.5936204   0.1009025 SPIN=   0.00000
   O  -0.2685678  -0.3064780  -0.0964631 SPIN=   0.00000
   S   0.5000000   0.4967105  -0.0000000 SPIN=   0.00000
   S   0.5000000   0.4967105   0.5000000 SPIN=   0.00000
   F  -0.1290652   0.0869011  -0.2500000 SPIN=   0.00000
   F   0.1290652   0.0869011   0.2500000 SPIN=   0.00000
%ENDBLOCK POSITIONS_FRAC

# Note: total spin =   8.00

KPOINTS_MP_SPACING 0.07

%BLOCK SPECIES_POT
QC5
%ENDBLOCK SPECIES_POT

SNAP_TO_SYMMETRY
SYMMETRY_GENERATE

