#              Generated by Buildcell
#
# at 22:55:15 (GMT+1.0) 18th August 2020
# in /lustre/scratch/uccabz1/launch_tmp
# on node-c12i-030
# by uccabz1
#
# compiler GCC version 4.9.2
# options -cpp -iprefix /lustre/shared/ucl/apps/gcc/4.9.2/bin/../lib/gcc/x86_64-unknown-linux-gnu/4.9.2/ -mtune=corei7 -march=x86-64 -g -Og
#
# seed -1346360686 -1087730318 -1119968574 -1949443189  -443343917  -822986438 -1745082199   847374131  -509979107  -767684981 -1048229509   558524464
#
#      Author: C. J. Pickard (cjp20@cam.ac.uk)
#                Space group: P21
#

%BLOCK LATTICE_ABC
      3.99744      5.17695      9.68565
     90.00000     93.79718     90.00000
%ENDBLOCK LATTICE_ABC

%BLOCK POSITIONS_FRAC
  Li   0.2138381   0.4495088   0.3273736 SPIN=   0.00000
  Li  -0.2138381  -0.0504912  -0.3273736 SPIN=   0.00000
  Fe  -0.3196770   0.3353352   0.1172589 SPIN=   4.00000
  Fe   0.3196770  -0.1646648  -0.1172589 SPIN=   4.00000
   O  -0.4034603   0.1859650   0.3528043 SPIN=   0.00000
   O   0.0034129  -0.0746620   0.4973786 SPIN=   0.00000
   O  -0.1182924  -0.1853847   0.2505857 SPIN=   0.00000
   O  -0.5474256  -0.2601326   0.4190326 SPIN=   0.00000
   S  -0.2664413  -0.0835536   0.3799503 SPIN=   0.00000
   O   0.4034603   0.6859650  -0.3528043 SPIN=   0.00000
   O  -0.0034129   0.4253380  -0.4973786 SPIN=   0.00000
   O   0.1182924   0.3146153  -0.2505857 SPIN=   0.00000
   O   0.5474256   0.2398674  -0.4190326 SPIN=   0.00000
   S   0.2664413   0.4164464  -0.3799503 SPIN=   0.00000
   F  -0.1601542  -0.2080194  -0.1287443 SPIN=   0.00000
   F   0.1601542   0.2919806   0.1287443 SPIN=   0.00000
%ENDBLOCK POSITIONS_FRAC

# Note: total spin =   8.00

KPOINTS_MP_SPACING 0.07

%BLOCK SPECIES_POT
QC5
%ENDBLOCK SPECIES_POT

SNAP_TO_SYMMETRY
SYMMETRY_GENERATE

