#              Generated by Buildcell
#
# at 02:30:01 (GMT+1.0) 19th August 2020
# in /lustre/scratch/uccabz1/launch_tmp
# on node-c12k-036
# by uccabz1
#
# compiler GCC version 4.9.2
# options -cpp -iprefix /lustre/shared/ucl/apps/gcc/4.9.2/bin/../lib/gcc/x86_64-unknown-linux-gnu/4.9.2/ -mtune=corei7 -march=x86-64 -g -Og
#
# seed   752366938 -2056335826  -293516368   879419879  -269253183   128843446    55540830  -242308711  -704118635  1127917566  1955612209 -1172462877
#
#      Author: C. J. Pickard (cjp20@cam.ac.uk)
#                Space group: P-1
#

%BLOCK LATTICE_ABC
      4.15574      5.72693      8.92420
     71.35337     83.66108     87.34859
%ENDBLOCK LATTICE_ABC

%BLOCK POSITIONS_FRAC
  Li   0.2160425   0.7183808  -0.3660210 SPIN=   0.00000
  Li  -0.2160425  -0.7183808   0.3660210 SPIN=   0.00000
  Fe  -0.2470631  -0.2140408  -0.0891900 SPIN=   4.00000
  Fe   0.2470631   0.2140408   0.0891900 SPIN=   4.00000
   O   0.4562861  -0.3996821   0.1404364 SPIN=   0.00000
   O  -0.0914691  -0.3551181   0.2692895 SPIN=   0.00000
   O   0.3796785  -0.1721380   0.3356405 SPIN=   0.00000
   O   0.3172561  -0.6250816   0.4257332 SPIN=   0.00000
   S   0.2654379  -0.3880049   0.2927749 SPIN=   0.00000
   O  -0.4562861   0.3996821  -0.1404364 SPIN=   0.00000
   O   0.0914691   0.3551181  -0.2692895 SPIN=   0.00000
   O  -0.3796785   0.1721380  -0.3356405 SPIN=   0.00000
   O  -0.3172561   0.6250816  -0.4257332 SPIN=   0.00000
   S  -0.2654379   0.3880049  -0.2927749 SPIN=   0.00000
   F  -0.2060481   0.1818290   0.1612201 SPIN=   0.00000
   F   0.2060481  -0.1818290  -0.1612201 SPIN=   0.00000
%ENDBLOCK POSITIONS_FRAC

# Note: total spin =   8.00

KPOINTS_MP_SPACING 0.07

%BLOCK SPECIES_POT
QC5
%ENDBLOCK SPECIES_POT

SNAP_TO_SYMMETRY
SYMMETRY_GENERATE

