#              Generated by Buildcell
#
# at 05:34:32 (GMT+1.0) 4th August 2020
# in /lustre/scratch/uccabz1/launch_tmp
# on node-c12a-004
# by uccabz1
#
# compiler GCC version 4.9.2
# options -cpp -iprefix /lustre/shared/ucl/apps/gcc/4.9.2/bin/../lib/gcc/x86_64-unknown-linux-gnu/4.9.2/ -mtune=corei7 -march=x86-64 -g -Og
#
# seed  1557739828 -1503694799  2059145832   866766410  1423352079   399421120  1330384121 -1275092400 -1932337888  -331883633  -279117800   532439241
#
#      Author: C. J. Pickard (cjp20@cam.ac.uk)
#                Space group: I222
#

%BLOCK LATTICE_ABC
      5.42318      6.08526      7.30329
    114.62078    111.79477     90.00000
%ENDBLOCK LATTICE_ABC

%BLOCK POSITIONS_FRAC
  Li   0.2308976   0.2308976   0.4617951 SPIN=   0.00000
  Li  -0.2308976  -0.2308976  -0.4617951 SPIN=   0.00000
  Fe  -0.1588732   0.3411268   0.6822537 SPIN=   4.00000
  Fe   0.1588732  -0.3411268  -0.6822537 SPIN=   4.00000
   O   0.2329661  -0.3844098  -0.0905303 SPIN=   0.00000
   O  -0.2224224  -0.2792300  -0.2066227 SPIN=   0.00000
   O   0.3234964   0.3844098   0.0905303 SPIN=   0.00000
   O  -0.0157998   0.2792300   0.2066227 SPIN=   0.00000
   O  -0.2329661  -0.2938795   0.0905303 SPIN=   0.00000
   O   0.2224224  -0.0726074   0.2066227 SPIN=   0.00000
   O  -0.3234964   0.2938795  -0.0905303 SPIN=   0.00000
   O   0.0157998   0.0726074  -0.2066227 SPIN=   0.00000
   S  -0.5000000   0.5000000   0.0000000 SPIN=   0.00000
   S   0.0000000   0.0000000   0.0000000 SPIN=   0.00000
   F   0.3121328  -0.1878672  -0.3757343 SPIN=   0.00000
   F  -0.3121328   0.1878672   0.3757343 SPIN=   0.00000
%ENDBLOCK POSITIONS_FRAC

# Note: total spin =   8.00

KPOINTS_MP_SPACING 0.07

%BLOCK SPECIES_POT
QC5
%ENDBLOCK SPECIES_POT

SNAP_TO_SYMMETRY
SYMMETRY_GENERATE

