#              Generated by Buildcell
#
# at 01:52:35 (GMT+1.0) 19th August 2020
# in /lustre/scratch/uccabz1/launch_tmp
# on node-c12d-004
# by uccabz1
#
# compiler GCC version 4.9.2
# options -cpp -iprefix /lustre/shared/ucl/apps/gcc/4.9.2/bin/../lib/gcc/x86_64-unknown-linux-gnu/4.9.2/ -mtune=corei7 -march=x86-64 -g -Og
#
# seed  1379415238 -1008859595   142901090 -1812481713  1572074452   489493310  -588480429    91217525  -610116014   -15058203   225217295 -1490570051
#
#      Author: C. J. Pickard (cjp20@cam.ac.uk)
#                Space group: P-1
#

%BLOCK LATTICE_ABC
      5.21765      6.18589      6.84624
    106.09126    102.99282    100.19718
%ENDBLOCK LATTICE_ABC

%BLOCK POSITIONS_FRAC
  Li   0.1816559   0.2255847  -0.1145798 SPIN=   0.00000
  Li  -0.1816559  -0.2255847   0.1145798 SPIN=   0.00000
  Fe   0.3408821  -0.3017083   0.3092674 SPIN=   4.00000
  Fe  -0.3408821   0.3017083  -0.3092674 SPIN=   4.00000
   O   0.3520363  -0.1010936  -0.1706601 SPIN=   0.00000
   O   0.4099682  -0.4867048  -0.3542292 SPIN=   0.00000
   O  -0.0433951  -0.4453385  -0.3222596 SPIN=   0.00000
   O   0.3213051  -0.4088663  -0.0042385 SPIN=   0.00000
   S   0.2599786  -0.3605008  -0.2128469 SPIN=   0.00000
   O  -0.3520363   0.1010936   0.1706601 SPIN=   0.00000
   O  -0.4099682   0.4867048   0.3542292 SPIN=   0.00000
   O   0.0433951   0.4453385   0.3222596 SPIN=   0.00000
   O  -0.3213051   0.4088663   0.0042385 SPIN=   0.00000
   S  -0.2599786   0.3605008   0.2128469 SPIN=   0.00000
   F   0.1852546  -0.0290573   0.3037912 SPIN=   0.00000
   F  -0.1852546   0.0290573  -0.3037912 SPIN=   0.00000
%ENDBLOCK POSITIONS_FRAC

# Note: total spin =   8.00

KPOINTS_MP_SPACING 0.07

%BLOCK SPECIES_POT
QC5
%ENDBLOCK SPECIES_POT

SNAP_TO_SYMMETRY
SYMMETRY_GENERATE

