#              Generated by Buildcell
#
# at 00:34:30 (GMT+1.0) 19th August 2020
# in /scratch/scratch/uccabz1/launch_tmp
# on node-k10i-025
# by uccabz1
#
# compiler GCC version 4.9.2
# options -cpp -iprefix /scratch/UCL/applications/gcc/4.9.2/bin/../lib/gcc/x86_64-unknown-linux-gnu/4.9.2/ -mtune=corei7 -march=x86-64 -g -O2
#
# seed  -940607648 -1360863887  1430287777  2130029250  -942569373 -1751694847  -450224562 -1573003386   454136038  1521587435 -1461149740  -407249707
#
#      Author: C. J. Pickard (cjp20@cam.ac.uk)
#                Space group: C2
#

%BLOCK LATTICE_ABC
      6.37909      6.37909      6.40715
    104.78309    113.35625    110.21395
%ENDBLOCK LATTICE_ABC

%BLOCK POSITIONS_FRAC
  Li  -0.1911445   0.3088555   0.5000000 SPIN=   0.00000
  Li   0.3114925  -0.1885075  -0.5000000 SPIN=   0.00000
  Fe   0.3180523   0.3166367  -0.3736545 SPIN=   4.00000
  Fe  -0.3097089  -0.3082932   0.3736545 SPIN=   4.00000
   O   0.0951108  -0.2611864  -0.1649639 SPIN=   0.00000
   O   0.5447074  -0.0952838   0.1991104 SPIN=   0.00000
   O   0.2987656   0.1268129   0.2261557 SPIN=   0.00000
   O   0.4686581   0.1300012  -0.0603181 SPIN=   0.00000
   S   0.3518105  -0.0249140   0.0499960 SPIN=   0.00000
   O  -0.0962225   0.2600747   0.1649639 SPIN=   0.00000
   O  -0.2943941   0.3455970  -0.1991104 SPIN=   0.00000
   O  -0.0993429   0.0726099  -0.2261557 SPIN=   0.00000
   O   0.1903193   0.5289762   0.0603181 SPIN=   0.00000
   S  -0.0749101   0.3018144  -0.0499960 SPIN=   0.00000
   F  -0.4625510  -0.3970514  -0.4141778 SPIN=   0.00000
   F   0.0171265  -0.0483732   0.4141778 SPIN=   0.00000
%ENDBLOCK POSITIONS_FRAC

# Note: total spin =   8.00

KPOINTS_MP_SPACING 0.07

%BLOCK SPECIES_POT
QC5
%ENDBLOCK SPECIES_POT

SNAP_TO_SYMMETRY
SYMMETRY_GENERATE

