#              Generated by Buildcell
#
# at 02:31:50 (GMT+1.0) 4th August 2020
# in /lustre/scratch/uccabz1/launch_tmp
# on node-c12h-032
# by uccabz1
#
# compiler GCC version 4.9.2
# options -cpp -iprefix /lustre/shared/ucl/apps/gcc/4.9.2/bin/../lib/gcc/x86_64-unknown-linux-gnu/4.9.2/ -mtune=corei7 -march=x86-64 -g -Og
#
# seed -1510616617 -1251545155  2125914394   823372482    83418166 -1631438574  1468880937   896252215   597311117  1439412143 -1358150569 -2018682653
#
#      Author: C. J. Pickard (cjp20@cam.ac.uk)
#                Space group: Pm
#

%BLOCK LATTICE_ABC
      3.81983      6.83235      7.76057
     90.00000     90.00000     99.08041
%ENDBLOCK LATTICE_ABC

%BLOCK POSITIONS_FRAC
  Li  -0.3833906  -0.4869532  -0.0000000 SPIN=   0.00000
  Li  -0.0142385   0.0439436  -0.0000000 SPIN=   0.00000
  Fe   0.1019936   0.3455273   0.2674533 SPIN=   4.00000
  Fe   0.1019936   0.3455273  -0.2674533 SPIN=   4.00000
   O   0.5533691  -0.0799078  -0.1456427 SPIN=   0.00000
   O   0.0829132  -0.0005887  -0.3408288 SPIN=   0.00000
   O  -0.0378028  -0.2892052  -0.1449464 SPIN=   0.00000
   S   0.2404417  -0.1668375  -0.2564441 SPIN=   0.00000
   O   0.5533691  -0.0799078   0.1456427 SPIN=   0.00000
   O   0.0829132  -0.0005887   0.3408288 SPIN=   0.00000
   O  -0.0378028  -0.2892052   0.1449464 SPIN=   0.00000
   S   0.2404417  -0.1668375   0.2564441 SPIN=   0.00000
   O  -0.4016652   0.0858824  -0.5000000 SPIN=   0.00000
   O   0.0962545   0.3740857  -0.0000000 SPIN=   0.00000
   F   0.6060595   0.3619417  -0.2506264 SPIN=   0.00000
   F   0.6060595   0.3619417   0.2506264 SPIN=   0.00000
%ENDBLOCK POSITIONS_FRAC

# Note: total spin =   8.00

KPOINTS_MP_SPACING 0.07

%BLOCK SPECIES_POT
QC5
%ENDBLOCK SPECIES_POT

SNAP_TO_SYMMETRY
SYMMETRY_GENERATE

