#              Generated by Buildcell
#
# at 04:15:18 (GMT+1.0) 4th August 2020
# in /lustre/scratch/uccabz1/launch_tmp
# on node-c12c-028
# by uccabz1
#
# compiler GCC version 4.9.2
# options -cpp -iprefix /lustre/shared/ucl/apps/gcc/4.9.2/bin/../lib/gcc/x86_64-unknown-linux-gnu/4.9.2/ -mtune=corei7 -march=x86-64 -g -Og
#
# seed -1599431885  1856500840 -1718756011  1145222562  1976456697  2070301846   203735116   385540469  1911630808   137621986  1266904421  1934478143
#
#      Author: C. J. Pickard (cjp20@cam.ac.uk)
#                Space group: P21
#

%BLOCK LATTICE_ABC
      4.29249      5.09881      9.21252
     97.29211     90.00000     90.00000
%ENDBLOCK LATTICE_ABC

%BLOCK POSITIONS_FRAC
  Li   0.2113273   0.3241840  -0.2631880 SPIN=   0.00000
  Li  -0.2886727  -0.3241840   0.2631880 SPIN=   0.00000
  Fe   0.3766975   0.2676886   0.0772885 SPIN=   4.00000
  Fe  -0.1233025  -0.2676886  -0.0772885 SPIN=   4.00000
   O  -0.4815584   0.3158805   0.2969766 SPIN=   0.00000
   O   0.0418225   0.1127971   0.2663209 SPIN=   0.00000
   O  -0.3301663  -0.0384862   0.4433883 SPIN=   0.00000
   O  -0.0887626   0.4045132   0.4937415 SPIN=   0.00000
   S  -0.2146662   0.1986762   0.3751068 SPIN=   0.00000
   O   0.0184416  -0.3158805  -0.2969766 SPIN=   0.00000
   O   0.5418225  -0.1127971  -0.2663209 SPIN=   0.00000
   O   0.1698337   0.0384862  -0.4433883 SPIN=   0.00000
   O   0.4112374  -0.4045132  -0.4937415 SPIN=   0.00000
   S   0.2853338  -0.1986762  -0.3751068 SPIN=   0.00000
   F  -0.3403436   0.3617405  -0.1743910 SPIN=   0.00000
   F   0.1596564  -0.3617405   0.1743910 SPIN=   0.00000
%ENDBLOCK POSITIONS_FRAC

# Note: total spin =   8.00

KPOINTS_MP_SPACING 0.07

%BLOCK SPECIES_POT
QC5
%ENDBLOCK SPECIES_POT

SNAP_TO_SYMMETRY
SYMMETRY_GENERATE

