#              Generated by Buildcell
#
# at 03:01:55 (GMT+1.0) 19th August 2020
# in /lustre/scratch/uccabz1/launch_tmp
# on node-c12g-023
# by uccabz1
#
# compiler GCC version 4.9.2
# options -cpp -iprefix /lustre/shared/ucl/apps/gcc/4.9.2/bin/../lib/gcc/x86_64-unknown-linux-gnu/4.9.2/ -mtune=corei7 -march=x86-64 -g -Og
#
# seed   528779708 -1842021697 -1691845411  1346182407  1168658923  1044579352  -104538801 -1758489559  -962585075   253273877   724612793  -328762370
#
#      Author: C. J. Pickard (cjp20@cam.ac.uk)
#                Space group: P21
#

%BLOCK LATTICE_ABC
      4.52159      6.57375      6.83094
     90.00000     99.92959     90.00000
%ENDBLOCK LATTICE_ABC

%BLOCK POSITIONS_FRAC
  Li   0.4421366  -0.3290488   0.3798002 SPIN=   0.00000
  Li  -0.4421366   0.1709512  -0.3798002 SPIN=   0.00000
  Fe  -0.0711425  -0.0291984   0.3291456 SPIN=   4.00000
  Fe   0.0711425   0.4708016  -0.3291456 SPIN=   4.00000
   O  -0.3844424  -0.5505288   0.2269853 SPIN=   0.00000
   O  -0.3661684  -0.2508852   0.0100518 SPIN=   0.00000
   O  -0.2444253  -0.5927927  -0.1052787 SPIN=   0.00000
   O   0.1046662  -0.4218879   0.1634911 SPIN=   0.00000
   S  -0.2225925  -0.4540236   0.0738124 SPIN=   0.00000
   O   0.3844424  -0.0505288  -0.2269853 SPIN=   0.00000
   O   0.3661684   0.2491148  -0.0100518 SPIN=   0.00000
   O   0.2444253  -0.0927927   0.1052787 SPIN=   0.00000
   O  -0.1046662   0.0781121  -0.1634911 SPIN=   0.00000
   S   0.2225925   0.0459764  -0.0738124 SPIN=   0.00000
   F  -0.1701862  -0.2982371  -0.4099605 SPIN=   0.00000
   F   0.1701862   0.2017629   0.4099605 SPIN=   0.00000
%ENDBLOCK POSITIONS_FRAC

# Note: total spin =   8.00

KPOINTS_MP_SPACING 0.07

%BLOCK SPECIES_POT
QC5
%ENDBLOCK SPECIES_POT

SNAP_TO_SYMMETRY
SYMMETRY_GENERATE

