#              Generated by Buildcell
#
# at 04:30:42 (GMT+1.0) 4th August 2020
# in /lustre/scratch/uccabz1/launch_tmp
# on node-c12d-014
# by uccabz1
#
# compiler GCC version 4.9.2
# options -cpp -iprefix /lustre/shared/ucl/apps/gcc/4.9.2/bin/../lib/gcc/x86_64-unknown-linux-gnu/4.9.2/ -mtune=corei7 -march=x86-64 -g -Og
#
# seed -2043813658 -1156266819  -449962147  1029323624  -652704734  1998878354   638532030  1348948625  1348238192 -1886522654   240801550  1435370237
#
#      Author: C. J. Pickard (cjp20@cam.ac.uk)
#                Space group: P-1
#

%BLOCK LATTICE_ABC
      4.10499      6.49937      7.83823
    104.78607     91.26543     97.75382
%ENDBLOCK LATTICE_ABC

%BLOCK POSITIONS_FRAC
  Li   0.5000000   0.0000000   0.5000000 SPIN=   0.00000
  Li   0.5000000   0.5000000  -0.0000000 SPIN=   0.00000
  Fe   0.5000000   0.0000000  -0.0000000 SPIN=   0.58724
  Fe  -0.5000000  -0.5000000   0.5000000 SPIN=   7.41276
   O   0.4049777  -0.2071254   0.2678232 SPIN=   0.00000
   O  -0.1212384  -0.2544659   0.4110419 SPIN=   0.00000
   O  -0.0001130  -0.5349061   0.1506769 SPIN=   0.00000
   O  -0.1179528  -0.1840697   0.1152775 SPIN=   0.00000
   S   0.0414184  -0.2951418   0.2362049 SPIN=   0.00000
   O  -0.4049777   0.2071254  -0.2678232 SPIN=   0.00000
   O   0.1212384   0.2544659  -0.4110419 SPIN=   0.00000
   O   0.0001130   0.5349061  -0.1506769 SPIN=   0.00000
   O   0.1179528   0.1840697  -0.1152775 SPIN=   0.00000
   S  -0.0414184   0.2951418  -0.2362049 SPIN=   0.00000
   F   0.4575490   0.2476298   0.2793765 SPIN=   0.00000
   F  -0.4575490  -0.2476298  -0.2793765 SPIN=   0.00000
%ENDBLOCK POSITIONS_FRAC

# Note: total spin =   8.00

KPOINTS_MP_SPACING 0.07

%BLOCK SPECIES_POT
QC5
%ENDBLOCK SPECIES_POT

SNAP_TO_SYMMETRY
SYMMETRY_GENERATE

