#              Generated by Buildcell
#
# at 05:28:36 (GMT+1.0) 4th August 2020
# in /lustre/scratch/uccabz1/launch_tmp
# on node-c12d-028
# by uccabz1
#
# compiler GCC version 4.9.2
# options -cpp -iprefix /lustre/shared/ucl/apps/gcc/4.9.2/bin/../lib/gcc/x86_64-unknown-linux-gnu/4.9.2/ -mtune=corei7 -march=x86-64 -g -Og
#
# seed  1423088362 -1351468374    60787746  -615561086  1441994430  -954221205 -1514278072  -108010776   330755815 -1160521821 -1376858899  1251730969
#
#      Author: C. J. Pickard (cjp20@cam.ac.uk)
#                Space group: P-1
#

%BLOCK LATTICE_ABC
      4.37961      6.56573      7.22797
     93.28652    101.80274     99.13385
%ENDBLOCK LATTICE_ABC

%BLOCK POSITIONS_FRAC
  Li  -0.0000000   0.5000000   0.5000000 SPIN=   0.00000
  Li  -0.5000000  -0.0000000  -0.5000000 SPIN=   0.00000
  Fe  -0.0480556  -0.2162938   0.1951382 SPIN=   4.00000
  Fe   0.0480556   0.2162938  -0.1951382 SPIN=   4.00000
   O   0.6167763  -0.1258577  -0.0451698 SPIN=   0.00000
   O   0.0502013  -0.1526239  -0.1978405 SPIN=   0.00000
   O   0.2387007  -0.4465705  -0.0372100 SPIN=   0.00000
   O   0.3865147  -0.3582245  -0.3392275 SPIN=   0.00000
   S   0.3230482  -0.2708192  -0.1548620 SPIN=   0.00000
   O  -0.6167763   0.1258577   0.0451698 SPIN=   0.00000
   O  -0.0502013   0.1526239   0.1978405 SPIN=   0.00000
   O  -0.2387007   0.4465705   0.0372100 SPIN=   0.00000
   O  -0.3865147   0.3582245   0.3392275 SPIN=   0.00000
   S  -0.3230482   0.2708192   0.1548620 SPIN=   0.00000
   F   0.3581448   0.2198344  -0.3653841 SPIN=   0.00000
   F  -0.3581448  -0.2198344   0.3653841 SPIN=   0.00000
%ENDBLOCK POSITIONS_FRAC

# Note: total spin =   8.00

KPOINTS_MP_SPACING 0.07

%BLOCK SPECIES_POT
QC5
%ENDBLOCK SPECIES_POT

SNAP_TO_SYMMETRY
SYMMETRY_GENERATE

