#              Generated by Buildcell
#
# at 17:48:50 (GMT+1.0) 18th August 2020
# in /scratch/scratch/uccabz1/launch_tmp
# on node-k10d-027
# by uccabz1
#
# compiler GCC version 4.9.2
# options -cpp -iprefix /scratch/UCL/applications/gcc/4.9.2/bin/../lib/gcc/x86_64-unknown-linux-gnu/4.9.2/ -mtune=corei7 -march=x86-64 -g -O2
#
# seed  2033672876   682028735 -1928069298   281740706   752942483   252304286   630233763  1962912397  -682543861   191057448  -305963080  1494742502
#
#      Author: C. J. Pickard (cjp20@cam.ac.uk)
#                Space group: P-1
#

%BLOCK LATTICE_ABC
      4.33382      6.85011      7.52190
     96.47011    106.33446    107.18571
%ENDBLOCK LATTICE_ABC

%BLOCK POSITIONS_FRAC
  Li  -0.5872566  -0.3344827  -0.1665398 SPIN=   0.00000
  Li   0.5872566   0.3344827   0.1665398 SPIN=   0.00000
  Fe   0.1483825   0.2797404  -0.4835482 SPIN=   4.00000
  Fe  -0.1483825  -0.2797404   0.4835482 SPIN=   4.00000
   O  -0.0116637   0.1570859  -0.2562536 SPIN=   0.00000
   O  -0.4405215   0.2618998  -0.1488490 SPIN=   0.00000
   O  -0.2834974  -0.0384189  -0.0508929 SPIN=   0.00000
   O  -0.6221073  -0.0679383  -0.3843326 SPIN=   0.00000
   S  -0.3394475   0.0781571  -0.2100820 SPIN=   0.00000
   O   0.0116637  -0.1570859   0.2562536 SPIN=   0.00000
   O   0.4405215  -0.2618998   0.1488490 SPIN=   0.00000
   O   0.2834974   0.0384189   0.0508929 SPIN=   0.00000
   O   0.6221073   0.0679383   0.3843326 SPIN=   0.00000
   S   0.3394475  -0.0781571   0.2100820 SPIN=   0.00000
   F   1.0890753   0.3561407   0.2450524 SPIN=   0.00000
   F  -1.0890753  -0.3561407  -0.2450524 SPIN=   0.00000
%ENDBLOCK POSITIONS_FRAC

# Note: total spin =   8.00

KPOINTS_MP_SPACING 0.07

%BLOCK SPECIES_POT
QC5
%ENDBLOCK SPECIES_POT

SNAP_TO_SYMMETRY
SYMMETRY_GENERATE

