#              Generated by Buildcell
#
# at 04:44:50 (GMT+1.0) 4th August 2020
# in /lustre/scratch/uccabz1/launch_tmp
# on node-c12g-022
# by uccabz1
#
# compiler GCC version 4.9.2
# options -cpp -iprefix /lustre/shared/ucl/apps/gcc/4.9.2/bin/../lib/gcc/x86_64-unknown-linux-gnu/4.9.2/ -mtune=corei7 -march=x86-64 -g -Og
#
# seed  -753994374 -1986244571 -1219827394 -1972498299   950708187 -1961215544  -195771619 -1010154326 -1838960829  1334281397 -1589213394   542027290
#
#      Author: C. J. Pickard (cjp20@cam.ac.uk)
#                Space group: C2
#

%BLOCK LATTICE_ABC
      5.08676      5.08676      8.10103
     77.75542     77.75542     89.78376
%ENDBLOCK LATTICE_ABC

%BLOCK POSITIONS_FRAC
  Li   0.1537188  -0.2291584   0.2730432 SPIN=   0.00000
  Li   0.2291584  -0.1537188  -0.2730432 SPIN=   0.00000
  Fe  -0.4138839   0.0735330   0.3718792 SPIN=   4.00000
  Fe  -0.0735330   0.4138839  -0.3718792 SPIN=   4.00000
   O   0.3059048   0.1004493   0.0938761 SPIN=   0.00000
   O   0.0949948   0.1413993  -0.1585703 SPIN=   0.00000
   O   0.5913115   0.1466019  -0.1998476 SPIN=   0.00000
   O   0.3405684   0.5342626  -0.1185252 SPIN=   0.00000
   S   0.3331949   0.2306783  -0.0957667 SPIN=   0.00000
   O  -0.1004493  -0.3059048  -0.0938761 SPIN=   0.00000
   O  -0.1413993  -0.0949948   0.1585703 SPIN=   0.00000
   O  -0.1466019  -0.5913115   0.1998476 SPIN=   0.00000
   O  -0.5342626  -0.3405684   0.1185252 SPIN=   0.00000
   S  -0.2306783  -0.3331949   0.0957667 SPIN=   0.00000
   F   0.2431971   0.3188844   0.4011007 SPIN=   0.00000
   F  -0.3188844  -0.2431971  -0.4011007 SPIN=   0.00000
%ENDBLOCK POSITIONS_FRAC

# Note: total spin =   8.00

KPOINTS_MP_SPACING 0.07

%BLOCK SPECIES_POT
QC5
%ENDBLOCK SPECIES_POT

SNAP_TO_SYMMETRY
SYMMETRY_GENERATE

