#              Generated by Buildcell
#
# at 18:47:06 (GMT+1.0) 18th August 2020
# in /scratch/scratch/uccabz1/launch_tmp
# on node-k10c-033
# by uccabz1
#
# compiler GCC version 4.9.2
# options -cpp -iprefix /scratch/UCL/applications/gcc/4.9.2/bin/../lib/gcc/x86_64-unknown-linux-gnu/4.9.2/ -mtune=corei7 -march=x86-64 -g -O2
#
# seed  -595056122 -1654458310 -2144351251  -517608033  1991924679  1469638843  1437809062  1742461038 -1976430681 -1982766038  -688199283   106991996
#
#      Author: C. J. Pickard (cjp20@cam.ac.uk)
#                Space group: P21/m
#

%BLOCK LATTICE_ABC
      3.98670      5.90896      8.48998
     90.00000     90.00000     90.15769
%ENDBLOCK LATTICE_ABC

%BLOCK POSITIONS_FRAC
  Li  -0.4176158   0.2263899  -0.2500000 SPIN=   0.00000
  Li   0.4176158  -0.2263899   0.2500000 SPIN=   0.00000
  Fe  -0.0000000   0.0000000  -0.0000000 SPIN=   4.00000
  Fe  -0.0000000   0.0000000  -0.5000000 SPIN=   4.00000
   O  -0.2384364  -0.4711521  -0.4272764 SPIN=   0.00000
   O   0.2834845  -0.2517081  -0.3849780 SPIN=   0.00000
   O   0.2384364   0.4711521   0.0727236 SPIN=   0.00000
   O  -0.2834845   0.2517081   0.1150220 SPIN=   0.00000
   O   0.2384364   0.4711521   0.4272764 SPIN=   0.00000
   O  -0.2834845   0.2517081   0.3849780 SPIN=   0.00000
   O  -0.2384364  -0.4711521  -0.0727236 SPIN=   0.00000
   O   0.2834845  -0.2517081  -0.1150220 SPIN=   0.00000
   S  -0.4048236  -0.3116830  -0.2500000 SPIN=   0.00000
   S   0.4048236   0.3116830   0.2500000 SPIN=   0.00000
   F   0.0933764   0.1891151  -0.2500000 SPIN=   0.00000
   F  -0.0933764  -0.1891151   0.2500000 SPIN=   0.00000
%ENDBLOCK POSITIONS_FRAC

# Note: total spin =   8.00

KPOINTS_MP_SPACING 0.07

%BLOCK SPECIES_POT
QC5
%ENDBLOCK SPECIES_POT

SNAP_TO_SYMMETRY
SYMMETRY_GENERATE

