#              Generated by Buildcell
#
# at 01:02:39 (GMT+1.0) 19th August 2020
# in /lustre/scratch/uccabz1/launch_tmp
# on node-c12p-007
# by uccabz1
#
# compiler GCC version 4.9.2
# options -cpp -iprefix /lustre/shared/ucl/apps/gcc/4.9.2/bin/../lib/gcc/x86_64-unknown-linux-gnu/4.9.2/ -mtune=corei7 -march=x86-64 -g -Og
#
# seed  -664585698 -1983114539  1675480643 -1839562335    38381618 -1116194333 -1866008772   105920724 -1798301017 -1794742270 -1011618031 -1671223034
#
#      Author: C. J. Pickard (cjp20@cam.ac.uk)
#                Space group: P2221
#

%BLOCK LATTICE_ABC
      3.89065      5.71923      8.98815
     90.00000     90.00000     90.00000
%ENDBLOCK LATTICE_ABC

%BLOCK POSITIONS_FRAC
  Li   0.5000000   0.1978695  -0.2500000 SPIN=   0.00000
  Li   0.5000000  -0.1978695   0.2500000 SPIN=   0.00000
  Fe   0.0000000  -0.2482041  -0.2500000 SPIN=   4.00000
  Fe   0.0000000   0.2482041   0.2500000 SPIN=   4.00000
   O   0.6849526  -0.4915107  -0.3497618 SPIN=   0.00000
   O   0.2489339  -0.2347295  -0.4659436 SPIN=   0.00000
   O  -0.6849526   0.4915107   0.1502382 SPIN=   0.00000
   O  -0.2489339   0.2347295   0.0340564 SPIN=   0.00000
   O  -0.6849526  -0.4915107  -0.1502382 SPIN=   0.00000
   O  -0.2489339  -0.2347295  -0.0340564 SPIN=   0.00000
   O   0.6849526   0.4915107   0.3497618 SPIN=   0.00000
   O   0.2489339   0.2347295   0.4659436 SPIN=   0.00000
   S  -0.4932745   0.5000000  -0.0000000 SPIN=   0.00000
   S   0.4932745  -0.5000000   0.5000000 SPIN=   0.00000
   F   0.0000000   0.0887390  -0.2500000 SPIN=   0.00000
   F   0.0000000  -0.0887390   0.2500000 SPIN=   0.00000
%ENDBLOCK POSITIONS_FRAC

# Note: total spin =   8.00

KPOINTS_MP_SPACING 0.07

%BLOCK SPECIES_POT
QC5
%ENDBLOCK SPECIES_POT

SNAP_TO_SYMMETRY
SYMMETRY_GENERATE

