#              Generated by Buildcell
#
# at 04:50:27 (GMT+1.0) 4th August 2020
# in /lustre/scratch/uccabz1/launch_tmp
# on node-c12j-012
# by uccabz1
#
# compiler GCC version 4.9.2
# options -cpp -iprefix /lustre/shared/ucl/apps/gcc/4.9.2/bin/../lib/gcc/x86_64-unknown-linux-gnu/4.9.2/ -mtune=corei7 -march=x86-64 -g -Og
#
# seed  2029777753   772523233   785283405   597136014  -508985446   300755418 -1151893057  -476903044   173724342 -2138292556   517364048  1256667551
#
#      Author: C. J. Pickard (cjp20@cam.ac.uk)
#                Space group: P-1
#

%BLOCK LATTICE_ABC
      4.21334      6.17446      7.95690
     90.39385    104.12710     94.65649
%ENDBLOCK LATTICE_ABC

%BLOCK POSITIONS_FRAC
  Li   0.2576128  -0.2416432   0.1228246 SPIN=   0.00000
  Li  -0.2576128   0.2416432  -0.1228246 SPIN=   0.00000
  Fe  -0.7630766   0.2634100  -0.4673266 SPIN=   4.00000
  Fe   0.7630766  -0.2634100   0.4673266 SPIN=   4.00000
   O   0.3868837   0.4633663   0.1256395 SPIN=   0.00000
   O   0.3186027   0.0627718   0.0873153 SPIN=   0.00000
   O   0.5955494   0.2315517   0.3741054 SPIN=   0.00000
   O   0.8705715   0.2582828   0.1325406 SPIN=   0.00000
   S   0.5429018   0.2539932   0.1799002 SPIN=   0.00000
   O  -0.3868837  -0.4633663  -0.1256395 SPIN=   0.00000
   O  -0.3186027  -0.0627718  -0.0873153 SPIN=   0.00000
   O  -0.5955494  -0.2315517  -0.3741054 SPIN=   0.00000
   O  -0.8705715  -0.2582828  -0.1325406 SPIN=   0.00000
   S  -0.5429018  -0.2539932  -0.1799002 SPIN=   0.00000
   F  -0.0322183   0.2239715  -0.2980977 SPIN=   0.00000
   F   0.0322183  -0.2239715   0.2980977 SPIN=   0.00000
%ENDBLOCK POSITIONS_FRAC

# Note: total spin =   8.00

KPOINTS_MP_SPACING 0.07

%BLOCK SPECIES_POT
QC5
%ENDBLOCK SPECIES_POT

SNAP_TO_SYMMETRY
SYMMETRY_GENERATE

