#              Generated by Buildcell
#
# at 01:53:54 (GMT+1.0) 19th August 2020
# in /lustre/scratch/uccabz1/launch_tmp
# on node-c12p-024
# by uccabz1
#
# compiler GCC version 4.9.2
# options -cpp -iprefix /lustre/shared/ucl/apps/gcc/4.9.2/bin/../lib/gcc/x86_64-unknown-linux-gnu/4.9.2/ -mtune=corei7 -march=x86-64 -g -Og
#
# seed   391491400  -996678987 -1682464146   888818909  1004996505 -1125751445   872699637 -2097245189  2063861995   161862494  1601312888  1548800101
#
#      Author: C. J. Pickard (cjp20@cam.ac.uk)
#                Space group: P2
#

%BLOCK LATTICE_ABC
      3.94960      6.63101      7.65444
     93.91849     90.00000     90.00000
%ENDBLOCK LATTICE_ABC

%BLOCK POSITIONS_FRAC
  Li  -0.4113211  -0.2407157   0.1066200 SPIN=   0.00000
  Li  -0.4113211   0.2407157  -0.1066200 SPIN=   0.00000
  Fe   0.0882738   0.2579478  -0.4006554 SPIN=   4.00000
  Fe   0.0882738  -0.2579478   0.4006554 SPIN=   4.00000
   O  -0.5033092   0.1117688   0.1669282 SPIN=   0.00000
   O   0.0139075   0.3078797   0.2462698 SPIN=   0.00000
   O  -0.4851796   0.3302774   0.4421371 SPIN=   0.00000
   O  -0.5037916   0.4839943   0.1566237 SPIN=   0.00000
   S  -0.3695932   0.3084801   0.2529897 SPIN=   0.00000
   O  -0.5033092  -0.1117688  -0.1669282 SPIN=   0.00000
   O   0.0139075  -0.3078797  -0.2462698 SPIN=   0.00000
   O  -0.4851796  -0.3302774  -0.4421371 SPIN=   0.00000
   O  -0.5037916  -0.4839943  -0.1566237 SPIN=   0.00000
   S  -0.3695932  -0.3084801  -0.2529897 SPIN=   0.00000
   F   0.0625875  -0.2009724   0.1697216 SPIN=   0.00000
   F   0.0625875   0.2009724  -0.1697216 SPIN=   0.00000
%ENDBLOCK POSITIONS_FRAC

# Note: total spin =   8.00

KPOINTS_MP_SPACING 0.07

%BLOCK SPECIES_POT
QC5
%ENDBLOCK SPECIES_POT

SNAP_TO_SYMMETRY
SYMMETRY_GENERATE

