#              Generated by Buildcell
#
# at 04:54:13 (GMT+1.0) 4th August 2020
# in /lustre/scratch/uccabz1/launch_tmp
# on node-c12g-032
# by uccabz1
#
# compiler GCC version 4.9.2
# options -cpp -iprefix /lustre/shared/ucl/apps/gcc/4.9.2/bin/../lib/gcc/x86_64-unknown-linux-gnu/4.9.2/ -mtune=corei7 -march=x86-64 -g -Og
#
# seed  1798018922   807247959  1474515310  1925116752  1504137218 -1243817946  -975480724 -1202144663  1584875974  -632612543   724955606  -245351149
#
#      Author: C. J. Pickard (cjp20@cam.ac.uk)
#                Space group: Ama2
#

%BLOCK LATTICE_ABC
      5.15626      5.61007      7.78468
     90.00000     90.00000    117.35831
%ENDBLOCK LATTICE_ABC

%BLOCK POSITIONS_FRAC
  Li  -0.3912268   0.0956111  -0.2500000 SPIN=   0.00000
  Li  -0.4868379  -0.0956111   0.2500000 SPIN=   0.00000
  Fe  -0.2599939   0.4924341   0.2500000 SPIN=   4.00000
  Fe   0.2475720  -0.4924341  -0.2500000 SPIN=   4.00000
   O  -0.5328522   0.2237736   0.0661702 SPIN=   0.00000
   O  -0.0828801   0.2277574  -0.0479305 SPIN=   0.00000
   O   0.2433742  -0.2237736  -0.0661702 SPIN=   0.00000
   O   0.6893625  -0.2277574   0.0479305 SPIN=   0.00000
   O   0.2433742  -0.2237736  -0.4338298 SPIN=   0.00000
   O   0.6893625  -0.2277574  -0.5479305 SPIN=   0.00000
   O  -0.5328522   0.2237736   0.4338298 SPIN=   0.00000
   O  -0.0828801   0.2277574   0.5479305 SPIN=   0.00000
   S   0.1604339   0.0000000   0.0000000 SPIN=   0.00000
   S   0.1604339   0.0000000   0.5000000 SPIN=   0.00000
   F   0.1875392  -0.4865605   0.2500000 SPIN=   0.00000
   F  -0.3259003   0.4865605  -0.2500000 SPIN=   0.00000
%ENDBLOCK POSITIONS_FRAC

# Note: total spin =   8.00

KPOINTS_MP_SPACING 0.07

%BLOCK SPECIES_POT
QC5
%ENDBLOCK SPECIES_POT

SNAP_TO_SYMMETRY
SYMMETRY_GENERATE

