#              Generated by Buildcell
#
# at 01:57:48 (GMT+1.0) 19th August 2020
# in /lustre/scratch/uccabz1/launch_tmp
# on node-c12o-034
# by uccabz1
#
# compiler GCC version 4.9.2
# options -cpp -iprefix /lustre/shared/ucl/apps/gcc/4.9.2/bin/../lib/gcc/x86_64-unknown-linux-gnu/4.9.2/ -mtune=corei7 -march=x86-64 -g -Og
#
# seed  -485202027  -318158401  -904173184  -607384703 -1388432595 -2131912518 -1711053185 -1611167423   365768523   360450905  -918398524 -1408144798
#
#      Author: C. J. Pickard (cjp20@cam.ac.uk)
#                Space group: P-1
#

%BLOCK LATTICE_ABC
      5.66008      5.70654      6.44561
     77.56337     79.69804     86.88647
%ENDBLOCK LATTICE_ABC

%BLOCK POSITIONS_FRAC
  Li   0.0000000   0.5000000   0.5000000 SPIN=   0.00000
  Li   0.5000000   0.0000000  -0.5000000 SPIN=   0.00000
  Fe  -0.2915914  -0.2575574  -0.0150953 SPIN=   4.00000
  Fe   0.2915914   0.2575574   0.0150953 SPIN=   4.00000
   O   0.2130744  -0.2247681  -0.4635005 SPIN=   0.00000
   O   0.4559147  -0.0236711  -0.8082711 SPIN=   0.00000
   O   0.2151052   0.2187048  -0.5683437 SPIN=   0.00000
   O   0.0123487  -0.0158322  -0.7646505 SPIN=   0.00000
   O  -0.2130744   0.2247681   0.4635005 SPIN=   0.00000
   O  -0.4559147   0.0236711   0.8082711 SPIN=   0.00000
   O  -0.2151052  -0.2187048   0.5683437 SPIN=   0.00000
   O  -0.0123487   0.0158322   0.7646505 SPIN=   0.00000
   S   0.0000000  -0.0000000   0.5000000 SPIN=   0.00000
   S  -0.5000000  -0.5000000   0.5000000 SPIN=   0.00000
   F   0.2357551  -0.3007501   0.0041098 SPIN=   0.00000
   F  -0.2357551   0.3007501  -0.0041098 SPIN=   0.00000
%ENDBLOCK POSITIONS_FRAC

# Note: total spin =   8.00

KPOINTS_MP_SPACING 0.07

%BLOCK SPECIES_POT
QC5
%ENDBLOCK SPECIES_POT

SNAP_TO_SYMMETRY
SYMMETRY_GENERATE

