#              Generated by Buildcell
#
# at 00:37:30 (GMT+1.0) 19th August 2020
# in /lustre/scratch/uccabz1/launch_tmp
# on node-c12g-036
# by uccabz1
#
# compiler GCC version 4.9.2
# options -cpp -iprefix /lustre/shared/ucl/apps/gcc/4.9.2/bin/../lib/gcc/x86_64-unknown-linux-gnu/4.9.2/ -mtune=corei7 -march=x86-64 -g -Og
#
# seed -1095665578  -846046357   469859081   185145918   300307983   387952216 -1031074705  1028083075 -1903746393 -1071678406 -1063608123  -517506358
#
#      Author: C. J. Pickard (cjp20@cam.ac.uk)
#                Space group: Pc
#

%BLOCK LATTICE_ABC
      4.76845      6.49989      7.03269
    113.43067     90.00000     90.00000
%ENDBLOCK LATTICE_ABC

%BLOCK POSITIONS_FRAC
  Li  -0.1951814   0.0531817   0.1783564 SPIN=   0.00000
  Li   0.1951814  -0.4468183   0.1783564 SPIN=   0.00000
  Fe  -0.2951360   0.2325335  -0.1335667 SPIN=   4.00000
  Fe   0.2951360  -0.2674665  -0.1335667 SPIN=   4.00000
   O  -0.5218449  -0.4123047   0.3924259 SPIN=   0.00000
   O  -0.0062922  -0.4107164   0.4335423 SPIN=   0.00000
   O  -0.2763780  -0.0598020   0.6043109 SPIN=   0.00000
   O  -0.2207343  -0.2246590   0.2229868 SPIN=   0.00000
   S  -0.2563123  -0.2768705   0.4133165 SPIN=   0.00000
   O   0.5218449   0.0876953   0.3924259 SPIN=   0.00000
   O   0.0062922   0.0892836   0.4335423 SPIN=   0.00000
   O   0.2763780   0.4401980   0.6043109 SPIN=   0.00000
   O   0.2207343   0.2753410   0.2229868 SPIN=   0.00000
   S   0.2563123   0.2231295   0.4133165 SPIN=   0.00000
   F   0.2434265   0.0125865  -0.1816627 SPIN=   0.00000
   F  -0.2434265  -0.4874135  -0.1816627 SPIN=   0.00000
%ENDBLOCK POSITIONS_FRAC

# Note: total spin =   8.00

KPOINTS_MP_SPACING 0.07

%BLOCK SPECIES_POT
QC5
%ENDBLOCK SPECIES_POT

SNAP_TO_SYMMETRY
SYMMETRY_GENERATE

