#              Generated by Buildcell
#
# at 02:37:10 (GMT+1.0) 4th August 2020
# in /lustre/scratch/uccabz1/launch_tmp
# on node-c12n-014
# by uccabz1
#
# compiler GCC version 4.9.2
# options -cpp -iprefix /lustre/shared/ucl/apps/gcc/4.9.2/bin/../lib/gcc/x86_64-unknown-linux-gnu/4.9.2/ -mtune=corei7 -march=x86-64 -g -Og
#
# seed    85876107  1631749551  1993885124   937993231 -1951988826  1158936886  1725077381  -799150547  -316702618    26808108   567532200   519261137
#
#      Author: C. J. Pickard (cjp20@cam.ac.uk)
#                Space group: P-1
#

%BLOCK LATTICE_ABC
      3.96648      7.00057      7.83200
     73.62820     77.61641     76.07574
%ENDBLOCK LATTICE_ABC

%BLOCK POSITIONS_FRAC
  Li   0.2736889   0.1214549  -0.2868838 SPIN=   0.00000
  Li  -0.2736889  -0.1214549   0.2868838 SPIN=   0.00000
  Fe  -0.6667498   0.2582857   0.0451950 SPIN=   4.00000
  Fe   0.6667498  -0.2582857  -0.0451950 SPIN=   4.00000
   O  -0.7047732   0.2641860   0.4086037 SPIN=   0.00000
   O  -0.2573525   0.4668200   0.3856377 SPIN=   0.00000
   O  -0.1074657   0.1790975   0.2405897 SPIN=   0.00000
   O  -0.1985001   0.1143550   0.5730251 SPIN=   0.00000
   S  -0.3170229   0.2561146   0.4019641 SPIN=   0.00000
   O   0.7047732  -0.2641860  -0.4086037 SPIN=   0.00000
   O   0.2573525  -0.4668200  -0.3856377 SPIN=   0.00000
   O   0.1074657  -0.1790975  -0.2405897 SPIN=   0.00000
   O   0.1985001  -0.1143550  -0.5730251 SPIN=   0.00000
   S   0.3170229  -0.2561146  -0.4019641 SPIN=   0.00000
   F   0.1682119  -0.2664616   0.1389450 SPIN=   0.00000
   F  -0.1682119   0.2664616  -0.1389450 SPIN=   0.00000
%ENDBLOCK POSITIONS_FRAC

# Note: total spin =   8.00

KPOINTS_MP_SPACING 0.07

%BLOCK SPECIES_POT
QC5
%ENDBLOCK SPECIES_POT

SNAP_TO_SYMMETRY
SYMMETRY_GENERATE

