#              Generated by Buildcell
#
# at 01:25:44 (GMT+1.0) 19th August 2020
# in /lustre/scratch/uccabz1/launch_tmp
# on node-c12o-011
# by uccabz1
#
# compiler GCC version 4.9.2
# options -cpp -iprefix /lustre/shared/ucl/apps/gcc/4.9.2/bin/../lib/gcc/x86_64-unknown-linux-gnu/4.9.2/ -mtune=corei7 -march=x86-64 -g -Og
#
# seed -1251133470  1903212002  2142905390  1451156054 -1564186214  2117600923  -612838985  1307696753 -1574951593  1511052038  -224427837   119173327
#
#      Author: C. J. Pickard (cjp20@cam.ac.uk)
#                Space group: Cm
#

%BLOCK LATTICE_ABC
      5.59785      5.59785      6.71513
     77.18095     77.18095     88.57996
%ENDBLOCK LATTICE_ABC

%BLOCK POSITIONS_FRAC
  Li  -0.1884966   0.3009440   0.2878923 SPIN=   0.00000
  Li  -0.6990560  -0.1884966   0.2878923 SPIN=   0.00000
  Fe  -0.1968673  -0.1968673  -0.0282739 SPIN=   4.02600
  Fe   0.3058603   0.3058603  -0.0189130 SPIN=   3.97400
   O   0.1246650  -0.1717125  -0.3796600 SPIN=   0.00000
   O   0.3654926   0.0691146  -0.2214367 SPIN=   0.00000
   O   0.5513042  -0.0387024  -0.5593710 SPIN=   0.00000
   S   0.3779007  -0.1254980  -0.3481391 SPIN=   0.00000
   O  -0.1717125   0.1246650  -0.3796600 SPIN=   0.00000
   O   0.0691146   0.3654926  -0.2214367 SPIN=   0.00000
   O  -0.0387024   0.5513042  -0.5593710 SPIN=   0.00000
   S  -0.1254980   0.3779007  -0.3481391 SPIN=   0.00000
   O   0.5101857  -0.4898143  -0.4409393 SPIN=   0.00000
   O  -0.7638492   0.2361508   0.4733453 SPIN=   0.00000
   F  -0.4562780  -0.4562780   0.1314805 SPIN=   0.00000
   F   0.0095056   0.0095056   0.1528634 SPIN=   0.00000
%ENDBLOCK POSITIONS_FRAC

# Note: total spin =   8.00

KPOINTS_MP_SPACING 0.07

%BLOCK SPECIES_POT
QC5
%ENDBLOCK SPECIES_POT

SNAP_TO_SYMMETRY
SYMMETRY_GENERATE

