#              Generated by Buildcell
#
# at 04:49:58 (GMT+1.0) 4th August 2020
# in /lustre/scratch/uccabz1/launch_tmp
# on node-c12m-015
# by uccabz1
#
# compiler GCC version 4.9.2
# options -cpp -iprefix /lustre/shared/ucl/apps/gcc/4.9.2/bin/../lib/gcc/x86_64-unknown-linux-gnu/4.9.2/ -mtune=corei7 -march=x86-64 -g -Og
#
# seed -1368900413 -1540469874 -1352265701   815298538  -259158497  -616373490 -1592648952  1491552264 -1255776833 -1437921096  1278396990 -1089479330
#
#      Author: C. J. Pickard (cjp20@cam.ac.uk)
#                Space group: P2/c
#

%BLOCK LATTICE_ABC
      5.28852      6.05566      6.56777
     90.00000     90.00000    108.03674
%ENDBLOCK LATTICE_ABC

%BLOCK POSITIONS_FRAC
  Li   0.2500000  -0.2500000  -0.4230166 SPIN=   0.00000
  Li  -0.2500000   0.2500000   0.4230166 SPIN=   0.00000
  Fe  -0.2500000  -0.2500000   0.1475538 SPIN=   4.00000
  Fe   0.2500000   0.2500000  -0.1475538 SPIN=   4.00000
   O  -0.5124797  -0.5500942   0.3072356 SPIN=   0.00000
   O  -0.4117002  -0.1511409   0.4435563 SPIN=   0.00000
   O   0.0124797   0.0500942   0.3072356 SPIN=   0.00000
   O  -0.0882998  -0.3488591   0.4435563 SPIN=   0.00000
   O   0.5124797   0.5500942  -0.3072356 SPIN=   0.00000
   O   0.4117002   0.1511409  -0.4435563 SPIN=   0.00000
   O  -0.0124797  -0.0500942  -0.3072356 SPIN=   0.00000
   O   0.0882998   0.3488591  -0.4435563 SPIN=   0.00000
   S   0.2500000   0.2500000   0.3524462 SPIN=   0.00000
   S  -0.2500000  -0.2500000  -0.3524462 SPIN=   0.00000
   F   0.2500000  -0.2500000   0.0863709 SPIN=   0.00000
   F  -0.2500000   0.2500000  -0.0863709 SPIN=   0.00000
%ENDBLOCK POSITIONS_FRAC

# Note: total spin =   8.00

KPOINTS_MP_SPACING 0.07

%BLOCK SPECIES_POT
QC5
%ENDBLOCK SPECIES_POT

SNAP_TO_SYMMETRY
SYMMETRY_GENERATE

