#              Generated by Buildcell
#
# at 03:05:14 (GMT+1.0) 19th August 2020
# in /lustre/scratch/uccabz1/launch_tmp
# on node-c12a-016
# by uccabz1
#
# compiler GCC version 4.9.2
# options -cpp -iprefix /lustre/shared/ucl/apps/gcc/4.9.2/bin/../lib/gcc/x86_64-unknown-linux-gnu/4.9.2/ -mtune=corei7 -march=x86-64 -g -Og
#
# seed  -916939798 -1578259016 -1174838380 -1919831230   782446404  1873191389  -198987847   536192962  -524636573 -1899672016   171150300  1716239912
#
#      Author: C. J. Pickard (cjp20@cam.ac.uk)
#                Space group: Cm
#

%BLOCK LATTICE_ABC
      3.87333      7.62470      7.62470
    117.34124     90.46621     90.46621
%ENDBLOCK LATTICE_ABC

%BLOCK POSITIONS_FRAC
  Li   0.2468590  -0.0432587  -0.3123726 SPIN=   0.00000
  Li   0.2468590  -0.3123726  -0.0432587 SPIN=   0.00000
  Fe  -0.2941678   0.2989297  -0.0281385 SPIN=   4.00000
  Fe  -0.2941678  -0.0281385   0.2989297 SPIN=   4.00000
   O   0.2608710   0.2995175  -0.1918863 SPIN=   0.00000
   O   0.1504113   0.1369527  -0.5526152 SPIN=   0.00000
   O   0.6042822   0.3961173  -0.4067947 SPIN=   0.00000
   S   0.2508972   0.3295426  -0.3750333 SPIN=   0.00000
   O   0.2608710  -0.1918863   0.2995175 SPIN=   0.00000
   O   0.1504113  -0.5526152   0.1369527 SPIN=   0.00000
   O   0.6042822  -0.4067947   0.3961173 SPIN=   0.00000
   S   0.2508972  -0.3750333   0.3295426 SPIN=   0.00000
   O  -0.4438691   0.1168172   0.1168172 SPIN=   0.00000
   O   0.1160587  -0.3926069  -0.3926069 SPIN=   0.00000
   F  -0.2461800  -0.2857524  -0.0082774 SPIN=   0.00000
   F  -0.2461800  -0.0082774  -0.2857524 SPIN=   0.00000
%ENDBLOCK POSITIONS_FRAC

# Note: total spin =   8.00

KPOINTS_MP_SPACING 0.07

%BLOCK SPECIES_POT
QC5
%ENDBLOCK SPECIES_POT

SNAP_TO_SYMMETRY
SYMMETRY_GENERATE

