#              Generated by Buildcell
#
# at 01:14:49 (GMT+1.0) 19th August 2020
# in /scratch/scratch/uccabz1/launch_tmp
# on node-k10b-027
# by uccabz1
#
# compiler GCC version 4.9.2
# options -cpp -iprefix /scratch/UCL/applications/gcc/4.9.2/bin/../lib/gcc/x86_64-unknown-linux-gnu/4.9.2/ -mtune=corei7 -march=x86-64 -g -O2
#
# seed -1801656183 -1361792215  -490590968   367952394  1132360768 -1570586157   147876177 -1395260728 -1856732884   872574795  -428239798  -865994517
#
#      Author: C. J. Pickard (cjp20@cam.ac.uk)
#                Space group: P-1
#

%BLOCK LATTICE_ABC
      4.19644      6.48060      8.09704
     70.03688     80.82536     75.85886
%ENDBLOCK LATTICE_ABC

%BLOCK POSITIONS_FRAC
  Li   0.1587837   0.1911794  -0.4134865 SPIN=   0.00000
  Li  -0.1587837  -0.1911794   0.4134865 SPIN=   0.00000
  Fe   0.7264447  -0.1472522  -0.2180791 SPIN=   4.00000
  Fe  -0.7264447   0.1472522   0.2180791 SPIN=   4.00000
   O  -0.1327740   0.5053296  -0.2749903 SPIN=   0.00000
   O   0.0291895   0.0936136  -0.1422323 SPIN=   0.00000
   O  -0.5435484   0.2889244  -0.0883861 SPIN=   0.00000
   O  -0.0897038   0.3378990   0.0468607 SPIN=   0.00000
   S  -0.1842092   0.3064417  -0.1146870 SPIN=   0.00000
   O   0.1327740  -0.5053296   0.2749903 SPIN=   0.00000
   O  -0.0291895  -0.0936136   0.1422323 SPIN=   0.00000
   O   0.5435484  -0.2889244   0.0883861 SPIN=   0.00000
   O   0.0897038  -0.3378990  -0.0468607 SPIN=   0.00000
   S   0.1842092  -0.3064417   0.1146870 SPIN=   0.00000
   F  -0.6810964   0.7366798  -0.4016251 SPIN=   0.00000
   F   0.6810964  -0.7366798   0.4016251 SPIN=   0.00000
%ENDBLOCK POSITIONS_FRAC

# Note: total spin =   8.00

KPOINTS_MP_SPACING 0.07

%BLOCK SPECIES_POT
QC5
%ENDBLOCK SPECIES_POT

SNAP_TO_SYMMETRY
SYMMETRY_GENERATE

