#              Generated by Buildcell
#
# at 03:15:22 (GMT+1.0) 4th August 2020
# in /lustre/scratch/uccabz1/launch_tmp
# on node-c12g-001
# by uccabz1
#
# compiler GCC version 4.9.2
# options -cpp -iprefix /lustre/shared/ucl/apps/gcc/4.9.2/bin/../lib/gcc/x86_64-unknown-linux-gnu/4.9.2/ -mtune=corei7 -march=x86-64 -g -Og
#
# seed  -403993367  -438050477   567758491 -1868858241  -943122054   286603437  1320882602  1238607634   352068433  1964352780 -1669324045 -2117849591
#
#      Author: C. J. Pickard (cjp20@cam.ac.uk)
#                Space group: Cc
#

%BLOCK LATTICE_ABC
      6.02528      6.13029      6.48916
    107.27782    117.66214     90.00000
%ENDBLOCK LATTICE_ABC

%BLOCK POSITIONS_FRAC
  Li   0.2895894  -0.1909739   0.2381461 SPIN=   0.00000
  Li  -0.0514433   0.3090261   0.2381461 SPIN=   0.00000
  Fe  -0.4455170   0.4821199  -0.5210216 SPIN=   4.00000
  Fe  -0.0755046  -0.0178801  -0.5210216 SPIN=   4.00000
   O  -0.3917944   0.0897715  -0.0181569 SPIN=   0.00000
   O  -0.6939133   0.1490772  -0.4083871 SPIN=   0.00000
   O  -0.3959776  -0.1289001  -0.4080478 SPIN=   0.00000
   O  -0.2345332   0.2921175  -0.2146988 SPIN=   0.00000
   S  -0.4290546   0.1005165  -0.2623226 SPIN=   0.00000
   O   0.3736375  -0.4102285  -0.0181569 SPIN=   0.00000
   O   0.2855262  -0.3509228  -0.4083871 SPIN=   0.00000
   O  -0.0120703  -0.6289001  -0.4080478 SPIN=   0.00000
   O   0.0198344  -0.2078825  -0.2146988 SPIN=   0.00000
   S   0.1667320  -0.3994835  -0.2623226 SPIN=   0.00000
   F  -0.1168091  -0.2430490   0.1593612 SPIN=   0.00000
   F   0.2761702   0.2569510   0.1593612 SPIN=   0.00000
%ENDBLOCK POSITIONS_FRAC

# Note: total spin =   8.00

KPOINTS_MP_SPACING 0.07

%BLOCK SPECIES_POT
QC5
%ENDBLOCK SPECIES_POT

SNAP_TO_SYMMETRY
SYMMETRY_GENERATE

