#              Generated by Buildcell
#
# at 23:28:30 (GMT+1.0) 18th August 2020
# in /lustre/scratch/uccabz1/launch_tmp
# on node-c12a-016
# by uccabz1
#
# compiler GCC version 4.9.2
# options -cpp -iprefix /lustre/shared/ucl/apps/gcc/4.9.2/bin/../lib/gcc/x86_64-unknown-linux-gnu/4.9.2/ -mtune=corei7 -march=x86-64 -g -Og
#
# seed  -764961776 -2046452847  -186493778   -41584610   409492452  1641308052 -1132811517 -1368009329   539847479 -1181002854  -981928712  1452102036
#
#      Author: C. J. Pickard (cjp20@cam.ac.uk)
#                Space group: P-1
#

%BLOCK LATTICE_ABC
      4.17692      4.62050     10.61612
     82.62077     79.97658     87.06428
%ENDBLOCK LATTICE_ABC

%BLOCK POSITIONS_FRAC
  Li  -0.0013807   0.1451967  -0.3049230 SPIN=   0.00000
  Li   0.0013807  -0.1451967   0.3049230 SPIN=   0.00000
  Fe  -0.2789357   0.2335309   0.0994619 SPIN=   4.00000
  Fe   0.2789357  -0.2335309  -0.0994619 SPIN=   4.00000
   O  -0.6069299  -0.1105593  -0.3690428 SPIN=   0.00000
   O  -0.4242009  -0.6276660  -0.3738837 SPIN=   0.00000
   O  -0.1300903  -0.2978532  -0.2705544 SPIN=   0.00000
   O  -0.0917293  -0.2364404  -0.5076988 SPIN=   0.00000
   S  -0.3132376  -0.3181297  -0.3802949 SPIN=   0.00000
   O   0.6069299   0.1105593   0.3690428 SPIN=   0.00000
   O   0.4242009   0.6276660   0.3738837 SPIN=   0.00000
   O   0.1300903   0.2978532   0.2705544 SPIN=   0.00000
   O   0.0917293   0.2364404   0.5076988 SPIN=   0.00000
   S   0.3132376   0.3181297   0.3802949 SPIN=   0.00000
   F   0.2782863   0.2652710  -0.1005764 SPIN=   0.00000
   F  -0.2782863  -0.2652710   0.1005764 SPIN=   0.00000
%ENDBLOCK POSITIONS_FRAC

# Note: total spin =   8.00

KPOINTS_MP_SPACING 0.07

%BLOCK SPECIES_POT
QC5
%ENDBLOCK SPECIES_POT

SNAP_TO_SYMMETRY
SYMMETRY_GENERATE

