#              Generated by Buildcell
#
# at 19:23:02 (GMT+1.0) 18th August 2020
# in /scratch/scratch/uccabz1/launch_tmp
# on node-k10e-027
# by uccabz1
#
# compiler GCC version 4.9.2
# options -cpp -iprefix /scratch/UCL/applications/gcc/4.9.2/bin/../lib/gcc/x86_64-unknown-linux-gnu/4.9.2/ -mtune=corei7 -march=x86-64 -g -O2
#
# seed  1444185693  1794657630 -2131646337  1664800164   927901866  -784996217 -1433376515 -1459063647  -402450350  -364153985  1125980788  1484780778
#
#      Author: C. J. Pickard (cjp20@cam.ac.uk)
#                Space group: C2
#

%BLOCK LATTICE_ABC
      4.19269      4.19269     12.68348
     91.88809     91.88809    116.00356
%ENDBLOCK LATTICE_ABC

%BLOCK POSITIONS_FRAC
  Li   0.2969076   0.2952425  -0.2459253 SPIN=   0.00000
  Li  -0.2952425  -0.2969076   0.2459253 SPIN=   0.00000
  Fe   0.0782565   0.3806673   0.3869899 SPIN=   4.00000
  Fe  -0.3806673  -0.0782565  -0.3869899 SPIN=   4.00000
   O  -0.7926802  -0.2064249  -0.1954972 SPIN=   0.00000
   O  -0.1595846   0.2260766  -0.1695030 SPIN=   0.00000
   O  -0.3591884  -0.3886292  -0.1130601 SPIN=   0.00000
   O  -0.5320409   0.0271288  -0.0153236 SPIN=   0.00000
   S  -0.4608735  -0.0854622  -0.1233460 SPIN=   0.00000
   O   0.2064249   0.7926802   0.1954972 SPIN=   0.00000
   O  -0.2260766   0.1595846   0.1695030 SPIN=   0.00000
   O   0.3886292   0.3591884   0.1130601 SPIN=   0.00000
   O  -0.0271288   0.5320409   0.0153236 SPIN=   0.00000
   S   0.0854622   0.4608735   0.1233460 SPIN=   0.00000
   F   0.3509183   0.1095064   0.3878903 SPIN=   0.00000
   F  -0.1095064  -0.3509183  -0.3878903 SPIN=   0.00000
%ENDBLOCK POSITIONS_FRAC

# Note: total spin =   8.00

KPOINTS_MP_SPACING 0.07

%BLOCK SPECIES_POT
QC5
%ENDBLOCK SPECIES_POT

SNAP_TO_SYMMETRY
SYMMETRY_GENERATE

