#              Generated by Buildcell
#
# at 05:06:58 (GMT+1.0) 4th August 2020
# in /lustre/scratch/uccabz1/launch_tmp
# on node-c12f-001
# by uccabz1
#
# compiler GCC version 4.9.2
# options -cpp -iprefix /lustre/shared/ucl/apps/gcc/4.9.2/bin/../lib/gcc/x86_64-unknown-linux-gnu/4.9.2/ -mtune=corei7 -march=x86-64 -g -Og
#
# seed  1661062898   247115932 -1270880784  2095815848   950148227 -1847179443   741225380   -36071364   289637354 -1731239743 -1007416769  2060324995
#
#      Author: C. J. Pickard (cjp20@cam.ac.uk)
#                Space group: P2
#

%BLOCK LATTICE_ABC
      4.17826      6.78767      7.19972
     90.00000    101.62533     90.00000
%ENDBLOCK LATTICE_ABC

%BLOCK POSITIONS_FRAC
  Li   0.5000000   0.2667821   0.0000000 SPIN=   0.00000
  Li  -0.0000000   0.1289865   0.5000000 SPIN=   0.00000
  Fe   0.1816779   0.4952753   0.2891414 SPIN=   4.00000
  Fe  -0.1816779   0.4952753  -0.2891414 SPIN=   4.00000
   O   0.7423991  -0.1931704  -0.0852886 SPIN=   0.00000
   O   0.8558826   0.1558309  -0.1477855 SPIN=   0.00000
   O   0.3131610   0.0126557  -0.2803127 SPIN=   0.00000
   S   0.6768941  -0.0284685  -0.2301110 SPIN=   0.00000
   O  -0.7423991  -0.1931704   0.0852886 SPIN=   0.00000
   O  -0.8558826   0.1558309   0.1477855 SPIN=   0.00000
   O  -0.3131610   0.0126557   0.2803127 SPIN=   0.00000
   S  -0.6768941  -0.0284685   0.2301110 SPIN=   0.00000
   O  -0.0000000  -0.4753968   0.0000000 SPIN=   0.00000
   O   0.0000000  -0.2254993  -0.5000000 SPIN=   0.00000
   F   0.3228600   0.4684032  -0.2755886 SPIN=   0.00000
   F  -0.3228600   0.4684032   0.2755886 SPIN=   0.00000
%ENDBLOCK POSITIONS_FRAC

# Note: total spin =   8.00

KPOINTS_MP_SPACING 0.07

%BLOCK SPECIES_POT
QC5
%ENDBLOCK SPECIES_POT

SNAP_TO_SYMMETRY
SYMMETRY_GENERATE

