#              Generated by Buildcell
#
# at 05:43:32 (GMT+1.0) 4th August 2020
# in /lustre/scratch/uccabz1/launch_tmp
# on node-c12p-031
# by uccabz1
#
# compiler GCC version 4.9.2
# options -cpp -iprefix /lustre/shared/ucl/apps/gcc/4.9.2/bin/../lib/gcc/x86_64-unknown-linux-gnu/4.9.2/ -mtune=corei7 -march=x86-64 -g -Og
#
# seed -1050576972  1095744171 -1756414829    17381417  1752442159  1902212775   543836846 -2130152895  -294533694  -969599974   857079637  1392317039
#
#      Author: C. J. Pickard (cjp20@cam.ac.uk)
#                Space group: C2
#

%BLOCK LATTICE_ABC
      4.02064      4.02064     12.52745
     88.13901     88.13901     81.30052
%ENDBLOCK LATTICE_ABC

%BLOCK POSITIONS_FRAC
  Li  -0.3434623  -0.1413707   0.2219284 SPIN=   0.00000
  Li   0.1413707   0.3434623  -0.2219284 SPIN=   0.00000
  Fe   0.1982464   0.2555132   0.3989242 SPIN=   4.00000
  Fe  -0.2555132  -0.1982464  -0.3989242 SPIN=   4.00000
   O   0.4506396   0.1839620   0.0728474 SPIN=   0.00000
   O  -0.0795494   0.2196801   0.1807552 SPIN=   0.00000
   O   0.0633972   0.7235593   0.0814294 SPIN=   0.00000
   O   0.3857592   0.5018059   0.2400287 SPIN=   0.00000
   S   0.2050616   0.4072518   0.1437652 SPIN=   0.00000
   O  -0.1839620  -0.4506396  -0.0728474 SPIN=   0.00000
   O  -0.2196801   0.0795494  -0.1807552 SPIN=   0.00000
   O  -0.7235593  -0.0633972  -0.0814294 SPIN=   0.00000
   O  -0.5018059  -0.3857592  -0.2400287 SPIN=   0.00000
   S  -0.4072518  -0.2050616  -0.1437652 SPIN=   0.00000
   F  -0.3287168  -0.0755799   0.3741371 SPIN=   0.00000
   F   0.0755799   0.3287168  -0.3741371 SPIN=   0.00000
%ENDBLOCK POSITIONS_FRAC

# Note: total spin =   8.00

KPOINTS_MP_SPACING 0.07

%BLOCK SPECIES_POT
QC5
%ENDBLOCK SPECIES_POT

SNAP_TO_SYMMETRY
SYMMETRY_GENERATE

