#              Generated by Buildcell
#
# at 03:04:17 (GMT+1.0) 4th August 2020
# in /lustre/scratch/uccabz1/launch_tmp
# on node-c12m-020
# by uccabz1
#
# compiler GCC version 4.9.2
# options -cpp -iprefix /lustre/shared/ucl/apps/gcc/4.9.2/bin/../lib/gcc/x86_64-unknown-linux-gnu/4.9.2/ -mtune=corei7 -march=x86-64 -g -Og
#
# seed -1149220194  -390880957   652842270   347675669  1394069419  -168493479  1137037967  1432345569  1447754861  -142810263 -1292938430  -133457124
#
#      Author: C. J. Pickard (cjp20@cam.ac.uk)
#                Space group: Pmc21
#

%BLOCK LATTICE_ABC
      5.73654      5.81372      5.99689
     90.00000     90.00000     90.00000
%ENDBLOCK LATTICE_ABC

%BLOCK POSITIONS_FRAC
  Li   0.2517956  -0.0452207  -0.5000000 SPIN=   0.00000
  Li  -0.2517956   0.4547793  -0.5000000 SPIN=   0.00000
  Fe  -0.2854560  -0.3005803   0.0000000 SPIN=   4.00000
  Fe   0.2854560   0.1994197   0.0000000 SPIN=   4.00000
   O   0.0323393   0.0647071  -0.2696424 SPIN=   0.00000
   O   0.4452240   0.1816286  -0.3080343 SPIN=   0.00000
   O  -0.0323393  -0.4352929   0.2696424 SPIN=   0.00000
   O  -0.4452240  -0.3183714   0.3080343 SPIN=   0.00000
   O  -0.0323393  -0.4352929  -0.2696424 SPIN=   0.00000
   O  -0.4452240  -0.3183714  -0.3080343 SPIN=   0.00000
   O   0.0323393   0.0647071   0.2696424 SPIN=   0.00000
   O   0.4452240   0.1816286   0.3080343 SPIN=   0.00000
   S  -0.2398740  -0.0527321  -0.5000000 SPIN=   0.00000
   S   0.2398740   0.4472679  -0.5000000 SPIN=   0.00000
   F  -0.2500576   0.2846312   0.0000000 SPIN=   0.00000
   F   0.2500576  -0.2153688  -0.0000000 SPIN=   0.00000
%ENDBLOCK POSITIONS_FRAC

# Note: total spin =   8.00

KPOINTS_MP_SPACING 0.07

%BLOCK SPECIES_POT
QC5
%ENDBLOCK SPECIES_POT

SNAP_TO_SYMMETRY
SYMMETRY_GENERATE

