#              Generated by Buildcell
#
# at 02:35:42 (GMT+1.0) 4th August 2020
# in /lustre/scratch/uccabz1/launch_tmp
# on node-c12c-001
# by uccabz1
#
# compiler GCC version 4.9.2
# options -cpp -iprefix /lustre/shared/ucl/apps/gcc/4.9.2/bin/../lib/gcc/x86_64-unknown-linux-gnu/4.9.2/ -mtune=corei7 -march=x86-64 -g -Og
#
# seed  1816171515  -867376125  -186431479  1141106848   492007437  -820218850   480964531  -528140766   575393600  1182184160  -879595932  1410652416
#
#      Author: C. J. Pickard (cjp20@cam.ac.uk)
#                Space group: Pc
#

%BLOCK LATTICE_ABC
      5.59713      5.94244      6.21248
    104.55448     90.00000     90.00000
%ENDBLOCK LATTICE_ABC

%BLOCK POSITIONS_FRAC
  Li  -0.2415310   0.3459233   0.0200935 SPIN=   0.00000
  Li   0.2415310   0.3459233  -0.4799065 SPIN=   0.00000
  Fe  -0.3313909  -0.1458954  -0.2311007 SPIN=   4.00000
  Fe   0.3313909  -0.1458954   0.2688993 SPIN=   4.00000
   O   0.3001770   0.0871559   0.0501770 SPIN=   0.00000
   O   0.1992930   0.5048671   0.1209766 SPIN=   0.00000
   O   0.0348654   0.2239089  -0.2094106 SPIN=   0.00000
   O   0.4653707   0.3218359  -0.1923098 SPIN=   0.00000
   S   0.2499265   0.2844420  -0.0576417 SPIN=   0.00000
   O  -0.3001770   0.0871559   0.5501770 SPIN=   0.00000
   O  -0.1992930   0.5048671   0.6209766 SPIN=   0.00000
   O  -0.0348654   0.2239089   0.2905894 SPIN=   0.00000
   O  -0.4653707   0.3218359   0.3076902 SPIN=   0.00000
   S  -0.2499265   0.2844420   0.4423583 SPIN=   0.00000
   F  -0.2501004  -0.3054222   0.0782675 SPIN=   0.00000
   F   0.2501004  -0.3054222  -0.4217325 SPIN=   0.00000
%ENDBLOCK POSITIONS_FRAC

# Note: total spin =   8.00

KPOINTS_MP_SPACING 0.07

%BLOCK SPECIES_POT
QC5
%ENDBLOCK SPECIES_POT

SNAP_TO_SYMMETRY
SYMMETRY_GENERATE

