#              Generated by Buildcell
#
# at 04:13:34 (GMT+1.0) 4th August 2020
# in /lustre/scratch/uccabz1/launch_tmp
# on node-c12f-001
# by uccabz1
#
# compiler GCC version 4.9.2
# options -cpp -iprefix /lustre/shared/ucl/apps/gcc/4.9.2/bin/../lib/gcc/x86_64-unknown-linux-gnu/4.9.2/ -mtune=corei7 -march=x86-64 -g -Og
#
# seed -1409324388 -1873904257  1325290799  -783909095   751953211   279707562   293355161    24028655  -394040261   736644303 -2016022384  1247228607
#
#      Author: C. J. Pickard (cjp20@cam.ac.uk)
#                Space group: P-1
#

%BLOCK LATTICE_ABC
      3.77974      7.42352      7.60879
     82.96881     76.07162     75.29231
%ENDBLOCK LATTICE_ABC

%BLOCK POSITIONS_FRAC
  Li   0.0057451  -0.3003907  -0.3376621 SPIN=   0.00000
  Li  -0.0057451   0.3003907   0.3376621 SPIN=   0.00000
  Fe  -0.3883352   0.3611544  -0.2716083 SPIN=   4.00000
  Fe   0.3883352  -0.3611544   0.2716083 SPIN=   4.00000
   O  -0.4849095   0.1658049   0.3500075 SPIN=   0.00000
   O  -0.3273693   0.1750369   0.0144226 SPIN=   0.00000
   O  -0.2625678  -0.1286093   0.1934414 SPIN=   0.00000
   O   0.1764530   0.0707009   0.1857638 SPIN=   0.00000
   O   0.4849095  -0.1658049  -0.3500075 SPIN=   0.00000
   O   0.3273693  -0.1750369  -0.0144226 SPIN=   0.00000
   O   0.2625678   0.1286093  -0.1934414 SPIN=   0.00000
   O  -0.1764530  -0.0707009  -0.1857638 SPIN=   0.00000
   S  -0.0000000  -0.0000000   0.0000000 SPIN=   0.00000
   S  -0.5000000   0.0000000   0.5000000 SPIN=   0.00000
   F  -1.0000000   0.5000000   0.0000000 SPIN=   0.00000
   F   1.0000000  -0.5000000   0.5000000 SPIN=   0.00000
%ENDBLOCK POSITIONS_FRAC

# Note: total spin =   8.00

KPOINTS_MP_SPACING 0.07

%BLOCK SPECIES_POT
QC5
%ENDBLOCK SPECIES_POT

SNAP_TO_SYMMETRY
SYMMETRY_GENERATE

