#              Generated by Buildcell
#
# at 21:06:52 (GMT+1.0) 18th August 2020
# in /lustre/scratch/uccabz1/launch_tmp
# on node-c12b-001
# by uccabz1
#
# compiler GCC version 4.9.2
# options -cpp -iprefix /lustre/shared/ucl/apps/gcc/4.9.2/bin/../lib/gcc/x86_64-unknown-linux-gnu/4.9.2/ -mtune=corei7 -march=x86-64 -g -Og
#
# seed  1115624928 -1535109522  -708183862  1075257710 -1556791139   608145667 -1272307603  2077511996  1086777628   634462876   686585319  1104125096
#
#      Author: C. J. Pickard (cjp20@cam.ac.uk)
#                Space group: P-1
#

%BLOCK LATTICE_ABC
      6.04030      6.21190      6.30847
     78.40982     67.05698     66.77238
%ENDBLOCK LATTICE_ABC

%BLOCK POSITIONS_FRAC
  Li   0.4382377  -0.2051832   0.3964315 SPIN=   0.00000
  Li  -0.4382377   0.2051832  -0.3964315 SPIN=   0.00000
  Fe   0.2582851   0.2902521   0.1114243 SPIN=   4.00000
  Fe  -0.2582851  -0.2902521  -0.1114243 SPIN=   4.00000
   O  -0.2591133  -0.0957511   0.1636653 SPIN=   0.00000
   O  -0.2273526  -0.2472400   0.5487094 SPIN=   0.00000
   O  -0.0820621   0.0837569   0.3459885 SPIN=   0.00000
   O   0.1664059  -0.3155122   0.2030040 SPIN=   0.00000
   S  -0.1005305  -0.1436866   0.3153418 SPIN=   0.00000
   O   0.2591133   0.0957511  -0.1636653 SPIN=   0.00000
   O   0.2273526   0.2472400  -0.5487094 SPIN=   0.00000
   O   0.0820621  -0.0837569  -0.3459885 SPIN=   0.00000
   O  -0.1664059   0.3155122  -0.2030040 SPIN=   0.00000
   S   0.1005305   0.1436866  -0.3153418 SPIN=   0.00000
   F  -0.3560867  -0.4926805   0.1948366 SPIN=   0.00000
   F   0.3560867   0.4926805  -0.1948366 SPIN=   0.00000
%ENDBLOCK POSITIONS_FRAC

# Note: total spin =   8.00

KPOINTS_MP_SPACING 0.07

%BLOCK SPECIES_POT
QC5
%ENDBLOCK SPECIES_POT

SNAP_TO_SYMMETRY
SYMMETRY_GENERATE

