#              Generated by Buildcell
#
# at 05:25:33 (GMT+1.0) 4th August 2020
# in /lustre/scratch/uccabz1/launch_tmp
# on node-c12f-006
# by uccabz1
#
# compiler GCC version 4.9.2
# options -cpp -iprefix /lustre/shared/ucl/apps/gcc/4.9.2/bin/../lib/gcc/x86_64-unknown-linux-gnu/4.9.2/ -mtune=corei7 -march=x86-64 -g -Og
#
# seed    44052818  1231016999  1850944423   950645043  1331857168  -487567679  1067542324   319012586 -1633047966   341906406 -1300728725   458008561
#
#      Author: C. J. Pickard (cjp20@cam.ac.uk)
#                Space group: P2
#

%BLOCK LATTICE_ABC
      4.47056      6.15137      7.27286
     90.00000     90.00000     90.36343
%ENDBLOCK LATTICE_ABC

%BLOCK POSITIONS_FRAC
  Li   0.2494634   0.2499241   0.0872570 SPIN=   0.00000
  Li  -0.2494634  -0.2499241   0.0872570 SPIN=   0.00000
  Fe  -0.2379016  -0.2510722   0.4931145 SPIN=   4.00000
  Fe   0.2379016   0.2510722   0.4931145 SPIN=   4.00000
   O   0.0587738   0.3235863  -0.1992627 SPIN=   0.00000
   O  -0.2474224   0.0070736  -0.1025971 SPIN=   0.00000
   O  -0.4749524   0.3001954  -0.2878820 SPIN=   0.00000
   O  -0.3353706   0.3682795   0.0364349 SPIN=   0.00000
   S  -0.2497429   0.2497837  -0.1383267 SPIN=   0.00000
   O  -0.0587738  -0.3235863  -0.1992627 SPIN=   0.00000
   O   0.2474224  -0.0070736  -0.1025971 SPIN=   0.00000
   O   0.4749524  -0.3001954  -0.2878820 SPIN=   0.00000
   O   0.3353706  -0.3682795   0.0364349 SPIN=   0.00000
   S   0.2497429  -0.2497837  -0.1383267 SPIN=   0.00000
   F   0.2431054  -0.2472368   0.3805627 SPIN=   0.00000
   F  -0.2431054   0.2472368   0.3805627 SPIN=   0.00000
%ENDBLOCK POSITIONS_FRAC

# Note: total spin =   8.00

KPOINTS_MP_SPACING 0.07

%BLOCK SPECIES_POT
QC5
%ENDBLOCK SPECIES_POT

SNAP_TO_SYMMETRY
SYMMETRY_GENERATE

