#              Generated by Buildcell
#
# at 02:48:45 (GMT+1.0) 19th August 2020
# in /lustre/scratch/uccabz1/launch_tmp
# on node-c12a-022
# by uccabz1
#
# compiler GCC version 4.9.2
# options -cpp -iprefix /lustre/shared/ucl/apps/gcc/4.9.2/bin/../lib/gcc/x86_64-unknown-linux-gnu/4.9.2/ -mtune=corei7 -march=x86-64 -g -Og
#
# seed -1424779237   730104967   902175548   816833639  1663868068  1859585646    64818749   872666556   888501684   806822850  -355616022   402843856
#
#      Author: C. J. Pickard (cjp20@cam.ac.uk)
#                Space group: P21
#

%BLOCK LATTICE_ABC
      4.44867      4.83346      9.35688
     90.00000     96.25091     90.00000
%ENDBLOCK LATTICE_ABC

%BLOCK POSITIONS_FRAC
  Li  -0.3239045   0.0358063  -0.1466933 SPIN=   0.00000
  Li   0.3239045  -0.4641937   0.1466933 SPIN=   0.00000
  Fe   0.2702724   0.1406171  -0.4079056 SPIN=   4.00000
  Fe  -0.2702724  -0.3593829   0.4079056 SPIN=   4.00000
   O  -0.2503953   0.4337712   0.1760342 SPIN=   0.00000
   O  -0.4045059  -0.0578345   0.1552198 SPIN=   0.00000
   O   0.1023131   0.0668341   0.2733064 SPIN=   0.00000
   O  -0.0145110   0.1226441   0.0101997 SPIN=   0.00000
   S  -0.1417748   0.1413537   0.1536900 SPIN=   0.00000
   O   0.2503953  -0.0662288  -0.1760342 SPIN=   0.00000
   O   0.4045059  -0.5578345  -0.1552198 SPIN=   0.00000
   O  -0.1023131  -0.4331659  -0.2733064 SPIN=   0.00000
   O   0.0145110  -0.3773559  -0.0101997 SPIN=   0.00000
   S   0.1417748  -0.3586463  -0.1536900 SPIN=   0.00000
   F   0.2315187  -0.3867427   0.4000776 SPIN=   0.00000
   F  -0.2315187   0.1132573  -0.4000776 SPIN=   0.00000
%ENDBLOCK POSITIONS_FRAC

# Note: total spin =   8.00

KPOINTS_MP_SPACING 0.07

%BLOCK SPECIES_POT
QC5
%ENDBLOCK SPECIES_POT

SNAP_TO_SYMMETRY
SYMMETRY_GENERATE

