#              Generated by Buildcell
#
# at 05:04:35 (GMT+1.0) 4th August 2020
# in /lustre/scratch/uccabz1/launch_tmp
# on node-c12f-013
# by uccabz1
#
# compiler GCC version 4.9.2
# options -cpp -iprefix /lustre/shared/ucl/apps/gcc/4.9.2/bin/../lib/gcc/x86_64-unknown-linux-gnu/4.9.2/ -mtune=corei7 -march=x86-64 -g -Og
#
# seed   450289516   209047291   578978146  1806273542 -1555074016  1003523286   101808119  1348062539 -1660625433 -1905471765  2053215437  -712184697
#
#      Author: C. J. Pickard (cjp20@cam.ac.uk)
#                Space group: P-1
#

%BLOCK LATTICE_ABC
      3.86067      6.35687      8.51294
     95.51467     94.18008    104.82384
%ENDBLOCK LATTICE_ABC

%BLOCK POSITIONS_FRAC
  Li   1.0980860   0.2659502   0.4037578 SPIN=   0.00000
  Li  -1.0980860  -0.2659502  -0.4037578 SPIN=   0.00000
  Fe  -0.0606146  -0.1594759   0.1889617 SPIN=   4.00000
  Fe   0.0606146   0.1594759  -0.1889617 SPIN=   4.00000
   O   0.7048435   0.4117364  -0.0243506 SPIN=   0.00000
   O   0.7161330   0.4635307   0.2680337 SPIN=   0.00000
   O   0.9427913   0.1672278   0.1378661 SPIN=   0.00000
   S   0.6633892   0.2957199   0.1233155 SPIN=   0.00000
   O  -0.7048435  -0.4117364   0.0243506 SPIN=   0.00000
   O  -0.7161330  -0.4635307  -0.2680337 SPIN=   0.00000
   O  -0.9427913  -0.1672278  -0.1378661 SPIN=   0.00000
   S  -0.6633892  -0.2957199  -0.1233155 SPIN=   0.00000
   O   1.0000000   0.0000000   0.5000000 SPIN=   0.00000
   O  -1.5000000  -0.5000000  -0.5000000 SPIN=   0.00000
   F  -0.3614687   0.2116778  -0.3160863 SPIN=   0.00000
   F   0.3614687  -0.2116778   0.3160863 SPIN=   0.00000
%ENDBLOCK POSITIONS_FRAC

# Note: total spin =   8.00

KPOINTS_MP_SPACING 0.07

%BLOCK SPECIES_POT
QC5
%ENDBLOCK SPECIES_POT

SNAP_TO_SYMMETRY
SYMMETRY_GENERATE

