#              Generated by Buildcell
#
# at 02:48:45 (GMT+1.0) 4th August 2020
# in /lustre/scratch/uccabz1/launch_tmp
# on node-c12l-021
# by uccabz1
#
# compiler GCC version 4.9.2
# options -cpp -iprefix /lustre/shared/ucl/apps/gcc/4.9.2/bin/../lib/gcc/x86_64-unknown-linux-gnu/4.9.2/ -mtune=corei7 -march=x86-64 -g -Og
#
# seed -1049976513  1324012771 -1931807770 -1602974870  1753832026   505725769   471496342 -1643054791  1451060399 -1745973732   486500666   742182816
#
#      Author: C. J. Pickard (cjp20@cam.ac.uk)
#                Space group: C2/m
#

%BLOCK LATTICE_ABC
      5.76485      5.89012      5.89012
     89.79124     89.84940     89.84940
%ENDBLOCK LATTICE_ABC

%BLOCK POSITIONS_FRAC
  Li   0.5000000  -0.2805315   0.2805315 SPIN=   0.00000
  Li  -0.5000000   0.2805315  -0.2805315 SPIN=   0.00000
  Fe  -0.3343338  -0.2182496  -0.2182496 SPIN=   4.00000
  Fe   0.3343338   0.2182496   0.2182496 SPIN=   4.00000
   O  -0.0129072  -0.5075552   0.2075062 SPIN=   0.00000
   O   0.2012366  -0.1523826   0.1276687 SPIN=   0.00000
   O   0.0129072  -0.2075062   0.5075552 SPIN=   0.00000
   O  -0.2012366  -0.1276687   0.1523826 SPIN=   0.00000
   O   0.0129072   0.5075552  -0.2075062 SPIN=   0.00000
   O  -0.2012366   0.1523826  -0.1276687 SPIN=   0.00000
   O  -0.0129072   0.2075062  -0.5075552 SPIN=   0.00000
   O   0.2012366   0.1276687  -0.1523826 SPIN=   0.00000
   S  -0.0000000   0.2546800  -0.2546800 SPIN=   0.00000
   S   0.0000000  -0.2546800   0.2546800 SPIN=   0.00000
   F   0.5000000   0.5000000   0.0000000 SPIN=   0.00000
   F  -0.5000000  -0.0000000  -0.5000000 SPIN=   0.00000
%ENDBLOCK POSITIONS_FRAC

# Note: total spin =   8.00

KPOINTS_MP_SPACING 0.07

%BLOCK SPECIES_POT
QC5
%ENDBLOCK SPECIES_POT

SNAP_TO_SYMMETRY
SYMMETRY_GENERATE

