#              Generated by Buildcell
#
# at 02:03:08 (GMT+1.0) 19th August 2020
# in /lustre/scratch/uccabz1/launch_tmp
# on node-c12h-021
# by uccabz1
#
# compiler GCC version 4.9.2
# options -cpp -iprefix /lustre/shared/ucl/apps/gcc/4.9.2/bin/../lib/gcc/x86_64-unknown-linux-gnu/4.9.2/ -mtune=corei7 -march=x86-64 -g -Og
#
# seed   -76778414 -1864358606  2138676646  1533911683  1409512684   875241363   257619947 -2118299477 -2093090222 -2010850105  -346242812 -1375395803
#
#      Author: C. J. Pickard (cjp20@cam.ac.uk)
#                Space group: Pma2
#

%BLOCK LATTICE_ABC
      3.92242      6.50760      7.83529
     90.00000     90.00000     90.00000
%ENDBLOCK LATTICE_ABC

%BLOCK POSITIONS_FRAC
  Li  -0.3514792   0.0415626  -0.2500000 SPIN=   0.00000
  Li   0.3514792   0.0415626   0.2500000 SPIN=   0.00000
  Fe   0.0000000  -0.2457506   0.0000000 SPIN=   4.00000
  Fe   0.0000000  -0.2457506  -0.5000000 SPIN=   4.00000
   O   0.2859297   0.3434837   0.3986485 SPIN=   0.00000
   O   0.2208027   0.0503479   0.5972220 SPIN=   0.00000
   O  -0.2859297   0.3434837  -0.3986485 SPIN=   0.00000
   O  -0.2208027   0.0503479  -0.5972220 SPIN=   0.00000
   O  -0.2859297   0.3434837  -0.1013515 SPIN=   0.00000
   O  -0.2208027   0.0503479   0.0972220 SPIN=   0.00000
   O   0.2859297   0.3434837   0.1013515 SPIN=   0.00000
   O   0.2208027   0.0503479  -0.0972220 SPIN=   0.00000
   S   0.0000000   0.2542764   0.0000000 SPIN=   0.00000
   S   0.0000000   0.2542764   0.5000000 SPIN=   0.00000
   F   0.2962055  -0.2710755   0.2500000 SPIN=   0.00000
   F  -0.2962055  -0.2710755  -0.2500000 SPIN=   0.00000
%ENDBLOCK POSITIONS_FRAC

# Note: total spin =   8.00

KPOINTS_MP_SPACING 0.07

%BLOCK SPECIES_POT
QC5
%ENDBLOCK SPECIES_POT

SNAP_TO_SYMMETRY
SYMMETRY_GENERATE

