#              Generated by Buildcell
#
# at 23:34:20 (GMT+1.0) 18th August 2020
# in /scratch/scratch/uccabz1/launch_tmp
# on node-k10b-015
# by uccabz1
#
# compiler GCC version 4.9.2
# options -cpp -iprefix /scratch/UCL/applications/gcc/4.9.2/bin/../lib/gcc/x86_64-unknown-linux-gnu/4.9.2/ -mtune=corei7 -march=x86-64 -g -O2
#
# seed -1443363077  1941461851  2033501406  -191429126 -1336450469  1426588640 -1234355480 -1535962831    83804398   714032868 -1516923817  1053653936
#
#      Author: C. J. Pickard (cjp20@cam.ac.uk)
#                Space group: C2
#

%BLOCK LATTICE_ABC
      4.33101      4.33101     10.66237
     89.92477     89.92477     89.80759
%ENDBLOCK LATTICE_ABC

%BLOCK POSITIONS_FRAC
  Li  -0.0158415  -0.4830623  -0.3882624 SPIN=   0.00000
  Li   0.4830623   0.0158415   0.3882624 SPIN=   0.00000
  Fe   0.0382609   0.3623266   0.2293550 SPIN=   4.00000
  Fe  -0.3623266  -0.0382609  -0.2293550 SPIN=   4.00000
   O  -0.2847299   0.0302391   0.2379158 SPIN=   0.00000
   O  -0.4329958  -0.4826985   0.1560852 SPIN=   0.00000
   O  -0.3306972  -0.0522483   0.0090719 SPIN=   0.00000
   O  -0.7992865  -0.0442125   0.1421368 SPIN=   0.00000
   S  -0.4619273  -0.1372300   0.1363025 SPIN=   0.00000
   O  -0.0302391   0.2847299  -0.2379158 SPIN=   0.00000
   O   0.4826985   0.4329958  -0.1560852 SPIN=   0.00000
   O   0.0522483   0.3306972  -0.0090719 SPIN=   0.00000
   O   0.0442125   0.7992865  -0.1421368 SPIN=   0.00000
   S   0.1372300   0.4619273  -0.1363025 SPIN=   0.00000
   F  -0.4936316  -0.0089722  -0.3894023 SPIN=   0.00000
   F   0.0089722   0.4936316   0.3894023 SPIN=   0.00000
%ENDBLOCK POSITIONS_FRAC

# Note: total spin =   8.00

KPOINTS_MP_SPACING 0.07

%BLOCK SPECIES_POT
QC5
%ENDBLOCK SPECIES_POT

SNAP_TO_SYMMETRY
SYMMETRY_GENERATE

