#              Generated by Buildcell
#
# at 03:01:10 (GMT+1.0) 4th August 2020
# in /lustre/scratch/uccabz1/launch_tmp
# on node-c12l-025
# by uccabz1
#
# compiler GCC version 4.9.2
# options -cpp -iprefix /lustre/shared/ucl/apps/gcc/4.9.2/bin/../lib/gcc/x86_64-unknown-linux-gnu/4.9.2/ -mtune=corei7 -march=x86-64 -g -Og
#
# seed  -603989773 -1867543114  -935718627 -1914636629   277331527 -1263851410  -250083079    28680685   448625212   -76048734  -852068765 -1178373588
#
#      Author: C. J. Pickard (cjp20@cam.ac.uk)
#                Space group: Cm
#

%BLOCK LATTICE_ABC
      5.00739      6.52117      6.52117
     82.59415     76.04996     76.04996
%ENDBLOCK LATTICE_ABC

%BLOCK POSITIONS_FRAC
  Li   0.4158099   0.2493006  -0.3104099 SPIN=   0.00000
  Li   0.4158099  -0.3104099   0.2493006 SPIN=   0.00000
  Fe   0.2834362   0.2624733   0.2624733 SPIN=   6.26640
  Fe  -0.2106359  -0.1029850  -0.1029850 SPIN=   1.73360
   O  -0.0284221  -0.3404922   0.3848958 SPIN=   0.00000
   O  -0.3484167  -0.0370236   0.2379242 SPIN=   0.00000
   O   0.1156285   0.0019044   0.2778718 SPIN=   0.00000
   O  -0.2634389  -0.0313120   0.5953981 SPIN=   0.00000
   S  -0.1311623  -0.1017308   0.3740225 SPIN=   0.00000
   O  -0.0284221   0.3848958  -0.3404922 SPIN=   0.00000
   O  -0.3484167   0.2379242  -0.0370236 SPIN=   0.00000
   O   0.1156285   0.2778718   0.0019044 SPIN=   0.00000
   O  -0.2634389   0.5953981  -0.0313120 SPIN=   0.00000
   S  -0.1311623   0.3740225  -0.1017308 SPIN=   0.00000
   F  -0.4838668   0.4488920   0.4488920 SPIN=   0.00000
   F   0.2421659  -0.1784978  -0.1784978 SPIN=   0.00000
%ENDBLOCK POSITIONS_FRAC

# Note: total spin =   8.00

KPOINTS_MP_SPACING 0.07

%BLOCK SPECIES_POT
QC5
%ENDBLOCK SPECIES_POT

SNAP_TO_SYMMETRY
SYMMETRY_GENERATE

