#              Generated by Buildcell
#
# at 05:24:43 (GMT+1.0) 4th August 2020
# in /lustre/scratch/uccabz1/launch_tmp
# on node-c12p-010
# by uccabz1
#
# compiler GCC version 4.9.2
# options -cpp -iprefix /lustre/shared/ucl/apps/gcc/4.9.2/bin/../lib/gcc/x86_64-unknown-linux-gnu/4.9.2/ -mtune=corei7 -march=x86-64 -g -Og
#
# seed  1901051776   690126262 -1934085085 -1418729730   667868589  -899478899   252689465  -322547541 -2124885700   971307379 -1133115969   193360840
#
#      Author: C. J. Pickard (cjp20@cam.ac.uk)
#                Space group: Cc
#

%BLOCK LATTICE_ABC
      6.40633      6.40633      6.45748
     99.86120    111.64133    117.10557
%ENDBLOCK LATTICE_ABC

%BLOCK POSITIONS_FRAC
  Li   0.1662554  -0.0321716   0.2652952 SPIN=   0.00000
  Li  -0.2025333   0.0990397  -0.2347048 SPIN=   0.00000
  Fe  -0.7597842  -0.4757550  -0.3927738 SPIN=   4.00000
  Fe   0.5829812   0.3670105   0.1072262 SPIN=   4.00000
   O  -0.4014873  -0.1134359   0.3510120 SPIN=   0.00000
   O  -0.0246186   0.1819076   0.3015016 SPIN=   0.00000
   O  -0.5020254  -0.0590118  -0.0369045 SPIN=   0.00000
   O  -0.2835878  -0.2884980   0.0733551 SPIN=   0.00000
   S  -0.3029298  -0.0697595   0.1722411 SPIN=   0.00000
   O   0.9644480   0.7524993   0.8510120 SPIN=   0.00000
   O   0.6195940   0.3261202   0.8015016 SPIN=   0.00000
   O   0.5221073   0.4651209   0.4630955 SPIN=   0.00000
   O   0.8618531   0.3569429   0.5733551 SPIN=   0.00000
   S   0.7420006   0.4751708   0.6722411 SPIN=   0.00000
   F   0.2018656   0.2198742  -0.1637093 SPIN=   0.00000
   F   0.1164165  -0.3655749  -0.6637093 SPIN=   0.00000
%ENDBLOCK POSITIONS_FRAC

# Note: total spin =   8.00

KPOINTS_MP_SPACING 0.07

%BLOCK SPECIES_POT
QC5
%ENDBLOCK SPECIES_POT

SNAP_TO_SYMMETRY
SYMMETRY_GENERATE

