#              Generated by Buildcell
#
# at 01:11:51 (GMT+1.0) 19th August 2020
# in /lustre/scratch/uccabz1/launch_tmp
# on node-c12a-025
# by uccabz1
#
# compiler GCC version 4.9.2
# options -cpp -iprefix /lustre/shared/ucl/apps/gcc/4.9.2/bin/../lib/gcc/x86_64-unknown-linux-gnu/4.9.2/ -mtune=corei7 -march=x86-64 -g -Og
#
# seed  1762471958  2118358477  1616294298  -577583196   422355634  -477985274  -974307036    23426806 -1792353962  -808453708 -1938467274 -1689663225
#
#      Author: C. J. Pickard (cjp20@cam.ac.uk)
#                Space group: Pc
#

%BLOCK LATTICE_ABC
      3.90817      6.79275      7.58280
     90.00000     96.52038     90.00000
%ENDBLOCK LATTICE_ABC

%BLOCK POSITIONS_FRAC
  Li  -0.1576773   0.2400672   0.2082714 SPIN=   0.00000
  Li   0.3423227  -0.2400672   0.2082714 SPIN=   0.00000
  Fe  -0.1935146  -0.2620061  -0.1018701 SPIN=   4.00000
  Fe   0.3064854   0.2620061  -0.1018701 SPIN=   4.00000
   O  -0.4022301  -0.3652188   0.5549750 SPIN=   0.00000
   O  -0.3032024  -0.0899468   0.3530566 SPIN=   0.00000
   O   0.0635990  -0.3874901   0.3603672 SPIN=   0.00000
   O   0.1180748  -0.1573925   0.6150683 SPIN=   0.00000
   S  -0.1309397  -0.2500121   0.4708668 SPIN=   0.00000
   O   0.0977699   0.3652188   0.5549750 SPIN=   0.00000
   O   0.1967976   0.0899468   0.3530566 SPIN=   0.00000
   O   0.5635990   0.3874901   0.3603672 SPIN=   0.00000
   O   0.6180748   0.1573925   0.6150683 SPIN=   0.00000
   S   0.3690603   0.2500121   0.4708668 SPIN=   0.00000
   F   0.3204886  -0.2311184  -0.0639956 SPIN=   0.00000
   F  -0.1795114   0.2311184  -0.0639956 SPIN=   0.00000
%ENDBLOCK POSITIONS_FRAC

# Note: total spin =   8.00

KPOINTS_MP_SPACING 0.07

%BLOCK SPECIES_POT
QC5
%ENDBLOCK SPECIES_POT

SNAP_TO_SYMMETRY
SYMMETRY_GENERATE

