#              Generated by Buildcell
#
# at 02:45:43 (GMT+1.0) 4th August 2020
# in /lustre/scratch/uccabz1/launch_tmp
# on node-c12c-001
# by uccabz1
#
# compiler GCC version 4.9.2
# options -cpp -iprefix /lustre/shared/ucl/apps/gcc/4.9.2/bin/../lib/gcc/x86_64-unknown-linux-gnu/4.9.2/ -mtune=corei7 -march=x86-64 -g -Og
#
# seed  1685382382  1773482726 -1218271401  1133482841  1801607476 -1355932628   226518990 -1201699863  -528835997 -2069019096  -382190165 -1655531625
#
#      Author: C. J. Pickard (cjp20@cam.ac.uk)
#                Space group: P21
#

%BLOCK LATTICE_ABC
      4.92480      5.86080      7.05586
     90.00000    100.87155     90.00000
%ENDBLOCK LATTICE_ABC

%BLOCK POSITIONS_FRAC
  Li  -0.3479510  -0.2707889   0.3647908 SPIN=   0.00000
  Li   0.3479510   0.2292111  -0.3647908 SPIN=   0.00000
  Fe  -0.1928421   0.4620667  -0.1211127 SPIN=   4.00000
  Fe   0.1928421  -0.0379333   0.1211127 SPIN=   4.00000
   O   0.0270889  -0.3182374  -0.4974819 SPIN=   0.00000
   O   0.2178436  -0.0417732  -0.2417226 SPIN=   0.00000
   O   0.5327502  -0.2934300  -0.3812145 SPIN=   0.00000
   O   0.2331085  -0.4554840  -0.1702100 SPIN=   0.00000
   S   0.2526978  -0.2772312  -0.3226573 SPIN=   0.00000
   O  -0.0270889   0.1817626   0.4974819 SPIN=   0.00000
   O  -0.2178436   0.4582268   0.2417226 SPIN=   0.00000
   O  -0.5327502   0.2065700   0.3812145 SPIN=   0.00000
   O  -0.2331085   0.0445160   0.1702100 SPIN=   0.00000
   S  -0.2526978   0.2227688   0.3226573 SPIN=   0.00000
   F  -0.2189377   0.1335866  -0.1752650 SPIN=   0.00000
   F   0.2189377  -0.3664134   0.1752650 SPIN=   0.00000
%ENDBLOCK POSITIONS_FRAC

# Note: total spin =   8.00

KPOINTS_MP_SPACING 0.07

%BLOCK SPECIES_POT
QC5
%ENDBLOCK SPECIES_POT

SNAP_TO_SYMMETRY
SYMMETRY_GENERATE

