#              Generated by Buildcell
#
# at 03:48:19 (GMT+1.0) 4th August 2020
# in /lustre/scratch/uccabz1/launch_tmp
# on node-c12l-030
# by uccabz1
#
# compiler GCC version 4.9.2
# options -cpp -iprefix /lustre/shared/ucl/apps/gcc/4.9.2/bin/../lib/gcc/x86_64-unknown-linux-gnu/4.9.2/ -mtune=corei7 -march=x86-64 -g -Og
#
# seed  -488445853  1527182350  1679570333  1298487234 -1936907546  -744926233  -867239916   614568983   345659974  1658735497 -1982088755  1832142694
#
#      Author: C. J. Pickard (cjp20@cam.ac.uk)
#                Space group: Cc
#

%BLOCK LATTICE_ABC
      5.91178      6.20882      6.68041
     79.74815     68.04766     61.57035
%ENDBLOCK LATTICE_ABC

%BLOCK POSITIONS_FRAC
  Li   0.0660045  -0.3886755   0.0347696 SPIN=   0.00000
  Li  -0.3226711   0.3886755  -0.4652304 SPIN=   0.00000
  Fe   0.0114725  -0.1948549   0.4478182 SPIN=   4.00000
  Fe  -0.1833824   0.1948549  -0.0521818 SPIN=   4.00000
   O   0.6347956  -0.4262637  -0.1332243 SPIN=   0.00000
   O   0.1924058  -0.0535079  -0.0320138 SPIN=   0.00000
   O   0.6246292  -0.0186955  -0.1652496 SPIN=   0.00000
   O   0.4853113  -0.1952835   0.1955555 SPIN=   0.00000
   S   0.4842855  -0.1734376  -0.0337331 SPIN=   0.00000
   O   0.2085320   0.4262637   0.3667757 SPIN=   0.00000
   O   0.1388978   0.0535079   0.4679862 SPIN=   0.00000
   O   0.6059337   0.0186955   0.3347504 SPIN=   0.00000
   O   0.2900278   0.1952835   0.6955555 SPIN=   0.00000
   S   0.3108478   0.1734376   0.4662669 SPIN=   0.00000
   F   0.1608196  -0.3298174  -0.2726590 SPIN=   0.00000
   F  -0.1689978   0.3298174   0.2273410 SPIN=   0.00000
%ENDBLOCK POSITIONS_FRAC

# Note: total spin =   8.00

KPOINTS_MP_SPACING 0.07

%BLOCK SPECIES_POT
QC5
%ENDBLOCK SPECIES_POT

SNAP_TO_SYMMETRY
SYMMETRY_GENERATE

