#              Generated by Buildcell
#
# at 23:34:21 (GMT+1.0) 18th August 2020
# in /lustre/scratch/uccabz1/launch_tmp
# on node-c12a-015
# by uccabz1
#
# compiler GCC version 4.9.2
# options -cpp -iprefix /lustre/shared/ucl/apps/gcc/4.9.2/bin/../lib/gcc/x86_64-unknown-linux-gnu/4.9.2/ -mtune=corei7 -march=x86-64 -g -Og
#
# seed  -474237323 -1790049646 -1233647958    98343135  1906789779 -1624115363   438848400   982351372  2055111669 -1244139684   414863854 -1001109328
#
#      Author: C. J. Pickard (cjp20@cam.ac.uk)
#                Space group: P42
#

%BLOCK LATTICE_ABC
      4.24868      4.24868     11.07957
     90.00000     90.00000     90.00000
%ENDBLOCK LATTICE_ABC

%BLOCK POSITIONS_FRAC
  Li   0.0000000   0.0000000  -0.0030600 SPIN=   0.00000
  Li  -0.0000000   0.0000000   0.4969400 SPIN=   0.00000
  Fe  -0.0000000  -0.5000000  -0.2979863 SPIN=   4.00000
  Fe   0.5000000   0.0000000   0.2020137 SPIN=   4.00000
   O   0.5894178   0.2504517   0.0288845 SPIN=   0.00000
   O   0.1841818   0.3067435  -0.1301175 SPIN=   0.00000
   O  -0.5894178  -0.2504517   0.0288845 SPIN=   0.00000
   O  -0.1841818  -0.3067435  -0.1301175 SPIN=   0.00000
   O   0.2504517  -0.5894178   0.5288845 SPIN=   0.00000
   O   0.3067435  -0.1841818   0.3698825 SPIN=   0.00000
   O  -0.2504517   0.5894178   0.5288845 SPIN=   0.00000
   O  -0.3067435   0.1841818   0.3698825 SPIN=   0.00000
   S   0.5000000  -0.5000000  -0.0631205 SPIN=   0.00000
   S   0.5000000   0.5000000   0.4368795 SPIN=   0.00000
   F   0.0000000   0.5000000   0.1868709 SPIN=   0.00000
   F  -0.5000000  -0.0000000  -0.3131291 SPIN=   0.00000
%ENDBLOCK POSITIONS_FRAC

# Note: total spin =   8.00

KPOINTS_MP_SPACING 0.07

%BLOCK SPECIES_POT
QC5
%ENDBLOCK SPECIES_POT

SNAP_TO_SYMMETRY
SYMMETRY_GENERATE

