#              Generated by Buildcell
#
# at 01:35:26 (GMT+1.0) 19th August 2020
# in /lustre/scratch/uccabz1/launch_tmp
# on node-c12c-029
# by uccabz1
#
# compiler GCC version 4.9.2
# options -cpp -iprefix /lustre/shared/ucl/apps/gcc/4.9.2/bin/../lib/gcc/x86_64-unknown-linux-gnu/4.9.2/ -mtune=corei7 -march=x86-64 -g -Og
#
# seed -2030498573  1295736127 -1106313043   939457607  -492420540 -1583136294   -79683374  1487206722  -596595000  -802868316 -1503431160 -1723158491
#
#      Author: C. J. Pickard (cjp20@cam.ac.uk)
#                Space group: P2
#

%BLOCK LATTICE_ABC
      4.08981      6.03332      8.13237
     90.00000     94.67451     90.00000
%ENDBLOCK LATTICE_ABC

%BLOCK POSITIONS_FRAC
  Li   0.0000000   0.1725333  -0.5000000 SPIN=   0.00000
  Li   0.0000000  -0.0837630   0.0000000 SPIN=   0.00000
  Fe  -0.0000000   0.4162370  -0.0000000 SPIN=   7.55691
  Fe  -0.0000000  -0.3276032   0.5000000 SPIN=   0.44309
   O  -0.7127527  -0.0975588  -0.3485135 SPIN=   0.00000
   O  -0.6720409   0.2917922  -0.2532548 SPIN=   0.00000
   O  -0.1679089   0.0719625  -0.2791111 SPIN=   0.00000
   S  -0.5203900   0.0630521  -0.2346328 SPIN=   0.00000
   O   0.7127527  -0.0975588   0.3485135 SPIN=   0.00000
   O   0.6720409   0.2917922   0.2532548 SPIN=   0.00000
   O   0.1679089   0.0719625   0.2791111 SPIN=   0.00000
   S   0.5203900   0.0630521   0.2346328 SPIN=   0.00000
   O  -0.5000000   0.1657560  -0.5000000 SPIN=   0.00000
   O  -0.5000000   0.0990904   0.0000000 SPIN=   0.00000
   F   0.5000000  -0.4216014   0.5000000 SPIN=   0.00000
   F  -0.5000000  -0.4401268  -0.0000000 SPIN=   0.00000
%ENDBLOCK POSITIONS_FRAC

# Note: total spin =   8.00

KPOINTS_MP_SPACING 0.07

%BLOCK SPECIES_POT
QC5
%ENDBLOCK SPECIES_POT

SNAP_TO_SYMMETRY
SYMMETRY_GENERATE

