#              Generated by Buildcell
#
# at 05:03:05 (GMT+1.0) 4th August 2020
# in /lustre/scratch/uccabz1/launch_tmp
# on node-c12n-036
# by uccabz1
#
# compiler GCC version 4.9.2
# options -cpp -iprefix /lustre/shared/ucl/apps/gcc/4.9.2/bin/../lib/gcc/x86_64-unknown-linux-gnu/4.9.2/ -mtune=corei7 -march=x86-64 -g -Og
#
# seed   310953019  -462099642  -805103650  -139352916  -958300240 -2070914600   608142214 -1685403174   796244415    48210314  -971542134   407057333
#
#      Author: C. J. Pickard (cjp20@cam.ac.uk)
#                Space group: Cc
#

%BLOCK LATTICE_ABC
      4.36472      4.36472     11.07363
     84.66690     84.66690     72.63336
%ENDBLOCK LATTICE_ABC

%BLOCK POSITIONS_FRAC
  Li   0.3914122   0.1639746   0.2764229 SPIN=   0.00000
  Li   0.1639746   0.3914122  -0.2235771 SPIN=   0.00000
  Fe   0.3433978   0.1114625   0.0181050 SPIN=   4.00000
  Fe   0.1114625   0.3433978  -0.4818950 SPIN=   4.00000
   O  -0.1221160  -0.1598370  -0.2820137 SPIN=   0.00000
   O  -0.3588432  -0.5333073  -0.3686255 SPIN=   0.00000
   O  -0.6899794   0.0245403  -0.3348779 SPIN=   0.00000
   O  -0.5298013  -0.3678110  -0.1591951 SPIN=   0.00000
   S  -0.4251850  -0.2591037  -0.2861781 SPIN=   0.00000
   O  -0.1598370  -0.1221160   0.2179863 SPIN=   0.00000
   O  -0.5333073  -0.3588432   0.1313745 SPIN=   0.00000
   O   0.0245403  -0.6899794   0.1651221 SPIN=   0.00000
   O  -0.3678110  -0.5298013   0.3408049 SPIN=   0.00000
   S  -0.2591037  -0.4251850   0.2138219 SPIN=   0.00000
   F   0.0841264  -0.0780576   0.4452151 SPIN=   0.00000
   F  -0.0780576   0.0841264  -0.0547849 SPIN=   0.00000
%ENDBLOCK POSITIONS_FRAC

# Note: total spin =   8.00

KPOINTS_MP_SPACING 0.07

%BLOCK SPECIES_POT
QC5
%ENDBLOCK SPECIES_POT

SNAP_TO_SYMMETRY
SYMMETRY_GENERATE

