#              Generated by Buildcell
#
# at 02:38:41 (GMT+1.0) 4th August 2020
# in /lustre/scratch/uccabz1/launch_tmp
# on node-c12f-032
# by uccabz1
#
# compiler GCC version 4.9.2
# options -cpp -iprefix /lustre/shared/ucl/apps/gcc/4.9.2/bin/../lib/gcc/x86_64-unknown-linux-gnu/4.9.2/ -mtune=corei7 -march=x86-64 -g -Og
#
# seed -2091862104  -972745102   955428606   -86128504   333409035 -1928376905  -411824494  -347009255    33274883 -1999958709 -1159861446  -189920759
#
#      Author: C. J. Pickard (cjp20@cam.ac.uk)
#                Space group: P21
#

%BLOCK LATTICE_ABC
      4.54314      5.24030      8.63262
    103.30975     90.00000     90.00000
%ENDBLOCK LATTICE_ABC

%BLOCK POSITIONS_FRAC
  Li   0.2483919  -0.2795087  -0.0784621 SPIN=   0.00000
  Li  -0.2516081   0.2795087   0.0784621 SPIN=   0.00000
  Fe   0.2237459   0.3018353   0.3437101 SPIN=   4.00000
  Fe  -0.2762541  -0.3018353  -0.3437101 SPIN=   4.00000
   O  -0.0725974   0.0533684  -0.2798207 SPIN=   0.00000
   O   0.3639878  -0.0521267  -0.4542980 SPIN=   0.00000
   O   0.4251672   0.1757150  -0.1713827 SPIN=   0.00000
   O   0.2022820   0.4087681  -0.3612501 SPIN=   0.00000
   S   0.2297099   0.1464312  -0.3166879 SPIN=   0.00000
   O  -0.5725974  -0.0533684   0.2798207 SPIN=   0.00000
   O  -0.1360122   0.0521267   0.4542980 SPIN=   0.00000
   O  -0.0748328  -0.1757150   0.1713827 SPIN=   0.00000
   O  -0.2977180  -0.4087681   0.3612501 SPIN=   0.00000
   S  -0.2702901  -0.1464312   0.3166879 SPIN=   0.00000
   F   0.2703298   0.3450021   0.1239780 SPIN=   0.00000
   F  -0.2296702  -0.3450021  -0.1239780 SPIN=   0.00000
%ENDBLOCK POSITIONS_FRAC

# Note: total spin =   8.00

KPOINTS_MP_SPACING 0.07

%BLOCK SPECIES_POT
QC5
%ENDBLOCK SPECIES_POT

SNAP_TO_SYMMETRY
SYMMETRY_GENERATE

