#              Generated by Buildcell
#
# at 21:12:53 (GMT+1.0) 18th August 2020
# in /lustre/scratch/uccabz1/launch_tmp
# on node-c12c-010
# by uccabz1
#
# compiler GCC version 4.9.2
# options -cpp -iprefix /lustre/shared/ucl/apps/gcc/4.9.2/bin/../lib/gcc/x86_64-unknown-linux-gnu/4.9.2/ -mtune=corei7 -march=x86-64 -g -Og
#
# seed -2048490377  -752567461 -1979189490  1014402001 -1318664380  1889510673   903336751 -1406268536   898566685 -1285596809 -1713264981   -90727419
#
#      Author: C. J. Pickard (cjp20@cam.ac.uk)
#                Space group: Pc
#

%BLOCK LATTICE_ABC
      4.28450      4.74924      9.88845
     90.00000     96.29010     90.00000
%ENDBLOCK LATTICE_ABC

%BLOCK POSITIONS_FRAC
  Li  -0.2827865  -0.1097021  -0.3191697 SPIN=   0.00000
  Li  -0.2827865   0.1097021   0.1808303 SPIN=   0.00000
  Fe   0.2410108  -0.1195688   0.4121473 SPIN=   4.00000
  Fe   0.2410108   0.1195688  -0.0878527 SPIN=   4.00000
   O   0.6721110  -0.3204086   0.2421030 SPIN=   0.00000
   O   0.2331016  -0.1246950   0.0868878 SPIN=   0.00000
   O   0.1860492  -0.5982198   0.1871573 SPIN=   0.00000
   O   0.5467820  -0.5211391   0.0115829 SPIN=   0.00000
   S   0.4095109  -0.3911156   0.1319328 SPIN=   0.00000
   O   0.6721110   0.3204086  -0.2578970 SPIN=   0.00000
   O   0.2331016   0.1246950  -0.4131122 SPIN=   0.00000
   O   0.1860492   0.5982198  -0.3128427 SPIN=   0.00000
   O   0.5467820   0.5211391  -0.4884171 SPIN=   0.00000
   S   0.4095109   0.3911156  -0.3680672 SPIN=   0.00000
   F  -0.1537642   0.1350251   0.3643529 SPIN=   0.00000
   F  -0.1537642  -0.1350251  -0.1356471 SPIN=   0.00000
%ENDBLOCK POSITIONS_FRAC

# Note: total spin =   8.00

KPOINTS_MP_SPACING 0.07

%BLOCK SPECIES_POT
QC5
%ENDBLOCK SPECIES_POT

SNAP_TO_SYMMETRY
SYMMETRY_GENERATE

