#              Generated by Buildcell
#
# at 05:28:28 (GMT+1.0) 4th August 2020
# in /lustre/scratch/uccabz1/launch_tmp
# on node-c12f-004
# by uccabz1
#
# compiler GCC version 4.9.2
# options -cpp -iprefix /lustre/shared/ucl/apps/gcc/4.9.2/bin/../lib/gcc/x86_64-unknown-linux-gnu/4.9.2/ -mtune=corei7 -march=x86-64 -g -Og
#
# seed -1672635262  -237376375   815638313   531664867   -79569788  -592382872 -1363436711    96082909  2076559884  -834322899   943622572  1284367781
#
#      Author: C. J. Pickard (cjp20@cam.ac.uk)
#                Space group: P21
#

%BLOCK LATTICE_ABC
      4.43464      6.28096      7.18139
     90.00000     90.00000     90.97506
%ENDBLOCK LATTICE_ABC

%BLOCK POSITIONS_FRAC
  Li   0.1421832  -0.3833196   0.3219248 SPIN=   0.00000
  Li  -0.1421832   0.3833196  -0.1780752 SPIN=   0.00000
  Fe   0.1099902   0.1102287   0.1559810 SPIN=   4.00000
  Fe  -0.1099902  -0.1102287  -0.3440190 SPIN=   4.00000
   O   0.4738481  -0.3237612   0.1469320 SPIN=   0.00000
   O   0.2526488  -0.6145829  -0.0443580 SPIN=   0.00000
   O   0.6197642  -0.3600006  -0.1840426 SPIN=   0.00000
   O   0.1073073  -0.2415844  -0.1016909 SPIN=   0.00000
   S   0.3633921  -0.3849823  -0.0457899 SPIN=   0.00000
   O  -0.4738481   0.3237612   0.6469320 SPIN=   0.00000
   O  -0.2526488   0.6145829   0.4556420 SPIN=   0.00000
   O  -0.6197642   0.3600006   0.3159574 SPIN=   0.00000
   O  -0.1073073   0.2415844   0.3983091 SPIN=   0.00000
   S  -0.3633921   0.3849823   0.4542101 SPIN=   0.00000
   F   0.1879951  -0.1023329   0.4206172 SPIN=   0.00000
   F  -0.1879951   0.1023329  -0.0793828 SPIN=   0.00000
%ENDBLOCK POSITIONS_FRAC

# Note: total spin =   8.00

KPOINTS_MP_SPACING 0.07

%BLOCK SPECIES_POT
QC5
%ENDBLOCK SPECIES_POT

SNAP_TO_SYMMETRY
SYMMETRY_GENERATE

