#              Generated by Buildcell
#
# at 23:45:15 (GMT+1.0) 18th August 2020
# in /lustre/scratch/uccabz1/launch_tmp
# on node-c12e-006
# by uccabz1
#
# compiler GCC version 4.9.2
# options -cpp -iprefix /lustre/shared/ucl/apps/gcc/4.9.2/bin/../lib/gcc/x86_64-unknown-linux-gnu/4.9.2/ -mtune=corei7 -march=x86-64 -g -Og
#
# seed   289414367  -620060747  1946301096  -503513787 -1563928349   494562637  1659803940  -410067799 -1808323930  1730678084 -1536321872  1637323165
#
#      Author: C. J. Pickard (cjp20@cam.ac.uk)
#                Space group: Cc
#

%BLOCK LATTICE_ABC
      4.42951      4.42951     11.36191
     79.76879     79.76879     66.65573
%ENDBLOCK LATTICE_ABC

%BLOCK POSITIONS_FRAC
  Li  -0.4636631  -0.0469204  -0.1636611 SPIN=   0.00000
  Li  -0.0469204  -0.4636631   0.3363389 SPIN=   0.00000
  Fe  -0.1424102   0.2743292  -0.0471783 SPIN=   4.00000
  Fe   0.2743292  -0.1424102   0.4528217 SPIN=   4.00000
   O   0.5781241  -0.3346103  -0.2974013 SPIN=   0.00000
   O  -0.0276375  -0.0263879  -0.2645527 SPIN=   0.00000
   O   0.2344842  -0.5504525  -0.1362482 SPIN=   0.00000
   O   0.1960911  -0.5595800  -0.3501633 SPIN=   0.00000
   S   0.2452655  -0.3677577  -0.2620914 SPIN=   0.00000
   O  -0.3346103   0.5781241   0.2025987 SPIN=   0.00000
   O  -0.0263879  -0.0276375   0.2354473 SPIN=   0.00000
   O  -0.5504525   0.2344842   0.3637518 SPIN=   0.00000
   O  -0.5595800   0.1960911   0.1498367 SPIN=   0.00000
   S  -0.3677577   0.2452655   0.2379086 SPIN=   0.00000
   F   0.2774512  -0.1096951   0.0112088 SPIN=   0.00000
   F  -0.1096951   0.2774512  -0.4887912 SPIN=   0.00000
%ENDBLOCK POSITIONS_FRAC

# Note: total spin =   8.00

KPOINTS_MP_SPACING 0.07

%BLOCK SPECIES_POT
QC5
%ENDBLOCK SPECIES_POT

SNAP_TO_SYMMETRY
SYMMETRY_GENERATE

