#              Generated by Buildcell
#
# at 19:10:49 (GMT+1.0) 18th August 2020
# in /lustre/scratch/uccabz1/launch_tmp
# on node-c12f-006
# by uccabz1
#
# compiler GCC version 4.9.2
# options -cpp -iprefix /lustre/shared/ucl/apps/gcc/4.9.2/bin/../lib/gcc/x86_64-unknown-linux-gnu/4.9.2/ -mtune=corei7 -march=x86-64 -g -Og
#
# seed  1795607862   638386689  1401447908  -854190800  -708222214 -2125107630  1325506833  -609043590   967897209  -992782894   148501441  1850435613
#
#      Author: C. J. Pickard (cjp20@cam.ac.uk)
#                Space group: P21
#

%BLOCK LATTICE_ABC
      4.25285      6.55293      7.39188
     90.00000     90.00000    103.86438
%ENDBLOCK LATTICE_ABC

%BLOCK POSITIONS_FRAC
  Li   0.1371146  -0.4665695   0.0721437 SPIN=   0.00000
  Li  -0.1371146   0.4665695  -0.4278563 SPIN=   0.00000
  Fe  -0.3443708  -0.1990730  -0.1663847 SPIN=   4.00000
  Fe   0.3443708   0.1990730   0.3336153 SPIN=   4.00000
   O   0.2429957   0.0816203  -0.0318970 SPIN=   0.00000
   O   0.2799685   0.2087800  -0.3482618 SPIN=   0.00000
   O   0.7786637   0.2006822  -0.1787452 SPIN=   0.00000
   O   0.4629997   0.4592765  -0.0974588 SPIN=   0.00000
   S   0.4411569   0.2375897  -0.1640907 SPIN=   0.00000
   O  -0.2429957  -0.0816203   0.4681030 SPIN=   0.00000
   O  -0.2799685  -0.2087800   0.1517382 SPIN=   0.00000
   O  -0.7786637  -0.2006822   0.3212548 SPIN=   0.00000
   O  -0.4629997  -0.4592765   0.4025412 SPIN=   0.00000
   S  -0.4411569  -0.2375897   0.3359093 SPIN=   0.00000
   F   0.0686228  -0.2997679  -0.2723983 SPIN=   0.00000
   F  -0.0686228   0.2997679   0.2276017 SPIN=   0.00000
%ENDBLOCK POSITIONS_FRAC

# Note: total spin =   8.00

KPOINTS_MP_SPACING 0.07

%BLOCK SPECIES_POT
QC5
%ENDBLOCK SPECIES_POT

SNAP_TO_SYMMETRY
SYMMETRY_GENERATE

