#              Generated by Buildcell
#
# at 04:51:11 (GMT+1.0) 4th August 2020
# in /lustre/scratch/uccabz1/launch_tmp
# on node-c12c-022
# by uccabz1
#
# compiler GCC version 4.9.2
# options -cpp -iprefix /lustre/shared/ucl/apps/gcc/4.9.2/bin/../lib/gcc/x86_64-unknown-linux-gnu/4.9.2/ -mtune=corei7 -march=x86-64 -g -Og
#
# seed   441551923  -400135558  -258496802  -957855659 -1613783319  1232510929   324882730 -1517617991  -883176620  1296632959  1578576093  1651120104
#
#      Author: C. J. Pickard (cjp20@cam.ac.uk)
#                Space group: P2
#

%BLOCK LATTICE_ABC
      5.26101      5.72795      7.19485
    112.71425     90.00000     90.00000
%ENDBLOCK LATTICE_ABC

%BLOCK POSITIONS_FRAC
  Li  -0.1693459   0.1736217   0.2895107 SPIN=   0.00000
  Li  -0.1693459  -0.1736217  -0.2895107 SPIN=   0.00000
  Fe   0.2641712  -0.0000000  -0.5000000 SPIN=   5.44891
  Fe  -0.2137033  -0.5000000  -1.0000000 SPIN=   2.55109
   O   0.2771015   0.2987246  -0.0149962 SPIN=   0.00000
   O   0.5526969   0.4215496   0.2865313 SPIN=   0.00000
   O   0.2154619   0.1007047   0.2325824 SPIN=   0.00000
   O   0.1003526   0.5500289   0.3221771 SPIN=   0.00000
   S   0.2864032   0.3427520   0.2065736 SPIN=   0.00000
   O   0.2771015  -0.2987246   0.0149962 SPIN=   0.00000
   O   0.5526969  -0.4215496  -0.2865313 SPIN=   0.00000
   O   0.2154619  -0.1007047  -0.2325824 SPIN=   0.00000
   O   0.1003526  -0.5500289  -0.3221771 SPIN=   0.00000
   S   0.2864032  -0.3427520  -0.2065736 SPIN=   0.00000
   F  -0.2554710   0.1797133  -0.2103462 SPIN=   0.00000
   F  -0.2554710  -0.1797133   0.2103462 SPIN=   0.00000
%ENDBLOCK POSITIONS_FRAC

# Note: total spin =   8.00

KPOINTS_MP_SPACING 0.07

%BLOCK SPECIES_POT
QC5
%ENDBLOCK SPECIES_POT

SNAP_TO_SYMMETRY
SYMMETRY_GENERATE

