#              Generated by Buildcell
#
# at 23:52:29 (GMT+1.0) 18th August 2020
# in /lustre/scratch/uccabz1/launch_tmp
# on node-c12n-031
# by uccabz1
#
# compiler GCC version 4.9.2
# options -cpp -iprefix /lustre/shared/ucl/apps/gcc/4.9.2/bin/../lib/gcc/x86_64-unknown-linux-gnu/4.9.2/ -mtune=corei7 -march=x86-64 -g -Og
#
# seed   136931587  1377891057  1979407520   525526747   487977195  -132859809   454650316  -276790781 -1116006022 -1323568976  1051621574 -1931756503
#
#      Author: C. J. Pickard (cjp20@cam.ac.uk)
#                Space group: Cc
#

%BLOCK LATTICE_ABC
      5.83338      6.17320      7.09488
    113.88781     90.00000    118.19513
%ENDBLOCK LATTICE_ABC

%BLOCK POSITIONS_FRAC
  Li  -0.1473839  -0.0583570   0.3622142 SPIN=   0.00000
  Li   0.0890269  -0.0583570  -0.1377858 SPIN=   0.00000
  Fe   0.3843533   0.4289767   0.3104665 SPIN=   4.00000
  Fe   0.0446234  -0.5710233  -0.1895335 SPIN=   4.00000
   O   0.2487583  -1.1173903  -0.3742106 SPIN=   0.00000
   O   0.2317599  -0.8313355  -0.5311167 SPIN=   0.00000
   O   0.6497881  -0.8306944  -0.4698199 SPIN=   0.00000
   O   0.4969392  -0.6071626  -0.1648652 SPIN=   0.00000
   S   0.4068114  -0.8466457  -0.3850031 SPIN=   0.00000
   O  -0.3661486  -0.1173903   0.1257894 SPIN=   0.00000
   O  -0.0630954   0.1686645  -0.0311167 SPIN=   0.00000
   O  -0.4804825   0.1693056   0.0301801 SPIN=   0.00000
   O  -0.1041018   0.3928374   0.3351348 SPIN=   0.00000
   S  -0.2534571   0.1533543   0.1149969 SPIN=   0.00000
   F  -0.2996465  -0.2595572  -0.4794860 SPIN=   0.00000
   F   0.0400893  -0.2595572   0.0205140 SPIN=   0.00000
%ENDBLOCK POSITIONS_FRAC

# Note: total spin =   8.00

KPOINTS_MP_SPACING 0.07

%BLOCK SPECIES_POT
QC5
%ENDBLOCK SPECIES_POT

SNAP_TO_SYMMETRY
SYMMETRY_GENERATE

