#              Generated by Buildcell
#
# at 05:04:05 (GMT+1.0) 4th August 2020
# in /lustre/scratch/uccabz1/launch_tmp
# on node-c12f-031
# by uccabz1
#
# compiler GCC version 4.9.2
# options -cpp -iprefix /lustre/shared/ucl/apps/gcc/4.9.2/bin/../lib/gcc/x86_64-unknown-linux-gnu/4.9.2/ -mtune=corei7 -march=x86-64 -g -Og
#
# seed   409479739   228337310  1603667970  1168164442  -533964152 -1057339892  1210369305   420035713  1174462028  2015856230  -158896916  1512399477
#
#      Author: C. J. Pickard (cjp20@cam.ac.uk)
#                Space group: P2
#

%BLOCK LATTICE_ABC
      5.25390      6.05980      6.45731
    103.38582     90.00000     90.00000
%ENDBLOCK LATTICE_ABC

%BLOCK POSITIONS_FRAC
  Li   0.2536742   0.2963469   0.1805502 SPIN=   0.00000
  Li   0.2536742  -0.2963469  -0.1805502 SPIN=   0.00000
  Fe  -0.0531652  -0.2851198   0.2464165 SPIN=   4.00000
  Fe  -0.0531652   0.2851198  -0.2464165 SPIN=   4.00000
   O  -0.2089778  -0.3544676  -0.1049077 SPIN=   0.00000
   O  -0.0087641  -0.2360368  -0.4088243 SPIN=   0.00000
   O  -0.2985793   0.0258754  -0.1672180 SPIN=   0.00000
   O  -0.4707948  -0.3165844  -0.4134081 SPIN=   0.00000
   S  -0.2467790  -0.2203033  -0.2735895 SPIN=   0.00000
   O  -0.2089778   0.3544676   0.1049077 SPIN=   0.00000
   O  -0.0087641   0.2360368   0.4088243 SPIN=   0.00000
   O  -0.2985793  -0.0258754   0.1672180 SPIN=   0.00000
   O  -0.4707948   0.3165844   0.4134081 SPIN=   0.00000
   S  -0.2467790   0.2203033   0.2735895 SPIN=   0.00000
   F   0.2876227  -0.2535055   0.2513467 SPIN=   0.00000
   F   0.2876227   0.2535055  -0.2513467 SPIN=   0.00000
%ENDBLOCK POSITIONS_FRAC

# Note: total spin =   8.00

KPOINTS_MP_SPACING 0.07

%BLOCK SPECIES_POT
QC5
%ENDBLOCK SPECIES_POT

SNAP_TO_SYMMETRY
SYMMETRY_GENERATE

