#              Generated by Buildcell
#
# at 23:59:28 (GMT+1.0) 18th August 2020
# in /lustre/scratch/uccabz1/launch_tmp
# on node-c12a-015
# by uccabz1
#
# compiler GCC version 4.9.2
# options -cpp -iprefix /lustre/shared/ucl/apps/gcc/4.9.2/bin/../lib/gcc/x86_64-unknown-linux-gnu/4.9.2/ -mtune=corei7 -march=x86-64 -g -Og
#
# seed  1133696263 -1015210270 -1285697743  1474946151   -42625405   257343927 -1546310917   226175903  1709178338  -474848583  1506019783   352870623
#
#      Author: C. J. Pickard (cjp20@cam.ac.uk)
#                Space group: P2
#

%BLOCK LATTICE_ABC
      4.85850      5.71115      7.20890
     90.98995     90.00000     90.00000
%ENDBLOCK LATTICE_ABC

%BLOCK POSITIONS_FRAC
  Li   0.3685040  -0.1496808   0.2317171 SPIN=   0.00000
  Li   0.3685040   0.1496808  -0.2317171 SPIN=   0.00000
  Fe  -0.1051292   0.0000000  -0.0000000 SPIN=   3.87964
  Fe  -0.1972803   0.0000000   0.5000000 SPIN=   4.12036
   O   0.6419699  -0.2897091  -0.1781539 SPIN=   0.00000
   O   0.1528192  -0.3143870  -0.0846964 SPIN=   0.00000
   O   0.3243297  -0.5541472  -0.3495699 SPIN=   0.00000
   O   0.2796168  -0.1246839  -0.3787099 SPIN=   0.00000
   S   0.3496839  -0.3207318  -0.2477825 SPIN=   0.00000
   O   0.6419699   0.2897091   0.1781539 SPIN=   0.00000
   O   0.1528192   0.3143870   0.0846964 SPIN=   0.00000
   O   0.3243297   0.5541472   0.3495699 SPIN=   0.00000
   O   0.2796168   0.1246839   0.3787099 SPIN=   0.00000
   S   0.3496839   0.3207318   0.2477825 SPIN=   0.00000
   F  -0.1546596  -0.1793340   0.2434340 SPIN=   0.00000
   F  -0.1546596   0.1793340  -0.2434340 SPIN=   0.00000
%ENDBLOCK POSITIONS_FRAC

# Note: total spin =   8.00

KPOINTS_MP_SPACING 0.07

%BLOCK SPECIES_POT
QC5
%ENDBLOCK SPECIES_POT

SNAP_TO_SYMMETRY
SYMMETRY_GENERATE

