#              Generated by Buildcell
#
# at 02:21:22 (GMT+1.0) 4th August 2020
# in /lustre/scratch/uccabz1/launch_tmp
# on node-c12h-012
# by uccabz1
#
# compiler GCC version 4.9.2
# options -cpp -iprefix /lustre/shared/ucl/apps/gcc/4.9.2/bin/../lib/gcc/x86_64-unknown-linux-gnu/4.9.2/ -mtune=corei7 -march=x86-64 -g -Og
#
# seed   639081669  1447202175 -1984196372   869273140   609715495 -1904285409  1904003581  -524478852   376837217   254504495 -1189828616   185799935
#
#      Author: C. J. Pickard (cjp20@cam.ac.uk)
#                Space group: P-1
#

%BLOCK LATTICE_ABC
      4.04597      6.66598      7.63747
    103.54568     91.22952     92.25854
%ENDBLOCK LATTICE_ABC

%BLOCK POSITIONS_FRAC
  Li   0.1991258   0.0094197   0.2531947 SPIN=   0.00000
  Li  -0.1991258  -0.0094197  -0.2531947 SPIN=   0.00000
  Fe  -0.3656220   0.2763602   0.0863240 SPIN=   4.00000
  Fe   0.3656220  -0.2763602  -0.0863240 SPIN=   4.00000
   O   0.2175411   0.3647893  -0.1597985 SPIN=   0.00000
   O   0.2022089   0.0271021  -0.3808244 SPIN=   0.00000
   O   0.7051357   0.2586173  -0.3435030 SPIN=   0.00000
   O   0.1963752   0.3506959  -0.4865680 SPIN=   0.00000
   S   0.3303152   0.2503011  -0.3426735 SPIN=   0.00000
   O  -0.2175411  -0.3647893   0.1597985 SPIN=   0.00000
   O  -0.2022089  -0.0271021   0.3808244 SPIN=   0.00000
   O  -0.7051357  -0.2586173   0.3435030 SPIN=   0.00000
   O  -0.1963752  -0.3506959   0.4865680 SPIN=   0.00000
   S  -0.3303152  -0.2503011   0.3426735 SPIN=   0.00000
   F  -0.0854652  -0.2870500  -0.1589563 SPIN=   0.00000
   F   0.0854652   0.2870500   0.1589563 SPIN=   0.00000
%ENDBLOCK POSITIONS_FRAC

# Note: total spin =   8.00

KPOINTS_MP_SPACING 0.07

%BLOCK SPECIES_POT
QC5
%ENDBLOCK SPECIES_POT

SNAP_TO_SYMMETRY
SYMMETRY_GENERATE

