#              Generated by Buildcell
#
# at 18:11:56 (GMT+1.0) 18th August 2020
# in /lustre/scratch/uccabz1/launch_tmp
# on node-c12a-022
# by uccabz1
#
# compiler GCC version 4.9.2
# options -cpp -iprefix /lustre/shared/ucl/apps/gcc/4.9.2/bin/../lib/gcc/x86_64-unknown-linux-gnu/4.9.2/ -mtune=corei7 -march=x86-64 -g -Og
#
# seed  1659175413  1292488327  -330315093  -913078397   675383550   619562352 -1346360686 -1821993807 -1523825437 -1290098637  1161039514  1220158796
#
#      Author: C. J. Pickard (cjp20@cam.ac.uk)
#                Space group: Pba2
#

%BLOCK LATTICE_ABC
      4.85148      6.17921      6.67148
     90.00000     90.00000     90.00000
%ENDBLOCK LATTICE_ABC

%BLOCK POSITIONS_FRAC
  Li  -0.0000000   0.0000000   0.2208832 SPIN=   0.00000
  Li   0.5000000  -0.5000000   0.2208832 SPIN=   0.00000
  Fe   0.5000000   0.0000000  -0.4708645 SPIN=   4.00000
  Fe  -0.0000000  -0.5000000  -0.4708645 SPIN=   4.00000
   O  -0.3932692  -0.1639089   0.2350901 SPIN=   0.00000
   O  -0.3368214  -0.1971581  -0.1323063 SPIN=   0.00000
   O   0.3932692   0.1639089   0.2350901 SPIN=   0.00000
   O   0.3368214   0.1971581  -0.1323063 SPIN=   0.00000
   O   0.1067308  -0.3360911   0.2350901 SPIN=   0.00000
   O   0.1631786  -0.3028419  -0.1323063 SPIN=   0.00000
   O  -0.1067308   0.3360911   0.2350901 SPIN=   0.00000
   O  -0.1631786   0.3028419  -0.1323063 SPIN=   0.00000
   S   0.5000000   0.0000000   0.0291355 SPIN=   0.00000
   S  -0.0000000  -0.5000000   0.0291355 SPIN=   0.00000
   F  -0.0000000   0.0000000  -0.4597203 SPIN=   0.00000
   F   0.5000000  -0.5000000  -0.4597203 SPIN=   0.00000
%ENDBLOCK POSITIONS_FRAC

# Note: total spin =   8.00

KPOINTS_MP_SPACING 0.07

%BLOCK SPECIES_POT
QC5
%ENDBLOCK SPECIES_POT

SNAP_TO_SYMMETRY
SYMMETRY_GENERATE

