#              Generated by Buildcell
#
# at 22:03:43 (GMT+1.0) 18th August 2020
# in /lustre/scratch/uccabz1/launch_tmp
# on node-c12g-028
# by uccabz1
#
# compiler GCC version 4.9.2
# options -cpp -iprefix /lustre/shared/ucl/apps/gcc/4.9.2/bin/../lib/gcc/x86_64-unknown-linux-gnu/4.9.2/ -mtune=corei7 -march=x86-64 -g -Og
#
# seed   409729291   166077501    70815889   905055117 -1382505379  -946400360 -1419271594   952894658  -635868682  1974945278 -1125020309  2087260293
#
#      Author: C. J. Pickard (cjp20@cam.ac.uk)
#                Space group: P-1
#

%BLOCK LATTICE_ABC
      4.11412      6.54809      8.06497
     68.81261     83.91492     81.43399
%ENDBLOCK LATTICE_ABC

%BLOCK POSITIONS_FRAC
  Li   0.0348719   0.1681801  -0.2962867 SPIN=   0.00000
  Li  -0.0348719  -0.1681801   0.2962867 SPIN=   0.00000
  Fe   0.5000000  -0.5000000  -0.5000000 SPIN=   1.24329
  Fe  -0.5000000  -0.0000000  -0.0000000 SPIN=   6.75671
   O   0.1806776  -0.3681230  -0.0579712 SPIN=   0.00000
   O   0.2109061  -0.2196766  -0.3875814 SPIN=   0.00000
   O   0.5798401  -0.5524314  -0.2265837 SPIN=   0.00000
   O   0.6640995  -0.1876691  -0.2229726 SPIN=   0.00000
   O  -0.1806776   0.3681230   0.0579712 SPIN=   0.00000
   O  -0.2109061   0.2196766   0.3875814 SPIN=   0.00000
   O  -0.5798401   0.5524314   0.2265837 SPIN=   0.00000
   O  -0.6640995   0.1876691   0.2229726 SPIN=   0.00000
   S  -0.5000000   0.5000000  -0.0000000 SPIN=   0.00000
   S  -0.5000000  -0.0000000   0.5000000 SPIN=   0.00000
   F   0.0000000  -0.5000000   0.5000000 SPIN=   0.00000
   F   0.0000000   0.0000000   0.0000000 SPIN=   0.00000
%ENDBLOCK POSITIONS_FRAC

# Note: total spin =   8.00

KPOINTS_MP_SPACING 0.07

%BLOCK SPECIES_POT
QC5
%ENDBLOCK SPECIES_POT

SNAP_TO_SYMMETRY
SYMMETRY_GENERATE

