#              Generated by Buildcell
#
# at 04:06:36 (GMT+1.0) 4th August 2020
# in /lustre/scratch/uccabz1/launch_tmp
# on node-c12m-012
# by uccabz1
#
# compiler GCC version 4.9.2
# options -cpp -iprefix /lustre/shared/ucl/apps/gcc/4.9.2/bin/../lib/gcc/x86_64-unknown-linux-gnu/4.9.2/ -mtune=corei7 -march=x86-64 -g -Og
#
# seed  1714858068  1190620078   834581137  -320718952   337531645  -847327894  -346535302   238025560  -611921511  1639621612  1345073345   758274603
#
#      Author: C. J. Pickard (cjp20@cam.ac.uk)
#                Space group: P21
#

%BLOCK LATTICE_ABC
      3.96833      5.51339      9.54024
    106.62975     90.00000     90.00000
%ENDBLOCK LATTICE_ABC

%BLOCK POSITIONS_FRAC
  Li   0.1226061   0.2869323   0.2153017 SPIN=   0.00000
  Li  -0.3773939  -0.2869323  -0.2153017 SPIN=   0.00000
  Fe   0.4328647  -0.2291083   0.0958155 SPIN=   4.00000
  Fe  -0.0671353   0.2291083  -0.0958155 SPIN=   4.00000
   O   0.2591266  -0.4436378  -0.3749112 SPIN=   0.00000
   O   0.2591693  -0.1801376  -0.5458213 SPIN=   0.00000
   O   0.2319374   0.0231423  -0.2787555 SPIN=   0.00000
   O  -0.2584889  -0.2161301  -0.4084762 SPIN=   0.00000
   S   0.1229361  -0.2041908  -0.4019910 SPIN=   0.00000
   O  -0.2408734   0.4436378   0.3749112 SPIN=   0.00000
   O  -0.2408307   0.1801376   0.5458213 SPIN=   0.00000
   O  -0.2680626  -0.0231423   0.2787555 SPIN=   0.00000
   O  -0.7584889   0.2161301   0.4084762 SPIN=   0.00000
   S  -0.3770639   0.2041908   0.4019910 SPIN=   0.00000
   F  -0.3601285  -0.6228393  -0.1883601 SPIN=   0.00000
   F   0.1398715   0.6228393   0.1883601 SPIN=   0.00000
%ENDBLOCK POSITIONS_FRAC

# Note: total spin =   8.00

KPOINTS_MP_SPACING 0.07

%BLOCK SPECIES_POT
QC5
%ENDBLOCK SPECIES_POT

SNAP_TO_SYMMETRY
SYMMETRY_GENERATE

