#              Generated by Buildcell
#
# at 01:29:29 (GMT+1.0) 19th August 2020
# in /lustre/scratch/uccabz1/launch_tmp
# on node-c12m-012
# by uccabz1
#
# compiler GCC version 4.9.2
# options -cpp -iprefix /lustre/shared/ucl/apps/gcc/4.9.2/bin/../lib/gcc/x86_64-unknown-linux-gnu/4.9.2/ -mtune=corei7 -march=x86-64 -g -Og
#
# seed    94610738  -540427947   720566447   974300888  1668122694   680734194  -501362214 -1199294993 -1216416462  1358259630   277636446  1822691150
#
#      Author: C. J. Pickard (cjp20@cam.ac.uk)
#                Space group: Cc
#

%BLOCK LATTICE_ABC
      5.05222      6.16021      7.16401
     64.53614     87.19942     83.47463
%ENDBLOCK LATTICE_ABC

%BLOCK POSITIONS_FRAC
  Li  -0.0004929  -0.2165114  -0.2823880 SPIN=   0.00000
  Li   0.4995071   0.0011006   0.2823880 SPIN=   0.00000
  Fe  -0.0203346   0.3123412   0.1004897 SPIN=   4.00000
  Fe   0.4796654  -0.0871692  -0.1004897 SPIN=   4.00000
   O  -0.7404767  -0.5342997  -0.2009615 SPIN=   0.00000
   O  -0.2706608  -0.7128903  -0.1567281 SPIN=   0.00000
   O  -0.3761412  -0.2701595  -0.2862926 SPIN=   0.00000
   O  -0.4573367  -0.4724444  -0.5079810 SPIN=   0.00000
   S  -0.4611538  -0.4974485  -0.2879908 SPIN=   0.00000
   O  -0.2404767  -0.2352612   0.2009615 SPIN=   0.00000
   O   0.2293392  -0.3696183   0.1567281 SPIN=   0.00000
   O   0.1238588  -0.0564521   0.2862926 SPIN=   0.00000
   O   0.0426633  -0.4804254   0.5079810 SPIN=   0.00000
   S   0.0388462  -0.2854393   0.2879908 SPIN=   0.00000
   F   0.1435439   0.0400554  -0.2568719 SPIN=   0.00000
   F  -0.3564561   0.2831836   0.2568719 SPIN=   0.00000
%ENDBLOCK POSITIONS_FRAC

# Note: total spin =   8.00

KPOINTS_MP_SPACING 0.07

%BLOCK SPECIES_POT
QC5
%ENDBLOCK SPECIES_POT

SNAP_TO_SYMMETRY
SYMMETRY_GENERATE

