#              Generated by Buildcell
#
# at 05:11:50 (GMT+1.0) 4th August 2020
# in /lustre/scratch/uccabz1/launch_tmp
# on node-c12d-008
# by uccabz1
#
# compiler GCC version 4.9.2
# options -cpp -iprefix /lustre/shared/ucl/apps/gcc/4.9.2/bin/../lib/gcc/x86_64-unknown-linux-gnu/4.9.2/ -mtune=corei7 -march=x86-64 -g -Og
#
# seed   -63929267 -1522759240  -585696567 -2031177308 -1192521196 -2005220278   399986102   133164901   153405645  1853476296   400725597  1786046137
#
#      Author: C. J. Pickard (cjp20@cam.ac.uk)
#                Space group: P21
#

%BLOCK LATTICE_ABC
      4.59639      6.43909      7.02593
    105.88738     90.00000     90.00000
%ENDBLOCK LATTICE_ABC

%BLOCK POSITIONS_FRAC
  Li   0.1696361  -0.2505568  -0.4680778 SPIN=   0.00000
  Li  -0.3303639   0.2505568   0.4680778 SPIN=   0.00000
  Fe  -0.0344277   0.4291229   0.1784461 SPIN=   4.00000
  Fe   0.4655723  -0.4291229  -0.1784461 SPIN=   4.00000
   O   0.0424923   0.1374836   0.3454701 SPIN=   0.00000
   O   0.3275157   0.0112833   0.0364354 SPIN=   0.00000
   O   0.0371814  -0.2490394   0.1591360 SPIN=   0.00000
   O   0.4816998  -0.0869463   0.3379931 SPIN=   0.00000
   S   0.2222223  -0.0468047   0.2197587 SPIN=   0.00000
   O  -0.4575077  -0.1374836  -0.3454701 SPIN=   0.00000
   O  -0.1724843  -0.0112833  -0.0364354 SPIN=   0.00000
   O  -0.4628186   0.2490394  -0.1591360 SPIN=   0.00000
   O  -0.0183002   0.0869463  -0.3379931 SPIN=   0.00000
   S  -0.2777777   0.0468047  -0.2197587 SPIN=   0.00000
   F   0.0844831  -0.4702556  -0.2771895 SPIN=   0.00000
   F  -0.4155169   0.4702556   0.2771895 SPIN=   0.00000
%ENDBLOCK POSITIONS_FRAC

# Note: total spin =   8.00

KPOINTS_MP_SPACING 0.07

%BLOCK SPECIES_POT
QC5
%ENDBLOCK SPECIES_POT

SNAP_TO_SYMMETRY
SYMMETRY_GENERATE

