#              Generated by Buildcell
#
# at 02:01:30 (GMT+1.0) 4th August 2020
# in /lustre/scratch/uccabz1/launch_tmp
# on node-c12d-005
# by uccabz1
#
# compiler GCC version 4.9.2
# options -cpp -iprefix /lustre/shared/ucl/apps/gcc/4.9.2/bin/../lib/gcc/x86_64-unknown-linux-gnu/4.9.2/ -mtune=corei7 -march=x86-64 -g -Og
#
# seed  -118119190  -856075508  -163735538   453741919  1331548250 -2066848995  -553694209   431238688  -717620620 -1214817990  1136444650  2000676108
#
#      Author: C. J. Pickard (cjp20@cam.ac.uk)
#                Space group: Pmc21
#

%BLOCK LATTICE_ABC
      4.80296      4.84905      8.58744
     90.00000     90.00000     90.00000
%ENDBLOCK LATTICE_ABC

%BLOCK POSITIONS_FRAC
  Li  -0.4908820  -0.0000000   0.1277399 SPIN=   0.00000
  Li   0.4908820  -0.0000000  -0.3722601 SPIN=   0.00000
  Fe  -0.0000054  -0.5000000  -0.2652807 SPIN=   4.00000
  Fe   0.0000054  -0.5000000   0.2347193 SPIN=   4.00000
   O  -0.6610397   0.2552635   0.3849185 SPIN=   0.00000
   O  -0.2233373   0.2472999   0.5369270 SPIN=   0.00000
   O   0.6610397  -0.2552635  -0.1150815 SPIN=   0.00000
   O   0.2233373  -0.2472999   0.0369270 SPIN=   0.00000
   O   0.6610397   0.2552635  -0.1150815 SPIN=   0.00000
   O   0.2233373   0.2472999   0.0369270 SPIN=   0.00000
   O  -0.6610397  -0.2552635   0.3849185 SPIN=   0.00000
   O  -0.2233373  -0.2472999   0.5369270 SPIN=   0.00000
   S  -0.4988668  -0.5000000  -0.0138236 SPIN=   0.00000
   S   0.4988668   0.5000000   0.4861764 SPIN=   0.00000
   F   0.1396583  -0.0000000  -0.2538513 SPIN=   0.00000
   F  -0.1396583   0.0000000   0.2461487 SPIN=   0.00000
%ENDBLOCK POSITIONS_FRAC

# Note: total spin =   8.00

KPOINTS_MP_SPACING 0.07

%BLOCK SPECIES_POT
QC5
%ENDBLOCK SPECIES_POT

SNAP_TO_SYMMETRY
SYMMETRY_GENERATE

