#              Generated by Buildcell
#
# at 05:32:59 (GMT+1.0) 4th August 2020
# in /lustre/scratch/uccabz1/launch_tmp
# on node-c12n-033
# by uccabz1
#
# compiler GCC version 4.9.2
# options -cpp -iprefix /lustre/shared/ucl/apps/gcc/4.9.2/bin/../lib/gcc/x86_64-unknown-linux-gnu/4.9.2/ -mtune=corei7 -march=x86-64 -g -Og
#
# seed  1261990341    23028486 -2081406622 -1790926327 -1092393546 -1427463943   748048865   790041115  -190839791  1290659067  -708856049  -979014796
#
#      Author: C. J. Pickard (cjp20@cam.ac.uk)
#                Space group: P2/c
#

%BLOCK LATTICE_ABC
      5.24465      5.37470      7.34388
     90.00000    104.95526     90.00000
%ENDBLOCK LATTICE_ABC

%BLOCK POSITIONS_FRAC
  Li  -0.2500000  -0.0869817  -0.2500000 SPIN=   0.00000
  Li   0.2500000   0.0869817   0.2500000 SPIN=   0.00000
  Fe   0.5000000   0.5000000   0.0000000 SPIN=   4.00000
  Fe   0.0000000  -0.5000000   0.5000000 SPIN=   4.00000
   O  -0.1985278   0.2603639   0.0558298 SPIN=   0.00000
   O  -0.1866098   0.7166813   0.1024148 SPIN=   0.00000
   O  -0.3014722   0.2603639   0.4441702 SPIN=   0.00000
   O  -0.3133902   0.7166813   0.3975852 SPIN=   0.00000
   O   0.1985278  -0.2603639  -0.0558298 SPIN=   0.00000
   O   0.1866098  -0.7166813  -0.1024148 SPIN=   0.00000
   O   0.3014722  -0.2603639  -0.4441702 SPIN=   0.00000
   O   0.3133902  -0.7166813  -0.3975852 SPIN=   0.00000
   S   0.2500000   0.0002602  -0.2500000 SPIN=   0.00000
   S  -0.2500000  -0.0002602   0.2500000 SPIN=   0.00000
   F  -0.2500000  -0.4613569  -0.2500000 SPIN=   0.00000
   F   0.2500000   0.4613569   0.2500000 SPIN=   0.00000
%ENDBLOCK POSITIONS_FRAC

# Note: total spin =   8.00

KPOINTS_MP_SPACING 0.07

%BLOCK SPECIES_POT
QC5
%ENDBLOCK SPECIES_POT

SNAP_TO_SYMMETRY
SYMMETRY_GENERATE

