#              Generated by Buildcell
#
# at 05:12:57 (GMT+1.0) 4th August 2020
# in /lustre/scratch/uccabz1/launch_tmp
# on node-c12p-004
# by uccabz1
#
# compiler GCC version 4.9.2
# options -cpp -iprefix /lustre/shared/ucl/apps/gcc/4.9.2/bin/../lib/gcc/x86_64-unknown-linux-gnu/4.9.2/ -mtune=corei7 -march=x86-64 -g -Og
#
# seed  1162955073  -937066058 -1419126926  -694053931   919193165   850704834 -1173921122   212483604  -866960334 -1414958814  -691930353 -1394492385
#
#      Author: C. J. Pickard (cjp20@cam.ac.uk)
#                Space group: P-1
#

%BLOCK LATTICE_ABC
      3.96126      6.83309      7.64581
    103.84489     94.96565     91.20803
%ENDBLOCK LATTICE_ABC

%BLOCK POSITIONS_FRAC
  Li   0.1026949   0.4887050   0.2522123 SPIN=   0.00000
  Li  -0.1026949  -0.4887050  -0.2522123 SPIN=   0.00000
  Fe  -0.4189647   0.2256245   0.4042845 SPIN=   4.00000
  Fe   0.4189647  -0.2256245  -0.4042845 SPIN=   4.00000
   O   0.0204828  -0.0876250  -0.2882504 SPIN=   0.00000
   O   0.2892966   0.2525891  -0.1597240 SPIN=   0.00000
   O  -0.2204091   0.1461908  -0.0346415 SPIN=   0.00000
   O  -0.2690522   0.2140276  -0.3394151 SPIN=   0.00000
   S  -0.0449205   0.1312956  -0.2055078 SPIN=   0.00000
   O  -0.0204828   0.0876250   0.2882504 SPIN=   0.00000
   O  -0.2892966  -0.2525891   0.1597240 SPIN=   0.00000
   O   0.2204091  -0.1461908   0.0346415 SPIN=   0.00000
   O   0.2690522  -0.2140276   0.3394151 SPIN=   0.00000
   S   0.0449205  -0.1312956   0.2055078 SPIN=   0.00000
   F   0.4671678  -0.3968014  -0.2099013 SPIN=   0.00000
   F  -0.4671678   0.3968014   0.2099013 SPIN=   0.00000
%ENDBLOCK POSITIONS_FRAC

# Note: total spin =   8.00

KPOINTS_MP_SPACING 0.07

%BLOCK SPECIES_POT
QC5
%ENDBLOCK SPECIES_POT

SNAP_TO_SYMMETRY
SYMMETRY_GENERATE

