#              Generated by Buildcell
#
# at 04:53:12 (GMT+1.0) 4th August 2020
# in /lustre/scratch/uccabz1/launch_tmp
# on node-c12l-025
# by uccabz1
#
# compiler GCC version 4.9.2
# options -cpp -iprefix /lustre/shared/ucl/apps/gcc/4.9.2/bin/../lib/gcc/x86_64-unknown-linux-gnu/4.9.2/ -mtune=corei7 -march=x86-64 -g -Og
#
# seed   897031054  1139318774 -1231965655 -1724414931  -825591178 -1142898007  -851975160  -127398453 -1153396050    93842488   601245545 -1870906880
#
#      Author: C. J. Pickard (cjp20@cam.ac.uk)
#                Space group: Pm
#

%BLOCK LATTICE_ABC
      4.37591      5.56976      8.47508
     90.00000     90.00000    104.47972
%ENDBLOCK LATTICE_ABC

%BLOCK POSITIONS_FRAC
  Li  -0.2117385   0.0019326  -0.2359946 SPIN=   0.00000
  Li  -0.2117385   0.0019326   0.2359946 SPIN=   0.00000
  Fe   0.2056999  -0.0211543   0.5000000 SPIN=   5.00020
  Fe   0.3098323   0.0183081   0.0000000 SPIN=   2.99980
   O  -0.2197971  -0.5288680  -0.2707840 SPIN=   0.00000
   O   0.2789365  -0.2106174  -0.2243937 SPIN=   0.00000
   O   0.2858648  -0.5969331  -0.3670485 SPIN=   0.00000
   S   0.1292613  -0.4865529  -0.2357307 SPIN=   0.00000
   O  -0.2197971  -0.5288680   0.2707840 SPIN=   0.00000
   O   0.2789365  -0.2106174   0.2243937 SPIN=   0.00000
   O   0.2858648  -0.5969331   0.3670485 SPIN=   0.00000
   S   0.1292613  -0.4865529   0.2357307 SPIN=   0.00000
   O   0.4551214   0.4109552   0.0000000 SPIN=   0.00000
   O  -0.0130380  -0.4890009   0.0000000 SPIN=   0.00000
   F  -0.2191288  -0.0359603   0.0000000 SPIN=   0.00000
   F  -0.3132849  -0.0544624   0.5000000 SPIN=   0.00000
%ENDBLOCK POSITIONS_FRAC

# Note: total spin =   8.00

KPOINTS_MP_SPACING 0.07

%BLOCK SPECIES_POT
QC5
%ENDBLOCK SPECIES_POT

SNAP_TO_SYMMETRY
SYMMETRY_GENERATE

