#              Generated by Buildcell
#
# at 03:26:46 (GMT+1.0) 4th August 2020
# in /lustre/scratch/uccabz1/launch_tmp
# on node-c12e-018
# by uccabz1
#
# compiler GCC version 4.9.2
# options -cpp -iprefix /lustre/shared/ucl/apps/gcc/4.9.2/bin/../lib/gcc/x86_64-unknown-linux-gnu/4.9.2/ -mtune=corei7 -march=x86-64 -g -Og
#
# seed  2138991664 -1126447116   653638306  1773998835  -457184540  1562366889   459372004   362252310 -1611000670   140751489  1084162210 -1001324864
#
#      Author: C. J. Pickard (cjp20@cam.ac.uk)
#                Space group: Cm
#

%BLOCK LATTICE_ABC
      3.94576      7.38280      7.38280
     86.40086     74.65513     74.65513
%ENDBLOCK LATTICE_ABC

%BLOCK POSITIONS_FRAC
  Li   0.2346766  -0.1776252   0.4402902 SPIN=   0.00000
  Li   0.2346766   0.4402902  -0.1776252 SPIN=   0.00000
  Fe  -1.1313721   0.4718899   0.4718899 SPIN=   6.20672
  Fe   0.2257116   0.1071262   0.1071262 SPIN=   1.79328
   O   0.1714895  -0.1636365   0.1763616 SPIN=   0.00000
   O   0.6829191  -0.4149070   0.2384339 SPIN=   0.00000
   O   0.6943390  -0.3064772  -0.0866893 SPIN=   0.00000
   O   0.2627201  -0.4904739   0.0759690 SPIN=   0.00000
   S   0.4528669  -0.3438736   0.1010188 SPIN=   0.00000
   O   0.1714895   0.1763616  -0.1636365 SPIN=   0.00000
   O   0.6829191   0.2384339  -0.4149070 SPIN=   0.00000
   O   0.6943390  -0.0866893  -0.3064772 SPIN=   0.00000
   O   0.2627201   0.0759690  -0.4904739 SPIN=   0.00000
   S   0.4528669   0.1010188  -0.3438736 SPIN=   0.00000
   F  -0.3367021   0.1701497   0.1701497 SPIN=   0.00000
   F   1.2712516  -0.3972363  -0.3972363 SPIN=   0.00000
%ENDBLOCK POSITIONS_FRAC

# Note: total spin =   8.00

KPOINTS_MP_SPACING 0.07

%BLOCK SPECIES_POT
QC5
%ENDBLOCK SPECIES_POT

SNAP_TO_SYMMETRY
SYMMETRY_GENERATE

