#              Generated by Buildcell
#
# at 04:14:29 (GMT+1.0) 4th August 2020
# in /lustre/scratch/uccabz1/launch_tmp
# on node-c12p-032
# by uccabz1
#
# compiler GCC version 4.9.2
# options -cpp -iprefix /lustre/shared/ucl/apps/gcc/4.9.2/bin/../lib/gcc/x86_64-unknown-linux-gnu/4.9.2/ -mtune=corei7 -march=x86-64 -g -Og
#
# seed -1056893572    52795142   330564578  1511699080  1916824648 -1476009883 -1693099067 -1181824968  1381390119 -1681516397  1082724960 -1856734611
#
#      Author: C. J. Pickard (cjp20@cam.ac.uk)
#                Space group: P21
#

%BLOCK LATTICE_ABC
      5.86064      5.96424      5.97048
     90.00000     90.00000    106.59628
%ENDBLOCK LATTICE_ABC

%BLOCK POSITIONS_FRAC
  Li  -0.0866237  -0.3028983  -0.3568096 SPIN=   0.00000
  Li   0.0866237   0.3028983   0.1431904 SPIN=   0.00000
  Fe  -0.3244285  -0.4924847   0.0809898 SPIN=   4.00000
  Fe   0.3244285   0.4924847  -0.4190102 SPIN=   4.00000
   O   0.3068452  -0.2601100   0.3523585 SPIN=   0.00000
   O   0.4019096   0.1047971   0.1294901 SPIN=   0.00000
   O   0.3347035   0.1178344   0.5379173 SPIN=   0.00000
   O  -0.0030020  -0.0598755   0.2848558 SPIN=   0.00000
   S   0.2601141  -0.0243385   0.3261554 SPIN=   0.00000
   O  -0.3068452   0.2601100  -0.1476415 SPIN=   0.00000
   O  -0.4019096  -0.1047971  -0.3705099 SPIN=   0.00000
   O  -0.3347035  -0.1178344   0.0379173 SPIN=   0.00000
   O   0.0030020   0.0598755  -0.2151442 SPIN=   0.00000
   S  -0.2601141   0.0243385  -0.1738446 SPIN=   0.00000
   F   0.2544202  -0.4906089  -0.0607075 SPIN=   0.00000
   F  -0.2544202   0.4906089   0.4392925 SPIN=   0.00000
%ENDBLOCK POSITIONS_FRAC

# Note: total spin =   8.00

KPOINTS_MP_SPACING 0.07

%BLOCK SPECIES_POT
QC5
%ENDBLOCK SPECIES_POT

SNAP_TO_SYMMETRY
SYMMETRY_GENERATE

