#              Generated by Buildcell
#
# at 02:06:31 (GMT+1.0) 19th August 2020
# in /scratch/scratch/uccabz1/launch_tmp
# on node-k10b-023
# by uccabz1
#
# compiler GCC version 4.9.2
# options -cpp -iprefix /scratch/UCL/applications/gcc/4.9.2/bin/../lib/gcc/x86_64-unknown-linux-gnu/4.9.2/ -mtune=corei7 -march=x86-64 -g -O2
#
# seed   254987781  -226771338  1960125794 -1362258864  -855628970  -162204977  1522029762  1065662288  -326940997  1702130552 -1614113956  -990164737
#
#      Author: C. J. Pickard (cjp20@cam.ac.uk)
#                Space group: P-1
#

%BLOCK LATTICE_ABC
      4.81601      5.81039      7.16655
     85.89462     89.44844     89.21687
%ENDBLOCK LATTICE_ABC

%BLOCK POSITIONS_FRAC
  Li  -0.5000000  -0.5000000   0.0000000 SPIN=   0.00000
  Li   0.0000000  -0.0000000   0.0000000 SPIN=   0.00000
  Fe  -0.1158486  -0.3138463  -0.2907903 SPIN=   4.00000
  Fe   0.1158486   0.3138463   0.2907903 SPIN=   4.00000
   O   0.2168916   0.0828922  -0.2402598 SPIN=   0.00000
   O   0.6215665   0.1601256  -0.0449587 SPIN=   0.00000
   O   0.5027197   0.4280710  -0.3173821 SPIN=   0.00000
   S   0.5086664   0.1775453  -0.2422045 SPIN=   0.00000
   O  -0.2168916  -0.0828922   0.2402598 SPIN=   0.00000
   O  -0.6215665  -0.1601256   0.0449587 SPIN=   0.00000
   O  -0.5027197  -0.4280710   0.3173821 SPIN=   0.00000
   S  -0.5086664  -0.1775453   0.2422045 SPIN=   0.00000
   O   0.0000000   0.0000000   0.5000000 SPIN=   0.00000
   O  -0.5000000  -0.0000000   0.5000000 SPIN=   0.00000
   F  -0.0000000   0.5000000   0.5000000 SPIN=   0.00000
   F   0.0000000   0.5000000   0.0000000 SPIN=   0.00000
%ENDBLOCK POSITIONS_FRAC

# Note: total spin =   8.00

KPOINTS_MP_SPACING 0.07

%BLOCK SPECIES_POT
QC5
%ENDBLOCK SPECIES_POT

SNAP_TO_SYMMETRY
SYMMETRY_GENERATE

