#              Generated by Buildcell
#
# at 01:02:17 (GMT+1.0) 19th August 2020
# in /lustre/scratch/uccabz1/launch_tmp
# on node-c12b-025
# by uccabz1
#
# compiler GCC version 4.9.2
# options -cpp -iprefix /lustre/shared/ucl/apps/gcc/4.9.2/bin/../lib/gcc/x86_64-unknown-linux-gnu/4.9.2/ -mtune=corei7 -march=x86-64 -g -Og
#
# seed -1677450581   523415642  1755476118  -208572051 -1027930483  -675683603 -2025529272     7073980   246159172 -1572925378  -176056653  1834246842
#
#      Author: C. J. Pickard (cjp20@cam.ac.uk)
#                Space group: Pc
#

%BLOCK LATTICE_ABC
      5.16283      6.12372      6.59530
     90.00000    106.43055     90.00000
%ENDBLOCK LATTICE_ABC

%BLOCK POSITIONS_FRAC
  Li  -0.1840721  -0.1267017  -0.4300919 SPIN=   0.00000
  Li   0.3159279   0.1267017   0.0699081 SPIN=   0.00000
  Fe   0.3849797  -0.3039917  -0.2362639 SPIN=   4.00000
  Fe  -0.1150203   0.3039917   0.2637361 SPIN=   4.00000
   O   0.3069732  -0.5924467   0.3052651 SPIN=   0.00000
   O   0.6395873  -0.3675085   0.1923073 SPIN=   0.00000
   O   0.4250559  -0.2234659   0.4562187 SPIN=   0.00000
   O   0.1560519  -0.2653609   0.0828045 SPIN=   0.00000
   S   0.3819171  -0.3621955   0.2591489 SPIN=   0.00000
   O  -0.1930268   0.5924467  -0.1947349 SPIN=   0.00000
   O   0.1395873   0.3675085  -0.3076927 SPIN=   0.00000
   O  -0.0749441   0.2234659  -0.0437813 SPIN=   0.00000
   O  -0.3439481   0.2653609  -0.4171955 SPIN=   0.00000
   S  -0.1180829   0.3621955  -0.2408511 SPIN=   0.00000
   F  -0.0708188   0.0203997   0.3431525 SPIN=   0.00000
   F   0.4291812  -0.0203997  -0.1568475 SPIN=   0.00000
%ENDBLOCK POSITIONS_FRAC

# Note: total spin =   8.00

KPOINTS_MP_SPACING 0.07

%BLOCK SPECIES_POT
QC5
%ENDBLOCK SPECIES_POT

SNAP_TO_SYMMETRY
SYMMETRY_GENERATE

