#              Generated by Buildcell
#
# at 03:34:40 (GMT+1.0) 4th August 2020
# in /lustre/scratch/uccabz1/launch_tmp
# on node-c12f-020
# by uccabz1
#
# compiler GCC version 4.9.2
# options -cpp -iprefix /lustre/shared/ucl/apps/gcc/4.9.2/bin/../lib/gcc/x86_64-unknown-linux-gnu/4.9.2/ -mtune=corei7 -march=x86-64 -g -Og
#
# seed   491139239    59371683  1452212589  -262077004  -570708222 -1118065656  1360601314   736574916 -1436362797    53076981 -1124595924  -217286667
#
#      Author: C. J. Pickard (cjp20@cam.ac.uk)
#                Space group: Pmm2
#

%BLOCK LATTICE_ABC
      3.98800      5.29025      9.47978
     90.00000     90.00000     90.00000
%ENDBLOCK LATTICE_ABC

%BLOCK POSITIONS_FRAC
  Li   0.4780882  -0.0000000  -0.2589356 SPIN=   0.00000
  Li   0.4780882   0.0000000   0.2589356 SPIN=   0.00000
  Fe  -0.0169898   0.0000000  -0.5000000 SPIN=   2.46447
  Fe  -0.3762084   0.5000000  -0.0000000 SPIN=   5.53553
   O  -0.2162446  -0.2894103  -0.2784119 SPIN=   0.00000
   O   0.3199871  -0.2888076  -0.1470030 SPIN=   0.00000
   O  -0.2162446   0.2894103   0.2784119 SPIN=   0.00000
   O   0.3199871   0.2888076   0.1470030 SPIN=   0.00000
   O  -0.2162446  -0.2894103   0.2784119 SPIN=   0.00000
   O   0.3199871  -0.2888076   0.1470030 SPIN=   0.00000
   O  -0.2162446   0.2894103  -0.2784119 SPIN=   0.00000
   O   0.3199871   0.2888076  -0.1470030 SPIN=   0.00000
   S   0.0729911  -0.5000000   0.2892485 SPIN=   0.00000
   S   0.0729911   0.5000000  -0.2892485 SPIN=   0.00000
   F   0.4881800   0.0000000   0.5000000 SPIN=   0.00000
   F  -0.1802711   0.0000000   0.0000000 SPIN=   0.00000
%ENDBLOCK POSITIONS_FRAC

# Note: total spin =   8.00

KPOINTS_MP_SPACING 0.07

%BLOCK SPECIES_POT
QC5
%ENDBLOCK SPECIES_POT

SNAP_TO_SYMMETRY
SYMMETRY_GENERATE

