#              Generated by Buildcell
#
# at 23:32:26 (GMT+1.0) 18th August 2020
# in /lustre/scratch/uccabz1/launch_tmp
# on node-c12p-018
# by uccabz1
#
# compiler GCC version 4.9.2
# options -cpp -iprefix /lustre/shared/ucl/apps/gcc/4.9.2/bin/../lib/gcc/x86_64-unknown-linux-gnu/4.9.2/ -mtune=corei7 -march=x86-64 -g -Og
#
# seed -1215599883  1548534441 -1504352535  1654749850  2114927075 -1701938329  1793046922 -2143092483  1710176670 -1033173933  -341876899  1200881435
#
#      Author: C. J. Pickard (cjp20@cam.ac.uk)
#                Space group: Pc
#

%BLOCK LATTICE_ABC
      3.96470      6.44673      7.85068
     90.00000     94.64148     90.00000
%ENDBLOCK LATTICE_ABC

%BLOCK POSITIONS_FRAC
  Li   0.2388924   0.2039071   0.1185713 SPIN=   0.00000
  Li   0.2388924  -0.2039071  -0.3814287 SPIN=   0.00000
  Fe  -0.2557557   0.4545179  -0.3480350 SPIN=   4.00000
  Fe  -0.2557557  -0.4545179   0.1519650 SPIN=   4.00000
   O  -0.7904763   0.0233236  -0.1439005 SPIN=   0.00000
   O  -0.2694261  -0.1890881  -0.1354983 SPIN=   0.00000
   O  -0.2757352   0.1370443   0.0305157 SPIN=   0.00000
   O  -0.2934068   0.1491031  -0.2851685 SPIN=   0.00000
   S  -0.4072611   0.0300957  -0.1335129 SPIN=   0.00000
   O  -0.7904763  -0.0233236   0.3560995 SPIN=   0.00000
   O  -0.2694261   0.1890881   0.3645017 SPIN=   0.00000
   O  -0.2757352  -0.1370443   0.5305157 SPIN=   0.00000
   O  -0.2934068  -0.1491031   0.2148315 SPIN=   0.00000
   S  -0.4072611  -0.0300957   0.3664871 SPIN=   0.00000
   F   0.1993481  -0.3653877   0.0662743 SPIN=   0.00000
   F   0.1993481   0.3653877  -0.4337257 SPIN=   0.00000
%ENDBLOCK POSITIONS_FRAC

# Note: total spin =   8.00

KPOINTS_MP_SPACING 0.07

%BLOCK SPECIES_POT
QC5
%ENDBLOCK SPECIES_POT

SNAP_TO_SYMMETRY
SYMMETRY_GENERATE

