#              Generated by Buildcell
#
# at 02:12:33 (GMT+1.0) 4th August 2020
# in /lustre/scratch/uccabz1/launch_tmp
# on node-c12o-004
# by uccabz1
#
# compiler GCC version 4.9.2
# options -cpp -iprefix /lustre/shared/ucl/apps/gcc/4.9.2/bin/../lib/gcc/x86_64-unknown-linux-gnu/4.9.2/ -mtune=corei7 -march=x86-64 -g -Og
#
# seed  1193821820  1580194819 -1053656746  -746916109  -720625887  -460872186 -1655709814 -1724286661  -894570746  1596338830  1022666431  2073423282
#
#      Author: C. J. Pickard (cjp20@cam.ac.uk)
#                Space group: P21
#

%BLOCK LATTICE_ABC
      4.16484      4.16500     11.54271
     90.00000     92.72433     90.00000
%ENDBLOCK LATTICE_ABC

%BLOCK POSITIONS_FRAC
  Li   0.3814805   0.2837364   0.2881449 SPIN=   0.00000
  Li  -0.3814805  -0.2162636  -0.2881449 SPIN=   0.00000
  Fe  -0.1833515   0.4986007   0.1105381 SPIN=   4.00000
  Fe   0.1833515  -0.0013993  -0.1105381 SPIN=   4.00000
   O   0.2417335   0.0623481  -0.3565439 SPIN=   0.00000
   O   0.2518284   0.5952537  -0.4511488 SPIN=   0.00000
   O   0.1711947   0.5549939  -0.2405975 SPIN=   0.00000
   O  -0.2588237   0.3800297  -0.3820093 SPIN=   0.00000
   S   0.1014832   0.3981564  -0.3575749 SPIN=   0.00000
   O  -0.2417335  -0.4376519   0.3565439 SPIN=   0.00000
   O  -0.2518284   0.0952537   0.4511488 SPIN=   0.00000
   O  -0.1711947   0.0549939   0.2405975 SPIN=   0.00000
   O   0.2588237  -0.1199703   0.3820093 SPIN=   0.00000
   S  -0.1014832  -0.1018436   0.3575749 SPIN=   0.00000
   F  -0.3154587  -0.0755764  -0.1392084 SPIN=   0.00000
   F   0.3154587   0.4244236   0.1392084 SPIN=   0.00000
%ENDBLOCK POSITIONS_FRAC

# Note: total spin =   8.00

KPOINTS_MP_SPACING 0.07

%BLOCK SPECIES_POT
QC5
%ENDBLOCK SPECIES_POT

SNAP_TO_SYMMETRY
SYMMETRY_GENERATE

