#              Generated by Buildcell
#
# at 05:30:55 (GMT+1.0) 4th August 2020
# in /lustre/scratch/uccabz1/launch_tmp
# on node-c12d-029
# by uccabz1
#
# compiler GCC version 4.9.2
# options -cpp -iprefix /lustre/shared/ucl/apps/gcc/4.9.2/bin/../lib/gcc/x86_64-unknown-linux-gnu/4.9.2/ -mtune=corei7 -march=x86-64 -g -Og
#
# seed -1122456545  1087493578 -2142192628    26994048 -1384948448   770093901  -386028979   816124017  -583804599  1029122024  1924988731  -935700531
#
#      Author: C. J. Pickard (cjp20@cam.ac.uk)
#                Space group: P21/c
#

%BLOCK LATTICE_ABC
      5.43328      5.76542      6.44722
     90.00000     97.98894     90.00000
%ENDBLOCK LATTICE_ABC

%BLOCK POSITIONS_FRAC
  Li  -0.0000000   0.0000000   0.5000000 SPIN=   0.00000
  Li  -0.5000000   0.5000000   0.5000000 SPIN=   0.00000
  Fe  -0.5000000   0.0000000   0.0000000 SPIN=   4.00000
  Fe  -0.0000000   0.5000000   0.0000000 SPIN=   4.00000
   O  -0.1056208   0.3198472   0.2740544 SPIN=   0.00000
   O  -0.3148633   0.1825404   0.5685824 SPIN=   0.00000
   O  -0.3943792  -0.1801528  -0.2740544 SPIN=   0.00000
   O  -0.1851367  -0.3174596  -0.5685824 SPIN=   0.00000
   O   0.1056208  -0.3198472  -0.2740544 SPIN=   0.00000
   O   0.3148633  -0.1825404  -0.5685824 SPIN=   0.00000
   O   0.3943792   0.1801528   0.2740544 SPIN=   0.00000
   O   0.1851367   0.3174596   0.5685824 SPIN=   0.00000
   S  -0.5000000   0.0000000   0.5000000 SPIN=   0.00000
   S  -0.0000000   0.5000000   0.5000000 SPIN=   0.00000
   F  -0.0000000   0.0000000   0.0000000 SPIN=   0.00000
   F  -0.5000000   0.5000000   0.0000000 SPIN=   0.00000
%ENDBLOCK POSITIONS_FRAC

# Note: total spin =   8.00

KPOINTS_MP_SPACING 0.07

%BLOCK SPECIES_POT
QC5
%ENDBLOCK SPECIES_POT

SNAP_TO_SYMMETRY
SYMMETRY_GENERATE

