#              Generated by Buildcell
#
# at 01:11:29 (GMT+1.0) 19th August 2020
# in /lustre/scratch/uccabz1/launch_tmp
# on node-c12l-017
# by uccabz1
#
# compiler GCC version 4.9.2
# options -cpp -iprefix /lustre/shared/ucl/apps/gcc/4.9.2/bin/../lib/gcc/x86_64-unknown-linux-gnu/4.9.2/ -mtune=corei7 -march=x86-64 -g -Og
#
# seed  -331634445  1860683483  -173519075   651489657 -1848425763   755273685  -122134990   158117003 -1870271496 -1931176074   893317769  -629685927
#
#      Author: C. J. Pickard (cjp20@cam.ac.uk)
#                Space group: P-1
#

%BLOCK LATTICE_ABC
      4.45558      5.36668      8.56704
     87.86038     77.77024     88.13247
%ENDBLOCK LATTICE_ABC

%BLOCK POSITIONS_FRAC
  Li  -0.0800563   0.2218960  -0.3254042 SPIN=   0.00000
  Li   0.0800563  -0.2218960   0.3254042 SPIN=   0.00000
  Fe  -0.5000000   0.0000000   0.5000000 SPIN=   7.88313
  Fe   0.0000000   0.0000000  -0.0000000 SPIN=   0.11687
   O  -0.6244097  -0.4639388   0.1303301 SPIN=   0.00000
   O  -0.3972207  -0.7101855   0.3284449 SPIN=   0.00000
   O  -0.3873952  -0.2490881   0.3228723 SPIN=   0.00000
   S  -0.3673469  -0.4769713   0.2215208 SPIN=   0.00000
   O   0.6244097   0.4639388  -0.1303301 SPIN=   0.00000
   O   0.3972207   0.7101855  -0.3284449 SPIN=   0.00000
   O   0.3873952   0.2490881  -0.3228723 SPIN=   0.00000
   S   0.3673469   0.4769713  -0.2215208 SPIN=   0.00000
   O   0.0000000   0.5000000   0.5000000 SPIN=   0.00000
   O   0.0000000  -0.5000000   0.0000000 SPIN=   0.00000
   F   0.1745099   0.0428305   0.1724300 SPIN=   0.00000
   F  -0.1745099  -0.0428305  -0.1724300 SPIN=   0.00000
%ENDBLOCK POSITIONS_FRAC

# Note: total spin =   8.00

KPOINTS_MP_SPACING 0.07

%BLOCK SPECIES_POT
QC5
%ENDBLOCK SPECIES_POT

SNAP_TO_SYMMETRY
SYMMETRY_GENERATE

