#              Generated by Buildcell
#
# at 23:19:04 (GMT+1.0) 18th August 2020
# in /lustre/scratch/uccabz1/launch_tmp
# on node-c12e-015
# by uccabz1
#
# compiler GCC version 4.9.2
# options -cpp -iprefix /lustre/shared/ucl/apps/gcc/4.9.2/bin/../lib/gcc/x86_64-unknown-linux-gnu/4.9.2/ -mtune=corei7 -march=x86-64 -g -Og
#
# seed  1794934850   531652456   156618520  1119088007  -775053495 -1287736054   308791220   385730643  -584827835  1937696633  1301157707 -1574465706
#
#      Author: C. J. Pickard (cjp20@cam.ac.uk)
#                Space group: C2221
#

%BLOCK LATTICE_ABC
      4.96631      6.12455      7.02865
     90.00000    110.68871     90.00000
%ENDBLOCK LATTICE_ABC

%BLOCK POSITIONS_FRAC
  Li   0.2964582  -0.2500000   0.0000000 SPIN=   0.00000
  Li  -0.2964582   0.2500000  -0.0000000 SPIN=   0.00000
  Fe  -0.2059330  -0.0000000  -0.4118660 SPIN=   4.00000
  Fe   0.2059330   0.5000000   0.4118660 SPIN=   4.00000
   O   0.0111011   0.2232051   0.4731816 SPIN=   0.00000
   O  -0.1692236  -0.0715368   0.2188500 SPIN=   0.00000
   O  -0.0111011  -0.2767949  -0.4731816 SPIN=   0.00000
   O   0.1692236  -0.5715368  -0.2188500 SPIN=   0.00000
   O  -0.4620805   0.2767949  -0.4731816 SPIN=   0.00000
   O  -0.3880736   0.5715368  -0.2188500 SPIN=   0.00000
   O   0.4620805  -0.2232051   0.4731816 SPIN=   0.00000
   O   0.3880736   0.0715368   0.2188500 SPIN=   0.00000
   S   0.1260626  -0.0000000   0.2521252 SPIN=   0.00000
   S  -0.1260626   0.5000000  -0.2521252 SPIN=   0.00000
   F   0.4102213   0.0000000  -0.1795573 SPIN=   0.00000
   F  -0.4102213  -0.5000000   0.1795573 SPIN=   0.00000
%ENDBLOCK POSITIONS_FRAC

# Note: total spin =   8.00

KPOINTS_MP_SPACING 0.07

%BLOCK SPECIES_POT
QC5
%ENDBLOCK SPECIES_POT

SNAP_TO_SYMMETRY
SYMMETRY_GENERATE

