#              Generated by Buildcell
#
# at 22:48:42 (GMT+1.0) 18th August 2020
# in /lustre/scratch/uccabz1/launch_tmp
# on node-c12l-017
# by uccabz1
#
# compiler GCC version 4.9.2
# options -cpp -iprefix /lustre/shared/ucl/apps/gcc/4.9.2/bin/../lib/gcc/x86_64-unknown-linux-gnu/4.9.2/ -mtune=corei7 -march=x86-64 -g -Og
#
# seed   598338400 -1571568352  1010507115 -1723585950  1195502196   215410852 -1367110739  -788036811  1766267748  -464376575   796408257   177401363
#
#      Author: C. J. Pickard (cjp20@cam.ac.uk)
#                Space group: Pc
#

%BLOCK LATTICE_ABC
      4.10260      4.84523     10.07823
     90.00000     90.00000     93.31673
%ENDBLOCK LATTICE_ABC

%BLOCK POSITIONS_FRAC
  Li   0.1770324  -0.2776017  -0.3536758 SPIN=   0.00000
  Li   0.1770324   0.2223983   0.3536758 SPIN=   0.00000
  Fe  -0.2365297   0.2129935  -0.3575386 SPIN=   4.00000
  Fe  -0.2365297  -0.2870065   0.3575386 SPIN=   4.00000
   O  -0.3749037  -0.2054264  -0.2830865 SPIN=   0.00000
   O  -0.0492209  -0.0634305  -0.0853165 SPIN=   0.00000
   O  -0.1060481  -0.5565643  -0.1500874 SPIN=   0.00000
   O  -0.5801039  -0.3268883  -0.0584096 SPIN=   0.00000
   S  -0.2775692  -0.2880774  -0.1442250 SPIN=   0.00000
   O  -0.3749037   0.2945736   0.2830865 SPIN=   0.00000
   O  -0.0492209   0.4365695   0.0853165 SPIN=   0.00000
   O  -0.1060481  -0.0565643   0.1500874 SPIN=   0.00000
   O  -0.5801039   0.1731117   0.0584096 SPIN=   0.00000
   S  -0.2775692   0.2119226   0.1442250 SPIN=   0.00000
   F   0.2648408   0.2343547  -0.3483857 SPIN=   0.00000
   F   0.2648408  -0.2656453   0.3483857 SPIN=   0.00000
%ENDBLOCK POSITIONS_FRAC

# Note: total spin =   8.00

KPOINTS_MP_SPACING 0.07

%BLOCK SPECIES_POT
QC5
%ENDBLOCK SPECIES_POT

SNAP_TO_SYMMETRY
SYMMETRY_GENERATE

