#              Generated by Buildcell
#
# at 04:41:10 (GMT+1.0) 4th August 2020
# in /lustre/scratch/uccabz1/launch_tmp
# on node-c12f-007
# by uccabz1
#
# compiler GCC version 4.9.2
# options -cpp -iprefix /lustre/shared/ucl/apps/gcc/4.9.2/bin/../lib/gcc/x86_64-unknown-linux-gnu/4.9.2/ -mtune=corei7 -march=x86-64 -g -Og
#
# seed -1763134313  1939589278   716753058 -1509120157   -25955079  1311294262 -1701505195 -1008677916 -1080718466   189236060  -160969810  -777237251
#
#      Author: C. J. Pickard (cjp20@cam.ac.uk)
#                Space group: Pc
#

%BLOCK LATTICE_ABC
      4.83826      4.90702      8.73804
     90.00000    105.40537     90.00000
%ENDBLOCK LATTICE_ABC

%BLOCK POSITIONS_FRAC
  Li  -0.4015164   0.1779436  -0.0871361 SPIN=   0.00000
  Li   0.5984836  -0.1779436   0.4128639 SPIN=   0.00000
  Fe   0.1424922   0.1177201   0.1713274 SPIN=   4.00000
  Fe   0.1424922  -0.1177201  -0.3286726 SPIN=   4.00000
   O  -0.6167449  -0.5455513   0.1120755 SPIN=   0.00000
   O  -0.2462979  -0.4078569  -0.0208821 SPIN=   0.00000
   O  -0.1041518  -0.5527291   0.2604924 SPIN=   0.00000
   O  -0.3528964  -0.1124250   0.1858265 SPIN=   0.00000
   S  -0.3300227  -0.4046406   0.1343781 SPIN=   0.00000
   O  -0.6167449   0.5455513  -0.3879245 SPIN=   0.00000
   O  -0.2462979   0.4078569  -0.5208821 SPIN=   0.00000
   O  -0.1041518   0.5527291  -0.2395076 SPIN=   0.00000
   O  -0.3528964   0.1124250  -0.3141735 SPIN=   0.00000
   S  -0.3300227   0.4046406  -0.3656219 SPIN=   0.00000
   F   0.2345638   0.0380542  -0.1304686 SPIN=   0.00000
   F   0.2345638  -0.0380542   0.3695314 SPIN=   0.00000
%ENDBLOCK POSITIONS_FRAC

# Note: total spin =   8.00

KPOINTS_MP_SPACING 0.07

%BLOCK SPECIES_POT
QC5
%ENDBLOCK SPECIES_POT

SNAP_TO_SYMMETRY
SYMMETRY_GENERATE

