#              Generated by Buildcell
#
# at 22:29:45 (GMT+1.0) 18th August 2020
# in /scratch/scratch/uccabz1/launch_tmp
# on node-k10h-020
# by uccabz1
#
# compiler GCC version 4.9.2
# options -cpp -iprefix /scratch/UCL/applications/gcc/4.9.2/bin/../lib/gcc/x86_64-unknown-linux-gnu/4.9.2/ -mtune=corei7 -march=x86-64 -g -O2
#
# seed   690829975 -2118610387  1950309410  1082812864 -2012566578 -1704932612  1867190196 -1972277182   730101135 -2028454042  -115865036  2103857611
#
#      Author: C. J. Pickard (cjp20@cam.ac.uk)
#                Space group: Cm
#

%BLOCK LATTICE_ABC
      5.94262      5.94262      6.98574
    113.26362    113.91160     93.39589
%ENDBLOCK LATTICE_ABC

%BLOCK POSITIONS_FRAC
  Li   0.5435815  -0.1536837   0.3898978 SPIN=   0.00000
  Li  -0.8311967   0.3637022  -0.4674944 SPIN=   0.00000
  Fe  -0.0091368  -0.2152558  -0.2243926 SPIN=   3.78156
  Fe  -0.4012710   0.2396923  -0.1615787 SPIN=   4.21844
   O  -0.3112614  -0.3743562   0.0420575 SPIN=   0.00000
   O  -0.1372149   0.0901337   0.2252757 SPIN=   0.00000
   O   0.1546098  -0.1902388   0.2366587 SPIN=   0.00000
   O  -0.0712949  -0.1245088   0.4763092 SPIN=   0.00000
   S  -0.0912904  -0.1497425   0.2450753 SPIN=   0.00000
   O   0.4164137   0.3533189   0.0420575 SPIN=   0.00000
   O   0.1351421   0.3624906   0.2252757 SPIN=   0.00000
   O   0.4268975   0.0820489   0.2366587 SPIN=   0.00000
   O   0.6008179   0.5476041   0.4763092 SPIN=   0.00000
   S   0.3948178   0.3363656   0.2450753 SPIN=   0.00000
   F  -0.5778709  -0.1298044  -0.2511800 SPIN=   0.00000
   F  -0.1213757   0.3266908  -0.2511800 SPIN=   0.00000
%ENDBLOCK POSITIONS_FRAC

# Note: total spin =   8.00

KPOINTS_MP_SPACING 0.07

%BLOCK SPECIES_POT
QC5
%ENDBLOCK SPECIES_POT

SNAP_TO_SYMMETRY
SYMMETRY_GENERATE

