#              Generated by Buildcell
#
# at 22:03:42 (GMT+1.0) 18th August 2020
# in /lustre/scratch/uccabz1/launch_tmp
# on node-c12g-028
# by uccabz1
#
# compiler GCC version 4.9.2
# options -cpp -iprefix /lustre/shared/ucl/apps/gcc/4.9.2/bin/../lib/gcc/x86_64-unknown-linux-gnu/4.9.2/ -mtune=corei7 -march=x86-64 -g -Og
#
# seed -1227945994  1774602747 -1303239308   422011973   416078789 -1871013060 -1942957017   881395674   600048059 -1959054283 -2118513054   768333748
#
#      Author: C. J. Pickard (cjp20@cam.ac.uk)
#                Space group: C2
#

%BLOCK LATTICE_ABC
      4.82036      6.92718      6.92718
    105.53979    105.47882    105.47882
%ENDBLOCK LATTICE_ABC

%BLOCK POSITIONS_FRAC
  Li   0.0000000  -0.1518008   0.1518008 SPIN=   0.00000
  Li  -0.5000000   0.3471095  -0.3471095 SPIN=   0.00000
  Fe  -0.5000000  -0.3132102   0.3132102 SPIN=   1.80705
  Fe  -0.0000000   0.1866059  -0.1866059 SPIN=   6.19295
   O   0.1546184   0.4700578   0.3577953 SPIN=   0.00000
   O   0.2950557   0.1709890   0.1773813 SPIN=   0.00000
   O  -0.2342226   0.1683645   0.0303925 SPIN=   0.00000
   O  -0.0613031   0.1100943   0.3729276 SPIN=   0.00000
   O  -0.1546184  -0.3577953  -0.4700578 SPIN=   0.00000
   O  -0.2950557  -0.1773813  -0.1709890 SPIN=   0.00000
   O   0.2342226  -0.0303925  -0.1683645 SPIN=   0.00000
   O   0.0613031  -0.3729276  -0.1100943 SPIN=   0.00000
   S   0.0000000   0.4836804  -0.4836804 SPIN=   0.00000
   S   0.5000000  -0.0161254   0.0161254 SPIN=   0.00000
   F   0.4087060  -0.0026646  -0.4990928 SPIN=   0.00000
   F  -0.4087060   0.4990928   0.0026646 SPIN=   0.00000
%ENDBLOCK POSITIONS_FRAC

# Note: total spin =   8.00

KPOINTS_MP_SPACING 0.07

%BLOCK SPECIES_POT
QC5
%ENDBLOCK SPECIES_POT

SNAP_TO_SYMMETRY
SYMMETRY_GENERATE

