#              Generated by Buildcell
#
# at 00:50:41 (GMT+1.0) 19th August 2020
# in /lustre/scratch/uccabz1/launch_tmp
# on node-c12g-024
# by uccabz1
#
# compiler GCC version 4.9.2
# options -cpp -iprefix /lustre/shared/ucl/apps/gcc/4.9.2/bin/../lib/gcc/x86_64-unknown-linux-gnu/4.9.2/ -mtune=corei7 -march=x86-64 -g -Og
#
# seed  -852467136   959064386 -1450902846   376336462  1680657741  -331648531 -2074512278 -2054417470  -134818865  -680755363  -965504411  -781091794
#
#      Author: C. J. Pickard (cjp20@cam.ac.uk)
#                Space group: Pc
#

%BLOCK LATTICE_ABC
      4.30470      6.29563      7.55889
    102.49514     90.00000     90.00000
%ENDBLOCK LATTICE_ABC

%BLOCK POSITIONS_FRAC
  Li  -0.0509133   0.0963242  -0.2334902 SPIN=   0.00000
  Li   0.0509133   0.0963242   0.2665098 SPIN=   0.00000
  Fe   0.4491056  -0.1237933  -0.4697824 SPIN=   4.00000
  Fe  -0.4491056  -0.1237933   0.0302176 SPIN=   4.00000
   O  -0.7497949   0.4632613   0.4118007 SPIN=   0.00000
   O  -0.5169415   0.0951705   0.3505364 SPIN=   0.00000
   O  -0.2307179   0.4068678   0.5347239 SPIN=   0.00000
   O  -0.2989075   0.3789604   0.2053866 SPIN=   0.00000
   S  -0.4490904   0.3360650   0.3756119 SPIN=   0.00000
   O   0.7497949   0.4632613  -0.0881993 SPIN=   0.00000
   O   0.5169415   0.0951705  -0.1494636 SPIN=   0.00000
   O   0.2307179   0.4068678   0.0347239 SPIN=   0.00000
   O   0.2989075   0.3789604  -0.2946134 SPIN=   0.00000
   S   0.4490904   0.3360650  -0.1243881 SPIN=   0.00000
   F   0.0034611  -0.2119995   0.2451322 SPIN=   0.00000
   F  -0.0034611  -0.2119995  -0.2548678 SPIN=   0.00000
%ENDBLOCK POSITIONS_FRAC

# Note: total spin =   8.00

KPOINTS_MP_SPACING 0.07

%BLOCK SPECIES_POT
QC5
%ENDBLOCK SPECIES_POT

SNAP_TO_SYMMETRY
SYMMETRY_GENERATE

