#              Generated by Buildcell
#
# at 02:33:47 (GMT+1.0) 19th August 2020
# in /lustre/scratch/uccabz1/launch_tmp
# on node-c12m-029
# by uccabz1
#
# compiler GCC version 4.9.2
# options -cpp -iprefix /lustre/shared/ucl/apps/gcc/4.9.2/bin/../lib/gcc/x86_64-unknown-linux-gnu/4.9.2/ -mtune=corei7 -march=x86-64 -g -Og
#
# seed  -462030943  1869022098  1648421629  1006922439 -2118496582    90103823  -608382758  1704520060   989648146 -1627843270  1587564549   500129920
#
#      Author: C. J. Pickard (cjp20@cam.ac.uk)
#                Space group: Pba2
#

%BLOCK LATTICE_ABC
      5.41009      5.47434      6.75295
     90.00000     90.00000     90.00000
%ENDBLOCK LATTICE_ABC

%BLOCK POSITIONS_FRAC
  Li  -0.0000000   0.0000000   0.1514867 SPIN=   0.00000
  Li   0.5000000  -0.5000000   0.1514867 SPIN=   0.00000
  Fe  -0.0000000   0.5000000   0.3871097 SPIN=   4.00000
  Fe   0.5000000   0.0000000   0.3871097 SPIN=   4.00000
   O   0.1867726  -0.3064485   0.0425033 SPIN=   0.00000
   O  -0.1070709  -0.2930707  -0.2381692 SPIN=   0.00000
   O  -0.1867726   0.3064485   0.0425033 SPIN=   0.00000
   O   0.1070709   0.2930707  -0.2381692 SPIN=   0.00000
   O   0.3132274   0.1935515   0.0425033 SPIN=   0.00000
   O   0.6070709   0.2069293  -0.2381692 SPIN=   0.00000
   O  -0.3132274  -0.1935515   0.0425033 SPIN=   0.00000
   O  -0.6070709  -0.2069293  -0.2381692 SPIN=   0.00000
   S   0.5000000   0.0000000  -0.1128903 SPIN=   0.00000
   S  -0.0000000   0.5000000  -0.1128903 SPIN=   0.00000
   F  -0.0000000   0.0000000   0.4343257 SPIN=   0.00000
   F   0.5000000   0.5000000   0.4343257 SPIN=   0.00000
%ENDBLOCK POSITIONS_FRAC

# Note: total spin =   8.00

KPOINTS_MP_SPACING 0.07

%BLOCK SPECIES_POT
QC5
%ENDBLOCK SPECIES_POT

SNAP_TO_SYMMETRY
SYMMETRY_GENERATE

