#              Generated by Buildcell
#
# at 05:27:15 (GMT+1.0) 4th August 2020
# in /lustre/scratch/uccabz1/launch_tmp
# on node-c12f-035
# by uccabz1
#
# compiler GCC version 4.9.2
# options -cpp -iprefix /lustre/shared/ucl/apps/gcc/4.9.2/bin/../lib/gcc/x86_64-unknown-linux-gnu/4.9.2/ -mtune=corei7 -march=x86-64 -g -Og
#
# seed -1459719860    11677967   492474237  -723211527  -652585125   801307741  1180636610 -1325144737    -5778396   668283123  1466509416 -2051251863
#
#      Author: C. J. Pickard (cjp20@cam.ac.uk)
#                Space group: P-1
#

%BLOCK LATTICE_ABC
      4.16951      6.59930      7.29482
     91.12265     94.43466     91.56886
%ENDBLOCK LATTICE_ABC

%BLOCK POSITIONS_FRAC
  Li   0.3498962   0.3834367  -0.2720920 SPIN=   0.00000
  Li  -0.3498962  -0.3834367   0.2720920 SPIN=   0.00000
  Fe  -0.1609896   0.2479103   0.0321388 SPIN=   4.00000
  Fe   0.1609896  -0.2479103  -0.0321388 SPIN=   4.00000
   O   0.1384404   0.3849189   0.2806994 SPIN=   0.00000
   O   0.6722991   0.3697865   0.4527493 SPIN=   0.00000
   O   0.4924920   0.0985777   0.2257888 SPIN=   0.00000
   O   0.2350612   0.1274500   0.5193499 SPIN=   0.00000
   S   0.3845732   0.2451833   0.3696469 SPIN=   0.00000
   O  -0.1384404  -0.3849189  -0.2806994 SPIN=   0.00000
   O  -0.6722991  -0.3697865  -0.4527493 SPIN=   0.00000
   O  -0.4924920  -0.0985777  -0.2257888 SPIN=   0.00000
   O  -0.2350612  -0.1274500  -0.5193499 SPIN=   0.00000
   S  -0.3845732  -0.2451833  -0.3696469 SPIN=   0.00000
   F   0.0352663  -0.2506421   0.2034159 SPIN=   0.00000
   F  -0.0352663   0.2506421  -0.2034159 SPIN=   0.00000
%ENDBLOCK POSITIONS_FRAC

# Note: total spin =   8.00

KPOINTS_MP_SPACING 0.07

%BLOCK SPECIES_POT
QC5
%ENDBLOCK SPECIES_POT

SNAP_TO_SYMMETRY
SYMMETRY_GENERATE

