#              Generated by Buildcell
#
# at 03:02:24 (GMT+1.0) 19th August 2020
# in /scratch/scratch/uccabz1/launch_tmp
# on node-k10b-028
# by uccabz1
#
# compiler GCC version 4.9.2
# options -cpp -iprefix /scratch/UCL/applications/gcc/4.9.2/bin/../lib/gcc/x86_64-unknown-linux-gnu/4.9.2/ -mtune=corei7 -march=x86-64 -g -O2
#
# seed  1465443235  -942749501 -1741113350  -808360415  -290905006   117391325 -2057973762  1020736400  1763246239  -847988540 -1246615660 -1929157035
#
#      Author: C. J. Pickard (cjp20@cam.ac.uk)
#                Space group: Cc
#

%BLOCK LATTICE_ABC
      4.82583      6.74323      7.30139
    112.84100    103.15747    102.86864
%ENDBLOCK LATTICE_ABC

%BLOCK POSITIONS_FRAC
  Li  -0.0548513  -0.3324261  -0.4196857 SPIN=   0.00000
  Li  -0.1351656   0.0872597   0.4196857 SPIN=   0.00000
  Fe  -0.4702070  -0.4664558  -0.2208829 SPIN=   4.00000
  Fe   0.2506759  -0.2455729   0.2208829 SPIN=   4.00000
   O  -0.8194810   0.0201920  -0.2671398 SPIN=   0.00000
   O  -0.4157601  -0.1305839  -0.1721706 SPIN=   0.00000
   O  -0.2830250   0.2782755  -0.0899194 SPIN=   0.00000
   O  -0.4614081  -0.0225847  -0.4623582 SPIN=   0.00000
   S  -0.4949185   0.0363247  -0.2478970 SPIN=   0.00000
   O  -0.0523412   0.2873318   0.2671398 SPIN=   0.00000
   O   0.2564105   0.0415866   0.1721706 SPIN=   0.00000
   O   0.3068944   0.3681949   0.0899194 SPIN=   0.00000
   O   0.5009501   0.4397734   0.4623582 SPIN=   0.00000
   S   0.2529785   0.2842217   0.2478970 SPIN=   0.00000
   F   0.0864417   0.4970711  -0.2531505 SPIN=   0.00000
   F  -0.1604078  -0.2497783   0.2531505 SPIN=   0.00000
%ENDBLOCK POSITIONS_FRAC

# Note: total spin =   8.00

KPOINTS_MP_SPACING 0.07

%BLOCK SPECIES_POT
QC5
%ENDBLOCK SPECIES_POT

SNAP_TO_SYMMETRY
SYMMETRY_GENERATE

