#              Generated by Buildcell
#
# at 05:10:14 (GMT+1.0) 4th August 2020
# in /lustre/scratch/uccabz1/launch_tmp
# on node-c12l-010
# by uccabz1
#
# compiler GCC version 4.9.2
# options -cpp -iprefix /lustre/shared/ucl/apps/gcc/4.9.2/bin/../lib/gcc/x86_64-unknown-linux-gnu/4.9.2/ -mtune=corei7 -march=x86-64 -g -Og
#
# seed  1377667568  -599351332  1825423842  2058157495   810472774   743220998 -1281107955  -251640653  -829508240 -1293369596   183563741  1816143802
#
#      Author: C. J. Pickard (cjp20@cam.ac.uk)
#                Space group: Pc
#

%BLOCK LATTICE_ABC
      3.90506      6.75779      8.14627
    111.51301     90.00000     90.00000
%ENDBLOCK LATTICE_ABC

%BLOCK POSITIONS_FRAC
  Li  -0.2352177   0.1801680  -0.1196188 SPIN=   0.00000
  Li   0.2352177  -0.3198320  -0.1196188 SPIN=   0.00000
  Fe   0.2227000   0.2837899  -0.4606666 SPIN=   4.00000
  Fe  -0.2227000  -0.2162101  -0.4606666 SPIN=   4.00000
   O  -0.0560184  -0.0784793   0.3260773 SPIN=   0.00000
   O  -0.5026226  -0.1476202   0.0961987 SPIN=   0.00000
   O   0.0003105   0.0741256   0.0937590 SPIN=   0.00000
   O  -0.4416359   0.2119778   0.3256845 SPIN=   0.00000
   S  -0.2499916   0.0150010   0.2104299 SPIN=   0.00000
   O   0.0560184  -0.5784793   0.3260773 SPIN=   0.00000
   O   0.5026226  -0.6476202   0.0961987 SPIN=   0.00000
   O  -0.0003105  -0.4258744   0.0937590 SPIN=   0.00000
   O   0.4416359  -0.2880222   0.3256845 SPIN=   0.00000
   S   0.2499916  -0.4849990   0.2104299 SPIN=   0.00000
   F   0.2500782  -0.2182068  -0.3141649 SPIN=   0.00000
   F  -0.2500782   0.2817932  -0.3141649 SPIN=   0.00000
%ENDBLOCK POSITIONS_FRAC

# Note: total spin =   8.00

KPOINTS_MP_SPACING 0.07

%BLOCK SPECIES_POT
QC5
%ENDBLOCK SPECIES_POT

SNAP_TO_SYMMETRY
SYMMETRY_GENERATE

