#              Generated by Buildcell
#
# at 18:37:00 (GMT+1.0) 18th August 2020
# in /scratch/scratch/uccabz1/launch_tmp
# on node-k10i-017
# by uccabz1
#
# compiler GCC version 4.9.2
# options -cpp -iprefix /scratch/UCL/applications/gcc/4.9.2/bin/../lib/gcc/x86_64-unknown-linux-gnu/4.9.2/ -mtune=corei7 -march=x86-64 -g -O2
#
# seed  -102960716 -1315322821   670211591   242143230  1126474906 -1152830664  1711941114 -2045435424 -1104026206 -1342696431 -1685581498  1989551109
#
#      Author: C. J. Pickard (cjp20@cam.ac.uk)
#                Space group: P2
#

%BLOCK LATTICE_ABC
      4.47200      5.52353      8.25297
    101.16452     90.00000     90.00000
%ENDBLOCK LATTICE_ABC

%BLOCK POSITIONS_FRAC
  Li  -0.4296585   0.0000000  -0.5000000 SPIN=   0.00000
  Li   0.0444223   0.5000000   0.0000000 SPIN=   0.00000
  Fe   0.2480877   0.5000000  -0.5000000 SPIN=   1.18842
  Fe  -0.3815253  -0.0000000   0.0000000 SPIN=   6.81158
   O  -0.2047472   0.1625459  -0.2904256 SPIN=   0.00000
   O   0.1835120   0.1424067  -0.0797524 SPIN=   0.00000
   O   0.3218397   0.2595753  -0.3445487 SPIN=   0.00000
   O   0.1739262  -0.1704125  -0.3387159 SPIN=   0.00000
   S   0.1186327   0.0985289  -0.2633606 SPIN=   0.00000
   O  -0.2047472  -0.1625459   0.2904256 SPIN=   0.00000
   O   0.1835120  -0.1424067   0.0797524 SPIN=   0.00000
   O   0.3218397  -0.2595753   0.3445487 SPIN=   0.00000
   O   0.1739262   0.1704125   0.3387159 SPIN=   0.00000
   S   0.1186327  -0.0985289   0.2633606 SPIN=   0.00000
   F  -0.3805990   0.5000000   0.0000000 SPIN=   0.00000
   F  -0.2487517  -0.5000000  -0.5000000 SPIN=   0.00000
%ENDBLOCK POSITIONS_FRAC

# Note: total spin =   8.00

KPOINTS_MP_SPACING 0.07

%BLOCK SPECIES_POT
QC5
%ENDBLOCK SPECIES_POT

SNAP_TO_SYMMETRY
SYMMETRY_GENERATE

