#              Generated by Buildcell
#
# at 04:01:24 (GMT+1.0) 4th August 2020
# in /lustre/scratch/uccabz1/launch_tmp
# on node-c12f-014
# by uccabz1
#
# compiler GCC version 4.9.2
# options -cpp -iprefix /lustre/shared/ucl/apps/gcc/4.9.2/bin/../lib/gcc/x86_64-unknown-linux-gnu/4.9.2/ -mtune=corei7 -march=x86-64 -g -Og
#
# seed   484739232   -69225997  -774265029  1439578101  1861748051   -85218094  1108702212  -717003150 -1320362393 -1608492031  1300838659   519961670
#
#      Author: C. J. Pickard (cjp20@cam.ac.uk)
#                Space group: P2/c
#

%BLOCK LATTICE_ABC
      5.31077      5.96073      6.63562
    107.80182     90.00000     90.00000
%ENDBLOCK LATTICE_ABC

%BLOCK POSITIONS_FRAC
  Li   0.2507512   0.2500000   0.5000000 SPIN=   0.00000
  Li  -0.2507512  -0.2500000   0.5000000 SPIN=   0.00000
  Fe  -0.2177259   0.2500000   0.0000000 SPIN=   4.00000
  Fe   0.2177259  -0.2500000   0.0000000 SPIN=   4.00000
   O  -0.1496528   0.0734381  -0.3312862 SPIN=   0.00000
   O  -0.5563036  -0.1148004  -0.2977721 SPIN=   0.00000
   O  -0.1496528  -0.5734381   0.3312862 SPIN=   0.00000
   O  -0.5563036  -0.3851996   0.2977721 SPIN=   0.00000
   O   0.1496528  -0.0734381   0.3312862 SPIN=   0.00000
   O   0.5563036   0.1148004   0.2977721 SPIN=   0.00000
   O   0.1496528   0.5734381  -0.3312862 SPIN=   0.00000
   O   0.5563036   0.3851996  -0.2977721 SPIN=   0.00000
   S  -0.2500554   0.2500000  -0.5000000 SPIN=   0.00000
   S   0.2500554  -0.2500000  -0.5000000 SPIN=   0.00000
   F   0.2017798   0.2500000   0.0000000 SPIN=   0.00000
   F  -0.2017798  -0.2500000  -0.0000000 SPIN=   0.00000
%ENDBLOCK POSITIONS_FRAC

# Note: total spin =   8.00

KPOINTS_MP_SPACING 0.07

%BLOCK SPECIES_POT
QC5
%ENDBLOCK SPECIES_POT

SNAP_TO_SYMMETRY
SYMMETRY_GENERATE

