#              Generated by Buildcell
#
# at 01:59:08 (GMT+1.0) 19th August 2020
# in /scratch/scratch/uccabz1/launch_tmp
# on node-k10i-003
# by uccabz1
#
# compiler GCC version 4.9.2
# options -cpp -iprefix /scratch/UCL/applications/gcc/4.9.2/bin/../lib/gcc/x86_64-unknown-linux-gnu/4.9.2/ -mtune=corei7 -march=x86-64 -g -O2
#
# seed   687304408  -690014385 -1080470502  -223572813   232039363  1441195167 -1053266227   230384136  -319202792 -2050831889  1542364222   665643045
#
#      Author: C. J. Pickard (cjp20@cam.ac.uk)
#                Space group: Cm
#

%BLOCK LATTICE_ABC
      4.41680      6.95548      6.95548
     86.40650     75.34411     75.34411
%ENDBLOCK LATTICE_ABC

%BLOCK POSITIONS_FRAC
  Li  -0.1264669   0.2579432  -0.1607476 SPIN=   0.00000
  Li  -0.1264669  -0.1607476   0.2579432 SPIN=   0.00000
  Fe  -1.0109996   0.2801252   0.2801252 SPIN=   4.38596
  Fe   1.0723192  -0.3665128  -0.3665128 SPIN=   3.61404
   O   0.4494882   0.0124802  -0.6165217 SPIN=   0.00000
   O   0.1033732  -0.0055234  -0.2783739 SPIN=   0.00000
   O   0.4894116   0.2079921  -0.3426528 SPIN=   0.00000
   S   0.4332303   0.0142139  -0.3963425 SPIN=   0.00000
   O   0.4494882  -0.6165217   0.0124802 SPIN=   0.00000
   O   0.1033732  -0.2783739  -0.0055234 SPIN=   0.00000
   O   0.4894116  -0.3426528   0.2079921 SPIN=   0.00000
   S   0.4332303  -0.3963425   0.0142139 SPIN=   0.00000
   O   0.5691191  -0.1713611  -0.1713611 SPIN=   0.00000
   O  -0.6060853   0.3582692   0.3582692 SPIN=   0.00000
   F  -0.0742125   0.0949552   0.0949552 SPIN=   0.00000
   F   0.7788319  -0.4973020  -0.4973020 SPIN=   0.00000
%ENDBLOCK POSITIONS_FRAC

# Note: total spin =   8.00

KPOINTS_MP_SPACING 0.07

%BLOCK SPECIES_POT
QC5
%ENDBLOCK SPECIES_POT

SNAP_TO_SYMMETRY
SYMMETRY_GENERATE

