#              Generated by Buildcell
#
# at 05:42:05 (GMT+1.0) 4th August 2020
# in /lustre/scratch/uccabz1/launch_tmp
# on node-c12e-010
# by uccabz1
#
# compiler GCC version 4.9.2
# options -cpp -iprefix /lustre/shared/ucl/apps/gcc/4.9.2/bin/../lib/gcc/x86_64-unknown-linux-gnu/4.9.2/ -mtune=corei7 -march=x86-64 -g -Og
#
# seed -1266045054  1832726392 -1289549892  -960585633 -1023790177 -1475384277  1409266291  1269776360   459060157   745538132 -1623939021  -355111078
#
#      Author: C. J. Pickard (cjp20@cam.ac.uk)
#                Space group: Cc
#

%BLOCK LATTICE_ABC
      5.54387      6.56448      6.72269
     73.06461     65.64901     65.02248
%ENDBLOCK LATTICE_ABC

%BLOCK POSITIONS_FRAC
  Li   0.1099027  -0.2473167   0.4111276 SPIN=   0.00000
  Li  -0.2737136   0.2526833  -0.0888724 SPIN=   0.00000
  Fe   0.1874359  -0.5447488  -0.1778711 SPIN=   4.00000
  Fe  -0.4648160   0.9552512   0.3221289 SPIN=   4.00000
   O  -0.0366842  -0.1920980  -0.2701226 SPIN=   0.00000
   O  -0.4086168   0.1042763  -0.4135369 SPIN=   0.00000
   O  -0.4814173   0.0326050  -0.0141193 SPIN=   0.00000
   O  -0.4826844  -0.2506273  -0.1887644 SPIN=   0.00000
   S  -0.3523507  -0.0764610  -0.2216358 SPIN=   0.00000
   O  -0.5010952   0.3079020   0.2298774 SPIN=   0.00000
   O  -0.2821227   0.6042763   0.0864631 SPIN=   0.00000
   O  -0.5370684   0.5326050   0.4858807 SPIN=   0.00000
   O  -0.0779239   0.2493727   0.3112356 SPIN=   0.00000
   S  -0.3495525   0.4235390   0.2783642 SPIN=   0.00000
   F  -0.0029508  -0.1695616   0.1747046 SPIN=   0.00000
   F  -0.0021922   0.3304384  -0.3252954 SPIN=   0.00000
%ENDBLOCK POSITIONS_FRAC

# Note: total spin =   8.00

KPOINTS_MP_SPACING 0.07

%BLOCK SPECIES_POT
QC5
%ENDBLOCK SPECIES_POT

SNAP_TO_SYMMETRY
SYMMETRY_GENERATE

