#              Generated by Buildcell
#
# at 03:50:47 (GMT+1.0) 4th August 2020
# in /lustre/scratch/uccabz1/launch_tmp
# on node-c12l-018
# by uccabz1
#
# compiler GCC version 4.9.2
# options -cpp -iprefix /lustre/shared/ucl/apps/gcc/4.9.2/bin/../lib/gcc/x86_64-unknown-linux-gnu/4.9.2/ -mtune=corei7 -march=x86-64 -g -Og
#
# seed    96803550 -2083586576 -1721979978  2115285233  -437016455  -182701165   822266117  1191334265  1910567671 -1098489886  -464649935  1871199661
#
#      Author: C. J. Pickard (cjp20@cam.ac.uk)
#                Space group: P-1
#

%BLOCK LATTICE_ABC
      5.14086      5.74309      7.63399
     76.16254     72.95184     69.95117
%ENDBLOCK LATTICE_ABC

%BLOCK POSITIONS_FRAC
  Li  -0.2216023  -0.4746567  -0.2092266 SPIN=   0.00000
  Li   0.2216023   0.4746567   0.2092266 SPIN=   0.00000
  Fe  -0.4026175  -0.2273917   0.3350621 SPIN=   4.00000
  Fe   0.4026175   0.2273917  -0.3350621 SPIN=   4.00000
   O  -0.4147891   0.2609504   0.0314067 SPIN=   0.00000
   O  -0.2217768   0.5416104   0.1235200 SPIN=   0.00000
   O   0.0825476   0.1152388   0.0655832 SPIN=   0.00000
   O  -0.3163889   0.1700219   0.3432165 SPIN=   0.00000
   S  -0.2176018   0.2719554   0.1409316 SPIN=   0.00000
   O   0.4147891  -0.2609504  -0.0314067 SPIN=   0.00000
   O   0.2217768  -0.5416104  -0.1235200 SPIN=   0.00000
   O  -0.0825476  -0.1152388  -0.0655832 SPIN=   0.00000
   O   0.3163889  -0.1700219  -0.3432165 SPIN=   0.00000
   S   0.2176018  -0.2719554  -0.1409316 SPIN=   0.00000
   F   0.7885761   0.2692717  -0.3516738 SPIN=   0.00000
   F  -0.7885761  -0.2692717   0.3516738 SPIN=   0.00000
%ENDBLOCK POSITIONS_FRAC

# Note: total spin =   8.00

KPOINTS_MP_SPACING 0.07

%BLOCK SPECIES_POT
QC5
%ENDBLOCK SPECIES_POT

SNAP_TO_SYMMETRY
SYMMETRY_GENERATE

