#              Generated by Buildcell
#
# at 23:52:28 (GMT+1.0) 18th August 2020
# in /lustre/scratch/uccabz1/launch_tmp
# on node-c12l-016
# by uccabz1
#
# compiler GCC version 4.9.2
# options -cpp -iprefix /lustre/shared/ucl/apps/gcc/4.9.2/bin/../lib/gcc/x86_64-unknown-linux-gnu/4.9.2/ -mtune=corei7 -march=x86-64 -g -Og
#
# seed   976287730   793974086   312717401  -488942416  1477330516   431242587  -621616656 -1027473928 -1234045088   991473393 -1017895254 -1394271849
#
#      Author: C. J. Pickard (cjp20@cam.ac.uk)
#                Space group: P-1
#

%BLOCK LATTICE_ABC
      6.17803      6.28361      6.38162
     77.35199     64.97361     63.05820
%ENDBLOCK LATTICE_ABC

%BLOCK POSITIONS_FRAC
  Li   0.0296076   0.3137404   0.2763156 SPIN=   0.00000
  Li  -0.0296076  -0.3137404  -0.2763156 SPIN=   0.00000
  Fe  -0.1596590  -0.0700523   0.3050380 SPIN=   4.00000
  Fe   0.1596590   0.0700523  -0.3050380 SPIN=   4.00000
   O  -0.6290290   0.2668418  -0.3245743 SPIN=   0.00000
   O  -0.5142966   0.5832783  -0.2884736 SPIN=   0.00000
   O  -0.1678159   0.1811263  -0.4107176 SPIN=   0.00000
   O  -0.4873593   0.2406252  -0.0069785 SPIN=   0.00000
   O   0.6290290  -0.2668418   0.3245743 SPIN=   0.00000
   O   0.5142966  -0.5832783   0.2884736 SPIN=   0.00000
   O   0.1678159  -0.1811263   0.4107176 SPIN=   0.00000
   O   0.4873593  -0.2406252   0.0069785 SPIN=   0.00000
   S  -0.5000000   0.5000000  -0.5000000 SPIN=   0.00000
   S   0.5000000   0.0000000   0.0000000 SPIN=   0.00000
   F   0.1071569  -0.3535527   0.1303170 SPIN=   0.00000
   F  -0.1071569   0.3535527  -0.1303170 SPIN=   0.00000
%ENDBLOCK POSITIONS_FRAC

# Note: total spin =   8.00

KPOINTS_MP_SPACING 0.07

%BLOCK SPECIES_POT
QC5
%ENDBLOCK SPECIES_POT

SNAP_TO_SYMMETRY
SYMMETRY_GENERATE

