#              Generated by Buildcell
#
# at 05:03:35 (GMT+1.0) 4th August 2020
# in /lustre/scratch/uccabz1/launch_tmp
# on node-c12p-012
# by uccabz1
#
# compiler GCC version 4.9.2
# options -cpp -iprefix /lustre/shared/ucl/apps/gcc/4.9.2/bin/../lib/gcc/x86_64-unknown-linux-gnu/4.9.2/ -mtune=corei7 -march=x86-64 -g -Og
#
# seed   518452862  1194577143  1458145424   731730956 -1256525475 -1911243448   -58851722  2118681069    14048276 -1117776488   -74258369  1158767800
#
#      Author: C. J. Pickard (cjp20@cam.ac.uk)
#                Space group: Pba2
#

%BLOCK LATTICE_ABC
      4.79070      5.94787      7.01891
     90.00000     90.00000     90.00000
%ENDBLOCK LATTICE_ABC

%BLOCK POSITIONS_FRAC
  Li  -0.5000000  -0.0000000  -0.2369999 SPIN=   0.00000
  Li  -0.0000000  -0.5000000  -0.2369999 SPIN=   0.00000
  Fe  -0.0000000  -0.5000000   0.1979788 SPIN=   4.00000
  Fe   0.5000000  -0.0000000   0.1979788 SPIN=   4.00000
   O  -0.2344025   0.2395269  -0.2905932 SPIN=   0.00000
   O  -0.4743486   0.2693302  -0.6018294 SPIN=   0.00000
   O   0.2344025  -0.2395269  -0.2905932 SPIN=   0.00000
   O   0.4743486  -0.2693302  -0.6018294 SPIN=   0.00000
   O   0.2655975   0.2604731  -0.2905932 SPIN=   0.00000
   O   0.0256514   0.2306698  -0.6018294 SPIN=   0.00000
   O  -0.2655975  -0.2604731  -0.2905932 SPIN=   0.00000
   O  -0.0256514  -0.2306698  -0.6018294 SPIN=   0.00000
   S   0.0000000   0.0000000  -0.4780382 SPIN=   0.00000
   S  -0.5000000  -0.5000000  -0.4780382 SPIN=   0.00000
   F  -0.0000000  -0.0000000   0.0219618 SPIN=   0.00000
   F   0.5000000  -0.5000000   0.0219618 SPIN=   0.00000
%ENDBLOCK POSITIONS_FRAC

# Note: total spin =   8.00

KPOINTS_MP_SPACING 0.07

%BLOCK SPECIES_POT
QC5
%ENDBLOCK SPECIES_POT

SNAP_TO_SYMMETRY
SYMMETRY_GENERATE

