#              Generated by Buildcell
#
# at 04:30:42 (GMT+1.0) 4th August 2020
# in /lustre/scratch/uccabz1/launch_tmp
# on node-c12e-020
# by uccabz1
#
# compiler GCC version 4.9.2
# options -cpp -iprefix /lustre/shared/ucl/apps/gcc/4.9.2/bin/../lib/gcc/x86_64-unknown-linux-gnu/4.9.2/ -mtune=corei7 -march=x86-64 -g -Og
#
# seed -1825041059 -1586609102  -711190231  -558947614 -1357499733  -564900202 -1037762927   -77235887 -1147254175    26558925  1588830328  -358279770
#
#      Author: C. J. Pickard (cjp20@cam.ac.uk)
#                Space group: Cc
#

%BLOCK LATTICE_ABC
      5.12125      5.12125      7.65343
     86.73150     86.73150     88.24697
%ENDBLOCK LATTICE_ABC

%BLOCK POSITIONS_FRAC
  Li  -0.1561052   0.3917295   0.4862354 SPIN=   0.00000
  Li   0.3917295  -0.1561052  -0.0137646 SPIN=   0.00000
  Fe   0.3634348   0.2519229   0.3065522 SPIN=   4.00000
  Fe   0.2519229   0.3634348  -0.1934478 SPIN=   4.00000
   O  -0.1765823   0.2144123   0.0164583 SPIN=   0.00000
   O  -0.3720094  -0.1594734   0.1909680 SPIN=   0.00000
   O   0.0795373  -0.0321266   0.2390507 SPIN=   0.00000
   O  -0.0164648  -0.2372748  -0.0343960 SPIN=   0.00000
   S  -0.1213798  -0.0536156   0.1030203 SPIN=   0.00000
   O   0.2144123  -0.1765823  -0.4835417 SPIN=   0.00000
   O  -0.1594734  -0.3720094  -0.3090320 SPIN=   0.00000
   O  -0.0321266   0.0795373  -0.2609493 SPIN=   0.00000
   O  -0.2372748  -0.0164648  -0.5343960 SPIN=   0.00000
   S  -0.0536156  -0.1213798  -0.3969797 SPIN=   0.00000
   F   0.4550366   0.3871591  -0.4455313 SPIN=   0.00000
   F   0.3871591   0.4550366   0.0544687 SPIN=   0.00000
%ENDBLOCK POSITIONS_FRAC

# Note: total spin =   8.00

KPOINTS_MP_SPACING 0.07

%BLOCK SPECIES_POT
QC5
%ENDBLOCK SPECIES_POT

SNAP_TO_SYMMETRY
SYMMETRY_GENERATE

