#              Generated by Buildcell
#
# at 01:57:04 (GMT+1.0) 19th August 2020
# in /lustre/scratch/uccabz1/launch_tmp
# on node-c12l-014
# by uccabz1
#
# compiler GCC version 4.9.2
# options -cpp -iprefix /lustre/shared/ucl/apps/gcc/4.9.2/bin/../lib/gcc/x86_64-unknown-linux-gnu/4.9.2/ -mtune=corei7 -march=x86-64 -g -Og
#
# seed    89396097  -787041291   860148407  2085992299 -1418528243   858531368   877473391 -1995375203 -1419490983 -1287847201   273714692  2124561165
#
#      Author: C. J. Pickard (cjp20@cam.ac.uk)
#                Space group: P-1
#

%BLOCK LATTICE_ABC
      4.24140      6.83335      7.62918
    111.93704     98.91630     95.11782
%ENDBLOCK LATTICE_ABC

%BLOCK POSITIONS_FRAC
  Li   0.2319775   0.2202245  -0.0649802 SPIN=   0.00000
  Li  -0.2319775  -0.2202245   0.0649802 SPIN=   0.00000
  Fe   0.4021769  -0.2952829   0.3765168 SPIN=   4.00000
  Fe  -0.4021769   0.2952829  -0.3765168 SPIN=   4.00000
   O   0.3387318  -0.0698007  -0.1516076 SPIN=   0.00000
   O   0.2618431  -0.4209454  -0.4250334 SPIN=   0.00000
   O  -0.1638418  -0.3272633  -0.2337169 SPIN=   0.00000
   O   0.3536665  -0.3997835  -0.0896268 SPIN=   0.00000
   S   0.1975999  -0.3044482  -0.2249962 SPIN=   0.00000
   O  -0.3387318   0.0698007   0.1516076 SPIN=   0.00000
   O  -0.2618431   0.4209454   0.4250334 SPIN=   0.00000
   O   0.1638418   0.3272633   0.2337169 SPIN=   0.00000
   O  -0.3536665   0.3997835   0.0896268 SPIN=   0.00000
   S  -0.1975999   0.3044482   0.2249962 SPIN=   0.00000
   F   0.1714673  -0.1225094   0.2813895 SPIN=   0.00000
   F  -0.1714673   0.1225094  -0.2813895 SPIN=   0.00000
%ENDBLOCK POSITIONS_FRAC

# Note: total spin =   8.00

KPOINTS_MP_SPACING 0.07

%BLOCK SPECIES_POT
QC5
%ENDBLOCK SPECIES_POT

SNAP_TO_SYMMETRY
SYMMETRY_GENERATE

