#              Generated by Buildcell
#
# at 01:52:59 (GMT+1.0) 19th August 2020
# in /lustre/scratch/uccabz1/launch_tmp
# on node-c12e-025
# by uccabz1
#
# compiler GCC version 4.9.2
# options -cpp -iprefix /lustre/shared/ucl/apps/gcc/4.9.2/bin/../lib/gcc/x86_64-unknown-linux-gnu/4.9.2/ -mtune=corei7 -march=x86-64 -g -Og
#
# seed  1674674668  -412574300  1939548295  -624905018 -1763460649 -1336704016 -1807775468   530152843  1281057625  1963873575  1951379680 -1452691204
#
#      Author: C. J. Pickard (cjp20@cam.ac.uk)
#                Space group: Cm
#

%BLOCK LATTICE_ABC
      5.58642      5.58642      6.42208
     87.37340     87.37340     89.76875
%ENDBLOCK LATTICE_ABC

%BLOCK POSITIONS_FRAC
  Li   0.0120039   0.0120039  -0.4390283 SPIN=   0.00000
  Li  -0.4707235  -0.4707235  -0.3708119 SPIN=   0.00000
  Fe  -0.4878621  -0.0095395  -0.1244450 SPIN=   4.00000
  Fe  -0.0095395  -0.4878621  -0.1244450 SPIN=   4.00000
   O  -0.1046118  -0.4223108   0.1848774 SPIN=   0.00000
   O  -0.0800287  -0.3713280   0.5640781 SPIN=   0.00000
   O   0.2878878  -0.3502852   0.3342353 SPIN=   0.00000
   S   0.0461917  -0.4705619   0.3725761 SPIN=   0.00000
   O  -0.4223108  -0.1046118   0.1848774 SPIN=   0.00000
   O  -0.3713280  -0.0800287   0.5640781 SPIN=   0.00000
   O  -0.3502852   0.2878878   0.3342353 SPIN=   0.00000
   S  -0.4705619   0.0461917   0.3725761 SPIN=   0.00000
   O   0.2166098   0.2166098   0.3354000 SPIN=   0.00000
   O   0.2746633   0.2746633  -0.2595913 SPIN=   0.00000
   F   0.2606199  -0.2393290  -0.1452890 SPIN=   0.00000
   F  -0.2393290   0.2606199  -0.1452890 SPIN=   0.00000
%ENDBLOCK POSITIONS_FRAC

# Note: total spin =   8.00

KPOINTS_MP_SPACING 0.07

%BLOCK SPECIES_POT
QC5
%ENDBLOCK SPECIES_POT

SNAP_TO_SYMMETRY
SYMMETRY_GENERATE

