#              Generated by Buildcell
#
# at 02:43:41 (GMT+1.0) 4th August 2020
# in /lustre/scratch/uccabz1/launch_tmp
# on node-c12c-008
# by uccabz1
#
# compiler GCC version 4.9.2
# options -cpp -iprefix /lustre/shared/ucl/apps/gcc/4.9.2/bin/../lib/gcc/x86_64-unknown-linux-gnu/4.9.2/ -mtune=corei7 -march=x86-64 -g -Og
#
# seed -2146803586  -357578250 -2145198640  -991598074 -1122949813  -275593024   295944482 -1974047887  -445272134  -901025604  -373817364 -1813381610
#
#      Author: C. J. Pickard (cjp20@cam.ac.uk)
#                Space group: Pc
#

%BLOCK LATTICE_ABC
      5.11131      5.70617      7.03803
     90.00000    103.01202     90.00000
%ENDBLOCK LATTICE_ABC

%BLOCK POSITIONS_FRAC
  Li   0.0959734  -0.4116123   0.2607537 SPIN=   0.00000
  Li   0.0959734   0.4116123  -0.2392463 SPIN=   0.00000
  Fe   0.4350761  -0.2414792  -0.3736495 SPIN=   4.00000
  Fe   0.4350761   0.2414792   0.1263505 SPIN=   4.00000
   O  -0.0781654   0.2464091   0.2107610 SPIN=   0.00000
   O  -0.1768806   0.2360177   0.5391522 SPIN=   0.00000
   O   0.2942757   0.2405463   0.5044246 SPIN=   0.00000
   O   0.0143017  -0.1130370   0.4114699 SPIN=   0.00000
   S   0.0133828   0.1524840   0.4164519 SPIN=   0.00000
   O  -0.0781654  -0.2464091  -0.2892390 SPIN=   0.00000
   O  -0.1768806  -0.2360177   0.0391522 SPIN=   0.00000
   O   0.2942757  -0.2405463   0.0044246 SPIN=   0.00000
   O   0.0143017   0.1130370  -0.0885301 SPIN=   0.00000
   S   0.0133828  -0.1524840  -0.0835481 SPIN=   0.00000
   F  -0.4793925  -0.3842174   0.3703810 SPIN=   0.00000
   F  -0.4793925   0.3842174  -0.1296190 SPIN=   0.00000
%ENDBLOCK POSITIONS_FRAC

# Note: total spin =   8.00

KPOINTS_MP_SPACING 0.07

%BLOCK SPECIES_POT
QC5
%ENDBLOCK SPECIES_POT

SNAP_TO_SYMMETRY
SYMMETRY_GENERATE

