#              Generated by Buildcell
#
# at 02:38:06 (GMT+1.0) 19th August 2020
# in /lustre/scratch/uccabz1/launch_tmp
# on node-c12g-030
# by uccabz1
#
# compiler GCC version 4.9.2
# options -cpp -iprefix /lustre/shared/ucl/apps/gcc/4.9.2/bin/../lib/gcc/x86_64-unknown-linux-gnu/4.9.2/ -mtune=corei7 -march=x86-64 -g -Og
#
# seed   159154223  2009672888 -1986473649   512491421 -1155505000  1992398490   538369724  1031258178  -498795225  -963838933 -1152838339 -1645196008
#
#      Author: C. J. Pickard (cjp20@cam.ac.uk)
#                Space group: Pc
#

%BLOCK LATTICE_ABC
      4.79999      6.26807      6.66776
     90.00000     90.00000     94.47256
%ENDBLOCK LATTICE_ABC

%BLOCK POSITIONS_FRAC
  Li  -0.1585379   0.3950714   0.1599288 SPIN=   0.00000
  Li   0.3414621  -0.1049286  -0.1599288 SPIN=   0.00000
  Fe  -0.1578386  -0.0981194   0.1334618 SPIN=   4.00000
  Fe   0.3421614   0.4018806  -0.1334618 SPIN=   4.00000
   O  -0.1907715   0.1409678  -0.6340606 SPIN=   0.00000
   O  -0.3093438   0.3225326  -0.3192957 SPIN=   0.00000
   O   0.1218787   0.1313814  -0.3395903 SPIN=   0.00000
   O  -0.3404947  -0.0730649  -0.3356486 SPIN=   0.00000
   S  -0.1796828   0.1304542  -0.4071488 SPIN=   0.00000
   O   0.3092285  -0.3590322   0.6340606 SPIN=   0.00000
   O   0.1906562  -0.1774674   0.3192957 SPIN=   0.00000
   O   0.6218787  -0.3686186   0.3395903 SPIN=   0.00000
   O   0.1595053  -0.5730649   0.3356486 SPIN=   0.00000
   S   0.3203172  -0.3695458   0.4071488 SPIN=   0.00000
   F  -0.2622794  -0.3612218  -0.0513540 SPIN=   0.00000
   F   0.2377206   0.1387782   0.0513540 SPIN=   0.00000
%ENDBLOCK POSITIONS_FRAC

# Note: total spin =   8.00

KPOINTS_MP_SPACING 0.07

%BLOCK SPECIES_POT
QC5
%ENDBLOCK SPECIES_POT

SNAP_TO_SYMMETRY
SYMMETRY_GENERATE

