#              Generated by Buildcell
#
# at 00:19:51 (GMT+1.0) 19th August 2020
# in /lustre/scratch/uccabz1/launch_tmp
# on node-c12f-013
# by uccabz1
#
# compiler GCC version 4.9.2
# options -cpp -iprefix /lustre/shared/ucl/apps/gcc/4.9.2/bin/../lib/gcc/x86_64-unknown-linux-gnu/4.9.2/ -mtune=corei7 -march=x86-64 -g -Og
#
# seed   691439304   -73754985 -2007235857 -1141351249 -1145693945  1816668252 -1678754162 -1471712052 -1413623516  -675343575 -1417356956   319363205
#
#      Author: C. J. Pickard (cjp20@cam.ac.uk)
#                Space group: Pc
#

%BLOCK LATTICE_ABC
      3.90146      5.38071      9.64458
     90.00000     98.94951     90.00000
%ENDBLOCK LATTICE_ABC

%BLOCK POSITIONS_FRAC
  Li   0.0823497   0.2983326   0.1932369 SPIN=   0.00000
  Li  -0.4176503  -0.2983326  -0.3067631 SPIN=   0.00000
  Fe   0.2306208  -0.3785004  -0.0497450 SPIN=   4.00000
  Fe  -0.2693792   0.3785004   0.4502550 SPIN=   4.00000
   O  -0.1258805   0.0322302  -0.2656126 SPIN=   0.00000
   O  -0.5356114  -0.0671254  -0.1017439 SPIN=   0.00000
   O  -0.4551282   0.3691138  -0.1713820 SPIN=   0.00000
   O   0.0141150   0.1517861  -0.0154128 SPIN=   0.00000
   S  -0.2756263   0.1215012  -0.1385378 SPIN=   0.00000
   O   0.3741195  -0.0322302   0.2343874 SPIN=   0.00000
   O  -0.0356114   0.0671254   0.3982561 SPIN=   0.00000
   O   0.0448718  -0.3691138   0.3286180 SPIN=   0.00000
   O   0.5141150  -0.1517861   0.4845872 SPIN=   0.00000
   S   0.2243737  -0.1215012   0.3614622 SPIN=   0.00000
   F   0.2021337   0.3809516  -0.4191456 SPIN=   0.00000
   F  -0.2978663  -0.3809516   0.0808544 SPIN=   0.00000
%ENDBLOCK POSITIONS_FRAC

# Note: total spin =   8.00

KPOINTS_MP_SPACING 0.07

%BLOCK SPECIES_POT
QC5
%ENDBLOCK SPECIES_POT

SNAP_TO_SYMMETRY
SYMMETRY_GENERATE

