#              Generated by Buildcell
#
# at 19:22:27 (GMT+1.0) 18th August 2020
# in /lustre/scratch/uccabz1/launch_tmp
# on node-c12p-013
# by uccabz1
#
# compiler GCC version 4.9.2
# options -cpp -iprefix /lustre/shared/ucl/apps/gcc/4.9.2/bin/../lib/gcc/x86_64-unknown-linux-gnu/4.9.2/ -mtune=corei7 -march=x86-64 -g -Og
#
# seed -2016220964  1476294224  -972014039  1260874103 -1656569338  1508328090   986000208  1278768334 -1131743376   713586628  -403400885   -13034210
#
#      Author: C. J. Pickard (cjp20@cam.ac.uk)
#                Space group: Cc
#

%BLOCK LATTICE_ABC
      3.98246      6.55799      8.37448
     66.94926     87.49939     83.60225
%ENDBLOCK LATTICE_ABC

%BLOCK POSITIONS_FRAC
  Li   0.3064570  -0.3632523   0.3984726 SPIN=   0.00000
  Li  -0.1935430   0.0352203  -0.3984726 SPIN=   0.00000
  Fe   0.2488260   0.1938547  -0.1999772 SPIN=   4.00000
  Fe  -0.2511740  -0.0061225   0.1999772 SPIN=   4.00000
   O   0.3944567  -0.1320713  -0.3993030 SPIN=   0.00000
   O   0.0850291  -0.4621657  -0.2472680 SPIN=   0.00000
   O   0.0755430  -0.1680593  -0.1308530 SPIN=   0.00000
   O   0.6008240  -0.4149818  -0.1161710 SPIN=   0.00000
   S   0.2889632  -0.2943195  -0.2233988 SPIN=   0.00000
   O  -0.1055433   0.4686257   0.3993030 SPIN=   0.00000
   O  -0.4149709   0.2905663   0.2472680 SPIN=   0.00000
   O  -0.4244570   0.7010877   0.1308530 SPIN=   0.00000
   O   0.1008240   0.4688471   0.1161710 SPIN=   0.00000
   S  -0.2110368   0.4822817   0.2233988 SPIN=   0.00000
   F  -0.2515192   0.2312839  -0.2755558 SPIN=   0.00000
   F   0.2484808  -0.0442720   0.2755558 SPIN=   0.00000
%ENDBLOCK POSITIONS_FRAC

# Note: total spin =   8.00

KPOINTS_MP_SPACING 0.07

%BLOCK SPECIES_POT
QC5
%ENDBLOCK SPECIES_POT

SNAP_TO_SYMMETRY
SYMMETRY_GENERATE

