#              Generated by Buildcell
#
# at 23:48:32 (GMT+1.0) 18th August 2020
# in /lustre/scratch/uccabz1/launch_tmp
# on node-c12k-012
# by uccabz1
#
# compiler GCC version 4.9.2
# options -cpp -iprefix /lustre/shared/ucl/apps/gcc/4.9.2/bin/../lib/gcc/x86_64-unknown-linux-gnu/4.9.2/ -mtune=corei7 -march=x86-64 -g -Og
#
# seed  -280918263   506921137  1814247542  1348339921  -158464183 -1096577820   239906139  2059857223 -2024806580 -2110391647   563914067   713903098
#
#      Author: C. J. Pickard (cjp20@cam.ac.uk)
#                Space group: I212121
#

%BLOCK LATTICE_ABC
      6.05178      6.55785      6.55785
     67.47174     62.52154     62.52154
%ENDBLOCK LATTICE_ABC

%BLOCK POSITIONS_FRAC
  Li  -0.1386549  -0.1113451   0.3886549 SPIN=   0.00000
  Li  -0.3613451  -0.3886549   0.1113451 SPIN=   0.00000
  Fe   0.2011982  -0.4511982   0.0488018 SPIN=   4.00000
  Fe   0.2988018  -0.0488018   0.4511982 SPIN=   4.00000
   O  -0.3974091   0.3222315   0.0459990 SPIN=   0.00000
   O   0.0412725   0.0028962  -0.0224298 SPIN=   0.00000
   O  -0.1025909  -0.0459990  -0.3222315 SPIN=   0.00000
   O  -0.5412725   0.0224298  -0.0028962 SPIN=   0.00000
   O   0.4708213  -0.8222315   0.4540010 SPIN=   0.00000
   O   0.5217389  -0.5028962   0.5224298 SPIN=   0.00000
   O   0.0291787   0.5459990  -0.1777685 SPIN=   0.00000
   O  -0.0217389   0.4775702  -0.4971038 SPIN=   0.00000
   S   0.2500000   0.4253366  -0.4253366 SPIN=   0.00000
   S  -0.2500000   0.0746634  -0.0746634 SPIN=   0.00000
   F   0.4974954   0.7500000  -0.2500000 SPIN=   0.00000
   F   0.0025046  -0.7500000   0.2500000 SPIN=   0.00000
%ENDBLOCK POSITIONS_FRAC

# Note: total spin =   8.00

KPOINTS_MP_SPACING 0.07

%BLOCK SPECIES_POT
QC5
%ENDBLOCK SPECIES_POT

SNAP_TO_SYMMETRY
SYMMETRY_GENERATE

