#              Generated by Buildcell
#
# at 02:55:51 (GMT+1.0) 19th August 2020
# in /lustre/scratch/uccabz1/launch_tmp
# on node-c12k-010
# by uccabz1
#
# compiler GCC version 4.9.2
# options -cpp -iprefix /lustre/shared/ucl/apps/gcc/4.9.2/bin/../lib/gcc/x86_64-unknown-linux-gnu/4.9.2/ -mtune=corei7 -march=x86-64 -g -Og
#
# seed   574595706  -125134624   243710405  -484821052 -1595543818  1686956516   607024248   991600186  1907983766   316428082   197313024  1819489927
#
#      Author: C. J. Pickard (cjp20@cam.ac.uk)
#                Space group: P21
#

%BLOCK LATTICE_ABC
      4.01161      4.68848     11.11662
     90.00000     90.00000    106.95219
%ENDBLOCK LATTICE_ABC

%BLOCK POSITIONS_FRAC
  Li  -0.4128762   0.0723602   0.4007627 SPIN=   0.00000
  Li   0.4128762  -0.0723602  -0.0992373 SPIN=   0.00000
  Fe  -0.2437598  -0.4865835  -0.2049952 SPIN=   4.00000
  Fe   0.2437598   0.4865835   0.2950048 SPIN=   4.00000
   O   0.4921748   0.3395339  -0.3911950 SPIN=   0.00000
   O  -0.0050267   0.0014168  -0.5005377 SPIN=   0.00000
   O  -0.0351509   0.0576807  -0.2797852 SPIN=   0.00000
   O   0.3591063  -0.2069678  -0.3669792 SPIN=   0.00000
   S   0.2027759   0.0479159  -0.3846243 SPIN=   0.00000
   O  -0.4921748  -0.3395339   0.1088050 SPIN=   0.00000
   O   0.0050267  -0.0014168  -0.0005377 SPIN=   0.00000
   O   0.0351509  -0.0576807   0.2202148 SPIN=   0.00000
   O  -0.3591063   0.2069678   0.1330208 SPIN=   0.00000
   S  -0.2027759  -0.0479159   0.1153757 SPIN=   0.00000
   F   0.1679607  -0.4610850  -0.1202302 SPIN=   0.00000
   F  -0.1679607   0.4610850   0.3797698 SPIN=   0.00000
%ENDBLOCK POSITIONS_FRAC

# Note: total spin =   8.00

KPOINTS_MP_SPACING 0.07

%BLOCK SPECIES_POT
QC5
%ENDBLOCK SPECIES_POT

SNAP_TO_SYMMETRY
SYMMETRY_GENERATE

