#              Generated by Buildcell
#
# at 02:20:16 (GMT+1.0) 19th August 2020
# in /scratch/scratch/uccabz1/launch_tmp
# on node-k10e-028
# by uccabz1
#
# compiler GCC version 4.9.2
# options -cpp -iprefix /scratch/UCL/applications/gcc/4.9.2/bin/../lib/gcc/x86_64-unknown-linux-gnu/4.9.2/ -mtune=corei7 -march=x86-64 -g -O2
#
# seed   186523728 -1634347500  -408970552  1082429424  -977716562  -757533959  1186205195  1420782463  -900438229 -1151822058  -410878247   939181745
#
#      Author: C. J. Pickard (cjp20@cam.ac.uk)
#                Space group: Ccc2
#

%BLOCK LATTICE_ABC
      4.89384      4.89384      8.61311
     90.00000     90.00000    104.17598
%ENDBLOCK LATTICE_ABC

%BLOCK POSITIONS_FRAC
  Li   0.0000000   0.0000000  -0.2117604 SPIN=   0.00000
  Li   0.0000000   0.0000000   0.2882396 SPIN=   0.00000
  Fe   0.5000000  -0.0000000   0.0145717 SPIN=   4.00000
  Fe   0.0000000   0.5000000  -0.4854283 SPIN=   4.00000
   O   0.4284751  -0.2847511   0.5355985 SPIN=   0.00000
   O   0.2041867  -0.5885069   0.3180934 SPIN=   0.00000
   O  -0.4284751   0.2847511   0.5355985 SPIN=   0.00000
   O  -0.2041867   0.5885069   0.3180934 SPIN=   0.00000
   O   0.2847511  -0.4284751   0.0355985 SPIN=   0.00000
   O   0.5885069  -0.2041867  -0.1819066 SPIN=   0.00000
   O  -0.2847511   0.4284751   0.0355985 SPIN=   0.00000
   O  -0.5885069   0.2041867  -0.1819066 SPIN=   0.00000
   S   0.5000000   0.5000000   0.2645451 SPIN=   0.00000
   S   0.5000000   0.5000000  -0.2354549 SPIN=   0.00000
   F   0.0000000  -0.0000000   0.0428536 SPIN=   0.00000
   F   0.0000000   0.0000000  -0.4571464 SPIN=   0.00000
%ENDBLOCK POSITIONS_FRAC

# Note: total spin =   8.00

KPOINTS_MP_SPACING 0.07

%BLOCK SPECIES_POT
QC5
%ENDBLOCK SPECIES_POT

SNAP_TO_SYMMETRY
SYMMETRY_GENERATE

