#              Generated by Buildcell
#
# at 02:13:31 (GMT+1.0) 19th August 2020
# in /lustre/scratch/uccabz1/launch_tmp
# on node-c12o-031
# by uccabz1
#
# compiler GCC version 4.9.2
# options -cpp -iprefix /lustre/shared/ucl/apps/gcc/4.9.2/bin/../lib/gcc/x86_64-unknown-linux-gnu/4.9.2/ -mtune=corei7 -march=x86-64 -g -Og
#
# seed   -28676541  1831402538  1456407795  1420824254 -1828090853  -348775619 -1898715311 -1648908430 -1960966755  1988252635  1457089774  -263231090
#
#      Author: C. J. Pickard (cjp20@cam.ac.uk)
#                Space group: I212121
#

%BLOCK LATTICE_ABC
      6.40669      6.40669      6.40669
    104.46400    107.73335    116.46434
%ENDBLOCK LATTICE_ABC

%BLOCK POSITIONS_FRAC
  Li  -0.1070089   0.2500000   0.1429911 SPIN=   0.00000
  Li  -0.3929911  -0.2500000   0.3570089 SPIN=   0.00000
  Fe   0.0484307  -0.2015693   0.2500000 SPIN=   4.00000
  Fe  -0.5484307  -0.2984307  -0.2500000 SPIN=   4.00000
   O   0.0046523  -0.0121472  -0.4176423 SPIN=   0.00000
   O  -0.0264870   0.3610145  -0.4091351 SPIN=   0.00000
   O   0.4953477   0.0777054  -0.0167996 SPIN=   0.00000
   O   0.5264870   0.1173520   0.3875015 SPIN=   0.00000
   O  -0.0945050   0.4222946  -0.0823577 SPIN=   0.00000
   O   0.2701495   0.3826480  -0.0908649 SPIN=   0.00000
   O   0.5945050   0.5121472   0.5167996 SPIN=   0.00000
   O   0.2298505   0.1389855   0.1124985 SPIN=   0.00000
   S   0.5335230   0.2835230   0.2500000 SPIN=   0.00000
   S  -0.0335230   0.2164770  -0.2500000 SPIN=   0.00000
   F  -0.2500000  -0.1594316   0.0905684 SPIN=   0.00000
   F  -0.7500000  -0.3405684   0.4094316 SPIN=   0.00000
%ENDBLOCK POSITIONS_FRAC

# Note: total spin =   8.00

KPOINTS_MP_SPACING 0.07

%BLOCK SPECIES_POT
QC5
%ENDBLOCK SPECIES_POT

SNAP_TO_SYMMETRY
SYMMETRY_GENERATE

