#              Generated by Buildcell
#
# at 02:27:04 (GMT+1.0) 19th August 2020
# in /lustre/scratch/uccabz1/launch_tmp
# on node-c12p-018
# by uccabz1
#
# compiler GCC version 4.9.2
# options -cpp -iprefix /lustre/shared/ucl/apps/gcc/4.9.2/bin/../lib/gcc/x86_64-unknown-linux-gnu/4.9.2/ -mtune=corei7 -march=x86-64 -g -Og
#
# seed  1060181414 -2113887416  -671525306  -936510507 -2144402681  -312474179 -1944955004 -2015967534  1627618155  -901510381   199681138  1800580580
#
#      Author: C. J. Pickard (cjp20@cam.ac.uk)
#                Space group: P2
#

%BLOCK LATTICE_ABC
      4.14273      6.91748      7.01913
     96.12703     90.00000     90.00000
%ENDBLOCK LATTICE_ABC

%BLOCK POSITIONS_FRAC
  Li   0.4219032  -0.4552496   0.2549440 SPIN=   0.00000
  Li   0.4219032   0.4552496  -0.2549440 SPIN=   0.00000
  Fe  -0.1733670  -0.2075756  -0.3646432 SPIN=   4.00000
  Fe  -0.1733670   0.2075756   0.3646432 SPIN=   4.00000
   O   0.2630695  -0.1537784   0.1584816 SPIN=   0.00000
   O  -0.0682717  -0.4517369   0.1559817 SPIN=   0.00000
   O  -0.2344884  -0.1896676  -0.0372460 SPIN=   0.00000
   O  -0.2717334  -0.1395134   0.3164851 SPIN=   0.00000
   S  -0.0778560  -0.2336741   0.1484256 SPIN=   0.00000
   O   0.2630695   0.1537784  -0.1584816 SPIN=   0.00000
   O  -0.0682717   0.4517369  -0.1559817 SPIN=   0.00000
   O  -0.2344884   0.1896676   0.0372460 SPIN=   0.00000
   O  -0.2717334   0.1395134  -0.3164851 SPIN=   0.00000
   S  -0.0778560   0.2336741  -0.1484256 SPIN=   0.00000
   F   0.3066167   0.2332676   0.3355775 SPIN=   0.00000
   F   0.3066167  -0.2332676  -0.3355775 SPIN=   0.00000
%ENDBLOCK POSITIONS_FRAC

# Note: total spin =   8.00

KPOINTS_MP_SPACING 0.07

%BLOCK SPECIES_POT
QC5
%ENDBLOCK SPECIES_POT

SNAP_TO_SYMMETRY
SYMMETRY_GENERATE

