#              Generated by Buildcell
#
# at 03:36:23 (GMT+1.0) 4th August 2020
# in /lustre/scratch/uccabz1/launch_tmp
# on node-c12d-029
# by uccabz1
#
# compiler GCC version 4.9.2
# options -cpp -iprefix /lustre/shared/ucl/apps/gcc/4.9.2/bin/../lib/gcc/x86_64-unknown-linux-gnu/4.9.2/ -mtune=corei7 -march=x86-64 -g -Og
#
# seed -1040334561   507638804 -1946003922  1553489268  -831537268   681769916  -953921666  1216608591 -1387688772  1579856166  -625527728  -684836623
#
#      Author: C. J. Pickard (cjp20@cam.ac.uk)
#                Space group: P-1
#

%BLOCK LATTICE_ABC
      4.02621      4.86207     10.21742
     89.79791     89.37915     89.87371
%ENDBLOCK LATTICE_ABC

%BLOCK POSITIONS_FRAC
  Li   0.2706922   0.2497156  -0.4133227 SPIN=   0.00000
  Li  -0.2706922  -0.2497156   0.4133227 SPIN=   0.00000
  Fe  -0.1387074   0.2512478   0.1214101 SPIN=   4.00000
  Fe   0.1387074  -0.2512478  -0.1214101 SPIN=   4.00000
   O   0.1636451  -0.3845998   0.0750212 SPIN=   0.00000
   O   0.1569866  -0.2568101   0.3092855 SPIN=   0.00000
   O   0.4248565   0.0497062   0.1457967 SPIN=   0.00000
   O   0.6840317  -0.3969560   0.2016488 SPIN=   0.00000
   S   0.3573800  -0.2471649   0.1829380 SPIN=   0.00000
   O  -0.1636451   0.3845998  -0.0750212 SPIN=   0.00000
   O  -0.1569866   0.2568101  -0.3092855 SPIN=   0.00000
   O  -0.4248565  -0.0497062  -0.1457967 SPIN=   0.00000
   O  -0.6840317   0.3969560  -0.2016488 SPIN=   0.00000
   S  -0.3573800   0.2471649  -0.1829380 SPIN=   0.00000
   F   0.1530717  -0.2506305  -0.3772740 SPIN=   0.00000
   F  -0.1530717   0.2506305   0.3772740 SPIN=   0.00000
%ENDBLOCK POSITIONS_FRAC

# Note: total spin =   8.00

KPOINTS_MP_SPACING 0.07

%BLOCK SPECIES_POT
QC5
%ENDBLOCK SPECIES_POT

SNAP_TO_SYMMETRY
SYMMETRY_GENERATE

