#              Generated by Buildcell
#
# at 22:09:50 (GMT+1.0) 18th August 2020
# in /scratch/scratch/uccabz1/launch_tmp
# on node-k10h-032
# by uccabz1
#
# compiler GCC version 4.9.2
# options -cpp -iprefix /scratch/UCL/applications/gcc/4.9.2/bin/../lib/gcc/x86_64-unknown-linux-gnu/4.9.2/ -mtune=corei7 -march=x86-64 -g -O2
#
# seed   535352672  -686219499   657798144  -404774563  -173257044 -1451895075  1731424641  -862879283 -1513234055 -1615818412  -492456697  2002262934
#
#      Author: C. J. Pickard (cjp20@cam.ac.uk)
#                Space group: P-1
#

%BLOCK LATTICE_ABC
      3.96129      6.94285      8.00237
     69.56180     89.45198     76.59852
%ENDBLOCK LATTICE_ABC

%BLOCK POSITIONS_FRAC
  Li  -0.3540685   0.2651902   0.2462923 SPIN=   0.00000
  Li   0.3540685  -0.2651902  -0.2462923 SPIN=   0.00000
  Fe   0.1630311   0.2094814  -0.4522188 SPIN=   4.00000
  Fe  -0.1630311  -0.2094814   0.4522188 SPIN=   4.00000
   O   0.7152658   0.3034482  -0.1603097 SPIN=   0.00000
   O   0.2486518   0.1165823  -0.0555378 SPIN=   0.00000
   O   0.1058843   0.4787036  -0.2834237 SPIN=   0.00000
   O   0.2803171   0.4225413   0.0294622 SPIN=   0.00000
   S   0.3375297   0.3303188  -0.1174523 SPIN=   0.00000
   O  -0.7152658  -0.3034482   0.1603097 SPIN=   0.00000
   O  -0.2486518  -0.1165823   0.0555378 SPIN=   0.00000
   O  -0.1058843  -0.4787036   0.2834237 SPIN=   0.00000
   O  -0.2803171  -0.4225413  -0.0294622 SPIN=   0.00000
   S  -0.3375297  -0.3303188   0.1174523 SPIN=   0.00000
   F   0.0516778   0.0083786   0.2708064 SPIN=   0.00000
   F  -0.0516778  -0.0083786  -0.2708064 SPIN=   0.00000
%ENDBLOCK POSITIONS_FRAC

# Note: total spin =   8.00

KPOINTS_MP_SPACING 0.07

%BLOCK SPECIES_POT
QC5
%ENDBLOCK SPECIES_POT

SNAP_TO_SYMMETRY
SYMMETRY_GENERATE

