#              Generated by Buildcell
#
# at 19:12:56 (GMT+1.0) 18th August 2020
# in /lustre/scratch/uccabz1/launch_tmp
# on node-c12k-032
# by uccabz1
#
# compiler GCC version 4.9.2
# options -cpp -iprefix /lustre/shared/ucl/apps/gcc/4.9.2/bin/../lib/gcc/x86_64-unknown-linux-gnu/4.9.2/ -mtune=corei7 -march=x86-64 -g -Og
#
# seed  -256387384  1353041589  1041695363  1474982258    26247681 -1303694045  -767685080  1109850292 -1557253854  -433343305 -1107744882  1933533993
#
#      Author: C. J. Pickard (cjp20@cam.ac.uk)
#                Space group: P-1
#

%BLOCK LATTICE_ABC
      3.93910      6.50343      7.90833
     90.64170     99.05010     91.26234
%ENDBLOCK LATTICE_ABC

%BLOCK POSITIONS_FRAC
  Li  -0.5000000   0.5000000   0.0000000 SPIN=   0.00000
  Li   0.0000000  -0.5000000   0.5000000 SPIN=   0.00000
  Fe  -0.5000000   0.0000000   0.0000000 SPIN=   1.32415
  Fe  -0.0000000   0.0000000  -0.5000000 SPIN=   6.67585
   O  -0.0845599   0.2639973   0.3554256 SPIN=   0.00000
   O  -0.1791930   0.2829584   0.0391718 SPIN=   0.00000
   O   0.3938427   0.1968399   0.1951050 SPIN=   0.00000
   O   0.1788347   0.5498471   0.2132705 SPIN=   0.00000
   S   0.0772311   0.3234107   0.2007432 SPIN=   0.00000
   O   0.0845599  -0.2639973  -0.3554256 SPIN=   0.00000
   O   0.1791930  -0.2829584  -0.0391718 SPIN=   0.00000
   O  -0.3938427  -0.1968399  -0.1951050 SPIN=   0.00000
   O  -0.1788347  -0.5498471  -0.2132705 SPIN=   0.00000
   S  -0.0772311  -0.3234107  -0.2007432 SPIN=   0.00000
   F  -0.3097349  -0.1803351   0.3299212 SPIN=   0.00000
   F   0.3097349   0.1803351  -0.3299212 SPIN=   0.00000
%ENDBLOCK POSITIONS_FRAC

# Note: total spin =   8.00

KPOINTS_MP_SPACING 0.07

%BLOCK SPECIES_POT
QC5
%ENDBLOCK SPECIES_POT

SNAP_TO_SYMMETRY
SYMMETRY_GENERATE

