#              Generated by Buildcell
#
# at 19:30:14 (GMT+1.0) 18th August 2020
# in /scratch/scratch/uccabz1/launch_tmp
# on node-k10h-001
# by uccabz1
#
# compiler GCC version 4.9.2
# options -cpp -iprefix /scratch/UCL/applications/gcc/4.9.2/bin/../lib/gcc/x86_64-unknown-linux-gnu/4.9.2/ -mtune=corei7 -march=x86-64 -g -O2
#
# seed   -74703847 -1020754607  -350529944  -631383443 -1403769939 -1268177973   495290513  -901509067 -1033469423   315399523   355461277   748180864
#
#      Author: C. J. Pickard (cjp20@cam.ac.uk)
#                Space group: C2/c
#

%BLOCK LATTICE_ABC
      5.28909      5.83987      7.39542
    113.25538    106.16554     90.00000
%ENDBLOCK LATTICE_ABC

%BLOCK POSITIONS_FRAC
  Li   0.5000000   0.0000000   0.5000000 SPIN=   0.00000
  Li   1.0000000   0.5000000   0.5000000 SPIN=   0.00000
  Fe   0.2500000   0.2769802   0.0000000 SPIN=   4.00000
  Fe  -0.2500000  -0.2769802  -0.0000000 SPIN=   4.00000
   O  -0.7823649   0.2911404  -0.3015480 SPIN=   0.00000
   O  -0.9520721   0.0519055  -0.6806994 SPIN=   0.00000
   O   0.2823649  -0.4073116   0.3015480 SPIN=   0.00000
   O   0.4520721  -0.2673950   0.6806994 SPIN=   0.00000
   O   0.7823649  -0.2911404   0.3015480 SPIN=   0.00000
   O   0.9520721  -0.0519055   0.6806994 SPIN=   0.00000
   O  -0.2823649   0.4073116  -0.3015480 SPIN=   0.00000
   O  -0.4520721   0.2673950  -0.6806994 SPIN=   0.00000
   S   0.5000000  -0.5000000   0.5000000 SPIN=   0.00000
   S  -0.0000000  -0.0000000  -0.5000000 SPIN=   0.00000
   F  -0.2500000   0.2269440   0.0000000 SPIN=   0.00000
   F   0.2500000  -0.2269440   0.0000000 SPIN=   0.00000
%ENDBLOCK POSITIONS_FRAC

# Note: total spin =   8.00

KPOINTS_MP_SPACING 0.07

%BLOCK SPECIES_POT
QC5
%ENDBLOCK SPECIES_POT

SNAP_TO_SYMMETRY
SYMMETRY_GENERATE

