#              Generated by Buildcell
#
# at 03:30:33 (GMT+1.0) 4th August 2020
# in /lustre/scratch/uccabz1/launch_tmp
# on node-c12c-024
# by uccabz1
#
# compiler GCC version 4.9.2
# options -cpp -iprefix /lustre/shared/ucl/apps/gcc/4.9.2/bin/../lib/gcc/x86_64-unknown-linux-gnu/4.9.2/ -mtune=corei7 -march=x86-64 -g -Og
#
# seed   907360221  1761742746 -1977287436   808520445  1514709765  1434225271 -2040298442  1414923306 -1975956212   823372482   939188796   865487342
#
#      Author: C. J. Pickard (cjp20@cam.ac.uk)
#                Space group: I212121
#

%BLOCK LATTICE_ABC
      6.39627      6.39627      6.39627
    104.08773    110.85151    113.61853
%ENDBLOCK LATTICE_ABC

%BLOCK POSITIONS_FRAC
  Li  -0.4593812  -0.2500000  -0.2093812 SPIN=   0.00000
  Li  -0.0406188   0.2500000  -0.2906188 SPIN=   0.00000
  Fe   0.0918385   0.3418385  -0.7500000 SPIN=   4.00000
  Fe   0.4081615   0.1581615   0.7500000 SPIN=   4.00000
   O   0.6543710   0.4424766   0.5065430 SPIN=   0.00000
   O   0.4186010   0.4869362   0.1349628 SPIN=   0.00000
   O  -0.1543710  -0.1478280   0.2881056 SPIN=   0.00000
   O   0.0813990  -0.2836382   0.5683352 SPIN=   0.00000
   O   0.5640664   0.0575234   0.2118944 SPIN=   0.00000
   O   0.1480266   0.0130638  -0.0683352 SPIN=   0.00000
   O  -0.0640664  -0.3521720  -0.0065430 SPIN=   0.00000
   O   0.3519734  -0.2163618   0.3650372 SPIN=   0.00000
   S  -0.0932466  -0.3432466   0.7500000 SPIN=   0.00000
   S  -0.4067534  -0.1567534  -0.7500000 SPIN=   0.00000
   F  -0.2500000   0.1255578  -0.1244422 SPIN=   0.00000
   F   0.2500000   0.3744422  -0.3755578 SPIN=   0.00000
%ENDBLOCK POSITIONS_FRAC

# Note: total spin =   8.00

KPOINTS_MP_SPACING 0.07

%BLOCK SPECIES_POT
QC5
%ENDBLOCK SPECIES_POT

SNAP_TO_SYMMETRY
SYMMETRY_GENERATE

