#              Generated by Buildcell
#
# at 05:02:29 (GMT+1.0) 4th August 2020
# in /lustre/scratch/uccabz1/launch_tmp
# on node-c12d-012
# by uccabz1
#
# compiler GCC version 4.9.2
# options -cpp -iprefix /lustre/shared/ucl/apps/gcc/4.9.2/bin/../lib/gcc/x86_64-unknown-linux-gnu/4.9.2/ -mtune=corei7 -march=x86-64 -g -Og
#
# seed  -331884469  1016544492  -363742277   672913677  1060611750 -2073958222 -1984232160 -1450276094  -228622266  1551676454   817185473   114878804
#
#      Author: C. J. Pickard (cjp20@cam.ac.uk)
#                Space group: P2
#

%BLOCK LATTICE_ABC
      4.60979      6.50741      6.66724
     90.00000     90.00000     90.26681
%ENDBLOCK LATTICE_ABC

%BLOCK POSITIONS_FRAC
  Li   0.2279215  -0.2587848   0.1208456 SPIN=   0.00000
  Li  -0.2279215   0.2587848   0.1208456 SPIN=   0.00000
  Fe  -0.2477899  -0.2754432  -0.1865582 SPIN=   4.00000
  Fe   0.2477899   0.2754432  -0.1865582 SPIN=   4.00000
   O  -0.5790856  -0.1903510   0.3708113 SPIN=   0.00000
   O  -0.1936354  -0.1461982   0.1158319 SPIN=   0.00000
   O  -0.2498957  -0.4786851   0.2921342 SPIN=   0.00000
   O  -0.0641802  -0.1743747   0.4749951 SPIN=   0.00000
   S  -0.2716992  -0.2474023   0.3134431 SPIN=   0.00000
   O   0.5790856   0.1903510   0.3708113 SPIN=   0.00000
   O   0.1936354   0.1461982   0.1158319 SPIN=   0.00000
   O   0.2498957   0.4786851   0.2921342 SPIN=   0.00000
   O   0.0641802   0.1743747   0.4749951 SPIN=   0.00000
   S   0.2716992   0.2474023   0.3134431 SPIN=   0.00000
   F   0.2522112  -0.2502390  -0.1808020 SPIN=   0.00000
   F  -0.2522112   0.2502390  -0.1808020 SPIN=   0.00000
%ENDBLOCK POSITIONS_FRAC

# Note: total spin =   8.00

KPOINTS_MP_SPACING 0.07

%BLOCK SPECIES_POT
QC5
%ENDBLOCK SPECIES_POT

SNAP_TO_SYMMETRY
SYMMETRY_GENERATE

