#              Generated by Buildcell
#
# at 02:10:05 (GMT+1.0) 19th August 2020
# in /lustre/scratch/uccabz1/launch_tmp
# on node-c12f-017
# by uccabz1
#
# compiler GCC version 4.9.2
# options -cpp -iprefix /lustre/shared/ucl/apps/gcc/4.9.2/bin/../lib/gcc/x86_64-unknown-linux-gnu/4.9.2/ -mtune=corei7 -march=x86-64 -g -Og
#
# seed -1041708146 -1041130144   982408673 -1729538521   322641831  -678911844  1522116381  1944116737  -999556596    15219275 -1344532157  -876167083
#
#      Author: C. J. Pickard (cjp20@cam.ac.uk)
#                Space group: P21
#

%BLOCK LATTICE_ABC
      4.90267      5.10644      8.38505
    107.68561     90.00000     90.00000
%ENDBLOCK LATTICE_ABC

%BLOCK POSITIONS_FRAC
  Li  -0.2117262   0.2205967  -0.1210374 SPIN=   0.00000
  Li   0.2882738  -0.2205967   0.1210374 SPIN=   0.00000
  Fe   0.4888038  -0.7340931  -0.4638852 SPIN=   4.00000
  Fe  -0.0111962   0.7340931   0.4638852 SPIN=   4.00000
   O   0.0453524   0.1384035   0.0494905 SPIN=   0.00000
   O  -0.4112228   0.2830472   0.1700953 SPIN=   0.00000
   O  -0.0160956   0.3016983   0.3569157 SPIN=   0.00000
   O  -0.2058480  -0.1478108   0.1913862 SPIN=   0.00000
   S  -0.1469535   0.1438346   0.1919719 SPIN=   0.00000
   O   0.5453524  -0.1384035  -0.0494905 SPIN=   0.00000
   O   0.0887772  -0.2830472  -0.1700953 SPIN=   0.00000
   O   0.4839044  -0.3016983  -0.3569157 SPIN=   0.00000
   O   0.2941520   0.1478108  -0.1913862 SPIN=   0.00000
   S   0.3530465  -0.1438346  -0.1919719 SPIN=   0.00000
   F   0.2938416   0.7663082   0.3410328 SPIN=   0.00000
   F  -0.2061584  -0.7663082  -0.3410328 SPIN=   0.00000
%ENDBLOCK POSITIONS_FRAC

# Note: total spin =   8.00

KPOINTS_MP_SPACING 0.07

%BLOCK SPECIES_POT
QC5
%ENDBLOCK SPECIES_POT

SNAP_TO_SYMMETRY
SYMMETRY_GENERATE

