#              Generated by Buildcell
#
# at 05:39:24 (GMT+1.0) 4th August 2020
# in /lustre/scratch/uccabz1/launch_tmp
# on node-c12c-026
# by uccabz1
#
# compiler GCC version 4.9.2
# options -cpp -iprefix /lustre/shared/ucl/apps/gcc/4.9.2/bin/../lib/gcc/x86_64-unknown-linux-gnu/4.9.2/ -mtune=corei7 -march=x86-64 -g -Og
#
# seed  -265587795  1568788513   910658363 -1371313429   207080376  1363384664   -66912699    55044593 -1957574492   250798282  -368800147 -1715573489
#
#      Author: C. J. Pickard (cjp20@cam.ac.uk)
#                Space group: Cm
#

%BLOCK LATTICE_ABC
      4.19633      4.56967     10.87887
    102.05678    101.04736     90.33991
%ENDBLOCK LATTICE_ABC

%BLOCK POSITIONS_FRAC
  Li  -0.1442909   0.0062876  -0.1751280 SPIN=   0.00000
  Li   0.0308371   0.1814156   0.1751280 SPIN=   0.00000
  Fe   0.2482028  -0.1113468  -0.4050051 SPIN=   4.00000
  Fe  -0.3467921   0.2936583   0.4050051 SPIN=   4.00000
   O  -0.5885626  -0.1239447   0.1120573 SPIN=   0.00000
   O  -0.2626722  -0.1487514   0.3245131 SPIN=   0.00000
   O  -0.0695470  -0.3810706   0.1270092 SPIN=   0.00000
   O  -0.5472946  -0.6068823   0.1816220 SPIN=   0.00000
   S  -0.3670191  -0.3151623   0.1863004 SPIN=   0.00000
   O   0.2993801   0.7639980  -0.1120573 SPIN=   0.00000
   O   0.4128146   0.5267354  -0.3245131 SPIN=   0.00000
   O   0.8034438   0.4919202  -0.1270092 SPIN=   0.00000
   O   0.2710833   0.2114957  -0.1816220 SPIN=   0.00000
   S   0.4466805   0.4985373  -0.1863004 SPIN=   0.00000
   F  -0.1672253  -0.0946760  -0.3839090 SPIN=   0.00000
   F   0.2166837   0.2892330   0.3839090 SPIN=   0.00000
%ENDBLOCK POSITIONS_FRAC

# Note: total spin =   8.00

KPOINTS_MP_SPACING 0.07

%BLOCK SPECIES_POT
QC5
%ENDBLOCK SPECIES_POT

SNAP_TO_SYMMETRY
SYMMETRY_GENERATE

