#              Generated by Buildcell
#
# at 02:58:44 (GMT+1.0) 4th August 2020
# in /lustre/scratch/uccabz1/launch_tmp
# on node-c12f-003
# by uccabz1
#
# compiler GCC version 4.9.2
# options -cpp -iprefix /lustre/shared/ucl/apps/gcc/4.9.2/bin/../lib/gcc/x86_64-unknown-linux-gnu/4.9.2/ -mtune=corei7 -march=x86-64 -g -Og
#
# seed  1742041191  -860599004 -1717425939  1785689069  1742202602 -2082569846   -23922645 -1014677269 -1084294887 -1880739217  2094688627   803013567
#
#      Author: C. J. Pickard (cjp20@cam.ac.uk)
#                Space group: Pc
#

%BLOCK LATTICE_ABC
      4.79895      5.87163      7.09858
     90.00000     90.00000     90.83550
%ENDBLOCK LATTICE_ABC

%BLOCK POSITIONS_FRAC
  Li  -0.1673995   0.2703764  -0.2435020 SPIN=   0.00000
  Li  -0.6673995  -0.2296236   0.2435020 SPIN=   0.00000
  Fe  -0.6619480  -0.4254243  -0.1553400 SPIN=   4.00000
  Fe  -0.1619480   0.0745757   0.1553400 SPIN=   4.00000
   O  -0.0616477  -0.2111588   0.2981860 SPIN=   0.00000
   O  -0.1843067  -0.6218941   0.2896402 SPIN=   0.00000
   O  -0.4749913  -0.3556936   0.4718179 SPIN=   0.00000
   O  -0.0012175  -0.4482722   0.5831118 SPIN=   0.00000
   S  -0.1805408  -0.4092547   0.4106890 SPIN=   0.00000
   O   0.4383523   0.2888412  -0.2981860 SPIN=   0.00000
   O   0.3156933  -0.1218941  -0.2896402 SPIN=   0.00000
   O   0.0250087   0.1443064  -0.4718179 SPIN=   0.00000
   O   0.4987825   0.0517278  -0.5831118 SPIN=   0.00000
   S   0.3194592   0.0907453  -0.4106890 SPIN=   0.00000
   F   0.3141576   0.2935372   0.0911113 SPIN=   0.00000
   F  -0.1858424  -0.2064628  -0.0911113 SPIN=   0.00000
%ENDBLOCK POSITIONS_FRAC

# Note: total spin =   8.00

KPOINTS_MP_SPACING 0.07

%BLOCK SPECIES_POT
QC5
%ENDBLOCK SPECIES_POT

SNAP_TO_SYMMETRY
SYMMETRY_GENERATE

