#              Generated by Buildcell
#
# at 21:28:52 (GMT+1.0) 18th August 2020
# in /lustre/scratch/uccabz1/launch_tmp
# on node-c12i-024
# by uccabz1
#
# compiler GCC version 4.9.2
# options -cpp -iprefix /lustre/shared/ucl/apps/gcc/4.9.2/bin/../lib/gcc/x86_64-unknown-linux-gnu/4.9.2/ -mtune=corei7 -march=x86-64 -g -Og
#
# seed -1346505684   572940097  -990164737   761843298 -1326784259 -1626463188   374005389  1612800398 -1148983188  1530455682 -1355380410   -43235957
#
#      Author: C. J. Pickard (cjp20@cam.ac.uk)
#                Space group: Ama2
#

%BLOCK LATTICE_ABC
      5.32045      5.32045      7.64311
     90.00000     90.00000    112.42111
%ENDBLOCK LATTICE_ABC

%BLOCK POSITIONS_FRAC
  Li  -0.5040406  -0.3543430   0.2500000 SPIN=   0.00000
  Li  -0.6456570  -0.4959594  -0.2500000 SPIN=   0.00000
  Fe  -0.2595100   0.2143458  -0.2500000 SPIN=   4.00000
  Fe  -0.2143458   0.2595100   0.2500000 SPIN=   4.00000
   O  -0.5764539  -0.1613641  -0.1046087 SPIN=   0.00000
   O  -0.1963088  -0.0637465   0.1049702 SPIN=   0.00000
   O   0.1613641   0.5764539   0.1046087 SPIN=   0.00000
   O   0.0637465   0.1963088  -0.1049702 SPIN=   0.00000
   O   0.1613641   0.5764539  -0.6046087 SPIN=   0.00000
   O   0.0637465   0.1963088  -0.3950298 SPIN=   0.00000
   O  -0.5764539  -0.1613641   0.6046087 SPIN=   0.00000
   O  -0.1963088  -0.0637465   0.3950298 SPIN=   0.00000
   S   0.1412309  -0.1021434   0.2500000 SPIN=   0.00000
   S   0.1021434  -0.1412309  -0.2500000 SPIN=   0.00000
   F   0.6123890   0.3876110   0.0000000 SPIN=   0.00000
   F   0.6123890   0.3876110   0.5000000 SPIN=   0.00000
%ENDBLOCK POSITIONS_FRAC

# Note: total spin =   8.00

KPOINTS_MP_SPACING 0.07

%BLOCK SPECIES_POT
QC5
%ENDBLOCK SPECIES_POT

SNAP_TO_SYMMETRY
SYMMETRY_GENERATE

