#              Generated by Buildcell
#
# at 17:40:16 (GMT+1.0) 18th August 2020
# in /scratch/scratch/uccabz1/launch_tmp
# on node-k10i-026
# by uccabz1
#
# compiler GCC version 4.9.2
# options -cpp -iprefix /scratch/UCL/applications/gcc/4.9.2/bin/../lib/gcc/x86_64-unknown-linux-gnu/4.9.2/ -mtune=corei7 -march=x86-64 -g -O2
#
# seed  1482597013  -616550603   383357658  -220046892   509919019  1730382752 -2025604318   476979690   844579788  1632763354  1515154644 -1186850490
#
#      Author: C. J. Pickard (cjp20@cam.ac.uk)
#                Space group: P-1
#

%BLOCK LATTICE_ABC
      3.91496      6.61859      7.79990
     81.76306     89.97809     89.19283
%ENDBLOCK LATTICE_ABC

%BLOCK POSITIONS_FRAC
  Li   0.0029246  -0.1141700   0.2747974 SPIN=   0.00000
  Li  -0.0029246   0.1141700  -0.2747974 SPIN=   0.00000
  Fe  -0.5000000   0.0000000   0.0000000 SPIN=   2.71170
  Fe   0.0000000   0.5000000  -0.0000000 SPIN=   5.28830
   O   0.9633935   0.4239826  -0.2921205 SPIN=   0.00000
   O   0.4720646   0.2141901  -0.3536287 SPIN=   0.00000
   O   0.4188741   0.5911236  -0.3981561 SPIN=   0.00000
   O   0.4564233   0.4017863  -0.1010586 SPIN=   0.00000
   O  -0.9633935  -0.4239826   0.2921205 SPIN=   0.00000
   O  -0.4720646  -0.2141901   0.3536287 SPIN=   0.00000
   O  -0.4188741  -0.5911236   0.3981561 SPIN=   0.00000
   O  -0.4564233  -0.4017863   0.1010586 SPIN=   0.00000
   S  -0.5000000  -0.0000000  -0.5000000 SPIN=   0.00000
   S   0.0000000   0.5000000  -0.5000000 SPIN=   0.00000
   F  -0.0370389   0.2251714   0.1327189 SPIN=   0.00000
   F   0.0370389  -0.2251714  -0.1327189 SPIN=   0.00000
%ENDBLOCK POSITIONS_FRAC

# Note: total spin =   8.00

KPOINTS_MP_SPACING 0.07

%BLOCK SPECIES_POT
QC5
%ENDBLOCK SPECIES_POT

SNAP_TO_SYMMETRY
SYMMETRY_GENERATE

