#              Generated by Buildcell
#
# at 03:02:29 (GMT+1.0) 4th August 2020
# in /lustre/scratch/uccabz1/launch_tmp
# on node-c12d-003
# by uccabz1
#
# compiler GCC version 4.9.2
# options -cpp -iprefix /lustre/shared/ucl/apps/gcc/4.9.2/bin/../lib/gcc/x86_64-unknown-linux-gnu/4.9.2/ -mtune=corei7 -march=x86-64 -g -Og
#
# seed  1547625128   766316540  1266572621   692463315  -603344700  2001495969 -1137445514   884751200  -327130951   554994074  -927522576   745293029
#
#      Author: C. J. Pickard (cjp20@cam.ac.uk)
#                Space group: P2221
#

%BLOCK LATTICE_ABC
      3.89328      6.62650      7.75230
     90.00000     90.00000     90.00000
%ENDBLOCK LATTICE_ABC

%BLOCK POSITIONS_FRAC
  Li   0.0000000   0.2966194  -0.0000000 SPIN=   0.00000
  Li   0.0000000  -0.2966194   0.5000000 SPIN=   0.00000
  Fe   0.5000000  -0.2953876  -0.0000000 SPIN=   4.00000
  Fe  -0.5000000   0.2953876   0.5000000 SPIN=   4.00000
   O   0.1051311   0.2676866   0.2840516 SPIN=   0.00000
   O  -0.2334257  -0.0189639   0.3979444 SPIN=   0.00000
   O  -0.1051311  -0.2676866  -0.2159484 SPIN=   0.00000
   O   0.2334257   0.0189639  -0.1020556 SPIN=   0.00000
   O   0.1051311  -0.2676866   0.2159484 SPIN=   0.00000
   O  -0.2334257   0.0189639   0.1020556 SPIN=   0.00000
   O  -0.1051311   0.2676866  -0.2840516 SPIN=   0.00000
   O   0.2334257  -0.0189639  -0.3979444 SPIN=   0.00000
   S   0.0150703  -0.0000000   0.2500000 SPIN=   0.00000
   S  -0.0150703   0.0000000  -0.2500000 SPIN=   0.00000
   F   0.5000000   0.4043689  -0.0000000 SPIN=   0.00000
   F  -0.5000000  -0.4043689   0.5000000 SPIN=   0.00000
%ENDBLOCK POSITIONS_FRAC

# Note: total spin =   8.00

KPOINTS_MP_SPACING 0.07

%BLOCK SPECIES_POT
QC5
%ENDBLOCK SPECIES_POT

SNAP_TO_SYMMETRY
SYMMETRY_GENERATE

