#              Generated by Buildcell
#
# at 00:46:27 (GMT+1.0) 19th August 2020
# in /scratch/scratch/uccabz1/launch_tmp
# on node-k10d-029
# by uccabz1
#
# compiler GCC version 4.9.2
# options -cpp -iprefix /scratch/UCL/applications/gcc/4.9.2/bin/../lib/gcc/x86_64-unknown-linux-gnu/4.9.2/ -mtune=corei7 -march=x86-64 -g -O2
#
# seed  1435660042  2095405491  -165022765 -2088798525  -760358518 -1676360778   493197160  -979485661 -1278090633 -1129276425  1772345417  1655220465
#
#      Author: C. J. Pickard (cjp20@cam.ac.uk)
#                Space group: P2
#

%BLOCK LATTICE_ABC
      4.19521      5.98595      8.32260
    106.87528     90.00000     90.00000
%ENDBLOCK LATTICE_ABC

%BLOCK POSITIONS_FRAC
  Li  -0.0074023   0.5000000   0.0000000 SPIN=   0.00000
  Li  -0.4828731   0.0000000   0.5000000 SPIN=   0.00000
  Fe   0.4997677  -0.5205352  -0.2622686 SPIN=   4.00000
  Fe   0.4997677   0.5205352   0.2622686 SPIN=   4.00000
   O   0.1983204  -0.1479782   0.3399939 SPIN=   0.00000
   O   0.1684869   0.2219619   0.2643571 SPIN=   0.00000
   O  -0.3253862   0.0063091   0.2858254 SPIN=   0.00000
   O   0.0500382  -0.1531575   0.0511137 SPIN=   0.00000
   S   0.0228648  -0.0182162   0.2353225 SPIN=   0.00000
   O   0.1983204   0.1479782  -0.3399939 SPIN=   0.00000
   O   0.1684869  -0.2219619  -0.2643571 SPIN=   0.00000
   O  -0.3253862  -0.0063091  -0.2858254 SPIN=   0.00000
   O   0.0500382   0.1531575  -0.0511137 SPIN=   0.00000
   S   0.0228648   0.0182162  -0.2353225 SPIN=   0.00000
   F  -0.4619425   0.5000000   0.0000000 SPIN=   0.00000
   F  -0.3734794   0.5000000   0.5000000 SPIN=   0.00000
%ENDBLOCK POSITIONS_FRAC

# Note: total spin =   8.00

KPOINTS_MP_SPACING 0.07

%BLOCK SPECIES_POT
QC5
%ENDBLOCK SPECIES_POT

SNAP_TO_SYMMETRY
SYMMETRY_GENERATE

