#              Generated by Buildcell
#
# at 05:15:30 (GMT+1.0) 4th August 2020
# in /lustre/scratch/uccabz1/launch_tmp
# on node-c12n-019
# by uccabz1
#
# compiler GCC version 4.9.2
# options -cpp -iprefix /lustre/shared/ucl/apps/gcc/4.9.2/bin/../lib/gcc/x86_64-unknown-linux-gnu/4.9.2/ -mtune=corei7 -march=x86-64 -g -Og
#
# seed   500320687  1883591761  -385862754   687790388  1538884996   315095500  1643590341  1722622773 -1833442149   113003308 -2126407692   942498047
#
#      Author: C. J. Pickard (cjp20@cam.ac.uk)
#                Space group: P2
#

%BLOCK LATTICE_ABC
      4.77287      5.22196      8.04998
     94.56154     90.00000     90.00000
%ENDBLOCK LATTICE_ABC

%BLOCK POSITIONS_FRAC
  Li   0.2289377   0.1756564  -0.1913126 SPIN=   0.00000
  Li   0.2289377  -0.1756564   0.1913126 SPIN=   0.00000
  Fe  -0.2418332   0.0000000   0.0000000 SPIN=   5.13486
  Fe  -0.1571831   0.0000000  -0.5000000 SPIN=   2.86514
   O   0.5209487   0.2110614   0.4170641 SPIN=   0.00000
   O   0.0758912   0.3796229   0.3117122 SPIN=   0.00000
   O   0.4135015   0.1594051   0.1154942 SPIN=   0.00000
   S   0.3838347   0.3349301   0.2737224 SPIN=   0.00000
   O   0.5209487  -0.2110614  -0.4170641 SPIN=   0.00000
   O   0.0758912  -0.3796229  -0.3117122 SPIN=   0.00000
   O   0.4135015  -0.1594051  -0.1154942 SPIN=   0.00000
   S   0.3838347  -0.3349301  -0.2737224 SPIN=   0.00000
   O  -0.3371621  -0.5000000   0.0000000 SPIN=   0.00000
   O   0.1628720  -0.5000000   0.0000000 SPIN=   0.00000
   F  -0.1456204  -0.1678884   0.2507617 SPIN=   0.00000
   F  -0.1456204   0.1678884  -0.2507617 SPIN=   0.00000
%ENDBLOCK POSITIONS_FRAC

# Note: total spin =   8.00

KPOINTS_MP_SPACING 0.07

%BLOCK SPECIES_POT
QC5
%ENDBLOCK SPECIES_POT

SNAP_TO_SYMMETRY
SYMMETRY_GENERATE

