#              Generated by Buildcell
#
# at 02:22:45 (GMT+1.0) 19th August 2020
# in /lustre/scratch/uccabz1/launch_tmp
# on node-c12l-020
# by uccabz1
#
# compiler GCC version 4.9.2
# options -cpp -iprefix /lustre/shared/ucl/apps/gcc/4.9.2/bin/../lib/gcc/x86_64-unknown-linux-gnu/4.9.2/ -mtune=corei7 -march=x86-64 -g -Og
#
# seed   279273621  -531502925  1544752857 -1946307253   901109675  1235209513  1888032467   819729545 -1803851307 -1867663505  -916017218    -1946509
#
#      Author: C. J. Pickard (cjp20@cam.ac.uk)
#                Space group: Pc
#

%BLOCK LATTICE_ABC
      4.75921      6.21601      7.11072
     90.00000    108.05554     90.00000
%ENDBLOCK LATTICE_ABC

%BLOCK POSITIONS_FRAC
  Li   0.3009558  -0.4276190   0.0578826 SPIN=   0.00000
  Li   0.3009558   0.4276190  -0.4421174 SPIN=   0.00000
  Fe   0.1392433   0.1123607  -0.1171722 SPIN=   4.00000
  Fe   0.1392433  -0.1123607   0.3828278 SPIN=   4.00000
   O  -0.3222332   0.4211252  -0.0117767 SPIN=   0.00000
   O   0.0050890   0.5489277   0.3116067 SPIN=   0.00000
   O   0.0914083   0.1928753   0.1837647 SPIN=   0.00000
   O  -0.3444362   0.2500861   0.2975956 SPIN=   0.00000
   S  -0.1425430   0.3532536   0.1952976 SPIN=   0.00000
   O  -0.3222332  -0.4211252  -0.5117767 SPIN=   0.00000
   O   0.0050890  -0.5489277  -0.1883933 SPIN=   0.00000
   O   0.0914083  -0.1928753  -0.3162353 SPIN=   0.00000
   O  -0.3444362  -0.2500861  -0.2024044 SPIN=   0.00000
   S  -0.1425430  -0.3532536  -0.3047024 SPIN=   0.00000
   F   0.3772780  -0.1598345   0.1931005 SPIN=   0.00000
   F   0.3772780   0.1598345  -0.3068995 SPIN=   0.00000
%ENDBLOCK POSITIONS_FRAC

# Note: total spin =   8.00

KPOINTS_MP_SPACING 0.07

%BLOCK SPECIES_POT
QC5
%ENDBLOCK SPECIES_POT

SNAP_TO_SYMMETRY
SYMMETRY_GENERATE

