#              Generated by Buildcell
#
# at 19:01:08 (GMT+1.0) 18th August 2020
# in /lustre/scratch/uccabz1/launch_tmp
# on node-c12p-024
# by uccabz1
#
# compiler GCC version 4.9.2
# options -cpp -iprefix /lustre/shared/ucl/apps/gcc/4.9.2/bin/../lib/gcc/x86_64-unknown-linux-gnu/4.9.2/ -mtune=corei7 -march=x86-64 -g -Og
#
# seed  1482786391  1952991429 -1997286947  1975934674 -2014771306  -751181500 -2084993463  -294382235  1041586351  -566950615 -1644606650 -1037913982
#
#      Author: C. J. Pickard (cjp20@cam.ac.uk)
#                Space group: Cm
#

%BLOCK LATTICE_ABC
      6.30426      6.30426      6.48317
     63.12092     63.12092     88.29206
%ENDBLOCK LATTICE_ABC

%BLOCK POSITIONS_FRAC
  Li   0.5008164  -0.4991836   0.0735597 SPIN=   0.00000
  Li  -0.1420149  -0.1420149   0.2021262 SPIN=   0.00000
  Fe   0.3916855   0.3916855  -0.3809247 SPIN=   2.55403
  Fe   0.9204451  -0.0795549  -0.3731972 SPIN=   5.44597
   O   0.8726431   0.1633266  -0.7931181 SPIN=   0.00000
   O   0.9495315   0.5880503  -1.1415236 SPIN=   0.00000
   O   1.1802524   0.4846828  -0.8979038 SPIN=   0.00000
   O   0.7413270   0.4816768  -0.6686903 SPIN=   0.00000
   S   0.9359385   0.4294341  -0.8753089 SPIN=   0.00000
   O   0.1633266  -0.1273569   0.2068819 SPIN=   0.00000
   O   0.5880503  -0.0504685  -0.1415236 SPIN=   0.00000
   O   0.4846828   0.1802524   0.1020962 SPIN=   0.00000
   O   0.4816768  -0.2586730   0.3313097 SPIN=   0.00000
   S   0.4294341  -0.0640615   0.1246911 SPIN=   0.00000
   F   0.1170199   0.1170199  -0.2900329 SPIN=   0.00000
   F  -0.3417269  -0.3417269   0.6535922 SPIN=   0.00000
%ENDBLOCK POSITIONS_FRAC

# Note: total spin =   8.00

KPOINTS_MP_SPACING 0.07

%BLOCK SPECIES_POT
QC5
%ENDBLOCK SPECIES_POT

SNAP_TO_SYMMETRY
SYMMETRY_GENERATE

