#              Generated by Buildcell
#
# at 03:07:22 (GMT+1.0) 4th August 2020
# in /lustre/scratch/uccabz1/launch_tmp
# on node-y12q-003
# by uccabz1
#
# compiler GCC version 4.9.2
# options -cpp -iprefix /lustre/shared/ucl/apps/gcc/4.9.2/bin/../lib/gcc/x86_64-unknown-linux-gnu/4.9.2/ -mtune=corei7 -march=x86-64 -g -Og
#
# seed -1374648105 -1366670722  1528444507 -1365126210   753774227  1251650479 -1484856379   881974254   534881124   866378712 -1614393872 -1012323782
#
#      Author: C. J. Pickard (cjp20@cam.ac.uk)
#                Space group: P-1
#

%BLOCK LATTICE_ABC
      4.24827      5.96641      8.28486
     74.18473     84.65450     82.62058
%ENDBLOCK LATTICE_ABC

%BLOCK POSITIONS_FRAC
  Li   0.2716213  -0.2390201   0.3499808 SPIN=   0.00000
  Li  -0.2716213   0.2390201  -0.3499808 SPIN=   0.00000
  Fe   0.2434210  -0.1527796  -0.3134611 SPIN=   4.00000
  Fe  -0.2434210   0.1527796   0.3134611 SPIN=   4.00000
   O   0.0098872  -0.3005100  -0.0320970 SPIN=   0.00000
   O  -0.5230191  -0.3802218   0.1034941 SPIN=   0.00000
   O  -0.3046502  -0.0151071   0.1034710 SPIN=   0.00000
   O  -0.0737904  -0.3965263   0.2777515 SPIN=   0.00000
   S  -0.2228931  -0.2730913   0.1131549 SPIN=   0.00000
   O  -0.0098872   0.3005100   0.0320970 SPIN=   0.00000
   O   0.5230191   0.3802218  -0.1034941 SPIN=   0.00000
   O   0.3046502   0.0151071  -0.1034710 SPIN=   0.00000
   O   0.0737904   0.3965263  -0.2777515 SPIN=   0.00000
   S   0.2228931   0.2730913  -0.1131549 SPIN=   0.00000
   F  -0.2440245   0.7902100  -0.3263382 SPIN=   0.00000
   F   0.2440245  -0.7902100   0.3263382 SPIN=   0.00000
%ENDBLOCK POSITIONS_FRAC

# Note: total spin =   8.00

KPOINTS_MP_SPACING 0.07

%BLOCK SPECIES_POT
QC5
%ENDBLOCK SPECIES_POT

SNAP_TO_SYMMETRY
SYMMETRY_GENERATE

