#              Generated by Buildcell
#
# at 04:03:05 (GMT+1.0) 4th August 2020
# in /lustre/scratch/uccabz1/launch_tmp
# on node-c12g-023
# by uccabz1
#
# compiler GCC version 4.9.2
# options -cpp -iprefix /lustre/shared/ucl/apps/gcc/4.9.2/bin/../lib/gcc/x86_64-unknown-linux-gnu/4.9.2/ -mtune=corei7 -march=x86-64 -g -Og
#
# seed -1012735383  -434717200  -144993680 -1431832887 -1585777724  -826804514   314269464   846926852 -1658290155  -468598733    44451760   604043879
#
#      Author: C. J. Pickard (cjp20@cam.ac.uk)
#                Space group: P2
#

%BLOCK LATTICE_ABC
      4.63586      6.57440      6.66702
    100.17784     90.00000     90.00000
%ENDBLOCK LATTICE_ABC

%BLOCK POSITIONS_FRAC
  Li   0.3851156  -0.5000000   0.0000000 SPIN=   0.00000
  Li   0.4562521   0.0000000  -0.5000000 SPIN=   0.00000
  Fe  -0.1125709  -0.2902246   0.2491113 SPIN=   4.00000
  Fe  -0.1125709   0.2902246  -0.2491113 SPIN=   4.00000
   O   0.3487883  -0.1298784  -0.2468326 SPIN=   0.00000
   O  -0.0367048  -0.3167800  -0.4611679 SPIN=   0.00000
   O  -0.1617126  -0.0287602  -0.1827385 SPIN=   0.00000
   O   0.0157567  -0.3599126  -0.1016491 SPIN=   0.00000
   S   0.0415319  -0.2088328  -0.2480970 SPIN=   0.00000
   O   0.3487883   0.1298784   0.2468326 SPIN=   0.00000
   O  -0.0367048   0.3167800   0.4611679 SPIN=   0.00000
   O  -0.1617126   0.0287602   0.1827385 SPIN=   0.00000
   O   0.0157567   0.3599126   0.1016491 SPIN=   0.00000
   S   0.0415319   0.2088328   0.2480970 SPIN=   0.00000
   F   0.4354653  -0.2909551   0.2496352 SPIN=   0.00000
   F   0.4354653   0.2909551  -0.2496352 SPIN=   0.00000
%ENDBLOCK POSITIONS_FRAC

# Note: total spin =   8.00

KPOINTS_MP_SPACING 0.07

%BLOCK SPECIES_POT
QC5
%ENDBLOCK SPECIES_POT

SNAP_TO_SYMMETRY
SYMMETRY_GENERATE

