#              Generated by Buildcell
#
# at 21:49:39 (GMT+1.0) 18th August 2020
# in /lustre/scratch/uccabz1/launch_tmp
# on node-c12j-020
# by uccabz1
#
# compiler GCC version 4.9.2
# options -cpp -iprefix /lustre/shared/ucl/apps/gcc/4.9.2/bin/../lib/gcc/x86_64-unknown-linux-gnu/4.9.2/ -mtune=corei7 -march=x86-64 -g -Og
#
# seed   272014717 -1938886206  -629426566 -1221333437   631455263   680505098  1777684482  -247629656   143526062  -216559180   201629163   289017041
#
#      Author: C. J. Pickard (cjp20@cam.ac.uk)
#                Space group: P-1
#

%BLOCK LATTICE_ABC
      4.52031      6.82681      7.20757
     92.58626    107.96973    107.05895
%ENDBLOCK LATTICE_ABC

%BLOCK POSITIONS_FRAC
  Li  -0.0128601   0.3127630   0.2002814 SPIN=   0.00000
  Li   0.0128601  -0.3127630  -0.2002814 SPIN=   0.00000
  Fe   0.2604466   0.2634054  -0.3781403 SPIN=   4.00000
  Fe  -0.2604466  -0.2634054   0.3781403 SPIN=   4.00000
   O   0.7120501   0.2261888   0.3912792 SPIN=   0.00000
   O   0.3108034   0.1944648   0.0586109 SPIN=   0.00000
   O   0.1250098   0.0271956   0.3186866 SPIN=   0.00000
   O   0.4638050  -0.1106486   0.1710003 SPIN=   0.00000
   S   0.4029171   0.0843002   0.2348942 SPIN=   0.00000
   O  -0.7120501  -0.2261888  -0.3912792 SPIN=   0.00000
   O  -0.3108034  -0.1944648  -0.0586109 SPIN=   0.00000
   O  -0.1250098  -0.0271956  -0.3186866 SPIN=   0.00000
   O  -0.4638050   0.1106486  -0.1710003 SPIN=   0.00000
   S  -0.4029171  -0.0843002  -0.2348942 SPIN=   0.00000
   F   0.1015075   0.4147847  -0.2336096 SPIN=   0.00000
   F  -0.1015075  -0.4147847   0.2336096 SPIN=   0.00000
%ENDBLOCK POSITIONS_FRAC

# Note: total spin =   8.00

KPOINTS_MP_SPACING 0.07

%BLOCK SPECIES_POT
QC5
%ENDBLOCK SPECIES_POT

SNAP_TO_SYMMETRY
SYMMETRY_GENERATE

