#              Generated by Buildcell
#
# at 01:59:04 (GMT+1.0) 19th August 2020
# in /scratch/scratch/uccabz1/launch_tmp
# on node-k10i-031
# by uccabz1
#
# compiler GCC version 4.9.2
# options -cpp -iprefix /scratch/UCL/applications/gcc/4.9.2/bin/../lib/gcc/x86_64-unknown-linux-gnu/4.9.2/ -mtune=corei7 -march=x86-64 -g -O2
#
# seed  -314578264  1971876878   709700520 -1549460715 -1571648850 -2071878914  1961782923   247506868   363123928   485432634   -50277016 -1009688512
#
#      Author: C. J. Pickard (cjp20@cam.ac.uk)
#                Space group: P21
#

%BLOCK LATTICE_ABC
      4.95961      6.24144      6.46344
     90.00000     90.00000     91.58620
%ENDBLOCK LATTICE_ABC

%BLOCK POSITIONS_FRAC
  Li   0.2709489   0.4122913  -0.2084394 SPIN=   0.00000
  Li  -0.2709489  -0.4122913   0.2915606 SPIN=   0.00000
  Fe   0.2760620  -0.1049002  -0.4245781 SPIN=   4.00000
  Fe  -0.2760620   0.1049002   0.0754219 SPIN=   4.00000
   O   0.3953761   0.2012433   0.4564510 SPIN=   0.00000
   O   0.2786375   0.5834713   0.4793823 SPIN=   0.00000
   O  -0.0657417   0.3127522   0.3686181 SPIN=   0.00000
   O   0.3161721   0.4090521   0.1371122 SPIN=   0.00000
   S   0.2311110   0.3766297   0.3603909 SPIN=   0.00000
   O  -0.3953761  -0.2012433  -0.0435490 SPIN=   0.00000
   O  -0.2786375  -0.5834713  -0.0206177 SPIN=   0.00000
   O   0.0657417  -0.3127522  -0.1313819 SPIN=   0.00000
   O  -0.3161721  -0.4090521  -0.3628878 SPIN=   0.00000
   S  -0.2311110  -0.3766297  -0.1396091 SPIN=   0.00000
   F   0.1001129   0.1305028  -0.1567654 SPIN=   0.00000
   F  -0.1001129  -0.1305028   0.3432346 SPIN=   0.00000
%ENDBLOCK POSITIONS_FRAC

# Note: total spin =   8.00

KPOINTS_MP_SPACING 0.07

%BLOCK SPECIES_POT
QC5
%ENDBLOCK SPECIES_POT

SNAP_TO_SYMMETRY
SYMMETRY_GENERATE

