#              Generated by Buildcell
#
# at 03:42:34 (GMT+1.0) 4th August 2020
# in /lustre/scratch/uccabz1/launch_tmp
# on node-c12d-013
# by uccabz1
#
# compiler GCC version 4.9.2
# options -cpp -iprefix /lustre/shared/ucl/apps/gcc/4.9.2/bin/../lib/gcc/x86_64-unknown-linux-gnu/4.9.2/ -mtune=corei7 -march=x86-64 -g -Og
#
# seed   475475551 -2062820277  1854771683   618532703  1872188488   582878228   381022360  -180595051  1341167652  2072397674 -1660030882 -1759534611
#
#      Author: C. J. Pickard (cjp20@cam.ac.uk)
#                Space group: Pmc21
#

%BLOCK LATTICE_ABC
      5.34500      5.79882      6.45273
     90.00000     90.00000     90.00000
%ENDBLOCK LATTICE_ABC

%BLOCK POSITIONS_FRAC
  Li   0.1222765   0.5000000   0.2724592 SPIN=   0.00000
  Li  -0.3777235   0.5000000  -0.2724592 SPIN=   0.00000
  Fe  -0.1569590   0.0000000  -0.3092600 SPIN=   4.00000
  Fe   0.3430410   0.0000000   0.3092600 SPIN=   4.00000
   O  -0.3058290   0.2954570   0.4721997 SPIN=   0.00000
   O  -0.4959308   0.2948456   0.1224768 SPIN=   0.00000
   O   0.1941710  -0.2954570  -0.4721997 SPIN=   0.00000
   O   0.0040692  -0.2948456  -0.1224768 SPIN=   0.00000
   O   0.1941710   0.2954570  -0.4721997 SPIN=   0.00000
   O   0.0040692   0.2948456  -0.1224768 SPIN=   0.00000
   O  -0.3058290  -0.2954570   0.4721997 SPIN=   0.00000
   O  -0.4959308  -0.2948456   0.1224768 SPIN=   0.00000
   S  -0.3760779   0.5000000   0.2256190 SPIN=   0.00000
   S   0.1239221  -0.5000000  -0.2256190 SPIN=   0.00000
   F  -0.0094384   0.0000000   0.2414154 SPIN=   0.00000
   F   0.4905616   0.0000000  -0.2414154 SPIN=   0.00000
%ENDBLOCK POSITIONS_FRAC

# Note: total spin =   8.00

KPOINTS_MP_SPACING 0.07

%BLOCK SPECIES_POT
QC5
%ENDBLOCK SPECIES_POT

SNAP_TO_SYMMETRY
SYMMETRY_GENERATE

