#              Generated by Buildcell
#
# at 22:55:07 (GMT+1.0) 18th August 2020
# in /scratch/scratch/uccabz1/launch_tmp
# on node-k10f-025
# by uccabz1
#
# compiler GCC version 4.9.2
# options -cpp -iprefix /scratch/UCL/applications/gcc/4.9.2/bin/../lib/gcc/x86_64-unknown-linux-gnu/4.9.2/ -mtune=corei7 -march=x86-64 -g -O2
#
# seed -1107111741  -244649409 -1771380486  -503183146   659710743   908050179   -95569267  -449743470  1926656269 -1823298856    67820698  2060899728
#
#      Author: C. J. Pickard (cjp20@cam.ac.uk)
#                Space group: Cc
#

%BLOCK LATTICE_ABC
      5.07877      6.28227      7.07287
     63.63359     86.25999     81.55407
%ENDBLOCK LATTICE_ABC

%BLOCK POSITIONS_FRAC
  Li  -0.1464592   0.0895582  -0.3927253 SPIN=   0.00000
  Li   0.3535408  -0.3031670   0.3927253 SPIN=   0.00000
  Fe   0.1505727   0.4026392   0.2145609 SPIN=   4.00000
  Fe  -0.3494273  -0.3827999  -0.2145609 SPIN=   4.00000
   O   0.1017084   0.0001165   0.3131667 SPIN=   0.00000
   O  -0.0308509  -0.2701524   0.1774614 SPIN=   0.00000
   O  -0.2303689   0.1554519   0.0259997 SPIN=   0.00000
   O  -0.3486076  -0.1246149   0.3881904 SPIN=   0.00000
   S  -0.1270297  -0.0597997   0.2262046 SPIN=   0.00000
   O   0.6017084   0.3132832  -0.3131667 SPIN=   0.00000
   O   0.4691491  -0.0926911  -0.1774614 SPIN=   0.00000
   O   0.2696311   0.1814517  -0.0259997 SPIN=   0.00000
   O   0.1513924   0.2635756  -0.3881904 SPIN=   0.00000
   S   0.3729703   0.1664048  -0.2262046 SPIN=   0.00000
   F   0.0396711  -0.2916134  -0.2310049 SPIN=   0.00000
   F  -0.4603289   0.4773816   0.2310049 SPIN=   0.00000
%ENDBLOCK POSITIONS_FRAC

# Note: total spin =   8.00

KPOINTS_MP_SPACING 0.07

%BLOCK SPECIES_POT
QC5
%ENDBLOCK SPECIES_POT

SNAP_TO_SYMMETRY
SYMMETRY_GENERATE

