#              Generated by Buildcell
#
# at 03:45:52 (GMT+1.0) 4th August 2020
# in /lustre/scratch/uccabz1/launch_tmp
# on node-c12f-036
# by uccabz1
#
# compiler GCC version 4.9.2
# options -cpp -iprefix /lustre/shared/ucl/apps/gcc/4.9.2/bin/../lib/gcc/x86_64-unknown-linux-gnu/4.9.2/ -mtune=corei7 -march=x86-64 -g -Og
#
# seed   400645779 -1347277652  1697279715  1042135528   892027409   107828835 -1171346585  -180511103  1437059610   559818069  1082202941  1274577798
#
#      Author: C. J. Pickard (cjp20@cam.ac.uk)
#                Space group: Pc
#

%BLOCK LATTICE_ABC
      4.17919      5.55957      8.72729
     90.00000     90.00000     99.48865
%ENDBLOCK LATTICE_ABC

%BLOCK POSITIONS_FRAC
  Li  -0.0099493  -0.4609757  -0.3480373 SPIN=   0.00000
  Li  -0.0099493   0.0390243   0.3480373 SPIN=   0.00000
  Fe  -0.4143560  -0.0612937  -0.3568295 SPIN=   4.00000
  Fe  -0.4143560   0.4387063   0.3568295 SPIN=   4.00000
   O   0.1873079  -0.2597353   0.0801245 SPIN=   0.00000
   O   0.3394070   0.1652554   0.1713217 SPIN=   0.00000
   O   0.7525416  -0.0463610   0.0516887 SPIN=   0.00000
   O   0.5368202  -0.1709927   0.3088781 SPIN=   0.00000
   S   0.4540192  -0.0779584   0.1530033 SPIN=   0.00000
   O   0.1873079   0.2402647  -0.0801245 SPIN=   0.00000
   O   0.3394070   0.6652554  -0.1713217 SPIN=   0.00000
   O   0.7525416   0.4536390  -0.0516887 SPIN=   0.00000
   O   0.5368202   0.3290073  -0.3088781 SPIN=   0.00000
   S   0.4540192   0.4220416  -0.1530033 SPIN=   0.00000
   F   0.0061581  -0.1042076  -0.3459674 SPIN=   0.00000
   F   0.0061581   0.3957924   0.3459674 SPIN=   0.00000
%ENDBLOCK POSITIONS_FRAC

# Note: total spin =   8.00

KPOINTS_MP_SPACING 0.07

%BLOCK SPECIES_POT
QC5
%ENDBLOCK SPECIES_POT

SNAP_TO_SYMMETRY
SYMMETRY_GENERATE

