#              Generated by Buildcell
#
# at 01:47:44 (GMT+1.0) 19th August 2020
# in /lustre/scratch/uccabz1/launch_tmp
# on node-c12f-017
# by uccabz1
#
# compiler GCC version 4.9.2
# options -cpp -iprefix /lustre/shared/ucl/apps/gcc/4.9.2/bin/../lib/gcc/x86_64-unknown-linux-gnu/4.9.2/ -mtune=corei7 -march=x86-64 -g -Og
#
# seed -1126171913   748141431  1139038523   -73130507  -199477263  -686692230 -1804727304  1028358671 -2036892793  1337806007    88346297 -1848760830
#
#      Author: C. J. Pickard (cjp20@cam.ac.uk)
#                Space group: Pba2
#

%BLOCK LATTICE_ABC
      5.19694      5.74919      6.69385
     90.00000     90.00000     90.00000
%ENDBLOCK LATTICE_ABC

%BLOCK POSITIONS_FRAC
  Li   0.0000000   0.0000000  -0.2329720 SPIN=   0.00000
  Li   0.5000000  -0.5000000  -0.2329720 SPIN=   0.00000
  Fe   0.0000000  -0.5000000   0.0239248 SPIN=   4.00000
  Fe   0.5000000   0.0000000   0.0239248 SPIN=   4.00000
   O  -0.4035043  -0.2026371  -0.3550881 SPIN=   0.00000
   O  -0.1334461  -0.3468537  -0.6332841 SPIN=   0.00000
   O   0.4035043   0.2026371  -0.3550881 SPIN=   0.00000
   O   0.1334461   0.3468537  -0.6332841 SPIN=   0.00000
   O  -0.0964957   0.2973629  -0.3550881 SPIN=   0.00000
   O  -0.3665539   0.1531463  -0.6332841 SPIN=   0.00000
   O   0.0964957  -0.2973629  -0.3550881 SPIN=   0.00000
   O   0.3665539  -0.1531463  -0.6332841 SPIN=   0.00000
   S  -0.5000000   0.0000000  -0.4760973 SPIN=   0.00000
   S  -0.0000000  -0.5000000  -0.4760973 SPIN=   0.00000
   F   0.0000000   0.0000000   0.0886638 SPIN=   0.00000
   F   0.5000000  -0.5000000   0.0886638 SPIN=   0.00000
%ENDBLOCK POSITIONS_FRAC

# Note: total spin =   8.00

KPOINTS_MP_SPACING 0.07

%BLOCK SPECIES_POT
QC5
%ENDBLOCK SPECIES_POT

SNAP_TO_SYMMETRY
SYMMETRY_GENERATE

