#              Generated by Buildcell
#
# at 01:00:35 (GMT+1.0) 19th August 2020
# in /lustre/scratch/uccabz1/launch_tmp
# on node-c12c-009
# by uccabz1
#
# compiler GCC version 4.9.2
# options -cpp -iprefix /lustre/shared/ucl/apps/gcc/4.9.2/bin/../lib/gcc/x86_64-unknown-linux-gnu/4.9.2/ -mtune=corei7 -march=x86-64 -g -Og
#
# seed   760144279 -1426115899   806990472   -97580211   129608071 -1033796300   -46002808   275956276 -1123962006   497195142  1064552125  1402317997
#
#      Author: C. J. Pickard (cjp20@cam.ac.uk)
#                Space group: P2/c
#

%BLOCK LATTICE_ABC
      4.12866      5.67016      8.91359
     90.00000     90.00000    106.57303
%ENDBLOCK LATTICE_ABC

%BLOCK POSITIONS_FRAC
  Li  -0.0000000  -0.2500000   0.1152351 SPIN=   0.00000
  Li   0.0000000   0.2500000  -0.1152351 SPIN=   0.00000
  Fe   0.5000000  -0.2500000   0.3656008 SPIN=   4.00000
  Fe   0.5000000   0.2500000  -0.3656008 SPIN=   4.00000
   O  -0.2623529   0.0968907   0.2095731 SPIN=   0.00000
   O  -0.2756629  -0.0671029  -0.0483738 SPIN=   0.00000
   O   0.2623529   0.4031093   0.2095731 SPIN=   0.00000
   O   0.2756629   0.5671029  -0.0483738 SPIN=   0.00000
   O   0.2623529  -0.0968907  -0.2095731 SPIN=   0.00000
   O   0.2756629   0.0671029   0.0483738 SPIN=   0.00000
   O  -0.2623529  -0.4031093  -0.2095731 SPIN=   0.00000
   O  -0.2756629  -0.5671029   0.0483738 SPIN=   0.00000
   S  -0.5000000   0.2500000   0.1531301 SPIN=   0.00000
   S   0.5000000  -0.2500000  -0.1531301 SPIN=   0.00000
   F  -0.0000000  -0.2500000   0.3303737 SPIN=   0.00000
   F   0.0000000   0.2500000  -0.3303737 SPIN=   0.00000
%ENDBLOCK POSITIONS_FRAC

# Note: total spin =   8.00

KPOINTS_MP_SPACING 0.07

%BLOCK SPECIES_POT
QC5
%ENDBLOCK SPECIES_POT

SNAP_TO_SYMMETRY
SYMMETRY_GENERATE

