#              Generated by Buildcell
#
# at 05:13:02 (GMT+1.0) 4th August 2020
# in /lustre/scratch/uccabz1/launch_tmp
# on node-c12g-019
# by uccabz1
#
# compiler GCC version 4.9.2
# options -cpp -iprefix /lustre/shared/ucl/apps/gcc/4.9.2/bin/../lib/gcc/x86_64-unknown-linux-gnu/4.9.2/ -mtune=corei7 -march=x86-64 -g -Og
#
# seed  -212453828  2020857312 -1703581823  1215713242  -590325853   -38321064  1652430782  1039838992   961128811  -817072286   942824835   324176700
#
#      Author: C. J. Pickard (cjp20@cam.ac.uk)
#                Space group: Pc
#

%BLOCK LATTICE_ABC
      5.37364      5.92914      6.42102
     90.00000     90.00000    102.14723
%ENDBLOCK LATTICE_ABC

%BLOCK POSITIONS_FRAC
  Li   0.3354957   0.0929494   0.3086831 SPIN=   0.00000
  Li  -0.1645043   0.0929494  -0.3086831 SPIN=   0.00000
  Fe   0.0990868  -0.3390864  -0.1979438 SPIN=   4.00000
  Fe  -0.4009132  -0.3390864   0.1979438 SPIN=   4.00000
   O   0.1492348   0.3284955  -0.2793415 SPIN=   0.00000
   O   0.2722198  -0.0336242  -0.3873781 SPIN=   0.00000
   O   0.4150799   0.1435339  -0.0471796 SPIN=   0.00000
   O   0.5962673   0.3307991  -0.3738289 SPIN=   0.00000
   S   0.3582004   0.1923011  -0.2719320 SPIN=   0.00000
   O  -0.3507652   0.3284955   0.2793415 SPIN=   0.00000
   O  -0.2277802  -0.0336242   0.3873781 SPIN=   0.00000
   O  -0.0849201   0.1435339   0.0471796 SPIN=   0.00000
   O   0.0962673   0.3307991   0.3738289 SPIN=   0.00000
   S  -0.1417996   0.1923011   0.2719320 SPIN=   0.00000
   F   0.2599758  -0.2312037   0.2499844 SPIN=   0.00000
   F  -0.2400242  -0.2312037  -0.2499844 SPIN=   0.00000
%ENDBLOCK POSITIONS_FRAC

# Note: total spin =   8.00

KPOINTS_MP_SPACING 0.07

%BLOCK SPECIES_POT
QC5
%ENDBLOCK SPECIES_POT

SNAP_TO_SYMMETRY
SYMMETRY_GENERATE

