#              Generated by Buildcell
#
# at 01:44:34 (GMT+1.0) 4th August 2020
# in /lustre/scratch/uccabz1/launch_tmp
# on node-c12f-013
# by uccabz1
#
# compiler GCC version 4.9.2
# options -cpp -iprefix /lustre/shared/ucl/apps/gcc/4.9.2/bin/../lib/gcc/x86_64-unknown-linux-gnu/4.9.2/ -mtune=corei7 -march=x86-64 -g -Og
#
# seed   415756378  -806710557  -853960680  -982536864 -1016623523 -1323271705 -2132620356  -597411538  1900626291  -981919036   693349081  1017258088
#
#      Author: C. J. Pickard (cjp20@cam.ac.uk)
#                Space group: Cc
#

%BLOCK LATTICE_ABC
      4.94126      6.03065      7.43488
     97.54801     90.00000    114.18467
%ENDBLOCK LATTICE_ABC

%BLOCK POSITIONS_FRAC
  Li   0.0331971   0.4092740  -0.1592962 SPIN=   0.00000
  Li   0.3760769   0.4092740   0.3407038 SPIN=   0.00000
  Fe   0.0367117  -0.2354057   0.2417709 SPIN=   4.00000
  Fe  -0.2721174  -0.2354057  -0.2582291 SPIN=   4.00000
   O   0.3259350   0.2662127  -0.1856452 SPIN=   0.00000
   O   0.7524880   0.3023812  -0.3725981 SPIN=   0.00000
   O   0.2444797   0.1340767  -0.5180618 SPIN=   0.00000
   O   0.3846579  -0.1076046  -0.3215632 SPIN=   0.00000
   S   0.4268901   0.1487665  -0.3494671 SPIN=   0.00000
   O  -0.0597223   0.2662127   0.3143548 SPIN=   0.00000
   O  -0.4501068   0.3023812   0.1274019 SPIN=   0.00000
   O  -0.1104030   0.1340767  -0.0180618 SPIN=   0.00000
   O  -0.4922625  -0.1076046   0.1784368 SPIN=   0.00000
   S  -0.2781236   0.1487665   0.1505329 SPIN=   0.00000
   F  -0.2851496  -0.2953531   0.4478244 SPIN=   0.00000
   F  -0.0102035  -0.2953531  -0.0521756 SPIN=   0.00000
%ENDBLOCK POSITIONS_FRAC

# Note: total spin =   8.00

KPOINTS_MP_SPACING 0.07

%BLOCK SPECIES_POT
QC5
%ENDBLOCK SPECIES_POT

SNAP_TO_SYMMETRY
SYMMETRY_GENERATE

