#              Generated by Buildcell
#
# at 05:03:48 (GMT+1.0) 4th August 2020
# in /lustre/scratch/uccabz1/launch_tmp
# on node-c12c-028
# by uccabz1
#
# compiler GCC version 4.9.2
# options -cpp -iprefix /lustre/shared/ucl/apps/gcc/4.9.2/bin/../lib/gcc/x86_64-unknown-linux-gnu/4.9.2/ -mtune=corei7 -march=x86-64 -g -Og
#
# seed -1690730378   598706477  1616029353   797818782  1871139690   975996349 -1640818704  1625615780    39864138  1471113223 -1118971353 -2038973655
#
#      Author: C. J. Pickard (cjp20@cam.ac.uk)
#                Space group: Pmn21
#

%BLOCK LATTICE_ABC
      3.79270      4.54579     11.60039
     90.00000     90.00000     90.00000
%ENDBLOCK LATTICE_ABC

%BLOCK POSITIONS_FRAC
  Li  -0.0155747  -0.0000000  -0.1582231 SPIN=   0.00000
  Li   0.4844253  -0.5000000   0.1582231 SPIN=   0.00000
  Fe  -0.4910527  -0.0000000  -0.4107636 SPIN=   4.00000
  Fe   0.0089473   0.5000000   0.4107636 SPIN=   4.00000
   O   0.0820919  -0.2465333  -0.4485298 SPIN=   0.00000
   O  -0.3191425  -0.2546176  -0.2803129 SPIN=   0.00000
   O   0.5820919  -0.2534667   0.4485298 SPIN=   0.00000
   O   0.1808575  -0.2453824   0.2803129 SPIN=   0.00000
   O   0.5820919   0.2534667   0.4485298 SPIN=   0.00000
   O   0.1808575   0.2453824   0.2803129 SPIN=   0.00000
   O   0.0820919   0.2465333  -0.4485298 SPIN=   0.00000
   O  -0.3191425   0.2546176  -0.2803129 SPIN=   0.00000
   S   0.0098550   0.5000000  -0.2991636 SPIN=   0.00000
   S  -0.4901450   0.0000000   0.2991636 SPIN=   0.00000
   F  -0.0159846  -0.5000000   0.0949493 SPIN=   0.00000
   F   0.4840154   0.0000000  -0.0949493 SPIN=   0.00000
%ENDBLOCK POSITIONS_FRAC

# Note: total spin =   8.00

KPOINTS_MP_SPACING 0.07

%BLOCK SPECIES_POT
QC5
%ENDBLOCK SPECIES_POT

SNAP_TO_SYMMETRY
SYMMETRY_GENERATE

