#              Generated by Buildcell
#
# at 22:32:01 (GMT+1.0) 18th August 2020
# in /lustre/scratch/uccabz1/launch_tmp
# on node-c12a-018
# by uccabz1
#
# compiler GCC version 4.9.2
# options -cpp -iprefix /lustre/shared/ucl/apps/gcc/4.9.2/bin/../lib/gcc/x86_64-unknown-linux-gnu/4.9.2/ -mtune=corei7 -march=x86-64 -g -Og
#
# seed  -342726079  -725851586   -22100625   219593717 -1401247031  2009811980 -1021121244   221453332  -239995987  1439660159  1052373747   698362783
#
#      Author: C. J. Pickard (cjp20@cam.ac.uk)
#                Space group: Cc
#

%BLOCK LATTICE_ABC
      4.58171      4.73040     10.60141
     87.19853     84.20765     61.03450
%ENDBLOCK LATTICE_ABC

%BLOCK POSITIONS_FRAC
  Li   0.3527945   0.2771570   0.2305815 SPIN=   0.00000
  Li   0.1299516  -0.2771570  -0.2694185 SPIN=   0.00000
  Fe   0.4782567  -0.3051112   0.4009046 SPIN=   4.00000
  Fe  -0.3268545   0.3051112  -0.0990954 SPIN=   4.00000
   O  -0.0551635  -0.0802697  -0.4540018 SPIN=   0.00000
   O  -0.6529630   0.0633335  -0.4453614 SPIN=   0.00000
   O  -0.4958317   0.4854558  -0.4136878 SPIN=   0.00000
   O  -0.4044627   0.0679154  -0.2492578 SPIN=   0.00000
   S  -0.4021052   0.1341088  -0.3905772 SPIN=   0.00000
   O   0.3645668   0.0802697   0.0459982 SPIN=   0.00000
   O  -0.0896295  -0.0633335   0.0546386 SPIN=   0.00000
   O   0.4896241  -0.4854558   0.0863122 SPIN=   0.00000
   O   0.1634527  -0.0679154   0.2507422 SPIN=   0.00000
   S   0.2320035  -0.1341088   0.1094228 SPIN=   0.00000
   F   0.0071937  -0.4855668  -0.1304098 SPIN=   0.00000
   F   0.0216269   0.4855668   0.3695902 SPIN=   0.00000
%ENDBLOCK POSITIONS_FRAC

# Note: total spin =   8.00

KPOINTS_MP_SPACING 0.07

%BLOCK SPECIES_POT
QC5
%ENDBLOCK SPECIES_POT

SNAP_TO_SYMMETRY
SYMMETRY_GENERATE

