#              Generated by Buildcell
#
# at 03:11:19 (GMT+1.0) 4th August 2020
# in /lustre/scratch/uccabz1/launch_tmp
# on node-c12f-036
# by uccabz1
#
# compiler GCC version 4.9.2
# options -cpp -iprefix /lustre/shared/ucl/apps/gcc/4.9.2/bin/../lib/gcc/x86_64-unknown-linux-gnu/4.9.2/ -mtune=corei7 -march=x86-64 -g -Og
#
# seed  -479958378  -936799463  -160570198  -205046612  1506570308  1189308477 -2106553469   297305183  -349051039  -587837082  1431486539 -2106674597
#
#      Author: C. J. Pickard (cjp20@cam.ac.uk)
#                Space group: Pba2
#

%BLOCK LATTICE_ABC
      4.77750      6.19104      6.76186
     90.00000     90.00000     90.00000
%ENDBLOCK LATTICE_ABC

%BLOCK POSITIONS_FRAC
  Li   0.5000000  -0.0000000  -0.1259089 SPIN=   0.00000
  Li   0.0000000  -0.5000000  -0.1259089 SPIN=   0.00000
  Fe  -0.0000000  -0.0000000   0.2013618 SPIN=   4.00000
  Fe   0.5000000  -0.5000000   0.2013618 SPIN=   4.00000
   O   0.1413270  -0.2131231  -0.1731286 SPIN=   0.00000
   O   0.1401597  -0.1636444  -0.5363181 SPIN=   0.00000
   O  -0.1413270   0.2131231  -0.1731286 SPIN=   0.00000
   O  -0.1401597   0.1636444  -0.5363181 SPIN=   0.00000
   O  -0.3586730  -0.2868769  -0.1731286 SPIN=   0.00000
   O  -0.3598403  -0.3363556  -0.5363181 SPIN=   0.00000
   O   0.3586730   0.2868769  -0.1731286 SPIN=   0.00000
   O   0.3598403   0.3363556  -0.5363181 SPIN=   0.00000
   S  -0.0000000  -0.0000000  -0.2986359 SPIN=   0.00000
   S   0.5000000  -0.5000000  -0.2986359 SPIN=   0.00000
   F   0.5000000  -0.0000000   0.1635184 SPIN=   0.00000
   F   0.0000000  -0.5000000   0.1635184 SPIN=   0.00000
%ENDBLOCK POSITIONS_FRAC

# Note: total spin =   8.00

KPOINTS_MP_SPACING 0.07

%BLOCK SPECIES_POT
QC5
%ENDBLOCK SPECIES_POT

SNAP_TO_SYMMETRY
SYMMETRY_GENERATE

