#              Generated by Buildcell
#
# at 19:13:51 (GMT+1.0) 18th August 2020
# in /lustre/scratch/uccabz1/launch_tmp
# on node-c12e-025
# by uccabz1
#
# compiler GCC version 4.9.2
# options -cpp -iprefix /lustre/shared/ucl/apps/gcc/4.9.2/bin/../lib/gcc/x86_64-unknown-linux-gnu/4.9.2/ -mtune=corei7 -march=x86-64 -g -Og
#
# seed  -760709099   252304286   240367439  1357903775 -1916562260  1718993720  1671026053 -1036638186  1600077561   390980139  2068059568  1170049125
#
#      Author: C. J. Pickard (cjp20@cam.ac.uk)
#                Space group: P21
#

%BLOCK LATTICE_ABC
      3.85997      6.52005      7.99717
     90.00000     90.00000     96.43109
%ENDBLOCK LATTICE_ABC

%BLOCK POSITIONS_FRAC
  Li   0.1757941   0.0820999   0.2497051 SPIN=   0.00000
  Li  -0.1757941  -0.0820999  -0.2502949 SPIN=   0.00000
  Fe   0.4587840   0.2346292  -0.4226150 SPIN=   4.00000
  Fe  -0.4587840  -0.2346292   0.0773850 SPIN=   4.00000
   O  -0.2475231  -0.4489276  -0.3311867 SPIN=   0.00000
   O   0.2515709  -0.2823120  -0.1680373 SPIN=   0.00000
   O   0.1937146  -0.6592225  -0.2178795 SPIN=   0.00000
   O  -0.2148225  -0.5097700  -0.0264149 SPIN=   0.00000
   S  -0.0042650  -0.4750580  -0.1858796 SPIN=   0.00000
   O   0.2475231   0.4489276   0.1688133 SPIN=   0.00000
   O  -0.2515709   0.2823120   0.3319627 SPIN=   0.00000
   O  -0.1937146   0.6592225   0.2821205 SPIN=   0.00000
   O   0.2148225   0.5097700   0.4735851 SPIN=   0.00000
   S   0.0042650   0.4750580   0.3141204 SPIN=   0.00000
   F  -0.1501206   0.0173454  -0.0273601 SPIN=   0.00000
   F   0.1501206  -0.0173454   0.4726399 SPIN=   0.00000
%ENDBLOCK POSITIONS_FRAC

# Note: total spin =   8.00

KPOINTS_MP_SPACING 0.07

%BLOCK SPECIES_POT
QC5
%ENDBLOCK SPECIES_POT

SNAP_TO_SYMMETRY
SYMMETRY_GENERATE

