#              Generated by Buildcell
#
# at 02:01:25 (GMT+1.0) 4th August 2020
# in /lustre/scratch/uccabz1/launch_tmp
# on node-c12n-020
# by uccabz1
#
# compiler GCC version 4.9.2
# options -cpp -iprefix /lustre/shared/ucl/apps/gcc/4.9.2/bin/../lib/gcc/x86_64-unknown-linux-gnu/4.9.2/ -mtune=corei7 -march=x86-64 -g -Og
#
# seed -1981667412  -211634126  2009197882  -296919120  1685067825 -1291318408 -1448699737   942344453   498259509   702093452 -2077465562   642645663
#
#      Author: C. J. Pickard (cjp20@cam.ac.uk)
#                Space group: Iba2
#

%BLOCK LATTICE_ABC
      5.49418      5.70304      7.51130
    112.31083    111.45238     90.00000
%ENDBLOCK LATTICE_ABC

%BLOCK POSITIONS_FRAC
  Li  -0.0957818  -0.0957818  -0.1915635 SPIN=   0.00000
  Li   0.4042182   0.4042182  -0.1915635 SPIN=   0.00000
  Fe   0.0121770  -0.4878230   0.0243539 SPIN=   4.00000
  Fe  -0.4878230   0.0121770   0.0243539 SPIN=   4.00000
   O  -0.2745218  -0.2914119   0.1421554 SPIN=   0.00000
   O  -0.1293035  -0.4590357   0.4175921 SPIN=   0.00000
   O   0.4166772  -0.5664328   0.1421554 SPIN=   0.00000
   O   0.5468956  -0.1233722   0.4175921 SPIN=   0.00000
   O   0.2254782  -0.0664328   0.1421554 SPIN=   0.00000
   O   0.3706965   0.3766278   0.4175921 SPIN=   0.00000
   O  -0.0833228   0.2085881   0.1421554 SPIN=   0.00000
   O   0.0468956   0.0409643   0.4175921 SPIN=   0.00000
   S   0.1547125   0.1547125   0.3094251 SPIN=   0.00000
   S  -0.3452875  -0.3452875   0.3094251 SPIN=   0.00000
   F   0.3481191  -0.1518809  -0.3037618 SPIN=   0.00000
   F  -0.1518809   0.3481191  -0.3037618 SPIN=   0.00000
%ENDBLOCK POSITIONS_FRAC

# Note: total spin =   8.00

KPOINTS_MP_SPACING 0.07

%BLOCK SPECIES_POT
QC5
%ENDBLOCK SPECIES_POT

SNAP_TO_SYMMETRY
SYMMETRY_GENERATE

