#              Generated by Buildcell
#
# at 04:13:30 (GMT+1.0) 4th August 2020
# in /lustre/scratch/uccabz1/launch_tmp
# on node-c12a-004
# by uccabz1
#
# compiler GCC version 4.9.2
# options -cpp -iprefix /lustre/shared/ucl/apps/gcc/4.9.2/bin/../lib/gcc/x86_64-unknown-linux-gnu/4.9.2/ -mtune=corei7 -march=x86-64 -g -Og
#
# seed   793332882  1540306629   -84758227   800023216  -805986248  1102303797 -1552746252  1648201770  1209840001  -189431947 -1030050562  -625736432
#
#      Author: C. J. Pickard (cjp20@cam.ac.uk)
#                Space group: P21
#

%BLOCK LATTICE_ABC
      3.99474      5.08071     10.21865
     90.00000     90.00000    105.35041
%ENDBLOCK LATTICE_ABC

%BLOCK POSITIONS_FRAC
  Li   0.4224670   0.4566146  -0.0606853 SPIN=   0.00000
  Li  -0.4224670  -0.4566146   0.4393147 SPIN=   0.00000
  Fe  -0.0610131  -0.0519267  -0.1794142 SPIN=   4.00000
  Fe   0.0610131   0.0519267   0.3205858 SPIN=   4.00000
   O   0.1600155   0.3762071  -0.2486702 SPIN=   0.00000
   O   0.1268239   0.2990440  -0.4880031 SPIN=   0.00000
   O   0.2276378   0.7672837  -0.3999031 SPIN=   0.00000
   O  -0.3463145   0.4356536  -0.3731949 SPIN=   0.00000
   S   0.0420407   0.4695471  -0.3774428 SPIN=   0.00000
   O  -0.1600155  -0.3762071   0.2513298 SPIN=   0.00000
   O  -0.1268239  -0.2990440   0.0119969 SPIN=   0.00000
   O  -0.2276378  -0.7672837   0.1000969 SPIN=   0.00000
   O   0.3463145  -0.4356536   0.1268051 SPIN=   0.00000
   S  -0.0420407  -0.4695471   0.1225572 SPIN=   0.00000
   F  -0.4649654  -0.0019949   0.3679715 SPIN=   0.00000
   F   0.4649654   0.0019949  -0.1320285 SPIN=   0.00000
%ENDBLOCK POSITIONS_FRAC

# Note: total spin =   8.00

KPOINTS_MP_SPACING 0.07

%BLOCK SPECIES_POT
QC5
%ENDBLOCK SPECIES_POT

SNAP_TO_SYMMETRY
SYMMETRY_GENERATE

