#              Generated by Buildcell
#
# at 22:54:21 (GMT+1.0) 18th August 2020
# in /lustre/scratch/uccabz1/launch_tmp
# on node-c12j-002
# by uccabz1
#
# compiler GCC version 4.9.2
# options -cpp -iprefix /lustre/shared/ucl/apps/gcc/4.9.2/bin/../lib/gcc/x86_64-unknown-linux-gnu/4.9.2/ -mtune=corei7 -march=x86-64 -g -Og
#
# seed    72874610   613642806  1199217459   485833595   829611841 -1848108530  1514097662   732161960   229079629  1940016360  -829069673 -1659469115
#
#      Author: C. J. Pickard (cjp20@cam.ac.uk)
#                Space group: P2
#

%BLOCK LATTICE_ABC
      5.51978      5.89878      6.14260
     90.00000     90.00000     90.31130
%ENDBLOCK LATTICE_ABC

%BLOCK POSITIONS_FRAC
  Li  -0.2442786   0.2468204  -0.2710083 SPIN=   0.00000
  Li   0.2442786  -0.2468204  -0.2710083 SPIN=   0.00000
  Fe  -0.2558680  -0.2486441  -0.4621913 SPIN=   4.00000
  Fe   0.2558680   0.2486441  -0.4621913 SPIN=   4.00000
   O   0.1832392  -0.4146953   0.3882132 SPIN=   0.00000
   O   0.5029732  -0.2911251   0.1311723 SPIN=   0.00000
   O   0.2068984  -0.0135711   0.2716480 SPIN=   0.00000
   O   0.0754876  -0.3092191   0.0106030 SPIN=   0.00000
   S   0.2421496  -0.2571527   0.2004091 SPIN=   0.00000
   O  -0.1832392   0.4146953   0.3882132 SPIN=   0.00000
   O  -0.5029732   0.2911251   0.1311723 SPIN=   0.00000
   O  -0.2068984   0.0135711   0.2716480 SPIN=   0.00000
   O  -0.0754876   0.3092191   0.0106030 SPIN=   0.00000
   S  -0.2421496   0.2571527   0.2004091 SPIN=   0.00000
   F   0.0000000   0.0000000  -0.2996747 SPIN=   0.00000
   F  -0.5000000  -0.5000000  -0.2994697 SPIN=   0.00000
%ENDBLOCK POSITIONS_FRAC

# Note: total spin =   8.00

KPOINTS_MP_SPACING 0.07

%BLOCK SPECIES_POT
QC5
%ENDBLOCK SPECIES_POT

SNAP_TO_SYMMETRY
SYMMETRY_GENERATE

