#              Generated by Buildcell
#
# at 02:21:49 (GMT+1.0) 4th August 2020
# in /lustre/scratch/uccabz1/launch_tmp
# on node-c12f-023
# by uccabz1
#
# compiler GCC version 4.9.2
# options -cpp -iprefix /lustre/shared/ucl/apps/gcc/4.9.2/bin/../lib/gcc/x86_64-unknown-linux-gnu/4.9.2/ -mtune=corei7 -march=x86-64 -g -Og
#
# seed -1752607636   231133312   539188453  1817106060   764912897    71090203  1572232330    49736492   944208198  2010360290  1150573858  -142810263
#
#      Author: C. J. Pickard (cjp20@cam.ac.uk)
#                Space group: Cm
#

%BLOCK LATTICE_ABC
      5.88342      5.88342      5.89444
     94.42726     94.42726     99.15905
%ENDBLOCK LATTICE_ABC

%BLOCK POSITIONS_FRAC
  Li  -0.4130230   0.0616065   0.1929216 SPIN=   0.00000
  Li   0.0616065  -0.4130230   0.1929216 SPIN=   0.00000
  Fe  -0.2983904  -0.2983904  -0.4862286 SPIN=   6.54245
  Fe   0.1861940   0.1861940   0.4712968 SPIN=   1.45755
   O  -0.0062426  -0.2717057  -0.2190353 SPIN=   0.00000
   O   0.3533009  -0.1557718  -0.4030145 SPIN=   0.00000
   O   0.3627170  -0.3723326  -0.0596929 SPIN=   0.00000
   O   0.3001880   0.0345990  -0.0260019 SPIN=   0.00000
   S   0.2524908  -0.1913028  -0.1769361 SPIN=   0.00000
   O  -0.2717057  -0.0062426  -0.2190353 SPIN=   0.00000
   O  -0.1557718   0.3533009  -0.4030145 SPIN=   0.00000
   O  -0.3723326   0.3627170  -0.0596929 SPIN=   0.00000
   O   0.0345990   0.3001880  -0.0260019 SPIN=   0.00000
   S  -0.1913028   0.2524908  -0.1769361 SPIN=   0.00000
   F   0.4017677   0.4017677   0.3035126 SPIN=   0.00000
   F  -0.0974729  -0.0974729   0.3119556 SPIN=   0.00000
%ENDBLOCK POSITIONS_FRAC

# Note: total spin =   8.00

KPOINTS_MP_SPACING 0.07

%BLOCK SPECIES_POT
QC5
%ENDBLOCK SPECIES_POT

SNAP_TO_SYMMETRY
SYMMETRY_GENERATE

