#              Generated by Buildcell
#
# at 21:21:14 (GMT+1.0) 18th August 2020
# in /lustre/scratch/uccabz1/launch_tmp
# on node-c12a-018
# by uccabz1
#
# compiler GCC version 4.9.2
# options -cpp -iprefix /lustre/shared/ucl/apps/gcc/4.9.2/bin/../lib/gcc/x86_64-unknown-linux-gnu/4.9.2/ -mtune=corei7 -march=x86-64 -g -Og
#
# seed -1736572043  -351129640   436331348  -553844136  -843071122 -1580257143   377199997 -1310915220   642567868  2077580510  1499096752 -1057810056
#
#      Author: C. J. Pickard (cjp20@cam.ac.uk)
#                Space group: P42
#

%BLOCK LATTICE_ABC
      4.05271      4.05271     12.17694
     90.00000     90.00000     90.00000
%ENDBLOCK LATTICE_ABC

%BLOCK POSITIONS_FRAC
  Li  -0.5000000  -0.5000000  -0.1394360 SPIN=   0.00000
  Li   0.5000000   0.5000000   0.3605640 SPIN=   0.00000
  Fe   0.0000000   0.0000000  -0.0595333 SPIN=   4.00000
  Fe   0.0000000   0.0000000   0.4404667 SPIN=   4.00000
   O   0.2601243   0.3116328   0.2268461 SPIN=   0.00000
   O  -0.1494786   0.2449348   0.0777464 SPIN=   0.00000
   O  -0.2601243  -0.3116328   0.2268461 SPIN=   0.00000
   O   0.1494786  -0.2449348   0.0777464 SPIN=   0.00000
   O   0.3116328  -0.2601243  -0.2731539 SPIN=   0.00000
   O   0.2449348   0.1494786  -0.4222536 SPIN=   0.00000
   O  -0.3116328   0.2601243  -0.2731539 SPIN=   0.00000
   O  -0.2449348  -0.1494786  -0.4222536 SPIN=   0.00000
   S   0.0000000   0.5000000  -0.2833410 SPIN=   0.00000
   S   0.5000000   0.0000000   0.2166590 SPIN=   0.00000
   F   0.5000000  -0.0000000  -0.0851240 SPIN=   0.00000
   F   0.0000000  -0.5000000   0.4148760 SPIN=   0.00000
%ENDBLOCK POSITIONS_FRAC

# Note: total spin =   8.00

KPOINTS_MP_SPACING 0.07

%BLOCK SPECIES_POT
QC5
%ENDBLOCK SPECIES_POT

SNAP_TO_SYMMETRY
SYMMETRY_GENERATE

