#              Generated by Buildcell
#
# at 00:00:23 (GMT+1.0) 19th August 2020
# in /lustre/scratch/uccabz1/launch_tmp
# on node-c12p-014
# by uccabz1
#
# compiler GCC version 4.9.2
# options -cpp -iprefix /lustre/shared/ucl/apps/gcc/4.9.2/bin/../lib/gcc/x86_64-unknown-linux-gnu/4.9.2/ -mtune=corei7 -march=x86-64 -g -Og
#
# seed -1897508434  2132230160 -1969167203  1337436705 -1971279476  1120005037 -1099443483  -303482376 -1296196030 -1342487372 -1065464919 -1268981469
#
#      Author: C. J. Pickard (cjp20@cam.ac.uk)
#                Space group: Pc
#

%BLOCK LATTICE_ABC
      4.15157      6.25074      7.83752
     90.00000    100.47049     90.00000
%ENDBLOCK LATTICE_ABC

%BLOCK POSITIONS_FRAC
  Li  -0.4478998  -0.0096400   0.4627419 SPIN=   0.00000
  Li  -0.4478998   0.0096400  -0.0372581 SPIN=   0.00000
  Fe  -0.1512890  -0.3034820   0.2486816 SPIN=   4.00000
  Fe  -0.1512890   0.3034820  -0.2513184 SPIN=   4.00000
   O   0.0913559  -0.3232529  -0.4984523 SPIN=   0.00000
   O   0.2041443  -0.0888578  -0.2399777 SPIN=   0.00000
   O   0.6612159  -0.2705374  -0.3444190 SPIN=   0.00000
   O   0.2723062  -0.4808974  -0.2071341 SPIN=   0.00000
   S   0.3072555  -0.2908864  -0.3224958 SPIN=   0.00000
   O   0.0913559   0.3232529   0.0015477 SPIN=   0.00000
   O   0.2041443   0.0888578   0.2600223 SPIN=   0.00000
   O   0.6612159   0.2705374   0.1555810 SPIN=   0.00000
   O   0.2723062   0.4808974   0.2928659 SPIN=   0.00000
   S   0.3072555   0.2908864   0.1775042 SPIN=   0.00000
   F  -0.0676156   0.1973447  -0.4713428 SPIN=   0.00000
   F  -0.0676156  -0.1973447   0.0286572 SPIN=   0.00000
%ENDBLOCK POSITIONS_FRAC

# Note: total spin =   8.00

KPOINTS_MP_SPACING 0.07

%BLOCK SPECIES_POT
QC5
%ENDBLOCK SPECIES_POT

SNAP_TO_SYMMETRY
SYMMETRY_GENERATE

