#              Generated by Buildcell
#
# at 22:34:39 (GMT+1.0) 18th August 2020
# in /scratch/scratch/uccabz1/launch_tmp
# on node-k10i-017
# by uccabz1
#
# compiler GCC version 4.9.2
# options -cpp -iprefix /scratch/UCL/applications/gcc/4.9.2/bin/../lib/gcc/x86_64-unknown-linux-gnu/4.9.2/ -mtune=corei7 -march=x86-64 -g -O2
#
# seed  1261440875 -1273879732  1195083986  -494571944  1725471202  1335336183 -1793843642 -1445628074  1612684385  1656576311   670093229    -5826581
#
#      Author: C. J. Pickard (cjp20@cam.ac.uk)
#                Space group: Pc
#

%BLOCK LATTICE_ABC
      3.98280      7.00031      7.86706
    114.24113     90.00000     90.00000
%ENDBLOCK LATTICE_ABC

%BLOCK POSITIONS_FRAC
  Li  -0.1623988  -0.1374364  -0.0258548 SPIN=   0.00000
  Li   0.1623988   0.3625636   0.4741452 SPIN=   0.00000
  Fe   0.3309453  -0.0948280  -0.2997288 SPIN=   4.00000
  Fe  -0.3309453   0.4051720   0.2002712 SPIN=   4.00000
   O  -0.0588514   0.5455590  -0.2956659 SPIN=   0.00000
   O  -0.2344030   0.4362686  -0.0471452 SPIN=   0.00000
   O   0.2899883   0.6385687  -0.0125255 SPIN=   0.00000
   O   0.2585650   0.2701725  -0.2439061 SPIN=   0.00000
   S   0.0638247   0.4726422  -0.1498107 SPIN=   0.00000
   O   0.0588514   0.0455590   0.2043341 SPIN=   0.00000
   O   0.2344030  -0.0637314   0.4528548 SPIN=   0.00000
   O  -0.2899883   0.1385687   0.4874745 SPIN=   0.00000
   O  -0.2585650  -0.2298275   0.2560939 SPIN=   0.00000
   S  -0.0638247  -0.0273578   0.3501893 SPIN=   0.00000
   F  -0.4719178   0.0911940  -0.0205406 SPIN=   0.00000
   F   0.4719178  -0.4088060   0.4794594 SPIN=   0.00000
%ENDBLOCK POSITIONS_FRAC

# Note: total spin =   8.00

KPOINTS_MP_SPACING 0.07

%BLOCK SPECIES_POT
QC5
%ENDBLOCK SPECIES_POT

SNAP_TO_SYMMETRY
SYMMETRY_GENERATE

