#              Generated by Buildcell
#
# at 03:58:48 (GMT+1.0) 4th August 2020
# in /lustre/scratch/uccabz1/launch_tmp
# on node-c12l-020
# by uccabz1
#
# compiler GCC version 4.9.2
# options -cpp -iprefix /lustre/shared/ucl/apps/gcc/4.9.2/bin/../lib/gcc/x86_64-unknown-linux-gnu/4.9.2/ -mtune=corei7 -march=x86-64 -g -Og
#
# seed  -825596817   651204234  -742628530  1127286460   494054592   137036815 -1674007567   -91925244   436806993   778303942  -216728958 -1656445116
#
#      Author: C. J. Pickard (cjp20@cam.ac.uk)
#                Space group: C2/m
#

%BLOCK LATTICE_ABC
      4.78419      6.52809      6.94782
     97.31434     90.00000    111.49565
%ENDBLOCK LATTICE_ABC

%BLOCK POSITIONS_FRAC
  Li  -0.1545385  -0.3090770  -0.1093830 SPIN=   0.00000
  Li   0.1545385   0.3090770   0.1093830 SPIN=   0.00000
  Fe   0.5000000   0.0000000   0.0000000 SPIN=   1.32677
  Fe   0.0000000  -0.0000000  -0.5000000 SPIN=   6.67323
   O  -0.3989048  -0.2979350   0.2680228 SPIN=   0.00000
   O  -0.4145890  -0.3290720   0.6194847 SPIN=   0.00000
   O  -0.1009698   0.2979350  -0.2680228 SPIN=   0.00000
   O  -0.0855170   0.3290720  -0.6194847 SPIN=   0.00000
   O   0.3989048   0.2979350  -0.2680228 SPIN=   0.00000
   O   0.4145890   0.3290720  -0.6194847 SPIN=   0.00000
   O   0.1009698  -0.2979350   0.2680228 SPIN=   0.00000
   O   0.0855170  -0.3290720   0.6194847 SPIN=   0.00000
   S  -0.2494978  -0.4989957   0.2495011 SPIN=   0.00000
   S   0.2494978   0.4989957  -0.2495011 SPIN=   0.00000
   F  -0.5000000  -0.0000000   0.5000000 SPIN=   0.00000
   F  -0.0000000  -0.0000000  -0.0000000 SPIN=   0.00000
%ENDBLOCK POSITIONS_FRAC

# Note: total spin =   8.00

KPOINTS_MP_SPACING 0.07

%BLOCK SPECIES_POT
QC5
%ENDBLOCK SPECIES_POT

SNAP_TO_SYMMETRY
SYMMETRY_GENERATE

