#              Generated by Buildcell
#
# at 20:18:05 (GMT+1.0) 18th August 2020
# in /lustre/scratch/uccabz1/launch_tmp
# on node-c12i-018
# by uccabz1
#
# compiler GCC version 4.9.2
# options -cpp -iprefix /lustre/shared/ucl/apps/gcc/4.9.2/bin/../lib/gcc/x86_64-unknown-linux-gnu/4.9.2/ -mtune=corei7 -march=x86-64 -g -Og
#
# seed  1379774205    67812144 -1939378990  -106442656   385334812 -2037739429  -501229403  1427361477    22557396  -360304823  -894577656  2046440044
#
#      Author: C. J. Pickard (cjp20@cam.ac.uk)
#                Space group: P-1
#

%BLOCK LATTICE_ABC
      5.02008      6.50937      6.71094
     73.83781     72.13920     88.72545
%ENDBLOCK LATTICE_ABC

%BLOCK POSITIONS_FRAC
  Li   0.2029741   0.2986297   0.3248923 SPIN=   0.00000
  Li  -0.2029741  -0.2986297  -0.3248923 SPIN=   0.00000
  Fe   0.3025345   0.3757097  -0.1574941 SPIN=   4.00000
  Fe  -0.3025345  -0.3757097   0.1574941 SPIN=   4.00000
   O  -0.2145513  -0.0454434  -0.0195370 SPIN=   0.00000
   O  -0.1250287   0.3375368  -0.2316576 SPIN=   0.00000
   O  -0.3934912   0.0913820  -0.3336656 SPIN=   0.00000
   O   0.1160398   0.0605595  -0.3961355 SPIN=   0.00000
   S  -0.1542578   0.1110087  -0.2452489 SPIN=   0.00000
   O   0.2145513   0.0454434   0.0195370 SPIN=   0.00000
   O   0.1250287  -0.3375368   0.2316576 SPIN=   0.00000
   O   0.3934912  -0.0913820   0.3336656 SPIN=   0.00000
   O  -0.1160398  -0.0605595   0.3961355 SPIN=   0.00000
   S   0.1542578  -0.1110087   0.2452489 SPIN=   0.00000
   F   0.3576710  -0.3117452  -0.2445569 SPIN=   0.00000
   F  -0.3576710   0.3117452   0.2445569 SPIN=   0.00000
%ENDBLOCK POSITIONS_FRAC

# Note: total spin =   8.00

KPOINTS_MP_SPACING 0.07

%BLOCK SPECIES_POT
QC5
%ENDBLOCK SPECIES_POT

SNAP_TO_SYMMETRY
SYMMETRY_GENERATE

