#              Generated by Buildcell
#
# at 05:20:39 (GMT+1.0) 4th August 2020
# in /lustre/scratch/uccabz1/launch_tmp
# on node-c12k-001
# by uccabz1
#
# compiler GCC version 4.9.2
# options -cpp -iprefix /lustre/shared/ucl/apps/gcc/4.9.2/bin/../lib/gcc/x86_64-unknown-linux-gnu/4.9.2/ -mtune=corei7 -march=x86-64 -g -Og
#
# seed   -95398879   450701537 -1041996276  1758122226   175094092 -2071873112 -2034662039  -166520563 -1144394083   269797895  1075825541   549645450
#
#      Author: C. J. Pickard (cjp20@cam.ac.uk)
#                Space group: Iba2
#

%BLOCK LATTICE_ABC
      4.93519      5.83640      7.92577
    111.60411    108.13990     90.00000
%ENDBLOCK LATTICE_ABC

%BLOCK POSITIONS_FRAC
  Li   0.0489880   0.0489880   0.0979761 SPIN=   0.00000
  Li  -0.4510120  -0.4510120   0.0979761 SPIN=   0.00000
  Fe  -0.2316010  -0.2316010  -0.4632020 SPIN=   4.00000
  Fe   0.2683990   0.2683990  -0.4632020 SPIN=   4.00000
   O  -0.1539937   0.3301961   0.3704043 SPIN=   0.00000
   O  -0.0695279   0.3873158   0.0956979 SPIN=   0.00000
   O   0.5243981   0.0402082   0.3704043 SPIN=   0.00000
   O   0.1652258  -0.2916179   0.0956979 SPIN=   0.00000
   O   0.3460063   0.5402082   0.3704043 SPIN=   0.00000
   O   0.4304721   0.2083821   0.0956979 SPIN=   0.00000
   O   0.0243981  -0.1698039   0.3704043 SPIN=   0.00000
   O  -0.3347742  -0.1126842   0.0956979 SPIN=   0.00000
   S   0.1190291  -0.3809709   0.2380582 SPIN=   0.00000
   S  -0.3809709   0.1190291   0.2380582 SPIN=   0.00000
   F  -0.0887388  -0.0887388  -0.1774776 SPIN=   0.00000
   F   0.4112612   0.4112612  -0.1774776 SPIN=   0.00000
%ENDBLOCK POSITIONS_FRAC

# Note: total spin =   8.00

KPOINTS_MP_SPACING 0.07

%BLOCK SPECIES_POT
QC5
%ENDBLOCK SPECIES_POT

SNAP_TO_SYMMETRY
SYMMETRY_GENERATE

