#              Generated by Buildcell
#
# at 02:40:13 (GMT+1.0) 19th August 2020
# in /scratch/scratch/uccabz1/launch_tmp
# on node-k10b-015
# by uccabz1
#
# compiler GCC version 4.9.2
# options -cpp -iprefix /scratch/UCL/applications/gcc/4.9.2/bin/../lib/gcc/x86_64-unknown-linux-gnu/4.9.2/ -mtune=corei7 -march=x86-64 -g -O2
#
# seed -1346845976 -1112841629  1004199603   798841872 -1240030046  -918399126  -878282642  -876477052  1205332793   681158804  -910766897 -1892101730
#
#      Author: C. J. Pickard (cjp20@cam.ac.uk)
#                Space group: P-1
#

%BLOCK LATTICE_ABC
      4.03134      4.46694     11.70372
     93.49668     99.74284    104.41629
%ENDBLOCK LATTICE_ABC

%BLOCK POSITIONS_FRAC
  Li  -0.2909070   0.2669784  -0.3129221 SPIN=   0.00000
  Li   0.2909070  -0.2669784   0.3129221 SPIN=   0.00000
  Fe   0.5000000  -0.5000000   0.0000000 SPIN=   4.17834
  Fe  -0.0000000   0.0000000   0.5000000 SPIN=   3.82166
   O   0.3671694   0.1554589   0.1743034 SPIN=   0.00000
   O  -0.1110160   0.4084398   0.1235531 SPIN=   0.00000
   O  -0.0631364   0.1434266   0.3029142 SPIN=   0.00000
   S  -0.0119142   0.1354573   0.1775392 SPIN=   0.00000
   O  -0.3671694  -0.1554589  -0.1743034 SPIN=   0.00000
   O   0.1110160  -0.4084398  -0.1235531 SPIN=   0.00000
   O   0.0631364  -0.1434266  -0.3029142 SPIN=   0.00000
   S   0.0119142  -0.1354573  -0.1775392 SPIN=   0.00000
   O  -0.5000000   0.0000000  -0.0000000 SPIN=   0.00000
   O   0.5000000   0.0000000   0.5000000 SPIN=   0.00000
   F  -0.2848816  -0.4000867   0.3756774 SPIN=   0.00000
   F   0.2848816   0.4000867  -0.3756774 SPIN=   0.00000
%ENDBLOCK POSITIONS_FRAC

# Note: total spin =   8.00

KPOINTS_MP_SPACING 0.07

%BLOCK SPECIES_POT
QC5
%ENDBLOCK SPECIES_POT

SNAP_TO_SYMMETRY
SYMMETRY_GENERATE

