#              Generated by Buildcell
#
# at 02:21:54 (GMT+1.0) 4th August 2020
# in /lustre/scratch/uccabz1/launch_tmp
# on node-c12p-029
# by uccabz1
#
# compiler GCC version 4.9.2
# options -cpp -iprefix /lustre/shared/ucl/apps/gcc/4.9.2/bin/../lib/gcc/x86_64-unknown-linux-gnu/4.9.2/ -mtune=corei7 -march=x86-64 -g -Og
#
# seed -1257822949 -2073478116 -1790222511  -352587409 -2000321233  -633771574 -1890628190  -551299397  -372127594   -94984376  1271885381  -362224733
#
#      Author: C. J. Pickard (cjp20@cam.ac.uk)
#                Space group: P-1
#

%BLOCK LATTICE_ABC
      6.22689      6.27155      6.48170
    102.35705    103.73974    118.33356
%ENDBLOCK LATTICE_ABC

%BLOCK POSITIONS_FRAC
  Li  -0.0471735   0.1286923  -0.2331924 SPIN=   0.00000
  Li   0.0471735  -0.1286923   0.2331924 SPIN=   0.00000
  Fe   0.3104643  -0.4546497  -0.3451771 SPIN=   4.00000
  Fe  -0.3104643   0.4546497   0.3451771 SPIN=   4.00000
   O   0.5398899   0.0498544   0.1844683 SPIN=   0.00000
   O   0.3741502  -0.2220679   0.4063155 SPIN=   0.00000
   O   0.6507360  -0.2765918   0.2095735 SPIN=   0.00000
   O   0.1909982  -0.4241290  -0.0182756 SPIN=   0.00000
   S   0.4389436  -0.2182336   0.1955204 SPIN=   0.00000
   O  -0.5398899  -0.0498544  -0.1844683 SPIN=   0.00000
   O  -0.3741502   0.2220679  -0.4063155 SPIN=   0.00000
   O  -0.6507360   0.2765918  -0.2095735 SPIN=   0.00000
   O  -0.1909982   0.4241290   0.0182756 SPIN=   0.00000
   S  -0.4389436   0.2182336  -0.1955204 SPIN=   0.00000
   F  -0.1237368  -0.2193920  -0.3238605 SPIN=   0.00000
   F   0.1237368   0.2193920   0.3238605 SPIN=   0.00000
%ENDBLOCK POSITIONS_FRAC

# Note: total spin =   8.00

KPOINTS_MP_SPACING 0.07

%BLOCK SPECIES_POT
QC5
%ENDBLOCK SPECIES_POT

SNAP_TO_SYMMETRY
SYMMETRY_GENERATE

