#              Generated by Buildcell
#
# at 21:47:15 (GMT+1.0) 18th August 2020
# in /lustre/scratch/uccabz1/launch_tmp
# on node-c12l-017
# by uccabz1
#
# compiler GCC version 4.9.2
# options -cpp -iprefix /lustre/shared/ucl/apps/gcc/4.9.2/bin/../lib/gcc/x86_64-unknown-linux-gnu/4.9.2/ -mtune=corei7 -march=x86-64 -g -Og
#
# seed -1655409683    21452952  -303753273   376473870  1067494244 -1732291500  1825288114  -891496780    44573389  1505330313 -1370071502  1430401780
#
#      Author: C. J. Pickard (cjp20@cam.ac.uk)
#                Space group: P-1
#

%BLOCK LATTICE_ABC
      4.38599      6.08372      7.60868
     94.77245     96.18465     95.53530
%ENDBLOCK LATTICE_ABC

%BLOCK POSITIONS_FRAC
  Li   0.0000000  -0.5000000   0.0000000 SPIN=   0.00000
  Li  -1.0000000  -0.5000000  -0.5000000 SPIN=   0.00000
  Fe  -0.0000000  -0.0000000  -0.0000000 SPIN=   5.59884
  Fe   0.0000000   0.0000000  -0.5000000 SPIN=   2.40116
   O  -0.5877537   0.4698224  -0.3455903 SPIN=   0.00000
   O  -0.5280111   0.0691475  -0.3491584 SPIN=   0.00000
   O  -0.4997649   0.2993264  -0.0627742 SPIN=   0.00000
   O  -0.0782539   0.3468748  -0.2524310 SPIN=   0.00000
   S  -0.4234459   0.2962928  -0.2524885 SPIN=   0.00000
   O   0.5877537  -0.4698224   0.3455903 SPIN=   0.00000
   O   0.5280111  -0.0691475   0.3491584 SPIN=   0.00000
   O   0.4997649  -0.2993264   0.0627742 SPIN=   0.00000
   O   0.0782539  -0.3468748   0.2524310 SPIN=   0.00000
   S   0.4234459  -0.2962928   0.2524885 SPIN=   0.00000
   F   0.0119031   0.1815304   0.2592192 SPIN=   0.00000
   F  -0.0119031  -0.1815304  -0.2592192 SPIN=   0.00000
%ENDBLOCK POSITIONS_FRAC

# Note: total spin =   8.00

KPOINTS_MP_SPACING 0.07

%BLOCK SPECIES_POT
QC5
%ENDBLOCK SPECIES_POT

SNAP_TO_SYMMETRY
SYMMETRY_GENERATE

