#              Generated by Buildcell
#
# at 04:27:18 (GMT+1.0) 4th August 2020
# in /lustre/scratch/uccabz1/launch_tmp
# on node-c12f-014
# by uccabz1
#
# compiler GCC version 4.9.2
# options -cpp -iprefix /lustre/shared/ucl/apps/gcc/4.9.2/bin/../lib/gcc/x86_64-unknown-linux-gnu/4.9.2/ -mtune=corei7 -march=x86-64 -g -Og
#
# seed   918583667   726468436   826910327   993073138 -1794430531   225771868   802267529 -1580530330  1309820530  1086619300 -1491503200  -583973400
#
#      Author: C. J. Pickard (cjp20@cam.ac.uk)
#                Space group: P21
#

%BLOCK LATTICE_ABC
      5.09679      5.40150      7.52712
     90.00000     90.00000    105.17330
%ENDBLOCK LATTICE_ABC

%BLOCK POSITIONS_FRAC
  Li  -0.3679840   0.4059735  -0.2792729 SPIN=   0.00000
  Li   0.3679840  -0.4059735   0.2207271 SPIN=   0.00000
  Fe  -0.3486736   0.1643312   0.2248838 SPIN=   4.00000
  Fe   0.3486736  -0.1643312  -0.2751162 SPIN=   4.00000
   O  -0.2967163  -0.3203922  -0.0788289 SPIN=   0.00000
   O   0.1738558  -0.3384294  -0.0136337 SPIN=   0.00000
   O  -0.1729798  -0.4258908   0.2245419 SPIN=   0.00000
   O   0.0017004   0.0149346   0.1077850 SPIN=   0.00000
   S  -0.0735350  -0.2674445   0.0599661 SPIN=   0.00000
   O   0.2967163   0.3203922  -0.5788289 SPIN=   0.00000
   O  -0.1738558   0.3384294  -0.5136337 SPIN=   0.00000
   O   0.1729798   0.4258908  -0.2754581 SPIN=   0.00000
   O  -0.0017004  -0.0149346  -0.3922150 SPIN=   0.00000
   S   0.0735350   0.2674445  -0.4400339 SPIN=   0.00000
   F   0.4624180  -0.1386427   0.3812400 SPIN=   0.00000
   F  -0.4624180   0.1386427  -0.1187600 SPIN=   0.00000
%ENDBLOCK POSITIONS_FRAC

# Note: total spin =   8.00

KPOINTS_MP_SPACING 0.07

%BLOCK SPECIES_POT
QC5
%ENDBLOCK SPECIES_POT

SNAP_TO_SYMMETRY
SYMMETRY_GENERATE

