#              Generated by Buildcell
#
# at 00:06:06 (GMT+1.0) 19th August 2020
# in /lustre/scratch/uccabz1/launch_tmp
# on node-c12o-024
# by uccabz1
#
# compiler GCC version 4.9.2
# options -cpp -iprefix /lustre/shared/ucl/apps/gcc/4.9.2/bin/../lib/gcc/x86_64-unknown-linux-gnu/4.9.2/ -mtune=corei7 -march=x86-64 -g -Og
#
# seed -1500954936   403686758 -1833807691  -726017739 -1166076401   424718459 -1863568448  -637981260   457958478   -24805191   191991975 -2012967997
#
#      Author: C. J. Pickard (cjp20@cam.ac.uk)
#                Space group: P21212
#

%BLOCK LATTICE_ABC
      5.32249      5.59142      6.72037
     90.00000     90.00000     90.00000
%ENDBLOCK LATTICE_ABC

%BLOCK POSITIONS_FRAC
  Li   0.0000000   0.5000000   0.1433970 SPIN=   0.00000
  Li  -0.5000000   0.0000000  -0.1433970 SPIN=   0.00000
  Fe   0.0000000   0.0000000  -0.4181283 SPIN=   4.00000
  Fe  -0.5000000   0.5000000   0.4181283 SPIN=   4.00000
   O  -0.6841893   0.2689602   0.1913645 SPIN=   0.00000
   O  -0.2385157   0.1463492   0.1663883 SPIN=   0.00000
   O   0.6841893  -0.2689602   0.1913645 SPIN=   0.00000
   O   0.2385157  -0.1463492   0.1663883 SPIN=   0.00000
   O  -0.1841893   0.2310398  -0.1913645 SPIN=   0.00000
   O   0.2614843   0.3536508  -0.1663883 SPIN=   0.00000
   O   0.1841893  -0.2310398  -0.1913645 SPIN=   0.00000
   O  -0.2614843  -0.3536508  -0.1663883 SPIN=   0.00000
   S   0.0000000   0.0000000   0.0818716 SPIN=   0.00000
   S  -0.5000000   0.5000000  -0.0818716 SPIN=   0.00000
   F   0.0000000   0.5000000   0.4639504 SPIN=   0.00000
   F  -0.5000000   0.0000000  -0.4639504 SPIN=   0.00000
%ENDBLOCK POSITIONS_FRAC

# Note: total spin =   8.00

KPOINTS_MP_SPACING 0.07

%BLOCK SPECIES_POT
QC5
%ENDBLOCK SPECIES_POT

SNAP_TO_SYMMETRY
SYMMETRY_GENERATE

