#              Generated by Buildcell
#
# at 05:23:27 (GMT+1.0) 4th August 2020
# in /lustre/scratch/uccabz1/launch_tmp
# on node-c12g-018
# by uccabz1
#
# compiler GCC version 4.9.2
# options -cpp -iprefix /lustre/shared/ucl/apps/gcc/4.9.2/bin/../lib/gcc/x86_64-unknown-linux-gnu/4.9.2/ -mtune=corei7 -march=x86-64 -g -Og
#
# seed -1661085719   600513992 -1431898670   409713119   743540683 -1865034924   964173941 -1426442687  1568246747 -1176318724   -99502801   446449948
#
#      Author: C. J. Pickard (cjp20@cam.ac.uk)
#                Space group: Cc
#

%BLOCK LATTICE_ABC
      5.76417      5.76417      6.44274
    104.54295    104.54295     90.42017
%ENDBLOCK LATTICE_ABC

%BLOCK POSITIONS_FRAC
  Li  -0.0625621  -0.2378742  -0.1950594 SPIN=   0.00000
  Li  -0.2378742  -0.0625621   0.3049406 SPIN=   0.00000
  Fe   0.3920684  -0.3416896  -0.3245662 SPIN=   4.00000
  Fe  -0.3416896   0.3920684   0.1754338 SPIN=   4.00000
   O   0.1282106   0.6142918   0.0216956 SPIN=   0.00000
   O  -0.0214460   0.3215962  -0.3449774 SPIN=   0.00000
   O  -0.0972424   0.2345633  -0.0096543 SPIN=   0.00000
   O   0.3143229   0.2277208  -0.0607538 SPIN=   0.00000
   S   0.0809613   0.3495430  -0.0984225 SPIN=   0.00000
   O   0.6142918   0.1282106   0.5216956 SPIN=   0.00000
   O   0.3215962  -0.0214460   0.1550226 SPIN=   0.00000
   O   0.2345633  -0.0972424   0.4903457 SPIN=   0.00000
   O   0.2277208   0.3143229   0.4392462 SPIN=   0.00000
   S   0.3495430   0.0809613   0.4015775 SPIN=   0.00000
   F  -0.3388525  -0.1524299  -0.0357063 SPIN=   0.00000
   F  -0.1524299  -0.3388525   0.4642937 SPIN=   0.00000
%ENDBLOCK POSITIONS_FRAC

# Note: total spin =   8.00

KPOINTS_MP_SPACING 0.07

%BLOCK SPECIES_POT
QC5
%ENDBLOCK SPECIES_POT

SNAP_TO_SYMMETRY
SYMMETRY_GENERATE

