#              Generated by Buildcell
#
# at 00:11:49 (GMT+1.0) 19th August 2020
# in /lustre/scratch/uccabz1/launch_tmp
# on node-c12m-012
# by uccabz1
#
# compiler GCC version 4.9.2
# options -cpp -iprefix /lustre/shared/ucl/apps/gcc/4.9.2/bin/../lib/gcc/x86_64-unknown-linux-gnu/4.9.2/ -mtune=corei7 -march=x86-64 -g -Og
#
# seed   921319476  1328425420  -613982295    56599537  1074558064   388076245  2012087569 -1243491694  1716384918   -34135745  1337896986   675042808
#
#      Author: C. J. Pickard (cjp20@cam.ac.uk)
#                Space group: Pm
#

%BLOCK LATTICE_ABC
      4.14608      5.66874      8.59594
     90.00000     90.00000     98.13093
%ENDBLOCK LATTICE_ABC

%BLOCK POSITIONS_FRAC
  Li   0.2150357   0.1642946  -0.0000000 SPIN=   0.00000
  Li   0.1674736  -0.1043146  -0.5000000 SPIN=   0.00000
  Fe   0.1020450  -0.4569210  -0.2348341 SPIN=   4.00000
  Fe   0.1020450  -0.4569210   0.2348341 SPIN=   4.00000
   O  -0.5267813  -0.1552749   0.3411426 SPIN=   0.00000
   O   0.0029050   0.0606549   0.2537643 SPIN=   0.00000
   O  -0.4897334   0.2613389   0.2490619 SPIN=   0.00000
   S  -0.3618749   0.0260982   0.2264989 SPIN=   0.00000
   O  -0.5267813  -0.1552749  -0.3411426 SPIN=   0.00000
   O   0.0029050   0.0606549  -0.2537643 SPIN=   0.00000
   O  -0.4897334   0.2613389  -0.2490619 SPIN=   0.00000
   S  -0.3618749   0.0260982  -0.2264989 SPIN=   0.00000
   O  -0.1879992   0.0766983   0.5000000 SPIN=   0.00000
   O   0.3420501   0.2291874   0.5000000 SPIN=   0.00000
   F   0.0497847  -0.4343224   0.0000000 SPIN=   0.00000
   F  -0.0773406  -0.4186517  -0.5000000 SPIN=   0.00000
%ENDBLOCK POSITIONS_FRAC

# Note: total spin =   8.00

KPOINTS_MP_SPACING 0.07

%BLOCK SPECIES_POT
QC5
%ENDBLOCK SPECIES_POT

SNAP_TO_SYMMETRY
SYMMETRY_GENERATE

