#              Generated by Buildcell
#
# at 05:28:19 (GMT+1.0) 4th August 2020
# in /lustre/scratch/uccabz1/launch_tmp
# on node-c12l-016
# by uccabz1
#
# compiler GCC version 4.9.2
# options -cpp -iprefix /lustre/shared/ucl/apps/gcc/4.9.2/bin/../lib/gcc/x86_64-unknown-linux-gnu/4.9.2/ -mtune=corei7 -march=x86-64 -g -Og
#
# seed   715034236 -2135128779    53497220   417955862   173857230 -1086070015 -2130088282   164837841  -830233215   578511040  1938224467  1411917841
#
#      Author: C. J. Pickard (cjp20@cam.ac.uk)
#                Space group: P42
#

%BLOCK LATTICE_ABC
      4.69504      4.69504      9.07301
     90.00000     90.00000     90.00000
%ENDBLOCK LATTICE_ABC

%BLOCK POSITIONS_FRAC
  Li  -0.5000000   0.0000000   0.2025140 SPIN=   0.00000
  Li   0.0000000   0.5000000  -0.2974860 SPIN=   0.00000
  Fe   0.0000000  -0.5000000   0.1412322 SPIN=   4.00000
  Fe  -0.5000000   0.0000000  -0.3587678 SPIN=   4.00000
   O  -0.2593634   0.4998514  -0.4684633 SPIN=   0.00000
   O  -0.3358467   0.3240531  -0.2143705 SPIN=   0.00000
   O   0.2593634  -0.4998514  -0.4684633 SPIN=   0.00000
   O   0.3358467  -0.3240531  -0.2143705 SPIN=   0.00000
   O   0.4998514   0.2593634   0.0315367 SPIN=   0.00000
   O   0.3240531   0.3358467   0.2856295 SPIN=   0.00000
   O  -0.4998514  -0.2593634   0.0315367 SPIN=   0.00000
   O  -0.3240531  -0.3358467   0.2856295 SPIN=   0.00000
   S   0.5000000  -0.5000000  -0.1073844 SPIN=   0.00000
   S   0.5000000  -0.5000000   0.3926156 SPIN=   0.00000
   F  -0.0000000   0.0000000   0.1060988 SPIN=   0.00000
   F   0.0000000   0.0000000  -0.3939012 SPIN=   0.00000
%ENDBLOCK POSITIONS_FRAC

# Note: total spin =   8.00

KPOINTS_MP_SPACING 0.07

%BLOCK SPECIES_POT
QC5
%ENDBLOCK SPECIES_POT

SNAP_TO_SYMMETRY
SYMMETRY_GENERATE

