#              Generated by Buildcell
#
# at 02:16:45 (GMT+1.0) 19th August 2020
# in /lustre/scratch/uccabz1/launch_tmp
# on node-c12k-027
# by uccabz1
#
# compiler GCC version 4.9.2
# options -cpp -iprefix /lustre/shared/ucl/apps/gcc/4.9.2/bin/../lib/gcc/x86_64-unknown-linux-gnu/4.9.2/ -mtune=corei7 -march=x86-64 -g -Og
#
# seed   488564392   131303194 -1264807514   131722356  1814777252  1941649015 -1840286115  -472425692  -178372889  1239363053   464620627 -1701754841
#
#      Author: C. J. Pickard (cjp20@cam.ac.uk)
#                Space group: Pnc2
#

%BLOCK LATTICE_ABC
      3.82088      4.58478     11.41690
     90.00000     90.00000     90.00000
%ENDBLOCK LATTICE_ABC

%BLOCK POSITIONS_FRAC
  Li   0.0000000   0.0000000  -0.2731404 SPIN=   0.00000
  Li   0.0000000   0.5000000   0.2268596 SPIN=   0.00000
  Fe   0.5000000  -0.5000000  -0.2471790 SPIN=   4.00000
  Fe  -0.5000000  -0.0000000   0.2528210 SPIN=   4.00000
   O   0.7356931   0.3372683   0.0059195 SPIN=   0.00000
   O   0.2257491   0.1702953  -0.1097040 SPIN=   0.00000
   O  -0.7356931  -0.3372683   0.0059195 SPIN=   0.00000
   O  -0.2257491  -0.1702953  -0.1097040 SPIN=   0.00000
   O   0.7356931   0.1627317   0.5059195 SPIN=   0.00000
   O   0.2257491   0.3297047   0.3902960 SPIN=   0.00000
   O  -0.7356931  -0.1627317   0.5059195 SPIN=   0.00000
   O  -0.2257491  -0.3297047   0.3902960 SPIN=   0.00000
   S   0.5000000   0.0000000  -0.0379612 SPIN=   0.00000
   S  -0.5000000  -0.5000000   0.4620388 SPIN=   0.00000
   F   0.0000000   0.0000000   0.2302158 SPIN=   0.00000
   F   0.0000000   0.5000000  -0.2697842 SPIN=   0.00000
%ENDBLOCK POSITIONS_FRAC

# Note: total spin =   8.00

KPOINTS_MP_SPACING 0.07

%BLOCK SPECIES_POT
QC5
%ENDBLOCK SPECIES_POT

SNAP_TO_SYMMETRY
SYMMETRY_GENERATE

