#              Generated by Buildcell
#
# at 03:21:56 (GMT+1.0) 4th August 2020
# in /lustre/scratch/uccabz1/launch_tmp
# on node-c12g-020
# by uccabz1
#
# compiler GCC version 4.9.2
# options -cpp -iprefix /lustre/shared/ucl/apps/gcc/4.9.2/bin/../lib/gcc/x86_64-unknown-linux-gnu/4.9.2/ -mtune=corei7 -march=x86-64 -g -Og
#
# seed   850109605 -2058127994 -1384809744 -1404486435 -1238730359  1800854463  1052590405  -419838240 -1613043729  -662698730  1511972172 -1116682129
#
#      Author: C. J. Pickard (cjp20@cam.ac.uk)
#                Space group: Cc
#

%BLOCK LATTICE_ABC
      5.26058      5.26058      7.71555
     89.61750     89.61750     69.50829
%ENDBLOCK LATTICE_ABC

%BLOCK POSITIONS_FRAC
  Li  -0.1007768  -0.4705552   0.2903517 SPIN=   0.00000
  Li   0.0294448   0.3992232  -0.2096483 SPIN=   0.00000
  Fe  -0.3596987   0.2632928   0.0340266 SPIN=   4.00000
  Fe  -0.2367072   0.1403013  -0.4659734 SPIN=   4.00000
   O   0.4508600  -0.3572986  -0.1109275 SPIN=   0.00000
   O   0.0779774   0.0151961  -0.2486179 SPIN=   0.00000
   O   0.5036256  -0.2132121  -0.4109400 SPIN=   0.00000
   O   0.5010253   0.0870776  -0.1648613 SPIN=   0.00000
   S   0.3833721  -0.1170592  -0.2338367 SPIN=   0.00000
   O   0.1427014  -0.0491400   0.3890725 SPIN=   0.00000
   O   0.5151961  -0.4220226   0.2513821 SPIN=   0.00000
   O   0.2867879   0.0036256   0.0890600 SPIN=   0.00000
   O   0.5870776   0.0010253   0.3351387 SPIN=   0.00000
   S   0.3829408  -0.1166279   0.2661633 SPIN=   0.00000
   F   0.0114318  -0.4889007  -0.4847498 SPIN=   0.00000
   F   0.0110993  -0.4885682   0.0152502 SPIN=   0.00000
%ENDBLOCK POSITIONS_FRAC

# Note: total spin =   8.00

KPOINTS_MP_SPACING 0.07

%BLOCK SPECIES_POT
QC5
%ENDBLOCK SPECIES_POT

SNAP_TO_SYMMETRY
SYMMETRY_GENERATE

