#              Generated by Buildcell
#
# at 01:19:51 (GMT+1.0) 19th August 2020
# in /lustre/scratch/uccabz1/launch_tmp
# on node-c12b-010
# by uccabz1
#
# compiler GCC version 4.9.2
# options -cpp -iprefix /lustre/shared/ucl/apps/gcc/4.9.2/bin/../lib/gcc/x86_64-unknown-linux-gnu/4.9.2/ -mtune=corei7 -march=x86-64 -g -Og
#
# seed -1330117106   216968083 -2092092988  -562540734   643379460 -1563252215  -138573181  -300494579   569147855 -1760163415 -1858256533  1794442902
#
#      Author: C. J. Pickard (cjp20@cam.ac.uk)
#                Space group: I41
#

%BLOCK LATTICE_ABC
      6.15743      6.15743      6.83986
    116.75095    116.75095     90.00000
%ENDBLOCK LATTICE_ABC

%BLOCK POSITIONS_FRAC
  Li  -0.2798795  -0.2798795   0.4402409 SPIN=   0.00000
  Li  -0.0298795   0.4701205  -0.0597591 SPIN=   0.00000
  Fe   0.1023751   0.1023751   0.2047503 SPIN=   4.00000
  Fe   0.3523751  -0.1476249  -0.2952497 SPIN=   4.00000
   O   0.2255094   0.1588469  -0.3676019 SPIN=   0.00000
   O   0.6440187   0.2653270   0.0033766 SPIN=   0.00000
   O   0.4068888  -0.5264488  -0.3676019 SPIN=   0.00000
   O   0.3593579  -0.2619504   0.0033766 SPIN=   0.00000
   O   0.4088469   0.1568888   0.1323981 SPIN=   0.00000
   O   0.5153270   0.1093579   0.5033766 SPIN=   0.00000
   O  -0.2764488  -0.0244906   0.1323981 SPIN=   0.00000
   O  -0.0119504   0.3940187   0.5033766 SPIN=   0.00000
   S  -0.2967238   0.2032762   0.4065524 SPIN=   0.00000
   S   0.4532762   0.4532762  -0.0934476 SPIN=   0.00000
   F  -0.1030616  -0.1030616  -0.2061233 SPIN=   0.00000
   F   0.1469384  -0.3530616   0.2938767 SPIN=   0.00000
%ENDBLOCK POSITIONS_FRAC

# Note: total spin =   8.00

KPOINTS_MP_SPACING 0.07

%BLOCK SPECIES_POT
QC5
%ENDBLOCK SPECIES_POT

SNAP_TO_SYMMETRY
SYMMETRY_GENERATE

