#              Generated by Buildcell
#
# at 02:44:21 (GMT+1.0) 4th August 2020
# in /lustre/scratch/uccabz1/launch_tmp
# on node-c12h-034
# by uccabz1
#
# compiler GCC version 4.9.2
# options -cpp -iprefix /lustre/shared/ucl/apps/gcc/4.9.2/bin/../lib/gcc/x86_64-unknown-linux-gnu/4.9.2/ -mtune=corei7 -march=x86-64 -g -Og
#
# seed  -787401572  1935077668    16554708   635898999 -1299520567  -534010537  1898180677 -1299077552 -1834505660  -877104659  -387619466   630336780
#
#      Author: C. J. Pickard (cjp20@cam.ac.uk)
#                Space group: P21/m
#

%BLOCK LATTICE_ABC
      3.97134      5.64722      9.05690
     90.00000    100.05383     90.00000
%ENDBLOCK LATTICE_ABC

%BLOCK POSITIONS_FRAC
  Li   0.6966393   0.2500000   0.4074761 SPIN=   0.00000
  Li  -0.6966393  -0.2500000  -0.4074761 SPIN=   0.00000
  Fe   0.1611698  -0.2500000   0.2473321 SPIN=   4.00000
  Fe  -0.1611698   0.2500000  -0.2473321 SPIN=   4.00000
   O   0.3725298   0.4549363   0.1400094 SPIN=   0.00000
   O   0.2688115   0.4546139   0.4016341 SPIN=   0.00000
   O  -0.3725298  -0.0450637  -0.1400094 SPIN=   0.00000
   O  -0.2688115  -0.0453861  -0.4016341 SPIN=   0.00000
   O  -0.3725298  -0.4549363  -0.1400094 SPIN=   0.00000
   O  -0.2688115  -0.4546139  -0.4016341 SPIN=   0.00000
   O   0.3725298   0.0450637   0.1400094 SPIN=   0.00000
   O   0.2688115   0.0453861   0.4016341 SPIN=   0.00000
   S  -0.1937422   0.2500000   0.1102969 SPIN=   0.00000
   S   0.1937422  -0.2500000  -0.1102969 SPIN=   0.00000
   F  -0.7413944   0.2500000  -0.3339225 SPIN=   0.00000
   F   0.7413944  -0.2500000   0.3339225 SPIN=   0.00000
%ENDBLOCK POSITIONS_FRAC

# Note: total spin =   8.00

KPOINTS_MP_SPACING 0.07

%BLOCK SPECIES_POT
QC5
%ENDBLOCK SPECIES_POT

SNAP_TO_SYMMETRY
SYMMETRY_GENERATE

