#              Generated by Buildcell
#
# at 02:42:27 (GMT+1.0) 4th August 2020
# in /lustre/scratch/uccabz1/launch_tmp
# on node-c12g-014
# by uccabz1
#
# compiler GCC version 4.9.2
# options -cpp -iprefix /lustre/shared/ucl/apps/gcc/4.9.2/bin/../lib/gcc/x86_64-unknown-linux-gnu/4.9.2/ -mtune=corei7 -march=x86-64 -g -Og
#
# seed -1805294347  1662983582 -1553008918 -1518307296 -1252052914 -1381245989  -875576104 -1744249422  -444912236   650250288 -1196138615 -1879357935
#
#      Author: C. J. Pickard (cjp20@cam.ac.uk)
#                Space group: Cc
#

%BLOCK LATTICE_ABC
      4.58487      6.74642      6.89641
     95.86904    109.41509     90.00000
%ENDBLOCK LATTICE_ABC

%BLOCK POSITIONS_FRAC
  Li  -0.1268942  -0.3638385   0.3925410 SPIN=   0.00000
  Li  -0.4805649   0.1361615   0.3925410 SPIN=   0.00000
  Fe  -0.2496086  -0.0996235   0.0444459 SPIN=   4.00000
  Fe   0.2940545   0.4003765   0.0444459 SPIN=   4.00000
   O  -0.0609304   0.2270870  -0.3146181 SPIN=   0.00000
   O  -0.0509858  -0.0843839  -0.5352489 SPIN=   0.00000
   O   0.1940441  -0.0677867  -0.1552511 SPIN=   0.00000
   O   0.4311641   0.1193024  -0.3588956 SPIN=   0.00000
   S   0.1283230   0.0485547  -0.3410034 SPIN=   0.00000
   O  -0.2536877  -0.2729130  -0.3146181 SPIN=   0.00000
   O  -0.4842632  -0.5843839  -0.5352489 SPIN=   0.00000
   O  -0.3492952  -0.5677867  -0.1552511 SPIN=   0.00000
   O  -0.7900597  -0.3806976  -0.3588956 SPIN=   0.00000
   S  -0.4693264  -0.4514453  -0.3410034 SPIN=   0.00000
   F   0.3350666  -0.1931752   0.2368588 SPIN=   0.00000
   F  -0.0982078   0.3068248   0.2368588 SPIN=   0.00000
%ENDBLOCK POSITIONS_FRAC

# Note: total spin =   8.00

KPOINTS_MP_SPACING 0.07

%BLOCK SPECIES_POT
QC5
%ENDBLOCK SPECIES_POT

SNAP_TO_SYMMETRY
SYMMETRY_GENERATE

