#              Generated by Buildcell
#
# at 01:40:31 (GMT+1.0) 4th August 2020
# in /lustre/scratch/uccabz1/launch_tmp
# on node-c12d-013
# by uccabz1
#
# compiler GCC version 4.9.2
# options -cpp -iprefix /lustre/shared/ucl/apps/gcc/4.9.2/bin/../lib/gcc/x86_64-unknown-linux-gnu/4.9.2/ -mtune=corei7 -march=x86-64 -g -Og
#
# seed   273900573  1504138003  1514022519  1233105529 -1295438120 -1208569094   851744976  -148191988  -304420082 -1929382957   354302477   318134885
#
#      Author: C. J. Pickard (cjp20@cam.ac.uk)
#                Space group: C2
#

%BLOCK LATTICE_ABC
      5.94994      5.94994      6.61603
     70.76740     70.76740     68.61342
%ENDBLOCK LATTICE_ABC

%BLOCK POSITIONS_FRAC
  Li  -0.1669734   0.3351966  -0.2998716 SPIN=   0.00000
  Li  -0.3351966   0.1669734   0.2998716 SPIN=   0.00000
  Fe  -0.3540937  -0.3028876   0.2365390 SPIN=   4.00000
  Fe   0.3028876   0.3540937  -0.2365390 SPIN=   4.00000
   O   0.2929171   0.0430967   0.1900252 SPIN=   0.00000
   O   0.2385884   0.1380858   0.5432668 SPIN=   0.00000
   O  -0.1036399   0.3231970   0.3510103 SPIN=   0.00000
   O   0.2759130   0.4629400   0.1955333 SPIN=   0.00000
   S   0.1759446   0.2418299   0.3199589 SPIN=   0.00000
   O  -0.0430967  -0.2929171  -0.1900252 SPIN=   0.00000
   O  -0.1380858  -0.2385884  -0.5432668 SPIN=   0.00000
   O  -0.3231970   0.1036399  -0.3510103 SPIN=   0.00000
   O  -0.4629400  -0.2759130  -0.1955333 SPIN=   0.00000
   S  -0.2418299  -0.1759446  -0.3199589 SPIN=   0.00000
   F  -0.1785519   0.1785519   0.0000000 SPIN=   0.00000
   F   0.3866826  -0.3866826   0.5000000 SPIN=   0.00000
%ENDBLOCK POSITIONS_FRAC

# Note: total spin =   8.00

KPOINTS_MP_SPACING 0.07

%BLOCK SPECIES_POT
QC5
%ENDBLOCK SPECIES_POT

SNAP_TO_SYMMETRY
SYMMETRY_GENERATE

