#              Generated by Buildcell
#
# at 02:15:12 (GMT+1.0) 4th August 2020
# in /lustre/scratch/uccabz1/launch_tmp
# on node-c12g-014
# by uccabz1
#
# compiler GCC version 4.9.2
# options -cpp -iprefix /lustre/shared/ucl/apps/gcc/4.9.2/bin/../lib/gcc/x86_64-unknown-linux-gnu/4.9.2/ -mtune=corei7 -march=x86-64 -g -Og
#
# seed   508392379 -1217580910 -1696993591 -1645747644 -1575014465  1768997132   780126829 -1574433693   -87948294 -1158038351  1186375019 -1727661256
#
#      Author: C. J. Pickard (cjp20@cam.ac.uk)
#                Space group: Cc
#

%BLOCK LATTICE_ABC
      6.11324      6.11324      6.16198
    107.80031    107.80031     99.58092
%ENDBLOCK LATTICE_ABC

%BLOCK POSITIONS_FRAC
  Li  -0.2236887  -0.0192812  -0.4296088 SPIN=   0.00000
  Li  -0.0192812  -0.2236887   0.0703912 SPIN=   0.00000
  Fe   0.4999856   0.3005147  -0.2771693 SPIN=   4.00000
  Fe   0.3005147   0.4999856   0.2228307 SPIN=   4.00000
   O  -0.3765260   0.1090822  -0.0716442 SPIN=   0.00000
   O  -0.7072178  -0.1346532  -0.0178991 SPIN=   0.00000
   O  -0.2866889  -0.1129527   0.2043598 SPIN=   0.00000
   O  -0.4798658  -0.3339174  -0.2472593 SPIN=   0.00000
   S  -0.4625747  -0.1181103  -0.0331107 SPIN=   0.00000
   O   0.1090822  -0.3765260   0.4283558 SPIN=   0.00000
   O  -0.1346532  -0.7072178   0.4821009 SPIN=   0.00000
   O  -0.1129527  -0.2866889   0.7043598 SPIN=   0.00000
   O  -0.3339174  -0.4798658   0.2527407 SPIN=   0.00000
   S  -0.1181103  -0.4625747   0.4668893 SPIN=   0.00000
   F   0.3016266   0.0255458   0.4369374 SPIN=   0.00000
   F   0.0255458   0.3016266  -0.0630626 SPIN=   0.00000
%ENDBLOCK POSITIONS_FRAC

# Note: total spin =   8.00

KPOINTS_MP_SPACING 0.07

%BLOCK SPECIES_POT
QC5
%ENDBLOCK SPECIES_POT

SNAP_TO_SYMMETRY
SYMMETRY_GENERATE

