#              Generated by Buildcell
#
# at 03:20:15 (GMT+1.0) 4th August 2020
# in /lustre/scratch/uccabz1/launch_tmp
# on node-c12g-010
# by uccabz1
#
# compiler GCC version 4.9.2
# options -cpp -iprefix /lustre/shared/ucl/apps/gcc/4.9.2/bin/../lib/gcc/x86_64-unknown-linux-gnu/4.9.2/ -mtune=corei7 -march=x86-64 -g -Og
#
# seed   233561632  -339958558  1534760646  -151037653    98301853   322517614   291120287  1048226675  1203866984  1816969186   345574423   838029469
#
#      Author: C. J. Pickard (cjp20@cam.ac.uk)
#                Space group: Pc
#

%BLOCK LATTICE_ABC
      3.86246      4.73866     11.95142
     90.00000     90.00000    113.89300
%ENDBLOCK LATTICE_ABC

%BLOCK POSITIONS_FRAC
  Li  -0.4045869  -0.4444097  -0.3063866 SPIN=   0.00000
  Li  -0.9045869  -0.4444097   0.3063866 SPIN=   0.00000
  Fe   0.1977487  -0.2393869  -0.1396385 SPIN=   4.00000
  Fe  -0.3022513  -0.2393869   0.1396385 SPIN=   4.00000
   O  -0.0196824  -0.0256422   0.3347334 SPIN=   0.00000
   O   0.4578167   0.4671635   0.4076292 SPIN=   0.00000
   O   0.6273823   0.1929000   0.2552296 SPIN=   0.00000
   O   0.5201582  -0.0229118   0.4469598 SPIN=   0.00000
   S   0.3964187   0.1528774   0.3611380 SPIN=   0.00000
   O  -0.5196824  -0.0256422  -0.3347334 SPIN=   0.00000
   O  -0.0421833   0.4671635  -0.4076292 SPIN=   0.00000
   O   0.1273823   0.1929000  -0.2552296 SPIN=   0.00000
   O   0.0201582  -0.0229118  -0.4469598 SPIN=   0.00000
   S  -0.1035813   0.1528774  -0.3611380 SPIN=   0.00000
   F  -0.8560557  -0.4299142   0.1353678 SPIN=   0.00000
   F  -0.3560557  -0.4299142  -0.1353678 SPIN=   0.00000
%ENDBLOCK POSITIONS_FRAC

# Note: total spin =   8.00

KPOINTS_MP_SPACING 0.07

%BLOCK SPECIES_POT
QC5
%ENDBLOCK SPECIES_POT

SNAP_TO_SYMMETRY
SYMMETRY_GENERATE

