#              Generated by Buildcell
#
# at 01:21:24 (GMT+1.0) 19th August 2020
# in /lustre/scratch/uccabz1/launch_tmp
# on node-c12k-008
# by uccabz1
#
# compiler GCC version 4.9.2
# options -cpp -iprefix /lustre/shared/ucl/apps/gcc/4.9.2/bin/../lib/gcc/x86_64-unknown-linux-gnu/4.9.2/ -mtune=corei7 -march=x86-64 -g -Og
#
# seed  -899902179 -1780743253  -690594003   346009993   145563683   586805687  1840153820  -918064679  -149806188 -1979119474  -540672243 -1083117806
#
#      Author: C. J. Pickard (cjp20@cam.ac.uk)
#                Space group: P-1
#

%BLOCK LATTICE_ABC
      4.87178      6.49400      6.70071
     77.46763     84.91648     75.25355
%ENDBLOCK LATTICE_ABC

%BLOCK POSITIONS_FRAC
  Li  -0.3225631   0.0352949  -0.2688965 SPIN=   0.00000
  Li   0.3225631  -0.0352949   0.2688965 SPIN=   0.00000
  Fe  -0.1878825   0.2801442   0.0989442 SPIN=   4.00000
  Fe   0.1878825  -0.2801442  -0.0989442 SPIN=   4.00000
   O   0.0942975  -0.3559962   0.4923448 SPIN=   0.00000
   O   0.0193142  -0.1420334   0.1394290 SPIN=   0.00000
   O  -0.2811548  -0.0138478   0.4270116 SPIN=   0.00000
   O  -0.3367727  -0.3387109   0.3135915 SPIN=   0.00000
   S  -0.1260789  -0.2126471   0.3430943 SPIN=   0.00000
   O  -0.0942975   0.3559962  -0.4923448 SPIN=   0.00000
   O  -0.0193142   0.1420334  -0.1394290 SPIN=   0.00000
   O   0.2811548   0.0138478  -0.4270116 SPIN=   0.00000
   O   0.3367727   0.3387109  -0.3135915 SPIN=   0.00000
   S   0.1260789   0.2126471  -0.3430943 SPIN=   0.00000
   F  -0.6774090   0.2557669   0.1351714 SPIN=   0.00000
   F   0.6774090  -0.2557669  -0.1351714 SPIN=   0.00000
%ENDBLOCK POSITIONS_FRAC

# Note: total spin =   8.00

KPOINTS_MP_SPACING 0.07

%BLOCK SPECIES_POT
QC5
%ENDBLOCK SPECIES_POT

SNAP_TO_SYMMETRY
SYMMETRY_GENERATE

