#              Generated by Buildcell
#
# at 18:22:30 (GMT+1.0) 18th August 2020
# in /lustre/scratch/uccabz1/launch_tmp
# on node-c12n-029
# by uccabz1
#
# compiler GCC version 4.9.2
# options -cpp -iprefix /lustre/shared/ucl/apps/gcc/4.9.2/bin/../lib/gcc/x86_64-unknown-linux-gnu/4.9.2/ -mtune=corei7 -march=x86-64 -g -Og
#
# seed  2142243760  -942913431  1058665722   535700373    48465917   245627656 -1006254432 -1500553869  1537690568   785646096   273900573 -1441757149
#
#      Author: C. J. Pickard (cjp20@cam.ac.uk)
#                Space group: C2
#

%BLOCK LATTICE_ABC
      4.28218      4.37189     12.39828
     97.64587     90.00000    119.32352
%ENDBLOCK LATTICE_ABC

%BLOCK POSITIONS_FRAC
  Li  -0.4200767   0.3252432  -0.2438494 SPIN=   0.00000
  Li   0.2546801  -0.3252432   0.2438494 SPIN=   0.00000
  Fe  -0.3842795   0.3968374   0.3734168 SPIN=   4.00000
  Fe   0.2188832  -0.3968374  -0.3734168 SPIN=   4.00000
   O  -0.0089396   0.0363966  -0.2728309 SPIN=   0.00000
   O   0.2280462   0.0013226  -0.0955788 SPIN=   0.00000
   O  -0.4282218  -0.2838503  -0.1383031 SPIN=   0.00000
   O  -0.0593103   0.3712479  -0.1027315 SPIN=   0.00000
   S  -0.0671064   0.0312792  -0.1523611 SPIN=   0.00000
   O  -0.0453362  -0.0363966   0.2728309 SPIN=   0.00000
   O   0.2267236  -0.0013226   0.0955788 SPIN=   0.00000
   O  -0.1443715   0.2838503   0.1383031 SPIN=   0.00000
   O  -0.4305582  -0.3712479   0.1027315 SPIN=   0.00000
   S  -0.0983856  -0.0312792   0.1523611 SPIN=   0.00000
   F   0.1168151  -0.3827254   0.3915135 SPIN=   0.00000
   F   0.4995405   0.3827254  -0.3915135 SPIN=   0.00000
%ENDBLOCK POSITIONS_FRAC

# Note: total spin =   8.00

KPOINTS_MP_SPACING 0.07

%BLOCK SPECIES_POT
QC5
%ENDBLOCK SPECIES_POT

SNAP_TO_SYMMETRY
SYMMETRY_GENERATE

