#              Generated by Buildcell
#
# at 04:01:25 (GMT+1.0) 4th August 2020
# in /lustre/scratch/uccabz1/launch_tmp
# on node-c12g-032
# by uccabz1
#
# compiler GCC version 4.9.2
# options -cpp -iprefix /lustre/shared/ucl/apps/gcc/4.9.2/bin/../lib/gcc/x86_64-unknown-linux-gnu/4.9.2/ -mtune=corei7 -march=x86-64 -g -Og
#
# seed   926330285  1698823770  -508726630 -1612436818  -480051373 -1786540294 -1270396967 -1676470813 -1383597601   827881843    53357264 -2061682367
#
#      Author: C. J. Pickard (cjp20@cam.ac.uk)
#                Space group: P21
#

%BLOCK LATTICE_ABC
      4.05177      6.54771      7.53922
     90.00000     90.67909     90.00000
%ENDBLOCK LATTICE_ABC

%BLOCK POSITIONS_FRAC
  Li  -0.0096227  -0.0352003   0.3614516 SPIN=   0.00000
  Li   0.0096227   0.4647997  -0.3614516 SPIN=   0.00000
  Fe   0.4952878  -0.3211463  -0.1021771 SPIN=   4.00000
  Fe  -0.4952878   0.1788537   0.1021771 SPIN=   4.00000
   O   0.2784840  -0.5384211   0.1425330 SPIN=   0.00000
   O  -0.2044713  -0.3075504   0.1254041 SPIN=   0.00000
   O   0.1216416  -0.3334409   0.4041418 SPIN=   0.00000
   O  -0.2295682  -0.6224456   0.3063094 SPIN=   0.00000
   S  -0.0084785  -0.4504645   0.2445971 SPIN=   0.00000
   O  -0.2784840  -0.0384211  -0.1425330 SPIN=   0.00000
   O   0.2044713   0.1924496  -0.1254041 SPIN=   0.00000
   O  -0.1216416   0.1665591  -0.4041418 SPIN=   0.00000
   O   0.2295682  -0.1224456  -0.3063094 SPIN=   0.00000
   S   0.0084785   0.0495355  -0.2445971 SPIN=   0.00000
   F  -0.4947192   0.4916603  -0.3415553 SPIN=   0.00000
   F   0.4947192  -0.0083397   0.3415553 SPIN=   0.00000
%ENDBLOCK POSITIONS_FRAC

# Note: total spin =   8.00

KPOINTS_MP_SPACING 0.07

%BLOCK SPECIES_POT
QC5
%ENDBLOCK SPECIES_POT

SNAP_TO_SYMMETRY
SYMMETRY_GENERATE

