#              Generated by Buildcell
#
# at 01:58:18 (GMT+1.0) 4th August 2020
# in /lustre/scratch/uccabz1/launch_tmp
# on node-c12g-030
# by uccabz1
#
# compiler GCC version 4.9.2
# options -cpp -iprefix /lustre/shared/ucl/apps/gcc/4.9.2/bin/../lib/gcc/x86_64-unknown-linux-gnu/4.9.2/ -mtune=corei7 -march=x86-64 -g -Og
#
# seed   -61239405   878052550 -1455161660 -1053662002  1957206448  -916049725 -1801893198  1402622700  1148915238  1099823588   543803275 -1823175191
#
#      Author: C. J. Pickard (cjp20@cam.ac.uk)
#                Space group: P-1
#

%BLOCK LATTICE_ABC
      3.86039      6.23222      9.01682
     70.07891     81.00836     80.53970
%ENDBLOCK LATTICE_ABC

%BLOCK POSITIONS_FRAC
  Li   0.5496902   0.4536189  -0.2374237 SPIN=   0.00000
  Li  -0.5496902  -0.4536189   0.2374237 SPIN=   0.00000
  Fe   0.2552347   0.2130408   0.1029124 SPIN=   4.00000
  Fe  -0.2552347  -0.2130408  -0.1029124 SPIN=   4.00000
   O   0.0535528  -0.0561430  -0.3622981 SPIN=   0.00000
   O   0.3283812   0.1808849  -0.2526020 SPIN=   0.00000
   O  -0.1727920   0.3548562  -0.4129218 SPIN=   0.00000
   O   0.4117206   0.2445358  -0.5415595 SPIN=   0.00000
   S   0.1552157   0.1810335  -0.3923453 SPIN=   0.00000
   O  -0.0535528   0.0561430   0.3622981 SPIN=   0.00000
   O  -0.3283812  -0.1808849   0.2526020 SPIN=   0.00000
   O   0.1727920  -0.3548562   0.4129218 SPIN=   0.00000
   O  -0.4117206  -0.2445358   0.5415595 SPIN=   0.00000
   S  -0.1552157  -0.1810335   0.3923453 SPIN=   0.00000
   F  -0.2716901   0.2627408  -0.0497353 SPIN=   0.00000
   F   0.2716901  -0.2627408   0.0497353 SPIN=   0.00000
%ENDBLOCK POSITIONS_FRAC

# Note: total spin =   8.00

KPOINTS_MP_SPACING 0.07

%BLOCK SPECIES_POT
QC5
%ENDBLOCK SPECIES_POT

SNAP_TO_SYMMETRY
SYMMETRY_GENERATE

