#              Generated by Buildcell
#
# at 02:18:52 (GMT+1.0) 4th August 2020
# in /lustre/scratch/uccabz1/launch_tmp
# on node-c12l-012
# by uccabz1
#
# compiler GCC version 4.9.2
# options -cpp -iprefix /lustre/shared/ucl/apps/gcc/4.9.2/bin/../lib/gcc/x86_64-unknown-linux-gnu/4.9.2/ -mtune=corei7 -march=x86-64 -g -Og
#
# seed  -435260102    -3936528  -344908342   159908633  1637996689    74885720   939012131    25064576   572496851  1079354620 -1811772847  2091557108
#
#      Author: C. J. Pickard (cjp20@cam.ac.uk)
#                Space group: C2/c
#

%BLOCK LATTICE_ABC
      5.05559      6.62524      6.75790
     83.47518     68.03438     72.31446
%ENDBLOCK LATTICE_ABC

%BLOCK POSITIONS_FRAC
  Li   0.4219982   0.2500000   0.1560035 SPIN=   0.00000
  Li  -0.4219982  -0.2500000  -0.1560035 SPIN=   0.00000
  Fe   0.1754094   0.2500000  -0.3508188 SPIN=   4.00000
  Fe  -0.1754094  -0.2500000   0.3508188 SPIN=   4.00000
   O  -0.4991171   0.3635886   0.3890399 SPIN=   0.00000
   O  -0.1378431   0.0475822   0.1806438 SPIN=   0.00000
   O   0.1100772   0.1364114   0.3890399 SPIN=   0.00000
   O  -0.0428007   0.4524178   0.1806438 SPIN=   0.00000
   O   0.4991171  -0.3635886  -0.3890399 SPIN=   0.00000
   O   0.1378431  -0.0475822  -0.1806438 SPIN=   0.00000
   O  -0.1100772  -0.1364114  -0.3890399 SPIN=   0.00000
   O   0.0428007  -0.4524178  -0.1806438 SPIN=   0.00000
   S  -0.1500084   0.2500000   0.3000168 SPIN=   0.00000
   S   0.1500084  -0.2500000  -0.3000168 SPIN=   0.00000
   F  -0.4288508   0.2500000  -0.1422985 SPIN=   0.00000
   F   0.4288508  -0.2500000   0.1422985 SPIN=   0.00000
%ENDBLOCK POSITIONS_FRAC

# Note: total spin =   8.00

KPOINTS_MP_SPACING 0.07

%BLOCK SPECIES_POT
QC5
%ENDBLOCK SPECIES_POT

SNAP_TO_SYMMETRY
SYMMETRY_GENERATE

