#              Generated by Buildcell
#
# at 02:50:02 (GMT+1.0) 19th August 2020
# in /lustre/scratch/uccabz1/launch_tmp
# on node-c12g-024
# by uccabz1
#
# compiler GCC version 4.9.2
# options -cpp -iprefix /lustre/shared/ucl/apps/gcc/4.9.2/bin/../lib/gcc/x86_64-unknown-linux-gnu/4.9.2/ -mtune=corei7 -march=x86-64 -g -Og
#
# seed  -430741561  -265413313   915142538  -594316594  -502656377 -1672760724   862204300  1637819969   139977013    55530769   913699648   318461242
#
#      Author: C. J. Pickard (cjp20@cam.ac.uk)
#                Space group: Cm
#

%BLOCK LATTICE_ABC
      3.87632      7.40240      8.06973
    115.84956    101.35788     95.40964
%ENDBLOCK LATTICE_ABC

%BLOCK POSITIONS_FRAC
  Li   0.0003952  -0.3529102  -0.3942618 SPIN=   0.00000
  Li   0.3946571   0.0413517   0.3942618 SPIN=   0.00000
  Fe  -0.5966097  -0.4120226  -0.7350341 SPIN=   4.00000
  Fe   0.1384245   0.3230115   0.7350341 SPIN=   4.00000
   O   0.0060765  -0.0243468  -0.2502650 SPIN=   0.00000
   O  -0.5165192  -0.1408293  -0.1621663 SPIN=   0.00000
   O  -0.5936359  -0.1620206  -0.4823887 SPIN=   0.00000
   O  -0.4736035   0.1761704  -0.1966269 SPIN=   0.00000
   S  -0.3944205  -0.0377566  -0.2728617 SPIN=   0.00000
   O   0.2563415   0.2259182   0.2502650 SPIN=   0.00000
   O  -0.3543528   0.0213370   0.1621663 SPIN=   0.00000
   O  -0.1112472   0.3203681   0.4823887 SPIN=   0.00000
   O  -0.2769765   0.3727973   0.1966269 SPIN=   0.00000
   S  -0.1215588   0.2351052   0.2728617 SPIN=   0.00000
   F  -0.1952648  -0.2489403  -0.7245410 SPIN=   0.00000
   F   0.5292762   0.4756007   0.7245410 SPIN=   0.00000
%ENDBLOCK POSITIONS_FRAC

# Note: total spin =   8.00

KPOINTS_MP_SPACING 0.07

%BLOCK SPECIES_POT
QC5
%ENDBLOCK SPECIES_POT

SNAP_TO_SYMMETRY
SYMMETRY_GENERATE

