#              Generated by Buildcell
#
# at 22:35:19 (GMT+1.0) 18th August 2020
# in /lustre/scratch/uccabz1/launch_tmp
# on node-c12f-018
# by uccabz1
#
# compiler GCC version 4.9.2
# options -cpp -iprefix /lustre/shared/ucl/apps/gcc/4.9.2/bin/../lib/gcc/x86_64-unknown-linux-gnu/4.9.2/ -mtune=corei7 -march=x86-64 -g -Og
#
# seed -1033795498  1741623824  -992688494   785690197   943925511  -314575132  -156558253 -1535039984  1712898824 -1322889562 -1201818397 -1127176966
#
#      Author: C. J. Pickard (cjp20@cam.ac.uk)
#                Space group: Cc
#

%BLOCK LATTICE_ABC
      5.56904      5.56904      6.83563
    100.85634    100.85634     99.51660
%ENDBLOCK LATTICE_ABC

%BLOCK POSITIONS_FRAC
  Li   0.2748723   0.1000314   0.3932951 SPIN=   0.00000
  Li  -0.3999686  -0.2251277  -0.1067049 SPIN=   0.00000
  Fe  -0.0141708   0.3188665  -0.3113529 SPIN=   4.00000
  Fe  -0.1811335   0.4858292   0.1886471 SPIN=   4.00000
   O   0.1333254  -0.3615529  -0.0341318 SPIN=   0.00000
   O   0.2083288  -0.0537191  -0.2455170 SPIN=   0.00000
   O   0.4065134   0.0545382   0.1242364 SPIN=   0.00000
   O  -0.0498782   0.0154567   0.0093360 SPIN=   0.00000
   S   0.1745723  -0.0863193  -0.0365191 SPIN=   0.00000
   O   0.1384471  -0.3666746   0.4658682 SPIN=   0.00000
   O   0.4462809  -0.2916712   0.2544830 SPIN=   0.00000
   O   0.5545382  -0.0934866   0.6242364 SPIN=   0.00000
   O   0.5154567  -0.5498782   0.5093360 SPIN=   0.00000
   S   0.4136807  -0.3254277   0.4634809 SPIN=   0.00000
   F  -0.3658653   0.4203005  -0.0974524 SPIN=   0.00000
   F  -0.0796995   0.1341347   0.4025476 SPIN=   0.00000
%ENDBLOCK POSITIONS_FRAC

# Note: total spin =   8.00

KPOINTS_MP_SPACING 0.07

%BLOCK SPECIES_POT
QC5
%ENDBLOCK SPECIES_POT

SNAP_TO_SYMMETRY
SYMMETRY_GENERATE

