#              Generated by Buildcell
#
# at 02:12:54 (GMT+1.0) 19th August 2020
# in /scratch/scratch/uccabz1/launch_tmp
# on node-k10d-018
# by uccabz1
#
# compiler GCC version 4.9.2
# options -cpp -iprefix /scratch/UCL/applications/gcc/4.9.2/bin/../lib/gcc/x86_64-unknown-linux-gnu/4.9.2/ -mtune=corei7 -march=x86-64 -g -O2
#
# seed  1095681227 -1148506602  1230150664  2071858774  -302778709 -2132620356  1319326384  1088559729 -2102123882  1507063779 -1507061968 -1528457653
#
#      Author: C. J. Pickard (cjp20@cam.ac.uk)
#                Space group: Ama2
#

%BLOCK LATTICE_ABC
      4.54776      4.54776      9.67018
     90.00000     90.00000     90.00779
%ENDBLOCK LATTICE_ABC

%BLOCK POSITIONS_FRAC
  Li  -0.2609416   0.3005585   0.2500000 SPIN=   0.00000
  Li   0.3005585  -0.2609416  -0.2500000 SPIN=   0.00000
  Fe  -0.2145666  -0.2145666   0.0000000 SPIN=   4.00000
  Fe  -0.2145666  -0.2145666   0.5000000 SPIN=   4.00000
   O   0.3226398   0.6704269   0.4602172 SPIN=   0.00000
   O   0.3943270   0.1704527   0.3649609 SPIN=   0.00000
   O   0.6704269   0.3226398  -0.4602172 SPIN=   0.00000
   O   0.1704527   0.3943270  -0.3649609 SPIN=   0.00000
   O   0.6704269   0.3226398  -0.0397828 SPIN=   0.00000
   O   0.1704527   0.3943270  -0.1350391 SPIN=   0.00000
   O   0.3226398   0.6704269   0.0397828 SPIN=   0.00000
   O   0.3943270   0.1704527   0.1350391 SPIN=   0.00000
   S   0.2852957   0.2852957   0.0000000 SPIN=   0.00000
   S   0.2852957   0.2852957   0.5000000 SPIN=   0.00000
   F  -0.1000861  -0.2127659   0.2500000 SPIN=   0.00000
   F  -0.2127659  -0.1000861  -0.2500000 SPIN=   0.00000
%ENDBLOCK POSITIONS_FRAC

# Note: total spin =   8.00

KPOINTS_MP_SPACING 0.07

%BLOCK SPECIES_POT
QC5
%ENDBLOCK SPECIES_POT

SNAP_TO_SYMMETRY
SYMMETRY_GENERATE

