#              Generated by Buildcell
#
# at 05:52:29 (GMT+1.0) 4th August 2020
# in /lustre/scratch/uccabz1/launch_tmp
# on node-c12l-018
# by uccabz1
#
# compiler GCC version 4.9.2
# options -cpp -iprefix /lustre/shared/ucl/apps/gcc/4.9.2/bin/../lib/gcc/x86_64-unknown-linux-gnu/4.9.2/ -mtune=corei7 -march=x86-64 -g -Og
#
# seed -1060547644  1528439583 -1525485734  -613292005   572553118 -1304080169  1405166685  1348801038 -2068004012  2095543520 -1098019692  -163530396
#
#      Author: C. J. Pickard (cjp20@cam.ac.uk)
#                Space group: P-1
#

%BLOCK LATTICE_ABC
      5.94336      5.95497      6.51366
     85.38417     69.50692     68.08060
%ENDBLOCK LATTICE_ABC

%BLOCK POSITIONS_FRAC
  Li   0.0000000   0.0000000   0.5000000 SPIN=   0.00000
  Li  -0.5000000   0.0000000   0.0000000 SPIN=   0.00000
  Fe  -0.5000000  -0.5000000   1.0000000 SPIN=   3.90941
  Fe   0.5000000  -0.0000000  -0.5000000 SPIN=   4.09059
   O   0.1395650   0.2800695  -0.7665733 SPIN=   0.00000
   O  -0.2171747   0.5157579  -0.9016460 SPIN=   0.00000
   O  -0.1998692   0.6588166  -0.5631235 SPIN=   0.00000
   O  -0.3039029   0.2933061  -0.5631822 SPIN=   0.00000
   S  -0.1453454   0.4369875  -0.6986313 SPIN=   0.00000
   O  -0.1395650  -0.2800695   0.7665733 SPIN=   0.00000
   O   0.2171747  -0.5157579   0.9016460 SPIN=   0.00000
   O   0.1998692  -0.6588166   0.5631235 SPIN=   0.00000
   O   0.3039029  -0.2933061   0.5631822 SPIN=   0.00000
   S   0.1453454  -0.4369875   0.6986313 SPIN=   0.00000
   F  -0.2165704   0.1809388  -0.1897970 SPIN=   0.00000
   F   0.2165704  -0.1809388   0.1897970 SPIN=   0.00000
%ENDBLOCK POSITIONS_FRAC

# Note: total spin =   8.00

KPOINTS_MP_SPACING 0.07

%BLOCK SPECIES_POT
QC5
%ENDBLOCK SPECIES_POT

SNAP_TO_SYMMETRY
SYMMETRY_GENERATE

