#              Generated by Buildcell
#
# at 01:29:11 (GMT+1.0) 19th August 2020
# in /lustre/scratch/uccabz1/launch_tmp
# on node-c12l-014
# by uccabz1
#
# compiler GCC version 4.9.2
# options -cpp -iprefix /lustre/shared/ucl/apps/gcc/4.9.2/bin/../lib/gcc/x86_64-unknown-linux-gnu/4.9.2/ -mtune=corei7 -march=x86-64 -g -Og
#
# seed  1609229578 -1616686171   598188789 -1075616880   829780877   756011749  1303527592   820118030  1691246995   778864259 -1224138951  -940548046
#
#      Author: C. J. Pickard (cjp20@cam.ac.uk)
#                Space group: P21/m
#

%BLOCK LATTICE_ABC
      3.93355      5.80379      8.99688
     90.00000     90.00000    103.16061
%ENDBLOCK LATTICE_ABC

%BLOCK POSITIONS_FRAC
  Li   0.3815527  -0.0980912   0.2500000 SPIN=   0.00000
  Li  -0.3815527   0.0980912  -0.2500000 SPIN=   0.00000
  Fe   0.3289228  -0.4380515  -0.2500000 SPIN=   4.00000
  Fe  -0.3289228   0.4380515   0.2500000 SPIN=   4.00000
   O   0.1814139   0.3127244  -0.4671662 SPIN=   0.00000
   O   0.2433724  -0.0801203  -0.3800554 SPIN=   0.00000
   O  -0.1814139  -0.3127244   0.0328338 SPIN=   0.00000
   O  -0.2433724   0.0801203   0.1199446 SPIN=   0.00000
   O  -0.1814139  -0.3127244   0.4671662 SPIN=   0.00000
   O  -0.2433724   0.0801203   0.3800554 SPIN=   0.00000
   O   0.1814139   0.3127244  -0.0328338 SPIN=   0.00000
   O   0.2433724  -0.0801203  -0.1199446 SPIN=   0.00000
   S   0.0000000   0.0000000   0.0000000 SPIN=   0.00000
   S   0.0000000   0.0000000   0.5000000 SPIN=   0.00000
   F   0.2709224  -0.4549558   0.2500000 SPIN=   0.00000
   F  -0.2709224   0.4549558  -0.2500000 SPIN=   0.00000
%ENDBLOCK POSITIONS_FRAC

# Note: total spin =   8.00

KPOINTS_MP_SPACING 0.07

%BLOCK SPECIES_POT
QC5
%ENDBLOCK SPECIES_POT

SNAP_TO_SYMMETRY
SYMMETRY_GENERATE

