#              Generated by Buildcell
#
# at 05:01:56 (GMT+1.0) 4th August 2020
# in /lustre/scratch/uccabz1/launch_tmp
# on node-c12a-004
# by uccabz1
#
# compiler GCC version 4.9.2
# options -cpp -iprefix /lustre/shared/ucl/apps/gcc/4.9.2/bin/../lib/gcc/x86_64-unknown-linux-gnu/4.9.2/ -mtune=corei7 -march=x86-64 -g -Og
#
# seed   528385199   858117068  -842133514    46373387 -2055830399  1763007758  1947891818  -449125185 -1930548424  1383181225   523844612   779121800
#
#      Author: C. J. Pickard (cjp20@cam.ac.uk)
#                Space group: P2
#

%BLOCK LATTICE_ABC
      4.08140      6.15691      7.98810
     94.89314     90.00000     90.00000
%ENDBLOCK LATTICE_ABC

%BLOCK POSITIONS_FRAC
  Li  -0.4496242   0.0000000   0.0000000 SPIN=   0.00000
  Li   0.0908472  -0.5000000  -0.5000000 SPIN=   0.00000
  Fe   0.0437913   0.0626199  -0.2679120 SPIN=   4.00000
  Fe   0.0437913  -0.0626199   0.2679120 SPIN=   4.00000
   O  -0.1357736   0.3890496   0.1611097 SPIN=   0.00000
   O  -0.5871356   0.6525819   0.1354621 SPIN=   0.00000
   O  -0.3145838   0.6267375   0.4098106 SPIN=   0.00000
   O  -0.6734870   0.3275724   0.2922688 SPIN=   0.00000
   S  -0.4277450   0.4989854   0.2496628 SPIN=   0.00000
   O  -0.1357736  -0.3890496  -0.1611097 SPIN=   0.00000
   O  -0.5871356  -0.6525819  -0.1354621 SPIN=   0.00000
   O  -0.3145838  -0.6267375  -0.4098106 SPIN=   0.00000
   O  -0.6734870  -0.3275724  -0.2922688 SPIN=   0.00000
   S  -0.4277450  -0.4989854  -0.2496628 SPIN=   0.00000
   F   0.2567846   0.0000000  -0.5000000 SPIN=   0.00000
   F   0.0339348  -0.0000000  -0.0000000 SPIN=   0.00000
%ENDBLOCK POSITIONS_FRAC

# Note: total spin =   8.00

KPOINTS_MP_SPACING 0.07

%BLOCK SPECIES_POT
QC5
%ENDBLOCK SPECIES_POT

SNAP_TO_SYMMETRY
SYMMETRY_GENERATE

