#              Generated by Buildcell
#
# at 01:01:01 (GMT+1.0) 19th August 2020
# in /lustre/scratch/uccabz1/launch_tmp
# on node-c12e-033
# by uccabz1
#
# compiler GCC version 4.9.2
# options -cpp -iprefix /lustre/shared/ucl/apps/gcc/4.9.2/bin/../lib/gcc/x86_64-unknown-linux-gnu/4.9.2/ -mtune=corei7 -march=x86-64 -g -Og
#
# seed -1796672430 -1273215670 -1737804522  1658481427   658709867 -1837147335  1338463944  -540443083   845949550   -89172709  2119732629 -1469613382
#
#      Author: C. J. Pickard (cjp20@cam.ac.uk)
#                Space group: C2/m
#

%BLOCK LATTICE_ABC
      4.55623      6.88217      6.88217
     69.27455     83.64058     83.64058
%ENDBLOCK LATTICE_ABC

%BLOCK POSITIONS_FRAC
  Li   0.0000000   0.5000000  -0.0000000 SPIN=   0.00000
  Li  -0.0000000   0.0000000  -0.5000000 SPIN=   0.00000
  Fe  -0.4837687   0.1948868   0.1948868 SPIN=   4.00000
  Fe   0.4837687  -0.1948868  -0.1948868 SPIN=   4.00000
   O  -0.2069249  -0.0895733   0.2990415 SPIN=   0.00000
   O  -0.6848753  -0.2249466   0.4728928 SPIN=   0.00000
   O   0.2069249  -0.2990415   0.0895733 SPIN=   0.00000
   O   0.6848753  -0.4728928   0.2249466 SPIN=   0.00000
   O   0.2069249   0.0895733  -0.2990415 SPIN=   0.00000
   O   0.6848753   0.2249466  -0.4728928 SPIN=   0.00000
   O  -0.2069249   0.2990415  -0.0895733 SPIN=   0.00000
   O  -0.6848753   0.4728928  -0.2249466 SPIN=   0.00000
   S   0.0000000  -0.2509839   0.2509839 SPIN=   0.00000
   S  -0.0000000   0.2509839  -0.2509839 SPIN=   0.00000
   F   0.1185194   0.2483743   0.2483743 SPIN=   0.00000
   F  -0.1185194  -0.2483743  -0.2483743 SPIN=   0.00000
%ENDBLOCK POSITIONS_FRAC

# Note: total spin =   8.00

KPOINTS_MP_SPACING 0.07

%BLOCK SPECIES_POT
QC5
%ENDBLOCK SPECIES_POT

SNAP_TO_SYMMETRY
SYMMETRY_GENERATE

