#              Generated by Buildcell
#
# at 23:09:51 (GMT+1.0) 18th August 2020
# in /lustre/scratch/uccabz1/launch_tmp
# on node-c12e-014
# by uccabz1
#
# compiler GCC version 4.9.2
# options -cpp -iprefix /lustre/shared/ucl/apps/gcc/4.9.2/bin/../lib/gcc/x86_64-unknown-linux-gnu/4.9.2/ -mtune=corei7 -march=x86-64 -g -Og
#
# seed   -79310029  1352706947 -1488010150  -737825287    56097455  -244080801   956775531   589173677   566383600 -1559159288  1071575215   165382413
#
#      Author: C. J. Pickard (cjp20@cam.ac.uk)
#                Space group: P-1
#

%BLOCK LATTICE_ABC
      4.11484      7.60105      7.61236
    110.29799    104.49824    104.95063
%ENDBLOCK LATTICE_ABC

%BLOCK POSITIONS_FRAC
  Li  -0.3684285  -0.7370776  -0.4821044 SPIN=   0.00000
  Li   0.3684285   0.7370776   0.4821044 SPIN=   0.00000
  Fe  -0.0054787   0.2813381   0.2128043 SPIN=   4.00000
  Fe   0.0054787  -0.2813381  -0.2128043 SPIN=   4.00000
   O   0.0184010   0.3205563  -0.1612345 SPIN=   0.00000
   O  -0.4752037   0.4439498  -0.2395363 SPIN=   0.00000
   O  -0.4394227   0.2853486  -0.0047221 SPIN=   0.00000
   O  -0.6128012   0.0753867  -0.3698967 SPIN=   0.00000
   O  -0.0184010  -0.3205563   0.1612345 SPIN=   0.00000
   O   0.4752037  -0.4439498   0.2395363 SPIN=   0.00000
   O   0.4394227  -0.2853486   0.0047221 SPIN=   0.00000
   O   0.6128012  -0.0753867   0.3698967 SPIN=   0.00000
   S   0.5000000   0.5000000   0.0000000 SPIN=   0.00000
   S   0.0000000   0.0000000  -0.5000000 SPIN=   0.00000
   F   0.0000000  -0.5000000  -0.5000000 SPIN=   0.00000
   F   0.0000000   0.0000000   0.0000000 SPIN=   0.00000
%ENDBLOCK POSITIONS_FRAC

# Note: total spin =   8.00

KPOINTS_MP_SPACING 0.07

%BLOCK SPECIES_POT
QC5
%ENDBLOCK SPECIES_POT

SNAP_TO_SYMMETRY
SYMMETRY_GENERATE

