#              Generated by Buildcell
#
# at 00:17:41 (GMT+1.0) 19th August 2020
# in /scratch/scratch/uccabz1/launch_tmp
# on node-k10b-015
# by uccabz1
#
# compiler GCC version 4.9.2
# options -cpp -iprefix /scratch/UCL/applications/gcc/4.9.2/bin/../lib/gcc/x86_64-unknown-linux-gnu/4.9.2/ -mtune=corei7 -march=x86-64 -g -O2
#
# seed   305863557 -1478158213 -1084659039 -1413480146 -1196430309  1668216047 -1026704678 -1070571493 -1236216523 -2008016505  -749598046 -1131256775
#
#      Author: C. J. Pickard (cjp20@cam.ac.uk)
#                Space group: P21212
#

%BLOCK LATTICE_ABC
      4.04522      6.45578      7.65842
     90.00000     90.00000     90.00000
%ENDBLOCK LATTICE_ABC

%BLOCK POSITIONS_FRAC
  Li  -0.0000000  -0.0000000   0.4133891 SPIN=   0.00000
  Li   0.5000000  -0.5000000  -0.4133891 SPIN=   0.00000
  Fe   0.5000000   0.0000000   0.1179996 SPIN=   4.00000
  Fe  -0.0000000  -0.5000000  -0.1179996 SPIN=   4.00000
   O  -0.2199035   0.6493283   0.2181479 SPIN=   0.00000
   O  -0.2794571   0.3170497   0.0600796 SPIN=   0.00000
   O   0.2199035  -0.6493283   0.2181479 SPIN=   0.00000
   O   0.2794571  -0.3170497   0.0600796 SPIN=   0.00000
   O  -0.2800965   0.1493283  -0.2181479 SPIN=   0.00000
   O  -0.2205429  -0.1829503  -0.0600796 SPIN=   0.00000
   O   0.2800965  -0.1493283  -0.2181479 SPIN=   0.00000
   O   0.2205429   0.1829503  -0.0600796 SPIN=   0.00000
   S  -0.0000000  -0.0000000  -0.2224025 SPIN=   0.00000
   S   0.5000000  -0.5000000   0.2224025 SPIN=   0.00000
   F   0.5000000   0.0000000   0.3994831 SPIN=   0.00000
   F  -0.0000000  -0.5000000  -0.3994831 SPIN=   0.00000
%ENDBLOCK POSITIONS_FRAC

# Note: total spin =   8.00

KPOINTS_MP_SPACING 0.07

%BLOCK SPECIES_POT
QC5
%ENDBLOCK SPECIES_POT

SNAP_TO_SYMMETRY
SYMMETRY_GENERATE

