#              Generated by Buildcell
#
# at 01:44:10 (GMT+1.0) 19th August 2020
# in /lustre/scratch/uccabz1/launch_tmp
# on node-c12l-029
# by uccabz1
#
# compiler GCC version 4.9.2
# options -cpp -iprefix /lustre/shared/ucl/apps/gcc/4.9.2/bin/../lib/gcc/x86_64-unknown-linux-gnu/4.9.2/ -mtune=corei7 -march=x86-64 -g -Og
#
# seed  1760427945   808889274  1560158558  -600696018   573090672 -1314230376 -1963219318 -1401394156  1114266366  -481788681 -1124262202  1067913224
#
#      Author: C. J. Pickard (cjp20@cam.ac.uk)
#                Space group: P-1
#

%BLOCK LATTICE_ABC
      4.19517      6.38195      7.74926
     91.46899    104.72517     93.88781
%ENDBLOCK LATTICE_ABC

%BLOCK POSITIONS_FRAC
  Li  -0.5000000  -0.5000000   0.5000000 SPIN=   0.00000
  Li   0.0000000   0.5000000   0.0000000 SPIN=   0.00000
  Fe  -0.5000000  -0.0000000   0.5000000 SPIN=   7.77767
  Fe  -0.5000000  -0.0000000   0.0000000 SPIN=   0.22233
   O   0.0992029  -0.3387258   0.4789994 SPIN=   0.00000
   O  -0.4435024  -0.2373421   0.3033040 SPIN=   0.00000
   O  -0.1973540  -0.5450410   0.2034217 SPIN=   0.00000
   S  -0.1232160  -0.3266977   0.2924051 SPIN=   0.00000
   O  -0.0992029   0.3387258  -0.4789994 SPIN=   0.00000
   O   0.4435024   0.2373421  -0.3033040 SPIN=   0.00000
   O   0.1973540   0.5450410  -0.2034217 SPIN=   0.00000
   S   0.1232160   0.3266977  -0.2924051 SPIN=   0.00000
   O  -0.0000000   0.0000000  -0.5000000 SPIN=   0.00000
   O   0.0000000   0.0000000   0.0000000 SPIN=   0.00000
   F  -0.3349326  -0.2053082  -0.2908556 SPIN=   0.00000
   F   0.3349326   0.2053082   0.2908556 SPIN=   0.00000
%ENDBLOCK POSITIONS_FRAC

# Note: total spin =   8.00

KPOINTS_MP_SPACING 0.07

%BLOCK SPECIES_POT
QC5
%ENDBLOCK SPECIES_POT

SNAP_TO_SYMMETRY
SYMMETRY_GENERATE

