#              Generated by Buildcell
#
# at 01:11:49 (GMT+1.0) 19th August 2020
# in /lustre/scratch/uccabz1/launch_tmp
# on node-c12a-025
# by uccabz1
#
# compiler GCC version 4.9.2
# options -cpp -iprefix /lustre/shared/ucl/apps/gcc/4.9.2/bin/../lib/gcc/x86_64-unknown-linux-gnu/4.9.2/ -mtune=corei7 -march=x86-64 -g -Og
#
# seed -1718600930  -683278579   -90638447  1904426995  1795470325  -230635803 -1079443805   269116096  -907798854  1257224721 -1534891856  -441414738
#
#      Author: C. J. Pickard (cjp20@cam.ac.uk)
#                Space group: Pc
#

%BLOCK LATTICE_ABC
      4.02088      4.70973     10.79851
     90.00000     90.00000    102.03429
%ENDBLOCK LATTICE_ABC

%BLOCK POSITIONS_FRAC
  Li   0.2838978  -0.2248831  -0.3664258 SPIN=   0.00000
  Li  -0.2161022   0.2751169   0.3664258 SPIN=   0.00000
  Fe   0.0169830  -0.0885686   0.1182317 SPIN=   4.00000
  Fe  -0.4830170   0.4114314  -0.1182317 SPIN=   4.00000
   O   0.2738731  -0.5993468   0.3143613 SPIN=   0.00000
   O   0.1352609  -0.1295544   0.3732637 SPIN=   0.00000
   O   0.6563589  -0.1386628   0.2526808 SPIN=   0.00000
   O   0.6193561  -0.2901796   0.4725655 SPIN=   0.00000
   S   0.4212123  -0.2894359   0.3532178 SPIN=   0.00000
   O  -0.2261269  -0.0993468  -0.3143613 SPIN=   0.00000
   O  -0.3647391   0.3704456  -0.3732637 SPIN=   0.00000
   O   0.1563589   0.3613372  -0.2526808 SPIN=   0.00000
   O   0.1193561   0.2098204  -0.4725655 SPIN=   0.00000
   S  -0.0787877   0.2105641  -0.3532178 SPIN=   0.00000
   F   0.3782141  -0.1639248  -0.1068926 SPIN=   0.00000
   F  -0.1217859   0.3360752   0.1068926 SPIN=   0.00000
%ENDBLOCK POSITIONS_FRAC

# Note: total spin =   8.00

KPOINTS_MP_SPACING 0.07

%BLOCK SPECIES_POT
QC5
%ENDBLOCK SPECIES_POT

SNAP_TO_SYMMETRY
SYMMETRY_GENERATE

