#              Generated by Buildcell
#
# at 00:33:39 (GMT+1.0) 19th August 2020
# in /lustre/scratch/uccabz1/launch_tmp
# on node-c12b-025
# by uccabz1
#
# compiler GCC version 4.9.2
# options -cpp -iprefix /lustre/shared/ucl/apps/gcc/4.9.2/bin/../lib/gcc/x86_64-unknown-linux-gnu/4.9.2/ -mtune=corei7 -march=x86-64 -g -Og
#
# seed  -486336281   816593037  -581224884  1251274966 -1625435032   841211598  2028083285 -1510532061  1002711853  -609136322  -486833638   290324620
#
#      Author: C. J. Pickard (cjp20@cam.ac.uk)
#                Space group: C2
#

%BLOCK LATTICE_ABC
      3.93450      7.62733      7.62733
     64.73788     77.41744     77.41744
%ENDBLOCK LATTICE_ABC

%BLOCK POSITIONS_FRAC
  Li   0.3843180   0.0825590  -0.4138778 SPIN=   0.00000
  Li  -0.3843180   0.4138778  -0.0825590 SPIN=   0.00000
  Fe   0.0949359   0.0601370   0.2105401 SPIN=   4.00000
  Fe  -0.0949359  -0.2105401  -0.0601370 SPIN=   4.00000
   O  -0.8599736  -0.2582599  -0.4260738 SPIN=   0.00000
   O  -0.3197188  -0.1090467  -0.6024996 SPIN=   0.00000
   O  -0.2880888  -0.4695618  -0.4380935 SPIN=   0.00000
   O  -0.4052947  -0.2707298  -0.2405733 SPIN=   0.00000
   S  -0.4682690  -0.2768996  -0.4268100 SPIN=   0.00000
   O   0.8599736   0.4260738   0.2582599 SPIN=   0.00000
   O   0.3197188   0.6024996   0.1090467 SPIN=   0.00000
   O   0.2880888   0.4380935   0.4695618 SPIN=   0.00000
   O   0.4052947   0.2405733   0.2707298 SPIN=   0.00000
   S   0.4682690   0.4268100   0.2768996 SPIN=   0.00000
   F  -0.1420403   0.0555655  -0.3236080 SPIN=   0.00000
   F   0.1420403   0.3236080  -0.0555655 SPIN=   0.00000
%ENDBLOCK POSITIONS_FRAC

# Note: total spin =   8.00

KPOINTS_MP_SPACING 0.07

%BLOCK SPECIES_POT
QC5
%ENDBLOCK SPECIES_POT

SNAP_TO_SYMMETRY
SYMMETRY_GENERATE

