#              Generated by Buildcell
#
# at 04:57:43 (GMT+1.0) 4th August 2020
# in /lustre/scratch/uccabz1/launch_tmp
# on node-c12g-003
# by uccabz1
#
# compiler GCC version 4.9.2
# options -cpp -iprefix /lustre/shared/ucl/apps/gcc/4.9.2/bin/../lib/gcc/x86_64-unknown-linux-gnu/4.9.2/ -mtune=corei7 -march=x86-64 -g -Og
#
# seed -1670260513 -1747130395   929734005  -980589768 -1936719551  1669142807  -846675022 -2066050884  -652829163   680719335 -1585131330   643815001
#
#      Author: C. J. Pickard (cjp20@cam.ac.uk)
#                Space group: P-1
#

%BLOCK LATTICE_ABC
      4.35559      7.25218      7.37853
     63.89987     75.05219     76.01366
%ENDBLOCK LATTICE_ABC

%BLOCK POSITIONS_FRAC
  Li  -0.0502202  -0.0823795  -0.2116535 SPIN=   0.00000
  Li   0.0502202   0.0823795   0.2116535 SPIN=   0.00000
  Fe  -0.3699571  -0.2546279   0.4770593 SPIN=   4.00000
  Fe   0.3699571   0.2546279  -0.4770593 SPIN=   4.00000
   O  -0.4363780   0.3605729  -0.3070380 SPIN=   0.00000
   O  -0.2533633   0.4367785  -0.0596202 SPIN=   0.00000
   O   0.0473607   0.1497191  -0.1594195 SPIN=   0.00000
   O  -0.4909774   0.1170533   0.0582807 SPIN=   0.00000
   S  -0.2833395   0.2660309  -0.1169493 SPIN=   0.00000
   O   0.4363780  -0.3605729   0.3070380 SPIN=   0.00000
   O   0.2533633  -0.4367785   0.0596202 SPIN=   0.00000
   O  -0.0473607  -0.1497191   0.1594195 SPIN=   0.00000
   O   0.4909774  -0.1170533  -0.0582807 SPIN=   0.00000
   S   0.2833395  -0.2660309   0.1169493 SPIN=   0.00000
   F  -0.1386750   0.2674004   0.3496072 SPIN=   0.00000
   F   0.1386750  -0.2674004  -0.3496072 SPIN=   0.00000
%ENDBLOCK POSITIONS_FRAC

# Note: total spin =   8.00

KPOINTS_MP_SPACING 0.07

%BLOCK SPECIES_POT
QC5
%ENDBLOCK SPECIES_POT

SNAP_TO_SYMMETRY
SYMMETRY_GENERATE

