#              Generated by Buildcell
#
# at 17:51:02 (GMT+1.0) 18th August 2020
# in /lustre/scratch/uccabz1/launch_tmp
# on node-c12m-030
# by uccabz1
#
# compiler GCC version 4.9.2
# options -cpp -iprefix /lustre/shared/ucl/apps/gcc/4.9.2/bin/../lib/gcc/x86_64-unknown-linux-gnu/4.9.2/ -mtune=corei7 -march=x86-64 -g -Og
#
# seed  1537690568   658526096  -969732303 -1528425686   945856556  -473631751  1531721368  -897288454   -57027196    54013428  1434466334   122083599
#
#      Author: C. J. Pickard (cjp20@cam.ac.uk)
#                Space group: Pnc2
#

%BLOCK LATTICE_ABC
      4.07753      4.08008     12.02164
     90.00000     90.00000     90.00000
%ENDBLOCK LATTICE_ABC

%BLOCK POSITIONS_FRAC
  Li   0.5000000  -0.5000000   0.1316918 SPIN=   0.00000
  Li  -0.5000000  -0.0000000  -0.3683082 SPIN=   0.00000
  Fe   0.0000000  -0.0000000   0.0699736 SPIN=   4.00000
  Fe   0.0000000  -0.5000000  -0.4300264 SPIN=   4.00000
   O  -0.2491286  -0.2496278   0.3925090 SPIN=   0.00000
   O  -0.2514381   0.2540377   0.2777913 SPIN=   0.00000
   O   0.2491286   0.2496278   0.3925090 SPIN=   0.00000
   O   0.2514381  -0.2540377   0.2777913 SPIN=   0.00000
   O  -0.2491286   0.7496278  -0.1074910 SPIN=   0.00000
   O  -0.2514381   0.2459623  -0.2222087 SPIN=   0.00000
   O   0.2491286  -0.7496278  -0.1074910 SPIN=   0.00000
   O   0.2514381  -0.2459623  -0.2222087 SPIN=   0.00000
   S   0.0000000  -0.5000000  -0.1513066 SPIN=   0.00000
   S   0.0000000   0.0000000   0.3486934 SPIN=   0.00000
   F  -0.5000000  -0.0000000   0.0772725 SPIN=   0.00000
   F   0.5000000  -0.5000000  -0.4227275 SPIN=   0.00000
%ENDBLOCK POSITIONS_FRAC

# Note: total spin =   8.00

KPOINTS_MP_SPACING 0.07

%BLOCK SPECIES_POT
QC5
%ENDBLOCK SPECIES_POT

SNAP_TO_SYMMETRY
SYMMETRY_GENERATE

