#              Generated by Buildcell
#
# at 02:04:12 (GMT+1.0) 19th August 2020
# in /scratch/scratch/uccabz1/launch_tmp
# on node-k10b-015
# by uccabz1
#
# compiler GCC version 4.9.2
# options -cpp -iprefix /scratch/UCL/applications/gcc/4.9.2/bin/../lib/gcc/x86_64-unknown-linux-gnu/4.9.2/ -mtune=corei7 -march=x86-64 -g -O2
#
# seed  1275064223  -293740908 -2075816020 -2063547756  1094589293   339671286  1068027562 -1293640699  1316413097  -949108220   414023034   396989597
#
#      Author: C. J. Pickard (cjp20@cam.ac.uk)
#                Space group: P-1
#

%BLOCK LATTICE_ABC
      4.32693      7.04189      7.31663
     69.61807     73.18241     85.25708
%ENDBLOCK LATTICE_ABC

%BLOCK POSITIONS_FRAC
  Li  -0.2811370   0.7853516  -0.3741756 SPIN=   0.00000
  Li   0.2811370  -0.7853516   0.3741756 SPIN=   0.00000
  Fe   0.3660018  -0.2620573   0.3388668 SPIN=   4.00000
  Fe  -0.3660018   0.2620573  -0.3388668 SPIN=   4.00000
   O  -0.1840161   0.3049631  -0.0971436 SPIN=   0.00000
   O   0.3151033   0.1170567  -0.0570070 SPIN=   0.00000
   O   0.1158571   0.3642250   0.1199633 SPIN=   0.00000
   O   0.3464940   0.4842167  -0.2533517 SPIN=   0.00000
   O   0.1840161  -0.3049631   0.0971436 SPIN=   0.00000
   O  -0.3151033  -0.1170567   0.0570070 SPIN=   0.00000
   O  -0.1158571  -0.3642250  -0.1199633 SPIN=   0.00000
   O  -0.3464940  -0.4842167   0.2533517 SPIN=   0.00000
   S   0.0000000   0.0000000  -0.0000000 SPIN=   0.00000
   S  -0.5000000   0.5000000   0.0000000 SPIN=   0.00000
   F   0.0000000  -1.0000000   0.5000000 SPIN=   0.00000
   F  -0.0000000   0.5000000  -0.5000000 SPIN=   0.00000
%ENDBLOCK POSITIONS_FRAC

# Note: total spin =   8.00

KPOINTS_MP_SPACING 0.07

%BLOCK SPECIES_POT
QC5
%ENDBLOCK SPECIES_POT

SNAP_TO_SYMMETRY
SYMMETRY_GENERATE

