#              Generated by Buildcell
#
# at 01:02:39 (GMT+1.0) 19th August 2020
# in /lustre/scratch/uccabz1/launch_tmp
# on node-c12p-007
# by uccabz1
#
# compiler GCC version 4.9.2
# options -cpp -iprefix /lustre/shared/ucl/apps/gcc/4.9.2/bin/../lib/gcc/x86_64-unknown-linux-gnu/4.9.2/ -mtune=corei7 -march=x86-64 -g -Og
#
# seed  1058865758 -1871282550   -65890862   -15845401   883566407   820219262 -1737804522  1913542514  -653020471 -1010402647   373494712  1114725182
#
#      Author: C. J. Pickard (cjp20@cam.ac.uk)
#                Space group: C2
#

%BLOCK LATTICE_ABC
      5.14414      5.14414      7.58072
     93.13285     93.13285     90.16829
%ENDBLOCK LATTICE_ABC

%BLOCK POSITIONS_FRAC
  Li   0.3729850   0.2173432  -0.3495255 SPIN=   0.00000
  Li  -0.2173432  -0.3729850   0.3495255 SPIN=   0.00000
  Fe  -0.1647246  -0.1001544  -0.3040664 SPIN=   4.00000
  Fe   0.1001544   0.1647246   0.3040664 SPIN=   4.00000
   O  -0.3709166  -0.3568160   0.0927141 SPIN=   0.00000
   O  -0.3290592   0.0373210  -0.0769924 SPIN=   0.00000
   O  -0.2840922   0.0713897   0.2501754 SPIN=   0.00000
   O  -0.7149956  -0.0216707   0.0981515 SPIN=   0.00000
   S  -0.4247659  -0.0674440   0.0910122 SPIN=   0.00000
   O   0.3568160   0.3709166  -0.0927141 SPIN=   0.00000
   O  -0.0373210   0.3290592   0.0769924 SPIN=   0.00000
   O  -0.0713897   0.2840922  -0.2501754 SPIN=   0.00000
   O   0.0216707   0.7149956  -0.0981515 SPIN=   0.00000
   S   0.0674440   0.4247659  -0.0910122 SPIN=   0.00000
   F  -0.3965801   0.3965801  -0.5000000 SPIN=   0.00000
   F   0.1034199  -0.1034199  -0.5000000 SPIN=   0.00000
%ENDBLOCK POSITIONS_FRAC

# Note: total spin =   8.00

KPOINTS_MP_SPACING 0.07

%BLOCK SPECIES_POT
QC5
%ENDBLOCK SPECIES_POT

SNAP_TO_SYMMETRY
SYMMETRY_GENERATE

