#              Generated by Buildcell
#
# at 05:14:18 (GMT+1.0) 4th August 2020
# in /lustre/scratch/uccabz1/launch_tmp
# on node-c12n-009
# by uccabz1
#
# compiler GCC version 4.9.2
# options -cpp -iprefix /lustre/shared/ucl/apps/gcc/4.9.2/bin/../lib/gcc/x86_64-unknown-linux-gnu/4.9.2/ -mtune=corei7 -march=x86-64 -g -Og
#
# seed -1091917853  -475897233  -149200916  1206161380  -210805291  2010956445   279283450   248134574  1110619190  2097269040 -1044740838 -1182494635
#
#      Author: C. J. Pickard (cjp20@cam.ac.uk)
#                Space group: P21
#

%BLOCK LATTICE_ABC
      5.40473      5.41941      6.93198
     99.92863     90.00000     90.00000
%ENDBLOCK LATTICE_ABC

%BLOCK POSITIONS_FRAC
  Li   0.2476177   0.2611943  -0.1455205 SPIN=   0.00000
  Li  -0.2523823  -0.2611943   0.1455205 SPIN=   0.00000
  Fe   0.3525575  -0.2945403   0.4244108 SPIN=   4.00000
  Fe  -0.1474425   0.2945403  -0.4244108 SPIN=   4.00000
   O  -0.1004129  -0.3810785  -0.2195309 SPIN=   0.00000
   O   0.0301830  -0.0039610   0.0122926 SPIN=   0.00000
   O   0.2762087  -0.1502938  -0.2866653 SPIN=   0.00000
   O   0.2742402  -0.3949951  -0.0164140 SPIN=   0.00000
   S   0.1200548  -0.2325821  -0.1275794 SPIN=   0.00000
   O  -0.6004129   0.3810785   0.2195309 SPIN=   0.00000
   O  -0.4698170   0.0039610  -0.0122926 SPIN=   0.00000
   O  -0.2237913   0.1502938   0.2866653 SPIN=   0.00000
   O  -0.2257598   0.3949951   0.0164140 SPIN=   0.00000
   S  -0.3799452   0.2325821   0.1275794 SPIN=   0.00000
   F  -0.4950532   0.2824417  -0.3658095 SPIN=   0.00000
   F   0.0049468  -0.2824417   0.3658095 SPIN=   0.00000
%ENDBLOCK POSITIONS_FRAC

# Note: total spin =   8.00

KPOINTS_MP_SPACING 0.07

%BLOCK SPECIES_POT
QC5
%ENDBLOCK SPECIES_POT

SNAP_TO_SYMMETRY
SYMMETRY_GENERATE

