#              Generated by Buildcell
#
# at 05:49:54 (GMT+1.0) 4th August 2020
# in /lustre/scratch/uccabz1/launch_tmp
# on node-c12p-011
# by uccabz1
#
# compiler GCC version 4.9.2
# options -cpp -iprefix /lustre/shared/ucl/apps/gcc/4.9.2/bin/../lib/gcc/x86_64-unknown-linux-gnu/4.9.2/ -mtune=corei7 -march=x86-64 -g -Og
#
# seed -1952365804  1487980010  1844603250  1658414473 -2092271032 -1635268138   720442314  -286729763 -1252084599  -913877302   695923057 -1292947012
#
#      Author: C. J. Pickard (cjp20@cam.ac.uk)
#                Space group: P21
#

%BLOCK LATTICE_ABC
      3.94914      5.90478      8.66175
     90.00000     90.00000     98.03231
%ENDBLOCK LATTICE_ABC

%BLOCK POSITIONS_FRAC
  Li  -0.2667120   0.3060921   0.2406163 SPIN=   0.00000
  Li   0.2667120  -0.3060921  -0.2593837 SPIN=   0.00000
  Fe  -0.3096697   0.0610626  -0.4503152 SPIN=   4.00000
  Fe   0.3096697  -0.0610626   0.0496848 SPIN=   4.00000
   O  -0.4076162   0.6659943  -0.0819678 SPIN=   0.00000
   O  -0.1161058   0.4270933  -0.2591719 SPIN=   0.00000
   O  -0.6329254   0.2566183  -0.1168249 SPIN=   0.00000
   O  -0.0889084   0.3681733   0.0231971 SPIN=   0.00000
   S  -0.3113890   0.4294698  -0.1086919 SPIN=   0.00000
   O   0.4076162  -0.6659943   0.4180322 SPIN=   0.00000
   O   0.1161058  -0.4270933   0.2408281 SPIN=   0.00000
   O   0.6329254  -0.2566183   0.3831751 SPIN=   0.00000
   O   0.0889084  -0.3681733   0.5231971 SPIN=   0.00000
   S   0.3113890  -0.4294698   0.3913081 SPIN=   0.00000
   F  -0.0269386  -0.0439523  -0.2842210 SPIN=   0.00000
   F   0.0269386   0.0439523   0.2157790 SPIN=   0.00000
%ENDBLOCK POSITIONS_FRAC

# Note: total spin =   8.00

KPOINTS_MP_SPACING 0.07

%BLOCK SPECIES_POT
QC5
%ENDBLOCK SPECIES_POT

SNAP_TO_SYMMETRY
SYMMETRY_GENERATE

