#              Generated by Buildcell
#
# at 21:16:05 (GMT+1.0) 18th August 2020
# in /scratch/scratch/uccabz1/launch_tmp
# on node-k10h-012
# by uccabz1
#
# compiler GCC version 4.9.2
# options -cpp -iprefix /scratch/UCL/applications/gcc/4.9.2/bin/../lib/gcc/x86_64-unknown-linux-gnu/4.9.2/ -mtune=corei7 -march=x86-64 -g -O2
#
# seed  1219239400  -685791295 -1351004416 -1701592604 -1691841562   903105337 -1599864314  -418119742   827069526 -1370739338  -921557650  -639182662
#
#      Author: C. J. Pickard (cjp20@cam.ac.uk)
#                Space group: C2/c
#

%BLOCK LATTICE_ABC
      4.32271      6.46643      7.73351
     86.34559     79.00668     70.47352
%ENDBLOCK LATTICE_ABC

%BLOCK POSITIONS_FRAC
  Li  -0.0763608   0.1527215  -0.2500000 SPIN=   0.00000
  Li   0.0763608  -0.1527215   0.2500000 SPIN=   0.00000
  Fe  -0.5000000   0.5000000   0.0000000 SPIN=   4.00000
  Fe   0.0000000  -0.5000000   0.5000000 SPIN=   4.00000
   O  -0.1987576  -0.1351281  -0.1983037 SPIN=   0.00000
   O  -0.4189379  -0.2270431   0.1054558 SPIN=   0.00000
   O   0.3338857  -0.1351281  -0.3016963 SPIN=   0.00000
   O   0.6459810  -0.2270431  -0.6054558 SPIN=   0.00000
   O   0.1987576   0.1351281   0.1983037 SPIN=   0.00000
   O   0.4189379   0.2270431  -0.1054558 SPIN=   0.00000
   O  -0.3338857   0.1351281   0.3016963 SPIN=   0.00000
   O  -0.6459810   0.2270431   0.6054558 SPIN=   0.00000
   S  -0.5000000   0.0000000   0.0000000 SPIN=   0.00000
   S  -0.5000000   0.0000000   0.5000000 SPIN=   0.00000
   F   0.2434029  -0.4868058   0.2500000 SPIN=   0.00000
   F  -0.2434029   0.4868058  -0.2500000 SPIN=   0.00000
%ENDBLOCK POSITIONS_FRAC

# Note: total spin =   8.00

KPOINTS_MP_SPACING 0.07

%BLOCK SPECIES_POT
QC5
%ENDBLOCK SPECIES_POT

SNAP_TO_SYMMETRY
SYMMETRY_GENERATE

