#              Generated by Buildcell
#
# at 22:48:58 (GMT+1.0) 18th August 2020
# in /lustre/scratch/uccabz1/launch_tmp
# on node-c12p-018
# by uccabz1
#
# compiler GCC version 4.9.2
# options -cpp -iprefix /lustre/shared/ucl/apps/gcc/4.9.2/bin/../lib/gcc/x86_64-unknown-linux-gnu/4.9.2/ -mtune=corei7 -march=x86-64 -g -Og
#
# seed -1472936288  -415554622 -1142870428  1921194181 -1154399467  2096894412  1898564585   692723070   158948820  2095540168   960183764 -1095937400
#
#      Author: C. J. Pickard (cjp20@cam.ac.uk)
#                Space group: Cm
#

%BLOCK LATTICE_ABC
      3.92367      7.16697      7.16697
     82.91803     89.73532     89.73532
%ENDBLOCK LATTICE_ABC

%BLOCK POSITIONS_FRAC
  Li  -0.3123275   0.4022162  -0.0089677 SPIN=   0.00000
  Li  -0.3123275  -0.0089677   0.4022162 SPIN=   0.00000
  Fe   0.1867959   0.0967235   0.0967235 SPIN=   2.17727
  Fe   0.1884215  -0.3854964  -0.3854964 SPIN=   5.82273
   O  -0.2030754  -0.1128851  -0.3398879 SPIN=   0.00000
   O  -0.7499745   0.0252749  -0.2500069 SPIN=   0.00000
   O  -0.3357344   0.2208156  -0.4477899 SPIN=   0.00000
   O  -0.2099918   0.1202629  -0.1122860 SPIN=   0.00000
   O  -0.2030754  -0.3398879  -0.1128851 SPIN=   0.00000
   O  -0.7499745  -0.2500069   0.0252749 SPIN=   0.00000
   O  -0.3357344  -0.4477899   0.2208156 SPIN=   0.00000
   O  -0.2099918  -0.1122860   0.1202629 SPIN=   0.00000
   S  -0.3069258   0.3716443   0.3716443 SPIN=   0.00000
   S  -0.3163855  -0.1426383  -0.1426383 SPIN=   0.00000
   F   0.2868557  -0.1888460   0.3999049 SPIN=   0.00000
   F   0.2868557   0.3999049  -0.1888460 SPIN=   0.00000
%ENDBLOCK POSITIONS_FRAC

# Note: total spin =   8.00

KPOINTS_MP_SPACING 0.07

%BLOCK SPECIES_POT
QC5
%ENDBLOCK SPECIES_POT

SNAP_TO_SYMMETRY
SYMMETRY_GENERATE

