#              Generated by Buildcell
#
# at 21:16:10 (GMT+1.0) 18th August 2020
# in /scratch/scratch/uccabz1/launch_tmp
# on node-k10h-032
# by uccabz1
#
# compiler GCC version 4.9.2
# options -cpp -iprefix /scratch/UCL/applications/gcc/4.9.2/bin/../lib/gcc/x86_64-unknown-linux-gnu/4.9.2/ -mtune=corei7 -march=x86-64 -g -O2
#
# seed  -219674055  -991433932 -1560414595 -1619903028 -1486171846 -1698749570 -1145372526  -913350555  1314519324 -1178422590   107725357  -499524598
#
#      Author: C. J. Pickard (cjp20@cam.ac.uk)
#                Space group: Cm
#

%BLOCK LATTICE_ABC
      4.71464      6.59035      6.59035
     78.81031     85.86421     85.86421
%ENDBLOCK LATTICE_ABC

%BLOCK POSITIONS_FRAC
  Li  -0.0861561   0.0417748   0.0417748 SPIN=   0.00000
  Li   0.1240463  -0.4829962  -0.4829962 SPIN=   0.00000
  Fe   0.3773295   0.2164551   0.2164551 SPIN=   4.49155
  Fe  -0.4516732  -0.2766367  -0.2766367 SPIN=   3.50845
   O  -0.2289927   0.0268274  -0.2425376 SPIN=   0.00000
   O  -0.6777581   0.1736949  -0.0955190 SPIN=   0.00000
   O  -0.5573356   0.2579955  -0.4729950 SPIN=   0.00000
   O  -0.2844344   0.4009210  -0.2316074 SPIN=   0.00000
   S  -0.4371302   0.2148597  -0.2606648 SPIN=   0.00000
   O  -0.2289927  -0.2425376   0.0268274 SPIN=   0.00000
   O  -0.6777581  -0.0955190   0.1736949 SPIN=   0.00000
   O  -0.5573356  -0.4729950   0.2579955 SPIN=   0.00000
   O  -0.2844344  -0.2316074   0.4009210 SPIN=   0.00000
   S  -0.4371302  -0.2606648   0.2148597 SPIN=   0.00000
   F  -0.0771522   0.2297409   0.2297409 SPIN=   0.00000
   F   0.0995700  -0.2914502  -0.2914502 SPIN=   0.00000
%ENDBLOCK POSITIONS_FRAC

# Note: total spin =   8.00

KPOINTS_MP_SPACING 0.07

%BLOCK SPECIES_POT
QC5
%ENDBLOCK SPECIES_POT

SNAP_TO_SYMMETRY
SYMMETRY_GENERATE

