#              Generated by Buildcell
#
# at 02:10:50 (GMT+1.0) 4th August 2020
# in /lustre/scratch/uccabz1/launch_tmp
# on node-c12g-036
# by uccabz1
#
# compiler GCC version 4.9.2
# options -cpp -iprefix /lustre/shared/ucl/apps/gcc/4.9.2/bin/../lib/gcc/x86_64-unknown-linux-gnu/4.9.2/ -mtune=corei7 -march=x86-64 -g -Og
#
# seed -2061725932  1300239986  -168730891  -836735860  -536936927  1663896909  1648250917 -1652265748  -932415177   155765033 -2131484163 -1508363325
#
#      Author: C. J. Pickard (cjp20@cam.ac.uk)
#                Space group: P2
#

%BLOCK LATTICE_ABC
      4.01864      5.29242      9.47692
     97.12954     90.00000     90.00000
%ENDBLOCK LATTICE_ABC

%BLOCK POSITIONS_FRAC
  Li  -0.0905293  -0.2786511   0.3741310 SPIN=   0.00000
  Li  -0.0905293   0.2786511  -0.3741310 SPIN=   0.00000
  Fe   0.4094834   0.2230329  -0.1372092 SPIN=   4.00000
  Fe   0.4094834  -0.2230329   0.1372092 SPIN=   4.00000
   O   0.0486327  -0.2728922  -0.3482993 SPIN=   0.00000
   O  -0.0194906   0.0144815  -0.1234300 SPIN=   0.00000
   O   0.0423848  -0.4495911  -0.1184646 SPIN=   0.00000
   O  -0.4752210  -0.2780238  -0.2113788 SPIN=   0.00000
   S  -0.1009235  -0.2465064  -0.2003932 SPIN=   0.00000
   O   0.0486327   0.2728922   0.3482993 SPIN=   0.00000
   O  -0.0194906  -0.0144815   0.1234300 SPIN=   0.00000
   O   0.0423848   0.4495911   0.1184646 SPIN=   0.00000
   O  -0.4752210   0.2780238   0.2113788 SPIN=   0.00000
   S  -0.1009235   0.2465064   0.2003932 SPIN=   0.00000
   F   0.3974669   0.2595091  -0.3356138 SPIN=   0.00000
   F   0.3974669  -0.2595091   0.3356138 SPIN=   0.00000
%ENDBLOCK POSITIONS_FRAC

# Note: total spin =   8.00

KPOINTS_MP_SPACING 0.07

%BLOCK SPECIES_POT
QC5
%ENDBLOCK SPECIES_POT

SNAP_TO_SYMMETRY
SYMMETRY_GENERATE

