#              Generated by Buildcell
#
# at 03:48:42 (GMT+1.0) 4th August 2020
# in /lustre/scratch/uccabz1/launch_tmp
# on node-c12f-035
# by uccabz1
#
# compiler GCC version 4.9.2
# options -cpp -iprefix /lustre/shared/ucl/apps/gcc/4.9.2/bin/../lib/gcc/x86_64-unknown-linux-gnu/4.9.2/ -mtune=corei7 -march=x86-64 -g -Og
#
# seed  1712053126 -1705550548    15071304 -2108396815   714536980  2063332668 -1506159824  1260753434  1984270070  1893647349 -1475363769  1644383884
#
#      Author: C. J. Pickard (cjp20@cam.ac.uk)
#                Space group: Pc
#

%BLOCK LATTICE_ABC
      4.47690      4.57220      9.78710
     90.00000     90.00000     93.31236
%ENDBLOCK LATTICE_ABC

%BLOCK POSITIONS_FRAC
  Li   0.2299467  -0.0932497   0.0925221 SPIN=   0.00000
  Li  -0.2700533   0.4067503  -0.0925221 SPIN=   0.00000
  Fe  -0.2776544  -0.2220668   0.2915819 SPIN=   4.00000
  Fe   0.2223456   0.2779332  -0.2915819 SPIN=   4.00000
   O   0.3109456   0.1473985   0.4979093 SPIN=   0.00000
   O   0.2637819   0.6313835   0.3893142 SPIN=   0.00000
   O  -0.1409996   0.2433500   0.3632795 SPIN=   0.00000
   O   0.3441386   0.1962689   0.2464496 SPIN=   0.00000
   S   0.1944666   0.3046002   0.3742382 SPIN=   0.00000
   O  -0.1890544  -0.3526015  -0.4979093 SPIN=   0.00000
   O  -0.2362181   0.1313835  -0.3893142 SPIN=   0.00000
   O  -0.6409996  -0.2566500  -0.3632795 SPIN=   0.00000
   O  -0.1558614  -0.3037311  -0.2464496 SPIN=   0.00000
   S  -0.3055334  -0.1953998  -0.3742382 SPIN=   0.00000
   F  -0.2269586  -0.4224171   0.1020086 SPIN=   0.00000
   F   0.2730414   0.0775829  -0.1020086 SPIN=   0.00000
%ENDBLOCK POSITIONS_FRAC

# Note: total spin =   8.00

KPOINTS_MP_SPACING 0.07

%BLOCK SPECIES_POT
QC5
%ENDBLOCK SPECIES_POT

SNAP_TO_SYMMETRY
SYMMETRY_GENERATE

