#              Generated by Buildcell
#
# at 05:46:15 (GMT+1.0) 4th August 2020
# in /lustre/scratch/uccabz1/launch_tmp
# on node-c12m-030
# by uccabz1
#
# compiler GCC version 4.9.2
# options -cpp -iprefix /lustre/shared/ucl/apps/gcc/4.9.2/bin/../lib/gcc/x86_64-unknown-linux-gnu/4.9.2/ -mtune=corei7 -march=x86-64 -g -Og
#
# seed    44637433  -314042858 -1071223008  2066529327   674443986   159164792  1095591415   622515017   903232066   977253239  -832944806 -1747154814
#
#      Author: C. J. Pickard (cjp20@cam.ac.uk)
#                Space group: Pc
#

%BLOCK LATTICE_ABC
      4.25667      4.97187      9.70222
    103.08859     90.00000     90.00000
%ENDBLOCK LATTICE_ABC

%BLOCK POSITIONS_FRAC
  Li  -0.2701202  -0.1956969  -0.4453565 SPIN=   0.00000
  Li   0.2701202  -0.1956969   0.0546435 SPIN=   0.00000
  Fe  -0.4921413  -0.5652516  -0.2251538 SPIN=   4.00000
  Fe   0.4921413   0.4347484   0.2748462 SPIN=   4.00000
   O  -0.1895173   0.0989693   0.0745410 SPIN=   0.00000
   O   0.0283314   0.1558604  -0.1536463 SPIN=   0.00000
   O   0.3367752   0.3064527   0.0665730 SPIN=   0.00000
   O  -0.1386476   0.5658619   0.0274274 SPIN=   0.00000
   S   0.0092354   0.2817861   0.0037238 SPIN=   0.00000
   O   0.1895173  -0.9010307  -0.4254590 SPIN=   0.00000
   O  -0.0283314  -0.8441396  -0.6536463 SPIN=   0.00000
   O  -0.3367752  -0.6935473  -0.4334270 SPIN=   0.00000
   O   0.1386476  -0.4341381  -0.4725726 SPIN=   0.00000
   S  -0.0092354  -0.7182139  -0.4962762 SPIN=   0.00000
   F   0.4713541  -0.1735856   0.2405293 SPIN=   0.00000
   F  -0.4713541  -0.1735856  -0.2594707 SPIN=   0.00000
%ENDBLOCK POSITIONS_FRAC

# Note: total spin =   8.00

KPOINTS_MP_SPACING 0.07

%BLOCK SPECIES_POT
QC5
%ENDBLOCK SPECIES_POT

SNAP_TO_SYMMETRY
SYMMETRY_GENERATE

