#              Generated by Buildcell
#
# at 04:17:23 (GMT+1.0) 4th August 2020
# in /lustre/scratch/uccabz1/launch_tmp
# on node-c12d-012
# by uccabz1
#
# compiler GCC version 4.9.2
# options -cpp -iprefix /lustre/shared/ucl/apps/gcc/4.9.2/bin/../lib/gcc/x86_64-unknown-linux-gnu/4.9.2/ -mtune=corei7 -march=x86-64 -g -Og
#
# seed  2136949208   969156468 -1807700346  -145371815 -1680194783   601985320  1797586802   812234150 -1557249230   -15795685  2088596520  -813319956
#
#      Author: C. J. Pickard (cjp20@cam.ac.uk)
#                Space group: Ama2
#

%BLOCK LATTICE_ABC
      3.98587      5.72796      9.34386
     90.00000     90.00000    110.36082
%ENDBLOCK LATTICE_ABC

%BLOCK POSITIONS_FRAC
  Li   0.3347805  -0.3304391   0.0000000 SPIN=   0.00000
  Li   0.3347805  -0.3304391   0.5000000 SPIN=   0.00000
  Fe  -0.3807916   0.2384169   0.0000000 SPIN=   4.00000
  Fe  -0.3807916   0.2384169   0.5000000 SPIN=   4.00000
   O   0.2942674  -0.0599766  -0.3737627 SPIN=   0.00000
   O  -0.2998983  -0.3947000  -0.3738242 SPIN=   0.00000
   O  -0.3542439  -0.0599766   0.3737627 SPIN=   0.00000
   O  -0.0948017  -0.3947000   0.3738242 SPIN=   0.00000
   O  -0.3542439  -0.0599766   0.1262373 SPIN=   0.00000
   O  -0.0948017  -0.3947000   0.1261758 SPIN=   0.00000
   O   0.2942674  -0.0599766  -0.1262373 SPIN=   0.00000
   O  -0.2998983  -0.3947000  -0.1261758 SPIN=   0.00000
   S  -0.2033873  -0.2655139   0.2500000 SPIN=   0.00000
   S  -0.0621266  -0.2655139  -0.2500000 SPIN=   0.00000
   F   0.1518410   0.3036821   0.0000000 SPIN=   0.00000
   F   0.1518410   0.3036821   0.5000000 SPIN=   0.00000
%ENDBLOCK POSITIONS_FRAC

# Note: total spin =   8.00

KPOINTS_MP_SPACING 0.07

%BLOCK SPECIES_POT
QC5
%ENDBLOCK SPECIES_POT

SNAP_TO_SYMMETRY
SYMMETRY_GENERATE

