#              Generated by Buildcell
#
# at 00:53:59 (GMT+1.0) 19th August 2020
# in /lustre/scratch/uccabz1/launch_tmp
# on node-c12k-020
# by uccabz1
#
# compiler GCC version 4.9.2
# options -cpp -iprefix /lustre/shared/ucl/apps/gcc/4.9.2/bin/../lib/gcc/x86_64-unknown-linux-gnu/4.9.2/ -mtune=corei7 -march=x86-64 -g -Og
#
# seed  1845645000   -58816471   996736344  -205916410 -2109291881   797928850   812217470 -1814591525  1109632576   515717373  1902704189 -2005762473
#
#      Author: C. J. Pickard (cjp20@cam.ac.uk)
#                Space group: Pc
#

%BLOCK LATTICE_ABC
      4.19872      6.11746      7.93888
     90.00000     90.00000    101.24474
%ENDBLOCK LATTICE_ABC

%BLOCK POSITIONS_FRAC
  Li   0.0527918  -0.4363945   0.1189645 SPIN=   0.00000
  Li   0.0527918   0.0636055  -0.1189645 SPIN=   0.00000
  Fe  -0.1085354  -0.0773961   0.3702128 SPIN=   4.00000
  Fe  -0.1085354   0.4226039  -0.3702128 SPIN=   4.00000
   O   0.0982192  -0.2714772  -0.1301935 SPIN=   0.00000
   O   0.6069076  -0.2482020   0.0321713 SPIN=   0.00000
   O   0.6200858  -0.0750289  -0.2501223 SPIN=   0.00000
   O   0.5099455  -0.4858186  -0.2221687 SPIN=   0.00000
   S   0.4587896  -0.2701317  -0.1425783 SPIN=   0.00000
   O   0.0982192   0.2285228   0.1301935 SPIN=   0.00000
   O   0.6069076   0.2517980  -0.0321713 SPIN=   0.00000
   O   0.6200858   0.4249711   0.2501223 SPIN=   0.00000
   O   0.5099455   0.0141814   0.2221687 SPIN=   0.00000
   S   0.4587896   0.2298683   0.1425783 SPIN=   0.00000
   F   0.1572052   0.1649619  -0.3571786 SPIN=   0.00000
   F   0.1572052  -0.3350381   0.3571786 SPIN=   0.00000
%ENDBLOCK POSITIONS_FRAC

# Note: total spin =   8.00

KPOINTS_MP_SPACING 0.07

%BLOCK SPECIES_POT
QC5
%ENDBLOCK SPECIES_POT

SNAP_TO_SYMMETRY
SYMMETRY_GENERATE

