#              Generated by Buildcell
#
# at 05:19:42 (GMT+1.0) 4th August 2020
# in /lustre/scratch/uccabz1/launch_tmp
# on node-c12c-023
# by uccabz1
#
# compiler GCC version 4.9.2
# options -cpp -iprefix /lustre/shared/ucl/apps/gcc/4.9.2/bin/../lib/gcc/x86_64-unknown-linux-gnu/4.9.2/ -mtune=corei7 -march=x86-64 -g -Og
#
# seed -1435498053  1630568168  -912026650  1732582358 -1875128651   523371281  1369465988  1207764801  -740643829   691152903  -375734306 -1383518871
#
#      Author: C. J. Pickard (cjp20@cam.ac.uk)
#                Space group: Cc
#

%BLOCK LATTICE_ABC
      5.74973      5.74973      6.87308
    104.23705    104.23705    105.54796
%ENDBLOCK LATTICE_ABC

%BLOCK POSITIONS_FRAC
  Li  -0.2611705  -0.0738136  -0.4801439 SPIN=   0.00000
  Li  -0.0738136  -0.2611705   0.0198561 SPIN=   0.00000
  Fe   0.0528731   0.2775888  -0.0564204 SPIN=   4.00000
  Fe   0.2775888   0.0528731   0.4435796 SPIN=   4.00000
   O  -0.2608020   0.0485866   0.1587382 SPIN=   0.00000
   O  -0.4163273   0.3028909   0.4093822 SPIN=   0.00000
   O  -0.0971278   0.5217506   0.2684926 SPIN=   0.00000
   O   0.0279925   0.3067521   0.5267749 SPIN=   0.00000
   S  -0.1865662   0.2949951   0.3408470 SPIN=   0.00000
   O   0.0485866  -0.2608020  -0.3412618 SPIN=   0.00000
   O   0.3028909  -0.4163273  -0.0906178 SPIN=   0.00000
   O   0.5217506  -0.0971278  -0.2315074 SPIN=   0.00000
   O   0.3067521   0.0279925   0.0267749 SPIN=   0.00000
   S   0.2949951  -0.1865662  -0.1591530 SPIN=   0.00000
   F  -0.3122056   0.4175094  -0.1605133 SPIN=   0.00000
   F   0.4175094  -0.3122056   0.3394867 SPIN=   0.00000
%ENDBLOCK POSITIONS_FRAC

# Note: total spin =   8.00

KPOINTS_MP_SPACING 0.07

%BLOCK SPECIES_POT
QC5
%ENDBLOCK SPECIES_POT

SNAP_TO_SYMMETRY
SYMMETRY_GENERATE

