#              Generated by Buildcell
#
# at 04:59:09 (GMT+1.0) 4th August 2020
# in /lustre/scratch/uccabz1/launch_tmp
# on node-c12i-007
# by uccabz1
#
# compiler GCC version 4.9.2
# options -cpp -iprefix /lustre/shared/ucl/apps/gcc/4.9.2/bin/../lib/gcc/x86_64-unknown-linux-gnu/4.9.2/ -mtune=corei7 -march=x86-64 -g -Og
#
# seed  -659543751 -1709899939   310341743 -1381513288  -287246150  1379958076   229298932   131212854 -1081229997 -1194007514  -493778791 -1158005449
#
#      Author: C. J. Pickard (cjp20@cam.ac.uk)
#                Space group: Ima2
#

%BLOCK LATTICE_ABC
      6.38537      6.44702      6.44702
     73.28990     60.31584     60.31584
%ENDBLOCK LATTICE_ABC

%BLOCK POSITIONS_FRAC
  Li   0.3861672  -0.0979762   0.4020238 SPIN=   0.00000
  Li  -0.3097852   0.0979762  -0.4020238 SPIN=   0.00000
  Fe   0.3188146  -0.3840636   0.1159364 SPIN=   4.00000
  Fe   0.0506875   0.3840636  -0.1159364 SPIN=   4.00000
   O  -0.5944594   0.5145781  -0.2905808 SPIN=   0.00000
   O  -0.2084089   0.5181055  -0.2910642 SPIN=   0.00000
   O  -0.3704621   0.4854219   0.2905808 SPIN=   0.00000
   O   0.0186325   0.4818945   0.2910642 SPIN=   0.00000
   O  -0.3704621  -0.2094192  -0.0145781 SPIN=   0.00000
   O   0.0186325  -0.2089358  -0.0181055 SPIN=   0.00000
   O  -0.5944594   0.2094192   0.0145781 SPIN=   0.00000
   O  -0.2084089   0.2089358   0.0181055 SPIN=   0.00000
   S  -0.2365008   0.0000000   0.0000000 SPIN=   0.00000
   S  -0.2365008   0.5000000   0.5000000 SPIN=   0.00000
   F   0.3142624   0.1449896  -0.3550104 SPIN=   0.00000
   F   0.1042415  -0.1449896   0.3550104 SPIN=   0.00000
%ENDBLOCK POSITIONS_FRAC

# Note: total spin =   8.00

KPOINTS_MP_SPACING 0.07

%BLOCK SPECIES_POT
QC5
%ENDBLOCK SPECIES_POT

SNAP_TO_SYMMETRY
SYMMETRY_GENERATE

