#              Generated by Buildcell
#
# at 05:43:58 (GMT+1.0) 4th August 2020
# in /lustre/scratch/uccabz1/launch_tmp
# on node-c12a-003
# by uccabz1
#
# compiler GCC version 4.9.2
# options -cpp -iprefix /lustre/shared/ucl/apps/gcc/4.9.2/bin/../lib/gcc/x86_64-unknown-linux-gnu/4.9.2/ -mtune=corei7 -march=x86-64 -g -Og
#
# seed   151425205  -543138149  -220541341 -1685713241 -1080918618   558156083   125714301  -522035682  1395062799  1593802633  -322557066 -1410948366
#
#      Author: C. J. Pickard (cjp20@cam.ac.uk)
#                Space group: Pma2
#

%BLOCK LATTICE_ABC
      3.87443      4.14673     12.44849
     90.00000     90.00000     90.00000
%ENDBLOCK LATTICE_ABC

%BLOCK POSITIONS_FRAC
  Li  -0.3408562   0.2815485   0.2500000 SPIN=   0.00000
  Li   0.3408562   0.2815485  -0.2500000 SPIN=   0.00000
  Fe   0.0000000   0.3200488   0.0000000 SPIN=   4.00000
  Fe   0.0000000   0.3200488   0.5000000 SPIN=   4.00000
   O   0.3386251   0.0115311   0.3531691 SPIN=   0.00000
   O   0.0243826   0.5304193   0.3440436 SPIN=   0.00000
   O  -0.3386251   0.0115311  -0.3531691 SPIN=   0.00000
   O  -0.0243826   0.5304193  -0.3440436 SPIN=   0.00000
   O  -0.3386251   0.0115311  -0.1468309 SPIN=   0.00000
   O  -0.0243826   0.5304193  -0.1559564 SPIN=   0.00000
   O   0.3386251   0.0115311   0.1468309 SPIN=   0.00000
   O   0.0243826   0.5304193   0.1559564 SPIN=   0.00000
   S  -0.1547831  -0.2180860  -0.2500000 SPIN=   0.00000
   S   0.1547831  -0.2180860   0.2500000 SPIN=   0.00000
   F  -0.5000000  -0.4856457   0.0000000 SPIN=   0.00000
   F  -0.5000000  -0.4856457   0.5000000 SPIN=   0.00000
%ENDBLOCK POSITIONS_FRAC

# Note: total spin =   8.00

KPOINTS_MP_SPACING 0.07

%BLOCK SPECIES_POT
QC5
%ENDBLOCK SPECIES_POT

SNAP_TO_SYMMETRY
SYMMETRY_GENERATE

