#              Generated by Buildcell
#
# at 00:05:42 (GMT+1.0) 19th August 2020
# in /lustre/scratch/uccabz1/launch_tmp
# on node-c12i-030
# by uccabz1
#
# compiler GCC version 4.9.2
# options -cpp -iprefix /lustre/shared/ucl/apps/gcc/4.9.2/bin/../lib/gcc/x86_64-unknown-linux-gnu/4.9.2/ -mtune=corei7 -march=x86-64 -g -Og
#
# seed -2023529126 -1328776452 -1741358943 -1055324737  1909670923 -1037905008 -1336572959   640649324  -493969554 -1154887175   836907562 -1498536546
#
#      Author: C. J. Pickard (cjp20@cam.ac.uk)
#                Space group: P-1
#

%BLOCK LATTICE_ABC
      5.45791      5.88659      6.40435
     78.88658     84.33547     83.55509
%ENDBLOCK LATTICE_ABC

%BLOCK POSITIONS_FRAC
  Li  -0.0000000   0.5000000  -0.0000000 SPIN=   0.00000
  Li   0.5000000  -0.0000000   0.5000000 SPIN=   0.00000
  Fe   0.0000000   0.0000000   0.0000000 SPIN=   7.23315
  Fe   0.0000000  -0.5000000   0.5000000 SPIN=   0.76685
   O  -0.2724770   0.1913056  -0.3369015 SPIN=   0.00000
   O  -0.4381413   0.2915697   0.0111833 SPIN=   0.00000
   O  -0.7111286   0.1478051  -0.2109236 SPIN=   0.00000
   O  -0.5680519   0.5404030  -0.3245444 SPIN=   0.00000
   S  -0.4974497   0.2927708  -0.2152966 SPIN=   0.00000
   O   0.2724770  -0.1913056   0.3369015 SPIN=   0.00000
   O   0.4381413  -0.2915697  -0.0111833 SPIN=   0.00000
   O   0.7111286  -0.1478051   0.2109236 SPIN=   0.00000
   O   0.5680519  -0.5404030   0.3245444 SPIN=   0.00000
   S   0.4974497  -0.2927708   0.2152966 SPIN=   0.00000
   F  -0.0849797   0.7334906  -0.3065389 SPIN=   0.00000
   F   0.0849797  -0.7334906   0.3065389 SPIN=   0.00000
%ENDBLOCK POSITIONS_FRAC

# Note: total spin =   8.00

KPOINTS_MP_SPACING 0.07

%BLOCK SPECIES_POT
QC5
%ENDBLOCK SPECIES_POT

SNAP_TO_SYMMETRY
SYMMETRY_GENERATE

