#              Generated by Buildcell
#
# at 05:21:14 (GMT+1.0) 4th August 2020
# in /lustre/scratch/uccabz1/launch_tmp
# on node-c12l-019
# by uccabz1
#
# compiler GCC version 4.9.2
# options -cpp -iprefix /lustre/shared/ucl/apps/gcc/4.9.2/bin/../lib/gcc/x86_64-unknown-linux-gnu/4.9.2/ -mtune=corei7 -march=x86-64 -g -Og
#
# seed -1256955474 -1138179056  -392994704 -1975629224  1115002383  1388397447 -1826063353  2035738018  -162659904  1764445359    20641616  1150314703
#
#      Author: C. J. Pickard (cjp20@cam.ac.uk)
#                Space group: P2
#

%BLOCK LATTICE_ABC
      4.68909      6.53433      6.54463
     90.00000     90.00000     94.15828
%ENDBLOCK LATTICE_ABC

%BLOCK POSITIONS_FRAC
  Li   0.2366771   0.2565296   0.2884593 SPIN=   0.00000
  Li  -0.2366771  -0.2565296   0.2884593 SPIN=   0.00000
  Fe   0.2622981  -0.2468401  -0.4450732 SPIN=   4.00000
  Fe  -0.2622981   0.2468401  -0.4450732 SPIN=   4.00000
   O  -0.4373099   0.3266247  -0.0946346 SPIN=   0.00000
   O   0.0715903   0.3242954   0.0049965 SPIN=   0.00000
   O  -0.2487331   0.0077943   0.0364157 SPIN=   0.00000
   S  -0.2300445   0.2396288   0.0542183 SPIN=   0.00000
   O   0.4373099  -0.3266247  -0.0946346 SPIN=   0.00000
   O  -0.0715903  -0.3242954   0.0049965 SPIN=   0.00000
   O   0.2487331  -0.0077943   0.0364157 SPIN=   0.00000
   S   0.2300445  -0.2396288   0.0542183 SPIN=   0.00000
   O   0.5000000   0.0000000  -0.2812756 SPIN=   0.00000
   O   0.0000000   0.5000000  -0.3091102 SPIN=   0.00000
   F  -0.5000000   0.5000000   0.4819618 SPIN=   0.00000
   F   0.0000000   0.0000000  -0.4895763 SPIN=   0.00000
%ENDBLOCK POSITIONS_FRAC

# Note: total spin =   8.00

KPOINTS_MP_SPACING 0.07

%BLOCK SPECIES_POT
QC5
%ENDBLOCK SPECIES_POT

SNAP_TO_SYMMETRY
SYMMETRY_GENERATE

