#              Generated by Buildcell
#
# at 01:56:07 (GMT+1.0) 19th August 2020
# in /lustre/scratch/uccabz1/launch_tmp
# on node-c12g-033
# by uccabz1
#
# compiler GCC version 4.9.2
# options -cpp -iprefix /lustre/shared/ucl/apps/gcc/4.9.2/bin/../lib/gcc/x86_64-unknown-linux-gnu/4.9.2/ -mtune=corei7 -march=x86-64 -g -Og
#
# seed  -334133488 -1853546733 -2121676412   353221296  1663230748  1440906668   463764832   183260816   414993144 -1177001444   574813448    62802874
#
#      Author: C. J. Pickard (cjp20@cam.ac.uk)
#                Space group: Pc
#

%BLOCK LATTICE_ABC
      5.49947      5.70745      6.68572
    107.62525     90.00000     90.00000
%ENDBLOCK LATTICE_ABC

%BLOCK POSITIONS_FRAC
  Li  -0.2331669  -0.4004027  -0.1725293 SPIN=   0.00000
  Li   0.2331669   0.0995973  -0.1725293 SPIN=   0.00000
  Fe   0.2011187   0.2989628   0.3274080 SPIN=   4.00000
  Fe  -0.2011187  -0.2010372   0.3274080 SPIN=   4.00000
   O   0.3474580  -0.2515547  -0.3131225 SPIN=   0.00000
   O   0.4724695  -0.3977474  -0.0157893 SPIN=   0.00000
   O   0.1498567  -0.6171657  -0.2588843 SPIN=   0.00000
   O   0.0693806  -0.2037567  -0.0123322 SPIN=   0.00000
   S   0.2597912  -0.3675561  -0.1500321 SPIN=   0.00000
   O  -0.3474580   0.2484453  -0.3131225 SPIN=   0.00000
   O  -0.4724695   0.1022526  -0.0157893 SPIN=   0.00000
   O  -0.1498567  -0.1171657  -0.2588843 SPIN=   0.00000
   O  -0.0693806   0.2962433  -0.0123322 SPIN=   0.00000
   S  -0.2597912   0.1324439  -0.1500321 SPIN=   0.00000
   F   0.2378825   0.0081092   0.4301783 SPIN=   0.00000
   F  -0.2378825  -0.4918908   0.4301783 SPIN=   0.00000
%ENDBLOCK POSITIONS_FRAC

# Note: total spin =   8.00

KPOINTS_MP_SPACING 0.07

%BLOCK SPECIES_POT
QC5
%ENDBLOCK SPECIES_POT

SNAP_TO_SYMMETRY
SYMMETRY_GENERATE

