#              Generated by Buildcell
#
# at 04:10:33 (GMT+1.0) 4th August 2020
# in /lustre/scratch/uccabz1/launch_tmp
# on node-c12c-016
# by uccabz1
#
# compiler GCC version 4.9.2
# options -cpp -iprefix /lustre/shared/ucl/apps/gcc/4.9.2/bin/../lib/gcc/x86_64-unknown-linux-gnu/4.9.2/ -mtune=corei7 -march=x86-64 -g -Og
#
# seed  2111100527   668373836  -763096645  1662321735 -2083371947   -20269403  -465719352    44734872   512260469  1916236555    -7009501  1442319172
#
#      Author: C. J. Pickard (cjp20@cam.ac.uk)
#                Space group: Pc
#

%BLOCK LATTICE_ABC
      3.99299      6.17294      8.24909
     90.00000     90.00000    100.37970
%ENDBLOCK LATTICE_ABC

%BLOCK POSITIONS_FRAC
  Li   0.6372493   0.3728236  -0.2126432 SPIN=   0.00000
  Li   0.1372493  -0.1271764   0.2126432 SPIN=   0.00000
  Fe   0.1066223   0.0494204  -0.4003776 SPIN=   4.00000
  Fe  -0.3933777  -0.4505796   0.4003776 SPIN=   4.00000
   O  -0.0609947   0.5593067   0.1657981 SPIN=   0.00000
   O  -0.0242600   0.1977532   0.2872887 SPIN=   0.00000
   O   0.4261429   0.3773304   0.1002658 SPIN=   0.00000
   O  -0.1480361   0.2244867  -0.0052671 SPIN=   0.00000
   S   0.0482130   0.3397193   0.1370214 SPIN=   0.00000
   O  -0.5609947   0.0593067  -0.1657981 SPIN=   0.00000
   O  -0.5242600  -0.3022468  -0.2872887 SPIN=   0.00000
   O  -0.0738571  -0.1226696  -0.1002658 SPIN=   0.00000
   O  -0.6480361  -0.2755133   0.0052671 SPIN=   0.00000
   S  -0.4517870  -0.1602807  -0.1370214 SPIN=   0.00000
   F   0.0683644   0.3333150  -0.3021875 SPIN=   0.00000
   F  -0.4316356  -0.1666850   0.3021875 SPIN=   0.00000
%ENDBLOCK POSITIONS_FRAC

# Note: total spin =   8.00

KPOINTS_MP_SPACING 0.07

%BLOCK SPECIES_POT
QC5
%ENDBLOCK SPECIES_POT

SNAP_TO_SYMMETRY
SYMMETRY_GENERATE

