#              Generated by Buildcell
#
# at 02:11:22 (GMT+1.0) 19th August 2020
# in /lustre/scratch/uccabz1/launch_tmp
# on node-c12c-009
# by uccabz1
#
# compiler GCC version 4.9.2
# options -cpp -iprefix /lustre/shared/ucl/apps/gcc/4.9.2/bin/../lib/gcc/x86_64-unknown-linux-gnu/4.9.2/ -mtune=corei7 -march=x86-64 -g -Og
#
# seed   -63176245 -1045041945  1047666382  1739269909  1654252649   497648485   149869547   -50287038  -161983403  2038542551 -1184913601  1529861487
#
#      Author: C. J. Pickard (cjp20@cam.ac.uk)
#                Space group: P2
#

%BLOCK LATTICE_ABC
      4.78130      6.37539      6.56281
     90.00000     90.00000     91.30393
%ENDBLOCK LATTICE_ABC

%BLOCK POSITIONS_FRAC
  Li  -0.2584513   0.2135415   0.4577096 SPIN=   0.00000
  Li   0.2584513  -0.2135415   0.4577096 SPIN=   0.00000
  Fe  -0.2432411  -0.2775565   0.2032485 SPIN=   4.00000
  Fe   0.2432411   0.2775565   0.2032485 SPIN=   4.00000
   O   0.1154413   0.3438594  -0.1148668 SPIN=   0.00000
   O   0.5618742   0.3176263  -0.3030078 SPIN=   0.00000
   O   0.1128860   0.3129550  -0.4907742 SPIN=   0.00000
   O   0.2403288   0.0089434  -0.2783583 SPIN=   0.00000
   S   0.2576326   0.2458460  -0.2967518 SPIN=   0.00000
   O  -0.1154413  -0.3438594  -0.1148668 SPIN=   0.00000
   O  -0.5618742  -0.3176263  -0.3030078 SPIN=   0.00000
   O  -0.1128860  -0.3129550  -0.4907742 SPIN=   0.00000
   O  -0.2403288  -0.0089434  -0.2783583 SPIN=   0.00000
   S  -0.2576326  -0.2458460  -0.2967518 SPIN=   0.00000
   F   0.2426994  -0.2459458   0.1534010 SPIN=   0.00000
   F  -0.2426994   0.2459458   0.1534010 SPIN=   0.00000
%ENDBLOCK POSITIONS_FRAC

# Note: total spin =   8.00

KPOINTS_MP_SPACING 0.07

%BLOCK SPECIES_POT
QC5
%ENDBLOCK SPECIES_POT

SNAP_TO_SYMMETRY
SYMMETRY_GENERATE

