#              Generated by Buildcell
#
# at 22:34:03 (GMT+1.0) 18th August 2020
# in /lustre/scratch/uccabz1/launch_tmp
# on node-c12k-032
# by uccabz1
#
# compiler GCC version 4.9.2
# options -cpp -iprefix /lustre/shared/ucl/apps/gcc/4.9.2/bin/../lib/gcc/x86_64-unknown-linux-gnu/4.9.2/ -mtune=corei7 -march=x86-64 -g -Og
#
# seed -1756414829 -1834540305  1851251836 -1121233993   103146723  1852006795    23345023   567483971 -1878882483  1852126169  -208080284  -836402996
#
#      Author: C. J. Pickard (cjp20@cam.ac.uk)
#                Space group: P-1
#

%BLOCK LATTICE_ABC
      5.63776      5.86174      7.22768
    105.19373     90.07054    118.64957
%ENDBLOCK LATTICE_ABC

%BLOCK POSITIONS_FRAC
  Li   0.1743602   0.4304448  -0.2504659 SPIN=   0.00000
  Li  -0.1743602  -0.4304448   0.2504659 SPIN=   0.00000
  Fe   0.0826788   0.1933216   0.3183829 SPIN=   4.00000
  Fe  -0.0826788  -0.1933216  -0.3183829 SPIN=   4.00000
   O  -0.8967094  -0.5013682   0.1477217 SPIN=   0.00000
   O  -0.6311689   0.0022789   0.2671059 SPIN=   0.00000
   O  -0.5738423  -0.2431213  -0.0492354 SPIN=   0.00000
   O  -0.3980537  -0.2662222   0.2553052 SPIN=   0.00000
   S  -0.6249436  -0.2521082   0.1552244 SPIN=   0.00000
   O   0.8967094   0.5013682  -0.1477217 SPIN=   0.00000
   O   0.6311689  -0.0022789  -0.2671059 SPIN=   0.00000
   O   0.5738423   0.2431213   0.0492354 SPIN=   0.00000
   O   0.3980537   0.2662222  -0.2553052 SPIN=   0.00000
   S   0.6249436   0.2521082  -0.1552244 SPIN=   0.00000
   F  -0.0000000   0.0000000  -0.0000000 SPIN=   0.00000
   F   0.0000000   0.5000000   0.5000000 SPIN=   0.00000
%ENDBLOCK POSITIONS_FRAC

# Note: total spin =   8.00

KPOINTS_MP_SPACING 0.07

%BLOCK SPECIES_POT
QC5
%ENDBLOCK SPECIES_POT

SNAP_TO_SYMMETRY
SYMMETRY_GENERATE

