#              Generated by Buildcell
#
# at 01:38:44 (GMT+1.0) 4th August 2020
# in /lustre/scratch/uccabz1/launch_tmp
# on node-c12p-029
# by uccabz1
#
# compiler GCC version 4.9.2
# options -cpp -iprefix /lustre/shared/ucl/apps/gcc/4.9.2/bin/../lib/gcc/x86_64-unknown-linux-gnu/4.9.2/ -mtune=corei7 -march=x86-64 -g -Og
#
# seed -1555785052  2114415658  1990489102 -2110705290  -472121932  1664394363  -458796368  1068035878   -42630041  -397076773  1399090296   250171697
#
#      Author: C. J. Pickard (cjp20@cam.ac.uk)
#                Space group: Cmc21
#

%BLOCK LATTICE_ABC
      5.26573      5.26573      7.27263
     90.00000     90.00000     97.34521
%ENDBLOCK LATTICE_ABC

%BLOCK POSITIONS_FRAC
  Li  -0.3185802   0.3185802  -0.1603212 SPIN=   0.00000
  Li   0.3185802  -0.3185802   0.3396788 SPIN=   0.00000
  Fe   0.0656177  -0.0656177   0.0312052 SPIN=   4.00000
  Fe  -0.0656177   0.0656177  -0.4687948 SPIN=   4.00000
   O  -0.3827345   0.0589656   0.2164773 SPIN=   0.00000
   O  -0.3439635  -0.3334321   0.0368793 SPIN=   0.00000
   O   0.3827345  -0.0589656  -0.2835227 SPIN=   0.00000
   O   0.3439635   0.3334321  -0.4631207 SPIN=   0.00000
   O   0.0589656  -0.3827345  -0.2835227 SPIN=   0.00000
   O  -0.3334321  -0.3439635  -0.4631207 SPIN=   0.00000
   O  -0.0589656   0.3827345   0.2164773 SPIN=   0.00000
   O   0.3334321   0.3439635   0.0368793 SPIN=   0.00000
   S   0.3576480  -0.3576480  -0.2865776 SPIN=   0.00000
   S  -0.3576480   0.3576480   0.2134224 SPIN=   0.00000
   F   0.0889048  -0.0889048   0.3117844 SPIN=   0.00000
   F  -0.0889048   0.0889048  -0.1882156 SPIN=   0.00000
%ENDBLOCK POSITIONS_FRAC

# Note: total spin =   8.00

KPOINTS_MP_SPACING 0.07

%BLOCK SPECIES_POT
QC5
%ENDBLOCK SPECIES_POT

SNAP_TO_SYMMETRY
SYMMETRY_GENERATE

