#              Generated by Buildcell
#
# at 01:20:14 (GMT+1.0) 19th August 2020
# in /scratch/scratch/uccabz1/launch_tmp
# on node-k10h-032
# by uccabz1
#
# compiler GCC version 4.9.2
# options -cpp -iprefix /scratch/UCL/applications/gcc/4.9.2/bin/../lib/gcc/x86_64-unknown-linux-gnu/4.9.2/ -mtune=corei7 -march=x86-64 -g -O2
#
# seed -1006822781 -1300870363   832375911 -1118258594   531157832   -23478117  -892807556   779973366  -581625102  -616497096 -1634656300  1089341615
#
#      Author: C. J. Pickard (cjp20@cam.ac.uk)
#                Space group: P-1
#

%BLOCK LATTICE_ABC
      4.51481      6.94072      7.32155
     63.50087     76.92539     83.96817
%ENDBLOCK LATTICE_ABC

%BLOCK POSITIONS_FRAC
  Li  -0.2841590   0.2444276   0.2223345 SPIN=   0.00000
  Li   0.2841590  -0.2444276  -0.2223345 SPIN=   0.00000
  Fe   0.3066971  -0.1144748   0.3142435 SPIN=   4.00000
  Fe  -0.3066971   0.1144748  -0.3142435 SPIN=   4.00000
   O   0.2667341   0.3196440   0.1482471 SPIN=   0.00000
   O   0.4483183   0.5501816   0.2782056 SPIN=   0.00000
   O  -0.0657416   0.3905507   0.4308579 SPIN=   0.00000
   O   0.0435114   0.6821431   0.0718233 SPIN=   0.00000
   S   0.1732055   0.4856299   0.2322835 SPIN=   0.00000
   O  -0.2667341  -0.3196440  -0.1482471 SPIN=   0.00000
   O  -0.4483183  -0.5501816  -0.2782056 SPIN=   0.00000
   O   0.0657416  -0.3905507  -0.4308579 SPIN=   0.00000
   O  -0.0435114  -0.6821431  -0.0718233 SPIN=   0.00000
   S  -0.1732055  -0.4856299  -0.2322835 SPIN=   0.00000
   F   0.2844442   0.0755368  -0.2721003 SPIN=   0.00000
   F  -0.2844442  -0.0755368   0.2721003 SPIN=   0.00000
%ENDBLOCK POSITIONS_FRAC

# Note: total spin =   8.00

KPOINTS_MP_SPACING 0.07

%BLOCK SPECIES_POT
QC5
%ENDBLOCK SPECIES_POT

SNAP_TO_SYMMETRY
SYMMETRY_GENERATE

