#              Generated by Buildcell
#
# at 05:45:35 (GMT+1.0) 4th August 2020
# in /lustre/scratch/uccabz1/launch_tmp
# on node-c12g-004
# by uccabz1
#
# compiler GCC version 4.9.2
# options -cpp -iprefix /lustre/shared/ucl/apps/gcc/4.9.2/bin/../lib/gcc/x86_64-unknown-linux-gnu/4.9.2/ -mtune=corei7 -march=x86-64 -g -Og
#
# seed  2022962577  -753776485 -1504256140 -1388628924   939026884 -1223876795  1154766771 -1340677487 -1676168153 -1496712119    47623661  -214801273
#
#      Author: C. J. Pickard (cjp20@cam.ac.uk)
#                Space group: P21
#

%BLOCK LATTICE_ABC
      4.35483      5.29841      8.81828
    100.59749     90.00000     90.00000
%ENDBLOCK LATTICE_ABC

%BLOCK POSITIONS_FRAC
  Li  -0.3477593  -0.3721427  -0.3215526 SPIN=   0.00000
  Li   0.1522407   0.3721427   0.3215526 SPIN=   0.00000
  Fe  -0.3083821  -0.1701841   0.3453085 SPIN=   4.00000
  Fe   0.1916179   0.1701841  -0.3453085 SPIN=   4.00000
   O  -0.4259756  -0.0075194   0.1457165 SPIN=   0.00000
   O  -0.0051369   0.2788821   0.0939214 SPIN=   0.00000
   O  -0.4297715   0.4514116   0.2692172 SPIN=   0.00000
   O  -0.5245618   0.3260812  -0.0112695 SPIN=   0.00000
   S  -0.3463615   0.2622139   0.1243964 SPIN=   0.00000
   O   0.0740244   0.0075194  -0.1457165 SPIN=   0.00000
   O   0.4948631  -0.2788821  -0.0939214 SPIN=   0.00000
   O   0.0702285  -0.4514116  -0.2692172 SPIN=   0.00000
   O  -0.0245618  -0.3260812   0.0112695 SPIN=   0.00000
   S   0.1536385  -0.2622139  -0.1243964 SPIN=   0.00000
   F   0.1536365  -0.1846346   0.3095859 SPIN=   0.00000
   F  -0.3463635   0.1846346  -0.3095859 SPIN=   0.00000
%ENDBLOCK POSITIONS_FRAC

# Note: total spin =   8.00

KPOINTS_MP_SPACING 0.07

%BLOCK SPECIES_POT
QC5
%ENDBLOCK SPECIES_POT

SNAP_TO_SYMMETRY
SYMMETRY_GENERATE

