#              Generated by Buildcell
#
# at 04:15:36 (GMT+1.0) 4th August 2020
# in /lustre/scratch/uccabz1/launch_tmp
# on node-c12l-030
# by uccabz1
#
# compiler GCC version 4.9.2
# options -cpp -iprefix /lustre/shared/ucl/apps/gcc/4.9.2/bin/../lib/gcc/x86_64-unknown-linux-gnu/4.9.2/ -mtune=corei7 -march=x86-64 -g -Og
#
# seed  1689789245  1081442802  1726779824   -78079554 -1093418322  -872325628   835223444   -88930754   436475961  -313028985  1914202797  -350626311
#
#      Author: C. J. Pickard (cjp20@cam.ac.uk)
#                Space group: P-1
#

%BLOCK LATTICE_ABC
      3.95043      7.05019      7.24751
     84.33713     86.36270     85.77480
%ENDBLOCK LATTICE_ABC

%BLOCK POSITIONS_FRAC
  Li  -0.0675305  -0.2427775   0.4657908 SPIN=   0.00000
  Li   0.0675305   0.2427775  -0.4657908 SPIN=   0.00000
  Fe  -0.0435582  -0.2542016   0.0606495 SPIN=   4.00000
  Fe   0.0435582   0.2542016  -0.0606495 SPIN=   4.00000
   O   0.8087402   0.4439415   0.1460775 SPIN=   0.00000
   O   0.3064761   0.2506638   0.1856341 SPIN=   0.00000
   O   0.2542670   0.5862954   0.2624335 SPIN=   0.00000
   O   0.5746292   0.3394016   0.4615277 SPIN=   0.00000
   S   0.4860281   0.4050756   0.2639182 SPIN=   0.00000
   O  -0.8087402  -0.4439415  -0.1460775 SPIN=   0.00000
   O  -0.3064761  -0.2506638  -0.1856341 SPIN=   0.00000
   O  -0.2542670  -0.5862954  -0.2624335 SPIN=   0.00000
   O  -0.5746292  -0.3394016  -0.4615277 SPIN=   0.00000
   S  -0.4860281  -0.4050756  -0.2639182 SPIN=   0.00000
   F   0.1555684   0.0530347  -0.2336551 SPIN=   0.00000
   F  -0.1555684  -0.0530347   0.2336551 SPIN=   0.00000
%ENDBLOCK POSITIONS_FRAC

# Note: total spin =   8.00

KPOINTS_MP_SPACING 0.07

%BLOCK SPECIES_POT
QC5
%ENDBLOCK SPECIES_POT

SNAP_TO_SYMMETRY
SYMMETRY_GENERATE

