#              Generated by Buildcell
#
# at 02:49:57 (GMT+1.0) 19th August 2020
# in /lustre/scratch/uccabz1/launch_tmp
# on node-c12j-026
# by uccabz1
#
# compiler GCC version 4.9.2
# options -cpp -iprefix /lustre/shared/ucl/apps/gcc/4.9.2/bin/../lib/gcc/x86_64-unknown-linux-gnu/4.9.2/ -mtune=corei7 -march=x86-64 -g -Og
#
# seed  1407094645 -1646538417 -1514636206   829611841  1991125733    73007757  2042264293 -1895906887   396225653   453102066  1973919602   683744502
#
#      Author: C. J. Pickard (cjp20@cam.ac.uk)
#                Space group: Pc
#

%BLOCK LATTICE_ABC
      3.88199      6.09631      8.56623
     90.00000     99.40767     90.00000
%ENDBLOCK LATTICE_ABC

%BLOCK POSITIONS_FRAC
  Li  -0.0684671   0.3437828  -0.2957698 SPIN=   0.00000
  Li   0.4315329  -0.3437828   0.2042302 SPIN=   0.00000
  Fe   0.1307505  -0.1505039  -0.1359963 SPIN=   4.00000
  Fe  -0.3692495   0.1505039   0.3640037 SPIN=   4.00000
   O   0.3211247  -0.6463324   0.4858583 SPIN=   0.00000
   O   0.4393467  -0.2501493   0.4602708 SPIN=   0.00000
   O  -0.0208258  -0.3725981   0.6093480 SPIN=   0.00000
   O  -0.1085615  -0.4110347   0.3179236 SPIN=   0.00000
   S   0.1577710  -0.4200286   0.4683502 SPIN=   0.00000
   O  -0.1788753   0.6463324  -0.0141417 SPIN=   0.00000
   O  -0.0606533   0.2501493  -0.0397292 SPIN=   0.00000
   O  -0.5208258   0.3725981   0.1093480 SPIN=   0.00000
   O  -0.6085615   0.4110347  -0.1820764 SPIN=   0.00000
   S  -0.3422290   0.4200286  -0.0316498 SPIN=   0.00000
   F   0.2725798  -0.0767358   0.1223837 SPIN=   0.00000
   F  -0.2274202   0.0767358  -0.3776163 SPIN=   0.00000
%ENDBLOCK POSITIONS_FRAC

# Note: total spin =   8.00

KPOINTS_MP_SPACING 0.07

%BLOCK SPECIES_POT
QC5
%ENDBLOCK SPECIES_POT

SNAP_TO_SYMMETRY
SYMMETRY_GENERATE

