#              Generated by Buildcell
#
# at 20:39:27 (GMT+1.0) 18th August 2020
# in /scratch/scratch/uccabz1/launch_tmp
# on node-k10b-019
# by uccabz1
#
# compiler GCC version 4.9.2
# options -cpp -iprefix /scratch/UCL/applications/gcc/4.9.2/bin/../lib/gcc/x86_64-unknown-linux-gnu/4.9.2/ -mtune=corei7 -march=x86-64 -g -O2
#
# seed  2087860753  -536810606   726719569   913032289  -799099619 -1901396189 -1245123666 -1372332202   813870483  -716522866   628087424   -46618988
#
#      Author: C. J. Pickard (cjp20@cam.ac.uk)
#                Space group: C2
#

%BLOCK LATTICE_ABC
      6.06537      6.06537      6.08872
    105.13943    105.13943    101.43595
%ENDBLOCK LATTICE_ABC

%BLOCK POSITIONS_FRAC
  Li  -0.0579531   0.0579531  -0.5000000 SPIN=   0.00000
  Li   0.1979199  -0.1979199  -0.0000000 SPIN=   0.00000
  Fe  -0.3117322  -0.1987919  -0.0366072 SPIN=   4.00000
  Fe   0.1987919   0.3117322   0.0366072 SPIN=   4.00000
   O   0.1290183  -0.0899431  -0.2848493 SPIN=   0.00000
   O  -0.1269990  -0.4096336  -0.2035551 SPIN=   0.00000
   O  -0.0788361  -0.4805732  -0.6052227 SPIN=   0.00000
   O  -0.3090950  -0.2073375  -0.4762080 SPIN=   0.00000
   O   0.0899431  -0.1290183   0.2848493 SPIN=   0.00000
   O   0.4096336   0.1269990   0.2035551 SPIN=   0.00000
   O   0.4805732   0.0788361   0.6052227 SPIN=   0.00000
   O   0.2073375   0.3090950   0.4762080 SPIN=   0.00000
   S   0.2229071  -0.2229071   0.5000000 SPIN=   0.00000
   S  -0.3390654   0.3390654  -0.5000000 SPIN=   0.00000
   F   0.4414637  -0.4414637  -0.0000000 SPIN=   0.00000
   F  -0.1233773   0.1233773   0.0000000 SPIN=   0.00000
%ENDBLOCK POSITIONS_FRAC

# Note: total spin =   8.00

KPOINTS_MP_SPACING 0.07

%BLOCK SPECIES_POT
QC5
%ENDBLOCK SPECIES_POT

SNAP_TO_SYMMETRY
SYMMETRY_GENERATE

