#              Generated by Buildcell
#
# at 01:25:17 (GMT+1.0) 19th August 2020
# in /lustre/scratch/uccabz1/launch_tmp
# on node-c12a-035
# by uccabz1
#
# compiler GCC version 4.9.2
# options -cpp -iprefix /lustre/shared/ucl/apps/gcc/4.9.2/bin/../lib/gcc/x86_64-unknown-linux-gnu/4.9.2/ -mtune=corei7 -march=x86-64 -g -Og
#
# seed  1140336311   397057862  -663674337  1394190154 -1866257957  -986125327 -1993972543  -682672528  -888069463  1469502678  1045122827  -591291803
#
#      Author: C. J. Pickard (cjp20@cam.ac.uk)
#                Space group: P-1
#

%BLOCK LATTICE_ABC
      5.58447      6.56836      6.68127
     62.87886     66.72986     82.55515
%ENDBLOCK LATTICE_ABC

%BLOCK POSITIONS_FRAC
  Li  -0.0846367   0.2046270   0.2439050 SPIN=   0.00000
  Li   0.0846367  -0.2046270  -0.2439050 SPIN=   0.00000
  Fe   0.1134880   0.2709048  -0.2784009 SPIN=   4.00000
  Fe  -0.1134880  -0.2709048   0.2784009 SPIN=   4.00000
   O  -0.6655557  -0.3579674  -0.0229912 SPIN=   0.00000
   O  -0.2876933  -0.1778823  -0.0444908 SPIN=   0.00000
   O  -0.5660245   0.0609426  -0.2654001 SPIN=   0.00000
   O  -0.2752268  -0.2049507  -0.4059762 SPIN=   0.00000
   S  -0.4486251  -0.1699644  -0.1847146 SPIN=   0.00000
   O   0.6655557   0.3579674   0.0229912 SPIN=   0.00000
   O   0.2876933   0.1778823   0.0444908 SPIN=   0.00000
   O   0.5660245  -0.0609426   0.2654001 SPIN=   0.00000
   O   0.2752268   0.2049507   0.4059762 SPIN=   0.00000
   S   0.4486251   0.1699644   0.1847146 SPIN=   0.00000
   F  -0.1774854  -0.5897693   0.3755106 SPIN=   0.00000
   F   0.1774854   0.5897693  -0.3755106 SPIN=   0.00000
%ENDBLOCK POSITIONS_FRAC

# Note: total spin =   8.00

KPOINTS_MP_SPACING 0.07

%BLOCK SPECIES_POT
QC5
%ENDBLOCK SPECIES_POT

SNAP_TO_SYMMETRY
SYMMETRY_GENERATE

