#              Generated by Buildcell
#
# at 03:21:52 (GMT+1.0) 4th August 2020
# in /lustre/scratch/uccabz1/launch_tmp
# on node-c12k-006
# by uccabz1
#
# compiler GCC version 4.9.2
# options -cpp -iprefix /lustre/shared/ucl/apps/gcc/4.9.2/bin/../lib/gcc/x86_64-unknown-linux-gnu/4.9.2/ -mtune=corei7 -march=x86-64 -g -Og
#
# seed   105759649  -874885928   234047226 -1087774929   737197059  1410253711   626162614 -1800152432    18065582 -1883776118  -879107092 -1114333746
#
#      Author: C. J. Pickard (cjp20@cam.ac.uk)
#                Space group: Pmc21
#

%BLOCK LATTICE_ABC
      5.02182      5.78382      6.88579
     90.00000     90.00000     90.00000
%ENDBLOCK LATTICE_ABC

%BLOCK POSITIONS_FRAC
  Li   0.3253061   0.5000000  -0.2820443 SPIN=   0.00000
  Li  -0.3253061   0.5000000   0.2179557 SPIN=   0.00000
  Fe  -0.1499173  -0.0000000   0.1765290 SPIN=   4.00000
  Fe   0.1499173   0.0000000  -0.3234710 SPIN=   4.00000
   O   0.0789779   0.2937923  -0.1319909 SPIN=   0.00000
   O  -0.3258654   0.2939892  -0.3369460 SPIN=   0.00000
   O  -0.0789779  -0.2937923   0.3680091 SPIN=   0.00000
   O   0.3258654  -0.2939892   0.1630540 SPIN=   0.00000
   O  -0.0789779   0.2937923   0.3680091 SPIN=   0.00000
   O   0.3258654   0.2939892   0.1630540 SPIN=   0.00000
   O   0.0789779  -0.2937923  -0.1319909 SPIN=   0.00000
   O  -0.3258654  -0.2939892  -0.3369460 SPIN=   0.00000
   S   0.1748028   0.5000000   0.0889666 SPIN=   0.00000
   S  -0.1748028  -0.5000000  -0.4110334 SPIN=   0.00000
   F  -0.2809407  -0.0000000  -0.0693492 SPIN=   0.00000
   F   0.2809407   0.0000000   0.4306508 SPIN=   0.00000
%ENDBLOCK POSITIONS_FRAC

# Note: total spin =   8.00

KPOINTS_MP_SPACING 0.07

%BLOCK SPECIES_POT
QC5
%ENDBLOCK SPECIES_POT

SNAP_TO_SYMMETRY
SYMMETRY_GENERATE

