#              Generated by Buildcell
#
# at 03:44:04 (GMT+1.0) 4th August 2020
# in /lustre/scratch/uccabz1/launch_tmp
# on node-c12h-010
# by uccabz1
#
# compiler GCC version 4.9.2
# options -cpp -iprefix /lustre/shared/ucl/apps/gcc/4.9.2/bin/../lib/gcc/x86_64-unknown-linux-gnu/4.9.2/ -mtune=corei7 -march=x86-64 -g -Og
#
# seed -1000162804  2042868046 -2114692642  -310590899   754206766 -1955251640  -638247760  -790747468   404213377 -1040613385  1421492026   644539667
#
#      Author: C. J. Pickard (cjp20@cam.ac.uk)
#                Space group: Cc
#

%BLOCK LATTICE_ABC
      4.36589      7.15387      7.15387
    116.44838     90.68016     90.68016
%ENDBLOCK LATTICE_ABC

%BLOCK POSITIONS_FRAC
  Li   0.3507247  -0.1643455  -0.4121857 SPIN=   0.00000
  Li  -0.1492753  -0.4121857  -0.1643455 SPIN=   0.00000
  Fe  -0.4317116  -0.0686928   0.1893768 SPIN=   4.00000
  Fe   0.0682884   0.1893768  -0.0686928 SPIN=   4.00000
   O  -0.2554766  -0.4426518   0.0802321 SPIN=   0.00000
   O  -0.7124084  -0.3706515   0.3015657 SPIN=   0.00000
   O  -0.2141026  -0.4349824   0.4289155 SPIN=   0.00000
   O  -0.4960718  -0.7249620   0.1415837 SPIN=   0.00000
   S  -0.4195148  -0.4933119   0.2380742 SPIN=   0.00000
   O   0.2445234   0.0802321  -0.4426518 SPIN=   0.00000
   O  -0.2124084   0.3015657  -0.3706515 SPIN=   0.00000
   O   0.2858974   0.4289155  -0.4349824 SPIN=   0.00000
   O   0.0039282   0.1415837  -0.7249620 SPIN=   0.00000
   S   0.0804852   0.2380742  -0.4933119 SPIN=   0.00000
   F   0.1819842  -0.2276379   0.0080340 SPIN=   0.00000
   F  -0.3180158   0.0080340  -0.2276379 SPIN=   0.00000
%ENDBLOCK POSITIONS_FRAC

# Note: total spin =   8.00

KPOINTS_MP_SPACING 0.07

%BLOCK SPECIES_POT
QC5
%ENDBLOCK SPECIES_POT

SNAP_TO_SYMMETRY
SYMMETRY_GENERATE

