#              Generated by Buildcell
#
# at 03:54:11 (GMT+1.0) 4th August 2020
# in /lustre/scratch/uccabz1/launch_tmp
# on node-c12f-031
# by uccabz1
#
# compiler GCC version 4.9.2
# options -cpp -iprefix /lustre/shared/ucl/apps/gcc/4.9.2/bin/../lib/gcc/x86_64-unknown-linux-gnu/4.9.2/ -mtune=corei7 -march=x86-64 -g -Og
#
# seed  1685870801   122776887    28243861   306453500   736555876   728327747 -1553795350 -1776069634 -1897965734  -203633084 -1485644595  1043875044
#
#      Author: C. J. Pickard (cjp20@cam.ac.uk)
#                Space group: P-1
#

%BLOCK LATTICE_ABC
      4.16623      6.21449      7.97567
     91.71963     90.28443    104.29249
%ENDBLOCK LATTICE_ABC

%BLOCK POSITIONS_FRAC
  Li   0.5000000  -0.0000000  -0.5000000 SPIN=   0.00000
  Li  -0.5000000   0.0000000  -0.0000000 SPIN=   0.00000
  Fe   0.0340115   0.0855059   0.2532317 SPIN=   4.00000
  Fe  -0.0340115  -0.0855059  -0.2532317 SPIN=   4.00000
   O  -0.0794381  -0.3092973   0.1962178 SPIN=   0.00000
   O  -0.6460921  -0.4859268   0.2899933 SPIN=   0.00000
   O  -0.2443259  -0.2444544   0.4874253 SPIN=   0.00000
   O  -0.1682861  -0.6131324   0.3976071 SPIN=   0.00000
   O   0.0794381   0.3092973  -0.1962178 SPIN=   0.00000
   O   0.6460921   0.4859268  -0.2899933 SPIN=   0.00000
   O   0.2443259   0.2444544  -0.4874253 SPIN=   0.00000
   O   0.1682861   0.6131324  -0.3976071 SPIN=   0.00000
   S  -0.5000000   0.5000000   0.5000000 SPIN=   0.00000
   S  -0.0000000  -0.5000000  -0.0000000 SPIN=   0.00000
   F   0.4754615   0.0022649  -0.2314428 SPIN=   0.00000
   F  -0.4754615  -0.0022649   0.2314428 SPIN=   0.00000
%ENDBLOCK POSITIONS_FRAC

# Note: total spin =   8.00

KPOINTS_MP_SPACING 0.07

%BLOCK SPECIES_POT
QC5
%ENDBLOCK SPECIES_POT

SNAP_TO_SYMMETRY
SYMMETRY_GENERATE

