#              Generated by Buildcell
#
# at 02:26:14 (GMT+1.0) 19th August 2020
# in /lustre/scratch/uccabz1/launch_tmp
# on node-c12k-012
# by uccabz1
#
# compiler GCC version 4.9.2
# options -cpp -iprefix /lustre/shared/ucl/apps/gcc/4.9.2/bin/../lib/gcc/x86_64-unknown-linux-gnu/4.9.2/ -mtune=corei7 -march=x86-64 -g -Og
#
# seed   426981821  1457826096  1240924803  1721667810  -975042034 -1668297499  1383748276    -1453196 -1473572217  2108220039  -405826039   694667732
#
#      Author: C. J. Pickard (cjp20@cam.ac.uk)
#                Space group: Pc
#

%BLOCK LATTICE_ABC
      3.96427      6.92754      7.41023
     90.00000    100.64857     90.00000
%ENDBLOCK LATTICE_ABC

%BLOCK POSITIONS_FRAC
  Li  -0.3205026   0.2196959   0.1390193 SPIN=   0.00000
  Li  -0.3205026  -0.2196959  -0.3609807 SPIN=   0.00000
  Fe   0.2799285  -0.3650579  -0.0701170 SPIN=   4.00000
  Fe   0.2799285   0.3650579   0.4298830 SPIN=   4.00000
   O   0.1463482   0.0448538   0.1755034 SPIN=   0.00000
   O   0.5672479  -0.2192999   0.1772364 SPIN=   0.00000
   O   0.1807424  -0.2182849   0.4040722 SPIN=   0.00000
   O   0.6493375   0.0217301   0.4280588 SPIN=   0.00000
   S   0.3859190  -0.0927502   0.2962177 SPIN=   0.00000
   O   0.1463482  -0.0448538  -0.3244966 SPIN=   0.00000
   O   0.5672479   0.2192999  -0.3227636 SPIN=   0.00000
   O   0.1807424   0.2182849  -0.0959278 SPIN=   0.00000
   O   0.6493375  -0.0217301  -0.0719412 SPIN=   0.00000
   S   0.3859190   0.0927502  -0.2037823 SPIN=   0.00000
   F  -0.2537780  -0.4204535  -0.1235520 SPIN=   0.00000
   F  -0.2537780   0.4204535   0.3764480 SPIN=   0.00000
%ENDBLOCK POSITIONS_FRAC

# Note: total spin =   8.00

KPOINTS_MP_SPACING 0.07

%BLOCK SPECIES_POT
QC5
%ENDBLOCK SPECIES_POT

SNAP_TO_SYMMETRY
SYMMETRY_GENERATE

