#              Generated by Buildcell
#
# at 05:12:40 (GMT+1.0) 4th August 2020
# in /lustre/scratch/uccabz1/launch_tmp
# on node-c12n-031
# by uccabz1
#
# compiler GCC version 4.9.2
# options -cpp -iprefix /lustre/shared/ucl/apps/gcc/4.9.2/bin/../lib/gcc/x86_64-unknown-linux-gnu/4.9.2/ -mtune=corei7 -march=x86-64 -g -Og
#
# seed  1505407660 -1965216708 -1751648370  1365876444  -422055535  1123226540  -854402560 -1792116272  1523766079  1774238963  1078928291  1209554747
#
#      Author: C. J. Pickard (cjp20@cam.ac.uk)
#                Space group: P2
#

%BLOCK LATTICE_ABC
      3.86945      6.63641      7.78854
     90.00000     90.36230     90.00000
%ENDBLOCK LATTICE_ABC

%BLOCK POSITIONS_FRAC
  Li  -0.1352611  -0.2077781   0.2401325 SPIN=   0.00000
  Li   0.1352611  -0.2077781  -0.2401325 SPIN=   0.00000
  Fe  -0.1097326   0.3524928   0.2295483 SPIN=   4.00000
  Fe   0.1097326   0.3524928  -0.2295483 SPIN=   4.00000
   O   0.2331215  -0.1361590   0.4127231 SPIN=   0.00000
   O   0.2335063   0.0608509   0.1429262 SPIN=   0.00000
   O   0.2500938   0.2364327   0.4231920 SPIN=   0.00000
   O  -0.2830891   0.0616367   0.3286602 SPIN=   0.00000
   O  -0.2331215  -0.1361590  -0.4127231 SPIN=   0.00000
   O  -0.2335063   0.0608509  -0.1429262 SPIN=   0.00000
   O  -0.2500938   0.2364327  -0.4231920 SPIN=   0.00000
   O   0.2830891   0.0616367  -0.3286602 SPIN=   0.00000
   S  -0.5000000   0.0262495   0.5000000 SPIN=   0.00000
   S  -0.5000000  -0.0014922   0.0000000 SPIN=   0.00000
   F   0.2475593  -0.4557397   0.1936517 SPIN=   0.00000
   F  -0.2475593  -0.4557397  -0.1936517 SPIN=   0.00000
%ENDBLOCK POSITIONS_FRAC

# Note: total spin =   8.00

KPOINTS_MP_SPACING 0.07

%BLOCK SPECIES_POT
QC5
%ENDBLOCK SPECIES_POT

SNAP_TO_SYMMETRY
SYMMETRY_GENERATE

