#              Generated by Buildcell
#
# at 02:58:56 (GMT+1.0) 4th August 2020
# in /lustre/scratch/uccabz1/launch_tmp
# on node-c12j-005
# by uccabz1
#
# compiler GCC version 4.9.2
# options -cpp -iprefix /lustre/shared/ucl/apps/gcc/4.9.2/bin/../lib/gcc/x86_64-unknown-linux-gnu/4.9.2/ -mtune=corei7 -march=x86-64 -g -Og
#
# seed   126162084 -1595369687   543981736 -1613938489  -786205023 -1999135510   -37433688 -1547763733   261007374  -246709523  -179243973 -1417323047
#
#      Author: C. J. Pickard (cjp20@cam.ac.uk)
#                Space group: C2/m
#

%BLOCK LATTICE_ABC
      4.44610      6.54353      7.30962
     90.58114     90.00000    109.86058
%ENDBLOCK LATTICE_ABC

%BLOCK POSITIONS_FRAC
  Li   0.3589152  -0.2821695   0.0299052 SPIN=   0.00000
  Li  -0.3589152   0.2821695  -0.0299052 SPIN=   0.00000
  Fe   0.1685113   0.3370226   0.3442684 SPIN=   4.00000
  Fe  -0.1685113  -0.3370226  -0.3442684 SPIN=   4.00000
   O  -0.3085734  -0.1164828  -0.1642316 SPIN=   0.00000
   O  -0.1742660   0.1521115  -0.4137852 SPIN=   0.00000
   O  -0.1920906   0.1164828   0.1642316 SPIN=   0.00000
   O  -0.3263775  -0.1521115   0.4137852 SPIN=   0.00000
   O   0.3085734   0.1164828   0.1642316 SPIN=   0.00000
   O   0.1742660  -0.1521115   0.4137852 SPIN=   0.00000
   O   0.1920906  -0.1164828  -0.1642316 SPIN=   0.00000
   O   0.3263775   0.1521115  -0.4137852 SPIN=   0.00000
   S  -0.5000000   0.0000000   0.5000000 SPIN=   0.00000
   S   0.0000000  -0.0000000  -0.0000000 SPIN=   0.00000
   F  -0.2458949  -0.4917899   0.2606478 SPIN=   0.00000
   F   0.2458949   0.4917899  -0.2606478 SPIN=   0.00000
%ENDBLOCK POSITIONS_FRAC

# Note: total spin =   8.00

KPOINTS_MP_SPACING 0.07

%BLOCK SPECIES_POT
QC5
%ENDBLOCK SPECIES_POT

SNAP_TO_SYMMETRY
SYMMETRY_GENERATE

