#              Generated by Buildcell
#
# at 04:37:50 (GMT+1.0) 4th August 2020
# in /lustre/scratch/uccabz1/launch_tmp
# on node-c12d-027
# by uccabz1
#
# compiler GCC version 4.9.2
# options -cpp -iprefix /lustre/shared/ucl/apps/gcc/4.9.2/bin/../lib/gcc/x86_64-unknown-linux-gnu/4.9.2/ -mtune=corei7 -march=x86-64 -g -Og
#
# seed  -363776040  1441191225   121839847    67732483  1065719439  -394003889  -127277429  1454230045   -67325586   272226934 -2012176262   546499967
#
#      Author: C. J. Pickard (cjp20@cam.ac.uk)
#                Space group: P21
#

%BLOCK LATTICE_ABC
      4.44270      6.47990      6.96860
     90.00000     94.48356     90.00000
%ENDBLOCK LATTICE_ABC

%BLOCK POSITIONS_FRAC
  Li   0.1738274  -0.1670827  -0.2349015 SPIN=   0.00000
  Li  -0.1738274   0.3329173   0.2349015 SPIN=   0.00000
  Fe  -0.4439173   0.1864247  -0.1333988 SPIN=   4.00000
  Fe   0.4439173  -0.3135753   0.1333988 SPIN=   4.00000
   O   0.4215804   0.0098337   0.6021803 SPIN=   0.00000
   O   0.5484103   0.0952309   0.2718630 SPIN=   0.00000
   O   0.1784011   0.3082362   0.4311668 SPIN=   0.00000
   O   0.0453459  -0.0473440   0.3262908 SPIN=   0.00000
   S   0.2984344   0.0914892   0.4078752 SPIN=   0.00000
   O  -0.4215804  -0.4901663  -0.6021803 SPIN=   0.00000
   O  -0.5484103  -0.4047691  -0.2718630 SPIN=   0.00000
   O  -0.1784011  -0.1917638  -0.4311668 SPIN=   0.00000
   O  -0.0453459  -0.5473440  -0.3262908 SPIN=   0.00000
   S  -0.2984344  -0.4085108  -0.4078752 SPIN=   0.00000
   F  -0.0200270   0.0479687  -0.1079707 SPIN=   0.00000
   F   0.0200270  -0.4520313   0.1079707 SPIN=   0.00000
%ENDBLOCK POSITIONS_FRAC

# Note: total spin =   8.00

KPOINTS_MP_SPACING 0.07

%BLOCK SPECIES_POT
QC5
%ENDBLOCK SPECIES_POT

SNAP_TO_SYMMETRY
SYMMETRY_GENERATE

