#              Generated by Buildcell
#
# at 05:44:09 (GMT+1.0) 4th August 2020
# in /lustre/scratch/uccabz1/launch_tmp
# on node-c12d-007
# by uccabz1
#
# compiler GCC version 4.9.2
# options -cpp -iprefix /lustre/shared/ucl/apps/gcc/4.9.2/bin/../lib/gcc/x86_64-unknown-linux-gnu/4.9.2/ -mtune=corei7 -march=x86-64 -g -Og
#
# seed -1572801184   382312382    83631008   526076447  -459499422  2068376073  -554683137   983081478 -1099943911  -636389989   487380766 -1179076180
#
#      Author: C. J. Pickard (cjp20@cam.ac.uk)
#                Space group: P-1
#

%BLOCK LATTICE_ABC
      4.25082      5.91112      8.53115
    106.10506    100.04443     96.20576
%ENDBLOCK LATTICE_ABC

%BLOCK POSITIONS_FRAC
  Li  -0.6769259  -0.2270418  -0.4089299 SPIN=   0.00000
  Li   0.6769259   0.2270418   0.4089299 SPIN=   0.00000
  Fe   0.0198454  -0.3005696  -0.1317773 SPIN=   4.00000
  Fe  -0.0198454   0.3005696   0.1317773 SPIN=   4.00000
   O   0.4148953  -0.1148544   0.0952360 SPIN=   0.00000
   O   0.9403731  -0.1861243   0.2339284 SPIN=   0.00000
   O   0.4658332  -0.5102615   0.1335337 SPIN=   0.00000
   O   0.4818707  -0.1621273   0.3778811 SPIN=   0.00000
   S   0.5757431  -0.2433419   0.2101448 SPIN=   0.00000
   O  -0.4148953   0.1148544  -0.0952360 SPIN=   0.00000
   O  -0.9403731   0.1861243  -0.2339284 SPIN=   0.00000
   O  -0.4658332   0.5102615  -0.1335337 SPIN=   0.00000
   O  -0.4818707   0.1621273  -0.3778811 SPIN=   0.00000
   S  -0.5757431   0.2433419  -0.2101448 SPIN=   0.00000
   F   0.1719354   0.2680632   0.3751946 SPIN=   0.00000
   F  -0.1719354  -0.2680632  -0.3751946 SPIN=   0.00000
%ENDBLOCK POSITIONS_FRAC

# Note: total spin =   8.00

KPOINTS_MP_SPACING 0.07

%BLOCK SPECIES_POT
QC5
%ENDBLOCK SPECIES_POT

SNAP_TO_SYMMETRY
SYMMETRY_GENERATE

