#              Generated by Buildcell
#
# at 00:49:21 (GMT+1.0) 19th August 2020
# in /lustre/scratch/uccabz1/launch_tmp
# on node-c12i-024
# by uccabz1
#
# compiler GCC version 4.9.2
# options -cpp -iprefix /lustre/shared/ucl/apps/gcc/4.9.2/bin/../lib/gcc/x86_64-unknown-linux-gnu/4.9.2/ -mtune=corei7 -march=x86-64 -g -Og
#
# seed  1375338308   974620538  1690558436   586954555 -1855128727  1426100823    47766690  1407782993  -484108270  1914073536  -131332485 -1986606312
#
#      Author: C. J. Pickard (cjp20@cam.ac.uk)
#                Space group: Iba2
#

%BLOCK LATTICE_ABC
      5.95377      6.30363      6.86981
    117.30919    115.67898     90.00000
%ENDBLOCK LATTICE_ABC

%BLOCK POSITIONS_FRAC
  Li   0.0690482   0.0690482   0.1380964 SPIN=   0.00000
  Li  -0.4309518  -0.4309518  -0.8619036 SPIN=   0.00000
  Fe   0.4406295  -0.0593705  -0.1187410 SPIN=   4.00000
  Fe  -0.0593705   0.4406295   0.8812590 SPIN=   4.00000
   O  -0.4052582  -0.3880146  -0.4514658 SPIN=   0.00000
   O  -0.2003598   0.0595258  -0.1812060 SPIN=   0.00000
   O  -0.0462076  -0.0634512  -0.4514658 SPIN=   0.00000
   O   0.0191538  -0.2407318  -0.1812060 SPIN=   0.00000
   O   0.0947418   0.4365488   0.5485342 SPIN=   0.00000
   O   0.2996402   0.2592682   0.8187940 SPIN=   0.00000
   O   0.4537924   0.1119854   0.5485342 SPIN=   0.00000
   O   0.5191538   0.5595258   0.8187940 SPIN=   0.00000
   S  -0.1809518  -0.1809518  -0.3619036 SPIN=   0.00000
   S   0.3190482   0.3190482   0.6380964 SPIN=   0.00000
   F  -0.3863124   0.1136876   0.2273752 SPIN=   0.00000
   F   0.1136876  -0.3863124  -0.7726248 SPIN=   0.00000
%ENDBLOCK POSITIONS_FRAC

# Note: total spin =   8.00

KPOINTS_MP_SPACING 0.07

%BLOCK SPECIES_POT
QC5
%ENDBLOCK SPECIES_POT

SNAP_TO_SYMMETRY
SYMMETRY_GENERATE

