#              Generated by Buildcell
#
# at 04:23:27 (GMT+1.0) 4th August 2020
# in /lustre/scratch/uccabz1/launch_tmp
# on node-c12k-001
# by uccabz1
#
# compiler GCC version 4.9.2
# options -cpp -iprefix /lustre/shared/ucl/apps/gcc/4.9.2/bin/../lib/gcc/x86_64-unknown-linux-gnu/4.9.2/ -mtune=corei7 -march=x86-64 -g -Og
#
# seed  -521440006 -1781244666  1328126112   -21815436 -1761896477  2083823788  -171367517  -582412893  1860826489   861324313   266125258  1655664056
#
#      Author: C. J. Pickard (cjp20@cam.ac.uk)
#                Space group: P21
#

%BLOCK LATTICE_ABC
      4.08214      6.52948      7.52625
     90.00000     90.00000     94.45657
%ENDBLOCK LATTICE_ABC

%BLOCK POSITIONS_FRAC
  Li   0.3724978   0.3873952  -0.3231172 SPIN=   0.00000
  Li  -0.3724978  -0.3873952   0.1768828 SPIN=   0.00000
  Fe  -0.0198237  -0.1159023  -0.1389909 SPIN=   4.00000
  Fe   0.0198237   0.1159023   0.3610091 SPIN=   4.00000
   O   0.3111132   0.2488852  -0.0326184 SPIN=   0.00000
   O   0.2212583   0.6148288   0.0179624 SPIN=   0.00000
   O  -0.1603645   0.3426006   0.1487507 SPIN=   0.00000
   O  -0.1578093   0.4019086  -0.1760453 SPIN=   0.00000
   S   0.0535494   0.4020558  -0.0104877 SPIN=   0.00000
   O  -0.3111132  -0.2488852   0.4673816 SPIN=   0.00000
   O  -0.2212583  -0.6148288   0.5179624 SPIN=   0.00000
   O   0.1603645  -0.3426006   0.6487507 SPIN=   0.00000
   O   0.1578093  -0.4019086   0.3239547 SPIN=   0.00000
   S  -0.0535494  -0.4020558   0.4895123 SPIN=   0.00000
   F   0.2348577   0.1073113  -0.3905333 SPIN=   0.00000
   F  -0.2348577  -0.1073113   0.1094667 SPIN=   0.00000
%ENDBLOCK POSITIONS_FRAC

# Note: total spin =   8.00

KPOINTS_MP_SPACING 0.07

%BLOCK SPECIES_POT
QC5
%ENDBLOCK SPECIES_POT

SNAP_TO_SYMMETRY
SYMMETRY_GENERATE

