#              Generated by Buildcell
#
# at 01:03:03 (GMT+1.0) 19th August 2020
# in /lustre/scratch/uccabz1/launch_tmp
# on node-c12k-019
# by uccabz1
#
# compiler GCC version 4.9.2
# options -cpp -iprefix /lustre/shared/ucl/apps/gcc/4.9.2/bin/../lib/gcc/x86_64-unknown-linux-gnu/4.9.2/ -mtune=corei7 -march=x86-64 -g -Og
#
# seed -2024532565  1131318214 -1445872533 -1371977462  1069276164 -2061934038  1595222286   473471106   -83037526  -830604283    14359100 -1926715341
#
#      Author: C. J. Pickard (cjp20@cam.ac.uk)
#                Space group: P21
#

%BLOCK LATTICE_ABC
      4.90492      5.25236      7.76616
     90.00000     90.00000     91.57006
%ENDBLOCK LATTICE_ABC

%BLOCK POSITIONS_FRAC
  Li   0.0078010  -0.0021418  -0.3671920 SPIN=   0.00000
  Li  -0.0078010   0.0021418   0.1328080 SPIN=   0.00000
  Fe  -0.4944536  -0.3387248   0.0228796 SPIN=   4.00000
  Fe   0.4944536   0.3387248  -0.4771204 SPIN=   4.00000
   O  -0.1678654  -0.2740261  -0.1667793 SPIN=   0.00000
   O  -0.0804020  -0.5594602  -0.4130551 SPIN=   0.00000
   O  -0.0537044  -0.7236585  -0.1150043 SPIN=   0.00000
   O   0.2997742  -0.4186478  -0.2230975 SPIN=   0.00000
   S  -0.0005494  -0.4939482  -0.2294840 SPIN=   0.00000
   O   0.1678654   0.2740261   0.3332207 SPIN=   0.00000
   O   0.0804020   0.5594602   0.0869449 SPIN=   0.00000
   O   0.0537044   0.7236585   0.3849957 SPIN=   0.00000
   O  -0.2997742   0.4186478   0.2769025 SPIN=   0.00000
   S   0.0005494   0.4939482   0.2705160 SPIN=   0.00000
   F   0.4142409   0.0594091   0.0245149 SPIN=   0.00000
   F  -0.4142409  -0.0594091  -0.4754851 SPIN=   0.00000
%ENDBLOCK POSITIONS_FRAC

# Note: total spin =   8.00

KPOINTS_MP_SPACING 0.07

%BLOCK SPECIES_POT
QC5
%ENDBLOCK SPECIES_POT

SNAP_TO_SYMMETRY
SYMMETRY_GENERATE

