#              Generated by Buildcell
#
# at 02:18:56 (GMT+1.0) 19th August 2020
# in /lustre/scratch/uccabz1/launch_tmp
# on node-c12f-013
# by uccabz1
#
# compiler GCC version 4.9.2
# options -cpp -iprefix /lustre/shared/ucl/apps/gcc/4.9.2/bin/../lib/gcc/x86_64-unknown-linux-gnu/4.9.2/ -mtune=corei7 -march=x86-64 -g -Og
#
# seed -1053266227  1024691066 -1570976959  1650030297 -1133797262  1211951371 -1856825010  1278236858 -1662485408  1326562820  2080852362  -396225603
#
#      Author: C. J. Pickard (cjp20@cam.ac.uk)
#                Space group: P2221
#

%BLOCK LATTICE_ABC
      4.02912      6.39180      7.76599
     90.00000     90.00000     90.00000
%ENDBLOCK LATTICE_ABC

%BLOCK POSITIONS_FRAC
  Li   0.0000000  -0.1851743   0.0000000 SPIN=   0.00000
  Li  -0.0000000   0.1851743  -0.5000000 SPIN=   0.00000
  Fe  -0.0000000   0.3355471   0.0000000 SPIN=   4.00000
  Fe  -0.0000000  -0.3355471  -0.5000000 SPIN=   4.00000
   O  -0.2308698   0.0599200   0.1122565 SPIN=   0.00000
   O  -0.6364080  -0.2203622   0.1760797 SPIN=   0.00000
   O   0.2308698  -0.0599200  -0.3877435 SPIN=   0.00000
   O   0.6364080   0.2203622  -0.3239203 SPIN=   0.00000
   O  -0.2308698  -0.0599200   0.3877435 SPIN=   0.00000
   O  -0.6364080   0.2203622   0.3239203 SPIN=   0.00000
   O   0.2308698   0.0599200  -0.1122565 SPIN=   0.00000
   O   0.6364080  -0.2203622  -0.1760797 SPIN=   0.00000
   S   0.3837961   0.0000000   0.2500000 SPIN=   0.00000
   S  -0.3837961   0.0000000  -0.2500000 SPIN=   0.00000
   F  -0.1250502   0.5000000   0.2500000 SPIN=   0.00000
   F   0.1250502  -0.5000000  -0.2500000 SPIN=   0.00000
%ENDBLOCK POSITIONS_FRAC

# Note: total spin =   8.00

KPOINTS_MP_SPACING 0.07

%BLOCK SPECIES_POT
QC5
%ENDBLOCK SPECIES_POT

SNAP_TO_SYMMETRY
SYMMETRY_GENERATE

