#              Generated by Buildcell
#
# at 02:16:49 (GMT+1.0) 4th August 2020
# in /lustre/scratch/uccabz1/launch_tmp
# on node-c12l-035
# by uccabz1
#
# compiler GCC version 4.9.2
# options -cpp -iprefix /lustre/shared/ucl/apps/gcc/4.9.2/bin/../lib/gcc/x86_64-unknown-linux-gnu/4.9.2/ -mtune=corei7 -march=x86-64 -g -Og
#
# seed -1215599883  1680744464  -830537832  2042102673 -1810663128 -2085614068 -1911168122  -896966363  1518658258  1795342622  1757464990  1199189056
#
#      Author: C. J. Pickard (cjp20@cam.ac.uk)
#                Space group: P-1
#

%BLOCK LATTICE_ABC
      4.10110      5.66310      8.86696
    100.75803     94.76073     96.21518
%ENDBLOCK LATTICE_ABC

%BLOCK POSITIONS_FRAC
  Li  -0.4085294   0.2388877  -0.2655052 SPIN=   0.00000
  Li   0.4085294  -0.2388877   0.2655052 SPIN=   0.00000
  Fe   0.5000000   0.0000000  -0.0000000 SPIN=   0.19561
  Fe   0.0000000  -0.0000000  -0.5000000 SPIN=   7.80439
   O  -0.6120690   0.3857650   0.2082666 SPIN=   0.00000
   O  -0.0502792   0.5925557   0.3046071 SPIN=   0.00000
   O  -0.3415157   0.6805485   0.0694778 SPIN=   0.00000
   O  -0.1398548   0.2827833   0.0631190 SPIN=   0.00000
   O   0.6120690  -0.3857650  -0.2082666 SPIN=   0.00000
   O   0.0502792  -0.5925557  -0.3046071 SPIN=   0.00000
   O   0.3415157  -0.6805485  -0.0694778 SPIN=   0.00000
   O   0.1398548  -0.2827833  -0.0631190 SPIN=   0.00000
   S  -0.5000000   0.5000000  -0.5000000 SPIN=   0.00000
   S   0.0000000   0.5000000   0.0000000 SPIN=   0.00000
   F   0.1096543  -0.0388835  -0.2716563 SPIN=   0.00000
   F  -0.1096543   0.0388835   0.2716563 SPIN=   0.00000
%ENDBLOCK POSITIONS_FRAC

# Note: total spin =   8.00

KPOINTS_MP_SPACING 0.07

%BLOCK SPECIES_POT
QC5
%ENDBLOCK SPECIES_POT

SNAP_TO_SYMMETRY
SYMMETRY_GENERATE

