#              Generated by Buildcell
#
# at 04:12:20 (GMT+1.0) 4th August 2020
# in /lustre/scratch/uccabz1/launch_tmp
# on node-c12h-009
# by uccabz1
#
# compiler GCC version 4.9.2
# options -cpp -iprefix /lustre/shared/ucl/apps/gcc/4.9.2/bin/../lib/gcc/x86_64-unknown-linux-gnu/4.9.2/ -mtune=corei7 -march=x86-64 -g -Og
#
# seed   393748221   911051261 -1416245618 -1936935596  -699993668  1653461675  1356342224 -1716412545   654119864 -1833865264   613729196   137321769
#
#      Author: C. J. Pickard (cjp20@cam.ac.uk)
#                Space group: Cc
#

%BLOCK LATTICE_ABC
      3.93562      7.66207      7.66207
    109.29970    103.33106    103.33106
%ENDBLOCK LATTICE_ABC

%BLOCK POSITIONS_FRAC
  Li  -0.1393523  -0.4197899   0.3009299 SPIN=   0.00000
  Li   0.3606477   0.3009299  -0.4197899 SPIN=   0.00000
  Fe   0.4991282  -0.0462300   0.2650840 SPIN=   4.00000
  Fe  -0.0008718   0.2650840  -0.0462300 SPIN=   4.00000
   O   0.0374734  -0.1327050  -0.2260541 SPIN=   0.00000
   O  -0.0951998  -0.1072595  -0.5468749 SPIN=   0.00000
   O   0.4540170  -0.1916636  -0.4201504 SPIN=   0.00000
   O   0.4393462   0.1440349  -0.2625426 SPIN=   0.00000
   S   0.2089092  -0.0718983  -0.3639055 SPIN=   0.00000
   O  -0.4625266  -0.2260541  -0.1327050 SPIN=   0.00000
   O  -0.5951998  -0.5468749  -0.1072595 SPIN=   0.00000
   O  -0.0459830  -0.4201504  -0.1916636 SPIN=   0.00000
   O  -0.0606538  -0.2625426   0.1440349 SPIN=   0.00000
   S  -0.2910908  -0.3639055  -0.0718983 SPIN=   0.00000
   F  -0.1996067   0.2388671  -0.4921118 SPIN=   0.00000
   F   0.3003933  -0.4921118   0.2388671 SPIN=   0.00000
%ENDBLOCK POSITIONS_FRAC

# Note: total spin =   8.00

KPOINTS_MP_SPACING 0.07

%BLOCK SPECIES_POT
QC5
%ENDBLOCK SPECIES_POT

SNAP_TO_SYMMETRY
SYMMETRY_GENERATE

