#              Generated by Buildcell
#
# at 23:14:22 (GMT+1.0) 18th August 2020
# in /lustre/scratch/uccabz1/launch_tmp
# on node-c12m-009
# by uccabz1
#
# compiler GCC version 4.9.2
# options -cpp -iprefix /lustre/shared/ucl/apps/gcc/4.9.2/bin/../lib/gcc/x86_64-unknown-linux-gnu/4.9.2/ -mtune=corei7 -march=x86-64 -g -Og
#
# seed  1521532704   380551331 -1836025266  -139254067   886536885  -669024630 -1460696493   -42015070  -620128552  -143873391  -139246745 -1731780509
#
#      Author: C. J. Pickard (cjp20@cam.ac.uk)
#                Space group: P-1
#

%BLOCK LATTICE_ABC
      5.80899      6.44347      6.57973
    117.99201    109.28738     91.86144
%ENDBLOCK LATTICE_ABC

%BLOCK POSITIONS_FRAC
  Li   0.1571640   0.6908188   0.3369127 SPIN=   0.00000
  Li  -0.1571640  -0.6908188  -0.3369127 SPIN=   0.00000
  Fe   0.3425284   0.2050605  -0.2778555 SPIN=   4.00000
  Fe  -0.3425284  -0.2050605   0.2778555 SPIN=   4.00000
   O   0.2117300   0.2549057   0.0172792 SPIN=   0.00000
   O   0.3728597  -0.0677949   0.0854227 SPIN=   0.00000
   O   0.1717703   0.2020981   0.3541395 SPIN=   0.00000
   O   0.5880483   0.3598784   0.3936907 SPIN=   0.00000
   S   0.3361021   0.1872718   0.2126330 SPIN=   0.00000
   O  -0.2117300  -0.2549057  -0.0172792 SPIN=   0.00000
   O  -0.3728597   0.0677949  -0.0854227 SPIN=   0.00000
   O  -0.1717703  -0.2020981  -0.3541395 SPIN=   0.00000
   O  -0.5880483  -0.3598784  -0.3936907 SPIN=   0.00000
   S  -0.3361021  -0.1872718  -0.2126330 SPIN=   0.00000
   F   0.1520791  -0.5081593  -0.2063638 SPIN=   0.00000
   F  -0.1520791   0.5081593   0.2063638 SPIN=   0.00000
%ENDBLOCK POSITIONS_FRAC

# Note: total spin =   8.00

KPOINTS_MP_SPACING 0.07

%BLOCK SPECIES_POT
QC5
%ENDBLOCK SPECIES_POT

SNAP_TO_SYMMETRY
SYMMETRY_GENERATE

