#              Generated by Buildcell
#
# at 17:52:36 (GMT+1.0) 18th August 2020
# in /scratch/scratch/uccabz1/launch_tmp
# on node-k10c-005
# by uccabz1
#
# compiler GCC version 4.9.2
# options -cpp -iprefix /scratch/UCL/applications/gcc/4.9.2/bin/../lib/gcc/x86_64-unknown-linux-gnu/4.9.2/ -mtune=corei7 -march=x86-64 -g -O2
#
# seed   613726672  1277933376 -1696655068   194604306  1708807211   414944328  -707846094  -475592413 -1047311304   498951982  -808127432  -124120339
#
#      Author: C. J. Pickard (cjp20@cam.ac.uk)
#                Space group: P-1
#

%BLOCK LATTICE_ABC
      4.50185      6.77127      7.26683
     64.97989     85.26016     86.92164
%ENDBLOCK LATTICE_ABC

%BLOCK POSITIONS_FRAC
  Li   0.2393433   0.2375127  -0.4694676 SPIN=   0.00000
  Li  -0.2393433  -0.2375127   0.4694676 SPIN=   0.00000
  Fe  -0.2298852   0.3623240  -0.1202560 SPIN=   4.00000
  Fe   0.2298852  -0.3623240   0.1202560 SPIN=   4.00000
   O   0.2369866   0.0209149   0.0508225 SPIN=   0.00000
   O   0.3269270  -0.1445340   0.4175445 SPIN=   0.00000
   O  -0.1038568   0.1077196   0.2928571 SPIN=   0.00000
   O   0.4087868   0.2490818   0.2105142 SPIN=   0.00000
   S   0.2172109   0.0582956   0.2429346 SPIN=   0.00000
   O  -0.2369866  -0.0209149  -0.0508225 SPIN=   0.00000
   O  -0.3269270   0.1445340  -0.4175445 SPIN=   0.00000
   O   0.1038568  -0.1077196  -0.2928571 SPIN=   0.00000
   O  -0.4087868  -0.2490818  -0.2105142 SPIN=   0.00000
   S  -0.2172109  -0.0582956  -0.2429346 SPIN=   0.00000
   F   0.2210866   0.4520473  -0.2501594 SPIN=   0.00000
   F  -0.2210866  -0.4520473   0.2501594 SPIN=   0.00000
%ENDBLOCK POSITIONS_FRAC

# Note: total spin =   8.00

KPOINTS_MP_SPACING 0.07

%BLOCK SPECIES_POT
QC5
%ENDBLOCK SPECIES_POT

SNAP_TO_SYMMETRY
SYMMETRY_GENERATE

