#              Generated by Buildcell
#
# at 02:31:32 (GMT+1.0) 19th August 2020
# in /lustre/scratch/uccabz1/launch_tmp
# on node-c12f-018
# by uccabz1
#
# compiler GCC version 4.9.2
# options -cpp -iprefix /lustre/shared/ucl/apps/gcc/4.9.2/bin/../lib/gcc/x86_64-unknown-linux-gnu/4.9.2/ -mtune=corei7 -march=x86-64 -g -Og
#
# seed   401774869  1134150250  -450967249 -1161463633  2010028230 -1347258737 -1181350845   921375513  2073268573   385996624   315263558  -593426734
#
#      Author: C. J. Pickard (cjp20@cam.ac.uk)
#                Space group: Cm
#

%BLOCK LATTICE_ABC
      4.32409      7.24059      7.24059
    116.68480     94.76240     94.76240
%ENDBLOCK LATTICE_ABC

%BLOCK POSITIONS_FRAC
  Li   0.2669103   0.2600597  -0.2066761 SPIN=   0.00000
  Li   0.2669103  -0.2066761   0.2600597 SPIN=   0.00000
  Fe  -0.4023365   0.1245387   0.1245387 SPIN=   4.73049
  Fe   0.1483121  -0.4371259  -0.4371259 SPIN=   3.26951
   O  -0.1539754   0.1597454  -0.1810767 SPIN=   0.00000
   O  -0.6478280  -0.0846509  -0.3049705 SPIN=   0.00000
   O  -0.1442907  -0.2186352  -0.3949441 SPIN=   0.00000
   O  -0.3688881  -0.0129085  -0.5556355 SPIN=   0.00000
   S  -0.3287456  -0.0391123  -0.3591567 SPIN=   0.00000
   O  -0.1539754  -0.1810767   0.1597454 SPIN=   0.00000
   O  -0.6478280  -0.3049705  -0.0846509 SPIN=   0.00000
   O  -0.1442907  -0.3949441  -0.2186352 SPIN=   0.00000
   O  -0.3688881  -0.5556355  -0.0129085 SPIN=   0.00000
   S  -0.3287456  -0.3591567  -0.0391123 SPIN=   0.00000
   F   0.1884911   0.2705915  -0.4515584 SPIN=   0.00000
   F   0.1884911  -0.4515584   0.2705915 SPIN=   0.00000
%ENDBLOCK POSITIONS_FRAC

# Note: total spin =   8.00

KPOINTS_MP_SPACING 0.07

%BLOCK SPECIES_POT
QC5
%ENDBLOCK SPECIES_POT

SNAP_TO_SYMMETRY
SYMMETRY_GENERATE

