#              Generated by Buildcell
#
# at 04:13:19 (GMT+1.0) 4th August 2020
# in /lustre/scratch/uccabz1/launch_tmp
# on node-c12c-002
# by uccabz1
#
# compiler GCC version 4.9.2
# options -cpp -iprefix /lustre/shared/ucl/apps/gcc/4.9.2/bin/../lib/gcc/x86_64-unknown-linux-gnu/4.9.2/ -mtune=corei7 -march=x86-64 -g -Og
#
# seed   370546808  2106566466    19038653   -51427362 -1319103938  -314425702   193923045  1704375663  -902140823  1699683697 -1051104691  1912935519
#
#      Author: C. J. Pickard (cjp20@cam.ac.uk)
#                Space group: Cc
#

%BLOCK LATTICE_ABC
      4.01103      7.32268      7.84097
     62.16352     84.95006     79.13424
%ENDBLOCK LATTICE_ABC

%BLOCK POSITIONS_FRAC
  Li   0.4634836   0.4620523  -0.4921468 SPIN=   0.00000
  Li  -0.0365164  -0.0300945   0.4921468 SPIN=   0.00000
  Fe  -0.3483495  -0.4026105  -0.2183670 SPIN=   4.00000
  Fe   0.1516505   0.3790224   0.2183670 SPIN=   4.00000
   O  -0.3155649  -0.2063651   0.0830509 SPIN=   0.00000
   O   0.0156599  -0.3869750   0.3863068 SPIN=   0.00000
   O  -0.4668803  -0.1027452   0.3422763 SPIN=   0.00000
   O   0.0617939  -0.0198594   0.1550641 SPIN=   0.00000
   S  -0.1762479  -0.1789862   0.2416745 SPIN=   0.00000
   O   0.1844351  -0.1233142  -0.0830509 SPIN=   0.00000
   O   0.5156599  -0.0006682  -0.3863068 SPIN=   0.00000
   O   0.0331197   0.2395311  -0.3422763 SPIN=   0.00000
   O   0.5617939   0.1352047  -0.1550641 SPIN=   0.00000
   S   0.3237521   0.0626884  -0.2416745 SPIN=   0.00000
   F   0.1318069  -0.4120101  -0.2521545 SPIN=   0.00000
   F  -0.3681931   0.3358353   0.2521545 SPIN=   0.00000
%ENDBLOCK POSITIONS_FRAC

# Note: total spin =   8.00

KPOINTS_MP_SPACING 0.07

%BLOCK SPECIES_POT
QC5
%ENDBLOCK SPECIES_POT

SNAP_TO_SYMMETRY
SYMMETRY_GENERATE

