#              Generated by Buildcell
#
# at 02:42:35 (GMT+1.0) 4th August 2020
# in /lustre/scratch/uccabz1/launch_tmp
# on node-c12k-030
# by uccabz1
#
# compiler GCC version 4.9.2
# options -cpp -iprefix /lustre/shared/ucl/apps/gcc/4.9.2/bin/../lib/gcc/x86_64-unknown-linux-gnu/4.9.2/ -mtune=corei7 -march=x86-64 -g -Og
#
# seed     2095423   800023216 -1872573793  -652123358   640005027  -758186537  2024047322   100289291 -1888231270  -628517921  -308683131 -1116260299
#
#      Author: C. J. Pickard (cjp20@cam.ac.uk)
#                Space group: P21
#

%BLOCK LATTICE_ABC
      4.60160      5.34723      8.19988
     90.00000     90.00000     97.58339
%ENDBLOCK LATTICE_ABC

%BLOCK POSITIONS_FRAC
  Li   0.0664089  -0.2330504   0.1391842 SPIN=   0.00000
  Li  -0.0664089   0.2330504  -0.3608158 SPIN=   0.00000
  Fe  -0.4722036  -0.2603178  -0.1802524 SPIN=   4.00000
  Fe   0.4722036   0.2603178   0.3197476 SPIN=   4.00000
   O  -0.0737374  -0.4828338   0.4198739 SPIN=   0.00000
   O   0.2637778  -0.0844129   0.3933324 SPIN=   0.00000
   O   0.1029597  -0.2430605   0.6666651 SPIN=   0.00000
   O  -0.2491156  -0.0750331   0.4813615 SPIN=   0.00000
   S   0.0109711  -0.2213351   0.4903082 SPIN=   0.00000
   O   0.0737374   0.4828338  -0.0801261 SPIN=   0.00000
   O  -0.2637778   0.0844129  -0.1066676 SPIN=   0.00000
   O  -0.1029597   0.2430605   0.1666651 SPIN=   0.00000
   O   0.2491156   0.0750331  -0.0186385 SPIN=   0.00000
   S  -0.0109711   0.2213351  -0.0096918 SPIN=   0.00000
   F   0.4417924   0.3275939  -0.3587199 SPIN=   0.00000
   F  -0.4417924  -0.3275939   0.1412801 SPIN=   0.00000
%ENDBLOCK POSITIONS_FRAC

# Note: total spin =   8.00

KPOINTS_MP_SPACING 0.07

%BLOCK SPECIES_POT
QC5
%ENDBLOCK SPECIES_POT

SNAP_TO_SYMMETRY
SYMMETRY_GENERATE

