#              Generated by Buildcell
#
# at 02:04:31 (GMT+1.0) 19th August 2020
# in /lustre/scratch/uccabz1/launch_tmp
# on node-c12f-002
# by uccabz1
#
# compiler GCC version 4.9.2
# options -cpp -iprefix /lustre/shared/ucl/apps/gcc/4.9.2/bin/../lib/gcc/x86_64-unknown-linux-gnu/4.9.2/ -mtune=corei7 -march=x86-64 -g -Og
#
# seed  1355836247  -718984063  -527419764   -73317375   916030310  1044373035  1611932136  -248299562    -5935952 -1827396202    25177751  2034646724
#
#      Author: C. J. Pickard (cjp20@cam.ac.uk)
#                Space group: P-1
#

%BLOCK LATTICE_ABC
      3.96002      7.33623      7.52195
     67.02443     88.41204     83.83024
%ENDBLOCK LATTICE_ABC

%BLOCK POSITIONS_FRAC
  Li   0.3773504   0.1244645  -0.2723510 SPIN=   0.00000
  Li  -0.3773504  -0.1244645   0.2723510 SPIN=   0.00000
  Fe  -0.2339567   0.3516233  -0.1148496 SPIN=   4.00000
  Fe   0.2339567  -0.3516233   0.1148496 SPIN=   4.00000
   O   0.2887407  -0.3775243  -0.5887639 SPIN=   0.00000
   O   0.2651649  -0.0685121  -0.5276473 SPIN=   0.00000
   O   0.3161057  -0.3964564  -0.2536123 SPIN=   0.00000
   O  -0.2216219  -0.2704209  -0.4423874 SPIN=   0.00000
   S   0.1620973  -0.2782284  -0.4531027 SPIN=   0.00000
   O  -0.2887407   0.3775243   0.5887639 SPIN=   0.00000
   O  -0.2651649   0.0685121   0.5276473 SPIN=   0.00000
   O  -0.3161057   0.3964564   0.2536123 SPIN=   0.00000
   O   0.2216219   0.2704209   0.4423874 SPIN=   0.00000
   S  -0.1620973   0.2782284   0.4531027 SPIN=   0.00000
   F   0.1888420   0.1954165   0.0247634 SPIN=   0.00000
   F  -0.1888420  -0.1954165  -0.0247634 SPIN=   0.00000
%ENDBLOCK POSITIONS_FRAC

# Note: total spin =   8.00

KPOINTS_MP_SPACING 0.07

%BLOCK SPECIES_POT
QC5
%ENDBLOCK SPECIES_POT

SNAP_TO_SYMMETRY
SYMMETRY_GENERATE

