#              Generated by Buildcell
#
# at 21:19:47 (GMT+1.0) 18th August 2020
# in /lustre/scratch/uccabz1/launch_tmp
# on node-c12p-024
# by uccabz1
#
# compiler GCC version 4.9.2
# options -cpp -iprefix /lustre/shared/ucl/apps/gcc/4.9.2/bin/../lib/gcc/x86_64-unknown-linux-gnu/4.9.2/ -mtune=corei7 -march=x86-64 -g -Og
#
# seed  -531502925 -1859146415   848642735  1263901537 -1546890035  -899468803 -1009343585  1843593420 -1543564010  1135412794 -1804069726    94683626
#
#      Author: C. J. Pickard (cjp20@cam.ac.uk)
#                Space group: Cc
#

%BLOCK LATTICE_ABC
      4.20574      4.20574     11.73190
     89.66092     89.66092     74.53753
%ENDBLOCK LATTICE_ABC

%BLOCK POSITIONS_FRAC
  Li  -0.1568717  -0.3707198  -0.2849748 SPIN=   0.00000
  Li  -0.3707198  -0.1568717   0.2150252 SPIN=   0.00000
  Fe   0.2360284   0.4498791   0.0995991 SPIN=   4.00000
  Fe   0.4498791   0.2360284  -0.4004009 SPIN=   4.00000
   O  -0.6183660   0.1791234  -0.0562420 SPIN=   0.00000
   O  -0.0376724  -0.1036507  -0.1031575 SPIN=   0.00000
   O  -0.4825492  -0.3611511  -0.1536022 SPIN=   0.00000
   O  -0.3296302  -0.3271311   0.0484629 SPIN=   0.00000
   S  -0.3670545  -0.1532024  -0.0661347 SPIN=   0.00000
   O   0.1791234  -0.6183660   0.4437580 SPIN=   0.00000
   O  -0.1036507  -0.0376724   0.3968425 SPIN=   0.00000
   O  -0.3611511  -0.4825492   0.3463978 SPIN=   0.00000
   O  -0.3271311  -0.3296302   0.5484629 SPIN=   0.00000
   S  -0.1532024  -0.3670545   0.4338653 SPIN=   0.00000
   F   0.0319410   0.1479306  -0.3046134 SPIN=   0.00000
   F   0.1479306   0.0319410   0.1953866 SPIN=   0.00000
%ENDBLOCK POSITIONS_FRAC

# Note: total spin =   8.00

KPOINTS_MP_SPACING 0.07

%BLOCK SPECIES_POT
QC5
%ENDBLOCK SPECIES_POT

SNAP_TO_SYMMETRY
SYMMETRY_GENERATE

