#              Generated by Buildcell
#
# at 17:52:17 (GMT+1.0) 18th August 2020
# in /lustre/scratch/uccabz1/launch_tmp
# on node-c12i-018
# by uccabz1
#
# compiler GCC version 4.9.2
# options -cpp -iprefix /lustre/shared/ucl/apps/gcc/4.9.2/bin/../lib/gcc/x86_64-unknown-linux-gnu/4.9.2/ -mtune=corei7 -march=x86-64 -g -Og
#
# seed   132619972  1727838386   892814731  -874175013  -775318928 -2016746439  1202230459   819926347  1997590537  1785492850  1042844524  1456387883
#
#      Author: C. J. Pickard (cjp20@cam.ac.uk)
#                Space group: P-1
#

%BLOCK LATTICE_ABC
      3.92133      7.28410      7.53275
     77.28906     74.99325     77.81508
%ENDBLOCK LATTICE_ABC

%BLOCK POSITIONS_FRAC
  Li   0.2871286  -0.2462321   0.0620654 SPIN=   0.00000
  Li  -0.2871286   0.2462321  -0.0620654 SPIN=   0.00000
  Fe   0.2932158  -0.4157620  -0.2728485 SPIN=   4.00000
  Fe  -0.2932158   0.4157620   0.2728485 SPIN=   4.00000
   O   0.3019795  -0.1805681   0.3128097 SPIN=   0.00000
   O   0.1057705   0.1363781   0.4077387 SPIN=   0.00000
   O   0.2820126   0.1118935   0.0726054 SPIN=   0.00000
   O   0.7411588   0.0355894   0.2612568 SPIN=   0.00000
   S   0.3577304   0.0258232   0.2636027 SPIN=   0.00000
   O  -0.3019795   0.1805681  -0.3128097 SPIN=   0.00000
   O  -0.1057705  -0.1363781  -0.4077387 SPIN=   0.00000
   O  -0.2820126  -0.1118935  -0.0726054 SPIN=   0.00000
   O  -0.7411588  -0.0355894  -0.2612568 SPIN=   0.00000
   S  -0.3577304  -0.0258232  -0.2636027 SPIN=   0.00000
   F   0.1079454  -0.4804716   0.2394159 SPIN=   0.00000
   F  -0.1079454   0.4804716  -0.2394159 SPIN=   0.00000
%ENDBLOCK POSITIONS_FRAC

# Note: total spin =   8.00

KPOINTS_MP_SPACING 0.07

%BLOCK SPECIES_POT
QC5
%ENDBLOCK SPECIES_POT

SNAP_TO_SYMMETRY
SYMMETRY_GENERATE

