#              Generated by Buildcell
#
# at 04:48:21 (GMT+1.0) 4th August 2020
# in /lustre/scratch/uccabz1/launch_tmp
# on node-c12c-024
# by uccabz1
#
# compiler GCC version 4.9.2
# options -cpp -iprefix /lustre/shared/ucl/apps/gcc/4.9.2/bin/../lib/gcc/x86_64-unknown-linux-gnu/4.9.2/ -mtune=corei7 -march=x86-64 -g -Og
#
# seed  -828422951  -804147873  2109635323  1927419686   348084925  -836145700  1371324255 -1147246264 -1700471078   466946385 -1975130065  2097601602
#
#      Author: C. J. Pickard (cjp20@cam.ac.uk)
#                Space group: P-1
#

%BLOCK LATTICE_ABC
      3.97597      6.89170      7.90529
     97.79773    102.95037    104.60208
%ENDBLOCK LATTICE_ABC

%BLOCK POSITIONS_FRAC
  Li  -0.4024819   0.1516773  -0.1633944 SPIN=   0.00000
  Li   0.4024819  -0.1516773   0.1633944 SPIN=   0.00000
  Fe  -1.3199533  -0.2159078  -0.4415167 SPIN=   4.00000
  Fe   1.3199533   0.2159078   0.4415167 SPIN=   4.00000
   O  -1.2329193  -0.5043616  -0.2183486 SPIN=   0.00000
   O  -0.5877094  -0.3625466  -0.0536318 SPIN=   0.00000
   O  -0.7712240  -0.4073147  -0.3803758 SPIN=   0.00000
   O  -0.8120301  -0.7106960  -0.2419362 SPIN=   0.00000
   S  -0.8509707  -0.4962297  -0.2235731 SPIN=   0.00000
   O   1.2329193   0.5043616   0.2183486 SPIN=   0.00000
   O   0.5877094   0.3625466   0.0536318 SPIN=   0.00000
   O   0.7712240   0.4073147   0.3803758 SPIN=   0.00000
   O   0.8120301   0.7106960   0.2419362 SPIN=   0.00000
   S   0.8509707   0.4962297   0.2235731 SPIN=   0.00000
   F  -1.5000000   0.0000000  -0.5000000 SPIN=   0.00000
   F   0.0000000   0.0000000   0.0000000 SPIN=   0.00000
%ENDBLOCK POSITIONS_FRAC

# Note: total spin =   8.00

KPOINTS_MP_SPACING 0.07

%BLOCK SPECIES_POT
QC5
%ENDBLOCK SPECIES_POT

SNAP_TO_SYMMETRY
SYMMETRY_GENERATE

