#              Generated by Buildcell
#
# at 04:05:40 (GMT+1.0) 4th August 2020
# in /lustre/scratch/uccabz1/launch_tmp
# on node-c12f-007
# by uccabz1
#
# compiler GCC version 4.9.2
# options -cpp -iprefix /lustre/shared/ucl/apps/gcc/4.9.2/bin/../lib/gcc/x86_64-unknown-linux-gnu/4.9.2/ -mtune=corei7 -march=x86-64 -g -Og
#
# seed  -924840119 -1672731815  -481365377 -1988763055  -829555795  1548375078  1566397930   187684563   -29646639   736981776 -1884723079  1119243702
#
#      Author: C. J. Pickard (cjp20@cam.ac.uk)
#                Space group: P2
#

%BLOCK LATTICE_ABC
      3.89346      6.80629      7.58624
     95.81882     90.00000     90.00000
%ENDBLOCK LATTICE_ABC

%BLOCK POSITIONS_FRAC
  Li  -0.2067477  -0.2758298   0.3861838 SPIN=   0.00000
  Li  -0.2067477   0.2758298  -0.3861838 SPIN=   0.00000
  Fe  -0.2068158  -0.1613643  -0.2198842 SPIN=   4.00000
  Fe  -0.2068158   0.1613643   0.2198842 SPIN=   4.00000
   O   0.4213800   0.2626527   0.0644486 SPIN=   0.00000
   O   0.4127195   0.0427615  -0.2161031 SPIN=   0.00000
   O   0.4224940   0.4054953  -0.2228443 SPIN=   0.00000
   O  -0.1000665   0.2417738  -0.1230825 SPIN=   0.00000
   S   0.2891317   0.2381708  -0.1243953 SPIN=   0.00000
   O   0.4213800  -0.2626527  -0.0644486 SPIN=   0.00000
   O   0.4127195  -0.0427615   0.2161031 SPIN=   0.00000
   O   0.4224940  -0.4054953   0.2228443 SPIN=   0.00000
   O  -0.1000665  -0.2417738   0.1230825 SPIN=   0.00000
   S   0.2891317  -0.2381708   0.1243953 SPIN=   0.00000
   F   0.0457714   0.5000000   0.5000000 SPIN=   0.00000
   F  -0.1709197  -0.0000000  -0.5000000 SPIN=   0.00000
%ENDBLOCK POSITIONS_FRAC

# Note: total spin =   8.00

KPOINTS_MP_SPACING 0.07

%BLOCK SPECIES_POT
QC5
%ENDBLOCK SPECIES_POT

SNAP_TO_SYMMETRY
SYMMETRY_GENERATE

