#              Generated by Buildcell
#
# at 01:15:13 (GMT+1.0) 19th August 2020
# in /lustre/scratch/uccabz1/launch_tmp
# on node-c12p-030
# by uccabz1
#
# compiler GCC version 4.9.2
# options -cpp -iprefix /lustre/shared/ucl/apps/gcc/4.9.2/bin/../lib/gcc/x86_64-unknown-linux-gnu/4.9.2/ -mtune=corei7 -march=x86-64 -g -Og
#
# seed  -577335250  1772679630  1549700130  -134903269    29134436    46223818  1528305469  1514966549  -782082491   654042107   731752511 -1416095842
#
#      Author: C. J. Pickard (cjp20@cam.ac.uk)
#                Space group: Cc
#

%BLOCK LATTICE_ABC
      5.75762      5.84756      7.18247
    105.74095     90.00000    119.49250
%ENDBLOCK LATTICE_ABC

%BLOCK POSITIONS_FRAC
  Li   0.4693071   0.1062570  -0.1901870 SPIN=   0.00000
  Li  -0.3630501   0.1062570   0.3098130 SPIN=   0.00000
  Fe   0.0775551   0.3555057  -0.1811883 SPIN=   4.00000
  Fe   0.2779506   0.3555057   0.3188117 SPIN=   4.00000
   O  -0.0271602  -0.2036932  -0.2933914 SPIN=   0.00000
   O  -0.3337265  -0.1594984  -0.0635605 SPIN=   0.00000
   O  -0.4765028  -0.6098798  -0.3126888 SPIN=   0.00000
   O  -0.4411603  -0.2232178  -0.4141132 SPIN=   0.00000
   S  -0.3196375  -0.2990723  -0.2709385 SPIN=   0.00000
   O  -0.1765330  -0.2036932   0.2066086 SPIN=   0.00000
   O   0.1742281  -0.1594984   0.4364395 SPIN=   0.00000
   O  -0.1333770  -0.6098798   0.1873112 SPIN=   0.00000
   O   0.2179425  -0.2232178   0.0858868 SPIN=   0.00000
   S   0.0205652  -0.2990723   0.2290615 SPIN=   0.00000
   F   0.3111711   0.2699018   0.0249470 SPIN=   0.00000
   F  -0.0412693   0.2699018  -0.4750530 SPIN=   0.00000
%ENDBLOCK POSITIONS_FRAC

# Note: total spin =   8.00

KPOINTS_MP_SPACING 0.07

%BLOCK SPECIES_POT
QC5
%ENDBLOCK SPECIES_POT

SNAP_TO_SYMMETRY
SYMMETRY_GENERATE

