#              Generated by Buildcell
#
# at 18:31:42 (GMT+1.0) 18th August 2020
# in /lustre/scratch/uccabz1/launch_tmp
# on node-c12f-008
# by uccabz1
#
# compiler GCC version 4.9.2
# options -cpp -iprefix /lustre/shared/ucl/apps/gcc/4.9.2/bin/../lib/gcc/x86_64-unknown-linux-gnu/4.9.2/ -mtune=corei7 -march=x86-64 -g -Og
#
# seed  1129828126  1604630872  -273918049  1060520153  1101490211  2108799782 -1526893409  1808825786   395437952  -773497019  1038414965  1588220793
#
#      Author: C. J. Pickard (cjp20@cam.ac.uk)
#                Space group: P-1
#

%BLOCK LATTICE_ABC
      3.99912      6.57709      8.06050
     91.96407     97.35704    107.44760
%ENDBLOCK LATTICE_ABC

%BLOCK POSITIONS_FRAC
  Li  -0.3370827  -0.2101807   0.0647221 SPIN=   0.00000
  Li   0.3370827   0.2101807  -0.0647221 SPIN=   0.00000
  Fe  -0.0911585   0.2477373  -0.3902983 SPIN=   4.00000
  Fe   0.0911585  -0.2477373   0.3902983 SPIN=   4.00000
   O   0.0032352  -0.1408593  -0.1940136 SPIN=   0.00000
   O  -0.5814020  -0.2025038  -0.3665451 SPIN=   0.00000
   O  -0.5154179  -0.4322141  -0.1355531 SPIN=   0.00000
   O  -0.2497641  -0.4621576  -0.3926972 SPIN=   0.00000
   S  -0.3358372  -0.3094337  -0.2722023 SPIN=   0.00000
   O  -0.0032352   0.1408593   0.1940136 SPIN=   0.00000
   O   0.5814020   0.2025038   0.3665451 SPIN=   0.00000
   O   0.5154179   0.4322141   0.1355531 SPIN=   0.00000
   O   0.2497641   0.4621576   0.3926972 SPIN=   0.00000
   S   0.3358372   0.3094337   0.2722023 SPIN=   0.00000
   F  -0.2138374   0.2188557  -0.1356756 SPIN=   0.00000
   F   0.2138374  -0.2188557   0.1356756 SPIN=   0.00000
%ENDBLOCK POSITIONS_FRAC

# Note: total spin =   8.00

KPOINTS_MP_SPACING 0.07

%BLOCK SPECIES_POT
QC5
%ENDBLOCK SPECIES_POT

SNAP_TO_SYMMETRY
SYMMETRY_GENERATE

