#              Generated by Buildcell
#
# at 02:36:13 (GMT+1.0) 19th August 2020
# in /lustre/scratch/uccabz1/launch_tmp
# on node-c12e-006
# by uccabz1
#
# compiler GCC version 4.9.2
# options -cpp -iprefix /lustre/shared/ucl/apps/gcc/4.9.2/bin/../lib/gcc/x86_64-unknown-linux-gnu/4.9.2/ -mtune=corei7 -march=x86-64 -g -Og
#
# seed  -257801900  -373478180   624162140  -317518890  2115680739  1625214384   344175552 -1768718205 -1394172568   501218101  1178873657  -400000006
#
#      Author: C. J. Pickard (cjp20@cam.ac.uk)
#                Space group: Cc
#

%BLOCK LATTICE_ABC
      4.31189      4.41808     12.08598
     94.90578     90.00000    119.20807
%ENDBLOCK LATTICE_ABC

%BLOCK POSITIONS_FRAC
  Li  -0.4957498  -0.1422988   0.4444392 SPIN=   0.00000
  Li  -0.1465490  -0.1422988  -0.0555608 SPIN=   0.00000
  Fe   0.1976745   0.5007835  -0.2178550 SPIN=   4.00000
  Fe  -0.1968909  -0.4992165   0.2821450 SPIN=   4.00000
   O   0.4150123   0.9090282   0.0960208 SPIN=   0.00000
   O   0.4923567   0.4073669   0.0269744 SPIN=   0.00000
   O  -0.0032490   0.4698790  -0.0498491 SPIN=   0.00000
   O  -0.0138343   0.3162483   0.1428159 SPIN=   0.00000
   S   0.2225715   0.5256306   0.0539905 SPIN=   0.00000
   O  -0.0059841  -0.0909718  -0.4039792 SPIN=   0.00000
   O  -0.5849898  -0.5926331  -0.4730256 SPIN=   0.00000
   O  -0.0268720  -0.5301210  -0.5498491 SPIN=   0.00000
   O  -0.1699174  -0.6837517  -0.3571841 SPIN=   0.00000
   S  -0.1969408  -0.4743694  -0.4460095 SPIN=   0.00000
   F  -0.3666304  -0.0905974  -0.1975360 SPIN=   0.00000
   F  -0.2239670  -0.0905974   0.3024640 SPIN=   0.00000
%ENDBLOCK POSITIONS_FRAC

# Note: total spin =   8.00

KPOINTS_MP_SPACING 0.07

%BLOCK SPECIES_POT
QC5
%ENDBLOCK SPECIES_POT

SNAP_TO_SYMMETRY
SYMMETRY_GENERATE

