#              Generated by Buildcell
#
# at 01:27:16 (GMT+1.0) 19th August 2020
# in /scratch/scratch/uccabz1/launch_tmp
# on node-k10h-022
# by uccabz1
#
# compiler GCC version 4.9.2
# options -cpp -iprefix /scratch/UCL/applications/gcc/4.9.2/bin/../lib/gcc/x86_64-unknown-linux-gnu/4.9.2/ -mtune=corei7 -march=x86-64 -g -O2
#
# seed  -613359109  1923362621  1850546253  -430532178   169590019  1903099832  -491215749  1446914731  1996899248  -261794741  -283151358  1453638150
#
#      Author: C. J. Pickard (cjp20@cam.ac.uk)
#                Space group: Cc
#

%BLOCK LATTICE_ABC
      5.01845      5.71334      7.83262
     86.68185     82.42700     63.94793
%ENDBLOCK LATTICE_ABC

%BLOCK POSITIONS_FRAC
  Li   0.2486929   0.0510054  -0.2139496 SPIN=   0.00000
  Li  -0.2003017  -0.0510054   0.2860504 SPIN=   0.00000
  Fe  -0.4766166   0.4513273   0.4784506 SPIN=   4.00000
  Fe   0.4747107  -0.4513273  -0.0215494 SPIN=   4.00000
   O  -0.0028522   0.3523409   0.4496075 SPIN=   0.00000
   O   0.0755927  -0.1070070   0.4625112 SPIN=   0.00000
   O   0.4608999   0.0090343   0.5466250 SPIN=   0.00000
   O   0.3764864   0.0314594   0.2406209 SPIN=   0.00000
   S   0.2275317   0.0714569   0.4248412 SPIN=   0.00000
   O  -0.1505113  -0.3523409  -0.0503925 SPIN=   0.00000
   O  -0.5314144   0.1070070  -0.0374888 SPIN=   0.00000
   O  -0.0300658  -0.0090343   0.0466250 SPIN=   0.00000
   O  -0.0920542  -0.0314594  -0.2593791 SPIN=   0.00000
   S  -0.2010114  -0.0714569  -0.0751588 SPIN=   0.00000
   F  -0.4185771   0.4520058   0.2188494 SPIN=   0.00000
   F  -0.4665713  -0.4520058  -0.2811506 SPIN=   0.00000
%ENDBLOCK POSITIONS_FRAC

# Note: total spin =   8.00

KPOINTS_MP_SPACING 0.07

%BLOCK SPECIES_POT
QC5
%ENDBLOCK SPECIES_POT

SNAP_TO_SYMMETRY
SYMMETRY_GENERATE

