#              Generated by Buildcell
#
# at 00:02:48 (GMT+1.0) 19th August 2020
# in /scratch/scratch/uccabz1/launch_tmp
# on node-k10d-010
# by uccabz1
#
# compiler GCC version 4.9.2
# options -cpp -iprefix /scratch/UCL/applications/gcc/4.9.2/bin/../lib/gcc/x86_64-unknown-linux-gnu/4.9.2/ -mtune=corei7 -march=x86-64 -g -O2
#
# seed -1362143430 -2041571229   542769838   431440026 -1131465036 -1685817461  1836247362   293168368  1966606162   574166892  1871077217  -640273240
#
#      Author: C. J. Pickard (cjp20@cam.ac.uk)
#                Space group: Pc
#

%BLOCK LATTICE_ABC
      4.86702      5.96308      6.94069
     96.84536     90.00000     90.00000
%ENDBLOCK LATTICE_ABC

%BLOCK POSITIONS_FRAC
  Li  -0.4862003  -0.3682300   0.1124354 SPIN=   0.00000
  Li   0.4862003   0.1317700  -0.3875646 SPIN=   0.00000
  Fe  -0.4900578   0.1328332   0.1200930 SPIN=   4.00000
  Fe   0.4900578  -0.3671668  -0.3799070 SPIN=   4.00000
   O  -0.0353294  -0.2409426   0.2323841 SPIN=   0.00000
   O   0.1598391  -0.5010339   0.4490435 SPIN=   0.00000
   O   0.1663199  -0.6056101   0.0931290 SPIN=   0.00000
   O  -0.2736785  -0.5990630   0.2724532 SPIN=   0.00000
   S   0.0042878  -0.4866624   0.2617524 SPIN=   0.00000
   O   0.0353294   0.2590574  -0.2676159 SPIN=   0.00000
   O  -0.1598391  -0.0010339  -0.0509565 SPIN=   0.00000
   O  -0.1663199  -0.1056101  -0.4068710 SPIN=   0.00000
   O   0.2736785  -0.0990630  -0.2275468 SPIN=   0.00000
   S  -0.0042878   0.0133376  -0.2382476 SPIN=   0.00000
   F  -0.4337482   0.4932056  -0.1598589 SPIN=   0.00000
   F   0.4337482  -0.0067944   0.3401411 SPIN=   0.00000
%ENDBLOCK POSITIONS_FRAC

# Note: total spin =   8.00

KPOINTS_MP_SPACING 0.07

%BLOCK SPECIES_POT
QC5
%ENDBLOCK SPECIES_POT

SNAP_TO_SYMMETRY
SYMMETRY_GENERATE

