#              Generated by Buildcell
#
# at 05:12:39 (GMT+1.0) 4th August 2020
# in /lustre/scratch/uccabz1/launch_tmp
# on node-c12l-012
# by uccabz1
#
# compiler GCC version 4.9.2
# options -cpp -iprefix /lustre/shared/ucl/apps/gcc/4.9.2/bin/../lib/gcc/x86_64-unknown-linux-gnu/4.9.2/ -mtune=corei7 -march=x86-64 -g -Og
#
# seed  2013640327  1501359475   725454680  1663776548 -1550101158  -630953346 -1353411731   183197642 -2075270354  2010940511  -228015961  1562620857
#
#      Author: C. J. Pickard (cjp20@cam.ac.uk)
#                Space group: I212121
#

%BLOCK LATTICE_ABC
      6.43137      6.43137      6.43137
     99.47612    112.94921    116.45204
%ENDBLOCK LATTICE_ABC

%BLOCK POSITIONS_FRAC
  Li   0.2500000  -0.1583100   0.0916900 SPIN=   0.00000
  Li  -0.2500000  -0.3416900   0.4083100 SPIN=   0.00000
  Fe   0.1954860   0.2500000  -0.0545140 SPIN=   4.00000
  Fe   0.3045140  -0.2500000  -0.4454860 SPIN=   4.00000
   O  -0.2866970   0.0227814   0.5328218 SPIN=   0.00000
   O  -0.2677256   0.2042423   0.2247696 SPIN=   0.00000
   O  -0.5100404  -0.3195188  -0.0328218 SPIN=   0.00000
   O  -0.0205273   0.0075048   0.2752304 SPIN=   0.00000
   O  -0.2133030  -0.1804812  -0.1905215 SPIN=   0.00000
   O  -0.2322744  -0.5075048  -0.0280321 SPIN=   0.00000
   O   0.0100404   0.4772186  -0.3094785 SPIN=   0.00000
   O  -0.4794727   0.2957577  -0.4719679 SPIN=   0.00000
   S  -0.2610612   0.2500000   0.4889388 SPIN=   0.00000
   S  -0.2389388  -0.2500000   0.0110612 SPIN=   0.00000
   F   0.2419443  -0.0080557  -0.2500000 SPIN=   0.00000
   F   0.2580557  -0.4919443   0.2500000 SPIN=   0.00000
%ENDBLOCK POSITIONS_FRAC

# Note: total spin =   8.00

KPOINTS_MP_SPACING 0.07

%BLOCK SPECIES_POT
QC5
%ENDBLOCK SPECIES_POT

SNAP_TO_SYMMETRY
SYMMETRY_GENERATE

