#              Generated by Buildcell
#
# at 03:12:37 (GMT+1.0) 4th August 2020
# in /lustre/scratch/uccabz1/launch_tmp
# on node-c12d-005
# by uccabz1
#
# compiler GCC version 4.9.2
# options -cpp -iprefix /lustre/shared/ucl/apps/gcc/4.9.2/bin/../lib/gcc/x86_64-unknown-linux-gnu/4.9.2/ -mtune=corei7 -march=x86-64 -g -Og
#
# seed   -45907532   253507238   617655560  1771618011   408109549   698263685   741908960 -1558215824   752835470  -663641465  1735301844   379522814
#
#      Author: C. J. Pickard (cjp20@cam.ac.uk)
#                Space group: P-1
#

%BLOCK LATTICE_ABC
      4.77557      5.91155      7.13176
     84.14968     88.74955     87.07763
%ENDBLOCK LATTICE_ABC

%BLOCK POSITIONS_FRAC
  Li  -0.2662813  -0.0116562   0.2038008 SPIN=   0.00000
  Li   0.2662813   0.0116562  -0.2038008 SPIN=   0.00000
  Fe  -0.2637418   0.2484645  -0.4401820 SPIN=   4.00000
  Fe   0.2637418  -0.2484645   0.4401820 SPIN=   4.00000
   O  -0.2569511  -0.4839192  -0.2348760 SPIN=   0.00000
   O  -0.3738423  -0.1652399  -0.0426912 SPIN=   0.00000
   O  -0.1461651  -0.0908782  -0.3564646 SPIN=   0.00000
   O   0.1217975  -0.2925539  -0.0913237 SPIN=   0.00000
   S  -0.1637902  -0.2581478  -0.1813389 SPIN=   0.00000
   O   0.2569511   0.4839192   0.2348760 SPIN=   0.00000
   O   0.3738423   0.1652399   0.0426912 SPIN=   0.00000
   O   0.1461651   0.0908782   0.3564646 SPIN=   0.00000
   O  -0.1217975   0.2925539   0.0913237 SPIN=   0.00000
   S   0.1637902   0.2581478   0.1813389 SPIN=   0.00000
   F  -0.2787238  -0.3000457   0.3320618 SPIN=   0.00000
   F   0.2787238   0.3000457  -0.3320618 SPIN=   0.00000
%ENDBLOCK POSITIONS_FRAC

# Note: total spin =   8.00

KPOINTS_MP_SPACING 0.07

%BLOCK SPECIES_POT
QC5
%ENDBLOCK SPECIES_POT

SNAP_TO_SYMMETRY
SYMMETRY_GENERATE

