#              Generated by Buildcell
#
# at 17:41:37 (GMT+1.0) 18th August 2020
# in /lustre/scratch/uccabz1/launch_tmp
# on node-c12p-018
# by uccabz1
#
# compiler GCC version 4.9.2
# options -cpp -iprefix /lustre/shared/ucl/apps/gcc/4.9.2/bin/../lib/gcc/x86_64-unknown-linux-gnu/4.9.2/ -mtune=corei7 -march=x86-64 -g -Og
#
# seed  -903576655  -807415734  -523519846 -1882670278 -1550482186  1769219469 -1017971988   615827648  1812398017 -1959705122  1769935139  -587423778
#
#      Author: C. J. Pickard (cjp20@cam.ac.uk)
#                Space group: P-1
#

%BLOCK LATTICE_ABC
      4.00521      6.00711      8.46191
     85.88631     80.23947     87.29371
%ENDBLOCK LATTICE_ABC

%BLOCK POSITIONS_FRAC
  Li   0.5000000  -0.5000000  -0.5000000 SPIN=   0.00000
  Li   0.0000000   0.0000000   0.5000000 SPIN=   0.00000
  Fe  -0.4784966   0.1806729  -0.2036430 SPIN=   4.00000
  Fe   0.4784966  -0.1806729   0.2036430 SPIN=   4.00000
   O   0.4443867   0.1816749   0.0590094 SPIN=   0.00000
   O  -0.1407200   0.2313267   0.2058757 SPIN=   0.00000
   O   0.1772833   0.5605798   0.0816327 SPIN=   0.00000
   S   0.2061440   0.3316090   0.1669152 SPIN=   0.00000
   O  -0.4443867  -0.1816749  -0.0590094 SPIN=   0.00000
   O   0.1407200  -0.2313267  -0.2058757 SPIN=   0.00000
   O  -0.1772833  -0.5605798  -0.0816327 SPIN=   0.00000
   S  -0.2061440  -0.3316090  -0.1669152 SPIN=   0.00000
   O   0.0000000   0.0000000   0.0000000 SPIN=   0.00000
   O   0.0000000  -0.5000000   0.5000000 SPIN=   0.00000
   F   0.1774760   0.1723870  -0.3263837 SPIN=   0.00000
   F  -0.1774760  -0.1723870   0.3263837 SPIN=   0.00000
%ENDBLOCK POSITIONS_FRAC

# Note: total spin =   8.00

KPOINTS_MP_SPACING 0.07

%BLOCK SPECIES_POT
QC5
%ENDBLOCK SPECIES_POT

SNAP_TO_SYMMETRY
SYMMETRY_GENERATE

