#              Generated by Buildcell
#
# at 03:18:53 (GMT+1.0) 4th August 2020
# in /lustre/scratch/uccabz1/launch_tmp
# on node-c12g-009
# by uccabz1
#
# compiler GCC version 4.9.2
# options -cpp -iprefix /lustre/shared/ucl/apps/gcc/4.9.2/bin/../lib/gcc/x86_64-unknown-linux-gnu/4.9.2/ -mtune=corei7 -march=x86-64 -g -Og
#
# seed -1456772720  -603379855   767435667 -1630282222   315515712  2047413567 -1026239067   741304398 -1119283654 -1062588958  -998077643   877430665
#
#      Author: C. J. Pickard (cjp20@cam.ac.uk)
#                Space group: C2
#

%BLOCK LATTICE_ABC
      5.23218      6.83197      6.88756
    113.43979    104.57396    104.98005
%ENDBLOCK LATTICE_ABC

%BLOCK POSITIONS_FRAC
  Li   0.2379819   0.2977285   0.0917531 SPIN=   0.00000
  Li  -0.1462288  -0.2059755   0.0917531 SPIN=   0.00000
  Fe  -0.2176649  -0.2176649  -0.4353299 SPIN=   3.65104
  Fe   0.2489428   0.2489428   0.4978856 SPIN=   4.34896
   O  -0.2020525   0.2646699   0.2346436 SPIN=   0.00000
   O  -0.1684526   0.0891688  -0.1441051 SPIN=   0.00000
   O  -0.2361907   0.4585694  -0.0015904 SPIN=   0.00000
   O  -0.6349106   0.0887829  -0.1257194 SPIN=   0.00000
   O   0.4366962  -0.0300263   0.2346436 SPIN=   0.00000
   O   0.0243475  -0.2332738  -0.1441051 SPIN=   0.00000
   O   0.2346004  -0.4601597  -0.0015904 SPIN=   0.00000
   O   0.5091912  -0.2145023  -0.1257194 SPIN=   0.00000
   S  -0.0911361   0.4088639  -0.1822722 SPIN=   0.00000
   S  -0.4876716   0.0123284   0.0246568 SPIN=   0.00000
   F   0.0253567  -0.0870750   0.4171333 SPIN=   0.00000
   F   0.3917766  -0.4957917   0.4171333 SPIN=   0.00000
%ENDBLOCK POSITIONS_FRAC

# Note: total spin =   8.00

KPOINTS_MP_SPACING 0.07

%BLOCK SPECIES_POT
QC5
%ENDBLOCK SPECIES_POT

SNAP_TO_SYMMETRY
SYMMETRY_GENERATE

