#              Generated by Buildcell
#
# at 01:55:00 (GMT+1.0) 4th August 2020
# in /lustre/scratch/uccabz1/launch_tmp
# on node-c12f-014
# by uccabz1
#
# compiler GCC version 4.9.2
# options -cpp -iprefix /lustre/shared/ucl/apps/gcc/4.9.2/bin/../lib/gcc/x86_64-unknown-linux-gnu/4.9.2/ -mtune=corei7 -march=x86-64 -g -Og
#
# seed  -608013479 -1394060996  1393265376  1734559363 -2053234744 -2000505896   544560133  1528255608   -49131491 -1042144106  1487947133  -233238558
#
#      Author: C. J. Pickard (cjp20@cam.ac.uk)
#                Space group: Cc
#

%BLOCK LATTICE_ABC
      5.26687      6.74398      6.74398
     61.07560     75.02138     75.02138
%ENDBLOCK LATTICE_ABC

%BLOCK POSITIONS_FRAC
  Li   0.4493801  -0.3774620  -0.0305679 SPIN=   0.00000
  Li  -0.0506199  -0.0305679  -0.3774620 SPIN=   0.00000
  Fe  -0.4409194   0.0063519   0.3657140 SPIN=   4.00000
  Fe   0.0590806   0.3657140   0.0063519 SPIN=   4.00000
   O  -0.0840800  -0.2198656   0.4740896 SPIN=   0.00000
   O   0.1420862  -0.0460626   0.0719405 SPIN=   0.00000
   O   0.1632840  -0.4674256   0.2876536 SPIN=   0.00000
   O   0.4078878  -0.2692692   0.3882710 SPIN=   0.00000
   S   0.1572945  -0.2506558   0.3054887 SPIN=   0.00000
   O  -0.5840800   0.4740896  -0.2198656 SPIN=   0.00000
   O  -0.3579138   0.0719405  -0.0460626 SPIN=   0.00000
   O  -0.3367160   0.2876536  -0.4674256 SPIN=   0.00000
   O  -0.0921122   0.3882710  -0.2692692 SPIN=   0.00000
   S  -0.3427055   0.3054887  -0.2506558 SPIN=   0.00000
   F   0.3316254  -0.0214363  -0.3625594 SPIN=   0.00000
   F  -0.1683746  -0.3625594  -0.0214363 SPIN=   0.00000
%ENDBLOCK POSITIONS_FRAC

# Note: total spin =   8.00

KPOINTS_MP_SPACING 0.07

%BLOCK SPECIES_POT
QC5
%ENDBLOCK SPECIES_POT

SNAP_TO_SYMMETRY
SYMMETRY_GENERATE

