#              Generated by Buildcell
#
# at 23:43:55 (GMT+1.0) 18th August 2020
# in /scratch/scratch/uccabz1/launch_tmp
# on node-k10h-020
# by uccabz1
#
# compiler GCC version 4.9.2
# options -cpp -iprefix /scratch/UCL/applications/gcc/4.9.2/bin/../lib/gcc/x86_64-unknown-linux-gnu/4.9.2/ -mtune=corei7 -march=x86-64 -g -O2
#
# seed  1459074762 -1923842408  -688747923   834521197   687160472  1089015036   602042941  2121322643  1270462475 -2074666111  -689026712   187004399
#
#      Author: C. J. Pickard (cjp20@cam.ac.uk)
#                Space group: P2/c
#

%BLOCK LATTICE_ABC
      4.93806      5.24773      7.81252
     98.92364     90.00000     90.00000
%ENDBLOCK LATTICE_ABC

%BLOCK POSITIONS_FRAC
  Li   0.0000000   0.5000000   0.0000000 SPIN=   0.00000
  Li   0.0000000   0.5000000   0.5000000 SPIN=   0.00000
  Fe   0.0002461  -0.0000000  -0.2500000 SPIN=   4.00000
  Fe  -0.0002461   0.0000000   0.2500000 SPIN=   4.00000
   O  -0.2863241  -0.7766689  -0.0825278 SPIN=   0.00000
   O  -0.3526762  -0.6718599  -0.3778028 SPIN=   0.00000
   O  -0.2863241  -0.2233311  -0.4174722 SPIN=   0.00000
   O  -0.3526762  -0.3281401  -0.1221972 SPIN=   0.00000
   O   0.2863241   0.7766689   0.0825278 SPIN=   0.00000
   O   0.3526762   0.6718599   0.3778028 SPIN=   0.00000
   O   0.2863241   0.2233311   0.4174722 SPIN=   0.00000
   O   0.3526762   0.3281401   0.1221972 SPIN=   0.00000
   S  -0.5000000   0.0000000   0.0000000 SPIN=   0.00000
   S   0.5000000   1.0000000   0.5000000 SPIN=   0.00000
   F  -0.0940407   0.5000000   0.2500000 SPIN=   0.00000
   F   0.0940407  -0.5000000  -0.2500000 SPIN=   0.00000
%ENDBLOCK POSITIONS_FRAC

# Note: total spin =   8.00

KPOINTS_MP_SPACING 0.07

%BLOCK SPECIES_POT
QC5
%ENDBLOCK SPECIES_POT

SNAP_TO_SYMMETRY
SYMMETRY_GENERATE

