#              Generated by Buildcell
#
# at 00:47:58 (GMT+1.0) 19th August 2020
# in /lustre/scratch/uccabz1/launch_tmp
# on node-c12a-021
# by uccabz1
#
# compiler GCC version 4.9.2
# options -cpp -iprefix /lustre/shared/ucl/apps/gcc/4.9.2/bin/../lib/gcc/x86_64-unknown-linux-gnu/4.9.2/ -mtune=corei7 -march=x86-64 -g -Og
#
# seed -2057876827 -2066603943  1469253424   964611423 -1603104170  -282026628  2008780832 -1316767612  2141622810 -1750174460 -1550990241 -1847594609
#
#      Author: C. J. Pickard (cjp20@cam.ac.uk)
#                Space group: Pm
#

%BLOCK LATTICE_ABC
      3.93998      3.98009     14.59959
     90.00000     90.00000    119.12262
%ENDBLOCK LATTICE_ABC

%BLOCK POSITIONS_FRAC
  Li   0.4474042   0.2218762   0.2402403 SPIN=   0.00000
  Li   0.4474042   0.2218762  -0.2402403 SPIN=   0.00000
  Fe  -0.2202721  -0.1168711  -0.3729943 SPIN=   4.00000
  Fe  -0.2202721  -0.1168711   0.3729943 SPIN=   4.00000
   O   0.1201836  -0.0884100  -0.0770700 SPIN=   0.00000
   O  -0.5927116  -0.4517313  -0.0985222 SPIN=   0.00000
   O  -0.1592782  -0.1893697  -0.2329896 SPIN=   0.00000
   O  -0.2351700   0.2507742  -0.1256273 SPIN=   0.00000
   S  -0.2167441  -0.1196842  -0.1335523 SPIN=   0.00000
   O   0.1201836  -0.0884100   0.0770700 SPIN=   0.00000
   O  -0.5927116  -0.4517313   0.0985222 SPIN=   0.00000
   O  -0.1592782  -0.1893697   0.2329896 SPIN=   0.00000
   O  -0.2351700   0.2507742   0.1256273 SPIN=   0.00000
   S  -0.2167441  -0.1196842   0.1335523 SPIN=   0.00000
   F   0.1757289  -0.4513875   0.3693393 SPIN=   0.00000
   F   0.1757289  -0.4513875  -0.3693393 SPIN=   0.00000
%ENDBLOCK POSITIONS_FRAC

# Note: total spin =   8.00

KPOINTS_MP_SPACING 0.07

%BLOCK SPECIES_POT
QC5
%ENDBLOCK SPECIES_POT

SNAP_TO_SYMMETRY
SYMMETRY_GENERATE

