#              Generated by Buildcell
#
# at 00:38:49 (GMT+1.0) 19th August 2020
# in /lustre/scratch/uccabz1/launch_tmp
# on node-c12e-036
# by uccabz1
#
# compiler GCC version 4.9.2
# options -cpp -iprefix /lustre/shared/ucl/apps/gcc/4.9.2/bin/../lib/gcc/x86_64-unknown-linux-gnu/4.9.2/ -mtune=corei7 -march=x86-64 -g -Og
#
# seed -1507278380  -570399338  1923329489 -1114771069   529077325 -1170717191    74503392  -642558779  -740944006   870369389   621920090   991692510
#
#      Author: C. J. Pickard (cjp20@cam.ac.uk)
#                Space group: C2
#

%BLOCK LATTICE_ABC
      5.39448      6.63853      6.63853
    117.68400     99.29480     99.29480
%ENDBLOCK LATTICE_ABC

%BLOCK POSITIONS_FRAC
  Li  -0.3340022   0.1614861   0.4307423 SPIN=   0.00000
  Li   0.3340022  -0.4307423  -0.1614861 SPIN=   0.00000
  Fe   0.3046835  -0.1562036  -0.4023110 SPIN=   4.00000
  Fe  -0.3046835   0.4023110   0.1562036 SPIN=   4.00000
   O   0.1458795   0.1195857   0.5589549 SPIN=   0.00000
   O  -0.1087341   0.1444923   0.2299154 SPIN=   0.00000
   O   0.3249409   0.0684488   0.2228519 SPIN=   0.00000
   O   0.2904534   0.4622599   0.5079881 SPIN=   0.00000
   S   0.1631349   0.1986967   0.3799276 SPIN=   0.00000
   O  -0.1458795  -0.5589549  -0.1195857 SPIN=   0.00000
   O   0.1087341  -0.2299154  -0.1444923 SPIN=   0.00000
   O  -0.3249409  -0.2228519  -0.0684488 SPIN=   0.00000
   O  -0.2904534  -0.5079881  -0.4622599 SPIN=   0.00000
   S  -0.1631349  -0.3799276  -0.1986967 SPIN=   0.00000
   F  -0.3359589  -0.0085759  -0.4116932 SPIN=   0.00000
   F   0.3359589   0.4116932   0.0085759 SPIN=   0.00000
%ENDBLOCK POSITIONS_FRAC

# Note: total spin =   8.00

KPOINTS_MP_SPACING 0.07

%BLOCK SPECIES_POT
QC5
%ENDBLOCK SPECIES_POT

SNAP_TO_SYMMETRY
SYMMETRY_GENERATE

