#              Generated by Buildcell
#
# at 21:31:37 (GMT+1.0) 18th August 2020
# in /lustre/scratch/uccabz1/launch_tmp
# on node-c12e-015
# by uccabz1
#
# compiler GCC version 4.9.2
# options -cpp -iprefix /lustre/shared/ucl/apps/gcc/4.9.2/bin/../lib/gcc/x86_64-unknown-linux-gnu/4.9.2/ -mtune=corei7 -march=x86-64 -g -Og
#
# seed  1033742025  1422781251 -1269743337  -259777903   360756264   507638804  1701830829  1341433188  -190404455   683997204  2130818847  1767379977
#
#      Author: C. J. Pickard (cjp20@cam.ac.uk)
#                Space group: C2
#

%BLOCK LATTICE_ABC
      5.66182      5.90631      7.22537
    113.66711    112.59335     91.06728
%ENDBLOCK LATTICE_ABC

%BLOCK POSITIONS_FRAC
  Li  -0.0772357  -0.0772357  -0.1544713 SPIN=   0.00000
  Li   0.4242550   0.4242550   0.8485101 SPIN=   0.00000
  Fe   0.3236302  -0.1763698  -0.3527396 SPIN=   4.77488
  Fe  -0.1733479   0.3266521   0.6533042 SPIN=   3.22512
   O   0.3372585   0.2939451   0.0636713 SPIN=   0.00000
   O   0.4964280   0.6687789   0.4308509 SPIN=   0.00000
   O   0.4467936   0.2397052   0.4076031 SPIN=   0.00000
   O   0.0549845   0.4076324   0.2635237 SPIN=   0.00000
   O  -0.2735872  -0.2302738   0.0636713 SPIN=   0.00000
   O  -0.0655771  -0.2379280   0.4308509 SPIN=   0.00000
   O  -0.0391906   0.1678979   0.4076031 SPIN=   0.00000
   O   0.2085391  -0.1441087   0.2635237 SPIN=   0.00000
   S   0.1511884   0.1511884   0.3023768 SPIN=   0.00000
   S  -0.3483723  -0.3483723  -0.6967446 SPIN=   0.00000
   F   0.1514096  -0.3491974  -0.1973195 SPIN=   0.00000
   F  -0.3487291   0.1518779  -0.1973195 SPIN=   0.00000
%ENDBLOCK POSITIONS_FRAC

# Note: total spin =   8.00

KPOINTS_MP_SPACING 0.07

%BLOCK SPECIES_POT
QC5
%ENDBLOCK SPECIES_POT

SNAP_TO_SYMMETRY
SYMMETRY_GENERATE

