#              Generated by Buildcell
#
# at 01:06:51 (GMT+1.0) 19th August 2020
# in /scratch/scratch/uccabz1/launch_tmp
# on node-k10d-010
# by uccabz1
#
# compiler GCC version 4.9.2
# options -cpp -iprefix /scratch/UCL/applications/gcc/4.9.2/bin/../lib/gcc/x86_64-unknown-linux-gnu/4.9.2/ -mtune=corei7 -march=x86-64 -g -O2
#
# seed  1029004495  -504908522   -16404176   316370976  1127769131 -1237863831 -1196342779   854771042  -376358257  1959748855  -460891220  1332576861
#
#      Author: C. J. Pickard (cjp20@cam.ac.uk)
#                Space group: Pc
#

%BLOCK LATTICE_ABC
      5.22650      5.38142      7.19997
     90.00000     99.02386     90.00000
%ENDBLOCK LATTICE_ABC

%BLOCK POSITIONS_FRAC
  Li   0.4254750   0.2694427   0.2612687 SPIN=   0.00000
  Li  -0.0745250  -0.2694427  -0.2387313 SPIN=   0.00000
  Fe   0.4036316   0.4607879  -0.3392031 SPIN=   4.00000
  Fe  -0.0963684  -0.4607879   0.1607969 SPIN=   4.00000
   O   0.0656147   0.1262573   0.2881700 SPIN=   0.00000
   O   0.2098626   0.1186837   0.6323531 SPIN=   0.00000
   O   0.3964914  -0.1776205   0.4273176 SPIN=   0.00000
   O  -0.0586195  -0.2243671   0.4778446 SPIN=   0.00000
   S   0.1533373  -0.0392617   0.4564213 SPIN=   0.00000
   O  -0.4343853  -0.1262573  -0.2118300 SPIN=   0.00000
   O  -0.2901374  -0.1186837   0.1323531 SPIN=   0.00000
   O  -0.1035086   0.1776205  -0.0726824 SPIN=   0.00000
   O  -0.5586195   0.2243671  -0.0221554 SPIN=   0.00000
   S  -0.3466627   0.0392617  -0.0435787 SPIN=   0.00000
   F   0.1715007  -0.3689495   0.0401430 SPIN=   0.00000
   F  -0.3284993   0.3689495  -0.4598570 SPIN=   0.00000
%ENDBLOCK POSITIONS_FRAC

# Note: total spin =   8.00

KPOINTS_MP_SPACING 0.07

%BLOCK SPECIES_POT
QC5
%ENDBLOCK SPECIES_POT

SNAP_TO_SYMMETRY
SYMMETRY_GENERATE

