#              Generated by Buildcell
#
# at 23:23:17 (GMT+1.0) 18th August 2020
# in /lustre/scratch/uccabz1/launch_tmp
# on node-c12m-028
# by uccabz1
#
# compiler GCC version 4.9.2
# options -cpp -iprefix /lustre/shared/ucl/apps/gcc/4.9.2/bin/../lib/gcc/x86_64-unknown-linux-gnu/4.9.2/ -mtune=corei7 -march=x86-64 -g -Og
#
# seed -1417027500   718047656    94021266 -1710076338 -1360459280 -1701136516  1832486317  1098003778 -1471597115  -993845877  1342487038 -1786503025
#
#      Author: C. J. Pickard (cjp20@cam.ac.uk)
#                Space group: P21
#

%BLOCK LATTICE_ABC
      4.00400      6.48051      7.75864
     96.56748     90.00000     90.00000
%ENDBLOCK LATTICE_ABC

%BLOCK POSITIONS_FRAC
  Li  -0.0177520  -0.2834113  -0.0966703 SPIN=   0.00000
  Li   0.4822480   0.2834113   0.0966703 SPIN=   0.00000
  Fe   0.4822480  -0.2591049  -0.3724682 SPIN=   4.00000
  Fe  -0.0177520   0.2591049   0.3724682 SPIN=   4.00000
   O   0.2125495   0.1327731  -0.3963811 SPIN=   0.00000
   O   0.6721585   0.3868396  -0.4044478 SPIN=   0.00000
   O   0.7209355   0.1010477  -0.2199045 SPIN=   0.00000
   O   0.3233485   0.3887679  -0.1409315 SPIN=   0.00000
   S   0.4822480   0.2523571  -0.2904162 SPIN=   0.00000
   O  -0.2874505  -0.1327731   0.3963811 SPIN=   0.00000
   O   0.1721585  -0.3868396   0.4044478 SPIN=   0.00000
   O   0.2209355  -0.1010477   0.2199045 SPIN=   0.00000
   O  -0.1766515  -0.3887679   0.1409315 SPIN=   0.00000
   S  -0.0177520  -0.2523571   0.2904162 SPIN=   0.00000
   F  -0.0177520   0.2199129   0.0899078 SPIN=   0.00000
   F   0.4822480  -0.2199129  -0.0899078 SPIN=   0.00000
%ENDBLOCK POSITIONS_FRAC

# Note: total spin =   8.00

KPOINTS_MP_SPACING 0.07

%BLOCK SPECIES_POT
QC5
%ENDBLOCK SPECIES_POT

SNAP_TO_SYMMETRY
SYMMETRY_GENERATE

