#              Generated by Buildcell
#
# at 03:59:00 (GMT+1.0) 4th August 2020
# in /lustre/scratch/uccabz1/launch_tmp
# on node-c12d-009
# by uccabz1
#
# compiler GCC version 4.9.2
# options -cpp -iprefix /lustre/shared/ucl/apps/gcc/4.9.2/bin/../lib/gcc/x86_64-unknown-linux-gnu/4.9.2/ -mtune=corei7 -march=x86-64 -g -Og
#
# seed -1174260434 -1156879408  -457230045 -2116544273  -509005827  -837616084   374765780  1725868155 -1078765718  -712925341  -959025539 -1224849159
#
#      Author: C. J. Pickard (cjp20@cam.ac.uk)
#                Space group: Iba2
#

%BLOCK LATTICE_ABC
      4.57614      6.67059      7.69978
    115.66875    107.28713     90.00000
%ENDBLOCK LATTICE_ABC

%BLOCK POSITIONS_FRAC
  Li   0.0046228   0.0046228   0.0092456 SPIN=   0.00000
  Li  -0.4953772  -0.4953772  -0.9907544 SPIN=   0.00000
  Fe  -0.3512247   0.1487753   0.2975507 SPIN=   4.00000
  Fe   0.1487753  -0.3512247  -0.7024493 SPIN=   4.00000
   O   0.0815150  -0.2960083   0.0448112 SPIN=   0.00000
   O   0.0733794  -0.3055333  -0.2815180 SPIN=   0.00000
   O  -0.0367038   0.3408196   0.0448112 SPIN=   0.00000
   O  -0.3548974   0.0240153  -0.2815180 SPIN=   0.00000
   O  -0.4184850  -0.1591804   0.0448112 SPIN=   0.00000
   O  -0.4266206  -0.4759847  -0.2815180 SPIN=   0.00000
   O   0.4632962   0.2039917   0.0448112 SPIN=   0.00000
   O   0.1451026   0.1944667  -0.2815180 SPIN=   0.00000
   S   0.3987064  -0.1012936  -0.2025873 SPIN=   0.00000
   S  -0.1012936   0.3987064   0.7974127 SPIN=   0.00000
   F  -0.3378087  -0.3378087  -0.6756173 SPIN=   0.00000
   F   0.1621913   0.1621913   0.3243827 SPIN=   0.00000
%ENDBLOCK POSITIONS_FRAC

# Note: total spin =   8.00

KPOINTS_MP_SPACING 0.07

%BLOCK SPECIES_POT
QC5
%ENDBLOCK SPECIES_POT

SNAP_TO_SYMMETRY
SYMMETRY_GENERATE

