#              Generated by Buildcell
#
# at 03:45:08 (GMT+1.0) 4th August 2020
# in /lustre/scratch/uccabz1/launch_tmp
# on node-c12l-029
# by uccabz1
#
# compiler GCC version 4.9.2
# options -cpp -iprefix /lustre/shared/ucl/apps/gcc/4.9.2/bin/../lib/gcc/x86_64-unknown-linux-gnu/4.9.2/ -mtune=corei7 -march=x86-64 -g -Og
#
# seed   962399835  1950195485  1403592639  -742845123 -1033910649 -1229580832 -1712033018  -940330055 -1479133235   552770301  1359017525   643817981
#
#      Author: C. J. Pickard (cjp20@cam.ac.uk)
#                Space group: Pc
#

%BLOCK LATTICE_ABC
      3.99552      5.39496      9.38625
     90.00000     90.00000     98.69773
%ENDBLOCK LATTICE_ABC

%BLOCK POSITIONS_FRAC
  Li   0.3723142  -0.4849707  -0.1252242 SPIN=   0.00000
  Li  -0.1276858   0.0150293   0.1252242 SPIN=   0.00000
  Fe  -0.0362342  -0.3891095  -0.3940668 SPIN=   4.00000
  Fe   0.4637658   0.1108905   0.3940668 SPIN=   4.00000
   O   0.2299828   0.0500461  -0.0300590 SPIN=   0.00000
   O  -0.0954884   0.3232275  -0.1682372 SPIN=   0.00000
   O  -0.3163014  -0.1280656  -0.1403597 SPIN=   0.00000
   O   0.1851259   0.0056340  -0.2920766 SPIN=   0.00000
   S   0.0008297   0.0627105  -0.1576831 SPIN=   0.00000
   O  -0.2700172  -0.4499539   0.0300590 SPIN=   0.00000
   O  -0.5954884  -0.1767725   0.1682372 SPIN=   0.00000
   O  -0.8163014  -0.6280656   0.1403597 SPIN=   0.00000
   O  -0.3148741  -0.4943660   0.2920766 SPIN=   0.00000
   S  -0.4991703  -0.4372895   0.1576831 SPIN=   0.00000
   F  -0.0550987   0.0338480   0.3651245 SPIN=   0.00000
   F   0.4449013  -0.4661520  -0.3651245 SPIN=   0.00000
%ENDBLOCK POSITIONS_FRAC

# Note: total spin =   8.00

KPOINTS_MP_SPACING 0.07

%BLOCK SPECIES_POT
QC5
%ENDBLOCK SPECIES_POT

SNAP_TO_SYMMETRY
SYMMETRY_GENERATE

