#              Generated by Buildcell
#
# at 22:45:50 (GMT+1.0) 18th August 2020
# in /lustre/scratch/uccabz1/launch_tmp
# on node-c12i-003
# by uccabz1
#
# compiler GCC version 4.9.2
# options -cpp -iprefix /lustre/shared/ucl/apps/gcc/4.9.2/bin/../lib/gcc/x86_64-unknown-linux-gnu/4.9.2/ -mtune=corei7 -march=x86-64 -g -Og
#
# seed -1151482197   405141005 -2110161949 -1977334295 -1866979765  -416538470 -1439584392  -575278837     3352953    34969303 -2138825548  1651570427
#
#      Author: C. J. Pickard (cjp20@cam.ac.uk)
#                Space group: C2
#

%BLOCK LATTICE_ABC
      6.06764      6.10017      6.10017
     73.61405     72.08822     72.08822
%ENDBLOCK LATTICE_ABC

%BLOCK POSITIONS_FRAC
  Li   0.3131524  -0.4930853   0.2851603 SPIN=   0.00000
  Li  -0.3131524  -0.2851603   0.4930853 SPIN=   0.00000
  Fe  -0.3208808   0.1259082   0.1074504 SPIN=   4.00000
  Fe   0.3208808  -0.1074504  -0.1259082 SPIN=   4.00000
   O   0.0240203  -0.2522584   0.0090513 SPIN=   0.00000
   O  -0.3348102  -0.4099657   0.2021555 SPIN=   0.00000
   O   0.0466952  -0.6195529   0.3145983 SPIN=   0.00000
   O   0.0012244  -0.6172369  -0.0756129 SPIN=   0.00000
   S  -0.0657176  -0.4747535   0.1125480 SPIN=   0.00000
   O  -0.0240203  -0.0090513   0.2522584 SPIN=   0.00000
   O   0.3348102  -0.2021555   0.4099657 SPIN=   0.00000
   O  -0.0466952  -0.3145983   0.6195529 SPIN=   0.00000
   O  -0.0012244   0.0756129   0.6172369 SPIN=   0.00000
   S   0.0657176  -0.1125480   0.4747535 SPIN=   0.00000
   F  -0.4779187  -0.4600809  -0.1766740 SPIN=   0.00000
   F   0.4779187   0.1766740   0.4600809 SPIN=   0.00000
%ENDBLOCK POSITIONS_FRAC

# Note: total spin =   8.00

KPOINTS_MP_SPACING 0.07

%BLOCK SPECIES_POT
QC5
%ENDBLOCK SPECIES_POT

SNAP_TO_SYMMETRY
SYMMETRY_GENERATE

