#              Generated by Buildcell
#
# at 21:55:49 (GMT+1.0) 18th August 2020
# in /lustre/scratch/uccabz1/launch_tmp
# on node-c12a-022
# by uccabz1
#
# compiler GCC version 4.9.2
# options -cpp -iprefix /lustre/shared/ucl/apps/gcc/4.9.2/bin/../lib/gcc/x86_64-unknown-linux-gnu/4.9.2/ -mtune=corei7 -march=x86-64 -g -Og
#
# seed   734158665   873048112 -1203369443  -430538796  1078885024 -1824920089  -247302762  -649404422   122100719  1291813847  1562148140 -1407597431
#
#      Author: C. J. Pickard (cjp20@cam.ac.uk)
#                Space group: P-1
#

%BLOCK LATTICE_ABC
      3.97989      7.12659      7.39899
     73.30483     89.41802     84.35306
%ENDBLOCK LATTICE_ABC

%BLOCK POSITIONS_FRAC
  Li  -0.2587152   0.4167721   0.3177277 SPIN=   0.00000
  Li   0.2587152  -0.4167721  -0.3177277 SPIN=   0.00000
  Fe  -0.4146498  -0.2362211  -0.0621804 SPIN=   4.00000
  Fe   0.4146498   0.2362211   0.0621804 SPIN=   4.00000
   O   0.2858561  -0.2510334   0.4027718 SPIN=   0.00000
   O  -0.2276758  -0.2746084   0.2279325 SPIN=   0.00000
   O   0.0511334   0.0336675   0.1420709 SPIN=   0.00000
   O  -0.2536764  -0.0639799   0.4426802 SPIN=   0.00000
   S  -0.0360907  -0.1389885   0.3038639 SPIN=   0.00000
   O  -0.2858561   0.2510334  -0.4027718 SPIN=   0.00000
   O   0.2276758   0.2746084  -0.2279325 SPIN=   0.00000
   O  -0.0511334  -0.0336675  -0.1420709 SPIN=   0.00000
   O   0.2536764   0.0639799  -0.4426802 SPIN=   0.00000
   S   0.0360907   0.1389885  -0.3038639 SPIN=   0.00000
   F   0.2636492   0.3990884   0.2271080 SPIN=   0.00000
   F  -0.2636492  -0.3990884  -0.2271080 SPIN=   0.00000
%ENDBLOCK POSITIONS_FRAC

# Note: total spin =   8.00

KPOINTS_MP_SPACING 0.07

%BLOCK SPECIES_POT
QC5
%ENDBLOCK SPECIES_POT

SNAP_TO_SYMMETRY
SYMMETRY_GENERATE

