#              Generated by Buildcell
#
# at 01:43:11 (GMT+1.0) 4th August 2020
# in /lustre/scratch/uccabz1/launch_tmp
# on node-c12m-027
# by uccabz1
#
# compiler GCC version 4.9.2
# options -cpp -iprefix /lustre/shared/ucl/apps/gcc/4.9.2/bin/../lib/gcc/x86_64-unknown-linux-gnu/4.9.2/ -mtune=corei7 -march=x86-64 -g -Og
#
# seed  1707670373  1311046677  -222600170  1174193623   765883611 -1375372231  -937247335 -1333982699  -310918876 -1308278724 -1705577392   422011973
#
#      Author: C. J. Pickard (cjp20@cam.ac.uk)
#                Space group: P21
#

%BLOCK LATTICE_ABC
      4.22641      5.46630      8.78888
     90.00000     90.00000     99.93959
%ENDBLOCK LATTICE_ABC

%BLOCK POSITIONS_FRAC
  Li  -0.1975919  -0.2992651   0.0594310 SPIN=   0.00000
  Li   0.1975919   0.2992651  -0.4405690 SPIN=   0.00000
  Fe   0.1679625   0.1682160   0.2091741 SPIN=   4.00000
  Fe  -0.1679625  -0.1682160  -0.2908259 SPIN=   4.00000
   O   0.3245217   0.7598259  -0.0837594 SPIN=   0.00000
   O   0.4089637   0.4168403  -0.2544879 SPIN=   0.00000
   O  -0.1067170   0.3953850  -0.1175083 SPIN=   0.00000
   O   0.3867074   0.3527451   0.0243261 SPIN=   0.00000
   S   0.2533689   0.4811991  -0.1078574 SPIN=   0.00000
   O  -0.3245217  -0.7598259   0.4162406 SPIN=   0.00000
   O  -0.4089637  -0.4168403   0.2455121 SPIN=   0.00000
   O   0.1067170  -0.3953850   0.3824917 SPIN=   0.00000
   O  -0.3867074  -0.3527451   0.5243261 SPIN=   0.00000
   S  -0.2533689  -0.4811991   0.3921426 SPIN=   0.00000
   F  -0.2913671   0.0137329   0.1123057 SPIN=   0.00000
   F   0.2913671  -0.0137329  -0.3876943 SPIN=   0.00000
%ENDBLOCK POSITIONS_FRAC

# Note: total spin =   8.00

KPOINTS_MP_SPACING 0.07

%BLOCK SPECIES_POT
QC5
%ENDBLOCK SPECIES_POT

SNAP_TO_SYMMETRY
SYMMETRY_GENERATE

