#              Generated by Buildcell
#
# at 17:50:02 (GMT+1.0) 18th August 2020
# in /lustre/scratch/uccabz1/launch_tmp
# on node-c12f-008
# by uccabz1
#
# compiler GCC version 4.9.2
# options -cpp -iprefix /lustre/shared/ucl/apps/gcc/4.9.2/bin/../lib/gcc/x86_64-unknown-linux-gnu/4.9.2/ -mtune=corei7 -march=x86-64 -g -Og
#
# seed   299233470  -514451983  1589267803 -1510011148  1575122470   652611956  1110008522   309759502  2108536517 -1800270530 -1238942903    19087718
#
#      Author: C. J. Pickard (cjp20@cam.ac.uk)
#                Space group: P-1
#

%BLOCK LATTICE_ABC
      5.33026      5.51628      7.82647
     84.69428     71.99661     66.13260
%ENDBLOCK LATTICE_ABC

%BLOCK POSITIONS_FRAC
  Li  -0.5000000   0.5000000   0.5000000 SPIN=   0.00000
  Li  -0.0000000  -0.5000000   0.0000000 SPIN=   0.00000
  Fe   0.4800018  -0.9594912  -0.2484333 SPIN=   4.00000
  Fe  -0.4800018   0.9594912   0.2484333 SPIN=   4.00000
   O   0.3053323  -0.3535454   0.2986833 SPIN=   0.00000
   O   0.1456703  -0.2132254   0.0270215 SPIN=   0.00000
   O  -0.1171712  -0.4150045   0.2738547 SPIN=   0.00000
   O   0.3706518  -0.6907986   0.0830014 SPIN=   0.00000
   O  -0.3053323   0.3535454  -0.2986833 SPIN=   0.00000
   O  -0.1456703   0.2132254  -0.0270215 SPIN=   0.00000
   O   0.1171712   0.4150045  -0.2738547 SPIN=   0.00000
   O  -0.3706518   0.6907986  -0.0830014 SPIN=   0.00000
   S   0.0000000  -0.5000000  -0.5000000 SPIN=   0.00000
   S  -0.5000000   0.5000000   0.0000000 SPIN=   0.00000
   F   0.2237518  -0.1111291  -0.3172399 SPIN=   0.00000
   F  -0.2237518   0.1111291   0.3172399 SPIN=   0.00000
%ENDBLOCK POSITIONS_FRAC

# Note: total spin =   8.00

KPOINTS_MP_SPACING 0.07

%BLOCK SPECIES_POT
QC5
%ENDBLOCK SPECIES_POT

SNAP_TO_SYMMETRY
SYMMETRY_GENERATE

