#              Generated by Buildcell
#
# at 22:17:54 (GMT+1.0) 18th August 2020
# in /lustre/scratch/uccabz1/launch_tmp
# on node-c12i-030
# by uccabz1
#
# compiler GCC version 4.9.2
# options -cpp -iprefix /lustre/shared/ucl/apps/gcc/4.9.2/bin/../lib/gcc/x86_64-unknown-linux-gnu/4.9.2/ -mtune=corei7 -march=x86-64 -g -Og
#
# seed  1602147844  -775673779   717403083  -968404543 -1697228308  1522421997 -1848966455  1625413050  -282068221 -2048223920  1948677854  1368725359
#
#      Author: C. J. Pickard (cjp20@cam.ac.uk)
#                Space group: Pc
#

%BLOCK LATTICE_ABC
      3.92062      5.37867      9.48555
     90.00000     90.00000     90.96263
%ENDBLOCK LATTICE_ABC

%BLOCK POSITIONS_FRAC
  Li  -0.0796678  -0.2808078   0.3717387 SPIN=   0.00000
  Li  -0.0796678   0.2191922  -0.3717387 SPIN=   0.00000
  Fe   0.4633592   0.0935625  -0.1262312 SPIN=   4.00000
  Fe   0.4633592  -0.4064375   0.1262312 SPIN=   4.00000
   O   0.1647458  -0.3611274  -0.3004721 SPIN=   0.00000
   O   0.1671092  -0.3053581  -0.0414856 SPIN=   0.00000
   O  -0.1233825  -0.6723243  -0.1473081 SPIN=   0.00000
   O  -0.3679094  -0.2541494  -0.1760726 SPIN=   0.00000
   S  -0.0398592  -0.3982398  -0.1663346 SPIN=   0.00000
   O   0.1647458   0.1388726   0.3004721 SPIN=   0.00000
   O   0.1671092   0.1946419   0.0414856 SPIN=   0.00000
   O  -0.1233825  -0.1723243   0.1473081 SPIN=   0.00000
   O  -0.3679094   0.2458506   0.1760726 SPIN=   0.00000
   S  -0.0398592   0.1017602   0.1663346 SPIN=   0.00000
   F   0.3942302  -0.3586531   0.3512124 SPIN=   0.00000
   F   0.3942302   0.1413469  -0.3512124 SPIN=   0.00000
%ENDBLOCK POSITIONS_FRAC

# Note: total spin =   8.00

KPOINTS_MP_SPACING 0.07

%BLOCK SPECIES_POT
QC5
%ENDBLOCK SPECIES_POT

SNAP_TO_SYMMETRY
SYMMETRY_GENERATE

