#              Generated by Buildcell
#
# at 05:29:50 (GMT+1.0) 4th August 2020
# in /lustre/scratch/uccabz1/launch_tmp
# on node-c12f-031
# by uccabz1
#
# compiler GCC version 4.9.2
# options -cpp -iprefix /lustre/shared/ucl/apps/gcc/4.9.2/bin/../lib/gcc/x86_64-unknown-linux-gnu/4.9.2/ -mtune=corei7 -march=x86-64 -g -Og
#
# seed -1959848412 -1572946980    15684455 -1945946417  1264123874 -1432952036 -1478372212 -1428095952 -1258552711 -1700789581 -1376506859  2021027044
#
#      Author: C. J. Pickard (cjp20@cam.ac.uk)
#                Space group: P-1
#

%BLOCK LATTICE_ABC
      4.48770      7.02352      7.43509
     62.45224     85.60280     74.57324
%ENDBLOCK LATTICE_ABC

%BLOCK POSITIONS_FRAC
  Li  -0.3550733   0.6910398  -0.4147006 SPIN=   0.00000
  Li   0.3550733  -0.6910398   0.4147006 SPIN=   0.00000
  Fe   0.1193193   0.2647145  -0.1859186 SPIN=   4.00000
  Fe  -0.1193193  -0.2647145   0.1859186 SPIN=   4.00000
   O  -0.0991899  -0.0663262   0.3294586 SPIN=   0.00000
   O   0.3488599   0.0609358   0.3614818 SPIN=   0.00000
   O   0.4335044  -0.3005441   0.3586904 SPIN=   0.00000
   O   0.2100430  -0.2547181   0.6554948 SPIN=   0.00000
   O   0.0991899   0.0663262  -0.3294586 SPIN=   0.00000
   O  -0.3488599  -0.0609358  -0.3614818 SPIN=   0.00000
   O  -0.4335044   0.3005441  -0.3586904 SPIN=   0.00000
   O  -0.2100430   0.2547181  -0.6554948 SPIN=   0.00000
   S  -0.5000000   0.5000000   0.0000000 SPIN=   0.00000
   S  -0.0000000   1.0000000  -0.5000000 SPIN=   0.00000
   F   0.0000000  -0.5000000   0.5000000 SPIN=   0.00000
   F   0.5000000  -0.0000000  -0.0000000 SPIN=   0.00000
%ENDBLOCK POSITIONS_FRAC

# Note: total spin =   8.00

KPOINTS_MP_SPACING 0.07

%BLOCK SPECIES_POT
QC5
%ENDBLOCK SPECIES_POT

SNAP_TO_SYMMETRY
SYMMETRY_GENERATE

