#              Generated by Buildcell
#
# at 02:43:04 (GMT+1.0) 4th August 2020
# in /lustre/scratch/uccabz1/launch_tmp
# on node-c12g-019
# by uccabz1
#
# compiler GCC version 4.9.2
# options -cpp -iprefix /lustre/shared/ucl/apps/gcc/4.9.2/bin/../lib/gcc/x86_64-unknown-linux-gnu/4.9.2/ -mtune=corei7 -march=x86-64 -g -Og
#
# seed  -565601761 -1432019030  1509515034  1202706869  -187371170 -1927957113  -583633611   554375213 -1786079408  -290333430  1196900633 -1436615577
#
#      Author: C. J. Pickard (cjp20@cam.ac.uk)
#                Space group: Pc
#

%BLOCK LATTICE_ABC
      4.00211      6.56636      7.61182
     90.00000     91.04608     90.00000
%ENDBLOCK LATTICE_ABC

%BLOCK POSITIONS_FRAC
  Li   0.1305131  -0.2536754   0.4167778 SPIN=   0.00000
  Li  -0.3694869   0.2536754   0.4167778 SPIN=   0.00000
  Fe   0.1201710   0.2583465   0.1103296 SPIN=   4.00000
  Fe  -0.3798290  -0.2583465   0.1103296 SPIN=   4.00000
   O  -0.1426258   0.3546076  -0.3372202 SPIN=   0.00000
   O  -0.6446820   0.1347411  -0.3329539 SPIN=   0.00000
   O  -0.5677295   0.4049226  -0.1091597 SPIN=   0.00000
   O  -0.2066318   0.0989682  -0.1013003 SPIN=   0.00000
   S  -0.3904173   0.2483099  -0.2201585 SPIN=   0.00000
   O   0.3573742  -0.3546076  -0.3372202 SPIN=   0.00000
   O  -0.1446820  -0.1347411  -0.3329539 SPIN=   0.00000
   O  -0.0677295  -0.4049226  -0.1091597 SPIN=   0.00000
   O   0.2933682  -0.0989682  -0.1013003 SPIN=   0.00000
   S   0.1095827  -0.2483099  -0.2201585 SPIN=   0.00000
   F   0.1168191   0.2503610   0.3747920 SPIN=   0.00000
   F  -0.3831809  -0.2503610   0.3747920 SPIN=   0.00000
%ENDBLOCK POSITIONS_FRAC

# Note: total spin =   8.00

KPOINTS_MP_SPACING 0.07

%BLOCK SPECIES_POT
QC5
%ENDBLOCK SPECIES_POT

SNAP_TO_SYMMETRY
SYMMETRY_GENERATE

