#              Generated by Buildcell
#
# at 01:21:28 (GMT+1.0) 19th August 2020
# in /scratch/scratch/uccabz1/launch_tmp
# on node-k10h-011
# by uccabz1
#
# compiler GCC version 4.9.2
# options -cpp -iprefix /scratch/UCL/applications/gcc/4.9.2/bin/../lib/gcc/x86_64-unknown-linux-gnu/4.9.2/ -mtune=corei7 -march=x86-64 -g -O2
#
# seed  -397964262   461377558   203675880 -1174260434  1117989821  1320670749 -1344626798   677817064 -1597097817 -2067172975  1121380235  2068538552
#
#      Author: C. J. Pickard (cjp20@cam.ac.uk)
#                Space group: Cm
#

%BLOCK LATTICE_ABC
      3.95714      7.21423      8.06441
     63.43016     83.89399     76.24284
%ENDBLOCK LATTICE_ABC

%BLOCK POSITIONS_FRAC
  Li  -0.1276943  -0.1675464   0.2734329 SPIN=   0.00000
  Li  -0.1276943   0.1058865  -0.2734329 SPIN=   0.00000
  Fe  -0.7669511   0.4111599  -0.2520303 SPIN=   4.00000
  Fe   0.2330489   0.1591296   0.2520303 SPIN=   4.00000
   O  -0.2864881   0.6068176   0.1529963 SPIN=   0.00000
   O  -0.4936786   0.2830283   0.3684917 SPIN=   0.00000
   O  -0.6959584   0.6146395   0.4052525 SPIN=   0.00000
   O  -0.0863141   0.4161331   0.4791164 SPIN=   0.00000
   S  -0.3906098   0.4801546   0.3514642 SPIN=   0.00000
   O   0.7135119  -0.2401862  -0.1529963 SPIN=   0.00000
   O   0.5063214  -0.3484800  -0.3684917 SPIN=   0.00000
   O   0.3040416   0.0198921  -0.4052525 SPIN=   0.00000
   O   0.9136859  -0.1047504  -0.4791164 SPIN=   0.00000
   S   0.6093902  -0.1683811  -0.3514642 SPIN=   0.00000
   F  -0.4901235   0.3565917   0.0000000 SPIN=   0.00000
   F   0.1933527  -0.0635106  -0.0000000 SPIN=   0.00000
%ENDBLOCK POSITIONS_FRAC

# Note: total spin =   8.00

KPOINTS_MP_SPACING 0.07

%BLOCK SPECIES_POT
QC5
%ENDBLOCK SPECIES_POT

SNAP_TO_SYMMETRY
SYMMETRY_GENERATE

