#              Generated by Buildcell
#
# at 02:53:11 (GMT+1.0) 19th August 2020
# in /lustre/scratch/uccabz1/launch_tmp
# on node-c12a-021
# by uccabz1
#
# compiler GCC version 4.9.2
# options -cpp -iprefix /lustre/shared/ucl/apps/gcc/4.9.2/bin/../lib/gcc/x86_64-unknown-linux-gnu/4.9.2/ -mtune=corei7 -march=x86-64 -g -Og
#
# seed  1314116253  2104062236  1994668471  1125450545   484932057  -167250067  1805336207 -1894534541  -770935420   385308357   -68772917  -313423030
#
#      Author: C. J. Pickard (cjp20@cam.ac.uk)
#                Space group: I41
#

%BLOCK LATTICE_ABC
      6.02706      6.02706      6.96249
    115.64687    115.64687     90.00000
%ENDBLOCK LATTICE_ABC

%BLOCK POSITIONS_FRAC
  Li   0.3469813   0.3469813  -0.3060374 SPIN=   0.00000
  Li  -0.4030187   0.0969813   0.1939626 SPIN=   0.00000
  Fe  -0.2806972  -0.2806972   0.4386056 SPIN=   4.00000
  Fe  -0.0306972   0.4693028  -0.0613944 SPIN=   4.00000
   O   0.3607991  -0.0422174   0.2699411 SPIN=   0.00000
   O   0.2725269   0.3504937   0.2500029 SPIN=   0.00000
   O  -0.0908580   0.3121585   0.2699411 SPIN=   0.00000
   O  -0.0225240  -0.1004908   0.2500029 SPIN=   0.00000
   O   0.5621585   0.1107991  -0.2300589 SPIN=   0.00000
   O   0.1495092   0.0225269  -0.2499971 SPIN=   0.00000
   O   0.2077826  -0.3408580  -0.2300589 SPIN=   0.00000
   O   0.6004937  -0.2725240  -0.2499971 SPIN=   0.00000
   S   0.0989308   0.0989308   0.1978616 SPIN=   0.00000
   S   0.3489308  -0.1510692  -0.3021384 SPIN=   0.00000
   F  -0.2088773   0.2911227  -0.4177546 SPIN=   0.00000
   F  -0.4588773  -0.4588773   0.0822454 SPIN=   0.00000
%ENDBLOCK POSITIONS_FRAC

# Note: total spin =   8.00

KPOINTS_MP_SPACING 0.07

%BLOCK SPECIES_POT
QC5
%ENDBLOCK SPECIES_POT

SNAP_TO_SYMMETRY
SYMMETRY_GENERATE

