#              Generated by Buildcell
#
# at 21:26:36 (GMT+1.0) 18th August 2020
# in /lustre/scratch/uccabz1/launch_tmp
# on node-c12p-014
# by uccabz1
#
# compiler GCC version 4.9.2
# options -cpp -iprefix /lustre/shared/ucl/apps/gcc/4.9.2/bin/../lib/gcc/x86_64-unknown-linux-gnu/4.9.2/ -mtune=corei7 -march=x86-64 -g -Og
#
# seed  -341545552  1733650826 -1232492918   671874458 -1541791912  1383600878  -402988387  2002713735 -1279973986 -1222139369   -95095895 -2059617098
#
#      Author: C. J. Pickard (cjp20@cam.ac.uk)
#                Space group: Pc
#

%BLOCK LATTICE_ABC
      4.13511      4.30202     11.24285
     90.00000     90.29103     90.00000
%ENDBLOCK LATTICE_ABC

%BLOCK POSITIONS_FRAC
  Li  -0.0065486   0.3621774   0.1456713 SPIN=   0.00000
  Li  -0.0065486  -0.3621774  -0.3543287 SPIN=   0.00000
  Fe   0.4831166  -0.1363547   0.1457792 SPIN=   4.00000
  Fe   0.4831166   0.1363547  -0.3542208 SPIN=   4.00000
   O   0.5362220   0.2279714  -0.1719584 SPIN=   0.00000
   O   0.0384522   0.2398724  -0.0507460 SPIN=   0.00000
   O   0.2290915   0.7183582  -0.1504818 SPIN=   0.00000
   O   0.5336489   0.5046498   0.0210327 SPIN=   0.00000
   S   0.3343537   0.4227129  -0.0880384 SPIN=   0.00000
   O   0.5362220  -0.2279714   0.3280416 SPIN=   0.00000
   O   0.0384522  -0.2398724   0.4492540 SPIN=   0.00000
   O   0.2290915  -0.7183582   0.3495182 SPIN=   0.00000
   O   0.5336489  -0.5046498   0.5210327 SPIN=   0.00000
   S   0.3343537  -0.4227129   0.4119616 SPIN=   0.00000
   F  -0.0524045   0.1115295  -0.3563448 SPIN=   0.00000
   F  -0.0524045  -0.1115295   0.1436552 SPIN=   0.00000
%ENDBLOCK POSITIONS_FRAC

# Note: total spin =   8.00

KPOINTS_MP_SPACING 0.07

%BLOCK SPECIES_POT
QC5
%ENDBLOCK SPECIES_POT

SNAP_TO_SYMMETRY
SYMMETRY_GENERATE

