#              Generated by Buildcell
#
# at 05:38:39 (GMT+1.0) 4th August 2020
# in /lustre/scratch/uccabz1/launch_tmp
# on node-c12g-006
# by uccabz1
#
# compiler GCC version 4.9.2
# options -cpp -iprefix /lustre/shared/ucl/apps/gcc/4.9.2/bin/../lib/gcc/x86_64-unknown-linux-gnu/4.9.2/ -mtune=corei7 -march=x86-64 -g -Og
#
# seed  2007790168   530156808 -1800300187   634566185   -84500609 -1091700012  -392994704  1089471486   529038760  2104139127 -1090371903  1742105700
#
#      Author: C. J. Pickard (cjp20@cam.ac.uk)
#                Space group: P21
#

%BLOCK LATTICE_ABC
      4.39654      5.48993      8.49859
     90.00000    102.83841     90.00000
%ENDBLOCK LATTICE_ABC

%BLOCK POSITIONS_FRAC
  Li   0.3075316   0.3560445   0.3339265 SPIN=   0.00000
  Li  -0.3075316  -0.1439555  -0.3339265 SPIN=   0.00000
  Fe   0.1515141   0.2581184  -0.3483514 SPIN=   4.00000
  Fe  -0.1515141  -0.2418816   0.3483514 SPIN=   4.00000
   O  -0.3516739   0.5293848   0.1514583 SPIN=   0.00000
   O  -0.0775624   0.1847752   0.3099777 SPIN=   0.00000
   O  -0.1298322   0.1982547   0.0140858 SPIN=   0.00000
   O  -0.5934657   0.1200496   0.1268133 SPIN=   0.00000
   S  -0.2881336   0.2581161   0.1505837 SPIN=   0.00000
   O   0.3516739   0.0293848  -0.1514583 SPIN=   0.00000
   O   0.0775624  -0.3152248  -0.3099777 SPIN=   0.00000
   O   0.1298322  -0.3017453  -0.0140858 SPIN=   0.00000
   O   0.5934657  -0.3799504  -0.1268133 SPIN=   0.00000
   S   0.2881336  -0.2418839  -0.1505837 SPIN=   0.00000
   F   0.3419754  -0.2158608   0.3305116 SPIN=   0.00000
   F  -0.3419754   0.2841392  -0.3305116 SPIN=   0.00000
%ENDBLOCK POSITIONS_FRAC

# Note: total spin =   8.00

KPOINTS_MP_SPACING 0.07

%BLOCK SPECIES_POT
QC5
%ENDBLOCK SPECIES_POT

SNAP_TO_SYMMETRY
SYMMETRY_GENERATE

