#              Generated by Buildcell
#
# at 03:10:51 (GMT+1.0) 4th August 2020
# in /lustre/scratch/uccabz1/launch_tmp
# on node-c12k-030
# by uccabz1
#
# compiler GCC version 4.9.2
# options -cpp -iprefix /lustre/shared/ucl/apps/gcc/4.9.2/bin/../lib/gcc/x86_64-unknown-linux-gnu/4.9.2/ -mtune=corei7 -march=x86-64 -g -Og
#
# seed  -298584472 -1226575432  1966376289  -886881095 -1725547542  -889518897   -34456116 -1955476461  1879317268  1366258649 -2041741867   956820074
#
#      Author: C. J. Pickard (cjp20@cam.ac.uk)
#                Space group: Cc
#

%BLOCK LATTICE_ABC
      4.53946      6.48815      7.17092
     93.18707    108.45252     90.00000
%ENDBLOCK LATTICE_ABC

%BLOCK POSITIONS_FRAC
  Li  -0.2394010   0.0354896  -0.0416271 SPIN=   0.00000
  Li   0.1977738  -0.4645104  -0.0416271 SPIN=   0.00000
  Fe   0.3982652  -0.0164314   0.2337030 SPIN=   4.00000
  Fe  -0.1645622   0.4835686   0.2337030 SPIN=   4.00000
   O  -0.7966722   0.3361731  -0.4593590 SPIN=   0.00000
   O  -0.3881251   0.5330986  -0.1975951 SPIN=   0.00000
   O  -0.3077164   0.4366050  -0.5165277 SPIN=   0.00000
   O  -0.3052008   0.1679382  -0.2842056 SPIN=   0.00000
   S  -0.4494286   0.3684538  -0.3644219 SPIN=   0.00000
   O   0.3373132  -0.1638269  -0.4593590 SPIN=   0.00000
   O   0.1905300   0.0330986  -0.1975951 SPIN=   0.00000
   O  -0.2088113  -0.0633950  -0.5165277 SPIN=   0.00000
   O   0.0209951  -0.3320618  -0.2842056 SPIN=   0.00000
   S   0.0850068  -0.1315462  -0.3644219 SPIN=   0.00000
   F   0.3972219  -0.2972836   0.2184206 SPIN=   0.00000
   F  -0.1788013   0.2027164   0.2184206 SPIN=   0.00000
%ENDBLOCK POSITIONS_FRAC

# Note: total spin =   8.00

KPOINTS_MP_SPACING 0.07

%BLOCK SPECIES_POT
QC5
%ENDBLOCK SPECIES_POT

SNAP_TO_SYMMETRY
SYMMETRY_GENERATE

