#              Generated by Buildcell
#
# at 04:39:28 (GMT+1.0) 4th August 2020
# in /lustre/scratch/uccabz1/launch_tmp
# on node-c12k-034
# by uccabz1
#
# compiler GCC version 4.9.2
# options -cpp -iprefix /lustre/shared/ucl/apps/gcc/4.9.2/bin/../lib/gcc/x86_64-unknown-linux-gnu/4.9.2/ -mtune=corei7 -march=x86-64 -g -Og
#
# seed -1666078632  1379424572  -746028549  1367748835  -163589376  -822523828   923075361 -2047212944   503270607  2021659510  -936328471   854741662
#
#      Author: C. J. Pickard (cjp20@cam.ac.uk)
#                Space group: Ama2
#

%BLOCK LATTICE_ABC
      4.64164      4.64164      9.28296
     90.00000     90.00000     90.00567
%ENDBLOCK LATTICE_ABC

%BLOCK POSITIONS_FRAC
  Li  -0.0603013   0.2959776  -0.2500000 SPIN=   0.00000
  Li   0.2959776  -0.0603013   0.2500000 SPIN=   0.00000
  Fe  -0.4929318  -0.4929318   0.0000000 SPIN=   4.00000
  Fe  -0.4929318  -0.4929318  -0.5000000 SPIN=   4.00000
   O   0.0613606  -0.4537494  -0.0639467 SPIN=   0.00000
   O   0.2071471   0.0450953  -0.1235418 SPIN=   0.00000
   O  -0.4537494   0.0613606   0.0639467 SPIN=   0.00000
   O   0.0450953   0.2071471   0.1235418 SPIN=   0.00000
   O  -0.4537494   0.0613606   0.4360533 SPIN=   0.00000
   O   0.0450953   0.2071471   0.3764582 SPIN=   0.00000
   O   0.0613606  -0.4537494  -0.4360533 SPIN=   0.00000
   O   0.2071471   0.0450953  -0.3764582 SPIN=   0.00000
   S   0.0070681   0.0070681   0.0000000 SPIN=   0.00000
   S   0.0070681   0.0070681  -0.5000000 SPIN=   0.00000
   F  -0.4629705  -0.4386365   0.2500000 SPIN=   0.00000
   F  -0.4386365  -0.4629705  -0.2500000 SPIN=   0.00000
%ENDBLOCK POSITIONS_FRAC

# Note: total spin =   8.00

KPOINTS_MP_SPACING 0.07

%BLOCK SPECIES_POT
QC5
%ENDBLOCK SPECIES_POT

SNAP_TO_SYMMETRY
SYMMETRY_GENERATE

