#              Generated by Buildcell
#
# at 20:23:28 (GMT+1.0) 18th August 2020
# in /lustre/scratch/uccabz1/launch_tmp
# on node-c12n-031
# by uccabz1
#
# compiler GCC version 4.9.2
# options -cpp -iprefix /lustre/shared/ucl/apps/gcc/4.9.2/bin/../lib/gcc/x86_64-unknown-linux-gnu/4.9.2/ -mtune=corei7 -march=x86-64 -g -Og
#
# seed   510740620  1074268089 -1706051913 -2072178642  1183957045  -656174064   -20354353   945431053   453448735  -717980977  1591646522  -383226948
#
#      Author: C. J. Pickard (cjp20@cam.ac.uk)
#                Space group: P2
#

%BLOCK LATTICE_ABC
      4.05018      5.78356      8.53814
     90.21080     90.00000     90.00000
%ENDBLOCK LATTICE_ABC

%BLOCK POSITIONS_FRAC
  Li   0.3082123   0.2492781   0.3659885 SPIN=   0.00000
  Li   0.3082123  -0.2492781  -0.3659885 SPIN=   0.00000
  Fe  -0.1977479  -0.7496190  -0.3709029 SPIN=   4.00000
  Fe  -0.1977479   0.7496190   0.3709029 SPIN=   4.00000
   O  -0.3075045  -0.1973611   0.0183847 SPIN=   0.00000
   O  -0.3113265  -0.0749721  -0.2590568 SPIN=   0.00000
   O  -0.2893718  -0.4909934  -0.1930235 SPIN=   0.00000
   O   0.1958203  -0.2411364  -0.1433855 SPIN=   0.00000
   S  -0.1780957  -0.2511157  -0.1442703 SPIN=   0.00000
   O  -0.3075045   0.1973611  -0.0183847 SPIN=   0.00000
   O  -0.3113265   0.0749721   0.2590568 SPIN=   0.00000
   O  -0.2893718   0.4909934   0.1930235 SPIN=   0.00000
   O   0.1958203   0.2411364   0.1433855 SPIN=   0.00000
   S  -0.1780957   0.2511157   0.1442703 SPIN=   0.00000
   F   0.2492756   0.7490221   0.3325346 SPIN=   0.00000
   F   0.2492756  -0.7490221  -0.3325346 SPIN=   0.00000
%ENDBLOCK POSITIONS_FRAC

# Note: total spin =   8.00

KPOINTS_MP_SPACING 0.07

%BLOCK SPECIES_POT
QC5
%ENDBLOCK SPECIES_POT

SNAP_TO_SYMMETRY
SYMMETRY_GENERATE

