#              Generated by Buildcell
#
# at 01:37:48 (GMT+1.0) 4th August 2020
# in /lustre/scratch/uccabz1/launch_tmp
# on node-c12f-011
# by uccabz1
#
# compiler GCC version 4.9.2
# options -cpp -iprefix /lustre/shared/ucl/apps/gcc/4.9.2/bin/../lib/gcc/x86_64-unknown-linux-gnu/4.9.2/ -mtune=corei7 -march=x86-64 -g -Og
#
# seed  1077909957  2095666677  1235989972 -1150572479    94237009  1678836636  -829118778   109459147  2016090670   387090192  1511485673  -257819098
#
#      Author: C. J. Pickard (cjp20@cam.ac.uk)
#                Space group: Ccc2
#

%BLOCK LATTICE_ABC
      4.12204      4.91331     10.87853
     90.00000     90.00000    114.80154
%ENDBLOCK LATTICE_ABC

%BLOCK POSITIONS_FRAC
  Li   0.0000000  -0.5000000  -0.1000107 SPIN=   0.00000
  Li   0.5000000   0.5000000   0.3999893 SPIN=   0.00000
  Fe  -0.5000000  -0.5000000  -0.3145632 SPIN=   4.00000
  Fe   0.0000000  -0.5000000   0.1854368 SPIN=   4.00000
   O  -0.0458078   0.2401648   0.3899608 SPIN=   0.00000
   O  -0.3859047  -0.1789838   0.5305975 SPIN=   0.00000
   O   0.0458078  -0.2401648   0.3899608 SPIN=   0.00000
   O   0.3859047   0.1789838   0.5305975 SPIN=   0.00000
   O  -0.2859726  -0.2401648  -0.1100392 SPIN=   0.00000
   O  -0.2069209   0.1789838   0.0305975 SPIN=   0.00000
   O   0.2859726   0.2401648  -0.1100392 SPIN=   0.00000
   O   0.2069209  -0.1789838   0.0305975 SPIN=   0.00000
   S   0.0000000   0.0000000  -0.0194026 SPIN=   0.00000
   S  -0.0000000  -0.0000000   0.4805974 SPIN=   0.00000
   F   0.5000000   0.5000000   0.2247123 SPIN=   0.00000
   F   0.0000000  -0.5000000  -0.2752877 SPIN=   0.00000
%ENDBLOCK POSITIONS_FRAC

# Note: total spin =   8.00

KPOINTS_MP_SPACING 0.07

%BLOCK SPECIES_POT
QC5
%ENDBLOCK SPECIES_POT

SNAP_TO_SYMMETRY
SYMMETRY_GENERATE

