#              Generated by Buildcell
#
# at 00:54:39 (GMT+1.0) 19th August 2020
# in /lustre/scratch/uccabz1/launch_tmp
# on node-c12k-012
# by uccabz1
#
# compiler GCC version 4.9.2
# options -cpp -iprefix /lustre/shared/ucl/apps/gcc/4.9.2/bin/../lib/gcc/x86_64-unknown-linux-gnu/4.9.2/ -mtune=corei7 -march=x86-64 -g -Og
#
# seed   141751998 -1305105333   134036318 -1481796548 -2103149457 -1165690052  1831607181  -678412308  -997772844  1298246828 -1136219439 -1042372734
#
#      Author: C. J. Pickard (cjp20@cam.ac.uk)
#                Space group: P21/m
#

%BLOCK LATTICE_ABC
      4.38359      5.41624      8.42368
     90.00000     90.00000     90.00065
%ENDBLOCK LATTICE_ABC

%BLOCK POSITIONS_FRAC
  Li  -0.0980111  -0.0178716   0.2500000 SPIN=   0.00000
  Li   0.0980111   0.0178716  -0.2500000 SPIN=   0.00000
  Fe   0.2078909   0.4681684   0.2500000 SPIN=   4.00000
  Fe  -0.2078909  -0.4681684  -0.2500000 SPIN=   4.00000
   O  -0.2600891  -0.0963015  -0.1140884 SPIN=   0.00000
   O  -0.5125372  -0.3016000   0.1131461 SPIN=   0.00000
   O   0.2600891   0.0963015   0.3859116 SPIN=   0.00000
   O   0.5125372   0.3016000   0.6131461 SPIN=   0.00000
   O   0.2600891   0.0963015   0.1140884 SPIN=   0.00000
   O   0.5125372   0.3016000  -0.1131461 SPIN=   0.00000
   O  -0.2600891  -0.0963015  -0.3859116 SPIN=   0.00000
   O  -0.5125372  -0.3016000  -0.6131461 SPIN=   0.00000
   S   0.5000000   0.0000000  -0.0000000 SPIN=   0.00000
   S   0.5000000   0.0000000   0.5000000 SPIN=   0.00000
   F   0.0000000  -0.5000000  -0.0000000 SPIN=   0.00000
   F   0.0000000  -0.5000000   0.5000000 SPIN=   0.00000
%ENDBLOCK POSITIONS_FRAC

# Note: total spin =   8.00

KPOINTS_MP_SPACING 0.07

%BLOCK SPECIES_POT
QC5
%ENDBLOCK SPECIES_POT

SNAP_TO_SYMMETRY
SYMMETRY_GENERATE

