#              Generated by Buildcell
#
# at 02:23:11 (GMT+1.0) 4th August 2020
# in /lustre/scratch/uccabz1/launch_tmp
# on node-c12g-020
# by uccabz1
#
# compiler GCC version 4.9.2
# options -cpp -iprefix /lustre/shared/ucl/apps/gcc/4.9.2/bin/../lib/gcc/x86_64-unknown-linux-gnu/4.9.2/ -mtune=corei7 -march=x86-64 -g -Og
#
# seed   339366804   622809184   521013731  -813684470  1686177903   -53009579 -2143049768  -931861244   370665916 -1413387932   136409152 -1066489592
#
#      Author: C. J. Pickard (cjp20@cam.ac.uk)
#                Space group: Pc
#

%BLOCK LATTICE_ABC
      4.27043      6.47467      7.34312
     90.00000     90.00000     99.91779
%ENDBLOCK LATTICE_ABC

%BLOCK POSITIONS_FRAC
  Li   0.3773355   0.3478809   0.1193883 SPIN=   0.00000
  Li   0.3773355  -0.1521191  -0.1193883 SPIN=   0.00000
  Fe  -0.2034523  -0.4900602  -0.2101305 SPIN=   4.00000
  Fe  -0.2034523   0.0099398   0.2101305 SPIN=   4.00000
   O   0.0230059  -0.5187909   0.1779202 SPIN=   0.00000
   O  -0.3941878  -0.6645109   0.3991801 SPIN=   0.00000
   O  -0.3482607  -0.2965465   0.2962351 SPIN=   0.00000
   O   0.0621785  -0.3993889   0.4985672 SPIN=   0.00000
   S  -0.1643160  -0.4698093   0.3429756 SPIN=   0.00000
   O   0.0230059  -0.0187909  -0.1779202 SPIN=   0.00000
   O  -0.3941878  -0.1645109  -0.3991801 SPIN=   0.00000
   O  -0.3482607   0.2034535  -0.2962351 SPIN=   0.00000
   O   0.0621785   0.1006111  -0.4985672 SPIN=   0.00000
   S  -0.1643160   0.0301907  -0.3429756 SPIN=   0.00000
   F   0.3668405  -0.4699755  -0.1421056 SPIN=   0.00000
   F   0.3668405   0.0300245   0.1421056 SPIN=   0.00000
%ENDBLOCK POSITIONS_FRAC

# Note: total spin =   8.00

KPOINTS_MP_SPACING 0.07

%BLOCK SPECIES_POT
QC5
%ENDBLOCK SPECIES_POT

SNAP_TO_SYMMETRY
SYMMETRY_GENERATE

