#              Generated by Buildcell
#
# at 00:08:55 (GMT+1.0) 19th August 2020
# in /lustre/scratch/uccabz1/launch_tmp
# on node-c12o-011
# by uccabz1
#
# compiler GCC version 4.9.2
# options -cpp -iprefix /lustre/shared/ucl/apps/gcc/4.9.2/bin/../lib/gcc/x86_64-unknown-linux-gnu/4.9.2/ -mtune=corei7 -march=x86-64 -g -Og
#
# seed -1148410290   774560811   511908679 -1480126783   584735156 -1760997683  2080498141  -545046346  -986758641 -2057970711   717357971 -2087624434
#
#      Author: C. J. Pickard (cjp20@cam.ac.uk)
#                Space group: Pm
#

%BLOCK LATTICE_ABC
      4.06416      6.10356      8.06264
     90.00000     90.00000     90.07848
%ENDBLOCK LATTICE_ABC

%BLOCK POSITIONS_FRAC
  Li  -0.4637753   0.0766632  -0.5000000 SPIN=   0.00000
  Li  -0.4190404   0.0726227   0.0000000 SPIN=   0.00000
  Fe   0.0604381  -0.3050338   0.0000000 SPIN=   7.96340
  Fe  -0.0815472  -0.3483048   0.5000000 SPIN=   0.03660
   O   0.2034212   0.5010105  -0.3149563 SPIN=   0.00000
   O   0.5568667   0.1944136  -0.2227781 SPIN=   0.00000
   O   0.0272017   0.1179144  -0.3628746 SPIN=   0.00000
   S   0.2048309   0.2707060  -0.2446970 SPIN=   0.00000
   O   0.2034212   0.5010105   0.3149563 SPIN=   0.00000
   O   0.5568667   0.1944136   0.2227781 SPIN=   0.00000
   O   0.0272017   0.1179144   0.3628746 SPIN=   0.00000
   S   0.2048309   0.2707060   0.2446970 SPIN=   0.00000
   O   0.1031804   0.2192346   0.0000000 SPIN=   0.00000
   O  -0.4095152   0.3938536  -0.5000000 SPIN=   0.00000
   F  -0.2960065  -0.2295947  -0.2499431 SPIN=   0.00000
   F  -0.2960065  -0.2295947   0.2499431 SPIN=   0.00000
%ENDBLOCK POSITIONS_FRAC

# Note: total spin =   8.00

KPOINTS_MP_SPACING 0.07

%BLOCK SPECIES_POT
QC5
%ENDBLOCK SPECIES_POT

SNAP_TO_SYMMETRY
SYMMETRY_GENERATE

