#              Generated by Buildcell
#
# at 04:55:42 (GMT+1.0) 4th August 2020
# in /lustre/scratch/uccabz1/launch_tmp
# on node-c12c-007
# by uccabz1
#
# compiler GCC version 4.9.2
# options -cpp -iprefix /lustre/shared/ucl/apps/gcc/4.9.2/bin/../lib/gcc/x86_64-unknown-linux-gnu/4.9.2/ -mtune=corei7 -march=x86-64 -g -Og
#
# seed   410058172  -517151107   803227504   473943260  1694848365  -984433185 -1342296253   406619522   825133187   880226275  -685397749  -691276195
#
#      Author: C. J. Pickard (cjp20@cam.ac.uk)
#                Space group: C2/c
#

%BLOCK LATTICE_ABC
      5.32538      5.99512      7.02784
     87.42877     84.20287     63.63148
%ENDBLOCK LATTICE_ABC

%BLOCK POSITIONS_FRAC
  Li  -0.0911335  -0.3177330   0.2500000 SPIN=   0.00000
  Li   0.0911335   0.3177330  -0.2500000 SPIN=   0.00000
  Fe  -0.3931735   0.2863470   0.2500000 SPIN=   4.00000
  Fe   0.3931735  -0.2863470  -0.2500000 SPIN=   4.00000
   O   0.4348998  -0.1565678  -0.5414020 SPIN=   0.00000
   O  -0.0169452  -0.0931503  -0.3631529 SPIN=   0.00000
   O   0.2216680  -0.1565678   0.0414020 SPIN=   0.00000
   O   0.6100955  -0.0931503  -0.1368471 SPIN=   0.00000
   O  -0.4348998   0.1565678   0.5414020 SPIN=   0.00000
   O   0.0169452   0.0931503   0.3631529 SPIN=   0.00000
   O  -0.2216680   0.1565678  -0.0414020 SPIN=   0.00000
   O  -0.6100955   0.0931503   0.1368471 SPIN=   0.00000
   S   0.6962443  -0.8924886  -0.2500000 SPIN=   0.00000
   S  -0.6962443   0.8924886   0.2500000 SPIN=   0.00000
   F  -0.0000000   0.5000000   0.0000000 SPIN=   0.00000
   F   0.0000000   0.5000000  -0.5000000 SPIN=   0.00000
%ENDBLOCK POSITIONS_FRAC

# Note: total spin =   8.00

KPOINTS_MP_SPACING 0.07

%BLOCK SPECIES_POT
QC5
%ENDBLOCK SPECIES_POT

SNAP_TO_SYMMETRY
SYMMETRY_GENERATE

