#              Generated by Buildcell
#
# at 19:55:24 (GMT+1.0) 18th August 2020
# in /lustre/scratch/uccabz1/launch_tmp
# on node-c12f-010
# by uccabz1
#
# compiler GCC version 4.9.2
# options -cpp -iprefix /lustre/shared/ucl/apps/gcc/4.9.2/bin/../lib/gcc/x86_64-unknown-linux-gnu/4.9.2/ -mtune=corei7 -march=x86-64 -g -Og
#
# seed   607626661  -809036389  2051607600   -83165285   145570222  1683399913  -903679723  -404569299 -1580343812   813401342   735020310   876687703
#
#      Author: C. J. Pickard (cjp20@cam.ac.uk)
#                Space group: P-1
#

%BLOCK LATTICE_ABC
      5.01326      6.65995      7.01602
    108.85835    100.59838    108.04192
%ENDBLOCK LATTICE_ABC

%BLOCK POSITIONS_FRAC
  Li  -0.1986882  -0.0605311  -0.2875413 SPIN=   0.00000
  Li   0.1986882   0.0605311   0.2875413 SPIN=   0.00000
  Fe   0.7806833   0.3047528   0.2158529 SPIN=   4.00000
  Fe  -0.7806833  -0.3047528  -0.2158529 SPIN=   4.00000
   O  -0.2526513  -0.3202736   0.1630664 SPIN=   0.00000
   O  -0.5258498  -0.3789414   0.4138913 SPIN=   0.00000
   O  -0.7425657  -0.2977404   0.1151499 SPIN=   0.00000
   S  -0.4577287  -0.2466833   0.2769598 SPIN=   0.00000
   O   0.2526513   0.3202736  -0.1630664 SPIN=   0.00000
   O   0.5258498   0.3789414  -0.4138913 SPIN=   0.00000
   O   0.7425657   0.2977404  -0.1151499 SPIN=   0.00000
   S   0.4577287   0.2466833  -0.2769598 SPIN=   0.00000
   O   0.5000000   0.0000000  -0.5000000 SPIN=   0.00000
   O  -0.0000000   0.0000000  -0.5000000 SPIN=   0.00000
   F  -1.0000000  -0.5000000   0.5000000 SPIN=   0.00000
   F   0.0000000   0.0000000  -0.0000000 SPIN=   0.00000
%ENDBLOCK POSITIONS_FRAC

# Note: total spin =   8.00

KPOINTS_MP_SPACING 0.07

%BLOCK SPECIES_POT
QC5
%ENDBLOCK SPECIES_POT

SNAP_TO_SYMMETRY
SYMMETRY_GENERATE

