#              Generated by Buildcell
#
# at 03:18:50 (GMT+1.0) 4th August 2020
# in /lustre/scratch/uccabz1/launch_tmp
# on node-c12g-036
# by uccabz1
#
# compiler GCC version 4.9.2
# options -cpp -iprefix /lustre/shared/ucl/apps/gcc/4.9.2/bin/../lib/gcc/x86_64-unknown-linux-gnu/4.9.2/ -mtune=corei7 -march=x86-64 -g -Og
#
# seed  -723264427    89867875 -1066568522 -1395909064 -1089027441 -1993890986 -1079056829 -2133452154 -1711441686   107975373  1771302185 -1532000675
#
#      Author: C. J. Pickard (cjp20@cam.ac.uk)
#                Space group: Cm
#

%BLOCK LATTICE_ABC
      5.48966      5.48966      7.56843
     70.06076     70.06076     89.62235
%ENDBLOCK LATTICE_ABC

%BLOCK POSITIONS_FRAC
  Li   0.6940828   0.6940828  -0.4106191 SPIN=   0.00000
  Li  -0.4771097  -0.4771097   0.1632406 SPIN=   0.00000
  Fe   0.1915619   0.1915619  -0.4093385 SPIN=   2.43854
  Fe  -0.0766323  -0.0766323   0.1360370 SPIN=   5.56146
   O   0.2867548   0.5879461  -0.2991572 SPIN=   0.00000
   O   0.0737797   0.3735272   0.0706382 SPIN=   0.00000
   O  -0.1805048   0.4083028  -0.1494426 SPIN=   0.00000
   S   0.0352696   0.5433434  -0.1207326 SPIN=   0.00000
   O   0.5879461   0.2867548  -0.2991572 SPIN=   0.00000
   O   0.3735272   0.0737797   0.0706382 SPIN=   0.00000
   O   0.4083028  -0.1805048  -0.1494426 SPIN=   0.00000
   S   0.5433434   0.0352696  -0.1207326 SPIN=   0.00000
   O  -0.4486113  -0.4486113   0.4200008 SPIN=   0.00000
   O   0.0397577   0.0397577   0.4135673 SPIN=   0.00000
   F  -0.4282736   0.0718051   0.3595610 SPIN=   0.00000
   F   0.0718051  -0.4282736   0.3595610 SPIN=   0.00000
%ENDBLOCK POSITIONS_FRAC

# Note: total spin =   8.00

KPOINTS_MP_SPACING 0.07

%BLOCK SPECIES_POT
QC5
%ENDBLOCK SPECIES_POT

SNAP_TO_SYMMETRY
SYMMETRY_GENERATE

