#              Generated by Buildcell
#
# at 01:19:43 (GMT+1.0) 19th August 2020
# in /lustre/scratch/uccabz1/launch_tmp
# on node-c12l-016
# by uccabz1
#
# compiler GCC version 4.9.2
# options -cpp -iprefix /lustre/shared/ucl/apps/gcc/4.9.2/bin/../lib/gcc/x86_64-unknown-linux-gnu/4.9.2/ -mtune=corei7 -march=x86-64 -g -Og
#
# seed   246315148  -265413313  1329402359  -562620961 -2111341955 -1011534441    -3658610  -954731976 -1470804480  1820097098 -1484914455 -1118017077
#
#      Author: C. J. Pickard (cjp20@cam.ac.uk)
#                Space group: P-1
#

%BLOCK LATTICE_ABC
      4.20601      6.39825      7.55840
     91.30450     98.70070     95.48592
%ENDBLOCK LATTICE_ABC

%BLOCK POSITIONS_FRAC
  Li   0.4769172   0.2524214  -0.2800876 SPIN=   0.00000
  Li  -0.4769172  -0.2524214   0.2800876 SPIN=   0.00000
  Fe  -0.0000000  -0.5000000  -0.5000000 SPIN=   3.26401
  Fe  -0.0000000   0.5000000   0.0000000 SPIN=   4.73599
   O   0.5346964   0.1901644   0.4738879 SPIN=   0.00000
   O   0.0467572   0.2060986   0.2480052 SPIN=   0.00000
   O   0.5013162   0.0197492   0.1735033 SPIN=   0.00000
   S   0.4112220   0.2059182   0.2760942 SPIN=   0.00000
   O  -0.5346964  -0.1901644  -0.4738879 SPIN=   0.00000
   O  -0.0467572  -0.2060986  -0.2480052 SPIN=   0.00000
   O  -0.5013162  -0.0197492  -0.1735033 SPIN=   0.00000
   S  -0.4112220  -0.2059182  -0.2760942 SPIN=   0.00000
   O   0.0000000   0.0000000   0.5000000 SPIN=   0.00000
   O   0.0000000   0.0000000   0.0000000 SPIN=   0.00000
   F   0.0292283   0.3303735  -0.2393073 SPIN=   0.00000
   F  -0.0292283  -0.3303735   0.2393073 SPIN=   0.00000
%ENDBLOCK POSITIONS_FRAC

# Note: total spin =   8.00

KPOINTS_MP_SPACING 0.07

%BLOCK SPECIES_POT
QC5
%ENDBLOCK SPECIES_POT

SNAP_TO_SYMMETRY
SYMMETRY_GENERATE

