#              Generated by Buildcell
#
# at 02:17:46 (GMT+1.0) 4th August 2020
# in /lustre/scratch/uccabz1/launch_tmp
# on node-c12p-021
# by uccabz1
#
# compiler GCC version 4.9.2
# options -cpp -iprefix /lustre/shared/ucl/apps/gcc/4.9.2/bin/../lib/gcc/x86_64-unknown-linux-gnu/4.9.2/ -mtune=corei7 -march=x86-64 -g -Og
#
# seed -1691574102  1402938685  1445388991  1388695607  1059383264  1509959512 -1459854031   446850011  -908104147 -1578800223  -680232404   -44247570
#
#      Author: C. J. Pickard (cjp20@cam.ac.uk)
#                Space group: P21/m
#

%BLOCK LATTICE_ABC
      4.71030      6.42082      6.61641
     90.00000     91.87180     90.00000
%ENDBLOCK LATTICE_ABC

%BLOCK POSITIONS_FRAC
  Li  -0.2101243  -0.2500000  -0.2387176 SPIN=   0.00000
  Li   0.2101243   0.2500000   0.2387176 SPIN=   0.00000
  Fe   0.3037685  -0.2500000   0.0638507 SPIN=   4.00000
  Fe  -0.3037685   0.2500000  -0.0638507 SPIN=   4.00000
   O   0.1356443  -0.4664262   0.6474692 SPIN=   0.00000
   O   0.3683530  -0.4320437   0.3191381 SPIN=   0.00000
   O  -0.1356443   0.0335738  -0.6474692 SPIN=   0.00000
   O  -0.3683530   0.0679563  -0.3191381 SPIN=   0.00000
   O  -0.1356443   0.4664262  -0.6474692 SPIN=   0.00000
   O  -0.3683530   0.4320437  -0.3191381 SPIN=   0.00000
   O   0.1356443  -0.0335738   0.6474692 SPIN=   0.00000
   O   0.3683530  -0.0679563   0.3191381 SPIN=   0.00000
   S   0.2804755  -0.2500000  -0.4435464 SPIN=   0.00000
   S  -0.2804755   0.2500000   0.4435464 SPIN=   0.00000
   F  -0.1506666  -0.2500000   0.0365440 SPIN=   0.00000
   F   0.1506666   0.2500000  -0.0365440 SPIN=   0.00000
%ENDBLOCK POSITIONS_FRAC

# Note: total spin =   8.00

KPOINTS_MP_SPACING 0.07

%BLOCK SPECIES_POT
QC5
%ENDBLOCK SPECIES_POT

SNAP_TO_SYMMETRY
SYMMETRY_GENERATE

