#              Generated by Buildcell
#
# at 21:35:51 (GMT+1.0) 18th August 2020
# in /lustre/scratch/uccabz1/launch_tmp
# on node-c12k-027
# by uccabz1
#
# compiler GCC version 4.9.2
# options -cpp -iprefix /lustre/shared/ucl/apps/gcc/4.9.2/bin/../lib/gcc/x86_64-unknown-linux-gnu/4.9.2/ -mtune=corei7 -march=x86-64 -g -Og
#
# seed -1369719205  -929953013  1184887787 -2121377354 -1214411505   721224551  1871205611 -1006098023 -1148680263  -802606674  1187274167 -1691719993
#
#      Author: C. J. Pickard (cjp20@cam.ac.uk)
#                Space group: P42
#

%BLOCK LATTICE_ABC
      5.14011      5.14011      7.56980
     90.00000     90.00000     90.00000
%ENDBLOCK LATTICE_ABC

%BLOCK POSITIONS_FRAC
  Li   0.0000000  -0.0000000   0.0441302 SPIN=   0.00000
  Li   0.0000000   0.0000000  -0.4558698 SPIN=   0.00000
  Fe  -0.5000000   0.5000000  -0.1193514 SPIN=   4.00000
  Fe   0.5000000   0.5000000   0.3806486 SPIN=   4.00000
   O  -0.6455314   0.1791833   0.0090805 SPIN=   0.00000
   O  -0.2106042   0.2262176  -0.1274894 SPIN=   0.00000
   O   0.6455314  -0.1791833   0.0090805 SPIN=   0.00000
   O   0.2106042  -0.2262176  -0.1274894 SPIN=   0.00000
   O  -0.1791833  -0.6455314   0.5090805 SPIN=   0.00000
   O  -0.2262176  -0.2106042   0.3725106 SPIN=   0.00000
   O   0.1791833   0.6455314   0.5090805 SPIN=   0.00000
   O   0.2262176   0.2106042   0.3725106 SPIN=   0.00000
   S   0.0000000   0.5000000  -0.3691731 SPIN=   0.00000
   S  -0.5000000  -0.0000000   0.1308269 SPIN=   0.00000
   F   0.0000000  -0.5000000   0.1313989 SPIN=   0.00000
   F  -0.5000000   0.0000000  -0.3686011 SPIN=   0.00000
%ENDBLOCK POSITIONS_FRAC

# Note: total spin =   8.00

KPOINTS_MP_SPACING 0.07

%BLOCK SPECIES_POT
QC5
%ENDBLOCK SPECIES_POT

SNAP_TO_SYMMETRY
SYMMETRY_GENERATE

