#              Generated by Buildcell
#
# at 04:47:14 (GMT+1.0) 4th August 2020
# in /lustre/scratch/uccabz1/launch_tmp
# on node-c12c-013
# by uccabz1
#
# compiler GCC version 4.9.2
# options -cpp -iprefix /lustre/shared/ucl/apps/gcc/4.9.2/bin/../lib/gcc/x86_64-unknown-linux-gnu/4.9.2/ -mtune=corei7 -march=x86-64 -g -Og
#
# seed  1242497034   529592823   815829847  1910151571   672468940  1681977207 -2139922880  1190996452  -951778380   909126312  1818420676  1949900920
#
#      Author: C. J. Pickard (cjp20@cam.ac.uk)
#                Space group: P2
#

%BLOCK LATTICE_ABC
      5.79392      5.82207      5.95339
     90.00000     90.00000     95.19037
%ENDBLOCK LATTICE_ABC

%BLOCK POSITIONS_FRAC
  Li   0.3043304   0.2227735   0.4287673 SPIN=   0.00000
  Li  -0.3043304  -0.2227735   0.4287673 SPIN=   0.00000
  Fe  -0.2428238   0.2639390   0.1816859 SPIN=   4.00000
  Fe   0.2428238  -0.2639390   0.1816859 SPIN=   4.00000
   O  -0.5141572  -0.2990337  -0.0790704 SPIN=   0.00000
   O  -0.2055396   0.0236599  -0.0662614 SPIN=   0.00000
   O  -0.1442835  -0.3304540  -0.2797997 SPIN=   0.00000
   O  -0.1544266  -0.3398114   0.1357101 SPIN=   0.00000
   S  -0.2546017  -0.2364098  -0.0723553 SPIN=   0.00000
   O   0.5141572   0.2990337  -0.0790704 SPIN=   0.00000
   O   0.2055396  -0.0236599  -0.0662614 SPIN=   0.00000
   O   0.1442835   0.3304540  -0.2797997 SPIN=   0.00000
   O   0.1544266   0.3398114   0.1357101 SPIN=   0.00000
   S   0.2546017   0.2364098  -0.0723553 SPIN=   0.00000
   F  -0.2864902   0.2520181   0.4852909 SPIN=   0.00000
   F   0.2864902  -0.2520181   0.4852909 SPIN=   0.00000
%ENDBLOCK POSITIONS_FRAC

# Note: total spin =   8.00

KPOINTS_MP_SPACING 0.07

%BLOCK SPECIES_POT
QC5
%ENDBLOCK SPECIES_POT

SNAP_TO_SYMMETRY
SYMMETRY_GENERATE

