#              Generated by Buildcell
#
# at 02:57:59 (GMT+1.0) 4th August 2020
# in /lustre/scratch/uccabz1/launch_tmp
# on node-c12l-022
# by uccabz1
#
# compiler GCC version 4.9.2
# options -cpp -iprefix /lustre/shared/ucl/apps/gcc/4.9.2/bin/../lib/gcc/x86_64-unknown-linux-gnu/4.9.2/ -mtune=corei7 -march=x86-64 -g -Og
#
# seed  1407651742  1658025734  1731768916   537109870    48744179  1031001357  -437150477 -1403516579  1842981417   342227034    41329153 -1900235179
#
#      Author: C. J. Pickard (cjp20@cam.ac.uk)
#                Space group: P2
#

%BLOCK LATTICE_ABC
      4.17411      6.54898      7.38910
     98.04856     90.00000     90.00000
%ENDBLOCK LATTICE_ABC

%BLOCK POSITIONS_FRAC
  Li  -0.1907533  -0.2852399   0.3078186 SPIN=   0.00000
  Li  -0.1907533   0.2852399  -0.3078186 SPIN=   0.00000
  Fe   0.3084931  -0.5000000  -0.5000000 SPIN=   1.88662
  Fe   0.3160530   0.5000000   0.0000000 SPIN=   6.11338
   O  -0.2793619  -0.0087951   0.2620768 SPIN=   0.00000
   O  -0.4795802   0.3423298   0.2390092 SPIN=   0.00000
   O  -0.0843543   0.1780511   0.0147818 SPIN=   0.00000
   S  -0.1908837   0.2009474   0.2126693 SPIN=   0.00000
   O  -0.2793619   0.0087951  -0.2620768 SPIN=   0.00000
   O  -0.4795802  -0.3423298  -0.2390092 SPIN=   0.00000
   O  -0.0843543  -0.1780511  -0.0147818 SPIN=   0.00000
   S  -0.1908837  -0.2009474  -0.2126693 SPIN=   0.00000
   O   0.4263389   0.0000000   0.0000000 SPIN=   0.00000
   O  -0.1903605   0.5000000   0.5000000 SPIN=   0.00000
   F   0.3095406  -0.2769886   0.3698721 SPIN=   0.00000
   F   0.3095406   0.2769886  -0.3698721 SPIN=   0.00000
%ENDBLOCK POSITIONS_FRAC

# Note: total spin =   8.00

KPOINTS_MP_SPACING 0.07

%BLOCK SPECIES_POT
QC5
%ENDBLOCK SPECIES_POT

SNAP_TO_SYMMETRY
SYMMETRY_GENERATE

