#              Generated by Buildcell
#
# at 01:37:32 (GMT+1.0) 4th August 2020
# in /lustre/scratch/uccabz1/launch_tmp
# on node-c12h-009
# by uccabz1
#
# compiler GCC version 4.9.2
# options -cpp -iprefix /lustre/shared/ucl/apps/gcc/4.9.2/bin/../lib/gcc/x86_64-unknown-linux-gnu/4.9.2/ -mtune=corei7 -march=x86-64 -g -Og
#
# seed -1720641450  1742301850  1522826745  -586269077 -1148083468  2065129607   -18404671  -553518156     9524264 -1985991966  -669567904  -531967837
#
#      Author: C. J. Pickard (cjp20@cam.ac.uk)
#                Space group: P21
#

%BLOCK LATTICE_ABC
      5.67406      5.83386      6.58464
     90.00000     90.00000    113.42371
%ENDBLOCK LATTICE_ABC

%BLOCK POSITIONS_FRAC
  Li  -0.1954303   0.3562848   0.0050292 SPIN=   0.00000
  Li   0.1954303  -0.3562848  -0.4949708 SPIN=   0.00000
  Fe   0.3504349   0.4677081   0.1362867 SPIN=   4.00000
  Fe  -0.3504349  -0.4677081  -0.3637133 SPIN=   4.00000
   O  -0.1002091  -0.0837563  -0.2900128 SPIN=   0.00000
   O   0.2412384   0.2722505  -0.4602911 SPIN=   0.00000
   O   0.1244079   0.3123617  -0.1038857 SPIN=   0.00000
   O  -0.1767198   0.2923121  -0.3818860 SPIN=   0.00000
   S   0.0221794   0.1982920  -0.3090189 SPIN=   0.00000
   O   0.1002091   0.0837563   0.2099872 SPIN=   0.00000
   O  -0.2412384  -0.2722505   0.0397089 SPIN=   0.00000
   O  -0.1244079  -0.3123617   0.3961143 SPIN=   0.00000
   O   0.1767198  -0.2923121   0.1181140 SPIN=   0.00000
   S  -0.0221794  -0.1982920   0.1909811 SPIN=   0.00000
   F   0.3821740  -0.1676526  -0.2540068 SPIN=   0.00000
   F  -0.3821740   0.1676526   0.2459932 SPIN=   0.00000
%ENDBLOCK POSITIONS_FRAC

# Note: total spin =   8.00

KPOINTS_MP_SPACING 0.07

%BLOCK SPECIES_POT
QC5
%ENDBLOCK SPECIES_POT

SNAP_TO_SYMMETRY
SYMMETRY_GENERATE

