#              Generated by Buildcell
#
# at 02:36:35 (GMT+1.0) 4th August 2020
# in /lustre/scratch/uccabz1/launch_tmp
# on node-c12d-014
# by uccabz1
#
# compiler GCC version 4.9.2
# options -cpp -iprefix /lustre/shared/ucl/apps/gcc/4.9.2/bin/../lib/gcc/x86_64-unknown-linux-gnu/4.9.2/ -mtune=corei7 -march=x86-64 -g -Og
#
# seed -1826160142 -1302577297    35381356  1279578348     2065051  -124962704    48720935 -1867847914  1215017436   505958900  1606497656  -209541268
#
#      Author: C. J. Pickard (cjp20@cam.ac.uk)
#                Space group: Cc
#

%BLOCK LATTICE_ABC
      4.34376      4.34376     11.09060
     80.69882     80.69882     77.69259
%ENDBLOCK LATTICE_ABC

%BLOCK POSITIONS_FRAC
  Li  -0.1154072  -0.4109602  -0.2482268 SPIN=   0.00000
  Li   0.0890398   0.3845928   0.2517732 SPIN=   0.00000
  Fe   0.4473597   0.1855544  -0.4444136 SPIN=   4.00000
  Fe  -0.3144456  -0.0526403   0.0555864 SPIN=   4.00000
   O   0.2531598  -0.3875200  -0.0665947 SPIN=   0.00000
   O   0.6213492  -0.0259139  -0.1614765 SPIN=   0.00000
   O   0.0422047   0.1829047  -0.1273408 SPIN=   0.00000
   O   0.2652141  -0.1696750  -0.2873859 SPIN=   0.00000
   S   0.2954820  -0.1000510  -0.1606995 SPIN=   0.00000
   O  -0.8875200  -0.2468402   0.4334053 SPIN=   0.00000
   O  -0.5259139   0.1213492   0.3385235 SPIN=   0.00000
   O  -0.3170953  -0.4577953   0.3726592 SPIN=   0.00000
   O  -0.6696750  -0.2347859   0.2126141 SPIN=   0.00000
   S  -0.6000510  -0.2045180   0.3393005 SPIN=   0.00000
   F  -0.1170690   0.2829439   0.1210821 SPIN=   0.00000
   F   0.7829439   0.3829310  -0.3789179 SPIN=   0.00000
%ENDBLOCK POSITIONS_FRAC

# Note: total spin =   8.00

KPOINTS_MP_SPACING 0.07

%BLOCK SPECIES_POT
QC5
%ENDBLOCK SPECIES_POT

SNAP_TO_SYMMETRY
SYMMETRY_GENERATE

