#              Generated by Buildcell
#
# at 00:00:34 (GMT+1.0) 19th August 2020
# in /lustre/scratch/uccabz1/launch_tmp
# on node-c12l-017
# by uccabz1
#
# compiler GCC version 4.9.2
# options -cpp -iprefix /lustre/shared/ucl/apps/gcc/4.9.2/bin/../lib/gcc/x86_64-unknown-linux-gnu/4.9.2/ -mtune=corei7 -march=x86-64 -g -Og
#
# seed -1121162663 -1989952009  1660997015 -1348919800  1745460232  -288588500   428652729  -217172796 -1999399812   992266174  -267040107  1052485191
#
#      Author: C. J. Pickard (cjp20@cam.ac.uk)
#                Space group: P2
#

%BLOCK LATTICE_ABC
      3.92458      6.77052      7.78158
    104.70017     90.00000     90.00000
%ENDBLOCK LATTICE_ABC

%BLOCK POSITIONS_FRAC
  Li   0.0960652   0.1688371  -0.1981223 SPIN=   0.00000
  Li   0.0960652  -0.1688371   0.1981223 SPIN=   0.00000
  Fe  -0.0452708  -0.5000000  -0.5000000 SPIN=   3.87975
  Fe  -0.4057521  -0.5000000   0.0000000 SPIN=   4.12025
   O   0.6031238   0.2773722   0.4915685 SPIN=   0.00000
   O   0.0878239   0.1412315   0.3183945 SPIN=   0.00000
   O   0.6033104  -0.0741720   0.2972454 SPIN=   0.00000
   O   0.6016989   0.2216936   0.1647044 SPIN=   0.00000
   O   0.6031238  -0.2773722  -0.4915685 SPIN=   0.00000
   O   0.0878239  -0.1412315  -0.3183945 SPIN=   0.00000
   O   0.6033104   0.0741720  -0.2972454 SPIN=   0.00000
   O   0.6016989  -0.2216936  -0.1647044 SPIN=   0.00000
   S  -0.4253802   0.0000000  -0.0000000 SPIN=   0.00000
   S  -0.3926241   1.0000000   0.5000000 SPIN=   0.00000
   F   0.1056238   0.5395755   0.2482847 SPIN=   0.00000
   F   0.1056238  -0.5395755  -0.2482847 SPIN=   0.00000
%ENDBLOCK POSITIONS_FRAC

# Note: total spin =   8.00

KPOINTS_MP_SPACING 0.07

%BLOCK SPECIES_POT
QC5
%ENDBLOCK SPECIES_POT

SNAP_TO_SYMMETRY
SYMMETRY_GENERATE

