#              Generated by Buildcell
#
# at 00:11:40 (GMT+1.0) 19th August 2020
# in /scratch/scratch/uccabz1/launch_tmp
# on node-k10g-003
# by uccabz1
#
# compiler GCC version 4.9.2
# options -cpp -iprefix /scratch/UCL/applications/gcc/4.9.2/bin/../lib/gcc/x86_64-unknown-linux-gnu/4.9.2/ -mtune=corei7 -march=x86-64 -g -O2
#
# seed  -398314795   687509119 -1630267816   998734854  -350934619  1303595916   996433767  1120782356  -698846965 -1220842971  1118047327 -1288157531
#
#      Author: C. J. Pickard (cjp20@cam.ac.uk)
#                Space group: P21
#

%BLOCK LATTICE_ABC
      3.92271      5.70544      8.96848
     94.85934     90.00000     90.00000
%ENDBLOCK LATTICE_ABC

%BLOCK POSITIONS_FRAC
  Li  -0.2604974   0.2574618  -0.4439636 SPIN=   0.00000
  Li   0.2395026  -0.2574618   0.4439636 SPIN=   0.00000
  Fe   0.4304045   0.3296560  -0.1473937 SPIN=   4.00000
  Fe  -0.0695955  -0.3296560   0.1473937 SPIN=   4.00000
   O  -0.4995228  -0.1512450  -0.1535697 SPIN=   0.00000
   O   0.0413535  -0.3692603  -0.1323792 SPIN=   0.00000
   O   0.0413535   0.0660694  -0.1071084 SPIN=   0.00000
   O  -0.0659831  -0.1491693  -0.3539331 SPIN=   0.00000
   S  -0.1206997  -0.1509013  -0.1867476 SPIN=   0.00000
   O   0.0004772   0.1512450   0.1535697 SPIN=   0.00000
   O   0.5413535   0.3692603   0.1323792 SPIN=   0.00000
   O   0.5413535  -0.0660694   0.1071084 SPIN=   0.00000
   O   0.4340169   0.1491693   0.3539331 SPIN=   0.00000
   S   0.3793003   0.1509013   0.1867476 SPIN=   0.00000
   F   0.2899982   0.3236821  -0.3776947 SPIN=   0.00000
   F  -0.2100018  -0.3236821   0.3776947 SPIN=   0.00000
%ENDBLOCK POSITIONS_FRAC

# Note: total spin =   8.00

KPOINTS_MP_SPACING 0.07

%BLOCK SPECIES_POT
QC5
%ENDBLOCK SPECIES_POT

SNAP_TO_SYMMETRY
SYMMETRY_GENERATE

