#              Generated by Buildcell
#
# at 05:00:15 (GMT+1.0) 4th August 2020
# in /lustre/scratch/uccabz1/launch_tmp
# on node-c12l-013
# by uccabz1
#
# compiler GCC version 4.9.2
# options -cpp -iprefix /lustre/shared/ucl/apps/gcc/4.9.2/bin/../lib/gcc/x86_64-unknown-linux-gnu/4.9.2/ -mtune=corei7 -march=x86-64 -g -Og
#
# seed   901092921   422759800  2038401509  1576189277  -863215341   174806046  -765167815 -2118747977  1804011694   962666176   211493304   517375512
#
#      Author: C. J. Pickard (cjp20@cam.ac.uk)
#                Space group: Cc
#

%BLOCK LATTICE_ABC
      5.62566      5.62566      7.13661
     70.75570     70.75570     89.62320
%ENDBLOCK LATTICE_ABC

%BLOCK POSITIONS_FRAC
  Li  -0.1508326   0.3254584  -0.1930627 SPIN=   0.00000
  Li   0.3254584  -0.1508326   0.3069373 SPIN=   0.00000
  Fe  -0.4115345   0.4076495   0.4848526 SPIN=   4.00000
  Fe   0.4076495  -0.4115345  -0.0151474 SPIN=   4.00000
   O  -0.1141653   0.0580690  -0.3120349 SPIN=   0.00000
   O   0.0668252  -0.3006188  -0.4162697 SPIN=   0.00000
   O  -0.1777164  -0.3683452  -0.0406928 SPIN=   0.00000
   O   0.2470654  -0.1221587  -0.2116298 SPIN=   0.00000
   S   0.0055022  -0.1832634  -0.2451568 SPIN=   0.00000
   O   0.0580690  -0.1141653   0.1879651 SPIN=   0.00000
   O  -0.3006188   0.0668252   0.0837303 SPIN=   0.00000
   O  -0.3683452  -0.1777164   0.4593072 SPIN=   0.00000
   O  -0.1221587   0.2470654   0.2883702 SPIN=   0.00000
   S  -0.1832634   0.0055022   0.2548432 SPIN=   0.00000
   F   0.2402473   0.4790494   0.3195143 SPIN=   0.00000
   F   0.4790494   0.2402473  -0.1804857 SPIN=   0.00000
%ENDBLOCK POSITIONS_FRAC

# Note: total spin =   8.00

KPOINTS_MP_SPACING 0.07

%BLOCK SPECIES_POT
QC5
%ENDBLOCK SPECIES_POT

SNAP_TO_SYMMETRY
SYMMETRY_GENERATE

