#              Generated by Buildcell
#
# at 22:34:49 (GMT+1.0) 18th August 2020
# in /lustre/scratch/uccabz1/launch_tmp
# on node-c12e-001
# by uccabz1
#
# compiler GCC version 4.9.2
# options -cpp -iprefix /lustre/shared/ucl/apps/gcc/4.9.2/bin/../lib/gcc/x86_64-unknown-linux-gnu/4.9.2/ -mtune=corei7 -march=x86-64 -g -Og
#
# seed  2008148496  2062117440  1308768156  1359055073   790368768  1675112148 -1204220607  1929311736  -279654110 -1994265449 -1833722478   576791786
#
#      Author: C. J. Pickard (cjp20@cam.ac.uk)
#                Space group: P21/c
#

%BLOCK LATTICE_ABC
      5.56699      5.57573      6.44329
     90.03491     90.00000     90.00000
%ENDBLOCK LATTICE_ABC

%BLOCK POSITIONS_FRAC
  Li   0.0000000  -0.5000000   0.5000000 SPIN=   0.00000
  Li   0.5000000   0.0000000   0.5000000 SPIN=   0.00000
  Fe  -0.0000000   0.0000000   0.0000000 SPIN=   4.00000
  Fe   0.5000000  -0.5000000  -0.0000000 SPIN=   4.00000
   O   0.2926602  -0.3472249  -0.6189898 SPIN=   0.00000
   O   0.1859599  -0.1319233  -0.2958862 SPIN=   0.00000
   O  -0.2073398  -0.1527751   0.6189898 SPIN=   0.00000
   O  -0.3140401  -0.3680767   0.2958862 SPIN=   0.00000
   O  -0.2926602   0.3472249   0.6189898 SPIN=   0.00000
   O  -0.1859599   0.1319233   0.2958862 SPIN=   0.00000
   O   0.2073398   0.1527751  -0.6189898 SPIN=   0.00000
   O   0.3140401   0.3680767  -0.2958862 SPIN=   0.00000
   S  -0.0000000   0.0000000   0.5000000 SPIN=   0.00000
   S  -0.5000000   0.5000000   0.5000000 SPIN=   0.00000
   F  -0.0000000  -0.5000000   0.0000000 SPIN=   0.00000
   F   0.5000000   0.0000000   0.0000000 SPIN=   0.00000
%ENDBLOCK POSITIONS_FRAC

# Note: total spin =   8.00

KPOINTS_MP_SPACING 0.07

%BLOCK SPECIES_POT
QC5
%ENDBLOCK SPECIES_POT

SNAP_TO_SYMMETRY
SYMMETRY_GENERATE

