#              Generated by Buildcell
#
# at 05:34:37 (GMT+1.0) 4th August 2020
# in /lustre/scratch/uccabz1/launch_tmp
# on node-c12f-026
# by uccabz1
#
# compiler GCC version 4.9.2
# options -cpp -iprefix /lustre/shared/ucl/apps/gcc/4.9.2/bin/../lib/gcc/x86_64-unknown-linux-gnu/4.9.2/ -mtune=corei7 -march=x86-64 -g -Og
#
# seed   575853579  1302306786  -554548502 -2065964203 -1387064746   -36529108 -1120076883  1589767680  2129191487  -392537474 -1482983466 -1464234727
#
#      Author: C. J. Pickard (cjp20@cam.ac.uk)
#                Space group: P2/c
#

%BLOCK LATTICE_ABC
      3.94075      7.06898      7.20730
     90.00000     95.03370     90.00000
%ENDBLOCK LATTICE_ABC

%BLOCK POSITIONS_FRAC
  Li   0.5000000   0.3410291  -0.2500000 SPIN=   0.00000
  Li  -0.5000000  -0.3410291   0.2500000 SPIN=   0.00000
  Fe  -0.0000000  -0.0000000   0.0000000 SPIN=   4.00000
  Fe  -0.0000000   0.0000000  -0.5000000 SPIN=   4.00000
   O   0.2253052   0.5202987  -0.3935145 SPIN=   0.00000
   O   0.3596245   0.2439224  -0.5847583 SPIN=   0.00000
   O  -0.2253052   0.5202987  -0.1064855 SPIN=   0.00000
   O  -0.3596245   0.2439224   0.0847583 SPIN=   0.00000
   O  -0.2253052  -0.5202987   0.3935145 SPIN=   0.00000
   O  -0.3596245  -0.2439224   0.5847583 SPIN=   0.00000
   O   0.2253052  -0.5202987   0.1064855 SPIN=   0.00000
   O   0.3596245  -0.2439224  -0.0847583 SPIN=   0.00000
   S  -0.0000000  -0.3831243  -0.2500000 SPIN=   0.00000
   S  -0.0000000   0.3831243   0.2500000 SPIN=   0.00000
   F  -0.5000000   0.0760368  -0.2500000 SPIN=   0.00000
   F   0.5000000  -0.0760368   0.2500000 SPIN=   0.00000
%ENDBLOCK POSITIONS_FRAC

# Note: total spin =   8.00

KPOINTS_MP_SPACING 0.07

%BLOCK SPECIES_POT
QC5
%ENDBLOCK SPECIES_POT

SNAP_TO_SYMMETRY
SYMMETRY_GENERATE

