#              Generated by Buildcell
#
# at 23:17:27 (GMT+1.0) 18th August 2020
# in /lustre/scratch/uccabz1/launch_tmp
# on node-c12j-021
# by uccabz1
#
# compiler GCC version 4.9.2
# options -cpp -iprefix /lustre/shared/ucl/apps/gcc/4.9.2/bin/../lib/gcc/x86_64-unknown-linux-gnu/4.9.2/ -mtune=corei7 -march=x86-64 -g -Og
#
# seed  1210718997   500662816  -681094957 -1311614949 -1114983742  -967358690  1637654434   226850900 -1866997929  1499728253  -402015225    99513915
#
#      Author: C. J. Pickard (cjp20@cam.ac.uk)
#                Space group: P-1
#

%BLOCK LATTICE_ABC
      4.67019      6.46836      7.60420
    104.80259     99.00454    110.61981
%ENDBLOCK LATTICE_ABC

%BLOCK POSITIONS_FRAC
  Li  -0.2689505  -0.7394099  -0.2473266 SPIN=   0.00000
  Li   0.2689505   0.7394099   0.2473266 SPIN=   0.00000
  Fe   0.0803602  -0.0644003  -0.2820686 SPIN=   4.00000
  Fe  -0.0803602   0.0644003   0.2820686 SPIN=   4.00000
   O   0.8983325   0.7688439   0.3453469 SPIN=   0.00000
   O   0.9037163   0.3747455   0.2607394 SPIN=   0.00000
   O   0.4299844   0.4260040   0.1185373 SPIN=   0.00000
   S   0.6981801   0.5091532   0.2954919 SPIN=   0.00000
   O  -0.8983325  -0.7688439  -0.3453469 SPIN=   0.00000
   O  -0.9037163  -0.3747455  -0.2607394 SPIN=   0.00000
   O  -0.4299844  -0.4260040  -0.1185373 SPIN=   0.00000
   S  -0.6981801  -0.5091532  -0.2954919 SPIN=   0.00000
   O   0.0000000  -0.5000000   0.0000000 SPIN=   0.00000
   O  -0.5000000  -0.5000000  -0.5000000 SPIN=   0.00000
   F  -0.5000000   0.0000000  -0.5000000 SPIN=   0.00000
   F  -0.0000000  -0.0000000  -0.0000000 SPIN=   0.00000
%ENDBLOCK POSITIONS_FRAC

# Note: total spin =   8.00

KPOINTS_MP_SPACING 0.07

%BLOCK SPECIES_POT
QC5
%ENDBLOCK SPECIES_POT

SNAP_TO_SYMMETRY
SYMMETRY_GENERATE

