#              Generated by Buildcell
#
# at 02:46:06 (GMT+1.0) 19th August 2020
# in /lustre/scratch/uccabz1/launch_tmp
# on node-c12f-017
# by uccabz1
#
# compiler GCC version 4.9.2
# options -cpp -iprefix /lustre/shared/ucl/apps/gcc/4.9.2/bin/../lib/gcc/x86_64-unknown-linux-gnu/4.9.2/ -mtune=corei7 -march=x86-64 -g -Og
#
# seed -1621663913   206476051 -1731239743  2125901539  -461221691  1487408596 -1316547399  1462525570  1341704497 -1680188479  -184996401  -347399031
#
#      Author: C. J. Pickard (cjp20@cam.ac.uk)
#                Space group: Cm
#

%BLOCK LATTICE_ABC
      3.83840      7.43033      8.10683
    114.62867     98.99368    100.10591
%ENDBLOCK LATTICE_ABC

%BLOCK POSITIONS_FRAC
  Li   0.3384977  -0.0704365   0.3977500 SPIN=   0.00000
  Li  -0.0592522  -0.4681865  -0.3977500 SPIN=   0.00000
  Fe  -0.1486386  -0.0422772  -0.2560023 SPIN=   4.00000
  Fe   0.1073637   0.2137251   0.2560023 SPIN=   4.00000
   O   0.2435729   0.3489758   0.5513831 SPIN=   0.00000
   O   0.7632705   0.5153682   0.8349780 SPIN=   0.00000
   O   0.5767924   0.1369160   0.6465091 SPIN=   0.00000
   O   0.1796941   0.3117904   0.8355048 SPIN=   0.00000
   S   0.4408325   0.3282626   0.7170937 SPIN=   0.00000
   O  -0.3078102  -0.2024073  -0.5513831 SPIN=   0.00000
   O  -0.0717075  -0.3196098  -0.8349780 SPIN=   0.00000
   O  -0.0697167  -0.5095931  -0.6465091 SPIN=   0.00000
   O  -0.6558107  -0.5237144  -0.8355048 SPIN=   0.00000
   S  -0.2762613  -0.3888311  -0.7170937 SPIN=   0.00000
   F  -0.5982784  -0.1680940  -0.2617735 SPIN=   0.00000
   F  -0.3365049   0.0936795   0.2617735 SPIN=   0.00000
%ENDBLOCK POSITIONS_FRAC

# Note: total spin =   8.00

KPOINTS_MP_SPACING 0.07

%BLOCK SPECIES_POT
QC5
%ENDBLOCK SPECIES_POT

SNAP_TO_SYMMETRY
SYMMETRY_GENERATE

