#              Generated by Buildcell
#
# at 01:39:23 (GMT+1.0) 19th August 2020
# in /lustre/scratch/uccabz1/launch_tmp
# on node-c12i-018
# by uccabz1
#
# compiler GCC version 4.9.2
# options -cpp -iprefix /lustre/shared/ucl/apps/gcc/4.9.2/bin/../lib/gcc/x86_64-unknown-linux-gnu/4.9.2/ -mtune=corei7 -march=x86-64 -g -Og
#
# seed   701794201 -2040788707 -1133266408  -334103745  -913767995  1938814125   219809230  1621209272   293748776 -1695360562  1005153409  1063612226
#
#      Author: C. J. Pickard (cjp20@cam.ac.uk)
#                Space group: Cm
#

%BLOCK LATTICE_ABC
      3.98323      7.75562      7.75562
     60.78691     75.40936     75.40936
%ENDBLOCK LATTICE_ABC

%BLOCK POSITIONS_FRAC
  Li  -0.3777656   0.3280757  -0.1750427 SPIN=   0.00000
  Li  -0.3777656  -0.1750427   0.3280757 SPIN=   0.00000
  Fe   0.2901504  -0.3262131   0.1429170 SPIN=   4.00000
  Fe   0.2901504   0.1429170  -0.3262131 SPIN=   4.00000
   O   0.1312145  -0.0370373   0.2651994 SPIN=   0.00000
   O  -0.4040469  -0.0499803   0.5139918 SPIN=   0.00000
   O   0.0382320   0.1540251   0.4564453 SPIN=   0.00000
   S  -0.0153295  -0.0370592   0.4654994 SPIN=   0.00000
   O   0.1312145   0.2651994  -0.0370373 SPIN=   0.00000
   O  -0.4040469   0.5139918  -0.0499803 SPIN=   0.00000
   O   0.0382320   0.4564453   0.1540251 SPIN=   0.00000
   S  -0.0153295   0.4654994  -0.0370592 SPIN=   0.00000
   O  -0.2978324   0.0439066   0.0439066 SPIN=   0.00000
   O   0.1152244  -0.2496634  -0.2496634 SPIN=   0.00000
   F   0.3276750  -0.0845759  -0.0845759 SPIN=   0.00000
   F  -0.4780427   0.4795150   0.4795150 SPIN=   0.00000
%ENDBLOCK POSITIONS_FRAC

# Note: total spin =   8.00

KPOINTS_MP_SPACING 0.07

%BLOCK SPECIES_POT
QC5
%ENDBLOCK SPECIES_POT

SNAP_TO_SYMMETRY
SYMMETRY_GENERATE

