#              Generated by Buildcell
#
# at 02:04:23 (GMT+1.0) 19th August 2020
# in /lustre/scratch/uccabz1/launch_tmp
# on node-c12g-024
# by uccabz1
#
# compiler GCC version 4.9.2
# options -cpp -iprefix /lustre/shared/ucl/apps/gcc/4.9.2/bin/../lib/gcc/x86_64-unknown-linux-gnu/4.9.2/ -mtune=corei7 -march=x86-64 -g -Og
#
# seed  -558658372  1738039942  1966624404 -1977280678   117333505 -1805845569 -1076521191  1990054062 -1528572857  -422529116 -1673120845   336064910
#
#      Author: C. J. Pickard (cjp20@cam.ac.uk)
#                Space group: Cc
#

%BLOCK LATTICE_ABC
      5.14170      5.14170      8.71820
    100.15366    100.15366    113.57877
%ENDBLOCK LATTICE_ABC

%BLOCK POSITIONS_FRAC
  Li  -0.2581994  -0.1539949   0.1564290 SPIN=   0.00000
  Li   0.3460051   0.2418006  -0.3435710 SPIN=   0.00000
  Fe   0.0565032  -0.3889318   0.4248337 SPIN=   4.00000
  Fe   0.1110682  -0.4434968  -0.0751663 SPIN=   4.00000
   O   0.4940445   0.4989585   0.3079194 SPIN=   0.00000
   O   0.1521494   0.0695324   0.0758336 SPIN=   0.00000
   O   0.1169418   0.0594348   0.3543885 SPIN=   0.00000
   O   0.5425550   0.0335549   0.2694305 SPIN=   0.00000
   S   0.3264227   0.1653701   0.2518930 SPIN=   0.00000
   O  -0.0010415  -0.0059555  -0.1920806 SPIN=   0.00000
   O  -0.4304676  -0.3478506  -0.4241664 SPIN=   0.00000
   O  -0.4405652  -0.3830582  -0.1456115 SPIN=   0.00000
   O  -0.4664451   0.0425550  -0.2305695 SPIN=   0.00000
   S  -0.3346299  -0.1735773  -0.2481070 SPIN=   0.00000
   F  -0.0630818   0.3757088  -0.4292731 SPIN=   0.00000
   F  -0.1242912   0.4369182   0.0707269 SPIN=   0.00000
%ENDBLOCK POSITIONS_FRAC

# Note: total spin =   8.00

KPOINTS_MP_SPACING 0.07

%BLOCK SPECIES_POT
QC5
%ENDBLOCK SPECIES_POT

SNAP_TO_SYMMETRY
SYMMETRY_GENERATE

