#              Generated by Buildcell
#
# at 04:30:22 (GMT+1.0) 4th August 2020
# in /lustre/scratch/uccabz1/launch_tmp
# on node-c12f-003
# by uccabz1
#
# compiler GCC version 4.9.2
# options -cpp -iprefix /lustre/shared/ucl/apps/gcc/4.9.2/bin/../lib/gcc/x86_64-unknown-linux-gnu/4.9.2/ -mtune=corei7 -march=x86-64 -g -Og
#
# seed -1766246762  -693051433  -474128887   583988750 -1884552293 -1553878471 -1389027948 -1206676239 -1209326373  1122649262  1280761834  1851971209
#
#      Author: C. J. Pickard (cjp20@cam.ac.uk)
#                Space group: Ama2
#

%BLOCK LATTICE_ABC
      4.91296      4.91296      8.29326
     90.00000     90.00000     92.40185
%ENDBLOCK LATTICE_ABC

%BLOCK POSITIONS_FRAC
  Li   0.4027106   0.0086960  -0.2500000 SPIN=   0.00000
  Li  -0.0086960  -0.4027106   0.2500000 SPIN=   0.00000
  Fe  -0.4174717   0.1303154   0.2500000 SPIN=   4.00000
  Fe  -0.1303154   0.4174717  -0.2500000 SPIN=   4.00000
   O   0.3238238   0.4017491   0.3849522 SPIN=   0.00000
   O   0.2638067  -0.1009184   0.3830916 SPIN=   0.00000
   O  -0.4017491  -0.3238238  -0.3849522 SPIN=   0.00000
   O   0.1009184  -0.2638067  -0.3830916 SPIN=   0.00000
   O  -0.4017491  -0.3238238  -0.1150478 SPIN=   0.00000
   O   0.1009184  -0.2638067  -0.1169084 SPIN=   0.00000
   O   0.3238238   0.4017491   0.1150478 SPIN=   0.00000
   O   0.2638067  -0.1009184   0.1169084 SPIN=   0.00000
   S   0.3499043  -0.3499043   0.0000000 SPIN=   0.00000
   S   0.3499043  -0.3499043  -0.5000000 SPIN=   0.00000
   F  -0.1701999   0.1701999   0.0000000 SPIN=   0.00000
   F  -0.1701999   0.1701999  -0.5000000 SPIN=   0.00000
%ENDBLOCK POSITIONS_FRAC

# Note: total spin =   8.00

KPOINTS_MP_SPACING 0.07

%BLOCK SPECIES_POT
QC5
%ENDBLOCK SPECIES_POT

SNAP_TO_SYMMETRY
SYMMETRY_GENERATE

