#              Generated by Buildcell
#
# at 03:48:27 (GMT+1.0) 4th August 2020
# in /lustre/scratch/uccabz1/launch_tmp
# on node-c12k-034
# by uccabz1
#
# compiler GCC version 4.9.2
# options -cpp -iprefix /lustre/shared/ucl/apps/gcc/4.9.2/bin/../lib/gcc/x86_64-unknown-linux-gnu/4.9.2/ -mtune=corei7 -march=x86-64 -g -Og
#
# seed -2046505065  1631462275  1995969943   724187121 -1706762127  1506862921   676453687  1308454207  -857430062    87430213  1945603397 -1121474929
#
#      Author: C. J. Pickard (cjp20@cam.ac.uk)
#                Space group: P21
#

%BLOCK LATTICE_ABC
      4.42656      6.32628      7.20993
     90.00000     97.87545     90.00000
%ENDBLOCK LATTICE_ABC

%BLOCK POSITIONS_FRAC
  Li  -0.2661016   0.0754010  -0.4105825 SPIN=   0.00000
  Li   0.2661016  -0.4245990   0.4105825 SPIN=   0.00000
  Fe  -0.0073095  -0.0949126   0.1289225 SPIN=   4.00000
  Fe   0.0073095   0.4050874  -0.1289225 SPIN=   4.00000
   O  -0.3496939   0.3607325   0.4083734 SPIN=   0.00000
   O  -0.8340448   0.3018386   0.1991395 SPIN=   0.00000
   O  -0.4228309   0.0344610   0.2181281 SPIN=   0.00000
   O  -0.3606421   0.3786315   0.0646173 SPIN=   0.00000
   S  -0.4918029   0.2689159   0.2225646 SPIN=   0.00000
   O   0.3496939  -0.1392675  -0.4083734 SPIN=   0.00000
   O   0.8340448  -0.1981614  -0.1991395 SPIN=   0.00000
   O   0.4228309  -0.4655390  -0.2181281 SPIN=   0.00000
   O   0.3606421  -0.1213685  -0.0646173 SPIN=   0.00000
   S   0.4918029  -0.2310841  -0.2225646 SPIN=   0.00000
   F  -0.1242036  -0.2643979   0.3871450 SPIN=   0.00000
   F   0.1242036   0.2356021  -0.3871450 SPIN=   0.00000
%ENDBLOCK POSITIONS_FRAC

# Note: total spin =   8.00

KPOINTS_MP_SPACING 0.07

%BLOCK SPECIES_POT
QC5
%ENDBLOCK SPECIES_POT

SNAP_TO_SYMMETRY
SYMMETRY_GENERATE

