#              Generated by Buildcell
#
# at 05:42:23 (GMT+1.0) 4th August 2020
# in /lustre/scratch/uccabz1/launch_tmp
# on node-c12e-017
# by uccabz1
#
# compiler GCC version 4.9.2
# options -cpp -iprefix /lustre/shared/ucl/apps/gcc/4.9.2/bin/../lib/gcc/x86_64-unknown-linux-gnu/4.9.2/ -mtune=corei7 -march=x86-64 -g -Og
#
# seed  -309261874  -787583401  1576546243   463144690  1286766172  -193675816 -1429741158  1052839287  1431213312   305929553  -463940471  1149073917
#
#      Author: C. J. Pickard (cjp20@cam.ac.uk)
#                Space group: P2
#

%BLOCK LATTICE_ABC
      4.75177      6.35756      6.62194
     90.00000     90.00000     91.23683
%ENDBLOCK LATTICE_ABC

%BLOCK POSITIONS_FRAC
  Li   0.2433754   0.2707168   0.0379751 SPIN=   0.00000
  Li  -0.2433754  -0.2707168   0.0379751 SPIN=   0.00000
  Fe   0.2570705  -0.2553431  -0.2561340 SPIN=   4.00000
  Fe  -0.2570705   0.2553431  -0.2561340 SPIN=   4.00000
   O  -0.0531839   0.1849886   0.4160720 SPIN=   0.00000
   O  -0.2476935   0.4917289   0.2380331 SPIN=   0.00000
   O  -0.5525457   0.1800779   0.3096315 SPIN=   0.00000
   O  -0.1750148   0.1588011   0.0534423 SPIN=   0.00000
   S  -0.2571095   0.2538991   0.2542947 SPIN=   0.00000
   O   0.0531839  -0.1849886   0.4160720 SPIN=   0.00000
   O   0.2476935  -0.4917289   0.2380331 SPIN=   0.00000
   O   0.5525457  -0.1800779   0.3096315 SPIN=   0.00000
   O   0.1750148  -0.1588011   0.0534423 SPIN=   0.00000
   S   0.2571095  -0.2538991   0.2542947 SPIN=   0.00000
   F   0.2813360   0.2245950  -0.2406392 SPIN=   0.00000
   F  -0.2813360  -0.2245950  -0.2406392 SPIN=   0.00000
%ENDBLOCK POSITIONS_FRAC

# Note: total spin =   8.00

KPOINTS_MP_SPACING 0.07

%BLOCK SPECIES_POT
QC5
%ENDBLOCK SPECIES_POT

SNAP_TO_SYMMETRY
SYMMETRY_GENERATE

