#              Generated by Buildcell
#
# at 21:13:10 (GMT+1.0) 18th August 2020
# in /scratch/scratch/uccabz1/launch_tmp
# on node-k10h-029
# by uccabz1
#
# compiler GCC version 4.9.2
# options -cpp -iprefix /scratch/UCL/applications/gcc/4.9.2/bin/../lib/gcc/x86_64-unknown-linux-gnu/4.9.2/ -mtune=corei7 -march=x86-64 -g -O2
#
# seed  -892174649   527324463 -1665261127 -1597576770   701512470  1564376632   845303933  1099388096   352493871  2004086349  -656444056  1313743735
#
#      Author: C. J. Pickard (cjp20@cam.ac.uk)
#                Space group: P-1
#

%BLOCK LATTICE_ABC
      5.39848      5.69025      7.36374
    108.95470    100.57064    103.17441
%ENDBLOCK LATTICE_ABC

%BLOCK POSITIONS_FRAC
  Li  -0.2164901   0.4663128   0.1768530 SPIN=   0.00000
  Li   0.2164901  -0.4663128  -0.1768530 SPIN=   0.00000
  Fe  -0.7894209  -0.1842034  -0.4589322 SPIN=   4.00000
  Fe   0.7894209   0.1842034   0.4589322 SPIN=   4.00000
   O   0.4478880   0.1631256   0.1235950 SPIN=   0.00000
   O   0.0025848   0.2198965   0.0812192 SPIN=   0.00000
   O   0.3761548   0.5393955   0.3692350 SPIN=   0.00000
   O   0.1867791   0.0926046   0.3551863 SPIN=   0.00000
   S   0.2533517   0.2537556   0.2323089 SPIN=   0.00000
   O  -0.4478880  -0.1631256  -0.1235950 SPIN=   0.00000
   O  -0.0025848  -0.2198965  -0.0812192 SPIN=   0.00000
   O  -0.3761548  -0.5393955  -0.3692350 SPIN=   0.00000
   O  -0.1867791  -0.0926046  -0.3551863 SPIN=   0.00000
   S  -0.2533517  -0.2537556  -0.2323089 SPIN=   0.00000
   F  -0.6668385   0.1496490  -0.2449801 SPIN=   0.00000
   F   0.6668385  -0.1496490   0.2449801 SPIN=   0.00000
%ENDBLOCK POSITIONS_FRAC

# Note: total spin =   8.00

KPOINTS_MP_SPACING 0.07

%BLOCK SPECIES_POT
QC5
%ENDBLOCK SPECIES_POT

SNAP_TO_SYMMETRY
SYMMETRY_GENERATE

