#              Generated by Buildcell
#
# at 05:06:42 (GMT+1.0) 4th August 2020
# in /lustre/scratch/uccabz1/launch_tmp
# on node-c12l-015
# by uccabz1
#
# compiler GCC version 4.9.2
# options -cpp -iprefix /lustre/shared/ucl/apps/gcc/4.9.2/bin/../lib/gcc/x86_64-unknown-linux-gnu/4.9.2/ -mtune=corei7 -march=x86-64 -g -Og
#
# seed  1700643901  1805212053  1112680256 -2063075648   304187766 -2010051414 -1100957027   679251286  -958024645  1047882196  -463404327 -1986733110
#
#      Author: C. J. Pickard (cjp20@cam.ac.uk)
#                Space group: C2
#

%BLOCK LATTICE_ABC
      4.08103      6.05833      8.36800
     94.46396    104.11375     90.00000
%ENDBLOCK LATTICE_ABC

%BLOCK POSITIONS_FRAC
  Li  -0.4175190  -0.2787219  -0.3972888 SPIN=   0.00000
  Li  -0.0202302   0.2787219   0.3972888 SPIN=   0.00000
  Fe   0.2159799  -0.2640104  -0.1302744 SPIN=   4.00000
  Fe   0.3462543   0.2640104   0.1302744 SPIN=   4.00000
   O   0.5856221  -0.4110585   0.3337811 SPIN=   0.00000
   O   0.3464044  -0.0549412   0.4117511 SPIN=   0.00000
   O   0.0111578  -0.3091259   0.1849034 SPIN=   0.00000
   O   0.5111667  -0.1091246   0.1458936 SPIN=   0.00000
   S   0.3635878  -0.2210626   0.2690823 SPIN=   0.00000
   O   0.2518410   0.4110585  -0.3337811 SPIN=   0.00000
   O  -0.0653467   0.0549412  -0.4117511 SPIN=   0.00000
   O  -0.1737456   0.3091259  -0.1849034 SPIN=   0.00000
   O   0.3652730   0.1091246  -0.1458936 SPIN=   0.00000
   S   0.0945054   0.2210626  -0.2690823 SPIN=   0.00000
   F  -0.1974261   0.2654041   0.1432561 SPIN=   0.00000
   F  -0.3406822  -0.2654041  -0.1432561 SPIN=   0.00000
%ENDBLOCK POSITIONS_FRAC

# Note: total spin =   8.00

KPOINTS_MP_SPACING 0.07

%BLOCK SPECIES_POT
QC5
%ENDBLOCK SPECIES_POT

SNAP_TO_SYMMETRY
SYMMETRY_GENERATE

