#              Generated by Buildcell
#
# at 03:54:36 (GMT+1.0) 4th August 2020
# in /lustre/scratch/uccabz1/launch_tmp
# on node-c12k-002
# by uccabz1
#
# compiler GCC version 4.9.2
# options -cpp -iprefix /lustre/shared/ucl/apps/gcc/4.9.2/bin/../lib/gcc/x86_64-unknown-linux-gnu/4.9.2/ -mtune=corei7 -march=x86-64 -g -Og
#
# seed   650673781  -345747375   145605478 -1674871125  -488709442  1562553402 -1622608043  -402811097 -1310909811   284957930  1017045147  -254179023
#
#      Author: C. J. Pickard (cjp20@cam.ac.uk)
#                Space group: C2
#

%BLOCK LATTICE_ABC
      3.98050      3.98108     14.58433
     91.98063     90.00000    119.99523
%ENDBLOCK LATTICE_ABC

%BLOCK POSITIONS_FRAC
  Li  -0.3712665  -0.5917720  -0.2502136 SPIN=   0.00000
  Li   0.2205056   0.5917720   0.2502136 SPIN=   0.00000
  Fe   0.2449507  -0.3625551  -0.3951330 SPIN=   4.00000
  Fe  -0.3924942   0.3625551   0.3951330 SPIN=   4.00000
   O  -0.3015105  -0.3574272   0.0633410 SPIN=   0.00000
   O  -0.2233407  -0.1701779   0.2288811 SPIN=   0.00000
   O  -0.0012796   0.3349977   0.1132884 SPIN=   0.00000
   O   0.3528562  -0.0201685   0.1363347 SPIN=   0.00000
   S  -0.0433187  -0.0531940   0.1354613 SPIN=   0.00000
   O   0.0559167   0.3574272  -0.0633410 SPIN=   0.00000
   O  -0.0531628   0.1701779  -0.2288811 SPIN=   0.00000
   O  -0.3362773  -0.3349977  -0.1132884 SPIN=   0.00000
   O   0.3730247   0.0201685  -0.1363347 SPIN=   0.00000
   S   0.0098753   0.0531940  -0.1354613 SPIN=   0.00000
   F   0.0838883   0.2660771   0.3956265 SPIN=   0.00000
   F  -0.1821888  -0.2660771  -0.3956265 SPIN=   0.00000
%ENDBLOCK POSITIONS_FRAC

# Note: total spin =   8.00

KPOINTS_MP_SPACING 0.07

%BLOCK SPECIES_POT
QC5
%ENDBLOCK SPECIES_POT

SNAP_TO_SYMMETRY
SYMMETRY_GENERATE

