#              Generated by Buildcell
#
# at 04:38:19 (GMT+1.0) 4th August 2020
# in /lustre/scratch/uccabz1/launch_tmp
# on node-c12g-020
# by uccabz1
#
# compiler GCC version 4.9.2
# options -cpp -iprefix /lustre/shared/ucl/apps/gcc/4.9.2/bin/../lib/gcc/x86_64-unknown-linux-gnu/4.9.2/ -mtune=corei7 -march=x86-64 -g -Og
#
# seed  1386070588   842998780 -1194406259  -165976657  1469635603  -978904578   803936852   606780712  1858626778  1192468116   657729429   276897253
#
#      Author: C. J. Pickard (cjp20@cam.ac.uk)
#                Space group: P-1
#

%BLOCK LATTICE_ABC
      4.07538      6.64004      7.88629
     72.14968     82.66235     81.19768
%ENDBLOCK LATTICE_ABC

%BLOCK POSITIONS_FRAC
  Li  -0.2403341  -0.2378903   0.1321970 SPIN=   0.00000
  Li   0.2403341   0.2378903  -0.1321970 SPIN=   0.00000
  Fe   0.2450010  -0.6495896   0.2065098 SPIN=   4.00000
  Fe  -0.2450010   0.6495896  -0.2065098 SPIN=   4.00000
   O   0.9038914   0.2621160  -0.5772631 SPIN=   0.00000
   O   0.6243283  -0.0304640  -0.3613854 SPIN=   0.00000
   O   0.3422139   0.3394560  -0.4333816 SPIN=   0.00000
   O   0.8315638   0.2373259  -0.2553885 SPIN=   0.00000
   S   0.6754993   0.2021085  -0.4068547 SPIN=   0.00000
   O  -0.9038914  -0.2621160   0.5772631 SPIN=   0.00000
   O  -0.6243283   0.0304640   0.3613854 SPIN=   0.00000
   O  -0.3422139  -0.3394560   0.4333816 SPIN=   0.00000
   O  -0.8315638  -0.2373259   0.2553885 SPIN=   0.00000
   S  -0.6754993  -0.2021085   0.4068547 SPIN=   0.00000
   F  -0.2112955   0.2263745   0.1194012 SPIN=   0.00000
   F   0.2112955  -0.2263745  -0.1194012 SPIN=   0.00000
%ENDBLOCK POSITIONS_FRAC

# Note: total spin =   8.00

KPOINTS_MP_SPACING 0.07

%BLOCK SPECIES_POT
QC5
%ENDBLOCK SPECIES_POT

SNAP_TO_SYMMETRY
SYMMETRY_GENERATE

