#              Generated by Buildcell
#
# at 18:31:36 (GMT+1.0) 18th August 2020
# in /lustre/scratch/uccabz1/launch_tmp
# on node-c12e-006
# by uccabz1
#
# compiler GCC version 4.9.2
# options -cpp -iprefix /lustre/shared/ucl/apps/gcc/4.9.2/bin/../lib/gcc/x86_64-unknown-linux-gnu/4.9.2/ -mtune=corei7 -march=x86-64 -g -Og
#
# seed  1015534763   337478212 -1489298433 -1640818126 -2134608961  1707230107  2018008118   568411834  -435101381  -212079325  1170666447   -16340421
#
#      Author: C. J. Pickard (cjp20@cam.ac.uk)
#                Space group: Cm
#

%BLOCK LATTICE_ABC
      3.90002      7.70446      7.70446
     64.78718     75.48048     75.48048
%ENDBLOCK LATTICE_ABC

%BLOCK POSITIONS_FRAC
  Li  -0.5116289   0.0652446   0.0652446 SPIN=   0.00000
  Li   0.7163852  -0.4629842  -0.4629842 SPIN=   0.00000
  Fe  -0.3460529  -0.0414274   0.4618601 SPIN=   4.00000
  Fe  -0.3460529   0.4618601  -0.0414274 SPIN=   4.00000
   O  -0.0635898  -0.2982719   0.2357403 SPIN=   0.00000
   O   0.3435646  -0.1419904   0.3021985 SPIN=   0.00000
   O   0.5339339  -0.2553118   0.0311584 SPIN=   0.00000
   S   0.3248928  -0.2975230   0.2352226 SPIN=   0.00000
   O  -0.0635898   0.2357403  -0.2982719 SPIN=   0.00000
   O   0.3435646   0.3021985  -0.1419904 SPIN=   0.00000
   O   0.5339339   0.0311584  -0.2553118 SPIN=   0.00000
   S   0.3248928   0.2352226  -0.2975230 SPIN=   0.00000
   O  -0.0208212   0.0644796   0.0644796 SPIN=   0.00000
   O  -0.3792723   0.4012133   0.4012133 SPIN=   0.00000
   F  -0.7764496   0.2361673   0.2361673 SPIN=   0.00000
   F   0.7260698  -0.3049487  -0.3049487 SPIN=   0.00000
%ENDBLOCK POSITIONS_FRAC

# Note: total spin =   8.00

KPOINTS_MP_SPACING 0.07

%BLOCK SPECIES_POT
QC5
%ENDBLOCK SPECIES_POT

SNAP_TO_SYMMETRY
SYMMETRY_GENERATE

