#              Generated by Buildcell
#
# at 05:31:15 (GMT+1.0) 4th August 2020
# in /lustre/scratch/uccabz1/launch_tmp
# on node-c12a-004
# by uccabz1
#
# compiler GCC version 4.9.2
# options -cpp -iprefix /lustre/shared/ucl/apps/gcc/4.9.2/bin/../lib/gcc/x86_64-unknown-linux-gnu/4.9.2/ -mtune=corei7 -march=x86-64 -g -Og
#
# seed  1165913490  1350878832  2112716331  -795817160 -1082582156  1337839705  -457262911  1483068538 -1087344863 -1443279431  -230418291  -550287460
#
#      Author: C. J. Pickard (cjp20@cam.ac.uk)
#                Space group: C2
#

%BLOCK LATTICE_ABC
      5.52939      5.52939      6.73067
     99.51391     99.51391     90.67910
%ENDBLOCK LATTICE_ABC

%BLOCK POSITIONS_FRAC
  Li  -0.0997409  -0.4820232   0.3076529 SPIN=   0.00000
  Li   0.4820232   0.0997409  -0.3076529 SPIN=   0.00000
  Fe   0.4453057  -0.4453057   0.5000000 SPIN=   3.30304
  Fe  -0.0546983   0.0546983  -0.5000000 SPIN=   4.69696
   O   0.5209274   0.1776461  -0.0010532 SPIN=   0.00000
   O   0.1859238   0.0614151   0.1716014 SPIN=   0.00000
   O   0.0878314   0.2103691  -0.1584637 SPIN=   0.00000
   O   0.2678403   0.4979311   0.1547976 SPIN=   0.00000
   O  -0.1776461  -0.5209274   0.0010532 SPIN=   0.00000
   O  -0.0614151  -0.1859238  -0.1716014 SPIN=   0.00000
   O  -0.2103691  -0.0878314   0.1584637 SPIN=   0.00000
   O  -0.4979311  -0.2678403  -0.1547976 SPIN=   0.00000
   S  -0.1036937   0.1036937   0.0000000 SPIN=   0.00000
   S   0.3984634  -0.3984634  -0.0000000 SPIN=   0.00000
   F   0.1952969  -0.1952969  -0.5000000 SPIN=   0.00000
   F  -0.3046984   0.3046984   0.5000000 SPIN=   0.00000
%ENDBLOCK POSITIONS_FRAC

# Note: total spin =   8.00

KPOINTS_MP_SPACING 0.07

%BLOCK SPECIES_POT
QC5
%ENDBLOCK SPECIES_POT

SNAP_TO_SYMMETRY
SYMMETRY_GENERATE

