#              Generated by Buildcell
#
# at 05:18:31 (GMT+1.0) 4th August 2020
# in /lustre/scratch/uccabz1/launch_tmp
# on node-c12f-027
# by uccabz1
#
# compiler GCC version 4.9.2
# options -cpp -iprefix /lustre/shared/ucl/apps/gcc/4.9.2/bin/../lib/gcc/x86_64-unknown-linux-gnu/4.9.2/ -mtune=corei7 -march=x86-64 -g -Og
#
# seed -1140488650  1279626158  1838779732   395245397  -270458375   305399104  -220849346   630179939 -1546408718 -1241331185  1701041777 -1337870701
#
#      Author: C. J. Pickard (cjp20@cam.ac.uk)
#                Space group: C2
#

%BLOCK LATTICE_ABC
      4.33511      4.33511     10.96459
     80.41324     80.41324     85.14122
%ENDBLOCK LATTICE_ABC

%BLOCK POSITIONS_FRAC
  Li   0.1013840   0.3584456  -0.1548422 SPIN=   0.00000
  Li  -0.3584456  -0.1013840   0.1548422 SPIN=   0.00000
  Fe  -0.4792480   0.3274080   0.3484190 SPIN=   4.00000
  Fe  -0.3274080   0.4792480  -0.3484190 SPIN=   4.00000
   O  -0.0981153  -0.2588279  -0.2275873 SPIN=   0.00000
   O  -0.1600556  -0.2173714  -0.0022994 SPIN=   0.00000
   O  -0.6280006  -0.2343926  -0.1025821 SPIN=   0.00000
   O  -0.3161019   0.2354576  -0.1535220 SPIN=   0.00000
   S  -0.3005684  -0.1187836  -0.1214977 SPIN=   0.00000
   O   0.2588279   0.0981153   0.2275873 SPIN=   0.00000
   O   0.2173714   0.1600556   0.0022994 SPIN=   0.00000
   O   0.2343926   0.6280006   0.1025821 SPIN=   0.00000
   O  -0.2354576   0.3161019   0.1535220 SPIN=   0.00000
   S   0.1187836   0.3005684   0.1214977 SPIN=   0.00000
   F  -0.1676864  -0.2888259   0.3653315 SPIN=   0.00000
   F   0.2888259   0.1676864  -0.3653315 SPIN=   0.00000
%ENDBLOCK POSITIONS_FRAC

# Note: total spin =   8.00

KPOINTS_MP_SPACING 0.07

%BLOCK SPECIES_POT
QC5
%ENDBLOCK SPECIES_POT

SNAP_TO_SYMMETRY
SYMMETRY_GENERATE

