#              Generated by Buildcell
#
# at 02:31:09 (GMT+1.0) 4th August 2020
# in /lustre/scratch/uccabz1/launch_tmp
# on node-c12l-011
# by uccabz1
#
# compiler GCC version 4.9.2
# options -cpp -iprefix /lustre/shared/ucl/apps/gcc/4.9.2/bin/../lib/gcc/x86_64-unknown-linux-gnu/4.9.2/ -mtune=corei7 -march=x86-64 -g -Og
#
# seed  1303878575  1557711818  2040921059 -1305364634 -1607971441  1061104527  -615487215   465510439   360263802  1278581588  1565966074   -94415949
#
#      Author: C. J. Pickard (cjp20@cam.ac.uk)
#                Space group: P21
#

%BLOCK LATTICE_ABC
      5.49030      5.91628      6.16457
     90.00000     92.79523     90.00000
%ENDBLOCK LATTICE_ABC

%BLOCK POSITIONS_FRAC
  Li  -0.2031917  -0.0247636  -0.4469734 SPIN=   0.00000
  Li   0.2031917   0.4752364   0.4469734 SPIN=   0.00000
  Fe  -0.1860376   0.2898910  -0.0626244 SPIN=   4.00000
  Fe   0.1860376  -0.2101090   0.0626244 SPIN=   4.00000
   O   0.0742141   0.1806275  -0.4487319 SPIN=   0.00000
   O   0.4103327  -0.0089476  -0.6307909 SPIN=   0.00000
   O   0.2200714  -0.1947146  -0.3216503 SPIN=   0.00000
   O   0.4798857   0.1431017  -0.2589152 SPIN=   0.00000
   S   0.2961260   0.0300167  -0.4150221 SPIN=   0.00000
   O  -0.0742141  -0.3193725   0.4487319 SPIN=   0.00000
   O  -0.4103327  -0.5089476   0.6307909 SPIN=   0.00000
   O  -0.2200714  -0.6947146   0.3216503 SPIN=   0.00000
   O  -0.4798857  -0.3568983   0.2589152 SPIN=   0.00000
   S  -0.2961260  -0.4699833   0.4150221 SPIN=   0.00000
   F   0.2339345   0.3010116   0.0822563 SPIN=   0.00000
   F  -0.2339345  -0.1989884  -0.0822563 SPIN=   0.00000
%ENDBLOCK POSITIONS_FRAC

# Note: total spin =   8.00

KPOINTS_MP_SPACING 0.07

%BLOCK SPECIES_POT
QC5
%ENDBLOCK SPECIES_POT

SNAP_TO_SYMMETRY
SYMMETRY_GENERATE

