#              Generated by Buildcell
#
# at 03:57:36 (GMT+1.0) 4th August 2020
# in /lustre/scratch/uccabz1/launch_tmp
# on node-c12a-003
# by uccabz1
#
# compiler GCC version 4.9.2
# options -cpp -iprefix /lustre/shared/ucl/apps/gcc/4.9.2/bin/../lib/gcc/x86_64-unknown-linux-gnu/4.9.2/ -mtune=corei7 -march=x86-64 -g -Og
#
# seed  -297010395 -1146412907  1661396995  1252948606 -1590758365  -434855501 -2111456427 -1217995142  1892961861   676461538  -306333924  -464737912
#
#      Author: C. J. Pickard (cjp20@cam.ac.uk)
#                Space group: P21
#

%BLOCK LATTICE_ABC
      4.37972      6.75184      6.82242
     90.00000     97.54568     90.00000
%ENDBLOCK LATTICE_ABC

%BLOCK POSITIONS_FRAC
  Li   0.3914138   0.3588173  -0.0985834 SPIN=   0.00000
  Li  -0.3914138  -0.1411827   0.0985834 SPIN=   0.00000
  Fe  -0.3324726   0.4210296  -0.4694969 SPIN=   4.00000
  Fe   0.3324726  -0.0789704   0.4694969 SPIN=   4.00000
   O  -0.1599364   0.0963354   0.2978772 SPIN=   0.00000
   O   0.2793388   0.2199164   0.1387376 SPIN=   0.00000
   O  -0.1799037   0.4312524   0.1493273 SPIN=   0.00000
   O  -0.2123526   0.1347975  -0.0657496 SPIN=   0.00000
   S  -0.0682135   0.2205754   0.1300481 SPIN=   0.00000
   O   0.1599364  -0.4036646  -0.2978772 SPIN=   0.00000
   O  -0.2793388  -0.2800836  -0.1387376 SPIN=   0.00000
   O   0.1799037  -0.0687476  -0.1493273 SPIN=   0.00000
   O   0.2123526  -0.3652025   0.0657496 SPIN=   0.00000
   S   0.0682135  -0.2794246  -0.1300481 SPIN=   0.00000
   F   0.3751054   0.2162651  -0.4191208 SPIN=   0.00000
   F  -0.3751054  -0.2837349   0.4191208 SPIN=   0.00000
%ENDBLOCK POSITIONS_FRAC

# Note: total spin =   8.00

KPOINTS_MP_SPACING 0.07

%BLOCK SPECIES_POT
QC5
%ENDBLOCK SPECIES_POT

SNAP_TO_SYMMETRY
SYMMETRY_GENERATE

