#              Generated by Buildcell
#
# at 22:44:26 (GMT+1.0) 18th August 2020
# in /lustre/scratch/uccabz1/launch_tmp
# on node-c12c-010
# by uccabz1
#
# compiler GCC version 4.9.2
# options -cpp -iprefix /lustre/shared/ucl/apps/gcc/4.9.2/bin/../lib/gcc/x86_64-unknown-linux-gnu/4.9.2/ -mtune=corei7 -march=x86-64 -g -Og
#
# seed   642996158   897632488  1175105196 -1572758482   704311328  1063362981  -995706185  -665357638  -909009576 -1786662512  1718731471 -1327870689
#
#      Author: C. J. Pickard (cjp20@cam.ac.uk)
#                Space group: Ima2
#

%BLOCK LATTICE_ABC
      6.39872      6.39872      6.39872
    104.78039    108.72489    115.07858
%ENDBLOCK LATTICE_ABC

%BLOCK POSITIONS_FRAC
  Li  -0.0768570  -0.3108866  -0.7340296 SPIN=   0.00000
  Li   0.0768570   0.3428274   0.7659704 SPIN=   0.00000
  Fe   0.0000000  -0.2450219  -0.2450219 SPIN=   4.00000
  Fe   0.5000000   0.7549781   0.2549781 SPIN=   4.00000
   O   0.2258830   0.5594589   0.5271767 SPIN=   0.00000
   O   0.1494861   0.3001887   0.1178380 SPIN=   0.00000
   O  -0.2258830   0.3012937   0.3335759 SPIN=   0.00000
   O  -0.1494861  -0.0316481   0.1507026 SPIN=   0.00000
   O   0.4677177   0.3012937   0.0271767 SPIN=   0.00000
   O   0.3176493  -0.0316481  -0.3821620 SPIN=   0.00000
   O  -0.4677177  -0.4405411  -0.1664241 SPIN=   0.00000
   O  -0.3176493  -0.6998113  -0.3492974 SPIN=   0.00000
   S   0.3502247   0.3619193   0.5116946 SPIN=   0.00000
   S  -0.3502247  -0.8385301  -0.9883054 SPIN=   0.00000
   F  -0.1504071  -0.0554404   0.5949668 SPIN=   0.00000
   F   0.1504071  -0.2546261   0.0949668 SPIN=   0.00000
%ENDBLOCK POSITIONS_FRAC

# Note: total spin =   8.00

KPOINTS_MP_SPACING 0.07

%BLOCK SPECIES_POT
QC5
%ENDBLOCK SPECIES_POT

SNAP_TO_SYMMETRY
SYMMETRY_GENERATE

