#              Generated by Buildcell
#
# at 23:02:38 (GMT+1.0) 18th August 2020
# in /scratch/scratch/uccabz1/launch_tmp
# on node-k10d-027
# by uccabz1
#
# compiler GCC version 4.9.2
# options -cpp -iprefix /scratch/UCL/applications/gcc/4.9.2/bin/../lib/gcc/x86_64-unknown-linux-gnu/4.9.2/ -mtune=corei7 -march=x86-64 -g -O2
#
# seed  1569377443  1993465142 -1029578528  1083056626  1404147546   674922074 -1106976857   501413793      639587  2078472156 -1911654288 -1343955421
#
#      Author: C. J. Pickard (cjp20@cam.ac.uk)
#                Space group: Cc
#

%BLOCK LATTICE_ABC
      5.95686      5.95686      6.77104
     66.35906     66.35906     86.88444
%ENDBLOCK LATTICE_ABC

%BLOCK POSITIONS_FRAC
  Li   0.0935825  -0.1706358   0.2795197 SPIN=   0.00000
  Li  -0.1706358   0.0935825  -0.2204803 SPIN=   0.00000
  Fe  -0.2893519  -0.4717523  -0.0894758 SPIN=   4.00000
  Fe  -0.4717523  -0.2893519   0.4105242 SPIN=   4.00000
   O   0.0118151   0.1655701   0.3744383 SPIN=   0.00000
   O  -0.0198359   0.3012917  -0.0090817 SPIN=   0.00000
   O   0.3910026   0.2933486   0.0017141 SPIN=   0.00000
   O   0.1262529   0.6053926   0.0909231 SPIN=   0.00000
   S   0.1273087   0.3414008   0.1144985 SPIN=   0.00000
   O   0.1655701   0.0118151  -0.1255617 SPIN=   0.00000
   O   0.3012917  -0.0198359  -0.5090817 SPIN=   0.00000
   O   0.2933486   0.3910026  -0.4982859 SPIN=   0.00000
   O   0.6053926   0.1262529  -0.4090769 SPIN=   0.00000
   S   0.3414008   0.1273087  -0.3855015 SPIN=   0.00000
   F  -0.4489458  -0.1695526   0.0535239 SPIN=   0.00000
   F  -0.1695526  -0.4489458  -0.4464761 SPIN=   0.00000
%ENDBLOCK POSITIONS_FRAC

# Note: total spin =   8.00

KPOINTS_MP_SPACING 0.07

%BLOCK SPECIES_POT
QC5
%ENDBLOCK SPECIES_POT

SNAP_TO_SYMMETRY
SYMMETRY_GENERATE

