#              Generated by Buildcell
#
# at 04:54:07 (GMT+1.0) 4th August 2020
# in /lustre/scratch/uccabz1/launch_tmp
# on node-c12h-014
# by uccabz1
#
# compiler GCC version 4.9.2
# options -cpp -iprefix /lustre/shared/ucl/apps/gcc/4.9.2/bin/../lib/gcc/x86_64-unknown-linux-gnu/4.9.2/ -mtune=corei7 -march=x86-64 -g -Og
#
# seed   565287928  1600947823 -1099705098   374006259  -226056322  -752220187  1540824878 -1236348315  1195045520  1563083987  -495623027   737187086
#
#      Author: C. J. Pickard (cjp20@cam.ac.uk)
#                Space group: Pc
#

%BLOCK LATTICE_ABC
      4.96533      6.31131      6.45565
     98.65833     90.00000     90.00000
%ENDBLOCK LATTICE_ABC

%BLOCK POSITIONS_FRAC
  Li  -0.1608324   0.3428143   0.2167737 SPIN=   0.00000
  Li   0.1608324  -0.1571857   0.2167737 SPIN=   0.00000
  Fe  -0.2226529   0.0538192  -0.4610043 SPIN=   4.00000
  Fe   0.2226529  -0.4461808  -0.4610043 SPIN=   4.00000
   O   0.4334785  -0.0520074   0.0168900 SPIN=   0.00000
   O   0.0522431   0.1866347  -0.0362470 SPIN=   0.00000
   O   0.1588514  -0.1238536  -0.3059821 SPIN=   0.00000
   O   0.4647682   0.1891663  -0.2510238 SPIN=   0.00000
   S   0.2773353   0.0499850  -0.1440907 SPIN=   0.00000
   O  -0.4334785  -0.5520074   0.0168900 SPIN=   0.00000
   O  -0.0522431  -0.3133653  -0.0362470 SPIN=   0.00000
   O  -0.1588514  -0.6238536  -0.3059821 SPIN=   0.00000
   O  -0.4647682  -0.3108337  -0.2510238 SPIN=   0.00000
   S  -0.2773353  -0.4500150  -0.1440907 SPIN=   0.00000
   F  -0.2403048  -0.2082108   0.3820261 SPIN=   0.00000
   F   0.2403048   0.2917892   0.3820261 SPIN=   0.00000
%ENDBLOCK POSITIONS_FRAC

# Note: total spin =   8.00

KPOINTS_MP_SPACING 0.07

%BLOCK SPECIES_POT
QC5
%ENDBLOCK SPECIES_POT

SNAP_TO_SYMMETRY
SYMMETRY_GENERATE

