#              Generated by Buildcell
#
# at 05:43:52 (GMT+1.0) 4th August 2020
# in /lustre/scratch/uccabz1/launch_tmp
# on node-c12g-028
# by uccabz1
#
# compiler GCC version 4.9.2
# options -cpp -iprefix /lustre/shared/ucl/apps/gcc/4.9.2/bin/../lib/gcc/x86_64-unknown-linux-gnu/4.9.2/ -mtune=corei7 -march=x86-64 -g -Og
#
# seed  1286750536  -607031707  1505506744  1970359498  1296971084 -1458477715   148735926 -1455287640 -1188602348 -1496618216 -1523210363 -1476848960
#
#      Author: C. J. Pickard (cjp20@cam.ac.uk)
#                Space group: Pc
#

%BLOCK LATTICE_ABC
      5.89625      5.91614      5.92259
     90.00000     90.00000    104.51930
%ENDBLOCK LATTICE_ABC

%BLOCK POSITIONS_FRAC
  Li   0.1652284  -0.0329951  -0.1917326 SPIN=   0.00000
  Li  -0.3347716  -0.0329951   0.1917326 SPIN=   0.00000
  Fe   0.1593933  -0.3438881   0.2101352 SPIN=   4.00000
  Fe  -0.3406067  -0.3438881  -0.2101352 SPIN=   4.00000
   O   0.2913031   0.5642373  -0.1432213 SPIN=   0.00000
   O  -0.1178825   0.3238944  -0.1349670 SPIN=   0.00000
   O   0.1686792   0.2230244  -0.3969986 SPIN=   0.00000
   O   0.0260795   0.5766582  -0.4643125 SPIN=   0.00000
   S   0.0920448   0.4219536  -0.2848749 SPIN=   0.00000
   O  -0.2086969   0.5642373   0.1432213 SPIN=   0.00000
   O  -0.6178825   0.3238944   0.1349670 SPIN=   0.00000
   O  -0.3313208   0.2230244   0.3969986 SPIN=   0.00000
   O  -0.4739205   0.5766582   0.4643125 SPIN=   0.00000
   S  -0.4079552   0.4219536   0.2848749 SPIN=   0.00000
   F   0.4935016   0.0196034  -0.2151213 SPIN=   0.00000
   F  -0.0064984   0.0196034   0.2151213 SPIN=   0.00000
%ENDBLOCK POSITIONS_FRAC

# Note: total spin =   8.00

KPOINTS_MP_SPACING 0.07

%BLOCK SPECIES_POT
QC5
%ENDBLOCK SPECIES_POT

SNAP_TO_SYMMETRY
SYMMETRY_GENERATE

