#              Generated by Buildcell
#
# at 03:15:45 (GMT+1.0) 4th August 2020
# in /lustre/scratch/uccabz1/launch_tmp
# on node-c12c-008
# by uccabz1
#
# compiler GCC version 4.9.2
# options -cpp -iprefix /lustre/shared/ucl/apps/gcc/4.9.2/bin/../lib/gcc/x86_64-unknown-linux-gnu/4.9.2/ -mtune=corei7 -march=x86-64 -g -Og
#
# seed    56193606   793451676 -1903783909 -1021284233  -759373653 -1909592862 -1558749910   549133662  2128155701  1972278599 -1763438730  -890484001
#
#      Author: C. J. Pickard (cjp20@cam.ac.uk)
#                Space group: P21
#

%BLOCK LATTICE_ABC
      3.86696      4.82227     10.77181
     90.00000     95.32792     90.00000
%ENDBLOCK LATTICE_ABC

%BLOCK POSITIONS_FRAC
  Li   0.4165651  -0.0485194   0.2647654 SPIN=   0.00000
  Li  -0.4165651   0.4514806  -0.2647654 SPIN=   0.00000
  Fe  -0.1158901   0.4088622   0.3712513 SPIN=   4.00000
  Fe   0.1158901  -0.0911378  -0.3712513 SPIN=   4.00000
   O   0.5087050   0.5399674   0.2133660 SPIN=   0.00000
   O   0.4987082   0.3214192   0.0051816 SPIN=   0.00000
   O   0.0163644   0.6275367   0.0545429 SPIN=   0.00000
   O   0.0877526   0.1656866   0.1538085 SPIN=   0.00000
   S   0.2778826   0.4136525   0.1067248 SPIN=   0.00000
   O  -0.5087050   0.0399674  -0.2133660 SPIN=   0.00000
   O  -0.4987082  -0.1785808  -0.0051816 SPIN=   0.00000
   O  -0.0163644   0.1275367  -0.0545429 SPIN=   0.00000
   O  -0.0877526  -0.3343134  -0.1538085 SPIN=   0.00000
   S  -0.2778826  -0.0863475  -0.1067248 SPIN=   0.00000
   F  -0.2268148   0.2255740  -0.4103896 SPIN=   0.00000
   F   0.2268148  -0.2744260   0.4103896 SPIN=   0.00000
%ENDBLOCK POSITIONS_FRAC

# Note: total spin =   8.00

KPOINTS_MP_SPACING 0.07

%BLOCK SPECIES_POT
QC5
%ENDBLOCK SPECIES_POT

SNAP_TO_SYMMETRY
SYMMETRY_GENERATE

