#              Generated by Buildcell
#
# at 04:28:43 (GMT+1.0) 4th August 2020
# in /lustre/scratch/uccabz1/launch_tmp
# on node-c12c-006
# by uccabz1
#
# compiler GCC version 4.9.2
# options -cpp -iprefix /lustre/shared/ucl/apps/gcc/4.9.2/bin/../lib/gcc/x86_64-unknown-linux-gnu/4.9.2/ -mtune=corei7 -march=x86-64 -g -Og
#
# seed  2116979033 -2037667932   723933533  1290056468  -479370973   795646510  1663896909   625998318  -664577808 -1693025532 -1980604112   710100144
#
#      Author: C. J. Pickard (cjp20@cam.ac.uk)
#                Space group: P-1
#

%BLOCK LATTICE_ABC
      3.93082      6.24588      8.58204
     92.89671    103.11344    101.58989
%ENDBLOCK LATTICE_ABC

%BLOCK POSITIONS_FRAC
  Li  -0.0139478   0.2480431   0.1231504 SPIN=   0.00000
  Li   0.0139478  -0.2480431  -0.1231504 SPIN=   0.00000
  Fe  -0.6291575  -0.2585097  -0.4053173 SPIN=   4.00000
  Fe   0.6291575   0.2585097   0.4053173 SPIN=   4.00000
   O  -0.3544241   0.1488412  -0.3417414 SPIN=   0.00000
   O   0.0985423   0.0675790  -0.1142664 SPIN=   0.00000
   O  -0.2366468   0.3529068  -0.0733930 SPIN=   0.00000
   O   0.2169657   0.4190490  -0.2339494 SPIN=   0.00000
   S  -0.0688908   0.2470940  -0.1908376 SPIN=   0.00000
   O   0.3544241  -0.1488412   0.3417414 SPIN=   0.00000
   O  -0.0985423  -0.0675790   0.1142664 SPIN=   0.00000
   O   0.2366468  -0.3529068   0.0733930 SPIN=   0.00000
   O  -0.2169657  -0.4190490   0.2339494 SPIN=   0.00000
   S   0.0688908  -0.2470940   0.1908376 SPIN=   0.00000
   F   0.1224440   0.2544880   0.3943548 SPIN=   0.00000
   F  -0.1224440  -0.2544880  -0.3943548 SPIN=   0.00000
%ENDBLOCK POSITIONS_FRAC

# Note: total spin =   8.00

KPOINTS_MP_SPACING 0.07

%BLOCK SPECIES_POT
QC5
%ENDBLOCK SPECIES_POT

SNAP_TO_SYMMETRY
SYMMETRY_GENERATE

