#              Generated by Buildcell
#
# at 04:06:01 (GMT+1.0) 4th August 2020
# in /lustre/scratch/uccabz1/launch_tmp
# on node-c12b-034
# by uccabz1
#
# compiler GCC version 4.9.2
# options -cpp -iprefix /lustre/shared/ucl/apps/gcc/4.9.2/bin/../lib/gcc/x86_64-unknown-linux-gnu/4.9.2/ -mtune=corei7 -march=x86-64 -g -Og
#
# seed -2064788010 -1560633130   387803355 -1833704838 -1697983021  -504527399 -1756649744  1179548088  2017611146   -90817558    47693388 -2062956335
#
#      Author: C. J. Pickard (cjp20@cam.ac.uk)
#                Space group: C2
#

%BLOCK LATTICE_ABC
      4.60346      6.30490      7.51708
     86.34571     79.94542     68.58811
%ENDBLOCK LATTICE_ABC

%BLOCK POSITIONS_FRAC
  Li   0.4247146   0.1505709  -0.0000000 SPIN=   0.00000
  Li   0.6648969  -0.3297938  -0.5000000 SPIN=   0.00000
  Fe   0.0021339  -0.0042679  -0.5000000 SPIN=   0.72813
  Fe   0.0839391  -0.1678782   0.0000000 SPIN=   7.27187
   O   0.4991883   0.3217264   0.1969762 SPIN=   0.00000
   O  -0.0005019   0.6520200   0.2671332 SPIN=   0.00000
   O   0.0899303   0.3016834   0.4521136 SPIN=   0.00000
   O  -0.0020924   0.3014403   0.1374544 SPIN=   0.00000
   O   0.1790853   0.3217264  -0.1969762 SPIN=   0.00000
   O   0.3484819   0.6520200  -0.2671332 SPIN=   0.00000
   O   0.6083863   0.3016834  -0.4521136 SPIN=   0.00000
   O   0.7006521   0.3014403  -0.1374544 SPIN=   0.00000
   S  -0.7093409   0.4186819   0.5000000 SPIN=   0.00000
   S  -0.2046278   0.4092555  -0.0000000 SPIN=   0.00000
   F  -0.6261273  -0.0991164   0.2683189 SPIN=   0.00000
   F   0.7252437  -0.0991164  -0.2683189 SPIN=   0.00000
%ENDBLOCK POSITIONS_FRAC

# Note: total spin =   8.00

KPOINTS_MP_SPACING 0.07

%BLOCK SPECIES_POT
QC5
%ENDBLOCK SPECIES_POT

SNAP_TO_SYMMETRY
SYMMETRY_GENERATE

