#              Generated by Buildcell
#
# at 04:59:57 (GMT+1.0) 4th August 2020
# in /lustre/scratch/uccabz1/launch_tmp
# on node-c12g-018
# by uccabz1
#
# compiler GCC version 4.9.2
# options -cpp -iprefix /lustre/shared/ucl/apps/gcc/4.9.2/bin/../lib/gcc/x86_64-unknown-linux-gnu/4.9.2/ -mtune=corei7 -march=x86-64 -g -Og
#
# seed -1795742519   -78640101 -1088468612  -125651093  -125737003  -904251178  -545019988   203646149  -968445643   598304384     4104266  1770449931
#
#      Author: C. J. Pickard (cjp20@cam.ac.uk)
#                Space group: Cc
#

%BLOCK LATTICE_ABC
      4.62740      4.62740      9.96047
     93.17931     93.17931    109.59354
%ENDBLOCK LATTICE_ABC

%BLOCK POSITIONS_FRAC
  Li   0.4545879   0.0661063  -0.4304645 SPIN=   0.00000
  Li   0.0661063   0.4545879   0.0695355 SPIN=   0.00000
  Fe  -0.4123660   0.0034976   0.2288567 SPIN=   4.00000
  Fe   0.0034976  -0.4123660  -0.2711433 SPIN=   4.00000
   O   0.2312777  -0.1072393  -0.1156637 SPIN=   0.00000
   O   0.3859442   0.4381117  -0.1677645 SPIN=   0.00000
   O   0.7813935   0.2179685  -0.0929334 SPIN=   0.00000
   O   0.4266776   0.3073370   0.0684992 SPIN=   0.00000
   S   0.4563233   0.2140445  -0.0769656 SPIN=   0.00000
   O  -0.1072393   0.2312777   0.3843363 SPIN=   0.00000
   O   0.4381117   0.3859442   0.3322355 SPIN=   0.00000
   O   0.2179685   0.7813935   0.4070666 SPIN=   0.00000
   O   0.3073370   0.4266776   0.5684992 SPIN=   0.00000
   S   0.2140445   0.4563233   0.4230344 SPIN=   0.00000
   F  -0.1661300  -0.0778528  -0.3381678 SPIN=   0.00000
   F  -0.0778528  -0.1661300   0.1618322 SPIN=   0.00000
%ENDBLOCK POSITIONS_FRAC

# Note: total spin =   8.00

KPOINTS_MP_SPACING 0.07

%BLOCK SPECIES_POT
QC5
%ENDBLOCK SPECIES_POT

SNAP_TO_SYMMETRY
SYMMETRY_GENERATE

