#              Generated by Buildcell
#
# at 04:39:23 (GMT+1.0) 4th August 2020
# in /lustre/scratch/uccabz1/launch_tmp
# on node-c12m-013
# by uccabz1
#
# compiler GCC version 4.9.2
# options -cpp -iprefix /lustre/shared/ucl/apps/gcc/4.9.2/bin/../lib/gcc/x86_64-unknown-linux-gnu/4.9.2/ -mtune=corei7 -march=x86-64 -g -Og
#
# seed  1521532704   113539768 -1111575612   126547042  1835957661  1263111086  1653124763   773712695 -1015450167  1685292013  1349517851 -1034734814
#
#      Author: C. J. Pickard (cjp20@cam.ac.uk)
#                Space group: Cc
#

%BLOCK LATTICE_ABC
      4.64488      4.72204     10.77045
     79.39755     77.54746     60.53905
%ENDBLOCK LATTICE_ABC

%BLOCK POSITIONS_FRAC
  Li  -0.3488557  -0.0819932   0.3927101 SPIN=   0.00000
  Li   0.0381388   0.4180068  -0.1072899 SPIN=   0.00000
  Fe   0.4066080  -0.2178057  -0.2087867 SPIN=   4.00000
  Fe   0.0199844  -0.7178057   0.2912133 SPIN=   4.00000
   O   0.3857900  -0.2227621   0.0295519 SPIN=   0.00000
   O  -0.2030306   0.1830044   0.0116874 SPIN=   0.00000
   O  -0.0393347  -0.0897920   0.2230771 SPIN=   0.00000
   O  -0.0458941  -0.4030442   0.0639738 SPIN=   0.00000
   S   0.0243827  -0.1331484   0.0820726 SPIN=   0.00000
   O  -0.1925799   0.2772379  -0.4704481 SPIN=   0.00000
   O   0.0083388   0.6830044  -0.4883126 SPIN=   0.00000
   O  -0.0939505   0.4102080  -0.2769229 SPIN=   0.00000
   O   0.3849645   0.0969558  -0.4360262 SPIN=   0.00000
   S   0.0266932   0.3668516  -0.4179274 SPIN=   0.00000
   F  -0.4807383   0.1291848  -0.1666894 SPIN=   0.00000
   F  -0.4817571  -0.3708152   0.3333106 SPIN=   0.00000
%ENDBLOCK POSITIONS_FRAC

# Note: total spin =   8.00

KPOINTS_MP_SPACING 0.07

%BLOCK SPECIES_POT
QC5
%ENDBLOCK SPECIES_POT

SNAP_TO_SYMMETRY
SYMMETRY_GENERATE

