#              Generated by Buildcell
#
# at 02:56:06 (GMT+1.0) 4th August 2020
# in /lustre/scratch/uccabz1/launch_tmp
# on node-c12d-004
# by uccabz1
#
# compiler GCC version 4.9.2
# options -cpp -iprefix /lustre/shared/ucl/apps/gcc/4.9.2/bin/../lib/gcc/x86_64-unknown-linux-gnu/4.9.2/ -mtune=corei7 -march=x86-64 -g -Og
#
# seed  -502264638   820755458  1901411889  -862896194  -266672409  -450241559 -1216007314 -1635251551  -922264916   806394419  1653341145  2112046900
#
#      Author: C. J. Pickard (cjp20@cam.ac.uk)
#                Space group: Pc
#

%BLOCK LATTICE_ABC
      5.31482      5.68055      6.62748
     90.00000     91.72826     90.00000
%ENDBLOCK LATTICE_ABC

%BLOCK POSITIONS_FRAC
  Li   0.3823867  -0.3964159  -0.0722935 SPIN=   0.00000
  Li  -0.1176133   0.3964159   0.4277065 SPIN=   0.00000
  Fe   0.3816494  -0.3771122   0.4139816 SPIN=   4.00000
  Fe  -0.1183506   0.3771122  -0.0860184 SPIN=   4.00000
   O  -0.0451267  -0.0227601   0.0491315 SPIN=   0.00000
   O  -0.3372609   0.1671046   0.2831669 SPIN=   0.00000
   O   0.0416954  -0.0397246   0.4178271 SPIN=   0.00000
   O  -0.3125163  -0.2674172   0.2652277 SPIN=   0.00000
   S  -0.1633021  -0.0406993   0.2538383 SPIN=   0.00000
   O   0.4548733   0.0227601  -0.4508685 SPIN=   0.00000
   O   0.1627391  -0.1671046  -0.2168331 SPIN=   0.00000
   O   0.5416954   0.0397246  -0.0821729 SPIN=   0.00000
   O   0.1874837   0.2674172  -0.2347723 SPIN=   0.00000
   S   0.3366979   0.0406993  -0.2461617 SPIN=   0.00000
   F   0.2515817   0.4598480   0.1652270 SPIN=   0.00000
   F  -0.2484183  -0.4598480  -0.3347730 SPIN=   0.00000
%ENDBLOCK POSITIONS_FRAC

# Note: total spin =   8.00

KPOINTS_MP_SPACING 0.07

%BLOCK SPECIES_POT
QC5
%ENDBLOCK SPECIES_POT

SNAP_TO_SYMMETRY
SYMMETRY_GENERATE

