#              Generated by Buildcell
#
# at 02:34:59 (GMT+1.0) 4th August 2020
# in /lustre/scratch/uccabz1/launch_tmp
# on node-c12d-027
# by uccabz1
#
# compiler GCC version 4.9.2
# options -cpp -iprefix /lustre/shared/ucl/apps/gcc/4.9.2/bin/../lib/gcc/x86_64-unknown-linux-gnu/4.9.2/ -mtune=corei7 -march=x86-64 -g -Og
#
# seed  -480167593   168854732  1006876660  1266897891  -553694209  -748645215  1804633923 -1272400029 -1668928526  -471541379  1017871780  -834003737
#
#      Author: C. J. Pickard (cjp20@cam.ac.uk)
#                Space group: P-1
#

%BLOCK LATTICE_ABC
      3.91001      6.62900      8.30125
     71.72164     78.32534     84.84032
%ENDBLOCK LATTICE_ABC

%BLOCK POSITIONS_FRAC
  Li  -0.3199409  -0.2350013   0.3021362 SPIN=   0.00000
  Li   0.3199409   0.2350013  -0.3021362 SPIN=   0.00000
  Fe  -0.2901514   0.2543323  -0.0393720 SPIN=   4.00000
  Fe   0.2901514  -0.2543323   0.0393720 SPIN=   4.00000
   O   0.2311148  -0.5191496  -0.2088294 SPIN=   0.00000
   O   0.6321934  -0.2359361  -0.2387633 SPIN=   0.00000
   O   0.2085517  -0.1733689  -0.4353553 SPIN=   0.00000
   O   0.7139841  -0.4218002  -0.4605850 SPIN=   0.00000
   S   0.4464610  -0.3375637  -0.3358832 SPIN=   0.00000
   O  -0.2311148   0.5191496   0.2088294 SPIN=   0.00000
   O  -0.6321934   0.2359361   0.2387633 SPIN=   0.00000
   O  -0.2085517   0.1733689   0.4353553 SPIN=   0.00000
   O  -0.7139841   0.4218002   0.4605850 SPIN=   0.00000
   S  -0.4464610   0.3375637   0.3358832 SPIN=   0.00000
   F   0.2074617  -0.1316898   0.2500313 SPIN=   0.00000
   F  -0.2074617   0.1316898  -0.2500313 SPIN=   0.00000
%ENDBLOCK POSITIONS_FRAC

# Note: total spin =   8.00

KPOINTS_MP_SPACING 0.07

%BLOCK SPECIES_POT
QC5
%ENDBLOCK SPECIES_POT

SNAP_TO_SYMMETRY
SYMMETRY_GENERATE

