#              Generated by Buildcell
#
# at 03:11:07 (GMT+1.0) 4th August 2020
# in /lustre/scratch/uccabz1/launch_tmp
# on node-c12c-016
# by uccabz1
#
# compiler GCC version 4.9.2
# options -cpp -iprefix /lustre/shared/ucl/apps/gcc/4.9.2/bin/../lib/gcc/x86_64-unknown-linux-gnu/4.9.2/ -mtune=corei7 -march=x86-64 -g -Og
#
# seed   809594622   408509136   558213517   318767798  -351215696 -1538318098   769585449    16669414  1114343330  1215166309  -708786382  1422139283
#
#      Author: C. J. Pickard (cjp20@cam.ac.uk)
#                Space group: P-1
#

%BLOCK LATTICE_ABC
      4.09199      6.78326      7.38695
     78.10139     85.53202     89.95839
%ENDBLOCK LATTICE_ABC

%BLOCK POSITIONS_FRAC
  Li   0.2136755   0.4789657  -0.2764043 SPIN=   0.00000
  Li  -0.2136755  -0.4789657   0.2764043 SPIN=   0.00000
  Fe  -0.2463731   0.1364574  -0.2070309 SPIN=   4.00000
  Fe   0.2463731  -0.1364574   0.2070309 SPIN=   4.00000
   O  -0.0490852   0.1738309   0.4679811 SPIN=   0.00000
   O   0.2374583   0.4522844   0.2421230 SPIN=   0.00000
   O   0.4854507   0.1147037   0.3085106 SPIN=   0.00000
   O   0.4582663   0.3246771   0.5462193 SPIN=   0.00000
   S   0.2830225   0.2663740   0.3912085 SPIN=   0.00000
   O   0.0490852  -0.1738309  -0.4679811 SPIN=   0.00000
   O  -0.2374583  -0.4522844  -0.2421230 SPIN=   0.00000
   O  -0.4854507  -0.1147037  -0.3085106 SPIN=   0.00000
   O  -0.4582663  -0.3246771  -0.5462193 SPIN=   0.00000
   S  -0.2830225  -0.2663740  -0.3912085 SPIN=   0.00000
   F  -0.2594011  -0.2649576   0.0692764 SPIN=   0.00000
   F   0.2594011   0.2649576  -0.0692764 SPIN=   0.00000
%ENDBLOCK POSITIONS_FRAC

# Note: total spin =   8.00

KPOINTS_MP_SPACING 0.07

%BLOCK SPECIES_POT
QC5
%ENDBLOCK SPECIES_POT

SNAP_TO_SYMMETRY
SYMMETRY_GENERATE

