#              Generated by Buildcell
#
# at 04:01:38 (GMT+1.0) 4th August 2020
# in /lustre/scratch/uccabz1/launch_tmp
# on node-c12c-029
# by uccabz1
#
# compiler GCC version 4.9.2
# options -cpp -iprefix /lustre/shared/ucl/apps/gcc/4.9.2/bin/../lib/gcc/x86_64-unknown-linux-gnu/4.9.2/ -mtune=corei7 -march=x86-64 -g -Og
#
# seed  1077805083   184281408 -1683745978  1776078389   647864553  1628496767   680167073  -340403577 -1649125933 -1396790702  -302588614 -1080532457
#
#      Author: C. J. Pickard (cjp20@cam.ac.uk)
#                Space group: P21
#

%BLOCK LATTICE_ABC
      3.93681      6.46167      8.02954
    101.71998     90.00000     90.00000
%ENDBLOCK LATTICE_ABC

%BLOCK POSITIONS_FRAC
  Li   0.1434616   0.4405988   0.1974068 SPIN=   0.00000
  Li  -0.3565384  -0.4405988  -0.1974068 SPIN=   0.00000
  Fe  -0.3561292   0.2703809   0.4002572 SPIN=   4.00000
  Fe   0.1438708  -0.2703809  -0.4002572 SPIN=   4.00000
   O  -0.0879978   0.0963045  -0.3926301 SPIN=   0.00000
   O   0.4307275   0.1244319  -0.2153269 SPIN=   0.00000
   O  -0.0557328   0.3632324  -0.1242480 SPIN=   0.00000
   O   0.2912155   0.4059446  -0.3720828 SPIN=   0.00000
   S   0.1445531   0.2474783  -0.2760720 SPIN=   0.00000
   O  -0.5879978  -0.0963045   0.3926301 SPIN=   0.00000
   O  -0.0692725  -0.1244319   0.2153269 SPIN=   0.00000
   O  -0.5557328  -0.3632324   0.1242480 SPIN=   0.00000
   O  -0.2087845  -0.4059446   0.3720828 SPIN=   0.00000
   S  -0.3554469  -0.2474783   0.2760720 SPIN=   0.00000
   F  -0.0470380  -0.2150327  -0.1300295 SPIN=   0.00000
   F   0.4529620   0.2150327   0.1300295 SPIN=   0.00000
%ENDBLOCK POSITIONS_FRAC

# Note: total spin =   8.00

KPOINTS_MP_SPACING 0.07

%BLOCK SPECIES_POT
QC5
%ENDBLOCK SPECIES_POT

SNAP_TO_SYMMETRY
SYMMETRY_GENERATE

