#              Generated by Buildcell
#
# at 22:53:43 (GMT+1.0) 18th August 2020
# in /lustre/scratch/uccabz1/launch_tmp
# on node-c12f-005
# by uccabz1
#
# compiler GCC version 4.9.2
# options -cpp -iprefix /lustre/shared/ucl/apps/gcc/4.9.2/bin/../lib/gcc/x86_64-unknown-linux-gnu/4.9.2/ -mtune=corei7 -march=x86-64 -g -Og
#
# seed  1518083367 -1688985202  -562920937 -1423919435 -1517414066 -1482150638 -1668319915  1389917442  1809724632   415016668  -596572487  1546200169
#
#      Author: C. J. Pickard (cjp20@cam.ac.uk)
#                Space group: Pc
#

%BLOCK LATTICE_ABC
      4.10678      6.86098      7.21595
     90.00000    100.36920     90.00000
%ENDBLOCK LATTICE_ABC

%BLOCK POSITIONS_FRAC
  Li  -0.0306564   0.2228514   0.4261308 SPIN=   0.00000
  Li   0.4693436  -0.2228514   0.4261308 SPIN=   0.00000
  Fe  -0.2251827   0.2774950  -0.1899860 SPIN=   4.00000
  Fe   0.2748173  -0.2774950  -0.1899860 SPIN=   4.00000
   O   0.5861085   0.0862656   0.2608381 SPIN=   0.00000
   O   0.5915435   0.3632111   0.0416619 SPIN=   0.00000
   O   0.2904914   0.3914401   0.3083205 SPIN=   0.00000
   O   0.0757610   0.1758534   0.0390151 SPIN=   0.00000
   S   0.3859761   0.2541925   0.1624589 SPIN=   0.00000
   O   0.0861085  -0.0862656   0.2608381 SPIN=   0.00000
   O   0.0915435  -0.3632111   0.0416619 SPIN=   0.00000
   O  -0.2095086  -0.3914401   0.3083205 SPIN=   0.00000
   O  -0.4242390  -0.1758534   0.0390151 SPIN=   0.00000
   S  -0.1140239  -0.2541925   0.1624589 SPIN=   0.00000
   F   0.2600632   0.2500484  -0.3247046 SPIN=   0.00000
   F  -0.2399368  -0.2500484  -0.3247046 SPIN=   0.00000
%ENDBLOCK POSITIONS_FRAC

# Note: total spin =   8.00

KPOINTS_MP_SPACING 0.07

%BLOCK SPECIES_POT
QC5
%ENDBLOCK SPECIES_POT

SNAP_TO_SYMMETRY
SYMMETRY_GENERATE

