#              Generated by Buildcell
#
# at 02:39:23 (GMT+1.0) 4th August 2020
# in /lustre/scratch/uccabz1/launch_tmp
# on node-c12g-032
# by uccabz1
#
# compiler GCC version 4.9.2
# options -cpp -iprefix /lustre/shared/ucl/apps/gcc/4.9.2/bin/../lib/gcc/x86_64-unknown-linux-gnu/4.9.2/ -mtune=corei7 -march=x86-64 -g -Og
#
# seed -1664873114  -737544740 -1111580937 -1382019103  -458244904  1614590703  1252180741  1358977506  1909219375   185708711  -157474759  -252472158
#
#      Author: C. J. Pickard (cjp20@cam.ac.uk)
#                Space group: P21
#

%BLOCK LATTICE_ABC
      3.98537      5.33842      9.44363
     90.00000     95.48110     90.00000
%ENDBLOCK LATTICE_ABC

%BLOCK POSITIONS_FRAC
  Li   0.1927661   0.0307769  -0.2524058 SPIN=   0.00000
  Li  -0.1927661  -0.4692231   0.2524058 SPIN=   0.00000
  Fe  -0.2333389  -0.4361748  -0.4265604 SPIN=   4.00000
  Fe   0.2333389   0.0638252   0.4265604 SPIN=   4.00000
   O   0.0668454  -0.1363621  -0.0276515 SPIN=   0.00000
   O   0.5695621  -0.0043113   0.1286589 SPIN=   0.00000
   O   0.4072981  -0.4517370   0.1142965 SPIN=   0.00000
   O   0.0582218  -0.1489646   0.2339471 SPIN=   0.00000
   S   0.2754818  -0.1853438   0.1123128 SPIN=   0.00000
   O  -0.0668454   0.3636379   0.0276515 SPIN=   0.00000
   O  -0.5695621   0.4956887  -0.1286589 SPIN=   0.00000
   O  -0.4072981   0.0482630  -0.1142965 SPIN=   0.00000
   O  -0.0582218   0.3510354  -0.2339471 SPIN=   0.00000
   S  -0.2754818   0.3146562  -0.1123128 SPIN=   0.00000
   F  -0.4511475   0.3468147   0.3669886 SPIN=   0.00000
   F   0.4511475  -0.1531853  -0.3669886 SPIN=   0.00000
%ENDBLOCK POSITIONS_FRAC

# Note: total spin =   8.00

KPOINTS_MP_SPACING 0.07

%BLOCK SPECIES_POT
QC5
%ENDBLOCK SPECIES_POT

SNAP_TO_SYMMETRY
SYMMETRY_GENERATE

