#              Generated by Buildcell
#
# at 04:50:28 (GMT+1.0) 4th August 2020
# in /lustre/scratch/uccabz1/launch_tmp
# on node-c12g-019
# by uccabz1
#
# compiler GCC version 4.9.2
# options -cpp -iprefix /lustre/shared/ucl/apps/gcc/4.9.2/bin/../lib/gcc/x86_64-unknown-linux-gnu/4.9.2/ -mtune=corei7 -march=x86-64 -g -Og
#
# seed   414828086   372227508  -796663498  -132369019  1678855121 -1317191325   -26428645   876654473   762192156  1412424760  1860458010  1113877057
#
#      Author: C. J. Pickard (cjp20@cam.ac.uk)
#                Space group: P-1
#

%BLOCK LATTICE_ABC
      5.33189      6.10286      6.44646
     85.64264     80.86891     75.09090
%ENDBLOCK LATTICE_ABC

%BLOCK POSITIONS_FRAC
  Li  -0.2714858  -0.2339032   0.3425850 SPIN=   0.00000
  Li   0.2714858   0.2339032  -0.3425850 SPIN=   0.00000
  Fe   0.0502307  -0.2479274  -0.2405384 SPIN=   4.00000
  Fe  -0.0502307   0.2479274   0.2405384 SPIN=   4.00000
   O   0.2177047  -0.5743963   0.4000682 SPIN=   0.00000
   O   0.1258231  -0.3240969   0.0862846 SPIN=   0.00000
   O   0.5746450  -0.4358685   0.1809695 SPIN=   0.00000
   O   0.2212992  -0.1697591   0.4009195 SPIN=   0.00000
   S   0.2848680  -0.3760302   0.2670604 SPIN=   0.00000
   O  -0.2177047   0.5743963  -0.4000682 SPIN=   0.00000
   O  -0.1258231   0.3240969  -0.0862846 SPIN=   0.00000
   O  -0.5746450   0.4358685  -0.1809695 SPIN=   0.00000
   O  -0.2212992   0.1697591  -0.4009195 SPIN=   0.00000
   S  -0.2848680   0.3760302  -0.2670604 SPIN=   0.00000
   F   0.3180336  -0.0487126  -0.2225614 SPIN=   0.00000
   F  -0.3180336   0.0487126   0.2225614 SPIN=   0.00000
%ENDBLOCK POSITIONS_FRAC

# Note: total spin =   8.00

KPOINTS_MP_SPACING 0.07

%BLOCK SPECIES_POT
QC5
%ENDBLOCK SPECIES_POT

SNAP_TO_SYMMETRY
SYMMETRY_GENERATE

