#              Generated by Buildcell
#
# at 02:16:50 (GMT+1.0) 19th August 2020
# in /scratch/scratch/uccabz1/launch_tmp
# on node-k10i-015
# by uccabz1
#
# compiler GCC version 4.9.2
# options -cpp -iprefix /scratch/UCL/applications/gcc/4.9.2/bin/../lib/gcc/x86_64-unknown-linux-gnu/4.9.2/ -mtune=corei7 -march=x86-64 -g -O2
#
# seed -1245698841   724581629   681229269  -768568122 -1914754263  2087422477  -853813650   282524191  2055892753 -1672188784 -1378835223 -1371694953
#
#      Author: C. J. Pickard (cjp20@cam.ac.uk)
#                Space group: P-1
#

%BLOCK LATTICE_ABC
      5.93349      6.35064      6.52486
     62.14297     78.77688     66.95046
%ENDBLOCK LATTICE_ABC

%BLOCK POSITIONS_FRAC
  Li   0.1764773  -0.2106716   0.2716825 SPIN=   0.00000
  Li  -0.1764773   0.2106716  -0.2716825 SPIN=   0.00000
  Fe   0.3248437   0.2841136   0.0733042 SPIN=   4.00000
  Fe  -0.3248437  -0.2841136  -0.0733042 SPIN=   4.00000
   O  -0.5870077  -0.2540393   0.5143524 SPIN=   0.00000
   O  -0.2579344  -0.4138599   0.2703753 SPIN=   0.00000
   O  -0.1534134  -0.4248899   0.6252662 SPIN=   0.00000
   O  -0.3111405  -0.0137872   0.2833750 SPIN=   0.00000
   S  -0.3273740  -0.2766441   0.4233422 SPIN=   0.00000
   O   0.5870077   0.2540393  -0.5143524 SPIN=   0.00000
   O   0.2579344   0.4138599  -0.2703753 SPIN=   0.00000
   O   0.1534134   0.4248899  -0.6252662 SPIN=   0.00000
   O   0.3111405   0.0137872  -0.2833750 SPIN=   0.00000
   S   0.3273740   0.2766441  -0.4233422 SPIN=   0.00000
   F  -0.0549814  -0.1758168  -0.1777915 SPIN=   0.00000
   F   0.0549814   0.1758168   0.1777915 SPIN=   0.00000
%ENDBLOCK POSITIONS_FRAC

# Note: total spin =   8.00

KPOINTS_MP_SPACING 0.07

%BLOCK SPECIES_POT
QC5
%ENDBLOCK SPECIES_POT

SNAP_TO_SYMMETRY
SYMMETRY_GENERATE

