#              Generated by Buildcell
#
# at 03:07:45 (GMT+1.0) 4th August 2020
# in /lustre/scratch/uccabz1/launch_tmp
# on node-c12f-033
# by uccabz1
#
# compiler GCC version 4.9.2
# options -cpp -iprefix /lustre/shared/ucl/apps/gcc/4.9.2/bin/../lib/gcc/x86_64-unknown-linux-gnu/4.9.2/ -mtune=corei7 -march=x86-64 -g -Og
#
# seed  1446486421  -378258072  1004894673 -1051126983 -1530705052   315409240 -1119560537 -1525906460  -733601481   614524853   577523434   579889916
#
#      Author: C. J. Pickard (cjp20@cam.ac.uk)
#                Space group: Cm
#

%BLOCK LATTICE_ABC
      4.02292      7.49703      7.77616
     61.18048     83.65071     76.73744
%ENDBLOCK LATTICE_ABC

%BLOCK POSITIONS_FRAC
  Li   0.5586504   0.0129188  -0.3214967 SPIN=   0.00000
  Li   0.5586504  -0.3085780   0.3214967 SPIN=   0.00000
  Fe   0.0322489  -0.0293434   0.0000000 SPIN=   5.41858
  Fe   0.7185932  -0.4529585   0.0000000 SPIN=   2.58142
   O  -0.2905568  -0.1254827   0.4091527 SPIN=   0.00000
   O  -0.3400822   0.2479622   0.1721984 SPIN=   0.00000
   O  -0.7542126   0.1356326   0.4450158 SPIN=   0.00000
   O  -0.7673405   0.0580155   0.1707621 SPIN=   0.00000
   S  -0.5380480   0.0790319   0.2992823 SPIN=   0.00000
   O  -0.2905568   0.2836701  -0.4091527 SPIN=   0.00000
   O  -0.3400822   0.4201606  -0.1721984 SPIN=   0.00000
   O  -0.7542126   0.5806484  -0.4450158 SPIN=   0.00000
   O  -0.7673405   0.2287776  -0.1707621 SPIN=   0.00000
   S  -0.5380480   0.3783142  -0.2992823 SPIN=   0.00000
   F   1.0115844  -0.4735449   0.2929444 SPIN=   0.00000
   F   1.0115844  -0.1806005  -0.2929444 SPIN=   0.00000
%ENDBLOCK POSITIONS_FRAC

# Note: total spin =   8.00

KPOINTS_MP_SPACING 0.07

%BLOCK SPECIES_POT
QC5
%ENDBLOCK SPECIES_POT

SNAP_TO_SYMMETRY
SYMMETRY_GENERATE

