#              Generated by Buildcell
#
# at 03:13:52 (GMT+1.0) 4th August 2020
# in /lustre/scratch/uccabz1/launch_tmp
# on node-c12j-005
# by uccabz1
#
# compiler GCC version 4.9.2
# options -cpp -iprefix /lustre/shared/ucl/apps/gcc/4.9.2/bin/../lib/gcc/x86_64-unknown-linux-gnu/4.9.2/ -mtune=corei7 -march=x86-64 -g -Og
#
# seed -1633627034  1427708470  1247652734  -902694787  -473614231 -1128516454   924638759  1885454016   756736893  1688893757 -2003032940  1642550902
#
#      Author: C. J. Pickard (cjp20@cam.ac.uk)
#                Space group: P-1
#

%BLOCK LATTICE_ABC
      4.80945      6.80832      7.09493
    112.99051     92.40238    107.90299
%ENDBLOCK LATTICE_ABC

%BLOCK POSITIONS_FRAC
  Li   0.4842570   0.5579183   0.2713575 SPIN=   0.00000
  Li  -0.4842570  -0.5579183  -0.2713575 SPIN=   0.00000
  Fe  -0.0000000  -0.0000000  -0.0000000 SPIN=   7.66132
  Fe   0.0000000  -0.5000000  -0.5000000 SPIN=   0.33868
   O   0.2246615   0.4104324  -0.0991812 SPIN=   0.00000
   O   0.1689550   0.2485562  -0.4833108 SPIN=   0.00000
   O  -0.2298390   0.0876878  -0.3192342 SPIN=   0.00000
   O   0.2494925   0.0270591  -0.2940351 SPIN=   0.00000
   O  -0.2246615  -0.4104324   0.0991812 SPIN=   0.00000
   O  -0.1689550  -0.2485562   0.4833108 SPIN=   0.00000
   O   0.2298390  -0.0876878   0.3192342 SPIN=   0.00000
   O  -0.2494925  -0.0270591   0.2940351 SPIN=   0.00000
   S  -0.0000000   0.5000000   0.0000000 SPIN=   0.00000
   S   0.5000000   1.0000000   0.5000000 SPIN=   0.00000
   F   0.3915109   0.2296255   0.1611164 SPIN=   0.00000
   F  -0.3915109  -0.2296255  -0.1611164 SPIN=   0.00000
%ENDBLOCK POSITIONS_FRAC

# Note: total spin =   8.00

KPOINTS_MP_SPACING 0.07

%BLOCK SPECIES_POT
QC5
%ENDBLOCK SPECIES_POT

SNAP_TO_SYMMETRY
SYMMETRY_GENERATE

