#              Generated by Buildcell
#
# at 00:56:23 (GMT+1.0) 19th August 2020
# in /scratch/scratch/uccabz1/launch_tmp
# on node-k10c-029
# by uccabz1
#
# compiler GCC version 4.9.2
# options -cpp -iprefix /scratch/UCL/applications/gcc/4.9.2/bin/../lib/gcc/x86_64-unknown-linux-gnu/4.9.2/ -mtune=corei7 -march=x86-64 -g -O2
#
# seed   152699228  1845645000  -988918532  -618813673  2139378915  -553102085  1014776935 -1550697512  1587015708   439002872  1041171376  1366592979
#
#      Author: C. J. Pickard (cjp20@cam.ac.uk)
#                Space group: Cm
#

%BLOCK LATTICE_ABC
      5.79376      6.24808      6.24808
    102.27773    105.48498    105.48498
%ENDBLOCK LATTICE_ABC

%BLOCK POSITIONS_FRAC
  Li   0.0872813   0.3226318   0.3226318 SPIN=   0.00000
  Li  -0.3320769  -0.2064941  -0.2064941 SPIN=   0.00000
  Fe   0.1365766  -0.2620165  -0.2620165 SPIN=   1.61603
  Fe  -0.4483773   0.2609499   0.2609499 SPIN=   6.38397
   O  -0.3534691  -0.4524787   0.0720379 SPIN=   0.00000
   O   0.0544184  -0.3725711   0.3836882 SPIN=   0.00000
   O  -0.1044225  -0.0498162   0.3323408 SPIN=   0.00000
   O   0.0547642  -0.2364776   0.0395648 SPIN=   0.00000
   S  -0.0871772  -0.2778359   0.2069079 SPIN=   0.00000
   O  -0.3534691   0.0720379  -0.4524787 SPIN=   0.00000
   O   0.0544184   0.3836882  -0.3725711 SPIN=   0.00000
   O  -0.1044225   0.3323408  -0.0498162 SPIN=   0.00000
   O   0.0547642   0.0395648  -0.2364776 SPIN=   0.00000
   S  -0.0871772   0.2069079  -0.2778359 SPIN=   0.00000
   F  -0.4964324  -0.0253850  -0.0253850 SPIN=   0.00000
   F   0.4875690  -0.4894464  -0.4894464 SPIN=   0.00000
%ENDBLOCK POSITIONS_FRAC

# Note: total spin =   8.00

KPOINTS_MP_SPACING 0.07

%BLOCK SPECIES_POT
QC5
%ENDBLOCK SPECIES_POT

SNAP_TO_SYMMETRY
SYMMETRY_GENERATE

