#              Generated by Buildcell
#
# at 02:15:30 (GMT+1.0) 4th August 2020
# in /lustre/scratch/uccabz1/launch_tmp
# on node-c12g-007
# by uccabz1
#
# compiler GCC version 4.9.2
# options -cpp -iprefix /lustre/shared/ucl/apps/gcc/4.9.2/bin/../lib/gcc/x86_64-unknown-linux-gnu/4.9.2/ -mtune=corei7 -march=x86-64 -g -Og
#
# seed -1167727319     9465679   471931780  1671721776  1891040299  -287352505  -645917132 -1795676908 -1261349087  1849887282     7004184  1271362420
#
#      Author: C. J. Pickard (cjp20@cam.ac.uk)
#                Space group: Fdd2
#

%BLOCK LATTICE_ABC
      6.36282      6.36282      6.40070
    108.84243    108.84243    110.50084
%ENDBLOCK LATTICE_ABC

%BLOCK POSITIONS_FRAC
  Li   0.9441856   0.4441856   0.8883713 SPIN=   0.00000
  Li   0.1941856   0.1941856   0.3883713 SPIN=   0.00000
  Fe  -0.1794712  -0.1794712  -0.3589425 SPIN=   4.00000
  Fe   0.5705288   0.0705288   0.1410575 SPIN=   4.00000
   O   0.1816212   0.2090883   0.7558747 SPIN=   0.00000
   O   0.2989295   0.6605425   0.8713950 SPIN=   0.00000
   O   0.5742536   0.5467864   0.7558747 SPIN=   0.00000
   O   0.5724656   0.2108525   0.8713950 SPIN=   0.00000
   O  -0.0409117   0.4316212   0.2558747 SPIN=   0.00000
   O   0.4105425   0.5489295   0.3713950 SPIN=   0.00000
   O   0.2967864  -0.1757464   0.2558747 SPIN=   0.00000
   O  -0.0391475  -0.1775344   0.3713950 SPIN=   0.00000
   S   0.1994665  -0.3005335  -0.6010670 SPIN=   0.00000
   S   0.4494665   0.4494665   0.8989330 SPIN=   0.00000
   F   0.0201802   0.0201802   0.0403604 SPIN=   0.00000
   F   0.7701802   0.2701802   0.5403604 SPIN=   0.00000
%ENDBLOCK POSITIONS_FRAC

# Note: total spin =   8.00

KPOINTS_MP_SPACING 0.07

%BLOCK SPECIES_POT
QC5
%ENDBLOCK SPECIES_POT

SNAP_TO_SYMMETRY
SYMMETRY_GENERATE

