#              Generated by Buildcell
#
# at 04:14:40 (GMT+1.0) 4th August 2020
# in /lustre/scratch/uccabz1/launch_tmp
# on node-c12n-034
# by uccabz1
#
# compiler GCC version 4.9.2
# options -cpp -iprefix /lustre/shared/ucl/apps/gcc/4.9.2/bin/../lib/gcc/x86_64-unknown-linux-gnu/4.9.2/ -mtune=corei7 -march=x86-64 -g -Og
#
# seed  1079998010 -1157724307 -1385254994 -1218060150   635274556   484522102   455737906  -676749533 -2004630936  1784236145   354245598  -127362069
#
#      Author: C. J. Pickard (cjp20@cam.ac.uk)
#                Space group: P21
#

%BLOCK LATTICE_ABC
      4.45093      4.74525      9.49167
     90.00000     90.00000     93.93066
%ENDBLOCK LATTICE_ABC

%BLOCK POSITIONS_FRAC
  Li  -0.3252484  -0.4103638  -0.4408764 SPIN=   0.00000
  Li   0.3252484   0.4103638   0.0591236 SPIN=   0.00000
  Fe  -0.4814864  -0.0783614  -0.0995018 SPIN=   4.00000
  Fe   0.4814864   0.0783614   0.4004982 SPIN=   4.00000
   O  -0.3590772   0.0369957  -0.3431988 SPIN=   0.00000
   O   0.0913946  -0.1432970  -0.4555785 SPIN=   0.00000
   O   0.1184385   0.0315887  -0.2099508 SPIN=   0.00000
   O   0.0736745   0.3677079  -0.4069911 SPIN=   0.00000
   S  -0.0188924   0.0732488  -0.3539298 SPIN=   0.00000
   O   0.3590772  -0.0369957   0.1568012 SPIN=   0.00000
   O  -0.0913946   0.1432970   0.0444215 SPIN=   0.00000
   O  -0.1184385  -0.0315887   0.2900492 SPIN=   0.00000
   O  -0.0736745  -0.3677079   0.0930089 SPIN=   0.00000
   S   0.0188924  -0.0732488   0.1460702 SPIN=   0.00000
   F   0.4477492  -0.4882701   0.3541900 SPIN=   0.00000
   F  -0.4477492   0.4882701  -0.1458100 SPIN=   0.00000
%ENDBLOCK POSITIONS_FRAC

# Note: total spin =   8.00

KPOINTS_MP_SPACING 0.07

%BLOCK SPECIES_POT
QC5
%ENDBLOCK SPECIES_POT

SNAP_TO_SYMMETRY
SYMMETRY_GENERATE

