#              Generated by Buildcell
#
# at 00:31:46 (GMT+1.0) 19th August 2020
# in /scratch/scratch/uccabz1/launch_tmp
# on node-k10d-019
# by uccabz1
#
# compiler GCC version 4.9.2
# options -cpp -iprefix /scratch/UCL/applications/gcc/4.9.2/bin/../lib/gcc/x86_64-unknown-linux-gnu/4.9.2/ -mtune=corei7 -march=x86-64 -g -O2
#
# seed  -514082502   717908402  1451285677 -1578131861   263465545   823434615   110394836   362469294  -163735538   433700701  1719819810  -835340680
#
#      Author: C. J. Pickard (cjp20@cam.ac.uk)
#                Space group: Ccc2
#

%BLOCK LATTICE_ABC
      4.46153      4.75376     10.67873
     90.00000     90.00000    117.98652
%ENDBLOCK LATTICE_ABC

%BLOCK POSITIONS_FRAC
  Li  -0.5000000  -1.0000000   0.1627587 SPIN=   0.00000
  Li   0.5000000   1.0000000  -0.3372413 SPIN=   0.00000
  Fe  -0.0000000   0.5000000  -0.1822319 SPIN=   4.00000
  Fe   0.5000000   0.5000000   0.3177681 SPIN=   4.00000
   O   0.2265843  -0.0467026  -0.1004993 SPIN=   0.00000
   O   0.2875646  -0.4307672   0.0400114 SPIN=   0.00000
   O  -0.2265843   0.0467026  -0.1004993 SPIN=   0.00000
   O  -0.2875646   0.4307672   0.0400114 SPIN=   0.00000
   O  -0.2732869  -0.0467026   0.3995007 SPIN=   0.00000
   O  -0.7183318  -0.4307672   0.5400114 SPIN=   0.00000
   O   0.2732869   0.0467026   0.3995007 SPIN=   0.00000
   O   0.7183318   0.4307672   0.5400114 SPIN=   0.00000
   S   0.0000000  -0.0000000   0.0103079 SPIN=   0.00000
   S  -0.0000000  -0.0000000  -0.4896921 SPIN=   0.00000
   F  -0.5000000  -0.5000000  -0.2391791 SPIN=   0.00000
   F  -0.0000000  -0.5000000   0.2608209 SPIN=   0.00000
%ENDBLOCK POSITIONS_FRAC

# Note: total spin =   8.00

KPOINTS_MP_SPACING 0.07

%BLOCK SPECIES_POT
QC5
%ENDBLOCK SPECIES_POT

SNAP_TO_SYMMETRY
SYMMETRY_GENERATE

