#              Generated by Buildcell
#
# at 03:45:12 (GMT+1.0) 4th August 2020
# in /lustre/scratch/uccabz1/launch_tmp
# on node-c12h-032
# by uccabz1
#
# compiler GCC version 4.9.2
# options -cpp -iprefix /lustre/shared/ucl/apps/gcc/4.9.2/bin/../lib/gcc/x86_64-unknown-linux-gnu/4.9.2/ -mtune=corei7 -march=x86-64 -g -Og
#
# seed   804385127   562766487 -1512890233   360836511  -983108156   -84947927 -2072075820 -1111723032 -1954550263  1882104160 -1114683906   227291162
#
#      Author: C. J. Pickard (cjp20@cam.ac.uk)
#                Space group: C2/c
#

%BLOCK LATTICE_ABC
      5.04467      5.80744      7.87363
     83.23932     74.27352     64.25747
%ENDBLOCK LATTICE_ABC

%BLOCK POSITIONS_FRAC
  Li   0.0374005   0.4251991  -0.2500000 SPIN=   0.00000
  Li  -0.0374005  -0.4251991   0.2500000 SPIN=   0.00000
  Fe   0.7412647  -0.9825294  -0.2500000 SPIN=   4.00000
  Fe  -0.7412647   0.9825294   0.2500000 SPIN=   4.00000
   O   0.6314213  -0.3998553  -0.3794748 SPIN=   0.00000
   O   0.6368274  -0.2803901  -0.0893130 SPIN=   0.00000
   O   0.2684340  -0.3998553  -0.1205252 SPIN=   0.00000
   O   0.1435627  -0.2803901  -0.4106870 SPIN=   0.00000
   O  -0.6314213   0.3998553   0.3794748 SPIN=   0.00000
   O  -0.6368274   0.2803901   0.0893130 SPIN=   0.00000
   O  -0.2684340   0.3998553   0.1205252 SPIN=   0.00000
   O  -0.1435627   0.2803901   0.4106870 SPIN=   0.00000
   S   0.5000000  -0.5000000  -0.0000000 SPIN=   0.00000
   S  -0.5000000  -0.5000000   0.5000000 SPIN=   0.00000
   F  -0.2191591  -0.0616818   0.2500000 SPIN=   0.00000
   F   0.2191591   0.0616818  -0.2500000 SPIN=   0.00000
%ENDBLOCK POSITIONS_FRAC

# Note: total spin =   8.00

KPOINTS_MP_SPACING 0.07

%BLOCK SPECIES_POT
QC5
%ENDBLOCK SPECIES_POT

SNAP_TO_SYMMETRY
SYMMETRY_GENERATE

