#              Generated by Buildcell
#
# at 22:16:20 (GMT+1.0) 18th August 2020
# in /lustre/scratch/uccabz1/launch_tmp
# on node-c12k-029
# by uccabz1
#
# compiler GCC version 4.9.2
# options -cpp -iprefix /lustre/shared/ucl/apps/gcc/4.9.2/bin/../lib/gcc/x86_64-unknown-linux-gnu/4.9.2/ -mtune=corei7 -march=x86-64 -g -Og
#
# seed  1246971121  -810061446   413126034 -1562964785  -346403870  2126674562 -1756026516  1502198655 -1950397424  -617676393   960319165  -437990260
#
#      Author: C. J. Pickard (cjp20@cam.ac.uk)
#                Space group: P2
#

%BLOCK LATTICE_ABC
      4.42520      6.35796      7.22394
     90.00000    100.25588     90.00000
%ENDBLOCK LATTICE_ABC

%BLOCK POSITIONS_FRAC
  Li   0.3816419  -0.4133422   0.2376690 SPIN=   0.00000
  Li  -0.3816419  -0.4133422  -0.2376690 SPIN=   0.00000
  Fe   0.0000000   0.2919113   0.0000000 SPIN=   4.89911
  Fe   0.0000000   0.4035695  -0.5000000 SPIN=   3.10089
   O   0.5905038  -0.1457709   0.3564318 SPIN=   0.00000
   O   0.3197912   0.0784802   0.0993379 SPIN=   0.00000
   O   0.2112889   0.1174668   0.4220412 SPIN=   0.00000
   O   0.0367701  -0.2005075   0.2357233 SPIN=   0.00000
   O  -0.5905038  -0.1457709  -0.3564318 SPIN=   0.00000
   O  -0.3197912   0.0784802  -0.0993379 SPIN=   0.00000
   O  -0.2112889   0.1174668  -0.4220412 SPIN=   0.00000
   O  -0.0367701  -0.2005075  -0.2357233 SPIN=   0.00000
   S   0.0000000  -0.0964068   0.5000000 SPIN=   0.00000
   S  -0.5000000  -0.0963767   0.0000000 SPIN=   0.00000
   F  -0.2647672   0.4036492   0.2565828 SPIN=   0.00000
   F   0.2647672   0.4036492  -0.2565828 SPIN=   0.00000
%ENDBLOCK POSITIONS_FRAC

# Note: total spin =   8.00

KPOINTS_MP_SPACING 0.07

%BLOCK SPECIES_POT
QC5
%ENDBLOCK SPECIES_POT

SNAP_TO_SYMMETRY
SYMMETRY_GENERATE

