#              Generated by Buildcell
#
# at 04:25:54 (GMT+1.0) 4th August 2020
# in /lustre/scratch/uccabz1/launch_tmp
# on node-c12i-035
# by uccabz1
#
# compiler GCC version 4.9.2
# options -cpp -iprefix /lustre/shared/ucl/apps/gcc/4.9.2/bin/../lib/gcc/x86_64-unknown-linux-gnu/4.9.2/ -mtune=corei7 -march=x86-64 -g -Og
#
# seed  -905748089  -280719501 -1567572701  1160481463  1283279026 -1668393481  -780822841   220706567 -1912199743   729307204  2043783553  1272131289
#
#      Author: C. J. Pickard (cjp20@cam.ac.uk)
#                Space group: Pba2
#

%BLOCK LATTICE_ABC
      4.44080      6.33783      7.10606
     90.00000     90.00000     90.00000
%ENDBLOCK LATTICE_ABC

%BLOCK POSITIONS_FRAC
  Li  -0.0000000   0.0000000  -0.4873298 SPIN=   0.00000
  Li   0.5000000  -0.5000000  -0.4873298 SPIN=   0.00000
  Fe  -0.0000000  -0.0000000   0.0834988 SPIN=   4.00000
  Fe  -0.5000000   0.5000000   0.0834988 SPIN=   4.00000
   O  -0.2306168   0.2947066  -0.0871627 SPIN=   0.00000
   O   0.0836208   0.3107412  -0.3744400 SPIN=   0.00000
   O   0.2306168  -0.2947066  -0.0871627 SPIN=   0.00000
   O  -0.0836208  -0.3107412  -0.3744400 SPIN=   0.00000
   O   0.2693832   0.2052934  -0.0871627 SPIN=   0.00000
   O   0.5836208   0.1892588  -0.3744400 SPIN=   0.00000
   O  -0.2693832  -0.2052934  -0.0871627 SPIN=   0.00000
   O  -0.5836208  -0.1892588  -0.3744400 SPIN=   0.00000
   S  -0.5000000   0.0000000  -0.2496782 SPIN=   0.00000
   S  -0.0000000   0.5000000  -0.2496782 SPIN=   0.00000
   F  -0.5000000   0.0000000   0.2504161 SPIN=   0.00000
   F  -0.0000000   0.5000000   0.2504161 SPIN=   0.00000
%ENDBLOCK POSITIONS_FRAC

# Note: total spin =   8.00

KPOINTS_MP_SPACING 0.07

%BLOCK SPECIES_POT
QC5
%ENDBLOCK SPECIES_POT

SNAP_TO_SYMMETRY
SYMMETRY_GENERATE

