#              Generated by Buildcell
#
# at 19:22:39 (GMT+1.0) 18th August 2020
# in /lustre/scratch/uccabz1/launch_tmp
# on node-c12m-014
# by uccabz1
#
# compiler GCC version 4.9.2
# options -cpp -iprefix /lustre/shared/ucl/apps/gcc/4.9.2/bin/../lib/gcc/x86_64-unknown-linux-gnu/4.9.2/ -mtune=corei7 -march=x86-64 -g -Og
#
# seed  2035541619   214128322  -453934591 -1439849260   346870060   653113848  1242411296  1158241396 -1257326913   -47608398  1929411955   660582145
#
#      Author: C. J. Pickard (cjp20@cam.ac.uk)
#                Space group: C2
#

%BLOCK LATTICE_ABC
      6.08171      6.08171      6.75694
    105.46205    106.91143    112.37152
%ENDBLOCK LATTICE_ABC

%BLOCK POSITIONS_FRAC
  Li  -0.0682599   0.2111646   0.2294437 SPIN=   0.00000
  Li  -0.0182791  -0.2977037  -0.2294437 SPIN=   0.00000
  Fe  -0.4068329   0.2791111  -0.1515893 SPIN=   4.00000
  Fe   0.4307005  -0.2552436   0.1515893 SPIN=   4.00000
   O   0.4961956   0.2329478   0.1495103 SPIN=   0.00000
   O   0.1731028   0.0710303   0.3014685 SPIN=   0.00000
   O   0.3892679   0.5388408   0.3709249 SPIN=   0.00000
   O   0.6493196   0.3663593   0.5659080 SPIN=   0.00000
   S   0.4269715   0.3022946   0.3469529 SPIN=   0.00000
   O   0.0834375   0.3466853  -0.1495103 SPIN=   0.00000
   O  -0.2304382  -0.1283657  -0.3014685 SPIN=   0.00000
   O   0.1679160   0.0183430  -0.3709249 SPIN=   0.00000
   O  -0.1995487   0.0834116  -0.5659080 SPIN=   0.00000
   S  -0.0446584   0.0800185  -0.3469529 SPIN=   0.00000
   F  -0.0493089  -0.4465768   0.1656766 SPIN=   0.00000
   F   0.3877466  -0.2149855  -0.1656766 SPIN=   0.00000
%ENDBLOCK POSITIONS_FRAC

# Note: total spin =   8.00

KPOINTS_MP_SPACING 0.07

%BLOCK SPECIES_POT
QC5
%ENDBLOCK SPECIES_POT

SNAP_TO_SYMMETRY
SYMMETRY_GENERATE

