#              Generated by Buildcell
#
# at 22:57:32 (GMT+1.0) 18th August 2020
# in /lustre/scratch/uccabz1/launch_tmp
# on node-c12p-024
# by uccabz1
#
# compiler GCC version 4.9.2
# options -cpp -iprefix /lustre/shared/ucl/apps/gcc/4.9.2/bin/../lib/gcc/x86_64-unknown-linux-gnu/4.9.2/ -mtune=corei7 -march=x86-64 -g -Og
#
# seed  1463370778 -2074229489   388923443   -42838545   919019692  1715600840 -1782711810 -1444633452  -505118199 -1938321345 -1222826026    -7301211
#
#      Author: C. J. Pickard (cjp20@cam.ac.uk)
#                Space group: Cc
#

%BLOCK LATTICE_ABC
      5.56932      5.56932      6.83244
     87.42445     87.42445     70.93937
%ENDBLOCK LATTICE_ABC

%BLOCK POSITIONS_FRAC
  Li   0.3211441   0.0443991  -0.4327414 SPIN=   0.00000
  Li   0.0443991   0.3211441   0.0672586 SPIN=   0.00000
  Fe  -0.2648992   0.0416934  -0.1444284 SPIN=   4.00000
  Fe   0.0416934  -0.2648992   0.3555716 SPIN=   4.00000
   O   0.5388154  -0.2582470  -0.0313544 SPIN=   0.00000
   O   0.3059255  -0.2791561  -0.3267733 SPIN=   0.00000
   O   0.0822708  -0.2155623  -0.0023358 SPIN=   0.00000
   O   0.4014150  -0.6313995  -0.0778008 SPIN=   0.00000
   S   0.3321067  -0.3460912  -0.1095661 SPIN=   0.00000
   O  -0.2582470   0.5388154   0.4686456 SPIN=   0.00000
   O  -0.2791561   0.3059255   0.1732267 SPIN=   0.00000
   O  -0.2155623   0.0822708   0.4976642 SPIN=   0.00000
   O  -0.6313995   0.4014150   0.4221992 SPIN=   0.00000
   S  -0.3460912   0.3321067   0.3904339 SPIN=   0.00000
   F   0.2718949  -0.0281010   0.3130551 SPIN=   0.00000
   F  -0.0281010   0.2718949  -0.1869449 SPIN=   0.00000
%ENDBLOCK POSITIONS_FRAC

# Note: total spin =   8.00

KPOINTS_MP_SPACING 0.07

%BLOCK SPECIES_POT
QC5
%ENDBLOCK SPECIES_POT

SNAP_TO_SYMMETRY
SYMMETRY_GENERATE

