#              Generated by Buildcell
#
# at 04:21:20 (GMT+1.0) 4th August 2020
# in /lustre/scratch/uccabz1/launch_tmp
# on node-c12c-018
# by uccabz1
#
# compiler GCC version 4.9.2
# options -cpp -iprefix /lustre/shared/ucl/apps/gcc/4.9.2/bin/../lib/gcc/x86_64-unknown-linux-gnu/4.9.2/ -mtune=corei7 -march=x86-64 -g -Og
#
# seed -1078203192  1559703650  2086830019 -1650609685  1820949328 -1237173076  -730005574 -1469281115   843785844  1017409972  1532431731  -303631861
#
#      Author: C. J. Pickard (cjp20@cam.ac.uk)
#                Space group: C2
#

%BLOCK LATTICE_ABC
      4.38874      4.38874     11.06965
     97.93560     97.93560    105.53879
%ENDBLOCK LATTICE_ABC

%BLOCK POSITIONS_FRAC
  Li  -0.2152209  -0.3938308  -0.2024780 SPIN=   0.00000
  Li   0.3938308   0.2152209   0.2024780 SPIN=   0.00000
  Fe  -0.1496720   0.1496720   0.0000000 SPIN=   2.09438
  Fe   0.6343622   0.3656378   0.5000000 SPIN=   5.90562
   O  -0.3639544  -0.2336086  -0.3605877 SPIN=   0.00000
   O  -0.9407612  -0.4748246  -0.3577719 SPIN=   0.00000
   O  -0.7523358   0.0721059  -0.4051799 SPIN=   0.00000
   S  -0.6668844  -0.1646766  -0.3289147 SPIN=   0.00000
   O   0.2336086   0.3639544   0.3605877 SPIN=   0.00000
   O   0.4748246   0.9407612   0.3577719 SPIN=   0.00000
   O  -0.0721059   0.7523358   0.4051799 SPIN=   0.00000
   S   0.1646766   0.6668844   0.3289147 SPIN=   0.00000
   O   0.5523307   0.4476693   0.0000000 SPIN=   0.00000
   O   0.1484487  -0.1484487  -0.0000000 SPIN=   0.00000
   F   0.0176228   0.3166020  -0.1507477 SPIN=   0.00000
   F  -0.3166020  -0.0176228   0.1507477 SPIN=   0.00000
%ENDBLOCK POSITIONS_FRAC

# Note: total spin =   8.00

KPOINTS_MP_SPACING 0.07

%BLOCK SPECIES_POT
QC5
%ENDBLOCK SPECIES_POT

SNAP_TO_SYMMETRY
SYMMETRY_GENERATE

