#              Generated by Buildcell
#
# at 02:15:05 (GMT+1.0) 4th August 2020
# in /lustre/scratch/uccabz1/launch_tmp
# on node-c12j-012
# by uccabz1
#
# compiler GCC version 4.9.2
# options -cpp -iprefix /lustre/shared/ucl/apps/gcc/4.9.2/bin/../lib/gcc/x86_64-unknown-linux-gnu/4.9.2/ -mtune=corei7 -march=x86-64 -g -Og
#
# seed  1012109768  1190581829 -1730345486 -1498401754  -933569612   854771042  -268771763  1796102680  1950498071  1985338125   341800041 -1629771609
#
#      Author: C. J. Pickard (cjp20@cam.ac.uk)
#                Space group: Cmc21
#

%BLOCK LATTICE_ABC
      4.70884      6.56002      6.88936
     90.00000    109.98336     90.00000
%ENDBLOCK LATTICE_ABC

%BLOCK POSITIONS_FRAC
  Li  -0.4386293   0.2009140   0.1227415 SPIN=   0.00000
  Li   0.4386293  -0.2990860  -0.1227415 SPIN=   0.00000
  Fe   0.3034453   0.0815184  -0.3931094 SPIN=   4.00000
  Fe  -0.3034453  -0.4184816   0.3931094 SPIN=   4.00000
   O   0.1923448   0.1063205  -0.1148084 SPIN=   0.00000
   O   0.1383366   0.4680314  -0.2234373 SPIN=   0.00000
   O  -0.1923448  -0.3936795   0.1148084 SPIN=   0.00000
   O  -0.1383366  -0.0319686   0.2234373 SPIN=   0.00000
   O   0.3071532  -0.3936795   0.1148084 SPIN=   0.00000
   O   0.3617740  -0.0319686   0.2234373 SPIN=   0.00000
   O  -0.3071532   0.1063205  -0.1148084 SPIN=   0.00000
   O  -0.3617740   0.4680314  -0.2234373 SPIN=   0.00000
   S  -0.0761912   0.3512788  -0.1523825 SPIN=   0.00000
   S   0.0761912  -0.1487212   0.1523825 SPIN=   0.00000
   F  -0.2064232  -0.1519278  -0.4128463 SPIN=   0.00000
   F   0.2064232   0.3480722   0.4128463 SPIN=   0.00000
%ENDBLOCK POSITIONS_FRAC

# Note: total spin =   8.00

KPOINTS_MP_SPACING 0.07

%BLOCK SPECIES_POT
QC5
%ENDBLOCK SPECIES_POT

SNAP_TO_SYMMETRY
SYMMETRY_GENERATE

