#              Generated by Buildcell
#
# at 03:44:41 (GMT+1.0) 4th August 2020
# in /lustre/scratch/uccabz1/launch_tmp
# on node-c12e-015
# by uccabz1
#
# compiler GCC version 4.9.2
# options -cpp -iprefix /lustre/shared/ucl/apps/gcc/4.9.2/bin/../lib/gcc/x86_64-unknown-linux-gnu/4.9.2/ -mtune=corei7 -march=x86-64 -g -Og
#
# seed -1034544538  -390261680 -1559025419 -1326110386  1354833623  1896822538   780842835   257082524  1527313913  1517657065 -1623261299   -70111515
#
#      Author: C. J. Pickard (cjp20@cam.ac.uk)
#                Space group: Pc
#

%BLOCK LATTICE_ABC
      4.43297      5.79030      7.79994
     90.00000     92.62846     90.00000
%ENDBLOCK LATTICE_ABC

%BLOCK POSITIONS_FRAC
  Li  -0.0609520  -0.2385630  -0.0610046 SPIN=   0.00000
  Li   0.4390480   0.2385630   0.4389954 SPIN=   0.00000
  Fe   0.4408113   0.1047149  -0.0392567 SPIN=   4.00000
  Fe  -0.0591887  -0.1047149   0.4607433 SPIN=   4.00000
   O  -0.2372124   0.5798273   0.1679214 SPIN=   0.00000
   O   0.2064639   0.5438315   0.3705673 SPIN=   0.00000
   O   0.2691265   0.5072990   0.0580758 SPIN=   0.00000
   O   0.0084053   0.1997294   0.2144767 SPIN=   0.00000
   S   0.0616958   0.4576718   0.2027603 SPIN=   0.00000
   O  -0.7372124  -0.5798273  -0.3320786 SPIN=   0.00000
   O  -0.2935361  -0.5438315  -0.1294327 SPIN=   0.00000
   O  -0.2308735  -0.5072990  -0.4419242 SPIN=   0.00000
   O  -0.4915947  -0.1997294  -0.2855233 SPIN=   0.00000
   S  -0.4383042  -0.4576718  -0.2972397 SPIN=   0.00000
   F  -0.4280310  -0.0423399   0.3295548 SPIN=   0.00000
   F   0.0719690   0.0423399  -0.1704452 SPIN=   0.00000
%ENDBLOCK POSITIONS_FRAC

# Note: total spin =   8.00

KPOINTS_MP_SPACING 0.07

%BLOCK SPECIES_POT
QC5
%ENDBLOCK SPECIES_POT

SNAP_TO_SYMMETRY
SYMMETRY_GENERATE

