#              Generated by Buildcell
#
# at 00:26:13 (GMT+1.0) 19th August 2020
# in /lustre/scratch/uccabz1/launch_tmp
# on node-c12l-014
# by uccabz1
#
# compiler GCC version 4.9.2
# options -cpp -iprefix /lustre/shared/ucl/apps/gcc/4.9.2/bin/../lib/gcc/x86_64-unknown-linux-gnu/4.9.2/ -mtune=corei7 -march=x86-64 -g -Og
#
# seed  -643015984   238907314  -639892807  -724093796   721872851  1388717908   798512021   203820516 -1720181605  2132470668   498884119  1585124446
#
#      Author: C. J. Pickard (cjp20@cam.ac.uk)
#                Space group: Cmc21
#

%BLOCK LATTICE_ABC
      5.11000      5.11000      7.88944
     90.00000     90.00000    103.87353
%ENDBLOCK LATTICE_ABC

%BLOCK POSITIONS_FRAC
  Li   0.1890564  -0.1890564  -0.0779077 SPIN=   0.00000
  Li  -0.1890564   0.1890564   0.4220923 SPIN=   0.00000
  Fe  -0.3743144   0.3743144  -0.2362394 SPIN=   4.00000
  Fe   0.3743144  -0.3743144   0.2637606 SPIN=   4.00000
   O  -0.2847854  -0.0860861   0.2293282 SPIN=   0.00000
   O  -0.5253122  -0.1004421   0.5027181 SPIN=   0.00000
   O   0.2847854   0.0860861  -0.2706718 SPIN=   0.00000
   O   0.5253122   0.1004421   0.0027181 SPIN=   0.00000
   O  -0.0860861  -0.2847854  -0.2706718 SPIN=   0.00000
   O  -0.1004421  -0.5253122   0.0027181 SPIN=   0.00000
   O   0.0860861   0.2847854   0.2293282 SPIN=   0.00000
   O   0.1004421   0.5253122   0.5027181 SPIN=   0.00000
   S  -0.1196144   0.1196144   0.0776748 SPIN=   0.00000
   S   0.1196144  -0.1196144  -0.4223252 SPIN=   0.00000
   F   0.4240200  -0.4240200  -0.1080528 SPIN=   0.00000
   F  -0.4240200   0.4240200   0.3919472 SPIN=   0.00000
%ENDBLOCK POSITIONS_FRAC

# Note: total spin =   8.00

KPOINTS_MP_SPACING 0.07

%BLOCK SPECIES_POT
QC5
%ENDBLOCK SPECIES_POT

SNAP_TO_SYMMETRY
SYMMETRY_GENERATE

