#              Generated by Buildcell
#
# at 22:55:35 (GMT+1.0) 18th August 2020
# in /lustre/scratch/uccabz1/launch_tmp
# on node-c12f-006
# by uccabz1
#
# compiler GCC version 4.9.2
# options -cpp -iprefix /lustre/shared/ucl/apps/gcc/4.9.2/bin/../lib/gcc/x86_64-unknown-linux-gnu/4.9.2/ -mtune=corei7 -march=x86-64 -g -Og
#
# seed -1300644951 -1237942791  1789985668   691137116 -1798255527   619306097 -1073560831   332865275   729973225  2119681785   647701378   779506968
#
#      Author: C. J. Pickard (cjp20@cam.ac.uk)
#                Space group: P21
#

%BLOCK LATTICE_ABC
      3.95523      5.42010      9.47551
     90.00000    100.07632     90.00000
%ENDBLOCK LATTICE_ABC

%BLOCK POSITIONS_FRAC
  Li  -0.1289370  -0.4466959  -0.1499417 SPIN=   0.00000
  Li   0.1289370   0.0533041   0.1499417 SPIN=   0.00000
  Fe  -0.2645361   0.0919624   0.4043008 SPIN=   4.00000
  Fe   0.2645361  -0.4080376  -0.4043008 SPIN=   4.00000
   O  -0.0949154  -0.1836794  -0.3043873 SPIN=   0.00000
   O  -0.0002321   0.0706243  -0.0840616 SPIN=   0.00000
   O  -0.5757868   0.0543848  -0.2364619 SPIN=   0.00000
   O  -0.1000462   0.2719003  -0.3221762 SPIN=   0.00000
   S  -0.1927451   0.0533075  -0.2367717 SPIN=   0.00000
   O   0.0949154  -0.6836794   0.3043873 SPIN=   0.00000
   O   0.0002321  -0.4293757   0.0840616 SPIN=   0.00000
   O   0.5757868  -0.4456152   0.2364619 SPIN=   0.00000
   O   0.1000462  -0.2280997   0.3221762 SPIN=   0.00000
   S   0.1927451  -0.4466925   0.2367717 SPIN=   0.00000
   F  -0.3580783   0.0533146   0.1358944 SPIN=   0.00000
   F   0.3580783  -0.4466854  -0.1358944 SPIN=   0.00000
%ENDBLOCK POSITIONS_FRAC

# Note: total spin =   8.00

KPOINTS_MP_SPACING 0.07

%BLOCK SPECIES_POT
QC5
%ENDBLOCK SPECIES_POT

SNAP_TO_SYMMETRY
SYMMETRY_GENERATE

