#              Generated by Buildcell
#
# at 05:16:30 (GMT+1.0) 4th August 2020
# in /lustre/scratch/uccabz1/launch_tmp
# on node-c12l-029
# by uccabz1
#
# compiler GCC version 4.9.2
# options -cpp -iprefix /lustre/shared/ucl/apps/gcc/4.9.2/bin/../lib/gcc/x86_64-unknown-linux-gnu/4.9.2/ -mtune=corei7 -march=x86-64 -g -Og
#
# seed -1229237564  1077960803  -682194974   -12441153  -114437737  -552448858  2008352299   593628314 -1839952904  1884655973  -211253308   718175879
#
#      Author: C. J. Pickard (cjp20@cam.ac.uk)
#                Space group: P2
#

%BLOCK LATTICE_ABC
      3.92924      6.47292      7.86390
     90.00000     90.50546     90.00000
%ENDBLOCK LATTICE_ABC

%BLOCK POSITIONS_FRAC
  Li   0.4603892   0.2286967   0.2500069 SPIN=   0.00000
  Li  -0.4603892   0.2286967  -0.2500069 SPIN=   0.00000
  Fe  -1.0000000   0.4445491  -0.5000000 SPIN=   5.30060
  Fe   0.0000000   0.0178722   0.0000000 SPIN=   2.69940
   O   0.2587288  -0.0908001   0.2302280 SPIN=   0.00000
   O   0.7202184  -0.2879068   0.0924184 SPIN=   0.00000
   O   0.2964447  -0.4695582   0.2690367 SPIN=   0.00000
   O   0.7241317  -0.2407355   0.4047386 SPIN=   0.00000
   S   0.4998809  -0.2722502   0.2491054 SPIN=   0.00000
   O  -0.2587288  -0.0908001  -0.2302280 SPIN=   0.00000
   O  -0.7202184  -0.2879068  -0.0924184 SPIN=   0.00000
   O  -0.2964447  -0.4695582  -0.2690367 SPIN=   0.00000
   O  -0.7241317  -0.2407355  -0.4047386 SPIN=   0.00000
   S  -0.4998809  -0.2722502  -0.2491054 SPIN=   0.00000
   F   0.0000000   0.3420263   0.0000000 SPIN=   0.00000
   F   0.0000000   0.1226845   0.5000000 SPIN=   0.00000
%ENDBLOCK POSITIONS_FRAC

# Note: total spin =   8.00

KPOINTS_MP_SPACING 0.07

%BLOCK SPECIES_POT
QC5
%ENDBLOCK SPECIES_POT

SNAP_TO_SYMMETRY
SYMMETRY_GENERATE

