#              Generated by Buildcell
#
# at 23:36:33 (GMT+1.0) 18th August 2020
# in /scratch/scratch/uccabz1/launch_tmp
# on node-k10b-027
# by uccabz1
#
# compiler GCC version 4.9.2
# options -cpp -iprefix /scratch/UCL/applications/gcc/4.9.2/bin/../lib/gcc/x86_64-unknown-linux-gnu/4.9.2/ -mtune=corei7 -march=x86-64 -g -O2
#
# seed  1644831563  -640662469 -2106802811 -2013003278  -483937418  1077800613  1379600593 -1166306043  1528652746 -1430786732   -72377061  1864396145
#
#      Author: C. J. Pickard (cjp20@cam.ac.uk)
#                Space group: Pcc2
#

%BLOCK LATTICE_ABC
      4.55927      5.46060      8.03331
     90.00000     90.00000     90.00000
%ENDBLOCK LATTICE_ABC

%BLOCK POSITIONS_FRAC
  Li   0.5000000   0.0000000  -0.0673303 SPIN=   0.00000
  Li  -0.5000000   0.0000000   0.4326697 SPIN=   0.00000
  Fe   0.0000000  -0.5000000  -0.0767889 SPIN=   4.00000
  Fe   0.0000000   0.5000000   0.4232111 SPIN=   4.00000
   O  -0.6493669   0.1640106   0.1711714 SPIN=   0.00000
   O  -0.1472367   0.1675225   0.0541636 SPIN=   0.00000
   O   0.6493669  -0.1640106   0.1711714 SPIN=   0.00000
   O   0.1472367  -0.1675225   0.0541636 SPIN=   0.00000
   O  -0.6493669  -0.1640106  -0.3288286 SPIN=   0.00000
   O  -0.1472367  -0.1675225  -0.4458364 SPIN=   0.00000
   O   0.6493669   0.1640106  -0.3288286 SPIN=   0.00000
   O   0.1472367   0.1675225  -0.4458364 SPIN=   0.00000
   S   0.0000000   0.0000000   0.1749109 SPIN=   0.00000
   S   0.0000000  -0.0000000  -0.3250891 SPIN=   0.00000
   F  -0.5000000   0.5000000  -0.0896256 SPIN=   0.00000
   F   0.5000000   0.5000000   0.4103744 SPIN=   0.00000
%ENDBLOCK POSITIONS_FRAC

# Note: total spin =   8.00

KPOINTS_MP_SPACING 0.07

%BLOCK SPECIES_POT
QC5
%ENDBLOCK SPECIES_POT

SNAP_TO_SYMMETRY
SYMMETRY_GENERATE

