#              Generated by Buildcell
#
# at 02:11:31 (GMT+1.0) 19th August 2020
# in /lustre/scratch/uccabz1/launch_tmp
# on node-c12m-030
# by uccabz1
#
# compiler GCC version 4.9.2
# options -cpp -iprefix /lustre/shared/ucl/apps/gcc/4.9.2/bin/../lib/gcc/x86_64-unknown-linux-gnu/4.9.2/ -mtune=corei7 -march=x86-64 -g -Og
#
# seed   767435667  1689228086  1957152315   307835970   673197797   495916291  -498521202   807159393  1892960656   142826198  -862454473  1285169470
#
#      Author: C. J. Pickard (cjp20@cam.ac.uk)
#                Space group: Pnc2
#

%BLOCK LATTICE_ABC
      3.85384      6.70755      7.73700
     90.00000     90.00000     90.00000
%ENDBLOCK LATTICE_ABC

%BLOCK POSITIONS_FRAC
  Li  -0.5000000   0.0000000   0.2166381 SPIN=   0.00000
  Li   0.5000000  -0.5000000  -0.2833619 SPIN=   0.00000
  Fe   0.5000000  -0.5000000   0.1020379 SPIN=   4.00000
  Fe   0.5000000   0.0000000  -0.3979621 SPIN=   4.00000
   O  -0.2328060   0.3199874   0.3138151 SPIN=   0.00000
   O  -0.3135385   0.6270308   0.4865752 SPIN=   0.00000
   O   0.2328060  -0.3199874   0.3138151 SPIN=   0.00000
   O   0.3135385  -0.6270308   0.4865752 SPIN=   0.00000
   O  -0.2328060   0.1800126  -0.1861849 SPIN=   0.00000
   O  -0.3135385  -0.1270308  -0.0134248 SPIN=   0.00000
   O   0.2328060  -0.1800126  -0.1861849 SPIN=   0.00000
   O   0.3135385   0.1270308  -0.0134248 SPIN=   0.00000
   S  -0.0000000   0.0000000  -0.0475075 SPIN=   0.00000
   S  -0.0000000  -0.5000000   0.4524925 SPIN=   0.00000
   F  -0.0000000   0.0000000  -0.4871989 SPIN=   0.00000
   F  -0.0000000  -0.5000000   0.0128011 SPIN=   0.00000
%ENDBLOCK POSITIONS_FRAC

# Note: total spin =   8.00

KPOINTS_MP_SPACING 0.07

%BLOCK SPECIES_POT
QC5
%ENDBLOCK SPECIES_POT

SNAP_TO_SYMMETRY
SYMMETRY_GENERATE

