#              Generated by Buildcell
#
# at 01:39:35 (GMT+1.0) 19th August 2020
# in /lustre/scratch/uccabz1/launch_tmp
# on node-c12a-021
# by uccabz1
#
# compiler GCC version 4.9.2
# options -cpp -iprefix /lustre/shared/ucl/apps/gcc/4.9.2/bin/../lib/gcc/x86_64-unknown-linux-gnu/4.9.2/ -mtune=corei7 -march=x86-64 -g -Og
#
# seed -1470031791  1000248480   992505355  -893743309 -1246533495  -118201869   305875953 -1159642915  1357100949  -409027977 -2019217150   132315731
#
#      Author: C. J. Pickard (cjp20@cam.ac.uk)
#                Space group: Pc
#

%BLOCK LATTICE_ABC
      4.72401      6.34927      6.74145
     90.00000     90.00000     98.46617
%ENDBLOCK LATTICE_ABC

%BLOCK POSITIONS_FRAC
  Li   0.4311775  -0.2988409   0.2678592 SPIN=   0.00000
  Li  -0.0688225  -0.2988409  -0.2678592 SPIN=   0.00000
  Fe  -0.1285271   0.3982685   0.2135043 SPIN=   4.00000
  Fe   0.3714729   0.3982685  -0.2135043 SPIN=   4.00000
   O   0.3570461   0.0476412  -0.4360430 SPIN=   0.00000
   O   0.4684615  -0.3130861  -0.3622779 SPIN=   0.00000
   O   0.2878646  -0.0991203  -0.0965005 SPIN=   0.00000
   O   0.7771897   0.0041009  -0.2290239 SPIN=   0.00000
   S   0.4726405  -0.0901161  -0.2809613 SPIN=   0.00000
   O  -0.1429539   0.0476412   0.4360430 SPIN=   0.00000
   O  -0.0315385  -0.3130861   0.3622779 SPIN=   0.00000
   O  -0.2121354  -0.0991203   0.0965005 SPIN=   0.00000
   O   0.2771897   0.0041009   0.2290239 SPIN=   0.00000
   S  -0.0273595  -0.0901161   0.2809613 SPIN=   0.00000
   F   0.4492265   0.3980361   0.2499986 SPIN=   0.00000
   F  -0.0507735   0.3980361  -0.2499986 SPIN=   0.00000
%ENDBLOCK POSITIONS_FRAC

# Note: total spin =   8.00

KPOINTS_MP_SPACING 0.07

%BLOCK SPECIES_POT
QC5
%ENDBLOCK SPECIES_POT

SNAP_TO_SYMMETRY
SYMMETRY_GENERATE

