#              Generated by Buildcell
#
# at 05:43:05 (GMT+1.0) 4th August 2020
# in /lustre/scratch/uccabz1/launch_tmp
# on node-c12l-021
# by uccabz1
#
# compiler GCC version 4.9.2
# options -cpp -iprefix /lustre/shared/ucl/apps/gcc/4.9.2/bin/../lib/gcc/x86_64-unknown-linux-gnu/4.9.2/ -mtune=corei7 -march=x86-64 -g -Og
#
# seed  -183067719  1482996746  1670332984   475792191  -390984109   398482153  1194961438 -1627346770 -1522964782    -8221573  -463109145 -1936932204
#
#      Author: C. J. Pickard (cjp20@cam.ac.uk)
#                Space group: P2
#

%BLOCK LATTICE_ABC
      5.19381      5.88392      6.54453
     90.00000     90.00000     90.14394
%ENDBLOCK LATTICE_ABC

%BLOCK POSITIONS_FRAC
  Li  -0.2442937  -0.2465754  -0.0446131 SPIN=   0.00000
  Li   0.2442937   0.2465754  -0.0446131 SPIN=   0.00000
  Fe   0.2556246  -0.2619755  -0.2660084 SPIN=   4.00000
  Fe  -0.2556246   0.2619755  -0.2660084 SPIN=   4.00000
   O  -0.4207096   0.3197377   0.0573287 SPIN=   0.00000
   O  -0.2752224  -0.0034814   0.2696029 SPIN=   0.00000
   O  -0.3317002   0.3764272   0.4253433 SPIN=   0.00000
   O   0.0276258   0.3079643   0.1849098 SPIN=   0.00000
   S  -0.2500016   0.2501620   0.2342962 SPIN=   0.00000
   O   0.4207096  -0.3197377   0.0573287 SPIN=   0.00000
   O   0.2752224   0.0034814   0.2696029 SPIN=   0.00000
   O   0.3317002  -0.3764272   0.4253433 SPIN=   0.00000
   O  -0.0276258  -0.3079643   0.1849098 SPIN=   0.00000
   S   0.2500016  -0.2501620   0.2342962 SPIN=   0.00000
   F   0.2514544   0.2452467  -0.3519702 SPIN=   0.00000
   F  -0.2514544  -0.2452467  -0.3519702 SPIN=   0.00000
%ENDBLOCK POSITIONS_FRAC

# Note: total spin =   8.00

KPOINTS_MP_SPACING 0.07

%BLOCK SPECIES_POT
QC5
%ENDBLOCK SPECIES_POT

SNAP_TO_SYMMETRY
SYMMETRY_GENERATE

