#              Generated by Buildcell
#
# at 20:06:25 (GMT+1.0) 18th August 2020
# in /lustre/scratch/uccabz1/launch_tmp
# on node-c12k-036
# by uccabz1
#
# compiler GCC version 4.9.2
# options -cpp -iprefix /lustre/shared/ucl/apps/gcc/4.9.2/bin/../lib/gcc/x86_64-unknown-linux-gnu/4.9.2/ -mtune=corei7 -march=x86-64 -g -Og
#
# seed  1480538620 -1480263528   231634934  -712564712  -673255986   812772888    41765125   386644691    76192032   826948738  -663908855  -267352433
#
#      Author: C. J. Pickard (cjp20@cam.ac.uk)
#                Space group: P-1
#

%BLOCK LATTICE_ABC
      6.02555      6.07440      6.08141
    103.38328    104.00757    103.48491
%ENDBLOCK LATTICE_ABC

%BLOCK POSITIONS_FRAC
  Li   0.5000000  -0.0000000   0.5000000 SPIN=   0.00000
  Li   0.5000000  -0.5000000   0.0000000 SPIN=   0.00000
  Fe   0.0000000   0.0000000   0.5000000 SPIN=   4.05118
  Fe  -0.5000000   0.0000000   0.0000000 SPIN=   3.94882
   O   0.8462351  -0.6412523  -0.2154084 SPIN=   0.00000
   O   1.0358691  -0.2061697  -0.0988001 SPIN=   0.00000
   O   0.5927162  -0.3754626  -0.2453418 SPIN=   0.00000
   O   0.8285159  -0.4354928  -0.5231716 SPIN=   0.00000
   S   0.8258340  -0.4145944  -0.2706805 SPIN=   0.00000
   O  -0.8462351   0.6412523   0.2154084 SPIN=   0.00000
   O  -1.0358691   0.2061697   0.0988001 SPIN=   0.00000
   O  -0.5927162   0.3754626   0.2453418 SPIN=   0.00000
   O  -0.8285159   0.4354928   0.5231716 SPIN=   0.00000
   S  -0.8258340   0.4145944   0.2706805 SPIN=   0.00000
   F   0.3309712   0.0890484  -0.2749866 SPIN=   0.00000
   F  -0.3309712  -0.0890484   0.2749866 SPIN=   0.00000
%ENDBLOCK POSITIONS_FRAC

# Note: total spin =   8.00

KPOINTS_MP_SPACING 0.07

%BLOCK SPECIES_POT
QC5
%ENDBLOCK SPECIES_POT

SNAP_TO_SYMMETRY
SYMMETRY_GENERATE

