#              Generated by Buildcell
#
# at 22:49:07 (GMT+1.0) 18th August 2020
# in /lustre/scratch/uccabz1/launch_tmp
# on node-c12a-029
# by uccabz1
#
# compiler GCC version 4.9.2
# options -cpp -iprefix /lustre/shared/ucl/apps/gcc/4.9.2/bin/../lib/gcc/x86_64-unknown-linux-gnu/4.9.2/ -mtune=corei7 -march=x86-64 -g -Og
#
# seed -1535692339  1986482373  -666143258  1191191654   767514722  1788935430 -1693512986   212160588 -2116667312 -1607441865 -1431267889   129870537
#
#      Author: C. J. Pickard (cjp20@cam.ac.uk)
#                Space group: Pmn21
#

%BLOCK LATTICE_ABC
      3.82296      4.64307     11.26745
     90.00000     90.00000     90.00000
%ENDBLOCK LATTICE_ABC

%BLOCK POSITIONS_FRAC
  Li  -0.1316773  -0.0000000  -0.1097401 SPIN=   0.00000
  Li   0.1316773   0.5000000   0.3902599 SPIN=   0.00000
  Fe   0.3155624  -0.5000000  -0.0141564 SPIN=   4.00000
  Fe  -0.3155624  -0.0000000   0.4858436 SPIN=   4.00000
   O   0.1331101   0.2487151   0.2404515 SPIN=   0.00000
   O  -0.1335906   0.2512428   0.0403118 SPIN=   0.00000
   O  -0.1331101   0.2512849  -0.2595485 SPIN=   0.00000
   O   0.1335906   0.2487572  -0.4596882 SPIN=   0.00000
   O  -0.1331101  -0.2512849  -0.2595485 SPIN=   0.00000
   O   0.1335906  -0.2487572  -0.4596882 SPIN=   0.00000
   O   0.1331101  -0.2487151   0.2404515 SPIN=   0.00000
   O  -0.1335906  -0.2512428   0.0403118 SPIN=   0.00000
   S  -0.1233044  -0.0000000   0.1614084 SPIN=   0.00000
   S   0.1233044  -0.5000000  -0.3385916 SPIN=   0.00000
   F   0.3677923  -0.0000000  -0.1097268 SPIN=   0.00000
   F  -0.3677923   0.5000000   0.3902732 SPIN=   0.00000
%ENDBLOCK POSITIONS_FRAC

# Note: total spin =   8.00

KPOINTS_MP_SPACING 0.07

%BLOCK SPECIES_POT
QC5
%ENDBLOCK SPECIES_POT

SNAP_TO_SYMMETRY
SYMMETRY_GENERATE

