#              Generated by Buildcell
#
# at 21:13:10 (GMT+1.0) 18th August 2020
# in /scratch/scratch/uccabz1/launch_tmp
# on node-k10h-029
# by uccabz1
#
# compiler GCC version 4.9.2
# options -cpp -iprefix /scratch/UCL/applications/gcc/4.9.2/bin/../lib/gcc/x86_64-unknown-linux-gnu/4.9.2/ -mtune=corei7 -march=x86-64 -g -O2
#
# seed  -359763376  -100193168   709327960   870276966   231165000 -1625455619 -1032364340 -1590951936   717208007  -588727060   912491775  -262373403
#
#      Author: C. J. Pickard (cjp20@cam.ac.uk)
#                Space group: P21
#

%BLOCK LATTICE_ABC
      5.54644      5.90356      6.28031
    103.45076     90.00000     90.00000
%ENDBLOCK LATTICE_ABC

%BLOCK POSITIONS_FRAC
  Li  -0.3038391   0.2995073  -0.1423312 SPIN=   0.00000
  Li   0.1961609  -0.2995073   0.1423312 SPIN=   0.00000
  Fe   0.1541788  -0.1221000  -0.3696677 SPIN=   4.00000
  Fe  -0.3458212   0.1221000   0.3696677 SPIN=   4.00000
   O  -0.4626687  -0.3649760   0.0247840 SPIN=   0.00000
   O  -0.1029427  -0.3349314  -0.2001808 SPIN=   0.00000
   O  -0.3123098   0.0222147  -0.0017096 SPIN=   0.00000
   O  -0.5063997  -0.2378512  -0.3219741 SPIN=   0.00000
   S  -0.3460802  -0.2288860  -0.1247701 SPIN=   0.00000
   O   0.0373313   0.3649760  -0.0247840 SPIN=   0.00000
   O   0.3970573   0.3349314   0.2001808 SPIN=   0.00000
   O   0.1876902  -0.0222147   0.0017096 SPIN=   0.00000
   O  -0.0063997   0.2378512   0.3219741 SPIN=   0.00000
   S   0.1539198   0.2288860   0.1247701 SPIN=   0.00000
   F  -0.0765932  -0.2298292   0.3745700 SPIN=   0.00000
   F   0.4234068   0.2298292  -0.3745700 SPIN=   0.00000
%ENDBLOCK POSITIONS_FRAC

# Note: total spin =   8.00

KPOINTS_MP_SPACING 0.07

%BLOCK SPECIES_POT
QC5
%ENDBLOCK SPECIES_POT

SNAP_TO_SYMMETRY
SYMMETRY_GENERATE

