#              Generated by Buildcell
#
# at 23:23:14 (GMT+1.0) 18th August 2020
# in /lustre/scratch/uccabz1/launch_tmp
# on node-c12m-028
# by uccabz1
#
# compiler GCC version 4.9.2
# options -cpp -iprefix /lustre/shared/ucl/apps/gcc/4.9.2/bin/../lib/gcc/x86_64-unknown-linux-gnu/4.9.2/ -mtune=corei7 -march=x86-64 -g -Og
#
# seed  -712523476  -284771408   239291159 -1266400317 -1243177940  1092606461  1067533846   349134153   565271657 -1240964480    46111324 -1699877767
#
#      Author: C. J. Pickard (cjp20@cam.ac.uk)
#                Space group: Cc
#

%BLOCK LATTICE_ABC
      5.67365      6.12609      7.13363
     73.29059     66.56747     62.41445
%ENDBLOCK LATTICE_ABC

%BLOCK POSITIONS_FRAC
  Li  -0.5733680   0.4596241   0.3437049 SPIN=   0.00000
  Li  -0.2299610  -0.0403759  -0.1562951 SPIN=   0.00000
  Fe   0.0720164   0.2758264  -0.1904582 SPIN=   4.00000
  Fe  -0.1573846  -0.2241736   0.3095418 SPIN=   4.00000
   O   0.2242589   0.0407480   0.4595325 SPIN=   0.00000
   O  -0.2380200   0.0366203   0.5316757 SPIN=   0.00000
   O  -0.0446137   0.2775497   0.2135994 SPIN=   0.00000
   O  -0.2068321   0.4183917   0.5523289 SPIN=   0.00000
   S  -0.0663017   0.1933274   0.4392841 SPIN=   0.00000
   O   0.2754607  -0.4592520  -0.0404675 SPIN=   0.00000
   O   0.6697240  -0.4633797   0.0316757 SPIN=   0.00000
   O   0.5534646  -0.2224503  -0.2864006 SPIN=   0.00000
   O   0.2361115  -0.0816083   0.0523289 SPIN=   0.00000
   S   0.4336902  -0.3066726  -0.0607159 SPIN=   0.00000
   F   0.1718070  -0.4722295  -0.3713822 SPIN=   0.00000
   F  -0.3281954   0.0277705   0.1286178 SPIN=   0.00000
%ENDBLOCK POSITIONS_FRAC

# Note: total spin =   8.00

KPOINTS_MP_SPACING 0.07

%BLOCK SPECIES_POT
QC5
%ENDBLOCK SPECIES_POT

SNAP_TO_SYMMETRY
SYMMETRY_GENERATE

