#              Generated by Buildcell
#
# at 05:48:06 (GMT+1.0) 4th August 2020
# in /lustre/scratch/uccabz1/launch_tmp
# on node-c12n-011
# by uccabz1
#
# compiler GCC version 4.9.2
# options -cpp -iprefix /lustre/shared/ucl/apps/gcc/4.9.2/bin/../lib/gcc/x86_64-unknown-linux-gnu/4.9.2/ -mtune=corei7 -march=x86-64 -g -Og
#
# seed -1556788552  -490771716  -487726945   448089394  2031713414 -1729076480   260035589  1708231308 -2135507473 -1696181929   630371018 -2018779754
#
#      Author: C. J. Pickard (cjp20@cam.ac.uk)
#                Space group: P-1
#

%BLOCK LATTICE_ABC
      5.06430      5.31095      7.47848
     95.09959     93.12405     90.98593
%ENDBLOCK LATTICE_ABC

%BLOCK POSITIONS_FRAC
  Li  -0.0661796  -0.2255597   0.2645963 SPIN=   0.00000
  Li   0.0661796   0.2255597  -0.2645963 SPIN=   0.00000
  Fe  -0.5000000   0.0000000   0.0000000 SPIN=   5.36019
  Fe   0.5000000  -0.0000000  -0.5000000 SPIN=   2.63981
   O   0.1316674   0.1725609   0.4516513 SPIN=   0.00000
   O  -0.2808112   0.2654832   0.2792200 SPIN=   0.00000
   O   0.1128003   0.1241908   0.1189604 SPIN=   0.00000
   S   0.0186381   0.2783243   0.2827588 SPIN=   0.00000
   O  -0.1316674  -0.1725609  -0.4516513 SPIN=   0.00000
   O   0.2808112  -0.2654832  -0.2792200 SPIN=   0.00000
   O  -0.1128003  -0.1241908  -0.1189604 SPIN=   0.00000
   S  -0.0186381  -0.2783243  -0.2827588 SPIN=   0.00000
   O  -0.5000000   0.5000000  -0.5000000 SPIN=   0.00000
   O  -0.0000000  -0.5000000   0.0000000 SPIN=   0.00000
   F  -0.4826888  -0.2420811   0.1755633 SPIN=   0.00000
   F   0.4826888   0.2420811  -0.1755633 SPIN=   0.00000
%ENDBLOCK POSITIONS_FRAC

# Note: total spin =   8.00

KPOINTS_MP_SPACING 0.07

%BLOCK SPECIES_POT
QC5
%ENDBLOCK SPECIES_POT

SNAP_TO_SYMMETRY
SYMMETRY_GENERATE

