#              Generated by Buildcell
#
# at 03:52:35 (GMT+1.0) 4th August 2020
# in /lustre/scratch/uccabz1/launch_tmp
# on node-c12k-004
# by uccabz1
#
# compiler GCC version 4.9.2
# options -cpp -iprefix /lustre/shared/ucl/apps/gcc/4.9.2/bin/../lib/gcc/x86_64-unknown-linux-gnu/4.9.2/ -mtune=corei7 -march=x86-64 -g -Og
#
# seed -1436389813  -826780471  -889262967 -1026007894   870347903   349677022   -78067281   185930988 -1650915004  1464803904   -44964331  1938953913
#
#      Author: C. J. Pickard (cjp20@cam.ac.uk)
#                Space group: Pcc2
#

%BLOCK LATTICE_ABC
      4.03767      5.71956      8.66036
     90.00000     90.00000     90.00000
%ENDBLOCK LATTICE_ABC

%BLOCK POSITIONS_FRAC
  Li   0.5000000  -0.5000000  -0.0919498 SPIN=   0.00000
  Li  -0.5000000   0.5000000   0.4080502 SPIN=   0.00000
  Fe  -0.0000000  -0.5000000   0.1574301 SPIN=   4.00000
  Fe   0.0000000  -0.5000000  -0.3425699 SPIN=   4.00000
   O  -0.2497465  -0.0952405   0.0377652 SPIN=   0.00000
   O  -0.0015798  -0.2005212   0.2896447 SPIN=   0.00000
   O   0.2497465   0.0952405   0.0377652 SPIN=   0.00000
   O   0.0015798   0.2005212   0.2896447 SPIN=   0.00000
   O   0.2497465  -0.0952405  -0.4622348 SPIN=   0.00000
   O   0.0015798  -0.2005212  -0.2103553 SPIN=   0.00000
   O  -0.2497465   0.0952405  -0.4622348 SPIN=   0.00000
   O  -0.0015798   0.2005212  -0.2103553 SPIN=   0.00000
   S   0.5000000   0.0000000  -0.0710622 SPIN=   0.00000
   S   0.5000000   0.0000000   0.4289378 SPIN=   0.00000
   F  -0.5000000   0.5000000   0.1791761 SPIN=   0.00000
   F   0.5000000  -0.5000000  -0.3208239 SPIN=   0.00000
%ENDBLOCK POSITIONS_FRAC

# Note: total spin =   8.00

KPOINTS_MP_SPACING 0.07

%BLOCK SPECIES_POT
QC5
%ENDBLOCK SPECIES_POT

SNAP_TO_SYMMETRY
SYMMETRY_GENERATE

