#              Generated by Buildcell
#
# at 22:43:38 (GMT+1.0) 18th August 2020
# in /lustre/scratch/uccabz1/launch_tmp
# on node-c12l-017
# by uccabz1
#
# compiler GCC version 4.9.2
# options -cpp -iprefix /lustre/shared/ucl/apps/gcc/4.9.2/bin/../lib/gcc/x86_64-unknown-linux-gnu/4.9.2/ -mtune=corei7 -march=x86-64 -g -Og
#
# seed  1711587171  1133302257 -1191614229   732916841 -1023310745  1332199425 -1106664010 -1072914410 -1872831131  -146509276   779342797 -1783413428
#
#      Author: C. J. Pickard (cjp20@cam.ac.uk)
#                Space group: Cc
#

%BLOCK LATTICE_ABC
      4.32072      4.32072     10.90925
     82.76237     82.76237     85.40387
%ENDBLOCK LATTICE_ABC

%BLOCK POSITIONS_FRAC
  Li  -0.3980995  -0.0858930   0.1854354 SPIN=   0.00000
  Li  -0.0858930  -0.3980995  -0.3145646 SPIN=   0.00000
  Fe   0.1565014   0.4670037   0.1215354 SPIN=   4.00000
  Fe   0.4670037   0.1565014  -0.3784646 SPIN=   4.00000
   O  -0.0359882  -0.2441105  -0.1551595 SPIN=   0.00000
   O   0.0998026  -0.0371759   0.0313122 SPIN=   0.00000
   O  -0.2400060   0.2852848  -0.1085244 SPIN=   0.00000
   O   0.3223109   0.1840935  -0.1786390 SPIN=   0.00000
   S   0.0365298   0.0470230  -0.1027527 SPIN=   0.00000
   O  -0.2441105  -0.0359882   0.3448405 SPIN=   0.00000
   O  -0.0371759   0.0998026   0.5313122 SPIN=   0.00000
   O   0.2852848  -0.2400060   0.3914756 SPIN=   0.00000
   O   0.1840935   0.3223109   0.3213610 SPIN=   0.00000
   S   0.0470230   0.0365298   0.3972473 SPIN=   0.00000
   F  -0.4913268  -0.3951389  -0.3735757 SPIN=   0.00000
   F  -0.3951389  -0.4913268   0.1264243 SPIN=   0.00000
%ENDBLOCK POSITIONS_FRAC

# Note: total spin =   8.00

KPOINTS_MP_SPACING 0.07

%BLOCK SPECIES_POT
QC5
%ENDBLOCK SPECIES_POT

SNAP_TO_SYMMETRY
SYMMETRY_GENERATE

