#              Generated by Buildcell
#
# at 02:49:24 (GMT+1.0) 4th August 2020
# in /lustre/scratch/uccabz1/launch_tmp
# on node-c12g-031
# by uccabz1
#
# compiler GCC version 4.9.2
# options -cpp -iprefix /lustre/shared/ucl/apps/gcc/4.9.2/bin/../lib/gcc/x86_64-unknown-linux-gnu/4.9.2/ -mtune=corei7 -march=x86-64 -g -Og
#
# seed  -419844571  -120661651  1894691272  1527256936  -279894687  1964654167  -984544683  -795683583 -1835600980 -1105363452  -632298215 -1121338378
#
#      Author: C. J. Pickard (cjp20@cam.ac.uk)
#                Space group: Pmn21
#

%BLOCK LATTICE_ABC
      4.09902      4.92787      9.90127
     90.00000     90.00000     90.00000
%ENDBLOCK LATTICE_ABC

%BLOCK POSITIONS_FRAC
  Li   0.1802824  -0.0000000  -0.1712332 SPIN=   0.00000
  Li  -0.1802824   0.5000000   0.3287668 SPIN=   0.00000
  Fe  -0.3533243   0.5000000  -0.0310405 SPIN=   4.00000
  Fe   0.3533243  -0.0000000   0.4689595 SPIN=   4.00000
   O  -0.1839375   0.2256534  -0.5071280 SPIN=   0.00000
   O   0.2958031   0.2268384  -0.3553640 SPIN=   0.00000
   O   0.1839375   0.2743466  -0.0071280 SPIN=   0.00000
   O  -0.2958031   0.2731616   0.1446360 SPIN=   0.00000
   O   0.1839375  -0.2743466  -0.0071280 SPIN=   0.00000
   O  -0.2958031  -0.2731616   0.1446360 SPIN=   0.00000
   O  -0.1839375  -0.2256534  -0.5071280 SPIN=   0.00000
   O   0.2958031  -0.2268384  -0.3553640 SPIN=   0.00000
   S   0.1234692   0.5000000  -0.3102244 SPIN=   0.00000
   S  -0.1234692  -0.0000000   0.1897756 SPIN=   0.00000
   F   0.3197177   0.5000000   0.3502043 SPIN=   0.00000
   F  -0.3197177  -0.0000000  -0.1497957 SPIN=   0.00000
%ENDBLOCK POSITIONS_FRAC

# Note: total spin =   8.00

KPOINTS_MP_SPACING 0.07

%BLOCK SPECIES_POT
QC5
%ENDBLOCK SPECIES_POT

SNAP_TO_SYMMETRY
SYMMETRY_GENERATE

