#              Generated by Buildcell
#
# at 00:13:22 (GMT+1.0) 19th August 2020
# in /lustre/scratch/uccabz1/launch_tmp
# on node-c12e-006
# by uccabz1
#
# compiler GCC version 4.9.2
# options -cpp -iprefix /lustre/shared/ucl/apps/gcc/4.9.2/bin/../lib/gcc/x86_64-unknown-linux-gnu/4.9.2/ -mtune=corei7 -march=x86-64 -g -Og
#
# seed -1479258754  -762644128  1905300874  -611185506  1734080667   280036347  -724868965  -455305913  -725684978 -1078413234  2088586406 -1980342788
#
#      Author: C. J. Pickard (cjp20@cam.ac.uk)
#                Space group: Pcc2
#

%BLOCK LATTICE_ABC
      3.71255      4.39443     12.25903
     90.00000     90.00000     90.00000
%ENDBLOCK LATTICE_ABC

%BLOCK POSITIONS_FRAC
  Li   0.0000000  -0.5000000  -0.2577608 SPIN=   0.00000
  Li  -0.0000000   0.5000000   0.2422392 SPIN=   0.00000
  Fe   0.0000000   0.0000000  -0.0831024 SPIN=   4.00000
  Fe   0.0000000   0.0000000   0.4168976 SPIN=   4.00000
   O   0.0906528  -0.2516546   0.0772337 SPIN=   0.00000
   O   0.5743243  -0.2502468   0.2161610 SPIN=   0.00000
   O  -0.0906528   0.2516546   0.0772337 SPIN=   0.00000
   O  -0.5743243   0.2502468   0.2161610 SPIN=   0.00000
   O  -0.0906528  -0.2516546  -0.4227663 SPIN=   0.00000
   O  -0.5743243  -0.2502468  -0.2838390 SPIN=   0.00000
   O   0.0906528   0.2516546  -0.4227663 SPIN=   0.00000
   O   0.5743243   0.2502468  -0.2838390 SPIN=   0.00000
   S   0.5000000  -0.0000000   0.1404277 SPIN=   0.00000
   S   0.5000000   0.0000000  -0.3595723 SPIN=   0.00000
   F   0.5000000  -0.5000000  -0.1010397 SPIN=   0.00000
   F  -0.5000000   0.5000000   0.3989603 SPIN=   0.00000
%ENDBLOCK POSITIONS_FRAC

# Note: total spin =   8.00

KPOINTS_MP_SPACING 0.07

%BLOCK SPECIES_POT
QC5
%ENDBLOCK SPECIES_POT

SNAP_TO_SYMMETRY
SYMMETRY_GENERATE

