#              Generated by Buildcell
#
# at 02:43:33 (GMT+1.0) 19th August 2020
# in /lustre/scratch/uccabz1/launch_tmp
# on node-c12o-024
# by uccabz1
#
# compiler GCC version 4.9.2
# options -cpp -iprefix /lustre/shared/ucl/apps/gcc/4.9.2/bin/../lib/gcc/x86_64-unknown-linux-gnu/4.9.2/ -mtune=corei7 -march=x86-64 -g -Og
#
# seed -1290799122  1189979182 -1956550769   550227330   872563898  -419701513   142383381   533680421  1529780003 -1953834535  1400268082  1066822925
#
#      Author: C. J. Pickard (cjp20@cam.ac.uk)
#                Space group: C2
#

%BLOCK LATTICE_ABC
      6.07543      6.07543      6.21831
    108.02319    108.02319     98.39349
%ENDBLOCK LATTICE_ABC

%BLOCK POSITIONS_FRAC
  Li   0.1200746   0.1824451   0.3364615 SPIN=   0.00000
  Li  -0.1824451  -0.1200746  -0.3364615 SPIN=   0.00000
  Fe  -0.1477853  -0.3498956   0.1051071 SPIN=   4.00000
  Fe   0.3498956   0.1477853  -0.1051071 SPIN=   4.00000
   O  -0.7722402  -0.5952581  -0.3080214 SPIN=   0.00000
   O  -1.0616876  -0.5076279  -0.6293201 SPIN=   0.00000
   O  -0.8676295  -0.2024828  -0.2085160 SPIN=   0.00000
   O  -1.1720593  -0.5707272  -0.2974890 SPIN=   0.00000
   S  -0.9684042  -0.4690240  -0.3608366 SPIN=   0.00000
   O  -0.4047419  -0.2277598   0.3080214 SPIN=   0.00000
   O  -0.4923721   0.0616876   0.6293201 SPIN=   0.00000
   O  -0.7975172  -0.1323705   0.2085160 SPIN=   0.00000
   O  -0.4292728   0.1720593   0.2974890 SPIN=   0.00000
   S  -0.5309760  -0.0315958   0.3608366 SPIN=   0.00000
   F   0.1992420   0.3553437   0.1289199 SPIN=   0.00000
   F  -0.3553437  -0.1992420  -0.1289199 SPIN=   0.00000
%ENDBLOCK POSITIONS_FRAC

# Note: total spin =   8.00

KPOINTS_MP_SPACING 0.07

%BLOCK SPECIES_POT
QC5
%ENDBLOCK SPECIES_POT

SNAP_TO_SYMMETRY
SYMMETRY_GENERATE

