#              Generated by Buildcell
#
# at 04:27:31 (GMT+1.0) 4th August 2020
# in /lustre/scratch/uccabz1/launch_tmp
# on node-c12n-011
# by uccabz1
#
# compiler GCC version 4.9.2
# options -cpp -iprefix /lustre/shared/ucl/apps/gcc/4.9.2/bin/../lib/gcc/x86_64-unknown-linux-gnu/4.9.2/ -mtune=corei7 -march=x86-64 -g -Og
#
# seed   382078092  -362216750   652768219  -752515986   562162901 -2014253407 -1794695670  -296537938  1966902984 -1670197890   422011973 -1450962594
#
#      Author: C. J. Pickard (cjp20@cam.ac.uk)
#                Space group: Cc
#

%BLOCK LATTICE_ABC
      5.73482      6.57477      6.62302
     71.48351     64.34532     64.14321
%ENDBLOCK LATTICE_ABC

%BLOCK POSITIONS_FRAC
  Li  -0.1877769   0.3231999  -0.1135501 SPIN=   0.00000
  Li  -0.0218729  -0.1768001   0.3864499 SPIN=   0.00000
  Fe   0.4682161  -0.2415015   0.4720234 SPIN=   4.00000
  Fe   0.3012620   0.2584985  -0.0279766 SPIN=   4.00000
   O   0.1732452  -0.0677450  -0.0114048 SPIN=   0.00000
   O   0.4697597  -0.4324023  -0.1617242 SPIN=   0.00000
   O   0.3139366  -0.4255685   0.2485818 SPIN=   0.00000
   O   0.6586546  -0.2482662  -0.0260223 SPIN=   0.00000
   S   0.4038990  -0.2934955   0.0123576 SPIN=   0.00000
   O  -0.0940954   0.4322550  -0.5114048 SPIN=   0.00000
   O   0.1243668   0.0675977  -0.6617242 SPIN=   0.00000
   O  -0.1369500   0.0744315  -0.2514182 SPIN=   0.00000
   O  -0.3843661   0.2517338  -0.5260223 SPIN=   0.00000
   S  -0.1227612   0.2065045  -0.4876424 SPIN=   0.00000
   F  -0.3427126  -0.0393452   0.2537638 SPIN=   0.00000
   F   0.1282940   0.4606548  -0.2462362 SPIN=   0.00000
%ENDBLOCK POSITIONS_FRAC

# Note: total spin =   8.00

KPOINTS_MP_SPACING 0.07

%BLOCK SPECIES_POT
QC5
%ENDBLOCK SPECIES_POT

SNAP_TO_SYMMETRY
SYMMETRY_GENERATE

