#              Generated by Buildcell
#
# at 03:28:42 (GMT+1.0) 4th August 2020
# in /lustre/scratch/uccabz1/launch_tmp
# on node-c12k-005
# by uccabz1
#
# compiler GCC version 4.9.2
# options -cpp -iprefix /lustre/shared/ucl/apps/gcc/4.9.2/bin/../lib/gcc/x86_64-unknown-linux-gnu/4.9.2/ -mtune=corei7 -march=x86-64 -g -Og
#
# seed  -284771408 -1250002824  -754748523  -419247893 -1460575865 -1837674069  -421929091  1820041516 -1705231239   483209686   749009113   649662110
#
#      Author: C. J. Pickard (cjp20@cam.ac.uk)
#                Space group: P2221
#

%BLOCK LATTICE_ABC
      4.09339      6.86204      7.12023
     90.00000     90.00000     90.00000
%ENDBLOCK LATTICE_ABC

%BLOCK POSITIONS_FRAC
  Li   0.0000000   0.2702529   0.0000000 SPIN=   0.00000
  Li  -0.0000000  -0.2702529  -0.5000000 SPIN=   0.00000
  Fe  -0.0000000  -0.1547451   0.0000000 SPIN=   4.00000
  Fe   0.0000000   0.1547451   0.5000000 SPIN=   4.00000
   O   0.2602444   0.4360911  -0.5977014 SPIN=   0.00000
   O   0.2476739   0.2906284  -0.2797245 SPIN=   0.00000
   O  -0.2602444  -0.4360911  -0.0977014 SPIN=   0.00000
   O  -0.2476739  -0.2906284   0.2202755 SPIN=   0.00000
   O   0.2602444  -0.4360911   0.0977014 SPIN=   0.00000
   O   0.2476739  -0.2906284  -0.2202755 SPIN=   0.00000
   O  -0.2602444   0.4360911   0.5977014 SPIN=   0.00000
   O  -0.2476739   0.2906284   0.2797245 SPIN=   0.00000
   S   0.3022650   0.5000000  -0.2500000 SPIN=   0.00000
   S  -0.3022650   0.5000000   0.2500000 SPIN=   0.00000
   F   0.2514151  -0.0000000   0.2500000 SPIN=   0.00000
   F  -0.2514151   0.0000000  -0.2500000 SPIN=   0.00000
%ENDBLOCK POSITIONS_FRAC

# Note: total spin =   8.00

KPOINTS_MP_SPACING 0.07

%BLOCK SPECIES_POT
QC5
%ENDBLOCK SPECIES_POT

SNAP_TO_SYMMETRY
SYMMETRY_GENERATE

