#              Generated by Buildcell
#
# at 19:18:19 (GMT+1.0) 18th August 2020
# in /lustre/scratch/uccabz1/launch_tmp
# on node-c12a-026
# by uccabz1
#
# compiler GCC version 4.9.2
# options -cpp -iprefix /lustre/shared/ucl/apps/gcc/4.9.2/bin/../lib/gcc/x86_64-unknown-linux-gnu/4.9.2/ -mtune=corei7 -march=x86-64 -g -Og
#
# seed  -902799419 -1728992612   822446867  2106191686  1094925492 -2057670077  1168951847  1303090976 -2124365383   575379743   183400936  -588294525
#
#      Author: C. J. Pickard (cjp20@cam.ac.uk)
#                Space group: Cm
#

%BLOCK LATTICE_ABC
      4.14345      7.12479      7.12479
    108.03356     90.02026     90.02026
%ENDBLOCK LATTICE_ABC

%BLOCK POSITIONS_FRAC
  Li   0.2666589  -0.2448371   0.3688309 SPIN=   0.00000
  Li   0.2666589   0.3688309  -0.2448371 SPIN=   0.00000
  Fe  -0.0841641   0.1837280   0.1837280 SPIN=   4.51670
  Fe  -0.2332586  -0.3697728  -0.3697728 SPIN=   3.48330
   O  -0.0116188  -0.0328783  -0.2381755 SPIN=   0.00000
   O  -0.5480210  -0.0072964  -0.3811961 SPIN=   0.00000
   O  -0.0719406   0.1485540  -0.4814541 SPIN=   0.00000
   O  -0.2977766   0.2876213  -0.1453495 SPIN=   0.00000
   S  -0.2323393   0.0990002  -0.3115438 SPIN=   0.00000
   O  -0.0116188  -0.2381755  -0.0328783 SPIN=   0.00000
   O  -0.5480210  -0.3811961  -0.0072964 SPIN=   0.00000
   O  -0.0719406  -0.4814541   0.1485540 SPIN=   0.00000
   O  -0.2977766  -0.1453495   0.2876213 SPIN=   0.00000
   S  -0.2323393  -0.3115438   0.0990002 SPIN=   0.00000
   F   0.4627826   0.2031963   0.2031963 SPIN=   0.00000
   F   0.2850055  -0.3544819  -0.3544819 SPIN=   0.00000
%ENDBLOCK POSITIONS_FRAC

# Note: total spin =   8.00

KPOINTS_MP_SPACING 0.07

%BLOCK SPECIES_POT
QC5
%ENDBLOCK SPECIES_POT

SNAP_TO_SYMMETRY
SYMMETRY_GENERATE

