#              Generated by Buildcell
#
# at 01:32:44 (GMT+1.0) 19th August 2020
# in /scratch/scratch/uccabz1/launch_tmp
# on node-k10h-012
# by uccabz1
#
# compiler GCC version 4.9.2
# options -cpp -iprefix /scratch/UCL/applications/gcc/4.9.2/bin/../lib/gcc/x86_64-unknown-linux-gnu/4.9.2/ -mtune=corei7 -march=x86-64 -g -O2
#
# seed  -851447185   413502997   866790136   179813398 -1119180430 -1255647359  1816359553 -1723510536  -886801880  2014620904   301493791   955931282
#
#      Author: C. J. Pickard (cjp20@cam.ac.uk)
#                Space group: Cc
#

%BLOCK LATTICE_ABC
      5.97059      5.97059      6.39552
     85.30053     85.30053     61.79557
%ENDBLOCK LATTICE_ABC

%BLOCK POSITIONS_FRAC
  Li  -0.1035027   0.1991616  -0.1425932 SPIN=   0.00000
  Li   0.1991616  -0.1035027   0.3574068 SPIN=   0.00000
  Fe  -0.2099187   0.4636156   0.4169289 SPIN=   4.00000
  Fe   0.4636156  -0.2099187  -0.0830711 SPIN=   4.00000
   O   0.4662349  -0.5589525  -0.4305935 SPIN=   0.00000
   O   0.1400995  -0.6584009  -0.2471554 SPIN=   0.00000
   O   0.0149911  -0.3071516  -0.5195574 SPIN=   0.00000
   O   0.1512445  -0.2623234  -0.1770731 SPIN=   0.00000
   S   0.1931425  -0.4467071  -0.3435949 SPIN=   0.00000
   O  -0.5589525   0.4662349   0.0694065 SPIN=   0.00000
   O  -0.6584009   0.1400995   0.2528446 SPIN=   0.00000
   O  -0.3071516   0.0149911  -0.0195574 SPIN=   0.00000
   O  -0.2623234   0.1512445   0.3229269 SPIN=   0.00000
   S  -0.4467071   0.1931425   0.1564051 SPIN=   0.00000
   F  -0.1075122  -0.4663262   0.1458699 SPIN=   0.00000
   F  -0.4663262  -0.1075122  -0.3541301 SPIN=   0.00000
%ENDBLOCK POSITIONS_FRAC

# Note: total spin =   8.00

KPOINTS_MP_SPACING 0.07

%BLOCK SPECIES_POT
QC5
%ENDBLOCK SPECIES_POT

SNAP_TO_SYMMETRY
SYMMETRY_GENERATE

