#              Generated by Buildcell
#
# at 22:23:00 (GMT+1.0) 18th August 2020
# in /lustre/scratch/uccabz1/launch_tmp
# on node-c12n-029
# by uccabz1
#
# compiler GCC version 4.9.2
# options -cpp -iprefix /lustre/shared/ucl/apps/gcc/4.9.2/bin/../lib/gcc/x86_64-unknown-linux-gnu/4.9.2/ -mtune=corei7 -march=x86-64 -g -Og
#
# seed -2028225142  -586948436 -1461794991  -970613134 -1783632053 -1221488201 -1973771235 -1493708576 -1719348412   628429837 -1782961939  1097662116
#
#      Author: C. J. Pickard (cjp20@cam.ac.uk)
#                Space group: C2
#

%BLOCK LATTICE_ABC
      6.06043      6.13347      6.13347
    101.58983    106.34001    106.34001
%ENDBLOCK LATTICE_ABC

%BLOCK POSITIONS_FRAC
  Li  -0.1700915   0.2137185   0.0680055 SPIN=   0.00000
  Li   0.1700915  -0.0680055  -0.2137185 SPIN=   0.00000
  Fe   0.3247202   0.4380199   0.0442485 SPIN=   4.00000
  Fe  -0.3247202  -0.0442485  -0.4380199 SPIN=   4.00000
   O  -0.1054942  -0.0014670   0.2950531 SPIN=   0.00000
   O   0.2217588   0.2232361   0.6903501 SPIN=   0.00000
   O   0.2422891   0.3530817   0.3373891 SPIN=   0.00000
   O   0.3121259  -0.0183439   0.3755748 SPIN=   0.00000
   S   0.1676699   0.1391267   0.4245918 SPIN=   0.00000
   O   0.1054942  -0.2950531   0.0014670 SPIN=   0.00000
   O  -0.2217588  -0.6903501  -0.2232361 SPIN=   0.00000
   O  -0.2422891  -0.3373891  -0.3530817 SPIN=   0.00000
   O  -0.3121259  -0.3755748   0.0183439 SPIN=   0.00000
   S  -0.1676699  -0.4245918  -0.1391267 SPIN=   0.00000
   F   0.3323777  -0.2632205  -0.3154163 SPIN=   0.00000
   F  -0.3323777   0.3154163   0.2632205 SPIN=   0.00000
%ENDBLOCK POSITIONS_FRAC

# Note: total spin =   8.00

KPOINTS_MP_SPACING 0.07

%BLOCK SPECIES_POT
QC5
%ENDBLOCK SPECIES_POT

SNAP_TO_SYMMETRY
SYMMETRY_GENERATE

