#              Generated by Buildcell
#
# at 00:27:03 (GMT+1.0) 19th August 2020
# in /lustre/scratch/uccabz1/launch_tmp
# on node-c12b-022
# by uccabz1
#
# compiler GCC version 4.9.2
# options -cpp -iprefix /lustre/shared/ucl/apps/gcc/4.9.2/bin/../lib/gcc/x86_64-unknown-linux-gnu/4.9.2/ -mtune=corei7 -march=x86-64 -g -Og
#
# seed  2028625088  -963637937  -450414462  1425254613  -665138153 -2099154107  1061055822  -950490834   664895870  1471910559   450677300  1266768822
#
#      Author: C. J. Pickard (cjp20@cam.ac.uk)
#                Space group: Ima2
#

%BLOCK LATTICE_ABC
      4.19551      7.33748      7.33748
     71.02740     73.38760     73.38760
%ENDBLOCK LATTICE_ABC

%BLOCK POSITIONS_FRAC
  Li  -0.4866934  -0.0217895  -0.4782105 SPIN=   0.00000
  Li   0.4866934   0.4782105   0.0217895 SPIN=   0.00000
  Fe  -0.0138674  -0.2782155  -0.2217845 SPIN=   4.00000
  Fe   0.0138674   0.2217845   0.2782155 SPIN=   4.00000
   O   0.2783192  -0.0929365   0.3516973 SPIN=   0.00000
   O   0.1956746   0.0894527   0.0138625 SPIN=   0.00000
   O  -0.2783192  -0.3516973   0.0929365 SPIN=   0.00000
   O  -0.1956746  -0.0138625  -0.0894527 SPIN=   0.00000
   O  -0.0370800   0.4070635  -0.1483027 SPIN=   0.00000
   O   0.2010102   0.5894527  -0.4861375 SPIN=   0.00000
   O   0.0370800   0.1483027  -0.4070635 SPIN=   0.00000
   O  -0.2010102   0.4861375  -0.5894527 SPIN=   0.00000
   S   0.0000000   0.2540321  -0.2540321 SPIN=   0.00000
   S  -0.5000000  -0.2459679   0.2459679 SPIN=   0.00000
   F  -0.4801332   0.2489797   0.2510203 SPIN=   0.00000
   F   0.4801332  -0.2510203  -0.2489797 SPIN=   0.00000
%ENDBLOCK POSITIONS_FRAC

# Note: total spin =   8.00

KPOINTS_MP_SPACING 0.07

%BLOCK SPECIES_POT
QC5
%ENDBLOCK SPECIES_POT

SNAP_TO_SYMMETRY
SYMMETRY_GENERATE

