#              Generated by Buildcell
#
# at 01:15:39 (GMT+1.0) 19th August 2020
# in /scratch/scratch/uccabz1/launch_tmp
# on node-k10b-019
# by uccabz1
#
# compiler GCC version 4.9.2
# options -cpp -iprefix /scratch/UCL/applications/gcc/4.9.2/bin/../lib/gcc/x86_64-unknown-linux-gnu/4.9.2/ -mtune=corei7 -march=x86-64 -g -O2
#
# seed -1410536423 -1925639170   879606696  2093112801  -167124655 -1106292105   640647685   753832435  1332542424   827745489  2146189480 -1349567660
#
#      Author: C. J. Pickard (cjp20@cam.ac.uk)
#                Space group: Pmn21
#

%BLOCK LATTICE_ABC
      4.57182      6.18556      7.07232
     90.00000     90.00000     90.00000
%ENDBLOCK LATTICE_ABC

%BLOCK POSITIONS_FRAC
  Li   0.0000000   0.1562696  -0.3482786 SPIN=   0.00000
  Li   0.5000000  -0.1562696   0.1517214 SPIN=   0.00000
  Fe   0.0000000  -0.4256198  -0.1218673 SPIN=   4.00000
  Fe   0.5000000   0.4256198   0.3781327 SPIN=   4.00000
   O   0.2495937   0.2562601   0.1327446 SPIN=   0.00000
   O   0.2498194  -0.0269155  -0.1144724 SPIN=   0.00000
   O   0.2504063  -0.2562601  -0.3672554 SPIN=   0.00000
   O   0.2501806   0.0269155  -0.6144724 SPIN=   0.00000
   O  -0.2504063  -0.2562601  -0.3672554 SPIN=   0.00000
   O  -0.2501806   0.0269155  -0.6144724 SPIN=   0.00000
   O  -0.2495937   0.2562601   0.1327446 SPIN=   0.00000
   O  -0.2498194  -0.0269155  -0.1144724 SPIN=   0.00000
   S   0.0000000   0.0743616   0.0455623 SPIN=   0.00000
   S   0.5000000  -0.0743616  -0.4544377 SPIN=   0.00000
   F   0.5000000  -0.3978699  -0.0099245 SPIN=   0.00000
   F   0.0000000   0.3978699   0.4900755 SPIN=   0.00000
%ENDBLOCK POSITIONS_FRAC

# Note: total spin =   8.00

KPOINTS_MP_SPACING 0.07

%BLOCK SPECIES_POT
QC5
%ENDBLOCK SPECIES_POT

SNAP_TO_SYMMETRY
SYMMETRY_GENERATE

