#              Generated by Buildcell
#
# at 02:26:02 (GMT+1.0) 4th August 2020
# in /lustre/scratch/uccabz1/launch_tmp
# on node-c12f-010
# by uccabz1
#
# compiler GCC version 4.9.2
# options -cpp -iprefix /lustre/shared/ucl/apps/gcc/4.9.2/bin/../lib/gcc/x86_64-unknown-linux-gnu/4.9.2/ -mtune=corei7 -march=x86-64 -g -Og
#
# seed   649232149 -1680586003   347244397 -1364065531 -1876621852  -222175311   794547941 -1061622135   342902817 -1147780276  1689003395 -1226639710
#
#      Author: C. J. Pickard (cjp20@cam.ac.uk)
#                Space group: P-1
#

%BLOCK LATTICE_ABC
      5.73609      6.54607      6.58349
     66.55568     69.84053     64.38204
%ENDBLOCK LATTICE_ABC

%BLOCK POSITIONS_FRAC
  Li  -0.5000000  -0.5000000   0.0000000 SPIN=   0.00000
  Li  -0.0000000  -0.5000000   0.5000000 SPIN=   0.00000
  Fe   0.5000000  -0.5000000   0.5000000 SPIN=   1.76731
  Fe   0.5000000  -0.0000000  -0.0000000 SPIN=   6.23269
   O   0.3279811  -0.7578578   0.5574146 SPIN=   0.00000
   O   0.5831254  -0.8651155   0.2035540 SPIN=   0.00000
   O   0.1126548  -0.6078320   0.2339430 SPIN=   0.00000
   O   0.2332190  -1.0330023   0.4518737 SPIN=   0.00000
   O  -0.3279811   0.7578578  -0.5574146 SPIN=   0.00000
   O  -0.5831254   0.8651155  -0.2035540 SPIN=   0.00000
   O  -0.1126548   0.6078320  -0.2339430 SPIN=   0.00000
   O  -0.2332190   1.0330023  -0.4518737 SPIN=   0.00000
   S  -0.5000000  -0.0000000  -0.5000000 SPIN=   0.00000
   S   0.0000000   0.5000000  -0.0000000 SPIN=   0.00000
   F   0.2998533  -0.3134929   0.2343383 SPIN=   0.00000
   F  -0.2998533   0.3134929  -0.2343383 SPIN=   0.00000
%ENDBLOCK POSITIONS_FRAC

# Note: total spin =   8.00

KPOINTS_MP_SPACING 0.07

%BLOCK SPECIES_POT
QC5
%ENDBLOCK SPECIES_POT

SNAP_TO_SYMMETRY
SYMMETRY_GENERATE

