#              Generated by Buildcell
#
# at 01:38:17 (GMT+1.0) 19th August 2020
# in /scratch/scratch/uccabz1/launch_tmp
# on node-k10b-028
# by uccabz1
#
# compiler GCC version 4.9.2
# options -cpp -iprefix /scratch/UCL/applications/gcc/4.9.2/bin/../lib/gcc/x86_64-unknown-linux-gnu/4.9.2/ -mtune=corei7 -march=x86-64 -g -O2
#
# seed  1074868735 -1081831114   952747088  -427431177   -61642222  -690594003  1289690836 -1799915213   854759098  -585905539   818104169  1413151266
#
#      Author: C. J. Pickard (cjp20@cam.ac.uk)
#                Space group: P21
#

%BLOCK LATTICE_ABC
      3.96241      5.26159      9.72062
     90.00000     90.00000     99.29504
%ENDBLOCK LATTICE_ABC

%BLOCK POSITIONS_FRAC
  Li  -0.0512838  -0.1174285  -0.0635247 SPIN=   0.00000
  Li   0.0512838   0.1174285   0.4364753 SPIN=   0.00000
  Fe   0.4324951   0.3875752  -0.1237608 SPIN=   4.00000
  Fe  -0.4324951  -0.3875752   0.3762392 SPIN=   4.00000
   O   0.4631265  -0.0984880  -0.4922984 SPIN=   0.00000
   O  -0.0368871  -0.1125032  -0.3382831 SPIN=   0.00000
   O   0.5250678   0.1303399  -0.2690210 SPIN=   0.00000
   O   0.4348537  -0.3460663  -0.2749762 SPIN=   0.00000
   S   0.3465402  -0.1066794  -0.3436447 SPIN=   0.00000
   O  -0.4631265   0.0984880   0.0077016 SPIN=   0.00000
   O   0.0368871   0.1125032   0.1617169 SPIN=   0.00000
   O  -0.5250678  -0.1303399   0.2309790 SPIN=   0.00000
   O  -0.4348537   0.3460663   0.2250238 SPIN=   0.00000
   S  -0.3465402   0.1066794   0.1563553 SPIN=   0.00000
   F  -0.1597174   0.3947389   0.4937465 SPIN=   0.00000
   F   0.1597174  -0.3947389  -0.0062535 SPIN=   0.00000
%ENDBLOCK POSITIONS_FRAC

# Note: total spin =   8.00

KPOINTS_MP_SPACING 0.07

%BLOCK SPECIES_POT
QC5
%ENDBLOCK SPECIES_POT

SNAP_TO_SYMMETRY
SYMMETRY_GENERATE

