#              Generated by Buildcell
#
# at 04:46:33 (GMT+1.0) 4th August 2020
# in /lustre/scratch/uccabz1/launch_tmp
# on node-c12g-022
# by uccabz1
#
# compiler GCC version 4.9.2
# options -cpp -iprefix /lustre/shared/ucl/apps/gcc/4.9.2/bin/../lib/gcc/x86_64-unknown-linux-gnu/4.9.2/ -mtune=corei7 -march=x86-64 -g -Og
#
# seed  1281517765  1713666231  -474237323  1445102372 -1418729730  -138242705 -2101884509 -1720466899  -497877120  -441610629 -1700757615   586651182
#
#      Author: C. J. Pickard (cjp20@cam.ac.uk)
#                Space group: Cc
#

%BLOCK LATTICE_ABC
      3.96215      6.85052      8.13842
    114.88986     93.20792     90.00000
%ENDBLOCK LATTICE_ABC

%BLOCK POSITIONS_FRAC
  Li   0.0230778   0.1006159  -0.2989632 SPIN=   0.00000
  Li  -0.4769222  -0.3995791  -0.2989632 SPIN=   0.00000
  Fe   0.3964742   0.3034101   0.0709232 SPIN=   4.00000
  Fe  -0.1035258  -0.2324869   0.0709232 SPIN=   4.00000
   O   0.7990922  -0.1408862   0.3615339 SPIN=   0.00000
   O   0.3108319  -0.1477388   0.5360275 SPIN=   0.00000
   O   0.2539035   0.0081213   0.3115297 SPIN=   0.00000
   O   0.6015918   0.1982626   0.5983874 SPIN=   0.00000
   S   0.4913548  -0.0205603   0.4518696 SPIN=   0.00000
   O   0.2990922   0.5024202   0.3615339 SPIN=   0.00000
   O  -0.1891681   0.6837663   0.5360275 SPIN=   0.00000
   O  -0.2460965   0.3034084   0.3115297 SPIN=   0.00000
   O   0.1015918   0.4001248   0.5983874 SPIN=   0.00000
   S  -0.0086452   0.4724299   0.4518696 SPIN=   0.00000
   F   0.3799765  -0.2368965  -0.0416652 SPIN=   0.00000
   F  -0.1200235   0.1952312  -0.0416652 SPIN=   0.00000
%ENDBLOCK POSITIONS_FRAC

# Note: total spin =   8.00

KPOINTS_MP_SPACING 0.07

%BLOCK SPECIES_POT
QC5
%ENDBLOCK SPECIES_POT

SNAP_TO_SYMMETRY
SYMMETRY_GENERATE

