#              Generated by Buildcell
#
# at 04:21:44 (GMT+1.0) 4th August 2020
# in /lustre/scratch/uccabz1/launch_tmp
# on node-c12p-025
# by uccabz1
#
# compiler GCC version 4.9.2
# options -cpp -iprefix /lustre/shared/ucl/apps/gcc/4.9.2/bin/../lib/gcc/x86_64-unknown-linux-gnu/4.9.2/ -mtune=corei7 -march=x86-64 -g -Og
#
# seed  2135100605 -1827281982  1666256312  2011700891  1045335798  1556108114  -692891229  -766382942  2013700103   -26894645  -849459269  1109092197
#
#      Author: C. J. Pickard (cjp20@cam.ac.uk)
#                Space group: P2221
#

%BLOCK LATTICE_ABC
      3.98528      6.74143      7.44422
     90.00000     90.00000     90.00000
%ENDBLOCK LATTICE_ABC

%BLOCK POSITIONS_FRAC
  Li  -0.4944858   0.0000000  -0.2500000 SPIN=   0.00000
  Li   0.4944858   0.0000000   0.2500000 SPIN=   0.00000
  Fe  -0.0000000   0.1926658   0.0000000 SPIN=   4.00000
  Fe   0.0000000  -0.1926658  -0.5000000 SPIN=   4.00000
   O   0.2517914  -0.3285664   0.2396728 SPIN=   0.00000
   O  -0.2799451  -0.2171798   0.1006869 SPIN=   0.00000
   O  -0.2517914   0.3285664  -0.2603272 SPIN=   0.00000
   O   0.2799451   0.2171798  -0.3993131 SPIN=   0.00000
   O   0.2517914   0.3285664   0.2603272 SPIN=   0.00000
   O  -0.2799451   0.2171798   0.3993131 SPIN=   0.00000
   O  -0.2517914  -0.3285664  -0.2396728 SPIN=   0.00000
   O   0.2799451  -0.2171798  -0.1006869 SPIN=   0.00000
   S   0.0000000  -0.3097680   0.0000000 SPIN=   0.00000
   S   0.0000000   0.3097680   0.5000000 SPIN=   0.00000
   F  -0.5000000   0.1242975   0.0000000 SPIN=   0.00000
   F  -0.5000000  -0.1242975  -0.5000000 SPIN=   0.00000
%ENDBLOCK POSITIONS_FRAC

# Note: total spin =   8.00

KPOINTS_MP_SPACING 0.07

%BLOCK SPECIES_POT
QC5
%ENDBLOCK SPECIES_POT

SNAP_TO_SYMMETRY
SYMMETRY_GENERATE

