#              Generated by Buildcell
#
# at 02:49:35 (GMT+1.0) 19th August 2020
# in /lustre/scratch/uccabz1/launch_tmp
# on node-c12j-026
# by uccabz1
#
# compiler GCC version 4.9.2
# options -cpp -iprefix /lustre/shared/ucl/apps/gcc/4.9.2/bin/../lib/gcc/x86_64-unknown-linux-gnu/4.9.2/ -mtune=corei7 -march=x86-64 -g -Og
#
# seed  1861177091  1992644165  1225339508   410085820   976693219  -472037478 -1859092915    -9447352  -458461530 -1309527824   532737763  1169482281
#
#      Author: C. J. Pickard (cjp20@cam.ac.uk)
#                Space group: P2
#

%BLOCK LATTICE_ABC
      5.31916      5.48251      7.05244
    103.47961     90.00000     90.00000
%ENDBLOCK LATTICE_ABC

%BLOCK POSITIONS_FRAC
  Li  -0.1281677  -0.0000000  -0.5000000 SPIN=   0.00000
  Li   0.4414320   0.5000000   0.5000000 SPIN=   0.00000
  Fe   0.3030893   0.1769807  -0.2236443 SPIN=   4.00000
  Fe   0.3030893  -0.1769807   0.2236443 SPIN=   4.00000
   O  -0.2457021   0.0588822   0.2082245 SPIN=   0.00000
   O   0.0961351   0.3130142   0.3948661 SPIN=   0.00000
   O  -0.2815684   0.5215252   0.3017030 SPIN=   0.00000
   S  -0.1015735   0.3033952   0.2385540 SPIN=   0.00000
   O  -0.2457021  -0.0588822  -0.2082245 SPIN=   0.00000
   O   0.0961351  -0.3130142  -0.3948661 SPIN=   0.00000
   O  -0.2815684  -0.5215252  -0.3017030 SPIN=   0.00000
   S  -0.1015735  -0.3033952  -0.2385540 SPIN=   0.00000
   O  -0.1048867   0.5000000   0.0000000 SPIN=   0.00000
   O   0.4246355   0.0000000   0.0000000 SPIN=   0.00000
   F   0.3989394   0.5000000   0.0000000 SPIN=   0.00000
   F   0.4602958   0.0000000   0.5000000 SPIN=   0.00000
%ENDBLOCK POSITIONS_FRAC

# Note: total spin =   8.00

KPOINTS_MP_SPACING 0.07

%BLOCK SPECIES_POT
QC5
%ENDBLOCK SPECIES_POT

SNAP_TO_SYMMETRY
SYMMETRY_GENERATE

