#              Generated by Buildcell
#
# at 18:06:51 (GMT+1.0) 18th August 2020
# in /lustre/scratch/uccabz1/launch_tmp
# on node-c12e-015
# by uccabz1
#
# compiler GCC version 4.9.2
# options -cpp -iprefix /lustre/shared/ucl/apps/gcc/4.9.2/bin/../lib/gcc/x86_64-unknown-linux-gnu/4.9.2/ -mtune=corei7 -march=x86-64 -g -Og
#
# seed   931335004  -322535799 -1405838497    49992413 -1404403951  1922428489   407247341  1840313143   871815689   444573294 -1631754780  -763288954
#
#      Author: C. J. Pickard (cjp20@cam.ac.uk)
#                Space group: Cc
#

%BLOCK LATTICE_ABC
      5.75528      5.84179      7.43167
    109.96969     90.00000    119.51133
%ENDBLOCK LATTICE_ABC

%BLOCK POSITIONS_FRAC
  Li  -0.0537478   0.4247656   0.0122293 SPIN=   0.00000
  Li   0.4785134   0.4247656  -0.4877707 SPIN=   0.00000
  Fe  -0.3449644  -0.2571916   0.0880484 SPIN=   4.00000
  Fe   0.0877728  -0.2571916  -0.4119516 SPIN=   4.00000
   O   0.1272590  -0.2257518  -0.0780764 SPIN=   0.00000
   O   0.2460557   0.2720229   0.0040220 SPIN=   0.00000
   O   0.6036849   0.1752537   0.0693031 SPIN=   0.00000
   O   0.2484165   0.1053820   0.2683227 SPIN=   0.00000
   S   0.3063540   0.0817267   0.0658929 SPIN=   0.00000
   O  -0.3530108  -0.2257518  -0.5780764 SPIN=   0.00000
   O   0.0259672   0.2720229  -0.4959780 SPIN=   0.00000
   O  -0.4284313   0.1752537  -0.4306969 SPIN=   0.00000
   O  -0.1430345   0.1053820  -0.2316773 SPIN=   0.00000
   S  -0.2246273   0.0817267  -0.4341071 SPIN=   0.00000
   F  -0.4583854  -0.4101590  -0.1776746 SPIN=   0.00000
   F   0.0482264  -0.4101590   0.3223254 SPIN=   0.00000
%ENDBLOCK POSITIONS_FRAC

# Note: total spin =   8.00

KPOINTS_MP_SPACING 0.07

%BLOCK SPECIES_POT
QC5
%ENDBLOCK SPECIES_POT

SNAP_TO_SYMMETRY
SYMMETRY_GENERATE

