#              Generated by Buildcell
#
# at 05:14:15 (GMT+1.0) 4th August 2020
# in /lustre/scratch/uccabz1/launch_tmp
# on node-c12f-018
# by uccabz1
#
# compiler GCC version 4.9.2
# options -cpp -iprefix /lustre/shared/ucl/apps/gcc/4.9.2/bin/../lib/gcc/x86_64-unknown-linux-gnu/4.9.2/ -mtune=corei7 -march=x86-64 -g -Og
#
# seed  1133252362  -898539192  -921682766   122470144 -1897924542  -526418891 -1482477196  1619506615 -1564171398 -1985125455  1333923295 -1276954756
#
#      Author: C. J. Pickard (cjp20@cam.ac.uk)
#                Space group: P2
#

%BLOCK LATTICE_ABC
      4.06713      6.42414      7.77045
     90.00000     99.90316     90.00000
%ENDBLOCK LATTICE_ABC

%BLOCK POSITIONS_FRAC
  Li  -0.3953255   0.2913894  -0.2501130 SPIN=   0.00000
  Li   0.3953255   0.2913894   0.2501130 SPIN=   0.00000
  Fe   0.0000000   0.0347782  -0.5000000 SPIN=   0.10413
  Fe   0.0000000  -0.0290203   0.0000000 SPIN=   7.89587
   O   0.0472796  -0.6381448  -0.3524783 SPIN=   0.00000
   O   0.0298368  -0.2530529  -0.3544098 SPIN=   0.00000
   O   0.4709463  -0.4377581  -0.1522419 SPIN=   0.00000
   S   0.1085308  -0.4442196  -0.2404815 SPIN=   0.00000
   O  -0.0472796  -0.6381448   0.3524783 SPIN=   0.00000
   O  -0.0298368  -0.2530529   0.3544098 SPIN=   0.00000
   O  -0.4709463  -0.4377581   0.1522419 SPIN=   0.00000
   S  -0.1085308  -0.4442196   0.2404815 SPIN=   0.00000
   O  -0.5000000   0.2478694   0.0000000 SPIN=   0.00000
   O   0.0000000  -0.3597165   0.0000000 SPIN=   0.00000
   F  -0.3910824  -0.0155637  -0.2393602 SPIN=   0.00000
   F   0.3910824  -0.0155637   0.2393602 SPIN=   0.00000
%ENDBLOCK POSITIONS_FRAC

# Note: total spin =   8.00

KPOINTS_MP_SPACING 0.07

%BLOCK SPECIES_POT
QC5
%ENDBLOCK SPECIES_POT

SNAP_TO_SYMMETRY
SYMMETRY_GENERATE

