#              Generated by Buildcell
#
# at 23:08:03 (GMT+1.0) 18th August 2020
# in /lustre/scratch/uccabz1/launch_tmp
# on node-c12e-033
# by uccabz1
#
# compiler GCC version 4.9.2
# options -cpp -iprefix /lustre/shared/ucl/apps/gcc/4.9.2/bin/../lib/gcc/x86_64-unknown-linux-gnu/4.9.2/ -mtune=corei7 -march=x86-64 -g -Og
#
# seed  1397785409   767651769  1298885497   337060760  -205366255   468613561   504510539  1551505735 -1281568466   488561311  1084068775  1921723278
#
#      Author: C. J. Pickard (cjp20@cam.ac.uk)
#                Space group: P-1
#

%BLOCK LATTICE_ABC
      5.58310      6.03319      7.02252
     72.77204     67.71549     68.30607
%ENDBLOCK LATTICE_ABC

%BLOCK POSITIONS_FRAC
  Li   0.1988025   0.2565098   0.1929873 SPIN=   0.00000
  Li  -0.1988025  -0.2565098  -0.1929873 SPIN=   0.00000
  Fe  -0.1383998   0.2472644  -0.3549666 SPIN=   4.00000
  Fe   0.1383998  -0.2472644   0.3549666 SPIN=   4.00000
   O  -0.2585892   0.1114300   0.0856387 SPIN=   0.00000
   O  -0.4268329   0.5150746   0.1854655 SPIN=   0.00000
   O  -0.1468197   0.1661431   0.3745823 SPIN=   0.00000
   O  -0.6153364   0.1835726   0.4215473 SPIN=   0.00000
   S  -0.3618945   0.2440551   0.2668085 SPIN=   0.00000
   O   0.2585892  -0.1114300  -0.0856387 SPIN=   0.00000
   O   0.4268329  -0.5150746  -0.1854655 SPIN=   0.00000
   O   0.1468197  -0.1661431  -0.3745823 SPIN=   0.00000
   O   0.6153364  -0.1835726  -0.4215473 SPIN=   0.00000
   S   0.3618945  -0.2440551  -0.2668085 SPIN=   0.00000
   F   0.0438355   0.3537419  -0.2347941 SPIN=   0.00000
   F  -0.0438355  -0.3537419   0.2347941 SPIN=   0.00000
%ENDBLOCK POSITIONS_FRAC

# Note: total spin =   8.00

KPOINTS_MP_SPACING 0.07

%BLOCK SPECIES_POT
QC5
%ENDBLOCK SPECIES_POT

SNAP_TO_SYMMETRY
SYMMETRY_GENERATE

