#              Generated by Buildcell
#
# at 01:36:10 (GMT+1.0) 19th August 2020
# in /lustre/scratch/uccabz1/launch_tmp
# on node-c12i-026
# by uccabz1
#
# compiler GCC version 4.9.2
# options -cpp -iprefix /lustre/shared/ucl/apps/gcc/4.9.2/bin/../lib/gcc/x86_64-unknown-linux-gnu/4.9.2/ -mtune=corei7 -march=x86-64 -g -Og
#
# seed  1984015320 -1979278036 -2006272411  1594826157 -1338032228  1718438176  -804049979 -1243129567 -1829614475   -43199089  1066285224  1535851886
#
#      Author: C. J. Pickard (cjp20@cam.ac.uk)
#                Space group: P21212
#

%BLOCK LATTICE_ABC
      3.86379      6.28077      8.24146
     90.00000     90.00000     90.00000
%ENDBLOCK LATTICE_ABC

%BLOCK POSITIONS_FRAC
  Li   0.5000000   0.0000000  -0.0547497 SPIN=   0.00000
  Li  -0.0000000   0.5000000   0.0547497 SPIN=   0.00000
  Fe  -0.0000000   0.0000000   0.2659942 SPIN=   4.00000
  Fe   0.5000000  -0.5000000  -0.2659942 SPIN=   4.00000
   O   0.2278632   0.1183800  -0.2582405 SPIN=   0.00000
   O   0.3087281  -0.2012455  -0.4297244 SPIN=   0.00000
   O  -0.2278632  -0.1183800  -0.2582405 SPIN=   0.00000
   O  -0.3087281   0.2012455  -0.4297244 SPIN=   0.00000
   O   0.2721368   0.6183800   0.2582405 SPIN=   0.00000
   O   0.1912719   0.2987545   0.4297244 SPIN=   0.00000
   O  -0.2721368  -0.6183800   0.2582405 SPIN=   0.00000
   O  -0.1912719  -0.2987545   0.4297244 SPIN=   0.00000
   S   0.5000000  -0.0000000  -0.3974171 SPIN=   0.00000
   S  -0.0000000   0.5000000   0.3974171 SPIN=   0.00000
   F   0.5000000  -0.0000000   0.1838639 SPIN=   0.00000
   F  -0.0000000  -0.5000000  -0.1838639 SPIN=   0.00000
%ENDBLOCK POSITIONS_FRAC

# Note: total spin =   8.00

KPOINTS_MP_SPACING 0.07

%BLOCK SPECIES_POT
QC5
%ENDBLOCK SPECIES_POT

SNAP_TO_SYMMETRY
SYMMETRY_GENERATE

