#              Generated by Buildcell
#
# at 04:27:57 (GMT+1.0) 4th August 2020
# in /lustre/scratch/uccabz1/launch_tmp
# on node-c12k-032
# by uccabz1
#
# compiler GCC version 4.9.2
# options -cpp -iprefix /lustre/shared/ucl/apps/gcc/4.9.2/bin/../lib/gcc/x86_64-unknown-linux-gnu/4.9.2/ -mtune=corei7 -march=x86-64 -g -Og
#
# seed  1896912166   948908840  -956596849   387446633  -834814254  2078062789  1410170459  1633174347  -156470508 -1323717368   -63584171 -1633880581
#
#      Author: C. J. Pickard (cjp20@cam.ac.uk)
#                Space group: Cm
#

%BLOCK LATTICE_ABC
      4.02764      7.34675      7.34675
     68.29201     83.37264     83.37264
%ENDBLOCK LATTICE_ABC

%BLOCK POSITIONS_FRAC
  Li   0.2412120   0.4287527   0.4287527 SPIN=   0.00000
  Li  -0.3462566  -0.3222857  -0.3222857 SPIN=   0.00000
  Fe  -0.3172333   0.2152192   0.2152192 SPIN=   6.27436
  Fe  -0.0267519  -0.1030566  -0.1030566 SPIN=   1.72564
   O   0.0104863   0.4667813  -0.0381340 SPIN=   0.00000
   O   0.1256841   0.1607532  -0.1097522 SPIN=   0.00000
   O   0.5882736   0.3671744  -0.1403512 SPIN=   0.00000
   S   0.2200725   0.3696647  -0.1671650 SPIN=   0.00000
   O   0.0104863  -0.0381340   0.4667813 SPIN=   0.00000
   O   0.1256841  -0.1097522   0.1607532 SPIN=   0.00000
   O   0.5882736  -0.1403512   0.3671744 SPIN=   0.00000
   S   0.2200725  -0.1671650   0.3696647 SPIN=   0.00000
   O  -0.3588745   0.0496976   0.0496976 SPIN=   0.00000
   O   0.1985036   0.1823970   0.1823970 SPIN=   0.00000
   F   0.4969908  -0.1594507  -0.1594507 SPIN=   0.00000
   F  -0.2132468   0.3817222   0.3817222 SPIN=   0.00000
%ENDBLOCK POSITIONS_FRAC

# Note: total spin =   8.00

KPOINTS_MP_SPACING 0.07

%BLOCK SPECIES_POT
QC5
%ENDBLOCK SPECIES_POT

SNAP_TO_SYMMETRY
SYMMETRY_GENERATE

