#              Generated by Buildcell
#
# at 02:39:28 (GMT+1.0) 4th August 2020
# in /lustre/scratch/uccabz1/launch_tmp
# on node-c12c-030
# by uccabz1
#
# compiler GCC version 4.9.2
# options -cpp -iprefix /lustre/shared/ucl/apps/gcc/4.9.2/bin/../lib/gcc/x86_64-unknown-linux-gnu/4.9.2/ -mtune=corei7 -march=x86-64 -g -Og
#
# seed   512380198  -705465348  1481313195  -902982909   -57395943 -1945241230   218612840 -1444277082 -1436806704 -1898822433  2140150877 -1404116029
#
#      Author: C. J. Pickard (cjp20@cam.ac.uk)
#                Space group: Pc
#

%BLOCK LATTICE_ABC
      4.97662      6.22929      6.83744
     90.00000    109.34380     90.00000
%ENDBLOCK LATTICE_ABC

%BLOCK POSITIONS_FRAC
  Li  -0.3013122  -0.1983508  -0.3002402 SPIN=   0.00000
  Li   0.1986878   0.1983508   0.1997598 SPIN=   0.00000
  Fe   0.2125002   0.0870957  -0.2175375 SPIN=   4.00000
  Fe  -0.2874998  -0.0870957   0.2824625 SPIN=   4.00000
   O  -0.2354794   0.4485728  -0.5496441 SPIN=   0.00000
   O  -0.5607674   0.5536639  -0.3598467 SPIN=   0.00000
   O  -0.1735607   0.2928746  -0.2044361 SPIN=   0.00000
   O  -0.5875108   0.1881474  -0.5069503 SPIN=   0.00000
   S  -0.3893296   0.3708147  -0.4052193 SPIN=   0.00000
   O   0.2645206  -0.4485728  -0.0496441 SPIN=   0.00000
   O  -0.0607674  -0.5536639   0.1401533 SPIN=   0.00000
   O   0.3264393  -0.2928746   0.2955639 SPIN=   0.00000
   O  -0.0875108  -0.1881474  -0.0069503 SPIN=   0.00000
   S   0.1106704  -0.3708147   0.0947807 SPIN=   0.00000
   F  -0.4983420   0.1291745   0.0605026 SPIN=   0.00000
   F   0.0016580  -0.1291745  -0.4394974 SPIN=   0.00000
%ENDBLOCK POSITIONS_FRAC

# Note: total spin =   8.00

KPOINTS_MP_SPACING 0.07

%BLOCK SPECIES_POT
QC5
%ENDBLOCK SPECIES_POT

SNAP_TO_SYMMETRY
SYMMETRY_GENERATE

