#              Generated by Buildcell
#
# at 01:56:18 (GMT+1.0) 4th August 2020
# in /lustre/scratch/uccabz1/launch_tmp
# on node-c12c-025
# by uccabz1
#
# compiler GCC version 4.9.2
# options -cpp -iprefix /lustre/shared/ucl/apps/gcc/4.9.2/bin/../lib/gcc/x86_64-unknown-linux-gnu/4.9.2/ -mtune=corei7 -march=x86-64 -g -Og
#
# seed -1390620983  1714757280  -825488316  -591460847    18632669  -545972509 -1662031455 -1033388847  1739170053   492019140  -548393333  1788804474
#
#      Author: C. J. Pickard (cjp20@cam.ac.uk)
#                Space group: Cm
#

%BLOCK LATTICE_ABC
      5.82125      5.82125      6.43689
     73.24870     73.24870     84.78323
%ENDBLOCK LATTICE_ABC

%BLOCK POSITIONS_FRAC
  Li  -0.2166560  -0.2166560  -0.2684021 SPIN=   0.00000
  Li   0.2113831   0.2113831  -0.1773715 SPIN=   0.00000
  Fe   0.3354389  -0.1446198   0.2732448 SPIN=   4.00000
  Fe  -0.1446198   0.3354389   0.2732448 SPIN=   4.00000
   O   0.2629148  -0.4497812  -0.3063353 SPIN=   0.00000
   O   0.4521114  -0.2605593  -0.0989117 SPIN=   0.00000
   O   0.0210120  -0.3627329   0.0479254 SPIN=   0.00000
   S   0.2245650  -0.2757216  -0.1636699 SPIN=   0.00000
   O  -0.4497812   0.2629148  -0.3063353 SPIN=   0.00000
   O  -0.2605593   0.4521114  -0.0989117 SPIN=   0.00000
   O  -0.3627329   0.0210120   0.0479254 SPIN=   0.00000
   S  -0.2757216   0.2245650  -0.1636699 SPIN=   0.00000
   O   0.2869071   0.2869071   0.0668091 SPIN=   0.00000
   O  -0.3422258  -0.3422258  -0.4582411 SPIN=   0.00000
   F   0.4774825   0.4774825   0.2972865 SPIN=   0.00000
   F  -0.0098025  -0.0098025   0.3962817 SPIN=   0.00000
%ENDBLOCK POSITIONS_FRAC

# Note: total spin =   8.00

KPOINTS_MP_SPACING 0.07

%BLOCK SPECIES_POT
QC5
%ENDBLOCK SPECIES_POT

SNAP_TO_SYMMETRY
SYMMETRY_GENERATE

