#              Generated by Buildcell
#
# at 00:18:42 (GMT+1.0) 19th August 2020
# in /lustre/scratch/uccabz1/launch_tmp
# on node-c12l-017
# by uccabz1
#
# compiler GCC version 4.9.2
# options -cpp -iprefix /lustre/shared/ucl/apps/gcc/4.9.2/bin/../lib/gcc/x86_64-unknown-linux-gnu/4.9.2/ -mtune=corei7 -march=x86-64 -g -Og
#
# seed  -290112370 -1952131743   332683589   -17242423 -1910336372 -1920776321   488109717 -1476080179 -1455810604  1869815841  -224547450  -809859752
#
#      Author: C. J. Pickard (cjp20@cam.ac.uk)
#                Space group: P2/c
#

%BLOCK LATTICE_ABC
      4.32034      6.50674      7.28127
     90.00000    102.28399     90.00000
%ENDBLOCK LATTICE_ABC

%BLOCK POSITIONS_FRAC
  Li  -0.5000000  -0.2344361  -0.2500000 SPIN=   0.00000
  Li   0.5000000   0.2344361   0.2500000 SPIN=   0.00000
  Fe  -0.0000000   0.0000000  -0.0000000 SPIN=   4.00000
  Fe  -0.0000000   0.0000000   0.5000000 SPIN=   4.00000
   O   0.6976194  -0.2070708   0.1071764 SPIN=   0.00000
   O   0.7876830  -0.4449144   0.3785999 SPIN=   0.00000
   O   0.3023806  -0.2070708   0.3928236 SPIN=   0.00000
   O   0.2123170  -0.4449144   0.1214001 SPIN=   0.00000
   O  -0.6976194   0.2070708  -0.1071764 SPIN=   0.00000
   O  -0.7876830   0.4449144  -0.3785999 SPIN=   0.00000
   O  -0.3023806   0.2070708  -0.3928236 SPIN=   0.00000
   O  -0.2123170   0.4449144  -0.1214001 SPIN=   0.00000
   S  -0.5000000   0.3554173  -0.2500000 SPIN=   0.00000
   S   0.5000000  -0.3554173   0.2500000 SPIN=   0.00000
   F  -0.0000000   0.1559285   0.2500000 SPIN=   0.00000
   F   0.0000000  -0.1559285  -0.2500000 SPIN=   0.00000
%ENDBLOCK POSITIONS_FRAC

# Note: total spin =   8.00

KPOINTS_MP_SPACING 0.07

%BLOCK SPECIES_POT
QC5
%ENDBLOCK SPECIES_POT

SNAP_TO_SYMMETRY
SYMMETRY_GENERATE

