#              Generated by Buildcell
#
# at 05:07:06 (GMT+1.0) 4th August 2020
# in /lustre/scratch/uccabz1/launch_tmp
# on node-c12c-005
# by uccabz1
#
# compiler GCC version 4.9.2
# options -cpp -iprefix /lustre/shared/ucl/apps/gcc/4.9.2/bin/../lib/gcc/x86_64-unknown-linux-gnu/4.9.2/ -mtune=corei7 -march=x86-64 -g -Og
#
# seed  -352725370   340832036  -868782026   573894031  -638090075 -1332366864  1428594874 -1920680120 -1120794122  -930460961  1792267767  1488604492
#
#      Author: C. J. Pickard (cjp20@cam.ac.uk)
#                Space group: P21
#

%BLOCK LATTICE_ABC
      3.97701      5.97006      8.91373
    109.08979     90.00000     90.00000
%ENDBLOCK LATTICE_ABC

%BLOCK POSITIONS_FRAC
  Li  -0.3889082   0.2367070  -0.1493391 SPIN=   0.00000
  Li   0.1110918  -0.2367070   0.1493391 SPIN=   0.00000
  Fe   0.1318730   0.2549845   0.1038357 SPIN=   4.00000
  Fe  -0.3681270  -0.2549845  -0.1038357 SPIN=   4.00000
   O  -0.0040465  -0.5173736  -0.4327495 SPIN=   0.00000
   O   0.5122397  -0.6847260  -0.3562367 SPIN=   0.00000
   O  -0.0072674  -0.9255423  -0.4204424 SPIN=   0.00000
   O   0.0264578  -0.5826385  -0.1728256 SPIN=   0.00000
   S   0.1318459  -0.6775701  -0.3455636 SPIN=   0.00000
   O  -0.5040465   0.5173736   0.4327495 SPIN=   0.00000
   O   0.0122397   0.6847260   0.3562367 SPIN=   0.00000
   O  -0.5072674   0.9255423   0.4204424 SPIN=   0.00000
   O  -0.4735422   0.5826385   0.1728256 SPIN=   0.00000
   S  -0.3681541   0.6775701   0.3455636 SPIN=   0.00000
   F  -0.4684705  -0.1193294  -0.2534406 SPIN=   0.00000
   F   0.0315295   0.1193294   0.2534406 SPIN=   0.00000
%ENDBLOCK POSITIONS_FRAC

# Note: total spin =   8.00

KPOINTS_MP_SPACING 0.07

%BLOCK SPECIES_POT
QC5
%ENDBLOCK SPECIES_POT

SNAP_TO_SYMMETRY
SYMMETRY_GENERATE

