#              Generated by Buildcell
#
# at 19:55:49 (GMT+1.0) 18th August 2020
# in /scratch/scratch/uccabz1/launch_tmp
# on node-k10e-015
# by uccabz1
#
# compiler GCC version 4.9.2
# options -cpp -iprefix /scratch/UCL/applications/gcc/4.9.2/bin/../lib/gcc/x86_64-unknown-linux-gnu/4.9.2/ -mtune=corei7 -march=x86-64 -g -O2
#
# seed  1525219485  -971756708  1472035377  -489162097  -922879416   607667796   496798366  -409150327  1944435159   220610802  1170039559  -404908118
#
#      Author: C. J. Pickard (cjp20@cam.ac.uk)
#                Space group: C2
#

%BLOCK LATTICE_ABC
      4.16724      4.16724     13.21544
     90.24742     90.24742    119.36671
%ENDBLOCK LATTICE_ABC

%BLOCK POSITIONS_FRAC
  Li  -0.9001052  -0.4773930   0.2827034 SPIN=   0.00000
  Li  -0.5226070  -0.0998948  -0.2827034 SPIN=   0.00000
  Fe  -0.1969862  -0.1215561   0.1282713 SPIN=   4.00000
  Fe   0.1215561   0.1969862  -0.1282713 SPIN=   4.00000
   O   0.4343261   0.5407919   0.3942793 SPIN=   0.00000
   O   0.4346494   0.1498925   0.2528050 SPIN=   0.00000
   O   0.0998582  -0.1377106   0.4103615 SPIN=   0.00000
   O   0.7812781   0.2023004   0.4102632 SPIN=   0.00000
   S   0.4375280   0.1888186   0.3669272 SPIN=   0.00000
   O  -0.5407919  -0.4343261  -0.3942793 SPIN=   0.00000
   O  -0.1498925  -0.4346494  -0.2528050 SPIN=   0.00000
   O   0.1377106  -0.0998582  -0.4103615 SPIN=   0.00000
   O  -0.2023004  -0.7812781  -0.4102632 SPIN=   0.00000
   S  -0.1888186  -0.4375280  -0.3669272 SPIN=   0.00000
   F  -0.4275049  -0.0779492  -0.1286983 SPIN=   0.00000
   F   0.0779492   0.4275049   0.1286983 SPIN=   0.00000
%ENDBLOCK POSITIONS_FRAC

# Note: total spin =   8.00

KPOINTS_MP_SPACING 0.07

%BLOCK SPECIES_POT
QC5
%ENDBLOCK SPECIES_POT

SNAP_TO_SYMMETRY
SYMMETRY_GENERATE

