#              Generated by Buildcell
#
# at 02:29:42 (GMT+1.0) 19th August 2020
# in /scratch/scratch/uccabz1/launch_tmp
# on node-k10d-036
# by uccabz1
#
# compiler GCC version 4.9.2
# options -cpp -iprefix /scratch/UCL/applications/gcc/4.9.2/bin/../lib/gcc/x86_64-unknown-linux-gnu/4.9.2/ -mtune=corei7 -march=x86-64 -g -O2
#
# seed  1353978856  1433899808  -820440960 -1248690736  2131947221  -763121489 -1545152800  2027078047 -1202894284 -2032800175   498211825 -2122518520
#
#      Author: C. J. Pickard (cjp20@cam.ac.uk)
#                Space group: Cc
#

%BLOCK LATTICE_ABC
      5.59652      6.58106      6.76318
     68.82946     65.55940     64.83672
%ENDBLOCK LATTICE_ABC

%BLOCK POSITIONS_FRAC
  Li  -0.0623718  -0.0598025   0.3246592 SPIN=   0.00000
  Li  -0.2024849   0.4401975  -0.1753408 SPIN=   0.00000
  Fe   0.3441930  -0.0742087  -0.4675011 SPIN=   4.00000
  Fe   0.1975169   0.4257913   0.0324989 SPIN=   4.00000
   O  -0.0833183   0.0968120  -0.3757172 SPIN=   0.00000
   O  -0.1686832   0.4453044  -0.6762922 SPIN=   0.00000
   O  -0.4843277   0.4446047  -0.2900112 SPIN=   0.00000
   O  -0.4839066   0.2128203  -0.5082276 SPIN=   0.00000
   S  -0.3050590   0.2998853  -0.4625621 SPIN=   0.00000
   O   0.3622236  -0.4031880   0.1242828 SPIN=   0.00000
   O   0.3996710  -0.0546956  -0.1762922 SPIN=   0.00000
   O   0.3297342  -0.0553953   0.2099888 SPIN=   0.00000
   O   0.7793139  -0.2871797  -0.0082276 SPIN=   0.00000
   S   0.4677357  -0.2001147   0.0374379 SPIN=   0.00000
   F   0.0097008  -0.3535980  -0.4383864 SPIN=   0.00000
   F  -0.2177164   0.1464020   0.0616136 SPIN=   0.00000
%ENDBLOCK POSITIONS_FRAC

# Note: total spin =   8.00

KPOINTS_MP_SPACING 0.07

%BLOCK SPECIES_POT
QC5
%ENDBLOCK SPECIES_POT

SNAP_TO_SYMMETRY
SYMMETRY_GENERATE

