#              Generated by Buildcell
#
# at 03:31:20 (GMT+1.0) 4th August 2020
# in /lustre/scratch/uccabz1/launch_tmp
# on node-c12f-001
# by uccabz1
#
# compiler GCC version 4.9.2
# options -cpp -iprefix /lustre/shared/ucl/apps/gcc/4.9.2/bin/../lib/gcc/x86_64-unknown-linux-gnu/4.9.2/ -mtune=corei7 -march=x86-64 -g -Og
#
# seed -1205768005    18216711 -1119315364  -648487286  2007905665  1651413509  1351465796   592383154   626706836  2084784289 -1628616583 -1502047649
#
#      Author: C. J. Pickard (cjp20@cam.ac.uk)
#                Space group: Cmc21
#

%BLOCK LATTICE_ABC
      5.41017      5.41017      7.17490
     90.00000     90.00000    107.76029
%ENDBLOCK LATTICE_ABC

%BLOCK POSITIONS_FRAC
  Li   0.2015461  -0.2015461   0.0545090 SPIN=   0.00000
  Li  -0.2015461   0.2015461  -0.4454910 SPIN=   0.00000
  Fe   0.4817962  -0.4817962   0.3634782 SPIN=   4.00000
  Fe  -0.4817962   0.4817962  -0.1365218 SPIN=   4.00000
   O  -0.1238001   0.5098429  -0.0050239 SPIN=   0.00000
   O   0.0977689   0.2680532  -0.2031238 SPIN=   0.00000
   O   0.1238001  -0.5098429   0.4949761 SPIN=   0.00000
   O  -0.0977689  -0.2680532   0.2968762 SPIN=   0.00000
   O   0.5098429  -0.1238001   0.4949761 SPIN=   0.00000
   O   0.2680532   0.0977689   0.2968762 SPIN=   0.00000
   O  -0.5098429   0.1238001  -0.0050239 SPIN=   0.00000
   O  -0.2680532  -0.0977689  -0.2031238 SPIN=   0.00000
   S  -0.0980468   0.0980468  -0.0772519 SPIN=   0.00000
   S   0.0980468  -0.0980468   0.4227481 SPIN=   0.00000
   F  -0.4141014   0.4141014  -0.3763571 SPIN=   0.00000
   F   0.4141014  -0.4141014   0.1236429 SPIN=   0.00000
%ENDBLOCK POSITIONS_FRAC

# Note: total spin =   8.00

KPOINTS_MP_SPACING 0.07

%BLOCK SPECIES_POT
QC5
%ENDBLOCK SPECIES_POT

SNAP_TO_SYMMETRY
SYMMETRY_GENERATE

