#              Generated by Buildcell
#
# at 01:55:07 (GMT+1.0) 19th August 2020
# in /scratch/scratch/uccabz1/launch_tmp
# on node-k10h-025
# by uccabz1
#
# compiler GCC version 4.9.2
# options -cpp -iprefix /scratch/UCL/applications/gcc/4.9.2/bin/../lib/gcc/x86_64-unknown-linux-gnu/4.9.2/ -mtune=corei7 -march=x86-64 -g -O2
#
# seed  -714435279 -2143019716   474902657   489323210  1685784088 -2033885155 -2091800939  2000228963  -464065916 -1987474719    45964495  1682001127
#
#      Author: C. J. Pickard (cjp20@cam.ac.uk)
#                Space group: C2
#

%BLOCK LATTICE_ABC
      5.78382      5.78382      6.64839
     71.59597     71.59597     81.75295
%ENDBLOCK LATTICE_ABC

%BLOCK POSITIONS_FRAC
  Li   0.1372342  -0.4966511   0.2951271 SPIN=   0.00000
  Li   0.4966511  -0.1372342  -0.2951271 SPIN=   0.00000
  Fe  -0.4374826   0.4374826   0.5000000 SPIN=   1.25329
  Fe   0.0890985  -0.0890985  -0.5000000 SPIN=   6.74671
   O   0.5249718   0.1644389   0.1836513 SPIN=   0.00000
   O   0.6782804   0.0077757  -0.1431832 SPIN=   0.00000
   O   0.3607813   0.3435512  -0.1371340 SPIN=   0.00000
   O   0.2592979  -0.0742956   0.1043838 SPIN=   0.00000
   S   0.4558328   0.1103675   0.0019294 SPIN=   0.00000
   O  -0.1644389  -0.5249718  -0.1836513 SPIN=   0.00000
   O  -0.0077757  -0.6782804   0.1431832 SPIN=   0.00000
   O  -0.3435512  -0.3607813   0.1371340 SPIN=   0.00000
   O   0.0742956  -0.2592979  -0.1043838 SPIN=   0.00000
   S  -0.1103675  -0.4558328  -0.0019294 SPIN=   0.00000
   F  -0.2442517  -0.1675388   0.4526210 SPIN=   0.00000
   F   0.1675388   0.2442517  -0.4526210 SPIN=   0.00000
%ENDBLOCK POSITIONS_FRAC

# Note: total spin =   8.00

KPOINTS_MP_SPACING 0.07

%BLOCK SPECIES_POT
QC5
%ENDBLOCK SPECIES_POT

SNAP_TO_SYMMETRY
SYMMETRY_GENERATE

