#              Generated by Buildcell
#
# at 20:28:14 (GMT+1.0) 18th August 2020
# in /lustre/scratch/uccabz1/launch_tmp
# on node-c12j-020
# by uccabz1
#
# compiler GCC version 4.9.2
# options -cpp -iprefix /lustre/shared/ucl/apps/gcc/4.9.2/bin/../lib/gcc/x86_64-unknown-linux-gnu/4.9.2/ -mtune=corei7 -march=x86-64 -g -Og
#
# seed  2008454706   364213114 -1874439384  -344827715   577484327  1285382043  1195758194 -1840873215 -2049868883  -487726945   670211591 -1817792611
#
#      Author: C. J. Pickard (cjp20@cam.ac.uk)
#                Space group: Pc
#

%BLOCK LATTICE_ABC
      4.36184      6.55692      7.07998
     90.00000     98.99305     90.00000
%ENDBLOCK LATTICE_ABC

%BLOCK POSITIONS_FRAC
  Li   0.0481495  -0.2550146   0.0611980 SPIN=   0.00000
  Li  -0.4518505   0.2550146   0.0611980 SPIN=   0.00000
  Fe  -0.1040903  -0.2311120   0.4616360 SPIN=   4.00000
  Fe   0.3959097   0.2311120   0.4616360 SPIN=   4.00000
   O   0.3353706  -0.4136823  -0.0847855 SPIN=   0.00000
   O   0.7210152  -0.3344513  -0.2961194 SPIN=   0.00000
   O   0.6484370  -0.0979802  -0.0342595 SPIN=   0.00000
   O   0.2396442  -0.1302590  -0.3173890 SPIN=   0.00000
   S   0.4861168  -0.2440932  -0.1831383 SPIN=   0.00000
   O  -0.1646294   0.4136823  -0.0847855 SPIN=   0.00000
   O   0.2210152   0.3344513  -0.2961194 SPIN=   0.00000
   O   0.1484370   0.0979802  -0.0342595 SPIN=   0.00000
   O  -0.2603558   0.1302590  -0.3173890 SPIN=   0.00000
   S  -0.0138832   0.2440932  -0.1831383 SPIN=   0.00000
   F  -0.1513198   0.2668642   0.3045957 SPIN=   0.00000
   F   0.3486802  -0.2668642   0.3045957 SPIN=   0.00000
%ENDBLOCK POSITIONS_FRAC

# Note: total spin =   8.00

KPOINTS_MP_SPACING 0.07

%BLOCK SPECIES_POT
QC5
%ENDBLOCK SPECIES_POT

SNAP_TO_SYMMETRY
SYMMETRY_GENERATE

