#              Generated by Buildcell
#
# at 19:21:15 (GMT+1.0) 18th August 2020
# in /scratch/scratch/uccabz1/launch_tmp
# on node-k10h-023
# by uccabz1
#
# compiler GCC version 4.9.2
# options -cpp -iprefix /scratch/UCL/applications/gcc/4.9.2/bin/../lib/gcc/x86_64-unknown-linux-gnu/4.9.2/ -mtune=corei7 -march=x86-64 -g -O2
#
# seed   450289516 -1069218809 -1294157548   566231342  -869927947   195707680  1144292737 -1546408718 -1334007151   548486920   130561793  1372447742
#
#      Author: C. J. Pickard (cjp20@cam.ac.uk)
#                Space group: Cc
#

%BLOCK LATTICE_ABC
      6.09504      6.37067      6.85422
    117.02495     90.00000    118.57885
%ENDBLOCK LATTICE_ABC

%BLOCK POSITIONS_FRAC
  Li  -0.3590116   0.0316384  -0.3311507 SPIN=   0.00000
  Li   0.3906500   0.0316384   0.1688493 SPIN=   0.00000
  Fe   0.1239379   0.0307409  -0.2095960 SPIN=   4.00000
  Fe  -0.0931971   0.0307409   0.2904040 SPIN=   4.00000
   O  -0.6982246   0.1990814  -0.5350691 SPIN=   0.00000
   O  -0.4686576   0.5290318  -0.1237580 SPIN=   0.00000
   O  -0.3516148   0.6896453  -0.3975735 SPIN=   0.00000
   O  -0.2386744   0.3660118  -0.3943095 SPIN=   0.00000
   S  -0.4392928   0.4459426  -0.3626775 SPIN=   0.00000
   O  -0.1026940   0.1990814  -0.0350691 SPIN=   0.00000
   O  -0.0023107   0.5290318   0.3762420 SPIN=   0.00000
   O   0.0412601   0.6896453   0.1024265 SPIN=   0.00000
   O  -0.3953138   0.3660118   0.1056905 SPIN=   0.00000
   S  -0.1147646   0.4459426   0.1373225 SPIN=   0.00000
   F   0.2537105  -0.1681149  -0.1815071 SPIN=   0.00000
   F  -0.4218254  -0.1681149   0.3184929 SPIN=   0.00000
%ENDBLOCK POSITIONS_FRAC

# Note: total spin =   8.00

KPOINTS_MP_SPACING 0.07

%BLOCK SPECIES_POT
QC5
%ENDBLOCK SPECIES_POT

SNAP_TO_SYMMETRY
SYMMETRY_GENERATE

