#              Generated by Buildcell
#
# at 19:51:48 (GMT+1.0) 18th August 2020
# in /lustre/scratch/uccabz1/launch_tmp
# on node-c12f-023
# by uccabz1
#
# compiler GCC version 4.9.2
# options -cpp -iprefix /lustre/shared/ucl/apps/gcc/4.9.2/bin/../lib/gcc/x86_64-unknown-linux-gnu/4.9.2/ -mtune=corei7 -march=x86-64 -g -Og
#
# seed -1918227033 -1429249756  -648724897 -2033260197  -175942711 -1703298986  1573987129  -769292493  1842893328   884067557  1899781847  -878820502
#
#      Author: C. J. Pickard (cjp20@cam.ac.uk)
#                Space group: P2
#

%BLOCK LATTICE_ABC
      3.90590      6.91162      7.86019
    109.51892     90.00000     90.00000
%ENDBLOCK LATTICE_ABC

%BLOCK POSITIONS_FRAC
  Li   0.3401598   0.2345919  -0.0397326 SPIN=   0.00000
  Li   0.3401598  -0.2345919   0.0397326 SPIN=   0.00000
  Fe   0.3550952   0.2985038  -0.4017238 SPIN=   4.00000
  Fe   0.3550952  -0.2985038   0.4017238 SPIN=   4.00000
   O  -0.2705424  -0.1287868  -0.1327784 SPIN=   0.00000
   O  -0.2342184  -0.1330363  -0.4483512 SPIN=   0.00000
   O   0.2644600  -0.0216273  -0.2447237 SPIN=   0.00000
   O  -0.2513600   0.1980767  -0.1969350 SPIN=   0.00000
   S  -0.1229152  -0.0213434  -0.2556971 SPIN=   0.00000
   O  -0.2705424   0.1287868   0.1327784 SPIN=   0.00000
   O  -0.2342184   0.1330363   0.4483512 SPIN=   0.00000
   O   0.2644600   0.0216273   0.2447237 SPIN=   0.00000
   O  -0.2513600  -0.1980767   0.1969350 SPIN=   0.00000
   S  -0.1229152   0.0213434   0.2556971 SPIN=   0.00000
   F   0.3384617   0.4432915   0.2111996 SPIN=   0.00000
   F   0.3384617  -0.4432915  -0.2111996 SPIN=   0.00000
%ENDBLOCK POSITIONS_FRAC

# Note: total spin =   8.00

KPOINTS_MP_SPACING 0.07

%BLOCK SPECIES_POT
QC5
%ENDBLOCK SPECIES_POT

SNAP_TO_SYMMETRY
SYMMETRY_GENERATE

