#              Generated by Buildcell
#
# at 02:35:15 (GMT+1.0) 19th August 2020
# in /lustre/scratch/uccabz1/launch_tmp
# on node-c12k-027
# by uccabz1
#
# compiler GCC version 4.9.2
# options -cpp -iprefix /lustre/shared/ucl/apps/gcc/4.9.2/bin/../lib/gcc/x86_64-unknown-linux-gnu/4.9.2/ -mtune=corei7 -march=x86-64 -g -Og
#
# seed -1390457114   681007691   302506014   880182845 -2116510937   649511433  1414921719  -636923183 -1818068973 -1627722774 -1636966746   316264662
#
#      Author: C. J. Pickard (cjp20@cam.ac.uk)
#                Space group: Pmn21
#

%BLOCK LATTICE_ABC
      3.98349      5.70924      8.79402
     90.00000     90.00000     90.00000
%ENDBLOCK LATTICE_ABC

%BLOCK POSITIONS_FRAC
  Li  -0.2673641  -0.0000000  -0.3735033 SPIN=   0.00000
  Li   0.2326359   0.5000000   0.3735033 SPIN=   0.00000
  Fe   0.1422663  -0.0000000  -0.0739392 SPIN=   4.00000
  Fe  -0.3577337   0.5000000   0.0739392 SPIN=   4.00000
   O  -0.0512586   0.2056493   0.4351370 SPIN=   0.00000
   O   0.4446410   0.2057440   0.2656027 SPIN=   0.00000
   O  -0.5512586   0.2943507  -0.4351370 SPIN=   0.00000
   O  -0.0553590   0.2942560  -0.2656027 SPIN=   0.00000
   O  -0.5512586  -0.2943507  -0.4351370 SPIN=   0.00000
   O  -0.0553590  -0.2942560  -0.2656027 SPIN=   0.00000
   O  -0.0512586  -0.2056493   0.4351370 SPIN=   0.00000
   O   0.4446410  -0.2057440   0.2656027 SPIN=   0.00000
   S   0.1330740  -0.0000000   0.3732482 SPIN=   0.00000
   S  -0.3669260  -0.5000000  -0.3732482 SPIN=   0.00000
   F  -0.3733744  -0.0000000  -0.0895397 SPIN=   0.00000
   F   0.1266256   0.5000000   0.0895397 SPIN=   0.00000
%ENDBLOCK POSITIONS_FRAC

# Note: total spin =   8.00

KPOINTS_MP_SPACING 0.07

%BLOCK SPECIES_POT
QC5
%ENDBLOCK SPECIES_POT

SNAP_TO_SYMMETRY
SYMMETRY_GENERATE

