#              Generated by Buildcell
#
# at 04:06:55 (GMT+1.0) 4th August 2020
# in /lustre/scratch/uccabz1/launch_tmp
# on node-c12e-011
# by uccabz1
#
# compiler GCC version 4.9.2
# options -cpp -iprefix /lustre/shared/ucl/apps/gcc/4.9.2/bin/../lib/gcc/x86_64-unknown-linux-gnu/4.9.2/ -mtune=corei7 -march=x86-64 -g -Og
#
# seed  -135809813 -1035216057 -1050247954  -781246524  1393705936  -135424267 -1955428662  1659713488 -1338718654  -916990313 -1474803651   148632370
#
#      Author: C. J. Pickard (cjp20@cam.ac.uk)
#                Space group: Cm
#

%BLOCK LATTICE_ABC
      4.96252      6.39407      6.39407
     80.57321     88.31642     88.31642
%ENDBLOCK LATTICE_ABC

%BLOCK POSITIONS_FRAC
  Li  -0.4383046   0.4351424  -0.0644926 SPIN=   0.00000
  Li  -0.4383046  -0.0644926   0.4351424 SPIN=   0.00000
  Fe   0.3497186   0.0066790   0.0066790 SPIN=   2.85285
  Fe   0.1345380  -0.3570368  -0.3570368 SPIN=   5.14715
   O  -0.0400199  -0.0579633  -0.3466972 SPIN=   0.00000
   O  -0.3714670   0.2218645  -0.4900049 SPIN=   0.00000
   O   0.0812479   0.3197567  -0.3920560 SPIN=   0.00000
   O  -0.2500984   0.1761214  -0.1122870 SPIN=   0.00000
   S  -0.1450843   0.1649448  -0.3352613 SPIN=   0.00000
   O  -0.0400199  -0.3466972  -0.0579633 SPIN=   0.00000
   O  -0.3714670  -0.4900049   0.2218645 SPIN=   0.00000
   O   0.0812479  -0.3920560   0.3197567 SPIN=   0.00000
   O  -0.2500984  -0.1122870   0.1761214 SPIN=   0.00000
   S  -0.1450843  -0.3352613   0.1649448 SPIN=   0.00000
   F   0.2364630   0.1938775   0.1938775 SPIN=   0.00000
   F  -0.4834326  -0.3410121  -0.3410121 SPIN=   0.00000
%ENDBLOCK POSITIONS_FRAC

# Note: total spin =   8.00

KPOINTS_MP_SPACING 0.07

%BLOCK SPECIES_POT
QC5
%ENDBLOCK SPECIES_POT

SNAP_TO_SYMMETRY
SYMMETRY_GENERATE

