#              Generated by Buildcell
#
# at 21:31:24 (GMT+1.0) 18th August 2020
# in /lustre/scratch/uccabz1/launch_tmp
# on node-c12k-027
# by uccabz1
#
# compiler GCC version 4.9.2
# options -cpp -iprefix /lustre/shared/ucl/apps/gcc/4.9.2/bin/../lib/gcc/x86_64-unknown-linux-gnu/4.9.2/ -mtune=corei7 -march=x86-64 -g -Og
#
# seed   800023216  1306404570 -1829716287  -442747630   550125895  1859080308   791105279 -1030093137  1369857831  -408887447  -800340958  -896331067
#
#      Author: C. J. Pickard (cjp20@cam.ac.uk)
#                Space group: Cc
#

%BLOCK LATTICE_ABC
      5.73133      5.73133      6.89466
     80.52402     80.52402     64.19189
%ENDBLOCK LATTICE_ABC

%BLOCK POSITIONS_FRAC
  Li  -0.0438805   0.4452695   0.3040705 SPIN=   0.00000
  Li   0.4452695  -0.0438805  -0.1959295 SPIN=   0.00000
  Fe  -0.3884983   0.3866281  -0.3524699 SPIN=   4.00000
  Fe   0.3866281  -0.3884983   0.1475301 SPIN=   4.00000
   O   0.5877928  -0.2190367   0.5479818 SPIN=   0.00000
   O   0.1508961   0.1332742   0.4969067 SPIN=   0.00000
   O   0.4613565  -0.0521887   0.2088512 SPIN=   0.00000
   O   0.5425019   0.2228189   0.4070657 SPIN=   0.00000
   S   0.4356368   0.0212169   0.4152013 SPIN=   0.00000
   O  -0.2190367   0.5877928   0.0479818 SPIN=   0.00000
   O   0.1332742   0.1508961  -0.0030933 SPIN=   0.00000
   O  -0.0521887   0.4613565  -0.2911488 SPIN=   0.00000
   O   0.2228189   0.5425019  -0.0929343 SPIN=   0.00000
   S   0.0212169   0.4356368  -0.0847987 SPIN=   0.00000
   F   0.0953945  -0.3152911   0.3440864 SPIN=   0.00000
   F  -0.3152911   0.0953945  -0.1559136 SPIN=   0.00000
%ENDBLOCK POSITIONS_FRAC

# Note: total spin =   8.00

KPOINTS_MP_SPACING 0.07

%BLOCK SPECIES_POT
QC5
%ENDBLOCK SPECIES_POT

SNAP_TO_SYMMETRY
SYMMETRY_GENERATE

