#              Generated by Buildcell
#
# at 19:37:03 (GMT+1.0) 18th August 2020
# in /lustre/scratch/uccabz1/launch_tmp
# on node-c12c-009
# by uccabz1
#
# compiler GCC version 4.9.2
# options -cpp -iprefix /lustre/shared/ucl/apps/gcc/4.9.2/bin/../lib/gcc/x86_64-unknown-linux-gnu/4.9.2/ -mtune=corei7 -march=x86-64 -g -Og
#
# seed  -134998952  1759864595 -1806282812  1041614807  -937633034 -2079191084  1546046121  1459975369  -707676992 -1617541582  1897706782  -970088678
#
#      Author: C. J. Pickard (cjp20@cam.ac.uk)
#                Space group: Cm
#

%BLOCK LATTICE_ABC
      4.05815      7.12184      7.12184
     77.67451     85.35947     85.35947
%ENDBLOCK LATTICE_ABC

%BLOCK POSITIONS_FRAC
  Li  -0.2282544   0.3050478   0.3050478 SPIN=   0.00000
  Li  -0.3226906  -0.2979605  -0.2979605 SPIN=   0.00000
  Fe   0.2282237  -0.4937451  -0.4937451 SPIN=   0.96069
  Fe  -0.1935729  -0.0389329  -0.0389329 SPIN=   7.03931
   O   0.7198346   0.0327723  -0.4589930 SPIN=   0.00000
   O   0.1796822   0.2078881  -0.5365675 SPIN=   0.00000
   O   0.2870861   0.0581414  -0.1984220 SPIN=   0.00000
   O   0.2149266  -0.1470374  -0.4302704 SPIN=   0.00000
   S   0.3503824   0.0379411  -0.4060632 SPIN=   0.00000
   O   0.7198346  -0.4589930   0.0327723 SPIN=   0.00000
   O   0.1796822  -0.5365675   0.2078881 SPIN=   0.00000
   O   0.2870861  -0.1984220   0.0581414 SPIN=   0.00000
   O   0.2149266  -0.4302704  -0.1470374 SPIN=   0.00000
   S   0.3503824  -0.4060632   0.0379411 SPIN=   0.00000
   F  -0.2782043  -0.4766733  -0.4766733 SPIN=   0.00000
   F  -0.1053916   0.1351156   0.1351156 SPIN=   0.00000
%ENDBLOCK POSITIONS_FRAC

# Note: total spin =   8.00

KPOINTS_MP_SPACING 0.07

%BLOCK SPECIES_POT
QC5
%ENDBLOCK SPECIES_POT

SNAP_TO_SYMMETRY
SYMMETRY_GENERATE

