#              Generated by Buildcell
#
# at 04:08:22 (GMT+1.0) 4th August 2020
# in /lustre/scratch/uccabz1/launch_tmp
# on node-c12d-026
# by uccabz1
#
# compiler GCC version 4.9.2
# options -cpp -iprefix /lustre/shared/ucl/apps/gcc/4.9.2/bin/../lib/gcc/x86_64-unknown-linux-gnu/4.9.2/ -mtune=corei7 -march=x86-64 -g -Og
#
# seed  -120261034     8609842  -524838390   351013776  -120314913   637342276  1504730765  -392695166  1389357156  1336528837  -148567422 -1624776838
#
#      Author: C. J. Pickard (cjp20@cam.ac.uk)
#                Space group: P21/m
#

%BLOCK LATTICE_ABC
      4.68715      6.09292      7.27122
     90.00000    105.60511     90.00000
%ENDBLOCK LATTICE_ABC

%BLOCK POSITIONS_FRAC
  Li  -0.2037163   0.2500000   0.4220320 SPIN=   0.00000
  Li   0.2037163  -0.2500000  -0.4220320 SPIN=   0.00000
  Fe   0.2745517   0.2500000   0.0754181 SPIN=   4.00000
  Fe  -0.2745517  -0.2500000  -0.0754181 SPIN=   4.00000
   O   0.2087072   0.4427968   0.6371198 SPIN=   0.00000
   O   0.2771144   0.5527308   0.3240834 SPIN=   0.00000
   O  -0.2087072  -0.0572032  -0.6371198 SPIN=   0.00000
   O  -0.2771144   0.0527308  -0.3240834 SPIN=   0.00000
   O  -0.2087072  -0.4427968  -0.6371198 SPIN=   0.00000
   O  -0.2771144  -0.5527308  -0.3240834 SPIN=   0.00000
   O   0.2087072   0.0572032   0.6371198 SPIN=   0.00000
   O   0.2771144  -0.0527308   0.3240834 SPIN=   0.00000
   S   0.4094687   0.2500000  -0.3424330 SPIN=   0.00000
   S  -0.4094687  -0.2500000   0.3424330 SPIN=   0.00000
   F   0.1016541  -0.2500000  -0.1609611 SPIN=   0.00000
   F  -0.1016541   0.2500000   0.1609611 SPIN=   0.00000
%ENDBLOCK POSITIONS_FRAC

# Note: total spin =   8.00

KPOINTS_MP_SPACING 0.07

%BLOCK SPECIES_POT
QC5
%ENDBLOCK SPECIES_POT

SNAP_TO_SYMMETRY
SYMMETRY_GENERATE

