#              Generated by Buildcell
#
# at 02:33:59 (GMT+1.0) 4th August 2020
# in /lustre/scratch/uccabz1/launch_tmp
# on node-c12l-028
# by uccabz1
#
# compiler GCC version 4.9.2
# options -cpp -iprefix /lustre/shared/ucl/apps/gcc/4.9.2/bin/../lib/gcc/x86_64-unknown-linux-gnu/4.9.2/ -mtune=corei7 -march=x86-64 -g -Og
#
# seed  2102474849  1269260596  1395695882   703045936  -385010507  -407552540   336985007  1556850752 -1875324552   220821547  -165946971  -735427469
#
#      Author: C. J. Pickard (cjp20@cam.ac.uk)
#                Space group: P-1
#

%BLOCK LATTICE_ABC
      4.56757      5.39485      8.21317
     89.82378     81.19956     89.94957
%ENDBLOCK LATTICE_ABC

%BLOCK POSITIONS_FRAC
  Li  -0.3405170  -0.2022270  -0.1720903 SPIN=   0.00000
  Li   0.3405170   0.2022270   0.1720903 SPIN=   0.00000
  Fe  -0.2280353   0.2505331   0.4210782 SPIN=   4.00000
  Fe   0.2280353  -0.2505331  -0.4210782 SPIN=   4.00000
   O   0.6552371   0.1772548  -0.2763745 SPIN=   0.00000
   O   0.1953778   0.0184723  -0.1103259 SPIN=   0.00000
   O   0.1900239   0.4179893  -0.2587516 SPIN=   0.00000
   S   0.3721625   0.2495716  -0.1652752 SPIN=   0.00000
   O  -0.6552371  -0.1772548   0.2763745 SPIN=   0.00000
   O  -0.1953778  -0.0184723   0.1103259 SPIN=   0.00000
   O  -0.1900239  -0.4179893   0.2587516 SPIN=   0.00000
   S  -0.3721625  -0.2495716   0.1652752 SPIN=   0.00000
   O   0.0000000   0.5000000   0.0000000 SPIN=   0.00000
   O  -0.5000000  -0.5000000   0.0000000 SPIN=   0.00000
   F  -0.2650993  -0.2502268  -0.4089337 SPIN=   0.00000
   F   0.2650993   0.2502268   0.4089337 SPIN=   0.00000
%ENDBLOCK POSITIONS_FRAC

# Note: total spin =   8.00

KPOINTS_MP_SPACING 0.07

%BLOCK SPECIES_POT
QC5
%ENDBLOCK SPECIES_POT

SNAP_TO_SYMMETRY
SYMMETRY_GENERATE

