#              Generated by Buildcell
#
# at 19:46:43 (GMT+1.0) 18th August 2020
# in /lustre/scratch/uccabz1/launch_tmp
# on node-c12g-036
# by uccabz1
#
# compiler GCC version 4.9.2
# options -cpp -iprefix /lustre/shared/ucl/apps/gcc/4.9.2/bin/../lib/gcc/x86_64-unknown-linux-gnu/4.9.2/ -mtune=corei7 -march=x86-64 -g -Og
#
# seed -1974005692  -935052548 -1021767904    66389832 -1800148660   599305249  -205423109  1158447218   672654698 -1954965755 -1377791762 -1310705335
#
#      Author: C. J. Pickard (cjp20@cam.ac.uk)
#                Space group: Pm
#

%BLOCK LATTICE_ABC
      4.01324      4.96024     10.34283
     90.00000     90.00000    103.73886
%ENDBLOCK LATTICE_ABC

%BLOCK POSITIONS_FRAC
  Li  -0.0234467   0.2444662   0.0000000 SPIN=   0.00000
  Li   0.1234253   0.0038363   0.5000000 SPIN=   0.00000
  Fe   0.4593779   0.1318537  -0.2199947 SPIN=   4.00000
  Fe   0.4593779   0.1318537   0.2199947 SPIN=   4.00000
   O  -0.4964482  -0.3469626   0.1808973 SPIN=   0.00000
   O   0.0127776  -0.3167958   0.3200495 SPIN=   0.00000
   O  -0.5507627  -0.6077586   0.3868620 SPIN=   0.00000
   O  -0.4495774  -0.0957786   0.3893566 SPIN=   0.00000
   O  -0.4964482  -0.3469626  -0.1808973 SPIN=   0.00000
   O   0.0127776  -0.3167958  -0.3200495 SPIN=   0.00000
   O  -0.5507627  -0.6077586  -0.3868620 SPIN=   0.00000
   O  -0.4495774  -0.0957786  -0.3893566 SPIN=   0.00000
   S  -0.4136532  -0.3811033   0.0000000 SPIN=   0.00000
   S  -0.1593850   0.4527085   0.5000000 SPIN=   0.00000
   F  -0.0260993   0.1812034   0.1965684 SPIN=   0.00000
   F  -0.0260993   0.1812034  -0.1965684 SPIN=   0.00000
%ENDBLOCK POSITIONS_FRAC

# Note: total spin =   8.00

KPOINTS_MP_SPACING 0.07

%BLOCK SPECIES_POT
QC5
%ENDBLOCK SPECIES_POT

SNAP_TO_SYMMETRY
SYMMETRY_GENERATE

