#              Generated by Buildcell
#
# at 02:30:52 (GMT+1.0) 19th August 2020
# in /lustre/scratch/uccabz1/launch_tmp
# on node-c12g-001
# by uccabz1
#
# compiler GCC version 4.9.2
# options -cpp -iprefix /lustre/shared/ucl/apps/gcc/4.9.2/bin/../lib/gcc/x86_64-unknown-linux-gnu/4.9.2/ -mtune=corei7 -march=x86-64 -g -Og
#
# seed -1995805016   260846869  -551455204 -2104346109  1948327078   417487561 -1228491894 -1061794585  -464011218  -338965123  1826659402  -963577820
#
#      Author: C. J. Pickard (cjp20@cam.ac.uk)
#                Space group: Cm
#

%BLOCK LATTICE_ABC
      5.02689      6.62030      6.62030
     75.64677     73.98419     73.98419
%ENDBLOCK LATTICE_ABC

%BLOCK POSITIONS_FRAC
  Li  -0.4741098  -0.1138751   0.3733824 SPIN=   0.00000
  Li  -0.4741098   0.3733824  -0.1138751 SPIN=   0.00000
  Fe  -0.1679395   0.2851640   0.2851640 SPIN=   1.47616
  Fe   0.0804038  -0.2532611  -0.2532611 SPIN=   6.52384
   O  -0.0114162  -0.0399396   0.2613314 SPIN=   0.00000
   O   0.4419690  -0.3080570   0.1997611 SPIN=   0.00000
   O   0.0344376  -0.3307938   0.0719645 SPIN=   0.00000
   S   0.1215155  -0.2728172   0.2482072 SPIN=   0.00000
   O  -0.0114162   0.2613314  -0.0399396 SPIN=   0.00000
   O   0.4419690   0.1997611  -0.3080570 SPIN=   0.00000
   O   0.0344376   0.0719645  -0.3307938 SPIN=   0.00000
   S   0.1215155   0.2482072  -0.2728172 SPIN=   0.00000
   O  -0.3157201  -0.1127943  -0.1127943 SPIN=   0.00000
   O   0.1736765   0.4940652   0.4940652 SPIN=   0.00000
   F   0.4898864   0.1678534   0.1678534 SPIN=   0.00000
   F   0.4791334  -0.3156210  -0.3156210 SPIN=   0.00000
%ENDBLOCK POSITIONS_FRAC

# Note: total spin =   8.00

KPOINTS_MP_SPACING 0.07

%BLOCK SPECIES_POT
QC5
%ENDBLOCK SPECIES_POT

SNAP_TO_SYMMETRY
SYMMETRY_GENERATE

