#              Generated by Buildcell
#
# at 19:55:02 (GMT+1.0) 18th August 2020
# in /scratch/scratch/uccabz1/launch_tmp
# on node-k10c-026
# by uccabz1
#
# compiler GCC version 4.9.2
# options -cpp -iprefix /scratch/UCL/applications/gcc/4.9.2/bin/../lib/gcc/x86_64-unknown-linux-gnu/4.9.2/ -mtune=corei7 -march=x86-64 -g -O2
#
# seed   518905141   915142983 -1425959461 -2098721353  1307743028  -151921378 -1195178857 -1407619266 -1839354770  -328212976  1519732960  1925714063
#
#      Author: C. J. Pickard (cjp20@cam.ac.uk)
#                Space group: P21
#

%BLOCK LATTICE_ABC
      4.19223      4.25561     11.30802
     97.53184     90.00000     90.00000
%ENDBLOCK LATTICE_ABC

%BLOCK POSITIONS_FRAC
  Li   0.1413792   0.3253251   0.1692391 SPIN=   0.00000
  Li  -0.3586208  -0.3253251  -0.1692391 SPIN=   0.00000
  Fe  -0.3252330   0.0969181  -0.3646355 SPIN=   4.00000
  Fe   0.1747670  -0.0969181   0.3646355 SPIN=   4.00000
   O  -0.3783441  -0.5725580   0.1719973 SPIN=   0.00000
   O  -0.1353174  -0.0398623   0.2151131 SPIN=   0.00000
   O  -0.6534433  -0.1063133   0.1099118 SPIN=   0.00000
   O  -0.1585089  -0.3082627   0.0074553 SPIN=   0.00000
   S  -0.3314034  -0.2567491   0.1261194 SPIN=   0.00000
   O   0.1216559   0.5725580  -0.1719973 SPIN=   0.00000
   O   0.3646826   0.0398623  -0.2151131 SPIN=   0.00000
   O  -0.1534433   0.1063133  -0.1099118 SPIN=   0.00000
   O   0.3414911   0.3082627  -0.0074553 SPIN=   0.00000
   S   0.1685966   0.2567491  -0.1261194 SPIN=   0.00000
   F  -0.3280534  -0.3972645  -0.3478898 SPIN=   0.00000
   F   0.1719466   0.3972645   0.3478898 SPIN=   0.00000
%ENDBLOCK POSITIONS_FRAC

# Note: total spin =   8.00

KPOINTS_MP_SPACING 0.07

%BLOCK SPECIES_POT
QC5
%ENDBLOCK SPECIES_POT

SNAP_TO_SYMMETRY
SYMMETRY_GENERATE

