#              Generated by Buildcell
#
# at 02:19:39 (GMT+1.0) 4th August 2020
# in /lustre/scratch/uccabz1/launch_tmp
# on node-c12n-035
# by uccabz1
#
# compiler GCC version 4.9.2
# options -cpp -iprefix /lustre/shared/ucl/apps/gcc/4.9.2/bin/../lib/gcc/x86_64-unknown-linux-gnu/4.9.2/ -mtune=corei7 -march=x86-64 -g -Og
#
# seed -1371160564   -21994390   247500306   347747034 -2042930017   701467898  -374473963   352643444  1246771084  2017894956  2118041716   213615235
#
#      Author: C. J. Pickard (cjp20@cam.ac.uk)
#                Space group: P2
#

%BLOCK LATTICE_ABC
      4.03144      6.58888      7.80699
    105.32563     90.00000     90.00000
%ENDBLOCK LATTICE_ABC

%BLOCK POSITIONS_FRAC
  Li  -0.2171886   0.2031746  -0.1485832 SPIN=   0.00000
  Li  -0.2171886  -0.2031746   0.1485832 SPIN=   0.00000
  Fe   0.2828127  -0.2775765   0.4072976 SPIN=   4.00000
  Fe   0.2828127   0.2775765  -0.4072976 SPIN=   4.00000
   O  -0.0537523   0.4947418   0.3475192 SPIN=   0.00000
   O  -0.3717227   0.1878301   0.3845393 SPIN=   0.00000
   O  -0.0249270   0.1553329   0.1170519 SPIN=   0.00000
   O  -0.5406294   0.3664108   0.1564988 SPIN=   0.00000
   S  -0.2477579   0.3010789   0.2514023 SPIN=   0.00000
   O  -0.0537523  -0.4947418  -0.3475192 SPIN=   0.00000
   O  -0.3717227  -0.1878301  -0.3845393 SPIN=   0.00000
   O  -0.0249270  -0.1553329  -0.1170519 SPIN=   0.00000
   O  -0.5406294  -0.3664108  -0.1564988 SPIN=   0.00000
   S  -0.2477579  -0.3010789  -0.2514023 SPIN=   0.00000
   F   0.2751402   0.1898913  -0.1920906 SPIN=   0.00000
   F   0.2751402  -0.1898913   0.1920906 SPIN=   0.00000
%ENDBLOCK POSITIONS_FRAC

# Note: total spin =   8.00

KPOINTS_MP_SPACING 0.07

%BLOCK SPECIES_POT
QC5
%ENDBLOCK SPECIES_POT

SNAP_TO_SYMMETRY
SYMMETRY_GENERATE

