#              Generated by Buildcell
#
# at 03:44:28 (GMT+1.0) 4th August 2020
# in /lustre/scratch/uccabz1/launch_tmp
# on node-c12l-032
# by uccabz1
#
# compiler GCC version 4.9.2
# options -cpp -iprefix /lustre/shared/ucl/apps/gcc/4.9.2/bin/../lib/gcc/x86_64-unknown-linux-gnu/4.9.2/ -mtune=corei7 -march=x86-64 -g -Og
#
# seed  -205630331  -373019463  -693018781    -6359064  1518179744   -96801202 -1273987269   652015395 -1381510699 -1437096231  -160474255  -560422537
#
#      Author: C. J. Pickard (cjp20@cam.ac.uk)
#                Space group: P-1
#

%BLOCK LATTICE_ABC
      4.12584      7.10746      7.81177
     66.26762     77.89067     73.64449
%ENDBLOCK LATTICE_ABC

%BLOCK POSITIONS_FRAC
  Li   0.5000000   1.0000000  -0.5000000 SPIN=   0.00000
  Li  -0.0000000  -0.0000000   0.0000000 SPIN=   0.00000
  Fe  -0.1798056   0.2674976  -0.3936653 SPIN=   4.00000
  Fe   0.1798056  -0.2674976   0.3936653 SPIN=   4.00000
   O  -0.0623500   0.4537667   0.1636405 SPIN=   0.00000
   O   0.0225268   0.0655170   0.2852699 SPIN=   0.00000
   O  -0.2580193   0.2830484  -0.0043820 SPIN=   0.00000
   O  -0.5559187   0.2873610   0.3044175 SPIN=   0.00000
   S  -0.2134403   0.2724233   0.1872365 SPIN=   0.00000
   O   0.0623500  -0.4537667  -0.1636405 SPIN=   0.00000
   O  -0.0225268  -0.0655170  -0.2852699 SPIN=   0.00000
   O   0.2580193  -0.2830484   0.0043820 SPIN=   0.00000
   O   0.5559187  -0.2873610  -0.3044175 SPIN=   0.00000
   S   0.2134403  -0.2724233  -0.1872365 SPIN=   0.00000
   F  -0.2912847  -0.2796487   0.3339543 SPIN=   0.00000
   F   0.2912847   0.2796487  -0.3339543 SPIN=   0.00000
%ENDBLOCK POSITIONS_FRAC

# Note: total spin =   8.00

KPOINTS_MP_SPACING 0.07

%BLOCK SPECIES_POT
QC5
%ENDBLOCK SPECIES_POT

SNAP_TO_SYMMETRY
SYMMETRY_GENERATE

