#              Generated by Buildcell
#
# at 20:06:25 (GMT+1.0) 18th August 2020
# in /scratch/scratch/uccabz1/launch_tmp
# on node-k10e-027
# by uccabz1
#
# compiler GCC version 4.9.2
# options -cpp -iprefix /scratch/UCL/applications/gcc/4.9.2/bin/../lib/gcc/x86_64-unknown-linux-gnu/4.9.2/ -mtune=corei7 -march=x86-64 -g -O2
#
# seed -1745746750 -1785577685 -1420494633  1816260805  1395187437 -1007431334 -1535136313  -571234877 -1630709885  1844978185  1018119171 -1168674768
#
#      Author: C. J. Pickard (cjp20@cam.ac.uk)
#                Space group: C2
#

%BLOCK LATTICE_ABC
      5.29544      5.29544      7.49536
    101.04572    101.04572     96.50061
%ENDBLOCK LATTICE_ABC

%BLOCK POSITIONS_FRAC
  Li   0.1744367   0.2820322   0.2796463 SPIN=   0.00000
  Li  -0.2820322  -0.1744367  -0.2796463 SPIN=   0.00000
  Fe  -0.4427029  -0.0108436   0.1327931 SPIN=   4.00000
  Fe   0.0108436   0.4427029  -0.1327931 SPIN=   4.00000
   O   0.0204851  -0.2877117   0.5799675 SPIN=   0.00000
   O  -0.4407767  -0.3523125   0.4129867 SPIN=   0.00000
   O  -0.1635312  -0.6850773   0.3346417 SPIN=   0.00000
   O  -0.0890376  -0.2582030   0.2492091 SPIN=   0.00000
   S  -0.1682151  -0.3958261   0.3942012 SPIN=   0.00000
   O   0.2877117  -0.0204851  -0.5799675 SPIN=   0.00000
   O   0.3523125   0.4407767  -0.4129867 SPIN=   0.00000
   O   0.6850773   0.1635312  -0.3346417 SPIN=   0.00000
   O   0.2582030   0.0890376  -0.2492091 SPIN=   0.00000
   S   0.3958261   0.1682151  -0.3942012 SPIN=   0.00000
   F   0.3362208  -0.3362208  -0.0000000 SPIN=   0.00000
   F  -0.1086103   0.1086103   0.0000000 SPIN=   0.00000
%ENDBLOCK POSITIONS_FRAC

# Note: total spin =   8.00

KPOINTS_MP_SPACING 0.07

%BLOCK SPECIES_POT
QC5
%ENDBLOCK SPECIES_POT

SNAP_TO_SYMMETRY
SYMMETRY_GENERATE

