#              Generated by Buildcell
#
# at 01:05:33 (GMT+1.0) 19th August 2020
# in /lustre/scratch/uccabz1/launch_tmp
# on node-c12f-008
# by uccabz1
#
# compiler GCC version 4.9.2
# options -cpp -iprefix /lustre/shared/ucl/apps/gcc/4.9.2/bin/../lib/gcc/x86_64-unknown-linux-gnu/4.9.2/ -mtune=corei7 -march=x86-64 -g -Og
#
# seed   912772294   730960886   778303942   834266514  1548341716  1828655626   928240850  1732930163  1794896944 -2004096042 -1352987064   863310124
#
#      Author: C. J. Pickard (cjp20@cam.ac.uk)
#                Space group: P-1
#

%BLOCK LATTICE_ABC
      3.93719      6.61567      7.82220
     81.15605     84.71045     85.33966
%ENDBLOCK LATTICE_ABC

%BLOCK POSITIONS_FRAC
  Li  -0.5000000   0.0000000   0.5000000 SPIN=   0.00000
  Li  -0.5000000   0.0000000  -0.0000000 SPIN=   0.00000
  Fe   0.5000000   0.5000000  -0.0000000 SPIN=   3.67340
  Fe  -0.5000000   0.5000000   0.5000000 SPIN=   4.32660
   O   0.1017644   0.0594824  -0.2673072 SPIN=   0.00000
   O   0.1464047  -0.2618444  -0.3958580 SPIN=   0.00000
   O  -0.3990404  -0.1492116  -0.2437047 SPIN=   0.00000
   O   0.0991522  -0.2756750  -0.0766347 SPIN=   0.00000
   S  -0.0129298  -0.1568122  -0.2458761 SPIN=   0.00000
   O  -0.1017644  -0.0594824   0.2673072 SPIN=   0.00000
   O  -0.1464047   0.2618444   0.3958580 SPIN=   0.00000
   O   0.3990404   0.1492116   0.2437047 SPIN=   0.00000
   O  -0.0991522   0.2756750   0.0766347 SPIN=   0.00000
   S   0.0129298   0.1568122   0.2458761 SPIN=   0.00000
   F  -0.5294588  -0.3555655   0.2182059 SPIN=   0.00000
   F   0.5294588   0.3555655  -0.2182059 SPIN=   0.00000
%ENDBLOCK POSITIONS_FRAC

# Note: total spin =   8.00

KPOINTS_MP_SPACING 0.07

%BLOCK SPECIES_POT
QC5
%ENDBLOCK SPECIES_POT

SNAP_TO_SYMMETRY
SYMMETRY_GENERATE

