#              Generated by Buildcell
#
# at 02:38:45 (GMT+1.0) 4th August 2020
# in /lustre/scratch/uccabz1/launch_tmp
# on node-c12l-018
# by uccabz1
#
# compiler GCC version 4.9.2
# options -cpp -iprefix /lustre/shared/ucl/apps/gcc/4.9.2/bin/../lib/gcc/x86_64-unknown-linux-gnu/4.9.2/ -mtune=corei7 -march=x86-64 -g -Og
#
# seed -1250098080  -544898002 -1337406322  -331950273  1861286173   -17196522  1836049258 -1684684915  1595595827   919334068  1279899195   699452426
#
#      Author: C. J. Pickard (cjp20@cam.ac.uk)
#                Space group: Ama2
#

%BLOCK LATTICE_ABC
      4.55823      4.55823      9.65228
     90.00000     90.00000     94.24388
%ENDBLOCK LATTICE_ABC

%BLOCK POSITIONS_FRAC
  Li   0.1676263  -0.1676263   0.0000000 SPIN=   0.00000
  Li   0.1676263  -0.1676263  -0.5000000 SPIN=   0.00000
  Fe   0.0701237   0.2778245   0.2500000 SPIN=   4.00000
  Fe  -0.2778245  -0.0701237  -0.2500000 SPIN=   4.00000
   O  -0.0462779   0.2043919  -0.1129233 SPIN=   0.00000
   O  -0.2312274   0.6934989  -0.0707628 SPIN=   0.00000
   O  -0.2043919   0.0462779   0.1129233 SPIN=   0.00000
   O  -0.6934989   0.2312274   0.0707628 SPIN=   0.00000
   O  -0.2043919   0.0462779   0.3870767 SPIN=   0.00000
   O  -0.6934989   0.2312274   0.4292372 SPIN=   0.00000
   O  -0.0462779   0.2043919  -0.3870767 SPIN=   0.00000
   O  -0.2312274   0.6934989  -0.4292372 SPIN=   0.00000
   S  -0.3995735   0.3995735  -0.0000000 SPIN=   0.00000
   S  -0.3995735   0.3995735  -0.5000000 SPIN=   0.00000
   F   0.1872969  -0.3018814   0.2500000 SPIN=   0.00000
   F   0.3018814  -0.1872969  -0.2500000 SPIN=   0.00000
%ENDBLOCK POSITIONS_FRAC

# Note: total spin =   8.00

KPOINTS_MP_SPACING 0.07

%BLOCK SPECIES_POT
QC5
%ENDBLOCK SPECIES_POT

SNAP_TO_SYMMETRY
SYMMETRY_GENERATE

