#              Generated by Buildcell
#
# at 21:08:56 (GMT+1.0) 18th August 2020
# in /lustre/scratch/uccabz1/launch_tmp
# on node-c12b-010
# by uccabz1
#
# compiler GCC version 4.9.2
# options -cpp -iprefix /lustre/shared/ucl/apps/gcc/4.9.2/bin/../lib/gcc/x86_64-unknown-linux-gnu/4.9.2/ -mtune=corei7 -march=x86-64 -g -Og
#
# seed -1207713749  1806116096   194655179  1027744087 -1598169035  1340327247   191907298 -1728405551 -1987495072  1901077533 -2045800245   413893115
#
#      Author: C. J. Pickard (cjp20@cam.ac.uk)
#                Space group: Cm
#

%BLOCK LATTICE_ABC
      3.99451      7.24119      7.24119
     73.00408     87.46293     87.46293
%ENDBLOCK LATTICE_ABC

%BLOCK POSITIONS_FRAC
  Li  -0.3976379   0.2168128  -0.2595784 SPIN=   0.00000
  Li  -0.3976379  -0.2595784   0.2168128 SPIN=   0.00000
  Fe   0.1333855   0.0894092   0.0894092 SPIN=   4.69396
  Fe   0.0603923   0.3994108  -0.6005892 SPIN=   3.30604
   O  -0.1826464  -0.3691497   0.9108574 SPIN=   0.00000
   O  -0.5681704  -0.6186953   0.8864688 SPIN=   0.00000
   O  -0.6990752  -0.4311542   1.1182001 SPIN=   0.00000
   S  -0.4198139  -0.5231395   1.0230790 SPIN=   0.00000
   O  -0.1826464  -0.0891426   0.6308503 SPIN=   0.00000
   O  -0.5681704  -0.1135312   0.3813047 SPIN=   0.00000
   O  -0.6990752   0.1182001   0.5688458 SPIN=   0.00000
   S  -0.4198139   0.0230790   0.4768605 SPIN=   0.00000
   O   0.6388014   0.3003350  -0.6996650 SPIN=   0.00000
   O   0.3098678  -0.1877207  -0.1877207 SPIN=   0.00000
   F  -0.3031679  -0.0086024  -0.0086024 SPIN=   0.00000
   F   0.0827055  -0.4179622   0.5820378 SPIN=   0.00000
%ENDBLOCK POSITIONS_FRAC

# Note: total spin =   8.00

KPOINTS_MP_SPACING 0.07

%BLOCK SPECIES_POT
QC5
%ENDBLOCK SPECIES_POT

SNAP_TO_SYMMETRY
SYMMETRY_GENERATE

