#              Generated by Buildcell
#
# at 03:00:04 (GMT+1.0) 4th August 2020
# in /lustre/scratch/uccabz1/launch_tmp
# on node-c12g-009
# by uccabz1
#
# compiler GCC version 4.9.2
# options -cpp -iprefix /lustre/shared/ucl/apps/gcc/4.9.2/bin/../lib/gcc/x86_64-unknown-linux-gnu/4.9.2/ -mtune=corei7 -march=x86-64 -g -Og
#
# seed  1784164586 -1345988101   447221337    77849388  2121949535  -657723531  1805900599 -2000035822 -1367394983  1636485648 -1618963075 -1569073196
#
#      Author: C. J. Pickard (cjp20@cam.ac.uk)
#                Space group: Cc
#

%BLOCK LATTICE_ABC
      4.55984      4.63294     11.19429
    101.90894     90.00000    119.47940
%ENDBLOCK LATTICE_ABC

%BLOCK POSITIONS_FRAC
  Li   0.0063395   0.0116626   0.3508866 SPIN=   0.00000
  Li   0.0053231   0.0116626  -0.1491134 SPIN=   0.00000
  Fe  -0.2296975  -0.2443074  -0.4213035 SPIN=   4.00000
  Fe  -0.0146099  -0.2443074   0.0786965 SPIN=   4.00000
   O   0.0325986  -0.5394445   0.2945921 SPIN=   0.00000
   O  -0.4916969  -0.8571112   0.1476537 SPIN=   0.00000
   O  -0.4424133  -0.4297036   0.3325220 SPIN=   0.00000
   O  -0.4988705  -0.9756136   0.3536524 SPIN=   0.00000
   S  -0.3500955  -0.7004682   0.2821051 SPIN=   0.00000
   O  -0.5720431  -0.5394445  -0.2054079 SPIN=   0.00000
   O  -0.3654143  -0.8571112  -0.3523463 SPIN=   0.00000
   O   0.0127097  -0.4297036  -0.1674780 SPIN=   0.00000
   O  -0.4767431  -0.9756136  -0.1463476 SPIN=   0.00000
   S  -0.3503727  -0.7004682  -0.2178949 SPIN=   0.00000
   F   0.2430758   0.4854488   0.0473913 SPIN=   0.00000
   F   0.2423730   0.4854488  -0.4526087 SPIN=   0.00000
%ENDBLOCK POSITIONS_FRAC

# Note: total spin =   8.00

KPOINTS_MP_SPACING 0.07

%BLOCK SPECIES_POT
QC5
%ENDBLOCK SPECIES_POT

SNAP_TO_SYMMETRY
SYMMETRY_GENERATE

