#              Generated by Buildcell
#
# at 01:06:40 (GMT+1.0) 19th August 2020
# in /lustre/scratch/uccabz1/launch_tmp
# on node-c12g-030
# by uccabz1
#
# compiler GCC version 4.9.2
# options -cpp -iprefix /lustre/shared/ucl/apps/gcc/4.9.2/bin/../lib/gcc/x86_64-unknown-linux-gnu/4.9.2/ -mtune=corei7 -march=x86-64 -g -Og
#
# seed -1882668769  1310100422  -213888915 -2047628436  -716771583  1720932664   859930959  1640338673   757615620  1662116271  -833131752  -828185280
#
#      Author: C. J. Pickard (cjp20@cam.ac.uk)
#                Space group: P21
#

%BLOCK LATTICE_ABC
      5.50806      5.77372      6.41664
     90.00000     90.00000    101.45116
%ENDBLOCK LATTICE_ABC

%BLOCK POSITIONS_FRAC
  Li   0.0639538   0.3175514  -0.0898202 SPIN=   0.00000
  Li  -0.0639538  -0.3175514   0.4101798 SPIN=   0.00000
  Fe   0.2457699  -0.1205296  -0.0791173 SPIN=   4.00000
  Fe  -0.2457699   0.1205296   0.4208827 SPIN=   4.00000
   O  -0.2652307  -0.2313047  -0.3361417 SPIN=   0.00000
   O  -0.1969748  -0.4215843  -0.0014312 SPIN=   0.00000
   O  -0.1704274  -0.6327198  -0.3337423 SPIN=   0.00000
   O  -0.5765765  -0.5699485  -0.2064515 SPIN=   0.00000
   S  -0.3023024  -0.4638893  -0.2194417 SPIN=   0.00000
   O   0.2652307   0.2313047   0.1638583 SPIN=   0.00000
   O   0.1969748   0.4215843   0.4985688 SPIN=   0.00000
   O   0.1704274   0.6327198   0.1662577 SPIN=   0.00000
   O   0.5765765   0.5699485   0.2935485 SPIN=   0.00000
   S   0.3023024   0.4638893   0.2805583 SPIN=   0.00000
   F  -0.2497244   0.0460563   0.1213681 SPIN=   0.00000
   F   0.2497244  -0.0460563  -0.3786319 SPIN=   0.00000
%ENDBLOCK POSITIONS_FRAC

# Note: total spin =   8.00

KPOINTS_MP_SPACING 0.07

%BLOCK SPECIES_POT
QC5
%ENDBLOCK SPECIES_POT

SNAP_TO_SYMMETRY
SYMMETRY_GENERATE

