#              Generated by Buildcell
#
# at 05:15:01 (GMT+1.0) 4th August 2020
# in /lustre/scratch/uccabz1/launch_tmp
# on node-c12m-016
# by uccabz1
#
# compiler GCC version 4.9.2
# options -cpp -iprefix /lustre/shared/ucl/apps/gcc/4.9.2/bin/../lib/gcc/x86_64-unknown-linux-gnu/4.9.2/ -mtune=corei7 -march=x86-64 -g -Og
#
# seed   133958090  1593635568 -1335417844 -1617190017 -1547933718  1766965937   313075413 -1581181480   158125717 -1524219146 -2075894975   957429059
#
#      Author: C. J. Pickard (cjp20@cam.ac.uk)
#                Space group: P21/m
#

%BLOCK LATTICE_ABC
      3.80172      7.07691      7.44318
     90.00000     92.89063     90.00000
%ENDBLOCK LATTICE_ABC

%BLOCK POSITIONS_FRAC
  Li   0.4680041   0.2500000   0.1365604 SPIN=   0.00000
  Li  -0.4680041  -0.2500000  -0.1365604 SPIN=   0.00000
  Fe  -0.0633050   0.2500000  -0.1685004 SPIN=   4.00000
  Fe   0.0633050  -0.2500000   0.1685004 SPIN=   4.00000
   O   0.0205701   0.4137725   0.2316445 SPIN=   0.00000
   O   0.2436924   0.4134681   0.5498064 SPIN=   0.00000
   O  -0.0205701  -0.0862275  -0.2316445 SPIN=   0.00000
   O  -0.2436924  -0.0865319  -0.5498064 SPIN=   0.00000
   O  -0.0205701  -0.4137725  -0.2316445 SPIN=   0.00000
   O  -0.2436924  -0.4134681  -0.5498064 SPIN=   0.00000
   O   0.0205701   0.0862275   0.2316445 SPIN=   0.00000
   O   0.2436924   0.0865319   0.5498064 SPIN=   0.00000
   S   0.0054777  -0.2500000  -0.3966653 SPIN=   0.00000
   S  -0.0054777   0.2500000   0.3966653 SPIN=   0.00000
   F  -0.5000000  -0.0000000   0.0000000 SPIN=   0.00000
   F  -0.5000000  -0.5000000   0.0000000 SPIN=   0.00000
%ENDBLOCK POSITIONS_FRAC

# Note: total spin =   8.00

KPOINTS_MP_SPACING 0.07

%BLOCK SPECIES_POT
QC5
%ENDBLOCK SPECIES_POT

SNAP_TO_SYMMETRY
SYMMETRY_GENERATE

