#              Generated by Buildcell
#
# at 02:49:52 (GMT+1.0) 19th August 2020
# in /scratch/scratch/uccabz1/launch_tmp
# on node-k10i-030
# by uccabz1
#
# compiler GCC version 4.9.2
# options -cpp -iprefix /scratch/UCL/applications/gcc/4.9.2/bin/../lib/gcc/x86_64-unknown-linux-gnu/4.9.2/ -mtune=corei7 -march=x86-64 -g -O2
#
# seed  -347892552  -653149920 -1272950081   406861915  -341117782  -290363915  -207393851   658240958  1553522108  1504313800 -2043742365  1317238068
#
#      Author: C. J. Pickard (cjp20@cam.ac.uk)
#                Space group: Cc
#

%BLOCK LATTICE_ABC
      5.75895      5.75895      6.49942
     74.41675     74.41675     85.79256
%ENDBLOCK LATTICE_ABC

%BLOCK POSITIONS_FRAC
  Li   0.2193825   0.4571852  -0.0039117 SPIN=   0.00000
  Li  -0.0428148  -0.2806175   0.4960883 SPIN=   0.00000
  Fe  -0.2307023   0.0708960  -0.2399487 SPIN=   4.00000
  Fe  -0.4291040   0.2692977   0.2600513 SPIN=   4.00000
   O   0.3592543   0.1684692  -0.0826021 SPIN=   0.00000
   O   0.3556217  -0.2632929   0.1168740 SPIN=   0.00000
   O   0.0198751  -0.0916219  -0.0478357 SPIN=   0.00000
   O   0.0677167   0.0195834   0.2807899 SPIN=   0.00000
   S   0.2006170  -0.0417156   0.0668065 SPIN=   0.00000
   O   0.6684692  -0.1407457  -0.5826021 SPIN=   0.00000
   O   0.2367071  -0.1443783  -0.3831260 SPIN=   0.00000
   O   0.4083781  -0.4801249  -0.5478357 SPIN=   0.00000
   O   0.5195834  -0.4322833  -0.2192101 SPIN=   0.00000
   S   0.4582844  -0.2993830  -0.4331935 SPIN=   0.00000
   F  -0.2199907   0.4978417   0.0718688 SPIN=   0.00000
   F  -0.0021583   0.2800093  -0.4281312 SPIN=   0.00000
%ENDBLOCK POSITIONS_FRAC

# Note: total spin =   8.00

KPOINTS_MP_SPACING 0.07

%BLOCK SPECIES_POT
QC5
%ENDBLOCK SPECIES_POT

SNAP_TO_SYMMETRY
SYMMETRY_GENERATE

