#              Generated by Buildcell
#
# at 01:52:27 (GMT+1.0) 19th August 2020
# in /scratch/scratch/uccabz1/launch_tmp
# on node-k10i-026
# by uccabz1
#
# compiler GCC version 4.9.2
# options -cpp -iprefix /scratch/UCL/applications/gcc/4.9.2/bin/../lib/gcc/x86_64-unknown-linux-gnu/4.9.2/ -mtune=corei7 -march=x86-64 -g -O2
#
# seed  1916682826  1676409060   946846944   -47201945  -434717200 -1139949658  -247092650 -1696269400   287201420  1203168991 -2046447756 -1122469465
#
#      Author: C. J. Pickard (cjp20@cam.ac.uk)
#                Space group: Pm
#

%BLOCK LATTICE_ABC
      3.97691      4.08096     14.05754
     90.00000     90.00000    118.76236
%ENDBLOCK LATTICE_ABC

%BLOCK POSITIONS_FRAC
  Li  -0.2814232  -0.0915596   0.2275697 SPIN=   0.00000
  Li  -0.2814232  -0.0915596  -0.2275697 SPIN=   0.00000
  Fe   0.1209228   0.4955396   0.3710475 SPIN=   4.00000
  Fe   0.1209228   0.4955396  -0.3710475 SPIN=   4.00000
   O   0.2790944   0.2036678   0.2429578 SPIN=   0.00000
   O   0.0829780  -0.0649419   0.0817147 SPIN=   0.00000
   O   0.7696859   0.2583079   0.1263421 SPIN=   0.00000
   O   0.4254127   0.6214460   0.1036627 SPIN=   0.00000
   S   0.3892928   0.2546200   0.1386693 SPIN=   0.00000
   O   0.2790944   0.2036678  -0.2429578 SPIN=   0.00000
   O   0.0829780  -0.0649419  -0.0817147 SPIN=   0.00000
   O   0.7696859   0.2583079  -0.1263421 SPIN=   0.00000
   O   0.4254127   0.6214460  -0.1036627 SPIN=   0.00000
   S   0.3892928   0.2546200  -0.1386693 SPIN=   0.00000
   F  -0.2513112  -0.2464063   0.3671701 SPIN=   0.00000
   F  -0.2513112  -0.2464063  -0.3671701 SPIN=   0.00000
%ENDBLOCK POSITIONS_FRAC

# Note: total spin =   8.00

KPOINTS_MP_SPACING 0.07

%BLOCK SPECIES_POT
QC5
%ENDBLOCK SPECIES_POT

SNAP_TO_SYMMETRY
SYMMETRY_GENERATE

