#              Generated by Buildcell
#
# at 01:02:39 (GMT+1.0) 19th August 2020
# in /lustre/scratch/uccabz1/launch_tmp
# on node-c12p-007
# by uccabz1
#
# compiler GCC version 4.9.2
# options -cpp -iprefix /lustre/shared/ucl/apps/gcc/4.9.2/bin/../lib/gcc/x86_64-unknown-linux-gnu/4.9.2/ -mtune=corei7 -march=x86-64 -g -Og
#
# seed  -466463026  1357661574  -735740105  1583915904  -901931804  1838872031 -1617490922 -1674486190 -1128569474  -199626695  1792549969  -811027267
#
#      Author: C. J. Pickard (cjp20@cam.ac.uk)
#                Space group: P2
#

%BLOCK LATTICE_ABC
      4.15056      6.02260      8.41281
    108.00322     90.00000     90.00000
%ENDBLOCK LATTICE_ABC

%BLOCK POSITIONS_FRAC
  Li  -0.3093082  -0.0000000   0.0000000 SPIN=   0.00000
  Li   0.1905852  -0.5000000  -0.0000000 SPIN=   0.00000
  Fe   0.2012355  -0.2292077  -0.2643586 SPIN=   4.00000
  Fe   0.2012355   0.2292077   0.2643586 SPIN=   4.00000
   O   0.1393708  -0.2540375   0.2203681 SPIN=   0.00000
   O  -0.2283860  -0.2030774   0.4605936 SPIN=   0.00000
   O  -0.3791061  -0.4670927   0.1814930 SPIN=   0.00000
   O  -0.3736379  -0.0394473   0.2341292 SPIN=   0.00000
   S  -0.2104398  -0.2409137   0.2741460 SPIN=   0.00000
   O   0.1393708   0.2540375  -0.2203681 SPIN=   0.00000
   O  -0.2283860   0.2030774  -0.4605936 SPIN=   0.00000
   O  -0.3791061   0.4670927  -0.1814930 SPIN=   0.00000
   O  -0.3736379   0.0394473  -0.2341292 SPIN=   0.00000
   S  -0.2104398   0.2409137  -0.2741460 SPIN=   0.00000
   F   0.2988461   0.5000000   0.5000000 SPIN=   0.00000
   F   0.1924821   0.0000000   0.0000000 SPIN=   0.00000
%ENDBLOCK POSITIONS_FRAC

# Note: total spin =   8.00

KPOINTS_MP_SPACING 0.07

%BLOCK SPECIES_POT
QC5
%ENDBLOCK SPECIES_POT

SNAP_TO_SYMMETRY
SYMMETRY_GENERATE

