#              Generated by Buildcell
#
# at 23:44:56 (GMT+1.0) 18th August 2020
# in /lustre/scratch/uccabz1/launch_tmp
# on node-c12o-035
# by uccabz1
#
# compiler GCC version 4.9.2
# options -cpp -iprefix /lustre/shared/ucl/apps/gcc/4.9.2/bin/../lib/gcc/x86_64-unknown-linux-gnu/4.9.2/ -mtune=corei7 -march=x86-64 -g -Og
#
# seed   284678790  1890291053  1131058366  1987699455 -2003225911 -1653855342  1923908312  1858259027   935989564 -1580094465 -1400406752  -932276330
#
#      Author: C. J. Pickard (cjp20@cam.ac.uk)
#                Space group: Cm
#

%BLOCK LATTICE_ABC
      5.00704      6.47779      7.34240
     63.82449     81.05246     69.35491
%ENDBLOCK LATTICE_ABC

%BLOCK POSITIONS_FRAC
  Li  -0.1537565  -0.3797153  -0.3246644 SPIN=   0.00000
  Li  -0.1537565   0.2956203   0.3246644 SPIN=   0.00000
  Fe  -0.4422216  -0.1211187   0.2704547 SPIN=   4.00000
  Fe  -0.4422216   0.1493360  -0.2704547 SPIN=   4.00000
   O   0.4901760  -0.1869999  -0.1926395 SPIN=   0.00000
   O   0.2480415  -0.0488885  -0.5147783 SPIN=   0.00000
   O  -0.0287295  -0.1155224  -0.1953560 SPIN=   0.00000
   O   0.3153652  -0.4662982  -0.2502285 SPIN=   0.00000
   S   0.2562133  -0.2044272  -0.2882506 SPIN=   0.00000
   O   0.4901760  -0.3796394   0.1926395 SPIN=   0.00000
   O   0.2480415  -0.5636668   0.5147783 SPIN=   0.00000
   O  -0.0287295  -0.3108784   0.1953560 SPIN=   0.00000
   O   0.3153652  -0.7165267   0.2502285 SPIN=   0.00000
   S   0.2562133  -0.4926778   0.2882506 SPIN=   0.00000
   F  -0.1651411   0.0438848   0.2843018 SPIN=   0.00000
   F  -0.1651411   0.3281866  -0.2843018 SPIN=   0.00000
%ENDBLOCK POSITIONS_FRAC

# Note: total spin =   8.00

KPOINTS_MP_SPACING 0.07

%BLOCK SPECIES_POT
QC5
%ENDBLOCK SPECIES_POT

SNAP_TO_SYMMETRY
SYMMETRY_GENERATE

