#              Generated by Buildcell
#
# at 02:53:08 (GMT+1.0) 4th August 2020
# in /lustre/scratch/uccabz1/launch_tmp
# on node-c12f-017
# by uccabz1
#
# compiler GCC version 4.9.2
# options -cpp -iprefix /lustre/shared/ucl/apps/gcc/4.9.2/bin/../lib/gcc/x86_64-unknown-linux-gnu/4.9.2/ -mtune=corei7 -march=x86-64 -g -Og
#
# seed   723227724  1742041191  1219270237   955842356  1763318194   746698267 -2126860370  -219762007  -200623704  -532022557 -1814378163   704008385
#
#      Author: C. J. Pickard (cjp20@cam.ac.uk)
#                Space group: Cc
#

%BLOCK LATTICE_ABC
      4.97664      4.97664      9.15788
     97.90582    101.58683    112.16586
%ENDBLOCK LATTICE_ABC

%BLOCK POSITIONS_FRAC
  Li   0.1836381   0.4395337  -0.2712583 SPIN=   0.00000
  Li   0.2892080   0.0451036   0.2287417 SPIN=   0.00000
  Fe  -0.3825433   0.3848237   0.0022822 SPIN=   4.00000
  Fe  -0.3825415  -0.1151745  -0.4977178 SPIN=   4.00000
   O   0.0529239  -0.1460640  -0.2512680 SPIN=   0.00000
   O  -0.4322831  -0.2238234  -0.1934882 SPIN=   0.00000
   O  -0.0194853   0.2838345  -0.1242905 SPIN=   0.00000
   O   0.0262050  -0.0928583   0.0175052 SPIN=   0.00000
   S  -0.0931599  -0.0447278  -0.1378854 SPIN=   0.00000
   O  -0.1052040   0.1958081   0.2487320 SPIN=   0.00000
   O   0.0303351   0.7387948   0.3065118 SPIN=   0.00000
   O  -0.4081251   0.3951948   0.3757095 SPIN=   0.00000
   O   0.1103635   0.4913002   0.5175052 SPIN=   0.00000
   S  -0.0931576   0.4552745   0.3621146 SPIN=   0.00000
   F   0.4068815  -0.2947514   0.1121227 SPIN=   0.00000
   F   0.4068741   0.2052412  -0.3878773 SPIN=   0.00000
%ENDBLOCK POSITIONS_FRAC

# Note: total spin =   8.00

KPOINTS_MP_SPACING 0.07

%BLOCK SPECIES_POT
QC5
%ENDBLOCK SPECIES_POT

SNAP_TO_SYMMETRY
SYMMETRY_GENERATE

