#              Generated by Buildcell
#
# at 02:15:36 (GMT+1.0) 4th August 2020
# in /lustre/scratch/uccabz1/launch_tmp
# on node-c12g-022
# by uccabz1
#
# compiler GCC version 4.9.2
# options -cpp -iprefix /lustre/shared/ucl/apps/gcc/4.9.2/bin/../lib/gcc/x86_64-unknown-linux-gnu/4.9.2/ -mtune=corei7 -march=x86-64 -g -Og
#
# seed  1389283194   944120670 -1251051129 -1623222162  -186921695  1738741464   538614584 -1632931116  1782112896  -292346343   907584214   857922777
#
#      Author: C. J. Pickard (cjp20@cam.ac.uk)
#                Space group: Aem2
#

%BLOCK LATTICE_ABC
      3.92597      7.54007      7.54007
    116.35627     90.00000     90.00000
%ENDBLOCK LATTICE_ABC

%BLOCK POSITIONS_FRAC
  Li  -0.0733757   0.1455628   0.3544372 SPIN=   0.00000
  Li   0.0733757  -0.3544372  -0.1455628 SPIN=   0.00000
  Fe  -0.5000000   0.0167454  -0.0167454 SPIN=   4.00000
  Fe   0.5000000  -0.4832546   0.4832546 SPIN=   4.00000
   O  -0.2447108  -0.3302861   0.1268286 SPIN=   0.00000
   O   0.2261755  -0.4612448   0.2526751 SPIN=   0.00000
   O   0.2447108  -0.1268286   0.3302861 SPIN=   0.00000
   O  -0.2261755  -0.2526751   0.4612448 SPIN=   0.00000
   O  -0.2447108   0.3731714  -0.1697139 SPIN=   0.00000
   O   0.2261755   0.2473249  -0.0387552 SPIN=   0.00000
   O   0.2447108   0.1697139  -0.3731714 SPIN=   0.00000
   O  -0.2261755   0.0387552  -0.2473249 SPIN=   0.00000
   S  -0.1050364   0.4444826   0.0555174 SPIN=   0.00000
   S   0.1050364  -0.0555174  -0.4444826 SPIN=   0.00000
   F   0.4251961   0.2052821   0.2947179 SPIN=   0.00000
   F  -0.4251961  -0.2947179  -0.2052821 SPIN=   0.00000
%ENDBLOCK POSITIONS_FRAC

# Note: total spin =   8.00

KPOINTS_MP_SPACING 0.07

%BLOCK SPECIES_POT
QC5
%ENDBLOCK SPECIES_POT

SNAP_TO_SYMMETRY
SYMMETRY_GENERATE

