#              Generated by Buildcell
#
# at 04:14:06 (GMT+1.0) 4th August 2020
# in /lustre/scratch/uccabz1/launch_tmp
# on node-c12m-016
# by uccabz1
#
# compiler GCC version 4.9.2
# options -cpp -iprefix /lustre/shared/ucl/apps/gcc/4.9.2/bin/../lib/gcc/x86_64-unknown-linux-gnu/4.9.2/ -mtune=corei7 -march=x86-64 -g -Og
#
# seed   636745843 -1223217995  1754114075  -860370982 -1888725623  -752066546 -1814649335  -495760364 -1824556166  -118807669  -355905557  1418945294
#
#      Author: C. J. Pickard (cjp20@cam.ac.uk)
#                Space group: P21
#

%BLOCK LATTICE_ABC
      4.38277      5.61813      8.21325
     90.00000     98.52588     90.00000
%ENDBLOCK LATTICE_ABC

%BLOCK POSITIONS_FRAC
  Li   0.2677141  -0.0991031   0.0585696 SPIN=   0.00000
  Li  -0.2677141   0.4008969  -0.0585696 SPIN=   0.00000
  Fe  -0.3409207  -0.4211945   0.3832844 SPIN=   4.00000
  Fe   0.3409207   0.0788055  -0.3832844 SPIN=   4.00000
   O  -0.3606571  -0.1370959   0.2219132 SPIN=   0.00000
   O  -0.1170468   0.0840325   0.0144897 SPIN=   0.00000
   O   0.0980803   0.1140907   0.3098732 SPIN=   0.00000
   O  -0.4038155   0.3017552   0.2056148 SPIN=   0.00000
   S  -0.1958598   0.0906956   0.1879727 SPIN=   0.00000
   O   0.3606571  -0.6370959  -0.2219132 SPIN=   0.00000
   O   0.1170468  -0.4159675  -0.0144897 SPIN=   0.00000
   O  -0.0980803  -0.3859093  -0.3098732 SPIN=   0.00000
   O   0.4038155  -0.1982448  -0.2056148 SPIN=   0.00000
   S   0.1958598  -0.4093044  -0.1879727 SPIN=   0.00000
   F  -0.2367919   0.0912808  -0.3769295 SPIN=   0.00000
   F   0.2367919  -0.4087192   0.3769295 SPIN=   0.00000
%ENDBLOCK POSITIONS_FRAC

# Note: total spin =   8.00

KPOINTS_MP_SPACING 0.07

%BLOCK SPECIES_POT
QC5
%ENDBLOCK SPECIES_POT

SNAP_TO_SYMMETRY
SYMMETRY_GENERATE

