#              Generated by Buildcell
#
# at 05:27:55 (GMT+1.0) 4th August 2020
# in /lustre/scratch/uccabz1/launch_tmp
# on node-c12g-012
# by uccabz1
#
# compiler GCC version 4.9.2
# options -cpp -iprefix /lustre/shared/ucl/apps/gcc/4.9.2/bin/../lib/gcc/x86_64-unknown-linux-gnu/4.9.2/ -mtune=corei7 -march=x86-64 -g -Og
#
# seed  -738295818 -1934687592  1443929962 -2099116687  -598202427  1666565037 -2048462223   495846630  1817419716  -778151744  1099624587  1092962104
#
#      Author: C. J. Pickard (cjp20@cam.ac.uk)
#                Space group: Pc
#

%BLOCK LATTICE_ABC
      4.11085      6.26065      7.95123
     90.00000     90.00000    102.22094
%ENDBLOCK LATTICE_ABC

%BLOCK POSITIONS_FRAC
  Li   0.1011051   0.4099947   0.1094131 SPIN=   0.00000
  Li  -0.3988949  -0.0900053  -0.1094131 SPIN=   0.00000
  Fe   0.0911991  -0.1289104   0.2451485 SPIN=   4.00000
  Fe  -0.4088009   0.3710896  -0.2451485 SPIN=   4.00000
   O  -0.1703455  -0.3371728  -0.3432330 SPIN=   0.00000
   O   0.4088314  -0.1476024  -0.4053600 SPIN=   0.00000
   O   0.1221266  -0.0454917  -0.1535676 SPIN=   0.00000
   O  -0.0510502   0.0482927  -0.4374909 SPIN=   0.00000
   S   0.0773906  -0.1204936  -0.3349129 SPIN=   0.00000
   O  -0.6703455   0.1628272   0.3432330 SPIN=   0.00000
   O  -0.0911686   0.3523976   0.4053600 SPIN=   0.00000
   O  -0.3778734   0.4545083   0.1535676 SPIN=   0.00000
   O  -0.5510502   0.5482927   0.4374909 SPIN=   0.00000
   S  -0.4226094   0.3795064   0.3349129 SPIN=   0.00000
   F   0.1921645   0.4091040  -0.1334060 SPIN=   0.00000
   F  -0.3078355  -0.0908960   0.1334060 SPIN=   0.00000
%ENDBLOCK POSITIONS_FRAC

# Note: total spin =   8.00

KPOINTS_MP_SPACING 0.07

%BLOCK SPECIES_POT
QC5
%ENDBLOCK SPECIES_POT

SNAP_TO_SYMMETRY
SYMMETRY_GENERATE

