#              Generated by Buildcell
#
# at 02:56:31 (GMT+1.0) 4th August 2020
# in /lustre/scratch/uccabz1/launch_tmp
# on node-c12g-005
# by uccabz1
#
# compiler GCC version 4.9.2
# options -cpp -iprefix /lustre/shared/ucl/apps/gcc/4.9.2/bin/../lib/gcc/x86_64-unknown-linux-gnu/4.9.2/ -mtune=corei7 -march=x86-64 -g -Og
#
# seed  -791083679   -33020390   317370603 -1410615531 -1440592667  1614519117  2138466854   348769594 -1064561865 -1072697913   611802641 -1320362393
#
#      Author: C. J. Pickard (cjp20@cam.ac.uk)
#                Space group: Pc
#

%BLOCK LATTICE_ABC
      3.93119      5.64117      9.19296
    101.17899     90.00000     90.00000
%ENDBLOCK LATTICE_ABC

%BLOCK POSITIONS_FRAC
  Li   0.3341359   0.0879399  -0.1849885 SPIN=   0.00000
  Li  -0.3341359   0.0879399   0.3150115 SPIN=   0.00000
  Fe   0.0871567   0.3152883  -0.4354048 SPIN=   4.00000
  Fe  -0.0871567   0.3152883   0.0645952 SPIN=   4.00000
   O   0.6208695  -0.6153743  -0.1819585 SPIN=   0.00000
   O   0.6445028  -0.1686166  -0.1352491 SPIN=   0.00000
   O   0.3152473  -0.3759908   0.0326074 SPIN=   0.00000
   O   0.1094086  -0.3806171  -0.2223451 SPIN=   0.00000
   S   0.4225071  -0.3851497  -0.1267363 SPIN=   0.00000
   O  -0.6208695  -0.6153743   0.3180415 SPIN=   0.00000
   O  -0.6445028  -0.1686166   0.3647509 SPIN=   0.00000
   O  -0.3152473  -0.3759908   0.5326074 SPIN=   0.00000
   O  -0.1094086  -0.3806171   0.2776549 SPIN=   0.00000
   S  -0.4225071  -0.3851497   0.3732637 SPIN=   0.00000
   F  -0.0802401   0.0454809   0.1490816 SPIN=   0.00000
   F   0.0802401   0.0454809  -0.3509184 SPIN=   0.00000
%ENDBLOCK POSITIONS_FRAC

# Note: total spin =   8.00

KPOINTS_MP_SPACING 0.07

%BLOCK SPECIES_POT
QC5
%ENDBLOCK SPECIES_POT

SNAP_TO_SYMMETRY
SYMMETRY_GENERATE

