#              Generated by Buildcell
#
# at 21:34:00 (GMT+1.0) 18th August 2020
# in /lustre/scratch/uccabz1/launch_tmp
# on node-c12l-029
# by uccabz1
#
# compiler GCC version 4.9.2
# options -cpp -iprefix /lustre/shared/ucl/apps/gcc/4.9.2/bin/../lib/gcc/x86_64-unknown-linux-gnu/4.9.2/ -mtune=corei7 -march=x86-64 -g -Og
#
# seed  1853464885  1342869942  1797152487 -2055366876 -1643041754  -676853800 -1019061364 -1372518816   673503355   -39911710  -795841851  1074322328
#
#      Author: C. J. Pickard (cjp20@cam.ac.uk)
#                Space group: Aem2
#

%BLOCK LATTICE_ABC
      5.02314      6.35263      6.35263
     99.38481     90.00000     90.00000
%ENDBLOCK LATTICE_ABC

%BLOCK POSITIONS_FRAC
  Li  -0.5000000   0.1375891   0.1375891 SPIN=   0.00000
  Li   0.5000000  -0.3624109  -0.3624109 SPIN=   0.00000
  Fe  -0.4999000   0.6153990   0.1153990 SPIN=   4.00000
  Fe   0.4999000   0.1153990  -0.3846010 SPIN=   4.00000
   O   0.2278340   0.3266679   0.0716062 SPIN=   0.00000
   O   0.0814351   0.6120234   0.3612662 SPIN=   0.00000
   O  -0.2278340   0.0716062   0.3266679 SPIN=   0.00000
   O  -0.0814351   0.3612662   0.6120234 SPIN=   0.00000
   O   0.2278340  -0.4283938  -0.1733321 SPIN=   0.00000
   O   0.0814351  -0.1387338   0.1120234 SPIN=   0.00000
   O  -0.2278340  -0.1733321  -0.4283938 SPIN=   0.00000
   O  -0.0814351   0.1120234  -0.1387338 SPIN=   0.00000
   S   0.0000047   0.8643325   0.3643325 SPIN=   0.00000
   S  -0.0000047   0.3643325  -0.1356675 SPIN=   0.00000
   F  -0.5000000  -0.0935462  -0.0935462 SPIN=   0.00000
   F   0.5000000   0.4064538   0.4064538 SPIN=   0.00000
%ENDBLOCK POSITIONS_FRAC

# Note: total spin =   8.00

KPOINTS_MP_SPACING 0.07

%BLOCK SPECIES_POT
QC5
%ENDBLOCK SPECIES_POT

SNAP_TO_SYMMETRY
SYMMETRY_GENERATE

