#              Generated by Buildcell
#
# at 03:46:52 (GMT+1.0) 4th August 2020
# in /lustre/scratch/uccabz1/launch_tmp
# on node-c12c-029
# by uccabz1
#
# compiler GCC version 4.9.2
# options -cpp -iprefix /lustre/shared/ucl/apps/gcc/4.9.2/bin/../lib/gcc/x86_64-unknown-linux-gnu/4.9.2/ -mtune=corei7 -march=x86-64 -g -Og
#
# seed -2076737827  -110161935  -429851249  2097832774  -138514871 -1317974115  1305454564  -984989649  -967365384 -1917091707  -381386846  1718885730
#
#      Author: C. J. Pickard (cjp20@cam.ac.uk)
#                Space group: P21
#

%BLOCK LATTICE_ABC
      4.56645      4.61947      9.59320
     98.76735     90.00000     90.00000
%ENDBLOCK LATTICE_ABC

%BLOCK POSITIONS_FRAC
  Li  -0.1899238   0.2120642   0.3826335 SPIN=   0.00000
  Li   0.3100762  -0.2120642  -0.3826335 SPIN=   0.00000
  Fe  -0.2630070  -0.0416259  -0.1478039 SPIN=   4.00000
  Fe   0.2369930   0.0416259   0.1478039 SPIN=   4.00000
   O  -0.2547364  -0.7835593   0.1516862 SPIN=   0.00000
   O  -0.0642321  -0.3172087   0.2811719 SPIN=   0.00000
   O  -0.5737149  -0.3456588   0.1921568 SPIN=   0.00000
   O  -0.1593442  -0.3652754   0.0246978 SPIN=   0.00000
   S  -0.2630069  -0.4529255   0.1624282 SPIN=   0.00000
   O   0.2452636   0.7835593  -0.1516862 SPIN=   0.00000
   O   0.4357679   0.3172087  -0.2811719 SPIN=   0.00000
   O  -0.0737149   0.3456588  -0.1921568 SPIN=   0.00000
   O   0.3406558   0.3652754  -0.0246978 SPIN=   0.00000
   S   0.2369931   0.4529255  -0.1624282 SPIN=   0.00000
   F  -0.2457298  -0.2072958  -0.3623472 SPIN=   0.00000
   F   0.2542702   0.2072958   0.3623472 SPIN=   0.00000
%ENDBLOCK POSITIONS_FRAC

# Note: total spin =   8.00

KPOINTS_MP_SPACING 0.07

%BLOCK SPECIES_POT
QC5
%ENDBLOCK SPECIES_POT

SNAP_TO_SYMMETRY
SYMMETRY_GENERATE

