#              Generated by Buildcell
#
# at 02:20:41 (GMT+1.0) 19th August 2020
# in /lustre/scratch/uccabz1/launch_tmp
# on node-c12m-028
# by uccabz1
#
# compiler GCC version 4.9.2
# options -cpp -iprefix /lustre/shared/ucl/apps/gcc/4.9.2/bin/../lib/gcc/x86_64-unknown-linux-gnu/4.9.2/ -mtune=corei7 -march=x86-64 -g -Og
#
# seed  -257057251 -1070129319  1578074426 -1716967353  1391257810 -1895014162  -945038149  -802437250 -1946697363  1707304997 -1238713919    59740233
#
#      Author: C. J. Pickard (cjp20@cam.ac.uk)
#                Space group: P-1
#

%BLOCK LATTICE_ABC
      4.16221      5.44573      8.87597
     86.46423     84.87658     89.74257
%ENDBLOCK LATTICE_ABC

%BLOCK POSITIONS_FRAC
  Li   0.7170415  -0.2347348  -0.2101366 SPIN=   0.00000
  Li  -0.7170415   0.2347348   0.2101366 SPIN=   0.00000
  Fe  -0.1877369  -0.2618944   0.1224815 SPIN=   4.00000
  Fe   0.1877369   0.2618944  -0.1224815 SPIN=   4.00000
   O   0.1730849  -0.4016742   0.2723625 SPIN=   0.00000
   O   0.1046926   0.0091081   0.3755760 SPIN=   0.00000
   O   0.6298885  -0.2050845   0.3791573 SPIN=   0.00000
   O   0.1604761  -0.3593800   0.5488501 SPIN=   0.00000
   S   0.2670355  -0.2392577   0.3939865 SPIN=   0.00000
   O  -0.1730849   0.4016742  -0.2723625 SPIN=   0.00000
   O  -0.1046926  -0.0091081  -0.3755760 SPIN=   0.00000
   O  -0.6298885   0.2050845  -0.3791573 SPIN=   0.00000
   O  -0.1604761   0.3593800  -0.5488501 SPIN=   0.00000
   S  -0.2670355   0.2392577  -0.3939865 SPIN=   0.00000
   F   0.2547004  -0.2396080  -0.1465838 SPIN=   0.00000
   F  -0.2547004   0.2396080   0.1465838 SPIN=   0.00000
%ENDBLOCK POSITIONS_FRAC

# Note: total spin =   8.00

KPOINTS_MP_SPACING 0.07

%BLOCK SPECIES_POT
QC5
%ENDBLOCK SPECIES_POT

SNAP_TO_SYMMETRY
SYMMETRY_GENERATE

