#              Generated by Buildcell
#
# at 01:51:14 (GMT+1.0) 4th August 2020
# in /lustre/scratch/uccabz1/launch_tmp
# on node-c12d-009
# by uccabz1
#
# compiler GCC version 4.9.2
# options -cpp -iprefix /lustre/shared/ucl/apps/gcc/4.9.2/bin/../lib/gcc/x86_64-unknown-linux-gnu/4.9.2/ -mtune=corei7 -march=x86-64 -g -Og
#
# seed  1396222818  2058107045 -1930452016  -226420264 -1127483145   717436613   759380363  1133091816  1942273706    55088588   624875791 -2041293551
#
#      Author: C. J. Pickard (cjp20@cam.ac.uk)
#                Space group: P21
#

%BLOCK LATTICE_ABC
      5.14400      5.62638      7.16707
     90.00000     90.00000    105.38148
%ENDBLOCK LATTICE_ABC

%BLOCK POSITIONS_FRAC
  Li   0.3837206   0.3430892   0.4217904 SPIN=   0.00000
  Li  -0.3837206  -0.3430892  -0.0782096 SPIN=   0.00000
  Fe   0.0246005   0.3741799  -0.0531904 SPIN=   4.00000
  Fe  -0.0246005  -0.3741799   0.4468096 SPIN=   4.00000
   O  -0.2427976   0.3342267  -0.3877739 SPIN=   0.00000
   O  -0.6083058  -0.0427257  -0.4512875 SPIN=   0.00000
   O  -0.2456767  -0.0563357  -0.2278796 SPIN=   0.00000
   O  -0.1461148  -0.0094881  -0.5657785 SPIN=   0.00000
   S  -0.3107237   0.0564193  -0.4081799 SPIN=   0.00000
   O   0.2427976  -0.3342267   0.1122261 SPIN=   0.00000
   O   0.6083058   0.0427257   0.0487125 SPIN=   0.00000
   O   0.2456767   0.0563357   0.2721204 SPIN=   0.00000
   O   0.1461148   0.0094881  -0.0657785 SPIN=   0.00000
   S   0.3107237  -0.0564193   0.0918201 SPIN=   0.00000
   F  -0.2982372  -0.4756685   0.2489712 SPIN=   0.00000
   F   0.2982372   0.4756685  -0.2510288 SPIN=   0.00000
%ENDBLOCK POSITIONS_FRAC

# Note: total spin =   8.00

KPOINTS_MP_SPACING 0.07

%BLOCK SPECIES_POT
QC5
%ENDBLOCK SPECIES_POT

SNAP_TO_SYMMETRY
SYMMETRY_GENERATE

