#              Generated by Buildcell
#
# at 22:35:28 (GMT+1.0) 18th August 2020
# in /lustre/scratch/uccabz1/launch_tmp
# on node-c12h-012
# by uccabz1
#
# compiler GCC version 4.9.2
# options -cpp -iprefix /lustre/shared/ucl/apps/gcc/4.9.2/bin/../lib/gcc/x86_64-unknown-linux-gnu/4.9.2/ -mtune=corei7 -march=x86-64 -g -Og
#
# seed  1294261711  1465723935  -322011144   617278594  1936581788  -976695116 -1437656179 -1643957139 -1885615651 -1494260042  1978621623 -2099620553
#
#      Author: C. J. Pickard (cjp20@cam.ac.uk)
#                Space group: P-1
#

%BLOCK LATTICE_ABC
      4.80601      5.96039      7.08612
     97.00348     93.13920     95.74294
%ENDBLOCK LATTICE_ABC

%BLOCK POSITIONS_FRAC
  Li   0.0000000  -0.5000000  -0.0000000 SPIN=   0.00000
  Li   0.0000000   0.0000000   0.5000000 SPIN=   0.00000
  Fe  -0.4784018   0.2825401  -0.3433931 SPIN=   4.00000
  Fe   0.4784018  -0.2825401   0.3433931 SPIN=   4.00000
   O  -0.4988954  -0.1369739  -0.3397898 SPIN=   0.00000
   O  -0.3838716  -0.3986192  -0.1083200 SPIN=   0.00000
   O  -0.2642079   0.0164756  -0.0243126 SPIN=   0.00000
   O  -0.0046028  -0.1969525  -0.2658514 SPIN=   0.00000
   S  -0.2878944  -0.1790175  -0.1845684 SPIN=   0.00000
   O   0.4988954   0.1369739   0.3397898 SPIN=   0.00000
   O   0.3838716   0.3986192   0.1083200 SPIN=   0.00000
   O   0.2642079  -0.0164756   0.0243126 SPIN=   0.00000
   O   0.0046028   0.1969525   0.2658514 SPIN=   0.00000
   S   0.2878944   0.1790175   0.1845684 SPIN=   0.00000
   F   0.1427809   0.3380200  -0.3046451 SPIN=   0.00000
   F  -0.1427809  -0.3380200   0.3046451 SPIN=   0.00000
%ENDBLOCK POSITIONS_FRAC

# Note: total spin =   8.00

KPOINTS_MP_SPACING 0.07

%BLOCK SPECIES_POT
QC5
%ENDBLOCK SPECIES_POT

SNAP_TO_SYMMETRY
SYMMETRY_GENERATE

