#              Generated by Buildcell
#
# at 02:40:21 (GMT+1.0) 4th August 2020
# in /lustre/scratch/uccabz1/launch_tmp
# on node-c12f-021
# by uccabz1
#
# compiler GCC version 4.9.2
# options -cpp -iprefix /lustre/shared/ucl/apps/gcc/4.9.2/bin/../lib/gcc/x86_64-unknown-linux-gnu/4.9.2/ -mtune=corei7 -march=x86-64 -g -Og
#
# seed  1656851353  1085362401  2040034609 -1053262955 -1376230246  1661795557  1138115560   502195596  -531314558 -1801607180 -2095002548   277714325
#
#      Author: C. J. Pickard (cjp20@cam.ac.uk)
#                Space group: P-1
#

%BLOCK LATTICE_ABC
      3.90107      6.84611      7.95339
    102.06992     92.72981    104.47596
%ENDBLOCK LATTICE_ABC

%BLOCK POSITIONS_FRAC
  Li   0.1908171  -0.2207314   0.3397598 SPIN=   0.00000
  Li  -0.1908171   0.2207314  -0.3397598 SPIN=   0.00000
  Fe   0.3397564  -0.2846621  -0.0487650 SPIN=   4.00000
  Fe  -0.3397564   0.2846621   0.0487650 SPIN=   4.00000
   O  -0.0416449  -0.4282415  -0.3384866 SPIN=   0.00000
   O  -0.2839967  -0.1421057  -0.1951876 SPIN=   0.00000
   O  -0.4900348  -0.3193458  -0.5009665 SPIN=   0.00000
   O   0.1219257  -0.0905832  -0.4213521 SPIN=   0.00000
   S  -0.1734377  -0.2450690  -0.3639982 SPIN=   0.00000
   O   0.0416449   0.4282415   0.3384866 SPIN=   0.00000
   O   0.2839967   0.1421057   0.1951876 SPIN=   0.00000
   O   0.4900348   0.3193458   0.5009665 SPIN=   0.00000
   O  -0.1219257   0.0905832   0.4213521 SPIN=   0.00000
   S   0.1734377   0.2450690   0.3639982 SPIN=   0.00000
   F  -0.2411621  -0.2952534   0.1676627 SPIN=   0.00000
   F   0.2411621   0.2952534  -0.1676627 SPIN=   0.00000
%ENDBLOCK POSITIONS_FRAC

# Note: total spin =   8.00

KPOINTS_MP_SPACING 0.07

%BLOCK SPECIES_POT
QC5
%ENDBLOCK SPECIES_POT

SNAP_TO_SYMMETRY
SYMMETRY_GENERATE

