#              Generated by Buildcell
#
# at 05:33:44 (GMT+1.0) 4th August 2020
# in /lustre/scratch/uccabz1/launch_tmp
# on node-c12d-014
# by uccabz1
#
# compiler GCC version 4.9.2
# options -cpp -iprefix /lustre/shared/ucl/apps/gcc/4.9.2/bin/../lib/gcc/x86_64-unknown-linux-gnu/4.9.2/ -mtune=corei7 -march=x86-64 -g -Og
#
# seed -1036283621  1975015824 -1656009480 -1241391279  1582848304   384727300     7140371 -1109087323   810087440  1396566886 -1348124059 -1448486265
#
#      Author: C. J. Pickard (cjp20@cam.ac.uk)
#                Space group: Cc
#

%BLOCK LATTICE_ABC
      5.89350      5.89350      6.32850
     72.69874     72.69874     88.10102
%ENDBLOCK LATTICE_ABC

%BLOCK POSITIONS_FRAC
  Li  -0.0040734  -0.3888114  -0.3913589 SPIN=   0.00000
  Li  -0.3888114  -0.0040734   0.1086411 SPIN=   0.00000
  Fe   0.1768881  -0.2251598   0.1005687 SPIN=   4.00000
  Fe  -0.2251598   0.1768881  -0.3994313 SPIN=   4.00000
   O   0.3762457  -0.4787759  -0.2210577 SPIN=   0.00000
   O   0.3598515  -0.2843202  -0.6204050 SPIN=   0.00000
   O   0.7217424  -0.2266952  -0.5157401 SPIN=   0.00000
   O   0.3515336  -0.0419692  -0.3592553 SPIN=   0.00000
   S   0.4523433  -0.2579401  -0.4291145 SPIN=   0.00000
   O  -0.4787759   0.3762457   0.2789423 SPIN=   0.00000
   O  -0.2843202   0.3598515  -0.1204050 SPIN=   0.00000
   O  -0.2266952   0.7217424  -0.0157401 SPIN=   0.00000
   O  -0.0419692   0.3515336   0.1407447 SPIN=   0.00000
   S  -0.2579401   0.4523433   0.0708855 SPIN=   0.00000
   F   0.0804747   0.3043000  -0.4613521 SPIN=   0.00000
   F   0.3043000   0.0804747   0.0386479 SPIN=   0.00000
%ENDBLOCK POSITIONS_FRAC

# Note: total spin =   8.00

KPOINTS_MP_SPACING 0.07

%BLOCK SPECIES_POT
QC5
%ENDBLOCK SPECIES_POT

SNAP_TO_SYMMETRY
SYMMETRY_GENERATE

