#              Generated by Buildcell
#
# at 19:50:04 (GMT+1.0) 18th August 2020
# in /lustre/scratch/uccabz1/launch_tmp
# on node-c12k-033
# by uccabz1
#
# compiler GCC version 4.9.2
# options -cpp -iprefix /lustre/shared/ucl/apps/gcc/4.9.2/bin/../lib/gcc/x86_64-unknown-linux-gnu/4.9.2/ -mtune=corei7 -march=x86-64 -g -Og
#
# seed  1171973355 -1114771069  1363269521  1552602597  -646274091  1960142515 -1435112406   797451283   532932123 -1382058828 -1601811509 -1509242274
#
#      Author: C. J. Pickard (cjp20@cam.ac.uk)
#                Space group: P-1
#

%BLOCK LATTICE_ABC
      4.00853      5.27155     10.06057
     95.14374     94.03839    108.24318
%ENDBLOCK LATTICE_ABC

%BLOCK POSITIONS_FRAC
  Li  -0.0592528   0.3249055   0.3200996 SPIN=   0.00000
  Li   0.0592528  -0.3249055  -0.3200996 SPIN=   0.00000
  Fe   0.3686311   0.2379611  -0.3827931 SPIN=   4.00000
  Fe  -0.3686311  -0.2379611   0.3827931 SPIN=   4.00000
   O  -0.2681785  -0.4530698  -0.0642226 SPIN=   0.00000
   O  -0.4402346  -0.3302585  -0.2844437 SPIN=   0.00000
   O  -0.0792853   0.0239640  -0.1066415 SPIN=   0.00000
   O  -0.7074279  -0.2132138  -0.0831308 SPIN=   0.00000
   S  -0.3737816  -0.2431446  -0.1346097 SPIN=   0.00000
   O   0.2681785   0.4530698   0.0642226 SPIN=   0.00000
   O   0.4402346   0.3302585   0.2844437 SPIN=   0.00000
   O   0.0792853  -0.0239640   0.1066415 SPIN=   0.00000
   O   0.7074279   0.2132138   0.0831308 SPIN=   0.00000
   S   0.3737816   0.2431446   0.1346097 SPIN=   0.00000
   F  -0.1317170   0.2387550  -0.3868971 SPIN=   0.00000
   F   0.1317170  -0.2387550   0.3868971 SPIN=   0.00000
%ENDBLOCK POSITIONS_FRAC

# Note: total spin =   8.00

KPOINTS_MP_SPACING 0.07

%BLOCK SPECIES_POT
QC5
%ENDBLOCK SPECIES_POT

SNAP_TO_SYMMETRY
SYMMETRY_GENERATE

