#              Generated by Buildcell
#
# at 02:16:56 (GMT+1.0) 19th August 2020
# in /lustre/scratch/uccabz1/launch_tmp
# on node-c12k-033
# by uccabz1
#
# compiler GCC version 4.9.2
# options -cpp -iprefix /lustre/shared/ucl/apps/gcc/4.9.2/bin/../lib/gcc/x86_64-unknown-linux-gnu/4.9.2/ -mtune=corei7 -march=x86-64 -g -Og
#
# seed  -146634938   185087262  -497396734  -824487963  -324464413 -1225159884  2092633329 -1651347408  1623247334  1273065503 -1880476988  1548671010
#
#      Author: C. J. Pickard (cjp20@cam.ac.uk)
#                Space group: Pm
#

%BLOCK LATTICE_ABC
      4.13958      5.51188      8.77374
     90.00000     90.00000     92.48952
%ENDBLOCK LATTICE_ABC

%BLOCK POSITIONS_FRAC
  Li  -0.2715474   0.1287917   0.2412579 SPIN=   0.00000
  Li  -0.2715474   0.1287917  -0.2412579 SPIN=   0.00000
  Fe   0.1867202   0.0439844  -0.5000000 SPIN=   3.63258
  Fe   0.1518036  -0.0783301  -0.0000000 SPIN=   4.36742
   O  -0.2369738  -0.1860560  -0.3696463 SPIN=   0.00000
   O   0.0723025  -0.4985643  -0.2383361 SPIN=   0.00000
   O  -0.4429322  -0.6143392  -0.3676357 SPIN=   0.00000
   O  -0.4462329  -0.3715536  -0.1303993 SPIN=   0.00000
   O  -0.2369738  -0.1860560   0.3696463 SPIN=   0.00000
   O   0.0723025  -0.4985643   0.2383361 SPIN=   0.00000
   O  -0.4429322  -0.6143392   0.3676357 SPIN=   0.00000
   O  -0.4462329  -0.3715536   0.1303993 SPIN=   0.00000
   S  -0.3410066  -0.4408044  -0.5000000 SPIN=   0.00000
   S  -0.3764961   0.4370623  -0.0000000 SPIN=   0.00000
   F   0.2699618   0.0120513   0.2361470 SPIN=   0.00000
   F   0.2699618   0.0120513  -0.2361470 SPIN=   0.00000
%ENDBLOCK POSITIONS_FRAC

# Note: total spin =   8.00

KPOINTS_MP_SPACING 0.07

%BLOCK SPECIES_POT
QC5
%ENDBLOCK SPECIES_POT

SNAP_TO_SYMMETRY
SYMMETRY_GENERATE

