#              Generated by Buildcell
#
# at 21:24:02 (GMT+1.0) 18th August 2020
# in /lustre/scratch/uccabz1/launch_tmp
# on node-c12a-003
# by uccabz1
#
# compiler GCC version 4.9.2
# options -cpp -iprefix /lustre/shared/ucl/apps/gcc/4.9.2/bin/../lib/gcc/x86_64-unknown-linux-gnu/4.9.2/ -mtune=corei7 -march=x86-64 -g -Og
#
# seed   687100769 -2074339067  1269703311   831335653 -1401953881  -275499652  -477900666 -1955233473  -309210009   516082318 -1124328417   198563077
#
#      Author: C. J. Pickard (cjp20@cam.ac.uk)
#                Space group: P-1
#

%BLOCK LATTICE_ABC
      4.27863      7.16381      7.25124
    113.87263     92.29497     98.18533
%ENDBLOCK LATTICE_ABC

%BLOCK POSITIONS_FRAC
  Li  -0.2019632   0.2485480   0.3354426 SPIN=   0.00000
  Li   0.2019632  -0.2485480  -0.3354426 SPIN=   0.00000
  Fe   0.1771147  -0.2002110   0.1063363 SPIN=   4.00000
  Fe  -0.1771147   0.2002110  -0.1063363 SPIN=   4.00000
   O   0.0584419   0.1495159  -0.3568286 SPIN=   0.00000
   O   0.6233396   0.3108748  -0.3131108 SPIN=   0.00000
   O   0.2128600   0.4331514  -0.4648019 SPIN=   0.00000
   O   0.3533344   0.0877688  -0.6570047 SPIN=   0.00000
   S   0.3119940   0.2453277  -0.4479365 SPIN=   0.00000
   O  -0.0584419  -0.1495159   0.3568286 SPIN=   0.00000
   O  -0.6233396  -0.3108748   0.3131108 SPIN=   0.00000
   O  -0.2128600  -0.4331514   0.4648019 SPIN=   0.00000
   O  -0.3533344  -0.0877688   0.6570047 SPIN=   0.00000
   S  -0.3119940  -0.2453277   0.4479365 SPIN=   0.00000
   F   0.3154323   0.2590725   0.0602133 SPIN=   0.00000
   F  -0.3154323  -0.2590725  -0.0602133 SPIN=   0.00000
%ENDBLOCK POSITIONS_FRAC

# Note: total spin =   8.00

KPOINTS_MP_SPACING 0.07

%BLOCK SPECIES_POT
QC5
%ENDBLOCK SPECIES_POT

SNAP_TO_SYMMETRY
SYMMETRY_GENERATE

