#              Generated by Buildcell
#
# at 04:30:48 (GMT+1.0) 4th August 2020
# in /lustre/scratch/uccabz1/launch_tmp
# on node-c12j-010
# by uccabz1
#
# compiler GCC version 4.9.2
# options -cpp -iprefix /lustre/shared/ucl/apps/gcc/4.9.2/bin/../lib/gcc/x86_64-unknown-linux-gnu/4.9.2/ -mtune=corei7 -march=x86-64 -g -Og
#
# seed  1919858101  -818099200  -534909275   803034081  1444773470   -25948036 -1152550107 -1895421117  1949446754   -67951055  1551163335   195017499
#
#      Author: C. J. Pickard (cjp20@cam.ac.uk)
#                Space group: P-1
#

%BLOCK LATTICE_ABC
      3.92966      5.01484     10.48875
     94.99856     91.61128    103.46670
%ENDBLOCK LATTICE_ABC

%BLOCK POSITIONS_FRAC
  Li  -0.1704860  -0.2607490   0.1112314 SPIN=   0.00000
  Li   0.1704860   0.2607490  -0.1112314 SPIN=   0.00000
  Fe   0.4684975   0.1878786   0.1903106 SPIN=   4.00000
  Fe  -0.4684975  -0.1878786  -0.1903106 SPIN=   4.00000
   O   0.5810144   0.3302437  -0.2546410 SPIN=   0.00000
   O   0.5401694   0.2451247  -0.4911903 SPIN=   0.00000
   O   0.0954354   0.4410954  -0.3787454 SPIN=   0.00000
   O   0.1108403  -0.0452856  -0.3622045 SPIN=   0.00000
   S   0.3318649   0.2427945  -0.3716953 SPIN=   0.00000
   O  -0.5810144  -0.3302437   0.2546410 SPIN=   0.00000
   O  -0.5401694  -0.2451247   0.4911903 SPIN=   0.00000
   O  -0.0954354  -0.4410954   0.3787454 SPIN=   0.00000
   O  -0.1108403   0.0452856   0.3622045 SPIN=   0.00000
   S  -0.3318649  -0.2427945   0.3716953 SPIN=   0.00000
   F  -0.0455951   0.2695112   0.1324534 SPIN=   0.00000
   F   0.0455951  -0.2695112  -0.1324534 SPIN=   0.00000
%ENDBLOCK POSITIONS_FRAC

# Note: total spin =   8.00

KPOINTS_MP_SPACING 0.07

%BLOCK SPECIES_POT
QC5
%ENDBLOCK SPECIES_POT

SNAP_TO_SYMMETRY
SYMMETRY_GENERATE

