#              Generated by Buildcell
#
# at 03:25:27 (GMT+1.0) 4th August 2020
# in /lustre/scratch/uccabz1/launch_tmp
# on node-c12f-013
# by uccabz1
#
# compiler GCC version 4.9.2
# options -cpp -iprefix /lustre/shared/ucl/apps/gcc/4.9.2/bin/../lib/gcc/x86_64-unknown-linux-gnu/4.9.2/ -mtune=corei7 -march=x86-64 -g -Og
#
# seed  -124458334 -2014771306 -1118292336 -1980059872   624719822 -1047196417   959477918 -1570398628 -2041082680  -631493846  1350893475  -853233881
#
#      Author: C. J. Pickard (cjp20@cam.ac.uk)
#                Space group: C2
#

%BLOCK LATTICE_ABC
      4.01673      4.01673     12.64719
     90.15251     90.15251    101.43342
%ENDBLOCK LATTICE_ABC

%BLOCK POSITIONS_FRAC
  Li  -0.1682726  -0.3296845   0.0976142 SPIN=   0.00000
  Li   0.3296845   0.1682726  -0.0976142 SPIN=   0.00000
  Fe  -0.2542912  -0.2502830  -0.2186219 SPIN=   4.00000
  Fe   0.2502830   0.2542912   0.2186219 SPIN=   4.00000
   O   0.3499360   0.0085837  -0.2769717 SPIN=   0.00000
   O  -0.0672648   0.1988028  -0.3951156 SPIN=   0.00000
   O   0.4240683  -0.0041091  -0.4710452 SPIN=   0.00000
   O   0.5118917   0.5462876  -0.3762115 SPIN=   0.00000
   S   0.3046578   0.1873913  -0.3798360 SPIN=   0.00000
   O  -0.0085837  -0.3499360   0.2769717 SPIN=   0.00000
   O  -0.1988028   0.0672648   0.3951156 SPIN=   0.00000
   O   0.0041091  -0.4240683   0.4710452 SPIN=   0.00000
   O  -0.5462876  -0.5118917   0.3762115 SPIN=   0.00000
   S  -0.1873913  -0.3046578   0.3798360 SPIN=   0.00000
   F  -0.3545947   0.0672548   0.1321311 SPIN=   0.00000
   F  -0.0672548   0.3545947  -0.1321311 SPIN=   0.00000
%ENDBLOCK POSITIONS_FRAC

# Note: total spin =   8.00

KPOINTS_MP_SPACING 0.07

%BLOCK SPECIES_POT
QC5
%ENDBLOCK SPECIES_POT

SNAP_TO_SYMMETRY
SYMMETRY_GENERATE

