#              Generated by Buildcell
#
# at 02:34:03 (GMT+1.0) 19th August 2020
# in /lustre/scratch/uccabz1/launch_tmp
# on node-c12k-020
# by uccabz1
#
# compiler GCC version 4.9.2
# options -cpp -iprefix /lustre/shared/ucl/apps/gcc/4.9.2/bin/../lib/gcc/x86_64-unknown-linux-gnu/4.9.2/ -mtune=corei7 -march=x86-64 -g -Og
#
# seed   825316003 -2093189455 -1538198132  1369791786  -571181540 -1054189907  -969474116  1605896178  1031366801 -1858587244  -279832390    77847461
#
#      Author: C. J. Pickard (cjp20@cam.ac.uk)
#                Space group: P21
#

%BLOCK LATTICE_ABC
      5.26560      5.77289      6.58832
     92.97478     90.00000     90.00000
%ENDBLOCK LATTICE_ABC

%BLOCK POSITIONS_FRAC
  Li   0.2787699  -0.4298336  -0.3108580 SPIN=   0.00000
  Li  -0.2212301   0.4298336   0.3108580 SPIN=   0.00000
  Fe  -0.3381234   0.2993923  -0.1077078 SPIN=   4.00000
  Fe   0.1618766  -0.2993923   0.1077078 SPIN=   4.00000
   O  -0.3684806   0.1209811   0.4915537 SPIN=   0.00000
   O  -0.5131791   0.0807197   0.1340628 SPIN=   0.00000
   O  -0.4125656  -0.2689472   0.3207011 SPIN=   0.00000
   O  -0.0672613  -0.0075674   0.2201923 SPIN=   0.00000
   S  -0.3403717  -0.0187034   0.2916275 SPIN=   0.00000
   O   0.1315194  -0.1209811  -0.4915537 SPIN=   0.00000
   O  -0.0131791  -0.0807197  -0.1340628 SPIN=   0.00000
   O   0.0874344   0.2689472  -0.3207011 SPIN=   0.00000
   O   0.4327387   0.0075674  -0.2201923 SPIN=   0.00000
   S   0.1596283   0.0187034  -0.2916275 SPIN=   0.00000
   F   0.1638921   0.4222266   0.2935287 SPIN=   0.00000
   F  -0.3361079  -0.4222266  -0.2935287 SPIN=   0.00000
%ENDBLOCK POSITIONS_FRAC

# Note: total spin =   8.00

KPOINTS_MP_SPACING 0.07

%BLOCK SPECIES_POT
QC5
%ENDBLOCK SPECIES_POT

SNAP_TO_SYMMETRY
SYMMETRY_GENERATE

