#              Generated by Buildcell
#
# at 02:39:38 (GMT+1.0) 19th August 2020
# in /lustre/scratch/uccabz1/launch_tmp
# on node-c12p-030
# by uccabz1
#
# compiler GCC version 4.9.2
# options -cpp -iprefix /lustre/shared/ucl/apps/gcc/4.9.2/bin/../lib/gcc/x86_64-unknown-linux-gnu/4.9.2/ -mtune=corei7 -march=x86-64 -g -Og
#
# seed  1015585218 -1949287430    92796674  1737009949 -1329676796 -1593432194  -190418989  1984279573  1993846246  2121792344   811519621  -735864875
#
#      Author: C. J. Pickard (cjp20@cam.ac.uk)
#                Space group: P42
#

%BLOCK LATTICE_ABC
      4.19548      4.19548     11.36232
     90.00000     90.00000     90.00000
%ENDBLOCK LATTICE_ABC

%BLOCK POSITIONS_FRAC
  Li  -0.0000000  -0.0000000   0.0841249 SPIN=   0.00000
  Li   0.0000000   0.0000000  -0.4158751 SPIN=   0.00000
  Fe   0.0000000   0.5000000   0.2894597 SPIN=   4.00000
  Fe  -0.5000000   0.0000000  -0.2105403 SPIN=   4.00000
   O  -0.2501394  -0.5984565   0.1106594 SPIN=   0.00000
   O  -0.2953480  -0.1732979  -0.0394046 SPIN=   0.00000
   O   0.2501394   0.5984565   0.1106594 SPIN=   0.00000
   O   0.2953480   0.1732979  -0.0394046 SPIN=   0.00000
   O   0.5984565  -0.2501394  -0.3893406 SPIN=   0.00000
   O   0.1732979  -0.2953480  -0.5394046 SPIN=   0.00000
   O  -0.5984565   0.2501394  -0.3893406 SPIN=   0.00000
   O  -0.1732979   0.2953480  -0.5394046 SPIN=   0.00000
   S   0.5000000  -0.5000000   0.0262857 SPIN=   0.00000
   S   0.5000000   0.5000000  -0.4737143 SPIN=   0.00000
   F   0.0000000  -0.5000000  -0.2212994 SPIN=   0.00000
   F   0.5000000   0.0000000   0.2787006 SPIN=   0.00000
%ENDBLOCK POSITIONS_FRAC

# Note: total spin =   8.00

KPOINTS_MP_SPACING 0.07

%BLOCK SPECIES_POT
QC5
%ENDBLOCK SPECIES_POT

SNAP_TO_SYMMETRY
SYMMETRY_GENERATE

