#              Generated by Buildcell
#
# at 03:21:13 (GMT+1.0) 4th August 2020
# in /lustre/scratch/uccabz1/launch_tmp
# on node-c12m-015
# by uccabz1
#
# compiler GCC version 4.9.2
# options -cpp -iprefix /lustre/shared/ucl/apps/gcc/4.9.2/bin/../lib/gcc/x86_64-unknown-linux-gnu/4.9.2/ -mtune=corei7 -march=x86-64 -g -Og
#
# seed  1869518664   714039333  1383040451  -889200302  -761177086  1507760087  1487292301  1968662195  1852254728  1282032085  -141230140   628528801
#
#      Author: C. J. Pickard (cjp20@cam.ac.uk)
#                Space group: Iba2
#

%BLOCK LATTICE_ABC
      4.81810      6.25143      7.72428
    113.86990    108.17257     90.00000
%ENDBLOCK LATTICE_ABC

%BLOCK POSITIONS_FRAC
  Li  -0.1752398  -0.1752398  -0.3504796 SPIN=   0.00000
  Li   0.3247602   0.3247602  -0.3504796 SPIN=   0.00000
  Fe  -0.0418232   0.4581768  -0.0836464 SPIN=   4.00000
  Fe   0.4581768  -0.0418232  -0.0836464 SPIN=   4.00000
   O  -0.5267770   0.2994512   0.2434435 SPIN=   0.00000
   O  -0.0630918   0.4194916   0.5352598 SPIN=   0.00000
   O  -0.2297796  -0.0560078   0.2434435 SPIN=   0.00000
   O  -0.4016484   0.1157682   0.5352598 SPIN=   0.00000
   O  -0.0267770  -0.5560078   0.2434435 SPIN=   0.00000
   O   0.4369082  -0.3842318   0.5352598 SPIN=   0.00000
   O   0.2702204  -0.2005488   0.2434435 SPIN=   0.00000
   O   0.0983516  -0.0805084   0.5352598 SPIN=   0.00000
   S  -0.2918386   0.2081614   0.4163229 SPIN=   0.00000
   S   0.2081614  -0.2918386   0.4163229 SPIN=   0.00000
   F  -0.0046159  -0.0046159  -0.0092318 SPIN=   0.00000
   F   0.4953841   0.4953841  -0.0092318 SPIN=   0.00000
%ENDBLOCK POSITIONS_FRAC

# Note: total spin =   8.00

KPOINTS_MP_SPACING 0.07

%BLOCK SPECIES_POT
QC5
%ENDBLOCK SPECIES_POT

SNAP_TO_SYMMETRY
SYMMETRY_GENERATE

