#              Generated by Buildcell
#
# at 03:12:08 (GMT+1.0) 4th August 2020
# in /lustre/scratch/uccabz1/launch_tmp
# on node-c12d-030
# by uccabz1
#
# compiler GCC version 4.9.2
# options -cpp -iprefix /lustre/shared/ucl/apps/gcc/4.9.2/bin/../lib/gcc/x86_64-unknown-linux-gnu/4.9.2/ -mtune=corei7 -march=x86-64 -g -Og
#
# seed   642248030  1278078978  1791187001  -260502617  1741524459 -1043848025  1892560261  -788408562   -28044637  -586077264  1087537334  -189267158
#
#      Author: C. J. Pickard (cjp20@cam.ac.uk)
#                Space group: Cc
#

%BLOCK LATTICE_ABC
      4.54593      6.80300      7.15483
     84.49155     71.47719     72.41229
%ENDBLOCK LATTICE_ABC

%BLOCK POSITIONS_FRAC
  Li  -0.2590785  -0.0531080   0.3067428 SPIN=   0.00000
  Li  -0.4523357   0.4468920  -0.3067428 SPIN=   0.00000
  Fe   0.7252789  -0.2689243  -0.1088297 SPIN=   4.00000
  Fe   0.1164492   0.2310757   0.1088297 SPIN=   4.00000
   O  -0.0728756   0.1732842  -0.2942040 SPIN=   0.00000
   O   0.2259673  -0.1264216  -0.5173672 SPIN=   0.00000
   O   0.2349417  -0.1505839  -0.1717668 SPIN=   0.00000
   O   0.5265677   0.0668937  -0.4104738 SPIN=   0.00000
   S   0.2286503  -0.0092069  -0.3484530 SPIN=   0.00000
   O  -0.8670796   0.6732842   0.2942040 SPIN=   0.00000
   O  -0.7913999   0.3735784   0.5173672 SPIN=   0.00000
   O  -0.4368252   0.3494161   0.1717668 SPIN=   0.00000
   O  -0.3839061   0.5668937   0.4104738 SPIN=   0.00000
   S  -0.6198027   0.4907931   0.3484530 SPIN=   0.00000
   F   0.5099216  -0.0125355   0.0970964 SPIN=   0.00000
   F  -0.8929820   0.4874645  -0.0970964 SPIN=   0.00000
%ENDBLOCK POSITIONS_FRAC

# Note: total spin =   8.00

KPOINTS_MP_SPACING 0.07

%BLOCK SPECIES_POT
QC5
%ENDBLOCK SPECIES_POT

SNAP_TO_SYMMETRY
SYMMETRY_GENERATE

