#              Generated by Buildcell
#
# at 02:42:45 (GMT+1.0) 19th August 2020
# in /lustre/scratch/uccabz1/launch_tmp
# on node-c12p-014
# by uccabz1
#
# compiler GCC version 4.9.2
# options -cpp -iprefix /lustre/shared/ucl/apps/gcc/4.9.2/bin/../lib/gcc/x86_64-unknown-linux-gnu/4.9.2/ -mtune=corei7 -march=x86-64 -g -Og
#
# seed   800215821 -1494606180 -1453852221   556027251  -402988513  2043520755 -1375695711  -861240811  -176945706  -350230429  1950821842  -228248084
#
#      Author: C. J. Pickard (cjp20@cam.ac.uk)
#                Space group: P-1
#

%BLOCK LATTICE_ABC
      4.09475      6.62433      7.60058
     85.04975     89.55805     76.85574
%ENDBLOCK LATTICE_ABC

%BLOCK POSITIONS_FRAC
  Li  -0.1744609  -0.1825847   0.2607920 SPIN=   0.00000
  Li   0.1744609   0.1825847  -0.2607920 SPIN=   0.00000
  Fe  -0.3307507   0.2235911   0.0325739 SPIN=   4.00000
  Fe   0.3307507  -0.2235911  -0.0325739 SPIN=   4.00000
   O  -0.0724237   0.3457788   0.5163622 SPIN=   0.00000
   O   0.1330589   0.3755889   0.2102851 SPIN=   0.00000
   O   0.0634192   0.0352831   0.3468870 SPIN=   0.00000
   O   0.5185628   0.1877200   0.4502001 SPIN=   0.00000
   S   0.1606543   0.2360927   0.3809336 SPIN=   0.00000
   O   0.0724237  -0.3457788  -0.5163622 SPIN=   0.00000
   O  -0.1330589  -0.3755889  -0.2102851 SPIN=   0.00000
   O  -0.0634192  -0.0352831  -0.3468870 SPIN=   0.00000
   O  -0.5185628  -0.1877200  -0.4502001 SPIN=   0.00000
   S  -0.1606543  -0.2360927  -0.3809336 SPIN=   0.00000
   F  -0.4912279  -0.3428722   0.2198001 SPIN=   0.00000
   F   0.4912279   0.3428722  -0.2198001 SPIN=   0.00000
%ENDBLOCK POSITIONS_FRAC

# Note: total spin =   8.00

KPOINTS_MP_SPACING 0.07

%BLOCK SPECIES_POT
QC5
%ENDBLOCK SPECIES_POT

SNAP_TO_SYMMETRY
SYMMETRY_GENERATE

