#              Generated by Buildcell
#
# at 21:48:17 (GMT+1.0) 18th August 2020
# in /lustre/scratch/uccabz1/launch_tmp
# on node-c12e-036
# by uccabz1
#
# compiler GCC version 4.9.2
# options -cpp -iprefix /lustre/shared/ucl/apps/gcc/4.9.2/bin/../lib/gcc/x86_64-unknown-linux-gnu/4.9.2/ -mtune=corei7 -march=x86-64 -g -Og
#
# seed -1516071807  -959771518  1559030986  -295941658  1423318310 -1652933085   584339393 -1763450583 -1953919267  1966492581  1116601570 -1442757668
#
#      Author: C. J. Pickard (cjp20@cam.ac.uk)
#                Space group: Ccc2
#

%BLOCK LATTICE_ABC
      4.97722      4.97722      8.99383
     90.00000     90.00000    116.14786
%ENDBLOCK LATTICE_ABC

%BLOCK POSITIONS_FRAC
  Li   0.5000000   0.5000000  -0.0378662 SPIN=   0.00000
  Li   0.5000000   0.5000000   0.4621338 SPIN=   0.00000
  Fe   0.5000000   0.0000000  -0.2229049 SPIN=   4.00000
  Fe   0.0000000  -0.5000000   0.2770951 SPIN=   4.00000
   O   0.2492668  -0.2211547  -0.4396176 SPIN=   0.00000
   O   0.6952501  -0.2460826  -0.3318435 SPIN=   0.00000
   O  -0.2492668   0.2211547  -0.4396176 SPIN=   0.00000
   O  -0.6952501   0.2460826  -0.3318435 SPIN=   0.00000
   O   0.2211547  -0.2492668   0.0603824 SPIN=   0.00000
   O   0.2460826  -0.6952501   0.1681565 SPIN=   0.00000
   O  -0.2211547   0.2492668   0.0603824 SPIN=   0.00000
   O  -0.2460826   0.6952501   0.1681565 SPIN=   0.00000
   S  -0.0000000  -0.0000000   0.0510691 SPIN=   0.00000
   S   0.0000000   0.0000000  -0.4489309 SPIN=   0.00000
   F  -0.5000000   0.0000000   0.3011867 SPIN=   0.00000
   F   0.0000000   0.5000000  -0.1988133 SPIN=   0.00000
%ENDBLOCK POSITIONS_FRAC

# Note: total spin =   8.00

KPOINTS_MP_SPACING 0.07

%BLOCK SPECIES_POT
QC5
%ENDBLOCK SPECIES_POT

SNAP_TO_SYMMETRY
SYMMETRY_GENERATE

