#              Generated by Buildcell
#
# at 01:43:39 (GMT+1.0) 4th August 2020
# in /lustre/scratch/uccabz1/launch_tmp
# on node-c12c-022
# by uccabz1
#
# compiler GCC version 4.9.2
# options -cpp -iprefix /lustre/shared/ucl/apps/gcc/4.9.2/bin/../lib/gcc/x86_64-unknown-linux-gnu/4.9.2/ -mtune=corei7 -march=x86-64 -g -Og
#
# seed  1182389793   815781411 -2114001226 -2034373955 -1855905228  -376331365 -1903965876  -935186157 -1328194178 -2019605618  1978057029 -1904907244
#
#      Author: C. J. Pickard (cjp20@cam.ac.uk)
#                Space group: Pma2
#

%BLOCK LATTICE_ABC
      4.62518      6.48374      6.66922
     90.00000     90.00000     90.00000
%ENDBLOCK LATTICE_ABC

%BLOCK POSITIONS_FRAC
  Li   0.2633617   0.4676734   0.2500000 SPIN=   0.00000
  Li  -0.2633617   0.4676734  -0.2500000 SPIN=   0.00000
  Fe  -0.2366375  -0.2582935   0.2500000 SPIN=   4.00000
  Fe   0.2366375  -0.2582935  -0.2500000 SPIN=   4.00000
   O   0.2866149   0.0910294  -0.0779286 SPIN=   0.00000
   O   0.2865383   0.4727339  -0.0778274 SPIN=   0.00000
   O  -0.2866149   0.0910294   0.0779286 SPIN=   0.00000
   O  -0.2865383   0.4727339   0.0778274 SPIN=   0.00000
   O  -0.2866149   0.0910294   0.4220714 SPIN=   0.00000
   O  -0.2865383   0.4727339   0.4221726 SPIN=   0.00000
   O   0.2866149   0.0910294  -0.4220714 SPIN=   0.00000
   O   0.2865383   0.4727339  -0.4221726 SPIN=   0.00000
   S   0.2366394   0.2403990  -0.2500000 SPIN=   0.00000
   S  -0.2366394   0.2403990   0.2500000 SPIN=   0.00000
   F   0.2500024  -0.2202706   0.2500000 SPIN=   0.00000
   F  -0.2500024  -0.2202706  -0.2500000 SPIN=   0.00000
%ENDBLOCK POSITIONS_FRAC

# Note: total spin =   8.00

KPOINTS_MP_SPACING 0.07

%BLOCK SPECIES_POT
QC5
%ENDBLOCK SPECIES_POT

SNAP_TO_SYMMETRY
SYMMETRY_GENERATE

