#              Generated by Buildcell
#
# at 04:28:42 (GMT+1.0) 4th August 2020
# in /lustre/scratch/uccabz1/launch_tmp
# on node-c12e-014
# by uccabz1
#
# compiler GCC version 4.9.2
# options -cpp -iprefix /lustre/shared/ucl/apps/gcc/4.9.2/bin/../lib/gcc/x86_64-unknown-linux-gnu/4.9.2/ -mtune=corei7 -march=x86-64 -g -Og
#
# seed  1840941793  1319243951 -1918564038 -1117336719 -2074808227   409705276  1986966758 -1403646819 -1385117055   631484444    71549822 -1427696552
#
#      Author: C. J. Pickard (cjp20@cam.ac.uk)
#                Space group: Aea2
#

%BLOCK LATTICE_ABC
      5.15180      5.96440      7.15951
    114.61617     90.00000     90.00000
%ENDBLOCK LATTICE_ABC

%BLOCK POSITIONS_FRAC
  Li  -0.5000000   0.1912692   0.3825384 SPIN=   0.00000
  Li   0.0000000  -0.3087308  -0.6174616 SPIN=   0.00000
  Fe  -0.5000000  -0.1023662  -0.2047323 SPIN=   4.00000
  Fe  -0.0000000   0.3976338   0.7952677 SPIN=   4.00000
   O   0.3076527  -0.1328812   0.3535848 SPIN=   0.00000
   O   0.0127971  -0.2678921   0.0537127 SPIN=   0.00000
   O  -0.3076527   0.4864660   0.3535848 SPIN=   0.00000
   O  -0.0127971   0.3216048   0.0537127 SPIN=   0.00000
   O  -0.1923473  -0.0135340   0.3535848 SPIN=   0.00000
   O  -0.4872029  -0.1783952   0.0537127 SPIN=   0.00000
   O   0.1923473   0.3671188   0.3535848 SPIN=   0.00000
   O   0.4872029   0.2321079   0.0537127 SPIN=   0.00000
   S   0.5000000  -0.3677022  -0.7354044 SPIN=   0.00000
   S  -0.0000000   0.1322978   0.2645956 SPIN=   0.00000
   F   0.0000000  -0.1478203  -0.2956407 SPIN=   0.00000
   F  -0.5000000   0.3521797   0.7043593 SPIN=   0.00000
%ENDBLOCK POSITIONS_FRAC

# Note: total spin =   8.00

KPOINTS_MP_SPACING 0.07

%BLOCK SPECIES_POT
QC5
%ENDBLOCK SPECIES_POT

SNAP_TO_SYMMETRY
SYMMETRY_GENERATE

