#              Generated by Buildcell
#
# at 23:32:36 (GMT+1.0) 18th August 2020
# in /scratch/scratch/uccabz1/launch_tmp
# on node-k10b-026
# by uccabz1
#
# compiler GCC version 4.9.2
# options -cpp -iprefix /scratch/UCL/applications/gcc/4.9.2/bin/../lib/gcc/x86_64-unknown-linux-gnu/4.9.2/ -mtune=corei7 -march=x86-64 -g -O2
#
# seed -1671010936    62290162  1839535520 -1873946073 -1265037138  -596958105   875175683  1507268218  -256575760  1936768907   546505081 -1068617609
#
#      Author: C. J. Pickard (cjp20@cam.ac.uk)
#                Space group: C2/m
#

%BLOCK LATTICE_ABC
      5.25191      6.42673      6.42673
    105.06091    100.41815    100.41815
%ENDBLOCK LATTICE_ABC

%BLOCK POSITIONS_FRAC
  Li  -0.0000000  -1.0000000  -0.5000000 SPIN=   0.00000
  Li   0.0000000   0.5000000  -0.0000000 SPIN=   0.00000
  Fe  -0.4010844   0.2424143   0.2424143 SPIN=   4.00000
  Fe   0.4010844  -0.2424143  -0.2424143 SPIN=   4.00000
   O   0.3234105   0.3638447   0.0086908 SPIN=   0.00000
   O   0.2696787   0.6319382   0.3425252 SPIN=   0.00000
   O  -0.3234105  -0.0086908  -0.3638447 SPIN=   0.00000
   O  -0.2696787  -0.3425252  -0.6319382 SPIN=   0.00000
   O  -0.3234105  -0.3638447  -0.0086908 SPIN=   0.00000
   O  -0.2696787  -0.6319382  -0.3425252 SPIN=   0.00000
   O   0.3234105   0.0086908   0.3638447 SPIN=   0.00000
   O   0.2696787   0.3425252   0.6319382 SPIN=   0.00000
   S   0.5000000  -0.7367685  -0.2632315 SPIN=   0.00000
   S  -0.5000000   0.7367685   0.2632315 SPIN=   0.00000
   F   0.0096343  -0.2378480  -0.2378480 SPIN=   0.00000
   F  -0.0096343   0.2378480   0.2378480 SPIN=   0.00000
%ENDBLOCK POSITIONS_FRAC

# Note: total spin =   8.00

KPOINTS_MP_SPACING 0.07

%BLOCK SPECIES_POT
QC5
%ENDBLOCK SPECIES_POT

SNAP_TO_SYMMETRY
SYMMETRY_GENERATE

