#              Generated by Buildcell
#
# at 05:47:55 (GMT+1.0) 4th August 2020
# in /lustre/scratch/uccabz1/launch_tmp
# on node-c12d-028
# by uccabz1
#
# compiler GCC version 4.9.2
# options -cpp -iprefix /lustre/shared/ucl/apps/gcc/4.9.2/bin/../lib/gcc/x86_64-unknown-linux-gnu/4.9.2/ -mtune=corei7 -march=x86-64 -g -Og
#
# seed   -38508722  -536621629 -2122990104 -1208406500  -247598548  -221613085  1761826584   563701594   655881251  1903432812  1949488712   550045619
#
#      Author: C. J. Pickard (cjp20@cam.ac.uk)
#                Space group: Pc
#

%BLOCK LATTICE_ABC
      4.76551      6.18078      7.13790
     90.00000    107.95895     90.00000
%ENDBLOCK LATTICE_ABC

%BLOCK POSITIONS_FRAC
  Li   0.1403907   0.3136082   0.0828893 SPIN=   0.00000
  Li  -0.3596093  -0.3136082  -0.4171107 SPIN=   0.00000
  Fe  -0.4909138   0.2877032  -0.2014009 SPIN=   4.00000
  Fe   0.0090862  -0.2877032   0.2985991 SPIN=   4.00000
   O  -0.1222195   0.1463591   0.5960149 SPIN=   0.00000
   O  -0.5296316   0.3283023   0.3434918 SPIN=   0.00000
   O  -0.5686344  -0.0602188   0.4155991 SPIN=   0.00000
   O  -0.2179525   0.0599138   0.2432657 SPIN=   0.00000
   S  -0.3596095   0.1185891   0.3995929 SPIN=   0.00000
   O   0.3777805  -0.1463591   0.0960149 SPIN=   0.00000
   O  -0.0296316  -0.3283023  -0.1565082 SPIN=   0.00000
   O  -0.0686344   0.0602188  -0.0844009 SPIN=   0.00000
   O   0.2820475  -0.0599138  -0.2567343 SPIN=   0.00000
   S   0.1403905  -0.1185891  -0.1004071 SPIN=   0.00000
   F  -0.2749360  -0.4762274   0.0828040 SPIN=   0.00000
   F   0.2250640   0.4762274  -0.4171960 SPIN=   0.00000
%ENDBLOCK POSITIONS_FRAC

# Note: total spin =   8.00

KPOINTS_MP_SPACING 0.07

%BLOCK SPECIES_POT
QC5
%ENDBLOCK SPECIES_POT

SNAP_TO_SYMMETRY
SYMMETRY_GENERATE

