#              Generated by Buildcell
#
# at 01:15:49 (GMT+1.0) 19th August 2020
# in /lustre/scratch/uccabz1/launch_tmp
# on node-c12j-022
# by uccabz1
#
# compiler GCC version 4.9.2
# options -cpp -iprefix /lustre/shared/ucl/apps/gcc/4.9.2/bin/../lib/gcc/x86_64-unknown-linux-gnu/4.9.2/ -mtune=corei7 -march=x86-64 -g -Og
#
# seed -1824858242   732966589  -664546516  1615828505   326746174  -547544469 -1897578923 -1214822350    64714032  1769836497 -1226572888   136162458
#
#      Author: C. J. Pickard (cjp20@cam.ac.uk)
#                Space group: C2
#

%BLOCK LATTICE_ABC
      4.06683      5.48742      9.64978
     90.70185     90.00000    111.75013
%ENDBLOCK LATTICE_ABC

%BLOCK POSITIONS_FRAC
  Li  -0.0122813   0.3861446  -0.1567584 SPIN=   0.00000
  Li  -0.3984259  -0.3861446   0.1567584 SPIN=   0.00000
  Fe   0.2202490  -0.1438358   0.3234002 SPIN=   4.00000
  Fe   0.3640849   0.1438358  -0.3234002 SPIN=   4.00000
   O   0.2063895   0.1561672   0.1299275 SPIN=   0.00000
   O  -0.2859772   0.2242883   0.0068672 SPIN=   0.00000
   O   0.0997090   0.5679305   0.1664718 SPIN=   0.00000
   O  -0.3208270   0.1508539   0.2598747 SPIN=   0.00000
   S  -0.0751764   0.2748100   0.1407853 SPIN=   0.00000
   O   0.0502223  -0.1561672  -0.1299275 SPIN=   0.00000
   O  -0.5102655  -0.2242883  -0.0068672 SPIN=   0.00000
   O  -0.4682215  -0.5679305  -0.1664718 SPIN=   0.00000
   O  -0.4716808  -0.1508539  -0.2598747 SPIN=   0.00000
   S  -0.3499864  -0.2748100  -0.1407853 SPIN=   0.00000
   F  -0.0609595   0.2947395  -0.3707862 SPIN=   0.00000
   F  -0.3556989  -0.2947395   0.3707862 SPIN=   0.00000
%ENDBLOCK POSITIONS_FRAC

# Note: total spin =   8.00

KPOINTS_MP_SPACING 0.07

%BLOCK SPECIES_POT
QC5
%ENDBLOCK SPECIES_POT

SNAP_TO_SYMMETRY
SYMMETRY_GENERATE

