#              Generated by Buildcell
#
# at 18:03:21 (GMT+1.0) 18th August 2020
# in /lustre/scratch/uccabz1/launch_tmp
# on node-c12k-010
# by uccabz1
#
# compiler GCC version 4.9.2
# options -cpp -iprefix /lustre/shared/ucl/apps/gcc/4.9.2/bin/../lib/gcc/x86_64-unknown-linux-gnu/4.9.2/ -mtune=corei7 -march=x86-64 -g -Og
#
# seed  1721059705 -2063547756  1813175622 -2040651564   763239809  -925985567 -1079238927   -18439106  -366195003  -338145042  1113951734  -581406947
#
#      Author: C. J. Pickard (cjp20@cam.ac.uk)
#                Space group: Pmc21
#

%BLOCK LATTICE_ABC
      4.17374      5.39365      8.88427
     90.00000     90.00000     90.00000
%ENDBLOCK LATTICE_ABC

%BLOCK POSITIONS_FRAC
  Li   0.4753552  -0.0000000  -0.0322344 SPIN=   0.00000
  Li  -0.4753552   0.0000000   0.4677656 SPIN=   0.00000
  Fe  -0.0259567   0.0000000   0.2069993 SPIN=   4.00000
  Fe   0.0259567  -0.0000000  -0.2930007 SPIN=   4.00000
   O   0.1937464  -0.2862258  -0.4194382 SPIN=   0.00000
   O   0.0776401  -0.2863135  -0.1462625 SPIN=   0.00000
   O  -0.1937464   0.2862258   0.0805618 SPIN=   0.00000
   O  -0.0776401   0.2863135   0.3537375 SPIN=   0.00000
   O  -0.1937464  -0.2862258   0.0805618 SPIN=   0.00000
   O  -0.0776401  -0.2863135   0.3537375 SPIN=   0.00000
   O   0.1937464   0.2862258  -0.4194382 SPIN=   0.00000
   O   0.0776401   0.2863135  -0.1462625 SPIN=   0.00000
   S  -0.0769747   0.5000000  -0.0294403 SPIN=   0.00000
   S   0.0769747  -0.5000000   0.4705597 SPIN=   0.00000
   F  -0.4233931   0.0000000  -0.2415831 SPIN=   0.00000
   F   0.4233931  -0.0000000   0.2584169 SPIN=   0.00000
%ENDBLOCK POSITIONS_FRAC

# Note: total spin =   8.00

KPOINTS_MP_SPACING 0.07

%BLOCK SPECIES_POT
QC5
%ENDBLOCK SPECIES_POT

SNAP_TO_SYMMETRY
SYMMETRY_GENERATE

