#              Generated by Buildcell
#
# at 02:38:32 (GMT+1.0) 4th August 2020
# in /lustre/scratch/uccabz1/launch_tmp
# on node-c12p-012
# by uccabz1
#
# compiler GCC version 4.9.2
# options -cpp -iprefix /lustre/shared/ucl/apps/gcc/4.9.2/bin/../lib/gcc/x86_64-unknown-linux-gnu/4.9.2/ -mtune=corei7 -march=x86-64 -g -Og
#
# seed  -881184950 -1215352585   -39259406 -1017367504   409577683  -356338251 -1571214309  -894552013  -709797295   139488972  -711011673  -136087237
#
#      Author: C. J. Pickard (cjp20@cam.ac.uk)
#                Space group: P21/m
#

%BLOCK LATTICE_ABC
      3.90369      4.88490     10.51394
     90.00000     94.01325     90.00000
%ENDBLOCK LATTICE_ABC

%BLOCK POSITIONS_FRAC
  Li   0.1996578   0.2500000   0.4005541 SPIN=   0.00000
  Li  -0.1996578  -0.2500000  -0.4005541 SPIN=   0.00000
  Fe  -0.4160222  -0.2500000   0.3097731 SPIN=   4.00000
  Fe   0.4160222   0.2500000  -0.3097731 SPIN=   4.00000
   O   0.0852711  -0.4771555   0.2295407 SPIN=   0.00000
   O  -0.4774674  -0.4868221   0.1056147 SPIN=   0.00000
   O  -0.0852711   0.0228445  -0.2295407 SPIN=   0.00000
   O   0.4774674   0.0131779  -0.1056147 SPIN=   0.00000
   O  -0.0852711   0.4771555  -0.2295407 SPIN=   0.00000
   O   0.4774674   0.4868221  -0.1056147 SPIN=   0.00000
   O   0.0852711  -0.0228445   0.2295407 SPIN=   0.00000
   O  -0.4774674  -0.0131779   0.1056147 SPIN=   0.00000
   S  -0.2707521  -0.2500000  -0.1114123 SPIN=   0.00000
   S   0.2707521   0.2500000   0.1114123 SPIN=   0.00000
   F  -0.2683398   0.2500000   0.4019878 SPIN=   0.00000
   F   0.2683398  -0.2500000  -0.4019878 SPIN=   0.00000
%ENDBLOCK POSITIONS_FRAC

# Note: total spin =   8.00

KPOINTS_MP_SPACING 0.07

%BLOCK SPECIES_POT
QC5
%ENDBLOCK SPECIES_POT

SNAP_TO_SYMMETRY
SYMMETRY_GENERATE

