#              Generated by Buildcell
#
# at 22:56:38 (GMT+1.0) 18th August 2020
# in /lustre/scratch/uccabz1/launch_tmp
# on node-c12f-017
# by uccabz1
#
# compiler GCC version 4.9.2
# options -cpp -iprefix /lustre/shared/ucl/apps/gcc/4.9.2/bin/../lib/gcc/x86_64-unknown-linux-gnu/4.9.2/ -mtune=corei7 -march=x86-64 -g -Og
#
# seed  1438683811 -1418982139  -668811852  -123175635   623012503 -1015924115   618564209  -151945950  -262649209 -1918235147   863047661 -2025709282
#
#      Author: C. J. Pickard (cjp20@cam.ac.uk)
#                Space group: Cm
#

%BLOCK LATTICE_ABC
      5.38273      5.90441      7.18980
     65.75683     83.39067     73.72118
%ENDBLOCK LATTICE_ABC

%BLOCK POSITIONS_FRAC
  Li  -0.4809561  -0.3738314   0.3043750 SPIN=   0.00000
  Li  -0.4809561  -0.0694564  -0.3043750 SPIN=   0.00000
  Fe   0.2977429   0.4333373  -0.2750853 SPIN=   4.00000
  Fe   0.2977429   0.1582520   0.2750853 SPIN=   4.00000
   O  -0.0201864   0.1484112  -0.5219923 SPIN=   0.00000
   O   0.0235700  -0.2606630  -0.2183232 SPIN=   0.00000
   O  -0.2914596   0.1350461  -0.2172551 SPIN=   0.00000
   O   0.1783553   0.0901943  -0.2062635 SPIN=   0.00000
   S  -0.0274302   0.0282471  -0.2909586 SPIN=   0.00000
   O  -0.0201864  -0.3735812   0.5219923 SPIN=   0.00000
   O   0.0235700  -0.4789862   0.2183232 SPIN=   0.00000
   O  -0.2914596  -0.0822091   0.2172551 SPIN=   0.00000
   O   0.1783553  -0.1160692   0.2062635 SPIN=   0.00000
   S  -0.0274302  -0.2627114   0.2909586 SPIN=   0.00000
   F  -0.4182440   0.3335868  -0.7339311 SPIN=   0.00000
   F  -0.4182440  -0.4003443   0.7339311 SPIN=   0.00000
%ENDBLOCK POSITIONS_FRAC

# Note: total spin =   8.00

KPOINTS_MP_SPACING 0.07

%BLOCK SPECIES_POT
QC5
%ENDBLOCK SPECIES_POT

SNAP_TO_SYMMETRY
SYMMETRY_GENERATE

