#              Generated by Buildcell
#
# at 04:13:04 (GMT+1.0) 4th August 2020
# in /lustre/scratch/uccabz1/launch_tmp
# on node-c12f-035
# by uccabz1
#
# compiler GCC version 4.9.2
# options -cpp -iprefix /lustre/shared/ucl/apps/gcc/4.9.2/bin/../lib/gcc/x86_64-unknown-linux-gnu/4.9.2/ -mtune=corei7 -march=x86-64 -g -Og
#
# seed  1685103906  1104024798  1182027454 -1968006088  -762528263  1416163309  1511111382 -1500408594   791711747  -427293649  1079535477  1873880490
#
#      Author: C. J. Pickard (cjp20@cam.ac.uk)
#                Space group: Pmn21
#

%BLOCK LATTICE_ABC
      4.05281      6.49691      7.59568
     90.00000     90.00000     90.00000
%ENDBLOCK LATTICE_ABC

%BLOCK POSITIONS_FRAC
  Li  -0.3077688   0.0000000  -0.0436336 SPIN=   0.00000
  Li   0.3077688   0.5000000   0.4563664 SPIN=   0.00000
  Fe   0.1934899   0.0000000   0.2531782 SPIN=   4.00000
  Fe  -0.1934899   0.5000000  -0.2468218 SPIN=   4.00000
   O  -0.0895874   0.1769438  -0.2899148 SPIN=   0.00000
   O  -0.3242849   0.3195348  -0.0149496 SPIN=   0.00000
   O   0.0895874   0.3230562   0.2100852 SPIN=   0.00000
   O   0.3242849   0.1804652   0.4850504 SPIN=   0.00000
   O   0.0895874  -0.3230562   0.2100852 SPIN=   0.00000
   O   0.3242849  -0.1804652   0.4850504 SPIN=   0.00000
   O  -0.0895874  -0.1769438  -0.2899148 SPIN=   0.00000
   O  -0.3242849  -0.3195348  -0.0149496 SPIN=   0.00000
   S  -0.3090409  -0.0000000  -0.3962360 SPIN=   0.00000
   S   0.3090409   0.5000000   0.1037640 SPIN=   0.00000
   F   0.1919373   0.0000000  -0.0082647 SPIN=   0.00000
   F  -0.1919373   0.5000000   0.4917353 SPIN=   0.00000
%ENDBLOCK POSITIONS_FRAC

# Note: total spin =   8.00

KPOINTS_MP_SPACING 0.07

%BLOCK SPECIES_POT
QC5
%ENDBLOCK SPECIES_POT

SNAP_TO_SYMMETRY
SYMMETRY_GENERATE

