#              Generated by Buildcell
#
# at 02:38:33 (GMT+1.0) 19th August 2020
# in /scratch/scratch/uccabz1/launch_tmp
# on node-k10e-014
# by uccabz1
#
# compiler GCC version 4.9.2
# options -cpp -iprefix /scratch/UCL/applications/gcc/4.9.2/bin/../lib/gcc/x86_64-unknown-linux-gnu/4.9.2/ -mtune=corei7 -march=x86-64 -g -O2
#
# seed  1890118100  -807985393 -1620619317  1014776935  1996710677  -691150270   810841869  1607143250 -1528555534  1914113216   470440532   177433325
#
#      Author: C. J. Pickard (cjp20@cam.ac.uk)
#                Space group: Pcc2
#

%BLOCK LATTICE_ABC
      4.08214      5.69724      8.59957
     90.00000     90.00000     90.00000
%ENDBLOCK LATTICE_ABC

%BLOCK POSITIONS_FRAC
  Li  -0.5000000  -0.5000000   0.0871703 SPIN=   0.00000
  Li   0.5000000  -0.5000000  -0.4128297 SPIN=   0.00000
  Fe  -0.0000000   0.5000000  -0.1629649 SPIN=   4.00000
  Fe   0.0000000  -0.5000000   0.3370351 SPIN=   4.00000
   O   0.3000809   0.1375572   0.5258892 SPIN=   0.00000
   O   0.2416023   0.1045986   0.2402742 SPIN=   0.00000
   O  -0.3000809  -0.1375572   0.5258892 SPIN=   0.00000
   O  -0.2416023  -0.1045986   0.2402742 SPIN=   0.00000
   O   0.3000809  -0.1375572   0.0258892 SPIN=   0.00000
   O   0.2416023  -0.1045986  -0.2597258 SPIN=   0.00000
   O  -0.3000809   0.1375572   0.0258892 SPIN=   0.00000
   O  -0.2416023   0.1045986  -0.2597258 SPIN=   0.00000
   S   0.0000000   0.0000000   0.0676631 SPIN=   0.00000
   S   0.0000000   0.0000000  -0.4323369 SPIN=   0.00000
   F  -0.5000000  -0.5000000   0.3560763 SPIN=   0.00000
   F  -0.5000000   0.5000000  -0.1439237 SPIN=   0.00000
%ENDBLOCK POSITIONS_FRAC

# Note: total spin =   8.00

KPOINTS_MP_SPACING 0.07

%BLOCK SPECIES_POT
QC5
%ENDBLOCK SPECIES_POT

SNAP_TO_SYMMETRY
SYMMETRY_GENERATE

