#              Generated by Buildcell
#
# at 04:10:15 (GMT+1.0) 4th August 2020
# in /lustre/scratch/uccabz1/launch_tmp
# on node-c12d-011
# by uccabz1
#
# compiler GCC version 4.9.2
# options -cpp -iprefix /lustre/shared/ucl/apps/gcc/4.9.2/bin/../lib/gcc/x86_64-unknown-linux-gnu/4.9.2/ -mtune=corei7 -march=x86-64 -g -Og
#
# seed -1193435363  -942561993  -309964694 -1384700396  1147134389 -1477860650   725067637  -745357733   991065506  1592987198  2030067781    -9843361
#
#      Author: C. J. Pickard (cjp20@cam.ac.uk)
#                Space group: P-1
#

%BLOCK LATTICE_ABC
      4.71560      6.05228      7.41684
     96.42653    106.61565     94.95615
%ENDBLOCK LATTICE_ABC

%BLOCK POSITIONS_FRAC
  Li  -0.2921841   0.2266434   0.3913705 SPIN=   0.00000
  Li   0.2921841  -0.2266434  -0.3913705 SPIN=   0.00000
  Fe  -0.2257035  -0.2729873  -0.0568148 SPIN=   4.00000
  Fe   0.2257035   0.2729873   0.0568148 SPIN=   4.00000
   O  -0.4786848  -0.4198978   0.1783215 SPIN=   0.00000
   O  -0.5680595  -0.0533236   0.3220289 SPIN=   0.00000
   O  -0.0521394  -0.1331432   0.3511209 SPIN=   0.00000
   O  -0.3460738  -0.3268673   0.5281687 SPIN=   0.00000
   S  -0.3612394  -0.2333080   0.3449100 SPIN=   0.00000
   O   0.4786848   0.4198978  -0.1783215 SPIN=   0.00000
   O   0.5680595   0.0533236  -0.3220289 SPIN=   0.00000
   O   0.0521394   0.1331432  -0.3511209 SPIN=   0.00000
   O   0.3460738   0.3268673  -0.5281687 SPIN=   0.00000
   S   0.3612394   0.2333080  -0.3449100 SPIN=   0.00000
   F   0.1257784  -0.2564063  -0.1542763 SPIN=   0.00000
   F  -0.1257784   0.2564063   0.1542763 SPIN=   0.00000
%ENDBLOCK POSITIONS_FRAC

# Note: total spin =   8.00

KPOINTS_MP_SPACING 0.07

%BLOCK SPECIES_POT
QC5
%ENDBLOCK SPECIES_POT

SNAP_TO_SYMMETRY
SYMMETRY_GENERATE

