#              Generated by Buildcell
#
# at 02:22:01 (GMT+1.0) 4th August 2020
# in /lustre/scratch/uccabz1/launch_tmp
# on node-c12f-013
# by uccabz1
#
# compiler GCC version 4.9.2
# options -cpp -iprefix /lustre/shared/ucl/apps/gcc/4.9.2/bin/../lib/gcc/x86_64-unknown-linux-gnu/4.9.2/ -mtune=corei7 -march=x86-64 -g -Og
#
# seed  1869020881  -476930446   647992784  -395033131   761291350  -433677581 -2100980159  1094115845  1789867881  1573888389  -905282730 -1011702589
#
#      Author: C. J. Pickard (cjp20@cam.ac.uk)
#                Space group: P-1
#

%BLOCK LATTICE_ABC
      5.23969      5.52969      7.14869
     88.09483     76.14743     84.02236
%ENDBLOCK LATTICE_ABC

%BLOCK POSITIONS_FRAC
  Li  -0.7698560   0.6773392   0.2853805 SPIN=   0.00000
  Li   0.7698560  -0.6773392  -0.2853805 SPIN=   0.00000
  Fe   0.0000000   0.0000000   0.0000000 SPIN=   4.14694
  Fe   0.5000000   0.0000000  -0.5000000 SPIN=   3.85306
   O   0.0141956  -0.6094645   0.1475262 SPIN=   0.00000
   O  -0.2696396  -0.2524817   0.3062196 SPIN=   0.00000
   O  -0.3735626  -0.6682165   0.4149764 SPIN=   0.00000
   S  -0.2666289  -0.5113359   0.2417938 SPIN=   0.00000
   O  -0.0141956   0.6094645  -0.1475262 SPIN=   0.00000
   O   0.2696396   0.2524817  -0.3062196 SPIN=   0.00000
   O   0.3735626   0.6682165  -0.4149764 SPIN=   0.00000
   S   0.2666289   0.5113359  -0.2417938 SPIN=   0.00000
   O   0.5000000  -0.5000000   0.0000000 SPIN=   0.00000
   O  -1.0000000   0.5000000   0.5000000 SPIN=   0.00000
   F   1.0000000  -0.0000000  -0.5000000 SPIN=   0.00000
   F   0.5000000  -0.0000000  -0.0000000 SPIN=   0.00000
%ENDBLOCK POSITIONS_FRAC

# Note: total spin =   8.00

KPOINTS_MP_SPACING 0.07

%BLOCK SPECIES_POT
QC5
%ENDBLOCK SPECIES_POT

SNAP_TO_SYMMETRY
SYMMETRY_GENERATE

