#              Generated by Buildcell
#
# at 02:59:30 (GMT+1.0) 4th August 2020
# in /lustre/scratch/uccabz1/launch_tmp
# on node-c12c-027
# by uccabz1
#
# compiler GCC version 4.9.2
# options -cpp -iprefix /lustre/shared/ucl/apps/gcc/4.9.2/bin/../lib/gcc/x86_64-unknown-linux-gnu/4.9.2/ -mtune=corei7 -march=x86-64 -g -Og
#
# seed  1973086492 -2126203955    28455258  -633708233 -1691155513  1066992113   260065096   256288786  -557658739 -2102815585   355822082  1624060298
#
#      Author: C. J. Pickard (cjp20@cam.ac.uk)
#                Space group: P2
#

%BLOCK LATTICE_ABC
      3.91428      4.72623     10.86716
     95.83015     90.00000     90.00000
%ENDBLOCK LATTICE_ABC

%BLOCK POSITIONS_FRAC
  Li  -0.1745592   0.5000000  -0.5000000 SPIN=   0.00000
  Li   0.1641126  -0.0000000   0.0000000 SPIN=   0.00000
  Fe   0.3245240  -0.0000000  -0.5000000 SPIN=   2.08558
  Fe  -0.3358919  -0.5000000   0.0000000 SPIN=   5.91442
   O  -0.2289382   0.0807115   0.3650216 SPIN=   0.00000
   O  -0.2237399   0.5824552   0.3183694 SPIN=   0.00000
   O  -0.7173793   0.2738427   0.2555276 SPIN=   0.00000
   S  -0.3329220   0.2828456   0.2719803 SPIN=   0.00000
   O  -0.2289382  -0.0807115  -0.3650216 SPIN=   0.00000
   O  -0.2237399  -0.5824552  -0.3183694 SPIN=   0.00000
   O  -0.7173793  -0.2738427  -0.2555276 SPIN=   0.00000
   S  -0.3329220  -0.2828456  -0.2719803 SPIN=   0.00000
   O  -0.3357494   0.0000000  -0.0000000 SPIN=   0.00000
   O   0.3229547  -0.5000000  -0.5000000 SPIN=   0.00000
   F   0.1650955   0.2483787  -0.1299010 SPIN=   0.00000
   F   0.1650955  -0.2483787   0.1299010 SPIN=   0.00000
%ENDBLOCK POSITIONS_FRAC

# Note: total spin =   8.00

KPOINTS_MP_SPACING 0.07

%BLOCK SPECIES_POT
QC5
%ENDBLOCK SPECIES_POT

SNAP_TO_SYMMETRY
SYMMETRY_GENERATE

