#              Generated by Buildcell
#
# at 02:05:26 (GMT+1.0) 4th August 2020
# in /lustre/scratch/uccabz1/launch_tmp
# on node-c12f-014
# by uccabz1
#
# compiler GCC version 4.9.2
# options -cpp -iprefix /lustre/shared/ucl/apps/gcc/4.9.2/bin/../lib/gcc/x86_64-unknown-linux-gnu/4.9.2/ -mtune=corei7 -march=x86-64 -g -Og
#
# seed -2015220944   707941497   726589480  1834323229  -884212576  -100189914  -248512779 -1415539038 -1701772187   265162356  1422162145  -730630964
#
#      Author: C. J. Pickard (cjp20@cam.ac.uk)
#                Space group: Pcc2
#

%BLOCK LATTICE_ABC
      4.05572      6.13804      8.03399
     90.00000     90.00000     90.00000
%ENDBLOCK LATTICE_ABC

%BLOCK POSITIONS_FRAC
  Li   0.0000000   0.0000000   0.2621693 SPIN=   0.00000
  Li   0.0000000   0.0000000  -0.2378307 SPIN=   0.00000
  Fe   0.0000000  -0.5000000  -0.1090027 SPIN=   4.00000
  Fe   0.0000000  -0.5000000   0.3909973 SPIN=   4.00000
   O   0.1677405   0.1413960   0.0655622 SPIN=   0.00000
   O   0.3322601  -0.2312552  -0.0177326 SPIN=   0.00000
   O  -0.1677405  -0.1413960   0.0655622 SPIN=   0.00000
   O  -0.3322601   0.2312552  -0.0177326 SPIN=   0.00000
   O   0.1677405  -0.1413960  -0.4344378 SPIN=   0.00000
   O   0.3322601   0.2312552  -0.5177326 SPIN=   0.00000
   O  -0.1677405   0.1413960  -0.4344378 SPIN=   0.00000
   O  -0.3322601  -0.2312552  -0.5177326 SPIN=   0.00000
   S   0.5000000   0.0000000  -0.0160870 SPIN=   0.00000
   S   0.5000000   0.0000000   0.4839130 SPIN=   0.00000
   F  -0.5000000   0.5000000   0.2339130 SPIN=   0.00000
   F   0.5000000  -0.5000000  -0.2660870 SPIN=   0.00000
%ENDBLOCK POSITIONS_FRAC

# Note: total spin =   8.00

KPOINTS_MP_SPACING 0.07

%BLOCK SPECIES_POT
QC5
%ENDBLOCK SPECIES_POT

SNAP_TO_SYMMETRY
SYMMETRY_GENERATE

