#              Generated by Buildcell
#
# at 18:37:38 (GMT+1.0) 18th August 2020
# in /scratch/scratch/uccabz1/launch_tmp
# on node-k10i-025
# by uccabz1
#
# compiler GCC version 4.9.2
# options -cpp -iprefix /scratch/UCL/applications/gcc/4.9.2/bin/../lib/gcc/x86_64-unknown-linux-gnu/4.9.2/ -mtune=corei7 -march=x86-64 -g -O2
#
# seed  1763104774 -1704459126   -11445618  1223504059 -1573623369 -1905389358  -838683656  1724934895 -1849426483  1306339645 -1797959260   -37206464
#
#      Author: C. J. Pickard (cjp20@cam.ac.uk)
#                Space group: Pmc21
#

%BLOCK LATTICE_ABC
      5.04770      6.17834      6.41304
     90.00000     90.00000     90.00000
%ENDBLOCK LATTICE_ABC

%BLOCK POSITIONS_FRAC
  Li  -0.5000000   0.1864878   0.2496010 SPIN=   0.00000
  Li  -0.5000000  -0.3135122  -0.2496010 SPIN=   0.00000
  Fe   0.0000000  -0.0146956  -0.1829731 SPIN=   4.00000
  Fe   0.0000000   0.4853044   0.1829731 SPIN=   4.00000
   O   0.2444159  -0.1421328   0.3510772 SPIN=   0.00000
   O   0.2265146  -0.2501061  -0.0202845 SPIN=   0.00000
   O  -0.2444159   0.3578672  -0.3510772 SPIN=   0.00000
   O  -0.2265146   0.2498939   0.0202845 SPIN=   0.00000
   O   0.2444159   0.3578672  -0.3510772 SPIN=   0.00000
   O   0.2265146   0.2498939   0.0202845 SPIN=   0.00000
   O  -0.2444159  -0.1421328   0.3510772 SPIN=   0.00000
   O  -0.2265146  -0.2501061  -0.0202845 SPIN=   0.00000
   S   0.0000000  -0.0146448   0.3170124 SPIN=   0.00000
   S  -0.0000000   0.4853552  -0.3170124 SPIN=   0.00000
   F  -0.5000000   0.0193144  -0.2427219 SPIN=   0.00000
   F  -0.5000000  -0.4806856   0.2427219 SPIN=   0.00000
%ENDBLOCK POSITIONS_FRAC

# Note: total spin =   8.00

KPOINTS_MP_SPACING 0.07

%BLOCK SPECIES_POT
QC5
%ENDBLOCK SPECIES_POT

SNAP_TO_SYMMETRY
SYMMETRY_GENERATE

