#              Generated by Buildcell
#
# at 19:51:02 (GMT+1.0) 18th August 2020
# in /lustre/scratch/uccabz1/launch_tmp
# on node-c12h-012
# by uccabz1
#
# compiler GCC version 4.9.2
# options -cpp -iprefix /lustre/shared/ucl/apps/gcc/4.9.2/bin/../lib/gcc/x86_64-unknown-linux-gnu/4.9.2/ -mtune=corei7 -march=x86-64 -g -Og
#
# seed -1922321296  1432579633   445197049  1846864932   100605921  -965692503  -108680609  -683689746  1653077976  -410112050  -207954509  -662380278
#
#      Author: C. J. Pickard (cjp20@cam.ac.uk)
#                Space group: P21
#

%BLOCK LATTICE_ABC
      4.19020      5.89404      8.32353
     90.00000    103.36530     90.00000
%ENDBLOCK LATTICE_ABC

%BLOCK POSITIONS_FRAC
  Li   0.1553947  -0.4567230   0.4137274 SPIN=   0.00000
  Li  -0.1553947   0.0432770  -0.4137274 SPIN=   0.00000
  Fe  -0.4252942  -0.1561628   0.2378073 SPIN=   4.00000
  Fe   0.4252942   0.3438372  -0.2378073 SPIN=   4.00000
   O  -0.4854095  -0.0898935  -0.2928276 SPIN=   0.00000
   O  -0.2004633  -0.4123034  -0.1300238 SPIN=   0.00000
   O  -0.3375508  -0.0698243   0.0124091 SPIN=   0.00000
   O   0.0965105  -0.0527135  -0.1445993 SPIN=   0.00000
   S  -0.2317283  -0.1561837  -0.1387604 SPIN=   0.00000
   O   0.4854095   0.4101065   0.2928276 SPIN=   0.00000
   O   0.2004633   0.0876966   0.1300238 SPIN=   0.00000
   O   0.3375508   0.4301757  -0.0124091 SPIN=   0.00000
   O  -0.0965105   0.4472865   0.1445993 SPIN=   0.00000
   S   0.2317283   0.3438163   0.1387604 SPIN=   0.00000
   F  -0.0235202   0.3659014  -0.3841257 SPIN=   0.00000
   F   0.0235202  -0.1340986   0.3841257 SPIN=   0.00000
%ENDBLOCK POSITIONS_FRAC

# Note: total spin =   8.00

KPOINTS_MP_SPACING 0.07

%BLOCK SPECIES_POT
QC5
%ENDBLOCK SPECIES_POT

SNAP_TO_SYMMETRY
SYMMETRY_GENERATE

