#              Generated by Buildcell
#
# at 05:30:03 (GMT+1.0) 4th August 2020
# in /lustre/scratch/uccabz1/launch_tmp
# on node-c12n-012
# by uccabz1
#
# compiler GCC version 4.9.2
# options -cpp -iprefix /lustre/shared/ucl/apps/gcc/4.9.2/bin/../lib/gcc/x86_64-unknown-linux-gnu/4.9.2/ -mtune=corei7 -march=x86-64 -g -Og
#
# seed   861714551   977054562  -974058553 -1360276572   231792374  1626440262  1327083616  -856797461   288356371  1609706927  -626125588 -1729863723
#
#      Author: C. J. Pickard (cjp20@cam.ac.uk)
#                Space group: Cc
#

%BLOCK LATTICE_ABC
      6.04724      6.04724      6.85663
    103.81364    105.62160    115.08442
%ENDBLOCK LATTICE_ABC

%BLOCK POSITIONS_FRAC
  Li  -0.2391798   0.0138351   0.1887329 SPIN=   0.00000
  Li   0.1748978  -0.0720873  -0.3112671 SPIN=   0.00000
  Fe  -0.3655936  -0.1373328  -0.4567956 SPIN=   4.00000
  Fe  -0.3194628   0.4087980   0.0432044 SPIN=   4.00000
   O   0.1781591   0.5524254  -0.1072436 SPIN=   0.00000
   O   0.1726959   0.5806410  -0.4625434 SPIN=   0.00000
   O   0.0565883   0.1550084  -0.4209710 SPIN=   0.00000
   O   0.5268724   0.5375813  -0.2236662 SPIN=   0.00000
   S   0.2335789   0.4564140  -0.3036061 SPIN=   0.00000
   O   0.3403310   0.2145973   0.3927564 SPIN=   0.00000
   O  -0.0431844  -0.1352393   0.0374566 SPIN=   0.00000
   O   0.4240206   0.0224407   0.0790290 SPIN=   0.00000
   O   0.2387524  -0.2505386   0.2763338 SPIN=   0.00000
   S   0.2399799  -0.0371850   0.1963939 SPIN=   0.00000
   F  -0.3601918   0.1159976  -0.2412067 SPIN=   0.00000
   F  -0.3572043  -0.3810149   0.2587933 SPIN=   0.00000
%ENDBLOCK POSITIONS_FRAC

# Note: total spin =   8.00

KPOINTS_MP_SPACING 0.07

%BLOCK SPECIES_POT
QC5
%ENDBLOCK SPECIES_POT

SNAP_TO_SYMMETRY
SYMMETRY_GENERATE

