#              Generated by Buildcell
#
# at 23:48:37 (GMT+1.0) 18th August 2020
# in /lustre/scratch/uccabz1/launch_tmp
# on node-c12k-036
# by uccabz1
#
# compiler GCC version 4.9.2
# options -cpp -iprefix /lustre/shared/ucl/apps/gcc/4.9.2/bin/../lib/gcc/x86_64-unknown-linux-gnu/4.9.2/ -mtune=corei7 -march=x86-64 -g -Og
#
# seed  1036054928 -1830939678  2048335822     9465679  -654814463   551926098   194075217  -915537787 -1123562219   811296913 -1429462171 -1940866362
#
#      Author: C. J. Pickard (cjp20@cam.ac.uk)
#                Space group: P-1
#

%BLOCK LATTICE_ABC
      4.41160      5.51719      8.73871
     73.33694     82.02144     80.44533
%ENDBLOCK LATTICE_ABC

%BLOCK POSITIONS_FRAC
  Li  -0.0525233  -0.2538045   0.2006669 SPIN=   0.00000
  Li   0.0525233   0.2538045  -0.2006669 SPIN=   0.00000
  Fe   0.5000000   0.5000000   0.0000000 SPIN=   0.95961
  Fe  -0.5000000   0.5000000  -0.5000000 SPIN=   7.04039
   O  -0.1419363  -0.3029548  -0.1059591 SPIN=   0.00000
   O   0.2950912  -0.0786106  -0.2557444 SPIN=   0.00000
   O  -0.2056851   0.0065925  -0.3713645 SPIN=   0.00000
   O   0.1226133  -0.4089178  -0.3520143 SPIN=   0.00000
   S   0.0175208  -0.1959727  -0.2712706 SPIN=   0.00000
   O   0.1419363   0.3029548   0.1059591 SPIN=   0.00000
   O  -0.2950912   0.0786106   0.2557444 SPIN=   0.00000
   O   0.2056851  -0.0065925   0.3713645 SPIN=   0.00000
   O  -0.1226133   0.4089178   0.3520143 SPIN=   0.00000
   S  -0.0175208   0.1959727   0.2712706 SPIN=   0.00000
   F  -0.4194195   0.3039623  -0.1578282 SPIN=   0.00000
   F   0.4194195  -0.3039623   0.1578282 SPIN=   0.00000
%ENDBLOCK POSITIONS_FRAC

# Note: total spin =   8.00

KPOINTS_MP_SPACING 0.07

%BLOCK SPECIES_POT
QC5
%ENDBLOCK SPECIES_POT

SNAP_TO_SYMMETRY
SYMMETRY_GENERATE

