#              Generated by Buildcell
#
# at 19:44:28 (GMT+1.0) 18th August 2020
# in /scratch/scratch/uccabz1/launch_tmp
# on node-k10h-020
# by uccabz1
#
# compiler GCC version 4.9.2
# options -cpp -iprefix /scratch/UCL/applications/gcc/4.9.2/bin/../lib/gcc/x86_64-unknown-linux-gnu/4.9.2/ -mtune=corei7 -march=x86-64 -g -O2
#
# seed -1266038562 -1430725687 -1836995264 -1086014542  -968543096 -2039498829  1015268106 -1700611045   634795350  1017389375  1474433328  1209306065
#
#      Author: C. J. Pickard (cjp20@cam.ac.uk)
#                Space group: Pc
#

%BLOCK LATTICE_ABC
      3.95279      4.64790     11.20666
     90.00000     90.00000    103.73845
%ENDBLOCK LATTICE_ABC

%BLOCK POSITIONS_FRAC
  Li   0.5101411   0.2434648   0.1682655 SPIN=   0.00000
  Li   0.0101411   0.2434648  -0.1682655 SPIN=   0.00000
  Fe   0.5535104   0.3805766  -0.3569667 SPIN=   4.00000
  Fe   0.0535104   0.3805766   0.3569667 SPIN=   4.00000
   O   0.0479677  -0.3560684   0.0560671 SPIN=   0.00000
   O   0.0993668  -0.1720253   0.2640872 SPIN=   0.00000
   O  -0.4786274  -0.3106990   0.1667779 SPIN=   0.00000
   O  -0.0466808   0.1396865   0.1021004 SPIN=   0.00000
   S  -0.0944934  -0.1747765   0.1472582 SPIN=   0.00000
   O  -0.4520323  -0.3560684  -0.0560671 SPIN=   0.00000
   O  -0.4006332  -0.1720253  -0.2640872 SPIN=   0.00000
   O  -0.9786274  -0.3106990  -0.1667779 SPIN=   0.00000
   O  -0.5466808   0.1396865  -0.1021004 SPIN=   0.00000
   S  -0.5944934  -0.1747765  -0.1472582 SPIN=   0.00000
   F   0.0231418   0.2484924  -0.3684617 SPIN=   0.00000
   F   0.5231418   0.2484924   0.3684617 SPIN=   0.00000
%ENDBLOCK POSITIONS_FRAC

# Note: total spin =   8.00

KPOINTS_MP_SPACING 0.07

%BLOCK SPECIES_POT
QC5
%ENDBLOCK SPECIES_POT

SNAP_TO_SYMMETRY
SYMMETRY_GENERATE

