#              Generated by Buildcell
#
# at 23:51:12 (GMT+1.0) 18th August 2020
# in /lustre/scratch/uccabz1/launch_tmp
# on node-c12i-018
# by uccabz1
#
# compiler GCC version 4.9.2
# options -cpp -iprefix /lustre/shared/ucl/apps/gcc/4.9.2/bin/../lib/gcc/x86_64-unknown-linux-gnu/4.9.2/ -mtune=corei7 -march=x86-64 -g -Og
#
# seed  2142244796  1817172706  1117357960   577445484  -293451173  1836948663  1822770341  -548033258  -518995258  -757407601   -68977479  1488886156
#
#      Author: C. J. Pickard (cjp20@cam.ac.uk)
#                Space group: P2
#

%BLOCK LATTICE_ABC
      4.26314      6.71055      7.00532
     90.00000     90.00000     93.65902
%ENDBLOCK LATTICE_ABC

%BLOCK POSITIONS_FRAC
  Li  -0.2283411  -0.2691872   0.1499278 SPIN=   0.00000
  Li   0.2283411   0.2691872   0.1499278 SPIN=   0.00000
  Fe   0.2712300  -0.2755828   0.4440759 SPIN=   4.00000
  Fe  -0.2712300   0.2755828   0.4440759 SPIN=   4.00000
   O   0.5787975  -0.3366558  -0.1593303 SPIN=   0.00000
   O   0.2452295  -0.0484114  -0.1448688 SPIN=   0.00000
   O   0.2807688  -0.2711521   0.1348228 SPIN=   0.00000
   S   0.2760345  -0.2621593  -0.0813209 SPIN=   0.00000
   O  -0.5787975   0.3366558  -0.1593303 SPIN=   0.00000
   O  -0.2452295   0.0484114  -0.1448688 SPIN=   0.00000
   O  -0.2807688   0.2711521   0.1348228 SPIN=   0.00000
   S  -0.2760345   0.2621593  -0.0813209 SPIN=   0.00000
   O   0.0000000   0.0000000   0.1319010 SPIN=   0.00000
   O   0.5000000   0.0000000   0.2830166 SPIN=   0.00000
   F  -0.0000000   0.0000000  -0.4957776 SPIN=   0.00000
   F   0.5000000   0.5000000   0.4244785 SPIN=   0.00000
%ENDBLOCK POSITIONS_FRAC

# Note: total spin =   8.00

KPOINTS_MP_SPACING 0.07

%BLOCK SPECIES_POT
QC5
%ENDBLOCK SPECIES_POT

SNAP_TO_SYMMETRY
SYMMETRY_GENERATE

