#              Generated by Buildcell
#
# at 02:27:07 (GMT+1.0) 4th August 2020
# in /lustre/scratch/uccabz1/launch_tmp
# on node-c12c-010
# by uccabz1
#
# compiler GCC version 4.9.2
# options -cpp -iprefix /lustre/shared/ucl/apps/gcc/4.9.2/bin/../lib/gcc/x86_64-unknown-linux-gnu/4.9.2/ -mtune=corei7 -march=x86-64 -g -Og
#
# seed  -191377202 -1758496352  2117727118 -1933723235 -1486127593  2060345534  -876587049 -1438474181 -2132130279  -879914791  -618943908    66805635
#
#      Author: C. J. Pickard (cjp20@cam.ac.uk)
#                Space group: Pc
#

%BLOCK LATTICE_ABC
      4.05196      5.21414      9.69219
     90.00000     90.00000    102.39299
%ENDBLOCK LATTICE_ABC

%BLOCK POSITIONS_FRAC
  Li   0.1589039   0.0074229   0.1441150 SPIN=   0.00000
  Li   0.1589039  -0.4925771  -0.1441150 SPIN=   0.00000
  Fe  -0.3230662   0.0637070   0.3668892 SPIN=   4.00000
  Fe  -0.3230662  -0.4362930  -0.3668892 SPIN=   4.00000
   O  -0.3131236   0.2918682  -0.1072004 SPIN=   0.00000
   O  -0.6529165   0.0085345  -0.2835040 SPIN=   0.00000
   O  -0.7127762  -0.1156416  -0.0368649 SPIN=   0.00000
   O  -0.1897162  -0.1411598  -0.1629895 SPIN=   0.00000
   S  -0.4671331   0.0109003  -0.1476397 SPIN=   0.00000
   O  -0.3131236  -0.2081318   0.1072004 SPIN=   0.00000
   O  -0.6529165  -0.4914655   0.2835040 SPIN=   0.00000
   O  -0.7127762  -0.6156416   0.0368649 SPIN=   0.00000
   O  -0.1897162  -0.6411598   0.1629895 SPIN=   0.00000
   S  -0.4671331  -0.4890997   0.1476397 SPIN=   0.00000
   F   0.1455420  -0.0502115   0.3583240 SPIN=   0.00000
   F   0.1455420   0.4497885  -0.3583240 SPIN=   0.00000
%ENDBLOCK POSITIONS_FRAC

# Note: total spin =   8.00

KPOINTS_MP_SPACING 0.07

%BLOCK SPECIES_POT
QC5
%ENDBLOCK SPECIES_POT

SNAP_TO_SYMMETRY
SYMMETRY_GENERATE

