#              Generated by Buildcell
#
# at 01:46:15 (GMT+1.0) 19th August 2020
# in /lustre/scratch/uccabz1/launch_tmp
# on node-c12p-010
# by uccabz1
#
# compiler GCC version 4.9.2
# options -cpp -iprefix /lustre/shared/ucl/apps/gcc/4.9.2/bin/../lib/gcc/x86_64-unknown-linux-gnu/4.9.2/ -mtune=corei7 -march=x86-64 -g -Og
#
# seed -2049800406   307960455  1014397829  -275794718 -1270039837 -1640374513 -1071248596 -1035678749 -1348485275   289136283 -1333322331 -1526212468
#
#      Author: C. J. Pickard (cjp20@cam.ac.uk)
#                Space group: Cm
#

%BLOCK LATTICE_ABC
      4.86368      6.44501      6.44501
     97.78575     91.53473     91.53473
%ENDBLOCK LATTICE_ABC

%BLOCK POSITIONS_FRAC
  Li   0.4735530   0.1203673   0.1203673 SPIN=   0.00000
  Li   0.0184286  -0.2191823  -0.2191823 SPIN=   0.00000
  Fe  -0.0719431  -0.3306082   0.2842369 SPIN=   4.00000
  Fe  -0.0719431   0.2842369  -0.3306082 SPIN=   4.00000
   O   0.4067514   0.1587041  -0.3025095 SPIN=   0.00000
   O   0.6829969  -0.0563031  -0.5625305 SPIN=   0.00000
   O   0.1768027  -0.0521937  -0.6112779 SPIN=   0.00000
   S   0.4121634  -0.0444576  -0.4512117 SPIN=   0.00000
   O   0.4067514  -0.3025095   0.1587041 SPIN=   0.00000
   O   0.6829969  -0.5625305  -0.0563031 SPIN=   0.00000
   O   0.1768027  -0.6112779  -0.0521937 SPIN=   0.00000
   S   0.4121634  -0.4512117  -0.0444576 SPIN=   0.00000
   O  -0.4394171  -0.2437436  -0.2437436 SPIN=   0.00000
   O   0.2404298   0.3082290   0.3082290 SPIN=   0.00000
   F  -0.2490382   0.4564541   0.4564541 SPIN=   0.00000
   F  -0.1415023   0.0400855   0.0400855 SPIN=   0.00000
%ENDBLOCK POSITIONS_FRAC

# Note: total spin =   8.00

KPOINTS_MP_SPACING 0.07

%BLOCK SPECIES_POT
QC5
%ENDBLOCK SPECIES_POT

SNAP_TO_SYMMETRY
SYMMETRY_GENERATE

