#              Generated by Buildcell
#
# at 04:12:12 (GMT+1.0) 4th August 2020
# in /lustre/scratch/uccabz1/launch_tmp
# on node-c12g-004
# by uccabz1
#
# compiler GCC version 4.9.2
# options -cpp -iprefix /lustre/shared/ucl/apps/gcc/4.9.2/bin/../lib/gcc/x86_64-unknown-linux-gnu/4.9.2/ -mtune=corei7 -march=x86-64 -g -Og
#
# seed -1433251746 -1852854027   938482517  -533865608 -1261305324   476792143   339655948 -1596109645 -2059610242  1201679301 -1896532569   268968025
#
#      Author: C. J. Pickard (cjp20@cam.ac.uk)
#                Space group: C2221
#

%BLOCK LATTICE_ABC
      4.44825      6.43902      7.32832
     90.00000    107.66776     90.00000
%ENDBLOCK LATTICE_ABC

%BLOCK POSITIONS_FRAC
  Li   0.2039058  -0.2500000   0.0000000 SPIN=   0.00000
  Li  -0.2039058   0.2500000  -0.0000000 SPIN=   0.00000
  Fe  -0.3298794   0.0000000   0.3402412 SPIN=   4.00000
  Fe   0.3298794   0.5000000  -0.3402412 SPIN=   4.00000
   O   0.1874475   0.1953445  -0.3110775 SPIN=   0.00000
   O  -0.3866380   0.1256036  -0.4096607 SPIN=   0.00000
   O  -0.1874475  -0.3046555   0.3110775 SPIN=   0.00000
   O   0.3866380  -0.3743964   0.4096607 SPIN=   0.00000
   O   0.4985250   0.3046555   0.3110775 SPIN=   0.00000
   O   0.0230228   0.3743964   0.4096607 SPIN=   0.00000
   O  -0.4985250  -0.1953445  -0.3110775 SPIN=   0.00000
   O  -0.0230228  -0.1256036  -0.4096607 SPIN=   0.00000
   S   0.3692929   0.0000000  -0.2614142 SPIN=   0.00000
   S  -0.3692929   0.5000000   0.2614142 SPIN=   0.00000
   F   0.0985961   0.0000000   0.1971922 SPIN=   0.00000
   F  -0.0985961  -0.5000000  -0.1971922 SPIN=   0.00000
%ENDBLOCK POSITIONS_FRAC

# Note: total spin =   8.00

KPOINTS_MP_SPACING 0.07

%BLOCK SPECIES_POT
QC5
%ENDBLOCK SPECIES_POT

SNAP_TO_SYMMETRY
SYMMETRY_GENERATE

