#              Generated by Buildcell
#
# at 20:58:46 (GMT+1.0) 18th August 2020
# in /lustre/scratch/uccabz1/launch_tmp
# on node-c12g-033
# by uccabz1
#
# compiler GCC version 4.9.2
# options -cpp -iprefix /lustre/shared/ucl/apps/gcc/4.9.2/bin/../lib/gcc/x86_64-unknown-linux-gnu/4.9.2/ -mtune=corei7 -march=x86-64 -g -Og
#
# seed  1209571706   725932610  1065708060   681724726  1779806566  1162431510  -673255986 -1586913886  -341845435    27978310  -175022879 -1654368785
#
#      Author: C. J. Pickard (cjp20@cam.ac.uk)
#                Space group: P2
#

%BLOCK LATTICE_ABC
      4.15008      6.82943      7.35070
    106.26503     90.00000     90.00000
%ENDBLOCK LATTICE_ABC

%BLOCK POSITIONS_FRAC
  Li   0.3260771   0.2736028   0.0780499 SPIN=   0.00000
  Li   0.3260771  -0.2736028  -0.0780499 SPIN=   0.00000
  Fe  -0.1739268  -0.0866609  -0.2887198 SPIN=   4.00000
  Fe  -0.1739268   0.0866609   0.2887198 SPIN=   4.00000
   O  -0.2916094   0.3300925  -0.4722292 SPIN=   0.00000
   O  -0.2855356   0.2697741  -0.1555832 SPIN=   0.00000
   O  -0.1749101   0.6148537  -0.1871527 SPIN=   0.00000
   O   0.2242629   0.3384296  -0.3013182 SPIN=   0.00000
   S  -0.1319481   0.3882875  -0.2790708 SPIN=   0.00000
   O  -0.2916094  -0.3300925   0.4722292 SPIN=   0.00000
   O  -0.2855356  -0.2697741   0.1555832 SPIN=   0.00000
   O  -0.1749101  -0.6148537   0.1871527 SPIN=   0.00000
   O   0.2242629  -0.3384296   0.3013182 SPIN=   0.00000
   S  -0.1319481  -0.3882875   0.2790708 SPIN=   0.00000
   F   0.3113138  -0.0976414  -0.2754012 SPIN=   0.00000
   F   0.3113138   0.0976414   0.2754012 SPIN=   0.00000
%ENDBLOCK POSITIONS_FRAC

# Note: total spin =   8.00

KPOINTS_MP_SPACING 0.07

%BLOCK SPECIES_POT
QC5
%ENDBLOCK SPECIES_POT

SNAP_TO_SYMMETRY
SYMMETRY_GENERATE

