#              Generated by Buildcell
#
# at 21:52:17 (GMT+1.0) 18th August 2020
# in /lustre/scratch/uccabz1/launch_tmp
# on node-c12m-014
# by uccabz1
#
# compiler GCC version 4.9.2
# options -cpp -iprefix /lustre/shared/ucl/apps/gcc/4.9.2/bin/../lib/gcc/x86_64-unknown-linux-gnu/4.9.2/ -mtune=corei7 -march=x86-64 -g -Og
#
# seed   911600657  -632695892 -1852318565  1103897675  1362555585  -541886042 -1147015926  -868457491 -1658406252  2118762085  -970009430 -1895012719
#
#      Author: C. J. Pickard (cjp20@cam.ac.uk)
#                Space group: Cc
#

%BLOCK LATTICE_ABC
      5.85971      6.28112      6.28112
     99.93069    107.91240    107.91240
%ENDBLOCK LATTICE_ABC

%BLOCK POSITIONS_FRAC
  Li  -0.1145112   0.3976333   0.1532872 SPIN=   0.00000
  Li   0.3854888   0.1532872   0.3976333 SPIN=   0.00000
  Fe  -0.3908925  -0.3987454  -0.1798173 SPIN=   4.00000
  Fe   0.1091075  -0.1798173  -0.3987454 SPIN=   4.00000
   O   0.1618454   0.3445673  -0.4826712 SPIN=   0.00000
   O  -0.1145106   0.0528671  -0.3539130 SPIN=   0.00000
   O  -0.3120836   0.1519629  -0.7125576 SPIN=   0.00000
   O  -0.1434645   0.4410798  -0.3235526 SPIN=   0.00000
   S  -0.1020533   0.2476192  -0.4681736 SPIN=   0.00000
   O   0.6618454  -0.4826712   0.3445673 SPIN=   0.00000
   O   0.3854894  -0.3539130   0.0528671 SPIN=   0.00000
   O   0.1879164  -0.7125576   0.1519629 SPIN=   0.00000
   O   0.3565355  -0.3235526   0.4410798 SPIN=   0.00000
   S   0.3979467  -0.4681736   0.2476192 SPIN=   0.00000
   F  -0.0618535  -0.1824247   0.0837482 SPIN=   0.00000
   F   0.4381465   0.0837482  -0.1824247 SPIN=   0.00000
%ENDBLOCK POSITIONS_FRAC

# Note: total spin =   8.00

KPOINTS_MP_SPACING 0.07

%BLOCK SPECIES_POT
QC5
%ENDBLOCK SPECIES_POT

SNAP_TO_SYMMETRY
SYMMETRY_GENERATE

