#              Generated by Buildcell
#
# at 05:06:09 (GMT+1.0) 4th August 2020
# in /lustre/scratch/uccabz1/launch_tmp
# on node-c12f-001
# by uccabz1
#
# compiler GCC version 4.9.2
# options -cpp -iprefix /lustre/shared/ucl/apps/gcc/4.9.2/bin/../lib/gcc/x86_64-unknown-linux-gnu/4.9.2/ -mtune=corei7 -march=x86-64 -g -Og
#
# seed -1988595572  1841776501 -2119265933 -1499383278 -1594325081  1146252335  -186342309 -1701067818  1589126364   576718728   631154005  1922041319
#
#      Author: C. J. Pickard (cjp20@cam.ac.uk)
#                Space group: Ima2
#

%BLOCK LATTICE_ABC
      3.84557      7.62501      8.04701
    118.27989    103.82421     90.00000
%ENDBLOCK LATTICE_ABC

%BLOCK POSITIONS_FRAC
  Li   0.0688509   0.0688509   0.1377018 SPIN=   0.00000
  Li   0.0688509  -0.4311491   0.1377018 SPIN=   0.00000
  Fe   0.2853988  -0.3231434  -0.1462868 SPIN=   4.00000
  Fe  -0.4316856   0.1768566  -0.1462868 SPIN=   4.00000
   O   0.4242132   0.1012562  -0.5975756 SPIN=   0.00000
   O   0.0999555   0.2308612  -0.3398978 SPIN=   0.00000
   O  -0.0217888   0.3011682  -0.5975756 SPIN=   0.00000
   O   0.5601467   0.4292409  -0.3398978 SPIN=   0.00000
   O  -0.0217888  -0.3987438  -0.5975756 SPIN=   0.00000
   O   0.5601467  -0.2691388  -0.3398978 SPIN=   0.00000
   O   0.4242132  -0.1988318  -0.5975756 SPIN=   0.00000
   O   0.0999555  -0.0707591  -0.3398978 SPIN=   0.00000
   S  -0.2440437  -0.2440437  -0.4880875 SPIN=   0.00000
   S  -0.2440437   0.2559563  -0.4880875 SPIN=   0.00000
   F  -0.1589921  -0.2176371   0.0647258 SPIN=   0.00000
   F   0.2237180   0.2823629   0.0647258 SPIN=   0.00000
%ENDBLOCK POSITIONS_FRAC

# Note: total spin =   8.00

KPOINTS_MP_SPACING 0.07

%BLOCK SPECIES_POT
QC5
%ENDBLOCK SPECIES_POT

SNAP_TO_SYMMETRY
SYMMETRY_GENERATE

