#              Generated by Buildcell
#
# at 19:35:30 (GMT+1.0) 18th August 2020
# in /lustre/scratch/uccabz1/launch_tmp
# on node-c12k-020
# by uccabz1
#
# compiler GCC version 4.9.2
# options -cpp -iprefix /lustre/shared/ucl/apps/gcc/4.9.2/bin/../lib/gcc/x86_64-unknown-linux-gnu/4.9.2/ -mtune=corei7 -march=x86-64 -g -Og
#
# seed  1793536549  -325305548   741983905 -1983699762   339326965    81869522  1756842785  -515664661  -231248054 -1911243448  1680541861  2072623248
#
#      Author: C. J. Pickard (cjp20@cam.ac.uk)
#                Space group: Pc
#

%BLOCK LATTICE_ABC
      4.58268      5.88976      7.85653
    109.41191     90.00000     90.00000
%ENDBLOCK LATTICE_ABC

%BLOCK POSITIONS_FRAC
  Li   0.0385989   0.3266671   0.0358442 SPIN=   0.00000
  Li  -0.0385989   0.3266671  -0.4641558 SPIN=   0.00000
  Fe   0.0620887  -0.1582695   0.0698190 SPIN=   4.00000
  Fe  -0.0620887  -0.1582695  -0.4301810 SPIN=   4.00000
   O   0.2271659  -0.4733958  -0.1426656 SPIN=   0.00000
   O   0.5234116  -0.7025678  -0.4074075 SPIN=   0.00000
   O   0.7376401  -0.3529515  -0.1702651 SPIN=   0.00000
   O   0.3574419  -0.2900610  -0.3738491 SPIN=   0.00000
   S   0.4614149  -0.4547440  -0.2735468 SPIN=   0.00000
   O  -0.2271659  -0.4733958   0.3573344 SPIN=   0.00000
   O  -0.5234116  -0.7025678   0.0925925 SPIN=   0.00000
   O  -0.7376401  -0.3529515   0.3297349 SPIN=   0.00000
   O  -0.3574419  -0.2900610   0.1261509 SPIN=   0.00000
   S  -0.4614149  -0.4547440   0.2264532 SPIN=   0.00000
   F   0.1469213   0.0973653   0.3060293 SPIN=   0.00000
   F  -0.1469213   0.0973653  -0.1939707 SPIN=   0.00000
%ENDBLOCK POSITIONS_FRAC

# Note: total spin =   8.00

KPOINTS_MP_SPACING 0.07

%BLOCK SPECIES_POT
QC5
%ENDBLOCK SPECIES_POT

SNAP_TO_SYMMETRY
SYMMETRY_GENERATE

