#              Generated by Buildcell
#
# at 01:47:37 (GMT+1.0) 4th August 2020
# in /lustre/scratch/uccabz1/launch_tmp
# on node-c12f-030
# by uccabz1
#
# compiler GCC version 4.9.2
# options -cpp -iprefix /lustre/shared/ucl/apps/gcc/4.9.2/bin/../lib/gcc/x86_64-unknown-linux-gnu/4.9.2/ -mtune=corei7 -march=x86-64 -g -Og
#
# seed -1232751788   455115386 -1594268009  1421303612  -964063151  1452935848  -836983142   -43839187 -1352723931  1810546163   459324838 -1999933602
#
#      Author: C. J. Pickard (cjp20@cam.ac.uk)
#                Space group: P-1
#

%BLOCK LATTICE_ABC
      3.94259      6.79268      7.90469
    100.68366     96.54821    102.99257
%ENDBLOCK LATTICE_ABC

%BLOCK POSITIONS_FRAC
  Li   0.4853524   0.1560264  -0.2302100 SPIN=   0.00000
  Li  -0.4853524  -0.1560264   0.2302100 SPIN=   0.00000
  Fe   0.0521950   0.2770181   0.0936562 SPIN=   4.00000
  Fe  -0.0521950  -0.2770181  -0.0936562 SPIN=   4.00000
   O  -0.6852366   0.1477173   0.2788661 SPIN=   0.00000
   O  -0.4752309   0.3755780   0.5725967 SPIN=   0.00000
   O  -0.0932611   0.3914767   0.3452572 SPIN=   0.00000
   O  -0.2081443   0.0852355   0.4778968 SPIN=   0.00000
   S  -0.3654682   0.2500019   0.4186542 SPIN=   0.00000
   O   0.6852366  -0.1477173  -0.2788661 SPIN=   0.00000
   O   0.4752309  -0.3755780  -0.5725967 SPIN=   0.00000
   O   0.0932611  -0.3914767  -0.3452572 SPIN=   0.00000
   O   0.2081443  -0.0852355  -0.4778968 SPIN=   0.00000
   S   0.3654682  -0.2500019  -0.4186542 SPIN=   0.00000
   F  -0.1422661  -0.3041555   0.1671359 SPIN=   0.00000
   F   0.1422661   0.3041555  -0.1671359 SPIN=   0.00000
%ENDBLOCK POSITIONS_FRAC

# Note: total spin =   8.00

KPOINTS_MP_SPACING 0.07

%BLOCK SPECIES_POT
QC5
%ENDBLOCK SPECIES_POT

SNAP_TO_SYMMETRY
SYMMETRY_GENERATE

