#              Generated by Buildcell
#
# at 22:21:04 (GMT+1.0) 18th August 2020
# in /lustre/scratch/uccabz1/launch_tmp
# on node-c12f-010
# by uccabz1
#
# compiler GCC version 4.9.2
# options -cpp -iprefix /lustre/shared/ucl/apps/gcc/4.9.2/bin/../lib/gcc/x86_64-unknown-linux-gnu/4.9.2/ -mtune=corei7 -march=x86-64 -g -Og
#
# seed  1360723987  -990877222  -663204510 -1539576640 -1845927292 -2094060905  1193438026   911180328 -1605294039  1996969672   817955101  1793842432
#
#      Author: C. J. Pickard (cjp20@cam.ac.uk)
#                Space group: Cm
#

%BLOCK LATTICE_ABC
      5.93866      5.93866      6.98493
    113.65494    113.65494     92.90496
%ENDBLOCK LATTICE_ABC

%BLOCK POSITIONS_FRAC
  Li  -0.3135294   0.1604259  -0.2563240 SPIN=   0.00000
  Li   0.1604259  -0.3135294  -0.2563240 SPIN=   0.00000
  Fe  -0.1982769  -0.1982769  -0.0284331 SPIN=   1.49261
  Fe   0.2721162   0.2721162  -0.0138737 SPIN=   6.50739
   O   0.3870926   0.1310420   0.4130612 SPIN=   0.00000
   O   0.4371903  -0.3068509   0.3125609 SPIN=   0.00000
   O   0.7080170  -0.0069736   0.2805979 SPIN=   0.00000
   S   0.4456287  -0.0902109   0.2510323 SPIN=   0.00000
   O   0.1310420   0.3870926   0.4130612 SPIN=   0.00000
   O  -0.3068509   0.4371903   0.3125609 SPIN=   0.00000
   O  -0.0069736   0.7080170   0.2805979 SPIN=   0.00000
   S  -0.0902109   0.4456287   0.2510323 SPIN=   0.00000
   O   0.3905559   0.3905559  -0.2216663 SPIN=   0.00000
   O  -0.4567955  -0.4567955  -0.4300149 SPIN=   0.00000
   F   0.4085248  -0.0525059  -0.2486477 SPIN=   0.00000
   F  -0.0525059   0.4085248  -0.2486477 SPIN=   0.00000
%ENDBLOCK POSITIONS_FRAC

# Note: total spin =   8.00

KPOINTS_MP_SPACING 0.07

%BLOCK SPECIES_POT
QC5
%ENDBLOCK SPECIES_POT

SNAP_TO_SYMMETRY
SYMMETRY_GENERATE

