#              Generated by Buildcell
#
# at 03:55:54 (GMT+1.0) 4th August 2020
# in /lustre/scratch/uccabz1/launch_tmp
# on node-c12k-030
# by uccabz1
#
# compiler GCC version 4.9.2
# options -cpp -iprefix /lustre/shared/ucl/apps/gcc/4.9.2/bin/../lib/gcc/x86_64-unknown-linux-gnu/4.9.2/ -mtune=corei7 -march=x86-64 -g -Og
#
# seed   164010220  1706626696  -526418891  1655582222 -1637895546  -568311754  -739243057  1319912659   484729884  1208532837   761048618   737184346
#
#      Author: C. J. Pickard (cjp20@cam.ac.uk)
#                Space group: P21
#

%BLOCK LATTICE_ABC
      4.77184      4.81948      8.69710
     90.00000     90.00000     90.67565
%ENDBLOCK LATTICE_ABC

%BLOCK POSITIONS_FRAC
  Li   0.0666226   0.3556713   0.1507793 SPIN=   0.00000
  Li  -0.0666226  -0.3556713  -0.3492207 SPIN=   0.00000
  Fe  -0.4405136   0.3166886   0.3782949 SPIN=   4.00000
  Fe   0.4405136  -0.3166886  -0.1217051 SPIN=   4.00000
   O   0.1899592  -0.4589813   0.3366888 SPIN=   0.00000
   O   0.0517269  -0.0383136   0.1936306 SPIN=   0.00000
   O   0.2175531   0.0011706   0.4624545 SPIN=   0.00000
   O  -0.2447877  -0.2140973   0.4066883 SPIN=   0.00000
   S   0.0536129  -0.1775554   0.3498656 SPIN=   0.00000
   O  -0.1899592   0.4589813  -0.1633112 SPIN=   0.00000
   O  -0.0517269   0.0383136  -0.3063694 SPIN=   0.00000
   O  -0.2175531  -0.0011706  -0.0375455 SPIN=   0.00000
   O   0.2447877   0.2140973  -0.0933117 SPIN=   0.00000
   S  -0.0536129   0.1775554  -0.1501344 SPIN=   0.00000
   F   0.4497147   0.4571387  -0.3901234 SPIN=   0.00000
   F  -0.4497147  -0.4571387   0.1098766 SPIN=   0.00000
%ENDBLOCK POSITIONS_FRAC

# Note: total spin =   8.00

KPOINTS_MP_SPACING 0.07

%BLOCK SPECIES_POT
QC5
%ENDBLOCK SPECIES_POT

SNAP_TO_SYMMETRY
SYMMETRY_GENERATE

