#              Generated by Buildcell
#
# at 05:23:53 (GMT+1.0) 4th August 2020
# in /lustre/scratch/uccabz1/launch_tmp
# on node-c12h-032
# by uccabz1
#
# compiler GCC version 4.9.2
# options -cpp -iprefix /lustre/shared/ucl/apps/gcc/4.9.2/bin/../lib/gcc/x86_64-unknown-linux-gnu/4.9.2/ -mtune=corei7 -march=x86-64 -g -Og
#
# seed   441887794  2130125311   726319628 -1369719205 -1680446308  -723659144  -963966879  2055271635  -464420014  -850612002 -1020731145 -1026117217
#
#      Author: C. J. Pickard (cjp20@cam.ac.uk)
#                Space group: P-1
#

%BLOCK LATTICE_ABC
      3.94134      6.71046      7.85289
     96.20621     96.88118    101.74157
%ENDBLOCK LATTICE_ABC

%BLOCK POSITIONS_FRAC
  Li   0.3554112  -0.4353250  -0.2445555 SPIN=   0.00000
  Li  -0.3554112   0.4353250   0.2445555 SPIN=   0.00000
  Fe   0.2861453  -0.2679114   0.4210970 SPIN=   4.00000
  Fe  -0.2861453   0.2679114  -0.4210970 SPIN=   4.00000
   O   0.3317650   0.0256629   0.1469313 SPIN=   0.00000
   O  -0.1247968   0.2286690   0.1133592 SPIN=   0.00000
   O   0.2884692   0.2869668   0.3863681 SPIN=   0.00000
   O  -0.1676928  -0.0345429   0.3122162 SPIN=   0.00000
   S   0.0819361   0.1266889   0.2397187 SPIN=   0.00000
   O  -0.3317650  -0.0256629  -0.1469313 SPIN=   0.00000
   O   0.1247968  -0.2286690  -0.1133592 SPIN=   0.00000
   O  -0.2884692  -0.2869668  -0.3863681 SPIN=   0.00000
   O   0.1676928   0.0345429  -0.3122162 SPIN=   0.00000
   S  -0.0819361  -0.1266889  -0.2397187 SPIN=   0.00000
   F   0.3418534  -0.3588663   0.1752942 SPIN=   0.00000
   F  -0.3418534   0.3588663  -0.1752942 SPIN=   0.00000
%ENDBLOCK POSITIONS_FRAC

# Note: total spin =   8.00

KPOINTS_MP_SPACING 0.07

%BLOCK SPECIES_POT
QC5
%ENDBLOCK SPECIES_POT

SNAP_TO_SYMMETRY
SYMMETRY_GENERATE

