#              Generated by Buildcell
#
# at 02:49:06 (GMT+1.0) 4th August 2020
# in /lustre/scratch/uccabz1/launch_tmp
# on node-c12p-013
# by uccabz1
#
# compiler GCC version 4.9.2
# options -cpp -iprefix /lustre/shared/ucl/apps/gcc/4.9.2/bin/../lib/gcc/x86_64-unknown-linux-gnu/4.9.2/ -mtune=corei7 -march=x86-64 -g -Og
#
# seed  -577732438  1475462531   890413111    98343135  1857816682 -1329153973   653997882   592383154  -153295288  1736133945 -1301496768  -964933842
#
#      Author: C. J. Pickard (cjp20@cam.ac.uk)
#                Space group: P-1
#

%BLOCK LATTICE_ABC
      3.97994      7.12431      7.17880
     94.08223     90.99898     99.76768
%ENDBLOCK LATTICE_ABC

%BLOCK POSITIONS_FRAC
  Li  -0.3506007  -0.2388547  -0.0419763 SPIN=   0.00000
  Li   0.3506007   0.2388547   0.0419763 SPIN=   0.00000
  Fe   0.1644445  -0.1591054  -0.3340872 SPIN=   4.00000
  Fe  -0.1644445   0.1591054   0.3340872 SPIN=   4.00000
   O  -0.2791550  -0.5343655   0.1112196 SPIN=   0.00000
   O  -0.2164567  -0.4291034   0.4479366 SPIN=   0.00000
   O  -0.1762618  -0.1895318   0.2124158 SPIN=   0.00000
   O   0.2844672  -0.3793973   0.2465020 SPIN=   0.00000
   S  -0.0968516  -0.3830995   0.2545185 SPIN=   0.00000
   O   0.2791550   0.5343655  -0.1112196 SPIN=   0.00000
   O   0.2164567   0.4291034  -0.4479366 SPIN=   0.00000
   O   0.1762618   0.1895318  -0.2124158 SPIN=   0.00000
   O  -0.2844672   0.3793973  -0.2465020 SPIN=   0.00000
   S   0.0968516   0.3830995  -0.2545185 SPIN=   0.00000
   F   0.3375947   0.1146584   0.2752917 SPIN=   0.00000
   F  -0.3375947  -0.1146584  -0.2752917 SPIN=   0.00000
%ENDBLOCK POSITIONS_FRAC

# Note: total spin =   8.00

KPOINTS_MP_SPACING 0.07

%BLOCK SPECIES_POT
QC5
%ENDBLOCK SPECIES_POT

SNAP_TO_SYMMETRY
SYMMETRY_GENERATE

