#              Generated by Buildcell
#
# at 02:09:32 (GMT+1.0) 19th August 2020
# in /lustre/scratch/uccabz1/launch_tmp
# on node-c12o-035
# by uccabz1
#
# compiler GCC version 4.9.2
# options -cpp -iprefix /lustre/shared/ucl/apps/gcc/4.9.2/bin/../lib/gcc/x86_64-unknown-linux-gnu/4.9.2/ -mtune=corei7 -march=x86-64 -g -Og
#
# seed   309087306   742788309  -613767394  1415227937  1989134202 -1799085938 -1254038016  -498947174  2119892639  2095489540   157313121  1766040341
#
#      Author: C. J. Pickard (cjp20@cam.ac.uk)
#                Space group: Pmn21
#

%BLOCK LATTICE_ABC
      4.70364      6.46680      6.57516
     90.00000     90.00000     90.00000
%ENDBLOCK LATTICE_ABC

%BLOCK POSITIONS_FRAC
  Li   0.0000000  -0.0295037   0.3193194 SPIN=   0.00000
  Li   0.5000000   0.4704963  -0.3193194 SPIN=   0.00000
  Fe  -0.0000000  -0.3698739   0.0180675 SPIN=   4.00000
  Fe   0.5000000   0.1301261  -0.0180675 SPIN=   4.00000
   O   0.2499823   0.2247630   0.3158086 SPIN=   0.00000
   O   0.2499882   0.6062295   0.3460571 SPIN=   0.00000
   O   0.2500177  -0.2752370  -0.3158086 SPIN=   0.00000
   O   0.2500118   0.1062295  -0.3460571 SPIN=   0.00000
   O  -0.2500177  -0.2752370  -0.3158086 SPIN=   0.00000
   O  -0.2500118   0.1062295  -0.3460571 SPIN=   0.00000
   O  -0.2499823   0.2247630   0.3158086 SPIN=   0.00000
   O  -0.2499882   0.6062295   0.3460571 SPIN=   0.00000
   S   0.0000000  -0.3957674  -0.4792611 SPIN=   0.00000
   S  -0.5000000   0.1042326   0.4792611 SPIN=   0.00000
   F   0.0000000  -0.0554832   0.0232164 SPIN=   0.00000
   F   0.5000000   0.4445168  -0.0232164 SPIN=   0.00000
%ENDBLOCK POSITIONS_FRAC

# Note: total spin =   8.00

KPOINTS_MP_SPACING 0.07

%BLOCK SPECIES_POT
QC5
%ENDBLOCK SPECIES_POT

SNAP_TO_SYMMETRY
SYMMETRY_GENERATE

