#              Generated by Buildcell
#
# at 22:07:43 (GMT+1.0) 18th August 2020
# in /scratch/scratch/uccabz1/launch_tmp
# on node-k10h-019
# by uccabz1
#
# compiler GCC version 4.9.2
# options -cpp -iprefix /scratch/UCL/applications/gcc/4.9.2/bin/../lib/gcc/x86_64-unknown-linux-gnu/4.9.2/ -mtune=corei7 -march=x86-64 -g -O2
#
# seed -1882398284 -1265614579 -2135128779  -637091067   273575471 -1156935517   702142763 -1136128020   272491070 -1425012766  -376277797  2101458257
#
#      Author: C. J. Pickard (cjp20@cam.ac.uk)
#                Space group: Aea2
#

%BLOCK LATTICE_ABC
      5.35415      6.18029      6.78823
    117.07915     90.00000     90.00000
%ENDBLOCK LATTICE_ABC

%BLOCK POSITIONS_FRAC
  Li   0.0000000  -0.1085272  -0.2170544 SPIN=   0.00000
  Li   0.5000000   0.3914728   0.7829456 SPIN=   0.00000
  Fe   0.0000000   0.1587116   0.3174232 SPIN=   4.00000
  Fe  -0.5000000  -0.3412884  -0.6825768 SPIN=   4.00000
   O  -0.6479565   0.0640715  -0.2187129 SPIN=   0.00000
   O  -0.3087837   0.1201810   0.0480282 SPIN=   0.00000
   O   0.6479565  -0.2827843  -0.2187129 SPIN=   0.00000
   O   0.3087837  -0.0721529   0.0480282 SPIN=   0.00000
   O  -0.1479565   0.2172157  -0.2187129 SPIN=   0.00000
   O   0.1912163   0.4278471   0.0480282 SPIN=   0.00000
   O   0.1479565  -0.4359285  -0.2187129 SPIN=   0.00000
   O  -0.1912163  -0.3798190   0.0480282 SPIN=   0.00000
   S  -0.5000000  -0.0562504  -0.1125009 SPIN=   0.00000
   S  -0.0000000   0.4437496   0.8874991 SPIN=   0.00000
   F  -0.5000000   0.2404517   0.4809033 SPIN=   0.00000
   F   0.0000000  -0.2595483  -0.5190967 SPIN=   0.00000
%ENDBLOCK POSITIONS_FRAC

# Note: total spin =   8.00

KPOINTS_MP_SPACING 0.07

%BLOCK SPECIES_POT
QC5
%ENDBLOCK SPECIES_POT

SNAP_TO_SYMMETRY
SYMMETRY_GENERATE

