#              Generated by Buildcell
#
# at 00:37:05 (GMT+1.0) 19th August 2020
# in /scratch/scratch/uccabz1/launch_tmp
# on node-k10c-035
# by uccabz1
#
# compiler GCC version 4.9.2
# options -cpp -iprefix /scratch/UCL/applications/gcc/4.9.2/bin/../lib/gcc/x86_64-unknown-linux-gnu/4.9.2/ -mtune=corei7 -march=x86-64 -g -O2
#
# seed  2116424888    54902414 -1999359175  1463061919  1834477168   363619298  1186902403  2070468070 -1150749466 -1391302592  1679328643  -866747717
#
#      Author: C. J. Pickard (cjp20@cam.ac.uk)
#                Space group: Pm
#

%BLOCK LATTICE_ABC
      4.12721      6.04690      8.05982
     90.00000     90.00000     96.12296
%ENDBLOCK LATTICE_ABC

%BLOCK POSITIONS_FRAC
  Li   0.2757082  -0.0888343  -0.0000000 SPIN=   0.00000
  Li  -0.1881319   0.4665579   0.5000000 SPIN=   0.00000
  Fe  -0.2748513   0.3374820   0.0000000 SPIN=   7.21937
  Fe   0.2563870   0.1039139  -0.5000000 SPIN=   0.78063
   O   0.3568152  -0.5694650   0.1556419 SPIN=   0.00000
   O  -0.1223385  -0.3687276   0.2149817 SPIN=   0.00000
   O   0.4329785  -0.1696538   0.2283522 SPIN=   0.00000
   S   0.2295698  -0.3892694   0.2603136 SPIN=   0.00000
   O   0.3568152  -0.5694650  -0.1556419 SPIN=   0.00000
   O  -0.1223385  -0.3687276  -0.2149817 SPIN=   0.00000
   O   0.4329785  -0.1696538  -0.2283522 SPIN=   0.00000
   S   0.2295698  -0.3892694  -0.2603136 SPIN=   0.00000
   O   0.3221485   0.4553543   0.5000000 SPIN=   0.00000
   O   0.0575125  -0.2282119   0.5000000 SPIN=   0.00000
   F  -0.2752306   0.1447311  -0.5000000 SPIN=   0.00000
   F  -0.1525348   0.0115007   0.0000000 SPIN=   0.00000
%ENDBLOCK POSITIONS_FRAC

# Note: total spin =   8.00

KPOINTS_MP_SPACING 0.07

%BLOCK SPECIES_POT
QC5
%ENDBLOCK SPECIES_POT

SNAP_TO_SYMMETRY
SYMMETRY_GENERATE

