#              Generated by Buildcell
#
# at 03:02:13 (GMT+1.0) 4th August 2020
# in /lustre/scratch/uccabz1/launch_tmp
# on node-c12g-036
# by uccabz1
#
# compiler GCC version 4.9.2
# options -cpp -iprefix /lustre/shared/ucl/apps/gcc/4.9.2/bin/../lib/gcc/x86_64-unknown-linux-gnu/4.9.2/ -mtune=corei7 -march=x86-64 -g -Og
#
# seed -2038266020  -754376487  -383354192  -132304897   100542421   704420422 -1663841885  2071215909   673434711  1232871584  1826273686  1536139241
#
#      Author: C. J. Pickard (cjp20@cam.ac.uk)
#                Space group: C2
#

%BLOCK LATTICE_ABC
      3.92345      6.76156      7.89358
     88.95141     86.38358     73.13431
%ENDBLOCK LATTICE_ABC

%BLOCK POSITIONS_FRAC
  Li  -0.1869090   0.3738180   0.5000000 SPIN=   0.00000
  Li  -0.4608998  -0.0782004  -0.0000000 SPIN=   0.00000
  Fe  -0.1314925   0.2629849   0.0000000 SPIN=   4.35963
  Fe  -0.5172359   0.0344718   0.5000000 SPIN=   3.64037
   O  -0.1271226  -0.2129778   0.3734555 SPIN=   0.00000
   O  -0.1913289  -0.5012639   0.2017420 SPIN=   0.00000
   O   0.3503988  -0.5458989   0.3603174 SPIN=   0.00000
   S   0.0703862  -0.3945028   0.2609474 SPIN=   0.00000
   O   0.3401004  -0.2129778  -0.3734555 SPIN=   0.00000
   O   0.6925928  -0.5012639  -0.2017420 SPIN=   0.00000
   O   0.1955001  -0.5458989  -0.3603174 SPIN=   0.00000
   S   0.3241166  -0.3945028  -0.2609474 SPIN=   0.00000
   O   0.1067976  -0.2135952  -0.0000000 SPIN=   0.00000
   O   0.2817207   0.4365586   0.0000000 SPIN=   0.00000
   F   0.6651006   0.0745168  -0.2340039 SPIN=   0.00000
   F   0.2603826   0.0745168   0.2340039 SPIN=   0.00000
%ENDBLOCK POSITIONS_FRAC

# Note: total spin =   8.00

KPOINTS_MP_SPACING 0.07

%BLOCK SPECIES_POT
QC5
%ENDBLOCK SPECIES_POT

SNAP_TO_SYMMETRY
SYMMETRY_GENERATE

