#              Generated by Buildcell
#
# at 05:43:32 (GMT+1.0) 4th August 2020
# in /lustre/scratch/uccabz1/launch_tmp
# on node-c12e-015
# by uccabz1
#
# compiler GCC version 4.9.2
# options -cpp -iprefix /lustre/shared/ucl/apps/gcc/4.9.2/bin/../lib/gcc/x86_64-unknown-linux-gnu/4.9.2/ -mtune=corei7 -march=x86-64 -g -Og
#
# seed  1966287196   504609075   232548303    -1946509  -513626712 -1606350236  -114514909  1337514508    16325876   995900926 -1090628779   974027697
#
#      Author: C. J. Pickard (cjp20@cam.ac.uk)
#                Space group: Pm
#

%BLOCK LATTICE_ABC
      4.26517      5.74665      8.16113
     90.00000     90.00000     91.03916
%ENDBLOCK LATTICE_ABC

%BLOCK POSITIONS_FRAC
  Li   0.1561061  -0.2575610  -0.5000000 SPIN=   0.00000
  Li   0.4739577   0.0306586   0.0000000 SPIN=   0.00000
  Fe  -0.0973764  -0.4681061  -0.0000000 SPIN=   3.21556
  Fe  -0.3600129   0.3834109   0.5000000 SPIN=   4.78444
   O   0.1717956  -0.1463773   0.1427812 SPIN=   0.00000
   O  -0.0780359   0.2389757   0.1427873 SPIN=   0.00000
   O   0.3087945   0.1425169   0.3572149 SPIN=   0.00000
   O  -0.2150254  -0.0499286   0.3572158 SPIN=   0.00000
   S   0.0468822   0.0462967   0.2499998 SPIN=   0.00000
   O   0.1717956  -0.1463773  -0.1427812 SPIN=   0.00000
   O  -0.0780359   0.2389757  -0.1427873 SPIN=   0.00000
   O   0.3087945   0.1425169  -0.3572149 SPIN=   0.00000
   O  -0.2150254  -0.0499286  -0.3572158 SPIN=   0.00000
   S   0.0468822   0.0462967  -0.2499998 SPIN=   0.00000
   F  -0.4531310  -0.4537011  -0.2709934 SPIN=   0.00000
   F  -0.4531310  -0.4537011   0.2709934 SPIN=   0.00000
%ENDBLOCK POSITIONS_FRAC

# Note: total spin =   8.00

KPOINTS_MP_SPACING 0.07

%BLOCK SPECIES_POT
QC5
%ENDBLOCK SPECIES_POT

SNAP_TO_SYMMETRY
SYMMETRY_GENERATE

