#              Generated by Buildcell
#
# at 05:42:06 (GMT+1.0) 4th August 2020
# in /lustre/scratch/uccabz1/launch_tmp
# on node-c12g-005
# by uccabz1
#
# compiler GCC version 4.9.2
# options -cpp -iprefix /lustre/shared/ucl/apps/gcc/4.9.2/bin/../lib/gcc/x86_64-unknown-linux-gnu/4.9.2/ -mtune=corei7 -march=x86-64 -g -Og
#
# seed   -56852955  1359223076  1878960815  1243378468 -2099203079    65577290   621075361 -1521330521  -982294376 -1663969056   764305465   922423226
#
#      Author: C. J. Pickard (cjp20@cam.ac.uk)
#                Space group: Pc
#

%BLOCK LATTICE_ABC
      4.18119      5.83471      8.46624
    104.45978     90.00000     90.00000
%ENDBLOCK LATTICE_ABC

%BLOCK POSITIONS_FRAC
  Li  -0.2217596   0.1445296  -0.3504391 SPIN=   0.00000
  Li   0.2217596   0.1445296   0.1495609 SPIN=   0.00000
  Fe   0.4792552  -0.3496088   0.2920655 SPIN=   4.00000
  Fe  -0.4792552  -0.3496088  -0.2079345 SPIN=   4.00000
   O   0.2617687   0.0976225   0.6125496 SPIN=   0.00000
   O   0.4779941   0.0643391   0.3356102 SPIN=   0.00000
   O   0.4298306   0.4574938   0.5299525 SPIN=   0.00000
   O  -0.0564601   0.2406887   0.4099313 SPIN=   0.00000
   S   0.2782833   0.2150360   0.4720109 SPIN=   0.00000
   O  -0.2617687   0.0976225   0.1125496 SPIN=   0.00000
   O  -0.4779941   0.0643391  -0.1643898 SPIN=   0.00000
   O  -0.4298306   0.4574938   0.0299525 SPIN=   0.00000
   O   0.0564601   0.2406887  -0.0900687 SPIN=   0.00000
   S  -0.2782833   0.2150360  -0.0279891 SPIN=   0.00000
   F  -0.0949613  -0.3412105   0.3335269 SPIN=   0.00000
   F   0.0949613  -0.3412105  -0.1664731 SPIN=   0.00000
%ENDBLOCK POSITIONS_FRAC

# Note: total spin =   8.00

KPOINTS_MP_SPACING 0.07

%BLOCK SPECIES_POT
QC5
%ENDBLOCK SPECIES_POT

SNAP_TO_SYMMETRY
SYMMETRY_GENERATE

