#              Generated by Buildcell
#
# at 03:40:57 (GMT+1.0) 4th August 2020
# in /lustre/scratch/uccabz1/launch_tmp
# on node-c12h-009
# by uccabz1
#
# compiler GCC version 4.9.2
# options -cpp -iprefix /lustre/shared/ucl/apps/gcc/4.9.2/bin/../lib/gcc/x86_64-unknown-linux-gnu/4.9.2/ -mtune=corei7 -march=x86-64 -g -Og
#
# seed -1520077509  1390617615   431270729 -1962117851   -74675799  -365222390  -336702882   863543876  -464684069 -1337301646   -38247780 -1833707016
#
#      Author: C. J. Pickard (cjp20@cam.ac.uk)
#                Space group: P21
#

%BLOCK LATTICE_ABC
      3.99207      6.84299      7.78055
    109.78485     90.00000     90.00000
%ENDBLOCK LATTICE_ABC

%BLOCK POSITIONS_FRAC
  Li  -0.0787242   0.2024046  -0.2871687 SPIN=   0.00000
  Li   0.4212758  -0.2024046   0.2871687 SPIN=   0.00000
  Fe  -0.2422158   0.2660910   0.3660489 SPIN=   4.00000
  Fe   0.2577842  -0.2660910  -0.3660489 SPIN=   4.00000
   O  -0.0277055  -0.1027991  -0.0874668 SPIN=   0.00000
   O  -0.0267090  -0.4775068  -0.1282038 SPIN=   0.00000
   O  -0.5385054  -0.2680438  -0.0192339 SPIN=   0.00000
   O  -0.0432235  -0.2160982   0.1826505 SPIN=   0.00000
   S  -0.1590358  -0.2661120  -0.0130635 SPIN=   0.00000
   O   0.4722945   0.1027991   0.0874668 SPIN=   0.00000
   O   0.4732910   0.4775068   0.1282038 SPIN=   0.00000
   O  -0.0385054   0.2680438   0.0192339 SPIN=   0.00000
   O   0.4567765   0.2160982  -0.1826505 SPIN=   0.00000
   S   0.3409642   0.2661120   0.0130635 SPIN=   0.00000
   F  -0.2423318  -0.2370110  -0.4664341 SPIN=   0.00000
   F   0.2576682   0.2370110   0.4664341 SPIN=   0.00000
%ENDBLOCK POSITIONS_FRAC

# Note: total spin =   8.00

KPOINTS_MP_SPACING 0.07

%BLOCK SPECIES_POT
QC5
%ENDBLOCK SPECIES_POT

SNAP_TO_SYMMETRY
SYMMETRY_GENERATE

