#              Generated by Buildcell
#
# at 22:47:34 (GMT+1.0) 18th August 2020
# in /scratch/scratch/uccabz1/launch_tmp
# on node-k10i-015
# by uccabz1
#
# compiler GCC version 4.9.2
# options -cpp -iprefix /scratch/UCL/applications/gcc/4.9.2/bin/../lib/gcc/x86_64-unknown-linux-gnu/4.9.2/ -mtune=corei7 -march=x86-64 -g -O2
#
# seed  2141744223  -733839611  2000416888 -2082831875   754600867   659168296   173235456   -95398879  2055074840   990727989  -674062174 -1095665578
#
#      Author: C. J. Pickard (cjp20@cam.ac.uk)
#                Space group: C2
#

%BLOCK LATTICE_ABC
      3.90938      7.32859      7.32859
     80.50343     78.58171     78.58171
%ENDBLOCK LATTICE_ABC

%BLOCK POSITIONS_FRAC
  Li   0.4915118  -0.3106113  -0.0281089 SPIN=   0.00000
  Li  -0.4915118   0.0281089   0.3106113 SPIN=   0.00000
  Fe   0.0000000  -0.3301272   0.3301272 SPIN=   4.85626
  Fe   0.5000000   0.3188966  -0.3188966 SPIN=   3.14374
   O   0.2814666   0.2302803   0.0832069 SPIN=   0.00000
   O  -0.0785982   0.5490009   0.0728523 SPIN=   0.00000
   O  -0.3351615   0.2775953   0.2547649 SPIN=   0.00000
   O  -0.2189781   0.3119390  -0.0925652 SPIN=   0.00000
   S  -0.0878178   0.3422039   0.0795647 SPIN=   0.00000
   O  -0.2814666  -0.0832069  -0.2302803 SPIN=   0.00000
   O   0.0785982  -0.0728523  -0.5490009 SPIN=   0.00000
   O   0.3351615  -0.2547649  -0.2775953 SPIN=   0.00000
   O   0.2189781   0.0925652  -0.3119390 SPIN=   0.00000
   S   0.0878178  -0.0795647  -0.3422039 SPIN=   0.00000
   F   0.5000000  -0.4864634   0.4864634 SPIN=   0.00000
   F   0.0000000  -0.1346496   0.1346496 SPIN=   0.00000
%ENDBLOCK POSITIONS_FRAC

# Note: total spin =   8.00

KPOINTS_MP_SPACING 0.07

%BLOCK SPECIES_POT
QC5
%ENDBLOCK SPECIES_POT

SNAP_TO_SYMMETRY
SYMMETRY_GENERATE

