#              Generated by Buildcell
#
# at 02:46:03 (GMT+1.0) 4th August 2020
# in /lustre/scratch/uccabz1/launch_tmp
# on node-c12h-010
# by uccabz1
#
# compiler GCC version 4.9.2
# options -cpp -iprefix /lustre/shared/ucl/apps/gcc/4.9.2/bin/../lib/gcc/x86_64-unknown-linux-gnu/4.9.2/ -mtune=corei7 -march=x86-64 -g -Og
#
# seed  -842628894  1149171250  -799051362  1958945971  1160037291  2055670669   248367364 -1011028447 -1113925647 -1489271373   364623211   719626995
#
#      Author: C. J. Pickard (cjp20@cam.ac.uk)
#                Space group: P21
#

%BLOCK LATTICE_ABC
      4.89517      6.44976      6.55090
     90.00000     90.00000    104.76482
%ENDBLOCK LATTICE_ABC

%BLOCK POSITIONS_FRAC
  Li   0.1778340  -0.2596617   0.2617120 SPIN=   0.00000
  Li  -0.1778340   0.2596617  -0.2382880 SPIN=   0.00000
  Fe   0.3235881   0.3824800   0.4880261 SPIN=   4.00000
  Fe  -0.3235881  -0.3824800  -0.0119739 SPIN=   4.00000
   O   0.1286342  -0.1839573  -0.0339989 SPIN=   0.00000
   O   0.1658805  -0.1447570  -0.4095116 SPIN=   0.00000
   O   0.5968293  -0.0477073  -0.1960205 SPIN=   0.00000
   O   0.2564020   0.1776051  -0.1896021 SPIN=   0.00000
   S   0.2869365  -0.0497041  -0.2072833 SPIN=   0.00000
   O  -0.1286342   0.1839573   0.4660011 SPIN=   0.00000
   O  -0.1658805   0.1447570   0.0904884 SPIN=   0.00000
   O  -0.5968293   0.0477073   0.3039795 SPIN=   0.00000
   O  -0.2564020  -0.1776051   0.3103979 SPIN=   0.00000
   S  -0.2869365   0.0497041   0.2927167 SPIN=   0.00000
   F  -0.3554609  -0.4821169  -0.3768296 SPIN=   0.00000
   F   0.3554609   0.4821169   0.1231704 SPIN=   0.00000
%ENDBLOCK POSITIONS_FRAC

# Note: total spin =   8.00

KPOINTS_MP_SPACING 0.07

%BLOCK SPECIES_POT
QC5
%ENDBLOCK SPECIES_POT

SNAP_TO_SYMMETRY
SYMMETRY_GENERATE

