#              Generated by Buildcell
#
# at 21:11:40 (GMT+1.0) 18th August 2020
# in /scratch/scratch/uccabz1/launch_tmp
# on node-k10c-028
# by uccabz1
#
# compiler GCC version 4.9.2
# options -cpp -iprefix /scratch/UCL/applications/gcc/4.9.2/bin/../lib/gcc/x86_64-unknown-linux-gnu/4.9.2/ -mtune=corei7 -march=x86-64 -g -O2
#
# seed  1385964943 -1056027939  -851781264  2047215539  -587420704  1446658583  -617812306 -1526308107  1532336677 -1620678986  -629996484   -75463247
#
#      Author: C. J. Pickard (cjp20@cam.ac.uk)
#                Space group: P2221
#

%BLOCK LATTICE_ABC
      4.57613      5.53463      7.89665
     90.00000     90.00000     90.00000
%ENDBLOCK LATTICE_ABC

%BLOCK POSITIONS_FRAC
  Li   0.4533681  -0.0000000   0.2500000 SPIN=   0.00000
  Li  -0.4533681   0.0000000  -0.2500000 SPIN=   0.00000
  Fe   0.1173900   0.5000000   0.2500000 SPIN=   4.00000
  Fe  -0.1173900  -0.5000000  -0.2500000 SPIN=   4.00000
   O  -0.0166394   0.1473300   0.3537769 SPIN=   0.00000
   O   0.2299847   0.2073770   0.0780461 SPIN=   0.00000
   O   0.0166394  -0.1473300  -0.1462231 SPIN=   0.00000
   O  -0.2299847  -0.2073770  -0.4219539 SPIN=   0.00000
   O  -0.0166394  -0.1473300   0.1462231 SPIN=   0.00000
   O   0.2299847  -0.2073770   0.4219539 SPIN=   0.00000
   O   0.0166394   0.1473300  -0.3537769 SPIN=   0.00000
   O  -0.2299847   0.2073770  -0.0780461 SPIN=   0.00000
   S   0.0000000   0.0193194   0.0000000 SPIN=   0.00000
   S  -0.0000000  -0.0193194  -0.5000000 SPIN=   0.00000
   F   0.3925125  -0.5000000  -0.2500000 SPIN=   0.00000
   F  -0.3925125  -0.5000000   0.2500000 SPIN=   0.00000
%ENDBLOCK POSITIONS_FRAC

# Note: total spin =   8.00

KPOINTS_MP_SPACING 0.07

%BLOCK SPECIES_POT
QC5
%ENDBLOCK SPECIES_POT

SNAP_TO_SYMMETRY
SYMMETRY_GENERATE

