#              Generated by Buildcell
#
# at 01:28:30 (GMT+1.0) 19th August 2020
# in /lustre/scratch/uccabz1/launch_tmp
# on node-c12o-016
# by uccabz1
#
# compiler GCC version 4.9.2
# options -cpp -iprefix /lustre/shared/ucl/apps/gcc/4.9.2/bin/../lib/gcc/x86_64-unknown-linux-gnu/4.9.2/ -mtune=corei7 -march=x86-64 -g -Og
#
# seed  -970438607  1439653478 -1854916144 -1683277850  2117157531  1460277218  1000052758  -826073274 -1233129901 -1899624382 -1354527459  -419474062
#
#      Author: C. J. Pickard (cjp20@cam.ac.uk)
#                Space group: Pm
#

%BLOCK LATTICE_ABC
      3.89334      6.42085      8.12200
     90.00000     90.00000     99.92460
%ENDBLOCK LATTICE_ABC

%BLOCK POSITIONS_FRAC
  Li   0.3482637  -0.1653037  -0.2435930 SPIN=   0.00000
  Li   0.3482637  -0.1653037   0.2435930 SPIN=   0.00000
  Fe  -0.1109041  -0.0213853  -0.5000000 SPIN=   3.97134
  Fe   0.0379848   0.0985602   0.0000000 SPIN=   4.02866
   O  -0.5639736   0.2968587  -0.3577610 SPIN=   0.00000
   O  -0.1076306   0.3450259  -0.1423108 SPIN=   0.00000
   O  -0.5648253   0.5692682  -0.1422570 SPIN=   0.00000
   O  -0.1085418   0.6175300  -0.3577351 SPIN=   0.00000
   O  -0.5639736   0.2968587   0.3577610 SPIN=   0.00000
   O  -0.1076306   0.3450259   0.1423108 SPIN=   0.00000
   O  -0.5648253   0.5692682   0.1422570 SPIN=   0.00000
   O  -0.1085418   0.6175300   0.3577351 SPIN=   0.00000
   S  -0.2894770   0.4596068  -0.5000000 SPIN=   0.00000
   S  -0.1407425  -0.4200852   0.0000000 SPIN=   0.00000
   F   0.4894283   0.0430242   0.0000000 SPIN=   0.00000
   F   0.3402690  -0.0774127  -0.5000000 SPIN=   0.00000
%ENDBLOCK POSITIONS_FRAC

# Note: total spin =   8.00

KPOINTS_MP_SPACING 0.07

%BLOCK SPECIES_POT
QC5
%ENDBLOCK SPECIES_POT

SNAP_TO_SYMMETRY
SYMMETRY_GENERATE

