#              Generated by Buildcell
#
# at 21:30:24 (GMT+1.0) 18th August 2020
# in /lustre/scratch/uccabz1/launch_tmp
# on node-c12a-035
# by uccabz1
#
# compiler GCC version 4.9.2
# options -cpp -iprefix /lustre/shared/ucl/apps/gcc/4.9.2/bin/../lib/gcc/x86_64-unknown-linux-gnu/4.9.2/ -mtune=corei7 -march=x86-64 -g -Og
#
# seed   218465242  1993487051  1406492308  -840075542   170312861  1961248414   656620494  1425042308  1518520760   607713185  1856577175  1653660499
#
#      Author: C. J. Pickard (cjp20@cam.ac.uk)
#                Space group: Cc
#

%BLOCK LATTICE_ABC
      3.90544      6.23236      8.74437
     87.40460     81.69019     71.74059
%ENDBLOCK LATTICE_ABC

%BLOCK POSITIONS_FRAC
  Li   0.3093733   0.2444915   0.1478377 SPIN=   0.00000
  Li   0.0538647  -0.2444915  -0.3521623 SPIN=   0.00000
  Fe   0.0040214  -0.0172403  -0.0486212 SPIN=   4.00000
  Fe   0.4867811   0.0172403   0.4513788 SPIN=   4.00000
   O   0.1556439   0.5093167   0.0009398 SPIN=   0.00000
   O   0.4545928   0.6792903  -0.2189793 SPIN=   0.00000
   O   0.3331541   0.3191951  -0.2538143 SPIN=   0.00000
   O   0.8066937   0.3292987  -0.0967667 SPIN=   0.00000
   S   0.4375211   0.4592752  -0.1421551 SPIN=   0.00000
   O   0.1649606  -0.5093167   0.5009398 SPIN=   0.00000
   O   0.6338831  -0.6792903   0.2810207 SPIN=   0.00000
   O   0.1523492  -0.3191951   0.2461857 SPIN=   0.00000
   O   0.6359925  -0.3292987   0.4032333 SPIN=   0.00000
   S   0.3967963  -0.4592752   0.3578449 SPIN=   0.00000
   F  -0.4402954  -0.0770332   0.0535628 SPIN=   0.00000
   F  -0.0173286   0.0770332  -0.4464372 SPIN=   0.00000
%ENDBLOCK POSITIONS_FRAC

# Note: total spin =   8.00

KPOINTS_MP_SPACING 0.07

%BLOCK SPECIES_POT
QC5
%ENDBLOCK SPECIES_POT

SNAP_TO_SYMMETRY
SYMMETRY_GENERATE

