#              Generated by Buildcell
#
# at 04:51:02 (GMT+1.0) 4th August 2020
# in /lustre/scratch/uccabz1/launch_tmp
# on node-c12c-001
# by uccabz1
#
# compiler GCC version 4.9.2
# options -cpp -iprefix /lustre/shared/ucl/apps/gcc/4.9.2/bin/../lib/gcc/x86_64-unknown-linux-gnu/4.9.2/ -mtune=corei7 -march=x86-64 -g -Og
#
# seed  -158286596  -967749895 -1594697221  1180636610  1883826876  1449598687  1860683430   -21833659   -29169707   -78927680 -1642516950  1564747882
#
#      Author: C. J. Pickard (cjp20@cam.ac.uk)
#                Space group: P2/c
#

%BLOCK LATTICE_ABC
      5.58245      5.97860      6.43339
    111.33592     90.00000     90.00000
%ENDBLOCK LATTICE_ABC

%BLOCK POSITIONS_FRAC
  Li   0.2827128   0.2500000   0.5000000 SPIN=   0.00000
  Li  -0.2827128   0.7500000   0.5000000 SPIN=   0.00000
  Fe   0.3194642  -0.2500000   0.0000000 SPIN=   4.00000
  Fe  -0.3194642   0.2500000  -0.0000000 SPIN=   4.00000
   O   0.3633198  -0.1514668  -0.6437471 SPIN=   0.00000
   O   0.0464644  -0.0619860  -0.3558227 SPIN=   0.00000
   O   0.3633198   0.6514668   0.6437471 SPIN=   0.00000
   O   0.0464644   0.5619860   0.3558227 SPIN=   0.00000
   O  -0.3633198   0.1514668   0.6437471 SPIN=   0.00000
   O  -0.0464644   0.0619860   0.3558227 SPIN=   0.00000
   O  -0.3633198  -0.6514668  -0.6437471 SPIN=   0.00000
   O  -0.0464644  -0.5619860  -0.3558227 SPIN=   0.00000
   S   0.2201454  -0.2500000  -0.5000000 SPIN=   0.00000
   S  -0.2201454   0.2500000   0.5000000 SPIN=   0.00000
   F   0.2499410   0.2500000   0.0000000 SPIN=   0.00000
   F  -0.2499410  -0.2500000  -0.0000000 SPIN=   0.00000
%ENDBLOCK POSITIONS_FRAC

# Note: total spin =   8.00

KPOINTS_MP_SPACING 0.07

%BLOCK SPECIES_POT
QC5
%ENDBLOCK SPECIES_POT

SNAP_TO_SYMMETRY
SYMMETRY_GENERATE

