#              Generated by Buildcell
#
# at 02:20:16 (GMT+1.0) 19th August 2020
# in /scratch/scratch/uccabz1/launch_tmp
# on node-k10b-028
# by uccabz1
#
# compiler GCC version 4.9.2
# options -cpp -iprefix /scratch/UCL/applications/gcc/4.9.2/bin/../lib/gcc/x86_64-unknown-linux-gnu/4.9.2/ -mtune=corei7 -march=x86-64 -g -O2
#
# seed -1841713457 -1310518847 -1365722918  -162255180 -1943525248  1595380737  2097078885 -1300607184  1200875017 -1041935709   708619793 -1231965655
#
#      Author: C. J. Pickard (cjp20@cam.ac.uk)
#                Space group: Pba2
#

%BLOCK LATTICE_ABC
      5.40900      6.04322      6.11850
     90.00000     90.00000     90.00000
%ENDBLOCK LATTICE_ABC

%BLOCK POSITIONS_FRAC
  Li   0.0722592  -0.0000000  -0.0000000 SPIN=   0.00000
  Li   0.0722592   0.5000000   0.5000000 SPIN=   0.00000
  Fe  -0.2033836  -0.0000000   0.5000000 SPIN=   4.00000
  Fe  -0.2033836   0.5000000  -0.0000000 SPIN=   4.00000
   O  -0.2274403   0.1739941  -0.0587356 SPIN=   0.00000
   O  -0.4845637  -0.0854918  -0.2738113 SPIN=   0.00000
   O  -0.2274403  -0.1739941   0.0587356 SPIN=   0.00000
   O  -0.4845637   0.0854918   0.2738113 SPIN=   0.00000
   O  -0.2274403  -0.3260059  -0.4412644 SPIN=   0.00000
   O  -0.4845637  -0.5854918  -0.2261887 SPIN=   0.00000
   O  -0.2274403   0.3260059   0.4412644 SPIN=   0.00000
   O  -0.4845637   0.5854918   0.2261887 SPIN=   0.00000
   S  -0.4277428  -0.0000000  -0.0000000 SPIN=   0.00000
   S  -0.4277428   0.5000000   0.5000000 SPIN=   0.00000
   F   0.1335481  -0.0000000   0.5000000 SPIN=   0.00000
   F   0.1335481   0.5000000  -0.0000000 SPIN=   0.00000
%ENDBLOCK POSITIONS_FRAC

# Note: total spin =   8.00

KPOINTS_MP_SPACING 0.07

%BLOCK SPECIES_POT
QC5
%ENDBLOCK SPECIES_POT

SNAP_TO_SYMMETRY
SYMMETRY_GENERATE

