#              Generated by Buildcell
#
# at 04:39:45 (GMT+1.0) 4th August 2020
# in /lustre/scratch/uccabz1/launch_tmp
# on node-c12k-034
# by uccabz1
#
# compiler GCC version 4.9.2
# options -cpp -iprefix /lustre/shared/ucl/apps/gcc/4.9.2/bin/../lib/gcc/x86_64-unknown-linux-gnu/4.9.2/ -mtune=corei7 -march=x86-64 -g -Og
#
# seed  -613399019   738369878  -654432958   359131270    92027431  1002741663 -2096661030  -150027522  1259148783   -64106848 -1748753255  1479200307
#
#      Author: C. J. Pickard (cjp20@cam.ac.uk)
#                Space group: Cc
#

%BLOCK LATTICE_ABC
      4.74927      4.74927      8.90143
     93.14813     93.14813     92.19285
%ENDBLOCK LATTICE_ABC

%BLOCK POSITIONS_FRAC
  Li   0.3142508   0.1283599   0.3269289 SPIN=   0.00000
  Li  -0.3716401  -0.1857492  -0.1730711 SPIN=   0.00000
  Fe   0.3951852   0.2917181  -0.3516995 SPIN=   4.00000
  Fe  -0.2082819  -0.1048148   0.1483005 SPIN=   4.00000
   O  -0.4006599   0.4935003   0.3236747 SPIN=   0.00000
   O  -0.1046942   0.5692394   0.5611487 SPIN=   0.00000
   O   0.1197223   0.5280592   0.3168990 SPIN=   0.00000
   O  -0.1135734   0.1082954   0.4167122 SPIN=   0.00000
   S  -0.1248013   0.4247736   0.4046086 SPIN=   0.00000
   O  -0.0064997   0.0993401  -0.1763253 SPIN=   0.00000
   O   0.0692394   0.3953058   0.0611487 SPIN=   0.00000
   O   0.0280592   0.6197223  -0.1831010 SPIN=   0.00000
   O  -0.3917046   0.3864266  -0.0832878 SPIN=   0.00000
   S  -0.0752264   0.3751987  -0.0953914 SPIN=   0.00000
   F   0.4164282  -0.1066989  -0.3680304 SPIN=   0.00000
   F   0.3933011  -0.0835718   0.1319696 SPIN=   0.00000
%ENDBLOCK POSITIONS_FRAC

# Note: total spin =   8.00

KPOINTS_MP_SPACING 0.07

%BLOCK SPECIES_POT
QC5
%ENDBLOCK SPECIES_POT

SNAP_TO_SYMMETRY
SYMMETRY_GENERATE

