#              Generated by Buildcell
#
# at 02:46:11 (GMT+1.0) 4th August 2020
# in /lustre/scratch/uccabz1/launch_tmp
# on node-c12j-008
# by uccabz1
#
# compiler GCC version 4.9.2
# options -cpp -iprefix /lustre/shared/ucl/apps/gcc/4.9.2/bin/../lib/gcc/x86_64-unknown-linux-gnu/4.9.2/ -mtune=corei7 -march=x86-64 -g -Og
#
# seed   507075698  1908496337  1295291714  1170022106  1424088944  1770092329  1693244249 -1411006567 -1999442754 -1934310439  1758874593   846129930
#
#      Author: C. J. Pickard (cjp20@cam.ac.uk)
#                Space group: P-1
#

%BLOCK LATTICE_ABC
      3.94390      6.78311      8.39962
     66.26273     82.41991     76.72103
%ENDBLOCK LATTICE_ABC

%BLOCK POSITIONS_FRAC
  Li   0.2581581  -0.3314922   0.2053643 SPIN=   0.00000
  Li  -0.2581581   0.3314922  -0.2053643 SPIN=   0.00000
  Fe  -0.1592453  -0.2321782  -0.4938269 SPIN=   4.00000
  Fe   0.1592453   0.2321782   0.4938269 SPIN=   4.00000
   O  -0.6164088  -0.0379947   0.1776823 SPIN=   0.00000
   O  -0.7069641   0.3676887   0.0469173 SPIN=   0.00000
   O  -0.1134713   0.1449204   0.0494454 SPIN=   0.00000
   O  -0.4077207   0.1606795   0.3243541 SPIN=   0.00000
   S  -0.4611412   0.1588235   0.1495998 SPIN=   0.00000
   O   0.6164088   0.0379947  -0.1776823 SPIN=   0.00000
   O   0.7069641  -0.3676887  -0.0469173 SPIN=   0.00000
   O   0.1134713  -0.1449204  -0.0494454 SPIN=   0.00000
   O   0.4077207  -0.1606795  -0.3243541 SPIN=   0.00000
   S   0.4611412  -0.1588235  -0.1495998 SPIN=   0.00000
   F  -0.1803338  -0.4508385   0.2930405 SPIN=   0.00000
   F   0.1803338   0.4508385  -0.2930405 SPIN=   0.00000
%ENDBLOCK POSITIONS_FRAC

# Note: total spin =   8.00

KPOINTS_MP_SPACING 0.07

%BLOCK SPECIES_POT
QC5
%ENDBLOCK SPECIES_POT

SNAP_TO_SYMMETRY
SYMMETRY_GENERATE

