#              Generated by Buildcell
#
# at 23:14:01 (GMT+1.0) 18th August 2020
# in /lustre/scratch/uccabz1/launch_tmp
# on node-c12f-006
# by uccabz1
#
# compiler GCC version 4.9.2
# options -cpp -iprefix /lustre/shared/ucl/apps/gcc/4.9.2/bin/../lib/gcc/x86_64-unknown-linux-gnu/4.9.2/ -mtune=corei7 -march=x86-64 -g -Og
#
# seed  -354263643  1949642194   321376961   681494454   806937330  1494555540  -809522310 -2030124619 -1780569821  1377746148  1837291384  1616211918
#
#      Author: C. J. Pickard (cjp20@cam.ac.uk)
#                Space group: Cc
#

%BLOCK LATTICE_ABC
      5.39214      6.47034      6.47034
    114.37358     97.23133     97.23133
%ENDBLOCK LATTICE_ABC

%BLOCK POSITIONS_FRAC
  Li   0.3511673  -0.0815507   0.1304855 SPIN=   0.00000
  Li  -0.1488327   0.1304855  -0.0815507 SPIN=   0.00000
  Fe   0.3691727   0.4780178  -0.2934984 SPIN=   4.00000
  Fe  -0.1308273  -0.2934984   0.4780178 SPIN=   4.00000
   O  -0.0362948   0.3467072   0.6751369 SPIN=   0.00000
   O  -0.4508757   0.0827648   0.4639276 SPIN=   0.00000
   O  -0.0585167  -0.0018313   0.3110928 SPIN=   0.00000
   O  -0.2403815   0.3273645   0.3012262 SPIN=   0.00000
   S  -0.1965172   0.1887513   0.4378459 SPIN=   0.00000
   O   0.4637052   0.6751369   0.3467072 SPIN=   0.00000
   O   0.0491243   0.4639276   0.0827648 SPIN=   0.00000
   O   0.4414833   0.3110928  -0.0018313 SPIN=   0.00000
   O   0.2596185   0.3012262   0.3273645 SPIN=   0.00000
   S   0.3034828   0.4378459   0.1887513 SPIN=   0.00000
   F  -0.2970038  -0.3560640  -0.0787262 SPIN=   0.00000
   F   0.2029962  -0.0787262  -0.3560640 SPIN=   0.00000
%ENDBLOCK POSITIONS_FRAC

# Note: total spin =   8.00

KPOINTS_MP_SPACING 0.07

%BLOCK SPECIES_POT
QC5
%ENDBLOCK SPECIES_POT

SNAP_TO_SYMMETRY
SYMMETRY_GENERATE

