#              Generated by Buildcell
#
# at 01:51:47 (GMT+1.0) 19th August 2020
# in /lustre/scratch/uccabz1/launch_tmp
# on node-c12a-003
# by uccabz1
#
# compiler GCC version 4.9.2
# options -cpp -iprefix /lustre/shared/ucl/apps/gcc/4.9.2/bin/../lib/gcc/x86_64-unknown-linux-gnu/4.9.2/ -mtune=corei7 -march=x86-64 -g -Og
#
# seed  -830814415  1562734635 -1953187919  -416479706 -1755529644  -164955558   667925595  1231266050  1298744162   598804428   658048682   573233828
#
#      Author: C. J. Pickard (cjp20@cam.ac.uk)
#                Space group: Cc
#

%BLOCK LATTICE_ABC
      5.65257      6.41094      6.43186
    105.26905     90.00000    116.15837
%ENDBLOCK LATTICE_ABC

%BLOCK POSITIONS_FRAC
  Li   0.4822553   0.2512215   0.2001394 SPIN=   0.00000
  Li  -0.2310339   0.2512215  -0.2998606 SPIN=   0.00000
  Fe   0.1844958   0.0822754  -0.4362440 SPIN=   4.00000
  Fe  -0.1022204   0.0822754   0.0637560 SPIN=   4.00000
   O  -0.5413900  -0.4264975  -0.2034020 SPIN=   0.00000
   O  -0.2283566  -0.0889101  -0.3352920 SPIN=   0.00000
   O  -0.5423021  -0.4787812  -0.5986586 SPIN=   0.00000
   O  -0.1650000  -0.4559447  -0.3822351 SPIN=   0.00000
   S  -0.3692622  -0.3625334  -0.3798969 SPIN=   0.00000
   O   0.1148926  -0.4264975   0.2965980 SPIN=   0.00000
   O   0.1394465  -0.0889101   0.1647080 SPIN=   0.00000
   O   0.0635209  -0.4787812  -0.0986586 SPIN=   0.00000
   O  -0.2909447  -0.4559447   0.1177649 SPIN=   0.00000
   S   0.0067288  -0.3625334   0.1201031 SPIN=   0.00000
   F  -0.2627640   0.0968005   0.3234014 SPIN=   0.00000
   F   0.3595645   0.0968005  -0.1765986 SPIN=   0.00000
%ENDBLOCK POSITIONS_FRAC

# Note: total spin =   8.00

KPOINTS_MP_SPACING 0.07

%BLOCK SPECIES_POT
QC5
%ENDBLOCK SPECIES_POT

SNAP_TO_SYMMETRY
SYMMETRY_GENERATE

