#              Generated by Buildcell
#
# at 04:33:38 (GMT+1.0) 4th August 2020
# in /lustre/scratch/uccabz1/launch_tmp
# on node-c12f-012
# by uccabz1
#
# compiler GCC version 4.9.2
# options -cpp -iprefix /lustre/shared/ucl/apps/gcc/4.9.2/bin/../lib/gcc/x86_64-unknown-linux-gnu/4.9.2/ -mtune=corei7 -march=x86-64 -g -Og
#
# seed   645252798  1717882044 -2136248576  -279717295 -2026792760  -824577512  -894112828  1765487063  1031806197 -1931201224  1921542560   -26448597
#
#      Author: C. J. Pickard (cjp20@cam.ac.uk)
#                Space group: C2
#

%BLOCK LATTICE_ABC
      5.41766      5.41766      8.01365
     96.08124    108.48882    111.97638
%ENDBLOCK LATTICE_ABC

%BLOCK POSITIONS_FRAC
  Li  -0.1263991   0.0397594   0.3685366 SPIN=   0.00000
  Li  -0.3287772  -0.4949357  -0.3685366 SPIN=   0.00000
  Fe   0.1713894  -0.3286106   0.5000000 SPIN=   5.47972
  Fe  -0.0444748  -0.0444748   0.0000000 SPIN=   2.52028
   O  -0.0894936   0.1440770  -0.3149422 SPIN=   0.00000
   O   0.2730458   0.2180254  -0.4529851 SPIN=   0.00000
   O   0.3174540   0.0244251  -0.1845238 SPIN=   0.00000
   O   0.4065030   0.5130471  -0.1514518 SPIN=   0.00000
   S   0.2268773   0.2248936  -0.2759757 SPIN=   0.00000
   O  -0.5409809  -0.7745514   0.3149422 SPIN=   0.00000
   O  -0.3289896  -0.2739691   0.4529851 SPIN=   0.00000
   O  -0.7910511  -0.4980222   0.1845238 SPIN=   0.00000
   O  -0.3355012  -0.4420453   0.1514518 SPIN=   0.00000
   S  -0.4991307  -0.4971470   0.2759757 SPIN=   0.00000
   F  -0.2761663   0.0652694   0.1180477 SPIN=   0.00000
   F  -0.0527783  -0.3942139  -0.1180477 SPIN=   0.00000
%ENDBLOCK POSITIONS_FRAC

# Note: total spin =   8.00

KPOINTS_MP_SPACING 0.07

%BLOCK SPECIES_POT
QC5
%ENDBLOCK SPECIES_POT

SNAP_TO_SYMMETRY
SYMMETRY_GENERATE

