#              Generated by Buildcell
#
# at 01:57:47 (GMT+1.0) 19th August 2020
# in /lustre/scratch/uccabz1/launch_tmp
# on node-c12f-005
# by uccabz1
#
# compiler GCC version 4.9.2
# options -cpp -iprefix /lustre/shared/ucl/apps/gcc/4.9.2/bin/../lib/gcc/x86_64-unknown-linux-gnu/4.9.2/ -mtune=corei7 -march=x86-64 -g -Og
#
# seed   411550890   669459692 -1721506602  -849209799  -778805949  1816114141  -882989346  -382686527 -1645807210  -169920798  -122969817 -1866689527
#
#      Author: C. J. Pickard (cjp20@cam.ac.uk)
#                Space group: Cm
#

%BLOCK LATTICE_ABC
      5.85396      6.13499      6.13499
     81.22600     72.52876     72.52876
%ENDBLOCK LATTICE_ABC

%BLOCK POSITIONS_FRAC
  Li  -0.2906282   0.2213603  -0.2217123 SPIN=   0.00000
  Li  -0.2906282  -0.2217123   0.2213603 SPIN=   0.00000
  Fe   0.0186932   0.4411647  -0.0987766 SPIN=   4.00000
  Fe   0.0186932  -0.0987766   0.4411647 SPIN=   4.00000
   O   0.6485377  -0.1215504  -0.4025981 SPIN=   0.00000
   O   0.3766456   0.0613970  -0.6574986 SPIN=   0.00000
   O   0.4693753   0.2989358  -0.4206243 SPIN=   0.00000
   O   0.1976779   0.0440166  -0.2369784 SPIN=   0.00000
   S   0.4230591   0.0706997  -0.4294248 SPIN=   0.00000
   O   0.6485377  -0.4025981  -0.1215504 SPIN=   0.00000
   O   0.3766456  -0.6574986   0.0613970 SPIN=   0.00000
   O   0.4693753  -0.4206243   0.2989358 SPIN=   0.00000
   O   0.1976779  -0.2369784   0.0440166 SPIN=   0.00000
   S   0.4230591  -0.4294248   0.0706997 SPIN=   0.00000
   F   0.0920821  -0.3237061  -0.3237061 SPIN=   0.00000
   F  -0.0782292   0.2655620   0.2655620 SPIN=   0.00000
%ENDBLOCK POSITIONS_FRAC

# Note: total spin =   8.00

KPOINTS_MP_SPACING 0.07

%BLOCK SPECIES_POT
QC5
%ENDBLOCK SPECIES_POT

SNAP_TO_SYMMETRY
SYMMETRY_GENERATE

