#              Generated by Buildcell
#
# at 01:59:04 (GMT+1.0) 19th August 2020
# in /scratch/scratch/uccabz1/launch_tmp
# on node-k10i-031
# by uccabz1
#
# compiler GCC version 4.9.2
# options -cpp -iprefix /scratch/UCL/applications/gcc/4.9.2/bin/../lib/gcc/x86_64-unknown-linux-gnu/4.9.2/ -mtune=corei7 -march=x86-64 -g -O2
#
# seed   159555579  -912343057   835257293  1586089257 -1381486397  1260122645  -275997683   352131666   157308799  -243647865  -449291314 -1956224421
#
#      Author: C. J. Pickard (cjp20@cam.ac.uk)
#                Space group: Cc
#

%BLOCK LATTICE_ABC
      5.74360      5.74360      7.45563
     99.40788    104.74849    117.21651
%ENDBLOCK LATTICE_ABC

%BLOCK POSITIONS_FRAC
  Li   0.0756940  -0.4576330   0.4854226 SPIN=   0.00000
  Li   0.4430556   0.4097285  -0.0145774 SPIN=   0.00000
  Fe   0.2044729   0.0921337   0.4424513 SPIN=   4.00000
  Fe  -0.1496824   0.2379784  -0.0575487 SPIN=   4.00000
   O  -0.0869576  -0.5318958  -0.3005863 SPIN=   0.00000
   O  -0.3488169  -0.3666325  -0.1558422 SPIN=   0.00000
   O  -0.3727091  -0.3759480  -0.4932934 SPIN=   0.00000
   O   0.0698757  -0.0348561  -0.2096657 SPIN=   0.00000
   S  -0.1846520  -0.3273331  -0.2898469 SPIN=   0.00000
   O  -0.2686904  -0.2136287   0.1994137 SPIN=   0.00000
   O  -0.2892097   0.1929747   0.3441578 SPIN=   0.00000
   O  -0.6173454  -0.1205843   0.0067066 SPIN=   0.00000
   O  -0.6748096  -0.2795414   0.2903343 SPIN=   0.00000
   S  -0.4625138  -0.1051949   0.2101531 SPIN=   0.00000
   F   0.4338622  -0.0168620  -0.3608132 SPIN=   0.00000
   F   0.1560489   0.2053246   0.1391868 SPIN=   0.00000
%ENDBLOCK POSITIONS_FRAC

# Note: total spin =   8.00

KPOINTS_MP_SPACING 0.07

%BLOCK SPECIES_POT
QC5
%ENDBLOCK SPECIES_POT

SNAP_TO_SYMMETRY
SYMMETRY_GENERATE

