#              Generated by Buildcell
#
# at 04:46:25 (GMT+1.0) 4th August 2020
# in /lustre/scratch/uccabz1/launch_tmp
# on node-c12k-036
# by uccabz1
#
# compiler GCC version 4.9.2
# options -cpp -iprefix /lustre/shared/ucl/apps/gcc/4.9.2/bin/../lib/gcc/x86_64-unknown-linux-gnu/4.9.2/ -mtune=corei7 -march=x86-64 -g -Og
#
# seed   474902657 -1650800832   610467417  -917937229 -2041117638 -2135171807   598766647   767775958  1969648501  -167263233 -1332269772  2005024556
#
#      Author: C. J. Pickard (cjp20@cam.ac.uk)
#                Space group: P42
#

%BLOCK LATTICE_ABC
      4.35423      4.35423     10.54889
     90.00000     90.00000     90.00000
%ENDBLOCK LATTICE_ABC

%BLOCK POSITIONS_FRAC
  Li  -0.5000000   0.0000000  -0.0007396 SPIN=   0.00000
  Li   0.0000000   0.5000000   0.4992604 SPIN=   0.00000
  Fe  -0.5000000   0.0000000   0.3625255 SPIN=   4.00000
  Fe   0.0000000  -0.5000000  -0.1374745 SPIN=   4.00000
   O  -0.2499974   0.0093888  -0.1751728 SPIN=   0.00000
   O   0.0629837   0.2525769  -0.3433276 SPIN=   0.00000
   O   0.2499974  -0.0093888  -0.1751728 SPIN=   0.00000
   O  -0.0629837  -0.2525769  -0.3433276 SPIN=   0.00000
   O  -0.0093888  -0.2499974   0.3248272 SPIN=   0.00000
   O  -0.2525769   0.0629837   0.1566724 SPIN=   0.00000
   O   0.0093888   0.2499974   0.3248272 SPIN=   0.00000
   O   0.2525769  -0.0629837   0.1566724 SPIN=   0.00000
   S   0.5000000   0.0000000  -0.2723923 SPIN=   0.00000
   S   0.0000000   0.5000000   0.2276077 SPIN=   0.00000
   F   0.5000000  -0.5000000  -0.0223851 SPIN=   0.00000
   F   0.5000000  -0.5000000   0.4776149 SPIN=   0.00000
%ENDBLOCK POSITIONS_FRAC

# Note: total spin =   8.00

KPOINTS_MP_SPACING 0.07

%BLOCK SPECIES_POT
QC5
%ENDBLOCK SPECIES_POT

SNAP_TO_SYMMETRY
SYMMETRY_GENERATE

