#              Generated by Buildcell
#
# at 01:16:01 (GMT+1.0) 19th August 2020
# in /lustre/scratch/uccabz1/launch_tmp
# on node-c12j-020
# by uccabz1
#
# compiler GCC version 4.9.2
# options -cpp -iprefix /lustre/shared/ucl/apps/gcc/4.9.2/bin/../lib/gcc/x86_64-unknown-linux-gnu/4.9.2/ -mtune=corei7 -march=x86-64 -g -Og
#
# seed  -481788681  1334000071  1270435820 -1968064593  2057269757  -260692302 -2125711411  1556487398  1123078108 -2041830465  -824487415  -645649367
#
#      Author: C. J. Pickard (cjp20@cam.ac.uk)
#                Space group: C2
#

%BLOCK LATTICE_ABC
      3.89455      6.79790      8.48026
    112.95087    102.16094     92.71227
%ENDBLOCK LATTICE_ABC

%BLOCK POSITIONS_FRAC
  Li   0.4959058  -0.0261603   0.4648238 SPIN=   0.00000
  Li  -0.0310819   0.4909841   0.4648238 SPIN=   0.00000
  Fe  -0.2053217   0.2867847   0.0597908 SPIN=   4.00000
  Fe   0.2651126  -0.2269939   0.0597908 SPIN=   4.00000
   O  -0.0393048  -0.4563287  -0.2584137 SPIN=   0.00000
   O  -0.4703651  -0.3071034  -0.4250943 SPIN=   0.00000
   O  -0.4174370  -0.2023099  -0.1058798 SPIN=   0.00000
   S  -0.4026740  -0.3846398  -0.2777388 SPIN=   0.00000
   O  -0.2191089   0.1979150  -0.2584137 SPIN=   0.00000
   O   0.0452708  -0.1179909  -0.4250943 SPIN=   0.00000
   O   0.3115572   0.0964301  -0.1058798 SPIN=   0.00000
   S   0.1249352   0.1069009  -0.2777388 SPIN=   0.00000
   O   0.2488475   0.2488475   0.4976949 SPIN=   0.00000
   O   0.4471314   0.4471314  -0.1057373 SPIN=   0.00000
   F  -0.2364332  -0.1211049   0.2492392 SPIN=   0.00000
   F   0.4856724   0.3703441   0.2492392 SPIN=   0.00000
%ENDBLOCK POSITIONS_FRAC

# Note: total spin =   8.00

KPOINTS_MP_SPACING 0.07

%BLOCK SPECIES_POT
QC5
%ENDBLOCK SPECIES_POT

SNAP_TO_SYMMETRY
SYMMETRY_GENERATE

