#              Generated by Buildcell
#
# at 19:30:14 (GMT+1.0) 18th August 2020
# in /scratch/scratch/uccabz1/launch_tmp
# on node-k10h-001
# by uccabz1
#
# compiler GCC version 4.9.2
# options -cpp -iprefix /scratch/UCL/applications/gcc/4.9.2/bin/../lib/gcc/x86_64-unknown-linux-gnu/4.9.2/ -mtune=corei7 -march=x86-64 -g -O2
#
# seed  1038035913  1255359349   795975596  1827338738  1665879652  -841738657   988207930  1551192005 -1582734075 -1210846086 -1974360365 -1458329652
#
#      Author: C. J. Pickard (cjp20@cam.ac.uk)
#                Space group: P-1
#

%BLOCK LATTICE_ABC
      4.39075      6.15387      7.96556
     89.41845     78.96798     71.46674
%ENDBLOCK LATTICE_ABC

%BLOCK POSITIONS_FRAC
  Li   0.5000000   0.0000000   0.5000000 SPIN=   0.00000
  Li  -0.5000000  -0.5000000   0.0000000 SPIN=   0.00000
  Fe   0.1218528   0.4465254  -0.2762336 SPIN=   4.00000
  Fe  -0.1218528  -0.4465254   0.2762336 SPIN=   4.00000
   O   0.1856693  -0.1436729   0.0645650 SPIN=   0.00000
   O  -0.1095649   0.0965113   0.3297681 SPIN=   0.00000
   O   0.4439763   0.1002223   0.1920950 SPIN=   0.00000
   O   0.3750829  -0.2434959   0.3372095 SPIN=   0.00000
   S   0.2237909  -0.0476088   0.2309094 SPIN=   0.00000
   O  -0.1856693   0.1436729  -0.0645650 SPIN=   0.00000
   O   0.1095649  -0.0965113  -0.3297681 SPIN=   0.00000
   O  -0.4439763  -0.1002223  -0.1920950 SPIN=   0.00000
   O  -0.3750829   0.2434959  -0.3372095 SPIN=   0.00000
   S  -0.2237909   0.0476088  -0.2309094 SPIN=   0.00000
   F   0.0000000   0.5000000   0.0000000 SPIN=   0.00000
   F   0.0000000   0.5000000   0.5000000 SPIN=   0.00000
%ENDBLOCK POSITIONS_FRAC

# Note: total spin =   8.00

KPOINTS_MP_SPACING 0.07

%BLOCK SPECIES_POT
QC5
%ENDBLOCK SPECIES_POT

SNAP_TO_SYMMETRY
SYMMETRY_GENERATE

