#              Generated by Buildcell
#
# at 02:49:49 (GMT+1.0) 19th August 2020
# in /lustre/scratch/uccabz1/launch_tmp
# on node-c12f-010
# by uccabz1
#
# compiler GCC version 4.9.2
# options -cpp -iprefix /lustre/shared/ucl/apps/gcc/4.9.2/bin/../lib/gcc/x86_64-unknown-linux-gnu/4.9.2/ -mtune=corei7 -march=x86-64 -g -Og
#
# seed  1253675644  1124061146  -900553495  1749134091  -773348636  -808071246   634929934   279508157   765852225 -1725696526  1786215118  -647853047
#
#      Author: C. J. Pickard (cjp20@cam.ac.uk)
#                Space group: Pc
#

%BLOCK LATTICE_ABC
      4.02297      4.75875     10.45240
     90.00000     91.84652     90.00000
%ENDBLOCK LATTICE_ABC

%BLOCK POSITIONS_FRAC
  Li  -0.2220706   0.4333749  -0.0038558 SPIN=   0.00000
  Li   0.2779294  -0.4333749   0.4961442 SPIN=   0.00000
  Fe   0.2448336   0.0519688   0.1559493 SPIN=   4.00000
  Fe  -0.2551664  -0.0519688  -0.3440507 SPIN=   4.00000
   O  -0.1037213   0.5901530  -0.2414931 SPIN=   0.00000
   O   0.1215333   0.1838219  -0.1189853 SPIN=   0.00000
   O   0.4003815   0.6464798  -0.1018253 SPIN=   0.00000
   O   0.4266489   0.3715564  -0.3022330 SPIN=   0.00000
   S   0.2112106   0.4480027  -0.1911342 SPIN=   0.00000
   O  -0.6037213  -0.5901530   0.2585069 SPIN=   0.00000
   O  -0.3784667  -0.1838219   0.3810147 SPIN=   0.00000
   O  -0.0996185  -0.6464798   0.3981747 SPIN=   0.00000
   O  -0.0733511  -0.3715564   0.1977670 SPIN=   0.00000
   S  -0.2887894  -0.4480027   0.3088658 SPIN=   0.00000
   F   0.1365537  -0.0747206  -0.4396284 SPIN=   0.00000
   F  -0.3634463   0.0747206   0.0603716 SPIN=   0.00000
%ENDBLOCK POSITIONS_FRAC

# Note: total spin =   8.00

KPOINTS_MP_SPACING 0.07

%BLOCK SPECIES_POT
QC5
%ENDBLOCK SPECIES_POT

SNAP_TO_SYMMETRY
SYMMETRY_GENERATE

