#              Generated by Buildcell
#
# at 04:11:37 (GMT+1.0) 4th August 2020
# in /lustre/scratch/uccabz1/launch_tmp
# on node-c12l-032
# by uccabz1
#
# compiler GCC version 4.9.2
# options -cpp -iprefix /lustre/shared/ucl/apps/gcc/4.9.2/bin/../lib/gcc/x86_64-unknown-linux-gnu/4.9.2/ -mtune=corei7 -march=x86-64 -g -Og
#
# seed -1879567356  1186709258  -178882777  -285304812   -12419854  1833390710  -752334733 -1622283868 -2111755079  1011022081  -403764566 -1827837964
#
#      Author: C. J. Pickard (cjp20@cam.ac.uk)
#                Space group: P21
#

%BLOCK LATTICE_ABC
      5.05343      5.98284      6.64106
     95.06775     90.00000     90.00000
%ENDBLOCK LATTICE_ABC

%BLOCK POSITIONS_FRAC
  Li   0.3896365   0.1921851  -0.3993401 SPIN=   0.00000
  Li  -0.1103635  -0.1921851   0.3993401 SPIN=   0.00000
  Fe  -0.1113255   0.2104270  -0.1414819 SPIN=   4.00000
  Fe   0.3886745  -0.2104270   0.1414819 SPIN=   4.00000
   O  -0.1462752   0.1456817   0.5012073 SPIN=   0.00000
   O  -0.1898831   0.3188552   0.1779019 SPIN=   0.00000
   O   0.2408798   0.1633852   0.2749426 SPIN=   0.00000
   O   0.0680671   0.5105787   0.4591480 SPIN=   0.00000
   S  -0.0068029   0.2846252   0.3533000 SPIN=   0.00000
   O   0.3537248  -0.1456817  -0.5012073 SPIN=   0.00000
   O   0.3101169  -0.3188552  -0.1779019 SPIN=   0.00000
   O   0.7408798  -0.1633852  -0.2749426 SPIN=   0.00000
   O   0.5680671  -0.5105787  -0.4591480 SPIN=   0.00000
   S   0.4931971  -0.2846252  -0.3533000 SPIN=   0.00000
   F  -0.0875309  -0.2409649   0.0921899 SPIN=   0.00000
   F   0.4124691   0.2409649  -0.0921899 SPIN=   0.00000
%ENDBLOCK POSITIONS_FRAC

# Note: total spin =   8.00

KPOINTS_MP_SPACING 0.07

%BLOCK SPECIES_POT
QC5
%ENDBLOCK SPECIES_POT

SNAP_TO_SYMMETRY
SYMMETRY_GENERATE

