#              Generated by Buildcell
#
# at 00:28:14 (GMT+1.0) 19th August 2020
# in /lustre/scratch/uccabz1/launch_tmp
# on node-c12d-004
# by uccabz1
#
# compiler GCC version 4.9.2
# options -cpp -iprefix /lustre/shared/ucl/apps/gcc/4.9.2/bin/../lib/gcc/x86_64-unknown-linux-gnu/4.9.2/ -mtune=corei7 -march=x86-64 -g -Og
#
# seed -2103235014  -604762624  1488763418  1245354555   965451727  1602573551  2126777137  1045130170  1891040299   823795964  1454156528  -605879211
#
#      Author: C. J. Pickard (cjp20@cam.ac.uk)
#                Space group: Ima2
#

%BLOCK LATTICE_ABC
      4.04040      7.36760      7.36760
     76.75529     74.08563     74.08563
%ENDBLOCK LATTICE_ABC

%BLOCK POSITIONS_FRAC
  Li  -0.3954699  -0.1045301  -0.1045301 SPIN=   0.00000
  Li  -0.3954699   0.3954699   0.3954699 SPIN=   0.00000
  Fe   0.3086027   0.1913973   0.1913973 SPIN=   4.00000
  Fe   0.3086027  -0.3086027  -0.3086027 SPIN=   4.00000
   O   0.2121546  -0.4816296   0.2776713 SPIN=   0.00000
   O  -0.4148192  -0.3451851   0.4161781 SPIN=   0.00000
   O  -0.0081963   0.2776713  -0.4816296 SPIN=   0.00000
   O   0.3438263   0.4161781  -0.3451851 SPIN=   0.00000
   O  -0.0081963   0.0183704  -0.2223287 SPIN=   0.00000
   O   0.3438263   0.1548149  -0.0838219 SPIN=   0.00000
   O   0.2121546  -0.2223287   0.0183704 SPIN=   0.00000
   O  -0.4148192  -0.0838219   0.1548149 SPIN=   0.00000
   S  -0.0211910  -0.3183364   0.1816636 SPIN=   0.00000
   S   0.1578637   0.1816636  -0.3183364 SPIN=   0.00000
   F  -0.2142213   0.2142213   0.2142213 SPIN=   0.00000
   F  -0.2142213  -0.2857787  -0.2857787 SPIN=   0.00000
%ENDBLOCK POSITIONS_FRAC

# Note: total spin =   8.00

KPOINTS_MP_SPACING 0.07

%BLOCK SPECIES_POT
QC5
%ENDBLOCK SPECIES_POT

SNAP_TO_SYMMETRY
SYMMETRY_GENERATE

