#              Generated by Buildcell
#
# at 18:17:28 (GMT+1.0) 18th August 2020
# in /scratch/scratch/uccabz1/launch_tmp
# on node-k10e-031
# by uccabz1
#
# compiler GCC version 4.9.2
# options -cpp -iprefix /scratch/UCL/applications/gcc/4.9.2/bin/../lib/gcc/x86_64-unknown-linux-gnu/4.9.2/ -mtune=corei7 -march=x86-64 -g -O2
#
# seed  1205582561 -1451716760  -887282300   989178763  -522820603  1917977459 -1777205725   -80009901  -873117376  -264798248  -909299882   777951759
#
#      Author: C. J. Pickard (cjp20@cam.ac.uk)
#                Space group: Cc
#

%BLOCK LATTICE_ABC
      6.09817      6.19182      6.19182
    119.10757     95.91508     95.91508
%ENDBLOCK LATTICE_ABC

%BLOCK POSITIONS_FRAC
  Li  -0.1091849  -0.0665129  -0.3094732 SPIN=   0.00000
  Li   0.3908151  -0.3094732  -0.0665129 SPIN=   0.00000
  Fe  -0.1635395  -0.3994713   0.0552436 SPIN=   4.00000
  Fe   0.3364605   0.0552436  -0.3994713 SPIN=   4.00000
   O   0.0801038   0.2272014   0.0082567 SPIN=   0.00000
   O   0.4744515   0.4067313   0.0502976 SPIN=   0.00000
   O   0.3573383   0.3253846   0.3788680 SPIN=   0.00000
   O   0.2320635   0.6696963   0.3306973 SPIN=   0.00000
   S   0.2859893   0.4072534   0.1920299 SPIN=   0.00000
   O  -0.4198962   0.0082567   0.2272014 SPIN=   0.00000
   O  -0.0255485   0.0502976   0.4067313 SPIN=   0.00000
   O  -0.1426617   0.3788680   0.3253846 SPIN=   0.00000
   O  -0.2679365   0.3306973   0.6696963 SPIN=   0.00000
   S  -0.2140107   0.1920299   0.4072534 SPIN=   0.00000
   F  -0.4369915  -0.0551789  -0.2379407 SPIN=   0.00000
   F   0.0630085  -0.2379407  -0.0551789 SPIN=   0.00000
%ENDBLOCK POSITIONS_FRAC

# Note: total spin =   8.00

KPOINTS_MP_SPACING 0.07

%BLOCK SPECIES_POT
QC5
%ENDBLOCK SPECIES_POT

SNAP_TO_SYMMETRY
SYMMETRY_GENERATE

