#              Generated by Buildcell
#
# at 00:06:28 (GMT+1.0) 19th August 2020
# in /lustre/scratch/uccabz1/launch_tmp
# on node-c12f-006
# by uccabz1
#
# compiler GCC version 4.9.2
# options -cpp -iprefix /lustre/shared/ucl/apps/gcc/4.9.2/bin/../lib/gcc/x86_64-unknown-linux-gnu/4.9.2/ -mtune=corei7 -march=x86-64 -g -Og
#
# seed   822704819  1727331900   -98110706  -509412069  1121263855    49729020    37865030 -1674045329    64156898  1483784779 -1271401807 -1325942847
#
#      Author: C. J. Pickard (cjp20@cam.ac.uk)
#                Space group: P2
#

%BLOCK LATTICE_ABC
      3.92974      6.72910      7.84094
    105.29332     90.00000     90.00000
%ENDBLOCK LATTICE_ABC

%BLOCK POSITIONS_FRAC
  Li  -0.1217375  -0.2079163   0.1349583 SPIN=   0.00000
  Li  -0.1217375   0.2079163  -0.1349583 SPIN=   0.00000
  Fe   0.3783420   0.4247480  -0.2910250 SPIN=   4.00000
  Fe   0.3783420  -0.4247480   0.2910250 SPIN=   4.00000
   O   0.3316813  -0.1581104   0.2207510 SPIN=   0.00000
   O   0.2436704   0.1627003   0.4581487 SPIN=   0.00000
   O   0.2416429   0.1724135   0.1448164 SPIN=   0.00000
   O   0.7796467   0.1098259   0.2863300 SPIN=   0.00000
   S   0.3991603   0.0717073   0.2775115 SPIN=   0.00000
   O   0.3316813   0.1581104  -0.2207510 SPIN=   0.00000
   O   0.2436704  -0.1627003  -0.4581487 SPIN=   0.00000
   O   0.2416429  -0.1724135  -0.1448164 SPIN=   0.00000
   O   0.7796467  -0.1098259  -0.2863300 SPIN=   0.00000
   S   0.3991603  -0.0717073  -0.2775115 SPIN=   0.00000
   F  -0.0847542   0.4458487  -0.2426944 SPIN=   0.00000
   F  -0.0847542  -0.4458487   0.2426944 SPIN=   0.00000
%ENDBLOCK POSITIONS_FRAC

# Note: total spin =   8.00

KPOINTS_MP_SPACING 0.07

%BLOCK SPECIES_POT
QC5
%ENDBLOCK SPECIES_POT

SNAP_TO_SYMMETRY
SYMMETRY_GENERATE

