#              Generated by Buildcell
#
# at 05:33:42 (GMT+1.0) 4th August 2020
# in /lustre/scratch/uccabz1/launch_tmp
# on node-c12f-034
# by uccabz1
#
# compiler GCC version 4.9.2
# options -cpp -iprefix /lustre/shared/ucl/apps/gcc/4.9.2/bin/../lib/gcc/x86_64-unknown-linux-gnu/4.9.2/ -mtune=corei7 -march=x86-64 -g -Og
#
# seed  -775673779   420012684   273064564  -675861072   117896132  -340318940   622658929  -493578146 -1366870565   744398076    52294380  1640999804
#
#      Author: C. J. Pickard (cjp20@cam.ac.uk)
#                Space group: Cc
#

%BLOCK LATTICE_ABC
      4.50016      4.50016     10.36481
    102.35429    102.35429     90.33580
%ENDBLOCK LATTICE_ABC

%BLOCK POSITIONS_FRAC
  Li   0.1360588  -0.0501286   0.2342747 SPIN=   0.00000
  Li  -0.0501286   0.1360588  -0.2657253 SPIN=   0.00000
  Fe  -0.5378901  -0.3397249  -0.3263907 SPIN=   4.00000
  Fe   0.6602751   0.4621099   0.1736093 SPIN=   4.00000
   O   0.0999210   0.2500087   0.0118328 SPIN=   0.00000
   O  -0.0932607  -0.2802347  -0.0138869 SPIN=   0.00000
   O   0.4604273  -0.1463849   0.0593905 SPIN=   0.00000
   O   0.1920757  -0.1546260  -0.1762831 SPIN=   0.00000
   S   0.1647908  -0.0828092  -0.0297367 SPIN=   0.00000
   O   1.2500087   0.0999210   0.5118328 SPIN=   0.00000
   O   0.7197653  -0.0932607   0.4861131 SPIN=   0.00000
   O   0.8536151   0.4604273   0.5593905 SPIN=   0.00000
   O   0.8453740   0.1920757   0.3237169 SPIN=   0.00000
   S   0.9171908   0.1647908   0.4702633 SPIN=   0.00000
   F  -0.4337576   0.3186387  -0.2287120 SPIN=   0.00000
   F   0.3186387  -0.4337576   0.2712880 SPIN=   0.00000
%ENDBLOCK POSITIONS_FRAC

# Note: total spin =   8.00

KPOINTS_MP_SPACING 0.07

%BLOCK SPECIES_POT
QC5
%ENDBLOCK SPECIES_POT

SNAP_TO_SYMMETRY
SYMMETRY_GENERATE

