#              Generated by Buildcell
#
# at 20:33:49 (GMT+1.0) 18th August 2020
# in /lustre/scratch/uccabz1/launch_tmp
# on node-c12g-001
# by uccabz1
#
# compiler GCC version 4.9.2
# options -cpp -iprefix /lustre/shared/ucl/apps/gcc/4.9.2/bin/../lib/gcc/x86_64-unknown-linux-gnu/4.9.2/ -mtune=corei7 -march=x86-64 -g -Og
#
# seed  1211319806 -1971295572   216671524  1024179171  -563273845 -1663441838  -346795931 -2108551041 -1226572888  1121950004  -423232736  2031700228
#
#      Author: C. J. Pickard (cjp20@cam.ac.uk)
#                Space group: Cc
#

%BLOCK LATTICE_ABC
      3.98421      7.62488      7.62488
    109.04161    103.66614    103.66614
%ENDBLOCK LATTICE_ABC

%BLOCK POSITIONS_FRAC
  Li   0.2571068   0.2048104  -0.4675135 SPIN=   0.00000
  Li  -0.2428932  -0.4675135   0.2048104 SPIN=   0.00000
  Fe  -0.3837527  -0.1997685  -0.4427728 SPIN=   4.00000
  Fe   0.1162473  -0.4427728  -0.1997685 SPIN=   4.00000
   O   0.0043720   0.1530825  -0.1066895 SPIN=   0.00000
   O   0.3727384  -0.0155142  -0.2731701 SPIN=   0.00000
   O   0.6268516   0.1861985   0.0869418 SPIN=   0.00000
   O   0.5516895   0.3482315  -0.1459633 SPIN=   0.00000
   S   0.3889129   0.1679996  -0.1097203 SPIN=   0.00000
   O  -0.4956280  -0.1066895   0.1530825 SPIN=   0.00000
   O  -0.1272616  -0.2731701  -0.0155142 SPIN=   0.00000
   O   0.1268516   0.0869418   0.1861985 SPIN=   0.00000
   O   0.0516895  -0.1459633   0.3482315 SPIN=   0.00000
   S  -0.1110871  -0.1097203   0.1679996 SPIN=   0.00000
   F  -0.2227162   0.2956445  -0.4589048 SPIN=   0.00000
   F   0.2772838  -0.4589048   0.2956445 SPIN=   0.00000
%ENDBLOCK POSITIONS_FRAC

# Note: total spin =   8.00

KPOINTS_MP_SPACING 0.07

%BLOCK SPECIES_POT
QC5
%ENDBLOCK SPECIES_POT

SNAP_TO_SYMMETRY
SYMMETRY_GENERATE

