#              Generated by Buildcell
#
# at 03:20:18 (GMT+1.0) 4th August 2020
# in /lustre/scratch/uccabz1/launch_tmp
# on node-c12g-006
# by uccabz1
#
# compiler GCC version 4.9.2
# options -cpp -iprefix /lustre/shared/ucl/apps/gcc/4.9.2/bin/../lib/gcc/x86_64-unknown-linux-gnu/4.9.2/ -mtune=corei7 -march=x86-64 -g -Og
#
# seed  -946416988   629736104  -866252313 -2011611687   -81932887  1824087788  2129803282 -1980329982  -403890904  -354652305   619437333  -661629553
#
#      Author: C. J. Pickard (cjp20@cam.ac.uk)
#                Space group: Pba2
#

%BLOCK LATTICE_ABC
      5.60390      5.78757      6.16656
     90.00000     90.00000     90.00000
%ENDBLOCK LATTICE_ABC

%BLOCK POSITIONS_FRAC
  Li  -0.5000000   0.0000000  -0.2191379 SPIN=   0.00000
  Li   0.0000000   0.5000000  -0.2191379 SPIN=   0.00000
  Fe   0.0000000   0.0000000   0.0106947 SPIN=   4.00000
  Fe  -0.5000000  -0.5000000   0.0106947 SPIN=   4.00000
   O   0.3772597   0.1501911   0.1230372 SPIN=   0.00000
   O   0.3169914  -0.1685717   0.3848931 SPIN=   0.00000
   O  -0.3772597  -0.1501911   0.1230372 SPIN=   0.00000
   O  -0.3169914   0.1685717   0.3848931 SPIN=   0.00000
   O  -0.1227403  -0.6501911   0.1230372 SPIN=   0.00000
   O  -0.1830086  -0.3314283   0.3848931 SPIN=   0.00000
   O   0.1227403   0.6501911   0.1230372 SPIN=   0.00000
   O   0.1830086   0.3314283   0.3848931 SPIN=   0.00000
   S   0.0000000   0.5000000   0.3137196 SPIN=   0.00000
   S  -0.5000000   0.0000000   0.3137196 SPIN=   0.00000
   F   0.0000000   0.0000000  -0.3271332 SPIN=   0.00000
   F  -0.5000000  -0.5000000  -0.3271332 SPIN=   0.00000
%ENDBLOCK POSITIONS_FRAC

# Note: total spin =   8.00

KPOINTS_MP_SPACING 0.07

%BLOCK SPECIES_POT
QC5
%ENDBLOCK SPECIES_POT

SNAP_TO_SYMMETRY
SYMMETRY_GENERATE

