#              Generated by Buildcell
#
# at 23:55:40 (GMT+1.0) 18th August 2020
# in /lustre/scratch/uccabz1/launch_tmp
# on node-c12m-003
# by uccabz1
#
# compiler GCC version 4.9.2
# options -cpp -iprefix /lustre/shared/ucl/apps/gcc/4.9.2/bin/../lib/gcc/x86_64-unknown-linux-gnu/4.9.2/ -mtune=corei7 -march=x86-64 -g -Og
#
# seed   153074020 -1714987269  -452301432  1760207966   244859738  -116317230   758026427  -420717583   539250515  1883314623 -1734371296  1126474906
#
#      Author: C. J. Pickard (cjp20@cam.ac.uk)
#                Space group: Cm
#

%BLOCK LATTICE_ABC
      3.84682      7.44954      7.44954
     71.35130     83.02391     83.02391
%ENDBLOCK LATTICE_ABC

%BLOCK POSITIONS_FRAC
  Li   0.4627743   0.4482221   0.4482221 SPIN=   0.00000
  Li   0.0695995  -0.2557688  -0.2557688 SPIN=   0.00000
  Fe  -0.3810466  -0.1245225   0.4031239 SPIN=   4.00000
  Fe  -0.3810466   0.4031239  -0.1245225 SPIN=   4.00000
   O   0.1839276   0.0269466  -0.2322179 SPIN=   0.00000
   O  -0.3631710   0.2143424  -0.3524547 SPIN=   0.00000
   O   0.0061386   0.0325530  -0.5424247 SPIN=   0.00000
   S   0.0105586   0.1484469  -0.4086424 SPIN=   0.00000
   O   0.1839276  -0.2322179   0.0269466 SPIN=   0.00000
   O  -0.3631710  -0.3524547   0.2143424 SPIN=   0.00000
   O   0.0061386  -0.5424247   0.0325530 SPIN=   0.00000
   S   0.0105586  -0.4086424   0.1484469 SPIN=   0.00000
   O  -0.3230237  -0.0953294  -0.0953294 SPIN=   0.00000
   O   0.3181034   0.2733295   0.2733295 SPIN=   0.00000
   F  -0.1979141  -0.3762878  -0.3762878 SPIN=   0.00000
   F  -0.0578745   0.0936069   0.0936069 SPIN=   0.00000
%ENDBLOCK POSITIONS_FRAC

# Note: total spin =   8.00

KPOINTS_MP_SPACING 0.07

%BLOCK SPECIES_POT
QC5
%ENDBLOCK SPECIES_POT

SNAP_TO_SYMMETRY
SYMMETRY_GENERATE

