#              Generated by Buildcell
#
# at 19:30:13 (GMT+1.0) 18th August 2020
# in /lustre/scratch/uccabz1/launch_tmp
# on node-c12g-030
# by uccabz1
#
# compiler GCC version 4.9.2
# options -cpp -iprefix /lustre/shared/ucl/apps/gcc/4.9.2/bin/../lib/gcc/x86_64-unknown-linux-gnu/4.9.2/ -mtune=corei7 -march=x86-64 -g -Og
#
# seed  -182910389  -985342690  -119099582  -611533880  1709364812   485803036   -27697872  -239236973   870126509  -761672642 -1408823219   453117924
#
#      Author: C. J. Pickard (cjp20@cam.ac.uk)
#                Space group: P-1
#

%BLOCK LATTICE_ABC
      5.31535      6.35152      6.87270
     91.79636    108.71513    112.41502
%ENDBLOCK LATTICE_ABC

%BLOCK POSITIONS_FRAC
  Li  -0.2517367  -0.2461755   0.2702663 SPIN=   0.00000
  Li   0.2517367   0.2461755  -0.2702663 SPIN=   0.00000
  Fe   0.1415716   0.3661732   0.2851001 SPIN=   4.00000
  Fe  -0.1415716  -0.3661732  -0.2851001 SPIN=   4.00000
   O  -0.1725993   0.3175882  -0.1751074 SPIN=   0.00000
   O  -0.1997139  -0.0448972  -0.3428862 SPIN=   0.00000
   O  -0.6369828  -0.0334388  -0.2956156 SPIN=   0.00000
   O  -0.2216372  -0.0150335   0.0107121 SPIN=   0.00000
   S  -0.3077333   0.0560547  -0.2007243 SPIN=   0.00000
   O   0.1725993  -0.3175882   0.1751074 SPIN=   0.00000
   O   0.1997139   0.0448972   0.3428862 SPIN=   0.00000
   O   0.6369828   0.0334388   0.2956156 SPIN=   0.00000
   O   0.2216372   0.0150335  -0.0107121 SPIN=   0.00000
   S   0.3077333  -0.0560547   0.2007243 SPIN=   0.00000
   F  -0.5000000  -0.5000000  -0.0000000 SPIN=   0.00000
   F   0.0000000   0.5000000   0.5000000 SPIN=   0.00000
%ENDBLOCK POSITIONS_FRAC

# Note: total spin =   8.00

KPOINTS_MP_SPACING 0.07

%BLOCK SPECIES_POT
QC5
%ENDBLOCK SPECIES_POT

SNAP_TO_SYMMETRY
SYMMETRY_GENERATE

