#              Generated by Buildcell
#
# at 01:47:50 (GMT+1.0) 19th August 2020
# in /lustre/scratch/uccabz1/launch_tmp
# on node-c12o-034
# by uccabz1
#
# compiler GCC version 4.9.2
# options -cpp -iprefix /lustre/shared/ucl/apps/gcc/4.9.2/bin/../lib/gcc/x86_64-unknown-linux-gnu/4.9.2/ -mtune=corei7 -march=x86-64 -g -Og
#
# seed  -540288438  -316244079    80799524 -1341115445  1999649679  1993667349 -2139550873  -322623072 -1341061007   571800578  -573054000   355033420
#
#      Author: C. J. Pickard (cjp20@cam.ac.uk)
#                Space group: Pm
#

%BLOCK LATTICE_ABC
      3.99087      4.21393     13.38468
     90.00000     90.00000    117.31209
%ENDBLOCK LATTICE_ABC

%BLOCK POSITIONS_FRAC
  Li  -0.2358813   0.0033236  -0.2284789 SPIN=   0.00000
  Li  -0.2358813   0.0033236   0.2284789 SPIN=   0.00000
  Fe   0.4966094   0.3909276   0.3629139 SPIN=   4.00000
  Fe   0.4966094   0.3909276  -0.3629139 SPIN=   4.00000
   O   0.3935220  -0.0352592  -0.0863200 SPIN=   0.00000
   O   0.0741032  -0.6954027  -0.0957070 SPIN=   0.00000
   O   0.1955749  -0.3364446  -0.2501805 SPIN=   0.00000
   O  -0.2843321  -0.3587205  -0.1294098 SPIN=   0.00000
   S   0.0947170  -0.3564568  -0.1404043 SPIN=   0.00000
   O   0.3935220  -0.0352592   0.0863200 SPIN=   0.00000
   O   0.0741032  -0.6954027   0.0957070 SPIN=   0.00000
   O   0.1955749  -0.3364446   0.2501805 SPIN=   0.00000
   O  -0.2843321  -0.3587205   0.1294098 SPIN=   0.00000
   S   0.0947170  -0.3564568   0.1404043 SPIN=   0.00000
   F  -0.0594488   0.0530861  -0.3544077 SPIN=   0.00000
   F  -0.0594488   0.0530861   0.3544077 SPIN=   0.00000
%ENDBLOCK POSITIONS_FRAC

# Note: total spin =   8.00

KPOINTS_MP_SPACING 0.07

%BLOCK SPECIES_POT
QC5
%ENDBLOCK SPECIES_POT

SNAP_TO_SYMMETRY
SYMMETRY_GENERATE

