#              Generated by Buildcell
#
# at 05:19:27 (GMT+1.0) 4th August 2020
# in /lustre/scratch/uccabz1/launch_tmp
# on node-c12n-016
# by uccabz1
#
# compiler GCC version 4.9.2
# options -cpp -iprefix /lustre/shared/ucl/apps/gcc/4.9.2/bin/../lib/gcc/x86_64-unknown-linux-gnu/4.9.2/ -mtune=corei7 -march=x86-64 -g -Og
#
# seed  -526644795  -326689906 -1870529903  -139830892  -223590043 -1384378523  -255866546 -1692708684 -1331232472 -1181002854  -324330727   507462143
#
#      Author: C. J. Pickard (cjp20@cam.ac.uk)
#                Space group: P21
#

%BLOCK LATTICE_ABC
      4.51574      6.16501      7.23005
     90.00000     96.46901     90.00000
%ENDBLOCK LATTICE_ABC

%BLOCK POSITIONS_FRAC
  Li   0.2907049  -0.2585829  -0.0790855 SPIN=   0.00000
  Li  -0.2907049   0.2414171   0.0790855 SPIN=   0.00000
  Fe   0.0108250  -0.3656868   0.2738715 SPIN=   4.00000
  Fe  -0.0108250   0.1343132  -0.2738715 SPIN=   4.00000
   O  -0.6261409  -0.4192679  -0.3131512 SPIN=   0.00000
   O  -0.1845385  -0.5085658  -0.4725106 SPIN=   0.00000
   O  -0.1217835  -0.4052955  -0.1396118 SPIN=   0.00000
   O  -0.2742394  -0.1296308  -0.3804881 SPIN=   0.00000
   S  -0.3016756  -0.3656900  -0.3264404 SPIN=   0.00000
   O   0.6261409   0.0807321   0.3131512 SPIN=   0.00000
   O   0.1845385  -0.0085658   0.4725106 SPIN=   0.00000
   O   0.1217835   0.0947045   0.1396118 SPIN=   0.00000
   O   0.2742394   0.3703692   0.3804881 SPIN=   0.00000
   S   0.3016756   0.1343100   0.3264404 SPIN=   0.00000
   F   0.3984419   0.1343115  -0.1738378 SPIN=   0.00000
   F  -0.3984419  -0.3656885   0.1738378 SPIN=   0.00000
%ENDBLOCK POSITIONS_FRAC

# Note: total spin =   8.00

KPOINTS_MP_SPACING 0.07

%BLOCK SPECIES_POT
QC5
%ENDBLOCK SPECIES_POT

SNAP_TO_SYMMETRY
SYMMETRY_GENERATE

