#              Generated by Buildcell
#
# at 00:29:39 (GMT+1.0) 19th August 2020
# in /lustre/scratch/uccabz1/launch_tmp
# on node-c12m-028
# by uccabz1
#
# compiler GCC version 4.9.2
# options -cpp -iprefix /lustre/shared/ucl/apps/gcc/4.9.2/bin/../lib/gcc/x86_64-unknown-linux-gnu/4.9.2/ -mtune=corei7 -march=x86-64 -g -Og
#
# seed  -799273965  1346171957  1272987669  -458903011  1322083484  -731105088 -1275510377  -174491500  -343507672 -1693125428 -1002990553  1329085413
#
#      Author: C. J. Pickard (cjp20@cam.ac.uk)
#                Space group: C2
#

%BLOCK LATTICE_ABC
      4.10875      6.99862      7.29091
     95.90494    106.36600     90.00000
%ENDBLOCK LATTICE_ABC

%BLOCK POSITIONS_FRAC
  Li   0.0203984   0.2444758  -0.0504067 SPIN=   0.00000
  Li   0.0708051  -0.2444758   0.0504067 SPIN=   0.00000
  Fe  -0.2667442  -0.3428443   0.3604855 SPIN=   4.00000
  Fe   0.3727703   0.3428443  -0.3604855 SPIN=   4.00000
   O  -0.3302354  -0.0684184   0.1741273 SPIN=   0.00000
   O  -0.8515193   0.1076745   0.1767711 SPIN=   0.00000
   O  -0.2996752   0.2845696   0.2549972 SPIN=   0.00000
   O  -0.4135279   0.0723233   0.4826459 SPIN=   0.00000
   S  -0.4737394   0.0990373   0.2721354 SPIN=   0.00000
   O   0.4956373   0.0684184  -0.1741273 SPIN=   0.00000
   O  -0.0282904  -0.1076745  -0.1767711 SPIN=   0.00000
   O   0.4453276  -0.2845696  -0.2549972 SPIN=   0.00000
   O   0.1038262  -0.0723233  -0.4826459 SPIN=   0.00000
   S   0.2541252  -0.0990373  -0.2721354 SPIN=   0.00000
   F  -0.0429019   0.3893473  -0.2834624 SPIN=   0.00000
   F   0.2405605  -0.3893473   0.2834624 SPIN=   0.00000
%ENDBLOCK POSITIONS_FRAC

# Note: total spin =   8.00

KPOINTS_MP_SPACING 0.07

%BLOCK SPECIES_POT
QC5
%ENDBLOCK SPECIES_POT

SNAP_TO_SYMMETRY
SYMMETRY_GENERATE

