#              Generated by Buildcell
#
# at 05:06:44 (GMT+1.0) 4th August 2020
# in /lustre/scratch/uccabz1/launch_tmp
# on node-c12n-034
# by uccabz1
#
# compiler GCC version 4.9.2
# options -cpp -iprefix /lustre/shared/ucl/apps/gcc/4.9.2/bin/../lib/gcc/x86_64-unknown-linux-gnu/4.9.2/ -mtune=corei7 -march=x86-64 -g -Og
#
# seed -1723709664  -986125327 -1031473133  -812151885  1763646458  -876827614  1844265453  1745486703  -843921209 -1271602938  1896662901   878086755
#
#      Author: C. J. Pickard (cjp20@cam.ac.uk)
#                Space group: P42
#

%BLOCK LATTICE_ABC
      3.85651      3.85651     13.44748
     90.00000     90.00000     90.00000
%ENDBLOCK LATTICE_ABC

%BLOCK POSITIONS_FRAC
  Li   0.0000000  -0.5000000   0.2269171 SPIN=   0.00000
  Li  -0.5000000   0.0000000  -0.2730829 SPIN=   0.00000
  Fe   0.0000000  -0.5000000  -0.1587660 SPIN=   4.00000
  Fe  -0.5000000   0.0000000   0.3412340 SPIN=   4.00000
   O  -0.2039850   0.7093424   0.0385187 SPIN=   0.00000
   O  -0.2777953   0.1948266   0.1464553 SPIN=   0.00000
   O   0.2039850  -0.7093424   0.0385187 SPIN=   0.00000
   O   0.2777953  -0.1948266   0.1464553 SPIN=   0.00000
   O   0.7093424   0.2039850  -0.4614813 SPIN=   0.00000
   O   0.1948266   0.2777953  -0.3535447 SPIN=   0.00000
   O  -0.7093424  -0.2039850  -0.4614813 SPIN=   0.00000
   O  -0.1948266  -0.2777953  -0.3535447 SPIN=   0.00000
   S   0.5000000  -0.5000000   0.0787421 SPIN=   0.00000
   S   0.5000000  -0.5000000  -0.4212579 SPIN=   0.00000
   F   0.5000000   0.0000000  -0.1293438 SPIN=   0.00000
   F   0.0000000  -0.5000000   0.3706562 SPIN=   0.00000
%ENDBLOCK POSITIONS_FRAC

# Note: total spin =   8.00

KPOINTS_MP_SPACING 0.07

%BLOCK SPECIES_POT
QC5
%ENDBLOCK SPECIES_POT

SNAP_TO_SYMMETRY
SYMMETRY_GENERATE

