#              Generated by Buildcell
#
# at 21:42:44 (GMT+1.0) 18th August 2020
# in /lustre/scratch/uccabz1/launch_tmp
# on node-c12j-022
# by uccabz1
#
# compiler GCC version 4.9.2
# options -cpp -iprefix /lustre/shared/ucl/apps/gcc/4.9.2/bin/../lib/gcc/x86_64-unknown-linux-gnu/4.9.2/ -mtune=corei7 -march=x86-64 -g -Og
#
# seed  1221170474  2095696979  -591167946 -1486504913 -1042734655  1641909270  1267252142 -1266741804  2142423121   103408403  -431586559  1562045934
#
#      Author: C. J. Pickard (cjp20@cam.ac.uk)
#                Space group: Pmn21
#

%BLOCK LATTICE_ABC
      5.29313      5.97417      6.32470
     90.00000     90.00000     90.00000
%ENDBLOCK LATTICE_ABC

%BLOCK POSITIONS_FRAC
  Li  -0.5000000   0.3227878  -0.4760077 SPIN=   0.00000
  Li   0.0000000  -0.1772122   0.4760077 SPIN=   0.00000
  Fe   0.5000000  -0.1647026  -0.2930577 SPIN=   4.00000
  Fe  -0.0000000   0.3352974   0.2930577 SPIN=   4.00000
   O  -0.2788361   0.5550826  -0.1051462 SPIN=   0.00000
   O  -0.2786753   0.1685492  -0.2459020 SPIN=   0.00000
   O  -0.2211639   0.0550826   0.1051462 SPIN=   0.00000
   O  -0.2213247  -0.3314508   0.2459020 SPIN=   0.00000
   O   0.2211639   0.0550826   0.1051462 SPIN=   0.00000
   O   0.2213247  -0.3314508   0.2459020 SPIN=   0.00000
   O   0.2788361   0.5550826  -0.1051462 SPIN=   0.00000
   O   0.2786753   0.1685492  -0.2459020 SPIN=   0.00000
   S   0.0000000  -0.1647551   0.0408225 SPIN=   0.00000
   S  -0.5000000   0.3352449  -0.0408225 SPIN=   0.00000
   F   0.5000000  -0.0310895   0.4377803 SPIN=   0.00000
   F  -0.0000000   0.4689105  -0.4377803 SPIN=   0.00000
%ENDBLOCK POSITIONS_FRAC

# Note: total spin =   8.00

KPOINTS_MP_SPACING 0.07

%BLOCK SPECIES_POT
QC5
%ENDBLOCK SPECIES_POT

SNAP_TO_SYMMETRY
SYMMETRY_GENERATE

