#              Generated by Buildcell
#
# at 04:13:35 (GMT+1.0) 4th August 2020
# in /lustre/scratch/uccabz1/launch_tmp
# on node-c12k-031
# by uccabz1
#
# compiler GCC version 4.9.2
# options -cpp -iprefix /lustre/shared/ucl/apps/gcc/4.9.2/bin/../lib/gcc/x86_64-unknown-linux-gnu/4.9.2/ -mtune=corei7 -march=x86-64 -g -Og
#
# seed  1071720723 -1247021453  1562553402  1157405828 -2113342506   888978439  1121573506   571942689  1449214254  1688535785   233177518   990067804
#
#      Author: C. J. Pickard (cjp20@cam.ac.uk)
#                Space group: Pba2
#

%BLOCK LATTICE_ABC
      3.90939      6.76192      7.56572
     90.00000     90.00000     90.00000
%ENDBLOCK LATTICE_ABC

%BLOCK POSITIONS_FRAC
  Li  -0.0000000   0.0000000   0.0201649 SPIN=   0.00000
  Li   0.5000000  -0.5000000   0.0201649 SPIN=   0.00000
  Fe  -0.0000000  -0.0000000  -0.3645930 SPIN=   4.00000
  Fe   0.5000000   0.5000000  -0.3645930 SPIN=   4.00000
   O   0.3546909  -0.1526756   0.1581492 SPIN=   0.00000
   O   0.2473231  -0.3823293   0.4067407 SPIN=   0.00000
   O  -0.3546909   0.1526756   0.1581492 SPIN=   0.00000
   O  -0.2473231   0.3823293   0.4067407 SPIN=   0.00000
   O  -0.1453091  -0.3473244   0.1581492 SPIN=   0.00000
   O  -0.2526769  -0.1176707   0.4067407 SPIN=   0.00000
   O   0.1453091   0.3473244   0.1581492 SPIN=   0.00000
   O   0.2526769   0.1176707   0.4067407 SPIN=   0.00000
   S   0.5000000   0.0000000   0.2806999 SPIN=   0.00000
   S  -0.0000000  -0.5000000   0.2806999 SPIN=   0.00000
   F   0.5000000   0.0000000  -0.2186150 SPIN=   0.00000
   F  -0.0000000  -0.5000000  -0.2186150 SPIN=   0.00000
%ENDBLOCK POSITIONS_FRAC

# Note: total spin =   8.00

KPOINTS_MP_SPACING 0.07

%BLOCK SPECIES_POT
QC5
%ENDBLOCK SPECIES_POT

SNAP_TO_SYMMETRY
SYMMETRY_GENERATE

