#              Generated by Buildcell
#
# at 05:17:21 (GMT+1.0) 4th August 2020
# in /lustre/scratch/uccabz1/launch_tmp
# on node-y12q-002
# by uccabz1
#
# compiler GCC version 4.9.2
# options -cpp -iprefix /lustre/shared/ucl/apps/gcc/4.9.2/bin/../lib/gcc/x86_64-unknown-linux-gnu/4.9.2/ -mtune=corei7 -march=x86-64 -g -Og
#
# seed   898019539  1863196500   -29870685  -965977999 -1560866925   674313875  -256226636  1921313877   430613310   698184174 -2121844771  2052124035
#
#      Author: C. J. Pickard (cjp20@cam.ac.uk)
#                Space group: Cmc21
#

%BLOCK LATTICE_ABC
      3.91222      3.91222     13.89132
     90.00000     90.00000    109.83425
%ENDBLOCK LATTICE_ABC

%BLOCK POSITIONS_FRAC
  Li   0.3949980   0.3949980   0.1908386 SPIN=   0.00000
  Li  -0.3949980  -0.3949980  -0.3091614 SPIN=   0.00000
  Fe  -0.3668961  -0.3668961  -0.0102175 SPIN=   4.00000
  Fe   0.3668961   0.3668961   0.4897825 SPIN=   4.00000
   O  -0.3680544   0.0055127   0.2063641 SPIN=   0.00000
   O  -0.5451397  -0.1715730   0.3750478 SPIN=   0.00000
   O   0.3680544  -0.0055127  -0.2936359 SPIN=   0.00000
   O   0.5451397   0.1715730  -0.1249522 SPIN=   0.00000
   O  -0.0055127   0.3680544  -0.2936359 SPIN=   0.00000
   O   0.1715730   0.5451397  -0.1249522 SPIN=   0.00000
   O   0.0055127  -0.3680544   0.2063641 SPIN=   0.00000
   O  -0.1715730  -0.5451397   0.3750478 SPIN=   0.00000
   S   0.1054855   0.1054855  -0.1979753 SPIN=   0.00000
   S  -0.1054855  -0.1054855   0.3020247 SPIN=   0.00000
   F   0.2293849   0.2293849   0.0616142 SPIN=   0.00000
   F  -0.2293849  -0.2293849  -0.4383858 SPIN=   0.00000
%ENDBLOCK POSITIONS_FRAC

# Note: total spin =   8.00

KPOINTS_MP_SPACING 0.07

%BLOCK SPECIES_POT
QC5
%ENDBLOCK SPECIES_POT

SNAP_TO_SYMMETRY
SYMMETRY_GENERATE

