#              Generated by Buildcell
#
# at 02:59:00 (GMT+1.0) 4th August 2020
# in /lustre/scratch/uccabz1/launch_tmp
# on node-c12l-020
# by uccabz1
#
# compiler GCC version 4.9.2
# options -cpp -iprefix /lustre/shared/ucl/apps/gcc/4.9.2/bin/../lib/gcc/x86_64-unknown-linux-gnu/4.9.2/ -mtune=corei7 -march=x86-64 -g -Og
#
# seed  1458292255  2030542722  1121021046  -331179381  -106411726 -1217232051  -545568833  -255656935  1427705694 -1060136305  -784575988  -816528031
#
#      Author: C. J. Pickard (cjp20@cam.ac.uk)
#                Space group: P-1
#

%BLOCK LATTICE_ABC
      4.40332      5.28984      8.76875
     88.72560     85.05133     79.38321
%ENDBLOCK LATTICE_ABC

%BLOCK POSITIONS_FRAC
  Li  -0.2261282   0.3177853  -0.3751679 SPIN=   0.00000
  Li   0.2261282  -0.3177853   0.3751679 SPIN=   0.00000
  Fe  -0.3183016  -0.2808105   0.1113162 SPIN=   4.00000
  Fe   0.3183016   0.2808105  -0.1113162 SPIN=   4.00000
   O   0.2149310  -0.0055686  -0.2824796 SPIN=   0.00000
   O  -0.0640648  -0.3381647  -0.3643628 SPIN=   0.00000
   O  -0.3381760   0.0137030  -0.1945102 SPIN=   0.00000
   S  -0.0312357  -0.1640367  -0.2341742 SPIN=   0.00000
   O  -0.2149310   0.0055686   0.2824796 SPIN=   0.00000
   O   0.0640648   0.3381647   0.3643628 SPIN=   0.00000
   O   0.3381760  -0.0137030   0.1945102 SPIN=   0.00000
   S   0.0312357   0.1640367   0.2341742 SPIN=   0.00000
   O  -0.0000000  -1.0000000   0.5000000 SPIN=   0.00000
   O  -0.5000000  -1.0000000   0.5000000 SPIN=   0.00000
   F  -0.5000000   0.5000000  -0.5000000 SPIN=   0.00000
   F   0.5000000   0.5000000   0.0000000 SPIN=   0.00000
%ENDBLOCK POSITIONS_FRAC

# Note: total spin =   8.00

KPOINTS_MP_SPACING 0.07

%BLOCK SPECIES_POT
QC5
%ENDBLOCK SPECIES_POT

SNAP_TO_SYMMETRY
SYMMETRY_GENERATE

