#              Generated by Buildcell
#
# at 05:03:32 (GMT+1.0) 4th August 2020
# in /lustre/scratch/uccabz1/launch_tmp
# on node-c12c-010
# by uccabz1
#
# compiler GCC version 4.9.2
# options -cpp -iprefix /lustre/shared/ucl/apps/gcc/4.9.2/bin/../lib/gcc/x86_64-unknown-linux-gnu/4.9.2/ -mtune=corei7 -march=x86-64 -g -Og
#
# seed  -804344107  1731966246  1163294550  1310383778  -172266529  -371864634   977085917  2103992321 -1199091917   820008426 -1413394353   -27855168
#
#      Author: C. J. Pickard (cjp20@cam.ac.uk)
#                Space group: Pc
#

%BLOCK LATTICE_ABC
      3.91188      6.31738      8.09919
     90.00000     90.00000     92.24601
%ENDBLOCK LATTICE_ABC

%BLOCK POSITIONS_FRAC
  Li  -0.1347269  -0.4062239  -0.1612765 SPIN=   0.00000
  Li   0.3652731   0.0937761   0.1612765 SPIN=   0.00000
  Fe  -0.1107475   0.1103639  -0.1385665 SPIN=   4.00000
  Fe   0.3892525  -0.3896361   0.1385665 SPIN=   4.00000
   O  -0.6204699  -0.0569888   0.4080288 SPIN=   0.00000
   O  -0.1218947  -0.2818762   0.3719251 SPIN=   0.00000
   O  -0.1078207   0.0005306   0.5838741 SPIN=   0.00000
   O  -0.0837078   0.0947766   0.2873933 SPIN=   0.00000
   S  -0.2334732  -0.0608894   0.4128053 SPIN=   0.00000
   O  -0.1204699   0.4430112  -0.4080288 SPIN=   0.00000
   O   0.3781053   0.2181238  -0.3719251 SPIN=   0.00000
   O   0.3921793   0.5005306  -0.5838741 SPIN=   0.00000
   O   0.4162922   0.5947766  -0.2873933 SPIN=   0.00000
   S   0.2665268   0.4391106  -0.4128053 SPIN=   0.00000
   F   0.1109543  -0.1496220  -0.0766880 SPIN=   0.00000
   F  -0.3890457   0.3503780   0.0766880 SPIN=   0.00000
%ENDBLOCK POSITIONS_FRAC

# Note: total spin =   8.00

KPOINTS_MP_SPACING 0.07

%BLOCK SPECIES_POT
QC5
%ENDBLOCK SPECIES_POT

SNAP_TO_SYMMETRY
SYMMETRY_GENERATE

