#              Generated by Buildcell
#
# at 03:00:07 (GMT+1.0) 4th August 2020
# in /lustre/scratch/uccabz1/launch_tmp
# on node-c12c-014
# by uccabz1
#
# compiler GCC version 4.9.2
# options -cpp -iprefix /lustre/shared/ucl/apps/gcc/4.9.2/bin/../lib/gcc/x86_64-unknown-linux-gnu/4.9.2/ -mtune=corei7 -march=x86-64 -g -Og
#
# seed   857430397    54502355 -1459537284 -1377791762   170236919    62158237  -785883361  1156923566 -2025501222  -482981809  -368293051  2054578377
#
#      Author: C. J. Pickard (cjp20@cam.ac.uk)
#                Space group: P2
#

%BLOCK LATTICE_ABC
      4.08682      6.73222      7.34494
     98.23592     90.00000     90.00000
%ENDBLOCK LATTICE_ABC

%BLOCK POSITIONS_FRAC
  Li   0.1656791  -0.2669005  -0.1051155 SPIN=   0.00000
  Li   0.1656791   0.2669005   0.1051155 SPIN=   0.00000
  Fe  -0.3320565   0.2347977   0.3851993 SPIN=   4.00000
  Fe  -0.3320565  -0.2347977  -0.3851993 SPIN=   4.00000
   O  -0.2823523  -0.1761302  -0.0315816 SPIN=   0.00000
   O  -0.1890498  -0.4445902   0.1601816 SPIN=   0.00000
   O  -0.7064888  -0.2516562   0.1890389 SPIN=   0.00000
   O  -0.1885173  -0.0886248   0.3031846 SPIN=   0.00000
   S  -0.3416020  -0.2402503   0.1552059 SPIN=   0.00000
   O  -0.2823523   0.1761302   0.0315816 SPIN=   0.00000
   O  -0.1890498   0.4445902  -0.1601816 SPIN=   0.00000
   O  -0.7064888   0.2516562  -0.1890389 SPIN=   0.00000
   O  -0.1885173   0.0886248  -0.3031846 SPIN=   0.00000
   S  -0.3416020   0.2402503  -0.1552059 SPIN=   0.00000
   F   0.2038056  -0.2340132  -0.3795557 SPIN=   0.00000
   F   0.2038056   0.2340132   0.3795557 SPIN=   0.00000
%ENDBLOCK POSITIONS_FRAC

# Note: total spin =   8.00

KPOINTS_MP_SPACING 0.07

%BLOCK SPECIES_POT
QC5
%ENDBLOCK SPECIES_POT

SNAP_TO_SYMMETRY
SYMMETRY_GENERATE

