#              Generated by Buildcell
#
# at 18:19:04 (GMT+1.0) 18th August 2020
# in /lustre/scratch/uccabz1/launch_tmp
# on node-c12m-029
# by uccabz1
#
# compiler GCC version 4.9.2
# options -cpp -iprefix /lustre/shared/ucl/apps/gcc/4.9.2/bin/../lib/gcc/x86_64-unknown-linux-gnu/4.9.2/ -mtune=corei7 -march=x86-64 -g -Og
#
# seed   401422494  1932746506  -871909530  1586643961 -1837454391   929561553  -722880213   350780439  1126100216 -1881213800 -1599964680 -1395736734
#
#      Author: C. J. Pickard (cjp20@cam.ac.uk)
#                Space group: P-1
#

%BLOCK LATTICE_ABC
      4.02295      7.08734      7.29636
     85.23937     74.73607     88.47346
%ENDBLOCK LATTICE_ABC

%BLOCK POSITIONS_FRAC
  Li   0.0760445  -0.2619899  -0.4793198 SPIN=   0.00000
  Li  -0.0760445   0.2619899   0.4793198 SPIN=   0.00000
  Fe   0.3933577  -0.0207659  -0.2407836 SPIN=   4.00000
  Fe  -0.3933577   0.0207659   0.2407836 SPIN=   4.00000
   O  -0.0542131  -0.4735365   0.2487966 SPIN=   0.00000
   O   0.1424511  -0.1463762   0.2529113 SPIN=   0.00000
   O   0.0645275  -0.2581056  -0.0455055 SPIN=   0.00000
   O   0.5458422  -0.3827413   0.0824499 SPIN=   0.00000
   S   0.1746519  -0.3151899   0.1346631 SPIN=   0.00000
   O   0.0542131   0.4735365  -0.2487966 SPIN=   0.00000
   O  -0.1424511   0.1463762  -0.2529113 SPIN=   0.00000
   O  -0.0645275   0.2581056   0.0455055 SPIN=   0.00000
   O  -0.5458422   0.3827413  -0.0824499 SPIN=   0.00000
   S  -0.1746519   0.3151899  -0.1346631 SPIN=   0.00000
   F   0.6091213  -0.2596202  -0.3935896 SPIN=   0.00000
   F  -0.6091213   0.2596202   0.3935896 SPIN=   0.00000
%ENDBLOCK POSITIONS_FRAC

# Note: total spin =   8.00

KPOINTS_MP_SPACING 0.07

%BLOCK SPECIES_POT
QC5
%ENDBLOCK SPECIES_POT

SNAP_TO_SYMMETRY
SYMMETRY_GENERATE

