#              Generated by Buildcell
#
# at 05:15:51 (GMT+1.0) 4th August 2020
# in /lustre/scratch/uccabz1/launch_tmp
# on node-c12g-015
# by uccabz1
#
# compiler GCC version 4.9.2
# options -cpp -iprefix /lustre/shared/ucl/apps/gcc/4.9.2/bin/../lib/gcc/x86_64-unknown-linux-gnu/4.9.2/ -mtune=corei7 -march=x86-64 -g -Og
#
# seed -2001682944   376220792    38354621  -343826375 -1180549626 -2125007832   860610497 -1468237762 -1559259653  1831596444   491407552  1193854981
#
#      Author: C. J. Pickard (cjp20@cam.ac.uk)
#                Space group: P-1
#

%BLOCK LATTICE_ABC
      4.02147      5.83736      8.63103
     88.61418     80.94803     88.80391
%ENDBLOCK LATTICE_ABC

%BLOCK POSITIONS_FRAC
  Li  -0.2934792  -0.2601806   0.1072553 SPIN=   0.00000
  Li   0.2934792   0.2601806  -0.1072553 SPIN=   0.00000
  Fe   0.0959986  -0.1977240  -0.2213719 SPIN=   4.00000
  Fe  -0.0959986   0.1977240   0.2213719 SPIN=   4.00000
   O  -0.8837106  -0.3434924   0.5543361 SPIN=   0.00000
   O  -0.8396770  -0.0056305   0.3739233 SPIN=   0.00000
   O  -0.8135419  -0.3965234   0.2673362 SPIN=   0.00000
   O  -0.3400521  -0.2554021   0.3882168 SPIN=   0.00000
   S  -0.7192454  -0.2502621   0.3959531 SPIN=   0.00000
   O   0.8837106   0.3434924  -0.5543361 SPIN=   0.00000
   O   0.8396770   0.0056305  -0.3739233 SPIN=   0.00000
   O   0.8135419   0.3965234  -0.2673362 SPIN=   0.00000
   O   0.3400521   0.2554021  -0.3882168 SPIN=   0.00000
   S   0.7192454   0.2502621  -0.3959531 SPIN=   0.00000
   F  -0.4701570   0.2448548   0.1320717 SPIN=   0.00000
   F   0.4701570  -0.2448548  -0.1320717 SPIN=   0.00000
%ENDBLOCK POSITIONS_FRAC

# Note: total spin =   8.00

KPOINTS_MP_SPACING 0.07

%BLOCK SPECIES_POT
QC5
%ENDBLOCK SPECIES_POT

SNAP_TO_SYMMETRY
SYMMETRY_GENERATE

