#              Generated by Buildcell
#
# at 00:49:16 (GMT+1.0) 19th August 2020
# in /lustre/scratch/uccabz1/launch_tmp
# on node-c12m-028
# by uccabz1
#
# compiler GCC version 4.9.2
# options -cpp -iprefix /lustre/shared/ucl/apps/gcc/4.9.2/bin/../lib/gcc/x86_64-unknown-linux-gnu/4.9.2/ -mtune=corei7 -march=x86-64 -g -Og
#
# seed   755635480   275862708 -1560246206 -1590785810 -1716050770 -1211184978 -1128344801  2041839110 -1394466906  1077472864   234017819  1813911172
#
#      Author: C. J. Pickard (cjp20@cam.ac.uk)
#                Space group: Pc
#

%BLOCK LATTICE_ABC
      3.81717      5.41837      9.87351
    101.65791     90.00000     90.00000
%ENDBLOCK LATTICE_ABC

%BLOCK POSITIONS_FRAC
  Li  -0.2270376   0.4725733   0.4732341 SPIN=   0.00000
  Li   0.2270376   0.4725733  -0.0267659 SPIN=   0.00000
  Fe   0.2222024  -0.0204896   0.4215442 SPIN=   4.00000
  Fe  -0.2222024  -0.0204896  -0.0784558 SPIN=   4.00000
   O   0.0617270   0.6390362  -0.2789304 SPIN=   0.00000
   O  -0.3264294   0.4631805  -0.1212955 SPIN=   0.00000
   O   0.0842008   0.1839853  -0.2751793 SPIN=   0.00000
   O  -0.4318022   0.3610294  -0.3737779 SPIN=   0.00000
   S  -0.1530759   0.4118078  -0.2622958 SPIN=   0.00000
   O  -0.0617270   0.6390362   0.2210696 SPIN=   0.00000
   O   0.3264294   0.4631805   0.3787045 SPIN=   0.00000
   O  -0.0842008   0.1839853   0.2248207 SPIN=   0.00000
   O   0.4318022   0.3610294   0.1262221 SPIN=   0.00000
   S   0.1530759   0.4118078   0.2377042 SPIN=   0.00000
   F   0.4842174  -0.1493767  -0.4284713 SPIN=   0.00000
   F  -0.4842174  -0.1493767   0.0715287 SPIN=   0.00000
%ENDBLOCK POSITIONS_FRAC

# Note: total spin =   8.00

KPOINTS_MP_SPACING 0.07

%BLOCK SPECIES_POT
QC5
%ENDBLOCK SPECIES_POT

SNAP_TO_SYMMETRY
SYMMETRY_GENERATE

