#              Generated by Buildcell
#
# at 01:47:03 (GMT+1.0) 4th August 2020
# in /lustre/scratch/uccabz1/launch_tmp
# on node-c12d-014
# by uccabz1
#
# compiler GCC version 4.9.2
# options -cpp -iprefix /lustre/shared/ucl/apps/gcc/4.9.2/bin/../lib/gcc/x86_64-unknown-linux-gnu/4.9.2/ -mtune=corei7 -march=x86-64 -g -Og
#
# seed  -744611448  1916385138  1247905417 -1768709292  1396374432  -828488518  -277080606  1973329482 -1751000746  1066384482  -721263505  -316948556
#
#      Author: C. J. Pickard (cjp20@cam.ac.uk)
#                Space group: P-1
#

%BLOCK LATTICE_ABC
      4.49268      6.71399      7.24122
    113.59543     92.02929     90.18193
%ENDBLOCK LATTICE_ABC

%BLOCK POSITIONS_FRAC
  Li   0.2288593  -0.2313985  -0.3096922 SPIN=   0.00000
  Li  -0.2288593   0.2313985   0.3096922 SPIN=   0.00000
  Fe   0.1868792  -0.1586348   0.1362870 SPIN=   4.00000
  Fe  -0.1868792   0.1586348  -0.1362870 SPIN=   4.00000
   O  -0.0255370   0.3934836  -0.4131740 SPIN=   0.00000
   O   0.3384589   0.1665073  -0.6538267 SPIN=   0.00000
   O   0.2193704   0.0921926  -0.3560786 SPIN=   0.00000
   O   0.5102732   0.4228431  -0.3122178 SPIN=   0.00000
   S   0.2606414   0.2687567  -0.4338243 SPIN=   0.00000
   O   0.0255370  -0.3934836   0.4131740 SPIN=   0.00000
   O  -0.3384589  -0.1665073   0.6538267 SPIN=   0.00000
   O  -0.2193704  -0.0921926   0.3560786 SPIN=   0.00000
   O  -0.5102732  -0.4228431   0.3122178 SPIN=   0.00000
   S  -0.2606414  -0.2687567   0.4338243 SPIN=   0.00000
   F   0.1605611   0.2797164   0.0680507 SPIN=   0.00000
   F  -0.1605611  -0.2797164  -0.0680507 SPIN=   0.00000
%ENDBLOCK POSITIONS_FRAC

# Note: total spin =   8.00

KPOINTS_MP_SPACING 0.07

%BLOCK SPECIES_POT
QC5
%ENDBLOCK SPECIES_POT

SNAP_TO_SYMMETRY
SYMMETRY_GENERATE

