#              Generated by Buildcell
#
# at 04:44:09 (GMT+1.0) 4th August 2020
# in /lustre/scratch/uccabz1/launch_tmp
# on node-c12g-020
# by uccabz1
#
# compiler GCC version 4.9.2
# options -cpp -iprefix /lustre/shared/ucl/apps/gcc/4.9.2/bin/../lib/gcc/x86_64-unknown-linux-gnu/4.9.2/ -mtune=corei7 -march=x86-64 -g -Og
#
# seed   547703462  -367087484 -2017605152   404872633   708613744   838982675 -1555904221 -1930047875  -904163523 -1482991550  -799219555  1684910582
#
#      Author: C. J. Pickard (cjp20@cam.ac.uk)
#                Space group: P-1
#

%BLOCK LATTICE_ABC
      5.84938      6.30527      6.89155
     99.75889    107.63616    117.48022
%ENDBLOCK LATTICE_ABC

%BLOCK POSITIONS_FRAC
  Li  -0.6207547  -0.2993184  -0.2460774 SPIN=   0.00000
  Li   0.6207547   0.2993184   0.2460774 SPIN=   0.00000
  Fe  -0.0939695  -0.1889808  -0.2949851 SPIN=   4.00000
  Fe   0.0939695   0.1889808   0.2949851 SPIN=   4.00000
   O   0.1440551  -0.3063643   0.1519509 SPIN=   0.00000
   O   0.5285938  -0.3517397   0.3728122 SPIN=   0.00000
   O   0.6441927  -0.0101802   0.2171469 SPIN=   0.00000
   S   0.4223990  -0.2834369   0.1788584 SPIN=   0.00000
   O  -0.1440551   0.3063643  -0.1519509 SPIN=   0.00000
   O  -0.5285938   0.3517397  -0.3728122 SPIN=   0.00000
   O  -0.6441927   0.0101802  -0.2171469 SPIN=   0.00000
   S  -0.4223990   0.2834369  -0.1788584 SPIN=   0.00000
   O  -0.5000000   0.0000000  -0.5000000 SPIN=   0.00000
   O  -1.0000000   0.0000000  -0.5000000 SPIN=   0.00000
   F  -0.0000000  -0.5000000   0.5000000 SPIN=   0.00000
   F  -0.0000000  -0.0000000  -0.0000000 SPIN=   0.00000
%ENDBLOCK POSITIONS_FRAC

# Note: total spin =   8.00

KPOINTS_MP_SPACING 0.07

%BLOCK SPECIES_POT
QC5
%ENDBLOCK SPECIES_POT

SNAP_TO_SYMMETRY
SYMMETRY_GENERATE

