#              Generated by Buildcell
#
# at 05:39:53 (GMT+1.0) 4th August 2020
# in /lustre/scratch/uccabz1/launch_tmp
# on node-c12n-034
# by uccabz1
#
# compiler GCC version 4.9.2
# options -cpp -iprefix /lustre/shared/ucl/apps/gcc/4.9.2/bin/../lib/gcc/x86_64-unknown-linux-gnu/4.9.2/ -mtune=corei7 -march=x86-64 -g -Og
#
# seed  2123662928   341055231 -1905660720 -1207790037   849299966 -1432766677  -873112355   203665300 -1632283423   168182658  1364036270   279448485
#
#      Author: C. J. Pickard (cjp20@cam.ac.uk)
#                Space group: P-1
#

%BLOCK LATTICE_ABC
      4.67849      6.00317      7.55675
     70.95762     85.72426     89.97997
%ENDBLOCK LATTICE_ABC

%BLOCK POSITIONS_FRAC
  Li  -0.2942536  -0.3074152   0.2459991 SPIN=   0.00000
  Li   0.2942536   0.3074152  -0.2459991 SPIN=   0.00000
  Fe   0.2324447  -0.6567766   0.3627303 SPIN=   4.00000
  Fe  -0.2324447   0.6567766  -0.3627303 SPIN=   4.00000
   O  -0.5644908   0.2903402   0.0994621 SPIN=   0.00000
   O  -0.1081922   0.4096740  -0.0979614 SPIN=   0.00000
   O  -0.2561365  -0.0118493   0.0319337 SPIN=   0.00000
   O  -0.1017752   0.1977383   0.2428260 SPIN=   0.00000
   S  -0.2576487   0.2214758   0.0690651 SPIN=   0.00000
   O   0.5644908  -0.2903402  -0.0994621 SPIN=   0.00000
   O   0.1081922  -0.4096740   0.0979614 SPIN=   0.00000
   O   0.2561365   0.0118493  -0.0319337 SPIN=   0.00000
   O   0.1017752  -0.1977383  -0.2428260 SPIN=   0.00000
   S   0.2576487  -0.2214758  -0.0690651 SPIN=   0.00000
   F  -0.2595559   0.2179170  -0.4179684 SPIN=   0.00000
   F   0.2595559  -0.2179170   0.4179684 SPIN=   0.00000
%ENDBLOCK POSITIONS_FRAC

# Note: total spin =   8.00

KPOINTS_MP_SPACING 0.07

%BLOCK SPECIES_POT
QC5
%ENDBLOCK SPECIES_POT

SNAP_TO_SYMMETRY
SYMMETRY_GENERATE

