#              Generated by Buildcell
#
# at 02:43:21 (GMT+1.0) 4th August 2020
# in /lustre/scratch/uccabz1/launch_tmp
# on node-c12f-024
# by uccabz1
#
# compiler GCC version 4.9.2
# options -cpp -iprefix /lustre/shared/ucl/apps/gcc/4.9.2/bin/../lib/gcc/x86_64-unknown-linux-gnu/4.9.2/ -mtune=corei7 -march=x86-64 -g -Og
#
# seed  2004999587  -707532880 -1427219898  1674324930   -67970560  1454504370  -372261824 -1698420614 -1331179063  2127831946    76719354  -318982676
#
#      Author: C. J. Pickard (cjp20@cam.ac.uk)
#                Space group: P-1
#

%BLOCK LATTICE_ABC
      4.53234      5.07170      8.90616
     88.27483     77.88007     88.16810
%ENDBLOCK LATTICE_ABC

%BLOCK POSITIONS_FRAC
  Li  -0.3711776   0.2681482  -0.1793056 SPIN=   0.00000
  Li   0.3711776  -0.2681482   0.1793056 SPIN=   0.00000
  Fe  -0.2207773   0.2545717   0.1304467 SPIN=   4.00000
  Fe   0.2207773  -0.2545717  -0.1304467 SPIN=   4.00000
   O   0.5379016   0.1632334  -0.4180081 SPIN=   0.00000
   O   0.1896034   0.5383350  -0.3276996 SPIN=   0.00000
   O   0.0512687   0.0832781  -0.2383717 SPIN=   0.00000
   O   0.0585483   0.2217172  -0.5079467 SPIN=   0.00000
   S   0.2093305   0.2516409  -0.3730065 SPIN=   0.00000
   O  -0.5379016  -0.1632334   0.4180081 SPIN=   0.00000
   O  -0.1896034  -0.5383350   0.3276996 SPIN=   0.00000
   O  -0.0512687  -0.0832781   0.2383717 SPIN=   0.00000
   O  -0.0585483  -0.2217172   0.5079467 SPIN=   0.00000
   S  -0.2093305  -0.2516409   0.3730065 SPIN=   0.00000
   F   0.3327484   0.2890457   0.1733613 SPIN=   0.00000
   F  -0.3327484  -0.2890457  -0.1733613 SPIN=   0.00000
%ENDBLOCK POSITIONS_FRAC

# Note: total spin =   8.00

KPOINTS_MP_SPACING 0.07

%BLOCK SPECIES_POT
QC5
%ENDBLOCK SPECIES_POT

SNAP_TO_SYMMETRY
SYMMETRY_GENERATE

