#              Generated by Buildcell
#
# at 01:21:05 (GMT+1.0) 19th August 2020
# in /lustre/scratch/uccabz1/launch_tmp
# on node-c12j-028
# by uccabz1
#
# compiler GCC version 4.9.2
# options -cpp -iprefix /lustre/shared/ucl/apps/gcc/4.9.2/bin/../lib/gcc/x86_64-unknown-linux-gnu/4.9.2/ -mtune=corei7 -march=x86-64 -g -Og
#
# seed -1137188127 -1868429705  -668528448  -756846534   232981125   848558255  -429215853  2112052987  -475673497  1394831349  1137469220 -2055391017
#
#      Author: C. J. Pickard (cjp20@cam.ac.uk)
#                Space group: C2
#

%BLOCK LATTICE_ABC
      3.80717      5.05922     11.30167
     96.87069     90.00000    112.10222
%ENDBLOCK LATTICE_ABC

%BLOCK POSITIONS_FRAC
  Li   0.1244752   0.2968921  -0.1765367 SPIN=   0.00000
  Li  -0.1724170  -0.2968921   0.1765367 SPIN=   0.00000
  Fe   0.1063818   0.2582320   0.3931436 SPIN=   4.00000
  Fe  -0.1518502  -0.2582320  -0.3931436 SPIN=   4.00000
   O   0.5334580  -0.3191394  -0.1011794 SPIN=   0.00000
   O   0.6839193  -0.0183145  -0.2657508 SPIN=   0.00000
   O   0.4302020   0.1384906  -0.0805001 SPIN=   0.00000
   O   0.0148211  -0.2779017  -0.2200755 SPIN=   0.00000
   S   0.4156001  -0.1192163  -0.1668764 SPIN=   0.00000
   O  -0.1474025   0.3191394   0.1011794 SPIN=   0.00000
   O  -0.2977662   0.0183145   0.2657508 SPIN=   0.00000
   O  -0.7082886  -0.1384906   0.0805001 SPIN=   0.00000
   O  -0.7072772   0.2779017   0.2200755 SPIN=   0.00000
   S  -0.4651836   0.1192163   0.1668764 SPIN=   0.00000
   F   0.0987755  -0.3238849   0.3930288 SPIN=   0.00000
   F   0.4226604   0.3238849  -0.3930288 SPIN=   0.00000
%ENDBLOCK POSITIONS_FRAC

# Note: total spin =   8.00

KPOINTS_MP_SPACING 0.07

%BLOCK SPECIES_POT
QC5
%ENDBLOCK SPECIES_POT

SNAP_TO_SYMMETRY
SYMMETRY_GENERATE

