#              Generated by Buildcell
#
# at 02:40:36 (GMT+1.0) 4th August 2020
# in /lustre/scratch/uccabz1/launch_tmp
# on node-c12e-006
# by uccabz1
#
# compiler GCC version 4.9.2
# options -cpp -iprefix /lustre/shared/ucl/apps/gcc/4.9.2/bin/../lib/gcc/x86_64-unknown-linux-gnu/4.9.2/ -mtune=corei7 -march=x86-64 -g -Og
#
# seed -1736217761  -946446100  -129788936  -182410908  -681854474  1368634264  -264770356 -1228474272 -1365331153  2047587861   592402143   -66015573
#
#      Author: C. J. Pickard (cjp20@cam.ac.uk)
#                Space group: Iba2
#

%BLOCK LATTICE_ABC
      5.62155      6.23571      7.08332
    116.11466    113.37927     90.00000
%ENDBLOCK LATTICE_ABC

%BLOCK POSITIONS_FRAC
  Li  -0.4559868   0.0440132   0.0880264 SPIN=   0.00000
  Li   0.0440132  -0.4559868   0.0880264 SPIN=   0.00000
  Fe   0.1547934   0.1547934   0.3095867 SPIN=   4.00000
  Fe  -0.3452066  -0.3452066   0.3095867 SPIN=   4.00000
   O   0.0361304  -0.1782242  -0.6394186 SPIN=   0.00000
   O   0.4951400   0.0124514  -0.3265701 SPIN=   0.00000
   O   0.3244510  -0.4611945  -0.6394186 SPIN=   0.00000
   O   0.1782899  -0.3390215  -0.3265701 SPIN=   0.00000
   O  -0.1755490   0.3217758  -0.6394186 SPIN=   0.00000
   O  -0.3217101   0.5124514  -0.3265701 SPIN=   0.00000
   O  -0.4638696   0.0388055  -0.6394186 SPIN=   0.00000
   O  -0.0048600   0.1609785  -0.3265701 SPIN=   0.00000
   S   0.2986643  -0.2013357  -0.4026714 SPIN=   0.00000
   S  -0.2013357   0.2986643  -0.4026714 SPIN=   0.00000
   F  -0.0353901  -0.0353901  -0.0707803 SPIN=   0.00000
   F   0.4646099   0.4646099  -0.0707803 SPIN=   0.00000
%ENDBLOCK POSITIONS_FRAC

# Note: total spin =   8.00

KPOINTS_MP_SPACING 0.07

%BLOCK SPECIES_POT
QC5
%ENDBLOCK SPECIES_POT

SNAP_TO_SYMMETRY
SYMMETRY_GENERATE

