#              Generated by Buildcell
#
# at 03:48:26 (GMT+1.0) 4th August 2020
# in /lustre/scratch/uccabz1/launch_tmp
# on node-c12d-025
# by uccabz1
#
# compiler GCC version 4.9.2
# options -cpp -iprefix /lustre/shared/ucl/apps/gcc/4.9.2/bin/../lib/gcc/x86_64-unknown-linux-gnu/4.9.2/ -mtune=corei7 -march=x86-64 -g -Og
#
# seed   907254847   -15247264   941046774  2126661033  -604324423   848207758   587260826  1648385860  -351428416 -1326264578   636087354 -1149122446
#
#      Author: C. J. Pickard (cjp20@cam.ac.uk)
#                Space group: P21
#

%BLOCK LATTICE_ABC
      5.00367      5.29486      7.54899
     90.00000     90.00000     90.15857
%ENDBLOCK LATTICE_ABC

%BLOCK POSITIONS_FRAC
  Li  -0.3529400   0.0575534  -0.1177296 SPIN=   0.00000
  Li   0.3529400  -0.0575534   0.3822704 SPIN=   0.00000
  Fe   0.0203116  -0.4777705  -0.0190542 SPIN=   4.00000
  Fe  -0.0203116   0.4777705   0.4809458 SPIN=   4.00000
   O   0.0752320  -0.2554018  -0.2442028 SPIN=   0.00000
   O   0.4050513   0.0550897  -0.3561160 SPIN=   0.00000
   O   0.1826105   0.1253236  -0.0675421 SPIN=   0.00000
   O  -0.0750637   0.1652337  -0.3459301 SPIN=   0.00000
   S   0.1469575   0.0225613  -0.2534478 SPIN=   0.00000
   O  -0.0752320   0.2554018   0.2557972 SPIN=   0.00000
   O  -0.4050513  -0.0550897   0.1438840 SPIN=   0.00000
   O  -0.1826105  -0.1253236   0.4324579 SPIN=   0.00000
   O   0.0750637  -0.1652337   0.1540699 SPIN=   0.00000
   S  -0.1469575  -0.0225613   0.2465522 SPIN=   0.00000
   F   0.3640535  -0.4817312   0.4296721 SPIN=   0.00000
   F  -0.3640535   0.4817312  -0.0703279 SPIN=   0.00000
%ENDBLOCK POSITIONS_FRAC

# Note: total spin =   8.00

KPOINTS_MP_SPACING 0.07

%BLOCK SPECIES_POT
QC5
%ENDBLOCK SPECIES_POT

SNAP_TO_SYMMETRY
SYMMETRY_GENERATE

