#              Generated by Buildcell
#
# at 04:49:28 (GMT+1.0) 4th August 2020
# in /lustre/scratch/uccabz1/launch_tmp
# on node-c12e-015
# by uccabz1
#
# compiler GCC version 4.9.2
# options -cpp -iprefix /lustre/shared/ucl/apps/gcc/4.9.2/bin/../lib/gcc/x86_64-unknown-linux-gnu/4.9.2/ -mtune=corei7 -march=x86-64 -g -Og
#
# seed   816708885  1541445755 -1606599441  2025122429  -713271445   862735446 -1036208222   730657478  1901327452  1561654516  -750751468  1991808880
#
#      Author: C. J. Pickard (cjp20@cam.ac.uk)
#                Space group: P42
#

%BLOCK LATTICE_ABC
      3.98051      3.98051     12.62268
     90.00000     90.00000     90.00000
%ENDBLOCK LATTICE_ABC

%BLOCK POSITIONS_FRAC
  Li  -0.0000000   0.5000000   0.2088156 SPIN=   0.00000
  Li   0.5000000  -0.0000000  -0.2911844 SPIN=   0.00000
  Fe  -0.0000000  -0.0000000   0.0343063 SPIN=   4.00000
  Fe   0.0000000   0.0000000  -0.4656937 SPIN=   4.00000
   O   0.2524633  -0.1577513  -0.1666877 SPIN=   0.00000
   O  -0.2524816  -0.3439582  -0.0685105 SPIN=   0.00000
   O  -0.2524633   0.1577513  -0.1666877 SPIN=   0.00000
   O   0.2524816   0.3439582  -0.0685105 SPIN=   0.00000
   O   0.1577513   0.2524633   0.3333123 SPIN=   0.00000
   O   0.3439582  -0.2524816   0.4314895 SPIN=   0.00000
   O  -0.1577513  -0.2524633   0.3333123 SPIN=   0.00000
   O  -0.3439582   0.2524816   0.4314895 SPIN=   0.00000
   S  -0.5000000   0.5000000  -0.1391174 SPIN=   0.00000
   S   0.5000000  -0.5000000   0.3608826 SPIN=   0.00000
   F  -0.5000000  -0.0000000   0.1122301 SPIN=   0.00000
   F  -0.0000000   0.5000000  -0.3877699 SPIN=   0.00000
%ENDBLOCK POSITIONS_FRAC

# Note: total spin =   8.00

KPOINTS_MP_SPACING 0.07

%BLOCK SPECIES_POT
QC5
%ENDBLOCK SPECIES_POT

SNAP_TO_SYMMETRY
SYMMETRY_GENERATE

