#              Generated by Buildcell
#
# at 03:37:25 (GMT+1.0) 4th August 2020
# in /lustre/scratch/uccabz1/launch_tmp
# on node-c12l-021
# by uccabz1
#
# compiler GCC version 4.9.2
# options -cpp -iprefix /lustre/shared/ucl/apps/gcc/4.9.2/bin/../lib/gcc/x86_64-unknown-linux-gnu/4.9.2/ -mtune=corei7 -march=x86-64 -g -Og
#
# seed -1533587286  1990438580  2130672539 -1957258895  -774984429   494354864  1063239243  -850158095 -1435432641   847229663  1746372083  -497386522
#
#      Author: C. J. Pickard (cjp20@cam.ac.uk)
#                Space group: Cc
#

%BLOCK LATTICE_ABC
      5.42067      6.39637      6.39637
     70.77036     76.02001     76.02001
%ENDBLOCK LATTICE_ABC

%BLOCK POSITIONS_FRAC
  Li   0.4706416  -0.1375032  -0.4435938 SPIN=   0.00000
  Li  -0.0293584  -0.4435938  -0.1375032 SPIN=   0.00000
  Fe   0.0733580  -0.0603559   0.2581433 SPIN=   4.00000
  Fe  -0.4266420   0.2581433  -0.0603559 SPIN=   4.00000
   O   0.2851021   0.1960163  -0.5997457 SPIN=   0.00000
   O   0.2132856   0.5061992  -0.4292136 SPIN=   0.00000
   O   0.3675130   0.1151403  -0.2143323 SPIN=   0.00000
   O  -0.0807721   0.2285813  -0.2875655 SPIN=   0.00000
   S   0.1962821   0.2614843  -0.3827143 SPIN=   0.00000
   O  -0.2148979  -0.5997457   0.1960163 SPIN=   0.00000
   O  -0.2867144  -0.4292136   0.5061992 SPIN=   0.00000
   O  -0.1324870  -0.2143323   0.1151403 SPIN=   0.00000
   O  -0.5807721  -0.2875655   0.2285813 SPIN=   0.00000
   S  -0.3037179  -0.3827143   0.2614843 SPIN=   0.00000
   F  -0.1938725  -0.0624122  -0.4400243 SPIN=   0.00000
   F   0.3061275  -0.4400243  -0.0624122 SPIN=   0.00000
%ENDBLOCK POSITIONS_FRAC

# Note: total spin =   8.00

KPOINTS_MP_SPACING 0.07

%BLOCK SPECIES_POT
QC5
%ENDBLOCK SPECIES_POT

SNAP_TO_SYMMETRY
SYMMETRY_GENERATE

