#              Generated by Buildcell
#
# at 02:40:01 (GMT+1.0) 19th August 2020
# in /lustre/scratch/uccabz1/launch_tmp
# on node-c12f-013
# by uccabz1
#
# compiler GCC version 4.9.2
# options -cpp -iprefix /lustre/shared/ucl/apps/gcc/4.9.2/bin/../lib/gcc/x86_64-unknown-linux-gnu/4.9.2/ -mtune=corei7 -march=x86-64 -g -Og
#
# seed   548690024    28330444  -409370669  1078016592  -406475388  -148838378   483558364   799988456  1592654530 -1535574908   143039437 -1063565199
#
#      Author: C. J. Pickard (cjp20@cam.ac.uk)
#                Space group: Pc
#

%BLOCK LATTICE_ABC
      4.14955      5.73998      8.69695
    105.09415     90.00000     90.00000
%ENDBLOCK LATTICE_ABC

%BLOCK POSITIONS_FRAC
  Li   0.3028885  -0.4375521  -0.2720248 SPIN=   0.00000
  Li  -0.3028885  -0.4375521   0.2279752 SPIN=   0.00000
  Fe  -0.0910832  -0.1086391   0.0414048 SPIN=   4.00000
  Fe   0.0910832  -0.1086391  -0.4585952 SPIN=   4.00000
   O   0.2862340   0.5312198  -0.0058956 SPIN=   0.00000
   O   0.8014104   0.3134344  -0.0793745 SPIN=   0.00000
   O   0.2982083   0.1493396  -0.2189376 SPIN=   0.00000
   O   0.3808109   0.1440129   0.0619520 SPIN=   0.00000
   S   0.4416659   0.2845017  -0.0605639 SPIN=   0.00000
   O  -0.2862340   0.5312198   0.4941044 SPIN=   0.00000
   O  -0.8014104   0.3134344   0.4206255 SPIN=   0.00000
   O  -0.2982083   0.1493396   0.2810624 SPIN=   0.00000
   O  -0.3808109   0.1440129   0.5619520 SPIN=   0.00000
   S  -0.4416659   0.2845017   0.4394361 SPIN=   0.00000
   F   0.1532996  -0.2542015   0.3207842 SPIN=   0.00000
   F  -0.1532996  -0.2542015  -0.1792158 SPIN=   0.00000
%ENDBLOCK POSITIONS_FRAC

# Note: total spin =   8.00

KPOINTS_MP_SPACING 0.07

%BLOCK SPECIES_POT
QC5
%ENDBLOCK SPECIES_POT

SNAP_TO_SYMMETRY
SYMMETRY_GENERATE

