#              Generated by Buildcell
#
# at 22:13:05 (GMT+1.0) 18th August 2020
# in /lustre/scratch/uccabz1/launch_tmp
# on node-c12a-016
# by uccabz1
#
# compiler GCC version 4.9.2
# options -cpp -iprefix /lustre/shared/ucl/apps/gcc/4.9.2/bin/../lib/gcc/x86_64-unknown-linux-gnu/4.9.2/ -mtune=corei7 -march=x86-64 -g -Og
#
# seed  1092854494   615490654  -730951476  1525456384 -1944460314   236545831  -279458642  2022471260 -1518628651  1653395289 -1652469321   801361456
#
#      Author: C. J. Pickard (cjp20@cam.ac.uk)
#                Space group: P21
#

%BLOCK LATTICE_ABC
      5.72599      5.91643      6.06640
     90.00000    103.30229     90.00000
%ENDBLOCK LATTICE_ABC

%BLOCK POSITIONS_FRAC
  Li  -0.0233629  -0.0366475  -0.3239766 SPIN=   0.00000
  Li   0.0233629   0.4633525   0.3239766 SPIN=   0.00000
  Fe   0.0306189   0.4556458  -0.1743472 SPIN=   4.00000
  Fe  -0.0306189  -0.0443542   0.1743472 SPIN=   4.00000
   O   0.6210979  -0.1059452   0.2571224 SPIN=   0.00000
   O   0.3303933  -0.3234727  -0.0298917 SPIN=   0.00000
   O   0.3143926  -0.3429708   0.3738887 SPIN=   0.00000
   O   0.6500445  -0.5229513   0.2453786 SPIN=   0.00000
   S   0.4789821  -0.3238350   0.2116245 SPIN=   0.00000
   O  -0.6210979   0.3940548  -0.2571224 SPIN=   0.00000
   O  -0.3303933   0.1765273   0.0298917 SPIN=   0.00000
   O  -0.3143926   0.1570292  -0.3738887 SPIN=   0.00000
   O  -0.6500445  -0.0229513  -0.2453786 SPIN=   0.00000
   S  -0.4789821   0.1761650  -0.2116245 SPIN=   0.00000
   F  -0.1955561  -0.3231944  -0.2430909 SPIN=   0.00000
   F   0.1955561   0.1768056   0.2430909 SPIN=   0.00000
%ENDBLOCK POSITIONS_FRAC

# Note: total spin =   8.00

KPOINTS_MP_SPACING 0.07

%BLOCK SPECIES_POT
QC5
%ENDBLOCK SPECIES_POT

SNAP_TO_SYMMETRY
SYMMETRY_GENERATE

