#              Generated by Buildcell
#
# at 03:02:42 (GMT+1.0) 19th August 2020
# in /lustre/scratch/uccabz1/launch_tmp
# on node-c12p-030
# by uccabz1
#
# compiler GCC version 4.9.2
# options -cpp -iprefix /lustre/shared/ucl/apps/gcc/4.9.2/bin/../lib/gcc/x86_64-unknown-linux-gnu/4.9.2/ -mtune=corei7 -march=x86-64 -g -Og
#
# seed  -224558920   396115453 -2143862059 -1593597030 -1927976982  -887390349  1199459416  1918963843  1469115466  -155848853    82497936   150231127
#
#      Author: C. J. Pickard (cjp20@cam.ac.uk)
#                Space group: P2
#

%BLOCK LATTICE_ABC
      4.30162      6.83873      7.28583
    111.07146     90.00000     90.00000
%ENDBLOCK LATTICE_ABC

%BLOCK POSITIONS_FRAC
  Li   0.2805617   0.4226693  -0.2772799 SPIN=   0.00000
  Li   0.2805617  -0.4226693   0.2772799 SPIN=   0.00000
  Fe  -0.2178151  -0.2438614  -0.2121715 SPIN=   4.00000
  Fe  -0.2178151   0.2438614   0.2121715 SPIN=   4.00000
   O  -0.5152924   0.0879532  -0.3197667 SPIN=   0.00000
   O  -0.2992002   0.4450776  -0.1636574 SPIN=   0.00000
   O   0.0005744   0.1736313  -0.4211941 SPIN=   0.00000
   O  -0.0670878   0.1485065  -0.0930654 SPIN=   0.00000
   S  -0.2202515   0.2137921  -0.2494209 SPIN=   0.00000
   O  -0.5152924  -0.0879532   0.3197667 SPIN=   0.00000
   O  -0.2992002  -0.4450776   0.1636574 SPIN=   0.00000
   O   0.0005744  -0.1736313   0.4211941 SPIN=   0.00000
   O  -0.0670878  -0.1485065   0.0930654 SPIN=   0.00000
   S  -0.2202515  -0.2137921   0.2494209 SPIN=   0.00000
   F   0.2956162  -0.2794300  -0.2271626 SPIN=   0.00000
   F   0.2956162   0.2794300   0.2271626 SPIN=   0.00000
%ENDBLOCK POSITIONS_FRAC

# Note: total spin =   8.00

KPOINTS_MP_SPACING 0.07

%BLOCK SPECIES_POT
QC5
%ENDBLOCK SPECIES_POT

SNAP_TO_SYMMETRY
SYMMETRY_GENERATE

