#              Generated by Buildcell
#
# at 23:55:03 (GMT+1.0) 18th August 2020
# in /lustre/scratch/uccabz1/launch_tmp
# on node-c12e-036
# by uccabz1
#
# compiler GCC version 4.9.2
# options -cpp -iprefix /lustre/shared/ucl/apps/gcc/4.9.2/bin/../lib/gcc/x86_64-unknown-linux-gnu/4.9.2/ -mtune=corei7 -march=x86-64 -g -Og
#
# seed   -45075382  -545935402  1966856593  2082821944  -559049781 -1742451312   627911203  1243849130 -1782127639   459101998  1113060686  -998121536
#
#      Author: C. J. Pickard (cjp20@cam.ac.uk)
#                Space group: P2
#

%BLOCK LATTICE_ABC
      3.96599      7.34894      7.50428
    113.87685     90.00000     90.00000
%ENDBLOCK LATTICE_ABC

%BLOCK POSITIONS_FRAC
  Li  -0.0152191  -0.2906728  -0.0984026 SPIN=   0.00000
  Li  -0.0152191   0.2906728   0.0984026 SPIN=   0.00000
  Fe  -0.1642737  -0.3084275   0.4011681 SPIN=   4.00000
  Fe  -0.1642737   0.3084275  -0.4011681 SPIN=   4.00000
   O   0.3945658   0.1832804  -0.3300811 SPIN=   0.00000
   O   0.3977644   0.1453993  -0.0170554 SPIN=   0.00000
   O   0.5667772  -0.1366342  -0.3212074 SPIN=   0.00000
   S   0.3321736   0.0403699  -0.2340145 SPIN=   0.00000
   O   0.3945658  -0.1832804   0.3300811 SPIN=   0.00000
   O   0.3977644  -0.1453993   0.0170554 SPIN=   0.00000
   O   0.5667772   0.1366342   0.3212074 SPIN=   0.00000
   S   0.3321736  -0.0403699   0.2340145 SPIN=   0.00000
   O  -0.0298371   0.0000000   0.5000000 SPIN=   0.00000
   O  -0.0858015  -0.0000000  -0.0000000 SPIN=   0.00000
   F  -0.1680847  -0.5000000   0.0000000 SPIN=   0.00000
   F   0.2062326   0.5000000   0.5000000 SPIN=   0.00000
%ENDBLOCK POSITIONS_FRAC

# Note: total spin =   8.00

KPOINTS_MP_SPACING 0.07

%BLOCK SPECIES_POT
QC5
%ENDBLOCK SPECIES_POT

SNAP_TO_SYMMETRY
SYMMETRY_GENERATE

