#              Generated by Buildcell
#
# at 05:29:56 (GMT+1.0) 4th August 2020
# in /lustre/scratch/uccabz1/launch_tmp
# on node-c12f-014
# by uccabz1
#
# compiler GCC version 4.9.2
# options -cpp -iprefix /lustre/shared/ucl/apps/gcc/4.9.2/bin/../lib/gcc/x86_64-unknown-linux-gnu/4.9.2/ -mtune=corei7 -march=x86-64 -g -Og
#
# seed -2145379323 -1894670302 -1453795750   100439428   896132611  -143365470  1006003254  -375387719  -267906830  1037250873 -2065572598 -2076142887
#
#      Author: C. J. Pickard (cjp20@cam.ac.uk)
#                Space group: Cmm2
#

%BLOCK LATTICE_ABC
      3.94263      7.51034      7.72805
    119.07242     90.00000     90.00000
%ENDBLOCK LATTICE_ABC

%BLOCK POSITIONS_FRAC
  Li   0.3214825   0.3535152  -0.2929696 SPIN=   0.00000
  Li   0.3214825  -0.3535152   0.2929696 SPIN=   0.00000
  Fe  -0.2446188   0.2500001   0.0000000 SPIN=   4.00000
  Fe  -0.2446188  -0.2500001  -0.0000000 SPIN=   4.00000
   O  -0.2705660  -0.0261109  -0.3710498 SPIN=   0.00000
   O   0.2398914   0.1221239  -0.1636255 SPIN=   0.00000
   O  -0.2705660   0.0261109   0.3710498 SPIN=   0.00000
   O   0.2398914  -0.1221239   0.1636255 SPIN=   0.00000
   O  -0.2705660   0.3449389   0.3710498 SPIN=   0.00000
   O   0.2398914   0.2857493   0.1636255 SPIN=   0.00000
   O  -0.2705660  -0.3449389  -0.3710498 SPIN=   0.00000
   O   0.2398914  -0.2857493  -0.1636255 SPIN=   0.00000
   S   0.3091752  -0.1440653  -0.2881305 SPIN=   0.00000
   S   0.3091752   0.1440653   0.2881305 SPIN=   0.00000
   F  -0.1908355   0.3539556  -0.2920888 SPIN=   0.00000
   F  -0.1908355  -0.3539556   0.2920888 SPIN=   0.00000
%ENDBLOCK POSITIONS_FRAC

# Note: total spin =   8.00

KPOINTS_MP_SPACING 0.07

%BLOCK SPECIES_POT
QC5
%ENDBLOCK SPECIES_POT

SNAP_TO_SYMMETRY
SYMMETRY_GENERATE

