#              Generated by Buildcell
#
# at 21:18:04 (GMT+1.0) 18th August 2020
# in /lustre/scratch/uccabz1/launch_tmp
# on node-c12f-001
# by uccabz1
#
# compiler GCC version 4.9.2
# options -cpp -iprefix /lustre/shared/ucl/apps/gcc/4.9.2/bin/../lib/gcc/x86_64-unknown-linux-gnu/4.9.2/ -mtune=corei7 -march=x86-64 -g -Og
#
# seed  -288166020  2058024119  -960477504   997088085 -1887768841  -542625237 -1366755614  -748933454   817625466 -1342110067   168059081 -1856490410
#
#      Author: C. J. Pickard (cjp20@cam.ac.uk)
#                Space group: P2/c
#

%BLOCK LATTICE_ABC
      5.83259      5.84907      5.89720
     90.00000     96.21946     90.00000
%ENDBLOCK LATTICE_ABC

%BLOCK POSITIONS_FRAC
  Li   0.2500000  -0.3718702  -0.2500000 SPIN=   0.00000
  Li  -0.2500000   0.3718702   0.2500000 SPIN=   0.00000
  Fe   0.0000000  -0.0000000  -0.0000000 SPIN=   4.00000
  Fe   0.5000000  -0.0000000   0.5000000 SPIN=   4.00000
   O   0.5571522   0.3952413  -0.1534688 SPIN=   0.00000
   O   0.3687094   0.3469813  -0.5471603 SPIN=   0.00000
   O  -0.0571522   0.3952413  -0.3465312 SPIN=   0.00000
   O   0.1312906   0.3469813   0.0471603 SPIN=   0.00000
   O  -0.5571522  -0.3952413   0.1534688 SPIN=   0.00000
   O  -0.3687094  -0.3469813   0.5471603 SPIN=   0.00000
   O   0.0571522  -0.3952413   0.3465312 SPIN=   0.00000
   O  -0.1312906  -0.3469813  -0.0471603 SPIN=   0.00000
   S  -0.2500000  -0.4653480  -0.2500000 SPIN=   0.00000
   S   0.2500000   0.4653480   0.2500000 SPIN=   0.00000
   F  -0.2500000  -0.0046815   0.2500000 SPIN=   0.00000
   F   0.2500000   0.0046815  -0.2500000 SPIN=   0.00000
%ENDBLOCK POSITIONS_FRAC

# Note: total spin =   8.00

KPOINTS_MP_SPACING 0.07

%BLOCK SPECIES_POT
QC5
%ENDBLOCK SPECIES_POT

SNAP_TO_SYMMETRY
SYMMETRY_GENERATE

