#              Generated by Buildcell
#
# at 00:28:57 (GMT+1.0) 19th August 2020
# in /scratch/scratch/uccabz1/launch_tmp
# on node-k10f-025
# by uccabz1
#
# compiler GCC version 4.9.2
# options -cpp -iprefix /scratch/UCL/applications/gcc/4.9.2/bin/../lib/gcc/x86_64-unknown-linux-gnu/4.9.2/ -mtune=corei7 -march=x86-64 -g -O2
#
# seed -1063818506  -270407953 -1614737523  -265767354  -467970331  -235885676  2124168797   -37206464  -205073259   926554773 -1949582575  1157128853
#
#      Author: C. J. Pickard (cjp20@cam.ac.uk)
#                Space group: Pc
#

%BLOCK LATTICE_ABC
      5.33315      5.59534      7.09763
     90.00000    109.21476     90.00000
%ENDBLOCK LATTICE_ABC

%BLOCK POSITIONS_FRAC
  Li   0.2662107   0.2068037   0.4465863 SPIN=   0.00000
  Li  -0.2337893  -0.2068037   0.4465863 SPIN=   0.00000
  Fe   0.2352765  -0.2415225   0.1059712 SPIN=   4.00000
  Fe  -0.2647235   0.2415225   0.1059712 SPIN=   4.00000
   O  -0.0403353   0.0892471  -0.3945809 SPIN=   0.00000
   O  -0.0106595   0.2582632  -0.0657021 SPIN=   0.00000
   O   0.1142562   0.5050167  -0.3102908 SPIN=   0.00000
   O   0.3993133   0.1665347  -0.1424686 SPIN=   0.00000
   S   0.1156437   0.2547654  -0.2282606 SPIN=   0.00000
   O  -0.5403353  -0.0892471  -0.3945809 SPIN=   0.00000
   O  -0.5106595  -0.2582632  -0.0657021 SPIN=   0.00000
   O  -0.3857438  -0.5050167  -0.3102908 SPIN=   0.00000
   O  -0.1006867  -0.1665347  -0.1424686 SPIN=   0.00000
   S  -0.3843563  -0.2547654  -0.2282606 SPIN=   0.00000
   F   0.0460937  -0.2767075   0.2795495 SPIN=   0.00000
   F  -0.4539063   0.2767075   0.2795495 SPIN=   0.00000
%ENDBLOCK POSITIONS_FRAC

# Note: total spin =   8.00

KPOINTS_MP_SPACING 0.07

%BLOCK SPECIES_POT
QC5
%ENDBLOCK SPECIES_POT

SNAP_TO_SYMMETRY
SYMMETRY_GENERATE

