#              Generated by Buildcell
#
# at 04:26:30 (GMT+1.0) 4th August 2020
# in /lustre/scratch/uccabz1/launch_tmp
# on node-c12l-029
# by uccabz1
#
# compiler GCC version 4.9.2
# options -cpp -iprefix /lustre/shared/ucl/apps/gcc/4.9.2/bin/../lib/gcc/x86_64-unknown-linux-gnu/4.9.2/ -mtune=corei7 -march=x86-64 -g -Og
#
# seed -1360135688  -743746651   -70234460  1137164148  1580623676 -1355609908   583433011   342072690 -1669059420  1222900410 -1263924078  -644512208
#
#      Author: C. J. Pickard (cjp20@cam.ac.uk)
#                Space group: Cc
#

%BLOCK LATTICE_ABC
      4.66435      6.84703      7.21945
    112.23706    108.84690     90.00000
%ENDBLOCK LATTICE_ABC

%BLOCK POSITIONS_FRAC
  Li   0.2235846   0.2264737  -0.0431564 SPIN=   0.00000
  Li  -0.2667409  -0.2735263  -0.0431564 SPIN=   0.00000
  Fe   0.1490694  -0.2290000  -0.3496452 SPIN=   4.00000
  Fe  -0.4987146   0.2710000  -0.3496452 SPIN=   4.00000
   O  -0.2069052   0.1781166  -0.0245430 SPIN=   0.00000
   O  -0.4456914   0.4965089   0.1216480 SPIN=   0.00000
   O   0.1169485   0.5245089   0.2187709 SPIN=   0.00000
   O  -0.1458993   0.3293867   0.3585091 SPIN=   0.00000
   S  -0.1703868   0.3821302   0.1685962 SPIN=   0.00000
   O   0.1823622  -0.3218834  -0.0245430 SPIN=   0.00000
   O   0.5673394  -0.0034911   0.1216480 SPIN=   0.00000
   O   0.1018223   0.0245089   0.2187709 SPIN=   0.00000
   O   0.5044084  -0.1706133   0.3585091 SPIN=   0.00000
   S   0.3389831  -0.1178698   0.1685962 SPIN=   0.00000
   F  -0.4268437  -0.3766824  -0.3536836 SPIN=   0.00000
   F   0.0731601   0.1233176  -0.3536836 SPIN=   0.00000
%ENDBLOCK POSITIONS_FRAC

# Note: total spin =   8.00

KPOINTS_MP_SPACING 0.07

%BLOCK SPECIES_POT
QC5
%ENDBLOCK SPECIES_POT

SNAP_TO_SYMMETRY
SYMMETRY_GENERATE

