#              Generated by Buildcell
#
# at 05:17:02 (GMT+1.0) 4th August 2020
# in /lustre/scratch/uccabz1/launch_tmp
# on node-c12k-035
# by uccabz1
#
# compiler GCC version 4.9.2
# options -cpp -iprefix /lustre/shared/ucl/apps/gcc/4.9.2/bin/../lib/gcc/x86_64-unknown-linux-gnu/4.9.2/ -mtune=corei7 -march=x86-64 -g -Og
#
# seed -2046279514   159248358   969832413 -1695079953  1546173341 -1759261006   505526378  1246698366  2140264722   898724190   993082085  -434227816
#
#      Author: C. J. Pickard (cjp20@cam.ac.uk)
#                Space group: P2
#

%BLOCK LATTICE_ABC
      5.10927      5.97906      6.82928
     90.00000    106.53283     90.00000
%ENDBLOCK LATTICE_ABC

%BLOCK POSITIONS_FRAC
  Li  -0.1685111   0.0022823  -0.2850556 SPIN=   0.00000
  Li   0.1685111   0.0022823   0.2850556 SPIN=   0.00000
  Fe  -0.1680102  -0.4946624  -0.2846713 SPIN=   4.00000
  Fe   0.1680102  -0.4946624   0.2846713 SPIN=   4.00000
   O   0.2185514   0.2455909  -0.4975739 SPIN=   0.00000
   O   0.1467622   0.2142236  -0.1551947 SPIN=   0.00000
   O   0.6151904   0.2449967  -0.1886276 SPIN=   0.00000
   S   0.3322571   0.1507634  -0.2844096 SPIN=   0.00000
   O  -0.2185514   0.2455909   0.4975739 SPIN=   0.00000
   O  -0.1467622   0.2142236   0.1551947 SPIN=   0.00000
   O  -0.6151904   0.2449967   0.1886276 SPIN=   0.00000
   S  -0.3322571   0.1507634   0.2844096 SPIN=   0.00000
   O  -0.5000000  -0.2625943   0.5000000 SPIN=   0.00000
   O  -0.5000000  -0.0407872   0.0000000 SPIN=   0.00000
   F  -0.0000000  -0.1558811  -0.0000000 SPIN=   0.00000
   F  -0.0000000  -0.3647773   0.5000000 SPIN=   0.00000
%ENDBLOCK POSITIONS_FRAC

# Note: total spin =   8.00

KPOINTS_MP_SPACING 0.07

%BLOCK SPECIES_POT
QC5
%ENDBLOCK SPECIES_POT

SNAP_TO_SYMMETRY
SYMMETRY_GENERATE

