#              Generated by Buildcell
#
# at 01:37:48 (GMT+1.0) 19th August 2020
# in /lustre/scratch/uccabz1/launch_tmp
# on node-c12e-001
# by uccabz1
#
# compiler GCC version 4.9.2
# options -cpp -iprefix /lustre/shared/ucl/apps/gcc/4.9.2/bin/../lib/gcc/x86_64-unknown-linux-gnu/4.9.2/ -mtune=corei7 -march=x86-64 -g -Og
#
# seed  1728787444 -1218974682 -2140830331   -40216872 -2124766152   -14543134 -1669925365  1981111055  1168865837  -459201479  -962064184  1875572342
#
#      Author: C. J. Pickard (cjp20@cam.ac.uk)
#                Space group: P-1
#

%BLOCK LATTICE_ABC
      5.14120      6.37399      6.48459
     99.46328    100.57352    101.71515
%ENDBLOCK LATTICE_ABC

%BLOCK POSITIONS_FRAC
  Li  -0.1199563  -0.2542889   0.0918438 SPIN=   0.00000
  Li   0.1199563   0.2542889  -0.0918438 SPIN=   0.00000
  Fe   0.3288435  -0.3500479  -0.3047463 SPIN=   4.00000
  Fe  -0.3288435   0.3500479   0.3047463 SPIN=   4.00000
   O  -0.7362245   0.1479924  -0.3328831 SPIN=   0.00000
   O  -0.3627214   0.0372304  -0.1111029 SPIN=   0.00000
   O  -0.3556848   0.4302752  -0.0841216 SPIN=   0.00000
   O  -0.2767915   0.2158411  -0.4114443 SPIN=   0.00000
   S  -0.4328556   0.2078348  -0.2348880 SPIN=   0.00000
   O   0.7362245  -0.1479924   0.3328831 SPIN=   0.00000
   O   0.3627214  -0.0372304   0.1111029 SPIN=   0.00000
   O   0.3556848  -0.4302752   0.0841216 SPIN=   0.00000
   O   0.2767915  -0.2158411   0.4114443 SPIN=   0.00000
   S   0.4328556  -0.2078348   0.2348880 SPIN=   0.00000
   F  -0.0495405  -0.2512396  -0.2670385 SPIN=   0.00000
   F   0.0495405   0.2512396   0.2670385 SPIN=   0.00000
%ENDBLOCK POSITIONS_FRAC

# Note: total spin =   8.00

KPOINTS_MP_SPACING 0.07

%BLOCK SPECIES_POT
QC5
%ENDBLOCK SPECIES_POT

SNAP_TO_SYMMETRY
SYMMETRY_GENERATE

