#              Generated by Buildcell
#
# at 05:32:38 (GMT+1.0) 4th August 2020
# in /lustre/scratch/uccabz1/launch_tmp
# on node-c12h-015
# by uccabz1
#
# compiler GCC version 4.9.2
# options -cpp -iprefix /lustre/shared/ucl/apps/gcc/4.9.2/bin/../lib/gcc/x86_64-unknown-linux-gnu/4.9.2/ -mtune=corei7 -march=x86-64 -g -Og
#
# seed  -118889348 -1663001708  -488709442 -2078050989  -612336187   674894659   701106425  1932595471  1625327069 -1902188812 -1838560732   282404191
#
#      Author: C. J. Pickard (cjp20@cam.ac.uk)
#                Space group: C2221
#

%BLOCK LATTICE_ABC
      5.10002      5.49616      7.57706
     90.00000    109.66641     90.00000
%ENDBLOCK LATTICE_ABC

%BLOCK POSITIONS_FRAC
  Li   0.1588033   0.0000000   0.3176065 SPIN=   0.00000
  Li  -0.1588033   0.5000000  -0.3176065 SPIN=   0.00000
  Fe  -0.2500241   0.2500000   0.0000000 SPIN=   4.00000
  Fe   0.2500241  -0.2500000  -0.0000000 SPIN=   4.00000
   O  -0.5782738   0.3475795   0.3733915 SPIN=   0.00000
   O  -0.1399238   0.2484141   0.3167460 SPIN=   0.00000
   O   0.5782738  -0.1524205  -0.3733915 SPIN=   0.00000
   O   0.1399238  -0.2515859  -0.3167460 SPIN=   0.00000
   O   0.0483347   0.1524205  -0.3733915 SPIN=   0.00000
   O   0.5433302   0.2515859  -0.3167460 SPIN=   0.00000
   O  -0.0483347  -0.3475795   0.3733915 SPIN=   0.00000
   O  -0.5433302  -0.2484141   0.3167460 SPIN=   0.00000
   S  -0.2026432  -0.0000000  -0.4052864 SPIN=   0.00000
   S   0.2026432  -0.5000000   0.4052864 SPIN=   0.00000
   F   0.2528801   0.2500000  -0.0000000 SPIN=   0.00000
   F  -0.2528801  -0.2500000   0.0000000 SPIN=   0.00000
%ENDBLOCK POSITIONS_FRAC

# Note: total spin =   8.00

KPOINTS_MP_SPACING 0.07

%BLOCK SPECIES_POT
QC5
%ENDBLOCK SPECIES_POT

SNAP_TO_SYMMETRY
SYMMETRY_GENERATE

