#              Generated by Buildcell
#
# at 00:16:13 (GMT+1.0) 19th August 2020
# in /lustre/scratch/uccabz1/launch_tmp
# on node-c12j-028
# by uccabz1
#
# compiler GCC version 4.9.2
# options -cpp -iprefix /lustre/shared/ucl/apps/gcc/4.9.2/bin/../lib/gcc/x86_64-unknown-linux-gnu/4.9.2/ -mtune=corei7 -march=x86-64 -g -Og
#
# seed -2018533938  -371547425  1360013056  1400810217  -337766293   857549127  1635217830   273634651 -2063051498  -822220482  -970087965  1981087648
#
#      Author: C. J. Pickard (cjp20@cam.ac.uk)
#                Space group: P21
#

%BLOCK LATTICE_ABC
      4.23195      4.58508     10.32177
     90.00000     90.00000     93.04126
%ENDBLOCK LATTICE_ABC

%BLOCK POSITIONS_FRAC
  Li  -0.4719955  -0.0128308  -0.4427585 SPIN=   0.00000
  Li   0.4719955   0.0128308   0.0572415 SPIN=   0.00000
  Fe   0.0017795  -0.4690492  -0.3940627 SPIN=   4.00000
  Fe  -0.0017795   0.4690492   0.1059373 SPIN=   4.00000
   O   0.5634212   0.5563211   0.2427577 SPIN=   0.00000
   O   0.1370606   0.3131959   0.3741801 SPIN=   0.00000
   O   0.6281381   0.5095988   0.4800286 SPIN=   0.00000
   O   0.6398695   0.0718974   0.3401572 SPIN=   0.00000
   S   0.4921224   0.3627533   0.3592809 SPIN=   0.00000
   O  -0.5634212  -0.5563211  -0.2572423 SPIN=   0.00000
   O  -0.1370606  -0.3131959  -0.1258199 SPIN=   0.00000
   O  -0.6281381  -0.5095988  -0.0199714 SPIN=   0.00000
   O  -0.6398695  -0.0718974  -0.1598428 SPIN=   0.00000
   S  -0.4921224  -0.3627533  -0.1407191 SPIN=   0.00000
   F  -0.0248677   0.0669416  -0.3807034 SPIN=   0.00000
   F   0.0248677  -0.0669416   0.1192966 SPIN=   0.00000
%ENDBLOCK POSITIONS_FRAC

# Note: total spin =   8.00

KPOINTS_MP_SPACING 0.07

%BLOCK SPECIES_POT
QC5
%ENDBLOCK SPECIES_POT

SNAP_TO_SYMMETRY
SYMMETRY_GENERATE

