#              Generated by Buildcell
#
# at 04:10:39 (GMT+1.0) 4th August 2020
# in /lustre/scratch/uccabz1/launch_tmp
# on node-c12c-005
# by uccabz1
#
# compiler GCC version 4.9.2
# options -cpp -iprefix /lustre/shared/ucl/apps/gcc/4.9.2/bin/../lib/gcc/x86_64-unknown-linux-gnu/4.9.2/ -mtune=corei7 -march=x86-64 -g -Og
#
# seed  2051963996  1466566530  1550935535   104695572   731971061 -1119513367  1145495580  -494980711  -358395831 -1776922600  1076336859  1365336810
#
#      Author: C. J. Pickard (cjp20@cam.ac.uk)
#                Space group: C2
#

%BLOCK LATTICE_ABC
      4.37464      6.96062      7.68532
    116.92680    104.71649     90.00000
%ENDBLOCK LATTICE_ABC

%BLOCK POSITIONS_FRAC
  Li  -0.3562217  -0.4557576  -0.2240639 SPIN=   0.00000
  Li   0.3562217  -0.2316938   0.2240639 SPIN=   0.00000
  Fe  -0.0658177  -0.3823153   0.4070564 SPIN=   4.00000
  Fe   0.0658177   0.2106283  -0.4070564 SPIN=   4.00000
   O   0.6111866   0.2708086   0.4522532 SPIN=   0.00000
   O   0.4684333   0.3759828   0.1772078 SPIN=   0.00000
   O   0.0451968   0.2770846   0.2945181 SPIN=   0.00000
   O   0.3406519  -0.0061453   0.0985729 SPIN=   0.00000
   S   0.3663671   0.2294327   0.2556380 SPIN=   0.00000
   O  -0.6111866  -0.1814446  -0.4522532 SPIN=   0.00000
   O  -0.4684333   0.1987750  -0.1772078 SPIN=   0.00000
   O  -0.0451968  -0.0174335  -0.2945181 SPIN=   0.00000
   O  -0.3406519  -0.1047182  -0.0985729 SPIN=   0.00000
   S  -0.3663671  -0.0262053  -0.2556380 SPIN=   0.00000
   F  -0.1517181  -0.2273713   0.2201344 SPIN=   0.00000
   F   0.1517181  -0.4475057  -0.2201344 SPIN=   0.00000
%ENDBLOCK POSITIONS_FRAC

# Note: total spin =   8.00

KPOINTS_MP_SPACING 0.07

%BLOCK SPECIES_POT
QC5
%ENDBLOCK SPECIES_POT

SNAP_TO_SYMMETRY
SYMMETRY_GENERATE

