#              Generated by Buildcell
#
# at 01:58:42 (GMT+1.0) 4th August 2020
# in /lustre/scratch/uccabz1/launch_tmp
# on node-c12f-007
# by uccabz1
#
# compiler GCC version 4.9.2
# options -cpp -iprefix /lustre/shared/ucl/apps/gcc/4.9.2/bin/../lib/gcc/x86_64-unknown-linux-gnu/4.9.2/ -mtune=corei7 -march=x86-64 -g -Og
#
# seed -1309496153 -1352665832   856709919 -1513175709  -774984429 -1173401376   179909566 -2085093115   -58567063  -298161286  -295446399  -780098335
#
#      Author: C. J. Pickard (cjp20@cam.ac.uk)
#                Space group: Pc
#

%BLOCK LATTICE_ABC
      4.02446      5.82894      8.72131
     90.00000     90.00000    102.15618
%ENDBLOCK LATTICE_ABC

%BLOCK POSITIONS_FRAC
  Li  -0.3853192  -0.4710583   0.3952915 SPIN=   0.00000
  Li   0.1146808   0.0289417  -0.3952915 SPIN=   0.00000
  Fe   0.0950951   0.3740751   0.1455563 SPIN=   4.00000
  Fe  -0.4049049  -0.1259249  -0.1455563 SPIN=   4.00000
   O   0.2821216   0.3344602  -0.2427693 SPIN=   0.00000
   O  -0.2613382   0.2932842  -0.1021076 SPIN=   0.00000
   O  -0.2334416   0.3943943  -0.3780806 SPIN=   0.00000
   O   0.0477146   0.6854791  -0.1870938 SPIN=   0.00000
   S  -0.0412359   0.4269044  -0.2275128 SPIN=   0.00000
   O   0.7821216  -0.1655398   0.2427693 SPIN=   0.00000
   O   0.2386618  -0.2067158   0.1021076 SPIN=   0.00000
   O   0.2665584  -0.1056057   0.3780806 SPIN=   0.00000
   O   0.5477146   0.1854791   0.1870938 SPIN=   0.00000
   S   0.4587641  -0.0730956   0.2275128 SPIN=   0.00000
   F  -0.4049596  -0.1258924  -0.3598232 SPIN=   0.00000
   F   0.0950404   0.3741076   0.3598232 SPIN=   0.00000
%ENDBLOCK POSITIONS_FRAC

# Note: total spin =   8.00

KPOINTS_MP_SPACING 0.07

%BLOCK SPECIES_POT
QC5
%ENDBLOCK SPECIES_POT

SNAP_TO_SYMMETRY
SYMMETRY_GENERATE

