#              Generated by Buildcell
#
# at 04:31:23 (GMT+1.0) 4th August 2020
# in /lustre/scratch/uccabz1/launch_tmp
# on node-c12p-005
# by uccabz1
#
# compiler GCC version 4.9.2
# options -cpp -iprefix /lustre/shared/ucl/apps/gcc/4.9.2/bin/../lib/gcc/x86_64-unknown-linux-gnu/4.9.2/ -mtune=corei7 -march=x86-64 -g -Og
#
# seed  -648717562   299709216   351672960   295412611 -2057267546 -1691453291    44538169 -1249199853   832885215  -753647145  1754511182 -1241456026
#
#      Author: C. J. Pickard (cjp20@cam.ac.uk)
#                Space group: P-1
#

%BLOCK LATTICE_ABC
      4.13889      6.82587      7.43437
     90.17940    105.70209     98.08009
%ENDBLOCK LATTICE_ABC

%BLOCK POSITIONS_FRAC
  Li   0.3393328   0.4422327  -0.2971317 SPIN=   0.00000
  Li  -0.3393328  -0.4422327   0.2971317 SPIN=   0.00000
  Fe   0.0000000   0.5000000  -0.0000000 SPIN=   2.91946
  Fe   0.5000000   0.0000000   0.0000000 SPIN=   5.08054
   O  -0.0141630  -0.0105569  -0.3396622 SPIN=   0.00000
   O  -0.0770188  -0.3652786  -0.4328362 SPIN=   0.00000
   O  -0.5839960  -0.1960028  -0.4879856 SPIN=   0.00000
   O  -0.2757870  -0.2656436  -0.1654458 SPIN=   0.00000
   S  -0.2377412  -0.2093705  -0.3564824 SPIN=   0.00000
   O   0.0141630   0.0105569   0.3396622 SPIN=   0.00000
   O   0.0770188   0.3652786   0.4328362 SPIN=   0.00000
   O   0.5839960   0.1960028   0.4879856 SPIN=   0.00000
   O   0.2757870   0.2656436   0.1654458 SPIN=   0.00000
   S   0.2377412   0.2093705   0.3564824 SPIN=   0.00000
   F   0.3565760  -0.2589628   0.1215267 SPIN=   0.00000
   F  -0.3565760   0.2589628  -0.1215267 SPIN=   0.00000
%ENDBLOCK POSITIONS_FRAC

# Note: total spin =   8.00

KPOINTS_MP_SPACING 0.07

%BLOCK SPECIES_POT
QC5
%ENDBLOCK SPECIES_POT

SNAP_TO_SYMMETRY
SYMMETRY_GENERATE

