#              Generated by Buildcell
#
# at 01:09:10 (GMT+1.0) 19th August 2020
# in /lustre/scratch/uccabz1/launch_tmp
# on node-c12o-024
# by uccabz1
#
# compiler GCC version 4.9.2
# options -cpp -iprefix /lustre/shared/ucl/apps/gcc/4.9.2/bin/../lib/gcc/x86_64-unknown-linux-gnu/4.9.2/ -mtune=corei7 -march=x86-64 -g -Og
#
# seed   265962536 -1302835197  1784447936 -1920197042 -1558516121  1337643746 -1177196051  1630874735 -2127894069  1574439902   914135996  -449438883
#
#      Author: C. J. Pickard (cjp20@cam.ac.uk)
#                Space group: Pc
#

%BLOCK LATTICE_ABC
      3.90314      6.76019      7.77723
    102.93778     90.00000     90.00000
%ENDBLOCK LATTICE_ABC

%BLOCK POSITIONS_FRAC
  Li   0.2502926   0.1758463   0.1657770 SPIN=   0.00000
  Li  -0.2502926  -0.3241537   0.1657770 SPIN=   0.00000
  Fe   0.2038028   0.0333486   0.4939512 SPIN=   4.00000
  Fe  -0.2038028  -0.4666514   0.4939512 SPIN=   4.00000
   O   0.0225817  -0.3262000  -0.2735821 SPIN=   0.00000
   O   0.5029693  -0.0847567  -0.2626805 SPIN=   0.00000
   O   0.4433620  -0.2789481  -0.0297233 SPIN=   0.00000
   O   0.0310868  -0.0054588  -0.0455885 SPIN=   0.00000
   S   0.2500000  -0.1738409  -0.1528936 SPIN=   0.00000
   O  -0.0225817   0.1738000  -0.2735821 SPIN=   0.00000
   O  -0.5029693   0.4152433  -0.2626805 SPIN=   0.00000
   O  -0.4433620   0.2210519  -0.0297233 SPIN=   0.00000
   O  -0.0310868   0.4945412  -0.0455885 SPIN=   0.00000
   S  -0.2500000   0.3261591  -0.1528936 SPIN=   0.00000
   F   0.2500000  -0.2411556   0.3419925 SPIN=   0.00000
   F  -0.2500000   0.2588444   0.3419925 SPIN=   0.00000
%ENDBLOCK POSITIONS_FRAC

# Note: total spin =   8.00

KPOINTS_MP_SPACING 0.07

%BLOCK SPECIES_POT
QC5
%ENDBLOCK SPECIES_POT

SNAP_TO_SYMMETRY
SYMMETRY_GENERATE

