#              Generated by Buildcell
#
# at 20:31:56 (GMT+1.0) 18th August 2020
# in /lustre/scratch/uccabz1/launch_tmp
# on node-c12f-018
# by uccabz1
#
# compiler GCC version 4.9.2
# options -cpp -iprefix /lustre/shared/ucl/apps/gcc/4.9.2/bin/../lib/gcc/x86_64-unknown-linux-gnu/4.9.2/ -mtune=corei7 -march=x86-64 -g -Og
#
# seed  -142917096  1034429314  -289643461  2127733100 -1810211030 -1763782162 -1436214478  -173680370 -1319231596  -797536376   654391851  -444341545
#
#      Author: C. J. Pickard (cjp20@cam.ac.uk)
#                Space group: P2
#

%BLOCK LATTICE_ABC
      3.88430      7.28769      7.94709
    117.24755     90.00000     90.00000
%ENDBLOCK LATTICE_ABC

%BLOCK POSITIONS_FRAC
  Li  -0.0401683   0.2982291   0.0685311 SPIN=   0.00000
  Li  -0.0401683  -0.2982291  -0.0685311 SPIN=   0.00000
  Fe  -0.1503109  -0.7162959  -0.4065609 SPIN=   4.00000
  Fe  -0.1503109   0.7162959   0.4065609 SPIN=   4.00000
   O   0.6148981   0.0999362  -0.0923887 SPIN=   0.00000
   O   0.0839051  -0.1109008  -0.1720590 SPIN=   0.00000
   O   0.4380759  -0.1018118  -0.4270102 SPIN=   0.00000
   O   0.1038597   0.2061099  -0.2124293 SPIN=   0.00000
   S   0.3101847   0.0233334  -0.2259718 SPIN=   0.00000
   O   0.6148981  -0.0999362   0.0923887 SPIN=   0.00000
   O   0.0839051   0.1109008   0.1720590 SPIN=   0.00000
   O   0.4380759   0.1018118   0.4270102 SPIN=   0.00000
   O   0.1038597  -0.2061099   0.2124293 SPIN=   0.00000
   S   0.3101847  -0.0233334   0.2259718 SPIN=   0.00000
   F  -0.4910818  -0.4821487  -0.2420546 SPIN=   0.00000
   F  -0.4910818   0.4821487   0.2420546 SPIN=   0.00000
%ENDBLOCK POSITIONS_FRAC

# Note: total spin =   8.00

KPOINTS_MP_SPACING 0.07

%BLOCK SPECIES_POT
QC5
%ENDBLOCK SPECIES_POT

SNAP_TO_SYMMETRY
SYMMETRY_GENERATE

