#              Generated by Buildcell
#
# at 02:38:58 (GMT+1.0) 19th August 2020
# in /lustre/scratch/uccabz1/launch_tmp
# on node-c12o-034
# by uccabz1
#
# compiler GCC version 4.9.2
# options -cpp -iprefix /lustre/shared/ucl/apps/gcc/4.9.2/bin/../lib/gcc/x86_64-unknown-linux-gnu/4.9.2/ -mtune=corei7 -march=x86-64 -g -Og
#
# seed -2110405465   -53719416  -106347212  1127517420  -217286667   350234346  1554667812 -1931521237  -614778185 -1055121335   -34291004  1219442955
#
#      Author: C. J. Pickard (cjp20@cam.ac.uk)
#                Space group: Cm
#

%BLOCK LATTICE_ABC
      5.27033      6.18125      6.18125
     85.50936     86.36536     86.36536
%ENDBLOCK LATTICE_ABC

%BLOCK POSITIONS_FRAC
  Li   0.1089331  -0.3754613  -0.3754613 SPIN=   0.00000
  Li  -0.4316700  -0.0255435  -0.0255435 SPIN=   0.00000
  Fe  -0.2332814   0.4435804   0.0003493 SPIN=   4.00000
  Fe  -0.2332814   0.0003493   0.4435804 SPIN=   4.00000
   O   0.2386931  -0.3251065  -0.0549801 SPIN=   0.00000
   O   0.4905434  -0.3613173   0.2718616 SPIN=   0.00000
   O   0.0300256  -0.4237028   0.3061717 SPIN=   0.00000
   O   0.1736358  -0.0518127   0.2183137 SPIN=   0.00000
   S   0.2332245  -0.2904849   0.1853417 SPIN=   0.00000
   O   0.2386931  -0.0549801  -0.3251065 SPIN=   0.00000
   O   0.4905434   0.2718616  -0.3613173 SPIN=   0.00000
   O   0.0300256   0.3061717  -0.4237028 SPIN=   0.00000
   O   0.1736358   0.2183137  -0.0518127 SPIN=   0.00000
   S   0.2332245   0.1853417  -0.2904849 SPIN=   0.00000
   F  -0.3144887  -0.3402511  -0.3402511 SPIN=   0.00000
   F  -0.3780173   0.1885259   0.1885259 SPIN=   0.00000
%ENDBLOCK POSITIONS_FRAC

# Note: total spin =   8.00

KPOINTS_MP_SPACING 0.07

%BLOCK SPECIES_POT
QC5
%ENDBLOCK SPECIES_POT

SNAP_TO_SYMMETRY
SYMMETRY_GENERATE

