#              Generated by Buildcell
#
# at 03:16:37 (GMT+1.0) 4th August 2020
# in /lustre/scratch/uccabz1/launch_tmp
# on node-c12l-030
# by uccabz1
#
# compiler GCC version 4.9.2
# options -cpp -iprefix /lustre/shared/ucl/apps/gcc/4.9.2/bin/../lib/gcc/x86_64-unknown-linux-gnu/4.9.2/ -mtune=corei7 -march=x86-64 -g -Og
#
# seed   532254560  1311383750   807321800    -5533091    90820795   399351715 -1879580982  1444618678 -1020812329  1495285788 -1465624719 -1761393768
#
#      Author: C. J. Pickard (cjp20@cam.ac.uk)
#                Space group: P-1
#

%BLOCK LATTICE_ABC
      3.88874      5.83378      9.52314
    103.47631     98.79967    102.84627
%ENDBLOCK LATTICE_ABC

%BLOCK POSITIONS_FRAC
  Li  -0.3258395   0.2694542   0.2204565 SPIN=   0.00000
  Li   0.3258395  -0.2694542  -0.2204565 SPIN=   0.00000
  Fe   0.0000000  -0.0000000  -0.0000000 SPIN=   1.68168
  Fe   0.5000000  -0.5000000  -0.5000000 SPIN=   6.31832
   O   0.6069750  -0.2934195   0.3335054 SPIN=   0.00000
   O   0.1597730  -0.1553767   0.1830094 SPIN=   0.00000
   O   0.1151976  -0.5973054   0.1382789 SPIN=   0.00000
   S   0.3733190  -0.3436224   0.1811448 SPIN=   0.00000
   O  -0.6069750   0.2934195  -0.3335054 SPIN=   0.00000
   O  -0.1597730   0.1553767  -0.1830094 SPIN=   0.00000
   O  -0.1151976   0.5973054  -0.1382789 SPIN=   0.00000
   S  -0.3733190   0.3436224  -0.1811448 SPIN=   0.00000
   O  -0.5000000  -0.0000000   0.5000000 SPIN=   0.00000
   O   0.5000000  -0.5000000   0.0000000 SPIN=   0.00000
   F   0.0342064   0.2286916   0.3807061 SPIN=   0.00000
   F  -0.0342064  -0.2286916  -0.3807061 SPIN=   0.00000
%ENDBLOCK POSITIONS_FRAC

# Note: total spin =   8.00

KPOINTS_MP_SPACING 0.07

%BLOCK SPECIES_POT
QC5
%ENDBLOCK SPECIES_POT

SNAP_TO_SYMMETRY
SYMMETRY_GENERATE

