#              Generated by Buildcell
#
# at 01:27:18 (GMT+1.0) 19th August 2020
# in /lustre/scratch/uccabz1/launch_tmp
# on node-c12k-027
# by uccabz1
#
# compiler GCC version 4.9.2
# options -cpp -iprefix /lustre/shared/ucl/apps/gcc/4.9.2/bin/../lib/gcc/x86_64-unknown-linux-gnu/4.9.2/ -mtune=corei7 -march=x86-64 -g -Og
#
# seed -1338633025 -1111420780  1150644905   458166682 -1270142264  2034912493   738153121  1854703012 -1898851198   664344949 -1159718322   506047709
#
#      Author: C. J. Pickard (cjp20@cam.ac.uk)
#                Space group: C2
#

%BLOCK LATTICE_ABC
      5.10655      5.10655      7.72920
     93.80367     93.80367     94.39778
%ENDBLOCK LATTICE_ABC

%BLOCK POSITIONS_FRAC
  Li  -0.1826629  -0.2426182   0.3120901 SPIN=   0.00000
  Li   0.2426182   0.1826629  -0.3120901 SPIN=   0.00000
  Fe  -0.2657885   0.2657885  -0.5000000 SPIN=   4.13779
  Fe  -0.4724735   0.4724735   0.0000000 SPIN=   3.86221
   O   0.1128818  -0.4972538  -0.4354430 SPIN=   0.00000
   O   0.0846487  -0.5655072  -0.1229825 SPIN=   0.00000
   O  -0.0383206  -0.1474069  -0.2379056 SPIN=   0.00000
   O   0.4286956  -0.2479196  -0.2164079 SPIN=   0.00000
   O   0.4972538  -0.1128818   0.4354430 SPIN=   0.00000
   O   0.5655072  -0.0846487   0.1229825 SPIN=   0.00000
   O   0.1474069   0.0383206   0.2379056 SPIN=   0.00000
   O   0.2479196  -0.4286956   0.2164079 SPIN=   0.00000
   S   0.2800873  -0.2800873  -0.5000000 SPIN=   0.00000
   S   0.0783052  -0.0783052  -0.0000000 SPIN=   0.00000
   F  -0.4054760   0.2711634  -0.2295812 SPIN=   0.00000
   F  -0.2711634   0.4054760   0.2295812 SPIN=   0.00000
%ENDBLOCK POSITIONS_FRAC

# Note: total spin =   8.00

KPOINTS_MP_SPACING 0.07

%BLOCK SPECIES_POT
QC5
%ENDBLOCK SPECIES_POT

SNAP_TO_SYMMETRY
SYMMETRY_GENERATE

