#              Generated by Buildcell
#
# at 03:18:31 (GMT+1.0) 4th August 2020
# in /lustre/scratch/uccabz1/launch_tmp
# on node-y12q-002
# by uccabz1
#
# compiler GCC version 4.9.2
# options -cpp -iprefix /lustre/shared/ucl/apps/gcc/4.9.2/bin/../lib/gcc/x86_64-unknown-linux-gnu/4.9.2/ -mtune=corei7 -march=x86-64 -g -Og
#
# seed -2118865991 -1672058546  -944447563   613786503 -1733360199 -1295499353   618645462   915759205 -1612581457  1639004807   714555990  1282160602
#
#      Author: C. J. Pickard (cjp20@cam.ac.uk)
#                Space group: Cm
#

%BLOCK LATTICE_ABC
      3.97646      7.72103      7.72103
    115.68389    100.78310    100.78310
%ENDBLOCK LATTICE_ABC

%BLOCK POSITIONS_FRAC
  Li   0.4090384  -0.0642005  -0.0642005 SPIN=   0.00000
  Li  -0.4842451   0.4358139   0.4358139 SPIN=   0.00000
  Fe   0.1473899  -0.2460476   0.4812086 SPIN=   4.00000
  Fe   0.1473899   0.4812086  -0.2460476 SPIN=   4.00000
   O  -0.1775570   0.4942491  -0.0460071 SPIN=   0.00000
   O  -0.6395320   0.1835956  -0.1282974 SPIN=   0.00000
   O  -0.4646732   0.4839559   0.2088753 SPIN=   0.00000
   O  -0.0405205   0.2881476   0.1137458 SPIN=   0.00000
   S  -0.3305707   0.3624871   0.0370792 SPIN=   0.00000
   O  -0.1775570  -0.0460071   0.4942491 SPIN=   0.00000
   O  -0.6395320  -0.1282974   0.1835956 SPIN=   0.00000
   O  -0.4646732   0.2088753   0.4839559 SPIN=   0.00000
   O  -0.0405205   0.1137458   0.2881476 SPIN=   0.00000
   S  -0.3305707   0.0370792   0.3624871 SPIN=   0.00000
   F   0.1374586  -0.4793447  -0.4793447 SPIN=   0.00000
   F  -0.0865747  -0.0983085  -0.0983085 SPIN=   0.00000
%ENDBLOCK POSITIONS_FRAC

# Note: total spin =   8.00

KPOINTS_MP_SPACING 0.07

%BLOCK SPECIES_POT
QC5
%ENDBLOCK SPECIES_POT

SNAP_TO_SYMMETRY
SYMMETRY_GENERATE

