#              Generated by Buildcell
#
# at 23:23:17 (GMT+1.0) 18th August 2020
# in /lustre/scratch/uccabz1/launch_tmp
# on node-c12m-028
# by uccabz1
#
# compiler GCC version 4.9.2
# options -cpp -iprefix /lustre/shared/ucl/apps/gcc/4.9.2/bin/../lib/gcc/x86_64-unknown-linux-gnu/4.9.2/ -mtune=corei7 -march=x86-64 -g -Og
#
# seed -1946503001 -1504999456  1437706604 -1083688074  1762032395  -376140594  1015058318   274091831  -937602918  1316912842 -1159649699   736152871
#
#      Author: C. J. Pickard (cjp20@cam.ac.uk)
#                Space group: Cmc21
#

%BLOCK LATTICE_ABC
      4.04313      4.04313     12.31144
     90.00000     90.00000     96.39865
%ENDBLOCK LATTICE_ABC

%BLOCK POSITIONS_FRAC
  Li   0.4167192   0.4167192   0.0530832 SPIN=   0.00000
  Li  -0.4167192  -0.4167192  -0.4469168 SPIN=   0.00000
  Fe  -0.2007295  -0.2007295  -0.1295952 SPIN=   4.00000
  Fe   0.2007295   0.2007295   0.3704048 SPIN=   4.00000
   O   0.5554590   0.0380625  -0.4058920 SPIN=   0.00000
   O   0.2248268  -0.1660397  -0.2454253 SPIN=   0.00000
   O  -0.5554590  -0.0380625   0.0941080 SPIN=   0.00000
   O  -0.2248268   0.1660397   0.2545747 SPIN=   0.00000
   O  -0.0380625  -0.5554590   0.0941080 SPIN=   0.00000
   O   0.1660397  -0.2248268   0.2545747 SPIN=   0.00000
   O   0.0380625   0.5554590  -0.4058920 SPIN=   0.00000
   O  -0.1660397   0.2248268  -0.2454253 SPIN=   0.00000
   S  -0.1083206  -0.1083206   0.1315102 SPIN=   0.00000
   S   0.1083206   0.1083206  -0.3684898 SPIN=   0.00000
   F   0.3471281   0.3471281  -0.1062724 SPIN=   0.00000
   F  -0.3471281  -0.3471281   0.3937276 SPIN=   0.00000
%ENDBLOCK POSITIONS_FRAC

# Note: total spin =   8.00

KPOINTS_MP_SPACING 0.07

%BLOCK SPECIES_POT
QC5
%ENDBLOCK SPECIES_POT

SNAP_TO_SYMMETRY
SYMMETRY_GENERATE

