#              Generated by Buildcell
#
# at 17:55:40 (GMT+1.0) 18th August 2020
# in /lustre/scratch/uccabz1/launch_tmp
# on node-c12p-013
# by uccabz1
#
# compiler GCC version 4.9.2
# options -cpp -iprefix /lustre/shared/ucl/apps/gcc/4.9.2/bin/../lib/gcc/x86_64-unknown-linux-gnu/4.9.2/ -mtune=corei7 -march=x86-64 -g -Og
#
# seed  1268858519 -1183776247  1391326433   -52940406  1047764196  -365138290    46048536  -626396144  -109085983 -1107127695   466946385   388390775
#
#      Author: C. J. Pickard (cjp20@cam.ac.uk)
#                Space group: C2
#

%BLOCK LATTICE_ABC
      4.69013      7.07049      7.07049
    119.72338     95.40787     95.40787
%ENDBLOCK LATTICE_ABC

%BLOCK POSITIONS_FRAC
  Li   0.2546207  -0.3883137  -0.1199107 SPIN=   0.00000
  Li  -0.2546207   0.1199107   0.3883137 SPIN=   0.00000
  Fe  -0.2426887   0.4785862   0.0286312 SPIN=   4.00000
  Fe   0.2426887  -0.0286312  -0.4785862 SPIN=   4.00000
   O   0.0735689   0.3551441   0.1466712 SPIN=   0.00000
   O   0.5829160   0.3589096   0.2790012 SPIN=   0.00000
   O   0.2420563   0.0055910   0.0674060 SPIN=   0.00000
   S   0.2711757   0.2494637   0.2354178 SPIN=   0.00000
   O  -0.0735689  -0.1466712  -0.3551441 SPIN=   0.00000
   O  -0.5829160  -0.2790012  -0.3589096 SPIN=   0.00000
   O  -0.2420563  -0.0674060  -0.0055910 SPIN=   0.00000
   S  -0.2711757  -0.2354178  -0.2494637 SPIN=   0.00000
   O   0.5000000   0.3980970  -0.3980970 SPIN=   0.00000
   O  -0.5000000   0.1519043  -0.1519043 SPIN=   0.00000
   F   0.5000000  -0.2363752   0.2363752 SPIN=   0.00000
   F   0.0000000   0.2788959  -0.2788959 SPIN=   0.00000
%ENDBLOCK POSITIONS_FRAC

# Note: total spin =   8.00

KPOINTS_MP_SPACING 0.07

%BLOCK SPECIES_POT
QC5
%ENDBLOCK SPECIES_POT

SNAP_TO_SYMMETRY
SYMMETRY_GENERATE

