#              Generated by Buildcell
#
# at 02:22:46 (GMT+1.0) 19th August 2020
# in /lustre/scratch/uccabz1/launch_tmp
# on node-c12p-007
# by uccabz1
#
# compiler GCC version 4.9.2
# options -cpp -iprefix /lustre/shared/ucl/apps/gcc/4.9.2/bin/../lib/gcc/x86_64-unknown-linux-gnu/4.9.2/ -mtune=corei7 -march=x86-64 -g -Og
#
# seed   586862580   787032050   358604680    89335473   310657511  -392773400  -502645043 -1042372734  1122964808 -1037340186   877993102 -1031626444
#
#      Author: C. J. Pickard (cjp20@cam.ac.uk)
#                Space group: Cc
#

%BLOCK LATTICE_ABC
      3.91443      4.25411     13.52750
     90.46758     90.00000    117.39205
%ENDBLOCK LATTICE_ABC

%BLOCK POSITIONS_FRAC
  Li   0.2277003   0.4811428   0.1234303 SPIN=   0.00000
  Li  -0.2465575   0.4811428  -0.3765697 SPIN=   0.00000
  Fe   0.2097584  -0.0225052   0.2746534 SPIN=   4.00000
  Fe   0.2677364  -0.0225052  -0.2253466 SPIN=   4.00000
   O   0.0174454   0.3231637  -0.0416682 SPIN=   0.00000
   O  -0.6801407  -0.0511895  -0.0696867 SPIN=   0.00000
   O  -0.4323917   0.1511121   0.0995962 SPIN=   0.00000
   O  -0.2975414  -0.2978421   0.0150963 SPIN=   0.00000
   S  -0.3481571   0.0313111   0.0008344 SPIN=   0.00000
   O  -0.1942817   0.3231637  -0.5416682 SPIN=   0.00000
   O   0.1289512  -0.0511895  -0.5696867 SPIN=   0.00000
   O   0.0835038   0.1511121  -0.4004038 SPIN=   0.00000
   O  -0.5003007  -0.2978421  -0.4849037 SPIN=   0.00000
   S  -0.1205318   0.0313111  -0.4991656 SPIN=   0.00000
   F   0.4144961  -0.3855192   0.2563177 SPIN=   0.00000
   F  -0.3000152  -0.3855192  -0.2436823 SPIN=   0.00000
%ENDBLOCK POSITIONS_FRAC

# Note: total spin =   8.00

KPOINTS_MP_SPACING 0.07

%BLOCK SPECIES_POT
QC5
%ENDBLOCK SPECIES_POT

SNAP_TO_SYMMETRY
SYMMETRY_GENERATE

