#              Generated by Buildcell
#
# at 05:26:30 (GMT+1.0) 4th August 2020
# in /lustre/scratch/uccabz1/launch_tmp
# on node-c12f-031
# by uccabz1
#
# compiler GCC version 4.9.2
# options -cpp -iprefix /lustre/shared/ucl/apps/gcc/4.9.2/bin/../lib/gcc/x86_64-unknown-linux-gnu/4.9.2/ -mtune=corei7 -march=x86-64 -g -Og
#
# seed  2047717784  -831449868 -1325358593  -383507367  1810478227 -1269931998 -1278918816  -482347734  -126340164 -1103782678   562998825  1886766208
#
#      Author: C. J. Pickard (cjp20@cam.ac.uk)
#                Space group: Cm
#

%BLOCK LATTICE_ABC
      6.23883      6.23883      6.27364
     65.01976     65.01976     75.88262
%ENDBLOCK LATTICE_ABC

%BLOCK POSITIONS_FRAC
  Li  -0.4127194  -0.4127194   1.1879158 SPIN=   0.00000
  Li  -0.1926436  -0.1926436   0.5252904 SPIN=   0.00000
  Fe   0.0951034   0.0951034  -0.4616153 SPIN=   6.20594
  Fe   0.4364048   0.4364048  -1.2704852 SPIN=   1.79406
   O   0.3203786  -0.2402600  -0.1040222 SPIN=   0.00000
   O   0.2526189  -0.3558761   0.3471704 SPIN=   0.00000
   O   0.1093863  -0.5970846   0.2133357 SPIN=   0.00000
   S   0.1493778  -0.3476722   0.1640311 SPIN=   0.00000
   O  -0.2402600   0.3203786  -0.1040222 SPIN=   0.00000
   O  -0.3558761   0.2526189   0.3471704 SPIN=   0.00000
   O  -0.5970846   0.1093863   0.2133357 SPIN=   0.00000
   S  -0.3476722   0.1493778   0.1640311 SPIN=   0.00000
   O   0.0146682   0.0146682   0.2126391 SPIN=   0.00000
   O  -0.3298633  -0.3298633   0.3995806 SPIN=   0.00000
   F  -0.2387775  -0.2387775   0.8552258 SPIN=   0.00000
   F   0.2259397   0.2259397  -0.2838817 SPIN=   0.00000
%ENDBLOCK POSITIONS_FRAC

# Note: total spin =   8.00

KPOINTS_MP_SPACING 0.07

%BLOCK SPECIES_POT
QC5
%ENDBLOCK SPECIES_POT

SNAP_TO_SYMMETRY
SYMMETRY_GENERATE

