#              Generated by Buildcell
#
# at 05:35:56 (GMT+1.0) 4th August 2020
# in /lustre/scratch/uccabz1/launch_tmp
# on node-c12f-035
# by uccabz1
#
# compiler GCC version 4.9.2
# options -cpp -iprefix /lustre/shared/ucl/apps/gcc/4.9.2/bin/../lib/gcc/x86_64-unknown-linux-gnu/4.9.2/ -mtune=corei7 -march=x86-64 -g -Og
#
# seed  1580072744  2088144018  -553641439  -670875684  -578001512  1549040684  -313853567  1854141597  1587708459   163405916    -1870784 -1503778800
#
#      Author: C. J. Pickard (cjp20@cam.ac.uk)
#                Space group: P21212
#

%BLOCK LATTICE_ABC
      3.85320      6.58920      7.87727
     90.00000     90.00000     90.00000
%ENDBLOCK LATTICE_ABC

%BLOCK POSITIONS_FRAC
  Li   0.0000000  -0.0000000  -0.4492325 SPIN=   0.00000
  Li  -0.5000000   0.5000000   0.4492325 SPIN=   0.00000
  Fe   0.5000000  -0.0000000  -0.1519315 SPIN=   4.00000
  Fe   0.0000000   0.5000000   0.1519315 SPIN=   4.00000
   O  -0.6954693   0.3470943  -0.0545067 SPIN=   0.00000
   O  -0.2066595   0.3477780  -0.2583151 SPIN=   0.00000
   O   0.6954693  -0.3470943  -0.0545067 SPIN=   0.00000
   O   0.2066595  -0.3477780  -0.2583151 SPIN=   0.00000
   O  -0.1954693   0.1529057   0.0545067 SPIN=   0.00000
   O   0.2933405   0.1522220   0.2583151 SPIN=   0.00000
   O   0.1954693  -0.1529057   0.0545067 SPIN=   0.00000
   O  -0.2933405  -0.1522220   0.2583151 SPIN=   0.00000
   S  -0.0000000  -0.0000000   0.1951292 SPIN=   0.00000
   S   0.5000000   0.5000000  -0.1951292 SPIN=   0.00000
   F   0.5000000  -0.0000000  -0.4040684 SPIN=   0.00000
   F  -0.0000000   0.5000000   0.4040684 SPIN=   0.00000
%ENDBLOCK POSITIONS_FRAC

# Note: total spin =   8.00

KPOINTS_MP_SPACING 0.07

%BLOCK SPECIES_POT
QC5
%ENDBLOCK SPECIES_POT

SNAP_TO_SYMMETRY
SYMMETRY_GENERATE

