#              Generated by Buildcell
#
# at 00:28:13 (GMT+1.0) 19th August 2020
# in /lustre/scratch/uccabz1/launch_tmp
# on node-c12d-004
# by uccabz1
#
# compiler GCC version 4.9.2
# options -cpp -iprefix /lustre/shared/ucl/apps/gcc/4.9.2/bin/../lib/gcc/x86_64-unknown-linux-gnu/4.9.2/ -mtune=corei7 -march=x86-64 -g -Og
#
# seed -1840128223  -859272110  1944364362   815167268 -1171510921   454574398 -1128094991  1123336583 -2020752759  1439317028   991088759 -1438633027
#
#      Author: C. J. Pickard (cjp20@cam.ac.uk)
#                Space group: P21/m
#

%BLOCK LATTICE_ABC
      3.87620      6.42897      8.03664
     90.00000     92.99007     90.00000
%ENDBLOCK LATTICE_ABC

%BLOCK POSITIONS_FRAC
  Li  -0.2790052  -0.2500000  -0.2657183 SPIN=   0.00000
  Li   0.2790052   0.2500000   0.2657183 SPIN=   0.00000
  Fe   0.2341236  -0.2500000   0.0534043 SPIN=   4.00000
  Fe  -0.2341236   0.2500000  -0.0534043 SPIN=   4.00000
   O  -0.2544121  -0.4262177  -0.0404333 SPIN=   0.00000
   O  -0.3892478  -0.5649315  -0.3236495 SPIN=   0.00000
   O   0.2544121   0.0737823   0.0404333 SPIN=   0.00000
   O   0.3892478  -0.0649315   0.3236495 SPIN=   0.00000
   O   0.2544121   0.4262177   0.0404333 SPIN=   0.00000
   O   0.3892478   0.5649315   0.3236495 SPIN=   0.00000
   O  -0.2544121  -0.0737823  -0.0404333 SPIN=   0.00000
   O  -0.3892478   0.0649315  -0.3236495 SPIN=   0.00000
   S   0.2317387   0.2500000  -0.3921427 SPIN=   0.00000
   S  -0.2317387  -0.2500000   0.3921427 SPIN=   0.00000
   F   0.2272183  -0.2500000  -0.2102725 SPIN=   0.00000
   F  -0.2272183   0.2500000   0.2102725 SPIN=   0.00000
%ENDBLOCK POSITIONS_FRAC

# Note: total spin =   8.00

KPOINTS_MP_SPACING 0.07

%BLOCK SPECIES_POT
QC5
%ENDBLOCK SPECIES_POT

SNAP_TO_SYMMETRY
SYMMETRY_GENERATE

