#              Generated by Buildcell
#
# at 03:24:20 (GMT+1.0) 4th August 2020
# in /lustre/scratch/uccabz1/launch_tmp
# on node-c12i-035
# by uccabz1
#
# compiler GCC version 4.9.2
# options -cpp -iprefix /lustre/shared/ucl/apps/gcc/4.9.2/bin/../lib/gcc/x86_64-unknown-linux-gnu/4.9.2/ -mtune=corei7 -march=x86-64 -g -Og
#
# seed  1634779720   306622994  -586177390   617090530   -52569247  1861060608  -159614816   322688109 -2000989060 -1687547495  -480625063  2053729982
#
#      Author: C. J. Pickard (cjp20@cam.ac.uk)
#                Space group: Cc
#

%BLOCK LATTICE_ABC
      4.59826      5.68329      8.21676
     69.76719     87.60134     83.04914
%ENDBLOCK LATTICE_ABC

%BLOCK POSITIONS_FRAC
  Li  -0.0545899  -0.4581658  -0.1946965 SPIN=   0.00000
  Li   0.4454101   0.3471378   0.1946965 SPIN=   0.00000
  Fe   0.4566711   0.4653849  -0.4103575 SPIN=   4.00000
  Fe  -0.0433289   0.0550274   0.4103575 SPIN=   4.00000
   O   0.1300417  -0.1290227  -0.2596070 SPIN=   0.00000
   O   0.5475700  -0.4030272  -0.0853768 SPIN=   0.00000
   O   0.4465493   0.0422785  -0.1016685 SPIN=   0.00000
   O   0.6382572  -0.0587072  -0.3586470 SPIN=   0.00000
   S   0.4406045  -0.1371197  -0.2013248 SPIN=   0.00000
   O  -0.3699583  -0.3886297   0.2596070 SPIN=   0.00000
   O   0.0475700  -0.4884040   0.0853768 SPIN=   0.00000
   O  -0.0534507  -0.0593899   0.1016685 SPIN=   0.00000
   O   0.1382572  -0.4173543   0.3586470 SPIN=   0.00000
   S  -0.0593955  -0.3384445   0.2013248 SPIN=   0.00000
   F   0.3603543   0.0315057   0.3277415 SPIN=   0.00000
   F  -0.1396457   0.3592472  -0.3277415 SPIN=   0.00000
%ENDBLOCK POSITIONS_FRAC

# Note: total spin =   8.00

KPOINTS_MP_SPACING 0.07

%BLOCK SPECIES_POT
QC5
%ENDBLOCK SPECIES_POT

SNAP_TO_SYMMETRY
SYMMETRY_GENERATE

