#              Generated by Buildcell
#
# at 02:48:27 (GMT+1.0) 19th August 2020
# in /lustre/scratch/uccabz1/launch_tmp
# on node-c12a-016
# by uccabz1
#
# compiler GCC version 4.9.2
# options -cpp -iprefix /lustre/shared/ucl/apps/gcc/4.9.2/bin/../lib/gcc/x86_64-unknown-linux-gnu/4.9.2/ -mtune=corei7 -march=x86-64 -g -Og
#
# seed  1040725190 -1990536328   212463532 -1078812506 -1438971362   443904180   391808671 -1646526651  1031652133   849208074 -1398471034 -1819306106
#
#      Author: C. J. Pickard (cjp20@cam.ac.uk)
#                Space group: I222
#

%BLOCK LATTICE_ABC
      5.27450      6.82279      6.82279
     66.77501     67.26087     67.26087
%ENDBLOCK LATTICE_ABC

%BLOCK POSITIONS_FRAC
  Li  -0.5000000   0.2338304  -0.2338304 SPIN=   0.00000
  Li   0.5000000  -0.2338304   0.2338304 SPIN=   0.00000
  Fe   0.2699580   0.7300420  -0.2699580 SPIN=   4.00000
  Fe  -0.2699580  -0.7300420   0.2699580 SPIN=   4.00000
   O   0.3297892  -0.8463334   0.5937941 SPIN=   0.00000
   O   0.3216192  -0.4801078   0.3126682 SPIN=   0.00000
   O   0.0772499   0.8463334  -0.5937941 SPIN=   0.00000
   O   0.1541795   0.4801078  -0.3126682 SPIN=   0.00000
   O  -0.3297892   0.4062059  -0.1536666 SPIN=   0.00000
   O  -0.3216192   0.6873318  -0.5198922 SPIN=   0.00000
   O  -0.0772499  -0.4062059   0.1536666 SPIN=   0.00000
   O  -0.1541795  -0.6873318   0.5198922 SPIN=   0.00000
   S   0.0000000   0.2514858  -0.2514858 SPIN=   0.00000
   S  -0.0000000  -0.2514858   0.2514858 SPIN=   0.00000
   F  -0.2993393  -0.2006607  -0.2006607 SPIN=   0.00000
   F   0.2993393   0.2006607   0.2006607 SPIN=   0.00000
%ENDBLOCK POSITIONS_FRAC

# Note: total spin =   8.00

KPOINTS_MP_SPACING 0.07

%BLOCK SPECIES_POT
QC5
%ENDBLOCK SPECIES_POT

SNAP_TO_SYMMETRY
SYMMETRY_GENERATE

