#              Generated by Buildcell
#
# at 01:43:23 (GMT+1.0) 4th August 2020
# in /lustre/scratch/uccabz1/launch_tmp
# on node-c12h-012
# by uccabz1
#
# compiler GCC version 4.9.2
# options -cpp -iprefix /lustre/shared/ucl/apps/gcc/4.9.2/bin/../lib/gcc/x86_64-unknown-linux-gnu/4.9.2/ -mtune=corei7 -march=x86-64 -g -Og
#
# seed -1193443063  1111424253  -705862438  1732900239    62288893 -1337291081  -143806533  -370194137   141417285  1874482091 -1233221151   467293521
#
#      Author: C. J. Pickard (cjp20@cam.ac.uk)
#                Space group: Cm
#

%BLOCK LATTICE_ABC
      5.65926      6.00039      6.00039
     94.54809     96.80187     96.80187
%ENDBLOCK LATTICE_ABC

%BLOCK POSITIONS_FRAC
  Li  -0.4852614  -0.0645908   0.3653323 SPIN=   0.00000
  Li  -0.4852614   0.3653323  -0.0645908 SPIN=   0.00000
  Fe  -0.1538896  -0.3421202  -0.3421202 SPIN=   4.67875
  Fe  -0.1057145   0.1219997   0.1219997 SPIN=   3.32125
   O   0.3996065   0.2538054  -0.4769537 SPIN=   0.00000
   O   0.2290877   0.1469688  -0.1334402 SPIN=   0.00000
   O   0.6467188   0.0886667  -0.1802735 SPIN=   0.00000
   O   0.3071472  -0.1488792  -0.4169336 SPIN=   0.00000
   O   0.3996065  -0.4769537   0.2538054 SPIN=   0.00000
   O   0.2290877  -0.1334402   0.1469688 SPIN=   0.00000
   O   0.6467188  -0.1802735   0.0886667 SPIN=   0.00000
   O   0.3071472  -0.4169336  -0.1488792 SPIN=   0.00000
   S   0.3446112  -0.0740568  -0.0740568 SPIN=   0.00000
   S   0.2966354   0.4573335   0.4573335 SPIN=   0.00000
   F  -0.1185588  -0.0245018   0.4850118 SPIN=   0.00000
   F  -0.1185588   0.4850118  -0.0245018 SPIN=   0.00000
%ENDBLOCK POSITIONS_FRAC

# Note: total spin =   8.00

KPOINTS_MP_SPACING 0.07

%BLOCK SPECIES_POT
QC5
%ENDBLOCK SPECIES_POT

SNAP_TO_SYMMETRY
SYMMETRY_GENERATE

