#              Generated by Buildcell
#
# at 02:22:59 (GMT+1.0) 19th August 2020
# in /lustre/scratch/uccabz1/launch_tmp
# on node-c12m-012
# by uccabz1
#
# compiler GCC version 4.9.2
# options -cpp -iprefix /lustre/shared/ucl/apps/gcc/4.9.2/bin/../lib/gcc/x86_64-unknown-linux-gnu/4.9.2/ -mtune=corei7 -march=x86-64 -g -Og
#
# seed  -587445518   255022197   373712090   429533397  1578030072  1867042951 -1665499186  2024469904  1688018928 -1282871916  1794323286 -1977839341
#
#      Author: C. J. Pickard (cjp20@cam.ac.uk)
#                Space group: Cc
#

%BLOCK LATTICE_ABC
      6.03623      6.03623      6.79389
    104.73673    113.26407    105.61355
%ENDBLOCK LATTICE_ABC

%BLOCK POSITIONS_FRAC
  Li  -0.2755908   0.1409310  -0.1984064 SPIN=   0.00000
  Li  -0.3393374  -0.4228155   0.3015936 SPIN=   0.00000
  Fe   0.2639974   0.2337168  -0.2406758 SPIN=   4.00000
  Fe  -0.4743926  -0.0046732   0.2593242 SPIN=   4.00000
   O  -0.0650801   0.1519467   0.3733986 SPIN=   0.00000
   O  -0.0680155  -0.0572806   0.0076989 SPIN=   0.00000
   O   0.3549932   0.2536700   0.3637244 SPIN=   0.00000
   O   0.0228372   0.3951656   0.1488136 SPIN=   0.00000
   S   0.0611837   0.1858754   0.2234089 SPIN=   0.00000
   O   0.2214518  -0.0615213  -0.1266014 SPIN=   0.00000
   O   0.0649795  -0.4242856  -0.4923011 SPIN=   0.00000
   O   0.1100544  -0.4912688  -0.1362756 SPIN=   0.00000
   O  -0.2463519  -0.3740235  -0.3511864 SPIN=   0.00000
   S   0.0375335  -0.3377748  -0.2765911 SPIN=   0.00000
   F   0.4539608  -0.1433364   0.4453602 SPIN=   0.00000
   F  -0.4113034   0.4913993  -0.0546398 SPIN=   0.00000
%ENDBLOCK POSITIONS_FRAC

# Note: total spin =   8.00

KPOINTS_MP_SPACING 0.07

%BLOCK SPECIES_POT
QC5
%ENDBLOCK SPECIES_POT

SNAP_TO_SYMMETRY
SYMMETRY_GENERATE

