#              Generated by Buildcell
#
# at 22:43:59 (GMT+1.0) 18th August 2020
# in /lustre/scratch/uccabz1/launch_tmp
# on node-c12a-029
# by uccabz1
#
# compiler GCC version 4.9.2
# options -cpp -iprefix /lustre/shared/ucl/apps/gcc/4.9.2/bin/../lib/gcc/x86_64-unknown-linux-gnu/4.9.2/ -mtune=corei7 -march=x86-64 -g -Og
#
# seed   108332059 -1383392868  -721253616   -57179342  1509198009  1230734418  -219059760  1093955572   857747828   925556267 -1641898293  -437948125
#
#      Author: C. J. Pickard (cjp20@cam.ac.uk)
#                Space group: C2/c
#

%BLOCK LATTICE_ABC
      4.57981      4.57981      9.91057
    100.79429    100.79429     92.19036
%ENDBLOCK LATTICE_ABC

%BLOCK POSITIONS_FRAC
  Li   0.0000000   0.5000000   0.0000000 SPIN=   0.00000
  Li  -0.5000000   0.0000000   0.5000000 SPIN=   0.00000
  Fe   0.3575699  -0.3575699  -0.2500000 SPIN=   4.00000
  Fe  -0.3575699   0.3575699   0.2500000 SPIN=   4.00000
   O   0.0411906  -0.0777213   0.1019512 SPIN=   0.00000
   O   0.4130397  -0.4558489   0.0993077 SPIN=   0.00000
   O   0.0777213  -0.0411906   0.3980488 SPIN=   0.00000
   O   0.4558489  -0.4130397   0.4006923 SPIN=   0.00000
   O  -0.0411906   0.0777213  -0.1019512 SPIN=   0.00000
   O  -0.4130397   0.4558489  -0.0993077 SPIN=   0.00000
   O  -0.0777213   0.0411906  -0.3980488 SPIN=   0.00000
   O  -0.4558489   0.4130397  -0.4006923 SPIN=   0.00000
   S  -0.1197519   0.1197519  -0.2500000 SPIN=   0.00000
   S   0.1197519  -0.1197519   0.2500000 SPIN=   0.00000
   F  -0.5000000  -0.0000000   0.0000000 SPIN=   0.00000
   F  -0.0000000   0.5000000   0.5000000 SPIN=   0.00000
%ENDBLOCK POSITIONS_FRAC

# Note: total spin =   8.00

KPOINTS_MP_SPACING 0.07

%BLOCK SPECIES_POT
QC5
%ENDBLOCK SPECIES_POT

SNAP_TO_SYMMETRY
SYMMETRY_GENERATE

