#              Generated by Buildcell
#
# at 21:22:50 (GMT+1.0) 18th August 2020
# in /scratch/scratch/uccabz1/launch_tmp
# on node-k10g-003
# by uccabz1
#
# compiler GCC version 4.9.2
# options -cpp -iprefix /scratch/UCL/applications/gcc/4.9.2/bin/../lib/gcc/x86_64-unknown-linux-gnu/4.9.2/ -mtune=corei7 -march=x86-64 -g -O2
#
# seed -1245734232   728375536 -1111521359    -1252410  -498359910  -110093822   763760311  -848510259  1255539028  -697654875  -447350403   481029899
#
#      Author: C. J. Pickard (cjp20@cam.ac.uk)
#                Space group: P-1
#

%BLOCK LATTICE_ABC
      3.86563      7.14915      7.67022
     72.26798     88.22243     82.15290
%ENDBLOCK LATTICE_ABC

%BLOCK POSITIONS_FRAC
  Li   0.1116807  -0.2077002   0.2304738 SPIN=   0.00000
  Li  -0.1116807   0.2077002  -0.2304738 SPIN=   0.00000
  Fe  -0.3622235  -0.2132481  -0.0742633 SPIN=   4.00000
  Fe   0.3622235   0.2132481   0.0742633 SPIN=   4.00000
   O   0.2663077  -0.3904884  -0.5030503 SPIN=   0.00000
   O   0.2835644  -0.2682108  -0.2347206 SPIN=   0.00000
   O   0.3728414  -0.6286813  -0.1930860 SPIN=   0.00000
   O  -0.2118188  -0.4359629  -0.2780320 SPIN=   0.00000
   S   0.1777237  -0.4308359  -0.3022222 SPIN=   0.00000
   O  -0.2663077   0.3904884   0.5030503 SPIN=   0.00000
   O  -0.2835644   0.2682108   0.2347206 SPIN=   0.00000
   O  -0.3728414   0.6286813   0.1930860 SPIN=   0.00000
   O   0.2118188   0.4359629   0.2780320 SPIN=   0.00000
   S  -0.1777237   0.4308359   0.3022222 SPIN=   0.00000
   F  -0.3315876   0.0262103  -0.2916961 SPIN=   0.00000
   F   0.3315876  -0.0262103   0.2916961 SPIN=   0.00000
%ENDBLOCK POSITIONS_FRAC

# Note: total spin =   8.00

KPOINTS_MP_SPACING 0.07

%BLOCK SPECIES_POT
QC5
%ENDBLOCK SPECIES_POT

SNAP_TO_SYMMETRY
SYMMETRY_GENERATE

