#              Generated by Buildcell
#
# at 22:22:51 (GMT+1.0) 18th August 2020
# in /lustre/scratch/uccabz1/launch_tmp
# on node-c12i-024
# by uccabz1
#
# compiler GCC version 4.9.2
# options -cpp -iprefix /lustre/shared/ucl/apps/gcc/4.9.2/bin/../lib/gcc/x86_64-unknown-linux-gnu/4.9.2/ -mtune=corei7 -march=x86-64 -g -Og
#
# seed -2047822391   301351774  1131783971   550208769  2124002326  1185944884   777580785   591777910   659615878  1523677650 -1495155027   311227130
#
#      Author: C. J. Pickard (cjp20@cam.ac.uk)
#                Space group: P-1
#

%BLOCK LATTICE_ABC
      3.95999      6.68501      8.08054
    107.86407    100.26361     90.00117
%ENDBLOCK LATTICE_ABC

%BLOCK POSITIONS_FRAC
  Li   0.0883110   0.4521881  -0.2421131 SPIN=   0.00000
  Li  -0.0883110  -0.4521881   0.2421131 SPIN=   0.00000
  Fe   0.1274139  -0.1491154  -0.3365631 SPIN=   4.00000
  Fe  -0.1274139   0.1491154   0.3365631 SPIN=   4.00000
   O  -0.3124146  -0.1926235   0.1538964 SPIN=   0.00000
   O  -0.4372525  -0.1163995  -0.1311844 SPIN=   0.00000
   O  -0.4214727  -0.4853868  -0.1281990 SPIN=   0.00000
   O   0.1170896  -0.2603206  -0.0420597 SPIN=   0.00000
   S  -0.2635125  -0.2636826  -0.0368867 SPIN=   0.00000
   O   0.3124146   0.1926235  -0.1538964 SPIN=   0.00000
   O   0.4372525   0.1163995   0.1311844 SPIN=   0.00000
   O   0.4214727   0.4853868   0.1281990 SPIN=   0.00000
   O  -0.1170896   0.2603206   0.0420597 SPIN=   0.00000
   S   0.2635125   0.2636826   0.0368867 SPIN=   0.00000
   F   0.2225598  -0.2702225   0.4241512 SPIN=   0.00000
   F  -0.2225598   0.2702225  -0.4241512 SPIN=   0.00000
%ENDBLOCK POSITIONS_FRAC

# Note: total spin =   8.00

KPOINTS_MP_SPACING 0.07

%BLOCK SPECIES_POT
QC5
%ENDBLOCK SPECIES_POT

SNAP_TO_SYMMETRY
SYMMETRY_GENERATE

