#              Generated by Buildcell
#
# at 02:54:09 (GMT+1.0) 19th August 2020
# in /lustre/scratch/uccabz1/launch_tmp
# on node-c12o-011
# by uccabz1
#
# compiler GCC version 4.9.2
# options -cpp -iprefix /lustre/shared/ucl/apps/gcc/4.9.2/bin/../lib/gcc/x86_64-unknown-linux-gnu/4.9.2/ -mtune=corei7 -march=x86-64 -g -Og
#
# seed  1652178592  -790306307 -1380280818  1058498299 -2138853432 -1057830976  -318449078  1574098944  -746138475 -1199574147  1181198397    84699925
#
#      Author: C. J. Pickard (cjp20@cam.ac.uk)
#                Space group: P2
#

%BLOCK LATTICE_ABC
      3.86972      4.46202     11.61969
     90.00000     94.55724     90.00000
%ENDBLOCK LATTICE_ABC

%BLOCK POSITIONS_FRAC
  Li  -0.3368561  -0.4702270  -0.3301231 SPIN=   0.00000
  Li   0.3368561  -0.4702270   0.3301231 SPIN=   0.00000
  Fe   0.5000000  -0.1104501   0.0000000 SPIN=   1.91905
  Fe  -0.5000000   0.0453853   0.5000000 SPIN=   6.08095
   O   0.2565900  -0.2218135  -0.2878101 SPIN=   0.00000
   O  -0.0906369  -0.0883386  -0.1253882 SPIN=   0.00000
   O  -0.2761843   0.0821022  -0.3233954 SPIN=   0.00000
   O   0.2449887   0.3024186  -0.2186555 SPIN=   0.00000
   S   0.0336894   0.0185922  -0.2388123 SPIN=   0.00000
   O  -0.2565900  -0.2218135   0.2878101 SPIN=   0.00000
   O   0.0906369  -0.0883386   0.1253882 SPIN=   0.00000
   O   0.2761843   0.0821022   0.3233954 SPIN=   0.00000
   O  -0.2449887   0.3024186   0.2186555 SPIN=   0.00000
   S  -0.0336894   0.0185922   0.2388123 SPIN=   0.00000
   F   0.5000000  -0.4473086  -0.5000000 SPIN=   0.00000
   F   0.5000000   0.3968711   0.0000000 SPIN=   0.00000
%ENDBLOCK POSITIONS_FRAC

# Note: total spin =   8.00

KPOINTS_MP_SPACING 0.07

%BLOCK SPECIES_POT
QC5
%ENDBLOCK SPECIES_POT

SNAP_TO_SYMMETRY
SYMMETRY_GENERATE

