#              Generated by Buildcell
#
# at 04:47:20 (GMT+1.0) 4th August 2020
# in /lustre/scratch/uccabz1/launch_tmp
# on node-c12j-014
# by uccabz1
#
# compiler GCC version 4.9.2
# options -cpp -iprefix /lustre/shared/ucl/apps/gcc/4.9.2/bin/../lib/gcc/x86_64-unknown-linux-gnu/4.9.2/ -mtune=corei7 -march=x86-64 -g -Og
#
# seed -1344284398 -1017049280   137036815 -1155306736  1507779420  1164574579 -2072877068   957277360   188814146  1394354536  -124874614  1556335118
#
#      Author: C. J. Pickard (cjp20@cam.ac.uk)
#                Space group: Cc
#

%BLOCK LATTICE_ABC
      5.47770      5.70099      7.46885
    100.61215     90.00000    118.71260
%ENDBLOCK LATTICE_ABC

%BLOCK POSITIONS_FRAC
  Li  -0.2731405   0.1256994   0.3216667 SPIN=   0.00000
  Li  -0.1011601   0.1256994  -0.1783333 SPIN=   0.00000
  Fe   0.2512424  -0.2579124  -0.3547736 SPIN=   4.00000
  Fe  -0.0091547  -0.2579124   0.1452264 SPIN=   4.00000
   O  -0.3077696   0.7001006  -0.2551055 SPIN=   0.00000
   O  -0.2787791   0.2909332  -0.4060671 SPIN=   0.00000
   O  -0.7024987   0.2373510  -0.2592480 SPIN=   0.00000
   O  -0.2582569   0.4061504  -0.0683555 SPIN=   0.00000
   S  -0.3868261   0.4086338  -0.2471940 SPIN=   0.00000
   O   0.5078702   0.7001006   0.2448945 SPIN=   0.00000
   O   0.0697123   0.2909332   0.0939329 SPIN=   0.00000
   O   0.4398497   0.2373510   0.2407520 SPIN=   0.00000
   O   0.1644073   0.4061504   0.4316445 SPIN=   0.00000
   S   0.2954599   0.4086338   0.2528060 SPIN=   0.00000
   F  -0.0041261  -0.1905318   0.4425793 SPIN=   0.00000
   F   0.3135943  -0.1905318  -0.0574207 SPIN=   0.00000
%ENDBLOCK POSITIONS_FRAC

# Note: total spin =   8.00

KPOINTS_MP_SPACING 0.07

%BLOCK SPECIES_POT
QC5
%ENDBLOCK SPECIES_POT

SNAP_TO_SYMMETRY
SYMMETRY_GENERATE

