#              Generated by Buildcell
#
# at 04:28:32 (GMT+1.0) 4th August 2020
# in /lustre/scratch/uccabz1/launch_tmp
# on node-c12d-014
# by uccabz1
#
# compiler GCC version 4.9.2
# options -cpp -iprefix /lustre/shared/ucl/apps/gcc/4.9.2/bin/../lib/gcc/x86_64-unknown-linux-gnu/4.9.2/ -mtune=corei7 -march=x86-64 -g -Og
#
# seed  1860492260  1261990341  -806404516 -2040840958 -2100173236   703243475  -997141503  1210525569   -56071397   -51696811 -2066023591   352869464
#
#      Author: C. J. Pickard (cjp20@cam.ac.uk)
#                Space group: Ama2
#

%BLOCK LATTICE_ABC
      3.91244      6.68970      7.99073
     90.00000     90.00000    107.00305
%ENDBLOCK LATTICE_ABC

%BLOCK POSITIONS_FRAC
  Li   0.4401076   0.0000000   0.0000000 SPIN=   0.00000
  Li   0.4401076   0.0000000  -0.5000000 SPIN=   0.00000
  Fe   0.0286159   0.1770140  -0.2500000 SPIN=   4.00000
  Fe  -0.1483981  -0.1770140   0.2500000 SPIN=   4.00000
   O  -0.6122666  -0.5302024  -0.0998573 SPIN=   0.00000
   O  -0.1889212  -0.1805608  -0.0472852 SPIN=   0.00000
   O  -0.0820643   0.5302024   0.0998573 SPIN=   0.00000
   O  -0.0083604   0.1805608   0.0472852 SPIN=   0.00000
   O  -0.0820643   0.5302024   0.4001427 SPIN=   0.00000
   O  -0.0083604   0.1805608   0.4527148 SPIN=   0.00000
   O  -0.6122666  -0.5302024  -0.4001427 SPIN=   0.00000
   O  -0.1889212  -0.1805608  -0.4527148 SPIN=   0.00000
   S   0.1316268   0.3830330   0.2500000 SPIN=   0.00000
   S  -0.2514061  -0.3830330  -0.2500000 SPIN=   0.00000
   F   0.4050018  -0.0702172   0.2500000 SPIN=   0.00000
   F   0.4752189   0.0702172  -0.2500000 SPIN=   0.00000
%ENDBLOCK POSITIONS_FRAC

# Note: total spin =   8.00

KPOINTS_MP_SPACING 0.07

%BLOCK SPECIES_POT
QC5
%ENDBLOCK SPECIES_POT

SNAP_TO_SYMMETRY
SYMMETRY_GENERATE

