#              Generated by Buildcell
#
# at 19:43:26 (GMT+1.0) 18th August 2020
# in /scratch/scratch/uccabz1/launch_tmp
# on node-k10d-025
# by uccabz1
#
# compiler GCC version 4.9.2
# options -cpp -iprefix /scratch/UCL/applications/gcc/4.9.2/bin/../lib/gcc/x86_64-unknown-linux-gnu/4.9.2/ -mtune=corei7 -march=x86-64 -g -O2
#
# seed  1104001971   158671254  -752678009   400717216  1724506173  1752441089 -2120289944 -1532971005  1013659920  1787208270   952274800  1374602554
#
#      Author: C. J. Pickard (cjp20@cam.ac.uk)
#                Space group: Cm
#

%BLOCK LATTICE_ABC
      5.63229      5.63229      6.41967
     82.31959     82.31959     89.57862
%ENDBLOCK LATTICE_ABC

%BLOCK POSITIONS_FRAC
  Li   0.0590145  -0.4608444   0.4766206 SPIN=   0.00000
  Li  -0.4608444   0.0590145   0.4766206 SPIN=   0.00000
  Fe  -0.4011498  -0.4011498   0.1849954 SPIN=   3.04321
  Fe   0.0429114   0.0429114   0.2380099 SPIN=   4.95679
   O  -0.2013767   0.5165586  -0.2614454 SPIN=   0.00000
   O  -0.1557873   0.1257941  -0.3979583 SPIN=   0.00000
   O  -0.5152519   0.2029914  -0.1504273 SPIN=   0.00000
   S  -0.2482777   0.2493178  -0.2078291 SPIN=   0.00000
   O   0.5165586  -0.2013767  -0.2614454 SPIN=   0.00000
   O   0.1257941  -0.1557873  -0.3979583 SPIN=   0.00000
   O   0.2029914  -0.5152519  -0.1504273 SPIN=   0.00000
   S   0.2493178  -0.2482777  -0.2078291 SPIN=   0.00000
   O   0.4904777   0.4904777  -0.4470849 SPIN=   0.00000
   O  -0.2050255  -0.2050255   0.4552609 SPIN=   0.00000
   F  -0.0686384   0.4302772   0.2476111 SPIN=   0.00000
   F   0.4302772  -0.0686384   0.2476111 SPIN=   0.00000
%ENDBLOCK POSITIONS_FRAC

# Note: total spin =   8.00

KPOINTS_MP_SPACING 0.07

%BLOCK SPECIES_POT
QC5
%ENDBLOCK SPECIES_POT

SNAP_TO_SYMMETRY
SYMMETRY_GENERATE

