#              Generated by Buildcell
#
# at 04:50:28 (GMT+1.0) 4th August 2020
# in /lustre/scratch/uccabz1/launch_tmp
# on node-c12h-035
# by uccabz1
#
# compiler GCC version 4.9.2
# options -cpp -iprefix /lustre/shared/ucl/apps/gcc/4.9.2/bin/../lib/gcc/x86_64-unknown-linux-gnu/4.9.2/ -mtune=corei7 -march=x86-64 -g -Og
#
# seed   903193391   -59425782   800799637   179594414   795880939   808371004  -335143540   517391534  1420850498  1601694732   297099935   798080130
#
#      Author: C. J. Pickard (cjp20@cam.ac.uk)
#                Space group: C2
#

%BLOCK LATTICE_ABC
      5.54467      6.15756      6.67256
    103.76771    114.54977     90.00000
%ENDBLOCK LATTICE_ABC

%BLOCK POSITIONS_FRAC
  Li   0.1062293   0.0000000  -0.0000000 SPIN=   0.00000
  Li  -0.2138665   0.5000000   0.0000000 SPIN=   0.00000
  Fe  -0.3290608   0.2257684   0.2601309 SPIN=   4.00000
  Fe   0.4108083  -0.2257684  -0.2601309 SPIN=   4.00000
   O  -0.2922045  -0.4329538   0.5177399 SPIN=   0.00000
   O  -0.1353368  -0.0257741   0.6631304 SPIN=   0.00000
   O  -0.4759410  -0.1791017   0.2662519 SPIN=   0.00000
   O  -0.0094982  -0.2658406   0.3752107 SPIN=   0.00000
   S  -0.2282451  -0.2259175   0.4555832 SPIN=   0.00000
   O   0.1900556   0.4329538  -0.5177399 SPIN=   0.00000
   O   0.2015327   0.0257741  -0.6631304 SPIN=   0.00000
   O   0.2578071   0.1791017  -0.2662519 SPIN=   0.00000
   O   0.6152911   0.2658406  -0.3752107 SPIN=   0.00000
   S   0.3161716   0.2259175  -0.4555832 SPIN=   0.00000
   F   0.1479657   0.5000000  -0.0000000 SPIN=   0.00000
   F  -0.2592433  -0.0000000   0.0000000 SPIN=   0.00000
%ENDBLOCK POSITIONS_FRAC

# Note: total spin =   8.00

KPOINTS_MP_SPACING 0.07

%BLOCK SPECIES_POT
QC5
%ENDBLOCK SPECIES_POT

SNAP_TO_SYMMETRY
SYMMETRY_GENERATE

