#              Generated by Buildcell
#
# at 21:03:21 (GMT+1.0) 18th August 2020
# in /lustre/scratch/uccabz1/launch_tmp
# on node-c12a-026
# by uccabz1
#
# compiler GCC version 4.9.2
# options -cpp -iprefix /lustre/shared/ucl/apps/gcc/4.9.2/bin/../lib/gcc/x86_64-unknown-linux-gnu/4.9.2/ -mtune=corei7 -march=x86-64 -g -Og
#
# seed  1014953800 -1715475346 -1720263034  -831081020  1099294538 -1465874181  1372458273 -1639098094 -1647797772  2102190450 -1504544786  -393731388
#
#      Author: C. J. Pickard (cjp20@cam.ac.uk)
#                Space group: Pm
#

%BLOCK LATTICE_ABC
      3.97593      6.32929      7.98839
     90.00000     90.00000     95.79217
%ENDBLOCK LATTICE_ABC

%BLOCK POSITIONS_FRAC
  Li  -0.1793659   0.4270749   0.0000000 SPIN=   0.00000
  Li  -0.1807424   0.2872821  -0.5000000 SPIN=   0.00000
  Fe   0.2987909   0.1497488  -0.2288797 SPIN=   4.00000
  Fe   0.2987909   0.1497488   0.2288797 SPIN=   4.00000
   O  -0.6693654  -0.1633924   0.3488445 SPIN=   0.00000
   O  -0.4967083  -0.5280809   0.3585884 SPIN=   0.00000
   O  -0.1574749  -0.2488251   0.1971586 SPIN=   0.00000
   S  -0.5119428  -0.3327429   0.2502121 SPIN=   0.00000
   O  -0.6693654  -0.1633924  -0.3488445 SPIN=   0.00000
   O  -0.4967083  -0.5280809  -0.3585884 SPIN=   0.00000
   O  -0.1574749  -0.2488251  -0.1971586 SPIN=   0.00000
   S  -0.5119428  -0.3327429  -0.2502121 SPIN=   0.00000
   O   0.0442571  -0.4296407   0.5000000 SPIN=   0.00000
   O   0.2954879   0.1726523  -0.5000000 SPIN=   0.00000
   F  -0.1898142   0.1843733   0.2319395 SPIN=   0.00000
   F  -0.1898142   0.1843733  -0.2319395 SPIN=   0.00000
%ENDBLOCK POSITIONS_FRAC

# Note: total spin =   8.00

KPOINTS_MP_SPACING 0.07

%BLOCK SPECIES_POT
QC5
%ENDBLOCK SPECIES_POT

SNAP_TO_SYMMETRY
SYMMETRY_GENERATE

