#              Generated by Buildcell
#
# at 00:46:28 (GMT+1.0) 19th August 2020
# in /lustre/scratch/uccabz1/launch_tmp
# on node-c12j-020
# by uccabz1
#
# compiler GCC version 4.9.2
# options -cpp -iprefix /lustre/shared/ucl/apps/gcc/4.9.2/bin/../lib/gcc/x86_64-unknown-linux-gnu/4.9.2/ -mtune=corei7 -march=x86-64 -g -Og
#
# seed   788033807 -1952847593   546858903  1956037494 -1673120845  -839642875  -421586182 -1033144564   764402435 -1828416375   314668713  1083903577
#
#      Author: C. J. Pickard (cjp20@cam.ac.uk)
#                Space group: C2
#

%BLOCK LATTICE_ABC
      6.10592      6.10592      6.71251
     63.37655     63.37655     78.22459
%ENDBLOCK LATTICE_ABC

%BLOCK POSITIONS_FRAC
  Li  -0.1961778  -0.2978149   0.2664398 SPIN=   0.00000
  Li   0.2978149   0.1961778  -0.2664398 SPIN=   0.00000
  Fe  -0.5953562   0.1187525   0.1436469 SPIN=   4.00000
  Fe  -0.1187525   0.5953562  -0.1436469 SPIN=   4.00000
   O  -0.9988715  -0.5754113   0.3777932 SPIN=   0.00000
   O  -0.5494246  -0.5878150   0.2474610 SPIN=   0.00000
   O  -0.8207250  -0.4750800   0.5932112 SPIN=   0.00000
   O  -0.7684249  -0.1899317   0.1723206 SPIN=   0.00000
   S  -0.7843615  -0.4570595   0.3476965 SPIN=   0.00000
   O   0.5754113   0.9988715  -0.3777932 SPIN=   0.00000
   O   0.5878150   0.5494246  -0.2474610 SPIN=   0.00000
   O   0.4750800   0.8207250  -0.5932112 SPIN=   0.00000
   O   0.1899317   0.7684249  -0.1723206 SPIN=   0.00000
   S   0.4570595   0.7843615  -0.3476965 SPIN=   0.00000
   F   0.0831346   0.2532390   0.0587714 SPIN=   0.00000
   F  -0.2532390  -0.0831346  -0.0587714 SPIN=   0.00000
%ENDBLOCK POSITIONS_FRAC

# Note: total spin =   8.00

KPOINTS_MP_SPACING 0.07

%BLOCK SPECIES_POT
QC5
%ENDBLOCK SPECIES_POT

SNAP_TO_SYMMETRY
SYMMETRY_GENERATE

