#              Generated by Buildcell
#
# at 02:34:03 (GMT+1.0) 19th August 2020
# in /lustre/scratch/uccabz1/launch_tmp
# on node-c12g-028
# by uccabz1
#
# compiler GCC version 4.9.2
# options -cpp -iprefix /lustre/shared/ucl/apps/gcc/4.9.2/bin/../lib/gcc/x86_64-unknown-linux-gnu/4.9.2/ -mtune=corei7 -march=x86-64 -g -Og
#
# seed  -145974243  -405667509   476458155  1003523286  1587784246   517045532   378548901 -1146851054  1925463274 -1654805484    37027443  -971177104
#
#      Author: C. J. Pickard (cjp20@cam.ac.uk)
#                Space group: Cc
#

%BLOCK LATTICE_ABC
      4.61400      4.61400      9.57925
     87.76793     87.76793     79.10344
%ENDBLOCK LATTICE_ABC

%BLOCK POSITIONS_FRAC
  Li  -0.0204591   0.4969427  -0.2620612 SPIN=   0.00000
  Li  -0.0030573   0.4795409   0.2379388 SPIN=   0.00000
  Fe   0.3865546   0.4497763  -0.0216676 SPIN=   4.00000
  Fe  -0.0502237  -0.1134454   0.4783324 SPIN=   4.00000
   O   0.6176722   0.1389778  -0.2364503 SPIN=   0.00000
   O   0.4326295  -0.0842301  -0.4377939 SPIN=   0.00000
   O   0.1071258   0.0435166  -0.2290414 SPIN=   0.00000
   O   0.5305960  -0.3742749  -0.2162225 SPIN=   0.00000
   S   0.4220059  -0.0690026  -0.2798770 SPIN=   0.00000
   O  -0.3610222   0.1176722   0.2635497 SPIN=   0.00000
   O  -0.5842301  -0.0673705   0.0622061 SPIN=   0.00000
   O  -0.4564834  -0.3928742   0.2709586 SPIN=   0.00000
   O  -0.8742749   0.0305960   0.2837775 SPIN=   0.00000
   S  -0.5690026  -0.0779941   0.2201230 SPIN=   0.00000
   F  -0.1408193   0.3679958   0.4777380 SPIN=   0.00000
   F  -0.1320042   0.3591807  -0.0222620 SPIN=   0.00000
%ENDBLOCK POSITIONS_FRAC

# Note: total spin =   8.00

KPOINTS_MP_SPACING 0.07

%BLOCK SPECIES_POT
QC5
%ENDBLOCK SPECIES_POT

SNAP_TO_SYMMETRY
SYMMETRY_GENERATE

