#              Generated by Buildcell
#
# at 05:37:16 (GMT+1.0) 4th August 2020
# in /lustre/scratch/uccabz1/launch_tmp
# on node-c12f-033
# by uccabz1
#
# compiler GCC version 4.9.2
# options -cpp -iprefix /lustre/shared/ucl/apps/gcc/4.9.2/bin/../lib/gcc/x86_64-unknown-linux-gnu/4.9.2/ -mtune=corei7 -march=x86-64 -g -Og
#
# seed -1322010783      204517   657943384 -1982164074  -496048836 -1674252610 -1819238147  -401049571  1405843885 -1598770104   379923247   251712538
#
#      Author: C. J. Pickard (cjp20@cam.ac.uk)
#                Space group: Pnc2
#

%BLOCK LATTICE_ABC
      5.01896      5.66176      7.03825
     90.00000     90.00000     90.00000
%ENDBLOCK LATTICE_ABC

%BLOCK POSITIONS_FRAC
  Li   0.5000000  -0.0000000   0.1872451 SPIN=   0.00000
  Li   0.0000000  -0.0000000  -0.3127549 SPIN=   0.00000
  Fe   0.5000000  -0.5000000   0.0328735 SPIN=   4.00000
  Fe   0.0000000  -0.5000000  -0.4671265 SPIN=   4.00000
   O  -0.2569976  -0.1594170  -0.1369453 SPIN=   0.00000
   O  -0.7341672  -0.2266264  -0.2072251 SPIN=   0.00000
   O   0.2569976   0.1594170  -0.1369453 SPIN=   0.00000
   O   0.7341672   0.2266264  -0.2072251 SPIN=   0.00000
   O  -0.2430024  -0.1594170   0.3630547 SPIN=   0.00000
   O   0.2341672  -0.2266264   0.2927749 SPIN=   0.00000
   O   0.2430024   0.1594170   0.3630547 SPIN=   0.00000
   O  -0.2341672   0.2266264   0.2927749 SPIN=   0.00000
   S   0.0000000  -0.0000000   0.3103551 SPIN=   0.00000
   S   0.5000000  -0.0000000  -0.1896449 SPIN=   0.00000
   F  -0.0000000  -0.5000000   0.0396282 SPIN=   0.00000
   F   0.5000000  -0.5000000  -0.4603718 SPIN=   0.00000
%ENDBLOCK POSITIONS_FRAC

# Note: total spin =   8.00

KPOINTS_MP_SPACING 0.07

%BLOCK SPECIES_POT
QC5
%ENDBLOCK SPECIES_POT

SNAP_TO_SYMMETRY
SYMMETRY_GENERATE

