#              Generated by Buildcell
#
# at 03:00:12 (GMT+1.0) 4th August 2020
# in /lustre/scratch/uccabz1/launch_tmp
# on node-c12n-011
# by uccabz1
#
# compiler GCC version 4.9.2
# options -cpp -iprefix /lustre/shared/ucl/apps/gcc/4.9.2/bin/../lib/gcc/x86_64-unknown-linux-gnu/4.9.2/ -mtune=corei7 -march=x86-64 -g -Og
#
# seed -1165089676  -386337366  1000461385  1506975291   710377349 -1253015846  2006878239  -521576263 -1218940697  1333223801   897563415 -1357542354
#
#      Author: C. J. Pickard (cjp20@cam.ac.uk)
#                Space group: P2
#

%BLOCK LATTICE_ABC
      3.96728      6.47957      7.94760
     90.00000    101.78059     90.00000
%ENDBLOCK LATTICE_ABC

%BLOCK POSITIONS_FRAC
  Li  -0.0000000   0.0411901   0.5000000 SPIN=   0.00000
  Li   0.0000000   0.0477321   0.0000000 SPIN=   0.00000
  Fe   0.4811721   0.2740481  -0.2423301 SPIN=   4.00000
  Fe  -0.4811721   0.2740481   0.2423301 SPIN=   4.00000
   O  -0.1252721  -0.5211665   0.1279319 SPIN=   0.00000
   O  -0.0897542  -0.1676216   0.2481087 SPIN=   0.00000
   O  -0.3504448  -0.4481596   0.3901483 SPIN=   0.00000
   O  -0.6547734  -0.3129744   0.1087213 SPIN=   0.00000
   O   0.1252721  -0.5211665  -0.1279319 SPIN=   0.00000
   O   0.0897542  -0.1676216  -0.2481087 SPIN=   0.00000
   O   0.3504448  -0.4481596  -0.3901483 SPIN=   0.00000
   O   0.6547734  -0.3129744  -0.1087213 SPIN=   0.00000
   S  -0.0000000  -0.3970166   0.5000000 SPIN=   0.00000
   S   0.0000000  -0.3905461   0.0000000 SPIN=   0.00000
   F   0.5000000   0.1039939   0.5000000 SPIN=   0.00000
   F  -0.5000000   0.1102516   0.0000000 SPIN=   0.00000
%ENDBLOCK POSITIONS_FRAC

# Note: total spin =   8.00

KPOINTS_MP_SPACING 0.07

%BLOCK SPECIES_POT
QC5
%ENDBLOCK SPECIES_POT

SNAP_TO_SYMMETRY
SYMMETRY_GENERATE

