#              Generated by Buildcell
#
# at 02:03:22 (GMT+1.0) 19th August 2020
# in /lustre/scratch/uccabz1/launch_tmp
# on node-c12c-006
# by uccabz1
#
# compiler GCC version 4.9.2
# options -cpp -iprefix /lustre/shared/ucl/apps/gcc/4.9.2/bin/../lib/gcc/x86_64-unknown-linux-gnu/4.9.2/ -mtune=corei7 -march=x86-64 -g -Og
#
# seed   759369402  -388794642   759034481   130108133 -1418202670 -1755253953  1928909071  -118103043   450701537  1883696217 -1043375227   159555579
#
#      Author: C. J. Pickard (cjp20@cam.ac.uk)
#                Space group: P-1
#

%BLOCK LATTICE_ABC
      4.43070      6.42715      7.34167
    103.12389     98.04849     95.13432
%ENDBLOCK LATTICE_ABC

%BLOCK POSITIONS_FRAC
  Li  -0.2562847  -0.2058208   0.0880983 SPIN=   0.00000
  Li   0.2562847   0.2058208  -0.0880983 SPIN=   0.00000
  Fe  -0.2405283  -0.1440836  -0.3785782 SPIN=   4.00000
  Fe   0.2405283   0.1440836   0.3785782 SPIN=   4.00000
   O   0.0457671  -0.6537887  -0.2856518 SPIN=   0.00000
   O   0.3022365  -0.3842222  -0.4253166 SPIN=   0.00000
   O   0.5593196  -0.4621043  -0.1308704 SPIN=   0.00000
   O   0.1030719  -0.2664215  -0.1248270 SPIN=   0.00000
   S   0.2525988  -0.4416342  -0.2416664 SPIN=   0.00000
   O  -0.0457671   0.6537887   0.2856518 SPIN=   0.00000
   O  -0.3022365   0.3842222   0.4253166 SPIN=   0.00000
   O  -0.5593196   0.4621043   0.1308704 SPIN=   0.00000
   O  -0.1030719   0.2664215   0.1248270 SPIN=   0.00000
   S  -0.2525988   0.4416342   0.2416664 SPIN=   0.00000
   F  -0.4541014   0.0786633  -0.2331981 SPIN=   0.00000
   F   0.4541014  -0.0786633   0.2331981 SPIN=   0.00000
%ENDBLOCK POSITIONS_FRAC

# Note: total spin =   8.00

KPOINTS_MP_SPACING 0.07

%BLOCK SPECIES_POT
QC5
%ENDBLOCK SPECIES_POT

SNAP_TO_SYMMETRY
SYMMETRY_GENERATE

