#              Generated by Buildcell
#
# at 01:46:47 (GMT+1.0) 19th August 2020
# in /lustre/scratch/uccabz1/launch_tmp
# on node-c12f-013
# by uccabz1
#
# compiler GCC version 4.9.2
# options -cpp -iprefix /lustre/shared/ucl/apps/gcc/4.9.2/bin/../lib/gcc/x86_64-unknown-linux-gnu/4.9.2/ -mtune=corei7 -march=x86-64 -g -Og
#
# seed -1295335936 -1286892929   837868694 -1068682887   240246554  1005788699  1852311462 -1845573875 -1775686593   -56256202  -444657581  1741026403
#
#      Author: C. J. Pickard (cjp20@cam.ac.uk)
#                Space group: Pnc2
#

%BLOCK LATTICE_ABC
      4.97326      5.47795      7.34126
     90.00000     90.00000     90.00000
%ENDBLOCK LATTICE_ABC

%BLOCK POSITIONS_FRAC
  Li   0.0000000  -0.5000000   0.0666257 SPIN=   0.00000
  Li   0.0000000   0.0000000  -0.4333743 SPIN=   0.00000
  Fe  -0.5000000  -0.0000000  -0.1651857 SPIN=   4.00000
  Fe   0.5000000  -0.5000000   0.3348143 SPIN=   4.00000
   O   0.2672374  -0.0760388   0.2001375 SPIN=   0.00000
   O  -0.0594061  -0.2928543   0.3963748 SPIN=   0.00000
   O  -0.2672374   0.0760388   0.2001375 SPIN=   0.00000
   O   0.0594061   0.2928543   0.3963748 SPIN=   0.00000
   O   0.2672374  -0.4239612  -0.2998625 SPIN=   0.00000
   O  -0.0594061  -0.2071457  -0.1036252 SPIN=   0.00000
   O  -0.2672374   0.4239612  -0.2998625 SPIN=   0.00000
   O   0.0594061   0.2071457  -0.1036252 SPIN=   0.00000
   S   0.0000000  -0.5000000  -0.3678944 SPIN=   0.00000
   S   0.0000000   0.0000000   0.1321056 SPIN=   0.00000
   F  -0.5000000  -0.5000000   0.0457178 SPIN=   0.00000
   F   0.5000000   0.0000000  -0.4542822 SPIN=   0.00000
%ENDBLOCK POSITIONS_FRAC

# Note: total spin =   8.00

KPOINTS_MP_SPACING 0.07

%BLOCK SPECIES_POT
QC5
%ENDBLOCK SPECIES_POT

SNAP_TO_SYMMETRY
SYMMETRY_GENERATE

