#              Generated by Buildcell
#
# at 03:55:17 (GMT+1.0) 4th August 2020
# in /lustre/scratch/uccabz1/launch_tmp
# on node-c12p-031
# by uccabz1
#
# compiler GCC version 4.9.2
# options -cpp -iprefix /lustre/shared/ucl/apps/gcc/4.9.2/bin/../lib/gcc/x86_64-unknown-linux-gnu/4.9.2/ -mtune=corei7 -march=x86-64 -g -Og
#
# seed   868400762  1678970494  1891780216  1490590185  -612576398 -1008487730   625324948    -8061012   218196030 -1606032772  1299368534 -1121222222
#
#      Author: C. J. Pickard (cjp20@cam.ac.uk)
#                Space group: P21212
#

%BLOCK LATTICE_ABC
      4.68800      5.91123      7.21713
     90.00000     90.00000     90.00000
%ENDBLOCK LATTICE_ABC

%BLOCK POSITIONS_FRAC
  Li   0.5000000  -0.0000000  -0.2684613 SPIN=   0.00000
  Li   0.0000000   0.5000000   0.2684613 SPIN=   0.00000
  Fe   0.5000000  -0.0000000   0.3069728 SPIN=   4.00000
  Fe   0.0000000   0.5000000  -0.3069728 SPIN=   4.00000
   O  -0.1872681   0.3082453   0.0759438 SPIN=   0.00000
   O  -0.6534833   0.3070934   0.2368177 SPIN=   0.00000
   O   0.1872681  -0.3082453   0.0759438 SPIN=   0.00000
   O   0.6534833  -0.3070934   0.2368177 SPIN=   0.00000
   O   0.3127319   0.1917547  -0.0759438 SPIN=   0.00000
   O  -0.1534833   0.1929066  -0.2368177 SPIN=   0.00000
   O  -0.3127319  -0.1917547  -0.0759438 SPIN=   0.00000
   O   0.1534833  -0.1929066  -0.2368177 SPIN=   0.00000
   S  -0.0000000  -0.0000000  -0.0881990 SPIN=   0.00000
   S  -0.5000000   0.5000000   0.0881990 SPIN=   0.00000
   F  -0.0000000  -0.0000000   0.4120186 SPIN=   0.00000
   F  -0.5000000   0.5000000  -0.4120186 SPIN=   0.00000
%ENDBLOCK POSITIONS_FRAC

# Note: total spin =   8.00

KPOINTS_MP_SPACING 0.07

%BLOCK SPECIES_POT
QC5
%ENDBLOCK SPECIES_POT

SNAP_TO_SYMMETRY
SYMMETRY_GENERATE

