#              Generated by Buildcell
#
# at 03:24:16 (GMT+1.0) 4th August 2020
# in /lustre/scratch/uccabz1/launch_tmp
# on node-c12j-012
# by uccabz1
#
# compiler GCC version 4.9.2
# options -cpp -iprefix /lustre/shared/ucl/apps/gcc/4.9.2/bin/../lib/gcc/x86_64-unknown-linux-gnu/4.9.2/ -mtune=corei7 -march=x86-64 -g -Og
#
# seed -1833856084   194572164  -412148407  -818376269  1652626519  2063835086 -2012259469  1944848784   245867457  -722603344 -1541508400  -541409156
#
#      Author: C. J. Pickard (cjp20@cam.ac.uk)
#                Space group: P2/c
#

%BLOCK LATTICE_ABC
      3.93486      6.22713      8.18493
     90.00000     90.00000     94.26019
%ENDBLOCK LATTICE_ABC

%BLOCK POSITIONS_FRAC
  Li  -0.2500000  -0.2500000  -0.4197795 SPIN=   0.00000
  Li   0.2500000   0.2500000   0.4197795 SPIN=   0.00000
  Fe   0.2500000  -0.2500000   0.2912293 SPIN=   4.00000
  Fe   0.7500000   0.2500000  -0.2912293 SPIN=   4.00000
   O   0.5998693   0.3987067   0.1020115 SPIN=   0.00000
   O   0.3946561   0.0588261   0.2384657 SPIN=   0.00000
   O  -0.0998693   0.1012933   0.1020115 SPIN=   0.00000
   O   0.1053439   0.4411739   0.2384657 SPIN=   0.00000
   O  -0.5998693  -0.3987067  -0.1020115 SPIN=   0.00000
   O  -0.3946561  -0.0588261  -0.2384657 SPIN=   0.00000
   O   0.0998693  -0.1012933  -0.1020115 SPIN=   0.00000
   O  -0.1053439  -0.4411739  -0.2384657 SPIN=   0.00000
   S   0.2500000   0.2500000   0.0872770 SPIN=   0.00000
   S  -0.2500000  -0.2500000  -0.0872770 SPIN=   0.00000
   F  -0.2500000  -0.2500000   0.3359422 SPIN=   0.00000
   F   0.2500000   0.2500000  -0.3359422 SPIN=   0.00000
%ENDBLOCK POSITIONS_FRAC

# Note: total spin =   8.00

KPOINTS_MP_SPACING 0.07

%BLOCK SPECIES_POT
QC5
%ENDBLOCK SPECIES_POT

SNAP_TO_SYMMETRY
SYMMETRY_GENERATE

