#              Generated by Buildcell
#
# at 19:42:20 (GMT+1.0) 18th August 2020
# in /scratch/scratch/uccabz1/launch_tmp
# on node-k10c-029
# by uccabz1
#
# compiler GCC version 4.9.2
# options -cpp -iprefix /scratch/UCL/applications/gcc/4.9.2/bin/../lib/gcc/x86_64-unknown-linux-gnu/4.9.2/ -mtune=corei7 -march=x86-64 -g -O2
#
# seed   614589635 -1485766114  1609229578  -980893270 -1657744785 -1279152550   802169578   128900957 -1437273673 -1748968453  -566240159 -1699195641
#
#      Author: C. J. Pickard (cjp20@cam.ac.uk)
#                Space group: P-1
#

%BLOCK LATTICE_ABC
      4.14574      6.97537      7.18614
     75.46663     89.76342     83.98717
%ENDBLOCK LATTICE_ABC

%BLOCK POSITIONS_FRAC
  Li  -0.4627249  -0.3559185   0.1932231 SPIN=   0.00000
  Li   0.4627249   0.3559185  -0.1932231 SPIN=   0.00000
  Fe  -0.0181811   0.2320196  -0.4260724 SPIN=   4.00000
  Fe   0.0181811  -0.2320196   0.4260724 SPIN=   4.00000
   O   0.6526348  -0.3514461  -0.1067516 SPIN=   0.00000
   O   0.6167356   0.0167567  -0.2009871 SPIN=   0.00000
   O   0.1172750  -0.1525642  -0.1797361 SPIN=   0.00000
   O   0.5011685  -0.1675765  -0.4416258 SPIN=   0.00000
   S   0.4719535  -0.1637075  -0.2322752 SPIN=   0.00000
   O  -0.6526348   0.3514461   0.1067516 SPIN=   0.00000
   O  -0.6167356  -0.0167567   0.2009871 SPIN=   0.00000
   O  -0.1172750   0.1525642   0.1797361 SPIN=   0.00000
   O  -0.5011685   0.1675765   0.4416258 SPIN=   0.00000
   S  -0.4719535   0.1637075   0.2322752 SPIN=   0.00000
   F  -0.0008894  -0.3360514   0.2162753 SPIN=   0.00000
   F   0.0008894   0.3360514  -0.2162753 SPIN=   0.00000
%ENDBLOCK POSITIONS_FRAC

# Note: total spin =   8.00

KPOINTS_MP_SPACING 0.07

%BLOCK SPECIES_POT
QC5
%ENDBLOCK SPECIES_POT

SNAP_TO_SYMMETRY
SYMMETRY_GENERATE

