#              Generated by Buildcell
#
# at 03:02:47 (GMT+1.0) 4th August 2020
# in /lustre/scratch/uccabz1/launch_tmp
# on node-c12a-004
# by uccabz1
#
# compiler GCC version 4.9.2
# options -cpp -iprefix /lustre/shared/ucl/apps/gcc/4.9.2/bin/../lib/gcc/x86_64-unknown-linux-gnu/4.9.2/ -mtune=corei7 -march=x86-64 -g -Og
#
# seed  1810783683  1781942923 -2039190516  -219777274  1548058889  -123102452 -1260719023  1604848745 -2002391628  1362819493  -264384226  1433968352
#
#      Author: C. J. Pickard (cjp20@cam.ac.uk)
#                Space group: P21
#

%BLOCK LATTICE_ABC
      5.40129      5.63375      6.70071
     90.00000    101.22329     90.00000
%ENDBLOCK LATTICE_ABC

%BLOCK POSITIONS_FRAC
  Li  -0.4458923   0.3735071  -0.1636383 SPIN=   0.00000
  Li   0.4458923  -0.1264929   0.1636383 SPIN=   0.00000
  Fe   0.3479760   0.4176449   0.3555613 SPIN=   4.00000
  Fe  -0.3479760  -0.0823551  -0.3555613 SPIN=   4.00000
   O   0.2253188   0.0633585   0.4035939 SPIN=   0.00000
   O   0.0401660  -0.3356706   0.3252473 SPIN=   0.00000
   O  -0.0279770  -0.0217363   0.0618802 SPIN=   0.00000
   O  -0.2365222   0.0062249   0.3588203 SPIN=   0.00000
   S   0.0002464  -0.0719559   0.2873854 SPIN=   0.00000
   O  -0.2253188   0.5633585  -0.4035939 SPIN=   0.00000
   O  -0.0401660   0.1643294  -0.3252473 SPIN=   0.00000
   O   0.0279770   0.4782637  -0.0618802 SPIN=   0.00000
   O   0.2365222   0.5062249  -0.3588203 SPIN=   0.00000
   S  -0.0002464   0.4280441  -0.2873854 SPIN=   0.00000
   F  -0.3965826   0.4267591   0.1577891 SPIN=   0.00000
   F   0.3965826  -0.0732409  -0.1577891 SPIN=   0.00000
%ENDBLOCK POSITIONS_FRAC

# Note: total spin =   8.00

KPOINTS_MP_SPACING 0.07

%BLOCK SPECIES_POT
QC5
%ENDBLOCK SPECIES_POT

SNAP_TO_SYMMETRY
SYMMETRY_GENERATE

