#              Generated by Buildcell
#
# at 03:53:39 (GMT+1.0) 4th August 2020
# in /lustre/scratch/uccabz1/launch_tmp
# on node-c12k-030
# by uccabz1
#
# compiler GCC version 4.9.2
# options -cpp -iprefix /lustre/shared/ucl/apps/gcc/4.9.2/bin/../lib/gcc/x86_64-unknown-linux-gnu/4.9.2/ -mtune=corei7 -march=x86-64 -g -Og
#
# seed  2062429501  -871663445  1046614521 -1537387515 -2051151584  2127997672  -658109416   729148689 -1867915642  1791145977  1721163984   -93396630
#
#      Author: C. J. Pickard (cjp20@cam.ac.uk)
#                Space group: Pc
#

%BLOCK LATTICE_ABC
      4.96602      5.39967      7.46171
     90.00000     90.00000     91.66956
%ENDBLOCK LATTICE_ABC

%BLOCK POSITIONS_FRAC
  Li  -0.2398049  -0.1964575  -0.4080761 SPIN=   0.00000
  Li   0.2601951   0.3035425   0.4080761 SPIN=   0.00000
  Fe  -0.4615407  -0.1564931  -0.0368995 SPIN=   4.00000
  Fe   0.0384593   0.3435069   0.0368995 SPIN=   4.00000
   O   0.2167106  -0.4037904   0.2572857 SPIN=   0.00000
   O  -0.2018730  -0.1877524   0.3309248 SPIN=   0.00000
   O   0.1684713   0.0353107   0.1711735 SPIN=   0.00000
   O   0.2218902  -0.0776279   0.4903861 SPIN=   0.00000
   S   0.1012998  -0.1584650   0.3124425 SPIN=   0.00000
   O  -0.2832894   0.0962096  -0.2572857 SPIN=   0.00000
   O  -0.7018730   0.3122476  -0.3309248 SPIN=   0.00000
   O  -0.3315287   0.5353107  -0.1711735 SPIN=   0.00000
   O  -0.2781098   0.4223721  -0.4903861 SPIN=   0.00000
   S  -0.3987002   0.3415350  -0.3124425 SPIN=   0.00000
   F   0.1613648  -0.2126888  -0.1536477 SPIN=   0.00000
   F  -0.3386352   0.2873112   0.1536477 SPIN=   0.00000
%ENDBLOCK POSITIONS_FRAC

# Note: total spin =   8.00

KPOINTS_MP_SPACING 0.07

%BLOCK SPECIES_POT
QC5
%ENDBLOCK SPECIES_POT

SNAP_TO_SYMMETRY
SYMMETRY_GENERATE

