#              Generated by Buildcell
#
# at 21:58:42 (GMT+1.0) 18th August 2020
# in /scratch/scratch/uccabz1/launch_tmp
# on node-k10h-023
# by uccabz1
#
# compiler GCC version 4.9.2
# options -cpp -iprefix /scratch/UCL/applications/gcc/4.9.2/bin/../lib/gcc/x86_64-unknown-linux-gnu/4.9.2/ -mtune=corei7 -march=x86-64 -g -O2
#
# seed -2126340626   415457159  -625736432   798268476 -1958615527 -1134895642  -255913679  -802553318 -1787863229  -959423750   558082620  1416967041
#
#      Author: C. J. Pickard (cjp20@cam.ac.uk)
#                Space group: P-1
#

%BLOCK LATTICE_ABC
      5.30142      6.69180      6.86347
    116.24753    103.89833    100.51068
%ENDBLOCK LATTICE_ABC

%BLOCK POSITIONS_FRAC
  Li  -0.4414813   0.2563238   0.2637847 SPIN=   0.00000
  Li   0.4414813  -0.2563238  -0.2637847 SPIN=   0.00000
  Fe  -0.0522687  -0.1536035   0.1594611 SPIN=   4.00000
  Fe   0.0522687   0.1536035  -0.1594611 SPIN=   4.00000
   O   0.5689958  -0.1433950  -0.4619551 SPIN=   0.00000
   O   0.6696244  -0.4170309  -0.7960119 SPIN=   0.00000
   O   0.2936768  -0.2562519  -0.8636533 SPIN=   0.00000
   O   0.2420316  -0.5495844  -0.7364424 SPIN=   0.00000
   S   0.4435821  -0.3415656  -0.7145157 SPIN=   0.00000
   O  -0.5689958   0.1433950   0.4619551 SPIN=   0.00000
   O  -0.6696244   0.4170309   0.7960119 SPIN=   0.00000
   O  -0.2936768   0.2562519   0.8636533 SPIN=   0.00000
   O  -0.2420316   0.5495844   0.7364424 SPIN=   0.00000
   S  -0.4435821   0.3415656   0.7145157 SPIN=   0.00000
   F   0.1257427  -0.1457001  -0.2738399 SPIN=   0.00000
   F  -0.1257427   0.1457001   0.2738399 SPIN=   0.00000
%ENDBLOCK POSITIONS_FRAC

# Note: total spin =   8.00

KPOINTS_MP_SPACING 0.07

%BLOCK SPECIES_POT
QC5
%ENDBLOCK SPECIES_POT

SNAP_TO_SYMMETRY
SYMMETRY_GENERATE

