#              Generated by Buildcell
#
# at 18:02:11 (GMT+1.0) 18th August 2020
# in /scratch/scratch/uccabz1/launch_tmp
# on node-k10b-019
# by uccabz1
#
# compiler GCC version 4.9.2
# options -cpp -iprefix /scratch/UCL/applications/gcc/4.9.2/bin/../lib/gcc/x86_64-unknown-linux-gnu/4.9.2/ -mtune=corei7 -march=x86-64 -g -O2
#
# seed -1252017441 -2083452548  -786878534   237751523  -949909067  1084776878  -749289588  1355693232  -872210857 -1793441474   783779138  2098935687
#
#      Author: C. J. Pickard (cjp20@cam.ac.uk)
#                Space group: Pmc21
#

%BLOCK LATTICE_ABC
      5.62104      5.85550      6.07645
     90.00000     90.00000     90.00000
%ENDBLOCK LATTICE_ABC

%BLOCK POSITIONS_FRAC
  Li  -0.4261800   0.0000000  -0.2549513 SPIN=   0.00000
  Li   0.0738200   0.0000000   0.2549513 SPIN=   0.00000
  Fe  -0.2045946  -0.5000000  -0.3135826 SPIN=   4.00000
  Fe   0.2954054   0.5000000   0.3135826 SPIN=   4.00000
   O  -0.5592418  -0.2094602   0.1427069 SPIN=   0.00000
   O  -0.3651757  -0.2219286   0.5081006 SPIN=   0.00000
   O  -0.0592418   0.2094602  -0.1427069 SPIN=   0.00000
   O   0.1348243   0.2219286  -0.5081006 SPIN=   0.00000
   O  -0.0592418  -0.2094602  -0.1427069 SPIN=   0.00000
   O   0.1348243  -0.2219286  -0.5081006 SPIN=   0.00000
   O  -0.5592418   0.2094602   0.1427069 SPIN=   0.00000
   O  -0.3651757   0.2219286   0.5081006 SPIN=   0.00000
   S   0.0813250  -0.0000000  -0.2107522 SPIN=   0.00000
   S  -0.4186750   0.0000000   0.2107522 SPIN=   0.00000
   F  -0.0725334   0.5000000   0.1878417 SPIN=   0.00000
   F   0.4274666   0.5000000  -0.1878417 SPIN=   0.00000
%ENDBLOCK POSITIONS_FRAC

# Note: total spin =   8.00

KPOINTS_MP_SPACING 0.07

%BLOCK SPECIES_POT
QC5
%ENDBLOCK SPECIES_POT

SNAP_TO_SYMMETRY
SYMMETRY_GENERATE

