#              Generated by Buildcell
#
# at 01:51:33 (GMT+1.0) 4th August 2020
# in /lustre/scratch/uccabz1/launch_tmp
# on node-c12m-020
# by uccabz1
#
# compiler GCC version 4.9.2
# options -cpp -iprefix /lustre/shared/ucl/apps/gcc/4.9.2/bin/../lib/gcc/x86_64-unknown-linux-gnu/4.9.2/ -mtune=corei7 -march=x86-64 -g -Og
#
# seed -1306584251  1304879977  -864576288  1548201526   296921835  2026672956   985947739  -107610887  1289306057 -1780800145  -772467349  2043060260
#
#      Author: C. J. Pickard (cjp20@cam.ac.uk)
#                Space group: Ama2
#

%BLOCK LATTICE_ABC
      4.17876      5.99809      8.51255
     90.00000     90.00000    110.38587
%ENDBLOCK LATTICE_ABC

%BLOCK POSITIONS_FRAC
  Li  -0.4064458  -0.5290993  -0.2500000 SPIN=   0.00000
  Li  -0.1226535  -0.5290993   0.2500000 SPIN=   0.00000
  Fe   0.0522573  -0.0296550  -0.2500000 SPIN=   4.00000
  Fe  -0.0819123  -0.0296550   0.2500000 SPIN=   4.00000
   O   0.1131611  -0.2521378   0.3998968 SPIN=   0.00000
   O  -0.5013961  -0.4945308   0.3844277 SPIN=   0.00000
   O  -0.3652989  -0.2521378  -0.3998968 SPIN=   0.00000
   O   0.0068653  -0.4945308  -0.3844277 SPIN=   0.00000
   O  -0.3652989  -0.2521378  -0.1001032 SPIN=   0.00000
   O   0.0068653  -0.4945308  -0.1155723 SPIN=   0.00000
   O   0.1131611  -0.2521378   0.1001032 SPIN=   0.00000
   O  -0.5013961  -0.4945308   0.1155723 SPIN=   0.00000
   S   0.3074012   0.6148024   0.0000000 SPIN=   0.00000
   S   0.3074012   0.6148024  -0.5000000 SPIN=   0.00000
   F  -0.4147660  -0.8801038   0.2500000 SPIN=   0.00000
   F  -0.4653378  -0.8801038  -0.2500000 SPIN=   0.00000
%ENDBLOCK POSITIONS_FRAC

# Note: total spin =   8.00

KPOINTS_MP_SPACING 0.07

%BLOCK SPECIES_POT
QC5
%ENDBLOCK SPECIES_POT

SNAP_TO_SYMMETRY
SYMMETRY_GENERATE

