#              Generated by Buildcell
#
# at 02:16:18 (GMT+1.0) 4th August 2020
# in /lustre/scratch/uccabz1/launch_tmp
# on node-c12l-025
# by uccabz1
#
# compiler GCC version 4.9.2
# options -cpp -iprefix /lustre/shared/ucl/apps/gcc/4.9.2/bin/../lib/gcc/x86_64-unknown-linux-gnu/4.9.2/ -mtune=corei7 -march=x86-64 -g -Og
#
# seed -1475408154  1518147235 -1380504470   435916989  -214260564  -535362370  -282234251 -1394320230   438330902   558117710   708447227  1819893494
#
#      Author: C. J. Pickard (cjp20@cam.ac.uk)
#                Space group: P-1
#

%BLOCK LATTICE_ABC
      5.43723      5.98795      6.75039
     80.40205     67.96817     81.49696
%ENDBLOCK LATTICE_ABC

%BLOCK POSITIONS_FRAC
  Li   0.3091045  -0.0711818  -0.2263512 SPIN=   0.00000
  Li  -0.3091045   0.0711818   0.2263512 SPIN=   0.00000
  Fe  -0.2595120  -0.2875232  -0.0547567 SPIN=   4.00000
  Fe   0.2595120   0.2875232   0.0547567 SPIN=   4.00000
   O   0.1242573  -0.0881913   0.0910932 SPIN=   0.00000
   O   0.2384347  -0.1608082   0.4196478 SPIN=   0.00000
   O   0.1106797  -0.4744580   0.2920947 SPIN=   0.00000
   O  -0.2282440  -0.1650553   0.4483867 SPIN=   0.00000
   S   0.0612819  -0.2221282   0.3128056 SPIN=   0.00000
   O  -0.1242573   0.0881913  -0.0910932 SPIN=   0.00000
   O  -0.2384347   0.1608082  -0.4196478 SPIN=   0.00000
   O  -0.1106797   0.4744580  -0.2920947 SPIN=   0.00000
   O   0.2282440   0.1650553  -0.4483867 SPIN=   0.00000
   S  -0.0612819   0.2221282  -0.3128056 SPIN=   0.00000
   F   0.3345034  -0.4183879  -0.2116446 SPIN=   0.00000
   F  -0.3345034   0.4183879   0.2116446 SPIN=   0.00000
%ENDBLOCK POSITIONS_FRAC

# Note: total spin =   8.00

KPOINTS_MP_SPACING 0.07

%BLOCK SPECIES_POT
QC5
%ENDBLOCK SPECIES_POT

SNAP_TO_SYMMETRY
SYMMETRY_GENERATE

