#              Generated by Buildcell
#
# at 01:42:30 (GMT+1.0) 4th August 2020
# in /lustre/scratch/uccabz1/launch_tmp
# on node-c12h-034
# by uccabz1
#
# compiler GCC version 4.9.2
# options -cpp -iprefix /lustre/shared/ucl/apps/gcc/4.9.2/bin/../lib/gcc/x86_64-unknown-linux-gnu/4.9.2/ -mtune=corei7 -march=x86-64 -g -Og
#
# seed   560112660  1249717460  1637499282  1863642515  2134879955   394171512    72883807  -318874580  -365366204  -298548721 -1989518050   545746981
#
#      Author: C. J. Pickard (cjp20@cam.ac.uk)
#                Space group: Pnn2
#

%BLOCK LATTICE_ABC
      3.87193      4.53662     11.38597
     90.00000     90.00000     90.00000
%ENDBLOCK LATTICE_ABC

%BLOCK POSITIONS_FRAC
  Li   0.5000000   0.5000000  -0.0764608 SPIN=   0.00000
  Li   0.0000000   0.0000000   0.4235392 SPIN=   0.00000
  Fe   0.0000000   0.0000000   0.0017583 SPIN=   4.00000
  Fe   0.5000000   0.5000000  -0.4982417 SPIN=   4.00000
   O  -0.0019652   0.2496529  -0.1710921 SPIN=   0.00000
   O   0.2163142   0.1797260  -0.3734778 SPIN=   0.00000
   O   0.0019652  -0.2496529  -0.1710921 SPIN=   0.00000
   O  -0.2163142  -0.1797260  -0.3734778 SPIN=   0.00000
   O   0.5019652  -0.2503471   0.3289079 SPIN=   0.00000
   O   0.2836858  -0.3202740   0.1265222 SPIN=   0.00000
   O  -0.5019652   0.2503471   0.3289079 SPIN=   0.00000
   O  -0.2836858   0.3202740   0.1265222 SPIN=   0.00000
   S  -0.0000000  -0.5000000  -0.2544022 SPIN=   0.00000
   S   0.5000000  -0.0000000   0.2455978 SPIN=   0.00000
   F   0.5000000   0.0000000  -0.0546821 SPIN=   0.00000
   F   0.0000000   0.5000000   0.4453179 SPIN=   0.00000
%ENDBLOCK POSITIONS_FRAC

# Note: total spin =   8.00

KPOINTS_MP_SPACING 0.07

%BLOCK SPECIES_POT
QC5
%ENDBLOCK SPECIES_POT

SNAP_TO_SYMMETRY
SYMMETRY_GENERATE

