#              Generated by Buildcell
#
# at 01:44:35 (GMT+1.0) 19th August 2020
# in /lustre/scratch/uccabz1/launch_tmp
# on node-c12m-014
# by uccabz1
#
# compiler GCC version 4.9.2
# options -cpp -iprefix /lustre/shared/ucl/apps/gcc/4.9.2/bin/../lib/gcc/x86_64-unknown-linux-gnu/4.9.2/ -mtune=corei7 -march=x86-64 -g -Og
#
# seed   317134605  -678513475  1295089164 -1913377830   -75422139   -45251084 -1615665327   956917496  1725213247 -1830046009   717013363 -1827381192
#
#      Author: C. J. Pickard (cjp20@cam.ac.uk)
#                Space group: Ima2
#

%BLOCK LATTICE_ABC
      6.40049      6.40049      6.40049
    103.26473    111.49203    113.83960
%ENDBLOCK LATTICE_ABC

%BLOCK POSITIONS_FRAC
  Li   0.0001096   0.0001096   0.0000000 SPIN=   0.00000
  Li   0.0001096  -0.4998904   0.5000000 SPIN=   0.00000
  Fe  -0.1028662  -0.0095669   0.4067007 SPIN=   4.00000
  Fe   0.5837324   0.4904331  -0.4067007 SPIN=   4.00000
   O   0.4164324   0.2982760   0.1984975 SPIN=   0.00000
   O   0.6901597   0.4698967   0.0178284 SPIN=   0.00000
   O   0.0997785   0.2179350  -0.1984975 SPIN=   0.00000
   O   0.4520684   0.6723313  -0.0178284 SPIN=   0.00000
   O   0.0997785  -0.2017240   0.3818436 SPIN=   0.00000
   O   0.4520684  -0.0301033   0.2797371 SPIN=   0.00000
   O  -0.5835676  -0.2820650  -0.3818436 SPIN=   0.00000
   O  -0.3098403   0.1723313  -0.2797371 SPIN=   0.00000
   S   0.3912047   0.3912047   0.0000000 SPIN=   0.00000
   S   0.3912047  -0.1087953  -0.5000000 SPIN=   0.00000
   F   0.0191644  -0.3075988  -0.1732368 SPIN=   0.00000
   F  -0.1343619   0.1924012   0.1732368 SPIN=   0.00000
%ENDBLOCK POSITIONS_FRAC

# Note: total spin =   8.00

KPOINTS_MP_SPACING 0.07

%BLOCK SPECIES_POT
QC5
%ENDBLOCK SPECIES_POT

SNAP_TO_SYMMETRY
SYMMETRY_GENERATE

