#              Generated by Buildcell
#
# at 22:22:29 (GMT+1.0) 18th August 2020
# in /lustre/scratch/uccabz1/launch_tmp
# on node-c12k-010
# by uccabz1
#
# compiler GCC version 4.9.2
# options -cpp -iprefix /lustre/shared/ucl/apps/gcc/4.9.2/bin/../lib/gcc/x86_64-unknown-linux-gnu/4.9.2/ -mtune=corei7 -march=x86-64 -g -Og
#
# seed  1590477800 -1815209292  1974758807 -1304260811  -128948139  -313817914 -1155852627 -1284918344   214459269  1543784978  -341845435  -368471688
#
#      Author: C. J. Pickard (cjp20@cam.ac.uk)
#                Space group: Cc
#

%BLOCK LATTICE_ABC
      3.93002      7.63646      7.92591
    118.76574    104.29594     90.11798
%ENDBLOCK LATTICE_ABC

%BLOCK POSITIONS_FRAC
  Li  -0.1460295  -0.4515055  -0.7669687 SPIN=   0.00000
  Li   0.1209392   0.3154632   0.7669687 SPIN=   0.00000
  Fe  -0.5888961  -0.0764825  -0.4003444 SPIN=   4.00000
  Fe   0.3114483   0.3238619   0.4003444 SPIN=   4.00000
   O   0.4742406  -0.0008867   0.1335403 SPIN=   0.00000
   O   0.5402133  -0.1762498   0.3309083 SPIN=   0.00000
   O   1.0038767   0.0990428   0.4228460 SPIN=   0.00000
   O   0.9281382  -0.2290568   0.1122548 SPIN=   0.00000
   S   0.7366172  -0.0767876   0.2498873 SPIN=   0.00000
   O  -0.1592997  -0.1344270  -0.1335403 SPIN=   0.00000
   O  -0.2906951  -0.5071581  -0.3309083 SPIN=   0.00000
   O   0.0810307  -0.3238032  -0.4228460 SPIN=   0.00000
   O   0.3158834  -0.3413116  -0.1122548 SPIN=   0.00000
   S  -0.0132701  -0.3266750  -0.2498873 SPIN=   0.00000
   F  -0.2996529   0.1618407  -0.2559449 SPIN=   0.00000
   F  -0.5437079   0.4177857   0.2559449 SPIN=   0.00000
%ENDBLOCK POSITIONS_FRAC

# Note: total spin =   8.00

KPOINTS_MP_SPACING 0.07

%BLOCK SPECIES_POT
QC5
%ENDBLOCK SPECIES_POT

SNAP_TO_SYMMETRY
SYMMETRY_GENERATE

