#              Generated by Buildcell
#
# at 04:10:30 (GMT+1.0) 4th August 2020
# in /lustre/scratch/uccabz1/launch_tmp
# on node-c12f-011
# by uccabz1
#
# compiler GCC version 4.9.2
# options -cpp -iprefix /lustre/shared/ucl/apps/gcc/4.9.2/bin/../lib/gcc/x86_64-unknown-linux-gnu/4.9.2/ -mtune=corei7 -march=x86-64 -g -Og
#
# seed  -378393709 -2124769006 -1649678421  1835988117   562063808  -615640987   526095506   190654537   224027376  1411421387  1843256058    44634982
#
#      Author: C. J. Pickard (cjp20@cam.ac.uk)
#                Space group: Cc
#

%BLOCK LATTICE_ABC
      5.59717      5.59717      6.81597
     94.62883     94.62883    108.95190
%ENDBLOCK LATTICE_ABC

%BLOCK POSITIONS_FRAC
  Li  -0.0946297  -0.1950010   0.2762601 SPIN=   0.00000
  Li  -0.1950010  -0.0946297  -0.2237399 SPIN=   0.00000
  Fe   0.2846000  -0.3976268  -0.4961737 SPIN=   4.00000
  Fe  -0.3976268   0.2846000   0.0038263 SPIN=   4.00000
   O  -0.3636345   0.3824231   0.3176125 SPIN=   0.00000
   O  -0.0991211   0.3364392   0.6115851 SPIN=   0.00000
   O  -0.4366298  -0.0407193   0.4334527 SPIN=   0.00000
   O  -0.5518179   0.2882481   0.6307026 SPIN=   0.00000
   S  -0.3628008   0.2415978   0.4983382 SPIN=   0.00000
   O   0.3824231  -0.3636345  -0.1823875 SPIN=   0.00000
   O   0.3364392  -0.0991211   0.1115851 SPIN=   0.00000
   O  -0.0407193  -0.4366298  -0.0665473 SPIN=   0.00000
   O   0.2882481  -0.5518179   0.1307026 SPIN=   0.00000
   S   0.2415978  -0.3628008  -0.0016618 SPIN=   0.00000
   F   0.0275651  -0.1227763  -0.4131422 SPIN=   0.00000
   F  -0.1227763   0.0275651   0.0868578 SPIN=   0.00000
%ENDBLOCK POSITIONS_FRAC

# Note: total spin =   8.00

KPOINTS_MP_SPACING 0.07

%BLOCK SPECIES_POT
QC5
%ENDBLOCK SPECIES_POT

SNAP_TO_SYMMETRY
SYMMETRY_GENERATE

