#              Generated by Buildcell
#
# at 02:27:57 (GMT+1.0) 19th August 2020
# in /scratch/scratch/uccabz1/launch_tmp
# on node-k10b-026
# by uccabz1
#
# compiler GCC version 4.9.2
# options -cpp -iprefix /scratch/UCL/applications/gcc/4.9.2/bin/../lib/gcc/x86_64-unknown-linux-gnu/4.9.2/ -mtune=corei7 -march=x86-64 -g -O2
#
# seed  1346875836 -1488010150   897311271  -786256461 -2072100727  1982538120 -1347452092  1515995393  -432822146 -2043167187  1077741617 -1877562145
#
#      Author: C. J. Pickard (cjp20@cam.ac.uk)
#                Space group: Pc
#

%BLOCK LATTICE_ABC
      5.27889      5.97096      6.96767
    114.40337     90.00000     90.00000
%ENDBLOCK LATTICE_ABC

%BLOCK POSITIONS_FRAC
  Li  -0.3625605   0.4903842  -0.0421693 SPIN=   0.00000
  Li   0.3625605   0.4903842   0.4578307 SPIN=   0.00000
  Fe   0.1630280   0.2294797  -0.0121163 SPIN=   4.00000
  Fe  -0.1630280   0.2294797   0.4878837 SPIN=   4.00000
   O   0.5776100  -0.2824267   0.2753503 SPIN=   0.00000
   O   0.3989813   0.1346024   0.3790419 SPIN=   0.00000
   O   0.2199122  -0.1434283   0.5269362 SPIN=   0.00000
   O   0.1513820  -0.2307594   0.1513103 SPIN=   0.00000
   S   0.3369714  -0.1305030   0.3331597 SPIN=   0.00000
   O  -0.5776100  -0.2824267  -0.2246497 SPIN=   0.00000
   O  -0.3989813   0.1346024  -0.1209581 SPIN=   0.00000
   O  -0.2199122  -0.1434283   0.0269362 SPIN=   0.00000
   O  -0.1513820  -0.2307594  -0.3486897 SPIN=   0.00000
   S  -0.3369714  -0.1305030  -0.1668403 SPIN=   0.00000
   F   0.0596998   0.3685663  -0.2352171 SPIN=   0.00000
   F  -0.0596998   0.3685663   0.2647829 SPIN=   0.00000
%ENDBLOCK POSITIONS_FRAC

# Note: total spin =   8.00

KPOINTS_MP_SPACING 0.07

%BLOCK SPECIES_POT
QC5
%ENDBLOCK SPECIES_POT

SNAP_TO_SYMMETRY
SYMMETRY_GENERATE

