#              Generated by Buildcell
#
# at 21:27:23 (GMT+1.0) 18th August 2020
# in /lustre/scratch/uccabz1/launch_tmp
# on node-c12e-025
# by uccabz1
#
# compiler GCC version 4.9.2
# options -cpp -iprefix /lustre/shared/ucl/apps/gcc/4.9.2/bin/../lib/gcc/x86_64-unknown-linux-gnu/4.9.2/ -mtune=corei7 -march=x86-64 -g -Og
#
# seed  1873464370   207192064  1092031058  2011234261  2102576761 -1390620983 -1299591861  1824398690 -1612969826   273181305 -1788749927  1482944092
#
#      Author: C. J. Pickard (cjp20@cam.ac.uk)
#                Space group: P-1
#

%BLOCK LATTICE_ABC
      4.06728      6.49745      8.22750
     75.95628     89.32773     71.88925
%ENDBLOCK LATTICE_ABC

%BLOCK POSITIONS_FRAC
  Li   0.3330982   0.4935779  -0.2433824 SPIN=   0.00000
  Li  -0.3330982  -0.4935779   0.2433824 SPIN=   0.00000
  Fe   0.3107460   0.2230151   0.1132745 SPIN=   4.00000
  Fe  -0.3107460  -0.2230151  -0.1132745 SPIN=   4.00000
   O  -0.1574324  -0.1952968   0.3937556 SPIN=   0.00000
   O  -0.2196561  -0.0108083   0.0898357 SPIN=   0.00000
   O   0.0907964  -0.4165889   0.1899879 SPIN=   0.00000
   O   0.3546876  -0.1425639   0.2455057 SPIN=   0.00000
   S   0.0170989  -0.1913145   0.2297712 SPIN=   0.00000
   O   0.1574324   0.1952968  -0.3937556 SPIN=   0.00000
   O   0.2196561   0.0108083  -0.0898357 SPIN=   0.00000
   O  -0.0907964   0.4165889  -0.1899879 SPIN=   0.00000
   O  -0.3546876   0.1425639  -0.2455057 SPIN=   0.00000
   S  -0.0170989   0.1913145  -0.2297712 SPIN=   0.00000
   F   0.4124078  -0.2665902  -0.3808711 SPIN=   0.00000
   F  -0.4124078   0.2665902   0.3808711 SPIN=   0.00000
%ENDBLOCK POSITIONS_FRAC

# Note: total spin =   8.00

KPOINTS_MP_SPACING 0.07

%BLOCK SPECIES_POT
QC5
%ENDBLOCK SPECIES_POT

SNAP_TO_SYMMETRY
SYMMETRY_GENERATE

