#              Generated by Buildcell
#
# at 01:51:11 (GMT+1.0) 19th August 2020
# in /scratch/scratch/uccabz1/launch_tmp
# on node-k10c-029
# by uccabz1
#
# compiler GCC version 4.9.2
# options -cpp -iprefix /scratch/UCL/applications/gcc/4.9.2/bin/../lib/gcc/x86_64-unknown-linux-gnu/4.9.2/ -mtune=corei7 -march=x86-64 -g -O2
#
# seed   169775027  2068545695  1376362799   574212934 -1503826029  1948589027  1500688989 -1811525102 -1001217652  1524245354  1769666506  -338123665
#
#      Author: C. J. Pickard (cjp20@cam.ac.uk)
#                Space group: C2
#

%BLOCK LATTICE_ABC
      5.64845      6.40317      6.40317
     95.01749    109.67547    109.67547
%ENDBLOCK LATTICE_ABC

%BLOCK POSITIONS_FRAC
  Li  -0.2287424   0.0018576   0.4919164 SPIN=   0.00000
  Li   0.2287424  -0.4919164  -0.0018576 SPIN=   0.00000
  Fe  -0.2020322   0.3058308   0.1690115 SPIN=   4.00000
  Fe   0.2020322  -0.1690115  -0.3058308 SPIN=   4.00000
   O   0.0065649  -0.2606281  -0.0519665 SPIN=   0.00000
   O  -0.3911787  -0.2132523  -0.3267016 SPIN=   0.00000
   O  -0.3893762  -0.2887555   0.0462300 SPIN=   0.00000
   S  -0.3015187  -0.3388127  -0.1450499 SPIN=   0.00000
   O  -0.0065649   0.0519665   0.2606281 SPIN=   0.00000
   O   0.3911787   0.3267016   0.2132523 SPIN=   0.00000
   O   0.3893762  -0.0462300   0.2887555 SPIN=   0.00000
   S   0.3015187   0.1450499   0.3388127 SPIN=   0.00000
   O  -0.0000000   0.1169483  -0.1169483 SPIN=   0.00000
   O   0.0000000  -0.3111832   0.3111832 SPIN=   0.00000
   F  -0.5000000   0.1051866  -0.1051866 SPIN=   0.00000
   F   0.0000000   0.4031514  -0.4031514 SPIN=   0.00000
%ENDBLOCK POSITIONS_FRAC

# Note: total spin =   8.00

KPOINTS_MP_SPACING 0.07

%BLOCK SPECIES_POT
QC5
%ENDBLOCK SPECIES_POT

SNAP_TO_SYMMETRY
SYMMETRY_GENERATE

