#              Generated by Buildcell
#
# at 03:47:33 (GMT+1.0) 4th August 2020
# in /lustre/scratch/uccabz1/launch_tmp
# on node-c12c-020
# by uccabz1
#
# compiler GCC version 4.9.2
# options -cpp -iprefix /lustre/shared/ucl/apps/gcc/4.9.2/bin/../lib/gcc/x86_64-unknown-linux-gnu/4.9.2/ -mtune=corei7 -march=x86-64 -g -Og
#
# seed  1954869099 -1631786521  -124741831 -1370268114   152272926  1304121283  1023443644  1308706419   772589671  1589213946   468460080   930822560
#
#      Author: C. J. Pickard (cjp20@cam.ac.uk)
#                Space group: P-1
#

%BLOCK LATTICE_ABC
      5.19582      6.24373      7.03393
    114.11445     98.97863     98.47739
%ENDBLOCK LATTICE_ABC

%BLOCK POSITIONS_FRAC
  Li  -0.0347939   0.4707584   0.2354879 SPIN=   0.00000
  Li   0.0347939  -0.4707584  -0.2354879 SPIN=   0.00000
  Fe   0.0000000   0.0000000   0.5000000 SPIN=   3.71365
  Fe  -0.5000000  -0.5000000  -0.5000000 SPIN=   4.28635
   O   0.5538674   0.3786300   0.1455526 SPIN=   0.00000
   O   0.2820409  -0.0342092  -0.0960299 SPIN=   0.00000
   O   0.0877452   0.3184035  -0.0463245 SPIN=   0.00000
   O   0.1742873   0.2007390   0.2494638 SPIN=   0.00000
   O  -0.5538674  -0.3786300  -0.1455526 SPIN=   0.00000
   O  -0.2820409   0.0342092   0.0960299 SPIN=   0.00000
   O  -0.0877452  -0.3184035   0.0463245 SPIN=   0.00000
   O  -0.1742873  -0.2007390  -0.2494638 SPIN=   0.00000
   S  -0.5000000  -0.5000000   0.0000000 SPIN=   0.00000
   S  -0.0000000   0.0000000   0.0000000 SPIN=   0.00000
   F  -0.2535159   0.2489873   0.4981671 SPIN=   0.00000
   F   0.2535159  -0.2489873  -0.4981671 SPIN=   0.00000
%ENDBLOCK POSITIONS_FRAC

# Note: total spin =   8.00

KPOINTS_MP_SPACING 0.07

%BLOCK SPECIES_POT
QC5
%ENDBLOCK SPECIES_POT

SNAP_TO_SYMMETRY
SYMMETRY_GENERATE

