#              Generated by Buildcell
#
# at 05:30:20 (GMT+1.0) 4th August 2020
# in /lustre/scratch/uccabz1/launch_tmp
# on node-c12c-008
# by uccabz1
#
# compiler GCC version 4.9.2
# options -cpp -iprefix /lustre/shared/ucl/apps/gcc/4.9.2/bin/../lib/gcc/x86_64-unknown-linux-gnu/4.9.2/ -mtune=corei7 -march=x86-64 -g -Og
#
# seed  1494528028   351606908  -534489784 -1740190610  -857636650  1325941803 -1541076669 -1441236720   322246299  2141683467  1868925464 -1307149550
#
#      Author: C. J. Pickard (cjp20@cam.ac.uk)
#                Space group: P2/c
#

%BLOCK LATTICE_ABC
      3.95039      6.05560      8.64971
     90.00000     90.00000    104.85763
%ENDBLOCK LATTICE_ABC

%BLOCK POSITIONS_FRAC
  Li   0.5000000   0.2500000  -0.3727372 SPIN=   0.00000
  Li  -0.5000000  -0.2500000   0.3727372 SPIN=   0.00000
  Fe   0.0000000  -0.2500000  -0.3570510 SPIN=   4.00000
  Fe   0.0000000   0.2500000   0.3570510 SPIN=   4.00000
   O   0.2074998   0.1416636   0.0901502 SPIN=   0.00000
   O   0.3681184   0.5516429   0.1601498 SPIN=   0.00000
   O  -0.2074998   0.3583364   0.0901502 SPIN=   0.00000
   O  -0.3681184  -0.0516429   0.1601498 SPIN=   0.00000
   O  -0.2074998  -0.1416636  -0.0901502 SPIN=   0.00000
   O  -0.3681184  -0.5516429  -0.1601498 SPIN=   0.00000
   O   0.2074998  -0.3583364  -0.0901502 SPIN=   0.00000
   O   0.3681184   0.0516429  -0.1601498 SPIN=   0.00000
   S   0.0000000  -0.2500000   0.1440105 SPIN=   0.00000
   S   0.0000000   0.2500000  -0.1440105 SPIN=   0.00000
   F  -0.5000000  -0.2500000  -0.3958779 SPIN=   0.00000
   F   0.5000000   0.2500000   0.3958779 SPIN=   0.00000
%ENDBLOCK POSITIONS_FRAC

# Note: total spin =   8.00

KPOINTS_MP_SPACING 0.07

%BLOCK SPECIES_POT
QC5
%ENDBLOCK SPECIES_POT

SNAP_TO_SYMMETRY
SYMMETRY_GENERATE

