#              Generated by Buildcell
#
# at 03:33:12 (GMT+1.0) 4th August 2020
# in /lustre/scratch/uccabz1/launch_tmp
# on node-c12l-015
# by uccabz1
#
# compiler GCC version 4.9.2
# options -cpp -iprefix /lustre/shared/ucl/apps/gcc/4.9.2/bin/../lib/gcc/x86_64-unknown-linux-gnu/4.9.2/ -mtune=corei7 -march=x86-64 -g -Og
#
# seed   798390283 -1112743765  1933274673   162081536  1426331344  2037547464 -1392269437  1843019129 -1782260203 -1482358797  -642970581  -583754249
#
#      Author: C. J. Pickard (cjp20@cam.ac.uk)
#                Space group: P2
#

%BLOCK LATTICE_ABC
      5.74497      5.75339      6.08270
     90.00000     90.00000     95.86270
%ENDBLOCK LATTICE_ABC

%BLOCK POSITIONS_FRAC
  Li  -0.2332934  -0.2665030  -0.0198228 SPIN=   0.00000
  Li   0.2332934   0.2665030  -0.0198228 SPIN=   0.00000
  Fe   0.2479628  -0.2520455   0.2027546 SPIN=   4.00000
  Fe  -0.2479628   0.2520455   0.2027546 SPIN=   4.00000
   O   0.1936378  -0.0145427   0.4801416 SPIN=   0.00000
   O   0.1480621   0.3507456   0.2769808 SPIN=   0.00000
   O   0.5148710   0.3067012   0.4790641 SPIN=   0.00000
   O   0.1497322   0.3507795   0.6838485 SPIN=   0.00000
   S   0.2515758   0.2484209   0.4800087 SPIN=   0.00000
   O  -0.1936378   0.0145427   0.4801416 SPIN=   0.00000
   O  -0.1480621  -0.3507456   0.2769808 SPIN=   0.00000
   O  -0.5148710  -0.3067012   0.4790641 SPIN=   0.00000
   O  -0.1497322  -0.3507795   0.6838485 SPIN=   0.00000
   S  -0.2515758  -0.2484209   0.4800087 SPIN=   0.00000
   F   0.2497354  -0.2502422  -0.1530016 SPIN=   0.00000
   F  -0.2497354   0.2502422  -0.1530016 SPIN=   0.00000
%ENDBLOCK POSITIONS_FRAC

# Note: total spin =   8.00

KPOINTS_MP_SPACING 0.07

%BLOCK SPECIES_POT
QC5
%ENDBLOCK SPECIES_POT

SNAP_TO_SYMMETRY
SYMMETRY_GENERATE

