#              Generated by Buildcell
#
# at 23:51:41 (GMT+1.0) 18th August 2020
# in /lustre/scratch/uccabz1/launch_tmp
# on node-c12b-025
# by uccabz1
#
# compiler GCC version 4.9.2
# options -cpp -iprefix /lustre/shared/ucl/apps/gcc/4.9.2/bin/../lib/gcc/x86_64-unknown-linux-gnu/4.9.2/ -mtune=corei7 -march=x86-64 -g -Og
#
# seed   185370875 -1978674601   533999621   632779083  -453464011   482225523  -315473186   115767314   119098756 -1213610173 -1953569997  -205689439
#
#      Author: C. J. Pickard (cjp20@cam.ac.uk)
#                Space group: Cc
#

%BLOCK LATTICE_ABC
      5.06045      5.06045      8.07429
     99.76990     99.76990     93.35707
%ENDBLOCK LATTICE_ABC

%BLOCK POSITIONS_FRAC
  Li   0.0487741   0.1454861   0.2740951 SPIN=   0.00000
  Li   0.1454861   0.0487741  -0.2259049 SPIN=   0.00000
  Fe   0.0029786  -0.3332489  -0.0011729 SPIN=   4.00000
  Fe  -0.3332489   0.0029786   0.4988271 SPIN=   4.00000
   O   0.3749451  -0.6245231  -0.4696563 SPIN=   0.00000
   O   0.1749654  -0.4391102  -0.2201388 SPIN=   0.00000
   O   0.5515193  -0.1783567  -0.2960878 SPIN=   0.00000
   O   0.6333586  -0.5916196  -0.1766706 SPIN=   0.00000
   S   0.4336971  -0.4584024  -0.2906384 SPIN=   0.00000
   O  -0.6245231   0.3749451   0.0303437 SPIN=   0.00000
   O  -0.4391102   0.1749654   0.2798612 SPIN=   0.00000
   O  -0.1783567   0.5515193   0.2039122 SPIN=   0.00000
   O  -0.5916196   0.6333586   0.3233294 SPIN=   0.00000
   S  -0.4584024   0.4336971   0.2093616 SPIN=   0.00000
   F   0.0652965  -0.0670569   0.4440209 SPIN=   0.00000
   F  -0.0670569   0.0652965  -0.0559791 SPIN=   0.00000
%ENDBLOCK POSITIONS_FRAC

# Note: total spin =   8.00

KPOINTS_MP_SPACING 0.07

%BLOCK SPECIES_POT
QC5
%ENDBLOCK SPECIES_POT

SNAP_TO_SYMMETRY
SYMMETRY_GENERATE

