#              Generated by Buildcell
#
# at 23:00:56 (GMT+1.0) 18th August 2020
# in /lustre/scratch/uccabz1/launch_tmp
# on node-c12g-030
# by uccabz1
#
# compiler GCC version 4.9.2
# options -cpp -iprefix /lustre/shared/ucl/apps/gcc/4.9.2/bin/../lib/gcc/x86_64-unknown-linux-gnu/4.9.2/ -mtune=corei7 -march=x86-64 -g -Og
#
# seed -1218033029    31539259  -954129021  -298034265 -1803705338  1164807193   686651681  1263169518 -1262676369 -2097865961    52602989    65680615
#
#      Author: C. J. Pickard (cjp20@cam.ac.uk)
#                Space group: Pm
#

%BLOCK LATTICE_ABC
      3.88625      6.32446      8.15046
     90.00000     90.00000     93.26620
%ENDBLOCK LATTICE_ABC

%BLOCK POSITIONS_FRAC
  Li   0.3294345   0.0680293   0.0000000 SPIN=   0.00000
  Li  -0.0304208  -0.4470563  -0.5000000 SPIN=   0.00000
  Fe   0.4972467  -0.0730331  -0.5000000 SPIN=   3.24235
  Fe  -0.1668875  -0.3276503   0.0000000 SPIN=   4.75765
   O   0.1438060   0.4117946   0.1426080 SPIN=   0.00000
   O  -0.3051332   0.3652938   0.3569880 SPIN=   0.00000
   O   0.1932716   0.1385316   0.3573503 SPIN=   0.00000
   O  -0.2542688   0.0920962   0.1423072 SPIN=   0.00000
   S  -0.0555811   0.2519291   0.2498134 SPIN=   0.00000
   O   0.1438060   0.4117946  -0.1426080 SPIN=   0.00000
   O  -0.3051332   0.3652938  -0.3569880 SPIN=   0.00000
   O   0.1932716   0.1385316  -0.3573503 SPIN=   0.00000
   O  -0.2542688   0.0920962  -0.1423072 SPIN=   0.00000
   S  -0.0555811   0.2519291  -0.2498134 SPIN=   0.00000
   F   0.4094085  -0.2358243   0.2644485 SPIN=   0.00000
   F   0.4094085  -0.2358243  -0.2644485 SPIN=   0.00000
%ENDBLOCK POSITIONS_FRAC

# Note: total spin =   8.00

KPOINTS_MP_SPACING 0.07

%BLOCK SPECIES_POT
QC5
%ENDBLOCK SPECIES_POT

SNAP_TO_SYMMETRY
SYMMETRY_GENERATE

