#              Generated by Buildcell
#
# at 05:21:36 (GMT+1.0) 4th August 2020
# in /lustre/scratch/uccabz1/launch_tmp
# on node-c12k-002
# by uccabz1
#
# compiler GCC version 4.9.2
# options -cpp -iprefix /lustre/shared/ucl/apps/gcc/4.9.2/bin/../lib/gcc/x86_64-unknown-linux-gnu/4.9.2/ -mtune=corei7 -march=x86-64 -g -Og
#
# seed   371897393  1704569546  1223687939   433890905 -2068861878   424545721 -1262676369   963909783  -266750486  1744326091  -869657401  1643935902
#
#      Author: C. J. Pickard (cjp20@cam.ac.uk)
#                Space group: I41
#

%BLOCK LATTICE_ABC
      5.79154      5.79154      7.23357
    113.59840    113.59840     90.00000
%ENDBLOCK LATTICE_ABC

%BLOCK POSITIONS_FRAC
  Li  -0.4498244   0.0501756   0.1003513 SPIN=   0.00000
  Li  -0.1998244  -0.1998244  -0.3996487 SPIN=   0.00000
  Fe  -0.0765601   0.4234399  -0.1531202 SPIN=   4.00000
  Fe   0.1734399   0.1734399   0.3468798 SPIN=   4.00000
   O   0.3936118   0.3634736   0.1248214 SPIN=   0.00000
   O   0.5937692   0.3151807  -0.1302306 SPIN=   0.00000
   O  -0.2687905  -0.2386522   0.1248214 SPIN=   0.00000
   O  -0.7239998  -0.4454113  -0.1302306 SPIN=   0.00000
   O   0.1134736  -0.0187905   0.6248214 SPIN=   0.00000
   O   0.0651807  -0.4739998   0.3697694 SPIN=   0.00000
   O   0.5113478  -0.3563882   0.6248214 SPIN=   0.00000
   O   0.3045887  -0.1562308   0.3697694 SPIN=   0.00000
   S   0.3088031  -0.1911969  -0.3823938 SPIN=   0.00000
   S  -0.4411969  -0.4411969   0.1176062 SPIN=   0.00000
   F  -0.0222696  -0.0222696  -0.0445391 SPIN=   0.00000
   F  -0.2722696   0.2277304   0.4554609 SPIN=   0.00000
%ENDBLOCK POSITIONS_FRAC

# Note: total spin =   8.00

KPOINTS_MP_SPACING 0.07

%BLOCK SPECIES_POT
QC5
%ENDBLOCK SPECIES_POT

SNAP_TO_SYMMETRY
SYMMETRY_GENERATE

