#              Generated by Buildcell
#
# at 04:10:41 (GMT+1.0) 4th August 2020
# in /lustre/scratch/uccabz1/launch_tmp
# on node-c12f-026
# by uccabz1
#
# compiler GCC version 4.9.2
# options -cpp -iprefix /lustre/shared/ucl/apps/gcc/4.9.2/bin/../lib/gcc/x86_64-unknown-linux-gnu/4.9.2/ -mtune=corei7 -march=x86-64 -g -Og
#
# seed  1054591015  -116976728   553094860  -836451280  1565410700  1274786195  -791125145 -1988050937 -2055826097   845208315  1578949401  1716937448
#
#      Author: C. J. Pickard (cjp20@cam.ac.uk)
#                Space group: Cm
#

%BLOCK LATTICE_ABC
      3.93723      7.41991      7.95432
     62.19867     83.81826     76.65131
%ENDBLOCK LATTICE_ABC

%BLOCK POSITIONS_FRAC
  Li   0.2725227  -0.0097367  -0.3565415 SPIN=   0.00000
  Li   0.2725227  -0.3662782   0.3565415 SPIN=   0.00000
  Fe  -0.0615105   0.3083572   0.2658585 SPIN=   4.00000
  Fe  -0.0615105  -0.4257843  -0.2658585 SPIN=   4.00000
   O  -0.4113695  -0.1745767   0.1590648 SPIN=   0.00000
   O  -0.1730443   0.1044197   0.1626784 SPIN=   0.00000
   O  -0.1277266  -0.2362424   0.4494354 SPIN=   0.00000
   O  -0.7024913   0.0032273   0.3490021 SPIN=   0.00000
   S  -0.3536579  -0.0757930   0.2800452 SPIN=   0.00000
   O  -0.4113695  -0.0155119  -0.1590648 SPIN=   0.00000
   O  -0.1730443   0.2670981  -0.1626784 SPIN=   0.00000
   O  -0.1277266   0.2131930  -0.4494354 SPIN=   0.00000
   O  -0.7024913   0.3522294  -0.3490021 SPIN=   0.00000
   S  -0.3536579   0.2042522  -0.2800452 SPIN=   0.00000
   F   0.3267459   0.4146527   0.2591291 SPIN=   0.00000
   F   0.3267459  -0.3262182  -0.2591291 SPIN=   0.00000
%ENDBLOCK POSITIONS_FRAC

# Note: total spin =   8.00

KPOINTS_MP_SPACING 0.07

%BLOCK SPECIES_POT
QC5
%ENDBLOCK SPECIES_POT

SNAP_TO_SYMMETRY
SYMMETRY_GENERATE

