#              Generated by Buildcell
#
# at 23:56:18 (GMT+1.0) 18th August 2020
# in /lustre/scratch/uccabz1/launch_tmp
# on node-c12p-024
# by uccabz1
#
# compiler GCC version 4.9.2
# options -cpp -iprefix /lustre/shared/ucl/apps/gcc/4.9.2/bin/../lib/gcc/x86_64-unknown-linux-gnu/4.9.2/ -mtune=corei7 -march=x86-64 -g -Og
#
# seed -1453723450 -1302449839  2070138703 -2040885124   717523782  2095990452   417095191 -1070681986  2129253414 -2145677836   894628114  2042374299
#
#      Author: C. J. Pickard (cjp20@cam.ac.uk)
#                Space group: P2
#

%BLOCK LATTICE_ABC
      4.11395      6.72332      7.44443
    103.75847     90.00000     90.00000
%ENDBLOCK LATTICE_ABC

%BLOCK POSITIONS_FRAC
  Li  -0.1738471  -0.1748681  -0.3333380 SPIN=   0.00000
  Li  -0.1738471   0.1748681   0.3333380 SPIN=   0.00000
  Fe   0.3258674  -0.4293391  -0.2190820 SPIN=   4.00000
  Fe   0.3258674   0.4293391   0.2190820 SPIN=   4.00000
   O   0.1466823   0.1124330  -0.1457726 SPIN=   0.00000
   O  -0.1144287   0.4406259  -0.1578293 SPIN=   0.00000
   O  -0.3699697   0.2153199   0.0207473 SPIN=   0.00000
   O  -0.3641811   0.1125586  -0.3213008 SPIN=   0.00000
   S  -0.1754743   0.2202344  -0.1510389 SPIN=   0.00000
   O   0.1466823  -0.1124330   0.1457726 SPIN=   0.00000
   O  -0.1144287  -0.4406259   0.1578293 SPIN=   0.00000
   O  -0.3699697  -0.2153199  -0.0207473 SPIN=   0.00000
   O  -0.3641811  -0.1125586   0.3213008 SPIN=   0.00000
   S  -0.1754743  -0.2202344   0.1510389 SPIN=   0.00000
   F   0.2717923   0.2260524   0.4079020 SPIN=   0.00000
   F   0.2717923  -0.2260524  -0.4079020 SPIN=   0.00000
%ENDBLOCK POSITIONS_FRAC

# Note: total spin =   8.00

KPOINTS_MP_SPACING 0.07

%BLOCK SPECIES_POT
QC5
%ENDBLOCK SPECIES_POT

SNAP_TO_SYMMETRY
SYMMETRY_GENERATE

