#              Generated by Buildcell
#
# at 01:44:55 (GMT+1.0) 19th August 2020
# in /scratch/scratch/uccabz1/launch_tmp
# on node-k10f-025
# by uccabz1
#
# compiler GCC version 4.9.2
# options -cpp -iprefix /scratch/UCL/applications/gcc/4.9.2/bin/../lib/gcc/x86_64-unknown-linux-gnu/4.9.2/ -mtune=corei7 -march=x86-64 -g -O2
#
# seed  1268875397  1663600843   338735901 -2114142503  -680671480 -1870234933 -1849598999   157161352  -625329791  1971818080  -411340598  1452650488
#
#      Author: C. J. Pickard (cjp20@cam.ac.uk)
#                Space group: Pc
#

%BLOCK LATTICE_ABC
      5.82186      6.10009      6.29373
     90.00000     90.00000    116.51783
%ENDBLOCK LATTICE_ABC

%BLOCK POSITIONS_FRAC
  Li  -0.2527371  -0.3803290  -0.3110744 SPIN=   0.00000
  Li   0.2472629   0.1196710   0.3110744 SPIN=   0.00000
  Fe   0.3646049   0.1069808  -0.1682135 SPIN=   4.00000
  Fe  -0.1353951  -0.3930192   0.1682135 SPIN=   4.00000
   O   0.1296972  -0.4010225  -0.5283458 SPIN=   0.00000
   O   0.4067591  -0.2128725  -0.2162193 SPIN=   0.00000
   O   0.3777432  -0.5989251  -0.3674449 SPIN=   0.00000
   O   0.0070230  -0.5983763  -0.1754359 SPIN=   0.00000
   S   0.2303056  -0.4527991  -0.3218615 SPIN=   0.00000
   O  -0.3703028   0.0989775   0.5283458 SPIN=   0.00000
   O  -0.0932409   0.2871275   0.2162193 SPIN=   0.00000
   O  -0.1222568  -0.0989251   0.3674449 SPIN=   0.00000
   O  -0.4929770  -0.0983763   0.1754359 SPIN=   0.00000
   S  -0.2696944   0.0472009   0.3218615 SPIN=   0.00000
   F  -0.0732913  -0.0829739  -0.1774399 SPIN=   0.00000
   F   0.4267087   0.4170261   0.1774399 SPIN=   0.00000
%ENDBLOCK POSITIONS_FRAC

# Note: total spin =   8.00

KPOINTS_MP_SPACING 0.07

%BLOCK SPECIES_POT
QC5
%ENDBLOCK SPECIES_POT

SNAP_TO_SYMMETRY
SYMMETRY_GENERATE

