#              Generated by Buildcell
#
# at 03:12:45 (GMT+1.0) 4th August 2020
# in /lustre/scratch/uccabz1/launch_tmp
# on node-c12h-033
# by uccabz1
#
# compiler GCC version 4.9.2
# options -cpp -iprefix /lustre/shared/ucl/apps/gcc/4.9.2/bin/../lib/gcc/x86_64-unknown-linux-gnu/4.9.2/ -mtune=corei7 -march=x86-64 -g -Og
#
# seed  1503417790   507217730  -971111407  -227273851  1734811391  -160969810 -1974480390  1788486739   386512848 -1645228357  -792417063   624839831
#
#      Author: C. J. Pickard (cjp20@cam.ac.uk)
#                Space group: P-1
#

%BLOCK LATTICE_ABC
      5.24769      5.97255      6.69044
     80.99117     83.63707     75.56288
%ENDBLOCK LATTICE_ABC

%BLOCK POSITIONS_FRAC
  Li  -0.2253071  -0.2269222  -0.1064074 SPIN=   0.00000
  Li   0.2253071   0.2269222   0.1064074 SPIN=   0.00000
  Fe   0.2560457  -0.1114009  -0.3181324 SPIN=   4.00000
  Fe  -0.2560457   0.1114009   0.3181324 SPIN=   4.00000
   O   0.4089840  -0.2326892  -0.0415087 SPIN=   0.00000
   O   0.4102639  -0.5007477   0.2806086 SPIN=   0.00000
   O   0.0500157  -0.1448787   0.2279767 SPIN=   0.00000
   O   0.4996384  -0.1121039   0.2757878 SPIN=   0.00000
   S   0.3422255  -0.2476049   0.1857161 SPIN=   0.00000
   O  -0.4089840   0.2326892   0.0415087 SPIN=   0.00000
   O  -0.4102639   0.5007477  -0.2806086 SPIN=   0.00000
   O  -0.0500157   0.1448787  -0.2279767 SPIN=   0.00000
   O  -0.4996384   0.1121039  -0.2757878 SPIN=   0.00000
   S  -0.3422255   0.2476049  -0.1857161 SPIN=   0.00000
   F  -0.0497401   0.3200211   0.2888312 SPIN=   0.00000
   F   0.0497401  -0.3200211  -0.2888312 SPIN=   0.00000
%ENDBLOCK POSITIONS_FRAC

# Note: total spin =   8.00

KPOINTS_MP_SPACING 0.07

%BLOCK SPECIES_POT
QC5
%ENDBLOCK SPECIES_POT

SNAP_TO_SYMMETRY
SYMMETRY_GENERATE

