#              Generated by Buildcell
#
# at 01:13:25 (GMT+1.0) 19th August 2020
# in /lustre/scratch/uccabz1/launch_tmp
# on node-c12j-028
# by uccabz1
#
# compiler GCC version 4.9.2
# options -cpp -iprefix /lustre/shared/ucl/apps/gcc/4.9.2/bin/../lib/gcc/x86_64-unknown-linux-gnu/4.9.2/ -mtune=corei7 -march=x86-64 -g -Og
#
# seed  1734028629  -105366332   124657392  -888353810 -1079206924  -894903786  -484039486  -907697961 -1396164762  -313783362  -620244642   566870765
#
#      Author: C. J. Pickard (cjp20@cam.ac.uk)
#                Space group: Ima2
#

%BLOCK LATTICE_ABC
      6.24273      6.50826      6.67561
    119.17412    117.87716     90.00000
%ENDBLOCK LATTICE_ABC

%BLOCK POSITIONS_FRAC
  Li  -0.2857635  -0.0000000  -0.0000000 SPIN=   0.00000
  Li   0.2142365   0.5000000   1.0000000 SPIN=   0.00000
  Fe   0.3178021   0.3233961   0.5000000 SPIN=   4.00000
  Fe  -0.1821979  -0.3233961  -0.5000000 SPIN=   4.00000
   O   0.1827849   0.1763681   0.7276003 SPIN=   0.00000
   O   0.1697347   0.5564580   0.7276605 SPIN=   0.00000
   O   0.4551846  -0.1763681   0.2723997 SPIN=   0.00000
   O   0.4420741  -0.5564580   0.2723395 SPIN=   0.00000
   O  -0.3172151   0.0512322  -0.2723997 SPIN=   0.00000
   O  -0.3302653  -0.3287975  -0.2723395 SPIN=   0.00000
   O  -0.0448154  -0.0512322   0.2723997 SPIN=   0.00000
   O  -0.0579259   0.3287975   0.2723395 SPIN=   0.00000
   S   0.3177901  -0.1782588   0.5000000 SPIN=   0.00000
   S  -0.1822099   0.1782588  -0.5000000 SPIN=   0.00000
   F   0.1260774  -0.0000000  -0.0000000 SPIN=   0.00000
   F  -0.3739226  -0.5000000  -1.0000000 SPIN=   0.00000
%ENDBLOCK POSITIONS_FRAC

# Note: total spin =   8.00

KPOINTS_MP_SPACING 0.07

%BLOCK SPECIES_POT
QC5
%ENDBLOCK SPECIES_POT

SNAP_TO_SYMMETRY
SYMMETRY_GENERATE

