#              Generated by Buildcell
#
# at 00:16:01 (GMT+1.0) 19th August 2020
# in /scratch/scratch/uccabz1/launch_tmp
# on node-k10h-001
# by uccabz1
#
# compiler GCC version 4.9.2
# options -cpp -iprefix /scratch/UCL/applications/gcc/4.9.2/bin/../lib/gcc/x86_64-unknown-linux-gnu/4.9.2/ -mtune=corei7 -march=x86-64 -g -O2
#
# seed  -414198497 -1392146578  1115002383  -831537935 -1708814746   390322348  -442534205  -495047682 -1906056775  1195139950  2036985088 -1467026022
#
#      Author: C. J. Pickard (cjp20@cam.ac.uk)
#                Space group: P2
#

%BLOCK LATTICE_ABC
      3.97357      6.16656      8.21521
     90.00000     96.51373     90.00000
%ENDBLOCK LATTICE_ABC

%BLOCK POSITIONS_FRAC
  Li  -0.5000000   0.2247314   0.0000000 SPIN=   0.00000
  Li   0.0000000   0.0739927  -0.5000000 SPIN=   0.00000
  Fe   0.5000000  -0.2666465   0.0000000 SPIN=   0.48271
  Fe  -0.5000000  -0.3090242   0.5000000 SPIN=   7.51729
   O  -0.3424119   0.4703224  -0.2346998 SPIN=   0.00000
   O   0.1611555   0.5349789  -0.3798041 SPIN=   0.00000
   O   0.0557646   0.1701058  -0.2707945 SPIN=   0.00000
   O   0.2299832   0.4711476  -0.0804519 SPIN=   0.00000
   S   0.0261228   0.4116387  -0.2414376 SPIN=   0.00000
   O   0.3424119   0.4703224   0.2346998 SPIN=   0.00000
   O  -0.1611555   0.5349789   0.3798041 SPIN=   0.00000
   O  -0.0557646   0.1701058   0.2707945 SPIN=   0.00000
   O  -0.2299832   0.4711476   0.0804519 SPIN=   0.00000
   S  -0.0261228   0.4116387   0.2414376 SPIN=   0.00000
   F  -0.0000000  -0.1072115   0.0000000 SPIN=   0.00000
   F   0.5000000   0.0403707  -0.5000000 SPIN=   0.00000
%ENDBLOCK POSITIONS_FRAC

# Note: total spin =   8.00

KPOINTS_MP_SPACING 0.07

%BLOCK SPECIES_POT
QC5
%ENDBLOCK SPECIES_POT

SNAP_TO_SYMMETRY
SYMMETRY_GENERATE

