#              Generated by Buildcell
#
# at 04:52:14 (GMT+1.0) 4th August 2020
# in /lustre/scratch/uccabz1/launch_tmp
# on node-c12e-006
# by uccabz1
#
# compiler GCC version 4.9.2
# options -cpp -iprefix /lustre/shared/ucl/apps/gcc/4.9.2/bin/../lib/gcc/x86_64-unknown-linux-gnu/4.9.2/ -mtune=corei7 -march=x86-64 -g -Og
#
# seed   195575186  -885226227  1546944631   888274130 -2011701140   989171216 -2125617485  -872210857  1975248136 -1289706211  1556198715  -225369438
#
#      Author: C. J. Pickard (cjp20@cam.ac.uk)
#                Space group: P21
#

%BLOCK LATTICE_ABC
      4.08683      6.81479      7.74940
    112.07898     90.00000     90.00000
%ENDBLOCK LATTICE_ABC

%BLOCK POSITIONS_FRAC
  Li   0.3845226  -0.2985948   0.2698632 SPIN=   0.00000
  Li  -0.1154774   0.2985948  -0.2698632 SPIN=   0.00000
  Fe  -0.1916234  -0.2399575  -0.0247778 SPIN=   4.00000
  Fe   0.3083766   0.2399575   0.0247778 SPIN=   4.00000
   O  -0.2346149  -0.2501977  -0.2902449 SPIN=   0.00000
   O  -0.1853081  -0.3130967  -0.6251851 SPIN=   0.00000
   O   0.2831314  -0.3885855  -0.4573203 SPIN=   0.00000
   O   0.1179072  -0.0179796  -0.3913046 SPIN=   0.00000
   S  -0.0047211  -0.2424649  -0.4410137 SPIN=   0.00000
   O   0.2653851   0.2501977   0.2902449 SPIN=   0.00000
   O   0.3146919   0.3130967   0.6251851 SPIN=   0.00000
   O   0.7831314   0.3885855   0.4573203 SPIN=   0.00000
   O   0.6179072   0.0179796   0.3913046 SPIN=   0.00000
   S   0.4952789   0.2424649   0.4410137 SPIN=   0.00000
   F  -0.2691385   0.2222997  -0.0651753 SPIN=   0.00000
   F   0.2308615  -0.2222997   0.0651753 SPIN=   0.00000
%ENDBLOCK POSITIONS_FRAC

# Note: total spin =   8.00

KPOINTS_MP_SPACING 0.07

%BLOCK SPECIES_POT
QC5
%ENDBLOCK SPECIES_POT

SNAP_TO_SYMMETRY
SYMMETRY_GENERATE

