#              Generated by Buildcell
#
# at 03:05:34 (GMT+1.0) 4th August 2020
# in /lustre/scratch/uccabz1/launch_tmp
# on node-c12c-025
# by uccabz1
#
# compiler GCC version 4.9.2
# options -cpp -iprefix /lustre/shared/ucl/apps/gcc/4.9.2/bin/../lib/gcc/x86_64-unknown-linux-gnu/4.9.2/ -mtune=corei7 -march=x86-64 -g -Og
#
# seed  1346269465   926700072  -230934024  1740485348   -80348082   612133039  -837962891 -1229887886  1047576928 -1490542082   196353347 -1292624491
#
#      Author: C. J. Pickard (cjp20@cam.ac.uk)
#                Space group: Pm
#

%BLOCK LATTICE_ABC
      4.21636      4.91833      9.64441
     90.00000     90.00000     90.16330
%ENDBLOCK LATTICE_ABC

%BLOCK POSITIONS_FRAC
  Li   0.2874704  -0.4777081  -0.2797264 SPIN=   0.00000
  Li   0.2874704  -0.4777081   0.2797264 SPIN=   0.00000
  Fe   0.1803316   0.1164167  -0.5000000 SPIN=   3.08285
  Fe   0.2066471   0.1699237   0.0000000 SPIN=   4.91715
   O   0.0687192  -0.2985039   0.1192283 SPIN=   0.00000
   O  -0.4252183  -0.5715608   0.1197770 SPIN=   0.00000
   O  -0.4528730  -0.0689939   0.1200609 SPIN=   0.00000
   O  -0.2682779  -0.3134096   0.3292106 SPIN=   0.00000
   O   0.0687192  -0.2985039  -0.1192283 SPIN=   0.00000
   O  -0.4252183  -0.5715608  -0.1197770 SPIN=   0.00000
   O  -0.4528730  -0.0689939  -0.1200609 SPIN=   0.00000
   O  -0.2682779  -0.3134096  -0.3292106 SPIN=   0.00000
   S  -0.2933549  -0.3300763  -0.0000000 SPIN=   0.00000
   S  -0.3174200  -0.3801275  -0.5000000 SPIN=   0.00000
   F   0.1175785   0.1536901   0.3109410 SPIN=   0.00000
   F   0.1175785   0.1536901  -0.3109410 SPIN=   0.00000
%ENDBLOCK POSITIONS_FRAC

# Note: total spin =   8.00

KPOINTS_MP_SPACING 0.07

%BLOCK SPECIES_POT
QC5
%ENDBLOCK SPECIES_POT

SNAP_TO_SYMMETRY
SYMMETRY_GENERATE

