#              Generated by Buildcell
#
# at 21:44:52 (GMT+1.0) 18th August 2020
# in /scratch/scratch/uccabz1/launch_tmp
# on node-k10d-001
# by uccabz1
#
# compiler GCC version 4.9.2
# options -cpp -iprefix /scratch/UCL/applications/gcc/4.9.2/bin/../lib/gcc/x86_64-unknown-linux-gnu/4.9.2/ -mtune=corei7 -march=x86-64 -g -O2
#
# seed -1905975288 -1348966506  1650841046  2055047802 -1903054699  -138242705 -1720375470  -433336551  -959855385  1935454499    54231182 -2021226917
#
#      Author: C. J. Pickard (cjp20@cam.ac.uk)
#                Space group: P21
#

%BLOCK LATTICE_ABC
      5.28050      6.29481      6.36177
     90.00000     90.00000    108.95258
%ENDBLOCK LATTICE_ABC

%BLOCK POSITIONS_FRAC
  Li   0.4408207  -0.1622473   0.4642885 SPIN=   0.00000
  Li  -0.4408207   0.1622473  -0.0357115 SPIN=   0.00000
  Fe   0.2622862   0.4066241   0.2373718 SPIN=   4.00000
  Fe  -0.2622862  -0.4066241  -0.2626282 SPIN=   4.00000
   O  -0.1215662  -0.0663649  -0.2819660 SPIN=   0.00000
   O   0.2331932   0.2483845  -0.4469124 SPIN=   0.00000
   O   0.1213295   0.2682815  -0.0712233 SPIN=   0.00000
   O  -0.1980150   0.2957857  -0.3462711 SPIN=   0.00000
   S   0.0087354   0.1865217  -0.2865932 SPIN=   0.00000
   O   0.1215662   0.0663649   0.2180340 SPIN=   0.00000
   O  -0.2331932  -0.2483845   0.0530876 SPIN=   0.00000
   O  -0.1213295  -0.2682815   0.4287767 SPIN=   0.00000
   O   0.1980150  -0.2957857   0.1537289 SPIN=   0.00000
   S  -0.0087354  -0.1865217   0.2134068 SPIN=   0.00000
   F   0.3512782  -0.2202249  -0.2568882 SPIN=   0.00000
   F  -0.3512782   0.2202249   0.2431118 SPIN=   0.00000
%ENDBLOCK POSITIONS_FRAC

# Note: total spin =   8.00

KPOINTS_MP_SPACING 0.07

%BLOCK SPECIES_POT
QC5
%ENDBLOCK SPECIES_POT

SNAP_TO_SYMMETRY
SYMMETRY_GENERATE

