#              Generated by Buildcell
#
# at 02:30:00 (GMT+1.0) 19th August 2020
# in /lustre/scratch/uccabz1/launch_tmp
# on node-c12k-029
# by uccabz1
#
# compiler GCC version 4.9.2
# options -cpp -iprefix /lustre/shared/ucl/apps/gcc/4.9.2/bin/../lib/gcc/x86_64-unknown-linux-gnu/4.9.2/ -mtune=corei7 -march=x86-64 -g -Og
#
# seed   277725349   -59644511  1898449519   785907406 -1445181098  -107841935  1224797567  1822903775  1332077027 -1525171690 -1213900069  1971059686
#
#      Author: C. J. Pickard (cjp20@cam.ac.uk)
#                Space group: P2
#

%BLOCK LATTICE_ABC
      4.07984      6.73664      7.30090
     94.65096     90.00000     90.00000
%ENDBLOCK LATTICE_ABC

%BLOCK POSITIONS_FRAC
  Li   0.4144099  -0.2191354  -0.3383295 SPIN=   0.00000
  Li   0.4144099   0.2191354   0.3383295 SPIN=   0.00000
  Fe  -0.0838810   0.5000000  -0.5000000 SPIN=   1.90829
  Fe   0.3707510   0.5000000   0.0000000 SPIN=   6.09171
   O  -0.3806746  -0.0172948   0.1625256 SPIN=   0.00000
   O  -0.1292757   0.1914641   0.4196244 SPIN=   0.00000
   O   0.1353929   0.1641215   0.1136017 SPIN=   0.00000
   O   0.1353945  -0.1243925   0.3029750 SPIN=   0.00000
   O  -0.3806746   0.0172948  -0.1625256 SPIN=   0.00000
   O  -0.1292757  -0.1914641  -0.4196244 SPIN=   0.00000
   O   0.1353929  -0.1641215  -0.1136017 SPIN=   0.00000
   O   0.1353945   0.1243925  -0.3029750 SPIN=   0.00000
   S  -0.0427327   0.0000000   0.5000000 SPIN=   0.00000
   S   0.3395983   0.0000000   0.0000000 SPIN=   0.00000
   F  -0.1353298   0.5000000   0.0000000 SPIN=   0.00000
   F   0.4206140   0.5000000  -0.5000000 SPIN=   0.00000
%ENDBLOCK POSITIONS_FRAC

# Note: total spin =   8.00

KPOINTS_MP_SPACING 0.07

%BLOCK SPECIES_POT
QC5
%ENDBLOCK SPECIES_POT

SNAP_TO_SYMMETRY
SYMMETRY_GENERATE

