#              Generated by Buildcell
#
# at 02:06:38 (GMT+1.0) 19th August 2020
# in /lustre/scratch/uccabz1/launch_tmp
# on node-c12b-010
# by uccabz1
#
# compiler GCC version 4.9.2
# options -cpp -iprefix /lustre/shared/ucl/apps/gcc/4.9.2/bin/../lib/gcc/x86_64-unknown-linux-gnu/4.9.2/ -mtune=corei7 -march=x86-64 -g -Og
#
# seed  -775277700  1633244200  -306707920   332981469    34636881 -1454668240  1446876638  1500642271  1757778978  -390398459   888191583  1343583892
#
#      Author: C. J. Pickard (cjp20@cam.ac.uk)
#                Space group: P21
#

%BLOCK LATTICE_ABC
      4.80469      6.31162      6.63386
     90.00000     90.00000     96.19361
%ENDBLOCK LATTICE_ABC

%BLOCK POSITIONS_FRAC
  Li   0.1004045   0.3894766   0.1192617 SPIN=   0.00000
  Li  -0.1004045  -0.3894766  -0.3807383 SPIN=   0.00000
  Fe  -0.0236610  -0.1691490   0.1608551 SPIN=   4.00000
  Fe   0.0236610   0.1691490  -0.3391449 SPIN=   4.00000
   O   0.3896538   0.2755649  -0.1627088 SPIN=   0.00000
   O   0.3910945  -0.0714888   0.0107112 SPIN=   0.00000
   O   0.4709099   0.2640935   0.2053372 SPIN=   0.00000
   O   0.8333905   0.1642997  -0.0310141 SPIN=   0.00000
   S   0.5212622   0.1581173   0.0055814 SPIN=   0.00000
   O  -0.3896538  -0.2755649  -0.6627088 SPIN=   0.00000
   O  -0.3910945   0.0714888  -0.4892888 SPIN=   0.00000
   O  -0.4709099  -0.2640935  -0.2946628 SPIN=   0.00000
   O  -0.8333905  -0.1642997  -0.5310141 SPIN=   0.00000
   S  -0.5212622  -0.1581173  -0.4944186 SPIN=   0.00000
   F  -0.0408223  -0.3212357  -0.0848420 SPIN=   0.00000
   F   0.0408223   0.3212357   0.4151580 SPIN=   0.00000
%ENDBLOCK POSITIONS_FRAC

# Note: total spin =   8.00

KPOINTS_MP_SPACING 0.07

%BLOCK SPECIES_POT
QC5
%ENDBLOCK SPECIES_POT

SNAP_TO_SYMMETRY
SYMMETRY_GENERATE

