#              Generated by Buildcell
#
# at 01:36:50 (GMT+1.0) 4th August 2020
# in /lustre/scratch/uccabz1/launch_tmp
# on node-c12c-007
# by uccabz1
#
# compiler GCC version 4.9.2
# options -cpp -iprefix /lustre/shared/ucl/apps/gcc/4.9.2/bin/../lib/gcc/x86_64-unknown-linux-gnu/4.9.2/ -mtune=corei7 -march=x86-64 -g -Og
#
# seed  1467383825  -768531743   796164950  1187818287   -78195293 -1100827837  1319326384   578109800   736074496 -1067021405  1439745172   926270418
#
#      Author: C. J. Pickard (cjp20@cam.ac.uk)
#                Space group: Cm
#

%BLOCK LATTICE_ABC
      5.84708      5.86103      5.86103
     87.16145     86.76329     86.76329
%ENDBLOCK LATTICE_ABC

%BLOCK POSITIONS_FRAC
  Li   0.3789685  -0.4501476   0.0610199 SPIN=   0.00000
  Li   0.3789685   0.0610199  -0.4501476 SPIN=   0.00000
  Fe   0.1531314   0.0201804   0.0201804 SPIN=   3.01678
  Fe  -0.4143797  -0.4451496  -0.4451496 SPIN=   4.98322
   O  -0.3222663  -0.0023262   0.3847941 SPIN=   0.00000
   O  -0.1265697   0.2958440   0.5720170 SPIN=   0.00000
   O   0.0988437  -0.0364350   0.4152264 SPIN=   0.00000
   S  -0.1271156   0.0421013   0.5334176 SPIN=   0.00000
   O  -0.3222663   0.3847941  -0.0023262 SPIN=   0.00000
   O  -0.1265697   0.5720170   0.2958440 SPIN=   0.00000
   O   0.0988437   0.4152264  -0.0364350 SPIN=   0.00000
   S  -0.1271156   0.5334176   0.0421013 SPIN=   0.00000
   O  -0.1620365  -0.1261656  -0.1261656 SPIN=   0.00000
   O   0.0068788  -0.3681843  -0.3681843 SPIN=   0.00000
   F   0.3626348   0.3778483   0.3778483 SPIN=   0.00000
   F   0.3695277  -0.1736215  -0.1736215 SPIN=   0.00000
%ENDBLOCK POSITIONS_FRAC

# Note: total spin =   8.00

KPOINTS_MP_SPACING 0.07

%BLOCK SPECIES_POT
QC5
%ENDBLOCK SPECIES_POT

SNAP_TO_SYMMETRY
SYMMETRY_GENERATE

