#              Generated by Buildcell
#
# at 02:14:56 (GMT+1.0) 4th August 2020
# in /lustre/scratch/uccabz1/launch_tmp
# on node-c12l-019
# by uccabz1
#
# compiler GCC version 4.9.2
# options -cpp -iprefix /lustre/shared/ucl/apps/gcc/4.9.2/bin/../lib/gcc/x86_64-unknown-linux-gnu/4.9.2/ -mtune=corei7 -march=x86-64 -g -Og
#
# seed  1165637820   119947788   125358248  1978784040 -1395160444   455273215 -1163065018  1746172125 -1506692668  1930448068  1346340697   -35909624
#
#      Author: C. J. Pickard (cjp20@cam.ac.uk)
#                Space group: Cc
#

%BLOCK LATTICE_ABC
      4.93020      4.93020      8.59733
     88.28260     88.28260     73.28053
%ENDBLOCK LATTICE_ABC

%BLOCK POSITIONS_FRAC
  Li   0.0179748  -0.2402977  -0.0675949 SPIN=   0.00000
  Li   0.2597023  -0.4820252   0.4324051 SPIN=   0.00000
  Fe  -0.0720065   0.0937020   0.2602439 SPIN=   4.00000
  Fe  -0.4062980   0.4279935  -0.2397561 SPIN=   4.00000
   O   0.5750562  -0.3504490   0.0705546 SPIN=   0.00000
   O   0.6230173   0.1345381   0.0824289 SPIN=   0.00000
   O   0.1532695   0.0644565   0.0412813 SPIN=   0.00000
   O   0.5216995  -0.0475261  -0.1678940 SPIN=   0.00000
   S   0.4682606  -0.0497451   0.0065927 SPIN=   0.00000
   O   0.1495510   0.0750562  -0.4294454 SPIN=   0.00000
   O   0.6345381   0.1230173  -0.4175711 SPIN=   0.00000
   O   0.5644565  -0.3467305  -0.4587187 SPIN=   0.00000
   O   0.4524739   0.0216995  -0.6678940 SPIN=   0.00000
   S   0.4502549  -0.0317394  -0.4934073 SPIN=   0.00000
   F   0.1097892  -0.4555030   0.2193083 SPIN=   0.00000
   F   0.0444970  -0.3902108  -0.2806917 SPIN=   0.00000
%ENDBLOCK POSITIONS_FRAC

# Note: total spin =   8.00

KPOINTS_MP_SPACING 0.07

%BLOCK SPECIES_POT
QC5
%ENDBLOCK SPECIES_POT

SNAP_TO_SYMMETRY
SYMMETRY_GENERATE

