#              Generated by Buildcell
#
# at 02:30:39 (GMT+1.0) 19th August 2020
# in /scratch/scratch/uccabz1/launch_tmp
# on node-k10d-027
# by uccabz1
#
# compiler GCC version 4.9.2
# options -cpp -iprefix /scratch/UCL/applications/gcc/4.9.2/bin/../lib/gcc/x86_64-unknown-linux-gnu/4.9.2/ -mtune=corei7 -march=x86-64 -g -O2
#
# seed -2037812780  -990615242   239985062 -1356529730  1168433553 -1787914807  1393727666 -1270142264  -318926281 -1064779231  1312195903  1560761962
#
#      Author: C. J. Pickard (cjp20@cam.ac.uk)
#                Space group: P2
#

%BLOCK LATTICE_ABC
      3.86183      6.70273      7.75453
     94.86971     90.00000     90.00000
%ENDBLOCK LATTICE_ABC

%BLOCK POSITIONS_FRAC
  Li  -0.4132280   0.2637947  -0.3756253 SPIN=   0.00000
  Li  -0.4132280  -0.2637947   0.3756253 SPIN=   0.00000
  Fe   0.0869535  -0.2428147   0.0736788 SPIN=   4.00000
  Fe   0.0869535   0.2428147  -0.0736788 SPIN=   4.00000
   O  -0.5753849  -0.4161139  -0.1576862 SPIN=   0.00000
   O  -0.6941915  -0.1582592  -0.3602150 SPIN=   0.00000
   O  -0.1665282  -0.3671837  -0.3962182 SPIN=   0.00000
   O  -0.2151066  -0.1100527  -0.1488086 SPIN=   0.00000
   S  -0.4128028  -0.2629024  -0.2657320 SPIN=   0.00000
   O  -0.5753849   0.4161139   0.1576862 SPIN=   0.00000
   O  -0.6941915   0.1582592   0.3602150 SPIN=   0.00000
   O  -0.1665282   0.3671837   0.3962182 SPIN=   0.00000
   O  -0.2151066   0.1100527   0.1488086 SPIN=   0.00000
   S  -0.4128028   0.2629024   0.2657320 SPIN=   0.00000
   F   0.0867413  -0.2057797   0.3255010 SPIN=   0.00000
   F   0.0867413   0.2057797  -0.3255010 SPIN=   0.00000
%ENDBLOCK POSITIONS_FRAC

# Note: total spin =   8.00

KPOINTS_MP_SPACING 0.07

%BLOCK SPECIES_POT
QC5
%ENDBLOCK SPECIES_POT

SNAP_TO_SYMMETRY
SYMMETRY_GENERATE

