#              Generated by Buildcell
#
# at 04:05:15 (GMT+1.0) 4th August 2020
# in /lustre/scratch/uccabz1/launch_tmp
# on node-c12g-034
# by uccabz1
#
# compiler GCC version 4.9.2
# options -cpp -iprefix /lustre/shared/ucl/apps/gcc/4.9.2/bin/../lib/gcc/x86_64-unknown-linux-gnu/4.9.2/ -mtune=corei7 -march=x86-64 -g -Og
#
# seed  1423903736   613315888   -69319673   131105589  -974058553   480248461   -21625033  -131308083 -1644971962  -513293346  -692444821  -884421974
#
#      Author: C. J. Pickard (cjp20@cam.ac.uk)
#                Space group: P2
#

%BLOCK LATTICE_ABC
      4.64994      6.54425      6.58977
     90.00000     94.16324     90.00000
%ENDBLOCK LATTICE_ABC

%BLOCK POSITIONS_FRAC
  Li   0.2752441   0.0737151  -0.2541861 SPIN=   0.00000
  Li  -0.2752441   0.0737151   0.2541861 SPIN=   0.00000
  Fe  -0.2602102  -0.2253550  -0.2193195 SPIN=   4.00000
  Fe   0.2602102  -0.2253550   0.2193195 SPIN=   4.00000
   O  -0.4406855   0.4483446  -0.2870792 SPIN=   0.00000
   O   0.0741356   0.3609872  -0.2132781 SPIN=   0.00000
   O  -0.2307415   0.1518541  -0.4566589 SPIN=   0.00000
   O  -0.3047165   0.1375168  -0.0887841 SPIN=   0.00000
   S  -0.2255020   0.2746757  -0.2614501 SPIN=   0.00000
   O   0.4406855   0.4483446   0.2870792 SPIN=   0.00000
   O  -0.0741356   0.3609872   0.2132781 SPIN=   0.00000
   O   0.2307415   0.1518541   0.4566589 SPIN=   0.00000
   O   0.3047165   0.1375168   0.0887841 SPIN=   0.00000
   S   0.2255020   0.2746757   0.2614501 SPIN=   0.00000
   F   0.1881814  -0.2172777  -0.2403373 SPIN=   0.00000
   F  -0.1881814  -0.2172777   0.2403373 SPIN=   0.00000
%ENDBLOCK POSITIONS_FRAC

# Note: total spin =   8.00

KPOINTS_MP_SPACING 0.07

%BLOCK SPECIES_POT
QC5
%ENDBLOCK SPECIES_POT

SNAP_TO_SYMMETRY
SYMMETRY_GENERATE

