#              Generated by Buildcell
#
# at 05:09:16 (GMT+1.0) 4th August 2020
# in /lustre/scratch/uccabz1/launch_tmp
# on node-c12f-014
# by uccabz1
#
# compiler GCC version 4.9.2
# options -cpp -iprefix /lustre/shared/ucl/apps/gcc/4.9.2/bin/../lib/gcc/x86_64-unknown-linux-gnu/4.9.2/ -mtune=corei7 -march=x86-64 -g -Og
#
# seed   906619977  -882208561 -2146571528  1143466185   708875632  2103846491 -1996289376   -72948481   -53946003  -203543266  1498669203   792449339
#
#      Author: C. J. Pickard (cjp20@cam.ac.uk)
#                Space group: Pma2
#

%BLOCK LATTICE_ABC
      4.47029      5.71648      7.82646
     90.00000     90.00000     90.00000
%ENDBLOCK LATTICE_ABC

%BLOCK POSITIONS_FRAC
  Li  -0.0793394  -0.4488469  -0.2500000 SPIN=   0.00000
  Li   0.0793394  -0.4488469   0.2500000 SPIN=   0.00000
  Fe   0.0000000   0.1113359   0.0000000 SPIN=   4.00000
  Fe   0.0000000   0.1113359  -0.5000000 SPIN=   4.00000
   O  -0.2335375  -0.5798344   0.0695757 SPIN=   0.00000
   O  -0.2571517  -0.2012613  -0.0832436 SPIN=   0.00000
   O   0.2335375  -0.5798344  -0.0695757 SPIN=   0.00000
   O   0.2571517  -0.2012613   0.0832436 SPIN=   0.00000
   O   0.2335375  -0.5798344   0.5695757 SPIN=   0.00000
   O   0.2571517  -0.2012613   0.4167564 SPIN=   0.00000
   O  -0.2335375  -0.5798344  -0.5695757 SPIN=   0.00000
   O  -0.2571517  -0.2012613  -0.4167564 SPIN=   0.00000
   S  -0.5000000  -0.3363123  -0.0000000 SPIN=   0.00000
   S   0.5000000  -0.3363123   0.5000000 SPIN=   0.00000
   F  -0.2047954   0.2097972  -0.2500000 SPIN=   0.00000
   F   0.2047954   0.2097972   0.2500000 SPIN=   0.00000
%ENDBLOCK POSITIONS_FRAC

# Note: total spin =   8.00

KPOINTS_MP_SPACING 0.07

%BLOCK SPECIES_POT
QC5
%ENDBLOCK SPECIES_POT

SNAP_TO_SYMMETRY
SYMMETRY_GENERATE

