#              Generated by Buildcell
#
# at 05:37:31 (GMT+1.0) 4th August 2020
# in /lustre/scratch/uccabz1/launch_tmp
# on node-c12c-023
# by uccabz1
#
# compiler GCC version 4.9.2
# options -cpp -iprefix /lustre/shared/ucl/apps/gcc/4.9.2/bin/../lib/gcc/x86_64-unknown-linux-gnu/4.9.2/ -mtune=corei7 -march=x86-64 -g -Og
#
# seed  1467658314 -1076471920  -613292005  1430347505  1308284835  -272350584 -1239597263  1883148885  -440098709  -420397576  -339396946  -256683903
#
#      Author: C. J. Pickard (cjp20@cam.ac.uk)
#                Space group: P21/m
#

%BLOCK LATTICE_ABC
      3.98202      6.97931      7.35533
     90.00000    101.93358     90.00000
%ENDBLOCK LATTICE_ABC

%BLOCK POSITIONS_FRAC
  Li  -0.0453104  -0.2500000  -0.1032656 SPIN=   0.00000
  Li   0.0453104   0.2500000   0.1032656 SPIN=   0.00000
  Fe  -0.7182772   0.2500000  -0.2667032 SPIN=   4.00000
  Fe   0.7182772  -0.2500000   0.2667032 SPIN=   4.00000
   O  -0.7165275   0.5578982  -0.2701264 SPIN=   0.00000
   O  -0.7261985   0.4131263  -0.5783202 SPIN=   0.00000
   O   0.7165275   0.0578982   0.2701264 SPIN=   0.00000
   O   0.7261985  -0.0868737   0.5783202 SPIN=   0.00000
   O   0.7165275  -0.5578982   0.2701264 SPIN=   0.00000
   O   0.7261985  -0.4131263   0.5783202 SPIN=   0.00000
   O  -0.7165275  -0.0578982  -0.2701264 SPIN=   0.00000
   O  -0.7261985   0.0868737  -0.5783202 SPIN=   0.00000
   S   0.6419862   0.2500000   0.3563982 SPIN=   0.00000
   S  -0.6419862  -0.2500000  -0.3563982 SPIN=   0.00000
   F  -0.1782994   0.2500000  -0.1620273 SPIN=   0.00000
   F   0.1782994  -0.2500000   0.1620273 SPIN=   0.00000
%ENDBLOCK POSITIONS_FRAC

# Note: total spin =   8.00

KPOINTS_MP_SPACING 0.07

%BLOCK SPECIES_POT
QC5
%ENDBLOCK SPECIES_POT

SNAP_TO_SYMMETRY
SYMMETRY_GENERATE

