#              Generated by Buildcell
#
# at 05:16:10 (GMT+1.0) 4th August 2020
# in /lustre/scratch/uccabz1/launch_tmp
# on node-c12f-009
# by uccabz1
#
# compiler GCC version 4.9.2
# options -cpp -iprefix /lustre/shared/ucl/apps/gcc/4.9.2/bin/../lib/gcc/x86_64-unknown-linux-gnu/4.9.2/ -mtune=corei7 -march=x86-64 -g -Og
#
# seed  2081374420 -1720415399    53000510  1910139106   109056966  1166954232  -526247615  1452958544  2137593609  1930719029 -2049018327  1068556238
#
#      Author: C. J. Pickard (cjp20@cam.ac.uk)
#                Space group: C2/c
#

%BLOCK LATTICE_ABC
      5.38281      5.38281      7.59049
    104.70471    104.70471     98.93970
%ENDBLOCK LATTICE_ABC

%BLOCK POSITIONS_FRAC
  Li   0.6957808  -0.1957808   0.2500000 SPIN=   0.00000
  Li  -0.6957808   0.1957808  -0.2500000 SPIN=   0.00000
  Fe   0.0000000  -0.5000000   0.0000000 SPIN=   4.00000
  Fe  -0.0000000  -0.5000000  -0.5000000 SPIN=   4.00000
   O   0.6183174   0.2523855   0.4275586 SPIN=   0.00000
   O   1.0195208   0.1013997   0.3922477 SPIN=   0.00000
   O   0.2476145  -0.1183174   0.0724414 SPIN=   0.00000
   O   0.3986003  -0.5195208   0.1077523 SPIN=   0.00000
   O  -0.6183174  -0.2523855  -0.4275586 SPIN=   0.00000
   O  -1.0195208  -0.1013997  -0.3922477 SPIN=   0.00000
   O  -0.2476145   0.1183174  -0.0724414 SPIN=   0.00000
   O  -0.3986003   0.5195208  -0.1077523 SPIN=   0.00000
   S   0.3658576   0.1341424   0.2500000 SPIN=   0.00000
   S  -0.3658576  -0.1341424  -0.2500000 SPIN=   0.00000
   F   0.0668096  -0.5668096  -0.2500000 SPIN=   0.00000
   F  -0.0668096   0.5668096   0.2500000 SPIN=   0.00000
%ENDBLOCK POSITIONS_FRAC

# Note: total spin =   8.00

KPOINTS_MP_SPACING 0.07

%BLOCK SPECIES_POT
QC5
%ENDBLOCK SPECIES_POT

SNAP_TO_SYMMETRY
SYMMETRY_GENERATE

