#              Generated by Buildcell
#
# at 04:58:18 (GMT+1.0) 4th August 2020
# in /lustre/scratch/uccabz1/launch_tmp
# on node-c12n-032
# by uccabz1
#
# compiler GCC version 4.9.2
# options -cpp -iprefix /lustre/shared/ucl/apps/gcc/4.9.2/bin/../lib/gcc/x86_64-unknown-linux-gnu/4.9.2/ -mtune=corei7 -march=x86-64 -g -Og
#
# seed  1897979027 -1440567081  -639068178 -1173617417  1838253039  1576464965  -692467681   225215566 -1447494112  1375039071  1495152603   289785156
#
#      Author: C. J. Pickard (cjp20@cam.ac.uk)
#                Space group: Cc
#

%BLOCK LATTICE_ABC
      6.11993      6.11993      6.56764
    109.90177    109.90177    103.37823
%ENDBLOCK LATTICE_ABC

%BLOCK POSITIONS_FRAC
  Li  -0.4762658   0.3143999  -0.2970994 SPIN=   0.00000
  Li   0.3143999  -0.4762658   0.2029006 SPIN=   0.00000
  Fe  -0.3443266   0.0182644   0.0219728 SPIN=   4.00000
  Fe   0.0182644  -0.3443266  -0.4780272 SPIN=   4.00000
   O   0.2055447   0.1776381  -0.1401794 SPIN=   0.00000
   O  -0.1460630   0.0357019  -0.5451717 SPIN=   0.00000
   O   0.0589670   0.4879250  -0.2437074 SPIN=   0.00000
   O  -0.2107746   0.1774397  -0.1774733 SPIN=   0.00000
   S  -0.0230814   0.2196762  -0.2766330 SPIN=   0.00000
   O   0.1776381   0.2055447   0.3598206 SPIN=   0.00000
   O   0.0357019  -0.1460630  -0.0451717 SPIN=   0.00000
   O   0.4879250   0.0589670   0.2562926 SPIN=   0.00000
   O   0.1774397  -0.2107746   0.3225267 SPIN=   0.00000
   S   0.2196762  -0.0230814   0.2233670 SPIN=   0.00000
   F   0.4674664  -0.3043397  -0.3196407 SPIN=   0.00000
   F  -0.3043397   0.4674664   0.1803593 SPIN=   0.00000
%ENDBLOCK POSITIONS_FRAC

# Note: total spin =   8.00

KPOINTS_MP_SPACING 0.07

%BLOCK SPECIES_POT
QC5
%ENDBLOCK SPECIES_POT

SNAP_TO_SYMMETRY
SYMMETRY_GENERATE

