#              Generated by Buildcell
#
# at 03:58:12 (GMT+1.0) 4th August 2020
# in /lustre/scratch/uccabz1/launch_tmp
# on node-c12h-033
# by uccabz1
#
# compiler GCC version 4.9.2
# options -cpp -iprefix /lustre/shared/ucl/apps/gcc/4.9.2/bin/../lib/gcc/x86_64-unknown-linux-gnu/4.9.2/ -mtune=corei7 -march=x86-64 -g -Og
#
# seed -1282882433   708042979  1479738110 -1962836081   438690731  1363530890  -891813181 -1277757812 -1089564544   940494776 -1495091783   463896382
#
#      Author: C. J. Pickard (cjp20@cam.ac.uk)
#                Space group: P-1
#

%BLOCK LATTICE_ABC
      4.61112      6.68505      7.15583
    109.11999     94.65804    103.16968
%ENDBLOCK LATTICE_ABC

%BLOCK POSITIONS_FRAC
  Li  -0.2559327   0.2971781   0.1143811 SPIN=   0.00000
  Li   0.2559327  -0.2971781  -0.1143811 SPIN=   0.00000
  Fe   0.2735546   0.0481090   0.2978803 SPIN=   4.00000
  Fe  -0.2735546  -0.0481090  -0.2978803 SPIN=   4.00000
   O  -0.2003735   0.6965801  -0.0937040 SPIN=   0.00000
   O  -0.1713833   0.3116558  -0.1896931 SPIN=   0.00000
   O  -0.2743418   0.4639274  -0.4524184 SPIN=   0.00000
   O  -0.6637261   0.3897374  -0.2472352 SPIN=   0.00000
   S  -0.3274562   0.4654752  -0.2457627 SPIN=   0.00000
   O   0.2003735  -0.6965801   0.0937040 SPIN=   0.00000
   O   0.1713833  -0.3116558   0.1896931 SPIN=   0.00000
   O   0.2743418  -0.4639274   0.4524184 SPIN=   0.00000
   O   0.6637261  -0.3897374   0.2472352 SPIN=   0.00000
   S   0.3274562  -0.4654752   0.2457627 SPIN=   0.00000
   F   0.5000000   0.0000000   0.0000000 SPIN=   0.00000
   F  -0.0000000   0.0000000   0.5000000 SPIN=   0.00000
%ENDBLOCK POSITIONS_FRAC

# Note: total spin =   8.00

KPOINTS_MP_SPACING 0.07

%BLOCK SPECIES_POT
QC5
%ENDBLOCK SPECIES_POT

SNAP_TO_SYMMETRY
SYMMETRY_GENERATE

