#              Generated by Buildcell
#
# at 19:15:43 (GMT+1.0) 18th August 2020
# in /lustre/scratch/uccabz1/launch_tmp
# on node-c12k-027
# by uccabz1
#
# compiler GCC version 4.9.2
# options -cpp -iprefix /lustre/shared/ucl/apps/gcc/4.9.2/bin/../lib/gcc/x86_64-unknown-linux-gnu/4.9.2/ -mtune=corei7 -march=x86-64 -g -Og
#
# seed  2006212990  1862764140 -1425959461 -1990962331  1637334448    45949527  1163545817 -2146369463  -783009818  1145222562  -792245759  1681911202
#
#      Author: C. J. Pickard (cjp20@cam.ac.uk)
#                Space group: C2
#

%BLOCK LATTICE_ABC
      5.30028      6.64733      6.64733
    106.66646    105.70207    105.70207
%ENDBLOCK LATTICE_ABC

%BLOCK POSITIONS_FRAC
  Li   0.0000000  -0.2949523   0.2949523 SPIN=   0.00000
  Li   0.0000000   0.3389545  -0.3389545 SPIN=   0.00000
  Fe  -0.5000000  -0.4201766  -0.5798234 SPIN=   1.53947
  Fe   0.0000000   0.0518534  -0.0518534 SPIN=   6.46053
   O   0.2416670   0.1074922   0.5251186 SPIN=   0.00000
   O   0.3046930  -0.1112669   0.1849485 SPIN=   0.00000
   O   0.6590578  -0.0003743   0.5673825 SPIN=   0.00000
   O   0.6207044   0.2910776   0.4112129 SPIN=   0.00000
   S   0.4565305   0.0717322   0.4221656 SPIN=   0.00000
   O  -0.2416670  -0.5251186  -0.1074922 SPIN=   0.00000
   O  -0.3046930  -0.1849485   0.1112669 SPIN=   0.00000
   O  -0.6590578  -0.5673825   0.0003743 SPIN=   0.00000
   O  -0.6207044  -0.4112129  -0.2910776 SPIN=   0.00000
   S  -0.4565305  -0.4221656  -0.0717322 SPIN=   0.00000
   F  -0.0157623   0.3265979   0.2029600 SPIN=   0.00000
   F   0.0157623  -0.2029600  -0.3265979 SPIN=   0.00000
%ENDBLOCK POSITIONS_FRAC

# Note: total spin =   8.00

KPOINTS_MP_SPACING 0.07

%BLOCK SPECIES_POT
QC5
%ENDBLOCK SPECIES_POT

SNAP_TO_SYMMETRY
SYMMETRY_GENERATE

