#              Generated by Buildcell
#
# at 22:16:57 (GMT+1.0) 18th August 2020
# in /lustre/scratch/uccabz1/launch_tmp
# on node-c12e-015
# by uccabz1
#
# compiler GCC version 4.9.2
# options -cpp -iprefix /lustre/shared/ucl/apps/gcc/4.9.2/bin/../lib/gcc/x86_64-unknown-linux-gnu/4.9.2/ -mtune=corei7 -march=x86-64 -g -Og
#
# seed  1614744049  -398087179   140004780    -1783811 -1388632814  -357561187   879775302  -338123665  -856670058 -1095442723 -1802661096 -1815143079
#
#      Author: C. J. Pickard (cjp20@cam.ac.uk)
#                Space group: Pc
#

%BLOCK LATTICE_ABC
      4.04578      4.10468     12.04460
     90.00000     90.00000     90.81423
%ENDBLOCK LATTICE_ABC

%BLOCK POSITIONS_FRAC
  Li  -0.3759723   0.0505276   0.1734243 SPIN=   0.00000
  Li  -0.3759723  -0.4494724  -0.1734243 SPIN=   0.00000
  Fe  -0.3214551   0.0281003  -0.3697728 SPIN=   4.00000
  Fe  -0.3214551  -0.4718997   0.3697728 SPIN=   4.00000
   O   0.0651978  -0.3942607  -0.1064746 SPIN=   0.00000
   O  -0.1909770   0.1360442  -0.1478660 SPIN=   0.00000
   O   0.3110902  -0.0310219  -0.2491821 SPIN=   0.00000
   O   0.3471548   0.1189301  -0.0504870 SPIN=   0.00000
   S   0.1331164  -0.0425771  -0.1385024 SPIN=   0.00000
   O   0.0651978   0.1057393   0.1064746 SPIN=   0.00000
   O  -0.1909770   0.6360442   0.1478660 SPIN=   0.00000
   O   0.3110902   0.4689781   0.2491821 SPIN=   0.00000
   O   0.3471548   0.6189301   0.0504870 SPIN=   0.00000
   S   0.1331164   0.4574229   0.1385024 SPIN=   0.00000
   F  -0.3092142  -0.0287931   0.3533355 SPIN=   0.00000
   F  -0.3092142   0.4712069  -0.3533355 SPIN=   0.00000
%ENDBLOCK POSITIONS_FRAC

# Note: total spin =   8.00

KPOINTS_MP_SPACING 0.07

%BLOCK SPECIES_POT
QC5
%ENDBLOCK SPECIES_POT

SNAP_TO_SYMMETRY
SYMMETRY_GENERATE

