#              Generated by Buildcell
#
# at 04:07:32 (GMT+1.0) 4th August 2020
# in /lustre/scratch/uccabz1/launch_tmp
# on node-c12g-020
# by uccabz1
#
# compiler GCC version 4.9.2
# options -cpp -iprefix /lustre/shared/ucl/apps/gcc/4.9.2/bin/../lib/gcc/x86_64-unknown-linux-gnu/4.9.2/ -mtune=corei7 -march=x86-64 -g -Og
#
# seed   163298861  -934936756  -106527663  -597315378   719524227 -1065568089  1150287705   987260133    -4216670  -280784471 -1854809520  -525038078
#
#      Author: C. J. Pickard (cjp20@cam.ac.uk)
#                Space group: P21212
#

%BLOCK LATTICE_ABC
      4.37439      5.62764      8.12430
     90.00000     90.00000     90.00000
%ENDBLOCK LATTICE_ABC

%BLOCK POSITIONS_FRAC
  Li   0.5000000   0.0000000  -0.4225119 SPIN=   0.00000
  Li  -0.0000000   0.5000000   0.4225119 SPIN=   0.00000
  Fe   0.5000000   0.0000000  -0.0538158 SPIN=   4.00000
  Fe  -0.0000000  -0.5000000   0.0538158 SPIN=   4.00000
   O  -0.2227821  -0.6270909  -0.2650457 SPIN=   0.00000
   O  -0.3505158  -0.3238014  -0.4746421 SPIN=   0.00000
   O   0.2227821   0.6270909  -0.2650457 SPIN=   0.00000
   O   0.3505158   0.3238014  -0.4746421 SPIN=   0.00000
   O   0.2772179   0.1270909   0.2650457 SPIN=   0.00000
   O   0.1494842  -0.1761986   0.4746421 SPIN=   0.00000
   O  -0.2772179  -0.1270909   0.2650457 SPIN=   0.00000
   O  -0.1494842   0.1761986   0.4746421 SPIN=   0.00000
   S  -0.0000000   0.0000000   0.3624815 SPIN=   0.00000
   S   0.5000000  -0.5000000  -0.3624815 SPIN=   0.00000
   F  -0.0000000   0.0000000  -0.0950418 SPIN=   0.00000
   F   0.5000000  -0.5000000   0.0950418 SPIN=   0.00000
%ENDBLOCK POSITIONS_FRAC

# Note: total spin =   8.00

KPOINTS_MP_SPACING 0.07

%BLOCK SPECIES_POT
QC5
%ENDBLOCK SPECIES_POT

SNAP_TO_SYMMETRY
SYMMETRY_GENERATE

