#              Generated by Buildcell
#
# at 23:56:31 (GMT+1.0) 18th August 2020
# in /lustre/scratch/uccabz1/launch_tmp
# on node-c12p-025
# by uccabz1
#
# compiler GCC version 4.9.2
# options -cpp -iprefix /lustre/shared/ucl/apps/gcc/4.9.2/bin/../lib/gcc/x86_64-unknown-linux-gnu/4.9.2/ -mtune=corei7 -march=x86-64 -g -Og
#
# seed  1275709573  1408918565  1505709339  -276644537 -1753565927 -1906903820  1232179577 -1949388802    46081031   884765291  1302870082  1407366231
#
#      Author: C. J. Pickard (cjp20@cam.ac.uk)
#                Space group: Cc
#

%BLOCK LATTICE_ABC
      5.34013      6.69452      6.87510
    113.40685    106.02344    103.34028
%ENDBLOCK LATTICE_ABC

%BLOCK POSITIONS_FRAC
  Li  -0.4048591   0.4825277  -0.1890431 SPIN=   0.00000
  Li  -0.2158160   0.1715708   0.1890431 SPIN=   0.00000
  Fe  -0.2427104  -0.1198590  -0.2713331 SPIN=   4.00000
  Fe   0.0286227  -0.3485259   0.2713331 SPIN=   4.00000
   O  -0.1646132   0.2862178  -0.1841552 SPIN=   0.00000
   O   0.2592647   0.6324347  -0.0557308 SPIN=   0.00000
   O  -0.1100331   0.4296607  -0.4568533 SPIN=   0.00000
   O   0.1956942   0.2339790  -0.3400828 SPIN=   0.00000
   S   0.0450781   0.3955730  -0.2592055 SPIN=   0.00000
   O   0.0195420  -0.0296270   0.1841552 SPIN=   0.00000
   O   0.3149955   0.1881655   0.0557308 SPIN=   0.00000
   O   0.3468202   0.3865140   0.4568533 SPIN=   0.00000
   O   0.5357769   0.0740618   0.3400828 SPIN=   0.00000
   S   0.3042837   0.1547786   0.2592055 SPIN=   0.00000
   F   0.4205041  -0.0949167  -0.2557813 SPIN=   0.00000
   F  -0.3237146  -0.3391355   0.2557813 SPIN=   0.00000
%ENDBLOCK POSITIONS_FRAC

# Note: total spin =   8.00

KPOINTS_MP_SPACING 0.07

%BLOCK SPECIES_POT
QC5
%ENDBLOCK SPECIES_POT

SNAP_TO_SYMMETRY
SYMMETRY_GENERATE

