#              Generated by Buildcell
#
# at 23:30:15 (GMT+1.0) 18th August 2020
# in /scratch/scratch/uccabz1/launch_tmp
# on node-k10i-030
# by uccabz1
#
# compiler GCC version 4.9.2
# options -cpp -iprefix /scratch/UCL/applications/gcc/4.9.2/bin/../lib/gcc/x86_64-unknown-linux-gnu/4.9.2/ -mtune=corei7 -march=x86-64 -g -O2
#
# seed  -355199656 -1192402133  -923650719   616185205 -1808233414   826028226 -2063851160  -762644128  1862903411  1776114861  -760342857  2132038494
#
#      Author: C. J. Pickard (cjp20@cam.ac.uk)
#                Space group: P21
#

%BLOCK LATTICE_ABC
      5.53967      5.97052      6.06414
     90.00000     94.31992     90.00000
%ENDBLOCK LATTICE_ABC

%BLOCK POSITIONS_FRAC
  Li   0.2265144  -0.1874372   0.1066201 SPIN=   0.00000
  Li  -0.2265144   0.3125628  -0.1066201 SPIN=   0.00000
  Fe  -0.0583856   0.1454066   0.3305758 SPIN=   4.00000
  Fe   0.0583856  -0.3545934  -0.3305758 SPIN=   4.00000
   O  -0.6703626  -0.0878981  -0.4338451 SPIN=   0.00000
   O  -0.2532774   0.0616360  -0.3819859 SPIN=   0.00000
   O  -0.3394548  -0.3263565  -0.2676227 SPIN=   0.00000
   O  -0.4883823  -0.0060374  -0.0572028 SPIN=   0.00000
   S  -0.4378693  -0.0896640  -0.2851642 SPIN=   0.00000
   O   0.6703626   0.4121019   0.4338451 SPIN=   0.00000
   O   0.2532774   0.5616360   0.3819859 SPIN=   0.00000
   O   0.3394548   0.1736435   0.2676227 SPIN=   0.00000
   O   0.4883823   0.4939626   0.0572028 SPIN=   0.00000
   S   0.4378693   0.4103360   0.2851642 SPIN=   0.00000
   F   0.1078585   0.3064452  -0.2191754 SPIN=   0.00000
   F  -0.1078585  -0.1935548   0.2191754 SPIN=   0.00000
%ENDBLOCK POSITIONS_FRAC

# Note: total spin =   8.00

KPOINTS_MP_SPACING 0.07

%BLOCK SPECIES_POT
QC5
%ENDBLOCK SPECIES_POT

SNAP_TO_SYMMETRY
SYMMETRY_GENERATE

