#              Generated by Buildcell
#
# at 23:21:08 (GMT+1.0) 18th August 2020
# in /lustre/scratch/uccabz1/launch_tmp
# on node-c12a-016
# by uccabz1
#
# compiler GCC version 4.9.2
# options -cpp -iprefix /lustre/shared/ucl/apps/gcc/4.9.2/bin/../lib/gcc/x86_64-unknown-linux-gnu/4.9.2/ -mtune=corei7 -march=x86-64 -g -Og
#
# seed -1165927039  -582289674 -1702541165  1532353032  1652941697   732032603  1361005335   928022537 -1010826125  1358829908 -1279288195  -304457230
#
#      Author: C. J. Pickard (cjp20@cam.ac.uk)
#                Space group: Aem2
#

%BLOCK LATTICE_ABC
      5.55667      5.55667      6.61189
     90.00000     90.00000    101.57627
%ENDBLOCK LATTICE_ABC

%BLOCK POSITIONS_FRAC
  Li   0.1867374   0.3132626  -0.2255471 SPIN=   0.00000
  Li  -0.3132626  -0.1867374   0.2255471 SPIN=   0.00000
  Fe  -0.1539565  -0.3460435  -0.1706634 SPIN=   4.00000
  Fe   0.3460435   0.1539565   0.1706634 SPIN=   4.00000
   O  -0.3237421  -0.4892091   0.3673987 SPIN=   0.00000
   O  -0.6245730  -0.2158444   0.3575393 SPIN=   0.00000
   O   0.4892091   0.3237421  -0.3673987 SPIN=   0.00000
   O   0.2158444   0.6245730  -0.3575393 SPIN=   0.00000
   O  -0.0107909  -0.1762579   0.3673987 SPIN=   0.00000
   O  -0.2841556   0.1245730   0.3575393 SPIN=   0.00000
   O   0.1762579   0.0107909  -0.3673987 SPIN=   0.00000
   O  -0.1245730   0.2841556  -0.3575393 SPIN=   0.00000
   S   0.4827339   0.0172661  -0.3527790 SPIN=   0.00000
   S  -0.0172661  -0.4827339   0.3527790 SPIN=   0.00000
   F  -0.0506061   0.0506061  -0.0000000 SPIN=   0.00000
   F   0.4493939  -0.4493939   0.0000000 SPIN=   0.00000
%ENDBLOCK POSITIONS_FRAC

# Note: total spin =   8.00

KPOINTS_MP_SPACING 0.07

%BLOCK SPECIES_POT
QC5
%ENDBLOCK SPECIES_POT

SNAP_TO_SYMMETRY
SYMMETRY_GENERATE

