#              Generated by Buildcell
#
# at 05:20:19 (GMT+1.0) 4th August 2020
# in /lustre/scratch/uccabz1/launch_tmp
# on node-c12c-029
# by uccabz1
#
# compiler GCC version 4.9.2
# options -cpp -iprefix /lustre/shared/ucl/apps/gcc/4.9.2/bin/../lib/gcc/x86_64-unknown-linux-gnu/4.9.2/ -mtune=corei7 -march=x86-64 -g -Og
#
# seed -2020204491   -78278906  1213736487   -55776504  -499812871 -1739544171 -1548074826  1074252950  1757931197   433424719 -1105522103  1997623118
#
#      Author: C. J. Pickard (cjp20@cam.ac.uk)
#                Space group: P-1
#

%BLOCK LATTICE_ABC
      4.84270      5.38661      7.82658
     79.41261     85.32435     89.90512
%ENDBLOCK LATTICE_ABC

%BLOCK POSITIONS_FRAC
  Li  -0.2053117   0.0476717  -0.2800309 SPIN=   0.00000
  Li   0.2053117  -0.0476717   0.2800309 SPIN=   0.00000
  Fe  -0.2500141   0.2315142   0.0705057 SPIN=   4.00000
  Fe   0.2500141  -0.2315142  -0.0705057 SPIN=   4.00000
   O   0.0105347   0.4058517   0.2322401 SPIN=   0.00000
   O   0.4990340   0.5532261   0.1782911 SPIN=   0.00000
   O   0.3664149   0.1895981   0.4135309 SPIN=   0.00000
   O   0.2202365   0.6205227   0.4448887 SPIN=   0.00000
   S   0.2740550   0.4422997   0.3172377 SPIN=   0.00000
   O  -0.0105347  -0.4058517  -0.2322401 SPIN=   0.00000
   O  -0.4990340  -0.5532261  -0.1782911 SPIN=   0.00000
   O  -0.3664149  -0.1895981  -0.4135309 SPIN=   0.00000
   O  -0.2202365  -0.6205227  -0.4448887 SPIN=   0.00000
   S  -0.2740550  -0.4422997  -0.3172377 SPIN=   0.00000
   F  -0.2173474  -0.0516151   0.2441033 SPIN=   0.00000
   F   0.2173474   0.0516151  -0.2441033 SPIN=   0.00000
%ENDBLOCK POSITIONS_FRAC

# Note: total spin =   8.00

KPOINTS_MP_SPACING 0.07

%BLOCK SPECIES_POT
QC5
%ENDBLOCK SPECIES_POT

SNAP_TO_SYMMETRY
SYMMETRY_GENERATE

