#              Generated by Buildcell
#
# at 05:34:33 (GMT+1.0) 4th August 2020
# in /lustre/scratch/uccabz1/launch_tmp
# on node-c12n-009
# by uccabz1
#
# compiler GCC version 4.9.2
# options -cpp -iprefix /lustre/shared/ucl/apps/gcc/4.9.2/bin/../lib/gcc/x86_64-unknown-linux-gnu/4.9.2/ -mtune=corei7 -march=x86-64 -g -Og
#
# seed  1080107518  1238423660  -913871923 -1455158302 -2002540636  -434237003 -1079193619 -1940945215 -1109720083  -594463707  1361239259  1741326827
#
#      Author: C. J. Pickard (cjp20@cam.ac.uk)
#                Space group: C2
#

%BLOCK LATTICE_ABC
      4.33693      4.33693     11.44939
     79.81112     79.81112     72.13627
%ENDBLOCK LATTICE_ABC

%BLOCK POSITIONS_FRAC
  Li   0.4438946  -0.1542510  -0.3726509 SPIN=   0.00000
  Li  -0.8457490  -0.4438946   0.3726509 SPIN=   0.00000
  Fe   0.1949904  -0.0030185   0.1397411 SPIN=   4.00000
  Fe   0.0030185  -0.1949904  -0.1397411 SPIN=   4.00000
   O  -0.1673226  -0.1035925   0.2824286 SPIN=   0.00000
   O  -0.7676863   0.1284918   0.3195004 SPIN=   0.00000
   O  -0.4252546   0.1166174   0.4726445 SPIN=   0.00000
   S  -0.4644503  -0.0641466   0.3769010 SPIN=   0.00000
   O   0.1035925   0.1673226  -0.2824286 SPIN=   0.00000
   O  -0.1284918   0.7676863  -0.3195004 SPIN=   0.00000
   O  -0.1166174   0.4252546  -0.4726445 SPIN=   0.00000
   S   0.0641466   0.4644503  -0.3769010 SPIN=   0.00000
   O   0.3633280  -0.3633280  -0.0000000 SPIN=   0.00000
   O   0.2431160  -0.2431160  -0.5000000 SPIN=   0.00000
   F   0.5472658   0.1434109  -0.1366150 SPIN=   0.00000
   F  -0.1434109   0.4527342   0.1366150 SPIN=   0.00000
%ENDBLOCK POSITIONS_FRAC

# Note: total spin =   8.00

KPOINTS_MP_SPACING 0.07

%BLOCK SPECIES_POT
QC5
%ENDBLOCK SPECIES_POT

SNAP_TO_SYMMETRY
SYMMETRY_GENERATE

