#              Generated by Buildcell
#
# at 02:26:22 (GMT+1.0) 4th August 2020
# in /lustre/scratch/uccabz1/launch_tmp
# on node-c12k-030
# by uccabz1
#
# compiler GCC version 4.9.2
# options -cpp -iprefix /lustre/shared/ucl/apps/gcc/4.9.2/bin/../lib/gcc/x86_64-unknown-linux-gnu/4.9.2/ -mtune=corei7 -march=x86-64 -g -Og
#
# seed  1317596748    36289644 -1352570821 -1603235586 -1931989366   782327994  -509579160  1087970639  -620683425  1156703637 -1564916735   795380192
#
#      Author: C. J. Pickard (cjp20@cam.ac.uk)
#                Space group: P21212
#

%BLOCK LATTICE_ABC
      4.85491      6.36952      6.46759
     90.00000     90.00000     90.00000
%ENDBLOCK LATTICE_ABC

%BLOCK POSITIONS_FRAC
  Li  -0.5000000   0.0000000   0.4249193 SPIN=   0.00000
  Li   0.0000000   0.5000000  -0.4249193 SPIN=   0.00000
  Fe   0.0000000   0.0000000   0.1470306 SPIN=   4.00000
  Fe  -0.5000000   0.5000000  -0.1470306 SPIN=   4.00000
   O   0.1447683  -0.1984519  -0.4570749 SPIN=   0.00000
   O   0.2239598   0.1278775  -0.2580586 SPIN=   0.00000
   O  -0.1447683   0.1984519  -0.4570749 SPIN=   0.00000
   O  -0.2239598  -0.1278775  -0.2580586 SPIN=   0.00000
   O  -0.3552317  -0.3015481   0.4570749 SPIN=   0.00000
   O  -0.2760402  -0.6278775   0.2580586 SPIN=   0.00000
   O   0.3552317   0.3015481   0.4570749 SPIN=   0.00000
   O   0.2760402   0.6278775   0.2580586 SPIN=   0.00000
   S   0.0000000   0.0000000  -0.3529522 SPIN=   0.00000
   S  -0.5000000   0.5000000   0.3529522 SPIN=   0.00000
   F  -0.5000000   0.0000000   0.1014648 SPIN=   0.00000
   F   0.0000000   0.5000000  -0.1014648 SPIN=   0.00000
%ENDBLOCK POSITIONS_FRAC

# Note: total spin =   8.00

KPOINTS_MP_SPACING 0.07

%BLOCK SPECIES_POT
QC5
%ENDBLOCK SPECIES_POT

SNAP_TO_SYMMETRY
SYMMETRY_GENERATE

