#              Generated by Buildcell
#
# at 02:53:52 (GMT+1.0) 4th August 2020
# in /lustre/scratch/uccabz1/launch_tmp
# on node-c12p-027
# by uccabz1
#
# compiler GCC version 4.9.2
# options -cpp -iprefix /lustre/shared/ucl/apps/gcc/4.9.2/bin/../lib/gcc/x86_64-unknown-linux-gnu/4.9.2/ -mtune=corei7 -march=x86-64 -g -Og
#
# seed -1576818828  -600041526 -2026792760  1049447806  -121084461 -1997087635  -513803269   -63534590 -1354266444  1612587449   969140240    17942638
#
#      Author: C. J. Pickard (cjp20@cam.ac.uk)
#                Space group: Pmn21
#

%BLOCK LATTICE_ABC
      5.48946      5.64356      6.45576
     90.00000     90.00000     90.00000
%ENDBLOCK LATTICE_ABC

%BLOCK POSITIONS_FRAC
  Li   0.5000000  -0.1623383   0.3646934 SPIN=   0.00000
  Li   0.0000000   0.3376617  -0.3646934 SPIN=   0.00000
  Fe   0.0000000   0.3387192   0.1711571 SPIN=   4.00000
  Fe   0.5000000  -0.1612808  -0.1711571 SPIN=   4.00000
   O   0.2937477   0.4511976   0.4586651 SPIN=   0.00000
   O   0.2971845   0.0985269   0.2308365 SPIN=   0.00000
   O   0.2062523  -0.0488024  -0.4586651 SPIN=   0.00000
   O   0.2028155  -0.4014731  -0.2308365 SPIN=   0.00000
   O  -0.2062523  -0.0488024  -0.4586651 SPIN=   0.00000
   O  -0.2028155  -0.4014731  -0.2308365 SPIN=   0.00000
   O  -0.2937477   0.4511976   0.4586651 SPIN=   0.00000
   O  -0.2971845   0.0985269   0.2308365 SPIN=   0.00000
   S   0.0000000  -0.1613195   0.4052286 SPIN=   0.00000
   S   0.5000000   0.3386805  -0.4052286 SPIN=   0.00000
   F   0.0000000   0.1256297  -0.1002324 SPIN=   0.00000
   F   0.5000000  -0.3743703   0.1002324 SPIN=   0.00000
%ENDBLOCK POSITIONS_FRAC

# Note: total spin =   8.00

KPOINTS_MP_SPACING 0.07

%BLOCK SPECIES_POT
QC5
%ENDBLOCK SPECIES_POT

SNAP_TO_SYMMETRY
SYMMETRY_GENERATE

