#              Generated by Buildcell
#
# at 04:41:25 (GMT+1.0) 4th August 2020
# in /lustre/scratch/uccabz1/launch_tmp
# on node-c12e-012
# by uccabz1
#
# compiler GCC version 4.9.2
# options -cpp -iprefix /lustre/shared/ucl/apps/gcc/4.9.2/bin/../lib/gcc/x86_64-unknown-linux-gnu/4.9.2/ -mtune=corei7 -march=x86-64 -g -Og
#
# seed   589282767   105317798 -1792891410  1190096051   133544313 -1224588296 -2018251503  1352326225  1122044500  1574023929 -1204041216   818070072
#
#      Author: C. J. Pickard (cjp20@cam.ac.uk)
#                Space group: Pc
#

%BLOCK LATTICE_ABC
      4.94152      5.12532      7.89690
     90.00000     90.00000     90.34206
%ENDBLOCK LATTICE_ABC

%BLOCK POSITIONS_FRAC
  Li  -0.0855769  -0.1045704  -0.1835615 SPIN=   0.00000
  Li   0.4144231   0.3954296   0.1835615 SPIN=   0.00000
  Fe  -0.2617041   0.3975099  -0.4269145 SPIN=   4.00000
  Fe   0.2382959  -0.1024901   0.4269145 SPIN=   4.00000
   O  -0.4201458  -0.0622521  -0.0077980 SPIN=   0.00000
   O   0.0203433   0.0279444   0.1300707 SPIN=   0.00000
   O  -0.2420685  -0.3671426   0.2075629 SPIN=   0.00000
   O  -0.4044661   0.0690228   0.2936535 SPIN=   0.00000
   S  -0.2615843  -0.0831069   0.1558723 SPIN=   0.00000
   O   0.0798542   0.4377479   0.0077980 SPIN=   0.00000
   O   0.5203433   0.5279444  -0.1300707 SPIN=   0.00000
   O   0.2579315   0.1328574  -0.2075629 SPIN=   0.00000
   O   0.0955339   0.5690228  -0.2936535 SPIN=   0.00000
   S   0.2384157   0.4168931  -0.1558723 SPIN=   0.00000
   F  -0.2770764   0.0361872  -0.3810034 SPIN=   0.00000
   F   0.2229236  -0.4638128   0.3810034 SPIN=   0.00000
%ENDBLOCK POSITIONS_FRAC

# Note: total spin =   8.00

KPOINTS_MP_SPACING 0.07

%BLOCK SPECIES_POT
QC5
%ENDBLOCK SPECIES_POT

SNAP_TO_SYMMETRY
SYMMETRY_GENERATE

