#              Generated by Buildcell
#
# at 01:56:15 (GMT+1.0) 4th August 2020
# in /lustre/scratch/uccabz1/launch_tmp
# on node-c12n-020
# by uccabz1
#
# compiler GCC version 4.9.2
# options -cpp -iprefix /lustre/shared/ucl/apps/gcc/4.9.2/bin/../lib/gcc/x86_64-unknown-linux-gnu/4.9.2/ -mtune=corei7 -march=x86-64 -g -Og
#
# seed  1096365168   875968043 -1394125495   571759373   363571634  -873104607 -2133006897   424573654  -641819461   -38749770  1132022036  1402516858
#
#      Author: C. J. Pickard (cjp20@cam.ac.uk)
#                Space group: Pc
#

%BLOCK LATTICE_ABC
      4.12337      6.10559      8.00914
     90.00000     97.30175     90.00000
%ENDBLOCK LATTICE_ABC

%BLOCK POSITIONS_FRAC
  Li  -0.4849449   0.0129821  -0.3666776 SPIN=   0.00000
  Li  -0.4849449  -0.0129821   0.1333224 SPIN=   0.00000
  Fe   0.0604677   0.2032751   0.3505037 SPIN=   4.00000
  Fe   0.0604677  -0.2032751  -0.1494963 SPIN=   4.00000
   O  -0.2045574  -0.6572452   0.1239248 SPIN=   0.00000
   O  -0.4557625  -0.3629204  -0.0618824 SPIN=   0.00000
   O  -0.1799848  -0.2727171   0.2224776 SPIN=   0.00000
   O  -0.7067067  -0.4722283   0.1902486 SPIN=   0.00000
   S  -0.3867528  -0.4412777   0.1186921 SPIN=   0.00000
   O  -0.2045574   0.6572452  -0.3760752 SPIN=   0.00000
   O  -0.4557625   0.3629204  -0.5618824 SPIN=   0.00000
   O  -0.1799848   0.2727171  -0.2775224 SPIN=   0.00000
   O  -0.7067067   0.4722283  -0.3097514 SPIN=   0.00000
   S  -0.3867528   0.4412777  -0.3813079 SPIN=   0.00000
   F   0.1715429   0.0596397  -0.0222712 SPIN=   0.00000
   F   0.1715429  -0.0596397   0.4777288 SPIN=   0.00000
%ENDBLOCK POSITIONS_FRAC

# Note: total spin =   8.00

KPOINTS_MP_SPACING 0.07

%BLOCK SPECIES_POT
QC5
%ENDBLOCK SPECIES_POT

SNAP_TO_SYMMETRY
SYMMETRY_GENERATE

