#              Generated by Buildcell
#
# at 02:33:15 (GMT+1.0) 4th August 2020
# in /lustre/scratch/uccabz1/launch_tmp
# on node-c12n-019
# by uccabz1
#
# compiler GCC version 4.9.2
# options -cpp -iprefix /lustre/shared/ucl/apps/gcc/4.9.2/bin/../lib/gcc/x86_64-unknown-linux-gnu/4.9.2/ -mtune=corei7 -march=x86-64 -g -Og
#
# seed    42146986  -561905630  -427809967   957124961  1255222034   996910949 -2008178228 -1020836841 -1370631305  1428463112   852232231   692528302
#
#      Author: C. J. Pickard (cjp20@cam.ac.uk)
#                Space group: P2221
#

%BLOCK LATTICE_ABC
      4.34268      5.58550      8.24537
     90.00000     90.00000     90.00000
%ENDBLOCK LATTICE_ABC

%BLOCK POSITIONS_FRAC
  Li  -0.0776826  -0.5000000   0.0000000 SPIN=   0.00000
  Li   0.0776826   0.5000000  -0.5000000 SPIN=   0.00000
  Fe   0.5000000  -0.2460925  -0.2500000 SPIN=   4.00000
  Fe   0.5000000   0.2460925   0.2500000 SPIN=   4.00000
   O  -0.2652904   0.2000086   0.4746238 SPIN=   0.00000
   O   0.1816218  -0.0060717   0.3513370 SPIN=   0.00000
   O   0.2652904  -0.2000086  -0.0253762 SPIN=   0.00000
   O  -0.1816218   0.0060717  -0.1486630 SPIN=   0.00000
   O   0.2652904   0.2000086   0.0253762 SPIN=   0.00000
   O  -0.1816218  -0.0060717   0.1486630 SPIN=   0.00000
   O  -0.2652904  -0.2000086  -0.4746238 SPIN=   0.00000
   O   0.1816218   0.0060717  -0.3513370 SPIN=   0.00000
   S   0.0249932   0.0000000   0.0000000 SPIN=   0.00000
   S  -0.0249932   0.0000000  -0.5000000 SPIN=   0.00000
   F   0.5000000   0.3948453  -0.2500000 SPIN=   0.00000
   F  -0.5000000  -0.3948453   0.2500000 SPIN=   0.00000
%ENDBLOCK POSITIONS_FRAC

# Note: total spin =   8.00

KPOINTS_MP_SPACING 0.07

%BLOCK SPECIES_POT
QC5
%ENDBLOCK SPECIES_POT

SNAP_TO_SYMMETRY
SYMMETRY_GENERATE

