#              Generated by Buildcell
#
# at 01:57:07 (GMT+1.0) 19th August 2020
# in /lustre/scratch/uccabz1/launch_tmp
# on node-c12k-012
# by uccabz1
#
# compiler GCC version 4.9.2
# options -cpp -iprefix /lustre/shared/ucl/apps/gcc/4.9.2/bin/../lib/gcc/x86_64-unknown-linux-gnu/4.9.2/ -mtune=corei7 -march=x86-64 -g -Og
#
# seed  1879985020   989352400 -1078971985  1901098155  1508686833    14389737  -286946380   934778946 -1243055024   319744041  1784638988 -2125092107
#
#      Author: C. J. Pickard (cjp20@cam.ac.uk)
#                Space group: Pc
#

%BLOCK LATTICE_ABC
      4.12947      5.09128      9.67355
    100.45912     90.00000     90.00000
%ENDBLOCK LATTICE_ABC

%BLOCK POSITIONS_FRAC
  Li  -0.3002619  -0.0821503  -0.3036279 SPIN=   0.00000
  Li   0.3002619  -0.0821503   0.1963721 SPIN=   0.00000
  Fe   0.0494916   0.4385466  -0.1671269 SPIN=   4.00000
  Fe  -0.0494916   0.4385466   0.3328731 SPIN=   4.00000
   O  -0.0260270   0.1487600   0.1440389 SPIN=   0.00000
   O  -0.2611142  -0.2850336   0.0320574 SPIN=   0.00000
   O   0.0009616   0.0056534  -0.1142460 SPIN=   0.00000
   O  -0.5243967   0.1370325   0.0009454 SPIN=   0.00000
   S  -0.2026441   0.0016031   0.0156989 SPIN=   0.00000
   O   0.0260270   0.1487600  -0.3559611 SPIN=   0.00000
   O   0.2611142  -0.2850336  -0.4679426 SPIN=   0.00000
   O  -0.0009616   0.0056534  -0.6142460 SPIN=   0.00000
   O   0.5243967   0.1370325  -0.4990546 SPIN=   0.00000
   S   0.2026441   0.0016031  -0.4843011 SPIN=   0.00000
   F  -0.4657901  -0.4943965  -0.2457189 SPIN=   0.00000
   F   0.4657901  -0.4943965   0.2542811 SPIN=   0.00000
%ENDBLOCK POSITIONS_FRAC

# Note: total spin =   8.00

KPOINTS_MP_SPACING 0.07

%BLOCK SPECIES_POT
QC5
%ENDBLOCK SPECIES_POT

SNAP_TO_SYMMETRY
SYMMETRY_GENERATE

