#              Generated by Buildcell
#
# at 05:40:28 (GMT+1.0) 4th August 2020
# in /lustre/scratch/uccabz1/launch_tmp
# on node-c12f-025
# by uccabz1
#
# compiler GCC version 4.9.2
# options -cpp -iprefix /lustre/shared/ucl/apps/gcc/4.9.2/bin/../lib/gcc/x86_64-unknown-linux-gnu/4.9.2/ -mtune=corei7 -march=x86-64 -g -Og
#
# seed   695838371   260277713  1428547435   155681528  2105880755 -1019441901 -1912328598  -251381746   412004862  -919278913   189544264   504102066
#
#      Author: C. J. Pickard (cjp20@cam.ac.uk)
#                Space group: P-1
#

%BLOCK LATTICE_ABC
      5.18842      6.54359      6.80796
     66.68723     89.99275     72.07869
%ENDBLOCK LATTICE_ABC

%BLOCK POSITIONS_FRAC
  Li   0.3866299   0.2153147   0.1477080 SPIN=   0.00000
  Li  -0.3866299  -0.2153147  -0.1477080 SPIN=   0.00000
  Fe   0.6609025  -0.2704799   0.4499350 SPIN=   4.00000
  Fe  -0.6609025   0.2704799  -0.4499350 SPIN=   4.00000
   O   0.1076006   0.4359874  -0.1266270 SPIN=   0.00000
   O   0.1464730   0.7922161  -0.1003970 SPIN=   0.00000
   O   0.0162635   0.8063103  -0.4564256 SPIN=   0.00000
   O   0.4887943   0.5785258  -0.2671019 SPIN=   0.00000
   S   0.1897828   0.6532599  -0.2376379 SPIN=   0.00000
   O  -0.1076006  -0.4359874   0.1266270 SPIN=   0.00000
   O  -0.1464730  -0.7922161   0.1003970 SPIN=   0.00000
   O  -0.0162635  -0.8063103   0.4564256 SPIN=   0.00000
   O  -0.4887943  -0.5785258   0.2671019 SPIN=   0.00000
   S  -0.1897828  -0.6532599   0.2376379 SPIN=   0.00000
   F  -0.3532627   0.1307121  -0.2363880 SPIN=   0.00000
   F   0.3532627  -0.1307121   0.2363880 SPIN=   0.00000
%ENDBLOCK POSITIONS_FRAC

# Note: total spin =   8.00

KPOINTS_MP_SPACING 0.07

%BLOCK SPECIES_POT
QC5
%ENDBLOCK SPECIES_POT

SNAP_TO_SYMMETRY
SYMMETRY_GENERATE

