#              Generated by Buildcell
#
# at 04:51:00 (GMT+1.0) 4th August 2020
# in /lustre/scratch/uccabz1/launch_tmp
# on node-c12f-019
# by uccabz1
#
# compiler GCC version 4.9.2
# options -cpp -iprefix /lustre/shared/ucl/apps/gcc/4.9.2/bin/../lib/gcc/x86_64-unknown-linux-gnu/4.9.2/ -mtune=corei7 -march=x86-64 -g -Og
#
# seed -2026858474  1268003085  2058747605   502823570 -1789438642  -713738454   -93775041  -376437422  -275858092  -879655722 -1121526299 -1334305927
#
#      Author: C. J. Pickard (cjp20@cam.ac.uk)
#                Space group: Pc
#

%BLOCK LATTICE_ABC
      5.51220      6.06218      6.65823
     90.00000     90.00000    115.98460
%ENDBLOCK LATTICE_ABC

%BLOCK POSITIONS_FRAC
  Li   0.3337269  -0.0601788  -0.3608411 SPIN=   0.00000
  Li   0.3337269   0.4398212   0.3608411 SPIN=   0.00000
  Fe   0.4798469  -0.0775355   0.1549455 SPIN=   4.00000
  Fe   0.4798469   0.4224645  -0.1549455 SPIN=   4.00000
   O   0.0959776  -0.4735981   0.1725146 SPIN=   0.00000
   O  -0.3423217  -0.7472716   0.3262513 SPIN=   0.00000
   O  -0.2883712  -0.3668021   0.1538418 SPIN=   0.00000
   O  -0.0599787  -0.3426411   0.4787588 SPIN=   0.00000
   S  -0.1486735  -0.4825782   0.2828416 SPIN=   0.00000
   O   0.0959776   0.0264019  -0.1725146 SPIN=   0.00000
   O  -0.3423217  -0.2472716  -0.3262513 SPIN=   0.00000
   O  -0.2883712   0.1331979  -0.1538418 SPIN=   0.00000
   O  -0.0599787   0.1573589  -0.4787588 SPIN=   0.00000
   S  -0.1486735   0.0174218  -0.2828416 SPIN=   0.00000
   F   0.1733141  -0.3558463  -0.1959089 SPIN=   0.00000
   F   0.1733141   0.1441537   0.1959089 SPIN=   0.00000
%ENDBLOCK POSITIONS_FRAC

# Note: total spin =   8.00

KPOINTS_MP_SPACING 0.07

%BLOCK SPECIES_POT
QC5
%ENDBLOCK SPECIES_POT

SNAP_TO_SYMMETRY
SYMMETRY_GENERATE

