#              Generated by Buildcell
#
# at 03:29:47 (GMT+1.0) 4th August 2020
# in /lustre/scratch/uccabz1/launch_tmp
# on node-c12e-010
# by uccabz1
#
# compiler GCC version 4.9.2
# options -cpp -iprefix /lustre/shared/ucl/apps/gcc/4.9.2/bin/../lib/gcc/x86_64-unknown-linux-gnu/4.9.2/ -mtune=corei7 -march=x86-64 -g -Og
#
# seed    59459764 -1819368958  2142096867   428719010  1359431428 -1270600062 -1715601379   888977363 -1796720555 -2141413440  -327182312  2068269684
#
#      Author: C. J. Pickard (cjp20@cam.ac.uk)
#                Space group: Fmm2
#

%BLOCK LATTICE_ABC
      5.39177      5.39177      7.81930
    108.85511    108.85511     93.59142
%ENDBLOCK LATTICE_ABC

%BLOCK POSITIONS_FRAC
  Li   0.3914606   0.3314712  -0.2770683 SPIN=   0.00000
  Li  -0.3314712  -0.3914606   0.2770683 SPIN=   0.00000
  Fe  -0.4479570  -0.0522600   0.0000000 SPIN=   4.00000
  Fe   0.0522600   0.4479570  -0.0000000 SPIN=   4.00000
   O  -0.3572334  -0.3220064  -0.3777488 SPIN=   0.00000
   O  -0.0061878  -0.5773842  -0.2810083 SPIN=   0.00000
   O   0.3220064   0.3572334   0.3777488 SPIN=   0.00000
   O   0.5773842   0.0061878   0.2810083 SPIN=   0.00000
   O  -0.0557425  -0.0205154  -0.3777488 SPIN=   0.00000
   O   0.2963758  -0.2748205  -0.2810083 SPIN=   0.00000
   O   0.0205154   0.0557425   0.3777488 SPIN=   0.00000
   O   0.2748205  -0.2963758   0.2810083 SPIN=   0.00000
   S  -0.3347561  -0.0521338  -0.3868899 SPIN=   0.00000
   S   0.0521338   0.3347561   0.3868899 SPIN=   0.00000
   F   0.3111167   0.2067271   0.0000000 SPIN=   0.00000
   F  -0.2067271  -0.3111167   0.0000000 SPIN=   0.00000
%ENDBLOCK POSITIONS_FRAC

# Note: total spin =   8.00

KPOINTS_MP_SPACING 0.07

%BLOCK SPECIES_POT
QC5
%ENDBLOCK SPECIES_POT

SNAP_TO_SYMMETRY
SYMMETRY_GENERATE

