#              Generated by Buildcell
#
# at 02:29:30 (GMT+1.0) 19th August 2020
# in /lustre/scratch/uccabz1/launch_tmp
# on node-c12c-003
# by uccabz1
#
# compiler GCC version 4.9.2
# options -cpp -iprefix /lustre/shared/ucl/apps/gcc/4.9.2/bin/../lib/gcc/x86_64-unknown-linux-gnu/4.9.2/ -mtune=corei7 -march=x86-64 -g -Og
#
# seed   711609893   533813424   154280946 -1399514798  -365744107   875186927 -1362660474 -1929150625  -679695280 -2102076356   214831796   717386176
#
#      Author: C. J. Pickard (cjp20@cam.ac.uk)
#                Space group: Cmc21
#

%BLOCK LATTICE_ABC
      4.44033      6.59121      7.18520
     90.00000    107.99847     90.00000
%ENDBLOCK LATTICE_ABC

%BLOCK POSITIONS_FRAC
  Li   0.4283855  -0.4759382  -0.1432290 SPIN=   0.00000
  Li  -0.4283855   0.0240618   0.1432290 SPIN=   0.00000
  Fe  -0.0559417  -0.1650028  -0.1118834 SPIN=   4.00000
  Fe   0.0559417   0.3349972   0.1118834 SPIN=   4.00000
   O   0.0293196  -0.0807657  -0.4413607 SPIN=   0.00000
   O   0.1561242   0.1872041  -0.1876725 SPIN=   0.00000
   O  -0.0293196  -0.5807657   0.4413607 SPIN=   0.00000
   O  -0.1561242  -0.3127959   0.1876725 SPIN=   0.00000
   O   0.4706804  -0.5807657   0.4413607 SPIN=   0.00000
   O   0.3437968  -0.3127959   0.1876725 SPIN=   0.00000
   O  -0.4706804  -0.0807657  -0.4413607 SPIN=   0.00000
   O  -0.3437968   0.1872041  -0.1876725 SPIN=   0.00000
   S  -0.3404614  -0.3711194   0.3190771 SPIN=   0.00000
   S   0.3404614   0.1288806  -0.3190771 SPIN=   0.00000
   F   0.0692029   0.0489368   0.1384058 SPIN=   0.00000
   F  -0.0692029  -0.4510632  -0.1384058 SPIN=   0.00000
%ENDBLOCK POSITIONS_FRAC

# Note: total spin =   8.00

KPOINTS_MP_SPACING 0.07

%BLOCK SPECIES_POT
QC5
%ENDBLOCK SPECIES_POT

SNAP_TO_SYMMETRY
SYMMETRY_GENERATE

