#              Generated by Buildcell
#
# at 23:44:50 (GMT+1.0) 18th August 2020
# in /lustre/scratch/uccabz1/launch_tmp
# on node-c12a-022
# by uccabz1
#
# compiler GCC version 4.9.2
# options -cpp -iprefix /lustre/shared/ucl/apps/gcc/4.9.2/bin/../lib/gcc/x86_64-unknown-linux-gnu/4.9.2/ -mtune=corei7 -march=x86-64 -g -Og
#
# seed  1557628602 -1151893057  -199348778  -623593283   350358819  -757565599  1804877142 -2065844426   454948764   793707699  1368866907 -1243491694
#
#      Author: C. J. Pickard (cjp20@cam.ac.uk)
#                Space group: Pc
#

%BLOCK LATTICE_ABC
      3.93220      7.14362      7.56345
    109.71828     90.00000     90.00000
%ENDBLOCK LATTICE_ABC

%BLOCK POSITIONS_FRAC
  Li  -0.1866873  -0.4235323  -0.4748462 SPIN=   0.00000
  Li   0.1866873  -0.4235323   0.0251538 SPIN=   0.00000
  Fe  -0.3290782  -0.1564493  -0.0817585 SPIN=   4.00000
  Fe   0.3290782  -0.1564493   0.4182415 SPIN=   4.00000
   O  -0.6099618   0.4808922   0.2997714 SPIN=   0.00000
   O  -0.0911147   0.2812454   0.2890447 SPIN=   0.00000
   O  -0.3218216   0.3138821  -0.0036083 SPIN=   0.00000
   O  -0.6305938   0.1143167   0.1559933 SPIN=   0.00000
   S  -0.4133730   0.2975841   0.1853003 SPIN=   0.00000
   O   0.6099618   0.4808922  -0.2002286 SPIN=   0.00000
   O   0.0911147   0.2812454  -0.2109553 SPIN=   0.00000
   O   0.3218216   0.3138821  -0.5036083 SPIN=   0.00000
   O   0.6305938   0.1143167  -0.3440067 SPIN=   0.00000
   S   0.4133730   0.2975841  -0.3146997 SPIN=   0.00000
   F   0.1852953  -0.1900296  -0.2036691 SPIN=   0.00000
   F  -0.1852953  -0.1900296   0.2963309 SPIN=   0.00000
%ENDBLOCK POSITIONS_FRAC

# Note: total spin =   8.00

KPOINTS_MP_SPACING 0.07

%BLOCK SPECIES_POT
QC5
%ENDBLOCK SPECIES_POT

SNAP_TO_SYMMETRY
SYMMETRY_GENERATE

