#              Generated by Buildcell
#
# at 04:22:01 (GMT+1.0) 4th August 2020
# in /lustre/scratch/uccabz1/launch_tmp
# on node-c12l-020
# by uccabz1
#
# compiler GCC version 4.9.2
# options -cpp -iprefix /lustre/shared/ucl/apps/gcc/4.9.2/bin/../lib/gcc/x86_64-unknown-linux-gnu/4.9.2/ -mtune=corei7 -march=x86-64 -g -Og
#
# seed  -432826836  -641889648 -2135139448  -524099383 -2139064987 -1042313058 -1964496333  1224361413   -14501831  -873739307   101376277  -460936241
#
#      Author: C. J. Pickard (cjp20@cam.ac.uk)
#                Space group: Pc
#

%BLOCK LATTICE_ABC
      3.84968      6.28073      8.35067
     90.00000     97.88500     90.00000
%ENDBLOCK LATTICE_ABC

%BLOCK POSITIONS_FRAC
  Li  -0.2459172   0.2714114   0.3728183 SPIN=   0.00000
  Li   0.2540828  -0.2714114  -0.1271817 SPIN=   0.00000
  Fe  -0.4147287   0.3658410  -0.2906342 SPIN=   4.00000
  Fe   0.0852713  -0.3658410   0.2093658 SPIN=   4.00000
   O  -0.1213439   0.1608889   0.1588639 SPIN=   0.00000
   O   0.3476699   0.2851387   0.0062308 SPIN=   0.00000
   O  -0.1073549   0.0368554  -0.1214819 SPIN=   0.00000
   O   0.3412180  -0.0888721   0.0990680 SPIN=   0.00000
   S   0.1150473   0.0985027   0.0356702 SPIN=   0.00000
   O  -0.6213439  -0.1608889  -0.3411361 SPIN=   0.00000
   O  -0.1523301  -0.2851387  -0.4937692 SPIN=   0.00000
   O  -0.6073549  -0.0368554  -0.6214819 SPIN=   0.00000
   O  -0.1587820   0.0888721  -0.4009320 SPIN=   0.00000
   S  -0.3849527  -0.0985027  -0.4643298 SPIN=   0.00000
   F   0.2633135   0.4011796   0.3984360 SPIN=   0.00000
   F  -0.2366865  -0.4011796  -0.1015640 SPIN=   0.00000
%ENDBLOCK POSITIONS_FRAC

# Note: total spin =   8.00

KPOINTS_MP_SPACING 0.07

%BLOCK SPECIES_POT
QC5
%ENDBLOCK SPECIES_POT

SNAP_TO_SYMMETRY
SYMMETRY_GENERATE

