#              Generated by Buildcell
#
# at 02:47:10 (GMT+1.0) 4th August 2020
# in /lustre/scratch/uccabz1/launch_tmp
# on node-c12l-015
# by uccabz1
#
# compiler GCC version 4.9.2
# options -cpp -iprefix /lustre/shared/ucl/apps/gcc/4.9.2/bin/../lib/gcc/x86_64-unknown-linux-gnu/4.9.2/ -mtune=corei7 -march=x86-64 -g -Og
#
# seed  1631200578  1047159888   823129494  -460375643   557231117 -1579588715  1054686550 -1450671670 -2108962640  -425567848   328077110  -638659467
#
#      Author: C. J. Pickard (cjp20@cam.ac.uk)
#                Space group: P-1
#

%BLOCK LATTICE_ABC
      3.95396      7.03044      7.79268
     69.19764     81.01032     86.22531
%ENDBLOCK LATTICE_ABC

%BLOCK POSITIONS_FRAC
  Li   0.2129651   0.2289947   0.0333779 SPIN=   0.00000
  Li  -0.2129651  -0.2289947  -0.0333779 SPIN=   0.00000
  Fe   0.3672754   0.0926575  -0.3097614 SPIN=   4.00000
  Fe  -0.3672754  -0.0926575   0.3097614 SPIN=   4.00000
   O   0.7755973  -0.3001153  -0.4102537 SPIN=   0.00000
   O   0.2048343  -0.3551414  -0.2185651 SPIN=   0.00000
   O   0.7033735  -0.5599749  -0.0946725 SPIN=   0.00000
   O   0.4603276  -0.6161309  -0.3466410 SPIN=   0.00000
   S   0.5360332  -0.4578406  -0.2675331 SPIN=   0.00000
   O  -0.7755973   0.3001153   0.4102537 SPIN=   0.00000
   O  -0.2048343   0.3551414   0.2185651 SPIN=   0.00000
   O  -0.7033735   0.5599749   0.0946725 SPIN=   0.00000
   O  -0.4603276   0.6161309   0.3466410 SPIN=   0.00000
   S  -0.5360332   0.4578406   0.2675331 SPIN=   0.00000
   F  -0.1360782   0.0187868  -0.2389938 SPIN=   0.00000
   F   0.1360782  -0.0187868   0.2389938 SPIN=   0.00000
%ENDBLOCK POSITIONS_FRAC

# Note: total spin =   8.00

KPOINTS_MP_SPACING 0.07

%BLOCK SPECIES_POT
QC5
%ENDBLOCK SPECIES_POT

SNAP_TO_SYMMETRY
SYMMETRY_GENERATE

