#              Generated by Buildcell
#
# at 23:51:13 (GMT+1.0) 18th August 2020
# in /scratch/scratch/uccabz1/launch_tmp
# on node-k10b-027
# by uccabz1
#
# compiler GCC version 4.9.2
# options -cpp -iprefix /scratch/UCL/applications/gcc/4.9.2/bin/../lib/gcc/x86_64-unknown-linux-gnu/4.9.2/ -mtune=corei7 -march=x86-64 -g -O2
#
# seed -2098655712   457457442   750596639   140820939  -734489756 -1734457731   615310820   696638932  1381687451   260910605 -1467631067  1281440229
#
#      Author: C. J. Pickard (cjp20@cam.ac.uk)
#                Space group: Cmc21
#

%BLOCK LATTICE_ABC
      4.27923      5.74866      8.62328
    109.47054     90.00000     90.00000
%ENDBLOCK LATTICE_ABC

%BLOCK POSITIONS_FRAC
  Li  -0.3684490   0.0904047   0.1808093 SPIN=   0.00000
  Li   0.1315510  -0.0904047  -0.1808093 SPIN=   0.00000
  Fe  -0.4117949   0.4046943  -0.1906113 SPIN=   4.00000
  Fe   0.0882051  -0.4046943   0.1906113 SPIN=   4.00000
   O   0.4236914  -0.3483157  -0.2956667 SPIN=   0.00000
   O  -0.0979679  -0.4390407  -0.4258434 SPIN=   0.00000
   O  -0.0763086   0.3483157   0.2956667 SPIN=   0.00000
   O  -0.5979679   0.4390407   0.4258434 SPIN=   0.00000
   O  -0.0763086  -0.0526491   0.2956667 SPIN=   0.00000
   O  -0.5979679  -0.0131973   0.4258434 SPIN=   0.00000
   O   0.4236914   0.0526491  -0.2956667 SPIN=   0.00000
   O  -0.0979679   0.0131973  -0.4258434 SPIN=   0.00000
   S   0.1315652   0.1989544   0.3979088 SPIN=   0.00000
   S  -0.3684348  -0.1989544  -0.3979088 SPIN=   0.00000
   F   0.0189315   0.4114357  -0.1771286 SPIN=   0.00000
   F  -0.4810685  -0.4114357   0.1771286 SPIN=   0.00000
%ENDBLOCK POSITIONS_FRAC

# Note: total spin =   8.00

KPOINTS_MP_SPACING 0.07

%BLOCK SPECIES_POT
QC5
%ENDBLOCK SPECIES_POT

SNAP_TO_SYMMETRY
SYMMETRY_GENERATE

