#              Generated by Buildcell
#
# at 03:06:27 (GMT+1.0) 4th August 2020
# in /lustre/scratch/uccabz1/launch_tmp
# on node-c12e-012
# by uccabz1
#
# compiler GCC version 4.9.2
# options -cpp -iprefix /lustre/shared/ucl/apps/gcc/4.9.2/bin/../lib/gcc/x86_64-unknown-linux-gnu/4.9.2/ -mtune=corei7 -march=x86-64 -g -Og
#
# seed -1215205360 -1698924574  -323029967  -938156412  1524290576   722132491  1501697665 -1367233211   568956001  -936799463   534571794   844066964
#
#      Author: C. J. Pickard (cjp20@cam.ac.uk)
#                Space group: P21
#

%BLOCK LATTICE_ABC
      3.95190      6.66125      7.90034
    105.91673     90.00000     90.00000
%ENDBLOCK LATTICE_ABC

%BLOCK POSITIONS_FRAC
  Li  -0.3955675  -0.4361878  -0.2143811 SPIN=   0.00000
  Li   0.1044325   0.4361878   0.2143811 SPIN=   0.00000
  Fe  -0.0814605  -0.2252318  -0.4754172 SPIN=   4.00000
  Fe   0.4185395   0.2252318   0.4754172 SPIN=   4.00000
   O  -0.6263163   0.2610475  -0.1939088 SPIN=   0.00000
   O  -0.3506434   0.0024947  -0.0661652 SPIN=   0.00000
   O  -0.0908672   0.3501893  -0.0278000 SPIN=   0.00000
   O  -0.0908668   0.0926130  -0.3208409 SPIN=   0.00000
   S  -0.2896734   0.1765861  -0.1521787 SPIN=   0.00000
   O  -0.1263163  -0.2610475   0.1939088 SPIN=   0.00000
   O   0.1493566  -0.0024947   0.0661652 SPIN=   0.00000
   O   0.4091328  -0.3501893   0.0278000 SPIN=   0.00000
   O   0.4091332  -0.0926130   0.3208409 SPIN=   0.00000
   S   0.2103266  -0.1765861   0.1521787 SPIN=   0.00000
   F   0.0479521  -0.4099577  -0.2973756 SPIN=   0.00000
   F  -0.4520479   0.4099577   0.2973756 SPIN=   0.00000
%ENDBLOCK POSITIONS_FRAC

# Note: total spin =   8.00

KPOINTS_MP_SPACING 0.07

%BLOCK SPECIES_POT
QC5
%ENDBLOCK SPECIES_POT

SNAP_TO_SYMMETRY
SYMMETRY_GENERATE

