#              Generated by Buildcell
#
# at 02:44:21 (GMT+1.0) 19th August 2020
# in /lustre/scratch/uccabz1/launch_tmp
# on node-c12c-009
# by uccabz1
#
# compiler GCC version 4.9.2
# options -cpp -iprefix /lustre/shared/ucl/apps/gcc/4.9.2/bin/../lib/gcc/x86_64-unknown-linux-gnu/4.9.2/ -mtune=corei7 -march=x86-64 -g -Og
#
# seed  1187155241  -237004006  -732904566  1767301352 -1465515860   570358660 -1039317970  -561399766 -1464347498 -1434148920 -1938860996  1981278344
#
#      Author: C. J. Pickard (cjp20@cam.ac.uk)
#                Space group: P-1
#

%BLOCK LATTICE_ABC
      3.82469      5.99036      9.17568
     72.96959     89.12813     84.32035
%ENDBLOCK LATTICE_ABC

%BLOCK POSITIONS_FRAC
  Li  -0.3763532   0.3407261  -0.1396247 SPIN=   0.00000
  Li   0.3763532  -0.3407261   0.1396247 SPIN=   0.00000
  Fe   0.1523681   0.1884984   0.1156158 SPIN=   4.00000
  Fe  -0.1523681  -0.1884984  -0.1156158 SPIN=   4.00000
   O   0.1733336  -0.4449038  -0.2465851 SPIN=   0.00000
   O   0.1321034  -0.1971684  -0.5151991 SPIN=   0.00000
   O   0.6811556  -0.4481727  -0.4166171 SPIN=   0.00000
   O   0.5094444  -0.0980601  -0.3309578 SPIN=   0.00000
   S   0.3740092  -0.2970762  -0.3773398 SPIN=   0.00000
   O  -0.1733336   0.4449038   0.2465851 SPIN=   0.00000
   O  -0.1321034   0.1971684   0.5151991 SPIN=   0.00000
   O  -0.6811556   0.4481727   0.4166171 SPIN=   0.00000
   O  -0.5094444   0.0980601   0.3309578 SPIN=   0.00000
   S  -0.3740092   0.2970762   0.3773398 SPIN=   0.00000
   F   0.0460669  -0.1522469   0.2052437 SPIN=   0.00000
   F  -0.0460669   0.1522469  -0.2052437 SPIN=   0.00000
%ENDBLOCK POSITIONS_FRAC

# Note: total spin =   8.00

KPOINTS_MP_SPACING 0.07

%BLOCK SPECIES_POT
QC5
%ENDBLOCK SPECIES_POT

SNAP_TO_SYMMETRY
SYMMETRY_GENERATE

