#              Generated by Buildcell
#
# at 03:15:26 (GMT+1.0) 4th August 2020
# in /lustre/scratch/uccabz1/launch_tmp
# on node-c12l-035
# by uccabz1
#
# compiler GCC version 4.9.2
# options -cpp -iprefix /lustre/shared/ucl/apps/gcc/4.9.2/bin/../lib/gcc/x86_64-unknown-linux-gnu/4.9.2/ -mtune=corei7 -march=x86-64 -g -Og
#
# seed   723227724  2054022450 -1499173485 -1232581510  1872357858 -1885563862   303663754   -41985390  1647760447  1592429875 -1701676262   508801078
#
#      Author: C. J. Pickard (cjp20@cam.ac.uk)
#                Space group: P21/m
#

%BLOCK LATTICE_ABC
      3.91451      6.81906      7.56323
     90.00000     90.00000     97.84004
%ENDBLOCK LATTICE_ABC

%BLOCK POSITIONS_FRAC
  Li  -0.0000000  -0.5000000  -0.0000000 SPIN=   0.00000
  Li   0.0000000   0.5000000  -0.5000000 SPIN=   0.00000
  Fe  -0.4824740   0.2723892  -0.2500000 SPIN=   4.00000
  Fe   0.4824740  -0.2723892   0.2500000 SPIN=   4.00000
   O  -0.2898882  -0.2732332  -0.0526733 SPIN=   0.00000
   O   0.2388988  -0.0785466   0.0676079 SPIN=   0.00000
   O   0.2898882   0.2732332  -0.5526733 SPIN=   0.00000
   O  -0.2388988   0.0785466  -0.4323921 SPIN=   0.00000
   O   0.2898882   0.2732332   0.0526733 SPIN=   0.00000
   O  -0.2388988   0.0785466  -0.0676079 SPIN=   0.00000
   O  -0.2898882  -0.2732332   0.5526733 SPIN=   0.00000
   O   0.2388988  -0.0785466   0.4323921 SPIN=   0.00000
   S   0.3145640   0.1780121   0.2500000 SPIN=   0.00000
   S  -0.3145640  -0.1780121  -0.2500000 SPIN=   0.00000
   F   0.0726496   0.3523502  -0.2500000 SPIN=   0.00000
   F  -0.0726496  -0.3523502   0.2500000 SPIN=   0.00000
%ENDBLOCK POSITIONS_FRAC

# Note: total spin =   8.00

KPOINTS_MP_SPACING 0.07

%BLOCK SPECIES_POT
QC5
%ENDBLOCK SPECIES_POT

SNAP_TO_SYMMETRY
SYMMETRY_GENERATE

