#              Generated by Buildcell
#
# at 05:35:43 (GMT+1.0) 4th August 2020
# in /lustre/scratch/uccabz1/launch_tmp
# on node-c12j-013
# by uccabz1
#
# compiler GCC version 4.9.2
# options -cpp -iprefix /lustre/shared/ucl/apps/gcc/4.9.2/bin/../lib/gcc/x86_64-unknown-linux-gnu/4.9.2/ -mtune=corei7 -march=x86-64 -g -Og
#
# seed  -334217828  -352082205  1764976814 -1937044564 -1961183617  1699316699  -402908224   702093452   878789347   914843129  1714058897 -1868609165
#
#      Author: C. J. Pickard (cjp20@cam.ac.uk)
#                Space group: P2
#

%BLOCK LATTICE_ABC
      4.55362      6.40539      6.86231
     90.00000     90.00000     92.27632
%ENDBLOCK LATTICE_ABC

%BLOCK POSITIONS_FRAC
  Li   0.7358396   0.2655881   0.3649372 SPIN=   0.00000
  Li  -0.7358396  -0.2655881   0.3649372 SPIN=   0.00000
  Fe  -0.2344359  -0.2384795   0.0735888 SPIN=   4.00000
  Fe   0.2344359   0.2384795   0.0735888 SPIN=   4.00000
   O  -0.2496147  -0.4932829  -0.4021285 SPIN=   0.00000
   O   0.0737542  -0.1766101  -0.3610274 SPIN=   0.00000
   O  -0.4484580  -0.1722290  -0.2617389 SPIN=   0.00000
   O  -0.3175898  -0.1843193  -0.6114818 SPIN=   0.00000
   S  -0.2354771  -0.2566103  -0.4090942 SPIN=   0.00000
   O   0.2496147   0.4932829  -0.4021285 SPIN=   0.00000
   O  -0.0737542   0.1766101  -0.3610274 SPIN=   0.00000
   O   0.4484580   0.1722290  -0.2617389 SPIN=   0.00000
   O   0.3175898   0.1843193  -0.6114818 SPIN=   0.00000
   S   0.2354771   0.2566103  -0.4090942 SPIN=   0.00000
   F  -0.1882394   0.2447778   0.0649585 SPIN=   0.00000
   F   0.1882394  -0.2447778   0.0649585 SPIN=   0.00000
%ENDBLOCK POSITIONS_FRAC

# Note: total spin =   8.00

KPOINTS_MP_SPACING 0.07

%BLOCK SPECIES_POT
QC5
%ENDBLOCK SPECIES_POT

SNAP_TO_SYMMETRY
SYMMETRY_GENERATE

