#              Generated by Buildcell
#
# at 23:57:33 (GMT+1.0) 18th August 2020
# in /lustre/scratch/uccabz1/launch_tmp
# on node-c12f-010
# by uccabz1
#
# compiler GCC version 4.9.2
# options -cpp -iprefix /lustre/shared/ucl/apps/gcc/4.9.2/bin/../lib/gcc/x86_64-unknown-linux-gnu/4.9.2/ -mtune=corei7 -march=x86-64 -g -Og
#
# seed  -534892605  1175953164  -248773922  1593933945  -592815382  1653134813 -1366066241 -1355629471 -1723082527  1718514719  1343960752   616920768
#
#      Author: C. J. Pickard (cjp20@cam.ac.uk)
#                Space group: Pmc21
#

%BLOCK LATTICE_ABC
      4.76413      6.34695      6.61425
     90.00000     90.00000     90.00000
%ENDBLOCK LATTICE_ABC

%BLOCK POSITIONS_FRAC
  Li   0.0000000  -0.0616837  -0.3579973 SPIN=   0.00000
  Li   0.0000000   0.4383163   0.3579973 SPIN=   0.00000
  Fe  -0.5000000  -0.2208812   0.3203456 SPIN=   4.00000
  Fe   0.5000000   0.2791188  -0.3203456 SPIN=   4.00000
   O   0.2528055  -0.5320256   0.0264436 SPIN=   0.00000
   O   0.2512966  -0.3123509  -0.2826983 SPIN=   0.00000
   O  -0.2528055  -0.0320256  -0.0264436 SPIN=   0.00000
   O  -0.2512966   0.1876491   0.2826983 SPIN=   0.00000
   O   0.2528055  -0.0320256  -0.0264436 SPIN=   0.00000
   O   0.2512966   0.1876491   0.2826983 SPIN=   0.00000
   O  -0.2528055  -0.5320256   0.0264436 SPIN=   0.00000
   O  -0.2512966  -0.3123509  -0.2826983 SPIN=   0.00000
   S  -0.5000000  -0.2208814  -0.1796512 SPIN=   0.00000
   S  -0.5000000   0.2791186   0.1796512 SPIN=   0.00000
   F   0.0000000   0.2498146  -0.3040527 SPIN=   0.00000
   F   0.0000000  -0.2501854   0.3040527 SPIN=   0.00000
%ENDBLOCK POSITIONS_FRAC

# Note: total spin =   8.00

KPOINTS_MP_SPACING 0.07

%BLOCK SPECIES_POT
QC5
%ENDBLOCK SPECIES_POT

SNAP_TO_SYMMETRY
SYMMETRY_GENERATE

