#              Generated by Buildcell
#
# at 21:57:27 (GMT+1.0) 18th August 2020
# in /lustre/scratch/uccabz1/launch_tmp
# on node-c12g-030
# by uccabz1
#
# compiler GCC version 4.9.2
# options -cpp -iprefix /lustre/shared/ucl/apps/gcc/4.9.2/bin/../lib/gcc/x86_64-unknown-linux-gnu/4.9.2/ -mtune=corei7 -march=x86-64 -g -Og
#
# seed  1048155373   111284701 -1205316547  -948496119  1195661469    51468112  -548364187   736522863  1712599680  -318688093 -1195203575  -949598787
#
#      Author: C. J. Pickard (cjp20@cam.ac.uk)
#                Space group: Cc
#

%BLOCK LATTICE_ABC
      5.54402      5.54402      6.60471
     88.61614     88.61614     80.29837
%ENDBLOCK LATTICE_ABC

%BLOCK POSITIONS_FRAC
  Li   0.3730898   0.0795962   0.2054761 SPIN=   0.00000
  Li   0.0795962   0.3730898  -0.2945239 SPIN=   0.00000
  Fe  -0.1813290   0.3419116   0.0972521 SPIN=   4.00000
  Fe   0.3419116  -0.1813290  -0.4027479 SPIN=   4.00000
   O   0.3710769  -0.5876778  -0.0444562 SPIN=   0.00000
   O   0.4459425  -0.3053644   0.2227793 SPIN=   0.00000
   O   0.0251540  -0.3784486   0.1643400 SPIN=   0.00000
   O   0.2315117  -0.1418052  -0.0884283 SPIN=   0.00000
   S   0.2684213  -0.3533240   0.0635587 SPIN=   0.00000
   O  -0.5876778   0.3710769  -0.5444562 SPIN=   0.00000
   O  -0.3053644   0.4459425  -0.2772207 SPIN=   0.00000
   O  -0.3784486   0.0251540  -0.3356600 SPIN=   0.00000
   O  -0.1418052   0.2315117  -0.5884283 SPIN=   0.00000
   S  -0.3533240   0.2684213  -0.4364413 SPIN=   0.00000
   F   0.0228280  -0.2942534  -0.4374846 SPIN=   0.00000
   F  -0.2942534   0.0228280   0.0625154 SPIN=   0.00000
%ENDBLOCK POSITIONS_FRAC

# Note: total spin =   8.00

KPOINTS_MP_SPACING 0.07

%BLOCK SPECIES_POT
QC5
%ENDBLOCK SPECIES_POT

SNAP_TO_SYMMETRY
SYMMETRY_GENERATE

