#              Generated by Buildcell
#
# at 03:33:50 (GMT+1.0) 4th August 2020
# in /lustre/scratch/uccabz1/launch_tmp
# on node-c12f-033
# by uccabz1
#
# compiler GCC version 4.9.2
# options -cpp -iprefix /lustre/shared/ucl/apps/gcc/4.9.2/bin/../lib/gcc/x86_64-unknown-linux-gnu/4.9.2/ -mtune=corei7 -march=x86-64 -g -Og
#
# seed -1384281865  1393724218   488362493  2053748652    47441272   208263790  -153540043  -791411425  -549493282  1679275896 -2121815529 -1817215924
#
#      Author: C. J. Pickard (cjp20@cam.ac.uk)
#                Space group: Cc
#

%BLOCK LATTICE_ABC
      4.15232      4.58044     11.81752
     88.46945     86.62174     63.04656
%ENDBLOCK LATTICE_ABC

%BLOCK POSITIONS_FRAC
  Li  -0.2931773   0.3161376   0.0448647 SPIN=   0.00000
  Li   0.0229603  -0.3161376  -0.4551353 SPIN=   0.00000
  Fe  -0.2611251   0.3104952   0.4012788 SPIN=   4.00000
  Fe   0.0493701  -0.3104952  -0.0987212 SPIN=   4.00000
   O   0.0459700  -0.1550645   0.0914571 SPIN=   0.00000
   O   0.1106321  -0.1862530   0.2988784 SPIN=   0.00000
   O   0.4034740  -0.6903972   0.1826413 SPIN=   0.00000
   O  -0.2628797  -0.4086234   0.2137730 SPIN=   0.00000
   S   0.0742991  -0.3600845   0.1966874 SPIN=   0.00000
   O  -0.1090945   0.1550645  -0.4085429 SPIN=   0.00000
   O  -0.0756208   0.1862530  -0.2011216 SPIN=   0.00000
   O  -0.2869232   0.6903972  -0.3173587 SPIN=   0.00000
   O  -0.6715031   0.4086234  -0.2862270 SPIN=   0.00000
   S  -0.2857854   0.3600845  -0.3033126 SPIN=   0.00000
   F   0.4732417   0.0421673   0.4370965 SPIN=   0.00000
   F  -0.4845910  -0.0421673  -0.0629035 SPIN=   0.00000
%ENDBLOCK POSITIONS_FRAC

# Note: total spin =   8.00

KPOINTS_MP_SPACING 0.07

%BLOCK SPECIES_POT
QC5
%ENDBLOCK SPECIES_POT

SNAP_TO_SYMMETRY
SYMMETRY_GENERATE

