#              Generated by Buildcell
#
# at 21:01:56 (GMT+1.0) 18th August 2020
# in /lustre/scratch/uccabz1/launch_tmp
# on node-c12i-026
# by uccabz1
#
# compiler GCC version 4.9.2
# options -cpp -iprefix /lustre/shared/ucl/apps/gcc/4.9.2/bin/../lib/gcc/x86_64-unknown-linux-gnu/4.9.2/ -mtune=corei7 -march=x86-64 -g -Og
#
# seed  2090592104 -1475575387 -1493734266  -958077538   101814509  1248336467  1789640143  -735740105  1382779276  1628447314   359062217  -321602987
#
#      Author: C. J. Pickard (cjp20@cam.ac.uk)
#                Space group: Pc
#

%BLOCK LATTICE_ABC
      3.99039      5.80618      8.64260
     90.00000     90.00000     92.80443
%ENDBLOCK LATTICE_ABC

%BLOCK POSITIONS_FRAC
  Li   0.0811807   0.2183945   0.2019993 SPIN=   0.00000
  Li  -0.4188193  -0.2816055  -0.2019993 SPIN=   0.00000
  Fe  -0.4315404   0.2173248  -0.0766636 SPIN=   4.00000
  Fe   0.0684596  -0.2826752   0.0766636 SPIN=   4.00000
   O  -0.5759176  -0.4008693   0.3149744 SPIN=   0.00000
   O  -0.5306773  -0.1660112   0.5537051 SPIN=   0.00000
   O  -0.5454860   0.0251409   0.2980161 SPIN=   0.00000
   O  -0.0450897  -0.1817316   0.3765299 SPIN=   0.00000
   S  -0.4242927  -0.1808678   0.3858064 SPIN=   0.00000
   O  -0.0759176   0.0991307  -0.3149744 SPIN=   0.00000
   O  -0.0306773   0.3339888  -0.5537051 SPIN=   0.00000
   O  -0.0454860   0.5251409  -0.2980161 SPIN=   0.00000
   O   0.4549103   0.3182684  -0.3765299 SPIN=   0.00000
   S   0.0757073   0.3191322  -0.3858064 SPIN=   0.00000
   F  -0.2236602   0.4181832   0.0970892 SPIN=   0.00000
   F   0.2763398  -0.0818168  -0.0970892 SPIN=   0.00000
%ENDBLOCK POSITIONS_FRAC

# Note: total spin =   8.00

KPOINTS_MP_SPACING 0.07

%BLOCK SPECIES_POT
QC5
%ENDBLOCK SPECIES_POT

SNAP_TO_SYMMETRY
SYMMETRY_GENERATE

