#              Generated by Buildcell
#
# at 03:00:52 (GMT+1.0) 19th August 2020
# in /lustre/scratch/uccabz1/launch_tmp
# on node-c12n-023
# by uccabz1
#
# compiler GCC version 4.9.2
# options -cpp -iprefix /lustre/shared/ucl/apps/gcc/4.9.2/bin/../lib/gcc/x86_64-unknown-linux-gnu/4.9.2/ -mtune=corei7 -march=x86-64 -g -Og
#
# seed  1235748811  -126974464  -554489292   992555093  -479997940   194730751  -485218453  1504639393  -834059239   102757015  -943773123  1884543194
#
#      Author: C. J. Pickard (cjp20@cam.ac.uk)
#                Space group: Pc
#

%BLOCK LATTICE_ABC
      3.95456      4.77955     10.76399
    100.56762     90.00000     90.00000
%ENDBLOCK LATTICE_ABC

%BLOCK POSITIONS_FRAC
  Li  -0.4936023  -0.3371040   0.0950113 SPIN=   0.00000
  Li   0.4936023  -0.3371040  -0.4049887 SPIN=   0.00000
  Fe  -0.0064407  -0.8519766  -0.3572234 SPIN=   4.00000
  Fe   0.0064407   0.1480234   0.1427766 SPIN=   4.00000
   O  -0.2113458   0.4964774   0.3950731 SPIN=   0.00000
   O   0.2982349   0.7966800   0.4448917 SPIN=   0.00000
   O  -0.2238866   1.0021489   0.3720430 SPIN=   0.00000
   O   0.1107509   0.6532750   0.2229727 SPIN=   0.00000
   S  -0.0065616   0.7371453   0.3587451 SPIN=   0.00000
   O   0.2113458  -0.5035226  -0.1049269 SPIN=   0.00000
   O  -0.2982349  -0.2033200  -0.0551083 SPIN=   0.00000
   O   0.2238866   0.0021489  -0.1279570 SPIN=   0.00000
   O  -0.1107509  -0.3467250  -0.2770273 SPIN=   0.00000
   S   0.0065616  -0.2628547  -0.1412549 SPIN=   0.00000
   F   0.4935492  -0.7388289  -0.4024557 SPIN=   0.00000
   F  -0.4935492   0.2611711   0.0975443 SPIN=   0.00000
%ENDBLOCK POSITIONS_FRAC

# Note: total spin =   8.00

KPOINTS_MP_SPACING 0.07

%BLOCK SPECIES_POT
QC5
%ENDBLOCK SPECIES_POT

SNAP_TO_SYMMETRY
SYMMETRY_GENERATE

