#              Generated by Buildcell
#
# at 03:40:26 (GMT+1.0) 4th August 2020
# in /lustre/scratch/uccabz1/launch_tmp
# on node-c12g-024
# by uccabz1
#
# compiler GCC version 4.9.2
# options -cpp -iprefix /lustre/shared/ucl/apps/gcc/4.9.2/bin/../lib/gcc/x86_64-unknown-linux-gnu/4.9.2/ -mtune=corei7 -march=x86-64 -g -Og
#
# seed   396632018 -1595377320    72925539  1415164133  1528444507  1466088676  1182639991   675662226   500715871   544990547   222939581  -806481556
#
#      Author: C. J. Pickard (cjp20@cam.ac.uk)
#                Space group: Cm
#

%BLOCK LATTICE_ABC
      6.13116      6.13116      6.68949
    111.13906    113.41012     99.96440
%ENDBLOCK LATTICE_ABC

%BLOCK POSITIONS_FRAC
  Li   0.1362964  -0.0506619   0.0856345 SPIN=   0.00000
  Li  -0.3856765   0.1059188  -0.2797577 SPIN=   0.00000
  Fe   0.1772660   0.4543158   0.1158868 SPIN=   4.00000
  Fe  -0.3384290  -0.0613791   0.1158868 SPIN=   4.00000
   O   0.1294705  -0.0057460  -0.5989320 SPIN=   0.00000
   O   0.2952899   0.2714560  -0.1541864 SPIN=   0.00000
   O   0.1470959  -0.1909509  -0.3222899 SPIN=   0.00000
   O  -0.1661298   0.0112271  -0.4322984 SPIN=   0.00000
   O  -0.5931859  -0.7284025  -0.5989320 SPIN=   0.00000
   O  -0.4256424  -0.4494763  -0.1541864 SPIN=   0.00000
   O  -0.1313390  -0.4693858  -0.3222899 SPIN=   0.00000
   O  -0.4435255  -0.2661686  -0.4322984 SPIN=   0.00000
   S   0.2673456   0.3173857  -0.4152687 SPIN=   0.00000
   S  -0.1528020  -0.2665622  -0.4193642 SPIN=   0.00000
   F  -0.2055106   0.2625527   0.0570421 SPIN=   0.00000
   F   0.3505847  -0.2267573   0.1238274 SPIN=   0.00000
%ENDBLOCK POSITIONS_FRAC

# Note: total spin =   8.00

KPOINTS_MP_SPACING 0.07

%BLOCK SPECIES_POT
QC5
%ENDBLOCK SPECIES_POT

SNAP_TO_SYMMETRY
SYMMETRY_GENERATE

