#              Generated by Buildcell
#
# at 01:39:28 (GMT+1.0) 19th August 2020
# in /lustre/scratch/uccabz1/launch_tmp
# on node-c12f-010
# by uccabz1
#
# compiler GCC version 4.9.2
# options -cpp -iprefix /lustre/shared/ucl/apps/gcc/4.9.2/bin/../lib/gcc/x86_64-unknown-linux-gnu/4.9.2/ -mtune=corei7 -march=x86-64 -g -Og
#
# seed   226747550  1346984663  -175766674  -898543898  -326567270   345810366   448937449   847273672  1933864513 -1064606506   797772427  1380084688
#
#      Author: C. J. Pickard (cjp20@cam.ac.uk)
#                Space group: Pmn21
#

%BLOCK LATTICE_ABC
      3.96169      6.43656      7.84325
     90.00000     90.00000     90.00000
%ENDBLOCK LATTICE_ABC

%BLOCK POSITIONS_FRAC
  Li   0.3480288   0.5000000  -0.1078408 SPIN=   0.00000
  Li  -0.3480288   0.0000000   0.3921592 SPIN=   0.00000
  Fe   0.2928319   0.5000000  -0.4915534 SPIN=   4.00000
  Fe  -0.2928319  -0.0000000   0.0084466 SPIN=   4.00000
   O   0.0276220   0.3092895   0.0335493 SPIN=   0.00000
   O   0.3037072   0.1857932  -0.2307392 SPIN=   0.00000
   O  -0.0276220   0.1907105   0.5335493 SPIN=   0.00000
   O  -0.3037072   0.3142068   0.2692608 SPIN=   0.00000
   O  -0.0276220  -0.1907105   0.5335493 SPIN=   0.00000
   O  -0.3037072  -0.3142068   0.2692608 SPIN=   0.00000
   O   0.0276220  -0.3092895   0.0335493 SPIN=   0.00000
   O   0.3037072  -0.1857932  -0.2307392 SPIN=   0.00000
   S  -0.1431717   0.5000000   0.1464690 SPIN=   0.00000
   S   0.1431717  -0.0000000  -0.3535310 SPIN=   0.00000
   F  -0.3512135   0.5000000  -0.3235826 SPIN=   0.00000
   F   0.3512135   0.0000000   0.1764174 SPIN=   0.00000
%ENDBLOCK POSITIONS_FRAC

# Note: total spin =   8.00

KPOINTS_MP_SPACING 0.07

%BLOCK SPECIES_POT
QC5
%ENDBLOCK SPECIES_POT

SNAP_TO_SYMMETRY
SYMMETRY_GENERATE

