#              Generated by Buildcell
#
# at 02:11:40 (GMT+1.0) 19th August 2020
# in /lustre/scratch/uccabz1/launch_tmp
# on node-c12i-026
# by uccabz1
#
# compiler GCC version 4.9.2
# options -cpp -iprefix /lustre/shared/ucl/apps/gcc/4.9.2/bin/../lib/gcc/x86_64-unknown-linux-gnu/4.9.2/ -mtune=corei7 -march=x86-64 -g -Og
#
# seed -1810681115   848839517  -428306016  1410513585  -415753789  -655297699   272875278  1374128917  -442912013  -999761911 -1692187929   -44149733
#
#      Author: C. J. Pickard (cjp20@cam.ac.uk)
#                Space group: Pm
#

%BLOCK LATTICE_ABC
      3.93407      6.20589      8.19536
     90.00000     90.00000     91.66760
%ENDBLOCK LATTICE_ABC

%BLOCK POSITIONS_FRAC
  Li  -0.3630366   0.2538413  -0.5000000 SPIN=   0.00000
  Li   0.1604439  -0.2548021   0.5000000 SPIN=   0.00000
  Fe   0.1683942   0.3919730   0.2273775 SPIN=   4.00000
  Fe   0.1683942   0.3919730  -0.2273775 SPIN=   4.00000
   O   0.0162473  -0.2385438   0.1407302 SPIN=   0.00000
   O  -0.5056653  -0.0253384   0.1382565 SPIN=   0.00000
   O  -0.0870869   0.0234993   0.3616073 SPIN=   0.00000
   O  -0.4378874  -0.3132224   0.3436832 SPIN=   0.00000
   S  -0.2535981  -0.1384013   0.2460693 SPIN=   0.00000
   O   0.0162473  -0.2385438  -0.1407302 SPIN=   0.00000
   O  -0.5056653  -0.0253384  -0.1382565 SPIN=   0.00000
   O  -0.0870869   0.0234993  -0.3616073 SPIN=   0.00000
   O  -0.4378874  -0.3132224  -0.3436832 SPIN=   0.00000
   S  -0.2535981  -0.1384013  -0.2460693 SPIN=   0.00000
   F   0.0689821   0.4265955  -0.5000000 SPIN=   0.00000
   F   0.3651953   0.4043097   0.0000000 SPIN=   0.00000
%ENDBLOCK POSITIONS_FRAC

# Note: total spin =   8.00

KPOINTS_MP_SPACING 0.07

%BLOCK SPECIES_POT
QC5
%ENDBLOCK SPECIES_POT

SNAP_TO_SYMMETRY
SYMMETRY_GENERATE

