#              Generated by Buildcell
#
# at 05:25:57 (GMT+1.0) 4th August 2020
# in /lustre/scratch/uccabz1/launch_tmp
# on node-c12n-034
# by uccabz1
#
# compiler GCC version 4.9.2
# options -cpp -iprefix /lustre/shared/ucl/apps/gcc/4.9.2/bin/../lib/gcc/x86_64-unknown-linux-gnu/4.9.2/ -mtune=corei7 -march=x86-64 -g -Og
#
# seed  -138242705 -1693294116  1335534600   534318016   913335946  2037329558  1857487781   593126778   678508198  1323305521 -1019056666  1157595371
#
#      Author: C. J. Pickard (cjp20@cam.ac.uk)
#                Space group: P21212
#

%BLOCK LATTICE_ABC
      4.23494      6.39792      7.38149
     90.00000     90.00000     90.00000
%ENDBLOCK LATTICE_ABC

%BLOCK POSITIONS_FRAC
  Li  -0.5000000  -0.0000000  -0.1510251 SPIN=   0.00000
  Li  -0.0000000   0.5000000   0.1510251 SPIN=   0.00000
  Fe  -0.0000000   0.5000000  -0.2617006 SPIN=   4.00000
  Fe  -0.5000000  -0.0000000   0.2617006 SPIN=   4.00000
   O  -0.1283375   0.1698973  -0.2431931 SPIN=   0.00000
   O   0.2829144   0.2739022  -0.4636856 SPIN=   0.00000
   O   0.1283375  -0.1698973  -0.2431931 SPIN=   0.00000
   O  -0.2829144  -0.2739022  -0.4636856 SPIN=   0.00000
   O  -0.6283375   0.3301027   0.2431931 SPIN=   0.00000
   O  -0.2170856   0.2260978   0.4636856 SPIN=   0.00000
   O   0.6283375  -0.3301027   0.2431931 SPIN=   0.00000
   O   0.2170856  -0.2260978   0.4636856 SPIN=   0.00000
   S  -0.0000000  -0.0000000  -0.3907856 SPIN=   0.00000
   S  -0.5000000   0.5000000   0.3907856 SPIN=   0.00000
   F  -0.0000000  -0.0000000   0.1064176 SPIN=   0.00000
   F  -0.5000000   0.5000000  -0.1064176 SPIN=   0.00000
%ENDBLOCK POSITIONS_FRAC

# Note: total spin =   8.00

KPOINTS_MP_SPACING 0.07

%BLOCK SPECIES_POT
QC5
%ENDBLOCK SPECIES_POT

SNAP_TO_SYMMETRY
SYMMETRY_GENERATE

