#              Generated by Buildcell
#
# at 02:53:25 (GMT+1.0) 4th August 2020
# in /lustre/scratch/uccabz1/launch_tmp
# on node-c12c-014
# by uccabz1
#
# compiler GCC version 4.9.2
# options -cpp -iprefix /lustre/shared/ucl/apps/gcc/4.9.2/bin/../lib/gcc/x86_64-unknown-linux-gnu/4.9.2/ -mtune=corei7 -march=x86-64 -g -Og
#
# seed   989846767 -2113469549   988866451  -200290897  1338557333 -1454056569  -809913362    -6949346 -1412882054 -1881975803 -1550481698  -183735156
#
#      Author: C. J. Pickard (cjp20@cam.ac.uk)
#                Space group: Pc
#

%BLOCK LATTICE_ABC
      5.15893      6.28634      6.37443
     90.00000    104.65766     90.00000
%ENDBLOCK LATTICE_ABC

%BLOCK POSITIONS_FRAC
  Li  -0.1948177  -0.1909088  -0.3815380 SPIN=   0.00000
  Li   0.3051823   0.1909088  -0.3815380 SPIN=   0.00000
  Fe  -0.0057371  -0.2005646   0.1941672 SPIN=   4.00000
  Fe   0.4942629   0.2005646   0.1941672 SPIN=   4.00000
   O   0.0635040   0.0884400  -0.1026025 SPIN=   0.00000
   O  -0.0149352   0.4153207  -0.3261460 SPIN=   0.00000
   O  -0.3133410   0.3274028  -0.0895478 SPIN=   0.00000
   O  -0.3301125   0.1126641  -0.4181263 SPIN=   0.00000
   S  -0.1487212   0.2359569  -0.2341057 SPIN=   0.00000
   O   0.5635040  -0.0884400  -0.1026025 SPIN=   0.00000
   O   0.4850648  -0.4153207  -0.3261460 SPIN=   0.00000
   O   0.1866590  -0.3274028  -0.0895478 SPIN=   0.00000
   O   0.1698875  -0.1126641  -0.4181263 SPIN=   0.00000
   S   0.3512788  -0.2359569  -0.2341057 SPIN=   0.00000
   F  -0.2804383  -0.3067025   0.3404618 SPIN=   0.00000
   F   0.2195617   0.3067025   0.3404618 SPIN=   0.00000
%ENDBLOCK POSITIONS_FRAC

# Note: total spin =   8.00

KPOINTS_MP_SPACING 0.07

%BLOCK SPECIES_POT
QC5
%ENDBLOCK SPECIES_POT

SNAP_TO_SYMMETRY
SYMMETRY_GENERATE

