#              Generated by Buildcell
#
# at 19:53:14 (GMT+1.0) 18th August 2020
# in /lustre/scratch/uccabz1/launch_tmp
# on node-c12l-020
# by uccabz1
#
# compiler GCC version 4.9.2
# options -cpp -iprefix /lustre/shared/ucl/apps/gcc/4.9.2/bin/../lib/gcc/x86_64-unknown-linux-gnu/4.9.2/ -mtune=corei7 -march=x86-64 -g -Og
#
# seed -1937179058  1892451526  1127769131 -1945230922 -2048411885 -1302710578   212267680 -1676797291  1391046019 -1868513091  -464332277  1134155029
#
#      Author: C. J. Pickard (cjp20@cam.ac.uk)
#                Space group: P-1
#

%BLOCK LATTICE_ABC
      4.25586      6.48088      7.75245
     82.22830     76.90731     74.43821
%ENDBLOCK LATTICE_ABC

%BLOCK POSITIONS_FRAC
  Li  -0.2784745   0.1619494  -0.2093578 SPIN=   0.00000
  Li   0.2784745  -0.1619494   0.2093578 SPIN=   0.00000
  Fe  -0.1759890  -0.2293124  -0.4354505 SPIN=   4.00000
  Fe   0.1759890   0.2293124   0.4354505 SPIN=   4.00000
   O  -0.4717880   0.3691473   0.2550873 SPIN=   0.00000
   O  -0.1829181   0.4271790  -0.0558884 SPIN=   0.00000
   O  -0.2878047   0.0711518   0.0578829 SPIN=   0.00000
   O   0.1285016   0.1990374   0.1634957 SPIN=   0.00000
   S  -0.2035023   0.2666289   0.1051444 SPIN=   0.00000
   O   0.4717880  -0.3691473  -0.2550873 SPIN=   0.00000
   O   0.1829181  -0.4271790   0.0558884 SPIN=   0.00000
   O   0.2878047  -0.0711518  -0.0578829 SPIN=   0.00000
   O  -0.1285016  -0.1990374  -0.1634957 SPIN=   0.00000
   S   0.2035023  -0.2666289  -0.1051444 SPIN=   0.00000
   F   0.3509228   0.2510637  -0.3413349 SPIN=   0.00000
   F  -0.3509228  -0.2510637   0.3413349 SPIN=   0.00000
%ENDBLOCK POSITIONS_FRAC

# Note: total spin =   8.00

KPOINTS_MP_SPACING 0.07

%BLOCK SPECIES_POT
QC5
%ENDBLOCK SPECIES_POT

SNAP_TO_SYMMETRY
SYMMETRY_GENERATE

