#              Generated by Buildcell
#
# at 02:46:34 (GMT+1.0) 4th August 2020
# in /lustre/scratch/uccabz1/launch_tmp
# on node-c12a-007
# by uccabz1
#
# compiler GCC version 4.9.2
# options -cpp -iprefix /lustre/shared/ucl/apps/gcc/4.9.2/bin/../lib/gcc/x86_64-unknown-linux-gnu/4.9.2/ -mtune=corei7 -march=x86-64 -g -Og
#
# seed  1273024388  1218733023   228587237   480148576 -1196985558  1506633619  1506549162  -167100249   -71714133  1731879067 -1790715828  1694100277
#
#      Author: C. J. Pickard (cjp20@cam.ac.uk)
#                Space group: Cm
#

%BLOCK LATTICE_ABC
      6.36982      6.36982      6.48777
     61.41610     61.41610     84.41960
%ENDBLOCK LATTICE_ABC

%BLOCK POSITIONS_FRAC
  Li  -0.2892909   0.1990190   0.3803022 SPIN=   0.00000
  Li  -0.8009810  -0.2892909   0.3803022 SPIN=   0.00000
  Fe  -0.2061740  -0.2061740  -0.1853778 SPIN=   7.87609
  Fe   0.4755452   0.4755452  -0.3204598 SPIN=   0.12391
   O  -0.3282368  -0.0582290   0.2754092 SPIN=   0.00000
   O  -0.6500275   0.0928046   0.5537517 SPIN=   0.00000
   O  -0.6747295   0.0682803   0.1963882 SPIN=   0.00000
   O  -0.3645010   0.3762125   0.0725856 SPIN=   0.00000
   O  -0.0582290   0.6717632   0.2754092 SPIN=   0.00000
   O   0.0928046   0.3499725   0.5537517 SPIN=   0.00000
   O   0.0682803   0.3252705   0.1963882 SPIN=   0.00000
   O   0.3762125   0.6354990   0.0725856 SPIN=   0.00000
   S  -0.6642206   0.3357794   0.3011247 SPIN=   0.00000
   S  -0.0205489  -0.0205489   0.1106896 SPIN=   0.00000
   F   0.1300344  -0.3391108  -0.2882370 SPIN=   0.00000
   F   0.6608892   0.1300344  -0.2882370 SPIN=   0.00000
%ENDBLOCK POSITIONS_FRAC

# Note: total spin =   8.00

KPOINTS_MP_SPACING 0.07

%BLOCK SPECIES_POT
QC5
%ENDBLOCK SPECIES_POT

SNAP_TO_SYMMETRY
SYMMETRY_GENERATE

