#              Generated by Buildcell
#
# at 04:39:36 (GMT+1.0) 4th August 2020
# in /lustre/scratch/uccabz1/launch_tmp
# on node-c12p-016
# by uccabz1
#
# compiler GCC version 4.9.2
# options -cpp -iprefix /lustre/shared/ucl/apps/gcc/4.9.2/bin/../lib/gcc/x86_64-unknown-linux-gnu/4.9.2/ -mtune=corei7 -march=x86-64 -g -Og
#
# seed -1800212267  -792533935  1875322130 -1822616642   284508125  1886539375  1679993566  1574562147  -165472315   770527978  -684183155  -477511480
#
#      Author: C. J. Pickard (cjp20@cam.ac.uk)
#                Space group: P2
#

%BLOCK LATTICE_ABC
      4.12780      5.51454      8.80037
     90.00000     93.25015     90.00000
%ENDBLOCK LATTICE_ABC

%BLOCK POSITIONS_FRAC
  Li  -0.4743429  -0.4091721  -0.2884655 SPIN=   0.00000
  Li   0.4743429  -0.4091721   0.2884655 SPIN=   0.00000
  Fe  -0.3129303   0.0905666   0.3095617 SPIN=   4.00000
  Fe   0.3129303   0.0905666  -0.3095617 SPIN=   4.00000
   O   0.1751946   0.1466201  -0.0972238 SPIN=   0.00000
   O  -0.3474540   0.3674491  -0.1052548 SPIN=   0.00000
   O  -0.0250880   0.3535677  -0.3337933 SPIN=   0.00000
   O   0.1687449   0.5949598  -0.1096247 SPIN=   0.00000
   O  -0.1751946   0.1466201   0.0972238 SPIN=   0.00000
   O   0.3474540   0.3674491   0.1052548 SPIN=   0.00000
   O   0.0250880   0.3535677   0.3337933 SPIN=   0.00000
   O  -0.1687449   0.5949598   0.1096247 SPIN=   0.00000
   S  -0.0000000   0.3811024  -0.0000000 SPIN=   0.00000
   S   0.0000000  -0.4201021  -0.5000000 SPIN=   0.00000
   F   0.3378401  -0.1135737   0.2066325 SPIN=   0.00000
   F  -0.3378401  -0.1135737  -0.2066325 SPIN=   0.00000
%ENDBLOCK POSITIONS_FRAC

# Note: total spin =   8.00

KPOINTS_MP_SPACING 0.07

%BLOCK SPECIES_POT
QC5
%ENDBLOCK SPECIES_POT

SNAP_TO_SYMMETRY
SYMMETRY_GENERATE

