#              Generated by Buildcell
#
# at 21:33:45 (GMT+1.0) 18th August 2020
# in /scratch/scratch/uccabz1/launch_tmp
# on node-k10c-028
# by uccabz1
#
# compiler GCC version 4.9.2
# options -cpp -iprefix /scratch/UCL/applications/gcc/4.9.2/bin/../lib/gcc/x86_64-unknown-linux-gnu/4.9.2/ -mtune=corei7 -march=x86-64 -g -O2
#
# seed  1413920300 -1447069668  -938413986  1240279919  -985242076 -1651350484  2093531149  1758820990  -191346061 -2134447671  1202565000 -1849386520
#
#      Author: C. J. Pickard (cjp20@cam.ac.uk)
#                Space group: P21
#

%BLOCK LATTICE_ABC
      4.74444      6.52211      6.80868
     90.00000    108.32696     90.00000
%ENDBLOCK LATTICE_ABC

%BLOCK POSITIONS_FRAC
  Li  -0.4720237   0.4157472  -0.1815929 SPIN=   0.00000
  Li   0.4720237  -0.0842528   0.1815929 SPIN=   0.00000
  Fe   0.1201611   0.3279888   0.1415093 SPIN=   4.00000
  Fe  -0.1201611  -0.1720112  -0.1415093 SPIN=   4.00000
   O   0.5381133  -0.1529209  -0.4839371 SPIN=   0.00000
   O   0.0102667  -0.1872533  -0.6951432 SPIN=   0.00000
   O   0.1422240  -0.0455534  -0.3405306 SPIN=   0.00000
   O   0.2213465  -0.4139202  -0.3929946 SPIN=   0.00000
   S   0.2279876  -0.1999120  -0.4781514 SPIN=   0.00000
   O  -0.5381133   0.3470791   0.4839371 SPIN=   0.00000
   O  -0.0102667   0.3127467   0.6951432 SPIN=   0.00000
   O  -0.1422240   0.4544466   0.3405306 SPIN=   0.00000
   O  -0.2213465   0.0860798   0.3929946 SPIN=   0.00000
   S  -0.2279876   0.3000880   0.4781514 SPIN=   0.00000
   F  -0.2634601   0.0761472  -0.0299755 SPIN=   0.00000
   F   0.2634601  -0.4238528   0.0299755 SPIN=   0.00000
%ENDBLOCK POSITIONS_FRAC

# Note: total spin =   8.00

KPOINTS_MP_SPACING 0.07

%BLOCK SPECIES_POT
QC5
%ENDBLOCK SPECIES_POT

SNAP_TO_SYMMETRY
SYMMETRY_GENERATE

