#              Generated by Buildcell
#
# at 04:12:49 (GMT+1.0) 4th August 2020
# in /lustre/scratch/uccabz1/launch_tmp
# on node-c12k-005
# by uccabz1
#
# compiler GCC version 4.9.2
# options -cpp -iprefix /lustre/shared/ucl/apps/gcc/4.9.2/bin/../lib/gcc/x86_64-unknown-linux-gnu/4.9.2/ -mtune=corei7 -march=x86-64 -g -Og
#
# seed -1540659311  1678955430 -1266729598  1803696467 -1766415094  -718599857 -1334810401   863394284  -356907901  1060222589  -268966658   137552566
#
#      Author: C. J. Pickard (cjp20@cam.ac.uk)
#                Space group: C2
#

%BLOCK LATTICE_ABC
      3.92545      6.52217      8.10620
     96.47108    104.01207     90.00000
%ENDBLOCK LATTICE_ABC

%BLOCK POSITIONS_FRAC
  Li   0.1593563   0.2415328   0.4406474 SPIN=   0.00000
  Li  -0.2812910  -0.2415328  -0.4406474 SPIN=   0.00000
  Fe  -0.1865696  -0.3111500   0.1914031 SPIN=   4.00000
  Fe  -0.3779727   0.3111500  -0.1914031 SPIN=   4.00000
   O   0.4833844   0.4649006   0.2290036 SPIN=   0.00000
   O  -0.0820114   0.2688044   0.1655083 SPIN=   0.00000
   O   0.4768906   0.0832863   0.2069468 SPIN=   0.00000
   O   0.2645450   0.2584527  -0.0527782 SPIN=   0.00000
   S   0.2857022   0.2688610   0.1371701 SPIN=   0.00000
   O   0.2543808  -0.4649006  -0.2290036 SPIN=   0.00000
   O  -0.2475197  -0.2688044  -0.1655083 SPIN=   0.00000
   O   0.2699438  -0.0832863  -0.2069468 SPIN=   0.00000
   O   0.3173232  -0.2584527   0.0527782 SPIN=   0.00000
   S   0.1485320  -0.2688610  -0.1371701 SPIN=   0.00000
   F   0.1929541  -0.2388507   0.4282171 SPIN=   0.00000
   F  -0.2352629   0.2388507  -0.4282171 SPIN=   0.00000
%ENDBLOCK POSITIONS_FRAC

# Note: total spin =   8.00

KPOINTS_MP_SPACING 0.07

%BLOCK SPECIES_POT
QC5
%ENDBLOCK SPECIES_POT

SNAP_TO_SYMMETRY
SYMMETRY_GENERATE

