#              Generated by Buildcell
#
# at 03:41:38 (GMT+1.0) 4th August 2020
# in /lustre/scratch/uccabz1/launch_tmp
# on node-c12k-002
# by uccabz1
#
# compiler GCC version 4.9.2
# options -cpp -iprefix /lustre/shared/ucl/apps/gcc/4.9.2/bin/../lib/gcc/x86_64-unknown-linux-gnu/4.9.2/ -mtune=corei7 -march=x86-64 -g -Og
#
# seed  1950976413    20302524   217343358  -471123415 -1278422914 -1072780746 -1265453145 -1148660279  1328645482   739175292  -615733272  1591959028
#
#      Author: C. J. Pickard (cjp20@cam.ac.uk)
#                Space group: Pmc21
#

%BLOCK LATTICE_ABC
      3.88706      6.59113      7.80636
     90.00000     90.00000     90.00000
%ENDBLOCK LATTICE_ABC

%BLOCK POSITIONS_FRAC
  Li   0.0024884   0.0000000  -0.1328707 SPIN=   0.00000
  Li  -0.0024884  -0.0000000   0.3671293 SPIN=   0.00000
  Fe  -0.3838257  -0.5000000   0.0783815 SPIN=   4.00000
  Fe   0.3838257  -0.5000000  -0.4216185 SPIN=   4.00000
   O   0.6689207   0.1949506  -0.3404842 SPIN=   0.00000
   O   0.1765209   0.2555457  -0.5348487 SPIN=   0.00000
   O  -0.6689207  -0.1949506   0.1595158 SPIN=   0.00000
   O  -0.1765209  -0.2555457  -0.0348487 SPIN=   0.00000
   O  -0.6689207   0.1949506   0.1595158 SPIN=   0.00000
   O  -0.1765209   0.2555457  -0.0348487 SPIN=   0.00000
   O   0.6689207  -0.1949506  -0.3404842 SPIN=   0.00000
   O   0.1765209  -0.2555457  -0.5348487 SPIN=   0.00000
   S  -0.4990821  -0.0000000  -0.3835268 SPIN=   0.00000
   S   0.4990821   0.0000000   0.1164732 SPIN=   0.00000
   F   0.3244975   0.5000000  -0.1686441 SPIN=   0.00000
   F  -0.3244975  -0.5000000   0.3313559 SPIN=   0.00000
%ENDBLOCK POSITIONS_FRAC

# Note: total spin =   8.00

KPOINTS_MP_SPACING 0.07

%BLOCK SPECIES_POT
QC5
%ENDBLOCK SPECIES_POT

SNAP_TO_SYMMETRY
SYMMETRY_GENERATE

