#              Generated by Buildcell
#
# at 03:42:58 (GMT+1.0) 4th August 2020
# in /lustre/scratch/uccabz1/launch_tmp
# on node-c12d-006
# by uccabz1
#
# compiler GCC version 4.9.2
# options -cpp -iprefix /lustre/shared/ucl/apps/gcc/4.9.2/bin/../lib/gcc/x86_64-unknown-linux-gnu/4.9.2/ -mtune=corei7 -march=x86-64 -g -Og
#
# seed  -223460097  1151613153  1861271211  2141678152   812225713  1743095893  -525106670    19753356  2078255943  -279430304   850868532 -1609423554
#
#      Author: C. J. Pickard (cjp20@cam.ac.uk)
#                Space group: Cm
#

%BLOCK LATTICE_ABC
      3.96402      7.59466      7.59466
     62.86453     80.96739     80.96739
%ENDBLOCK LATTICE_ABC

%BLOCK POSITIONS_FRAC
  Li  -0.1755232  -0.4429251  -0.4429251 SPIN=   0.00000
  Li  -0.3340752   0.2500487   0.2500487 SPIN=   0.00000
  Fe   0.3606713   0.1301852  -0.3245458 SPIN=   4.00000
  Fe   0.3606713  -0.3245458   0.1301852 SPIN=   4.00000
   O  -0.2174742   0.5173480  -0.1192763 SPIN=   0.00000
   O   0.1579459   0.2097011  -0.0735891 SPIN=   0.00000
   O   0.2399203   0.3976675   0.1079168 SPIN=   0.00000
   S   0.1431816   0.4152998  -0.0851772 SPIN=   0.00000
   O  -0.2174742  -0.1192763   0.5173480 SPIN=   0.00000
   O   0.1579459  -0.0735891   0.2097011 SPIN=   0.00000
   O   0.2399203   0.1079168   0.3976675 SPIN=   0.00000
   S   0.1431816  -0.0851772   0.4152998 SPIN=   0.00000
   O   0.2211901   0.4317098   0.4317098 SPIN=   0.00000
   O   0.2918250  -0.2595044  -0.2595044 SPIN=   0.00000
   F  -0.2175651  -0.3227810   0.1933666 SPIN=   0.00000
   F  -0.2175651   0.1933666  -0.3227810 SPIN=   0.00000
%ENDBLOCK POSITIONS_FRAC

# Note: total spin =   8.00

KPOINTS_MP_SPACING 0.07

%BLOCK SPECIES_POT
QC5
%ENDBLOCK SPECIES_POT

SNAP_TO_SYMMETRY
SYMMETRY_GENERATE

