#              Generated by Buildcell
#
# at 02:37:40 (GMT+1.0) 4th August 2020
# in /lustre/scratch/uccabz1/launch_tmp
# on node-c12a-005
# by uccabz1
#
# compiler GCC version 4.9.2
# options -cpp -iprefix /lustre/shared/ucl/apps/gcc/4.9.2/bin/../lib/gcc/x86_64-unknown-linux-gnu/4.9.2/ -mtune=corei7 -march=x86-64 -g -Og
#
# seed   -25193902 -1888143996  1814277651   694180506 -1064656918  2029531927  -923553214  1999605658  -405033646   238010456  -409563931  1116224754
#
#      Author: C. J. Pickard (cjp20@cam.ac.uk)
#                Space group: C2
#

%BLOCK LATTICE_ABC
      4.10768      5.25307      9.63422
    105.82055     90.59545     90.00000
%ENDBLOCK LATTICE_ABC

%BLOCK POSITIONS_FRAC
  Li  -0.2449524  -0.1992829   0.4252917 SPIN=   0.00000
  Li   0.2449524   0.3754253  -0.4252917 SPIN=   0.00000
  Fe  -0.2535168   0.3908354  -0.1653973 SPIN=   4.00000
  Fe   0.2535168  -0.4437672   0.1653973 SPIN=   4.00000
   O  -0.1137204   0.0896487   0.3377012 SPIN=   0.00000
   O  -0.1750629  -0.2367731   0.0991481 SPIN=   0.00000
   O  -0.1147586   0.2392425   0.1153315 SPIN=   0.00000
   O  -0.6231272   0.0737037   0.1960976 SPIN=   0.00000
   S  -0.2566673   0.0414555   0.1870696 SPIN=   0.00000
   O   0.1137204  -0.2480525  -0.3377012 SPIN=   0.00000
   O   0.1750629  -0.3359212  -0.0991481 SPIN=   0.00000
   O   0.1147586   0.1239111  -0.1153315 SPIN=   0.00000
   O   0.6231272  -0.1223939  -0.1960976 SPIN=   0.00000
   S   0.2566673  -0.1456141  -0.1870696 SPIN=   0.00000
   F   0.2470997  -0.4073500   0.3712120 SPIN=   0.00000
   F  -0.2470997   0.2214380  -0.3712120 SPIN=   0.00000
%ENDBLOCK POSITIONS_FRAC

# Note: total spin =   8.00

KPOINTS_MP_SPACING 0.07

%BLOCK SPECIES_POT
QC5
%ENDBLOCK SPECIES_POT

SNAP_TO_SYMMETRY
SYMMETRY_GENERATE

