#              Generated by Buildcell
#
# at 20:35:14 (GMT+1.0) 18th August 2020
# in /lustre/scratch/uccabz1/launch_tmp
# on node-c12g-001
# by uccabz1
#
# compiler GCC version 4.9.2
# options -cpp -iprefix /lustre/shared/ucl/apps/gcc/4.9.2/bin/../lib/gcc/x86_64-unknown-linux-gnu/4.9.2/ -mtune=corei7 -march=x86-64 -g -Og
#
# seed  -905380747 -1182316586   822717677 -1213314404 -2130761623  -793611958 -1797947553 -1013766937  -163914224  -266147767 -1950970947 -1276359720
#
#      Author: C. J. Pickard (cjp20@cam.ac.uk)
#                Space group: P21/m
#

%BLOCK LATTICE_ABC
      4.66483      5.08536      9.38757
     90.00000     90.00000    116.09209
%ENDBLOCK LATTICE_ABC

%BLOCK POSITIONS_FRAC
  Li   0.1285695   0.2677877   0.2500000 SPIN=   0.00000
  Li  -0.1285695  -0.2677877  -0.2500000 SPIN=   0.00000
  Fe  -0.4503393  -0.8957565  -0.2500000 SPIN=   4.00000
  Fe   0.4503393   0.8957565   0.2500000 SPIN=   4.00000
   O  -0.2403808   0.0964258  -0.0484779 SPIN=   0.00000
   O   0.2627351   0.4496349   0.0631768 SPIN=   0.00000
   O   0.2403808  -0.0964258  -0.5484779 SPIN=   0.00000
   O  -0.2627351  -0.4496349  -0.4368232 SPIN=   0.00000
   O   0.2403808  -0.0964258   0.0484779 SPIN=   0.00000
   O  -0.2627351  -0.4496349  -0.0631768 SPIN=   0.00000
   O  -0.2403808   0.0964258   0.5484779 SPIN=   0.00000
   O   0.2627351   0.4496349   0.4368232 SPIN=   0.00000
   S   0.0000000  -0.0000000  -0.0000000 SPIN=   0.00000
   S  -0.0000000   0.0000000  -0.5000000 SPIN=   0.00000
   F   0.3175140   0.6274866  -0.2500000 SPIN=   0.00000
   F  -0.3175140  -0.6274866   0.2500000 SPIN=   0.00000
%ENDBLOCK POSITIONS_FRAC

# Note: total spin =   8.00

KPOINTS_MP_SPACING 0.07

%BLOCK SPECIES_POT
QC5
%ENDBLOCK SPECIES_POT

SNAP_TO_SYMMETRY
SYMMETRY_GENERATE

