#              Generated by Buildcell
#
# at 05:16:01 (GMT+1.0) 4th August 2020
# in /lustre/scratch/uccabz1/launch_tmp
# on node-c12e-016
# by uccabz1
#
# compiler GCC version 4.9.2
# options -cpp -iprefix /lustre/shared/ucl/apps/gcc/4.9.2/bin/../lib/gcc/x86_64-unknown-linux-gnu/4.9.2/ -mtune=corei7 -march=x86-64 -g -Og
#
# seed  -718232525   -60800773  1705873033   424220421   852232231 -1977688781  -452800449 -1155738454  1620008321 -2041719536 -1765254235 -1357542354
#
#      Author: C. J. Pickard (cjp20@cam.ac.uk)
#                Space group: P2
#

%BLOCK LATTICE_ABC
      4.46600      6.32950      7.26259
    103.04177     90.00000     90.00000
%ENDBLOCK LATTICE_ABC

%BLOCK POSITIONS_FRAC
  Li  -0.1506984   0.0000000  -0.5000000 SPIN=   0.00000
  Li  -0.3484044  -0.0000000  -0.0000000 SPIN=   0.00000
  Fe   0.2602057  -0.2663230   0.2017567 SPIN=   4.00000
  Fe   0.2602057   0.2663230  -0.2017567 SPIN=   4.00000
   O   0.2127158   0.0774239   0.3257917 SPIN=   0.00000
   O   0.0350130   0.1928021   0.0409331 SPIN=   0.00000
   O   0.1522865   0.4677724   0.3325395 SPIN=   0.00000
   O  -0.2943975   0.2336919   0.3207955 SPIN=   0.00000
   S   0.0264045   0.2429226   0.2550150 SPIN=   0.00000
   O   0.2127158  -0.0774239  -0.3257917 SPIN=   0.00000
   O   0.0350130  -0.1928021  -0.0409331 SPIN=   0.00000
   O   0.1522865  -0.4677724  -0.3325395 SPIN=   0.00000
   O  -0.2943975  -0.2336919  -0.3207955 SPIN=   0.00000
   S   0.0264045  -0.2429226  -0.2550150 SPIN=   0.00000
   F  -0.3048823   0.2474907  -0.2723662 SPIN=   0.00000
   F  -0.3048823  -0.2474907   0.2723662 SPIN=   0.00000
%ENDBLOCK POSITIONS_FRAC

# Note: total spin =   8.00

KPOINTS_MP_SPACING 0.07

%BLOCK SPECIES_POT
QC5
%ENDBLOCK SPECIES_POT

SNAP_TO_SYMMETRY
SYMMETRY_GENERATE

