#              Generated by Buildcell
#
# at 03:55:43 (GMT+1.0) 4th August 2020
# in /lustre/scratch/uccabz1/launch_tmp
# on node-c12h-015
# by uccabz1
#
# compiler GCC version 4.9.2
# options -cpp -iprefix /lustre/shared/ucl/apps/gcc/4.9.2/bin/../lib/gcc/x86_64-unknown-linux-gnu/4.9.2/ -mtune=corei7 -march=x86-64 -g -Og
#
# seed   868281939 -2082094097   877945506  -237004006 -2052211522   128329897  2081454006   710498166 -1269966532   149106845 -1727544775  1528333546
#
#      Author: C. J. Pickard (cjp20@cam.ac.uk)
#                Space group: P-1
#

%BLOCK LATTICE_ABC
      3.81504      6.95068      7.72614
     96.00805     97.18521     97.49431
%ENDBLOCK LATTICE_ABC

%BLOCK POSITIONS_FRAC
  Li   0.0793995   0.1092027   0.3078440 SPIN=   0.00000
  Li  -0.0793995  -0.1092027  -0.3078440 SPIN=   0.00000
  Fe   0.3649742  -0.4648285  -0.2765612 SPIN=   4.00000
  Fe  -0.3649742   0.4648285   0.2765612 SPIN=   4.00000
   O   0.2704741  -0.4105188  -0.0048131 SPIN=   0.00000
   O   0.4682560  -0.0710796   0.1370904 SPIN=   0.00000
   O  -0.0172861  -0.2793560   0.2430439 SPIN=   0.00000
   O  -0.1231202  -0.1578947  -0.0461154 SPIN=   0.00000
   S   0.1495809  -0.2297123   0.0823014 SPIN=   0.00000
   O  -0.2704741   0.4105188   0.0048131 SPIN=   0.00000
   O  -0.4682560   0.0710796  -0.1370904 SPIN=   0.00000
   O   0.0172861   0.2793560  -0.2430439 SPIN=   0.00000
   O   0.1231202   0.1578947   0.0461154 SPIN=   0.00000
   S  -0.1495809   0.2297123  -0.0823014 SPIN=   0.00000
   F  -0.4106142   0.2336764   0.4225986 SPIN=   0.00000
   F   0.4106142  -0.2336764  -0.4225986 SPIN=   0.00000
%ENDBLOCK POSITIONS_FRAC

# Note: total spin =   8.00

KPOINTS_MP_SPACING 0.07

%BLOCK SPECIES_POT
QC5
%ENDBLOCK SPECIES_POT

SNAP_TO_SYMMETRY
SYMMETRY_GENERATE

