#              Generated by Buildcell
#
# at 00:48:21 (GMT+1.0) 19th August 2020
# in /scratch/scratch/uccabz1/launch_tmp
# on node-k10b-015
# by uccabz1
#
# compiler GCC version 4.9.2
# options -cpp -iprefix /scratch/UCL/applications/gcc/4.9.2/bin/../lib/gcc/x86_64-unknown-linux-gnu/4.9.2/ -mtune=corei7 -march=x86-64 -g -O2
#
# seed   983772940 -1299060683  1624308969  -235782382  -350715182 -1320509517  1373091924 -1385784674 -1045401881 -1669443956   -15212115 -1584743480
#
#      Author: C. J. Pickard (cjp20@cam.ac.uk)
#                Space group: C2/c
#

%BLOCK LATTICE_ABC
      4.70759      4.70759      9.30170
     84.97257     84.97257     77.52912
%ENDBLOCK LATTICE_ABC

%BLOCK POSITIONS_FRAC
  Li   0.4531642  -0.4531642  -0.2500000 SPIN=   0.00000
  Li  -0.4531642   0.4531642   0.2500000 SPIN=   0.00000
  Fe   0.0000000   0.5000000  -0.0000000 SPIN=   4.00000
  Fe  -0.5000000   0.0000000  -0.5000000 SPIN=   4.00000
   O   0.0913149  -0.0428271  -0.3870317 SPIN=   0.00000
   O  -0.4079803   0.0622182  -0.2684574 SPIN=   0.00000
   O   0.0428271  -0.0913149  -0.1129683 SPIN=   0.00000
   O  -0.0622182   0.4079803  -0.2315426 SPIN=   0.00000
   O  -0.0913149   0.0428271   0.3870317 SPIN=   0.00000
   O   0.4079803  -0.0622182   0.2684574 SPIN=   0.00000
   O  -0.0428271   0.0913149   0.1129683 SPIN=   0.00000
   O   0.0622182  -0.4079803   0.2315426 SPIN=   0.00000
   S   0.0606374  -0.0606374   0.2500000 SPIN=   0.00000
   S  -0.0606374   0.0606374  -0.2500000 SPIN=   0.00000
   F   0.5000000  -0.5000000   0.0000000 SPIN=   0.00000
   F   0.5000000  -0.5000000   0.5000000 SPIN=   0.00000
%ENDBLOCK POSITIONS_FRAC

# Note: total spin =   8.00

KPOINTS_MP_SPACING 0.07

%BLOCK SPECIES_POT
QC5
%ENDBLOCK SPECIES_POT

SNAP_TO_SYMMETRY
SYMMETRY_GENERATE

