#              Generated by Buildcell
#
# at 01:41:39 (GMT+1.0) 4th August 2020
# in /lustre/scratch/uccabz1/launch_tmp
# on node-c12l-018
# by uccabz1
#
# compiler GCC version 4.9.2
# options -cpp -iprefix /lustre/shared/ucl/apps/gcc/4.9.2/bin/../lib/gcc/x86_64-unknown-linux-gnu/4.9.2/ -mtune=corei7 -march=x86-64 -g -Og
#
# seed -1732060150   108727175   638229323   528625052   842491521 -2046261271  1171035396 -1020423574 -1972147727  -673103778  2043503435   -22184517
#
#      Author: C. J. Pickard (cjp20@cam.ac.uk)
#                Space group: Fdd2
#

%BLOCK LATTICE_ABC
      5.95192      5.95192      6.91344
    106.34342    106.34342    110.26085
%ENDBLOCK LATTICE_ABC

%BLOCK POSITIONS_FRAC
  Li  -0.0947448   0.0947448   0.0000000 SPIN=   0.00000
  Li   0.1552552  -0.1552552   0.5000000 SPIN=   0.00000
  Fe  -0.4903968   0.4903968   0.0000000 SPIN=   4.00000
  Fe  -0.2403968   0.2403968   0.5000000 SPIN=   4.00000
   O   0.2437057  -0.3634708   0.2612002 SPIN=   0.00000
   O   0.6045678  -0.4819324   0.3722194 SPIN=   0.00000
   O   0.3634708  -0.2437057  -0.2612002 SPIN=   0.00000
   O   0.4819324  -0.6045678  -0.3722194 SPIN=   0.00000
   O  -0.1253289  -0.2325055  -0.2387998 SPIN=   0.00000
   O   0.1041518  -0.4823484  -0.1277806 SPIN=   0.00000
   O   0.2325055   0.1253289   0.2387998 SPIN=   0.00000
   O   0.4823484  -0.1041518   0.1277806 SPIN=   0.00000
   S   0.1826324  -0.1826324   0.0000000 SPIN=   0.00000
   S   0.4326324  -0.4326324  -0.5000000 SPIN=   0.00000
   F  -0.3030583   0.3030583   0.0000000 SPIN=   0.00000
   F  -0.0530583   0.0530583  -0.5000000 SPIN=   0.00000
%ENDBLOCK POSITIONS_FRAC

# Note: total spin =   8.00

KPOINTS_MP_SPACING 0.07

%BLOCK SPECIES_POT
QC5
%ENDBLOCK SPECIES_POT

SNAP_TO_SYMMETRY
SYMMETRY_GENERATE

