#              Generated by Buildcell
#
# at 02:58:57 (GMT+1.0) 19th August 2020
# in /scratch/scratch/uccabz1/launch_tmp
# on node-k10f-025
# by uccabz1
#
# compiler GCC version 4.9.2
# options -cpp -iprefix /scratch/UCL/applications/gcc/4.9.2/bin/../lib/gcc/x86_64-unknown-linux-gnu/4.9.2/ -mtune=corei7 -march=x86-64 -g -O2
#
# seed    29882451   487129420  -862594997  -625828960 -1330715524  1574389270   865884954 -2129152298 -2007991582  -908008223  -679642297   933353625
#
#      Author: C. J. Pickard (cjp20@cam.ac.uk)
#                Space group: Cm
#

%BLOCK LATTICE_ABC
      4.00495      7.35442      7.94836
     62.44259     82.89688     74.49729
%ENDBLOCK LATTICE_ABC

%BLOCK POSITIONS_FRAC
  Li  -0.3229268   0.1784209   0.4185478 SPIN=   0.00000
  Li   0.6770732  -0.4030313  -0.4185478 SPIN=   0.00000
  Fe   0.2577714  -0.0396987   0.2617653 SPIN=   4.00000
  Fe   0.2577714   0.2220666  -0.2617653 SPIN=   4.00000
   O   0.0270922  -0.6588437   0.3017773 SPIN=   0.00000
   O   0.1795493  -0.4739904   0.4634009 SPIN=   0.00000
   O  -0.1486027  -0.2687364   0.1617315 SPIN=   0.00000
   O   0.4690742  -0.4494759   0.1624721 SPIN=   0.00000
   S   0.1317782  -0.4627616   0.2723455 SPIN=   0.00000
   O   0.0270922  -0.3570664  -0.3017773 SPIN=   0.00000
   O   0.1795493  -0.0105895  -0.4634009 SPIN=   0.00000
   O  -0.1486027  -0.1070048  -0.1617315 SPIN=   0.00000
   O   0.4690742  -0.2870039  -0.1624721 SPIN=   0.00000
   S   0.1317782  -0.1904161  -0.2723455 SPIN=   0.00000
   F  -0.2914992   0.0587515   0.2643404 SPIN=   0.00000
   F  -0.2914992   0.3230918  -0.2643404 SPIN=   0.00000
%ENDBLOCK POSITIONS_FRAC

# Note: total spin =   8.00

KPOINTS_MP_SPACING 0.07

%BLOCK SPECIES_POT
QC5
%ENDBLOCK SPECIES_POT

SNAP_TO_SYMMETRY
SYMMETRY_GENERATE

