#              Generated by Buildcell
#
# at 05:37:11 (GMT+1.0) 4th August 2020
# in /lustre/scratch/uccabz1/launch_tmp
# on node-c12d-005
# by uccabz1
#
# compiler GCC version 4.9.2
# options -cpp -iprefix /lustre/shared/ucl/apps/gcc/4.9.2/bin/../lib/gcc/x86_64-unknown-linux-gnu/4.9.2/ -mtune=corei7 -march=x86-64 -g -Og
#
# seed  1075050126  -428491151   127050689 -1080747277  -543254474  -370458487 -1325121169  1579450966  1398460265 -1235525895  -183788649 -1588486983
#
#      Author: C. J. Pickard (cjp20@cam.ac.uk)
#                Space group: P-1
#

%BLOCK LATTICE_ABC
      4.38225      6.54012      7.01253
     95.57767     90.96404     90.15858
%ENDBLOCK LATTICE_ABC

%BLOCK POSITIONS_FRAC
  Li   0.5000000   0.0000000   0.0000000 SPIN=   0.00000
  Li   0.5000000   0.5000000   0.5000000 SPIN=   0.00000
  Fe   0.1040540   0.2163791  -0.2636848 SPIN=   4.00000
  Fe  -0.1040540  -0.2163791   0.2636848 SPIN=   4.00000
   O   0.0867189   0.3262069   0.4688590 SPIN=   0.00000
   O  -0.0562886   0.4605352   0.1618461 SPIN=   0.00000
   O  -0.0822423   0.0869757   0.1918110 SPIN=   0.00000
   S   0.0918783   0.2837366   0.2525968 SPIN=   0.00000
   O  -0.0867189  -0.3262069  -0.4688590 SPIN=   0.00000
   O   0.0562886  -0.4605352  -0.1618461 SPIN=   0.00000
   O   0.0822423  -0.0869757  -0.1918110 SPIN=   0.00000
   S  -0.0918783  -0.2837366  -0.2525968 SPIN=   0.00000
   O   0.0000000   0.0000000  -0.5000000 SPIN=   0.00000
   O   0.5000000   0.0000000   0.5000000 SPIN=   0.00000
   F  -0.3940307   0.2339755  -0.1428141 SPIN=   0.00000
   F   0.3940307  -0.2339755   0.1428141 SPIN=   0.00000
%ENDBLOCK POSITIONS_FRAC

# Note: total spin =   8.00

KPOINTS_MP_SPACING 0.07

%BLOCK SPECIES_POT
QC5
%ENDBLOCK SPECIES_POT

SNAP_TO_SYMMETRY
SYMMETRY_GENERATE

