#              Generated by Buildcell
#
# at 04:00:00 (GMT+1.0) 4th August 2020
# in /lustre/scratch/uccabz1/launch_tmp
# on node-c12g-002
# by uccabz1
#
# compiler GCC version 4.9.2
# options -cpp -iprefix /lustre/shared/ucl/apps/gcc/4.9.2/bin/../lib/gcc/x86_64-unknown-linux-gnu/4.9.2/ -mtune=corei7 -march=x86-64 -g -Og
#
# seed -1653803004  1594701761  -764363568   251165979  1809900591  1220729354  1652626519 -1302717477  1537375027   576478986   711213569  -697224991
#
#      Author: C. J. Pickard (cjp20@cam.ac.uk)
#                Space group: C2
#

%BLOCK LATTICE_ABC
      5.69345      6.40651      6.47858
    119.63270    101.42129     90.00000
%ENDBLOCK LATTICE_ABC

%BLOCK POSITIONS_FRAC
  Li  -0.2649994   0.3135567   0.4077914 SPIN=   0.00000
  Li   0.2649994  -0.0942347  -0.4077914 SPIN=   0.00000
  Fe  -0.2028377  -0.3510936  -0.7931708 SPIN=   4.00000
  Fe   0.2028377   0.4420772   0.7931708 SPIN=   4.00000
   O   0.3001114   0.1157711   0.0690735 SPIN=   0.00000
   O   0.0545145  -0.0848488   0.2107708 SPIN=   0.00000
   O   0.3854939   0.2365829   0.5056216 SPIN=   0.00000
   O   0.4793628  -0.1621239   0.2022097 SPIN=   0.00000
   S   0.3048706   0.0263453   0.2469189 SPIN=   0.00000
   O  -0.3001114   0.0466976  -0.0690735 SPIN=   0.00000
   O  -0.0545145  -0.2956196  -0.2107708 SPIN=   0.00000
   O  -0.3854939  -0.2690386  -0.5056216 SPIN=   0.00000
   O  -0.4793628  -0.3643336  -0.2022097 SPIN=   0.00000
   S  -0.3048706  -0.2205735  -0.2469189 SPIN=   0.00000
   F   0.1294592  -0.4174103  -0.6390406 SPIN=   0.00000
   F  -0.1294592   0.2216303   0.6390406 SPIN=   0.00000
%ENDBLOCK POSITIONS_FRAC

# Note: total spin =   8.00

KPOINTS_MP_SPACING 0.07

%BLOCK SPECIES_POT
QC5
%ENDBLOCK SPECIES_POT

SNAP_TO_SYMMETRY
SYMMETRY_GENERATE

