#              Generated by Buildcell
#
# at 02:58:45 (GMT+1.0) 19th August 2020
# in /lustre/scratch/uccabz1/launch_tmp
# on node-c12m-029
# by uccabz1
#
# compiler GCC version 4.9.2
# options -cpp -iprefix /lustre/shared/ucl/apps/gcc/4.9.2/bin/../lib/gcc/x86_64-unknown-linux-gnu/4.9.2/ -mtune=corei7 -march=x86-64 -g -Og
#
# seed  1693592705  1375489019   407147960 -1825994891 -1749894364   854039582   680444214  1937739189 -1795610649  1500341200  2006444347  2047374713
#
#      Author: C. J. Pickard (cjp20@cam.ac.uk)
#                Space group: C2/c
#

%BLOCK LATTICE_ABC
      4.38977      4.38977     10.64299
     94.06966     94.06966    101.09312
%ENDBLOCK LATTICE_ABC

%BLOCK POSITIONS_FRAC
  Li   0.5000000   0.5000000   0.5000000 SPIN=   0.00000
  Li   0.5000000   0.5000000   0.0000000 SPIN=   0.00000
  Fe   0.3014777   0.6985223   0.2500000 SPIN=   4.00000
  Fe  -0.3014777  -0.6985223  -0.2500000 SPIN=   4.00000
   O   0.0257700  -0.6574173  -0.0918863 SPIN=   0.00000
   O   0.2658907  -0.0959800  -0.0644261 SPIN=   0.00000
   O  -0.3425827  -0.0257700  -0.4081137 SPIN=   0.00000
   O  -0.9040200  -0.2658907  -0.4355739 SPIN=   0.00000
   O  -0.0257700   0.6574173   0.0918863 SPIN=   0.00000
   O  -0.2658907   0.0959800   0.0644261 SPIN=   0.00000
   O   0.3425827   0.0257700   0.4081137 SPIN=   0.00000
   O   0.9040200   0.2658907   0.4355739 SPIN=   0.00000
   S   0.0000000   0.0000000   0.0000000 SPIN=   0.00000
   S   0.0000000  -0.0000000   0.5000000 SPIN=   0.00000
   F   0.5824606   0.4175394   0.2500000 SPIN=   0.00000
   F  -0.5824606  -0.4175394  -0.2500000 SPIN=   0.00000
%ENDBLOCK POSITIONS_FRAC

# Note: total spin =   8.00

KPOINTS_MP_SPACING 0.07

%BLOCK SPECIES_POT
QC5
%ENDBLOCK SPECIES_POT

SNAP_TO_SYMMETRY
SYMMETRY_GENERATE

