#              Generated by Buildcell
#
# at 01:33:26 (GMT+1.0) 19th August 2020
# in /lustre/scratch/uccabz1/launch_tmp
# on node-c12b-010
# by uccabz1
#
# compiler GCC version 4.9.2
# options -cpp -iprefix /lustre/shared/ucl/apps/gcc/4.9.2/bin/../lib/gcc/x86_64-unknown-linux-gnu/4.9.2/ -mtune=corei7 -march=x86-64 -g -Og
#
# seed -1175239278 -2120407842  -156409035   770347013   983753427   497904850  -883703946  1023067747 -1511770103  1954367739  -828527302   617870576
#
#      Author: C. J. Pickard (cjp20@cam.ac.uk)
#                Space group: P21
#

%BLOCK LATTICE_ABC
      4.26201      6.31617      7.53083
     90.00000     99.40832     90.00000
%ENDBLOCK LATTICE_ABC

%BLOCK POSITIONS_FRAC
  Li  -0.0733786  -0.2223149  -0.1602895 SPIN=   0.00000
  Li   0.0733786   0.2776851   0.1602895 SPIN=   0.00000
  Fe  -0.4323950  -0.3732957   0.1382113 SPIN=   4.00000
  Fe   0.4323950   0.1267043  -0.1382113 SPIN=   4.00000
   O  -0.2700158   0.2336294  -0.4735637 SPIN=   0.00000
   O  -0.2268141   0.6238898  -0.4863706 SPIN=   0.00000
   O   0.2224817   0.4122751  -0.3283107 SPIN=   0.00000
   O  -0.2720508   0.4472952  -0.1982815 SPIN=   0.00000
   S  -0.1365997   0.4292724  -0.3716316 SPIN=   0.00000
   O   0.2700158  -0.2663706   0.4735637 SPIN=   0.00000
   O   0.2268141   0.1238898   0.4863706 SPIN=   0.00000
   O  -0.2224817  -0.0877249   0.3283107 SPIN=   0.00000
   O   0.2720508  -0.0527048   0.1982815 SPIN=   0.00000
   S   0.1365997  -0.0707276   0.3716316 SPIN=   0.00000
   F   0.4180367  -0.1983473  -0.1823100 SPIN=   0.00000
   F  -0.4180367   0.3016527   0.1823100 SPIN=   0.00000
%ENDBLOCK POSITIONS_FRAC

# Note: total spin =   8.00

KPOINTS_MP_SPACING 0.07

%BLOCK SPECIES_POT
QC5
%ENDBLOCK SPECIES_POT

SNAP_TO_SYMMETRY
SYMMETRY_GENERATE

