#              Generated by Buildcell
#
# at 04:22:20 (GMT+1.0) 4th August 2020
# in /lustre/scratch/uccabz1/launch_tmp
# on node-c12c-002
# by uccabz1
#
# compiler GCC version 4.9.2
# options -cpp -iprefix /lustre/shared/ucl/apps/gcc/4.9.2/bin/../lib/gcc/x86_64-unknown-linux-gnu/4.9.2/ -mtune=corei7 -march=x86-64 -g -Og
#
# seed  1665000106 -1038029923  -617370404  1178868735   966326068   953433520 -1857689286   -26349469  1097475281   409090179  1940965071   775919318
#
#      Author: C. J. Pickard (cjp20@cam.ac.uk)
#                Space group: Cmc21
#

%BLOCK LATTICE_ABC
      3.95087      3.95087     13.73572
     90.00000     90.00000    111.12268
%ENDBLOCK LATTICE_ABC

%BLOCK POSITIONS_FRAC
  Li  -0.0066969  -0.0066969  -0.1001376 SPIN=   0.00000
  Li   0.0066969   0.0066969   0.3998624 SPIN=   0.00000
  Fe   0.4932827   0.4932827   0.0434223 SPIN=   4.00000
  Fe  -0.4932827  -0.4932827  -0.4565777 SPIN=   4.00000
   O  -0.2692598   0.0984004  -0.2572199 SPIN=   0.00000
   O  -0.3271701   0.3051697  -0.0900808 SPIN=   0.00000
   O   0.2692598  -0.0984004   0.2427801 SPIN=   0.00000
   O   0.3271701  -0.3051697   0.4099192 SPIN=   0.00000
   O  -0.0984004   0.2692598   0.2427801 SPIN=   0.00000
   O  -0.3051697   0.3271701   0.4099192 SPIN=   0.00000
   O   0.0984004  -0.2692598  -0.2572199 SPIN=   0.00000
   O   0.3051697  -0.3271701  -0.0900808 SPIN=   0.00000
   S  -0.4932886  -0.4932886   0.2842995 SPIN=   0.00000
   S   0.4932886   0.4932886  -0.2157005 SPIN=   0.00000
   F  -0.0334314  -0.0334314   0.0627299 SPIN=   0.00000
   F   0.0334314   0.0334314  -0.4372701 SPIN=   0.00000
%ENDBLOCK POSITIONS_FRAC

# Note: total spin =   8.00

KPOINTS_MP_SPACING 0.07

%BLOCK SPECIES_POT
QC5
%ENDBLOCK SPECIES_POT

SNAP_TO_SYMMETRY
SYMMETRY_GENERATE

