#              Generated by Buildcell
#
# at 03:01:10 (GMT+1.0) 19th August 2020
# in /lustre/scratch/uccabz1/launch_tmp
# on node-c12n-011
# by uccabz1
#
# compiler GCC version 4.9.2
# options -cpp -iprefix /lustre/shared/ucl/apps/gcc/4.9.2/bin/../lib/gcc/x86_64-unknown-linux-gnu/4.9.2/ -mtune=corei7 -march=x86-64 -g -Og
#
# seed  1640281749 -1818983504   811560963 -1272123654 -2042156271 -1983618459  -520217517  1059873055 -2101486612   304149426  -827691656  1661550444
#
#      Author: C. J. Pickard (cjp20@cam.ac.uk)
#                Space group: P2
#

%BLOCK LATTICE_ABC
      4.05207      6.49827      7.84211
     90.00000    104.40742     90.00000
%ENDBLOCK LATTICE_ABC

%BLOCK POSITIONS_FRAC
  Li  -0.1280885   0.4252842  -0.2674969 SPIN=   0.00000
  Li   0.1280885   0.4252842   0.2674969 SPIN=   0.00000
  Fe   0.5000000  -0.2608757   0.5000000 SPIN=   0.26515
  Fe   0.5000000   0.3589897  -0.0000000 SPIN=   7.73485
   O  -0.0989218  -0.0918664  -0.3621463 SPIN=   0.00000
   O  -0.3574353  -0.0541038  -0.1092376 SPIN=   0.00000
   O  -0.4710218   0.2061175  -0.3471527 SPIN=   0.00000
   O   0.1009116   0.1828521  -0.1421019 SPIN=   0.00000
   O   0.0989218  -0.0918664   0.3621463 SPIN=   0.00000
   O   0.3574353  -0.0541038   0.1092376 SPIN=   0.00000
   O   0.4710218   0.2061175   0.3471527 SPIN=   0.00000
   O  -0.1009116   0.1828521   0.1421019 SPIN=   0.00000
   S  -0.0000000   0.1319461   0.5000000 SPIN=   0.00000
   S   0.0000000  -0.0377332   0.0000000 SPIN=   0.00000
   F   0.6349914  -0.3960129   0.2674568 SPIN=   0.00000
   F  -0.6349914  -0.3960129  -0.2674568 SPIN=   0.00000
%ENDBLOCK POSITIONS_FRAC

# Note: total spin =   8.00

KPOINTS_MP_SPACING 0.07

%BLOCK SPECIES_POT
QC5
%ENDBLOCK SPECIES_POT

SNAP_TO_SYMMETRY
SYMMETRY_GENERATE

