#              Generated by Buildcell
#
# at 21:58:19 (GMT+1.0) 18th August 2020
# in /lustre/scratch/uccabz1/launch_tmp
# on node-c12g-030
# by uccabz1
#
# compiler GCC version 4.9.2
# options -cpp -iprefix /lustre/shared/ucl/apps/gcc/4.9.2/bin/../lib/gcc/x86_64-unknown-linux-gnu/4.9.2/ -mtune=corei7 -march=x86-64 -g -Og
#
# seed  1674314579  -402152494  1712477659  -896347409 -1844398443 -1985071079  1275466410 -1368022368 -2129951746  1270539818 -1444122045   763403067
#
#      Author: C. J. Pickard (cjp20@cam.ac.uk)
#                Space group: P-1
#

%BLOCK LATTICE_ABC
      5.30571      5.83338      6.98349
     76.21591     74.84757     77.73154
%ENDBLOCK LATTICE_ABC

%BLOCK POSITIONS_FRAC
  Li   0.0000000   0.5000000   0.0000000 SPIN=   0.00000
  Li   0.0000000   0.0000000   0.5000000 SPIN=   0.00000
  Fe   0.3563897   0.0694361  -0.2332559 SPIN=   4.00000
  Fe  -0.3563897  -0.0694361   0.2332559 SPIN=   4.00000
   O  -0.5346188  -0.5889565  -0.3274957 SPIN=   0.00000
   O  -0.1310656  -0.6582840  -0.1933852 SPIN=   0.00000
   O  -0.4643868  -0.2959262  -0.1497562 SPIN=   0.00000
   O  -0.1873703  -0.3357365  -0.4890488 SPIN=   0.00000
   S  -0.3293604  -0.4697258  -0.2899214 SPIN=   0.00000
   O   0.5346188   0.5889565   0.3274957 SPIN=   0.00000
   O   0.1310656   0.6582840   0.1933852 SPIN=   0.00000
   O   0.4643868   0.2959262   0.1497562 SPIN=   0.00000
   O   0.1873703   0.3357365   0.4890488 SPIN=   0.00000
   S   0.3293604   0.4697258   0.2899214 SPIN=   0.00000
   F  -0.0659012   0.1046737   0.2334728 SPIN=   0.00000
   F   0.0659012  -0.1046737  -0.2334728 SPIN=   0.00000
%ENDBLOCK POSITIONS_FRAC

# Note: total spin =   8.00

KPOINTS_MP_SPACING 0.07

%BLOCK SPECIES_POT
QC5
%ENDBLOCK SPECIES_POT

SNAP_TO_SYMMETRY
SYMMETRY_GENERATE

