#              Generated by Buildcell
#
# at 01:54:47 (GMT+1.0) 19th August 2020
# in /lustre/scratch/uccabz1/launch_tmp
# on node-c12j-002
# by uccabz1
#
# compiler GCC version 4.9.2
# options -cpp -iprefix /lustre/shared/ucl/apps/gcc/4.9.2/bin/../lib/gcc/x86_64-unknown-linux-gnu/4.9.2/ -mtune=corei7 -march=x86-64 -g -Og
#
# seed -1040334561   321772462   909168769  1555232216   646816816  -359234828  -868262160   996213374  -718350349  -976055707  -205250889  1860086137
#
#      Author: C. J. Pickard (cjp20@cam.ac.uk)
#                Space group: Pc
#

%BLOCK LATTICE_ABC
      4.83060      5.70513      7.56469
     90.00000     90.00000    106.39485
%ENDBLOCK LATTICE_ABC

%BLOCK POSITIONS_FRAC
  Li   0.2948289  -0.2440560  -0.3296696 SPIN=   0.00000
  Li  -0.2051711   0.2559440   0.3296696 SPIN=   0.00000
  Fe   0.0386856  -0.2138870   0.3244555 SPIN=   4.00000
  Fe  -0.4613144   0.2861130  -0.3244555 SPIN=   4.00000
   O   0.1467926  -0.0542599  -0.1419822 SPIN=   0.00000
   O  -0.2716362  -0.4208103  -0.1722524 SPIN=   0.00000
   O  -0.2998507  -0.0222940  -0.2876694 SPIN=   0.00000
   O  -0.2942311  -0.0912253   0.0351522 SPIN=   0.00000
   S  -0.1797314  -0.1471474  -0.1416880 SPIN=   0.00000
   O   0.6467926   0.4457401   0.1419822 SPIN=   0.00000
   O   0.2283638   0.0791897   0.1722524 SPIN=   0.00000
   O   0.2001493   0.4777060   0.2876694 SPIN=   0.00000
   O   0.2057689   0.4087747  -0.0351522 SPIN=   0.00000
   S   0.3202686   0.3528526   0.1416880 SPIN=   0.00000
   F  -0.3641770  -0.0717348   0.3763987 SPIN=   0.00000
   F   0.1358230   0.4282652  -0.3763987 SPIN=   0.00000
%ENDBLOCK POSITIONS_FRAC

# Note: total spin =   8.00

KPOINTS_MP_SPACING 0.07

%BLOCK SPECIES_POT
QC5
%ENDBLOCK SPECIES_POT

SNAP_TO_SYMMETRY
SYMMETRY_GENERATE

