#              Generated by Buildcell
#
# at 05:06:44 (GMT+1.0) 4th August 2020
# in /lustre/scratch/uccabz1/launch_tmp
# on node-c12d-036
# by uccabz1
#
# compiler GCC version 4.9.2
# options -cpp -iprefix /lustre/shared/ucl/apps/gcc/4.9.2/bin/../lib/gcc/x86_64-unknown-linux-gnu/4.9.2/ -mtune=corei7 -march=x86-64 -g -Og
#
# seed   115016750  2113762788  -595807344  -381034058 -1053111613   377041164   719999897  -901659753  -608820462  1540967553  1774542785   289607862
#
#      Author: C. J. Pickard (cjp20@cam.ac.uk)
#                Space group: P21
#

%BLOCK LATTICE_ABC
      5.44677      6.16562      6.47069
     90.00000    113.01934     90.00000
%ENDBLOCK LATTICE_ABC

%BLOCK POSITIONS_FRAC
  Li  -0.3481093  -0.3252800   0.4637385 SPIN=   0.00000
  Li   0.3481093   0.1747200  -0.4637385 SPIN=   0.00000
  Fe  -0.2568031   0.4577721   0.0428192 SPIN=   4.00000
  Fe   0.2568031  -0.0422279  -0.0428192 SPIN=   4.00000
   O   0.0488889   0.4997436  -0.5334281 SPIN=   0.00000
   O   0.3513618   0.3268359  -0.1804305 SPIN=   0.00000
   O  -0.1376977   0.3034429  -0.2941721 SPIN=   0.00000
   O   0.0943071   0.6537252  -0.1670220 SPIN=   0.00000
   S   0.0892150   0.4459369  -0.2937632 SPIN=   0.00000
   O  -0.0488889  -0.0002564   0.5334281 SPIN=   0.00000
   O  -0.3513618  -0.1731641   0.1804305 SPIN=   0.00000
   O   0.1376977  -0.1965571   0.2941721 SPIN=   0.00000
   O  -0.0943071   0.1537252   0.1670220 SPIN=   0.00000
   S  -0.0892150  -0.0540631   0.2937632 SPIN=   0.00000
   F  -0.4157053  -0.1636082  -0.3043708 SPIN=   0.00000
   F   0.4157053   0.3363918   0.3043708 SPIN=   0.00000
%ENDBLOCK POSITIONS_FRAC

# Note: total spin =   8.00

KPOINTS_MP_SPACING 0.07

%BLOCK SPECIES_POT
QC5
%ENDBLOCK SPECIES_POT

SNAP_TO_SYMMETRY
SYMMETRY_GENERATE

