#              Generated by Buildcell
#
# at 03:04:18 (GMT+1.0) 4th August 2020
# in /lustre/scratch/uccabz1/launch_tmp
# on node-c12d-036
# by uccabz1
#
# compiler GCC version 4.9.2
# options -cpp -iprefix /lustre/shared/ucl/apps/gcc/4.9.2/bin/../lib/gcc/x86_64-unknown-linux-gnu/4.9.2/ -mtune=corei7 -march=x86-64 -g -Og
#
# seed -1428616315  1510739654  -169063707 -1448366967    19272569 -1415464004 -1001632730  -846109286  1329307907  1062974958  -495612912  -835838913
#
#      Author: C. J. Pickard (cjp20@cam.ac.uk)
#                Space group: Pnc2
#

%BLOCK LATTICE_ABC
      5.12663      5.84037      6.67971
     90.00000     90.00000     90.00000
%ENDBLOCK LATTICE_ABC

%BLOCK POSITIONS_FRAC
  Li  -0.5000000  -0.0000000   0.2440169 SPIN=   0.00000
  Li  -0.5000000   0.5000000  -0.2559831 SPIN=   0.00000
  Fe  -0.5000000  -0.0000000  -0.3062128 SPIN=   4.00000
  Fe  -0.5000000   0.5000000   0.1937872 SPIN=   4.00000
   O   0.2579329   0.4079970  -0.0455942 SPIN=   0.00000
   O  -0.1457646   0.2865500  -0.2188040 SPIN=   0.00000
   O  -0.2579329  -0.4079970  -0.0455942 SPIN=   0.00000
   O   0.1457646  -0.2865500  -0.2188040 SPIN=   0.00000
   O   0.2579329   0.0920030   0.4544058 SPIN=   0.00000
   O  -0.1457646   0.2134500   0.2811960 SPIN=   0.00000
   O  -0.2579329  -0.0920030   0.4544058 SPIN=   0.00000
   O   0.1457646  -0.2134500   0.2811960 SPIN=   0.00000
   S   0.0000000  -0.0000000   0.3957599 SPIN=   0.00000
   S   0.0000000  -0.5000000  -0.1042401 SPIN=   0.00000
   F   0.5000000  -0.0000000  -0.0355728 SPIN=   0.00000
   F   0.5000000  -0.5000000   0.4644272 SPIN=   0.00000
%ENDBLOCK POSITIONS_FRAC

# Note: total spin =   8.00

KPOINTS_MP_SPACING 0.07

%BLOCK SPECIES_POT
QC5
%ENDBLOCK SPECIES_POT

SNAP_TO_SYMMETRY
SYMMETRY_GENERATE

