#              Generated by Buildcell
#
# at 05:26:19 (GMT+1.0) 4th August 2020
# in /lustre/scratch/uccabz1/launch_tmp
# on node-c12e-012
# by uccabz1
#
# compiler GCC version 4.9.2
# options -cpp -iprefix /lustre/shared/ucl/apps/gcc/4.9.2/bin/../lib/gcc/x86_64-unknown-linux-gnu/4.9.2/ -mtune=corei7 -march=x86-64 -g -Og
#
# seed   172142092  1069348680    36470831  -439236871  -526231428  -688329318  -433002564 -1026338453   272740979  -474186632 -1440863974 -1889000718
#
#      Author: C. J. Pickard (cjp20@cam.ac.uk)
#                Space group: Pm
#

%BLOCK LATTICE_ABC
      3.84917      6.30786      8.34209
     90.00000     90.00000     98.77727
%ENDBLOCK LATTICE_ABC

%BLOCK POSITIONS_FRAC
  Li  -0.3599540  -0.4922232  -0.5000000 SPIN=   0.00000
  Li   0.0291220   0.0410688  -0.5000000 SPIN=   0.00000
  Fe  -0.0959346  -0.2389680   0.2175203 SPIN=   4.00000
  Fe  -0.0959346  -0.2389680  -0.2175203 SPIN=   4.00000
   O   0.0187932   0.1527345  -0.1371352 SPIN=   0.00000
   O   0.4466990   0.1907651  -0.3606016 SPIN=   0.00000
   O   0.5163081   0.4518735  -0.1371351 SPIN=   0.00000
   O   0.0295603   0.4504785  -0.3311560 SPIN=   0.00000
   S   0.2528402   0.3114629  -0.2415070 SPIN=   0.00000
   O   0.0187932   0.1527345   0.1371352 SPIN=   0.00000
   O   0.4466990   0.1907651   0.3606016 SPIN=   0.00000
   O   0.5163081   0.4518735   0.1371351 SPIN=   0.00000
   O   0.0295603   0.4504785   0.3311560 SPIN=   0.00000
   S   0.2528402   0.3114629   0.2415070 SPIN=   0.00000
   F   0.2218870  -0.1977512  -0.0000000 SPIN=   0.00000
   F  -0.4367002  -0.1742524  -0.5000000 SPIN=   0.00000
%ENDBLOCK POSITIONS_FRAC

# Note: total spin =   8.00

KPOINTS_MP_SPACING 0.07

%BLOCK SPECIES_POT
QC5
%ENDBLOCK SPECIES_POT

SNAP_TO_SYMMETRY
SYMMETRY_GENERATE

