#              Generated by Buildcell
#
# at 03:30:23 (GMT+1.0) 4th August 2020
# in /lustre/scratch/uccabz1/launch_tmp
# on node-c12d-009
# by uccabz1
#
# compiler GCC version 4.9.2
# options -cpp -iprefix /lustre/shared/ucl/apps/gcc/4.9.2/bin/../lib/gcc/x86_64-unknown-linux-gnu/4.9.2/ -mtune=corei7 -march=x86-64 -g -Og
#
# seed  1440463331  1530822831  2018433897  -753201135 -1804987026 -1820822451  1043089116    44496823  -897373405  -515739240 -1835847729   808202858
#
#      Author: C. J. Pickard (cjp20@cam.ac.uk)
#                Space group: Cc
#

%BLOCK LATTICE_ABC
      4.75271      5.92487      7.75561
     91.24242     90.00000    113.64577
%ENDBLOCK LATTICE_ABC

%BLOCK POSITIONS_FRAC
  Li  -0.2346655   0.4436713  -0.0576632 SPIN=   0.00000
  Li  -0.3216632   0.4436713   0.4423368 SPIN=   0.00000
  Fe   0.2971398  -0.4935980  -0.2731238 SPIN=   4.00000
  Fe   0.2092622  -0.4935980   0.2268762 SPIN=   4.00000
   O   0.1839078  -0.1665480   0.3916720 SPIN=   0.00000
   O  -0.2493060  -0.1613387   0.5663667 SPIN=   0.00000
   O  -0.1876983  -0.0183331   0.2657781 SPIN=   0.00000
   O   0.1782665   0.2307623   0.4925532 SPIN=   0.00000
   S  -0.0187075  -0.0288644   0.4290925 SPIN=   0.00000
   O  -0.3504558  -0.1665480  -0.1083280 SPIN=   0.00000
   O   0.0879673  -0.1613387   0.0663667 SPIN=   0.00000
   O   0.1693652  -0.0183331  -0.2342219 SPIN=   0.00000
   O   0.0524958   0.2307623  -0.0074468 SPIN=   0.00000
   S  -0.0101569  -0.0288644  -0.0709075 SPIN=   0.00000
   F  -0.3513181   0.3816891   0.1888295 SPIN=   0.00000
   F  -0.2669928   0.3816891  -0.3111705 SPIN=   0.00000
%ENDBLOCK POSITIONS_FRAC

# Note: total spin =   8.00

KPOINTS_MP_SPACING 0.07

%BLOCK SPECIES_POT
QC5
%ENDBLOCK SPECIES_POT

SNAP_TO_SYMMETRY
SYMMETRY_GENERATE

