#              Generated by Buildcell
#
# at 00:51:28 (GMT+1.0) 19th August 2020
# in /lustre/scratch/uccabz1/launch_tmp
# on node-c12a-016
# by uccabz1
#
# compiler GCC version 4.9.2
# options -cpp -iprefix /lustre/shared/ucl/apps/gcc/4.9.2/bin/../lib/gcc/x86_64-unknown-linux-gnu/4.9.2/ -mtune=corei7 -march=x86-64 -g -Og
#
# seed  1510387869 -1351918347 -1607656092   265117550   633698209   -41670339   548299509 -1732101510  -631250761  2139682957   140372620  1031986462
#
#      Author: C. J. Pickard (cjp20@cam.ac.uk)
#                Space group: Cc
#

%BLOCK LATTICE_ABC
      4.76984      5.81109      7.98462
     86.84768     82.29977     65.76953
%ENDBLOCK LATTICE_ABC

%BLOCK POSITIONS_FRAC
  Li  -0.1209754   0.3841654  -0.2117899 SPIN=   0.00000
  Li  -0.2368100  -0.3841654   0.2882101 SPIN=   0.00000
  Fe  -0.4462837  -0.0960974  -0.0582007 SPIN=   4.00000
  Fe  -0.0423810   0.0960974   0.4417993 SPIN=   4.00000
   O   0.6545248  -0.5252059  -0.4571817 SPIN=   0.00000
   O   0.2222880  -0.6619043  -0.4218629 SPIN=   0.00000
   O   0.1147384  -0.2109147  -0.3911574 SPIN=   0.00000
   O   0.3684303  -0.5190153  -0.1737846 SPIN=   0.00000
   S   0.3399954  -0.4792601  -0.3609967 SPIN=   0.00000
   O   0.6293190   0.5252059   0.0428183 SPIN=   0.00000
   O   0.0603837   0.6619043   0.0781371 SPIN=   0.00000
   O   0.4038237   0.2109147   0.1088426 SPIN=   0.00000
   O   0.3494150   0.5190153   0.3262154 SPIN=   0.00000
   S   0.3607354   0.4792601   0.1390033 SPIN=   0.00000
   F  -0.3158316  -0.0802779   0.4036859 SPIN=   0.00000
   F   0.1038905   0.0802779  -0.0963141 SPIN=   0.00000
%ENDBLOCK POSITIONS_FRAC

# Note: total spin =   8.00

KPOINTS_MP_SPACING 0.07

%BLOCK SPECIES_POT
QC5
%ENDBLOCK SPECIES_POT

SNAP_TO_SYMMETRY
SYMMETRY_GENERATE

