#              Generated by Buildcell
#
# at 00:05:49 (GMT+1.0) 19th August 2020
# in /lustre/scratch/uccabz1/launch_tmp
# on node-c12f-006
# by uccabz1
#
# compiler GCC version 4.9.2
# options -cpp -iprefix /lustre/shared/ucl/apps/gcc/4.9.2/bin/../lib/gcc/x86_64-unknown-linux-gnu/4.9.2/ -mtune=corei7 -march=x86-64 -g -Og
#
# seed -2013263889  -408383158    39750793  -506544344  1010944177  1424035910   340245311 -1632341472    -9184419  1674049780  -924250797 -1194535388
#
#      Author: C. J. Pickard (cjp20@cam.ac.uk)
#                Space group: P2
#

%BLOCK LATTICE_ABC
      4.23652      6.38661      7.39182
     90.00000     90.00000     90.12579
%ENDBLOCK LATTICE_ABC

%BLOCK POSITIONS_FRAC
  Li   0.0000000   0.5000000  -0.0558888 SPIN=   0.00000
  Li  -0.5000000   0.0000000   0.0168665 SPIN=   0.00000
  Fe   0.5000000  -0.5000000   0.2189521 SPIN=   4.02480
  Fe  -0.0000000   0.0000000   0.2916940 SPIN=   3.97520
   O  -0.2334437   0.0913892  -0.4637550 SPIN=   0.00000
   O  -0.2531610   0.4236280  -0.2918384 SPIN=   0.00000
   O  -0.6593531   0.1509286  -0.2405710 SPIN=   0.00000
   O  -0.6528817   0.3501388  -0.5277353 SPIN=   0.00000
   O   0.2334437  -0.0913892  -0.4637550 SPIN=   0.00000
   O   0.2531610  -0.4236280  -0.2918384 SPIN=   0.00000
   O   0.6593531  -0.1509286  -0.2405710 SPIN=   0.00000
   O   0.6528817  -0.3501388  -0.5277353 SPIN=   0.00000
   S   0.0000000   0.5000000  -0.4343064 SPIN=   0.00000
   S   0.5000000  -0.0000000  -0.3614356 SPIN=   0.00000
   F  -0.2500000   0.2500000   0.1035216 SPIN=   0.00000
   F   0.2500000  -0.2500000   0.1035216 SPIN=   0.00000
%ENDBLOCK POSITIONS_FRAC

# Note: total spin =   8.00

KPOINTS_MP_SPACING 0.07

%BLOCK SPECIES_POT
QC5
%ENDBLOCK SPECIES_POT

SNAP_TO_SYMMETRY
SYMMETRY_GENERATE

