#              Generated by Buildcell
#
# at 23:54:39 (GMT+1.0) 18th August 2020
# in /lustre/scratch/uccabz1/launch_tmp
# on node-c12f-008
# by uccabz1
#
# compiler GCC version 4.9.2
# options -cpp -iprefix /lustre/shared/ucl/apps/gcc/4.9.2/bin/../lib/gcc/x86_64-unknown-linux-gnu/4.9.2/ -mtune=corei7 -march=x86-64 -g -Og
#
# seed  1324203056    54958742  1856116647   827881843   294211312  1178741410   934108112  1665273420 -1713476149  1007108600  1521531183  1838159939
#
#      Author: C. J. Pickard (cjp20@cam.ac.uk)
#                Space group: P-1
#

%BLOCK LATTICE_ABC
      5.51314      5.55989      7.25874
    107.87871    106.62018     93.78497
%ENDBLOCK LATTICE_ABC

%BLOCK POSITIONS_FRAC
  Li  -0.5000000  -0.5000000   0.5000000 SPIN=   0.00000
  Li  -0.0000000   0.5000000   0.0000000 SPIN=   0.00000
  Fe  -0.4308320  -0.1247654   0.2142225 SPIN=   4.00000
  Fe   0.4308320   0.1247654  -0.2142225 SPIN=   4.00000
   O  -0.0718160   0.5622574  -0.2586736 SPIN=   0.00000
   O  -0.0278282   0.1119033  -0.2925682 SPIN=   0.00000
   O   0.2746388   0.3753683  -0.3774285 SPIN=   0.00000
   O  -0.1777420   0.2332476  -0.6019918 SPIN=   0.00000
   O   0.0718160  -0.5622574   0.2586736 SPIN=   0.00000
   O   0.0278282  -0.1119033   0.2925682 SPIN=   0.00000
   O  -0.2746388  -0.3753683   0.3774285 SPIN=   0.00000
   O   0.1777420  -0.2332476   0.6019918 SPIN=   0.00000
   S  -0.0000000   0.0000000   0.0000000 SPIN=   0.00000
   S   0.0000000   0.5000000   0.5000000 SPIN=   0.00000
   F  -0.5000000   0.0000000   0.5000000 SPIN=   0.00000
   F   0.5000000   0.5000000   0.0000000 SPIN=   0.00000
%ENDBLOCK POSITIONS_FRAC

# Note: total spin =   8.00

KPOINTS_MP_SPACING 0.07

%BLOCK SPECIES_POT
QC5
%ENDBLOCK SPECIES_POT

SNAP_TO_SYMMETRY
SYMMETRY_GENERATE

