#              Generated by Buildcell
#
# at 18:11:46 (GMT+1.0) 18th August 2020
# in /scratch/scratch/uccabz1/launch_tmp
# on node-k10e-031
# by uccabz1
#
# compiler GCC version 4.9.2
# options -cpp -iprefix /scratch/UCL/applications/gcc/4.9.2/bin/../lib/gcc/x86_64-unknown-linux-gnu/4.9.2/ -mtune=corei7 -march=x86-64 -g -O2
#
# seed   947050735  -117810813 -1969484020   248571705  1587732271  -950783705  1890618365  1754328258   191174782   440330590    65723475    57280054
#
#      Author: C. J. Pickard (cjp20@cam.ac.uk)
#                Space group: Cc
#

%BLOCK LATTICE_ABC
      6.19379      6.19379      6.81246
     94.89844    114.21693    117.05952
%ENDBLOCK LATTICE_ABC

%BLOCK POSITIONS_FRAC
  Li  -0.3162837   0.4522476   0.1076706 SPIN=   0.00000
  Li  -0.8445770   0.4239543  -0.3923294 SPIN=   0.00000
  Fe   0.1784762   0.2235903   0.1785900 SPIN=   4.00000
  Fe  -0.5450003   0.0001139  -0.3214100 SPIN=   4.00000
   O   0.6940946   0.1693823   0.4955876 SPIN=   0.00000
   O   0.6391981  -0.1886105   0.2456849 SPIN=   0.00000
   O   0.8704526   0.2497711   0.2258782 SPIN=   0.00000
   O   0.3584242  -0.0001282   0.0797198 SPIN=   0.00000
   S   0.6405424   0.0576037   0.2617176 SPIN=   0.00000
   O  -0.1737947  -0.1985070  -0.0044124 SPIN=   0.00000
   O  -0.0657046  -0.3935132  -0.2543151 SPIN=   0.00000
   O  -0.5238929  -0.6445744  -0.2741218 SPIN=   0.00000
   O  -0.4201520  -0.2787045  -0.4202802 SPIN=   0.00000
   S  -0.2958861  -0.3788248  -0.2382824 SPIN=   0.00000
   F   0.1575815   0.3436695  -0.0619397 SPIN=   0.00000
   F   0.0943907  -0.2195212   0.4380603 SPIN=   0.00000
%ENDBLOCK POSITIONS_FRAC

# Note: total spin =   8.00

KPOINTS_MP_SPACING 0.07

%BLOCK SPECIES_POT
QC5
%ENDBLOCK SPECIES_POT

SNAP_TO_SYMMETRY
SYMMETRY_GENERATE

