#              Generated by Buildcell
#
# at 05:12:40 (GMT+1.0) 4th August 2020
# in /lustre/scratch/uccabz1/launch_tmp
# on node-c12f-011
# by uccabz1
#
# compiler GCC version 4.9.2
# options -cpp -iprefix /lustre/shared/ucl/apps/gcc/4.9.2/bin/../lib/gcc/x86_64-unknown-linux-gnu/4.9.2/ -mtune=corei7 -march=x86-64 -g -Og
#
# seed  -891262654 -1694795568  -639030841  1871347348 -1748325888 -1296236943  -782490971  1330007471   298198000  -394624192 -1618039196  -852135412
#
#      Author: C. J. Pickard (cjp20@cam.ac.uk)
#                Space group: P-1
#

%BLOCK LATTICE_ABC
      4.74202      5.51293      7.73223
     83.77489     88.03159     84.61256
%ENDBLOCK LATTICE_ABC

%BLOCK POSITIONS_FRAC
  Li   0.4371683   0.4877869  -0.2432573 SPIN=   0.00000
  Li  -0.4371683  -0.4877869   0.2432573 SPIN=   0.00000
  Fe  -0.5000000  -0.0000000   0.0000000 SPIN=   3.50803
  Fe  -0.5000000  -0.0000000   0.5000000 SPIN=   4.49197
   O   0.1062530  -0.5268229   0.3443254 SPIN=   0.00000
   O  -0.2813405  -0.1925394   0.3171737 SPIN=   0.00000
   O   0.1280328  -0.1852487   0.1099275 SPIN=   0.00000
   S   0.0354587  -0.2544078   0.2969194 SPIN=   0.00000
   O  -0.1062530   0.5268229  -0.3443254 SPIN=   0.00000
   O   0.2813405   0.1925394  -0.3171737 SPIN=   0.00000
   O  -0.1280328   0.1852487  -0.1099275 SPIN=   0.00000
   S  -0.0354587   0.2544078  -0.2969194 SPIN=   0.00000
   O   0.5000000   0.5000000   0.5000000 SPIN=   0.00000
   O   0.0000000  -0.0000000   0.5000000 SPIN=   0.00000
   F  -0.4903772  -0.2303877  -0.1525486 SPIN=   0.00000
   F   0.4903772   0.2303877   0.1525486 SPIN=   0.00000
%ENDBLOCK POSITIONS_FRAC

# Note: total spin =   8.00

KPOINTS_MP_SPACING 0.07

%BLOCK SPECIES_POT
QC5
%ENDBLOCK SPECIES_POT

SNAP_TO_SYMMETRY
SYMMETRY_GENERATE

