#              Generated by Buildcell
#
# at 22:56:38 (GMT+1.0) 18th August 2020
# in /lustre/scratch/uccabz1/launch_tmp
# on node-c12f-017
# by uccabz1
#
# compiler GCC version 4.9.2
# options -cpp -iprefix /lustre/shared/ucl/apps/gcc/4.9.2/bin/../lib/gcc/x86_64-unknown-linux-gnu/4.9.2/ -mtune=corei7 -march=x86-64 -g -Og
#
# seed  1079597594   937049710  1926511070  1262919369   648032008  1334168373  -638884978  -450613273  1458469918   -27630142 -1794387824 -1024742168
#
#      Author: C. J. Pickard (cjp20@cam.ac.uk)
#                Space group: Pc
#

%BLOCK LATTICE_ABC
      3.94792      6.80100      7.48536
     90.00000     95.66234     90.00000
%ENDBLOCK LATTICE_ABC

%BLOCK POSITIONS_FRAC
  Li  -0.2679635   0.2165863  -0.2861232 SPIN=   0.00000
  Li   0.2320365  -0.2165863  -0.2861232 SPIN=   0.00000
  Fe  -0.0963596   0.2500235   0.3332861 SPIN=   4.00000
  Fe   0.4036404  -0.2500235   0.3332861 SPIN=   4.00000
   O   0.6049208   0.1461553   0.1164589 SPIN=   0.00000
   O   0.0776540   0.3449745   0.0991290 SPIN=   0.00000
   O   0.1627053   0.1021329  -0.1386037 SPIN=   0.00000
   O   0.5073104   0.4066602  -0.1137195 SPIN=   0.00000
   S   0.3381476   0.2499807  -0.0091838 SPIN=   0.00000
   O   0.1049208  -0.1461553   0.1164589 SPIN=   0.00000
   O  -0.4223460  -0.3449745   0.0991290 SPIN=   0.00000
   O  -0.3372947  -0.1021329  -0.1386037 SPIN=   0.00000
   O   0.0073104  -0.4066602  -0.1137195 SPIN=   0.00000
   S  -0.1618524  -0.2499807  -0.0091838 SPIN=   0.00000
   F  -0.1566590  -0.2476249   0.4910880 SPIN=   0.00000
   F   0.3433410   0.2476249   0.4910880 SPIN=   0.00000
%ENDBLOCK POSITIONS_FRAC

# Note: total spin =   8.00

KPOINTS_MP_SPACING 0.07

%BLOCK SPECIES_POT
QC5
%ENDBLOCK SPECIES_POT

SNAP_TO_SYMMETRY
SYMMETRY_GENERATE

