#              Generated by Buildcell
#
# at 05:17:34 (GMT+1.0) 4th August 2020
# in /lustre/scratch/uccabz1/launch_tmp
# on node-c12g-025
# by uccabz1
#
# compiler GCC version 4.9.2
# options -cpp -iprefix /lustre/shared/ucl/apps/gcc/4.9.2/bin/../lib/gcc/x86_64-unknown-linux-gnu/4.9.2/ -mtune=corei7 -march=x86-64 -g -Og
#
# seed  -610096743  1855277582   942289104 -1781864736 -1027205408   527769411  1754296665   653961291 -1316688510   325473489   672017315 -1519481020
#
#      Author: C. J. Pickard (cjp20@cam.ac.uk)
#                Space group: Cm
#

%BLOCK LATTICE_ABC
      3.83435      7.47855      8.09693
    116.48121    101.87327     93.85276
%ENDBLOCK LATTICE_ABC

%BLOCK POSITIONS_FRAC
  Li   0.0845617   0.4124578  -0.0000000 SPIN=   0.00000
  Li  -0.4805972  -0.0722544   0.0000000 SPIN=   0.00000
  Fe   0.6971088   0.3949867   0.2670536 SPIN=   4.00000
  Fe   0.4300553   0.1279332  -0.2670536 SPIN=   4.00000
   O  -0.2735811  -0.6789720  -0.4278549 SPIN=   0.00000
   O  -0.3659720  -0.3547703  -0.1784724 SPIN=   0.00000
   O   0.0916068  -0.3539819  -0.3538112 SPIN=   0.00000
   S  -0.0878588  -0.4685705  -0.2701583 SPIN=   0.00000
   O   0.1542738  -0.2511171   0.4278549 SPIN=   0.00000
   O  -0.1874996  -0.1762979   0.1784724 SPIN=   0.00000
   O   0.4454180  -0.0001708   0.3538112 SPIN=   0.00000
   S   0.1822996  -0.1984122   0.2701583 SPIN=   0.00000
   O   0.5941396   0.4858573  -0.0000000 SPIN=   0.00000
   O  -0.7912682  -0.2971602   0.0000000 SPIN=   0.00000
   F   0.1819320   0.2959035   0.2628069 SPIN=   0.00000
   F  -0.0808750   0.0330965  -0.2628069 SPIN=   0.00000
%ENDBLOCK POSITIONS_FRAC

# Note: total spin =   8.00

KPOINTS_MP_SPACING 0.07

%BLOCK SPECIES_POT
QC5
%ENDBLOCK SPECIES_POT

SNAP_TO_SYMMETRY
SYMMETRY_GENERATE

