#              Generated by Buildcell
#
# at 00:55:48 (GMT+1.0) 19th August 2020
# in /scratch/scratch/uccabz1/launch_tmp
# on node-k10h-032
# by uccabz1
#
# compiler GCC version 4.9.2
# options -cpp -iprefix /scratch/UCL/applications/gcc/4.9.2/bin/../lib/gcc/x86_64-unknown-linux-gnu/4.9.2/ -mtune=corei7 -march=x86-64 -g -O2
#
# seed   230632512  -121165653  -433141228 -1727850139  1436283341   702527265  1910953467  1249077913  1758003727 -1508320354 -1985962217  1835485173
#
#      Author: C. J. Pickard (cjp20@cam.ac.uk)
#                Space group: P21
#

%BLOCK LATTICE_ABC
      3.92673      4.70663     10.82864
     90.00000     92.07437     90.00000
%ENDBLOCK LATTICE_ABC

%BLOCK POSITIONS_FRAC
  Li   0.2304101  -0.0927908  -0.2089449 SPIN=   0.00000
  Li  -0.2304101   0.4072092   0.2089449 SPIN=   0.00000
  Fe  -0.2401797  -0.3821977  -0.4016349 SPIN=   4.00000
  Fe   0.2401797   0.1178023   0.4016349 SPIN=   4.00000
   O  -0.4383453   0.6913459  -0.1114128 SPIN=   0.00000
   O  -0.0708931   0.3703023  -0.2291929 SPIN=   0.00000
   O  -0.5234526   0.1709350  -0.1016073 SPIN=   0.00000
   O  -0.0111933   0.3887772  -0.0010283 SPIN=   0.00000
   S  -0.2609711   0.4053401  -0.1108103 SPIN=   0.00000
   O   0.4383453   0.1913459   0.1114128 SPIN=   0.00000
   O   0.0708931  -0.1296977   0.2291929 SPIN=   0.00000
   O   0.5234526  -0.3290650   0.1016073 SPIN=   0.00000
   O   0.0111933  -0.1112228   0.0010283 SPIN=   0.00000
   S   0.2609711  -0.0946599   0.1108103 SPIN=   0.00000
   F   0.4322991  -0.0752980  -0.3566197 SPIN=   0.00000
   F  -0.4322991   0.4247020   0.3566197 SPIN=   0.00000
%ENDBLOCK POSITIONS_FRAC

# Note: total spin =   8.00

KPOINTS_MP_SPACING 0.07

%BLOCK SPECIES_POT
QC5
%ENDBLOCK SPECIES_POT

SNAP_TO_SYMMETRY
SYMMETRY_GENERATE

