#              Generated by Buildcell
#
# at 19:21:15 (GMT+1.0) 18th August 2020
# in /scratch/scratch/uccabz1/launch_tmp
# on node-k10h-023
# by uccabz1
#
# compiler GCC version 4.9.2
# options -cpp -iprefix /scratch/UCL/applications/gcc/4.9.2/bin/../lib/gcc/x86_64-unknown-linux-gnu/4.9.2/ -mtune=corei7 -march=x86-64 -g -O2
#
# seed   797183960  1850951096  2134108595   354019306   676130285  1716847696   812508381   544164534   891228352  1183759887 -1611731305   772307353
#
#      Author: C. J. Pickard (cjp20@cam.ac.uk)
#                Space group: Pm
#

%BLOCK LATTICE_ABC
      3.87832      6.45438      7.98976
     90.00000     90.00000     90.17329
%ENDBLOCK LATTICE_ABC

%BLOCK POSITIONS_FRAC
  Li  -0.6107791   0.1699546   0.2563765 SPIN=   0.00000
  Li  -0.6107791   0.1699546  -0.2563765 SPIN=   0.00000
  Fe  -0.1773005   0.4035960  -0.5000000 SPIN=   4.80753
  Fe  -0.6517272   0.4938020  -0.0000000 SPIN=   3.19247
   O   0.1882433  -0.0737527  -0.1395849 SPIN=   0.00000
   O  -0.2483831  -0.0155731  -0.3604003 SPIN=   0.00000
   O  -0.3480661  -0.2824716  -0.1431837 SPIN=   0.00000
   O   0.0973746  -0.3372231  -0.3603992 SPIN=   0.00000
   S  -0.0777078  -0.1772551  -0.2508920 SPIN=   0.00000
   O   0.1882433  -0.0737527   0.1395849 SPIN=   0.00000
   O  -0.2483831  -0.0155731   0.3604003 SPIN=   0.00000
   O  -0.3480661  -0.2824716   0.1431837 SPIN=   0.00000
   O   0.0973746  -0.3372231   0.3603992 SPIN=   0.00000
   S  -0.0777078  -0.1772551   0.2508920 SPIN=   0.00000
   F   0.2603709   0.2115002   0.5000000 SPIN=   0.00000
   F  -0.4018477   0.2005121   0.0000000 SPIN=   0.00000
%ENDBLOCK POSITIONS_FRAC

# Note: total spin =   8.00

KPOINTS_MP_SPACING 0.07

%BLOCK SPECIES_POT
QC5
%ENDBLOCK SPECIES_POT

SNAP_TO_SYMMETRY
SYMMETRY_GENERATE

