#              Generated by Buildcell
#
# at 04:12:37 (GMT+1.0) 4th August 2020
# in /lustre/scratch/uccabz1/launch_tmp
# on node-c12d-006
# by uccabz1
#
# compiler GCC version 4.9.2
# options -cpp -iprefix /lustre/shared/ucl/apps/gcc/4.9.2/bin/../lib/gcc/x86_64-unknown-linux-gnu/4.9.2/ -mtune=corei7 -march=x86-64 -g -Og
#
# seed  -645723627  1516198678   741540856  2072640243   -78493516  1407333241  1975064459  1106065821 -1935009270   419366430   819610630  1872338894
#
#      Author: C. J. Pickard (cjp20@cam.ac.uk)
#                Space group: Cm
#

%BLOCK LATTICE_ABC
      4.21105      6.93215      6.93215
     81.24201     89.83180     89.83180
%ENDBLOCK LATTICE_ABC

%BLOCK POSITIONS_FRAC
  Li  -0.1717852  -0.3019789  -0.3019789 SPIN=   0.00000
  Li   0.3518729   0.0069832   0.0069832 SPIN=   0.00000
  Fe   0.3484794   0.4933595   0.4933595 SPIN=   3.49748
  Fe  -0.1484079   0.2010943   0.2010943 SPIN=   4.50252
   O  -0.0096642  -0.0147121  -0.4583435 SPIN=   0.00000
   O   0.4823217  -0.0137797  -0.2640756 SPIN=   0.00000
   O   0.4790337   0.1367041  -0.6115375 SPIN=   0.00000
   S   0.3493866  -0.0285121  -0.4642232 SPIN=   0.00000
   O  -0.0096642  -0.4583435  -0.0147121 SPIN=   0.00000
   O   0.4823217  -0.2640756  -0.0137797 SPIN=   0.00000
   O   0.4790337  -0.6115375   0.1367041 SPIN=   0.00000
   S   0.3493866  -0.4642232  -0.0285121 SPIN=   0.00000
   O   0.3005939  -0.3130770  -0.3130770 SPIN=   0.00000
   O  -0.0853528  -0.0640660  -0.0640660 SPIN=   0.00000
   F  -0.1458386  -0.2700521   0.2752285 SPIN=   0.00000
   F  -0.1458386   0.2752285  -0.2700521 SPIN=   0.00000
%ENDBLOCK POSITIONS_FRAC

# Note: total spin =   8.00

KPOINTS_MP_SPACING 0.07

%BLOCK SPECIES_POT
QC5
%ENDBLOCK SPECIES_POT

SNAP_TO_SYMMETRY
SYMMETRY_GENERATE

