#              Generated by Buildcell
#
# at 18:59:33 (GMT+1.0) 18th August 2020
# in /scratch/scratch/uccabz1/launch_tmp
# on node-k10h-020
# by uccabz1
#
# compiler GCC version 4.9.2
# options -cpp -iprefix /scratch/UCL/applications/gcc/4.9.2/bin/../lib/gcc/x86_64-unknown-linux-gnu/4.9.2/ -mtune=corei7 -march=x86-64 -g -O2
#
# seed -1452724639  1628803224   434049373  1307691354  1237839350    33259295  -491112435 -1785957461  1171669392  -356758653 -1097966960   494234178
#
#      Author: C. J. Pickard (cjp20@cam.ac.uk)
#                Space group: Iba2
#

%BLOCK LATTICE_ABC
      5.45769      5.75210      7.50370
    112.53726    111.32553     90.00000
%ENDBLOCK LATTICE_ABC

%BLOCK POSITIONS_FRAC
  Li   0.2022592   0.2022592   0.4045185 SPIN=   0.00000
  Li  -0.2977408  -0.2977408  -0.5954815 SPIN=   0.00000
  Fe   0.3197918  -0.1802082  -0.3604165 SPIN=   4.00000
  Fe  -0.1802082   0.3197918   0.6395835 SPIN=   4.00000
   O  -0.1683317  -0.1370463   0.0367924 SPIN=   0.00000
   O  -0.5457681  -0.4544597  -0.2635434 SPIN=   0.00000
   O   0.2051241   0.1738387   0.0367924 SPIN=   0.00000
   O   0.2822248   0.1909163  -0.2635434 SPIN=   0.00000
   O  -0.2948759   0.3629537   0.0367924 SPIN=   0.00000
   O  -0.2177752   0.0455403  -0.2635434 SPIN=   0.00000
   O   0.3316683  -0.3261613   0.0367924 SPIN=   0.00000
   O  -0.0457681  -0.3090837  -0.2635434 SPIN=   0.00000
   S  -0.0285587  -0.0285587  -0.0571174 SPIN=   0.00000
   S   0.4714413   0.4714413   0.9428826 SPIN=   0.00000
   F  -0.3387395   0.1612605   0.3225210 SPIN=   0.00000
   F   0.1612605  -0.3387395  -0.6774790 SPIN=   0.00000
%ENDBLOCK POSITIONS_FRAC

# Note: total spin =   8.00

KPOINTS_MP_SPACING 0.07

%BLOCK SPECIES_POT
QC5
%ENDBLOCK SPECIES_POT

SNAP_TO_SYMMETRY
SYMMETRY_GENERATE

