#              Generated by Buildcell
#
# at 22:13:05 (GMT+1.0) 18th August 2020
# in /lustre/scratch/uccabz1/launch_tmp
# on node-c12a-016
# by uccabz1
#
# compiler GCC version 4.9.2
# options -cpp -iprefix /lustre/shared/ucl/apps/gcc/4.9.2/bin/../lib/gcc/x86_64-unknown-linux-gnu/4.9.2/ -mtune=corei7 -march=x86-64 -g -Og
#
# seed  1976568121   461377558 -1175034133 -2015220944   796292045  2056839397  1806321299   699500527   370546808  1671596806  1874172532  1675608710
#
#      Author: C. J. Pickard (cjp20@cam.ac.uk)
#                Space group: Iba2
#

%BLOCK LATTICE_ABC
      5.96676      5.97093      7.02333
    115.15559    115.13683     90.00000
%ENDBLOCK LATTICE_ABC

%BLOCK POSITIONS_FRAC
  Li   0.0140481  -0.4859519  -0.9719038 SPIN=   0.00000
  Li  -0.4859519   0.0140481  -0.9719038 SPIN=   0.00000
  Fe   0.1632569   0.1632569   0.3265138 SPIN=   4.00000
  Fe  -0.3367431  -0.3367431  -0.6734862 SPIN=   4.00000
   O  -0.0157538   0.1620148   0.6566465 SPIN=   0.00000
   O   0.0414028  -0.1793730   0.3345061 SPIN=   0.00000
   O   0.6724003  -0.5053683  -0.3433535 SPIN=   0.00000
   O   0.2931033  -0.4861210  -0.6654939 SPIN=   0.00000
   O   0.1724003   0.6620148   0.6566465 SPIN=   0.00000
   O  -0.2068967   0.3206270   0.3345061 SPIN=   0.00000
   O  -0.5157538  -0.0053683  -0.3433535 SPIN=   0.00000
   O  -0.4585972   0.0138790  -0.6654939 SPIN=   0.00000
   S   0.2767794  -0.2232206  -0.4464412 SPIN=   0.00000
   S  -0.2232206   0.2767794  -0.4464412 SPIN=   0.00000
   F  -0.0118950  -0.0118950  -0.0237900 SPIN=   0.00000
   F   0.4881050   0.4881050   0.9762100 SPIN=   0.00000
%ENDBLOCK POSITIONS_FRAC

# Note: total spin =   8.00

KPOINTS_MP_SPACING 0.07

%BLOCK SPECIES_POT
QC5
%ENDBLOCK SPECIES_POT

SNAP_TO_SYMMETRY
SYMMETRY_GENERATE

