#              Generated by Buildcell
#
# at 21:48:14 (GMT+1.0) 18th August 2020
# in /lustre/scratch/uccabz1/launch_tmp
# on node-c12i-026
# by uccabz1
#
# compiler GCC version 4.9.2
# options -cpp -iprefix /lustre/shared/ucl/apps/gcc/4.9.2/bin/../lib/gcc/x86_64-unknown-linux-gnu/4.9.2/ -mtune=corei7 -march=x86-64 -g -Og
#
# seed   158113969  -989068333  1577756274   -11247026  -794057300 -1203122645 -1841433598    87415237  1229933378  1566509868  -945795028    22243288
#
#      Author: C. J. Pickard (cjp20@cam.ac.uk)
#                Space group: Cc
#

%BLOCK LATTICE_ABC
      4.13836      4.25356     13.02287
     92.67891     90.00000    119.10809
%ENDBLOCK LATTICE_ABC

%BLOCK POSITIONS_FRAC
  Li  -0.2027000   0.3231536  -0.2890250 SPIN=   0.00000
  Li  -0.4741464   0.3231536   0.2109750 SPIN=   0.00000
  Fe  -0.1090766   0.2699609   0.4316520 SPIN=   4.00000
  Fe   0.3790375   0.2699609  -0.0683480 SPIN=   4.00000
   O  -0.4944036  -0.0464121   0.0320543 SPIN=   0.00000
   O  -0.1435700  -0.3650209   0.0670987 SPIN=   0.00000
   O  -0.4197169  -0.1821533   0.2104453 SPIN=   0.00000
   O   0.1180509   0.2799796   0.1211983 SPIN=   0.00000
   S  -0.2349099  -0.0784017   0.1076991 SPIN=   0.00000
   O   0.4479915  -0.0464121  -0.4679457 SPIN=   0.00000
   O  -0.2214508  -0.3650209  -0.4329013 SPIN=   0.00000
   O   0.2375636  -0.1821533  -0.2895547 SPIN=   0.00000
   O   0.1619287   0.2799796  -0.3788017 SPIN=   0.00000
   S   0.1565082  -0.0784017  -0.3923009 SPIN=   0.00000
   F  -0.2417478   0.2110480  -0.1487954 SPIN=   0.00000
   F   0.4527958   0.2110480   0.3512046 SPIN=   0.00000
%ENDBLOCK POSITIONS_FRAC

# Note: total spin =   8.00

KPOINTS_MP_SPACING 0.07

%BLOCK SPECIES_POT
QC5
%ENDBLOCK SPECIES_POT

SNAP_TO_SYMMETRY
SYMMETRY_GENERATE

