#              Generated by Buildcell
#
# at 01:08:44 (GMT+1.0) 19th August 2020
# in /lustre/scratch/uccabz1/launch_tmp
# on node-c12i-005
# by uccabz1
#
# compiler GCC version 4.9.2
# options -cpp -iprefix /lustre/shared/ucl/apps/gcc/4.9.2/bin/../lib/gcc/x86_64-unknown-linux-gnu/4.9.2/ -mtune=corei7 -march=x86-64 -g -Og
#
# seed -1295072832   617440251  -127998406  -103825870  -427135799  -601989728  -618580378 -1000465173  2010960451   146642206  -930306529  -295921241
#
#      Author: C. J. Pickard (cjp20@cam.ac.uk)
#                Space group: Cm
#

%BLOCK LATTICE_ABC
      3.98455      7.17473      7.95765
     63.20451     85.52402     80.03107
%ENDBLOCK LATTICE_ABC

%BLOCK POSITIONS_FRAC
  Li   0.1666354   0.0993318  -0.4043627 SPIN=   0.00000
  Li   0.1666354  -0.3050309   0.4043627 SPIN=   0.00000
  Fe  -0.4320749   0.0743969   0.2630134 SPIN=   4.00000
  Fe  -0.4320749   0.3374103  -0.2630134 SPIN=   4.00000
   O  -0.2046749  -0.0173242  -0.4564093 SPIN=   0.00000
   O  -0.4056665  -0.3642200  -0.3019208 SPIN=   0.00000
   O  -0.5295707  -0.1172037  -0.1583364 SPIN=   0.00000
   O   0.0598530  -0.2965243  -0.1583407 SPIN=   0.00000
   S  -0.2700148  -0.1988181  -0.2687518 SPIN=   0.00000
   O  -0.2046749  -0.4737335   0.4564093 SPIN=   0.00000
   O  -0.4056665  -0.6661408   0.3019208 SPIN=   0.00000
   O  -0.5295707  -0.2755401   0.1583364 SPIN=   0.00000
   O   0.0598530  -0.4548650   0.1583407 SPIN=   0.00000
   S  -0.2700148  -0.4675698   0.2687518 SPIN=   0.00000
   F   0.1461242   0.2640476  -0.2553437 SPIN=   0.00000
   F   0.1461242   0.0087039   0.2553437 SPIN=   0.00000
%ENDBLOCK POSITIONS_FRAC

# Note: total spin =   8.00

KPOINTS_MP_SPACING 0.07

%BLOCK SPECIES_POT
QC5
%ENDBLOCK SPECIES_POT

SNAP_TO_SYMMETRY
SYMMETRY_GENERATE

