#              Generated by Buildcell
#
# at 02:13:27 (GMT+1.0) 19th August 2020
# in /scratch/scratch/uccabz1/launch_tmp
# on node-k10d-010
# by uccabz1
#
# compiler GCC version 4.9.2
# options -cpp -iprefix /scratch/UCL/applications/gcc/4.9.2/bin/../lib/gcc/x86_64-unknown-linux-gnu/4.9.2/ -mtune=corei7 -march=x86-64 -g -O2
#
# seed  2101589571  -104086823 -1415363320   668778302 -1352665832 -1928692536  -500463339 -1086824335 -1288190461   -15780163  1736095175 -1569266267
#
#      Author: C. J. Pickard (cjp20@cam.ac.uk)
#                Space group: Pc
#

%BLOCK LATTICE_ABC
      4.56459      5.77428      7.59692
     90.00000     92.77013     90.00000
%ENDBLOCK LATTICE_ABC

%BLOCK POSITIONS_FRAC
  Li   0.3378927   0.0924958   0.0538018 SPIN=   0.00000
  Li   0.3378927  -0.0924958  -0.4461982 SPIN=   0.00000
  Fe   0.1765476   0.4042618   0.4391043 SPIN=   4.00000
  Fe   0.1765476  -0.4042618  -0.0608957 SPIN=   4.00000
   O  -0.1123745   0.1640180   0.2689109 SPIN=   0.00000
   O  -0.1297562  -0.1900403   0.4517022 SPIN=   0.00000
   O   0.2507421  -0.1485385   0.2325615 SPIN=   0.00000
   O  -0.2679729  -0.2084156   0.1329628 SPIN=   0.00000
   S  -0.0648404  -0.0957441   0.2715343 SPIN=   0.00000
   O  -0.1123745  -0.1640180  -0.2310891 SPIN=   0.00000
   O  -0.1297562   0.1900403  -0.0482978 SPIN=   0.00000
   O   0.2507421   0.1485385  -0.2674385 SPIN=   0.00000
   O  -0.2679729   0.2084156  -0.3670372 SPIN=   0.00000
   S  -0.0648404   0.0957441  -0.2284657 SPIN=   0.00000
   F   0.4782510   0.4038905   0.1288035 SPIN=   0.00000
   F   0.4782510  -0.4038905  -0.3711965 SPIN=   0.00000
%ENDBLOCK POSITIONS_FRAC

# Note: total spin =   8.00

KPOINTS_MP_SPACING 0.07

%BLOCK SPECIES_POT
QC5
%ENDBLOCK SPECIES_POT

SNAP_TO_SYMMETRY
SYMMETRY_GENERATE

