#              Generated by Buildcell
#
# at 21:04:01 (GMT+1.0) 18th August 2020
# in /lustre/scratch/uccabz1/launch_tmp
# on node-c12b-022
# by uccabz1
#
# compiler GCC version 4.9.2
# options -cpp -iprefix /lustre/shared/ucl/apps/gcc/4.9.2/bin/../lib/gcc/x86_64-unknown-linux-gnu/4.9.2/ -mtune=corei7 -march=x86-64 -g -Og
#
# seed   766038762  1094372249   984745936  -692837655  1216169962  -231076786   309584173  1746871027  -128538932 -1001276941   990783332   544649801
#
#      Author: C. J. Pickard (cjp20@cam.ac.uk)
#                Space group: C2
#

%BLOCK LATTICE_ABC
      4.11832      6.93784      7.38791
     87.38984     73.81616     80.59629
%ENDBLOCK LATTICE_ABC

%BLOCK POSITIONS_FRAC
  Li   0.3970169  -0.2810924  -0.4293613 SPIN=   0.00000
  Li   0.0323443   0.2810924  -0.4293613 SPIN=   0.00000
  Fe   0.0321089   0.0000000  -0.0642178 SPIN=   0.74785
  Fe   0.5543594  -0.5000000  -0.1087188 SPIN=   7.25215
   O  -0.4773205   0.0780181   0.3893556 SPIN=   0.00000
   O  -0.4594509   0.3430695   0.1526362 SPIN=   0.00000
   O   0.0453952   0.2303659   0.2712967 SPIN=   0.00000
   O  -0.4781854   0.4170912   0.4802752 SPIN=   0.00000
   S  -0.3423904   0.2671362   0.3233909 SPIN=   0.00000
   O   0.0879649  -0.0780181   0.3893556 SPIN=   0.00000
   O   0.3068147  -0.3430695   0.1526362 SPIN=   0.00000
   O  -0.3166919  -0.2303659   0.2712967 SPIN=   0.00000
   O  -0.0020898  -0.4170912   0.4802752 SPIN=   0.00000
   S   0.0189995  -0.2671362   0.3233909 SPIN=   0.00000
   F  -0.2348225   0.2167867  -0.1909880 SPIN=   0.00000
   F   0.4258104  -0.2167867  -0.1909880 SPIN=   0.00000
%ENDBLOCK POSITIONS_FRAC

# Note: total spin =   8.00

KPOINTS_MP_SPACING 0.07

%BLOCK SPECIES_POT
QC5
%ENDBLOCK SPECIES_POT

SNAP_TO_SYMMETRY
SYMMETRY_GENERATE

