#              Generated by Buildcell
#
# at 05:09:55 (GMT+1.0) 4th August 2020
# in /lustre/scratch/uccabz1/launch_tmp
# on node-c12c-027
# by uccabz1
#
# compiler GCC version 4.9.2
# options -cpp -iprefix /lustre/shared/ucl/apps/gcc/4.9.2/bin/../lib/gcc/x86_64-unknown-linux-gnu/4.9.2/ -mtune=corei7 -march=x86-64 -g -Og
#
# seed  1936730326  -726633839  2137628421  -987798147 -1140936412  1528276222   858316538   203734658  -492727403 -1678116700  1739553102  1475240525
#
#      Author: C. J. Pickard (cjp20@cam.ac.uk)
#                Space group: P21
#

%BLOCK LATTICE_ABC
      4.03870      4.88541     10.27181
     90.00000     99.31061     90.00000
%ENDBLOCK LATTICE_ABC

%BLOCK POSITIONS_FRAC
  Li  -0.2894013  -0.2122142  -0.3938252 SPIN=   0.00000
  Li   0.2894013   0.2877858   0.3938252 SPIN=   0.00000
  Fe   0.0830187   0.2970331  -0.2533979 SPIN=   4.00000
  Fe  -0.0830187  -0.2029669   0.2533979 SPIN=   4.00000
   O   0.5552855   0.5256707   0.1289993 SPIN=   0.00000
   O   0.4764525   0.0260185   0.1493290 SPIN=   0.00000
   O   0.1033559   0.2891755  -0.0207938 SPIN=   0.00000
   O   0.0595121   0.3473136   0.2151585 SPIN=   0.00000
   S   0.2986515   0.2970446   0.1181732 SPIN=   0.00000
   O  -0.5552855   0.0256707  -0.1289993 SPIN=   0.00000
   O  -0.4764525  -0.4739815  -0.1493290 SPIN=   0.00000
   O  -0.1033559  -0.2108245   0.0207938 SPIN=   0.00000
   O  -0.0595121  -0.1526864  -0.2151585 SPIN=   0.00000
   S  -0.2986515  -0.2029554  -0.1181732 SPIN=   0.00000
   F   0.2894119   0.3897184  -0.4042483 SPIN=   0.00000
   F  -0.2894119  -0.1102816   0.4042483 SPIN=   0.00000
%ENDBLOCK POSITIONS_FRAC

# Note: total spin =   8.00

KPOINTS_MP_SPACING 0.07

%BLOCK SPECIES_POT
QC5
%ENDBLOCK SPECIES_POT

SNAP_TO_SYMMETRY
SYMMETRY_GENERATE

