#              Generated by Buildcell
#
# at 05:05:50 (GMT+1.0) 4th August 2020
# in /lustre/scratch/uccabz1/launch_tmp
# on node-c12k-033
# by uccabz1
#
# compiler GCC version 4.9.2
# options -cpp -iprefix /lustre/shared/ucl/apps/gcc/4.9.2/bin/../lib/gcc/x86_64-unknown-linux-gnu/4.9.2/ -mtune=corei7 -march=x86-64 -g -Og
#
# seed  1194659848   716553438  1879402093  1382890702   230300596  1896112400 -2045054545  -636743510   665460368 -1065919341 -1179223581   156253568
#
#      Author: C. J. Pickard (cjp20@cam.ac.uk)
#                Space group: P21
#

%BLOCK LATTICE_ABC
      4.91014      6.43695      6.51188
     90.00000    103.65368     90.00000
%ENDBLOCK LATTICE_ABC

%BLOCK POSITIONS_FRAC
  Li   0.1510578   0.2041348   0.4267358 SPIN=   0.00000
  Li  -0.1510578  -0.2958652  -0.4267358 SPIN=   0.00000
  Fe   0.0293720   0.1255978  -0.1336298 SPIN=   4.00000
  Fe  -0.0293720  -0.3744022   0.1336298 SPIN=   4.00000
   O  -0.5037225   0.2095557  -0.3273874 SPIN=   0.00000
   O  -0.6894541   0.5662083  -0.4008352 SPIN=   0.00000
   O  -0.2022708   0.5121608  -0.1951208 SPIN=   0.00000
   O  -0.5998823   0.4248488  -0.0376037 SPIN=   0.00000
   S  -0.4988324   0.4281934  -0.2402368 SPIN=   0.00000
   O   0.5037225  -0.2904443   0.3273874 SPIN=   0.00000
   O   0.6894541   0.0662083   0.4008352 SPIN=   0.00000
   O   0.2022708   0.0121608   0.1951208 SPIN=   0.00000
   O   0.5998823  -0.0751512   0.0376037 SPIN=   0.00000
   S   0.4988324  -0.0718066   0.2402368 SPIN=   0.00000
   F   0.1277303  -0.0740174  -0.3249254 SPIN=   0.00000
   F  -0.1277303   0.4259826   0.3249254 SPIN=   0.00000
%ENDBLOCK POSITIONS_FRAC

# Note: total spin =   8.00

KPOINTS_MP_SPACING 0.07

%BLOCK SPECIES_POT
QC5
%ENDBLOCK SPECIES_POT

SNAP_TO_SYMMETRY
SYMMETRY_GENERATE

