#              Generated by Buildcell
#
# at 21:54:02 (GMT+1.0) 18th August 2020
# in /scratch/scratch/uccabz1/launch_tmp
# on node-k10b-027
# by uccabz1
#
# compiler GCC version 4.9.2
# options -cpp -iprefix /scratch/UCL/applications/gcc/4.9.2/bin/../lib/gcc/x86_64-unknown-linux-gnu/4.9.2/ -mtune=corei7 -march=x86-64 -g -O2
#
# seed  -496919214 -1745612367   446209543   454139432 -1279104851  1519303196   934135479  1261045148 -1622201558  1208064656  1045795407   -56120368
#
#      Author: C. J. Pickard (cjp20@cam.ac.uk)
#                Space group: C2/m
#

%BLOCK LATTICE_ABC
      5.09028      6.36660      6.36660
     99.08378     97.10851     97.10851
%ENDBLOCK LATTICE_ABC

%BLOCK POSITIONS_FRAC
  Li  -0.0000000  -0.5000000  -0.0000000 SPIN=   0.00000
  Li  -0.0000000   0.0000000   0.5000000 SPIN=   0.00000
  Fe  -0.3027552  -0.1704360  -0.1704360 SPIN=   4.00000
  Fe   0.3027552   0.1704360   0.1704360 SPIN=   4.00000
   O  -0.2199638  -0.2410368   0.1455410 SPIN=   0.00000
   O  -0.4653949  -0.4949164  -0.1730320 SPIN=   0.00000
   O   0.2199638  -0.1455410   0.2410368 SPIN=   0.00000
   O   0.4653949   0.1730320   0.4949164 SPIN=   0.00000
   O   0.2199638   0.2410368  -0.1455410 SPIN=   0.00000
   O   0.4653949   0.4949164   0.1730320 SPIN=   0.00000
   O  -0.2199638   0.1455410  -0.2410368 SPIN=   0.00000
   O  -0.4653949  -0.1730320  -0.4949164 SPIN=   0.00000
   S   0.5000000  -0.2758244   0.2758244 SPIN=   0.00000
   S  -0.5000000   0.2758244  -0.2758244 SPIN=   0.00000
   F   0.1840281  -0.2332041  -0.2332041 SPIN=   0.00000
   F  -0.1840281   0.2332041   0.2332041 SPIN=   0.00000
%ENDBLOCK POSITIONS_FRAC

# Note: total spin =   8.00

KPOINTS_MP_SPACING 0.07

%BLOCK SPECIES_POT
QC5
%ENDBLOCK SPECIES_POT

SNAP_TO_SYMMETRY
SYMMETRY_GENERATE

