#              Generated by Buildcell
#
# at 23:26:03 (GMT+1.0) 18th August 2020
# in /lustre/scratch/uccabz1/launch_tmp
# on node-c12m-014
# by uccabz1
#
# compiler GCC version 4.9.2
# options -cpp -iprefix /lustre/shared/ucl/apps/gcc/4.9.2/bin/../lib/gcc/x86_64-unknown-linux-gnu/4.9.2/ -mtune=corei7 -march=x86-64 -g -Og
#
# seed -1532613748  1459803094  1503781346  1649433424  1547620935  -586969379 -1465027796  -188799831    -1433384   508485384   224985064  -808960531
#
#      Author: C. J. Pickard (cjp20@cam.ac.uk)
#                Space group: Ama2
#

%BLOCK LATTICE_ABC
      5.36142      5.59406      7.59760
     90.00000     90.00000    118.63358
%ENDBLOCK LATTICE_ABC

%BLOCK POSITIONS_FRAC
  Li  -0.4393976   0.0000000  -0.0000000 SPIN=   0.00000
  Li  -0.4393976  -0.0000000  -0.5000000 SPIN=   0.00000
  Fe   0.1818356   0.5166695  -0.2500000 SPIN=   4.00000
  Fe  -0.3348339  -0.5166695   0.2500000 SPIN=   4.00000
   O   0.1341288  -0.2548402  -0.4531015 SPIN=   0.00000
   O  -0.3383078  -0.2858256  -0.4114778 SPIN=   0.00000
   O   0.3889690   0.2548402   0.4531015 SPIN=   0.00000
   O  -0.0524822   0.2858256   0.4114778 SPIN=   0.00000
   O   0.3889690   0.2548402   0.0468985 SPIN=   0.00000
   O  -0.0524822   0.2858256   0.0885222 SPIN=   0.00000
   O   0.1341288  -0.2548402  -0.0468985 SPIN=   0.00000
   O  -0.3383078  -0.2858256  -0.0885222 SPIN=   0.00000
   S   0.0605929   0.0000000   0.0000000 SPIN=   0.00000
   S   0.0605929   0.0000000  -0.5000000 SPIN=   0.00000
   F  -0.2912006  -0.7057961  -0.2500000 SPIN=   0.00000
   F   0.4145955   0.7057961   0.2500000 SPIN=   0.00000
%ENDBLOCK POSITIONS_FRAC

# Note: total spin =   8.00

KPOINTS_MP_SPACING 0.07

%BLOCK SPECIES_POT
QC5
%ENDBLOCK SPECIES_POT

SNAP_TO_SYMMETRY
SYMMETRY_GENERATE

