#              Generated by Buildcell
#
# at 00:44:20 (GMT+1.0) 19th August 2020
# in /lustre/scratch/uccabz1/launch_tmp
# on node-c12g-030
# by uccabz1
#
# compiler GCC version 4.9.2
# options -cpp -iprefix /lustre/shared/ucl/apps/gcc/4.9.2/bin/../lib/gcc/x86_64-unknown-linux-gnu/4.9.2/ -mtune=corei7 -march=x86-64 -g -Og
#
# seed  1686090180 -1954965755  1844921191  1861060608 -1531010939 -1070571493    62487656 -1196213950 -1390522064  1434406182  1438353262  1740519827
#
#      Author: C. J. Pickard (cjp20@cam.ac.uk)
#                Space group: P2
#

%BLOCK LATTICE_ABC
      4.06702      4.56603     10.77138
     90.00000     90.92352     90.00000
%ENDBLOCK LATTICE_ABC

%BLOCK POSITIONS_FRAC
  Li  -0.2468632   0.3153332   0.1601342 SPIN=   0.00000
  Li   0.2468632   0.3153332  -0.1601342 SPIN=   0.00000
  Fe   0.2432236   0.4141089   0.3590908 SPIN=   4.00000
  Fe  -0.2432236   0.4141089  -0.3590908 SPIN=   4.00000
   O   0.0931986  -0.3547662   0.1022257 SPIN=   0.00000
   O   0.1017216  -0.0013427   0.2764493 SPIN=   0.00000
   O   0.2306622   0.1651715   0.0640686 SPIN=   0.00000
   O   0.6226001  -0.1523566   0.1795005 SPIN=   0.00000
   S   0.2620456  -0.0858235   0.1555610 SPIN=   0.00000
   O  -0.0931986  -0.3547662  -0.1022257 SPIN=   0.00000
   O  -0.1017216  -0.0013427  -0.2764493 SPIN=   0.00000
   O  -0.2306622   0.1651715  -0.0640686 SPIN=   0.00000
   O  -0.6226001  -0.1523566  -0.1795005 SPIN=   0.00000
   S  -0.2620456  -0.0858235  -0.1555610 SPIN=   0.00000
   F  -0.2562112   0.4355086   0.3366124 SPIN=   0.00000
   F   0.2562112   0.4355086  -0.3366124 SPIN=   0.00000
%ENDBLOCK POSITIONS_FRAC

# Note: total spin =   8.00

KPOINTS_MP_SPACING 0.07

%BLOCK SPECIES_POT
QC5
%ENDBLOCK SPECIES_POT

SNAP_TO_SYMMETRY
SYMMETRY_GENERATE

