#              Generated by Buildcell
#
# at 04:35:47 (GMT+1.0) 4th August 2020
# in /lustre/scratch/uccabz1/launch_tmp
# on node-c12p-022
# by uccabz1
#
# compiler GCC version 4.9.2
# options -cpp -iprefix /lustre/shared/ucl/apps/gcc/4.9.2/bin/../lib/gcc/x86_64-unknown-linux-gnu/4.9.2/ -mtune=corei7 -march=x86-64 -g -Og
#
# seed   -50640821 -1728256384   636046849   -57410536  2093204554   886952535  -597983072  -757975925   369900532 -1304208447  2027093977  1201984066
#
#      Author: C. J. Pickard (cjp20@cam.ac.uk)
#                Space group: Cc
#

%BLOCK LATTICE_ABC
      5.71628      5.71628      7.23456
    110.75985    110.75985     95.45755
%ENDBLOCK LATTICE_ABC

%BLOCK POSITIONS_FRAC
  Li   0.2503574  -0.0889034  -0.4424785 SPIN=   0.00000
  Li  -0.0889034   0.2503574   0.0575215 SPIN=   0.00000
  Fe  -0.2532416  -0.2331011   0.0941869 SPIN=   4.00000
  Fe  -0.2331011  -0.2532416  -0.4058131 SPIN=   4.00000
   O   0.3413598   0.5594940  -0.1098611 SPIN=   0.00000
   O  -0.1038258   0.4778522  -0.1340463 SPIN=   0.00000
   O   0.1059006   0.1167706  -0.2076001 SPIN=   0.00000
   O  -0.0282683   0.3166719  -0.4684637 SPIN=   0.00000
   S   0.0787916   0.3676972  -0.2299928 SPIN=   0.00000
   O   0.5594940   0.3413598   0.3901389 SPIN=   0.00000
   O   0.4778522  -0.1038258   0.3659537 SPIN=   0.00000
   O   0.1167706   0.1059006   0.2923999 SPIN=   0.00000
   O   0.3166719  -0.0282683   0.0315363 SPIN=   0.00000
   S   0.3676972   0.0787916   0.2700072 SPIN=   0.00000
   F  -0.3085731  -0.0953913  -0.1358862 SPIN=   0.00000
   F  -0.0953913  -0.3085731   0.3641138 SPIN=   0.00000
%ENDBLOCK POSITIONS_FRAC

# Note: total spin =   8.00

KPOINTS_MP_SPACING 0.07

%BLOCK SPECIES_POT
QC5
%ENDBLOCK SPECIES_POT

SNAP_TO_SYMMETRY
SYMMETRY_GENERATE

