#              Generated by Buildcell
#
# at 05:07:14 (GMT+1.0) 4th August 2020
# in /lustre/scratch/uccabz1/launch_tmp
# on node-c12m-020
# by uccabz1
#
# compiler GCC version 4.9.2
# options -cpp -iprefix /lustre/shared/ucl/apps/gcc/4.9.2/bin/../lib/gcc/x86_64-unknown-linux-gnu/4.9.2/ -mtune=corei7 -march=x86-64 -g -Og
#
# seed -1648007892  -849993965 -1155848869 -1219402024  -792887781  -183781820 -1878346853  1484781334 -1999058528 -1318717969 -1403585499  1553614724
#
#      Author: C. J. Pickard (cjp20@cam.ac.uk)
#                Space group: P-1
#

%BLOCK LATTICE_ABC
      4.02783      7.09214      7.66479
     72.06516     77.47864     76.41770
%ENDBLOCK LATTICE_ABC

%BLOCK POSITIONS_FRAC
  Li  -0.5000000   0.0000000   0.5000000 SPIN=   0.00000
  Li   0.0000000   0.5000000  -0.0000000 SPIN=   0.00000
  Fe  -0.1431698  -0.0667550  -0.1795885 SPIN=   4.00000
  Fe   0.1431698   0.0667550   0.1795885 SPIN=   4.00000
   O  -0.1627519   0.3830338  -0.4253400 SPIN=   0.00000
   O  -0.2154403   0.3324971  -0.0869568 SPIN=   0.00000
   O  -0.7268290   0.4901315  -0.2449369 SPIN=   0.00000
   O  -0.2492960   0.6765630  -0.2999491 SPIN=   0.00000
   S  -0.3385793   0.4705564  -0.2642957 SPIN=   0.00000
   O   0.1627519  -0.3830338   0.4253400 SPIN=   0.00000
   O   0.2154403  -0.3324971   0.0869568 SPIN=   0.00000
   O   0.7268290  -0.4901315   0.2449369 SPIN=   0.00000
   O   0.2492960  -0.6765630   0.2999491 SPIN=   0.00000
   S   0.3385793  -0.4705564   0.2642957 SPIN=   0.00000
   F  -0.3340231  -0.0569686   0.2482922 SPIN=   0.00000
   F   0.3340231   0.0569686  -0.2482922 SPIN=   0.00000
%ENDBLOCK POSITIONS_FRAC

# Note: total spin =   8.00

KPOINTS_MP_SPACING 0.07

%BLOCK SPECIES_POT
QC5
%ENDBLOCK SPECIES_POT

SNAP_TO_SYMMETRY
SYMMETRY_GENERATE

