#              Generated by Buildcell
#
# at 23:17:30 (GMT+1.0) 18th August 2020
# in /lustre/scratch/uccabz1/launch_tmp
# on node-c12b-010
# by uccabz1
#
# compiler GCC version 4.9.2
# options -cpp -iprefix /lustre/shared/ucl/apps/gcc/4.9.2/bin/../lib/gcc/x86_64-unknown-linux-gnu/4.9.2/ -mtune=corei7 -march=x86-64 -g -Og
#
# seed  -468486780 -1847670396   562586938  1360251863   239632556   772936385 -1495614508  -593525592  -893834937 -1267904335 -1921563139  -245211203
#
#      Author: C. J. Pickard (cjp20@cam.ac.uk)
#                Space group: P-1
#

%BLOCK LATTICE_ABC
      5.87687      6.04512      6.23227
    103.23121    111.26135     90.05731
%ENDBLOCK LATTICE_ABC

%BLOCK POSITIONS_FRAC
  Li   0.2367442  -0.1475002  -0.2890162 SPIN=   0.00000
  Li  -0.2367442   0.1475002   0.2890162 SPIN=   0.00000
  Fe  -0.2836910  -0.3525915   0.3834177 SPIN=   4.00000
  Fe   0.2836910   0.3525915  -0.3834177 SPIN=   4.00000
   O   0.0867307  -0.3359449   0.3711867 SPIN=   0.00000
   O   0.4216541  -0.1770393   0.2828102 SPIN=   0.00000
   O   0.0598739   0.0373274   0.2677473 SPIN=   0.00000
   O   0.0192452  -0.3178135  -0.0399038 SPIN=   0.00000
   S   0.1468760  -0.1983676   0.2204601 SPIN=   0.00000
   O  -0.0867307   0.3359449  -0.3711867 SPIN=   0.00000
   O  -0.4216541   0.1770393  -0.2828102 SPIN=   0.00000
   O  -0.0598739  -0.0373274  -0.2677473 SPIN=   0.00000
   O  -0.0192452   0.3178135   0.0399038 SPIN=   0.00000
   S  -0.1468760   0.1983676  -0.2204601 SPIN=   0.00000
   F  -0.4879674  -0.2973499  -0.2009549 SPIN=   0.00000
   F   0.4879674   0.2973499   0.2009549 SPIN=   0.00000
%ENDBLOCK POSITIONS_FRAC

# Note: total spin =   8.00

KPOINTS_MP_SPACING 0.07

%BLOCK SPECIES_POT
QC5
%ENDBLOCK SPECIES_POT

SNAP_TO_SYMMETRY
SYMMETRY_GENERATE

