#              Generated by Buildcell
#
# at 23:30:53 (GMT+1.0) 18th August 2020
# in /lustre/scratch/uccabz1/launch_tmp
# on node-c12a-035
# by uccabz1
#
# compiler GCC version 4.9.2
# options -cpp -iprefix /lustre/shared/ucl/apps/gcc/4.9.2/bin/../lib/gcc/x86_64-unknown-linux-gnu/4.9.2/ -mtune=corei7 -march=x86-64 -g -Og
#
# seed  -148218160 -1612436818  -685506594  2097550605  -914215176 -1333804303 -1333500105  1058346898 -1347356943  -839460600 -1034206240  1298497797
#
#      Author: C. J. Pickard (cjp20@cam.ac.uk)
#                Space group: P-1
#

%BLOCK LATTICE_ABC
      4.02597      6.90811      7.85150
    109.16842     91.95042    102.56111
%ENDBLOCK LATTICE_ABC

%BLOCK POSITIONS_FRAC
  Li   0.3323845   0.2080923   0.4440951 SPIN=   0.00000
  Li  -0.3323845  -0.2080923  -0.4440951 SPIN=   0.00000
  Fe  -0.2113054   0.4895101   0.1975259 SPIN=   4.00000
  Fe   0.2113054  -0.4895101  -0.1975259 SPIN=   4.00000
   O   0.3719619  -0.1934553  -0.2063452 SPIN=   0.00000
   O   0.5222992   0.1951160  -0.1259888 SPIN=   0.00000
   O  -0.0831491   0.0025543  -0.1530392 SPIN=   0.00000
   O   0.2163469  -0.0335365  -0.4278148 SPIN=   0.00000
   S   0.2568647  -0.0073304  -0.2282970 SPIN=   0.00000
   O  -0.3719619   0.1934553   0.2063452 SPIN=   0.00000
   O  -0.5222992  -0.1951160   0.1259888 SPIN=   0.00000
   O   0.0831491  -0.0025543   0.1530392 SPIN=   0.00000
   O  -0.2163469   0.0335365   0.4278148 SPIN=   0.00000
   S  -0.2568647   0.0073304   0.2282970 SPIN=   0.00000
   F   0.2627456  -0.4602952   0.3169476 SPIN=   0.00000
   F  -0.2627456   0.4602952  -0.3169476 SPIN=   0.00000
%ENDBLOCK POSITIONS_FRAC

# Note: total spin =   8.00

KPOINTS_MP_SPACING 0.07

%BLOCK SPECIES_POT
QC5
%ENDBLOCK SPECIES_POT

SNAP_TO_SYMMETRY
SYMMETRY_GENERATE

