#              Generated by Buildcell
#
# at 02:22:23 (GMT+1.0) 19th August 2020
# in /lustre/scratch/uccabz1/launch_tmp
# on node-c12p-003
# by uccabz1
#
# compiler GCC version 4.9.2
# options -cpp -iprefix /lustre/shared/ucl/apps/gcc/4.9.2/bin/../lib/gcc/x86_64-unknown-linux-gnu/4.9.2/ -mtune=corei7 -march=x86-64 -g -Og
#
# seed  1873587427 -1227821990 -1587310325  1784255644  -688081625  -456123892   222748009 -1548841612   837280545  -699719669 -1338354367 -1879651608
#
#      Author: C. J. Pickard (cjp20@cam.ac.uk)
#                Space group: C2
#

%BLOCK LATTICE_ABC
      4.30501      6.38526      7.74224
     93.26101     90.00000    109.70062
%ENDBLOCK LATTICE_ABC

%BLOCK POSITIONS_FRAC
  Li   0.2426963   0.4765652  -0.2904338 SPIN=   0.00000
  Li  -0.2338689  -0.4765652   0.2904338 SPIN=   0.00000
  Fe  -0.1322167  -0.2738660  -0.1133870 SPIN=   4.00000
  Fe   0.1416493   0.2738660   0.1133870 SPIN=   4.00000
   O   0.6492047   0.0441832   0.1518591 SPIN=   0.00000
   O   0.4860846  -0.3665911   0.1160720 SPIN=   0.00000
   O   0.0641763  -0.1902491   0.1796548 SPIN=   0.00000
   O   0.4748114  -0.1837651   0.4054398 SPIN=   0.00000
   S   0.4185693  -0.1741055   0.2132564 SPIN=   0.00000
   O  -0.3949785  -0.0441832  -0.1518591 SPIN=   0.00000
   O  -0.1473243   0.3665911  -0.1160720 SPIN=   0.00000
   O  -0.7455746   0.1902491  -0.1796548 SPIN=   0.00000
   O  -0.3414235   0.1837651  -0.4054398 SPIN=   0.00000
   S  -0.4073252   0.1741055  -0.2132564 SPIN=   0.00000
   F  -0.0774445  -0.2883625  -0.3678028 SPIN=   0.00000
   F   0.2109180   0.2883625   0.3678028 SPIN=   0.00000
%ENDBLOCK POSITIONS_FRAC

# Note: total spin =   8.00

KPOINTS_MP_SPACING 0.07

%BLOCK SPECIES_POT
QC5
%ENDBLOCK SPECIES_POT

SNAP_TO_SYMMETRY
SYMMETRY_GENERATE

