#              Generated by Buildcell
#
# at 04:47:53 (GMT+1.0) 4th August 2020
# in /lustre/scratch/uccabz1/launch_tmp
# on node-c12o-002
# by uccabz1
#
# compiler GCC version 4.9.2
# options -cpp -iprefix /lustre/shared/ucl/apps/gcc/4.9.2/bin/../lib/gcc/x86_64-unknown-linux-gnu/4.9.2/ -mtune=corei7 -march=x86-64 -g -Og
#
# seed  -652227424  -554919507 -2101004442   385323149     3402070  1521051880   536746836 -1436379443 -1274361023 -1572121294   119627458  -134737054
#
#      Author: C. J. Pickard (cjp20@cam.ac.uk)
#                Space group: P-1
#

%BLOCK LATTICE_ABC
      4.02637      6.92646      7.21613
     89.95648     83.61862     89.97446
%ENDBLOCK LATTICE_ABC

%BLOCK POSITIONS_FRAC
  Li   0.0000000  -0.5000000   0.5000000 SPIN=   0.00000
  Li  -0.0000000   0.5000000   0.0000000 SPIN=   0.00000
  Fe  -0.0000000  -0.0000000  -0.5000000 SPIN=   0.16079
  Fe   0.0000000   0.0000000   0.0000000 SPIN=   7.83921
   O  -0.0753704  -0.3121771   0.2785884 SPIN=   0.00000
   O  -0.5542552  -0.5152140   0.2130889 SPIN=   0.00000
   O  -0.5594970  -0.1642083   0.1490909 SPIN=   0.00000
   O  -0.6175565  -0.2825562   0.4747731 SPIN=   0.00000
   S  -0.4516698  -0.3185389   0.2788853 SPIN=   0.00000
   O   0.0753704   0.3121771  -0.2785884 SPIN=   0.00000
   O   0.5542552   0.5152140  -0.2130889 SPIN=   0.00000
   O   0.5594970   0.1642083  -0.1490909 SPIN=   0.00000
   O   0.6175565   0.2825562  -0.4747731 SPIN=   0.00000
   S   0.4516698   0.3185389  -0.2788853 SPIN=   0.00000
   F  -0.1165798  -0.1569308  -0.2640000 SPIN=   0.00000
   F   0.1165798   0.1569308   0.2640000 SPIN=   0.00000
%ENDBLOCK POSITIONS_FRAC

# Note: total spin =   8.00

KPOINTS_MP_SPACING 0.07

%BLOCK SPECIES_POT
QC5
%ENDBLOCK SPECIES_POT

SNAP_TO_SYMMETRY
SYMMETRY_GENERATE

