#              Generated by Buildcell
#
# at 04:03:16 (GMT+1.0) 4th August 2020
# in /lustre/scratch/uccabz1/launch_tmp
# on node-c12l-019
# by uccabz1
#
# compiler GCC version 4.9.2
# options -cpp -iprefix /lustre/shared/ucl/apps/gcc/4.9.2/bin/../lib/gcc/x86_64-unknown-linux-gnu/4.9.2/ -mtune=corei7 -march=x86-64 -g -Og
#
# seed  1119917471 -1333530890    10498619   851490810  1948144302   411860661   609962659  -885859256  1994140538   775823365  1360956647  1011821165
#
#      Author: C. J. Pickard (cjp20@cam.ac.uk)
#                Space group: P2
#

%BLOCK LATTICE_ABC
      5.20054      6.23516      6.28244
    100.96008     90.00000     90.00000
%ENDBLOCK LATTICE_ABC

%BLOCK POSITIONS_FRAC
  Li   0.3206660   0.1541817   0.2804511 SPIN=   0.00000
  Li   0.3206660  -0.1541817  -0.2804511 SPIN=   0.00000
  Fe   0.0368384   0.2658112  -0.2301970 SPIN=   4.00000
  Fe   0.0368384  -0.2658112   0.2301970 SPIN=   4.00000
   O  -0.1732703   0.0044409   0.1830533 SPIN=   0.00000
   O  -0.1802179   0.3067478   0.5016052 SPIN=   0.00000
   O  -0.4176287   0.3419637   0.1685667 SPIN=   0.00000
   O   0.0581896   0.3487511   0.1710604 SPIN=   0.00000
   S  -0.1782318   0.2504759   0.2560714 SPIN=   0.00000
   O  -0.1732703  -0.0044409  -0.1830533 SPIN=   0.00000
   O  -0.1802179  -0.3067478  -0.5016052 SPIN=   0.00000
   O  -0.4176287  -0.3419637  -0.1685667 SPIN=   0.00000
   O   0.0581896  -0.3487511  -0.1710604 SPIN=   0.00000
   S  -0.1782318  -0.2504759  -0.2560714 SPIN=   0.00000
   F   0.3975783   0.2385043  -0.2470736 SPIN=   0.00000
   F   0.3975783  -0.2385043   0.2470736 SPIN=   0.00000
%ENDBLOCK POSITIONS_FRAC

# Note: total spin =   8.00

KPOINTS_MP_SPACING 0.07

%BLOCK SPECIES_POT
QC5
%ENDBLOCK SPECIES_POT

SNAP_TO_SYMMETRY
SYMMETRY_GENERATE

