#              Generated by Buildcell
#
# at 22:13:05 (GMT+1.0) 18th August 2020
# in /lustre/scratch/uccabz1/launch_tmp
# on node-c12a-016
# by uccabz1
#
# compiler GCC version 4.9.2
# options -cpp -iprefix /lustre/shared/ucl/apps/gcc/4.9.2/bin/../lib/gcc/x86_64-unknown-linux-gnu/4.9.2/ -mtune=corei7 -march=x86-64 -g -Og
#
# seed -1731537760 -1751028261 -1655270896 -2093551317   272794684  1647054072  -589814537  1001536526 -1471032210   976333394   301549145 -1681619580
#
#      Author: C. J. Pickard (cjp20@cam.ac.uk)
#                Space group: P2
#

%BLOCK LATTICE_ABC
      4.10793      6.37761      7.85285
    103.56013     90.00000     90.00000
%ENDBLOCK LATTICE_ABC

%BLOCK POSITIONS_FRAC
  Li   0.3402668  -0.2181832  -0.3897848 SPIN=   0.00000
  Li   0.3402668   0.2181832   0.3897848 SPIN=   0.00000
  Fe  -0.1599081  -0.2875660  -0.1279542 SPIN=   4.00000
  Fe  -0.1599081   0.2875660   0.1279542 SPIN=   4.00000
   O   0.3976963   0.5193201  -0.1902099 SPIN=   0.00000
   O   0.4413225   0.1945397  -0.0702460 SPIN=   0.00000
   O   0.4653817   0.1595531  -0.3905992 SPIN=   0.00000
   O  -0.0539071   0.2553410  -0.2316031 SPIN=   0.00000
   S   0.3126234   0.2821885  -0.2206646 SPIN=   0.00000
   O   0.3976963  -0.5193201   0.1902099 SPIN=   0.00000
   O   0.4413225  -0.1945397   0.0702460 SPIN=   0.00000
   O   0.4653817  -0.1595531   0.3905992 SPIN=   0.00000
   O  -0.0539071  -0.2553410   0.2316031 SPIN=   0.00000
   S   0.3126234  -0.2821885   0.2206646 SPIN=   0.00000
   F  -0.1365867   0.1998365   0.3289380 SPIN=   0.00000
   F  -0.1365867  -0.1998365  -0.3289380 SPIN=   0.00000
%ENDBLOCK POSITIONS_FRAC

# Note: total spin =   8.00

KPOINTS_MP_SPACING 0.07

%BLOCK SPECIES_POT
QC5
%ENDBLOCK SPECIES_POT

SNAP_TO_SYMMETRY
SYMMETRY_GENERATE

