#              Generated by Buildcell
#
# at 19:37:39 (GMT+1.0) 18th August 2020
# in /lustre/scratch/uccabz1/launch_tmp
# on node-c12b-001
# by uccabz1
#
# compiler GCC version 4.9.2
# options -cpp -iprefix /lustre/shared/ucl/apps/gcc/4.9.2/bin/../lib/gcc/x86_64-unknown-linux-gnu/4.9.2/ -mtune=corei7 -march=x86-64 -g -Og
#
# seed -1081249102  1393073788 -1751887021  -785876273   734320441  2114685970  -490640185  -853110135 -1010367468   921176427  1865972104  1308472838
#
#      Author: C. J. Pickard (cjp20@cam.ac.uk)
#                Space group: C2
#

%BLOCK LATTICE_ABC
      6.05159      6.05159      6.73078
     64.58933     64.58933     84.33772
%ENDBLOCK LATTICE_ABC

%BLOCK POSITIONS_FRAC
  Li  -0.2234369  -0.2870073   0.2723713 SPIN=   0.00000
  Li   0.2870073   0.2234369  -0.2723713 SPIN=   0.00000
  Fe   0.3409641  -0.1332936   0.1699548 SPIN=   4.00000
  Fe   0.1332936  -0.3409641  -0.1699548 SPIN=   4.00000
   O  -0.3133773   0.5176952  -0.2963782 SPIN=   0.00000
   O   0.1406480   0.5718999  -0.4658302 SPIN=   0.00000
   O  -0.0581270   0.3780717  -0.6138396 SPIN=   0.00000
   O  -0.0836984   0.1552872  -0.1973651 SPIN=   0.00000
   S  -0.0786387   0.4057385  -0.3933533 SPIN=   0.00000
   O  -0.5176952   0.3133773   0.2963782 SPIN=   0.00000
   O  -0.5718999  -0.1406480   0.4658302 SPIN=   0.00000
   O  -0.3780717   0.0581270   0.6138396 SPIN=   0.00000
   O  -0.1552872   0.0836984   0.1973651 SPIN=   0.00000
   S  -0.4057385   0.0786387   0.3933533 SPIN=   0.00000
   F   0.2588175   0.3167894   0.0134082 SPIN=   0.00000
   F  -0.3167894  -0.2588175  -0.0134082 SPIN=   0.00000
%ENDBLOCK POSITIONS_FRAC

# Note: total spin =   8.00

KPOINTS_MP_SPACING 0.07

%BLOCK SPECIES_POT
QC5
%ENDBLOCK SPECIES_POT

SNAP_TO_SYMMETRY
SYMMETRY_GENERATE

