#              Generated by Buildcell
#
# at 04:25:39 (GMT+1.0) 4th August 2020
# in /lustre/scratch/uccabz1/launch_tmp
# on node-c12d-013
# by uccabz1
#
# compiler GCC version 4.9.2
# options -cpp -iprefix /lustre/shared/ucl/apps/gcc/4.9.2/bin/../lib/gcc/x86_64-unknown-linux-gnu/4.9.2/ -mtune=corei7 -march=x86-64 -g -Og
#
# seed  1029639723 -1640967159   -99862396  2113623031 -1046205438  1282874162   996091742   150511180   855799477 -1692032343   330471485 -1524657753
#
#      Author: C. J. Pickard (cjp20@cam.ac.uk)
#                Space group: Pc
#

%BLOCK LATTICE_ABC
      4.34180      5.16457      9.51878
     90.00000     90.00000    110.44451
%ENDBLOCK LATTICE_ABC

%BLOCK POSITIONS_FRAC
  Li  -0.3439371  -0.4891171   0.1570839 SPIN=   0.00000
  Li  -0.3439371   0.0108829  -0.1570839 SPIN=   0.00000
  Fe  -0.0771963  -0.3152675  -0.3669698 SPIN=   4.00000
  Fe  -0.0771963   0.1847325   0.3669698 SPIN=   4.00000
   O   0.4201850  -0.1618700   0.2993281 SPIN=   0.00000
   O   0.1311816  -0.4352501   0.0946797 SPIN=   0.00000
   O   0.5874622   0.0084379   0.0581543 SPIN=   0.00000
   O   0.0561560   0.0056728   0.1536548 SPIN=   0.00000
   S   0.2987462  -0.1457523   0.1514542 SPIN=   0.00000
   O   0.4201850   0.3381300  -0.2993281 SPIN=   0.00000
   O   0.1311816   0.0647499  -0.0946797 SPIN=   0.00000
   O   0.5874622   0.5084379  -0.0581543 SPIN=   0.00000
   O   0.0561560   0.5056728  -0.1536548 SPIN=   0.00000
   S   0.2987462   0.3542477  -0.1514542 SPIN=   0.00000
   F  -0.3395693   0.4350417   0.3615814 SPIN=   0.00000
   F  -0.3395693  -0.0649583  -0.3615814 SPIN=   0.00000
%ENDBLOCK POSITIONS_FRAC

# Note: total spin =   8.00

KPOINTS_MP_SPACING 0.07

%BLOCK SPECIES_POT
QC5
%ENDBLOCK SPECIES_POT

SNAP_TO_SYMMETRY
SYMMETRY_GENERATE

