#              Generated by Buildcell
#
# at 04:51:00 (GMT+1.0) 4th August 2020
# in /lustre/scratch/uccabz1/launch_tmp
# on node-c12f-019
# by uccabz1
#
# compiler GCC version 4.9.2
# options -cpp -iprefix /lustre/shared/ucl/apps/gcc/4.9.2/bin/../lib/gcc/x86_64-unknown-linux-gnu/4.9.2/ -mtune=corei7 -march=x86-64 -g -Og
#
# seed -1048999534  -253922335 -1132368342 -1364653849  -990115499 -1599682933  -179637568  -314126163   102748869  -772693484   416594301  -204615896
#
#      Author: C. J. Pickard (cjp20@cam.ac.uk)
#                Space group: Pc
#

%BLOCK LATTICE_ABC
      4.84545      6.20182      6.65543
     90.00000     90.00000     90.01702
%ENDBLOCK LATTICE_ABC

%BLOCK POSITIONS_FRAC
  Li   0.3118755   0.4107256  -0.4658121 SPIN=   0.00000
  Li  -0.1881245  -0.0892744   0.4658121 SPIN=   0.00000
  Fe   0.3118519  -0.1501499  -0.2697649 SPIN=   4.00000
  Fe  -0.1881481   0.3498501   0.2697649 SPIN=   4.00000
   O   0.5585044   0.5280977  -0.1028039 SPIN=   0.00000
   O   0.3079467   0.1881325  -0.1711976 SPIN=   0.00000
   O   0.0488437   0.5178441  -0.0802969 SPIN=   0.00000
   O   0.3321739   0.3311442   0.1755141 SPIN=   0.00000
   S   0.3118672   0.3913046  -0.0446961 SPIN=   0.00000
   O   0.0585044   0.0280977   0.1028039 SPIN=   0.00000
   O  -0.1920533  -0.3118675   0.1711976 SPIN=   0.00000
   O  -0.4511563   0.0178441   0.0802969 SPIN=   0.00000
   O  -0.1678261  -0.1688558  -0.1755141 SPIN=   0.00000
   S  -0.1881328  -0.1086954   0.0446961 SPIN=   0.00000
   F   0.3117935  -0.2953274   0.4329702 SPIN=   0.00000
   F  -0.1882065   0.2046726  -0.4329702 SPIN=   0.00000
%ENDBLOCK POSITIONS_FRAC

# Note: total spin =   8.00

KPOINTS_MP_SPACING 0.07

%BLOCK SPECIES_POT
QC5
%ENDBLOCK SPECIES_POT

SNAP_TO_SYMMETRY
SYMMETRY_GENERATE

