#              Generated by Buildcell
#
# at 20:22:07 (GMT+1.0) 18th August 2020
# in /lustre/scratch/uccabz1/launch_tmp
# on node-c12l-020
# by uccabz1
#
# compiler GCC version 4.9.2
# options -cpp -iprefix /lustre/shared/ucl/apps/gcc/4.9.2/bin/../lib/gcc/x86_64-unknown-linux-gnu/4.9.2/ -mtune=corei7 -march=x86-64 -g -Og
#
# seed  -583906993   284549295 -1889626714 -1332734120 -1256281109  -694200384  2135537323  1822838547   575330241  -260097520   -51404473  1564168083
#
#      Author: C. J. Pickard (cjp20@cam.ac.uk)
#                Space group: Pcc2
#

%BLOCK LATTICE_ABC
      3.96348      5.83858      8.64264
     90.00000     90.00000     90.00000
%ENDBLOCK LATTICE_ABC

%BLOCK POSITIONS_FRAC
  Li   0.5000000   0.5000000   0.0327300 SPIN=   0.00000
  Li   0.5000000  -0.5000000  -0.4672700 SPIN=   0.00000
  Fe   0.0000000   0.5000000  -0.2139329 SPIN=   4.00000
  Fe   0.0000000  -0.5000000   0.2860671 SPIN=   4.00000
   O   0.3063610   0.2231139  -0.2412492 SPIN=   0.00000
   O   0.2510717  -0.1150026  -0.0704189 SPIN=   0.00000
   O  -0.3063610  -0.2231139  -0.2412492 SPIN=   0.00000
   O  -0.2510717   0.1150026  -0.0704189 SPIN=   0.00000
   O   0.3063610  -0.2231139   0.2587508 SPIN=   0.00000
   O   0.2510717   0.1150026   0.4295811 SPIN=   0.00000
   O  -0.3063610   0.2231139   0.2587508 SPIN=   0.00000
   O  -0.2510717  -0.1150026   0.4295811 SPIN=   0.00000
   S   0.5000000   0.0000000   0.1126128 SPIN=   0.00000
   S   0.5000000   0.0000000  -0.3873872 SPIN=   0.00000
   F   0.0000000  -0.5000000   0.0360932 SPIN=   0.00000
   F   0.0000000   0.5000000  -0.4639068 SPIN=   0.00000
%ENDBLOCK POSITIONS_FRAC

# Note: total spin =   8.00

KPOINTS_MP_SPACING 0.07

%BLOCK SPECIES_POT
QC5
%ENDBLOCK SPECIES_POT

SNAP_TO_SYMMETRY
SYMMETRY_GENERATE

