#              Generated by Buildcell
#
# at 03:39:43 (GMT+1.0) 4th August 2020
# in /lustre/scratch/uccabz1/launch_tmp
# on node-c12k-033
# by uccabz1
#
# compiler GCC version 4.9.2
# options -cpp -iprefix /lustre/shared/ucl/apps/gcc/4.9.2/bin/../lib/gcc/x86_64-unknown-linux-gnu/4.9.2/ -mtune=corei7 -march=x86-64 -g -Og
#
# seed    10749425  -763085392   -90317579  1475122673  -379303717  1902495451  -373750042 -1299787523  -769426320  -406537755   290857414 -1115331823
#
#      Author: C. J. Pickard (cjp20@cam.ac.uk)
#                Space group: Pmn21
#

%BLOCK LATTICE_ABC
      5.14511      5.91385      6.57302
     90.00000     90.00000     90.00000
%ENDBLOCK LATTICE_ABC

%BLOCK POSITIONS_FRAC
  Li  -0.0928665   0.0000000   0.2959800 SPIN=   0.00000
  Li   0.4071335   0.5000000  -0.2959800 SPIN=   0.00000
  Fe   0.0293440   0.5000000   0.0444511 SPIN=   4.00000
  Fe  -0.4706560  -0.0000000  -0.0444511 SPIN=   4.00000
   O   0.7291226  -0.3026250  -0.3118341 SPIN=   0.00000
   O   0.2644367  -0.1973748  -0.3340691 SPIN=   0.00000
   O   0.2291226  -0.1973750   0.3118341 SPIN=   0.00000
   O  -0.2355633  -0.3026252   0.3340691 SPIN=   0.00000
   O   0.2291226   0.1973750   0.3118341 SPIN=   0.00000
   O  -0.2355633   0.3026252   0.3340691 SPIN=   0.00000
   O   0.7291226   0.3026250  -0.3118341 SPIN=   0.00000
   O   0.2644367   0.1973748  -0.3340691 SPIN=   0.00000
   S   0.4071436   0.0000000   0.4555371 SPIN=   0.00000
   S  -0.0928564  -0.5000000  -0.4555371 SPIN=   0.00000
   F  -0.0465921  -0.0000000  -0.0213015 SPIN=   0.00000
   F   0.4534079   0.5000000   0.0213015 SPIN=   0.00000
%ENDBLOCK POSITIONS_FRAC

# Note: total spin =   8.00

KPOINTS_MP_SPACING 0.07

%BLOCK SPECIES_POT
QC5
%ENDBLOCK SPECIES_POT

SNAP_TO_SYMMETRY
SYMMETRY_GENERATE

