#              Generated by Buildcell
#
# at 02:56:11 (GMT+1.0) 4th August 2020
# in /lustre/scratch/uccabz1/launch_tmp
# on node-c12p-011
# by uccabz1
#
# compiler GCC version 4.9.2
# options -cpp -iprefix /lustre/shared/ucl/apps/gcc/4.9.2/bin/../lib/gcc/x86_64-unknown-linux-gnu/4.9.2/ -mtune=corei7 -march=x86-64 -g -Og
#
# seed -2030498636 -1520146900  1217640425   888219790   405364858  1112169365  2142180916   941422350 -1712319811  1614360292  -253662932 -1458756022
#
#      Author: C. J. Pickard (cjp20@cam.ac.uk)
#                Space group: P2
#

%BLOCK LATTICE_ABC
      4.00656      4.21443     11.85410
     92.29802     90.00000     90.00000
%ENDBLOCK LATTICE_ABC

%BLOCK POSITIONS_FRAC
  Li   0.0859485   0.2172675  -0.3149602 SPIN=   0.00000
  Li   0.0859485  -0.2172675   0.3149602 SPIN=   0.00000
  Fe   0.1244910   0.2639857   0.1239095 SPIN=   4.00000
  Fe   0.1244910  -0.2639857  -0.1239095 SPIN=   4.00000
   O  -0.4272673   0.6489991   0.3445182 SPIN=   0.00000
   O  -0.3658579   0.1416689   0.2339570 SPIN=   0.00000
   O  -0.6605659   0.1537370   0.4175630 SPIN=   0.00000
   S  -0.3756184   0.2941918   0.3518853 SPIN=   0.00000
   O  -0.4272673  -0.6489991  -0.3445182 SPIN=   0.00000
   O  -0.3658579  -0.1416689  -0.2339570 SPIN=   0.00000
   O  -0.6605659  -0.1537370  -0.4175630 SPIN=   0.00000
   S  -0.3756184  -0.2941918  -0.3518853 SPIN=   0.00000
   O  -0.0789162  -0.5000000  -0.5000000 SPIN=   0.00000
   O  -0.3832533   0.5000000   0.0000000 SPIN=   0.00000
   F   0.1336760   0.2354363  -0.1437526 SPIN=   0.00000
   F   0.1336760  -0.2354363   0.1437526 SPIN=   0.00000
%ENDBLOCK POSITIONS_FRAC

# Note: total spin =   8.00

KPOINTS_MP_SPACING 0.07

%BLOCK SPECIES_POT
QC5
%ENDBLOCK SPECIES_POT

SNAP_TO_SYMMETRY
SYMMETRY_GENERATE

