#              Generated by Buildcell
#
# at 03:52:37 (GMT+1.0) 4th August 2020
# in /lustre/scratch/uccabz1/launch_tmp
# on node-c12d-006
# by uccabz1
#
# compiler GCC version 4.9.2
# options -cpp -iprefix /lustre/shared/ucl/apps/gcc/4.9.2/bin/../lib/gcc/x86_64-unknown-linux-gnu/4.9.2/ -mtune=corei7 -march=x86-64 -g -Og
#
# seed  1087392224   -26051212 -1607410008 -1845937732 -1575713620 -1424644004 -1542735574   505480117  1237938878  2048330150   354419337 -1157898190
#
#      Author: C. J. Pickard (cjp20@cam.ac.uk)
#                Space group: P21
#

%BLOCK LATTICE_ABC
      5.20852      5.51823      7.07864
     90.00000     90.00000    100.57132
%ENDBLOCK LATTICE_ABC

%BLOCK POSITIONS_FRAC
  Li  -0.3983418   0.3944382   0.2927337 SPIN=   0.00000
  Li   0.3983418  -0.3944382  -0.2072663 SPIN=   0.00000
  Fe   0.3365758   0.0948990  -0.0417270 SPIN=   4.00000
  Fe  -0.3365758  -0.0948990   0.4582730 SPIN=   4.00000
   O   0.2936629   0.6108979   0.3504382 SPIN=   0.00000
   O  -0.1383557   0.5078530   0.5056962 SPIN=   0.00000
   O   0.2335993   0.3317630   0.6269569 SPIN=   0.00000
   O   0.0310670   0.1908680   0.3204092 SPIN=   0.00000
   S   0.1049934   0.4103455   0.4508751 SPIN=   0.00000
   O  -0.2936629  -0.6108979  -0.1495618 SPIN=   0.00000
   O   0.1383557  -0.5078530   0.0056962 SPIN=   0.00000
   O  -0.2335993  -0.3317630   0.1269569 SPIN=   0.00000
   O  -0.0310670  -0.1908680  -0.1795908 SPIN=   0.00000
   S  -0.1049934  -0.4103455  -0.0491249 SPIN=   0.00000
   F   0.4916052  -0.0742170  -0.3143143 SPIN=   0.00000
   F  -0.4916052   0.0742170   0.1856857 SPIN=   0.00000
%ENDBLOCK POSITIONS_FRAC

# Note: total spin =   8.00

KPOINTS_MP_SPACING 0.07

%BLOCK SPECIES_POT
QC5
%ENDBLOCK SPECIES_POT

SNAP_TO_SYMMETRY
SYMMETRY_GENERATE

