#              Generated by Buildcell
#
# at 22:00:31 (GMT+1.0) 18th August 2020
# in /lustre/scratch/uccabz1/launch_tmp
# on node-c12j-010
# by uccabz1
#
# compiler GCC version 4.9.2
# options -cpp -iprefix /lustre/shared/ucl/apps/gcc/4.9.2/bin/../lib/gcc/x86_64-unknown-linux-gnu/4.9.2/ -mtune=corei7 -march=x86-64 -g -Og
#
# seed -1410615531   666853941   467739948   752940189  -964520951 -1712565443  2143977224   294672727  1918120855  -199603493  2050310782 -1752540627
#
#      Author: C. J. Pickard (cjp20@cam.ac.uk)
#                Space group: Cc
#

%BLOCK LATTICE_ABC
      5.05507      5.05507      7.91585
     86.21663     86.21663     83.02185
%ENDBLOCK LATTICE_ABC

%BLOCK POSITIONS_FRAC
  Li   0.1561515  -0.2287718  -0.2137460 SPIN=   0.00000
  Li  -0.2287718   0.1561515   0.2862540 SPIN=   0.00000
  Fe  -0.3360070  -0.2840170   0.0092702 SPIN=   4.00000
  Fe  -0.2840170  -0.3360070  -0.4907298 SPIN=   4.00000
   O   0.4852263   0.0365523  -0.3438239 SPIN=   0.00000
   O  -0.0002033   0.0489695  -0.3747150 SPIN=   0.00000
   O   0.3031071   0.1214530  -0.6275330 SPIN=   0.00000
   O   0.2138537   0.4653982  -0.4159731 SPIN=   0.00000
   S   0.2504959   0.1680933  -0.4405113 SPIN=   0.00000
   O   0.0365523   0.4852263   0.1561761 SPIN=   0.00000
   O   0.0489695  -0.0002033   0.1252850 SPIN=   0.00000
   O   0.1214530   0.3031071  -0.1275330 SPIN=   0.00000
   O   0.4653982   0.2138537   0.0840269 SPIN=   0.00000
   S   0.1680933   0.2504959   0.0594887 SPIN=   0.00000
   F  -0.3175584  -0.4468076  -0.2342105 SPIN=   0.00000
   F  -0.4468076  -0.3175584   0.2657895 SPIN=   0.00000
%ENDBLOCK POSITIONS_FRAC

# Note: total spin =   8.00

KPOINTS_MP_SPACING 0.07

%BLOCK SPECIES_POT
QC5
%ENDBLOCK SPECIES_POT

SNAP_TO_SYMMETRY
SYMMETRY_GENERATE

