#              Generated by Buildcell
#
# at 04:19:02 (GMT+1.0) 4th August 2020
# in /lustre/scratch/uccabz1/launch_tmp
# on node-c12m-023
# by uccabz1
#
# compiler GCC version 4.9.2
# options -cpp -iprefix /lustre/shared/ucl/apps/gcc/4.9.2/bin/../lib/gcc/x86_64-unknown-linux-gnu/4.9.2/ -mtune=corei7 -march=x86-64 -g -Og
#
# seed  -739085619   875968043  1864748189   116514034  -620247204   590945487  -320501847   195886937   558621823 -1300617650   221290481  1213970261
#
#      Author: C. J. Pickard (cjp20@cam.ac.uk)
#                Space group: P21
#

%BLOCK LATTICE_ABC
      4.15528      4.96009      9.72236
     93.54419     90.00000     90.00000
%ENDBLOCK LATTICE_ABC

%BLOCK POSITIONS_FRAC
  Li  -0.1891955   0.2597034  -0.4199127 SPIN=   0.00000
  Li   0.3108045  -0.2597034   0.4199127 SPIN=   0.00000
  Fe  -0.0919596  -0.1856280  -0.1392829 SPIN=   4.00000
  Fe   0.4080404   0.1856280   0.1392829 SPIN=   4.00000
   O   0.2535441   0.1252831  -0.0870524 SPIN=   0.00000
   O   0.2564753   0.2581878  -0.3282518 SPIN=   0.00000
   O   0.7656522   0.2500244  -0.1965142 SPIN=   0.00000
   O   0.3566534   0.6007976  -0.1370855 SPIN=   0.00000
   S   0.4080813   0.3085732  -0.1872260 SPIN=   0.00000
   O  -0.2464559  -0.1252831   0.0870524 SPIN=   0.00000
   O  -0.2435247  -0.2581878   0.3282518 SPIN=   0.00000
   O   0.2656522  -0.2500244   0.1965142 SPIN=   0.00000
   O  -0.1433466  -0.6007976   0.1370855 SPIN=   0.00000
   S  -0.0919187  -0.3085732   0.1872260 SPIN=   0.00000
   F   0.4082955   0.2321586   0.3648978 SPIN=   0.00000
   F  -0.0917045  -0.2321586  -0.3648978 SPIN=   0.00000
%ENDBLOCK POSITIONS_FRAC

# Note: total spin =   8.00

KPOINTS_MP_SPACING 0.07

%BLOCK SPECIES_POT
QC5
%ENDBLOCK SPECIES_POT

SNAP_TO_SYMMETRY
SYMMETRY_GENERATE

