#              Generated by Buildcell
#
# at 02:44:46 (GMT+1.0) 4th August 2020
# in /lustre/scratch/uccabz1/launch_tmp
# on node-c12f-031
# by uccabz1
#
# compiler GCC version 4.9.2
# options -cpp -iprefix /lustre/shared/ucl/apps/gcc/4.9.2/bin/../lib/gcc/x86_64-unknown-linux-gnu/4.9.2/ -mtune=corei7 -march=x86-64 -g -Og
#
# seed -2097378312   983311871 -2085140318   179731159   194486984  1464567046 -1511058413   519961670  1412497594 -1520991235 -2007799765  1239101626
#
#      Author: C. J. Pickard (cjp20@cam.ac.uk)
#                Space group: Cc
#

%BLOCK LATTICE_ABC
      4.00536      5.78486      9.27533
     87.48661     82.72270     69.74534
%ENDBLOCK LATTICE_ABC

%BLOCK POSITIONS_FRAC
  Li  -0.4422356   0.0045604  -0.0035887 SPIN=   0.00000
  Li   0.0623247  -0.0045604   0.4964113 SPIN=   0.00000
  Fe  -0.1230109   0.4237378  -0.0125089 SPIN=   4.00000
  Fe  -0.1992731  -0.4237378   0.4874911 SPIN=   4.00000
   O   0.4738719   0.0116383  -0.4073887 SPIN=   0.00000
   O   0.7987019   0.2456862  -0.3026472 SPIN=   0.00000
   O   0.2682311   0.1873496  -0.1599502 SPIN=   0.00000
   O   0.1933227   0.4629536  -0.3742552 SPIN=   0.00000
   S   0.4335319   0.2269069  -0.3110603 SPIN=   0.00000
   O  -0.0144898  -0.0116383   0.0926113 SPIN=   0.00000
   O   0.5443881  -0.2456862   0.1973528 SPIN=   0.00000
   O  -0.0444193  -0.1873496   0.3400498 SPIN=   0.00000
   O   0.1562764  -0.4629536   0.1257448 SPIN=   0.00000
   S   0.1604389  -0.2269069   0.1889397 SPIN=   0.00000
   F  -0.3307260  -0.3411046  -0.1450275 SPIN=   0.00000
   F  -0.1718306   0.3411046   0.3549725 SPIN=   0.00000
%ENDBLOCK POSITIONS_FRAC

# Note: total spin =   8.00

KPOINTS_MP_SPACING 0.07

%BLOCK SPECIES_POT
QC5
%ENDBLOCK SPECIES_POT

SNAP_TO_SYMMETRY
SYMMETRY_GENERATE

