#              Generated by Buildcell
#
# at 05:29:59 (GMT+1.0) 4th August 2020
# in /lustre/scratch/uccabz1/launch_tmp
# on node-c12l-024
# by uccabz1
#
# compiler GCC version 4.9.2
# options -cpp -iprefix /lustre/shared/ucl/apps/gcc/4.9.2/bin/../lib/gcc/x86_64-unknown-linux-gnu/4.9.2/ -mtune=corei7 -march=x86-64 -g -Og
#
# seed -1621425429  -912026650   -22862389  1060775258   666965422  1420349932  -591254347   289808291   111817881   -67472322   523394799  -431021939
#
#      Author: C. J. Pickard (cjp20@cam.ac.uk)
#                Space group: P-1
#

%BLOCK LATTICE_ABC
      4.40081      6.82231      7.06231
     82.21255     74.57876     79.27119
%ENDBLOCK LATTICE_ABC

%BLOCK POSITIONS_FRAC
  Li  -0.1200202   0.0147500   0.2679560 SPIN=   0.00000
  Li   0.1200202  -0.0147500  -0.2679560 SPIN=   0.00000
  Fe   0.2432892   0.3151773   0.3116965 SPIN=   4.00000
  Fe  -0.2432892  -0.3151773  -0.3116965 SPIN=   4.00000
   O   0.2406411  -0.3672614   0.2391000 SPIN=   0.00000
   O   0.6171203  -0.1223348   0.1509097 SPIN=   0.00000
   O   0.6691534  -0.3974609   0.4129792 SPIN=   0.00000
   O   0.2143166  -0.1198259   0.4711633 SPIN=   0.00000
   S   0.4353079  -0.2517207   0.3185380 SPIN=   0.00000
   O  -0.2406411   0.3672614  -0.2391000 SPIN=   0.00000
   O  -0.6171203   0.1223348  -0.1509097 SPIN=   0.00000
   O  -0.6691534   0.3974609  -0.4129792 SPIN=   0.00000
   O  -0.2143166   0.1198259  -0.4711633 SPIN=   0.00000
   S  -0.4353079   0.2517207  -0.3185380 SPIN=   0.00000
   F  -0.2920620   0.2556022   0.1572163 SPIN=   0.00000
   F   0.2920620  -0.2556022  -0.1572163 SPIN=   0.00000
%ENDBLOCK POSITIONS_FRAC

# Note: total spin =   8.00

KPOINTS_MP_SPACING 0.07

%BLOCK SPECIES_POT
QC5
%ENDBLOCK SPECIES_POT

SNAP_TO_SYMMETRY
SYMMETRY_GENERATE

