#              Generated by Buildcell
#
# at 00:30:13 (GMT+1.0) 19th August 2020
# in /lustre/scratch/uccabz1/launch_tmp
# on node-c12a-029
# by uccabz1
#
# compiler GCC version 4.9.2
# options -cpp -iprefix /lustre/shared/ucl/apps/gcc/4.9.2/bin/../lib/gcc/x86_64-unknown-linux-gnu/4.9.2/ -mtune=corei7 -march=x86-64 -g -Og
#
# seed   206088808  -333373480 -1325937393  1639373202 -1955043223  1308540825   672375235  -898571589  1698648309  2108666042  1545912475  1941684271
#
#      Author: C. J. Pickard (cjp20@cam.ac.uk)
#                Space group: P21
#

%BLOCK LATTICE_ABC
      4.24096      4.96740     10.14912
     90.00000     90.00000    110.70321
%ENDBLOCK LATTICE_ABC

%BLOCK POSITIONS_FRAC
  Li  -0.2112291   0.2407680   0.3991618 SPIN=   0.00000
  Li   0.2112291  -0.2407680  -0.1008382 SPIN=   0.00000
  Fe   0.2204456  -0.2447196   0.2277986 SPIN=   4.00000
  Fe  -0.2204456   0.2447196  -0.2722014 SPIN=   4.00000
   O   0.0812222   0.0493879  -0.3478898 SPIN=   0.00000
   O  -0.1012416  -0.4090031  -0.4720249 SPIN=   0.00000
   O   0.5066274  -0.1294391  -0.4438198 SPIN=   0.00000
   O   0.1595263   0.0532787  -0.5896194 SPIN=   0.00000
   S   0.1615336  -0.1089439  -0.4633385 SPIN=   0.00000
   O  -0.0812222  -0.0493879   0.1521102 SPIN=   0.00000
   O   0.1012416   0.4090031   0.0279751 SPIN=   0.00000
   O  -0.5066274   0.1294391   0.0561802 SPIN=   0.00000
   O  -0.1595263  -0.0532787  -0.0896194 SPIN=   0.00000
   S  -0.1615336   0.1089439   0.0366615 SPIN=   0.00000
   F   0.4965869   0.4919523  -0.2160044 SPIN=   0.00000
   F  -0.4965869  -0.4919523   0.2839956 SPIN=   0.00000
%ENDBLOCK POSITIONS_FRAC

# Note: total spin =   8.00

KPOINTS_MP_SPACING 0.07

%BLOCK SPECIES_POT
QC5
%ENDBLOCK SPECIES_POT

SNAP_TO_SYMMETRY
SYMMETRY_GENERATE

