#              Generated by Buildcell
#
# at 05:04:10 (GMT+1.0) 4th August 2020
# in /lustre/scratch/uccabz1/launch_tmp
# on node-c12f-034
# by uccabz1
#
# compiler GCC version 4.9.2
# options -cpp -iprefix /lustre/shared/ucl/apps/gcc/4.9.2/bin/../lib/gcc/x86_64-unknown-linux-gnu/4.9.2/ -mtune=corei7 -march=x86-64 -g -Og
#
# seed -2041880360 -1686868272  -543952943 -1691574102  1292488327  1467375587  1065902313  -589000558  1054561068  1053374823  1735481531   843549845
#
#      Author: C. J. Pickard (cjp20@cam.ac.uk)
#                Space group: Pba2
#

%BLOCK LATTICE_ABC
      4.64104      6.44940      6.68183
     90.00000     90.00000     90.00000
%ENDBLOCK LATTICE_ABC

%BLOCK POSITIONS_FRAC
  Li  -0.5000000   0.1174395  -0.0000000 SPIN=   0.00000
  Li  -0.0000000   0.1174395   0.5000000 SPIN=   0.00000
  Fe  -0.0000000   0.4239619  -0.0000000 SPIN=   4.00000
  Fe   0.5000000   0.4239619  -0.5000000 SPIN=   4.00000
   O  -0.2471161  -0.2314934   0.4744793 SPIN=   0.00000
   O  -0.6000028  -0.0315198   0.2748428 SPIN=   0.00000
   O   0.2471161  -0.2314934  -0.4744793 SPIN=   0.00000
   O   0.6000028  -0.0315198  -0.2748428 SPIN=   0.00000
   O   0.2528839  -0.2314934   0.0255207 SPIN=   0.00000
   O  -0.1000028  -0.0315198   0.2251572 SPIN=   0.00000
   O  -0.2528839  -0.2314934  -0.0255207 SPIN=   0.00000
   O   0.1000028  -0.0315198  -0.2251572 SPIN=   0.00000
   S  -0.0000000  -0.0782030  -0.0000000 SPIN=   0.00000
   S  -0.5000000  -0.0782030   0.5000000 SPIN=   0.00000
   F   0.5000000   0.4169542  -0.0000000 SPIN=   0.00000
   F  -0.0000000   0.4169542  -0.5000000 SPIN=   0.00000
%ENDBLOCK POSITIONS_FRAC

# Note: total spin =   8.00

KPOINTS_MP_SPACING 0.07

%BLOCK SPECIES_POT
QC5
%ENDBLOCK SPECIES_POT

SNAP_TO_SYMMETRY
SYMMETRY_GENERATE

