#              Generated by Buildcell
#
# at 03:25:15 (GMT+1.0) 4th August 2020
# in /lustre/scratch/uccabz1/launch_tmp
# on node-c12d-029
# by uccabz1
#
# compiler GCC version 4.9.2
# options -cpp -iprefix /lustre/shared/ucl/apps/gcc/4.9.2/bin/../lib/gcc/x86_64-unknown-linux-gnu/4.9.2/ -mtune=corei7 -march=x86-64 -g -Og
#
# seed   618572512   853599752   599638920  -807985393 -1433505279   665754634 -1133204292 -1844049528 -1508959490   822744726  1513411306   632898170
#
#      Author: C. J. Pickard (cjp20@cam.ac.uk)
#                Space group: C2
#

%BLOCK LATTICE_ABC
      3.82345      7.41280      8.17357
    116.51661    102.72731     91.71611
%ENDBLOCK LATTICE_ABC

%BLOCK POSITIONS_FRAC
  Li  -0.3902873   0.1731228  -0.1906913 SPIN=   0.00000
  Li   0.1995959  -0.3638141  -0.1906913 SPIN=   0.00000
  Fe   0.0675069   0.0675069   0.1350137 SPIN=  -0.00000
  Fe  -0.9434827  -0.4434827  -0.8869655 SPIN=   8.00000
   O  -0.6554727  -0.1148275  -0.5380994 SPIN=   0.00000
   O  -1.0453238   0.1290229  -0.5821523 SPIN=   0.00000
   O  -0.9636056   0.0875070  -0.2925691 SPIN=   0.00000
   S  -0.9963409  -0.0217040  -0.5035395 SPIN=   0.00000
   O   0.1173733  -0.4232719  -0.5380994 SPIN=   0.00000
   O   0.4631715  -0.7111752  -0.5821523 SPIN=   0.00000
   O   0.6710365  -0.3800761  -0.2925691 SPIN=   0.00000
   S   0.4928015  -0.4818354  -0.5035395 SPIN=   0.00000
   O  -0.5992208  -0.0992208  -0.1984416 SPIN=   0.00000
   O  -0.0914756   0.4085244   0.8170488 SPIN=   0.00000
   F   0.3207911  -0.2004226   0.0877620 SPIN=   0.00000
   F  -0.2330291   0.2881845   0.0877620 SPIN=   0.00000
%ENDBLOCK POSITIONS_FRAC

# Note: total spin =   8.00

KPOINTS_MP_SPACING 0.07

%BLOCK SPECIES_POT
QC5
%ENDBLOCK SPECIES_POT

SNAP_TO_SYMMETRY
SYMMETRY_GENERATE

