#              Generated by Buildcell
#
# at 18:06:08 (GMT+1.0) 18th August 2020
# in /scratch/scratch/uccabz1/launch_tmp
# on node-k10e-027
# by uccabz1
#
# compiler GCC version 4.9.2
# options -cpp -iprefix /scratch/UCL/applications/gcc/4.9.2/bin/../lib/gcc/x86_64-unknown-linux-gnu/4.9.2/ -mtune=corei7 -march=x86-64 -g -O2
#
# seed -1539828799  -117935024  1956217068   -74477317 -1412303839   952118750  1527687929  1376380606  1366839597  1771637893  1663256661  1770024985
#
#      Author: C. J. Pickard (cjp20@cam.ac.uk)
#                Space group: Pc
#

%BLOCK LATTICE_ABC
      4.09328      5.21938     10.04474
     90.00000     90.00000    111.25644
%ENDBLOCK LATTICE_ABC

%BLOCK POSITIONS_FRAC
  Li   0.2731926   0.0014193  -0.1935048 SPIN=   0.00000
  Li   0.2731926  -0.4985807   0.1935048 SPIN=   0.00000
  Fe  -0.1248092  -0.2773417   0.3731326 SPIN=   4.00000
  Fe  -0.1248092   0.2226583  -0.3731326 SPIN=   4.00000
   O  -0.0902625  -0.0149245   0.1998023 SPIN=   0.00000
   O  -0.6665881  -0.1509769   0.0875999 SPIN=   0.00000
   O  -0.1939463   0.2875148   0.0283111 SPIN=   0.00000
   O  -0.4869437   0.2360846   0.2475122 SPIN=   0.00000
   S  -0.3594352   0.0894245   0.1408064 SPIN=   0.00000
   O  -0.0902625  -0.5149245  -0.1998023 SPIN=   0.00000
   O  -0.6665881  -0.6509769  -0.0875999 SPIN=   0.00000
   O  -0.1939463  -0.2124852  -0.0283111 SPIN=   0.00000
   O  -0.4869437  -0.2639154  -0.2475122 SPIN=   0.00000
   S  -0.3594352  -0.4105755  -0.1408064 SPIN=   0.00000
   F   0.2329179   0.0484042  -0.3811496 SPIN=   0.00000
   F   0.2329179  -0.4515958   0.3811496 SPIN=   0.00000
%ENDBLOCK POSITIONS_FRAC

# Note: total spin =   8.00

KPOINTS_MP_SPACING 0.07

%BLOCK SPECIES_POT
QC5
%ENDBLOCK SPECIES_POT

SNAP_TO_SYMMETRY
SYMMETRY_GENERATE

