#              Generated by Buildcell
#
# at 00:28:19 (GMT+1.0) 19th August 2020
# in /scratch/scratch/uccabz1/launch_tmp
# on node-k10h-020
# by uccabz1
#
# compiler GCC version 4.9.2
# options -cpp -iprefix /scratch/UCL/applications/gcc/4.9.2/bin/../lib/gcc/x86_64-unknown-linux-gnu/4.9.2/ -mtune=corei7 -march=x86-64 -g -O2
#
# seed   499305315  2110655993  -524789120  1967620557 -1914249599  -843501275   708338373  -616966941 -1220707790   496065844 -1635666774  1406404565
#
#      Author: C. J. Pickard (cjp20@cam.ac.uk)
#                Space group: P2
#

%BLOCK LATTICE_ABC
      4.23067      6.83446      7.33670
    109.47424     90.00000     90.00000
%ENDBLOCK LATTICE_ABC

%BLOCK POSITIONS_FRAC
  Li  -0.1642026   0.2144681   0.2794021 SPIN=   0.00000
  Li  -0.1642026  -0.2144681  -0.2794021 SPIN=   0.00000
  Fe   0.3324774  -0.5000000  -0.5000000 SPIN=   2.03671
  Fe   0.3386371  -0.0000000  -0.0000000 SPIN=   5.96329
   O  -0.2551531  -0.3247610   0.0206665 SPIN=   0.00000
   O  -0.5942788  -0.3378931   0.2912066 SPIN=   0.00000
   O  -0.2479467  -0.0344667   0.3316655 SPIN=   0.00000
   S  -0.2778685  -0.2676412   0.2383635 SPIN=   0.00000
   O  -0.2551531   0.3247610  -0.0206665 SPIN=   0.00000
   O  -0.5942788   0.3378931  -0.2912066 SPIN=   0.00000
   O  -0.2479467   0.0344667  -0.3316655 SPIN=   0.00000
   S  -0.2778685   0.2676412  -0.2383635 SPIN=   0.00000
   O  -0.1597183   0.0000000   0.0000000 SPIN=   0.00000
   O   0.2531581   0.0000000  -0.5000000 SPIN=   0.00000
   F   0.3277116  -0.2214821  -0.2730064 SPIN=   0.00000
   F   0.3277116   0.2214821   0.2730064 SPIN=   0.00000
%ENDBLOCK POSITIONS_FRAC

# Note: total spin =   8.00

KPOINTS_MP_SPACING 0.07

%BLOCK SPECIES_POT
QC5
%ENDBLOCK SPECIES_POT

SNAP_TO_SYMMETRY
SYMMETRY_GENERATE

