#              Generated by Buildcell
#
# at 05:19:02 (GMT+1.0) 4th August 2020
# in /lustre/scratch/uccabz1/launch_tmp
# on node-c12d-006
# by uccabz1
#
# compiler GCC version 4.9.2
# options -cpp -iprefix /lustre/shared/ucl/apps/gcc/4.9.2/bin/../lib/gcc/x86_64-unknown-linux-gnu/4.9.2/ -mtune=corei7 -march=x86-64 -g -Og
#
# seed   -21753935   584494312   837406327    71689061  1229516538  -340423200  1913377073  -234840946  -185833376   589359122  -942114923   679622821
#
#      Author: C. J. Pickard (cjp20@cam.ac.uk)
#                Space group: Pc
#

%BLOCK LATTICE_ABC
      4.68780      6.32183      6.93038
    103.14917     90.00000     90.00000
%ENDBLOCK LATTICE_ABC

%BLOCK POSITIONS_FRAC
  Li   0.2187039   0.0255526   0.3950949 SPIN=   0.00000
  Li  -0.2187039  -0.4744474   0.3950949 SPIN=   0.00000
  Fe   0.2818483   0.3521177   0.1648024 SPIN=   4.00000
  Fe  -0.2818483  -0.1478823   0.1648024 SPIN=   4.00000
   O  -0.0196792   0.5237644  -0.1522079 SPIN=   0.00000
   O   0.5076611   0.5357200  -0.1364476 SPIN=   0.00000
   O   0.2596394   0.5626484  -0.4451951 SPIN=   0.00000
   O   0.2634764   0.2140771  -0.3396272 SPIN=   0.00000
   S   0.2527744   0.4590525  -0.2683695 SPIN=   0.00000
   O   0.0196792   0.0237644  -0.1522079 SPIN=   0.00000
   O  -0.5076611   0.0357200  -0.1364476 SPIN=   0.00000
   O  -0.2596394   0.0626484  -0.4451951 SPIN=   0.00000
   O  -0.2634764  -0.2859229  -0.3396272 SPIN=   0.00000
   S  -0.2527744  -0.0409475  -0.2683695 SPIN=   0.00000
   F   0.2488804  -0.2603796   0.2207604 SPIN=   0.00000
   F  -0.2488804   0.2396204   0.2207604 SPIN=   0.00000
%ENDBLOCK POSITIONS_FRAC

# Note: total spin =   8.00

KPOINTS_MP_SPACING 0.07

%BLOCK SPECIES_POT
QC5
%ENDBLOCK SPECIES_POT

SNAP_TO_SYMMETRY
SYMMETRY_GENERATE

