#              Generated by Buildcell
#
# at 02:27:23 (GMT+1.0) 19th August 2020
# in /scratch/scratch/uccabz1/launch_tmp
# on node-k10h-022
# by uccabz1
#
# compiler GCC version 4.9.2
# options -cpp -iprefix /scratch/UCL/applications/gcc/4.9.2/bin/../lib/gcc/x86_64-unknown-linux-gnu/4.9.2/ -mtune=corei7 -march=x86-64 -g -O2
#
# seed  1688039471  2061080449  1315233416  -164147078  -731620269  1265059981 -1438252568  -162694031  1441271133 -1070513461   553296374   -43722031
#
#      Author: C. J. Pickard (cjp20@cam.ac.uk)
#                Space group: Cc
#

%BLOCK LATTICE_ABC
      4.93216      6.24694      6.98625
     87.62188     69.32966     83.24927
%ENDBLOCK LATTICE_ABC

%BLOCK POSITIONS_FRAC
  Li   0.3268260  -0.1602247  -0.2238185 SPIN=   0.00000
  Li  -0.3969925   0.3397753   0.2238185 SPIN=   0.00000
  Fe   0.0995914   0.1057225   0.2996861 SPIN=   4.00000
  Fe  -0.1007225  -0.3942775  -0.2996861 SPIN=   4.00000
   O  -0.4085967   0.2769187  -0.0414619 SPIN=   0.00000
   O   0.1061195   0.1206060  -0.1931062 SPIN=   0.00000
   O  -0.2100703   0.1569460  -0.4025575 SPIN=   0.00000
   O  -0.2908625  -0.1122599  -0.1234902 SPIN=   0.00000
   S  -0.2008525   0.1105527  -0.1901539 SPIN=   0.00000
   O   0.0499413  -0.2230813   0.0414619 SPIN=   0.00000
   O   0.4130133  -0.3793940   0.1931062 SPIN=   0.00000
   O  -0.1126278  -0.3430540   0.4025575 SPIN=   0.00000
   O   0.0856473  -0.6122599   0.1234902 SPIN=   0.00000
   S   0.1089936  -0.3894473   0.1901539 SPIN=   0.00000
   F   0.3500660  -0.4847463  -0.3355974 SPIN=   0.00000
   F  -0.4855314   0.0152537   0.3355974 SPIN=   0.00000
%ENDBLOCK POSITIONS_FRAC

# Note: total spin =   8.00

KPOINTS_MP_SPACING 0.07

%BLOCK SPECIES_POT
QC5
%ENDBLOCK SPECIES_POT

SNAP_TO_SYMMETRY
SYMMETRY_GENERATE

