#              Generated by Buildcell
#
# at 23:13:15 (GMT+1.0) 18th August 2020
# in /lustre/scratch/uccabz1/launch_tmp
# on node-c12e-036
# by uccabz1
#
# compiler GCC version 4.9.2
# options -cpp -iprefix /lustre/shared/ucl/apps/gcc/4.9.2/bin/../lib/gcc/x86_64-unknown-linux-gnu/4.9.2/ -mtune=corei7 -march=x86-64 -g -Og
#
# seed -1209236799  1072370338  -737011344 -1269394331   531804940 -1022664316  1794936338   -76515865 -2122584511  1466964689 -1608303861 -1144293133
#
#      Author: C. J. Pickard (cjp20@cam.ac.uk)
#                Space group: Pc
#

%BLOCK LATTICE_ABC
      4.87447      6.38719      6.51060
     90.00000     90.00000     99.36601
%ENDBLOCK LATTICE_ABC

%BLOCK POSITIONS_FRAC
  Li   0.0670622   0.4457830  -0.2618655 SPIN=   0.00000
  Li  -0.4329378   0.4457830   0.2618655 SPIN=   0.00000
  Fe  -0.4524141   0.1320881  -0.2930993 SPIN=   4.00000
  Fe   0.0475859   0.1320881   0.2930993 SPIN=   4.00000
   O  -0.5379475  -0.4888342  -0.4356415 SPIN=   0.00000
   O  -0.3027165  -0.5082147  -0.1009323 SPIN=   0.00000
   O  -0.5876771  -0.2272941  -0.1633025 SPIN=   0.00000
   O  -0.1373699  -0.2153148  -0.3421435 SPIN=   0.00000
   S  -0.3914277  -0.3599145  -0.2605049 SPIN=   0.00000
   O  -0.0379475  -0.4888342   0.4356415 SPIN=   0.00000
   O   0.1972835  -0.5082147   0.1009323 SPIN=   0.00000
   O  -0.0876771  -0.2272941   0.1633025 SPIN=   0.00000
   O   0.3626301  -0.2153148   0.3421435 SPIN=   0.00000
   S   0.1085723  -0.3599145   0.2605049 SPIN=   0.00000
   F   0.1608565   0.1679062  -0.2489861 SPIN=   0.00000
   F  -0.3391435   0.1679062   0.2489861 SPIN=   0.00000
%ENDBLOCK POSITIONS_FRAC

# Note: total spin =   8.00

KPOINTS_MP_SPACING 0.07

%BLOCK SPECIES_POT
QC5
%ENDBLOCK SPECIES_POT

SNAP_TO_SYMMETRY
SYMMETRY_GENERATE

