#              Generated by Buildcell
#
# at 05:02:37 (GMT+1.0) 4th August 2020
# in /lustre/scratch/uccabz1/launch_tmp
# on node-c12f-003
# by uccabz1
#
# compiler GCC version 4.9.2
# options -cpp -iprefix /lustre/shared/ucl/apps/gcc/4.9.2/bin/../lib/gcc/x86_64-unknown-linux-gnu/4.9.2/ -mtune=corei7 -march=x86-64 -g -Og
#
# seed -1307076444  -437241749 -1668588513  -578818569 -1260094205  1048552900  1509959512  2131608550 -1498187733  1844638575   475751825  1503783626
#
#      Author: C. J. Pickard (cjp20@cam.ac.uk)
#                Space group: P21
#

%BLOCK LATTICE_ABC
      4.03186      6.57669      7.71859
     90.00000     90.00000    102.26060
%ENDBLOCK LATTICE_ABC

%BLOCK POSITIONS_FRAC
  Li  -0.0172176   0.3638168   0.3953237 SPIN=   0.00000
  Li   0.0172176  -0.3638168  -0.1046763 SPIN=   0.00000
  Fe  -0.2140028   0.0630443  -0.3035857 SPIN=   4.00000
  Fe   0.2140028  -0.0630443   0.1964143 SPIN=   4.00000
   O  -0.5836698  -0.3313907   0.3038081 SPIN=   0.00000
   O  -0.6507020  -0.5123213   0.0207728 SPIN=   0.00000
   O  -0.4692135  -0.6852606   0.2780178 SPIN=   0.00000
   O  -0.0773563  -0.3856903   0.1440471 SPIN=   0.00000
   S  -0.4452354  -0.4786657   0.1866614 SPIN=   0.00000
   O   0.5836698   0.3313907  -0.1961919 SPIN=   0.00000
   O   0.6507020   0.5123213  -0.4792272 SPIN=   0.00000
   O   0.4692135   0.6852606  -0.2219822 SPIN=   0.00000
   O   0.0773563   0.3856903  -0.3559529 SPIN=   0.00000
   S   0.4452354   0.4786657  -0.3133386 SPIN=   0.00000
   F   0.1270123  -0.0606023  -0.3905496 SPIN=   0.00000
   F  -0.1270123   0.0606023   0.1094504 SPIN=   0.00000
%ENDBLOCK POSITIONS_FRAC

# Note: total spin =   8.00

KPOINTS_MP_SPACING 0.07

%BLOCK SPECIES_POT
QC5
%ENDBLOCK SPECIES_POT

SNAP_TO_SYMMETRY
SYMMETRY_GENERATE

