#              Generated by Buildcell
#
# at 22:43:50 (GMT+1.0) 18th August 2020
# in /lustre/scratch/uccabz1/launch_tmp
# on node-c12g-001
# by uccabz1
#
# compiler GCC version 4.9.2
# options -cpp -iprefix /lustre/shared/ucl/apps/gcc/4.9.2/bin/../lib/gcc/x86_64-unknown-linux-gnu/4.9.2/ -mtune=corei7 -march=x86-64 -g -Og
#
# seed  -105294763  1346321290 -2103325191 -1734967712  1429749926  2007375632   638229323  1868415594  1776502718  2137779489  -719127815   -61565480
#
#      Author: C. J. Pickard (cjp20@cam.ac.uk)
#                Space group: P21
#

%BLOCK LATTICE_ABC
      4.82802      5.23485      8.22057
     90.00000    105.71526     90.00000
%ENDBLOCK LATTICE_ABC

%BLOCK POSITIONS_FRAC
  Li   0.3215877   0.4507477  -0.1467176 SPIN=   0.00000
  Li  -0.3215877  -0.0492523   0.1467176 SPIN=   0.00000
  Fe   0.0973975   0.4970619   0.1693526 SPIN=   4.00000
  Fe  -0.0973975  -0.0029381  -0.1693526 SPIN=   4.00000
   O  -0.0845371   0.2230907   0.3103406 SPIN=   0.00000
   O  -0.5951044   0.2301084   0.3145401 SPIN=   0.00000
   O  -0.2675194   0.5789024   0.4503347 SPIN=   0.00000
   O  -0.2126982   0.1474445   0.5781646 SPIN=   0.00000
   S  -0.2899648   0.2948865   0.4133450 SPIN=   0.00000
   O   0.0845371  -0.2769093  -0.3103406 SPIN=   0.00000
   O   0.5951044  -0.2698916  -0.3145401 SPIN=   0.00000
   O   0.2675194   0.0789024  -0.4503347 SPIN=   0.00000
   O   0.2126982  -0.3525555  -0.5781646 SPIN=   0.00000
   S   0.2899648  -0.2051135  -0.4133450 SPIN=   0.00000
   F   0.3111743  -0.1813414   0.1324375 SPIN=   0.00000
   F  -0.3111743   0.3186586  -0.1324375 SPIN=   0.00000
%ENDBLOCK POSITIONS_FRAC

# Note: total spin =   8.00

KPOINTS_MP_SPACING 0.07

%BLOCK SPECIES_POT
QC5
%ENDBLOCK SPECIES_POT

SNAP_TO_SYMMETRY
SYMMETRY_GENERATE

