#              Generated by Buildcell
#
# at 01:12:39 (GMT+1.0) 19th August 2020
# in /scratch/scratch/uccabz1/launch_tmp
# on node-k10i-015
# by uccabz1
#
# compiler GCC version 4.9.2
# options -cpp -iprefix /scratch/UCL/applications/gcc/4.9.2/bin/../lib/gcc/x86_64-unknown-linux-gnu/4.9.2/ -mtune=corei7 -march=x86-64 -g -O2
#
# seed -1570506646  -285839152  1852556292  1219096815    74680800  -957086582  1576426039   970428209  -862828291    59779380   606313394  1861805521
#
#      Author: C. J. Pickard (cjp20@cam.ac.uk)
#                Space group: P2
#

%BLOCK LATTICE_ABC
      3.90151      4.23320     12.13190
     93.47837     90.00000     90.00000
%ENDBLOCK LATTICE_ABC

%BLOCK POSITIONS_FRAC
  Li   0.0948058  -0.2825556  -0.1845511 SPIN=   0.00000
  Li   0.0948058   0.2825556   0.1845511 SPIN=   0.00000
  Fe  -0.4056210   0.2279376  -0.1266089 SPIN=   4.00000
  Fe  -0.4056210  -0.2279376   0.1266089 SPIN=   4.00000
   O   0.1675266  -0.4612955   0.4061446 SPIN=   0.00000
   O   0.4321325  -0.0320818   0.3055663 SPIN=   0.00000
   O  -0.1018946   0.0687427   0.4120445 SPIN=   0.00000
   S   0.0960435  -0.1745683   0.3407700 SPIN=   0.00000
   O   0.1675266   0.4612955  -0.4061446 SPIN=   0.00000
   O   0.4321325   0.0320818  -0.3055663 SPIN=   0.00000
   O  -0.1018946  -0.0687427  -0.4120445 SPIN=   0.00000
   S   0.0960435   0.1745683  -0.3407700 SPIN=   0.00000
   O  -0.3377145   0.5000000   0.5000000 SPIN=   0.00000
   O   0.0487095   0.0000000   0.0000000 SPIN=   0.00000
   F  -0.4002833  -0.3149580  -0.1279632 SPIN=   0.00000
   F  -0.4002833   0.3149580   0.1279632 SPIN=   0.00000
%ENDBLOCK POSITIONS_FRAC

# Note: total spin =   8.00

KPOINTS_MP_SPACING 0.07

%BLOCK SPECIES_POT
QC5
%ENDBLOCK SPECIES_POT

SNAP_TO_SYMMETRY
SYMMETRY_GENERATE

