#              Generated by Buildcell
#
# at 01:38:18 (GMT+1.0) 19th August 2020
# in /scratch/scratch/uccabz1/launch_tmp
# on node-k10b-028
# by uccabz1
#
# compiler GCC version 4.9.2
# options -cpp -iprefix /scratch/UCL/applications/gcc/4.9.2/bin/../lib/gcc/x86_64-unknown-linux-gnu/4.9.2/ -mtune=corei7 -march=x86-64 -g -O2
#
# seed -1920567643   861244663   694046369  -674908528 -1814256113  2084092885  1370170821 -1735310355  -187072232 -1782349119  2080820306  -227509345
#
#      Author: C. J. Pickard (cjp20@cam.ac.uk)
#                Space group: Pm
#

%BLOCK LATTICE_ABC
      3.93266      6.47453      7.85906
     90.00000     90.00000     91.88785
%ENDBLOCK LATTICE_ABC

%BLOCK POSITIONS_FRAC
  Li  -0.3703078   0.4028012   0.5000000 SPIN=   0.00000
  Li  -0.0254469   0.3840166   0.0000000 SPIN=   0.00000
  Fe   0.2451132  -0.3149893  -0.2636053 SPIN=   4.00000
  Fe   0.2451132  -0.3149893   0.2636053 SPIN=   4.00000
   O   0.5793637   0.2819977  -0.1403803 SPIN=   0.00000
   O   0.1478468   0.3521954  -0.3603197 SPIN=   0.00000
   O   0.0273717   0.0870499  -0.1396709 SPIN=   0.00000
   S   0.3013274   0.1861073  -0.2513493 SPIN=   0.00000
   O   0.5793637   0.2819977   0.1403803 SPIN=   0.00000
   O   0.1478468   0.3521954   0.3603197 SPIN=   0.00000
   O   0.0273717   0.0870499   0.1396709 SPIN=   0.00000
   S   0.3013274   0.1861073   0.2513493 SPIN=   0.00000
   O  -0.2157206   0.0551139   0.5000000 SPIN=   0.00000
   O   0.2770149  -0.1326247  -0.5000000 SPIN=   0.00000
   F  -0.2413378  -0.3051163   0.2504269 SPIN=   0.00000
   F  -0.2413378  -0.3051163  -0.2504269 SPIN=   0.00000
%ENDBLOCK POSITIONS_FRAC

# Note: total spin =   8.00

KPOINTS_MP_SPACING 0.07

%BLOCK SPECIES_POT
QC5
%ENDBLOCK SPECIES_POT

SNAP_TO_SYMMETRY
SYMMETRY_GENERATE

