#              Generated by Buildcell
#
# at 20:22:54 (GMT+1.0) 18th August 2020
# in /lustre/scratch/uccabz1/launch_tmp
# on node-c12k-027
# by uccabz1
#
# compiler GCC version 4.9.2
# options -cpp -iprefix /lustre/shared/ucl/apps/gcc/4.9.2/bin/../lib/gcc/x86_64-unknown-linux-gnu/4.9.2/ -mtune=corei7 -march=x86-64 -g -Og
#
# seed -1507631219  -391534976 -1670156066  -517151107  2122812003  1485022905  1454139908  2117014834   776516484 -1181891343 -1166915542 -1837372645
#
#      Author: C. J. Pickard (cjp20@cam.ac.uk)
#                Space group: P-1
#

%BLOCK LATTICE_ABC
      4.02126      6.77997      7.53357
     79.84484     81.89095     86.36740
%ENDBLOCK LATTICE_ABC

%BLOCK POSITIONS_FRAC
  Li   0.3076828   0.0716178  -0.2632618 SPIN=   0.00000
  Li  -0.3076828  -0.0716178   0.2632618 SPIN=   0.00000
  Fe   0.2032110   0.2511931   0.0905461 SPIN=   4.00000
  Fe  -0.2032110  -0.2511931  -0.0905461 SPIN=   4.00000
   O   0.2837006  -0.1269274   0.1745806 SPIN=   0.00000
   O  -0.0262760  -0.3324391   0.4440445 SPIN=   0.00000
   O   0.5456942  -0.4425815   0.3216410 SPIN=   0.00000
   O   0.0691252  -0.4535445   0.1490007 SPIN=   0.00000
   S   0.2180610  -0.3388732   0.2723167 SPIN=   0.00000
   O  -0.2837006   0.1269274  -0.1745806 SPIN=   0.00000
   O   0.0262760   0.3324391  -0.4440445 SPIN=   0.00000
   O  -0.5456942   0.4425815  -0.3216410 SPIN=   0.00000
   O  -0.0691252   0.4535445  -0.1490007 SPIN=   0.00000
   S  -0.2180610   0.3388732  -0.2723167 SPIN=   0.00000
   F  -0.1906784   0.2096702   0.2931979 SPIN=   0.00000
   F   0.1906784  -0.2096702  -0.2931979 SPIN=   0.00000
%ENDBLOCK POSITIONS_FRAC

# Note: total spin =   8.00

KPOINTS_MP_SPACING 0.07

%BLOCK SPECIES_POT
QC5
%ENDBLOCK SPECIES_POT

SNAP_TO_SYMMETRY
SYMMETRY_GENERATE

