#              Generated by Buildcell
#
# at 05:16:56 (GMT+1.0) 4th August 2020
# in /lustre/scratch/uccabz1/launch_tmp
# on node-c12n-019
# by uccabz1
#
# compiler GCC version 4.9.2
# options -cpp -iprefix /lustre/shared/ucl/apps/gcc/4.9.2/bin/../lib/gcc/x86_64-unknown-linux-gnu/4.9.2/ -mtune=corei7 -march=x86-64 -g -Og
#
# seed  -434717200 -1429809078 -1167567287 -1680466399   606317874 -1668309813  2112186615  2007943315  1443309560 -1988625711   747763512  1183384869
#
#      Author: C. J. Pickard (cjp20@cam.ac.uk)
#                Space group: C2
#

%BLOCK LATTICE_ABC
      6.24381      6.24381      6.91463
     90.39110    116.79965    119.54640
%ENDBLOCK LATTICE_ABC

%BLOCK POSITIONS_FRAC
  Li  -0.0238441  -0.2263240  -0.1863785 SPIN=   0.00000
  Li  -0.0399455   0.1625344   0.1863785 SPIN=   0.00000
  Fe   0.5119858  -0.3434023   0.3547068 SPIN=   4.00000
  Fe  -0.6981091   0.1572789  -0.3547068 SPIN=   4.00000
   O   0.5872339   0.0144418   0.3348748 SPIN=   0.00000
   O   0.3849008   0.0258071  -0.0629383 SPIN=   0.00000
   O   0.8031982   0.4265190   0.2482292 SPIN=   0.00000
   O   0.3205197   0.2241933   0.2001497 SPIN=   0.00000
   S   0.5239631   0.1727403   0.1800788 SPIN=   0.00000
   O  -0.3204330   0.2523591  -0.3348748 SPIN=   0.00000
   O   0.0887454   0.4478390   0.0629383 SPIN=   0.00000
   O   0.1782898   0.5549689  -0.2482292 SPIN=   0.00000
   O   0.0240436   0.1203701  -0.2001497 SPIN=   0.00000
   S  -0.0073385   0.3438843  -0.1800788 SPIN=   0.00000
   F  -0.4572403  -0.3795072  -0.3688382 SPIN=   0.00000
   F  -0.0106691  -0.0884021   0.3688382 SPIN=   0.00000
%ENDBLOCK POSITIONS_FRAC

# Note: total spin =   8.00

KPOINTS_MP_SPACING 0.07

%BLOCK SPECIES_POT
QC5
%ENDBLOCK SPECIES_POT

SNAP_TO_SYMMETRY
SYMMETRY_GENERATE

