#              Generated by Buildcell
#
# at 05:44:02 (GMT+1.0) 4th August 2020
# in /lustre/scratch/uccabz1/launch_tmp
# on node-c12l-022
# by uccabz1
#
# compiler GCC version 4.9.2
# options -cpp -iprefix /lustre/shared/ucl/apps/gcc/4.9.2/bin/../lib/gcc/x86_64-unknown-linux-gnu/4.9.2/ -mtune=corei7 -march=x86-64 -g -Og
#
# seed   365283747  -381979476   111074705  1133696263  1955734457 -1563232092  -161550999   645617689 -1627505952   566247415   292876052  1342772309
#
#      Author: C. J. Pickard (cjp20@cam.ac.uk)
#                Space group: Aem2
#

%BLOCK LATTICE_ABC
      5.28934      6.26737      6.26737
    105.71393     90.00000     90.00000
%ENDBLOCK LATTICE_ABC

%BLOCK POSITIONS_FRAC
  Li   0.0448056   0.0115930   0.4884070 SPIN=   0.00000
  Li  -0.0448056  -0.4884070  -0.0115930 SPIN=   0.00000
  Fe  -0.0000000   0.0323651  -0.0323651 SPIN=   4.00000
  Fe   0.0000000   0.5323651   0.4676349 SPIN=   4.00000
   O  -0.3434363  -0.0770786   0.2783824 SPIN=   0.00000
   O  -0.3445917   0.1710415   0.0311247 SPIN=   0.00000
   O   0.3434363  -0.2783824   0.0770786 SPIN=   0.00000
   O   0.3445917  -0.0311247  -0.1710415 SPIN=   0.00000
   O  -0.3434363   0.2216176   0.5770786 SPIN=   0.00000
   O  -0.3445917   0.4688753   0.3289585 SPIN=   0.00000
   O   0.3434363  -0.5770786  -0.2216176 SPIN=   0.00000
   O   0.3445917  -0.3289585  -0.4688753 SPIN=   0.00000
   S  -0.4616690  -0.0352247  -0.4647753 SPIN=   0.00000
   S   0.4616690   0.4647753   0.0352247 SPIN=   0.00000
   F   0.0441007   0.1961645   0.3038355 SPIN=   0.00000
   F  -0.0441007  -0.3038355  -0.1961645 SPIN=   0.00000
%ENDBLOCK POSITIONS_FRAC

# Note: total spin =   8.00

KPOINTS_MP_SPACING 0.07

%BLOCK SPECIES_POT
QC5
%ENDBLOCK SPECIES_POT

SNAP_TO_SYMMETRY
SYMMETRY_GENERATE

