#              Generated by Buildcell
#
# at 03:48:09 (GMT+1.0) 4th August 2020
# in /lustre/scratch/uccabz1/launch_tmp
# on node-c12f-031
# by uccabz1
#
# compiler GCC version 4.9.2
# options -cpp -iprefix /lustre/shared/ucl/apps/gcc/4.9.2/bin/../lib/gcc/x86_64-unknown-linux-gnu/4.9.2/ -mtune=corei7 -march=x86-64 -g -Og
#
# seed   -57430357  -606549388  2145495167   376417678  -305196923   905805153 -1108955254   386984808  1613954453   390284661  -485411211  -571573259
#
#      Author: C. J. Pickard (cjp20@cam.ac.uk)
#                Space group: Cc
#

%BLOCK LATTICE_ABC
      4.28168      4.28168     12.03130
     95.85369     95.85369    112.70378
%ENDBLOCK LATTICE_ABC

%BLOCK POSITIONS_FRAC
  Li  -0.3703824   0.4031628   0.1996292 SPIN=   0.00000
  Li   0.4031628  -0.3703824  -0.3003708 SPIN=   0.00000
  Fe  -0.3835867   0.1722619  -0.4387734 SPIN=   4.00000
  Fe   0.1722619  -0.3835867   0.0612266 SPIN=   4.00000
   O  -0.5493467   0.2862852  -0.0176221 SPIN=   0.00000
   O  -0.1185289   0.1121475  -0.0961624 SPIN=   0.00000
   O  -0.5119970   0.2678134  -0.2219413 SPIN=   0.00000
   O  -0.7341198  -0.2715615  -0.1414309 SPIN=   0.00000
   S  -0.4784981   0.0986711  -0.1192892 SPIN=   0.00000
   O   0.2862852  -0.5493467   0.4823779 SPIN=   0.00000
   O   0.1121475  -0.1185289   0.4038376 SPIN=   0.00000
   O   0.2678134  -0.5119970   0.2780587 SPIN=   0.00000
   O  -0.2715615  -0.7341198   0.3585691 SPIN=   0.00000
   S   0.0986711  -0.4784981   0.3807108 SPIN=   0.00000
   F  -0.0784724  -0.1270881   0.1271861 SPIN=   0.00000
   F  -0.1270881  -0.0784724  -0.3728139 SPIN=   0.00000
%ENDBLOCK POSITIONS_FRAC

# Note: total spin =   8.00

KPOINTS_MP_SPACING 0.07

%BLOCK SPECIES_POT
QC5
%ENDBLOCK SPECIES_POT

SNAP_TO_SYMMETRY
SYMMETRY_GENERATE

