#              Generated by Buildcell
#
# at 22:31:09 (GMT+1.0) 18th August 2020
# in /lustre/scratch/uccabz1/launch_tmp
# on node-c12j-022
# by uccabz1
#
# compiler GCC version 4.9.2
# options -cpp -iprefix /lustre/shared/ucl/apps/gcc/4.9.2/bin/../lib/gcc/x86_64-unknown-linux-gnu/4.9.2/ -mtune=corei7 -march=x86-64 -g -Og
#
# seed  -233211267   245361685 -1914291130   490343302   761897810 -1654812494 -1270035497 -1379792522  1214752890 -1988046674  1673549828  -974940268
#
#      Author: C. J. Pickard (cjp20@cam.ac.uk)
#                Space group: P-1
#

%BLOCK LATTICE_ABC
      4.59959      6.62025      7.33231
     68.58832     74.44623     86.95734
%ENDBLOCK LATTICE_ABC

%BLOCK POSITIONS_FRAC
  Li   0.2034573  -0.2301007   0.2434969 SPIN=   0.00000
  Li  -0.2034573   0.2301007  -0.2434969 SPIN=   0.00000
  Fe  -0.3816474   0.2935103   0.3843953 SPIN=   4.00000
  Fe   0.3816474  -0.2935103  -0.3843953 SPIN=   4.00000
   O   0.4622144   0.0515208   0.1423698 SPIN=   0.00000
   O  -0.0315371   0.1358957   0.0644003 SPIN=   0.00000
   O   0.4187876   0.3803470  -0.1487502 SPIN=   0.00000
   O   0.1874370   0.3624142   0.2032597 SPIN=   0.00000
   S   0.2592255   0.2325444   0.0653199 SPIN=   0.00000
   O  -0.4622144  -0.0515208  -0.1423698 SPIN=   0.00000
   O   0.0315371  -0.1358957  -0.0644003 SPIN=   0.00000
   O  -0.4187876  -0.3803470   0.1487502 SPIN=   0.00000
   O  -0.1874370  -0.3624142  -0.2032597 SPIN=   0.00000
   S  -0.2592255  -0.2325444  -0.0653199 SPIN=   0.00000
   F  -0.2349976  -0.2264548   0.4190213 SPIN=   0.00000
   F   0.2349976   0.2264548  -0.4190213 SPIN=   0.00000
%ENDBLOCK POSITIONS_FRAC

# Note: total spin =   8.00

KPOINTS_MP_SPACING 0.07

%BLOCK SPECIES_POT
QC5
%ENDBLOCK SPECIES_POT

SNAP_TO_SYMMETRY
SYMMETRY_GENERATE

