#              Generated by Buildcell
#
# at 02:31:28 (GMT+1.0) 4th August 2020
# in /lustre/scratch/uccabz1/launch_tmp
# on node-c12h-009
# by uccabz1
#
# compiler GCC version 4.9.2
# options -cpp -iprefix /lustre/shared/ucl/apps/gcc/4.9.2/bin/../lib/gcc/x86_64-unknown-linux-gnu/4.9.2/ -mtune=corei7 -march=x86-64 -g -Og
#
# seed -2015310602  -507827259  1795451521  1982387853  -472379152 -1179981455   245026897  -577409174   172271952 -1388009989   886413488  1049481689
#
#      Author: C. J. Pickard (cjp20@cam.ac.uk)
#                Space group: P2
#

%BLOCK LATTICE_ABC
      4.01775      6.15723      8.08591
     91.00726     90.00000     90.00000
%ENDBLOCK LATTICE_ABC

%BLOCK POSITIONS_FRAC
  Li  -0.2996169   0.2524731  -0.3929938 SPIN=   0.00000
  Li  -0.2996169  -0.2524731   0.3929938 SPIN=   0.00000
  Fe   0.2194330  -0.2484357  -0.3387604 SPIN=   4.00000
  Fe   0.2194330   0.2484357   0.3387604 SPIN=   4.00000
   O  -0.1747564  -0.2250968   0.1456725 SPIN=   0.00000
   O   0.3488767  -0.0317634   0.2139706 SPIN=   0.00000
   O   0.3387684  -0.3075007  -0.0123913 SPIN=   0.00000
   O   0.2886353  -0.4211836   0.2786073 SPIN=   0.00000
   S   0.2003810  -0.2463861   0.1564648 SPIN=   0.00000
   O  -0.1747564   0.2250968  -0.1456725 SPIN=   0.00000
   O   0.3488767   0.0317634  -0.2139706 SPIN=   0.00000
   O   0.3387684   0.3075007   0.0123913 SPIN=   0.00000
   O   0.2886353   0.4211836  -0.2786073 SPIN=   0.00000
   S   0.2003810   0.2463861  -0.1564648 SPIN=   0.00000
   F  -0.2763558  -0.2869229  -0.2691658 SPIN=   0.00000
   F  -0.2763558   0.2869229   0.2691658 SPIN=   0.00000
%ENDBLOCK POSITIONS_FRAC

# Note: total spin =   8.00

KPOINTS_MP_SPACING 0.07

%BLOCK SPECIES_POT
QC5
%ENDBLOCK SPECIES_POT

SNAP_TO_SYMMETRY
SYMMETRY_GENERATE

