#              Generated by Buildcell
#
# at 01:58:35 (GMT+1.0) 19th August 2020
# in /scratch/scratch/uccabz1/launch_tmp
# on node-k10h-023
# by uccabz1
#
# compiler GCC version 4.9.2
# options -cpp -iprefix /scratch/UCL/applications/gcc/4.9.2/bin/../lib/gcc/x86_64-unknown-linux-gnu/4.9.2/ -mtune=corei7 -march=x86-64 -g -O2
#
# seed  1786262678   -18596911 -1080033132 -1156269154  1678029793   302908288  1188081512  -437305582 -1090595693  -837538486 -1415604340 -1840715622
#
#      Author: C. J. Pickard (cjp20@cam.ac.uk)
#                Space group: Cc
#

%BLOCK LATTICE_ABC
      6.39886      6.39886      6.42768
    102.33738    109.95760    116.26404
%ENDBLOCK LATTICE_ABC

%BLOCK POSITIONS_FRAC
  Li   0.3719103   0.3172057  -0.1447476 SPIN=   0.00000
  Li   0.0380468   0.4833422   0.3552524 SPIN=   0.00000
  Fe  -0.3407446  -0.1629307  -0.2991739 SPIN=   4.00000
  Fe   0.3637568   0.0415707   0.2008261 SPIN=   4.00000
   O  -0.2006460  -0.4155021   0.1663581 SPIN=   0.00000
   O  -0.0573951   0.0125761   0.1660424 SPIN=   0.00000
   O   0.0463814  -0.0277393   0.5574346 SPIN=   0.00000
   O  -0.4223749  -0.2033690   0.2569166 SPIN=   0.00000
   S  -0.1585086  -0.1585086   0.2866879 SPIN=   0.00000
   O   0.0818601   0.3670041  -0.3336419 SPIN=   0.00000
   O  -0.3465337   0.2234375  -0.3339576 SPIN=   0.00000
   O   0.0851739   0.5110531   0.0574346 SPIN=   0.00000
   O  -0.0397144   0.6792915  -0.2430834 SPIN=   0.00000
   S  -0.0548035   0.4451966  -0.2133121 SPIN=   0.00000
   F   0.3956104   0.4695119   0.4616606 SPIN=   0.00000
   F   0.4921487   0.0660503  -0.0383394 SPIN=   0.00000
%ENDBLOCK POSITIONS_FRAC

# Note: total spin =   8.00

KPOINTS_MP_SPACING 0.07

%BLOCK SPECIES_POT
QC5
%ENDBLOCK SPECIES_POT

SNAP_TO_SYMMETRY
SYMMETRY_GENERATE

