#              Generated by Buildcell
#
# at 23:45:53 (GMT+1.0) 18th August 2020
# in /lustre/scratch/uccabz1/launch_tmp
# on node-c12n-031
# by uccabz1
#
# compiler GCC version 4.9.2
# options -cpp -iprefix /lustre/shared/ucl/apps/gcc/4.9.2/bin/../lib/gcc/x86_64-unknown-linux-gnu/4.9.2/ -mtune=corei7 -march=x86-64 -g -Og
#
# seed  1798487279   702597295  -667353147   399544051 -1155745441  1827020694  -865542635  -552016814   753336012    37230488 -1931299317    70291866
#
#      Author: C. J. Pickard (cjp20@cam.ac.uk)
#                Space group: P21
#

%BLOCK LATTICE_ABC
      5.63672      5.99573      6.08568
    103.48856     90.00000     90.00000
%ENDBLOCK LATTICE_ABC

%BLOCK POSITIONS_FRAC
  Li  -0.4073213  -0.2256192   0.0012640 SPIN=   0.00000
  Li   0.0926787   0.2256192  -0.0012640 SPIN=   0.00000
  Fe   0.1381373  -0.2516857   0.2744410 SPIN=   4.00000
  Fe  -0.3618627   0.2516857  -0.2744410 SPIN=   4.00000
   O   0.1039109  -0.4715132  -0.5116462 SPIN=   0.00000
   O   0.2719625  -0.2641140  -0.1451233 SPIN=   0.00000
   O   0.2770251  -0.6884795  -0.2509180 SPIN=   0.00000
   O  -0.1027341  -0.4814369  -0.1552385 SPIN=   0.00000
   S   0.1375411  -0.4763859  -0.2657315 SPIN=   0.00000
   O  -0.3960891   0.4715132   0.5116462 SPIN=   0.00000
   O  -0.2280375   0.2641140   0.1451233 SPIN=   0.00000
   O  -0.2229749   0.6884795   0.2509180 SPIN=   0.00000
   O  -0.6027341   0.4814369   0.1552385 SPIN=   0.00000
   S  -0.3624589   0.4763859   0.2657315 SPIN=   0.00000
   F   0.1670478   0.0732044   0.2355287 SPIN=   0.00000
   F  -0.3329522  -0.0732044  -0.2355287 SPIN=   0.00000
%ENDBLOCK POSITIONS_FRAC

# Note: total spin =   8.00

KPOINTS_MP_SPACING 0.07

%BLOCK SPECIES_POT
QC5
%ENDBLOCK SPECIES_POT

SNAP_TO_SYMMETRY
SYMMETRY_GENERATE

