#              Generated by Buildcell
#
# at 23:49:56 (GMT+1.0) 18th August 2020
# in /scratch/scratch/uccabz1/launch_tmp
# on node-k10b-033
# by uccabz1
#
# compiler GCC version 4.9.2
# options -cpp -iprefix /scratch/UCL/applications/gcc/4.9.2/bin/../lib/gcc/x86_64-unknown-linux-gnu/4.9.2/ -mtune=corei7 -march=x86-64 -g -O2
#
# seed  -866769501   407062002 -1861904594 -1746576969 -1651759759  2092986895   700482487   569880617   883090298  -399926286 -1979504542 -1509187296
#
#      Author: C. J. Pickard (cjp20@cam.ac.uk)
#                Space group: C2
#

%BLOCK LATTICE_ABC
      5.61101      5.61101      6.61306
     83.31595     83.31595     76.23888
%ENDBLOCK LATTICE_ABC

%BLOCK POSITIONS_FRAC
  Li   0.1481283  -0.1481283   0.5000000 SPIN=   0.00000
  Li  -0.1654180   0.1654180  -0.0000000 SPIN=   0.00000
  Fe  -0.3282935  -0.3253218  -0.2061236 SPIN=   4.00000
  Fe   0.3253218   0.3282935   0.2061236 SPIN=   4.00000
   O  -0.3316248  -0.4041448   0.4897129 SPIN=   0.00000
   O  -0.1499640  -0.3376185   0.1341830 SPIN=   0.00000
   O  -0.4077403   0.0149167   0.3091071 SPIN=   0.00000
   O  -0.5995514  -0.3005595   0.2052407 SPIN=   0.00000
   S  -0.3722201  -0.2568515   0.2845609 SPIN=   0.00000
   O   0.4041448   0.3316248  -0.4897129 SPIN=   0.00000
   O   0.3376185   0.1499640  -0.1341830 SPIN=   0.00000
   O  -0.0149167   0.4077403  -0.3091071 SPIN=   0.00000
   O   0.3005595   0.5995514  -0.2052407 SPIN=   0.00000
   S   0.2568515   0.3722201  -0.2845609 SPIN=   0.00000
   F  -0.1540765  -0.0385438  -0.2309296 SPIN=   0.00000
   F   0.0385438   0.1540765   0.2309296 SPIN=   0.00000
%ENDBLOCK POSITIONS_FRAC

# Note: total spin =   8.00

KPOINTS_MP_SPACING 0.07

%BLOCK SPECIES_POT
QC5
%ENDBLOCK SPECIES_POT

SNAP_TO_SYMMETRY
SYMMETRY_GENERATE

