#              Generated by Buildcell
#
# at 00:47:55 (GMT+1.0) 19th August 2020
# in /lustre/scratch/uccabz1/launch_tmp
# on node-c12o-034
# by uccabz1
#
# compiler GCC version 4.9.2
# options -cpp -iprefix /lustre/shared/ucl/apps/gcc/4.9.2/bin/../lib/gcc/x86_64-unknown-linux-gnu/4.9.2/ -mtune=corei7 -march=x86-64 -g -Og
#
# seed    60953298  1116882609  1818047333   801160763  -227385657 -1841036449 -1356937424  1273850796  1731966353  1660468743  1777059708  1559551902
#
#      Author: C. J. Pickard (cjp20@cam.ac.uk)
#                Space group: Cc
#

%BLOCK LATTICE_ABC
      4.89984      4.89984      9.25692
     75.59318     75.59318     70.92400
%ENDBLOCK LATTICE_ABC

%BLOCK POSITIONS_FRAC
  Li  -0.0614640   0.2545080   0.3303538 SPIN=   0.00000
  Li   0.2545080  -0.0614640  -0.1696462 SPIN=   0.00000
  Fe   0.4508765  -0.1909388   0.1920887 SPIN=   4.00000
  Fe  -0.1909388   0.4508765  -0.3079113 SPIN=   4.00000
   O   0.4850234  -0.2756012  -0.5649382 SPIN=   0.00000
   O  -0.0534782  -0.0663585  -0.4996586 SPIN=   0.00000
   O   0.2802184   0.1695327  -0.4485739 SPIN=   0.00000
   O   0.2373519  -0.3119566  -0.2958612 SPIN=   0.00000
   S   0.2372789  -0.1210959  -0.4522580 SPIN=   0.00000
   O  -0.2756012   0.4850234  -0.0649382 SPIN=   0.00000
   O  -0.0663585  -0.0534782   0.0003414 SPIN=   0.00000
   O   0.1695327   0.2802184   0.0514261 SPIN=   0.00000
   O  -0.3119566   0.2373519   0.2041388 SPIN=   0.00000
   S  -0.1210959   0.2372789   0.0477420 SPIN=   0.00000
   F   0.1238346  -0.4176407   0.2785257 SPIN=   0.00000
   F  -0.4176407   0.1238346  -0.2214743 SPIN=   0.00000
%ENDBLOCK POSITIONS_FRAC

# Note: total spin =   8.00

KPOINTS_MP_SPACING 0.07

%BLOCK SPECIES_POT
QC5
%ENDBLOCK SPECIES_POT

SNAP_TO_SYMMETRY
SYMMETRY_GENERATE

