#              Generated by Buildcell
#
# at 01:53:57 (GMT+1.0) 19th August 2020
# in /lustre/scratch/uccabz1/launch_tmp
# on node-c12l-016
# by uccabz1
#
# compiler GCC version 4.9.2
# options -cpp -iprefix /lustre/shared/ucl/apps/gcc/4.9.2/bin/../lib/gcc/x86_64-unknown-linux-gnu/4.9.2/ -mtune=corei7 -march=x86-64 -g -Og
#
# seed  -712495752  -985242076   802926178  1921706296 -1205053242  1986077907  -449080019   957484379  2059012068  1947368665  1701760173  1172447485
#
#      Author: C. J. Pickard (cjp20@cam.ac.uk)
#                Space group: P-1
#

%BLOCK LATTICE_ABC
      4.00484      6.52356      7.94121
     75.66016     89.74977     84.38637
%ENDBLOCK LATTICE_ABC

%BLOCK POSITIONS_FRAC
  Li   0.1091061  -0.2408698   0.3424320 SPIN=   0.00000
  Li  -0.1091061   0.2408698  -0.3424320 SPIN=   0.00000
  Fe   0.2868900  -0.2308231  -0.0209989 SPIN=   4.00000
  Fe  -0.2868900   0.2308231   0.0209989 SPIN=   4.00000
   O  -0.1210123   0.1747309   0.4265617 SPIN=   0.00000
   O   0.4381093   0.0212393   0.3587099 SPIN=   0.00000
   O   0.3808741   0.3615483   0.4461059 SPIN=   0.00000
   O   0.1632806   0.3464519   0.1586650 SPIN=   0.00000
   S   0.2153129   0.2259926   0.3475106 SPIN=   0.00000
   O   0.1210123  -0.1747309  -0.4265617 SPIN=   0.00000
   O  -0.4381093  -0.0212393  -0.3587099 SPIN=   0.00000
   O  -0.3808741  -0.3615483  -0.4461059 SPIN=   0.00000
   O  -0.1632806  -0.3464519  -0.1586650 SPIN=   0.00000
   S  -0.2153129  -0.2259926  -0.3475106 SPIN=   0.00000
   F  -0.3629468  -0.2731992   0.1709486 SPIN=   0.00000
   F   0.3629468   0.2731992  -0.1709486 SPIN=   0.00000
%ENDBLOCK POSITIONS_FRAC

# Note: total spin =   8.00

KPOINTS_MP_SPACING 0.07

%BLOCK SPECIES_POT
QC5
%ENDBLOCK SPECIES_POT

SNAP_TO_SYMMETRY
SYMMETRY_GENERATE

