#              Generated by Buildcell
#
# at 22:20:04 (GMT+1.0) 18th August 2020
# in /lustre/scratch/uccabz1/launch_tmp
# on node-c12j-020
# by uccabz1
#
# compiler GCC version 4.9.2
# options -cpp -iprefix /lustre/shared/ucl/apps/gcc/4.9.2/bin/../lib/gcc/x86_64-unknown-linux-gnu/4.9.2/ -mtune=corei7 -march=x86-64 -g -Og
#
# seed  -363704250  2138850311 -1216903356  1894531579  -660923024  -307523606 -1351345625  1331816706 -1226975710  1068713826   574244439  -409579247
#
#      Author: C. J. Pickard (cjp20@cam.ac.uk)
#                Space group: P2
#

%BLOCK LATTICE_ABC
      4.13736      6.76510      7.20403
     97.30872     90.00000     90.00000
%ENDBLOCK LATTICE_ABC

%BLOCK POSITIONS_FRAC
  Li   0.2718895   0.2351374   0.3971495 SPIN=   0.00000
  Li   0.2718895  -0.2351374  -0.3971495 SPIN=   0.00000
  Fe  -0.2228192  -0.2633926  -0.0949685 SPIN=   4.00000
  Fe  -0.2228192   0.2633926   0.0949685 SPIN=   4.00000
   O  -0.1990804  -0.3247129   0.5409962 SPIN=   0.00000
   O  -0.6285595  -0.2546953   0.3193003 SPIN=   0.00000
   O  -0.1184208  -0.4146977   0.2003236 SPIN=   0.00000
   O  -0.1203911  -0.0601992   0.3374899 SPIN=   0.00000
   S  -0.2666129  -0.2635763   0.3495275 SPIN=   0.00000
   O  -0.1990804   0.3247129  -0.5409962 SPIN=   0.00000
   O  -0.6285595   0.2546953  -0.3193003 SPIN=   0.00000
   O  -0.1184208   0.4146977  -0.2003236 SPIN=   0.00000
   O  -0.1203911   0.0601992  -0.3374899 SPIN=   0.00000
   S  -0.2666129   0.2635763  -0.3495275 SPIN=   0.00000
   F   0.2781845  -0.2592119  -0.1439298 SPIN=   0.00000
   F   0.2781845   0.2592119   0.1439298 SPIN=   0.00000
%ENDBLOCK POSITIONS_FRAC

# Note: total spin =   8.00

KPOINTS_MP_SPACING 0.07

%BLOCK SPECIES_POT
QC5
%ENDBLOCK SPECIES_POT

SNAP_TO_SYMMETRY
SYMMETRY_GENERATE

