#              Generated by Buildcell
#
# at 05:33:59 (GMT+1.0) 4th August 2020
# in /lustre/scratch/uccabz1/launch_tmp
# on node-c12n-017
# by uccabz1
#
# compiler GCC version 4.9.2
# options -cpp -iprefix /lustre/shared/ucl/apps/gcc/4.9.2/bin/../lib/gcc/x86_64-unknown-linux-gnu/4.9.2/ -mtune=corei7 -march=x86-64 -g -Og
#
# seed  1809367686  1792549969 -1406046073 -1326151933 -1416472816   550889520  1165787484   822052628   997810118  1336333367   -92094234   510030821
#
#      Author: C. J. Pickard (cjp20@cam.ac.uk)
#                Space group: P21
#

%BLOCK LATTICE_ABC
      3.91753      6.76248      7.58700
     90.00000     90.00000     95.70752
%ENDBLOCK LATTICE_ABC

%BLOCK POSITIONS_FRAC
  Li  -0.4801351   0.2556510   0.4778758 SPIN=   0.00000
  Li   0.4801351  -0.2556510  -0.0221242 SPIN=   0.00000
  Fe  -0.1281410  -0.0523238   0.2794607 SPIN=   4.00000
  Fe   0.1281410   0.0523238  -0.2205393 SPIN=   4.00000
   O   0.2622711  -0.5135917  -0.1126550 SPIN=   0.00000
   O  -0.1458254  -0.3070158  -0.2554262 SPIN=   0.00000
   O  -0.0945161  -0.6484915  -0.3624850 SPIN=   0.00000
   O   0.3773900  -0.3833838  -0.4139446 SPIN=   0.00000
   S   0.0998299  -0.4631207  -0.2861277 SPIN=   0.00000
   O  -0.2622711   0.5135917   0.3873450 SPIN=   0.00000
   O   0.1458254   0.3070158   0.2445738 SPIN=   0.00000
   O   0.0945161   0.6484915   0.1375150 SPIN=   0.00000
   O  -0.3773900   0.3833838   0.0860554 SPIN=   0.00000
   S  -0.0998299   0.4631207   0.2138723 SPIN=   0.00000
   F  -0.1754485  -0.0021289   0.0048257 SPIN=   0.00000
   F   0.1754485   0.0021289  -0.4951743 SPIN=   0.00000
%ENDBLOCK POSITIONS_FRAC

# Note: total spin =   8.00

KPOINTS_MP_SPACING 0.07

%BLOCK SPECIES_POT
QC5
%ENDBLOCK SPECIES_POT

SNAP_TO_SYMMETRY
SYMMETRY_GENERATE

