#              Generated by Buildcell
#
# at 02:45:02 (GMT+1.0) 4th August 2020
# in /lustre/scratch/uccabz1/launch_tmp
# on node-c12c-028
# by uccabz1
#
# compiler GCC version 4.9.2
# options -cpp -iprefix /lustre/shared/ucl/apps/gcc/4.9.2/bin/../lib/gcc/x86_64-unknown-linux-gnu/4.9.2/ -mtune=corei7 -march=x86-64 -g -Og
#
# seed  1201847363   831840876  1215520647  1466958421 -1098499417  1789058116   792477268 -1902188812  -420083286 -1747424922 -2010485192 -1831797818
#
#      Author: C. J. Pickard (cjp20@cam.ac.uk)
#                Space group: P-1
#

%BLOCK LATTICE_ABC
      4.45792      6.28434      7.52689
     89.75890     77.71036     76.37271
%ENDBLOCK LATTICE_ABC

%BLOCK POSITIONS_FRAC
  Li   0.0000000  -0.0000000   0.5000000 SPIN=   0.00000
  Li   0.0000000  -0.5000000  -0.0000000 SPIN=   0.00000
  Fe   0.3296607  -0.2085080   0.1413361 SPIN=   4.00000
  Fe  -0.3296607   0.2085080  -0.1413361 SPIN=   4.00000
   O  -0.4809035  -0.4479469  -0.2541813 SPIN=   0.00000
   O  -0.6533953  -0.0878600  -0.3826343 SPIN=   0.00000
   O  -0.2116616  -0.3719569  -0.5623639 SPIN=   0.00000
   O  -0.1384353  -0.1857048  -0.2912350 SPIN=   0.00000
   S  -0.3710989  -0.2733671  -0.3726036 SPIN=   0.00000
   O   0.4809035   0.4479469   0.2541813 SPIN=   0.00000
   O   0.6533953   0.0878600   0.3826343 SPIN=   0.00000
   O   0.2116616   0.3719569   0.5623639 SPIN=   0.00000
   O   0.1384353   0.1857048   0.2912350 SPIN=   0.00000
   S   0.3710989   0.2733671   0.3726036 SPIN=   0.00000
   F   0.1906646   0.2085626  -0.0790832 SPIN=   0.00000
   F  -0.1906646  -0.2085626   0.0790832 SPIN=   0.00000
%ENDBLOCK POSITIONS_FRAC

# Note: total spin =   8.00

KPOINTS_MP_SPACING 0.07

%BLOCK SPECIES_POT
QC5
%ENDBLOCK SPECIES_POT

SNAP_TO_SYMMETRY
SYMMETRY_GENERATE

