#              Generated by Buildcell
#
# at 05:05:33 (GMT+1.0) 4th August 2020
# in /lustre/scratch/uccabz1/launch_tmp
# on node-c12f-030
# by uccabz1
#
# compiler GCC version 4.9.2
# options -cpp -iprefix /lustre/shared/ucl/apps/gcc/4.9.2/bin/../lib/gcc/x86_64-unknown-linux-gnu/4.9.2/ -mtune=corei7 -march=x86-64 -g -Og
#
# seed -1377606133   518247740  1592528393  -541735171  -530626937  1671086690 -1562092762   205704500 -1599327729  -182959290  1961118356   192112331
#
#      Author: C. J. Pickard (cjp20@cam.ac.uk)
#                Space group: P21212
#

%BLOCK LATTICE_ABC
      5.59089      5.87165      6.09062
     90.00000     90.00000     90.00000
%ENDBLOCK LATTICE_ABC

%BLOCK POSITIONS_FRAC
  Li   0.4754139  -0.5000000  -0.0000000 SPIN=   0.00000
  Li  -0.4754139   0.0000000  -0.5000000 SPIN=   0.00000
  Fe   0.2295172  -0.0000000  -0.0000000 SPIN=   4.00000
  Fe  -0.2295172  -0.5000000  -0.5000000 SPIN=   4.00000
   O   0.7009141  -0.3648419  -0.1947259 SPIN=   0.00000
   O   0.2643849  -0.3057489  -0.1587034 SPIN=   0.00000
   O   0.7009141   0.3648419   0.1947259 SPIN=   0.00000
   O   0.2643849   0.3057489   0.1587034 SPIN=   0.00000
   O  -0.7009141  -0.1351581   0.3052741 SPIN=   0.00000
   O  -0.2643849  -0.1942511   0.3412966 SPIN=   0.00000
   O  -0.7009141   0.1351581  -0.3052741 SPIN=   0.00000
   O  -0.2643849   0.1942511  -0.3412966 SPIN=   0.00000
   S  -0.0241493   0.5000000   0.0000000 SPIN=   0.00000
   S   0.0241493  -0.0000000  -0.5000000 SPIN=   0.00000
   F  -0.4219460  -0.0000000   0.0000000 SPIN=   0.00000
   F   0.4219460  -0.5000000  -0.5000000 SPIN=   0.00000
%ENDBLOCK POSITIONS_FRAC

# Note: total spin =   8.00

KPOINTS_MP_SPACING 0.07

%BLOCK SPECIES_POT
QC5
%ENDBLOCK SPECIES_POT

SNAP_TO_SYMMETRY
SYMMETRY_GENERATE

