#              Generated by Buildcell
#
# at 02:49:55 (GMT+1.0) 4th August 2020
# in /lustre/scratch/uccabz1/launch_tmp
# on node-c12g-022
# by uccabz1
#
# compiler GCC version 4.9.2
# options -cpp -iprefix /lustre/shared/ucl/apps/gcc/4.9.2/bin/../lib/gcc/x86_64-unknown-linux-gnu/4.9.2/ -mtune=corei7 -march=x86-64 -g -Og
#
# seed  1013055559   621445331  1647318725 -1150315553   620391882  -828427228  1732564796  -375946036   367365209  -362001753 -1190463223   649767566
#
#      Author: C. J. Pickard (cjp20@cam.ac.uk)
#                Space group: Ama2
#

%BLOCK LATTICE_ABC
      3.95433      7.21538      7.28866
     90.00000     90.00000    105.90366
%ENDBLOCK LATTICE_ABC

%BLOCK POSITIONS_FRAC
  Li  -0.3118242   0.2645019   0.2500000 SPIN=   0.00000
  Li   0.4236738  -0.2645019  -0.2500000 SPIN=   0.00000
  Fe   0.0461488  -0.0000000  -0.0000000 SPIN=   4.00000
  Fe   0.0461488   0.0000000  -0.5000000 SPIN=   4.00000
   O  -0.1561276  -0.3685780   0.0887719 SPIN=   0.00000
   O   0.4436621  -0.1686740   0.0143665 SPIN=   0.00000
   O   0.2124504   0.3685780  -0.0887719 SPIN=   0.00000
   O   0.6123362   0.1686740  -0.0143665 SPIN=   0.00000
   O   0.2124504   0.3685780  -0.4112281 SPIN=   0.00000
   O   0.6123362   0.1686740  -0.4856335 SPIN=   0.00000
   O  -0.1561276  -0.3685780   0.4112281 SPIN=   0.00000
   O   0.4436621  -0.1686740   0.4856335 SPIN=   0.00000
   S  -0.3029264   0.3065227  -0.2500000 SPIN=   0.00000
   S   0.3905509  -0.3065227   0.2500000 SPIN=   0.00000
   F  -0.0326760  -0.1529738  -0.2500000 SPIN=   0.00000
   F   0.1202978   0.1529738   0.2500000 SPIN=   0.00000
%ENDBLOCK POSITIONS_FRAC

# Note: total spin =   8.00

KPOINTS_MP_SPACING 0.07

%BLOCK SPECIES_POT
QC5
%ENDBLOCK SPECIES_POT

SNAP_TO_SYMMETRY
SYMMETRY_GENERATE

