#              Generated by Buildcell
#
# at 03:01:12 (GMT+1.0) 4th August 2020
# in /lustre/scratch/uccabz1/launch_tmp
# on node-c12l-011
# by uccabz1
#
# compiler GCC version 4.9.2
# options -cpp -iprefix /lustre/shared/ucl/apps/gcc/4.9.2/bin/../lib/gcc/x86_64-unknown-linux-gnu/4.9.2/ -mtune=corei7 -march=x86-64 -g -Og
#
# seed   114796582  -479504657 -1198888341  1733850541    76909030    34918609  -358635179  1696093170   193814017 -1558311188 -1032911461 -1373227067
#
#      Author: C. J. Pickard (cjp20@cam.ac.uk)
#                Space group: Pcc2
#

%BLOCK LATTICE_ABC
      3.85556      6.60620      7.85219
     90.00000     90.00000     90.00000
%ENDBLOCK LATTICE_ABC

%BLOCK POSITIONS_FRAC
  Li  -0.5000000   0.0000000  -0.0335719 SPIN=   0.00000
  Li   0.5000000   0.0000000   0.4664281 SPIN=   0.00000
  Fe   0.0000000  -0.5000000   0.1375946 SPIN=   4.00000
  Fe   0.0000000  -0.5000000  -0.3624054 SPIN=   4.00000
   O   0.1223711   0.1688166   0.0810242 SPIN=   0.00000
   O  -0.3918620   0.1906754   0.2687658 SPIN=   0.00000
   O  -0.1223711  -0.1688166   0.0810242 SPIN=   0.00000
   O   0.3918620  -0.1906754   0.2687658 SPIN=   0.00000
   O  -0.1223711   0.1688166  -0.4189758 SPIN=   0.00000
   O   0.3918620   0.1906754  -0.2312342 SPIN=   0.00000
   O   0.1223711  -0.1688166  -0.4189758 SPIN=   0.00000
   O  -0.3918620  -0.1906754  -0.2312342 SPIN=   0.00000
   S   0.0000000   0.0000000   0.2147705 SPIN=   0.00000
   S  -0.0000000   0.0000000  -0.2852295 SPIN=   0.00000
   F   0.0000000   0.5000000  -0.1121328 SPIN=   0.00000
   F   0.0000000  -0.5000000   0.3878672 SPIN=   0.00000
%ENDBLOCK POSITIONS_FRAC

# Note: total spin =   8.00

KPOINTS_MP_SPACING 0.07

%BLOCK SPECIES_POT
QC5
%ENDBLOCK SPECIES_POT

SNAP_TO_SYMMETRY
SYMMETRY_GENERATE

