#              Generated by Buildcell
#
# at 03:52:56 (GMT+1.0) 4th August 2020
# in /lustre/scratch/uccabz1/launch_tmp
# on node-c12l-026
# by uccabz1
#
# compiler GCC version 4.9.2
# options -cpp -iprefix /lustre/shared/ucl/apps/gcc/4.9.2/bin/../lib/gcc/x86_64-unknown-linux-gnu/4.9.2/ -mtune=corei7 -march=x86-64 -g -Og
#
# seed  2076727810  -402811097  1251398167  -177159740  -502462108 -2000949049   664215214 -1190947150   245524470 -1376274866   578236729   163745327
#
#      Author: C. J. Pickard (cjp20@cam.ac.uk)
#                Space group: C2
#

%BLOCK LATTICE_ABC
      4.20109      7.06466      7.33417
     85.36330     74.22404     72.70261
%ENDBLOCK LATTICE_ABC

%BLOCK POSITIONS_FRAC
  Li   0.2069679   0.3100326   0.2786849 SPIN=   0.00000
  Li   0.4829996   0.3100326  -0.2786849 SPIN=   0.00000
  Fe  -0.4893322  -0.0213357   0.0000000 SPIN=   5.87145
  Fe  -0.2161753   0.4323506  -0.0000000 SPIN=   2.12855
   O  -0.0902234  -0.3428455   0.1068571 SPIN=   0.00000
   O   0.3088208  -0.2128057   0.2193234 SPIN=   0.00000
   O   0.0040863  -0.4344129   0.4249705 SPIN=   0.00000
   S  -0.0245989  -0.2705022   0.2784216 SPIN=   0.00000
   O   0.4330689  -0.3428455  -0.1068571 SPIN=   0.00000
   O  -0.0960151  -0.2128057  -0.2193234 SPIN=   0.00000
   O   0.4303266  -0.4344129  -0.4249705 SPIN=   0.00000
   S   0.2951011  -0.2705022  -0.2784216 SPIN=   0.00000
   O   0.5214856  -0.0429711  -0.5000000 SPIN=   0.00000
   O   0.0138116  -0.0276233  -0.0000000 SPIN=   0.00000
   F   0.0161321   0.2777573  -0.2735506 SPIN=   0.00000
   F  -0.2938895   0.2777573   0.2735506 SPIN=   0.00000
%ENDBLOCK POSITIONS_FRAC

# Note: total spin =   8.00

KPOINTS_MP_SPACING 0.07

%BLOCK SPECIES_POT
QC5
%ENDBLOCK SPECIES_POT

SNAP_TO_SYMMETRY
SYMMETRY_GENERATE

