#              Generated by Buildcell
#
# at 01:59:26 (GMT+1.0) 4th August 2020
# in /lustre/scratch/uccabz1/launch_tmp
# on node-c12e-010
# by uccabz1
#
# compiler GCC version 4.9.2
# options -cpp -iprefix /lustre/shared/ucl/apps/gcc/4.9.2/bin/../lib/gcc/x86_64-unknown-linux-gnu/4.9.2/ -mtune=corei7 -march=x86-64 -g -Og
#
# seed   648300658 -2143339085 -1024559456 -1549025406  1175552594 -1765469160  -729828038   907698763  -820989250   246895577  -374875252  1040254487
#
#      Author: C. J. Pickard (cjp20@cam.ac.uk)
#                Space group: Amm2
#

%BLOCK LATTICE_ABC
      5.07316      5.07316      7.78406
     90.00000     90.00000     93.32773
%ENDBLOCK LATTICE_ABC

%BLOCK POSITIONS_FRAC
  Li  -0.1606821   0.1606821   0.5000000 SPIN=   0.00000
  Li  -0.1674117   0.1674117   0.0000000 SPIN=   0.00000
  Fe   0.4520430  -0.4520430   0.5000000 SPIN=   2.75227
  Fe   0.4477838  -0.4477838   0.0000000 SPIN=   5.24773
   O  -0.5564168  -0.1149720  -0.3524927 SPIN=   0.00000
   O  -0.1858609  -0.1419833  -0.1476549 SPIN=   0.00000
   O   0.1149720   0.5564168   0.3524927 SPIN=   0.00000
   O   0.1419833   0.1858609   0.1476549 SPIN=   0.00000
   O   0.1149720   0.5564168  -0.3524927 SPIN=   0.00000
   O   0.1419833   0.1858609  -0.1476549 SPIN=   0.00000
   O  -0.5564168  -0.1149720   0.3524927 SPIN=   0.00000
   O  -0.1858609  -0.1419833   0.1476549 SPIN=   0.00000
   S   0.0977630  -0.0977630  -0.2488484 SPIN=   0.00000
   S   0.0977630  -0.0977630   0.2488484 SPIN=   0.00000
   F  -0.3748387   0.3748387  -0.2505115 SPIN=   0.00000
   F  -0.3748387   0.3748387   0.2505115 SPIN=   0.00000
%ENDBLOCK POSITIONS_FRAC

# Note: total spin =   8.00

KPOINTS_MP_SPACING 0.07

%BLOCK SPECIES_POT
QC5
%ENDBLOCK SPECIES_POT

SNAP_TO_SYMMETRY
SYMMETRY_GENERATE

