#              Generated by Buildcell
#
# at 02:35:14 (GMT+1.0) 4th August 2020
# in /lustre/scratch/uccabz1/launch_tmp
# on node-c12m-015
# by uccabz1
#
# compiler GCC version 4.9.2
# options -cpp -iprefix /lustre/shared/ucl/apps/gcc/4.9.2/bin/../lib/gcc/x86_64-unknown-linux-gnu/4.9.2/ -mtune=corei7 -march=x86-64 -g -Og
#
# seed   457457442  -745365063  -685834137   955251110 -1069881923 -1828972805   381264397  1107577721   355833944  1124146407  1962138809   586508287
#
#      Author: C. J. Pickard (cjp20@cam.ac.uk)
#                Space group: C2
#

%BLOCK LATTICE_ABC
      4.05930      4.96020     10.89555
     92.18094     90.00000    114.15378
%ENDBLOCK LATTICE_ABC

%BLOCK POSITIONS_FRAC
  Li  -0.3042404  -0.3062151  -0.3121916 SPIN=   0.00000
  Li   0.0019746   0.3062151   0.3121916 SPIN=   0.00000
  Fe   0.4498199   0.2300588  -0.1357092 SPIN=   4.00000
  Fe   0.2197610  -0.2300588   0.1357092 SPIN=   4.00000
   O  -0.1680706  -0.7440730  -0.5009041 SPIN=   0.00000
   O   0.3430679  -0.7736861  -0.3871887 SPIN=   0.00000
   O  -0.2309235  -0.8666252  -0.2816505 SPIN=   0.00000
   O   0.1641889  -0.3603004  -0.3409890 SPIN=   0.00000
   S   0.0270657  -0.6861712  -0.3776831 SPIN=   0.00000
   O  -0.4239977   0.7440730   0.5009041 SPIN=   0.00000
   O   0.1167541   0.7736861   0.3871887 SPIN=   0.00000
   O  -0.3642983   0.8666252   0.2816505 SPIN=   0.00000
   O  -0.4755107   0.3603004   0.3409890 SPIN=   0.00000
   S  -0.2867631   0.6861712   0.3776831 SPIN=   0.00000
   F   0.0347912   0.3136319   0.1340909 SPIN=   0.00000
   F  -0.2788407  -0.3136319  -0.1340909 SPIN=   0.00000
%ENDBLOCK POSITIONS_FRAC

# Note: total spin =   8.00

KPOINTS_MP_SPACING 0.07

%BLOCK SPECIES_POT
QC5
%ENDBLOCK SPECIES_POT

SNAP_TO_SYMMETRY
SYMMETRY_GENERATE

