#              Generated by Buildcell
#
# at 01:49:19 (GMT+1.0) 19th August 2020
# in /lustre/scratch/uccabz1/launch_tmp
# on node-c12m-029
# by uccabz1
#
# compiler GCC version 4.9.2
# options -cpp -iprefix /lustre/shared/ucl/apps/gcc/4.9.2/bin/../lib/gcc/x86_64-unknown-linux-gnu/4.9.2/ -mtune=corei7 -march=x86-64 -g -Og
#
# seed  -967283011 -1688779898    36989998  -419780671  1356370163   862483839 -1760701322  -752384723   764945699 -1014985653 -1247436888 -2069283512
#
#      Author: C. J. Pickard (cjp20@cam.ac.uk)
#                Space group: C2221
#

%BLOCK LATTICE_ABC
      5.79911      5.79911      6.02836
     90.00000     90.00000     99.41626
%ENDBLOCK LATTICE_ABC

%BLOCK POSITIONS_FRAC
  Li  -0.1477594   0.1477594   0.0000000 SPIN=   0.00000
  Li   0.1477594  -0.1477594  -0.5000000 SPIN=   0.00000
  Fe   0.3513875   0.3513875   0.2500000 SPIN=   4.00000
  Fe  -0.3513875  -0.3513875  -0.2500000 SPIN=   4.00000
   O  -0.3992564   0.0076469   0.3049896 SPIN=   0.00000
   O  -0.0001531   0.2374253   0.3122180 SPIN=   0.00000
   O   0.3992564  -0.0076469  -0.1950104 SPIN=   0.00000
   O   0.0001531  -0.2374253  -0.1877820 SPIN=   0.00000
   O   0.0076469  -0.3992564   0.1950104 SPIN=   0.00000
   O   0.2374253  -0.0001531   0.1877820 SPIN=   0.00000
   O  -0.0076469   0.3992564  -0.3049896 SPIN=   0.00000
   O  -0.2374253   0.0001531  -0.3122180 SPIN=   0.00000
   S   0.1593565  -0.1593565   0.0000000 SPIN=   0.00000
   S  -0.1593565   0.1593565  -0.5000000 SPIN=   0.00000
   F  -0.3751487   0.3751487   0.0000000 SPIN=   0.00000
   F   0.3751487  -0.3751487   0.5000000 SPIN=   0.00000
%ENDBLOCK POSITIONS_FRAC

# Note: total spin =   8.00

KPOINTS_MP_SPACING 0.07

%BLOCK SPECIES_POT
QC5
%ENDBLOCK SPECIES_POT

SNAP_TO_SYMMETRY
SYMMETRY_GENERATE

