#              Generated by Buildcell
#
# at 04:52:52 (GMT+1.0) 4th August 2020
# in /lustre/scratch/uccabz1/launch_tmp
# on node-c12g-017
# by uccabz1
#
# compiler GCC version 4.9.2
# options -cpp -iprefix /lustre/shared/ucl/apps/gcc/4.9.2/bin/../lib/gcc/x86_64-unknown-linux-gnu/4.9.2/ -mtune=corei7 -march=x86-64 -g -Og
#
# seed  1075720810 -1463411519 -1296236943  1463228070  -693980093   190964416   527105259   401413615   185668095    53628882  -947539009  2087949221
#
#      Author: C. J. Pickard (cjp20@cam.ac.uk)
#                Space group: P2
#

%BLOCK LATTICE_ABC
      4.87002      6.25428      6.57412
     90.00000     90.00000     92.79160
%ENDBLOCK LATTICE_ABC

%BLOCK POSITIONS_FRAC
  Li   0.2433793   0.2903651  -0.2879859 SPIN=   0.00000
  Li  -0.2433793  -0.2903651  -0.2879859 SPIN=   0.00000
  Fe  -0.2592080   0.2456216   0.4316834 SPIN=   4.00000
  Fe   0.2592080  -0.2456216   0.4316834 SPIN=   4.00000
   O   0.0062077  -0.3156677   0.0581248 SPIN=   0.00000
   O   0.5144276  -0.3117568   0.0479480 SPIN=   0.00000
   O   0.2691845  -0.0166563  -0.1099443 SPIN=   0.00000
   O   0.2454871  -0.3765293  -0.2673723 SPIN=   0.00000
   S   0.2588267  -0.2551525  -0.0678110 SPIN=   0.00000
   O  -0.0062077   0.3156677   0.0581248 SPIN=   0.00000
   O  -0.5144276   0.3117568   0.0479480 SPIN=   0.00000
   O  -0.2691845   0.0166563  -0.1099443 SPIN=   0.00000
   O  -0.2454871   0.3765293  -0.2673723 SPIN=   0.00000
   S  -0.2588267   0.2551525  -0.0678110 SPIN=   0.00000
   F   0.2467167   0.2243882   0.4418510 SPIN=   0.00000
   F  -0.2467167  -0.2243882   0.4418510 SPIN=   0.00000
%ENDBLOCK POSITIONS_FRAC

# Note: total spin =   8.00

KPOINTS_MP_SPACING 0.07

%BLOCK SPECIES_POT
QC5
%ENDBLOCK SPECIES_POT

SNAP_TO_SYMMETRY
SYMMETRY_GENERATE

