#              Generated by Buildcell
#
# at 02:31:15 (GMT+1.0) 4th August 2020
# in /lustre/scratch/uccabz1/launch_tmp
# on node-c12k-030
# by uccabz1
#
# compiler GCC version 4.9.2
# options -cpp -iprefix /lustre/shared/ucl/apps/gcc/4.9.2/bin/../lib/gcc/x86_64-unknown-linux-gnu/4.9.2/ -mtune=corei7 -march=x86-64 -g -Og
#
# seed  1069493633 -1153214540 -1613692840  2132092660  1951903463 -1180682935  1791845252 -1413261374  1148688240  -761199956  -148940688 -1751729425
#
#      Author: C. J. Pickard (cjp20@cam.ac.uk)
#                Space group: P-1
#

%BLOCK LATTICE_ABC
      5.73579      5.86558      6.82920
    111.30744    108.44017     92.17746
%ENDBLOCK LATTICE_ABC

%BLOCK POSITIONS_FRAC
  Li  -0.0371635   0.2992762  -0.2981034 SPIN=   0.00000
  Li   0.0371635  -0.2992762   0.2981034 SPIN=   0.00000
  Fe   0.0000000   0.0000000   0.0000000 SPIN=   6.62087
  Fe   0.5000000   0.5000000   0.5000000 SPIN=   1.37913
   O   0.1385041   0.0089852   0.6803800 SPIN=   0.00000
   O   0.5094605   0.2292690   1.0235562 SPIN=   0.00000
   O   0.4167335   0.3583537   0.7037059 SPIN=   0.00000
   O   0.5617481  -0.0414214   0.6709093 SPIN=   0.00000
   S   0.4066115   0.1387966   0.7696379 SPIN=   0.00000
   O  -0.1385041  -0.0089852  -0.6803800 SPIN=   0.00000
   O  -0.5094605  -0.2292690  -1.0235562 SPIN=   0.00000
   O  -0.4167335  -0.3583537  -0.7037059 SPIN=   0.00000
   O  -0.5617481   0.0414214  -0.6709093 SPIN=   0.00000
   S  -0.4066115  -0.1387966  -0.7696379 SPIN=   0.00000
   F   0.1076453   0.3841203   0.2482850 SPIN=   0.00000
   F  -0.1076453  -0.3841203  -0.2482850 SPIN=   0.00000
%ENDBLOCK POSITIONS_FRAC

# Note: total spin =   8.00

KPOINTS_MP_SPACING 0.07

%BLOCK SPECIES_POT
QC5
%ENDBLOCK SPECIES_POT

SNAP_TO_SYMMETRY
SYMMETRY_GENERATE

