#              Generated by Buildcell
#
# at 01:55:11 (GMT+1.0) 19th August 2020
# in /lustre/scratch/uccabz1/launch_tmp
# on node-c12k-027
# by uccabz1
#
# compiler GCC version 4.9.2
# options -cpp -iprefix /lustre/shared/ucl/apps/gcc/4.9.2/bin/../lib/gcc/x86_64-unknown-linux-gnu/4.9.2/ -mtune=corei7 -march=x86-64 -g -Og
#
# seed   302932739  1545569749  1830394629  1832718891   792250063 -1722059743 -1738424572  2107361378  1239216350   -47511749  1440190639  -779333158
#
#      Author: C. J. Pickard (cjp20@cam.ac.uk)
#                Space group: P21
#

%BLOCK LATTICE_ABC
      5.46148      6.14354      6.33767
     90.00000    109.85957     90.00000
%ENDBLOCK LATTICE_ABC

%BLOCK POSITIONS_FRAC
  Li  -0.2883118  -0.2101752   0.4575576 SPIN=   0.00000
  Li   0.2883118   0.2898248  -0.4575576 SPIN=   0.00000
  Fe   0.4961254  -0.2214594  -0.1802895 SPIN=   4.00000
  Fe  -0.4961254   0.2785406   0.1802895 SPIN=   4.00000
   O   0.3155881  -0.0071811   0.2698911 SPIN=   0.00000
   O   0.0094927  -0.0330636   0.4808046 SPIN=   0.00000
   O  -0.0958097  -0.2131162   0.1112377 SPIN=   0.00000
   O  -0.1051410   0.1887364   0.1347843 SPIN=   0.00000
   S   0.0310325  -0.0161561   0.2491794 SPIN=   0.00000
   O  -0.3155881   0.4928189  -0.2698911 SPIN=   0.00000
   O  -0.0094927   0.4669364  -0.4808046 SPIN=   0.00000
   O   0.0958097   0.2868838  -0.1112377 SPIN=   0.00000
   O   0.1051410   0.6887364  -0.1347843 SPIN=   0.00000
   S  -0.0310325   0.4838439  -0.2491794 SPIN=   0.00000
   F  -0.4796656  -0.3810591   0.2181648 SPIN=   0.00000
   F   0.4796656   0.1189409  -0.2181648 SPIN=   0.00000
%ENDBLOCK POSITIONS_FRAC

# Note: total spin =   8.00

KPOINTS_MP_SPACING 0.07

%BLOCK SPECIES_POT
QC5
%ENDBLOCK SPECIES_POT

SNAP_TO_SYMMETRY
SYMMETRY_GENERATE

