#              Generated by Buildcell
#
# at 02:26:49 (GMT+1.0) 4th August 2020
# in /lustre/scratch/uccabz1/launch_tmp
# on node-c12b-034
# by uccabz1
#
# compiler GCC version 4.9.2
# options -cpp -iprefix /lustre/shared/ucl/apps/gcc/4.9.2/bin/../lib/gcc/x86_64-unknown-linux-gnu/4.9.2/ -mtune=corei7 -march=x86-64 -g -Og
#
# seed -1192299849  1541201687 -1025730556   929226465   495310938 -2024711622  1716213105   940817892   206134659   -68018000  1036494644   726272322
#
#      Author: C. J. Pickard (cjp20@cam.ac.uk)
#                Space group: P21
#

%BLOCK LATTICE_ABC
      4.46241      6.12610      7.70513
    108.28554     90.00000     90.00000
%ENDBLOCK LATTICE_ABC

%BLOCK POSITIONS_FRAC
  Li   0.3105946   0.2452679  -0.3914872 SPIN=   0.00000
  Li  -0.1894054  -0.2452679   0.3914872 SPIN=   0.00000
  Fe   0.1861686  -0.2240058   0.0650941 SPIN=   4.00000
  Fe  -0.3138314   0.2240058  -0.0650941 SPIN=   4.00000
   O   0.2247977  -0.3063036  -0.2084842 SPIN=   0.00000
   O   0.5852019  -0.5085289  -0.4494426 SPIN=   0.00000
   O   0.7324790  -0.1460241  -0.2140933 SPIN=   0.00000
   O   0.3620508  -0.1394888  -0.4514603 SPIN=   0.00000
   S   0.4761324  -0.2750864  -0.3308701 SPIN=   0.00000
   O  -0.2752023   0.3063036   0.2084842 SPIN=   0.00000
   O   0.0852019   0.5085289   0.4494426 SPIN=   0.00000
   O   0.2324790   0.1460241   0.2140933 SPIN=   0.00000
   O  -0.1379492   0.1394888   0.4514603 SPIN=   0.00000
   S  -0.0238676   0.2750864   0.3308701 SPIN=   0.00000
   F  -0.4251210  -0.2559365   0.1860894 SPIN=   0.00000
   F   0.0748790   0.2559365  -0.1860894 SPIN=   0.00000
%ENDBLOCK POSITIONS_FRAC

# Note: total spin =   8.00

KPOINTS_MP_SPACING 0.07

%BLOCK SPECIES_POT
QC5
%ENDBLOCK SPECIES_POT

SNAP_TO_SYMMETRY
SYMMETRY_GENERATE

