#              Generated by Buildcell
#
# at 19:24:40 (GMT+1.0) 18th August 2020
# in /lustre/scratch/uccabz1/launch_tmp
# on node-c12c-029
# by uccabz1
#
# compiler GCC version 4.9.2
# options -cpp -iprefix /lustre/shared/ucl/apps/gcc/4.9.2/bin/../lib/gcc/x86_64-unknown-linux-gnu/4.9.2/ -mtune=corei7 -march=x86-64 -g -Og
#
# seed  1005124081  -447874779  -254423173  -412826673   421615752 -1081280101 -1137036075  1013592958 -1157753835  -762417084 -2051142188   311030726
#
#      Author: C. J. Pickard (cjp20@cam.ac.uk)
#                Space group: Cc
#

%BLOCK LATTICE_ABC
      4.38530      4.38530     10.54755
     89.57528     89.57528     80.41968
%ENDBLOCK LATTICE_ABC

%BLOCK POSITIONS_FRAC
  Li  -0.4615753   0.1460401  -0.0728115 SPIN=   0.00000
  Li   0.1460401  -0.4615753   0.4271885 SPIN=   0.00000
  Fe  -0.0564148   0.0735282   0.2457384 SPIN=   4.00000
  Fe   0.0735282  -0.0564148  -0.2542616 SPIN=   4.00000
   O  -0.7304546  -0.4628464   0.1723756 SPIN=   0.00000
   O  -0.4353191  -0.0357285   0.1352822 SPIN=   0.00000
   O  -0.5825579  -0.3343034  -0.0460203 SPIN=   0.00000
   O  -0.1823776  -0.5782014   0.1041849 SPIN=   0.00000
   S  -0.4826773  -0.3527699   0.0914556 SPIN=   0.00000
   O  -0.4628464  -0.7304546  -0.3276244 SPIN=   0.00000
   O  -0.0357285  -0.4353191  -0.3647178 SPIN=   0.00000
   O  -0.3343034  -0.5825579  -0.5460203 SPIN=   0.00000
   O  -0.5782014  -0.1823776  -0.3958151 SPIN=   0.00000
   S  -0.3527699  -0.4826773  -0.4085444 SPIN=   0.00000
   F   0.0920302   0.2219373  -0.1264363 SPIN=   0.00000
   F   0.2219373   0.0920302   0.3735637 SPIN=   0.00000
%ENDBLOCK POSITIONS_FRAC

# Note: total spin =   8.00

KPOINTS_MP_SPACING 0.07

%BLOCK SPECIES_POT
QC5
%ENDBLOCK SPECIES_POT

SNAP_TO_SYMMETRY
SYMMETRY_GENERATE

