#              Generated by Buildcell
#
# at 02:31:13 (GMT+1.0) 4th August 2020
# in /lustre/scratch/uccabz1/launch_tmp
# on node-c12j-017
# by uccabz1
#
# compiler GCC version 4.9.2
# options -cpp -iprefix /lustre/shared/ucl/apps/gcc/4.9.2/bin/../lib/gcc/x86_64-unknown-linux-gnu/4.9.2/ -mtune=corei7 -march=x86-64 -g -Og
#
# seed  1320088639 -1637210642   -56244901  -777309560  1313668454   751522938  -278883398  1406238910 -1989339376  -935040260   628864770  1072068514
#
#      Author: C. J. Pickard (cjp20@cam.ac.uk)
#                Space group: Pc
#

%BLOCK LATTICE_ABC
      5.57939      5.78782      6.48960
     90.00000     90.00000    107.37785
%ENDBLOCK LATTICE_ABC

%BLOCK POSITIONS_FRAC
  Li   0.2913373  -0.0389150   0.3018272 SPIN=   0.00000
  Li   0.2913373   0.4610850  -0.3018272 SPIN=   0.00000
  Fe   0.1706210  -0.0678963  -0.1976217 SPIN=   4.00000
  Fe   0.1706210   0.4321037   0.1976217 SPIN=   4.00000
   O  -0.2308984   0.5539548  -0.3894425 SPIN=   0.00000
   O  -0.4943726   0.3216212  -0.1079716 SPIN=   0.00000
   O  -0.0473285   0.5426205  -0.0437952 SPIN=   0.00000
   O  -0.1607428   0.1759517  -0.2629630 SPIN=   0.00000
   S  -0.2333356   0.3985370  -0.2010431 SPIN=   0.00000
   O  -0.2308984   0.0539548   0.3894425 SPIN=   0.00000
   O  -0.4943726  -0.1783788   0.1079716 SPIN=   0.00000
   O  -0.0473285   0.0426205   0.0437952 SPIN=   0.00000
   O  -0.1607428  -0.3240483   0.2629630 SPIN=   0.00000
   S  -0.2333356  -0.1014630   0.2010431 SPIN=   0.00000
   F   0.3874311  -0.2105209  -0.3338162 SPIN=   0.00000
   F   0.3874311   0.2894791   0.3338162 SPIN=   0.00000
%ENDBLOCK POSITIONS_FRAC

# Note: total spin =   8.00

KPOINTS_MP_SPACING 0.07

%BLOCK SPECIES_POT
QC5
%ENDBLOCK SPECIES_POT

SNAP_TO_SYMMETRY
SYMMETRY_GENERATE

