#              Generated by Buildcell
#
# at 04:28:11 (GMT+1.0) 4th August 2020
# in /lustre/scratch/uccabz1/launch_tmp
# on node-c12g-010
# by uccabz1
#
# compiler GCC version 4.9.2
# options -cpp -iprefix /lustre/shared/ucl/apps/gcc/4.9.2/bin/../lib/gcc/x86_64-unknown-linux-gnu/4.9.2/ -mtune=corei7 -march=x86-64 -g -Og
#
# seed   722907972 -1740034128  1478314657  -146373232   298461447  1634501931 -1028390093  -211377350 -1470464317  -782786673   236000115  1226936487
#
#      Author: C. J. Pickard (cjp20@cam.ac.uk)
#                Space group: C2
#

%BLOCK LATTICE_ABC
      3.90447      6.82984      8.01664
    101.97540     90.00000    106.60902
%ENDBLOCK LATTICE_ABC

%BLOCK POSITIONS_FRAC
  Li   0.2882969   0.2845792   0.0465683 SPIN=   0.00000
  Li   0.0037177  -0.2845792  -0.0465683 SPIN=   0.00000
  Fe  -0.1664963   0.2806695  -0.2511135 SPIN=   4.00000
  Fe  -0.4471658  -0.2806695   0.2511135 SPIN=   4.00000
   O   0.2140755   0.4599008   0.3804519 SPIN=   0.00000
   O   0.3779891   0.1451222   0.2360930 SPIN=   0.00000
   O  -0.1781024   0.1072260   0.3904907 SPIN=   0.00000
   S   0.2065054   0.2393332   0.3897393 SPIN=   0.00000
   O  -0.2458253  -0.4599008  -0.3804519 SPIN=   0.00000
   O   0.2328669  -0.1451222  -0.2360930 SPIN=   0.00000
   O  -0.2853283  -0.1072260  -0.3904907 SPIN=   0.00000
   S  -0.0328278  -0.2393332  -0.3897393 SPIN=   0.00000
   O  -0.1340506   0.0000000  -0.0000000 SPIN=   0.00000
   O   0.2483570   0.0000000   0.5000000 SPIN=   0.00000
   F   0.3744655   0.2795272  -0.1848443 SPIN=   0.00000
   F   0.0949382  -0.2795272   0.1848443 SPIN=   0.00000
%ENDBLOCK POSITIONS_FRAC

# Note: total spin =   8.00

KPOINTS_MP_SPACING 0.07

%BLOCK SPECIES_POT
QC5
%ENDBLOCK SPECIES_POT

SNAP_TO_SYMMETRY
SYMMETRY_GENERATE

