#              Generated by Buildcell
#
# at 19:00:43 (GMT+1.0) 18th August 2020
# in /lustre/scratch/uccabz1/launch_tmp
# on node-c12c-006
# by uccabz1
#
# compiler GCC version 4.9.2
# options -cpp -iprefix /lustre/shared/ucl/apps/gcc/4.9.2/bin/../lib/gcc/x86_64-unknown-linux-gnu/4.9.2/ -mtune=corei7 -march=x86-64 -g -Og
#
# seed  1909000845 -1660983888   -57240198  1167504800 -1358150569  -445476798   146642206 -1098217972  -972563275 -1034620453  -868295577  -651210215
#
#      Author: C. J. Pickard (cjp20@cam.ac.uk)
#                Space group: C2
#

%BLOCK LATTICE_ABC
      3.89110      7.54462      7.81743
     61.14786     87.23429     84.26120
%ENDBLOCK LATTICE_ABC

%BLOCK POSITIONS_FRAC
  Li  -0.2192455   0.2472224  -0.0012483 SPIN=   0.00000
  Li   0.2192455  -0.2459741  -0.0012483 SPIN=   0.00000
  Fe   0.2762380   0.0655467   0.3221738 SPIN=   4.00000
  Fe  -0.2762380  -0.3877204   0.3221738 SPIN=   4.00000
   O   0.1936049  -0.1817675  -0.4171508 SPIN=   0.00000
   O   0.2438926   0.0185217  -0.2466940 SPIN=   0.00000
   O  -0.2062314  -0.2227373  -0.1470072 SPIN=   0.00000
   O  -0.2548611   0.0944782  -0.4635030 SPIN=   0.00000
   O  -0.1936049   0.5989183  -0.4171508 SPIN=   0.00000
   O  -0.2438926   0.2281723  -0.2466940 SPIN=   0.00000
   O   0.2062314   0.3697445  -0.1470072 SPIN=   0.00000
   O   0.2548611   0.3690248  -0.4635030 SPIN=   0.00000
   S   0.5000000  -0.3650847   0.7301694 SPIN=   0.00000
   S   0.5000000   0.1743369  -0.3486738 SPIN=   0.00000
   F   0.0000000   0.4062584  -0.8125169 SPIN=   0.00000
   F   0.5000000  -0.0952154   0.1904307 SPIN=   0.00000
%ENDBLOCK POSITIONS_FRAC

# Note: total spin =   8.00

KPOINTS_MP_SPACING 0.07

%BLOCK SPECIES_POT
QC5
%ENDBLOCK SPECIES_POT

SNAP_TO_SYMMETRY
SYMMETRY_GENERATE

