#              Generated by Buildcell
#
# at 05:01:54 (GMT+1.0) 4th August 2020
# in /lustre/scratch/uccabz1/launch_tmp
# on node-c12m-031
# by uccabz1
#
# compiler GCC version 4.9.2
# options -cpp -iprefix /lustre/shared/ucl/apps/gcc/4.9.2/bin/../lib/gcc/x86_64-unknown-linux-gnu/4.9.2/ -mtune=corei7 -march=x86-64 -g -Og
#
# seed  1918617522  -659052451   387546633  -382022856   271783148  -623422246  2015505986   275505879   867460039  -877152204   387182196   892619028
#
#      Author: C. J. Pickard (cjp20@cam.ac.uk)
#                Space group: Cc
#

%BLOCK LATTICE_ABC
      3.93485      6.29021      8.88528
    108.38025     99.18636    100.05146
%ENDBLOCK LATTICE_ABC

%BLOCK POSITIONS_FRAC
  Li  -0.1706142  -0.2786861  -0.1763078 SPIN=   0.00000
  Li  -0.4943064  -0.1023782   0.1763078 SPIN=   0.00000
  Fe   0.2481800   0.2885090   0.3809887 SPIN=   4.00000
  Fe   0.3671913  -0.0924798  -0.3809887 SPIN=   4.00000
   O   0.3303024   0.4228795  -0.3622293 SPIN=   0.00000
   O  -0.1681496   0.3776855  -0.2276889 SPIN=   0.00000
   O   0.4170736   0.6315833  -0.0665293 SPIN=   0.00000
   O   0.3386342   0.2077820  -0.1720968 SPIN=   0.00000
   S   0.2294651   0.4099826  -0.2071361 SPIN=   0.00000
   O   0.1925317  -0.2148912   0.3622293 SPIN=   0.00000
   O  -0.4404607  -0.3946256   0.2276889 SPIN=   0.00000
   O  -0.0163971  -0.3018874   0.0665293 SPIN=   0.00000
   O   0.0107310  -0.6201212   0.1720968 SPIN=   0.00000
   S  -0.0633988  -0.3828814   0.2071361 SPIN=   0.00000
   F  -0.1628780  -0.2159401  -0.3766397 SPIN=   0.00000
   F  -0.2862383   0.1606995   0.3766397 SPIN=   0.00000
%ENDBLOCK POSITIONS_FRAC

# Note: total spin =   8.00

KPOINTS_MP_SPACING 0.07

%BLOCK SPECIES_POT
QC5
%ENDBLOCK SPECIES_POT

SNAP_TO_SYMMETRY
SYMMETRY_GENERATE

