#              Generated by Buildcell
#
# at 23:41:15 (GMT+1.0) 18th August 2020
# in /lustre/scratch/uccabz1/launch_tmp
# on node-c12j-021
# by uccabz1
#
# compiler GCC version 4.9.2
# options -cpp -iprefix /lustre/shared/ucl/apps/gcc/4.9.2/bin/../lib/gcc/x86_64-unknown-linux-gnu/4.9.2/ -mtune=corei7 -march=x86-64 -g -Og
#
# seed -2031639396  1645235721  1275992464  1415164133  1715483670   455791465   749400627 -1791771175 -1104560593  1067611368   245301048  1705439321
#
#      Author: C. J. Pickard (cjp20@cam.ac.uk)
#                Space group: Pm
#

%BLOCK LATTICE_ABC
      3.81529      7.00359      7.60029
     90.00000     90.00000     99.99988
%ENDBLOCK LATTICE_ABC

%BLOCK POSITIONS_FRAC
  Li  -0.2084772  -0.2247366   0.5000000 SPIN=   0.00000
  Li   0.1395422   0.3037451  -0.5000000 SPIN=   0.00000
  Fe   0.4385357  -0.0132052   0.2482029 SPIN=   4.00000
  Fe   0.4385357  -0.0132052  -0.2482029 SPIN=   4.00000
   O  -0.7265286   0.5005868  -0.2955624 SPIN=   0.00000
   O  -0.3569211   0.2879124  -0.1521270 SPIN=   0.00000
   O  -0.1590785   0.6436825  -0.1522141 SPIN=   0.00000
   S  -0.3489763   0.4725292  -0.2572024 SPIN=   0.00000
   O  -0.7265286   0.5005868   0.2955624 SPIN=   0.00000
   O  -0.3569211   0.2879124   0.1521270 SPIN=   0.00000
   O  -0.1590785   0.6436825   0.1522141 SPIN=   0.00000
   S  -0.3489763   0.4725292   0.2572024 SPIN=   0.00000
   O   0.4410718  -0.1826592   0.0000000 SPIN=   0.00000
   O   0.1823406   0.4059520   0.0000000 SPIN=   0.00000
   F  -0.0557898   0.0029136  -0.2530611 SPIN=   0.00000
   F  -0.0557898   0.0029136   0.2530611 SPIN=   0.00000
%ENDBLOCK POSITIONS_FRAC

# Note: total spin =   8.00

KPOINTS_MP_SPACING 0.07

%BLOCK SPECIES_POT
QC5
%ENDBLOCK SPECIES_POT

SNAP_TO_SYMMETRY
SYMMETRY_GENERATE

