#              Generated by Buildcell
#
# at 04:49:07 (GMT+1.0) 4th August 2020
# in /lustre/scratch/uccabz1/launch_tmp
# on node-c12d-012
# by uccabz1
#
# compiler GCC version 4.9.2
# options -cpp -iprefix /lustre/shared/ucl/apps/gcc/4.9.2/bin/../lib/gcc/x86_64-unknown-linux-gnu/4.9.2/ -mtune=corei7 -march=x86-64 -g -Og
#
# seed   217111234 -1159600374  1089821894 -1945943215   437618753   765056176  -676183915  -999325037  1262639733   956467843   897815189  1762544182
#
#      Author: C. J. Pickard (cjp20@cam.ac.uk)
#                Space group: Pm
#

%BLOCK LATTICE_ABC
      3.89315      6.18722      8.40583
     90.00000     90.00000     99.05595
%ENDBLOCK LATTICE_ABC

%BLOCK POSITIONS_FRAC
  Li  -0.3355832   0.4407102  -0.0000000 SPIN=   0.00000
  Li  -0.1054470   0.3936998   0.5000000 SPIN=   0.00000
  Fe   0.2218714  -0.3244106   0.2235621 SPIN=   4.00000
  Fe   0.2218714  -0.3244106  -0.2235621 SPIN=   4.00000
   O  -0.5000682  -0.0663290  -0.3708191 SPIN=   0.00000
   O  -0.1587434  -0.1296419  -0.1316463 SPIN=   0.00000
   O  -0.5262271   0.1623750  -0.1309069 SPIN=   0.00000
   O   0.0101417   0.2043176  -0.2934938 SPIN=   0.00000
   O  -0.5000682  -0.0663290   0.3708191 SPIN=   0.00000
   O  -0.1587434  -0.1296419   0.1316463 SPIN=   0.00000
   O  -0.5262271   0.1623750   0.1309069 SPIN=   0.00000
   O   0.0101417   0.2043176   0.2934938 SPIN=   0.00000
   S  -0.1760487  -0.0602830  -0.5000000 SPIN=   0.00000
   S  -0.1353078   0.0296403   0.0000000 SPIN=   0.00000
   F   0.2475255  -0.4337475  -0.0000000 SPIN=   0.00000
   F   0.4114450   0.4136623  -0.5000000 SPIN=   0.00000
%ENDBLOCK POSITIONS_FRAC

# Note: total spin =   8.00

KPOINTS_MP_SPACING 0.07

%BLOCK SPECIES_POT
QC5
%ENDBLOCK SPECIES_POT

SNAP_TO_SYMMETRY
SYMMETRY_GENERATE

