#              Generated by Buildcell
#
# at 04:25:54 (GMT+1.0) 4th August 2020
# in /lustre/scratch/uccabz1/launch_tmp
# on node-c12m-031
# by uccabz1
#
# compiler GCC version 4.9.2
# options -cpp -iprefix /lustre/shared/ucl/apps/gcc/4.9.2/bin/../lib/gcc/x86_64-unknown-linux-gnu/4.9.2/ -mtune=corei7 -march=x86-64 -g -Og
#
# seed -1240030046 -1244512188  1358176125   286662620 -1218886359  1819819795  -133347093  1161131087    57303690 -1223048846 -1762207253  1536717877
#
#      Author: C. J. Pickard (cjp20@cam.ac.uk)
#                Space group: Pmc21
#

%BLOCK LATTICE_ABC
      4.65844      5.31372      8.07961
     90.00000     90.00000     90.00000
%ENDBLOCK LATTICE_ABC

%BLOCK POSITIONS_FRAC
  Li   0.5000000  -0.0357315   0.1045485 SPIN=   0.00000
  Li  -0.5000000   0.0357315  -0.3954515 SPIN=   0.00000
  Fe   0.0000000   0.0000020  -0.1330255 SPIN=   4.00000
  Fe  -0.0000000  -0.0000020   0.3669745 SPIN=   4.00000
   O   0.2500008   0.3002904  -0.2617004 SPIN=   0.00000
   O   0.2500008   0.6765341  -0.4422486 SPIN=   0.00000
   O  -0.2500008  -0.3002904   0.2382996 SPIN=   0.00000
   O  -0.2500008  -0.6765341   0.0577514 SPIN=   0.00000
   O   0.2500008  -0.3002904   0.2382996 SPIN=   0.00000
   O   0.2500008  -0.6765341   0.0577514 SPIN=   0.00000
   O  -0.2500008   0.3002904  -0.2617004 SPIN=   0.00000
   O  -0.2500008   0.6765341  -0.4422486 SPIN=   0.00000
   S  -0.0000000   0.4999978   0.1169745 SPIN=   0.00000
   S   0.0000000  -0.4999978  -0.3830255 SPIN=   0.00000
   F  -0.5000000  -0.1572182  -0.1240934 SPIN=   0.00000
   F  -0.5000000   0.1572182   0.3759066 SPIN=   0.00000
%ENDBLOCK POSITIONS_FRAC

# Note: total spin =   8.00

KPOINTS_MP_SPACING 0.07

%BLOCK SPECIES_POT
QC5
%ENDBLOCK SPECIES_POT

SNAP_TO_SYMMETRY
SYMMETRY_GENERATE

