#              Generated by Buildcell
#
# at 05:25:46 (GMT+1.0) 4th August 2020
# in /lustre/scratch/uccabz1/launch_tmp
# on node-c12p-013
# by uccabz1
#
# compiler GCC version 4.9.2
# options -cpp -iprefix /lustre/shared/ucl/apps/gcc/4.9.2/bin/../lib/gcc/x86_64-unknown-linux-gnu/4.9.2/ -mtune=corei7 -march=x86-64 -g -Og
#
# seed  1633918290   904874509    52919618  -283212660   481265875 -1293433596  1254900951   726685598   319661930 -1824427902  2031818260  -930077745
#
#      Author: C. J. Pickard (cjp20@cam.ac.uk)
#                Space group: Iba2
#

%BLOCK LATTICE_ABC
      5.38636      5.59205      7.69153
    111.31655    110.49641     90.00000
%ENDBLOCK LATTICE_ABC

%BLOCK POSITIONS_FRAC
  Li  -0.2738652   0.2261348   0.4522696 SPIN=   0.00000
  Li   0.2261348  -0.2738652  -0.5477304 SPIN=   0.00000
  Fe  -0.1357461  -0.1357461  -0.2714922 SPIN=   4.00000
  Fe   0.3642539   0.3642539   0.7285078 SPIN=   4.00000
   O  -0.1939171  -0.1473366   0.3774937 SPIN=   0.00000
   O  -0.6558414  -0.3295203   0.1300371 SPIN=   0.00000
   O  -0.4285892   0.5248303   0.3774937 SPIN=   0.00000
   O  -0.2141215   0.4595574   0.1300371 SPIN=   0.00000
   O   0.3060829   0.0248303   0.3774937 SPIN=   0.00000
   O  -0.1558414  -0.0404426   0.1300371 SPIN=   0.00000
   O   0.0714108   0.3526634   0.3774937 SPIN=   0.00000
   O   0.2858785   0.1704797   0.1300371 SPIN=   0.00000
   S   0.1142539   0.1142539   0.2285078 SPIN=   0.00000
   S  -0.3857461  -0.3857461  -0.7714922 SPIN=   0.00000
   F   0.3757321  -0.1242679  -0.2485358 SPIN=   0.00000
   F  -0.1242679   0.3757321   0.7514642 SPIN=   0.00000
%ENDBLOCK POSITIONS_FRAC

# Note: total spin =   8.00

KPOINTS_MP_SPACING 0.07

%BLOCK SPECIES_POT
QC5
%ENDBLOCK SPECIES_POT

SNAP_TO_SYMMETRY
SYMMETRY_GENERATE

