#              Generated by Buildcell
#
# at 04:29:36 (GMT+1.0) 4th August 2020
# in /lustre/scratch/uccabz1/launch_tmp
# on node-c12c-018
# by uccabz1
#
# compiler GCC version 4.9.2
# options -cpp -iprefix /lustre/shared/ucl/apps/gcc/4.9.2/bin/../lib/gcc/x86_64-unknown-linux-gnu/4.9.2/ -mtune=corei7 -march=x86-64 -g -Og
#
# seed  1128654705  2098351520   714633724  -787787615 -1813761390   512326911 -1414059282  -853595386    73337503 -1252491223 -1326882686  -958215719
#
#      Author: C. J. Pickard (cjp20@cam.ac.uk)
#                Space group: Cc
#

%BLOCK LATTICE_ABC
      4.23235      5.26542      9.39536
     73.72702     88.40929     84.31463
%ENDBLOCK LATTICE_ABC

%BLOCK POSITIONS_FRAC
  Li   0.2318485   0.3935289   0.1652857 SPIN=   0.00000
  Li  -0.2681515  -0.4411853  -0.1652857 SPIN=   0.00000
  Fe  -0.3382585  -0.1899631   0.1634301 SPIN=   4.00000
  Fe   0.1617415  -0.0265330  -0.1634301 SPIN=   4.00000
   O   0.1618745  -0.1511695  -0.3844819 SPIN=   0.00000
   O   0.1511181  -0.5031934  -0.5116149 SPIN=   0.00000
   O   0.1463373  -0.6201164  -0.2374591 SPIN=   0.00000
   O   0.6327417  -0.4738254  -0.3757879 SPIN=   0.00000
   S   0.2730179  -0.4370762  -0.3773359 SPIN=   0.00000
   O  -0.3381255   0.4643486   0.3844819 SPIN=   0.00000
   O  -0.3488819  -0.0148083   0.5116149 SPIN=   0.00000
   O  -0.3536627   0.1424245   0.2374591 SPIN=   0.00000
   O   0.1327417   0.1503867   0.3757879 SPIN=   0.00000
   S  -0.2269821   0.1855879   0.3773359 SPIN=   0.00000
   F  -0.3169770  -0.0696656  -0.1765754 SPIN=   0.00000
   F   0.1830230  -0.2462410   0.1765754 SPIN=   0.00000
%ENDBLOCK POSITIONS_FRAC

# Note: total spin =   8.00

KPOINTS_MP_SPACING 0.07

%BLOCK SPECIES_POT
QC5
%ENDBLOCK SPECIES_POT

SNAP_TO_SYMMETRY
SYMMETRY_GENERATE

