#              Generated by Buildcell
#
# at 03:00:48 (GMT+1.0) 4th August 2020
# in /lustre/scratch/uccabz1/launch_tmp
# on node-c12h-033
# by uccabz1
#
# compiler GCC version 4.9.2
# options -cpp -iprefix /lustre/shared/ucl/apps/gcc/4.9.2/bin/../lib/gcc/x86_64-unknown-linux-gnu/4.9.2/ -mtune=corei7 -march=x86-64 -g -Og
#
# seed -1850235450  1782594629  1860148928 -1632142770  -192869184 -1263475851 -1122252775 -2023246888  1857372610   164532385  -283746673  1512820706
#
#      Author: C. J. Pickard (cjp20@cam.ac.uk)
#                Space group: P21
#

%BLOCK LATTICE_ABC
      4.18750      5.91921      8.12995
     90.00000     90.00000     97.02874
%ENDBLOCK LATTICE_ABC

%BLOCK POSITIONS_FRAC
  Li  -0.0603381  -0.0422356  -0.2460885 SPIN=   0.00000
  Li   0.0603381   0.0422356   0.2539115 SPIN=   0.00000
  Fe   0.3741179   0.3162561  -0.4474650 SPIN=   4.00000
  Fe  -0.3741179  -0.3162561   0.0525350 SPIN=   4.00000
   O   0.3885781   0.3292427  -0.1934002 SPIN=   0.00000
   O   0.5958385   0.2765598   0.0873102 SPIN=   0.00000
   O   0.5378443  -0.0455811  -0.1088536 SPIN=   0.00000
   O   0.0536400   0.0944474   0.0088379 SPIN=   0.00000
   S   0.3939752   0.1636672  -0.0515264 SPIN=   0.00000
   O  -0.3885781  -0.3292427   0.3065998 SPIN=   0.00000
   O  -0.5958385  -0.2765598   0.5873102 SPIN=   0.00000
   O  -0.5378443   0.0455811   0.3911464 SPIN=   0.00000
   O  -0.0536400  -0.0944474   0.5088379 SPIN=   0.00000
   S  -0.3939752  -0.1636672   0.4484736 SPIN=   0.00000
   F  -0.0258207  -0.3726715  -0.1891255 SPIN=   0.00000
   F   0.0258207   0.3726715   0.3108745 SPIN=   0.00000
%ENDBLOCK POSITIONS_FRAC

# Note: total spin =   8.00

KPOINTS_MP_SPACING 0.07

%BLOCK SPECIES_POT
QC5
%ENDBLOCK SPECIES_POT

SNAP_TO_SYMMETRY
SYMMETRY_GENERATE

