#              Generated by Buildcell
#
# at 03:53:47 (GMT+1.0) 4th August 2020
# in /lustre/scratch/uccabz1/launch_tmp
# on node-c12g-019
# by uccabz1
#
# compiler GCC version 4.9.2
# options -cpp -iprefix /lustre/shared/ucl/apps/gcc/4.9.2/bin/../lib/gcc/x86_64-unknown-linux-gnu/4.9.2/ -mtune=corei7 -march=x86-64 -g -Og
#
# seed   897789199 -1721947986   301447149   916671200  -502523258   270853882  -424089134 -2040515698 -1665453434   858045649   640466449   177806474
#
#      Author: C. J. Pickard (cjp20@cam.ac.uk)
#                Space group: Pc
#

%BLOCK LATTICE_ABC
      3.94409      7.38128      7.72807
    117.25771     90.00000     90.00000
%ENDBLOCK LATTICE_ABC

%BLOCK POSITIONS_FRAC
  Li  -0.1730477  -0.2555853  -0.4581971 SPIN=   0.00000
  Li   0.1730477   0.2444147   0.0418029 SPIN=   0.00000
  Fe  -0.1579582   0.0064911   0.3373113 SPIN=   4.00000
  Fe   0.1579582  -0.4935089  -0.1626887 SPIN=   4.00000
   O  -0.2385826   0.0904341   0.0624054 SPIN=   0.00000
   O  -0.1819875  -0.2680824  -0.1896131 SPIN=   0.00000
   O  -0.5752349  -0.0357971  -0.2409051 SPIN=   0.00000
   O  -0.7087234  -0.1527031   0.0047089 SPIN=   0.00000
   S  -0.4261321  -0.0915371  -0.0908510 SPIN=   0.00000
   O   0.2385826   0.5904341   0.5624054 SPIN=   0.00000
   O   0.1819875   0.2319176   0.3103869 SPIN=   0.00000
   O   0.5752349   0.4642029   0.2590949 SPIN=   0.00000
   O   0.7087234   0.3472969   0.5047089 SPIN=   0.00000
   S   0.4261321   0.4084629   0.4091490 SPIN=   0.00000
   F  -0.3160743   0.3868210  -0.1359844 SPIN=   0.00000
   F   0.3160743  -0.1131790   0.3640156 SPIN=   0.00000
%ENDBLOCK POSITIONS_FRAC

# Note: total spin =   8.00

KPOINTS_MP_SPACING 0.07

%BLOCK SPECIES_POT
QC5
%ENDBLOCK SPECIES_POT

SNAP_TO_SYMMETRY
SYMMETRY_GENERATE

