#              Generated by Buildcell
#
# at 02:09:05 (GMT+1.0) 4th August 2020
# in /lustre/scratch/uccabz1/launch_tmp
# on node-c12l-030
# by uccabz1
#
# compiler GCC version 4.9.2
# options -cpp -iprefix /lustre/shared/ucl/apps/gcc/4.9.2/bin/../lib/gcc/x86_64-unknown-linux-gnu/4.9.2/ -mtune=corei7 -march=x86-64 -g -Og
#
# seed   791976552   -77541505   753070635 -1829800454  -662113860  1765373524   808769694 -2023229431  1890256954 -1869119773  -734746029 -1774580542
#
#      Author: C. J. Pickard (cjp20@cam.ac.uk)
#                Space group: P-1
#

%BLOCK LATTICE_ABC
      4.65302      6.53200      6.78650
     83.61802     83.09930     78.71952
%ENDBLOCK LATTICE_ABC

%BLOCK POSITIONS_FRAC
  Li   0.0135139  -0.1321382  -0.2366034 SPIN=   0.00000
  Li  -0.0135139   0.1321382   0.2366034 SPIN=   0.00000
  Fe  -0.1375949  -0.2891951   0.1750760 SPIN=   4.00000
  Fe   0.1375949   0.2891951  -0.1750760 SPIN=   4.00000
   O  -0.3848202  -0.4055446  -0.1732060 SPIN=   0.00000
   O  -0.5257937  -0.0468231  -0.3349089 SPIN=   0.00000
   O  -0.6509480  -0.3485424  -0.4749534 SPIN=   0.00000
   O  -0.1321223  -0.3020094  -0.5005696 SPIN=   0.00000
   S  -0.4234210  -0.2757299  -0.3709095 SPIN=   0.00000
   O   0.3848202   0.4055446   0.1732060 SPIN=   0.00000
   O   0.5257937   0.0468231   0.3349089 SPIN=   0.00000
   O   0.6509480   0.3485424   0.4749534 SPIN=   0.00000
   O   0.1321223   0.3020094   0.5005696 SPIN=   0.00000
   S   0.4234210   0.2757299   0.3709095 SPIN=   0.00000
   F   0.2745537  -0.1830238   0.1448153 SPIN=   0.00000
   F  -0.2745537   0.1830238  -0.1448153 SPIN=   0.00000
%ENDBLOCK POSITIONS_FRAC

# Note: total spin =   8.00

KPOINTS_MP_SPACING 0.07

%BLOCK SPECIES_POT
QC5
%ENDBLOCK SPECIES_POT

SNAP_TO_SYMMETRY
SYMMETRY_GENERATE

