#              Generated by Buildcell
#
# at 01:59:15 (GMT+1.0) 4th August 2020
# in /lustre/scratch/uccabz1/launch_tmp
# on node-c12j-010
# by uccabz1
#
# compiler GCC version 4.9.2
# options -cpp -iprefix /lustre/shared/ucl/apps/gcc/4.9.2/bin/../lib/gcc/x86_64-unknown-linux-gnu/4.9.2/ -mtune=corei7 -march=x86-64 -g -Og
#
# seed  1286618171   346667733  -261045140  1762032395  2029449121  -339256781  1007208719 -1250696126   316989890  -247983015 -1272357448 -1820711639
#
#      Author: C. J. Pickard (cjp20@cam.ac.uk)
#                Space group: P21
#

%BLOCK LATTICE_ABC
      4.35719      6.46115      7.17019
     90.00000     90.00000     97.78084
%ENDBLOCK LATTICE_ABC

%BLOCK POSITIONS_FRAC
  Li   0.1731823  -0.2479886   0.3962068 SPIN=   0.00000
  Li  -0.1731823   0.2479886  -0.1037932 SPIN=   0.00000
  Fe   0.2779845   0.0012718   0.0562564 SPIN=   4.00000
  Fe  -0.2779845  -0.0012718  -0.4437436 SPIN=   4.00000
   O  -0.0398239  -0.5176921  -0.2751938 SPIN=   0.00000
   O   0.3991113  -0.3583290  -0.0809273 SPIN=   0.00000
   O   0.4435891  -0.3521547  -0.4250432 SPIN=   0.00000
   O   0.4371172  -0.6853552  -0.2539000 SPIN=   0.00000
   S   0.3099984  -0.4783827  -0.2587660 SPIN=   0.00000
   O   0.0398239   0.5176921   0.2248062 SPIN=   0.00000
   O  -0.3991113   0.3583290   0.4190727 SPIN=   0.00000
   O  -0.4435891   0.3521547   0.0749568 SPIN=   0.00000
   O  -0.4371172   0.6853552   0.2461000 SPIN=   0.00000
   S  -0.3099984   0.4783827   0.2412340 SPIN=   0.00000
   F   0.2248834   0.0088961  -0.4922674 SPIN=   0.00000
   F  -0.2248834  -0.0088961   0.0077326 SPIN=   0.00000
%ENDBLOCK POSITIONS_FRAC

# Note: total spin =   8.00

KPOINTS_MP_SPACING 0.07

%BLOCK SPECIES_POT
QC5
%ENDBLOCK SPECIES_POT

SNAP_TO_SYMMETRY
SYMMETRY_GENERATE

