#              Generated by Buildcell
#
# at 04:31:52 (GMT+1.0) 4th August 2020
# in /lustre/scratch/uccabz1/launch_tmp
# on node-c12l-027
# by uccabz1
#
# compiler GCC version 4.9.2
# options -cpp -iprefix /lustre/shared/ucl/apps/gcc/4.9.2/bin/../lib/gcc/x86_64-unknown-linux-gnu/4.9.2/ -mtune=corei7 -march=x86-64 -g -Og
#
# seed  -868053749  -730158685  1580613528 -1305770535 -1645704793  1658435467  -735620459 -1882201489   833719591  1834348490  2025039667 -1177035447
#
#      Author: C. J. Pickard (cjp20@cam.ac.uk)
#                Space group: P21
#

%BLOCK LATTICE_ABC
      4.50803      5.12880      8.66502
     90.00000     93.34843     90.00000
%ENDBLOCK LATTICE_ABC

%BLOCK POSITIONS_FRAC
  Li  -0.1850441   0.2777250  -0.2586508 SPIN=   0.00000
  Li   0.1850441  -0.2222750   0.2586508 SPIN=   0.00000
  Fe  -0.2791414   0.1308978   0.4024628 SPIN=   4.00000
  Fe   0.2791414  -0.3691022  -0.4024628 SPIN=   4.00000
   O  -0.0178492  -0.2537293   0.0069863 SPIN=   0.00000
   O  -0.4130834   0.0298804  -0.1111403 SPIN=   0.00000
   O  -0.4416829  -0.4484225  -0.1467534 SPIN=   0.00000
   O  -0.0628621  -0.1931064  -0.2767690 SPIN=   0.00000
   S  -0.2338694  -0.2163444  -0.1319191 SPIN=   0.00000
   O   0.0178492   0.2462707  -0.0069863 SPIN=   0.00000
   O   0.4130834   0.5298804   0.1111403 SPIN=   0.00000
   O   0.4416829   0.0515775   0.1467534 SPIN=   0.00000
   O   0.0628621   0.3068936   0.2767690 SPIN=   0.00000
   S   0.2338694   0.2836556   0.1319191 SPIN=   0.00000
   F  -0.2646965  -0.2656146   0.3661519 SPIN=   0.00000
   F   0.2646965   0.2343854  -0.3661519 SPIN=   0.00000
%ENDBLOCK POSITIONS_FRAC

# Note: total spin =   8.00

KPOINTS_MP_SPACING 0.07

%BLOCK SPECIES_POT
QC5
%ENDBLOCK SPECIES_POT

SNAP_TO_SYMMETRY
SYMMETRY_GENERATE

