#              Generated by Buildcell
#
# at 01:26:05 (GMT+1.0) 19th August 2020
# in /lustre/scratch/uccabz1/launch_tmp
# on node-c12p-025
# by uccabz1
#
# compiler GCC version 4.9.2
# options -cpp -iprefix /lustre/shared/ucl/apps/gcc/4.9.2/bin/../lib/gcc/x86_64-unknown-linux-gnu/4.9.2/ -mtune=corei7 -march=x86-64 -g -Og
#
# seed -1588812496 -2009070100   607744250  -805469518 -1124197876  1238449762  1017066205  1724506712 -1637402269  1257325173 -1944337158 -1192095336
#
#      Author: C. J. Pickard (cjp20@cam.ac.uk)
#                Space group: C2
#

%BLOCK LATTICE_ABC
      5.50945      5.50945      7.52385
     74.53064     74.53064     67.61902
%ENDBLOCK LATTICE_ABC

%BLOCK POSITIONS_FRAC
  Li  -0.0318976  -0.1981479   0.3135323 SPIN=   0.00000
  Li   0.1981479   0.0318976  -0.3135323 SPIN=   0.00000
  Fe  -0.3244254   0.0157773  -0.1031319 SPIN=   4.00000
  Fe  -0.0157773   0.3244254   0.1031319 SPIN=   4.00000
   O   0.2432147   0.4940493   0.5018508 SPIN=   0.00000
   O   0.4433459   0.5021900   0.1650700 SPIN=   0.00000
   O   0.2284840   0.1648978   0.3398409 SPIN=   0.00000
   O   0.6578813   0.1336947   0.4046499 SPIN=   0.00000
   S   0.3932315   0.3237079   0.3528529 SPIN=   0.00000
   O  -0.4940493  -0.2432147  -0.5018508 SPIN=   0.00000
   O  -0.5021900  -0.4433459  -0.1650700 SPIN=   0.00000
   O  -0.1648978  -0.2284840  -0.3398409 SPIN=   0.00000
   O  -0.1336947  -0.6578813  -0.4046499 SPIN=   0.00000
   S  -0.3237079  -0.3932315  -0.3528529 SPIN=   0.00000
   F  -0.1803586  -0.2527337   0.1366022 SPIN=   0.00000
   F   0.2527337   0.1803586  -0.1366022 SPIN=   0.00000
%ENDBLOCK POSITIONS_FRAC

# Note: total spin =   8.00

KPOINTS_MP_SPACING 0.07

%BLOCK SPECIES_POT
QC5
%ENDBLOCK SPECIES_POT

SNAP_TO_SYMMETRY
SYMMETRY_GENERATE

