#              Generated by Buildcell
#
# at 22:49:29 (GMT+1.0) 18th August 2020
# in /lustre/scratch/uccabz1/launch_tmp
# on node-c12o-035
# by uccabz1
#
# compiler GCC version 4.9.2
# options -cpp -iprefix /lustre/shared/ucl/apps/gcc/4.9.2/bin/../lib/gcc/x86_64-unknown-linux-gnu/4.9.2/ -mtune=corei7 -march=x86-64 -g -Og
#
# seed  1393759827  1881340218  1688973903 -1299452251  -260222509  1474331793  -829408238 -1019083535  1505002646 -1992949073 -1818064882  -806975468
#
#      Author: C. J. Pickard (cjp20@cam.ac.uk)
#                Space group: Cm
#

%BLOCK LATTICE_ABC
      3.81773      7.53772      8.06861
    115.60609     99.65023     98.48811
%ENDBLOCK LATTICE_ABC

%BLOCK POSITIONS_FRAC
  Li   0.2441117   0.2925600  -0.3979834 SPIN=   0.00000
  Li  -0.3579049  -0.3094566   0.3979834 SPIN=   0.00000
  Fe   0.1753564  -0.2781093  -0.2626979 SPIN=   4.00000
  Fe   0.4380542  -0.0154115   0.2626979 SPIN=   4.00000
   O  -0.2625772   0.1645355   0.1581463 SPIN=   0.00000
   O  -0.0626879   0.4998947   0.4458172 SPIN=   0.00000
   O   0.1476766   0.4516480   0.1587225 SPIN=   0.00000
   O   0.3822132   0.2914922   0.3505744 SPIN=   0.00000
   S   0.0511562   0.3518926   0.2783151 SPIN=   0.00000
   O  -0.4207235   0.0063892  -0.1581463 SPIN=   0.00000
   O  -0.5085052   0.0540775  -0.4458172 SPIN=   0.00000
   O  -0.0110459   0.2929255  -0.1587225 SPIN=   0.00000
   O   0.0316389  -0.0590822  -0.3505744 SPIN=   0.00000
   S  -0.2271589   0.0735775  -0.2783151 SPIN=   0.00000
   F  -0.4145797  -0.4061636  -0.2635831 SPIN=   0.00000
   F  -0.1509966  -0.1425804   0.2635831 SPIN=   0.00000
%ENDBLOCK POSITIONS_FRAC

# Note: total spin =   8.00

KPOINTS_MP_SPACING 0.07

%BLOCK SPECIES_POT
QC5
%ENDBLOCK SPECIES_POT

SNAP_TO_SYMMETRY
SYMMETRY_GENERATE

