#              Generated by Buildcell
#
# at 22:31:23 (GMT+1.0) 18th August 2020
# in /lustre/scratch/uccabz1/launch_tmp
# on node-c12e-015
# by uccabz1
#
# compiler GCC version 4.9.2
# options -cpp -iprefix /lustre/shared/ucl/apps/gcc/4.9.2/bin/../lib/gcc/x86_64-unknown-linux-gnu/4.9.2/ -mtune=corei7 -march=x86-64 -g -Og
#
# seed  1230800352 -1263320162  -220234535 -1860267128 -1729404901  -712281954  -986816505  -240781493   529896400  -718851027  -313849127  1195467900
#
#      Author: C. J. Pickard (cjp20@cam.ac.uk)
#                Space group: Pcc2
#

%BLOCK LATTICE_ABC
      4.17159      5.66758      8.45923
     90.00000     90.00000     90.00000
%ENDBLOCK LATTICE_ABC

%BLOCK POSITIONS_FRAC
  Li   0.0000000   0.0000000   0.0768319 SPIN=   0.00000
  Li   0.0000000   0.0000000  -0.4231681 SPIN=   0.00000
  Fe   0.5000000  -0.0000000  -0.1739256 SPIN=   4.00000
  Fe  -0.5000000   0.0000000   0.3260744 SPIN=   4.00000
   O  -0.2660799   0.4037849   0.4373271 SPIN=   0.00000
   O   0.1598142   0.3393551   0.2382791 SPIN=   0.00000
   O   0.2660799  -0.4037849   0.4373271 SPIN=   0.00000
   O  -0.1598142  -0.3393551   0.2382791 SPIN=   0.00000
   O  -0.2660799  -0.4037849  -0.0626729 SPIN=   0.00000
   O   0.1598142  -0.3393551  -0.2617209 SPIN=   0.00000
   O   0.2660799   0.4037849  -0.0626729 SPIN=   0.00000
   O  -0.1598142   0.3393551  -0.2617209 SPIN=   0.00000
   S   0.0000000   0.5000000   0.0711072 SPIN=   0.00000
   S   0.0000000  -0.5000000  -0.4288928 SPIN=   0.00000
   F   0.5000000  -0.0000000   0.0767049 SPIN=   0.00000
   F   0.5000000  -0.0000000  -0.4232951 SPIN=   0.00000
%ENDBLOCK POSITIONS_FRAC

# Note: total spin =   8.00

KPOINTS_MP_SPACING 0.07

%BLOCK SPECIES_POT
QC5
%ENDBLOCK SPECIES_POT

SNAP_TO_SYMMETRY
SYMMETRY_GENERATE

