#              Generated by Buildcell
#
# at 05:36:03 (GMT+1.0) 4th August 2020
# in /lustre/scratch/uccabz1/launch_tmp
# on node-c12p-022
# by uccabz1
#
# compiler GCC version 4.9.2
# options -cpp -iprefix /lustre/shared/ucl/apps/gcc/4.9.2/bin/../lib/gcc/x86_64-unknown-linux-gnu/4.9.2/ -mtune=corei7 -march=x86-64 -g -Og
#
# seed -1270610783  1236808761  -724017445  1790841684 -1578824712   960991142 -1562316762   794563997  1879077083   890196303   238762672 -2092032886
#
#      Author: C. J. Pickard (cjp20@cam.ac.uk)
#                Space group: Pba2
#

%BLOCK LATTICE_ABC
      4.22566      6.52850      7.24974
     90.00000     90.00000     90.00000
%ENDBLOCK LATTICE_ABC

%BLOCK POSITIONS_FRAC
  Li   0.5000000  -0.0000000   0.4301690 SPIN=   0.00000
  Li  -0.0000000  -0.5000000   0.4301690 SPIN=   0.00000
  Fe   0.5000000  -0.0000000  -0.1602011 SPIN=   4.00000
  Fe  -0.0000000   0.5000000  -0.1602011 SPIN=   4.00000
   O   0.3105435  -0.3215493   0.2948819 SPIN=   0.00000
   O   0.1610629  -0.1805931  -0.0098030 SPIN=   0.00000
   O  -0.3105435   0.3215493   0.2948819 SPIN=   0.00000
   O  -0.1610629   0.1805931  -0.0098030 SPIN=   0.00000
   O   0.1894565   0.1784507   0.2948819 SPIN=   0.00000
   O   0.3389371   0.3194069  -0.0098030 SPIN=   0.00000
   O  -0.1894565  -0.1784507   0.2948819 SPIN=   0.00000
   O  -0.3389371  -0.3194069  -0.0098030 SPIN=   0.00000
   S  -0.0000000  -0.0000000   0.1896927 SPIN=   0.00000
   S   0.5000000   0.5000000   0.1896927 SPIN=   0.00000
   F  -0.0000000  -0.0000000  -0.3109756 SPIN=   0.00000
   F   0.5000000   0.5000000  -0.3109756 SPIN=   0.00000
%ENDBLOCK POSITIONS_FRAC

# Note: total spin =   8.00

KPOINTS_MP_SPACING 0.07

%BLOCK SPECIES_POT
QC5
%ENDBLOCK SPECIES_POT

SNAP_TO_SYMMETRY
SYMMETRY_GENERATE

