#              Generated by Buildcell
#
# at 02:23:45 (GMT+1.0) 4th August 2020
# in /lustre/scratch/uccabz1/launch_tmp
# on node-c12h-031
# by uccabz1
#
# compiler GCC version 4.9.2
# options -cpp -iprefix /lustre/shared/ucl/apps/gcc/4.9.2/bin/../lib/gcc/x86_64-unknown-linux-gnu/4.9.2/ -mtune=corei7 -march=x86-64 -g -Og
#
# seed  -874574847 -1426929747   625167226  1503482957  2077438761  1548526890    77766534  -704410825 -1926949723 -2124092437 -1387959677  1269611958
#
#      Author: C. J. Pickard (cjp20@cam.ac.uk)
#                Space group: Pma2
#

%BLOCK LATTICE_ABC
      3.87170      6.47764      7.97465
     90.00000     90.00000     90.00000
%ENDBLOCK LATTICE_ABC

%BLOCK POSITIONS_FRAC
  Li  -0.3074643   0.0253854  -0.2500000 SPIN=   0.00000
  Li   0.3074643   0.0253854   0.2500000 SPIN=   0.00000
  Fe   0.3587629  -0.3948125  -0.2500000 SPIN=   4.00000
  Fe  -0.3587629  -0.3948125   0.2500000 SPIN=   4.00000
   O  -0.1951080   0.1090797   0.1065099 SPIN=   0.00000
   O  -0.3043942   0.3803944  -0.1054535 SPIN=   0.00000
   O   0.1951080   0.1090797  -0.1065099 SPIN=   0.00000
   O   0.3043942   0.3803944   0.1054535 SPIN=   0.00000
   O   0.1951080   0.1090797  -0.3934901 SPIN=   0.00000
   O   0.3043942   0.3803944  -0.6054535 SPIN=   0.00000
   O  -0.1951080   0.1090797   0.3934901 SPIN=   0.00000
   O  -0.3043942   0.3803944   0.6054535 SPIN=   0.00000
   S   0.0000000   0.2742693   0.0000000 SPIN=   0.00000
   S   0.0000000   0.2742693   0.5000000 SPIN=   0.00000
   F   0.5000000  -0.2257311   0.0000000 SPIN=   0.00000
   F   0.5000000  -0.2257311   0.5000000 SPIN=   0.00000
%ENDBLOCK POSITIONS_FRAC

# Note: total spin =   8.00

KPOINTS_MP_SPACING 0.07

%BLOCK SPECIES_POT
QC5
%ENDBLOCK SPECIES_POT

SNAP_TO_SYMMETRY
SYMMETRY_GENERATE

