#              Generated by Buildcell
#
# at 01:16:55 (GMT+1.0) 19th August 2020
# in /lustre/scratch/uccabz1/launch_tmp
# on node-c12p-014
# by uccabz1
#
# compiler GCC version 4.9.2
# options -cpp -iprefix /lustre/shared/ucl/apps/gcc/4.9.2/bin/../lib/gcc/x86_64-unknown-linux-gnu/4.9.2/ -mtune=corei7 -march=x86-64 -g -Og
#
# seed  -511617011   924638759 -1590112338 -2067847102 -1361725999  -952632724  -531386279  1204579347   -64006783   255509634   317884945   694612916
#
#      Author: C. J. Pickard (cjp20@cam.ac.uk)
#                Space group: P-1
#

%BLOCK LATTICE_ABC
      4.83828      5.82044      7.12245
     94.16262     90.72843     90.92706
%ENDBLOCK LATTICE_ABC

%BLOCK POSITIONS_FRAC
  Li  -0.0508858  -0.2654681  -0.2331112 SPIN=   0.00000
  Li   0.0508858   0.2654681   0.2331112 SPIN=   0.00000
  Fe   0.5000000   0.0000000   0.0000000 SPIN=   8.00000
  Fe  -0.5000000   0.5000000   0.5000000 SPIN=  -0.00000
   O   0.0907554   0.4430423  -0.3570406 SPIN=   0.00000
   O   0.1111785   0.2633850  -0.0528220 SPIN=   0.00000
   O   0.1133710   0.0190444  -0.3520191 SPIN=   0.00000
   O  -0.3121506   0.2211536  -0.2518869 SPIN=   0.00000
   S   0.0007886   0.2366563  -0.2534421 SPIN=   0.00000
   O  -0.0907554  -0.4430423   0.3570406 SPIN=   0.00000
   O  -0.1111785  -0.2633850   0.0528220 SPIN=   0.00000
   O  -0.1133710  -0.0190444   0.3520191 SPIN=   0.00000
   O   0.3121506  -0.2211536   0.2518869 SPIN=   0.00000
   S  -0.0007886  -0.2366563   0.2534421 SPIN=   0.00000
   F  -0.4861652  -0.2581609  -0.2506890 SPIN=   0.00000
   F   0.4861652   0.2581609   0.2506890 SPIN=   0.00000
%ENDBLOCK POSITIONS_FRAC

# Note: total spin =   8.00

KPOINTS_MP_SPACING 0.07

%BLOCK SPECIES_POT
QC5
%ENDBLOCK SPECIES_POT

SNAP_TO_SYMMETRY
SYMMETRY_GENERATE

