#              Generated by Buildcell
#
# at 01:55:25 (GMT+1.0) 4th August 2020
# in /lustre/scratch/uccabz1/launch_tmp
# on node-c12g-022
# by uccabz1
#
# compiler GCC version 4.9.2
# options -cpp -iprefix /lustre/shared/ucl/apps/gcc/4.9.2/bin/../lib/gcc/x86_64-unknown-linux-gnu/4.9.2/ -mtune=corei7 -march=x86-64 -g -Og
#
# seed   -49864782  -951657100  1257120018  -222015612 -1627504715   887417468   473813602 -1738902247 -1718258058 -1173251020  1133202054 -1825384368
#
#      Author: C. J. Pickard (cjp20@cam.ac.uk)
#                Space group: P21/m
#

%BLOCK LATTICE_ABC
      3.89449      4.92729     10.55631
     90.00000     90.00000     99.13356
%ENDBLOCK LATTICE_ABC

%BLOCK POSITIONS_FRAC
  Li   0.0000000   0.0000000   0.0000000 SPIN=   0.00000
  Li   0.0000000   0.0000000  -0.5000000 SPIN=   0.00000
  Fe  -0.3705875  -0.0499262   0.2500000 SPIN=   4.00000
  Fe   0.3705875   0.0499262  -0.2500000 SPIN=   4.00000
   O   0.3726774   0.2657051   0.5846302 SPIN=   0.00000
   O   0.0656106   0.3998468   0.3950021 SPIN=   0.00000
   O  -0.3726774  -0.2657051   0.0846302 SPIN=   0.00000
   O  -0.0656106  -0.3998468  -0.1049979 SPIN=   0.00000
   O  -0.3726774  -0.2657051  -0.5846302 SPIN=   0.00000
   O  -0.0656106  -0.3998468  -0.3950021 SPIN=   0.00000
   O   0.3726774   0.2657051  -0.0846302 SPIN=   0.00000
   O   0.0656106   0.3998468   0.1049979 SPIN=   0.00000
   S   0.5000000   0.5000000   0.0000000 SPIN=   0.00000
   S   0.5000000   0.5000000  -0.5000000 SPIN=   0.00000
   F   0.1632497  -0.0553401   0.2500000 SPIN=   0.00000
   F  -0.1632497   0.0553401  -0.2500000 SPIN=   0.00000
%ENDBLOCK POSITIONS_FRAC

# Note: total spin =   8.00

KPOINTS_MP_SPACING 0.07

%BLOCK SPECIES_POT
QC5
%ENDBLOCK SPECIES_POT

SNAP_TO_SYMMETRY
SYMMETRY_GENERATE

