#              Generated by Buildcell
#
# at 05:44:15 (GMT+1.0) 4th August 2020
# in /lustre/scratch/uccabz1/launch_tmp
# on node-c12p-016
# by uccabz1
#
# compiler GCC version 4.9.2
# options -cpp -iprefix /lustre/shared/ucl/apps/gcc/4.9.2/bin/../lib/gcc/x86_64-unknown-linux-gnu/4.9.2/ -mtune=corei7 -march=x86-64 -g -Og
#
# seed   483298764 -1331368147  1185577339   407035377   352129815  -906077370  -920997033  -209916762   933848350   991812294 -1976280159  1610123794
#
#      Author: C. J. Pickard (cjp20@cam.ac.uk)
#                Space group: Pnn2
#

%BLOCK LATTICE_ABC
      4.18918      6.32867      7.54376
     90.00000     90.00000     90.00000
%ENDBLOCK LATTICE_ABC

%BLOCK POSITIONS_FRAC
  Li   0.0000000   0.0000000   0.4752075 SPIN=   0.00000
  Li   0.5000000   0.5000000  -0.0247925 SPIN=   0.00000
  Fe   0.0000000   0.0000000   0.0763767 SPIN=   4.00000
  Fe   0.5000000   0.5000000  -0.4236233 SPIN=   4.00000
   O   0.2287524   0.1231441  -0.2204036 SPIN=   0.00000
   O   0.7303852   0.2341304  -0.0742493 SPIN=   0.00000
   O  -0.2287524  -0.1231441  -0.2204036 SPIN=   0.00000
   O  -0.7303852  -0.2341304  -0.0742493 SPIN=   0.00000
   O  -0.2712476   0.3768559   0.2795964 SPIN=   0.00000
   O   0.2303852   0.2658696   0.4257507 SPIN=   0.00000
   O   0.2712476  -0.3768559   0.2795964 SPIN=   0.00000
   O  -0.2303852  -0.2658696   0.4257507 SPIN=   0.00000
   S   0.0000000   0.5000000   0.2057428 SPIN=   0.00000
   S   0.5000000  -0.0000000  -0.2942572 SPIN=   0.00000
   F   0.0000000   0.5000000  -0.2982606 SPIN=   0.00000
   F   0.5000000  -0.0000000   0.2017394 SPIN=   0.00000
%ENDBLOCK POSITIONS_FRAC

# Note: total spin =   8.00

KPOINTS_MP_SPACING 0.07

%BLOCK SPECIES_POT
QC5
%ENDBLOCK SPECIES_POT

SNAP_TO_SYMMETRY
SYMMETRY_GENERATE

