#              Generated by Buildcell
#
# at 02:06:33 (GMT+1.0) 4th August 2020
# in /lustre/scratch/uccabz1/launch_tmp
# on node-c12f-020
# by uccabz1
#
# compiler GCC version 4.9.2
# options -cpp -iprefix /lustre/shared/ucl/apps/gcc/4.9.2/bin/../lib/gcc/x86_64-unknown-linux-gnu/4.9.2/ -mtune=corei7 -march=x86-64 -g -Og
#
# seed  1989129531 -1748159111  1883909823  -199575303  1730567779 -1910751323   -37514190     7270772 -1685369534  -257071276   846631370   237172850
#
#      Author: C. J. Pickard (cjp20@cam.ac.uk)
#                Space group: P2/c
#

%BLOCK LATTICE_ABC
      4.14735      6.60480      7.35797
     90.00000     90.00000     97.11710
%ENDBLOCK LATTICE_ABC

%BLOCK POSITIONS_FRAC
  Li  -0.2500000   0.2500000   0.1749091 SPIN=   0.00000
  Li   0.2500000  -0.2500000  -0.1749091 SPIN=   0.00000
  Fe  -0.5000000   0.0000000  -0.5000000 SPIN=   4.00000
  Fe  -0.0000000   0.5000000   0.5000000 SPIN=   4.00000
   O   0.2642135   0.0599842   0.0247922 SPIN=   0.00000
   O  -0.0146369   0.1843365  -0.2428304 SPIN=   0.00000
   O   0.2357865   0.4400158   0.0247922 SPIN=   0.00000
   O   0.5146369   0.3156635  -0.2428304 SPIN=   0.00000
   O  -0.2642135  -0.0599842  -0.0247922 SPIN=   0.00000
   O   0.0146369  -0.1843365   0.2428304 SPIN=   0.00000
   O  -0.2357865  -0.4400158  -0.0247922 SPIN=   0.00000
   O  -0.5146369  -0.3156635   0.2428304 SPIN=   0.00000
   S   0.2500000   0.2500000  -0.1089335 SPIN=   0.00000
   S  -0.2500000  -0.2500000   0.1089335 SPIN=   0.00000
   F   0.2500000   0.2500000   0.3910665 SPIN=   0.00000
   F  -0.2500000  -0.2500000  -0.3910665 SPIN=   0.00000
%ENDBLOCK POSITIONS_FRAC

# Note: total spin =   8.00

KPOINTS_MP_SPACING 0.07

%BLOCK SPECIES_POT
QC5
%ENDBLOCK SPECIES_POT

SNAP_TO_SYMMETRY
SYMMETRY_GENERATE

