#              Generated by Buildcell
#
# at 02:39:03 (GMT+1.0) 4th August 2020
# in /lustre/scratch/uccabz1/launch_tmp
# on node-c12d-006
# by uccabz1
#
# compiler GCC version 4.9.2
# options -cpp -iprefix /lustre/shared/ucl/apps/gcc/4.9.2/bin/../lib/gcc/x86_64-unknown-linux-gnu/4.9.2/ -mtune=corei7 -march=x86-64 -g -Og
#
# seed  1968281064  -330277334  1291549832  -739710720  -334302230 -1726213865 -1080068048  1379184851  2135240124   398997245 -1305890838  1587935557
#
#      Author: C. J. Pickard (cjp20@cam.ac.uk)
#                Space group: Pnn2
#

%BLOCK LATTICE_ABC
      5.27668      5.84457      6.48510
     90.00000     90.00000     90.00000
%ENDBLOCK LATTICE_ABC

%BLOCK POSITIONS_FRAC
  Li  -0.0159233   0.0000000   0.0000000 SPIN=   0.00000
  Li   0.4840767  -0.5000000   0.5000000 SPIN=   0.00000
  Fe   0.1629804  -0.5000000   0.0000000 SPIN=   4.00000
  Fe  -0.3370196   0.0000000   0.5000000 SPIN=   4.00000
   O  -0.3828553   0.2742581  -0.2897483 SPIN=   0.00000
   O  -0.2981807   0.3098531  -0.6637292 SPIN=   0.00000
   O  -0.3828553  -0.2742581   0.2897483 SPIN=   0.00000
   O  -0.2981807  -0.3098531   0.6637292 SPIN=   0.00000
   O   0.1171447  -0.2257419  -0.2102517 SPIN=   0.00000
   O   0.2018193  -0.1901469   0.1637292 SPIN=   0.00000
   O   0.1171447   0.2257419   0.2102517 SPIN=   0.00000
   O   0.2018193   0.1901469  -0.1637292 SPIN=   0.00000
   S   0.4845665   0.0000000  -0.0000000 SPIN=   0.00000
   S  -0.0154335  -0.5000000  -0.5000000 SPIN=   0.00000
   F  -0.1885841  -0.5000000   0.0000000 SPIN=   0.00000
   F   0.3114159   0.0000000   0.5000000 SPIN=   0.00000
%ENDBLOCK POSITIONS_FRAC

# Note: total spin =   8.00

KPOINTS_MP_SPACING 0.07

%BLOCK SPECIES_POT
QC5
%ENDBLOCK SPECIES_POT

SNAP_TO_SYMMETRY
SYMMETRY_GENERATE

