#              Generated by Buildcell
#
# at 22:19:19 (GMT+1.0) 18th August 2020
# in /lustre/scratch/uccabz1/launch_tmp
# on node-c12a-021
# by uccabz1
#
# compiler GCC version 4.9.2
# options -cpp -iprefix /lustre/shared/ucl/apps/gcc/4.9.2/bin/../lib/gcc/x86_64-unknown-linux-gnu/4.9.2/ -mtune=corei7 -march=x86-64 -g -Og
#
# seed -1537377245   463952612  -451473625 -1735679424  -562712388  1843916501   252233964  1080501856  1434518516  -847832252   599422667   169635465
#
#      Author: C. J. Pickard (cjp20@cam.ac.uk)
#                Space group: Cmc21
#

%BLOCK LATTICE_ABC
      4.27544      4.27544     10.97461
     90.00000     90.00000     94.46717
%ENDBLOCK LATTICE_ABC

%BLOCK POSITIONS_FRAC
  Li  -0.0631780  -0.0631780   0.0355144 SPIN=   0.00000
  Li   0.0631780   0.0631780  -0.4644856 SPIN=   0.00000
  Fe  -0.2211730  -0.2211730   0.2914015 SPIN=   4.00000
  Fe   0.2211730   0.2211730  -0.2085985 SPIN=   4.00000
   O   0.2230047  -0.4001915  -0.4960162 SPIN=   0.00000
   O   0.4281049  -0.1595609  -0.3040556 SPIN=   0.00000
   O  -0.2230047   0.4001915   0.0039838 SPIN=   0.00000
   O  -0.4281049   0.1595609   0.1959444 SPIN=   0.00000
   O   0.4001915  -0.2230047   0.0039838 SPIN=   0.00000
   O   0.1595609  -0.4281049   0.1959444 SPIN=   0.00000
   O  -0.4001915   0.2230047  -0.4960162 SPIN=   0.00000
   O  -0.1595609   0.4281049  -0.3040556 SPIN=   0.00000
   S   0.4184300   0.4184300   0.0671791 SPIN=   0.00000
   S  -0.4184300  -0.4184300  -0.4328209 SPIN=   0.00000
   F   0.0831374   0.0831374   0.3549718 SPIN=   0.00000
   F  -0.0831374  -0.0831374  -0.1450282 SPIN=   0.00000
%ENDBLOCK POSITIONS_FRAC

# Note: total spin =   8.00

KPOINTS_MP_SPACING 0.07

%BLOCK SPECIES_POT
QC5
%ENDBLOCK SPECIES_POT

SNAP_TO_SYMMETRY
SYMMETRY_GENERATE

