#              Generated by Buildcell
#
# at 03:42:33 (GMT+1.0) 4th August 2020
# in /lustre/scratch/uccabz1/launch_tmp
# on node-c12c-030
# by uccabz1
#
# compiler GCC version 4.9.2
# options -cpp -iprefix /lustre/shared/ucl/apps/gcc/4.9.2/bin/../lib/gcc/x86_64-unknown-linux-gnu/4.9.2/ -mtune=corei7 -march=x86-64 -g -Og
#
# seed    39831214  -275456606   931003591 -1253530934    42533932  -151341093 -1197669403   306005340  -127548481  -135805423  1019424760 -1751899853
#
#      Author: C. J. Pickard (cjp20@cam.ac.uk)
#                Space group: I212121
#

%BLOCK LATTICE_ABC
      6.31767      6.45670      6.45670
     73.52898     60.70978     60.70978
%ENDBLOCK LATTICE_ABC

%BLOCK POSITIONS_FRAC
  Li  -0.2806914   0.2500000  -0.2500000 SPIN=   0.00000
  Li  -0.2193086  -0.2500000   0.2500000 SPIN=   0.00000
  Fe   0.2500000  -0.1229089  -0.3770911 SPIN=   4.00000
  Fe  -0.2500000   0.6229089  -0.1229089 SPIN=   4.00000
   O  -0.0462654   0.2486478  -0.0204744 SPIN=   0.00000
   O   0.2420376   0.4621694  -0.2663318 SPIN=   0.00000
   O   0.1819080   0.2513522  -0.4795256 SPIN=   0.00000
   O   0.4378752   0.0378306  -0.2336682 SPIN=   0.00000
   O   0.5462654  -0.4795256   0.2513522 SPIN=   0.00000
   O   0.2579624  -0.2336682   0.0378306 SPIN=   0.00000
   O   0.3180920  -0.0204744   0.2486478 SPIN=   0.00000
   O   0.0621248  -0.2663318   0.4621694 SPIN=   0.00000
   S  -0.2500000   0.1058183   0.3941817 SPIN=   0.00000
   S   0.2500000  -0.6058183   0.1058183 SPIN=   0.00000
   F  -0.1572267  -0.0927733  -0.0927733 SPIN=   0.00000
   F  -0.3427733   0.5927733  -0.4072267 SPIN=   0.00000
%ENDBLOCK POSITIONS_FRAC

# Note: total spin =   8.00

KPOINTS_MP_SPACING 0.07

%BLOCK SPECIES_POT
QC5
%ENDBLOCK SPECIES_POT

SNAP_TO_SYMMETRY
SYMMETRY_GENERATE

