#              Generated by Buildcell
#
# at 05:09:31 (GMT+1.0) 4th August 2020
# in /lustre/scratch/uccabz1/launch_tmp
# on node-c12m-023
# by uccabz1
#
# compiler GCC version 4.9.2
# options -cpp -iprefix /lustre/shared/ucl/apps/gcc/4.9.2/bin/../lib/gcc/x86_64-unknown-linux-gnu/4.9.2/ -mtune=corei7 -march=x86-64 -g -Og
#
# seed  1357290282   -81898005 -1193219375 -1516692693  -528046045 -1971304146    88389916  1432906668  -445130323  1667209600   304969286  1510260884
#
#      Author: C. J. Pickard (cjp20@cam.ac.uk)
#                Space group: P-1
#

%BLOCK LATTICE_ABC
      4.75494      6.04188      7.31410
     85.21702     78.48519     76.42886
%ENDBLOCK LATTICE_ABC

%BLOCK POSITIONS_FRAC
  Li  -0.3357834   0.1790323   0.1422060 SPIN=   0.00000
  Li   0.3357834  -0.1790323  -0.1422060 SPIN=   0.00000
  Fe  -0.3749176   0.2967090  -0.2652670 SPIN=   4.00000
  Fe   0.3749176  -0.2967090   0.2652670 SPIN=   4.00000
   O  -0.1356067  -0.4606957  -0.2062722 SPIN=   0.00000
   O   0.2427069  -0.2973461  -0.4211025 SPIN=   0.00000
   O  -0.1475086  -0.0491944  -0.2041149 SPIN=   0.00000
   O  -0.2715762  -0.2053254  -0.4725459 SPIN=   0.00000
   S  -0.0779961  -0.2531404  -0.3260089 SPIN=   0.00000
   O   0.1356067   0.4606957   0.2062722 SPIN=   0.00000
   O  -0.2427069   0.2973461   0.4211025 SPIN=   0.00000
   O   0.1475086   0.0491944   0.2041149 SPIN=   0.00000
   O   0.2715762   0.2053254   0.4725459 SPIN=   0.00000
   S   0.0779961   0.2531404   0.3260089 SPIN=   0.00000
   F  -0.2491795  -0.1713034   0.1748402 SPIN=   0.00000
   F   0.2491795   0.1713034  -0.1748402 SPIN=   0.00000
%ENDBLOCK POSITIONS_FRAC

# Note: total spin =   8.00

KPOINTS_MP_SPACING 0.07

%BLOCK SPECIES_POT
QC5
%ENDBLOCK SPECIES_POT

SNAP_TO_SYMMETRY
SYMMETRY_GENERATE

