#              Generated by Buildcell
#
# at 02:12:19 (GMT+1.0) 4th August 2020
# in /lustre/scratch/uccabz1/launch_tmp
# on node-c12d-002
# by uccabz1
#
# compiler GCC version 4.9.2
# options -cpp -iprefix /lustre/shared/ucl/apps/gcc/4.9.2/bin/../lib/gcc/x86_64-unknown-linux-gnu/4.9.2/ -mtune=corei7 -march=x86-64 -g -Og
#
# seed  -630577395   817525790 -1068399558 -1894180018   -62055391   807354893 -1926263496 -1343083132  1878745988  1713406004  2026977447 -1034123437
#
#      Author: C. J. Pickard (cjp20@cam.ac.uk)
#                Space group: P4
#

%BLOCK LATTICE_ABC
      5.43894      6.06398      6.06398
     90.00000     90.00000     90.00000
%ENDBLOCK LATTICE_ABC

%BLOCK POSITIONS_FRAC
  Li   0.3183498   0.5000000   0.0000000 SPIN=   0.00000
  Li   0.3183498   0.0000000   0.5000000 SPIN=   0.00000
  Fe  -0.4476330   0.5000000  -0.5000000 SPIN=   0.40282
  Fe   0.0823109   0.0000000   0.0000000 SPIN=   7.59718
   O  -0.1037419  -0.0982686   0.2842786 SPIN=   0.00000
   O  -0.4014164   0.2014269   0.3582080 SPIN=   0.00000
   O  -0.1037419   0.0982686  -0.2842786 SPIN=   0.00000
   O  -0.4014164  -0.2014269  -0.3582080 SPIN=   0.00000
   O  -0.1037419  -0.2842786  -0.0982686 SPIN=   0.00000
   O  -0.4014164  -0.3582080   0.2014269 SPIN=   0.00000
   O  -0.1037419   0.2842786   0.0982686 SPIN=   0.00000
   O  -0.4014164   0.3582080  -0.2014269 SPIN=   0.00000
   S  -0.1821727  -0.5000000   0.0000000 SPIN=   0.00000
   S  -0.1821727  -0.0000000  -0.5000000 SPIN=   0.00000
   F   0.1678162   0.5000000  -0.5000000 SPIN=   0.00000
   F   0.4674491  -0.0000000   0.0000000 SPIN=   0.00000
%ENDBLOCK POSITIONS_FRAC

# Note: total spin =   8.00

KPOINTS_MP_SPACING 0.07

%BLOCK SPECIES_POT
QC5
%ENDBLOCK SPECIES_POT

SNAP_TO_SYMMETRY
SYMMETRY_GENERATE

