#              Generated by Buildcell
#
# at 04:24:04 (GMT+1.0) 4th August 2020
# in /lustre/scratch/uccabz1/launch_tmp
# on node-c12f-015
# by uccabz1
#
# compiler GCC version 4.9.2
# options -cpp -iprefix /lustre/shared/ucl/apps/gcc/4.9.2/bin/../lib/gcc/x86_64-unknown-linux-gnu/4.9.2/ -mtune=corei7 -march=x86-64 -g -Og
#
# seed   316071500   253048131   -72467254  1672236954  1453191707  1385497966  -431886407   361196213  1804589704  1490227798  1742167068   568209178
#
#      Author: C. J. Pickard (cjp20@cam.ac.uk)
#                Space group: C2
#

%BLOCK LATTICE_ABC
      5.57516      6.58036      6.60265
     79.96326     65.02697     65.61929
%ENDBLOCK LATTICE_ABC

%BLOCK POSITIONS_FRAC
  Li  -0.3754194   0.0000000   0.7508389 SPIN=   0.00000
  Li   0.3242583  -0.0000000  -0.6485165 SPIN=   0.00000
  Fe   0.3882904  -0.5000000  -0.7765809 SPIN=   1.30668
  Fe   0.0845510  -0.5000000  -0.1691020 SPIN=   6.69332
   O  -0.5679179   0.5386338   0.5222919 SPIN=   0.00000
   O  -0.2039421   0.2687450   0.2184816 SPIN=   0.00000
   O  -0.5624774   0.1579542   0.5407032 SPIN=   0.00000
   O  -0.1786478   0.2148459   0.5904490 SPIN=   0.00000
   O   0.0456260  -0.5386338   0.5222919 SPIN=   0.00000
   O  -0.0145395  -0.2687450   0.2184816 SPIN=   0.00000
   O   0.0217742  -0.1579542   0.5407032 SPIN=   0.00000
   O  -0.4118013  -0.2148459   0.5904490 SPIN=   0.00000
   S  -0.2700775  -0.5000000   0.5401550 SPIN=   0.00000
   S   0.0763135  -0.0000000  -0.1526270 SPIN=   0.00000
   F  -0.3681776  -0.3033583   0.0413793 SPIN=   0.00000
   F   0.3267983   0.3033583   0.0413793 SPIN=   0.00000
%ENDBLOCK POSITIONS_FRAC

# Note: total spin =   8.00

KPOINTS_MP_SPACING 0.07

%BLOCK SPECIES_POT
QC5
%ENDBLOCK SPECIES_POT

SNAP_TO_SYMMETRY
SYMMETRY_GENERATE

