#              Generated by Buildcell
#
# at 05:39:24 (GMT+1.0) 4th August 2020
# in /lustre/scratch/uccabz1/launch_tmp
# on node-c12l-023
# by uccabz1
#
# compiler GCC version 4.9.2
# options -cpp -iprefix /lustre/shared/ucl/apps/gcc/4.9.2/bin/../lib/gcc/x86_64-unknown-linux-gnu/4.9.2/ -mtune=corei7 -march=x86-64 -g -Og
#
# seed -2134055292  2049144608 -1614587811  1069775639  -604324830  1421922794   552311582 -2135011201  1474941894   743735857  -268760261   783040297
#
#      Author: C. J. Pickard (cjp20@cam.ac.uk)
#                Space group: P21
#

%BLOCK LATTICE_ABC
      4.46109      5.90375      7.59387
     90.17869     90.00000     90.00000
%ENDBLOCK LATTICE_ABC

%BLOCK POSITIONS_FRAC
  Li  -0.3337957   0.1938235   0.2368339 SPIN=   0.00000
  Li   0.1662043  -0.1938235  -0.2368339 SPIN=   0.00000
  Fe  -0.4980517  -0.2750109   0.0967081 SPIN=   4.00000
  Fe   0.0019483   0.2750109  -0.0967081 SPIN=   4.00000
   O  -0.1797637   0.2807568  -0.4682812 SPIN=   0.00000
   O  -0.6046026   0.4596844  -0.3110814 SPIN=   0.00000
   O  -0.5069476   0.0495574  -0.2765849 SPIN=   0.00000
   O  -0.7008934   0.1969072  -0.5592638 SPIN=   0.00000
   S  -0.4980518   0.2467264  -0.4038028 SPIN=   0.00000
   O   0.3202363  -0.2807568   0.4682812 SPIN=   0.00000
   O  -0.1046026  -0.4596844   0.3110814 SPIN=   0.00000
   O  -0.0069476  -0.0495574   0.2765849 SPIN=   0.00000
   O  -0.2008934  -0.1969072   0.5592638 SPIN=   0.00000
   S   0.0019482  -0.2467264   0.4038028 SPIN=   0.00000
   F  -0.1365033  -0.2529942  -0.0865044 SPIN=   0.00000
   F   0.3634967   0.2529942   0.0865044 SPIN=   0.00000
%ENDBLOCK POSITIONS_FRAC

# Note: total spin =   8.00

KPOINTS_MP_SPACING 0.07

%BLOCK SPECIES_POT
QC5
%ENDBLOCK SPECIES_POT

SNAP_TO_SYMMETRY
SYMMETRY_GENERATE

