#              Generated by Buildcell
#
# at 02:00:47 (GMT+1.0) 4th August 2020
# in /lustre/scratch/uccabz1/launch_tmp
# on node-c12j-016
# by uccabz1
#
# compiler GCC version 4.9.2
# options -cpp -iprefix /lustre/shared/ucl/apps/gcc/4.9.2/bin/../lib/gcc/x86_64-unknown-linux-gnu/4.9.2/ -mtune=corei7 -march=x86-64 -g -Og
#
# seed  -344394985  1689635068 -1817696569 -1535515940  1496986450   389132373  1363695945  1843346540 -1162264878   422997815 -1630793007  1509236476
#
#      Author: C. J. Pickard (cjp20@cam.ac.uk)
#                Space group: Pc
#

%BLOCK LATTICE_ABC
      5.77570      5.82329      6.02280
     90.00000     90.00000     99.13342
%ENDBLOCK LATTICE_ABC

%BLOCK POSITIONS_FRAC
  Li   0.4879541   0.4994271  -0.1914146 SPIN=   0.00000
  Li   0.4879541  -0.0005729   0.1914146 SPIN=   0.00000
  Fe   0.0088223  -0.3680383  -0.3121231 SPIN=   4.00000
  Fe   0.0088223   0.1319617   0.3121231 SPIN=   4.00000
   O  -0.6539721   0.3361192   0.2678142 SPIN=   0.00000
   O  -0.4055382   0.7031460   0.1537851 SPIN=   0.00000
   O  -0.2325709   0.3422603   0.1886118 SPIN=   0.00000
   O  -0.3537575   0.5363750   0.5250599 SPIN=   0.00000
   S  -0.4114597   0.4794751   0.2838178 SPIN=   0.00000
   O  -0.6539721  -0.1638808  -0.2678142 SPIN=   0.00000
   O  -0.4055382   0.2031460  -0.1537851 SPIN=   0.00000
   O  -0.2325709  -0.1577397  -0.1886118 SPIN=   0.00000
   O  -0.3537575   0.0363750  -0.5250599 SPIN=   0.00000
   S  -0.4114597  -0.0205249  -0.2838178 SPIN=   0.00000
   F   0.1476925  -0.1482826   0.2498317 SPIN=   0.00000
   F   0.1476925   0.3517174  -0.2498317 SPIN=   0.00000
%ENDBLOCK POSITIONS_FRAC

# Note: total spin =   8.00

KPOINTS_MP_SPACING 0.07

%BLOCK SPECIES_POT
QC5
%ENDBLOCK SPECIES_POT

SNAP_TO_SYMMETRY
SYMMETRY_GENERATE

