#              Generated by Buildcell
#
# at 03:29:24 (GMT+1.0) 4th August 2020
# in /lustre/scratch/uccabz1/launch_tmp
# on node-c12f-023
# by uccabz1
#
# compiler GCC version 4.9.2
# options -cpp -iprefix /lustre/shared/ucl/apps/gcc/4.9.2/bin/../lib/gcc/x86_64-unknown-linux-gnu/4.9.2/ -mtune=corei7 -march=x86-64 -g -Og
#
# seed  -944314194 -1561249414 -1037587015 -2143065765   539863413   785472311 -1344260030 -1842459784  2097024268   707795606   -78729229  1509484543
#
#      Author: C. J. Pickard (cjp20@cam.ac.uk)
#                Space group: P-1
#

%BLOCK LATTICE_ABC
      4.50133      5.91123      8.04703
     90.67721    102.11460    106.63171
%ENDBLOCK LATTICE_ABC

%BLOCK POSITIONS_FRAC
  Li   0.7513937   0.7054372   0.3529416 SPIN=   0.00000
  Li  -0.7513937  -0.7054372  -0.3529416 SPIN=   0.00000
  Fe   0.2063029   0.2961880   0.0870280 SPIN=   4.00000
  Fe  -0.2063029  -0.2961880  -0.0870280 SPIN=   4.00000
   O   0.7422338   0.0033417   0.4819471 SPIN=   0.00000
   O   1.0877470   0.3874896   0.4221612 SPIN=   0.00000
   O   0.5031461   0.3074798   0.3548870 SPIN=   0.00000
   O   0.7533047   0.0967671   0.1839125 SPIN=   0.00000
   S   0.7716079   0.1987696   0.3607269 SPIN=   0.00000
   O  -0.7422338  -0.0033417  -0.4819471 SPIN=   0.00000
   O  -1.0877470  -0.3874896  -0.4221612 SPIN=   0.00000
   O  -0.5031461  -0.3074798  -0.3548870 SPIN=   0.00000
   O  -0.7533047  -0.0967671  -0.1839125 SPIN=   0.00000
   S  -0.7716079  -0.1987696  -0.3607269 SPIN=   0.00000
   F  -0.0395907   0.2405324  -0.1861908 SPIN=   0.00000
   F   0.0395907  -0.2405324   0.1861908 SPIN=   0.00000
%ENDBLOCK POSITIONS_FRAC

# Note: total spin =   8.00

KPOINTS_MP_SPACING 0.07

%BLOCK SPECIES_POT
QC5
%ENDBLOCK SPECIES_POT

SNAP_TO_SYMMETRY
SYMMETRY_GENERATE

