#              Generated by Buildcell
#
# at 01:30:06 (GMT+1.0) 19th August 2020
# in /lustre/scratch/uccabz1/launch_tmp
# on node-c12n-011
# by uccabz1
#
# compiler GCC version 4.9.2
# options -cpp -iprefix /lustre/shared/ucl/apps/gcc/4.9.2/bin/../lib/gcc/x86_64-unknown-linux-gnu/4.9.2/ -mtune=corei7 -march=x86-64 -g -Og
#
# seed   313193062  -216013310  1778093439 -2048446216  1492961316  -934135440  1257584658 -2075614796  1638745130 -1538753499   712440480  1810002350
#
#      Author: C. J. Pickard (cjp20@cam.ac.uk)
#                Space group: C2
#

%BLOCK LATTICE_ABC
      5.27089      5.27089      7.56645
     77.37488     77.37488     85.00265
%ENDBLOCK LATTICE_ABC

%BLOCK POSITIONS_FRAC
  Li   0.4832054  -0.4832054   0.0000000 SPIN=   0.00000
  Li  -0.0157965   0.0157965   0.0000000 SPIN=   0.00000
  Fe   0.1414969   0.3550025  -0.4247850 SPIN=   4.00000
  Fe  -0.3550025  -0.1414969   0.4247850 SPIN=   4.00000
   O   0.1351077   0.6700664   0.1789855 SPIN=   0.00000
   O  -0.3185519   0.5669976   0.1917124 SPIN=   0.00000
   O   0.0218963   0.2137149   0.2122570 SPIN=   0.00000
   O   0.0231837   0.5267565  -0.0839699 SPIN=   0.00000
   S  -0.0345910   0.4943839   0.1247462 SPIN=   0.00000
   O  -0.6700664  -0.1351077  -0.1789855 SPIN=   0.00000
   O  -0.5669976   0.3185519  -0.1917124 SPIN=   0.00000
   O  -0.2137149  -0.0218963  -0.2122570 SPIN=   0.00000
   O  -0.5267565  -0.0231837   0.0839699 SPIN=   0.00000
   S  -0.4943839   0.0345910  -0.1247462 SPIN=   0.00000
   F  -0.1703489  -0.4162947  -0.3712657 SPIN=   0.00000
   F   0.4162947   0.1703489   0.3712657 SPIN=   0.00000
%ENDBLOCK POSITIONS_FRAC

# Note: total spin =   8.00

KPOINTS_MP_SPACING 0.07

%BLOCK SPECIES_POT
QC5
%ENDBLOCK SPECIES_POT

SNAP_TO_SYMMETRY
SYMMETRY_GENERATE

