#              Generated by Buildcell
#
# at 04:03:22 (GMT+1.0) 4th August 2020
# in /lustre/scratch/uccabz1/launch_tmp
# on node-c12k-001
# by uccabz1
#
# compiler GCC version 4.9.2
# options -cpp -iprefix /lustre/shared/ucl/apps/gcc/4.9.2/bin/../lib/gcc/x86_64-unknown-linux-gnu/4.9.2/ -mtune=corei7 -march=x86-64 -g -Og
#
# seed -1837587708  1290298309  -785715219 -1838887143 -1502768493    79514222 -1029659980  -436099092   509919019  -234648066 -1126960472  -754718382
#
#      Author: C. J. Pickard (cjp20@cam.ac.uk)
#                Space group: F222
#

%BLOCK LATTICE_ABC
      5.32366      5.32366      7.98492
    109.15425    109.15425     90.90144
%ENDBLOCK LATTICE_ABC

%BLOCK POSITIONS_FRAC
  Li   0.5000000   0.5000000  -0.0000000 SPIN=   0.00000
  Li  -0.0000000  -0.0000000  -0.0000000 SPIN=   0.00000
  Fe   0.2107586   0.2107586   0.4215171 SPIN=   4.00000
  Fe  -0.2107586  -0.2107586  -0.4215171 SPIN=   4.00000
   O  -0.3845584  -0.1906302  -0.1935075 SPIN=   0.00000
   O  -0.1905383   0.2762901  -0.1167074 SPIN=   0.00000
   O   0.1910508  -0.0028774  -0.1935075 SPIN=   0.00000
   O   0.0738309  -0.3929975  -0.1167074 SPIN=   0.00000
   O   0.1906302   0.3845584   0.1935075 SPIN=   0.00000
   O  -0.2762901   0.1905383   0.1167074 SPIN=   0.00000
   O   0.0028774  -0.1910508   0.1935075 SPIN=   0.00000
   O   0.3929975  -0.0738309   0.1167074 SPIN=   0.00000
   S  -0.9602391  -0.4602391   0.0795219 SPIN=   0.00000
   S  -0.5397609  -0.0397609  -0.0795219 SPIN=   0.00000
   F  -0.5001195  -0.0001195   0.5000000 SPIN=   0.00000
   F   0.0001195  -0.4998805  -0.5000000 SPIN=   0.00000
%ENDBLOCK POSITIONS_FRAC

# Note: total spin =   8.00

KPOINTS_MP_SPACING 0.07

%BLOCK SPECIES_POT
QC5
%ENDBLOCK SPECIES_POT

SNAP_TO_SYMMETRY
SYMMETRY_GENERATE

