#              Generated by Buildcell
#
# at 04:22:26 (GMT+1.0) 4th August 2020
# in /lustre/scratch/uccabz1/launch_tmp
# on node-c12c-030
# by uccabz1
#
# compiler GCC version 4.9.2
# options -cpp -iprefix /lustre/shared/ucl/apps/gcc/4.9.2/bin/../lib/gcc/x86_64-unknown-linux-gnu/4.9.2/ -mtune=corei7 -march=x86-64 -g -Og
#
# seed  -231528906   747732602   149385055   697674651  -259123143  2072812352  2087295453   725443963  1809205282 -1665700622 -1946021751  2110871819
#
#      Author: C. J. Pickard (cjp20@cam.ac.uk)
#                Space group: Cc
#

%BLOCK LATTICE_ABC
      4.45483      4.45483     10.24656
     97.33638     97.33638     90.08518
%ENDBLOCK LATTICE_ABC

%BLOCK POSITIONS_FRAC
  Li   0.3456527  -0.2537642   0.2004151 SPIN=   0.00000
  Li  -0.2537642   0.3456527  -0.2995849 SPIN=   0.00000
  Fe  -0.2041283  -0.1077924   0.0208089 SPIN=   4.00000
  Fe  -0.1077924  -0.2041283  -0.4791911 SPIN=   4.00000
   O   0.2997072   0.3254432   0.2672676 SPIN=   0.00000
   O   0.2376733  -0.1012870   0.3948629 SPIN=   0.00000
   O   0.2158760   0.4264199   0.5029070 SPIN=   0.00000
   O   0.7029593   0.2188366   0.4440479 SPIN=   0.00000
   S   0.3640540   0.2173532   0.4022714 SPIN=   0.00000
   O   0.3254432   0.2997072  -0.2327324 SPIN=   0.00000
   O  -0.1012870   0.2376733  -0.1051371 SPIN=   0.00000
   O   0.4264199   0.2158760   0.0029070 SPIN=   0.00000
   O   0.2188366   0.7029593  -0.0559521 SPIN=   0.00000
   S   0.2173532   0.3640540  -0.0977286 SPIN=   0.00000
   F  -0.1973679  -0.3440091   0.1927090 SPIN=   0.00000
   F  -0.3440091  -0.1973679  -0.3072910 SPIN=   0.00000
%ENDBLOCK POSITIONS_FRAC

# Note: total spin =   8.00

KPOINTS_MP_SPACING 0.07

%BLOCK SPECIES_POT
QC5
%ENDBLOCK SPECIES_POT

SNAP_TO_SYMMETRY
SYMMETRY_GENERATE

