#              Generated by Buildcell
#
# at 01:54:20 (GMT+1.0) 19th August 2020
# in /lustre/scratch/uccabz1/launch_tmp
# on node-c12i-024
# by uccabz1
#
# compiler GCC version 4.9.2
# options -cpp -iprefix /lustre/shared/ucl/apps/gcc/4.9.2/bin/../lib/gcc/x86_64-unknown-linux-gnu/4.9.2/ -mtune=corei7 -march=x86-64 -g -Og
#
# seed  1135266131 -1696746366  -543195003  1398427282  1077805083  -603234931 -2109919803  1520676269  -434650341 -1925970117   440080501   711609893
#
#      Author: C. J. Pickard (cjp20@cam.ac.uk)
#                Space group: Pm
#

%BLOCK LATTICE_ABC
      3.88117      5.93273      8.68597
     90.00000     90.00000     90.30179
%ENDBLOCK LATTICE_ABC

%BLOCK POSITIONS_FRAC
  Li   0.0427934  -0.3503361   0.0000000 SPIN=   0.00000
  Li  -0.0987757   0.0282786   0.5000000 SPIN=   0.00000
  Fe   0.3131201   0.0917505  -0.2102472 SPIN=   4.00000
  Fe   0.3131201   0.0917505   0.2102472 SPIN=   4.00000
   O  -0.1467465  -0.5643213   0.3628103 SPIN=   0.00000
   O  -0.1257160  -0.2292603   0.1932708 SPIN=   0.00000
   O  -0.6292790  -0.2932690   0.3628210 SPIN=   0.00000
   O  -0.5344643  -0.5401769   0.1372710 SPIN=   0.00000
   S  -0.3590514  -0.4067569   0.2640433 SPIN=   0.00000
   O  -0.1467465  -0.5643213  -0.3628103 SPIN=   0.00000
   O  -0.1257160  -0.2292603  -0.1932708 SPIN=   0.00000
   O  -0.6292790  -0.2932690  -0.3628210 SPIN=   0.00000
   O  -0.5344643  -0.5401769  -0.1372710 SPIN=   0.00000
   S  -0.3590514  -0.4067569  -0.2640433 SPIN=   0.00000
   F   0.3985445   0.1219548   0.5000000 SPIN=   0.00000
   F   0.4915588   0.0474415   0.0000000 SPIN=   0.00000
%ENDBLOCK POSITIONS_FRAC

# Note: total spin =   8.00

KPOINTS_MP_SPACING 0.07

%BLOCK SPECIES_POT
QC5
%ENDBLOCK SPECIES_POT

SNAP_TO_SYMMETRY
SYMMETRY_GENERATE

