#              Generated by Buildcell
#
# at 18:49:31 (GMT+1.0) 18th August 2020
# in /lustre/scratch/uccabz1/launch_tmp
# on node-c12g-036
# by uccabz1
#
# compiler GCC version 4.9.2
# options -cpp -iprefix /lustre/shared/ucl/apps/gcc/4.9.2/bin/../lib/gcc/x86_64-unknown-linux-gnu/4.9.2/ -mtune=corei7 -march=x86-64 -g -Og
#
# seed -1893984315  1725234541 -1848855863   282197713 -1514508504 -1060599056  2061156246  -981400482   312259454 -1255769447 -1747193365   387495831
#
#      Author: C. J. Pickard (cjp20@cam.ac.uk)
#                Space group: Pma2
#

%BLOCK LATTICE_ABC
      4.21494      6.32700      7.49965
     90.00000     90.00000     90.00000
%ENDBLOCK LATTICE_ABC

%BLOCK POSITIONS_FRAC
  Li  -0.4260399   0.1158056  -0.2500000 SPIN=   0.00000
  Li  -0.4260399  -0.1158056   0.2500000 SPIN=   0.00000
  Fe   0.0709618   0.0000000   0.0000000 SPIN=   4.00000
  Fe   0.0709618   0.0000000  -0.5000000 SPIN=   4.00000
   O   0.0169682   0.3479210   0.0920775 SPIN=   0.00000
   O   0.5324347   0.3295244  -0.0651845 SPIN=   0.00000
   O   0.0169682  -0.3479210  -0.0920775 SPIN=   0.00000
   O   0.5324347  -0.3295244   0.0651845 SPIN=   0.00000
   O   0.0169682  -0.3479210  -0.4079225 SPIN=   0.00000
   O   0.5324347  -0.3295244  -0.5651845 SPIN=   0.00000
   O   0.0169682   0.3479210   0.4079225 SPIN=   0.00000
   O   0.5324347   0.3295244   0.5651845 SPIN=   0.00000
   S  -0.4043321  -0.4087954  -0.2500000 SPIN=   0.00000
   S  -0.4043321   0.4087954   0.2500000 SPIN=   0.00000
   F   0.0967290  -0.0912418   0.2500000 SPIN=   0.00000
   F   0.0967290   0.0912418  -0.2500000 SPIN=   0.00000
%ENDBLOCK POSITIONS_FRAC

# Note: total spin =   8.00

KPOINTS_MP_SPACING 0.07

%BLOCK SPECIES_POT
QC5
%ENDBLOCK SPECIES_POT

SNAP_TO_SYMMETRY
SYMMETRY_GENERATE

