#              Generated by Buildcell
#
# at 23:36:09 (GMT+1.0) 18th August 2020
# in /lustre/scratch/uccabz1/launch_tmp
# on node-c12n-011
# by uccabz1
#
# compiler GCC version 4.9.2
# options -cpp -iprefix /lustre/shared/ucl/apps/gcc/4.9.2/bin/../lib/gcc/x86_64-unknown-linux-gnu/4.9.2/ -mtune=corei7 -march=x86-64 -g -Og
#
# seed   985306079 -1552170016   616972478   991716504  -149717506 -1420066631  1751456716  2076208009  1090997338  -833946693  -210628063 -1454669011
#
#      Author: C. J. Pickard (cjp20@cam.ac.uk)
#                Space group: Cc
#

%BLOCK LATTICE_ABC
      4.41519      4.41519     10.76393
     79.48127     79.48127     78.78652
%ENDBLOCK LATTICE_ABC

%BLOCK POSITIONS_FRAC
  Li  -0.3177722   0.4026429   0.2179667 SPIN=   0.00000
  Li  -0.0973571   0.1822278  -0.2820333 SPIN=   0.00000
  Fe   0.3641692   0.1858401   0.0425095 SPIN=   4.00000
  Fe  -0.3141599  -0.1358308  -0.4574905 SPIN=   4.00000
   O   0.2782574   0.0841703   0.4533288 SPIN=   0.00000
   O   0.1584154   0.2789940   0.2341226 SPIN=   0.00000
   O   0.2667474   0.6432343   0.3637752 SPIN=   0.00000
   O  -0.2251177   0.4256625   0.4206537 SPIN=   0.00000
   S   0.1195756   0.3580153   0.3679701 SPIN=   0.00000
   O  -0.4158297  -0.2217426  -0.0466712 SPIN=   0.00000
   O  -0.2210060  -0.3415846  -0.2658774 SPIN=   0.00000
   O   0.1432343  -0.2332526  -0.1362248 SPIN=   0.00000
   O  -0.0743375  -0.7251177  -0.0793463 SPIN=   0.00000
   S  -0.1419847  -0.3804244  -0.1320299 SPIN=   0.00000
   F  -0.2575671  -0.0191226   0.1519305 SPIN=   0.00000
   F   0.4808774   0.2424329  -0.3480695 SPIN=   0.00000
%ENDBLOCK POSITIONS_FRAC

# Note: total spin =   8.00

KPOINTS_MP_SPACING 0.07

%BLOCK SPECIES_POT
QC5
%ENDBLOCK SPECIES_POT

SNAP_TO_SYMMETRY
SYMMETRY_GENERATE

