#              Generated by Buildcell
#
# at 21:24:03 (GMT+1.0) 18th August 2020
# in /lustre/scratch/uccabz1/launch_tmp
# on node-c12a-003
# by uccabz1
#
# compiler GCC version 4.9.2
# options -cpp -iprefix /lustre/shared/ucl/apps/gcc/4.9.2/bin/../lib/gcc/x86_64-unknown-linux-gnu/4.9.2/ -mtune=corei7 -march=x86-64 -g -Og
#
# seed  -615888965  1742124065 -1327439642 -1170783400  1291691466   689403452  -914324906   583599966   636960544  -250939685  -793222761  -597958792
#
#      Author: C. J. Pickard (cjp20@cam.ac.uk)
#                Space group: P42
#

%BLOCK LATTICE_ABC
      4.02974      4.02974     12.31620
     90.00000     90.00000     90.00000
%ENDBLOCK LATTICE_ABC

%BLOCK POSITIONS_FRAC
  Li  -0.0000000   0.5000000  -0.1340472 SPIN=   0.00000
  Li  -0.5000000   0.0000000   0.3659528 SPIN=   0.00000
  Fe   0.0000000   0.5000000   0.3014766 SPIN=   4.00000
  Fe   0.5000000  -0.0000000  -0.1985234 SPIN=   4.00000
   O  -0.2185395  -0.2200805  -0.4448805 SPIN=   0.00000
   O   0.2671436  -0.3241600  -0.3267006 SPIN=   0.00000
   O   0.2185395   0.2200805  -0.4448805 SPIN=   0.00000
   O  -0.2671436   0.3241600  -0.3267006 SPIN=   0.00000
   O   0.2200805  -0.2185395   0.0551195 SPIN=   0.00000
   O   0.3241600   0.2671436   0.1732994 SPIN=   0.00000
   O  -0.2200805   0.2185395   0.0551195 SPIN=   0.00000
   O  -0.3241600  -0.2671436   0.1732994 SPIN=   0.00000
   S   0.5000000  -0.5000000   0.0270761 SPIN=   0.00000
   S   0.5000000   0.5000000  -0.4729239 SPIN=   0.00000
   F   0.0000000   0.0000000  -0.1470422 SPIN=   0.00000
   F  -0.0000000  -0.0000000   0.3529578 SPIN=   0.00000
%ENDBLOCK POSITIONS_FRAC

# Note: total spin =   8.00

KPOINTS_MP_SPACING 0.07

%BLOCK SPECIES_POT
QC5
%ENDBLOCK SPECIES_POT

SNAP_TO_SYMMETRY
SYMMETRY_GENERATE

