#              Generated by Buildcell
#
# at 05:06:10 (GMT+1.0) 4th August 2020
# in /lustre/scratch/uccabz1/launch_tmp
# on node-c12k-005
# by uccabz1
#
# compiler GCC version 4.9.2
# options -cpp -iprefix /lustre/shared/ucl/apps/gcc/4.9.2/bin/../lib/gcc/x86_64-unknown-linux-gnu/4.9.2/ -mtune=corei7 -march=x86-64 -g -Og
#
# seed  -139239027 -1103844460  1158767800  1998422878   -90886346   306605367 -1242184251  1999614534 -1876020908   593107732  -899383105 -2104454725
#
#      Author: C. J. Pickard (cjp20@cam.ac.uk)
#                Space group: C2
#

%BLOCK LATTICE_ABC
      5.37811      6.25841      6.54700
     87.75471     65.74925     84.52650
%ENDBLOCK LATTICE_ABC

%BLOCK POSITIONS_FRAC
  Li  -0.3305912  -0.2735080   0.1107974 SPIN=   0.00000
  Li   0.2197938   0.2735080   0.1107974 SPIN=   0.00000
  Fe   0.4467424   0.1953411  -0.4357152 SPIN=   4.00000
  Fe  -0.0110272  -0.1953411  -0.4357152 SPIN=   4.00000
   O  -0.3593132   0.4114425   0.2206747 SPIN=   0.00000
   O   0.0583497   0.3224840  -0.1229416 SPIN=   0.00000
   O  -0.3985669   0.3229708  -0.1294531 SPIN=   0.00000
   O  -0.2439954   0.0389081   0.0767026 SPIN=   0.00000
   S  -0.2358814   0.2739514   0.0112456 SPIN=   0.00000
   O   0.1386385  -0.4114425   0.2206747 SPIN=   0.00000
   O   0.0645919  -0.3224840  -0.1229416 SPIN=   0.00000
   O   0.5280200  -0.3229708  -0.1294531 SPIN=   0.00000
   O   0.1672928  -0.0389081   0.0767026 SPIN=   0.00000
   S   0.2246358  -0.2739514   0.0112456 SPIN=   0.00000
   F   0.0292784   0.2085592   0.4357804 SPIN=   0.00000
   F  -0.4650588  -0.2085592   0.4357804 SPIN=   0.00000
%ENDBLOCK POSITIONS_FRAC

# Note: total spin =   8.00

KPOINTS_MP_SPACING 0.07

%BLOCK SPECIES_POT
QC5
%ENDBLOCK SPECIES_POT

SNAP_TO_SYMMETRY
SYMMETRY_GENERATE

