#              Generated by Buildcell
#
# at 04:54:22 (GMT+1.0) 4th August 2020
# in /lustre/scratch/uccabz1/launch_tmp
# on node-c12h-010
# by uccabz1
#
# compiler GCC version 4.9.2
# options -cpp -iprefix /lustre/shared/ucl/apps/gcc/4.9.2/bin/../lib/gcc/x86_64-unknown-linux-gnu/4.9.2/ -mtune=corei7 -march=x86-64 -g -Og
#
# seed  -115232499 -1496441345   -96429085   718212989 -1324671064   214418539  -498903808 -2006691886   358834640  -708277784  -275687648 -1420346083
#
#      Author: C. J. Pickard (cjp20@cam.ac.uk)
#                Space group: I212121
#

%BLOCK LATTICE_ABC
      6.41438      6.41438      6.41438
    102.00567    110.39258    116.33003
%ENDBLOCK LATTICE_ABC

%BLOCK POSITIONS_FRAC
  Li  -0.1418956  -0.2500000   0.1081044 SPIN=   0.00000
  Li  -0.3581044   0.2500000   0.3918956 SPIN=   0.00000
  Fe  -0.2500000   0.0927709  -0.1572291 SPIN=   4.00000
  Fe   0.2500000  -0.5927709  -0.3427709 SPIN=   4.00000
   O   0.1102194  -0.3701496  -0.4303133 SPIN=   0.00000
   O   0.4605946  -0.1162971   0.0113180 SPIN=   0.00000
   O   0.3897806  -0.5405327   0.0196310 SPIN=   0.00000
   O   0.0394054  -0.4492766  -0.0768917 SPIN=   0.00000
   O  -0.5601637  -0.1298504  -0.5196310 SPIN=   0.00000
   O  -0.3723849  -0.3837029  -0.4231083 SPIN=   0.00000
   O   0.0601637   0.0405327  -0.0696867 SPIN=   0.00000
   O  -0.1276151  -0.0507234  -0.5113180 SPIN=   0.00000
   S   0.0507538  -0.1992462  -0.2500000 SPIN=   0.00000
   S   0.4492462   0.6992462   0.2500000 SPIN=   0.00000
   F  -0.2500000   0.3611389   0.1111389 SPIN=   0.00000
   F   0.2500000   0.1388611   0.3888611 SPIN=   0.00000
%ENDBLOCK POSITIONS_FRAC

# Note: total spin =   8.00

KPOINTS_MP_SPACING 0.07

%BLOCK SPECIES_POT
QC5
%ENDBLOCK SPECIES_POT

SNAP_TO_SYMMETRY
SYMMETRY_GENERATE

