#              Generated by Buildcell
#
# at 02:36:03 (GMT+1.0) 19th August 2020
# in /lustre/scratch/uccabz1/launch_tmp
# on node-c12g-036
# by uccabz1
#
# compiler GCC version 4.9.2
# options -cpp -iprefix /lustre/shared/ucl/apps/gcc/4.9.2/bin/../lib/gcc/x86_64-unknown-linux-gnu/4.9.2/ -mtune=corei7 -march=x86-64 -g -Og
#
# seed -1163555398   432159996  1252971587  -317819142   557674709 -1264222299  -141253731    31429635   333961054   -54938262  -419710030  -511087205
#
#      Author: C. J. Pickard (cjp20@cam.ac.uk)
#                Space group: Cm
#

%BLOCK LATTICE_ABC
      5.36865      6.52225      6.52225
    116.30530     96.47546     96.47546
%ENDBLOCK LATTICE_ABC

%BLOCK POSITIONS_FRAC
  Li  -0.1001076  -0.1465258  -0.1465258 SPIN=   0.00000
  Li   0.2830515   0.4154352   0.4154352 SPIN=   0.00000
  Fe  -0.1110243   0.6743770   0.3422811 SPIN=   4.00000
  Fe  -0.1110243  -0.6577189  -0.3256230 SPIN=   4.00000
   O   0.6083141   0.1338333  -0.2805944 SPIN=   0.00000
   O   0.1713201   0.0004490  -0.2477439 SPIN=   0.00000
   O   0.3104364   0.4109694  -0.1573491 SPIN=   0.00000
   S   0.3945254   0.2021045  -0.1446317 SPIN=   0.00000
   O   0.6083141  -0.2805944   0.1338333 SPIN=   0.00000
   O   0.1713201  -0.2477439   0.0004490 SPIN=   0.00000
   O   0.3104364  -0.1573491   0.4109694 SPIN=   0.00000
   S   0.3945254  -0.1446317   0.2021045 SPIN=   0.00000
   O   0.0518397  -0.3867003  -0.3867003 SPIN=   0.00000
   O   0.4218276   0.1279598   0.1279598 SPIN=   0.00000
   F  -0.0562284   0.2081633   0.2081633 SPIN=   0.00000
   F  -0.4387317  -0.3525217  -0.3525217 SPIN=   0.00000
%ENDBLOCK POSITIONS_FRAC

# Note: total spin =   8.00

KPOINTS_MP_SPACING 0.07

%BLOCK SPECIES_POT
QC5
%ENDBLOCK SPECIES_POT

SNAP_TO_SYMMETRY
SYMMETRY_GENERATE

