#              Generated by Buildcell
#
# at 03:02:55 (GMT+1.0) 19th August 2020
# in /lustre/scratch/uccabz1/launch_tmp
# on node-c12f-023
# by uccabz1
#
# compiler GCC version 4.9.2
# options -cpp -iprefix /lustre/shared/ucl/apps/gcc/4.9.2/bin/../lib/gcc/x86_64-unknown-linux-gnu/4.9.2/ -mtune=corei7 -march=x86-64 -g -Og
#
# seed  -375317874 -1104579081  1443259643 -1886073642   633150718  -352551205   306260068   365982231   671033794   224690142   804480576  -669073226
#
#      Author: C. J. Pickard (cjp20@cam.ac.uk)
#                Space group: P21
#

%BLOCK LATTICE_ABC
      4.72664      5.30676      8.11543
     90.00000     90.00000    100.73223
%ENDBLOCK LATTICE_ABC

%BLOCK POSITIONS_FRAC
  Li   0.1516667   0.0949918  -0.3940137 SPIN=   0.00000
  Li  -0.1516667  -0.0949918   0.1059863 SPIN=   0.00000
  Fe  -0.3750412  -0.2528052  -0.2391911 SPIN=   4.00000
  Fe   0.3750412   0.2528052   0.2608089 SPIN=   4.00000
   O  -0.0444366   0.4387005  -0.2586175 SPIN=   0.00000
   O   0.3281614   0.4938550  -0.0406256 SPIN=   0.00000
   O   0.0757753   0.0585693  -0.1178044 SPIN=   0.00000
   O  -0.1849661   0.3508696   0.0325062 SPIN=   0.00000
   S   0.0436335   0.3354986  -0.0961353 SPIN=   0.00000
   O   0.0444366  -0.4387005   0.2413825 SPIN=   0.00000
   O  -0.3281614  -0.4938550   0.4593744 SPIN=   0.00000
   O  -0.0757753  -0.0585693   0.3821956 SPIN=   0.00000
   O   0.1849661  -0.3508696   0.5325062 SPIN=   0.00000
   S  -0.0436335  -0.3354986   0.4038647 SPIN=   0.00000
   F   0.4306110  -0.0576974   0.1067031 SPIN=   0.00000
   F  -0.4306110   0.0576974  -0.3932969 SPIN=   0.00000
%ENDBLOCK POSITIONS_FRAC

# Note: total spin =   8.00

KPOINTS_MP_SPACING 0.07

%BLOCK SPECIES_POT
QC5
%ENDBLOCK SPECIES_POT

SNAP_TO_SYMMETRY
SYMMETRY_GENERATE

