#              Generated by Buildcell
#
# at 21:26:00 (GMT+1.0) 18th August 2020
# in /lustre/scratch/uccabz1/launch_tmp
# on node-c12a-003
# by uccabz1
#
# compiler GCC version 4.9.2
# options -cpp -iprefix /lustre/shared/ucl/apps/gcc/4.9.2/bin/../lib/gcc/x86_64-unknown-linux-gnu/4.9.2/ -mtune=corei7 -march=x86-64 -g -Og
#
# seed   730713664  -879001466   305553618  1378305198   942883901   492447179   307902489  -903505150  1752241225  -585959354 -1757240828    68794229
#
#      Author: C. J. Pickard (cjp20@cam.ac.uk)
#                Space group: P-1
#

%BLOCK LATTICE_ABC
      3.81012      4.21410     12.98513
     93.37881     94.84538    104.95873
%ENDBLOCK LATTICE_ABC

%BLOCK POSITIONS_FRAC
  Li   0.2656128  -0.3425950  -0.2375460 SPIN=   0.00000
  Li  -0.2656128   0.3425950   0.2375460 SPIN=   0.00000
  Fe  -0.3928917   0.2389099  -0.3731113 SPIN=   4.00000
  Fe   0.3928917  -0.2389099   0.3731113 SPIN=   4.00000
   O   0.4091798  -0.6316527   0.0982107 SPIN=   0.00000
   O   0.1268531  -0.2158321   0.0251267 SPIN=   0.00000
   O   0.7258145  -0.0379903   0.1309888 SPIN=   0.00000
   O   0.1653120  -0.2716709   0.2141265 SPIN=   0.00000
   S   0.3567898  -0.2892865   0.1171132 SPIN=   0.00000
   O  -0.4091798   0.6316527  -0.0982107 SPIN=   0.00000
   O  -0.1268531   0.2158321  -0.0251267 SPIN=   0.00000
   O  -0.7258145   0.0379903  -0.1309888 SPIN=   0.00000
   O  -0.1653120   0.2716709  -0.2141265 SPIN=   0.00000
   S  -0.3567898   0.2892865  -0.1171132 SPIN=   0.00000
   F   0.3486104  -0.2650763  -0.3897265 SPIN=   0.00000
   F  -0.3486104   0.2650763   0.3897265 SPIN=   0.00000
%ENDBLOCK POSITIONS_FRAC

# Note: total spin =   8.00

KPOINTS_MP_SPACING 0.07

%BLOCK SPECIES_POT
QC5
%ENDBLOCK SPECIES_POT

SNAP_TO_SYMMETRY
SYMMETRY_GENERATE

