#              Generated by Buildcell
#
# at 05:40:38 (GMT+1.0) 4th August 2020
# in /lustre/scratch/uccabz1/launch_tmp
# on node-c12m-013
# by uccabz1
#
# compiler GCC version 4.9.2
# options -cpp -iprefix /lustre/shared/ucl/apps/gcc/4.9.2/bin/../lib/gcc/x86_64-unknown-linux-gnu/4.9.2/ -mtune=corei7 -march=x86-64 -g -Og
#
# seed   301240446   152110351  -960571984   132818652   866242747  1024527412   388143088  1249447982  1282652005   746072348  -660326847   342888875
#
#      Author: C. J. Pickard (cjp20@cam.ac.uk)
#                Space group: P21212
#

%BLOCK LATTICE_ABC
      3.85780      6.49037      7.98769
     90.00000     90.00000     90.00000
%ENDBLOCK LATTICE_ABC

%BLOCK POSITIONS_FRAC
  Li  -0.0000000   0.0000000  -0.4301402 SPIN=   0.00000
  Li   0.5000000  -0.5000000   0.4301402 SPIN=   0.00000
  Fe  -0.0000000  -0.5000000   0.1480495 SPIN=   4.00000
  Fe   0.5000000   0.0000000  -0.1480495 SPIN=   4.00000
   O  -0.2871385   0.3261101  -0.2599657 SPIN=   0.00000
   O  -0.2118358   0.6385375  -0.0860984 SPIN=   0.00000
   O   0.2871385  -0.3261101  -0.2599657 SPIN=   0.00000
   O   0.2118358  -0.6385375  -0.0860984 SPIN=   0.00000
   O   0.2128615   0.1738899   0.2599657 SPIN=   0.00000
   O   0.2881642  -0.1385375   0.0860984 SPIN=   0.00000
   O  -0.2128615  -0.1738899   0.2599657 SPIN=   0.00000
   O  -0.2881642   0.1385375   0.0860984 SPIN=   0.00000
   S  -0.0000000   0.0000000   0.1854045 SPIN=   0.00000
   S   0.5000000  -0.5000000  -0.1854045 SPIN=   0.00000
   F  -0.0000000  -0.5000000   0.4171555 SPIN=   0.00000
   F  -0.5000000   0.0000000  -0.4171555 SPIN=   0.00000
%ENDBLOCK POSITIONS_FRAC

# Note: total spin =   8.00

KPOINTS_MP_SPACING 0.07

%BLOCK SPECIES_POT
QC5
%ENDBLOCK SPECIES_POT

SNAP_TO_SYMMETRY
SYMMETRY_GENERATE

