#              Generated by Buildcell
#
# at 04:32:07 (GMT+1.0) 4th August 2020
# in /lustre/scratch/uccabz1/launch_tmp
# on node-c12k-004
# by uccabz1
#
# compiler GCC version 4.9.2
# options -cpp -iprefix /lustre/shared/ucl/apps/gcc/4.9.2/bin/../lib/gcc/x86_64-unknown-linux-gnu/4.9.2/ -mtune=corei7 -march=x86-64 -g -Og
#
# seed  -619671025 -1233868342   379456374  2018443930 -1658814858  -798838498   523378509  1393265376  2017179244 -1046863837  -319251881  2134583269
#
#      Author: C. J. Pickard (cjp20@cam.ac.uk)
#                Space group: Cc
#

%BLOCK LATTICE_ABC
      4.89721      4.89721      8.42391
     94.53659     94.53659     94.60814
%ENDBLOCK LATTICE_ABC

%BLOCK POSITIONS_FRAC
  Li   0.2159880   0.0129769  -0.3453401 SPIN=   0.00000
  Li   0.0129769   0.2159880   0.1546599 SPIN=   0.00000
  Fe  -0.0814615  -0.2940395  -0.0906716 SPIN=   4.00000
  Fe  -0.2940395  -0.0814615   0.4093284 SPIN=   4.00000
   O   0.5215591   0.2484770   0.1043943 SPIN=   0.00000
   O   0.1145722   0.1128016  -0.0870932 SPIN=   0.00000
   O   0.5749250   0.1901227  -0.1857164 SPIN=   0.00000
   O   0.3439083   0.5841666  -0.0737505 SPIN=   0.00000
   S   0.3887411   0.2838920  -0.0605415 SPIN=   0.00000
   O   0.2484770   0.5215591   0.6043943 SPIN=   0.00000
   O   0.1128016   0.1145722   0.4129068 SPIN=   0.00000
   O   0.1901227   0.5749250   0.3142836 SPIN=   0.00000
   O   0.5841666   0.3439083   0.4262495 SPIN=   0.00000
   S   0.2838920   0.3887411   0.4394585 SPIN=   0.00000
   F  -0.1329701  -0.1517081   0.1303519 SPIN=   0.00000
   F  -0.1517081  -0.1329701  -0.3696481 SPIN=   0.00000
%ENDBLOCK POSITIONS_FRAC

# Note: total spin =   8.00

KPOINTS_MP_SPACING 0.07

%BLOCK SPECIES_POT
QC5
%ENDBLOCK SPECIES_POT

SNAP_TO_SYMMETRY
SYMMETRY_GENERATE

