#              Generated by Buildcell
#
# at 00:19:44 (GMT+1.0) 19th August 2020
# in /lustre/scratch/uccabz1/launch_tmp
# on node-c12p-014
# by uccabz1
#
# compiler GCC version 4.9.2
# options -cpp -iprefix /lustre/shared/ucl/apps/gcc/4.9.2/bin/../lib/gcc/x86_64-unknown-linux-gnu/4.9.2/ -mtune=corei7 -march=x86-64 -g -Og
#
# seed   244837368  -354462623 -1460177200   375796644  1771873083 -1903094003 -1509133424  1186328598 -1945371841  2129519700  1340547211   -87054389
#
#      Author: C. J. Pickard (cjp20@cam.ac.uk)
#                Space group: Pcc2
#

%BLOCK LATTICE_ABC
      4.69471      4.96855      8.57416
     90.00000     90.00000     90.00000
%ENDBLOCK LATTICE_ABC

%BLOCK POSITIONS_FRAC
  Li  -0.5000000   0.5000000   0.2429101 SPIN=   0.00000
  Li  -0.5000000   0.5000000  -0.2570899 SPIN=   0.00000
  Fe   0.0000000  -0.5000000   0.0341098 SPIN=   4.00000
  Fe   0.0000000  -0.5000000  -0.4658902 SPIN=   4.00000
   O  -0.2596892   0.0021938  -0.3125531 SPIN=   0.00000
   O  -0.4944604   0.2278324  -0.0896310 SPIN=   0.00000
   O   0.2596892  -0.0021938  -0.3125531 SPIN=   0.00000
   O   0.4944604  -0.2278324  -0.0896310 SPIN=   0.00000
   O  -0.2596892  -0.0021938   0.1874469 SPIN=   0.00000
   O  -0.4944604  -0.2278324   0.4103690 SPIN=   0.00000
   O   0.2596892   0.0021938   0.1874469 SPIN=   0.00000
   O   0.4944604   0.2278324   0.4103690 SPIN=   0.00000
   S   0.5000000   0.0000000   0.0334524 SPIN=   0.00000
   S   0.5000000   0.0000000  -0.4665476 SPIN=   0.00000
   F   0.0000000   0.5000000  -0.2158847 SPIN=   0.00000
   F   0.0000000   0.5000000   0.2841153 SPIN=   0.00000
%ENDBLOCK POSITIONS_FRAC

# Note: total spin =   8.00

KPOINTS_MP_SPACING 0.07

%BLOCK SPECIES_POT
QC5
%ENDBLOCK SPECIES_POT

SNAP_TO_SYMMETRY
SYMMETRY_GENERATE

