#              Generated by Buildcell
#
# at 05:18:06 (GMT+1.0) 4th August 2020
# in /lustre/scratch/uccabz1/launch_tmp
# on node-c12l-028
# by uccabz1
#
# compiler GCC version 4.9.2
# options -cpp -iprefix /lustre/shared/ucl/apps/gcc/4.9.2/bin/../lib/gcc/x86_64-unknown-linux-gnu/4.9.2/ -mtune=corei7 -march=x86-64 -g -Og
#
# seed  -866213673 -1058794949  -546778578  -523021698    28845289  -878302833 -1471615143   328535832   315579209  1845488331   631853529  1956096964
#
#      Author: C. J. Pickard (cjp20@cam.ac.uk)
#                Space group: P21/m
#

%BLOCK LATTICE_ABC
      3.94738      7.04484      7.33737
     90.00000     90.00000    101.42403
%ENDBLOCK LATTICE_ABC

%BLOCK POSITIONS_FRAC
  Li   0.3972990   0.3083160   0.2500000 SPIN=   0.00000
  Li  -0.3972990  -0.3083160  -0.2500000 SPIN=   0.00000
  Fe   0.5000000   0.0000000  -0.0000000 SPIN=   4.00000
  Fe  -0.5000000   0.0000000  -0.5000000 SPIN=   4.00000
   O   0.7203240   0.4261242   0.0513297 SPIN=   0.00000
   O   0.1583032   0.2390057  -0.0563303 SPIN=   0.00000
   O  -0.7203240  -0.4261242   0.5513297 SPIN=   0.00000
   O  -0.1583032  -0.2390057   0.4436697 SPIN=   0.00000
   O  -0.7203240  -0.4261242  -0.0513297 SPIN=   0.00000
   O  -0.1583032  -0.2390057   0.0563303 SPIN=   0.00000
   O   0.7203240   0.4261242  -0.5513297 SPIN=   0.00000
   O   0.1583032   0.2390057  -0.4436697 SPIN=   0.00000
   S   0.0958443  -0.3706990   0.2500000 SPIN=   0.00000
   S  -0.0958443   0.3706990  -0.2500000 SPIN=   0.00000
   F  -0.2380647   0.0922509   0.2500000 SPIN=   0.00000
   F   0.2380647  -0.0922509  -0.2500000 SPIN=   0.00000
%ENDBLOCK POSITIONS_FRAC

# Note: total spin =   8.00

KPOINTS_MP_SPACING 0.07

%BLOCK SPECIES_POT
QC5
%ENDBLOCK SPECIES_POT

SNAP_TO_SYMMETRY
SYMMETRY_GENERATE

