#              Generated by Buildcell
#
# at 02:46:14 (GMT+1.0) 4th August 2020
# in /lustre/scratch/uccabz1/launch_tmp
# on node-c12j-012
# by uccabz1
#
# compiler GCC version 4.9.2
# options -cpp -iprefix /lustre/shared/ucl/apps/gcc/4.9.2/bin/../lib/gcc/x86_64-unknown-linux-gnu/4.9.2/ -mtune=corei7 -march=x86-64 -g -Og
#
# seed  1778214411  -660964753  1338354473  1759212822 -1504574199  -298718260   754891489   813577005 -1591107795 -1980653271   -68772917  -927036543
#
#      Author: C. J. Pickard (cjp20@cam.ac.uk)
#                Space group: Pm
#

%BLOCK LATTICE_ABC
      3.92320      3.92343     13.00262
     90.00000     90.00000     92.15370
%ENDBLOCK LATTICE_ABC

%BLOCK POSITIONS_FRAC
  Li   0.1561683   0.1034029   0.1711460 SPIN=   0.00000
  Li   0.1561683   0.1034029  -0.1711460 SPIN=   0.00000
  Fe   0.1356993  -0.4365210  -0.3598792 SPIN=   4.00000
  Fe   0.1356993  -0.4365210   0.3598792 SPIN=   4.00000
   O  -0.0351305  -0.5085858   0.1048734 SPIN=   0.00000
   O  -0.4134759  -0.0185952   0.1131286 SPIN=   0.00000
   O  -0.3363499  -0.3801149   0.2667387 SPIN=   0.00000
   S  -0.3613652  -0.3788816   0.1504280 SPIN=   0.00000
   O  -0.0351305  -0.5085858  -0.1048734 SPIN=   0.00000
   O  -0.4134759  -0.0185952  -0.1131286 SPIN=   0.00000
   O  -0.3363499  -0.3801149  -0.2667387 SPIN=   0.00000
   S  -0.3613652  -0.3788816  -0.1504280 SPIN=   0.00000
   O  -0.3488155  -0.3106588  -0.5000000 SPIN=   0.00000
   O   0.4180306  -0.4552719   0.0000000 SPIN=   0.00000
   F   0.1795001   0.0651883   0.3579943 SPIN=   0.00000
   F   0.1795001   0.0651883  -0.3579943 SPIN=   0.00000
%ENDBLOCK POSITIONS_FRAC

# Note: total spin =   8.00

KPOINTS_MP_SPACING 0.07

%BLOCK SPECIES_POT
QC5
%ENDBLOCK SPECIES_POT

SNAP_TO_SYMMETRY
SYMMETRY_GENERATE

