#              Generated by Buildcell
#
# at 03:22:31 (GMT+1.0) 4th August 2020
# in /lustre/scratch/uccabz1/launch_tmp
# on node-c12j-008
# by uccabz1
#
# compiler GCC version 4.9.2
# options -cpp -iprefix /lustre/shared/ucl/apps/gcc/4.9.2/bin/../lib/gcc/x86_64-unknown-linux-gnu/4.9.2/ -mtune=corei7 -march=x86-64 -g -Og
#
# seed  -467791843  1272299881 -1754724713  1889575445  1200675276  -709009071  2043520755   -10446829 -2036598310  1543886239 -2106701258   352120564
#
#      Author: C. J. Pickard (cjp20@cam.ac.uk)
#                Space group: C2
#

%BLOCK LATTICE_ABC
      5.76772      6.42956      6.42956
    110.42375    104.73870    104.73870
%ENDBLOCK LATTICE_ABC

%BLOCK POSITIONS_FRAC
  Li   0.5000000   0.0295857  -0.0295857 SPIN=   0.00000
  Li  -0.0000000   0.4479326  -0.4479326 SPIN=   0.00000
  Fe  -0.0000000   0.0760682  -0.0760682 SPIN=   6.79965
  Fe   0.0000000  -0.2745961   0.2745961 SPIN=   1.20035
   O   0.4801767  -0.3110802  -0.1795588 SPIN=   0.00000
   O   0.3012184  -0.3867423   0.1100850 SPIN=   0.00000
   O   0.6476641  -0.5266522   0.0364373 SPIN=   0.00000
   O   0.2058650  -0.7234385  -0.2772223 SPIN=   0.00000
   S   0.4087310  -0.4869783  -0.0775647 SPIN=   0.00000
   O  -0.4801767   0.1795588   0.3110802 SPIN=   0.00000
   O  -0.3012184  -0.1100850   0.3867423 SPIN=   0.00000
   O  -0.6476641  -0.0364373   0.5266522 SPIN=   0.00000
   O  -0.2058650   0.2772223   0.7234385 SPIN=   0.00000
   S  -0.4087310   0.0775647   0.4869783 SPIN=   0.00000
   F  -0.0862638  -0.2749427  -0.2970662 SPIN=   0.00000
   F   0.0862638   0.2970662   0.2749427 SPIN=   0.00000
%ENDBLOCK POSITIONS_FRAC

# Note: total spin =   8.00

KPOINTS_MP_SPACING 0.07

%BLOCK SPECIES_POT
QC5
%ENDBLOCK SPECIES_POT

SNAP_TO_SYMMETRY
SYMMETRY_GENERATE

