#              Generated by Buildcell
#
# at 02:43:51 (GMT+1.0) 4th August 2020
# in /lustre/scratch/uccabz1/launch_tmp
# on node-c12l-031
# by uccabz1
#
# compiler GCC version 4.9.2
# options -cpp -iprefix /lustre/shared/ucl/apps/gcc/4.9.2/bin/../lib/gcc/x86_64-unknown-linux-gnu/4.9.2/ -mtune=corei7 -march=x86-64 -g -Og
#
# seed   566755722  -616550603   898442955  -207964018 -1081831114 -1903763701  -443163347  1782736578   329239427   -29857136 -1875086256  2073826568
#
#      Author: C. J. Pickard (cjp20@cam.ac.uk)
#                Space group: P-1
#

%BLOCK LATTICE_ABC
      5.22037      5.27915      7.89374
     72.34124     75.07218     82.62610
%ENDBLOCK LATTICE_ABC

%BLOCK POSITIONS_FRAC
  Li  -0.5000000   0.5000000  -0.5000000 SPIN=   0.00000
  Li   0.5000000  -0.5000000   0.0000000 SPIN=   0.00000
  Fe   0.3314668   0.0088282  -0.2226404 SPIN=   4.00000
  Fe  -0.3314668  -0.0088282   0.2226404 SPIN=   4.00000
   O  -0.0749784   0.2679089  -0.1091196 SPIN=   0.00000
   O   0.1980300   0.6620337  -0.2341096 SPIN=   0.00000
   O  -0.2828650   0.7147742  -0.2250287 SPIN=   0.00000
   S  -0.0341550   0.5349574  -0.2523203 SPIN=   0.00000
   O   0.0749784  -0.2679089   0.1091196 SPIN=   0.00000
   O  -0.1980300  -0.6620337   0.2341096 SPIN=   0.00000
   O   0.2828650  -0.7147742   0.2250287 SPIN=   0.00000
   S   0.0341550  -0.5349574   0.2523203 SPIN=   0.00000
   O  -0.0000000  -0.5000000   0.5000000 SPIN=   0.00000
   O  -1.0000000   0.0000000   0.5000000 SPIN=   0.00000
   F  -0.5000000   1.0000000  -0.5000000 SPIN=   0.00000
   F  -0.5000000   0.0000000  -0.0000000 SPIN=   0.00000
%ENDBLOCK POSITIONS_FRAC

# Note: total spin =   8.00

KPOINTS_MP_SPACING 0.07

%BLOCK SPECIES_POT
QC5
%ENDBLOCK SPECIES_POT

SNAP_TO_SYMMETRY
SYMMETRY_GENERATE

