#              Generated by Buildcell
#
# at 05:18:12 (GMT+1.0) 4th August 2020
# in /lustre/scratch/uccabz1/launch_tmp
# on node-c12f-010
# by uccabz1
#
# compiler GCC version 4.9.2
# options -cpp -iprefix /lustre/shared/ucl/apps/gcc/4.9.2/bin/../lib/gcc/x86_64-unknown-linux-gnu/4.9.2/ -mtune=corei7 -march=x86-64 -g -Og
#
# seed -1043225689 -1938635301   834369279   773173316   761399836   579408423    17237238   101281705 -2086436467  -863507327 -1665027941  -219930633
#
#      Author: C. J. Pickard (cjp20@cam.ac.uk)
#                Space group: P-1
#

%BLOCK LATTICE_ABC
      3.94661      6.74202      7.73061
    103.51501     90.09195     90.12425
%ENDBLOCK LATTICE_ABC

%BLOCK POSITIONS_FRAC
  Li   0.0004735  -0.4003196  -0.2459522 SPIN=   0.00000
  Li  -0.0004735   0.4003196   0.2459522 SPIN=   0.00000
  Fe   0.5000000   0.5000000  -0.0000000 SPIN=   4.25222
  Fe  -0.0000000  -0.0000000  -0.0000000 SPIN=   3.74778
   O   0.0842923  -0.1940248   0.5478755 SPIN=   0.00000
   O   0.3878242  -0.3779401   0.2781982 SPIN=   0.00000
   O   0.3915828  -0.0004810   0.3615687 SPIN=   0.00000
   O  -0.1354694  -0.1864696   0.2494730 SPIN=   0.00000
   O  -0.0842923   0.1940248  -0.5478755 SPIN=   0.00000
   O  -0.3878242   0.3779401  -0.2781982 SPIN=   0.00000
   O  -0.3915828   0.0004810  -0.3615687 SPIN=   0.00000
   O   0.1354694   0.1864696  -0.2494730 SPIN=   0.00000
   S  -0.0000000  -0.0000000   0.5000000 SPIN=   0.00000
   S  -0.5000000   0.5000000  -0.5000000 SPIN=   0.00000
   F  -0.5000000   0.0000000   0.0000000 SPIN=   0.00000
   F  -0.0000000  -0.5000000   0.0000000 SPIN=   0.00000
%ENDBLOCK POSITIONS_FRAC

# Note: total spin =   8.00

KPOINTS_MP_SPACING 0.07

%BLOCK SPECIES_POT
QC5
%ENDBLOCK SPECIES_POT

SNAP_TO_SYMMETRY
SYMMETRY_GENERATE

