#              Generated by Buildcell
#
# at 21:06:22 (GMT+1.0) 18th August 2020
# in /lustre/scratch/uccabz1/launch_tmp
# on node-c12o-031
# by uccabz1
#
# compiler GCC version 4.9.2
# options -cpp -iprefix /lustre/shared/ucl/apps/gcc/4.9.2/bin/../lib/gcc/x86_64-unknown-linux-gnu/4.9.2/ -mtune=corei7 -march=x86-64 -g -Og
#
# seed  2139337565  1086047080   762351003 -1732761171  1987528107 -2077963699   795509608 -1339035152  2069373562  -365681883  1865021057  -595182200
#
#      Author: C. J. Pickard (cjp20@cam.ac.uk)
#                Space group: C2
#

%BLOCK LATTICE_ABC
      5.52588      6.37844      6.37844
    116.33437     93.66632     93.66632
%ENDBLOCK LATTICE_ABC

%BLOCK POSITIONS_FRAC
  Li   0.5000000  -0.2938350   0.2938350 SPIN=   0.00000
  Li   0.0000000   0.2039460  -0.2039460 SPIN=   0.00000
  Fe   0.5000000   0.3421813  -0.3421813 SPIN=   5.37062
  Fe   0.0000000  -0.1632957   0.1632957 SPIN=   2.62938
   O  -0.0904747  -0.2882777  -0.3165132 SPIN=   0.00000
   O   0.2465232   0.0244618  -0.0961916 SPIN=   0.00000
   O   0.3250592  -0.3371899  -0.4429081 SPIN=   0.00000
   O   0.2362800  -0.3540844  -0.0749685 SPIN=   0.00000
   O   0.0904747   0.3165132   0.2882777 SPIN=   0.00000
   O  -0.2465232   0.0961916  -0.0244618 SPIN=   0.00000
   O  -0.3250592   0.4429081   0.3371899 SPIN=   0.00000
   O  -0.2362800   0.0749685   0.3540844 SPIN=   0.00000
   S   0.0000000  -0.4768151   0.4768151 SPIN=   0.00000
   S   0.5000000   0.0142401  -0.0142401 SPIN=   0.00000
   F  -0.2313928  -0.4855420  -0.0395315 SPIN=   0.00000
   F   0.2313928   0.0395315   0.4855420 SPIN=   0.00000
%ENDBLOCK POSITIONS_FRAC

# Note: total spin =   8.00

KPOINTS_MP_SPACING 0.07

%BLOCK SPECIES_POT
QC5
%ENDBLOCK SPECIES_POT

SNAP_TO_SYMMETRY
SYMMETRY_GENERATE

