#              Generated by Buildcell
#
# at 22:25:19 (GMT+1.0) 18th August 2020
# in /lustre/scratch/uccabz1/launch_tmp
# on node-c12a-029
# by uccabz1
#
# compiler GCC version 4.9.2
# options -cpp -iprefix /lustre/shared/ucl/apps/gcc/4.9.2/bin/../lib/gcc/x86_64-unknown-linux-gnu/4.9.2/ -mtune=corei7 -march=x86-64 -g -Og
#
# seed -1342837044  -499764387   413214013   194469758   -25500812   -53510206  1067345358  -552823046  1246807575  1925048843  -427680477  -555150080
#
#      Author: C. J. Pickard (cjp20@cam.ac.uk)
#                Space group: Aem2
#

%BLOCK LATTICE_ABC
      4.72276      6.53162      6.53162
     96.95569     90.00000     90.00000
%ENDBLOCK LATTICE_ABC

%BLOCK POSITIONS_FRAC
  Li   0.0826947   0.0458709   0.4541291 SPIN=   0.00000
  Li  -0.0826947  -0.4541291  -0.0458709 SPIN=   0.00000
  Fe   0.5000000  -0.1999158   0.1999158 SPIN=   4.00000
  Fe   0.5000000   0.3000842  -0.3000842 SPIN=   4.00000
   O   0.1445003   0.0469178  -0.2549814 SPIN=   0.00000
   O  -0.2994524  -0.1023790  -0.1368142 SPIN=   0.00000
   O  -0.1445003   0.2549814  -0.0469178 SPIN=   0.00000
   O   0.2994524   0.1368142   0.1023790 SPIN=   0.00000
   O   0.1445003  -0.2450186  -0.5469178 SPIN=   0.00000
   O  -0.2994524  -0.3631858  -0.3976210 SPIN=   0.00000
   O  -0.1445003   0.5469178   0.2450186 SPIN=   0.00000
   O   0.2994524   0.3976210   0.3631858 SPIN=   0.00000
   S   0.0000000   0.0501378  -0.0501378 SPIN=   0.00000
   S   0.0000000  -0.4498622   0.4498622 SPIN=   0.00000
   F   0.3681164  -0.4504972  -0.0495028 SPIN=   0.00000
   F  -0.3681164   0.0495028   0.4504972 SPIN=   0.00000
%ENDBLOCK POSITIONS_FRAC

# Note: total spin =   8.00

KPOINTS_MP_SPACING 0.07

%BLOCK SPECIES_POT
QC5
%ENDBLOCK SPECIES_POT

SNAP_TO_SYMMETRY
SYMMETRY_GENERATE

