#              Generated by Buildcell
#
# at 04:41:04 (GMT+1.0) 4th August 2020
# in /lustre/scratch/uccabz1/launch_tmp
# on node-c12d-010
# by uccabz1
#
# compiler GCC version 4.9.2
# options -cpp -iprefix /lustre/shared/ucl/apps/gcc/4.9.2/bin/../lib/gcc/x86_64-unknown-linux-gnu/4.9.2/ -mtune=corei7 -march=x86-64 -g -Og
#
# seed -1599977649 -1223450872  -812904918 -1451598972 -1470786033   236320048  -141786900 -1935067917  -613759492  -933313156   387206991  1993616296
#
#      Author: C. J. Pickard (cjp20@cam.ac.uk)
#                Space group: P21
#

%BLOCK LATTICE_ABC
      4.77548      4.80608      8.95693
     90.00000     90.00000    103.37228
%ENDBLOCK LATTICE_ABC

%BLOCK POSITIONS_FRAC
  Li   0.0759057  -0.1160635  -0.0858185 SPIN=   0.00000
  Li  -0.0759057   0.1160635   0.4141815 SPIN=   0.00000
  Fe  -0.4918893  -0.4651508   0.4082761 SPIN=   4.00000
  Fe   0.4918893   0.4651508  -0.0917239 SPIN=   4.00000
   O  -0.3077189   0.5203333   0.1732361 SPIN=   0.00000
   O  -0.0109569   0.1644957   0.2029436 SPIN=   0.00000
   O   0.1952375   0.6737687   0.2619611 SPIN=   0.00000
   O   0.0956203   0.5218611  -0.0004964 SPIN=   0.00000
   S  -0.0069545   0.4701147   0.1594111 SPIN=   0.00000
   O   0.3077189  -0.5203333  -0.3267639 SPIN=   0.00000
   O   0.0109569  -0.1644957  -0.2970564 SPIN=   0.00000
   O  -0.1952375  -0.6737687  -0.2380389 SPIN=   0.00000
   O  -0.0956203  -0.5218611  -0.5004964 SPIN=   0.00000
   S   0.0069545  -0.4701147  -0.3405889 SPIN=   0.00000
   F  -0.4416233  -0.0937923  -0.0775106 SPIN=   0.00000
   F   0.4416233   0.0937923   0.4224894 SPIN=   0.00000
%ENDBLOCK POSITIONS_FRAC

# Note: total spin =   8.00

KPOINTS_MP_SPACING 0.07

%BLOCK SPECIES_POT
QC5
%ENDBLOCK SPECIES_POT

SNAP_TO_SYMMETRY
SYMMETRY_GENERATE

