#              Generated by Buildcell
#
# at 03:23:23 (GMT+1.0) 4th August 2020
# in /lustre/scratch/uccabz1/launch_tmp
# on node-c12g-015
# by uccabz1
#
# compiler GCC version 4.9.2
# options -cpp -iprefix /lustre/shared/ucl/apps/gcc/4.9.2/bin/../lib/gcc/x86_64-unknown-linux-gnu/4.9.2/ -mtune=corei7 -march=x86-64 -g -Og
#
# seed   482353051   -25530614   -77001321 -1789565333 -2127737025  -406051362  -925985567     9594031  -533830274  1662802658   729908037 -1874319094
#
#      Author: C. J. Pickard (cjp20@cam.ac.uk)
#                Space group: P-1
#

%BLOCK LATTICE_ABC
      4.35579      6.91163      6.99583
     92.37438    100.61438    104.04570
%ENDBLOCK LATTICE_ABC

%BLOCK POSITIONS_FRAC
  Li  -0.2711907   0.4370981   0.2430147 SPIN=   0.00000
  Li   0.2711907  -0.4370981  -0.2430147 SPIN=   0.00000
  Fe  -0.1073199   0.0457312   0.2395621 SPIN=   4.00000
  Fe   0.1073199  -0.0457312  -0.2395621 SPIN=   4.00000
   O  -0.4272625   0.2234901  -0.2094512 SPIN=   0.00000
   O  -0.5869919   0.1961459  -0.5697860 SPIN=   0.00000
   O  -0.0272319   0.2003156  -0.4131974 SPIN=   0.00000
   O  -0.2185594   0.5083064  -0.3931736 SPIN=   0.00000
   S  -0.3150114   0.2820645  -0.3964021 SPIN=   0.00000
   O   0.4272625  -0.2234901   0.2094512 SPIN=   0.00000
   O   0.5869919  -0.1961459   0.5697860 SPIN=   0.00000
   O   0.0272319  -0.2003156   0.4131974 SPIN=   0.00000
   O   0.2185594  -0.5083064   0.3931736 SPIN=   0.00000
   S   0.3150114  -0.2820645   0.3964021 SPIN=   0.00000
   F   0.2120969   0.2740909   0.0572606 SPIN=   0.00000
   F  -0.2120969  -0.2740909  -0.0572606 SPIN=   0.00000
%ENDBLOCK POSITIONS_FRAC

# Note: total spin =   8.00

KPOINTS_MP_SPACING 0.07

%BLOCK SPECIES_POT
QC5
%ENDBLOCK SPECIES_POT

SNAP_TO_SYMMETRY
SYMMETRY_GENERATE

