#              Generated by Buildcell
#
# at 03:32:57 (GMT+1.0) 4th August 2020
# in /lustre/scratch/uccabz1/launch_tmp
# on node-c12d-030
# by uccabz1
#
# compiler GCC version 4.9.2
# options -cpp -iprefix /lustre/shared/ucl/apps/gcc/4.9.2/bin/../lib/gcc/x86_64-unknown-linux-gnu/4.9.2/ -mtune=corei7 -march=x86-64 -g -Og
#
# seed -1331255425  1042089161   184871134  -233773958   247935395  -275926399 -1474671946  1038383813  1820731628  -889601780 -1187515862 -1523156604
#
#      Author: C. J. Pickard (cjp20@cam.ac.uk)
#                Space group: Pc
#

%BLOCK LATTICE_ABC
      4.72929      5.29264      7.99153
     91.01372     90.00000     90.00000
%ENDBLOCK LATTICE_ABC

%BLOCK POSITIONS_FRAC
  Li   0.2190786  -0.0913617  -0.0594862 SPIN=   0.00000
  Li  -0.2190786   0.4086383   0.4405138 SPIN=   0.00000
  Fe   0.3897524  -0.1805301  -0.4495340 SPIN=   4.00000
  Fe  -0.3897524   0.3194699   0.0504660 SPIN=   4.00000
   O  -0.0364010  -0.2275188   0.4164794 SPIN=   0.00000
   O  -0.0422581   0.1001344   0.1993651 SPIN=   0.00000
   O  -0.3542017  -0.2737361   0.1718089 SPIN=   0.00000
   O   0.1629854  -0.3208667   0.1358100 SPIN=   0.00000
   S  -0.0674688  -0.1804968   0.2308658 SPIN=   0.00000
   O   0.0364010   0.2724812  -0.0835206 SPIN=   0.00000
   O   0.0422581   0.6001344  -0.3006349 SPIN=   0.00000
   O   0.3542017   0.2262639  -0.3281911 SPIN=   0.00000
   O  -0.1629854   0.1791333  -0.3641900 SPIN=   0.00000
   S   0.0674688   0.3195032  -0.2691342 SPIN=   0.00000
   F  -0.4371392  -0.1862314  -0.1632188 SPIN=   0.00000
   F   0.4371392   0.3137686   0.3367812 SPIN=   0.00000
%ENDBLOCK POSITIONS_FRAC

# Note: total spin =   8.00

KPOINTS_MP_SPACING 0.07

%BLOCK SPECIES_POT
QC5
%ENDBLOCK SPECIES_POT

SNAP_TO_SYMMETRY
SYMMETRY_GENERATE

