#              Generated by Buildcell
#
# at 01:47:54 (GMT+1.0) 4th August 2020
# in /lustre/scratch/uccabz1/launch_tmp
# on node-c12o-001
# by uccabz1
#
# compiler GCC version 4.9.2
# options -cpp -iprefix /lustre/shared/ucl/apps/gcc/4.9.2/bin/../lib/gcc/x86_64-unknown-linux-gnu/4.9.2/ -mtune=corei7 -march=x86-64 -g -Og
#
# seed  -833602382   901191923  1027535871   399876255  1925420769 -1147592100  -461278819 -1454942703   -19251104   582947267  1202588993  1713350439
#
#      Author: C. J. Pickard (cjp20@cam.ac.uk)
#                Space group: P-1
#

%BLOCK LATTICE_ABC
      4.02165      4.19491     12.99221
     83.51468     86.47339     66.70875
%ENDBLOCK LATTICE_ABC

%BLOCK POSITIONS_FRAC
  Li   0.0997533  -0.0084728  -0.2334537 SPIN=   0.00000
  Li  -0.0997533   0.0084728   0.2334537 SPIN=   0.00000
  Fe   0.2555138   0.2866680   0.3839185 SPIN=   4.00000
  Fe  -0.2555138  -0.2866680  -0.3839185 SPIN=   4.00000
   O   0.5058360   0.0584662   0.0962693 SPIN=   0.00000
   O   0.3731532   0.4692020   0.2303572 SPIN=   0.00000
   O  -0.1279962   0.4426894   0.1349956 SPIN=   0.00000
   O   0.2871842   0.6932311   0.0451888 SPIN=   0.00000
   S   0.2595443   0.4158972   0.1267027 SPIN=   0.00000
   O  -0.5058360  -0.0584662  -0.0962693 SPIN=   0.00000
   O  -0.3731532  -0.4692020  -0.2303572 SPIN=   0.00000
   O   0.1279962  -0.4426894  -0.1349956 SPIN=   0.00000
   O  -0.2871842  -0.6932311  -0.0451888 SPIN=   0.00000
   S  -0.2595443  -0.4158972  -0.1267027 SPIN=   0.00000
   F  -0.1663595  -0.1443437   0.3765500 SPIN=   0.00000
   F   0.1663595   0.1443437  -0.3765500 SPIN=   0.00000
%ENDBLOCK POSITIONS_FRAC

# Note: total spin =   8.00

KPOINTS_MP_SPACING 0.07

%BLOCK SPECIES_POT
QC5
%ENDBLOCK SPECIES_POT

SNAP_TO_SYMMETRY
SYMMETRY_GENERATE

