#              Generated by Buildcell
#
# at 03:01:34 (GMT+1.0) 19th August 2020
# in /scratch/scratch/uccabz1/launch_tmp
# on node-k10i-027
# by uccabz1
#
# compiler GCC version 4.9.2
# options -cpp -iprefix /scratch/UCL/applications/gcc/4.9.2/bin/../lib/gcc/x86_64-unknown-linux-gnu/4.9.2/ -mtune=corei7 -march=x86-64 -g -O2
#
# seed  1883298481 -1039617301  -592292154  -628846906  1772679630  -783745658  -442743904 -1600148578 -1372891584   424808794  -572252411 -1978339571
#
#      Author: C. J. Pickard (cjp20@cam.ac.uk)
#                Space group: C2/m
#

%BLOCK LATTICE_ABC
      4.61111      6.84562      6.84562
     69.82554     82.15316     82.15316
%ENDBLOCK LATTICE_ABC

%BLOCK POSITIONS_FRAC
  Li  -0.3044436   0.1290254   0.1290254 SPIN=   0.00000
  Li   0.3044436  -0.1290254  -0.1290254 SPIN=   0.00000
  Fe   0.0103809   0.3368098   0.3368098 SPIN=   4.00000
  Fe  -0.0103809  -0.3368098  -0.3368098 SPIN=   4.00000
   O  -0.2456425   0.3259270  -0.1813151 SPIN=   0.00000
   O   0.2394718   0.3992767  -0.1212704 SPIN=   0.00000
   O   0.2456425   0.1813151  -0.3259270 SPIN=   0.00000
   O  -0.2394718   0.1212704  -0.3992767 SPIN=   0.00000
   O   0.2456425  -0.3259270   0.1813151 SPIN=   0.00000
   O  -0.2394718  -0.3992767   0.1212704 SPIN=   0.00000
   O  -0.2456425  -0.1813151   0.3259270 SPIN=   0.00000
   O   0.2394718  -0.1212704   0.3992767 SPIN=   0.00000
   S   0.5000000  -0.2486375   0.2486375 SPIN=   0.00000
   S  -0.5000000   0.2486375  -0.2486375 SPIN=   0.00000
   F  -0.3908043  -0.2626256  -0.2626256 SPIN=   0.00000
   F   0.3908043   0.2626256   0.2626256 SPIN=   0.00000
%ENDBLOCK POSITIONS_FRAC

# Note: total spin =   8.00

KPOINTS_MP_SPACING 0.07

%BLOCK SPECIES_POT
QC5
%ENDBLOCK SPECIES_POT

SNAP_TO_SYMMETRY
SYMMETRY_GENERATE

