#              Generated by Buildcell
#
# at 02:21:02 (GMT+1.0) 4th August 2020
# in /lustre/scratch/uccabz1/launch_tmp
# on node-c12f-001
# by uccabz1
#
# compiler GCC version 4.9.2
# options -cpp -iprefix /lustre/shared/ucl/apps/gcc/4.9.2/bin/../lib/gcc/x86_64-unknown-linux-gnu/4.9.2/ -mtune=corei7 -march=x86-64 -g -Og
#
# seed  1062800325  -489456341  1614276432  -231118852  1737648338  -494571944   189520165   133386197   179157648 -1979310660 -1869392795   722927575
#
#      Author: C. J. Pickard (cjp20@cam.ac.uk)
#                Space group: Cm
#

%BLOCK LATTICE_ABC
      5.61466      5.61466      6.36542
     92.69620     92.69620     92.56646
%ENDBLOCK LATTICE_ABC

%BLOCK POSITIONS_FRAC
  Li  -0.4433859  -0.4433859   0.1895985 SPIN=   0.00000
  Li   0.2339043   0.2339043  -0.3542511 SPIN=   0.00000
  Fe  -0.3129414   0.1357038   0.4330397 SPIN=   4.00000
  Fe   0.1357038  -0.3129414   0.4330397 SPIN=   4.00000
   O  -0.2988558  -0.0170551  -0.2626936 SPIN=   0.00000
   O  -0.3394350   0.3799083  -0.0854891 SPIN=   0.00000
   O  -0.2646692   0.0298763   0.1262436 SPIN=   0.00000
   O  -0.6564714   0.0628201  -0.0624553 SPIN=   0.00000
   S  -0.3898579   0.1138874  -0.0710986 SPIN=   0.00000
   O  -0.0170551  -0.2988558  -0.2626936 SPIN=   0.00000
   O   0.3799083  -0.3394350  -0.0854891 SPIN=   0.00000
   O   0.0298763  -0.2646692   0.1262436 SPIN=   0.00000
   O   0.0628201  -0.6564714  -0.0624553 SPIN=   0.00000
   S   0.1138874  -0.3898579  -0.0710986 SPIN=   0.00000
   F  -0.1257979   0.4061079   0.3935659 SPIN=   0.00000
   F   0.4061079  -0.1257979   0.3935659 SPIN=   0.00000
%ENDBLOCK POSITIONS_FRAC

# Note: total spin =   8.00

KPOINTS_MP_SPACING 0.07

%BLOCK SPECIES_POT
QC5
%ENDBLOCK SPECIES_POT

SNAP_TO_SYMMETRY
SYMMETRY_GENERATE

