#              Generated by Buildcell
#
# at 21:47:16 (GMT+1.0) 18th August 2020
# in /lustre/scratch/uccabz1/launch_tmp
# on node-c12l-017
# by uccabz1
#
# compiler GCC version 4.9.2
# options -cpp -iprefix /lustre/shared/ucl/apps/gcc/4.9.2/bin/../lib/gcc/x86_64-unknown-linux-gnu/4.9.2/ -mtune=corei7 -march=x86-64 -g -Og
#
# seed   329963598  1908418147   272827921 -1337582383 -1741885917 -1078704655  -315473186  -849121060  -440466809  -463667055  2092977051  1179166762
#
#      Author: C. J. Pickard (cjp20@cam.ac.uk)
#                Space group: P-1
#

%BLOCK LATTICE_ABC
      4.28469      4.64069     10.12972
     92.51299     92.69498     95.59331
%ENDBLOCK LATTICE_ABC

%BLOCK POSITIONS_FRAC
  Li   0.2283883  -0.4874395  -0.2824531 SPIN=   0.00000
  Li  -0.2283883   0.4874395   0.2824531 SPIN=   0.00000
  Fe   0.5000000  -0.0000000   0.5000000 SPIN=   0.87895
  Fe   0.0000000  -0.5000000   0.0000000 SPIN=   7.12105
   O   0.1906939  -0.0370563   0.0785962 SPIN=   0.00000
   O  -0.2413022  -0.0262570   0.2319984 SPIN=   0.00000
   O   0.2197919   0.3400664   0.2604494 SPIN=   0.00000
   O   0.2739780  -0.1703821   0.3106005 SPIN=   0.00000
   S   0.1107904   0.0265927   0.2204111 SPIN=   0.00000
   O  -0.1906939   0.0370563  -0.0785962 SPIN=   0.00000
   O   0.2413022   0.0262570  -0.2319984 SPIN=   0.00000
   O  -0.2197919  -0.3400664  -0.2604494 SPIN=   0.00000
   O  -0.2739780   0.1703821  -0.3106005 SPIN=   0.00000
   S  -0.1107904  -0.0265927  -0.2204111 SPIN=   0.00000
   F  -0.0000000   0.5000000  -0.5000000 SPIN=   0.00000
   F   0.5000000  -0.5000000  -0.0000000 SPIN=   0.00000
%ENDBLOCK POSITIONS_FRAC

# Note: total spin =   8.00

KPOINTS_MP_SPACING 0.07

%BLOCK SPECIES_POT
QC5
%ENDBLOCK SPECIES_POT

SNAP_TO_SYMMETRY
SYMMETRY_GENERATE

