#              Generated by Buildcell
#
# at 02:46:56 (GMT+1.0) 19th August 2020
# in /lustre/scratch/uccabz1/launch_tmp
# on node-c12j-022
# by uccabz1
#
# compiler GCC version 4.9.2
# options -cpp -iprefix /lustre/shared/ucl/apps/gcc/4.9.2/bin/../lib/gcc/x86_64-unknown-linux-gnu/4.9.2/ -mtune=corei7 -march=x86-64 -g -Og
#
# seed -1875709121 -1180130661   -39948715 -1411656580 -2125770865  -708157461   442386903 -1400768303    13181496  -894015078  -702465323    47136122
#
#      Author: C. J. Pickard (cjp20@cam.ac.uk)
#                Space group: C2
#

%BLOCK LATTICE_ABC
      5.05985      5.05985      8.17451
    101.98086    101.98086     90.35518
%ENDBLOCK LATTICE_ABC

%BLOCK POSITIONS_FRAC
  Li   0.3583674  -0.3583674   0.0000000 SPIN=   0.00000
  Li  -0.2194769   0.2194769   0.5000000 SPIN=   0.00000
  Fe   0.1958475   0.1094394   0.2309487 SPIN=   4.00000
  Fe  -0.1094394  -0.1958475  -0.2309487 SPIN=   4.00000
   O  -0.2037793  -0.3488679   0.5182513 SPIN=   0.00000
   O  -0.0934313  -0.0552583   0.3317981 SPIN=   0.00000
   O  -0.4338159  -0.4368414   0.2124620 SPIN=   0.00000
   O   0.0507623  -0.5265963   0.2944182 SPIN=   0.00000
   S  -0.1700661  -0.3418910   0.3392324 SPIN=   0.00000
   O   0.3488679   0.2037793  -0.5182513 SPIN=   0.00000
   O   0.0552583   0.0934313  -0.3317981 SPIN=   0.00000
   O   0.4368414   0.4338159  -0.2124620 SPIN=   0.00000
   O   0.5265963  -0.0507623  -0.2944182 SPIN=   0.00000
   S   0.3418910   0.1700661  -0.3392324 SPIN=   0.00000
   F   0.4924671   0.0596936   0.0767153 SPIN=   0.00000
   F  -0.0596936  -0.4924671  -0.0767153 SPIN=   0.00000
%ENDBLOCK POSITIONS_FRAC

# Note: total spin =   8.00

KPOINTS_MP_SPACING 0.07

%BLOCK SPECIES_POT
QC5
%ENDBLOCK SPECIES_POT

SNAP_TO_SYMMETRY
SYMMETRY_GENERATE

