#              Generated by Buildcell
#
# at 02:14:35 (GMT+1.0) 19th August 2020
# in /lustre/scratch/uccabz1/launch_tmp
# on node-c12a-021
# by uccabz1
#
# compiler GCC version 4.9.2
# options -cpp -iprefix /lustre/shared/ucl/apps/gcc/4.9.2/bin/../lib/gcc/x86_64-unknown-linux-gnu/4.9.2/ -mtune=corei7 -march=x86-64 -g -Og
#
# seed   -39317522  -202667105   627963850   225794956 -1305332307 -2018544526 -1038559457 -1455387543   212635231  -182902865  -327145768 -1933523312
#
#      Author: C. J. Pickard (cjp20@cam.ac.uk)
#                Space group: P-1
#

%BLOCK LATTICE_ABC
      5.69448      5.71097      7.74224
     68.43071     87.40245     60.10275
%ENDBLOCK LATTICE_ABC

%BLOCK POSITIONS_FRAC
  Li  -0.2492683   0.4978781  -0.2094996 SPIN=   0.00000
  Li   0.2492683  -0.4978781   0.2094996 SPIN=   0.00000
  Fe  -0.0948753   0.1897196   0.2169945 SPIN=   4.00000
  Fe   0.0948753  -0.1897196  -0.2169945 SPIN=   4.00000
   O  -0.4855327   0.5716177   0.3442178 SPIN=   0.00000
   O  -0.6005327   1.0794484   0.2752642 SPIN=   0.00000
   O  -0.1426012   0.7166334   0.2405540 SPIN=   0.00000
   S  -0.3731060   0.7580607   0.3545555 SPIN=   0.00000
   O   0.4855327  -0.5716177  -0.3442178 SPIN=   0.00000
   O   0.6005327  -1.0794484  -0.2752642 SPIN=   0.00000
   O   0.1426012  -0.7166334  -0.2405540 SPIN=   0.00000
   S   0.3731060  -0.7580607  -0.3545555 SPIN=   0.00000
   O   0.0000000   0.0000000   0.0000000 SPIN=   0.00000
   O  -0.5000000   0.0000000   0.0000000 SPIN=   0.00000
   F   0.0000000  -0.0000000  -0.5000000 SPIN=   0.00000
   F  -0.5000000   0.5000000   0.0000000 SPIN=   0.00000
%ENDBLOCK POSITIONS_FRAC

# Note: total spin =   8.00

KPOINTS_MP_SPACING 0.07

%BLOCK SPECIES_POT
QC5
%ENDBLOCK SPECIES_POT

SNAP_TO_SYMMETRY
SYMMETRY_GENERATE

