#              Generated by Buildcell
#
# at 03:56:00 (GMT+1.0) 4th August 2020
# in /lustre/scratch/uccabz1/launch_tmp
# on node-c12d-010
# by uccabz1
#
# compiler GCC version 4.9.2
# options -cpp -iprefix /lustre/shared/ucl/apps/gcc/4.9.2/bin/../lib/gcc/x86_64-unknown-linux-gnu/4.9.2/ -mtune=corei7 -march=x86-64 -g -Og
#
# seed -1994917334  1863196500   305719835  -907137431   177806474  1102928775 -1612845338 -1673890043   -49143107  -317410731 -1023803032 -1442730508
#
#      Author: C. J. Pickard (cjp20@cam.ac.uk)
#                Space group: Cm
#

%BLOCK LATTICE_ABC
      4.19963      6.63445      7.91651
     65.22689     88.74519     87.00429
%ENDBLOCK LATTICE_ABC

%BLOCK POSITIONS_FRAC
  Li  -0.1610128   0.4726425  -0.0000000 SPIN=   0.00000
  Li  -0.4422738  -0.0174148   0.0000000 SPIN=   0.00000
  Fe   0.1804845  -0.1348434  -0.2542650 SPIN=   4.00000
  Fe   0.1804845  -0.3891083   0.2542650 SPIN=   4.00000
   O   0.1016890   0.0284695   0.4608339 SPIN=   0.00000
   O   0.6112268   0.0337747   0.2962627 SPIN=   0.00000
   O   0.2145212   0.3492140   0.1646866 SPIN=   0.00000
   O   0.1062606  -0.0139189   0.1647103 SPIN=   0.00000
   S   0.2584244   0.0993848   0.2716234 SPIN=   0.00000
   O   0.1016890   0.4893034  -0.4608339 SPIN=   0.00000
   O   0.6112268   0.3300374  -0.2962627 SPIN=   0.00000
   O   0.2145212   0.5139006  -0.1646866 SPIN=   0.00000
   O   0.1062606   0.1507914  -0.1647103 SPIN=   0.00000
   S   0.2584244   0.3710082  -0.2716234 SPIN=   0.00000
   F  -0.3162534  -0.1560141  -0.2873260 SPIN=   0.00000
   F  -0.3162534  -0.4433400   0.2873260 SPIN=   0.00000
%ENDBLOCK POSITIONS_FRAC

# Note: total spin =   8.00

KPOINTS_MP_SPACING 0.07

%BLOCK SPECIES_POT
QC5
%ENDBLOCK SPECIES_POT

SNAP_TO_SYMMETRY
SYMMETRY_GENERATE

