#              Generated by Buildcell
#
# at 02:47:21 (GMT+1.0) 19th August 2020
# in /scratch/scratch/uccabz1/launch_tmp
# on node-k10b-019
# by uccabz1
#
# compiler GCC version 4.9.2
# options -cpp -iprefix /scratch/UCL/applications/gcc/4.9.2/bin/../lib/gcc/x86_64-unknown-linux-gnu/4.9.2/ -mtune=corei7 -march=x86-64 -g -O2
#
# seed  -402671101   770096520    -3654283  1814761630  1293464722  -913855248  -326148168 -1363392611   -82395617   804614113  -976345878  1332966360
#
#      Author: C. J. Pickard (cjp20@cam.ac.uk)
#                Space group: P2/c
#

%BLOCK LATTICE_ABC
      3.85788      7.10565      7.32492
     90.00000     90.00000     95.10454
%ENDBLOCK LATTICE_ABC

%BLOCK POSITIONS_FRAC
  Li  -0.0000000  -0.2500000   0.2411098 SPIN=   0.00000
  Li   0.0000000   0.2500000  -0.2411098 SPIN=   0.00000
  Fe   0.5000000   0.0000000   0.0000000 SPIN=   4.00000
  Fe  -0.5000000   0.5000000   0.0000000 SPIN=   4.00000
   O  -0.7339377   0.3968042   0.4387035 SPIN=   0.00000
   O  -0.2495060   0.3816074   0.2192192 SPIN=   0.00000
   O   0.7339377   0.1031958   0.4387035 SPIN=   0.00000
   O   0.2495060   0.1183926   0.2192192 SPIN=   0.00000
   O   0.7339377  -0.3968042  -0.4387035 SPIN=   0.00000
   O   0.2495060  -0.3816074  -0.2192192 SPIN=   0.00000
   O  -0.7339377  -0.1031958  -0.4387035 SPIN=   0.00000
   O  -0.2495060  -0.1183926  -0.2192192 SPIN=   0.00000
   S   0.5000000  -0.2500000  -0.3713036 SPIN=   0.00000
   S  -0.5000000   0.2500000   0.3713036 SPIN=   0.00000
   F  -0.5000000   0.2500000  -0.1346989 SPIN=   0.00000
   F  -0.5000000  -0.2500000   0.1346989 SPIN=   0.00000
%ENDBLOCK POSITIONS_FRAC

# Note: total spin =   8.00

KPOINTS_MP_SPACING 0.07

%BLOCK SPECIES_POT
QC5
%ENDBLOCK SPECIES_POT

SNAP_TO_SYMMETRY
SYMMETRY_GENERATE

