#              Generated by Buildcell
#
# at 00:10:36 (GMT+1.0) 19th August 2020
# in /scratch/scratch/uccabz1/launch_tmp
# on node-k10f-004
# by uccabz1
#
# compiler GCC version 4.9.2
# options -cpp -iprefix /scratch/UCL/applications/gcc/4.9.2/bin/../lib/gcc/x86_64-unknown-linux-gnu/4.9.2/ -mtune=corei7 -march=x86-64 -g -O2
#
# seed   542848473 -1432670370  -373983856   -22794960 -1519189242 -1736611760  2033393107   -98364800 -2106824604  1208170828    27476198   257294118
#
#      Author: C. J. Pickard (cjp20@cam.ac.uk)
#                Space group: P21
#

%BLOCK LATTICE_ABC
      4.70226      6.07801      7.50544
    111.19370     90.00000     90.00000
%ENDBLOCK LATTICE_ABC

%BLOCK POSITIONS_FRAC
  Li  -0.3707612  -0.3085897  -0.1560679 SPIN=   0.00000
  Li   0.1292388   0.3085897   0.1560679 SPIN=   0.00000
  Fe   0.1699413   0.3235393  -0.4099957 SPIN=   4.00000
  Fe  -0.3300587  -0.3235393   0.4099957 SPIN=   4.00000
   O  -0.4582315   0.3716299   0.1315990 SPIN=   0.00000
   O  -0.0909296   0.1681043  -0.1073225 SPIN=   0.00000
   O  -0.5037879   0.3537892  -0.2018542 SPIN=   0.00000
   O  -0.5701473  -0.0075697  -0.1272028 SPIN=   0.00000
   S  -0.4057740   0.2214884  -0.0761951 SPIN=   0.00000
   O   0.0417685  -0.3716299  -0.1315990 SPIN=   0.00000
   O   0.4090704  -0.1681043   0.1073225 SPIN=   0.00000
   O  -0.0037879  -0.3537892   0.2018542 SPIN=   0.00000
   O  -0.0701473   0.0075697   0.1272028 SPIN=   0.00000
   S   0.0942260  -0.2214884   0.0761951 SPIN=   0.00000
   F   0.0942260  -0.2066791  -0.4194696 SPIN=   0.00000
   F  -0.4057740   0.2066791   0.4194696 SPIN=   0.00000
%ENDBLOCK POSITIONS_FRAC

# Note: total spin =   8.00

KPOINTS_MP_SPACING 0.07

%BLOCK SPECIES_POT
QC5
%ENDBLOCK SPECIES_POT

SNAP_TO_SYMMETRY
SYMMETRY_GENERATE

