#              Generated by Buildcell
#
# at 22:19:21 (GMT+1.0) 18th August 2020
# in /lustre/scratch/uccabz1/launch_tmp
# on node-c12l-020
# by uccabz1
#
# compiler GCC version 4.9.2
# options -cpp -iprefix /lustre/shared/ucl/apps/gcc/4.9.2/bin/../lib/gcc/x86_64-unknown-linux-gnu/4.9.2/ -mtune=corei7 -march=x86-64 -g -Og
#
# seed  -527440015   310085753   683497644 -1227627762   730081283  1712799585  -326532230   165619838  1653256111  1401141791  1931088837  -859222608
#
#      Author: C. J. Pickard (cjp20@cam.ac.uk)
#                Space group: Cc
#

%BLOCK LATTICE_ABC
      4.23732      6.58587      8.09435
    114.00514    102.99341     90.00000
%ENDBLOCK LATTICE_ABC

%BLOCK POSITIONS_FRAC
  Li   0.3995184  -0.4645227  -0.3911702 SPIN=   0.00000
  Li  -0.1004816   0.0733525  -0.3911702 SPIN=   0.00000
  Fe   0.2764519  -0.1016000   0.3221025 SPIN=   4.00000
  Fe  -0.2235481   0.4237024   0.3221025 SPIN=   4.00000
   O  -0.2527333   0.2331751  -0.0093649 SPIN=   0.00000
   O   0.1631993  -0.0014042  -0.1403795 SPIN=   0.00000
   O   0.3212434   0.3124655   0.1729746 SPIN=   0.00000
   O   0.1648421   0.3887357  -0.1082461 SPIN=   0.00000
   S   0.0991379   0.2332430  -0.0212540 SPIN=   0.00000
   O  -0.7527333  -0.2425399  -0.0093649 SPIN=   0.00000
   O  -0.3368007  -0.1389753  -0.1403795 SPIN=   0.00000
   O  -0.1787566  -0.1394909   0.1729746 SPIN=   0.00000
   O  -0.3351579  -0.4969817  -0.1082461 SPIN=   0.00000
   S  -0.4008621  -0.2544970  -0.0212540 SPIN=   0.00000
   F   0.4368506   0.0696503  -0.4034873 SPIN=   0.00000
   F  -0.0631494  -0.4731376  -0.4034873 SPIN=   0.00000
%ENDBLOCK POSITIONS_FRAC

# Note: total spin =   8.00

KPOINTS_MP_SPACING 0.07

%BLOCK SPECIES_POT
QC5
%ENDBLOCK SPECIES_POT

SNAP_TO_SYMMETRY
SYMMETRY_GENERATE

