#              Generated by Buildcell
#
# at 02:12:10 (GMT+1.0) 4th August 2020
# in /lustre/scratch/uccabz1/launch_tmp
# on node-c12h-015
# by uccabz1
#
# compiler GCC version 4.9.2
# options -cpp -iprefix /lustre/shared/ucl/apps/gcc/4.9.2/bin/../lib/gcc/x86_64-unknown-linux-gnu/4.9.2/ -mtune=corei7 -march=x86-64 -g -Og
#
# seed   999684092  1700070095  1583868295 -1970517674  1356549811   238643870  -450104972 -1668763034  -858771091  -757350350 -1268226655  -202767966
#
#      Author: C. J. Pickard (cjp20@cam.ac.uk)
#                Space group: Pcc2
#

%BLOCK LATTICE_ABC
      3.97726      5.50405      9.13614
     90.00000     90.00000     90.00000
%ENDBLOCK LATTICE_ABC

%BLOCK POSITIONS_FRAC
  Li   0.0000000  -0.5000000  -0.1698548 SPIN=   0.00000
  Li  -0.0000000  -0.5000000   0.3301452 SPIN=   0.00000
  Fe   0.5000000  -0.5000000   0.0801502 SPIN=   4.00000
  Fe   0.5000000   0.5000000  -0.4198498 SPIN=   4.00000
   O  -0.2435706   0.1718349  -0.1405705 SPIN=   0.00000
   O  -0.3150120  -0.1876754  -0.3002688 SPIN=   0.00000
   O   0.2435706  -0.1718349  -0.1405705 SPIN=   0.00000
   O   0.3150120   0.1876754  -0.3002688 SPIN=   0.00000
   O  -0.2435706  -0.1718349   0.3594295 SPIN=   0.00000
   O  -0.3150120   0.1876754   0.1997312 SPIN=   0.00000
   O   0.2435706   0.1718349   0.3594295 SPIN=   0.00000
   O   0.3150120  -0.1876754   0.1997312 SPIN=   0.00000
   S  -0.0000000   0.0000000  -0.2059770 SPIN=   0.00000
   S  -0.0000000  -0.0000000   0.2940230 SPIN=   0.00000
   F   0.0000000  -0.5000000   0.0447518 SPIN=   0.00000
   F   0.0000000  -0.5000000  -0.4552482 SPIN=   0.00000
%ENDBLOCK POSITIONS_FRAC

# Note: total spin =   8.00

KPOINTS_MP_SPACING 0.07

%BLOCK SPECIES_POT
QC5
%ENDBLOCK SPECIES_POT

SNAP_TO_SYMMETRY
SYMMETRY_GENERATE

