#              Generated by Buildcell
#
# at 02:36:56 (GMT+1.0) 19th August 2020
# in /lustre/scratch/uccabz1/launch_tmp
# on node-c12a-022
# by uccabz1
#
# compiler GCC version 4.9.2
# options -cpp -iprefix /lustre/shared/ucl/apps/gcc/4.9.2/bin/../lib/gcc/x86_64-unknown-linux-gnu/4.9.2/ -mtune=corei7 -march=x86-64 -g -Og
#
# seed  1634191597  1785224919  -566787118   463324174   300547253 -1234745172  1503063359 -1262250222 -1445001486 -1174341889  -361635512   532253399
#
#      Author: C. J. Pickard (cjp20@cam.ac.uk)
#                Space group: P2221
#

%BLOCK LATTICE_ABC
      3.91433      6.68211      7.64642
     90.00000     90.00000     90.00000
%ENDBLOCK LATTICE_ABC

%BLOCK POSITIONS_FRAC
  Li   0.1201914   0.0000000   0.2500000 SPIN=   0.00000
  Li  -0.1201914  -0.0000000  -0.2500000 SPIN=   0.00000
  Fe  -0.5000000   0.2416478  -0.0000000 SPIN=   4.00000
  Fe  -0.5000000  -0.2416478   0.5000000 SPIN=   4.00000
   O  -0.2489636  -0.3964418  -0.0804906 SPIN=   0.00000
   O   0.2776373  -0.3274907  -0.2491815 SPIN=   0.00000
   O   0.2489636   0.3964418   0.4195094 SPIN=   0.00000
   O  -0.2776373   0.3274907   0.2508185 SPIN=   0.00000
   O  -0.2489636   0.3964418  -0.4195094 SPIN=   0.00000
   O   0.2776373   0.3274907  -0.2508185 SPIN=   0.00000
   O   0.2489636  -0.3964418   0.0804906 SPIN=   0.00000
   O  -0.2776373  -0.3274907   0.2491815 SPIN=   0.00000
   S  -0.0000000   0.5000000  -0.2500000 SPIN=   0.00000
   S   0.0000000  -0.5000000   0.2500000 SPIN=   0.00000
   F   0.5000000  -0.0598253   0.0000000 SPIN=   0.00000
   F   0.5000000   0.0598253   0.5000000 SPIN=   0.00000
%ENDBLOCK POSITIONS_FRAC

# Note: total spin =   8.00

KPOINTS_MP_SPACING 0.07

%BLOCK SPECIES_POT
QC5
%ENDBLOCK SPECIES_POT

SNAP_TO_SYMMETRY
SYMMETRY_GENERATE

