#              Generated by Buildcell
#
# at 05:05:02 (GMT+1.0) 4th August 2020
# in /lustre/scratch/uccabz1/launch_tmp
# on node-c12d-028
# by uccabz1
#
# compiler GCC version 4.9.2
# options -cpp -iprefix /lustre/shared/ucl/apps/gcc/4.9.2/bin/../lib/gcc/x86_64-unknown-linux-gnu/4.9.2/ -mtune=corei7 -march=x86-64 -g -Og
#
# seed -1588061585 -2019020727  -826881003 -1067137533   329323726  -765470575 -1044343004   656638173  1605348634  -435403223  -896510172 -1711185902
#
#      Author: C. J. Pickard (cjp20@cam.ac.uk)
#                Space group: Pnn2
#

%BLOCK LATTICE_ABC
      3.91864      6.84221      7.45931
     90.00000     90.00000     90.00000
%ENDBLOCK LATTICE_ABC

%BLOCK POSITIONS_FRAC
  Li   0.5000000  -0.0000000   0.1094121 SPIN=   0.00000
  Li   0.0000000  -0.5000000  -0.3905879 SPIN=   0.00000
  Fe   0.5000000  -0.5000000  -0.0864272 SPIN=   4.00000
  Fe   0.0000000   0.0000000   0.4135728 SPIN=   4.00000
   O  -0.0317980   0.1712209   0.1170674 SPIN=   0.00000
   O  -0.5150375   0.1760356  -0.0965079 SPIN=   0.00000
   O   0.0317980  -0.1712209   0.1170674 SPIN=   0.00000
   O   0.5150375  -0.1760356  -0.0965079 SPIN=   0.00000
   O  -0.4682020  -0.3287791  -0.3829326 SPIN=   0.00000
   O   0.0150375  -0.3239644  -0.5965079 SPIN=   0.00000
   O   0.4682020   0.3287791  -0.3829326 SPIN=   0.00000
   O  -0.0150375   0.3239644  -0.5965079 SPIN=   0.00000
   S   0.0000000   0.0000000  -0.1421511 SPIN=   0.00000
   S   0.5000000   0.5000000   0.3578489 SPIN=   0.00000
   F   0.0000000  -0.5000000  -0.1200089 SPIN=   0.00000
   F   0.5000000   0.0000000   0.3799911 SPIN=   0.00000
%ENDBLOCK POSITIONS_FRAC

# Note: total spin =   8.00

KPOINTS_MP_SPACING 0.07

%BLOCK SPECIES_POT
QC5
%ENDBLOCK SPECIES_POT

SNAP_TO_SYMMETRY
SYMMETRY_GENERATE

