#              Generated by Buildcell
#
# at 03:44:41 (GMT+1.0) 4th August 2020
# in /lustre/scratch/uccabz1/launch_tmp
# on node-c12p-018
# by uccabz1
#
# compiler GCC version 4.9.2
# options -cpp -iprefix /lustre/shared/ucl/apps/gcc/4.9.2/bin/../lib/gcc/x86_64-unknown-linux-gnu/4.9.2/ -mtune=corei7 -march=x86-64 -g -Og
#
# seed  -851626829  1426313321  1875532279   398929827 -1009525564 -2027435763  2081316954  -143806533  -518576029 -1738996396   201560172  1902702973
#
#      Author: C. J. Pickard (cjp20@cam.ac.uk)
#                Space group: Pc
#

%BLOCK LATTICE_ABC
      4.09782      6.60201      7.65510
    105.04638     90.00000     90.00000
%ENDBLOCK LATTICE_ABC

%BLOCK POSITIONS_FRAC
  Li  -0.2617963  -0.3572896  -0.4667733 SPIN=   0.00000
  Li   0.2617963   0.1427104  -0.4667733 SPIN=   0.00000
  Fe   0.2096340  -0.2750383  -0.1307233 SPIN=   4.00000
  Fe  -0.2096340   0.2249617  -0.1307233 SPIN=   4.00000
   O   0.0916312   0.7025688   0.3565069 SPIN=   0.00000
   O   0.3755151   0.3851342   0.3928191 SPIN=   0.00000
   O   0.5319498   0.5419431   0.1442858 SPIN=   0.00000
   O   0.0009090   0.3608055   0.1345902 SPIN=   0.00000
   S   0.2500013   0.4976129   0.2570505 SPIN=   0.00000
   O  -0.0916312   0.2025688   0.3565069 SPIN=   0.00000
   O  -0.3755151  -0.1148658   0.3928191 SPIN=   0.00000
   O  -0.5319498   0.0419431   0.1442858 SPIN=   0.00000
   O  -0.0009090  -0.1391945   0.1345902 SPIN=   0.00000
   S  -0.2500013  -0.0023871   0.2570505 SPIN=   0.00000
   F   0.2780486   0.1920160  -0.2213290 SPIN=   0.00000
   F  -0.2780486  -0.3079840  -0.2213290 SPIN=   0.00000
%ENDBLOCK POSITIONS_FRAC

# Note: total spin =   8.00

KPOINTS_MP_SPACING 0.07

%BLOCK SPECIES_POT
QC5
%ENDBLOCK SPECIES_POT

SNAP_TO_SYMMETRY
SYMMETRY_GENERATE

