#              Generated by Buildcell
#
# at 02:12:22 (GMT+1.0) 4th August 2020
# in /lustre/scratch/uccabz1/launch_tmp
# on node-c12g-021
# by uccabz1
#
# compiler GCC version 4.9.2
# options -cpp -iprefix /lustre/shared/ucl/apps/gcc/4.9.2/bin/../lib/gcc/x86_64-unknown-linux-gnu/4.9.2/ -mtune=corei7 -march=x86-64 -g -Og
#
# seed -1310363716  -759798205    65717777   660297989  -610734233 -1196656362  1604502319 -1613625625 -1648960627   158312593   415555596  1283330256
#
#      Author: C. J. Pickard (cjp20@cam.ac.uk)
#                Space group: P-1
#

%BLOCK LATTICE_ABC
      3.97683      5.34001      9.91219
    100.27403     99.06159    100.10443
%ENDBLOCK LATTICE_ABC

%BLOCK POSITIONS_FRAC
  Li  -0.1544916  -0.2631296   0.2831842 SPIN=   0.00000
  Li   0.1544916   0.2631296  -0.2831842 SPIN=   0.00000
  Fe  -0.0000000   0.5000000   0.0000000 SPIN=   0.56407
  Fe   0.5000000   0.5000000   0.5000000 SPIN=   7.43593
   O  -0.7673991  -0.1122254  -0.1781548 SPIN=   0.00000
   O  -0.4023381   0.1110444  -0.3196016 SPIN=   0.00000
   O  -0.3140744  -0.3144147  -0.2715517 SPIN=   0.00000
   O  -0.1440617   0.0789529  -0.0808652 SPIN=   0.00000
   S  -0.4069683  -0.0591607  -0.2125433 SPIN=   0.00000
   O   0.7673991   0.1122254   0.1781548 SPIN=   0.00000
   O   0.4023381  -0.1110444   0.3196016 SPIN=   0.00000
   O   0.3140744   0.3144147   0.2715517 SPIN=   0.00000
   O   0.1440617  -0.0789529   0.0808652 SPIN=   0.00000
   S   0.4069683   0.0591607   0.2125433 SPIN=   0.00000
   F  -0.5000000   0.5000000   0.0000000 SPIN=   0.00000
   F   0.0000000   0.0000000   0.5000000 SPIN=   0.00000
%ENDBLOCK POSITIONS_FRAC

# Note: total spin =   8.00

KPOINTS_MP_SPACING 0.07

%BLOCK SPECIES_POT
QC5
%ENDBLOCK SPECIES_POT

SNAP_TO_SYMMETRY
SYMMETRY_GENERATE

