#              Generated by Buildcell
#
# at 03:47:36 (GMT+1.0) 4th August 2020
# in /lustre/scratch/uccabz1/launch_tmp
# on node-c12c-001
# by uccabz1
#
# compiler GCC version 4.9.2
# options -cpp -iprefix /lustre/shared/ucl/apps/gcc/4.9.2/bin/../lib/gcc/x86_64-unknown-linux-gnu/4.9.2/ -mtune=corei7 -march=x86-64 -g -Og
#
# seed    62275690   621102472   753054953  -512109103  -871932715  2101940540  1630865312  2014092280 -1103614672   841445996 -1655246241 -1798307393
#
#      Author: C. J. Pickard (cjp20@cam.ac.uk)
#                Space group: P2
#

%BLOCK LATTICE_ABC
      3.87232      7.22469      7.26551
    100.27929     90.00000     90.00000
%ENDBLOCK LATTICE_ABC

%BLOCK POSITIONS_FRAC
  Li   0.4271171   0.5000000   0.0000000 SPIN=   0.00000
  Li  -0.2452862   0.0000000   0.0000000 SPIN=   0.00000
  Fe   0.2541025  -0.1425453   0.2540691 SPIN=   4.00000
  Fe   0.2541025   0.1425453  -0.2540691 SPIN=   4.00000
   O  -0.4545490   0.2991233   0.2404107 SPIN=   0.00000
   O   0.0840761   0.3510068   0.4258077 SPIN=   0.00000
   O  -0.1547952   0.0296760   0.3375303 SPIN=   0.00000
   O  -0.4545170   0.2646714   0.5732587 SPIN=   0.00000
   S  -0.2449463   0.2361194   0.3942519 SPIN=   0.00000
   O  -0.4545490  -0.2991233  -0.2404107 SPIN=   0.00000
   O   0.0840761  -0.3510068  -0.4258077 SPIN=   0.00000
   O  -0.1547952  -0.0296760  -0.3375303 SPIN=   0.00000
   O  -0.4545170  -0.2646714  -0.5732587 SPIN=   0.00000
   S  -0.2449463  -0.2361194  -0.3942519 SPIN=   0.00000
   F  -0.0598285  -0.5000000  -0.0000000 SPIN=   0.00000
   F   0.2534541   0.0000000   0.0000000 SPIN=   0.00000
%ENDBLOCK POSITIONS_FRAC

# Note: total spin =   8.00

KPOINTS_MP_SPACING 0.07

%BLOCK SPECIES_POT
QC5
%ENDBLOCK SPECIES_POT

SNAP_TO_SYMMETRY
SYMMETRY_GENERATE

