#              Generated by Buildcell
#
# at 04:33:32 (GMT+1.0) 4th August 2020
# in /lustre/scratch/uccabz1/launch_tmp
# on node-c12c-021
# by uccabz1
#
# compiler GCC version 4.9.2
# options -cpp -iprefix /lustre/shared/ucl/apps/gcc/4.9.2/bin/../lib/gcc/x86_64-unknown-linux-gnu/4.9.2/ -mtune=corei7 -march=x86-64 -g -Og
#
# seed   609383877   793004797  1791941065  1929081094   507512655   596442150 -2030677607   311349261    16854516  1824144946  -313113303  1931514881
#
#      Author: C. J. Pickard (cjp20@cam.ac.uk)
#                Space group: Pc
#

%BLOCK LATTICE_ABC
      4.49699      5.39218      9.01236
     90.00000     90.00000    113.76894
%ENDBLOCK LATTICE_ABC

%BLOCK POSITIONS_FRAC
  Li  -0.0636855   0.2685590  -0.1566771 SPIN=   0.00000
  Li  -0.0636855  -0.2314410   0.1566771 SPIN=   0.00000
  Fe   0.2074527   0.4299983   0.3589785 SPIN=   4.00000
  Fe   0.2074527  -0.0700017  -0.3589785 SPIN=   4.00000
   O  -0.4655486  -0.7040143  -0.1075247 SPIN=   0.00000
   O  -0.1221032  -0.2150518  -0.0780390 SPIN=   0.00000
   O  -0.7155419  -0.3707474  -0.1138773 SPIN=   0.00000
   O  -0.3683761  -0.3941469  -0.3218457 SPIN=   0.00000
   S  -0.4178924  -0.4209901  -0.1553217 SPIN=   0.00000
   O  -0.4655486  -0.2040143   0.1075247 SPIN=   0.00000
   O  -0.1221032   0.2849482   0.0780390 SPIN=   0.00000
   O  -0.7155419   0.1292526   0.1138773 SPIN=   0.00000
   O  -0.3683761   0.1058531   0.3218457 SPIN=   0.00000
   S  -0.4178924   0.0790099   0.1553217 SPIN=   0.00000
   F  -0.1094319  -0.3173563   0.3616316 SPIN=   0.00000
   F  -0.1094319   0.1826437  -0.3616316 SPIN=   0.00000
%ENDBLOCK POSITIONS_FRAC

# Note: total spin =   8.00

KPOINTS_MP_SPACING 0.07

%BLOCK SPECIES_POT
QC5
%ENDBLOCK SPECIES_POT

SNAP_TO_SYMMETRY
SYMMETRY_GENERATE

