#              Generated by Buildcell
#
# at 23:50:54 (GMT+1.0) 18th August 2020
# in /lustre/scratch/uccabz1/launch_tmp
# on node-c12j-026
# by uccabz1
#
# compiler GCC version 4.9.2
# options -cpp -iprefix /lustre/shared/ucl/apps/gcc/4.9.2/bin/../lib/gcc/x86_64-unknown-linux-gnu/4.9.2/ -mtune=corei7 -march=x86-64 -g -Og
#
# seed  -136570613  1084274303  -723586290   171689544 -2125168360   495646763 -1873974484  1390371414  -346535302  2079190541  -442016527 -1535704457
#
#      Author: C. J. Pickard (cjp20@cam.ac.uk)
#                Space group: P2/c
#

%BLOCK LATTICE_ABC
      4.49992      5.68990      7.81130
     90.00000     90.00000     90.18307
%ENDBLOCK LATTICE_ABC

%BLOCK POSITIONS_FRAC
  Li  -0.2500000  -0.2500000  -0.3768225 SPIN=   0.00000
  Li   0.2500000   0.2500000   0.3768225 SPIN=   0.00000
  Fe   0.2500000   0.2500000  -0.1049463 SPIN=   4.00000
  Fe  -0.2500000  -0.2500000   0.1049463 SPIN=   4.00000
   O   0.0311054   0.0047306  -0.3569788 SPIN=   0.00000
   O  -0.0263871   0.4370048  -0.3654597 SPIN=   0.00000
   O   0.4688946   0.4952694  -0.3569788 SPIN=   0.00000
   O   0.5263871   0.0629952  -0.3654597 SPIN=   0.00000
   O  -0.0311054  -0.0047306   0.3569788 SPIN=   0.00000
   O   0.0263871  -0.4370048   0.3654597 SPIN=   0.00000
   O  -0.4688946  -0.4952694   0.3569788 SPIN=   0.00000
   O  -0.5263871  -0.0629952   0.3654597 SPIN=   0.00000
   S   0.2500000  -0.2500000   0.4146695 SPIN=   0.00000
   S  -0.2500000   0.2500000  -0.4146695 SPIN=   0.00000
   F   0.0000000  -0.0000000  -0.0000000 SPIN=   0.00000
   F  -0.5000000  -0.5000000  -0.0000000 SPIN=   0.00000
%ENDBLOCK POSITIONS_FRAC

# Note: total spin =   8.00

KPOINTS_MP_SPACING 0.07

%BLOCK SPECIES_POT
QC5
%ENDBLOCK SPECIES_POT

SNAP_TO_SYMMETRY
SYMMETRY_GENERATE

