#              Generated by Buildcell
#
# at 02:27:13 (GMT+1.0) 4th August 2020
# in /lustre/scratch/uccabz1/launch_tmp
# on node-c12g-026
# by uccabz1
#
# compiler GCC version 4.9.2
# options -cpp -iprefix /lustre/shared/ucl/apps/gcc/4.9.2/bin/../lib/gcc/x86_64-unknown-linux-gnu/4.9.2/ -mtune=corei7 -march=x86-64 -g -Og
#
# seed  1055732614  1416732724  1064486128 -1218146651  -212850398  1386022279   345962869  1700377234   605625161  1054762499  1322182507  -317890999
#
#      Author: C. J. Pickard (cjp20@cam.ac.uk)
#                Space group: P-1
#

%BLOCK LATTICE_ABC
      4.95072      6.10127      6.95678
     75.66116     80.71088     82.45617
%ENDBLOCK LATTICE_ABC

%BLOCK POSITIONS_FRAC
  Li   0.1935236   0.1247027   0.1651654 SPIN=   0.00000
  Li  -0.1935236  -0.1247027  -0.1651654 SPIN=   0.00000
  Fe  -0.3051391   0.2419454   0.4561079 SPIN=   4.00000
  Fe   0.3051391  -0.2419454  -0.4561079 SPIN=   4.00000
   O   0.0945240   0.0723992  -0.3362814 SPIN=   0.00000
   O   0.0896334   0.4806612  -0.3441899 SPIN=   0.00000
   O   0.3920287   0.1952767  -0.1366945 SPIN=   0.00000
   O  -0.1123120   0.2186645  -0.0385804 SPIN=   0.00000
   S   0.1159685   0.2417504  -0.2139366 SPIN=   0.00000
   O  -0.0945240  -0.0723992   0.3362814 SPIN=   0.00000
   O  -0.0896334  -0.4806612   0.3441899 SPIN=   0.00000
   O  -0.3920287  -0.1952767   0.1366945 SPIN=   0.00000
   O   0.1123120  -0.2186645   0.0385804 SPIN=   0.00000
   S  -0.1159685  -0.2417504   0.2139366 SPIN=   0.00000
   F  -0.4500665  -0.2919129  -0.2604309 SPIN=   0.00000
   F   0.4500665   0.2919129   0.2604309 SPIN=   0.00000
%ENDBLOCK POSITIONS_FRAC

# Note: total spin =   8.00

KPOINTS_MP_SPACING 0.07

%BLOCK SPECIES_POT
QC5
%ENDBLOCK SPECIES_POT

SNAP_TO_SYMMETRY
SYMMETRY_GENERATE

