#              Generated by Buildcell
#
# at 20:30:12 (GMT+1.0) 18th August 2020
# in /lustre/scratch/uccabz1/launch_tmp
# on node-c12l-030
# by uccabz1
#
# compiler GCC version 4.9.2
# options -cpp -iprefix /lustre/shared/ucl/apps/gcc/4.9.2/bin/../lib/gcc/x86_64-unknown-linux-gnu/4.9.2/ -mtune=corei7 -march=x86-64 -g -Og
#
# seed -2127815062   617509572   166004477  -330478212  1780367130   -25439623  1170810100 -1955037214  -562823227   394523390   342577160   474495881
#
#      Author: C. J. Pickard (cjp20@cam.ac.uk)
#                Space group: P21
#

%BLOCK LATTICE_ABC
      4.86838      5.84508      7.23496
    103.72440     90.00000     90.00000
%ENDBLOCK LATTICE_ABC

%BLOCK POSITIONS_FRAC
  Li   0.2344002  -0.2642205   0.2149129 SPIN=   0.00000
  Li  -0.2655998   0.2642205  -0.2149129 SPIN=   0.00000
  Fe   0.2087755  -0.0993047  -0.3528081 SPIN=   4.00000
  Fe  -0.2912245   0.0993047   0.3528081 SPIN=   4.00000
   O  -0.1613805  -0.4105358  -0.2643518 SPIN=   0.00000
   O  -0.2736336  -0.0017749  -0.0944020 SPIN=   0.00000
   O  -0.1411280  -0.2938821   0.0873182 SPIN=   0.00000
   O  -0.5904170  -0.3271359  -0.0769525 SPIN=   0.00000
   S  -0.2916398  -0.2583321  -0.0870970 SPIN=   0.00000
   O   0.3386195   0.4105358   0.2643518 SPIN=   0.00000
   O   0.2263664   0.0017749   0.0944020 SPIN=   0.00000
   O   0.3588720   0.2938821  -0.0873182 SPIN=   0.00000
   O  -0.0904170   0.3271359   0.0769525 SPIN=   0.00000
   S   0.2083602   0.2583321   0.0870970 SPIN=   0.00000
   F   0.4536279   0.2288650  -0.4407627 SPIN=   0.00000
   F  -0.0463721  -0.2288650   0.4407627 SPIN=   0.00000
%ENDBLOCK POSITIONS_FRAC

# Note: total spin =   8.00

KPOINTS_MP_SPACING 0.07

%BLOCK SPECIES_POT
QC5
%ENDBLOCK SPECIES_POT

SNAP_TO_SYMMETRY
SYMMETRY_GENERATE

