#              Generated by Buildcell
#
# at 21:34:20 (GMT+1.0) 18th August 2020
# in /lustre/scratch/uccabz1/launch_tmp
# on node-c12c-009
# by uccabz1
#
# compiler GCC version 4.9.2
# options -cpp -iprefix /lustre/shared/ucl/apps/gcc/4.9.2/bin/../lib/gcc/x86_64-unknown-linux-gnu/4.9.2/ -mtune=corei7 -march=x86-64 -g -Og
#
# seed   446748730  -688747923  1813023828   809665214  -749311548   313627417  -302269895   848827565  1605063120  1331597453 -1098098191 -1332993636
#
#      Author: C. J. Pickard (cjp20@cam.ac.uk)
#                Space group: Cm
#

%BLOCK LATTICE_ABC
      5.89893      5.89893      5.92893
     80.01246     80.01246     86.46968
%ENDBLOCK LATTICE_ABC

%BLOCK POSITIONS_FRAC
  Li  -0.2123470  -0.2123470  -0.4093167 SPIN=   0.00000
  Li   0.2187416   0.2187416   0.3888972 SPIN=   0.00000
  Fe  -0.2879806   0.1887067   0.2282629 SPIN=   4.00000
  Fe   0.1887067  -0.2879806   0.2282629 SPIN=   4.00000
   O  -0.2856859   0.4279963  -0.1003722 SPIN=   0.00000
   O  -0.1990942   0.0862745  -0.2946128 SPIN=   0.00000
   O   0.0943640   0.3810386  -0.3437494 SPIN=   0.00000
   S  -0.1610733   0.3414607  -0.3164999 SPIN=   0.00000
   O   0.4279963  -0.2856859  -0.1003722 SPIN=   0.00000
   O   0.0862745  -0.1990942  -0.2946128 SPIN=   0.00000
   O   0.3810386   0.0943640  -0.3437494 SPIN=   0.00000
   S   0.3414607  -0.1610733  -0.3164999 SPIN=   0.00000
   O   0.4810546   0.4810546  -0.4574379 SPIN=   0.00000
   O  -0.0043551  -0.0043551   0.3559792 SPIN=   0.00000
   F  -0.2601091  -0.2601091   0.1740606 SPIN=   0.00000
   F   0.2811339   0.2811339   0.0500797 SPIN=   0.00000
%ENDBLOCK POSITIONS_FRAC

# Note: total spin =   8.00

KPOINTS_MP_SPACING 0.07

%BLOCK SPECIES_POT
QC5
%ENDBLOCK SPECIES_POT

SNAP_TO_SYMMETRY
SYMMETRY_GENERATE

