#              Generated by Buildcell
#
# at 02:41:51 (GMT+1.0) 4th August 2020
# in /lustre/scratch/uccabz1/launch_tmp
# on node-c12c-030
# by uccabz1
#
# compiler GCC version 4.9.2
# options -cpp -iprefix /lustre/shared/ucl/apps/gcc/4.9.2/bin/../lib/gcc/x86_64-unknown-linux-gnu/4.9.2/ -mtune=corei7 -march=x86-64 -g -Og
#
# seed    73164363  1912384904 -1475010159 -1350311417 -2060027978  1689180205  1617281460 -1689826118  -586439686 -1846921195   711875824  -392963179
#
#      Author: C. J. Pickard (cjp20@cam.ac.uk)
#                Space group: P21
#

%BLOCK LATTICE_ABC
      3.95918      5.65647      8.96300
     90.00000     90.00000     94.87593
%ENDBLOCK LATTICE_ABC

%BLOCK POSITIONS_FRAC
  Li   0.2201601  -0.2382978  -0.0230954 SPIN=   0.00000
  Li  -0.2201601   0.2382978   0.4769046 SPIN=   0.00000
  Fe  -0.4816273   0.3995473  -0.2240810 SPIN=   4.00000
  Fe   0.4816273  -0.3995473   0.2759190 SPIN=   4.00000
   O   0.0429726  -0.2949687  -0.2387345 SPIN=   0.00000
   O  -0.4358219  -0.0579140  -0.2999934 SPIN=   0.00000
   O   0.0820529  -0.0236639  -0.4558328 SPIN=   0.00000
   O   0.0979726   0.1397002  -0.1995370 SPIN=   0.00000
   S  -0.0532060  -0.0592116  -0.2985244 SPIN=   0.00000
   O  -0.0429726   0.2949687   0.2612655 SPIN=   0.00000
   O   0.4358219   0.0579140   0.2000066 SPIN=   0.00000
   O  -0.0820529   0.0236639   0.0441672 SPIN=   0.00000
   O  -0.0979726  -0.1397002   0.3004630 SPIN=   0.00000
   S   0.0532060   0.0592116   0.2014756 SPIN=   0.00000
   F  -0.3892725  -0.4671117   0.0071606 SPIN=   0.00000
   F   0.3892725   0.4671117  -0.4928394 SPIN=   0.00000
%ENDBLOCK POSITIONS_FRAC

# Note: total spin =   8.00

KPOINTS_MP_SPACING 0.07

%BLOCK SPECIES_POT
QC5
%ENDBLOCK SPECIES_POT

SNAP_TO_SYMMETRY
SYMMETRY_GENERATE

