#              Generated by Buildcell
#
# at 02:53:18 (GMT+1.0) 19th August 2020
# in /lustre/scratch/uccabz1/launch_tmp
# on node-c12a-018
# by uccabz1
#
# compiler GCC version 4.9.2
# options -cpp -iprefix /lustre/shared/ucl/apps/gcc/4.9.2/bin/../lib/gcc/x86_64-unknown-linux-gnu/4.9.2/ -mtune=corei7 -march=x86-64 -g -Og
#
# seed  -203520595  -405342883  -360249919  -620101153   -91205364 -1847242447 -1444603351 -1478212730   404104049  -252584460  -870799400   542765289
#
#      Author: C. J. Pickard (cjp20@cam.ac.uk)
#                Space group: P21
#

%BLOCK LATTICE_ABC
      4.85820      6.37811      6.75182
     90.00000     90.00000    107.06655
%ENDBLOCK LATTICE_ABC

%BLOCK POSITIONS_FRAC
  Li  -0.4088508  -0.2682127   0.0774404 SPIN=   0.00000
  Li   0.4088508   0.2682127  -0.4225596 SPIN=   0.00000
  Fe   0.4104349   0.2336372   0.1260988 SPIN=   4.00000
  Fe  -0.4104349  -0.2336372  -0.3739012 SPIN=   4.00000
   O   0.0729033   0.2975298  -0.0228398 SPIN=   0.00000
   O  -0.3449717   0.3967659  -0.1592906 SPIN=   0.00000
   O  -0.2004091   0.0889360  -0.3049766 SPIN=   0.00000
   O   0.1055969   0.4708543  -0.3533816 SPIN=   0.00000
   S  -0.0917201   0.3135215  -0.2101222 SPIN=   0.00000
   O  -0.0729033  -0.2975298   0.4771602 SPIN=   0.00000
   O   0.3449717  -0.3967659   0.3407094 SPIN=   0.00000
   O   0.2004091  -0.0889360   0.1950234 SPIN=   0.00000
   O  -0.1055969  -0.4708543   0.1466184 SPIN=   0.00000
   S   0.0917201  -0.3135215   0.2898778 SPIN=   0.00000
   F   0.2445335  -0.1113623  -0.2040731 SPIN=   0.00000
   F  -0.2445335   0.1113623   0.2959269 SPIN=   0.00000
%ENDBLOCK POSITIONS_FRAC

# Note: total spin =   8.00

KPOINTS_MP_SPACING 0.07

%BLOCK SPECIES_POT
QC5
%ENDBLOCK SPECIES_POT

SNAP_TO_SYMMETRY
SYMMETRY_GENERATE

