#              Generated by Buildcell
#
# at 02:47:06 (GMT+1.0) 4th August 2020
# in /lustre/scratch/uccabz1/launch_tmp
# on node-c12n-016
# by uccabz1
#
# compiler GCC version 4.9.2
# options -cpp -iprefix /lustre/shared/ucl/apps/gcc/4.9.2/bin/../lib/gcc/x86_64-unknown-linux-gnu/4.9.2/ -mtune=corei7 -march=x86-64 -g -Og
#
# seed   -43214745   -38508722  -659506788  1542576971  -323214613  1880976091 -1111367637  -726856718 -1740371373  -789198394   505286750  1388216963
#
#      Author: C. J. Pickard (cjp20@cam.ac.uk)
#                Space group: C2
#

%BLOCK LATTICE_ABC
      3.97479      7.67659      7.78341
    119.54703    102.60716     90.00000
%ENDBLOCK LATTICE_ABC

%BLOCK POSITIONS_FRAC
  Li  -0.4009301  -0.2235207  -0.3554435 SPIN=   0.00000
  Li   0.4009301   0.1319227   0.3554435 SPIN=   0.00000
  Fe  -0.1507246   0.3365307   0.2336553 SPIN=   4.00000
  Fe   0.1507246   0.1028754  -0.2336553 SPIN=   4.00000
   O   0.2374373  -0.5557720  -0.1199010 SPIN=   0.00000
   O  -0.0721186  -0.3011336  -0.1755484 SPIN=   0.00000
   O  -0.1886703  -0.6605371  -0.4480643 SPIN=   0.00000
   O   0.3749620  -0.4616953  -0.3609639 SPIN=   0.00000
   S   0.0879026  -0.4947845  -0.2761194 SPIN=   0.00000
   O  -0.2374373  -0.4358710   0.1199010 SPIN=   0.00000
   O   0.0721186  -0.1255852   0.1755484 SPIN=   0.00000
   O   0.1886703  -0.2124729   0.4480643 SPIN=   0.00000
   O  -0.3749620  -0.1007314   0.3609639 SPIN=   0.00000
   S  -0.0879026  -0.2186651   0.2761194 SPIN=   0.00000
   F  -0.3569415   0.1050838  -0.2353394 SPIN=   0.00000
   F   0.3569415   0.3404232   0.2353394 SPIN=   0.00000
%ENDBLOCK POSITIONS_FRAC

# Note: total spin =   8.00

KPOINTS_MP_SPACING 0.07

%BLOCK SPECIES_POT
QC5
%ENDBLOCK SPECIES_POT

SNAP_TO_SYMMETRY
SYMMETRY_GENERATE

