#              Generated by Buildcell
#
# at 01:36:53 (GMT+1.0) 4th August 2020
# in /lustre/scratch/uccabz1/launch_tmp
# on node-c12l-015
# by uccabz1
#
# compiler GCC version 4.9.2
# options -cpp -iprefix /lustre/shared/ucl/apps/gcc/4.9.2/bin/../lib/gcc/x86_64-unknown-linux-gnu/4.9.2/ -mtune=corei7 -march=x86-64 -g -Og
#
# seed -1703625754 -1321189690  2026308030  1863020455   712603798    84784209  1469256793 -1557481662  1564599844  -186729146  -415151893 -1727935322
#
#      Author: C. J. Pickard (cjp20@cam.ac.uk)
#                Space group: Pnc2
#

%BLOCK LATTICE_ABC
      3.90125      6.47825      7.91350
     90.00000     90.00000     90.00000
%ENDBLOCK LATTICE_ABC

%BLOCK POSITIONS_FRAC
  Li   0.0000000  -0.0000000  -0.1603850 SPIN=   0.00000
  Li   0.0000000  -0.5000000   0.3396150 SPIN=   0.00000
  Fe   0.5000000  -0.0000000  -0.4736249 SPIN=   4.00000
  Fe   0.5000000  -0.5000000   0.0263751 SPIN=   4.00000
   O   0.0526795  -0.3118537  -0.1095574 SPIN=   0.00000
   O   0.4897696  -0.1880209   0.0931708 SPIN=   0.00000
   O  -0.0526795   0.3118537  -0.1095574 SPIN=   0.00000
   O  -0.4897696   0.1880209   0.0931708 SPIN=   0.00000
   O   0.0526795  -0.1881463   0.3904426 SPIN=   0.00000
   O   0.4897696  -0.3119791   0.5931708 SPIN=   0.00000
   O  -0.0526795   0.1881463   0.3904426 SPIN=   0.00000
   O  -0.4897696   0.3119791   0.5931708 SPIN=   0.00000
   S   0.0000000  -0.0000000   0.2033012 SPIN=   0.00000
   S   0.0000000   0.5000000  -0.2966988 SPIN=   0.00000
   F  -0.5000000   0.0000000  -0.1986090 SPIN=   0.00000
   F  -0.5000000  -0.5000000   0.3013910 SPIN=   0.00000
%ENDBLOCK POSITIONS_FRAC

# Note: total spin =   8.00

KPOINTS_MP_SPACING 0.07

%BLOCK SPECIES_POT
QC5
%ENDBLOCK SPECIES_POT

SNAP_TO_SYMMETRY
SYMMETRY_GENERATE

