#              Generated by Buildcell
#
# at 22:10:55 (GMT+1.0) 18th August 2020
# in /scratch/scratch/uccabz1/launch_tmp
# on node-k10c-029
# by uccabz1
#
# compiler GCC version 4.9.2
# options -cpp -iprefix /scratch/UCL/applications/gcc/4.9.2/bin/../lib/gcc/x86_64-unknown-linux-gnu/4.9.2/ -mtune=corei7 -march=x86-64 -g -O2
#
# seed  -413545006   380042547  -910322262  1200132086  -719307186 -2075238225   626862209  -647378830 -1680972973 -1082321196   815298538 -1481796548
#
#      Author: C. J. Pickard (cjp20@cam.ac.uk)
#                Space group: I212121
#

%BLOCK LATTICE_ABC
      6.42441      6.42441      6.42441
    102.20128    108.41906    118.20896
%ENDBLOCK LATTICE_ABC

%BLOCK POSITIONS_FRAC
  Li   0.1422572   0.2500000   0.3922572 SPIN=   0.00000
  Li   0.3577428  -0.2500000   0.1077428 SPIN=   0.00000
  Fe  -0.2500000   0.4048900  -0.3451100 SPIN=   4.00000
  Fe   0.2500000   0.0951100  -0.1548900 SPIN=   4.00000
   O  -0.3449380  -0.2943836  -0.3786753 SPIN=   0.00000
   O   0.0422246  -0.1809851  -0.0120247 SPIN=   0.00000
   O  -0.0842917  -0.2056164  -0.5505544 SPIN=   0.00000
   O   0.1689604  -0.3190149  -0.2767903 SPIN=   0.00000
   O  -0.1550620   0.4662627   0.0505544 SPIN=   0.00000
   O  -0.5422246   0.4457507  -0.2232097 SPIN=   0.00000
   O   0.5842917   0.0337373  -0.1213247 SPIN=   0.00000
   O   0.3310396   0.0542493  -0.4879753 SPIN=   0.00000
   S  -0.4759272  -0.2259272  -0.2500000 SPIN=   0.00000
   S  -0.0240728  -0.2740728   0.2500000 SPIN=   0.00000
   F  -0.2500000   0.1504109   0.4004109 SPIN=   0.00000
   F   0.2500000   0.3495891   0.0995891 SPIN=   0.00000
%ENDBLOCK POSITIONS_FRAC

# Note: total spin =   8.00

KPOINTS_MP_SPACING 0.07

%BLOCK SPECIES_POT
QC5
%ENDBLOCK SPECIES_POT

SNAP_TO_SYMMETRY
SYMMETRY_GENERATE

