#              Generated by Buildcell
#
# at 00:49:17 (GMT+1.0) 19th August 2020
# in /lustre/scratch/uccabz1/launch_tmp
# on node-c12p-014
# by uccabz1
#
# compiler GCC version 4.9.2
# options -cpp -iprefix /lustre/shared/ucl/apps/gcc/4.9.2/bin/../lib/gcc/x86_64-unknown-linux-gnu/4.9.2/ -mtune=corei7 -march=x86-64 -g -Og
#
# seed  1855250105 -1866620316  -225100659 -2017062477  -353744022 -1289698612   975471271 -2101997764 -1007613101 -1635017429  1141645575  -723051294
#
#      Author: C. J. Pickard (cjp20@cam.ac.uk)
#                Space group: C2
#

%BLOCK LATTICE_ABC
      5.53777      5.53777      7.08340
    105.90895    105.90895     90.71684
%ENDBLOCK LATTICE_ABC

%BLOCK POSITIONS_FRAC
  Li  -0.1978130  -0.3610618  -0.0654648 SPIN=   0.00000
  Li   0.3610618   0.1978130   0.0654648 SPIN=   0.00000
  Fe  -0.1804920  -0.3330602   0.3815143 SPIN=   4.00000
  Fe   0.3330602   0.1804920  -0.3815143 SPIN=   4.00000
   O  -0.3861601  -0.0459054  -0.4795543 SPIN=   0.00000
   O  -0.0627207  -0.1453961  -0.1994093 SPIN=   0.00000
   O  -0.4274140   0.0758816  -0.1273494 SPIN=   0.00000
   O  -0.0948411   0.2969669  -0.2081979 SPIN=   0.00000
   O   0.0459054   0.3861601   0.4795543 SPIN=   0.00000
   O   0.1453961   0.0627207   0.1994093 SPIN=   0.00000
   O  -0.0758816   0.4274140   0.1273494 SPIN=   0.00000
   O  -0.2969669   0.0948411   0.2081979 SPIN=   0.00000
   S  -0.1651746   0.1651746   0.0000000 SPIN=   0.00000
   S   0.3283489  -0.3283489   0.0000000 SPIN=   0.00000
   F   0.0871527  -0.0871527   0.5000000 SPIN=   0.00000
   F  -0.4197420   0.4197420  -0.5000000 SPIN=   0.00000
%ENDBLOCK POSITIONS_FRAC

# Note: total spin =   8.00

KPOINTS_MP_SPACING 0.07

%BLOCK SPECIES_POT
QC5
%ENDBLOCK SPECIES_POT

SNAP_TO_SYMMETRY
SYMMETRY_GENERATE

