#              Generated by Buildcell
#
# at 01:28:01 (GMT+1.0) 19th August 2020
# in /lustre/scratch/uccabz1/launch_tmp
# on node-c12p-025
# by uccabz1
#
# compiler GCC version 4.9.2
# options -cpp -iprefix /lustre/shared/ucl/apps/gcc/4.9.2/bin/../lib/gcc/x86_64-unknown-linux-gnu/4.9.2/ -mtune=corei7 -march=x86-64 -g -Og
#
# seed  -622039264   573153724   -78537452  1505113069   967686592   724284934   -36094009 -2133862262 -1770956211  -398648617  1360820163 -2034395059
#
#      Author: C. J. Pickard (cjp20@cam.ac.uk)
#                Space group: Cc
#

%BLOCK LATTICE_ABC
      4.39486      6.70027      7.21878
     88.31080     84.84317     70.85491
%ENDBLOCK LATTICE_ABC

%BLOCK POSITIONS_FRAC
  Li  -0.3999349  -0.2449706   0.1140680 SPIN=   0.00000
  Li   0.3550945   0.2449706  -0.3859320 SPIN=   0.00000
  Fe  -0.0185957  -0.0630824   0.3364917 SPIN=   4.00000
  Fe  -0.0816781   0.0630824  -0.1635083 SPIN=   4.00000
   O   0.6146819   0.3685456   0.1598727 SPIN=   0.00000
   O   0.0376587   0.4513872   0.2715986 SPIN=   0.00000
   O   0.4020575   0.0804945   0.2629304 SPIN=   0.00000
   O   0.2441296   0.2709501  -0.0306307 SPIN=   0.00000
   S   0.3246319   0.2928443   0.1659428 SPIN=   0.00000
   O  -0.0167725  -0.3685456  -0.3401273 SPIN=   0.00000
   O  -0.5109541  -0.4513872  -0.2284014 SPIN=   0.00000
   O  -0.5174480  -0.0804945  -0.2370696 SPIN=   0.00000
   O  -0.4849203  -0.2709501  -0.5306307 SPIN=   0.00000
   S  -0.3825237  -0.2928443  -0.3340572 SPIN=   0.00000
   F  -0.1023666   0.1628183  -0.4356869 SPIN=   0.00000
   F   0.0604517  -0.1628183   0.0643131 SPIN=   0.00000
%ENDBLOCK POSITIONS_FRAC

# Note: total spin =   8.00

KPOINTS_MP_SPACING 0.07

%BLOCK SPECIES_POT
QC5
%ENDBLOCK SPECIES_POT

SNAP_TO_SYMMETRY
SYMMETRY_GENERATE

