#              Generated by Buildcell
#
# at 23:50:12 (GMT+1.0) 18th August 2020
# in /lustre/scratch/uccabz1/launch_tmp
# on node-c12g-023
# by uccabz1
#
# compiler GCC version 4.9.2
# options -cpp -iprefix /lustre/shared/ucl/apps/gcc/4.9.2/bin/../lib/gcc/x86_64-unknown-linux-gnu/4.9.2/ -mtune=corei7 -march=x86-64 -g -Og
#
# seed  1212926378 -2136073706   853333897 -1489077719   694216662 -1721601945   552416767  -221575033  1752582330 -2085738423 -1726411822   373523722
#
#      Author: C. J. Pickard (cjp20@cam.ac.uk)
#                Space group: P21
#

%BLOCK LATTICE_ABC
      4.11079      4.35192     12.60614
     90.00000     90.00000    117.52201
%ENDBLOCK LATTICE_ABC

%BLOCK POSITIONS_FRAC
  Li   0.4380513  -0.2311413  -0.0069004 SPIN=   0.00000
  Li  -0.4380513   0.2311413   0.4930996 SPIN=   0.00000
  Fe   0.1434749   0.0221865   0.2834148 SPIN=   4.00000
  Fe  -0.1434749  -0.0221865  -0.2165852 SPIN=   4.00000
   O  -0.3218783   0.6444688   0.1019145 SPIN=   0.00000
   O   0.1192627   0.5127028   0.2005661 SPIN=   0.00000
   O  -0.0170537   0.3408838   0.0121912 SPIN=   0.00000
   O  -0.4869808   0.0385493   0.1498422 SPIN=   0.00000
   S  -0.1766625   0.3841512   0.1161285 SPIN=   0.00000
   O   0.3218783  -0.6444688  -0.3980855 SPIN=   0.00000
   O  -0.1192627  -0.5127028  -0.2994339 SPIN=   0.00000
   O   0.0170537  -0.3408838  -0.4878088 SPIN=   0.00000
   O   0.4869808  -0.0385493  -0.3501578 SPIN=   0.00000
   S   0.1766625  -0.3841512  -0.3838715 SPIN=   0.00000
   F  -0.2598007   0.0412048   0.3878840 SPIN=   0.00000
   F   0.2598007  -0.0412048  -0.1121160 SPIN=   0.00000
%ENDBLOCK POSITIONS_FRAC

# Note: total spin =   8.00

KPOINTS_MP_SPACING 0.07

%BLOCK SPECIES_POT
QC5
%ENDBLOCK SPECIES_POT

SNAP_TO_SYMMETRY
SYMMETRY_GENERATE

