#              Generated by Buildcell
#
# at 02:39:05 (GMT+1.0) 4th August 2020
# in /lustre/scratch/uccabz1/launch_tmp
# on node-c12g-008
# by uccabz1
#
# compiler GCC version 4.9.2
# options -cpp -iprefix /lustre/shared/ucl/apps/gcc/4.9.2/bin/../lib/gcc/x86_64-unknown-linux-gnu/4.9.2/ -mtune=corei7 -march=x86-64 -g -Og
#
# seed   344655078 -1640543637   844626888 -1884375370   808435524  1203438064  2046169561  -936879564  1133045986 -2040248896 -1586630483 -1962644161
#
#      Author: C. J. Pickard (cjp20@cam.ac.uk)
#                Space group: C2
#

%BLOCK LATTICE_ABC
      4.73157      6.12615      7.70376
     84.69944     76.15968     67.28310
%ENDBLOCK LATTICE_ABC

%BLOCK POSITIONS_FRAC
  Li  -0.0107497   0.0214993  -0.0000000 SPIN=   0.00000
  Li   0.2752976  -0.5505951   0.5000000 SPIN=   0.00000
  Fe  -0.2873886   0.5039920  -0.2326829 SPIN=   4.00000
  Fe  -0.2166035   0.5039920   0.2326829 SPIN=   4.00000
   O   0.6020408  -0.8458829  -0.4278368 SPIN=   0.00000
   O   0.6541463  -1.1375893  -0.1810514 SPIN=   0.00000
   O   0.1435899  -0.9413455  -0.2687380 SPIN=   0.00000
   S   0.4360151  -0.9093231  -0.2483520 SPIN=   0.00000
   O   0.2438421  -0.8458829   0.4278368 SPIN=   0.00000
   O   0.4834430  -1.1375893   0.1810514 SPIN=   0.00000
   O   0.7977556  -0.9413455   0.2687380 SPIN=   0.00000
   S   0.4733081  -0.9093231   0.2483520 SPIN=   0.00000
   O   0.4103938  -0.8207876   0.0000000 SPIN=   0.00000
   O   0.0714610  -0.1429220  -0.5000000 SPIN=   0.00000
   F  -0.2910106   0.5820211   0.5000000 SPIN=   0.00000
   F   0.1593025  -0.3186051   0.0000000 SPIN=   0.00000
%ENDBLOCK POSITIONS_FRAC

# Note: total spin =   8.00

KPOINTS_MP_SPACING 0.07

%BLOCK SPECIES_POT
QC5
%ENDBLOCK SPECIES_POT

SNAP_TO_SYMMETRY
SYMMETRY_GENERATE

