#              Generated by Buildcell
#
# at 02:24:19 (GMT+1.0) 4th August 2020
# in /lustre/scratch/uccabz1/launch_tmp
# on node-c12e-010
# by uccabz1
#
# compiler GCC version 4.9.2
# options -cpp -iprefix /lustre/shared/ucl/apps/gcc/4.9.2/bin/../lib/gcc/x86_64-unknown-linux-gnu/4.9.2/ -mtune=corei7 -march=x86-64 -g -Og
#
# seed  -739632143  -979996823 -1899527830 -1412172421   -43046166   423934448 -2108099337  -987026736  1415577761  1372354032  -731136994   931977070
#
#      Author: C. J. Pickard (cjp20@cam.ac.uk)
#                Space group: Pc
#

%BLOCK LATTICE_ABC
      5.47037      6.01992      6.15300
     99.23328     90.00000     90.00000
%ENDBLOCK LATTICE_ABC

%BLOCK POSITIONS_FRAC
  Li   0.4664685  -0.0821956  -0.4677052 SPIN=   0.00000
  Li  -0.4664685   0.4178044   0.0322948 SPIN=   0.00000
  Fe   0.2081606   0.3569861   0.4301972 SPIN=   4.00000
  Fe  -0.2081606  -0.1430139  -0.0698028 SPIN=   4.00000
   O  -0.1012788   0.0639537   0.5850401 SPIN=   0.00000
   O  -0.2371640  -0.2680281   0.3221925 SPIN=   0.00000
   O   0.1243811  -0.2957442   0.5581468 SPIN=   0.00000
   O   0.1466334  -0.0726586   0.2540803 SPIN=   0.00000
   S  -0.0168571  -0.1431193   0.4298649 SPIN=   0.00000
   O   0.1012788   0.5639537   0.0850401 SPIN=   0.00000
   O   0.2371640   0.2319719  -0.1778075 SPIN=   0.00000
   O  -0.1243811   0.2042558   0.0581468 SPIN=   0.00000
   O  -0.1466334   0.4273414  -0.2459197 SPIN=   0.00000
   S   0.0168571   0.3568807  -0.0701351 SPIN=   0.00000
   F  -0.4926289  -0.2853207  -0.2055957 SPIN=   0.00000
   F   0.4926289   0.2146793   0.2944043 SPIN=   0.00000
%ENDBLOCK POSITIONS_FRAC

# Note: total spin =   8.00

KPOINTS_MP_SPACING 0.07

%BLOCK SPECIES_POT
QC5
%ENDBLOCK SPECIES_POT

SNAP_TO_SYMMETRY
SYMMETRY_GENERATE

