#              Generated by Buildcell
#
# at 05:35:33 (GMT+1.0) 4th August 2020
# in /lustre/scratch/uccabz1/launch_tmp
# on node-c12g-019
# by uccabz1
#
# compiler GCC version 4.9.2
# options -cpp -iprefix /lustre/shared/ucl/apps/gcc/4.9.2/bin/../lib/gcc/x86_64-unknown-linux-gnu/4.9.2/ -mtune=corei7 -march=x86-64 -g -Og
#
# seed -2051142188   -37422584  -548906427 -1243606242   -99409461  1011625471  -269422999  -453401456  -493507274   119605129  -603717859 -2144111070
#
#      Author: C. J. Pickard (cjp20@cam.ac.uk)
#                Space group: Ccc2
#

%BLOCK LATTICE_ABC
      4.15132      5.79911      8.89718
     90.00000     90.00000    110.97296
%ENDBLOCK LATTICE_ABC

%BLOCK POSITIONS_FRAC
  Li  -0.5000000  -0.0000000  -0.1913833 SPIN=   0.00000
  Li  -0.5000000  -0.0000000   0.3086167 SPIN=   0.00000
  Fe   0.0000000  -0.5000000   0.2169815 SPIN=   4.00000
  Fe   0.5000000   0.5000000  -0.2830185 SPIN=   4.00000
   O   0.3006383   0.1159149  -0.3589373 SPIN=   0.00000
   O   0.3572803   0.2445438  -0.0920406 SPIN=   0.00000
   O  -0.3006383  -0.1159149  -0.3589373 SPIN=   0.00000
   O  -0.3572803  -0.2445438  -0.0920406 SPIN=   0.00000
   O  -0.1847233   0.1159149   0.1410627 SPIN=   0.00000
   O  -0.1127365   0.2445438   0.4079594 SPIN=   0.00000
   O   0.1847233  -0.1159149   0.1410627 SPIN=   0.00000
   O   0.1127365  -0.2445438   0.4079594 SPIN=   0.00000
   S   0.0000000  -0.0000000   0.0214509 SPIN=   0.00000
   S  -0.0000000   0.0000000  -0.4785491 SPIN=   0.00000
   F  -0.0000000   0.5000000  -0.2286557 SPIN=   0.00000
   F   0.5000000   0.5000000   0.2713443 SPIN=   0.00000
%ENDBLOCK POSITIONS_FRAC

# Note: total spin =   8.00

KPOINTS_MP_SPACING 0.07

%BLOCK SPECIES_POT
QC5
%ENDBLOCK SPECIES_POT

SNAP_TO_SYMMETRY
SYMMETRY_GENERATE

