#              Generated by Buildcell
#
# at 02:47:41 (GMT+1.0) 4th August 2020
# in /lustre/scratch/uccabz1/launch_tmp
# on node-c12d-002
# by uccabz1
#
# compiler GCC version 4.9.2
# options -cpp -iprefix /lustre/shared/ucl/apps/gcc/4.9.2/bin/../lib/gcc/x86_64-unknown-linux-gnu/4.9.2/ -mtune=corei7 -march=x86-64 -g -Og
#
# seed -1528631700 -1666516878  -356293420  1923431331  -370658696 -1296991660  -135264325  1515019500 -1236163926  1917184282   725622176 -1039255707
#
#      Author: C. J. Pickard (cjp20@cam.ac.uk)
#                Space group: P21
#

%BLOCK LATTICE_ABC
      5.22525      5.34427      7.16580
     90.00000     90.00000     91.86725
%ENDBLOCK LATTICE_ABC

%BLOCK POSITIONS_FRAC
  Li   0.3964889  -0.4320951   0.4978238 SPIN=   0.00000
  Li  -0.3964889   0.4320951  -0.0021762 SPIN=   0.00000
  Fe   0.3491375  -0.1176224   0.1236430 SPIN=   4.00000
  Fe  -0.3491375   0.1176224  -0.3763570 SPIN=   4.00000
   O  -0.0539637   0.1152493   0.1336599 SPIN=   0.00000
   O   0.1401645   0.2994609   0.4193811 SPIN=   0.00000
   O  -0.2308457   0.4971835   0.2719133 SPIN=   0.00000
   O   0.1923717   0.5180438   0.1166236 SPIN=   0.00000
   S   0.0119317   0.3574844   0.2353945 SPIN=   0.00000
   O   0.0539637  -0.1152493  -0.3663401 SPIN=   0.00000
   O  -0.1401645  -0.2994609  -0.0806189 SPIN=   0.00000
   O   0.2308457  -0.4971835  -0.2280867 SPIN=   0.00000
   O  -0.1923717  -0.5180438  -0.3833764 SPIN=   0.00000
   S  -0.0119317  -0.3574844  -0.2646055 SPIN=   0.00000
   F   0.4974017  -0.0784241   0.4230228 SPIN=   0.00000
   F  -0.4974017   0.0784241  -0.0769772 SPIN=   0.00000
%ENDBLOCK POSITIONS_FRAC

# Note: total spin =   8.00

KPOINTS_MP_SPACING 0.07

%BLOCK SPECIES_POT
QC5
%ENDBLOCK SPECIES_POT

SNAP_TO_SYMMETRY
SYMMETRY_GENERATE

