#              Generated by Buildcell
#
# at 17:50:01 (GMT+1.0) 18th August 2020
# in /lustre/scratch/uccabz1/launch_tmp
# on node-c12f-008
# by uccabz1
#
# compiler GCC version 4.9.2
# options -cpp -iprefix /lustre/shared/ucl/apps/gcc/4.9.2/bin/../lib/gcc/x86_64-unknown-linux-gnu/4.9.2/ -mtune=corei7 -march=x86-64 -g -Og
#
# seed  1612213822   189698693  -835262297   432779033    -1570818  -800787927   284909260  1532204047    36155108 -1846496369 -1357220519  1975103461
#
#      Author: C. J. Pickard (cjp20@cam.ac.uk)
#                Space group: P2
#

%BLOCK LATTICE_ABC
      4.67549      6.43020      6.65240
     90.00000     90.00000     90.00003
%ENDBLOCK LATTICE_ABC

%BLOCK POSITIONS_FRAC
  Li   0.2499980  -0.2816702  -0.1846691 SPIN=   0.00000
  Li  -0.2499980   0.2816702  -0.1846691 SPIN=   0.00000
  Fe   0.2500010   0.2689267   0.1176052 SPIN=   4.00000
  Fe  -0.2500010  -0.2689267   0.1176052 SPIN=   4.00000
   O   0.2533353   0.4851373  -0.3690997 SPIN=   0.00000
   O   0.3592701   0.1581300  -0.1875746 SPIN=   0.00000
   O   0.4404839   0.1805004  -0.5545604 SPIN=   0.00000
   O  -0.0530830   0.1757860  -0.4202142 SPIN=   0.00000
   S   0.2500016   0.2498884  -0.3828622 SPIN=   0.00000
   O  -0.2533353  -0.4851373  -0.3690997 SPIN=   0.00000
   O  -0.3592701  -0.1581300  -0.1875746 SPIN=   0.00000
   O  -0.4404839  -0.1805004  -0.5545604 SPIN=   0.00000
   O   0.0530830  -0.1757860  -0.4202142 SPIN=   0.00000
   S  -0.2500016  -0.2498884  -0.3828622 SPIN=   0.00000
   F   0.2500000  -0.2500000   0.1393281 SPIN=   0.00000
   F  -0.2500000   0.2500000   0.1393281 SPIN=   0.00000
%ENDBLOCK POSITIONS_FRAC

# Note: total spin =   8.00

KPOINTS_MP_SPACING 0.07

%BLOCK SPECIES_POT
QC5
%ENDBLOCK SPECIES_POT

SNAP_TO_SYMMETRY
SYMMETRY_GENERATE

