#              Generated by Buildcell
#
# at 03:23:12 (GMT+1.0) 4th August 2020
# in /lustre/scratch/uccabz1/launch_tmp
# on node-c12h-022
# by uccabz1
#
# compiler GCC version 4.9.2
# options -cpp -iprefix /lustre/shared/ucl/apps/gcc/4.9.2/bin/../lib/gcc/x86_64-unknown-linux-gnu/4.9.2/ -mtune=corei7 -march=x86-64 -g -Og
#
# seed   244048175  2079481156   366814427  -156000533 -1039132432 -1449926595  1793066316  -954772402   893541624  1005058572   761695687  -607962621
#
#      Author: C. J. Pickard (cjp20@cam.ac.uk)
#                Space group: I212121
#

%BLOCK LATTICE_ABC
      6.42527      6.42527      6.42527
     99.86529    114.42285    114.53193
%ENDBLOCK LATTICE_ABC

%BLOCK POSITIONS_FRAC
  Li  -0.1258410   0.2500000   0.1241590 SPIN=   0.00000
  Li  -0.3741590  -0.2500000   0.3758410 SPIN=   0.00000
  Fe   0.3946064  -0.3553936  -0.2500000 SPIN=   4.00000
  Fe   0.1053936  -0.1446064   0.2500000 SPIN=   4.00000
   O  -0.0949380  -0.2103443  -0.1480287 SPIN=   0.00000
   O  -0.3872362  -0.5555193  -0.5728890 SPIN=   0.00000
   O   0.0623156  -0.2896557  -0.3845936 SPIN=   0.00000
   O  -0.0173697   0.0555193  -0.3317169 SPIN=   0.00000
   O  -0.4050620   0.4469092  -0.1154064 SPIN=   0.00000
   O  -0.1127638   0.3143472  -0.1682831 SPIN=   0.00000
   O   0.4376844   0.0530908  -0.3519713 SPIN=   0.00000
   O   0.5173697   0.1856528   0.0728890 SPIN=   0.00000
   S   0.2500000   0.1147068  -0.1352932 SPIN=   0.00000
   S  -0.2500000   0.3852932  -0.3647068 SPIN=   0.00000
   F  -0.2500000  -0.0860240   0.1639760 SPIN=   0.00000
   F   0.2500000  -0.4139760   0.3360240 SPIN=   0.00000
%ENDBLOCK POSITIONS_FRAC

# Note: total spin =   8.00

KPOINTS_MP_SPACING 0.07

%BLOCK SPECIES_POT
QC5
%ENDBLOCK SPECIES_POT

SNAP_TO_SYMMETRY
SYMMETRY_GENERATE

