#              Generated by Buildcell
#
# at 04:59:32 (GMT+1.0) 4th August 2020
# in /lustre/scratch/uccabz1/launch_tmp
# on node-c12g-027
# by uccabz1
#
# compiler GCC version 4.9.2
# options -cpp -iprefix /lustre/shared/ucl/apps/gcc/4.9.2/bin/../lib/gcc/x86_64-unknown-linux-gnu/4.9.2/ -mtune=corei7 -march=x86-64 -g -Og
#
# seed  1521860666  -953316006  1884243986 -1241223182   834038431   368970307   754416565    32513800   345600236  -351246080   392586452   968330784
#
#      Author: C. J. Pickard (cjp20@cam.ac.uk)
#                Space group: C2/c
#

%BLOCK LATTICE_ABC
      5.44680      6.62886      6.90592
     66.16846     66.77411     65.74238
%ENDBLOCK LATTICE_ABC

%BLOCK POSITIONS_FRAC
  Li  -0.0793964  -0.2500000   0.2500000 SPIN=   0.00000
  Li   0.0793964   0.2500000  -0.2500000 SPIN=   0.00000
  Fe  -0.5000000   0.0000000  -0.0000000 SPIN=   4.00000
  Fe   0.5000000  -0.5000000   0.5000000 SPIN=   4.00000
   O   0.1937773   0.0423502  -0.4967332 SPIN=   0.00000
   O  -0.0698367  -0.2034120  -0.1755949 SPIN=   0.00000
   O  -0.2606057  -0.5423502   0.9967332 SPIN=   0.00000
   O  -0.4488436  -0.2965880   0.6755949 SPIN=   0.00000
   O  -0.1937773  -0.0423502   0.4967332 SPIN=   0.00000
   O   0.0698367   0.2034120   0.1755949 SPIN=   0.00000
   O   0.2606057   0.5423502  -0.9967332 SPIN=   0.00000
   O   0.4488436   0.2965880  -0.6755949 SPIN=   0.00000
   S  -0.5000000   0.0000000  -0.5000000 SPIN=   0.00000
   S  -0.0000000   0.5000000  -1.0000000 SPIN=   0.00000
   F   0.2985775  -0.2500000   0.2500000 SPIN=   0.00000
   F  -0.2985775   0.2500000  -0.2500000 SPIN=   0.00000
%ENDBLOCK POSITIONS_FRAC

# Note: total spin =   8.00

KPOINTS_MP_SPACING 0.07

%BLOCK SPECIES_POT
QC5
%ENDBLOCK SPECIES_POT

SNAP_TO_SYMMETRY
SYMMETRY_GENERATE

