#              Generated by Buildcell
#
# at 00:44:01 (GMT+1.0) 19th August 2020
# in /scratch/scratch/uccabz1/launch_tmp
# on node-k10b-015
# by uccabz1
#
# compiler GCC version 4.9.2
# options -cpp -iprefix /scratch/UCL/applications/gcc/4.9.2/bin/../lib/gcc/x86_64-unknown-linux-gnu/4.9.2/ -mtune=corei7 -march=x86-64 -g -O2
#
# seed  1337789299  -411799847  -705246133 -1151482197  -672874423  1711587171 -1230556353   697018241   736722619  2106256966  -259881931   366813620
#
#      Author: C. J. Pickard (cjp20@cam.ac.uk)
#                Space group: C2
#

%BLOCK LATTICE_ABC
      5.57800      5.96229      6.96748
    115.33218    105.56313     90.00000
%ENDBLOCK LATTICE_ABC

%BLOCK POSITIONS_FRAC
  Li   0.3227995  -0.1369439   0.2168110 SPIN=   0.00000
  Li  -0.3227995  -0.3537548  -0.2168110 SPIN=   0.00000
  Fe  -0.1260337   0.1173147   0.3447831 SPIN=   4.00000
  Fe   0.1260337  -0.2274684  -0.3447831 SPIN=   4.00000
   O   0.5807493   0.2810821   0.1939032 SPIN=   0.00000
   O   0.1614798   0.1369301   0.1877757 SPIN=   0.00000
   O   0.2256627   0.5186950   0.1403770 SPIN=   0.00000
   O   0.4116365   0.5219715   0.5066191 SPIN=   0.00000
   S   0.3448821   0.3646697   0.2571688 SPIN=   0.00000
   O  -0.5807493   0.0871788  -0.1939032 SPIN=   0.00000
   O  -0.1614798  -0.0508456  -0.1877757 SPIN=   0.00000
   O  -0.2256627   0.3783180  -0.1403770 SPIN=   0.00000
   O  -0.4116365   0.0153523  -0.5066191 SPIN=   0.00000
   S  -0.3448821   0.1075009  -0.2571688 SPIN=   0.00000
   F   0.1607475  -0.4864904  -0.2384572 SPIN=   0.00000
   F  -0.1607475  -0.2480333   0.2384572 SPIN=   0.00000
%ENDBLOCK POSITIONS_FRAC

# Note: total spin =   8.00

KPOINTS_MP_SPACING 0.07

%BLOCK SPECIES_POT
QC5
%ENDBLOCK SPECIES_POT

SNAP_TO_SYMMETRY
SYMMETRY_GENERATE

