#              Generated by Buildcell
#
# at 04:11:23 (GMT+1.0) 4th August 2020
# in /lustre/scratch/uccabz1/launch_tmp
# on node-c12p-010
# by uccabz1
#
# compiler GCC version 4.9.2
# options -cpp -iprefix /lustre/shared/ucl/apps/gcc/4.9.2/bin/../lib/gcc/x86_64-unknown-linux-gnu/4.9.2/ -mtune=corei7 -march=x86-64 -g -Og
#
# seed    80696917   552886376  2117856272  -613819939   909852327  1503196308   108421092  -611822919  -512592109  1951003778  1291436166  -455054764
#
#      Author: C. J. Pickard (cjp20@cam.ac.uk)
#                Space group: P21/m
#

%BLOCK LATTICE_ABC
      4.20407      6.30563      7.83071
     90.00000    105.53796     90.00000
%ENDBLOCK LATTICE_ABC

%BLOCK POSITIONS_FRAC
  Li   0.7749771   0.2500000   0.4310785 SPIN=   0.00000
  Li  -0.7749771  -0.2500000  -0.4310785 SPIN=   0.00000
  Fe  -0.2599816  -0.2500000  -0.0520618 SPIN=   4.00000
  Fe   0.2599816   0.2500000   0.0520618 SPIN=   4.00000
   O  -0.1825033  -0.4385781   0.3655813 SPIN=   0.00000
   O   0.2506141  -0.4385796   0.2049427 SPIN=   0.00000
   O   0.1825033   0.0614219  -0.3655813 SPIN=   0.00000
   O  -0.2506141   0.0614204  -0.2049427 SPIN=   0.00000
   O   0.1825033   0.4385781  -0.3655813 SPIN=   0.00000
   O  -0.2506141   0.4385796  -0.2049427 SPIN=   0.00000
   O  -0.1825033  -0.0614219   0.3655813 SPIN=   0.00000
   O   0.2506141  -0.0614204   0.2049427 SPIN=   0.00000
   S  -0.5975068   0.2500000  -0.3429923 SPIN=   0.00000
   S   0.5975068  -0.2500000   0.3429923 SPIN=   0.00000
   F   0.2017345  -0.2500000  -0.1287838 SPIN=   0.00000
   F  -0.2017345   0.2500000   0.1287838 SPIN=   0.00000
%ENDBLOCK POSITIONS_FRAC

# Note: total spin =   8.00

KPOINTS_MP_SPACING 0.07

%BLOCK SPECIES_POT
QC5
%ENDBLOCK SPECIES_POT

SNAP_TO_SYMMETRY
SYMMETRY_GENERATE

