#              Generated by Buildcell
#
# at 04:24:12 (GMT+1.0) 4th August 2020
# in /lustre/scratch/uccabz1/launch_tmp
# on node-c12c-009
# by uccabz1
#
# compiler GCC version 4.9.2
# options -cpp -iprefix /lustre/shared/ucl/apps/gcc/4.9.2/bin/../lib/gcc/x86_64-unknown-linux-gnu/4.9.2/ -mtune=corei7 -march=x86-64 -g -Og
#
# seed -1735438309  -474287650  -352370507   -41766907  -204859799   914827971 -1726763414   479670177   563349301  1945160705  -675983287  -830848658
#
#      Author: C. J. Pickard (cjp20@cam.ac.uk)
#                Space group: Cc
#

%BLOCK LATTICE_ABC
      5.35267      6.67444      6.67444
    107.15367    106.52474    106.52474
%ENDBLOCK LATTICE_ABC

%BLOCK POSITIONS_FRAC
  Li   0.1924109   0.2359230   0.4484926 SPIN=   0.00000
  Li  -0.3075891   0.4484926   0.2359230 SPIN=   0.00000
  Fe   0.0459450   0.2891664   0.0118187 SPIN=   4.00000
  Fe  -0.4540550   0.0118187   0.2891664 SPIN=   4.00000
   O  -0.3535437  -0.5437769  -0.0549320 SPIN=   0.00000
   O  -0.3092059  -0.1428583   0.0646515 SPIN=   0.00000
   O  -0.2432519  -0.3281211  -0.2853724 SPIN=   0.00000
   O   0.1184189  -0.2269366   0.0961178 SPIN=   0.00000
   S  -0.1968957  -0.3104232  -0.0448838 SPIN=   0.00000
   O   0.1464563  -0.0549320  -0.5437769 SPIN=   0.00000
   O   0.1907941   0.0646515  -0.1428583 SPIN=   0.00000
   O   0.2567481  -0.2853724  -0.3281211 SPIN=   0.00000
   O   0.6184189   0.0961178  -0.2269366 SPIN=   0.00000
   S   0.3031043  -0.0448838  -0.3104232 SPIN=   0.00000
   F   0.4002730  -0.4375484   0.2682213 SPIN=   0.00000
   F  -0.0997270   0.2682213  -0.4375484 SPIN=   0.00000
%ENDBLOCK POSITIONS_FRAC

# Note: total spin =   8.00

KPOINTS_MP_SPACING 0.07

%BLOCK SPECIES_POT
QC5
%ENDBLOCK SPECIES_POT

SNAP_TO_SYMMETRY
SYMMETRY_GENERATE

