#              Generated by Buildcell
#
# at 04:39:19 (GMT+1.0) 4th August 2020
# in /lustre/scratch/uccabz1/launch_tmp
# on node-c12e-011
# by uccabz1
#
# compiler GCC version 4.9.2
# options -cpp -iprefix /lustre/shared/ucl/apps/gcc/4.9.2/bin/../lib/gcc/x86_64-unknown-linux-gnu/4.9.2/ -mtune=corei7 -march=x86-64 -g -Og
#
# seed -1362352613  -501519167  1305233298  1396941964  1224791775  1645886458  -585221601  1268009805 -1924073640 -1073415388  1098972782  1533568050
#
#      Author: C. J. Pickard (cjp20@cam.ac.uk)
#                Space group: P-1
#

%BLOCK LATTICE_ABC
      5.21753      6.38484      6.57265
    101.28026     99.05273    106.92136
%ENDBLOCK LATTICE_ABC

%BLOCK POSITIONS_FRAC
  Li   0.0000000   0.0000000   0.0000000 SPIN=   0.00000
  Li  -0.5000000  -0.5000000   0.5000000 SPIN=   0.00000
  Fe  -0.3020849   0.1347940   0.3197876 SPIN=   4.00000
  Fe   0.3020849  -0.1347940  -0.3197876 SPIN=   4.00000
   O  -0.1050393  -0.1159104   0.3374061 SPIN=   0.00000
   O  -0.0903939  -0.3462843  -0.0075426 SPIN=   0.00000
   O  -0.4629529  -0.4901335   0.1721720 SPIN=   0.00000
   S  -0.1612702  -0.3545688   0.2063309 SPIN=   0.00000
   O   0.1050393   0.1159104  -0.3374061 SPIN=   0.00000
   O   0.0903939   0.3462843   0.0075426 SPIN=   0.00000
   O   0.4629529   0.4901335  -0.1721720 SPIN=   0.00000
   S   0.1612702   0.3545688  -0.2063309 SPIN=   0.00000
   O   0.0000000  -0.5000000   0.5000000 SPIN=   0.00000
   O   0.5000000   0.0000000   0.0000000 SPIN=   0.00000
   F  -0.3293516  -0.1726651  -0.3115295 SPIN=   0.00000
   F   0.3293516   0.1726651   0.3115295 SPIN=   0.00000
%ENDBLOCK POSITIONS_FRAC

# Note: total spin =   8.00

KPOINTS_MP_SPACING 0.07

%BLOCK SPECIES_POT
QC5
%ENDBLOCK SPECIES_POT

SNAP_TO_SYMMETRY
SYMMETRY_GENERATE

