#              Generated by Buildcell
#
# at 02:31:20 (GMT+1.0) 4th August 2020
# in /lustre/scratch/uccabz1/launch_tmp
# on node-c12n-013
# by uccabz1
#
# compiler GCC version 4.9.2
# options -cpp -iprefix /lustre/shared/ucl/apps/gcc/4.9.2/bin/../lib/gcc/x86_64-unknown-linux-gnu/4.9.2/ -mtune=corei7 -march=x86-64 -g -Og
#
# seed  -506043562   -84770295  1709473208 -1927045531 -1170104325   707430493  -158104813   490131895 -1259407232  -578396199  -182896519 -1170372780
#
#      Author: C. J. Pickard (cjp20@cam.ac.uk)
#                Space group: P-1
#

%BLOCK LATTICE_ABC
      4.12915      6.75330      7.38189
     99.09474    100.12115     90.13400
%ENDBLOCK LATTICE_ABC

%BLOCK POSITIONS_FRAC
  Li   0.5000000   0.5000000   0.0000000 SPIN=   0.00000
  Li   0.0000000   0.0000000   0.0000000 SPIN=   0.00000
  Fe  -0.3320374  -0.2054168  -0.3861413 SPIN=   4.00000
  Fe   0.3320374   0.2054168   0.3861413 SPIN=   4.00000
   O  -0.1912047   0.5065576  -0.1909372 SPIN=   0.00000
   O   0.1981429   0.2997699  -0.3530352 SPIN=   0.00000
   O  -0.3249719   0.1474371  -0.3127120 SPIN=   0.00000
   S  -0.0498788   0.2997587  -0.2241268 SPIN=   0.00000
   O   0.1912047  -0.5065576   0.1909372 SPIN=   0.00000
   O  -0.1981429  -0.2997699   0.3530352 SPIN=   0.00000
   O   0.3249719  -0.1474371   0.3127120 SPIN=   0.00000
   S   0.0498788  -0.2997587   0.2241268 SPIN=   0.00000
   O  -0.5000000   0.5000000  -0.5000000 SPIN=   0.00000
   O  -0.0000000  -0.0000000   0.5000000 SPIN=   0.00000
   F   0.3176156  -0.1963755  -0.2047303 SPIN=   0.00000
   F  -0.3176156   0.1963755   0.2047303 SPIN=   0.00000
%ENDBLOCK POSITIONS_FRAC

# Note: total spin =   8.00

KPOINTS_MP_SPACING 0.07

%BLOCK SPECIES_POT
QC5
%ENDBLOCK SPECIES_POT

SNAP_TO_SYMMETRY
SYMMETRY_GENERATE

