#              Generated by Buildcell
#
# at 05:05:44 (GMT+1.0) 4th August 2020
# in /lustre/scratch/uccabz1/launch_tmp
# on node-c12p-027
# by uccabz1
#
# compiler GCC version 4.9.2
# options -cpp -iprefix /lustre/shared/ucl/apps/gcc/4.9.2/bin/../lib/gcc/x86_64-unknown-linux-gnu/4.9.2/ -mtune=corei7 -march=x86-64 -g -Og
#
# seed  -131510534  1420712757  -120551874 -1332185873  1421755678  -718997442  -512896012 -2056779562   237332184    -1828347  -784520186   332371682
#
#      Author: C. J. Pickard (cjp20@cam.ac.uk)
#                Space group: Ccc2
#

%BLOCK LATTICE_ABC
      3.97991      4.02729     14.35248
     90.00000     90.00000    119.61164
%ENDBLOCK LATTICE_ABC

%BLOCK POSITIONS_FRAC
  Li   0.0000000  -0.0000000   0.2874889 SPIN=   0.00000
  Li   0.0000000   0.0000000  -0.2125111 SPIN=   0.00000
  Fe   0.0000000   0.0000000  -0.0059792 SPIN=   4.00000
  Fe  -0.0000000  -0.0000000   0.4940208 SPIN=   4.00000
   O  -0.3698430   0.3133142   0.2620605 SPIN=   0.00000
   O  -0.1814576   0.1376689   0.1136301 SPIN=   0.00000
   O   0.3698430  -0.3133142   0.2620605 SPIN=   0.00000
   O   0.1814576  -0.1376689   0.1136301 SPIN=   0.00000
   O   0.3168428  -0.3133142  -0.2379395 SPIN=   0.00000
   O   0.6808735  -0.1376689  -0.3863699 SPIN=   0.00000
   O  -0.3168428   0.3133142  -0.2379395 SPIN=   0.00000
   O  -0.6808735   0.1376689  -0.3863699 SPIN=   0.00000
   S   0.0000000   0.5000000   0.1667236 SPIN=   0.00000
   S  -0.5000000  -0.5000000  -0.3332764 SPIN=   0.00000
   F   0.5000000   0.5000000  -0.0634896 SPIN=   0.00000
   F   0.0000000  -0.5000000   0.4365104 SPIN=   0.00000
%ENDBLOCK POSITIONS_FRAC

# Note: total spin =   8.00

KPOINTS_MP_SPACING 0.07

%BLOCK SPECIES_POT
QC5
%ENDBLOCK SPECIES_POT

SNAP_TO_SYMMETRY
SYMMETRY_GENERATE

