#              Generated by Buildcell
#
# at 20:08:34 (GMT+1.0) 18th August 2020
# in /lustre/scratch/uccabz1/launch_tmp
# on node-c12e-025
# by uccabz1
#
# compiler GCC version 4.9.2
# options -cpp -iprefix /lustre/shared/ucl/apps/gcc/4.9.2/bin/../lib/gcc/x86_64-unknown-linux-gnu/4.9.2/ -mtune=corei7 -march=x86-64 -g -Og
#
# seed -1114901138  1847520926 -2121676412   850809568 -1874959296     9206870  2124645316  -181281267  1100034364  1573050980 -1256171387 -1597382873
#
#      Author: C. J. Pickard (cjp20@cam.ac.uk)
#                Space group: Cc
#

%BLOCK LATTICE_ABC
      5.64285      5.64285      6.82388
    105.43155    105.43155     93.23206
%ENDBLOCK LATTICE_ABC

%BLOCK POSITIONS_FRAC
  Li  -0.3805905   0.4105838   0.0374854 SPIN=   0.00000
  Li   0.4105838  -0.3805905  -0.4625146 SPIN=   0.00000
  Fe   0.0070944   0.2082166   0.3019174 SPIN=   4.00000
  Fe   0.2082166   0.0070944  -0.1980826 SPIN=   4.00000
   O  -0.2079839  -0.4168676  -0.1203662 SPIN=   0.00000
   O   0.1491706  -0.2303836   0.1991865 SPIN=   0.00000
   O   0.2205712  -0.4254170  -0.1469291 SPIN=   0.00000
   O   0.0616198  -0.6865701   0.0423564 SPIN=   0.00000
   S   0.0558444  -0.4398096  -0.0064381 SPIN=   0.00000
   O  -0.4168676  -0.2079839   0.3796338 SPIN=   0.00000
   O  -0.2303836   0.1491706   0.6991865 SPIN=   0.00000
   O  -0.4254170   0.2205712   0.3530709 SPIN=   0.00000
   O  -0.6865701   0.0616198   0.5423564 SPIN=   0.00000
   S  -0.4398096   0.0558444   0.4935619 SPIN=   0.00000
   F  -0.3338399   0.0122754   0.0025912 SPIN=   0.00000
   F   0.0122754  -0.3338399  -0.4974088 SPIN=   0.00000
%ENDBLOCK POSITIONS_FRAC

# Note: total spin =   8.00

KPOINTS_MP_SPACING 0.07

%BLOCK SPECIES_POT
QC5
%ENDBLOCK SPECIES_POT

SNAP_TO_SYMMETRY
SYMMETRY_GENERATE

