#              Generated by Buildcell
#
# at 18:49:11 (GMT+1.0) 18th August 2020
# in /lustre/scratch/uccabz1/launch_tmp
# on node-c12g-001
# by uccabz1
#
# compiler GCC version 4.9.2
# options -cpp -iprefix /lustre/shared/ucl/apps/gcc/4.9.2/bin/../lib/gcc/x86_64-unknown-linux-gnu/4.9.2/ -mtune=corei7 -march=x86-64 -g -Og
#
# seed  -610315085 -1556569938 -1344189128  1730146292 -1409478609   886908713   155710377  1162577324  1922730359   588429341  -390776336  -888976074
#
#      Author: C. J. Pickard (cjp20@cam.ac.uk)
#                Space group: Cc
#

%BLOCK LATTICE_ABC
      4.97689      6.30107      6.95005
     88.90360     87.22285     66.73873
%ENDBLOCK LATTICE_ABC

%BLOCK POSITIONS_FRAC
  Li  -0.0781238   0.2225365  -0.1322395 SPIN=   0.00000
  Li  -0.3555873  -0.2225365   0.3677605 SPIN=   0.00000
  Fe   0.1699405  -0.3907751  -0.1183893 SPIN=   4.00000
  Fe   0.2791653   0.3907751   0.3816107 SPIN=   4.00000
   O  -0.0850188  -0.0369145  -0.6855195 SPIN=   0.00000
   O  -0.2644696   0.1203175  -0.3588329 SPIN=   0.00000
   O   0.2039120   0.1197504  -0.4963426 SPIN=   0.00000
   O   0.1677757  -0.2484374  -0.3995831 SPIN=   0.00000
   S   0.0055498  -0.0113210  -0.4850696 SPIN=   0.00000
   O   0.3780667   0.0369145  -0.1855195 SPIN=   0.00000
   O   0.3558479  -0.1203175   0.1411671 SPIN=   0.00000
   O   0.8236624  -0.1197504   0.0036574 SPIN=   0.00000
   O   0.4193383   0.2484374   0.1004169 SPIN=   0.00000
   S   0.4942288   0.0113210   0.0149304 SPIN=   0.00000
   F  -0.1581445   0.4424254   0.2053875 SPIN=   0.00000
   F  -0.2157191  -0.4424254  -0.2946125 SPIN=   0.00000
%ENDBLOCK POSITIONS_FRAC

# Note: total spin =   8.00

KPOINTS_MP_SPACING 0.07

%BLOCK SPECIES_POT
QC5
%ENDBLOCK SPECIES_POT

SNAP_TO_SYMMETRY
SYMMETRY_GENERATE

