#              Generated by Buildcell
#
# at 01:17:12 (GMT+1.0) 19th August 2020
# in /lustre/scratch/uccabz1/launch_tmp
# on node-c12a-021
# by uccabz1
#
# compiler GCC version 4.9.2
# options -cpp -iprefix /lustre/shared/ucl/apps/gcc/4.9.2/bin/../lib/gcc/x86_64-unknown-linux-gnu/4.9.2/ -mtune=corei7 -march=x86-64 -g -Og
#
# seed  -350041872  -693399346 -1937165157  1478661205   919405164   339207219   609043448 -1742591627  -796091422  1132109371  -661964125  -434399741
#
#      Author: C. J. Pickard (cjp20@cam.ac.uk)
#                Space group: Cc
#

%BLOCK LATTICE_ABC
      4.66759      6.03207      8.10235
    106.60596     90.00000    112.76159
%ENDBLOCK LATTICE_ABC

%BLOCK POSITIONS_FRAC
  Li  -0.4883543   0.1707122   0.0225435 SPIN=   0.00000
  Li   0.1590665   0.1707122  -0.4774565 SPIN=   0.00000
  Fe  -0.1129578  -0.3799811  -0.3012723 SPIN=   4.00000
  Fe   0.2329767  -0.3799811   0.1987277 SPIN=   4.00000
   O  -0.5591570   0.1032572  -0.2403665 SPIN=   0.00000
   O  -0.1425961  -0.0431812  -0.3390167 SPIN=   0.00000
   O  -0.3378999   0.1614218  -0.5101312 SPIN=   0.00000
   O  -0.6753294  -0.2672877  -0.5014736 SPIN=   0.00000
   S  -0.4287456  -0.0114475  -0.3977470 SPIN=   0.00000
   O   0.1624142   0.1032572   0.2596335 SPIN=   0.00000
   O  -0.4005851  -0.0431812   0.1609833 SPIN=   0.00000
   O  -0.0006782   0.1614218  -0.0101312 SPIN=   0.00000
   O  -0.0919583  -0.2672877  -0.0014736 SPIN=   0.00000
   S  -0.0827018  -0.0114475   0.1022530 SPIN=   0.00000
   F   0.2765803  -0.4891214  -0.1967829 SPIN=   0.00000
   F  -0.2657017  -0.4891214   0.3032171 SPIN=   0.00000
%ENDBLOCK POSITIONS_FRAC

# Note: total spin =   8.00

KPOINTS_MP_SPACING 0.07

%BLOCK SPECIES_POT
QC5
%ENDBLOCK SPECIES_POT

SNAP_TO_SYMMETRY
SYMMETRY_GENERATE

