#              Generated by Buildcell
#
# at 01:39:30 (GMT+1.0) 19th August 2020
# in /lustre/scratch/uccabz1/launch_tmp
# on node-c12i-018
# by uccabz1
#
# compiler GCC version 4.9.2
# options -cpp -iprefix /lustre/shared/ucl/apps/gcc/4.9.2/bin/../lib/gcc/x86_64-unknown-linux-gnu/4.9.2/ -mtune=corei7 -march=x86-64 -g -Og
#
# seed  2080136329 -1422399352  1752832166 -1490896182  -230958144  2086659539 -1422984717  -878573134 -1050766640  -694038615  1552700663   701346021
#
#      Author: C. J. Pickard (cjp20@cam.ac.uk)
#                Space group: P2
#

%BLOCK LATTICE_ABC
      5.39945      5.50670      6.88713
     90.00000    102.39877     90.00000
%ENDBLOCK LATTICE_ABC

%BLOCK POSITIONS_FRAC
  Li  -0.2244556   0.0648661   0.2360919 SPIN=   0.00000
  Li   0.2244556   0.0648661  -0.2360919 SPIN=   0.00000
  Fe   0.5000000  -0.3265168  -0.5000000 SPIN=   4.89242
  Fe   0.0000000  -0.3262757   0.0000000 SPIN=   3.10758
   O  -0.0166607   0.2859172  -0.1682567 SPIN=   0.00000
   O  -0.3296483   0.0047686  -0.0754710 SPIN=   0.00000
   O  -0.2888597   0.0331886  -0.4258710 SPIN=   0.00000
   S  -0.2776880   0.1744696  -0.2353368 SPIN=   0.00000
   O   0.0166607   0.2859172   0.1682567 SPIN=   0.00000
   O   0.3296483   0.0047686   0.0754710 SPIN=   0.00000
   O   0.2888597   0.0331886   0.4258710 SPIN=   0.00000
   S   0.2776880   0.1744696   0.2353368 SPIN=   0.00000
   O  -0.5000000   0.3655187   0.0000000 SPIN=   0.00000
   O   0.0000000   0.3033219   0.5000000 SPIN=   0.00000
   F   0.2207525  -0.2911552  -0.2698802 SPIN=   0.00000
   F  -0.2207525  -0.2911552   0.2698802 SPIN=   0.00000
%ENDBLOCK POSITIONS_FRAC

# Note: total spin =   8.00

KPOINTS_MP_SPACING 0.07

%BLOCK SPECIES_POT
QC5
%ENDBLOCK SPECIES_POT

SNAP_TO_SYMMETRY
SYMMETRY_GENERATE

