#              Generated by Buildcell
#
# at 03:30:45 (GMT+1.0) 4th August 2020
# in /lustre/scratch/uccabz1/launch_tmp
# on node-c12j-012
# by uccabz1
#
# compiler GCC version 4.9.2
# options -cpp -iprefix /lustre/shared/ucl/apps/gcc/4.9.2/bin/../lib/gcc/x86_64-unknown-linux-gnu/4.9.2/ -mtune=corei7 -march=x86-64 -g -Og
#
# seed  -611123994  -331257098 -1830473908    97871899  -773797109 -2124919848  1608695674   289697498 -1033227285  -788688900 -1825615366  1807937876
#
#      Author: C. J. Pickard (cjp20@cam.ac.uk)
#                Space group: Ima2
#

%BLOCK LATTICE_ABC
      4.58014      7.12421      7.12421
     69.14976     71.24943     71.24943
%ENDBLOCK LATTICE_ABC

%BLOCK POSITIONS_FRAC
  Li   0.1307128  -0.1392362  -0.3607638 SPIN=   0.00000
  Li  -0.1307128   0.3607638   0.1392362 SPIN=   0.00000
  Fe  -0.5000000   0.2878749  -0.2878749 SPIN=   4.00000
  Fe   0.0000000  -0.2121251   0.2121251 SPIN=   4.00000
   O   0.2797229   0.2052358  -0.4632295 SPIN=   0.00000
   O   0.6512378  -0.0368816  -0.2482157 SPIN=   0.00000
   O  -0.2797229   0.4632295  -0.2052358 SPIN=   0.00000
   O  -0.6512378   0.2482157   0.0368816 SPIN=   0.00000
   O   0.4782709  -0.2947642   0.0367705 SPIN=   0.00000
   O   0.1338594  -0.5368816   0.2517843 SPIN=   0.00000
   O  -0.4782709  -0.0367705   0.2947642 SPIN=   0.00000
   O  -0.1338594  -0.2517843   0.5368816 SPIN=   0.00000
   S  -0.3693321  -0.3274308  -0.1725692 SPIN=   0.00000
   S   0.3693321   0.1725692   0.3274308 SPIN=   0.00000
   F  -0.0000000   0.0618537  -0.0618537 SPIN=   0.00000
   F   0.5000000  -0.4381463   0.4381463 SPIN=   0.00000
%ENDBLOCK POSITIONS_FRAC

# Note: total spin =   8.00

KPOINTS_MP_SPACING 0.07

%BLOCK SPECIES_POT
QC5
%ENDBLOCK SPECIES_POT

SNAP_TO_SYMMETRY
SYMMETRY_GENERATE

