#              Generated by Buildcell
#
# at 05:30:19 (GMT+1.0) 4th August 2020
# in /lustre/scratch/uccabz1/launch_tmp
# on node-c12i-035
# by uccabz1
#
# compiler GCC version 4.9.2
# options -cpp -iprefix /lustre/shared/ucl/apps/gcc/4.9.2/bin/../lib/gcc/x86_64-unknown-linux-gnu/4.9.2/ -mtune=corei7 -march=x86-64 -g -Og
#
# seed  -384732724 -1451388718    96315691   333863245 -1419696169   704584830  1860326103  -499010615 -1331570818 -2053817055  -230463924  1785492243
#
#      Author: C. J. Pickard (cjp20@cam.ac.uk)
#                Space group: C2
#

%BLOCK LATTICE_ABC
      3.90820      5.56198      9.83422
     92.02132     90.00000    110.56875
%ENDBLOCK LATTICE_ABC

%BLOCK POSITIONS_FRAC
  Li   0.1720704   0.3295243  -0.3783922 SPIN=   0.00000
  Li  -0.1574539  -0.3295243   0.3783922 SPIN=   0.00000
  Fe   0.1252972   0.2361327   0.3148216 SPIN=   4.00000
  Fe  -0.1108355  -0.2361327  -0.3148216 SPIN=   4.00000
   O   0.3982209  -0.2855972   0.2971935 SPIN=   0.00000
   O   0.5831143   0.0331978   0.1170752 SPIN=   0.00000
   O  -0.0706165  -0.2242885   0.1471651 SPIN=   0.00000
   O   0.3506044  -0.4318233   0.0550216 SPIN=   0.00000
   S   0.3153308  -0.2271278   0.1541138 SPIN=   0.00000
   O  -0.3161819   0.2855972  -0.2971935 SPIN=   0.00000
   O  -0.4500835  -0.0331978  -0.1170752 SPIN=   0.00000
   O  -0.8463280   0.2242885  -0.1471651 SPIN=   0.00000
   O  -0.2175724   0.4318233  -0.0550216 SPIN=   0.00000
   S  -0.4575414   0.2271278  -0.1541138 SPIN=   0.00000
   F   0.3878904  -0.3024536  -0.3814726 SPIN=   0.00000
   F  -0.3096560   0.3024536   0.3814726 SPIN=   0.00000
%ENDBLOCK POSITIONS_FRAC

# Note: total spin =   8.00

KPOINTS_MP_SPACING 0.07

%BLOCK SPECIES_POT
QC5
%ENDBLOCK SPECIES_POT

SNAP_TO_SYMMETRY
SYMMETRY_GENERATE

