#              Generated by Buildcell
#
# at 23:54:22 (GMT+1.0) 18th August 2020
# in /lustre/scratch/uccabz1/launch_tmp
# on node-c12m-012
# by uccabz1
#
# compiler GCC version 4.9.2
# options -cpp -iprefix /lustre/shared/ucl/apps/gcc/4.9.2/bin/../lib/gcc/x86_64-unknown-linux-gnu/4.9.2/ -mtune=corei7 -march=x86-64 -g -Og
#
# seed -1748811237   210734779   457118637   773417093 -1555310995 -2081675719   790108262 -1288007192 -1886318342  1496972719  1802562510 -1721550278
#
#      Author: C. J. Pickard (cjp20@cam.ac.uk)
#                Space group: Aem2
#

%BLOCK LATTICE_ABC
      4.02785      7.32188      7.32188
    112.14792     90.00000     90.00000
%ENDBLOCK LATTICE_ABC

%BLOCK POSITIONS_FRAC
  Li  -0.0010353   0.4585950  -0.0414050 SPIN=   0.00000
  Li   0.0010353   0.9585950   0.4585950 SPIN=   0.00000
  Fe  -0.5000000  -0.3597882  -0.3597882 SPIN=   4.00000
  Fe  -0.5000000   0.1402118   0.1402118 SPIN=   4.00000
   O   0.4828178  -0.3441330  -0.0314361 SPIN=   0.00000
   O  -0.0463068  -0.1912418   0.1235261 SPIN=   0.00000
   O  -0.4828178  -0.0314361  -0.3441330 SPIN=   0.00000
   O   0.0463068   0.1235261  -0.1912418 SPIN=   0.00000
   O   0.4828178   0.4685639   0.1558670 SPIN=   0.00000
   O  -0.0463068   0.6235261   0.3087582 SPIN=   0.00000
   O  -0.4828178  -0.8441330  -0.5314361 SPIN=   0.00000
   O   0.0463068  -0.6912418  -0.3764739 SPIN=   0.00000
   S   0.4993839   0.7063471   0.2063471 SPIN=   0.00000
   S  -0.4993839   0.2063471  -0.2936529 SPIN=   0.00000
   F   0.0000000   0.2159558   0.2159558 SPIN=   0.00000
   F   0.0000000  -0.2840442  -0.2840442 SPIN=   0.00000
%ENDBLOCK POSITIONS_FRAC

# Note: total spin =   8.00

KPOINTS_MP_SPACING 0.07

%BLOCK SPECIES_POT
QC5
%ENDBLOCK SPECIES_POT

SNAP_TO_SYMMETRY
SYMMETRY_GENERATE

