#              Generated by Buildcell
#
# at 03:31:13 (GMT+1.0) 4th August 2020
# in /lustre/scratch/uccabz1/launch_tmp
# on node-c12f-016
# by uccabz1
#
# compiler GCC version 4.9.2
# options -cpp -iprefix /lustre/shared/ucl/apps/gcc/4.9.2/bin/../lib/gcc/x86_64-unknown-linux-gnu/4.9.2/ -mtune=corei7 -march=x86-64 -g -Og
#
# seed   665374446   637954954  1408228861  -778834960 -1098054922  1554090160   -44092881  -328587743  -552652183   180963214 -1347541422  1792458202
#
#      Author: C. J. Pickard (cjp20@cam.ac.uk)
#                Space group: Pma2
#

%BLOCK LATTICE_ABC
      3.96514      5.69489      8.85698
     90.00000     90.00000     90.00000
%ENDBLOCK LATTICE_ABC

%BLOCK POSITIONS_FRAC
  Li   0.5000000  -0.0900600   0.0000000 SPIN=   0.00000
  Li  -0.5000000  -0.0900600   0.5000000 SPIN=   0.00000
  Fe   0.0596854   0.1127515  -0.2500000 SPIN=   4.00000
  Fe  -0.0596854   0.1127515   0.2500000 SPIN=   4.00000
   O   0.2272087   0.6074607  -0.0900648 SPIN=   0.00000
   O   0.7507651   0.3761260  -0.1219411 SPIN=   0.00000
   O  -0.2272087   0.6074607   0.0900648 SPIN=   0.00000
   O  -0.7507651   0.3761260   0.1219411 SPIN=   0.00000
   O  -0.2272087   0.6074607   0.4099352 SPIN=   0.00000
   O  -0.7507651   0.3761260   0.3780589 SPIN=   0.00000
   O   0.2272087   0.6074607  -0.4099352 SPIN=   0.00000
   O   0.7507651   0.3761260  -0.3780589 SPIN=   0.00000
   S   0.5000000   0.4100066   0.0000000 SPIN=   0.00000
   S   0.5000000   0.4100066   0.5000000 SPIN=   0.00000
   F  -0.3664450  -0.1210022  -0.2500000 SPIN=   0.00000
   F   0.3664450  -0.1210022   0.2500000 SPIN=   0.00000
%ENDBLOCK POSITIONS_FRAC

# Note: total spin =   8.00

KPOINTS_MP_SPACING 0.07

%BLOCK SPECIES_POT
QC5
%ENDBLOCK SPECIES_POT

SNAP_TO_SYMMETRY
SYMMETRY_GENERATE

