#              Generated by Buildcell
#
# at 02:54:07 (GMT+1.0) 19th August 2020
# in /scratch/scratch/uccabz1/launch_tmp
# on node-k10h-020
# by uccabz1
#
# compiler GCC version 4.9.2
# options -cpp -iprefix /scratch/UCL/applications/gcc/4.9.2/bin/../lib/gcc/x86_64-unknown-linux-gnu/4.9.2/ -mtune=corei7 -march=x86-64 -g -O2
#
# seed -1192852278 -1845250596  -708946304 -1143296967  1435468830   849853969   910568263 -1885226723 -1592546222  -689705461 -1980644375 -2118982283
#
#      Author: C. J. Pickard (cjp20@cam.ac.uk)
#                Space group: Pcc2
#

%BLOCK LATTICE_ABC
      3.91024      6.04437      8.46205
     90.00000     90.00000     90.00000
%ENDBLOCK LATTICE_ABC

%BLOCK POSITIONS_FRAC
  Li  -0.5000000  -0.0000000  -0.2643583 SPIN=   0.00000
  Li   0.5000000  -0.0000000   0.2356417 SPIN=   0.00000
  Fe   0.5000000  -0.5000000  -0.0146917 SPIN=   4.00000
  Fe   0.5000000   0.5000000   0.4853083 SPIN=   4.00000
   O   0.1438730  -0.1686217  -0.3956515 SPIN=   0.00000
   O   0.2790404   0.1288008  -0.5867078 SPIN=   0.00000
   O  -0.1438730   0.1686217  -0.3956515 SPIN=   0.00000
   O  -0.2790404  -0.1288008  -0.5867078 SPIN=   0.00000
   O  -0.1438730  -0.1686217   0.1043485 SPIN=   0.00000
   O  -0.2790404   0.1288008  -0.0867078 SPIN=   0.00000
   O   0.1438730   0.1686217   0.1043485 SPIN=   0.00000
   O   0.2790404  -0.1288008  -0.0867078 SPIN=   0.00000
   S  -0.0000000  -0.0000000  -0.0082918 SPIN=   0.00000
   S  -0.0000000  -0.0000000   0.4917082 SPIN=   0.00000
   F   0.5000000   0.5000000   0.2547216 SPIN=   0.00000
   F  -0.5000000  -0.5000000  -0.2452784 SPIN=   0.00000
%ENDBLOCK POSITIONS_FRAC

# Note: total spin =   8.00

KPOINTS_MP_SPACING 0.07

%BLOCK SPECIES_POT
QC5
%ENDBLOCK SPECIES_POT

SNAP_TO_SYMMETRY
SYMMETRY_GENERATE

