#              Generated by Buildcell
#
# at 23:07:37 (GMT+1.0) 18th August 2020
# in /scratch/scratch/uccabz1/launch_tmp
# on node-k10b-029
# by uccabz1
#
# compiler GCC version 4.9.2
# options -cpp -iprefix /scratch/UCL/applications/gcc/4.9.2/bin/../lib/gcc/x86_64-unknown-linux-gnu/4.9.2/ -mtune=corei7 -march=x86-64 -g -O2
#
# seed  -856184762    56084246  1879237424  1172281331  -781370876  -955856331  1003706597  1969520168   272693159  -465748468 -1172994462   -59083409
#
#      Author: C. J. Pickard (cjp20@cam.ac.uk)
#                Space group: P21
#

%BLOCK LATTICE_ABC
      3.91509      5.48072      9.55828
    102.80038     90.00000     90.00000
%ENDBLOCK LATTICE_ABC

%BLOCK POSITIONS_FRAC
  Li  -0.0676743  -0.0134497   0.1565975 SPIN=   0.00000
  Li   0.4323257   0.0134497  -0.1565975 SPIN=   0.00000
  Fe  -0.0366959   0.4292340  -0.1655908 SPIN=   4.00000
  Fe   0.4633041  -0.4292340   0.1655908 SPIN=   4.00000
   O  -0.5808330  -0.2124008  -0.4048934 SPIN=   0.00000
   O  -0.0645464  -0.4465541  -0.3626706 SPIN=   0.00000
   O  -0.0646197   0.0164187  -0.2985949 SPIN=   0.00000
   O  -0.0649216  -0.2069212  -0.5537868 SPIN=   0.00000
   S  -0.1937302  -0.2123644  -0.4049864 SPIN=   0.00000
   O  -0.0808330   0.2124008   0.4048934 SPIN=   0.00000
   O   0.4354536   0.4465541   0.3626706 SPIN=   0.00000
   O   0.4353803  -0.0164187   0.2985949 SPIN=   0.00000
   O   0.4350784   0.2069212   0.5537868 SPIN=   0.00000
   S   0.3062698   0.2123644   0.4049864 SPIN=   0.00000
   F   0.3062728  -0.2918807  -0.1057326 SPIN=   0.00000
   F  -0.1937272   0.2918807   0.1057326 SPIN=   0.00000
%ENDBLOCK POSITIONS_FRAC

# Note: total spin =   8.00

KPOINTS_MP_SPACING 0.07

%BLOCK SPECIES_POT
QC5
%ENDBLOCK SPECIES_POT

SNAP_TO_SYMMETRY
SYMMETRY_GENERATE

