#              Generated by Buildcell
#
# at 21:47:17 (GMT+1.0) 18th August 2020
# in /lustre/scratch/uccabz1/launch_tmp
# on node-c12l-017
# by uccabz1
#
# compiler GCC version 4.9.2
# options -cpp -iprefix /lustre/shared/ucl/apps/gcc/4.9.2/bin/../lib/gcc/x86_64-unknown-linux-gnu/4.9.2/ -mtune=corei7 -march=x86-64 -g -Og
#
# seed   411851797  -769291175   455536164  1271621339  1668312039  1219724343 -1034420948  -698720593   616055224  1891997368  1360221577   334099719
#
#      Author: C. J. Pickard (cjp20@cam.ac.uk)
#                Space group: Pc
#

%BLOCK LATTICE_ABC
      4.96330      5.91760      6.92777
    100.60305     90.00000     90.00000
%ENDBLOCK LATTICE_ABC

%BLOCK POSITIONS_FRAC
  Li  -0.3625985   0.2707797  -0.2276510 SPIN=   0.00000
  Li   0.3625985  -0.2292203   0.2723490 SPIN=   0.00000
  Fe  -0.3594544   0.3075664   0.2415348 SPIN=   4.00000
  Fe   0.3594544  -0.1924336  -0.2584652 SPIN=   4.00000
   O   0.2093252   0.0469661  -0.5733851 SPIN=   0.00000
   O   0.0218414   0.2157630  -0.2477008 SPIN=   0.00000
   O  -0.0630231   0.4028795  -0.5333183 SPIN=   0.00000
   O   0.3936401   0.4120512  -0.3886258 SPIN=   0.00000
   S   0.1404459   0.2694149  -0.4357575 SPIN=   0.00000
   O  -0.2093252  -0.4530339  -0.0733851 SPIN=   0.00000
   O  -0.0218414  -0.2842370   0.2522992 SPIN=   0.00000
   O   0.0630231  -0.0971205  -0.0333183 SPIN=   0.00000
   O  -0.3936401  -0.0879488   0.1113742 SPIN=   0.00000
   S  -0.1404459  -0.2305851   0.0642425 SPIN=   0.00000
   F   0.2844630   0.3035518   0.0779356 SPIN=   0.00000
   F  -0.2844630  -0.1964482  -0.4220644 SPIN=   0.00000
%ENDBLOCK POSITIONS_FRAC

# Note: total spin =   8.00

KPOINTS_MP_SPACING 0.07

%BLOCK SPECIES_POT
QC5
%ENDBLOCK SPECIES_POT

SNAP_TO_SYMMETRY
SYMMETRY_GENERATE

