#              Generated by Buildcell
#
# at 05:25:48 (GMT+1.0) 4th August 2020
# in /lustre/scratch/uccabz1/launch_tmp
# on node-c12e-020
# by uccabz1
#
# compiler GCC version 4.9.2
# options -cpp -iprefix /lustre/shared/ucl/apps/gcc/4.9.2/bin/../lib/gcc/x86_64-unknown-linux-gnu/4.9.2/ -mtune=corei7 -march=x86-64 -g -Og
#
# seed  2058980350  -451634873   466683052  1189658029 -1116206512 -1452646781  1546046121 -2137110963  -558426799 -1776547720  1358299739  -244115803
#
#      Author: C. J. Pickard (cjp20@cam.ac.uk)
#                Space group: C2
#

%BLOCK LATTICE_ABC
      5.78827      5.78827      6.11813
     88.48955     88.48955     77.48854
%ENDBLOCK LATTICE_ABC

%BLOCK POSITIONS_FRAC
  Li  -0.0069072   0.3783951  -0.1656657 SPIN=   0.00000
  Li  -0.3783951   0.0069072   0.1656657 SPIN=   0.00000
  Fe  -0.3914711   0.3914711   0.5000000 SPIN=   6.30433
  Fe   0.3237601  -0.3237601   0.0000000 SPIN=   1.69567
   O  -0.1424659   0.1827930   0.2755205 SPIN=   0.00000
   O   0.1711870   0.4135836   0.2584450 SPIN=   0.00000
   O   0.2282415   0.0351021   0.0641266 SPIN=   0.00000
   O   0.2329186   0.0347058   0.4685110 SPIN=   0.00000
   S   0.1224703   0.1665461   0.2666508 SPIN=   0.00000
   O  -0.1827930   0.1424659  -0.2755205 SPIN=   0.00000
   O  -0.4135836  -0.1711870  -0.2584450 SPIN=   0.00000
   O  -0.0351021  -0.2282415  -0.0641266 SPIN=   0.00000
   O  -0.0347058  -0.2329186  -0.4685110 SPIN=   0.00000
   S  -0.1665461  -0.1224703  -0.2666508 SPIN=   0.00000
   F   0.3267003   0.3827321  -0.2431745 SPIN=   0.00000
   F  -0.3827321  -0.3267003   0.2431745 SPIN=   0.00000
%ENDBLOCK POSITIONS_FRAC

# Note: total spin =   8.00

KPOINTS_MP_SPACING 0.07

%BLOCK SPECIES_POT
QC5
%ENDBLOCK SPECIES_POT

SNAP_TO_SYMMETRY
SYMMETRY_GENERATE

