#              Generated by Buildcell
#
# at 19:22:09 (GMT+1.0) 18th August 2020
# in /lustre/scratch/uccabz1/launch_tmp
# on node-c12k-032
# by uccabz1
#
# compiler GCC version 4.9.2
# options -cpp -iprefix /lustre/shared/ucl/apps/gcc/4.9.2/bin/../lib/gcc/x86_64-unknown-linux-gnu/4.9.2/ -mtune=corei7 -march=x86-64 -g -Og
#
# seed   534600966 -2126514158   -46154660  1750247525  1826027233  -642494766  2123713665 -1648103262 -1115348396   -92298549  -219834426   -14313925
#
#      Author: C. J. Pickard (cjp20@cam.ac.uk)
#                Space group: P21212
#

%BLOCK LATTICE_ABC
      4.83474      6.29292      6.57362
     90.00000     90.00000     90.00000
%ENDBLOCK LATTICE_ABC

%BLOCK POSITIONS_FRAC
  Li   0.5000000  -0.0000000   0.3238921 SPIN=   0.00000
  Li  -0.0000000   0.5000000  -0.3238921 SPIN=   0.00000
  Fe  -0.0000000  -0.0000000  -0.4140338 SPIN=   4.00000
  Fe  -0.5000000   0.5000000   0.4140338 SPIN=   4.00000
   O  -0.2171227  -0.1409420   0.1740725 SPIN=   0.00000
   O   0.2851914  -0.2064703   0.1377306 SPIN=   0.00000
   O   0.2171227   0.1409420   0.1740725 SPIN=   0.00000
   O  -0.2851914   0.2064703   0.1377306 SPIN=   0.00000
   O  -0.7171227  -0.3590580  -0.1740725 SPIN=   0.00000
   O  -0.2148086  -0.2935297  -0.1377306 SPIN=   0.00000
   O   0.7171227   0.3590580  -0.1740725 SPIN=   0.00000
   O   0.2148086   0.2935297  -0.1377306 SPIN=   0.00000
   S  -0.0000000  -0.0000000   0.0859651 SPIN=   0.00000
   S  -0.5000000   0.5000000  -0.0859651 SPIN=   0.00000
   F   0.5000000  -0.0000000  -0.2957549 SPIN=   0.00000
   F  -0.0000000   0.5000000   0.2957549 SPIN=   0.00000
%ENDBLOCK POSITIONS_FRAC

# Note: total spin =   8.00

KPOINTS_MP_SPACING 0.07

%BLOCK SPECIES_POT
QC5
%ENDBLOCK SPECIES_POT

SNAP_TO_SYMMETRY
SYMMETRY_GENERATE

