#              Generated by Buildcell
#
# at 00:10:45 (GMT+1.0) 19th August 2020
# in /scratch/scratch/uccabz1/launch_tmp
# on node-k10f-004
# by uccabz1
#
# compiler GCC version 4.9.2
# options -cpp -iprefix /scratch/UCL/applications/gcc/4.9.2/bin/../lib/gcc/x86_64-unknown-linux-gnu/4.9.2/ -mtune=corei7 -march=x86-64 -g -O2
#
# seed -1081831114 -1213396001  1578097045 -1311845240  1327644589  1772046658   939397892   685900922  1685818629 -1199412753  1602078904   340547427
#
#      Author: C. J. Pickard (cjp20@cam.ac.uk)
#                Space group: P-1
#

%BLOCK LATTICE_ABC
      4.00105      6.67589      7.63659
     89.25150     84.71613     79.96051
%ENDBLOCK LATTICE_ABC

%BLOCK POSITIONS_FRAC
  Li   0.2964959  -0.3481212  -0.2340136 SPIN=   0.00000
  Li  -0.2964959   0.3481212   0.2340136 SPIN=   0.00000
  Fe  -0.7447054   0.2546136  -0.4431693 SPIN=   4.00000
  Fe   0.7447054  -0.2546136   0.4431693 SPIN=   4.00000
   O  -0.1838776   0.3440847  -0.2708185 SPIN=   0.00000
   O  -0.1429929   0.0067686  -0.1281529 SPIN=   0.00000
   O  -0.6824275   0.2542220  -0.0904855 SPIN=   0.00000
   S  -0.2971131   0.2303276  -0.1092492 SPIN=   0.00000
   O   0.1838776  -0.3440847   0.2708185 SPIN=   0.00000
   O   0.1429929  -0.0067686   0.1281529 SPIN=   0.00000
   O   0.6824275  -0.2542220   0.0904855 SPIN=   0.00000
   S   0.2971131  -0.2303276   0.1092492 SPIN=   0.00000
   O   0.5000000  -0.5000000   0.5000000 SPIN=   0.00000
   O   0.0000000   0.0000000  -0.5000000 SPIN=   0.00000
   F   0.2016085   0.2811103   0.3231064 SPIN=   0.00000
   F  -0.2016085  -0.2811103  -0.3231064 SPIN=   0.00000
%ENDBLOCK POSITIONS_FRAC

# Note: total spin =   8.00

KPOINTS_MP_SPACING 0.07

%BLOCK SPECIES_POT
QC5
%ENDBLOCK SPECIES_POT

SNAP_TO_SYMMETRY
SYMMETRY_GENERATE

