#              Generated by Buildcell
#
# at 23:54:17 (GMT+1.0) 18th August 2020
# in /lustre/scratch/uccabz1/launch_tmp
# on node-c12m-030
# by uccabz1
#
# compiler GCC version 4.9.2
# options -cpp -iprefix /lustre/shared/ucl/apps/gcc/4.9.2/bin/../lib/gcc/x86_64-unknown-linux-gnu/4.9.2/ -mtune=corei7 -march=x86-64 -g -Og
#
# seed   279621140 -2076584882 -1948699969 -1153675963  1624925300  -636311430  -713116793  1823315290  1980686010   517229785 -1037784993  1878175247
#
#      Author: C. J. Pickard (cjp20@cam.ac.uk)
#                Space group: P-1
#

%BLOCK LATTICE_ABC
      4.42700      6.06718      8.16847
     73.73001     79.44182     72.81477
%ENDBLOCK LATTICE_ABC

%BLOCK POSITIONS_FRAC
  Li   0.0000000  -0.5000000   0.5000000 SPIN=   0.00000
  Li   0.0000000   0.5000000   0.0000000 SPIN=   0.00000
  Fe   0.2500729   0.0963600  -0.1995890 SPIN=   4.00000
  Fe  -0.2500729  -0.0963600   0.1995890 SPIN=   4.00000
   O  -0.7968472   0.5057873  -0.2434196 SPIN=   0.00000
   O  -0.4502279   0.7768960  -0.3773383 SPIN=   0.00000
   O  -0.2117791   0.3460060  -0.2731327 SPIN=   0.00000
   S  -0.4823453   0.5553421  -0.2398540 SPIN=   0.00000
   O   0.7968472  -0.5057873   0.2434196 SPIN=   0.00000
   O   0.4502279  -0.7768960   0.3773383 SPIN=   0.00000
   O   0.2117791  -0.3460060   0.2731327 SPIN=   0.00000
   S   0.4823453  -0.5553421   0.2398540 SPIN=   0.00000
   O   0.5000000  -0.5000000   0.5000000 SPIN=   0.00000
   O   0.5000000  -0.5000000  -0.0000000 SPIN=   0.00000
   F   0.5000000  -0.0000000   0.0000000 SPIN=   0.00000
   F   0.0000000   1.0000000  -0.5000000 SPIN=   0.00000
%ENDBLOCK POSITIONS_FRAC

# Note: total spin =   8.00

KPOINTS_MP_SPACING 0.07

%BLOCK SPECIES_POT
QC5
%ENDBLOCK SPECIES_POT

SNAP_TO_SYMMETRY
SYMMETRY_GENERATE

