#              Generated by Buildcell
#
# at 00:55:03 (GMT+1.0) 19th August 2020
# in /lustre/scratch/uccabz1/launch_tmp
# on node-c12f-006
# by uccabz1
#
# compiler GCC version 4.9.2
# options -cpp -iprefix /lustre/shared/ucl/apps/gcc/4.9.2/bin/../lib/gcc/x86_64-unknown-linux-gnu/4.9.2/ -mtune=corei7 -march=x86-64 -g -Og
#
# seed  1521107951  -751092556  -955602032   686071355  -122842126  1113239999  1572664787  1438578629   180890192 -1895355524 -1374812799 -1247808665
#
#      Author: C. J. Pickard (cjp20@cam.ac.uk)
#                Space group: P2
#

%BLOCK LATTICE_ABC
      5.44125      5.94214      6.18885
     90.00000     90.00000     91.82992
%ENDBLOCK LATTICE_ABC

%BLOCK POSITIONS_FRAC
  Li   0.2385197  -0.2445602   0.4590710 SPIN=   0.00000
  Li  -0.2385197   0.2445602   0.4590710 SPIN=   0.00000
  Fe   0.2647041   0.2283151  -0.3161212 SPIN=   4.00000
  Fe  -0.2647041  -0.2283151  -0.3161212 SPIN=   4.00000
   O  -0.3342545   0.1154504   0.1597513 SPIN=   0.00000
   O  -0.2963293   0.4836029  -0.0262838 SPIN=   0.00000
   O  -0.3508687   0.1332007  -0.2394906 SPIN=   0.00000
   O   0.0415953   0.2155255  -0.0488472 SPIN=   0.00000
   S  -0.2349643   0.2369449  -0.0387176 SPIN=   0.00000
   O   0.3342545  -0.1154504   0.1597513 SPIN=   0.00000
   O   0.2963293  -0.4836029  -0.0262838 SPIN=   0.00000
   O   0.3508687  -0.1332007  -0.2394906 SPIN=   0.00000
   O  -0.0415953  -0.2155255  -0.0488472 SPIN=   0.00000
   S   0.2349643  -0.2369449  -0.0387176 SPIN=   0.00000
   F  -0.2262735  -0.2916352   0.3745722 SPIN=   0.00000
   F   0.2262735   0.2916352   0.3745722 SPIN=   0.00000
%ENDBLOCK POSITIONS_FRAC

# Note: total spin =   8.00

KPOINTS_MP_SPACING 0.07

%BLOCK SPECIES_POT
QC5
%ENDBLOCK SPECIES_POT

SNAP_TO_SYMMETRY
SYMMETRY_GENERATE

