#              Generated by Buildcell
#
# at 01:43:49 (GMT+1.0) 19th August 2020
# in /lustre/scratch/uccabz1/launch_tmp
# on node-c12l-006
# by uccabz1
#
# compiler GCC version 4.9.2
# options -cpp -iprefix /lustre/shared/ucl/apps/gcc/4.9.2/bin/../lib/gcc/x86_64-unknown-linux-gnu/4.9.2/ -mtune=corei7 -march=x86-64 -g -Og
#
# seed  1234689834   -33310797  -978147268  1617557872  -626407383  1949968056  1109523980 -1808396698 -1854037236    -1787873  -812158322  -242981706
#
#      Author: C. J. Pickard (cjp20@cam.ac.uk)
#                Space group: P-1
#

%BLOCK LATTICE_ABC
      3.96975      5.96135      8.52272
     86.32176     83.56392     89.12518
%ENDBLOCK LATTICE_ABC

%BLOCK POSITIONS_FRAC
  Li   0.2676090   0.2568993   0.4492757 SPIN=   0.00000
  Li  -0.2676090  -0.2568993  -0.4492757 SPIN=   0.00000
  Fe  -0.0066352   0.2454912   0.1459889 SPIN=   4.00000
  Fe   0.0066352  -0.2454912  -0.1459889 SPIN=   4.00000
   O  -0.2997591   0.0564497  -0.1077518 SPIN=   0.00000
   O  -0.6005912   0.2306826  -0.3244088 SPIN=   0.00000
   O  -0.1332855   0.4333455  -0.2273983 SPIN=   0.00000
   O  -0.6804514   0.3833511  -0.0593862 SPIN=   0.00000
   S  -0.4285218   0.2759572  -0.1797363 SPIN=   0.00000
   O   0.2997591  -0.0564497   0.1077518 SPIN=   0.00000
   O   0.6005912  -0.2306826   0.3244088 SPIN=   0.00000
   O   0.1332855  -0.4333455   0.2273983 SPIN=   0.00000
   O   0.6804514  -0.3833511   0.0593862 SPIN=   0.00000
   S   0.4285218  -0.2759572   0.1797363 SPIN=   0.00000
   F  -0.2173993   0.2020121   0.3822222 SPIN=   0.00000
   F   0.2173993  -0.2020121  -0.3822222 SPIN=   0.00000
%ENDBLOCK POSITIONS_FRAC

# Note: total spin =   8.00

KPOINTS_MP_SPACING 0.07

%BLOCK SPECIES_POT
QC5
%ENDBLOCK SPECIES_POT

SNAP_TO_SYMMETRY
SYMMETRY_GENERATE

