#              Generated by Buildcell
#
# at 00:53:47 (GMT+1.0) 19th August 2020
# in /lustre/scratch/uccabz1/launch_tmp
# on node-c12n-011
# by uccabz1
#
# compiler GCC version 4.9.2
# options -cpp -iprefix /lustre/shared/ucl/apps/gcc/4.9.2/bin/../lib/gcc/x86_64-unknown-linux-gnu/4.9.2/ -mtune=corei7 -march=x86-64 -g -Og
#
# seed -2084199794  1582843244 -1957311712  -118874454 -1005334909   -34705991  -621995616  -197350198  2114802650  -378513104  1208684478 -1245524125
#
#      Author: C. J. Pickard (cjp20@cam.ac.uk)
#                Space group: P-1
#

%BLOCK LATTICE_ABC
      4.04553      7.34682      7.41548
    107.24450     97.78761    103.18078
%ENDBLOCK LATTICE_ABC

%BLOCK POSITIONS_FRAC
  Li  -0.1970350  -0.3445873   0.3785946 SPIN=   0.00000
  Li   0.1970350   0.3445873  -0.3785946 SPIN=   0.00000
  Fe   0.0000000  -0.5000000   0.0000000 SPIN=   6.40182
  Fe  -0.5000000  -0.0000000   0.5000000 SPIN=   1.59818
   O  -0.4356696   0.0470965   0.1801492 SPIN=   0.00000
   O   0.1617872   0.1370004   0.3749488 SPIN=   0.00000
   O  -0.0861536   0.3996725   0.3207631 SPIN=   0.00000
   S  -0.0725107   0.1880761   0.2314704 SPIN=   0.00000
   O   0.4356696  -0.0470965  -0.1801492 SPIN=   0.00000
   O  -0.1617872  -0.1370004  -0.3749488 SPIN=   0.00000
   O   0.0861536  -0.3996725  -0.3207631 SPIN=   0.00000
   S   0.0725107  -0.1880761  -0.2314704 SPIN=   0.00000
   O   0.0000000   0.0000000   0.0000000 SPIN=   0.00000
   O  -0.5000000   0.5000000   0.5000000 SPIN=   0.00000
   F  -0.6465907  -0.2969195   0.2516427 SPIN=   0.00000
   F   0.6465907   0.2969195  -0.2516427 SPIN=   0.00000
%ENDBLOCK POSITIONS_FRAC

# Note: total spin =   8.00

KPOINTS_MP_SPACING 0.07

%BLOCK SPECIES_POT
QC5
%ENDBLOCK SPECIES_POT

SNAP_TO_SYMMETRY
SYMMETRY_GENERATE

