#              Generated by Buildcell
#
# at 23:50:56 (GMT+1.0) 18th August 2020
# in /scratch/scratch/uccabz1/launch_tmp
# on node-k10d-001
# by uccabz1
#
# compiler GCC version 4.9.2
# options -cpp -iprefix /scratch/UCL/applications/gcc/4.9.2/bin/../lib/gcc/x86_64-unknown-linux-gnu/4.9.2/ -mtune=corei7 -march=x86-64 -g -O2
#
# seed  1019312348   -43664629   312005715  -282654493 -1174702639  1894832179  -236790918    65974733  1833469991  -618586583 -1978145959   830372970
#
#      Author: C. J. Pickard (cjp20@cam.ac.uk)
#                Space group: P-1
#

%BLOCK LATTICE_ABC
      3.86368      7.36311      7.41144
     98.29611     94.85377    104.88448
%ENDBLOCK LATTICE_ABC

%BLOCK POSITIONS_FRAC
  Li  -0.2377638   0.0823295  -0.1996605 SPIN=   0.00000
  Li   0.2377638  -0.0823295   0.1996605 SPIN=   0.00000
  Fe   0.0688915  -0.4978943  -0.2410402 SPIN=   4.00000
  Fe  -0.0688915   0.4978943   0.2410402 SPIN=   4.00000
   O  -0.4973938  -0.1889761  -0.6180080 SPIN=   0.00000
   O  -0.5815977  -0.2508140  -0.3029445 SPIN=   0.00000
   O   0.0115600  -0.0641093  -0.3672827 SPIN=   0.00000
   O  -0.2040621  -0.4108368  -0.4866036 SPIN=   0.00000
   S  -0.3178734  -0.2286840  -0.4437097 SPIN=   0.00000
   O   0.4973938   0.1889761   0.6180080 SPIN=   0.00000
   O   0.5815977   0.2508140   0.3029445 SPIN=   0.00000
   O  -0.0115600   0.0641093   0.3672827 SPIN=   0.00000
   O   0.2040621   0.4108368   0.4866036 SPIN=   0.00000
   S   0.3178734   0.2286840   0.4437097 SPIN=   0.00000
   F  -0.3735032   0.2677393  -0.0287644 SPIN=   0.00000
   F   0.3735032  -0.2677393   0.0287644 SPIN=   0.00000
%ENDBLOCK POSITIONS_FRAC

# Note: total spin =   8.00

KPOINTS_MP_SPACING 0.07

%BLOCK SPECIES_POT
QC5
%ENDBLOCK SPECIES_POT

SNAP_TO_SYMMETRY
SYMMETRY_GENERATE

