#              Generated by Buildcell
#
# at 00:50:42 (GMT+1.0) 19th August 2020
# in /lustre/scratch/uccabz1/launch_tmp
# on node-c12g-024
# by uccabz1
#
# compiler GCC version 4.9.2
# options -cpp -iprefix /lustre/shared/ucl/apps/gcc/4.9.2/bin/../lib/gcc/x86_64-unknown-linux-gnu/4.9.2/ -mtune=corei7 -march=x86-64 -g -Og
#
# seed -2144537844 -1616538483  1144411568 -1508377107 -1613817891  -295815793 -1333295764  -332172672 -1165004284 -1426135385  1461825807 -1900060502
#
#      Author: C. J. Pickard (cjp20@cam.ac.uk)
#                Space group: C2
#

%BLOCK LATTICE_ABC
      5.91411      5.91411      6.69187
    110.89865    110.89865     92.88873
%ENDBLOCK LATTICE_ABC

%BLOCK POSITIONS_FRAC
  Li   0.1316840   0.1517274  -0.1712602 SPIN=   0.00000
  Li  -0.1517274  -0.1316840   0.1712602 SPIN=   0.00000
  Fe   0.0464950   0.4145516   0.3047591 SPIN=   4.00000
  Fe  -0.4145516  -0.0464950  -0.3047591 SPIN=   4.00000
   O  -0.2743420  -0.3066016  -0.1794305 SPIN=   0.00000
   O   0.0686908  -0.4057882  -0.3035910 SPIN=   0.00000
   O  -0.2058122  -0.7353694  -0.3030593 SPIN=   0.00000
   O   0.0901589  -0.4105467   0.0710257 SPIN=   0.00000
   S  -0.0803261  -0.4645765  -0.1787638 SPIN=   0.00000
   O   0.3066016   0.2743420   0.1794305 SPIN=   0.00000
   O   0.4057882  -0.0686908   0.3035910 SPIN=   0.00000
   O   0.7353694   0.2058122   0.3030593 SPIN=   0.00000
   O   0.4105467  -0.0901589  -0.0710257 SPIN=   0.00000
   S   0.4645765   0.0803261   0.1787638 SPIN=   0.00000
   F  -0.2156431  -0.3415632   0.3322055 SPIN=   0.00000
   F   0.3415632   0.2156431  -0.3322055 SPIN=   0.00000
%ENDBLOCK POSITIONS_FRAC

# Note: total spin =   8.00

KPOINTS_MP_SPACING 0.07

%BLOCK SPECIES_POT
QC5
%ENDBLOCK SPECIES_POT

SNAP_TO_SYMMETRY
SYMMETRY_GENERATE

