#              Generated by Buildcell
#
# at 20:16:42 (GMT+1.0) 18th August 2020
# in /lustre/scratch/uccabz1/launch_tmp
# on node-c12i-018
# by uccabz1
#
# compiler GCC version 4.9.2
# options -cpp -iprefix /lustre/shared/ucl/apps/gcc/4.9.2/bin/../lib/gcc/x86_64-unknown-linux-gnu/4.9.2/ -mtune=corei7 -march=x86-64 -g -Og
#
# seed  1756366515  1402915751 -1499321895  1697469556  1027798040 -2041369460   108128985  -831817426   340231143  -869564265  -503324109  2038460287
#
#      Author: C. J. Pickard (cjp20@cam.ac.uk)
#                Space group: Cc
#

%BLOCK LATTICE_ABC
      3.95313      7.38231      7.38231
     86.14163     74.47360     74.47360
%ENDBLOCK LATTICE_ABC

%BLOCK POSITIONS_FRAC
  Li  -0.1228948  -0.3082765   0.3899596 SPIN=   0.00000
  Li   0.3771052   0.3899596  -0.3082765 SPIN=   0.00000
  Fe  -0.0287469   0.1057926  -0.2124523 SPIN=   4.00000
  Fe   0.4712531  -0.2124523   0.1057926 SPIN=   4.00000
   O  -0.7041739   0.0667882   0.4117805 SPIN=   0.00000
   O  -0.3276901   0.2833413   0.4218214 SPIN=   0.00000
   O  -0.0563351  -0.0099954   0.2340985 SPIN=   0.00000
   O  -0.2228400  -0.0244809   0.5816701 SPIN=   0.00000
   S  -0.3277598   0.0789133   0.4123426 SPIN=   0.00000
   O  -1.2041739   0.4117805   0.0667882 SPIN=   0.00000
   O  -0.8276901   0.4218214   0.2833413 SPIN=   0.00000
   O  -0.5563351   0.2340985  -0.0099954 SPIN=   0.00000
   O  -0.7228400   0.5816701  -0.0244809 SPIN=   0.00000
   S  -0.8277598   0.4123426   0.0789133 SPIN=   0.00000
   F  -0.1059700   0.3557416  -0.3080580 SPIN=   0.00000
   F   0.3940300  -0.3080580   0.3557416 SPIN=   0.00000
%ENDBLOCK POSITIONS_FRAC

# Note: total spin =   8.00

KPOINTS_MP_SPACING 0.07

%BLOCK SPECIES_POT
QC5
%ENDBLOCK SPECIES_POT

SNAP_TO_SYMMETRY
SYMMETRY_GENERATE

