#              Generated by Buildcell
#
# at 22:45:31 (GMT+1.0) 18th August 2020
# in /lustre/scratch/uccabz1/launch_tmp
# on node-c12c-003
# by uccabz1
#
# compiler GCC version 4.9.2
# options -cpp -iprefix /lustre/shared/ucl/apps/gcc/4.9.2/bin/../lib/gcc/x86_64-unknown-linux-gnu/4.9.2/ -mtune=corei7 -march=x86-64 -g -Og
#
# seed -2135301038 -1733637248  1515025666   201368868 -1951670024  -896341532  2055454352 -2073167292 -1141989413   -63536426   294850530 -1464947380
#
#      Author: C. J. Pickard (cjp20@cam.ac.uk)
#                Space group: Cmm2
#

%BLOCK LATTICE_ABC
      5.08811      6.37284      6.37284
    104.56818     90.00000     90.00000
%ENDBLOCK LATTICE_ABC

%BLOCK POSITIONS_FRAC
  Li   0.3357463   0.3080574  -0.3080574 SPIN=   0.00000
  Li   0.3357463  -0.3080574   0.3080574 SPIN=   0.00000
  Fe   0.2380024   0.0000000   0.0000000 SPIN=   7.07200
  Fe  -0.2113440   0.5000000   0.5000000 SPIN=   0.92800
   O  -0.2155275  -0.1794648   0.4642611 SPIN=   0.00000
   O   0.1706825  -0.0258734   0.3194970 SPIN=   0.00000
   O  -0.2155275   0.1794648  -0.4642611 SPIN=   0.00000
   O   0.1706825   0.0258734  -0.3194970 SPIN=   0.00000
   O  -0.2155275  -0.4642611   0.1794648 SPIN=   0.00000
   O   0.1706825  -0.3194970   0.0258734 SPIN=   0.00000
   O  -0.2155275   0.4642611  -0.1794648 SPIN=   0.00000
   O   0.1706825   0.3194970  -0.0258734 SPIN=   0.00000
   S  -0.0197725  -0.5000000   0.0000000 SPIN=   0.00000
   S  -0.0197725   0.0000000   0.5000000 SPIN=   0.00000
   F  -0.3764156   0.0000000  -0.0000000 SPIN=   0.00000
   F   0.3702406  -0.5000000   0.5000000 SPIN=   0.00000
%ENDBLOCK POSITIONS_FRAC

# Note: total spin =   8.00

KPOINTS_MP_SPACING 0.07

%BLOCK SPECIES_POT
QC5
%ENDBLOCK SPECIES_POT

SNAP_TO_SYMMETRY
SYMMETRY_GENERATE

