#              Generated by Buildcell
#
# at 04:54:15 (GMT+1.0) 4th August 2020
# in /lustre/scratch/uccabz1/launch_tmp
# on node-c12m-020
# by uccabz1
#
# compiler GCC version 4.9.2
# options -cpp -iprefix /lustre/shared/ucl/apps/gcc/4.9.2/bin/../lib/gcc/x86_64-unknown-linux-gnu/4.9.2/ -mtune=corei7 -march=x86-64 -g -Og
#
# seed -1336704016  1711818729  1107817273  -701992310 -1125589977  1803102112   430732805  -777499762  -312282262   -54439589   194882870   378821942
#
#      Author: C. J. Pickard (cjp20@cam.ac.uk)
#                Space group: P-1
#

%BLOCK LATTICE_ABC
      4.05097      6.43969      7.73820
     83.28291     86.05320     89.94727
%ENDBLOCK LATTICE_ABC

%BLOCK POSITIONS_FRAC
  Li  -0.2322270  -0.1768013  -0.1324931 SPIN=   0.00000
  Li   0.2322270   0.1768013   0.1324931 SPIN=   0.00000
  Fe   0.2309206  -0.3473218   0.1501724 SPIN=   4.00000
  Fe  -0.2309206   0.3473218  -0.1501724 SPIN=   4.00000
   O  -0.4071970   0.3341740   0.5091092 SPIN=   0.00000
   O  -0.9190719   0.4156037   0.3582783 SPIN=   0.00000
   O  -0.9496489   0.2101911   0.6500233 SPIN=   0.00000
   O  -0.7098800   0.0529602   0.3930847 SPIN=   0.00000
   S  -0.7464494   0.2532322   0.4776239 SPIN=   0.00000
   O   0.4071970  -0.3341740  -0.5091092 SPIN=   0.00000
   O   0.9190719  -0.4156037  -0.3582783 SPIN=   0.00000
   O   0.9496489  -0.2101911  -0.6500233 SPIN=   0.00000
   O   0.7098800  -0.0529602  -0.3930847 SPIN=   0.00000
   S   0.7464494  -0.2532322  -0.4776239 SPIN=   0.00000
   F  -0.2622339   0.2433442   0.0896956 SPIN=   0.00000
   F   0.2622339  -0.2433442  -0.0896956 SPIN=   0.00000
%ENDBLOCK POSITIONS_FRAC

# Note: total spin =   8.00

KPOINTS_MP_SPACING 0.07

%BLOCK SPECIES_POT
QC5
%ENDBLOCK SPECIES_POT

SNAP_TO_SYMMETRY
SYMMETRY_GENERATE

