#              Generated by Buildcell
#
# at 23:23:20 (GMT+1.0) 18th August 2020
# in /lustre/scratch/uccabz1/launch_tmp
# on node-c12m-028
# by uccabz1
#
# compiler GCC version 4.9.2
# options -cpp -iprefix /lustre/shared/ucl/apps/gcc/4.9.2/bin/../lib/gcc/x86_64-unknown-linux-gnu/4.9.2/ -mtune=corei7 -march=x86-64 -g -Og
#
# seed  1700377234   179162536  -404537437   507219764   461931770 -1372044171   588699420  1790231170  -413810645  1522029762  1031791901  -887445848
#
#      Author: C. J. Pickard (cjp20@cam.ac.uk)
#                Space group: C2
#

%BLOCK LATTICE_ABC
      3.95327      7.19882      7.55126
     86.04060     75.43515     74.06317
%ENDBLOCK LATTICE_ABC

%BLOCK POSITIONS_FRAC
  Li  -0.0957662   0.1915323  -0.0000000 SPIN=   0.00000
  Li  -0.1339249   0.2678498  -0.5000000 SPIN=   0.00000
  Fe   0.0424098  -0.4788003  -0.2439494 SPIN=   4.00000
  Fe   0.4363905  -0.4788003   0.2439494 SPIN=   4.00000
   O  -0.0351089  -0.2787811   0.2086223 SPIN=   0.00000
   O  -0.1564197   0.0658788   0.2851285 SPIN=   0.00000
   O  -0.6430807  -0.1008951   0.3849377 SPIN=   0.00000
   S  -0.3170449  -0.0852381   0.2339474 SPIN=   0.00000
   O   0.3138900  -0.2787811  -0.2086223 SPIN=   0.00000
   O   0.0905409   0.0658788  -0.2851285 SPIN=   0.00000
   O   0.7439758  -0.1008951  -0.3849377 SPIN=   0.00000
   S   0.4022830  -0.0852381  -0.2339474 SPIN=   0.00000
   O  -0.3253676   0.6507352  -0.0000000 SPIN=   0.00000
   O  -0.4914123   0.9828246  -0.0000000 SPIN=   0.00000
   F   0.2299082  -0.4598165  -0.5000000 SPIN=   0.00000
   F   0.3114454  -0.6228908   0.0000000 SPIN=   0.00000
%ENDBLOCK POSITIONS_FRAC

# Note: total spin =   8.00

KPOINTS_MP_SPACING 0.07

%BLOCK SPECIES_POT
QC5
%ENDBLOCK SPECIES_POT

SNAP_TO_SYMMETRY
SYMMETRY_GENERATE

