#              Generated by Buildcell
#
# at 00:21:44 (GMT+1.0) 19th August 2020
# in /scratch/scratch/uccabz1/launch_tmp
# on node-k10e-028
# by uccabz1
#
# compiler GCC version 4.9.2
# options -cpp -iprefix /scratch/UCL/applications/gcc/4.9.2/bin/../lib/gcc/x86_64-unknown-linux-gnu/4.9.2/ -mtune=corei7 -march=x86-64 -g -O2
#
# seed   -42030559  1704881422     7577661  1436744152  -746713740  -517608033  1682394543  -850147689  1384466545 -1278692740 -1786756260 -1938342907
#
#      Author: C. J. Pickard (cjp20@cam.ac.uk)
#                Space group: Cc
#

%BLOCK LATTICE_ABC
      6.01264      6.01264      6.09048
     73.71900     73.71900     76.51344
%ENDBLOCK LATTICE_ABC

%BLOCK POSITIONS_FRAC
  Li  -0.3168249   0.3968606   0.1934634 SPIN=   0.00000
  Li   0.3968606  -0.3168249  -0.3065366 SPIN=   0.00000
  Fe  -0.1088446   0.3104307  -0.2750289 SPIN=   4.00000
  Fe   0.3104307  -0.1088446   0.2249711 SPIN=   4.00000
   O   0.2384227   0.3349917  -0.3775376 SPIN=   0.00000
   O   0.6726959   0.2682249  -0.4568984 SPIN=   0.00000
   O   0.4716537  -0.0079964  -0.5335495 SPIN=   0.00000
   O   0.4476194   0.0035743  -0.1244325 SPIN=   0.00000
   S   0.4575979   0.1496986  -0.3731045 SPIN=   0.00000
   O   0.3349917   0.2384227   0.1224624 SPIN=   0.00000
   O   0.2682249   0.6726959   0.0431016 SPIN=   0.00000
   O  -0.0079964   0.4716537  -0.0335495 SPIN=   0.00000
   O   0.0035743   0.4476194   0.3755675 SPIN=   0.00000
   S   0.1496986   0.4575979   0.1268955 SPIN=   0.00000
   F  -0.1832571   0.0573235   0.0488997 SPIN=   0.00000
   F   0.0573235  -0.1832571  -0.4511003 SPIN=   0.00000
%ENDBLOCK POSITIONS_FRAC

# Note: total spin =   8.00

KPOINTS_MP_SPACING 0.07

%BLOCK SPECIES_POT
QC5
%ENDBLOCK SPECIES_POT

SNAP_TO_SYMMETRY
SYMMETRY_GENERATE

