#              Generated by Buildcell
#
# at 02:38:45 (GMT+1.0) 19th August 2020
# in /lustre/scratch/uccabz1/launch_tmp
# on node-c12o-024
# by uccabz1
#
# compiler GCC version 4.9.2
# options -cpp -iprefix /lustre/shared/ucl/apps/gcc/4.9.2/bin/../lib/gcc/x86_64-unknown-linux-gnu/4.9.2/ -mtune=corei7 -march=x86-64 -g -Og
#
# seed  1652782950   217278219  1654960629 -1499342518   106569096   664584461  1272987669  -540202901 -1649084660  -897147408 -1296754902 -1657542175
#
#      Author: C. J. Pickard (cjp20@cam.ac.uk)
#                Space group: Pmn21
#

%BLOCK LATTICE_ABC
      5.62400      5.79403      6.13767
     90.00000     90.00000     90.00000
%ENDBLOCK LATTICE_ABC

%BLOCK POSITIONS_FRAC
  Li   0.0511416  -0.4509328  -0.5000000 SPIN=   0.00000
  Li  -0.4488584   0.4509328   0.0000000 SPIN=   0.00000
  Fe   0.2976113  -0.0682118   0.0000000 SPIN=   4.00000
  Fe  -0.2023887   0.0682118  -0.5000000 SPIN=   4.00000
   O  -0.1508285   0.2217299  -0.1935164 SPIN=   0.00000
   O   0.2501597   0.3976635  -0.1955262 SPIN=   0.00000
   O  -0.6508285  -0.2217299  -0.3064836 SPIN=   0.00000
   O  -0.2498403  -0.3976635  -0.3044738 SPIN=   0.00000
   O  -0.6508285  -0.2217299   0.3064836 SPIN=   0.00000
   O  -0.2498403  -0.3976635   0.3044738 SPIN=   0.00000
   O  -0.1508285   0.2217299   0.1935164 SPIN=   0.00000
   O   0.2501597   0.3976635   0.1955262 SPIN=   0.00000
   S   0.0520298   0.4318045  -0.0000000 SPIN=   0.00000
   S  -0.4479702  -0.4318045  -0.5000000 SPIN=   0.00000
   F  -0.3483050  -0.1156806  -0.0000000 SPIN=   0.00000
   F   0.1516950   0.1156806  -0.5000000 SPIN=   0.00000
%ENDBLOCK POSITIONS_FRAC

# Note: total spin =   8.00

KPOINTS_MP_SPACING 0.07

%BLOCK SPECIES_POT
QC5
%ENDBLOCK SPECIES_POT

SNAP_TO_SYMMETRY
SYMMETRY_GENERATE

