#              Generated by Buildcell
#
# at 01:43:42 (GMT+1.0) 19th August 2020
# in /lustre/scratch/uccabz1/launch_tmp
# on node-c12m-014
# by uccabz1
#
# compiler GCC version 4.9.2
# options -cpp -iprefix /lustre/shared/ucl/apps/gcc/4.9.2/bin/../lib/gcc/x86_64-unknown-linux-gnu/4.9.2/ -mtune=corei7 -march=x86-64 -g -Og
#
# seed -1922507642 -1823774207  1061118303   341558383  1855803197   587140552   380365528 -1321369728  1865645203  -124152507   246114580   292583175
#
#      Author: C. J. Pickard (cjp20@cam.ac.uk)
#                Space group: Pc
#

%BLOCK LATTICE_ABC
      4.87625      5.56783      7.78579
    108.89003     90.00000     90.00000
%ENDBLOCK LATTICE_ABC

%BLOCK POSITIONS_FRAC
  Li  -0.4379643   0.3238040  -0.3800205 SPIN=   0.00000
  Li   0.4379643  -0.1761960   0.1199795 SPIN=   0.00000
  Fe  -0.3077422   0.3247433   0.1220544 SPIN=   4.00000
  Fe   0.3077422  -0.1752567  -0.3779456 SPIN=   4.00000
   O   0.0824978   0.6718090  -0.2109818 SPIN=   0.00000
   O   0.2928260   0.3491572  -0.0958675 SPIN=   0.00000
   O   0.0802809   0.2191701  -0.4008922 SPIN=   0.00000
   O  -0.2114326   0.3653852  -0.1264676 SPIN=   0.00000
   S   0.0610430   0.4013804  -0.2085523 SPIN=   0.00000
   O  -0.0824978   0.1718090   0.2890182 SPIN=   0.00000
   O  -0.2928260  -0.1508428   0.4041325 SPIN=   0.00000
   O  -0.0802809  -0.2808299   0.0991078 SPIN=   0.00000
   O   0.2114326  -0.1346148   0.3735324 SPIN=   0.00000
   S  -0.0610430  -0.0986196   0.2914477 SPIN=   0.00000
   F  -0.4233368  -0.0841124  -0.1077956 SPIN=   0.00000
   F   0.4233368   0.4158876   0.3922044 SPIN=   0.00000
%ENDBLOCK POSITIONS_FRAC

# Note: total spin =   8.00

KPOINTS_MP_SPACING 0.07

%BLOCK SPECIES_POT
QC5
%ENDBLOCK SPECIES_POT

SNAP_TO_SYMMETRY
SYMMETRY_GENERATE

