#              Generated by Buildcell
#
# at 01:38:16 (GMT+1.0) 19th August 2020
# in /scratch/scratch/uccabz1/launch_tmp
# on node-k10b-010
# by uccabz1
#
# compiler GCC version 4.9.2
# options -cpp -iprefix /scratch/UCL/applications/gcc/4.9.2/bin/../lib/gcc/x86_64-unknown-linux-gnu/4.9.2/ -mtune=corei7 -march=x86-64 -g -O2
#
# seed   490072277  -947081470  2055892753 -1243191675 -1361717000  2001785245 -2124060403 -1337462378  1027584497  -110139968   501382143   485726547
#
#      Author: C. J. Pickard (cjp20@cam.ac.uk)
#                Space group: C2
#

%BLOCK LATTICE_ABC
      4.02815      4.02815     12.50493
     92.32361     92.32361     99.02884
%ENDBLOCK LATTICE_ABC

%BLOCK POSITIONS_FRAC
  Li  -0.0206853   0.0206853  -0.5000000 SPIN=   0.00000
  Li   0.2462653  -0.2462653   0.0000000 SPIN=   0.00000
  Fe   0.4857369   0.3649970   0.3386971 SPIN=   4.00000
  Fe  -0.3649970  -0.4857369  -0.3386971 SPIN=   4.00000
   O  -0.1544183  -0.0721137  -0.2196554 SPIN=   0.00000
   O   0.4043697  -0.0171513  -0.1249205 SPIN=   0.00000
   O  -0.0202005   0.3149558  -0.0595769 SPIN=   0.00000
   O   0.2546141   0.4515829  -0.2292669 SPIN=   0.00000
   S   0.1210912   0.1693184  -0.1583549 SPIN=   0.00000
   O   0.0721137   0.1544183   0.2196554 SPIN=   0.00000
   O   0.0171513  -0.4043697   0.1249205 SPIN=   0.00000
   O  -0.3149558   0.0202005   0.0595769 SPIN=   0.00000
   O  -0.4515829  -0.2546141   0.2292669 SPIN=   0.00000
   S  -0.1693184  -0.1210912   0.1583549 SPIN=   0.00000
   F   0.4855214   0.0431699  -0.4039102 SPIN=   0.00000
   F  -0.0431699  -0.4855214   0.4039102 SPIN=   0.00000
%ENDBLOCK POSITIONS_FRAC

# Note: total spin =   8.00

KPOINTS_MP_SPACING 0.07

%BLOCK SPECIES_POT
QC5
%ENDBLOCK SPECIES_POT

SNAP_TO_SYMMETRY
SYMMETRY_GENERATE

