#              Generated by Buildcell
#
# at 01:58:17 (GMT+1.0) 4th August 2020
# in /lustre/scratch/uccabz1/launch_tmp
# on node-c12g-013
# by uccabz1
#
# compiler GCC version 4.9.2
# options -cpp -iprefix /lustre/shared/ucl/apps/gcc/4.9.2/bin/../lib/gcc/x86_64-unknown-linux-gnu/4.9.2/ -mtune=corei7 -march=x86-64 -g -Og
#
# seed  -926886651  1164714577 -1529072364   526418735  -367105581  1771676755   728183156 -2000302310  1997873034  -243225643 -1655537773 -1579772621
#
#      Author: C. J. Pickard (cjp20@cam.ac.uk)
#                Space group: P21
#

%BLOCK LATTICE_ABC
      3.98331      6.43488      8.19102
    107.71310     90.00000     90.00000
%ENDBLOCK LATTICE_ABC

%BLOCK POSITIONS_FRAC
  Li  -0.0286159   0.2074826   0.3301796 SPIN=   0.00000
  Li   0.4713841  -0.2074826  -0.3301796 SPIN=   0.00000
  Fe   0.1425822  -0.2386310  -0.0046118 SPIN=   4.00000
  Fe  -0.3574178   0.2386310   0.0046118 SPIN=   4.00000
   O   0.8252191   0.3159841  -0.3572817 SPIN=   0.00000
   O   0.3057029   0.0955484  -0.3941560 SPIN=   0.00000
   O   0.3468157   0.3989702  -0.5199544 SPIN=   0.00000
   O   0.3056950   0.4777674  -0.2054613 SPIN=   0.00000
   S   0.4458582   0.3220676  -0.3692133 SPIN=   0.00000
   O   0.3252191  -0.3159841   0.3572817 SPIN=   0.00000
   O  -0.1942971  -0.0955484   0.3941560 SPIN=   0.00000
   O  -0.1531843  -0.3989702   0.5199544 SPIN=   0.00000
   O  -0.1943050  -0.4777674   0.2054613 SPIN=   0.00000
   S  -0.0541418  -0.3220676   0.3692133 SPIN=   0.00000
   F   0.3536416   0.0394521   0.2042404 SPIN=   0.00000
   F  -0.1463584  -0.0394521  -0.2042404 SPIN=   0.00000
%ENDBLOCK POSITIONS_FRAC

# Note: total spin =   8.00

KPOINTS_MP_SPACING 0.07

%BLOCK SPECIES_POT
QC5
%ENDBLOCK SPECIES_POT

SNAP_TO_SYMMETRY
SYMMETRY_GENERATE

