#              Generated by Buildcell
#
# at 00:58:38 (GMT+1.0) 19th August 2020
# in /lustre/scratch/uccabz1/launch_tmp
# on node-c12a-022
# by uccabz1
#
# compiler GCC version 4.9.2
# options -cpp -iprefix /lustre/shared/ucl/apps/gcc/4.9.2/bin/../lib/gcc/x86_64-unknown-linux-gnu/4.9.2/ -mtune=corei7 -march=x86-64 -g -Og
#
# seed   565271657  -773632418  1111658491   638758084  -220624745  -466593100  1899748768   -89158449 -1435229574   696322374   166527764   948746625
#
#      Author: C. J. Pickard (cjp20@cam.ac.uk)
#                Space group: P-1
#

%BLOCK LATTICE_ABC
      5.21205      5.66142      7.19016
     79.18213     80.04707     75.52232
%ENDBLOCK LATTICE_ABC

%BLOCK POSITIONS_FRAC
  Li   0.3331725  -0.0517468   0.2640320 SPIN=   0.00000
  Li  -0.3331725   0.0517468  -0.2640320 SPIN=   0.00000
  Fe   0.4760504  -0.4058243  -0.2578205 SPIN=   4.00000
  Fe  -0.4760504   0.4058243   0.2578205 SPIN=   4.00000
   O   0.1177125  -0.3479507   0.3939637 SPIN=   0.00000
   O  -0.1224001  -0.1047661   0.1269293 SPIN=   0.00000
   O  -0.2252917   0.0334379   0.4437204 SPIN=   0.00000
   O  -0.3605193  -0.3389165   0.3985642 SPIN=   0.00000
   S  -0.1476246  -0.1895489   0.3407944 SPIN=   0.00000
   O  -0.1177125   0.3479507  -0.3939637 SPIN=   0.00000
   O   0.1224001   0.1047661  -0.1269293 SPIN=   0.00000
   O   0.2252917  -0.0334379  -0.4437204 SPIN=   0.00000
   O   0.3605193   0.3389165  -0.3985642 SPIN=   0.00000
   S   0.1476246   0.1895489  -0.3407944 SPIN=   0.00000
   F  -0.2706810  -0.2769437  -0.1682455 SPIN=   0.00000
   F   0.2706810   0.2769437   0.1682455 SPIN=   0.00000
%ENDBLOCK POSITIONS_FRAC

# Note: total spin =   8.00

KPOINTS_MP_SPACING 0.07

%BLOCK SPECIES_POT
QC5
%ENDBLOCK SPECIES_POT

SNAP_TO_SYMMETRY
SYMMETRY_GENERATE

