#              Generated by Buildcell
#
# at 19:16:51 (GMT+1.0) 18th August 2020
# in /scratch/scratch/uccabz1/launch_tmp
# on node-k10d-010
# by uccabz1
#
# compiler GCC version 4.9.2
# options -cpp -iprefix /scratch/UCL/applications/gcc/4.9.2/bin/../lib/gcc/x86_64-unknown-linux-gnu/4.9.2/ -mtune=corei7 -march=x86-64 -g -O2
#
# seed  1520629381   536938378  1572457596   249187351   734828952 -1929920356  -697616446  -976207452  -515400470  -946705967 -1775596095 -2063925683
#
#      Author: C. J. Pickard (cjp20@cam.ac.uk)
#                Space group: Cc
#

%BLOCK LATTICE_ABC
      5.27203      6.20753      7.17654
    115.62551    107.23517     90.00000
%ENDBLOCK LATTICE_ABC

%BLOCK POSITIONS_FRAC
  Li   0.2233432  -0.2252644   0.1146391 SPIN=   0.00000
  Li  -0.2766568   0.3399035   0.1146391 SPIN=   0.00000
  Fe  -0.0920322  -0.4826663  -0.3925783 SPIN=   4.00000
  Fe  -0.5920322   0.0900880  -0.3925783 SPIN=   4.00000
   O   0.1324385   0.2880415   0.3862589 SPIN=   0.00000
   O   0.0964093   0.5358245   0.1891716 SPIN=   0.00000
   O   0.4062469   0.2315760   0.1462357 SPIN=   0.00000
   O   0.5085728   0.6037197   0.4967664 SPIN=   0.00000
   S   0.2859169   0.4147904   0.3046082 SPIN=   0.00000
   O   0.6324385   0.0982173   0.3862589 SPIN=   0.00000
   O   0.5964093  -0.3466529   0.1891716 SPIN=   0.00000
   O   0.9062469  -0.0853403   0.1462357 SPIN=   0.00000
   O   1.0085728  -0.1069532   0.4967664 SPIN=   0.00000
   S   0.7859169  -0.1101823   0.3046082 SPIN=   0.00000
   F  -0.2603859   0.1187145  -0.1722287 SPIN=   0.00000
   F   0.2396141  -0.2909432  -0.1722287 SPIN=   0.00000
%ENDBLOCK POSITIONS_FRAC

# Note: total spin =   8.00

KPOINTS_MP_SPACING 0.07

%BLOCK SPECIES_POT
QC5
%ENDBLOCK SPECIES_POT

SNAP_TO_SYMMETRY
SYMMETRY_GENERATE

