#              Generated by Buildcell
#
# at 00:38:19 (GMT+1.0) 19th August 2020
# in /scratch/scratch/uccabz1/launch_tmp
# on node-k10h-029
# by uccabz1
#
# compiler GCC version 4.9.2
# options -cpp -iprefix /scratch/UCL/applications/gcc/4.9.2/bin/../lib/gcc/x86_64-unknown-linux-gnu/4.9.2/ -mtune=corei7 -march=x86-64 -g -O2
#
# seed -1531665521  -753158861   571909581  1732392014  -877805643 -1450722496  1105779289  -288530474  -501154428 -1717203070    91369792  -918659968
#
#      Author: C. J. Pickard (cjp20@cam.ac.uk)
#                Space group: P21/m
#

%BLOCK LATTICE_ABC
      4.05198      6.80700      7.57420
     90.00000     90.00000    106.79415
%ENDBLOCK LATTICE_ABC

%BLOCK POSITIONS_FRAC
  Li   0.3406423  -0.3178022   0.2500000 SPIN=   0.00000
  Li  -0.3406423   0.3178022  -0.2500000 SPIN=   0.00000
  Fe   0.0088428   0.0190267   0.2500000 SPIN=   4.00000
  Fe  -0.0088428  -0.0190267  -0.2500000 SPIN=   4.00000
   O  -0.6306141  -0.2710757  -0.0118101 SPIN=   0.00000
   O  -0.1621875  -0.4041013   0.0993806 SPIN=   0.00000
   O   0.6306141   0.2710757  -0.5118101 SPIN=   0.00000
   O   0.1621875   0.4041013  -0.4006194 SPIN=   0.00000
   O   0.6306141   0.2710757   0.0118101 SPIN=   0.00000
   O   0.1621875   0.4041013  -0.0993806 SPIN=   0.00000
   O  -0.6306141  -0.2710757   0.5118101 SPIN=   0.00000
   O  -0.1621875  -0.4041013   0.4006194 SPIN=   0.00000
   S  -0.2984728   0.4025178   0.2500000 SPIN=   0.00000
   S   0.2984728  -0.4025178  -0.2500000 SPIN=   0.00000
   F  -0.0000000  -0.0000000  -0.0000000 SPIN=   0.00000
   F   0.0000000   0.0000000   0.5000000 SPIN=   0.00000
%ENDBLOCK POSITIONS_FRAC

# Note: total spin =   8.00

KPOINTS_MP_SPACING 0.07

%BLOCK SPECIES_POT
QC5
%ENDBLOCK SPECIES_POT

SNAP_TO_SYMMETRY
SYMMETRY_GENERATE

