#              Generated by Buildcell
#
# at 01:41:59 (GMT+1.0) 19th August 2020
# in /lustre/scratch/uccabz1/launch_tmp
# on node-c12e-013
# by uccabz1
#
# compiler GCC version 4.9.2
# options -cpp -iprefix /lustre/shared/ucl/apps/gcc/4.9.2/bin/../lib/gcc/x86_64-unknown-linux-gnu/4.9.2/ -mtune=corei7 -march=x86-64 -g -Og
#
# seed  -540209913  -265733856 -1687895439    63281242 -1554364980   143980019  1655672712  -585619650   300484829   468267442 -1453913911  -481538665
#
#      Author: C. J. Pickard (cjp20@cam.ac.uk)
#                Space group: C2
#

%BLOCK LATTICE_ABC
      4.92755      5.89510      7.39373
     98.49509    109.46461     90.00000
%ENDBLOCK LATTICE_ABC

%BLOCK POSITIONS_FRAC
  Li  -0.1722716   0.2191815  -0.1643106 SPIN=   0.00000
  Li  -0.0079610  -0.2191815   0.1643106 SPIN=   0.00000
  Fe   0.1493950  -0.2687498  -0.1977571 SPIN=   4.00000
  Fe   0.3471521   0.2687498   0.1977571 SPIN=   4.00000
   O   0.3860153   0.2792976  -0.1180033 SPIN=   0.00000
   O  -0.0560207   0.2959483  -0.3995043 SPIN=   0.00000
   O   0.2243749  -0.0533319  -0.3821204 SPIN=   0.00000
   O   0.4220845   0.3041143  -0.4405242 SPIN=   0.00000
   S   0.2441135   0.2065071  -0.3350381 SPIN=   0.00000
   O  -0.4959814  -0.2792976   0.1180033 SPIN=   0.00000
   O  -0.6565164  -0.2959483   0.3995043 SPIN=   0.00000
   O  -0.3935047   0.0533319   0.3821204 SPIN=   0.00000
   O  -0.1373913  -0.3041143   0.4405242 SPIN=   0.00000
   S  -0.4208485  -0.2065071   0.3350381 SPIN=   0.00000
   F  -0.0732517   0.2874393   0.1937298 SPIN=   0.00000
   F  -0.2669815  -0.2874393  -0.1937298 SPIN=   0.00000
%ENDBLOCK POSITIONS_FRAC

# Note: total spin =   8.00

KPOINTS_MP_SPACING 0.07

%BLOCK SPECIES_POT
QC5
%ENDBLOCK SPECIES_POT

SNAP_TO_SYMMETRY
SYMMETRY_GENERATE

