#              Generated by Buildcell
#
# at 02:54:51 (GMT+1.0) 4th August 2020
# in /lustre/scratch/uccabz1/launch_tmp
# on node-c12c-023
# by uccabz1
#
# compiler GCC version 4.9.2
# options -cpp -iprefix /lustre/shared/ucl/apps/gcc/4.9.2/bin/../lib/gcc/x86_64-unknown-linux-gnu/4.9.2/ -mtune=corei7 -march=x86-64 -g -Og
#
# seed  1690020620  1650178966    -7899241  -236020616   -19249830   813688656 -1756116655 -1919650487  -727319428  -259992626   268796542   556507110
#
#      Author: C. J. Pickard (cjp20@cam.ac.uk)
#                Space group: P-1
#

%BLOCK LATTICE_ABC
      5.56267      6.22150      6.51593
    113.91653    101.79992     92.05576
%ENDBLOCK LATTICE_ABC

%BLOCK POSITIONS_FRAC
  Li  -0.2980438  -0.2524026   0.3293480 SPIN=   0.00000
  Li   0.2980438   0.2524026  -0.3293480 SPIN=   0.00000
  Fe   0.3228057   0.2388195   0.1219352 SPIN=   4.00000
  Fe  -0.3228057  -0.2388195  -0.1219352 SPIN=   4.00000
   O   0.1072200  -0.4615695   0.1927921 SPIN=   0.00000
   O  -0.0319746  -0.0714329   0.2542337 SPIN=   0.00000
   O   0.3608849  -0.1646299   0.1358244 SPIN=   0.00000
   O   0.3308139  -0.0990907   0.5300790 SPIN=   0.00000
   S   0.1917361  -0.1991808   0.2782323 SPIN=   0.00000
   O  -0.1072200   0.4615695  -0.1927921 SPIN=   0.00000
   O   0.0319746   0.0714329  -0.2542337 SPIN=   0.00000
   O  -0.3608849   0.1646299  -0.1358244 SPIN=   0.00000
   O  -0.3308139   0.0990907  -0.5300790 SPIN=   0.00000
   S  -0.1917361   0.1991808  -0.2782323 SPIN=   0.00000
   F   0.3187049  -0.4320861  -0.2905283 SPIN=   0.00000
   F  -0.3187049   0.4320861   0.2905283 SPIN=   0.00000
%ENDBLOCK POSITIONS_FRAC

# Note: total spin =   8.00

KPOINTS_MP_SPACING 0.07

%BLOCK SPECIES_POT
QC5
%ENDBLOCK SPECIES_POT

SNAP_TO_SYMMETRY
SYMMETRY_GENERATE

