#              Generated by Buildcell
#
# at 05:09:10 (GMT+1.0) 4th August 2020
# in /lustre/scratch/uccabz1/launch_tmp
# on node-c12f-003
# by uccabz1
#
# compiler GCC version 4.9.2
# options -cpp -iprefix /lustre/shared/ucl/apps/gcc/4.9.2/bin/../lib/gcc/x86_64-unknown-linux-gnu/4.9.2/ -mtune=corei7 -march=x86-64 -g -Og
#
# seed -1089123487  2075830343  -678928129   139556087   897031054  -404257786 -1275776222  1421302404 -1293052320   564659707 -1803090480 -1003543904
#
#      Author: C. J. Pickard (cjp20@cam.ac.uk)
#                Space group: Cm
#

%BLOCK LATTICE_ABC
      3.97322      7.47700      7.47700
    114.32973     94.77318     94.77318
%ENDBLOCK LATTICE_ABC

%BLOCK POSITIONS_FRAC
  Li   0.0561610   0.1128671   0.4286952 SPIN=   0.00000
  Li   0.0561610   0.4286952   0.1128671 SPIN=   0.00000
  Fe  -0.3945761  -0.2853460   0.4263942 SPIN=   4.00000
  Fe  -0.3945761   0.4263942  -0.2853460 SPIN=   4.00000
   O  -0.2492386   0.0246509  -0.1995785 SPIN=   0.00000
   O   0.1469798   0.2758030  -0.2385612 SPIN=   0.00000
   O   0.2358059  -0.0769887  -0.3898647 SPIN=   0.00000
   S   0.1182789   0.0842592  -0.2134880 SPIN=   0.00000
   O  -0.2492386  -0.1995785   0.0246509 SPIN=   0.00000
   O   0.1469798  -0.2385612   0.2758030 SPIN=   0.00000
   O   0.2358059  -0.3898647  -0.0769887 SPIN=   0.00000
   S   0.1182789  -0.2134880   0.0842592 SPIN=   0.00000
   O   0.2439396  -0.4449269  -0.4449269 SPIN=   0.00000
   O  -0.2128860  -0.3070677  -0.3070677 SPIN=   0.00000
   F  -0.4145055   0.1793569   0.4649091 SPIN=   0.00000
   F  -0.4145055   0.4649091   0.1793569 SPIN=   0.00000
%ENDBLOCK POSITIONS_FRAC

# Note: total spin =   8.00

KPOINTS_MP_SPACING 0.07

%BLOCK SPECIES_POT
QC5
%ENDBLOCK SPECIES_POT

SNAP_TO_SYMMETRY
SYMMETRY_GENERATE

