#              Generated by Buildcell
#
# at 00:37:55 (GMT+1.0) 19th August 2020
# in /scratch/scratch/uccabz1/launch_tmp
# on node-k10h-023
# by uccabz1
#
# compiler GCC version 4.9.2
# options -cpp -iprefix /scratch/UCL/applications/gcc/4.9.2/bin/../lib/gcc/x86_64-unknown-linux-gnu/4.9.2/ -mtune=corei7 -march=x86-64 -g -O2
#
# seed   598464049  1760561424  -110933512 -1443130527 -1653448672   634192069 -1632981116 -1965216708  1547625128  1976076853 -1337538843  -688800653
#
#      Author: C. J. Pickard (cjp20@cam.ac.uk)
#                Space group: Pc
#

%BLOCK LATTICE_ABC
      4.27104      6.57633      7.21487
     99.27563     90.00000     90.00000
%ENDBLOCK LATTICE_ABC

%BLOCK POSITIONS_FRAC
  Li  -0.3441525   0.0153181  -0.0722119 SPIN=   0.00000
  Li   0.3441525   0.0153181   0.4277881 SPIN=   0.00000
  Fe   0.0594894   0.3066225  -0.2714544 SPIN=   4.00000
  Fe  -0.0594894   0.3066225   0.2285456 SPIN=   4.00000
   O  -0.1188933  -0.0523673  -0.3019770 SPIN=   0.00000
   O  -0.3623429  -0.3976540  -0.3323192 SPIN=   0.00000
   O   0.1595586  -0.3569923  -0.4708266 SPIN=   0.00000
   O  -0.3121284  -0.2246302  -0.6111280 SPIN=   0.00000
   S  -0.1584515  -0.2579109  -0.4290627 SPIN=   0.00000
   O   0.1188933  -0.0523673   0.1980230 SPIN=   0.00000
   O   0.3623429  -0.3976540   0.1676808 SPIN=   0.00000
   O  -0.1595586  -0.3569923   0.0291734 SPIN=   0.00000
   O   0.3121284  -0.2246302  -0.1111280 SPIN=   0.00000
   S   0.1584515  -0.2579109   0.0709373 SPIN=   0.00000
   F  -0.2691759   0.2220970   0.4578927 SPIN=   0.00000
   F   0.2691759   0.2220970  -0.0421073 SPIN=   0.00000
%ENDBLOCK POSITIONS_FRAC

# Note: total spin =   8.00

KPOINTS_MP_SPACING 0.07

%BLOCK SPECIES_POT
QC5
%ENDBLOCK SPECIES_POT

SNAP_TO_SYMMETRY
SYMMETRY_GENERATE

