#              Generated by Buildcell
#
# at 19:16:25 (GMT+1.0) 18th August 2020
# in /lustre/scratch/uccabz1/launch_tmp
# on node-c12m-009
# by uccabz1
#
# compiler GCC version 4.9.2
# options -cpp -iprefix /lustre/shared/ucl/apps/gcc/4.9.2/bin/../lib/gcc/x86_64-unknown-linux-gnu/4.9.2/ -mtune=corei7 -march=x86-64 -g -Og
#
# seed  2130764971  -475613931   890026172  -551159894   -49706902 -1021557541 -2119033325 -1307640373  1564395744   878705891  1872060334   738814813
#
#      Author: C. J. Pickard (cjp20@cam.ac.uk)
#                Space group: Cm
#

%BLOCK LATTICE_ABC
      5.23420      6.23349      6.23349
     85.37097     83.10847     83.10847
%ENDBLOCK LATTICE_ABC

%BLOCK POSITIONS_FRAC
  Li  -0.3606073   0.4147875  -0.0511566 SPIN=   0.00000
  Li  -0.3606073  -0.0511566   0.4147875 SPIN=   0.00000
  Fe   0.3085335   0.0073028   0.0073028 SPIN=   7.85772
  Fe   0.3722492  -0.4626953  -0.4626953 SPIN=   0.14228
   O  -0.2788460   0.2229642  -0.5160932 SPIN=   0.00000
   O  -0.0868042   0.4524866  -0.2865709 SPIN=   0.00000
   O   0.1974435   0.2085570  -0.5305004 SPIN=   0.00000
   O  -0.0560689   0.0555948  -0.2053136 SPIN=   0.00000
   O  -0.2788460  -0.5160932   0.2229642 SPIN=   0.00000
   O  -0.0868042  -0.2865709   0.4524866 SPIN=   0.00000
   O   0.1974435  -0.5305004   0.2085570 SPIN=   0.00000
   O  -0.0560689  -0.2053136   0.0555948 SPIN=   0.00000
   S  -0.1310089  -0.2043131  -0.2043131 SPIN=   0.00000
   S  -0.0672917   0.3256913   0.3256913 SPIN=   0.00000
   F   0.3780785   0.3183961  -0.1890261 SPIN=   0.00000
   F   0.3780785  -0.1890261   0.3183961 SPIN=   0.00000
%ENDBLOCK POSITIONS_FRAC

# Note: total spin =   8.00

KPOINTS_MP_SPACING 0.07

%BLOCK SPECIES_POT
QC5
%ENDBLOCK SPECIES_POT

SNAP_TO_SYMMETRY
SYMMETRY_GENERATE

