#              Generated by Buildcell
#
# at 04:17:07 (GMT+1.0) 4th August 2020
# in /lustre/scratch/uccabz1/launch_tmp
# on node-c12g-006
# by uccabz1
#
# compiler GCC version 4.9.2
# options -cpp -iprefix /lustre/shared/ucl/apps/gcc/4.9.2/bin/../lib/gcc/x86_64-unknown-linux-gnu/4.9.2/ -mtune=corei7 -march=x86-64 -g -Og
#
# seed  -946495101   469110866   -88814730  -284011799   623166289   575220869  1644397114   400350626   131268328   973156240  1782610767 -1943014763
#
#      Author: C. J. Pickard (cjp20@cam.ac.uk)
#                Space group: C2
#

%BLOCK LATTICE_ABC
      3.83422      3.83422     15.36611
     84.98235     84.98235     62.87739
%ENDBLOCK LATTICE_ABC

%BLOCK POSITIONS_FRAC
  Li   0.3249011  -0.3249011   0.0000000 SPIN=   0.00000
  Li  -0.8966068   0.8966068  -0.5000000 SPIN=   0.00000
  Fe   0.5498513  -0.6796701   0.3517535 SPIN=   4.00000
  Fe  -0.3203299   0.4501487  -0.3517535 SPIN=   4.00000
   O   0.3962115   0.0830140  -0.0861422 SPIN=   0.00000
   O   0.3403096   0.3235050  -0.2415786 SPIN=   0.00000
   O  -0.0181187  -0.0478055  -0.1803148 SPIN=   0.00000
   S   0.3558875  -0.0071804  -0.1777478 SPIN=   0.00000
   O  -0.0830140  -0.3962115   0.0861422 SPIN=   0.00000
   O  -0.3235050  -0.3403096   0.2415786 SPIN=   0.00000
   O   0.0478055   0.0181187   0.1803148 SPIN=   0.00000
   S   0.0071804  -0.3558875   0.1777478 SPIN=   0.00000
   O  -0.3923425  -0.6076575   0.5000000 SPIN=   0.00000
   O  -0.1763616   0.1763616  -0.0000000 SPIN=   0.00000
   F  -0.7780859   0.0538251   0.3796943 SPIN=   0.00000
   F  -0.0538251   0.7780859  -0.3796943 SPIN=   0.00000
%ENDBLOCK POSITIONS_FRAC

# Note: total spin =   8.00

KPOINTS_MP_SPACING 0.07

%BLOCK SPECIES_POT
QC5
%ENDBLOCK SPECIES_POT

SNAP_TO_SYMMETRY
SYMMETRY_GENERATE

