#              Generated by Buildcell
#
# at 02:10:49 (GMT+1.0) 4th August 2020
# in /lustre/scratch/uccabz1/launch_tmp
# on node-c12e-008
# by uccabz1
#
# compiler GCC version 4.9.2
# options -cpp -iprefix /lustre/shared/ucl/apps/gcc/4.9.2/bin/../lib/gcc/x86_64-unknown-linux-gnu/4.9.2/ -mtune=corei7 -march=x86-64 -g -Og
#
# seed   518125638   227330261   308365763   -33579161 -1256044878   -25219442  -629478444 -2031081044   807260816  1450481138  -806900108 -1142188022
#
#      Author: C. J. Pickard (cjp20@cam.ac.uk)
#                Space group: P2
#

%BLOCK LATTICE_ABC
      4.63212      6.17162      7.24132
     90.00000    104.95565     90.00000
%ENDBLOCK LATTICE_ABC

%BLOCK POSITIONS_FRAC
  Li   0.1051575  -0.1919488  -0.2414212 SPIN=   0.00000
  Li  -0.1051575  -0.1919488   0.2414212 SPIN=   0.00000
  Fe   0.5000000  -0.3455323   0.5000000 SPIN=   2.69289
  Fe  -0.5000000   0.4551205   0.0000000 SPIN=   5.30711
   O   0.1499915   0.0316156   0.1487525 SPIN=   0.00000
   O  -0.1749916   0.3128846   0.2329592 SPIN=   0.00000
   O   0.3509521   0.3982304   0.2431900 SPIN=   0.00000
   O   0.2353671   0.1523352   0.4844641 SPIN=   0.00000
   S   0.1403298   0.2237665   0.2773415 SPIN=   0.00000
   O  -0.1499915   0.0316156  -0.1487525 SPIN=   0.00000
   O   0.1749916   0.3128846  -0.2329592 SPIN=   0.00000
   O  -0.3509521   0.3982304  -0.2431900 SPIN=   0.00000
   O  -0.2353671   0.1523352  -0.4844641 SPIN=   0.00000
   S  -0.1403298   0.2237665  -0.2773415 SPIN=   0.00000
   F   0.5000000  -0.2375416   0.0000000 SPIN=   0.00000
   F   0.0000000  -0.2764249  -0.5000000 SPIN=   0.00000
%ENDBLOCK POSITIONS_FRAC

# Note: total spin =   8.00

KPOINTS_MP_SPACING 0.07

%BLOCK SPECIES_POT
QC5
%ENDBLOCK SPECIES_POT

SNAP_TO_SYMMETRY
SYMMETRY_GENERATE

