#              Generated by Buildcell
#
# at 04:40:10 (GMT+1.0) 4th August 2020
# in /lustre/scratch/uccabz1/launch_tmp
# on node-c12l-015
# by uccabz1
#
# compiler GCC version 4.9.2
# options -cpp -iprefix /lustre/shared/ucl/apps/gcc/4.9.2/bin/../lib/gcc/x86_64-unknown-linux-gnu/4.9.2/ -mtune=corei7 -march=x86-64 -g -Og
#
# seed  1633000409  2049840222  2140086536  -872432308  1610637157    -6242215   539728141   822023127  1011021356 -1868197996   423687646   -55010295
#
#      Author: C. J. Pickard (cjp20@cam.ac.uk)
#                Space group: P21
#

%BLOCK LATTICE_ABC
      3.93854      5.89997      8.75069
     90.00000    100.40225     90.00000
%ENDBLOCK LATTICE_ABC

%BLOCK POSITIONS_FRAC
  Li  -0.1490056  -0.3376929   0.1421838 SPIN=   0.00000
  Li   0.1490056   0.1623071  -0.1421838 SPIN=   0.00000
  Fe   0.2504485  -0.3483009  -0.1086074 SPIN=   4.00000
  Fe  -0.2504485   0.1516991   0.1086074 SPIN=   4.00000
   O   0.4404048   0.1024694   0.2756631 SPIN=   0.00000
   O   0.5549752  -0.1211759   0.5188068 SPIN=   0.00000
   O   0.4528686  -0.3165240   0.2643447 SPIN=   0.00000
   O  -0.0286898  -0.1212148   0.3563655 SPIN=   0.00000
   S   0.3548897  -0.1141113   0.3537950 SPIN=   0.00000
   O  -0.4404048   0.6024694  -0.2756631 SPIN=   0.00000
   O  -0.5549752   0.3788241  -0.5188068 SPIN=   0.00000
   O  -0.4528686   0.1834760  -0.2643447 SPIN=   0.00000
   O   0.0286898   0.3787852  -0.3563655 SPIN=   0.00000
   S  -0.3548897   0.3858887  -0.3537950 SPIN=   0.00000
   F  -0.0818312   0.3859820   0.2544028 SPIN=   0.00000
   F   0.0818312  -0.1140180  -0.2544028 SPIN=   0.00000
%ENDBLOCK POSITIONS_FRAC

# Note: total spin =   8.00

KPOINTS_MP_SPACING 0.07

%BLOCK SPECIES_POT
QC5
%ENDBLOCK SPECIES_POT

SNAP_TO_SYMMETRY
SYMMETRY_GENERATE

