#              Generated by Buildcell
#
# at 03:11:57 (GMT+1.0) 4th August 2020
# in /lustre/scratch/uccabz1/launch_tmp
# on node-c12g-032
# by uccabz1
#
# compiler GCC version 4.9.2
# options -cpp -iprefix /lustre/shared/ucl/apps/gcc/4.9.2/bin/../lib/gcc/x86_64-unknown-linux-gnu/4.9.2/ -mtune=corei7 -march=x86-64 -g -Og
#
# seed -1362971973  -992457913  1526209019 -1929465429   160705117  1652998310  1980376079   657552904  1342143257  -231728810 -2079741025 -1624942507
#
#      Author: C. J. Pickard (cjp20@cam.ac.uk)
#                Space group: Pba2
#

%BLOCK LATTICE_ABC
      4.79545      6.33782      6.58053
     90.00000     90.00000     90.00000
%ENDBLOCK LATTICE_ABC

%BLOCK POSITIONS_FRAC
  Li   0.5000000   0.0000000  -0.0559768 SPIN=   0.00000
  Li   0.0000000   0.5000000  -0.0559768 SPIN=   0.00000
  Fe  -0.0000000   0.0000000  -0.3368538 SPIN=   4.00000
  Fe   0.5000000   0.5000000  -0.3368538 SPIN=   4.00000
   O  -0.1613014  -0.1541793   0.0368882 SPIN=   0.00000
   O   0.1290569  -0.2062831   0.3437331 SPIN=   0.00000
   O   0.1613014   0.1541793   0.0368882 SPIN=   0.00000
   O  -0.1290569   0.2062831   0.3437331 SPIN=   0.00000
   O   0.3386986  -0.3458207   0.0368882 SPIN=   0.00000
   O   0.6290569  -0.2937169   0.3437331 SPIN=   0.00000
   O  -0.3386986   0.3458207   0.0368882 SPIN=   0.00000
   O  -0.6290569   0.2937169   0.3437331 SPIN=   0.00000
   S  -0.0000000  -0.0000000   0.1631463 SPIN=   0.00000
   S  -0.5000000  -0.5000000   0.1631463 SPIN=   0.00000
   F  -0.0000000   0.5000000  -0.3668695 SPIN=   0.00000
   F  -0.5000000   0.0000000  -0.3668695 SPIN=   0.00000
%ENDBLOCK POSITIONS_FRAC

# Note: total spin =   8.00

KPOINTS_MP_SPACING 0.07

%BLOCK SPECIES_POT
QC5
%ENDBLOCK SPECIES_POT

SNAP_TO_SYMMETRY
SYMMETRY_GENERATE

