#              Generated by Buildcell
#
# at 02:28:47 (GMT+1.0) 19th August 2020
# in /lustre/scratch/uccabz1/launch_tmp
# on node-c12k-019
# by uccabz1
#
# compiler GCC version 4.9.2
# options -cpp -iprefix /lustre/shared/ucl/apps/gcc/4.9.2/bin/../lib/gcc/x86_64-unknown-linux-gnu/4.9.2/ -mtune=corei7 -march=x86-64 -g -Og
#
# seed   108247637   327187714 -1040334561  1173501534 -1703537108  -903536291  -754926198  -438293094  1065220363   881395674 -1523561814 -1341000449
#
#      Author: C. J. Pickard (cjp20@cam.ac.uk)
#                Space group: C2
#

%BLOCK LATTICE_ABC
      5.40100      6.37062      6.64954
     61.37811     87.49601     84.76716
%ENDBLOCK LATTICE_ABC

%BLOCK POSITIONS_FRAC
  Li  -0.2764217  -0.0279907   0.4824803 SPIN=   0.00000
  Li   0.2764217  -0.4544896   0.4824803 SPIN=   0.00000
  Fe   0.3199207   0.2733673  -0.0129165 SPIN=   4.00000
  Fe  -0.3199207  -0.2604508  -0.0129165 SPIN=   4.00000
   O   0.2527801  -0.3554040  -0.2842363 SPIN=   0.00000
   O   0.2369018   0.0066703  -0.6649395 SPIN=   0.00000
   O   0.4362205   0.0103891  -0.3386480 SPIN=   0.00000
   O  -0.0206522   0.0041725  -0.3468072 SPIN=   0.00000
   S   0.2263126  -0.0835430  -0.4086577 SPIN=   0.00000
   O  -0.2527801   0.6396403  -0.2842363 SPIN=   0.00000
   O  -0.2369018   0.6582692  -0.6649395 SPIN=   0.00000
   O  -0.4362205   0.3282588  -0.3386480 SPIN=   0.00000
   O   0.0206522   0.3426347  -0.3468072 SPIN=   0.00000
   S  -0.2263126   0.4922007  -0.4086577 SPIN=   0.00000
   F   0.2328248  -0.4010120   0.1697561 SPIN=   0.00000
   F  -0.2328248   0.2312559   0.1697561 SPIN=   0.00000
%ENDBLOCK POSITIONS_FRAC

# Note: total spin =   8.00

KPOINTS_MP_SPACING 0.07

%BLOCK SPECIES_POT
QC5
%ENDBLOCK SPECIES_POT

SNAP_TO_SYMMETRY
SYMMETRY_GENERATE

