#              Generated by Buildcell
#
# at 01:30:34 (GMT+1.0) 19th August 2020
# in /lustre/scratch/uccabz1/launch_tmp
# on node-c12b-013
# by uccabz1
#
# compiler GCC version 4.9.2
# options -cpp -iprefix /lustre/shared/ucl/apps/gcc/4.9.2/bin/../lib/gcc/x86_64-unknown-linux-gnu/4.9.2/ -mtune=corei7 -march=x86-64 -g -Og
#
# seed  1867491180 -1360493781   635554142  -890442634  -237546887 -1712108852  1066065716 -1782496528  1362288290 -1612633049 -1292382909  1048202537
#
#      Author: C. J. Pickard (cjp20@cam.ac.uk)
#                Space group: Pcc2
#

%BLOCK LATTICE_ABC
      3.80312      5.00705     10.50287
     90.00000     90.00000     90.00000
%ENDBLOCK LATTICE_ABC

%BLOCK POSITIONS_FRAC
  Li  -0.0000000  -0.5000000   0.0698504 SPIN=   0.00000
  Li  -0.0000000   0.5000000  -0.4301496 SPIN=   0.00000
  Fe   0.0000000  -0.0000000   0.2493080 SPIN=   4.00000
  Fe   0.0000000   0.0000000  -0.2506920 SPIN=   4.00000
   O   0.2458464   0.2517801  -0.0462784 SPIN=   0.00000
   O   0.2751846  -0.1658808   0.0792873 SPIN=   0.00000
   O  -0.2458464  -0.2517801  -0.0462784 SPIN=   0.00000
   O  -0.2751846   0.1658808   0.0792873 SPIN=   0.00000
   O  -0.2458464   0.2517801  -0.5462784 SPIN=   0.00000
   O  -0.2751846  -0.1658808  -0.4207127 SPIN=   0.00000
   O   0.2458464  -0.2517801  -0.5462784 SPIN=   0.00000
   O   0.2751846   0.1658808  -0.4207127 SPIN=   0.00000
   S   0.5000000  -0.0000000  -0.0042348 SPIN=   0.00000
   S   0.5000000   0.0000000   0.4957652 SPIN=   0.00000
   F  -0.5000000  -0.5000000  -0.2542617 SPIN=   0.00000
   F   0.5000000  -0.5000000   0.2457383 SPIN=   0.00000
%ENDBLOCK POSITIONS_FRAC

# Note: total spin =   8.00

KPOINTS_MP_SPACING 0.07

%BLOCK SPECIES_POT
QC5
%ENDBLOCK SPECIES_POT

SNAP_TO_SYMMETRY
SYMMETRY_GENERATE

