#              Generated by Buildcell
#
# at 05:17:27 (GMT+1.0) 4th August 2020
# in /lustre/scratch/uccabz1/launch_tmp
# on node-y12q-003
# by uccabz1
#
# compiler GCC version 4.9.2
# options -cpp -iprefix /lustre/shared/ucl/apps/gcc/4.9.2/bin/../lib/gcc/x86_64-unknown-linux-gnu/4.9.2/ -mtune=corei7 -march=x86-64 -g -Og
#
# seed    39901331  -647950652  -430128259 -2104094014   611385739   980896122   168466327  1465292885 -1539710277   818660640   668120073  1782361690
#
#      Author: C. J. Pickard (cjp20@cam.ac.uk)
#                Space group: Pmn21
#

%BLOCK LATTICE_ABC
      4.94080      5.74915      7.04091
     90.00000     90.00000     90.00000
%ENDBLOCK LATTICE_ABC

%BLOCK POSITIONS_FRAC
  Li   0.2853251   0.0000000   0.3223966 SPIN=   0.00000
  Li  -0.2146749   0.5000000  -0.3223966 SPIN=   0.00000
  Fe  -0.2249298   0.0000000   0.0738090 SPIN=   4.00000
  Fe   0.2750702   0.5000000  -0.0738090 SPIN=   4.00000
   O   0.0429302   0.2916629   0.2289473 SPIN=   0.00000
   O   0.0779822   0.2060691   0.5725489 SPIN=   0.00000
   O  -0.4570698   0.2083371  -0.2289473 SPIN=   0.00000
   O  -0.4220178   0.2939309  -0.5725489 SPIN=   0.00000
   O  -0.4570698  -0.2083371  -0.2289473 SPIN=   0.00000
   O  -0.4220178  -0.2939309  -0.5725489 SPIN=   0.00000
   O   0.0429302  -0.2916629   0.2289473 SPIN=   0.00000
   O   0.0779822  -0.2060691   0.5725489 SPIN=   0.00000
   S  -0.0984254   0.0000000  -0.3945082 SPIN=   0.00000
   S   0.4015746  -0.5000000   0.3945082 SPIN=   0.00000
   F  -0.1681063   0.5000000  -0.0493099 SPIN=   0.00000
   F   0.3318937   0.0000000   0.0493099 SPIN=   0.00000
%ENDBLOCK POSITIONS_FRAC

# Note: total spin =   8.00

KPOINTS_MP_SPACING 0.07

%BLOCK SPECIES_POT
QC5
%ENDBLOCK SPECIES_POT

SNAP_TO_SYMMETRY
SYMMETRY_GENERATE

