#              Generated by Buildcell
#
# at 04:30:20 (GMT+1.0) 4th August 2020
# in /lustre/scratch/uccabz1/launch_tmp
# on node-c12d-007
# by uccabz1
#
# compiler GCC version 4.9.2
# options -cpp -iprefix /lustre/shared/ucl/apps/gcc/4.9.2/bin/../lib/gcc/x86_64-unknown-linux-gnu/4.9.2/ -mtune=corei7 -march=x86-64 -g -Og
#
# seed  2044693956 -1268897615   796547017   895684589 -1292525253  -121031612  1529365535  -283080753 -1123022005 -1042927541    53304944   672547730
#
#      Author: C. J. Pickard (cjp20@cam.ac.uk)
#                Space group: Cc
#

%BLOCK LATTICE_ABC
      5.95118      6.21698      6.21698
     97.63187    108.42556    108.42556
%ENDBLOCK LATTICE_ABC

%BLOCK POSITIONS_FRAC
  Li  -0.3222035  -0.0431960   0.1686978 SPIN=   0.00000
  Li   0.1777965   0.1686978  -0.0431960 SPIN=   0.00000
  Fe  -0.0379165  -0.4947843  -0.2368660 SPIN=   4.00000
  Fe   0.4620835  -0.2368660  -0.4947843 SPIN=   4.00000
   O   0.4396367   0.4558779  -0.2755904 SPIN=   0.00000
   O   0.0006585   0.1967895  -0.5503038 SPIN=   0.00000
   O   0.2819589   0.0299489  -0.3038054 SPIN=   0.00000
   O   0.3747196   0.1732725  -0.6312812 SPIN=   0.00000
   S   0.2742434   0.2139722  -0.4402452 SPIN=   0.00000
   O  -0.0603633  -0.2755904   0.4558779 SPIN=   0.00000
   O  -0.4993415  -0.5503038   0.1967895 SPIN=   0.00000
   O  -0.2180411  -0.3038054   0.0299489 SPIN=   0.00000
   O  -0.1252804  -0.6312812   0.1732725 SPIN=   0.00000
   S  -0.2257566  -0.4402452   0.2139722 SPIN=   0.00000
   F   0.2850490  -0.2297498   0.0349857 SPIN=   0.00000
   F  -0.2149510   0.0349857  -0.2297498 SPIN=   0.00000
%ENDBLOCK POSITIONS_FRAC

# Note: total spin =   8.00

KPOINTS_MP_SPACING 0.07

%BLOCK SPECIES_POT
QC5
%ENDBLOCK SPECIES_POT

SNAP_TO_SYMMETRY
SYMMETRY_GENERATE

