#              Generated by Buildcell
#
# at 05:06:49 (GMT+1.0) 4th August 2020
# in /lustre/scratch/uccabz1/launch_tmp
# on node-c12k-031
# by uccabz1
#
# compiler GCC version 4.9.2
# options -cpp -iprefix /lustre/shared/ucl/apps/gcc/4.9.2/bin/../lib/gcc/x86_64-unknown-linux-gnu/4.9.2/ -mtune=corei7 -march=x86-64 -g -Og
#
# seed   -81989170  -637184319 -1263579795  -979988025   739681357  1624642896  -478528135   256581600 -2078574795 -1578656774  1054945091  -609641842
#
#      Author: C. J. Pickard (cjp20@cam.ac.uk)
#                Space group: C2
#

%BLOCK LATTICE_ABC
      5.51541      5.51541      7.15720
    100.83905    100.83905    105.01365
%ENDBLOCK LATTICE_ABC

%BLOCK POSITIONS_FRAC
  Li  -0.3007110  -0.3007837   0.2177966 SPIN=   0.00000
  Li   0.3007837   0.3007110  -0.2177966 SPIN=   0.00000
  Fe   0.2545878  -0.1233250   0.2701791 SPIN=   4.00000
  Fe   0.1233250  -0.2545878  -0.2701791 SPIN=   4.00000
   O   0.0047150   0.3306068  -0.3834012 SPIN=   0.00000
   O   0.0911316   0.3287634  -0.0316845 SPIN=   0.00000
   O  -0.2518840  -0.0334627  -0.2769017 SPIN=   0.00000
   O  -0.3138749   0.3989569  -0.1935317 SPIN=   0.00000
   O  -0.3306068  -0.0047150   0.3834012 SPIN=   0.00000
   O  -0.3287634  -0.0911316   0.0316845 SPIN=   0.00000
   O   0.0334627   0.2518840   0.2769017 SPIN=   0.00000
   O  -0.3989569   0.3138749   0.1935317 SPIN=   0.00000
   S  -0.2497039   0.2497039  -0.0000000 SPIN=   0.00000
   S  -0.4805596   0.4805596  -0.5000000 SPIN=   0.00000
   F   0.1243807  -0.1243807  -0.5000000 SPIN=   0.00000
   F   0.1483870  -0.1483870   0.0000000 SPIN=   0.00000
%ENDBLOCK POSITIONS_FRAC

# Note: total spin =   8.00

KPOINTS_MP_SPACING 0.07

%BLOCK SPECIES_POT
QC5
%ENDBLOCK SPECIES_POT

SNAP_TO_SYMMETRY
SYMMETRY_GENERATE

