#              Generated by Buildcell
#
# at 02:32:28 (GMT+1.0) 19th August 2020
# in /lustre/scratch/uccabz1/launch_tmp
# on node-c12i-030
# by uccabz1
#
# compiler GCC version 4.9.2
# options -cpp -iprefix /lustre/shared/ucl/apps/gcc/4.9.2/bin/../lib/gcc/x86_64-unknown-linux-gnu/4.9.2/ -mtune=corei7 -march=x86-64 -g -Og
#
# seed -1526647691  -831537268  -349065309  -965571008 -1281335038  2076858536   568678101   480847443  -378789471  -578731345  -124779834   -70110068
#
#      Author: C. J. Pickard (cjp20@cam.ac.uk)
#                Space group: Cm
#

%BLOCK LATTICE_ABC
      5.82470      5.82470      5.90922
     91.31116     91.31116     93.48644
%ENDBLOCK LATTICE_ABC

%BLOCK POSITIONS_FRAC
  Li   0.1689043  -0.2660891   0.2805840 SPIN=   0.00000
  Li  -0.2660891   0.1689043   0.2805840 SPIN=   0.00000
  Fe  -0.4168385  -0.4168385   0.0034710 SPIN=   4.99646
  Fe   0.0428909   0.0428909  -0.1035789 SPIN=   3.00354
   O   0.3251188   0.0567756  -0.3068716 SPIN=   0.00000
   O   0.4102332  -0.3199600  -0.4769217 SPIN=   0.00000
   O   0.7192976  -0.0106032  -0.4296835 SPIN=   0.00000
   O   0.4064963   0.0238142  -0.7151708 SPIN=   0.00000
   O   0.0567756   0.3251188  -0.3068716 SPIN=   0.00000
   O  -0.3199600   0.4102332  -0.4769217 SPIN=   0.00000
   O  -0.0106032   0.7192976  -0.4296835 SPIN=   0.00000
   O   0.0238142   0.4064963  -0.7151708 SPIN=   0.00000
   S   0.2351810   0.2351810   0.4205380 SPIN=   0.00000
   S  -0.2557678  -0.2557678  -0.4893357 SPIN=   0.00000
   F   0.2508157  -0.3182149  -0.0296043 SPIN=   0.00000
   F  -0.3182149   0.2508157  -0.0296043 SPIN=   0.00000
%ENDBLOCK POSITIONS_FRAC

# Note: total spin =   8.00

KPOINTS_MP_SPACING 0.07

%BLOCK SPECIES_POT
QC5
%ENDBLOCK SPECIES_POT

SNAP_TO_SYMMETRY
SYMMETRY_GENERATE

