#              Generated by Buildcell
#
# at 05:32:47 (GMT+1.0) 4th August 2020
# in /lustre/scratch/uccabz1/launch_tmp
# on node-c12n-035
# by uccabz1
#
# compiler GCC version 4.9.2
# options -cpp -iprefix /lustre/shared/ucl/apps/gcc/4.9.2/bin/../lib/gcc/x86_64-unknown-linux-gnu/4.9.2/ -mtune=corei7 -march=x86-64 -g -Og
#
# seed  -484967038   352275710   374979410   -67817471   210556866  1024114462  1319138416  -145308481   192430687  2119252113  -692177591  -625433975
#
#      Author: C. J. Pickard (cjp20@cam.ac.uk)
#                Space group: P21/m
#

%BLOCK LATTICE_ABC
      4.70102      5.47799      7.97316
     90.00000     90.00000    103.07860
%ENDBLOCK LATTICE_ABC

%BLOCK POSITIONS_FRAC
  Li  -0.1323583   0.1794919   0.2500000 SPIN=   0.00000
  Li   0.1323583  -0.1794919  -0.2500000 SPIN=   0.00000
  Fe   0.4593110  -0.4721766   0.2500000 SPIN=   4.00000
  Fe  -0.4593110   0.4721766  -0.2500000 SPIN=   4.00000
   O  -0.2397653   0.7191349  -0.4461020 SPIN=   0.00000
   O  -0.2655222   0.2732339  -0.5121958 SPIN=   0.00000
   O   0.2397653  -0.7191349   0.0538980 SPIN=   0.00000
   O   0.2655222  -0.2732339  -0.0121958 SPIN=   0.00000
   O   0.2397653  -0.7191349   0.4461020 SPIN=   0.00000
   O   0.2655222  -0.2732339   0.5121958 SPIN=   0.00000
   O  -0.2397653   0.7191349  -0.0538980 SPIN=   0.00000
   O  -0.2655222   0.2732339   0.0121958 SPIN=   0.00000
   S  -0.5000000   0.0000000  -0.0000000 SPIN=   0.00000
   S  -0.5000000   0.0000000  -0.5000000 SPIN=   0.00000
   F  -0.0629161  -0.3968449   0.2500000 SPIN=   0.00000
   F   0.0629161   0.3968449  -0.2500000 SPIN=   0.00000
%ENDBLOCK POSITIONS_FRAC

# Note: total spin =   8.00

KPOINTS_MP_SPACING 0.07

%BLOCK SPECIES_POT
QC5
%ENDBLOCK SPECIES_POT

SNAP_TO_SYMMETRY
SYMMETRY_GENERATE

