#              Generated by Buildcell
#
# at 05:13:32 (GMT+1.0) 4th August 2020
# in /lustre/scratch/uccabz1/launch_tmp
# on node-c12p-011
# by uccabz1
#
# compiler GCC version 4.9.2
# options -cpp -iprefix /lustre/shared/ucl/apps/gcc/4.9.2/bin/../lib/gcc/x86_64-unknown-linux-gnu/4.9.2/ -mtune=corei7 -march=x86-64 -g -Og
#
# seed   524463612   534441156 -1410615531   396607440 -1610367277  -707381647  -838714903   417136093 -1934856211  1098418947   257171258 -2079765585
#
#      Author: C. J. Pickard (cjp20@cam.ac.uk)
#                Space group: P21
#

%BLOCK LATTICE_ABC
      5.14323      5.76984      6.82569
     90.00000     99.11321     90.00000
%ENDBLOCK LATTICE_ABC

%BLOCK POSITIONS_FRAC
  Li   0.4195421   0.1134267  -0.1474792 SPIN=   0.00000
  Li  -0.4195421  -0.3865733   0.1474792 SPIN=   0.00000
  Fe  -0.2940286  -0.1920510  -0.4268829 SPIN=   4.00000
  Fe   0.2940286   0.3079490   0.4268829 SPIN=   4.00000
   O   0.0368733  -0.4390915   0.2889707 SPIN=   0.00000
   O   0.3815323  -0.1457470   0.2651162 SPIN=   0.00000
   O  -0.0474316  -0.0258065   0.3529551 SPIN=   0.00000
   O  -0.0198628  -0.1576804   0.0118351 SPIN=   0.00000
   S   0.0877778  -0.1920813   0.2297193 SPIN=   0.00000
   O  -0.0368733   0.0609085  -0.2889707 SPIN=   0.00000
   O  -0.3815323   0.3542530  -0.2651162 SPIN=   0.00000
   O   0.0474316   0.4741935  -0.3529551 SPIN=   0.00000
   O   0.0198628   0.3423196  -0.0118351 SPIN=   0.00000
   S  -0.0877778   0.3079187  -0.2297193 SPIN=   0.00000
   F  -0.4346655   0.3067005   0.2205164 SPIN=   0.00000
   F   0.4346655  -0.1932995  -0.2205164 SPIN=   0.00000
%ENDBLOCK POSITIONS_FRAC

# Note: total spin =   8.00

KPOINTS_MP_SPACING 0.07

%BLOCK SPECIES_POT
QC5
%ENDBLOCK SPECIES_POT

SNAP_TO_SYMMETRY
SYMMETRY_GENERATE

