#              Generated by Buildcell
#
# at 22:25:18 (GMT+1.0) 18th August 2020
# in /lustre/scratch/uccabz1/launch_tmp
# on node-c12a-029
# by uccabz1
#
# compiler GCC version 4.9.2
# options -cpp -iprefix /lustre/shared/ucl/apps/gcc/4.9.2/bin/../lib/gcc/x86_64-unknown-linux-gnu/4.9.2/ -mtune=corei7 -march=x86-64 -g -Og
#
# seed -1675376014 -1999110742   960809180  -257792973 -1732757844  1410170459   897589178  1036058763  1272689505   290630405  1397790416   951385937
#
#      Author: C. J. Pickard (cjp20@cam.ac.uk)
#                Space group: P-1
#

%BLOCK LATTICE_ABC
      4.18950      6.52935      7.35855
     84.25837     87.34116     88.27807
%ENDBLOCK LATTICE_ABC

%BLOCK POSITIONS_FRAC
  Li   0.0000000  -0.0000000   0.5000000 SPIN=   0.00000
  Li   0.0000000  -0.0000000  -0.0000000 SPIN=   0.00000
  Fe  -0.0000000   0.5000000   0.5000000 SPIN=   0.41931
  Fe  -0.0000000   0.5000000   0.0000000 SPIN=   7.58069
   O   0.1545518  -0.1342354  -0.2057034 SPIN=   0.00000
   O   0.6649553  -0.3155586  -0.1282367 SPIN=   0.00000
   O   0.6685370   0.0204047  -0.3165941 SPIN=   0.00000
   S   0.4935710  -0.1797066  -0.2740817 SPIN=   0.00000
   O  -0.1545518   0.1342354   0.2057034 SPIN=   0.00000
   O  -0.6649553   0.3155586   0.1282367 SPIN=   0.00000
   O  -0.6685370  -0.0204047   0.3165941 SPIN=   0.00000
   S  -0.4935710   0.1797066   0.2740817 SPIN=   0.00000
   O  -0.5000000   0.5000000  -0.5000000 SPIN=   0.00000
   O  -0.5000000  -0.0000000  -0.0000000 SPIN=   0.00000
   F  -0.1130111  -0.3163010   0.2262655 SPIN=   0.00000
   F   0.1130111   0.3163010  -0.2262655 SPIN=   0.00000
%ENDBLOCK POSITIONS_FRAC

# Note: total spin =   8.00

KPOINTS_MP_SPACING 0.07

%BLOCK SPECIES_POT
QC5
%ENDBLOCK SPECIES_POT

SNAP_TO_SYMMETRY
SYMMETRY_GENERATE

