#              Generated by Buildcell
#
# at 05:14:34 (GMT+1.0) 4th August 2020
# in /lustre/scratch/uccabz1/launch_tmp
# on node-c12h-033
# by uccabz1
#
# compiler GCC version 4.9.2
# options -cpp -iprefix /lustre/shared/ucl/apps/gcc/4.9.2/bin/../lib/gcc/x86_64-unknown-linux-gnu/4.9.2/ -mtune=corei7 -march=x86-64 -g -Og
#
# seed  1751252596 -1197909182 -1520783752  1069276164 -1933970636  2000378821 -1134797320   543068062  1744412878 -1127194165   232603819 -1567078528
#
#      Author: C. J. Pickard (cjp20@cam.ac.uk)
#                Space group: Cc
#

%BLOCK LATTICE_ABC
      5.80087      5.80087      6.98878
     68.40190     68.40190     73.09225
%ENDBLOCK LATTICE_ABC

%BLOCK POSITIONS_FRAC
  Li   0.4464299   0.1787329  -0.2023520 SPIN=   0.00000
  Li   0.1787329   0.4464299   0.2976480 SPIN=   0.00000
  Fe  -0.2686744  -0.4143254   0.1134694 SPIN=   4.00000
  Fe  -0.4143254  -0.2686744  -0.3865306 SPIN=   4.00000
   O   0.3444301  -0.0859594   0.1142184 SPIN=   0.00000
   O   0.2678290  -0.1858037   0.5062579 SPIN=   0.00000
   O  -0.0419510  -0.2462608   0.3702562 SPIN=   0.00000
   O   0.0072399   0.1844985   0.3180110 SPIN=   0.00000
   S   0.1443870  -0.0833814   0.3271858 SPIN=   0.00000
   O  -0.0859594   0.3444301  -0.3857816 SPIN=   0.00000
   O  -0.1858037   0.2678290   0.0062579 SPIN=   0.00000
   O  -0.2462608  -0.0419510  -0.1297438 SPIN=   0.00000
   O   0.1844985   0.0072399  -0.1819890 SPIN=   0.00000
   S  -0.0833814   0.1443870  -0.1728142 SPIN=   0.00000
   F   0.2517802   0.4843117  -0.0822854 SPIN=   0.00000
   F   0.4843117   0.2517802   0.4177146 SPIN=   0.00000
%ENDBLOCK POSITIONS_FRAC

# Note: total spin =   8.00

KPOINTS_MP_SPACING 0.07

%BLOCK SPECIES_POT
QC5
%ENDBLOCK SPECIES_POT

SNAP_TO_SYMMETRY
SYMMETRY_GENERATE

