#              Generated by Buildcell
#
# at 04:23:19 (GMT+1.0) 4th August 2020
# in /lustre/scratch/uccabz1/launch_tmp
# on node-c12l-015
# by uccabz1
#
# compiler GCC version 4.9.2
# options -cpp -iprefix /lustre/shared/ucl/apps/gcc/4.9.2/bin/../lib/gcc/x86_64-unknown-linux-gnu/4.9.2/ -mtune=corei7 -march=x86-64 -g -Og
#
# seed  1341482957  -952401467  -385431593  -724853736  -382686527 -1879310489   766246793  1277129937 -2094164207    97107217 -1147618625  -320958479
#
#      Author: C. J. Pickard (cjp20@cam.ac.uk)
#                Space group: C2
#

%BLOCK LATTICE_ABC
      5.38950      5.38950      7.45341
     74.17868     74.17868     89.10899
%ENDBLOCK LATTICE_ABC

%BLOCK POSITIONS_FRAC
  Li  -0.4732417  -0.1848056   0.2369597 SPIN=   0.00000
  Li   0.1848056   0.4732417  -0.2369597 SPIN=   0.00000
  Fe  -0.3682487   0.3682487  -0.0000000 SPIN=   3.29631
  Fe   0.1391898  -0.1391898   0.0000000 SPIN=   4.70369
   O  -0.2578396  -0.1871213  -0.2499010 SPIN=   0.00000
   O  -0.1605890  -0.0300785  -0.6077328 SPIN=   0.00000
   O  -0.6035636  -0.1984533  -0.4088207 SPIN=   0.00000
   O  -0.2515341  -0.4975265  -0.4419046 SPIN=   0.00000
   S  -0.3183816  -0.2282949  -0.4270898 SPIN=   0.00000
   O   0.1871213   0.2578396   0.2499010 SPIN=   0.00000
   O   0.0300785   0.1605890   0.6077328 SPIN=   0.00000
   O   0.1984533   0.6035636   0.4088207 SPIN=   0.00000
   O   0.4975265   0.2515341   0.4419046 SPIN=   0.00000
   S   0.2282949   0.3183816   0.4270898 SPIN=   0.00000
   F  -0.1626682  -0.3763812   0.1216983 SPIN=   0.00000
   F   0.3763812   0.1626682  -0.1216983 SPIN=   0.00000
%ENDBLOCK POSITIONS_FRAC

# Note: total spin =   8.00

KPOINTS_MP_SPACING 0.07

%BLOCK SPECIES_POT
QC5
%ENDBLOCK SPECIES_POT

SNAP_TO_SYMMETRY
SYMMETRY_GENERATE

