#              Generated by Buildcell
#
# at 02:35:36 (GMT+1.0) 19th August 2020
# in /lustre/scratch/uccabz1/launch_tmp
# on node-c12a-029
# by uccabz1
#
# compiler GCC version 4.9.2
# options -cpp -iprefix /lustre/shared/ucl/apps/gcc/4.9.2/bin/../lib/gcc/x86_64-unknown-linux-gnu/4.9.2/ -mtune=corei7 -march=x86-64 -g -Og
#
# seed  1400184319  1871413540  1681416340   581289296   820161973 -1237932928  -462976532   522601364 -1508678536   318799904   793103991  1138425324
#
#      Author: C. J. Pickard (cjp20@cam.ac.uk)
#                Space group: P21
#

%BLOCK LATTICE_ABC
      4.09137      6.88526      7.11837
     90.00000     94.14941     90.00000
%ENDBLOCK LATTICE_ABC

%BLOCK POSITIONS_FRAC
  Li   0.4361016  -0.0165554  -0.2244706 SPIN=   0.00000
  Li  -0.4361016   0.4834446   0.2244706 SPIN=   0.00000
  Fe   0.4222929  -0.4089055  -0.3936008 SPIN=   4.00000
  Fe  -0.4222929   0.0910945   0.3936008 SPIN=   4.00000
   O   0.3290993  -0.0598209   0.1703323 SPIN=   0.00000
   O   0.3085927  -0.3283989  -0.0612849 SPIN=   0.00000
   O  -0.2011153  -0.1579229   0.0086802 SPIN=   0.00000
   O   0.0775542  -0.3740907   0.2475130 SPIN=   0.00000
   S   0.1285327  -0.2300584   0.0913101 SPIN=   0.00000
   O  -0.3290993   0.4401791  -0.1703323 SPIN=   0.00000
   O  -0.3085927   0.1716011   0.0612849 SPIN=   0.00000
   O   0.2011153   0.3420771  -0.0086802 SPIN=   0.00000
   O  -0.0775542   0.1259093  -0.2475130 SPIN=   0.00000
   S  -0.1285327   0.2699416  -0.0913101 SPIN=   0.00000
   F   0.2390019   0.3013394   0.4491062 SPIN=   0.00000
   F  -0.2390019  -0.1986606  -0.4491062 SPIN=   0.00000
%ENDBLOCK POSITIONS_FRAC

# Note: total spin =   8.00

KPOINTS_MP_SPACING 0.07

%BLOCK SPECIES_POT
QC5
%ENDBLOCK SPECIES_POT

SNAP_TO_SYMMETRY
SYMMETRY_GENERATE

