#              Generated by Buildcell
#
# at 04:39:17 (GMT+1.0) 4th August 2020
# in /lustre/scratch/uccabz1/launch_tmp
# on node-c12p-018
# by uccabz1
#
# compiler GCC version 4.9.2
# options -cpp -iprefix /lustre/shared/ucl/apps/gcc/4.9.2/bin/../lib/gcc/x86_64-unknown-linux-gnu/4.9.2/ -mtune=corei7 -march=x86-64 -g -Og
#
# seed  -297404505  -606921101   803936852 -1765077067   371677389  1402163632   247078318   960165589   994063836   696179525  -828952352  -115523957
#
#      Author: C. J. Pickard (cjp20@cam.ac.uk)
#                Space group: P21
#

%BLOCK LATTICE_ABC
      4.01370      4.01446     12.50088
     90.00000     96.81851     90.00000
%ENDBLOCK LATTICE_ABC

%BLOCK POSITIONS_FRAC
  Li  -0.5310966  -0.3326889  -0.2682395 SPIN=   0.00000
  Li   0.5310966   0.1673111   0.2682395 SPIN=   0.00000
  Fe  -0.2890026   0.1673059  -0.0968437 SPIN=   4.00000
  Fe   0.2890026  -0.3326941   0.0968437 SPIN=   4.00000
   O   0.5319541  -0.1777570   0.4283092 SPIN=   0.00000
   O  -0.0245572   0.0459831   0.3565478 SPIN=   0.00000
   O   0.0160818  -0.4839794   0.4584083 SPIN=   0.00000
   O   0.1953343  -0.4594590   0.2758560 SPIN=   0.00000
   S   0.1797033  -0.2688031   0.3797803 SPIN=   0.00000
   O  -0.5319541   0.3222430  -0.4283092 SPIN=   0.00000
   O   0.0245572   0.5459831  -0.3565478 SPIN=   0.00000
   O  -0.0160818   0.0160206  -0.4584083 SPIN=   0.00000
   O  -0.1953343   0.0405410  -0.2758560 SPIN=   0.00000
   S  -0.1797033   0.2311969  -0.3797803 SPIN=   0.00000
   F  -0.1898302   0.1372705   0.1188145 SPIN=   0.00000
   F   0.1898302  -0.3627295  -0.1188145 SPIN=   0.00000
%ENDBLOCK POSITIONS_FRAC

# Note: total spin =   8.00

KPOINTS_MP_SPACING 0.07

%BLOCK SPECIES_POT
QC5
%ENDBLOCK SPECIES_POT

SNAP_TO_SYMMETRY
SYMMETRY_GENERATE

