#              Generated by Buildcell
#
# at 22:58:19 (GMT+1.0) 18th August 2020
# in /lustre/scratch/uccabz1/launch_tmp
# on node-c12b-013
# by uccabz1
#
# compiler GCC version 4.9.2
# options -cpp -iprefix /lustre/shared/ucl/apps/gcc/4.9.2/bin/../lib/gcc/x86_64-unknown-linux-gnu/4.9.2/ -mtune=corei7 -march=x86-64 -g -Og
#
# seed  -745704221 -1024822655  -806804986  -717265294   807195680  -546835844  1329982200 -1752312393 -1527745955  1240144703  1154401244  -469307960
#
#      Author: C. J. Pickard (cjp20@cam.ac.uk)
#                Space group: Cc
#

%BLOCK LATTICE_ABC
      4.27591      4.27591     11.22933
     95.42925     95.42925     99.98277
%ENDBLOCK LATTICE_ABC

%BLOCK POSITIONS_FRAC
  Li  -0.3879138   0.3509347  -0.4512640 SPIN=   0.00000
  Li  -0.1490653   0.1120862   0.0487360 SPIN=   0.00000
  Fe   0.2700109  -0.3583933  -0.0383791 SPIN=   4.00000
  Fe   0.1416067  -0.2299891   0.4616209 SPIN=   4.00000
   O   0.3722965   0.0178979  -0.1360819 SPIN=   0.00000
   O  -0.0714610   0.1555351  -0.2668007 SPIN=   0.00000
   O   0.2869072  -0.1798440  -0.3531631 SPIN=   0.00000
   O   0.4881570   0.3946714  -0.2873109 SPIN=   0.00000
   S   0.2689749   0.0970651  -0.2608392 SPIN=   0.00000
   O  -0.4821021  -0.1277035   0.3639181 SPIN=   0.00000
   O  -0.3444649  -0.5714610   0.2331993 SPIN=   0.00000
   O  -0.6798440  -0.2130928   0.1468369 SPIN=   0.00000
   O  -0.1053286  -0.0118430   0.2126891 SPIN=   0.00000
   S  -0.4029349  -0.2310251   0.2391608 SPIN=   0.00000
   F  -0.2118604  -0.3879521  -0.0473860 SPIN=   0.00000
   F   0.1120479   0.2881396   0.4526140 SPIN=   0.00000
%ENDBLOCK POSITIONS_FRAC

# Note: total spin =   8.00

KPOINTS_MP_SPACING 0.07

%BLOCK SPECIES_POT
QC5
%ENDBLOCK SPECIES_POT

SNAP_TO_SYMMETRY
SYMMETRY_GENERATE

