#              Generated by Buildcell
#
# at 23:56:32 (GMT+1.0) 18th August 2020
# in /lustre/scratch/uccabz1/launch_tmp
# on node-c12p-025
# by uccabz1
#
# compiler GCC version 4.9.2
# options -cpp -iprefix /lustre/shared/ucl/apps/gcc/4.9.2/bin/../lib/gcc/x86_64-unknown-linux-gnu/4.9.2/ -mtune=corei7 -march=x86-64 -g -Og
#
# seed  1006075761 -2110344155   858558805   619313417  -737779504  -353825085 -1863489401   770981593  1674400314   596547496   724412718  -135381074
#
#      Author: C. J. Pickard (cjp20@cam.ac.uk)
#                Space group: Cc
#

%BLOCK LATTICE_ABC
      4.90999      5.72782      7.53854
     88.74642     70.99449     86.14803
%ENDBLOCK LATTICE_ABC

%BLOCK POSITIONS_FRAC
  Li  -0.3466846  -0.3782891  -0.3118041 SPIN=   0.00000
  Li  -0.1584887   0.1217109   0.3118041 SPIN=   0.00000
  Fe  -0.4156513   0.2335387  -0.0268192 SPIN=   4.00000
  Fe   0.0575295  -0.2664613   0.0268192 SPIN=   4.00000
   O   0.5198088   0.2965054  -0.4741413 SPIN=   0.00000
   O   0.2230238   0.5996534  -0.2528430 SPIN=   0.00000
   O   0.1656492   0.1802865  -0.1735448 SPIN=   0.00000
   O  -0.0035751   0.3548943  -0.4253035 SPIN=   0.00000
   S   0.2262267   0.3578349  -0.3314581 SPIN=   0.00000
   O   0.5456675  -0.2034946   0.4741413 SPIN=   0.00000
   O   0.4701809   0.0996534   0.2528430 SPIN=   0.00000
   O   0.4921044  -0.3197135   0.1735448 SPIN=   0.00000
   O   0.0711214  -0.1451057   0.4253035 SPIN=   0.00000
   S   0.3947686  -0.1421651   0.3314581 SPIN=   0.00000
   F  -0.3097095  -0.0859363  -0.1832436 SPIN=   0.00000
   F   0.0070469   0.4140637   0.1832436 SPIN=   0.00000
%ENDBLOCK POSITIONS_FRAC

# Note: total spin =   8.00

KPOINTS_MP_SPACING 0.07

%BLOCK SPECIES_POT
QC5
%ENDBLOCK SPECIES_POT

SNAP_TO_SYMMETRY
SYMMETRY_GENERATE

