#              Generated by Buildcell
#
# at 05:33:41 (GMT+1.0) 4th August 2020
# in /lustre/scratch/uccabz1/launch_tmp
# on node-c12f-025
# by uccabz1
#
# compiler GCC version 4.9.2
# options -cpp -iprefix /lustre/shared/ucl/apps/gcc/4.9.2/bin/../lib/gcc/x86_64-unknown-linux-gnu/4.9.2/ -mtune=corei7 -march=x86-64 -g -Og
#
# seed  -558724021  2091398479  -420569345 -1310917180 -1235546695 -1585433803  1068828503   154640370  -493232387   144325784   944491127  2113820747
#
#      Author: C. J. Pickard (cjp20@cam.ac.uk)
#                Space group: P21
#

%BLOCK LATTICE_ABC
      4.00101      6.68469      7.87591
    108.29288     90.00000     90.00000
%ENDBLOCK LATTICE_ABC

%BLOCK POSITIONS_FRAC
  Li  -0.2326283   0.2895195  -0.3826547 SPIN=   0.00000
  Li   0.2673717  -0.2895195   0.3826547 SPIN=   0.00000
  Fe  -0.3195491   0.3319766   0.1086711 SPIN=   4.00000
  Fe   0.1804509  -0.3319766  -0.1086711 SPIN=   4.00000
   O  -0.0007009   0.0771837  -0.2504323 SPIN=   0.00000
   O  -0.5140829   0.0438971  -0.0860777 SPIN=   0.00000
   O  -0.2262157  -0.2758298  -0.2759957 SPIN=   0.00000
   O  -0.5271936  -0.0441918  -0.4155825 SPIN=   0.00000
   S  -0.3170483  -0.0497352  -0.2570221 SPIN=   0.00000
   O   0.4992991  -0.0771837   0.2504323 SPIN=   0.00000
   O  -0.0140829  -0.0438971   0.0860777 SPIN=   0.00000
   O   0.2737843   0.2758298   0.2759957 SPIN=   0.00000
   O  -0.0271936   0.0441918   0.4155825 SPIN=   0.00000
   S   0.1829517   0.0497352   0.2570221 SPIN=   0.00000
   F  -0.1922089  -0.4338855   0.2994400 SPIN=   0.00000
   F   0.3077911   0.4338855  -0.2994400 SPIN=   0.00000
%ENDBLOCK POSITIONS_FRAC

# Note: total spin =   8.00

KPOINTS_MP_SPACING 0.07

%BLOCK SPECIES_POT
QC5
%ENDBLOCK SPECIES_POT

SNAP_TO_SYMMETRY
SYMMETRY_GENERATE

