#              Generated by Buildcell
#
# at 05:28:58 (GMT+1.0) 4th August 2020
# in /lustre/scratch/uccabz1/launch_tmp
# on node-c12e-012
# by uccabz1
#
# compiler GCC version 4.9.2
# options -cpp -iprefix /lustre/shared/ucl/apps/gcc/4.9.2/bin/../lib/gcc/x86_64-unknown-linux-gnu/4.9.2/ -mtune=corei7 -march=x86-64 -g -Og
#
# seed  -216480923  2014369302  1095016665   851411099   582334395  -281832123  1454777521  -549244157  1156838797  1403601599 -1842886500  2012453138
#
#      Author: C. J. Pickard (cjp20@cam.ac.uk)
#                Space group: Pc
#

%BLOCK LATTICE_ABC
      5.12719      5.87896      6.88462
    105.47141     90.00000     90.00000
%ENDBLOCK LATTICE_ABC

%BLOCK POSITIONS_FRAC
  Li   0.2923044  -0.2224876  -0.0739696 SPIN=   0.00000
  Li  -0.2923044  -0.2224876   0.4260304 SPIN=   0.00000
  Fe  -0.3450975   0.1892239   0.2478809 SPIN=   4.00000
  Fe   0.3450975   0.1892239  -0.2521191 SPIN=   4.00000
   O  -0.0130920  -0.6837143  -0.2772665 SPIN=   0.00000
   O  -0.3200890  -0.5437520  -0.4977437 SPIN=   0.00000
   O   0.0367418  -0.2836069  -0.3254850 SPIN=   0.00000
   O  -0.3349247  -0.3723058  -0.1282438 SPIN=   0.00000
   S  -0.1578410  -0.4708447  -0.3071848 SPIN=   0.00000
   O   0.0130920  -0.6837143   0.2227335 SPIN=   0.00000
   O   0.3200890  -0.5437520   0.0022563 SPIN=   0.00000
   O  -0.0367418  -0.2836069   0.1745150 SPIN=   0.00000
   O   0.3349247  -0.3723058   0.3717562 SPIN=   0.00000
   S   0.1578410  -0.4708447   0.1928152 SPIN=   0.00000
   F  -0.3288269   0.1011966  -0.0667715 SPIN=   0.00000
   F   0.3288269   0.1011966   0.4332285 SPIN=   0.00000
%ENDBLOCK POSITIONS_FRAC

# Note: total spin =   8.00

KPOINTS_MP_SPACING 0.07

%BLOCK SPECIES_POT
QC5
%ENDBLOCK SPECIES_POT

SNAP_TO_SYMMETRY
SYMMETRY_GENERATE

