#              Generated by Buildcell
#
# at 01:47:12 (GMT+1.0) 4th August 2020
# in /lustre/scratch/uccabz1/launch_tmp
# on node-c12e-016
# by uccabz1
#
# compiler GCC version 4.9.2
# options -cpp -iprefix /lustre/shared/ucl/apps/gcc/4.9.2/bin/../lib/gcc/x86_64-unknown-linux-gnu/4.9.2/ -mtune=corei7 -march=x86-64 -g -Og
#
# seed  1837547311 -1495851147  -304530206  -788216704  -958623524 -1102704342  -832859215   668957864  1459445672   -46657032    16616752  -227224572
#
#      Author: C. J. Pickard (cjp20@cam.ac.uk)
#                Space group: Cm
#

%BLOCK LATTICE_ABC
      6.16909      6.16909      6.66117
    110.56690    114.94792     99.51109
%ENDBLOCK LATTICE_ABC

%BLOCK POSITIONS_FRAC
  Li  -0.6162991  -0.3977296  -1.0140287 SPIN=   0.00000
  Li  -0.0055365   0.0843103   0.0787738 SPIN=   0.00000
  Fe  -0.1071843  -0.3628483  -0.4700326 SPIN=   1.55397
  Fe   0.4780475   0.0701756   0.5482231 SPIN=   6.44603
   O   0.3673190   0.1439977   0.2358710 SPIN=   0.00000
   O   0.3853484   0.2635770  -0.0762575 SPIN=   0.00000
   O   0.2873139  -0.1766754  -0.1642977 SPIN=   0.00000
   O   0.7259357   0.1362511   0.1593851 SPIN=   0.00000
   S   0.4414792   0.0917876   0.0386752 SPIN=   0.00000
   O   0.0918733  -0.1314480   0.2358710 SPIN=   0.00000
   O  -0.3398345  -0.4616059  -0.0762575 SPIN=   0.00000
   O   0.0123777  -0.4516116  -0.1642977 SPIN=   0.00000
   O   0.0231340  -0.5665506   0.1593851 SPIN=   0.00000
   S  -0.0531124  -0.4028040   0.0386752 SPIN=   0.00000
   F  -0.2592627  -0.0992330  -0.3584956 SPIN=   0.00000
   F   0.1901822   0.3582138   0.5483960 SPIN=   0.00000
%ENDBLOCK POSITIONS_FRAC

# Note: total spin =   8.00

KPOINTS_MP_SPACING 0.07

%BLOCK SPECIES_POT
QC5
%ENDBLOCK SPECIES_POT

SNAP_TO_SYMMETRY
SYMMETRY_GENERATE

