#              Generated by Buildcell
#
# at 01:41:15 (GMT+1.0) 4th August 2020
# in /lustre/scratch/uccabz1/launch_tmp
# on node-c12l-030
# by uccabz1
#
# compiler GCC version 4.9.2
# options -cpp -iprefix /lustre/shared/ucl/apps/gcc/4.9.2/bin/../lib/gcc/x86_64-unknown-linux-gnu/4.9.2/ -mtune=corei7 -march=x86-64 -g -Og
#
# seed -1076176823   777542469  1814042286  -551443003 -1428883978  1045072677 -1136242134  2066538160  1196309155 -1201042466 -1318081953 -2058107157
#
#      Author: C. J. Pickard (cjp20@cam.ac.uk)
#                Space group: P21/m
#

%BLOCK LATTICE_ABC
      3.92995      6.85340      7.50881
     90.00000     98.53276     90.00000
%ENDBLOCK LATTICE_ABC

%BLOCK POSITIONS_FRAC
  Li   0.2933974  -0.2500000  -0.0588614 SPIN=   0.00000
  Li  -0.2933974   0.2500000   0.0588614 SPIN=   0.00000
  Fe  -0.2971299  -0.2500000  -0.3776736 SPIN=   4.00000
  Fe   0.2971299   0.2500000   0.3776736 SPIN=   4.00000
   O   0.4685068  -0.0875578   0.3703713 SPIN=   0.00000
   O   0.1824793   0.0855566   0.0996613 SPIN=   0.00000
   O  -0.4685068   0.4124422  -0.3703713 SPIN=   0.00000
   O  -0.1824793   0.5855566  -0.0996613 SPIN=   0.00000
   O  -0.4685068   0.0875578  -0.3703713 SPIN=   0.00000
   O  -0.1824793  -0.0855566  -0.0996613 SPIN=   0.00000
   O   0.4685068  -0.4124422   0.3703713 SPIN=   0.00000
   O   0.1824793  -0.5855566   0.0996613 SPIN=   0.00000
   S  -0.1294236  -0.2500000   0.2133904 SPIN=   0.00000
   S   0.1294236   0.2500000  -0.2133904 SPIN=   0.00000
   F   0.2271045  -0.2500000  -0.3188918 SPIN=   0.00000
   F  -0.2271045   0.2500000   0.3188918 SPIN=   0.00000
%ENDBLOCK POSITIONS_FRAC

# Note: total spin =   8.00

KPOINTS_MP_SPACING 0.07

%BLOCK SPECIES_POT
QC5
%ENDBLOCK SPECIES_POT

SNAP_TO_SYMMETRY
SYMMETRY_GENERATE

