#              Generated by Buildcell
#
# at 01:28:59 (GMT+1.0) 19th August 2020
# in /lustre/scratch/uccabz1/launch_tmp
# on node-c12a-029
# by uccabz1
#
# compiler GCC version 4.9.2
# options -cpp -iprefix /lustre/shared/ucl/apps/gcc/4.9.2/bin/../lib/gcc/x86_64-unknown-linux-gnu/4.9.2/ -mtune=corei7 -march=x86-64 -g -Og
#
# seed  -400141736  -153328278  -762829879  1452355568 -1140505889  1087604437  -938180636  -294758838  1572976151  1431048100  -653268741   934386994
#
#      Author: C. J. Pickard (cjp20@cam.ac.uk)
#                Space group: P-1
#

%BLOCK LATTICE_ABC
      4.34728      5.72630      8.47008
    108.46266     90.00232     90.00106
%ENDBLOCK LATTICE_ABC

%BLOCK POSITIONS_FRAC
  Li   0.2424059  -0.3450502  -0.2988658 SPIN=   0.00000
  Li  -0.2424059   0.3450502   0.2988658 SPIN=   0.00000
  Fe   0.2499815  -0.1064149   0.3071797 SPIN=   4.00000
  Fe  -0.2499815   0.1064149  -0.3071797 SPIN=   4.00000
   O  -0.4000991  -0.1202277   0.0686221 SPIN=   0.00000
   O   0.0949353  -0.2920724  -0.0612968 SPIN=   0.00000
   O  -0.3195136  -0.2004326  -0.2331864 SPIN=   0.00000
   O  -0.3753192  -0.5487626  -0.1215927 SPIN=   0.00000
   S  -0.2499992  -0.2903738  -0.0868634 SPIN=   0.00000
   O   0.4000991   0.1202277  -0.0686221 SPIN=   0.00000
   O  -0.0949353   0.2920724   0.0612968 SPIN=   0.00000
   O   0.3195136   0.2004326   0.2331864 SPIN=   0.00000
   O   0.3753192   0.5487626   0.1215927 SPIN=   0.00000
   S   0.2499992   0.2903738   0.0868634 SPIN=   0.00000
   F   0.2499983  -0.7094711  -0.4127955 SPIN=   0.00000
   F  -0.2499983   0.7094711   0.4127955 SPIN=   0.00000
%ENDBLOCK POSITIONS_FRAC

# Note: total spin =   8.00

KPOINTS_MP_SPACING 0.07

%BLOCK SPECIES_POT
QC5
%ENDBLOCK SPECIES_POT

SNAP_TO_SYMMETRY
SYMMETRY_GENERATE

