#              Generated by Buildcell
#
# at 02:54:35 (GMT+1.0) 19th August 2020
# in /lustre/scratch/uccabz1/launch_tmp
# on node-c12e-014
# by uccabz1
#
# compiler GCC version 4.9.2
# options -cpp -iprefix /lustre/shared/ucl/apps/gcc/4.9.2/bin/../lib/gcc/x86_64-unknown-linux-gnu/4.9.2/ -mtune=corei7 -march=x86-64 -g -Og
#
# seed   154256474 -2100514591   205953031  1933877713  1747227763   925377145  1892588973  -238050100  -451752252  -580902118 -1225350662 -2022281352
#
#      Author: C. J. Pickard (cjp20@cam.ac.uk)
#                Space group: P-1
#

%BLOCK LATTICE_ABC
      3.98775      6.19696      8.32101
     77.76254     86.04660     85.30464
%ENDBLOCK LATTICE_ABC

%BLOCK POSITIONS_FRAC
  Li  -0.0000000  -0.0000000   0.5000000 SPIN=   0.00000
  Li  -0.5000000   0.0000000  -0.0000000 SPIN=   0.00000
  Fe   0.0000000   0.5000000   0.0000000 SPIN=   2.03264
  Fe   0.0000000  -0.5000000   0.5000000 SPIN=   5.96736
   O   0.5711085  -0.3531539  -0.3844866 SPIN=   0.00000
   O   0.8125440  -0.0668622  -0.2691260 SPIN=   0.00000
   O   0.3810031  -0.2983661  -0.1055880 SPIN=   0.00000
   S   0.4965325  -0.1834011  -0.2774982 SPIN=   0.00000
   O  -0.5711085   0.3531539   0.3844866 SPIN=   0.00000
   O  -0.8125440   0.0668622   0.2691260 SPIN=   0.00000
   O  -0.3810031   0.2983661   0.1055880 SPIN=   0.00000
   S  -0.4965325   0.1834011   0.2774982 SPIN=   0.00000
   O  -0.5000000  -1.0000000   0.5000000 SPIN=   0.00000
   O   0.0000000   0.0000000   0.0000000 SPIN=   0.00000
   F   0.0706465   0.3425286  -0.2627218 SPIN=   0.00000
   F  -0.0706465  -0.3425286   0.2627218 SPIN=   0.00000
%ENDBLOCK POSITIONS_FRAC

# Note: total spin =   8.00

KPOINTS_MP_SPACING 0.07

%BLOCK SPECIES_POT
QC5
%ENDBLOCK SPECIES_POT

SNAP_TO_SYMMETRY
SYMMETRY_GENERATE

