#              Generated by Buildcell
#
# at 01:58:21 (GMT+1.0) 4th August 2020
# in /lustre/scratch/uccabz1/launch_tmp
# on node-c12f-007
# by uccabz1
#
# compiler GCC version 4.9.2
# options -cpp -iprefix /lustre/shared/ucl/apps/gcc/4.9.2/bin/../lib/gcc/x86_64-unknown-linux-gnu/4.9.2/ -mtune=corei7 -march=x86-64 -g -Og
#
# seed  -473100015  1509379477   -77541505  1299752657 -1746957489  1258279236 -1355535849 -1151367027   621204085 -1445887848 -1001459653   840862630
#
#      Author: C. J. Pickard (cjp20@cam.ac.uk)
#                Space group: C2
#

%BLOCK LATTICE_ABC
      6.08966      6.08966      6.62210
     64.91165     64.91165     73.91332
%ENDBLOCK LATTICE_ABC

%BLOCK POSITIONS_FRAC
  Li  -0.1723810   0.1723810   0.0000000 SPIN=   0.00000
  Li   0.3275289  -0.3275289   0.5000000 SPIN=   0.00000
  Fe   0.3571724   0.1637547  -0.1857822 SPIN=   4.00000
  Fe  -0.1637547  -0.3571724   0.1857822 SPIN=   4.00000
   O   0.0461937  -0.2440139   0.3072502 SPIN=   0.00000
   O  -0.0239659  -0.6632761   0.4006509 SPIN=   0.00000
   O   0.3932863  -0.5720500   0.2853203 SPIN=   0.00000
   O   0.1937659  -0.4124070  -0.0147669 SPIN=   0.00000
   O   0.2440139  -0.0461937  -0.3072502 SPIN=   0.00000
   O   0.6632761   0.0239659  -0.4006509 SPIN=   0.00000
   O   0.5720500  -0.3932863  -0.2853203 SPIN=   0.00000
   O   0.4124070  -0.1937659   0.0147669 SPIN=   0.00000
   S   0.4440909  -0.4440909  -0.0000000 SPIN=   0.00000
   S  -0.0556771   0.0556771  -0.5000000 SPIN=   0.00000
   F   0.0756027   0.4140663  -0.2694995 SPIN=   0.00000
   F  -0.4140663  -0.0756027   0.2694995 SPIN=   0.00000
%ENDBLOCK POSITIONS_FRAC

# Note: total spin =   8.00

KPOINTS_MP_SPACING 0.07

%BLOCK SPECIES_POT
QC5
%ENDBLOCK SPECIES_POT

SNAP_TO_SYMMETRY
SYMMETRY_GENERATE

