#              Generated by Buildcell
#
# at 21:13:15 (GMT+1.0) 18th August 2020
# in /lustre/scratch/uccabz1/launch_tmp
# on node-c12h-024
# by uccabz1
#
# compiler GCC version 4.9.2
# options -cpp -iprefix /lustre/shared/ucl/apps/gcc/4.9.2/bin/../lib/gcc/x86_64-unknown-linux-gnu/4.9.2/ -mtune=corei7 -march=x86-64 -g -Og
#
# seed  1362050928 -2046038497 -1698436579 -1189447149  1357047380 -1605761287  1469392433  -144435347 -1913377830   971351317   135472831 -1280135666
#
#      Author: C. J. Pickard (cjp20@cam.ac.uk)
#                Space group: Pc
#

%BLOCK LATTICE_ABC
      5.11009      6.14234      6.58673
     90.00000     90.00000    104.67410
%ENDBLOCK LATTICE_ABC

%BLOCK POSITIONS_FRAC
  Li   0.6889452   0.2553627   0.1382418 SPIN=   0.00000
  Li   0.1889452  -0.2446373  -0.1382418 SPIN=   0.00000
  Fe   0.2145245   0.3394208   0.3804304 SPIN=   4.00000
  Fe  -0.2854755  -0.1605792  -0.3804304 SPIN=   4.00000
   O  -0.4201472  -0.4308887   0.2895504 SPIN=   0.00000
   O  -0.0699263  -0.0733429   0.2439368 SPIN=   0.00000
   O  -0.3392561  -0.2552912  -0.0504963 SPIN=   0.00000
   O   0.0018256  -0.4275776   0.1037893 SPIN=   0.00000
   S  -0.2068760  -0.2967751   0.1466951 SPIN=   0.00000
   O   0.0798528   0.0691113  -0.2895504 SPIN=   0.00000
   O   0.4300737   0.4266571  -0.2439368 SPIN=   0.00000
   O   0.1607439   0.2447088   0.0504963 SPIN=   0.00000
   O   0.5018256   0.0724224  -0.1037893 SPIN=   0.00000
   S   0.2931240   0.2032249  -0.1466951 SPIN=   0.00000
   F  -0.0178796  -0.4014044  -0.3446918 SPIN=   0.00000
   F   0.4821204   0.0985956   0.3446918 SPIN=   0.00000
%ENDBLOCK POSITIONS_FRAC

# Note: total spin =   8.00

KPOINTS_MP_SPACING 0.07

%BLOCK SPECIES_POT
QC5
%ENDBLOCK SPECIES_POT

SNAP_TO_SYMMETRY
SYMMETRY_GENERATE

