#              Generated by Buildcell
#
# at 00:22:27 (GMT+1.0) 19th August 2020
# in /lustre/scratch/uccabz1/launch_tmp
# on node-c12a-021
# by uccabz1
#
# compiler GCC version 4.9.2
# options -cpp -iprefix /lustre/shared/ucl/apps/gcc/4.9.2/bin/../lib/gcc/x86_64-unknown-linux-gnu/4.9.2/ -mtune=corei7 -march=x86-64 -g -Og
#
# seed   507244595 -1077375070  1482301616  1787859159  1173531139   625047201  -194220609  2062341448  -918726470   854897124   150278958  1298187656
#
#      Author: C. J. Pickard (cjp20@cam.ac.uk)
#                Space group: Cc
#

%BLOCK LATTICE_ABC
      5.51357      6.64701      6.78260
    110.90822    104.23788    109.12015
%ENDBLOCK LATTICE_ABC

%BLOCK POSITIONS_FRAC
  Li  -0.4754351  -0.1302337  -0.3731566 SPIN=   0.00000
  Li   0.3977215   0.2429229   0.3731566 SPIN=   0.00000
  Fe   0.0322173  -0.3449636  -0.2161101 SPIN=   4.00000
  Fe  -0.2516726  -0.1288535   0.2161101 SPIN=   4.00000
   O   0.2784627   0.4904118   0.3089557 SPIN=   0.00000
   O  -0.0925984   0.6178695   0.2269085 SPIN=   0.00000
   O  -0.1144931   0.3682117   0.4254281 SPIN=   0.00000
   O  -0.2021092   0.1879149   0.0108113 SPIN=   0.00000
   S  -0.0326845   0.4161020   0.2430259 SPIN=   0.00000
   O   0.4695071   0.1814562  -0.3089557 SPIN=   0.00000
   O   0.1804931   0.3909610  -0.2269085 SPIN=   0.00000
   O  -0.0399211  -0.0572164  -0.4254281 SPIN=   0.00000
   O   0.2870796   0.1771037  -0.0108113 SPIN=   0.00000
   S   0.2242897   0.1730761  -0.2430259 SPIN=   0.00000
   F  -0.5623514  -0.0766967   0.2497849 SPIN=   0.00000
   F  -0.3121363  -0.3264816  -0.2497849 SPIN=   0.00000
%ENDBLOCK POSITIONS_FRAC

# Note: total spin =   8.00

KPOINTS_MP_SPACING 0.07

%BLOCK SPECIES_POT
QC5
%ENDBLOCK SPECIES_POT

SNAP_TO_SYMMETRY
SYMMETRY_GENERATE

