#              Generated by Buildcell
#
# at 00:51:51 (GMT+1.0) 19th August 2020
# in /lustre/scratch/uccabz1/launch_tmp
# on node-c12l-020
# by uccabz1
#
# compiler GCC version 4.9.2
# options -cpp -iprefix /lustre/shared/ucl/apps/gcc/4.9.2/bin/../lib/gcc/x86_64-unknown-linux-gnu/4.9.2/ -mtune=corei7 -march=x86-64 -g -Og
#
# seed -1127218159  1716755473  -129788936  1553725796 -1733765526  1408092056  -667919870 -1327619671  -152513359  1536943116 -1746150551 -1472289792
#
#      Author: C. J. Pickard (cjp20@cam.ac.uk)
#                Space group: P-1
#

%BLOCK LATTICE_ABC
      4.18857      6.98009      7.14190
     73.58854     89.97354     86.99770
%ENDBLOCK LATTICE_ABC

%BLOCK POSITIONS_FRAC
  Li  -0.1758210  -0.2124142  -0.0340402 SPIN=   0.00000
  Li   0.1758210   0.2124142   0.0340402 SPIN=   0.00000
  Fe  -0.2400873  -0.1121280   0.3434142 SPIN=   4.00000
  Fe   0.2400873   0.1121280  -0.3434142 SPIN=   4.00000
   O   0.1575861  -0.2870383  -0.1880949 SPIN=   0.00000
   O   0.5310594  -0.5864490  -0.1084524 SPIN=   0.00000
   O   0.4894671  -0.3646718  -0.4468243 SPIN=   0.00000
   O   0.0438132  -0.5769427  -0.3074700 SPIN=   0.00000
   S   0.3054814  -0.4537754  -0.2627104 SPIN=   0.00000
   O  -0.1575861   0.2870383   0.1880949 SPIN=   0.00000
   O  -0.5310594   0.5864490   0.1084524 SPIN=   0.00000
   O  -0.4894671   0.3646718   0.4468243 SPIN=   0.00000
   O  -0.0438132   0.5769427   0.3074700 SPIN=   0.00000
   S  -0.3054814   0.4537754   0.2627104 SPIN=   0.00000
   F  -0.2540905   0.0487884  -0.2634186 SPIN=   0.00000
   F   0.2540905  -0.0487884   0.2634186 SPIN=   0.00000
%ENDBLOCK POSITIONS_FRAC

# Note: total spin =   8.00

KPOINTS_MP_SPACING 0.07

%BLOCK SPECIES_POT
QC5
%ENDBLOCK SPECIES_POT

SNAP_TO_SYMMETRY
SYMMETRY_GENERATE

