#              Generated by Buildcell
#
# at 23:22:44 (GMT+1.0) 18th August 2020
# in /lustre/scratch/uccabz1/launch_tmp
# on node-c12c-006
# by uccabz1
#
# compiler GCC version 4.9.2
# options -cpp -iprefix /lustre/shared/ucl/apps/gcc/4.9.2/bin/../lib/gcc/x86_64-unknown-linux-gnu/4.9.2/ -mtune=corei7 -march=x86-64 -g -Og
#
# seed   723839515 -1984451554  -405011189 -1659525287 -1784411383 -1434484533  -420042902 -1335199299 -1519318195 -1793825618   965897651   832404436
#
#      Author: C. J. Pickard (cjp20@cam.ac.uk)
#                Space group: P-1
#

%BLOCK LATTICE_ABC
      4.57624      6.17847      7.64291
     88.57514     77.16754     71.86110
%ENDBLOCK LATTICE_ABC

%BLOCK POSITIONS_FRAC
  Li   0.0677112   0.3728677   0.2598687 SPIN=   0.00000
  Li  -0.0677112  -0.3728677  -0.2598687 SPIN=   0.00000
  Fe   0.0000000   0.0000000   0.0000000 SPIN=   6.69064
  Fe  -0.0000000   0.0000000   0.5000000 SPIN=   1.30936
   O  -0.8735861   0.6335787  -0.0564566 SPIN=   0.00000
   O  -0.3763410   0.4558867  -0.2806287 SPIN=   0.00000
   O  -0.8261658   0.3058256  -0.2524717 SPIN=   0.00000
   O  -0.5287140   0.2484534  -0.0123037 SPIN=   0.00000
   O   0.8735861  -0.6335787   0.0564566 SPIN=   0.00000
   O   0.3763410  -0.4558867   0.2806287 SPIN=   0.00000
   O   0.8261658  -0.3058256   0.2524717 SPIN=   0.00000
   O   0.5287140  -0.2484534   0.0123037 SPIN=   0.00000
   S  -0.5000000   0.5000000  -0.0000000 SPIN=   0.00000
   S   0.5000000  -0.5000000   0.5000000 SPIN=   0.00000
   F  -0.3449691  -0.0439390  -0.2732586 SPIN=   0.00000
   F   0.3449691   0.0439390   0.2732586 SPIN=   0.00000
%ENDBLOCK POSITIONS_FRAC

# Note: total spin =   8.00

KPOINTS_MP_SPACING 0.07

%BLOCK SPECIES_POT
QC5
%ENDBLOCK SPECIES_POT

SNAP_TO_SYMMETRY
SYMMETRY_GENERATE

