#              Generated by Buildcell
#
# at 02:25:45 (GMT+1.0) 4th August 2020
# in /lustre/scratch/uccabz1/launch_tmp
# on node-c12a-007
# by uccabz1
#
# compiler GCC version 4.9.2
# options -cpp -iprefix /lustre/shared/ucl/apps/gcc/4.9.2/bin/../lib/gcc/x86_64-unknown-linux-gnu/4.9.2/ -mtune=corei7 -march=x86-64 -g -Og
#
# seed   819777498  -872210857 -1832673722 -1332146332  1267517245  2052361301   426748656  1760965005  1840447975 -1198774856  1329464718 -1805305475
#
#      Author: C. J. Pickard (cjp20@cam.ac.uk)
#                Space group: Pc
#

%BLOCK LATTICE_ABC
      4.77592      5.87648      7.36983
    104.77468     90.00000     90.00000
%ENDBLOCK LATTICE_ABC

%BLOCK POSITIONS_FRAC
  Li   0.1575710  -0.0484943  -0.3158408 SPIN=   0.00000
  Li  -0.1575710  -0.0484943   0.1841592 SPIN=   0.00000
  Fe  -0.0815364  -0.4228291   0.3796236 SPIN=   4.00000
  Fe   0.0815364  -0.4228291  -0.1203764 SPIN=   4.00000
   O  -0.6401827   0.2570184  -0.2351836 SPIN=   0.00000
   O  -0.1578310   0.1393857  -0.1764218 SPIN=   0.00000
   O  -0.2424482   0.3701515  -0.4089720 SPIN=   0.00000
   O  -0.3929011  -0.0460815  -0.4770342 SPIN=   0.00000
   S  -0.3583408   0.1801185  -0.3244029 SPIN=   0.00000
   O   0.6401827   0.2570184   0.2648164 SPIN=   0.00000
   O   0.1578310   0.1393857   0.3235782 SPIN=   0.00000
   O   0.2424482   0.3701515   0.0910280 SPIN=   0.00000
   O   0.3929011  -0.0460815   0.0229658 SPIN=   0.00000
   S   0.3583408   0.1801185   0.1755971 SPIN=   0.00000
   F  -0.2202742  -0.3692522   0.1103739 SPIN=   0.00000
   F   0.2202742  -0.3692522  -0.3896261 SPIN=   0.00000
%ENDBLOCK POSITIONS_FRAC

# Note: total spin =   8.00

KPOINTS_MP_SPACING 0.07

%BLOCK SPECIES_POT
QC5
%ENDBLOCK SPECIES_POT

SNAP_TO_SYMMETRY
SYMMETRY_GENERATE

