#              Generated by Buildcell
#
# at 05:35:45 (GMT+1.0) 4th August 2020
# in /lustre/scratch/uccabz1/launch_tmp
# on node-c12l-025
# by uccabz1
#
# compiler GCC version 4.9.2
# options -cpp -iprefix /lustre/shared/ucl/apps/gcc/4.9.2/bin/../lib/gcc/x86_64-unknown-linux-gnu/4.9.2/ -mtune=corei7 -march=x86-64 -g -Og
#
# seed -1036666726   916590432   636092734 -2067102848   955629848 -1352369239  1701875450   544216704  1180632803   860266222  1765219764   806937330
#
#      Author: C. J. Pickard (cjp20@cam.ac.uk)
#                Space group: P2
#

%BLOCK LATTICE_ABC
      4.56571      6.30868      6.94832
     90.00000     92.11748     90.00000
%ENDBLOCK LATTICE_ABC

%BLOCK POSITIONS_FRAC
  Li  -1.0000000   0.3970788  -0.5000000 SPIN=   0.00000
  Li   0.5000000   0.3405297   0.0000000 SPIN=   0.00000
  Fe   0.2463762  -0.2888058   0.2339641 SPIN=   4.00000
  Fe  -0.2463762  -0.2888058  -0.2339641 SPIN=   4.00000
   O  -0.7396215   0.1551173  -0.4831441 SPIN=   0.00000
   O  -0.8349412  -0.1554721  -0.2770690 SPIN=   0.00000
   O  -0.9516776   0.2056130  -0.1636777 SPIN=   0.00000
   O  -0.4345621   0.0937810  -0.1865349 SPIN=   0.00000
   S  -0.7402006   0.0747598  -0.2776064 SPIN=   0.00000
   O   0.7396215   0.1551173   0.4831441 SPIN=   0.00000
   O   0.8349412  -0.1554721   0.2770690 SPIN=   0.00000
   O   0.9516776   0.2056130   0.1636777 SPIN=   0.00000
   O   0.4345621   0.0937810   0.1865349 SPIN=   0.00000
   S   0.7402006   0.0747598   0.2776064 SPIN=   0.00000
   F  -0.5000000  -0.4634940  -0.5000000 SPIN=   0.00000
   F  -0.5000000  -0.3575702  -0.0000000 SPIN=   0.00000
%ENDBLOCK POSITIONS_FRAC

# Note: total spin =   8.00

KPOINTS_MP_SPACING 0.07

%BLOCK SPECIES_POT
QC5
%ENDBLOCK SPECIES_POT

SNAP_TO_SYMMETRY
SYMMETRY_GENERATE

