#              Generated by Buildcell
#
# at 02:47:54 (GMT+1.0) 19th August 2020
# in /lustre/scratch/uccabz1/launch_tmp
# on node-c12f-008
# by uccabz1
#
# compiler GCC version 4.9.2
# options -cpp -iprefix /lustre/shared/ucl/apps/gcc/4.9.2/bin/../lib/gcc/x86_64-unknown-linux-gnu/4.9.2/ -mtune=corei7 -march=x86-64 -g -Og
#
# seed  1621488565   -28722265  1394891035    82119224  1517686183  1585700814  1356792716   631484444 -1038008944 -1796917084  2007261890   991337140
#
#      Author: C. J. Pickard (cjp20@cam.ac.uk)
#                Space group: C2
#

%BLOCK LATTICE_ABC
      5.53138      5.53138      7.17829
     72.68441     72.68441     87.08638
%ENDBLOCK LATTICE_ABC

%BLOCK POSITIONS_FRAC
  Li   0.4362416  -0.4217447   0.2456064 SPIN=   0.00000
  Li   0.4217447  -0.4362416  -0.2456064 SPIN=   0.00000
  Fe   0.1720442   0.1746197  -0.3854373 SPIN=   4.00000
  Fe  -0.1746197  -0.1720442   0.3854373 SPIN=   4.00000
   O   0.1763635  -0.1034395   0.1452427 SPIN=   0.00000
   O   0.5902692   0.0135136   0.1681372 SPIN=   0.00000
   O   0.2850779   0.3447408   0.0946710 SPIN=   0.00000
   O   0.5051411   0.1356262  -0.1665509 SPIN=   0.00000
   S   0.3892129   0.0976103   0.0603750 SPIN=   0.00000
   O   0.1034395  -0.1763635  -0.1452427 SPIN=   0.00000
   O  -0.0135136  -0.5902692  -0.1681372 SPIN=   0.00000
   O  -0.3447408  -0.2850779  -0.0946710 SPIN=   0.00000
   O  -0.1356262  -0.5051411   0.1665509 SPIN=   0.00000
   S  -0.0976103  -0.3892129  -0.0603750 SPIN=   0.00000
   F  -0.4642190  -0.1055138  -0.4357091 SPIN=   0.00000
   F   0.1055138   0.4642190   0.4357091 SPIN=   0.00000
%ENDBLOCK POSITIONS_FRAC

# Note: total spin =   8.00

KPOINTS_MP_SPACING 0.07

%BLOCK SPECIES_POT
QC5
%ENDBLOCK SPECIES_POT

SNAP_TO_SYMMETRY
SYMMETRY_GENERATE

