#              Generated by Buildcell
#
# at 03:18:46 (GMT+1.0) 4th August 2020
# in /lustre/scratch/uccabz1/launch_tmp
# on node-c12f-004
# by uccabz1
#
# compiler GCC version 4.9.2
# options -cpp -iprefix /lustre/shared/ucl/apps/gcc/4.9.2/bin/../lib/gcc/x86_64-unknown-linux-gnu/4.9.2/ -mtune=corei7 -march=x86-64 -g -Og
#
# seed -2043981123 -1537565923 -1546047888 -1824055955   427938547   588024628  1732275533   988893203  -311757665  -910107912  -145625231   245362823
#
#      Author: C. J. Pickard (cjp20@cam.ac.uk)
#                Space group: Cc
#

%BLOCK LATTICE_ABC
      5.73274      6.52803      6.52803
    104.98081    108.85868    108.85868
%ENDBLOCK LATTICE_ABC

%BLOCK POSITIONS_FRAC
  Li  -0.2398439   0.0824483  -0.1990835 SPIN=   0.00000
  Li   0.2601561  -0.1990835   0.0824483 SPIN=   0.00000
  Fe  -0.4339986  -0.3701424   0.4018585 SPIN=   4.00000
  Fe   0.0660014   0.4018585  -0.3701424 SPIN=   4.00000
   O   0.2365439   0.0695450  -0.0264849 SPIN=   0.00000
   O   0.3257666  -0.2164862  -0.2840215 SPIN=   0.00000
   O   0.4443831   0.1838493  -0.2824359 SPIN=   0.00000
   O  -0.0439238  -0.1086645  -0.4611568 SPIN=   0.00000
   S   0.2406925  -0.0179391  -0.2635248 SPIN=   0.00000
   O  -0.2634561  -0.0264849   0.0695450 SPIN=   0.00000
   O  -0.1742334  -0.2840215  -0.2164862 SPIN=   0.00000
   O  -0.0556169  -0.2824359   0.1838493 SPIN=   0.00000
   O  -0.5439238  -0.4611568  -0.1086645 SPIN=   0.00000
   S  -0.2593075  -0.2635248  -0.0179391 SPIN=   0.00000
   F   0.1460986   0.4206031   0.1361489 SPIN=   0.00000
   F  -0.3539014   0.1361489   0.4206031 SPIN=   0.00000
%ENDBLOCK POSITIONS_FRAC

# Note: total spin =   8.00

KPOINTS_MP_SPACING 0.07

%BLOCK SPECIES_POT
QC5
%ENDBLOCK SPECIES_POT

SNAP_TO_SYMMETRY
SYMMETRY_GENERATE

