#              Generated by Buildcell
#
# at 03:14:36 (GMT+1.0) 4th August 2020
# in /lustre/scratch/uccabz1/launch_tmp
# on node-c12k-030
# by uccabz1
#
# compiler GCC version 4.9.2
# options -cpp -iprefix /lustre/shared/ucl/apps/gcc/4.9.2/bin/../lib/gcc/x86_64-unknown-linux-gnu/4.9.2/ -mtune=corei7 -march=x86-64 -g -Og
#
# seed  2096561122  1819382748 -1880508412 -1227075581 -1183497577   541054177   376018755  1878192721   734433835 -1549226726  2027923123  -500026869
#
#      Author: C. J. Pickard (cjp20@cam.ac.uk)
#                Space group: Cc
#

%BLOCK LATTICE_ABC
      5.36303      5.36303      7.33343
     80.32446     80.32446     76.06183
%ENDBLOCK LATTICE_ABC

%BLOCK POSITIONS_FRAC
  Li  -0.4228617  -0.1443434  -0.0113681 SPIN=   0.00000
  Li   0.3556566   0.0771383   0.4886319 SPIN=   0.00000
  Fe  -0.1497187   0.0500418   0.2339218 SPIN=   4.00000
  Fe  -0.4499582   0.3502813  -0.2660782 SPIN=   4.00000
   O   0.2456361  -0.2565069  -0.3696264 SPIN=   0.00000
   O   0.0343273  -0.6277462  -0.3329326 SPIN=   0.00000
   O  -0.0370597  -0.2780877  -0.5981756 SPIN=   0.00000
   O  -0.2285701  -0.1934252  -0.2771581 SPIN=   0.00000
   S   0.0035834  -0.3389415  -0.3944732 SPIN=   0.00000
   O   0.2434931  -0.2543639   0.1303736 SPIN=   0.00000
   O  -0.1277462  -0.4656727   0.1670674 SPIN=   0.00000
   O   0.2219123  -0.5370597  -0.0981756 SPIN=   0.00000
   O   0.3065748  -0.7285701   0.2228419 SPIN=   0.00000
   S   0.1610585  -0.4964166   0.1055268 SPIN=   0.00000
   F  -0.3705846   0.2873142   0.4362773 SPIN=   0.00000
   F  -0.2126858   0.1294154  -0.0637227 SPIN=   0.00000
%ENDBLOCK POSITIONS_FRAC

# Note: total spin =   8.00

KPOINTS_MP_SPACING 0.07

%BLOCK SPECIES_POT
QC5
%ENDBLOCK SPECIES_POT

SNAP_TO_SYMMETRY
SYMMETRY_GENERATE

