#              Generated by Buildcell
#
# at 03:20:17 (GMT+1.0) 4th August 2020
# in /lustre/scratch/uccabz1/launch_tmp
# on node-c12l-032
# by uccabz1
#
# compiler GCC version 4.9.2
# options -cpp -iprefix /lustre/shared/ucl/apps/gcc/4.9.2/bin/../lib/gcc/x86_64-unknown-linux-gnu/4.9.2/ -mtune=corei7 -march=x86-64 -g -Og
#
# seed  1654793952   299699075   293513220  1957955401 -1496601922  -651249615  -997772844 -1720668335 -2015458346 -1053238914 -1453098258 -2099349324
#
#      Author: C. J. Pickard (cjp20@cam.ac.uk)
#                Space group: P2
#

%BLOCK LATTICE_ABC
      3.80435      6.91811      7.60677
     90.00000     92.57372     90.00000
%ENDBLOCK LATTICE_ABC

%BLOCK POSITIONS_FRAC
  Li   0.0000000  -0.1592587   0.5000000 SPIN=   0.00000
  Li   0.0000000  -0.0182175  -0.0000000 SPIN=   0.00000
  Fe   0.0000000  -0.4317958  -0.0000000 SPIN=   7.57827
  Fe   0.0000000   0.4175707  -0.5000000 SPIN=   0.42173
   O  -0.2972025  -0.0687613  -0.2958714 SPIN=   0.00000
   O  -0.8308826   0.1226386  -0.3746132 SPIN=   0.00000
   O  -0.2853086   0.2875498  -0.2671832 SPIN=   0.00000
   S  -0.5096722   0.1080885  -0.2500756 SPIN=   0.00000
   O   0.2972025  -0.0687613   0.2958714 SPIN=   0.00000
   O   0.8308826   0.1226386   0.3746132 SPIN=   0.00000
   O   0.2853086   0.2875498   0.2671832 SPIN=   0.00000
   S   0.5096722   0.1080885   0.2500756 SPIN=   0.00000
   O   0.5000000  -0.3470856   0.5000000 SPIN=   0.00000
   O  -0.0000000   0.2684319   0.0000000 SPIN=   0.00000
   F  -0.0645705  -0.3904612   0.2495556 SPIN=   0.00000
   F   0.0645705  -0.3904612  -0.2495556 SPIN=   0.00000
%ENDBLOCK POSITIONS_FRAC

# Note: total spin =   8.00

KPOINTS_MP_SPACING 0.07

%BLOCK SPECIES_POT
QC5
%ENDBLOCK SPECIES_POT

SNAP_TO_SYMMETRY
SYMMETRY_GENERATE

