#              Generated by Buildcell
#
# at 00:15:58 (GMT+1.0) 19th August 2020
# in /lustre/scratch/uccabz1/launch_tmp
# on node-c12m-028
# by uccabz1
#
# compiler GCC version 4.9.2
# options -cpp -iprefix /lustre/shared/ucl/apps/gcc/4.9.2/bin/../lib/gcc/x86_64-unknown-linux-gnu/4.9.2/ -mtune=corei7 -march=x86-64 -g -Og
#
# seed   355709812  1099314368 -1562485074  2032996119  -452197344   158428275  1298570127  -409150327 -1345060112  -987220567  -161829292 -1682404240
#
#      Author: C. J. Pickard (cjp20@cam.ac.uk)
#                Space group: P-1
#

%BLOCK LATTICE_ABC
      4.64340      6.01124      7.46974
    102.24420     98.84388     94.49674
%ENDBLOCK LATTICE_ABC

%BLOCK POSITIONS_FRAC
  Li   0.7082894   0.2210388   0.4037741 SPIN=   0.00000
  Li  -0.7082894  -0.2210388  -0.4037741 SPIN=   0.00000
  Fe   0.2225468   0.3033940   0.1179201 SPIN=   4.00000
  Fe  -0.2225468  -0.3033940  -0.1179201 SPIN=   4.00000
   O   0.2260114   0.0953571  -0.4185902 SPIN=   0.00000
   O   0.4546340   0.4189347  -0.1584539 SPIN=   0.00000
   O  -0.0862149   0.3401032  -0.2409549 SPIN=   0.00000
   S   0.1978857   0.3372326  -0.3173322 SPIN=   0.00000
   O  -0.2260114  -0.0953571   0.4185902 SPIN=   0.00000
   O  -0.4546340  -0.4189347   0.1584539 SPIN=   0.00000
   O   0.0862149  -0.3401032   0.2409549 SPIN=   0.00000
   S  -0.1978857  -0.3372326   0.3173322 SPIN=   0.00000
   O   1.0000000   0.5000000   0.5000000 SPIN=   0.00000
   O   0.5000000   0.5000000   0.5000000 SPIN=   0.00000
   F  -0.3054300  -0.0735538  -0.2481959 SPIN=   0.00000
   F   0.3054300   0.0735538   0.2481959 SPIN=   0.00000
%ENDBLOCK POSITIONS_FRAC

# Note: total spin =   8.00

KPOINTS_MP_SPACING 0.07

%BLOCK SPECIES_POT
QC5
%ENDBLOCK SPECIES_POT

SNAP_TO_SYMMETRY
SYMMETRY_GENERATE

