#              Generated by Buildcell
#
# at 02:26:42 (GMT+1.0) 19th August 2020
# in /lustre/scratch/uccabz1/launch_tmp
# on node-c12d-004
# by uccabz1
#
# compiler GCC version 4.9.2
# options -cpp -iprefix /lustre/shared/ucl/apps/gcc/4.9.2/bin/../lib/gcc/x86_64-unknown-linux-gnu/4.9.2/ -mtune=corei7 -march=x86-64 -g -Og
#
# seed   365517726   865884422  -876941747   247760982  -269467239  1322777045  1920825152 -1297198016 -1013048197  -762633790 -2115395522  1920991153
#
#      Author: C. J. Pickard (cjp20@cam.ac.uk)
#                Space group: P-1
#

%BLOCK LATTICE_ABC
      3.86412      3.95410     13.17962
     91.38942     96.52419     90.41469
%ENDBLOCK LATTICE_ABC

%BLOCK POSITIONS_FRAC
  Li   0.2832981   0.2550544   0.0821306 SPIN=   0.00000
  Li  -0.2832981  -0.2550544  -0.0821306 SPIN=   0.00000
  Fe  -0.1742288  -0.2401178   0.1829601 SPIN=   4.00000
  Fe   0.1742288   0.2401178  -0.1829601 SPIN=   4.00000
   O  -0.4053144   0.2481148   0.4801356 SPIN=   0.00000
   O  -0.4737452   0.4234791   0.3000322 SPIN=   0.00000
   O  -0.1764374  -0.1118875   0.3472529 SPIN=   0.00000
   O   0.1090679   0.4369549   0.3997817 SPIN=   0.00000
   S  -0.2366073   0.2491654   0.3818006 SPIN=   0.00000
   O   0.4053144  -0.2481148  -0.4801356 SPIN=   0.00000
   O   0.4737452  -0.4234791  -0.3000322 SPIN=   0.00000
   O   0.1764374   0.1118875  -0.3472529 SPIN=   0.00000
   O  -0.1090679  -0.4369549  -0.3997817 SPIN=   0.00000
   S   0.2366073  -0.2491654  -0.3818006 SPIN=   0.00000
   F   0.2096714  -0.2586609  -0.1002804 SPIN=   0.00000
   F  -0.2096714   0.2586609   0.1002804 SPIN=   0.00000
%ENDBLOCK POSITIONS_FRAC

# Note: total spin =   8.00

KPOINTS_MP_SPACING 0.07

%BLOCK SPECIES_POT
QC5
%ENDBLOCK SPECIES_POT

SNAP_TO_SYMMETRY
SYMMETRY_GENERATE

