#              Generated by Buildcell
#
# at 04:04:14 (GMT+1.0) 4th August 2020
# in /lustre/scratch/uccabz1/launch_tmp
# on node-c12p-022
# by uccabz1
#
# compiler GCC version 4.9.2
# options -cpp -iprefix /lustre/shared/ucl/apps/gcc/4.9.2/bin/../lib/gcc/x86_64-unknown-linux-gnu/4.9.2/ -mtune=corei7 -march=x86-64 -g -Og
#
# seed   268572631  1292261680  2055918263   261264192 -1035308719   886257602  -611093084 -1526935629  -826780471  1767301352  -635592209 -1357738318
#
#      Author: C. J. Pickard (cjp20@cam.ac.uk)
#                Space group: C2
#

%BLOCK LATTICE_ABC
      4.66270      6.27222      7.86413
    113.25682    107.24472     90.00000
%ENDBLOCK LATTICE_ABC

%BLOCK POSITIONS_FRAC
  Li   0.3751343  -0.2331042  -0.4639182 SPIN=   0.00000
  Li  -0.1609475   0.2331042   0.4639182 SPIN=   0.00000
  Fe   0.1525508   0.2937638   0.2005627 SPIN=   4.00000
  Fe  -0.0480119  -0.2937638  -0.2005627 SPIN=   4.00000
   O   0.0089362  -0.0705964   0.4565329 SPIN=   0.00000
   O  -0.1061036  -0.4498051   0.1671830 SPIN=   0.00000
   O   0.2373781  -0.1264358   0.1976420 SPIN=   0.00000
   O  -0.3112240  -0.0997575   0.1327173 SPIN=   0.00000
   S  -0.0427533  -0.1866487   0.2385188 SPIN=   0.00000
   O  -0.4475967   0.0705964  -0.4565329 SPIN=   0.00000
   O  -0.2732866   0.4498051  -0.1671830 SPIN=   0.00000
   O   0.0397362   0.1264358  -0.1976420 SPIN=   0.00000
   O  -0.4439414   0.0997575  -0.1327173 SPIN=   0.00000
   S  -0.2812721   0.1866487  -0.2385188 SPIN=   0.00000
   F  -0.4138905   0.3482693   0.3024433 SPIN=   0.00000
   F   0.2836662  -0.3482693  -0.3024433 SPIN=   0.00000
%ENDBLOCK POSITIONS_FRAC

# Note: total spin =   8.00

KPOINTS_MP_SPACING 0.07

%BLOCK SPECIES_POT
QC5
%ENDBLOCK SPECIES_POT

SNAP_TO_SYMMETRY
SYMMETRY_GENERATE

