#              Generated by Buildcell
#
# at 04:42:17 (GMT+1.0) 4th August 2020
# in /lustre/scratch/uccabz1/launch_tmp
# on node-c12d-007
# by uccabz1
#
# compiler GCC version 4.9.2
# options -cpp -iprefix /lustre/shared/ucl/apps/gcc/4.9.2/bin/../lib/gcc/x86_64-unknown-linux-gnu/4.9.2/ -mtune=corei7 -march=x86-64 -g -Og
#
# seed -1222650650  -465596914 -1769448558 -1953899995  -287017600   -38777603 -1188160387 -1838165664  -666500587   685883647 -1916084747   831400332
#
#      Author: C. J. Pickard (cjp20@cam.ac.uk)
#                Space group: Cm
#

%BLOCK LATTICE_ABC
      5.51737      5.51737      7.17048
    105.83786    105.83786     93.21616
%ENDBLOCK LATTICE_ABC

%BLOCK POSITIONS_FRAC
  Li   0.2228038   0.2228038   0.3197712 SPIN=   0.00000
  Li  -0.3170609  -0.3170609  -0.1007772 SPIN=   0.00000
  Fe   0.1841371   0.1841371  -0.2911039 SPIN=   0.78696
  Fe  -0.3578740  -0.3578740   0.4493744 SPIN=   7.21304
   O   0.1263366  -0.1554211   0.2318232 SPIN=   0.00000
   O   0.1089664  -0.1727913  -0.1202083 SPIN=   0.00000
   O   0.1582318  -0.5600093  -0.0103830 SPIN=   0.00000
   O   0.5135546  -0.2046866   0.1219979 SPIN=   0.00000
   S   0.2267723  -0.2732271   0.0558074 SPIN=   0.00000
   O  -0.1554211   0.1263366   0.2318232 SPIN=   0.00000
   O  -0.1727913   0.1089664  -0.1202083 SPIN=   0.00000
   O  -0.5600093   0.1582318  -0.0103830 SPIN=   0.00000
   O  -0.2046866   0.5135546   0.1219979 SPIN=   0.00000
   S  -0.2732271   0.2267723   0.0558074 SPIN=   0.00000
   F   0.4712647   0.4712647  -0.3616620 SPIN=   0.00000
   F  -0.0824313  -0.0824313  -0.4811836 SPIN=   0.00000
%ENDBLOCK POSITIONS_FRAC

# Note: total spin =   8.00

KPOINTS_MP_SPACING 0.07

%BLOCK SPECIES_POT
QC5
%ENDBLOCK SPECIES_POT

SNAP_TO_SYMMETRY
SYMMETRY_GENERATE

