#              Generated by Buildcell
#
# at 00:08:50 (GMT+1.0) 19th August 2020
# in /lustre/scratch/uccabz1/launch_tmp
# on node-c12l-030
# by uccabz1
#
# compiler GCC version 4.9.2
# options -cpp -iprefix /lustre/shared/ucl/apps/gcc/4.9.2/bin/../lib/gcc/x86_64-unknown-linux-gnu/4.9.2/ -mtune=corei7 -march=x86-64 -g -Og
#
# seed   173148720  1063467035   736803308  -538876521  -380635730 -2111135641  -700991505 -1116404017  -342106068 -1535436023 -1415732315  1623227322
#
#      Author: C. J. Pickard (cjp20@cam.ac.uk)
#                Space group: Pc
#

%BLOCK LATTICE_ABC
      4.67867      6.33911      6.96066
    104.35249     90.00000     90.00000
%ENDBLOCK LATTICE_ABC

%BLOCK POSITIONS_FRAC
  Li   0.2883603   0.3930147  -0.1530585 SPIN=   0.00000
  Li  -0.2883603  -0.1069853  -0.1530585 SPIN=   0.00000
  Fe   0.2739040  -0.4125841  -0.4920103 SPIN=   4.00000
  Fe  -0.2739040   0.0874159  -0.4920103 SPIN=   4.00000
   O   0.5335826  -0.0847324   0.2562621 SPIN=   0.00000
   O   0.0081124  -0.0508123   0.2916957 SPIN=   0.00000
   O   0.2218965  -0.3911850   0.0900147 SPIN=   0.00000
   O   0.2363631  -0.0550492  -0.0299867 SPIN=   0.00000
   S   0.2499886  -0.1454447   0.1519964 SPIN=   0.00000
   O  -0.5335826   0.4152676   0.2562621 SPIN=   0.00000
   O  -0.0081124   0.4491877   0.2916957 SPIN=   0.00000
   O  -0.2218965   0.1088150   0.0900147 SPIN=   0.00000
   O  -0.2363631   0.4449508  -0.0299867 SPIN=   0.00000
   S  -0.2499886   0.3545553   0.1519964 SPIN=   0.00000
   F   0.3120881   0.1427441  -0.3528328 SPIN=   0.00000
   F  -0.3120881  -0.3572559  -0.3528328 SPIN=   0.00000
%ENDBLOCK POSITIONS_FRAC

# Note: total spin =   8.00

KPOINTS_MP_SPACING 0.07

%BLOCK SPECIES_POT
QC5
%ENDBLOCK SPECIES_POT

SNAP_TO_SYMMETRY
SYMMETRY_GENERATE

