#              Generated by Buildcell
#
# at 05:45:41 (GMT+1.0) 4th August 2020
# in /lustre/scratch/uccabz1/launch_tmp
# on node-c12e-009
# by uccabz1
#
# compiler GCC version 4.9.2
# options -cpp -iprefix /lustre/shared/ucl/apps/gcc/4.9.2/bin/../lib/gcc/x86_64-unknown-linux-gnu/4.9.2/ -mtune=corei7 -march=x86-64 -g -Og
#
# seed  1688277015   784672507 -1286596095   374315891  -496546271  1991441243   522421723    12501294 -1218373187 -1046561815  -170573058  -555697611
#
#      Author: C. J. Pickard (cjp20@cam.ac.uk)
#                Space group: P-1
#

%BLOCK LATTICE_ABC
      4.13127      6.77031      7.17312
     90.21794     94.54244     90.06527
%ENDBLOCK LATTICE_ABC

%BLOCK POSITIONS_FRAC
  Li   0.4764383   0.2167342   0.3318701 SPIN=   0.00000
  Li  -0.4764383  -0.2167342  -0.3318701 SPIN=   0.00000
  Fe   0.0000000  -0.5000000   0.5000000 SPIN=   2.95326
  Fe   0.5000000   0.5000000   0.0000000 SPIN=   5.04674
   O   0.2891213  -0.0813103   0.4179115 SPIN=   0.00000
   O  -0.0482843   0.1732137   0.2495865 SPIN=   0.00000
   O  -0.2473403  -0.1710037   0.2624095 SPIN=   0.00000
   O   0.2091243  -0.0900629   0.0723797 SPIN=   0.00000
   O  -0.2891213   0.0813103  -0.4179115 SPIN=   0.00000
   O   0.0482843  -0.1732137  -0.2495865 SPIN=   0.00000
   O   0.2473403   0.1710037  -0.2624095 SPIN=   0.00000
   O  -0.2091243   0.0900629  -0.0723797 SPIN=   0.00000
   S   0.0000000   0.0000000  -0.5000000 SPIN=   0.00000
   S   0.5000000   0.0000000   0.0000000 SPIN=   0.00000
   F   0.2452282  -0.4241271   0.2512493 SPIN=   0.00000
   F  -0.2452282   0.4241271  -0.2512493 SPIN=   0.00000
%ENDBLOCK POSITIONS_FRAC

# Note: total spin =   8.00

KPOINTS_MP_SPACING 0.07

%BLOCK SPECIES_POT
QC5
%ENDBLOCK SPECIES_POT

SNAP_TO_SYMMETRY
SYMMETRY_GENERATE

