#              Generated by Buildcell
#
# at 04:10:51 (GMT+1.0) 4th August 2020
# in /lustre/scratch/uccabz1/launch_tmp
# on node-c12k-002
# by uccabz1
#
# compiler GCC version 4.9.2
# options -cpp -iprefix /lustre/shared/ucl/apps/gcc/4.9.2/bin/../lib/gcc/x86_64-unknown-linux-gnu/4.9.2/ -mtune=corei7 -march=x86-64 -g -Og
#
# seed   461537401 -1104352071   564843259   779689048  1526947169   656923115  1588514813  -173588986 -1881283230  1453763831 -2131446380   569019371
#
#      Author: C. J. Pickard (cjp20@cam.ac.uk)
#                Space group: Pmc21
#

%BLOCK LATTICE_ABC
      5.07180      5.94434      6.63382
     90.00000     90.00000     90.00000
%ENDBLOCK LATTICE_ABC

%BLOCK POSITIONS_FRAC
  Li  -0.5000000  -0.3260930   0.2362080 SPIN=   0.00000
  Li  -0.5000000   0.3260930  -0.2637920 SPIN=   0.00000
  Fe  -0.5000000   0.1741185   0.1721284 SPIN=   4.00000
  Fe   0.5000000  -0.1741185  -0.3278716 SPIN=   4.00000
   O  -0.2243486  -0.0757507   0.1690832 SPIN=   0.00000
   O  -0.2267165   0.2720400  -0.0359914 SPIN=   0.00000
   O   0.2243486   0.0757507  -0.3309168 SPIN=   0.00000
   O   0.2267165  -0.2720400  -0.5359914 SPIN=   0.00000
   O  -0.2243486   0.0757507  -0.3309168 SPIN=   0.00000
   O  -0.2267165  -0.2720400  -0.5359914 SPIN=   0.00000
   O   0.2243486  -0.0757507   0.1690832 SPIN=   0.00000
   O   0.2267165   0.2720400  -0.0359914 SPIN=   0.00000
   S   0.0000000   0.1890709  -0.1683694 SPIN=   0.00000
   S   0.0000000  -0.1890709   0.3316306 SPIN=   0.00000
   F  -0.5000000  -0.3257710  -0.0664944 SPIN=   0.00000
   F   0.5000000   0.3257710   0.4335056 SPIN=   0.00000
%ENDBLOCK POSITIONS_FRAC

# Note: total spin =   8.00

KPOINTS_MP_SPACING 0.07

%BLOCK SPECIES_POT
QC5
%ENDBLOCK SPECIES_POT

SNAP_TO_SYMMETRY
SYMMETRY_GENERATE

