#              Generated by Buildcell
#
# at 04:36:12 (GMT+1.0) 4th August 2020
# in /lustre/scratch/uccabz1/launch_tmp
# on node-c12p-031
# by uccabz1
#
# compiler GCC version 4.9.2
# options -cpp -iprefix /lustre/shared/ucl/apps/gcc/4.9.2/bin/../lib/gcc/x86_64-unknown-linux-gnu/4.9.2/ -mtune=corei7 -march=x86-64 -g -Og
#
# seed   238783082 -1877570786   -58589242   505958900 -1055760956  -232539137 -1532472640  -974376815   697778599  1835384108 -1305361904  -421696880
#
#      Author: C. J. Pickard (cjp20@cam.ac.uk)
#                Space group: P-1
#

%BLOCK LATTICE_ABC
      3.91850      6.60084      8.32928
     71.34568     78.48622     85.69129
%ENDBLOCK LATTICE_ABC

%BLOCK POSITIONS_FRAC
  Li   0.4623896  -0.2058904   0.3948721 SPIN=   0.00000
  Li  -0.4623896   0.2058904  -0.3948721 SPIN=   0.00000
  Fe  -0.0187468   0.1591777   0.1659684 SPIN=   4.00000
  Fe   0.0187468  -0.1591777  -0.1659684 SPIN=   4.00000
   O  -0.0487694  -0.1750872   0.2746977 SPIN=   0.00000
   O   0.4613828  -0.4125561   0.2400045 SPIN=   0.00000
   O  -0.0148081  -0.3944148   0.0801572 SPIN=   0.00000
   O  -0.1124434  -0.5678184   0.3962735 SPIN=   0.00000
   S   0.0713405  -0.3874692   0.2477832 SPIN=   0.00000
   O   0.0487694   0.1750872  -0.2746977 SPIN=   0.00000
   O  -0.4613828   0.4125561  -0.2400045 SPIN=   0.00000
   O   0.0148081   0.3944148  -0.0801572 SPIN=   0.00000
   O   0.1124434   0.5678184  -0.3962735 SPIN=   0.00000
   S  -0.0713405   0.3874692  -0.2477832 SPIN=   0.00000
   F  -0.4546712  -0.1566071  -0.1676361 SPIN=   0.00000
   F   0.4546712   0.1566071   0.1676361 SPIN=   0.00000
%ENDBLOCK POSITIONS_FRAC

# Note: total spin =   8.00

KPOINTS_MP_SPACING 0.07

%BLOCK SPECIES_POT
QC5
%ENDBLOCK SPECIES_POT

SNAP_TO_SYMMETRY
SYMMETRY_GENERATE

