#              Generated by Buildcell
#
# at 18:48:07 (GMT+1.0) 18th August 2020
# in /scratch/scratch/uccabz1/launch_tmp
# on node-k10a-012
# by uccabz1
#
# compiler GCC version 4.9.2
# options -cpp -iprefix /scratch/UCL/applications/gcc/4.9.2/bin/../lib/gcc/x86_64-unknown-linux-gnu/4.9.2/ -mtune=corei7 -march=x86-64 -g -O2
#
# seed  1463958727 -1669641743  2060419435  1504772687   -86128504  -826240675  2145319579  -456580793  1333923295  1160882837  -732189197  -576618947
#
#      Author: C. J. Pickard (cjp20@cam.ac.uk)
#                Space group: Pmc21
#

%BLOCK LATTICE_ABC
      4.71180      5.96614      7.11459
     90.00000     90.00000     90.00000
%ENDBLOCK LATTICE_ABC

%BLOCK POSITIONS_FRAC
  Li   0.5000000  -0.1625168  -0.1525415 SPIN=   0.00000
  Li  -0.5000000   0.3374832   0.1525415 SPIN=   0.00000
  Fe   0.0000000  -0.4940550  -0.1474371 SPIN=   4.00000
  Fe  -0.0000000   0.0059450   0.1474371 SPIN=   4.00000
   O  -0.2486043  -0.3941372   0.2247611 SPIN=   0.00000
   O  -0.2513884  -0.2838420   0.5600937 SPIN=   0.00000
   O   0.2486043   0.1058628  -0.2247611 SPIN=   0.00000
   O   0.2513884   0.2161580  -0.5600937 SPIN=   0.00000
   O  -0.2486043   0.1058628  -0.2247611 SPIN=   0.00000
   O  -0.2513884   0.2161580  -0.5600937 SPIN=   0.00000
   O   0.2486043  -0.3941372   0.2247611 SPIN=   0.00000
   O   0.2513884  -0.2838420   0.5600937 SPIN=   0.00000
   S  -0.0000000   0.0059453  -0.3313069 SPIN=   0.00000
   S   0.0000000  -0.4940547   0.3313069 SPIN=   0.00000
   F  -0.5000000  -0.0221219   0.1928710 SPIN=   0.00000
   F  -0.5000000   0.4778781  -0.1928710 SPIN=   0.00000
%ENDBLOCK POSITIONS_FRAC

# Note: total spin =   8.00

KPOINTS_MP_SPACING 0.07

%BLOCK SPECIES_POT
QC5
%ENDBLOCK SPECIES_POT

SNAP_TO_SYMMETRY
SYMMETRY_GENERATE

