#              Generated by Buildcell
#
# at 05:26:53 (GMT+1.0) 4th August 2020
# in /lustre/scratch/uccabz1/launch_tmp
# on node-c12g-024
# by uccabz1
#
# compiler GCC version 4.9.2
# options -cpp -iprefix /lustre/shared/ucl/apps/gcc/4.9.2/bin/../lib/gcc/x86_64-unknown-linux-gnu/4.9.2/ -mtune=corei7 -march=x86-64 -g -Og
#
# seed  1088496349   637621116  -514394973  1099018583  2041669537  -577773591  -200465643 -1116865370  2055410906  -766546348 -1599136955  1239498364
#
#      Author: C. J. Pickard (cjp20@cam.ac.uk)
#                Space group: C2
#

%BLOCK LATTICE_ABC
      4.13102      6.05556      8.79254
     80.21280     76.41333     70.05651
%ENDBLOCK LATTICE_ABC

%BLOCK POSITIONS_FRAC
  Li  -0.1948001  -0.2352398  -0.3767514 SPIN=   0.00000
  Li   0.1932087   0.2352398   0.3767514 SPIN=   0.00000
  Fe  -0.0531381   0.2545686  -0.2613965 SPIN=   4.00000
  Fe  -0.0599660  -0.2545686   0.2613965 SPIN=   4.00000
   O   0.2740203  -0.1105657  -0.1032098 SPIN=   0.00000
   O  -0.1392159  -0.3047343  -0.1378673 SPIN=   0.00000
   O   0.4717679  -0.5424192  -0.1170356 SPIN=   0.00000
   O   0.3499973  -0.2693029  -0.3552476 SPIN=   0.00000
   S   0.2391424  -0.3067555  -0.1783401 SPIN=   0.00000
   O   0.0602448   0.1105657   0.1032098 SPIN=   0.00000
   O  -0.5818175   0.3047343   0.1378673 SPIN=   0.00000
   O  -0.1876869   0.5424192   0.1170356 SPIN=   0.00000
   O  -0.2745532   0.2693029   0.3552476 SPIN=   0.00000
   S  -0.2459532   0.3067555   0.1783401 SPIN=   0.00000
   F   0.4119464  -0.1516861   0.3301435 SPIN=   0.00000
   F  -0.4095962   0.1516861  -0.3301435 SPIN=   0.00000
%ENDBLOCK POSITIONS_FRAC

# Note: total spin =   8.00

KPOINTS_MP_SPACING 0.07

%BLOCK SPECIES_POT
QC5
%ENDBLOCK SPECIES_POT

SNAP_TO_SYMMETRY
SYMMETRY_GENERATE

