#              Generated by Buildcell
#
# at 01:55:41 (GMT+1.0) 4th August 2020
# in /lustre/scratch/uccabz1/launch_tmp
# on node-c12c-021
# by uccabz1
#
# compiler GCC version 4.9.2
# options -cpp -iprefix /lustre/shared/ucl/apps/gcc/4.9.2/bin/../lib/gcc/x86_64-unknown-linux-gnu/4.9.2/ -mtune=corei7 -march=x86-64 -g -Og
#
# seed -2046679417 -1607052785 -1818851645    -7408671   137686705   888978439  1954799794  1249933549 -1524670412  1805804014  1749969334  -946713778
#
#      Author: C. J. Pickard (cjp20@cam.ac.uk)
#                Space group: C2
#

%BLOCK LATTICE_ABC
      4.47442      4.47442     10.36195
     79.14557     79.14557     89.66451
%ENDBLOCK LATTICE_ABC

%BLOCK POSITIONS_FRAC
  Li  -0.4576609   0.4576609  -0.5000000 SPIN=   0.00000
  Li  -0.1555506   0.1555506   0.0000000 SPIN=   0.00000
  Fe  -0.0318792  -0.3678645  -0.3381902 SPIN=   4.00000
  Fe   0.3678645   0.0318792   0.3381902 SPIN=   4.00000
   O   0.6831184   0.2852129  -0.2256191 SPIN=   0.00000
   O   0.2494875   0.2599745  -0.3407317 SPIN=   0.00000
   O   0.2082210   0.0018489  -0.1045517 SPIN=   0.00000
   O   0.5448765  -0.1998503  -0.2846282 SPIN=   0.00000
   S   0.4214259   0.0867965  -0.2388827 SPIN=   0.00000
   O  -0.2852129  -0.6831184   0.2256191 SPIN=   0.00000
   O  -0.2599745  -0.2494875   0.3407317 SPIN=   0.00000
   O  -0.0018489  -0.2082210   0.1045517 SPIN=   0.00000
   O   0.1998503  -0.5448765   0.2846282 SPIN=   0.00000
   S  -0.0867965  -0.4214259   0.2388827 SPIN=   0.00000
   F   0.0012218  -0.0012218   0.5000000 SPIN=   0.00000
   F  -0.4818180   0.4818180  -0.0000000 SPIN=   0.00000
%ENDBLOCK POSITIONS_FRAC

# Note: total spin =   8.00

KPOINTS_MP_SPACING 0.07

%BLOCK SPECIES_POT
QC5
%ENDBLOCK SPECIES_POT

SNAP_TO_SYMMETRY
SYMMETRY_GENERATE

