#              Generated by Buildcell
#
# at 01:03:20 (GMT+1.0) 19th August 2020
# in /lustre/scratch/uccabz1/launch_tmp
# on node-c12c-009
# by uccabz1
#
# compiler GCC version 4.9.2
# options -cpp -iprefix /lustre/shared/ucl/apps/gcc/4.9.2/bin/../lib/gcc/x86_64-unknown-linux-gnu/4.9.2/ -mtune=corei7 -march=x86-64 -g -Og
#
# seed   967714629 -1843176319  -996747717 -1154336768  1599153826  1857948968   -53510206 -1403298019 -2008153586  1060487599  2138073897  1611935010
#
#      Author: C. J. Pickard (cjp20@cam.ac.uk)
#                Space group: P-1
#

%BLOCK LATTICE_ABC
      5.28622      5.89990      7.15165
     68.39426     75.75625     89.95447
%ENDBLOCK LATTICE_ABC

%BLOCK POSITIONS_FRAC
  Li   0.2084541  -0.1857066   0.3569598 SPIN=   0.00000
  Li  -0.2084541   0.1857066  -0.3569598 SPIN=   0.00000
  Fe  -0.2821157   0.1386397   0.0972371 SPIN=   4.00000
  Fe   0.2821157  -0.1386397  -0.0972371 SPIN=   4.00000
   O   0.2935078  -0.6039760   0.0503170 SPIN=   0.00000
   O  -0.0672951  -0.8771301   0.3397497 SPIN=   0.00000
   O   0.0502291  -0.4631998   0.3237665 SPIN=   0.00000
   O   0.3506065  -0.7857562   0.4074093 SPIN=   0.00000
   S   0.1567621  -0.6825156   0.2803106 SPIN=   0.00000
   O  -0.2935078   0.6039760  -0.0503170 SPIN=   0.00000
   O   0.0672951   0.8771301  -0.3397497 SPIN=   0.00000
   O  -0.0502291   0.4631998  -0.3237665 SPIN=   0.00000
   O  -0.3506065   0.7857562  -0.4074093 SPIN=   0.00000
   S  -0.1567621   0.6825156  -0.2803106 SPIN=   0.00000
   F   0.3264258   0.2086140  -0.2267093 SPIN=   0.00000
   F  -0.3264258  -0.2086140   0.2267093 SPIN=   0.00000
%ENDBLOCK POSITIONS_FRAC

# Note: total spin =   8.00

KPOINTS_MP_SPACING 0.07

%BLOCK SPECIES_POT
QC5
%ENDBLOCK SPECIES_POT

SNAP_TO_SYMMETRY
SYMMETRY_GENERATE

