#              Generated by Buildcell
#
# at 22:11:00 (GMT+1.0) 18th August 2020
# in /lustre/scratch/uccabz1/launch_tmp
# on node-c12g-036
# by uccabz1
#
# compiler GCC version 4.9.2
# options -cpp -iprefix /lustre/shared/ucl/apps/gcc/4.9.2/bin/../lib/gcc/x86_64-unknown-linux-gnu/4.9.2/ -mtune=corei7 -march=x86-64 -g -Og
#
# seed   725622176   217329280  -731860440 -1342227774  -713942747  2087099123   480454587  2037446048  -673103778 -1982282809  1445639199   698230638
#
#      Author: C. J. Pickard (cjp20@cam.ac.uk)
#                Space group: P21
#

%BLOCK LATTICE_ABC
      3.86446      6.31764      8.20349
     90.00000     90.00000     93.04155
%ENDBLOCK LATTICE_ABC

%BLOCK POSITIONS_FRAC
  Li   0.0511774  -0.1254706  -0.0117660 SPIN=   0.00000
  Li  -0.0511774   0.1254706   0.4882340 SPIN=   0.00000
  Fe  -0.4960348  -0.1638312   0.2797963 SPIN=   4.00000
  Fe   0.4960348   0.1638312  -0.2202037 SPIN=   4.00000
   O  -0.1836679  -0.5669258  -0.5490733 SPIN=   0.00000
   O  -0.1668283  -0.3816931  -0.2831371 SPIN=   0.00000
   O   0.2116364  -0.2501111  -0.5086969 SPIN=   0.00000
   O   0.3291586  -0.5867711  -0.3701096 SPIN=   0.00000
   S   0.0475747  -0.4463753  -0.4277542 SPIN=   0.00000
   O   0.1836679   0.5669258  -0.0490733 SPIN=   0.00000
   O   0.1668283   0.3816931   0.2168629 SPIN=   0.00000
   O  -0.2116364   0.2501111  -0.0086969 SPIN=   0.00000
   O  -0.3291586   0.5867711   0.1298904 SPIN=   0.00000
   S  -0.0475747   0.4463753   0.0722458 SPIN=   0.00000
   F   0.0391344   0.0332625  -0.2340426 SPIN=   0.00000
   F  -0.0391344  -0.0332625   0.2659574 SPIN=   0.00000
%ENDBLOCK POSITIONS_FRAC

# Note: total spin =   8.00

KPOINTS_MP_SPACING 0.07

%BLOCK SPECIES_POT
QC5
%ENDBLOCK SPECIES_POT

SNAP_TO_SYMMETRY
SYMMETRY_GENERATE

