#              Generated by Buildcell
#
# at 23:06:29 (GMT+1.0) 18th August 2020
# in /lustre/scratch/uccabz1/launch_tmp
# on node-c12g-028
# by uccabz1
#
# compiler GCC version 4.9.2
# options -cpp -iprefix /lustre/shared/ucl/apps/gcc/4.9.2/bin/../lib/gcc/x86_64-unknown-linux-gnu/4.9.2/ -mtune=corei7 -march=x86-64 -g -Og
#
# seed   619938239  1022270362  1220580916 -1805694386   390980139 -1391121234  1277278465  -588433473  -275942999  -105497298 -1450130830  2023163015
#
#      Author: C. J. Pickard (cjp20@cam.ac.uk)
#                Space group: P-1
#

%BLOCK LATTICE_ABC
      5.49898      6.16657      6.57750
    101.03818     96.14371    111.37963
%ENDBLOCK LATTICE_ABC

%BLOCK POSITIONS_FRAC
  Li   0.3180520  -0.1262684   0.2020686 SPIN=   0.00000
  Li  -0.3180520   0.1262684  -0.2020686 SPIN=   0.00000
  Fe   0.1729695   0.3718422   0.3075439 SPIN=   4.00000
  Fe  -0.1729695  -0.3718422  -0.3075439 SPIN=   4.00000
   O   0.1665530  -0.0331705  -0.1804147 SPIN=   0.00000
   O  -0.0170328   0.1941791  -0.3781320 SPIN=   0.00000
   O   0.4701820   0.3341593  -0.2632213 SPIN=   0.00000
   O   0.1883179   0.3659767   0.0008384 SPIN=   0.00000
   S   0.2020050   0.2152861  -0.2052324 SPIN=   0.00000
   O  -0.1665530   0.0331705   0.1804147 SPIN=   0.00000
   O   0.0170328  -0.1941791   0.3781320 SPIN=   0.00000
   O  -0.4701820  -0.3341593   0.2632213 SPIN=   0.00000
   O  -0.1883179  -0.3659767  -0.0008384 SPIN=   0.00000
   S  -0.2020050  -0.2152861   0.2052324 SPIN=   0.00000
   F  -0.4813169  -0.2055706  -0.3122719 SPIN=   0.00000
   F   0.4813169   0.2055706   0.3122719 SPIN=   0.00000
%ENDBLOCK POSITIONS_FRAC

# Note: total spin =   8.00

KPOINTS_MP_SPACING 0.07

%BLOCK SPECIES_POT
QC5
%ENDBLOCK SPECIES_POT

SNAP_TO_SYMMETRY
SYMMETRY_GENERATE

