#              Generated by Buildcell
#
# at 02:26:20 (GMT+1.0) 19th August 2020
# in /lustre/scratch/uccabz1/launch_tmp
# on node-c12h-021
# by uccabz1
#
# compiler GCC version 4.9.2
# options -cpp -iprefix /lustre/shared/ucl/apps/gcc/4.9.2/bin/../lib/gcc/x86_64-unknown-linux-gnu/4.9.2/ -mtune=corei7 -march=x86-64 -g -Og
#
# seed  -199626695  1707349351  -820167274  1913505976   568695068  1185819093   988113737  -881695203  1620262759  1065735073  -278342051 -1452699755
#
#      Author: C. J. Pickard (cjp20@cam.ac.uk)
#                Space group: Pc
#

%BLOCK LATTICE_ABC
      4.45816      5.87153      7.67864
     90.00000     90.00000     95.71087
%ENDBLOCK LATTICE_ABC

%BLOCK POSITIONS_FRAC
  Li   0.0639896  -0.3794336   0.0809034 SPIN=   0.00000
  Li  -0.4360104   0.1205664  -0.0809034 SPIN=   0.00000
  Fe  -0.3491979  -0.3509458  -0.2334091 SPIN=   4.00000
  Fe   0.1508021   0.1490542   0.2334091 SPIN=   4.00000
   O  -0.4247615   0.1397602  -0.3479044 SPIN=   0.00000
   O   0.0213494   0.0241075  -0.5041628 SPIN=   0.00000
   O   0.0473634   0.0974558  -0.1868677 SPIN=   0.00000
   O   0.0216177   0.4195190  -0.3924823 SPIN=   0.00000
   S  -0.0836077   0.1702106  -0.3578543 SPIN=   0.00000
   O   0.0752385  -0.3602398   0.3479044 SPIN=   0.00000
   O   0.5213494  -0.4758925   0.5041628 SPIN=   0.00000
   O   0.5473634  -0.4025442   0.1868677 SPIN=   0.00000
   O   0.5216177  -0.0804810   0.3924823 SPIN=   0.00000
   S   0.4163923  -0.3297894   0.3578543 SPIN=   0.00000
   F  -0.2382430   0.1930582   0.1247104 SPIN=   0.00000
   F   0.2617570  -0.3069418  -0.1247104 SPIN=   0.00000
%ENDBLOCK POSITIONS_FRAC

# Note: total spin =   8.00

KPOINTS_MP_SPACING 0.07

%BLOCK SPECIES_POT
QC5
%ENDBLOCK SPECIES_POT

SNAP_TO_SYMMETRY
SYMMETRY_GENERATE

