#              Generated by Buildcell
#
# at 05:06:33 (GMT+1.0) 4th August 2020
# in /lustre/scratch/uccabz1/launch_tmp
# on node-c12k-029
# by uccabz1
#
# compiler GCC version 4.9.2
# options -cpp -iprefix /lustre/shared/ucl/apps/gcc/4.9.2/bin/../lib/gcc/x86_64-unknown-linux-gnu/4.9.2/ -mtune=corei7 -march=x86-64 -g -Og
#
# seed -1275651800   512421786  -379160980 -1338138952  1240384885 -1413356987   254147996  -429943907   676711621 -1710891402   921325502 -1628017016
#
#      Author: C. J. Pickard (cjp20@cam.ac.uk)
#                Space group: Pma2
#

%BLOCK LATTICE_ABC
      4.45180      4.68936      9.58034
     90.00000     90.00000     90.00000
%ENDBLOCK LATTICE_ABC

%BLOCK POSITIONS_FRAC
  Li  -0.2171746   0.4620851  -0.2500000 SPIN=   0.00000
  Li  -0.2171746  -0.4620851   0.2500000 SPIN=   0.00000
  Fe   0.2862489   0.0128985  -0.2500000 SPIN=   4.00000
  Fe   0.2862489  -0.0128985   0.2500000 SPIN=   4.00000
   O  -0.0720274  -0.2517808   0.0045761 SPIN=   0.00000
   O  -0.5582044  -0.3918823   0.1094206 SPIN=   0.00000
   O  -0.0720274   0.2517808  -0.0045761 SPIN=   0.00000
   O  -0.5582044   0.3918823  -0.1094206 SPIN=   0.00000
   O  -0.0720274   0.2517808  -0.4954239 SPIN=   0.00000
   O  -0.5582044   0.3918823  -0.3905794 SPIN=   0.00000
   O  -0.0720274  -0.2517808   0.4954239 SPIN=   0.00000
   O  -0.5582044  -0.3918823   0.3905794 SPIN=   0.00000
   S   0.1431118  -0.5000000   0.0000000 SPIN=   0.00000
   S   0.1431118   0.5000000   0.5000000 SPIN=   0.00000
   F  -0.2324743  -0.0097097  -0.2500000 SPIN=   0.00000
   F  -0.2324743   0.0097097   0.2500000 SPIN=   0.00000
%ENDBLOCK POSITIONS_FRAC

# Note: total spin =   8.00

KPOINTS_MP_SPACING 0.07

%BLOCK SPECIES_POT
QC5
%ENDBLOCK SPECIES_POT

SNAP_TO_SYMMETRY
SYMMETRY_GENERATE

