#              Generated by Buildcell
#
# at 00:12:59 (GMT+1.0) 19th August 2020
# in /lustre/scratch/uccabz1/launch_tmp
# on node-c12p-018
# by uccabz1
#
# compiler GCC version 4.9.2
# options -cpp -iprefix /lustre/shared/ucl/apps/gcc/4.9.2/bin/../lib/gcc/x86_64-unknown-linux-gnu/4.9.2/ -mtune=corei7 -march=x86-64 -g -Og
#
# seed  1877558590  1486247830  1741562633  -955602032   -91535285  -118911838 -1855173023  1261944916 -1944700099  1821569044   603637045   236826266
#
#      Author: C. J. Pickard (cjp20@cam.ac.uk)
#                Space group: P2
#

%BLOCK LATTICE_ABC
      4.73307      6.14217      6.87963
     90.00000     90.00000     90.04728
%ENDBLOCK LATTICE_ABC

%BLOCK POSITIONS_FRAC
  Li  -0.5000000   0.0000000  -0.3648914 SPIN=   0.00000
  Li   0.0000000  -0.5000000   0.0687909 SPIN=   0.00000
  Fe  -0.5000000  -0.5000000  -0.2389312 SPIN=   6.22857
  Fe   0.0000000   0.0000000  -0.0723102 SPIN=   1.77143
   O   0.4668501   0.3101476   0.5066162 SPIN=   0.00000
   O   0.2484302   0.0044089   0.3266458 SPIN=   0.00000
   O   0.3350525   0.3557921   0.1608942 SPIN=   0.00000
   S   0.2532808   0.2495377   0.3516146 SPIN=   0.00000
   O  -0.4668501  -0.3101476   0.5066162 SPIN=   0.00000
   O  -0.2484302  -0.0044089   0.3266458 SPIN=   0.00000
   O  -0.3350525  -0.3557921   0.1608942 SPIN=   0.00000
   S  -0.2532808  -0.2495377   0.3516146 SPIN=   0.00000
   O   0.0000000  -0.0000000  -0.3716046 SPIN=   0.00000
   O   1.0000000   0.5000000   0.4012145 SPIN=   0.00000
   F   0.0000000  -0.5000000  -0.1929810 SPIN=   0.00000
   F   0.5000000   0.0000000  -0.1038464 SPIN=   0.00000
%ENDBLOCK POSITIONS_FRAC

# Note: total spin =   8.00

KPOINTS_MP_SPACING 0.07

%BLOCK SPECIES_POT
QC5
%ENDBLOCK SPECIES_POT

SNAP_TO_SYMMETRY
SYMMETRY_GENERATE

