#              Generated by Buildcell
#
# at 04:45:20 (GMT+1.0) 4th August 2020
# in /lustre/scratch/uccabz1/launch_tmp
# on node-c12g-019
# by uccabz1
#
# compiler GCC version 4.9.2
# options -cpp -iprefix /lustre/shared/ucl/apps/gcc/4.9.2/bin/../lib/gcc/x86_64-unknown-linux-gnu/4.9.2/ -mtune=corei7 -march=x86-64 -g -Og
#
# seed  -153328278 -1551580117 -1863877141  -531543612  -726604079  -942672468  -717957559   288752095 -1525020265   385540469 -1675948224 -1867841853
#
#      Author: C. J. Pickard (cjp20@cam.ac.uk)
#                Space group: P2/c
#

%BLOCK LATTICE_ABC
      3.87168      6.09935      8.65618
     90.00000     90.00000    101.92750
%ENDBLOCK LATTICE_ABC

%BLOCK POSITIONS_FRAC
  Li  -0.2500000  -0.2500000  -0.1007544 SPIN=   0.00000
  Li   0.2500000   0.2500000   0.1007544 SPIN=   0.00000
  Fe  -0.2500000   0.2500000  -0.3005454 SPIN=   4.00000
  Fe   0.2500000  -0.2500000   0.3005454 SPIN=   4.00000
   O   0.4179686   0.4951052  -0.3414717 SPIN=   0.00000
   O   0.0304335   0.3433600  -0.5603941 SPIN=   0.00000
   O   0.0820314   0.0048948  -0.3414717 SPIN=   0.00000
   O   0.4695665   0.1566400  -0.5603941 SPIN=   0.00000
   O  -0.4179686  -0.4951052   0.3414717 SPIN=   0.00000
   O  -0.0304335  -0.3433600   0.5603941 SPIN=   0.00000
   O  -0.0820314  -0.0048948   0.3414717 SPIN=   0.00000
   O  -0.4695665  -0.1566400   0.5603941 SPIN=   0.00000
   S   0.7500000   0.2500000   0.3226159 SPIN=   0.00000
   S  -0.7500000  -0.2500000  -0.3226159 SPIN=   0.00000
   F   0.2500000  -0.2500000   0.0912376 SPIN=   0.00000
   F   0.7500000   0.2500000  -0.0912376 SPIN=   0.00000
%ENDBLOCK POSITIONS_FRAC

# Note: total spin =   8.00

KPOINTS_MP_SPACING 0.07

%BLOCK SPECIES_POT
QC5
%ENDBLOCK SPECIES_POT

SNAP_TO_SYMMETRY
SYMMETRY_GENERATE

