#              Generated by Buildcell
#
# at 23:24:37 (GMT+1.0) 18th August 2020
# in /lustre/scratch/uccabz1/launch_tmp
# on node-c12i-026
# by uccabz1
#
# compiler GCC version 4.9.2
# options -cpp -iprefix /lustre/shared/ucl/apps/gcc/4.9.2/bin/../lib/gcc/x86_64-unknown-linux-gnu/4.9.2/ -mtune=corei7 -march=x86-64 -g -Og
#
# seed   972865391  -431993249 -1369413944   576883967  -733277956  -420961777  2130111304  1098887199   730987698  1939372294   775966670   402365950
#
#      Author: C. J. Pickard (cjp20@cam.ac.uk)
#                Space group: Fmm2
#

%BLOCK LATTICE_ABC
      6.27322      6.27322      6.49320
    109.89272    109.89272    107.19452
%ENDBLOCK LATTICE_ABC

%BLOCK POSITIONS_FRAC
  Li   0.0897552  -0.3551079  -0.2653527 SPIN=   0.00000
  Li  -0.3551079   0.0897552  -0.2653527 SPIN=   0.00000
  Fe  -0.4148589   0.0851411   0.1702822 SPIN=   4.00000
  Fe   0.0851411  -0.4148589   0.1702822 SPIN=   4.00000
   O   0.4334824  -0.3408419   0.4014084 SPIN=   0.00000
   O   0.1996036  -0.5751035  -0.0637945 SPIN=   0.00000
   O  -0.0320739  -0.2577497  -0.5985916 SPIN=   0.00000
   O  -0.2633982  -0.4886910  -1.0637945 SPIN=   0.00000
   O  -0.2577497  -0.0320739  -0.5985916 SPIN=   0.00000
   O  -0.4886910  -0.2633982  -1.0637945 SPIN=   0.00000
   O  -0.3408419   0.4334824   0.4014084 SPIN=   0.00000
   O  -0.5751035   0.1996036  -0.0637945 SPIN=   0.00000
   S   0.3438575   0.3438575   0.6877150 SPIN=   0.00000
   S  -0.2906377  -0.2906377  -0.5812754 SPIN=   0.00000
   F  -0.1083511   0.2722598   0.1639088 SPIN=   0.00000
   F   0.2722598  -0.1083511   0.1639088 SPIN=   0.00000
%ENDBLOCK POSITIONS_FRAC

# Note: total spin =   8.00

KPOINTS_MP_SPACING 0.07

%BLOCK SPECIES_POT
QC5
%ENDBLOCK SPECIES_POT

SNAP_TO_SYMMETRY
SYMMETRY_GENERATE

