#              Generated by Buildcell
#
# at 04:18:17 (GMT+1.0) 4th August 2020
# in /lustre/scratch/uccabz1/launch_tmp
# on node-c12f-001
# by uccabz1
#
# compiler GCC version 4.9.2
# options -cpp -iprefix /lustre/shared/ucl/apps/gcc/4.9.2/bin/../lib/gcc/x86_64-unknown-linux-gnu/4.9.2/ -mtune=corei7 -march=x86-64 -g -Og
#
# seed  1635444445  2038813318   199840534 -1574788588  -805188623  -438098489  -839443556 -2022296327  -932941042  1802392246 -1608345475  -803924483
#
#      Author: C. J. Pickard (cjp20@cam.ac.uk)
#                Space group: P2
#

%BLOCK LATTICE_ABC
      4.09809      6.76864      7.34707
    101.07742     90.00000     90.00000
%ENDBLOCK LATTICE_ABC

%BLOCK POSITIONS_FRAC
  Li   0.1862392   0.4755562  -0.2629955 SPIN=   0.00000
  Li   0.1862392  -0.4755562   0.2629955 SPIN=   0.00000
  Fe  -0.3137608   0.2314547  -0.0879713 SPIN=   4.00000
  Fe  -0.3137608  -0.2314547   0.0879713 SPIN=   4.00000
   O  -0.1566934  -0.2065892  -0.3040850 SPIN=   0.00000
   O   0.3648944  -0.2282152  -0.1392597 SPIN=   0.00000
   O   0.1700456   0.1009517  -0.1954057 SPIN=   0.00000
   O   0.3667106  -0.1575852  -0.4574998 SPIN=   0.00000
   S   0.1862393  -0.1228595  -0.2740626 SPIN=   0.00000
   O  -0.1566934   0.2065892   0.3040850 SPIN=   0.00000
   O   0.3648944   0.2282152   0.1392597 SPIN=   0.00000
   O   0.1700456  -0.1009517   0.1954057 SPIN=   0.00000
   O   0.3667106   0.1575852   0.4574998 SPIN=   0.00000
   S   0.1862393   0.1228595   0.2740626 SPIN=   0.00000
   F  -0.2276403  -0.3525825   0.3005399 SPIN=   0.00000
   F  -0.2276403   0.3525825  -0.3005399 SPIN=   0.00000
%ENDBLOCK POSITIONS_FRAC

# Note: total spin =   8.00

KPOINTS_MP_SPACING 0.07

%BLOCK SPECIES_POT
QC5
%ENDBLOCK SPECIES_POT

SNAP_TO_SYMMETRY
SYMMETRY_GENERATE

