#              Generated by Buildcell
#
# at 02:02:29 (GMT+1.0) 4th August 2020
# in /lustre/scratch/uccabz1/launch_tmp
# on node-c12k-001
# by uccabz1
#
# compiler GCC version 4.9.2
# options -cpp -iprefix /lustre/shared/ucl/apps/gcc/4.9.2/bin/../lib/gcc/x86_64-unknown-linux-gnu/4.9.2/ -mtune=corei7 -march=x86-64 -g -Og
#
# seed -1669472768  -706038136 -1102116215   984946722 -1761572861   385608746   753694670   663121480 -1846178171   295078719  -262249067  1244380428
#
#      Author: C. J. Pickard (cjp20@cam.ac.uk)
#                Space group: Cc
#

%BLOCK LATTICE_ABC
      4.17293      4.81589     11.29455
    100.92136     90.00000    115.67376
%ENDBLOCK LATTICE_ABC

%BLOCK POSITIONS_FRAC
  Li  -0.2555089   0.0932662   0.1354176 SPIN=   0.00000
  Li  -0.1512249   0.0932662  -0.3645824 SPIN=   0.00000
  Fe  -0.4501709  -0.4161366   0.2787183 SPIN=   4.00000
  Fe  -0.4659657  -0.4161366  -0.2212817 SPIN=   4.00000
   O   0.3215711  -0.1619698  -0.0694253 SPIN=   0.00000
   O   0.2390987   0.1596255   0.1157300 SPIN=   0.00000
   O  -0.0867809   0.0841556  -0.0797778 SPIN=   0.00000
   O   0.5664380   0.4162998  -0.0460411 SPIN=   0.00000
   S   0.2600817   0.1245278  -0.0198786 SPIN=   0.00000
   O   0.0164591  -0.1619698   0.4305747 SPIN=   0.00000
   O   0.4205268   0.1596255   0.6157300 SPIN=   0.00000
   O   0.6709365   0.0841556   0.4202222 SPIN=   0.00000
   O   0.3498618   0.4162998   0.4539589 SPIN=   0.00000
   S   0.3644460   0.1245278   0.4801214 SPIN=   0.00000
   F   0.1141931  -0.3759827  -0.3086722 SPIN=   0.00000
   F   0.0098242  -0.3759827   0.1913278 SPIN=   0.00000
%ENDBLOCK POSITIONS_FRAC

# Note: total spin =   8.00

KPOINTS_MP_SPACING 0.07

%BLOCK SPECIES_POT
QC5
%ENDBLOCK SPECIES_POT

SNAP_TO_SYMMETRY
SYMMETRY_GENERATE

