#              Generated by Buildcell
#
# at 02:41:39 (GMT+1.0) 19th August 2020
# in /scratch/scratch/uccabz1/launch_tmp
# on node-k10d-027
# by uccabz1
#
# compiler GCC version 4.9.2
# options -cpp -iprefix /scratch/UCL/applications/gcc/4.9.2/bin/../lib/gcc/x86_64-unknown-linux-gnu/4.9.2/ -mtune=corei7 -march=x86-64 -g -O2
#
# seed  1083816936  2046795000  -864859942  1048345692  1782485477   579622284   720652799  -865467153  1286492938 -1752584707 -2100457689 -1854203456
#
#      Author: C. J. Pickard (cjp20@cam.ac.uk)
#                Space group: P-1
#

%BLOCK LATTICE_ABC
      5.15485      6.70801      6.74887
     82.49668     67.85367     67.72492
%ENDBLOCK LATTICE_ABC

%BLOCK POSITIONS_FRAC
  Li   0.4290248   0.3790374  -0.2116499 SPIN=   0.00000
  Li  -0.4290248  -0.3790374   0.2116499 SPIN=   0.00000
  Fe  -0.1007775  -0.1615807  -0.1394579 SPIN=   4.00000
  Fe   0.1007775   0.1615807   0.1394579 SPIN=   4.00000
   O   0.8024177  -0.4884610  -0.3431378 SPIN=   0.00000
   O   0.5240065  -0.0964139  -0.2808897 SPIN=   0.00000
   O   0.3101504  -0.3199640  -0.3880707 SPIN=   0.00000
   O   0.7533129  -0.2481975  -0.6484887 SPIN=   0.00000
   S   0.5974719  -0.2882591  -0.4151467 SPIN=   0.00000
   O  -0.8024177   0.4884610   0.3431378 SPIN=   0.00000
   O  -0.5240065   0.0964139   0.2808897 SPIN=   0.00000
   O  -0.3101504   0.3199640   0.3880707 SPIN=   0.00000
   O  -0.7533129   0.2481975   0.6484887 SPIN=   0.00000
   S  -0.5974719   0.2882591   0.4151467 SPIN=   0.00000
   F   0.2314636  -0.1435197   0.1718823 SPIN=   0.00000
   F  -0.2314636   0.1435197  -0.1718823 SPIN=   0.00000
%ENDBLOCK POSITIONS_FRAC

# Note: total spin =   8.00

KPOINTS_MP_SPACING 0.07

%BLOCK SPECIES_POT
QC5
%ENDBLOCK SPECIES_POT

SNAP_TO_SYMMETRY
SYMMETRY_GENERATE

