#              Generated by Buildcell
#
# at 02:01:14 (GMT+1.0) 19th August 2020
# in /lustre/scratch/uccabz1/launch_tmp
# on node-c12n-031
# by uccabz1
#
# compiler GCC version 4.9.2
# options -cpp -iprefix /lustre/shared/ucl/apps/gcc/4.9.2/bin/../lib/gcc/x86_64-unknown-linux-gnu/4.9.2/ -mtune=corei7 -march=x86-64 -g -Og
#
# seed   342988928  1162030590  1676306994  1889810110   787641630  -992901693   723506533  1875811851   -38491603  1092571714  -949284676  1387198954
#
#      Author: C. J. Pickard (cjp20@cam.ac.uk)
#                Space group: Pm
#

%BLOCK LATTICE_ABC
      4.51520      5.97157      7.41770
     90.00000     90.00000     90.25006
%ENDBLOCK LATTICE_ABC

%BLOCK POSITIONS_FRAC
  Li  -0.3715356  -0.4504348  -0.0000000 SPIN=   0.00000
  Li   0.1168693   0.0421376  -0.0000000 SPIN=   0.00000
  Fe   0.6184294   0.1527266  -0.2526233 SPIN=   4.00000
  Fe   0.6184294   0.1527266   0.2526233 SPIN=   4.00000
   O  -1.0237024  -0.6212243  -0.3454605 SPIN=   0.00000
   O  -0.9385865  -0.2116033  -0.3391267 SPIN=   0.00000
   O  -0.5310274  -0.4703510  -0.2621077 SPIN=   0.00000
   S  -0.8621009  -0.4323724  -0.2501479 SPIN=   0.00000
   O  -1.0237024  -0.6212243   0.3454605 SPIN=   0.00000
   O  -0.9385865  -0.2116033   0.3391267 SPIN=   0.00000
   O  -0.5310274  -0.4703510   0.2621077 SPIN=   0.00000
   S  -0.8621009  -0.4323724   0.2501479 SPIN=   0.00000
   O   0.4082979   0.2757434   0.0000000 SPIN=   0.00000
   O  -0.9272619  -0.4335350  -0.0000000 SPIN=   0.00000
   F   0.3556945   0.0959536  -0.5000000 SPIN=   0.00000
   F  -0.3568661  -0.1058232  -0.0000000 SPIN=   0.00000
%ENDBLOCK POSITIONS_FRAC

# Note: total spin =   8.00

KPOINTS_MP_SPACING 0.07

%BLOCK SPECIES_POT
QC5
%ENDBLOCK SPECIES_POT

SNAP_TO_SYMMETRY
SYMMETRY_GENERATE

