#              Generated by Buildcell
#
# at 21:50:53 (GMT+1.0) 18th August 2020
# in /lustre/scratch/uccabz1/launch_tmp
# on node-c12j-016
# by uccabz1
#
# compiler GCC version 4.9.2
# options -cpp -iprefix /lustre/shared/ucl/apps/gcc/4.9.2/bin/../lib/gcc/x86_64-unknown-linux-gnu/4.9.2/ -mtune=corei7 -march=x86-64 -g -Og
#
# seed -1819021493 -1550308651 -1074793974  2072251119 -1828039517  -449893916  1923331592  -834723571    15499794  -813864761 -1923060661   713389312
#
#      Author: C. J. Pickard (cjp20@cam.ac.uk)
#                Space group: Cm
#

%BLOCK LATTICE_ABC
      4.05953      6.53475      8.43582
    112.13368    102.92209     92.51365
%ENDBLOCK LATTICE_ABC

%BLOCK POSITIONS_FRAC
  Li   0.0235303  -0.3295623  -0.2513497 SPIN=   0.00000
  Li   0.2748800  -0.0782126   0.2513497 SPIN=   0.00000
  Fe   0.4540393  -0.1460616  -0.4141752 SPIN=   4.00000
  Fe  -0.1317855   0.2681136   0.4141752 SPIN=   4.00000
   O   0.4838273  -0.8311576  -0.3990315 SPIN=   0.00000
   O   0.2223607  -0.6154629  -0.1600389 SPIN=   0.00000
   O   0.4851085  -0.4250293  -0.3149068 SPIN=   0.00000
   S   0.5103224  -0.6088218  -0.2462486 SPIN=   0.00000
   O  -0.1171412   0.5678739   0.3990315 SPIN=   0.00000
   O  -0.6176005   0.5445760   0.1600389 SPIN=   0.00000
   O  -0.1999848   0.8898774   0.3149068 SPIN=   0.00000
   S  -0.2434290   0.6374268   0.2462486 SPIN=   0.00000
   O  -0.0525426  -0.2179050   0.0000000 SPIN=   0.00000
   O  -0.3685059   0.1607456  -0.0000000 SPIN=   0.00000
   F   0.2376366   0.2028114   0.2727687 SPIN=   0.00000
   F  -0.0351321  -0.0699573  -0.2727687 SPIN=   0.00000
%ENDBLOCK POSITIONS_FRAC

# Note: total spin =   8.00

KPOINTS_MP_SPACING 0.07

%BLOCK SPECIES_POT
QC5
%ENDBLOCK SPECIES_POT

SNAP_TO_SYMMETRY
SYMMETRY_GENERATE

