#              Generated by Buildcell
#
# at 03:33:49 (GMT+1.0) 4th August 2020
# in /lustre/scratch/uccabz1/launch_tmp
# on node-c12l-031
# by uccabz1
#
# compiler GCC version 4.9.2
# options -cpp -iprefix /lustre/shared/ucl/apps/gcc/4.9.2/bin/../lib/gcc/x86_64-unknown-linux-gnu/4.9.2/ -mtune=corei7 -march=x86-64 -g -Og
#
# seed  1870523698   154598052  1528760438 -1546997285   313607564  1821475760  1867730994  1035878075 -2081518032 -1577708975  -300416685  1999725764
#
#      Author: C. J. Pickard (cjp20@cam.ac.uk)
#                Space group: Cm
#

%BLOCK LATTICE_ABC
      4.37800      6.95294      7.71511
     63.21748     82.23188     72.54471
%ENDBLOCK LATTICE_ABC

%BLOCK POSITIONS_FRAC
  Li   0.1778508   0.2321889  -0.4061842 SPIN=   0.00000
  Li   0.1778508  -0.1739954   0.4061842 SPIN=   0.00000
  Fe  -0.4099945   0.2237132   0.2603263 SPIN=   4.00000
  Fe  -0.4099945   0.4840396  -0.2603263 SPIN=   4.00000
   O  -0.2198263   0.1297685  -0.2726835 SPIN=   0.00000
   O  -0.5416121  -0.1427217  -0.1631977 SPIN=   0.00000
   O   0.0501143  -0.2737118  -0.1630524 SPIN=   0.00000
   O  -0.2460924  -0.0587318  -0.4742524 SPIN=   0.00000
   S  -0.2393541  -0.0863492  -0.2682965 SPIN=   0.00000
   O  -0.2198263  -0.1429151   0.2726835 SPIN=   0.00000
   O  -0.5416121  -0.3059194   0.1631977 SPIN=   0.00000
   O   0.0501143  -0.4367642   0.1630524 SPIN=   0.00000
   O  -0.2460924  -0.5329842   0.4742524 SPIN=   0.00000
   S  -0.2393541  -0.3546457   0.2682965 SPIN=   0.00000
   F   0.2030353   0.4173424  -0.3006649 SPIN=   0.00000
   F   0.2030353   0.1166775   0.3006649 SPIN=   0.00000
%ENDBLOCK POSITIONS_FRAC

# Note: total spin =   8.00

KPOINTS_MP_SPACING 0.07

%BLOCK SPECIES_POT
QC5
%ENDBLOCK SPECIES_POT

SNAP_TO_SYMMETRY
SYMMETRY_GENERATE

