#              Generated by Buildcell
#
# at 22:00:25 (GMT+1.0) 18th August 2020
# in /lustre/scratch/uccabz1/launch_tmp
# on node-c12l-020
# by uccabz1
#
# compiler GCC version 4.9.2
# options -cpp -iprefix /lustre/shared/ucl/apps/gcc/4.9.2/bin/../lib/gcc/x86_64-unknown-linux-gnu/4.9.2/ -mtune=corei7 -march=x86-64 -g -Og
#
# seed   230632512  2040921059 -1138634829  1962138809  -919304667 -1674585163  1651347155 -1559117887 -1398998421 -2012673493   459262404  -263521921
#
#      Author: C. J. Pickard (cjp20@cam.ac.uk)
#                Space group: C2
#

%BLOCK LATTICE_ABC
      5.70341      5.70341      7.27235
    103.57299    112.62114    102.14065
%ENDBLOCK LATTICE_ABC

%BLOCK POSITIONS_FRAC
  Li   0.3695617  -0.0993477   0.1893441 SPIN=   0.00000
  Li  -0.2886918   0.1802176  -0.1893441 SPIN=   0.00000
  Fe   0.3617957   0.4564067   0.4421473 SPIN=   4.00000
  Fe   0.0142594  -0.0803516  -0.4421473 SPIN=   4.00000
   O   0.2244323  -0.6739733  -0.3273233 SPIN=   0.00000
   O  -0.1503858  -0.5471520  -0.2935015 SPIN=   0.00000
   O   0.2774171  -0.2152400  -0.1948818 SPIN=   0.00000
   O   0.2617927  -0.4787610   0.0291172 SPIN=   0.00000
   S   0.1533141  -0.4787816  -0.1966473 SPIN=   0.00000
   O  -0.3466501   0.5517556   0.3273233 SPIN=   0.00000
   O  -0.2536504   0.1431157   0.2935015 SPIN=   0.00000
   O  -0.0203582   0.4722989   0.1948818 SPIN=   0.00000
   O  -0.5078782   0.2326755  -0.0291172 SPIN=   0.00000
   S  -0.2821342   0.3499614   0.1966473 SPIN=   0.00000
   F  -0.2675364  -0.1349148  -0.3137731 SPIN=   0.00000
   F   0.1788582   0.0462367   0.3137731 SPIN=   0.00000
%ENDBLOCK POSITIONS_FRAC

# Note: total spin =   8.00

KPOINTS_MP_SPACING 0.07

%BLOCK SPECIES_POT
QC5
%ENDBLOCK SPECIES_POT

SNAP_TO_SYMMETRY
SYMMETRY_GENERATE

