#              Generated by Buildcell
#
# at 02:06:54 (GMT+1.0) 19th August 2020
# in /lustre/scratch/uccabz1/launch_tmp
# on node-c12d-004
# by uccabz1
#
# compiler GCC version 4.9.2
# options -cpp -iprefix /lustre/shared/ucl/apps/gcc/4.9.2/bin/../lib/gcc/x86_64-unknown-linux-gnu/4.9.2/ -mtune=corei7 -march=x86-64 -g -Og
#
# seed  -428736093 -1557360790  1980867371  -456291506 -1140611605  -644129928 -1281638508  1452730022   728827715 -1366941778 -2144694811    81425438
#
#      Author: C. J. Pickard (cjp20@cam.ac.uk)
#                Space group: Pnc2
#

%BLOCK LATTICE_ABC
      3.93474      3.95291     12.85872
     90.00000     90.00000     90.00000
%ENDBLOCK LATTICE_ABC

%BLOCK POSITIONS_FRAC
  Li   0.0000000  -0.5000000  -0.3892209 SPIN=   0.00000
  Li   0.0000000  -0.0000000   0.1107791 SPIN=   0.00000
  Fe  -0.5000000   0.5000000   0.0357267 SPIN=   4.00000
  Fe  -0.5000000  -0.0000000  -0.4642733 SPIN=   4.00000
   O   0.3192449   0.2373967   0.2990804 SPIN=   0.00000
   O  -0.1972026   0.2259394   0.4088846 SPIN=   0.00000
   O  -0.3192449  -0.2373967   0.2990804 SPIN=   0.00000
   O   0.1972026  -0.2259394   0.4088846 SPIN=   0.00000
   O   0.3192449   0.2626033  -0.2009196 SPIN=   0.00000
   O  -0.1972026   0.2740606  -0.0911154 SPIN=   0.00000
   O  -0.3192449  -0.2626033  -0.2009196 SPIN=   0.00000
   O   0.1972026  -0.2740606  -0.0911154 SPIN=   0.00000
   S   0.0000000  -0.5000000  -0.1631969 SPIN=   0.00000
   S   0.0000000  -0.0000000   0.3368031 SPIN=   0.00000
   F   0.0000000   0.5000000   0.1104189 SPIN=   0.00000
   F   0.0000000  -0.0000000  -0.3895811 SPIN=   0.00000
%ENDBLOCK POSITIONS_FRAC

# Note: total spin =   8.00

KPOINTS_MP_SPACING 0.07

%BLOCK SPECIES_POT
QC5
%ENDBLOCK SPECIES_POT

SNAP_TO_SYMMETRY
SYMMETRY_GENERATE

