#              Generated by Buildcell
#
# at 23:00:30 (GMT+1.0) 18th August 2020
# in /lustre/scratch/uccabz1/launch_tmp
# on node-c12m-034
# by uccabz1
#
# compiler GCC version 4.9.2
# options -cpp -iprefix /lustre/shared/ucl/apps/gcc/4.9.2/bin/../lib/gcc/x86_64-unknown-linux-gnu/4.9.2/ -mtune=corei7 -march=x86-64 -g -Og
#
# seed  -428410158  1089863502  1363259116   582803283 -2045674050   -31189425 -1877557747   458061951 -1308251352  1318788849   224168545  -971411293
#
#      Author: C. J. Pickard (cjp20@cam.ac.uk)
#                Space group: Cc
#

%BLOCK LATTICE_ABC
      5.35618      5.35618      8.06321
     97.95280    107.53217    109.76894
%ENDBLOCK LATTICE_ABC

%BLOCK POSITIONS_FRAC
  Li  -0.2476054  -0.0317736   0.3848447 SPIN=   0.00000
  Li   0.4166183   0.1324502  -0.1151553 SPIN=   0.00000
  Fe   0.1604805  -0.4944967  -0.2940150 SPIN=   4.00000
  Fe   0.2004817   0.0455045   0.2059850 SPIN=   4.00000
   O   0.0339626   0.4934257   0.4275420 SPIN=   0.00000
   O  -0.1852303   0.1428888   0.1334944 SPIN=   0.00000
   O  -0.0430781   0.6368693   0.1438549 SPIN=   0.00000
   O  -0.4569414   0.3940748   0.2221970 SPIN=   0.00000
   S  -0.1628218   0.4168146   0.2317721 SPIN=   0.00000
   O  -0.0658836  -0.1064205  -0.0724580 SPIN=   0.00000
   O  -0.0093944  -0.1812753  -0.3665056 SPIN=   0.00000
   O  -0.4930144  -0.3130670  -0.3561451 SPIN=   0.00000
   O  -0.1718778   0.1791384  -0.2778030 SPIN=   0.00000
   S  -0.1850426  -0.1054061  -0.2682279 SPIN=   0.00000
   F   0.3297345  -0.3605037  -0.0459771 SPIN=   0.00000
   F   0.3145266   0.1242884   0.4540229 SPIN=   0.00000
%ENDBLOCK POSITIONS_FRAC

# Note: total spin =   8.00

KPOINTS_MP_SPACING 0.07

%BLOCK SPECIES_POT
QC5
%ENDBLOCK SPECIES_POT

SNAP_TO_SYMMETRY
SYMMETRY_GENERATE

