#              Generated by Buildcell
#
# at 02:58:42 (GMT+1.0) 4th August 2020
# in /lustre/scratch/uccabz1/launch_tmp
# on node-c12n-012
# by uccabz1
#
# compiler GCC version 4.9.2
# options -cpp -iprefix /lustre/shared/ucl/apps/gcc/4.9.2/bin/../lib/gcc/x86_64-unknown-linux-gnu/4.9.2/ -mtune=corei7 -march=x86-64 -g -Og
#
# seed  1871085623  -261397341   -18238287  -595269384  1783080155  1601541654  -633879111 -1119173406   -36357888  1172447485 -1760377746    71909139
#
#      Author: C. J. Pickard (cjp20@cam.ac.uk)
#                Space group: P21
#

%BLOCK LATTICE_ABC
      4.51929      6.14963      7.40884
     90.00000     90.00000    103.75632
%ENDBLOCK LATTICE_ABC

%BLOCK POSITIONS_FRAC
  Li  -0.3668239  -0.1817405   0.2708233 SPIN=   0.00000
  Li   0.3668239   0.1817405  -0.2291767 SPIN=   0.00000
  Fe  -0.4058146  -0.2535582  -0.2666834 SPIN=   4.00000
  Fe   0.4058146   0.2535582   0.2333166 SPIN=   4.00000
   O  -0.2928808  -0.5006859   0.4185569 SPIN=   0.00000
   O   0.1795752  -0.3320477   0.2508598 SPIN=   0.00000
   O   0.1940605  -0.5887934   0.5061946 SPIN=   0.00000
   O   0.1119371  -0.2110536   0.5636313 SPIN=   0.00000
   S   0.0481730  -0.4081452   0.4348107 SPIN=   0.00000
   O   0.2928808   0.5006859  -0.0814431 SPIN=   0.00000
   O  -0.1795752   0.3320477  -0.2491402 SPIN=   0.00000
   O  -0.1940605   0.5887934   0.0061946 SPIN=   0.00000
   O  -0.1119371   0.2110536   0.0636313 SPIN=   0.00000
   S  -0.0481730   0.4081452  -0.0651893 SPIN=   0.00000
   F   0.3103167  -0.0292301  -0.0311229 SPIN=   0.00000
   F  -0.3103167   0.0292301   0.4688771 SPIN=   0.00000
%ENDBLOCK POSITIONS_FRAC

# Note: total spin =   8.00

KPOINTS_MP_SPACING 0.07

%BLOCK SPECIES_POT
QC5
%ENDBLOCK SPECIES_POT

SNAP_TO_SYMMETRY
SYMMETRY_GENERATE

