#              Generated by Buildcell
#
# at 02:47:19 (GMT+1.0) 4th August 2020
# in /lustre/scratch/uccabz1/launch_tmp
# on node-c12m-015
# by uccabz1
#
# compiler GCC version 4.9.2
# options -cpp -iprefix /lustre/shared/ucl/apps/gcc/4.9.2/bin/../lib/gcc/x86_64-unknown-linux-gnu/4.9.2/ -mtune=corei7 -march=x86-64 -g -Og
#
# seed  -427508815   838540547  -364574722 -1452911354   352083187 -1314759284   611765629  -652704734  -778750581 -1621677649  1268047933  -988502663
#
#      Author: C. J. Pickard (cjp20@cam.ac.uk)
#                Space group: C2
#

%BLOCK LATTICE_ABC
      3.88536      7.31647      7.31647
    105.69136     91.67525     91.67525
%ENDBLOCK LATTICE_ABC

%BLOCK POSITIONS_FRAC
  Li  -0.5000000   0.1212106  -0.1212106 SPIN=   0.00000
  Li  -0.5000000   0.4478323  -0.4478323 SPIN=   0.00000
  Fe   0.1824151  -0.2589632  -0.1386048 SPIN=   4.00000
  Fe  -0.1824151   0.1386048   0.2589632 SPIN=   4.00000
   O  -0.0141069   0.5811205   0.1506583 SPIN=   0.00000
   O   0.1084509   0.2450186  -0.0004816 SPIN=   0.00000
   O   0.4465282   0.4253839   0.2869334 SPIN=   0.00000
   S   0.2666577   0.4380587   0.1043949 SPIN=   0.00000
   O   0.0141069  -0.1506583  -0.5811205 SPIN=   0.00000
   O  -0.1084509   0.0004816  -0.2450186 SPIN=   0.00000
   O  -0.4465282  -0.2869334  -0.4253839 SPIN=   0.00000
   S  -0.2666577  -0.1043949  -0.4380587 SPIN=   0.00000
   O  -0.5000000   0.2844766  -0.2844766 SPIN=   0.00000
   O  -0.5000000  -0.2681903   0.2681903 SPIN=   0.00000
   F  -0.0000000   0.4395765  -0.4395765 SPIN=   0.00000
   F   0.5000000  -0.0410168   0.0410168 SPIN=   0.00000
%ENDBLOCK POSITIONS_FRAC

# Note: total spin =   8.00

KPOINTS_MP_SPACING 0.07

%BLOCK SPECIES_POT
QC5
%ENDBLOCK SPECIES_POT

SNAP_TO_SYMMETRY
SYMMETRY_GENERATE

