#              Generated by Buildcell
#
# at 04:17:13 (GMT+1.0) 4th August 2020
# in /lustre/scratch/uccabz1/launch_tmp
# on node-c12p-011
# by uccabz1
#
# compiler GCC version 4.9.2
# options -cpp -iprefix /lustre/shared/ucl/apps/gcc/4.9.2/bin/../lib/gcc/x86_64-unknown-linux-gnu/4.9.2/ -mtune=corei7 -march=x86-64 -g -Og
#
# seed  -186453794  -500780695 -1229242225   439680071   391672339   265430924  -517513147  2058640962 -1542644630   600887521 -1827314902   757517984
#
#      Author: C. J. Pickard (cjp20@cam.ac.uk)
#                Space group: Cm
#

%BLOCK LATTICE_ABC
      5.67573      5.67573      6.40959
     99.80201     99.80201     92.24165
%ENDBLOCK LATTICE_ABC

%BLOCK POSITIONS_FRAC
  Li   0.2999439  -0.2440327   0.2444599 SPIN=   0.00000
  Li  -0.2440327   0.2999439   0.2444599 SPIN=   0.00000
  Fe   0.3230428   0.3230428   0.4871951 SPIN=   1.48468
  Fe  -0.2024146  -0.2024146  -0.4761255 SPIN=   6.51532
   O   0.0180366   0.7319162  -0.0089938 SPIN=   0.00000
   O  -0.3020862   0.4117905  -0.1685869 SPIN=   0.00000
   O   0.0453531   0.3314720   0.0936866 SPIN=   0.00000
   O   0.0983588   0.3844773  -0.2712660 SPIN=   0.00000
   O   0.7319162   0.0180366  -0.0089938 SPIN=   0.00000
   O   0.4117905  -0.3020862  -0.1685869 SPIN=   0.00000
   O   0.3314720   0.0453531   0.0936866 SPIN=   0.00000
   O   0.3844773   0.0983588  -0.2712660 SPIN=   0.00000
   S  -0.3453230  -0.3453230  -0.0192134 SPIN=   0.00000
   S   0.1523567   0.1523567  -0.0518102 SPIN=   0.00000
   F  -0.3539080   0.1276779   0.4422161 SPIN=   0.00000
   F   0.1276779  -0.3539080   0.4422161 SPIN=   0.00000
%ENDBLOCK POSITIONS_FRAC

# Note: total spin =   8.00

KPOINTS_MP_SPACING 0.07

%BLOCK SPECIES_POT
QC5
%ENDBLOCK SPECIES_POT

SNAP_TO_SYMMETRY
SYMMETRY_GENERATE

