#              Generated by Buildcell
#
# at 05:03:43 (GMT+1.0) 4th August 2020
# in /lustre/scratch/uccabz1/launch_tmp
# on node-c12n-017
# by uccabz1
#
# compiler GCC version 4.9.2
# options -cpp -iprefix /lustre/shared/ucl/apps/gcc/4.9.2/bin/../lib/gcc/x86_64-unknown-linux-gnu/4.9.2/ -mtune=corei7 -march=x86-64 -g -Og
#
# seed  1732788615 -1730269312  -666891291 -1866323561  1909081689  1649558735  1439748210  1632770650   331223684    72057477  -490690961  -717286254
#
#      Author: C. J. Pickard (cjp20@cam.ac.uk)
#                Space group: P21
#

%BLOCK LATTICE_ABC
      4.09144      6.70575      7.38917
     90.00000     99.41465     90.00000
%ENDBLOCK LATTICE_ABC

%BLOCK POSITIONS_FRAC
  Li  -0.3446728  -0.3148223   0.0446070 SPIN=   0.00000
  Li   0.3446728   0.1851777  -0.0446070 SPIN=   0.00000
  Fe   0.0274718  -0.3583613  -0.2836086 SPIN=   4.00000
  Fe  -0.0274718   0.1416387   0.2836086 SPIN=   4.00000
   O   0.8626448  -0.4476222   0.3694399 SPIN=   0.00000
   O   0.3911562  -0.4628900   0.5404069 SPIN=   0.00000
   O   0.4111665  -0.6914098   0.2794417 SPIN=   0.00000
   O   0.3078778  -0.3312931   0.2232709 SPIN=   0.00000
   S   0.4932113  -0.4833038   0.3531398 SPIN=   0.00000
   O  -0.8626448   0.0523778  -0.3694399 SPIN=   0.00000
   O  -0.3911562   0.0371100  -0.5404069 SPIN=   0.00000
   O  -0.4111665  -0.1914098  -0.2794417 SPIN=   0.00000
   O  -0.3078778   0.1687069  -0.2232709 SPIN=   0.00000
   S  -0.4932113   0.0166962  -0.3531398 SPIN=   0.00000
   F   0.2243573   0.4356637  -0.1138634 SPIN=   0.00000
   F  -0.2243573  -0.0643363   0.1138634 SPIN=   0.00000
%ENDBLOCK POSITIONS_FRAC

# Note: total spin =   8.00

KPOINTS_MP_SPACING 0.07

%BLOCK SPECIES_POT
QC5
%ENDBLOCK SPECIES_POT

SNAP_TO_SYMMETRY
SYMMETRY_GENERATE

