#              Generated by Buildcell
#
# at 02:40:02 (GMT+1.0) 4th August 2020
# in /lustre/scratch/uccabz1/launch_tmp
# on node-c12g-010
# by uccabz1
#
# compiler GCC version 4.9.2
# options -cpp -iprefix /lustre/shared/ucl/apps/gcc/4.9.2/bin/../lib/gcc/x86_64-unknown-linux-gnu/4.9.2/ -mtune=corei7 -march=x86-64 -g -Og
#
# seed  1495947097 -1138875194  1951529371 -1792735049 -1783645600  -709211519    95020579 -1349958544  1870815808  2023840286 -1649510725  -648083481
#
#      Author: C. J. Pickard (cjp20@cam.ac.uk)
#                Space group: Pnc2
#

%BLOCK LATTICE_ABC
      3.96175      5.79479      8.71174
     90.00000     90.00000     90.00000
%ENDBLOCK LATTICE_ABC

%BLOCK POSITIONS_FRAC
  Li   0.0000000  -0.0000000   0.0788343 SPIN=   0.00000
  Li   0.0000000  -0.5000000  -0.4211657 SPIN=   0.00000
  Fe   0.0000000  -0.5000000   0.2385639 SPIN=   4.00000
  Fe   0.0000000  -0.0000000  -0.2614361 SPIN=   4.00000
   O   0.2497643   0.3961282  -0.0151416 SPIN=   0.00000
   O   0.4826929   0.2997037   0.2405340 SPIN=   0.00000
   O  -0.2497643  -0.3961282  -0.0151416 SPIN=   0.00000
   O  -0.4826929  -0.2997037   0.2405340 SPIN=   0.00000
   O   0.2497643   0.1038718  -0.5151416 SPIN=   0.00000
   O   0.4826929   0.2002963  -0.2594660 SPIN=   0.00000
   O  -0.2497643  -0.1038718  -0.5151416 SPIN=   0.00000
   O  -0.4826929  -0.2002963  -0.2594660 SPIN=   0.00000
   S   0.0000000  -0.5000000  -0.1204926 SPIN=   0.00000
   S   0.0000000  -0.0000000   0.3795074 SPIN=   0.00000
   F   0.5000000  -0.0000000   0.0261244 SPIN=   0.00000
   F   0.5000000  -0.5000000  -0.4738756 SPIN=   0.00000
%ENDBLOCK POSITIONS_FRAC

# Note: total spin =   8.00

KPOINTS_MP_SPACING 0.07

%BLOCK SPECIES_POT
QC5
%ENDBLOCK SPECIES_POT

SNAP_TO_SYMMETRY
SYMMETRY_GENERATE

