#              Generated by Buildcell
#
# at 03:27:30 (GMT+1.0) 4th August 2020
# in /lustre/scratch/uccabz1/launch_tmp
# on node-c12e-012
# by uccabz1
#
# compiler GCC version 4.9.2
# options -cpp -iprefix /lustre/shared/ucl/apps/gcc/4.9.2/bin/../lib/gcc/x86_64-unknown-linux-gnu/4.9.2/ -mtune=corei7 -march=x86-64 -g -Og
#
# seed  1829990971 -1398335614   243659756   242421585  -171223699  1760762130   969832413   278921499  1355387716  -415579351   879415714  1004503817
#
#      Author: C. J. Pickard (cjp20@cam.ac.uk)
#                Space group: P-1
#

%BLOCK LATTICE_ABC
      5.45973      5.46271      6.89239
     79.65882     81.49352     88.30743
%ENDBLOCK LATTICE_ABC

%BLOCK POSITIONS_FRAC
  Li   0.5000000   0.0000000   0.5000000 SPIN=   0.00000
  Li   0.0000000  -0.5000000   0.5000000 SPIN=   0.00000
  Fe   0.4457731  -0.3261796   0.2042723 SPIN=   4.00000
  Fe  -0.4457731   0.3261796  -0.2042723 SPIN=   4.00000
   O   0.2686185  -0.1994005  -0.2835975 SPIN=   0.00000
   O  -0.0361818   0.1450015  -0.2827587 SPIN=   0.00000
   O  -0.0698915  -0.2092547  -0.0005955 SPIN=   0.00000
   O  -0.1633658  -0.2691484  -0.3295023 SPIN=   0.00000
   O  -0.2686185   0.1994005   0.2835975 SPIN=   0.00000
   O   0.0361818  -0.1450015   0.2827587 SPIN=   0.00000
   O   0.0698915   0.2092547   0.0005955 SPIN=   0.00000
   O   0.1633658   0.2691484   0.3295023 SPIN=   0.00000
   S  -0.0000000   0.0000000  -0.5000000 SPIN=   0.00000
   S   0.0000000  -0.5000000  -0.0000000 SPIN=   0.00000
   F  -0.5000000   0.0000000   0.0000000 SPIN=   0.00000
   F  -0.5000000   0.5000000  -0.5000000 SPIN=   0.00000
%ENDBLOCK POSITIONS_FRAC

# Note: total spin =   8.00

KPOINTS_MP_SPACING 0.07

%BLOCK SPECIES_POT
QC5
%ENDBLOCK SPECIES_POT

SNAP_TO_SYMMETRY
SYMMETRY_GENERATE

