#              Generated by Buildcell
#
# at 01:12:52 (GMT+1.0) 19th August 2020
# in /lustre/scratch/uccabz1/launch_tmp
# on node-c12f-018
# by uccabz1
#
# compiler GCC version 4.9.2
# options -cpp -iprefix /lustre/shared/ucl/apps/gcc/4.9.2/bin/../lib/gcc/x86_64-unknown-linux-gnu/4.9.2/ -mtune=corei7 -march=x86-64 -g -Og
#
# seed  -814268732  1583823690 -1885889694   750450177 -1918819238 -1626601895   584339393  -170913097  -591268983  1458469918  -779347847  1029422919
#
#      Author: C. J. Pickard (cjp20@cam.ac.uk)
#                Space group: P21212
#

%BLOCK LATTICE_ABC
      4.00500      5.90913      8.45092
     90.00000     90.00000     90.00000
%ENDBLOCK LATTICE_ABC

%BLOCK POSITIONS_FRAC
  Li  -0.0000000  -0.0000000   0.0766681 SPIN=   0.00000
  Li  -0.5000000  -0.5000000  -0.0766681 SPIN=   0.00000
  Fe  -0.0000000  -0.5000000   0.2300214 SPIN=   4.00000
  Fe  -0.5000000   0.0000000  -0.2300214 SPIN=   4.00000
   O   0.2601226  -0.1116796   0.3054031 SPIN=   0.00000
   O  -0.2360668  -0.2908625   0.4269325 SPIN=   0.00000
   O  -0.2601226   0.1116796   0.3054031 SPIN=   0.00000
   O   0.2360668   0.2908625   0.4269325 SPIN=   0.00000
   O   0.2398774   0.3883204  -0.3054031 SPIN=   0.00000
   O   0.7360668   0.2091375  -0.4269325 SPIN=   0.00000
   O  -0.2398774  -0.3883204  -0.3054031 SPIN=   0.00000
   O  -0.7360668  -0.2091375  -0.4269325 SPIN=   0.00000
   S  -0.0000000   0.0000000   0.4126537 SPIN=   0.00000
   S  -0.5000000  -0.5000000  -0.4126537 SPIN=   0.00000
   F  -0.0000000  -0.0000000  -0.1586162 SPIN=   0.00000
   F  -0.5000000  -0.5000000   0.1586162 SPIN=   0.00000
%ENDBLOCK POSITIONS_FRAC

# Note: total spin =   8.00

KPOINTS_MP_SPACING 0.07

%BLOCK SPECIES_POT
QC5
%ENDBLOCK SPECIES_POT

SNAP_TO_SYMMETRY
SYMMETRY_GENERATE

