#              Generated by Buildcell
#
# at 20:04:50 (GMT+1.0) 18th August 2020
# in /scratch/scratch/uccabz1/launch_tmp
# on node-k10h-020
# by uccabz1
#
# compiler GCC version 4.9.2
# options -cpp -iprefix /scratch/UCL/applications/gcc/4.9.2/bin/../lib/gcc/x86_64-unknown-linux-gnu/4.9.2/ -mtune=corei7 -march=x86-64 -g -O2
#
# seed -1970517674  1179306250  1992248056  -734520431  -930191625  -853399370 -1986736270  -401832678  -789310580  -474817084  -807157696   857937226
#
#      Author: C. J. Pickard (cjp20@cam.ac.uk)
#                Space group: P21
#

%BLOCK LATTICE_ABC
      4.04518      7.08782      7.24141
     90.00000    105.57320     90.00000
%ENDBLOCK LATTICE_ABC

%BLOCK POSITIONS_FRAC
  Li   0.3801635  -0.1015783   0.1363394 SPIN=   0.00000
  Li  -0.3801635   0.3984217  -0.1363394 SPIN=   0.00000
  Fe  -0.2709615  -0.1831214  -0.1760582 SPIN=   4.00000
  Fe   0.2709615   0.3168786   0.1760582 SPIN=   4.00000
   O   0.3974294   0.3017718  -0.4338284 SPIN=   0.00000
   O  -0.1737501   0.1587607  -0.5718540 SPIN=   0.00000
   O   0.0196438   0.2300394  -0.2248767 SPIN=   0.00000
   O   0.2905562  -0.0298984  -0.3598058 SPIN=   0.00000
   S   0.1334698   0.1651684  -0.3975912 SPIN=   0.00000
   O  -0.3974294  -0.1982282   0.4338284 SPIN=   0.00000
   O   0.1737501  -0.3412393   0.5718540 SPIN=   0.00000
   O  -0.0196438  -0.2699606   0.2248767 SPIN=   0.00000
   O  -0.2905562  -0.5298984   0.3598058 SPIN=   0.00000
   S  -0.1334698  -0.3348316   0.3975912 SPIN=   0.00000
   F  -0.1801798   0.0835659   0.0666112 SPIN=   0.00000
   F   0.1801798  -0.4164341  -0.0666112 SPIN=   0.00000
%ENDBLOCK POSITIONS_FRAC

# Note: total spin =   8.00

KPOINTS_MP_SPACING 0.07

%BLOCK SPECIES_POT
QC5
%ENDBLOCK SPECIES_POT

SNAP_TO_SYMMETRY
SYMMETRY_GENERATE

