#              Generated by Buildcell
#
# at 03:17:06 (GMT+1.0) 4th August 2020
# in /lustre/scratch/uccabz1/launch_tmp
# on node-c12j-017
# by uccabz1
#
# compiler GCC version 4.9.2
# options -cpp -iprefix /lustre/shared/ucl/apps/gcc/4.9.2/bin/../lib/gcc/x86_64-unknown-linux-gnu/4.9.2/ -mtune=corei7 -march=x86-64 -g -Og
#
# seed  1910681579 -1113530375  1424404302  1431161042  1497488874   760419964   847568823  -226849190  1782908566  1792521074 -1495332290   999725131
#
#      Author: C. J. Pickard (cjp20@cam.ac.uk)
#                Space group: Pba2
#

%BLOCK LATTICE_ABC
      4.55705      6.16706      7.11652
     90.00000     90.00000     90.00000
%ENDBLOCK LATTICE_ABC

%BLOCK POSITIONS_FRAC
  Li  -0.0000000   0.0000000   0.4520223 SPIN=   0.00000
  Li   0.5000000   0.5000000   0.4520223 SPIN=   0.00000
  Fe  -0.0000000   0.0000000  -0.1299384 SPIN=   4.00000
  Fe   0.5000000   0.5000000  -0.1299384 SPIN=   4.00000
   O   0.1456143   0.3091885   0.0568038 SPIN=   0.00000
   O  -0.1595916   0.3478709   0.3424966 SPIN=   0.00000
   O  -0.1456143  -0.3091885   0.0568038 SPIN=   0.00000
   O   0.1595916  -0.3478709   0.3424966 SPIN=   0.00000
   O   0.6456143   0.1908115   0.0568038 SPIN=   0.00000
   O   0.3404084   0.1521291   0.3424966 SPIN=   0.00000
   O  -0.6456143  -0.1908115   0.0568038 SPIN=   0.00000
   O  -0.3404084  -0.1521291   0.3424966 SPIN=   0.00000
   S   0.5000000  -0.0000000   0.2149399 SPIN=   0.00000
   S  -0.0000000  -0.5000000   0.2149399 SPIN=   0.00000
   F  -0.5000000   0.0000000  -0.2845315 SPIN=   0.00000
   F  -0.0000000  -0.5000000  -0.2845315 SPIN=   0.00000
%ENDBLOCK POSITIONS_FRAC

# Note: total spin =   8.00

KPOINTS_MP_SPACING 0.07

%BLOCK SPECIES_POT
QC5
%ENDBLOCK SPECIES_POT

SNAP_TO_SYMMETRY
SYMMETRY_GENERATE

