#              Generated by Buildcell
#
# at 02:09:52 (GMT+1.0) 4th August 2020
# in /lustre/scratch/uccabz1/launch_tmp
# on node-c12d-007
# by uccabz1
#
# compiler GCC version 4.9.2
# options -cpp -iprefix /lustre/shared/ucl/apps/gcc/4.9.2/bin/../lib/gcc/x86_64-unknown-linux-gnu/4.9.2/ -mtune=corei7 -march=x86-64 -g -Og
#
# seed  1497859426   308964438 -1664065966  -651804703   402373654   601245545  1189941071    36330734  1425520876  1250351218 -1987904631  2146576837
#
#      Author: C. J. Pickard (cjp20@cam.ac.uk)
#                Space group: P2
#

%BLOCK LATTICE_ABC
      4.06515      4.19303     11.84398
     90.00000     97.83398     90.00000
%ENDBLOCK LATTICE_ABC

%BLOCK POSITIONS_FRAC
  Li  -0.3817851   0.3737878  -0.3487189 SPIN=   0.00000
  Li   0.3817851   0.3737878   0.3487189 SPIN=   0.00000
  Fe  -0.1983608   0.3229786   0.1298443 SPIN=   4.00000
  Fe   0.1983608   0.3229786  -0.1298443 SPIN=   4.00000
   O  -0.2375944  -0.0769701  -0.3375205 SPIN=   0.00000
   O   0.2484384  -0.0094898  -0.4404036 SPIN=   0.00000
   O   0.1331223  -0.5347917  -0.3589597 SPIN=   0.00000
   O   0.3304618  -0.0869565  -0.2313036 SPIN=   0.00000
   S   0.1186070  -0.1770520  -0.3420469 SPIN=   0.00000
   O   0.2375944  -0.0769701   0.3375205 SPIN=   0.00000
   O  -0.2484384  -0.0094898   0.4404036 SPIN=   0.00000
   O  -0.1331223  -0.5347917   0.3589597 SPIN=   0.00000
   O  -0.3304618  -0.0869565   0.2313036 SPIN=   0.00000
   S  -0.1186070  -0.1770520   0.3420469 SPIN=   0.00000
   F  -0.2990667   0.3610462  -0.1444045 SPIN=   0.00000
   F   0.2990667   0.3610462   0.1444045 SPIN=   0.00000
%ENDBLOCK POSITIONS_FRAC

# Note: total spin =   8.00

KPOINTS_MP_SPACING 0.07

%BLOCK SPECIES_POT
QC5
%ENDBLOCK SPECIES_POT

SNAP_TO_SYMMETRY
SYMMETRY_GENERATE

