#              Generated by Buildcell
#
# at 01:38:49 (GMT+1.0) 4th August 2020
# in /lustre/scratch/uccabz1/launch_tmp
# on node-c12h-015
# by uccabz1
#
# compiler GCC version 4.9.2
# options -cpp -iprefix /lustre/shared/ucl/apps/gcc/4.9.2/bin/../lib/gcc/x86_64-unknown-linux-gnu/4.9.2/ -mtune=corei7 -march=x86-64 -g -Og
#
# seed  1587141746  1871484863  -517396342  -139785194 -1892432015  -361050847 -1404266015  -729734358  1834899224 -1282181659 -1038084089   182345352
#
#      Author: C. J. Pickard (cjp20@cam.ac.uk)
#                Space group: P2221
#

%BLOCK LATTICE_ABC
      4.17087      6.07879      7.88835
     90.00000     90.00000     90.00000
%ENDBLOCK LATTICE_ABC

%BLOCK POSITIONS_FRAC
  Li  -0.5000000   0.3295100  -0.2500000 SPIN=   0.00000
  Li   0.5000000  -0.3295100   0.2500000 SPIN=   0.00000
  Fe   0.0000000  -0.3049123  -0.2500000 SPIN=   4.00000
  Fe  -0.0000000   0.3049123   0.2500000 SPIN=   4.00000
   O   0.2736776  -0.0348914  -0.1660947 SPIN=   0.00000
   O   0.2860482  -0.1966362  -0.4539372 SPIN=   0.00000
   O  -0.2736776   0.0348914   0.3339053 SPIN=   0.00000
   O  -0.2860482   0.1966362   0.0460628 SPIN=   0.00000
   O  -0.2736776  -0.0348914  -0.3339053 SPIN=   0.00000
   O  -0.2860482  -0.1966362  -0.0460628 SPIN=   0.00000
   O   0.2736776   0.0348914   0.1660947 SPIN=   0.00000
   O   0.2860482   0.1966362   0.4539372 SPIN=   0.00000
   S   0.4852884  -0.0000000  -0.0000000 SPIN=   0.00000
   S  -0.4852884   0.0000000  -0.5000000 SPIN=   0.00000
   F   0.0000000  -0.3782677   0.2500000 SPIN=   0.00000
   F   0.0000000   0.3782677  -0.2500000 SPIN=   0.00000
%ENDBLOCK POSITIONS_FRAC

# Note: total spin =   8.00

KPOINTS_MP_SPACING 0.07

%BLOCK SPECIES_POT
QC5
%ENDBLOCK SPECIES_POT

SNAP_TO_SYMMETRY
SYMMETRY_GENERATE

