#              Generated by Buildcell
#
# at 03:20:10 (GMT+1.0) 4th August 2020
# in /lustre/scratch/uccabz1/launch_tmp
# on node-c12p-031
# by uccabz1
#
# compiler GCC version 4.9.2
# options -cpp -iprefix /lustre/shared/ucl/apps/gcc/4.9.2/bin/../lib/gcc/x86_64-unknown-linux-gnu/4.9.2/ -mtune=corei7 -march=x86-64 -g -Og
#
# seed  1541658035   942875853  2137679591 -1919749964 -1008822198  1145746180  -274113921 -1304861026   821459921 -1339559445  1443633893   907216101
#
#      Author: C. J. Pickard (cjp20@cam.ac.uk)
#                Space group: P21
#

%BLOCK LATTICE_ABC
      4.37706      5.61378      8.36259
     90.00000     90.00000    103.26689
%ENDBLOCK LATTICE_ABC

%BLOCK POSITIONS_FRAC
  Li   0.0094340  -0.3114339   0.2352275 SPIN=   0.00000
  Li  -0.0094340   0.3114339  -0.2647725 SPIN=   0.00000
  Fe  -0.4367502   0.1433088   0.0789303 SPIN=   4.00000
  Fe   0.4367502  -0.1433088  -0.4210697 SPIN=   4.00000
   O   0.2585631   0.5120534   0.4583500 SPIN=   0.00000
   O  -0.2258403   0.3260551   0.3092171 SPIN=   0.00000
   O  -0.0477094   0.0984279   0.5305826 SPIN=   0.00000
   O   0.2497621   0.1627444   0.2764901 SPIN=   0.00000
   S   0.0586939   0.2748202   0.3936600 SPIN=   0.00000
   O  -0.2585631  -0.5120534  -0.0416500 SPIN=   0.00000
   O   0.2258403  -0.3260551  -0.1907829 SPIN=   0.00000
   O   0.0477094  -0.0984279   0.0305826 SPIN=   0.00000
   O  -0.2497621  -0.1627444  -0.2235099 SPIN=   0.00000
   S  -0.0586939  -0.2748202  -0.1063400 SPIN=   0.00000
   F   0.4943730   0.1917272  -0.2770151 SPIN=   0.00000
   F  -0.4943730  -0.1917272   0.2229849 SPIN=   0.00000
%ENDBLOCK POSITIONS_FRAC

# Note: total spin =   8.00

KPOINTS_MP_SPACING 0.07

%BLOCK SPECIES_POT
QC5
%ENDBLOCK SPECIES_POT

SNAP_TO_SYMMETRY
SYMMETRY_GENERATE

