#              Generated by Buildcell
#
# at 03:01:38 (GMT+1.0) 4th August 2020
# in /lustre/scratch/uccabz1/launch_tmp
# on node-c12e-018
# by uccabz1
#
# compiler GCC version 4.9.2
# options -cpp -iprefix /lustre/shared/ucl/apps/gcc/4.9.2/bin/../lib/gcc/x86_64-unknown-linux-gnu/4.9.2/ -mtune=corei7 -march=x86-64 -g -Og
#
# seed  1988041783  2137646429  1749103676   823071818  1562224592   346911839  1918025347   876667870 -1434705811 -1826826152   328109018  -113940344
#
#      Author: C. J. Pickard (cjp20@cam.ac.uk)
#                Space group: P21212
#

%BLOCK LATTICE_ABC
      4.01103      5.93111      8.40694
     90.00000     90.00000     90.00000
%ENDBLOCK LATTICE_ABC

%BLOCK POSITIONS_FRAC
  Li  -0.0000000   0.0000000   0.3189982 SPIN=   0.00000
  Li  -0.5000000   0.5000000  -0.3189982 SPIN=   0.00000
  Fe  -0.5000000   0.0000000  -0.4165692 SPIN=   4.00000
  Fe  -0.0000000   0.5000000   0.4165692 SPIN=   4.00000
   O  -0.2629302  -0.5973281   0.2097565 SPIN=   0.00000
   O  -0.1204525  -0.3303661  -0.0060410 SPIN=   0.00000
   O   0.2629302   0.5973281   0.2097565 SPIN=   0.00000
   O   0.1204525   0.3303661  -0.0060410 SPIN=   0.00000
   O   0.2370698   0.0973281  -0.2097565 SPIN=   0.00000
   O   0.3795475  -0.1696339   0.0060410 SPIN=   0.00000
   O  -0.2370698  -0.0973281  -0.2097565 SPIN=   0.00000
   O  -0.3795475   0.1696339   0.0060410 SPIN=   0.00000
   S  -0.0000000   0.0000000  -0.0867961 SPIN=   0.00000
   S  -0.5000000   0.5000000   0.0867961 SPIN=   0.00000
   F  -0.5000000   0.0000000   0.3227214 SPIN=   0.00000
   F  -0.0000000  -0.5000000  -0.3227214 SPIN=   0.00000
%ENDBLOCK POSITIONS_FRAC

# Note: total spin =   8.00

KPOINTS_MP_SPACING 0.07

%BLOCK SPECIES_POT
QC5
%ENDBLOCK SPECIES_POT

SNAP_TO_SYMMETRY
SYMMETRY_GENERATE

