#              Generated by Buildcell
#
# at 04:41:09 (GMT+1.0) 4th August 2020
# in /lustre/scratch/uccabz1/launch_tmp
# on node-c12h-034
# by uccabz1
#
# compiler GCC version 4.9.2
# options -cpp -iprefix /lustre/shared/ucl/apps/gcc/4.9.2/bin/../lib/gcc/x86_64-unknown-linux-gnu/4.9.2/ -mtune=corei7 -march=x86-64 -g -Og
#
# seed -1622996654    68328034  1458145424  -505044962 -1010476724 -1958370802 -1896248236  1243405030   890659993  1482451671 -1722285455 -1828962158
#
#      Author: C. J. Pickard (cjp20@cam.ac.uk)
#                Space group: Pc
#

%BLOCK LATTICE_ABC
      4.68378      5.70334      7.86148
     90.00000     90.00000    107.75707
%ENDBLOCK LATTICE_ABC

%BLOCK POSITIONS_FRAC
  Li   0.3788448   0.3028930   0.1099105 SPIN=   0.00000
  Li  -0.1211552  -0.1971070  -0.1099105 SPIN=   0.00000
  Fe   0.2025501   0.3487915  -0.2503643 SPIN=   4.00000
  Fe  -0.2974499  -0.1512085   0.2503643 SPIN=   4.00000
   O   0.2880317   0.5595747   0.2422655 SPIN=   0.00000
   O   0.0582567   0.1879094   0.4159795 SPIN=   0.00000
   O  -0.2638205   0.3783878   0.2516217 SPIN=   0.00000
   O   0.0101607   0.5904581   0.5048172 SPIN=   0.00000
   S   0.0231571   0.4290825   0.3536710 SPIN=   0.00000
   O  -0.2119683   0.0595747  -0.2422655 SPIN=   0.00000
   O  -0.4417433  -0.3120906  -0.4159795 SPIN=   0.00000
   O  -0.7638205  -0.1216122  -0.2516217 SPIN=   0.00000
   O  -0.4898393   0.0904581  -0.5048172 SPIN=   0.00000
   S  -0.4768429  -0.0709175  -0.3536710 SPIN=   0.00000
   F   0.4299741  -0.0170226   0.1181495 SPIN=   0.00000
   F  -0.0700259   0.4829774  -0.1181495 SPIN=   0.00000
%ENDBLOCK POSITIONS_FRAC

# Note: total spin =   8.00

KPOINTS_MP_SPACING 0.07

%BLOCK SPECIES_POT
QC5
%ENDBLOCK SPECIES_POT

SNAP_TO_SYMMETRY
SYMMETRY_GENERATE

