#              Generated by Buildcell
#
# at 01:14:41 (GMT+1.0) 19th August 2020
# in /scratch/scratch/uccabz1/launch_tmp
# on node-k10b-026
# by uccabz1
#
# compiler GCC version 4.9.2
# options -cpp -iprefix /scratch/UCL/applications/gcc/4.9.2/bin/../lib/gcc/x86_64-unknown-linux-gnu/4.9.2/ -mtune=corei7 -march=x86-64 -g -O2
#
# seed    91899604 -1533606889  1950172943 -1113739915  1717459036  1236150638 -1519262498   760910177  -464065916  1309671233 -1003472531  -698715736
#
#      Author: C. J. Pickard (cjp20@cam.ac.uk)
#                Space group: P21
#

%BLOCK LATTICE_ABC
      3.97301      6.02045      8.46648
     90.00000     90.00000     99.03396
%ENDBLOCK LATTICE_ABC

%BLOCK POSITIONS_FRAC
  Li   0.7014776   0.3158742  -0.2122281 SPIN=   0.00000
  Li  -0.7014776  -0.3158742   0.2877719 SPIN=   0.00000
  Fe   0.5770198   0.3077987   0.4414754 SPIN=   4.00000
  Fe  -0.5770198  -0.3077987  -0.0585246 SPIN=   4.00000
   O   0.2834425   0.0190245   0.3041304 SPIN=   0.00000
   O  -0.1408823   0.2525090   0.2155234 SPIN=   0.00000
   O  -0.2623518  -0.1614738   0.1870868 SPIN=   0.00000
   O   0.1751279   0.0617107   0.0187212 SPIN=   0.00000
   S   0.0138341   0.0429426   0.1813655 SPIN=   0.00000
   O  -0.2834425  -0.0190245  -0.1958696 SPIN=   0.00000
   O   0.1408823  -0.2525090  -0.2844766 SPIN=   0.00000
   O   0.2623518   0.1614738  -0.3129132 SPIN=   0.00000
   O  -0.1751279  -0.0617107  -0.4812788 SPIN=   0.00000
   S  -0.0138341  -0.0429426  -0.3186345 SPIN=   0.00000
   F  -0.1480473  -0.4660086  -0.0290913 SPIN=   0.00000
   F   0.1480473   0.4660086   0.4709087 SPIN=   0.00000
%ENDBLOCK POSITIONS_FRAC

# Note: total spin =   8.00

KPOINTS_MP_SPACING 0.07

%BLOCK SPECIES_POT
QC5
%ENDBLOCK SPECIES_POT

SNAP_TO_SYMMETRY
SYMMETRY_GENERATE

