#              Generated by Buildcell
#
# at 03:48:33 (GMT+1.0) 4th August 2020
# in /lustre/scratch/uccabz1/launch_tmp
# on node-c12m-019
# by uccabz1
#
# compiler GCC version 4.9.2
# options -cpp -iprefix /lustre/shared/ucl/apps/gcc/4.9.2/bin/../lib/gcc/x86_64-unknown-linux-gnu/4.9.2/ -mtune=corei7 -march=x86-64 -g -Og
#
# seed -1027903601 -1905268801    45543718   717735277 -1743250096   765009668   801771922 -1111146111  1142298428  1456918913  1799201378  1832772475
#
#      Author: C. J. Pickard (cjp20@cam.ac.uk)
#                Space group: P-1
#

%BLOCK LATTICE_ABC
      4.14683      6.54807      7.39211
     94.86488     90.04172     90.02039
%ENDBLOCK LATTICE_ABC

%BLOCK POSITIONS_FRAC
  Li   0.2730905   0.4928901  -0.2625189 SPIN=   0.00000
  Li  -0.2730905  -0.4928901   0.2625189 SPIN=   0.00000
  Fe  -0.2102287  -0.1863367  -0.3232078 SPIN=   4.00000
  Fe   0.2102287   0.1863367   0.3232078 SPIN=   4.00000
   O   0.1043303   0.1972530  -0.0305194 SPIN=   0.00000
   O  -0.2847972   0.4527712  -0.1278232 SPIN=   0.00000
   O  -0.4272026   0.2380909   0.1202216 SPIN=   0.00000
   O  -0.3911769   0.0823075  -0.1960547 SPIN=   0.00000
   S  -0.2497116   0.2426056  -0.0585439 SPIN=   0.00000
   O  -0.1043303  -0.1972530   0.0305194 SPIN=   0.00000
   O   0.2847972  -0.4527712   0.1278232 SPIN=   0.00000
   O   0.4272026  -0.2380909  -0.1202216 SPIN=   0.00000
   O   0.3911769  -0.0823075   0.1960547 SPIN=   0.00000
   S   0.2497116  -0.2426056   0.0585439 SPIN=   0.00000
   F   0.2499745   0.2566487  -0.4293441 SPIN=   0.00000
   F  -0.2499745  -0.2566487   0.4293441 SPIN=   0.00000
%ENDBLOCK POSITIONS_FRAC

# Note: total spin =   8.00

KPOINTS_MP_SPACING 0.07

%BLOCK SPECIES_POT
QC5
%ENDBLOCK SPECIES_POT

SNAP_TO_SYMMETRY
SYMMETRY_GENERATE

