#              Generated by Buildcell
#
# at 21:47:18 (GMT+1.0) 18th August 2020
# in /lustre/scratch/uccabz1/launch_tmp
# on node-c12l-017
# by uccabz1
#
# compiler GCC version 4.9.2
# options -cpp -iprefix /lustre/shared/ucl/apps/gcc/4.9.2/bin/../lib/gcc/x86_64-unknown-linux-gnu/4.9.2/ -mtune=corei7 -march=x86-64 -g -Og
#
# seed    43352175  2006594146  1589564181  1451071933   513893740   431471462   701174237   -49315220    55157106  -787945541   339912479   550702427
#
#      Author: C. J. Pickard (cjp20@cam.ac.uk)
#                Space group: Fdd2
#

%BLOCK LATTICE_ABC
      6.07251      6.07251      6.73073
    107.90259    107.90259    108.57584
%ENDBLOCK LATTICE_ABC

%BLOCK POSITIONS_FRAC
  Li   0.0203929  -0.0203929  -0.0000000 SPIN=   0.00000
  Li  -0.2296071  -0.7703929  -0.5000000 SPIN=   0.00000
  Fe  -0.3569993   0.3569993  -0.0000000 SPIN=   4.00000
  Fe   0.3930007   0.6069993   0.5000000 SPIN=   4.00000
   O   0.1246003  -0.2418175  -0.2216391 SPIN=   0.00000
   O   0.4903411  -0.3519150  -0.1263142 SPIN=   0.00000
   O   0.2418175  -0.1246003   0.2216391 SPIN=   0.00000
   O   0.3519150  -0.4903411   0.1263142 SPIN=   0.00000
   O   0.0962394   0.2298216  -0.2783609 SPIN=   0.00000
   O   0.3666553   0.0243992  -0.3736858 SPIN=   0.00000
   O  -0.2298216   0.9037606   0.2783609 SPIN=   0.00000
   O  -0.0243992   0.6333447   0.3736858 SPIN=   0.00000
   S   0.3011549  -0.3011549  -0.0000000 SPIN=   0.00000
   S   0.0511549   0.9488451   0.5000000 SPIN=   0.00000
   F  -0.1639126   0.1639126   0.0000000 SPIN=   0.00000
   F  -0.4139126   0.4139126   0.5000000 SPIN=   0.00000
%ENDBLOCK POSITIONS_FRAC

# Note: total spin =   8.00

KPOINTS_MP_SPACING 0.07

%BLOCK SPECIES_POT
QC5
%ENDBLOCK SPECIES_POT

SNAP_TO_SYMMETRY
SYMMETRY_GENERATE

