#              Generated by Buildcell
#
# at 04:45:27 (GMT+1.0) 4th August 2020
# in /lustre/scratch/uccabz1/launch_tmp
# on node-c12p-017
# by uccabz1
#
# compiler GCC version 4.9.2
# options -cpp -iprefix /lustre/shared/ucl/apps/gcc/4.9.2/bin/../lib/gcc/x86_64-unknown-linux-gnu/4.9.2/ -mtune=corei7 -march=x86-64 -g -Og
#
# seed  1888229348  -308280207  1662085487  1148679928  -463254042 -1130817182   827915401  1379800990  1793225343  -934136915  -656760936  2079381207
#
#      Author: C. J. Pickard (cjp20@cam.ac.uk)
#                Space group: P-1
#

%BLOCK LATTICE_ABC
      3.90362      5.50365      9.63230
    104.87444     90.47801     90.01800
%ENDBLOCK LATTICE_ABC

%BLOCK POSITIONS_FRAC
  Li   0.2482174  -0.2964018   0.3963552 SPIN=   0.00000
  Li  -0.2482174   0.2964018  -0.3963552 SPIN=   0.00000
  Fe   0.2562225  -0.4485175  -0.1543769 SPIN=   4.00000
  Fe  -0.2562225   0.4485175   0.1543769 SPIN=   4.00000
   O  -0.0994517   0.2940602  -0.0924448 SPIN=   0.00000
   O  -0.1149309  -0.0211375  -0.3276315 SPIN=   0.00000
   O  -0.6317428   0.0545528  -0.1755897 SPIN=   0.00000
   O  -0.1295800  -0.1593956  -0.1026980 SPIN=   0.00000
   S  -0.2439263   0.0420200  -0.1745910 SPIN=   0.00000
   O   0.0994517  -0.2940602   0.0924448 SPIN=   0.00000
   O   0.1149309   0.0211375   0.3276315 SPIN=   0.00000
   O   0.6317428  -0.0545528   0.1755897 SPIN=   0.00000
   O   0.1295800   0.1593956   0.1026980 SPIN=   0.00000
   S   0.2439263  -0.0420200   0.1745910 SPIN=   0.00000
   F   0.7473279  -0.3700343   0.3607079 SPIN=   0.00000
   F  -0.7473279   0.3700343  -0.3607079 SPIN=   0.00000
%ENDBLOCK POSITIONS_FRAC

# Note: total spin =   8.00

KPOINTS_MP_SPACING 0.07

%BLOCK SPECIES_POT
QC5
%ENDBLOCK SPECIES_POT

SNAP_TO_SYMMETRY
SYMMETRY_GENERATE

