#              Generated by Buildcell
#
# at 00:31:01 (GMT+1.0) 19th August 2020
# in /scratch/scratch/uccabz1/launch_tmp
# on node-k10d-008
# by uccabz1
#
# compiler GCC version 4.9.2
# options -cpp -iprefix /scratch/UCL/applications/gcc/4.9.2/bin/../lib/gcc/x86_64-unknown-linux-gnu/4.9.2/ -mtune=corei7 -march=x86-64 -g -O2
#
# seed  1642058603  1932746506 -2126060583 -2084505954  1115302747   368166425 -1284057510  1762077060 -1808030540 -1160610826  1411402516  1454298357
#
#      Author: C. J. Pickard (cjp20@cam.ac.uk)
#                Space group: Cc
#

%BLOCK LATTICE_ABC
      4.19380      4.50529     12.10783
     97.93746     90.00000    117.73807
%ENDBLOCK LATTICE_ABC

%BLOCK POSITIONS_FRAC
  Li   0.2104740  -0.4820991  -0.0641371 SPIN=   0.00000
  Li   0.3074269  -0.4820991   0.4358629 SPIN=   0.00000
  Fe  -0.3448053  -0.0416273  -0.2195072 SPIN=   4.00000
  Fe   0.3031780  -0.0416273   0.2804928 SPIN=   4.00000
   O  -0.6495810  -0.1023094  -0.4354872 SPIN=   0.00000
   O  -0.3738915   0.5229950  -0.3878903 SPIN=   0.00000
   O  -0.3352142   0.2598423  -0.5774086 SPIN=   0.00000
   O   0.0157211   0.2458593  -0.4156774 SPIN=   0.00000
   S  -0.3357414   0.2315968  -0.4541159 SPIN=   0.00000
   O  -0.4527284  -0.1023094   0.0645128 SPIN=   0.00000
   O  -0.1031136   0.5229950   0.1121097 SPIN=   0.00000
   O  -0.4049435   0.2598423  -0.0774086 SPIN=   0.00000
   O  -0.7698618   0.2458593   0.0843226 SPIN=   0.00000
   S  -0.4326618   0.2315968   0.0458841 SPIN=   0.00000
   F  -0.0368175  -0.2087600  -0.1834242 SPIN=   0.00000
   F  -0.1719425  -0.2087600   0.3165758 SPIN=   0.00000
%ENDBLOCK POSITIONS_FRAC

# Note: total spin =   8.00

KPOINTS_MP_SPACING 0.07

%BLOCK SPECIES_POT
QC5
%ENDBLOCK SPECIES_POT

SNAP_TO_SYMMETRY
SYMMETRY_GENERATE

