#              Generated by Buildcell
#
# at 02:58:03 (GMT+1.0) 19th August 2020
# in /lustre/scratch/uccabz1/launch_tmp
# on node-c12e-036
# by uccabz1
#
# compiler GCC version 4.9.2
# options -cpp -iprefix /lustre/shared/ucl/apps/gcc/4.9.2/bin/../lib/gcc/x86_64-unknown-linux-gnu/4.9.2/ -mtune=corei7 -march=x86-64 -g -Og
#
# seed  -138215422  1133252362  -643590974  1415052418  -918399126  -331634445  2105466791  1049095973  -206660180  -405350797   949705619   733973192
#
#      Author: C. J. Pickard (cjp20@cam.ac.uk)
#                Space group: P21
#

%BLOCK LATTICE_ABC
      5.17848      5.24480      7.36411
     90.56971     90.00000     90.00000
%ENDBLOCK LATTICE_ABC

%BLOCK POSITIONS_FRAC
  Li   0.1332263   0.2355499  -0.3055607 SPIN=   0.00000
  Li  -0.3667737  -0.2355499   0.3055607 SPIN=   0.00000
  Fe  -0.1802298  -0.2238171  -0.0892254 SPIN=   4.00000
  Fe   0.3197702   0.2238171   0.0892254 SPIN=   4.00000
   O   0.0605556  -0.1339355  -0.3613595 SPIN=   0.00000
   O   0.3463818  -0.4612260  -0.2287117 SPIN=   0.00000
   O   0.5341767  -0.0708209  -0.3608570 SPIN=   0.00000
   O   0.3379581  -0.3990182  -0.5613579 SPIN=   0.00000
   S   0.3197680  -0.2662501  -0.3780715 SPIN=   0.00000
   O  -0.4394444   0.1339355   0.3613595 SPIN=   0.00000
   O  -0.1536182   0.4612260   0.2287117 SPIN=   0.00000
   O   0.0341767   0.0708209   0.3608570 SPIN=   0.00000
   O  -0.1620419   0.3990182   0.5613579 SPIN=   0.00000
   S  -0.1802320   0.2662501   0.3780715 SPIN=   0.00000
   F   0.1877806  -0.2369609   0.1221251 SPIN=   0.00000
   F  -0.3122194   0.2369609  -0.1221251 SPIN=   0.00000
%ENDBLOCK POSITIONS_FRAC

# Note: total spin =   8.00

KPOINTS_MP_SPACING 0.07

%BLOCK SPECIES_POT
QC5
%ENDBLOCK SPECIES_POT

SNAP_TO_SYMMETRY
SYMMETRY_GENERATE

