#              Generated by Buildcell
#
# at 05:39:22 (GMT+1.0) 4th August 2020
# in /lustre/scratch/uccabz1/launch_tmp
# on node-c12g-032
# by uccabz1
#
# compiler GCC version 4.9.2
# options -cpp -iprefix /lustre/shared/ucl/apps/gcc/4.9.2/bin/../lib/gcc/x86_64-unknown-linux-gnu/4.9.2/ -mtune=corei7 -march=x86-64 -g -Og
#
# seed   433785517 -1703543951 -1640761228 -1223382808 -1339746150   566483504 -2014807852 -1431399025   575608735 -1621573111  1069854633  -527885866
#
#      Author: C. J. Pickard (cjp20@cam.ac.uk)
#                Space group: Cc
#

%BLOCK LATTICE_ABC
      5.55538      5.55538      6.87532
     96.77253     96.77253    106.01265
%ENDBLOCK LATTICE_ABC

%BLOCK POSITIONS_FRAC
  Li  -0.0231058  -0.3533498   0.3498492 SPIN=   0.00000
  Li   0.1466502   0.4768942  -0.1501508 SPIN=   0.00000
  Fe  -0.4140640   0.3039720   0.0168419 SPIN=   4.00000
  Fe  -0.1960280   0.0859360  -0.4831581 SPIN=   4.00000
   O   0.2745249   0.0652431   0.1627846 SPIN=   0.00000
   O  -0.0679581  -0.2988628  -0.0305931 SPIN=   0.00000
   O  -0.0425233   0.1374855  -0.0903961 SPIN=   0.00000
   O  -0.1683893  -0.0005611   0.2216212 SPIN=   0.00000
   S  -0.0010864  -0.0241738   0.0658542 SPIN=   0.00000
   O   0.5652431   0.7745249  -0.3372154 SPIN=   0.00000
   O   0.2011372   0.4320419  -0.5305931 SPIN=   0.00000
   O   0.6374855   0.4574767  -0.5903961 SPIN=   0.00000
   O   0.4994389   0.3316107  -0.2783788 SPIN=   0.00000
   S   0.4758262   0.4989136  -0.4341458 SPIN=   0.00000
   F   0.3934442  -0.4142400   0.0687917 SPIN=   0.00000
   F   0.0857600  -0.1065558  -0.4312083 SPIN=   0.00000
%ENDBLOCK POSITIONS_FRAC

# Note: total spin =   8.00

KPOINTS_MP_SPACING 0.07

%BLOCK SPECIES_POT
QC5
%ENDBLOCK SPECIES_POT

SNAP_TO_SYMMETRY
SYMMETRY_GENERATE

