#              Generated by Buildcell
#
# at 01:40:34 (GMT+1.0) 4th August 2020
# in /lustre/scratch/uccabz1/launch_tmp
# on node-c12f-015
# by uccabz1
#
# compiler GCC version 4.9.2
# options -cpp -iprefix /lustre/shared/ucl/apps/gcc/4.9.2/bin/../lib/gcc/x86_64-unknown-linux-gnu/4.9.2/ -mtune=corei7 -march=x86-64 -g -Og
#
# seed  -535283383    34120941    -6130962  1190905322  -468598733 -1998058592 -1764962442  1780727035    67648418  1940360412 -1910772028  -820073226
#
#      Author: C. J. Pickard (cjp20@cam.ac.uk)
#                Space group: P-1
#

%BLOCK LATTICE_ABC
      4.14778      5.53967      8.79478
     98.10635     90.78428     91.05780
%ENDBLOCK LATTICE_ABC

%BLOCK POSITIONS_FRAC
  Li  -0.2581913   0.4972738  -0.3029736 SPIN=   0.00000
  Li   0.2581913  -0.4972738   0.3029736 SPIN=   0.00000
  Fe  -0.2530975   0.2725827   0.0853595 SPIN=   4.00000
  Fe   0.2530975  -0.2725827  -0.0853595 SPIN=   4.00000
   O  -0.2510473  -0.2534488   0.4690742 SPIN=   0.00000
   O  -0.3910391   0.0968223   0.3364139 SPIN=   0.00000
   O  -0.4055744  -0.3213813   0.1933240 SPIN=   0.00000
   O   0.1177654  -0.1205217   0.2767156 SPIN=   0.00000
   S  -0.2324738  -0.1496324   0.3188819 SPIN=   0.00000
   O   0.2510473   0.2534488  -0.4690742 SPIN=   0.00000
   O   0.3910391  -0.0968223  -0.3364139 SPIN=   0.00000
   O   0.4055744   0.3213813  -0.1933240 SPIN=   0.00000
   O  -0.1177654   0.1205217  -0.2767156 SPIN=   0.00000
   S   0.2324738   0.1496324  -0.3188819 SPIN=   0.00000
   F   0.2302170   0.2543319   0.1025225 SPIN=   0.00000
   F  -0.2302170  -0.2543319  -0.1025225 SPIN=   0.00000
%ENDBLOCK POSITIONS_FRAC

# Note: total spin =   8.00

KPOINTS_MP_SPACING 0.07

%BLOCK SPECIES_POT
QC5
%ENDBLOCK SPECIES_POT

SNAP_TO_SYMMETRY
SYMMETRY_GENERATE

