#              Generated by Buildcell
#
# at 04:30:17 (GMT+1.0) 4th August 2020
# in /lustre/scratch/uccabz1/launch_tmp
# on node-c12l-027
# by uccabz1
#
# compiler GCC version 4.9.2
# options -cpp -iprefix /lustre/shared/ucl/apps/gcc/4.9.2/bin/../lib/gcc/x86_64-unknown-linux-gnu/4.9.2/ -mtune=corei7 -march=x86-64 -g -Og
#
# seed   621563290  -998313975  -427105123 -1990600928  1682422798  1380476575  -775752574  -699931769  2027423857   479254294  -562934166 -1057890197
#
#      Author: C. J. Pickard (cjp20@cam.ac.uk)
#                Space group: C2
#

%BLOCK LATTICE_ABC
      5.61405      5.61405      6.66031
     80.55977     80.55977     77.00819
%ENDBLOCK LATTICE_ABC

%BLOCK POSITIONS_FRAC
  Li  -0.2194215   0.4097072  -0.2775432 SPIN=   0.00000
  Li  -0.4097072   0.2194215   0.2775432 SPIN=   0.00000
  Fe   0.1103760   0.2888626   0.0922702 SPIN=   4.00000
  Fe  -0.2888626  -0.1103760  -0.0922702 SPIN=   4.00000
   O   0.3906004  -0.1486087  -0.3716668 SPIN=   0.00000
   O   0.0626567   0.1386285  -0.1839194 SPIN=   0.00000
   O   0.1260877   0.1971321  -0.5639353 SPIN=   0.00000
   O   0.4343632   0.2804814  -0.3724333 SPIN=   0.00000
   S   0.2534270   0.1169083  -0.3729887 SPIN=   0.00000
   O   0.1486087  -0.3906004   0.3716668 SPIN=   0.00000
   O  -0.1386285  -0.0626567   0.1839194 SPIN=   0.00000
   O  -0.1971321  -0.1260877   0.5639353 SPIN=   0.00000
   O  -0.2804814  -0.4343632   0.3724333 SPIN=   0.00000
   S  -0.1169083  -0.2534270   0.3729887 SPIN=   0.00000
   F   0.3736656  -0.0022723   0.1303806 SPIN=   0.00000
   F   0.0022723  -0.3736656  -0.1303806 SPIN=   0.00000
%ENDBLOCK POSITIONS_FRAC

# Note: total spin =   8.00

KPOINTS_MP_SPACING 0.07

%BLOCK SPECIES_POT
QC5
%ENDBLOCK SPECIES_POT

SNAP_TO_SYMMETRY
SYMMETRY_GENERATE

