#              Generated by Buildcell
#
# at 05:41:28 (GMT+1.0) 4th August 2020
# in /lustre/scratch/uccabz1/launch_tmp
# on node-c12c-026
# by uccabz1
#
# compiler GCC version 4.9.2
# options -cpp -iprefix /lustre/shared/ucl/apps/gcc/4.9.2/bin/../lib/gcc/x86_64-unknown-linux-gnu/4.9.2/ -mtune=corei7 -march=x86-64 -g -Og
#
# seed   445284933  -821689093  -489289575  1212818483 -1514699997  1418633460  1997886734   834043287  1641038099   480277344  1476729879  2001353628
#
#      Author: C. J. Pickard (cjp20@cam.ac.uk)
#                Space group: Pnn2
#

%BLOCK LATTICE_ABC
      4.03049      6.73262      7.37036
     90.00000     90.00000     90.00000
%ENDBLOCK LATTICE_ABC

%BLOCK POSITIONS_FRAC
  Li  -0.0000000  -0.5000000  -0.0480065 SPIN=   0.00000
  Li   0.5000000   0.0000000   0.4519935 SPIN=   0.00000
  Fe  -0.0000000   0.0000000   0.1577748 SPIN=   4.00000
  Fe   0.5000000  -0.5000000  -0.3422252 SPIN=   4.00000
   O  -0.0512634  -0.3322296  -0.3845369 SPIN=   0.00000
   O  -0.0431245  -0.1914352  -0.0743879 SPIN=   0.00000
   O   0.0512634   0.3322296  -0.3845369 SPIN=   0.00000
   O   0.0431245   0.1914352  -0.0743879 SPIN=   0.00000
   O   0.4487366  -0.1677704   0.1154631 SPIN=   0.00000
   O   0.4568755  -0.3085648   0.4256121 SPIN=   0.00000
   O  -0.4487366   0.1677704   0.1154631 SPIN=   0.00000
   O  -0.4568755   0.3085648   0.4256121 SPIN=   0.00000
   S   0.5000000   0.0000000  -0.1843939 SPIN=   0.00000
   S  -0.0000000  -0.5000000   0.3156061 SPIN=   0.00000
   F  -0.0000000   0.0000000   0.4318297 SPIN=   0.00000
   F   0.5000000  -0.5000000  -0.0681703 SPIN=   0.00000
%ENDBLOCK POSITIONS_FRAC

# Note: total spin =   8.00

KPOINTS_MP_SPACING 0.07

%BLOCK SPECIES_POT
QC5
%ENDBLOCK SPECIES_POT

SNAP_TO_SYMMETRY
SYMMETRY_GENERATE

