#              Generated by Buildcell
#
# at 04:49:07 (GMT+1.0) 4th August 2020
# in /lustre/scratch/uccabz1/launch_tmp
# on node-c12f-010
# by uccabz1
#
# compiler GCC version 4.9.2
# options -cpp -iprefix /lustre/shared/ucl/apps/gcc/4.9.2/bin/../lib/gcc/x86_64-unknown-linux-gnu/4.9.2/ -mtune=corei7 -march=x86-64 -g -Og
#
# seed  1520676269 -1463580207   122923474  -483610464   398049997 -2027402555  -742606217  1644170845  2092444530  2056662336   -52029304   372346202
#
#      Author: C. J. Pickard (cjp20@cam.ac.uk)
#                Space group: Ccc2
#

%BLOCK LATTICE_ABC
      4.04106      5.39627      9.89105
     90.00000     90.00000    111.98914
%ENDBLOCK LATTICE_ABC

%BLOCK POSITIONS_FRAC
  Li  -0.5000000   0.0000000  -0.0263993 SPIN=   0.00000
  Li  -0.5000000   0.0000000   0.4736007 SPIN=   0.00000
  Fe   0.0000000   0.0000000  -0.2573582 SPIN=   4.00000
  Fe  -0.0000000   0.0000000   0.2426418 SPIN=   4.00000
   O   0.0390582   0.2948839  -0.5602515 SPIN=   0.00000
   O   0.1934679   0.3869273  -0.3184300 SPIN=   0.00000
   O  -0.0390582  -0.2948839  -0.5602515 SPIN=   0.00000
   O  -0.1934679  -0.3869273  -0.3184300 SPIN=   0.00000
   O   0.2558258   0.2948839  -0.0602515 SPIN=   0.00000
   O   0.1934593   0.3869273   0.1815700 SPIN=   0.00000
   O  -0.2558258  -0.2948839  -0.0602515 SPIN=   0.00000
   O  -0.1934593  -0.3869273   0.1815700 SPIN=   0.00000
   S  -0.5000000  -0.5000000   0.0413160 SPIN=   0.00000
   S   0.0000000  -0.5000000  -0.4586840 SPIN=   0.00000
   F   0.5000000   1.0000000   0.2902508 SPIN=   0.00000
   F  -0.5000000  -0.0000000  -0.2097492 SPIN=   0.00000
%ENDBLOCK POSITIONS_FRAC

# Note: total spin =   8.00

KPOINTS_MP_SPACING 0.07

%BLOCK SPECIES_POT
QC5
%ENDBLOCK SPECIES_POT

SNAP_TO_SYMMETRY
SYMMETRY_GENERATE

