#              Generated by Buildcell
#
# at 02:56:03 (GMT+1.0) 19th August 2020
# in /lustre/scratch/uccabz1/launch_tmp
# on node-c12o-008
# by uccabz1
#
# compiler GCC version 4.9.2
# options -cpp -iprefix /lustre/shared/ucl/apps/gcc/4.9.2/bin/../lib/gcc/x86_64-unknown-linux-gnu/4.9.2/ -mtune=corei7 -march=x86-64 -g -Og
#
# seed -1735111707    37666512   645617689  1023971926   236091245  1831878353  1505103817  -256341666 -1604380309  -972301126  1829417868 -1502708339
#
#      Author: C. J. Pickard (cjp20@cam.ac.uk)
#                Space group: P-1
#

%BLOCK LATTICE_ABC
      3.93030      7.06883      7.49447
    104.10677     93.62485     95.95397
%ENDBLOCK LATTICE_ABC

%BLOCK POSITIONS_FRAC
  Li  -0.4239783   0.1699262  -0.2383763 SPIN=   0.00000
  Li   0.4239783  -0.1699262   0.2383763 SPIN=   0.00000
  Fe  -0.2435562   0.4170092   0.1810073 SPIN=   4.00000
  Fe   0.2435562  -0.4170092  -0.1810073 SPIN=   4.00000
   O  -0.1827983  -0.2917331  -0.6473162 SPIN=   0.00000
   O  -0.0978420  -0.0233065  -0.3603789 SPIN=   0.00000
   O  -0.1692266  -0.3701021  -0.3428037 SPIN=   0.00000
   O  -0.6636971  -0.2250974  -0.4524719 SPIN=   0.00000
   S  -0.2783910  -0.2275598  -0.4507427 SPIN=   0.00000
   O   0.1827983   0.2917331   0.6473162 SPIN=   0.00000
   O   0.0978420   0.0233065   0.3603789 SPIN=   0.00000
   O   0.1692266   0.3701021   0.3428037 SPIN=   0.00000
   O   0.6636971   0.2250974   0.4524719 SPIN=   0.00000
   S   0.2783910   0.2275598   0.4507427 SPIN=   0.00000
   F  -0.0335952   0.2406213  -0.0303663 SPIN=   0.00000
   F   0.0335952  -0.2406213   0.0303663 SPIN=   0.00000
%ENDBLOCK POSITIONS_FRAC

# Note: total spin =   8.00

KPOINTS_MP_SPACING 0.07

%BLOCK SPECIES_POT
QC5
%ENDBLOCK SPECIES_POT

SNAP_TO_SYMMETRY
SYMMETRY_GENERATE

