#              Generated by Buildcell
#
# at 05:35:09 (GMT+1.0) 4th August 2020
# in /lustre/scratch/uccabz1/launch_tmp
# on node-c12g-032
# by uccabz1
#
# compiler GCC version 4.9.2
# options -cpp -iprefix /lustre/shared/ucl/apps/gcc/4.9.2/bin/../lib/gcc/x86_64-unknown-linux-gnu/4.9.2/ -mtune=corei7 -march=x86-64 -g -Og
#
# seed -1977471093   956527966   189720923   353930227  -475728869   159520146  1710141115  -854075561  -903097767   189668642     7420806  1794689457
#
#      Author: C. J. Pickard (cjp20@cam.ac.uk)
#                Space group: Pm
#

%BLOCK LATTICE_ABC
      3.82410      6.95175      7.58369
     90.00000     90.00000     97.23662
%ENDBLOCK LATTICE_ABC

%BLOCK POSITIONS_FRAC
  Li  -0.3382379  -0.0441942   0.5000000 SPIN=   0.00000
  Li   0.2567774   0.4335372  -0.5000000 SPIN=   0.00000
  Fe   0.7204552   0.2750683   0.2405269 SPIN=   4.00000
  Fe   0.7204552   0.2750683  -0.2405269 SPIN=   4.00000
   O  -0.1844402  -0.2844667  -0.2585875 SPIN=   0.00000
   O   0.2994532  -0.4600623  -0.1529631 SPIN=   0.00000
   O   0.3731335  -0.1012272  -0.1530749 SPIN=   0.00000
   S   0.2121344  -0.2815830  -0.2500009 SPIN=   0.00000
   O  -0.1844402  -0.2844667   0.2585875 SPIN=   0.00000
   O   0.2994532  -0.4600623   0.1529631 SPIN=   0.00000
   O   0.3731335  -0.1012272   0.1530749 SPIN=   0.00000
   S   0.2121344  -0.2815830   0.2500009 SPIN=   0.00000
   O   0.7633007   0.4712854  -0.5000000 SPIN=   0.00000
   O  -0.6673171  -0.2829508   0.5000000 SPIN=   0.00000
   F   0.1171217   0.1515328   0.5000000 SPIN=   0.00000
   F  -0.0839566   0.1255900   0.0000000 SPIN=   0.00000
%ENDBLOCK POSITIONS_FRAC

# Note: total spin =   8.00

KPOINTS_MP_SPACING 0.07

%BLOCK SPECIES_POT
QC5
%ENDBLOCK SPECIES_POT

SNAP_TO_SYMMETRY
SYMMETRY_GENERATE

