#              Generated by Buildcell
#
# at 01:20:28 (GMT+1.0) 19th August 2020
# in /lustre/scratch/uccabz1/launch_tmp
# on node-c12g-028
# by uccabz1
#
# compiler GCC version 4.9.2
# options -cpp -iprefix /lustre/shared/ucl/apps/gcc/4.9.2/bin/../lib/gcc/x86_64-unknown-linux-gnu/4.9.2/ -mtune=corei7 -march=x86-64 -g -Og
#
# seed  -128511804   771679790 -1772084682 -1871210707    95789757  -269153019  -295588951 -1004747857  -663540624   558758699  -846044372   334411077
#
#      Author: C. J. Pickard (cjp20@cam.ac.uk)
#                Space group: Cm
#

%BLOCK LATTICE_ABC
      3.93834      7.34288      8.00857
    114.72056     99.83701     99.42051
%ENDBLOCK LATTICE_ABC

%BLOCK POSITIONS_FRAC
  Li  -0.4706364  -0.4523786  -0.3829511 SPIN=   0.00000
  Li  -0.0876853  -0.0694276   0.3829511 SPIN=   0.00000
  Fe   0.9516114   0.4918583   0.2595222 SPIN=   4.00000
  Fe   0.6920892   0.2323361  -0.2595222 SPIN=   4.00000
   O   0.4976381  -0.0138683  -0.1598885 SPIN=   0.00000
   O  -0.0716933  -0.0076629  -0.3418089 SPIN=   0.00000
   O  -0.0773126  -0.2089561  -0.1594150 SPIN=   0.00000
   O   0.1331169  -0.3291139  -0.4518658 SPIN=   0.00000
   S   0.1204373  -0.1399003  -0.2782446 SPIN=   0.00000
   O   0.6575266   0.1460202   0.1598885 SPIN=   0.00000
   O   0.2701156   0.3341460   0.3418089 SPIN=   0.00000
   O   0.0821024  -0.0495411   0.1594150 SPIN=   0.00000
   O   0.5849827   0.1227519   0.4518658 SPIN=   0.00000
   S   0.3986818   0.1383442   0.2782446 SPIN=   0.00000
   F   0.1828801   0.3791229   0.7182233 SPIN=   0.00000
   F  -0.5353432  -0.3391004  -0.7182233 SPIN=   0.00000
%ENDBLOCK POSITIONS_FRAC

# Note: total spin =   8.00

KPOINTS_MP_SPACING 0.07

%BLOCK SPECIES_POT
QC5
%ENDBLOCK SPECIES_POT

SNAP_TO_SYMMETRY
SYMMETRY_GENERATE

