#              Generated by Buildcell
#
# at 23:48:37 (GMT+1.0) 18th August 2020
# in /lustre/scratch/uccabz1/launch_tmp
# on node-c12k-012
# by uccabz1
#
# compiler GCC version 4.9.2
# options -cpp -iprefix /lustre/shared/ucl/apps/gcc/4.9.2/bin/../lib/gcc/x86_64-unknown-linux-gnu/4.9.2/ -mtune=corei7 -march=x86-64 -g -Og
#
# seed   861124185 -1284776055 -1109361870   -28823029   659168296 -1379600584  -279177496    30962000  1608005578  1391604294 -2112932009  1554680302
#
#      Author: C. J. Pickard (cjp20@cam.ac.uk)
#                Space group: P-1
#

%BLOCK LATTICE_ABC
      4.18380      6.25053      7.76270
     83.31206     84.66490     84.48580
%ENDBLOCK LATTICE_ABC

%BLOCK POSITIONS_FRAC
  Li   0.2880222   0.4743740   0.2981150 SPIN=   0.00000
  Li  -0.2880222  -0.4743740  -0.2981150 SPIN=   0.00000
  Fe   0.2156420   0.2439168  -0.0845898 SPIN=   4.00000
  Fe  -0.2156420  -0.2439168   0.0845898 SPIN=   4.00000
   O  -0.1383658  -0.0662527  -0.3683991 SPIN=   0.00000
   O   0.4033193  -0.2313313  -0.4596633 SPIN=   0.00000
   O   0.0978358  -0.3905991  -0.1950121 SPIN=   0.00000
   O   0.3219075  -0.0380703  -0.1961959 SPIN=   0.00000
   S   0.1711742  -0.1815634  -0.3048176 SPIN=   0.00000
   O   0.1383658   0.0662527   0.3683991 SPIN=   0.00000
   O  -0.4033193   0.2313313   0.4596633 SPIN=   0.00000
   O  -0.0978358   0.3905991   0.1950121 SPIN=   0.00000
   O  -0.3219075   0.0380703   0.1961959 SPIN=   0.00000
   S  -0.1711742   0.1815634   0.3048176 SPIN=   0.00000
   F   0.2597575  -0.2558667   0.1381243 SPIN=   0.00000
   F  -0.2597575   0.2558667  -0.1381243 SPIN=   0.00000
%ENDBLOCK POSITIONS_FRAC

# Note: total spin =   8.00

KPOINTS_MP_SPACING 0.07

%BLOCK SPECIES_POT
QC5
%ENDBLOCK SPECIES_POT

SNAP_TO_SYMMETRY
SYMMETRY_GENERATE

