#              Generated by Buildcell
#
# at 05:28:11 (GMT+1.0) 4th August 2020
# in /lustre/scratch/uccabz1/launch_tmp
# on node-c12g-006
# by uccabz1
#
# compiler GCC version 4.9.2
# options -cpp -iprefix /lustre/shared/ucl/apps/gcc/4.9.2/bin/../lib/gcc/x86_64-unknown-linux-gnu/4.9.2/ -mtune=corei7 -march=x86-64 -g -Og
#
# seed   648198393 -1549597703  1125736295  -835465933  1494041141  1985650175 -1170675954  -465194477  -971213109   345479346  1916148122  -359520911
#
#      Author: C. J. Pickard (cjp20@cam.ac.uk)
#                Space group: I-4
#

%BLOCK LATTICE_ABC
      4.75388      4.75388      9.46673
    104.54163    104.54163     90.00000
%ENDBLOCK LATTICE_ABC

%BLOCK POSITIONS_FRAC
  Li  -0.1490579  -0.1490579  -0.2981157 SPIN=   0.00000
  Li   0.1490579   0.1490579   0.2981157 SPIN=   0.00000
  Fe  -0.4400076   0.0599924   0.1199848 SPIN=   4.00000
  Fe  -0.0599924   0.4400076  -0.1199848 SPIN=   4.00000
   O   0.1203903  -0.0356724  -0.4076426 SPIN=   0.00000
   O   0.0713929   0.4961433  -0.3356181 SPIN=   0.00000
   O  -0.5280328   0.6280298  -0.4076426 SPIN=   0.00000
   O  -0.4070110   0.1682386  -0.3356181 SPIN=   0.00000
   O   0.0356724   0.5280328   0.4076426 SPIN=   0.00000
   O  -0.4961433   0.4070110   0.3356181 SPIN=   0.00000
   O  -0.6280298  -0.1203903   0.4076426 SPIN=   0.00000
   O  -0.1682386  -0.0713929   0.3356181 SPIN=   0.00000
   S  -0.3020055  -0.3020055   0.3959890 SPIN=   0.00000
   S   0.3020055   0.3020055  -0.3959890 SPIN=   0.00000
   F   0.4550442  -0.0449558  -0.0899116 SPIN=   0.00000
   F   0.0449558  -0.4550442   0.0899116 SPIN=   0.00000
%ENDBLOCK POSITIONS_FRAC

# Note: total spin =   8.00

KPOINTS_MP_SPACING 0.07

%BLOCK SPECIES_POT
QC5
%ENDBLOCK SPECIES_POT

SNAP_TO_SYMMETRY
SYMMETRY_GENERATE

