#              Generated by Buildcell
#
# at 04:04:59 (GMT+1.0) 4th August 2020
# in /lustre/scratch/uccabz1/launch_tmp
# on node-c12l-010
# by uccabz1
#
# compiler GCC version 4.9.2
# options -cpp -iprefix /lustre/shared/ucl/apps/gcc/4.9.2/bin/../lib/gcc/x86_64-unknown-linux-gnu/4.9.2/ -mtune=corei7 -march=x86-64 -g -Og
#
# seed -1999937444   -45363310   159555579  1010905566 -1475571394   890810196   966589209  1183203214  1774018960   230414141  1521530676 -1060763284
#
#      Author: C. J. Pickard (cjp20@cam.ac.uk)
#                Space group: P21
#

%BLOCK LATTICE_ABC
      3.92661      5.77119      8.89272
     90.00000     90.00000     97.04173
%ENDBLOCK LATTICE_ABC

%BLOCK POSITIONS_FRAC
  Li   0.1711275  -0.2492714  -0.3343883 SPIN=   0.00000
  Li  -0.1711275   0.2492714   0.1656117 SPIN=   0.00000
  Fe   0.3029477   0.1000736   0.4106690 SPIN=   4.00000
  Fe  -0.3029477  -0.1000736  -0.0893310 SPIN=   4.00000
   O  -0.3523761   0.2463483  -0.1406135 SPIN=   0.00000
   O  -0.3438987   0.2899012  -0.4174993 SPIN=   0.00000
   O  -0.2848164   0.6404127  -0.2547651 SPIN=   0.00000
   O  -0.8420702   0.3898394  -0.2713430 SPIN=   0.00000
   S  -0.4557903   0.3916254  -0.2710552 SPIN=   0.00000
   O   0.3523761  -0.2463483   0.3593865 SPIN=   0.00000
   O   0.3438987  -0.2899012   0.0825007 SPIN=   0.00000
   O   0.2848164  -0.6404127   0.2452349 SPIN=   0.00000
   O   0.8420702  -0.3898394   0.2286570 SPIN=   0.00000
   S   0.4557903  -0.3916254   0.2289448 SPIN=   0.00000
   F   0.0483943   0.0689581   0.0332245 SPIN=   0.00000
   F  -0.0483943  -0.0689581  -0.4667755 SPIN=   0.00000
%ENDBLOCK POSITIONS_FRAC

# Note: total spin =   8.00

KPOINTS_MP_SPACING 0.07

%BLOCK SPECIES_POT
QC5
%ENDBLOCK SPECIES_POT

SNAP_TO_SYMMETRY
SYMMETRY_GENERATE

