#              Generated by Buildcell
#
# at 03:15:50 (GMT+1.0) 4th August 2020
# in /lustre/scratch/uccabz1/launch_tmp
# on node-y12q-002
# by uccabz1
#
# compiler GCC version 4.9.2
# options -cpp -iprefix /lustre/shared/ucl/apps/gcc/4.9.2/bin/../lib/gcc/x86_64-unknown-linux-gnu/4.9.2/ -mtune=corei7 -march=x86-64 -g -Og
#
# seed  1042683604 -2033995733  1607074399   569880617   943992352  -878874766   -53207143  -336619862 -1748317164  1099180773 -1454227875 -1837340993
#
#      Author: C. J. Pickard (cjp20@cam.ac.uk)
#                Space group: Pc
#

%BLOCK LATTICE_ABC
      5.03313      5.94496      6.81556
     90.00000     90.00000    101.27162
%ENDBLOCK LATTICE_ABC

%BLOCK POSITIONS_FRAC
  Li   0.3056754   0.2346738  -0.4057614 SPIN=   0.00000
  Li  -0.1943246  -0.2653262   0.4057614 SPIN=   0.00000
  Fe  -0.1726333   0.2294635   0.3417241 SPIN=   4.00000
  Fe   0.3273667  -0.2705365  -0.3417241 SPIN=   4.00000
   O   0.5021449  -0.0617642   0.3037098 SPIN=   0.00000
   O   0.0892849  -0.3483535   0.2249411 SPIN=   0.00000
   O   0.3787530  -0.1540080  -0.0426222 SPIN=   0.00000
   O   0.1046976   0.0630618   0.1575466 SPIN=   0.00000
   S   0.2687201  -0.1252660   0.1608938 SPIN=   0.00000
   O   0.0021449   0.4382358  -0.3037098 SPIN=   0.00000
   O  -0.4107151   0.1516465  -0.2249411 SPIN=   0.00000
   O  -0.1212470   0.3459920   0.0426222 SPIN=   0.00000
   O  -0.3953024   0.5630618  -0.1575466 SPIN=   0.00000
   S  -0.2312799   0.3747340  -0.1608938 SPIN=   0.00000
   F   0.0231847  -0.0750214  -0.3592226 SPIN=   0.00000
   F  -0.4768153   0.4249786   0.3592226 SPIN=   0.00000
%ENDBLOCK POSITIONS_FRAC

# Note: total spin =   8.00

KPOINTS_MP_SPACING 0.07

%BLOCK SPECIES_POT
QC5
%ENDBLOCK SPECIES_POT

SNAP_TO_SYMMETRY
SYMMETRY_GENERATE

