#              Generated by Buildcell
#
# at 23:38:59 (GMT+1.0) 18th August 2020
# in /lustre/scratch/uccabz1/launch_tmp
# on node-c12o-034
# by uccabz1
#
# compiler GCC version 4.9.2
# options -cpp -iprefix /lustre/shared/ucl/apps/gcc/4.9.2/bin/../lib/gcc/x86_64-unknown-linux-gnu/4.9.2/ -mtune=corei7 -march=x86-64 -g -Og
#
# seed -1341900968 -1443627290  2118371876   748564551 -1964902260 -1693617643 -2006379415  1865771060  -285089557  -491608205  1640100478  -481384523
#
#      Author: C. J. Pickard (cjp20@cam.ac.uk)
#                Space group: P21
#

%BLOCK LATTICE_ABC
      4.96990      6.47948      6.57067
     90.00000     90.00000    109.05251
%ENDBLOCK LATTICE_ABC

%BLOCK POSITIONS_FRAC
  Li   0.2277979  -0.3245054  -0.1371776 SPIN=   0.00000
  Li  -0.2277979   0.3245054   0.3628224 SPIN=   0.00000
  Fe   0.2298277  -0.1145053   0.4169907 SPIN=   4.00000
  Fe  -0.2298277   0.1145053  -0.0830093 SPIN=   4.00000
   O  -0.2292174  -0.2927763  -0.1520822 SPIN=   0.00000
   O  -0.2632915  -0.6129599   0.0643103 SPIN=   0.00000
   O  -0.6030772  -0.4102168   0.1122539 SPIN=   0.00000
   O  -0.0985772  -0.2414246   0.2123453 SPIN=   0.00000
   S  -0.2985408  -0.3893444   0.0592068 SPIN=   0.00000
   O   0.2292174   0.2927763  -0.6520822 SPIN=   0.00000
   O   0.2632915   0.6129599  -0.4356897 SPIN=   0.00000
   O   0.6030772   0.4102168  -0.3877461 SPIN=   0.00000
   O   0.0985772   0.2414246  -0.2876547 SPIN=   0.00000
   S   0.2985408   0.3893444  -0.4407932 SPIN=   0.00000
   F  -0.3677757  -0.0014608   0.4227997 SPIN=   0.00000
   F   0.3677757   0.0014608  -0.0772003 SPIN=   0.00000
%ENDBLOCK POSITIONS_FRAC

# Note: total spin =   8.00

KPOINTS_MP_SPACING 0.07

%BLOCK SPECIES_POT
QC5
%ENDBLOCK SPECIES_POT

SNAP_TO_SYMMETRY
SYMMETRY_GENERATE

