#              Generated by Buildcell
#
# at 01:35:52 (GMT+1.0) 19th August 2020
# in /lustre/scratch/uccabz1/launch_tmp
# on node-c12h-020
# by uccabz1
#
# compiler GCC version 4.9.2
# options -cpp -iprefix /lustre/shared/ucl/apps/gcc/4.9.2/bin/../lib/gcc/x86_64-unknown-linux-gnu/4.9.2/ -mtune=corei7 -march=x86-64 -g -Og
#
# seed  -151325611 -1049081602  -599883043 -2107474611  -333113144  1954600503   965966238  1842227698 -1705934150  1899447789 -1771754964  1091048175
#
#      Author: C. J. Pickard (cjp20@cam.ac.uk)
#                Space group: C2
#

%BLOCK LATTICE_ABC
      4.58564      4.58564     10.04228
    100.29862    100.29862     99.68747
%ENDBLOCK LATTICE_ABC

%BLOCK POSITIONS_FRAC
  Li   0.4352574  -0.4352574  -0.0000000 SPIN=   0.00000
  Li  -0.5742082  -0.4257918  -0.5000000 SPIN=   0.00000
  Fe   0.2045000  -0.1326652  -0.2550326 SPIN=   4.00000
  Fe   0.1326652  -0.2045000   0.2550326 SPIN=   4.00000
   O  -0.2082894   0.3871280   0.1235632 SPIN=   0.00000
   O  -0.6115125  -0.0383231   0.1314481 SPIN=   0.00000
   O  -0.1283359   0.0921795   0.3058014 SPIN=   0.00000
   O  -0.1408335  -0.1408945   0.0621877 SPIN=   0.00000
   O  -0.3871280   0.2082894  -0.1235632 SPIN=   0.00000
   O   0.0383231   0.6115125  -0.1314481 SPIN=   0.00000
   O  -0.0921795   0.1283359  -0.3058014 SPIN=   0.00000
   O   0.1408945   0.1408335  -0.0621877 SPIN=   0.00000
   S  -0.1692638  -0.8307362  -0.5000000 SPIN=   0.00000
   S  -0.1524285   0.1524285   0.0000000 SPIN=   0.00000
   F  -0.5093879  -0.3812024  -0.2936971 SPIN=   0.00000
   F   0.3812024   0.5093879   0.2936971 SPIN=   0.00000
%ENDBLOCK POSITIONS_FRAC

# Note: total spin =   8.00

KPOINTS_MP_SPACING 0.07

%BLOCK SPECIES_POT
QC5
%ENDBLOCK SPECIES_POT

SNAP_TO_SYMMETRY
SYMMETRY_GENERATE

