#              Generated by Buildcell
#
# at 02:43:59 (GMT+1.0) 4th August 2020
# in /lustre/scratch/uccabz1/launch_tmp
# on node-c12h-015
# by uccabz1
#
# compiler GCC version 4.9.2
# options -cpp -iprefix /lustre/shared/ucl/apps/gcc/4.9.2/bin/../lib/gcc/x86_64-unknown-linux-gnu/4.9.2/ -mtune=corei7 -march=x86-64 -g -Og
#
# seed   179162536 -1640111739  1432542322  1613925038  -648123078  -411376541  -809673968 -1148415823  -387930946   -57778560  1468851236  -562544640
#
#      Author: C. J. Pickard (cjp20@cam.ac.uk)
#                Space group: Pm
#

%BLOCK LATTICE_ABC
      4.44471      4.69791      9.57817
     90.00000     90.00000     90.01806
%ENDBLOCK LATTICE_ABC

%BLOCK POSITIONS_FRAC
  Li  -0.2635842   0.4553261   0.1930965 SPIN=   0.00000
  Li  -0.2635842   0.4553261  -0.1930965 SPIN=   0.00000
  Fe  -0.2813989  -0.0147440  -0.5000000 SPIN=   7.85046
  Fe  -0.3086659  -0.0322961   0.0000000 SPIN=   0.14954
   O  -0.0147759  -0.7037860   0.3775092 SPIN=   0.00000
   O   0.5078266  -0.5220348   0.3818363 SPIN=   0.00000
   O   0.0802466  -0.1847204   0.3806109 SPIN=   0.00000
   O   0.1975886  -0.4660020   0.1690448 SPIN=   0.00000
   O  -0.0147759  -0.7037860  -0.3775092 SPIN=   0.00000
   O   0.5078266  -0.5220348  -0.3818363 SPIN=   0.00000
   O   0.0802466  -0.1847204  -0.3806109 SPIN=   0.00000
   O   0.1975886  -0.4660020  -0.1690448 SPIN=   0.00000
   S   0.2186011   0.4852560   0.5000000 SPIN=   0.00000
   S   0.1914638   0.4689441   0.0000000 SPIN=   0.00000
   F  -0.4185677  -0.0289844  -0.2386046 SPIN=   0.00000
   F  -0.4185677  -0.0289844   0.2386046 SPIN=   0.00000
%ENDBLOCK POSITIONS_FRAC

# Note: total spin =   8.00

KPOINTS_MP_SPACING 0.07

%BLOCK SPECIES_POT
QC5
%ENDBLOCK SPECIES_POT

SNAP_TO_SYMMETRY
SYMMETRY_GENERATE

