#              Generated by Buildcell
#
# at 23:56:32 (GMT+1.0) 18th August 2020
# in /lustre/scratch/uccabz1/launch_tmp
# on node-c12p-025
# by uccabz1
#
# compiler GCC version 4.9.2
# options -cpp -iprefix /lustre/shared/ucl/apps/gcc/4.9.2/bin/../lib/gcc/x86_64-unknown-linux-gnu/4.9.2/ -mtune=corei7 -march=x86-64 -g -Og
#
# seed -1990102100  2037449527  -594673898   695301373 -1289579485  -986848828   898124324 -1826884908 -2095214765   990163123 -1732378166  1469148412
#
#      Author: C. J. Pickard (cjp20@cam.ac.uk)
#                Space group: Pc
#

%BLOCK LATTICE_ABC
      3.93017      6.23922      8.45575
    105.29609     90.00000     90.00000
%ENDBLOCK LATTICE_ABC

%BLOCK POSITIONS_FRAC
  Li  -0.3983052   0.0066890   0.1935048 SPIN=   0.00000
  Li   0.3983052  -0.4933110  -0.3064952 SPIN=   0.00000
  Fe   0.2817313   0.0070824  -0.4536439 SPIN=   4.00000
  Fe  -0.2817313  -0.4929176   0.0463561 SPIN=   4.00000
   O   0.1017056   0.6133848   0.5138586 SPIN=   0.00000
   O   0.1055456   0.2662425   0.2893864 SPIN=   0.00000
   O   0.6344101   0.3977885   0.4433488 SPIN=   0.00000
   O   0.3985345   0.6013975   0.2535372 SPIN=   0.00000
   S   0.3100490   0.4697034   0.3750327 SPIN=   0.00000
   O  -0.1017056   0.1133848   0.0138586 SPIN=   0.00000
   O  -0.1055456  -0.2337575  -0.2106136 SPIN=   0.00000
   O  -0.6344101  -0.1022115  -0.0566512 SPIN=   0.00000
   O  -0.3985345   0.1013975  -0.2464628 SPIN=   0.00000
   S  -0.3100490  -0.0302966  -0.1249673 SPIN=   0.00000
   F   0.1898472   0.4733008  -0.0644541 SPIN=   0.00000
   F  -0.1898472  -0.0266992   0.4355459 SPIN=   0.00000
%ENDBLOCK POSITIONS_FRAC

# Note: total spin =   8.00

KPOINTS_MP_SPACING 0.07

%BLOCK SPECIES_POT
QC5
%ENDBLOCK SPECIES_POT

SNAP_TO_SYMMETRY
SYMMETRY_GENERATE

