#              Generated by Buildcell
#
# at 03:25:49 (GMT+1.0) 4th August 2020
# in /lustre/scratch/uccabz1/launch_tmp
# on node-c12n-017
# by uccabz1
#
# compiler GCC version 4.9.2
# options -cpp -iprefix /lustre/shared/ucl/apps/gcc/4.9.2/bin/../lib/gcc/x86_64-unknown-linux-gnu/4.9.2/ -mtune=corei7 -march=x86-64 -g -Og
#
# seed  1430299943   242196317  1381903384   803686362 -2134589807  1540416059 -1680280491  -507593240 -1020546640   -32172452  -836248311  -137132494
#
#      Author: C. J. Pickard (cjp20@cam.ac.uk)
#                Space group: P21
#

%BLOCK LATTICE_ABC
      4.36019      5.84184      8.07778
     90.00000    103.58142     90.00000
%ENDBLOCK LATTICE_ABC

%BLOCK POSITIONS_FRAC
  Li   0.2639750   0.4350271   0.1105833 SPIN=   0.00000
  Li  -0.2639750  -0.0649729  -0.1105833 SPIN=   0.00000
  Fe   0.2400837  -0.0649731   0.2280566 SPIN=   4.00000
  Fe  -0.2400837   0.4350269  -0.2280566 SPIN=   4.00000
   O   0.0907061   0.3672201   0.3209065 SPIN=   0.00000
   O  -0.4493888   0.2068651   0.2416320 SPIN=   0.00000
   O  -0.3569372   0.5861302   0.3809606 SPIN=   0.00000
   O  -0.1691441   0.2350999   0.5451680 SPIN=   0.00000
   S  -0.2211910   0.3488288   0.3721668 SPIN=   0.00000
   O  -0.0907061  -0.1327799  -0.3209065 SPIN=   0.00000
   O   0.4493888  -0.2931349  -0.2416320 SPIN=   0.00000
   O   0.3569372   0.0861302  -0.3809606 SPIN=   0.00000
   O   0.1691441  -0.2649001  -0.5451680 SPIN=   0.00000
   S   0.2211910  -0.1511712  -0.3721668 SPIN=   0.00000
   F   0.1825014   0.3297578  -0.1254537 SPIN=   0.00000
   F  -0.1825014  -0.1702422   0.1254537 SPIN=   0.00000
%ENDBLOCK POSITIONS_FRAC

# Note: total spin =   8.00

KPOINTS_MP_SPACING 0.07

%BLOCK SPECIES_POT
QC5
%ENDBLOCK SPECIES_POT

SNAP_TO_SYMMETRY
SYMMETRY_GENERATE

