#              Generated by Buildcell
#
# at 01:59:23 (GMT+1.0) 4th August 2020
# in /lustre/scratch/uccabz1/launch_tmp
# on node-c12j-017
# by uccabz1
#
# compiler GCC version 4.9.2
# options -cpp -iprefix /lustre/shared/ucl/apps/gcc/4.9.2/bin/../lib/gcc/x86_64-unknown-linux-gnu/4.9.2/ -mtune=corei7 -march=x86-64 -g -Og
#
# seed  -417335581     7577661   741983905   827446651  2114827984 -1791327102  1575976274   487713748  1845811441  1440880803  1729142841  2002515453
#
#      Author: C. J. Pickard (cjp20@cam.ac.uk)
#                Space group: Cm
#

%BLOCK LATTICE_ABC
      3.87581      7.59813      8.00194
    118.34424    103.47063     90.00000
%ENDBLOCK LATTICE_ABC

%BLOCK POSITIONS_FRAC
  Li   0.2247228  -0.0565332   0.3652022 SPIN=   0.00000
  Li   0.2247228   0.4217354   0.3652022 SPIN=   0.00000
  Fe  -0.4395838  -0.2208515   0.0349806 SPIN=   4.00000
  Fe  -0.4395838   0.2558321   0.0349806 SPIN=   4.00000
   O  -0.1833619  -0.4138254  -0.5366547 SPIN=   0.00000
   O  -0.4955582  -0.4441456  -0.3128717 SPIN=   0.00000
   O   0.0923624  -0.2337714  -0.1769923 SPIN=   0.00000
   S  -0.1334840  -0.4243165  -0.3481686 SPIN=   0.00000
   O  -0.1833619  -0.1228292  -0.5366547 SPIN=   0.00000
   O  -0.4955582   0.1312739  -0.3128717 SPIN=   0.00000
   O   0.0923624   0.0567791  -0.1769923 SPIN=   0.00000
   S  -0.1334840   0.0761479  -0.3481686 SPIN=   0.00000
   O  -0.3559966  -0.0550838  -0.1101675 SPIN=   0.00000
   O   0.3256884  -0.2472562  -0.4945124 SPIN=   0.00000
   F  -0.3511265  -0.4650161   0.0699678 SPIN=   0.00000
   F   0.2704053   0.1118536   0.2237073 SPIN=   0.00000
%ENDBLOCK POSITIONS_FRAC

# Note: total spin =   8.00

KPOINTS_MP_SPACING 0.07

%BLOCK SPECIES_POT
QC5
%ENDBLOCK SPECIES_POT

SNAP_TO_SYMMETRY
SYMMETRY_GENERATE

