#              Generated by Buildcell
#
# at 01:38:38 (GMT+1.0) 4th August 2020
# in /lustre/scratch/uccabz1/launch_tmp
# on node-c12f-028
# by uccabz1
#
# compiler GCC version 4.9.2
# options -cpp -iprefix /lustre/shared/ucl/apps/gcc/4.9.2/bin/../lib/gcc/x86_64-unknown-linux-gnu/4.9.2/ -mtune=corei7 -march=x86-64 -g -Og
#
# seed   859933863  -149833190 -1235525895 -1777974079   152073219  -430364069  -157734092    26511193 -1994425771   295707107 -1214484205 -1735991781
#
#      Author: C. J. Pickard (cjp20@cam.ac.uk)
#                Space group: Pba2
#

%BLOCK LATTICE_ABC
      5.62776      5.75812      6.17183
     90.00000     90.00000     90.00000
%ENDBLOCK LATTICE_ABC

%BLOCK POSITIONS_FRAC
  Li  -0.4956262   0.0000000  -0.0000000 SPIN=   0.00000
  Li  -0.4956262  -0.5000000   0.5000000 SPIN=   0.00000
  Fe   0.2562736  -0.5000000  -0.0000000 SPIN=   4.00000
  Fe   0.2562736   0.0000000   0.5000000 SPIN=   4.00000
   O  -0.1325022  -0.3577048   0.3438190 SPIN=   0.00000
   O   0.2997792  -0.3003007   0.2932646 SPIN=   0.00000
   O  -0.1325022   0.3577048  -0.3438190 SPIN=   0.00000
   O   0.2997792   0.3003007  -0.2932646 SPIN=   0.00000
   O  -0.1325022   0.1422952   0.1561810 SPIN=   0.00000
   O   0.2997792   0.1996993   0.2067354 SPIN=   0.00000
   O  -0.1325022  -0.1422952  -0.1561810 SPIN=   0.00000
   O   0.2997792  -0.1996993  -0.2067354 SPIN=   0.00000
   S   0.0043737   0.0000000   0.0000000 SPIN=   0.00000
   S   0.0043737  -0.5000000   0.5000000 SPIN=   0.00000
   F  -0.3962954  -0.5000000  -0.0000000 SPIN=   0.00000
   F  -0.3962954   0.0000000   0.5000000 SPIN=   0.00000
%ENDBLOCK POSITIONS_FRAC

# Note: total spin =   8.00

KPOINTS_MP_SPACING 0.07

%BLOCK SPECIES_POT
QC5
%ENDBLOCK SPECIES_POT

SNAP_TO_SYMMETRY
SYMMETRY_GENERATE

