#              Generated by Buildcell
#
# at 03:58:23 (GMT+1.0) 4th August 2020
# in /lustre/scratch/uccabz1/launch_tmp
# on node-c12e-014
# by uccabz1
#
# compiler GCC version 4.9.2
# options -cpp -iprefix /lustre/shared/ucl/apps/gcc/4.9.2/bin/../lib/gcc/x86_64-unknown-linux-gnu/4.9.2/ -mtune=corei7 -march=x86-64 -g -Og
#
# seed   585522522 -1616686171  2020889598  -132296939 -1128480495   730171933   103053892   191186232   729335577   343581440   527728613  -761320753
#
#      Author: C. J. Pickard (cjp20@cam.ac.uk)
#                Space group: P21212
#

%BLOCK LATTICE_ABC
      3.90762      6.15961      8.30930
     90.00000     90.00000     90.00000
%ENDBLOCK LATTICE_ABC

%BLOCK POSITIONS_FRAC
  Li   0.0000000   0.0000000  -0.0576789 SPIN=   0.00000
  Li  -0.5000000  -0.5000000   0.0576789 SPIN=   0.00000
  Fe  -0.5000000   0.0000000  -0.4067627 SPIN=   4.00000
  Fe   0.0000000   0.5000000   0.4067627 SPIN=   4.00000
   O   0.2500013  -0.1093128   0.3898388 SPIN=   0.00000
   O   0.0665300  -0.2692640   0.1305946 SPIN=   0.00000
   O  -0.2500013   0.1093128   0.3898388 SPIN=   0.00000
   O  -0.0665300   0.2692640   0.1305946 SPIN=   0.00000
   O  -0.2499987  -0.3906872  -0.3898388 SPIN=   0.00000
   O  -0.4334700  -0.2307360  -0.1305946 SPIN=   0.00000
   O   0.2499987   0.3906872  -0.3898388 SPIN=   0.00000
   O   0.4334700   0.2307360  -0.1305946 SPIN=   0.00000
   S   0.0000000   0.0000000   0.2795829 SPIN=   0.00000
   S  -0.5000000   0.5000000  -0.2795829 SPIN=   0.00000
   F   0.0000000   0.0000000  -0.2862802 SPIN=   0.00000
   F  -0.5000000  -0.5000000   0.2862802 SPIN=   0.00000
%ENDBLOCK POSITIONS_FRAC

# Note: total spin =   8.00

KPOINTS_MP_SPACING 0.07

%BLOCK SPECIES_POT
QC5
%ENDBLOCK SPECIES_POT

SNAP_TO_SYMMETRY
SYMMETRY_GENERATE

