#              Generated by Buildcell
#
# at 00:57:10 (GMT+1.0) 19th August 2020
# in /lustre/scratch/uccabz1/launch_tmp
# on node-c12o-016
# by uccabz1
#
# compiler GCC version 4.9.2
# options -cpp -iprefix /lustre/shared/ucl/apps/gcc/4.9.2/bin/../lib/gcc/x86_64-unknown-linux-gnu/4.9.2/ -mtune=corei7 -march=x86-64 -g -Og
#
# seed   259999996  -379785073  1340984243   758310009  -260049714    11362733 -1954038114  -532884642  -180692080  1437614475 -1953824360  1389688998
#
#      Author: C. J. Pickard (cjp20@cam.ac.uk)
#                Space group: P21
#

%BLOCK LATTICE_ABC
      4.02397      5.90712      8.54450
     90.00000     90.00000    100.02900
%ENDBLOCK LATTICE_ABC

%BLOCK POSITIONS_FRAC
  Li  -0.0204140  -0.2206117   0.1945379 SPIN=   0.00000
  Li   0.0204140   0.2206117  -0.3054621 SPIN=   0.00000
  Fe  -0.1109744   0.2250848   0.0419778 SPIN=   4.00000
  Fe   0.1109744  -0.2250848  -0.4580222 SPIN=   4.00000
   O  -0.3683642  -0.7045389  -0.1687257 SPIN=   0.00000
   O  -0.6355301  -0.4864636  -0.3655184 SPIN=   0.00000
   O  -0.1287092  -0.2969161  -0.2218297 SPIN=   0.00000
   O  -0.6752773  -0.3973378  -0.0838346 SPIN=   0.00000
   S  -0.4519702  -0.4713141  -0.2099771 SPIN=   0.00000
   O   0.3683642   0.7045389   0.3312743 SPIN=   0.00000
   O   0.6355301   0.4864636   0.1344816 SPIN=   0.00000
   O   0.1287092   0.2969161   0.2781703 SPIN=   0.00000
   O   0.6752773   0.3973378   0.4161654 SPIN=   0.00000
   S   0.4519702   0.4713141   0.2900229 SPIN=   0.00000
   F   0.1623707  -0.0160973   0.0051385 SPIN=   0.00000
   F  -0.1623707   0.0160973  -0.4948615 SPIN=   0.00000
%ENDBLOCK POSITIONS_FRAC

# Note: total spin =   8.00

KPOINTS_MP_SPACING 0.07

%BLOCK SPECIES_POT
QC5
%ENDBLOCK SPECIES_POT

SNAP_TO_SYMMETRY
SYMMETRY_GENERATE

