#              Generated by Buildcell
#
# at 19:58:38 (GMT+1.0) 18th August 2020
# in /lustre/scratch/uccabz1/launch_tmp
# on node-c12a-035
# by uccabz1
#
# compiler GCC version 4.9.2
# options -cpp -iprefix /lustre/shared/ucl/apps/gcc/4.9.2/bin/../lib/gcc/x86_64-unknown-linux-gnu/4.9.2/ -mtune=corei7 -march=x86-64 -g -Og
#
# seed  1400322495  1639915066   132047095 -1036443732 -1790926327 -2068227509  -761528598   348843308  1799660924  1811669246  1726857791  -667232236
#
#      Author: C. J. Pickard (cjp20@cam.ac.uk)
#                Space group: Cm
#

%BLOCK LATTICE_ABC
      5.82651      5.82651      6.62209
    106.98982    106.98982     97.28951
%ENDBLOCK LATTICE_ABC

%BLOCK POSITIONS_FRAC
  Li   0.2648567  -0.2916070   0.1255312 SPIN=   0.00000
  Li  -0.2916070   0.2648567   0.1255312 SPIN=   0.00000
  Fe   0.2316285   0.2316285   0.3753345 SPIN=   4.69174
  Fe  -0.2537030  -0.2537030  -0.4994180 SPIN=   3.30826
   O   0.1570665  -0.1120571  -0.3849888 SPIN=   0.00000
   O   0.3644271   0.0953032   0.0264543 SPIN=   0.00000
   O   0.4073826  -0.3237755  -0.1602331 SPIN=   0.00000
   O   0.0076029  -0.2615209  -0.1221644 SPIN=   0.00000
   O  -0.1120571   0.1570665  -0.3849888 SPIN=   0.00000
   O   0.0953032   0.3644271   0.0264543 SPIN=   0.00000
   O  -0.3237755   0.4073826  -0.1602331 SPIN=   0.00000
   O  -0.2615209   0.0076029  -0.1221644 SPIN=   0.00000
   S  -0.2332145  -0.2332145   0.0111708 SPIN=   0.00000
   S   0.2111401   0.2111401  -0.1352543 SPIN=   0.00000
   F   0.4321201   0.0043736   0.4155394 SPIN=   0.00000
   F   0.0043736   0.4321201   0.4155394 SPIN=   0.00000
%ENDBLOCK POSITIONS_FRAC

# Note: total spin =   8.00

KPOINTS_MP_SPACING 0.07

%BLOCK SPECIES_POT
QC5
%ENDBLOCK SPECIES_POT

SNAP_TO_SYMMETRY
SYMMETRY_GENERATE

