#              Generated by Buildcell
#
# at 05:38:14 (GMT+1.0) 4th August 2020
# in /lustre/scratch/uccabz1/launch_tmp
# on node-c12l-033
# by uccabz1
#
# compiler GCC version 4.9.2
# options -cpp -iprefix /lustre/shared/ucl/apps/gcc/4.9.2/bin/../lib/gcc/x86_64-unknown-linux-gnu/4.9.2/ -mtune=corei7 -march=x86-64 -g -Og
#
# seed  -824951837 -1763134313  -331637490    88237197  1334880852   101475886 -1367079605  -314538100   228297591  2111212921 -1164021040 -1123725776
#
#      Author: C. J. Pickard (cjp20@cam.ac.uk)
#                Space group: P21
#

%BLOCK LATTICE_ABC
      3.99021      6.86952      7.42695
     90.00000    100.75950     90.00000
%ENDBLOCK LATTICE_ABC

%BLOCK POSITIONS_FRAC
  Li   0.2381127   0.4458374   0.2862388 SPIN=   0.00000
  Li  -0.2381127  -0.0541626  -0.2862388 SPIN=   0.00000
  Fe  -0.1834179   0.3442916  -0.4220932 SPIN=   4.00000
  Fe   0.1834179  -0.1557084   0.4220932 SPIN=   4.00000
   O  -0.3406796  -0.4402537   0.1819792 SPIN=   0.00000
   O  -0.4312578  -0.6569492  -0.0889894 SPIN=   0.00000
   O   0.1364721  -0.5103725   0.0214926 SPIN=   0.00000
   O  -0.3446213  -0.3036402  -0.1267510 SPIN=   0.00000
   S  -0.2450217  -0.4778039  -0.0030672 SPIN=   0.00000
   O   0.3406796   0.0597463  -0.1819792 SPIN=   0.00000
   O   0.4312578  -0.1569492   0.0889894 SPIN=   0.00000
   O  -0.1364721  -0.0103725  -0.0214926 SPIN=   0.00000
   O   0.3446213   0.1963598   0.1267510 SPIN=   0.00000
   S   0.2450217   0.0221961   0.0030672 SPIN=   0.00000
   F  -0.2590635  -0.1550836   0.4738976 SPIN=   0.00000
   F   0.2590635   0.3449164  -0.4738976 SPIN=   0.00000
%ENDBLOCK POSITIONS_FRAC

# Note: total spin =   8.00

KPOINTS_MP_SPACING 0.07

%BLOCK SPECIES_POT
QC5
%ENDBLOCK SPECIES_POT

SNAP_TO_SYMMETRY
SYMMETRY_GENERATE

