#              Generated by Buildcell
#
# at 18:18:18 (GMT+1.0) 18th August 2020
# in /lustre/scratch/uccabz1/launch_tmp
# on node-c12k-033
# by uccabz1
#
# compiler GCC version 4.9.2
# options -cpp -iprefix /lustre/shared/ucl/apps/gcc/4.9.2/bin/../lib/gcc/x86_64-unknown-linux-gnu/4.9.2/ -mtune=corei7 -march=x86-64 -g -Og
#
# seed  -729321610 -1765895960 -1165687363  2095150991  1085530405   -27059113  1632321815 -1442442336    47424927 -1891098337 -1721181973   339711976
#
#      Author: C. J. Pickard (cjp20@cam.ac.uk)
#                Space group: P-1
#

%BLOCK LATTICE_ABC
      4.12227      5.48003      8.95570
     85.76093     82.45141     88.91484
%ENDBLOCK LATTICE_ABC

%BLOCK POSITIONS_FRAC
  Li   0.2744276  -0.2635414  -0.3614189 SPIN=   0.00000
  Li  -0.2744276   0.2635414   0.3614189 SPIN=   0.00000
  Fe   0.2347332   0.2445315   0.0758792 SPIN=   4.00000
  Fe  -0.2347332  -0.2445315  -0.0758792 SPIN=   4.00000
   O   0.2404644  -0.0014318   0.4082753 SPIN=   0.00000
   O   0.2511189  -0.4539536   0.4387733 SPIN=   0.00000
   O   0.3280813  -0.2421485   0.1829951 SPIN=   0.00000
   O  -0.2150816  -0.2377639   0.3378841 SPIN=   0.00000
   S   0.1511457  -0.2338245   0.3419819 SPIN=   0.00000
   O  -0.2404644   0.0014318  -0.4082753 SPIN=   0.00000
   O  -0.2511189   0.4539536  -0.4387733 SPIN=   0.00000
   O  -0.3280813   0.2421485  -0.1829951 SPIN=   0.00000
   O   0.2150816   0.2377639  -0.3378841 SPIN=   0.00000
   S  -0.1511457   0.2338245  -0.3419819 SPIN=   0.00000
   F   0.2884909  -0.2894809  -0.1532831 SPIN=   0.00000
   F  -0.2884909   0.2894809   0.1532831 SPIN=   0.00000
%ENDBLOCK POSITIONS_FRAC

# Note: total spin =   8.00

KPOINTS_MP_SPACING 0.07

%BLOCK SPECIES_POT
QC5
%ENDBLOCK SPECIES_POT

SNAP_TO_SYMMETRY
SYMMETRY_GENERATE

