#              Generated by Buildcell
#
# at 22:08:06 (GMT+1.0) 18th August 2020
# in /lustre/scratch/uccabz1/launch_tmp
# on node-c12b-010
# by uccabz1
#
# compiler GCC version 4.9.2
# options -cpp -iprefix /lustre/shared/ucl/apps/gcc/4.9.2/bin/../lib/gcc/x86_64-unknown-linux-gnu/4.9.2/ -mtune=corei7 -march=x86-64 -g -Og
#
# seed -2126252044   -43511464   968636135   -30342415 -2066563119  1011375759   -10882640  2026329466   402211625  1976108532  1915659383    96849922
#
#      Author: C. J. Pickard (cjp20@cam.ac.uk)
#                Space group: Cc
#

%BLOCK LATTICE_ABC
      4.58421      7.04399      7.04399
     94.82065    108.56644    108.56644
%ENDBLOCK LATTICE_ABC

%BLOCK POSITIONS_FRAC
  Li  -0.1156665  -0.0204030  -0.3124905 SPIN=   0.00000
  Li  -0.6156665  -0.3124905  -0.0204030 SPIN=   0.00000
  Fe  -0.1265049  -0.3801594   0.3288530 SPIN=   4.00000
  Fe   0.3734951   0.3288530  -0.3801594 SPIN=   4.00000
   O  -0.1442693   0.3739535  -0.1640749 SPIN=   0.00000
   O   0.1506504   0.4469838   0.2109415 SPIN=   0.00000
   O   0.3910601   0.3279566  -0.0222334 SPIN=   0.00000
   O  -0.1080084   0.0896299   0.0145897 SPIN=   0.00000
   S   0.0723582   0.3096310   0.0098057 SPIN=   0.00000
   O   0.3557307  -0.1640749   0.3739535 SPIN=   0.00000
   O   0.6506504   0.2109415   0.4469838 SPIN=   0.00000
   O   0.8910601  -0.0222334   0.3279566 SPIN=   0.00000
   O   0.3919916   0.0145897   0.0896299 SPIN=   0.00000
   S   0.5723582   0.0098057   0.3096310 SPIN=   0.00000
   F  -0.2079941  -0.2960772  -0.0065422 SPIN=   0.00000
   F  -0.7079941  -0.0065422  -0.2960772 SPIN=   0.00000
%ENDBLOCK POSITIONS_FRAC

# Note: total spin =   8.00

KPOINTS_MP_SPACING 0.07

%BLOCK SPECIES_POT
QC5
%ENDBLOCK SPECIES_POT

SNAP_TO_SYMMETRY
SYMMETRY_GENERATE

