#              Generated by Buildcell
#
# at 04:14:31 (GMT+1.0) 4th August 2020
# in /lustre/scratch/uccabz1/launch_tmp
# on node-c12n-033
# by uccabz1
#
# compiler GCC version 4.9.2
# options -cpp -iprefix /lustre/shared/ucl/apps/gcc/4.9.2/bin/../lib/gcc/x86_64-unknown-linux-gnu/4.9.2/ -mtune=corei7 -march=x86-64 -g -Og
#
# seed -1223410975  2002340308  -112587802 -1735096991  -862695676  -939455331  -905784778 -2103254395  1313045825  1435048853 -1513428009  -605969544
#
#      Author: C. J. Pickard (cjp20@cam.ac.uk)
#                Space group: Cm
#

%BLOCK LATTICE_ABC
      3.84227      7.22730      7.22730
     94.12268     91.64285     91.64285
%ENDBLOCK LATTICE_ABC

%BLOCK POSITIONS_FRAC
  Li   0.1177870   0.0815803   0.0815803 SPIN=   0.00000
  Li   0.1121125  -0.4465184  -0.4465184 SPIN=   0.00000
  Fe  -0.3834938  -0.1894311   0.3778392 SPIN=   4.00000
  Fe  -0.3834938   0.3778392  -0.1894311 SPIN=   4.00000
   O  -0.3074681   0.6069685  -0.0039737 SPIN=   0.00000
   O  -0.3463158   0.5298273   0.3230740 SPIN=   0.00000
   O   0.1810354   0.4538275   0.1476873 SPIN=   0.00000
   O  -0.3738055   0.2791704   0.0706080 SPIN=   0.00000
   O  -0.3074681  -0.0039737   0.6069685 SPIN=   0.00000
   O  -0.3463158   0.3230740   0.5298273 SPIN=   0.00000
   O   0.1810354   0.1476873   0.4538275 SPIN=   0.00000
   O  -0.3738055   0.0706080   0.2791704 SPIN=   0.00000
   S  -0.4104558  -0.1599012  -0.1599012 SPIN=   0.00000
   S  -0.4828261   0.3248727   0.3248727 SPIN=   0.00000
   F   0.1114921   0.2721240  -0.1908406 SPIN=   0.00000
   F   0.1114921  -0.1908406   0.2721240 SPIN=   0.00000
%ENDBLOCK POSITIONS_FRAC

# Note: total spin =   8.00

KPOINTS_MP_SPACING 0.07

%BLOCK SPECIES_POT
QC5
%ENDBLOCK SPECIES_POT

SNAP_TO_SYMMETRY
SYMMETRY_GENERATE

