#              Generated by Buildcell
#
# at 19:17:07 (GMT+1.0) 18th August 2020
# in /lustre/scratch/uccabz1/launch_tmp
# on node-c12k-027
# by uccabz1
#
# compiler GCC version 4.9.2
# options -cpp -iprefix /lustre/shared/ucl/apps/gcc/4.9.2/bin/../lib/gcc/x86_64-unknown-linux-gnu/4.9.2/ -mtune=corei7 -march=x86-64 -g -Og
#
# seed -1582049120  1273360525 -1166737777  1470087857  1785477405   977268567   -19660617  -154333485 -1537117134   585263425    22635845   593338551
#
#      Author: C. J. Pickard (cjp20@cam.ac.uk)
#                Space group: Cc
#

%BLOCK LATTICE_ABC
      3.88445      6.70331      8.48371
    113.27030     98.95428     90.00000
%ENDBLOCK LATTICE_ABC

%BLOCK POSITIONS_FRAC
  Li  -0.1182341  -0.3456276  -0.1784377 SPIN=   0.00000
  Li   0.3817659   0.1671900  -0.1784377 SPIN=   0.00000
  Fe   0.2325288  -0.1482908   0.1865826 SPIN=   4.00000
  Fe  -0.2674712   0.3348734   0.1865826 SPIN=   4.00000
   O  -0.2569770   0.1953029  -0.3268531 SPIN=   0.00000
   O  -0.4056919  -0.1411680  -0.5946488 SPIN=   0.00000
   O   0.1410447  -0.1045516  -0.3888977 SPIN=   0.00000
   O   0.0821003   0.1147350  -0.5664714 SPIN=   0.00000
   S  -0.1098810   0.0160796  -0.4692177 SPIN=   0.00000
   O   0.2430230  -0.5221561  -0.3268531 SPIN=   0.00000
   O   0.0943081  -0.4534808  -0.5946488 SPIN=   0.00000
   O   0.6410447  -0.2843461  -0.3888977 SPIN=   0.00000
   O   0.5821003  -0.6812063  -0.5664714 SPIN=   0.00000
   S   0.3901190  -0.4852973  -0.4692177 SPIN=   0.00000
   F  -0.3676526  -0.2558233   0.0251819 SPIN=   0.00000
   F   0.1323474   0.2810052   0.0251819 SPIN=   0.00000
%ENDBLOCK POSITIONS_FRAC

# Note: total spin =   8.00

KPOINTS_MP_SPACING 0.07

%BLOCK SPECIES_POT
QC5
%ENDBLOCK SPECIES_POT

SNAP_TO_SYMMETRY
SYMMETRY_GENERATE

