#              Generated by Buildcell
#
# at 01:11:49 (GMT+1.0) 19th August 2020
# in /lustre/scratch/uccabz1/launch_tmp
# on node-c12a-025
# by uccabz1
#
# compiler GCC version 4.9.2
# options -cpp -iprefix /lustre/shared/ucl/apps/gcc/4.9.2/bin/../lib/gcc/x86_64-unknown-linux-gnu/4.9.2/ -mtune=corei7 -march=x86-64 -g -Og
#
# seed   824123757  2023304294 -2107474611  -126286750 -1744702637 -2050737133 -1437561683  -878228068 -1096188788  -586817788  -256355841 -1272307603
#
#      Author: C. J. Pickard (cjp20@cam.ac.uk)
#                Space group: P21
#

%BLOCK LATTICE_ABC
      5.75182      5.83575      6.43230
     90.00000     90.00000    112.13163
%ENDBLOCK LATTICE_ABC

%BLOCK POSITIONS_FRAC
  Li   0.3170229   0.3914483   0.1008954 SPIN=   0.00000
  Li  -0.3170229  -0.3914483  -0.3991046 SPIN=   0.00000
  Fe  -0.1154879  -0.2117013   0.0759432 SPIN=   4.00000
  Fe   0.1154879   0.2117013  -0.4240568 SPIN=   4.00000
   O  -0.2975934   0.0902698   0.0637758 SPIN=   0.00000
   O  -0.6584667   0.1185466  -0.1286027 SPIN=   0.00000
   O  -0.2975934   0.0902699  -0.3209813 SPIN=   0.00000
   O  -0.2503107   0.4725521  -0.1286027 SPIN=   0.00000
   S  -0.3759911   0.1929096  -0.1286027 SPIN=   0.00000
   O   0.2975934  -0.0902698   0.5637758 SPIN=   0.00000
   O   0.6584667  -0.1185466   0.3713973 SPIN=   0.00000
   O   0.2975934  -0.0902699   0.1790187 SPIN=   0.00000
   O   0.2503107  -0.4725521   0.3713973 SPIN=   0.00000
   S   0.3759911  -0.1929096   0.3713973 SPIN=   0.00000
   F   0.2635703  -0.4419446  -0.1286027 SPIN=   0.00000
   F  -0.2635703   0.4419446   0.3713973 SPIN=   0.00000
%ENDBLOCK POSITIONS_FRAC

# Note: total spin =   8.00

KPOINTS_MP_SPACING 0.07

%BLOCK SPECIES_POT
QC5
%ENDBLOCK SPECIES_POT

SNAP_TO_SYMMETRY
SYMMETRY_GENERATE

