#              Generated by Buildcell
#
# at 03:08:43 (GMT+1.0) 4th August 2020
# in /lustre/scratch/uccabz1/launch_tmp
# on node-c12f-011
# by uccabz1
#
# compiler GCC version 4.9.2
# options -cpp -iprefix /lustre/shared/ucl/apps/gcc/4.9.2/bin/../lib/gcc/x86_64-unknown-linux-gnu/4.9.2/ -mtune=corei7 -march=x86-64 -g -Og
#
# seed -1434820350  1043515767 -1777711277 -1454404736 -1356937424  -486803760   -59115528  1573995663 -1420730277  -650847677  1688099577   636891749
#
#      Author: C. J. Pickard (cjp20@cam.ac.uk)
#                Space group: Cc
#

%BLOCK LATTICE_ABC
      5.61767      6.37259      6.37259
    118.50462     92.02246     92.02246
%ENDBLOCK LATTICE_ABC

%BLOCK POSITIONS_FRAC
  Li  -0.4643981   0.6323837   0.3564767 SPIN=   0.00000
  Li   0.0356019  -0.6435233  -0.3676163 SPIN=   0.00000
  Fe  -0.2021373   0.0596650  -0.1634675 SPIN=   4.00000
  Fe   0.2978627  -0.1634675   0.0596650 SPIN=   4.00000
   O  -0.2333905  -0.8539192  -0.6273803 SPIN=   0.00000
   O  -0.6695910  -0.8118723  -0.6307650 SPIN=   0.00000
   O  -0.3955853  -0.4582315  -0.3836095 SPIN=   0.00000
   O  -0.4524662  -0.7766339  -0.2695839 SPIN=   0.00000
   S  -0.4377582  -0.7251642  -0.4778347 SPIN=   0.00000
   O   0.2666095   0.3726197   0.1460808 SPIN=   0.00000
   O  -0.1695910   0.3692350   0.1881277 SPIN=   0.00000
   O   0.1044147   0.6163905   0.5417685 SPIN=   0.00000
   O   0.0475338   0.7304161   0.2233661 SPIN=   0.00000
   S   0.0622418   0.5221653   0.2748358 SPIN=   0.00000
   F   0.0635276   0.1017472  -0.3050582 SPIN=   0.00000
   F  -0.4364724  -0.3050582   0.1017472 SPIN=   0.00000
%ENDBLOCK POSITIONS_FRAC

# Note: total spin =   8.00

KPOINTS_MP_SPACING 0.07

%BLOCK SPECIES_POT
QC5
%ENDBLOCK SPECIES_POT

SNAP_TO_SYMMETRY
SYMMETRY_GENERATE

