#              Generated by Buildcell
#
# at 02:14:09 (GMT+1.0) 19th August 2020
# in /scratch/scratch/uccabz1/launch_tmp
# on node-k10h-025
# by uccabz1
#
# compiler GCC version 4.9.2
# options -cpp -iprefix /scratch/UCL/applications/gcc/4.9.2/bin/../lib/gcc/x86_64-unknown-linux-gnu/4.9.2/ -mtune=corei7 -march=x86-64 -g -O2
#
# seed -1882460211  -106527663 -1671270596   850676882  1613862932  -519245157 -1805205715  1337514508  1408155652 -1127086816  -754881140  1463570823
#
#      Author: C. J. Pickard (cjp20@cam.ac.uk)
#                Space group: Pnc2
#

%BLOCK LATTICE_ABC
      3.86211      4.77625     10.84222
     90.00000     90.00000     90.00000
%ENDBLOCK LATTICE_ABC

%BLOCK POSITIONS_FRAC
  Li   0.5000000  -0.5000000   0.0711913 SPIN=   0.00000
  Li   0.5000000   0.0000000  -0.4288087 SPIN=   0.00000
  Fe   0.5000000   0.0000000  -0.0932026 SPIN=   4.00000
  Fe   0.5000000  -0.5000000   0.4067974 SPIN=   4.00000
   O   0.2290862   0.3359626  -0.3570589 SPIN=   0.00000
   O  -0.2849715   0.2176721  -0.2311298 SPIN=   0.00000
   O  -0.2290862  -0.3359626  -0.3570589 SPIN=   0.00000
   O   0.2849715  -0.2176721  -0.2311298 SPIN=   0.00000
   O   0.2290862   0.1640374   0.1429411 SPIN=   0.00000
   O  -0.2849715   0.2823279   0.2688702 SPIN=   0.00000
   O  -0.2290862  -0.1640374   0.1429411 SPIN=   0.00000
   O   0.2849715  -0.2823279   0.2688702 SPIN=   0.00000
   S  -0.5000000   0.0000000   0.2051303 SPIN=   0.00000
   S   0.5000000  -0.5000000  -0.2948697 SPIN=   0.00000
   F   0.0000000  -0.5000000  -0.0340659 SPIN=   0.00000
   F   0.0000000   0.0000000   0.4659341 SPIN=   0.00000
%ENDBLOCK POSITIONS_FRAC

# Note: total spin =   8.00

KPOINTS_MP_SPACING 0.07

%BLOCK SPECIES_POT
QC5
%ENDBLOCK SPECIES_POT

SNAP_TO_SYMMETRY
SYMMETRY_GENERATE

