#              Generated by Buildcell
#
# at 21:37:24 (GMT+1.0) 18th August 2020
# in /lustre/scratch/uccabz1/launch_tmp
# on node-c12l-030
# by uccabz1
#
# compiler GCC version 4.9.2
# options -cpp -iprefix /lustre/shared/ucl/apps/gcc/4.9.2/bin/../lib/gcc/x86_64-unknown-linux-gnu/4.9.2/ -mtune=corei7 -march=x86-64 -g -Og
#
# seed -2035010282  1323224968    80897493   575829021  1438580501  1498119168 -1186197673  -105344256  1372173186 -1911243050 -1627885845   346869543
#
#      Author: C. J. Pickard (cjp20@cam.ac.uk)
#                Space group: Pc
#

%BLOCK LATTICE_ABC
      4.02356      5.00181      9.97199
     90.00000     90.00000     94.74198
%ENDBLOCK LATTICE_ABC

%BLOCK POSITIONS_FRAC
  Li  -0.5438433  -0.2903159  -0.1501655 SPIN=   0.00000
  Li  -0.0438433   0.2096841   0.1501655 SPIN=   0.00000
  Fe  -0.0919687   0.2396087  -0.1586680 SPIN=   4.00000
  Fe  -0.5919687  -0.2603913   0.1586680 SPIN=   4.00000
   O  -0.0686030  -0.2323668  -0.5236147 SPIN=   0.00000
   O  -0.5059386  -0.2708245  -0.3485501 SPIN=   0.00000
   O   0.0439591  -0.0318343  -0.2996281 SPIN=   0.00000
   O  -0.0067627  -0.5253622  -0.3267194 SPIN=   0.00000
   S  -0.1343363  -0.2650970  -0.3746281 SPIN=   0.00000
   O   0.4313970   0.2676332   0.5236147 SPIN=   0.00000
   O  -0.0059386   0.2291755   0.3485501 SPIN=   0.00000
   O   0.5439591   0.4681657   0.2996281 SPIN=   0.00000
   O   0.4932373  -0.0253622   0.3267194 SPIN=   0.00000
   S   0.3656637   0.2349030   0.3746281 SPIN=   0.00000
   F  -0.1087186  -0.2505545   0.1307569 SPIN=   0.00000
   F   0.3912814   0.2494455  -0.1307569 SPIN=   0.00000
%ENDBLOCK POSITIONS_FRAC

# Note: total spin =   8.00

KPOINTS_MP_SPACING 0.07

%BLOCK SPECIES_POT
QC5
%ENDBLOCK SPECIES_POT

SNAP_TO_SYMMETRY
SYMMETRY_GENERATE

