#              Generated by Buildcell
#
# at 17:50:01 (GMT+1.0) 18th August 2020
# in /lustre/scratch/uccabz1/launch_tmp
# on node-c12f-008
# by uccabz1
#
# compiler GCC version 4.9.2
# options -cpp -iprefix /lustre/shared/ucl/apps/gcc/4.9.2/bin/../lib/gcc/x86_64-unknown-linux-gnu/4.9.2/ -mtune=corei7 -march=x86-64 -g -Og
#
# seed -1084272518  2002142566  -661087505 -1832786628  -120551874   719664444  -580954884    50741268  -310386299   -83902392   313373084  1780371297
#
#      Author: C. J. Pickard (cjp20@cam.ac.uk)
#                Space group: Pc
#

%BLOCK LATTICE_ABC
      4.02590      6.75927      7.45497
     90.00000     99.64190     90.00000
%ENDBLOCK LATTICE_ABC

%BLOCK POSITIONS_FRAC
  Li  -0.2794717   0.2304259   0.2651142 SPIN=   0.00000
  Li   0.2205283  -0.2304259   0.2651142 SPIN=   0.00000
  Fe  -0.0766673  -0.2721412  -0.3793566 SPIN=   4.00000
  Fe   0.4233327   0.2721412  -0.3793566 SPIN=   4.00000
   O  -0.2823029  -0.0679052  -0.0651325 SPIN=   0.00000
   O  -0.2495200  -0.2947274   0.1978512 SPIN=   0.00000
   O  -0.3052138  -0.4301120  -0.1142065 SPIN=   0.00000
   O  -0.7860797  -0.2568833  -0.0162905 SPIN=   0.00000
   S  -0.4057791  -0.2624070   0.0005554 SPIN=   0.00000
   O   0.2176971   0.0679052  -0.0651325 SPIN=   0.00000
   O   0.2504800   0.2947274   0.1978512 SPIN=   0.00000
   O   0.1947862   0.4301120  -0.1142065 SPIN=   0.00000
   O  -0.2860797   0.2568833  -0.0162905 SPIN=   0.00000
   S   0.0942209   0.2624070   0.0005554 SPIN=   0.00000
   F  -0.1663896   0.2573676  -0.4761198 SPIN=   0.00000
   F   0.3336104  -0.2573676  -0.4761198 SPIN=   0.00000
%ENDBLOCK POSITIONS_FRAC

# Note: total spin =   8.00

KPOINTS_MP_SPACING 0.07

%BLOCK SPECIES_POT
QC5
%ENDBLOCK SPECIES_POT

SNAP_TO_SYMMETRY
SYMMETRY_GENERATE

