#              Generated by Buildcell
#
# at 04:08:19 (GMT+1.0) 4th August 2020
# in /lustre/scratch/uccabz1/launch_tmp
# on node-c12n-009
# by uccabz1
#
# compiler GCC version 4.9.2
# options -cpp -iprefix /lustre/shared/ucl/apps/gcc/4.9.2/bin/../lib/gcc/x86_64-unknown-linux-gnu/4.9.2/ -mtune=corei7 -march=x86-64 -g -Og
#
# seed -1921982250   672407880 -2049800406  1075050126  -181127541  -118374356 -1723412767 -1070931951 -1745791551   207123977   755481837  -874342204
#
#      Author: C. J. Pickard (cjp20@cam.ac.uk)
#                Space group: Pc
#

%BLOCK LATTICE_ABC
      5.45665      5.52251      6.98836
     90.00000    108.24771     90.00000
%ENDBLOCK LATTICE_ABC

%BLOCK POSITIONS_FRAC
  Li  -0.1885887   0.1307203   0.0875486 SPIN=   0.00000
  Li   0.3114113  -0.1307203  -0.4124514 SPIN=   0.00000
  Fe   0.0213861   0.3808324  -0.4974469 SPIN=   4.00000
  Fe  -0.4786139  -0.3808324   0.0025531 SPIN=   4.00000
   O   0.1457661  -0.2416545  -0.0870982 SPIN=   0.00000
   O  -0.0281369   0.1746778  -0.1529108 SPIN=   0.00000
   O  -0.3262526  -0.1737227  -0.1985345 SPIN=   0.00000
   O  -0.0787196  -0.1094263  -0.4365792 SPIN=   0.00000
   S  -0.0718358  -0.0875314  -0.2187807 SPIN=   0.00000
   O   0.6457661   0.2416545   0.4129018 SPIN=   0.00000
   O   0.4718631  -0.1746778   0.3470892 SPIN=   0.00000
   O   0.1737474   0.1737227   0.3014655 SPIN=   0.00000
   O   0.4212804   0.1094263   0.0634208 SPIN=   0.00000
   S   0.4281642   0.0875314   0.2812193 SPIN=   0.00000
   F  -0.1386773  -0.3612731   0.1990271 SPIN=   0.00000
   F   0.3613227   0.3612731  -0.3009729 SPIN=   0.00000
%ENDBLOCK POSITIONS_FRAC

# Note: total spin =   8.00

KPOINTS_MP_SPACING 0.07

%BLOCK SPECIES_POT
QC5
%ENDBLOCK SPECIES_POT

SNAP_TO_SYMMETRY
SYMMETRY_GENERATE

