#              Generated by Buildcell
#
# at 17:38:07 (GMT+1.0) 18th August 2020
# in /scratch/scratch/uccabz1/launch_tmp
# on node-k10d-030
# by uccabz1
#
# compiler GCC version 4.9.2
# options -cpp -iprefix /scratch/UCL/applications/gcc/4.9.2/bin/../lib/gcc/x86_64-unknown-linux-gnu/4.9.2/ -mtune=corei7 -march=x86-64 -g -O2
#
# seed   301759926  1326548240 -1005026452  1941451147  2114678863  1143664638   512704788   542055616  -494965529  1747407446   532421371   276315158
#
#      Author: C. J. Pickard (cjp20@cam.ac.uk)
#                Space group: P-1
#

%BLOCK LATTICE_ABC
      5.89400      5.90852      6.43529
    101.96429    105.92900    103.92319
%ENDBLOCK LATTICE_ABC

%BLOCK POSITIONS_FRAC
  Li  -0.5000000   0.5000000   0.5000000 SPIN=   0.00000
  Li  -0.5000000  -0.0000000  -0.0000000 SPIN=   0.00000
  Fe  -0.0000000  -0.5000000  -0.5000000 SPIN=   0.00000
  Fe   0.5000000  -0.5000000   0.0000000 SPIN=   8.00000
   O  -0.0418789   0.2947664  -0.0093581 SPIN=   0.00000
   O  -0.2069197  -0.1414402  -0.2302402 SPIN=   0.00000
   O  -0.0354653   0.1702879  -0.3988191 SPIN=   0.00000
   O  -0.4354233   0.1419059  -0.3349025 SPIN=   0.00000
   S  -0.1799218   0.1163800  -0.2433300 SPIN=   0.00000
   O   0.0418789  -0.2947664   0.0093581 SPIN=   0.00000
   O   0.2069197   0.1414402   0.2302402 SPIN=   0.00000
   O   0.0354653  -0.1702879   0.3988191 SPIN=   0.00000
   O   0.4354233  -0.1419059   0.3349025 SPIN=   0.00000
   S   0.1799218  -0.1163800   0.2433300 SPIN=   0.00000
   F  -0.3420748   0.3827541   0.2620705 SPIN=   0.00000
   F   0.3420748  -0.3827541  -0.2620705 SPIN=   0.00000
%ENDBLOCK POSITIONS_FRAC

# Note: total spin =   8.00

KPOINTS_MP_SPACING 0.07

%BLOCK SPECIES_POT
QC5
%ENDBLOCK SPECIES_POT

SNAP_TO_SYMMETRY
SYMMETRY_GENERATE

