#              Generated by Buildcell
#
# at 03:59:04 (GMT+1.0) 4th August 2020
# in /lustre/scratch/uccabz1/launch_tmp
# on node-c12k-005
# by uccabz1
#
# compiler GCC version 4.9.2
# options -cpp -iprefix /lustre/shared/ucl/apps/gcc/4.9.2/bin/../lib/gcc/x86_64-unknown-linux-gnu/4.9.2/ -mtune=corei7 -march=x86-64 -g -Og
#
# seed   758026427   357944542 -1326323080  -546376788 -1226260854 -1519011735  1780696123   864816257   594978592  1991335425   107234045 -2147215012
#
#      Author: C. J. Pickard (cjp20@cam.ac.uk)
#                Space group: P2
#

%BLOCK LATTICE_ABC
      3.92627      4.71129     10.94626
     98.97988     90.00000     90.00000
%ENDBLOCK LATTICE_ABC

%BLOCK POSITIONS_FRAC
  Li  -0.0332178  -0.6985262  -0.3548749 SPIN=   0.00000
  Li  -0.0332178   0.6985262   0.3548749 SPIN=   0.00000
  Fe   0.0737444  -0.2963063  -0.1290823 SPIN=   4.00000
  Fe   0.0737444   0.2963063   0.1290823 SPIN=   4.00000
   O  -0.0721176   0.2170389   0.4095036 SPIN=   0.00000
   O  -0.6188341   0.4730929   0.3981831 SPIN=   0.00000
   O  -0.6149501  -0.0531038   0.3956124 SPIN=   0.00000
   O  -0.4026064   0.1496808   0.2145948 SPIN=   0.00000
   S  -0.4271270   0.1966772   0.3544735 SPIN=   0.00000
   O  -0.0721176  -0.2170389  -0.4095036 SPIN=   0.00000
   O  -0.6188341  -0.4730929  -0.3981831 SPIN=   0.00000
   O  -0.6149501   0.0531038  -0.3956124 SPIN=   0.00000
   O  -0.4026064  -0.1496808  -0.2145948 SPIN=   0.00000
   S  -0.4271270  -0.1966772  -0.3544735 SPIN=   0.00000
   F   0.0945683  -0.3058652   0.1600341 SPIN=   0.00000
   F   0.0945683   0.3058652  -0.1600341 SPIN=   0.00000
%ENDBLOCK POSITIONS_FRAC

# Note: total spin =   8.00

KPOINTS_MP_SPACING 0.07

%BLOCK SPECIES_POT
QC5
%ENDBLOCK SPECIES_POT

SNAP_TO_SYMMETRY
SYMMETRY_GENERATE

