#              Generated by Buildcell
#
# at 02:02:11 (GMT+1.0) 19th August 2020
# in /scratch/scratch/uccabz1/launch_tmp
# on node-k10e-014
# by uccabz1
#
# compiler GCC version 4.9.2
# options -cpp -iprefix /scratch/UCL/applications/gcc/4.9.2/bin/../lib/gcc/x86_64-unknown-linux-gnu/4.9.2/ -mtune=corei7 -march=x86-64 -g -O2
#
# seed  -822785900  -351763407  2111130757  1695329673 -1104297455 -1642914772  -932486861 -1650754620  -570488320  -895390447  1055518563  1771301064
#
#      Author: C. J. Pickard (cjp20@cam.ac.uk)
#                Space group: Cm
#

%BLOCK LATTICE_ABC
      3.91807      7.27107      7.27107
     75.63007     86.32553     86.32553
%ENDBLOCK LATTICE_ABC

%BLOCK POSITIONS_FRAC
  Li  -0.1603555  -0.3948951  -0.3948951 SPIN=   0.00000
  Li  -0.2969405   0.2845131   0.2845131 SPIN=   0.00000
  Fe   0.2975888  -0.0539237  -0.4598988 SPIN=   4.00000
  Fe   0.2975888  -0.4598988  -0.0539237 SPIN=   4.00000
   O  -0.2630186   0.2893760  -0.4117340 SPIN=   0.00000
   O  -0.2982374   0.3657976  -0.0975894 SPIN=   0.00000
   O   0.2401958   0.2242248  -0.2120780 SPIN=   0.00000
   S  -0.1471845   0.2274060  -0.2097394 SPIN=   0.00000
   O  -0.2630186  -0.4117340   0.2893760 SPIN=   0.00000
   O  -0.2982374  -0.0975894   0.3657976 SPIN=   0.00000
   O   0.2401958  -0.2120780   0.2242248 SPIN=   0.00000
   S  -0.1471845  -0.2097394   0.2274060 SPIN=   0.00000
   O   0.4774846  -0.0675057  -0.0675057 SPIN=   0.00000
   O   0.2726263   0.4876263   0.4876263 SPIN=   0.00000
   F   0.0799890  -0.2663016  -0.2663016 SPIN=   0.00000
   F   0.2710215   0.2381774   0.2381774 SPIN=   0.00000
%ENDBLOCK POSITIONS_FRAC

# Note: total spin =   8.00

KPOINTS_MP_SPACING 0.07

%BLOCK SPECIES_POT
QC5
%ENDBLOCK SPECIES_POT

SNAP_TO_SYMMETRY
SYMMETRY_GENERATE

