#              Generated by Buildcell
#
# at 02:07:32 (GMT+1.0) 4th August 2020
# in /lustre/scratch/uccabz1/launch_tmp
# on node-c12n-009
# by uccabz1
#
# compiler GCC version 4.9.2
# options -cpp -iprefix /lustre/shared/ucl/apps/gcc/4.9.2/bin/../lib/gcc/x86_64-unknown-linux-gnu/4.9.2/ -mtune=corei7 -march=x86-64 -g -Og
#
# seed   944428443     4660767   378401106  -370240932  1133577610  1563118933  1441106949  -568342507 -1327234786    57231208 -1350605282   562750180
#
#      Author: C. J. Pickard (cjp20@cam.ac.uk)
#                Space group: Pma2
#

%BLOCK LATTICE_ABC
      4.07429      6.08723      8.06415
     90.00000     90.00000     90.00000
%ENDBLOCK LATTICE_ABC

%BLOCK POSITIONS_FRAC
  Li   0.2053788   0.1505881  -0.2500000 SPIN=   0.00000
  Li   0.2053788  -0.1505881   0.2500000 SPIN=   0.00000
  Fe  -0.2951496  -0.1953274  -0.2500000 SPIN=   4.00000
  Fe  -0.2951496   0.1953274   0.2500000 SPIN=   4.00000
   O  -0.0601523   0.6082580   0.1109603 SPIN=   0.00000
   O   0.1898542   0.2377248   0.1121055 SPIN=   0.00000
   O  -0.0601523  -0.6082580  -0.1109603 SPIN=   0.00000
   O   0.1898542  -0.2377248  -0.1121055 SPIN=   0.00000
   O  -0.0601523  -0.6082580  -0.3890397 SPIN=   0.00000
   O   0.1898542  -0.2377248  -0.3878945 SPIN=   0.00000
   O  -0.0601523   0.6082580   0.3890397 SPIN=   0.00000
   O   0.1898542   0.2377248   0.3878945 SPIN=   0.00000
   S   0.2155578   0.5000000  -0.0000000 SPIN=   0.00000
   S   0.2155578   0.5000000   0.5000000 SPIN=   0.00000
   F  -0.2844423   0.0000000  -0.0000000 SPIN=   0.00000
   F  -0.2844423   0.0000000   0.5000000 SPIN=   0.00000
%ENDBLOCK POSITIONS_FRAC

# Note: total spin =   8.00

KPOINTS_MP_SPACING 0.07

%BLOCK SPECIES_POT
QC5
%ENDBLOCK SPECIES_POT

SNAP_TO_SYMMETRY
SYMMETRY_GENERATE

