#              Generated by Buildcell
#
# at 05:33:05 (GMT+1.0) 4th August 2020
# in /lustre/scratch/uccabz1/launch_tmp
# on node-c12d-013
# by uccabz1
#
# compiler GCC version 4.9.2
# options -cpp -iprefix /lustre/shared/ucl/apps/gcc/4.9.2/bin/../lib/gcc/x86_64-unknown-linux-gnu/4.9.2/ -mtune=corei7 -march=x86-64 -g -Og
#
# seed  1586170143  1619619344  1841060963  -465827670  -516658367  -926534427   142985363 -1426895743  -848380447 -1259120861  -850705213   447672252
#
#      Author: C. J. Pickard (cjp20@cam.ac.uk)
#                Space group: P2
#

%BLOCK LATTICE_ABC
      4.09674      6.80139      7.22339
     96.43809     90.00000     90.00000
%ENDBLOCK LATTICE_ABC

%BLOCK POSITIONS_FRAC
  Li   0.1868868   0.1272968   0.2763206 SPIN=   0.00000
  Li   0.1868868  -0.1272968  -0.2763206 SPIN=   0.00000
  Fe   0.2195014  -0.5000000   0.0000000 SPIN=   6.68627
  Fe  -0.4694549  -0.5000000  -0.5000000 SPIN=   1.31373
   O  -0.3126372  -0.0817461  -0.2498696 SPIN=   0.00000
   O  -0.5662522   0.2083829  -0.0675473 SPIN=   0.00000
   O  -0.4042118   0.2262125  -0.3953072 SPIN=   0.00000
   S  -0.3160890   0.1422289  -0.2161632 SPIN=   0.00000
   O  -0.3126372   0.0817461   0.2498696 SPIN=   0.00000
   O  -0.5662522  -0.2083829   0.0675473 SPIN=   0.00000
   O  -0.4042118  -0.2262125   0.3953072 SPIN=   0.00000
   S  -0.3160890  -0.1422289   0.2161632 SPIN=   0.00000
   O  -0.2817845  -0.5000000   0.0000000 SPIN=   0.00000
   O  -0.0069711  -0.0000000   0.5000000 SPIN=   0.00000
   F   0.1920169  -0.4145519  -0.2409735 SPIN=   0.00000
   F   0.1920169   0.4145519   0.2409735 SPIN=   0.00000
%ENDBLOCK POSITIONS_FRAC

# Note: total spin =   8.00

KPOINTS_MP_SPACING 0.07

%BLOCK SPECIES_POT
QC5
%ENDBLOCK SPECIES_POT

SNAP_TO_SYMMETRY
SYMMETRY_GENERATE

