#              Generated by Buildcell
#
# at 05:43:27 (GMT+1.0) 4th August 2020
# in /lustre/scratch/uccabz1/launch_tmp
# on node-c12a-017
# by uccabz1
#
# compiler GCC version 4.9.2
# options -cpp -iprefix /lustre/shared/ucl/apps/gcc/4.9.2/bin/../lib/gcc/x86_64-unknown-linux-gnu/4.9.2/ -mtune=corei7 -march=x86-64 -g -Og
#
# seed -2091767456 -1702979551  1429977632 -1483894573 -1954355809 -1186757845  -797498957  -565588200  2146560727  1373806442   906524008 -1353442711
#
#      Author: C. J. Pickard (cjp20@cam.ac.uk)
#                Space group: C2
#

%BLOCK LATTICE_ABC
      5.48769      6.51959      6.51959
    109.68011    103.76653    103.76653
%ENDBLOCK LATTICE_ABC

%BLOCK POSITIONS_FRAC
  Li  -0.5000000   0.2078022  -0.2078022 SPIN=   0.00000
  Li  -0.0000000   0.6074780   0.3925220 SPIN=   0.00000
  Fe   0.1488610  -0.3312188  -0.0455521 SPIN=   4.00000
  Fe  -0.1488610   0.0455521   0.3312188 SPIN=   4.00000
   O   0.3504636   0.4368122   0.0758621 SPIN=   0.00000
   O   0.6587303   0.2804446   0.2668679 SPIN=   0.00000
   O   0.2168149   0.0143564  -0.0286079 SPIN=   0.00000
   S   0.3679372   0.2539195   0.1676568 SPIN=   0.00000
   O  -0.3504636  -0.0758621  -0.4368122 SPIN=   0.00000
   O  -0.6587303  -0.2668679  -0.2804446 SPIN=   0.00000
   O  -0.2168149   0.0286079  -0.0143564 SPIN=   0.00000
   S  -0.3679372  -0.1676568  -0.2539195 SPIN=   0.00000
   O  -0.5000000  -0.5958339  -0.4041661 SPIN=   0.00000
   O   0.0000000  -0.6112103  -0.3887897 SPIN=   0.00000
   F  -0.1255467   0.4577433  -0.0112696 SPIN=   0.00000
   F  -0.8744533   0.0112696  -0.4577433 SPIN=   0.00000
%ENDBLOCK POSITIONS_FRAC

# Note: total spin =   8.00

KPOINTS_MP_SPACING 0.07

%BLOCK SPECIES_POT
QC5
%ENDBLOCK SPECIES_POT

SNAP_TO_SYMMETRY
SYMMETRY_GENERATE

