#              Generated by Buildcell
#
# at 01:41:32 (GMT+1.0) 4th August 2020
# in /lustre/scratch/uccabz1/launch_tmp
# on node-c12f-034
# by uccabz1
#
# compiler GCC version 4.9.2
# options -cpp -iprefix /lustre/shared/ucl/apps/gcc/4.9.2/bin/../lib/gcc/x86_64-unknown-linux-gnu/4.9.2/ -mtune=corei7 -march=x86-64 -g -Og
#
# seed  1411322388   198870779  1259739570  -811027267  1878267252  -678732665   279869204  -952089588 -1878346853  2040499496   495734160 -1946210837
#
#      Author: C. J. Pickard (cjp20@cam.ac.uk)
#                Space group: P-1
#

%BLOCK LATTICE_ABC
      4.05464      6.94317      7.60562
     74.85211     75.41731     85.54020
%ENDBLOCK LATTICE_ABC

%BLOCK POSITIONS_FRAC
  Li   1.0000000   0.5000000  -0.5000000 SPIN=   0.00000
  Li  -0.0000000  -0.5000000  -0.0000000 SPIN=   0.00000
  Fe   0.3340965   0.1928154  -0.2160851 SPIN=   4.00000
  Fe  -0.3340965  -0.1928154   0.2160851 SPIN=   4.00000
   O   0.1387104  -0.1674257  -0.5371264 SPIN=   0.00000
   O  -0.1311355  -0.2209561  -0.1981208 SPIN=   0.00000
   O   0.4364971  -0.0655330  -0.3296211 SPIN=   0.00000
   S   0.2040667  -0.2194508  -0.3424174 SPIN=   0.00000
   O  -0.1387104   0.1674257   0.5371264 SPIN=   0.00000
   O   0.1311355   0.2209561   0.1981208 SPIN=   0.00000
   O  -0.4364971   0.0655330   0.3296211 SPIN=   0.00000
   S  -0.2040667   0.2194508   0.3424174 SPIN=   0.00000
   O   0.5000000   0.5000000  -0.5000000 SPIN=   0.00000
   O   0.0000000   0.0000000   0.0000000 SPIN=   0.00000
   F  -0.6776736  -0.3396238   0.1579463 SPIN=   0.00000
   F   0.6776736   0.3396238  -0.1579463 SPIN=   0.00000
%ENDBLOCK POSITIONS_FRAC

# Note: total spin =   8.00

KPOINTS_MP_SPACING 0.07

%BLOCK SPECIES_POT
QC5
%ENDBLOCK SPECIES_POT

SNAP_TO_SYMMETRY
SYMMETRY_GENERATE

