#              Generated by Buildcell
#
# at 23:42:08 (GMT+1.0) 18th August 2020
# in /scratch/scratch/uccabz1/launch_tmp
# on node-k10d-036
# by uccabz1
#
# compiler GCC version 4.9.2
# options -cpp -iprefix /scratch/UCL/applications/gcc/4.9.2/bin/../lib/gcc/x86_64-unknown-linux-gnu/4.9.2/ -mtune=corei7 -march=x86-64 -g -O2
#
# seed  1858626778 -1711401742 -2015302143  -209366675   259461312  -133910884  -374789989  1855540260  1236434224  1433980875 -1966532333 -2141962066
#
#      Author: C. J. Pickard (cjp20@cam.ac.uk)
#                Space group: Pba2
#

%BLOCK LATTICE_ABC
      5.45378      5.47322      6.70022
     90.00000     90.00000     90.00000
%ENDBLOCK LATTICE_ABC

%BLOCK POSITIONS_FRAC
  Li   0.5000000   0.0000000   0.2611523 SPIN=   0.00000
  Li  -0.0000000  -0.5000000   0.2611523 SPIN=   0.00000
  Fe  -0.0000000   0.0000000  -0.1299691 SPIN=   4.00000
  Fe   0.5000000   0.5000000  -0.1299691 SPIN=   4.00000
   O  -0.1178846  -0.1715532   0.1877490 SPIN=   0.00000
   O  -0.2932885  -0.0393462   0.5108406 SPIN=   0.00000
   O   0.1178846   0.1715532   0.1877490 SPIN=   0.00000
   O   0.2932885   0.0393462   0.5108406 SPIN=   0.00000
   O   0.3821154  -0.3284468   0.1877490 SPIN=   0.00000
   O   0.2067115  -0.4606538   0.5108406 SPIN=   0.00000
   O  -0.3821154   0.3284468   0.1877490 SPIN=   0.00000
   O  -0.2067115   0.4606538   0.5108406 SPIN=   0.00000
   S  -0.0000000   0.0000000   0.3700309 SPIN=   0.00000
   S   0.5000000   0.5000000   0.3700309 SPIN=   0.00000
   F   0.5000000   0.0000000  -0.0822063 SPIN=   0.00000
   F  -0.0000000  -0.5000000  -0.0822063 SPIN=   0.00000
%ENDBLOCK POSITIONS_FRAC

# Note: total spin =   8.00

KPOINTS_MP_SPACING 0.07

%BLOCK SPECIES_POT
QC5
%ENDBLOCK SPECIES_POT

SNAP_TO_SYMMETRY
SYMMETRY_GENERATE

