#              Generated by Buildcell
#
# at 01:59:51 (GMT+1.0) 19th August 2020
# in /lustre/scratch/uccabz1/launch_tmp
# on node-c12e-025
# by uccabz1
#
# compiler GCC version 4.9.2
# options -cpp -iprefix /lustre/shared/ucl/apps/gcc/4.9.2/bin/../lib/gcc/x86_64-unknown-linux-gnu/4.9.2/ -mtune=corei7 -march=x86-64 -g -Og
#
# seed  1173531139 -1217593107 -1315215316 -2130378573 -1501384678  1884438983  1725216021   429876146  -716769872  1661144241  1836725160   956652735
#
#      Author: C. J. Pickard (cjp20@cam.ac.uk)
#                Space group: Pc
#

%BLOCK LATTICE_ABC
      4.23202      4.96672      9.59943
     90.00000     97.60077     90.00000
%ENDBLOCK LATTICE_ABC

%BLOCK POSITIONS_FRAC
  Li  -0.0424436  -0.2663728   0.3845711 SPIN=   0.00000
  Li   0.4575564   0.2663728  -0.1154289 SPIN=   0.00000
  Fe   0.4935988   0.0740267   0.1879100 SPIN=   4.00000
  Fe  -0.0064012  -0.0740267  -0.3120900 SPIN=   4.00000
   O  -0.2981997  -0.3844609   0.1692133 SPIN=   0.00000
   O   0.2221252  -0.5915863   0.1422476 SPIN=   0.00000
   O   0.1080146  -0.1226946   0.0640011 SPIN=   0.00000
   O  -0.1699050  -0.5014991  -0.0675561 SPIN=   0.00000
   S  -0.0344912  -0.4000602   0.0769765 SPIN=   0.00000
   O   0.2018003   0.3844609  -0.3307867 SPIN=   0.00000
   O   0.7221252   0.5915863  -0.3577524 SPIN=   0.00000
   O   0.6080146   0.1226946  -0.4359989 SPIN=   0.00000
   O   0.3300950   0.5014991  -0.5675561 SPIN=   0.00000
   S   0.4655088   0.4000602  -0.4230235 SPIN=   0.00000
   F  -0.0873662   0.0961410   0.3240442 SPIN=   0.00000
   F   0.4126338  -0.0961410  -0.1759558 SPIN=   0.00000
%ENDBLOCK POSITIONS_FRAC

# Note: total spin =   8.00

KPOINTS_MP_SPACING 0.07

%BLOCK SPECIES_POT
QC5
%ENDBLOCK SPECIES_POT

SNAP_TO_SYMMETRY
SYMMETRY_GENERATE

