#              Generated by Buildcell
#
# at 05:38:54 (GMT+1.0) 4th August 2020
# in /lustre/scratch/uccabz1/launch_tmp
# on node-c12p-021
# by uccabz1
#
# compiler GCC version 4.9.2
# options -cpp -iprefix /lustre/shared/ucl/apps/gcc/4.9.2/bin/../lib/gcc/x86_64-unknown-linux-gnu/4.9.2/ -mtune=corei7 -march=x86-64 -g -Og
#
# seed  -943555858 -1756420343  1139069494 -2138292556  -170190240   987409927  -424069293   472306348  -574074074  1773875935  -928439024   806196812
#
#      Author: C. J. Pickard (cjp20@cam.ac.uk)
#                Space group: Cm
#

%BLOCK LATTICE_ABC
      3.97269      7.06906      7.95637
     63.62533     88.91422     87.55528
%ENDBLOCK LATTICE_ABC

%BLOCK POSITIONS_FRAC
  Li   0.2695269   0.4550564  -0.4153201 SPIN=   0.00000
  Li   0.2695269   0.0397363   0.4153201 SPIN=   0.00000
  Fe  -0.2393415   0.1046639  -0.2549749 SPIN=   4.00000
  Fe  -0.2393415  -0.1503110   0.2549749 SPIN=   4.00000
   O  -0.3372364  -0.5625075   0.8186507 SPIN=   0.00000
   O  -0.3114326  -0.2231842   0.8373487 SPIN=   0.00000
   O  -0.3518264  -0.2253177   0.5281806 SPIN=   0.00000
   O   0.1745218  -0.3526654   0.7130047 SPIN=   0.00000
   S  -0.2064934  -0.3409187   0.7242962 SPIN=   0.00000
   O  -0.3372364   0.2561432  -0.8186507 SPIN=   0.00000
   O  -0.3114326   0.6141645  -0.8373487 SPIN=   0.00000
   O  -0.3518264   0.3028629  -0.5281806 SPIN=   0.00000
   O   0.1745218   0.3603393  -0.7130047 SPIN=   0.00000
   S  -0.2064934   0.3833775  -0.7242962 SPIN=   0.00000
   F   0.2619408   0.0877046  -0.2552225 SPIN=   0.00000
   F   0.2619408  -0.1675180   0.2552225 SPIN=   0.00000
%ENDBLOCK POSITIONS_FRAC

# Note: total spin =   8.00

KPOINTS_MP_SPACING 0.07

%BLOCK SPECIES_POT
QC5
%ENDBLOCK SPECIES_POT

SNAP_TO_SYMMETRY
SYMMETRY_GENERATE

