#              Generated by Buildcell
#
# at 02:16:01 (GMT+1.0) 19th August 2020
# in /scratch/scratch/uccabz1/launch_tmp
# on node-k10i-030
# by uccabz1
#
# compiler GCC version 4.9.2
# options -cpp -iprefix /scratch/UCL/applications/gcc/4.9.2/bin/../lib/gcc/x86_64-unknown-linux-gnu/4.9.2/ -mtune=corei7 -march=x86-64 -g -O2
#
# seed  1509379477  1461483561  1695735048   663349062    97529381   692892250   395884026   517196573   670316431 -1643071688   451999128 -1429677524
#
#      Author: C. J. Pickard (cjp20@cam.ac.uk)
#                Space group: Cc
#

%BLOCK LATTICE_ABC
      4.70249      4.86154     10.27199
    101.64502     90.00000    118.92354
%ENDBLOCK LATTICE_ABC

%BLOCK POSITIONS_FRAC
  Li   0.0509784  -0.2935511   0.3891896 SPIN=   0.00000
  Li   0.1554705  -0.2935511  -0.1108104 SPIN=   0.00000
  Fe   0.3698783   0.1760400   0.2207930 SPIN=   4.00000
  Fe   0.3061617   0.1760400  -0.2792070 SPIN=   4.00000
   O  -0.1824026  -0.2963257  -0.3990625 SPIN=   0.00000
   O  -0.7684070  -0.6475469  -0.4846642 SPIN=   0.00000
   O  -0.3817681  -0.3109505  -0.6247013 SPIN=   0.00000
   O  -0.5306406  -0.0537009  -0.4236081 SPIN=   0.00000
   S  -0.4658046  -0.3271310  -0.4830090 SPIN=   0.00000
   O  -0.6139231  -0.2963257   0.1009375 SPIN=   0.00000
   O  -0.3791398  -0.6475469   0.0153358 SPIN=   0.00000
   O  -0.4291824  -0.3109505  -0.1247013 SPIN=   0.00000
   O  -0.0230603  -0.0537009   0.0763919 SPIN=   0.00000
   S  -0.3613264  -0.3271310   0.0169910 SPIN=   0.00000
   F  -0.0709813   0.2558451  -0.1968181 SPIN=   0.00000
   F  -0.1731735   0.2558451   0.3031819 SPIN=   0.00000
%ENDBLOCK POSITIONS_FRAC

# Note: total spin =   8.00

KPOINTS_MP_SPACING 0.07

%BLOCK SPECIES_POT
QC5
%ENDBLOCK SPECIES_POT

SNAP_TO_SYMMETRY
SYMMETRY_GENERATE

