#              Generated by Buildcell
#
# at 02:46:41 (GMT+1.0) 19th August 2020
# in /lustre/scratch/uccabz1/launch_tmp
# on node-c12e-033
# by uccabz1
#
# compiler GCC version 4.9.2
# options -cpp -iprefix /lustre/shared/ucl/apps/gcc/4.9.2/bin/../lib/gcc/x86_64-unknown-linux-gnu/4.9.2/ -mtune=corei7 -march=x86-64 -g -Og
#
# seed -1900275416  2061275388  1887566269  1714118557 -1375585188  1539286121   216353146  1183796591   793821027 -1416192664  1217162337  1974695894
#
#      Author: C. J. Pickard (cjp20@cam.ac.uk)
#                Space group: C2
#

%BLOCK LATTICE_ABC
      5.03269      5.03269      7.93122
     86.20302     86.20302     89.92100
%ENDBLOCK LATTICE_ABC

%BLOCK POSITIONS_FRAC
  Li  -0.1899968   0.1899968   0.0000000 SPIN=   0.00000
  Li  -0.2953791   0.2953791   0.5000000 SPIN=   0.00000
  Fe   0.2801808  -0.2801808  -0.5000000 SPIN=   1.78648
  Fe   0.2264096  -0.2264096   0.0000000 SPIN=   6.21352
   O  -0.2219854  -0.1383429  -0.1846882 SPIN=   0.00000
   O  -0.0345576  -0.4778999  -0.3704229 SPIN=   0.00000
   O  -0.5209102  -0.4590990  -0.3019579 SPIN=   0.00000
   S  -0.2495505  -0.4220880  -0.2344797 SPIN=   0.00000
   O   0.1383429   0.2219854   0.1846882 SPIN=   0.00000
   O   0.4778999   0.0345576   0.3704229 SPIN=   0.00000
   O   0.4590990   0.5209102   0.3019579 SPIN=   0.00000
   S   0.4220880   0.2495505   0.2344797 SPIN=   0.00000
   O  -0.0075520   0.0075520   0.5000000 SPIN=   0.00000
   O  -0.4806336   0.4806336   0.0000000 SPIN=   0.00000
   F  -0.0769470  -0.2513669   0.2277737 SPIN=   0.00000
   F   0.2513669   0.0769470  -0.2277737 SPIN=   0.00000
%ENDBLOCK POSITIONS_FRAC

# Note: total spin =   8.00

KPOINTS_MP_SPACING 0.07

%BLOCK SPECIES_POT
QC5
%ENDBLOCK SPECIES_POT

SNAP_TO_SYMMETRY
SYMMETRY_GENERATE

