#              Generated by Buildcell
#
# at 05:43:34 (GMT+1.0) 4th August 2020
# in /lustre/scratch/uccabz1/launch_tmp
# on node-c12d-003
# by uccabz1
#
# compiler GCC version 4.9.2
# options -cpp -iprefix /lustre/shared/ucl/apps/gcc/4.9.2/bin/../lib/gcc/x86_64-unknown-linux-gnu/4.9.2/ -mtune=corei7 -march=x86-64 -g -Og
#
# seed   777358284  -599058959  -846126297 -1975021184 -2072503229 -1022818433 -1927876496 -1643909973  2037456084   -78929050  -413155594  -388823730
#
#      Author: C. J. Pickard (cjp20@cam.ac.uk)
#                Space group: P-1
#

%BLOCK LATTICE_ABC
      5.24090      6.42805      6.85636
     89.36979     70.42273     67.97455
%ENDBLOCK LATTICE_ABC

%BLOCK POSITIONS_FRAC
  Li   0.3875978  -0.1314935  -0.2246602 SPIN=   0.00000
  Li  -0.3875978   0.1314935   0.2246602 SPIN=   0.00000
  Fe   0.4808814   0.3111340  -0.1961891 SPIN=   4.00000
  Fe  -0.4808814  -0.3111340   0.1961891 SPIN=   4.00000
   O   0.2454153   0.0205095   0.1845175 SPIN=   0.00000
   O   0.1759175   0.3856622   0.3538256 SPIN=   0.00000
   O  -0.1446369   0.1873813   0.5307893 SPIN=   0.00000
   O  -0.1955738   0.3648898   0.2163267 SPIN=   0.00000
   S   0.0202805   0.2396107   0.3213648 SPIN=   0.00000
   O  -0.2454153  -0.0205095  -0.1845175 SPIN=   0.00000
   O  -0.1759175  -0.3856622  -0.3538256 SPIN=   0.00000
   O   0.1446369  -0.1873813  -0.5307893 SPIN=   0.00000
   O   0.1955738  -0.3648898  -0.2163267 SPIN=   0.00000
   S  -0.0202805  -0.2396107  -0.3213648 SPIN=   0.00000
   F  -0.1936761  -0.1937670   0.2224911 SPIN=   0.00000
   F   0.1936761   0.1937670  -0.2224911 SPIN=   0.00000
%ENDBLOCK POSITIONS_FRAC

# Note: total spin =   8.00

KPOINTS_MP_SPACING 0.07

%BLOCK SPECIES_POT
QC5
%ENDBLOCK SPECIES_POT

SNAP_TO_SYMMETRY
SYMMETRY_GENERATE

