#              Generated by Buildcell
#
# at 00:37:29 (GMT+1.0) 19th August 2020
# in /lustre/scratch/uccabz1/launch_tmp
# on node-c12l-030
# by uccabz1
#
# compiler GCC version 4.9.2
# options -cpp -iprefix /lustre/shared/ucl/apps/gcc/4.9.2/bin/../lib/gcc/x86_64-unknown-linux-gnu/4.9.2/ -mtune=corei7 -march=x86-64 -g -Og
#
# seed -1148193965 -1151893817 -1559562706  -392550117 -1187314715 -1192322878  -584212543  1810188398 -1093722177  -821074984  -117029963  -538745252
#
#      Author: C. J. Pickard (cjp20@cam.ac.uk)
#                Space group: Fdd2
#

%BLOCK LATTICE_ABC
      6.37840      6.37840      6.44412
    113.56749    113.56749    101.07556
%ENDBLOCK LATTICE_ABC

%BLOCK POSITIONS_FRAC
  Li   0.0797695  -0.0797695  -0.5000000 SPIN=   0.00000
  Li   0.3297695  -0.3297695  -0.0000000 SPIN=   0.00000
  Fe  -0.0649888   0.0649888   0.0000000 SPIN=   4.00000
  Fe  -0.3149888   0.3149888  -0.5000000 SPIN=   4.00000
   O  -0.0436093   0.5799164   0.4311603 SPIN=   0.00000
   O   0.2432368   0.3707563   0.4130578 SPIN=   0.00000
   O  -0.5799164   0.0436093  -0.4311603 SPIN=   0.00000
   O  -0.3707563  -0.2432368  -0.4130578 SPIN=   0.00000
   O  -0.3987561  -0.2752304  -0.0688397 SPIN=   0.00000
   O  -0.2076985  -0.5801790  -0.0869422 SPIN=   0.00000
   O   0.2752304   0.3987561   0.0688397 SPIN=   0.00000
   O   0.5801790   0.2076985   0.0869422 SPIN=   0.00000
   S   0.3552236  -0.3552236   0.5000000 SPIN=   0.00000
   S  -0.3947764   0.3947764  -0.0000000 SPIN=   0.00000
   F   0.1390258  -0.1390258   0.0000000 SPIN=   0.00000
   F  -0.1109742   0.1109742  -0.5000000 SPIN=   0.00000
%ENDBLOCK POSITIONS_FRAC

# Note: total spin =   8.00

KPOINTS_MP_SPACING 0.07

%BLOCK SPECIES_POT
QC5
%ENDBLOCK SPECIES_POT

SNAP_TO_SYMMETRY
SYMMETRY_GENERATE

