#              Generated by Buildcell
#
# at 19:35:58 (GMT+1.0) 18th August 2020
# in /scratch/scratch/uccabz1/launch_tmp
# on node-k10i-030
# by uccabz1
#
# compiler GCC version 4.9.2
# options -cpp -iprefix /scratch/UCL/applications/gcc/4.9.2/bin/../lib/gcc/x86_64-unknown-linux-gnu/4.9.2/ -mtune=corei7 -march=x86-64 -g -O2
#
# seed   808753635  2092687826  2017324312  -391352948  -612763274 -1476214820   511908679  -654432958   -55648386  1383979126  -274124761   507336485
#
#      Author: C. J. Pickard (cjp20@cam.ac.uk)
#                Space group: Aea2
#

%BLOCK LATTICE_ABC
      3.95743      6.80393      7.68680
     90.00000    104.91686     90.00000
%ENDBLOCK LATTICE_ABC

%BLOCK POSITIONS_FRAC
  Li   0.3521830  -0.0000000  -0.2956341 SPIN=   0.00000
  Li  -0.1478170  -0.5000000  -0.2956341 SPIN=   0.00000
  Fe   0.0477148   0.0000000   0.0954296 SPIN=   4.00000
  Fe  -0.4522852  -0.5000000   0.0954296 SPIN=   4.00000
   O  -0.0766864   0.1047348   0.3392732 SPIN=   0.00000
   O  -0.0552536  -0.1532776   0.5688088 SPIN=   0.00000
   O  -0.5840404  -0.1047348   0.3392732 SPIN=   0.00000
   O  -0.3759376   0.1532776   0.5688088 SPIN=   0.00000
   O  -0.0840404   0.6047348   0.3392732 SPIN=   0.00000
   O   0.1240624   0.3467224   0.5688088 SPIN=   0.00000
   O   0.4233136  -0.6047348   0.3392732 SPIN=   0.00000
   O   0.4447464  -0.3467224   0.5688088 SPIN=   0.00000
   S  -0.2719226   0.0000000   0.4561548 SPIN=   0.00000
   S   0.2280774  -0.5000000   0.4561548 SPIN=   0.00000
   F   0.4806794  -0.0000000  -0.0386413 SPIN=   0.00000
   F  -0.0193206  -0.5000000  -0.0386413 SPIN=   0.00000
%ENDBLOCK POSITIONS_FRAC

# Note: total spin =   8.00

KPOINTS_MP_SPACING 0.07

%BLOCK SPECIES_POT
QC5
%ENDBLOCK SPECIES_POT

SNAP_TO_SYMMETRY
SYMMETRY_GENERATE

