#              Generated by Buildcell
#
# at 04:32:21 (GMT+1.0) 4th August 2020
# in /lustre/scratch/uccabz1/launch_tmp
# on node-c12g-012
# by uccabz1
#
# compiler GCC version 4.9.2
# options -cpp -iprefix /lustre/shared/ucl/apps/gcc/4.9.2/bin/../lib/gcc/x86_64-unknown-linux-gnu/4.9.2/ -mtune=corei7 -march=x86-64 -g -Og
#
# seed -1103074950  1350653800   -18011587   792976918  1203184173  -396859997  -231360640  1019898936 -1272725662    70069999   530374553 -1852824272
#
#      Author: C. J. Pickard (cjp20@cam.ac.uk)
#                Space group: Ccc2
#

%BLOCK LATTICE_ABC
      3.84461      4.87149     11.62171
     90.00000     90.00000    113.24124
%ENDBLOCK LATTICE_ABC

%BLOCK POSITIONS_FRAC
  Li  -0.0000000  -0.5000000  -0.2258230 SPIN=   0.00000
  Li  -0.5000000   0.5000000   0.2741770 SPIN=   0.00000
  Fe   0.5000000   0.0000000   0.1307396 SPIN=   4.00000
  Fe  -0.5000000   0.0000000  -0.3692604 SPIN=   4.00000
   O   0.2073359   0.3018353   0.4984295 SPIN=   0.00000
   O   0.7060442   0.2462616   0.3777855 SPIN=   0.00000
   O  -0.2073359  -0.3018353   0.4984295 SPIN=   0.00000
   O  -0.7060442  -0.2462616   0.3777855 SPIN=   0.00000
   O   0.0944994   0.3018353  -0.0015705 SPIN=   0.00000
   O  -0.4597826   0.2462616  -0.1222145 SPIN=   0.00000
   O  -0.0944994  -0.3018353  -0.0015705 SPIN=   0.00000
   O   0.4597826  -0.2462616  -0.1222145 SPIN=   0.00000
   S   0.5000000   0.5000000  -0.0629659 SPIN=   0.00000
   S   0.0000000   0.5000000   0.4370341 SPIN=   0.00000
   F   0.0000000   0.0000000   0.2077482 SPIN=   0.00000
   F   0.0000000   0.0000000  -0.2922518 SPIN=   0.00000
%ENDBLOCK POSITIONS_FRAC

# Note: total spin =   8.00

KPOINTS_MP_SPACING 0.07

%BLOCK SPECIES_POT
QC5
%ENDBLOCK SPECIES_POT

SNAP_TO_SYMMETRY
SYMMETRY_GENERATE

