#              Generated by Buildcell
#
# at 04:53:42 (GMT+1.0) 4th August 2020
# in /lustre/scratch/uccabz1/launch_tmp
# on node-c12p-031
# by uccabz1
#
# compiler GCC version 4.9.2
# options -cpp -iprefix /lustre/shared/ucl/apps/gcc/4.9.2/bin/../lib/gcc/x86_64-unknown-linux-gnu/4.9.2/ -mtune=corei7 -march=x86-64 -g -Og
#
# seed -1823766955  1688052989  -850612002  -848380447  -322444392   232248019   470016233  1415750596  1179436345  -226683147   758318526  1388582686
#
#      Author: C. J. Pickard (cjp20@cam.ac.uk)
#                Space group: P21
#

%BLOCK LATTICE_ABC
      3.91253      5.21825      9.84594
     90.00000     95.77484     90.00000
%ENDBLOCK LATTICE_ABC

%BLOCK POSITIONS_FRAC
  Li   0.2695058  -0.1348550   0.0770340 SPIN=   0.00000
  Li  -0.2695058   0.3651450  -0.0770340 SPIN=   0.00000
  Fe   0.2730313   0.3574290  -0.3514832 SPIN=   4.00000
  Fe  -0.2730313  -0.1425710   0.3514832 SPIN=   4.00000
   O   0.1098432   0.3008821   0.3321449 SPIN=   0.00000
   O   0.5977466   0.1610498   0.2085433 SPIN=   0.00000
   O   0.4418353   0.6203183   0.2139206 SPIN=   0.00000
   O   0.0608291   0.3141707   0.0796722 SPIN=   0.00000
   S   0.3025635   0.3491052   0.2085703 SPIN=   0.00000
   O  -0.1098432  -0.1991179  -0.3321449 SPIN=   0.00000
   O  -0.5977466  -0.3389502  -0.2085433 SPIN=   0.00000
   O  -0.4418353   0.1203183  -0.2139206 SPIN=   0.00000
   O  -0.0608291  -0.1858293  -0.0796722 SPIN=   0.00000
   S  -0.3025635  -0.1508948  -0.2085703 SPIN=   0.00000
   F   0.2328700  -0.1508954   0.4323293 SPIN=   0.00000
   F  -0.2328700   0.3491046  -0.4323293 SPIN=   0.00000
%ENDBLOCK POSITIONS_FRAC

# Note: total spin =   8.00

KPOINTS_MP_SPACING 0.07

%BLOCK SPECIES_POT
QC5
%ENDBLOCK SPECIES_POT

SNAP_TO_SYMMETRY
SYMMETRY_GENERATE

