#              Generated by Buildcell
#
# at 21:22:33 (GMT+1.0) 18th August 2020
# in /scratch/scratch/uccabz1/launch_tmp
# on node-k10i-030
# by uccabz1
#
# compiler GCC version 4.9.2
# options -cpp -iprefix /scratch/UCL/applications/gcc/4.9.2/bin/../lib/gcc/x86_64-unknown-linux-gnu/4.9.2/ -mtune=corei7 -march=x86-64 -g -O2
#
# seed -1333553653   347863644   673490704  -976258108  1053779355  1607606180  -295493369  1764813953 -2090969706  1476691420 -1566123990 -1931762443
#
#      Author: C. J. Pickard (cjp20@cam.ac.uk)
#                Space group: P21
#

%BLOCK LATTICE_ABC
      4.13787      4.54919     10.62716
     90.00000     90.00000     91.22018
%ENDBLOCK LATTICE_ABC

%BLOCK POSITIONS_FRAC
  Li   0.4701178  -0.1198418   0.3533920 SPIN=   0.00000
  Li  -0.4701178   0.1198418  -0.1466080 SPIN=   0.00000
  Fe  -0.0962548   0.1854891   0.1563690 SPIN=   4.00000
  Fe   0.0962548  -0.1854891  -0.3436310 SPIN=   4.00000
   O  -0.4950764  -0.0026690  -0.4495526 SPIN=   0.00000
   O  -0.5474217   0.4551559  -0.3261045 SPIN=   0.00000
   O  -0.5664438   0.4720556  -0.5587513 SPIN=   0.00000
   O  -0.0515966   0.3710485  -0.4500813 SPIN=   0.00000
   S  -0.4151346   0.3238978  -0.4461224 SPIN=   0.00000
   O   0.4950764   0.0026690   0.0504474 SPIN=   0.00000
   O   0.5474217  -0.4551559   0.1738955 SPIN=   0.00000
   O   0.5664438  -0.4720556  -0.0587513 SPIN=   0.00000
   O   0.0515966  -0.3710485   0.0499187 SPIN=   0.00000
   S   0.4151346  -0.3238978   0.0538776 SPIN=   0.00000
   F   0.0779891   0.0305427   0.3164391 SPIN=   0.00000
   F  -0.0779891  -0.0305427  -0.1835609 SPIN=   0.00000
%ENDBLOCK POSITIONS_FRAC

# Note: total spin =   8.00

KPOINTS_MP_SPACING 0.07

%BLOCK SPECIES_POT
QC5
%ENDBLOCK SPECIES_POT

SNAP_TO_SYMMETRY
SYMMETRY_GENERATE

