#              Generated by Buildcell
#
# at 03:39:14 (GMT+1.0) 4th August 2020
# in /lustre/scratch/uccabz1/launch_tmp
# on node-c12f-036
# by uccabz1
#
# compiler GCC version 4.9.2
# options -cpp -iprefix /lustre/shared/ucl/apps/gcc/4.9.2/bin/../lib/gcc/x86_64-unknown-linux-gnu/4.9.2/ -mtune=corei7 -march=x86-64 -g -Og
#
# seed  1081307905   181106108 -1734624832 -1287259342   275123453   455659646  1382897657 -1475868847 -1871010375   910155404  -596989437  1570817692
#
#      Author: C. J. Pickard (cjp20@cam.ac.uk)
#                Space group: Pnn2
#

%BLOCK LATTICE_ABC
      3.86041      6.34862      8.16052
     90.00000     90.00000     90.00000
%ENDBLOCK LATTICE_ABC

%BLOCK POSITIONS_FRAC
  Li  -0.0000000   0.5000000   0.2314012 SPIN=   0.00000
  Li  -0.5000000  -0.0000000  -0.2685988 SPIN=   0.00000
  Fe   0.0000000  -0.0000000   0.0793345 SPIN=   4.00000
  Fe  -0.5000000  -0.5000000  -0.4206655 SPIN=   4.00000
   O   0.4830243   0.3012111  -0.2022673 SPIN=   0.00000
   O  -0.0384311   0.3157769  -0.0262100 SPIN=   0.00000
   O  -0.4830243  -0.3012111  -0.2022673 SPIN=   0.00000
   O   0.0384311  -0.3157769  -0.0262100 SPIN=   0.00000
   O   0.0169757  -0.1987889   0.2977327 SPIN=   0.00000
   O   0.5384311  -0.1842231   0.4737900 SPIN=   0.00000
   O  -0.0169757   0.1987889   0.2977327 SPIN=   0.00000
   O  -0.5384311   0.1842231   0.4737900 SPIN=   0.00000
   S   0.5000000   0.5000000  -0.0233260 SPIN=   0.00000
   S   0.0000000  -0.0000000   0.4766740 SPIN=   0.00000
   F   0.0000000  -0.5000000  -0.3700530 SPIN=   0.00000
   F   0.5000000  -0.0000000   0.1299470 SPIN=   0.00000
%ENDBLOCK POSITIONS_FRAC

# Note: total spin =   8.00

KPOINTS_MP_SPACING 0.07

%BLOCK SPECIES_POT
QC5
%ENDBLOCK SPECIES_POT

SNAP_TO_SYMMETRY
SYMMETRY_GENERATE

