#              Generated by Buildcell
#
# at 20:32:22 (GMT+1.0) 18th August 2020
# in /lustre/scratch/uccabz1/launch_tmp
# on node-c12a-022
# by uccabz1
#
# compiler GCC version 4.9.2
# options -cpp -iprefix /lustre/shared/ucl/apps/gcc/4.9.2/bin/../lib/gcc/x86_64-unknown-linux-gnu/4.9.2/ -mtune=corei7 -march=x86-64 -g -Og
#
# seed   997801408 -1208007986  -596900147   372351998  1150259017   886055950 -1907878071  1752564177   726865709   408451355   116448850   445543361
#
#      Author: C. J. Pickard (cjp20@cam.ac.uk)
#                Space group: Pc
#

%BLOCK LATTICE_ABC
      3.99076      5.52910      9.07584
     90.00000     90.00000     92.92475
%ENDBLOCK LATTICE_ABC

%BLOCK POSITIONS_FRAC
  Li  -0.2369060   0.4183310  -0.2922860 SPIN=   0.00000
  Li   0.2630940  -0.0816690   0.2922860 SPIN=   0.00000
  Fe   0.1738894   0.0973937  -0.0760241 SPIN=   4.00000
  Fe  -0.3261106  -0.4026063   0.0760241 SPIN=   4.00000
   O   0.2042725   0.3728210   0.5110885 SPIN=   0.00000
   O  -0.1227009   0.1563757   0.3155502 SPIN=   0.00000
   O   0.4101564   0.3822887   0.2538275 SPIN=   0.00000
   O  -0.0900820   0.6044504   0.3217998 SPIN=   0.00000
   S   0.1004115   0.3789840   0.3505665 SPIN=   0.00000
   O  -0.2957275  -0.1271790  -0.5110885 SPIN=   0.00000
   O  -0.6227009  -0.3436243  -0.3155502 SPIN=   0.00000
   O  -0.0898436  -0.1177113  -0.2538275 SPIN=   0.00000
   O  -0.5900820   0.1044504  -0.3217998 SPIN=   0.00000
   S  -0.3995885  -0.1210160  -0.3505665 SPIN=   0.00000
   F   0.3376877  -0.1552037   0.0708378 SPIN=   0.00000
   F  -0.1623123   0.3447963  -0.0708378 SPIN=   0.00000
%ENDBLOCK POSITIONS_FRAC

# Note: total spin =   8.00

KPOINTS_MP_SPACING 0.07

%BLOCK SPECIES_POT
QC5
%ENDBLOCK SPECIES_POT

SNAP_TO_SYMMETRY
SYMMETRY_GENERATE

