#              Generated by Buildcell
#
# at 03:07:36 (GMT+1.0) 4th August 2020
# in /lustre/scratch/uccabz1/launch_tmp
# on node-c12l-034
# by uccabz1
#
# compiler GCC version 4.9.2
# options -cpp -iprefix /lustre/shared/ucl/apps/gcc/4.9.2/bin/../lib/gcc/x86_64-unknown-linux-gnu/4.9.2/ -mtune=corei7 -march=x86-64 -g -Og
#
# seed  1382779276 -1618003780   -31831429   464927829 -1923288956   182258376 -1920965315 -1825093967 -2133496713 -1573402495     1264898  1348511585
#
#      Author: C. J. Pickard (cjp20@cam.ac.uk)
#                Space group: P21
#

%BLOCK LATTICE_ABC
      4.21185      4.70153     10.34868
     90.00000     90.00000    102.58796
%ENDBLOCK LATTICE_ABC

%BLOCK POSITIONS_FRAC
  Li  -0.4253462  -0.1720953   0.3815804 SPIN=   0.00000
  Li   0.4253462   0.1720953  -0.1184196 SPIN=   0.00000
  Fe   0.1465841   0.2419689  -0.3700300 SPIN=   4.00000
  Fe  -0.1465841  -0.2419689   0.1299700 SPIN=   4.00000
   O   0.2024631   0.0357753   0.3759767 SPIN=   0.00000
   O   0.4998156   0.4757489   0.2613645 SPIN=   0.00000
   O   0.0561754   0.5112100   0.4132302 SPIN=   0.00000
   O  -0.0717999   0.2579243   0.2038254 SPIN=   0.00000
   S   0.1716635   0.3201646   0.3135992 SPIN=   0.00000
   O  -0.2024631  -0.0357753  -0.1240233 SPIN=   0.00000
   O  -0.4998156  -0.4757489  -0.2386355 SPIN=   0.00000
   O  -0.0561754  -0.5112100  -0.0867698 SPIN=   0.00000
   O   0.0717999  -0.2579243  -0.2961746 SPIN=   0.00000
   S  -0.1716635  -0.3201646  -0.1864008 SPIN=   0.00000
   F  -0.4014888   0.1335604  -0.4165813 SPIN=   0.00000
   F   0.4014888  -0.1335604   0.0834187 SPIN=   0.00000
%ENDBLOCK POSITIONS_FRAC

# Note: total spin =   8.00

KPOINTS_MP_SPACING 0.07

%BLOCK SPECIES_POT
QC5
%ENDBLOCK SPECIES_POT

SNAP_TO_SYMMETRY
SYMMETRY_GENERATE

