#              Generated by Buildcell
#
# at 01:42:36 (GMT+1.0) 19th August 2020
# in /lustre/scratch/uccabz1/launch_tmp
# on node-c12k-033
# by uccabz1
#
# compiler GCC version 4.9.2
# options -cpp -iprefix /lustre/shared/ucl/apps/gcc/4.9.2/bin/../lib/gcc/x86_64-unknown-linux-gnu/4.9.2/ -mtune=corei7 -march=x86-64 -g -Og
#
# seed -1717203046   196691242  -503967993  1861729643    22967031   706993651 -2109486128   169851754   342019102 -1439449139 -1230056401   137926928
#
#      Author: C. J. Pickard (cjp20@cam.ac.uk)
#                Space group: Pc
#

%BLOCK LATTICE_ABC
      4.55428      6.11207      7.41490
     90.00000    104.30716     90.00000
%ENDBLOCK LATTICE_ABC

%BLOCK POSITIONS_FRAC
  Li  -0.1809503  -0.2748454  -0.4499329 SPIN=   0.00000
  Li   0.3190497   0.2748454  -0.4499329 SPIN=   0.00000
  Fe   0.3175604  -0.2326097   0.2090776 SPIN=   4.00000
  Fe  -0.1824396   0.2326097   0.2090776 SPIN=   4.00000
   O   0.1779855   0.4518121   0.0063375 SPIN=   0.00000
   O   0.4802171   0.2474991  -0.1729205 SPIN=   0.00000
   O  -0.0792303   0.2540205  -0.2804663 SPIN=   0.00000
   O   0.1691571   0.0469535   0.0030313 SPIN=   0.00000
   S   0.1870324   0.2500713  -0.1110045 SPIN=   0.00000
   O  -0.3220145  -0.4518121   0.0063375 SPIN=   0.00000
   O  -0.0197829  -0.2474991  -0.1729205 SPIN=   0.00000
   O  -0.5792303  -0.2540205  -0.2804663 SPIN=   0.00000
   O  -0.3308429  -0.0469535   0.0030313 SPIN=   0.00000
   S  -0.3129676  -0.2500713  -0.1110045 SPIN=   0.00000
   F   0.0482567  -0.2454073   0.3816005 SPIN=   0.00000
   F  -0.4517433   0.2454073   0.3816005 SPIN=   0.00000
%ENDBLOCK POSITIONS_FRAC

# Note: total spin =   8.00

KPOINTS_MP_SPACING 0.07

%BLOCK SPECIES_POT
QC5
%ENDBLOCK SPECIES_POT

SNAP_TO_SYMMETRY
SYMMETRY_GENERATE

