#              Generated by Buildcell
#
# at 03:40:21 (GMT+1.0) 4th August 2020
# in /lustre/scratch/uccabz1/launch_tmp
# on node-c12l-018
# by uccabz1
#
# compiler GCC version 4.9.2
# options -cpp -iprefix /lustre/shared/ucl/apps/gcc/4.9.2/bin/../lib/gcc/x86_64-unknown-linux-gnu/4.9.2/ -mtune=corei7 -march=x86-64 -g -Og
#
# seed  -839418764 -1803714820   291092391  1737852827    10231389  1748158846  -748138416  1315638464  1234995348  1200708981  1530056795  1349164150
#
#      Author: C. J. Pickard (cjp20@cam.ac.uk)
#                Space group: P21
#

%BLOCK LATTICE_ABC
      3.98360      6.90443      7.43033
     90.00000     90.00000    101.86607
%ENDBLOCK LATTICE_ABC

%BLOCK POSITIONS_FRAC
  Li  -0.1472152  -0.2149267  -0.1403800 SPIN=   0.00000
  Li   0.1472152   0.2149267   0.3596200 SPIN=   0.00000
  Fe  -0.2568275   0.4842113  -0.4473458 SPIN=   4.00000
  Fe   0.2568275  -0.4842113   0.0526542 SPIN=   4.00000
   O  -0.1716915   0.0472350  -0.0030499 SPIN=   0.00000
   O  -0.6772124  -0.0281110  -0.2040190 SPIN=   0.00000
   O  -0.1339274   0.1794027  -0.3136462 SPIN=   0.00000
   O  -0.4801900   0.3111500  -0.0852945 SPIN=   0.00000
   S  -0.3657553   0.1274192  -0.1515024 SPIN=   0.00000
   O   0.1716915  -0.0472350   0.4969501 SPIN=   0.00000
   O   0.6772124   0.0281110   0.2959810 SPIN=   0.00000
   O   0.1339274  -0.1794027   0.1863538 SPIN=   0.00000
   O   0.4801900  -0.3111500   0.4147055 SPIN=   0.00000
   S   0.3657553  -0.1274192   0.3484976 SPIN=   0.00000
   F   0.2541996  -0.4110164  -0.2322395 SPIN=   0.00000
   F  -0.2541996   0.4110164   0.2677605 SPIN=   0.00000
%ENDBLOCK POSITIONS_FRAC

# Note: total spin =   8.00

KPOINTS_MP_SPACING 0.07

%BLOCK SPECIES_POT
QC5
%ENDBLOCK SPECIES_POT

SNAP_TO_SYMMETRY
SYMMETRY_GENERATE

