#              Generated by Buildcell
#
# at 05:38:53 (GMT+1.0) 4th August 2020
# in /lustre/scratch/uccabz1/launch_tmp
# on node-c12l-020
# by uccabz1
#
# compiler GCC version 4.9.2
# options -cpp -iprefix /lustre/shared/ucl/apps/gcc/4.9.2/bin/../lib/gcc/x86_64-unknown-linux-gnu/4.9.2/ -mtune=corei7 -march=x86-64 -g -Og
#
# seed   165229704  1669581086  1464990370  1359230822  -771495097 -1137265915 -1129893655  1050459491  1470431641    98343135  2058157495  1540882774
#
#      Author: C. J. Pickard (cjp20@cam.ac.uk)
#                Space group: P21212
#

%BLOCK LATTICE_ABC
      4.10652      4.74175     10.27111
     90.00000     90.00000     90.00000
%ENDBLOCK LATTICE_ABC

%BLOCK POSITIONS_FRAC
  Li   0.5000000  -0.0000000   0.3197169 SPIN=   0.00000
  Li  -0.0000000  -0.5000000  -0.3197169 SPIN=   0.00000
  Fe  -0.0000000  -0.0000000  -0.0904905 SPIN=   4.00000
  Fe   0.5000000   0.5000000   0.0904905 SPIN=   4.00000
   O  -0.4901225  -0.2500017  -0.2735463 SPIN=   0.00000
   O  -0.2515980  -0.3723383  -0.4874971 SPIN=   0.00000
   O   0.4901225   0.2500017  -0.2735463 SPIN=   0.00000
   O   0.2515980   0.3723383  -0.4874971 SPIN=   0.00000
   O   0.0098775  -0.2499983   0.2735463 SPIN=   0.00000
   O   0.2484020  -0.1276617   0.4874971 SPIN=   0.00000
   O  -0.0098775   0.2499983   0.2735463 SPIN=   0.00000
   O  -0.2484020   0.1276617   0.4874971 SPIN=   0.00000
   S  -0.0000000   0.5000000   0.3701072 SPIN=   0.00000
   S   0.5000000  -0.0000000  -0.3701072 SPIN=   0.00000
   F  -0.5000000  -0.0000000   0.1225015 SPIN=   0.00000
   F  -0.0000000   0.5000000  -0.1225015 SPIN=   0.00000
%ENDBLOCK POSITIONS_FRAC

# Note: total spin =   8.00

KPOINTS_MP_SPACING 0.07

%BLOCK SPECIES_POT
QC5
%ENDBLOCK SPECIES_POT

SNAP_TO_SYMMETRY
SYMMETRY_GENERATE

