#              Generated by Buildcell
#
# at 19:51:46 (GMT+1.0) 18th August 2020
# in /scratch/scratch/uccabz1/launch_tmp
# on node-k10g-003
# by uccabz1
#
# compiler GCC version 4.9.2
# options -cpp -iprefix /scratch/UCL/applications/gcc/4.9.2/bin/../lib/gcc/x86_64-unknown-linux-gnu/4.9.2/ -mtune=corei7 -march=x86-64 -g -O2
#
# seed  1583021993    35059737   907343580 -1599407708  -188799831  1834918466   365011252 -1441345220   -67345501   149908376 -1101692852  -783421310
#
#      Author: C. J. Pickard (cjp20@cam.ac.uk)
#                Space group: Cc
#

%BLOCK LATTICE_ABC
      4.81568      4.81568      8.69464
     93.01399     93.01399     95.76036
%ENDBLOCK LATTICE_ABC

%BLOCK POSITIONS_FRAC
  Li  -0.2991285   0.3304517  -0.0173985 SPIN=   0.00000
  Li   0.3304517  -0.2991285   0.4826015 SPIN=   0.00000
  Fe  -0.4754586  -0.2037470  -0.1910525 SPIN=   4.00000
  Fe  -0.2037470  -0.4754586   0.3089475 SPIN=   4.00000
   O  -0.3541869  -0.0146565  -0.5031389 SPIN=   0.00000
   O   0.0131881  -0.1157486  -0.3102975 SPIN=   0.00000
   O  -0.0196648   0.3699380  -0.3838155 SPIN=   0.00000
   O   0.1410701   0.0219587  -0.5696435 SPIN=   0.00000
   S  -0.0548984   0.0653729  -0.4417238 SPIN=   0.00000
   O  -0.0146565  -0.3541869  -0.0031389 SPIN=   0.00000
   O  -0.1157486   0.0131881   0.1897025 SPIN=   0.00000
   O   0.3699380  -0.0196648   0.1161845 SPIN=   0.00000
   O   0.0219587   0.1410701  -0.0696435 SPIN=   0.00000
   S   0.0653729  -0.0548984   0.0582762 SPIN=   0.00000
   F   0.4175766  -0.4976767   0.2974162 SPIN=   0.00000
   F  -0.4976767   0.4175766  -0.2025838 SPIN=   0.00000
%ENDBLOCK POSITIONS_FRAC

# Note: total spin =   8.00

KPOINTS_MP_SPACING 0.07

%BLOCK SPECIES_POT
QC5
%ENDBLOCK SPECIES_POT

SNAP_TO_SYMMETRY
SYMMETRY_GENERATE

