#              Generated by Buildcell
#
# at 02:54:58 (GMT+1.0) 4th August 2020
# in /lustre/scratch/uccabz1/launch_tmp
# on node-c12g-002
# by uccabz1
#
# compiler GCC version 4.9.2
# options -cpp -iprefix /lustre/shared/ucl/apps/gcc/4.9.2/bin/../lib/gcc/x86_64-unknown-linux-gnu/4.9.2/ -mtune=corei7 -march=x86-64 -g -Og
#
# seed  -501624872 -1069959437  1012670320  -948400275  1127268069  -483824663  2007790168  1007367384   325538496   992017777   664269272  1553522108
#
#      Author: C. J. Pickard (cjp20@cam.ac.uk)
#                Space group: Pnc2
#

%BLOCK LATTICE_ABC
      4.08721      6.52698      7.49706
     90.00000     90.00000     90.00000
%ENDBLOCK LATTICE_ABC

%BLOCK POSITIONS_FRAC
  Li  -0.0000000   0.0000000   0.4088329 SPIN=   0.00000
  Li   0.0000000   0.5000000  -0.0911671 SPIN=   0.00000
  Fe   0.5000000   0.5000000   0.2138592 SPIN=   4.00000
  Fe  -0.5000000  -0.0000000  -0.2861408 SPIN=   4.00000
   O   0.6291809  -0.2159218   0.3536940 SPIN=   0.00000
   O   0.1841960  -0.1245723   0.1444162 SPIN=   0.00000
   O  -0.6291809   0.2159218   0.3536940 SPIN=   0.00000
   O  -0.1841960   0.1245723   0.1444162 SPIN=   0.00000
   O   0.6291809  -0.2840782  -0.1463060 SPIN=   0.00000
   O   0.1841960  -0.3754277  -0.3555838 SPIN=   0.00000
   O  -0.6291809   0.2840782  -0.1463060 SPIN=   0.00000
   O  -0.1841960   0.3754277  -0.3555838 SPIN=   0.00000
   S  -0.5000000  -0.0000000   0.1560840 SPIN=   0.00000
   S   0.5000000   0.5000000  -0.3439160 SPIN=   0.00000
   F   0.0000000  -0.0000000  -0.2961926 SPIN=   0.00000
   F   0.0000000   0.5000000   0.2038074 SPIN=   0.00000
%ENDBLOCK POSITIONS_FRAC

# Note: total spin =   8.00

KPOINTS_MP_SPACING 0.07

%BLOCK SPECIES_POT
QC5
%ENDBLOCK SPECIES_POT

SNAP_TO_SYMMETRY
SYMMETRY_GENERATE

