#              Generated by Buildcell
#
# at 00:49:11 (GMT+1.0) 19th August 2020
# in /lustre/scratch/uccabz1/launch_tmp
# on node-c12k-027
# by uccabz1
#
# compiler GCC version 4.9.2
# options -cpp -iprefix /lustre/shared/ucl/apps/gcc/4.9.2/bin/../lib/gcc/x86_64-unknown-linux-gnu/4.9.2/ -mtune=corei7 -march=x86-64 -g -Og
#
# seed -1230187311  -437904373   959545480  1805941498  1553064336  -384431892   -59283123  1561177273  2139900666 -1853730991 -2099372032   821475139
#
#      Author: C. J. Pickard (cjp20@cam.ac.uk)
#                Space group: P-1
#

%BLOCK LATTICE_ABC
      4.72750      6.04334      7.60065
     89.29331     78.41512     70.36613
%ENDBLOCK LATTICE_ABC

%BLOCK POSITIONS_FRAC
  Li   0.7173527  -0.3152554  -0.1272988 SPIN=   0.00000
  Li  -0.7173527   0.3152554   0.1272988 SPIN=   0.00000
  Fe  -0.0000000   0.5000000   0.5000000 SPIN=   7.53842
  Fe  -0.0000000   0.0000000  -0.0000000 SPIN=   0.46158
   O  -0.2585594  -0.0784874  -0.4082612 SPIN=   0.00000
   O  -0.1752350   0.2491771  -0.2588654 SPIN=   0.00000
   O  -0.6574799   0.1644901  -0.1568554 SPIN=   0.00000
   O  -0.5591461   0.3338573  -0.4515263 SPIN=   0.00000
   S  -0.4126051   0.1672593  -0.3188771 SPIN=   0.00000
   O   0.2585594   0.0784874   0.4082612 SPIN=   0.00000
   O   0.1752350  -0.2491771   0.2588654 SPIN=   0.00000
   O   0.6574799  -0.1644901   0.1568554 SPIN=   0.00000
   O   0.5591461  -0.3338573   0.4515263 SPIN=   0.00000
   S   0.4126051  -0.1672593   0.3188771 SPIN=   0.00000
   F   0.2178309  -0.2464528  -0.2183673 SPIN=   0.00000
   F  -0.2178309   0.2464528   0.2183673 SPIN=   0.00000
%ENDBLOCK POSITIONS_FRAC

# Note: total spin =   8.00

KPOINTS_MP_SPACING 0.07

%BLOCK SPECIES_POT
QC5
%ENDBLOCK SPECIES_POT

SNAP_TO_SYMMETRY
SYMMETRY_GENERATE

