#              Generated by Buildcell
#
# at 01:59:04 (GMT+1.0) 19th August 2020
# in /scratch/scratch/uccabz1/launch_tmp
# on node-k10i-003
# by uccabz1
#
# compiler GCC version 4.9.2
# options -cpp -iprefix /scratch/UCL/applications/gcc/4.9.2/bin/../lib/gcc/x86_64-unknown-linux-gnu/4.9.2/ -mtune=corei7 -march=x86-64 -g -O2
#
# seed  -541886042  1427736690  1697205295  -956232952 -1662479211   454727361   532382399  1811631454 -1012770159    81633254   947292207   598298034
#
#      Author: C. J. Pickard (cjp20@cam.ac.uk)
#                Space group: Cm
#

%BLOCK LATTICE_ABC
      4.53118      6.66916      6.66916
     85.75158     85.84935     85.84935
%ENDBLOCK LATTICE_ABC

%BLOCK POSITIONS_FRAC
  Li  -0.0666037   0.0136155   0.0136155 SPIN=   0.00000
  Li  -0.0200065  -0.4821566  -0.4821566 SPIN=   0.00000
  Fe   0.4235386  -0.2232964  -0.2232964 SPIN=   1.07923
  Fe  -0.4778104   0.3197529   0.3197529 SPIN=   6.92077
   O  -0.0865902  -0.2064580   0.3598806 SPIN=   0.00000
   O   0.3740269  -0.0650199   0.4469792 SPIN=   0.00000
   O  -0.1106355   0.0554169   0.6058889 SPIN=   0.00000
   S   0.0480740  -0.0178696   0.4143249 SPIN=   0.00000
   O  -0.0865902   0.3598806  -0.2064580 SPIN=   0.00000
   O   0.3740269   0.4469792  -0.0650199 SPIN=   0.00000
   O  -0.1106355   0.6058889   0.0554169 SPIN=   0.00000
   S   0.0480740   0.4143249  -0.0178696 SPIN=   0.00000
   O  -0.0863738  -0.2701888  -0.2701888 SPIN=   0.00000
   O   0.1111444   0.2065218   0.2065218 SPIN=   0.00000
   F   0.4723675  -0.4812653  -0.4812653 SPIN=   0.00000
   F  -0.4755154  -0.0353777  -0.0353777 SPIN=   0.00000
%ENDBLOCK POSITIONS_FRAC

# Note: total spin =   8.00

KPOINTS_MP_SPACING 0.07

%BLOCK SPECIES_POT
QC5
%ENDBLOCK SPECIES_POT

SNAP_TO_SYMMETRY
SYMMETRY_GENERATE

