#              Generated by Buildcell
#
# at 00:27:25 (GMT+1.0) 19th August 2020
# in /lustre/scratch/uccabz1/launch_tmp
# on node-c12e-001
# by uccabz1
#
# compiler GCC version 4.9.2
# options -cpp -iprefix /lustre/shared/ucl/apps/gcc/4.9.2/bin/../lib/gcc/x86_64-unknown-linux-gnu/4.9.2/ -mtune=corei7 -march=x86-64 -g -Og
#
# seed  1934707260   634872148 -1986129619   427953500  1584537079   656383002  1266704161 -1308184004 -1976808786   511581255    15897585 -1427569502
#
#      Author: C. J. Pickard (cjp20@cam.ac.uk)
#                Space group: Ccc2
#

%BLOCK LATTICE_ABC
      4.28351      6.48984      7.62141
     90.00000     90.00000    109.26981
%ENDBLOCK LATTICE_ABC

%BLOCK POSITIONS_FRAC
  Li  -0.5000000   0.0000000  -0.1595122 SPIN=   0.00000
  Li   0.5000000  -0.0000000   0.3404878 SPIN=   0.00000
  Fe   0.0000000  -0.5000000   0.1511168 SPIN=   4.00000
  Fe  -0.5000000   0.5000000  -0.3488832 SPIN=   4.00000
   O  -0.4785785   0.1782924  -0.4250522 SPIN=   0.00000
   O   0.0702950   0.2196835  -0.2977058 SPIN=   0.00000
   O   0.4785785  -0.1782924  -0.4250522 SPIN=   0.00000
   O  -0.0702950  -0.2196835  -0.2977058 SPIN=   0.00000
   O  -0.6568709  -0.1782924   0.0749478 SPIN=   0.00000
   O  -0.1493885  -0.2196835   0.2022942 SPIN=   0.00000
   O   0.6568709   0.1782924   0.0749478 SPIN=   0.00000
   O   0.1493885   0.2196835   0.2022942 SPIN=   0.00000
   S   0.0000000   0.0000000   0.0981822 SPIN=   0.00000
   S  -0.0000000  -0.0000000  -0.4018178 SPIN=   0.00000
   F   0.5000000  -0.5000000  -0.0851694 SPIN=   0.00000
   F   0.0000000  -0.5000000   0.4148306 SPIN=   0.00000
%ENDBLOCK POSITIONS_FRAC

# Note: total spin =   8.00

KPOINTS_MP_SPACING 0.07

%BLOCK SPECIES_POT
QC5
%ENDBLOCK SPECIES_POT

SNAP_TO_SYMMETRY
SYMMETRY_GENERATE

