#              Generated by Buildcell
#
# at 04:55:02 (GMT+1.0) 4th August 2020
# in /lustre/scratch/uccabz1/launch_tmp
# on node-c12a-004
# by uccabz1
#
# compiler GCC version 4.9.2
# options -cpp -iprefix /lustre/shared/ucl/apps/gcc/4.9.2/bin/../lib/gcc/x86_64-unknown-linux-gnu/4.9.2/ -mtune=corei7 -march=x86-64 -g -Og
#
# seed  1813441226  -846318745  -375387575   496990349 -2037812780  -146770868 -1360575163   779508861  1710864543  -756749759   158431863 -1419195074
#
#      Author: C. J. Pickard (cjp20@cam.ac.uk)
#                Space group: Pma2
#

%BLOCK LATTICE_ABC
      3.79608      5.97561      8.81682
     90.00000     90.00000     90.00000
%ENDBLOCK LATTICE_ABC

%BLOCK POSITIONS_FRAC
  Li   0.5000000  -0.4460652  -0.0000000 SPIN=   0.00000
  Li  -0.5000000  -0.4460652   0.5000000 SPIN=   0.00000
  Fe   0.1335106  -0.1650453   0.2500000 SPIN=   4.00000
  Fe  -0.1335106  -0.1650453  -0.2500000 SPIN=   4.00000
   O   0.6150140   0.2923880  -0.1218641 SPIN=   0.00000
   O   0.0784523   0.5276419  -0.1228700 SPIN=   0.00000
   O  -0.6150140   0.2923880   0.1218641 SPIN=   0.00000
   O  -0.0784523   0.5276419   0.1228700 SPIN=   0.00000
   O  -0.6150140   0.2923880   0.3781359 SPIN=   0.00000
   O  -0.0784523   0.5276419   0.3771300 SPIN=   0.00000
   O   0.6150140   0.2923880  -0.3781359 SPIN=   0.00000
   O   0.0784523   0.5276419  -0.3771300 SPIN=   0.00000
   S  -0.2883986   0.3346594   0.2500000 SPIN=   0.00000
   S   0.2883986   0.3346594  -0.2500000 SPIN=   0.00000
   F   0.5000000  -0.1340172   0.0000000 SPIN=   0.00000
   F  -0.5000000  -0.1340172   0.5000000 SPIN=   0.00000
%ENDBLOCK POSITIONS_FRAC

# Note: total spin =   8.00

KPOINTS_MP_SPACING 0.07

%BLOCK SPECIES_POT
QC5
%ENDBLOCK SPECIES_POT

SNAP_TO_SYMMETRY
SYMMETRY_GENERATE

