#              Generated by Buildcell
#
# at 05:40:54 (GMT+1.0) 4th August 2020
# in /lustre/scratch/uccabz1/launch_tmp
# on node-c12g-023
# by uccabz1
#
# compiler GCC version 4.9.2
# options -cpp -iprefix /lustre/shared/ucl/apps/gcc/4.9.2/bin/../lib/gcc/x86_64-unknown-linux-gnu/4.9.2/ -mtune=corei7 -march=x86-64 -g -Og
#
# seed   549777043 -1867915642  -734200518  1573628120  1665273420 -1252128188  1981784474  -563047724   689673846   172912699  -965090884  1837707583
#
#      Author: C. J. Pickard (cjp20@cam.ac.uk)
#                Space group: I212121
#

%BLOCK LATTICE_ABC
      5.90898      6.59319      6.59319
     67.60595     63.37733     63.37733
%ENDBLOCK LATTICE_ABC

%BLOCK POSITIONS_FRAC
  Li   0.2474497  -0.4974497   0.0025503 SPIN=   0.00000
  Li   0.2525503  -0.0025503   0.4974497 SPIN=   0.00000
  Fe  -0.1988245   0.4488245  -0.0511755 SPIN=   4.00000
  Fe  -0.3011755   0.0511755  -0.4488245 SPIN=   4.00000
   O   0.3793692  -0.3047323   0.0459960 SPIN=   0.00000
   O   0.0562268  -0.4264028   0.4262503 SPIN=   0.00000
   O  -0.1206329  -0.4540040   0.1952677 SPIN=   0.00000
   O  -0.0560743  -0.0737497   0.0735972 SPIN=   0.00000
   O   0.1206308  -0.0459960   0.3047323 SPIN=   0.00000
   O   0.4437732  -0.4262503   0.4264028 SPIN=   0.00000
   O  -0.3793671  -0.1952677   0.4540040 SPIN=   0.00000
   O  -0.4439257  -0.0735972   0.0737497 SPIN=   0.00000
   S   0.2500000  -0.0561155   0.0561155 SPIN=   0.00000
   S  -0.2500000  -0.4438845   0.4438845 SPIN=   0.00000
   F  -0.4999492   0.2500000   0.2500000 SPIN=   0.00000
   F  -0.0000508  -0.2500000  -0.2500000 SPIN=   0.00000
%ENDBLOCK POSITIONS_FRAC

# Note: total spin =   8.00

KPOINTS_MP_SPACING 0.07

%BLOCK SPECIES_POT
QC5
%ENDBLOCK SPECIES_POT

SNAP_TO_SYMMETRY
SYMMETRY_GENERATE

