#              Generated by Buildcell
#
# at 01:04:31 (GMT+1.0) 19th August 2020
# in /lustre/scratch/uccabz1/launch_tmp
# on node-c12f-008
# by uccabz1
#
# compiler GCC version 4.9.2
# options -cpp -iprefix /lustre/shared/ucl/apps/gcc/4.9.2/bin/../lib/gcc/x86_64-unknown-linux-gnu/4.9.2/ -mtune=corei7 -march=x86-64 -g -Og
#
# seed   229130008  1364189281 -1026704678    64488539   968814696   747117645  -975505192  1350459536   140136204   390082132 -1632858247   692399933
#
#      Author: C. J. Pickard (cjp20@cam.ac.uk)
#                Space group: P21/m
#

%BLOCK LATTICE_ABC
      5.03029      6.48050      6.90355
    117.28953     90.00000     90.00000
%ENDBLOCK LATTICE_ABC

%BLOCK POSITIONS_FRAC
  Li   0.2500000   0.4965654   0.2332669 SPIN=   0.00000
  Li  -0.2500000  -0.4965654  -0.2332669 SPIN=   0.00000
  Fe  -0.2500000   0.1822475  -0.0332363 SPIN=   4.00000
  Fe   0.2500000  -0.1822475   0.0332363 SPIN=   4.00000
   O  -0.4821805   0.1839508  -0.3507989 SPIN=   0.00000
   O  -0.4821856  -0.1748996  -0.3080246 SPIN=   0.00000
   O   0.0178195  -0.1839508   0.3507989 SPIN=   0.00000
   O   0.0178144   0.1748996   0.3080246 SPIN=   0.00000
   O   0.4821805  -0.1839508   0.3507989 SPIN=   0.00000
   O   0.4821856   0.1748996   0.3080246 SPIN=   0.00000
   O  -0.0178195   0.1839508  -0.3507989 SPIN=   0.00000
   O  -0.0178144  -0.1748996  -0.3080246 SPIN=   0.00000
   S   0.2500000   0.2732014   0.5026544 SPIN=   0.00000
   S  -0.2500000  -0.2732014  -0.5026544 SPIN=   0.00000
   F  -0.2500000  -0.1753812   0.0395531 SPIN=   0.00000
   F   0.2500000   0.1753812  -0.0395531 SPIN=   0.00000
%ENDBLOCK POSITIONS_FRAC

# Note: total spin =   8.00

KPOINTS_MP_SPACING 0.07

%BLOCK SPECIES_POT
QC5
%ENDBLOCK SPECIES_POT

SNAP_TO_SYMMETRY
SYMMETRY_GENERATE

