#              Generated by Buildcell
#
# at 05:22:10 (GMT+1.0) 4th August 2020
# in /lustre/scratch/uccabz1/launch_tmp
# on node-c12l-019
# by uccabz1
#
# compiler GCC version 4.9.2
# options -cpp -iprefix /lustre/shared/ucl/apps/gcc/4.9.2/bin/../lib/gcc/x86_64-unknown-linux-gnu/4.9.2/ -mtune=corei7 -march=x86-64 -g -Og
#
# seed  -270439920 -1197973935  1043850314   780946313 -1240032439   546247346  -605444759  -667857858    45452461  -392550117   643938821  1706321695
#
#      Author: C. J. Pickard (cjp20@cam.ac.uk)
#                Space group: P2
#

%BLOCK LATTICE_ABC
      5.31042      5.83445      6.45663
     91.25884     90.00000     90.00000
%ENDBLOCK LATTICE_ABC

%BLOCK POSITIONS_FRAC
  Li   0.0514415   0.2448422   0.2996626 SPIN=   0.00000
  Li   0.0514415  -0.2448422  -0.2996626 SPIN=   0.00000
  Fe  -0.2262052  -0.2440485   0.3022975 SPIN=   4.00000
  Fe  -0.2262052   0.2440485  -0.3022975 SPIN=   4.00000
   O  -0.6869432  -0.3662433  -0.1205222 SPIN=   0.00000
   O  -0.3985369  -0.3291316  -0.4190066 SPIN=   0.00000
   O  -0.2286660  -0.3229735  -0.0619900 SPIN=   0.00000
   O  -0.4788113   0.0048626  -0.1853951 SPIN=   0.00000
   S  -0.4482394  -0.2533715  -0.1967285 SPIN=   0.00000
   O  -0.6869432   0.3662433   0.1205222 SPIN=   0.00000
   O  -0.3985369   0.3291316   0.4190066 SPIN=   0.00000
   O  -0.2286660   0.3229735   0.0619900 SPIN=   0.00000
   O  -0.4788113  -0.0048626   0.1853951 SPIN=   0.00000
   S  -0.4482394   0.2533715   0.1967285 SPIN=   0.00000
   F   0.1143415   0.2446668  -0.2803287 SPIN=   0.00000
   F   0.1143415  -0.2446668   0.2803287 SPIN=   0.00000
%ENDBLOCK POSITIONS_FRAC

# Note: total spin =   8.00

KPOINTS_MP_SPACING 0.07

%BLOCK SPECIES_POT
QC5
%ENDBLOCK SPECIES_POT

SNAP_TO_SYMMETRY
SYMMETRY_GENERATE

