#              Generated by Buildcell
#
# at 05:27:00 (GMT+1.0) 4th August 2020
# in /lustre/scratch/uccabz1/launch_tmp
# on node-c12l-035
# by uccabz1
#
# compiler GCC version 4.9.2
# options -cpp -iprefix /lustre/shared/ucl/apps/gcc/4.9.2/bin/../lib/gcc/x86_64-unknown-linux-gnu/4.9.2/ -mtune=corei7 -march=x86-64 -g -Og
#
# seed -1212781364 -1705961671  1936834819     4370600  1721711378  1052942324 -1111239980  -704371665   428378978  1232636181 -1615573020  2023346986
#
#      Author: C. J. Pickard (cjp20@cam.ac.uk)
#                Space group: Amm2
#

%BLOCK LATTICE_ABC
      5.26734      5.26734      7.23075
     90.00000     90.00000     94.49136
%ENDBLOCK LATTICE_ABC

%BLOCK POSITIONS_FRAC
  Li   0.9027903   0.4506059   0.5000000 SPIN=   0.00000
  Li  -0.5493941  -0.0972097  -0.5000000 SPIN=   0.00000
  Fe   0.0174869   0.0174869  -0.2486154 SPIN=   4.00000
  Fe   0.0174869   0.0174869   0.2486154 SPIN=   4.00000
   O   0.5389007   0.2319868   0.3357485 SPIN=   0.00000
   O   0.5164050  -0.1757740   0.1642524 SPIN=   0.00000
   O  -0.7680132  -0.4610993  -0.3357485 SPIN=   0.00000
   O  -1.1757740  -0.4835950  -0.1642524 SPIN=   0.00000
   O  -0.7680132  -0.4610993   0.3357485 SPIN=   0.00000
   O  -1.1757740  -0.4835950   0.1642524 SPIN=   0.00000
   O   0.5389007   0.2319868  -0.3357485 SPIN=   0.00000
   O   0.5164050  -0.1757740  -0.1642524 SPIN=   0.00000
   S  -0.3544897  -0.3544897  -0.0000000 SPIN=   0.00000
   S   0.3962606   0.3962606   0.5000000 SPIN=   0.00000
   F   0.1712346   0.1712346  -0.0000000 SPIN=   0.00000
   F  -0.1302652  -0.1302652  -0.5000000 SPIN=   0.00000
%ENDBLOCK POSITIONS_FRAC

# Note: total spin =   8.00

KPOINTS_MP_SPACING 0.07

%BLOCK SPECIES_POT
QC5
%ENDBLOCK SPECIES_POT

SNAP_TO_SYMMETRY
SYMMETRY_GENERATE

