#              Generated by Buildcell
#
# at 02:42:56 (GMT+1.0) 19th August 2020
# in /lustre/scratch/uccabz1/launch_tmp
# on node-c12p-025
# by uccabz1
#
# compiler GCC version 4.9.2
# options -cpp -iprefix /lustre/shared/ucl/apps/gcc/4.9.2/bin/../lib/gcc/x86_64-unknown-linux-gnu/4.9.2/ -mtune=corei7 -march=x86-64 -g -Og
#
# seed -1655456329 -1807700346 -2003834262 -2133685135   718333883   540816469 -1584613397  -815293202 -1763387487  2096215152   578888121  -724601728
#
#      Author: C. J. Pickard (cjp20@cam.ac.uk)
#                Space group: Pc
#

%BLOCK LATTICE_ABC
      4.50180      5.47632      8.51641
    107.71683     90.00000     90.00000
%ENDBLOCK LATTICE_ABC

%BLOCK POSITIONS_FRAC
  Li   0.3273239  -0.3452026   0.1467536 SPIN=   0.00000
  Li  -0.3273239  -0.3452026  -0.3532464 SPIN=   0.00000
  Fe   0.3140195   0.1521099  -0.3156598 SPIN=   4.00000
  Fe  -0.3140195   0.1521099   0.1843402 SPIN=   4.00000
   O  -0.0290834  -0.6802406  -0.1498291 SPIN=   0.00000
   O  -0.5287537  -0.4841210  -0.0955053 SPIN=   0.00000
   O  -0.0991947  -0.2241030  -0.1313579 SPIN=   0.00000
   O  -0.1394728  -0.3606619   0.1194059 SPIN=   0.00000
   S  -0.1991261  -0.4372816  -0.0643216 SPIN=   0.00000
   O   0.0290834   0.3197594   0.3501709 SPIN=   0.00000
   O   0.5287537   0.5158790   0.4044947 SPIN=   0.00000
   O   0.0991947   0.7758970   0.3686421 SPIN=   0.00000
   O   0.1394728   0.6393381   0.6194059 SPIN=   0.00000
   S   0.1991261   0.5627184   0.4356784 SPIN=   0.00000
   F   0.3503838   0.1155268   0.0482566 SPIN=   0.00000
   F  -0.3503838  -0.8844732  -0.4517434 SPIN=   0.00000
%ENDBLOCK POSITIONS_FRAC

# Note: total spin =   8.00

KPOINTS_MP_SPACING 0.07

%BLOCK SPECIES_POT
QC5
%ENDBLOCK SPECIES_POT

SNAP_TO_SYMMETRY
SYMMETRY_GENERATE

