#              Generated by Buildcell
#
# at 02:21:24 (GMT+1.0) 19th August 2020
# in /lustre/scratch/uccabz1/launch_tmp
# on node-c12b-001
# by uccabz1
#
# compiler GCC version 4.9.2
# options -cpp -iprefix /lustre/shared/ucl/apps/gcc/4.9.2/bin/../lib/gcc/x86_64-unknown-linux-gnu/4.9.2/ -mtune=corei7 -march=x86-64 -g -Og
#
# seed  -428736093   -78971188  -412038687 -1158319347 -1632782817  1081834285   -11100377  -207328456  -217919008  -592287273  1599799170  1658778738
#
#      Author: C. J. Pickard (cjp20@cam.ac.uk)
#                Space group: P-1
#

%BLOCK LATTICE_ABC
      4.99889      5.85508      7.25216
     77.40775     80.32496     76.64431
%ENDBLOCK LATTICE_ABC

%BLOCK POSITIONS_FRAC
  Li   0.1917310  -0.4899903  -0.3227160 SPIN=   0.00000
  Li  -0.1917310   0.4899903   0.3227160 SPIN=   0.00000
  Fe   0.0343436   0.0285165  -0.2596413 SPIN=   4.00000
  Fe  -0.0343436  -0.0285165   0.2596413 SPIN=   4.00000
   O   0.1105011   0.3014662   0.4977460 SPIN=   0.00000
   O   0.3506301   0.1088420   0.2266950 SPIN=   0.00000
   O   0.6219849   0.2303512   0.4310935 SPIN=   0.00000
   O   0.3349022   0.5377048   0.2131616 SPIN=   0.00000
   S   0.3545046   0.2945910   0.3421740 SPIN=   0.00000
   O  -0.1105011  -0.3014662  -0.4977460 SPIN=   0.00000
   O  -0.3506301  -0.1088420  -0.2266950 SPIN=   0.00000
   O  -0.6219849  -0.2303512  -0.4310935 SPIN=   0.00000
   O  -0.3349022  -0.5377048  -0.2131616 SPIN=   0.00000
   S  -0.3545046  -0.2945910  -0.3421740 SPIN=   0.00000
   F   0.2197164   0.2469380  -0.1365057 SPIN=   0.00000
   F  -0.2197164  -0.2469380   0.1365057 SPIN=   0.00000
%ENDBLOCK POSITIONS_FRAC

# Note: total spin =   8.00

KPOINTS_MP_SPACING 0.07

%BLOCK SPECIES_POT
QC5
%ENDBLOCK SPECIES_POT

SNAP_TO_SYMMETRY
SYMMETRY_GENERATE

