#              Generated by Buildcell
#
# at 05:46:42 (GMT+1.0) 4th August 2020
# in /lustre/scratch/uccabz1/launch_tmp
# on node-c12h-034
# by uccabz1
#
# compiler GCC version 4.9.2
# options -cpp -iprefix /lustre/shared/ucl/apps/gcc/4.9.2/bin/../lib/gcc/x86_64-unknown-linux-gnu/4.9.2/ -mtune=corei7 -march=x86-64 -g -Og
#
# seed -1678732014  1816021368  -797161687 -2029004484   567828596 -1540553180   868589610  1396828493 -1668650326  1124082761  -910985300  -215035408
#
#      Author: C. J. Pickard (cjp20@cam.ac.uk)
#                Space group: Cmc21
#

%BLOCK LATTICE_ABC
      4.29969      4.29969     11.12196
     90.00000     90.00000    103.42171
%ENDBLOCK LATTICE_ABC

%BLOCK POSITIONS_FRAC
  Li   0.3678344  -0.3678344  -0.1327771 SPIN=   0.00000
  Li  -0.3678344   0.3678344   0.3672229 SPIN=   0.00000
  Fe   0.1237069  -0.1237069   0.1305582 SPIN=   4.00000
  Fe  -0.1237069   0.1237069  -0.3694418 SPIN=   4.00000
   O   0.1333386   0.3106435   0.3733269 SPIN=   0.00000
   O   0.4420708   0.0990743   0.5284027 SPIN=   0.00000
   O  -0.1333386  -0.3106435  -0.1266731 SPIN=   0.00000
   O  -0.4420708  -0.0990743   0.0284027 SPIN=   0.00000
   O   0.3106435   0.1333386  -0.1266731 SPIN=   0.00000
   O   0.0990743   0.4420708   0.0284027 SPIN=   0.00000
   O  -0.3106435  -0.1333386   0.3733269 SPIN=   0.00000
   O  -0.0990743  -0.4420708   0.5284027 SPIN=   0.00000
   S  -0.2261134   0.2261134  -0.0782284 SPIN=   0.00000
   S   0.2261134  -0.2261134   0.4217716 SPIN=   0.00000
   F  -0.4224733   0.4224733   0.2029294 SPIN=   0.00000
   F   0.4224733  -0.4224733  -0.2970706 SPIN=   0.00000
%ENDBLOCK POSITIONS_FRAC

# Note: total spin =   8.00

KPOINTS_MP_SPACING 0.07

%BLOCK SPECIES_POT
QC5
%ENDBLOCK SPECIES_POT

SNAP_TO_SYMMETRY
SYMMETRY_GENERATE

