#              Generated by Buildcell
#
# at 22:29:29 (GMT+1.0) 18th August 2020
# in /lustre/scratch/uccabz1/launch_tmp
# on node-c12f-008
# by uccabz1
#
# compiler GCC version 4.9.2
# options -cpp -iprefix /lustre/shared/ucl/apps/gcc/4.9.2/bin/../lib/gcc/x86_64-unknown-linux-gnu/4.9.2/ -mtune=corei7 -march=x86-64 -g -Og
#
# seed   776031831 -1134703837  -430780345    30712463   296359372   237719353 -2007754217  -881419121  -995361570  -937054981  -523940407 -1488681638
#
#      Author: C. J. Pickard (cjp20@cam.ac.uk)
#                Space group: Pc
#

%BLOCK LATTICE_ABC
      4.15080      7.14954      7.24270
    111.48591     90.00000     90.00000
%ENDBLOCK LATTICE_ABC

%BLOCK POSITIONS_FRAC
  Li   0.2511545  -0.4452204   0.1172232 SPIN=   0.00000
  Li  -0.2511545  -0.4452204  -0.3827768 SPIN=   0.00000
  Fe  -0.2749314  -0.0963864   0.3119174 SPIN=   4.00000
  Fe   0.2749314  -0.0963864  -0.1880826 SPIN=   4.00000
   O  -0.3644937   0.3473015   0.1122986 SPIN=   0.00000
   O   0.1098461   0.2769103  -0.1098321 SPIN=   0.00000
   O  -0.3128666   0.5110587  -0.1338817 SPIN=   0.00000
   O  -0.4266628   0.1465319  -0.2457472 SPIN=   0.00000
   S  -0.2485442   0.3204506  -0.0942906 SPIN=   0.00000
   O   0.3644937   0.3473015   0.6122986 SPIN=   0.00000
   O  -0.1098461   0.2769103   0.3901679 SPIN=   0.00000
   O   0.3128666   0.5110587   0.3661183 SPIN=   0.00000
   O   0.4266628   0.1465319   0.2542528 SPIN=   0.00000
   S   0.2485442   0.3204506   0.4057094 SPIN=   0.00000
   F   0.2443795  -0.2165219   0.0284003 SPIN=   0.00000
   F  -0.2443795  -0.2165219  -0.4715997 SPIN=   0.00000
%ENDBLOCK POSITIONS_FRAC

# Note: total spin =   8.00

KPOINTS_MP_SPACING 0.07

%BLOCK SPECIES_POT
QC5
%ENDBLOCK SPECIES_POT

SNAP_TO_SYMMETRY
SYMMETRY_GENERATE

