#              Generated by Buildcell
#
# at 02:54:29 (GMT+1.0) 19th August 2020
# in /lustre/scratch/uccabz1/launch_tmp
# on node-c12h-024
# by uccabz1
#
# compiler GCC version 4.9.2
# options -cpp -iprefix /lustre/shared/ucl/apps/gcc/4.9.2/bin/../lib/gcc/x86_64-unknown-linux-gnu/4.9.2/ -mtune=corei7 -march=x86-64 -g -Og
#
# seed   509872903  -554599585   -59705737 -1441722659  -286441848    94410253   328299636  1903789781  1108427259 -1959023250  1671021336  -730928881
#
#      Author: C. J. Pickard (cjp20@cam.ac.uk)
#                Space group: P-1
#

%BLOCK LATTICE_ABC
      4.03829      4.87507     11.01704
     80.75714     80.63234     70.16350
%ENDBLOCK LATTICE_ABC

%BLOCK POSITIONS_FRAC
  Li  -0.2679081  -0.3125826  -0.1277687 SPIN=   0.00000
  Li   0.2679081   0.3125826   0.1277687 SPIN=   0.00000
  Fe  -0.2236517   0.3563180  -0.3397923 SPIN=   4.00000
  Fe   0.2236517  -0.3563180   0.3397923 SPIN=   4.00000
   O  -0.4302050   0.0635886   0.2531818 SPIN=   0.00000
   O  -0.2602312   0.3424819   0.0588080 SPIN=   0.00000
   O  -0.2586193  -0.1652121   0.0576747 SPIN=   0.00000
   O   0.1944804  -0.0756427   0.1582780 SPIN=   0.00000
   O   0.4302050  -0.0635886  -0.2531818 SPIN=   0.00000
   O   0.2602312  -0.3424819  -0.0588080 SPIN=   0.00000
   O   0.2586193   0.1652121  -0.0576747 SPIN=   0.00000
   O  -0.1944804   0.0756427  -0.1582780 SPIN=   0.00000
   S   0.0000000  -0.0000000   0.0000000 SPIN=   0.00000
   S  -0.5000000  -1.0000000   0.5000000 SPIN=   0.00000
   F  -0.1030324  -0.5335212   0.2733585 SPIN=   0.00000
   F   0.1030324   0.5335212  -0.2733585 SPIN=   0.00000
%ENDBLOCK POSITIONS_FRAC

# Note: total spin =   8.00

KPOINTS_MP_SPACING 0.07

%BLOCK SPECIES_POT
QC5
%ENDBLOCK SPECIES_POT

SNAP_TO_SYMMETRY
SYMMETRY_GENERATE

