#              Generated by Buildcell
#
# at 00:11:18 (GMT+1.0) 19th August 2020
# in /scratch/scratch/uccabz1/launch_tmp
# on node-k10c-028
# by uccabz1
#
# compiler GCC version 4.9.2
# options -cpp -iprefix /scratch/UCL/applications/gcc/4.9.2/bin/../lib/gcc/x86_64-unknown-linux-gnu/4.9.2/ -mtune=corei7 -march=x86-64 -g -O2
#
# seed -1493734266   -56449327  1525765937  2033310061  -754947750  2023304294   425561061   243659756   964078237  1679462366 -1102787566   181359452
#
#      Author: C. J. Pickard (cjp20@cam.ac.uk)
#                Space group: Pmc21
#

%BLOCK LATTICE_ABC
      4.88022      5.77099      7.10135
     90.00000     90.00000     90.00000
%ENDBLOCK LATTICE_ABC

%BLOCK POSITIONS_FRAC
  Li  -0.0000000   0.1155711   0.2978615 SPIN=   0.00000
  Li  -0.0000000  -0.1155711  -0.2021385 SPIN=   0.00000
  Fe  -0.0000000   0.3845727  -0.3331558 SPIN=   4.00000
  Fe   0.0000000  -0.3845727   0.1668442 SPIN=   4.00000
   O  -0.2702988  -0.0675663   0.1425336 SPIN=   0.00000
   O  -0.2734010   0.3535244   0.2084845 SPIN=   0.00000
   O   0.2702988   0.0675663  -0.3574664 SPIN=   0.00000
   O   0.2734010  -0.3535244  -0.2915155 SPIN=   0.00000
   O  -0.2702988   0.0675663  -0.3574664 SPIN=   0.00000
   O  -0.2734010  -0.3535244  -0.2915155 SPIN=   0.00000
   O   0.2702988  -0.0675663   0.1425336 SPIN=   0.00000
   O   0.2734010   0.3535244   0.2084845 SPIN=   0.00000
   S  -0.5000000  -0.2835006  -0.1496136 SPIN=   0.00000
   S  -0.5000000   0.2835006   0.3503864 SPIN=   0.00000
   F  -0.0000000   0.2095326  -0.0733562 SPIN=   0.00000
   F   0.0000000  -0.2095326   0.4266438 SPIN=   0.00000
%ENDBLOCK POSITIONS_FRAC

# Note: total spin =   8.00

KPOINTS_MP_SPACING 0.07

%BLOCK SPECIES_POT
QC5
%ENDBLOCK SPECIES_POT

SNAP_TO_SYMMETRY
SYMMETRY_GENERATE

