#              Generated by Buildcell
#
# at 04:16:29 (GMT+1.0) 4th August 2020
# in /lustre/scratch/uccabz1/launch_tmp
# on node-c12f-032
# by uccabz1
#
# compiler GCC version 4.9.2
# options -cpp -iprefix /lustre/shared/ucl/apps/gcc/4.9.2/bin/../lib/gcc/x86_64-unknown-linux-gnu/4.9.2/ -mtune=corei7 -march=x86-64 -g -Og
#
# seed -1318772384 -1246363065 -1124777157  -657901035  1031059154  2064509360  -130422204   141987684   831585342  -289610786   880421515  -762548387
#
#      Author: C. J. Pickard (cjp20@cam.ac.uk)
#                Space group: C2
#

%BLOCK LATTICE_ABC
      5.31896      5.31896      7.97387
    108.47883    108.65431     92.59804
%ENDBLOCK LATTICE_ABC

%BLOCK POSITIONS_FRAC
  Li   0.5286847   0.0286847   0.5000000 SPIN=   0.00000
  Li   0.0217667  -0.4782333   0.5000000 SPIN=   0.00000
  Fe  -0.4188995  -0.2812285  -0.2508586 SPIN=   4.00000
  Fe  -0.0303699  -0.1680409   0.2508586 SPIN=   4.00000
   O  -0.0152856   0.1947989  -0.4492730 SPIN=   0.00000
   O   0.1058075   0.5628836  -0.1405181 SPIN=   0.00000
   O   0.2261581   0.1146551  -0.1540319 SPIN=   0.00000
   O  -0.2498557   0.1790625  -0.2292689 SPIN=   0.00000
   S   0.0167061   0.2628500  -0.2432730 SPIN=   0.00000
   O   0.6440719   0.4339874   0.4492730 SPIN=   0.00000
   O   0.7034017   0.2463256   0.1405181 SPIN=   0.00000
   O   0.2686870   0.3801900   0.1540319 SPIN=   0.00000
   O   0.4083314  -0.0205868   0.2292689 SPIN=   0.00000
   S   0.5061230   0.2599791   0.2432730 SPIN=   0.00000
   F  -0.3351956  -0.3351956  -0.0000000 SPIN=   0.00000
   F  -0.7256685  -0.2256685  -0.5000000 SPIN=   0.00000
%ENDBLOCK POSITIONS_FRAC

# Note: total spin =   8.00

KPOINTS_MP_SPACING 0.07

%BLOCK SPECIES_POT
QC5
%ENDBLOCK SPECIES_POT

SNAP_TO_SYMMETRY
SYMMETRY_GENERATE

