#              Generated by Buildcell
#
# at 01:55:28 (GMT+1.0) 19th August 2020
# in /lustre/scratch/uccabz1/launch_tmp
# on node-c12a-010
# by uccabz1
#
# compiler GCC version 4.9.2
# options -cpp -iprefix /lustre/shared/ucl/apps/gcc/4.9.2/bin/../lib/gcc/x86_64-unknown-linux-gnu/4.9.2/ -mtune=corei7 -march=x86-64 -g -Og
#
# seed -1880489404  1486076010  1544010228   383236065  -404569299  -289853408 -1389048312   852945011  -108530221  1967576473  -928353354  -289273527
#
#      Author: C. J. Pickard (cjp20@cam.ac.uk)
#                Space group: C2
#

%BLOCK LATTICE_ABC
      5.43210      5.43210      7.10617
     77.98319     77.98319     83.27386
%ENDBLOCK LATTICE_ABC

%BLOCK POSITIONS_FRAC
  Li  -0.2974434  -0.1839814  -0.3454487 SPIN=   0.00000
  Li   0.1839814   0.2974434   0.3454487 SPIN=   0.00000
  Fe  -0.0066980   0.4732173  -0.0497613 SPIN=   4.00000
  Fe  -0.4732173   0.0066980   0.0497613 SPIN=   4.00000
   O   0.0295426  -0.3106331   0.4927802 SPIN=   0.00000
   O  -0.2864288  -0.2059706   0.2769902 SPIN=   0.00000
   O   0.1488108  -0.3642001   0.1472301 SPIN=   0.00000
   O   0.0670786   0.0645139   0.2255601 SPIN=   0.00000
   S  -0.0102492  -0.2040725   0.2856402 SPIN=   0.00000
   O   0.3106331  -0.0295426  -0.4927802 SPIN=   0.00000
   O   0.2059706   0.2864288  -0.2769902 SPIN=   0.00000
   O   0.3642001  -0.1488108  -0.1472301 SPIN=   0.00000
   O  -0.0645139  -0.0670786  -0.2255601 SPIN=   0.00000
   S   0.2040725   0.0102492  -0.2856402 SPIN=   0.00000
   F  -0.3525935   0.4495534  -0.2598907 SPIN=   0.00000
   F  -0.4495534   0.3525935   0.2598907 SPIN=   0.00000
%ENDBLOCK POSITIONS_FRAC

# Note: total spin =   8.00

KPOINTS_MP_SPACING 0.07

%BLOCK SPECIES_POT
QC5
%ENDBLOCK SPECIES_POT

SNAP_TO_SYMMETRY
SYMMETRY_GENERATE

