#              Generated by Buildcell
#
# at 22:15:02 (GMT+1.0) 18th August 2020
# in /lustre/scratch/uccabz1/launch_tmp
# on node-c12b-013
# by uccabz1
#
# compiler GCC version 4.9.2
# options -cpp -iprefix /lustre/shared/ucl/apps/gcc/4.9.2/bin/../lib/gcc/x86_64-unknown-linux-gnu/4.9.2/ -mtune=corei7 -march=x86-64 -g -Og
#
# seed    17571564  1202284771 -1605980817 -1505871711  1227648211  1347768894  2069244800  -643729879  -406906662  1957890944   203347875  1630941205
#
#      Author: C. J. Pickard (cjp20@cam.ac.uk)
#                Space group: P-1
#

%BLOCK LATTICE_ABC
      4.59224      5.41924      8.28318
     90.48468    103.74938     92.52292
%ENDBLOCK LATTICE_ABC

%BLOCK POSITIONS_FRAC
  Li  -0.0000000  -0.5000000   0.0000000 SPIN=   0.00000
  Li  -1.0000000  -0.5000000  -0.5000000 SPIN=   0.00000
  Fe   0.5000000   1.0000000  -0.0000000 SPIN=   5.81170
  Fe  -0.5000000  -0.0000000  -0.5000000 SPIN=   2.18830
   O  -0.5885161  -0.6397341  -0.4110959 SPIN=   0.00000
   O  -0.7022256  -0.2766227  -0.2576059 SPIN=   0.00000
   O  -0.1750071  -0.3834894  -0.2322334 SPIN=   0.00000
   O  -0.5086242  -0.6489298  -0.1050531 SPIN=   0.00000
   S  -0.4935932  -0.4871940  -0.2514971 SPIN=   0.00000
   O   0.5885161   0.6397341   0.4110959 SPIN=   0.00000
   O   0.7022256   0.2766227   0.2576059 SPIN=   0.00000
   O   0.1750071   0.3834894   0.2322334 SPIN=   0.00000
   O   0.5086242   0.6489298   0.1050531 SPIN=   0.00000
   S   0.4935932   0.4871940   0.2514971 SPIN=   0.00000
   F   0.0000000   0.0000000   0.0000000 SPIN=   0.00000
   F   0.0000000   0.0000000   0.5000000 SPIN=   0.00000
%ENDBLOCK POSITIONS_FRAC

# Note: total spin =   8.00

KPOINTS_MP_SPACING 0.07

%BLOCK SPECIES_POT
QC5
%ENDBLOCK SPECIES_POT

SNAP_TO_SYMMETRY
SYMMETRY_GENERATE

