#              Generated by Buildcell
#
# at 02:51:42 (GMT+1.0) 19th August 2020
# in /lustre/scratch/uccabz1/launch_tmp
# on node-c12l-017
# by uccabz1
#
# compiler GCC version 4.9.2
# options -cpp -iprefix /lustre/shared/ucl/apps/gcc/4.9.2/bin/../lib/gcc/x86_64-unknown-linux-gnu/4.9.2/ -mtune=corei7 -march=x86-64 -g -Og
#
# seed  -712958922 -1445538863 -1960558211  -584941115  1515598271  1565966074 -1425805085 -1281304420  2093153245  1671277958   431092359  1465848291
#
#      Author: C. J. Pickard (cjp20@cam.ac.uk)
#                Space group: Cc
#

%BLOCK LATTICE_ABC
      5.77822      5.77822      6.25821
     97.28624     97.28624    102.22431
%ENDBLOCK LATTICE_ABC

%BLOCK POSITIONS_FRAC
  Li  -0.4029800  -0.2204222  -0.3913940 SPIN=   0.00000
  Li  -0.2204222  -0.4029800   0.1086060 SPIN=   0.00000
  Fe   0.4365182   0.0988936  -0.0332765 SPIN=   4.00000
  Fe   0.0988936   0.4365182   0.4667235 SPIN=   4.00000
   O   0.2537853  -0.3320817   0.2284995 SPIN=   0.00000
   O  -0.0265180  -0.3817606  -0.1164503 SPIN=   0.00000
   O   0.1474485  -0.7190216  -0.0224036 SPIN=   0.00000
   O   0.4040913  -0.3629582  -0.1247171 SPIN=   0.00000
   S   0.1947018  -0.4489555  -0.0087679 SPIN=   0.00000
   O  -0.3320817   0.2537853   0.7284995 SPIN=   0.00000
   O  -0.3817606  -0.0265180   0.3835497 SPIN=   0.00000
   O  -0.7190216   0.1474485   0.4775964 SPIN=   0.00000
   O  -0.3629582   0.4040913   0.3752829 SPIN=   0.00000
   S  -0.4489555   0.1947018   0.4912321 SPIN=   0.00000
   F  -0.2304106  -0.0235775  -0.0086864 SPIN=   0.00000
   F  -0.0235775  -0.2304106   0.4913136 SPIN=   0.00000
%ENDBLOCK POSITIONS_FRAC

# Note: total spin =   8.00

KPOINTS_MP_SPACING 0.07

%BLOCK SPECIES_POT
QC5
%ENDBLOCK SPECIES_POT

SNAP_TO_SYMMETRY
SYMMETRY_GENERATE

