#              Generated by Buildcell
#
# at 01:37:45 (GMT+1.0) 19th August 2020
# in /lustre/scratch/uccabz1/launch_tmp
# on node-c12m-009
# by uccabz1
#
# compiler GCC version 4.9.2
# options -cpp -iprefix /lustre/shared/ucl/apps/gcc/4.9.2/bin/../lib/gcc/x86_64-unknown-linux-gnu/4.9.2/ -mtune=corei7 -march=x86-64 -g -Og
#
# seed  -571836356   361317874 -1019488280  1016058506  -910846964  1687921328  -716793648   773173316   931046963   594352382  -749195769  1474288392
#
#      Author: C. J. Pickard (cjp20@cam.ac.uk)
#                Space group: Cm
#

%BLOCK LATTICE_ABC
      3.90833      7.29373      7.94824
     62.68857     86.99566     83.44081
%ENDBLOCK LATTICE_ABC

%BLOCK POSITIONS_FRAC
  Li   0.3959596   0.1853002  -0.5040657 SPIN=   0.00000
  Li   0.3959596  -0.3187655   0.5040657 SPIN=   0.00000
  Fe  -0.0388797   0.0714137   0.2587318 SPIN=   4.00000
  Fe  -0.0388797   0.3301455  -0.2587318 SPIN=   4.00000
   O   0.0981941  -0.5531546   0.4613300 SPIN=   0.00000
   O  -0.2518630  -0.2155711   0.2927164 SPIN=   0.00000
   O  -0.1839684  -0.4634755   0.1579531 SPIN=   0.00000
   O   0.3104893  -0.2815022   0.1616672 SPIN=   0.00000
   S  -0.0067870  -0.3784259   0.2684167 SPIN=   0.00000
   O   0.0981941  -0.0918246  -0.4613300 SPIN=   0.00000
   O  -0.2518630   0.0771452  -0.2927164 SPIN=   0.00000
   O  -0.1839684  -0.3055224  -0.1579531 SPIN=   0.00000
   O   0.3104893  -0.1198350  -0.1616672 SPIN=   0.00000
   S  -0.0067870  -0.1100092  -0.2684167 SPIN=   0.00000
   F  -0.4885545   0.4319565  -0.2576578 SPIN=   0.00000
   F  -0.4885545   0.1742987   0.2576578 SPIN=   0.00000
%ENDBLOCK POSITIONS_FRAC

# Note: total spin =   8.00

KPOINTS_MP_SPACING 0.07

%BLOCK SPECIES_POT
QC5
%ENDBLOCK SPECIES_POT

SNAP_TO_SYMMETRY
SYMMETRY_GENERATE

