#              Generated by Buildcell
#
# at 23:52:13 (GMT+1.0) 18th August 2020
# in /scratch/scratch/uccabz1/launch_tmp
# on node-k10e-006
# by uccabz1
#
# compiler GCC version 4.9.2
# options -cpp -iprefix /scratch/UCL/applications/gcc/4.9.2/bin/../lib/gcc/x86_64-unknown-linux-gnu/4.9.2/ -mtune=corei7 -march=x86-64 -g -O2
#
# seed   148581428 -1443363077  1763270272   821712080  -106940721    30962000   339148933 -1129412165  1065021998  1457826096 -1074527192  -209624680
#
#      Author: C. J. Pickard (cjp20@cam.ac.uk)
#                Space group: P21
#

%BLOCK LATTICE_ABC
      3.97832      4.09012     12.30152
     90.00000     90.00000     92.34729
%ENDBLOCK LATTICE_ABC

%BLOCK POSITIONS_FRAC
  Li  -0.4603445  -0.2992133  -0.2425546 SPIN=   0.00000
  Li   0.4603445   0.2992133   0.2574454 SPIN=   0.00000
  Fe   0.1233472   0.2889040   0.0374234 SPIN=   4.00000
  Fe  -0.1233472  -0.2889040  -0.4625766 SPIN=   4.00000
   O  -0.1802056   0.0522701   0.2006884 SPIN=   0.00000
   O   0.1092902  -0.4704970   0.1878242 SPIN=   0.00000
   O  -0.2842431  -0.3779763   0.3395173 SPIN=   0.00000
   O   0.2657257  -0.0731526   0.3327705 SPIN=   0.00000
   S  -0.0223582  -0.2173389   0.2652001 SPIN=   0.00000
   O   0.1802056  -0.0522701  -0.2993116 SPIN=   0.00000
   O  -0.1092902   0.4704970  -0.3121758 SPIN=   0.00000
   O   0.2842431   0.3779763  -0.1604827 SPIN=   0.00000
   O  -0.2657257   0.0731526  -0.1672295 SPIN=   0.00000
   S   0.0223582   0.2173389  -0.2347999 SPIN=   0.00000
   F  -0.2980341   0.1480520   0.4991792 SPIN=   0.00000
   F   0.2980341  -0.1480520  -0.0008208 SPIN=   0.00000
%ENDBLOCK POSITIONS_FRAC

# Note: total spin =   8.00

KPOINTS_MP_SPACING 0.07

%BLOCK SPECIES_POT
QC5
%ENDBLOCK SPECIES_POT

SNAP_TO_SYMMETRY
SYMMETRY_GENERATE

