#              Generated by Buildcell
#
# at 23:08:50 (GMT+1.0) 18th August 2020
# in /lustre/scratch/uccabz1/launch_tmp
# on node-c12k-036
# by uccabz1
#
# compiler GCC version 4.9.2
# options -cpp -iprefix /lustre/shared/ucl/apps/gcc/4.9.2/bin/../lib/gcc/x86_64-unknown-linux-gnu/4.9.2/ -mtune=corei7 -march=x86-64 -g -Og
#
# seed -1672706543 -1673550972 -1151841761   714374542  -171554990  1559330608  1649404078 -1976379326 -1111600385   990207963  1224863896   -93907603
#
#      Author: C. J. Pickard (cjp20@cam.ac.uk)
#                Space group: Cc
#

%BLOCK LATTICE_ABC
      5.63007      6.28327      6.53900
     61.28551     85.37917     80.34701
%ENDBLOCK LATTICE_ABC

%BLOCK POSITIONS_FRAC
  Li   0.2374620  -0.2624739   0.2444535 SPIN=   0.00000
  Li  -0.2625380  -0.0180205  -0.2444535 SPIN=   0.00000
  Fe  -0.1458497  -0.4950560   0.2001064 SPIN=   4.00000
  Fe   0.3541503  -0.2949496  -0.2001064 SPIN=   4.00000
   O   0.6893351  -0.0489816   0.2122786 SPIN=   0.00000
   O   0.4602569   0.0678016   0.4914613 SPIN=   0.00000
   O   0.2519489   0.1015672   0.1556898 SPIN=   0.00000
   O   0.5372820   0.3877194   0.0915823 SPIN=   0.00000
   S   0.4847057   0.1270266   0.2377530 SPIN=   0.00000
   O   0.1893351   0.1632970  -0.2122786 SPIN=   0.00000
   O  -0.0397431   0.5592629  -0.4914613 SPIN=   0.00000
   O  -0.2480511   0.2572570  -0.1556898 SPIN=   0.00000
   O   0.0372820   0.4793017  -0.0915823 SPIN=   0.00000
   S  -0.0152943   0.3647796  -0.2377530 SPIN=   0.00000
   F   0.4847019  -0.4740015   0.4398114 SPIN=   0.00000
   F  -0.0152981  -0.0341901  -0.4398114 SPIN=   0.00000
%ENDBLOCK POSITIONS_FRAC

# Note: total spin =   8.00

KPOINTS_MP_SPACING 0.07

%BLOCK SPECIES_POT
QC5
%ENDBLOCK SPECIES_POT

SNAP_TO_SYMMETRY
SYMMETRY_GENERATE

