#              Generated by Buildcell
#
# at 19:56:16 (GMT+1.0) 18th August 2020
# in /scratch/scratch/uccabz1/launch_tmp
# on node-k10i-030
# by uccabz1
#
# compiler GCC version 4.9.2
# options -cpp -iprefix /scratch/UCL/applications/gcc/4.9.2/bin/../lib/gcc/x86_64-unknown-linux-gnu/4.9.2/ -mtune=corei7 -march=x86-64 -g -O2
#
# seed -1914925674 -1764916276 -1614843902  1694429804    33846742  -120967999 -1770227572  1428083624   824144268  -145026127  1754258680   551405625
#
#      Author: C. J. Pickard (cjp20@cam.ac.uk)
#                Space group: Cc
#

%BLOCK LATTICE_ABC
      5.11847      6.53926      7.26551
     66.82397     69.37537     66.96059
%ENDBLOCK LATTICE_ABC

%BLOCK POSITIONS_FRAC
  Li   0.0768390  -0.4906341  -0.1712300 SPIN=   0.00000
  Li  -0.4149749   0.0093659   0.3287700 SPIN=   0.00000
  Fe   0.3510034  -0.1635989  -0.0806089 SPIN=   4.00000
  Fe  -0.1067957   0.3364011   0.4193911 SPIN=   4.00000
   O  -0.3747600   0.4762280  -0.2817259 SPIN=   0.00000
   O  -0.0328141   0.1779233  -0.0686330 SPIN=   0.00000
   O  -0.4602171   0.0941765  -0.0755431 SPIN=   0.00000
   O  -0.5308015   0.3764160   0.0983475 SPIN=   0.00000
   S  -0.3496481   0.2811860  -0.0818886 SPIN=   0.00000
   O   0.1802579  -0.0237720   0.2182741 SPIN=   0.00000
   O  -0.0764762  -0.3220767   0.4313670 SPIN=   0.00000
   O   0.4415837  -0.4058235   0.4244569 SPIN=   0.00000
   O   0.0560379  -0.1235840   0.5983475 SPIN=   0.00000
   S   0.1503508  -0.2188140   0.4181114 SPIN=   0.00000
   F  -0.1086409  -0.3639956   0.0812775 SPIN=   0.00000
   F   0.3913591   0.1360044  -0.4187225 SPIN=   0.00000
%ENDBLOCK POSITIONS_FRAC

# Note: total spin =   8.00

KPOINTS_MP_SPACING 0.07

%BLOCK SPECIES_POT
QC5
%ENDBLOCK SPECIES_POT

SNAP_TO_SYMMETRY
SYMMETRY_GENERATE

