#              Generated by Buildcell
#
# at 02:33:18 (GMT+1.0) 4th August 2020
# in /lustre/scratch/uccabz1/launch_tmp
# on node-c12f-019
# by uccabz1
#
# compiler GCC version 4.9.2
# options -cpp -iprefix /lustre/shared/ucl/apps/gcc/4.9.2/bin/../lib/gcc/x86_64-unknown-linux-gnu/4.9.2/ -mtune=corei7 -march=x86-64 -g -Og
#
# seed   601881759   338912888   492761764 -1201740281 -1833750900   256743795 -1629811258   470126604   728229813  -671857824   887200997    19683233
#
#      Author: C. J. Pickard (cjp20@cam.ac.uk)
#                Space group: P-1
#

%BLOCK LATTICE_ABC
      4.54259      5.56957      8.31747
     76.16610     80.63179     80.81817
%ENDBLOCK LATTICE_ABC

%BLOCK POSITIONS_FRAC
  Li  -0.2773569  -0.7494750   0.3649415 SPIN=   0.00000
  Li   0.2773569   0.7494750  -0.3649415 SPIN=   0.00000
  Fe  -0.2709620  -0.2465566  -0.0904645 SPIN=   4.00000
  Fe   0.2709620   0.2465566   0.0904645 SPIN=   4.00000
   O  -0.5926103   0.2943679  -0.2353206 SPIN=   0.00000
   O  -0.2766335   0.5411450  -0.4669925 SPIN=   0.00000
   O  -0.1107593   0.0942121  -0.3587648 SPIN=   0.00000
   O  -0.1104495   0.4005617  -0.1868170 SPIN=   0.00000
   S  -0.2726131   0.3325717  -0.3119737 SPIN=   0.00000
   O   0.5926103  -0.2943679   0.2353206 SPIN=   0.00000
   O   0.2766335  -0.5411450   0.4669925 SPIN=   0.00000
   O   0.1107593  -0.0942121   0.3587648 SPIN=   0.00000
   O   0.1104495  -0.4005617   0.1868170 SPIN=   0.00000
   S   0.2726131  -0.3325717   0.3119737 SPIN=   0.00000
   F  -0.2640838   0.1909969   0.1419323 SPIN=   0.00000
   F   0.2640838  -0.1909969  -0.1419323 SPIN=   0.00000
%ENDBLOCK POSITIONS_FRAC

# Note: total spin =   8.00

KPOINTS_MP_SPACING 0.07

%BLOCK SPECIES_POT
QC5
%ENDBLOCK SPECIES_POT

SNAP_TO_SYMMETRY
SYMMETRY_GENERATE

