#              Generated by Buildcell
#
# at 05:09:35 (GMT+1.0) 4th August 2020
# in /lustre/scratch/uccabz1/launch_tmp
# on node-c12e-010
# by uccabz1
#
# compiler GCC version 4.9.2
# options -cpp -iprefix /lustre/shared/ucl/apps/gcc/4.9.2/bin/../lib/gcc/x86_64-unknown-linux-gnu/4.9.2/ -mtune=corei7 -march=x86-64 -g -Og
#
# seed  1627664058 -1060433249 -1670208048   943992352  -700532341   240000605   636862374  -657216264 -1753394353   791756268   489268967  1503220751
#
#      Author: C. J. Pickard (cjp20@cam.ac.uk)
#                Space group: Cc
#

%BLOCK LATTICE_ABC
      5.86444      6.24502      6.44017
    119.00259    102.37028     90.00000
%ENDBLOCK LATTICE_ABC

%BLOCK POSITIONS_FRAC
  Li  -0.3819846  -0.2933596   0.0585967 SPIN=   0.00000
  Li   0.1180154   0.3519563   0.0585967 SPIN=   0.00000
  Fe  -0.3006907   0.2794741   0.2037053 SPIN=   4.00000
  Fe   0.1993093  -0.0757689   0.2037053 SPIN=   4.00000
   O   0.1360301  -0.3331734  -0.5858946 SPIN=   0.00000
   O   0.4388309  -0.6098631  -0.5883230 SPIN=   0.00000
   O   0.1303235  -0.5655492  -0.3660266 SPIN=   0.00000
   O   0.4430113  -0.2199605  -0.2076827 SPIN=   0.00000
   S   0.2870489  -0.4321366  -0.4369817 SPIN=   0.00000
   O  -0.3639699  -0.2527211  -0.5858946 SPIN=   0.00000
   O  -0.0611691   0.0215401  -0.5883230 SPIN=   0.00000
   O  -0.3696765   0.1995226  -0.3660266 SPIN=   0.00000
   O  -0.0569887   0.0122778  -0.2076827 SPIN=   0.00000
   S  -0.2129511  -0.0048452  -0.4369817 SPIN=   0.00000
   F  -0.0964071  -0.2903158  -0.0477485 SPIN=   0.00000
   F   0.4035929   0.2425673  -0.0477485 SPIN=   0.00000
%ENDBLOCK POSITIONS_FRAC

# Note: total spin =   8.00

KPOINTS_MP_SPACING 0.07

%BLOCK SPECIES_POT
QC5
%ENDBLOCK SPECIES_POT

SNAP_TO_SYMMETRY
SYMMETRY_GENERATE

