#              Generated by Buildcell
#
# at 21:26:49 (GMT+1.0) 18th August 2020
# in /lustre/scratch/uccabz1/launch_tmp
# on node-c12o-016
# by uccabz1
#
# compiler GCC version 4.9.2
# options -cpp -iprefix /lustre/shared/ucl/apps/gcc/4.9.2/bin/../lib/gcc/x86_64-unknown-linux-gnu/4.9.2/ -mtune=corei7 -march=x86-64 -g -Og
#
# seed  1058665722  1249204736 -1493593242  -367540913 -1583309850 -1846542498  1587079530 -1971256549  -715343218  1708890736 -1410517572   543748008
#
#      Author: C. J. Pickard (cjp20@cam.ac.uk)
#                Space group: Pnc2
#

%BLOCK LATTICE_ABC
      3.98757      4.03982     12.41537
     90.00000     90.00000     90.00000
%ENDBLOCK LATTICE_ABC

%BLOCK POSITIONS_FRAC
  Li   0.5000000  -0.5000000   0.1729223 SPIN=   0.00000
  Li  -0.5000000   0.0000000  -0.3270777 SPIN=   0.00000
  Fe   0.5000000  -0.5000000  -0.1562654 SPIN=   4.00000
  Fe  -0.5000000  -0.0000000   0.3437346 SPIN=   4.00000
   O   0.2047421   0.2295674  -0.5420842 SPIN=   0.00000
   O  -0.2808201   0.3342006  -0.4226867 SPIN=   0.00000
   O  -0.2047421  -0.2295674  -0.5420842 SPIN=   0.00000
   O   0.2808201  -0.3342006  -0.4226867 SPIN=   0.00000
   O   0.2047421   0.2704326  -0.0420842 SPIN=   0.00000
   O  -0.2808201   0.1657994   0.0773133 SPIN=   0.00000
   O  -0.2047421  -0.2704326  -0.0420842 SPIN=   0.00000
   O   0.2808201  -0.1657994   0.0773133 SPIN=   0.00000
   S   0.0000000  -0.0000000   0.0208266 SPIN=   0.00000
   S   0.0000000   0.5000000  -0.4791734 SPIN=   0.00000
   F  -0.0000000  -0.0000000  -0.2556337 SPIN=   0.00000
   F  -0.0000000   0.5000000   0.2443663 SPIN=   0.00000
%ENDBLOCK POSITIONS_FRAC

# Note: total spin =   8.00

KPOINTS_MP_SPACING 0.07

%BLOCK SPECIES_POT
QC5
%ENDBLOCK SPECIES_POT

SNAP_TO_SYMMETRY
SYMMETRY_GENERATE

