#              Generated by Buildcell
#
# at 05:42:18 (GMT+1.0) 4th August 2020
# in /lustre/scratch/uccabz1/launch_tmp
# on node-c12d-002
# by uccabz1
#
# compiler GCC version 4.9.2
# options -cpp -iprefix /lustre/shared/ucl/apps/gcc/4.9.2/bin/../lib/gcc/x86_64-unknown-linux-gnu/4.9.2/ -mtune=corei7 -march=x86-64 -g -Og
#
# seed  1624781853  1424749173  -802736177  1363488280    55988746   112229281  -504908522   375265610  1247780066   -54684963  1997013792  1599992794
#
#      Author: C. J. Pickard (cjp20@cam.ac.uk)
#                Space group: P21/m
#

%BLOCK LATTICE_ABC
      3.85862      7.17454      7.26904
     90.00000     90.00000     96.35008
%ENDBLOCK LATTICE_ABC

%BLOCK POSITIONS_FRAC
  Li   0.3660788   0.2218901  -0.2500000 SPIN=   0.00000
  Li  -0.3660788  -0.2218901   0.2500000 SPIN=   0.00000
  Fe   0.0000000   0.5000000  -0.0000000 SPIN=   4.00000
  Fe   0.0000000   0.5000000   0.5000000 SPIN=   4.00000
   O  -0.7395664   0.0937500   0.0535030 SPIN=   0.00000
   O  -0.1852416   0.2233524  -0.0924337 SPIN=   0.00000
   O   0.7395664  -0.0937500   0.5535030 SPIN=   0.00000
   O   0.1852416  -0.2233524   0.4075663 SPIN=   0.00000
   O   0.7395664  -0.0937500  -0.0535030 SPIN=   0.00000
   O   0.1852416  -0.2233524   0.0924337 SPIN=   0.00000
   O  -0.7395664   0.0937500  -0.5535030 SPIN=   0.00000
   O  -0.1852416   0.2233524  -0.4075663 SPIN=   0.00000
   S   0.1821057   0.0446056   0.2500000 SPIN=   0.00000
   S  -0.1821057  -0.0446056  -0.2500000 SPIN=   0.00000
   F  -0.3124929  -0.4734898   0.2500000 SPIN=   0.00000
   F   0.3124929   0.4734898  -0.2500000 SPIN=   0.00000
%ENDBLOCK POSITIONS_FRAC

# Note: total spin =   8.00

KPOINTS_MP_SPACING 0.07

%BLOCK SPECIES_POT
QC5
%ENDBLOCK SPECIES_POT

SNAP_TO_SYMMETRY
SYMMETRY_GENERATE

