#              Generated by Buildcell
#
# at 04:43:09 (GMT+1.0) 4th August 2020
# in /lustre/scratch/uccabz1/launch_tmp
# on node-c12g-024
# by uccabz1
#
# compiler GCC version 4.9.2
# options -cpp -iprefix /lustre/shared/ucl/apps/gcc/4.9.2/bin/../lib/gcc/x86_64-unknown-linux-gnu/4.9.2/ -mtune=corei7 -march=x86-64 -g -Og
#
# seed  1696429366   922417419  2004538373  -347524406  -233311468  1463374146  1560480288   219324312   735108096 -1679698731 -1064583697  1937724562
#
#      Author: C. J. Pickard (cjp20@cam.ac.uk)
#                Space group: P21
#

%BLOCK LATTICE_ABC
      5.61668      5.99313      6.15833
     90.00000    105.24932     90.00000
%ENDBLOCK LATTICE_ABC

%BLOCK POSITIONS_FRAC
  Li   0.6610740  -0.4952595   0.3554022 SPIN=   0.00000
  Li  -0.6610740   0.0047405  -0.3554022 SPIN=   0.00000
  Fe   0.7905277   0.0184493   0.4767953 SPIN=   4.00000
  Fe  -0.7905277  -0.4815507  -0.4767953 SPIN=   4.00000
   O   0.1680949   0.0009533  -0.0576467 SPIN=   0.00000
   O   0.2084232  -0.2928867   0.2321555 SPIN=   0.00000
   O   0.5591366  -0.2091643   0.0720993 SPIN=   0.00000
   O   0.1865669  -0.3963239  -0.1616746 SPIN=   0.00000
   S   0.2805554  -0.2243554   0.0212334 SPIN=   0.00000
   O  -0.1680949   0.5009533   0.0576467 SPIN=   0.00000
   O  -0.2084232   0.2071133  -0.2321555 SPIN=   0.00000
   O  -0.5591366   0.2908357  -0.0720993 SPIN=   0.00000
   O  -0.1865669   0.1036761   0.1616746 SPIN=   0.00000
   S  -0.2805554   0.2756446  -0.0212334 SPIN=   0.00000
   F   0.3368938   0.2755703   0.3871140 SPIN=   0.00000
   F  -0.3368938  -0.2244297  -0.3871140 SPIN=   0.00000
%ENDBLOCK POSITIONS_FRAC

# Note: total spin =   8.00

KPOINTS_MP_SPACING 0.07

%BLOCK SPECIES_POT
QC5
%ENDBLOCK SPECIES_POT

SNAP_TO_SYMMETRY
SYMMETRY_GENERATE

