#              Generated by Buildcell
#
# at 00:52:35 (GMT+1.0) 19th August 2020
# in /lustre/scratch/uccabz1/launch_tmp
# on node-c12e-014
# by uccabz1
#
# compiler GCC version 4.9.2
# options -cpp -iprefix /lustre/shared/ucl/apps/gcc/4.9.2/bin/../lib/gcc/x86_64-unknown-linux-gnu/4.9.2/ -mtune=corei7 -march=x86-64 -g -Og
#
# seed -1701862209   582305845  1138776425  1753941715   155503297   770845251  -619647823  -340799087  1692222407   529392721  -343165685  1427985672
#
#      Author: C. J. Pickard (cjp20@cam.ac.uk)
#                Space group: P2
#

%BLOCK LATTICE_ABC
      4.03751      6.69216      7.58510
    102.61430     90.00000     90.00000
%ENDBLOCK LATTICE_ABC

%BLOCK POSITIONS_FRAC
  Li   0.1198769   0.2873849   0.1474255 SPIN=   0.00000
  Li   0.1198769  -0.2873849  -0.1474255 SPIN=   0.00000
  Fe  -0.3801231  -0.3839959   0.3029493 SPIN=   4.00000
  Fe  -0.3801231   0.3839959  -0.3029493 SPIN=   4.00000
   O  -0.3905293   0.2591865   0.1600112 SPIN=   0.00000
   O  -0.1997733   0.1735075   0.4446794 SPIN=   0.00000
   O  -0.1997729  -0.0920806   0.1607600 SPIN=   0.00000
   O  -0.7304169   0.0342231   0.3069590 SPIN=   0.00000
   S  -0.3801231   0.0937091   0.2681024 SPIN=   0.00000
   O  -0.3905293  -0.2591865  -0.1600112 SPIN=   0.00000
   O  -0.1997733  -0.1735075  -0.4446794 SPIN=   0.00000
   O  -0.1997729   0.0920806  -0.1607600 SPIN=   0.00000
   O  -0.7304169  -0.0342231  -0.3069590 SPIN=   0.00000
   S  -0.3801231  -0.0937091  -0.2681024 SPIN=   0.00000
   F   0.1198769   0.4275823  -0.2613658 SPIN=   0.00000
   F   0.1198769  -0.4275823   0.2613658 SPIN=   0.00000
%ENDBLOCK POSITIONS_FRAC

# Note: total spin =   8.00

KPOINTS_MP_SPACING 0.07

%BLOCK SPECIES_POT
QC5
%ENDBLOCK SPECIES_POT

SNAP_TO_SYMMETRY
SYMMETRY_GENERATE

