#              Generated by Buildcell
#
# at 05:20:08 (GMT+1.0) 4th August 2020
# in /lustre/scratch/uccabz1/launch_tmp
# on node-c12n-034
# by uccabz1
#
# compiler GCC version 4.9.2
# options -cpp -iprefix /lustre/shared/ucl/apps/gcc/4.9.2/bin/../lib/gcc/x86_64-unknown-linux-gnu/4.9.2/ -mtune=corei7 -march=x86-64 -g -Og
#
# seed  1594637534   999062829 -1518279973  -497023304  1045335798  -998181401  1843803205   -46204403 -2095397111 -1933511822  1632618286    82315273
#
#      Author: C. J. Pickard (cjp20@cam.ac.uk)
#                Space group: Iba2
#

%BLOCK LATTICE_ABC
      5.97196      6.00614      7.00183
    115.39764    115.24292     90.00000
%ENDBLOCK LATTICE_ABC

%BLOCK POSITIONS_FRAC
  Li  -0.2459452   0.2540548   0.5081096 SPIN=   0.00000
  Li   0.2540548  -0.2459452  -0.4918904 SPIN=   0.00000
  Fe  -0.1319906  -0.1319906  -0.2639813 SPIN=   4.00000
  Fe   0.3680094   0.3680094   0.7360187 SPIN=   4.00000
   O  -0.3929600  -0.4579287  -0.3559073 SPIN=   0.00000
   O  -0.1116634  -0.2648785   0.0820024 SPIN=   0.00000
   O   0.0370527   0.1020214  -0.3559073 SPIN=   0.00000
   O   0.1936658   0.3468810   0.0820024 SPIN=   0.00000
   O  -0.4629473   0.0420713  -0.3559073 SPIN=   0.00000
   O  -0.3063342   0.2351215   0.0820024 SPIN=   0.00000
   O   0.1070400  -0.3979786  -0.3559073 SPIN=   0.00000
   O   0.3883366  -0.1531190   0.0820024 SPIN=   0.00000
   S  -0.4959450   0.0040550   0.0081099 SPIN=   0.00000
   S   0.0040550  -0.4959450  -0.9918901 SPIN=   0.00000
   F  -0.3138374  -0.3138374  -0.6276748 SPIN=   0.00000
   F   0.1861626   0.1861626   0.3723252 SPIN=   0.00000
%ENDBLOCK POSITIONS_FRAC

# Note: total spin =   8.00

KPOINTS_MP_SPACING 0.07

%BLOCK SPECIES_POT
QC5
%ENDBLOCK SPECIES_POT

SNAP_TO_SYMMETRY
SYMMETRY_GENERATE

