#              Generated by Buildcell
#
# at 21:37:23 (GMT+1.0) 18th August 2020
# in /lustre/scratch/uccabz1/launch_tmp
# on node-c12l-008
# by uccabz1
#
# compiler GCC version 4.9.2
# options -cpp -iprefix /lustre/shared/ucl/apps/gcc/4.9.2/bin/../lib/gcc/x86_64-unknown-linux-gnu/4.9.2/ -mtune=corei7 -march=x86-64 -g -Og
#
# seed -1267053107   604515054   516549186  1217618113 -1862128007  1592404411  1234712669 -1865582121  -254932996 -2045322114  1474311421  -117872812
#
#      Author: C. J. Pickard (cjp20@cam.ac.uk)
#                Space group: P-1
#

%BLOCK LATTICE_ABC
      3.98643      7.42427      7.92916
     62.54946     78.59441     74.60644
%ENDBLOCK LATTICE_ABC

%BLOCK POSITIONS_FRAC
  Li   0.3365483  -0.0441834  -0.1976433 SPIN=   0.00000
  Li  -0.3365483   0.0441834   0.1976433 SPIN=   0.00000
  Fe   0.3347615  -0.2754865   0.2238105 SPIN=   4.00000
  Fe  -0.3347615   0.2754865  -0.2238105 SPIN=   4.00000
   O   0.2783073  -0.6921763   0.0177827 SPIN=   0.00000
   O   0.7072809  -0.6640460   0.1870458 SPIN=   0.00000
   O   0.2699182  -0.8835718   0.3692761 SPIN=   0.00000
   O   0.0842031  -0.5017413   0.2181280 SPIN=   0.00000
   O  -0.2783073   0.6921763  -0.0177827 SPIN=   0.00000
   O  -0.7072809   0.6640460  -0.1870458 SPIN=   0.00000
   O  -0.2699182   0.8835718  -0.3692761 SPIN=   0.00000
   O  -0.0842031   0.5017413  -0.2181280 SPIN=   0.00000
   S   0.0000000  -0.5000000  -0.0000000 SPIN=   0.00000
   S  -0.0000000  -1.0000000   0.5000000 SPIN=   0.00000
   F  -0.5000000  -0.5000000   0.5000000 SPIN=   0.00000
   F   0.0000000   0.0000000   0.0000000 SPIN=   0.00000
%ENDBLOCK POSITIONS_FRAC

# Note: total spin =   8.00

KPOINTS_MP_SPACING 0.07

%BLOCK SPECIES_POT
QC5
%ENDBLOCK SPECIES_POT

SNAP_TO_SYMMETRY
SYMMETRY_GENERATE

