#              Generated by Buildcell
#
# at 04:44:44 (GMT+1.0) 4th August 2020
# in /lustre/scratch/uccabz1/launch_tmp
# on node-c12f-003
# by uccabz1
#
# compiler GCC version 4.9.2
# options -cpp -iprefix /lustre/shared/ucl/apps/gcc/4.9.2/bin/../lib/gcc/x86_64-unknown-linux-gnu/4.9.2/ -mtune=corei7 -march=x86-64 -g -Og
#
# seed   431349851   789679262  1140205469 -1893134264    55311763 -1509571256  1881371689 -1945349458  1964604825  1636163715  -815954460  1793888864
#
#      Author: C. J. Pickard (cjp20@cam.ac.uk)
#                Space group: C2221
#

%BLOCK LATTICE_ABC
      5.23177      5.23177      7.30913
     90.00000     90.00000     91.42258
%ENDBLOCK LATTICE_ABC

%BLOCK POSITIONS_FRAC
  Li  -0.2495260  -0.2495260   0.2500000 SPIN=   0.00000
  Li   0.2495260   0.2495260  -0.2500000 SPIN=   0.00000
  Fe   0.1718283  -0.1718283  -0.0000000 SPIN=   4.00000
  Fe  -0.1718283   0.1718283  -0.5000000 SPIN=   4.00000
   O  -0.4623406  -0.1432094  -0.5216502 SPIN=   0.00000
   O  -0.3023885  -0.5256509  -0.3633827 SPIN=   0.00000
   O   0.4623406   0.1432094  -0.0216502 SPIN=   0.00000
   O   0.3023885   0.5256509   0.1366173 SPIN=   0.00000
   O  -0.1432094  -0.4623406   0.0216502 SPIN=   0.00000
   O  -0.5256509  -0.3023885  -0.1366173 SPIN=   0.00000
   O   0.1432094   0.4623406   0.5216502 SPIN=   0.00000
   O   0.5256509   0.3023885   0.3633827 SPIN=   0.00000
   S  -0.3954043   0.3954043  -0.0000000 SPIN=   0.00000
   S   0.3954043  -0.3954043  -0.5000000 SPIN=   0.00000
   F  -0.0531467  -0.0531467  -0.2500000 SPIN=   0.00000
   F   0.0531467   0.0531467   0.2500000 SPIN=   0.00000
%ENDBLOCK POSITIONS_FRAC

# Note: total spin =   8.00

KPOINTS_MP_SPACING 0.07

%BLOCK SPECIES_POT
QC5
%ENDBLOCK SPECIES_POT

SNAP_TO_SYMMETRY
SYMMETRY_GENERATE

