#              Generated by Buildcell
#
# at 22:02:45 (GMT+1.0) 18th August 2020
# in /lustre/scratch/uccabz1/launch_tmp
# on node-c12d-020
# by uccabz1
#
# compiler GCC version 4.9.2
# options -cpp -iprefix /lustre/shared/ucl/apps/gcc/4.9.2/bin/../lib/gcc/x86_64-unknown-linux-gnu/4.9.2/ -mtune=corei7 -march=x86-64 -g -Og
#
# seed  -913150897  -148534312  2076671174 -1934438582   144368839 -1012638614 -1415483084  1623402884    97882259    38122898 -1640044233   702320089
#
#      Author: C. J. Pickard (cjp20@cam.ac.uk)
#                Space group: C2
#

%BLOCK LATTICE_ABC
      4.12940      6.77305      7.74159
     85.74004     75.89649     72.25144
%ENDBLOCK LATTICE_ABC

%BLOCK POSITIONS_FRAC
  Li  -0.3768870  -0.2462260  -0.0000000 SPIN=   0.00000
  Li   0.4107797   0.1784406   0.5000000 SPIN=   0.00000
  Fe   0.0743247  -0.1486495  -0.5000000 SPIN=   3.18438
  Fe   0.3968788   0.2062424   0.0000000 SPIN=   4.81562
   O  -0.5977255   0.5333183   0.1438951 SPIN=   0.00000
   O  -0.1739342   0.6219138   0.2782727 SPIN=   0.00000
   O  -0.0706489   0.2598411   0.1906041 SPIN=   0.00000
   S  -0.3474214   0.4576890   0.2655060 SPIN=   0.00000
   O   0.0644071   0.5333183  -0.1438951 SPIN=   0.00000
   O  -0.4479796   0.6219138  -0.2782727 SPIN=   0.00000
   O  -0.1891922   0.2598411  -0.1906041 SPIN=   0.00000
   S  -0.1102676   0.4576890  -0.2655060 SPIN=   0.00000
   O   0.0100202  -0.0200403  -0.0000000 SPIN=   0.00000
   O  -0.1151153   0.2302305  -0.5000000 SPIN=   0.00000
   F  -0.4515878  -0.0088283  -0.2676546 SPIN=   0.00000
   F   0.4604161  -0.0088283   0.2676546 SPIN=   0.00000
%ENDBLOCK POSITIONS_FRAC

# Note: total spin =   8.00

KPOINTS_MP_SPACING 0.07

%BLOCK SPECIES_POT
QC5
%ENDBLOCK SPECIES_POT

SNAP_TO_SYMMETRY
SYMMETRY_GENERATE

