#              Generated by Buildcell
#
# at 01:37:13 (GMT+1.0) 19th August 2020
# in /lustre/scratch/uccabz1/launch_tmp
# on node-c12d-004
# by uccabz1
#
# compiler GCC version 4.9.2
# options -cpp -iprefix /lustre/shared/ucl/apps/gcc/4.9.2/bin/../lib/gcc/x86_64-unknown-linux-gnu/4.9.2/ -mtune=corei7 -march=x86-64 -g -Og
#
# seed -1824511387   573090672  1235872666   730192762  -446007807  -351389872 -2104985214  1641188583  -728803873  1838190601  1975731168  1143980809
#
#      Author: C. J. Pickard (cjp20@cam.ac.uk)
#                Space group: C2/c
#

%BLOCK LATTICE_ABC
      4.92242      4.92242      8.30609
     86.33985     86.33985     85.99267
%ENDBLOCK LATTICE_ABC

%BLOCK POSITIONS_FRAC
  Li  -0.0573114   0.0573114  -0.2500000 SPIN=   0.00000
  Li   0.0573114  -0.0573114   0.2500000 SPIN=   0.00000
  Fe  -0.0000000  -0.5000000  -0.0000000 SPIN=   4.00000
  Fe  -0.5000000   0.0000000  -0.5000000 SPIN=   4.00000
   O  -0.2227908  -0.5237574  -0.3779035 SPIN=   0.00000
   O  -0.5242063  -0.1566545  -0.2579985 SPIN=   0.00000
   O   0.5237574   0.2227908  -0.1220965 SPIN=   0.00000
   O   0.1566545   0.5242063  -0.2420015 SPIN=   0.00000
   O   0.2227908   0.5237574   0.3779035 SPIN=   0.00000
   O   0.5242063   0.1566545   0.2579985 SPIN=   0.00000
   O  -0.5237574  -0.2227908   0.1220965 SPIN=   0.00000
   O  -0.1566545  -0.5242063   0.2420015 SPIN=   0.00000
   S  -0.4707411   0.4707411  -0.2500000 SPIN=   0.00000
   S   0.4707411  -0.4707411   0.2500000 SPIN=   0.00000
   F   0.0000000   0.0000000  -0.0000000 SPIN=   0.00000
   F   0.0000000   0.0000000  -0.5000000 SPIN=   0.00000
%ENDBLOCK POSITIONS_FRAC

# Note: total spin =   8.00

KPOINTS_MP_SPACING 0.07

%BLOCK SPECIES_POT
QC5
%ENDBLOCK SPECIES_POT

SNAP_TO_SYMMETRY
SYMMETRY_GENERATE

