#              Generated by Buildcell
#
# at 04:42:45 (GMT+1.0) 4th August 2020
# in /lustre/scratch/uccabz1/launch_tmp
# on node-c12f-005
# by uccabz1
#
# compiler GCC version 4.9.2
# options -cpp -iprefix /lustre/shared/ucl/apps/gcc/4.9.2/bin/../lib/gcc/x86_64-unknown-linux-gnu/4.9.2/ -mtune=corei7 -march=x86-64 -g -Og
#
# seed -1896653040 -1874897904  -630074020  -405081201   689818049 -2088654078  1124881622  1282064353  1408330096   457813539  -546351314   243936869
#
#      Author: C. J. Pickard (cjp20@cam.ac.uk)
#                Space group: P-1
#

%BLOCK LATTICE_ABC
      4.90499      5.22863      8.15464
     84.38174     76.69959     79.88005
%ENDBLOCK LATTICE_ABC

%BLOCK POSITIONS_FRAC
  Li  -0.3474139  -0.4315323  -0.2306079 SPIN=   0.00000
  Li   0.3474139   0.4315323   0.2306079 SPIN=   0.00000
  Fe  -0.2758073  -0.1499215   0.1407244 SPIN=   4.00000
  Fe   0.2758073   0.1499215  -0.1407244 SPIN=   4.00000
   O  -0.1142770  -0.1227339  -0.3835104 SPIN=   0.00000
   O   0.1588802  -0.5663732  -0.4203133 SPIN=   0.00000
   O   0.1938469  -0.3135854  -0.1868052 SPIN=   0.00000
   O   0.4079706  -0.1838526  -0.4819935 SPIN=   0.00000
   S   0.1616052  -0.2966363  -0.3681556 SPIN=   0.00000
   O   0.1142770   0.1227339   0.3835104 SPIN=   0.00000
   O  -0.1588802   0.5663732   0.4203133 SPIN=   0.00000
   O  -0.1938469   0.3135854   0.1868052 SPIN=   0.00000
   O  -0.4079706   0.1838526   0.4819935 SPIN=   0.00000
   S  -0.1616052   0.2966363   0.3681556 SPIN=   0.00000
   F  -0.2947488   0.2334721  -0.1129449 SPIN=   0.00000
   F   0.2947488  -0.2334721   0.1129449 SPIN=   0.00000
%ENDBLOCK POSITIONS_FRAC

# Note: total spin =   8.00

KPOINTS_MP_SPACING 0.07

%BLOCK SPECIES_POT
QC5
%ENDBLOCK SPECIES_POT

SNAP_TO_SYMMETRY
SYMMETRY_GENERATE

