#              Generated by Buildcell
#
# at 02:27:56 (GMT+1.0) 4th August 2020
# in /lustre/scratch/uccabz1/launch_tmp
# on node-c12h-033
# by uccabz1
#
# compiler GCC version 4.9.2
# options -cpp -iprefix /lustre/shared/ucl/apps/gcc/4.9.2/bin/../lib/gcc/x86_64-unknown-linux-gnu/4.9.2/ -mtune=corei7 -march=x86-64 -g -Og
#
# seed -1240030046  1321692800  -445240527  -628935012  -777557853  -586077264  1427026914  -836842811  -200232850   953620233   544747503   -52294617
#
#      Author: C. J. Pickard (cjp20@cam.ac.uk)
#                Space group: P21
#

%BLOCK LATTICE_ABC
      5.74832      5.82468      6.01981
     90.00000     97.12377     90.00000
%ENDBLOCK LATTICE_ABC

%BLOCK POSITIONS_FRAC
  Li   0.2060741   0.1665679  -0.0433966 SPIN=   0.00000
  Li  -0.2060741  -0.3334321   0.0433966 SPIN=   0.00000
  Fe   0.1921719  -0.0015901   0.4570504 SPIN=   4.00000
  Fe  -0.1921719   0.4984099  -0.4570504 SPIN=   4.00000
   O   0.2845927  -0.2010295   0.1686356 SPIN=   0.00000
   O   0.1321112  -0.1227146  -0.2267863 SPIN=   0.00000
   O   0.0798535  -0.5070106  -0.0647344 SPIN=   0.00000
   O   0.4742720  -0.3788152  -0.1362059 SPIN=   0.00000
   S   0.2427074  -0.3023925  -0.0647727 SPIN=   0.00000
   O  -0.2845927   0.2989705  -0.1686356 SPIN=   0.00000
   O  -0.1321112   0.3772854   0.2267863 SPIN=   0.00000
   O  -0.0798535  -0.0070106   0.0647344 SPIN=   0.00000
   O  -0.4742720   0.1211848   0.1362059 SPIN=   0.00000
   S  -0.2427074   0.1976075   0.0647727 SPIN=   0.00000
   F  -0.3055461  -0.1744883  -0.4426535 SPIN=   0.00000
   F   0.3055461   0.3255117   0.4426535 SPIN=   0.00000
%ENDBLOCK POSITIONS_FRAC

# Note: total spin =   8.00

KPOINTS_MP_SPACING 0.07

%BLOCK SPECIES_POT
QC5
%ENDBLOCK SPECIES_POT

SNAP_TO_SYMMETRY
SYMMETRY_GENERATE

