#              Generated by Buildcell
#
# at 04:03:49 (GMT+1.0) 4th August 2020
# in /lustre/scratch/uccabz1/launch_tmp
# on node-y12q-003
# by uccabz1
#
# compiler GCC version 4.9.2
# options -cpp -iprefix /lustre/shared/ucl/apps/gcc/4.9.2/bin/../lib/gcc/x86_64-unknown-linux-gnu/4.9.2/ -mtune=corei7 -march=x86-64 -g -Og
#
# seed -2120421482 -1877642896  -383054841 -1590227730  1914867852 -1737477524  1984434327 -1700033479  1877136920  -651384561  -390446477  -817695426
#
#      Author: C. J. Pickard (cjp20@cam.ac.uk)
#                Space group: P21/c
#

%BLOCK LATTICE_ABC
      5.53305      5.72138      6.77235
    111.11187     90.00000     90.00000
%ENDBLOCK LATTICE_ABC

%BLOCK POSITIONS_FRAC
  Li  -0.0000000  -0.0000000  -0.0000000 SPIN=   0.00000
  Li   0.5000000   0.5000000   0.0000000 SPIN=   0.00000
  Fe  -0.0000000  -0.5000000  -0.5000000 SPIN=   4.00000
  Fe   0.5000000   0.0000000   0.5000000 SPIN=   4.00000
   O   0.2824084  -0.1739780   0.1083707 SPIN=   0.00000
   O   0.6792066   0.0400343   0.1733385 SPIN=   0.00000
   O  -0.2175916  -0.3260220  -0.1083707 SPIN=   0.00000
   O   0.1792066  -0.5400343  -0.1733385 SPIN=   0.00000
   O  -0.2824084   0.1739780  -0.1083707 SPIN=   0.00000
   O  -0.6792066  -0.0400343  -0.1733385 SPIN=   0.00000
   O   0.2175916   0.3260220   0.1083707 SPIN=   0.00000
   O  -0.1792066   0.5400343   0.1733385 SPIN=   0.00000
   S  -0.0000000   0.5000000   0.0000000 SPIN=   0.00000
   S   0.5000000   0.0000000  -0.0000000 SPIN=   0.00000
   F   0.5000000  -0.5000000  -0.5000000 SPIN=   0.00000
   F  -0.0000000   0.0000000   0.5000000 SPIN=   0.00000
%ENDBLOCK POSITIONS_FRAC

# Note: total spin =   8.00

KPOINTS_MP_SPACING 0.07

%BLOCK SPECIES_POT
QC5
%ENDBLOCK SPECIES_POT

SNAP_TO_SYMMETRY
SYMMETRY_GENERATE

