#              Generated by Buildcell
#
# at 03:19:22 (GMT+1.0) 4th August 2020
# in /lustre/scratch/uccabz1/launch_tmp
# on node-c12h-031
# by uccabz1
#
# compiler GCC version 4.9.2
# options -cpp -iprefix /lustre/shared/ucl/apps/gcc/4.9.2/bin/../lib/gcc/x86_64-unknown-linux-gnu/4.9.2/ -mtune=corei7 -march=x86-64 -g -Og
#
# seed  1076266673 -1491319967  1614041836  -253114392   119933820   472871028   946990605  1410287228  -831834570   755026198  1587158324  2141462678
#
#      Author: C. J. Pickard (cjp20@cam.ac.uk)
#                Space group: P-1
#

%BLOCK LATTICE_ABC
      5.57460      6.15280      6.19929
     71.33519     83.36977     86.16060
%ENDBLOCK LATTICE_ABC

%BLOCK POSITIONS_FRAC
  Li  -0.2296405  -0.3856701   0.2754515 SPIN=   0.00000
  Li   0.2296405   0.3856701  -0.2754515 SPIN=   0.00000
  Fe  -0.0935649  -0.2145661  -0.2334899 SPIN=   4.00000
  Fe   0.0935649   0.2145661   0.2334899 SPIN=   4.00000
   O  -0.2256161   0.0265184  -0.0347757 SPIN=   0.00000
   O  -0.5322450   0.2995744   0.0617347 SPIN=   0.00000
   O  -0.4025667   0.3366213  -0.3436123 SPIN=   0.00000
   O  -0.1219864   0.4302016  -0.1068055 SPIN=   0.00000
   S  -0.3206036   0.2732289  -0.1058647 SPIN=   0.00000
   O   0.2256161  -0.0265184   0.0347757 SPIN=   0.00000
   O   0.5322450  -0.2995744  -0.0617347 SPIN=   0.00000
   O   0.4025667  -0.3366213   0.3436123 SPIN=   0.00000
   O   0.1219864  -0.4302016   0.1068055 SPIN=   0.00000
   S   0.3206036  -0.2732289   0.1058647 SPIN=   0.00000
   F  -0.2316408  -0.1632169   0.4507221 SPIN=   0.00000
   F   0.2316408   0.1632169  -0.4507221 SPIN=   0.00000
%ENDBLOCK POSITIONS_FRAC

# Note: total spin =   8.00

KPOINTS_MP_SPACING 0.07

%BLOCK SPECIES_POT
QC5
%ENDBLOCK SPECIES_POT

SNAP_TO_SYMMETRY
SYMMETRY_GENERATE

