#              Generated by Buildcell
#
# at 04:34:19 (GMT+1.0) 4th August 2020
# in /lustre/scratch/uccabz1/launch_tmp
# on node-c12n-018
# by uccabz1
#
# compiler GCC version 4.9.2
# options -cpp -iprefix /lustre/shared/ucl/apps/gcc/4.9.2/bin/../lib/gcc/x86_64-unknown-linux-gnu/4.9.2/ -mtune=corei7 -march=x86-64 -g -Og
#
# seed  1485858948  1668566200  1027888628  1368813196 -1380974434 -1340788316   883754550   -13454051  1874172816  1782269325 -1255494866  1794817621
#
#      Author: C. J. Pickard (cjp20@cam.ac.uk)
#                Space group: Cm
#

%BLOCK LATTICE_ABC
      5.63195      5.63195      6.38300
     96.30532     96.30532     90.09883
%ENDBLOCK LATTICE_ABC

%BLOCK POSITIONS_FRAC
  Li   0.2202116   0.2202116   0.0833295 SPIN=   0.00000
  Li  -0.2742686  -0.2742686   0.0363918 SPIN=   0.00000
  Fe   0.2247246  -0.2591734   0.2124440 SPIN=   4.00000
  Fe  -0.2591734   0.2247246   0.2124440 SPIN=   4.00000
   O   0.0846919   0.3774907  -0.1872829 SPIN=   0.00000
   O  -0.3272828   0.3792911  -0.0864002 SPIN=   0.00000
   O  -0.2133807   0.0794455  -0.3698845 SPIN=   0.00000
   S  -0.1765442   0.3351404  -0.2690917 SPIN=   0.00000
   O   0.3774907   0.0846919  -0.1872829 SPIN=   0.00000
   O   0.3792911  -0.3272828  -0.0864002 SPIN=   0.00000
   O   0.0794455  -0.2133807  -0.3698845 SPIN=   0.00000
   S   0.3351404  -0.1765442  -0.2690917 SPIN=   0.00000
   O  -0.4350362  -0.4350362   0.4091357 SPIN=   0.00000
   O   0.1522597   0.1522597   0.4957700 SPIN=   0.00000
   F  -0.4978004   0.0073122   0.2649124 SPIN=   0.00000
   F   0.0073122  -0.4978004   0.2649124 SPIN=   0.00000
%ENDBLOCK POSITIONS_FRAC

# Note: total spin =   8.00

KPOINTS_MP_SPACING 0.07

%BLOCK SPECIES_POT
QC5
%ENDBLOCK SPECIES_POT

SNAP_TO_SYMMETRY
SYMMETRY_GENERATE

