#              Generated by Buildcell
#
# at 01:14:33 (GMT+1.0) 19th August 2020
# in /lustre/scratch/uccabz1/launch_tmp
# on node-c12e-015
# by uccabz1
#
# compiler GCC version 4.9.2
# options -cpp -iprefix /lustre/shared/ucl/apps/gcc/4.9.2/bin/../lib/gcc/x86_64-unknown-linux-gnu/4.9.2/ -mtune=corei7 -march=x86-64 -g -Og
#
# seed   913849459   717287870  1226233394  -601989728   801351664  1829267852 -1583248162   448776999  1810496191   579019854  1063116404  -583045272
#
#      Author: C. J. Pickard (cjp20@cam.ac.uk)
#                Space group: P2
#

%BLOCK LATTICE_ABC
      4.97856      6.32212      6.39743
     96.66244     90.00000     90.00000
%ENDBLOCK LATTICE_ABC

%BLOCK POSITIONS_FRAC
  Li   0.1428737   0.3229080   0.2289534 SPIN=   0.00000
  Li   0.1428737  -0.3229080  -0.2289534 SPIN=   0.00000
  Fe  -0.2517053   0.3016322  -0.2306987 SPIN=   4.00000
  Fe  -0.2517053  -0.3016322   0.2306987 SPIN=   4.00000
   O  -0.4152713  -0.3164556  -0.4679753 SPIN=   0.00000
   O  -0.5995713  -0.0676879  -0.1758965 SPIN=   0.00000
   O  -0.1173857  -0.0531069  -0.2671978 SPIN=   0.00000
   O  -0.2945009  -0.3581963  -0.0997405 SPIN=   0.00000
   S  -0.3566823  -0.1988617  -0.2527025 SPIN=   0.00000
   O  -0.4152713   0.3164556   0.4679753 SPIN=   0.00000
   O  -0.5995713   0.0676879   0.1758965 SPIN=   0.00000
   O  -0.1173857   0.0531069   0.2671978 SPIN=   0.00000
   O  -0.2945009   0.3581963   0.0997405 SPIN=   0.00000
   S  -0.3566823   0.1988617   0.2527025 SPIN=   0.00000
   F   0.1836609  -0.2935533   0.2678033 SPIN=   0.00000
   F   0.1836609   0.2935533  -0.2678033 SPIN=   0.00000
%ENDBLOCK POSITIONS_FRAC

# Note: total spin =   8.00

KPOINTS_MP_SPACING 0.07

%BLOCK SPECIES_POT
QC5
%ENDBLOCK SPECIES_POT

SNAP_TO_SYMMETRY
SYMMETRY_GENERATE

