#              Generated by Buildcell
#
# at 03:07:49 (GMT+1.0) 4th August 2020
# in /lustre/scratch/uccabz1/launch_tmp
# on node-c12m-022
# by uccabz1
#
# compiler GCC version 4.9.2
# options -cpp -iprefix /lustre/shared/ucl/apps/gcc/4.9.2/bin/../lib/gcc/x86_64-unknown-linux-gnu/4.9.2/ -mtune=corei7 -march=x86-64 -g -Og
#
# seed   884875785  1821648390  1239355302   -43048126   741387542  -263512578  2055641261 -1829712030   953347542   309741239  -529742656  -154442106
#
#      Author: C. J. Pickard (cjp20@cam.ac.uk)
#                Space group: Cc
#

%BLOCK LATTICE_ABC
      5.62123      6.52111      6.52111
    111.38560    104.32205    104.32205
%ENDBLOCK LATTICE_ABC

%BLOCK POSITIONS_FRAC
  Li  -0.3268247  -0.0713303  -0.2109236 SPIN=   0.00000
  Li   0.1731753   0.2890764   0.4286697 SPIN=   0.00000
  Fe   0.4449768   0.4135162   0.1282728 SPIN=   4.00000
  Fe  -0.0550232  -0.3717272  -0.0864838 SPIN=   4.00000
   O  -0.4128294  -0.2371590   0.1551085 SPIN=   0.00000
   O  -0.3853544   0.1107490   0.0777725 SPIN=   0.00000
   O  -0.1414580   0.1685823   0.4792682 SPIN=   0.00000
   O  -0.6303174   0.0321451   0.3255433 SPIN=   0.00000
   S  -0.3924898   0.0185793   0.2594231 SPIN=   0.00000
   O   0.0871706  -0.3448915  -0.7371590 SPIN=   0.00000
   O   0.1146456  -0.4222275  -0.3892510 SPIN=   0.00000
   O   0.3585420  -0.0207318  -0.3314177 SPIN=   0.00000
   O  -0.1303174  -0.1744567  -0.4678549 SPIN=   0.00000
   S   0.1075102  -0.2405769  -0.4814207 SPIN=   0.00000
   F  -0.3902329  -0.4890188  -0.3000436 SPIN=   0.00000
   F   0.1097671   0.1999564   0.0109812 SPIN=   0.00000
%ENDBLOCK POSITIONS_FRAC

# Note: total spin =   8.00

KPOINTS_MP_SPACING 0.07

%BLOCK SPECIES_POT
QC5
%ENDBLOCK SPECIES_POT

SNAP_TO_SYMMETRY
SYMMETRY_GENERATE

