#              Generated by Buildcell
#
# at 03:12:10 (GMT+1.0) 4th August 2020
# in /lustre/scratch/uccabz1/launch_tmp
# on node-c12h-032
# by uccabz1
#
# compiler GCC version 4.9.2
# options -cpp -iprefix /lustre/shared/ucl/apps/gcc/4.9.2/bin/../lib/gcc/x86_64-unknown-linux-gnu/4.9.2/ -mtune=corei7 -march=x86-64 -g -Og
#
# seed -1163607184   -55459337  1863372829   450564865   164009211 -1408636383   849020793  1922587896   810673134  -308814381  -434418002   744779669
#
#      Author: C. J. Pickard (cjp20@cam.ac.uk)
#                Space group: C2
#

%BLOCK LATTICE_ABC
      6.11778      6.47723      6.47723
     81.48890     62.18892     62.18892
%ENDBLOCK LATTICE_ABC

%BLOCK POSITIONS_FRAC
  Li   0.4239813  -0.4064316  -0.0621894 SPIN=   0.00000
  Li  -0.4239813   0.0621894   0.4064316 SPIN=   0.00000
  Fe   0.5000000  -0.4613064   0.4613064 SPIN=   2.68540
  Fe   0.0000000   0.2234607  -0.2234607 SPIN=   5.31460
   O   0.3431285   0.0344883   0.2745521 SPIN=   0.00000
   O   0.0032663   0.1564740   0.1199851 SPIN=   0.00000
   O  -0.1329447   0.0867170   0.5383968 SPIN=   0.00000
   S   0.1022106   0.0076281   0.2915535 SPIN=   0.00000
   O  -0.3431285  -0.2745521  -0.0344883 SPIN=   0.00000
   O  -0.0032663  -0.1199851  -0.1564740 SPIN=   0.00000
   O   0.1329447  -0.5383968  -0.0867170 SPIN=   0.00000
   S  -0.1022106  -0.2915535  -0.0076281 SPIN=   0.00000
   O   0.0000000  -0.2199365   0.2199365 SPIN=   0.00000
   O  -0.0000000   0.4870840  -0.4870840 SPIN=   0.00000
   F  -0.4919799   0.3597853   0.1440339 SPIN=   0.00000
   F   0.4919799  -0.1440339  -0.3597853 SPIN=   0.00000
%ENDBLOCK POSITIONS_FRAC

# Note: total spin =   8.00

KPOINTS_MP_SPACING 0.07

%BLOCK SPECIES_POT
QC5
%ENDBLOCK SPECIES_POT

SNAP_TO_SYMMETRY
SYMMETRY_GENERATE

