#              Generated by Buildcell
#
# at 23:31:35 (GMT+1.0) 18th August 2020
# in /lustre/scratch/uccabz1/launch_tmp
# on node-c12k-029
# by uccabz1
#
# compiler GCC version 4.9.2
# options -cpp -iprefix /lustre/shared/ucl/apps/gcc/4.9.2/bin/../lib/gcc/x86_64-unknown-linux-gnu/4.9.2/ -mtune=corei7 -march=x86-64 -g -Og
#
# seed -1634608858 -1075574505 -1325379822  -894046496   537818940  1554975083  1226486594 -2039553633  -854509300  -693432804   422346471  -502015277
#
#      Author: C. J. Pickard (cjp20@cam.ac.uk)
#                Space group: P-1
#

%BLOCK LATTICE_ABC
      4.10559      6.75583      7.96869
    114.32061     94.94452     92.18329
%ENDBLOCK LATTICE_ABC

%BLOCK POSITIONS_FRAC
  Li  -0.3625947   0.2994522   0.1242182 SPIN=   0.00000
  Li   0.3625947  -0.2994522  -0.1242182 SPIN=   0.00000
  Fe  -0.0283961  -0.2972674   0.4042930 SPIN=   4.00000
  Fe   0.0283961   0.2972674  -0.4042930 SPIN=   4.00000
   O  -0.7215416  -0.1716316  -0.3153052 SPIN=   0.00000
   O  -0.2347337   0.0039379  -0.0870751 SPIN=   0.00000
   O  -0.6254030   0.2304446  -0.1665247 SPIN=   0.00000
   O  -0.2656684   0.0109549  -0.3960976 SPIN=   0.00000
   S  -0.4618366   0.0184265  -0.2412507 SPIN=   0.00000
   O   0.7215416   0.1716316   0.3153052 SPIN=   0.00000
   O   0.2347337  -0.0039379   0.0870751 SPIN=   0.00000
   O   0.6254030  -0.2304446   0.1665247 SPIN=   0.00000
   O   0.2656684  -0.0109549   0.3960976 SPIN=   0.00000
   S   0.4618366  -0.0184265   0.2412507 SPIN=   0.00000
   F  -0.2167925  -0.4702325  -0.2295978 SPIN=   0.00000
   F   0.2167925   0.4702325   0.2295978 SPIN=   0.00000
%ENDBLOCK POSITIONS_FRAC

# Note: total spin =   8.00

KPOINTS_MP_SPACING 0.07

%BLOCK SPECIES_POT
QC5
%ENDBLOCK SPECIES_POT

SNAP_TO_SYMMETRY
SYMMETRY_GENERATE

