#              Generated by Buildcell
#
# at 05:11:09 (GMT+1.0) 4th August 2020
# in /lustre/scratch/uccabz1/launch_tmp
# on node-c12h-033
# by uccabz1
#
# compiler GCC version 4.9.2
# options -cpp -iprefix /lustre/shared/ucl/apps/gcc/4.9.2/bin/../lib/gcc/x86_64-unknown-linux-gnu/4.9.2/ -mtune=corei7 -march=x86-64 -g -Og
#
# seed -2133696321  -465737467  1008218932    48727439  -547285607 -1411225254  -721631789  2130985981   525407359 -1703052364   838621073  -478995723
#
#      Author: C. J. Pickard (cjp20@cam.ac.uk)
#                Space group: Pm
#

%BLOCK LATTICE_ABC
      4.14048      4.14360     13.43739
     90.00000     90.00000    119.82678
%ENDBLOCK LATTICE_ABC

%BLOCK POSITIONS_FRAC
  Li  -0.2794459  -0.4032893   0.2261386 SPIN=   0.00000
  Li  -0.2794459  -0.4032893  -0.2261386 SPIN=   0.00000
  Fe   0.3866536  -0.0694014   0.3673645 SPIN=   4.00000
  Fe   0.3866536  -0.0694014  -0.3673645 SPIN=   4.00000
   O   0.0112117   0.2103464   0.2548579 SPIN=   0.00000
   O   0.4101389   0.2755136   0.1104103 SPIN=   0.00000
   O   0.0640840   0.6198431   0.1142965 SPIN=   0.00000
   O  -0.2755432  -0.0637404   0.0923778 SPIN=   0.00000
   S   0.0524729   0.2604907   0.1429856 SPIN=   0.00000
   O   0.0112117   0.2103464  -0.2548579 SPIN=   0.00000
   O   0.4101389   0.2755136  -0.1104103 SPIN=   0.00000
   O   0.0640840   0.6198431  -0.1142965 SPIN=   0.00000
   O  -0.2755432  -0.0637404  -0.0923778 SPIN=   0.00000
   S   0.0524729   0.2604907  -0.1429856 SPIN=   0.00000
   F  -0.4246828  -0.4915880  -0.3685359 SPIN=   0.00000
   F  -0.4246828  -0.4915880   0.3685359 SPIN=   0.00000
%ENDBLOCK POSITIONS_FRAC

# Note: total spin =   8.00

KPOINTS_MP_SPACING 0.07

%BLOCK SPECIES_POT
QC5
%ENDBLOCK SPECIES_POT

SNAP_TO_SYMMETRY
SYMMETRY_GENERATE

