#              Generated by Buildcell
#
# at 00:38:31 (GMT+1.0) 19th August 2020
# in /lustre/scratch/uccabz1/launch_tmp
# on node-c12j-002
# by uccabz1
#
# compiler GCC version 4.9.2
# options -cpp -iprefix /lustre/shared/ucl/apps/gcc/4.9.2/bin/../lib/gcc/x86_64-unknown-linux-gnu/4.9.2/ -mtune=corei7 -march=x86-64 -g -Og
#
# seed   879964521 -1006117721 -1306981332  1164739722   364098921  -732068265  1572908576  1210473689  1912745718 -1904426351 -1957019351  -461060539
#
#      Author: C. J. Pickard (cjp20@cam.ac.uk)
#                Space group: C2
#

%BLOCK LATTICE_ABC
      4.02442      6.38318      8.47409
     81.33421     76.26364     71.62489
%ENDBLOCK LATTICE_ABC

%BLOCK POSITIONS_FRAC
  Li   0.0503891   0.3055012   0.1376422 SPIN=   0.00000
  Li   0.4935325  -0.3055012  -0.1376422 SPIN=   0.00000
  Fe   0.2972351   0.1972766  -0.2189868 SPIN=   4.00000
  Fe   0.2755249  -0.1972766   0.2189868 SPIN=   4.00000
   O   0.1594539  -0.4081188  -0.2422866 SPIN=   0.00000
   O   0.0960664  -0.0165833  -0.3458619 SPIN=   0.00000
   O  -0.3014322  -0.2098236  -0.4040150 SPIN=   0.00000
   O   0.3389393  -0.3106387  -0.5375425 SPIN=   0.00000
   S   0.0732568  -0.2362911  -0.3824265 SPIN=   0.00000
   O   0.5090485   0.4081188   0.2422866 SPIN=   0.00000
   O   0.7336212   0.0165833   0.3458619 SPIN=   0.00000
   O   0.0847293   0.2098236   0.4040150 SPIN=   0.00000
   O   0.4907580   0.3106387   0.5375425 SPIN=   0.00000
   S   0.4545392   0.2362911   0.3824265 SPIN=   0.00000
   F  -0.1196399  -0.2926361   0.1330912 SPIN=   0.00000
   F  -0.2791847   0.2926361  -0.1330912 SPIN=   0.00000
%ENDBLOCK POSITIONS_FRAC

# Note: total spin =   8.00

KPOINTS_MP_SPACING 0.07

%BLOCK SPECIES_POT
QC5
%ENDBLOCK SPECIES_POT

SNAP_TO_SYMMETRY
SYMMETRY_GENERATE

