#              Generated by Buildcell
#
# at 04:58:23 (GMT+1.0) 4th August 2020
# in /lustre/scratch/uccabz1/launch_tmp
# on node-c12k-030
# by uccabz1
#
# compiler GCC version 4.9.2
# options -cpp -iprefix /lustre/shared/ucl/apps/gcc/4.9.2/bin/../lib/gcc/x86_64-unknown-linux-gnu/4.9.2/ -mtune=corei7 -march=x86-64 -g -Og
#
# seed -2104575498  1403491545   711002841  1321517475  1798286268  -933169928 -1554254741  1151476482  1808545776   178342306  1794088211 -2048042256
#
#      Author: C. J. Pickard (cjp20@cam.ac.uk)
#                Space group: C2
#

%BLOCK LATTICE_ABC
      3.86614      6.17193      8.87945
     95.98724     90.00000    108.25240
%ENDBLOCK LATTICE_ABC

%BLOCK POSITIONS_FRAC
  Li   0.0414803   0.2598145  -0.1043583 SPIN=   0.00000
  Li  -0.2183342  -0.2598145   0.1043583 SPIN=   0.00000
  Fe  -0.4401327   0.1377805   0.2290772 SPIN=   4.00000
  Fe   0.4220868  -0.1377805  -0.2290772 SPIN=   4.00000
   O   0.3170527   0.5209696  -0.2949301 SPIN=   0.00000
   O   0.0528207   0.0982694  -0.3101852 SPIN=   0.00000
   O   0.6785122   0.2738201  -0.3952485 SPIN=   0.00000
   O   0.1490409   0.2907099  -0.5447124 SPIN=   0.00000
   S   0.2993566   0.2959422  -0.3862690 SPIN=   0.00000
   O  -0.2039169  -0.5209696   0.2949301 SPIN=   0.00000
   O  -0.0454487  -0.0982694   0.3101852 SPIN=   0.00000
   O   0.4046921  -0.2738201   0.3952485 SPIN=   0.00000
   O  -0.1416690  -0.2907099   0.5447124 SPIN=   0.00000
   S   0.0034144  -0.2959422   0.3862690 SPIN=   0.00000
   F  -0.0889901  -0.2965916  -0.1174329 SPIN=   0.00000
   F   0.2076015   0.2965916   0.1174329 SPIN=   0.00000
%ENDBLOCK POSITIONS_FRAC

# Note: total spin =   8.00

KPOINTS_MP_SPACING 0.07

%BLOCK SPECIES_POT
QC5
%ENDBLOCK SPECIES_POT

SNAP_TO_SYMMETRY
SYMMETRY_GENERATE

