#              Generated by Buildcell
#
# at 23:42:01 (GMT+1.0) 18th August 2020
# in /scratch/scratch/uccabz1/launch_tmp
# on node-k10h-001
# by uccabz1
#
# compiler GCC version 4.9.2
# options -cpp -iprefix /scratch/UCL/applications/gcc/4.9.2/bin/../lib/gcc/x86_64-unknown-linux-gnu/4.9.2/ -mtune=corei7 -march=x86-64 -g -O2
#
# seed  1876674691   957452178 -1090628779  1429113096  1198691151 -2098703225   863298945   668957864  1283501647  -258612175   -91822329   203513617
#
#      Author: C. J. Pickard (cjp20@cam.ac.uk)
#                Space group: Cc
#

%BLOCK LATTICE_ABC
      5.90271      5.90271      6.29826
    100.31858    100.31858    107.08716
%ENDBLOCK LATTICE_ABC

%BLOCK POSITIONS_FRAC
  Li  -0.1323768   0.1957612  -0.3517331 SPIN=   0.00000
  Li   0.1957612  -0.1323768   0.1482669 SPIN=   0.00000
  Fe  -0.2463215  -0.4615915   0.3833862 SPIN=   4.00000
  Fe  -0.4615915  -0.2463215  -0.1166138 SPIN=   4.00000
   O   0.4327738   0.2774796  -0.1595434 SPIN=   0.00000
   O   0.5509730   0.2230029  -0.5180604 SPIN=   0.00000
   O   0.1138238   0.1154158  -0.5144912 SPIN=   0.00000
   O   0.3514195  -0.1388331  -0.3873933 SPIN=   0.00000
   S   0.3622475   0.1192663  -0.3948721 SPIN=   0.00000
   O   0.2774796   0.4327738   0.3404566 SPIN=   0.00000
   O   0.2230029   0.5509730  -0.0180604 SPIN=   0.00000
   O   0.1154158   0.1138238  -0.0144912 SPIN=   0.00000
   O  -0.1388331   0.3514195   0.1126067 SPIN=   0.00000
   S   0.1192663   0.3622475   0.1051279 SPIN=   0.00000
   F  -0.1128204  -0.3450637  -0.2869727 SPIN=   0.00000
   F  -0.3450637  -0.1128204   0.2130273 SPIN=   0.00000
%ENDBLOCK POSITIONS_FRAC

# Note: total spin =   8.00

KPOINTS_MP_SPACING 0.07

%BLOCK SPECIES_POT
QC5
%ENDBLOCK SPECIES_POT

SNAP_TO_SYMMETRY
SYMMETRY_GENERATE

