#              Generated by Buildcell
#
# at 22:35:07 (GMT+1.0) 18th August 2020
# in /lustre/scratch/uccabz1/launch_tmp
# on node-c12p-010
# by uccabz1
#
# compiler GCC version 4.9.2
# options -cpp -iprefix /lustre/shared/ucl/apps/gcc/4.9.2/bin/../lib/gcc/x86_64-unknown-linux-gnu/4.9.2/ -mtune=corei7 -march=x86-64 -g -Og
#
# seed  -429912033  1989051087   961620036 -2045223154  1336654404   215614471  1631665940 -1155752075  -592319122  1465347118  -483308306 -1555589286
#
#      Author: C. J. Pickard (cjp20@cam.ac.uk)
#                Space group: P2
#

%BLOCK LATTICE_ABC
      3.88166      6.83244      7.67868
    100.86159     90.00000     90.00000
%ENDBLOCK LATTICE_ABC

%BLOCK POSITIONS_FRAC
  Li  -0.4071466   0.5000000  -0.5000000 SPIN=   0.00000
  Li   0.0904224   0.0000000  -0.5000000 SPIN=   0.00000
  Fe  -0.3942524   0.2192394  -0.1092234 SPIN=   4.00000
  Fe  -0.3942524  -0.2192394   0.1092234 SPIN=   4.00000
   O   0.1819170  -0.3383194  -0.3812384 SPIN=   0.00000
   O   0.2456201  -0.6719091  -0.3035077 SPIN=   0.00000
   O  -0.2973935  -0.4833075  -0.2349032 SPIN=   0.00000
   O   0.2332383  -0.3710372  -0.0667403 SPIN=   0.00000
   S   0.0908455  -0.4661433  -0.2465974 SPIN=   0.00000
   O   0.1819170   0.3383194   0.3812384 SPIN=   0.00000
   O   0.2456201   0.6719091   0.3035077 SPIN=   0.00000
   O  -0.2973935   0.4833075   0.2349032 SPIN=   0.00000
   O   0.2332383   0.3710372   0.0667403 SPIN=   0.00000
   S   0.0908455   0.4661433   0.2465974 SPIN=   0.00000
   F  -0.4050969  -0.0277598  -0.2671464 SPIN=   0.00000
   F  -0.4050969   0.0277598   0.2671464 SPIN=   0.00000
%ENDBLOCK POSITIONS_FRAC

# Note: total spin =   8.00

KPOINTS_MP_SPACING 0.07

%BLOCK SPECIES_POT
QC5
%ENDBLOCK SPECIES_POT

SNAP_TO_SYMMETRY
SYMMETRY_GENERATE

