#              Generated by Buildcell
#
# at 02:33:17 (GMT+1.0) 4th August 2020
# in /lustre/scratch/uccabz1/launch_tmp
# on node-c12p-019
# by uccabz1
#
# compiler GCC version 4.9.2
# options -cpp -iprefix /lustre/shared/ucl/apps/gcc/4.9.2/bin/../lib/gcc/x86_64-unknown-linux-gnu/4.9.2/ -mtune=corei7 -march=x86-64 -g -Og
#
# seed  -643984673  2047023109  -193404761  -840075542   532900475  1550659720   619581147  1739211078   -70023582  1260985362   475533586  1087812950
#
#      Author: C. J. Pickard (cjp20@cam.ac.uk)
#                Space group: Ama2
#

%BLOCK LATTICE_ABC
      3.85555      6.42228      8.46755
     90.00000     90.00000    107.46781
%ENDBLOCK LATTICE_ABC

%BLOCK POSITIONS_FRAC
  Li   0.3344248  -0.3311504  -0.0000000 SPIN=   0.00000
  Li   0.3344248  -0.3311504  -0.5000000 SPIN=   0.00000
  Fe  -0.2866850   0.4903682   0.2500000 SPIN=   4.00000
  Fe  -0.2229469   0.4903682  -0.2500000 SPIN=   4.00000
   O   0.6575626  -0.0554242  -0.1133690 SPIN=   0.00000
   O   0.2590541   0.1832810  -0.1133772 SPIN=   0.00000
   O  -0.7129868  -0.0554242   0.1133690 SPIN=   0.00000
   O  -0.0757731   0.1832810   0.1133772 SPIN=   0.00000
   O  -0.7129868  -0.0554242   0.3866310 SPIN=   0.00000
   O  -0.0757731   0.1832810   0.3866228 SPIN=   0.00000
   O   0.6575626  -0.0554242  -0.3866310 SPIN=   0.00000
   O   0.2590541   0.1832810  -0.3866228 SPIN=   0.00000
   S   0.0517742   0.0398355  -0.2500000 SPIN=   0.00000
   S  -0.0119387   0.0398355   0.2500000 SPIN=   0.00000
   F  -0.2330340  -0.4660679  -0.0000000 SPIN=   0.00000
   F  -0.2330340  -0.4660679  -0.5000000 SPIN=   0.00000
%ENDBLOCK POSITIONS_FRAC

# Note: total spin =   8.00

KPOINTS_MP_SPACING 0.07

%BLOCK SPECIES_POT
QC5
%ENDBLOCK SPECIES_POT

SNAP_TO_SYMMETRY
SYMMETRY_GENERATE

