#              Generated by Buildcell
#
# at 02:25:58 (GMT+1.0) 4th August 2020
# in /lustre/scratch/uccabz1/launch_tmp
# on node-c12j-010
# by uccabz1
#
# compiler GCC version 4.9.2
# options -cpp -iprefix /lustre/shared/ucl/apps/gcc/4.9.2/bin/../lib/gcc/x86_64-unknown-linux-gnu/4.9.2/ -mtune=corei7 -march=x86-64 -g -Og
#
# seed  2061275388  2111298002   425859871 -1656838700  -773812435 -1754006876  -804534998 -1860749226  -597860067   994608393  1240776750  1792890924
#
#      Author: C. J. Pickard (cjp20@cam.ac.uk)
#                Space group: P2
#

%BLOCK LATTICE_ABC
      4.66775      6.41973      6.69614
     90.00000     90.00000     94.62908
%ENDBLOCK LATTICE_ABC

%BLOCK POSITIONS_FRAC
  Li  -0.2773125  -0.2537019   0.1348501 SPIN=   0.00000
  Li   0.2773125   0.2537019   0.1348501 SPIN=   0.00000
  Fe   0.2254435  -0.2281572   0.4161066 SPIN=   4.00000
  Fe  -0.2254435   0.2281572   0.4161066 SPIN=   4.00000
   O   0.2996488  -0.2909874   0.1119609 SPIN=   0.00000
   O  -0.0795135  -0.3250501  -0.1470192 SPIN=   0.00000
   O   0.4316756  -0.3316017  -0.2430563 SPIN=   0.00000
   O   0.2465932  -0.0020955  -0.1265137 SPIN=   0.00000
   S   0.2246010  -0.2374337  -0.1011571 SPIN=   0.00000
   O  -0.2996488   0.2909874   0.1119609 SPIN=   0.00000
   O   0.0795135   0.3250501  -0.1470192 SPIN=   0.00000
   O  -0.4316756   0.3316017  -0.2430563 SPIN=   0.00000
   O  -0.2465932   0.0020955  -0.1265137 SPIN=   0.00000
   S  -0.2246010   0.2374337  -0.1011571 SPIN=   0.00000
   F  -0.2069718  -0.2621823   0.4324618 SPIN=   0.00000
   F   0.2069718   0.2621823   0.4324618 SPIN=   0.00000
%ENDBLOCK POSITIONS_FRAC

# Note: total spin =   8.00

KPOINTS_MP_SPACING 0.07

%BLOCK SPECIES_POT
QC5
%ENDBLOCK SPECIES_POT

SNAP_TO_SYMMETRY
SYMMETRY_GENERATE

