#              Generated by Buildcell
#
# at 02:02:08 (GMT+1.0) 19th August 2020
# in /lustre/scratch/uccabz1/launch_tmp
# on node-c12e-014
# by uccabz1
#
# compiler GCC version 4.9.2
# options -cpp -iprefix /lustre/shared/ucl/apps/gcc/4.9.2/bin/../lib/gcc/x86_64-unknown-linux-gnu/4.9.2/ -mtune=corei7 -march=x86-64 -g -Og
#
# seed  1857557992   360770981 -1295374483    -8575348  -720459559 -2017953713 -1487401944   826395149   915150363  1945221301  -217593757 -2041713587
#
#      Author: C. J. Pickard (cjp20@cam.ac.uk)
#                Space group: Cc
#

%BLOCK LATTICE_ABC
      4.33768      6.22236      7.91515
     89.02810     87.21067     69.60100
%ENDBLOCK LATTICE_ABC

%BLOCK POSITIONS_FRAC
  Li   0.3455065  -0.2565032   0.4952130 SPIN=   0.00000
  Li   0.0890033   0.2565032  -0.0047870 SPIN=   0.00000
  Fe  -0.4070636   0.1412092  -0.3073032 SPIN=   4.00000
  Fe  -0.2658544  -0.1412092   0.1926968 SPIN=   4.00000
   O   0.2278532   0.3123285   0.5104109 SPIN=   0.00000
   O  -0.2687336   0.3998150   0.3431310 SPIN=   0.00000
   O   0.2429654   0.0843888   0.2549204 SPIN=   0.00000
   O   0.2139060   0.4876279   0.2265686 SPIN=   0.00000
   S   0.1039977   0.3210400   0.3337577 SPIN=   0.00000
   O   0.5401816  -0.3123285   0.0104109 SPIN=   0.00000
   O   0.1310814  -0.3998150  -0.1568690 SPIN=   0.00000
   O   0.3273541  -0.0843888  -0.2450796 SPIN=   0.00000
   O   0.7015339  -0.4876279  -0.2734314 SPIN=   0.00000
   S   0.4250378  -0.3210400  -0.1662423 SPIN=   0.00000
   F  -0.1948058  -0.1098176   0.4942451 SPIN=   0.00000
   F  -0.3046234   0.1098176  -0.0057549 SPIN=   0.00000
%ENDBLOCK POSITIONS_FRAC

# Note: total spin =   8.00

KPOINTS_MP_SPACING 0.07

%BLOCK SPECIES_POT
QC5
%ENDBLOCK SPECIES_POT

SNAP_TO_SYMMETRY
SYMMETRY_GENERATE

