#              Generated by Buildcell
#
# at 02:42:21 (GMT+1.0) 19th August 2020
# in /lustre/scratch/uccabz1/launch_tmp
# on node-c12g-024
# by uccabz1
#
# compiler GCC version 4.9.2
# options -cpp -iprefix /lustre/shared/ucl/apps/gcc/4.9.2/bin/../lib/gcc/x86_64-unknown-linux-gnu/4.9.2/ -mtune=corei7 -march=x86-64 -g -Og
#
# seed -1578645520 -2142131077   583988750 -1916562260  2038229444   573212110 -1806652182 -1389949839  1295345657 -2113461203 -1855765639   498927978
#
#      Author: C. J. Pickard (cjp20@cam.ac.uk)
#                Space group: P21
#

%BLOCK LATTICE_ABC
      5.59122      5.74971      6.54465
     90.00000     90.00000    108.08709
%ENDBLOCK LATTICE_ABC

%BLOCK POSITIONS_FRAC
  Li   0.3344481   0.3119110  -0.3729907 SPIN=   0.00000
  Li  -0.3344481  -0.3119110   0.1270093 SPIN=   0.00000
  Fe   0.3016800  -0.0402325   0.0146000 SPIN=   4.00000
  Fe  -0.3016800   0.0402325  -0.4854000 SPIN=   4.00000
   O  -0.1069690  -0.2001993  -0.6235183 SPIN=   0.00000
   O  -0.0461619  -0.5777341  -0.4835484 SPIN=   0.00000
   O   0.0842251  -0.1948440  -0.2817964 SPIN=   0.00000
   O   0.3221467  -0.2338546  -0.5919318 SPIN=   0.00000
   S   0.0633102  -0.3016580  -0.4951987 SPIN=   0.00000
   O   0.1069690   0.2001993  -0.1235183 SPIN=   0.00000
   O   0.0461619   0.5777341   0.0164516 SPIN=   0.00000
   O  -0.0842251   0.1948440   0.2182036 SPIN=   0.00000
   O  -0.3221467   0.2338546  -0.0919318 SPIN=   0.00000
   S  -0.0633102   0.3016580   0.0048013 SPIN=   0.00000
   F   0.4399954   0.3119889   0.3588356 SPIN=   0.00000
   F  -0.4399954  -0.3119889  -0.1411644 SPIN=   0.00000
%ENDBLOCK POSITIONS_FRAC

# Note: total spin =   8.00

KPOINTS_MP_SPACING 0.07

%BLOCK SPECIES_POT
QC5
%ENDBLOCK SPECIES_POT

SNAP_TO_SYMMETRY
SYMMETRY_GENERATE

