#              Generated by Buildcell
#
# at 01:22:52 (GMT+1.0) 19th August 2020
# in /lustre/scratch/uccabz1/launch_tmp
# on node-c12o-001
# by uccabz1
#
# compiler GCC version 4.9.2
# options -cpp -iprefix /lustre/shared/ucl/apps/gcc/4.9.2/bin/../lib/gcc/x86_64-unknown-linux-gnu/4.9.2/ -mtune=corei7 -march=x86-64 -g -Og
#
# seed   703636039 -1886261460 -1836934026  2137697847  1836339683  1786169329  1931799010 -1596120599  1862903057   882732889 -1937182536   799535194
#
#      Author: C. J. Pickard (cjp20@cam.ac.uk)
#                Space group: P-1
#

%BLOCK LATTICE_ABC
      4.07484      4.33113     11.46344
     96.37132     95.62252     91.14384
%ENDBLOCK LATTICE_ABC

%BLOCK POSITIONS_FRAC
  Li   0.3011101   0.1762540   0.3074660 SPIN=   0.00000
  Li  -0.3011101  -0.1762540  -0.3074660 SPIN=   0.00000
  Fe  -0.2896051  -0.6318849  -0.1344711 SPIN=   4.00000
  Fe   0.2896051   0.6318849   0.1344711 SPIN=   4.00000
   O  -0.1157178   0.4097043   0.3921310 SPIN=   0.00000
   O  -0.6466274   0.6608880   0.3476132 SPIN=   0.00000
   O  -0.1247637   0.9096325   0.3063605 SPIN=   0.00000
   O  -0.2488519   0.8924224   0.5126434 SPIN=   0.00000
   S  -0.2839902   0.7181618   0.3896870 SPIN=   0.00000
   O   0.1157178  -0.4097043  -0.3921310 SPIN=   0.00000
   O   0.6466274  -0.6608880  -0.3476132 SPIN=   0.00000
   O   0.1247637  -0.9096325  -0.3063605 SPIN=   0.00000
   O   0.2488519  -0.8924224  -0.5126434 SPIN=   0.00000
   S   0.2839902  -0.7181618  -0.3896870 SPIN=   0.00000
   F   0.2101800  -0.2816735  -0.1223410 SPIN=   0.00000
   F  -0.2101800   0.2816735   0.1223410 SPIN=   0.00000
%ENDBLOCK POSITIONS_FRAC

# Note: total spin =   8.00

KPOINTS_MP_SPACING 0.07

%BLOCK SPECIES_POT
QC5
%ENDBLOCK SPECIES_POT

SNAP_TO_SYMMETRY
SYMMETRY_GENERATE

