#              Generated by Buildcell
#
# at 21:56:56 (GMT+1.0) 18th August 2020
# in /lustre/scratch/uccabz1/launch_tmp
# on node-c12d-020
# by uccabz1
#
# compiler GCC version 4.9.2
# options -cpp -iprefix /lustre/shared/ucl/apps/gcc/4.9.2/bin/../lib/gcc/x86_64-unknown-linux-gnu/4.9.2/ -mtune=corei7 -march=x86-64 -g -Og
#
# seed  1194856408  -146952291    73943189  2119681785 -1865946720  1817019737  -835599778  -801333522   987508365 -1020199208 -1126681359 -1874161049
#
#      Author: C. J. Pickard (cjp20@cam.ac.uk)
#                Space group: P21
#

%BLOCK LATTICE_ABC
      4.40532      6.44156      7.07269
     94.79499     90.00000     90.00000
%ENDBLOCK LATTICE_ABC

%BLOCK POSITIONS_FRAC
  Li  -0.1367496   0.1641917   0.1661063 SPIN=   0.00000
  Li   0.3632504  -0.1641917  -0.1661063 SPIN=   0.00000
  Fe  -0.4818063   0.3328456  -0.1688304 SPIN=   4.00000
  Fe   0.0181937  -0.3328456   0.1688304 SPIN=   4.00000
   O   0.6874901   0.2357202   0.4249903 SPIN=   0.00000
   O   0.2056848   0.4109429   0.5225597 SPIN=   0.00000
   O   0.1963764   0.0704530   0.3325757 SPIN=   0.00000
   O   0.3634511   0.3866537   0.1855963 SPIN=   0.00000
   S   0.3632506   0.2759425   0.3664305 SPIN=   0.00000
   O   0.1874901  -0.2357202  -0.4249903 SPIN=   0.00000
   O  -0.2943152  -0.4109429  -0.5225597 SPIN=   0.00000
   O  -0.3036236  -0.0704530  -0.3325757 SPIN=   0.00000
   O  -0.1365489  -0.3866537  -0.1855963 SPIN=   0.00000
   S  -0.1367494  -0.2759425  -0.3664305 SPIN=   0.00000
   F   0.1176120   0.2284066  -0.1341308 SPIN=   0.00000
   F  -0.3823880  -0.2284066   0.1341308 SPIN=   0.00000
%ENDBLOCK POSITIONS_FRAC

# Note: total spin =   8.00

KPOINTS_MP_SPACING 0.07

%BLOCK SPECIES_POT
QC5
%ENDBLOCK SPECIES_POT

SNAP_TO_SYMMETRY
SYMMETRY_GENERATE

