#              Generated by Buildcell
#
# at 03:33:06 (GMT+1.0) 4th August 2020
# in /lustre/scratch/uccabz1/launch_tmp
# on node-c12k-007
# by uccabz1
#
# compiler GCC version 4.9.2
# options -cpp -iprefix /lustre/shared/ucl/apps/gcc/4.9.2/bin/../lib/gcc/x86_64-unknown-linux-gnu/4.9.2/ -mtune=corei7 -march=x86-64 -g -Og
#
# seed -1776187904 -1564458712  1764715843  -859301084  -456008742   173689370 -1214363697   -23951738  -131467344 -1567093865  -110896979   633911480
#
#      Author: C. J. Pickard (cjp20@cam.ac.uk)
#                Space group: Pm
#

%BLOCK LATTICE_ABC
      4.15627      6.36766      7.94093
     90.00000     90.00000    107.89083
%ENDBLOCK LATTICE_ABC

%BLOCK POSITIONS_FRAC
  Li   0.0131643  -0.0255964   0.2590233 SPIN=   0.00000
  Li   0.0131643  -0.0255964  -0.2590233 SPIN=   0.00000
  Fe  -0.5406014  -0.2001354   0.5000000 SPIN=   6.24440
  Fe  -0.4904903  -0.0332665  -0.0000000 SPIN=   1.75560
   O   0.5877801   0.1802532  -0.3601854 SPIN=   0.00000
   O   1.0319743   0.5430571  -0.3601893 SPIN=   0.00000
   O   1.0302170   0.2678889  -0.1398057 SPIN=   0.00000
   O   0.5895275   0.4554355  -0.1398146 SPIN=   0.00000
   O   0.5877801   0.1802532   0.3601854 SPIN=   0.00000
   O   1.0319743   0.5430571   0.3601893 SPIN=   0.00000
   O   1.0302170   0.2678889   0.1398057 SPIN=   0.00000
   O   0.5895275   0.4554355   0.1398146 SPIN=   0.00000
   S   0.7459916   0.3579553   0.5000000 SPIN=   0.00000
   S   0.2229776   0.4087061   0.0000000 SPIN=   0.00000
   F   0.0347964  -0.0839538   0.5000000 SPIN=   0.00000
   F  -0.0658212  -0.1493589  -0.0000000 SPIN=   0.00000
%ENDBLOCK POSITIONS_FRAC

# Note: total spin =   8.00

KPOINTS_MP_SPACING 0.07

%BLOCK SPECIES_POT
QC5
%ENDBLOCK SPECIES_POT

SNAP_TO_SYMMETRY
SYMMETRY_GENERATE

