#              Generated by Buildcell
#
# at 23:05:53 (GMT+1.0) 18th August 2020
# in /lustre/scratch/uccabz1/launch_tmp
# on node-c12e-025
# by uccabz1
#
# compiler GCC version 4.9.2
# options -cpp -iprefix /lustre/shared/ucl/apps/gcc/4.9.2/bin/../lib/gcc/x86_64-unknown-linux-gnu/4.9.2/ -mtune=corei7 -march=x86-64 -g -Og
#
# seed   800496301 -1160995790 -1314069102  1832314267 -1218496717 -1160333187  -333972611  1576922494  -513500009 -1746266918   -94086231 -1261517507
#
#      Author: C. J. Pickard (cjp20@cam.ac.uk)
#                Space group: Ama2
#

%BLOCK LATTICE_ABC
      4.87081      6.06012      7.39940
     90.00000     90.00000    113.69539
%ENDBLOCK LATTICE_ABC

%BLOCK POSITIONS_FRAC
  Li   0.2325331   0.1448527   0.2500000 SPIN=   0.00000
  Li   0.0876804  -0.1448527  -0.2500000 SPIN=   0.00000
  Fe  -0.4471616  -0.2039598   0.2500000 SPIN=   4.00000
  Fe  -0.2432018   0.2039598  -0.2500000 SPIN=   4.00000
   O  -0.2715094   0.1779968   0.4105234 SPIN=   0.00000
   O  -0.2293472   0.5354080   0.5892526 SPIN=   0.00000
   O   0.5504938  -0.1779968  -0.4105234 SPIN=   0.00000
   O   0.2352448  -0.5354080  -0.5892526 SPIN=   0.00000
   O   0.5504938  -0.1779968  -0.0894766 SPIN=   0.00000
   O   0.2352448  -0.5354080   0.0892526 SPIN=   0.00000
   O  -0.2715094   0.1779968   0.0894766 SPIN=   0.00000
   O  -0.2293472   0.5354080  -0.0892526 SPIN=   0.00000
   S  -0.1503654   0.3919082   0.2500000 SPIN=   0.00000
   S   0.4577264  -0.3919082  -0.2500000 SPIN=   0.00000
   F   0.1395200   0.0000000  -0.0000000 SPIN=   0.00000
   F   0.1395200   0.0000000  -0.5000000 SPIN=   0.00000
%ENDBLOCK POSITIONS_FRAC

# Note: total spin =   8.00

KPOINTS_MP_SPACING 0.07

%BLOCK SPECIES_POT
QC5
%ENDBLOCK SPECIES_POT

SNAP_TO_SYMMETRY
SYMMETRY_GENERATE

