#              Generated by Buildcell
#
# at 03:49:24 (GMT+1.0) 4th August 2020
# in /lustre/scratch/uccabz1/launch_tmp
# on node-c12c-016
# by uccabz1
#
# compiler GCC version 4.9.2
# options -cpp -iprefix /lustre/shared/ucl/apps/gcc/4.9.2/bin/../lib/gcc/x86_64-unknown-linux-gnu/4.9.2/ -mtune=corei7 -march=x86-64 -g -Og
#
# seed   566755722  -397176209 -1443858381   483298764 -2107935397  1344213203   649805619 -1151654371  -916419635  1644816936 -2084164884  -822821871
#
#      Author: C. J. Pickard (cjp20@cam.ac.uk)
#                Space group: C222
#

%BLOCK LATTICE_ABC
      3.99277      7.44055      7.44055
    115.20555     90.00000     90.00000
%ENDBLOCK LATTICE_ABC

%BLOCK POSITIONS_FRAC
  Li   0.0000000   0.6798219   0.3201781 SPIN=   0.00000
  Li   0.0000000  -0.6798219  -0.3201781 SPIN=   0.00000
  Fe  -0.5000000  -0.0000000   0.0000000 SPIN=   3.85251
  Fe   0.5000000  -0.5000000  -0.5000000 SPIN=   4.14749
   O   0.3133277   0.3419658   0.0986119 SPIN=   0.00000
   O   0.2535622   0.1203742  -0.2592141 SPIN=   0.00000
   O   0.3133277  -0.3419658  -0.0986119 SPIN=   0.00000
   O   0.2535622  -0.1203742   0.2592141 SPIN=   0.00000
   O  -0.3133277  -0.0986119  -0.3419658 SPIN=   0.00000
   O  -0.2535622   0.2592141  -0.1203742 SPIN=   0.00000
   O  -0.3133277   0.0986119   0.3419658 SPIN=   0.00000
   O  -0.2535622  -0.2592141   0.1203742 SPIN=   0.00000
   S  -0.4209518  -0.5000000  -0.0000000 SPIN=   0.00000
   S   0.4209518   1.0000000   0.5000000 SPIN=   0.00000
   F   0.0000000   0.0000000   0.0000000 SPIN=   0.00000
   F   0.0000000   0.5000000   0.5000000 SPIN=   0.00000
%ENDBLOCK POSITIONS_FRAC

# Note: total spin =   8.00

KPOINTS_MP_SPACING 0.07

%BLOCK SPECIES_POT
QC5
%ENDBLOCK SPECIES_POT

SNAP_TO_SYMMETRY
SYMMETRY_GENERATE

