#              Generated by Buildcell
#
# at 23:27:20 (GMT+1.0) 18th August 2020
# in /lustre/scratch/uccabz1/launch_tmp
# on node-c12l-008
# by uccabz1
#
# compiler GCC version 4.9.2
# options -cpp -iprefix /lustre/shared/ucl/apps/gcc/4.9.2/bin/../lib/gcc/x86_64-unknown-linux-gnu/4.9.2/ -mtune=corei7 -march=x86-64 -g -Og
#
# seed  -900886682   306424110  -627119668  1614230161 -1213776565   910812036  1072045010 -1029396691  1673660159 -1638106740  2016384350 -1893120961
#
#      Author: C. J. Pickard (cjp20@cam.ac.uk)
#                Space group: Cc
#

%BLOCK LATTICE_ABC
      6.29815      6.32270      6.36319
    111.31231    119.66247     90.00000
%ENDBLOCK LATTICE_ABC

%BLOCK POSITIONS_FRAC
  Li   0.1777050   0.4638908  -0.1269138 SPIN=   0.00000
  Li  -0.3046188  -0.0361092  -0.1269138 SPIN=   0.00000
  Fe  -0.4579069  -0.0185404   0.3612446 SPIN=   4.00000
  Fe  -0.1808485   0.4814596   0.3612446 SPIN=   4.00000
   O  -0.6541305   0.5608034  -0.4206525 SPIN=   0.00000
   O  -0.5122561   0.3961275  -0.0867791 SPIN=   0.00000
   O  -0.2250135   0.7144425  -0.0202312 SPIN=   0.00000
   O  -0.3374927   0.3200069  -0.3736381 SPIN=   0.00000
   S  -0.4322232   0.4978451  -0.2253252 SPIN=   0.00000
   O   0.2334780   0.0608034  -0.4206525 SPIN=   0.00000
   O   0.4254770  -0.1038725  -0.0867791 SPIN=   0.00000
   O   0.2047823   0.2144425  -0.0202312 SPIN=   0.00000
   O  -0.0361454  -0.1799931  -0.3736381 SPIN=   0.00000
   S   0.2068980  -0.0021549  -0.2253252 SPIN=   0.00000
   F  -0.1037791   0.2111753   0.1891073 SPIN=   0.00000
   F   0.2928863  -0.2888247   0.1891073 SPIN=   0.00000
%ENDBLOCK POSITIONS_FRAC

# Note: total spin =   8.00

KPOINTS_MP_SPACING 0.07

%BLOCK SPECIES_POT
QC5
%ENDBLOCK SPECIES_POT

SNAP_TO_SYMMETRY
SYMMETRY_GENERATE

