#              Generated by Buildcell
#
# at 05:28:01 (GMT+1.0) 4th August 2020
# in /lustre/scratch/uccabz1/launch_tmp
# on node-c12n-020
# by uccabz1
#
# compiler GCC version 4.9.2
# options -cpp -iprefix /lustre/shared/ucl/apps/gcc/4.9.2/bin/../lib/gcc/x86_64-unknown-linux-gnu/4.9.2/ -mtune=corei7 -march=x86-64 -g -Og
#
# seed -2021513758   941458033   230414141  -769327922  -970540564   362458705   600624833  -791415411  2025201686  1206221645  -170232339  -722233445
#
#      Author: C. J. Pickard (cjp20@cam.ac.uk)
#                Space group: Aem2
#

%BLOCK LATTICE_ABC
      5.53687      5.53687      6.55867
     90.00000     90.00000     95.90922
%ENDBLOCK LATTICE_ABC

%BLOCK POSITIONS_FRAC
  Li  -0.1568559   0.3431441   0.1582767 SPIN=   0.00000
  Li   0.3431441  -0.1568559  -0.1582767 SPIN=   0.00000
  Fe   0.2854693  -0.2145307   0.3722939 SPIN=   4.00000
  Fe  -0.2145307   0.2854693  -0.3722939 SPIN=   4.00000
   O  -0.3051865  -0.0878273   0.1939342 SPIN=   0.00000
   O  -0.1100043   0.1081637  -0.1118038 SPIN=   0.00000
   O  -0.0878273  -0.3051865  -0.1939342 SPIN=   0.00000
   O   0.1081637  -0.1100043   0.1118038 SPIN=   0.00000
   O  -0.5878273   0.1948135   0.1939342 SPIN=   0.00000
   O  -0.3918363   0.3899957  -0.1118038 SPIN=   0.00000
   O   0.1948135  -0.5878273  -0.1939342 SPIN=   0.00000
   O   0.3899957  -0.3918363   0.1118038 SPIN=   0.00000
   S   0.3052630   0.3052630  -0.0000000 SPIN=   0.00000
   S  -0.1947370  -0.1947370   0.0000000 SPIN=   0.00000
   F   0.0548919   0.0548919  -0.5000000 SPIN=   0.00000
   F  -0.4451081  -0.4451081  -0.5000000 SPIN=   0.00000
%ENDBLOCK POSITIONS_FRAC

# Note: total spin =   8.00

KPOINTS_MP_SPACING 0.07

%BLOCK SPECIES_POT
QC5
%ENDBLOCK SPECIES_POT

SNAP_TO_SYMMETRY
SYMMETRY_GENERATE

