#              Generated by Buildcell
#
# at 03:24:07 (GMT+1.0) 4th August 2020
# in /lustre/scratch/uccabz1/launch_tmp
# on node-c12c-023
# by uccabz1
#
# compiler GCC version 4.9.2
# options -cpp -iprefix /lustre/shared/ucl/apps/gcc/4.9.2/bin/../lib/gcc/x86_64-unknown-linux-gnu/4.9.2/ -mtune=corei7 -march=x86-64 -g -Og
#
# seed  1502717308  1687306083 -1109386879   733718944  1073190601   385665926   300653314   217775694 -1442842596  -605334762 -1156164060  -676149248
#
#      Author: C. J. Pickard (cjp20@cam.ac.uk)
#                Space group: Cm
#

%BLOCK LATTICE_ABC
      5.45892      5.45892      7.37784
    107.05725    107.05725     90.13438
%ENDBLOCK LATTICE_ABC

%BLOCK POSITIONS_FRAC
  Li   0.1518112   0.6734873   0.2843108 SPIN=   0.00000
  Li   0.6734873   0.1518112   0.2843108 SPIN=   0.00000
  Fe   0.5690859   0.5690859   0.1010954 SPIN=   3.40999
  Fe   0.2468642   0.2468642   0.4823296 SPIN=   4.59001
   O  -0.1290163  -0.5458956  -0.0122143 SPIN=   0.00000
   O   0.0019402  -0.3161710  -0.2175698 SPIN=   0.00000
   O  -0.3197755  -0.6968375  -0.3791271 SPIN=   0.00000
   S  -0.0775604  -0.5773822  -0.2084271 SPIN=   0.00000
   O  -0.5458956  -0.1290163  -0.0122143 SPIN=   0.00000
   O  -0.3161710   0.0019402  -0.2175698 SPIN=   0.00000
   O  -0.6968375  -0.3197755  -0.3791271 SPIN=   0.00000
   S  -0.5773822  -0.0775604  -0.2084271 SPIN=   0.00000
   O  -0.1216428  -0.1216428   0.0469512 SPIN=   0.00000
   O   0.1430995   0.1430995  -0.2006527 SPIN=   0.00000
   F   0.8158104   0.8158104   0.4068946 SPIN=   0.00000
   F   0.3199558   0.3199558   0.2501897 SPIN=   0.00000
%ENDBLOCK POSITIONS_FRAC

# Note: total spin =   8.00

KPOINTS_MP_SPACING 0.07

%BLOCK SPECIES_POT
QC5
%ENDBLOCK SPECIES_POT

SNAP_TO_SYMMETRY
SYMMETRY_GENERATE

