#              Generated by Buildcell
#
# at 01:16:41 (GMT+1.0) 19th August 2020
# in /scratch/scratch/uccabz1/launch_tmp
# on node-k10d-029
# by uccabz1
#
# compiler GCC version 4.9.2
# options -cpp -iprefix /scratch/UCL/applications/gcc/4.9.2/bin/../lib/gcc/x86_64-unknown-linux-gnu/4.9.2/ -mtune=corei7 -march=x86-64 -g -O2
#
# seed  1279626861   568108614  1283940282  1465670941  1190978444  1037958023 -1441810469  -890164253    89933382  1304923444   642996222  -386767575
#
#      Author: C. J. Pickard (cjp20@cam.ac.uk)
#                Space group: C2
#

%BLOCK LATTICE_ABC
      4.01185      7.17230      7.50057
    104.54069     90.00000    106.24091
%ENDBLOCK LATTICE_ABC

%BLOCK POSITIONS_FRAC
  Li   0.2997751  -0.0925042  -0.2668291 SPIN=   0.00000
  Li   0.3922793   0.0925042   0.2668291 SPIN=   0.00000
  Fe   0.0113864   0.2573758  -0.0268090 SPIN=   4.00000
  Fe  -0.2459893  -0.2573758   0.0268090 SPIN=   4.00000
   O  -0.3499576   0.1556790  -0.4010851 SPIN=   0.00000
   O  -0.7968301   0.3239928  -0.2835243 SPIN=   0.00000
   O  -0.4453743   0.4206721  -0.5346260 SPIN=   0.00000
   O  -0.1713972   0.5110167  -0.2171558 SPIN=   0.00000
   S  -0.4408898   0.3528402  -0.3590978 SPIN=   0.00000
   O   0.4943634  -0.1556790   0.4010851 SPIN=   0.00000
   O  -0.1208229  -0.3239928   0.2835243 SPIN=   0.00000
   O   0.1339536  -0.4206721   0.5346260 SPIN=   0.00000
   O   0.3175860  -0.5110167   0.2171558 SPIN=   0.00000
   S   0.2062700  -0.3528402   0.3590978 SPIN=   0.00000
   F  -0.0696287   0.0953633   0.2432438 SPIN=   0.00000
   F  -0.1649921  -0.0953633  -0.2432438 SPIN=   0.00000
%ENDBLOCK POSITIONS_FRAC

# Note: total spin =   8.00

KPOINTS_MP_SPACING 0.07

%BLOCK SPECIES_POT
QC5
%ENDBLOCK SPECIES_POT

SNAP_TO_SYMMETRY
SYMMETRY_GENERATE

