#              Generated by Buildcell
#
# at 04:10:13 (GMT+1.0) 4th August 2020
# in /lustre/scratch/uccabz1/launch_tmp
# on node-c12g-031
# by uccabz1
#
# compiler GCC version 4.9.2
# options -cpp -iprefix /lustre/shared/ucl/apps/gcc/4.9.2/bin/../lib/gcc/x86_64-unknown-linux-gnu/4.9.2/ -mtune=corei7 -march=x86-64 -g -Og
#
# seed  1852150243 -1686018423  1322454034  1336442816  -145378666 -2025501222  1966360147   -87521479  -290515754 -1286952632  1825163567  -664426520
#
#      Author: C. J. Pickard (cjp20@cam.ac.uk)
#                Space group: Pc
#

%BLOCK LATTICE_ABC
      4.11075      7.01791      7.16895
     90.00000     90.00000    104.75091
%ENDBLOCK LATTICE_ABC

%BLOCK POSITIONS_FRAC
  Li  -0.4254615  -0.0662316  -0.0836541 SPIN=   0.00000
  Li   0.0745385   0.4337684   0.0836541 SPIN=   0.00000
  Fe   0.4210783  -0.2160021   0.2978620 SPIN=   4.00000
  Fe  -0.0789217   0.2839979  -0.2978620 SPIN=   4.00000
   O  -0.4515666  -0.3659582  -0.3014688 SPIN=   0.00000
   O   0.0400060  -0.3574191  -0.5035960 SPIN=   0.00000
   O   0.1250272  -0.2447341  -0.1759209 SPIN=   0.00000
   O  -0.0906341  -0.0462099  -0.4080379 SPIN=   0.00000
   S  -0.0942919  -0.2535803  -0.3472559 SPIN=   0.00000
   O   0.0484334   0.1340418   0.3014688 SPIN=   0.00000
   O   0.5400060   0.1425809   0.5035960 SPIN=   0.00000
   O   0.6250272   0.2552659   0.1759209 SPIN=   0.00000
   O   0.4093659   0.4537901   0.4080379 SPIN=   0.00000
   S   0.4057081   0.2464197   0.3472559 SPIN=   0.00000
   F  -0.2442293  -0.2639871   0.1524781 SPIN=   0.00000
   F   0.2557707   0.2360129  -0.1524781 SPIN=   0.00000
%ENDBLOCK POSITIONS_FRAC

# Note: total spin =   8.00

KPOINTS_MP_SPACING 0.07

%BLOCK SPECIES_POT
QC5
%ENDBLOCK SPECIES_POT

SNAP_TO_SYMMETRY
SYMMETRY_GENERATE

