#              Generated by Buildcell
#
# at 21:43:36 (GMT+1.0) 18th August 2020
# in /lustre/scratch/uccabz1/launch_tmp
# on node-c12o-001
# by uccabz1
#
# compiler GCC version 4.9.2
# options -cpp -iprefix /lustre/shared/ucl/apps/gcc/4.9.2/bin/../lib/gcc/x86_64-unknown-linux-gnu/4.9.2/ -mtune=corei7 -march=x86-64 -g -Og
#
# seed -2066486871  1654699282 -1710790714  1134657333 -2081361767  -708399662  1984574930 -1331785085   745442494  1127602314    53760868  1784212450
#
#      Author: C. J. Pickard (cjp20@cam.ac.uk)
#                Space group: P-1
#

%BLOCK LATTICE_ABC
      5.65637      6.01966      6.88997
     73.62481     66.07808     71.32652
%ENDBLOCK LATTICE_ABC

%BLOCK POSITIONS_FRAC
  Li  -0.7928197   0.2061101   0.4458262 SPIN=   0.00000
  Li   0.7928197  -0.2061101  -0.4458262 SPIN=   0.00000
  Fe  -0.2622300   0.2910887   0.3251216 SPIN=   4.00000
  Fe   0.2622300  -0.2910887  -0.3251216 SPIN=   4.00000
   O  -0.2903028   0.4368293   0.0229656 SPIN=   0.00000
   O  -0.3462126   0.4833296  -0.3255622 SPIN=   0.00000
   O  -0.1067866   0.0968591  -0.1718022 SPIN=   0.00000
   O   0.0983695   0.4431323  -0.3158173 SPIN=   0.00000
   S  -0.1612331   0.3650376  -0.1975540 SPIN=   0.00000
   O   0.2903028  -0.4368293  -0.0229656 SPIN=   0.00000
   O   0.3462126  -0.4833296   0.3255622 SPIN=   0.00000
   O   0.1067866  -0.0968591   0.1718022 SPIN=   0.00000
   O  -0.0983695  -0.4431323   0.3158173 SPIN=   0.00000
   S   0.1612331  -0.3650376   0.1975540 SPIN=   0.00000
   F  -0.4831484  -0.0188463   0.2496104 SPIN=   0.00000
   F   0.4831484   0.0188463  -0.2496104 SPIN=   0.00000
%ENDBLOCK POSITIONS_FRAC

# Note: total spin =   8.00

KPOINTS_MP_SPACING 0.07

%BLOCK SPECIES_POT
QC5
%ENDBLOCK SPECIES_POT

SNAP_TO_SYMMETRY
SYMMETRY_GENERATE

