#              Generated by Buildcell
#
# at 05:27:49 (GMT+1.0) 4th August 2020
# in /lustre/scratch/uccabz1/launch_tmp
# on node-c12h-013
# by uccabz1
#
# compiler GCC version 4.9.2
# options -cpp -iprefix /lustre/shared/ucl/apps/gcc/4.9.2/bin/../lib/gcc/x86_64-unknown-linux-gnu/4.9.2/ -mtune=corei7 -march=x86-64 -g -Og
#
# seed -1734961621 -1796788244  -237678647  -175253030  1662167483   715985977   505943493  -408675869 -1468113361 -1843280162   455186973 -1939242268
#
#      Author: C. J. Pickard (cjp20@cam.ac.uk)
#                Space group: Pmc21
#

%BLOCK LATTICE_ABC
      4.60487      5.68678      7.63741
     90.00000     90.00000     90.00000
%ENDBLOCK LATTICE_ABC

%BLOCK POSITIONS_FRAC
  Li  -0.5000000   0.0067982   0.0551796 SPIN=   0.00000
  Li  -0.5000000  -0.0067982  -0.4448204 SPIN=   0.00000
  Fe   0.0000000   0.0267348  -0.1934954 SPIN=   4.00000
  Fe   0.0000000  -0.0267348   0.3065046 SPIN=   4.00000
   O   0.2475494   0.3119729   0.3901428 SPIN=   0.00000
   O   0.2524506   0.3017389   0.0661996 SPIN=   0.00000
   O  -0.2475494  -0.3119729  -0.1098572 SPIN=   0.00000
   O  -0.2524506  -0.3017389  -0.4338004 SPIN=   0.00000
   O   0.2475494  -0.3119729  -0.1098572 SPIN=   0.00000
   O   0.2524506  -0.3017389  -0.4338004 SPIN=   0.00000
   O  -0.2475494   0.3119729   0.3901428 SPIN=   0.00000
   O  -0.2524506   0.3017389   0.0661996 SPIN=   0.00000
   S   0.0000000   0.4729476   0.0845508 SPIN=   0.00000
   S   0.0000000  -0.4729476  -0.4154492 SPIN=   0.00000
   F  -0.5000000  -0.1352589   0.2950849 SPIN=   0.00000
   F  -0.5000000   0.1352589  -0.2049151 SPIN=   0.00000
%ENDBLOCK POSITIONS_FRAC

# Note: total spin =   8.00

KPOINTS_MP_SPACING 0.07

%BLOCK SPECIES_POT
QC5
%ENDBLOCK SPECIES_POT

SNAP_TO_SYMMETRY
SYMMETRY_GENERATE

