#              Generated by Buildcell
#
# at 19:41:32 (GMT+1.0) 18th August 2020
# in /lustre/scratch/uccabz1/launch_tmp
# on node-c12l-001
# by uccabz1
#
# compiler GCC version 4.9.2
# options -cpp -iprefix /lustre/shared/ucl/apps/gcc/4.9.2/bin/../lib/gcc/x86_64-unknown-linux-gnu/4.9.2/ -mtune=corei7 -march=x86-64 -g -Og
#
# seed  1502688382 -2093496608 -1349911134  -420711704  1348511585 -1923863633  -572214803   122980963  1757017604  -583606421   858808346  -704861946
#
#      Author: C. J. Pickard (cjp20@cam.ac.uk)
#                Space group: P-1
#

%BLOCK LATTICE_ABC
      3.99650      3.99651     12.83899
     95.26391     98.00416     97.62232
%ENDBLOCK LATTICE_ABC

%BLOCK POSITIONS_FRAC
  Li  -0.2571399  -0.1189839   0.1901013 SPIN=   0.00000
  Li   0.2571399   0.1189839  -0.1901013 SPIN=   0.00000
  Fe  -0.7637184  -0.4343365  -0.3615849 SPIN=   4.00000
  Fe   0.7637184   0.4343365   0.3615849 SPIN=   4.00000
   O  -0.2834347  -0.0881262  -0.1701839 SPIN=   0.00000
   O  -0.2892805  -0.5379447  -0.0499121 SPIN=   0.00000
   O   0.2219105  -0.3804104  -0.1337696 SPIN=   0.00000
   S  -0.1649267  -0.4237511  -0.1490199 SPIN=   0.00000
   O   0.2834347   0.0881262   0.1701839 SPIN=   0.00000
   O   0.2892805   0.5379447   0.0499121 SPIN=   0.00000
   O  -0.2219105   0.3804104   0.1337696 SPIN=   0.00000
   S   0.1649267   0.4237511   0.1490199 SPIN=   0.00000
   O  -0.5000000  -0.5000000  -0.5000000 SPIN=   0.00000
   O   0.0000000   0.0000000   0.0000000 SPIN=   0.00000
   F  -0.8226583   0.0604786  -0.3499152 SPIN=   0.00000
   F   0.8226583  -0.0604786   0.3499152 SPIN=   0.00000
%ENDBLOCK POSITIONS_FRAC

# Note: total spin =   8.00

KPOINTS_MP_SPACING 0.07

%BLOCK SPECIES_POT
QC5
%ENDBLOCK SPECIES_POT

SNAP_TO_SYMMETRY
SYMMETRY_GENERATE

