#              Generated by Buildcell
#
# at 05:38:42 (GMT+1.0) 4th August 2020
# in /lustre/scratch/uccabz1/launch_tmp
# on node-c12g-031
# by uccabz1
#
# compiler GCC version 4.9.2
# options -cpp -iprefix /lustre/shared/ucl/apps/gcc/4.9.2/bin/../lib/gcc/x86_64-unknown-linux-gnu/4.9.2/ -mtune=corei7 -march=x86-64 -g -Og
#
# seed -1982872010  -979870471  1173501534   389363842  -440002040   995741085  -497395210   448482341 -1783164110   -19559017  -608436240 -1964696768
#
#      Author: C. J. Pickard (cjp20@cam.ac.uk)
#                Space group: P-1
#

%BLOCK LATTICE_ABC
      3.96829      4.61768     11.09124
     90.01271     90.06089    100.24282
%ENDBLOCK LATTICE_ABC

%BLOCK POSITIONS_FRAC
  Li  -0.2046829  -0.2811767   0.1177336 SPIN=   0.00000
  Li   0.2046829   0.2811767  -0.1177336 SPIN=   0.00000
  Fe  -0.3860286  -0.1563483  -0.2066605 SPIN=   4.00000
  Fe   0.3860286   0.1563483   0.2066605 SPIN=   4.00000
   O  -0.0016930  -0.5268962   0.3889583 SPIN=   0.00000
   O  -0.4751885  -0.3656880   0.2768006 SPIN=   0.00000
   O   0.0328691  -0.0014488   0.3366510 SPIN=   0.00000
   O  -0.3779499  -0.2307173   0.4916002 SPIN=   0.00000
   S  -0.2054906  -0.2811876   0.3735025 SPIN=   0.00000
   O   0.0016930   0.5268962  -0.3889583 SPIN=   0.00000
   O   0.4751885   0.3656880  -0.2768006 SPIN=   0.00000
   O  -0.0328691   0.0014488  -0.3366510 SPIN=   0.00000
   O   0.3779499   0.2307173  -0.4916002 SPIN=   0.00000
   S   0.2054906   0.2811876  -0.3735025 SPIN=   0.00000
   F   0.0842103  -0.2372131  -0.1368251 SPIN=   0.00000
   F  -0.0842103   0.2372131   0.1368251 SPIN=   0.00000
%ENDBLOCK POSITIONS_FRAC

# Note: total spin =   8.00

KPOINTS_MP_SPACING 0.07

%BLOCK SPECIES_POT
QC5
%ENDBLOCK SPECIES_POT

SNAP_TO_SYMMETRY
SYMMETRY_GENERATE

