#              Generated by Buildcell
#
# at 05:28:02 (GMT+1.0) 4th August 2020
# in /lustre/scratch/uccabz1/launch_tmp
# on node-c12c-020
# by uccabz1
#
# compiler GCC version 4.9.2
# options -cpp -iprefix /lustre/shared/ucl/apps/gcc/4.9.2/bin/../lib/gcc/x86_64-unknown-linux-gnu/4.9.2/ -mtune=corei7 -march=x86-64 -g -Og
#
# seed  -543195003  1328011520  -222930425  -748529960   970331008   834557397 -1595556942  -889140419  1441638515 -2025806911  1276850721   201725361
#
#      Author: C. J. Pickard (cjp20@cam.ac.uk)
#                Space group: P2
#

%BLOCK LATTICE_ABC
      4.08585      5.75677      8.75201
    103.70244     90.00000     90.00000
%ENDBLOCK LATTICE_ABC

%BLOCK POSITIONS_FRAC
  Li   0.3453842   0.0000000   0.5000000 SPIN=   0.00000
  Li  -0.1610348   0.5000000  -0.5000000 SPIN=   0.00000
  Fe  -0.1161118  -0.3097031  -0.1617488 SPIN=   4.00000
  Fe  -0.1161118   0.3097031   0.1617488 SPIN=   4.00000
   O   0.4328209  -0.2340658  -0.0128627 SPIN=   0.00000
   O   0.5091351  -0.3924669   0.2240810 SPIN=   0.00000
   O  -0.0060335  -0.1863856   0.1870756 SPIN=   0.00000
   O   0.5080754   0.0444643   0.2474393 SPIN=   0.00000
   S   0.3609995  -0.1921135   0.1614333 SPIN=   0.00000
   O   0.4328209   0.2340658   0.0128627 SPIN=   0.00000
   O   0.5091351   0.3924669  -0.2240810 SPIN=   0.00000
   O  -0.0060335   0.1863856  -0.1870756 SPIN=   0.00000
   O   0.5080754  -0.0444643  -0.2474393 SPIN=   0.00000
   S   0.3609995   0.1921135  -0.1614333 SPIN=   0.00000
   F   0.3453925   0.5000000  -0.5000000 SPIN=   0.00000
   F  -0.1492355   0.0000000  -0.5000000 SPIN=   0.00000
%ENDBLOCK POSITIONS_FRAC

# Note: total spin =   8.00

KPOINTS_MP_SPACING 0.07

%BLOCK SPECIES_POT
QC5
%ENDBLOCK SPECIES_POT

SNAP_TO_SYMMETRY
SYMMETRY_GENERATE

