#              Generated by Buildcell
#
# at 05:07:45 (GMT+1.0) 4th August 2020
# in /lustre/scratch/uccabz1/launch_tmp
# on node-c12f-036
# by uccabz1
#
# compiler GCC version 4.9.2
# options -cpp -iprefix /lustre/shared/ucl/apps/gcc/4.9.2/bin/../lib/gcc/x86_64-unknown-linux-gnu/4.9.2/ -mtune=corei7 -march=x86-64 -g -Og
#
# seed -1262892360  1376807276 -1602463925   265578772 -1432382141  -902766043 -1249420450   861552688   716401138  1057624784   195925470   -33611120
#
#      Author: C. J. Pickard (cjp20@cam.ac.uk)
#                Space group: P2
#

%BLOCK LATTICE_ABC
      4.54343      6.05729      7.38424
    100.21462     90.00000     90.00000
%ENDBLOCK LATTICE_ABC

%BLOCK POSITIONS_FRAC
  Li  -0.3306702   0.0542005   0.2506396 SPIN=   0.00000
  Li  -0.3306702  -0.0542005  -0.2506396 SPIN=   0.00000
  Fe  -0.3454331  -0.5000000   0.5000000 SPIN=   6.52202
  Fe   0.1678573  -0.0000000   0.5000000 SPIN=   1.47798
   O   0.3308571   0.4993401   0.2363277 SPIN=   0.00000
   O  -0.1574217   0.3253571   0.1626211 SPIN=   0.00000
   O   0.2480919   0.1027067   0.2635263 SPIN=   0.00000
   S   0.1718509   0.2847690   0.1546579 SPIN=   0.00000
   O   0.3308571  -0.4993401  -0.2363277 SPIN=   0.00000
   O  -0.1574217  -0.3253571  -0.1626211 SPIN=   0.00000
   O   0.2480919  -0.1027067  -0.2635263 SPIN=   0.00000
   S   0.1718509  -0.2847690  -0.1546579 SPIN=   0.00000
   O   0.4977365   0.0000000  -0.0000000 SPIN=   0.00000
   O   0.0009705  -0.0000000   0.0000000 SPIN=   0.00000
   F  -0.2032684  -0.2254697   0.2560646 SPIN=   0.00000
   F  -0.2032684   0.2254697  -0.2560646 SPIN=   0.00000
%ENDBLOCK POSITIONS_FRAC

# Note: total spin =   8.00

KPOINTS_MP_SPACING 0.07

%BLOCK SPECIES_POT
QC5
%ENDBLOCK SPECIES_POT

SNAP_TO_SYMMETRY
SYMMETRY_GENERATE

