#              Generated by Buildcell
#
# at 23:03:41 (GMT+1.0) 18th August 2020
# in /lustre/scratch/uccabz1/launch_tmp
# on node-c12l-030
# by uccabz1
#
# compiler GCC version 4.9.2
# options -cpp -iprefix /lustre/shared/ucl/apps/gcc/4.9.2/bin/../lib/gcc/x86_64-unknown-linux-gnu/4.9.2/ -mtune=corei7 -march=x86-64 -g -Og
#
# seed  1641363648 -1968762932  1855423263 -1322416334  1684328927 -1944226589  -294533694   138205114  -686481488  1991230889  -220103942  -155753676
#
#      Author: C. J. Pickard (cjp20@cam.ac.uk)
#                Space group: C2
#

%BLOCK LATTICE_ABC
      4.85670      6.48557      7.17594
     63.13454     86.70676     82.69665
%ENDBLOCK LATTICE_ABC

%BLOCK POSITIONS_FRAC
  Li   0.2177421  -0.0006999   0.4486820 SPIN=   0.00000
  Li  -0.2177421  -0.4479821   0.4486820 SPIN=   0.00000
  Fe   0.2044424   0.3023704  -0.1437433 SPIN=   4.00000
  Fe  -0.2044424  -0.1586271  -0.1437433 SPIN=   4.00000
   O  -0.2239007   0.0251340   0.4805036 SPIN=   0.00000
   O  -0.5732999   0.2314548   0.1989652 SPIN=   0.00000
   O  -0.2539563  -0.1007231   0.2047939 SPIN=   0.00000
   O  -0.0747525   0.2723711   0.1197757 SPIN=   0.00000
   S  -0.2814774   0.1070592   0.2510096 SPIN=   0.00000
   O   0.2239007  -0.5056376   0.4805036 SPIN=   0.00000
   O   0.5732999  -0.4304201   0.1989652 SPIN=   0.00000
   O   0.2539563  -0.1040708   0.2047939 SPIN=   0.00000
   O   0.0747525  -0.3921468   0.1197757 SPIN=   0.00000
   S   0.2814774  -0.3580688   0.2510096 SPIN=   0.00000
   F  -0.2884595   0.3643911  -0.2732189 SPIN=   0.00000
   F   0.2884595  -0.0911722  -0.2732189 SPIN=   0.00000
%ENDBLOCK POSITIONS_FRAC

# Note: total spin =   8.00

KPOINTS_MP_SPACING 0.07

%BLOCK SPECIES_POT
QC5
%ENDBLOCK SPECIES_POT

SNAP_TO_SYMMETRY
SYMMETRY_GENERATE

