#              Generated by Buildcell
#
# at 03:09:37 (GMT+1.0) 4th August 2020
# in /lustre/scratch/uccabz1/launch_tmp
# on node-c12g-029
# by uccabz1
#
# compiler GCC version 4.9.2
# options -cpp -iprefix /lustre/shared/ucl/apps/gcc/4.9.2/bin/../lib/gcc/x86_64-unknown-linux-gnu/4.9.2/ -mtune=corei7 -march=x86-64 -g -Og
#
# seed -2034551024 -1600837057  -561474444  1602505311 -1751142015  1879327905    36525741 -1044299296  -230827386 -1554970192 -1347285103   604067924
#
#      Author: C. J. Pickard (cjp20@cam.ac.uk)
#                Space group: Pm
#

%BLOCK LATTICE_ABC
      3.84614      6.61320      7.90110
     90.00000     90.00000     95.62175
%ENDBLOCK LATTICE_ABC

%BLOCK POSITIONS_FRAC
  Li  -0.0557681   0.1711474   0.5000000 SPIN=   0.00000
  Li   0.1345646   0.1358500   0.0000000 SPIN=   0.00000
  Fe  -0.4270641   0.3823333   0.2410674 SPIN=   4.00000
  Fe  -0.4270641   0.3823333  -0.2410674 SPIN=   4.00000
   O  -0.2087297  -0.0725286   0.3607441 SPIN=   0.00000
   O   0.2384647  -0.1021102   0.1392559 SPIN=   0.00000
   O  -0.3038584  -0.3367794   0.1392559 SPIN=   0.00000
   O   0.1433360  -0.3663609   0.3607442 SPIN=   0.00000
   O  -0.2087297  -0.0725286  -0.3607441 SPIN=   0.00000
   O   0.2384647  -0.1021102  -0.1392559 SPIN=   0.00000
   O  -0.3038584  -0.3367794  -0.1392559 SPIN=   0.00000
   O   0.1433360  -0.3663609  -0.3607442 SPIN=   0.00000
   S   0.0447982  -0.2308556  -0.5000000 SPIN=   0.00000
   S   0.2340721  -0.2663768   0.0000000 SPIN=   0.00000
   F   0.4654560   0.2925794   0.5000000 SPIN=   0.00000
   F  -0.3446249   0.2569568   0.0000000 SPIN=   0.00000
%ENDBLOCK POSITIONS_FRAC

# Note: total spin =   8.00

KPOINTS_MP_SPACING 0.07

%BLOCK SPECIES_POT
QC5
%ENDBLOCK SPECIES_POT

SNAP_TO_SYMMETRY
SYMMETRY_GENERATE

