#              Generated by Buildcell
#
# at 22:13:10 (GMT+1.0) 18th August 2020
# in /lustre/scratch/uccabz1/launch_tmp
# on node-c12a-016
# by uccabz1
#
# compiler GCC version 4.9.2
# options -cpp -iprefix /lustre/shared/ucl/apps/gcc/4.9.2/bin/../lib/gcc/x86_64-unknown-linux-gnu/4.9.2/ -mtune=corei7 -march=x86-64 -g -Og
#
# seed -1265589764 -1873510437   794047215  1336836605   775043436  -522820603  -807880623    49926480 -1829993548  -893061155   589773321  1429145326
#
#      Author: C. J. Pickard (cjp20@cam.ac.uk)
#                Space group: P2
#

%BLOCK LATTICE_ABC
      4.10975      6.85026      7.73942
    113.37782     90.00000     90.00000
%ENDBLOCK LATTICE_ABC

%BLOCK POSITIONS_FRAC
  Li  -0.3571175   0.2807226  -0.4329665 SPIN=   0.00000
  Li  -0.3571175  -0.2807226   0.4329665 SPIN=   0.00000
  Fe   0.1360857   0.1031293  -0.2391621 SPIN=   4.00000
  Fe   0.1360857  -0.1031293   0.2391621 SPIN=   4.00000
   O   0.2041604   0.3187086   0.3906643 SPIN=   0.00000
   O   0.1457516   0.5839120   0.2495644 SPIN=   0.00000
   O  -0.3014690   0.3311975   0.2216645 SPIN=   0.00000
   O   0.2103775   0.2025529   0.0443549 SPIN=   0.00000
   S   0.0647051   0.3590928   0.2265620 SPIN=   0.00000
   O   0.2041604  -0.3187086  -0.3906643 SPIN=   0.00000
   O   0.1457516  -0.5839120  -0.2495644 SPIN=   0.00000
   O  -0.3014690  -0.3311975  -0.2216645 SPIN=   0.00000
   O   0.2103775  -0.2025529  -0.0443549 SPIN=   0.00000
   S   0.0647051  -0.3590928  -0.2265620 SPIN=   0.00000
   F  -0.3639882   0.2109567  -0.1973927 SPIN=   0.00000
   F  -0.3639882  -0.2109567   0.1973927 SPIN=   0.00000
%ENDBLOCK POSITIONS_FRAC

# Note: total spin =   8.00

KPOINTS_MP_SPACING 0.07

%BLOCK SPECIES_POT
QC5
%ENDBLOCK SPECIES_POT

SNAP_TO_SYMMETRY
SYMMETRY_GENERATE

