#              Generated by Buildcell
#
# at 05:45:44 (GMT+1.0) 4th August 2020
# in /lustre/scratch/uccabz1/launch_tmp
# on node-c12f-016
# by uccabz1
#
# compiler GCC version 4.9.2
# options -cpp -iprefix /lustre/shared/ucl/apps/gcc/4.9.2/bin/../lib/gcc/x86_64-unknown-linux-gnu/4.9.2/ -mtune=corei7 -march=x86-64 -g -Og
#
# seed -2016470584   106389521  1985718549 -1432623406 -1434395964   747113865  -443645909 -1959453684  -321303142   265320473  2112689433  1670960911
#
#      Author: C. J. Pickard (cjp20@cam.ac.uk)
#                Space group: P42
#

%BLOCK LATTICE_ABC
      4.46488      4.46488     10.03251
     90.00000     90.00000     90.00000
%ENDBLOCK LATTICE_ABC

%BLOCK POSITIONS_FRAC
  Li   0.0000000  -0.5000000   0.2131371 SPIN=   0.00000
  Li  -0.5000000   0.0000000  -0.2868629 SPIN=   0.00000
  Fe   0.0000000  -0.5000000  -0.1027015 SPIN=   4.00000
  Fe   0.5000000  -0.0000000   0.3972985 SPIN=   4.00000
   O   0.0407296   0.2495458  -0.3226550 SPIN=   0.00000
   O   0.2451460   0.0811825  -0.1059452 SPIN=   0.00000
   O  -0.0407296  -0.2495458  -0.3226550 SPIN=   0.00000
   O  -0.2451460  -0.0811825  -0.1059452 SPIN=   0.00000
   O  -0.2495458   0.0407296   0.1773450 SPIN=   0.00000
   O  -0.0811825   0.2451460   0.3940548 SPIN=   0.00000
   O   0.2495458  -0.0407296   0.1773450 SPIN=   0.00000
   O   0.0811825  -0.2451460   0.3940548 SPIN=   0.00000
   S  -0.5000000  -0.0000000   0.0196886 SPIN=   0.00000
   S   0.0000000  -0.5000000  -0.4803114 SPIN=   0.00000
   F  -0.5000000  -0.5000000   0.2697593 SPIN=   0.00000
   F  -0.5000000  -0.5000000  -0.2302407 SPIN=   0.00000
%ENDBLOCK POSITIONS_FRAC

# Note: total spin =   8.00

KPOINTS_MP_SPACING 0.07

%BLOCK SPECIES_POT
QC5
%ENDBLOCK SPECIES_POT

SNAP_TO_SYMMETRY
SYMMETRY_GENERATE

