#              Generated by Buildcell
#
# at 01:02:38 (GMT+1.0) 19th August 2020
# in /lustre/scratch/uccabz1/launch_tmp
# on node-c12p-007
# by uccabz1
#
# compiler GCC version 4.9.2
# options -cpp -iprefix /lustre/shared/ucl/apps/gcc/4.9.2/bin/../lib/gcc/x86_64-unknown-linux-gnu/4.9.2/ -mtune=corei7 -march=x86-64 -g -Og
#
# seed -2023664503  -603234931  1415052418  1311084729  1742132974 -1665124961 -1904234348  1892918366 -1130990065  -837316322 -1990243045 -1215084585
#
#      Author: C. J. Pickard (cjp20@cam.ac.uk)
#                Space group: P21/m
#

%BLOCK LATTICE_ABC
      3.85293      6.66359      7.82819
     90.00000     90.00000     95.67117
%ENDBLOCK LATTICE_ABC

%BLOCK POSITIONS_FRAC
  Li   0.0000000   0.0000000  -0.0000000 SPIN=   0.00000
  Li  -0.0000000   0.0000000  -0.5000000 SPIN=   0.00000
  Fe   0.5000000   0.5000000  -0.0000000 SPIN=   4.00000
  Fe  -0.5000000  -0.5000000  -0.5000000 SPIN=   4.00000
   O  -0.1162636  -0.2627798  -0.4006415 SPIN=   0.00000
   O  -0.6156758  -0.1537052  -0.5631201 SPIN=   0.00000
   O   0.1162636   0.2627798   0.0993585 SPIN=   0.00000
   O   0.6156758   0.1537052  -0.0631201 SPIN=   0.00000
   O   0.1162636   0.2627798   0.4006415 SPIN=   0.00000
   O   0.6156758   0.1537052   0.5631201 SPIN=   0.00000
   O  -0.1162636  -0.2627798  -0.0993585 SPIN=   0.00000
   O  -0.6156758  -0.1537052   0.0631201 SPIN=   0.00000
   S   0.4691608   0.0756559   0.2500000 SPIN=   0.00000
   S  -0.4691608  -0.0756559  -0.2500000 SPIN=   0.00000
   F  -0.1593440  -0.3930161   0.2500000 SPIN=   0.00000
   F   0.1593440   0.3930161  -0.2500000 SPIN=   0.00000
%ENDBLOCK POSITIONS_FRAC

# Note: total spin =   8.00

KPOINTS_MP_SPACING 0.07

%BLOCK SPECIES_POT
QC5
%ENDBLOCK SPECIES_POT

SNAP_TO_SYMMETRY
SYMMETRY_GENERATE

