#              Generated by Buildcell
#
# at 01:50:03 (GMT+1.0) 4th August 2020
# in /lustre/scratch/uccabz1/launch_tmp
# on node-c12k-029
# by uccabz1
#
# compiler GCC version 4.9.2
# options -cpp -iprefix /lustre/shared/ucl/apps/gcc/4.9.2/bin/../lib/gcc/x86_64-unknown-linux-gnu/4.9.2/ -mtune=corei7 -march=x86-64 -g -Og
#
# seed -2043062684   429675776  -837830879  1267719470 -1856838140  -314292897  -271469909 -1682548380  2012064685 -1314904276   139289799   717523782
#
#      Author: C. J. Pickard (cjp20@cam.ac.uk)
#                Space group: P-1
#

%BLOCK LATTICE_ABC
      4.05400      6.04345      8.16984
     92.13667     90.86782     90.00006
%ENDBLOCK LATTICE_ABC

%BLOCK POSITIONS_FRAC
  Li  -0.2500334  -0.2500554   0.4989268 SPIN=   0.00000
  Li   0.2500334   0.2500554  -0.4989268 SPIN=   0.00000
  Fe   0.0229518  -0.2287286  -0.1546808 SPIN=   4.00000
  Fe  -0.0229518   0.2287286   0.1546808 SPIN=   4.00000
   O   0.3004053  -0.0880234   0.2649211 SPIN=   0.00000
   O   0.3076767  -0.4837185   0.1753648 SPIN=   0.00000
   O   0.8288107  -0.2928595   0.2555792 SPIN=   0.00000
   O   0.5397243  -0.2014247  -0.0021669 SPIN=   0.00000
   S   0.4941542  -0.2665065   0.1734245 SPIN=   0.00000
   O  -0.3004053   0.0880234  -0.2649211 SPIN=   0.00000
   O  -0.3076767   0.4837185  -0.1753648 SPIN=   0.00000
   O  -0.8288107   0.2928595  -0.2555792 SPIN=   0.00000
   O  -0.5397243   0.2014247   0.0021669 SPIN=   0.00000
   S  -0.4941542   0.2665065  -0.1734245 SPIN=   0.00000
   F   0.2533321  -0.2444643  -0.3904277 SPIN=   0.00000
   F  -0.2533321   0.2444643   0.3904277 SPIN=   0.00000
%ENDBLOCK POSITIONS_FRAC

# Note: total spin =   8.00

KPOINTS_MP_SPACING 0.07

%BLOCK SPECIES_POT
QC5
%ENDBLOCK SPECIES_POT

SNAP_TO_SYMMETRY
SYMMETRY_GENERATE

