#              Generated by Buildcell
#
# at 02:50:14 (GMT+1.0) 19th August 2020
# in /lustre/scratch/uccabz1/launch_tmp
# on node-c12j-002
# by uccabz1
#
# compiler GCC version 4.9.2
# options -cpp -iprefix /lustre/shared/ucl/apps/gcc/4.9.2/bin/../lib/gcc/x86_64-unknown-linux-gnu/4.9.2/ -mtune=corei7 -march=x86-64 -g -Og
#
# seed  -686211440  1679391786  1522100745 -1210058023  1385719170 -1075047176  1899537719  1347456150 -2049314134  1567913167   129947613   573393863
#
#      Author: C. J. Pickard (cjp20@cam.ac.uk)
#                Space group: Pc
#

%BLOCK LATTICE_ABC
      5.19742      5.90902      6.53179
     90.00000     90.00000     94.44111
%ENDBLOCK LATTICE_ABC

%BLOCK POSITIONS_FRAC
  Li   0.2257012   0.2402852  -0.2901335 SPIN=   0.00000
  Li  -0.2742988  -0.2597148   0.2901335 SPIN=   0.00000
  Fe   0.3294901   0.0635391   0.3037654 SPIN=   4.00000
  Fe  -0.1705099  -0.4364609  -0.3037654 SPIN=   4.00000
   O   0.4350693  -0.4708105   0.1922312 SPIN=   0.00000
   O  -0.0194969  -0.4941784   0.3082932 SPIN=   0.00000
   O   0.0865943  -0.6177699  -0.0416692 SPIN=   0.00000
   O   0.1318466  -0.2097487   0.0481965 SPIN=   0.00000
   S   0.1585033  -0.4481269   0.1267629 SPIN=   0.00000
   O  -0.0649307   0.0291895  -0.1922312 SPIN=   0.00000
   O  -0.5194969   0.0058216  -0.3082932 SPIN=   0.00000
   O  -0.4134057  -0.1177699   0.0416692 SPIN=   0.00000
   O  -0.3681534   0.2902513  -0.0481965 SPIN=   0.00000
   S  -0.3414967   0.0518731  -0.1267629 SPIN=   0.00000
   F   0.4204916  -0.4682562  -0.3730844 SPIN=   0.00000
   F  -0.0795084   0.0317438   0.3730844 SPIN=   0.00000
%ENDBLOCK POSITIONS_FRAC

# Note: total spin =   8.00

KPOINTS_MP_SPACING 0.07

%BLOCK SPECIES_POT
QC5
%ENDBLOCK SPECIES_POT

SNAP_TO_SYMMETRY
SYMMETRY_GENERATE

