#              Generated by Buildcell
#
# at 23:46:35 (GMT+1.0) 18th August 2020
# in /lustre/scratch/uccabz1/launch_tmp
# on node-c12l-016
# by uccabz1
#
# compiler GCC version 4.9.2
# options -cpp -iprefix /lustre/shared/ucl/apps/gcc/4.9.2/bin/../lib/gcc/x86_64-unknown-linux-gnu/4.9.2/ -mtune=corei7 -march=x86-64 -g -Og
#
# seed  -206643529  -601520801 -1662818843  1716558839  -157944918   -11552605  1755070048 -1336496779  -254450794   -68239052  -514216057  -532459423
#
#      Author: C. J. Pickard (cjp20@cam.ac.uk)
#                Space group: Pm
#

%BLOCK LATTICE_ABC
      4.01794      4.85666     10.32404
     90.00000     90.00000     96.90410
%ENDBLOCK LATTICE_ABC

%BLOCK POSITIONS_FRAC
  Li  -0.4802505  -0.0091305   0.5000000 SPIN=   0.00000
  Li   0.0754306   0.4374457   0.0000000 SPIN=   0.00000
  Fe  -0.3582505  -0.1056335  -0.0000000 SPIN=   0.54177
  Fe  -0.0465858  -0.4660494  -0.5000000 SPIN=   7.45823
   O   0.6812752   0.6602081  -0.1689817 SPIN=   0.00000
   O   0.3886763   0.6172819  -0.3802709 SPIN=   0.00000
   O   0.1120395   0.4035250  -0.1843997 SPIN=   0.00000
   O   0.5954095   0.2064375  -0.2807712 SPIN=   0.00000
   S   0.4443501   0.4718631  -0.2536059 SPIN=   0.00000
   O   0.6812752   0.6602081   0.1689817 SPIN=   0.00000
   O   0.3886763   0.6172819   0.3802709 SPIN=   0.00000
   O   0.1120395   0.4035250   0.1843997 SPIN=   0.00000
   O   0.5954095   0.2064375   0.2807712 SPIN=   0.00000
   S   0.4443501   0.4718631   0.2536059 SPIN=   0.00000
   F  -0.0128710   0.0467870   0.5000000 SPIN=   0.00000
   F   0.1598858  -0.0334257   0.0000000 SPIN=   0.00000
%ENDBLOCK POSITIONS_FRAC

# Note: total spin =   8.00

KPOINTS_MP_SPACING 0.07

%BLOCK SPECIES_POT
QC5
%ENDBLOCK SPECIES_POT

SNAP_TO_SYMMETRY
SYMMETRY_GENERATE

