#              Generated by Buildcell
#
# at 23:21:09 (GMT+1.0) 18th August 2020
# in /lustre/scratch/uccabz1/launch_tmp
# on node-c12o-016
# by uccabz1
#
# compiler GCC version 4.9.2
# options -cpp -iprefix /lustre/shared/ucl/apps/gcc/4.9.2/bin/../lib/gcc/x86_64-unknown-linux-gnu/4.9.2/ -mtune=corei7 -march=x86-64 -g -Og
#
# seed  1153677223 -1566436193  1452697191 -1592479003  1158108686   702847365   664970055  -238581764  1232244659 -1417210982  1898674556  -115360241
#
#      Author: C. J. Pickard (cjp20@cam.ac.uk)
#                Space group: Pm
#

%BLOCK LATTICE_ABC
      3.92816      6.40637      7.96705
     90.00000     90.00000     94.01708
%ENDBLOCK LATTICE_ABC

%BLOCK POSITIONS_FRAC
  Li  -0.2443469   0.1204922  -0.5000000 SPIN=   0.00000
  Li   0.4958851  -0.3996075   0.0000000 SPIN=   0.00000
  Fe   0.2186821  -0.1023800   0.2599139 SPIN=   4.00000
  Fe   0.2186821  -0.1023800  -0.2599139 SPIN=   4.00000
   O   0.3226604   0.5600440  -0.3522573 SPIN=   0.00000
   O  -0.1469853   0.4951889  -0.1476868 SPIN=   0.00000
   O   0.3407396   0.2706934  -0.1473393 SPIN=   0.00000
   S   0.1098705   0.3929193  -0.2568924 SPIN=   0.00000
   O   0.3226604   0.5600440   0.3522573 SPIN=   0.00000
   O  -0.1469853   0.4951889   0.1476868 SPIN=   0.00000
   O   0.3407396   0.2706934   0.1473393 SPIN=   0.00000
   S   0.1098705   0.3929193   0.2568924 SPIN=   0.00000
   O   0.1226185  -0.2077810   0.0000000 SPIN=   0.00000
   O  -0.1543386   0.1334965   0.0000000 SPIN=   0.00000
   F  -0.3100740  -0.1246100  -0.2389002 SPIN=   0.00000
   F  -0.3100740  -0.1246100   0.2389002 SPIN=   0.00000
%ENDBLOCK POSITIONS_FRAC

# Note: total spin =   8.00

KPOINTS_MP_SPACING 0.07

%BLOCK SPECIES_POT
QC5
%ENDBLOCK SPECIES_POT

SNAP_TO_SYMMETRY
SYMMETRY_GENERATE

