#              Generated by Buildcell
#
# at 22:56:43 (GMT+1.0) 18th August 2020
# in /lustre/scratch/uccabz1/launch_tmp
# on node-c12f-017
# by uccabz1
#
# compiler GCC version 4.9.2
# options -cpp -iprefix /lustre/shared/ucl/apps/gcc/4.9.2/bin/../lib/gcc/x86_64-unknown-linux-gnu/4.9.2/ -mtune=corei7 -march=x86-64 -g -Og
#
# seed -1296058374  -659506788 -1066806466 -1051731021 -1139217696 -1528309956   400174786   439054634  1673964840   431490413   759536762  2027232860
#
#      Author: C. J. Pickard (cjp20@cam.ac.uk)
#                Space group: C2
#

%BLOCK LATTICE_ABC
      5.85527      5.85527      7.04928
    105.09886    114.46899    100.82045
%ENDBLOCK LATTICE_ABC

%BLOCK POSITIONS_FRAC
  Li  -0.0040029   0.2662373   0.2577061 SPIN=   0.00000
  Li   0.0085312  -0.2617090  -0.2577061 SPIN=   0.00000
  Fe  -0.0894351  -0.2181203   0.3140216 SPIN=   4.00000
  Fe  -0.5321419  -0.4034567  -0.3140216 SPIN=   4.00000
   O   0.3985665  -0.1363900  -0.0869785 SPIN=   0.00000
   O   0.6758977  -0.0018259   0.3254323 SPIN=   0.00000
   O   0.2317471   0.0463513   0.1661668 SPIN=   0.00000
   O   0.6023988   0.3160145   0.1552039 SPIN=   0.00000
   S   0.4771525   0.0560375   0.1399561 SPIN=   0.00000
   O  -0.0494115   0.4855450   0.0869785 SPIN=   0.00000
   O  -0.3272582   0.3504654  -0.3254323 SPIN=   0.00000
   O  -0.1198154   0.0655803  -0.1661668 SPIN=   0.00000
   O   0.1608107   0.4471950  -0.1552039 SPIN=   0.00000
   S  -0.0839186   0.3371964  -0.1399561 SPIN=   0.00000
   F   0.5458128  -0.3383591   0.4764404 SPIN=   0.00000
   F  -0.8147995   0.0693724  -0.4764404 SPIN=   0.00000
%ENDBLOCK POSITIONS_FRAC

# Note: total spin =   8.00

KPOINTS_MP_SPACING 0.07

%BLOCK SPECIES_POT
QC5
%ENDBLOCK SPECIES_POT

SNAP_TO_SYMMETRY
SYMMETRY_GENERATE

