#              Generated by Buildcell
#
# at 03:26:32 (GMT+1.0) 4th August 2020
# in /lustre/scratch/uccabz1/launch_tmp
# on node-c12c-005
# by uccabz1
#
# compiler GCC version 4.9.2
# options -cpp -iprefix /lustre/shared/ucl/apps/gcc/4.9.2/bin/../lib/gcc/x86_64-unknown-linux-gnu/4.9.2/ -mtune=corei7 -march=x86-64 -g -Og
#
# seed -1272069486 -1785577685 -1978631202  1647530063 -1072530041   283282066  -273111438   260715153  -418590099  1047690675  -549818448  -142398912
#
#      Author: C. J. Pickard (cjp20@cam.ac.uk)
#                Space group: Pc
#

%BLOCK LATTICE_ABC
      4.06689      6.57914      7.47516
     90.00000     90.57536     90.00000
%ENDBLOCK LATTICE_ABC

%BLOCK POSITIONS_FRAC
  Li  -0.3405248  -0.2500707   0.3672910 SPIN=   0.00000
  Li   0.1594752   0.2500707   0.3672910 SPIN=   0.00000
  Fe  -0.3624344   0.2293917   0.0685768 SPIN=   4.00000
  Fe   0.1375656  -0.2293917   0.0685768 SPIN=   4.00000
   O   0.3676483   0.3654380  -0.1541170 SPIN=   0.00000
   O  -0.0892804   0.3987879  -0.3733150 SPIN=   0.00000
   O  -0.0843669   0.1135666  -0.1574433 SPIN=   0.00000
   O   0.3162545   0.1208706  -0.4043948 SPIN=   0.00000
   S   0.1275639   0.2496658  -0.2723175 SPIN=   0.00000
   O  -0.1323517  -0.3654380  -0.1541170 SPIN=   0.00000
   O  -0.5892804  -0.3987879  -0.3733150 SPIN=   0.00000
   O  -0.5843669  -0.1135666  -0.1574433 SPIN=   0.00000
   O  -0.1837455  -0.1208706  -0.4043948 SPIN=   0.00000
   S  -0.3724361  -0.2496658  -0.2723175 SPIN=   0.00000
   F   0.1886932  -0.2345699   0.3283708 SPIN=   0.00000
   F  -0.3113068   0.2345699   0.3283708 SPIN=   0.00000
%ENDBLOCK POSITIONS_FRAC

# Note: total spin =   8.00

KPOINTS_MP_SPACING 0.07

%BLOCK SPECIES_POT
QC5
%ENDBLOCK SPECIES_POT

SNAP_TO_SYMMETRY
SYMMETRY_GENERATE

