#              Generated by Buildcell
#
# at 21:46:58 (GMT+1.0) 18th August 2020
# in /lustre/scratch/uccabz1/launch_tmp
# on node-c12o-016
# by uccabz1
#
# compiler GCC version 4.9.2
# options -cpp -iprefix /lustre/shared/ucl/apps/gcc/4.9.2/bin/../lib/gcc/x86_64-unknown-linux-gnu/4.9.2/ -mtune=corei7 -march=x86-64 -g -Og
#
# seed -1818983504  -976922925   434415904   387288905   199618205  2141963010  1133353597    98316896 -1463005316 -1309508760   -75832702  -493005262
#
#      Author: C. J. Pickard (cjp20@cam.ac.uk)
#                Space group: P21
#

%BLOCK LATTICE_ABC
      4.03517      4.24470     12.76002
     90.00000     90.00000    113.77987
%ENDBLOCK LATTICE_ABC

%BLOCK POSITIONS_FRAC
  Li   0.4418645  -0.1939848   0.1114584 SPIN=   0.00000
  Li  -0.4418645   0.1939848  -0.3885416 SPIN=   0.00000
  Fe   0.4483298   0.1518972  -0.0871354 SPIN=   4.00000
  Fe  -0.4483298  -0.1518972   0.4128646 SPIN=   4.00000
   O  -0.1356843  -0.5400615  -0.2582172 SPIN=   0.00000
   O  -0.5597483  -0.2884548  -0.3180289 SPIN=   0.00000
   O   0.0999995   0.0670530  -0.3166523 SPIN=   0.00000
   O  -0.2359581  -0.1037897  -0.1494077 SPIN=   0.00000
   S  -0.2078478  -0.2163133  -0.2605765 SPIN=   0.00000
   O   0.1356843   0.5400615   0.2417828 SPIN=   0.00000
   O   0.5597483   0.2884548   0.1819711 SPIN=   0.00000
   O  -0.0999995  -0.0670530   0.1833477 SPIN=   0.00000
   O   0.2359581   0.1037897   0.3505923 SPIN=   0.00000
   S   0.2078478   0.2163133   0.2394235 SPIN=   0.00000
   F  -0.0569342   0.4646387  -0.0107689 SPIN=   0.00000
   F   0.0569342  -0.4646387   0.4892311 SPIN=   0.00000
%ENDBLOCK POSITIONS_FRAC

# Note: total spin =   8.00

KPOINTS_MP_SPACING 0.07

%BLOCK SPECIES_POT
QC5
%ENDBLOCK SPECIES_POT

SNAP_TO_SYMMETRY
SYMMETRY_GENERATE

