#              Generated by Buildcell
#
# at 23:55:47 (GMT+1.0) 18th August 2020
# in /scratch/scratch/uccabz1/launch_tmp
# on node-k10g-003
# by uccabz1
#
# compiler GCC version 4.9.2
# options -cpp -iprefix /scratch/UCL/applications/gcc/4.9.2/bin/../lib/gcc/x86_64-unknown-linux-gnu/4.9.2/ -mtune=corei7 -march=x86-64 -g -O2
#
# seed -2068424145 -1433738114 -1604692014  -838189529   127177172   439705685 -1303239308  -192043944  -263664676  1779295593  -301555889  2078370348
#
#      Author: C. J. Pickard (cjp20@cam.ac.uk)
#                Space group: Pnc2
#

%BLOCK LATTICE_ABC
      4.13435      6.67110      7.25146
     90.00000     90.00000     90.00000
%ENDBLOCK LATTICE_ABC

%BLOCK POSITIONS_FRAC
  Li  -0.0000000  -0.0000000   0.3109132 SPIN=   0.00000
  Li   0.0000000   0.5000000  -0.1890868 SPIN=   0.00000
  Fe  -0.5000000  -0.0000000   0.0222142 SPIN=   4.00000
  Fe   0.5000000   0.5000000  -0.4777858 SPIN=   4.00000
   O  -0.3118702  -0.1745105  -0.5577016 SPIN=   0.00000
   O   0.1906323  -0.1323817  -0.3763222 SPIN=   0.00000
   O   0.3118702   0.1745105  -0.5577016 SPIN=   0.00000
   O  -0.1906323   0.1323817  -0.3763222 SPIN=   0.00000
   O  -0.3118702  -0.3254895  -0.0577016 SPIN=   0.00000
   O   0.1906323  -0.3676183   0.1236778 SPIN=   0.00000
   O   0.3118702   0.3254895  -0.0577016 SPIN=   0.00000
   O  -0.1906323   0.3676183   0.1236778 SPIN=   0.00000
   S  -0.5000000  -0.0000000  -0.4384407 SPIN=   0.00000
   S  -0.5000000   0.5000000   0.0615593 SPIN=   0.00000
   F   0.0000000  -0.0000000   0.0202654 SPIN=   0.00000
   F   0.0000000  -0.5000000  -0.4797346 SPIN=   0.00000
%ENDBLOCK POSITIONS_FRAC

# Note: total spin =   8.00

KPOINTS_MP_SPACING 0.07

%BLOCK SPECIES_POT
QC5
%ENDBLOCK SPECIES_POT

SNAP_TO_SYMMETRY
SYMMETRY_GENERATE

