#              Generated by Buildcell
#
# at 23:24:04 (GMT+1.0) 18th August 2020
# in /lustre/scratch/uccabz1/launch_tmp
# on node-c12n-031
# by uccabz1
#
# compiler GCC version 4.9.2
# options -cpp -iprefix /lustre/shared/ucl/apps/gcc/4.9.2/bin/../lib/gcc/x86_64-unknown-linux-gnu/4.9.2/ -mtune=corei7 -march=x86-64 -g -Og
#
# seed  -422712986  -728658323 -1292850734   559319288  -582861912  1554669055 -1413993645   934113862 -1014966917   120930984  1360169045  1039771395
#
#      Author: C. J. Pickard (cjp20@cam.ac.uk)
#                Space group: Pcc2
#

%BLOCK LATTICE_ABC
      3.98120      4.18605     12.00084
     90.00000     90.00000     90.00000
%ENDBLOCK LATTICE_ABC

%BLOCK POSITIONS_FRAC
  Li  -0.0000000  -0.0000000  -0.1718803 SPIN=   0.00000
  Li   0.0000000   0.0000000   0.3281197 SPIN=   0.00000
  Fe   0.5000000  -0.5000000  -0.1031366 SPIN=   4.00000
  Fe   0.5000000  -0.5000000   0.3968634 SPIN=   4.00000
   O  -0.2371186  -0.1702986   0.0178200 SPIN=   0.00000
   O  -0.2526334  -0.6648541   0.1307070 SPIN=   0.00000
   O   0.2371186   0.1702986   0.0178200 SPIN=   0.00000
   O   0.2526334   0.6648541   0.1307070 SPIN=   0.00000
   O  -0.2371186   0.1702986  -0.4821800 SPIN=   0.00000
   O  -0.2526334   0.6648541  -0.3692930 SPIN=   0.00000
   O   0.2371186  -0.1702986  -0.4821800 SPIN=   0.00000
   O   0.2526334  -0.6648541  -0.3692930 SPIN=   0.00000
   S   0.0000000   0.0000000   0.0933882 SPIN=   0.00000
   S   0.0000000   0.0000000  -0.4066118 SPIN=   0.00000
   F   0.0000000   0.5000000  -0.1566118 SPIN=   0.00000
   F   0.0000000   0.5000000   0.3433882 SPIN=   0.00000
%ENDBLOCK POSITIONS_FRAC

# Note: total spin =   8.00

KPOINTS_MP_SPACING 0.07

%BLOCK SPECIES_POT
QC5
%ENDBLOCK SPECIES_POT

SNAP_TO_SYMMETRY
SYMMETRY_GENERATE

