#              Generated by Buildcell
#
# at 04:03:32 (GMT+1.0) 4th August 2020
# in /lustre/scratch/uccabz1/launch_tmp
# on node-c12k-001
# by uccabz1
#
# compiler GCC version 4.9.2
# options -cpp -iprefix /lustre/shared/ucl/apps/gcc/4.9.2/bin/../lib/gcc/x86_64-unknown-linux-gnu/4.9.2/ -mtune=corei7 -march=x86-64 -g -Og
#
# seed  2110537529 -1907783149  -179912286    36345386   147681198  1614822165   347354792 -1778765487   946689036 -1377012115 -1856345869  1473365165
#
#      Author: C. J. Pickard (cjp20@cam.ac.uk)
#                Space group: P2
#

%BLOCK LATTICE_ABC
      3.94715      6.30801      8.51609
    109.40018     90.00000     90.00000
%ENDBLOCK LATTICE_ABC

%BLOCK POSITIONS_FRAC
  Li  -0.4022655   0.2941391  -0.4008665 SPIN=   0.00000
  Li  -0.4022655  -0.2941391   0.4008665 SPIN=   0.00000
  Fe   0.1005249  -0.3428027  -0.1493915 SPIN=   4.00000
  Fe   0.1005249   0.3428027   0.1493915 SPIN=   4.00000
   O  -0.0383355  -0.0958434  -0.3784461 SPIN=   0.00000
   O   0.5024886   0.0596242  -0.2410874 SPIN=   0.00000
   O  -0.0386498   0.1667268  -0.0884503 SPIN=   0.00000
   O   0.0977308   0.3059226  -0.3206640 SPIN=   0.00000
   S   0.1308085   0.1091076  -0.2571619 SPIN=   0.00000
   O  -0.0383355   0.0958434   0.3784461 SPIN=   0.00000
   O   0.5024886  -0.0596242   0.2410874 SPIN=   0.00000
   O  -0.0386498  -0.1667268   0.0884503 SPIN=   0.00000
   O   0.0977308  -0.3059226   0.3206640 SPIN=   0.00000
   S   0.1308085  -0.1091076   0.2571619 SPIN=   0.00000
   F  -0.3995559  -0.3792219  -0.2483799 SPIN=   0.00000
   F  -0.3995559   0.3792219   0.2483799 SPIN=   0.00000
%ENDBLOCK POSITIONS_FRAC

# Note: total spin =   8.00

KPOINTS_MP_SPACING 0.07

%BLOCK SPECIES_POT
QC5
%ENDBLOCK SPECIES_POT

SNAP_TO_SYMMETRY
SYMMETRY_GENERATE

