#              Generated by Buildcell
#
# at 05:15:59 (GMT+1.0) 4th August 2020
# in /lustre/scratch/uccabz1/launch_tmp
# on node-c12f-031
# by uccabz1
#
# compiler GCC version 4.9.2
# options -cpp -iprefix /lustre/shared/ucl/apps/gcc/4.9.2/bin/../lib/gcc/x86_64-unknown-linux-gnu/4.9.2/ -mtune=corei7 -march=x86-64 -g -Og
#
# seed -1378611197   511419592 -1031867527  -572144900   -11463050  1636591861  1521489930  1605302461  1331453508    -7152799  1041148076 -1722873698
#
#      Author: C. J. Pickard (cjp20@cam.ac.uk)
#                Space group: Imm2
#

%BLOCK LATTICE_ABC
      6.29551      6.48125      6.48125
     71.74170     60.94355     60.94355
%ENDBLOCK LATTICE_ABC

%BLOCK POSITIONS_FRAC
  Li   0.1635423   0.2255424  -0.2255424 SPIN=   0.00000
  Li   0.1635423  -0.2255424   0.2255424 SPIN=   0.00000
  Fe   0.4184702  -0.5000000  -0.5000000 SPIN=   6.71366
  Fe  -0.0861600   0.5000000  -0.5000000 SPIN=   1.28634
   O   0.0733559   0.0164290  -0.2753945 SPIN=   0.00000
   O   0.4051922   0.1909987  -0.5241413 SPIN=   0.00000
   O  -0.1856096  -0.0164290   0.2753945 SPIN=   0.00000
   O   0.0720497  -0.1909987   0.5241413 SPIN=   0.00000
   O   0.0733559  -0.2753945   0.0164290 SPIN=   0.00000
   O   0.4051922  -0.5241413   0.1909987 SPIN=   0.00000
   O  -0.1856096   0.2753945  -0.0164290 SPIN=   0.00000
   O   0.0720497   0.5241413  -0.1909987 SPIN=   0.00000
   S  -0.0482862   0.2159826   0.2159826 SPIN=   0.00000
   S   0.3836790  -0.2159826  -0.2159826 SPIN=   0.00000
   F  -0.4403206   0.7869606   0.2130394 SPIN=   0.00000
   F  -0.4403206   0.2130394  -0.2130394 SPIN=   0.00000
%ENDBLOCK POSITIONS_FRAC

# Note: total spin =   8.00

KPOINTS_MP_SPACING 0.07

%BLOCK SPECIES_POT
QC5
%ENDBLOCK SPECIES_POT

SNAP_TO_SYMMETRY
SYMMETRY_GENERATE

