#              Generated by Buildcell
#
# at 21:22:45 (GMT+1.0) 18th August 2020
# in /lustre/scratch/uccabz1/launch_tmp
# on node-c12b-022
# by uccabz1
#
# compiler GCC version 4.9.2
# options -cpp -iprefix /lustre/shared/ucl/apps/gcc/4.9.2/bin/../lib/gcc/x86_64-unknown-linux-gnu/4.9.2/ -mtune=corei7 -march=x86-64 -g -Og
#
# seed   165670059   371677389 -1594135308  1165434087  -899798445 -1047196417 -2034923374  1809248666  1992258095 -1286332294  1400444837  -235586670
#
#      Author: C. J. Pickard (cjp20@cam.ac.uk)
#                Space group: P-1
#

%BLOCK LATTICE_ABC
      3.85845      5.29392     10.07976
     78.62232     82.26746     87.90157
%ENDBLOCK LATTICE_ABC

%BLOCK POSITIONS_FRAC
  Li  -0.7135393   0.2077425   0.3665178 SPIN=   0.00000
  Li   0.7135393  -0.2077425  -0.3665178 SPIN=   0.00000
  Fe  -0.1827252   0.2125270   0.1135551 SPIN=   4.00000
  Fe   0.1827252  -0.2125270  -0.1135551 SPIN=   4.00000
   O  -0.7535680  -0.5222948   0.1355900 SPIN=   0.00000
   O  -0.2643058  -0.3073700   0.2028915 SPIN=   0.00000
   O  -0.8371387  -0.3489472   0.3485880 SPIN=   0.00000
   O  -0.7733560  -0.0508722   0.1245034 SPIN=   0.00000
   S  -0.6570921  -0.3073711   0.2028932 SPIN=   0.00000
   O   0.7535680   0.5222948  -0.1355900 SPIN=   0.00000
   O   0.2643058   0.3073700  -0.2028915 SPIN=   0.00000
   O   0.8371387   0.3489472  -0.3485880 SPIN=   0.00000
   O   0.7733560   0.0508722  -0.1245034 SPIN=   0.00000
   S   0.6570921   0.3073711  -0.2028932 SPIN=   0.00000
   F   0.2004951  -0.1398093  -0.3370742 SPIN=   0.00000
   F  -0.2004951   0.1398093   0.3370742 SPIN=   0.00000
%ENDBLOCK POSITIONS_FRAC

# Note: total spin =   8.00

KPOINTS_MP_SPACING 0.07

%BLOCK SPECIES_POT
QC5
%ENDBLOCK SPECIES_POT

SNAP_TO_SYMMETRY
SYMMETRY_GENERATE

