#              Generated by Buildcell
#
# at 04:19:22 (GMT+1.0) 4th August 2020
# in /lustre/scratch/uccabz1/launch_tmp
# on node-c12l-028
# by uccabz1
#
# compiler GCC version 4.9.2
# options -cpp -iprefix /lustre/shared/ucl/apps/gcc/4.9.2/bin/../lib/gcc/x86_64-unknown-linux-gnu/4.9.2/ -mtune=corei7 -march=x86-64 -g -Og
#
# seed  1347222489  1192284473  -791913264  1497488874 -1653380029 -1898980153  1410940114  -176641882 -1674048354    24826302  1238423660   317240085
#
#      Author: C. J. Pickard (cjp20@cam.ac.uk)
#                Space group: P2
#

%BLOCK LATTICE_ABC
      4.40372      6.56175      7.09790
    102.80629     90.00000     90.00000
%ENDBLOCK LATTICE_ABC

%BLOCK POSITIONS_FRAC
  Li  -0.1780758   0.1935343   0.3496360 SPIN=   0.00000
  Li  -0.1780758  -0.1935343  -0.3496360 SPIN=   0.00000
  Fe   0.3117799  -0.1255596   0.2357522 SPIN=   4.00000
  Fe   0.3117799   0.1255596  -0.2357522 SPIN=   4.00000
   O   0.2992968   0.1876966   0.3157783 SPIN=   0.00000
   O   0.4480987   0.3074135   0.0218672 SPIN=   0.00000
   O   0.5310484   0.5368948   0.3448108 SPIN=   0.00000
   O   0.0092670   0.4695656   0.2165918 SPIN=   0.00000
   S   0.3219277   0.3753926   0.2247620 SPIN=   0.00000
   O   0.2992968  -0.1876966  -0.3157783 SPIN=   0.00000
   O   0.4480987  -0.3074135  -0.0218672 SPIN=   0.00000
   O   0.5310484  -0.5368948  -0.3448108 SPIN=   0.00000
   O   0.0092670  -0.4695656  -0.2165918 SPIN=   0.00000
   S   0.3219277  -0.3753926  -0.2247620 SPIN=   0.00000
   F  -0.1374296   0.1370951  -0.2219602 SPIN=   0.00000
   F  -0.1374296  -0.1370951   0.2219602 SPIN=   0.00000
%ENDBLOCK POSITIONS_FRAC

# Note: total spin =   8.00

KPOINTS_MP_SPACING 0.07

%BLOCK SPECIES_POT
QC5
%ENDBLOCK SPECIES_POT

SNAP_TO_SYMMETRY
SYMMETRY_GENERATE

