#              Generated by Buildcell
#
# at 04:33:17 (GMT+1.0) 4th August 2020
# in /lustre/scratch/uccabz1/launch_tmp
# on node-c12k-030
# by uccabz1
#
# compiler GCC version 4.9.2
# options -cpp -iprefix /lustre/shared/ucl/apps/gcc/4.9.2/bin/../lib/gcc/x86_64-unknown-linux-gnu/4.9.2/ -mtune=corei7 -march=x86-64 -g -Og
#
# seed -1785951025   894905055  1362267458 -2077941152  -300942118   277677402  -408801761 -1793949740  2008950197  1425468637 -1452484597  1342930687
#
#      Author: C. J. Pickard (cjp20@cam.ac.uk)
#                Space group: Cm
#

%BLOCK LATTICE_ABC
      3.88439      7.40871      8.05348
    115.89541    101.35206     95.52988
%ENDBLOCK LATTICE_ABC

%BLOCK POSITIONS_FRAC
  Li   0.1878836   0.1064563   0.3767165 SPIN=   0.00000
  Li  -0.1888329  -0.2702602  -0.3767165 SPIN=   0.00000
  Fe  -0.7334847  -0.3301139  -0.7454352 SPIN=   4.00000
  Fe   0.0119505   0.4153213   0.7454352 SPIN=   4.00000
   O   0.3055614   0.3144494   0.2759735 SPIN=   0.00000
   O   0.9338301   0.4247954   0.4750622 SPIN=   0.00000
   O   0.7894285   0.4341937   0.1659746 SPIN=   0.00000
   O   0.7493961   0.1009634   0.1703728 SPIN=   0.00000
   S   0.6945540   0.3186005   0.2718458 SPIN=   0.00000
   O   0.0295879   0.0384759  -0.2759735 SPIN=   0.00000
   O   0.4587678  -0.0502668  -0.4750622 SPIN=   0.00000
   O   0.6234539   0.2682191  -0.1659746 SPIN=   0.00000
   O   0.5790233  -0.0694094  -0.1703728 SPIN=   0.00000
   S   0.4227082   0.0467547  -0.2718458 SPIN=   0.00000
   F  -0.2396463  -0.1921624   0.2491245 SPIN=   0.00000
   F  -0.4887708  -0.4412869  -0.2491245 SPIN=   0.00000
%ENDBLOCK POSITIONS_FRAC

# Note: total spin =   8.00

KPOINTS_MP_SPACING 0.07

%BLOCK SPECIES_POT
QC5
%ENDBLOCK SPECIES_POT

SNAP_TO_SYMMETRY
SYMMETRY_GENERATE

