#              Generated by Buildcell
#
# at 01:59:19 (GMT+1.0) 4th August 2020
# in /lustre/scratch/uccabz1/launch_tmp
# on node-c12g-035
# by uccabz1
#
# compiler GCC version 4.9.2
# options -cpp -iprefix /lustre/shared/ucl/apps/gcc/4.9.2/bin/../lib/gcc/x86_64-unknown-linux-gnu/4.9.2/ -mtune=corei7 -march=x86-64 -g -Og
#
# seed -1741219119   229809833   435662372  1989116755  1231690694   547983780  -462062081  -193163635  2039266387  -796131665  -462293021  -292777691
#
#      Author: C. J. Pickard (cjp20@cam.ac.uk)
#                Space group: P-1
#

%BLOCK LATTICE_ABC
      4.31985      6.75297      7.66341
     66.11510     82.96406     78.36147
%ENDBLOCK LATTICE_ABC

%BLOCK POSITIONS_FRAC
  Li  -0.4918425   0.2727763  -0.2052147 SPIN=   0.00000
  Li   0.4918425  -0.2727763   0.2052147 SPIN=   0.00000
  Fe   0.0000000   0.5000000  -0.5000000 SPIN=   0.09341
  Fe   1.0000000  -0.5000000   0.0000000 SPIN=   7.90659
   O   0.2076499   0.0849264   0.2049942 SPIN=   0.00000
   O  -0.3167498   0.1983222   0.0633966 SPIN=   0.00000
   O  -0.2691892  -0.0224137   0.4100556 SPIN=   0.00000
   O  -0.0605871  -0.1918137   0.1779096 SPIN=   0.00000
   O  -0.2076499  -0.0849264  -0.2049942 SPIN=   0.00000
   O   0.3167498  -0.1983222  -0.0633966 SPIN=   0.00000
   O   0.2691892   0.0224137  -0.4100556 SPIN=   0.00000
   O   0.0605871   0.1918137  -0.1779096 SPIN=   0.00000
   S  -1.0000000   1.0000000  -0.5000000 SPIN=   0.00000
   S  -0.0000000   0.0000000  -0.0000000 SPIN=   0.00000
   F   0.4035080  -0.5745321   0.2959833 SPIN=   0.00000
   F  -0.4035080   0.5745321  -0.2959833 SPIN=   0.00000
%ENDBLOCK POSITIONS_FRAC

# Note: total spin =   8.00

KPOINTS_MP_SPACING 0.07

%BLOCK SPECIES_POT
QC5
%ENDBLOCK SPECIES_POT

SNAP_TO_SYMMETRY
SYMMETRY_GENERATE

