#              Generated by Buildcell
#
# at 04:25:08 (GMT+1.0) 4th August 2020
# in /lustre/scratch/uccabz1/launch_tmp
# on node-c12f-023
# by uccabz1
#
# compiler GCC version 4.9.2
# options -cpp -iprefix /lustre/shared/ucl/apps/gcc/4.9.2/bin/../lib/gcc/x86_64-unknown-linux-gnu/4.9.2/ -mtune=corei7 -march=x86-64 -g -Og
#
# seed   -11552605   316989890  1069147708 -1472242076  -625893895  -808016737  -271640490 -1512135345   549736209  -989134665 -2007108766 -1114608780
#
#      Author: C. J. Pickard (cjp20@cam.ac.uk)
#                Space group: P21
#

%BLOCK LATTICE_ABC
      4.69322      6.50853      6.54771
     90.00000     90.44539     90.00000
%ENDBLOCK LATTICE_ABC

%BLOCK POSITIONS_FRAC
  Li   0.2232770   0.0399266  -0.1568438 SPIN=   0.00000
  Li  -0.2232770  -0.4600734   0.1568438 SPIN=   0.00000
  Fe  -0.2737821   0.0264212   0.1238634 SPIN=   4.00000
  Fe   0.2737821  -0.4735788  -0.1238634 SPIN=   4.00000
   O   0.2223542  -0.4989915   0.4465169 SPIN=   0.00000
   O   0.0591898  -0.1990359   0.2448872 SPIN=   0.00000
   O   0.5715429  -0.2418296   0.3264724 SPIN=   0.00000
   O   0.2323829  -0.1514226   0.5997103 SPIN=   0.00000
   S   0.2713675  -0.2728199   0.4043967 SPIN=   0.00000
   O  -0.2223542   0.0010085  -0.4465169 SPIN=   0.00000
   O  -0.0591898   0.3009641  -0.2448872 SPIN=   0.00000
   O  -0.5715429   0.2581704  -0.3264724 SPIN=   0.00000
   O  -0.2323829   0.3485774  -0.5997103 SPIN=   0.00000
   S  -0.2713675   0.2271801  -0.4043967 SPIN=   0.00000
   F  -0.3302194  -0.2612807  -0.1197896 SPIN=   0.00000
   F   0.3302194   0.2387193   0.1197896 SPIN=   0.00000
%ENDBLOCK POSITIONS_FRAC

# Note: total spin =   8.00

KPOINTS_MP_SPACING 0.07

%BLOCK SPECIES_POT
QC5
%ENDBLOCK SPECIES_POT

SNAP_TO_SYMMETRY
SYMMETRY_GENERATE

