#              Generated by Buildcell
#
# at 02:56:27 (GMT+1.0) 4th August 2020
# in /lustre/scratch/uccabz1/launch_tmp
# on node-c12d-008
# by uccabz1
#
# compiler GCC version 4.9.2
# options -cpp -iprefix /lustre/shared/ucl/apps/gcc/4.9.2/bin/../lib/gcc/x86_64-unknown-linux-gnu/4.9.2/ -mtune=corei7 -march=x86-64 -g -Og
#
# seed -1880508412   845303933 -1889598443   639172986  -740457501  -468210313  1187555369  -229291425   318799904 -1192515686  1397037837  -358605369
#
#      Author: C. J. Pickard (cjp20@cam.ac.uk)
#                Space group: Cm
#

%BLOCK LATTICE_ABC
      5.28588      6.52426      6.52426
     69.48363     74.99866     74.99866
%ENDBLOCK LATTICE_ABC

%BLOCK POSITIONS_FRAC
  Li  -0.0149921   0.2759971  -0.1901560 SPIN=   0.00000
  Li  -0.0149921  -0.1901560   0.2759971 SPIN=   0.00000
  Fe  -0.4964897   0.0869209   0.0869209 SPIN=   0.50195
  Fe   0.0030921  -0.2414602  -0.2414602 SPIN=   7.49805
   O   0.1768945   0.2087793  -0.4768470 SPIN=   0.00000
   O   0.5163101   0.2345423  -0.2917695 SPIN=   0.00000
   O   0.6550144   0.0751623  -0.6053694 SPIN=   0.00000
   S   0.4419452   0.0962792  -0.4037960 SPIN=   0.00000
   O   0.1768945  -0.4768470   0.2087793 SPIN=   0.00000
   O   0.5163101  -0.2917695   0.2345423 SPIN=   0.00000
   O   0.6550144  -0.6053694   0.0751623 SPIN=   0.00000
   S   0.4419452  -0.4037960   0.0962792 SPIN=   0.00000
   O  -0.1128464  -0.0392859  -0.0392859 SPIN=   0.00000
   O  -0.2228789   0.3848006   0.3848006 SPIN=   0.00000
   F   0.1266885   0.1447810   0.1447810 SPIN=   0.00000
   F  -0.0620423  -0.4044412  -0.4044412 SPIN=   0.00000
%ENDBLOCK POSITIONS_FRAC

# Note: total spin =   8.00

KPOINTS_MP_SPACING 0.07

%BLOCK SPECIES_POT
QC5
%ENDBLOCK SPECIES_POT

SNAP_TO_SYMMETRY
SYMMETRY_GENERATE

