#              Generated by Buildcell
#
# at 21:06:07 (GMT+1.0) 18th August 2020
# in /lustre/scratch/uccabz1/launch_tmp
# on node-c12h-012
# by uccabz1
#
# compiler GCC version 4.9.2
# options -cpp -iprefix /lustre/shared/ucl/apps/gcc/4.9.2/bin/../lib/gcc/x86_64-unknown-linux-gnu/4.9.2/ -mtune=corei7 -march=x86-64 -g -Og
#
# seed  2076529609 -1359232328 -1453483473 -1953754699 -1704903430  -401950134 -1481131331   -70516580  -607754251   348844072  -305675606  -525683884
#
#      Author: C. J. Pickard (cjp20@cam.ac.uk)
#                Space group: P21/m
#

%BLOCK LATTICE_ABC
      4.11993      6.57164      7.38727
     90.00000     90.00000     90.52412
%ENDBLOCK LATTICE_ABC

%BLOCK POSITIONS_FRAC
  Li   0.2520605   0.3504265   0.2500000 SPIN=   0.00000
  Li  -0.2520605  -0.3504265  -0.2500000 SPIN=   0.00000
  Fe   0.0000000  -0.0000000  -0.0000000 SPIN=   4.00000
  Fe   0.0000000  -0.0000000   0.5000000 SPIN=   4.00000
   O   0.2272548   0.4167208  -0.4495693 SPIN=   0.00000
   O  -0.3065661   0.2488860  -0.4956600 SPIN=   0.00000
   O  -0.2272548  -0.4167208   0.0504307 SPIN=   0.00000
   O   0.3065661  -0.2488860   0.0043400 SPIN=   0.00000
   O  -0.2272548  -0.4167208   0.4495693 SPIN=   0.00000
   O   0.3065661  -0.2488860   0.4956600 SPIN=   0.00000
   O   0.2272548   0.4167208  -0.0504307 SPIN=   0.00000
   O  -0.3065661   0.2488860  -0.0043400 SPIN=   0.00000
   S   0.2441475   0.3984983  -0.2500000 SPIN=   0.00000
   S  -0.2441475  -0.3984983   0.2500000 SPIN=   0.00000
   F   0.2632764   0.0756648   0.2500000 SPIN=   0.00000
   F  -0.2632764  -0.0756648  -0.2500000 SPIN=   0.00000
%ENDBLOCK POSITIONS_FRAC

# Note: total spin =   8.00

KPOINTS_MP_SPACING 0.07

%BLOCK SPECIES_POT
QC5
%ENDBLOCK SPECIES_POT

SNAP_TO_SYMMETRY
SYMMETRY_GENERATE

