#              Generated by Buildcell
#
# at 01:39:13 (GMT+1.0) 19th August 2020
# in /lustre/scratch/uccabz1/launch_tmp
# on node-c12n-029
# by uccabz1
#
# compiler GCC version 4.9.2
# options -cpp -iprefix /lustre/shared/ucl/apps/gcc/4.9.2/bin/../lib/gcc/x86_64-unknown-linux-gnu/4.9.2/ -mtune=corei7 -march=x86-64 -g -Og
#
# seed  1664272937 -1495851147  1550568770  -852736447   560036147  1807145958   579210454   826169338 -1547232821  2006760176   183088095 -1080000924
#
#      Author: C. J. Pickard (cjp20@cam.ac.uk)
#                Space group: Pm
#

%BLOCK LATTICE_ABC
      4.40595      4.84769      9.36812
     90.00000     90.00000     91.72207
%ENDBLOCK LATTICE_ABC

%BLOCK POSITIONS_FRAC
  Li  -0.3323833  -0.3452544  -0.2034655 SPIN=   0.00000
  Li  -0.3323833  -0.3452544   0.2034655 SPIN=   0.00000
  Fe   0.1742464  -0.3022999  -0.0000000 SPIN=   1.48107
  Fe   0.1118656  -0.4763055   0.5000000 SPIN=   6.51893
   O  -0.2345783  -0.1030709   0.3755376 SPIN=   0.00000
   O  -0.4225332   0.1319970   0.1598187 SPIN=   0.00000
   O  -0.2876531   0.4037242   0.3755319 SPIN=   0.00000
   O  -0.7456171   0.0953367   0.3754937 SPIN=   0.00000
   O  -0.2345783  -0.1030709  -0.3755376 SPIN=   0.00000
   O  -0.4225332   0.1319970  -0.1598187 SPIN=   0.00000
   O  -0.2876531   0.4037242  -0.3755319 SPIN=   0.00000
   O  -0.7456171   0.0953367  -0.3754937 SPIN=   0.00000
   S  -0.4041784   0.0368679   0.5000000 SPIN=   0.00000
   S  -0.3096599   0.1844577   0.0000000 SPIN=   0.00000
   F   0.2044229  -0.3906024  -0.1958506 SPIN=   0.00000
   F   0.2044229  -0.3906024   0.1958506 SPIN=   0.00000
%ENDBLOCK POSITIONS_FRAC

# Note: total spin =   8.00

KPOINTS_MP_SPACING 0.07

%BLOCK SPECIES_POT
QC5
%ENDBLOCK SPECIES_POT

SNAP_TO_SYMMETRY
SYMMETRY_GENERATE

