#              Generated by Buildcell
#
# at 01:39:20 (GMT+1.0) 19th August 2020
# in /lustre/scratch/uccabz1/launch_tmp
# on node-c12b-001
# by uccabz1
#
# compiler GCC version 4.9.2
# options -cpp -iprefix /lustre/shared/ucl/apps/gcc/4.9.2/bin/../lib/gcc/x86_64-unknown-linux-gnu/4.9.2/ -mtune=corei7 -march=x86-64 -g -Og
#
# seed  1727715885  1244452640 -2047184037   -74985905  1683632372  2074884417 -2096577498 -1077806517 -1895361311 -1050274017  -528229674   994506117
#
#      Author: C. J. Pickard (cjp20@cam.ac.uk)
#                Space group: P21
#

%BLOCK LATTICE_ABC
      4.35359      6.44156      7.31522
     90.00000    102.86201     90.00000
%ENDBLOCK LATTICE_ABC

%BLOCK POSITIONS_FRAC
  Li   0.2387990  -0.2590549  -0.3084591 SPIN=   0.00000
  Li  -0.2387990   0.2409451   0.3084591 SPIN=   0.00000
  Fe   0.2078680  -0.0299162   0.0337180 SPIN=   4.00000
  Fe  -0.2078680   0.4700838  -0.0337180 SPIN=   4.00000
   O   0.0206965   0.0665927  -0.2871354 SPIN=   0.00000
   O  -0.1168893   0.3992401  -0.4546447 SPIN=   0.00000
   O   0.4065834   0.2408990  -0.4379328 SPIN=   0.00000
   O   0.2774919   0.3923646  -0.1532732 SPIN=   0.00000
   S   0.1469706   0.2747741  -0.3332465 SPIN=   0.00000
   O  -0.0206965  -0.4334073   0.2871354 SPIN=   0.00000
   O   0.1168893  -0.1007599   0.4546447 SPIN=   0.00000
   O  -0.4065834  -0.2591010   0.4379328 SPIN=   0.00000
   O  -0.2774919  -0.1076354   0.1532732 SPIN=   0.00000
   S  -0.1469706  -0.2252259   0.3332465 SPIN=   0.00000
   F   0.2982399   0.2166573   0.1867868 SPIN=   0.00000
   F  -0.2982399  -0.2833427  -0.1867868 SPIN=   0.00000
%ENDBLOCK POSITIONS_FRAC

# Note: total spin =   8.00

KPOINTS_MP_SPACING 0.07

%BLOCK SPECIES_POT
QC5
%ENDBLOCK SPECIES_POT

SNAP_TO_SYMMETRY
SYMMETRY_GENERATE

