#              Generated by Buildcell
#
# at 04:43:41 (GMT+1.0) 4th August 2020
# in /lustre/scratch/uccabz1/launch_tmp
# on node-c12o-004
# by uccabz1
#
# compiler GCC version 4.9.2
# options -cpp -iprefix /lustre/shared/ucl/apps/gcc/4.9.2/bin/../lib/gcc/x86_64-unknown-linux-gnu/4.9.2/ -mtune=corei7 -march=x86-64 -g -Og
#
# seed  -505032385 -1291318408  1646444768 -1103925449  -633277077  1898449519  1781930581 -1840286115 -1771069907  1249204736   -74471347    32281861
#
#      Author: C. J. Pickard (cjp20@cam.ac.uk)
#                Space group: P-1
#

%BLOCK LATTICE_ABC
      5.17781      6.26050      6.44971
    101.47825    102.27213     90.08029
%ENDBLOCK LATTICE_ABC

%BLOCK POSITIONS_FRAC
  Li   0.1351120  -0.1830644  -0.2464681 SPIN=   0.00000
  Li  -0.1351120   0.1830644   0.2464681 SPIN=   0.00000
  Fe   0.2854373  -0.2571014   0.3286606 SPIN=   4.00000
  Fe  -0.2854373   0.2571014  -0.3286606 SPIN=   4.00000
   O   0.2309591   0.2350431  -0.2287941 SPIN=   0.00000
   O   0.0847967   0.3796211   0.1114447 SPIN=   0.00000
   O   0.5625434   0.3689190   0.1113026 SPIN=   0.00000
   S   0.2944614   0.2522807   0.0145855 SPIN=   0.00000
   O  -0.2309591  -0.2350431   0.2287941 SPIN=   0.00000
   O  -0.0847967  -0.3796211  -0.1114447 SPIN=   0.00000
   O  -0.5625434  -0.3689190  -0.1113026 SPIN=   0.00000
   S  -0.2944614  -0.2522807  -0.0145855 SPIN=   0.00000
   O   0.0000000   0.0000000  -0.0000000 SPIN=   0.00000
   O  -0.5000000   0.5000000   0.5000000 SPIN=   0.00000
   F  -0.5000000  -0.0000000   0.5000000 SPIN=   0.00000
   F   0.0000000   0.5000000   0.5000000 SPIN=   0.00000
%ENDBLOCK POSITIONS_FRAC

# Note: total spin =   8.00

KPOINTS_MP_SPACING 0.07

%BLOCK SPECIES_POT
QC5
%ENDBLOCK SPECIES_POT

SNAP_TO_SYMMETRY
SYMMETRY_GENERATE

