#              Generated by Buildcell
#
# at 23:44:41 (GMT+1.0) 18th August 2020
# in /lustre/scratch/uccabz1/launch_tmp
# on node-c12f-023
# by uccabz1
#
# compiler GCC version 4.9.2
# options -cpp -iprefix /lustre/shared/ucl/apps/gcc/4.9.2/bin/../lib/gcc/x86_64-unknown-linux-gnu/4.9.2/ -mtune=corei7 -march=x86-64 -g -Og
#
# seed   655654990  -580262357  -239629710 -1197985283  1768154845  -935116636  1818403436 -1608746251 -1653102788  -114385355   510952847  1125820108
#
#      Author: C. J. Pickard (cjp20@cam.ac.uk)
#                Space group: Pc
#

%BLOCK LATTICE_ABC
      4.07585      6.72581      7.33229
     90.00000     95.72627     90.00000
%ENDBLOCK LATTICE_ABC

%BLOCK POSITIONS_FRAC
  Li   0.3084890   0.2201450  -0.2777097 SPIN=   0.00000
  Li  -0.1915110  -0.2201450  -0.2777097 SPIN=   0.00000
  Fe  -0.3008225  -0.2295740   0.1192217 SPIN=   4.00000
  Fe   0.1991775   0.2295740   0.1192217 SPIN=   4.00000
   O  -0.0803105   0.0725255   0.5510427 SPIN=   0.00000
   O  -0.1542083   0.4279341   0.6242291 SPIN=   0.00000
   O  -0.6062230   0.2418630   0.4498612 SPIN=   0.00000
   O  -0.1010594   0.3248612   0.3044948 SPIN=   0.00000
   S  -0.2354503   0.2667960   0.4824069 SPIN=   0.00000
   O   0.4196895  -0.0725255   0.5510427 SPIN=   0.00000
   O   0.3457917  -0.4279341   0.6242291 SPIN=   0.00000
   O  -0.1062230  -0.2418630   0.4498612 SPIN=   0.00000
   O   0.3989406  -0.3248612   0.3044948 SPIN=   0.00000
   S   0.2645497  -0.2667960   0.4824069 SPIN=   0.00000
   F   0.1017412  -0.2352778  -0.0379170 SPIN=   0.00000
   F  -0.3982588   0.2352778  -0.0379170 SPIN=   0.00000
%ENDBLOCK POSITIONS_FRAC

# Note: total spin =   8.00

KPOINTS_MP_SPACING 0.07

%BLOCK SPECIES_POT
QC5
%ENDBLOCK SPECIES_POT

SNAP_TO_SYMMETRY
SYMMETRY_GENERATE

