#              Generated by Buildcell
#
# at 23:36:58 (GMT+1.0) 18th August 2020
# in /lustre/scratch/uccabz1/launch_tmp
# on node-c12p-012
# by uccabz1
#
# compiler GCC version 4.9.2
# options -cpp -iprefix /lustre/shared/ucl/apps/gcc/4.9.2/bin/../lib/gcc/x86_64-unknown-linux-gnu/4.9.2/ -mtune=corei7 -march=x86-64 -g -Og
#
# seed  1619743719  -569189883  -305237440  -598418925  1211181432  -982383285   648261839 -1197985283 -1099527971 -1981293549   888530511   -56620211
#
#      Author: C. J. Pickard (cjp20@cam.ac.uk)
#                Space group: P-1
#

%BLOCK LATTICE_ABC
      4.45741      4.46145     10.23749
     80.42387     85.16125     88.13348
%ENDBLOCK LATTICE_ABC

%BLOCK POSITIONS_FRAC
  Li  -0.1706451  -0.0875775   0.1934542 SPIN=   0.00000
  Li   0.1706451   0.0875775  -0.1934542 SPIN=   0.00000
  Fe  -0.2746573   0.2073763  -0.4074465 SPIN=   4.00000
  Fe   0.2746573  -0.2073763   0.4074465 SPIN=   4.00000
   O   0.4164691   0.2549068   0.0620601 SPIN=   0.00000
   O   0.3103741   0.7355799   0.1494976 SPIN=   0.00000
   O   0.2514843   0.2422299   0.2998486 SPIN=   0.00000
   O  -0.1079671   0.3996659   0.1285971 SPIN=   0.00000
   S   0.2175901   0.4080956   0.1600008 SPIN=   0.00000
   O  -0.4164691  -0.2549068  -0.0620601 SPIN=   0.00000
   O  -0.3103741  -0.7355799  -0.1494976 SPIN=   0.00000
   O  -0.2514843  -0.2422299  -0.2998486 SPIN=   0.00000
   O   0.1079671  -0.3996659  -0.1285971 SPIN=   0.00000
   S  -0.2175901  -0.4080956  -0.1600008 SPIN=   0.00000
   F   0.1950833   0.2124447  -0.3962134 SPIN=   0.00000
   F  -0.1950833  -0.2124447   0.3962134 SPIN=   0.00000
%ENDBLOCK POSITIONS_FRAC

# Note: total spin =   8.00

KPOINTS_MP_SPACING 0.07

%BLOCK SPECIES_POT
QC5
%ENDBLOCK SPECIES_POT

SNAP_TO_SYMMETRY
SYMMETRY_GENERATE

