#              Generated by Buildcell
#
# at 04:03:43 (GMT+1.0) 4th August 2020
# in /lustre/scratch/uccabz1/launch_tmp
# on node-y12q-002
# by uccabz1
#
# compiler GCC version 4.9.2
# options -cpp -iprefix /lustre/shared/ucl/apps/gcc/4.9.2/bin/../lib/gcc/x86_64-unknown-linux-gnu/4.9.2/ -mtune=corei7 -march=x86-64 -g -Og
#
# seed   176870281 -1700794633 -1084883747  -352393987   979909730 -1800884250   124476809   861084911 -1444431073  -772616114    35035850  1859847965
#
#      Author: C. J. Pickard (cjp20@cam.ac.uk)
#                Space group: Cm
#

%BLOCK LATTICE_ABC
      3.97858      7.01549      8.09123
     64.30856     85.39926     79.33756
%ENDBLOCK LATTICE_ABC

%BLOCK POSITIONS_FRAC
  Li  -0.1747260  -0.0490652   0.4151284 SPIN=   0.00000
  Li  -0.1747260   0.3660633  -0.4151284 SPIN=   0.00000
  Fe  -0.7375726   0.6008770  -0.2597126 SPIN=   4.00000
  Fe   0.2624274  -0.6588356   0.2597126 SPIN=   4.00000
   O   0.2660822  -0.2984404   0.4617073 SPIN=   0.00000
   O   0.2585364   0.0147485   0.1599837 SPIN=   0.00000
   O   0.3297670  -0.3512630   0.1768746 SPIN=   0.00000
   O   0.7976549  -0.2387440   0.2788926 SPIN=   0.00000
   S   0.4130101  -0.2184247   0.2693645 SPIN=   0.00000
   O   0.2660822   0.1632669  -0.4617073 SPIN=   0.00000
   O   0.2585364   0.1747322  -0.1599837 SPIN=   0.00000
   O   0.3297670  -0.1743883  -0.1768746 SPIN=   0.00000
   O   0.7976549   0.0401485  -0.2788926 SPIN=   0.00000
   S   0.4130101   0.0509398  -0.2693645 SPIN=   0.00000
   F  -0.2148710   0.5385866  -0.2738831 SPIN=   0.00000
   F   0.7851290  -0.7352965   0.2738831 SPIN=   0.00000
%ENDBLOCK POSITIONS_FRAC

# Note: total spin =   8.00

KPOINTS_MP_SPACING 0.07

%BLOCK SPECIES_POT
QC5
%ENDBLOCK SPECIES_POT

SNAP_TO_SYMMETRY
SYMMETRY_GENERATE

