#              Generated by Buildcell
#
# at 02:38:04 (GMT+1.0) 4th August 2020
# in /lustre/scratch/uccabz1/launch_tmp
# on node-c12p-016
# by uccabz1
#
# compiler GCC version 4.9.2
# options -cpp -iprefix /lustre/shared/ucl/apps/gcc/4.9.2/bin/../lib/gcc/x86_64-unknown-linux-gnu/4.9.2/ -mtune=corei7 -march=x86-64 -g -Og
#
# seed -1573147210  1337145644  -645759410   151321159  -679005193  -180593427  1174272000  -614079963  1526934511  -290003111  1222496227 -1318304077
#
#      Author: C. J. Pickard (cjp20@cam.ac.uk)
#                Space group: C2
#

%BLOCK LATTICE_ABC
      5.25927      5.25927      7.59147
     77.69954     77.69954     83.72568
%ENDBLOCK LATTICE_ABC

%BLOCK POSITIONS_FRAC
  Li   0.4799579   0.3211999   0.2714849 SPIN=   0.00000
  Li  -0.3211999  -0.4799579  -0.2714849 SPIN=   0.00000
  Fe  -0.0052132   0.4480762   0.0550187 SPIN=   4.00000
  Fe  -0.4480762   0.0052132  -0.0550187 SPIN=   4.00000
   O  -0.5949945  -0.1254963   0.3964387 SPIN=   0.00000
   O  -0.1721517  -0.0468145   0.1828327 SPIN=   0.00000
   O  -0.2452822  -0.4802631   0.3833199 SPIN=   0.00000
   O  -0.1991136  -0.1028480   0.5182173 SPIN=   0.00000
   S  -0.3028855  -0.1888555   0.3702022 SPIN=   0.00000
   O   0.1254963   0.5949945  -0.3964387 SPIN=   0.00000
   O   0.0468145   0.1721517  -0.1828327 SPIN=   0.00000
   O   0.4802631   0.2452822  -0.3833199 SPIN=   0.00000
   O   0.1028480   0.1991136  -0.5182173 SPIN=   0.00000
   S   0.1888555   0.3028855  -0.3702022 SPIN=   0.00000
   F   0.2670009   0.2246189   0.1040269 SPIN=   0.00000
   F  -0.2246189  -0.2670009  -0.1040269 SPIN=   0.00000
%ENDBLOCK POSITIONS_FRAC

# Note: total spin =   8.00

KPOINTS_MP_SPACING 0.07

%BLOCK SPECIES_POT
QC5
%ENDBLOCK SPECIES_POT

SNAP_TO_SYMMETRY
SYMMETRY_GENERATE

