#              Generated by Buildcell
#
# at 02:01:09 (GMT+1.0) 19th August 2020
# in /lustre/scratch/uccabz1/launch_tmp
# on node-c12f-023
# by uccabz1
#
# compiler GCC version 4.9.2
# options -cpp -iprefix /lustre/shared/ucl/apps/gcc/4.9.2/bin/../lib/gcc/x86_64-unknown-linux-gnu/4.9.2/ -mtune=corei7 -march=x86-64 -g -Og
#
# seed  -832488430  -293349466   281584240  1889718954 -2115710654 -1775023502 -1567585970 -1265643550 -1836722765  -557564551 -1700611045 -1528121500
#
#      Author: C. J. Pickard (cjp20@cam.ac.uk)
#                Space group: Pc
#

%BLOCK LATTICE_ABC
      3.90083      7.05540      7.41580
    101.49907     90.00000     90.00000
%ENDBLOCK LATTICE_ABC

%BLOCK POSITIONS_FRAC
  Li   0.3024117  -0.3979984  -0.0561977 SPIN=   0.00000
  Li  -0.3024117  -0.3979984   0.4438023 SPIN=   0.00000
  Fe  -0.2419618   0.2043128  -0.4488869 SPIN=   4.00000
  Fe   0.2419618   0.2043128   0.0511131 SPIN=   4.00000
   O   0.1619810  -0.1390596   0.1019916 SPIN=   0.00000
   O   0.6800586  -0.1390596   0.2946318 SPIN=   0.00000
   O   0.1620597  -0.3180409   0.3570640 SPIN=   0.00000
   O   0.1620595   0.0399214   0.4249567 SPIN=   0.00000
   S   0.2915397  -0.1390597   0.2946610 SPIN=   0.00000
   O  -0.1619810  -0.1390596  -0.3980084 SPIN=   0.00000
   O  -0.6800586  -0.1390596  -0.2053682 SPIN=   0.00000
   O  -0.1620597  -0.3180409  -0.1429360 SPIN=   0.00000
   O  -0.1620595   0.0399214  -0.0750433 SPIN=   0.00000
   S  -0.2915397  -0.1390597  -0.2053390 SPIN=   0.00000
   F  -0.2422342   0.4362275   0.0815261 SPIN=   0.00000
   F   0.2422342   0.4362275  -0.4184739 SPIN=   0.00000
%ENDBLOCK POSITIONS_FRAC

# Note: total spin =   8.00

KPOINTS_MP_SPACING 0.07

%BLOCK SPECIES_POT
QC5
%ENDBLOCK SPECIES_POT

SNAP_TO_SYMMETRY
SYMMETRY_GENERATE

