#              Generated by Buildcell
#
# at 05:04:58 (GMT+1.0) 4th August 2020
# in /lustre/scratch/uccabz1/launch_tmp
# on node-c12g-023
# by uccabz1
#
# compiler GCC version 4.9.2
# options -cpp -iprefix /lustre/shared/ucl/apps/gcc/4.9.2/bin/../lib/gcc/x86_64-unknown-linux-gnu/4.9.2/ -mtune=corei7 -march=x86-64 -g -Og
#
# seed  1677388074   956170740 -1850155743  1146852973  1656061756  1121573506 -1790910574 -1529302796    53398316  1637733394  -959352231 -1850974035
#
#      Author: C. J. Pickard (cjp20@cam.ac.uk)
#                Space group: C2
#

%BLOCK LATTICE_ABC
      5.20468      6.77285      6.77285
    109.49530    105.34794    105.34794
%ENDBLOCK LATTICE_ABC

%BLOCK POSITIONS_FRAC
  Li  -0.4824982   0.3168072   0.1928991 SPIN=   0.00000
  Li   0.4824982  -0.1928991  -0.3168072 SPIN=   0.00000
  Fe  -0.0349189  -0.0751491  -0.4811180 SPIN=   4.00000
  Fe   0.0349189   0.4811180   0.0751491 SPIN=   4.00000
   O  -0.2523941  -0.5459296  -0.3768528 SPIN=   0.00000
   O  -0.0565800  -0.1254811  -0.2036562 SPIN=   0.00000
   O   0.2352667  -0.3247904  -0.0697742 SPIN=   0.00000
   O  -0.1986040  -0.3297863   0.0172348 SPIN=   0.00000
   O   0.2523941   0.3768528   0.5459296 SPIN=   0.00000
   O   0.0565800   0.2036562   0.1254811 SPIN=   0.00000
   O  -0.2352667   0.0697742   0.3247904 SPIN=   0.00000
   O   0.1986040  -0.0172348   0.3297863 SPIN=   0.00000
   S   0.0000000  -0.0589091   0.0589091 SPIN=   0.00000
   S   0.0000000   0.4202236  -0.4202236 SPIN=   0.00000
   F   0.5000000   0.1772280  -0.1772280 SPIN=   0.00000
   F  -0.5000000  -0.3471036   0.3471036 SPIN=   0.00000
%ENDBLOCK POSITIONS_FRAC

# Note: total spin =   8.00

KPOINTS_MP_SPACING 0.07

%BLOCK SPECIES_POT
QC5
%ENDBLOCK SPECIES_POT

SNAP_TO_SYMMETRY
SYMMETRY_GENERATE

