#              Generated by Buildcell
#
# at 22:23:53 (GMT+1.0) 18th August 2020
# in /lustre/scratch/uccabz1/launch_tmp
# on node-c12k-027
# by uccabz1
#
# compiler GCC version 4.9.2
# options -cpp -iprefix /lustre/shared/ucl/apps/gcc/4.9.2/bin/../lib/gcc/x86_64-unknown-linux-gnu/4.9.2/ -mtune=corei7 -march=x86-64 -g -Og
#
# seed -1704595963  -367257772  -551864603  1018732070  1708987258  -938136771   447672252 -1763352413 -2016790730  1973181441   474377536   119612770
#
#      Author: C. J. Pickard (cjp20@cam.ac.uk)
#                Space group: Pnn2
#

%BLOCK LATTICE_ABC
      4.15481      6.54901      7.35027
     90.00000     90.00000     90.00000
%ENDBLOCK LATTICE_ABC

%BLOCK POSITIONS_FRAC
  Li  -0.0000000  -0.0000000  -0.0366622 SPIN=   0.00000
  Li  -0.5000000   0.5000000   0.4633378 SPIN=   0.00000
  Fe  -0.0000000  -0.0000000  -0.4470472 SPIN=   4.00000
  Fe  -0.5000000   0.5000000   0.0529528 SPIN=   4.00000
   O   0.3631860  -0.1704732   0.0620807 SPIN=   0.00000
   O  -0.1445219  -0.2900177  -0.0781481 SPIN=   0.00000
   O  -0.3631860   0.1704732   0.0620807 SPIN=   0.00000
   O   0.1445219   0.2900177  -0.0781481 SPIN=   0.00000
   O   0.1368140   0.3295268   0.5620807 SPIN=   0.00000
   O   0.6445219   0.2099823   0.4218519 SPIN=   0.00000
   O  -0.1368140  -0.3295268   0.5620807 SPIN=   0.00000
   O  -0.6445219  -0.2099823   0.4218519 SPIN=   0.00000
   S   0.5000000  -0.0000000   0.2082261 SPIN=   0.00000
   S  -0.0000000   0.5000000  -0.2917739 SPIN=   0.00000
   F   0.5000000  -0.0000000  -0.2923661 SPIN=   0.00000
   F   0.0000000   0.5000000   0.2076339 SPIN=   0.00000
%ENDBLOCK POSITIONS_FRAC

# Note: total spin =   8.00

KPOINTS_MP_SPACING 0.07

%BLOCK SPECIES_POT
QC5
%ENDBLOCK SPECIES_POT

SNAP_TO_SYMMETRY
SYMMETRY_GENERATE

