#              Generated by Buildcell
#
# at 23:23:46 (GMT+1.0) 18th August 2020
# in /lustre/scratch/uccabz1/launch_tmp
# on node-c12j-021
# by uccabz1
#
# compiler GCC version 4.9.2
# options -cpp -iprefix /lustre/shared/ucl/apps/gcc/4.9.2/bin/../lib/gcc/x86_64-unknown-linux-gnu/4.9.2/ -mtune=corei7 -march=x86-64 -g -Og
#
# seed -1480451399  -884860149  1278485027   738874806 -2132637882   802579664  1582848304   273724823  1403329031 -1964881217 -1085392607  1225328889
#
#      Author: C. J. Pickard (cjp20@cam.ac.uk)
#                Space group: P2/c
#

%BLOCK LATTICE_ABC
      3.93035      6.84353      7.50703
     90.00000     90.00000     97.90754
%ENDBLOCK LATTICE_ABC

%BLOCK POSITIONS_FRAC
  Li  -0.2500000  -0.2500000   0.2025928 SPIN=   0.00000
  Li   0.2500000   0.2500000  -0.2025928 SPIN=   0.00000
  Fe  -0.5000000  -0.0000000  -0.5000000 SPIN=   4.00000
  Fe   0.0000000  -0.5000000  -0.5000000 SPIN=   4.00000
   O  -0.0185183  -0.1212608  -0.3546633 SPIN=   0.00000
   O   0.2320077  -0.0757399  -0.0525763 SPIN=   0.00000
   O  -0.4814817  -0.3787392  -0.3546633 SPIN=   0.00000
   O  -0.7320077  -0.4242601  -0.0525763 SPIN=   0.00000
   O   0.0185183   0.1212608   0.3546633 SPIN=   0.00000
   O  -0.2320077   0.0757399   0.0525763 SPIN=   0.00000
   O   0.4814817   0.3787392   0.3546633 SPIN=   0.00000
   O   0.7320077   0.4242601   0.0525763 SPIN=   0.00000
   S  -0.2500000  -0.2500000  -0.1680921 SPIN=   0.00000
   S   0.2500000   0.2500000   0.1680921 SPIN=   0.00000
   F   0.2500000  -0.2500000   0.3242472 SPIN=   0.00000
   F  -0.2500000   0.2500000  -0.3242472 SPIN=   0.00000
%ENDBLOCK POSITIONS_FRAC

# Note: total spin =   8.00

KPOINTS_MP_SPACING 0.07

%BLOCK SPECIES_POT
QC5
%ENDBLOCK SPECIES_POT

SNAP_TO_SYMMETRY
SYMMETRY_GENERATE

