#              Generated by Buildcell
#
# at 02:27:55 (GMT+1.0) 19th August 2020
# in /lustre/scratch/uccabz1/launch_tmp
# on node-c12k-029
# by uccabz1
#
# compiler GCC version 4.9.2
# options -cpp -iprefix /lustre/shared/ucl/apps/gcc/4.9.2/bin/../lib/gcc/x86_64-unknown-linux-gnu/4.9.2/ -mtune=corei7 -march=x86-64 -g -Og
#
# seed  1566330789   707453205   961118930 -1717582413 -2091742272  -405635256  1705747179 -1362871975   225346043 -1926326197  -650331777   827056256
#
#      Author: C. J. Pickard (cjp20@cam.ac.uk)
#                Space group: P21
#

%BLOCK LATTICE_ABC
      4.34993      5.79139      8.12066
    102.14237     90.00000     90.00000
%ENDBLOCK LATTICE_ABC

%BLOCK POSITIONS_FRAC
  Li   0.4416609  -0.1587746   0.1067522 SPIN=   0.00000
  Li  -0.0583391   0.1587746  -0.1067522 SPIN=   0.00000
  Fe  -0.0602207  -0.4666881   0.2191197 SPIN=   4.00000
  Fe   0.4397793   0.4666881  -0.2191197 SPIN=   4.00000
   O   0.3946927   0.3983001   0.2647408 SPIN=   0.00000
   O   0.6720526   0.0325488   0.2858919 SPIN=   0.00000
   O   0.1508405   0.1076515   0.4075639 SPIN=   0.00000
   O   0.5914480   0.3464520   0.5406277 SPIN=   0.00000
   S   0.4522584   0.2212381   0.3747061 SPIN=   0.00000
   O  -0.1053073  -0.3983001  -0.2647408 SPIN=   0.00000
   O   0.1720526  -0.0325488  -0.2858919 SPIN=   0.00000
   O  -0.3491595  -0.1076515  -0.4075639 SPIN=   0.00000
   O   0.0914480  -0.3464520  -0.5406277 SPIN=   0.00000
   S  -0.0477416  -0.2212381  -0.3747061 SPIN=   0.00000
   F   0.4865531   0.2302500  -0.0528154 SPIN=   0.00000
   F  -0.0134469  -0.2302500   0.0528154 SPIN=   0.00000
%ENDBLOCK POSITIONS_FRAC

# Note: total spin =   8.00

KPOINTS_MP_SPACING 0.07

%BLOCK SPECIES_POT
QC5
%ENDBLOCK SPECIES_POT

SNAP_TO_SYMMETRY
SYMMETRY_GENERATE

