#              Generated by Buildcell
#
# at 03:10:24 (GMT+1.0) 4th August 2020
# in /lustre/scratch/uccabz1/launch_tmp
# on node-c12p-005
# by uccabz1
#
# compiler GCC version 4.9.2
# options -cpp -iprefix /lustre/shared/ucl/apps/gcc/4.9.2/bin/../lib/gcc/x86_64-unknown-linux-gnu/4.9.2/ -mtune=corei7 -march=x86-64 -g -Og
#
# seed  1205059559 -1608874075  -352227245  1817186146  2048083915  -496735346  1292713255  1395417515  1026892713   145092347 -1893491644  -895207299
#
#      Author: C. J. Pickard (cjp20@cam.ac.uk)
#                Space group: P2
#

%BLOCK LATTICE_ABC
      5.55566      5.92387      6.10187
     95.17591     90.00000     90.00000
%ENDBLOCK LATTICE_ABC

%BLOCK POSITIONS_FRAC
  Li  -0.3989265   0.2888254  -0.2524870 SPIN=   0.00000
  Li  -0.3989265  -0.2888254   0.2524870 SPIN=   0.00000
  Fe  -0.1682034   0.2619032   0.2477266 SPIN=   4.00000
  Fe  -0.1682034  -0.2619032  -0.2477266 SPIN=   4.00000
   O   0.0722307   0.4603968  -0.3137652 SPIN=   0.00000
   O   0.1221585   0.2559131   0.0195377 SPIN=   0.00000
   O   0.3183345   0.1110828  -0.3292911 SPIN=   0.00000
   O  -0.1243276   0.0882423  -0.2915569 SPIN=   0.00000
   S   0.0970990   0.2289088  -0.2287689 SPIN=   0.00000
   O   0.0722307  -0.4603968   0.3137652 SPIN=   0.00000
   O   0.1221585  -0.2559131  -0.0195377 SPIN=   0.00000
   O   0.3183345  -0.1110828   0.3292911 SPIN=   0.00000
   O  -0.1243276  -0.0882423   0.2915569 SPIN=   0.00000
   S   0.0970990  -0.2289088   0.2287689 SPIN=   0.00000
   F   0.4811560   0.2758365   0.2732791 SPIN=   0.00000
   F   0.4811560  -0.2758365  -0.2732791 SPIN=   0.00000
%ENDBLOCK POSITIONS_FRAC

# Note: total spin =   8.00

KPOINTS_MP_SPACING 0.07

%BLOCK SPECIES_POT
QC5
%ENDBLOCK SPECIES_POT

SNAP_TO_SYMMETRY
SYMMETRY_GENERATE

