#              Generated by Buildcell
#
# at 02:33:45 (GMT+1.0) 4th August 2020
# in /lustre/scratch/uccabz1/launch_tmp
# on node-c12d-028
# by uccabz1
#
# compiler GCC version 4.9.2
# options -cpp -iprefix /lustre/shared/ucl/apps/gcc/4.9.2/bin/../lib/gcc/x86_64-unknown-linux-gnu/4.9.2/ -mtune=corei7 -march=x86-64 -g -Og
#
# seed  1138227068  1742559525  1428039557  -782325165   607032423   429599446  2121783837  -879268186 -1034168290  2037336899 -1234258761  1621169759
#
#      Author: C. J. Pickard (cjp20@cam.ac.uk)
#                Space group: C2
#

%BLOCK LATTICE_ABC
      4.11959      7.14596      7.14596
     76.21848     80.74892     80.74892
%ENDBLOCK LATTICE_ABC

%BLOCK POSITIONS_FRAC
  Li   0.3947982  -0.0499575   0.4060928 SPIN=   0.00000
  Li  -0.3947982  -0.4060928   0.0499575 SPIN=   0.00000
  Fe  -0.5000000   0.0863181  -0.0863181 SPIN=   5.81315
  Fe   0.5000000  -0.4926282   0.4926282 SPIN=   2.18685
   O  -0.0469902   0.5161821   0.2820617 SPIN=   0.00000
   O   0.3624072   0.2272071   0.3731220 SPIN=   0.00000
   O   0.3312733   0.3817987   0.0265001 SPIN=   0.00000
   O  -0.1199548   0.2006509   0.2188650 SPIN=   0.00000
   S   0.1316839   0.3314597   0.2251372 SPIN=   0.00000
   O   0.0469902  -0.2820617  -0.5161821 SPIN=   0.00000
   O  -0.3624072  -0.3731220  -0.2272071 SPIN=   0.00000
   O  -0.3312733  -0.0265001  -0.3817987 SPIN=   0.00000
   O   0.1199548  -0.2188650  -0.2006509 SPIN=   0.00000
   S  -0.1316839  -0.2251372  -0.3314597 SPIN=   0.00000
   F  -0.5000000  -0.1531118   0.1531118 SPIN=   0.00000
   F   0.0000000   0.2365358  -0.2365358 SPIN=   0.00000
%ENDBLOCK POSITIONS_FRAC

# Note: total spin =   8.00

KPOINTS_MP_SPACING 0.07

%BLOCK SPECIES_POT
QC5
%ENDBLOCK SPECIES_POT

SNAP_TO_SYMMETRY
SYMMETRY_GENERATE

