#              Generated by Buildcell
#
# at 04:47:11 (GMT+1.0) 4th August 2020
# in /lustre/scratch/uccabz1/launch_tmp
# on node-c12f-033
# by uccabz1
#
# compiler GCC version 4.9.2
# options -cpp -iprefix /lustre/shared/ucl/apps/gcc/4.9.2/bin/../lib/gcc/x86_64-unknown-linux-gnu/4.9.2/ -mtune=corei7 -march=x86-64 -g -Og
#
# seed   141246096  1169397607  -459047486  1714136812  -594167940  -569386333    91446501   383328263  1293511365 -1730614498  -317035676   131253261
#
#      Author: C. J. Pickard (cjp20@cam.ac.uk)
#                Space group: Imm2
#

%BLOCK LATTICE_ABC
      6.30367      6.45673      6.45673
     74.32670     60.78111     60.78111
%ENDBLOCK LATTICE_ABC

%BLOCK POSITIONS_FRAC
  Li  -0.1733046  -0.3266954  -0.3266954 SPIN=   0.00000
  Li   0.3141733   0.1858267   0.1858267 SPIN=   0.00000
  Fe  -0.4296454   0.1916110  -0.3323202 SPIN=   4.00000
  Fe  -0.4296454   0.6676798   0.1916110 SPIN=   4.00000
   O   0.2073843   0.3272852  -0.3746086 SPIN=   0.00000
   O   0.4420812  -0.1093013  -0.4074025 SPIN=   0.00000
   O  -0.1600610  -0.3746086   0.3272852 SPIN=   0.00000
   O   0.0746226  -0.4074025  -0.1093013 SPIN=   0.00000
   O   0.2073843  -0.3746086   0.3272852 SPIN=   0.00000
   O   0.4420812  -0.4074025  -0.1093013 SPIN=   0.00000
   O  -0.1600610   0.3272852  -0.3746086 SPIN=   0.00000
   O   0.0746226  -0.1093013  -0.4074025 SPIN=   0.00000
   S   0.0723897  -0.3149820   0.1702027 SPIN=   0.00000
   S   0.0723897   0.1702027  -0.3149820 SPIN=   0.00000
   F  -0.4337344   0.9337344  -0.0662656 SPIN=   0.00000
   F  -0.2842913   0.2842913   0.2842913 SPIN=   0.00000
%ENDBLOCK POSITIONS_FRAC

# Note: total spin =   8.00

KPOINTS_MP_SPACING 0.07

%BLOCK SPECIES_POT
QC5
%ENDBLOCK SPECIES_POT

SNAP_TO_SYMMETRY
SYMMETRY_GENERATE

