#              Generated by Buildcell
#
# at 22:39:55 (GMT+1.0) 18th August 2020
# in /lustre/scratch/uccabz1/launch_tmp
# on node-c12c-006
# by uccabz1
#
# compiler GCC version 4.9.2
# options -cpp -iprefix /lustre/shared/ucl/apps/gcc/4.9.2/bin/../lib/gcc/x86_64-unknown-linux-gnu/4.9.2/ -mtune=corei7 -march=x86-64 -g -Og
#
# seed  1301552291  1265700947   143222417  -937247335 -1796063917  1612578656 -2127103158  2004058964  1773499517   -22528942  1841036604  1675928123
#
#      Author: C. J. Pickard (cjp20@cam.ac.uk)
#                Space group: P-1
#

%BLOCK LATTICE_ABC
      4.26560      5.69967      8.25945
     95.12419     90.35394     90.18375
%ENDBLOCK LATTICE_ABC

%BLOCK POSITIONS_FRAC
  Li  -0.4895521   0.1390073   0.2567785 SPIN=   0.00000
  Li   0.4895521  -0.1390073  -0.2567785 SPIN=   0.00000
  Fe   0.0000000   0.0000000   0.0000000 SPIN=   4.40283
  Fe  -0.0000000   1.0000000   0.5000000 SPIN=   3.59717
   O  -0.0749212   0.7415828   0.2875816 SPIN=   0.00000
   O  -0.0480680   0.3074948   0.2375824 SPIN=   0.00000
   O   0.4292685   0.5367883   0.3201023 SPIN=   0.00000
   S   0.1269175   0.5363357   0.2227358 SPIN=   0.00000
   O   0.0749212  -0.7415828  -0.2875816 SPIN=   0.00000
   O   0.0480680  -0.3074948  -0.2375824 SPIN=   0.00000
   O  -0.4292685  -0.5367883  -0.3201023 SPIN=   0.00000
   S  -0.1269175  -0.5363357  -0.2227358 SPIN=   0.00000
   O   0.0000000  -0.5000000  -0.5000000 SPIN=   0.00000
   O   0.5000000   0.5000000   0.0000000 SPIN=   0.00000
   F   0.5000000   0.0000000  -0.0000000 SPIN=   0.00000
   F   0.5000000  -0.0000000  -0.5000000 SPIN=   0.00000
%ENDBLOCK POSITIONS_FRAC

# Note: total spin =   8.00

KPOINTS_MP_SPACING 0.07

%BLOCK SPECIES_POT
QC5
%ENDBLOCK SPECIES_POT

SNAP_TO_SYMMETRY
SYMMETRY_GENERATE

