#              Generated by Buildcell
#
# at 03:22:56 (GMT+1.0) 4th August 2020
# in /lustre/scratch/uccabz1/launch_tmp
# on node-c12d-003
# by uccabz1
#
# compiler GCC version 4.9.2
# options -cpp -iprefix /lustre/shared/ucl/apps/gcc/4.9.2/bin/../lib/gcc/x86_64-unknown-linux-gnu/4.9.2/ -mtune=corei7 -march=x86-64 -g -Og
#
# seed   591060444   114559149   821294251   104185997  1177861768  1473013997  1383198420  -356069389  -732619700 -1181247659   998762449  -802870711
#
#      Author: C. J. Pickard (cjp20@cam.ac.uk)
#                Space group: P21
#

%BLOCK LATTICE_ABC
      5.75873      5.85781      6.25889
    108.69050     90.00000     90.00000
%ENDBLOCK LATTICE_ABC

%BLOCK POSITIONS_FRAC
  Li   0.1226492  -0.1738340  -0.2159169 SPIN=   0.00000
  Li  -0.3773508   0.1738340   0.2159169 SPIN=   0.00000
  Fe   0.3181973   0.2082475  -0.3866264 SPIN=   4.00000
  Fe  -0.1818027  -0.2082475   0.3866264 SPIN=   4.00000
   O  -0.2387957  -0.1738915   0.0537313 SPIN=   0.00000
   O  -0.4369887  -0.5061546  -0.2365235 SPIN=   0.00000
   O  -0.4433946  -0.0934077  -0.2624618 SPIN=   0.00000
   O  -0.6680991  -0.1874073   0.0359420 SPIN=   0.00000
   S  -0.4468195  -0.2402153  -0.1023280 SPIN=   0.00000
   O   0.2612043   0.1738915  -0.0537313 SPIN=   0.00000
   O   0.0630113   0.5061546   0.2365235 SPIN=   0.00000
   O   0.0566054   0.0934077   0.2624618 SPIN=   0.00000
   O  -0.1680991   0.1874073  -0.0359420 SPIN=   0.00000
   S   0.0531805   0.2402153   0.1023280 SPIN=   0.00000
   F   0.0525369   0.4755452  -0.3182866 SPIN=   0.00000
   F  -0.4474631  -0.4755452   0.3182866 SPIN=   0.00000
%ENDBLOCK POSITIONS_FRAC

# Note: total spin =   8.00

KPOINTS_MP_SPACING 0.07

%BLOCK SPECIES_POT
QC5
%ENDBLOCK SPECIES_POT

SNAP_TO_SYMMETRY
SYMMETRY_GENERATE

