#              Generated by Buildcell
#
# at 02:51:09 (GMT+1.0) 19th August 2020
# in /scratch/scratch/uccabz1/launch_tmp
# on node-k10e-014
# by uccabz1
#
# compiler GCC version 4.9.2
# options -cpp -iprefix /scratch/UCL/applications/gcc/4.9.2/bin/../lib/gcc/x86_64-unknown-linux-gnu/4.9.2/ -mtune=corei7 -march=x86-64 -g -O2
#
# seed -1412303839   786597752 -1939968268  1752717603  2132666624  -143862202  1013659920   802942152  -372220674   821395618  2041383748  2007597264
#
#      Author: C. J. Pickard (cjp20@cam.ac.uk)
#                Space group: Pmc21
#

%BLOCK LATTICE_ABC
      5.56683      5.94802      6.04017
     90.00000     90.00000     90.00000
%ENDBLOCK LATTICE_ABC

%BLOCK POSITIONS_FRAC
  Li  -0.1983442   0.2672286   0.5000000 SPIN=   0.00000
  Li   0.3016558  -0.2672286  -0.5000000 SPIN=   0.00000
  Fe   0.0412942   0.2161499   0.0000000 SPIN=   4.00000
  Fe  -0.4587058  -0.2161499   0.0000000 SPIN=   4.00000
   O  -0.3928351  -0.3444222   0.3070623 SPIN=   0.00000
   O  -0.5804830   0.0323787   0.2899110 SPIN=   0.00000
   O   0.1071649   0.3444222  -0.3070623 SPIN=   0.00000
   O  -0.0804830  -0.0323787  -0.2899110 SPIN=   0.00000
   O   0.1071649   0.3444222   0.3070623 SPIN=   0.00000
   O  -0.0804830  -0.0323787   0.2899110 SPIN=   0.00000
   O  -0.3928351  -0.3444222  -0.3070623 SPIN=   0.00000
   O  -0.5804830   0.0323787  -0.2899110 SPIN=   0.00000
   S  -0.2031295  -0.2725022  -0.5000000 SPIN=   0.00000
   S   0.2968705   0.2725022   0.5000000 SPIN=   0.00000
   F  -0.3352538   0.3183038   0.0000000 SPIN=   0.00000
   F   0.1647462  -0.3183038   0.0000000 SPIN=   0.00000
%ENDBLOCK POSITIONS_FRAC

# Note: total spin =   8.00

KPOINTS_MP_SPACING 0.07

%BLOCK SPECIES_POT
QC5
%ENDBLOCK SPECIES_POT

SNAP_TO_SYMMETRY
SYMMETRY_GENERATE

