#              Generated by Buildcell
#
# at 03:46:18 (GMT+1.0) 4th August 2020
# in /lustre/scratch/uccabz1/launch_tmp
# on node-c12g-014
# by uccabz1
#
# compiler GCC version 4.9.2
# options -cpp -iprefix /lustre/shared/ucl/apps/gcc/4.9.2/bin/../lib/gcc/x86_64-unknown-linux-gnu/4.9.2/ -mtune=corei7 -march=x86-64 -g -Og
#
# seed  1960072594   673875610 -1127694785  -322604014   -59687018  2074958445   344012602   406511814   917925262 -1323581036  -258891120 -1765298534
#
#      Author: C. J. Pickard (cjp20@cam.ac.uk)
#                Space group: P2
#

%BLOCK LATTICE_ABC
      3.92436      7.48771      7.60492
    116.49305     90.00000     90.00000
%ENDBLOCK LATTICE_ABC

%BLOCK POSITIONS_FRAC
  Li  -0.1845757  -0.3848248  -0.2111925 SPIN=   0.00000
  Li  -0.1845757   0.3848248   0.2111925 SPIN=   0.00000
  Fe   0.1740902  -0.2361172  -0.4690714 SPIN=   4.00000
  Fe   0.1740902   0.2361172   0.4690714 SPIN=   4.00000
   O   0.0173043   0.3500971  -0.1577565 SPIN=   0.00000
   O   0.3361406   0.3170182   0.1069739 SPIN=   0.00000
   O   0.5413691   0.1450719  -0.2363749 SPIN=   0.00000
   O   0.0168871   0.0286220  -0.1387769 SPIN=   0.00000
   S   0.2279253   0.2102023  -0.1064836 SPIN=   0.00000
   O   0.0173043  -0.3500971   0.1577565 SPIN=   0.00000
   O   0.3361406  -0.3170182  -0.1069739 SPIN=   0.00000
   O   0.5413691  -0.1450719   0.2363749 SPIN=   0.00000
   O   0.0168871  -0.0286220   0.1387769 SPIN=   0.00000
   S   0.2279253  -0.2102023   0.1064836 SPIN=   0.00000
   F  -0.3135132  -0.2522233  -0.4656425 SPIN=   0.00000
   F  -0.3135132   0.2522233   0.4656425 SPIN=   0.00000
%ENDBLOCK POSITIONS_FRAC

# Note: total spin =   8.00

KPOINTS_MP_SPACING 0.07

%BLOCK SPECIES_POT
QC5
%ENDBLOCK SPECIES_POT

SNAP_TO_SYMMETRY
SYMMETRY_GENERATE

