#              Generated by Buildcell
#
# at 22:49:58 (GMT+1.0) 18th August 2020
# in /lustre/scratch/uccabz1/launch_tmp
# on node-c12p-018
# by uccabz1
#
# compiler GCC version 4.9.2
# options -cpp -iprefix /lustre/shared/ucl/apps/gcc/4.9.2/bin/../lib/gcc/x86_64-unknown-linux-gnu/4.9.2/ -mtune=corei7 -march=x86-64 -g -Og
#
# seed  -349680160  1634241741 -2012934133  -518940074 -2098295946   663787267  -932149197  1220846397  1052723959    -2319914  1535194672   412499658
#
#      Author: C. J. Pickard (cjp20@cam.ac.uk)
#                Space group: Cc
#

%BLOCK LATTICE_ABC
      4.14678      4.14678     11.82162
     96.58282     96.58282     93.65647
%ENDBLOCK LATTICE_ABC

%BLOCK POSITIONS_FRAC
  Li   0.2760889  -0.1367786   0.0687842 SPIN=   0.00000
  Li   0.3632214  -0.2239111  -0.4312158 SPIN=   0.00000
  Fe  -0.2017395   0.3180783   0.4593913 SPIN=   4.00000
  Fe  -0.1819217   0.2982605  -0.0406087 SPIN=   4.00000
   O   0.5132206  -0.2007643   0.2349081 SPIN=   0.00000
   O  -0.0054375   0.0623763   0.2115390 SPIN=   0.00000
   O   0.3220041   0.1118154   0.4022460 SPIN=   0.00000
   O   0.0344528  -0.4172797   0.3176914 SPIN=   0.00000
   S   0.2160600  -0.1109631   0.2915961 SPIN=   0.00000
   O   0.2992357   0.0132206  -0.2650919 SPIN=   0.00000
   O   0.5623763  -0.5054375  -0.2884610 SPIN=   0.00000
   O   0.6118154  -0.1779959  -0.0977540 SPIN=   0.00000
   O   0.0827203  -0.4655472  -0.1823086 SPIN=   0.00000
   S   0.3890369  -0.2839400  -0.2084039 SPIN=   0.00000
   F  -0.1888623  -0.0402599  -0.4430793 SPIN=   0.00000
   F   0.4597401   0.3111377   0.0569207 SPIN=   0.00000
%ENDBLOCK POSITIONS_FRAC

# Note: total spin =   8.00

KPOINTS_MP_SPACING 0.07

%BLOCK SPECIES_POT
QC5
%ENDBLOCK SPECIES_POT

SNAP_TO_SYMMETRY
SYMMETRY_GENERATE

