#              Generated by Buildcell
#
# at 21:16:09 (GMT+1.0) 18th August 2020
# in /scratch/scratch/uccabz1/launch_tmp
# on node-k10h-032
# by uccabz1
#
# compiler GCC version 4.9.2
# options -cpp -iprefix /scratch/UCL/applications/gcc/4.9.2/bin/../lib/gcc/x86_64-unknown-linux-gnu/4.9.2/ -mtune=corei7 -march=x86-64 -g -O2
#
# seed  1334870977 -1584387704   213397819 -1435505417  1446054060  -653510485  -771972731   201969475 -1236532556 -1634791448  -913350555 -2069909270
#
#      Author: C. J. Pickard (cjp20@cam.ac.uk)
#                Space group: P2221
#

%BLOCK LATTICE_ABC
      5.07594      5.36751      7.34076
     90.00000     90.00000     90.00000
%ENDBLOCK LATTICE_ABC

%BLOCK POSITIONS_FRAC
  Li   0.5000000   0.1856946  -0.0000000 SPIN=   0.00000
  Li  -0.5000000  -0.1856946  -0.5000000 SPIN=   0.00000
  Fe  -0.0830618   0.0000000  -0.2500000 SPIN=   4.00000
  Fe   0.0830618   0.0000000   0.2500000 SPIN=   4.00000
   O   0.1823792   0.2517547   0.6129069 SPIN=   0.00000
   O   0.3709567   0.2927299   0.3034500 SPIN=   0.00000
   O  -0.1823792  -0.2517547   0.1129069 SPIN=   0.00000
   O  -0.3709567  -0.2927299  -0.1965500 SPIN=   0.00000
   O   0.1823792  -0.2517547  -0.1129069 SPIN=   0.00000
   O   0.3709567  -0.2927299   0.1965500 SPIN=   0.00000
   O  -0.1823792   0.2517547  -0.6129069 SPIN=   0.00000
   O  -0.3709567   0.2927299  -0.3034500 SPIN=   0.00000
   S   0.5000000  -0.3131027  -0.0000000 SPIN=   0.00000
   S   0.5000000   0.3131027  -0.5000000 SPIN=   0.00000
   F   0.0000000   0.1954960  -0.0000000 SPIN=   0.00000
   F   0.0000000  -0.1954960  -0.5000000 SPIN=   0.00000
%ENDBLOCK POSITIONS_FRAC

# Note: total spin =   8.00

KPOINTS_MP_SPACING 0.07

%BLOCK SPECIES_POT
QC5
%ENDBLOCK SPECIES_POT

SNAP_TO_SYMMETRY
SYMMETRY_GENERATE

