#              Generated by Buildcell
#
# at 04:51:04 (GMT+1.0) 4th August 2020
# in /lustre/scratch/uccabz1/launch_tmp
# on node-c12f-027
# by uccabz1
#
# compiler GCC version 4.9.2
# options -cpp -iprefix /lustre/shared/ucl/apps/gcc/4.9.2/bin/../lib/gcc/x86_64-unknown-linux-gnu/4.9.2/ -mtune=corei7 -march=x86-64 -g -Og
#
# seed  -982704721  -843829075  1540314469  1364605032   508683751  1370963985  -272321069 -1048626018 -1053988566  -266861399 -1161517005 -1807721512
#
#      Author: C. J. Pickard (cjp20@cam.ac.uk)
#                Space group: Cc
#

%BLOCK LATTICE_ABC
      5.43256      5.43256      7.18841
     76.17052     76.17052     85.82101
%ENDBLOCK LATTICE_ABC

%BLOCK POSITIONS_FRAC
  Li   0.4151580  -0.3710449   0.1170891 SPIN=   0.00000
  Li  -0.3710449   0.4151580  -0.3829109 SPIN=   0.00000
  Fe  -0.0555835  -0.1600960  -0.0214503 SPIN=   4.00000
  Fe  -0.1600960  -0.0555835   0.4785497 SPIN=   4.00000
   O   0.4664017  -0.1799480   0.3360257 SPIN=   0.00000
   O   0.6038061   0.1167561   0.0121937 SPIN=   0.00000
   O   0.4414408   0.2830496   0.3113685 SPIN=   0.00000
   O   0.1483564   0.0829407   0.1776207 SPIN=   0.00000
   S   0.4150013   0.0756996   0.2093022 SPIN=   0.00000
   O  -0.1799480   0.4664017  -0.1639743 SPIN=   0.00000
   O   0.1167561   0.6038061  -0.4878063 SPIN=   0.00000
   O   0.2830496   0.4414408  -0.1886315 SPIN=   0.00000
   O   0.0829407   0.1483564  -0.3223793 SPIN=   0.00000
   S   0.0756996   0.4150013  -0.2906978 SPIN=   0.00000
   F  -0.4361097  -0.0836771  -0.3074159 SPIN=   0.00000
   F  -0.0836771  -0.4361097   0.1925841 SPIN=   0.00000
%ENDBLOCK POSITIONS_FRAC

# Note: total spin =   8.00

KPOINTS_MP_SPACING 0.07

%BLOCK SPECIES_POT
QC5
%ENDBLOCK SPECIES_POT

SNAP_TO_SYMMETRY
SYMMETRY_GENERATE

