#              Generated by Buildcell
#
# at 03:24:16 (GMT+1.0) 4th August 2020
# in /lustre/scratch/uccabz1/launch_tmp
# on node-c12l-018
# by uccabz1
#
# compiler GCC version 4.9.2
# options -cpp -iprefix /lustre/shared/ucl/apps/gcc/4.9.2/bin/../lib/gcc/x86_64-unknown-linux-gnu/4.9.2/ -mtune=corei7 -march=x86-64 -g -Og
#
# seed  1691211711  -637430108  -671237577  1354204707   864335755  1037250873   691335657  1368422635 -1281450288 -1658527890   219348371 -1468000719
#
#      Author: C. J. Pickard (cjp20@cam.ac.uk)
#                Space group: Cc
#

%BLOCK LATTICE_ABC
      5.69179      6.38355      6.54812
    119.17206    103.65817     90.00000
%ENDBLOCK LATTICE_ABC

%BLOCK POSITIONS_FRAC
  Li   0.3571227   0.2580553   0.1937386 SPIN=   0.00000
  Li  -0.1428773  -0.0643167   0.1937386 SPIN=   0.00000
  Fe   0.2845042  -0.3130536  -0.0482696 SPIN=   4.00000
  Fe  -0.2154958   0.2647840  -0.0482696 SPIN=   4.00000
   O  -0.4859075  -0.2953934  -0.4101166 SPIN=   0.00000
   O  -0.0692759  -0.3060839  -0.1953024 SPIN=   0.00000
   O  -0.2755780  -0.6527465  -0.6007660 SPIN=   0.00000
   O  -0.4192675  -0.5719530  -0.2438382 SPIN=   0.00000
   S  -0.3125072  -0.4565442  -0.3625058 SPIN=   0.00000
   O   0.0140925  -0.1147232  -0.4101166 SPIN=   0.00000
   O   0.4307241   0.1107815  -0.1953024 SPIN=   0.00000
   O   0.2244220   0.0519804  -0.6007660 SPIN=   0.00000
   O   0.0807325   0.3281148  -0.2438382 SPIN=   0.00000
   S   0.1874928   0.0940384  -0.3625058 SPIN=   0.00000
   F  -0.4104357  -0.2114867   0.2330619 SPIN=   0.00000
   F   0.0895643   0.4445487   0.2330619 SPIN=   0.00000
%ENDBLOCK POSITIONS_FRAC

# Note: total spin =   8.00

KPOINTS_MP_SPACING 0.07

%BLOCK SPECIES_POT
QC5
%ENDBLOCK SPECIES_POT

SNAP_TO_SYMMETRY
SYMMETRY_GENERATE

