#              Generated by Buildcell
#
# at 02:20:29 (GMT+1.0) 4th August 2020
# in /lustre/scratch/uccabz1/launch_tmp
# on node-c12n-032
# by uccabz1
#
# compiler GCC version 4.9.2
# options -cpp -iprefix /lustre/shared/ucl/apps/gcc/4.9.2/bin/../lib/gcc/x86_64-unknown-linux-gnu/4.9.2/ -mtune=corei7 -march=x86-64 -g -Og
#
# seed    61403399  1922103998 -1771208831   374746563 -1258858604  1974512501  1941182756  -723388811   291421435  1543549789  1944914432  -298449310
#
#      Author: C. J. Pickard (cjp20@cam.ac.uk)
#                Space group: Cc
#

%BLOCK LATTICE_ABC
      5.42819      6.75794      6.75794
    100.99224    111.24855    111.24855
%ENDBLOCK LATTICE_ABC

%BLOCK POSITIONS_FRAC
  Li  -0.2154334   0.2705038  -0.4968790 SPIN=   0.00000
  Li  -0.7154334  -0.4968790   0.2705038 SPIN=   0.00000
  Fe   0.5677848   0.2044595  -0.1034552 SPIN=   4.00000
  Fe   0.0677848  -0.1034552   0.2044595 SPIN=   4.00000
   O  -0.8774929  -0.4125753  -0.3419826 SPIN=   0.00000
   O  -0.6987260  -0.1979008   0.0646752 SPIN=   0.00000
   O  -0.3605586  -0.2928168  -0.0527002 SPIN=   0.00000
   O  -0.7918240  -0.5985321  -0.0598663 SPIN=   0.00000
   S  -0.6821504  -0.3754562  -0.0974685 SPIN=   0.00000
   O  -0.3774929  -0.3419826  -0.4125753 SPIN=   0.00000
   O  -0.1987260   0.0646752  -0.1979008 SPIN=   0.00000
   O   0.1394414  -0.0527002  -0.2928168 SPIN=   0.00000
   O  -0.2918240  -0.0598663  -0.5985321 SPIN=   0.00000
   S  -0.1821504  -0.0974685  -0.3754562 SPIN=   0.00000
   F  -0.5897843   0.2262920  -0.4944627 SPIN=   0.00000
   F  -0.0897843  -0.4944627   0.2262920 SPIN=   0.00000
%ENDBLOCK POSITIONS_FRAC

# Note: total spin =   8.00

KPOINTS_MP_SPACING 0.07

%BLOCK SPECIES_POT
QC5
%ENDBLOCK SPECIES_POT

SNAP_TO_SYMMETRY
SYMMETRY_GENERATE

