#              Generated by Buildcell
#
# at 00:54:20 (GMT+1.0) 19th August 2020
# in /lustre/scratch/uccabz1/launch_tmp
# on node-c12o-016
# by uccabz1
#
# compiler GCC version 4.9.2
# options -cpp -iprefix /lustre/shared/ucl/apps/gcc/4.9.2/bin/../lib/gcc/x86_64-unknown-linux-gnu/4.9.2/ -mtune=corei7 -march=x86-64 -g -Og
#
# seed  1038825566  -652592513 -1921860469 -1460583329  -393916328 -1042845844  1747530135  1286306396 -1624951606  -597028843  1993871468  1265426744
#
#      Author: C. J. Pickard (cjp20@cam.ac.uk)
#                Space group: P2
#

%BLOCK LATTICE_ABC
      3.97420      6.68981      7.67283
     90.00000    101.35787     90.00000
%ENDBLOCK LATTICE_ABC

%BLOCK POSITIONS_FRAC
  Li   0.5000000  -0.3533583  -0.5000000 SPIN=   0.00000
  Li  -0.0000000  -0.2980449  -0.0000000 SPIN=   0.00000
  Fe   0.0000000   0.3304309   0.5000000 SPIN=   4.05870
  Fe  -0.5000000   0.3329316   0.0000000 SPIN=   3.94130
   O  -0.1430300   0.0604888   0.1115190 SPIN=   0.00000
   O  -0.4506058   0.0355930   0.3615195 SPIN=   0.00000
   O   0.0806552  -0.1594861   0.3674701 SPIN=   0.00000
   O  -0.4524917  -0.2503617   0.1566867 SPIN=   0.00000
   S  -0.2413681  -0.0784415   0.2492988 SPIN=   0.00000
   O   0.1430300   0.0604888  -0.1115190 SPIN=   0.00000
   O   0.4506058   0.0355930  -0.3615195 SPIN=   0.00000
   O  -0.0806552  -0.1594861  -0.3674701 SPIN=   0.00000
   O   0.4524917  -0.2503617  -0.1566867 SPIN=   0.00000
   S   0.2413681  -0.0784415  -0.2492988 SPIN=   0.00000
   F  -0.2767079   0.4082330  -0.2326414 SPIN=   0.00000
   F   0.2767079   0.4082330   0.2326414 SPIN=   0.00000
%ENDBLOCK POSITIONS_FRAC

# Note: total spin =   8.00

KPOINTS_MP_SPACING 0.07

%BLOCK SPECIES_POT
QC5
%ENDBLOCK SPECIES_POT

SNAP_TO_SYMMETRY
SYMMETRY_GENERATE

