#              Generated by Buildcell
#
# at 18:14:55 (GMT+1.0) 18th August 2020
# in /lustre/scratch/uccabz1/launch_tmp
# on node-c12i-005
# by uccabz1
#
# compiler GCC version 4.9.2
# options -cpp -iprefix /lustre/shared/ucl/apps/gcc/4.9.2/bin/../lib/gcc/x86_64-unknown-linux-gnu/4.9.2/ -mtune=corei7 -march=x86-64 -g -Og
#
# seed   822744726   152777328 -1618039196  -297266555 -1409849873  1167704582  1790689594   217886576  1012729842  1323751360   569255757  1493908798
#
#      Author: C. J. Pickard (cjp20@cam.ac.uk)
#                Space group: P-1
#

%BLOCK LATTICE_ABC
      5.68923      5.74677      6.29312
     86.12689     88.25641     77.00504
%ENDBLOCK LATTICE_ABC

%BLOCK POSITIONS_FRAC
  Li   0.2120132  -0.2955582   0.3527352 SPIN=   0.00000
  Li  -0.2120132   0.2955582  -0.3527352 SPIN=   0.00000
  Fe  -0.2426261  -0.4359512   0.2132629 SPIN=   4.00000
  Fe   0.2426261   0.4359512  -0.2132629 SPIN=   4.00000
   O  -0.5208738   0.0901836  -0.2346588 SPIN=   0.00000
   O  -0.4720137  -0.2910494  -0.4097595 SPIN=   0.00000
   O  -0.1665073  -0.2399969  -0.1557052 SPIN=   0.00000
   O  -0.2005801  -0.0183906  -0.5086177 SPIN=   0.00000
   O   0.5208738  -0.0901836   0.2346588 SPIN=   0.00000
   O   0.4720137   0.2910494   0.4097595 SPIN=   0.00000
   O   0.1665073   0.2399969   0.1557052 SPIN=   0.00000
   O   0.2005801   0.0183906   0.5086177 SPIN=   0.00000
   S  -0.5000000   0.0000000  -0.5000000 SPIN=   0.00000
   S  -0.0000000  -0.0000000  -0.0000000 SPIN=   0.00000
   F  -0.5000000   0.5000000  -0.0000000 SPIN=   0.00000
   F   0.0000000   0.5000000  -0.5000000 SPIN=   0.00000
%ENDBLOCK POSITIONS_FRAC

# Note: total spin =   8.00

KPOINTS_MP_SPACING 0.07

%BLOCK SPECIES_POT
QC5
%ENDBLOCK SPECIES_POT

SNAP_TO_SYMMETRY
SYMMETRY_GENERATE

