#              Generated by Buildcell
#
# at 05:19:13 (GMT+1.0) 4th August 2020
# in /lustre/scratch/uccabz1/launch_tmp
# on node-c12f-030
# by uccabz1
#
# compiler GCC version 4.9.2
# options -cpp -iprefix /lustre/shared/ucl/apps/gcc/4.9.2/bin/../lib/gcc/x86_64-unknown-linux-gnu/4.9.2/ -mtune=corei7 -march=x86-64 -g -Og
#
# seed -1676969468 -1160652199   811981123 -1649239011  -302082337  2129987822  1947201675  -949111008   213413476  1867491180  -369745416   -66016168
#
#      Author: C. J. Pickard (cjp20@cam.ac.uk)
#                Space group: Pc
#

%BLOCK LATTICE_ABC
      4.71331      5.90331      7.18976
     90.00000     90.00000     91.26271
%ENDBLOCK LATTICE_ABC

%BLOCK POSITIONS_FRAC
  Li   0.3533093   0.4281700   0.4139834 SPIN=   0.00000
  Li  -0.1466907  -0.0718300  -0.4139834 SPIN=   0.00000
  Fe  -0.1609905   0.4266262  -0.3075585 SPIN=   4.00000
  Fe   0.3390095  -0.0733738   0.3075585 SPIN=   4.00000
   O   0.0222133  -0.2089918  -0.1358462 SPIN=   0.00000
   O  -0.4971920  -0.2743703  -0.1141129 SPIN=   0.00000
   O  -0.2986460   0.1170142  -0.1251655 SPIN=   0.00000
   O  -0.2310814  -0.1185275   0.1554538 SPIN=   0.00000
   S  -0.2511765  -0.1212188  -0.0549177 SPIN=   0.00000
   O   0.5222133   0.2910082   0.1358462 SPIN=   0.00000
   O   0.0028080   0.2256297   0.1141129 SPIN=   0.00000
   O   0.2013540   0.6170142   0.1251655 SPIN=   0.00000
   O   0.2689186   0.3814725  -0.1554538 SPIN=   0.00000
   S   0.2488235   0.3787812   0.0549177 SPIN=   0.00000
   F  -0.2337995  -0.4560933   0.4183944 SPIN=   0.00000
   F   0.2662005   0.0439067  -0.4183944 SPIN=   0.00000
%ENDBLOCK POSITIONS_FRAC

# Note: total spin =   8.00

KPOINTS_MP_SPACING 0.07

%BLOCK SPECIES_POT
QC5
%ENDBLOCK SPECIES_POT

SNAP_TO_SYMMETRY
SYMMETRY_GENERATE

