#              Generated by Buildcell
#
# at 01:33:55 (GMT+1.0) 19th August 2020
# in /lustre/scratch/uccabz1/launch_tmp
# on node-c12c-009
# by uccabz1
#
# compiler GCC version 4.9.2
# options -cpp -iprefix /lustre/shared/ucl/apps/gcc/4.9.2/bin/../lib/gcc/x86_64-unknown-linux-gnu/4.9.2/ -mtune=corei7 -march=x86-64 -g -Og
#
# seed  1465670941 -1323567358   676568504  -120329871   406648739  1860124814   458887137  -962260008  1809724632    53233788  -569058967 -2029196495
#
#      Author: C. J. Pickard (cjp20@cam.ac.uk)
#                Space group: Cm
#

%BLOCK LATTICE_ABC
      5.73141      5.73141      6.10571
     93.03578     93.03578     90.21831
%ENDBLOCK LATTICE_ABC

%BLOCK POSITIONS_FRAC
  Li  -0.4001385  -0.4001385   0.0062443 SPIN=   0.00000
  Li   0.1242506   0.1242506  -0.3946101 SPIN=   0.00000
  Fe  -0.3620479   0.0892729  -0.1646138 SPIN=   4.00000
  Fe   0.0892729  -0.3620479  -0.1646138 SPIN=   4.00000
   O  -0.5057394   0.2097465   0.5044129 SPIN=   0.00000
   O  -0.4029244  -0.1184067   0.2482689 SPIN=   0.00000
   O  -0.1048738   0.1796261   0.3739730 SPIN=   0.00000
   O  -0.4330386   0.2824698   0.1178542 SPIN=   0.00000
   O   0.2097465  -0.5057394   0.5044129 SPIN=   0.00000
   O  -0.1184067  -0.4029244   0.2482689 SPIN=   0.00000
   O   0.1796261  -0.1048738   0.3739730 SPIN=   0.00000
   O   0.2824698  -0.4330386   0.1178542 SPIN=   0.00000
   S  -0.1932340  -0.1932340   0.3775087 SPIN=   0.00000
   S   0.2868879   0.2868879   0.2322763 SPIN=   0.00000
   F   0.3642509  -0.1357537  -0.2061536 SPIN=   0.00000
   F  -0.1357537   0.3642509  -0.2061536 SPIN=   0.00000
%ENDBLOCK POSITIONS_FRAC

# Note: total spin =   8.00

KPOINTS_MP_SPACING 0.07

%BLOCK SPECIES_POT
QC5
%ENDBLOCK SPECIES_POT

SNAP_TO_SYMMETRY
SYMMETRY_GENERATE

