#              Generated by Buildcell
#
# at 03:43:27 (GMT+1.0) 4th August 2020
# in /lustre/scratch/uccabz1/launch_tmp
# on node-c12m-029
# by uccabz1
#
# compiler GCC version 4.9.2
# options -cpp -iprefix /lustre/shared/ucl/apps/gcc/4.9.2/bin/../lib/gcc/x86_64-unknown-linux-gnu/4.9.2/ -mtune=corei7 -march=x86-64 -g -Og
#
# seed   678570130   685727685  1620206027   238959816  -886202361  1393182126 -1960442329  1206335017 -1903785609  1770349795  -492446099  -790523032
#
#      Author: C. J. Pickard (cjp20@cam.ac.uk)
#                Space group: P-1
#

%BLOCK LATTICE_ABC
      3.90052      7.03471      7.56912
     98.62677     92.31880    102.37624
%ENDBLOCK LATTICE_ABC

%BLOCK POSITIONS_FRAC
  Li  -0.0441524  -0.1291745  -0.2798927 SPIN=   0.00000
  Li   0.0441524   0.1291745   0.2798927 SPIN=   0.00000
  Fe   0.4054053  -0.1978227   0.1445308 SPIN=   4.00000
  Fe  -0.4054053   0.1978227  -0.1445308 SPIN=   4.00000
   O  -0.5351359  -0.5918968  -0.3804284 SPIN=   0.00000
   O  -0.5829471  -0.2440005  -0.3574099 SPIN=   0.00000
   O  -0.4620925  -0.3791504  -0.0836166 SPIN=   0.00000
   S  -0.6573572  -0.4256437  -0.2675873 SPIN=   0.00000
   O   0.5351359   0.5918968   0.3804284 SPIN=   0.00000
   O   0.5829471   0.2440005   0.3574099 SPIN=   0.00000
   O   0.4620925   0.3791504   0.0836166 SPIN=   0.00000
   S   0.6573572   0.4256437   0.2675873 SPIN=   0.00000
   O   0.0000000  -0.5000000  -0.5000000 SPIN=   0.00000
   O   0.0000000  -0.5000000   0.0000000 SPIN=   0.00000
   F   0.0000000   0.0000000  -0.5000000 SPIN=   0.00000
   F   0.0000000   0.0000000   0.0000000 SPIN=   0.00000
%ENDBLOCK POSITIONS_FRAC

# Note: total spin =   8.00

KPOINTS_MP_SPACING 0.07

%BLOCK SPECIES_POT
QC5
%ENDBLOCK SPECIES_POT

SNAP_TO_SYMMETRY
SYMMETRY_GENERATE

