#              Generated by Buildcell
#
# at 17:36:46 (GMT+1.0) 18th August 2020
# in /lustre/scratch/uccabz1/launch_tmp
# on node-c12f-027
# by uccabz1
#
# compiler GCC version 4.9.2
# options -cpp -iprefix /lustre/shared/ucl/apps/gcc/4.9.2/bin/../lib/gcc/x86_64-unknown-linux-gnu/4.9.2/ -mtune=corei7 -march=x86-64 -g -Og
#
# seed  -870416464 -2093947573   791217189    74483307  1948154049  -492566420  -858038942   152065139   246486037 -1672079221   -29359652 -2068262867
#
#      Author: C. J. Pickard (cjp20@cam.ac.uk)
#                Space group: P21
#

%BLOCK LATTICE_ABC
      3.90505      4.71924     11.02872
    100.25538     90.00000     90.00000
%ENDBLOCK LATTICE_ABC

%BLOCK POSITIONS_FRAC
  Li   0.4041514  -0.4117513   0.3523786 SPIN=   0.00000
  Li  -0.0958486   0.4117513  -0.3523786 SPIN=   0.00000
  Fe   0.4041518  -0.1244314  -0.3782729 SPIN=   4.00000
  Fe  -0.0958482   0.1244314   0.3782729 SPIN=   4.00000
   O  -0.2384381   0.3955000  -0.0522348 SPIN=   0.00000
   O   0.2752341   0.3566944  -0.1856087 SPIN=   0.00000
   O  -0.2144652   0.0266859  -0.2420960 SPIN=   0.00000
   O   0.1497339  -0.0228983  -0.0634151 SPIN=   0.00000
   S  -0.0069838   0.1889955  -0.1358386 SPIN=   0.00000
   O   0.2615619  -0.3955000   0.0522348 SPIN=   0.00000
   O   0.7752341  -0.3566944   0.1856087 SPIN=   0.00000
   O   0.2855348  -0.0266859   0.2420960 SPIN=   0.00000
   O   0.6497339   0.0228983   0.0634151 SPIN=   0.00000
   S   0.4930162  -0.1889955   0.1358386 SPIN=   0.00000
   F   0.4190018   0.2848491  -0.4183511 SPIN=   0.00000
   F  -0.0809982  -0.2848491   0.4183511 SPIN=   0.00000
%ENDBLOCK POSITIONS_FRAC

# Note: total spin =   8.00

KPOINTS_MP_SPACING 0.07

%BLOCK SPECIES_POT
QC5
%ENDBLOCK SPECIES_POT

SNAP_TO_SYMMETRY
SYMMETRY_GENERATE

