#              Generated by Buildcell
#
# at 23:15:09 (GMT+1.0) 18th August 2020
# in /lustre/scratch/uccabz1/launch_tmp
# on node-c12a-021
# by uccabz1
#
# compiler GCC version 4.9.2
# options -cpp -iprefix /lustre/shared/ucl/apps/gcc/4.9.2/bin/../lib/gcc/x86_64-unknown-linux-gnu/4.9.2/ -mtune=corei7 -march=x86-64 -g -Og
#
# seed  1926750651  -716854309   970776626  2014557046 -1089428410   364063913 -1706351470  1609209014   673555352 -2064870127   562906278 -1746048577
#
#      Author: C. J. Pickard (cjp20@cam.ac.uk)
#                Space group: Iba2
#

%BLOCK LATTICE_ABC
      5.95190      6.01338      7.00872
    115.40365    115.12576     90.00000
%ENDBLOCK LATTICE_ABC

%BLOCK POSITIONS_FRAC
  Li   0.3145726  -0.1854274  -0.3708548 SPIN=   0.00000
  Li  -0.1854274   0.3145726  -0.3708548 SPIN=   0.00000
  Fe   0.1807809   0.1807809   0.3615618 SPIN=   4.00000
  Fe  -0.3192191  -0.3192191   0.3615618 SPIN=   4.00000
   O   0.5436384   0.0202683   0.3449103 SPIN=   0.00000
   O   0.3331607   0.1592153   0.0388369 SPIN=   0.00000
   O  -0.1987281   0.3246420   0.3449103 SPIN=   0.00000
   O  -0.2943239  -0.1203784   0.0388369 SPIN=   0.00000
   O   0.0436384  -0.1753580   0.3449103 SPIN=   0.00000
   O  -0.1668393  -0.6203784   0.0388369 SPIN=   0.00000
   O   0.3012719  -0.4797317   0.3449103 SPIN=   0.00000
   O   0.2056761  -0.3407847   0.0388369 SPIN=   0.00000
   S  -0.4354284   0.0645716   0.1291433 SPIN=   0.00000
   S   0.0645716  -0.4354284   0.1291433 SPIN=   0.00000
   F  -0.1256499  -0.1256499  -0.2512998 SPIN=   0.00000
   F   0.3743501   0.3743501  -0.2512998 SPIN=   0.00000
%ENDBLOCK POSITIONS_FRAC

# Note: total spin =   8.00

KPOINTS_MP_SPACING 0.07

%BLOCK SPECIES_POT
QC5
%ENDBLOCK SPECIES_POT

SNAP_TO_SYMMETRY
SYMMETRY_GENERATE

