#              Generated by Buildcell
#
# at 18:56:00 (GMT+1.0) 18th August 2020
# in /lustre/scratch/uccabz1/launch_tmp
# on node-c12j-002
# by uccabz1
#
# compiler GCC version 4.9.2
# options -cpp -iprefix /lustre/shared/ucl/apps/gcc/4.9.2/bin/../lib/gcc/x86_64-unknown-linux-gnu/4.9.2/ -mtune=corei7 -march=x86-64 -g -Og
#
# seed   500266107  1555343110   807503345   897644665 -1775765585 -1022476904 -1900875439 -1480370238    96081958  -956068256 -1634678915 -1291599533
#
#      Author: C. J. Pickard (cjp20@cam.ac.uk)
#                Space group: I222
#

%BLOCK LATTICE_ABC
      4.60913      7.24756      7.24756
     62.90408     71.45931     71.45931
%ENDBLOCK LATTICE_ABC

%BLOCK POSITIONS_FRAC
  Li  -0.3268686   0.8268686  -0.1731314 SPIN=   0.00000
  Li   0.3268686  -0.8268686   0.1731314 SPIN=   0.00000
  Fe  -0.0000000  -0.0000000   0.0000000 SPIN=   7.93636
  Fe  -0.0000000  -0.5000000   0.5000000 SPIN=   0.06364
   O   0.1490430  -0.5240222   0.0686938 SPIN=   0.00000
   O  -0.4026015  -0.4481375   0.2487843 SPIN=   0.00000
   O   0.3062854   0.0686938  -0.5240222 SPIN=   0.00000
   O   0.6019547   0.2487843  -0.4481375 SPIN=   0.00000
   O  -0.1490430  -0.0686938   0.5240222 SPIN=   0.00000
   O   0.4026015  -0.2487843   0.4481375 SPIN=   0.00000
   O  -0.3062854   0.5240222  -0.0686938 SPIN=   0.00000
   O  -0.6019547   0.4481375  -0.2487843 SPIN=   0.00000
   S   0.2905779  -0.2905779  -0.2905779 SPIN=   0.00000
   S  -0.2905779   0.2905779   0.2905779 SPIN=   0.00000
   F   0.0000000  -0.2499776   0.2499776 SPIN=   0.00000
   F   0.0000000   0.2499776  -0.2499776 SPIN=   0.00000
%ENDBLOCK POSITIONS_FRAC

# Note: total spin =   8.00

KPOINTS_MP_SPACING 0.07

%BLOCK SPECIES_POT
QC5
%ENDBLOCK SPECIES_POT

SNAP_TO_SYMMETRY
SYMMETRY_GENERATE

