#              Generated by Buildcell
#
# at 02:30:40 (GMT+1.0) 19th August 2020
# in /lustre/scratch/uccabz1/launch_tmp
# on node-c12n-023
# by uccabz1
#
# compiler GCC version 4.9.2
# options -cpp -iprefix /lustre/shared/ucl/apps/gcc/4.9.2/bin/../lib/gcc/x86_64-unknown-linux-gnu/4.9.2/ -mtune=corei7 -march=x86-64 -g -Og
#
# seed  1248353647  -194088625  -433322258 -1927949403  2026179297  1534362229  1875499854 -1316688510   -35406718  1022042226   339558261  1081365544
#
#      Author: C. J. Pickard (cjp20@cam.ac.uk)
#                Space group: Pc
#

%BLOCK LATTICE_ABC
      4.05215      5.96944      8.27369
     90.00000     90.00000     92.08669
%ENDBLOCK LATTICE_ABC

%BLOCK POSITIONS_FRAC
  Li   0.1052122  -0.1527588  -0.1105937 SPIN=   0.00000
  Li   0.1052122   0.3472412   0.1105937 SPIN=   0.00000
  Fe  -0.3977580  -0.1969945  -0.3702358 SPIN=   4.00000
  Fe   0.6022420   0.3030055   0.3702358 SPIN=   4.00000
   O   0.4580379  -0.3770272   0.3025195 SPIN=   0.00000
   O   0.1482203  -0.0279595   0.3180144 SPIN=   0.00000
   O  -0.0699488  -0.3727033   0.4526516 SPIN=   0.00000
   O  -0.0688153  -0.3473093   0.1540866 SPIN=   0.00000
   S   0.1168735  -0.2812498   0.3068180 SPIN=   0.00000
   O   0.4580379   0.1229728  -0.3025195 SPIN=   0.00000
   O   0.1482203   0.4720405  -0.3180144 SPIN=   0.00000
   O  -0.0699488   0.1272967  -0.4526516 SPIN=   0.00000
   O  -0.0688153   0.1526907  -0.1540866 SPIN=   0.00000
   S   0.1168735   0.2187502  -0.3068180 SPIN=   0.00000
   F  -0.3545859  -0.3036151  -0.1460705 SPIN=   0.00000
   F   0.6454141   0.1963849   0.1460705 SPIN=   0.00000
%ENDBLOCK POSITIONS_FRAC

# Note: total spin =   8.00

KPOINTS_MP_SPACING 0.07

%BLOCK SPECIES_POT
QC5
%ENDBLOCK SPECIES_POT

SNAP_TO_SYMMETRY
SYMMETRY_GENERATE

