#              Generated by Buildcell
#
# at 18:03:31 (GMT+1.0) 18th August 2020
# in /lustre/scratch/uccabz1/launch_tmp
# on node-c12l-020
# by uccabz1
#
# compiler GCC version 4.9.2
# options -cpp -iprefix /lustre/shared/ucl/apps/gcc/4.9.2/bin/../lib/gcc/x86_64-unknown-linux-gnu/4.9.2/ -mtune=corei7 -march=x86-64 -g -Og
#
# seed -1430095938   212765205  1536441701  1479915844 -1311102411  1863688356  -145383314   667011687 -1875649479   606925614  -305988339  1603891609
#
#      Author: C. J. Pickard (cjp20@cam.ac.uk)
#                Space group: P-1
#

%BLOCK LATTICE_ABC
      3.92640      7.15959      7.78587
     69.66915     80.45107     78.49749
%ENDBLOCK LATTICE_ABC

%BLOCK POSITIONS_FRAC
  Li   0.1515124   0.4719930   0.2711769 SPIN=   0.00000
  Li  -0.1515124  -0.4719930  -0.2711769 SPIN=   0.00000
  Fe  -0.3517195   0.1885209  -0.4385059 SPIN=   4.00000
  Fe   0.3517195  -0.1885209   0.4385059 SPIN=   4.00000
   O   0.2200968  -0.1273530   0.0182794 SPIN=   0.00000
   O   0.7467192  -0.2336513  -0.1690441 SPIN=   0.00000
   O   0.1950614  -0.0774895  -0.3105179 SPIN=   0.00000
   O   0.2454336  -0.4215032  -0.0835838 SPIN=   0.00000
   S   0.3518277  -0.2149993  -0.1362166 SPIN=   0.00000
   O  -0.2200968   0.1273530  -0.0182794 SPIN=   0.00000
   O  -0.7467192   0.2336513   0.1690441 SPIN=   0.00000
   O  -0.1950614   0.0774895   0.3105179 SPIN=   0.00000
   O  -0.2454336   0.4215032   0.0835838 SPIN=   0.00000
   S  -0.3518277   0.2149993   0.1362166 SPIN=   0.00000
   F   0.2438433   0.3324900  -0.2844367 SPIN=   0.00000
   F  -0.2438433  -0.3324900   0.2844367 SPIN=   0.00000
%ENDBLOCK POSITIONS_FRAC

# Note: total spin =   8.00

KPOINTS_MP_SPACING 0.07

%BLOCK SPECIES_POT
QC5
%ENDBLOCK SPECIES_POT

SNAP_TO_SYMMETRY
SYMMETRY_GENERATE

