#              Generated by Buildcell
#
# at 05:28:04 (GMT+1.0) 4th August 2020
# in /lustre/scratch/uccabz1/launch_tmp
# on node-c12k-005
# by uccabz1
#
# compiler GCC version 4.9.2
# options -cpp -iprefix /lustre/shared/ucl/apps/gcc/4.9.2/bin/../lib/gcc/x86_64-unknown-linux-gnu/4.9.2/ -mtune=corei7 -march=x86-64 -g -Og
#
# seed   199541961   -94148590   914800172  1797163963 -1191871393   727574035 -1342270780   150888209 -1733198295  -446266491  -687451257 -1430860020
#
#      Author: C. J. Pickard (cjp20@cam.ac.uk)
#                Space group: C2
#

%BLOCK LATTICE_ABC
      5.89953      6.24798      6.72620
    110.82303     90.00000    118.17169
%ENDBLOCK LATTICE_ABC

%BLOCK POSITIONS_FRAC
  Li   0.3710518  -0.3828767   0.2243022 SPIN=   0.00000
  Li  -0.2460715   0.3828767  -0.2243022 SPIN=   0.00000
  Fe  -0.3810629  -0.1866551  -0.2977536 SPIN=   4.00000
  Fe  -0.1944078   0.1866551   0.2977536 SPIN=   4.00000
   O   0.0575089   0.2021633  -0.0479611 SPIN=   0.00000
   O   0.4277934   0.5857085  -0.0894454 SPIN=   0.00000
   O   0.0455607   0.2576864  -0.3935495 SPIN=   0.00000
   O   0.3546395   0.1336487  -0.2902783 SPIN=   0.00000
   S   0.2213756   0.2948017  -0.2053086 SPIN=   0.00000
   O  -0.1446544  -0.2021633   0.0479611 SPIN=   0.00000
   O  -0.1579152  -0.5857085   0.0894454 SPIN=   0.00000
   O  -0.2121257  -0.2576864   0.3935495 SPIN=   0.00000
   O   0.2209908  -0.1336487   0.2902783 SPIN=   0.00000
   S  -0.0734261  -0.2948017   0.2053086 SPIN=   0.00000
   F   0.3285488   0.3604074   0.3162015 SPIN=   0.00000
   F  -0.0318586  -0.3604074  -0.3162015 SPIN=   0.00000
%ENDBLOCK POSITIONS_FRAC

# Note: total spin =   8.00

KPOINTS_MP_SPACING 0.07

%BLOCK SPECIES_POT
QC5
%ENDBLOCK SPECIES_POT

SNAP_TO_SYMMETRY
SYMMETRY_GENERATE

