#              Generated by Buildcell
#
# at 18:18:23 (GMT+1.0) 18th August 2020
# in /lustre/scratch/uccabz1/launch_tmp
# on node-c12k-010
# by uccabz1
#
# compiler GCC version 4.9.2
# options -cpp -iprefix /lustre/shared/ucl/apps/gcc/4.9.2/bin/../lib/gcc/x86_64-unknown-linux-gnu/4.9.2/ -mtune=corei7 -march=x86-64 -g -Og
#
# seed -1573703293  1902271733 -1468237762   599339979  -287061321 -1440206846 -1862834697    -4253417  -632480293  -495124862   960204646   -68344175
#
#      Author: C. J. Pickard (cjp20@cam.ac.uk)
#                Space group: Pc
#

%BLOCK LATTICE_ABC
      4.90295      6.18813      6.66201
     98.31726     90.00000     90.00000
%ENDBLOCK LATTICE_ABC

%BLOCK POSITIONS_FRAC
  Li   0.2725841  -0.3460850   0.2047633 SPIN=   0.00000
  Li  -0.2725841   0.1539150  -0.2952367 SPIN=   0.00000
  Fe  -0.2579212   0.4047466   0.3500939 SPIN=   4.00000
  Fe   0.2579212  -0.0952534  -0.1499061 SPIN=   4.00000
   O  -0.0547882   0.0083065   0.3896717 SPIN=   0.00000
   O  -0.0985193  -0.0236196   0.0164531 SPIN=   0.00000
   O  -0.5004048  -0.0858279   0.2254793 SPIN=   0.00000
   O  -0.1231667  -0.3543408   0.1848097 SPIN=   0.00000
   S  -0.1942198  -0.1138705   0.2041034 SPIN=   0.00000
   O   0.0547882   0.5083065  -0.1103283 SPIN=   0.00000
   O   0.0985193   0.4763804  -0.4835469 SPIN=   0.00000
   O   0.5004048   0.4141721  -0.2745207 SPIN=   0.00000
   O   0.1231667   0.1456592  -0.3151903 SPIN=   0.00000
   S   0.1942198   0.3861295  -0.2958966 SPIN=   0.00000
   F   0.3592017   0.3169452   0.1941412 SPIN=   0.00000
   F  -0.3592017  -0.1830548  -0.3058588 SPIN=   0.00000
%ENDBLOCK POSITIONS_FRAC

# Note: total spin =   8.00

KPOINTS_MP_SPACING 0.07

%BLOCK SPECIES_POT
QC5
%ENDBLOCK SPECIES_POT

SNAP_TO_SYMMETRY
SYMMETRY_GENERATE

