#              Generated by Buildcell
#
# at 03:41:13 (GMT+1.0) 4th August 2020
# in /lustre/scratch/uccabz1/launch_tmp
# on node-c12n-035
# by uccabz1
#
# compiler GCC version 4.9.2
# options -cpp -iprefix /lustre/shared/ucl/apps/gcc/4.9.2/bin/../lib/gcc/x86_64-unknown-linux-gnu/4.9.2/ -mtune=corei7 -march=x86-64 -g -Og
#
# seed -1291684740   964165301 -1201749975  1976666709   186199903 -1339892472  -108397768  1058727177  1996931786 -1776670951   152666484  -560103085
#
#      Author: C. J. Pickard (cjp20@cam.ac.uk)
#                Space group: P-1
#

%BLOCK LATTICE_ABC
      5.38486      5.44850      7.27553
     99.18180    107.86168     91.24426
%ENDBLOCK LATTICE_ABC

%BLOCK POSITIONS_FRAC
  Li   0.0000000   0.0000000  -0.5000000 SPIN=   0.00000
  Li  -0.5000000  -0.5000000  -0.5000000 SPIN=   0.00000
  Fe   0.1296905  -0.5378164  -0.2062150 SPIN=   4.00000
  Fe  -0.1296905   0.5378164   0.2062150 SPIN=   4.00000
   O  -0.0934599   0.0731891   0.2161054 SPIN=   0.00000
   O   0.3286863   0.1029169   0.1488357 SPIN=   0.00000
   O   0.0382767  -0.2855158   0.0212826 SPIN=   0.00000
   O   0.2698526  -0.1680365   0.3771774 SPIN=   0.00000
   O   0.0934599  -0.0731891  -0.2161054 SPIN=   0.00000
   O  -0.3286863  -0.1029169  -0.1488357 SPIN=   0.00000
   O  -0.0382767   0.2855158  -0.0212826 SPIN=   0.00000
   O  -0.2698526   0.1680365  -0.3771774 SPIN=   0.00000
   S  -0.0000000  -0.0000000   0.0000000 SPIN=   0.00000
   S  -0.5000000   0.0000000  -0.5000000 SPIN=   0.00000
   F  -0.5000000   0.5000000   0.0000000 SPIN=   0.00000
   F  -0.0000000   0.5000000   0.5000000 SPIN=   0.00000
%ENDBLOCK POSITIONS_FRAC

# Note: total spin =   8.00

KPOINTS_MP_SPACING 0.07

%BLOCK SPECIES_POT
QC5
%ENDBLOCK SPECIES_POT

SNAP_TO_SYMMETRY
SYMMETRY_GENERATE

