#              Generated by Buildcell
#
# at 02:07:10 (GMT+1.0) 19th August 2020
# in /lustre/scratch/uccabz1/launch_tmp
# on node-c12o-016
# by uccabz1
#
# compiler GCC version 4.9.2
# options -cpp -iprefix /lustre/shared/ucl/apps/gcc/4.9.2/bin/../lib/gcc/x86_64-unknown-linux-gnu/4.9.2/ -mtune=corei7 -march=x86-64 -g -Og
#
# seed   364773459 -1744120266  -577169722 -1323420307  1649191681  1109283894 -1689696183  1281440229   -84084649  -731872696   452841435  -446056083
#
#      Author: C. J. Pickard (cjp20@cam.ac.uk)
#                Space group: P21
#

%BLOCK LATTICE_ABC
      3.92464      6.53065      7.92773
     90.00000    100.16781     90.00000
%ENDBLOCK LATTICE_ABC

%BLOCK POSITIONS_FRAC
  Li  -0.1298044   0.3021450  -0.2678728 SPIN=   0.00000
  Li   0.1298044  -0.1978550   0.2678728 SPIN=   0.00000
  Fe   0.2839694   0.3902125   0.4332280 SPIN=   4.00000
  Fe  -0.2839694  -0.1097875  -0.4332280 SPIN=   4.00000
   O  -0.0727940   0.5754666   0.0531758 SPIN=   0.00000
   O  -0.1521504   0.2349386   0.1776579 SPIN=   0.00000
   O  -0.6101723   0.3789541  -0.0455924 SPIN=   0.00000
   O  -0.5002964   0.5299568   0.2452856 SPIN=   0.00000
   S  -0.3338533   0.4298290   0.1076317 SPIN=   0.00000
   O   0.0727940   0.0754666  -0.0531758 SPIN=   0.00000
   O   0.1521504  -0.2650614  -0.1776579 SPIN=   0.00000
   O   0.6101723  -0.1210459   0.0455924 SPIN=   0.00000
   O   0.5002964   0.0299568  -0.2452856 SPIN=   0.00000
   S   0.3338533  -0.0701710  -0.1076317 SPIN=   0.00000
   F   0.2731440   0.0876867   0.4332689 SPIN=   0.00000
   F  -0.2731440  -0.4123133  -0.4332689 SPIN=   0.00000
%ENDBLOCK POSITIONS_FRAC

# Note: total spin =   8.00

KPOINTS_MP_SPACING 0.07

%BLOCK SPECIES_POT
QC5
%ENDBLOCK SPECIES_POT

SNAP_TO_SYMMETRY
SYMMETRY_GENERATE

