#              Generated by Buildcell
#
# at 19:31:18 (GMT+1.0) 18th August 2020
# in /scratch/scratch/uccabz1/launch_tmp
# on node-k10b-019
# by uccabz1
#
# compiler GCC version 4.9.2
# options -cpp -iprefix /scratch/UCL/applications/gcc/4.9.2/bin/../lib/gcc/x86_64-unknown-linux-gnu/4.9.2/ -mtune=corei7 -march=x86-64 -g -O2
#
# seed  -588104335  1658179495  1118121827  1562995187 -1624758185  1061118303 -1936736605  -392228404 -2130765918  -484488738  -719798466  -734544029
#
#      Author: C. J. Pickard (cjp20@cam.ac.uk)
#                Space group: P21
#

%BLOCK LATTICE_ABC
      5.55323      5.96561      6.20980
    103.54360     90.00000     90.00000
%ENDBLOCK LATTICE_ABC

%BLOCK POSITIONS_FRAC
  Li   0.4700676   0.1941088   0.2059422 SPIN=   0.00000
  Li  -0.0299324  -0.1941088  -0.2059422 SPIN=   0.00000
  Fe  -0.4415753  -0.3019540   0.4688101 SPIN=   4.00000
  Fe   0.0584247   0.3019540  -0.4688101 SPIN=   4.00000
   O  -0.6786450   0.2639248  -0.0843379 SPIN=   0.00000
   O  -0.4893437   0.1032937  -0.4486101 SPIN=   0.00000
   O  -0.2802971   0.0741419  -0.1042448 SPIN=   0.00000
   O  -0.3198603   0.4529663  -0.1990325 SPIN=   0.00000
   S  -0.4420365   0.2235817  -0.2090564 SPIN=   0.00000
   O  -0.1786450  -0.2639248   0.0843379 SPIN=   0.00000
   O   0.0106563  -0.1032937   0.4486101 SPIN=   0.00000
   O   0.2197029  -0.0741419   0.1042448 SPIN=   0.00000
   O   0.1801397  -0.4529663   0.1990325 SPIN=   0.00000
   S   0.0579635  -0.2235817   0.2090564 SPIN=   0.00000
   F   0.2873035  -0.2989903  -0.3066830 SPIN=   0.00000
   F  -0.2126965   0.2989903   0.3066830 SPIN=   0.00000
%ENDBLOCK POSITIONS_FRAC

# Note: total spin =   8.00

KPOINTS_MP_SPACING 0.07

%BLOCK SPECIES_POT
QC5
%ENDBLOCK SPECIES_POT

SNAP_TO_SYMMETRY
SYMMETRY_GENERATE

