#              Generated by Buildcell
#
# at 23:55:24 (GMT+1.0) 18th August 2020
# in /scratch/scratch/uccabz1/launch_tmp
# on node-k10e-014
# by uccabz1
#
# compiler GCC version 4.9.2
# options -cpp -iprefix /scratch/UCL/applications/gcc/4.9.2/bin/../lib/gcc/x86_64-unknown-linux-gnu/4.9.2/ -mtune=corei7 -march=x86-64 -g -O2
#
# seed   713366633   579407773  -167893184  1440658568  -295456294  -825612014  1813963284  1947573313   529487455 -1685214875   120235518   713692718
#
#      Author: C. J. Pickard (cjp20@cam.ac.uk)
#                Space group: Aea2
#

%BLOCK LATTICE_ABC
      5.63722      5.63742      6.89574
     90.00000    114.12612     90.00000
%ENDBLOCK LATTICE_ABC

%BLOCK POSITIONS_FRAC
  Li   0.1246899   0.5000000   0.2493797 SPIN=   0.00000
  Li  -0.3753101  -0.0000000  -0.7506203 SPIN=   0.00000
  Fe  -0.1424408   0.5000000  -0.2848817 SPIN=   4.00000
  Fe   0.3575592  -0.0000000   0.7151183 SPIN=   4.00000
   O   0.3079643  -0.1608353   0.2830518 SPIN=   0.00000
   O   0.4017036  -0.3070411  -0.0167304 SPIN=   0.00000
   O  -0.0249125   0.1608353   0.2830518 SPIN=   0.00000
   O  -0.4184340   0.3070411  -0.0167304 SPIN=   0.00000
   O   0.4750875   0.3391647   0.2830518 SPIN=   0.00000
   O   0.0815660   0.1929589  -0.0167304 SPIN=   0.00000
   O  -0.1920357  -0.3391647   0.2830518 SPIN=   0.00000
   O  -0.0982964  -0.1929589  -0.0167304 SPIN=   0.00000
   S   0.0856826  -0.0000000   0.1713651 SPIN=   0.00000
   S  -0.4143174   0.5000000  -0.8286349 SPIN=   0.00000
   F   0.2855289  -0.5000000   0.5710577 SPIN=   0.00000
   F  -0.2144711  -0.0000000  -0.4289423 SPIN=   0.00000
%ENDBLOCK POSITIONS_FRAC

# Note: total spin =   8.00

KPOINTS_MP_SPACING 0.07

%BLOCK SPECIES_POT
QC5
%ENDBLOCK SPECIES_POT

SNAP_TO_SYMMETRY
SYMMETRY_GENERATE

