#              Generated by Buildcell
#
# at 05:23:42 (GMT+1.0) 4th August 2020
# in /lustre/scratch/uccabz1/launch_tmp
# on node-c12h-014
# by uccabz1
#
# compiler GCC version 4.9.2
# options -cpp -iprefix /lustre/shared/ucl/apps/gcc/4.9.2/bin/../lib/gcc/x86_64-unknown-linux-gnu/4.9.2/ -mtune=corei7 -march=x86-64 -g -Og
#
# seed   481793323  1929054383  1248684135  1692192361  1170789637 -1795931726   329613321  1764522166    56027843 -2084030300  -946927743   797451283
#
#      Author: C. J. Pickard (cjp20@cam.ac.uk)
#                Space group: Cc
#

%BLOCK LATTICE_ABC
      4.84843      4.84843      9.59344
     84.59774     84.59774     63.16647
%ENDBLOCK LATTICE_ABC

%BLOCK POSITIONS_FRAC
  Li  -0.4438459   0.2172713  -0.3532697 SPIN=   0.00000
  Li   0.2172713  -0.4438459   0.1467303 SPIN=   0.00000
  Fe  -0.0322547   0.2253447  -0.1233802 SPIN=   4.00000
  Fe   0.2253447  -0.0322547   0.3766198 SPIN=   4.00000
   O  -0.4368917  -0.4163246  -0.4693059 SPIN=   0.00000
   O  -0.1069296  -0.4407234  -0.2822057 SPIN=   0.00000
   O  -0.1640814  -0.0873536  -0.4929686 SPIN=   0.00000
   O   0.1327848  -0.6539698  -0.5116062 SPIN=   0.00000
   S  -0.1437795  -0.3995928  -0.4390216 SPIN=   0.00000
   O  -0.4163246  -0.4368917   0.0306941 SPIN=   0.00000
   O  -0.4407234  -0.1069296   0.2177943 SPIN=   0.00000
   O  -0.0873536  -0.1640814   0.0070314 SPIN=   0.00000
   O  -0.6539698   0.1327848  -0.0116062 SPIN=   0.00000
   S  -0.3995928  -0.1437795   0.0609784 SPIN=   0.00000
   F   0.1870968  -0.1176445  -0.2211855 SPIN=   0.00000
   F  -0.1176445   0.1870968   0.2788145 SPIN=   0.00000
%ENDBLOCK POSITIONS_FRAC

# Note: total spin =   8.00

KPOINTS_MP_SPACING 0.07

%BLOCK SPECIES_POT
QC5
%ENDBLOCK SPECIES_POT

SNAP_TO_SYMMETRY
SYMMETRY_GENERATE

