#              Generated by Buildcell
#
# at 18:37:00 (GMT+1.0) 18th August 2020
# in /scratch/scratch/uccabz1/launch_tmp
# on node-k10i-017
# by uccabz1
#
# compiler GCC version 4.9.2
# options -cpp -iprefix /scratch/UCL/applications/gcc/4.9.2/bin/../lib/gcc/x86_64-unknown-linux-gnu/4.9.2/ -mtune=corei7 -march=x86-64 -g -O2
#
# seed  1630678459 -1638989882  -158156508  -769667219 -2097764653 -1656335272   207367964  -836423878  1239905391 -1381969856  1722346482  -431409962
#
#      Author: C. J. Pickard (cjp20@cam.ac.uk)
#                Space group: Pc
#

%BLOCK LATTICE_ABC
      5.63521      5.94257      6.06868
    100.22235     90.00000     90.00000
%ENDBLOCK LATTICE_ABC

%BLOCK POSITIONS_FRAC
  Li  -0.2665733  -0.0135483   0.2615455 SPIN=   0.00000
  Li   0.2665733  -0.0135483  -0.2384545 SPIN=   0.00000
  Fe  -0.2902293  -0.4982557   0.4546428 SPIN=   4.00000
  Fe   0.2902293  -0.4982557  -0.0453572 SPIN=   4.00000
   O  -0.1258952   0.1859425  -0.3968898 SPIN=   0.00000
   O  -0.0455360  -0.1135325  -0.1706280 SPIN=   0.00000
   O  -0.3897572  -0.1511292  -0.4278220 SPIN=   0.00000
   O  -0.3922723   0.1422957  -0.0829813 SPIN=   0.00000
   S  -0.2383652   0.0158941  -0.2695803 SPIN=   0.00000
   O   0.1258952   0.1859425   0.1031102 SPIN=   0.00000
   O   0.0455360  -0.1135325   0.3293720 SPIN=   0.00000
   O   0.3897572  -0.1511292   0.0721780 SPIN=   0.00000
   O   0.3922723   0.1422957   0.4170187 SPIN=   0.00000
   S   0.2383652   0.0158941   0.2304197 SPIN=   0.00000
   F   0.2500017  -0.4184031  -0.3820623 SPIN=   0.00000
   F  -0.2500017  -0.4184031   0.1179377 SPIN=   0.00000
%ENDBLOCK POSITIONS_FRAC

# Note: total spin =   8.00

KPOINTS_MP_SPACING 0.07

%BLOCK SPECIES_POT
QC5
%ENDBLOCK SPECIES_POT

SNAP_TO_SYMMETRY
SYMMETRY_GENERATE

