#              Generated by Buildcell
#
# at 03:52:45 (GMT+1.0) 4th August 2020
# in /lustre/scratch/uccabz1/launch_tmp
# on node-c12n-009
# by uccabz1
#
# compiler GCC version 4.9.2
# options -cpp -iprefix /lustre/shared/ucl/apps/gcc/4.9.2/bin/../lib/gcc/x86_64-unknown-linux-gnu/4.9.2/ -mtune=corei7 -march=x86-64 -g -Og
#
# seed  2089559163   285010496  1843256058  1394227396 -1697890351 -1751627323  -185003925 -1002883031  1171413384  -462931229   742456624  2006262027
#
#      Author: C. J. Pickard (cjp20@cam.ac.uk)
#                Space group: Pba2
#

%BLOCK LATTICE_ABC
      5.48269      5.98823      6.09169
     90.00000     90.00000     90.00000
%ENDBLOCK LATTICE_ABC

%BLOCK POSITIONS_FRAC
  Li   0.5000000  -0.2310532  -0.0000000 SPIN=   0.00000
  Li  -0.0000000  -0.2310532   0.5000000 SPIN=   0.00000
  Fe   0.0000000   0.0211728  -0.0000000 SPIN=   4.00000
  Fe  -0.5000000   0.0211728   0.5000000 SPIN=   4.00000
   O   0.1293186   0.0539855   0.3413493 SPIN=   0.00000
   O  -0.1656554   0.3658180   0.3166705 SPIN=   0.00000
   O  -0.1293186   0.0539855  -0.3413493 SPIN=   0.00000
   O   0.1656554   0.3658180  -0.3166705 SPIN=   0.00000
   O   0.6293186   0.0539855   0.1586507 SPIN=   0.00000
   O   0.3343446   0.3658180   0.1833295 SPIN=   0.00000
   O  -0.6293186   0.0539855  -0.1586507 SPIN=   0.00000
   O  -0.3343446   0.3658180  -0.1833295 SPIN=   0.00000
   S   0.5000000   0.3092624  -0.0000000 SPIN=   0.00000
   S  -0.0000000   0.3092624  -0.5000000 SPIN=   0.00000
   F  -0.0000000  -0.3139972  -0.0000000 SPIN=   0.00000
   F  -0.5000000  -0.3139972   0.5000000 SPIN=   0.00000
%ENDBLOCK POSITIONS_FRAC

# Note: total spin =   8.00

KPOINTS_MP_SPACING 0.07

%BLOCK SPECIES_POT
QC5
%ENDBLOCK SPECIES_POT

SNAP_TO_SYMMETRY
SYMMETRY_GENERATE

