#              Generated by Buildcell
#
# at 01:48:13 (GMT+1.0) 4th August 2020
# in /lustre/scratch/uccabz1/launch_tmp
# on node-c12c-023
# by uccabz1
#
# compiler GCC version 4.9.2
# options -cpp -iprefix /lustre/shared/ucl/apps/gcc/4.9.2/bin/../lib/gcc/x86_64-unknown-linux-gnu/4.9.2/ -mtune=corei7 -march=x86-64 -g -Og
#
# seed  -657293459   507900324  2045889945  1906907785  -254592149  -433613337  1487328293  -252467845  2071543800 -1891453378   167139373 -1541085180
#
#      Author: C. J. Pickard (cjp20@cam.ac.uk)
#                Space group: P21
#

%BLOCK LATTICE_ABC
      4.11563      4.91378      9.93775
     90.00000     90.00000     95.64297
%ENDBLOCK LATTICE_ABC

%BLOCK POSITIONS_FRAC
  Li  -0.2246922  -0.3713894  -0.3913278 SPIN=   0.00000
  Li   0.2246922   0.3713894   0.1086722 SPIN=   0.00000
  Fe  -0.3105772  -0.2141436  -0.0433807 SPIN=   4.00000
  Fe   0.3105772   0.2141436   0.4566193 SPIN=   4.00000
   O  -0.1673181  -0.0443926   0.3532974 SPIN=   0.00000
   O  -0.2774605  -0.5457926   0.3797276 SPIN=   0.00000
   O   0.2663311  -0.3446441   0.3034732 SPIN=   0.00000
   O  -0.2112291  -0.3429570   0.1522421 SPIN=   0.00000
   S  -0.0974192  -0.3194466   0.2971851 SPIN=   0.00000
   O   0.1673181   0.0443926  -0.1467026 SPIN=   0.00000
   O   0.2774605   0.5457926  -0.1202724 SPIN=   0.00000
   O  -0.2663311   0.3446441  -0.1965268 SPIN=   0.00000
   O   0.2112291   0.3429570  -0.3477579 SPIN=   0.00000
   S   0.0974192   0.3194466  -0.2028149 SPIN=   0.00000
   F  -0.4428530   0.1379676   0.0755248 SPIN=   0.00000
   F   0.4428530  -0.1379676  -0.4244752 SPIN=   0.00000
%ENDBLOCK POSITIONS_FRAC

# Note: total spin =   8.00

KPOINTS_MP_SPACING 0.07

%BLOCK SPECIES_POT
QC5
%ENDBLOCK SPECIES_POT

SNAP_TO_SYMMETRY
SYMMETRY_GENERATE

