#              Generated by Buildcell
#
# at 19:12:13 (GMT+1.0) 18th August 2020
# in /scratch/scratch/uccabz1/launch_tmp
# on node-k10a-013
# by uccabz1
#
# compiler GCC version 4.9.2
# options -cpp -iprefix /scratch/UCL/applications/gcc/4.9.2/bin/../lib/gcc/x86_64-unknown-linux-gnu/4.9.2/ -mtune=corei7 -march=x86-64 -g -O2
#
# seed  1978784040  -487062208 -1304657591 -1710076338  -499739169    77117181  1507566880  -333901088 -1832244117 -1036317260   142868477 -1313467131
#
#      Author: C. J. Pickard (cjp20@cam.ac.uk)
#                Space group: P2
#

%BLOCK LATTICE_ABC
      4.05785      7.01992      7.17005
     90.00000     90.00000    101.70116
%ENDBLOCK LATTICE_ABC

%BLOCK POSITIONS_FRAC
  Li   0.1771524   0.2922855   0.4439228 SPIN=   0.00000
  Li  -0.1771524  -0.2922855   0.4439228 SPIN=   0.00000
  Fe   0.6727581   0.2683062   0.1369242 SPIN=   4.00000
  Fe  -0.6727581  -0.2683062   0.1369242 SPIN=   4.00000
   O   0.2953432   0.2166092  -0.2636479 SPIN=   0.00000
   O   0.8676319   0.3406730  -0.1393754 SPIN=   0.00000
   O   0.7241483   0.4251092  -0.4602964 SPIN=   0.00000
   O   0.7779935   0.0885392  -0.3857695 SPIN=   0.00000
   S   0.6662792   0.2677326  -0.3122723 SPIN=   0.00000
   O  -0.2953432  -0.2166092  -0.2636479 SPIN=   0.00000
   O  -0.8676319  -0.3406730  -0.1393754 SPIN=   0.00000
   O  -0.7241483  -0.4251092  -0.4602964 SPIN=   0.00000
   O  -0.7779935  -0.0885392  -0.3857695 SPIN=   0.00000
   S  -0.6662792  -0.2677326  -0.3122723 SPIN=   0.00000
   F  -0.1790730  -0.2669298   0.1586997 SPIN=   0.00000
   F   0.1790730   0.2669298   0.1586997 SPIN=   0.00000
%ENDBLOCK POSITIONS_FRAC

# Note: total spin =   8.00

KPOINTS_MP_SPACING 0.07

%BLOCK SPECIES_POT
QC5
%ENDBLOCK SPECIES_POT

SNAP_TO_SYMMETRY
SYMMETRY_GENERATE

