#              Generated by Buildcell
#
# at 01:42:22 (GMT+1.0) 19th August 2020
# in /scratch/scratch/uccabz1/launch_tmp
# on node-k10g-006
# by uccabz1
#
# compiler GCC version 4.9.2
# options -cpp -iprefix /scratch/UCL/applications/gcc/4.9.2/bin/../lib/gcc/x86_64-unknown-linux-gnu/4.9.2/ -mtune=corei7 -march=x86-64 -g -O2
#
# seed  1612350055   384016126  1440154501     4461811  1302925674   558752107  -974502117   -87581788  1347094922   141147615 -1839998136  1370569531
#
#      Author: C. J. Pickard (cjp20@cam.ac.uk)
#                Space group: Pc
#

%BLOCK LATTICE_ABC
      4.14297      5.31407      9.19826
     99.02862     90.00000     90.00000
%ENDBLOCK LATTICE_ABC

%BLOCK POSITIONS_FRAC
  Li  -0.0658343   0.0268225   0.3877664 SPIN=   0.00000
  Li   0.0658343   0.0268225  -0.1122336 SPIN=   0.00000
  Fe  -0.4356855   0.4677122  -0.1403808 SPIN=   4.00000
  Fe   0.4356855   0.4677122   0.3596192 SPIN=   4.00000
   O   0.3516321  -0.3474179  -0.3153425 SPIN=   0.00000
   O   0.6868703   0.0332072  -0.2315426 SPIN=   0.00000
   O   0.1607708   0.0794430  -0.3520386 SPIN=   0.00000
   O   0.6205427  -0.1221481  -0.4979030 SPIN=   0.00000
   S   0.4549540  -0.0892290  -0.3492067 SPIN=   0.00000
   O  -0.3516321  -0.3474179   0.1846575 SPIN=   0.00000
   O  -0.6868703   0.0332072   0.2684574 SPIN=   0.00000
   O  -0.1607708   0.0794430   0.1479614 SPIN=   0.00000
   O  -0.6205427  -0.1221481   0.0020970 SPIN=   0.00000
   S  -0.4549540  -0.0892290   0.1507933 SPIN=   0.00000
   F  -0.0449682   0.3685989   0.4507783 SPIN=   0.00000
   F   0.0449682   0.3685989  -0.0492217 SPIN=   0.00000
%ENDBLOCK POSITIONS_FRAC

# Note: total spin =   8.00

KPOINTS_MP_SPACING 0.07

%BLOCK SPECIES_POT
QC5
%ENDBLOCK SPECIES_POT

SNAP_TO_SYMMETRY
SYMMETRY_GENERATE

