#              Generated by Buildcell
#
# at 03:12:16 (GMT+1.0) 4th August 2020
# in /lustre/scratch/uccabz1/launch_tmp
# on node-c12g-018
# by uccabz1
#
# compiler GCC version 4.9.2
# options -cpp -iprefix /lustre/shared/ucl/apps/gcc/4.9.2/bin/../lib/gcc/x86_64-unknown-linux-gnu/4.9.2/ -mtune=corei7 -march=x86-64 -g -Og
#
# seed -1963219318 -1424779237  -958372381   964041784 -1186479092  -108134887   -40396820 -1740768729  1652154002  1470105446 -1672835133  -516890349
#
#      Author: C. J. Pickard (cjp20@cam.ac.uk)
#                Space group: Cc
#

%BLOCK LATTICE_ABC
      5.96670      5.96670      6.39134
    103.54368    103.54368    107.01641
%ENDBLOCK LATTICE_ABC

%BLOCK POSITIONS_FRAC
  Li  -0.0693301   0.1545689  -0.3323181 SPIN=   0.00000
  Li   0.1545689  -0.0693301   0.1676819 SPIN=   0.00000
  Fe   0.4706784  -0.2748315   0.4131560 SPIN=   4.00000
  Fe  -0.2748315   0.4706784  -0.0868440 SPIN=   4.00000
   O  -0.1375806  -0.3902040   0.2693033 SPIN=   0.00000
   O  -0.1360398  -0.3359422   0.6656451 SPIN=   0.00000
   O   0.1949277  -0.4429543   0.5448299 SPIN=   0.00000
   O  -0.2323701  -0.7539560   0.4023594 SPIN=   0.00000
   S  -0.0777657  -0.4807641   0.4705344 SPIN=   0.00000
   O  -0.3902040  -0.1375806  -0.2306967 SPIN=   0.00000
   O  -0.3359422  -0.1360398   0.1656451 SPIN=   0.00000
   O  -0.4429543   0.1949277   0.0448299 SPIN=   0.00000
   O  -0.7539560  -0.2323701  -0.0976406 SPIN=   0.00000
   S  -0.4807641  -0.0777657  -0.0294656 SPIN=   0.00000
   F   0.1289489   0.3132262  -0.0259637 SPIN=   0.00000
   F   0.3132262   0.1289489   0.4740363 SPIN=   0.00000
%ENDBLOCK POSITIONS_FRAC

# Note: total spin =   8.00

KPOINTS_MP_SPACING 0.07

%BLOCK SPECIES_POT
QC5
%ENDBLOCK SPECIES_POT

SNAP_TO_SYMMETRY
SYMMETRY_GENERATE

