#              Generated by Buildcell
#
# at 02:58:01 (GMT+1.0) 4th August 2020
# in /lustre/scratch/uccabz1/launch_tmp
# on node-c12k-032
# by uccabz1
#
# compiler GCC version 4.9.2
# options -cpp -iprefix /lustre/shared/ucl/apps/gcc/4.9.2/bin/../lib/gcc/x86_64-unknown-linux-gnu/4.9.2/ -mtune=corei7 -march=x86-64 -g -Og
#
# seed   930106320  1787993905 -1825233628    56405952  1698648309 -1871046493  -224533761  1732618878 -1069223626   123088622  -731643411  1521950443
#
#      Author: C. J. Pickard (cjp20@cam.ac.uk)
#                Space group: P2
#

%BLOCK LATTICE_ABC
      4.09551      7.15482      7.59378
    115.99883     90.00000     90.00000
%ENDBLOCK LATTICE_ABC

%BLOCK POSITIONS_FRAC
  Li  -0.0582550   0.3428161   0.2288944 SPIN=   0.00000
  Li  -0.0582550  -0.3428161  -0.2288944 SPIN=   0.00000
  Fe   0.4044365   0.7128390   0.4215104 SPIN=   4.00000
  Fe   0.4044365  -0.7128390  -0.4215104 SPIN=   4.00000
   O  -0.4599023  -0.0253906  -0.1892800 SPIN=   0.00000
   O   0.0404434  -0.1264342  -0.3924919 SPIN=   0.00000
   O   0.0719194   0.1307869  -0.0444315 SPIN=   0.00000
   O  -0.1935263   0.2252692  -0.2870451 SPIN=   0.00000
   S  -0.1352665   0.0510578  -0.2283121 SPIN=   0.00000
   O  -0.4599023   0.0253906   0.1892800 SPIN=   0.00000
   O   0.0404434   0.1264342   0.3924919 SPIN=   0.00000
   O   0.0719194  -0.1307869   0.0444315 SPIN=   0.00000
   O  -0.1935263  -0.2252692   0.2870451 SPIN=   0.00000
   S  -0.1352665  -0.0510578   0.2283121 SPIN=   0.00000
   F   0.4563961  -0.4286306  -0.2204660 SPIN=   0.00000
   F   0.4563961   0.4286306   0.2204660 SPIN=   0.00000
%ENDBLOCK POSITIONS_FRAC

# Note: total spin =   8.00

KPOINTS_MP_SPACING 0.07

%BLOCK SPECIES_POT
QC5
%ENDBLOCK SPECIES_POT

SNAP_TO_SYMMETRY
SYMMETRY_GENERATE

