#              Generated by Buildcell
#
# at 00:30:13 (GMT+1.0) 19th August 2020
# in /lustre/scratch/uccabz1/launch_tmp
# on node-c12k-027
# by uccabz1
#
# compiler GCC version 4.9.2
# options -cpp -iprefix /lustre/shared/ucl/apps/gcc/4.9.2/bin/../lib/gcc/x86_64-unknown-linux-gnu/4.9.2/ -mtune=corei7 -march=x86-64 -g -Og
#
# seed -1714338081 -1551641159  1547370153  -829560800  -911628922   241092599  -613455442  1051555379  -702972954   429319120 -1971763575   560424572
#
#      Author: C. J. Pickard (cjp20@cam.ac.uk)
#                Space group: Pc
#

%BLOCK LATTICE_ABC
      5.21912      6.05935      6.42347
     90.00000    100.08558     90.00000
%ENDBLOCK LATTICE_ABC

%BLOCK POSITIONS_FRAC
  Li  -0.4181271  -0.2518807  -0.2923793 SPIN=   0.00000
  Li   0.0818729   0.2518807  -0.2923793 SPIN=   0.00000
  Fe   0.1549317  -0.2051582  -0.0121080 SPIN=   4.00000
  Fe  -0.3450683   0.2051582  -0.0121080 SPIN=   4.00000
   O   0.1112536  -0.4193141   0.6674954 SPIN=   0.00000
   O   0.0648934  -0.0326333   0.5424974 SPIN=   0.00000
   O  -0.2838953  -0.3034956   0.4199872 SPIN=   0.00000
   O   0.1379485  -0.3305003   0.2958338 SPIN=   0.00000
   S   0.0075500  -0.2714858   0.4814535 SPIN=   0.00000
   O  -0.3887464   0.4193141   0.6674954 SPIN=   0.00000
   O  -0.4351066   0.0326333   0.5424974 SPIN=   0.00000
   O  -0.7838953   0.3034956   0.4199872 SPIN=   0.00000
   O  -0.3620515   0.3305003   0.2958338 SPIN=   0.00000
   S  -0.4924500   0.2714858   0.4814535 SPIN=   0.00000
   F  -0.4621505  -0.2822481  -0.0036614 SPIN=   0.00000
   F   0.0378495   0.2822481  -0.0036614 SPIN=   0.00000
%ENDBLOCK POSITIONS_FRAC

# Note: total spin =   8.00

KPOINTS_MP_SPACING 0.07

%BLOCK SPECIES_POT
QC5
%ENDBLOCK SPECIES_POT

SNAP_TO_SYMMETRY
SYMMETRY_GENERATE

