#              Generated by Buildcell
#
# at 05:17:07 (GMT+1.0) 4th August 2020
# in /lustre/scratch/uccabz1/launch_tmp
# on node-c12c-004
# by uccabz1
#
# compiler GCC version 4.9.2
# options -cpp -iprefix /lustre/shared/ucl/apps/gcc/4.9.2/bin/../lib/gcc/x86_64-unknown-linux-gnu/4.9.2/ -mtune=corei7 -march=x86-64 -g -Og
#
# seed   811227444  1213528525  -143043258 -2015118135 -2122892367  -876203621 -1062799436  2024819967  -858540076  -860227803   616844024  1574020331
#
#      Author: C. J. Pickard (cjp20@cam.ac.uk)
#                Space group: Cc
#

%BLOCK LATTICE_ABC
      4.00998      4.00998     13.06698
     91.49871     91.49871    107.67529
%ENDBLOCK LATTICE_ABC

%BLOCK POSITIONS_FRAC
  Li   0.4439262   0.2430531  -0.3846822 SPIN=   0.00000
  Li   0.2430531   0.4439262   0.1153178 SPIN=   0.00000
  Fe   0.1513675  -0.1781763  -0.1995607 SPIN=   4.00000
  Fe  -0.1781763   0.1513675   0.3004393 SPIN=   4.00000
   O  -0.3716162   0.4262079   0.0114228 SPIN=   0.00000
   O  -0.1749575  -0.0099059  -0.0875421 SPIN=   0.00000
   O  -0.7374033  -0.1947698   0.0005025 SPIN=   0.00000
   O  -0.1773279  -0.0209313   0.1017218 SPIN=   0.00000
   S  -0.3653262   0.0501502   0.0065262 SPIN=   0.00000
   O   0.4262079  -0.3716162  -0.4885772 SPIN=   0.00000
   O  -0.0099059  -0.1749575  -0.5875421 SPIN=   0.00000
   O  -0.1947698  -0.7374033  -0.4994975 SPIN=   0.00000
   O  -0.0209313  -0.1773279  -0.3982782 SPIN=   0.00000
   S   0.0501502  -0.3653262  -0.4934738 SPIN=   0.00000
   F  -0.2510221   0.2569891  -0.2632043 SPIN=   0.00000
   F   0.2569891  -0.2510221   0.2367957 SPIN=   0.00000
%ENDBLOCK POSITIONS_FRAC

# Note: total spin =   8.00

KPOINTS_MP_SPACING 0.07

%BLOCK SPECIES_POT
QC5
%ENDBLOCK SPECIES_POT

SNAP_TO_SYMMETRY
SYMMETRY_GENERATE

