#              Generated by Buildcell
#
# at 03:54:59 (GMT+1.0) 4th August 2020
# in /lustre/scratch/uccabz1/launch_tmp
# on node-c12p-029
# by uccabz1
#
# compiler GCC version 4.9.2
# options -cpp -iprefix /lustre/shared/ucl/apps/gcc/4.9.2/bin/../lib/gcc/x86_64-unknown-linux-gnu/4.9.2/ -mtune=corei7 -march=x86-64 -g -Og
#
# seed    -6095043  -818485439  -426286916  1774980124 -1589788736  -712760376 -1223604203  -200913502  1663219751  1810239331   629311476  -198938649
#
#      Author: C. J. Pickard (cjp20@cam.ac.uk)
#                Space group: Pc
#

%BLOCK LATTICE_ABC
      5.24288      5.58433      6.87240
     90.00000     96.28644     90.00000
%ENDBLOCK LATTICE_ABC

%BLOCK POSITIONS_FRAC
  Li   0.3164821   0.2388684   0.0324772 SPIN=   0.00000
  Li  -0.1835179  -0.2388684  -0.4675228 SPIN=   0.00000
  Fe   0.4079741   0.1628607   0.4830533 SPIN=   4.00000
  Fe  -0.0920259  -0.1628607  -0.0169467 SPIN=   4.00000
   O   0.0002897   0.0779184  -0.2538900 SPIN=   0.00000
   O   0.1072848   0.4745269  -0.1062374 SPIN=   0.00000
   O  -0.3366551   0.3877325  -0.2500181 SPIN=   0.00000
   O   0.0085795   0.4359558  -0.4653392 SPIN=   0.00000
   S  -0.0551253   0.3440334  -0.2688712 SPIN=   0.00000
   O   0.5002897  -0.0779184   0.2461100 SPIN=   0.00000
   O   0.6072848  -0.4745269   0.3937626 SPIN=   0.00000
   O   0.1633449  -0.3877325   0.2499819 SPIN=   0.00000
   O   0.5085795  -0.4359558   0.0346608 SPIN=   0.00000
   S   0.4448747  -0.3440334   0.2311288 SPIN=   0.00000
   F  -0.0588954   0.1504838   0.2236170 SPIN=   0.00000
   F   0.4411046  -0.1504838  -0.2763830 SPIN=   0.00000
%ENDBLOCK POSITIONS_FRAC

# Note: total spin =   8.00

KPOINTS_MP_SPACING 0.07

%BLOCK SPECIES_POT
QC5
%ENDBLOCK SPECIES_POT

SNAP_TO_SYMMETRY
SYMMETRY_GENERATE

