#              Generated by Buildcell
#
# at 23:47:01 (GMT+1.0) 18th August 2020
# in /lustre/scratch/uccabz1/launch_tmp
# on node-c12f-018
# by uccabz1
#
# compiler GCC version 4.9.2
# options -cpp -iprefix /lustre/shared/ucl/apps/gcc/4.9.2/bin/../lib/gcc/x86_64-unknown-linux-gnu/4.9.2/ -mtune=corei7 -march=x86-64 -g -Og
#
# seed -1705754914   -52254302  -313149577  1844859708  1730608634 -1321031986 -1471032210   242421585  1944621158  -136326186   762446221 -1977065931
#
#      Author: C. J. Pickard (cjp20@cam.ac.uk)
#                Space group: Ama2
#

%BLOCK LATTICE_ABC
      3.82922      7.03653      7.71373
     90.00000     90.00000    105.78902
%ENDBLOCK LATTICE_ABC

%BLOCK POSITIONS_FRAC
  Li   0.4890159  -0.0219682  -0.0000000 SPIN=   0.00000
  Li   0.4890159  -0.0219682   0.5000000 SPIN=   0.00000
  Fe   0.2320351  -0.3436001   0.2500000 SPIN=   4.00000
  Fe   0.4243648  -0.3436001  -0.2500000 SPIN=   4.00000
   O  -0.7124912   0.1866457   0.3939404 SPIN=   0.00000
   O  -0.0878110   0.4083454   0.3960326 SPIN=   0.00000
   O  -0.1008631   0.1866457  -0.3939404 SPIN=   0.00000
   O  -0.5038436   0.4083454  -0.3960326 SPIN=   0.00000
   O  -0.1008631   0.1866457  -0.1060596 SPIN=   0.00000
   O  -0.5038436   0.4083454  -0.1039674 SPIN=   0.00000
   O  -0.7124912   0.1866457   0.1060596 SPIN=   0.00000
   O  -0.0878110   0.4083454   0.1039674 SPIN=   0.00000
   S  -0.4598685   0.2632926   0.2500000 SPIN=   0.00000
   S  -0.2768389   0.2632926  -0.2500000 SPIN=   0.00000
   F  -0.1919913  -0.2004946   0.2500000 SPIN=   0.00000
   F  -0.0085033  -0.2004946  -0.2500000 SPIN=   0.00000
%ENDBLOCK POSITIONS_FRAC

# Note: total spin =   8.00

KPOINTS_MP_SPACING 0.07

%BLOCK SPECIES_POT
QC5
%ENDBLOCK SPECIES_POT

SNAP_TO_SYMMETRY
SYMMETRY_GENERATE

