#              Generated by Buildcell
#
# at 04:56:22 (GMT+1.0) 4th August 2020
# in /lustre/scratch/uccabz1/launch_tmp
# on node-c12n-012
# by uccabz1
#
# compiler GCC version 4.9.2
# options -cpp -iprefix /lustre/shared/ucl/apps/gcc/4.9.2/bin/../lib/gcc/x86_64-unknown-linux-gnu/4.9.2/ -mtune=corei7 -march=x86-64 -g -Og
#
# seed   880347878  1895058649  1515298514   611358037  -215919799   620484749  -688069815  1439684630  -958304619 -1421439700 -1815791033   259392561
#
#      Author: C. J. Pickard (cjp20@cam.ac.uk)
#                Space group: Pnn2
#

%BLOCK LATTICE_ABC
      4.60589      5.98882      7.25061
     90.00000     90.00000     90.00000
%ENDBLOCK LATTICE_ABC

%BLOCK POSITIONS_FRAC
  Li  -0.0000000   0.5000000   0.1734537 SPIN=   0.00000
  Li   0.5000000   0.0000000  -0.3265463 SPIN=   0.00000
  Fe   0.5000000   0.0000000   0.1018525 SPIN=   4.00000
  Fe  -0.0000000   0.5000000  -0.3981475 SPIN=   4.00000
   O  -0.5955813  -0.3206764  -0.2548296 SPIN=   0.00000
   O  -0.1673060  -0.1874152  -0.4291195 SPIN=   0.00000
   O   0.5955813   0.3206764  -0.2548296 SPIN=   0.00000
   O   0.1673060   0.1874152  -0.4291195 SPIN=   0.00000
   O   0.0955813   0.1793236   0.2451704 SPIN=   0.00000
   O  -0.3326940   0.3125848   0.0708805 SPIN=   0.00000
   O  -0.0955813  -0.1793236   0.2451704 SPIN=   0.00000
   O   0.3326940  -0.3125848   0.0708805 SPIN=   0.00000
   S   0.0000000   0.0000000   0.4125449 SPIN=   0.00000
   S  -0.5000000   0.5000000  -0.0874551 SPIN=   0.00000
   F   0.0000000   0.0000000  -0.0874551 SPIN=   0.00000
   F  -0.5000000   0.5000000   0.4125449 SPIN=   0.00000
%ENDBLOCK POSITIONS_FRAC

# Note: total spin =   8.00

KPOINTS_MP_SPACING 0.07

%BLOCK SPECIES_POT
QC5
%ENDBLOCK SPECIES_POT

SNAP_TO_SYMMETRY
SYMMETRY_GENERATE

