#              Generated by Buildcell
#
# at 20:25:41 (GMT+1.0) 18th August 2020
# in /lustre/scratch/uccabz1/launch_tmp
# on node-c12k-036
# by uccabz1
#
# compiler GCC version 4.9.2
# options -cpp -iprefix /lustre/shared/ucl/apps/gcc/4.9.2/bin/../lib/gcc/x86_64-unknown-linux-gnu/4.9.2/ -mtune=corei7 -march=x86-64 -g -Og
#
# seed   528500002   245076710 -1707095861  -338781040  2003840086  -771311468 -1939376886   324012643   739118886  1884604696 -1444183797    71913710
#
#      Author: C. J. Pickard (cjp20@cam.ac.uk)
#                Space group: P2
#

%BLOCK LATTICE_ABC
      4.87095      6.26989      6.86573
    107.47936     90.00000     90.00000
%ENDBLOCK LATTICE_ABC

%BLOCK POSITIONS_FRAC
  Li   0.3748362  -0.5000000  -0.0000000 SPIN=   0.00000
  Li  -0.3732375   0.5000000   0.5000000 SPIN=   0.00000
  Fe   0.1412379   0.2215466   0.2643258 SPIN=   4.00000
  Fe   0.1412379  -0.2215466  -0.2643258 SPIN=   4.00000
   O  -0.3711470   0.2175998  -0.3750031 SPIN=   0.00000
   O   0.1323407   0.2080585  -0.4252986 SPIN=   0.00000
   O  -0.0639155   0.1489049  -0.1130499 SPIN=   0.00000
   O  -0.0817862   0.5239039  -0.1621139 SPIN=   0.00000
   S  -0.0961270   0.2746168  -0.2688664 SPIN=   0.00000
   O  -0.3711470  -0.2175998   0.3750031 SPIN=   0.00000
   O   0.1323407  -0.2080585   0.4252986 SPIN=   0.00000
   O  -0.0639155  -0.1489049   0.1130499 SPIN=   0.00000
   O  -0.0817862  -0.5239039   0.1621139 SPIN=   0.00000
   S  -0.0961270  -0.2746168   0.2688664 SPIN=   0.00000
   F  -0.4585362  -0.2174439  -0.2446433 SPIN=   0.00000
   F  -0.4585362   0.2174439   0.2446433 SPIN=   0.00000
%ENDBLOCK POSITIONS_FRAC

# Note: total spin =   8.00

KPOINTS_MP_SPACING 0.07

%BLOCK SPECIES_POT
QC5
%ENDBLOCK SPECIES_POT

SNAP_TO_SYMMETRY
SYMMETRY_GENERATE

