#              Generated by Buildcell
#
# at 22:32:14 (GMT+1.0) 18th August 2020
# in /lustre/scratch/uccabz1/launch_tmp
# on node-c12h-024
# by uccabz1
#
# compiler GCC version 4.9.2
# options -cpp -iprefix /lustre/shared/ucl/apps/gcc/4.9.2/bin/../lib/gcc/x86_64-unknown-linux-gnu/4.9.2/ -mtune=corei7 -march=x86-64 -g -Og
#
# seed  1469185325 -1546547027  1795607862   510687749  1759146265  1445756044  1171669392  1014358096   314159765   515759463   718804294 -1000373224
#
#      Author: C. J. Pickard (cjp20@cam.ac.uk)
#                Space group: Cm
#

%BLOCK LATTICE_ABC
      4.10160      7.31153      7.31153
     76.18184     74.33692     74.33692
%ENDBLOCK LATTICE_ABC

%BLOCK POSITIONS_FRAC
  Li  -0.0043982   0.1082816   0.1082816 SPIN=   0.00000
  Li   0.0834740  -0.3753805  -0.3753805 SPIN=   0.00000
  Fe   0.4906363  -0.1445340  -0.1445340 SPIN=   1.01342
  Fe  -0.4932147   0.3622257   0.3622257 SPIN=   6.98658
   O   0.0008625   0.1314055   0.3839768 SPIN=   0.00000
   O   0.6311526  -0.0123506   0.3142963 SPIN=   0.00000
   O   0.2105584  -0.2085087   0.3373351 SPIN=   0.00000
   O   0.2617696  -0.1162920   0.6311311 SPIN=   0.00000
   S   0.2760858  -0.0514365   0.4166848 SPIN=   0.00000
   O   0.0008625   0.3839768   0.1314055 SPIN=   0.00000
   O   0.6311526   0.3142963  -0.0123506 SPIN=   0.00000
   O   0.2105584   0.3373351  -0.2085087 SPIN=   0.00000
   O   0.2617696   0.6311311  -0.1162920 SPIN=   0.00000
   S   0.2760858   0.4166848  -0.0514365 SPIN=   0.00000
   F  -0.1431106  -0.0480486  -0.0480486 SPIN=   0.00000
   F  -0.0579720   0.4615541   0.4615541 SPIN=   0.00000
%ENDBLOCK POSITIONS_FRAC

# Note: total spin =   8.00

KPOINTS_MP_SPACING 0.07

%BLOCK SPECIES_POT
QC5
%ENDBLOCK SPECIES_POT

SNAP_TO_SYMMETRY
SYMMETRY_GENERATE

