#              Generated by Buildcell
#
# at 01:48:09 (GMT+1.0) 19th August 2020
# in /lustre/scratch/uccabz1/launch_tmp
# on node-c12k-008
# by uccabz1
#
# compiler GCC version 4.9.2
# options -cpp -iprefix /lustre/shared/ucl/apps/gcc/4.9.2/bin/../lib/gcc/x86_64-unknown-linux-gnu/4.9.2/ -mtune=corei7 -march=x86-64 -g -Og
#
# seed  -721269527 -1975868574  -464136264  -379256224  -997390190  2032201193 -1313307382  -316546503   670093229   485091959  -461218640  1313782079
#
#      Author: C. J. Pickard (cjp20@cam.ac.uk)
#                Space group: Pc
#

%BLOCK LATTICE_ABC
      4.87165      6.07262      6.76048
     90.00000     90.00000     90.02562
%ENDBLOCK LATTICE_ABC

%BLOCK POSITIONS_FRAC
  Li   0.1485055   0.0970506   0.4519569 SPIN=   0.00000
  Li  -0.3514945  -0.4029494  -0.4519569 SPIN=   0.00000
  Fe  -0.3515143   0.0634047  -0.2771385 SPIN=   4.00000
  Fe   0.1484857  -0.4365953   0.2771385 SPIN=   4.00000
   O   0.1656337   0.0897688  -0.1678299 SPIN=   0.00000
   O  -0.0577933  -0.1321895   0.0936481 SPIN=   0.00000
   O   0.0578431   0.2585445   0.1561869 SPIN=   0.00000
   O   0.4277323  -0.0191651   0.1300815 SPIN=   0.00000
   S   0.1483539   0.0492397   0.0530217 SPIN=   0.00000
   O  -0.3343663  -0.4102312   0.1678299 SPIN=   0.00000
   O  -0.5577933  -0.6321895  -0.0936481 SPIN=   0.00000
   O  -0.4421569  -0.2414555  -0.1561869 SPIN=   0.00000
   O  -0.0722677  -0.5191651  -0.1300815 SPIN=   0.00000
   S  -0.3516461  -0.4507603  -0.0530217 SPIN=   0.00000
   F   0.1477261  -0.2510256  -0.4418054 SPIN=   0.00000
   F  -0.3522739   0.2489744   0.4418054 SPIN=   0.00000
%ENDBLOCK POSITIONS_FRAC

# Note: total spin =   8.00

KPOINTS_MP_SPACING 0.07

%BLOCK SPECIES_POT
QC5
%ENDBLOCK SPECIES_POT

SNAP_TO_SYMMETRY
SYMMETRY_GENERATE

