#              Generated by Buildcell
#
# at 05:39:48 (GMT+1.0) 4th August 2020
# in /lustre/scratch/uccabz1/launch_tmp
# on node-c12c-008
# by uccabz1
#
# compiler GCC version 4.9.2
# options -cpp -iprefix /lustre/shared/ucl/apps/gcc/4.9.2/bin/../lib/gcc/x86_64-unknown-linux-gnu/4.9.2/ -mtune=corei7 -march=x86-64 -g -Og
#
# seed  -946416988 -1699877767  -620244642 -1274888292   686561585   391228764  1876093468  -348067975  -214181187  -377507144 -2070301294    98907998
#
#      Author: C. J. Pickard (cjp20@cam.ac.uk)
#                Space group: P-1
#

%BLOCK LATTICE_ABC
      4.80737      6.80882      6.90076
    108.62890     95.94073    106.85688
%ENDBLOCK LATTICE_ABC

%BLOCK POSITIONS_FRAC
  Li  -0.7061428  -0.3054827  -0.0887618 SPIN=   0.00000
  Li   0.7061428   0.3054827   0.0887618 SPIN=   0.00000
  Fe  -0.1181011   0.2290789  -0.3304066 SPIN=   4.00000
  Fe   0.1181011  -0.2290789   0.3304066 SPIN=   4.00000
   O  -0.4916252  -0.3143632  -0.4389677 SPIN=   0.00000
   O  -0.2799050  -0.3561860  -0.1180764 SPIN=   0.00000
   O  -0.0908694   0.0003077  -0.1661352 SPIN=   0.00000
   O   0.0210579  -0.3227891  -0.3835442 SPIN=   0.00000
   S  -0.2103355  -0.2482576  -0.2766809 SPIN=   0.00000
   O   0.4916252   0.3143632   0.4389677 SPIN=   0.00000
   O   0.2799050   0.3561860   0.1180764 SPIN=   0.00000
   O   0.0908694  -0.0003077   0.1661352 SPIN=   0.00000
   O  -0.0210579   0.3227891   0.3835442 SPIN=   0.00000
   S   0.2103355   0.2482576   0.2766809 SPIN=   0.00000
   F   0.4859729   0.2091600  -0.2162115 SPIN=   0.00000
   F  -0.4859729  -0.2091600   0.2162115 SPIN=   0.00000
%ENDBLOCK POSITIONS_FRAC

# Note: total spin =   8.00

KPOINTS_MP_SPACING 0.07

%BLOCK SPECIES_POT
QC5
%ENDBLOCK SPECIES_POT

SNAP_TO_SYMMETRY
SYMMETRY_GENERATE

