#              Generated by Buildcell
#
# at 05:43:26 (GMT+1.0) 4th August 2020
# in /lustre/scratch/uccabz1/launch_tmp
# on node-c12d-010
# by uccabz1
#
# compiler GCC version 4.9.2
# options -cpp -iprefix /lustre/shared/ucl/apps/gcc/4.9.2/bin/../lib/gcc/x86_64-unknown-linux-gnu/4.9.2/ -mtune=corei7 -march=x86-64 -g -Og
#
# seed  -412336326  2001772538   -14697573    30248826  1134355227  -856778770  -930819542 -1166423611  -634211371  -946758313  1772746156   440699307
#
#      Author: C. J. Pickard (cjp20@cam.ac.uk)
#                Space group: Cc
#

%BLOCK LATTICE_ABC
      5.21767      6.39744      6.79975
    118.06135     92.72988     90.00000
%ENDBLOCK LATTICE_ABC

%BLOCK POSITIONS_FRAC
  Li  -0.3255692  -0.1047755   0.1981239 SPIN=   0.00000
  Li   0.1744308   0.3028995   0.1981239 SPIN=   0.00000
  Fe  -0.4176341  -0.3692426  -0.3265743 SPIN=   4.00000
  Fe   0.0823659   0.0426683  -0.3265743 SPIN=   4.00000
   O  -0.5381060   0.1308722  -0.0363533 SPIN=   0.00000
   O  -0.2040715   0.2338812   0.2678611 SPIN=   0.00000
   O  -0.4501521   0.5506233   0.2402389 SPIN=   0.00000
   O  -0.1319526   0.3294983  -0.0383774 SPIN=   0.00000
   S  -0.3310705   0.3112187   0.1083423 SPIN=   0.00000
   O  -0.0381060  -0.1672255  -0.0363533 SPIN=   0.00000
   O   0.2959285   0.0339799   0.2678611 SPIN=   0.00000
   O   0.0498479  -0.3103843   0.2402389 SPIN=   0.00000
   O   0.3680474  -0.3678757  -0.0383774 SPIN=   0.00000
   S   0.1689295  -0.2028764   0.1083423 SPIN=   0.00000
   F  -0.2876405   0.0123751  -0.4749831 SPIN=   0.00000
   F   0.2123595  -0.4873582  -0.4749831 SPIN=   0.00000
%ENDBLOCK POSITIONS_FRAC

# Note: total spin =   8.00

KPOINTS_MP_SPACING 0.07

%BLOCK SPECIES_POT
QC5
%ENDBLOCK SPECIES_POT

SNAP_TO_SYMMETRY
SYMMETRY_GENERATE

