#              Generated by Buildcell
#
# at 19:15:49 (GMT+1.0) 18th August 2020
# in /lustre/scratch/uccabz1/launch_tmp
# on node-c12k-027
# by uccabz1
#
# compiler GCC version 4.9.2
# options -cpp -iprefix /lustre/shared/ucl/apps/gcc/4.9.2/bin/../lib/gcc/x86_64-unknown-linux-gnu/4.9.2/ -mtune=corei7 -march=x86-64 -g -Og
#
# seed -2019505742   547514567  -533484235  -349577292 -1014862052 -1475408154 -1988656305   817150585 -1352952014 -1042787708   100648228   490072277
#
#      Author: C. J. Pickard (cjp20@cam.ac.uk)
#                Space group: Cm
#

%BLOCK LATTICE_ABC
      6.34411      6.40094      6.40094
     74.87294     61.34584     61.34584
%ENDBLOCK LATTICE_ABC

%BLOCK POSITIONS_FRAC
  Li  -0.6889851   0.1503733   0.1503733 SPIN=   0.00000
  Li   1.0324236  -0.3123951  -0.3123951 SPIN=   0.00000
  Fe  -0.1523704   0.0907484   0.0907484 SPIN=   2.34940
  Fe   0.6274752  -0.4803576  -0.4803576 SPIN=   5.65060
   O   0.0721050  -0.3894152   0.3094617 SPIN=   0.00000
   O   0.3689709  -0.1828801   0.1164656 SPIN=   0.00000
   O   0.3593168  -0.4230464  -0.1229335 SPIN=   0.00000
   S   0.3391791  -0.4044675   0.1177846 SPIN=   0.00000
   O   0.0721050   0.3094617  -0.3894152 SPIN=   0.00000
   O   0.3689709   0.1164656  -0.1828801 SPIN=   0.00000
   O   0.3593168  -0.1229335  -0.4230464 SPIN=   0.00000
   S   0.3391791   0.1177846  -0.4044675 SPIN=   0.00000
   O  -0.5559249   0.4034154   0.4034154 SPIN=   0.00000
   O   0.7142113  -0.3135880  -0.3135880 SPIN=   0.00000
   F  -0.0475635   0.2574205   0.2574205 SPIN=   0.00000
   F  -0.2304451  -0.0887362  -0.0887362 SPIN=   0.00000
%ENDBLOCK POSITIONS_FRAC

# Note: total spin =   8.00

KPOINTS_MP_SPACING 0.07

%BLOCK SPECIES_POT
QC5
%ENDBLOCK SPECIES_POT

SNAP_TO_SYMMETRY
SYMMETRY_GENERATE

