#              Generated by Buildcell
#
# at 22:16:09 (GMT+1.0) 18th August 2020
# in /lustre/scratch/uccabz1/launch_tmp
# on node-c12p-018
# by uccabz1
#
# compiler GCC version 4.9.2
# options -cpp -iprefix /lustre/shared/ucl/apps/gcc/4.9.2/bin/../lib/gcc/x86_64-unknown-linux-gnu/4.9.2/ -mtune=corei7 -march=x86-64 -g -Og
#
# seed   -31862882  1633240449  1739269909  -862450381    -3721355 -1513390959  -838977923  -620742168 -1401411444  1821368246  -706957668  -527492333
#
#      Author: C. J. Pickard (cjp20@cam.ac.uk)
#                Space group: Cc
#

%BLOCK LATTICE_ABC
      5.26251      5.26251      7.71640
     90.21041     90.21041    110.62294
%ENDBLOCK LATTICE_ABC

%BLOCK POSITIONS_FRAC
  Li  -0.2040006  -0.4293181  -0.2155672 SPIN=   0.00000
  Li  -0.4293181  -0.2040006   0.2844328 SPIN=   0.00000
  Fe  -0.2255350   0.3689308   0.4185971 SPIN=   4.00000
  Fe   0.3689308  -0.2255350  -0.0814029 SPIN=   4.00000
   O  -0.0695433   0.0045547   0.4019738 SPIN=   0.00000
   O   0.4168916   0.0739636   0.3629148 SPIN=   0.00000
   O   0.1684086   0.2255642   0.1365800 SPIN=   0.00000
   O   0.0691541  -0.2650632   0.1828835 SPIN=   0.00000
   S   0.1462277   0.0097548   0.2710880 SPIN=   0.00000
   O   0.0045547  -0.0695433  -0.0980262 SPIN=   0.00000
   O   0.0739636   0.4168916  -0.1370852 SPIN=   0.00000
   O   0.2255642   0.1684086  -0.3634200 SPIN=   0.00000
   O  -0.2650632   0.0691541  -0.3171165 SPIN=   0.00000
   S   0.0097548   0.1462277  -0.2289120 SPIN=   0.00000
   F  -0.3980050  -0.4497313   0.0143925 SPIN=   0.00000
   F  -0.4497313  -0.3980050  -0.4856075 SPIN=   0.00000
%ENDBLOCK POSITIONS_FRAC

# Note: total spin =   8.00

KPOINTS_MP_SPACING 0.07

%BLOCK SPECIES_POT
QC5
%ENDBLOCK SPECIES_POT

SNAP_TO_SYMMETRY
SYMMETRY_GENERATE

