#              Generated by Buildcell
#
# at 05:34:27 (GMT+1.0) 4th August 2020
# in /lustre/scratch/uccabz1/launch_tmp
# on node-c12l-033
# by uccabz1
#
# compiler GCC version 4.9.2
# options -cpp -iprefix /lustre/shared/ucl/apps/gcc/4.9.2/bin/../lib/gcc/x86_64-unknown-linux-gnu/4.9.2/ -mtune=corei7 -march=x86-64 -g -Og
#
# seed -1529068815 -2063143411   391202692   641094610 -1103250350 -1898715311  1291558255 -1551324529  1944454416   536452201  -619155015  -691171182
#
#      Author: C. J. Pickard (cjp20@cam.ac.uk)
#                Space group: P-1
#

%BLOCK LATTICE_ABC
      3.98183      5.06916     10.12121
     84.06407     79.87594     89.97096
%ENDBLOCK LATTICE_ABC

%BLOCK POSITIONS_FRAC
  Li  -0.1809116  -0.3264632   0.3641806 SPIN=   0.00000
  Li   0.1809116   0.3264632  -0.3641806 SPIN=   0.00000
  Fe  -0.4095268   0.2792709  -0.1426668 SPIN=   4.00000
  Fe   0.4095268  -0.2792709   0.1426668 SPIN=   4.00000
   O   0.2105948   0.0686017  -0.1929979 SPIN=   0.00000
   O   0.2860642  -0.3891178  -0.2563930 SPIN=   0.00000
   O  -0.2840934  -0.2427303  -0.1529013 SPIN=   0.00000
   O   0.1711888  -0.3100597  -0.0154825 SPIN=   0.00000
   S   0.0959386  -0.2183265  -0.1544437 SPIN=   0.00000
   O  -0.2105948  -0.0686017   0.1929979 SPIN=   0.00000
   O  -0.2860642   0.3891178   0.2563930 SPIN=   0.00000
   O   0.2840934   0.2427303   0.1529013 SPIN=   0.00000
   O  -0.1711888   0.3100597   0.0154825 SPIN=   0.00000
   S  -0.0959386   0.2183265   0.1544437 SPIN=   0.00000
   F  -0.2914759   0.2309266  -0.4070047 SPIN=   0.00000
   F   0.2914759  -0.2309266   0.4070047 SPIN=   0.00000
%ENDBLOCK POSITIONS_FRAC

# Note: total spin =   8.00

KPOINTS_MP_SPACING 0.07

%BLOCK SPECIES_POT
QC5
%ENDBLOCK SPECIES_POT

SNAP_TO_SYMMETRY
SYMMETRY_GENERATE

