#              Generated by Buildcell
#
# at 04:38:55 (GMT+1.0) 4th August 2020
# in /lustre/scratch/uccabz1/launch_tmp
# on node-c12l-033
# by uccabz1
#
# compiler GCC version 4.9.2
# options -cpp -iprefix /lustre/shared/ucl/apps/gcc/4.9.2/bin/../lib/gcc/x86_64-unknown-linux-gnu/4.9.2/ -mtune=corei7 -march=x86-64 -g -Og
#
# seed   270626587   881043621   954957948  2144725111   168416490   177784094  -376723371 -1581868004  2124424879 -1839896704  1272311411  -312462586
#
#      Author: C. J. Pickard (cjp20@cam.ac.uk)
#                Space group: Pc
#

%BLOCK LATTICE_ABC
      4.22951      5.80490      8.30371
     90.00000    101.18407     90.00000
%ENDBLOCK LATTICE_ABC

%BLOCK POSITIONS_FRAC
  Li   0.0466889   0.1534016   0.1817528 SPIN=   0.00000
  Li  -0.4533111  -0.1534016  -0.3182472 SPIN=   0.00000
  Fe   0.4156671   0.3202668  -0.1895584 SPIN=   4.00000
  Fe  -0.0843329  -0.3202668   0.3104416 SPIN=   4.00000
   O  -0.2736530  -0.1350303  -0.0418766 SPIN=   0.00000
   O   0.1664441  -0.0069486  -0.1785477 SPIN=   0.00000
   O   0.0877149  -0.4223942  -0.1321497 SPIN=   0.00000
   O   0.2940185  -0.1662835   0.1030538 SPIN=   0.00000
   S   0.0686311  -0.1826642  -0.0623801 SPIN=   0.00000
   O  -0.7736530   0.1350303   0.4581234 SPIN=   0.00000
   O  -0.3335559   0.0069486   0.3214523 SPIN=   0.00000
   O  -0.4122851   0.4223942   0.3678503 SPIN=   0.00000
   O  -0.2059815   0.1662835   0.6030538 SPIN=   0.00000
   S  -0.4313689   0.1826642   0.4376199 SPIN=   0.00000
   F  -0.3514572   0.3394986   0.0354462 SPIN=   0.00000
   F   0.1485428  -0.3394986  -0.4645538 SPIN=   0.00000
%ENDBLOCK POSITIONS_FRAC

# Note: total spin =   8.00

KPOINTS_MP_SPACING 0.07

%BLOCK SPECIES_POT
QC5
%ENDBLOCK SPECIES_POT

SNAP_TO_SYMMETRY
SYMMETRY_GENERATE

