#              Generated by Buildcell
#
# at 22:48:54 (GMT+1.0) 18th August 2020
# in /scratch/scratch/uccabz1/launch_tmp
# on node-k10e-006
# by uccabz1
#
# compiler GCC version 4.9.2
# options -cpp -iprefix /scratch/UCL/applications/gcc/4.9.2/bin/../lib/gcc/x86_64-unknown-linux-gnu/4.9.2/ -mtune=corei7 -march=x86-64 -g -O2
#
# seed   647692736 -1105331303  -605823826   -56071673 -1173659140  1382533641 -1111580937   497114278 -1393372115 -1543693586   958306426   186849550
#
#      Author: C. J. Pickard (cjp20@cam.ac.uk)
#                Space group: P2221
#

%BLOCK LATTICE_ABC
      4.02591      6.45905      7.69127
     90.00000     90.00000     90.00000
%ENDBLOCK LATTICE_ABC

%BLOCK POSITIONS_FRAC
  Li   0.0000000   0.1990424   0.2500000 SPIN=   0.00000
  Li   0.0000000  -0.1990424  -0.2500000 SPIN=   0.00000
  Fe   0.5000000  -0.4495233   0.2500000 SPIN=   4.00000
  Fe  -0.5000000   0.4495233  -0.2500000 SPIN=   4.00000
   O  -0.5086231  -0.3229155  -0.0009147 SPIN=   0.00000
   O  -0.2661633  -0.0202999   0.1502467 SPIN=   0.00000
   O   0.5086231   0.3229155  -0.5009147 SPIN=   0.00000
   O   0.2661633   0.0202999  -0.3497533 SPIN=   0.00000
   O   0.5086231  -0.3229155   0.5009147 SPIN=   0.00000
   O   0.2661633  -0.0202999   0.3497533 SPIN=   0.00000
   O  -0.5086231   0.3229155   0.0009147 SPIN=   0.00000
   O  -0.2661633   0.0202999  -0.1502467 SPIN=   0.00000
   S   0.4239383   0.0000000   0.0000000 SPIN=   0.00000
   S  -0.4239383   0.0000000  -0.5000000 SPIN=   0.00000
   F   0.0000000   0.4077846  -0.2500000 SPIN=   0.00000
   F   0.0000000  -0.4077846   0.2500000 SPIN=   0.00000
%ENDBLOCK POSITIONS_FRAC

# Note: total spin =   8.00

KPOINTS_MP_SPACING 0.07

%BLOCK SPECIES_POT
QC5
%ENDBLOCK SPECIES_POT

SNAP_TO_SYMMETRY
SYMMETRY_GENERATE

