#              Generated by Buildcell
#
# at 21:33:42 (GMT+1.0) 18th August 2020
# in /scratch/scratch/uccabz1/launch_tmp
# on node-k10h-011
# by uccabz1
#
# compiler GCC version 4.9.2
# options -cpp -iprefix /scratch/UCL/applications/gcc/4.9.2/bin/../lib/gcc/x86_64-unknown-linux-gnu/4.9.2/ -mtune=corei7 -march=x86-64 -g -O2
#
# seed  -667451512  -123386402  1146252335   302716552  1634069956   239512566 -1579325175  1024895265 -2020686169  1391130769  -967456525 -2024496165
#
#      Author: C. J. Pickard (cjp20@cam.ac.uk)
#                Space group: C2
#

%BLOCK LATTICE_ABC
      4.95778      4.95778      8.32837
     98.63572     98.63572     90.41171
%ENDBLOCK LATTICE_ABC

%BLOCK POSITIONS_FRAC
  Li   0.0627388   0.0515306   0.2793376 SPIN=   0.00000
  Li  -0.0515306  -0.0627388  -0.2793376 SPIN=   0.00000
  Fe  -0.0312426   0.4847875  -0.0914400 SPIN=   4.00000
  Fe  -0.4847875   0.0312426   0.0914400 SPIN=   4.00000
   O   0.6747065   0.2400673  -0.3013970 SPIN=   0.00000
   O   0.3837315   0.1910557  -0.5735444 SPIN=   0.00000
   O   0.2022729   0.4043257  -0.3250799 SPIN=   0.00000
   O   0.2836528  -0.0914387  -0.3673454 SPIN=   0.00000
   S   0.3860909   0.1860025  -0.3918417 SPIN=   0.00000
   O  -0.2400673  -0.6747065   0.3013970 SPIN=   0.00000
   O  -0.1910557  -0.3837315   0.5735444 SPIN=   0.00000
   O  -0.4043257  -0.2022729   0.3250799 SPIN=   0.00000
   O   0.0914387  -0.2836528   0.3673454 SPIN=   0.00000
   S  -0.1860025  -0.3860909   0.3918417 SPIN=   0.00000
   F   0.2401829   0.3145141   0.1076887 SPIN=   0.00000
   F  -0.3145141  -0.2401829  -0.1076887 SPIN=   0.00000
%ENDBLOCK POSITIONS_FRAC

# Note: total spin =   8.00

KPOINTS_MP_SPACING 0.07

%BLOCK SPECIES_POT
QC5
%ENDBLOCK SPECIES_POT

SNAP_TO_SYMMETRY
SYMMETRY_GENERATE

