#              Generated by Buildcell
#
# at 02:44:01 (GMT+1.0) 4th August 2020
# in /lustre/scratch/uccabz1/launch_tmp
# on node-c12d-029
# by uccabz1
#
# compiler GCC version 4.9.2
# options -cpp -iprefix /lustre/shared/ucl/apps/gcc/4.9.2/bin/../lib/gcc/x86_64-unknown-linux-gnu/4.9.2/ -mtune=corei7 -march=x86-64 -g -Og
#
# seed   199838604  1541795170  1637334448  -531543612 -1533298946  1045608885  2045992105  -572087891  -209602661   427386657   198870779   316428082
#
#      Author: C. J. Pickard (cjp20@cam.ac.uk)
#                Space group: P21
#

%BLOCK LATTICE_ABC
      4.98837      5.21616      7.69264
     92.31666     90.00000     90.00000
%ENDBLOCK LATTICE_ABC

%BLOCK POSITIONS_FRAC
  Li  -0.2293913   0.3797982  -0.2687086 SPIN=   0.00000
  Li   0.2706087  -0.3797982   0.2687086 SPIN=   0.00000
  Fe  -0.4163595   0.1801591   0.3877597 SPIN=   4.00000
  Fe   0.0836405  -0.1801591  -0.3877597 SPIN=   4.00000
   O   0.3104792   0.3580067   0.0757700 SPIN=   0.00000
   O   0.0174860   0.1636483  -0.1533109 SPIN=   0.00000
   O   0.4841372   0.0110090  -0.1222930 SPIN=   0.00000
   O   0.3962222   0.4414936  -0.2337311 SPIN=   0.00000
   S   0.3020811   0.2435394  -0.1083912 SPIN=   0.00000
   O  -0.1895208  -0.3580067  -0.0757700 SPIN=   0.00000
   O  -0.4825140  -0.1636483   0.1533109 SPIN=   0.00000
   O  -0.0158628  -0.0110090   0.1222930 SPIN=   0.00000
   O  -0.1037778  -0.4414936   0.2337311 SPIN=   0.00000
   S  -0.1979189  -0.2435394   0.1083912 SPIN=   0.00000
   F   0.2083061   0.2257457   0.4110823 SPIN=   0.00000
   F  -0.2916939  -0.2257457  -0.4110823 SPIN=   0.00000
%ENDBLOCK POSITIONS_FRAC

# Note: total spin =   8.00

KPOINTS_MP_SPACING 0.07

%BLOCK SPECIES_POT
QC5
%ENDBLOCK SPECIES_POT

SNAP_TO_SYMMETRY
SYMMETRY_GENERATE

