#              Generated by Buildcell
#
# at 02:04:53 (GMT+1.0) 19th August 2020
# in /lustre/scratch/uccabz1/launch_tmp
# on node-c12o-027
# by uccabz1
#
# compiler GCC version 4.9.2
# options -cpp -iprefix /lustre/shared/ucl/apps/gcc/4.9.2/bin/../lib/gcc/x86_64-unknown-linux-gnu/4.9.2/ -mtune=corei7 -march=x86-64 -g -Og
#
# seed -1096878998 -1454945199  -986307665   894658198  -248102367 -1322307697   331270924 -2025374161 -1722508176  -421299202 -1171070021   944168729
#
#      Author: C. J. Pickard (cjp20@cam.ac.uk)
#                Space group: P-1
#

%BLOCK LATTICE_ABC
      5.06371      5.97797      7.12848
     73.38594     78.90008     77.66304
%ENDBLOCK LATTICE_ABC

%BLOCK POSITIONS_FRAC
  Li   0.0000000  -0.5000000   0.0000000 SPIN=   0.00000
  Li   0.0000000   0.0000000   0.5000000 SPIN=   0.00000
  Fe   0.3798693   0.4359685   0.2785100 SPIN=   4.00000
  Fe  -0.3798693  -0.4359685  -0.2785100 SPIN=   4.00000
   O   0.2220960   0.3929013  -0.4035081 SPIN=   0.00000
   O   0.2800820  -0.0446312  -0.2979345 SPIN=   0.00000
   O  -0.0496131   0.1951754  -0.0969841 SPIN=   0.00000
   O   0.4468372   0.1731452  -0.1092633 SPIN=   0.00000
   S   0.2248506   0.1791477  -0.2269225 SPIN=   0.00000
   O  -0.2220960  -0.3929013   0.4035081 SPIN=   0.00000
   O  -0.2800820   0.0446312   0.2979345 SPIN=   0.00000
   O   0.0496131  -0.1951754   0.0969841 SPIN=   0.00000
   O  -0.4468372  -0.1731452   0.1092633 SPIN=   0.00000
   S  -0.2248506  -0.1791477   0.2269225 SPIN=   0.00000
   F  -0.1592125  -0.2371702  -0.2695849 SPIN=   0.00000
   F   0.1592125   0.2371702   0.2695849 SPIN=   0.00000
%ENDBLOCK POSITIONS_FRAC

# Note: total spin =   8.00

KPOINTS_MP_SPACING 0.07

%BLOCK SPECIES_POT
QC5
%ENDBLOCK SPECIES_POT

SNAP_TO_SYMMETRY
SYMMETRY_GENERATE

