#              Generated by Buildcell
#
# at 23:30:00 (GMT+1.0) 18th August 2020
# in /lustre/scratch/uccabz1/launch_tmp
# on node-c12f-002
# by uccabz1
#
# compiler GCC version 4.9.2
# options -cpp -iprefix /lustre/shared/ucl/apps/gcc/4.9.2/bin/../lib/gcc/x86_64-unknown-linux-gnu/4.9.2/ -mtune=corei7 -march=x86-64 -g -Og
#
# seed -1189210944  1479349633  -938180636  1136660786   300417500  -771126925  -852957275  -589163206  -806697384 -1214817990 -1930007056  1723389544
#
#      Author: C. J. Pickard (cjp20@cam.ac.uk)
#                Space group: Cc
#

%BLOCK LATTICE_ABC
      5.49386      5.49386      6.83385
     98.26076     98.26076     96.71787
%ENDBLOCK LATTICE_ABC

%BLOCK POSITIONS_FRAC
  Li   0.2465166  -0.4214368  -0.0465369 SPIN=   0.00000
  Li  -0.4214368   0.2465166   0.4534631 SPIN=   0.00000
  Fe  -0.1970776  -0.0278077  -0.2479583 SPIN=   4.00000
  Fe  -0.0278077  -0.1970776   0.2520417 SPIN=   4.00000
   O   0.1925347   0.1270756  -0.4997979 SPIN=   0.00000
   O  -0.0906443   0.3935332  -0.3532881 SPIN=   0.00000
   O   0.0987166   0.5013116  -0.6425938 SPIN=   0.00000
   O   0.3591599   0.5454792  -0.3090294 SPIN=   0.00000
   S   0.1399417   0.3918499  -0.4511773 SPIN=   0.00000
   O   0.1270756   0.1925347   0.0002021 SPIN=   0.00000
   O   0.3935332  -0.0906443   0.1467119 SPIN=   0.00000
   O   0.5013116   0.0987166  -0.1425938 SPIN=   0.00000
   O   0.5454792   0.3591599   0.1909706 SPIN=   0.00000
   S   0.3918499   0.1399417   0.0488227 SPIN=   0.00000
   F  -0.3732542  -0.1170509   0.4943562 SPIN=   0.00000
   F  -0.1170509  -0.3732542  -0.0056438 SPIN=   0.00000
%ENDBLOCK POSITIONS_FRAC

# Note: total spin =   8.00

KPOINTS_MP_SPACING 0.07

%BLOCK SPECIES_POT
QC5
%ENDBLOCK SPECIES_POT

SNAP_TO_SYMMETRY
SYMMETRY_GENERATE

