#              Generated by Buildcell
#
# at 20:05:38 (GMT+1.0) 18th August 2020
# in /lustre/scratch/uccabz1/launch_tmp
# on node-c12k-032
# by uccabz1
#
# compiler GCC version 4.9.2
# options -cpp -iprefix /lustre/shared/ucl/apps/gcc/4.9.2/bin/../lib/gcc/x86_64-unknown-linux-gnu/4.9.2/ -mtune=corei7 -march=x86-64 -g -Og
#
# seed  -764678106  1024114462 -1614048179   -74077575  -389416141  -536886331   350024611 -1396494072  1180871166   -57197194  -644539221    29484245
#
#      Author: C. J. Pickard (cjp20@cam.ac.uk)
#                Space group: C2/m
#

%BLOCK LATTICE_ABC
      4.34661      6.99654      7.44906
    118.00999     90.01320     90.00000
%ENDBLOCK LATTICE_ABC

%BLOCK POSITIONS_FRAC
  Li   0.2499905  -0.2685921  -0.5371841 SPIN=   0.00000
  Li  -0.2499905   0.2685921   0.5371841 SPIN=   0.00000
  Fe   0.2499850   0.1083397   0.2166794 SPIN=   4.00000
  Fe  -0.2499850  -0.1083397  -0.2166794 SPIN=   4.00000
   O  -0.1259977   0.2191625  -0.1821681 SPIN=   0.00000
   O  -0.2477158  -0.0779832  -0.5245093 SPIN=   0.00000
   O   0.1259977   0.4013305   0.1821681 SPIN=   0.00000
   O   0.2477158   0.4465261   0.5245093 SPIN=   0.00000
   O   0.1259977  -0.2191625   0.1821681 SPIN=   0.00000
   O   0.2477158   0.0779832   0.5245093 SPIN=   0.00000
   O  -0.1259977  -0.4013305  -0.1821681 SPIN=   0.00000
   O  -0.2477158  -0.4465261  -0.5245093 SPIN=   0.00000
   S  -0.2500413  -0.3800397  -0.7600794 SPIN=   0.00000
   S   0.2500413   0.3800397   0.7600794 SPIN=   0.00000
   F   0.2499077  -0.1151165  -0.2302330 SPIN=   0.00000
   F  -0.2499077   0.1151165   0.2302330 SPIN=   0.00000
%ENDBLOCK POSITIONS_FRAC

# Note: total spin =   8.00

KPOINTS_MP_SPACING 0.07

%BLOCK SPECIES_POT
QC5
%ENDBLOCK SPECIES_POT

SNAP_TO_SYMMETRY
SYMMETRY_GENERATE

