#              Generated by Buildcell
#
# at 01:42:59 (GMT+1.0) 4th August 2020
# in /lustre/scratch/uccabz1/launch_tmp
# on node-c12g-009
# by uccabz1
#
# compiler GCC version 4.9.2
# options -cpp -iprefix /lustre/shared/ucl/apps/gcc/4.9.2/bin/../lib/gcc/x86_64-unknown-linux-gnu/4.9.2/ -mtune=corei7 -march=x86-64 -g -Og
#
# seed   199067741  -112493603   711981361   360050093 -2063196694   -54439589  1212417622 -1785491375  1315525320  1325223950   -13943047 -1340969869
#
#      Author: C. J. Pickard (cjp20@cam.ac.uk)
#                Space group: Cc
#

%BLOCK LATTICE_ABC
      5.56965      5.56965      7.36606
    108.38066    108.38066     96.46239
%ENDBLOCK LATTICE_ABC

%BLOCK POSITIONS_FRAC
  Li   0.3211383  -0.0246322   0.3880180 SPIN=   0.00000
  Li   0.4753678  -0.1788617  -0.1119820 SPIN=   0.00000
  Fe  -0.2662968  -0.2982374   0.3572008 SPIN=   4.00000
  Fe   0.2017626   0.2337032  -0.1427992 SPIN=   4.00000
   O   0.0070693   0.0304248  -0.0222473 SPIN=   0.00000
   O  -0.0526775  -0.2159190   0.1935093 SPIN=   0.00000
   O   0.2088812  -0.3433339  -0.0219417 SPIN=   0.00000
   O  -0.2690642  -0.4180712  -0.1861728 SPIN=   0.00000
   S  -0.0264478  -0.2367248  -0.0092131 SPIN=   0.00000
   O   0.5304248   0.5070693   0.4777527 SPIN=   0.00000
   O   0.2840810   0.4473225   0.6935093 SPIN=   0.00000
   O   0.1566661   0.7088812   0.4780583 SPIN=   0.00000
   O   0.0819288   0.2309358   0.3138272 SPIN=   0.00000
   S   0.2632752   0.4735522   0.4907869 SPIN=   0.00000
   F  -0.4324215   0.2570353   0.0842094 SPIN=   0.00000
   F  -0.2429647   0.0675785  -0.4157906 SPIN=   0.00000
%ENDBLOCK POSITIONS_FRAC

# Note: total spin =   8.00

KPOINTS_MP_SPACING 0.07

%BLOCK SPECIES_POT
QC5
%ENDBLOCK SPECIES_POT

SNAP_TO_SYMMETRY
SYMMETRY_GENERATE

