#              Generated by Buildcell
#
# at 05:07:08 (GMT+1.0) 4th August 2020
# in /lustre/scratch/uccabz1/launch_tmp
# on node-c12k-001
# by uccabz1
#
# compiler GCC version 4.9.2
# options -cpp -iprefix /lustre/shared/ucl/apps/gcc/4.9.2/bin/../lib/gcc/x86_64-unknown-linux-gnu/4.9.2/ -mtune=corei7 -march=x86-64 -g -Og
#
# seed   324600080 -1105886430  1011598880  1230967329   309541876  -730935336    96123488  1135172811 -1460583329 -1230032256    59902580   748620740
#
#      Author: C. J. Pickard (cjp20@cam.ac.uk)
#                Space group: C2
#

%BLOCK LATTICE_ABC
      4.51714      6.40953      7.26788
     90.43772    108.10509     90.00000
%ENDBLOCK LATTICE_ABC

%BLOCK POSITIONS_FRAC
  Li  -0.4167948   0.0000000   0.0000000 SPIN=   0.00000
  Li   0.0345629   0.5000000   0.0000000 SPIN=   0.00000
  Fe   0.0108485   0.1396666  -0.3301592 SPIN=   4.00000
  Fe   0.3410078  -0.1396666   0.3301592 SPIN=   4.00000
   O   0.1707077  -0.4659651  -0.4924626 SPIN=   0.00000
   O   0.1417479  -0.2085001  -0.2431593 SPIN=   0.00000
   O   0.6545664  -0.3327604  -0.2545134 SPIN=   0.00000
   O   0.3080369  -0.5706697  -0.1491370 SPIN=   0.00000
   S   0.3187647  -0.3944738  -0.2848181 SPIN=   0.00000
   O  -0.3368298   0.4659651   0.4924626 SPIN=   0.00000
   O  -0.6150928   0.2085001   0.2431593 SPIN=   0.00000
   O  -0.0909201   0.3327604   0.2545134 SPIN=   0.00000
   O  -0.5428261   0.5706697   0.1491370 SPIN=   0.00000
   S  -0.3964172   0.3944738   0.2848181 SPIN=   0.00000
   F  -0.0703042  -0.1054623   0.2922460 SPIN=   0.00000
   F  -0.3625502   0.1054623  -0.2922460 SPIN=   0.00000
%ENDBLOCK POSITIONS_FRAC

# Note: total spin =   8.00

KPOINTS_MP_SPACING 0.07

%BLOCK SPECIES_POT
QC5
%ENDBLOCK SPECIES_POT

SNAP_TO_SYMMETRY
SYMMETRY_GENERATE

