#              Generated by Buildcell
#
# at 03:46:24 (GMT+1.0) 4th August 2020
# in /lustre/scratch/uccabz1/launch_tmp
# on node-c12p-016
# by uccabz1
#
# compiler GCC version 4.9.2
# options -cpp -iprefix /lustre/shared/ucl/apps/gcc/4.9.2/bin/../lib/gcc/x86_64-unknown-linux-gnu/4.9.2/ -mtune=corei7 -march=x86-64 -g -Og
#
# seed  1824268295 -1552347570  1433643715  -238389428 -2038001888  -923085613  2049029651  1500699920  -131214960 -1655698689  1854113033  1654699282
#
#      Author: C. J. Pickard (cjp20@cam.ac.uk)
#                Space group: P21
#

%BLOCK LATTICE_ABC
      4.60720      6.19707      7.36936
     90.00000    108.09333     90.00000
%ENDBLOCK LATTICE_ABC

%BLOCK POSITIONS_FRAC
  Li   0.2212203   0.0246212  -0.0482104 SPIN=   0.00000
  Li  -0.2212203  -0.4753788   0.0482104 SPIN=   0.00000
  Fe  -0.0885337   0.2694114  -0.3908072 SPIN=   4.00000
  Fe   0.0885337  -0.2305886   0.3908072 SPIN=   4.00000
   O  -0.1612618  -0.0860386  -0.3995644 SPIN=   0.00000
   O  -0.1778410  -0.1088662  -0.0676446 SPIN=   0.00000
   O  -0.0332303  -0.4292281  -0.2207353 SPIN=   0.00000
   O  -0.5670606  -0.2982361  -0.3274009 SPIN=   0.00000
   S  -0.2348484  -0.2305923  -0.2538363 SPIN=   0.00000
   O   0.1612618   0.4139614   0.3995644 SPIN=   0.00000
   O   0.1778410   0.3911338   0.0676446 SPIN=   0.00000
   O   0.0332303   0.0707719   0.2207353 SPIN=   0.00000
   O   0.5670606   0.2017639   0.3274009 SPIN=   0.00000
   S   0.2348484   0.2694077   0.2538363 SPIN=   0.00000
   F  -0.3623791  -0.2306209   0.2138239 SPIN=   0.00000
   F   0.3623791   0.2693791  -0.2138239 SPIN=   0.00000
%ENDBLOCK POSITIONS_FRAC

# Note: total spin =   8.00

KPOINTS_MP_SPACING 0.07

%BLOCK SPECIES_POT
QC5
%ENDBLOCK SPECIES_POT

SNAP_TO_SYMMETRY
SYMMETRY_GENERATE

