#              Generated by Buildcell
#
# at 23:58:45 (GMT+1.0) 18th August 2020
# in /scratch/scratch/uccabz1/launch_tmp
# on node-k10i-030
# by uccabz1
#
# compiler GCC version 4.9.2
# options -cpp -iprefix /scratch/UCL/applications/gcc/4.9.2/bin/../lib/gcc/x86_64-unknown-linux-gnu/4.9.2/ -mtune=corei7 -march=x86-64 -g -O2
#
# seed  -383724310  -267929197   856724575  1293225082  1812068653  1627323526  1944918419   722107564   855452055 -1663081809 -1216447954   703046107
#
#      Author: C. J. Pickard (cjp20@cam.ac.uk)
#                Space group: Ama2
#

%BLOCK LATTICE_ABC
      4.65702      5.97678      7.80191
     90.00000     90.00000    112.92919
%ENDBLOCK LATTICE_ABC

%BLOCK POSITIONS_FRAC
  Li   0.3176486  -0.1642304  -0.2500000 SPIN=   0.00000
  Li   0.4818790   0.1642304   0.2500000 SPIN=   0.00000
  Fe  -0.1890678  -0.1776633   0.2500000 SPIN=   4.00000
  Fe  -0.0114046   0.1776633  -0.2500000 SPIN=   4.00000
   O  -0.1738584  -0.5671620  -0.3990160 SPIN=   0.00000
   O  -0.2493626  -0.1796687  -0.4062104 SPIN=   0.00000
   O   0.3933036   0.5671620   0.3990160 SPIN=   0.00000
   O  -0.0696939   0.1796687   0.4062104 SPIN=   0.00000
   O   0.3933036   0.5671620   0.1009840 SPIN=   0.00000
   O  -0.0696939   0.1796687   0.0937896 SPIN=   0.00000
   O  -0.1738584  -0.5671620  -0.1009840 SPIN=   0.00000
   O  -0.2493626  -0.1796687  -0.0937896 SPIN=   0.00000
   S  -0.3061462  -0.4118200  -0.2500000 SPIN=   0.00000
   S   0.1056738   0.4118200   0.2500000 SPIN=   0.00000
   F   0.3517536  -0.0000000   0.0000000 SPIN=   0.00000
   F   0.3517536  -0.0000000   0.5000000 SPIN=   0.00000
%ENDBLOCK POSITIONS_FRAC

# Note: total spin =   8.00

KPOINTS_MP_SPACING 0.07

%BLOCK SPECIES_POT
QC5
%ENDBLOCK SPECIES_POT

SNAP_TO_SYMMETRY
SYMMETRY_GENERATE

