#              Generated by Buildcell
#
# at 01:34:24 (GMT+1.0) 19th August 2020
# in /lustre/scratch/uccabz1/launch_tmp
# on node-c12a-016
# by uccabz1
#
# compiler GCC version 4.9.2
# options -cpp -iprefix /lustre/shared/ucl/apps/gcc/4.9.2/bin/../lib/gcc/x86_64-unknown-linux-gnu/4.9.2/ -mtune=corei7 -march=x86-64 -g -Og
#
# seed  1783591935   486859264  2102609274  1443465565  1867313187  1687725694   763115759  -652925220 -1633242187  2067693834  -562548045  -708924975
#
#      Author: C. J. Pickard (cjp20@cam.ac.uk)
#                Space group: Pc
#

%BLOCK LATTICE_ABC
      5.01025      6.11263      6.61316
     90.00000     99.07195     90.00000
%ENDBLOCK LATTICE_ABC

%BLOCK POSITIONS_FRAC
  Li  -0.0558118  -0.0852607  -0.1725976 SPIN=   0.00000
  Li   0.4441882   0.0852607   0.3274024 SPIN=   0.00000
  Fe   0.4312716   0.1583614  -0.2347211 SPIN=   4.00000
  Fe  -0.0687284  -0.1583614   0.2652789 SPIN=   4.00000
   O   0.2046378  -0.5850145   0.3622305 SPIN=   0.00000
   O   0.4207076  -0.2579898   0.5382134 SPIN=   0.00000
   O   0.5858286  -0.4047905   0.2317800 SPIN=   0.00000
   O   0.6670969  -0.6101983   0.5582020 SPIN=   0.00000
   S   0.4695677  -0.4644983   0.4226065 SPIN=   0.00000
   O  -0.2953622   0.5850145  -0.1377695 SPIN=   0.00000
   O  -0.0792924   0.2579898   0.0382134 SPIN=   0.00000
   O   0.0858286   0.4047905  -0.2682200 SPIN=   0.00000
   O   0.1670969   0.6101983   0.0582020 SPIN=   0.00000
   S  -0.0304323   0.4644983  -0.0773935 SPIN=   0.00000
   F  -0.0010922  -0.0061146  -0.4361728 SPIN=   0.00000
   F   0.4989078   0.0061146   0.0638272 SPIN=   0.00000
%ENDBLOCK POSITIONS_FRAC

# Note: total spin =   8.00

KPOINTS_MP_SPACING 0.07

%BLOCK SPECIES_POT
QC5
%ENDBLOCK SPECIES_POT

SNAP_TO_SYMMETRY
SYMMETRY_GENERATE

