#              Generated by Buildcell
#
# at 00:45:27 (GMT+1.0) 19th August 2020
# in /lustre/scratch/uccabz1/launch_tmp
# on node-c12b-001
# by uccabz1
#
# compiler GCC version 4.9.2
# options -cpp -iprefix /lustre/shared/ucl/apps/gcc/4.9.2/bin/../lib/gcc/x86_64-unknown-linux-gnu/4.9.2/ -mtune=corei7 -march=x86-64 -g -Og
#
# seed -1137645260 -1768552482  -846255182  1578091014  -521180523  -255285596 -1741946324  -637635619  1797055349  1621038597   122574396 -1888256780
#
#      Author: C. J. Pickard (cjp20@cam.ac.uk)
#                Space group: Pma2
#

%BLOCK LATTICE_ABC
      3.81595      6.96093      7.52941
     90.00000     90.00000     90.00000
%ENDBLOCK LATTICE_ABC

%BLOCK POSITIONS_FRAC
  Li  -0.2776046  -0.5000000  -0.0000000 SPIN=   0.00000
  Li  -0.2776046   0.5000000  -0.5000000 SPIN=   0.00000
  Fe   0.2178815  -0.3297078   0.2500000 SPIN=   4.00000
  Fe   0.2178815   0.3297078  -0.2500000 SPIN=   4.00000
   O   0.1098606   0.1254320   0.4019091 SPIN=   0.00000
   O  -0.3497230  -0.1254320   0.4019091 SPIN=   0.00000
   O   0.1098606  -0.1254320  -0.4019091 SPIN=   0.00000
   O  -0.3497230   0.1254320  -0.4019091 SPIN=   0.00000
   O   0.1098606  -0.1254320  -0.0980909 SPIN=   0.00000
   O  -0.3497230   0.1254320  -0.0980909 SPIN=   0.00000
   O   0.1098606   0.1254320   0.0980909 SPIN=   0.00000
   O  -0.3497230  -0.1254320   0.0980909 SPIN=   0.00000
   S  -0.1479540  -0.0979860  -0.2500000 SPIN=   0.00000
   S  -0.1479540   0.0979860   0.2500000 SPIN=   0.00000
   F   0.2313261  -0.5000000  -0.0000000 SPIN=   0.00000
   F   0.2313261   0.5000000  -0.5000000 SPIN=   0.00000
%ENDBLOCK POSITIONS_FRAC

# Note: total spin =   8.00

KPOINTS_MP_SPACING 0.07

%BLOCK SPECIES_POT
QC5
%ENDBLOCK SPECIES_POT

SNAP_TO_SYMMETRY
SYMMETRY_GENERATE

