#              Generated by Buildcell
#
# at 00:18:09 (GMT+1.0) 19th August 2020
# in /lustre/scratch/uccabz1/launch_tmp
# on node-c12k-012
# by uccabz1
#
# compiler GCC version 4.9.2
# options -cpp -iprefix /lustre/shared/ucl/apps/gcc/4.9.2/bin/../lib/gcc/x86_64-unknown-linux-gnu/4.9.2/ -mtune=corei7 -march=x86-64 -g -Og
#
# seed   510427571   714070228  1409840435  1415912533 -1255450352  1359157882 -1996033101  -903005482   258790944 -1818647936  -637300301  -133825954
#
#      Author: C. J. Pickard (cjp20@cam.ac.uk)
#                Space group: Cc
#

%BLOCK LATTICE_ABC
      4.61528      6.13561      7.70278
     66.52978     89.36368     88.40211
%ENDBLOCK LATTICE_ABC

%BLOCK POSITIONS_FRAC
  Li   0.4272657   0.4553033   0.2182270 SPIN=   0.00000
  Li  -0.0727343  -0.3264697  -0.2182270 SPIN=   0.00000
  Fe   0.4315519  -0.4459376  -0.4250646 SPIN=   4.00000
  Fe  -0.0684481   0.1289978   0.4250646 SPIN=   4.00000
   O   0.5648910   0.0230259  -0.0921188 SPIN=   0.00000
   O   0.4052291  -0.3408826  -0.1242134 SPIN=   0.00000
   O   0.5747203  -0.0001632  -0.4056306 SPIN=   0.00000
   O   0.1054256   0.0293031  -0.2568694 SPIN=   0.00000
   S   0.4125665  -0.0721792  -0.2197081 SPIN=   0.00000
   O   0.0648910  -0.0690929   0.0921188 SPIN=   0.00000
   O  -0.0947709  -0.4650961   0.1242134 SPIN=   0.00000
   O   0.0747203  -0.4057939   0.4056306 SPIN=   0.00000
   O  -0.3945744  -0.2275663   0.2568694 SPIN=   0.00000
   S  -0.0874335  -0.2918873   0.2197081 SPIN=   0.00000
   F   0.2614688   0.1617709   0.2871045 SPIN=   0.00000
   F  -0.2385312   0.4488754  -0.2871045 SPIN=   0.00000
%ENDBLOCK POSITIONS_FRAC

# Note: total spin =   8.00

KPOINTS_MP_SPACING 0.07

%BLOCK SPECIES_POT
QC5
%ENDBLOCK SPECIES_POT

SNAP_TO_SYMMETRY
SYMMETRY_GENERATE

