#              Generated by Buildcell
#
# at 21:52:32 (GMT+1.0) 18th August 2020
# in /lustre/scratch/uccabz1/launch_tmp
# on node-c12k-010
# by uccabz1
#
# compiler GCC version 4.9.2
# options -cpp -iprefix /lustre/shared/ucl/apps/gcc/4.9.2/bin/../lib/gcc/x86_64-unknown-linux-gnu/4.9.2/ -mtune=corei7 -march=x86-64 -g -Og
#
# seed  1187777910  -386024018  1590709151 -1780322504  1677452964   640592037   -69441317  1870515306  1528977634  1775855116  1243018929   327152481
#
#      Author: C. J. Pickard (cjp20@cam.ac.uk)
#                Space group: P21
#

%BLOCK LATTICE_ABC
      4.82198      6.05303      7.40363
    112.25288     90.00000     90.00000
%ENDBLOCK LATTICE_ABC

%BLOCK POSITIONS_FRAC
  Li  -0.3528847   0.1835982  -0.1050741 SPIN=   0.00000
  Li   0.1471153  -0.1835982   0.1050741 SPIN=   0.00000
  Fe  -0.2347139   0.1826739   0.4294138 SPIN=   4.00000
  Fe   0.2652861  -0.1826739  -0.4294138 SPIN=   4.00000
   O  -0.5619489  -0.3947815   0.2671833 SPIN=   0.00000
   O  -0.1466005  -0.6516593   0.2156005 SPIN=   0.00000
   O  -0.1060698  -0.2150093   0.3941156 SPIN=   0.00000
   O  -0.1950825  -0.3795504   0.0384106 SPIN=   0.00000
   S  -0.2524254  -0.4102501   0.2288275 SPIN=   0.00000
   O  -0.0619489   0.3947815  -0.2671833 SPIN=   0.00000
   O   0.3533995   0.6516593  -0.2156005 SPIN=   0.00000
   O   0.3939302   0.2150093  -0.3941156 SPIN=   0.00000
   O   0.3049175   0.3795504  -0.0384106 SPIN=   0.00000
   S   0.2475746   0.4102501  -0.2288275 SPIN=   0.00000
   F  -0.1922456  -0.1380063  -0.2450473 SPIN=   0.00000
   F   0.3077544   0.1380063   0.2450473 SPIN=   0.00000
%ENDBLOCK POSITIONS_FRAC

# Note: total spin =   8.00

KPOINTS_MP_SPACING 0.07

%BLOCK SPECIES_POT
QC5
%ENDBLOCK SPECIES_POT

SNAP_TO_SYMMETRY
SYMMETRY_GENERATE

