#              Generated by Buildcell
#
# at 23:29:33 (GMT+1.0) 18th August 2020
# in /lustre/scratch/uccabz1/launch_tmp
# on node-c12n-031
# by uccabz1
#
# compiler GCC version 4.9.2
# options -cpp -iprefix /lustre/shared/ucl/apps/gcc/4.9.2/bin/../lib/gcc/x86_64-unknown-linux-gnu/4.9.2/ -mtune=corei7 -march=x86-64 -g -Og
#
# seed     3030043  -380716167  1145249220  1621206478 -1504174198   553528189   861806569   647960071  1049677824 -1662061787 -2141778373  1084268396
#
#      Author: C. J. Pickard (cjp20@cam.ac.uk)
#                Space group: P2221
#

%BLOCK LATTICE_ABC
      4.03558      6.05577      8.18379
     90.00000     90.00000     90.00000
%ENDBLOCK LATTICE_ABC

%BLOCK POSITIONS_FRAC
  Li   0.5000000  -0.4326642  -0.2500000 SPIN=   0.00000
  Li   0.5000000   0.4326642   0.2500000 SPIN=   0.00000
  Fe   0.0000003  -0.5000000   0.0000000 SPIN=   4.00000
  Fe  -0.0000003   0.5000000  -0.5000000 SPIN=   4.00000
   O   0.2570713   0.1348281   0.0997856 SPIN=   0.00000
   O   0.6903061   0.1131647  -0.1136514 SPIN=   0.00000
   O  -0.2570713  -0.1348281   0.5997856 SPIN=   0.00000
   O  -0.6903061  -0.1131647   0.3863486 SPIN=   0.00000
   O  -0.2570713   0.1348281  -0.5997856 SPIN=   0.00000
   O  -0.6903061   0.1131647  -0.3863486 SPIN=   0.00000
   O   0.2570713  -0.1348281  -0.0997856 SPIN=   0.00000
   O   0.6903061  -0.1131647   0.1136514 SPIN=   0.00000
   S   0.5000000   0.0149954  -0.2500000 SPIN=   0.00000
   S  -0.5000000  -0.0149954   0.2500000 SPIN=   0.00000
   F  -0.4687727  -0.5000000   0.0000000 SPIN=   0.00000
   F   0.4687727   0.5000000  -0.5000000 SPIN=   0.00000
%ENDBLOCK POSITIONS_FRAC

# Note: total spin =   8.00

KPOINTS_MP_SPACING 0.07

%BLOCK SPECIES_POT
QC5
%ENDBLOCK SPECIES_POT

SNAP_TO_SYMMETRY
SYMMETRY_GENERATE

