#              Generated by Buildcell
#
# at 03:48:21 (GMT+1.0) 4th August 2020
# in /lustre/scratch/uccabz1/launch_tmp
# on node-c12d-036
# by uccabz1
#
# compiler GCC version 4.9.2
# options -cpp -iprefix /lustre/shared/ucl/apps/gcc/4.9.2/bin/../lib/gcc/x86_64-unknown-linux-gnu/4.9.2/ -mtune=corei7 -march=x86-64 -g -Og
#
# seed -1561945935    32859814  -800496919   748273915   805579882  1876244485  1671533981  -513269046 -1033459791  -852436541  1736814015  -708192023
#
#      Author: C. J. Pickard (cjp20@cam.ac.uk)
#                Space group: C2221
#

%BLOCK LATTICE_ABC
      5.57165      5.57165      6.60050
     90.00000     90.00000    102.55708
%ENDBLOCK LATTICE_ABC

%BLOCK POSITIONS_FRAC
  Li   0.2536827  -0.2536827   0.2500000 SPIN=   0.00000
  Li  -0.2536827   0.2536827  -0.2500000 SPIN=   0.00000
  Fe   0.1437171   0.1437171   0.0000000 SPIN=   4.00000
  Fe  -0.1437171  -0.1437171  -0.5000000 SPIN=   4.00000
   O  -0.5699025  -0.0153909   0.0645345 SPIN=   0.00000
   O  -0.3371930  -0.2995710   0.2193516 SPIN=   0.00000
   O   0.5699025   0.0153909  -0.4354655 SPIN=   0.00000
   O   0.3371930   0.2995710  -0.2806484 SPIN=   0.00000
   O   0.0153909   0.5699025   0.4354655 SPIN=   0.00000
   O   0.2995710   0.3371930   0.2806484 SPIN=   0.00000
   O  -0.0153909  -0.5699025  -0.0645345 SPIN=   0.00000
   O  -0.2995710  -0.3371930  -0.2193516 SPIN=   0.00000
   S  -0.3757172  -0.3757172   0.0000000 SPIN=   0.00000
   S   0.3757172   0.3757172  -0.5000000 SPIN=   0.00000
   F  -0.1666479   0.1666479   0.2500000 SPIN=   0.00000
   F   0.1666479  -0.1666479  -0.2500000 SPIN=   0.00000
%ENDBLOCK POSITIONS_FRAC

# Note: total spin =   8.00

KPOINTS_MP_SPACING 0.07

%BLOCK SPECIES_POT
QC5
%ENDBLOCK SPECIES_POT

SNAP_TO_SYMMETRY
SYMMETRY_GENERATE

