#              Generated by Buildcell
#
# at 18:58:39 (GMT+1.0) 18th August 2020
# in /lustre/scratch/uccabz1/launch_tmp
# on node-c12j-028
# by uccabz1
#
# compiler GCC version 4.9.2
# options -cpp -iprefix /lustre/shared/ucl/apps/gcc/4.9.2/bin/../lib/gcc/x86_64-unknown-linux-gnu/4.9.2/ -mtune=corei7 -march=x86-64 -g -Og
#
# seed  -910330268  -216728153 -1072301095   393831931  1678976874 -1391847952  1361867433  -231392637 -1753250546   888425400  -212474236    53792749
#
#      Author: C. J. Pickard (cjp20@cam.ac.uk)
#                Space group: P-1
#

%BLOCK LATTICE_ABC
      4.11232      4.60955     10.91086
     86.07067     80.95222     78.49398
%ENDBLOCK LATTICE_ABC

%BLOCK POSITIONS_FRAC
  Li  -0.7051613  -0.2619424   0.2823586 SPIN=   0.00000
  Li   0.7051613   0.2619424  -0.2823586 SPIN=   0.00000
  Fe   0.1934714  -0.2691894  -0.3878416 SPIN=   4.00000
  Fe  -0.1934714   0.2691894   0.3878416 SPIN=   4.00000
   O   0.2591106   0.1756134   0.2738711 SPIN=   0.00000
   O   0.4709257   0.5496360   0.1254988 SPIN=   0.00000
   O   0.0547645   0.2784804   0.0707583 SPIN=   0.00000
   O   0.6378119   0.0169629   0.0807456 SPIN=   0.00000
   S   0.3556532   0.2551732   0.1377185 SPIN=   0.00000
   O  -0.2591106  -0.1756134  -0.2738711 SPIN=   0.00000
   O  -0.4709257  -0.5496360  -0.1254988 SPIN=   0.00000
   O  -0.0547645  -0.2784804  -0.0707583 SPIN=   0.00000
   O  -0.6378119  -0.0169629  -0.0807456 SPIN=   0.00000
   S  -0.3556532  -0.2551732  -0.1377185 SPIN=   0.00000
   F  -0.2426889  -0.2729360   0.3610035 SPIN=   0.00000
   F   0.2426889   0.2729360  -0.3610035 SPIN=   0.00000
%ENDBLOCK POSITIONS_FRAC

# Note: total spin =   8.00

KPOINTS_MP_SPACING 0.07

%BLOCK SPECIES_POT
QC5
%ENDBLOCK SPECIES_POT

SNAP_TO_SYMMETRY
SYMMETRY_GENERATE

