#              Generated by Buildcell
#
# at 03:09:22 (GMT+1.0) 4th August 2020
# in /lustre/scratch/uccabz1/launch_tmp
# on node-c12f-035
# by uccabz1
#
# compiler GCC version 4.9.2
# options -cpp -iprefix /lustre/shared/ucl/apps/gcc/4.9.2/bin/../lib/gcc/x86_64-unknown-linux-gnu/4.9.2/ -mtune=corei7 -march=x86-64 -g -Og
#
# seed -2066353176  -751161451   627275077  -184743288 -1173422762  1798808561  1153442496  -210499600   428039290    73264287  1858816870   868447987
#
#      Author: C. J. Pickard (cjp20@cam.ac.uk)
#                Space group: Pm
#

%BLOCK LATTICE_ABC
      4.10069      6.33462      7.98645
     90.00000     90.00000    105.41042
%ENDBLOCK LATTICE_ABC

%BLOCK POSITIONS_FRAC
  Li  -0.2612885   0.3617710   0.2552959 SPIN=   0.00000
  Li  -0.2612885   0.3617710  -0.2552959 SPIN=   0.00000
  Fe   0.4965207  -0.3774337  -0.0000000 SPIN=   7.56236
  Fe   0.2961115  -0.4976235  -0.5000000 SPIN=   0.43764
   O  -0.0813614  -0.1978991  -0.1404402 SPIN=   0.00000
   O   0.3418960  -0.2060087  -0.3595613 SPIN=   0.00000
   O   0.4715584   0.0804383  -0.1404398 SPIN=   0.00000
   O   0.0483015   0.0885488  -0.3595610 SPIN=   0.00000
   S   0.1950986  -0.0587302  -0.2500006 SPIN=   0.00000
   O  -0.0813614  -0.1978991   0.1404402 SPIN=   0.00000
   O   0.3418960  -0.2060087   0.3595613 SPIN=   0.00000
   O   0.4715584   0.0804383   0.1404398 SPIN=   0.00000
   O   0.0483015   0.0885488   0.3595610 SPIN=   0.00000
   S   0.1950986  -0.0587302   0.2500006 SPIN=   0.00000
   F   0.0230510   0.4091001   0.0000000 SPIN=   0.00000
   F  -0.2482370   0.4262121  -0.5000000 SPIN=   0.00000
%ENDBLOCK POSITIONS_FRAC

# Note: total spin =   8.00

KPOINTS_MP_SPACING 0.07

%BLOCK SPECIES_POT
QC5
%ENDBLOCK SPECIES_POT

SNAP_TO_SYMMETRY
SYMMETRY_GENERATE

