#              Generated by Buildcell
#
# at 04:31:34 (GMT+1.0) 4th August 2020
# in /lustre/scratch/uccabz1/launch_tmp
# on node-c12l-013
# by uccabz1
#
# compiler GCC version 4.9.2
# options -cpp -iprefix /lustre/shared/ucl/apps/gcc/4.9.2/bin/../lib/gcc/x86_64-unknown-linux-gnu/4.9.2/ -mtune=corei7 -march=x86-64 -g -Og
#
# seed   902180682  -953316006 -1705146604  1501516807   897229338  1178454962   259507202  -378291590  1755889929  1255418998  1713147770 -1655768149
#
#      Author: C. J. Pickard (cjp20@cam.ac.uk)
#                Space group: C2
#

%BLOCK LATTICE_ABC
      4.30979      4.30979     11.27989
     81.29211     81.29211     76.62140
%ENDBLOCK LATTICE_ABC

%BLOCK POSITIONS_FRAC
  Li   0.0210135   0.2576623  -0.3076234 SPIN=   0.00000
  Li  -0.2576623  -0.0210135   0.3076234 SPIN=   0.00000
  Fe  -0.1107350  -0.2255049  -0.1078413 SPIN=   4.00000
  Fe   0.2255049   0.1107350   0.1078413 SPIN=   4.00000
   O  -1.2094018   0.5023787   0.3571907 SPIN=   0.00000
   O  -0.8369961  -0.0234097   0.3950865 SPIN=   0.00000
   O  -0.7673154   0.4485857   0.4806633 SPIN=   0.00000
   O  -0.6462423   0.4212471   0.2604322 SPIN=   0.00000
   S  -0.8649889   0.3372005   0.3733432 SPIN=   0.00000
   O   0.4976213   0.2094018  -0.3571907 SPIN=   0.00000
   O   1.0234097  -0.1630039  -0.3950865 SPIN=   0.00000
   O   0.5514143  -0.2326846  -0.4806633 SPIN=   0.00000
   O   0.5787529  -0.3537577  -0.2604322 SPIN=   0.00000
   S   0.6627995  -0.1350111  -0.3733432 SPIN=   0.00000
   F   0.1450508   0.3383266  -0.1418500 SPIN=   0.00000
   F  -0.3383266  -0.1450508   0.1418500 SPIN=   0.00000
%ENDBLOCK POSITIONS_FRAC

# Note: total spin =   8.00

KPOINTS_MP_SPACING 0.07

%BLOCK SPECIES_POT
QC5
%ENDBLOCK SPECIES_POT

SNAP_TO_SYMMETRY
SYMMETRY_GENERATE

