#              Generated by Buildcell
#
# at 03:20:31 (GMT+1.0) 4th August 2020
# in /lustre/scratch/uccabz1/launch_tmp
# on node-c12n-020
# by uccabz1
#
# compiler GCC version 4.9.2
# options -cpp -iprefix /lustre/shared/ucl/apps/gcc/4.9.2/bin/../lib/gcc/x86_64-unknown-linux-gnu/4.9.2/ -mtune=corei7 -march=x86-64 -g -Og
#
# seed  -559061698  -410878247   679542115  -649997294   184158371  2034017680   144451327  1689385797  1866215313   857779772  1992561489 -1448546190
#
#      Author: C. J. Pickard (cjp20@cam.ac.uk)
#                Space group: I212121
#

%BLOCK LATTICE_ABC
      6.41169      6.41169      6.41169
    102.18252    110.62703    115.89289
%ENDBLOCK LATTICE_ABC

%BLOCK POSITIONS_FRAC
  Li   0.2500000   0.2583328   0.0083328 SPIN=   0.00000
  Li  -0.2500000   0.2416672   0.4916672 SPIN=   0.00000
  Fe  -0.2500000  -0.3451602  -0.0951602 SPIN=   4.00000
  Fe   0.2500000  -0.1548398  -0.4048398 SPIN=   4.00000
   O   0.4123854   0.1820184   0.4680243 SPIN=   0.00000
   O   0.2113709  -0.2831892   0.2500978 SPIN=   0.00000
   O   0.2860059  -0.6820184  -0.2696330 SPIN=   0.00000
   O   0.5332870  -0.2168108  -0.0054399 SPIN=   0.00000
   O   0.0876146  -0.4443612  -0.2303670 SPIN=   0.00000
   O   0.2886291  -0.4612731  -0.4945601 SPIN=   0.00000
   O   0.2139941  -0.0556388   0.0319757 SPIN=   0.00000
   O  -0.0332870  -0.0387269   0.2499022 SPIN=   0.00000
   S   0.3382400  -0.2500000   0.0882400 SPIN=   0.00000
   S   0.1617600   0.2500000   0.4117600 SPIN=   0.00000
   F  -0.1859810   0.0640190  -0.2500000 SPIN=   0.00000
   F  -0.3140190   0.4359810   0.2500000 SPIN=   0.00000
%ENDBLOCK POSITIONS_FRAC

# Note: total spin =   8.00

KPOINTS_MP_SPACING 0.07

%BLOCK SPECIES_POT
QC5
%ENDBLOCK SPECIES_POT

SNAP_TO_SYMMETRY
SYMMETRY_GENERATE

