#              Generated by Buildcell
#
# at 01:31:01 (GMT+1.0) 19th August 2020
# in /lustre/scratch/uccabz1/launch_tmp
# on node-c12a-016
# by uccabz1
#
# compiler GCC version 4.9.2
# options -cpp -iprefix /lustre/shared/ucl/apps/gcc/4.9.2/bin/../lib/gcc/x86_64-unknown-linux-gnu/4.9.2/ -mtune=corei7 -march=x86-64 -g -Og
#
# seed    31876844  -977716562 -1147028689 -2102150243  -343335368  -720796987   974216186   788282028   124531494  1248111472   598314132  -770459706
#
#      Author: C. J. Pickard (cjp20@cam.ac.uk)
#                Space group: Cc
#

%BLOCK LATTICE_ABC
      5.54442      5.54442      7.21434
     71.99214     71.99214     80.54990
%ENDBLOCK LATTICE_ABC

%BLOCK POSITIONS_FRAC
  Li   0.2120767  -0.4632736   0.0646516 SPIN=   0.00000
  Li  -0.4632736   0.2120767  -0.4353484 SPIN=   0.00000
  Fe  -0.1371197  -0.2238676  -0.2171028 SPIN=   4.00000
  Fe  -0.2238676  -0.1371197   0.2828972 SPIN=   4.00000
   O   0.4686428  -0.1991258  -0.0115669 SPIN=   0.00000
   O   0.5603298   0.1714372   0.0711831 SPIN=   0.00000
   O   0.1264747   0.0224109   0.2043573 SPIN=   0.00000
   O   0.2941037   0.2327732  -0.1614476 SPIN=   0.00000
   S   0.3623877   0.0568739   0.0256315 SPIN=   0.00000
   O  -0.1991258   0.4686428  -0.5115669 SPIN=   0.00000
   O   0.1714372   0.5603298  -0.4288169 SPIN=   0.00000
   O   0.0224109   0.1264747  -0.2956427 SPIN=   0.00000
   O   0.2327732   0.2941037  -0.6614476 SPIN=   0.00000
   S   0.0568739   0.3623877  -0.4743685 SPIN=   0.00000
   F   0.4953797  -0.1520747  -0.4366437 SPIN=   0.00000
   F  -0.1520747   0.4953797   0.0633563 SPIN=   0.00000
%ENDBLOCK POSITIONS_FRAC

# Note: total spin =   8.00

KPOINTS_MP_SPACING 0.07

%BLOCK SPECIES_POT
QC5
%ENDBLOCK SPECIES_POT

SNAP_TO_SYMMETRY
SYMMETRY_GENERATE

