#              Generated by Buildcell
#
# at 04:10:21 (GMT+1.0) 4th August 2020
# in /lustre/scratch/uccabz1/launch_tmp
# on node-c12e-007
# by uccabz1
#
# compiler GCC version 4.9.2
# options -cpp -iprefix /lustre/shared/ucl/apps/gcc/4.9.2/bin/../lib/gcc/x86_64-unknown-linux-gnu/4.9.2/ -mtune=corei7 -march=x86-64 -g -Og
#
# seed -1001541935   427005213 -1439351924 -1746067978 -1267376075  -987774696  -895815661 -1658750404 -1928360550   894270421  2111494238  2117768965
#
#      Author: C. J. Pickard (cjp20@cam.ac.uk)
#                Space group: Pc
#

%BLOCK LATTICE_ABC
      4.80571      5.88578      7.18829
     90.00000    100.37325     90.00000
%ENDBLOCK LATTICE_ABC

%BLOCK POSITIONS_FRAC
  Li   0.2741125   0.2698102   0.1229140 SPIN=   0.00000
  Li  -0.2258875  -0.2698102   0.1229140 SPIN=   0.00000
  Fe  -0.4656055   0.2356418  -0.3105725 SPIN=   4.00000
  Fe   0.0343945  -0.2356418  -0.3105725 SPIN=   4.00000
   O   0.2712964  -0.0153657   0.2593740 SPIN=   0.00000
   O   0.1309999  -0.3567912   0.4210114 SPIN=   0.00000
   O   0.6305391  -0.2309343   0.4803000 SPIN=   0.00000
   O   0.4199032  -0.3969088   0.1705478 SPIN=   0.00000
   S   0.3631846  -0.2500000   0.3328083 SPIN=   0.00000
   O  -0.2287036   0.0153657   0.2593740 SPIN=   0.00000
   O  -0.3690001   0.3567912   0.4210114 SPIN=   0.00000
   O   0.1305391   0.2309343   0.4803000 SPIN=   0.00000
   O  -0.0800968   0.3969088   0.1705478 SPIN=   0.00000
   S  -0.1368154   0.2500000   0.3328083 SPIN=   0.00000
   F   0.2107219   0.2498736  -0.1431227 SPIN=   0.00000
   F  -0.2892781  -0.2498736  -0.1431227 SPIN=   0.00000
%ENDBLOCK POSITIONS_FRAC

# Note: total spin =   8.00

KPOINTS_MP_SPACING 0.07

%BLOCK SPECIES_POT
QC5
%ENDBLOCK SPECIES_POT

SNAP_TO_SYMMETRY
SYMMETRY_GENERATE

