#              Generated by Buildcell
#
# at 04:49:18 (GMT+1.0) 4th August 2020
# in /lustre/scratch/uccabz1/launch_tmp
# on node-c12g-006
# by uccabz1
#
# compiler GCC version 4.9.2
# options -cpp -iprefix /lustre/shared/ucl/apps/gcc/4.9.2/bin/../lib/gcc/x86_64-unknown-linux-gnu/4.9.2/ -mtune=corei7 -march=x86-64 -g -Og
#
# seed -1110821781  2028674737  -407622129  1488517487  -936758204 -1892676106  -625030899   -25439623   652086496   508406426  1532122681  -971430035
#
#      Author: C. J. Pickard (cjp20@cam.ac.uk)
#                Space group: P21212
#

%BLOCK LATTICE_ABC
      5.16066      5.77785      6.70746
     90.00000     90.00000     90.00000
%ENDBLOCK LATTICE_ABC

%BLOCK POSITIONS_FRAC
  Li  -0.0000000   0.0000000  -0.1893607 SPIN=   0.00000
  Li  -0.5000000   0.5000000   0.1893607 SPIN=   0.00000
  Fe   0.0000000   0.5000000  -0.0197107 SPIN=   4.00000
  Fe  -0.5000000   0.0000000   0.0197107 SPIN=   4.00000
   O   0.1457121   0.2561570  -0.3505282 SPIN=   0.00000
   O   0.3159317  -0.1407186  -0.3045580 SPIN=   0.00000
   O  -0.1457121  -0.2561570  -0.3505282 SPIN=   0.00000
   O  -0.3159317   0.1407186  -0.3045580 SPIN=   0.00000
   O   0.3542879  -0.2438430   0.3505282 SPIN=   0.00000
   O   0.1840683  -0.6407186   0.3045580 SPIN=   0.00000
   O  -0.3542879   0.2438430   0.3505282 SPIN=   0.00000
   O  -0.1840683   0.6407186   0.3045580 SPIN=   0.00000
   S  -0.5000000   0.0000000  -0.4631935 SPIN=   0.00000
   S   0.0000000   0.5000000   0.4631935 SPIN=   0.00000
   F  -0.0000000   0.0000000   0.0977202 SPIN=   0.00000
   F  -0.5000000   0.5000000  -0.0977202 SPIN=   0.00000
%ENDBLOCK POSITIONS_FRAC

# Note: total spin =   8.00

KPOINTS_MP_SPACING 0.07

%BLOCK SPECIES_POT
QC5
%ENDBLOCK SPECIES_POT

SNAP_TO_SYMMETRY
SYMMETRY_GENERATE

