#              Generated by Buildcell
#
# at 02:28:11 (GMT+1.0) 4th August 2020
# in /lustre/scratch/uccabz1/launch_tmp
# on node-c12f-014
# by uccabz1
#
# compiler GCC version 4.9.2
# options -cpp -iprefix /lustre/shared/ucl/apps/gcc/4.9.2/bin/../lib/gcc/x86_64-unknown-linux-gnu/4.9.2/ -mtune=corei7 -march=x86-64 -g -Og
#
# seed  2052756860 -1994718074     6282359 -1556178345   154776960 -1941504191  -332087151  1477303216   939276027 -1762753352  1231997972  1102677667
#
#      Author: C. J. Pickard (cjp20@cam.ac.uk)
#                Space group: Cc
#

%BLOCK LATTICE_ABC
      4.01692      4.01692     12.84841
     82.41854     82.41854     78.22588
%ENDBLOCK LATTICE_ABC

%BLOCK POSITIONS_FRAC
  Li  -0.3765613  -0.4675956   0.0412466 SPIN=   0.00000
  Li  -0.4675956  -0.3765613  -0.4587534 SPIN=   0.00000
  Fe   0.3187013   0.3671187  -0.1514395 SPIN=   4.00000
  Fe   0.3671187   0.3187013   0.3485605 SPIN=   4.00000
   O   0.3358097   0.1293259   0.1319249 SPIN=   0.00000
   O  -0.2461466   0.1856918   0.2275484 SPIN=   0.00000
   O   0.1118668  -0.3882061   0.2108174 SPIN=   0.00000
   O  -0.1262393  -0.0431786   0.0540191 SPIN=   0.00000
   S   0.0188227  -0.0290918   0.1560775 SPIN=   0.00000
   O   0.1293259   0.3358097  -0.3680751 SPIN=   0.00000
   O   0.1856918  -0.2461466  -0.2724516 SPIN=   0.00000
   O  -0.3882061   0.1118668  -0.2891826 SPIN=   0.00000
   O  -0.0431786  -0.1262393  -0.4459809 SPIN=   0.00000
   S  -0.0290918   0.0188227  -0.3439225 SPIN=   0.00000
   F   0.4704321  -0.2809320  -0.0996648 SPIN=   0.00000
   F  -0.2809320   0.4704321   0.4003352 SPIN=   0.00000
%ENDBLOCK POSITIONS_FRAC

# Note: total spin =   8.00

KPOINTS_MP_SPACING 0.07

%BLOCK SPECIES_POT
QC5
%ENDBLOCK SPECIES_POT

SNAP_TO_SYMMETRY
SYMMETRY_GENERATE

