#              Generated by Buildcell
#
# at 05:13:18 (GMT+1.0) 4th August 2020
# in /lustre/scratch/uccabz1/launch_tmp
# on node-c12f-028
# by uccabz1
#
# compiler GCC version 4.9.2
# options -cpp -iprefix /lustre/shared/ucl/apps/gcc/4.9.2/bin/../lib/gcc/x86_64-unknown-linux-gnu/4.9.2/ -mtune=corei7 -march=x86-64 -g -Og
#
# seed -1001219111  1010162121   660275004 -1064996748  -974508436  1124315309  -238616494   586661711   624404550 -1902539090  -842405188   169133810
#
#      Author: C. J. Pickard (cjp20@cam.ac.uk)
#                Space group: Pm
#

%BLOCK LATTICE_ABC
      3.91292      6.43511      7.94464
     90.00000     90.00000     91.23781
%ENDBLOCK LATTICE_ABC

%BLOCK POSITIONS_FRAC
  Li  -0.3657308  -0.2861289  -0.2725544 SPIN=   0.00000
  Li  -0.3657308  -0.2861289   0.2725544 SPIN=   0.00000
  Fe   0.1255728  -0.4913445  -0.5000000 SPIN=   5.26029
  Fe   0.1324966  -0.3465224  -0.0000000 SPIN=   2.73971
   O   0.0514135   0.2185890   0.3599332 SPIN=   0.00000
   O   0.1407399  -0.0472139   0.1400623 SPIN=   0.00000
   O   0.5787187   0.0130270   0.3604766 SPIN=   0.00000
   O   0.4902765   0.2779351   0.1397997 SPIN=   0.00000
   O   0.0514135   0.2185890  -0.3599332 SPIN=   0.00000
   O   0.1407399  -0.0472139  -0.1400623 SPIN=   0.00000
   O   0.5787187   0.0130270  -0.3604766 SPIN=   0.00000
   O   0.4902765   0.2779351  -0.1397997 SPIN=   0.00000
   S   0.1436253   0.0096648   0.5000000 SPIN=   0.00000
   S   0.1520141   0.1557144   0.0000000 SPIN=   0.00000
   F  -0.3664281  -0.3234809  -0.0000000 SPIN=   0.00000
   F  -0.3740295  -0.4722355  -0.5000000 SPIN=   0.00000
%ENDBLOCK POSITIONS_FRAC

# Note: total spin =   8.00

KPOINTS_MP_SPACING 0.07

%BLOCK SPECIES_POT
QC5
%ENDBLOCK SPECIES_POT

SNAP_TO_SYMMETRY
SYMMETRY_GENERATE

