#              Generated by Buildcell
#
# at 02:51:48 (GMT+1.0) 19th August 2020
# in /lustre/scratch/uccabz1/launch_tmp
# on node-c12m-028
# by uccabz1
#
# compiler GCC version 4.9.2
# options -cpp -iprefix /lustre/shared/ucl/apps/gcc/4.9.2/bin/../lib/gcc/x86_64-unknown-linux-gnu/4.9.2/ -mtune=corei7 -march=x86-64 -g -Og
#
# seed  1279732952  1193821820  -498642774   473959056   579431131   815931929  2053789374   659095080  1413776892  -422050320  1176193546  1572874650
#
#      Author: C. J. Pickard (cjp20@cam.ac.uk)
#                Space group: Cc
#

%BLOCK LATTICE_ABC
      5.88075      6.07842      6.85526
    108.42128     90.00000    118.92997
%ENDBLOCK LATTICE_ABC

%BLOCK POSITIONS_FRAC
  Li  -0.4097747  -0.1938802  -0.2161266 SPIN=   0.00000
  Li   0.2158945  -0.1938802   0.2838734 SPIN=   0.00000
  Fe   0.2334823   0.2789383  -0.1686319 SPIN=   4.00000
  Fe   0.0454560   0.2789383   0.3313681 SPIN=   4.00000
   O  -0.2146499  -0.5836820  -0.2152139 SPIN=   0.00000
   O  -0.0545084  -0.1709936  -0.2984983 SPIN=   0.00000
   O   0.1782752  -0.4271257  -0.3826343 SPIN=   0.00000
   O   0.2051843  -0.1699607  -0.0137769 SPIN=   0.00000
   S   0.0285753  -0.3379405  -0.2275309 SPIN=   0.00000
   O  -0.3690322  -0.5836820   0.2847861 SPIN=   0.00000
   O  -0.1164852  -0.1709936   0.2015017 SPIN=   0.00000
   O  -0.6054009  -0.4271257   0.1173657 SPIN=   0.00000
   O  -0.3751450  -0.1699607   0.4862231 SPIN=   0.00000
   S  -0.3665158  -0.3379405   0.2724691 SPIN=   0.00000
   F   0.3220147   0.1634063  -0.4770803 SPIN=   0.00000
   F  -0.1586085   0.1634063   0.0229197 SPIN=   0.00000
%ENDBLOCK POSITIONS_FRAC

# Note: total spin =   8.00

KPOINTS_MP_SPACING 0.07

%BLOCK SPECIES_POT
QC5
%ENDBLOCK SPECIES_POT

SNAP_TO_SYMMETRY
SYMMETRY_GENERATE

