#              Generated by Buildcell
#
# at 22:53:09 (GMT+1.0) 18th August 2020
# in /lustre/scratch/uccabz1/launch_tmp
# on node-c12l-030
# by uccabz1
#
# compiler GCC version 4.9.2
# options -cpp -iprefix /lustre/shared/ucl/apps/gcc/4.9.2/bin/../lib/gcc/x86_64-unknown-linux-gnu/4.9.2/ -mtune=corei7 -march=x86-64 -g -Og
#
# seed  1875419237 -1093970948  1505079852 -2088798525   727789125   601561367  1191807570 -1980482933   836212052 -1983997219   446435637  1549712112
#
#      Author: C. J. Pickard (cjp20@cam.ac.uk)
#                Space group: Pc
#

%BLOCK LATTICE_ABC
      5.57696      6.00142      6.35668
     90.00000    109.94108     90.00000
%ENDBLOCK LATTICE_ABC

%BLOCK POSITIONS_FRAC
  Li   0.3273777   0.2504658  -0.0317847 SPIN=   0.00000
  Li  -0.1726223  -0.2504658   0.4682153 SPIN=   0.00000
  Fe  -0.2711307  -0.3047041  -0.0866071 SPIN=   4.00000
  Fe   0.2288693   0.3047041   0.4133929 SPIN=   4.00000
   O  -0.2388690   0.0442792  -0.1373506 SPIN=   0.00000
   O   0.0714167   0.0644273  -0.3373081 SPIN=   0.00000
   O  -0.1096277   0.4107528  -0.2418899 SPIN=   0.00000
   O  -0.3818184   0.1592035  -0.5349607 SPIN=   0.00000
   S  -0.1647246   0.1696657  -0.3128773 SPIN=   0.00000
   O   0.2611310  -0.0442792   0.3626494 SPIN=   0.00000
   O   0.5714167  -0.0644273   0.1626919 SPIN=   0.00000
   O   0.3903723  -0.4107528   0.2581101 SPIN=   0.00000
   O   0.1181816  -0.1592035  -0.0349607 SPIN=   0.00000
   S   0.3352754  -0.1696657   0.1871227 SPIN=   0.00000
   F  -0.1466004   0.3849137   0.1925446 SPIN=   0.00000
   F   0.3533996  -0.3849137  -0.3074554 SPIN=   0.00000
%ENDBLOCK POSITIONS_FRAC

# Note: total spin =   8.00

KPOINTS_MP_SPACING 0.07

%BLOCK SPECIES_POT
QC5
%ENDBLOCK SPECIES_POT

SNAP_TO_SYMMETRY
SYMMETRY_GENERATE

