#              Generated by Buildcell
#
# at 23:53:53 (GMT+1.0) 18th August 2020
# in /scratch/scratch/uccabz1/launch_tmp
# on node-k10d-001
# by uccabz1
#
# compiler GCC version 4.9.2
# options -cpp -iprefix /scratch/UCL/applications/gcc/4.9.2/bin/../lib/gcc/x86_64-unknown-linux-gnu/4.9.2/ -mtune=corei7 -march=x86-64 -g -O2
#
# seed  1728645245   666432530  1856803913   421499008  1837105516    48252648  -207936844  2012647736  1369908280    -1678232  -944314194 -1560866925
#
#      Author: C. J. Pickard (cjp20@cam.ac.uk)
#                Space group: P-1
#

%BLOCK LATTICE_ABC
      3.91854      7.36023      7.41823
     75.85286     89.36715     74.91686
%ENDBLOCK LATTICE_ABC

%BLOCK POSITIONS_FRAC
  Li   0.0568212   0.3683557   0.2898361 SPIN=   0.00000
  Li  -0.0568212  -0.3683557  -0.2898361 SPIN=   0.00000
  Fe  -0.5000000   0.5000000   0.0000000 SPIN=   6.68796
  Fe   0.5000000   0.0000000   0.5000000 SPIN=   1.31204
   O   0.1336426   0.3988839  -0.3660988 SPIN=   0.00000
   O  -0.3733497   0.3484370  -0.5250629 SPIN=   0.00000
   O  -0.3701946   0.3242736  -0.1863854 SPIN=   0.00000
   O   0.0397592   0.0701723  -0.3081778 SPIN=   0.00000
   S  -0.1425356   0.2854417  -0.3464312 SPIN=   0.00000
   O  -0.1336426  -0.3988839   0.3660988 SPIN=   0.00000
   O   0.3733497  -0.3484370   0.5250629 SPIN=   0.00000
   O   0.3701946  -0.3242736   0.1863854 SPIN=   0.00000
   O  -0.0397592  -0.0701723   0.3081778 SPIN=   0.00000
   S   0.1425356  -0.2854417   0.3464312 SPIN=   0.00000
   F   1.0000000  -0.5000000   0.0000000 SPIN=   0.00000
   F  -0.5000000   0.0000000   0.0000000 SPIN=   0.00000
%ENDBLOCK POSITIONS_FRAC

# Note: total spin =   8.00

KPOINTS_MP_SPACING 0.07

%BLOCK SPECIES_POT
QC5
%ENDBLOCK SPECIES_POT

SNAP_TO_SYMMETRY
SYMMETRY_GENERATE

