#              Generated by Buildcell
#
# at 03:25:08 (GMT+1.0) 4th August 2020
# in /lustre/scratch/uccabz1/launch_tmp
# on node-c12j-016
# by uccabz1
#
# compiler GCC version 4.9.2
# options -cpp -iprefix /lustre/shared/ucl/apps/gcc/4.9.2/bin/../lib/gcc/x86_64-unknown-linux-gnu/4.9.2/ -mtune=corei7 -march=x86-64 -g -Og
#
# seed -1940086721   352493871  2094395503 -1203126821 -1798815883   390484051   702795060 -1768845383  -594394627  1802625562  1185832572  1891233675
#
#      Author: C. J. Pickard (cjp20@cam.ac.uk)
#                Space group: P21/m
#

%BLOCK LATTICE_ABC
      4.06277      6.64831      7.40740
     90.00000     91.60289     90.00000
%ENDBLOCK LATTICE_ABC

%BLOCK POSITIONS_FRAC
  Li   0.2856457  -0.2500000   0.2964766 SPIN=   0.00000
  Li  -0.2856457   0.2500000  -0.2964766 SPIN=   0.00000
  Fe   0.1989508   0.2500000   0.4018003 SPIN=   4.00000
  Fe  -0.1989508  -0.2500000  -0.4018003 SPIN=   4.00000
   O  -0.4284397  -0.4403427   0.1369626 SPIN=   0.00000
   O  -0.0710760  -0.4183946  -0.1274665 SPIN=   0.00000
   O   0.4284397   0.0596573  -0.1369626 SPIN=   0.00000
   O   0.0710760   0.0816054   0.1274665 SPIN=   0.00000
   O   0.4284397   0.4403427  -0.1369626 SPIN=   0.00000
   O   0.0710760   0.4183946   0.1274665 SPIN=   0.00000
   O  -0.4284397  -0.0596573   0.1369626 SPIN=   0.00000
   O  -0.0710760  -0.0816054  -0.1274665 SPIN=   0.00000
   S  -0.2266571  -0.2500000   0.0554861 SPIN=   0.00000
   S   0.2266571   0.2500000  -0.0554861 SPIN=   0.00000
   F   0.2815121  -0.2500000  -0.4044258 SPIN=   0.00000
   F  -0.2815121   0.2500000   0.4044258 SPIN=   0.00000
%ENDBLOCK POSITIONS_FRAC

# Note: total spin =   8.00

KPOINTS_MP_SPACING 0.07

%BLOCK SPECIES_POT
QC5
%ENDBLOCK SPECIES_POT

SNAP_TO_SYMMETRY
SYMMETRY_GENERATE

