#              Generated by Buildcell
#
# at 05:20:03 (GMT+1.0) 4th August 2020
# in /lustre/scratch/uccabz1/launch_tmp
# on node-c12e-015
# by uccabz1
#
# compiler GCC version 4.9.2
# options -cpp -iprefix /lustre/shared/ucl/apps/gcc/4.9.2/bin/../lib/gcc/x86_64-unknown-linux-gnu/4.9.2/ -mtune=corei7 -march=x86-64 -g -Og
#
# seed  1272299881   201746299 -2022886287   221477134 -1067877987  1020180704  1902572905  -194850901 -1280873553 -1560246628   458492732    67130508
#
#      Author: C. J. Pickard (cjp20@cam.ac.uk)
#                Space group: P2
#

%BLOCK LATTICE_ABC
      4.04143      6.61811      7.47796
     90.00000     90.57574     90.00000
%ENDBLOCK LATTICE_ABC

%BLOCK POSITIONS_FRAC
  Li   0.0000000   0.2824032   0.0000000 SPIN=   0.00000
  Li   0.5000000  -0.2321876   0.0000000 SPIN=   0.00000
  Fe   0.2328826   0.0168330   0.2869147 SPIN=   4.00000
  Fe  -0.2328826   0.0168330  -0.2869147 SPIN=   4.00000
   O  -0.2419234   0.3969587   0.4207558 SPIN=   0.00000
   O  -0.1534282   0.5768658   0.1350664 SPIN=   0.00000
   O  -0.6797547   0.6196474   0.2971146 SPIN=   0.00000
   O  -0.5538926   0.2945364   0.1490779 SPIN=   0.00000
   S  -0.4072497   0.4720021   0.2505037 SPIN=   0.00000
   O   0.2419234   0.3969587  -0.4207558 SPIN=   0.00000
   O   0.1534282   0.5768658  -0.1350664 SPIN=   0.00000
   O   0.6797547   0.6196474  -0.2971146 SPIN=   0.00000
   O   0.5538926   0.2945364  -0.1490779 SPIN=   0.00000
   S   0.4072497   0.4720021  -0.2505037 SPIN=   0.00000
   F   0.2052438  -0.0285581  -0.2521326 SPIN=   0.00000
   F  -0.2052438  -0.0285581   0.2521326 SPIN=   0.00000
%ENDBLOCK POSITIONS_FRAC

# Note: total spin =   8.00

KPOINTS_MP_SPACING 0.07

%BLOCK SPECIES_POT
QC5
%ENDBLOCK SPECIES_POT

SNAP_TO_SYMMETRY
SYMMETRY_GENERATE

