#              Generated by Buildcell
#
# at 02:58:46 (GMT+1.0) 4th August 2020
# in /lustre/scratch/uccabz1/launch_tmp
# on node-c12g-029
# by uccabz1
#
# compiler GCC version 4.9.2
# options -cpp -iprefix /lustre/shared/ucl/apps/gcc/4.9.2/bin/../lib/gcc/x86_64-unknown-linux-gnu/4.9.2/ -mtune=corei7 -march=x86-64 -g -Og
#
# seed  1144531418  1422468693  1287257255  1615378822   671020910  -721740029 -1354900768  1266572621 -1318670920 -1552856926  -977567966  2146599815
#
#      Author: C. J. Pickard (cjp20@cam.ac.uk)
#                Space group: P21/m
#

%BLOCK LATTICE_ABC
      4.61081      6.56894      6.64248
     90.00000     90.00000     96.23094
%ENDBLOCK LATTICE_ABC

%BLOCK POSITIONS_FRAC
  Li  -0.2234355  -0.4308180   0.2500000 SPIN=   0.00000
  Li   0.2234355   0.4308180  -0.2500000 SPIN=   0.00000
  Fe   0.3237320  -0.1267141   0.2500000 SPIN=   4.00000
  Fe  -0.3237320   0.1267141  -0.2500000 SPIN=   4.00000
   O  -0.4625342   0.1810443   0.0805331 SPIN=   0.00000
   O  -0.2191459   0.4965797  -0.0755075 SPIN=   0.00000
   O   0.4625342  -0.1810443  -0.4194669 SPIN=   0.00000
   O   0.2191459  -0.4965797  -0.5755075 SPIN=   0.00000
   O   0.4625342  -0.1810443  -0.0805331 SPIN=   0.00000
   O   0.2191459  -0.4965797   0.0755075 SPIN=   0.00000
   O  -0.4625342   0.1810443   0.4194669 SPIN=   0.00000
   O  -0.2191459   0.4965797   0.5755075 SPIN=   0.00000
   S   0.2451292   0.3666081   0.2500000 SPIN=   0.00000
   S  -0.2451292  -0.3666081  -0.2500000 SPIN=   0.00000
   F   0.2319934   0.1227549  -0.2500000 SPIN=   0.00000
   F  -0.2319934  -0.1227549   0.2500000 SPIN=   0.00000
%ENDBLOCK POSITIONS_FRAC

# Note: total spin =   8.00

KPOINTS_MP_SPACING 0.07

%BLOCK SPECIES_POT
QC5
%ENDBLOCK SPECIES_POT

SNAP_TO_SYMMETRY
SYMMETRY_GENERATE

