#              Generated by Buildcell
#
# at 04:29:29 (GMT+1.0) 4th August 2020
# in /lustre/scratch/uccabz1/launch_tmp
# on node-c12c-026
# by uccabz1
#
# compiler GCC version 4.9.2
# options -cpp -iprefix /lustre/shared/ucl/apps/gcc/4.9.2/bin/../lib/gcc/x86_64-unknown-linux-gnu/4.9.2/ -mtune=corei7 -march=x86-64 -g -Og
#
# seed -1272123654   511908746 -1467694462   909897257 -1720719897 -2039874718 -1809083714  -264402878 -1760415157  2141853322 -1836546397  1610624120
#
#      Author: C. J. Pickard (cjp20@cam.ac.uk)
#                Space group: Pm
#

%BLOCK LATTICE_ABC
      3.91419      6.79602      7.52269
     90.00000     90.00000     91.90003
%ENDBLOCK LATTICE_ABC

%BLOCK POSITIONS_FRAC
  Li  -0.2166416   0.1168916   0.5000000 SPIN=   0.00000
  Li  -0.7058812  -0.3864363   0.5000000 SPIN=   0.00000
  Fe   0.2907199   0.2841507  -0.2500000 SPIN=   4.00000
  Fe   0.2907199   0.2841507   0.2500000 SPIN=   4.00000
   O  -0.1777785   0.0033658   0.1810255 SPIN=   0.00000
   O  -0.1986744  -0.3591334   0.2142829 SPIN=   0.00000
   O  -0.7302366  -0.1825122   0.1564025 SPIN=   0.00000
   S  -0.3872508  -0.1719875   0.2500027 SPIN=   0.00000
   O  -0.1777785   0.0033658  -0.1810255 SPIN=   0.00000
   O  -0.1986744  -0.3591334  -0.2142829 SPIN=   0.00000
   O  -0.7302366  -0.1825122  -0.1564025 SPIN=   0.00000
   S  -0.3872508  -0.1719875  -0.2500027 SPIN=   0.00000
   O  -0.1712104  -0.2441941   0.5000000 SPIN=   0.00000
   O  -0.6033815  -0.4438619   0.0000000 SPIN=   0.00000
   F   0.3217603   0.2705197  -0.5000000 SPIN=   0.00000
   F  -0.1194476   0.3173005   0.0000000 SPIN=   0.00000
%ENDBLOCK POSITIONS_FRAC

# Note: total spin =   8.00

KPOINTS_MP_SPACING 0.07

%BLOCK SPECIES_POT
QC5
%ENDBLOCK SPECIES_POT

SNAP_TO_SYMMETRY
SYMMETRY_GENERATE

