#              Generated by Buildcell
#
# at 05:43:12 (GMT+1.0) 4th August 2020
# in /lustre/scratch/uccabz1/launch_tmp
# on node-c12j-017
# by uccabz1
#
# compiler GCC version 4.9.2
# options -cpp -iprefix /lustre/shared/ucl/apps/gcc/4.9.2/bin/../lib/gcc/x86_64-unknown-linux-gnu/4.9.2/ -mtune=corei7 -march=x86-64 -g -Og
#
# seed -1636226835 -1509005022  1202140707 -1813195286 -1616660150  -301317129  1740267749  1324803097  -607815206   801829349 -1071091943  1330484690
#
#      Author: C. J. Pickard (cjp20@cam.ac.uk)
#                Space group: I212121
#

%BLOCK LATTICE_ABC
      5.24547      6.97866      6.97866
     60.38618     67.92484     67.92484
%ENDBLOCK LATTICE_ABC

%BLOCK POSITIONS_FRAC
  Li  -0.2500000  -0.0599584   0.0599584 SPIN=   0.00000
  Li   0.2500000  -0.4400416   0.4400416 SPIN=   0.00000
  Fe   0.2037893  -0.4537893   0.0462107 SPIN=   4.00000
  Fe   0.2962107  -0.0462107   0.4537893 SPIN=   4.00000
   O   0.0800073   0.2877155  -0.0636986 SPIN=   0.00000
   O  -0.1848091   0.4735564   0.2015918 SPIN=   0.00000
   O  -0.5800073   0.0636986  -0.2877155 SPIN=   0.00000
   O  -0.3151909  -0.2015918  -0.4735564 SPIN=   0.00000
   O  -0.1959758  -0.7877155   0.5636986 SPIN=   0.00000
   O  -0.0096609  -0.9735564   0.2984082 SPIN=   0.00000
   O  -0.3040242   0.4363014  -0.2122845 SPIN=   0.00000
   O  -0.4903391   0.7015918  -0.0264436 SPIN=   0.00000
   S   0.2500000   0.0595142  -0.0595142 SPIN=   0.00000
   S  -0.2500000   0.4404858  -0.4404858 SPIN=   0.00000
   F   0.0659214   0.7500000  -0.2500000 SPIN=   0.00000
   F   0.4340786  -0.7500000   0.2500000 SPIN=   0.00000
%ENDBLOCK POSITIONS_FRAC

# Note: total spin =   8.00

KPOINTS_MP_SPACING 0.07

%BLOCK SPECIES_POT
QC5
%ENDBLOCK SPECIES_POT

SNAP_TO_SYMMETRY
SYMMETRY_GENERATE

