#              Generated by Buildcell
#
# at 04:05:36 (GMT+1.0) 4th August 2020
# in /lustre/scratch/uccabz1/launch_tmp
# on node-c12g-019
# by uccabz1
#
# compiler GCC version 4.9.2
# options -cpp -iprefix /lustre/shared/ucl/apps/gcc/4.9.2/bin/../lib/gcc/x86_64-unknown-linux-gnu/4.9.2/ -mtune=corei7 -march=x86-64 -g -Og
#
# seed  -273485068 -1038393004  1391290120   491000515  1212617111   933097080 -1933021779   748086518 -2097215802   142258191 -1474850455  2140125450
#
#      Author: C. J. Pickard (cjp20@cam.ac.uk)
#                Space group: C2/c
#

%BLOCK LATTICE_ABC
      5.12623      5.73286      7.60827
     89.99611     89.99131     63.44270
%ENDBLOCK LATTICE_ABC

%BLOCK POSITIONS_FRAC
  Li   0.0000000  -0.0000000   0.0000000 SPIN=   0.00000
  Li   0.5000000  -1.0000000   0.5000000 SPIN=   0.00000
  Fe  -0.0367059  -0.4265882  -0.2500000 SPIN=   4.00000
  Fe   0.0367059   0.4265882   0.2500000 SPIN=   4.00000
   O  -0.2454169   0.3319129   0.1224446 SPIN=   0.00000
   O  -0.7089472   0.3283129   0.0358478 SPIN=   0.00000
   O  -0.5864960   0.3319129   0.3775554 SPIN=   0.00000
   O  -0.1193657   0.3283129   0.4641522 SPIN=   0.00000
   O   0.2454169  -0.3319129  -0.1224446 SPIN=   0.00000
   O   0.7089472  -0.3283129  -0.0358478 SPIN=   0.00000
   O   0.5864960  -0.3319129  -0.3775554 SPIN=   0.00000
   O   0.1193657  -0.3283129  -0.4641522 SPIN=   0.00000
   S  -0.5000000   0.5000000   0.0000000 SPIN=   0.00000
   S  -0.5000000   0.5000000   0.5000000 SPIN=   0.00000
   F  -0.1912682  -0.1174636   0.2500000 SPIN=   0.00000
   F   0.1912682   0.1174636  -0.2500000 SPIN=   0.00000
%ENDBLOCK POSITIONS_FRAC

# Note: total spin =   8.00

KPOINTS_MP_SPACING 0.07

%BLOCK SPECIES_POT
QC5
%ENDBLOCK SPECIES_POT

SNAP_TO_SYMMETRY
SYMMETRY_GENERATE

