#              Generated by Buildcell
#
# at 01:30:18 (GMT+1.0) 19th August 2020
# in /lustre/scratch/uccabz1/launch_tmp
# on node-c12n-029
# by uccabz1
#
# compiler GCC version 4.9.2
# options -cpp -iprefix /lustre/shared/ucl/apps/gcc/4.9.2/bin/../lib/gcc/x86_64-unknown-linux-gnu/4.9.2/ -mtune=corei7 -march=x86-64 -g -Og
#
# seed   206837370 -1362386738 -2044486323  1311002355 -1331368147  1442437619 -1904253185  -478943977 -2107633312   977444741    57257205   104727041
#
#      Author: C. J. Pickard (cjp20@cam.ac.uk)
#                Space group: P21/m
#

%BLOCK LATTICE_ABC
      4.34761      6.38772      7.31138
     90.00000     99.93799     90.00000
%ENDBLOCK LATTICE_ABC

%BLOCK POSITIONS_FRAC
  Li   0.0290063   0.2500000  -0.1370204 SPIN=   0.00000
  Li  -0.0290063  -0.2500000   0.1370204 SPIN=   0.00000
  Fe   0.2667567   0.2500000   0.4916373 SPIN=   4.00000
  Fe  -0.2667567  -0.2500000  -0.4916373 SPIN=   4.00000
   O  -0.2496753  -0.4354450  -0.0666536 SPIN=   0.00000
   O   0.1598734  -0.4698629  -0.2615498 SPIN=   0.00000
   O   0.2496753   0.0645550   0.0666536 SPIN=   0.00000
   O  -0.1598734   0.0301371   0.2615498 SPIN=   0.00000
   O   0.2496753   0.4354450   0.0666536 SPIN=   0.00000
   O  -0.1598734   0.4698629   0.2615498 SPIN=   0.00000
   O  -0.2496753  -0.0645550  -0.0666536 SPIN=   0.00000
   O   0.1598734  -0.0301371  -0.2615498 SPIN=   0.00000
   S   0.3329199  -0.2500000  -0.1457374 SPIN=   0.00000
   S  -0.3329199   0.2500000   0.1457374 SPIN=   0.00000
   F  -0.3264818   0.2500000  -0.3270183 SPIN=   0.00000
   F   0.3264818  -0.2500000   0.3270183 SPIN=   0.00000
%ENDBLOCK POSITIONS_FRAC

# Note: total spin =   8.00

KPOINTS_MP_SPACING 0.07

%BLOCK SPECIES_POT
QC5
%ENDBLOCK SPECIES_POT

SNAP_TO_SYMMETRY
SYMMETRY_GENERATE

