#              Generated by Buildcell
#
# at 01:18:07 (GMT+1.0) 19th August 2020
# in /lustre/scratch/uccabz1/launch_tmp
# on node-c12b-001
# by uccabz1
#
# compiler GCC version 4.9.2
# options -cpp -iprefix /lustre/shared/ucl/apps/gcc/4.9.2/bin/../lib/gcc/x86_64-unknown-linux-gnu/4.9.2/ -mtune=corei7 -march=x86-64 -g -Og
#
# seed -1834982595 -1570546120   786112637    90931973  1514408666  -976094815  -116500002  -758216285  1094125184  1194567668  1173182504 -1650319518
#
#      Author: C. J. Pickard (cjp20@cam.ac.uk)
#                Space group: Pc
#

%BLOCK LATTICE_ABC
      4.08466      6.67428      7.51934
    102.67266     90.00000     90.00000
%ENDBLOCK LATTICE_ABC

%BLOCK POSITIONS_FRAC
  Li  -0.2730805   0.0816069   0.4214271 SPIN=   0.00000
  Li   0.2730805  -0.4183931  -0.0785729 SPIN=   0.00000
  Fe  -0.2103318  -0.0965931  -0.1526567 SPIN=   4.00000
  Fe   0.2103318   0.4034069   0.3473433 SPIN=   4.00000
   O  -0.1164371  -0.1605661   0.1532676 SPIN=   0.00000
   O   0.3978998  -0.0280293   0.0483380 SPIN=   0.00000
   O   0.4179993  -0.2724955   0.2525094 SPIN=   0.00000
   O   0.2267221   0.0837125   0.3706279 SPIN=   0.00000
   S   0.2315460  -0.0943446   0.2061857 SPIN=   0.00000
   O   0.1164371   0.3394339  -0.3467324 SPIN=   0.00000
   O  -0.3978998   0.4719707  -0.4516620 SPIN=   0.00000
   O  -0.4179993   0.2275045  -0.2474906 SPIN=   0.00000
   O  -0.2267221   0.5837125  -0.1293721 SPIN=   0.00000
   S  -0.2315460   0.4056554  -0.2938143 SPIN=   0.00000
   F  -0.2684756  -0.1340664  -0.4322922 SPIN=   0.00000
   F   0.2684756   0.3659336   0.0677078 SPIN=   0.00000
%ENDBLOCK POSITIONS_FRAC

# Note: total spin =   8.00

KPOINTS_MP_SPACING 0.07

%BLOCK SPECIES_POT
QC5
%ENDBLOCK SPECIES_POT

SNAP_TO_SYMMETRY
SYMMETRY_GENERATE

