#              Generated by Buildcell
#
# at 02:54:43 (GMT+1.0) 19th August 2020
# in /lustre/scratch/uccabz1/launch_tmp
# on node-c12f-010
# by uccabz1
#
# compiler GCC version 4.9.2
# options -cpp -iprefix /lustre/shared/ucl/apps/gcc/4.9.2/bin/../lib/gcc/x86_64-unknown-linux-gnu/4.9.2/ -mtune=corei7 -march=x86-64 -g -Og
#
# seed -1219443783 -2142704639 -1573625029  1938515054  -120378597  1363607789  1720797257  -236792729   807746029   622721060  -507772899  1205403024
#
#      Author: C. J. Pickard (cjp20@cam.ac.uk)
#                Space group: Ima2
#

%BLOCK LATTICE_ABC
      6.40325      6.40325      6.40325
    103.17789    110.61995    114.82558
%ENDBLOCK LATTICE_ABC

%BLOCK POSITIONS_FRAC
  Li  -0.3182809   0.3863549  -0.2046358 SPIN=   0.00000
  Li   0.4090093  -0.3863549   0.2953642 SPIN=   0.00000
  Fe   0.2707134   0.0000000   0.2707134 SPIN=   4.00000
  Fe   0.2707134  -0.5000000  -0.2292866 SPIN=   4.00000
   O   0.0115689   0.2743768  -0.0648810 SPIN=   0.00000
   O  -0.3007725   0.0900435  -0.5157406 SPIN=   0.00000
   O  -0.3392578  -0.2743768  -0.2628079 SPIN=   0.00000
   O  -0.6057841  -0.0900435  -0.3908160 SPIN=   0.00000
   O  -0.3392578   0.4235501   0.4351190 SPIN=   0.00000
   O  -0.6057841   0.2850319  -0.0157406 SPIN=   0.00000
   O   0.0115689  -0.4235501   0.2371921 SPIN=   0.00000
   O  -0.3007725  -0.2850319   0.1091840 SPIN=   0.00000
   S  -0.2099514   0.0000000  -0.2099514 SPIN=   0.00000
   S  -0.2099514   0.5000000   0.2900486 SPIN=   0.00000
   F   0.1821601   0.2096214   0.4725386 SPIN=   0.00000
   F   0.2629172  -0.2096214  -0.0274614 SPIN=   0.00000
%ENDBLOCK POSITIONS_FRAC

# Note: total spin =   8.00

KPOINTS_MP_SPACING 0.07

%BLOCK SPECIES_POT
QC5
%ENDBLOCK SPECIES_POT

SNAP_TO_SYMMETRY
SYMMETRY_GENERATE

