#              Generated by Buildcell
#
# at 05:18:24 (GMT+1.0) 4th August 2020
# in /lustre/scratch/uccabz1/launch_tmp
# on node-c12m-018
# by uccabz1
#
# compiler GCC version 4.9.2
# options -cpp -iprefix /lustre/shared/ucl/apps/gcc/4.9.2/bin/../lib/gcc/x86_64-unknown-linux-gnu/4.9.2/ -mtune=corei7 -march=x86-64 -g -Og
#
# seed -1121571387 -1652858843  1216910091   371881478  -131787665   796635028 -2141405584 -2002839701  1267423499  -295188774  -228656143 -2109429069
#
#      Author: C. J. Pickard (cjp20@cam.ac.uk)
#                Space group: P-1
#

%BLOCK LATTICE_ABC
      4.84186      6.21288      6.68821
     95.89362     92.05984     90.01461
%ENDBLOCK LATTICE_ABC

%BLOCK POSITIONS_FRAC
  Li  -0.4969681  -0.3149841   0.2544150 SPIN=   0.00000
  Li   0.4969681   0.3149841  -0.2544150 SPIN=   0.00000
  Fe   0.1661321  -0.2355973  -0.3948946 SPIN=   4.00000
  Fe  -0.1661321   0.2355973   0.3948946 SPIN=   4.00000
   O   0.0107743  -0.2648746  -0.0940099 SPIN=   0.00000
   O  -0.2448814  -0.0553397   0.1741673 SPIN=   0.00000
   O  -0.5004468  -0.2763824  -0.1012008 SPIN=   0.00000
   O  -0.2580115   0.0573130  -0.1703832 SPIN=   0.00000
   O  -0.0107743   0.2648746   0.0940099 SPIN=   0.00000
   O   0.2448814   0.0553397  -0.1741673 SPIN=   0.00000
   O   0.5004468   0.2763824   0.1012008 SPIN=   0.00000
   O   0.2580115  -0.0573130   0.1703832 SPIN=   0.00000
   S   0.5000000   0.0000000   0.0000000 SPIN=   0.00000
   S  -0.0000000  -0.5000000   0.0000000 SPIN=   0.00000
   F  -0.2487724  -0.2876735  -0.4823725 SPIN=   0.00000
   F   0.2487724   0.2876735   0.4823725 SPIN=   0.00000
%ENDBLOCK POSITIONS_FRAC

# Note: total spin =   8.00

KPOINTS_MP_SPACING 0.07

%BLOCK SPECIES_POT
QC5
%ENDBLOCK SPECIES_POT

SNAP_TO_SYMMETRY
SYMMETRY_GENERATE

