#              Generated by Buildcell
#
# at 02:43:53 (GMT+1.0) 19th August 2020
# in /lustre/scratch/uccabz1/launch_tmp
# on node-c12e-015
# by uccabz1
#
# compiler GCC version 4.9.2
# options -cpp -iprefix /lustre/shared/ucl/apps/gcc/4.9.2/bin/../lib/gcc/x86_64-unknown-linux-gnu/4.9.2/ -mtune=corei7 -march=x86-64 -g -Og
#
# seed  1388266025 -1717863824   270892445  2065939406  -680751792    55198041 -2010526281  1796220620 -1645336944  1088384279  1823011001   444588207
#
#      Author: C. J. Pickard (cjp20@cam.ac.uk)
#                Space group: P-1
#

%BLOCK LATTICE_ABC
      3.95650      6.83984      7.73984
    100.93146     98.68961     98.35699
%ENDBLOCK LATTICE_ABC

%BLOCK POSITIONS_FRAC
  Li  -0.4805997   0.2871146   0.1408336 SPIN=   0.00000
  Li   0.4805997  -0.2871146  -0.1408336 SPIN=   0.00000
  Fe  -0.1932253   0.3310988  -0.2246086 SPIN=   4.00000
  Fe   0.1932253  -0.3310988   0.2246086 SPIN=   4.00000
   O  -0.2266680  -0.0946922  -0.2489737 SPIN=   0.00000
   O   0.1520919  -0.1298155  -0.4757940 SPIN=   0.00000
   O  -0.4330516  -0.3422660  -0.5371725 SPIN=   0.00000
   O   0.0331335  -0.4026857  -0.3123603 SPIN=   0.00000
   S  -0.1186236  -0.2423649  -0.3935751 SPIN=   0.00000
   O   0.2266680   0.0946922   0.2489737 SPIN=   0.00000
   O  -0.1520919   0.1298155   0.4757940 SPIN=   0.00000
   O   0.4330516   0.3422660   0.5371725 SPIN=   0.00000
   O  -0.0331335   0.4026857   0.3123603 SPIN=   0.00000
   S   0.1186236   0.2423649   0.3935751 SPIN=   0.00000
   F  -0.3804480  -0.2389022   0.1195763 SPIN=   0.00000
   F   0.3804480   0.2389022  -0.1195763 SPIN=   0.00000
%ENDBLOCK POSITIONS_FRAC

# Note: total spin =   8.00

KPOINTS_MP_SPACING 0.07

%BLOCK SPECIES_POT
QC5
%ENDBLOCK SPECIES_POT

SNAP_TO_SYMMETRY
SYMMETRY_GENERATE

