#              Generated by Buildcell
#
# at 00:17:08 (GMT+1.0) 19th August 2020
# in /scratch/scratch/uccabz1/launch_tmp
# on node-k10h-019
# by uccabz1
#
# compiler GCC version 4.9.2
# options -cpp -iprefix /scratch/UCL/applications/gcc/4.9.2/bin/../lib/gcc/x86_64-unknown-linux-gnu/4.9.2/ -mtune=corei7 -march=x86-64 -g -O2
#
# seed  2014769770 -1604380309   854052392 -1752166694  -865835603 -1710288656  1631550062 -1000415283 -1711588824   881703595 -1290679432 -1241848635
#
#      Author: C. J. Pickard (cjp20@cam.ac.uk)
#                Space group: C2
#

%BLOCK LATTICE_ABC
      4.65477      6.97953      6.97953
     99.02910    106.98282    106.98282
%ENDBLOCK LATTICE_ABC

%BLOCK POSITIONS_FRAC
  Li   0.0000000  -0.3512525   0.3512525 SPIN=   0.00000
  Li   0.0000000   0.2782455  -0.2782455 SPIN=   0.00000
  Fe   0.4145972   0.2333591   0.1430247 SPIN=   4.00000
  Fe  -0.4145972  -0.1430247  -0.2333591 SPIN=   4.00000
   O   0.3174730  -0.4773702   0.0794796 SPIN=   0.00000
   O  -0.2569849  -0.5180715  -0.0588550 SPIN=   0.00000
   O   0.1209738  -0.3300110  -0.2109798 SPIN=   0.00000
   S   0.0841547  -0.3745270  -0.0120542 SPIN=   0.00000
   O  -0.3174730  -0.0794796   0.4773702 SPIN=   0.00000
   O   0.2569849   0.0588550   0.5180715 SPIN=   0.00000
   O  -0.1209738   0.2109798   0.3300110 SPIN=   0.00000
   S  -0.0841547   0.0120542   0.3745270 SPIN=   0.00000
   O   0.0000000  -0.1638932   0.1638932 SPIN=   0.00000
   O   0.5000000  -0.0998123   0.0998123 SPIN=   0.00000
   F   0.0000000   0.0972867  -0.0972867 SPIN=   0.00000
   F  -0.5000000  -0.4989900   0.4989900 SPIN=   0.00000
%ENDBLOCK POSITIONS_FRAC

# Note: total spin =   8.00

KPOINTS_MP_SPACING 0.07

%BLOCK SPECIES_POT
QC5
%ENDBLOCK SPECIES_POT

SNAP_TO_SYMMETRY
SYMMETRY_GENERATE

