#              Generated by Buildcell
#
# at 23:14:02 (GMT+1.0) 18th August 2020
# in /lustre/scratch/uccabz1/launch_tmp
# on node-c12j-028
# by uccabz1
#
# compiler GCC version 4.9.2
# options -cpp -iprefix /lustre/shared/ucl/apps/gcc/4.9.2/bin/../lib/gcc/x86_64-unknown-linux-gnu/4.9.2/ -mtune=corei7 -march=x86-64 -g -Og
#
# seed  -206624074   733338133 -1089117006   637963081   995535393   217544806   -45902011 -1982902800  2032793166   826229516 -1278111070  -197966504
#
#      Author: C. J. Pickard (cjp20@cam.ac.uk)
#                Space group: Pm
#

%BLOCK LATTICE_ABC
      4.14541      6.11010      8.28614
     90.00000     90.00000    107.64899
%ENDBLOCK LATTICE_ABC

%BLOCK POSITIONS_FRAC
  Li   0.3029140  -0.2501702   0.0000000 SPIN=   0.00000
  Li   0.4281432  -0.0080683  -0.5000000 SPIN=   0.00000
  Fe  -0.0933157  -0.0508847   0.2328336 SPIN=   4.00000
  Fe  -0.0933157  -0.0508847  -0.2328336 SPIN=   4.00000
   O  -0.6685188   0.2321133  -0.1410396 SPIN=   0.00000
   O  -0.1153712   0.5360195  -0.1445407 SPIN=   0.00000
   O  -0.5506384   0.5374372  -0.3486250 SPIN=   0.00000
   O  -0.2569486   0.2403435  -0.3590602 SPIN=   0.00000
   S  -0.3978692   0.3864784  -0.2483164 SPIN=   0.00000
   O  -0.6685188   0.2321133   0.1410396 SPIN=   0.00000
   O  -0.1153712   0.5360195   0.1445407 SPIN=   0.00000
   O  -0.5506384   0.5374372   0.3486250 SPIN=   0.00000
   O  -0.2569486   0.2403435   0.3590602 SPIN=   0.00000
   S  -0.3978692   0.3864784   0.2483164 SPIN=   0.00000
   F  -0.0335096  -0.1093743  -0.5000000 SPIN=   0.00000
   F  -0.2509803  -0.0814290   0.0000000 SPIN=   0.00000
%ENDBLOCK POSITIONS_FRAC

# Note: total spin =   8.00

KPOINTS_MP_SPACING 0.07

%BLOCK SPECIES_POT
QC5
%ENDBLOCK SPECIES_POT

SNAP_TO_SYMMETRY
SYMMETRY_GENERATE

