#              Generated by Buildcell
#
# at 01:55:25 (GMT+1.0) 4th August 2020
# in /lustre/scratch/uccabz1/launch_tmp
# on node-c12d-027
# by uccabz1
#
# compiler GCC version 4.9.2
# options -cpp -iprefix /lustre/shared/ucl/apps/gcc/4.9.2/bin/../lib/gcc/x86_64-unknown-linux-gnu/4.9.2/ -mtune=corei7 -march=x86-64 -g -Og
#
# seed  -148796851  -480141096  -297274432  1987409663  1046481423    60142291  -300049050   955113841 -1524538702  -986324818  1709219027  2016473836
#
#      Author: C. J. Pickard (cjp20@cam.ac.uk)
#                Space group: P21
#

%BLOCK LATTICE_ABC
      4.19919      6.16468      8.18825
    109.34428     90.00000     90.00000
%ENDBLOCK LATTICE_ABC

%BLOCK POSITIONS_FRAC
  Li  -0.0159897  -0.4445520  -0.1573517 SPIN=   0.00000
  Li   0.4840103   0.4445520   0.1573517 SPIN=   0.00000
  Fe   0.4896616  -0.2336083  -0.4536960 SPIN=   4.00000
  Fe  -0.0103384   0.2336083   0.4536960 SPIN=   4.00000
   O   0.8192063  -0.0788927   0.0974085 SPIN=   0.00000
   O   0.3315985   0.1557931   0.1880263 SPIN=   0.00000
   O   0.5166202  -0.0910987   0.3535914 SPIN=   0.00000
   O   0.2912485  -0.2675115   0.0600164 SPIN=   0.00000
   S   0.4896684  -0.0704275   0.1747606 SPIN=   0.00000
   O   0.3192063   0.0788927  -0.0974085 SPIN=   0.00000
   O  -0.1684015  -0.1557931  -0.1880263 SPIN=   0.00000
   O   0.0166202   0.0910987  -0.3535914 SPIN=   0.00000
   O  -0.2087515   0.2675115  -0.0600164 SPIN=   0.00000
   S  -0.0103316   0.0704275  -0.1747606 SPIN=   0.00000
   F   0.4754056   0.4336085  -0.3149576 SPIN=   0.00000
   F  -0.0245944  -0.4336085   0.3149576 SPIN=   0.00000
%ENDBLOCK POSITIONS_FRAC

# Note: total spin =   8.00

KPOINTS_MP_SPACING 0.07

%BLOCK SPECIES_POT
QC5
%ENDBLOCK SPECIES_POT

SNAP_TO_SYMMETRY
SYMMETRY_GENERATE

