#              Generated by Buildcell
#
# at 05:02:32 (GMT+1.0) 4th August 2020
# in /lustre/scratch/uccabz1/launch_tmp
# on node-c12e-017
# by uccabz1
#
# compiler GCC version 4.9.2
# options -cpp -iprefix /lustre/shared/ucl/apps/gcc/4.9.2/bin/../lib/gcc/x86_64-unknown-linux-gnu/4.9.2/ -mtune=corei7 -march=x86-64 -g -Og
#
# seed -1883984490  1698823770 -1407152445  -286884367  -817699813   717647111  2089559163 -1122838800  1606778734   852904997  2110655993  1791480480
#
#      Author: C. J. Pickard (cjp20@cam.ac.uk)
#                Space group: Pba2
#

%BLOCK LATTICE_ABC
      5.66300      5.68756      6.20951
     90.00000     90.00000     90.00000
%ENDBLOCK LATTICE_ABC

%BLOCK POSITIONS_FRAC
  Li   0.0000000   0.3293853  -0.0000000 SPIN=   0.00000
  Li  -0.5000000   0.3293853  -0.5000000 SPIN=   0.00000
  Fe  -0.5000000   0.1536668  -0.0000000 SPIN=   4.00000
  Fe  -0.0000000   0.1536668  -0.5000000 SPIN=   4.00000
   O  -0.1193749   0.6454111  -0.1417492 SPIN=   0.00000
   O  -0.2263479   0.2328614  -0.2226601 SPIN=   0.00000
   O   0.1193749   0.6454111   0.1417492 SPIN=   0.00000
   O   0.2263479   0.2328614   0.2226601 SPIN=   0.00000
   O  -0.3806251   0.6454111   0.3582508 SPIN=   0.00000
   O  -0.2736521   0.2328614   0.2773399 SPIN=   0.00000
   O   0.3806251   0.6454111  -0.3582508 SPIN=   0.00000
   O   0.2736521   0.2328614  -0.2773399 SPIN=   0.00000
   S   0.0000000  -0.1701954  -0.0000000 SPIN=   0.00000
   S  -0.5000000  -0.1701954  -0.5000000 SPIN=   0.00000
   F  -0.5000000   0.4803909  -0.0000000 SPIN=   0.00000
   F   0.0000000   0.4803909  -0.5000000 SPIN=   0.00000
%ENDBLOCK POSITIONS_FRAC

# Note: total spin =   8.00

KPOINTS_MP_SPACING 0.07

%BLOCK SPECIES_POT
QC5
%ENDBLOCK SPECIES_POT

SNAP_TO_SYMMETRY
SYMMETRY_GENERATE

