#              Generated by Buildcell
#
# at 01:57:08 (GMT+1.0) 4th August 2020
# in /lustre/scratch/uccabz1/launch_tmp
# on node-c12g-023
# by uccabz1
#
# compiler GCC version 4.9.2
# options -cpp -iprefix /lustre/shared/ucl/apps/gcc/4.9.2/bin/../lib/gcc/x86_64-unknown-linux-gnu/4.9.2/ -mtune=corei7 -march=x86-64 -g -Og
#
# seed   801506275    44294662   412531745 -1743126730  -966697208   929465664 -1706398522   721835096   -52796234 -1700451079 -1454313541   489778490
#
#      Author: C. J. Pickard (cjp20@cam.ac.uk)
#                Space group: P21
#

%BLOCK LATTICE_ABC
      5.20458      5.55191      6.92632
     90.00000     90.00000     92.13284
%ENDBLOCK LATTICE_ABC

%BLOCK POSITIONS_FRAC
  Li  -0.2810681   0.0869619  -0.0692894 SPIN=   0.00000
  Li   0.2810681  -0.0869619   0.4307106 SPIN=   0.00000
  Fe   0.4790981  -0.4128231  -0.1570175 SPIN=   4.00000
  Fe  -0.4790981   0.4128231   0.3429825 SPIN=   4.00000
   O   0.1373659  -0.2493467  -0.0623624 SPIN=   0.00000
   O   0.0880798  -0.4444466   0.2574446 SPIN=   0.00000
   O  -0.2942824  -0.3027057   0.0848594 SPIN=   0.00000
   O   0.0227442  -0.0072886   0.2228837 SPIN=   0.00000
   S  -0.0115231  -0.2509469   0.1257063 SPIN=   0.00000
   O  -0.1373659   0.2493467  -0.5623624 SPIN=   0.00000
   O  -0.0880798   0.4444466  -0.2425554 SPIN=   0.00000
   O   0.2942824   0.3027057  -0.4151406 SPIN=   0.00000
   O  -0.0227442   0.0072886  -0.2771163 SPIN=   0.00000
   S   0.0115231   0.2509469  -0.3742937 SPIN=   0.00000
   F  -0.4693200  -0.2658046  -0.3948000 SPIN=   0.00000
   F   0.4693200   0.2658046   0.1052000 SPIN=   0.00000
%ENDBLOCK POSITIONS_FRAC

# Note: total spin =   8.00

KPOINTS_MP_SPACING 0.07

%BLOCK SPECIES_POT
QC5
%ENDBLOCK SPECIES_POT

SNAP_TO_SYMMETRY
SYMMETRY_GENERATE

