#              Generated by Buildcell
#
# at 18:45:19 (GMT+1.0) 18th August 2020
# in /lustre/scratch/uccabz1/launch_tmp
# on node-c12k-036
# by uccabz1
#
# compiler GCC version 4.9.2
# options -cpp -iprefix /lustre/shared/ucl/apps/gcc/4.9.2/bin/../lib/gcc/x86_64-unknown-linux-gnu/4.9.2/ -mtune=corei7 -march=x86-64 -g -Og
#
# seed  -919852801   -20067474  -398619538  -278324371  -325041039 -1947135833   125591477  1008158638 -1967422459 -2037654288 -1821096482  1210377541
#
#      Author: C. J. Pickard (cjp20@cam.ac.uk)
#                Space group: Pma2
#

%BLOCK LATTICE_ABC
      4.60466      4.68356      9.27376
     90.00000     90.00000     90.00000
%ENDBLOCK LATTICE_ABC

%BLOCK POSITIONS_FRAC
  Li  -0.4429524   0.0219424   0.2500000 SPIN=   0.00000
  Li   0.4429524   0.0219424  -0.2500000 SPIN=   0.00000
  Fe   0.0000000  -0.0075506   0.0000000 SPIN=   4.00000
  Fe   0.0000000  -0.0075506   0.5000000 SPIN=   4.00000
   O   0.1286795   0.3882791  -0.6106535 SPIN=   0.00000
   O   0.3735274   0.5155399  -0.3819443 SPIN=   0.00000
   O  -0.1286795   0.3882791   0.6106535 SPIN=   0.00000
   O  -0.3735274   0.5155399   0.3819443 SPIN=   0.00000
   O  -0.1286795   0.3882791  -0.1106535 SPIN=   0.00000
   O  -0.3735274   0.5155399   0.1180557 SPIN=   0.00000
   O   0.1286795   0.3882791   0.1106535 SPIN=   0.00000
   O   0.3735274   0.5155399  -0.1180557 SPIN=   0.00000
   S   0.2076060  -0.4787684   0.2500000 SPIN=   0.00000
   S  -0.2076060  -0.4787684  -0.2500000 SPIN=   0.00000
   F   0.5000000   0.0159814   0.0000000 SPIN=   0.00000
   F   0.5000000   0.0159814   0.5000000 SPIN=   0.00000
%ENDBLOCK POSITIONS_FRAC

# Note: total spin =   8.00

KPOINTS_MP_SPACING 0.07

%BLOCK SPECIES_POT
QC5
%ENDBLOCK SPECIES_POT

SNAP_TO_SYMMETRY
SYMMETRY_GENERATE

