#              Generated by Buildcell
#
# at 00:19:46 (GMT+1.0) 19th August 2020
# in /scratch/scratch/uccabz1/launch_tmp
# on node-k10d-008
# by uccabz1
#
# compiler GCC version 4.9.2
# options -cpp -iprefix /scratch/UCL/applications/gcc/4.9.2/bin/../lib/gcc/x86_64-unknown-linux-gnu/4.9.2/ -mtune=corei7 -march=x86-64 -g -O2
#
# seed  -713438988  1769666421  -754718382  1582503126 -1512754510   -45964384  -840462874  1997976563 -1225669213  1790902829  -872950440  -115310812
#
#      Author: C. J. Pickard (cjp20@cam.ac.uk)
#                Space group: Pc
#

%BLOCK LATTICE_ABC
      4.16941      6.26594      7.79947
     90.00000     90.00000    101.02863
%ENDBLOCK LATTICE_ABC

%BLOCK POSITIONS_FRAC
  Li   0.3589395   0.1508988   0.3434023 SPIN=   0.00000
  Li  -0.1410605  -0.3491012  -0.3434023 SPIN=   0.00000
  Fe  -0.0112376   0.4109082   0.1339086 SPIN=   4.00000
  Fe   0.4887624  -0.0890918  -0.1339086 SPIN=   4.00000
   O   0.2616916   0.4628450  -0.4984334 SPIN=   0.00000
   O   0.4194758   0.1395922  -0.3652006 SPIN=   0.00000
   O  -0.0766535   0.2658109  -0.2663331 SPIN=   0.00000
   O   0.4707105   0.4822290  -0.2007324 SPIN=   0.00000
   S   0.2688061   0.3376193  -0.3326749 SPIN=   0.00000
   O  -0.2383084  -0.0371550   0.4984334 SPIN=   0.00000
   O  -0.0805242  -0.3604078   0.3652006 SPIN=   0.00000
   O  -0.5766535  -0.2341891   0.2663331 SPIN=   0.00000
   O  -0.0292895  -0.0177710   0.2007324 SPIN=   0.00000
   S  -0.2311939  -0.1623807   0.3326749 SPIN=   0.00000
   F   0.4506489   0.2972503   0.1333396 SPIN=   0.00000
   F  -0.0493511  -0.2027497  -0.1333396 SPIN=   0.00000
%ENDBLOCK POSITIONS_FRAC

# Note: total spin =   8.00

KPOINTS_MP_SPACING 0.07

%BLOCK SPECIES_POT
QC5
%ENDBLOCK SPECIES_POT

SNAP_TO_SYMMETRY
SYMMETRY_GENERATE

