#              Generated by Buildcell
#
# at 04:18:55 (GMT+1.0) 4th August 2020
# in /lustre/scratch/uccabz1/launch_tmp
# on node-c12k-031
# by uccabz1
#
# compiler GCC version 4.9.2
# options -cpp -iprefix /lustre/shared/ucl/apps/gcc/4.9.2/bin/../lib/gcc/x86_64-unknown-linux-gnu/4.9.2/ -mtune=corei7 -march=x86-64 -g -Og
#
# seed -1632574143   188727082   352275710 -1814388943  -511543965 -2047282260   293503167  1183461141  1228199638   992338944   968063154 -1456471963
#
#      Author: C. J. Pickard (cjp20@cam.ac.uk)
#                Space group: C2
#

%BLOCK LATTICE_ABC
      4.75750      4.75750      9.61308
     99.22912    101.69478    105.44731
%ENDBLOCK LATTICE_ABC

%BLOCK POSITIONS_FRAC
  Li  -0.1408512  -0.1114079   0.3226565 SPIN=   0.00000
  Li  -0.4340644  -0.4635077  -0.3226565 SPIN=   0.00000
  Fe  -0.2818203   0.3156490   0.1154201 SPIN=   4.00000
  Fe   0.2002289  -0.3972404  -0.1154201 SPIN=   4.00000
   O  -0.1421132   0.1661670  -0.3936518 SPIN=   0.00000
   O   0.3383420   0.0866186  -0.4221952 SPIN=   0.00000
   O  -0.0924955  -0.3434614  -0.4242313 SPIN=   0.00000
   O   0.1823628   0.0353054  -0.1947126 SPIN=   0.00000
   S   0.0715240  -0.0138426  -0.3586977 SPIN=   0.00000
   O   0.5598188   0.2515386   0.3936518 SPIN=   0.00000
   O   0.5088137   0.7605372   0.4221952 SPIN=   0.00000
   O   0.0807700   0.3317358   0.4242313 SPIN=   0.00000
   O   0.2300180   0.3770754   0.1947126 SPIN=   0.00000
   S   0.3448551   0.4302217   0.3586977 SPIN=   0.00000
   F  -0.4810537  -0.0980097   0.1324424 SPIN=   0.00000
   F  -0.2304521   0.3865039  -0.1324424 SPIN=   0.00000
%ENDBLOCK POSITIONS_FRAC

# Note: total spin =   8.00

KPOINTS_MP_SPACING 0.07

%BLOCK SPECIES_POT
QC5
%ENDBLOCK SPECIES_POT

SNAP_TO_SYMMETRY
SYMMETRY_GENERATE

