#              Generated by Buildcell
#
# at 17:36:14 (GMT+1.0) 18th August 2020
# in /lustre/scratch/uccabz1/launch_tmp
# on node-c12c-006
# by uccabz1
#
# compiler GCC version 4.9.2
# options -cpp -iprefix /lustre/shared/ucl/apps/gcc/4.9.2/bin/../lib/gcc/x86_64-unknown-linux-gnu/4.9.2/ -mtune=corei7 -march=x86-64 -g -Og
#
# seed  1355661548   -97441170 -1269325638 -1741903162  -741886911  1066165539   914553328  1472603069  -707461734   163333127    98205327  -733478958
#
#      Author: C. J. Pickard (cjp20@cam.ac.uk)
#                Space group: P21
#

%BLOCK LATTICE_ABC
      4.53473      5.90842      7.62063
     90.00000    101.61410     90.00000
%ENDBLOCK LATTICE_ABC

%BLOCK POSITIONS_FRAC
  Li   0.1445278  -0.4041942   0.1195402 SPIN=   0.00000
  Li  -0.1445278   0.0958058  -0.1195402 SPIN=   0.00000
  Fe  -0.3252231  -0.1079098   0.2099374 SPIN=   4.00000
  Fe   0.3252231   0.3920902  -0.2099374 SPIN=   4.00000
   O  -0.3132670  -0.3795577  -0.5508800 SPIN=   0.00000
   O  -0.5525541  -0.2463278  -0.3050543 SPIN=   0.00000
   O  -0.1633091  -0.0122658  -0.4035486 SPIN=   0.00000
   O  -0.0202806  -0.3701159  -0.2396450 SPIN=   0.00000
   S  -0.2623527  -0.2520668  -0.3747820 SPIN=   0.00000
   O   0.3132670   0.1204423   0.5508800 SPIN=   0.00000
   O   0.5525541   0.2536722   0.3050543 SPIN=   0.00000
   O   0.1633091   0.4877342   0.4035486 SPIN=   0.00000
   O   0.0202806   0.1298841   0.2396450 SPIN=   0.00000
   S   0.2623527   0.2479332   0.3747820 SPIN=   0.00000
   F   0.2658785   0.0908827  -0.0777312 SPIN=   0.00000
   F  -0.2658785  -0.4091173   0.0777312 SPIN=   0.00000
%ENDBLOCK POSITIONS_FRAC

# Note: total spin =   8.00

KPOINTS_MP_SPACING 0.07

%BLOCK SPECIES_POT
QC5
%ENDBLOCK SPECIES_POT

SNAP_TO_SYMMETRY
SYMMETRY_GENERATE

