#              Generated by Buildcell
#
# at 22:16:22 (GMT+1.0) 18th August 2020
# in /lustre/scratch/uccabz1/launch_tmp
# on node-c12k-008
# by uccabz1
#
# compiler GCC version 4.9.2
# options -cpp -iprefix /lustre/shared/ucl/apps/gcc/4.9.2/bin/../lib/gcc/x86_64-unknown-linux-gnu/4.9.2/ -mtune=corei7 -march=x86-64 -g -Og
#
# seed  2121509032  -931773323 -1450671670  1814641036   259301036  2075062639 -1727736956  -679632951   857862508 -1761552588   162645168  -694204534
#
#      Author: C. J. Pickard (cjp20@cam.ac.uk)
#                Space group: P-1
#

%BLOCK LATTICE_ABC
      5.34324      5.91489      7.14719
     86.33648     71.31875     69.40129
%ENDBLOCK LATTICE_ABC

%BLOCK POSITIONS_FRAC
  Li   0.1224691   0.1775530  -0.2436372 SPIN=   0.00000
  Li  -0.1224691  -0.1775530   0.2436372 SPIN=   0.00000
  Fe   0.2520704   0.1077271   0.2742639 SPIN=   4.00000
  Fe  -0.2520704  -0.1077271  -0.2742639 SPIN=   4.00000
   O   0.1392540  -0.3652004  -0.0152676 SPIN=   0.00000
   O   0.4074708  -0.2057723  -0.3091754 SPIN=   0.00000
   O   0.2363454  -0.5316672  -0.3504969 SPIN=   0.00000
   O   0.6250515  -0.6181248  -0.2092163 SPIN=   0.00000
   S   0.3520304  -0.4301912  -0.2210391 SPIN=   0.00000
   O  -0.1392540   0.3652004   0.0152676 SPIN=   0.00000
   O  -0.4074708   0.2057723   0.3091754 SPIN=   0.00000
   O  -0.2363454   0.5316672   0.3504969 SPIN=   0.00000
   O  -0.6250515   0.6181248   0.2092163 SPIN=   0.00000
   S  -0.3520304   0.4301912   0.2210391 SPIN=   0.00000
   F  -0.5000000   1.0000000   0.0000000 SPIN=   0.00000
   F  -0.0000000  -0.0000000  -0.5000000 SPIN=   0.00000
%ENDBLOCK POSITIONS_FRAC

# Note: total spin =   8.00

KPOINTS_MP_SPACING 0.07

%BLOCK SPECIES_POT
QC5
%ENDBLOCK SPECIES_POT

SNAP_TO_SYMMETRY
SYMMETRY_GENERATE

