#              Generated by Buildcell
#
# at 23:55:52 (GMT+1.0) 18th August 2020
# in /scratch/scratch/uccabz1/launch_tmp
# on node-k10e-014
# by uccabz1
#
# compiler GCC version 4.9.2
# options -cpp -iprefix /scratch/UCL/applications/gcc/4.9.2/bin/../lib/gcc/x86_64-unknown-linux-gnu/4.9.2/ -mtune=corei7 -march=x86-64 -g -O2
#
# seed    47478331   340484302  -777195786 -2102277096  1830170125   747744596   220018822   976468389  -923198831   261386109  -213463243   929256630
#
#      Author: C. J. Pickard (cjp20@cam.ac.uk)
#                Space group: C222
#

%BLOCK LATTICE_ABC
      4.41941      7.06599      7.06599
    114.98757     90.00000     90.00000
%ENDBLOCK LATTICE_ABC

%BLOCK POSITIONS_FRAC
  Li  -0.5000000  -0.2495941  -0.2495941 SPIN=   0.00000
  Li   0.5000000   0.2495941   0.2495941 SPIN=   0.00000
  Fe   0.0000000   0.0000000   0.0000000 SPIN=   5.54416
  Fe  -0.0000000  -0.5000000  -0.5000000 SPIN=   2.45584
   O   0.1102387   0.1594576   0.4966576 SPIN=   0.00000
   O  -0.2207531  -0.1281706   0.2662906 SPIN=   0.00000
   O   0.1102387  -0.1594576  -0.4966576 SPIN=   0.00000
   O  -0.2207531   0.1281706  -0.2662906 SPIN=   0.00000
   O  -0.1102387  -0.4966576  -0.1594576 SPIN=   0.00000
   O   0.2207531  -0.2662906   0.1281706 SPIN=   0.00000
   O  -0.1102387   0.4966576   0.1594576 SPIN=   0.00000
   O   0.2207531   0.2662906  -0.1281706 SPIN=   0.00000
   S   0.2136290   0.5000000   0.0000000 SPIN=   0.00000
   S  -0.2136290  -1.0000000  -0.5000000 SPIN=   0.00000
   F  -0.5000000   0.0000000   0.0000000 SPIN=   0.00000
   F  -0.5000000  -0.5000000  -0.5000000 SPIN=   0.00000
%ENDBLOCK POSITIONS_FRAC

# Note: total spin =   8.00

KPOINTS_MP_SPACING 0.07

%BLOCK SPECIES_POT
QC5
%ENDBLOCK SPECIES_POT

SNAP_TO_SYMMETRY
SYMMETRY_GENERATE

