#              Generated by Buildcell
#
# at 02:03:14 (GMT+1.0) 19th August 2020
# in /lustre/scratch/uccabz1/launch_tmp
# on node-c12d-004
# by uccabz1
#
# compiler GCC version 4.9.2
# options -cpp -iprefix /lustre/shared/ucl/apps/gcc/4.9.2/bin/../lib/gcc/x86_64-unknown-linux-gnu/4.9.2/ -mtune=corei7 -march=x86-64 -g -Og
#
# seed   373304079  -692891229  2094905834 -1951688392 -1414219987   931020648  1541215807  1101487737  -926233928   141484309   237565765  -906012714
#
#      Author: C. J. Pickard (cjp20@cam.ac.uk)
#                Space group: Iba2
#

%BLOCK LATTICE_ABC
      5.85653      6.26104      6.93721
    116.82487    114.96785     90.00000
%ENDBLOCK LATTICE_ABC

%BLOCK POSITIONS_FRAC
  Li  -0.2312177  -0.2312177  -0.4624354 SPIN=   0.00000
  Li   0.2687823   0.2687823   0.5375646 SPIN=   0.00000
  Fe   0.1581593  -0.3418407   0.3163186 SPIN=   4.00000
  Fe  -0.3418407   0.1581593  -0.6836814 SPIN=   4.00000
   O  -0.2033459   0.5273646  -0.7458547 SPIN=   0.00000
   O  -0.6693284   0.3197444  -1.0109957 SPIN=   0.00000
   O  -0.5425088  -0.2732192  -0.7458547 SPIN=   0.00000
   O  -0.3416673  -0.3307401  -1.0109957 SPIN=   0.00000
   O   0.2966541   0.2267808   0.2541453 SPIN=   0.00000
   O  -0.1693284   0.1692599  -0.0109957 SPIN=   0.00000
   O  -0.0425088   0.0273646   0.2541453 SPIN=   0.00000
   O   0.1583327  -0.1802556  -0.0109957 SPIN=   0.00000
   S   0.0184927   0.0184927   0.0369854 SPIN=   0.00000
   S  -0.4815073  -0.4815073  -0.9630146 SPIN=   0.00000
   F  -0.1541378   0.3458622  -0.3082756 SPIN=   0.00000
   F   0.3458622  -0.1541378   0.6917244 SPIN=   0.00000
%ENDBLOCK POSITIONS_FRAC

# Note: total spin =   8.00

KPOINTS_MP_SPACING 0.07

%BLOCK SPECIES_POT
QC5
%ENDBLOCK SPECIES_POT

SNAP_TO_SYMMETRY
SYMMETRY_GENERATE

