#              Generated by Buildcell
#
# at 04:35:10 (GMT+1.0) 4th August 2020
# in /lustre/scratch/uccabz1/launch_tmp
# on node-c12p-021
# by uccabz1
#
# compiler GCC version 4.9.2
# options -cpp -iprefix /lustre/shared/ucl/apps/gcc/4.9.2/bin/../lib/gcc/x86_64-unknown-linux-gnu/4.9.2/ -mtune=corei7 -march=x86-64 -g -Og
#
# seed    49899942   930731219  1417585941   968804952 -1236940019 -1596271373  1231725786 -1347578937 -1735371706 -1387496281  -555959386  1926604620
#
#      Author: C. J. Pickard (cjp20@cam.ac.uk)
#                Space group: Pm
#

%BLOCK LATTICE_ABC
      4.17929      6.05528      8.21529
     90.00000     90.00000    105.84800
%ENDBLOCK LATTICE_ABC

%BLOCK POSITIONS_FRAC
  Li   0.3994660  -0.4889930   0.0000000 SPIN=   0.00000
  Li  -0.1738715   0.1235320   0.5000000 SPIN=   0.00000
  Fe   0.1334648  -0.0157825   0.0000000 SPIN=   4.36382
  Fe   0.3326477  -0.3581197  -0.5000000 SPIN=   3.63618
   O  -0.5472136   0.2637645  -0.1427712 SPIN=   0.00000
   O  -0.0383972   0.2423413  -0.2886144 SPIN=   0.00000
   O  -0.0699868   0.6097639  -0.1670612 SPIN=   0.00000
   S  -0.2658965   0.3927652  -0.2520534 SPIN=   0.00000
   O  -0.5472136   0.2637645   0.1427712 SPIN=   0.00000
   O  -0.0383972   0.2423413   0.2886144 SPIN=   0.00000
   O  -0.0699868   0.6097639   0.1670612 SPIN=   0.00000
   S  -0.2658965   0.3927652   0.2520534 SPIN=   0.00000
   O  -0.4814628   0.3390097   0.5000000 SPIN=   0.00000
   O  -0.0354481   0.3032123  -0.0000000 SPIN=   0.00000
   F   0.0692363  -0.1128751  -0.5000000 SPIN=   0.00000
   F  -0.4748644  -0.1511123   0.0000000 SPIN=   0.00000
%ENDBLOCK POSITIONS_FRAC

# Note: total spin =   8.00

KPOINTS_MP_SPACING 0.07

%BLOCK SPECIES_POT
QC5
%ENDBLOCK SPECIES_POT

SNAP_TO_SYMMETRY
SYMMETRY_GENERATE

