#              Generated by Buildcell
#
# at 03:05:09 (GMT+1.0) 4th August 2020
# in /lustre/scratch/uccabz1/launch_tmp
# on node-c12h-009
# by uccabz1
#
# compiler GCC version 4.9.2
# options -cpp -iprefix /lustre/shared/ucl/apps/gcc/4.9.2/bin/../lib/gcc/x86_64-unknown-linux-gnu/4.9.2/ -mtune=corei7 -march=x86-64 -g -Og
#
# seed  -635566067 -1339645733  1211136045 -1490507625  -205611157 -1044850680  1447031929  -722134662   309781843  1293048369  1355864544 -1956382664
#
#      Author: C. J. Pickard (cjp20@cam.ac.uk)
#                Space group: C2
#

%BLOCK LATTICE_ABC
      5.74345      5.97231      5.97231
     93.24432     98.26641     98.26641
%ENDBLOCK LATTICE_ABC

%BLOCK POSITIONS_FRAC
  Li   0.2528561   0.3991462   0.0251393 SPIN=   0.00000
  Li  -0.2528561  -0.0251393  -0.3991462 SPIN=   0.00000
  Fe  -0.2074760   0.1711376   0.1135239 SPIN=   4.00000
  Fe   0.2074760  -0.1135239  -0.1711376 SPIN=   4.00000
   O  -0.4199084  -0.6317599  -0.0886437 SPIN=   0.00000
   O  -0.5052023  -0.3238341  -0.3338941 SPIN=   0.00000
   O  -0.0888628  -0.3546406  -0.1779120 SPIN=   0.00000
   O  -0.3598670  -0.2344223   0.0765111 SPIN=   0.00000
   S  -0.3434601  -0.3861642  -0.1309847 SPIN=   0.00000
   O   0.4199084   0.0886437   0.6317599 SPIN=   0.00000
   O   0.5052023   0.3338941   0.3238341 SPIN=   0.00000
   O   0.0888628   0.1779120   0.3546406 SPIN=   0.00000
   O   0.3598670  -0.0765111   0.2344223 SPIN=   0.00000
   S   0.3434601   0.1309847   0.3861642 SPIN=   0.00000
   F   0.0000000  -0.3888414   0.3888414 SPIN=   0.00000
   F  -0.0000000   0.1426042  -0.1426042 SPIN=   0.00000
%ENDBLOCK POSITIONS_FRAC

# Note: total spin =   8.00

KPOINTS_MP_SPACING 0.07

%BLOCK SPECIES_POT
QC5
%ENDBLOCK SPECIES_POT

SNAP_TO_SYMMETRY
SYMMETRY_GENERATE

