#              Generated by Buildcell
#
# at 05:35:47 (GMT+1.0) 4th August 2020
# in /lustre/scratch/uccabz1/launch_tmp
# on node-c12d-002
# by uccabz1
#
# compiler GCC version 4.9.2
# options -cpp -iprefix /lustre/shared/ucl/apps/gcc/4.9.2/bin/../lib/gcc/x86_64-unknown-linux-gnu/4.9.2/ -mtune=corei7 -march=x86-64 -g -Og
#
# seed -1987647258   680917461   798268476 -1211319161  1320066649 -2102123882   108292801 -1348928632  1702948152 -1993986578   823554682  -670237284
#
#      Author: C. J. Pickard (cjp20@cam.ac.uk)
#                Space group: C2
#

%BLOCK LATTICE_ABC
      4.02864      5.93911      9.42357
     71.77424     77.65759     70.17416
%ENDBLOCK LATTICE_ABC

%BLOCK POSITIONS_FRAC
  Li  -0.1151077   0.2526016  -0.2740660 SPIN=   0.00000
  Li  -0.1365722  -0.2526016   0.2740660 SPIN=   0.00000
  Fe   0.4001029   0.2314152   0.1146708 SPIN=   4.00000
  Fe  -0.2538110  -0.2314152  -0.1146708 SPIN=   4.00000
   O  -0.3371546   0.1429278   0.5411383 SPIN=   0.00000
   O   0.1248957   0.2914677   0.3523355 SPIN=   0.00000
   O  -0.5097748   0.5294314   0.3391871 SPIN=   0.00000
   O  -0.2771591   0.1236869   0.2779504 SPIN=   0.00000
   S  -0.2497982   0.2718785   0.3776528 SPIN=   0.00000
   O   0.3469116  -0.1429278  -0.5411383 SPIN=   0.00000
   O   0.7686989  -0.2914677  -0.3523355 SPIN=   0.00000
   O   0.3588437  -0.5294314  -0.3391871 SPIN=   0.00000
   O   0.1244782  -0.1236869  -0.2779504 SPIN=   0.00000
   S   0.3997331  -0.2718785  -0.3776528 SPIN=   0.00000
   F   0.1892730  -0.3199815   0.0880722 SPIN=   0.00000
   F  -0.0426363   0.3199815  -0.0880722 SPIN=   0.00000
%ENDBLOCK POSITIONS_FRAC

# Note: total spin =   8.00

KPOINTS_MP_SPACING 0.07

%BLOCK SPECIES_POT
QC5
%ENDBLOCK SPECIES_POT

SNAP_TO_SYMMETRY
SYMMETRY_GENERATE

