#              Generated by Buildcell
#
# at 04:13:25 (GMT+1.0) 4th August 2020
# in /lustre/scratch/uccabz1/launch_tmp
# on node-c12p-016
# by uccabz1
#
# compiler GCC version 4.9.2
# options -cpp -iprefix /lustre/shared/ucl/apps/gcc/4.9.2/bin/../lib/gcc/x86_64-unknown-linux-gnu/4.9.2/ -mtune=corei7 -march=x86-64 -g -Og
#
# seed -1819264184  1369145110  2100699728      227802   927529089 -1611022858  1054756319   -21873122   731859159   -55803916   843948114  -329610934
#
#      Author: C. J. Pickard (cjp20@cam.ac.uk)
#                Space group: Pnc2
#

%BLOCK LATTICE_ABC
      4.79261      6.43843      6.48153
     90.00000     90.00000     90.00000
%ENDBLOCK LATTICE_ABC

%BLOCK POSITIONS_FRAC
  Li   0.5000000  -0.0000000  -0.1262837 SPIN=   0.00000
  Li   0.5000000  -0.5000000   0.3737163 SPIN=   0.00000
  Fe  -0.0000000  -0.0000000   0.1659452 SPIN=   4.00000
  Fe   0.0000000   0.5000000  -0.3340548 SPIN=   4.00000
   O  -0.2406432   0.1669659  -0.4327324 SPIN=   0.00000
   O   0.0971212   0.1586228  -0.1440230 SPIN=   0.00000
   O   0.2406432  -0.1669659  -0.4327324 SPIN=   0.00000
   O  -0.0971212  -0.1586228  -0.1440230 SPIN=   0.00000
   O  -0.2406432   0.3330341   0.0672676 SPIN=   0.00000
   O   0.0971212   0.3413772   0.3559770 SPIN=   0.00000
   O   0.2406432  -0.3330341   0.0672676 SPIN=   0.00000
   O  -0.0971212  -0.3413772   0.3559770 SPIN=   0.00000
   S  -0.0000000  -0.0000000  -0.3389358 SPIN=   0.00000
   S   0.0000000   0.5000000   0.1610642 SPIN=   0.00000
   F   0.5000000  -0.0000000   0.2423631 SPIN=   0.00000
   F  -0.5000000   0.5000000  -0.2576369 SPIN=   0.00000
%ENDBLOCK POSITIONS_FRAC

# Note: total spin =   8.00

KPOINTS_MP_SPACING 0.07

%BLOCK SPECIES_POT
QC5
%ENDBLOCK SPECIES_POT

SNAP_TO_SYMMETRY
SYMMETRY_GENERATE

