#              Generated by Buildcell
#
# at 05:28:53 (GMT+1.0) 4th August 2020
# in /lustre/scratch/uccabz1/launch_tmp
# on node-c12g-016
# by uccabz1
#
# compiler GCC version 4.9.2
# options -cpp -iprefix /lustre/shared/ucl/apps/gcc/4.9.2/bin/../lib/gcc/x86_64-unknown-linux-gnu/4.9.2/ -mtune=corei7 -march=x86-64 -g -Og
#
# seed  -458126075  -681912682   792624706   396380148 -1887812763   986190759  1752856925   875508672 -1612829923 -1094472253 -1628490740   673016738
#
#      Author: C. J. Pickard (cjp20@cam.ac.uk)
#                Space group: P2221
#

%BLOCK LATTICE_ABC
      3.94463      6.48530      7.81796
     90.00000     90.00000     90.00000
%ENDBLOCK LATTICE_ABC

%BLOCK POSITIONS_FRAC
  Li   0.5000000  -0.2500000  -0.2078390 SPIN=   0.00000
  Li  -0.5000000   0.2500000   0.2078390 SPIN=   0.00000
  Fe  -0.2400322   0.0000000   0.5000000 SPIN=   4.00000
  Fe   0.2400322  -0.5000000   0.5000000 SPIN=   4.00000
   O   0.2005413  -0.3822165   0.1129482 SPIN=   0.00000
   O   0.6725217  -0.3967698   0.3211651 SPIN=   0.00000
   O  -0.2005413   0.1177835  -0.1129482 SPIN=   0.00000
   O  -0.6725217   0.1032302  -0.3211651 SPIN=   0.00000
   O  -0.2005413  -0.1177835   0.1129482 SPIN=   0.00000
   O  -0.6725217  -0.1032302   0.3211651 SPIN=   0.00000
   O   0.2005413   0.3822165  -0.1129482 SPIN=   0.00000
   O   0.6725217   0.3967698  -0.3211651 SPIN=   0.00000
   S  -0.5000000   0.2500000  -0.1477560 SPIN=   0.00000
   S   0.5000000  -0.2500000   0.1477560 SPIN=   0.00000
   F   0.0000000  -0.2500000  -0.2451782 SPIN=   0.00000
   F   0.0000000   0.2500000   0.2451782 SPIN=   0.00000
%ENDBLOCK POSITIONS_FRAC

# Note: total spin =   8.00

KPOINTS_MP_SPACING 0.07

%BLOCK SPECIES_POT
QC5
%ENDBLOCK SPECIES_POT

SNAP_TO_SYMMETRY
SYMMETRY_GENERATE

