#              Generated by Buildcell
#
# at 05:40:32 (GMT+1.0) 4th August 2020
# in /lustre/scratch/uccabz1/launch_tmp
# on node-c12c-008
# by uccabz1
#
# compiler GCC version 4.9.2
# options -cpp -iprefix /lustre/shared/ucl/apps/gcc/4.9.2/bin/../lib/gcc/x86_64-unknown-linux-gnu/4.9.2/ -mtune=corei7 -march=x86-64 -g -Og
#
# seed -1428001092    48622755 -2117683697  -118946178    46619472 -1425560469 -1024314770 -1985071079  1236575319  1024226338 -1892838472   996079444
#
#      Author: C. J. Pickard (cjp20@cam.ac.uk)
#                Space group: P21
#

%BLOCK LATTICE_ABC
      3.94252      6.27048      8.59902
    109.81054     90.00000     90.00000
%ENDBLOCK LATTICE_ABC

%BLOCK POSITIONS_FRAC
  Li   0.3456862   0.2062787   0.1488316 SPIN=   0.00000
  Li  -0.1543138  -0.2062787  -0.1488316 SPIN=   0.00000
  Fe   0.1217497  -0.6638387  -0.2197596 SPIN=   4.00000
  Fe  -0.3782503   0.6638387   0.2197596 SPIN=   4.00000
   O   0.5884714  -0.1563869  -0.4834712 SPIN=   0.00000
   O   0.0770666  -0.0054605  -0.3152682 SPIN=   0.00000
   O   0.4233015  -0.3011383  -0.2599431 SPIN=   0.00000
   O   0.0782332  -0.3973018  -0.5149043 SPIN=   0.00000
   S   0.2917682  -0.2150719  -0.3933967 SPIN=   0.00000
   O   0.0884714   0.1563869   0.4834712 SPIN=   0.00000
   O  -0.4229334   0.0054605   0.3152682 SPIN=   0.00000
   O  -0.0766985   0.3011383   0.2599431 SPIN=   0.00000
   O  -0.4217668   0.3973018   0.5149043 SPIN=   0.00000
   S  -0.2082318   0.2150719   0.3933967 SPIN=   0.00000
   F   0.0645416  -0.2304670   0.0422197 SPIN=   0.00000
   F  -0.4354584   0.2304670  -0.0422197 SPIN=   0.00000
%ENDBLOCK POSITIONS_FRAC

# Note: total spin =   8.00

KPOINTS_MP_SPACING 0.07

%BLOCK SPECIES_POT
QC5
%ENDBLOCK SPECIES_POT

SNAP_TO_SYMMETRY
SYMMETRY_GENERATE

