#              Generated by Buildcell
#
# at 00:04:56 (GMT+1.0) 19th August 2020
# in /lustre/scratch/uccabz1/launch_tmp
# on node-c12j-020
# by uccabz1
#
# compiler GCC version 4.9.2
# options -cpp -iprefix /lustre/shared/ucl/apps/gcc/4.9.2/bin/../lib/gcc/x86_64-unknown-linux-gnu/4.9.2/ -mtune=corei7 -march=x86-64 -g -Og
#
# seed -1118311517 -2089719460 -1440825285 -1969620753  1853198205  -188053175  1922863559   676083964   259809400   623166289  -207144648  1358340136
#
#      Author: C. J. Pickard (cjp20@cam.ac.uk)
#                Space group: C2
#

%BLOCK LATTICE_ABC
      4.13342      6.48169      8.03447
    100.79169     90.00000    108.59361
%ENDBLOCK LATTICE_ABC

%BLOCK POSITIONS_FRAC
  Li   0.0840082   0.2731782  -0.1122245 SPIN=   0.00000
  Li  -0.1891700  -0.2731782   0.1122245 SPIN=   0.00000
  Fe   0.0170011   0.1785268   0.3168364 SPIN=   4.00000
  Fe  -0.1615257  -0.1785268  -0.3168364 SPIN=   4.00000
   O   0.2774992  -0.4058553   0.1674674 SPIN=   0.00000
   O   0.2221212  -0.0714679   0.3556383 SPIN=   0.00000
   O   0.6663851  -0.2284569   0.4252456 SPIN=   0.00000
   O   0.0557304  -0.4300712   0.4517677 SPIN=   0.00000
   S   0.3054340  -0.2839628   0.3500298 SPIN=   0.00000
   O  -0.3166455   0.4058553  -0.1674674 SPIN=   0.00000
   O  -0.7064109   0.0714679  -0.3556383 SPIN=   0.00000
   O  -0.1051580   0.2284569  -0.4252456 SPIN=   0.00000
   O  -0.5141984   0.4300712  -0.4517677 SPIN=   0.00000
   S  -0.4106032   0.2839628  -0.3500298 SPIN=   0.00000
   F  -0.4155859   0.2739654   0.1963786 SPIN=   0.00000
   F   0.3104487  -0.2739654  -0.1963786 SPIN=   0.00000
%ENDBLOCK POSITIONS_FRAC

# Note: total spin =   8.00

KPOINTS_MP_SPACING 0.07

%BLOCK SPECIES_POT
QC5
%ENDBLOCK SPECIES_POT

SNAP_TO_SYMMETRY
SYMMETRY_GENERATE

