#              Generated by Buildcell
#
# at 01:03:20 (GMT+1.0) 19th August 2020
# in /lustre/scratch/uccabz1/launch_tmp
# on node-c12h-024
# by uccabz1
#
# compiler GCC version 4.9.2
# options -cpp -iprefix /lustre/shared/ucl/apps/gcc/4.9.2/bin/../lib/gcc/x86_64-unknown-linux-gnu/4.9.2/ -mtune=corei7 -march=x86-64 -g -Og
#
# seed  -170732211  1807982342  1790857120  1096819987 -1402147498     6786811  1558331869 -1317483362  1759819452  -374464853   582662091 -1581757081
#
#      Author: C. J. Pickard (cjp20@cam.ac.uk)
#                Space group: Pc
#

%BLOCK LATTICE_ABC
      4.88570      6.23087      6.59496
     95.00274     90.00000     90.00000
%ENDBLOCK LATTICE_ABC

%BLOCK POSITIONS_FRAC
  Li  -0.2260810  -0.2813518   0.1063785 SPIN=   0.00000
  Li   0.2260810   0.2186482   0.1063785 SPIN=   0.00000
  Fe   0.2210281   0.0841682  -0.4605926 SPIN=   4.00000
  Fe  -0.2210281  -0.4158318  -0.4605926 SPIN=   4.00000
   O  -0.2877552   0.2361133  -0.3063386 SPIN=   0.00000
   O  -0.0746808  -0.0802125  -0.1672659 SPIN=   0.00000
   O  -0.5547899   0.0164935  -0.0816081 SPIN=   0.00000
   O  -0.1763272   0.2469822   0.0604896 SPIN=   0.00000
   S  -0.2733883   0.1048441  -0.1236807 SPIN=   0.00000
   O   0.2877552  -0.2638867  -0.3063386 SPIN=   0.00000
   O   0.0746808  -0.5802125  -0.1672659 SPIN=   0.00000
   O   0.5547899  -0.4835065  -0.0816081 SPIN=   0.00000
   O   0.1763272  -0.2530178   0.0604896 SPIN=   0.00000
   S   0.2733883  -0.3951559  -0.1236807 SPIN=   0.00000
   F   0.2573241   0.4201799   0.3567026 SPIN=   0.00000
   F  -0.2573241  -0.0798201   0.3567026 SPIN=   0.00000
%ENDBLOCK POSITIONS_FRAC

# Note: total spin =   8.00

KPOINTS_MP_SPACING 0.07

%BLOCK SPECIES_POT
QC5
%ENDBLOCK SPECIES_POT

SNAP_TO_SYMMETRY
SYMMETRY_GENERATE

