#              Generated by Buildcell
#
# at 01:29:07 (GMT+1.0) 19th August 2020
# in /lustre/scratch/uccabz1/launch_tmp
# on node-c12h-024
# by uccabz1
#
# compiler GCC version 4.9.2
# options -cpp -iprefix /lustre/shared/ucl/apps/gcc/4.9.2/bin/../lib/gcc/x86_64-unknown-linux-gnu/4.9.2/ -mtune=corei7 -march=x86-64 -g -Og
#
# seed  -230269774  1926848900  1790318803 -1616357827 -2116264114  1903355457   267684117  -698591073 -2038510836  -478177722  -432831248  1545136718
#
#      Author: C. J. Pickard (cjp20@cam.ac.uk)
#                Space group: C2
#

%BLOCK LATTICE_ABC
      5.90850      5.90850      6.66169
     68.02630     68.02630     81.85301
%ENDBLOCK LATTICE_ABC

%BLOCK POSITIONS_FRAC
  Li   0.4170903   0.4502518  -0.2059230 SPIN=   0.00000
  Li  -0.4502518  -0.4170903   0.2059230 SPIN=   0.00000
  Fe   0.0007328   0.1921769   0.1862089 SPIN=   4.00000
  Fe  -0.1921769  -0.0007328  -0.1862089 SPIN=   4.00000
   O  -0.5262725  -0.1815474   0.3795130 SPIN=   0.00000
   O  -0.4967006   0.2238848   0.3969868 SPIN=   0.00000
   O  -0.3646801  -0.1460189   0.6597582 SPIN=   0.00000
   S  -0.5477968  -0.0444987   0.5380106 SPIN=   0.00000
   O   0.1815474   0.5262725  -0.3795130 SPIN=   0.00000
   O  -0.2238848   0.4967006  -0.3969868 SPIN=   0.00000
   O   0.1460189   0.3646801  -0.6597582 SPIN=   0.00000
   S   0.0444987   0.5477968  -0.5380106 SPIN=   0.00000
   O   0.3390998  -0.3390998   0.0000000 SPIN=   0.00000
   O   0.0435621  -0.0435621   0.0000000 SPIN=   0.00000
   F   0.4399235   0.1278573  -0.0165723 SPIN=   0.00000
   F  -0.1278573  -0.4399235   0.0165723 SPIN=   0.00000
%ENDBLOCK POSITIONS_FRAC

# Note: total spin =   8.00

KPOINTS_MP_SPACING 0.07

%BLOCK SPECIES_POT
QC5
%ENDBLOCK SPECIES_POT

SNAP_TO_SYMMETRY
SYMMETRY_GENERATE

