#              Generated by Buildcell
#
# at 04:59:59 (GMT+1.0) 4th August 2020
# in /lustre/scratch/uccabz1/launch_tmp
# on node-c12j-008
# by uccabz1
#
# compiler GCC version 4.9.2
# options -cpp -iprefix /lustre/shared/ucl/apps/gcc/4.9.2/bin/../lib/gcc/x86_64-unknown-linux-gnu/4.9.2/ -mtune=corei7 -march=x86-64 -g -Og
#
# seed   -59644511  -139532407  1781148225   468500974 -2079694889 -1333530890  -418164537 -1967474538 -1979812427  -761821051  -221139363 -1894219857
#
#      Author: C. J. Pickard (cjp20@cam.ac.uk)
#                Space group: P-1
#

%BLOCK LATTICE_ABC
      3.93641      6.54149      8.13787
    101.59820    100.05764     95.97575
%ENDBLOCK LATTICE_ABC

%BLOCK POSITIONS_FRAC
  Li  -0.2992066  -0.2215115  -0.3581683 SPIN=   0.00000
  Li   0.2992066   0.2215115   0.3581683 SPIN=   0.00000
  Fe   0.2779076  -0.2726117  -0.0745596 SPIN=   4.00000
  Fe  -0.2779076   0.2726117   0.0745596 SPIN=   4.00000
   O  -0.1693067  -0.3954363   0.1446632 SPIN=   0.00000
   O  -0.0493112  -0.3412813   0.4603796 SPIN=   0.00000
   O  -0.0498325  -0.0336424   0.3262327 SPIN=   0.00000
   O   0.4251527  -0.2524976   0.3120895 SPIN=   0.00000
   S   0.0391756  -0.2557144   0.3108412 SPIN=   0.00000
   O   0.1693067   0.3954363  -0.1446632 SPIN=   0.00000
   O   0.0493112   0.3412813  -0.4603796 SPIN=   0.00000
   O   0.0498325   0.0336424  -0.3262327 SPIN=   0.00000
   O  -0.4251527   0.2524976  -0.3120895 SPIN=   0.00000
   S  -0.0391756   0.2557144  -0.3108412 SPIN=   0.00000
   F   0.2701473   0.2579588   0.1427371 SPIN=   0.00000
   F  -0.2701473  -0.2579588  -0.1427371 SPIN=   0.00000
%ENDBLOCK POSITIONS_FRAC

# Note: total spin =   8.00

KPOINTS_MP_SPACING 0.07

%BLOCK SPECIES_POT
QC5
%ENDBLOCK SPECIES_POT

SNAP_TO_SYMMETRY
SYMMETRY_GENERATE

