#              Generated by Buildcell
#
# at 01:56:41 (GMT+1.0) 4th August 2020
# in /lustre/scratch/uccabz1/launch_tmp
# on node-c12p-022
# by uccabz1
#
# compiler GCC version 4.9.2
# options -cpp -iprefix /lustre/shared/ucl/apps/gcc/4.9.2/bin/../lib/gcc/x86_64-unknown-linux-gnu/4.9.2/ -mtune=corei7 -march=x86-64 -g -Og
#
# seed  1746439507  1402235383  -964463088   -94177376   650243934  1937178415  -870091163  -803389992  1269416226  1845200509 -1771050746   772654147
#
#      Author: C. J. Pickard (cjp20@cam.ac.uk)
#                Space group: P-1
#

%BLOCK LATTICE_ABC
      3.87948      5.25978     10.05563
     97.16470     97.71652     96.43993
%ENDBLOCK LATTICE_ABC

%BLOCK POSITIONS_FRAC
  Li  -0.1738470  -0.2378535  -0.3892581 SPIN=   0.00000
  Li   0.1738470   0.2378535   0.3892581 SPIN=   0.00000
  Fe   0.2600415   0.2912137   0.0976152 SPIN=   4.00000
  Fe  -0.2600415  -0.2912137  -0.0976152 SPIN=   4.00000
   O   0.5181388   0.1525575   0.2698059 SPIN=   0.00000
   O   0.3489339  -0.3190072   0.2556902 SPIN=   0.00000
   O   0.9376710  -0.1170185   0.3708611 SPIN=   0.00000
   S   0.6490984  -0.1088249   0.2544522 SPIN=   0.00000
   O  -0.5181388  -0.1525575  -0.2698059 SPIN=   0.00000
   O  -0.3489339   0.3190072  -0.2556902 SPIN=   0.00000
   O  -0.9376710   0.1170185  -0.3708611 SPIN=   0.00000
   S  -0.6490984   0.1088249  -0.2544522 SPIN=   0.00000
   O   0.5000000  -0.0000000   0.0000000 SPIN=   0.00000
   O  -0.5000000   0.0000000  -0.5000000 SPIN=   0.00000
   F   0.0000000   0.5000000   0.5000000 SPIN=   0.00000
   F   0.0000000   0.5000000   0.0000000 SPIN=   0.00000
%ENDBLOCK POSITIONS_FRAC

# Note: total spin =   8.00

KPOINTS_MP_SPACING 0.07

%BLOCK SPECIES_POT
QC5
%ENDBLOCK SPECIES_POT

SNAP_TO_SYMMETRY
SYMMETRY_GENERATE

