#              Generated by Buildcell
#
# at 00:27:26 (GMT+1.0) 19th August 2020
# in /lustre/scratch/uccabz1/launch_tmp
# on node-c12p-024
# by uccabz1
#
# compiler GCC version 4.9.2
# options -cpp -iprefix /lustre/shared/ucl/apps/gcc/4.9.2/bin/../lib/gcc/x86_64-unknown-linux-gnu/4.9.2/ -mtune=corei7 -march=x86-64 -g -Og
#
# seed -1321051785  1489631478  1922718209  1639721838  1468981938 -1163043103   964532094    -2817813  -966692123  -294570017   674456781  -788362686
#
#      Author: C. J. Pickard (cjp20@cam.ac.uk)
#                Space group: P21212
#

%BLOCK LATTICE_ABC
      4.54098      6.51172      6.76371
     90.00000     90.00000     90.00000
%ENDBLOCK LATTICE_ABC

%BLOCK POSITIONS_FRAC
  Li  -0.5000000  -0.4551361  -0.0000000 SPIN=   0.00000
  Li  -0.0000000   0.4551361   0.5000000 SPIN=   0.00000
  Fe  -0.0000000  -0.1677061  -0.0000000 SPIN=   4.00000
  Fe  -0.5000000   0.1677061   0.5000000 SPIN=   4.00000
   O   0.1527932  -0.2047716   0.2959216 SPIN=   0.00000
   O   0.1593193   0.1365408   0.1350133 SPIN=   0.00000
   O  -0.1527932  -0.2047716  -0.2959216 SPIN=   0.00000
   O  -0.1593193   0.1365408  -0.1350133 SPIN=   0.00000
   O   0.3472068   0.2047716  -0.2040784 SPIN=   0.00000
   O   0.3406807  -0.1365408  -0.3649867 SPIN=   0.00000
   O  -0.3472068   0.2047716   0.2040784 SPIN=   0.00000
   O  -0.3406807  -0.1365408   0.3649867 SPIN=   0.00000
   S  -0.0000000   0.3324376  -0.0000000 SPIN=   0.00000
   S  -0.5000000  -0.3324376   0.5000000 SPIN=   0.00000
   F  -0.5000000  -0.1469648  -0.0000000 SPIN=   0.00000
   F  -0.0000000   0.1469648   0.5000000 SPIN=   0.00000
%ENDBLOCK POSITIONS_FRAC

# Note: total spin =   8.00

KPOINTS_MP_SPACING 0.07

%BLOCK SPECIES_POT
QC5
%ENDBLOCK SPECIES_POT

SNAP_TO_SYMMETRY
SYMMETRY_GENERATE

