#              Generated by Buildcell
#
# at 01:20:53 (GMT+1.0) 19th August 2020
# in /lustre/scratch/uccabz1/launch_tmp
# on node-c12k-032
# by uccabz1
#
# compiler GCC version 4.9.2
# options -cpp -iprefix /lustre/shared/ucl/apps/gcc/4.9.2/bin/../lib/gcc/x86_64-unknown-linux-gnu/4.9.2/ -mtune=corei7 -march=x86-64 -g -Og
#
# seed  -253484708  -989493982  1830813483 -1433755976  1954708592 -1317250012  -812964480   661821394 -1813040690 -1801473700  -164237937   808691873
#
#      Author: C. J. Pickard (cjp20@cam.ac.uk)
#                Space group: P2
#

%BLOCK LATTICE_ABC
      5.19964      5.98326      6.42864
     90.00000     90.00000     90.09233
%ENDBLOCK LATTICE_ABC

%BLOCK POSITIONS_FRAC
  Li   0.2750454   0.2361094   0.2065678 SPIN=   0.00000
  Li  -0.2750454  -0.2361094   0.2065678 SPIN=   0.00000
  Fe  -0.2009384   0.2467275   0.4940765 SPIN=   4.00000
  Fe   0.2009384  -0.2467275   0.4940765 SPIN=   4.00000
   O   0.2755324   0.0023493  -0.0066099 SPIN=   0.00000
   O  -0.0322672  -0.3135819  -0.0051302 SPIN=   0.00000
   O   0.3791307  -0.3439343   0.1863295 SPIN=   0.00000
   O   0.3775649  -0.3448672  -0.1986435 SPIN=   0.00000
   S   0.2499902  -0.2500085  -0.0060135 SPIN=   0.00000
   O  -0.2755324  -0.0023493  -0.0066099 SPIN=   0.00000
   O   0.0322672   0.3135819  -0.0051302 SPIN=   0.00000
   O  -0.3791307   0.3439343   0.1863295 SPIN=   0.00000
   O  -0.3775649   0.3448672  -0.1986435 SPIN=   0.00000
   S  -0.2499902   0.2500085  -0.0060135 SPIN=   0.00000
   F   0.2176292   0.2668603  -0.4483289 SPIN=   0.00000
   F  -0.2176292  -0.2668603  -0.4483289 SPIN=   0.00000
%ENDBLOCK POSITIONS_FRAC

# Note: total spin =   8.00

KPOINTS_MP_SPACING 0.07

%BLOCK SPECIES_POT
QC5
%ENDBLOCK SPECIES_POT

SNAP_TO_SYMMETRY
SYMMETRY_GENERATE

