#              Generated by Buildcell
#
# at 19:16:51 (GMT+1.0) 18th August 2020
# in /scratch/scratch/uccabz1/launch_tmp
# on node-k10d-010
# by uccabz1
#
# compiler GCC version 4.9.2
# options -cpp -iprefix /scratch/UCL/applications/gcc/4.9.2/bin/../lib/gcc/x86_64-unknown-linux-gnu/4.9.2/ -mtune=corei7 -march=x86-64 -g -O2
#
# seed  1728230132   141147615  -550385514   274408275  1003903382  -344449848   890802241   495321680 -1576720455 -1703505222  1858996561   350206889
#
#      Author: C. J. Pickard (cjp20@cam.ac.uk)
#                Space group: P21
#

%BLOCK LATTICE_ABC
      5.49948      5.65193      6.77554
     90.00000     90.00000    108.25713
%ENDBLOCK LATTICE_ABC

%BLOCK POSITIONS_FRAC
  Li   0.0880958  -0.2145220  -0.3838575 SPIN=   0.00000
  Li  -0.0880958   0.2145220   0.1161425 SPIN=   0.00000
  Fe   0.3614423   0.3226260  -0.4798451 SPIN=   4.00000
  Fe  -0.3614423  -0.3226260   0.0201549 SPIN=   4.00000
   O  -0.4691305  -0.2826444   0.5617450 SPIN=   0.00000
   O  -0.4646291   0.0320910   0.3066397 SPIN=   0.00000
   O  -0.0926530  -0.1222373   0.3432079 SPIN=   0.00000
   O  -0.1833726   0.1508554   0.5993175 SPIN=   0.00000
   S  -0.3024463  -0.0554838   0.4527275 SPIN=   0.00000
   O   0.4691305   0.2826444   0.0617450 SPIN=   0.00000
   O   0.4646291  -0.0320910  -0.1933603 SPIN=   0.00000
   O   0.0926530   0.1222373  -0.1567921 SPIN=   0.00000
   O   0.1833726  -0.1508554   0.0993175 SPIN=   0.00000
   S   0.3024463   0.0554838  -0.0472725 SPIN=   0.00000
   F   0.1943742   0.4474802   0.3027982 SPIN=   0.00000
   F  -0.1943742  -0.4474802  -0.1972018 SPIN=   0.00000
%ENDBLOCK POSITIONS_FRAC

# Note: total spin =   8.00

KPOINTS_MP_SPACING 0.07

%BLOCK SPECIES_POT
QC5
%ENDBLOCK SPECIES_POT

SNAP_TO_SYMMETRY
SYMMETRY_GENERATE

