#              Generated by Buildcell
#
# at 04:52:57 (GMT+1.0) 4th August 2020
# in /lustre/scratch/uccabz1/launch_tmp
# on node-c12d-009
# by uccabz1
#
# compiler GCC version 4.9.2
# options -cpp -iprefix /lustre/shared/ucl/apps/gcc/4.9.2/bin/../lib/gcc/x86_64-unknown-linux-gnu/4.9.2/ -mtune=corei7 -march=x86-64 -g -Og
#
# seed  -636715897 -2096917237  1393345893   970223972   299173062   324291515  -276658735  -738615518 -1166470160  1986050669  1170243639  1631665940
#
#      Author: C. J. Pickard (cjp20@cam.ac.uk)
#                Space group: C2/m
#

%BLOCK LATTICE_ABC
      4.28022      7.43108      7.43108
    116.65431     99.72917     99.72917
%ENDBLOCK LATTICE_ABC

%BLOCK POSITIONS_FRAC
  Li   0.5000000   0.6617691   0.3382309 SPIN=   0.00000
  Li  -0.5000000  -0.6617691  -0.3382309 SPIN=   0.00000
  Fe  -0.5000000   0.0000000   0.0000000 SPIN=   6.29870
  Fe  -0.0000000  -0.5000000   0.5000000 SPIN=   1.70130
   O   0.1662764  -0.1999437   0.5032163 SPIN=   0.00000
   O   0.2138228  -0.2746587   0.1507082 SPIN=   0.00000
   O  -0.1662764  -0.5032163   0.1999437 SPIN=   0.00000
   O  -0.2138228  -0.1507082   0.2746587 SPIN=   0.00000
   O  -0.1662764   0.1999437  -0.5032163 SPIN=   0.00000
   O  -0.2138228   0.2746587  -0.1507082 SPIN=   0.00000
   O   0.1662764   0.5032163  -0.1999437 SPIN=   0.00000
   O   0.2138228   0.1507082  -0.2746587 SPIN=   0.00000
   S  -0.0000000   0.0000000   0.5000000 SPIN=   0.00000
   S  -1.0000000  -0.5000000  -1.0000000 SPIN=   0.00000
   F   0.5000000   0.5000000   0.5000000 SPIN=   0.00000
   F  -0.0000000   0.0000000   0.0000000 SPIN=   0.00000
%ENDBLOCK POSITIONS_FRAC

# Note: total spin =   8.00

KPOINTS_MP_SPACING 0.07

%BLOCK SPECIES_POT
QC5
%ENDBLOCK SPECIES_POT

SNAP_TO_SYMMETRY
SYMMETRY_GENERATE

