#              Generated by Buildcell
#
# at 05:07:54 (GMT+1.0) 4th August 2020
# in /lustre/scratch/uccabz1/launch_tmp
# on node-c12g-013
# by uccabz1
#
# compiler GCC version 4.9.2
# options -cpp -iprefix /lustre/shared/ucl/apps/gcc/4.9.2/bin/../lib/gcc/x86_64-unknown-linux-gnu/4.9.2/ -mtune=corei7 -march=x86-64 -g -Og
#
# seed  -852784043   924875854 -1899766479   198114502  1930567284 -1401761450  -418253045   533012127  -364279684  -340318940  1879976853  1544532568
#
#      Author: C. J. Pickard (cjp20@cam.ac.uk)
#                Space group: P21
#

%BLOCK LATTICE_ABC
      3.98292      4.61474     10.96027
     90.00000     90.00000     96.88165
%ENDBLOCK LATTICE_ABC

%BLOCK POSITIONS_FRAC
  Li   0.0509765   0.2936474   0.4676696 SPIN=   0.00000
  Li  -0.0509765  -0.2936474  -0.0323304 SPIN=   0.00000
  Fe  -0.1510000  -0.2372902  -0.3822799 SPIN=   4.00000
  Fe   0.1510000   0.2372902   0.1177201 SPIN=   4.00000
   O   0.3239330  -0.0247494   0.4698970 SPIN=   0.00000
   O   0.2464111  -0.0952499   0.2473814 SPIN=   0.00000
   O   0.6225894  -0.3885280   0.3614297 SPIN=   0.00000
   O   0.7925421   0.1391723   0.3283288 SPIN=   0.00000
   S   0.4963689  -0.0923388   0.3517592 SPIN=   0.00000
   O  -0.3239330   0.0247494  -0.0301030 SPIN=   0.00000
   O  -0.2464111   0.0952499  -0.2526186 SPIN=   0.00000
   O  -0.6225894   0.3885280  -0.1385703 SPIN=   0.00000
   O  -0.7925421  -0.1391723  -0.1716712 SPIN=   0.00000
   S  -0.4963689   0.0923388  -0.1482408 SPIN=   0.00000
   F  -0.1546469  -0.4972823   0.1135697 SPIN=   0.00000
   F   0.1546469   0.4972823  -0.3864303 SPIN=   0.00000
%ENDBLOCK POSITIONS_FRAC

# Note: total spin =   8.00

KPOINTS_MP_SPACING 0.07

%BLOCK SPECIES_POT
QC5
%ENDBLOCK SPECIES_POT

SNAP_TO_SYMMETRY
SYMMETRY_GENERATE

