#              Generated by Buildcell
#
# at 03:38:38 (GMT+1.0) 4th August 2020
# in /lustre/scratch/uccabz1/launch_tmp
# on node-c12l-013
# by uccabz1
#
# compiler GCC version 4.9.2
# options -cpp -iprefix /lustre/shared/ucl/apps/gcc/4.9.2/bin/../lib/gcc/x86_64-unknown-linux-gnu/4.9.2/ -mtune=corei7 -march=x86-64 -g -Og
#
# seed -1744379496  1499198279 -1463241617 -1199161510   639825697  2020546749   628922792  -365243844  1401967934  1069409385  1448062520 -1496085793
#
#      Author: C. J. Pickard (cjp20@cam.ac.uk)
#                Space group: P2
#

%BLOCK LATTICE_ABC
      4.24940      6.94752      6.95922
    103.23321     90.00000     90.00000
%ENDBLOCK LATTICE_ABC

%BLOCK POSITIONS_FRAC
  Li   0.2786061   0.3842164   0.2233945 SPIN=   0.00000
  Li   0.2786061  -0.3842164  -0.2233945 SPIN=   0.00000
  Fe  -0.2108974   0.2280433  -0.0959425 SPIN=   4.00000
  Fe  -0.2108974  -0.2280433   0.0959425 SPIN=   4.00000
   O  -0.2042097   0.3472626   0.2299252 SPIN=   0.00000
   O  -0.4061095   0.0358468   0.2990478 SPIN=   0.00000
   O  -0.3837616   0.3395470   0.5663819 SPIN=   0.00000
   O   0.1084846   0.1690953   0.4342264 SPIN=   0.00000
   S  -0.2213991   0.2229380   0.3823953 SPIN=   0.00000
   O  -0.2042097  -0.3472626  -0.2299252 SPIN=   0.00000
   O  -0.4061095  -0.0358468  -0.2990478 SPIN=   0.00000
   O  -0.3837616  -0.3395470  -0.5663819 SPIN=   0.00000
   O   0.1084846  -0.1690953  -0.4342264 SPIN=   0.00000
   S  -0.2213991  -0.2229380  -0.3823953 SPIN=   0.00000
   F   0.2114965  -0.2454018   0.1466475 SPIN=   0.00000
   F   0.2114965   0.2454018  -0.1466475 SPIN=   0.00000
%ENDBLOCK POSITIONS_FRAC

# Note: total spin =   8.00

KPOINTS_MP_SPACING 0.07

%BLOCK SPECIES_POT
QC5
%ENDBLOCK SPECIES_POT

SNAP_TO_SYMMETRY
SYMMETRY_GENERATE

