#              Generated by Buildcell
#
# at 00:10:21 (GMT+1.0) 19th August 2020
# in /lustre/scratch/uccabz1/launch_tmp
# on node-c12j-021
# by uccabz1
#
# compiler GCC version 4.9.2
# options -cpp -iprefix /lustre/shared/ucl/apps/gcc/4.9.2/bin/../lib/gcc/x86_64-unknown-linux-gnu/4.9.2/ -mtune=corei7 -march=x86-64 -g -Og
#
# seed   138813338 -1737035019 -1923010040  -532409663  1083806786    44504707 -1141304891  1970565515  2054401034  1329947410 -1068982349   -28051186
#
#      Author: C. J. Pickard (cjp20@cam.ac.uk)
#                Space group: Pma2
#

%BLOCK LATTICE_ABC
      4.09086      4.61306     10.59805
     90.00000     90.00000     90.00000
%ENDBLOCK LATTICE_ABC

%BLOCK POSITIONS_FRAC
  Li  -0.5000000   0.2707913   0.0000000 SPIN=   0.00000
  Li  -0.5000000   0.2707913  -0.5000000 SPIN=   0.00000
  Fe   0.3325954  -0.4656390  -0.2500000 SPIN=   4.00000
  Fe  -0.3325954  -0.4656390   0.2500000 SPIN=   4.00000
   O  -0.1662116  -0.4208107  -0.3539777 SPIN=   0.00000
   O  -0.7040409  -0.2531153  -0.4321140 SPIN=   0.00000
   O   0.1662116  -0.4208107   0.3539777 SPIN=   0.00000
   O   0.7040409  -0.2531153   0.4321140 SPIN=   0.00000
   O   0.1662116  -0.4208107   0.1460223 SPIN=   0.00000
   O   0.7040409  -0.2531153   0.0678860 SPIN=   0.00000
   O  -0.1662116  -0.4208107  -0.1460223 SPIN=   0.00000
   O  -0.7040409  -0.2531153  -0.0678860 SPIN=   0.00000
   S  -0.0000000  -0.1543056   0.0000000 SPIN=   0.00000
   S   0.0000000  -0.1543056  -0.5000000 SPIN=   0.00000
   F   0.4999983   0.1216332   0.2500000 SPIN=   0.00000
   F  -0.4999983   0.1216332  -0.2500000 SPIN=   0.00000
%ENDBLOCK POSITIONS_FRAC

# Note: total spin =   8.00

KPOINTS_MP_SPACING 0.07

%BLOCK SPECIES_POT
QC5
%ENDBLOCK SPECIES_POT

SNAP_TO_SYMMETRY
SYMMETRY_GENERATE

