#              Generated by Buildcell
#
# at 04:48:16 (GMT+1.0) 4th August 2020
# in /lustre/scratch/uccabz1/launch_tmp
# on node-c12j-010
# by uccabz1
#
# compiler GCC version 4.9.2
# options -cpp -iprefix /lustre/shared/ucl/apps/gcc/4.9.2/bin/../lib/gcc/x86_64-unknown-linux-gnu/4.9.2/ -mtune=corei7 -march=x86-64 -g -Og
#
# seed -1999774788  -256761003  1330183762 -1256287507  -228230101   857439258 -1359886384  1018571687  1100190298 -1875725514  -437000902  -808620771
#
#      Author: C. J. Pickard (cjp20@cam.ac.uk)
#                Space group: I41
#

%BLOCK LATTICE_ABC
      5.79540      5.79540      7.22858
    113.63241    113.63241     90.00000
%ENDBLOCK LATTICE_ABC

%BLOCK POSITIONS_FRAC
  Li   0.0908915   0.0908915   0.1817830 SPIN=   0.00000
  Li   0.3408915  -0.1591085  -0.3182170 SPIN=   0.00000
  Fe  -0.2988323  -0.2988323   0.4023353 SPIN=   4.00000
  Fe  -0.0488323   0.4511677  -0.0976647 SPIN=   4.00000
   O  -0.4158370   0.0469911  -0.4709033 SPIN=   0.00000
   O   0.0228356   0.1016454  -0.4417579 SPIN=   0.00000
   O  -0.0550663   0.4821055  -0.4709033 SPIN=   0.00000
   O  -0.4645935   0.4565967  -0.4417579 SPIN=   0.00000
   O  -0.2678945  -0.6658370   0.0290967 SPIN=   0.00000
   O  -0.2934033  -0.2271644   0.0582421 SPIN=   0.00000
   O   0.2969911   0.6949337   0.0290967 SPIN=   0.00000
   O   0.3516454   0.2854065   0.0582421 SPIN=   0.00000
   S  -0.4218196   0.0781804   0.1563608 SPIN=   0.00000
   S   0.3281804   0.3281804  -0.3436392 SPIN=   0.00000
   F  -0.0774839  -0.0774839  -0.1549678 SPIN=   0.00000
   F   0.1725161  -0.3274839   0.3450322 SPIN=   0.00000
%ENDBLOCK POSITIONS_FRAC

# Note: total spin =   8.00

KPOINTS_MP_SPACING 0.07

%BLOCK SPECIES_POT
QC5
%ENDBLOCK SPECIES_POT

SNAP_TO_SYMMETRY
SYMMETRY_GENERATE

