#              Generated by Buildcell
#
# at 03:53:16 (GMT+1.0) 4th August 2020
# in /lustre/scratch/uccabz1/launch_tmp
# on node-y12q-001
# by uccabz1
#
# compiler GCC version 4.9.2
# options -cpp -iprefix /lustre/shared/ucl/apps/gcc/4.9.2/bin/../lib/gcc/x86_64-unknown-linux-gnu/4.9.2/ -mtune=corei7 -march=x86-64 -g -Og
#
# seed   633049464  -653148960  -710595131  -643306517 -1030050562   667795506 -1443890130  1673183516  -603738231  1589782942  1661454211 -1296275670
#
#      Author: C. J. Pickard (cjp20@cam.ac.uk)
#                Space group: C2
#

%BLOCK LATTICE_ABC
      5.32049      6.58210      7.00201
    118.03528    109.71845     90.00000
%ENDBLOCK LATTICE_ABC

%BLOCK POSITIONS_FRAC
  Li   0.2425816  -0.0047445   0.3361178 SPIN=   0.00000
  Li  -0.2425816  -0.3408623  -0.3361178 SPIN=   0.00000
  Fe  -0.1458482  -0.3942945  -0.7659029 SPIN=   4.00000
  Fe   0.1458482   0.3716085   0.7659029 SPIN=   4.00000
   O  -0.6285738  -0.0897043  -0.3609227 SPIN=   0.00000
   O  -0.2531885   0.1966716   0.0058025 SPIN=   0.00000
   O  -0.4192172   0.2657016  -0.3302195 SPIN=   0.00000
   O  -0.1605798  -0.0513994  -0.3501884 SPIN=   0.00000
   S  -0.3653898   0.0803174  -0.2588820 SPIN=   0.00000
   O   0.6285738   0.2712183   0.3609227 SPIN=   0.00000
   O   0.2531885   0.1908691  -0.0058025 SPIN=   0.00000
   O   0.4192172   0.5959211   0.3302195 SPIN=   0.00000
   O   0.1605798   0.2987890   0.3501884 SPIN=   0.00000
   S   0.3653898   0.3391994   0.2588820 SPIN=   0.00000
   F   0.1424744  -0.3165590  -0.2410739 SPIN=   0.00000
   F  -0.1424744  -0.0754851   0.2410739 SPIN=   0.00000
%ENDBLOCK POSITIONS_FRAC

# Note: total spin =   8.00

KPOINTS_MP_SPACING 0.07

%BLOCK SPECIES_POT
QC5
%ENDBLOCK SPECIES_POT

SNAP_TO_SYMMETRY
SYMMETRY_GENERATE

