#              Generated by Buildcell
#
# at 01:53:07 (GMT+1.0) 19th August 2020
# in /lustre/scratch/uccabz1/launch_tmp
# on node-c12l-008
# by uccabz1
#
# compiler GCC version 4.9.2
# options -cpp -iprefix /lustre/shared/ucl/apps/gcc/4.9.2/bin/../lib/gcc/x86_64-unknown-linux-gnu/4.9.2/ -mtune=corei7 -march=x86-64 -g -Og
#
# seed   120631722 -2081696788   544355126  1854857132  2038459963    19855669 -1188077397  1583868295   846568318  -976242847  1100993214   -51145536
#
#      Author: C. J. Pickard (cjp20@cam.ac.uk)
#                Space group: Iba2
#

%BLOCK LATTICE_ABC
      5.79012      6.25974      6.97326
    116.66921    114.52978     90.00000
%ENDBLOCK LATTICE_ABC

%BLOCK POSITIONS_FRAC
  Li  -0.1315378  -0.1315378  -0.2630757 SPIN=   0.00000
  Li   0.3684622   0.3684622   0.7369243 SPIN=   0.00000
  Fe   0.2552476  -0.2447524   0.5104953 SPIN=   4.00000
  Fe  -0.2447524   0.2552476  -0.4895047 SPIN=   4.00000
   O  -0.4664344  -0.3850120  -0.5910941 SPIN=   0.00000
   O  -0.2712870  -0.6141663  -0.8570180 SPIN=   0.00000
   O  -0.1246596  -0.2060821  -0.5910941 SPIN=   0.00000
   O  -0.5857310  -0.2428517  -0.8570180 SPIN=   0.00000
   O   0.3753404   0.1149880   0.4089059 SPIN=   0.00000
   O  -0.0857310  -0.1141663   0.1429820 SPIN=   0.00000
   O   0.0335656   0.2939179   0.4089059 SPIN=   0.00000
   O   0.2287130   0.2571483   0.1429820 SPIN=   0.00000
   S   0.1184621   0.1184621   0.2369242 SPIN=   0.00000
   S  -0.3815379  -0.3815379  -0.7630758 SPIN=   0.00000
   F  -0.0709105   0.4290895  -0.1418210 SPIN=   0.00000
   F   0.4290895  -0.0709105   0.8581790 SPIN=   0.00000
%ENDBLOCK POSITIONS_FRAC

# Note: total spin =   8.00

KPOINTS_MP_SPACING 0.07

%BLOCK SPECIES_POT
QC5
%ENDBLOCK SPECIES_POT

SNAP_TO_SYMMETRY
SYMMETRY_GENERATE

