#              Generated by Buildcell
#
# at 19:51:39 (GMT+1.0) 18th August 2020
# in /scratch/scratch/uccabz1/launch_tmp
# on node-k10d-025
# by uccabz1
#
# compiler GCC version 4.9.2
# options -cpp -iprefix /scratch/UCL/applications/gcc/4.9.2/bin/../lib/gcc/x86_64-unknown-linux-gnu/4.9.2/ -mtune=corei7 -march=x86-64 -g -O2
#
# seed  -482125988  1818287932  1283333861    80426892  2031140410  -890164253  1801887989 -1093551050  -674278464 -1879610096 -1366212950  -836895201
#
#      Author: C. J. Pickard (cjp20@cam.ac.uk)
#                Space group: Cc
#

%BLOCK LATTICE_ABC
      4.31647      4.31647     10.89711
     83.91556     83.91556     84.44417
%ENDBLOCK LATTICE_ABC

%BLOCK POSITIONS_FRAC
  Li  -0.1319180   0.1047377   0.4040074 SPIN=   0.00000
  Li   0.1047377  -0.1319180  -0.0959926 SPIN=   0.00000
  Fe   0.3509332  -0.4124105   0.3732362 SPIN=   4.00000
  Fe  -0.4124105   0.3509332  -0.1267638 SPIN=   4.00000
   O   0.2598925   0.2333232  -0.4824185 SPIN=   0.00000
   O   0.2630514   0.0533791  -0.2591941 SPIN=   0.00000
   O   0.7518627   0.1998670  -0.3820913 SPIN=   0.00000
   O   0.5226663  -0.2837866  -0.4166797 SPIN=   0.00000
   S   0.4493682   0.0506957  -0.3850959 SPIN=   0.00000
   O   0.2333232   0.2598925   0.0175815 SPIN=   0.00000
   O   0.0533791   0.2630514   0.2408059 SPIN=   0.00000
   O   0.1998670   0.7518627   0.1179087 SPIN=   0.00000
   O  -0.2837866   0.5226663   0.0833203 SPIN=   0.00000
   S   0.0506957   0.4493682   0.1149041 SPIN=   0.00000
   F  -0.0216961  -0.4344178  -0.2012066 SPIN=   0.00000
   F  -0.4344178  -0.0216961   0.2987934 SPIN=   0.00000
%ENDBLOCK POSITIONS_FRAC

# Note: total spin =   8.00

KPOINTS_MP_SPACING 0.07

%BLOCK SPECIES_POT
QC5
%ENDBLOCK SPECIES_POT

SNAP_TO_SYMMETRY
SYMMETRY_GENERATE

