#              Generated by Buildcell
#
# at 02:11:28 (GMT+1.0) 4th August 2020
# in /lustre/scratch/uccabz1/launch_tmp
# on node-c12d-001
# by uccabz1
#
# compiler GCC version 4.9.2
# options -cpp -iprefix /lustre/shared/ucl/apps/gcc/4.9.2/bin/../lib/gcc/x86_64-unknown-linux-gnu/4.9.2/ -mtune=corei7 -march=x86-64 -g -Og
#
# seed   647701378   559204150  1758100564 -1031076480 -1203369443  -728245356  1117504219   -14643479   599231440  -755355630  1863209566  1754991262
#
#      Author: C. J. Pickard (cjp20@cam.ac.uk)
#                Space group: P2
#

%BLOCK LATTICE_ABC
      3.84659      6.41425      8.10793
     90.00000     91.23764     90.00000
%ENDBLOCK LATTICE_ABC

%BLOCK POSITIONS_FRAC
  Li   0.2651719  -0.2334335   0.1832084 SPIN=   0.00000
  Li  -0.2651719  -0.2334335  -0.1832084 SPIN=   0.00000
  Fe  -0.5000000  -0.4915263  -0.5000000 SPIN=   5.42938
  Fe  -0.0000000   0.3674157   0.0000000 SPIN=   2.57062
   O  -0.3739298  -0.1724129   0.3774604 SPIN=   0.00000
   O   0.1622779   0.0213203   0.3122540 SPIN=   0.00000
   O  -0.3756462   0.2134256   0.3772896 SPIN=   0.00000
   O  -0.3361478   0.0204008   0.1140605 SPIN=   0.00000
   S  -0.2308615   0.0206835   0.2952661 SPIN=   0.00000
   O   0.3739298  -0.1724129  -0.3774604 SPIN=   0.00000
   O  -0.1622779   0.0213203  -0.3122540 SPIN=   0.00000
   O   0.3756462   0.2134256  -0.3772896 SPIN=   0.00000
   O   0.3361478   0.0204008  -0.1140605 SPIN=   0.00000
   S   0.2308615   0.0206835  -0.2952661 SPIN=   0.00000
   F  -0.1273766   0.4975791  -0.2707909 SPIN=   0.00000
   F   0.1273766   0.4975791   0.2707909 SPIN=   0.00000
%ENDBLOCK POSITIONS_FRAC

# Note: total spin =   8.00

KPOINTS_MP_SPACING 0.07

%BLOCK SPECIES_POT
QC5
%ENDBLOCK SPECIES_POT

SNAP_TO_SYMMETRY
SYMMETRY_GENERATE

