#              Generated by Buildcell
#
# at 01:51:23 (GMT+1.0) 19th August 2020
# in /scratch/scratch/uccabz1/launch_tmp
# on node-k10g-026
# by uccabz1
#
# compiler GCC version 4.9.2
# options -cpp -iprefix /scratch/UCL/applications/gcc/4.9.2/bin/../lib/gcc/x86_64-unknown-linux-gnu/4.9.2/ -mtune=corei7 -march=x86-64 -g -O2
#
# seed  -954633766  1787996655  1497859426  -427457493 -1050882881  -100568734   299107212  -676611247   414610716  -500759977  1055919153 -1884594016
#
#      Author: C. J. Pickard (cjp20@cam.ac.uk)
#                Space group: C2
#

%BLOCK LATTICE_ABC
      5.83271      5.91932      6.67718
    116.31140    103.03672     90.00000
%ENDBLOCK LATTICE_ABC

%BLOCK POSITIONS_FRAC
  Li   0.1312654   0.4373615   0.3121526 SPIN=   0.00000
  Li  -0.1312654   0.1252089  -0.3121526 SPIN=   0.00000
  Fe   0.3340864   0.1287477   0.5576705 SPIN=   4.00000
  Fe  -0.3340864  -0.4289227  -0.5576705 SPIN=   4.00000
   O  -0.2035512   0.0166245  -0.0012251 SPIN=   0.00000
   O  -0.1596034  -0.2699256   0.1815055 SPIN=   0.00000
   O  -0.4219792   0.0698737   0.2916721 SPIN=   0.00000
   O   0.0130272   0.1794595   0.4089573 SPIN=   0.00000
   S  -0.1930266  -0.0009920   0.2202275 SPIN=   0.00000
   O   0.2035512   0.0178496   0.0012251 SPIN=   0.00000
   O   0.1596034  -0.4514312  -0.1815055 SPIN=   0.00000
   O   0.4219792  -0.2217984  -0.2916721 SPIN=   0.00000
   O  -0.0130272  -0.2294978  -0.4089573 SPIN=   0.00000
   S   0.1930266  -0.2212194  -0.2202275 SPIN=   0.00000
   F  -0.3406476   0.3806615   0.7505181 SPIN=   0.00000
   F   0.3406476  -0.3698566  -0.7505181 SPIN=   0.00000
%ENDBLOCK POSITIONS_FRAC

# Note: total spin =   8.00

KPOINTS_MP_SPACING 0.07

%BLOCK SPECIES_POT
QC5
%ENDBLOCK SPECIES_POT

SNAP_TO_SYMMETRY
SYMMETRY_GENERATE

