#              Generated by Buildcell
#
# at 04:32:11 (GMT+1.0) 4th August 2020
# in /lustre/scratch/uccabz1/launch_tmp
# on node-c12g-020
# by uccabz1
#
# compiler GCC version 4.9.2
# options -cpp -iprefix /lustre/shared/ucl/apps/gcc/4.9.2/bin/../lib/gcc/x86_64-unknown-linux-gnu/4.9.2/ -mtune=corei7 -march=x86-64 -g -Og
#
# seed  1926879505  1166344839    16915319  1841859630  1889051642  -833541972 -2061617109  1157951878  -349425442  1364026374  1362547442  -832348592
#
#      Author: C. J. Pickard (cjp20@cam.ac.uk)
#                Space group: C2
#

%BLOCK LATTICE_ABC
      5.41258      5.41258      6.90344
     92.55467     92.55467     97.61504
%ENDBLOCK LATTICE_ABC

%BLOCK POSITIONS_FRAC
  Li  -0.0627193  -0.4440154   0.4395222 SPIN=   0.00000
  Li   0.4440154   0.0627193  -0.4395222 SPIN=   0.00000
  Fe  -0.4388462  -0.1264614   0.1539214 SPIN=   4.00000
  Fe   0.1264614   0.4388462  -0.1539214 SPIN=   4.00000
   O  -0.3927395  -0.2481893  -0.3753781 SPIN=   0.00000
   O   0.0687077  -0.2015400  -0.3470693 SPIN=   0.00000
   O  -0.1712193  -0.1562589  -0.0536202 SPIN=   0.00000
   O  -0.1505258   0.1676096  -0.2965622 SPIN=   0.00000
   S  -0.1614442  -0.1095946  -0.2681574 SPIN=   0.00000
   O   0.2481893   0.3927395   0.3753781 SPIN=   0.00000
   O   0.2015400  -0.0687077   0.3470693 SPIN=   0.00000
   O   0.1562589   0.1712193   0.0536202 SPIN=   0.00000
   O  -0.1676096   0.1505258   0.2965622 SPIN=   0.00000
   S   0.1095946   0.1614442   0.2681574 SPIN=   0.00000
   F   0.3959410   0.3208990  -0.2592076 SPIN=   0.00000
   F  -0.3208990  -0.3959410   0.2592076 SPIN=   0.00000
%ENDBLOCK POSITIONS_FRAC

# Note: total spin =   8.00

KPOINTS_MP_SPACING 0.07

%BLOCK SPECIES_POT
QC5
%ENDBLOCK SPECIES_POT

SNAP_TO_SYMMETRY
SYMMETRY_GENERATE

