#              Generated by Buildcell
#
# at 03:52:26 (GMT+1.0) 4th August 2020
# in /lustre/scratch/uccabz1/launch_tmp
# on node-c12e-009
# by uccabz1
#
# compiler GCC version 4.9.2
# options -cpp -iprefix /lustre/shared/ucl/apps/gcc/4.9.2/bin/../lib/gcc/x86_64-unknown-linux-gnu/4.9.2/ -mtune=corei7 -march=x86-64 -g -Og
#
# seed -2017077073  2039135213 -1027382569  1016494133  -209010312  -552638580 -2038010007   591516717 -1087452709  1935995020  2109162784   306935082
#
#      Author: C. J. Pickard (cjp20@cam.ac.uk)
#                Space group: Cc
#

%BLOCK LATTICE_ABC
      4.92780      4.92780      8.74657
     92.69990     92.69990    109.13173
%ENDBLOCK LATTICE_ABC

%BLOCK POSITIONS_FRAC
  Li  -0.4527016   0.4969272  -0.1880785 SPIN=   0.00000
  Li  -0.0030728   0.0472984   0.3119215 SPIN=   0.00000
  Fe  -0.2775067   0.3550220   0.1124856 SPIN=   4.00000
  Fe  -0.1449780   0.2224933  -0.3875144 SPIN=   4.00000
   O   0.5554730  -0.0911205  -0.1674120 SPIN=   0.00000
   O   0.0403070  -0.3624560  -0.1438831 SPIN=   0.00000
   O   0.2192530  -0.2302509  -0.3989525 SPIN=   0.00000
   O   0.1892492   0.1463958  -0.2095289 SPIN=   0.00000
   S   0.2510705  -0.1343579  -0.2299441 SPIN=   0.00000
   O   0.4088795   0.0554730   0.3325880 SPIN=   0.00000
   O   0.1375440  -0.4596930   0.3561169 SPIN=   0.00000
   O   0.2697491  -0.2807470   0.1010475 SPIN=   0.00000
   O   0.6463958  -0.3107508   0.2904711 SPIN=   0.00000
   S   0.3656421  -0.2489295   0.2700559 SPIN=   0.00000
   F  -0.0369733   0.1099418   0.0800674 SPIN=   0.00000
   F  -0.3900582   0.4630267  -0.4199326 SPIN=   0.00000
%ENDBLOCK POSITIONS_FRAC

# Note: total spin =   8.00

KPOINTS_MP_SPACING 0.07

%BLOCK SPECIES_POT
QC5
%ENDBLOCK SPECIES_POT

SNAP_TO_SYMMETRY
SYMMETRY_GENERATE

