#              Generated by Buildcell
#
# at 00:02:00 (GMT+1.0) 19th August 2020
# in /lustre/scratch/uccabz1/launch_tmp
# on node-c12g-028
# by uccabz1
#
# compiler GCC version 4.9.2
# options -cpp -iprefix /lustre/shared/ucl/apps/gcc/4.9.2/bin/../lib/gcc/x86_64-unknown-linux-gnu/4.9.2/ -mtune=corei7 -march=x86-64 -g -Og
#
# seed -1035845882 -1582188020  1377667568 -1533587286     9705228 -1234181200 -1438103520 -2017101100 -1339265120 -1213561258 -2024916972  1210782757
#
#      Author: C. J. Pickard (cjp20@cam.ac.uk)
#                Space group: Cc
#

%BLOCK LATTICE_ABC
      6.00895      6.00895      6.29609
     70.23366     70.23366     89.28149
%ENDBLOCK LATTICE_ABC

%BLOCK POSITIONS_FRAC
  Li   0.4024605   0.1364602   0.4374414 SPIN=   0.00000
  Li   0.1364602   0.4024605  -0.0625586 SPIN=   0.00000
  Fe   0.0658728  -0.2580401  -0.4941427 SPIN=   4.00000
  Fe  -0.2580401   0.0658728   0.0058573 SPIN=   4.00000
   O  -0.4558610   0.4620211   0.4985568 SPIN=   0.00000
   O  -0.2290810   0.2664672   0.2165414 SPIN=   0.00000
   O  -0.0158024   0.5329246   0.3283200 SPIN=   0.00000
   O  -0.2497600   0.7008590   0.0662238 SPIN=   0.00000
   S  -0.2376261   0.4905679   0.2774105 SPIN=   0.00000
   O   0.4620211  -0.4558610  -0.0014432 SPIN=   0.00000
   O   0.2664672  -0.2290810  -0.2834586 SPIN=   0.00000
   O   0.5329246  -0.0158024  -0.1716800 SPIN=   0.00000
   O   0.7008590  -0.2497600  -0.4337762 SPIN=   0.00000
   S   0.4905679  -0.2376261  -0.2225895 SPIN=   0.00000
   F   0.0103107   0.2518934  -0.2498465 SPIN=   0.00000
   F   0.2518934   0.0103107   0.2501535 SPIN=   0.00000
%ENDBLOCK POSITIONS_FRAC

# Note: total spin =   8.00

KPOINTS_MP_SPACING 0.07

%BLOCK SPECIES_POT
QC5
%ENDBLOCK SPECIES_POT

SNAP_TO_SYMMETRY
SYMMETRY_GENERATE

