#              Generated by Buildcell
#
# at 00:59:06 (GMT+1.0) 19th August 2020
# in /scratch/scratch/uccabz1/launch_tmp
# on node-k10f-031
# by uccabz1
#
# compiler GCC version 4.9.2
# options -cpp -iprefix /scratch/UCL/applications/gcc/4.9.2/bin/../lib/gcc/x86_64-unknown-linux-gnu/4.9.2/ -mtune=corei7 -march=x86-64 -g -O2
#
# seed  1010134178 -2093468476  1271091740    54538011 -1333733189  1111371211  1731424641  1038730206  -420421856  1767708175   625602251  -130804520
#
#      Author: C. J. Pickard (cjp20@cam.ac.uk)
#                Space group: P-1
#

%BLOCK LATTICE_ABC
      4.12992      6.74025      7.80675
    112.55920     94.32538     90.12757
%ENDBLOCK LATTICE_ABC

%BLOCK POSITIONS_FRAC
  Li   0.4207621  -0.0011951   0.2606996 SPIN=   0.00000
  Li  -0.4207621   0.0011951  -0.2606996 SPIN=   0.00000
  Fe   0.0894976   0.3043106  -0.3921827 SPIN=   4.00000
  Fe  -0.0894976  -0.3043106   0.3921827 SPIN=   4.00000
   O  -0.0892210  -0.1793782   0.1762200 SPIN=   0.00000
   O  -0.1040276  -0.1446610  -0.1285580 SPIN=   0.00000
   O  -0.6121134  -0.2222071  -0.0133855 SPIN=   0.00000
   O  -0.1999001  -0.5006546  -0.1148466 SPIN=   0.00000
   S  -0.2513155  -0.2617252  -0.0201425 SPIN=   0.00000
   O   0.0892210   0.1793782  -0.1762200 SPIN=   0.00000
   O   0.1040276   0.1446610   0.1285580 SPIN=   0.00000
   O   0.6121134   0.2222071   0.0133855 SPIN=   0.00000
   O   0.1999001   0.5006546   0.1148466 SPIN=   0.00000
   S   0.2513155   0.2617252   0.0201425 SPIN=   0.00000
   F   0.2598995  -0.2194887  -0.4313780 SPIN=   0.00000
   F  -0.2598995   0.2194887   0.4313780 SPIN=   0.00000
%ENDBLOCK POSITIONS_FRAC

# Note: total spin =   8.00

KPOINTS_MP_SPACING 0.07

%BLOCK SPECIES_POT
QC5
%ENDBLOCK SPECIES_POT

SNAP_TO_SYMMETRY
SYMMETRY_GENERATE

