#              Generated by Buildcell
#
# at 20:23:00 (GMT+1.0) 18th August 2020
# in /lustre/scratch/uccabz1/launch_tmp
# on node-c12o-016
# by uccabz1
#
# compiler GCC version 4.9.2
# options -cpp -iprefix /lustre/shared/ucl/apps/gcc/4.9.2/bin/../lib/gcc/x86_64-unknown-linux-gnu/4.9.2/ -mtune=corei7 -march=x86-64 -g -Og
#
# seed  1509756759   820099835 -2106193919   221949715  1887893004  1252837949  1192773117   202503675 -1197973935  1575205562  1445172283   874684192
#
#      Author: C. J. Pickard (cjp20@cam.ac.uk)
#                Space group: P21
#

%BLOCK LATTICE_ABC
      4.22295      6.74293      7.09832
     90.00000     98.31568     90.00000
%ENDBLOCK LATTICE_ABC

%BLOCK POSITIONS_FRAC
  Li   0.1732871  -0.4804202  -0.4730967 SPIN=   0.00000
  Li  -0.1732871   0.0195798   0.4730967 SPIN=   0.00000
  Fe   0.4320249   0.3000041   0.2295144 SPIN=   4.00000
  Fe  -0.4320249  -0.1999959  -0.2295144 SPIN=   4.00000
   O  -0.2290124   0.4494419  -0.3309420 SPIN=   0.00000
   O  -0.5158604   0.1283878  -0.3496906 SPIN=   0.00000
   O  -0.6791785   0.3986319  -0.1482985 SPIN=   0.00000
   O  -0.1658581   0.2235513  -0.0532323 SPIN=   0.00000
   S  -0.3974774   0.3000032  -0.2205409 SPIN=   0.00000
   O   0.2290124  -0.0505581   0.3309420 SPIN=   0.00000
   O   0.5158604  -0.3716122   0.3496906 SPIN=   0.00000
   O   0.6791785  -0.1013681   0.1482985 SPIN=   0.00000
   O   0.1658581  -0.2764487   0.0532323 SPIN=   0.00000
   S   0.3974774  -0.1999968   0.2205409 SPIN=   0.00000
   F   0.0256941  -0.1692664  -0.3288075 SPIN=   0.00000
   F  -0.0256941   0.3307336   0.3288075 SPIN=   0.00000
%ENDBLOCK POSITIONS_FRAC

# Note: total spin =   8.00

KPOINTS_MP_SPACING 0.07

%BLOCK SPECIES_POT
QC5
%ENDBLOCK SPECIES_POT

SNAP_TO_SYMMETRY
SYMMETRY_GENERATE

