#              Generated by Buildcell
#
# at 03:49:15 (GMT+1.0) 4th August 2020
# in /lustre/scratch/uccabz1/launch_tmp
# on node-c12a-007
# by uccabz1
#
# compiler GCC version 4.9.2
# options -cpp -iprefix /lustre/shared/ucl/apps/gcc/4.9.2/bin/../lib/gcc/x86_64-unknown-linux-gnu/4.9.2/ -mtune=corei7 -march=x86-64 -g -Og
#
# seed -1838332319  -840735102    19998009 -1923512598  -221506214  -899097652   121737138  1688843650 -1202994566  -352409358   815203745  -280512391
#
#      Author: C. J. Pickard (cjp20@cam.ac.uk)
#                Space group: P-1
#

%BLOCK LATTICE_ABC
      5.19612      6.53502      6.83002
     96.54937    107.96094    110.57733
%ENDBLOCK LATTICE_ABC

%BLOCK POSITIONS_FRAC
  Li  -0.2272154  -0.0850172  -0.3007854 SPIN=   0.00000
  Li   0.2272154   0.0850172   0.3007854 SPIN=   0.00000
  Fe   0.4473931  -0.4160738   0.2467267 SPIN=   4.00000
  Fe  -0.4473931   0.4160738  -0.2467267 SPIN=   4.00000
   O  -0.2446297  -0.0661858   0.3502284 SPIN=   0.00000
   O  -0.3082369   0.2490370   0.5373685 SPIN=   0.00000
   O  -0.3802003   0.2016843   0.1568787 SPIN=   0.00000
   O   0.1230958   0.3264178   0.4296676 SPIN=   0.00000
   S  -0.2024928   0.1777383   0.3685358 SPIN=   0.00000
   O   0.2446297   0.0661858  -0.3502284 SPIN=   0.00000
   O   0.3082369  -0.2490370  -0.5373685 SPIN=   0.00000
   O   0.3802003  -0.2016843  -0.1568787 SPIN=   0.00000
   O  -0.1230958  -0.3264178  -0.4296676 SPIN=   0.00000
   S   0.2024928  -0.1777383  -0.3685358 SPIN=   0.00000
   F   0.1097041   0.2764777  -0.0363908 SPIN=   0.00000
   F  -0.1097041  -0.2764777   0.0363908 SPIN=   0.00000
%ENDBLOCK POSITIONS_FRAC

# Note: total spin =   8.00

KPOINTS_MP_SPACING 0.07

%BLOCK SPECIES_POT
QC5
%ENDBLOCK SPECIES_POT

SNAP_TO_SYMMETRY
SYMMETRY_GENERATE

