#              Generated by Buildcell
#
# at 21:03:01 (GMT+1.0) 18th August 2020
# in /lustre/scratch/uccabz1/launch_tmp
# on node-c12f-008
# by uccabz1
#
# compiler GCC version 4.9.2
# options -cpp -iprefix /lustre/shared/ucl/apps/gcc/4.9.2/bin/../lib/gcc/x86_64-unknown-linux-gnu/4.9.2/ -mtune=corei7 -march=x86-64 -g -Og
#
# seed  -962571809 -1426417692  1681724967  -324110460  1304982797  1841447134  2124002326   664135697   758786664  1594092639  -727061884  2116660672
#
#      Author: C. J. Pickard (cjp20@cam.ac.uk)
#                Space group: P-1
#

%BLOCK LATTICE_ABC
      5.48919      5.82367      7.13422
     69.05538     71.35127     76.55316
%ENDBLOCK LATTICE_ABC

%BLOCK POSITIONS_FRAC
  Li   0.1841164  -0.1072881   0.2197105 SPIN=   0.00000
  Li  -0.1841164   0.1072881  -0.2197105 SPIN=   0.00000
  Fe   0.0796746  -0.3495152  -0.3343443 SPIN=   4.00000
  Fe  -0.0796746   0.3495152   0.3343443 SPIN=   4.00000
   O  -0.6079062   0.0617713   0.3093292 SPIN=   0.00000
   O  -0.3412185  -0.2480302   0.1365532 SPIN=   0.00000
   O  -0.1888038  -0.1498040   0.3868779 SPIN=   0.00000
   S  -0.3334170  -0.0441486   0.2190163 SPIN=   0.00000
   O   0.6079062  -0.0617713  -0.3093292 SPIN=   0.00000
   O   0.3412185   0.2480302  -0.1365532 SPIN=   0.00000
   O   0.1888038   0.1498040  -0.3868779 SPIN=   0.00000
   S   0.3334170   0.0441486  -0.2190163 SPIN=   0.00000
   O   0.5000000   0.5000000  -0.5000000 SPIN=   0.00000
   O   0.0000000  -0.5000000  -0.0000000 SPIN=   0.00000
   F   0.2493894  -0.4700681   0.2460157 SPIN=   0.00000
   F  -0.2493894   0.4700681  -0.2460157 SPIN=   0.00000
%ENDBLOCK POSITIONS_FRAC

# Note: total spin =   8.00

KPOINTS_MP_SPACING 0.07

%BLOCK SPECIES_POT
QC5
%ENDBLOCK SPECIES_POT

SNAP_TO_SYMMETRY
SYMMETRY_GENERATE

