#              Generated by Buildcell
#
# at 02:12:54 (GMT+1.0) 19th August 2020
# in /lustre/scratch/uccabz1/launch_tmp
# on node-c12f-017
# by uccabz1
#
# compiler GCC version 4.9.2
# options -cpp -iprefix /lustre/shared/ucl/apps/gcc/4.9.2/bin/../lib/gcc/x86_64-unknown-linux-gnu/4.9.2/ -mtune=corei7 -march=x86-64 -g -Og
#
# seed   -44322838 -2012861756   773657728 -1103382428 -1625313731  -358634107 -2099665469   367466271  -474120094  1854506610   305879927   890108539
#
#      Author: C. J. Pickard (cjp20@cam.ac.uk)
#                Space group: Pma2
#

%BLOCK LATTICE_ABC
      3.99906      5.86016      8.53418
     90.00000     90.00000     90.00000
%ENDBLOCK LATTICE_ABC

%BLOCK POSITIONS_FRAC
  Li   0.4193071  -0.4947058   0.2500000 SPIN=   0.00000
  Li   0.4193071   0.4947058  -0.2500000 SPIN=   0.00000
  Fe  -0.0366310   0.0989866   0.2500000 SPIN=   4.00000
  Fe  -0.0366310  -0.0989866  -0.2500000 SPIN=   4.00000
   O   0.5827150  -0.3017406  -0.0402855 SPIN=   0.00000
   O   0.0663709  -0.3777621   0.1108100 SPIN=   0.00000
   O   0.5827150   0.3017406   0.0402855 SPIN=   0.00000
   O   0.0663709   0.3777621  -0.1108100 SPIN=   0.00000
   O   0.5827150   0.3017406  -0.5402855 SPIN=   0.00000
   O   0.0663709   0.3777621  -0.3891900 SPIN=   0.00000
   O   0.5827150  -0.3017406   0.5402855 SPIN=   0.00000
   O   0.0663709  -0.3777621   0.3891900 SPIN=   0.00000
   S  -0.1545933   0.5000000   0.0000000 SPIN=   0.00000
   S  -0.1545933   0.5000000   0.5000000 SPIN=   0.00000
   F   0.4633064  -0.0449976   0.2500000 SPIN=   0.00000
   F   0.4633064   0.0449976  -0.2500000 SPIN=   0.00000
%ENDBLOCK POSITIONS_FRAC

# Note: total spin =   8.00

KPOINTS_MP_SPACING 0.07

%BLOCK SPECIES_POT
QC5
%ENDBLOCK SPECIES_POT

SNAP_TO_SYMMETRY
SYMMETRY_GENERATE

