#              Generated by Buildcell
#
# at 20:19:29 (GMT+1.0) 18th August 2020
# in /scratch/scratch/uccabz1/launch_tmp
# on node-k10d-027
# by uccabz1
#
# compiler GCC version 4.9.2
# options -cpp -iprefix /scratch/UCL/applications/gcc/4.9.2/bin/../lib/gcc/x86_64-unknown-linux-gnu/4.9.2/ -mtune=corei7 -march=x86-64 -g -O2
#
# seed  -206828601  -934380000  -110127354  1694413901  1422650545 -1892874668  1549239061   349677022  2065510199  2086328732  1582130443   -42371698
#
#      Author: C. J. Pickard (cjp20@cam.ac.uk)
#                Space group: Pc
#

%BLOCK LATTICE_ABC
      4.38875      6.50067      7.03567
     90.00000     94.87493     90.00000
%ENDBLOCK LATTICE_ABC

%BLOCK POSITIONS_FRAC
  Li  -0.1718229  -0.2270776   0.2656890 SPIN=   0.00000
  Li   0.3281771   0.2270776   0.2656890 SPIN=   0.00000
  Fe   0.2878948  -0.2686219  -0.0240991 SPIN=   4.00000
  Fe  -0.2121052   0.2686219  -0.0240991 SPIN=   4.00000
   O  -0.2488403   0.3205176  -0.6920543 SPIN=   0.00000
   O  -0.1841547   0.0263817  -0.4689419 SPIN=   0.00000
   O  -0.3165360   0.3702746  -0.3494466 SPIN=   0.00000
   O   0.1994403   0.3062460  -0.4539706 SPIN=   0.00000
   S  -0.1375227   0.2558550  -0.4911034 SPIN=   0.00000
   O   0.2511597  -0.3205176  -0.6920543 SPIN=   0.00000
   O   0.3158453  -0.0263817  -0.4689419 SPIN=   0.00000
   O   0.1834640  -0.3702746  -0.3494466 SPIN=   0.00000
   O   0.6994403  -0.3062460  -0.4539706 SPIN=   0.00000
   S   0.3624773  -0.2558550  -0.4911034 SPIN=   0.00000
   F  -0.1929112  -0.2499979  -0.0008914 SPIN=   0.00000
   F   0.3070888   0.2499979  -0.0008914 SPIN=   0.00000
%ENDBLOCK POSITIONS_FRAC

# Note: total spin =   8.00

KPOINTS_MP_SPACING 0.07

%BLOCK SPECIES_POT
QC5
%ENDBLOCK SPECIES_POT

SNAP_TO_SYMMETRY
SYMMETRY_GENERATE

