#              Generated by Buildcell
#
# at 03:56:42 (GMT+1.0) 4th August 2020
# in /lustre/scratch/uccabz1/launch_tmp
# on node-c12f-003
# by uccabz1
#
# compiler GCC version 4.9.2
# options -cpp -iprefix /lustre/shared/ucl/apps/gcc/4.9.2/bin/../lib/gcc/x86_64-unknown-linux-gnu/4.9.2/ -mtune=corei7 -march=x86-64 -g -Og
#
# seed -1891937444  -981372206  1812543058   311046799  -246469414 -1885534614 -1549460715 -1157715823  -652842425   678707306  -498750251 -2079694889
#
#      Author: C. J. Pickard (cjp20@cam.ac.uk)
#                Space group: P2/c
#

%BLOCK LATTICE_ABC
      5.47774      5.55677      6.61452
     96.60546     90.00000     90.00000
%ENDBLOCK LATTICE_ABC

%BLOCK POSITIONS_FRAC
  Li  -0.0457206  -0.2500000  -0.2500000 SPIN=   0.00000
  Li   0.0457206   0.2500000   0.2500000 SPIN=   0.00000
  Fe  -0.5000000   0.0000000  -0.5000000 SPIN=   4.00000
  Fe   0.5000000  -0.5000000  -0.0000000 SPIN=   4.00000
   O   0.2063719   0.2692700   0.5767019 SPIN=   0.00000
   O   0.2014008   0.6202572   0.3778430 SPIN=   0.00000
   O   0.2063719   0.2307300  -0.0767019 SPIN=   0.00000
   O   0.2014008  -0.1202572   0.1221570 SPIN=   0.00000
   O  -0.2063719  -0.2692700  -0.5767019 SPIN=   0.00000
   O  -0.2014008  -0.6202572  -0.3778430 SPIN=   0.00000
   O  -0.2063719  -0.2307300   0.0767019 SPIN=   0.00000
   O  -0.2014008   0.1202572  -0.1221570 SPIN=   0.00000
   S  -0.0128219   0.2500000  -0.2500000 SPIN=   0.00000
   S   0.0128219  -0.2500000   0.2500000 SPIN=   0.00000
   F   0.4541028  -0.2500000  -0.2500000 SPIN=   0.00000
   F  -0.4541028   0.2500000   0.2500000 SPIN=   0.00000
%ENDBLOCK POSITIONS_FRAC

# Note: total spin =   8.00

KPOINTS_MP_SPACING 0.07

%BLOCK SPECIES_POT
QC5
%ENDBLOCK SPECIES_POT

SNAP_TO_SYMMETRY
SYMMETRY_GENERATE

