#              Generated by Buildcell
#
# at 04:21:24 (GMT+1.0) 4th August 2020
# in /lustre/scratch/uccabz1/launch_tmp
# on node-c12d-002
# by uccabz1
#
# compiler GCC version 4.9.2
# options -cpp -iprefix /lustre/shared/ucl/apps/gcc/4.9.2/bin/../lib/gcc/x86_64-unknown-linux-gnu/4.9.2/ -mtune=corei7 -march=x86-64 -g -Og
#
# seed  1825489390  -231757584  1247720858  -856316162  1634779720   -19111465 -2071271936  -846015508  -954428634  1854771683   304680233  1548286758
#
#      Author: C. J. Pickard (cjp20@cam.ac.uk)
#                Space group: C2/m
#

%BLOCK LATTICE_ABC
      5.61331      5.61331      6.44991
     82.80524     82.80524     87.91657
%ENDBLOCK LATTICE_ABC

%BLOCK POSITIONS_FRAC
  Li   0.3960310   0.3960310   0.2672334 SPIN=   0.00000
  Li  -0.3960310  -0.3960310  -0.2672334 SPIN=   0.00000
  Fe   0.2184468   0.2184468  -0.2176608 SPIN=   4.00000
  Fe  -0.2184468  -0.2184468   0.2176608 SPIN=   4.00000
   O   0.0482174  -0.3234036   0.3961233 SPIN=   0.00000
   O  -0.1869877  -0.5850941   0.2200564 SPIN=   0.00000
   O   0.3234036  -0.0482174  -0.3961233 SPIN=   0.00000
   O   0.5850941   0.1869877  -0.2200564 SPIN=   0.00000
   O  -0.0482174   0.3234036  -0.3961233 SPIN=   0.00000
   O   0.1869877   0.5850941  -0.2200564 SPIN=   0.00000
   O  -0.3234036   0.0482174   0.3961233 SPIN=   0.00000
   O  -0.5850941  -0.1869877   0.2200564 SPIN=   0.00000
   S  -0.2479545   0.2479545  -0.5000000 SPIN=   0.00000
   S   0.2479545  -0.2479545  -0.5000000 SPIN=   0.00000
   F  -0.2220054  -0.2220054  -0.0847151 SPIN=   0.00000
   F   0.2220054   0.2220054   0.0847151 SPIN=   0.00000
%ENDBLOCK POSITIONS_FRAC

# Note: total spin =   8.00

KPOINTS_MP_SPACING 0.07

%BLOCK SPECIES_POT
QC5
%ENDBLOCK SPECIES_POT

SNAP_TO_SYMMETRY
SYMMETRY_GENERATE

