#              Generated by Buildcell
#
# at 05:43:02 (GMT+1.0) 4th August 2020
# in /lustre/scratch/uccabz1/launch_tmp
# on node-c12p-027
# by uccabz1
#
# compiler GCC version 4.9.2
# options -cpp -iprefix /lustre/shared/ucl/apps/gcc/4.9.2/bin/../lib/gcc/x86_64-unknown-linux-gnu/4.9.2/ -mtune=corei7 -march=x86-64 -g -Og
#
# seed   -18527017  1587501350 -1372577505  2060597595  1559602848 -1248136674  1048171054 -1425016372   645586490  1315575771  1039404573  -304803776
#
#      Author: C. J. Pickard (cjp20@cam.ac.uk)
#                Space group: Ima2
#

%BLOCK LATTICE_ABC
      6.48466      6.48466      6.48466
     95.34295    114.02921    119.97888
%ENDBLOCK LATTICE_ABC

%BLOCK POSITIONS_FRAC
  Li   0.3158049   0.4227703   0.3930346 SPIN=   0.00000
  Li  -0.0297357  -0.4227703  -0.1069654 SPIN=   0.00000
  Fe  -0.4924215  -0.5000000   0.0075785 SPIN=   4.00000
  Fe  -0.4924215  -0.0000000  -0.4924215 SPIN=   4.00000
   O   0.0546926  -0.3801255  -0.7098787 SPIN=   0.00000
   O   0.2426252  -0.2662210  -0.2672898 SPIN=   0.00000
   O  -0.3297532   0.3801255   0.4348182 SPIN=   0.00000
   O  -0.0010688   0.2662210   0.5088462 SPIN=   0.00000
   O  -0.3297532  -0.2645713  -0.2098787 SPIN=   0.00000
   O  -0.0010688  -0.0099150   0.2327102 SPIN=   0.00000
   O   0.0546926   0.2645713  -0.0651818 SPIN=   0.00000
   O   0.2426252   0.0099150   0.0088462 SPIN=   0.00000
   S  -0.0315675   0.0000000  -0.0315675 SPIN=   0.00000
   S   0.9684325   0.5000000   0.4684325 SPIN=   0.00000
   F  -0.4437655  -0.2653633   0.3215979 SPIN=   0.00000
   F   0.5869612   0.2653633  -0.1784021 SPIN=   0.00000
%ENDBLOCK POSITIONS_FRAC

# Note: total spin =   8.00

KPOINTS_MP_SPACING 0.07

%BLOCK SPECIES_POT
QC5
%ENDBLOCK SPECIES_POT

SNAP_TO_SYMMETRY
SYMMETRY_GENERATE

