#              Generated by Buildcell
#
# at 02:01:27 (GMT+1.0) 4th August 2020
# in /lustre/scratch/uccabz1/launch_tmp
# on node-c12f-007
# by uccabz1
#
# compiler GCC version 4.9.2
# options -cpp -iprefix /lustre/shared/ucl/apps/gcc/4.9.2/bin/../lib/gcc/x86_64-unknown-linux-gnu/4.9.2/ -mtune=corei7 -march=x86-64 -g -Og
#
# seed  1490613997 -1433159923  1592637261 -1177011541   920498341 -1073458337  -182902865   929403546 -1718058741  -973269998  -310412268   312835710
#
#      Author: C. J. Pickard (cjp20@cam.ac.uk)
#                Space group: C2
#

%BLOCK LATTICE_ABC
      4.31366      7.29294      7.32983
    119.83365     90.88107     90.00000
%ENDBLOCK LATTICE_ABC

%BLOCK POSITIONS_FRAC
  Li  -0.2629975  -0.2401740  -0.4691707 SPIN=   0.00000
  Li   0.2629975   0.2289967   0.4691707 SPIN=   0.00000
  Fe  -0.2436621   0.2945933   0.2189697 SPIN=   4.00000
  Fe   0.2436621   0.0756236  -0.2189697 SPIN=   4.00000
   O   0.4490764  -0.0666817  -0.6848162 SPIN=   0.00000
   O  -0.0842536  -0.1857822  -0.6743310 SPIN=   0.00000
   O   0.3656086  -0.3692185  -0.6264362 SPIN=   0.00000
   O   0.2507601  -0.4074574  -0.9756240 SPIN=   0.00000
   S   0.2452979  -0.2572849  -0.7403019 SPIN=   0.00000
   O  -0.4490764   0.6181346   0.6848162 SPIN=   0.00000
   O   0.0842536   0.4885488   0.6743310 SPIN=   0.00000
   O  -0.3656086   0.2572177   0.6264362 SPIN=   0.00000
   O  -0.2507601   0.5681667   0.9756240 SPIN=   0.00000
   S  -0.2452979   0.4830169   0.7403019 SPIN=   0.00000
   F   0.2559054   0.2220173   0.2182311 SPIN=   0.00000
   F  -0.2559054   0.0037863  -0.2182311 SPIN=   0.00000
%ENDBLOCK POSITIONS_FRAC

# Note: total spin =   8.00

KPOINTS_MP_SPACING 0.07

%BLOCK SPECIES_POT
QC5
%ENDBLOCK SPECIES_POT

SNAP_TO_SYMMETRY
SYMMETRY_GENERATE

