#              Generated by Buildcell
#
# at 02:10:51 (GMT+1.0) 4th August 2020
# in /lustre/scratch/uccabz1/launch_tmp
# on node-c12g-029
# by uccabz1
#
# compiler GCC version 4.9.2
# options -cpp -iprefix /lustre/shared/ucl/apps/gcc/4.9.2/bin/../lib/gcc/x86_64-unknown-linux-gnu/4.9.2/ -mtune=corei7 -march=x86-64 -g -Og
#
# seed -1115880843  1532689815   -24835912 -2020837289   694288836  -314425702 -1935337826 -1921038429  1467848845  1118103725  -701344315   -87521479
#
#      Author: C. J. Pickard (cjp20@cam.ac.uk)
#                Space group: Pc
#

%BLOCK LATTICE_ABC
      5.24498      5.68944      6.93746
    104.96441     90.00000     90.00000
%ENDBLOCK LATTICE_ABC

%BLOCK POSITIONS_FRAC
  Li  -0.0228559   0.4345903  -0.1483542 SPIN=   0.00000
  Li   0.0228559  -0.0654097   0.3516458 SPIN=   0.00000
  Fe   0.1130653   0.4635629   0.4436369 SPIN=   4.00000
  Fe  -0.1130653  -0.0364371  -0.0563631 SPIN=   4.00000
   O  -0.6466762  -0.3971190   0.0760895 SPIN=   0.00000
   O  -0.3734790  -0.0400762   0.2193736 SPIN=   0.00000
   O  -0.1982044  -0.4560528   0.1642127 SPIN=   0.00000
   O  -0.5166482  -0.3049759   0.4306695 SPIN=   0.00000
   S  -0.4337520  -0.2995560   0.2225863 SPIN=   0.00000
   O   0.6466762   0.1028810  -0.4239105 SPIN=   0.00000
   O   0.3734790   0.4599238  -0.2806264 SPIN=   0.00000
   O   0.1982044   0.0439472  -0.3357873 SPIN=   0.00000
   O   0.5166482   0.1950241  -0.0693305 SPIN=   0.00000
   S   0.4337520   0.2004440  -0.2774137 SPIN=   0.00000
   F   0.1132955   0.1926003   0.1976347 SPIN=   0.00000
   F  -0.1132955  -0.3073997  -0.3023653 SPIN=   0.00000
%ENDBLOCK POSITIONS_FRAC

# Note: total spin =   8.00

KPOINTS_MP_SPACING 0.07

%BLOCK SPECIES_POT
QC5
%ENDBLOCK SPECIES_POT

SNAP_TO_SYMMETRY
SYMMETRY_GENERATE

