#              Generated by Buildcell
#
# at 02:10:07 (GMT+1.0) 4th August 2020
# in /lustre/scratch/uccabz1/launch_tmp
# on node-c12f-011
# by uccabz1
#
# compiler GCC version 4.9.2
# options -cpp -iprefix /lustre/shared/ucl/apps/gcc/4.9.2/bin/../lib/gcc/x86_64-unknown-linux-gnu/4.9.2/ -mtune=corei7 -march=x86-64 -g -Og
#
# seed  1838872031   762446221  1918707087  1458889615 -1338169946  1049517969  1599042846  1186996223   655209101    11309717  -503587632 -1633117198
#
#      Author: C. J. Pickard (cjp20@cam.ac.uk)
#                Space group: Pc
#

%BLOCK LATTICE_ABC
      4.32141      6.56578      7.25707
    103.75825     90.00000     90.00000
%ENDBLOCK LATTICE_ABC

%BLOCK POSITIONS_FRAC
  Li  -0.0533799  -0.3753094  -0.3207644 SPIN=   0.00000
  Li   0.0533799   0.1246906   0.1792356 SPIN=   0.00000
  Fe  -0.3626683   0.4006810   0.0377029 SPIN=   4.00000
  Fe   0.3626683  -0.0993190  -0.4622971 SPIN=   4.00000
   O   0.7732583   0.3421199   0.4149235 SPIN=   0.00000
   O   0.2542438   0.1896637   0.4353466 SPIN=   0.00000
   O   0.3043928   0.5552045   0.4034582 SPIN=   0.00000
   O   0.4545887   0.4648073   0.7033679 SPIN=   0.00000
   S   0.4466209   0.3879489   0.4892741 SPIN=   0.00000
   O  -0.7732583  -0.1578801  -0.0850765 SPIN=   0.00000
   O  -0.2542438  -0.3103363  -0.0646534 SPIN=   0.00000
   O  -0.3043928   0.0552045  -0.0965418 SPIN=   0.00000
   O  -0.4545887  -0.0351927   0.2033679 SPIN=   0.00000
   S  -0.4466209  -0.1120511  -0.0107259 SPIN=   0.00000
   F  -0.1466704  -0.0996873  -0.4812725 SPIN=   0.00000
   F   0.1466704   0.4003127   0.0187275 SPIN=   0.00000
%ENDBLOCK POSITIONS_FRAC

# Note: total spin =   8.00

KPOINTS_MP_SPACING 0.07

%BLOCK SPECIES_POT
QC5
%ENDBLOCK SPECIES_POT

SNAP_TO_SYMMETRY
SYMMETRY_GENERATE

