#              Generated by Buildcell
#
# at 05:34:01 (GMT+1.0) 4th August 2020
# in /lustre/scratch/uccabz1/launch_tmp
# on node-c12c-017
# by uccabz1
#
# compiler GCC version 4.9.2
# options -cpp -iprefix /lustre/shared/ucl/apps/gcc/4.9.2/bin/../lib/gcc/x86_64-unknown-linux-gnu/4.9.2/ -mtune=corei7 -march=x86-64 -g -Og
#
# seed  -485506462 -1963584938  -367757003   771431169   413606087 -1880932478    -2900134 -1397238124   569366714  -427580543  1449119653 -1131779716
#
#      Author: C. J. Pickard (cjp20@cam.ac.uk)
#                Space group: Cc
#

%BLOCK LATTICE_ABC
      4.18174      7.30717      7.30717
    110.63793     99.48461     99.48461
%ENDBLOCK LATTICE_ABC

%BLOCK POSITIONS_FRAC
  Li   0.3018820  -0.1337002   0.3622426 SPIN=   0.00000
  Li  -0.1981180   0.3622426  -0.1337002 SPIN=   0.00000
  Fe   0.3650626  -0.3115728  -0.0634819 SPIN=   4.00000
  Fe  -0.1349374  -0.0634819  -0.3115728 SPIN=   4.00000
   O   0.0010865  -0.3477757   0.4758945 SPIN=   0.00000
   O  -0.0942757  -0.3924799   0.1177511 SPIN=   0.00000
   O  -0.5745053  -0.4221213   0.2720054 SPIN=   0.00000
   O  -0.2556797  -0.6857758   0.2068827 SPIN=   0.00000
   S  -0.2308436  -0.4620382   0.2681334 SPIN=   0.00000
   O   0.5010865   0.4758945  -0.3477757 SPIN=   0.00000
   O   0.4057243   0.1177511  -0.3924799 SPIN=   0.00000
   O  -0.0745053   0.2720054  -0.4221213 SPIN=   0.00000
   O   0.2443203   0.2068827  -0.6857758 SPIN=   0.00000
   S   0.2691564   0.2681334  -0.4620382 SPIN=   0.00000
   F  -0.4303620  -0.0597857   0.1746543 SPIN=   0.00000
   F   0.0696380   0.1746543  -0.0597857 SPIN=   0.00000
%ENDBLOCK POSITIONS_FRAC

# Note: total spin =   8.00

KPOINTS_MP_SPACING 0.07

%BLOCK SPECIES_POT
QC5
%ENDBLOCK SPECIES_POT

SNAP_TO_SYMMETRY
SYMMETRY_GENERATE

