#              Generated by Buildcell
#
# at 05:20:09 (GMT+1.0) 4th August 2020
# in /lustre/scratch/uccabz1/launch_tmp
# on node-c12f-026
# by uccabz1
#
# compiler GCC version 4.9.2
# options -cpp -iprefix /lustre/shared/ucl/apps/gcc/4.9.2/bin/../lib/gcc/x86_64-unknown-linux-gnu/4.9.2/ -mtune=corei7 -march=x86-64 -g -Og
#
# seed  -504303856 -1579332795  -152072958    89554659 -1974472020   475221619  -313631850 -2097809645 -1734697599  -152229176 -1526172555  1110692829
#
#      Author: C. J. Pickard (cjp20@cam.ac.uk)
#                Space group: P-1
#

%BLOCK LATTICE_ABC
      4.41847      5.00032      9.25624
     90.33386    102.03595     90.36997
%ENDBLOCK LATTICE_ABC

%BLOCK POSITIONS_FRAC
  Li   0.5842525   0.4426189   0.2121232 SPIN=   0.00000
  Li  -0.5842525  -0.4426189  -0.2121232 SPIN=   0.00000
  Fe   0.0000000  -0.5000000   0.5000000 SPIN=   3.65128
  Fe   0.0000000   0.5000000  -0.0000000 SPIN=   4.34872
   O   0.0800967   0.1303638   0.4005803 SPIN=   0.00000
   O   0.1184308  -0.2789952   0.2540940 SPIN=   0.00000
   O   0.1320193   0.1663848   0.1402876 SPIN=   0.00000
   O  -0.3553757  -0.0046844   0.1984831 SPIN=   0.00000
   S  -0.0062072   0.0032673   0.2483613 SPIN=   0.00000
   O  -0.0800967  -0.1303638  -0.4005803 SPIN=   0.00000
   O  -0.1184308   0.2789952  -0.2540940 SPIN=   0.00000
   O  -0.1320193  -0.1663848  -0.1402876 SPIN=   0.00000
   O   0.3553757   0.0046844  -0.1984831 SPIN=   0.00000
   S   0.0062072  -0.0032673  -0.2483613 SPIN=   0.00000
   F  -0.5000000  -0.5000000   0.0000000 SPIN=   0.00000
   F  -0.5000000  -0.5000000  -0.5000000 SPIN=   0.00000
%ENDBLOCK POSITIONS_FRAC

# Note: total spin =   8.00

KPOINTS_MP_SPACING 0.07

%BLOCK SPECIES_POT
QC5
%ENDBLOCK SPECIES_POT

SNAP_TO_SYMMETRY
SYMMETRY_GENERATE

