#              Generated by Buildcell
#
# at 02:21:55 (GMT+1.0) 19th August 2020
# in /lustre/scratch/uccabz1/launch_tmp
# on node-c12b-013
# by uccabz1
#
# compiler GCC version 4.9.2
# options -cpp -iprefix /lustre/shared/ucl/apps/gcc/4.9.2/bin/../lib/gcc/x86_64-unknown-linux-gnu/4.9.2/ -mtune=corei7 -march=x86-64 -g -Og
#
# seed  -639345244  1198617876   903953993  -696496002   881370376  -275264401 -1153052087 -1776849894   182533600  1621995664   554264254 -2128093748
#
#      Author: C. J. Pickard (cjp20@cam.ac.uk)
#                Space group: Pc
#

%BLOCK LATTICE_ABC
      5.36655      5.91148      6.30657
     91.52577     90.00000     90.00000
%ENDBLOCK LATTICE_ABC

%BLOCK POSITIONS_FRAC
  Li   0.2914817   0.0680805  -0.2639746 SPIN=   0.00000
  Li  -0.2914817  -0.4319195  -0.2639746 SPIN=   0.00000
  Fe  -0.2352704  -0.3521689   0.2809478 SPIN=   4.00000
  Fe   0.2352704   0.1478311   0.2809478 SPIN=   4.00000
   O  -0.1469637  -0.0570542   0.1187228 SPIN=   0.00000
   O  -0.0487359   0.2336820  -0.1438306 SPIN=   0.00000
   O  -0.4689330   0.2194519   0.0169639 SPIN=   0.00000
   O  -0.3353349  -0.0807957  -0.2393760 SPIN=   0.00000
   S  -0.2499919   0.0788210  -0.0618800 SPIN=   0.00000
   O   0.1469637  -0.5570542   0.1187228 SPIN=   0.00000
   O   0.0487359  -0.2663180  -0.1438306 SPIN=   0.00000
   O   0.4689330  -0.2805481   0.0169639 SPIN=   0.00000
   O   0.3353349  -0.5807957  -0.2393760 SPIN=   0.00000
   S   0.2499919  -0.4211790  -0.0618800 SPIN=   0.00000
   F  -0.2653728   0.3596999   0.4451964 SPIN=   0.00000
   F   0.2653728  -0.1403001   0.4451964 SPIN=   0.00000
%ENDBLOCK POSITIONS_FRAC

# Note: total spin =   8.00

KPOINTS_MP_SPACING 0.07

%BLOCK SPECIES_POT
QC5
%ENDBLOCK SPECIES_POT

SNAP_TO_SYMMETRY
SYMMETRY_GENERATE

