#              Generated by Buildcell
#
# at 02:08:51 (GMT+1.0) 4th August 2020
# in /lustre/scratch/uccabz1/launch_tmp
# on node-c12k-001
# by uccabz1
#
# compiler GCC version 4.9.2
# options -cpp -iprefix /lustre/shared/ucl/apps/gcc/4.9.2/bin/../lib/gcc/x86_64-unknown-linux-gnu/4.9.2/ -mtune=corei7 -march=x86-64 -g -Og
#
# seed  2050520902 -1978775070  1164807193   807558714  1000877664  1253485985  1306486772   176971511   764161945    89506335   134529147   563526210
#
#      Author: C. J. Pickard (cjp20@cam.ac.uk)
#                Space group: C2
#

%BLOCK LATTICE_ABC
      5.39130      5.39130      6.88317
     88.96200     88.96200     89.77020
%ENDBLOCK LATTICE_ABC

%BLOCK POSITIONS_FRAC
  Li   0.1210105  -0.1210105  -0.5000000 SPIN=   0.00000
  Li  -0.4008926   0.4008926  -0.5000000 SPIN=   0.00000
  Fe  -0.3275719  -0.1923141   0.0906115 SPIN=   4.00000
  Fe   0.1923141   0.3275719  -0.0906115 SPIN=   4.00000
   O   0.1808880   0.6323795   0.3100944 SPIN=   0.00000
   O   0.2906199   0.1867384   0.3326986 SPIN=   0.00000
   O  -0.1497545   0.3150992   0.3148938 SPIN=   0.00000
   O   0.0872237   0.3923471   0.6122552 SPIN=   0.00000
   S   0.1022443   0.3816410   0.3924855 SPIN=   0.00000
   O  -0.6323795  -0.1808880  -0.3100944 SPIN=   0.00000
   O  -0.1867384  -0.2906199  -0.3326986 SPIN=   0.00000
   O  -0.3150992   0.1497545  -0.3148938 SPIN=   0.00000
   O  -0.3923471  -0.0872237  -0.6122552 SPIN=   0.00000
   S  -0.3816410  -0.1022443  -0.3924855 SPIN=   0.00000
   F  -0.4571618   0.4571618  -0.0000000 SPIN=   0.00000
   F   0.0426057  -0.0426057   0.0000000 SPIN=   0.00000
%ENDBLOCK POSITIONS_FRAC

# Note: total spin =   8.00

KPOINTS_MP_SPACING 0.07

%BLOCK SPECIES_POT
QC5
%ENDBLOCK SPECIES_POT

SNAP_TO_SYMMETRY
SYMMETRY_GENERATE

