#              Generated by Buildcell
#
# at 22:06:33 (GMT+1.0) 18th August 2020
# in /scratch/scratch/uccabz1/launch_tmp
# on node-k10f-031
# by uccabz1
#
# compiler GCC version 4.9.2
# options -cpp -iprefix /scratch/UCL/applications/gcc/4.9.2/bin/../lib/gcc/x86_64-unknown-linux-gnu/4.9.2/ -mtune=corei7 -march=x86-64 -g -O2
#
# seed  -857401943  1503425756  1880939701  1663256661  2006902510  1151555972  1229762506 -1407460051  -472610218  1027595721 -1309861540  1770478943
#
#      Author: C. J. Pickard (cjp20@cam.ac.uk)
#                Space group: C2
#

%BLOCK LATTICE_ABC
      4.68165      4.68165      9.28136
     96.99725     96.99725     92.75426
%ENDBLOCK LATTICE_ABC

%BLOCK POSITIONS_FRAC
  Li   0.1347382  -0.1347382  -0.0000000 SPIN=   0.00000
  Li  -0.3173977  -0.6826023  -0.5000000 SPIN=   0.00000
  Fe   0.4268681   0.4416882   0.1887595 SPIN=   4.00000
  Fe  -0.4416882  -0.4268681  -0.1887595 SPIN=   4.00000
   O   0.3183519   0.1422315  -0.3141259 SPIN=   0.00000
   O  -0.0570578  -0.2532396  -0.3250881 SPIN=   0.00000
   O  -0.1894445   0.2542399  -0.2996761 SPIN=   0.00000
   S   0.0413650   0.0523249  -0.2579101 SPIN=   0.00000
   O  -0.1422315  -0.3183519   0.3141259 SPIN=   0.00000
   O   0.2532396   0.0570578   0.3250881 SPIN=   0.00000
   O  -0.2542399   0.1894445   0.2996761 SPIN=   0.00000
   S  -0.0523249  -0.0413650   0.2579101 SPIN=   0.00000
   O  -0.1531602   0.1531602   0.0000000 SPIN=   0.00000
   O  -0.0307911  -0.9692089  -0.5000000 SPIN=   0.00000
   F   0.4288883  -0.4288883   0.0000000 SPIN=   0.00000
   F  -0.6091868  -0.3908132  -0.5000000 SPIN=   0.00000
%ENDBLOCK POSITIONS_FRAC

# Note: total spin =   8.00

KPOINTS_MP_SPACING 0.07

%BLOCK SPECIES_POT
QC5
%ENDBLOCK SPECIES_POT

SNAP_TO_SYMMETRY
SYMMETRY_GENERATE

