#              Generated by Buildcell
#
# at 00:58:31 (GMT+1.0) 19th August 2020
# in /lustre/scratch/uccabz1/launch_tmp
# on node-c12l-006
# by uccabz1
#
# compiler GCC version 4.9.2
# options -cpp -iprefix /lustre/shared/ucl/apps/gcc/4.9.2/bin/../lib/gcc/x86_64-unknown-linux-gnu/4.9.2/ -mtune=corei7 -march=x86-64 -g -Og
#
# seed -1454726702   427215023  -929953013   145563683 -2094092334 -1679514850  -638194523  1665521401 -1574261724 -1346855420  -860879181 -1142225072
#
#      Author: C. J. Pickard (cjp20@cam.ac.uk)
#                Space group: P2/c
#

%BLOCK LATTICE_ABC
      4.19100      6.23048      7.86795
    103.22335     90.00000     90.00000
%ENDBLOCK LATTICE_ABC

%BLOCK POSITIONS_FRAC
  Li   0.0000000  -0.0000000   0.0000000 SPIN=   0.00000
  Li  -0.0000000  -0.0000000   0.5000000 SPIN=   0.00000
  Fe  -0.2386588   0.5000000   0.2500000 SPIN=   4.00000
  Fe   0.2386588   0.5000000  -0.2500000 SPIN=   4.00000
   O   0.6440495   0.2551371  -0.0079450 SPIN=   0.00000
   O   0.1360811   0.1822516  -0.1713912 SPIN=   0.00000
   O   0.6440495  -0.2551371  -0.4920550 SPIN=   0.00000
   O   0.1360811  -0.1822516  -0.3286088 SPIN=   0.00000
   O  -0.6440495  -0.2551371   0.0079450 SPIN=   0.00000
   O  -0.1360811  -0.1822516   0.1713912 SPIN=   0.00000
   O  -0.6440495   0.2551371   0.4920550 SPIN=   0.00000
   O  -0.1360811   0.1822516   0.3286088 SPIN=   0.00000
   S   0.4448139  -0.0000000  -0.2500000 SPIN=   0.00000
   S  -0.4448139  -0.0000000   0.2500000 SPIN=   0.00000
   F   0.2241656   0.5000000   0.2500000 SPIN=   0.00000
   F  -0.2241656   0.5000000  -0.2500000 SPIN=   0.00000
%ENDBLOCK POSITIONS_FRAC

# Note: total spin =   8.00

KPOINTS_MP_SPACING 0.07

%BLOCK SPECIES_POT
QC5
%ENDBLOCK SPECIES_POT

SNAP_TO_SYMMETRY
SYMMETRY_GENERATE

