#              Generated by Buildcell
#
# at 03:04:55 (GMT+1.0) 19th August 2020
# in /lustre/scratch/uccabz1/launch_tmp
# on node-c12k-012
# by uccabz1
#
# compiler GCC version 4.9.2
# options -cpp -iprefix /lustre/shared/ucl/apps/gcc/4.9.2/bin/../lib/gcc/x86_64-unknown-linux-gnu/4.9.2/ -mtune=corei7 -march=x86-64 -g -Og
#
# seed  2105466791   920766875   821612510  1291763023  1327055536  -667938957 -1790732748  -666984890 -2096924734  1116485203   998182558  -656584173
#
#      Author: C. J. Pickard (cjp20@cam.ac.uk)
#                Space group: C2
#

%BLOCK LATTICE_ABC
      4.39251      7.11612      7.11612
    108.03262    101.02065    101.02065
%ENDBLOCK LATTICE_ABC

%BLOCK POSITIONS_FRAC
  Li   0.3537911   0.3427165   0.1824038 SPIN=   0.00000
  Li  -0.3537911  -0.1824038  -0.3427165 SPIN=   0.00000
  Fe  -0.0000000  -0.4509413   0.4509413 SPIN=   4.21507
  Fe  -0.0000000  -0.0804582   0.0804582 SPIN=   3.78493
   O  -0.6735945  -0.7145643  -0.1399237 SPIN=   0.00000
   O  -0.9225053  -0.4248551  -0.0736569 SPIN=   0.00000
   O  -0.5648517  -0.4588732  -0.3050263 SPIN=   0.00000
   O  -0.3368504  -0.3618232   0.0684529 SPIN=   0.00000
   S  -0.6244505  -0.4900290  -0.1125385 SPIN=   0.00000
   O   0.6735945   0.1399237   0.7145643 SPIN=   0.00000
   O   0.9225053   0.0736569   0.4248551 SPIN=   0.00000
   O   0.5648517   0.3050263   0.4588732 SPIN=   0.00000
   O   0.3368504  -0.0684529   0.3618232 SPIN=   0.00000
   S   0.6244505   0.1125385   0.4900290 SPIN=   0.00000
   F   0.9147405   0.3355622   0.1710903 SPIN=   0.00000
   F  -0.9147405  -0.1710903  -0.3355622 SPIN=   0.00000
%ENDBLOCK POSITIONS_FRAC

# Note: total spin =   8.00

KPOINTS_MP_SPACING 0.07

%BLOCK SPECIES_POT
QC5
%ENDBLOCK SPECIES_POT

SNAP_TO_SYMMETRY
SYMMETRY_GENERATE

