#              Generated by Buildcell
#
# at 03:14:52 (GMT+1.0) 4th August 2020
# in /lustre/scratch/uccabz1/launch_tmp
# on node-c12j-010
# by uccabz1
#
# compiler GCC version 4.9.2
# options -cpp -iprefix /lustre/shared/ucl/apps/gcc/4.9.2/bin/../lib/gcc/x86_64-unknown-linux-gnu/4.9.2/ -mtune=corei7 -march=x86-64 -g -Og
#
# seed   214580691   870404195 -1195752564 -1021121244   775187089  1985652725   484670096  1922017273 -1197689845  -864715480  1453177282   888529003
#
#      Author: C. J. Pickard (cjp20@cam.ac.uk)
#                Space group: Cmc21
#

%BLOCK LATTICE_ABC
      5.35688      5.35688      7.21702
     90.00000     90.00000    105.04692
%ENDBLOCK LATTICE_ABC

%BLOCK POSITIONS_FRAC
  Li   0.1602439  -0.1602439  -0.0720625 SPIN=   0.00000
  Li  -0.1602439   0.1602439   0.4279375 SPIN=   0.00000
  Fe   0.4283627  -0.4283627  -0.3578338 SPIN=   4.00000
  Fe  -0.4283627   0.4283627   0.1421662 SPIN=   4.00000
   O  -0.1846474  -0.1681840   0.1494770 SPIN=   0.00000
   O  -0.1396247  -0.5078059  -0.0708792 SPIN=   0.00000
   O   0.1846474   0.1681840  -0.3505230 SPIN=   0.00000
   O   0.1396247   0.5078059  -0.5708792 SPIN=   0.00000
   O  -0.1681840  -0.1846474  -0.3505230 SPIN=   0.00000
   O  -0.5078059  -0.1396247  -0.5708792 SPIN=   0.00000
   O   0.1681840   0.1846474   0.1494770 SPIN=   0.00000
   O   0.5078059   0.1396247  -0.0708792 SPIN=   0.00000
   S   0.1526630  -0.1526630   0.3139606 SPIN=   0.00000
   S  -0.1526630   0.1526630  -0.1860394 SPIN=   0.00000
   F   0.3906324  -0.3906324  -0.0642416 SPIN=   0.00000
   F  -0.3906324   0.3906324   0.4357584 SPIN=   0.00000
%ENDBLOCK POSITIONS_FRAC

# Note: total spin =   8.00

KPOINTS_MP_SPACING 0.07

%BLOCK SPECIES_POT
QC5
%ENDBLOCK SPECIES_POT

SNAP_TO_SYMMETRY
SYMMETRY_GENERATE

