#              Generated by Buildcell
#
# at 23:56:33 (GMT+1.0) 18th August 2020
# in /lustre/scratch/uccabz1/launch_tmp
# on node-c12p-025
# by uccabz1
#
# compiler GCC version 4.9.2
# options -cpp -iprefix /lustre/shared/ucl/apps/gcc/4.9.2/bin/../lib/gcc/x86_64-unknown-linux-gnu/4.9.2/ -mtune=corei7 -march=x86-64 -g -Og
#
# seed  -428009036  1251386637  2017440585  -585982653 -1215084585  1437807109 -1462646601 -1567437704  -761111951 -1462950294  1801496827   390999049
#
#      Author: C. J. Pickard (cjp20@cam.ac.uk)
#                Space group: Ccc2
#

%BLOCK LATTICE_ABC
      3.90101      4.44228     12.84556
     90.00000     90.00000    116.04500
%ENDBLOCK LATTICE_ABC

%BLOCK POSITIONS_FRAC
  Li  -0.0000000   0.5000000  -0.0133553 SPIN=   0.00000
  Li  -0.5000000   0.5000000   0.4866447 SPIN=   0.00000
  Fe   0.5000000  -0.5000000  -0.1953082 SPIN=   4.00000
  Fe  -0.0000000  -0.5000000   0.3046918 SPIN=   4.00000
   O   0.3220984   0.1494274   0.0140669 SPIN=   0.00000
   O  -0.0267233  -0.2601728   0.1519442 SPIN=   0.00000
   O  -0.3220984  -0.1494274   0.0140669 SPIN=   0.00000
   O   0.0267233   0.2601728   0.1519442 SPIN=   0.00000
   O  -0.1726710   0.1494274  -0.4859331 SPIN=   0.00000
   O  -0.2334495  -0.2601728  -0.3480558 SPIN=   0.00000
   O   0.1726710  -0.1494274  -0.4859331 SPIN=   0.00000
   O   0.2334495   0.2601728  -0.3480558 SPIN=   0.00000
   S   0.5000000   0.0000000   0.1141069 SPIN=   0.00000
   S   0.5000000  -0.0000000  -0.3858931 SPIN=   0.00000
   F   0.0000000   0.0000000   0.3366707 SPIN=   0.00000
   F  -0.0000000   0.0000000  -0.1633293 SPIN=   0.00000
%ENDBLOCK POSITIONS_FRAC

# Note: total spin =   8.00

KPOINTS_MP_SPACING 0.07

%BLOCK SPECIES_POT
QC5
%ENDBLOCK SPECIES_POT

SNAP_TO_SYMMETRY
SYMMETRY_GENERATE

