#              Generated by Buildcell
#
# at 00:32:54 (GMT+1.0) 19th August 2020
# in /lustre/scratch/uccabz1/launch_tmp
# on node-c12a-003
# by uccabz1
#
# compiler GCC version 4.9.2
# options -cpp -iprefix /lustre/shared/ucl/apps/gcc/4.9.2/bin/../lib/gcc/x86_64-unknown-linux-gnu/4.9.2/ -mtune=corei7 -march=x86-64 -g -Og
#
# seed -1890234102 -1051452668   769264686  1113713919 -2126069280  2029101098  -986872954 -1901503243 -1586053735  1661373373 -2049643057  1017135737
#
#      Author: C. J. Pickard (cjp20@cam.ac.uk)
#                Space group: C2
#

%BLOCK LATTICE_ABC
      5.60842      5.60842      7.30872
    104.05024    104.05024    107.44906
%ENDBLOCK LATTICE_ABC

%BLOCK POSITIONS_FRAC
  Li  -0.5409894  -0.0727438   0.2864416 SPIN=   0.00000
  Li  -0.9272562  -0.4590106  -0.2864416 SPIN=   0.00000
  Fe   0.0641315  -0.0641315  -0.5000000 SPIN=   3.76949
  Fe  -0.0482242   0.0482242  -0.0000000 SPIN=   4.23051
   O   0.4342161  -0.0326540  -0.3311005 SPIN=   0.00000
   O   0.2865771   0.2752187  -0.1255972 SPIN=   0.00000
   O   0.3265438   0.3135919  -0.4480638 SPIN=   0.00000
   O   0.7310309   0.4410178  -0.1571842 SPIN=   0.00000
   O   0.0326540  -0.4342161   0.3311005 SPIN=   0.00000
   O  -0.2752187  -0.2865771   0.1255972 SPIN=   0.00000
   O  -0.3135919  -0.3265438   0.4480638 SPIN=   0.00000
   O  -0.4410178  -0.7310309   0.1571842 SPIN=   0.00000
   S   0.5795074   0.4204926   0.0000000 SPIN=   0.00000
   S  -0.5635934  -0.4364066   0.5000000 SPIN=   0.00000
   F   0.1942651  -0.1942651   0.0000000 SPIN=   0.00000
   F  -0.1783597   0.1783597  -0.5000000 SPIN=   0.00000
%ENDBLOCK POSITIONS_FRAC

# Note: total spin =   8.00

KPOINTS_MP_SPACING 0.07

%BLOCK SPECIES_POT
QC5
%ENDBLOCK SPECIES_POT

SNAP_TO_SYMMETRY
SYMMETRY_GENERATE

