#              Generated by Buildcell
#
# at 17:50:41 (GMT+1.0) 18th August 2020
# in /scratch/scratch/uccabz1/launch_tmp
# on node-k10d-025
# by uccabz1
#
# compiler GCC version 4.9.2
# options -cpp -iprefix /scratch/UCL/applications/gcc/4.9.2/bin/../lib/gcc/x86_64-unknown-linux-gnu/4.9.2/ -mtune=corei7 -march=x86-64 -g -O2
#
# seed   161557352 -1876557635  1421511878  1919948504  -172760532  1322250878   215288867   841241468   561632714  1941499892  1618515687  -874526626
#
#      Author: C. J. Pickard (cjp20@cam.ac.uk)
#                Space group: P21
#

%BLOCK LATTICE_ABC
      4.52247      4.85302      9.11707
     90.00000     91.79547     90.00000
%ENDBLOCK LATTICE_ABC

%BLOCK POSITIONS_FRAC
  Li  -0.2506999  -0.0087544   0.1383281 SPIN=   0.00000
  Li   0.2506999   0.4912456  -0.1383281 SPIN=   0.00000
  Fe   0.2702726  -0.0100106  -0.4081129 SPIN=   4.00000
  Fe  -0.2702726   0.4899894   0.4081129 SPIN=   4.00000
   O  -0.2310871  -0.4984024  -0.2005767 SPIN=   0.00000
   O   0.0534952  -0.1270936  -0.0748484 SPIN=   0.00000
   O  -0.4668780  -0.2130540  -0.0120174 SPIN=   0.00000
   O  -0.3518968  -0.0100201  -0.2526302 SPIN=   0.00000
   S  -0.2490917  -0.2121425  -0.1350182 SPIN=   0.00000
   O   0.2310871   0.0015976   0.2005767 SPIN=   0.00000
   O  -0.0534952   0.3729064   0.0748484 SPIN=   0.00000
   O   0.4668780   0.2869460   0.0120174 SPIN=   0.00000
   O   0.3518968   0.4899799   0.2526302 SPIN=   0.00000
   S   0.2490917   0.2878575   0.1350182 SPIN=   0.00000
   F  -0.2589093  -0.0632151   0.3589454 SPIN=   0.00000
   F   0.2589093   0.4367849  -0.3589454 SPIN=   0.00000
%ENDBLOCK POSITIONS_FRAC

# Note: total spin =   8.00

KPOINTS_MP_SPACING 0.07

%BLOCK SPECIES_POT
QC5
%ENDBLOCK SPECIES_POT

SNAP_TO_SYMMETRY
SYMMETRY_GENERATE

