#              Generated by Buildcell
#
# at 01:58:25 (GMT+1.0) 19th August 2020
# in /scratch/scratch/uccabz1/launch_tmp
# on node-k10h-001
# by uccabz1
#
# compiler GCC version 4.9.2
# options -cpp -iprefix /scratch/UCL/applications/gcc/4.9.2/bin/../lib/gcc/x86_64-unknown-linux-gnu/4.9.2/ -mtune=corei7 -march=x86-64 -g -O2
#
# seed  1477010644  -940607648  2082731195 -1382421741 -1892779122 -1597097817 -1520903118    21966911  1488795827  -406435510  -520117882 -1016616839
#
#      Author: C. J. Pickard (cjp20@cam.ac.uk)
#                Space group: P2
#

%BLOCK LATTICE_ABC
      3.83629      7.33256      7.35003
     90.00000     90.00000    104.68615
%ENDBLOCK LATTICE_ABC

%BLOCK POSITIONS_FRAC
  Li   0.5000000  -0.5000000  -0.2324632 SPIN=   0.00000
  Li  -0.5000000  -0.5000000   0.2975169 SPIN=   0.00000
  Fe   0.1390495  -0.2275015  -0.3982105 SPIN=   4.00000
  Fe  -0.1390495   0.2275015  -0.3982105 SPIN=   4.00000
   O   0.3784321   0.1475533  -0.0376140 SPIN=   0.00000
   O  -0.1242098   0.1546724   0.1710850 SPIN=   0.00000
   O  -0.0723687   0.3206665  -0.1247096 SPIN=   0.00000
   S   0.1367387   0.2665663   0.0324687 SPIN=   0.00000
   O  -0.3784321  -0.1475533  -0.0376140 SPIN=   0.00000
   O   0.1242098  -0.1546724   0.1710850 SPIN=   0.00000
   O   0.0723687  -0.3206665  -0.1247096 SPIN=   0.00000
   S  -0.1367387  -0.2665663   0.0324687 SPIN=   0.00000
   O   0.0000000   0.0000000  -0.2708949 SPIN=   0.00000
   O   0.5000000   0.5000000   0.0325267 SPIN=   0.00000
   F   0.3610125   0.2268202  -0.4994540 SPIN=   0.00000
   F  -0.3610125  -0.2268202  -0.4994540 SPIN=   0.00000
%ENDBLOCK POSITIONS_FRAC

# Note: total spin =   8.00

KPOINTS_MP_SPACING 0.07

%BLOCK SPECIES_POT
QC5
%ENDBLOCK SPECIES_POT

SNAP_TO_SYMMETRY
SYMMETRY_GENERATE

