#              Generated by Buildcell
#
# at 01:39:47 (GMT+1.0) 19th August 2020
# in /scratch/scratch/uccabz1/launch_tmp
# on node-k10i-017
# by uccabz1
#
# compiler GCC version 4.9.2
# options -cpp -iprefix /scratch/UCL/applications/gcc/4.9.2/bin/../lib/gcc/x86_64-unknown-linux-gnu/4.9.2/ -mtune=corei7 -march=x86-64 -g -O2
#
# seed -1310363716   897311271   392632435  1745915466 -1308694189 -1930781694   181976490  -821322251   -95665474  -715403934   780126829  -252732461
#
#      Author: C. J. Pickard (cjp20@cam.ac.uk)
#                Space group: P21
#

%BLOCK LATTICE_ABC
      4.14991      5.11161      9.51844
     90.00000     90.00000     97.89061
%ENDBLOCK LATTICE_ABC

%BLOCK POSITIONS_FRAC
  Li  -0.4883265  -0.3850919   0.2819249 SPIN=   0.00000
  Li   0.4883265   0.3850919  -0.2180751 SPIN=   0.00000
  Fe  -0.0271635  -0.1780239  -0.1167579 SPIN=   4.00000
  Fe   0.0271635   0.1780239   0.3832421 SPIN=   4.00000
   O  -0.5316360   0.2338370  -0.0133001 SPIN=   0.00000
   O  -0.6058352   0.2092553   0.2445775 SPIN=   0.00000
   O  -0.1265009   0.0517731   0.1353738 SPIN=   0.00000
   O  -0.6745949  -0.2000894   0.1024818 SPIN=   0.00000
   S  -0.4846417   0.0736940   0.1172833 SPIN=   0.00000
   O   0.5316360  -0.2338370  -0.5133001 SPIN=   0.00000
   O   0.6058352  -0.2092553  -0.2554225 SPIN=   0.00000
   O   0.1265009  -0.0517731  -0.3646262 SPIN=   0.00000
   O   0.6745949   0.2000894  -0.3975182 SPIN=   0.00000
   S   0.4846417  -0.0736940  -0.3827167 SPIN=   0.00000
   F   0.0108293   0.4101829  -0.1678856 SPIN=   0.00000
   F  -0.0108293  -0.4101829   0.3321144 SPIN=   0.00000
%ENDBLOCK POSITIONS_FRAC

# Note: total spin =   8.00

KPOINTS_MP_SPACING 0.07

%BLOCK SPECIES_POT
QC5
%ENDBLOCK SPECIES_POT

SNAP_TO_SYMMETRY
SYMMETRY_GENERATE

