#              Generated by Buildcell
#
# at 22:37:56 (GMT+1.0) 18th August 2020
# in /lustre/scratch/uccabz1/launch_tmp
# on node-c12f-010
# by uccabz1
#
# compiler GCC version 4.9.2
# options -cpp -iprefix /lustre/shared/ucl/apps/gcc/4.9.2/bin/../lib/gcc/x86_64-unknown-linux-gnu/4.9.2/ -mtune=corei7 -march=x86-64 -g -Og
#
# seed -1975634057 -2096261223   423103846   335590761   111753037   397076030  1704326780  -850302061  1558015613   210052144   357304353  1174005835
#
#      Author: C. J. Pickard (cjp20@cam.ac.uk)
#                Space group: P2
#

%BLOCK LATTICE_ABC
      4.59551      6.56563      6.64519
     90.00000     94.05476     90.00000
%ENDBLOCK LATTICE_ABC

%BLOCK POSITIONS_FRAC
  Li  -0.2458667   0.0884304   0.2145567 SPIN=   0.00000
  Li   0.2458667   0.0884304  -0.2145567 SPIN=   0.00000
  Fe   0.2728706   0.3753555   0.2223902 SPIN=   4.00000
  Fe  -0.2728706   0.3753555  -0.2223902 SPIN=   4.00000
   O   0.0754102  -0.2884705   0.3331065 SPIN=   0.00000
   O   0.5774850  -0.1519550   0.3340317 SPIN=   0.00000
   O   0.1555419   0.0831457   0.3080863 SPIN=   0.00000
   O   0.2519689  -0.1414270   0.0211726 SPIN=   0.00000
   S   0.2651015  -0.1246767   0.2490993 SPIN=   0.00000
   O  -0.0754102  -0.2884705  -0.3331065 SPIN=   0.00000
   O  -0.5774850  -0.1519550  -0.3340317 SPIN=   0.00000
   O  -0.1555419   0.0831457  -0.3080863 SPIN=   0.00000
   O  -0.2519689  -0.1414270  -0.0211726 SPIN=   0.00000
   S  -0.2651015  -0.1246767  -0.2490993 SPIN=   0.00000
   F  -0.2287028   0.3806577   0.2404800 SPIN=   0.00000
   F   0.2287028   0.3806577  -0.2404800 SPIN=   0.00000
%ENDBLOCK POSITIONS_FRAC

# Note: total spin =   8.00

KPOINTS_MP_SPACING 0.07

%BLOCK SPECIES_POT
QC5
%ENDBLOCK SPECIES_POT

SNAP_TO_SYMMETRY
SYMMETRY_GENERATE

