#              Generated by Buildcell
#
# at 04:27:02 (GMT+1.0) 4th August 2020
# in /lustre/scratch/uccabz1/launch_tmp
# on node-c12g-018
# by uccabz1
#
# compiler GCC version 4.9.2
# options -cpp -iprefix /lustre/shared/ucl/apps/gcc/4.9.2/bin/../lib/gcc/x86_64-unknown-linux-gnu/4.9.2/ -mtune=corei7 -march=x86-64 -g -Og
#
# seed  1474766973 -1088573547 -2136818753   703786593   390526001   634721091 -2011979597 -1483854567   488013472  -974283769   622181467   372694127
#
#      Author: C. J. Pickard (cjp20@cam.ac.uk)
#                Space group: C2
#

%BLOCK LATTICE_ABC
      5.45086      5.45086      7.17502
    104.06595    104.06595     90.75138
%ENDBLOCK LATTICE_ABC

%BLOCK POSITIONS_FRAC
  Li  -0.4672724   0.4628553  -0.2524021 SPIN=   0.00000
  Li  -0.4628553   0.4672724   0.2524021 SPIN=   0.00000
  Fe   0.4569264   0.0088496   0.4067916 SPIN=   4.00000
  Fe  -0.0088496  -0.4569264  -0.4067916 SPIN=   4.00000
   O   0.1921741  -0.0873128  -0.2656203 SPIN=   0.00000
   O   0.6470981   0.0337855  -0.1025705 SPIN=   0.00000
   O   0.3510278  -0.0286622   0.0973095 SPIN=   0.00000
   O   0.3277146   0.3429319  -0.0456851 SPIN=   0.00000
   S   0.3795036   0.0651856  -0.0791416 SPIN=   0.00000
   O   0.0873128  -0.1921741   0.2656203 SPIN=   0.00000
   O  -0.0337855  -0.6470981   0.1025705 SPIN=   0.00000
   O   0.0286622  -0.3510278  -0.0973095 SPIN=   0.00000
   O  -0.3429319  -0.3277146   0.0456851 SPIN=   0.00000
   S  -0.0651856  -0.3795036   0.0791416 SPIN=   0.00000
   F  -0.2695518  -0.2083809  -0.4529535 SPIN=   0.00000
   F   0.2083809   0.2695518   0.4529535 SPIN=   0.00000
%ENDBLOCK POSITIONS_FRAC

# Note: total spin =   8.00

KPOINTS_MP_SPACING 0.07

%BLOCK SPECIES_POT
QC5
%ENDBLOCK SPECIES_POT

SNAP_TO_SYMMETRY
SYMMETRY_GENERATE

