#              Generated by Buildcell
#
# at 01:55:40 (GMT+1.0) 4th August 2020
# in /lustre/scratch/uccabz1/launch_tmp
# on node-c12f-033
# by uccabz1
#
# compiler GCC version 4.9.2
# options -cpp -iprefix /lustre/shared/ucl/apps/gcc/4.9.2/bin/../lib/gcc/x86_64-unknown-linux-gnu/4.9.2/ -mtune=corei7 -march=x86-64 -g -Og
#
# seed   725108068 -1087531261 -1952365804  1095291123  2080820306 -1520417762  -383649010 -1703776743  -286662404  -214097853  -137229217 -1936736605
#
#      Author: C. J. Pickard (cjp20@cam.ac.uk)
#                Space group: P-1
#

%BLOCK LATTICE_ABC
      3.99643      5.33430      9.61867
     98.76594     99.01231     90.83503
%ENDBLOCK LATTICE_ABC

%BLOCK POSITIONS_FRAC
  Li   0.2009173  -0.2796216   0.3842243 SPIN=   0.00000
  Li  -0.2009173   0.2796216  -0.3842243 SPIN=   0.00000
  Fe   0.3533132   0.2035146  -0.1363475 SPIN=   4.00000
  Fe  -0.3533132  -0.2035146   0.1363475 SPIN=   4.00000
   O   0.1211371  -0.1914754  -0.0485910 SPIN=   0.00000
   O  -0.4545566  -0.1757033  -0.1855120 SPIN=   0.00000
   O  -0.1941624  -0.5897106  -0.1663614 SPIN=   0.00000
   O   0.0263375  -0.2997552  -0.3115998 SPIN=   0.00000
   S  -0.1253111  -0.3141611  -0.1780161 SPIN=   0.00000
   O  -0.1211371   0.1914754   0.0485910 SPIN=   0.00000
   O   0.4545566   0.1757033   0.1855120 SPIN=   0.00000
   O   0.1941624   0.5897106   0.1663614 SPIN=   0.00000
   O  -0.0263375   0.2997552   0.3115998 SPIN=   0.00000
   S   0.1253111   0.3141611   0.1780161 SPIN=   0.00000
   F   0.2475862   0.1582067  -0.3422594 SPIN=   0.00000
   F  -0.2475862  -0.1582067   0.3422594 SPIN=   0.00000
%ENDBLOCK POSITIONS_FRAC

# Note: total spin =   8.00

KPOINTS_MP_SPACING 0.07

%BLOCK SPECIES_POT
QC5
%ENDBLOCK SPECIES_POT

SNAP_TO_SYMMETRY
SYMMETRY_GENERATE

