#              Generated by Buildcell
#
# at 19:43:38 (GMT+1.0) 18th August 2020
# in /lustre/scratch/uccabz1/launch_tmp
# on node-c12g-030
# by uccabz1
#
# compiler GCC version 4.9.2
# options -cpp -iprefix /lustre/shared/ucl/apps/gcc/4.9.2/bin/../lib/gcc/x86_64-unknown-linux-gnu/4.9.2/ -mtune=corei7 -march=x86-64 -g -Og
#
# seed   384380791  1045540014   165227111   315489024  1080230357 -1236551467  -942145519   627611729  -818498433   284482707  -676456721  1092612261
#
#      Author: C. J. Pickard (cjp20@cam.ac.uk)
#                Space group: Cc
#

%BLOCK LATTICE_ABC
      4.15130      7.01414      7.19177
     90.93661     90.00000    107.21291
%ENDBLOCK LATTICE_ABC

%BLOCK POSITIONS_FRAC
  Li   0.1943164  -0.0435510   0.0478212 SPIN=   0.00000
  Li  -0.2378675  -0.0435510  -0.4521788 SPIN=   0.00000
  Fe   0.1118838  -0.3440098  -0.3177246 SPIN=   4.00000
  Fe  -0.4558936  -0.3440098   0.1822754 SPIN=   4.00000
   O  -0.4983536   0.2313753   0.3823910 SPIN=   0.00000
   O  -0.0783014   0.4827405   0.2000449 SPIN=   0.00000
   O  -0.0275277   0.1417672   0.2297401 SPIN=   0.00000
   O   0.0842700   0.3728556   0.5019075 SPIN=   0.00000
   S  -0.1299782   0.3071846   0.3285209 SPIN=   0.00000
   O   0.7297289   0.2313753  -0.1176090 SPIN=   0.00000
   O   0.5610419   0.4827405  -0.2999551 SPIN=   0.00000
   O   0.1692949   0.1417672  -0.2702599 SPIN=   0.00000
   O   0.2885856   0.3728556   0.0019075 SPIN=   0.00000
   S   0.4371628   0.3071846  -0.1714791 SPIN=   0.00000
   F  -0.3249185  -0.1499395  -0.0999761 SPIN=   0.00000
   F   0.1749790  -0.1499395   0.4000239 SPIN=   0.00000
%ENDBLOCK POSITIONS_FRAC

# Note: total spin =   8.00

KPOINTS_MP_SPACING 0.07

%BLOCK SPECIES_POT
QC5
%ENDBLOCK SPECIES_POT

SNAP_TO_SYMMETRY
SYMMETRY_GENERATE

