#              Generated by Buildcell
#
# at 00:30:38 (GMT+1.0) 19th August 2020
# in /scratch/scratch/uccabz1/launch_tmp
# on node-k10d-010
# by uccabz1
#
# compiler GCC version 4.9.2
# options -cpp -iprefix /scratch/UCL/applications/gcc/4.9.2/bin/../lib/gcc/x86_64-unknown-linux-gnu/4.9.2/ -mtune=corei7 -march=x86-64 -g -O2
#
# seed -1437726217  -774641869 -1818589330  1086718975  -470851052  1249171326  -709923365   611161157   639169138  1277821150 -1799085938 -1287847201
#
#      Author: C. J. Pickard (cjp20@cam.ac.uk)
#                Space group: Pnc2
#

%BLOCK LATTICE_ABC
      3.73519      6.66814      8.02994
     90.00000     90.00000     90.00000
%ENDBLOCK LATTICE_ABC

%BLOCK POSITIONS_FRAC
  Li   0.0000000   0.5000000  -0.1508036 SPIN=   0.00000
  Li  -0.0000000   0.0000000   0.3491964 SPIN=   0.00000
  Fe  -0.5000000   0.0000000  -0.3179551 SPIN=   4.00000
  Fe   0.5000000   0.5000000   0.1820449 SPIN=   4.00000
   O  -0.2422850  -0.3200915  -0.5671360 SPIN=   0.00000
   O   0.2405455  -0.3816760  -0.3623590 SPIN=   0.00000
   O   0.2422850   0.3200915  -0.5671360 SPIN=   0.00000
   O  -0.2405455   0.3816760  -0.3623590 SPIN=   0.00000
   O  -0.2422850  -0.1799085  -0.0671360 SPIN=   0.00000
   O   0.2405455  -0.1183240   0.1376410 SPIN=   0.00000
   O   0.2422850   0.1799085  -0.0671360 SPIN=   0.00000
   O  -0.2405455   0.1183240   0.1376410 SPIN=   0.00000
   S  -0.0000000   0.0000000   0.0190066 SPIN=   0.00000
   S  -0.0000000  -0.5000000  -0.4809934 SPIN=   0.00000
   F   0.0000000   0.5000000   0.0946718 SPIN=   0.00000
   F   0.0000000   0.0000000  -0.4053282 SPIN=   0.00000
%ENDBLOCK POSITIONS_FRAC

# Note: total spin =   8.00

KPOINTS_MP_SPACING 0.07

%BLOCK SPECIES_POT
QC5
%ENDBLOCK SPECIES_POT

SNAP_TO_SYMMETRY
SYMMETRY_GENERATE

