#              Generated by Buildcell
#
# at 23:18:43 (GMT+1.0) 18th August 2020
# in /scratch/scratch/uccabz1/launch_tmp
# on node-k10c-029
# by uccabz1
#
# compiler GCC version 4.9.2
# options -cpp -iprefix /scratch/UCL/applications/gcc/4.9.2/bin/../lib/gcc/x86_64-unknown-linux-gnu/4.9.2/ -mtune=corei7 -march=x86-64 -g -O2
#
# seed  -696440477  -522624527 -1774094419  -134657112  -738339513 -1265747450  2121813167   447821554   588823856  1634217902 -1218323740 -1413135807
#
#      Author: C. J. Pickard (cjp20@cam.ac.uk)
#                Space group: Cc
#

%BLOCK LATTICE_ABC
      4.67902      4.67902      9.69370
     94.84238     94.84238    107.78490
%ENDBLOCK LATTICE_ABC

%BLOCK POSITIONS_FRAC
  Li  -0.1421837   0.3424541   0.2321233 SPIN=   0.00000
  Li  -0.1575459   0.3578163  -0.2678767 SPIN=   0.00000
  Fe   0.2030242   0.2074378  -0.0203280 SPIN=   4.00000
  Fe  -0.2925622  -0.2969758   0.4796720 SPIN=   4.00000
   O   0.3305657   0.3726809   0.2925410 SPIN=   0.00000
   O  -0.0527693  -0.1342874   0.2625902 SPIN=   0.00000
   O   0.3660657  -0.0001762   0.4543028 SPIN=   0.00000
   O   0.4689438  -0.0771318   0.2099806 SPIN=   0.00000
   S   0.2782015   0.0402714   0.3048537 SPIN=   0.00000
   O  -0.1273191  -0.1694343  -0.2074590 SPIN=   0.00000
   O  -0.6342874  -0.5527693  -0.2374098 SPIN=   0.00000
   O  -0.5001762  -0.1339343  -0.0456972 SPIN=   0.00000
   O  -0.5771318  -0.0310562  -0.2900194 SPIN=   0.00000
   S  -0.4597286  -0.2217985  -0.1951463 SPIN=   0.00000
   F  -0.0607366   0.4379134   0.0362269 SPIN=   0.00000
   F  -0.0620866   0.4392634  -0.4637731 SPIN=   0.00000
%ENDBLOCK POSITIONS_FRAC

# Note: total spin =   8.00

KPOINTS_MP_SPACING 0.07

%BLOCK SPECIES_POT
QC5
%ENDBLOCK SPECIES_POT

SNAP_TO_SYMMETRY
SYMMETRY_GENERATE

