#              Generated by Buildcell
#
# at 04:17:51 (GMT+1.0) 4th August 2020
# in /lustre/scratch/uccabz1/launch_tmp
# on node-c12j-018
# by uccabz1
#
# compiler GCC version 4.9.2
# options -cpp -iprefix /lustre/shared/ucl/apps/gcc/4.9.2/bin/../lib/gcc/x86_64-unknown-linux-gnu/4.9.2/ -mtune=corei7 -march=x86-64 -g -Og
#
# seed  1116963526   458311348   -86523102  -869753853   341360519 -1544254972 -1224445507   895338679  1637440125  1742507480 -1383430159    14681475
#
#      Author: C. J. Pickard (cjp20@cam.ac.uk)
#                Space group: Cc
#

%BLOCK LATTICE_ABC
      4.06722      4.07517     14.03878
     96.33997     90.00000    119.93545
%ENDBLOCK LATTICE_ABC

%BLOCK POSITIONS_FRAC
  Li  -0.4267670   0.1695952   0.1006700 SPIN=   0.00000
  Li  -0.4036378   0.1695952  -0.3993300 SPIN=   0.00000
  Fe  -0.0582901  -0.0953290   0.2387623 SPIN=   4.00000
  Fe  -0.0370388  -0.0953290  -0.2612377 SPIN=   4.00000
   O  -0.0573195  -0.0152104   0.5703556 SPIN=   0.00000
   O  -0.2293086  -0.1880080   0.3956896 SPIN=   0.00000
   O   0.4456150   0.1342786   0.4555752 SPIN=   0.00000
   O   0.0980220   0.4902960   0.4666694 SPIN=   0.00000
   S   0.0642522   0.1053390   0.4720725 SPIN=   0.00000
   O   0.0421091  -0.0152104   0.0703556 SPIN=   0.00000
   O   0.0413006  -0.1880080  -0.1043104 SPIN=   0.00000
   O  -0.3113365   0.1342786  -0.0444248 SPIN=   0.00000
   O   0.3922739   0.4902960  -0.0333306 SPIN=   0.00000
   S   0.0410868   0.1053390  -0.0279275 SPIN=   0.00000
   F   0.2649925  -0.3311543   0.1900582 SPIN=   0.00000
   F   0.4038532  -0.3311543  -0.3099418 SPIN=   0.00000
%ENDBLOCK POSITIONS_FRAC

# Note: total spin =   8.00

KPOINTS_MP_SPACING 0.07

%BLOCK SPECIES_POT
QC5
%ENDBLOCK SPECIES_POT

SNAP_TO_SYMMETRY
SYMMETRY_GENERATE

