#              Generated by Buildcell
#
# at 18:08:54 (GMT+1.0) 18th August 2020
# in /lustre/scratch/uccabz1/launch_tmp
# on node-c12m-014
# by uccabz1
#
# compiler GCC version 4.9.2
# options -cpp -iprefix /lustre/shared/ucl/apps/gcc/4.9.2/bin/../lib/gcc/x86_64-unknown-linux-gnu/4.9.2/ -mtune=corei7 -march=x86-64 -g -Og
#
# seed -2028068874  1338144359  2060369140   556066534   128332105  -931744596 -1926255746  1893504882   -31825979   148438133  2144373401 -1348388638
#
#      Author: C. J. Pickard (cjp20@cam.ac.uk)
#                Space group: Pc
#

%BLOCK LATTICE_ABC
      3.92917      5.31300      9.58055
     90.00000     90.00000     90.10650
%ENDBLOCK LATTICE_ABC

%BLOCK POSITIONS_FRAC
  Li  -0.4472288   0.0320229  -0.3697361 SPIN=   0.00000
  Li  -0.4472288  -0.4679771   0.3697361 SPIN=   0.00000
  Fe  -0.4402809   0.1482620   0.1333007 SPIN=   4.00000
  Fe  -0.4402809  -0.3517380  -0.1333007 SPIN=   4.00000
   O   0.1842710  -0.2933126   0.0270888 SPIN=   0.00000
   O  -0.3320927  -0.3382637   0.1729725 SPIN=   0.00000
   O   0.1932557  -0.1561788   0.2739382 SPIN=   0.00000
   O   0.1677631  -0.6099530   0.2164432 SPIN=   0.00000
   S   0.0532993  -0.3494270   0.1726107 SPIN=   0.00000
   O   0.1842710   0.2066874  -0.0270888 SPIN=   0.00000
   O  -0.3320927   0.1617363  -0.1729725 SPIN=   0.00000
   O   0.1932557   0.3438212  -0.2739382 SPIN=   0.00000
   O   0.1677631  -0.1099530  -0.2164432 SPIN=   0.00000
   S   0.0532993   0.1505730  -0.1726107 SPIN=   0.00000
   F  -0.3747721  -0.3354865  -0.3762272 SPIN=   0.00000
   F  -0.3747721   0.1645135   0.3762272 SPIN=   0.00000
%ENDBLOCK POSITIONS_FRAC

# Note: total spin =   8.00

KPOINTS_MP_SPACING 0.07

%BLOCK SPECIES_POT
QC5
%ENDBLOCK SPECIES_POT

SNAP_TO_SYMMETRY
SYMMETRY_GENERATE

