#              Generated by Buildcell
#
# at 05:23:58 (GMT+1.0) 4th August 2020
# in /lustre/scratch/uccabz1/launch_tmp
# on node-c12g-001
# by uccabz1
#
# compiler GCC version 4.9.2
# options -cpp -iprefix /lustre/shared/ucl/apps/gcc/4.9.2/bin/../lib/gcc/x86_64-unknown-linux-gnu/4.9.2/ -mtune=corei7 -march=x86-64 -g -Og
#
# seed -1578094036  -100012281  1579366734 -1325373802  1752729169   348082082   547607067  -557860489 -1562729992  1999854657  1498266735  1716089642
#
#      Author: C. J. Pickard (cjp20@cam.ac.uk)
#                Space group: Cm
#

%BLOCK LATTICE_ABC
      4.12839      6.77828      8.00623
     64.95609     85.85684     80.17295
%ENDBLOCK LATTICE_ABC

%BLOCK POSITIONS_FRAC
  Li   0.2855179   0.2501746  -0.3937819 SPIN=   0.00000
  Li   0.2855179  -0.1436073   0.3937819 SPIN=   0.00000
  Fe  -0.2412655   0.2272220   0.2573053 SPIN=   4.00000
  Fe  -0.2412655   0.4845273  -0.2573053 SPIN=   4.00000
   O   0.0730395  -0.4185556   0.1751486 SPIN=   0.00000
   O  -0.0780262  -0.0613604   0.1978610 SPIN=   0.00000
   O  -0.1177418  -0.4098493   0.4725390 SPIN=   0.00000
   O  -0.5096835  -0.2814789   0.2144618 SPIN=   0.00000
   S  -0.1581030  -0.2928110   0.2650026 SPIN=   0.00000
   O   0.0730395  -0.2434070  -0.1751486 SPIN=   0.00000
   O  -0.0780262   0.1365006  -0.1978610 SPIN=   0.00000
   O  -0.1177418   0.0626898  -0.4725390 SPIN=   0.00000
   O  -0.5096835  -0.0670171  -0.2144618 SPIN=   0.00000
   S  -0.1581030  -0.0278084  -0.2650026 SPIN=   0.00000
   F   0.3418918   0.4240352  -0.2635291 SPIN=   0.00000
   F   0.3418918   0.1605061   0.2635291 SPIN=   0.00000
%ENDBLOCK POSITIONS_FRAC

# Note: total spin =   8.00

KPOINTS_MP_SPACING 0.07

%BLOCK SPECIES_POT
QC5
%ENDBLOCK SPECIES_POT

SNAP_TO_SYMMETRY
SYMMETRY_GENERATE

