#              Generated by Buildcell
#
# at 23:57:54 (GMT+1.0) 18th August 2020
# in /lustre/scratch/uccabz1/launch_tmp
# on node-c12a-021
# by uccabz1
#
# compiler GCC version 4.9.2
# options -cpp -iprefix /lustre/shared/ucl/apps/gcc/4.9.2/bin/../lib/gcc/x86_64-unknown-linux-gnu/4.9.2/ -mtune=corei7 -march=x86-64 -g -Og
#
# seed  1334870977  -230935263 -1284776055   313556120  1111949730  -381859715  1911946298 -1749336619  -789689052 -1802692251  1609117315   229037806
#
#      Author: C. J. Pickard (cjp20@cam.ac.uk)
#                Space group: P21
#

%BLOCK LATTICE_ABC
      4.03401      5.33745      9.29730
     90.00000     90.00000     92.45370
%ENDBLOCK LATTICE_ABC

%BLOCK POSITIONS_FRAC
  Li  -0.0488644   0.3929532   0.1190029 SPIN=   0.00000
  Li   0.0488644  -0.3929532  -0.3809971 SPIN=   0.00000
  Fe   0.4519740  -0.3484893   0.3475815 SPIN=   4.00000
  Fe  -0.4519740   0.3484893  -0.1524185 SPIN=   4.00000
   O  -0.1608255  -0.3485529  -0.0759849 SPIN=   0.00000
   O  -0.2264516   0.0757236   0.0246475 SPIN=   0.00000
   O   0.2279608   0.0010212  -0.1468786 SPIN=   0.00000
   O   0.2477531  -0.1730612   0.0995432 SPIN=   0.00000
   S   0.0221092  -0.1112173  -0.0246682 SPIN=   0.00000
   O   0.1608255   0.3485529   0.4240151 SPIN=   0.00000
   O   0.2264516  -0.0757236   0.5246475 SPIN=   0.00000
   O  -0.2279608  -0.0010212   0.3531214 SPIN=   0.00000
   O  -0.2477531   0.1730612   0.5995432 SPIN=   0.00000
   S  -0.0221092   0.1112173   0.4753318 SPIN=   0.00000
   F   0.4946640   0.4040673   0.1762088 SPIN=   0.00000
   F  -0.4946640  -0.4040673  -0.3237912 SPIN=   0.00000
%ENDBLOCK POSITIONS_FRAC

# Note: total spin =   8.00

KPOINTS_MP_SPACING 0.07

%BLOCK SPECIES_POT
QC5
%ENDBLOCK SPECIES_POT

SNAP_TO_SYMMETRY
SYMMETRY_GENERATE

