#              Generated by Buildcell
#
# at 21:51:00 (GMT+1.0) 18th August 2020
# in /lustre/scratch/uccabz1/launch_tmp
# on node-c12o-027
# by uccabz1
#
# compiler GCC version 4.9.2
# options -cpp -iprefix /lustre/shared/ucl/apps/gcc/4.9.2/bin/../lib/gcc/x86_64-unknown-linux-gnu/4.9.2/ -mtune=corei7 -march=x86-64 -g -Og
#
# seed    43334976 -1894180018 -1945625158  -928990082  1657797771  -541813822   510106016  1035354191 -1671032910   768869463  -179211255  1820012925
#
#      Author: C. J. Pickard (cjp20@cam.ac.uk)
#                Space group: P-1
#

%BLOCK LATTICE_ABC
      4.09024      4.51543     10.83166
     90.00471     91.16510     90.59311
%ENDBLOCK LATTICE_ABC

%BLOCK POSITIONS_FRAC
  Li  -0.2426052  -0.2875405  -0.3251779 SPIN=   0.00000
  Li   0.2426052   0.2875405   0.3251779 SPIN=   0.00000
  Fe  -0.2527142  -0.2523016   0.3986077 SPIN=   4.00000
  Fe   0.2527142   0.2523016  -0.3986077 SPIN=   4.00000
   O  -0.5584013   0.0738364  -0.2124394 SPIN=   0.00000
   O  -0.0424346   0.3557608  -0.2388098 SPIN=   0.00000
   O  -0.0414472  -0.1133827  -0.1206876 SPIN=   0.00000
   O  -0.2983773   0.3324911  -0.0339095 SPIN=   0.00000
   S  -0.2351651   0.1621764  -0.1514616 SPIN=   0.00000
   O   0.5584013  -0.0738364   0.2124394 SPIN=   0.00000
   O   0.0424346  -0.3557608   0.2388098 SPIN=   0.00000
   O   0.0414472   0.1133827   0.1206876 SPIN=   0.00000
   O   0.2983773  -0.3324911   0.0339095 SPIN=   0.00000
   S   0.2351651  -0.1621764   0.1514616 SPIN=   0.00000
   F   0.2575078  -0.2522585  -0.4132652 SPIN=   0.00000
   F  -0.2575078   0.2522585   0.4132652 SPIN=   0.00000
%ENDBLOCK POSITIONS_FRAC

# Note: total spin =   8.00

KPOINTS_MP_SPACING 0.07

%BLOCK SPECIES_POT
QC5
%ENDBLOCK SPECIES_POT

SNAP_TO_SYMMETRY
SYMMETRY_GENERATE

