#              Generated by Buildcell
#
# at 01:43:24 (GMT+1.0) 19th August 2020
# in /lustre/scratch/uccabz1/launch_tmp
# on node-c12e-033
# by uccabz1
#
# compiler GCC version 4.9.2
# options -cpp -iprefix /lustre/shared/ucl/apps/gcc/4.9.2/bin/../lib/gcc/x86_64-unknown-linux-gnu/4.9.2/ -mtune=corei7 -march=x86-64 -g -Og
#
# seed -1117093030 -2069844720  -410703063  1246747828  -958313710   416742298   768941136  -477900666   525407359   640687339 -1816133438 -1444247945
#
#      Author: C. J. Pickard (cjp20@cam.ac.uk)
#                Space group: Cmc21
#

%BLOCK LATTICE_ABC
      4.66636      4.66636      9.19016
     90.00000     90.00000     91.94532
%ENDBLOCK LATTICE_ABC

%BLOCK POSITIONS_FRAC
  Li  -0.2134966  -0.2134966   0.1899514 SPIN=   0.00000
  Li   0.2134966   0.2134966  -0.3100486 SPIN=   0.00000
  Fe  -0.4691110  -0.4691110  -0.0827014 SPIN=   4.00000
  Fe   0.4691110   0.4691110   0.4172986 SPIN=   4.00000
   O  -0.0218552   0.3323530  -0.4706467 SPIN=   0.00000
   O  -0.0149140   0.4930813  -0.2140008 SPIN=   0.00000
   O   0.0218552  -0.3323530   0.0293533 SPIN=   0.00000
   O   0.0149140  -0.4930813   0.2859992 SPIN=   0.00000
   O  -0.3323530   0.0218552   0.0293533 SPIN=   0.00000
   O  -0.4930813   0.0149140   0.2859992 SPIN=   0.00000
   O   0.3323530  -0.0218552  -0.4706467 SPIN=   0.00000
   O   0.4930813  -0.0149140  -0.2140008 SPIN=   0.00000
   S   0.0222665   0.0222665  -0.0505882 SPIN=   0.00000
   S  -0.0222665  -0.0222665   0.4494118 SPIN=   0.00000
   F  -0.4865695  -0.4865695   0.1447314 SPIN=   0.00000
   F   0.4865695   0.4865695  -0.3552686 SPIN=   0.00000
%ENDBLOCK POSITIONS_FRAC

# Note: total spin =   8.00

KPOINTS_MP_SPACING 0.07

%BLOCK SPECIES_POT
QC5
%ENDBLOCK SPECIES_POT

SNAP_TO_SYMMETRY
SYMMETRY_GENERATE

