#              Generated by Buildcell
#
# at 20:03:27 (GMT+1.0) 18th August 2020
# in /lustre/scratch/uccabz1/launch_tmp
# on node-c12l-030
# by uccabz1
#
# compiler GCC version 4.9.2
# options -cpp -iprefix /lustre/shared/ucl/apps/gcc/4.9.2/bin/../lib/gcc/x86_64-unknown-linux-gnu/4.9.2/ -mtune=corei7 -march=x86-64 -g -Og
#
# seed -1447773457  -498529727 -1309798869 -1392619617  -651912275   731525971  1646289259  -398330566   804615682 -1775722283  -273610598   -85511695
#
#      Author: C. J. Pickard (cjp20@cam.ac.uk)
#                Space group: Cmc21
#

%BLOCK LATTICE_ABC
      4.90130      4.90130      8.58500
     90.00000     90.00000    104.12489
%ENDBLOCK LATTICE_ABC

%BLOCK POSITIONS_FRAC
  Li   0.3181035  -0.3181035  -0.2984382 SPIN=   0.00000
  Li  -0.3181035   0.3181035   0.2015618 SPIN=   0.00000
  Fe   0.3290169  -0.3290169   0.0481423 SPIN=   4.00000
  Fe  -0.3290169   0.3290169  -0.4518577 SPIN=   4.00000
   O   0.3010547   0.0907437  -0.3493344 SPIN=   0.00000
   O   0.3359917   0.0591012  -0.6360478 SPIN=   0.00000
   O  -0.3010547  -0.0907437   0.1506656 SPIN=   0.00000
   O  -0.3359917  -0.0591012  -0.1360478 SPIN=   0.00000
   O   0.0907437   0.3010547   0.1506656 SPIN=   0.00000
   O   0.0591012   0.3359917  -0.1360478 SPIN=   0.00000
   O  -0.0907437  -0.3010547  -0.3493344 SPIN=   0.00000
   O  -0.0591012  -0.3359917  -0.6360478 SPIN=   0.00000
   S   0.0181795  -0.0181795   0.3139769 SPIN=   0.00000
   S  -0.0181795   0.0181795  -0.1860231 SPIN=   0.00000
   F  -0.4211759   0.4211759  -0.0131272 SPIN=   0.00000
   F   0.4211759  -0.4211759   0.4868728 SPIN=   0.00000
%ENDBLOCK POSITIONS_FRAC

# Note: total spin =   8.00

KPOINTS_MP_SPACING 0.07

%BLOCK SPECIES_POT
QC5
%ENDBLOCK SPECIES_POT

SNAP_TO_SYMMETRY
SYMMETRY_GENERATE

