#              Generated by Buildcell
#
# at 01:26:59 (GMT+1.0) 19th August 2020
# in /lustre/scratch/uccabz1/launch_tmp
# on node-c12e-036
# by uccabz1
#
# compiler GCC version 4.9.2
# options -cpp -iprefix /lustre/shared/ucl/apps/gcc/4.9.2/bin/../lib/gcc/x86_64-unknown-linux-gnu/4.9.2/ -mtune=corei7 -march=x86-64 -g -Og
#
# seed  1530376996  -938506907  1295485183 -1926680819  -603846976   860309690   113262868  2037449527  1467434148  1687346083   733248729  1855207990
#
#      Author: C. J. Pickard (cjp20@cam.ac.uk)
#                Space group: Cc
#

%BLOCK LATTICE_ABC
      4.55784      4.55784     10.91168
     95.83500     97.98129    115.09998
%ENDBLOCK LATTICE_ABC

%BLOCK POSITIONS_FRAC
  Li  -0.4365687  -0.3930063  -0.0102686 SPIN=   0.00000
  Li   0.3827377  -0.0736998   0.4897314 SPIN=   0.00000
  Fe   0.0088700   0.3957573   0.2767562 SPIN=   4.00000
  Fe  -0.1190011  -0.2321138  -0.2232438 SPIN=   4.00000
   O   0.1882227   0.2358927  -0.5159918 SPIN=   0.00000
   O  -0.2170665   0.1718502  -0.3791298 SPIN=   0.00000
   O   0.2682517   0.7106258  -0.3598812 SPIN=   0.00000
   O   0.3431570   0.2438372  -0.2886950 SPIN=   0.00000
   S   0.1456412   0.3405515  -0.3859245 SPIN=   0.00000
   O   0.2481155  -0.2042145  -0.0159918 SPIN=   0.00000
   O   0.4490200   0.3379367   0.1208702 SPIN=   0.00000
   O  -0.0705070  -0.1281329   0.1401188 SPIN=   0.00000
   O   0.4674677  -0.1318520   0.2113050 SPIN=   0.00000
   S   0.2735241  -0.0315657   0.1140755 SPIN=   0.00000
   F  -0.2567133  -0.4247564   0.3784292 SPIN=   0.00000
   F  -0.1968144   0.1351425  -0.1215708 SPIN=   0.00000
%ENDBLOCK POSITIONS_FRAC

# Note: total spin =   8.00

KPOINTS_MP_SPACING 0.07

%BLOCK SPECIES_POT
QC5
%ENDBLOCK SPECIES_POT

SNAP_TO_SYMMETRY
SYMMETRY_GENERATE

