#              Generated by Buildcell
#
# at 04:27:58 (GMT+1.0) 4th August 2020
# in /lustre/scratch/uccabz1/launch_tmp
# on node-c12f-002
# by uccabz1
#
# compiler GCC version 4.9.2
# options -cpp -iprefix /lustre/shared/ucl/apps/gcc/4.9.2/bin/../lib/gcc/x86_64-unknown-linux-gnu/4.9.2/ -mtune=corei7 -march=x86-64 -g -Og
#
# seed   430738582  1658778738   479749435  -173931478 -1782740722  1219514030 -1026996332   -79661031  1110877853   985804619 -1420758071   914387031
#
#      Author: C. J. Pickard (cjp20@cam.ac.uk)
#                Space group: C2/m
#

%BLOCK LATTICE_ABC
      4.45671      6.94388      7.50394
     68.20358     72.72500     71.28207
%ENDBLOCK LATTICE_ABC

%BLOCK POSITIONS_FRAC
  Li  -0.3574692  -0.0647772  -0.2202844 SPIN=   0.00000
  Li   0.3574692   0.0647772   0.2202844 SPIN=   0.00000
  Fe  -0.3355517   0.2851389   0.3859644 SPIN=   4.00000
  Fe   0.3355517  -0.2851389  -0.3859644 SPIN=   4.00000
   O   0.0435199   0.3259577   0.0863254 SPIN=   0.00000
   O  -0.1779410   0.6153472   0.2404596 SPIN=   0.00000
   O  -0.5441970  -0.3259577  -0.0863254 SPIN=   0.00000
   O  -0.3221341  -0.6153472  -0.2404596 SPIN=   0.00000
   O  -0.0435199  -0.3259577  -0.0863254 SPIN=   0.00000
   O   0.1779410  -0.6153472  -0.2404596 SPIN=   0.00000
   O   0.5441970   0.3259577   0.0863254 SPIN=   0.00000
   O   0.3221341   0.6153472   0.2404596 SPIN=   0.00000
   S  -0.1143584   0.2999618  -0.0712450 SPIN=   0.00000
   S   0.1143584  -0.2999618   0.0712450 SPIN=   0.00000
   F   0.1562128   0.2235424   0.4640320 SPIN=   0.00000
   F  -0.1562128  -0.2235424  -0.4640320 SPIN=   0.00000
%ENDBLOCK POSITIONS_FRAC

# Note: total spin =   8.00

KPOINTS_MP_SPACING 0.07

%BLOCK SPECIES_POT
QC5
%ENDBLOCK SPECIES_POT

SNAP_TO_SYMMETRY
SYMMETRY_GENERATE

