#              Generated by Buildcell
#
# at 03:28:42 (GMT+1.0) 4th August 2020
# in /lustre/scratch/uccabz1/launch_tmp
# on node-c12p-029
# by uccabz1
#
# compiler GCC version 4.9.2
# options -cpp -iprefix /lustre/shared/ucl/apps/gcc/4.9.2/bin/../lib/gcc/x86_64-unknown-linux-gnu/4.9.2/ -mtune=corei7 -march=x86-64 -g -Og
#
# seed  -791989768 -1891513215  -735222728  -436953446 -1007555342   311467547   680362383  -542133338 -1627134872   390012306  1616301410  1802880025
#
#      Author: C. J. Pickard (cjp20@cam.ac.uk)
#                Space group: Pc
#

%BLOCK LATTICE_ABC
      4.68599      6.05444      7.30524
     90.00000     90.00000    105.20734
%ENDBLOCK LATTICE_ABC

%BLOCK POSITIONS_FRAC
  Li  -0.4699728  -0.1552848   0.1242461 SPIN=   0.00000
  Li   0.0300272   0.3447152  -0.1242461 SPIN=   0.00000
  Fe  -0.1103580  -0.1687275  -0.2165133 SPIN=   4.00000
  Fe   0.3896420   0.3312725   0.2165133 SPIN=   4.00000
   O   0.3612742  -0.2412577   0.4090055 SPIN=   0.00000
   O  -0.0697870  -0.0906910   0.4771415 SPIN=   0.00000
   O  -0.1462942  -0.4902149   0.3710748 SPIN=   0.00000
   O   0.0450031  -0.1688764   0.1567536 SPIN=   0.00000
   S   0.0475490  -0.2477600   0.3534939 SPIN=   0.00000
   O   0.8612742   0.2587423  -0.4090055 SPIN=   0.00000
   O   0.4302130   0.4093090  -0.4771415 SPIN=   0.00000
   O   0.3537058   0.0097851  -0.3710748 SPIN=   0.00000
   O   0.5450031   0.3311236  -0.1567536 SPIN=   0.00000
   S   0.5475490   0.2522400  -0.3534939 SPIN=   0.00000
   F  -0.8073476  -0.3198094  -0.1448271 SPIN=   0.00000
   F  -0.3073476   0.1801906   0.1448271 SPIN=   0.00000
%ENDBLOCK POSITIONS_FRAC

# Note: total spin =   8.00

KPOINTS_MP_SPACING 0.07

%BLOCK SPECIES_POT
QC5
%ENDBLOCK SPECIES_POT

SNAP_TO_SYMMETRY
SYMMETRY_GENERATE

