#              Generated by Buildcell
#
# at 00:18:32 (GMT+1.0) 19th August 2020
# in /lustre/scratch/uccabz1/launch_tmp
# on node-c12c-003
# by uccabz1
#
# compiler GCC version 4.9.2
# options -cpp -iprefix /lustre/shared/ucl/apps/gcc/4.9.2/bin/../lib/gcc/x86_64-unknown-linux-gnu/4.9.2/ -mtune=corei7 -march=x86-64 -g -Og
#
# seed -2028596257  1558232236   -59405387 -2093717842  1463311606   -36793043 -1302895786   683727817 -1900997781  -292116960  -681760449 -1798129169
#
#      Author: C. J. Pickard (cjp20@cam.ac.uk)
#                Space group: P-1
#

%BLOCK LATTICE_ABC
      4.35038      6.70022      7.73360
     69.47044     75.74935     73.86353
%ENDBLOCK LATTICE_ABC

%BLOCK POSITIONS_FRAC
  Li   0.1021376   0.2682240   0.2393832 SPIN=   0.00000
  Li  -0.1021376  -0.2682240  -0.2393832 SPIN=   0.00000
  Fe   0.5000000  -0.5000000  -0.5000000 SPIN=   5.87635
  Fe  -0.5000000   0.0000000   0.0000000 SPIN=   2.12365
   O  -0.3380531   0.0759610   0.2520388 SPIN=   0.00000
   O   0.0514323  -0.2493031   0.1904922 SPIN=   0.00000
   O  -0.2493358  -0.2688281   0.5104175 SPIN=   0.00000
   O   0.1808727  -0.0550686   0.3741270 SPIN=   0.00000
   S  -0.0887710  -0.1243097   0.3317689 SPIN=   0.00000
   O   0.3380531  -0.0759610  -0.2520388 SPIN=   0.00000
   O  -0.0514323   0.2493031  -0.1904922 SPIN=   0.00000
   O   0.2493358   0.2688281  -0.5104175 SPIN=   0.00000
   O  -0.1808727   0.0550686  -0.3741270 SPIN=   0.00000
   S   0.0887710   0.1243097  -0.3317689 SPIN=   0.00000
   F   0.3427266  -0.4918401  -0.2145294 SPIN=   0.00000
   F  -0.3427266   0.4918401   0.2145294 SPIN=   0.00000
%ENDBLOCK POSITIONS_FRAC

# Note: total spin =   8.00

KPOINTS_MP_SPACING 0.07

%BLOCK SPECIES_POT
QC5
%ENDBLOCK SPECIES_POT

SNAP_TO_SYMMETRY
SYMMETRY_GENERATE

