#              Generated by Buildcell
#
# at 22:38:01 (GMT+1.0) 18th August 2020
# in /lustre/scratch/uccabz1/launch_tmp
# on node-c12o-011
# by uccabz1
#
# compiler GCC version 4.9.2
# options -cpp -iprefix /lustre/shared/ucl/apps/gcc/4.9.2/bin/../lib/gcc/x86_64-unknown-linux-gnu/4.9.2/ -mtune=corei7 -march=x86-64 -g -Og
#
# seed   221949715  1377855008 -1524085987   402850545   864555980   695634744 -1265792874   486778538  2081945935 -2134214710  1371280311  2059733593
#
#      Author: C. J. Pickard (cjp20@cam.ac.uk)
#                Space group: P21
#

%BLOCK LATTICE_ABC
      4.15791      6.83597      7.09122
     97.12507     90.00000     90.00000
%ENDBLOCK LATTICE_ABC

%BLOCK POSITIONS_FRAC
  Li  -0.4478612   0.2762617  -0.0585841 SPIN=   0.00000
  Li   0.0521388  -0.2762617   0.0585841 SPIN=   0.00000
  Fe   0.4917852   0.0180740   0.2930041 SPIN=   4.00000
  Fe  -0.0082148  -0.0180740  -0.2930041 SPIN=   4.00000
   O   0.1025871   0.3399965  -0.4457732 SPIN=   0.00000
   O  -0.3693486   0.4965587  -0.2760447 SPIN=   0.00000
   O   0.1433824   0.6798258  -0.2803850 SPIN=   0.00000
   O   0.0989532   0.3977666  -0.0942695 SPIN=   0.00000
   S  -0.0061065   0.4785369  -0.2741181 SPIN=   0.00000
   O   0.6025871  -0.3399965   0.4457732 SPIN=   0.00000
   O   0.1306514  -0.4965587   0.2760447 SPIN=   0.00000
   O   0.6433824  -0.6798258   0.2803850 SPIN=   0.00000
   O   0.5989532  -0.3977666   0.0942695 SPIN=   0.00000
   S   0.4938935  -0.4785369   0.2741181 SPIN=   0.00000
   F  -0.0080412  -0.0289647   0.2464632 SPIN=   0.00000
   F   0.4919588   0.0289647  -0.2464632 SPIN=   0.00000
%ENDBLOCK POSITIONS_FRAC

# Note: total spin =   8.00

KPOINTS_MP_SPACING 0.07

%BLOCK SPECIES_POT
QC5
%ENDBLOCK SPECIES_POT

SNAP_TO_SYMMETRY
SYMMETRY_GENERATE

