#              Generated by Buildcell
#
# at 00:58:05 (GMT+1.0) 19th August 2020
# in /scratch/scratch/uccabz1/launch_tmp
# on node-k10e-014
# by uccabz1
#
# compiler GCC version 4.9.2
# options -cpp -iprefix /scratch/UCL/applications/gcc/4.9.2/bin/../lib/gcc/x86_64-unknown-linux-gnu/4.9.2/ -mtune=corei7 -march=x86-64 -g -O2
#
# seed  -712405812   594139138 -1154000000 -1504910713    14424839   -31098108 -1019488280   531145337 -2093468476   724743657   932472670  1617845099
#
#      Author: C. J. Pickard (cjp20@cam.ac.uk)
#                Space group: P21
#

%BLOCK LATTICE_ABC
      4.01642      6.52442      7.63329
     90.97724     90.00000     90.00000
%ENDBLOCK LATTICE_ABC

%BLOCK POSITIONS_FRAC
  Li  -0.1870684  -0.0477300   0.1864128 SPIN=   0.00000
  Li   0.3129316   0.0477300  -0.1864128 SPIN=   0.00000
  Fe   0.2875889   0.2120977   0.4179501 SPIN=   4.00000
  Fe  -0.2124111  -0.2120977  -0.4179501 SPIN=   4.00000
   O  -0.2120734   0.1104489  -0.2521383 SPIN=   0.00000
   O   0.0513150   0.4194713  -0.3747856 SPIN=   0.00000
   O   0.0511494   0.3675895  -0.0543668 SPIN=   0.00000
   O  -0.4741425   0.4505863  -0.2070880 SPIN=   0.00000
   S  -0.1459378   0.3370240  -0.2220947 SPIN=   0.00000
   O   0.2879266  -0.1104489   0.2521383 SPIN=   0.00000
   O   0.5513150  -0.4194713   0.3747856 SPIN=   0.00000
   O   0.5511494  -0.3675895   0.0543668 SPIN=   0.00000
   O   0.0258575  -0.4505863   0.2070880 SPIN=   0.00000
   S   0.3540622  -0.3370240   0.2220947 SPIN=   0.00000
   F   0.2877709  -0.1738961  -0.3504255 SPIN=   0.00000
   F  -0.2122291   0.1738961   0.3504255 SPIN=   0.00000
%ENDBLOCK POSITIONS_FRAC

# Note: total spin =   8.00

KPOINTS_MP_SPACING 0.07

%BLOCK SPECIES_POT
QC5
%ENDBLOCK SPECIES_POT

SNAP_TO_SYMMETRY
SYMMETRY_GENERATE

