#              Generated by Buildcell
#
# at 05:32:10 (GMT+1.0) 4th August 2020
# in /lustre/scratch/uccabz1/launch_tmp
# on node-c12f-030
# by uccabz1
#
# compiler GCC version 4.9.2
# options -cpp -iprefix /lustre/shared/ucl/apps/gcc/4.9.2/bin/../lib/gcc/x86_64-unknown-linux-gnu/4.9.2/ -mtune=corei7 -march=x86-64 -g -Og
#
# seed  1523566620 -1591373637  -637851498 -1770618439 -1140652108  1170551143  1150892791  1823284701   563135105   893307027  1408628581  1395614038
#
#      Author: C. J. Pickard (cjp20@cam.ac.uk)
#                Space group: Iba2
#

%BLOCK LATTICE_ABC
      4.81166      6.42333      7.61428
    114.94797    108.41893     90.00000
%ENDBLOCK LATTICE_ABC

%BLOCK POSITIONS_FRAC
  Li  -0.1917297  -0.1917297  -0.3834594 SPIN=   0.00000
  Li   0.3082703   0.3082703  -0.3834594 SPIN=   0.00000
  Fe  -0.3355886   0.1644114   0.3288228 SPIN=   4.00000
  Fe   0.1644114  -0.3355886   0.3288228 SPIN=   4.00000
   O  -0.3243939  -0.4325757  -0.1023286 SPIN=   0.00000
   O  -0.0265349  -0.5290069  -0.3306089 SPIN=   0.00000
   O   0.2220652   0.3302471  -0.1023286 SPIN=   0.00000
   O  -0.3040740   0.1983980  -0.3306089 SPIN=   0.00000
   O   0.7220652   0.0674243  -0.1023286 SPIN=   0.00000
   O   0.1959260  -0.0290069  -0.3306089 SPIN=   0.00000
   O   0.1756061  -0.1697529  -0.1023286 SPIN=   0.00000
   O   0.4734651  -0.3016020  -0.3306089 SPIN=   0.00000
   S   0.4144136  -0.0855864  -0.1711729 SPIN=   0.00000
   S  -0.0855864   0.4144136  -0.1711729 SPIN=   0.00000
   F   0.1259212   0.1259212   0.2518424 SPIN=   0.00000
   F  -0.3740788  -0.3740788   0.2518424 SPIN=   0.00000
%ENDBLOCK POSITIONS_FRAC

# Note: total spin =   8.00

KPOINTS_MP_SPACING 0.07

%BLOCK SPECIES_POT
QC5
%ENDBLOCK SPECIES_POT

SNAP_TO_SYMMETRY
SYMMETRY_GENERATE

