#              Generated by Buildcell
#
# at 04:09:25 (GMT+1.0) 4th August 2020
# in /lustre/scratch/uccabz1/launch_tmp
# on node-c12g-036
# by uccabz1
#
# compiler GCC version 4.9.2
# options -cpp -iprefix /lustre/shared/ucl/apps/gcc/4.9.2/bin/../lib/gcc/x86_64-unknown-linux-gnu/4.9.2/ -mtune=corei7 -march=x86-64 -g -Og
#
# seed   486079319 -1055641914 -2045247471 -1572651556 -1176596095  1951073930  -741407535  1412761096  1945689006   603424781   434893707  2073523012
#
#      Author: C. J. Pickard (cjp20@cam.ac.uk)
#                Space group: P2
#

%BLOCK LATTICE_ABC
      3.99045      6.36234      7.95987
     98.24671     90.00000     90.00000
%ENDBLOCK LATTICE_ABC

%BLOCK POSITIONS_FRAC
  Li   0.4156055  -0.2851097   0.1877889 SPIN=   0.00000
  Li   0.4156055   0.2851097  -0.1877889 SPIN=   0.00000
  Fe  -0.0832982  -0.0740921  -0.2316498 SPIN=   4.00000
  Fe  -0.0832982   0.0740921   0.2316498 SPIN=   4.00000
   O  -0.0960134  -0.7068694  -0.2381129 SPIN=   0.00000
   O  -0.5898046  -0.6326209  -0.4083211 SPIN=   0.00000
   O  -0.1196237  -0.3766464  -0.3684656 SPIN=   0.00000
   O  -0.4911053  -0.4205313  -0.1269541 SPIN=   0.00000
   O  -0.0960134   0.7068694   0.2381129 SPIN=   0.00000
   O  -0.5898046   0.6326209   0.4083211 SPIN=   0.00000
   O  -0.1196237   0.3766464   0.3684656 SPIN=   0.00000
   O  -0.4911053   0.4205313   0.1269541 SPIN=   0.00000
   S  -0.0825575  -0.5000000   0.0000000 SPIN=   0.00000
   S  -0.3305458  -0.5000000  -0.5000000 SPIN=   0.00000
   F   0.3964393   0.0323710   0.2538933 SPIN=   0.00000
   F   0.3964393  -0.0323710  -0.2538933 SPIN=   0.00000
%ENDBLOCK POSITIONS_FRAC

# Note: total spin =   8.00

KPOINTS_MP_SPACING 0.07

%BLOCK SPECIES_POT
QC5
%ENDBLOCK SPECIES_POT

SNAP_TO_SYMMETRY
SYMMETRY_GENERATE

