#              Generated by Buildcell
#
# at 22:33:22 (GMT+1.0) 18th August 2020
# in /scratch/scratch/uccabz1/launch_tmp
# on node-k10b-027
# by uccabz1
#
# compiler GCC version 4.9.2
# options -cpp -iprefix /scratch/UCL/applications/gcc/4.9.2/bin/../lib/gcc/x86_64-unknown-linux-gnu/4.9.2/ -mtune=corei7 -march=x86-64 -g -O2
#
# seed -1690810361  1087585062 -1916093135 -1300701122  1085811006  -939572677   835554902 -1524647070  1493933966  1172777108  -261098676   867051961
#
#      Author: C. J. Pickard (cjp20@cam.ac.uk)
#                Space group: Cm
#

%BLOCK LATTICE_ABC
      3.87743      7.26233      7.98867
     62.96468     88.41212     86.50490
%ENDBLOCK LATTICE_ABC

%BLOCK POSITIONS_FRAC
  Li   0.2031655  -0.3512244   0.4274578 SPIN=   0.00000
  Li   0.2031655   0.0762335  -0.4274578 SPIN=   0.00000
  Fe  -0.2857759  -0.2832371   0.7441057 SPIN=   4.00000
  Fe  -0.2857759   0.4608686  -0.7441057 SPIN=   4.00000
   O  -0.0021162   0.0970647  -0.1572202 SPIN=   0.00000
   O  -0.5600301   0.2818066  -0.1573239 SPIN=   0.00000
   O  -0.3942971   0.2219844  -0.4307825 SPIN=   0.00000
   O  -0.0870724   0.4726398  -0.3673918 SPIN=   0.00000
   S  -0.2608789   0.2683739  -0.2781796 SPIN=   0.00000
   O  -0.0021162  -0.0601555   0.1572202 SPIN=   0.00000
   O  -0.5600301   0.1244827   0.1573239 SPIN=   0.00000
   O  -0.3942971  -0.2087981   0.4307825 SPIN=   0.00000
   O  -0.0870724   0.1052481   0.3673918 SPIN=   0.00000
   S  -0.2608789  -0.0098057   0.2781796 SPIN=   0.00000
   F   0.1762322  -0.4920564   0.2586205 SPIN=   0.00000
   F   0.1762322  -0.2334359  -0.2586205 SPIN=   0.00000
%ENDBLOCK POSITIONS_FRAC

# Note: total spin =   8.00

KPOINTS_MP_SPACING 0.07

%BLOCK SPECIES_POT
QC5
%ENDBLOCK SPECIES_POT

SNAP_TO_SYMMETRY
SYMMETRY_GENERATE

