#              Generated by Buildcell
#
# at 00:45:22 (GMT+1.0) 19th August 2020
# in /lustre/scratch/uccabz1/launch_tmp
# on node-c12j-021
# by uccabz1
#
# compiler GCC version 4.9.2
# options -cpp -iprefix /lustre/shared/ucl/apps/gcc/4.9.2/bin/../lib/gcc/x86_64-unknown-linux-gnu/4.9.2/ -mtune=corei7 -march=x86-64 -g -Og
#
# seed   -58816471 -1639871072  1365456528  -472178601  1657962380 -1047069683   -59927224   722653418  -253950166  1561988956  1108427259   665895084
#
#      Author: C. J. Pickard (cjp20@cam.ac.uk)
#                Space group: P-1
#

%BLOCK LATTICE_ABC
      4.75296      5.63293      7.65508
     78.52214     87.16382     85.07549
%ENDBLOCK LATTICE_ABC

%BLOCK POSITIONS_FRAC
  Li  -0.2052628   0.1230111  -0.3381211 SPIN=   0.00000
  Li   0.2052628  -0.1230111   0.3381211 SPIN=   0.00000
  Fe  -0.2840070   0.2194075   0.0554439 SPIN=   4.00000
  Fe   0.2840070  -0.2194075  -0.0554439 SPIN=   4.00000
   O  -0.2648973  -0.1318861   0.3922573 SPIN=   0.00000
   O  -0.1980223  -0.5804867   0.4405804 SPIN=   0.00000
   O  -0.0095826  -0.3303826   0.1635107 SPIN=   0.00000
   O  -0.5256784  -0.3550254   0.2128614 SPIN=   0.00000
   S  -0.2495451  -0.3494452   0.3023024 SPIN=   0.00000
   O   0.2648973   0.1318861  -0.3922573 SPIN=   0.00000
   O   0.1980223   0.5804867  -0.4405804 SPIN=   0.00000
   O   0.0095826   0.3303826  -0.1635107 SPIN=   0.00000
   O   0.5256784   0.3550254  -0.2128614 SPIN=   0.00000
   S   0.2495451   0.3494452  -0.3023024 SPIN=   0.00000
   F  -0.2869030  -0.2031939  -0.1818978 SPIN=   0.00000
   F   0.2869030   0.2031939   0.1818978 SPIN=   0.00000
%ENDBLOCK POSITIONS_FRAC

# Note: total spin =   8.00

KPOINTS_MP_SPACING 0.07

%BLOCK SPECIES_POT
QC5
%ENDBLOCK SPECIES_POT

SNAP_TO_SYMMETRY
SYMMETRY_GENERATE

