#              Generated by Buildcell
#
# at 05:45:16 (GMT+1.0) 4th August 2020
# in /lustre/scratch/uccabz1/launch_tmp
# on node-c12j-007
# by uccabz1
#
# compiler GCC version 4.9.2
# options -cpp -iprefix /lustre/shared/ucl/apps/gcc/4.9.2/bin/../lib/gcc/x86_64-unknown-linux-gnu/4.9.2/ -mtune=corei7 -march=x86-64 -g -Og
#
# seed  -614592225 -1065418410  1722976404  2008119075 -1421787724  -494571944  1259306582  1783089873   650063827   616308236 -1168294888  1861034956
#
#      Author: C. J. Pickard (cjp20@cam.ac.uk)
#                Space group: Pnc2
#

%BLOCK LATTICE_ABC
      5.08286      5.70080      6.90217
     90.00000     90.00000     90.00000
%ENDBLOCK LATTICE_ABC

%BLOCK POSITIONS_FRAC
  Li  -0.5000000   0.0000000  -0.2232529 SPIN=   0.00000
  Li  -0.0000000  -0.0000000   0.2767471 SPIN=   0.00000
  Fe  -0.5000000   0.5000000  -0.0641321 SPIN=   4.00000
  Fe  -0.0000000  -0.5000000   0.4358679 SPIN=   4.00000
   O  -0.2853340   0.0880838   0.5073511 SPIN=   0.00000
   O  -0.5831461   0.2623044   0.2628842 SPIN=   0.00000
   O   0.2853340  -0.0880838   0.5073511 SPIN=   0.00000
   O   0.5831461  -0.2623044   0.2628842 SPIN=   0.00000
   O  -0.2146660   0.0880838   0.0073511 SPIN=   0.00000
   O   0.0831461   0.2623044  -0.2371158 SPIN=   0.00000
   O   0.2146660  -0.0880838   0.0073511 SPIN=   0.00000
   O  -0.0831461  -0.2623044  -0.2371158 SPIN=   0.00000
   S  -0.5000000   0.0000000   0.1623655 SPIN=   0.00000
   S  -0.0000000  -0.0000000  -0.3376345 SPIN=   0.00000
   F  -0.0000000  -0.5000000   0.0681010 SPIN=   0.00000
   F  -0.5000000   0.5000000  -0.4318990 SPIN=   0.00000
%ENDBLOCK POSITIONS_FRAC

# Note: total spin =   8.00

KPOINTS_MP_SPACING 0.07

%BLOCK SPECIES_POT
QC5
%ENDBLOCK SPECIES_POT

SNAP_TO_SYMMETRY
SYMMETRY_GENERATE

