#              Generated by Buildcell
#
# at 00:28:15 (GMT+1.0) 19th August 2020
# in /lustre/scratch/uccabz1/launch_tmp
# on node-c12d-004
# by uccabz1
#
# compiler GCC version 4.9.2
# options -cpp -iprefix /lustre/shared/ucl/apps/gcc/4.9.2/bin/../lib/gcc/x86_64-unknown-linux-gnu/4.9.2/ -mtune=corei7 -march=x86-64 -g -Og
#
# seed   986270029  -374684349  1711343918   803975164   860309690   745145801  -691776512 -1694762527  -312006945  -544412128  -308608394  -168364418
#
#      Author: C. J. Pickard (cjp20@cam.ac.uk)
#                Space group: P2
#

%BLOCK LATTICE_ABC
      4.08863      6.59858      7.57458
    101.85096     90.00000     90.00000
%ENDBLOCK LATTICE_ABC

%BLOCK POSITIONS_FRAC
  Li   0.4909976   0.0469649  -0.2651903 SPIN=   0.00000
  Li   0.4909976  -0.0469649   0.2651903 SPIN=   0.00000
  Fe  -0.0090010  -0.0000000  -0.0000000 SPIN=   3.39872
  Fe   0.4885864  -0.5000000   0.0000000 SPIN=   4.60128
   O   0.0336858   0.1034093  -0.2544957 SPIN=   0.00000
   O  -0.1981144   0.4524602  -0.2424260 SPIN=   0.00000
   O  -0.1981286   0.1941550  -0.5300004 SPIN=   0.00000
   O   0.3224301   0.3522179  -0.4035397 SPIN=   0.00000
   S  -0.0100318   0.2755606  -0.3576155 SPIN=   0.00000
   O   0.0336858  -0.1034093   0.2544957 SPIN=   0.00000
   O  -0.1981144  -0.4524602   0.2424260 SPIN=   0.00000
   O  -0.1981286  -0.1941550   0.5300004 SPIN=   0.00000
   O   0.3224301  -0.3522179   0.4035397 SPIN=   0.00000
   S  -0.0100318  -0.2755606   0.3576155 SPIN=   0.00000
   F   0.3944543   0.2380899   0.2151052 SPIN=   0.00000
   F   0.3944543  -0.2380899  -0.2151052 SPIN=   0.00000
%ENDBLOCK POSITIONS_FRAC

# Note: total spin =   8.00

KPOINTS_MP_SPACING 0.07

%BLOCK SPECIES_POT
QC5
%ENDBLOCK SPECIES_POT

SNAP_TO_SYMMETRY
SYMMETRY_GENERATE

