#              Generated by Buildcell
#
# at 00:18:58 (GMT+1.0) 19th August 2020
# in /lustre/scratch/uccabz1/launch_tmp
# on node-c12k-032
# by uccabz1
#
# compiler GCC version 4.9.2
# options -cpp -iprefix /lustre/shared/ucl/apps/gcc/4.9.2/bin/../lib/gcc/x86_64-unknown-linux-gnu/4.9.2/ -mtune=corei7 -march=x86-64 -g -Og
#
# seed  -156720686   -36632035 -1522663030 -1810346047   404676373 -1808214944  1394623051   546949573  1294453371  1476491430   168792032 -1567427943
#
#      Author: C. J. Pickard (cjp20@cam.ac.uk)
#                Space group: Cc
#

%BLOCK LATTICE_ABC
      5.12647      6.95870      6.95870
    101.66418    111.04413    111.04413
%ENDBLOCK LATTICE_ABC

%BLOCK POSITIONS_FRAC
  Li  -0.3558886   0.1301718  -0.1351127 SPIN=   0.00000
  Li   0.1441114  -0.1351127   0.1301718 SPIN=   0.00000
  Fe  -0.5452858  -0.4766027  -0.2276955 SPIN=   4.00000
  Fe  -1.0452858  -0.2276955  -0.4766027 SPIN=   4.00000
   O   0.6071279   0.1339568   0.2529378 SPIN=   0.00000
   O   0.9494602   0.4237328   0.6336957 SPIN=   0.00000
   O   0.6349183   0.0329236   0.5783108 SPIN=   0.00000
   O   0.3655583   0.2553735   0.4706911 SPIN=   0.00000
   S   0.6392662   0.2114966   0.4839089 SPIN=   0.00000
   O   1.1071279   0.2529378   0.1339568 SPIN=   0.00000
   O   1.4494602   0.6336957   0.4237328 SPIN=   0.00000
   O   1.1349183   0.5783108   0.0329236 SPIN=   0.00000
   O   0.8655583   0.4706911   0.2553735 SPIN=   0.00000
   S   1.1392662   0.4839089   0.2114966 SPIN=   0.00000
   F  -0.2872700  -0.1891682   0.0354697 SPIN=   0.00000
   F   0.2127300   0.0354697  -0.1891682 SPIN=   0.00000
%ENDBLOCK POSITIONS_FRAC

# Note: total spin =   8.00

KPOINTS_MP_SPACING 0.07

%BLOCK SPECIES_POT
QC5
%ENDBLOCK SPECIES_POT

SNAP_TO_SYMMETRY
SYMMETRY_GENERATE

