#              Generated by Buildcell
#
# at 05:04:46 (GMT+1.0) 4th August 2020
# in /lustre/scratch/uccabz1/launch_tmp
# on node-c12j-017
# by uccabz1
#
# compiler GCC version 4.9.2
# options -cpp -iprefix /lustre/shared/ucl/apps/gcc/4.9.2/bin/../lib/gcc/x86_64-unknown-linux-gnu/4.9.2/ -mtune=corei7 -march=x86-64 -g -Og
#
# seed  2121788667  2127255110 -1689619175   567614574 -1620054227  -473233894  1599561614 -1960919425 -1425184565 -1679475339   845091872  -175083509
#
#      Author: C. J. Pickard (cjp20@cam.ac.uk)
#                Space group: C2
#

%BLOCK LATTICE_ABC
      6.02657      6.02657      6.94423
     65.71884     65.71884     65.33971
%ENDBLOCK LATTICE_ABC

%BLOCK POSITIONS_FRAC
  Li  -0.1617688   0.3155710   0.1774557 SPIN=   0.00000
  Li  -0.3155710   0.1617688  -0.1774557 SPIN=   0.00000
  Fe   0.3328394   0.0827268  -0.3662764 SPIN=   4.00000
  Fe  -0.0827268  -0.3328394   0.3662764 SPIN=   4.00000
   O   0.1818552  -0.5128877   0.1180067 SPIN=   0.00000
   O   0.1822562  -0.7160675  -0.1277643 SPIN=   0.00000
   O   0.4866852  -0.4730791  -0.2566545 SPIN=   0.00000
   O   0.0265597  -0.2459976  -0.2096356 SPIN=   0.00000
   S   0.2193391  -0.4870080  -0.1190119 SPIN=   0.00000
   O   0.5128877  -0.1818552  -0.1180067 SPIN=   0.00000
   O   0.7160675  -0.1822562   0.1277643 SPIN=   0.00000
   O   0.4730791  -0.4866852   0.2566545 SPIN=   0.00000
   O   0.2459976  -0.0265597   0.2096356 SPIN=   0.00000
   S   0.4870080  -0.2193391   0.1190119 SPIN=   0.00000
   F  -0.3072498   0.0181864   0.4146647 SPIN=   0.00000
   F  -0.0181864   0.3072498  -0.4146647 SPIN=   0.00000
%ENDBLOCK POSITIONS_FRAC

# Note: total spin =   8.00

KPOINTS_MP_SPACING 0.07

%BLOCK SPECIES_POT
QC5
%ENDBLOCK SPECIES_POT

SNAP_TO_SYMMETRY
SYMMETRY_GENERATE

