#              Generated by Buildcell
#
# at 18:37:22 (GMT+1.0) 18th August 2020
# in /lustre/scratch/uccabz1/launch_tmp
# on node-c12j-021
# by uccabz1
#
# compiler GCC version 4.9.2
# options -cpp -iprefix /lustre/shared/ucl/apps/gcc/4.9.2/bin/../lib/gcc/x86_64-unknown-linux-gnu/4.9.2/ -mtune=corei7 -march=x86-64 -g -Og
#
# seed -1219312965  -285522261  -394341960 -1706651511  2022181968   981940136 -1403784753  -913932782  -579787240  2016297966 -1860506001   291766533
#
#      Author: C. J. Pickard (cjp20@cam.ac.uk)
#                Space group: Pm
#

%BLOCK LATTICE_ABC
      5.23908      5.29799      7.86668
     90.00000     90.00000    113.65878
%ENDBLOCK LATTICE_ABC

%BLOCK POSITIONS_FRAC
  Li   0.0320033   0.2665395  -0.2494487 SPIN=   0.00000
  Li   0.0320033   0.2665395   0.2494487 SPIN=   0.00000
  Fe   0.4273134   0.0110222   0.2376211 SPIN=   4.00000
  Fe   0.4273134   0.0110222  -0.2376211 SPIN=   4.00000
   O  -0.0179990  -0.4151118   0.3613111 SPIN=   0.00000
   O  -0.3804834  -0.5926389   0.1386759 SPIN=   0.00000
   O  -0.0549882  -0.1011286   0.1388881 SPIN=   0.00000
   O  -0.4180415  -0.2790366   0.3611675 SPIN=   0.00000
   S  -0.2178780  -0.3469790   0.2500106 SPIN=   0.00000
   O  -0.0179990  -0.4151118  -0.3613111 SPIN=   0.00000
   O  -0.3804834  -0.5926389  -0.1386759 SPIN=   0.00000
   O  -0.0549882  -0.1011286  -0.1388881 SPIN=   0.00000
   O  -0.4180415  -0.2790366  -0.3611675 SPIN=   0.00000
   S  -0.2178780  -0.3469790  -0.2500106 SPIN=   0.00000
   F   0.3505860   0.1055461   0.5000000 SPIN=   0.00000
   F   0.1662228   0.3856305  -0.0000000 SPIN=   0.00000
%ENDBLOCK POSITIONS_FRAC

# Note: total spin =   8.00

KPOINTS_MP_SPACING 0.07

%BLOCK SPECIES_POT
QC5
%ENDBLOCK SPECIES_POT

SNAP_TO_SYMMETRY
SYMMETRY_GENERATE

