#              Generated by Buildcell
#
# at 02:00:24 (GMT+1.0) 19th August 2020
# in /scratch/scratch/uccabz1/launch_tmp
# on node-k10e-006
# by uccabz1
#
# compiler GCC version 4.9.2
# options -cpp -iprefix /scratch/UCL/applications/gcc/4.9.2/bin/../lib/gcc/x86_64-unknown-linux-gnu/4.9.2/ -mtune=corei7 -march=x86-64 -g -O2
#
# seed   647916586 -1964464610  1600502416 -1122838800   700120102  -100193168  -297805277  -902799419 -1356125966  1333604307  2066722139  1498308749
#
#      Author: C. J. Pickard (cjp20@cam.ac.uk)
#                Space group: C2
#

%BLOCK LATTICE_ABC
      6.28688      6.28688      6.54781
     66.08608     66.08608     61.16019
%ENDBLOCK LATTICE_ABC

%BLOCK POSITIONS_FRAC
  Li   0.0515438   0.3375628  -0.7046782 SPIN=   0.00000
  Li  -0.3375628  -0.0515438   0.7046782 SPIN=   0.00000
  Fe   0.1565479  -0.4794843   0.7736558 SPIN=   4.00000
  Fe   0.4794843  -0.1565479  -0.7736558 SPIN=   4.00000
   O  -0.6149830   0.1068594   0.5398200 SPIN=   0.00000
   O  -0.6783564   0.5564969   0.3626296 SPIN=   0.00000
   O  -0.5188863   0.2738985   0.1136180 SPIN=   0.00000
   O  -0.2471840   0.2298774   0.3275068 SPIN=   0.00000
   S  -0.5148524   0.2917830   0.3358936 SPIN=   0.00000
   O   0.8931406  -0.3850170  -0.5398200 SPIN=   0.00000
   O   0.4435031  -0.3216436  -0.3626296 SPIN=   0.00000
   O   0.7261015  -0.4811137  -0.1136180 SPIN=   0.00000
   O   0.7701226  -0.7528160  -0.3275068 SPIN=   0.00000
   S   0.7082170  -0.4851476  -0.3358936 SPIN=   0.00000
   F   0.2098444   0.1193440  -0.0018379 SPIN=   0.00000
   F  -0.1193440  -0.2098444   0.0018379 SPIN=   0.00000
%ENDBLOCK POSITIONS_FRAC

# Note: total spin =   8.00

KPOINTS_MP_SPACING 0.07

%BLOCK SPECIES_POT
QC5
%ENDBLOCK SPECIES_POT

SNAP_TO_SYMMETRY
SYMMETRY_GENERATE

