#              Generated by Buildcell
#
# at 21:46:46 (GMT+1.0) 18th August 2020
# in /lustre/scratch/uccabz1/launch_tmp
# on node-c12f-006
# by uccabz1
#
# compiler GCC version 4.9.2
# options -cpp -iprefix /lustre/shared/ucl/apps/gcc/4.9.2/bin/../lib/gcc/x86_64-unknown-linux-gnu/4.9.2/ -mtune=corei7 -march=x86-64 -g -Og
#
# seed -1336630843  1715483670 -2144256944  1528652746  -730757595 -1242851653 -2140579579 -1682602526 -2114743516   -37123868     7278178   816439382
#
#      Author: C. J. Pickard (cjp20@cam.ac.uk)
#                Space group: Cm
#

%BLOCK LATTICE_ABC
      4.47809      6.90251      6.90251
     70.98590     83.91719     83.91719
%ENDBLOCK LATTICE_ABC

%BLOCK POSITIONS_FRAC
  Li  -0.4254821  -0.1239900  -0.1239900 SPIN=   0.00000
  Li   0.0169287   0.2466351   0.2466351 SPIN=   0.00000
  Fe  -0.4630066  -0.0529405   0.4233664 SPIN=   4.00000
  Fe  -0.4630066   0.4233664  -0.0529405 SPIN=   4.00000
   O  -0.0850264  -0.3316850  -0.0519438 SPIN=   0.00000
   O   0.2367082  -0.4810640   0.2391560 SPIN=   0.00000
   O  -0.3123551  -0.4146653   0.3055935 SPIN=   0.00000
   O   0.0110305  -0.1236538   0.1638145 SPIN=   0.00000
   S  -0.0374107  -0.3377670   0.1641550 SPIN=   0.00000
   O  -0.0850264  -0.0519438  -0.3316850 SPIN=   0.00000
   O   0.2367082   0.2391560  -0.4810640 SPIN=   0.00000
   O  -0.3123551   0.3055935  -0.4146653 SPIN=   0.00000
   O   0.0110305   0.1638145  -0.1236538 SPIN=   0.00000
   S  -0.0374107   0.1641550  -0.3377670 SPIN=   0.00000
   F   0.4702667   0.1076878   0.1076878 SPIN=   0.00000
   F   0.4581003  -0.3267465  -0.3267465 SPIN=   0.00000
%ENDBLOCK POSITIONS_FRAC

# Note: total spin =   8.00

KPOINTS_MP_SPACING 0.07

%BLOCK SPECIES_POT
QC5
%ENDBLOCK SPECIES_POT

SNAP_TO_SYMMETRY
SYMMETRY_GENERATE

