#              Generated by Buildcell
#
# at 02:23:46 (GMT+1.0) 4th August 2020
# in /lustre/scratch/uccabz1/launch_tmp
# on node-y12q-003
# by uccabz1
#
# compiler GCC version 4.9.2
# options -cpp -iprefix /lustre/shared/ucl/apps/gcc/4.9.2/bin/../lib/gcc/x86_64-unknown-linux-gnu/4.9.2/ -mtune=corei7 -march=x86-64 -g -Og
#
# seed -1733669155  1887841472   163046872  1205332793  -522610826  -785294263  1386641026  1778286745 -1487347702 -1638363812  -505837037    29666921
#
#      Author: C. J. Pickard (cjp20@cam.ac.uk)
#                Space group: Cc
#

%BLOCK LATTICE_ABC
      5.60434      6.34166      6.68660
    118.30769    104.98612     90.00000
%ENDBLOCK LATTICE_ABC

%BLOCK POSITIONS_FRAC
  Li  -0.2441968   0.1861810  -0.0522179 SPIN=   0.00000
  Li   0.2558032  -0.2383989  -0.0522179 SPIN=   0.00000
  Fe   0.2891862  -0.0680997  -0.5373441 SPIN=   4.00000
  Fe  -0.2108138  -0.4692445  -0.5373441 SPIN=   4.00000
   O   0.0524544   0.0533250  -0.1414199 SPIN=   0.00000
   O   0.3661562   0.3350216  -0.1321703 SPIN=   0.00000
   O   0.4538755   0.2147642   0.1788899 SPIN=   0.00000
   O   0.1375117   0.4847467   0.1691956 SPIN=   0.00000
   S   0.2524995   0.2719644   0.0186238 SPIN=   0.00000
   O  -0.4475456  -0.1947449  -0.1414199 SPIN=   0.00000
   O  -0.1338438  -0.4671919  -0.1321703 SPIN=   0.00000
   O  -0.0461245  -0.0358743   0.1788899 SPIN=   0.00000
   O  -0.3624883  -0.3155511   0.1691956 SPIN=   0.00000
   S  -0.2475005  -0.2533406   0.0186238 SPIN=   0.00000
   F   0.1323297   0.4959566   0.5912514 SPIN=   0.00000
   F  -0.3676703   0.0952948   0.5912514 SPIN=   0.00000
%ENDBLOCK POSITIONS_FRAC

# Note: total spin =   8.00

KPOINTS_MP_SPACING 0.07

%BLOCK SPECIES_POT
QC5
%ENDBLOCK SPECIES_POT

SNAP_TO_SYMMETRY
SYMMETRY_GENERATE

