#              Generated by Buildcell
#
# at 02:38:00 (GMT+1.0) 4th August 2020
# in /lustre/scratch/uccabz1/launch_tmp
# on node-c12f-035
# by uccabz1
#
# compiler GCC version 4.9.2
# options -cpp -iprefix /lustre/shared/ucl/apps/gcc/4.9.2/bin/../lib/gcc/x86_64-unknown-linux-gnu/4.9.2/ -mtune=corei7 -march=x86-64 -g -Og
#
# seed  -846318745 -1245311342  1420343369  1009339365 -2070914600   700441476 -1249213287   113450437 -1224392531  1952614650  1764591033   618526441
#
#      Author: C. J. Pickard (cjp20@cam.ac.uk)
#                Space group: P2
#

%BLOCK LATTICE_ABC
      4.08930      6.96140      7.37484
    107.70294     90.00000     90.00000
%ENDBLOCK LATTICE_ABC

%BLOCK POSITIONS_FRAC
  Li   0.3643819  -0.4320545  -0.2304963 SPIN=   0.00000
  Li   0.3643819   0.4320545   0.2304963 SPIN=   0.00000
  Fe  -0.1350277  -0.2167704  -0.3964864 SPIN=   4.00000
  Fe  -0.1350277   0.2167704   0.3964864 SPIN=   4.00000
   O   0.4296532  -0.0449369  -0.3692780 SPIN=   0.00000
   O   0.1960791   0.1562665  -0.0603159 SPIN=   0.00000
   O   0.1478696   0.2772970  -0.3418930 SPIN=   0.00000
   O   0.6863682   0.2785173  -0.1883877 SPIN=   0.00000
   S   0.3649925   0.1667860  -0.2399687 SPIN=   0.00000
   O   0.4296532   0.0449369   0.3692780 SPIN=   0.00000
   O   0.1960791  -0.1562665   0.0603159 SPIN=   0.00000
   O   0.1478696  -0.2772970   0.3418930 SPIN=   0.00000
   O   0.6863682  -0.2785173   0.1883877 SPIN=   0.00000
   S   0.3649925  -0.1667860   0.2399687 SPIN=   0.00000
   F  -0.1588626  -0.3642121  -0.2140691 SPIN=   0.00000
   F  -0.1588626   0.3642121   0.2140691 SPIN=   0.00000
%ENDBLOCK POSITIONS_FRAC

# Note: total spin =   8.00

KPOINTS_MP_SPACING 0.07

%BLOCK SPECIES_POT
QC5
%ENDBLOCK SPECIES_POT

SNAP_TO_SYMMETRY
SYMMETRY_GENERATE

