#              Generated by Buildcell
#
# at 03:33:36 (GMT+1.0) 4th August 2020
# in /lustre/scratch/uccabz1/launch_tmp
# on node-c12k-030
# by uccabz1
#
# compiler GCC version 4.9.2
# options -cpp -iprefix /lustre/shared/ucl/apps/gcc/4.9.2/bin/../lib/gcc/x86_64-unknown-linux-gnu/4.9.2/ -mtune=corei7 -march=x86-64 -g -Og
#
# seed   461377558  1714029104  1011822606  -217413450  1315233416  -172225172  1128054582   277007765  -729570164  1935798650  1014826717  1221910312
#
#      Author: C. J. Pickard (cjp20@cam.ac.uk)
#                Space group: Pcc2
#

%BLOCK LATTICE_ABC
      3.91662      6.50684      7.84782
     90.00000     90.00000     90.00000
%ENDBLOCK LATTICE_ABC

%BLOCK POSITIONS_FRAC
  Li  -0.0000000   0.5000000   0.0154598 SPIN=   0.00000
  Li   0.0000000   0.5000000  -0.4845402 SPIN=   0.00000
  Fe   0.0000000   0.0000000   0.1182164 SPIN=   4.00000
  Fe   0.0000000   0.0000000  -0.3817836 SPIN=   4.00000
   O   0.2144177   0.3335026   0.3343643 SPIN=   0.00000
   O   0.3454050   0.3406275   0.6428158 SPIN=   0.00000
   O  -0.2144177  -0.3335026   0.3343643 SPIN=   0.00000
   O  -0.3454050  -0.3406275   0.6428158 SPIN=   0.00000
   O   0.2144177  -0.3335026  -0.1656357 SPIN=   0.00000
   O   0.3454050  -0.3406275   0.1428158 SPIN=   0.00000
   O  -0.2144177   0.3335026  -0.1656357 SPIN=   0.00000
   O  -0.3454050   0.3406275   0.1428158 SPIN=   0.00000
   S  -0.5000000  -0.5000000  -0.2456991 SPIN=   0.00000
   S   0.5000000   0.5000000   0.2543009 SPIN=   0.00000
   F  -0.5000000   0.0000000  -0.0283241 SPIN=   0.00000
   F   0.5000000   0.0000000   0.4716759 SPIN=   0.00000
%ENDBLOCK POSITIONS_FRAC

# Note: total spin =   8.00

KPOINTS_MP_SPACING 0.07

%BLOCK SPECIES_POT
QC5
%ENDBLOCK SPECIES_POT

SNAP_TO_SYMMETRY
SYMMETRY_GENERATE

