#              Generated by Buildcell
#
# at 03:50:15 (GMT+1.0) 4th August 2020
# in /lustre/scratch/uccabz1/launch_tmp
# on node-c12j-014
# by uccabz1
#
# compiler GCC version 4.9.2
# options -cpp -iprefix /lustre/shared/ucl/apps/gcc/4.9.2/bin/../lib/gcc/x86_64-unknown-linux-gnu/4.9.2/ -mtune=corei7 -march=x86-64 -g -Og
#
# seed -2096798605 -1061055991  1490449800  -710855737   491019450   960002088  1222200392  -300151079   257776790 -1532564564  -929417357   201477958
#
#      Author: C. J. Pickard (cjp20@cam.ac.uk)
#                Space group: P21
#

%BLOCK LATTICE_ABC
      5.71798      5.78388      6.45266
     90.00000     90.00000    110.41447
%ENDBLOCK LATTICE_ABC

%BLOCK POSITIONS_FRAC
  Li  -0.3613775   0.3535591  -0.4507634 SPIN=   0.00000
  Li   0.3613775  -0.3535591   0.0492366 SPIN=   0.00000
  Fe  -0.4467368   0.2090791   0.0456804 SPIN=   4.00000
  Fe   0.4467368  -0.2090791  -0.4543196 SPIN=   4.00000
   O  -0.2639883  -0.0920340  -0.1490627 SPIN=   0.00000
   O  -0.2055119  -0.4963151  -0.1502960 SPIN=   0.00000
   O   0.0893590  -0.1447721   0.0419949 SPIN=   0.00000
   O   0.0890083  -0.1435475  -0.3415461 SPIN=   0.00000
   S  -0.0727832  -0.2191672  -0.1497275 SPIN=   0.00000
   O   0.2639883   0.0920340   0.3509373 SPIN=   0.00000
   O   0.2055119   0.4963151   0.3497040 SPIN=   0.00000
   O  -0.0893590   0.1447721   0.5419949 SPIN=   0.00000
   O  -0.0890083   0.1435475   0.1584539 SPIN=   0.00000
   S   0.0727832   0.2191672   0.3502725 SPIN=   0.00000
   F  -0.2675106  -0.3997419   0.3502954 SPIN=   0.00000
   F   0.2675106   0.3997419  -0.1497046 SPIN=   0.00000
%ENDBLOCK POSITIONS_FRAC

# Note: total spin =   8.00

KPOINTS_MP_SPACING 0.07

%BLOCK SPECIES_POT
QC5
%ENDBLOCK SPECIES_POT

SNAP_TO_SYMMETRY
SYMMETRY_GENERATE

