#              Generated by Buildcell
#
# at 03:55:54 (GMT+1.0) 4th August 2020
# in /lustre/scratch/uccabz1/launch_tmp
# on node-c12f-034
# by uccabz1
#
# compiler GCC version 4.9.2
# options -cpp -iprefix /lustre/shared/ucl/apps/gcc/4.9.2/bin/../lib/gcc/x86_64-unknown-linux-gnu/4.9.2/ -mtune=corei7 -march=x86-64 -g -Og
#
# seed -1168634192  -706261952   448148113   431782337 -1598722289  1575826766 -2007905305  -493634781   666562589  -896486657  1489468265  -545462481
#
#      Author: C. J. Pickard (cjp20@cam.ac.uk)
#                Space group: Aea2
#

%BLOCK LATTICE_ABC
      5.35752      6.16897      6.61777
     90.00000    113.87755     90.00000
%ENDBLOCK LATTICE_ABC

%BLOCK POSITIONS_FRAC
  Li  -0.0939853   0.0000000  -0.1879706 SPIN=   0.00000
  Li   0.4060147  -0.5000000   0.8120294 SPIN=   0.00000
  Fe   0.1487460   0.0000000   0.2974920 SPIN=   4.00000
  Fe  -0.3512540  -0.5000000  -0.7025080 SPIN=   4.00000
   O  -0.4670721   0.1790066  -0.2456857 SPIN=   0.00000
   O  -0.3378515  -0.1280718   0.0174881 SPIN=   0.00000
   O   0.2213863  -0.1790066  -0.2456857 SPIN=   0.00000
   O   0.3553395   0.1280718   0.0174881 SPIN=   0.00000
   O  -0.2786137  -0.3209934  -0.2456857 SPIN=   0.00000
   O  -0.1446605  -0.6280718   0.0174881 SPIN=   0.00000
   O   0.0329279   0.3209934  -0.2456857 SPIN=   0.00000
   O   0.1621485   0.6280718   0.0174881 SPIN=   0.00000
   S   0.4236186   0.0000000   0.8472371 SPIN=   0.00000
   S  -0.0763814  -0.5000000  -0.1527629 SPIN=   0.00000
   F  -0.2763747   0.0000000  -0.5527495 SPIN=   0.00000
   F   0.2236253  -0.5000000   0.4472505 SPIN=   0.00000
%ENDBLOCK POSITIONS_FRAC

# Note: total spin =   8.00

KPOINTS_MP_SPACING 0.07

%BLOCK SPECIES_POT
QC5
%ENDBLOCK SPECIES_POT

SNAP_TO_SYMMETRY
SYMMETRY_GENERATE

