#              Generated by Buildcell
#
# at 04:37:17 (GMT+1.0) 4th August 2020
# in /lustre/scratch/uccabz1/launch_tmp
# on node-c12l-034
# by uccabz1
#
# compiler GCC version 4.9.2
# options -cpp -iprefix /lustre/shared/ucl/apps/gcc/4.9.2/bin/../lib/gcc/x86_64-unknown-linux-gnu/4.9.2/ -mtune=corei7 -march=x86-64 -g -Og
#
# seed -1779580389  -936074218  -527967883 -1906741594  1691662635  -754189785  -215257953  -173649976   349528199   980728314  1517222770   210264203
#
#      Author: C. J. Pickard (cjp20@cam.ac.uk)
#                Space group: Fdd2
#

%BLOCK LATTICE_ABC
      5.65170      5.65170      7.40629
    111.92599    111.92599     91.22227
%ENDBLOCK LATTICE_ABC

%BLOCK POSITIONS_FRAC
  Li  -0.1976518  -0.1976518  -0.3953037 SPIN=   0.00000
  Li  -0.4476518   0.0523482   0.1046963 SPIN=   0.00000
  Fe   0.1569517  -0.3430483   0.3139034 SPIN=   4.00000
  Fe   0.4069517   0.4069517  -0.1860966 SPIN=   4.00000
   O   0.1816825  -0.1401565  -0.0565837 SPIN=   0.00000
   O   0.0679268   0.2401756  -0.1374305 SPIN=   0.00000
   O  -0.2382663   0.0835728  -0.0565837 SPIN=   0.00000
   O  -0.2053573  -0.3776061  -0.1374305 SPIN=   0.00000
   O  -0.3901565   0.4316825   0.4434163 SPIN=   0.00000
   O  -0.0098244   0.3179268   0.3625695 SPIN=   0.00000
   O  -0.1664272   0.0117337   0.4434163 SPIN=   0.00000
   O  -0.6276061   0.0446427   0.3625695 SPIN=   0.00000
   S   0.0189615   0.0189615   0.0379230 SPIN=   0.00000
   S  -0.2310385   0.2689615  -0.4620770 SPIN=   0.00000
   F  -0.4481535  -0.4481535   0.1036930 SPIN=   0.00000
   F   0.3018465  -0.1981535  -0.3963070 SPIN=   0.00000
%ENDBLOCK POSITIONS_FRAC

# Note: total spin =   8.00

KPOINTS_MP_SPACING 0.07

%BLOCK SPECIES_POT
QC5
%ENDBLOCK SPECIES_POT

SNAP_TO_SYMMETRY
SYMMETRY_GENERATE

