#              Generated by Buildcell
#
# at 00:32:34 (GMT+1.0) 19th August 2020
# in /lustre/scratch/uccabz1/launch_tmp
# on node-c12j-026
# by uccabz1
#
# compiler GCC version 4.9.2
# options -cpp -iprefix /lustre/shared/ucl/apps/gcc/4.9.2/bin/../lib/gcc/x86_64-unknown-linux-gnu/4.9.2/ -mtune=corei7 -march=x86-64 -g -Og
#
# seed   901131017  -417751025  1186505516   446593716 -1085171689  -454867800  -734941548 -1068340288  -951098691  2078548916 -1917348002  1913377073
#
#      Author: C. J. Pickard (cjp20@cam.ac.uk)
#                Space group: P-1
#

%BLOCK LATTICE_ABC
      4.46049      6.77533      7.34189
    106.75780    105.80205     96.44473
%ENDBLOCK LATTICE_ABC

%BLOCK POSITIONS_FRAC
  Li   0.7320095   0.2683241   0.2461507 SPIN=   0.00000
  Li  -0.7320095  -0.2683241  -0.2461507 SPIN=   0.00000
  Fe   0.1983454   0.7425401   0.3305727 SPIN=   4.00000
  Fe  -0.1983454  -0.7425401  -0.3305727 SPIN=   4.00000
   O  -0.0438482   0.0294551   0.2710013 SPIN=   0.00000
   O   0.4129920  -0.0072290   0.1427262 SPIN=   0.00000
   O   0.4264899   0.3224473   0.4048822 SPIN=   0.00000
   O   0.0641065   0.2344975   0.0578424 SPIN=   0.00000
   O   0.0438482  -0.0294551  -0.2710013 SPIN=   0.00000
   O  -0.4129920   0.0072290  -0.1427262 SPIN=   0.00000
   O  -0.4264899  -0.3224473  -0.4048822 SPIN=   0.00000
   O  -0.0641065  -0.2344975  -0.0578424 SPIN=   0.00000
   S  -0.5000000  -0.5000000  -0.0000000 SPIN=   0.00000
   S   0.0000000   0.0000000   0.0000000 SPIN=   0.00000
   F  -1.0000000  -0.5000000  -0.5000000 SPIN=   0.00000
   F   0.5000000  -0.0000000   0.5000000 SPIN=   0.00000
%ENDBLOCK POSITIONS_FRAC

# Note: total spin =   8.00

KPOINTS_MP_SPACING 0.07

%BLOCK SPECIES_POT
QC5
%ENDBLOCK SPECIES_POT

SNAP_TO_SYMMETRY
SYMMETRY_GENERATE

