#              Generated by Buildcell
#
# at 05:45:59 (GMT+1.0) 4th August 2020
# in /lustre/scratch/uccabz1/launch_tmp
# on node-c12j-005
# by uccabz1
#
# compiler GCC version 4.9.2
# options -cpp -iprefix /lustre/shared/ucl/apps/gcc/4.9.2/bin/../lib/gcc/x86_64-unknown-linux-gnu/4.9.2/ -mtune=corei7 -march=x86-64 -g -Og
#
# seed -1863877141 -1702331686  1353428095 -1805703853  1994965677   372543888  1658241606 -1555530798   392943885  2111958026  1136609727  2081698651
#
#      Author: C. J. Pickard (cjp20@cam.ac.uk)
#                Space group: P21
#

%BLOCK LATTICE_ABC
      5.26416      5.73828      6.93242
     90.00000     90.00000    107.24071
%ENDBLOCK LATTICE_ABC

%BLOCK POSITIONS_FRAC
  Li   0.2447176  -0.0671827  -0.1693281 SPIN=   0.00000
  Li  -0.2447176   0.0671827   0.3306719 SPIN=   0.00000
  Fe  -0.3282146  -0.2875484  -0.0505364 SPIN=   4.00000
  Fe   0.3282146   0.2875484   0.4494636 SPIN=   4.00000
   O  -0.3076409  -0.4059182  -0.3514753 SPIN=   0.00000
   O   0.0851987  -0.0505641  -0.4143707 SPIN=   0.00000
   O  -0.2046132  -0.2517324  -0.6845798 SPIN=   0.00000
   O   0.0832759  -0.4625141  -0.5214591 SPIN=   0.00000
   S  -0.0859449  -0.2926822  -0.4929712 SPIN=   0.00000
   O   0.3076409   0.4059182   0.1485247 SPIN=   0.00000
   O  -0.0851987   0.0505641   0.0856293 SPIN=   0.00000
   O   0.2046132   0.2517324  -0.1845798 SPIN=   0.00000
   O  -0.0832759   0.4625141  -0.0214591 SPIN=   0.00000
   S   0.0859449   0.2926822   0.0070288 SPIN=   0.00000
   F   0.4066698  -0.1202158   0.1602600 SPIN=   0.00000
   F  -0.4066698   0.1202158  -0.3397400 SPIN=   0.00000
%ENDBLOCK POSITIONS_FRAC

# Note: total spin =   8.00

KPOINTS_MP_SPACING 0.07

%BLOCK SPECIES_POT
QC5
%ENDBLOCK SPECIES_POT

SNAP_TO_SYMMETRY
SYMMETRY_GENERATE

