#              Generated by Buildcell
#
# at 03:05:54 (GMT+1.0) 4th August 2020
# in /lustre/scratch/uccabz1/launch_tmp
# on node-c12o-001
# by uccabz1
#
# compiler GCC version 4.9.2
# options -cpp -iprefix /lustre/shared/ucl/apps/gcc/4.9.2/bin/../lib/gcc/x86_64-unknown-linux-gnu/4.9.2/ -mtune=corei7 -march=x86-64 -g -Og
#
# seed   -86399984 -1582337765  -368639070    21081502  1430887598  -763528008 -2018523972 -1244941425  -901940546 -1867254344  1653285605 -1028214991
#
#      Author: C. J. Pickard (cjp20@cam.ac.uk)
#                Space group: P-1
#

%BLOCK LATTICE_ABC
      5.36003      6.45824      6.82017
    103.45232    105.82961    109.50297
%ENDBLOCK LATTICE_ABC

%BLOCK POSITIONS_FRAC
  Li   0.1199435   0.6669844   0.2922751 SPIN=   0.00000
  Li  -0.1199435  -0.6669844  -0.2922751 SPIN=   0.00000
  Fe  -0.3839825  -0.1556721  -0.2055436 SPIN=   4.00000
  Fe   0.3839825   0.1556721   0.2055436 SPIN=   4.00000
   O  -0.8735444  -0.8882525  -0.2465120 SPIN=   0.00000
   O  -0.7369554  -0.5412382  -0.3573708 SPIN=   0.00000
   O  -0.6120249  -0.8672385  -0.4947762 SPIN=   0.00000
   O  -0.3644033  -0.6064544  -0.1065187 SPIN=   0.00000
   S  -0.6467320  -0.7257959  -0.3012944 SPIN=   0.00000
   O   0.8735444   0.8882525   0.2465120 SPIN=   0.00000
   O   0.7369554   0.5412382   0.3573708 SPIN=   0.00000
   O   0.6120249   0.8672385   0.4947762 SPIN=   0.00000
   O   0.3644033   0.6064544   0.1065187 SPIN=   0.00000
   S   0.6467320   0.7257959   0.3012944 SPIN=   0.00000
   F  -0.0864817   0.2657050   0.1626064 SPIN=   0.00000
   F   0.0864817  -0.2657050  -0.1626064 SPIN=   0.00000
%ENDBLOCK POSITIONS_FRAC

# Note: total spin =   8.00

KPOINTS_MP_SPACING 0.07

%BLOCK SPECIES_POT
QC5
%ENDBLOCK SPECIES_POT

SNAP_TO_SYMMETRY
SYMMETRY_GENERATE

