#              Generated by Buildcell
#
# at 04:46:54 (GMT+1.0) 4th August 2020
# in /lustre/scratch/uccabz1/launch_tmp
# on node-c12p-029
# by uccabz1
#
# compiler GCC version 4.9.2
# options -cpp -iprefix /lustre/shared/ucl/apps/gcc/4.9.2/bin/../lib/gcc/x86_64-unknown-linux-gnu/4.9.2/ -mtune=corei7 -march=x86-64 -g -Og
#
# seed  -632200949   733221363   686693612  1160950368  1439652342  -196356310  -360148224  -786174847  1767141317  1858798362 -2147065671   193525084
#
#      Author: C. J. Pickard (cjp20@cam.ac.uk)
#                Space group: C2
#

%BLOCK LATTICE_ABC
      4.10222      4.10222     12.78656
     87.12906     87.12906     68.62135
%ENDBLOCK LATTICE_ABC

%BLOCK POSITIONS_FRAC
  Li   0.2277567  -0.1546785   0.1916215 SPIN=   0.00000
  Li   0.1546785  -0.2277567  -0.1916215 SPIN=   0.00000
  Fe   0.1507628  -0.1507628  -0.5000000 SPIN=   2.19281
  Fe  -0.3108829   0.3108829  -0.0000000 SPIN=   5.80719
   O   0.4218649  -0.4113003   0.3693988 SPIN=   0.00000
   O   1.0491175  -0.7090005   0.4075196 SPIN=   0.00000
   O   0.8431823  -0.1204349   0.3202799 SPIN=   0.00000
   O   0.8583107  -0.6354149   0.2244297 SPIN=   0.00000
   S   0.7931188  -0.4690377   0.3304070 SPIN=   0.00000
   O  -0.5886997   0.5781351  -0.3693988 SPIN=   0.00000
   O  -0.2909995  -0.0491175  -0.4075196 SPIN=   0.00000
   O  -0.8795651   0.1568177  -0.3202799 SPIN=   0.00000
   O  -0.3645851   0.1416893  -0.2244297 SPIN=   0.00000
   S  -0.5309623   0.2068812  -0.3304070 SPIN=   0.00000
   F   0.8338410  -0.4288439  -0.1149126 SPIN=   0.00000
   F  -0.5711561   0.1661590   0.1149126 SPIN=   0.00000
%ENDBLOCK POSITIONS_FRAC

# Note: total spin =   8.00

KPOINTS_MP_SPACING 0.07

%BLOCK SPECIES_POT
QC5
%ENDBLOCK SPECIES_POT

SNAP_TO_SYMMETRY
SYMMETRY_GENERATE

