#              Generated by Buildcell
#
# at 05:45:42 (GMT+1.0) 4th August 2020
# in /lustre/scratch/uccabz1/launch_tmp
# on node-c12f-007
# by uccabz1
#
# compiler GCC version 4.9.2
# options -cpp -iprefix /lustre/shared/ucl/apps/gcc/4.9.2/bin/../lib/gcc/x86_64-unknown-linux-gnu/4.9.2/ -mtune=corei7 -march=x86-64 -g -Og
#
# seed  1336794966  1366176649 -1202154090 -2032636427  1912116876  1954645836  1338037552  -266584718  -600403289 -1469841339 -1846929722  2085864668
#
#      Author: C. J. Pickard (cjp20@cam.ac.uk)
#                Space group: Pnn2
#

%BLOCK LATTICE_ABC
      3.93176      6.78559      7.49645
     90.00000     90.00000     90.00000
%ENDBLOCK LATTICE_ABC

%BLOCK POSITIONS_FRAC
  Li   0.0000000  -0.0000000  -0.0155957 SPIN=   0.00000
  Li  -0.5000000  -0.5000000   0.4844043 SPIN=   0.00000
  Fe  -0.5000000  -0.0000000   0.2739399 SPIN=   4.00000
  Fe   0.0000000   0.5000000  -0.2260601 SPIN=   4.00000
   O   0.2078235   0.6286211   0.0499462 SPIN=   0.00000
   O   0.2987637   0.3199129   0.2191601 SPIN=   0.00000
   O  -0.2078235  -0.6286211   0.0499462 SPIN=   0.00000
   O  -0.2987637  -0.3199129   0.2191601 SPIN=   0.00000
   O  -0.2921765  -0.1286211  -0.4500538 SPIN=   0.00000
   O  -0.2012363   0.1800871  -0.2808399 SPIN=   0.00000
   O   0.2921765   0.1286211  -0.4500538 SPIN=   0.00000
   O   0.2012363  -0.1800871  -0.2808399 SPIN=   0.00000
   S  -0.5000000  -0.5000000   0.1241232 SPIN=   0.00000
   S   0.0000000  -0.0000000  -0.3758768 SPIN=   0.00000
   F  -0.5000000  -0.0000000   0.0156385 SPIN=   0.00000
   F   0.0000000   0.5000000  -0.4843615 SPIN=   0.00000
%ENDBLOCK POSITIONS_FRAC

# Note: total spin =   8.00

KPOINTS_MP_SPACING 0.07

%BLOCK SPECIES_POT
QC5
%ENDBLOCK SPECIES_POT

SNAP_TO_SYMMETRY
SYMMETRY_GENERATE

