#              Generated by Buildcell
#
# at 03:13:58 (GMT+1.0) 4th August 2020
# in /lustre/scratch/uccabz1/launch_tmp
# on node-c12p-029
# by uccabz1
#
# compiler GCC version 4.9.2
# options -cpp -iprefix /lustre/shared/ucl/apps/gcc/4.9.2/bin/../lib/gcc/x86_64-unknown-linux-gnu/4.9.2/ -mtune=corei7 -march=x86-64 -g -Og
#
# seed  2073612413  2102645833   704634962 -1642183642 -1848325694  2122903279   531149772  1351043987  1004587528 -1554349471 -2027269304 -1833707016
#
#      Author: C. J. Pickard (cjp20@cam.ac.uk)
#                Space group: Pc
#

%BLOCK LATTICE_ABC
      4.38041      5.62427      8.11812
     90.00000     90.00000     90.30597
%ENDBLOCK LATTICE_ABC

%BLOCK POSITIONS_FRAC
  Li  -0.2411807  -0.4491503   0.2335586 SPIN=   0.00000
  Li   0.2588193   0.0508497  -0.2335586 SPIN=   0.00000
  Fe   0.1356783   0.1693483   0.4120601 SPIN=   4.00000
  Fe  -0.3643217  -0.3306517  -0.4120601 SPIN=   4.00000
   O  -0.5324291  -0.1364093   0.2543472 SPIN=   0.00000
   O  -0.0289777   0.0068119   0.1564456 SPIN=   0.00000
   O  -0.4833967   0.2635398   0.1296882 SPIN=   0.00000
   O  -0.4338115  -0.0953107  -0.0445042 SPIN=   0.00000
   S  -0.3696538   0.0096579   0.1239942 SPIN=   0.00000
   O  -0.0324291  -0.6364093  -0.2543472 SPIN=   0.00000
   O   0.4710223  -0.4931881  -0.1564456 SPIN=   0.00000
   O   0.0166033  -0.2364602  -0.1296882 SPIN=   0.00000
   O   0.0661885  -0.5953107   0.0445042 SPIN=   0.00000
   S   0.1303462  -0.4903421  -0.1239942 SPIN=   0.00000
   F   0.1162264  -0.4948025   0.3812565 SPIN=   0.00000
   F  -0.3837736   0.0051975  -0.3812565 SPIN=   0.00000
%ENDBLOCK POSITIONS_FRAC

# Note: total spin =   8.00

KPOINTS_MP_SPACING 0.07

%BLOCK SPECIES_POT
QC5
%ENDBLOCK SPECIES_POT

SNAP_TO_SYMMETRY
SYMMETRY_GENERATE

