#              Generated by Buildcell
#
# at 03:17:11 (GMT+1.0) 4th August 2020
# in /lustre/scratch/uccabz1/launch_tmp
# on node-c12g-008
# by uccabz1
#
# compiler GCC version 4.9.2
# options -cpp -iprefix /lustre/shared/ucl/apps/gcc/4.9.2/bin/../lib/gcc/x86_64-unknown-linux-gnu/4.9.2/ -mtune=corei7 -march=x86-64 -g -Og
#
# seed -1338403759  1923741224  1734119272      426530  1241319476  -104917983 -2122920968   589844557 -1797906655  -823171906   638473752  1243074084
#
#      Author: C. J. Pickard (cjp20@cam.ac.uk)
#                Space group: P-1
#

%BLOCK LATTICE_ABC
      3.98432      6.42138      8.41813
     72.30367     77.92018     82.06414
%ENDBLOCK LATTICE_ABC

%BLOCK POSITIONS_FRAC
  Li  -0.4788529   0.4314088  -0.2578037 SPIN=   0.00000
  Li   0.4788529  -0.4314088   0.2578037 SPIN=   0.00000
  Fe  -0.1734923  -0.2078103   0.4315673 SPIN=   4.00000
  Fe   0.1734923   0.2078103  -0.4315673 SPIN=   4.00000
   O  -0.3653568  -0.3572189   0.0136176 SPIN=   0.00000
   O  -0.8309891  -0.1949609  -0.1515151 SPIN=   0.00000
   O  -0.2333609  -0.2460917  -0.2997955 SPIN=   0.00000
   O  -0.3877496   0.0363317  -0.1461582 SPIN=   0.00000
   S  -0.4543641  -0.1904849  -0.1459628 SPIN=   0.00000
   O   0.3653568   0.3572189  -0.0136176 SPIN=   0.00000
   O   0.8309891   0.1949609   0.1515151 SPIN=   0.00000
   O   0.2333609   0.2460917   0.2997955 SPIN=   0.00000
   O   0.3877496  -0.0363317   0.1461582 SPIN=   0.00000
   S   0.4543641   0.1904849   0.1459628 SPIN=   0.00000
   F   0.0144864   0.3501260  -0.2367991 SPIN=   0.00000
   F  -0.0144864  -0.3501260   0.2367991 SPIN=   0.00000
%ENDBLOCK POSITIONS_FRAC

# Note: total spin =   8.00

KPOINTS_MP_SPACING 0.07

%BLOCK SPECIES_POT
QC5
%ENDBLOCK SPECIES_POT

SNAP_TO_SYMMETRY
SYMMETRY_GENERATE

