#              Generated by Buildcell
#
# at 04:42:06 (GMT+1.0) 4th August 2020
# in /lustre/scratch/uccabz1/launch_tmp
# on node-c12n-020
# by uccabz1
#
# compiler GCC version 4.9.2
# options -cpp -iprefix /lustre/shared/ucl/apps/gcc/4.9.2/bin/../lib/gcc/x86_64-unknown-linux-gnu/4.9.2/ -mtune=corei7 -march=x86-64 -g -Og
#
# seed  -856459602   363391067 -1742284123 -1009471104 -1493203230 -1339611982   886497342  1840830948 -1278422914   303290126  1700665262   486789250
#
#      Author: C. J. Pickard (cjp20@cam.ac.uk)
#                Space group: P21/m
#

%BLOCK LATTICE_ABC
      4.17287      5.21276      9.43265
     90.00000     90.00000    102.90217
%ENDBLOCK LATTICE_ABC

%BLOCK POSITIONS_FRAC
  Li  -0.4160596  -0.4824800  -0.2500000 SPIN=   0.00000
  Li   0.4160596   0.4824800   0.2500000 SPIN=   0.00000
  Fe   0.2045404  -0.0502623  -0.2500000 SPIN=   4.00000
  Fe  -0.2045404   0.0502623   0.2500000 SPIN=   4.00000
   O   0.0106268  -0.2279865  -0.0522844 SPIN=   0.00000
   O  -0.5226472  -0.2809550   0.0718604 SPIN=   0.00000
   O  -0.0106268   0.2279865  -0.5522844 SPIN=   0.00000
   O   0.5226472   0.2809550  -0.4281396 SPIN=   0.00000
   O  -0.0106268   0.2279865   0.0522844 SPIN=   0.00000
   O   0.5226472   0.2809550  -0.0718604 SPIN=   0.00000
   O   0.0106268  -0.2279865   0.5522844 SPIN=   0.00000
   O  -0.5226472  -0.2809550   0.4281396 SPIN=   0.00000
   S   0.0000000   0.5000000  -0.0000000 SPIN=   0.00000
   S  -0.0000000  -0.5000000   0.5000000 SPIN=   0.00000
   F  -0.2482772  -0.0039759  -0.2500000 SPIN=   0.00000
   F   0.2482772   0.0039759   0.2500000 SPIN=   0.00000
%ENDBLOCK POSITIONS_FRAC

# Note: total spin =   8.00

KPOINTS_MP_SPACING 0.07

%BLOCK SPECIES_POT
QC5
%ENDBLOCK SPECIES_POT

SNAP_TO_SYMMETRY
SYMMETRY_GENERATE

