#              Generated by Buildcell
#
# at 05:43:29 (GMT+1.0) 4th August 2020
# in /lustre/scratch/uccabz1/launch_tmp
# on node-c12g-032
# by uccabz1
#
# compiler GCC version 4.9.2
# options -cpp -iprefix /lustre/shared/ucl/apps/gcc/4.9.2/bin/../lib/gcc/x86_64-unknown-linux-gnu/4.9.2/ -mtune=corei7 -march=x86-64 -g -Og
#
# seed    63399592  1172459066 -1542746773   779312056   -73073849 -1373776975  1920115025  -999407592   847322603  -237727619  1696365255  1424504178
#
#      Author: C. J. Pickard (cjp20@cam.ac.uk)
#                Space group: Pcc2
#

%BLOCK LATTICE_ABC
      3.97140      5.90499      8.52840
     90.00000     90.00000     90.00000
%ENDBLOCK LATTICE_ABC

%BLOCK POSITIONS_FRAC
  Li   0.0000000   0.0000000  -0.0424427 SPIN=   0.00000
  Li  -0.0000000   0.0000000   0.4575573 SPIN=   0.00000
  Fe  -0.5000000   0.5000000   0.0318200 SPIN=   4.00000
  Fe   0.5000000  -0.5000000  -0.4681800 SPIN=   4.00000
   O   0.2064334   0.1514594   0.1681256 SPIN=   0.00000
   O   0.4999645   0.1913234  -0.0863660 SPIN=   0.00000
   O  -0.2064334  -0.1514594   0.1681256 SPIN=   0.00000
   O  -0.4999645  -0.1913234  -0.0863660 SPIN=   0.00000
   O   0.2064334  -0.1514594  -0.3318744 SPIN=   0.00000
   O   0.4999645  -0.1913234  -0.5863660 SPIN=   0.00000
   O  -0.2064334   0.1514594  -0.3318744 SPIN=   0.00000
   O  -0.4999645   0.1913234  -0.5863660 SPIN=   0.00000
   S   0.5000000   0.0000000  -0.2877309 SPIN=   0.00000
   S   0.5000000   0.0000000   0.2122691 SPIN=   0.00000
   F  -0.0000000   0.5000000   0.3590458 SPIN=   0.00000
   F   0.0000000   0.5000000  -0.1409542 SPIN=   0.00000
%ENDBLOCK POSITIONS_FRAC

# Note: total spin =   8.00

KPOINTS_MP_SPACING 0.07

%BLOCK SPECIES_POT
QC5
%ENDBLOCK SPECIES_POT

SNAP_TO_SYMMETRY
SYMMETRY_GENERATE

