#              Generated by Buildcell
#
# at 02:46:04 (GMT+1.0) 4th August 2020
# in /lustre/scratch/uccabz1/launch_tmp
# on node-c12m-029
# by uccabz1
#
# compiler GCC version 4.9.2
# options -cpp -iprefix /lustre/shared/ucl/apps/gcc/4.9.2/bin/../lib/gcc/x86_64-unknown-linux-gnu/4.9.2/ -mtune=corei7 -march=x86-64 -g -Og
#
# seed  1481313195  -407194835   716106016   -95502006    56820113   670273276 -1840123515  -144176803   739927838  -816673632 -1772801311 -1061418727
#
#      Author: C. J. Pickard (cjp20@cam.ac.uk)
#                Space group: P2/c
#

%BLOCK LATTICE_ABC
      3.88077      6.90661      7.51433
     90.00000     96.77504     90.00000
%ENDBLOCK LATTICE_ABC

%BLOCK POSITIONS_FRAC
  Li   0.0000000  -0.0511120   0.2500000 SPIN=   0.00000
  Li   0.0000000   0.0511120  -0.2500000 SPIN=   0.00000
  Fe   0.0000000   0.5000000   0.0000000 SPIN=   4.00000
  Fe   1.0000000   0.5000000   0.5000000 SPIN=   4.00000
   O  -0.2663789  -0.0865380  -0.5397766 SPIN=   0.00000
   O   0.2852946  -0.2476046  -0.4254605 SPIN=   0.00000
   O   0.2663789  -0.0865380   0.0397766 SPIN=   0.00000
   O  -0.2852946  -0.2476046  -0.0745395 SPIN=   0.00000
   O   0.2663789   0.0865380   0.5397766 SPIN=   0.00000
   O  -0.2852946   0.2476046   0.4254605 SPIN=   0.00000
   O  -0.2663789   0.0865380  -0.0397766 SPIN=   0.00000
   O   0.2852946   0.2476046   0.0745395 SPIN=   0.00000
   S   0.5000000   0.2287409   0.2500000 SPIN=   0.00000
   S  -0.5000000  -0.2287409  -0.2500000 SPIN=   0.00000
   F   0.0000000  -0.3442837   0.2500000 SPIN=   0.00000
   F  -0.0000000   0.3442837  -0.2500000 SPIN=   0.00000
%ENDBLOCK POSITIONS_FRAC

# Note: total spin =   8.00

KPOINTS_MP_SPACING 0.07

%BLOCK SPECIES_POT
QC5
%ENDBLOCK SPECIES_POT

SNAP_TO_SYMMETRY
SYMMETRY_GENERATE

