#              Generated by Buildcell
#
# at 02:06:21 (GMT+1.0) 4th August 2020
# in /lustre/scratch/uccabz1/launch_tmp
# on node-c12h-015
# by uccabz1
#
# compiler GCC version 4.9.2
# options -cpp -iprefix /lustre/shared/ucl/apps/gcc/4.9.2/bin/../lib/gcc/x86_64-unknown-linux-gnu/4.9.2/ -mtune=corei7 -march=x86-64 -g -Og
#
# seed -1405082594  1968151273  1393695061  -706439891  -896285242 -2115111660 -1015943695  -208716351  -470556465  1842756032 -1609062269  -200702662
#
#      Author: C. J. Pickard (cjp20@cam.ac.uk)
#                Space group: Cc
#

%BLOCK LATTICE_ABC
      5.96157      6.56393      6.56393
     60.05571     67.67404     67.67404
%ENDBLOCK LATTICE_ABC

%BLOCK POSITIONS_FRAC
  Li  -0.1313081  -0.2329676   0.1443810 SPIN=   0.00000
  Li   0.3686919   0.1443810  -0.2329676 SPIN=   0.00000
  Fe  -0.1735002   0.4145915  -0.2273284 SPIN=   4.00000
  Fe   0.3264998  -0.2273284   0.4145915 SPIN=   4.00000
   O  -0.2799224   0.2336706   0.4429675 SPIN=   0.00000
   O  -0.0519893  -0.0307579   0.2246242 SPIN=   0.00000
   O  -0.5131754   0.0565452   0.3551032 SPIN=   0.00000
   O  -0.2597023  -0.2056631   0.6596033 SPIN=   0.00000
   S  -0.2761973   0.0134487   0.4205745 SPIN=   0.00000
   O   0.2200776   0.4429675   0.2336706 SPIN=   0.00000
   O   0.4480107   0.2246242  -0.0307579 SPIN=   0.00000
   O  -0.0131754   0.3551032   0.0565452 SPIN=   0.00000
   O   0.2402977   0.6596033  -0.2056631 SPIN=   0.00000
   S   0.2238027   0.4205745   0.0134487 SPIN=   0.00000
   F   0.0420831   0.1467969  -0.2804261 SPIN=   0.00000
   F  -0.4579169  -0.2804261   0.1467969 SPIN=   0.00000
%ENDBLOCK POSITIONS_FRAC

# Note: total spin =   8.00

KPOINTS_MP_SPACING 0.07

%BLOCK SPECIES_POT
QC5
%ENDBLOCK SPECIES_POT

SNAP_TO_SYMMETRY
SYMMETRY_GENERATE

