#              Generated by Buildcell
#
# at 23:34:13 (GMT+1.0) 18th August 2020
# in /lustre/scratch/uccabz1/launch_tmp
# on node-c12c-009
# by uccabz1
#
# compiler GCC version 4.9.2
# options -cpp -iprefix /lustre/shared/ucl/apps/gcc/4.9.2/bin/../lib/gcc/x86_64-unknown-linux-gnu/4.9.2/ -mtune=corei7 -march=x86-64 -g -Og
#
# seed  1334425830 -1123483380 -1437446868  1191807570 -1800452356 -1685298196  1768946086    97825815  1309456475  -921462968 -2063944102 -1068772936
#
#      Author: C. J. Pickard (cjp20@cam.ac.uk)
#                Space group: P2
#

%BLOCK LATTICE_ABC
      3.86974      6.96794      7.77934
    107.54942     90.00000     90.00000
%ENDBLOCK LATTICE_ABC

%BLOCK POSITIONS_FRAC
  Li   0.4178907  -0.1568905   0.1616861 SPIN=   0.00000
  Li   0.4178907   0.1568905  -0.1616861 SPIN=   0.00000
  Fe  -0.0354447   0.1908089   0.3938379 SPIN=   4.00000
  Fe  -0.0354447  -0.1908089  -0.3938379 SPIN=   4.00000
   O   0.7258516  -0.5687354  -0.1633724 SPIN=   0.00000
   O   0.2011340  -0.6680215  -0.3510951 SPIN=   0.00000
   O   0.5416129  -0.3722344  -0.3645626 SPIN=   0.00000
   O   0.2002198  -0.3572037  -0.0917932 SPIN=   0.00000
   S   0.4172046  -0.4915487  -0.2427058 SPIN=   0.00000
   O   0.7258516   0.5687354   0.1633724 SPIN=   0.00000
   O   0.2011340   0.6680215   0.3510951 SPIN=   0.00000
   O   0.5416129   0.3722344   0.3645626 SPIN=   0.00000
   O   0.2002198   0.3572037   0.0917932 SPIN=   0.00000
   S   0.4172046   0.4915487   0.2427058 SPIN=   0.00000
   F  -0.0820207  -0.0559614   0.2071460 SPIN=   0.00000
   F  -0.0820207   0.0559614  -0.2071460 SPIN=   0.00000
%ENDBLOCK POSITIONS_FRAC

# Note: total spin =   8.00

KPOINTS_MP_SPACING 0.07

%BLOCK SPECIES_POT
QC5
%ENDBLOCK SPECIES_POT

SNAP_TO_SYMMETRY
SYMMETRY_GENERATE

