#              Generated by Buildcell
#
# at 00:37:05 (GMT+1.0) 19th August 2020
# in /scratch/scratch/uccabz1/launch_tmp
# on node-k10c-035
# by uccabz1
#
# compiler GCC version 4.9.2
# options -cpp -iprefix /scratch/UCL/applications/gcc/4.9.2/bin/../lib/gcc/x86_64-unknown-linux-gnu/4.9.2/ -mtune=corei7 -march=x86-64 -g -O2
#
# seed   342483352  -188391435   -60820543   759577503   131303194  -178684018   412207251  1437277789  2039377992   187881924  1643339142  1724543365
#
#      Author: C. J. Pickard (cjp20@cam.ac.uk)
#                Space group: P-1
#

%BLOCK LATTICE_ABC
      4.12904      6.38221      8.30817
     71.50740     87.85450     74.68042
%ENDBLOCK LATTICE_ABC

%BLOCK POSITIONS_FRAC
  Li   0.1173497   0.1926897  -0.4069207 SPIN=   0.00000
  Li  -0.1173497  -0.1926897   0.4069207 SPIN=   0.00000
  Fe  -0.1365169   0.2640680   0.1474397 SPIN=   4.00000
  Fe   0.1365169  -0.2640680  -0.1474397 SPIN=   4.00000
   O   0.4710242  -0.3267943   0.3987782 SPIN=   0.00000
   O   0.6470207  -0.3966613   0.1281442 SPIN=   0.00000
   O   0.4868891  -0.0009852   0.1420720 SPIN=   0.00000
   O   0.0524153  -0.2093047   0.1596202 SPIN=   0.00000
   S   0.4143373  -0.2334364   0.2071536 SPIN=   0.00000
   O  -0.4710242   0.3267943  -0.3987782 SPIN=   0.00000
   O  -0.6470207   0.3966613  -0.1281442 SPIN=   0.00000
   O  -0.4868891   0.0009852  -0.1420720 SPIN=   0.00000
   O  -0.0524153   0.2093047  -0.1596202 SPIN=   0.00000
   S  -0.4143373   0.2334364  -0.2071536 SPIN=   0.00000
   F   0.1386323   0.2586529   0.3404466 SPIN=   0.00000
   F  -0.1386323  -0.2586529  -0.3404466 SPIN=   0.00000
%ENDBLOCK POSITIONS_FRAC

# Note: total spin =   8.00

KPOINTS_MP_SPACING 0.07

%BLOCK SPECIES_POT
QC5
%ENDBLOCK SPECIES_POT

SNAP_TO_SYMMETRY
SYMMETRY_GENERATE

