#              Generated by Buildcell
#
# at 05:19:24 (GMT+1.0) 4th August 2020
# in /lustre/scratch/uccabz1/launch_tmp
# on node-c12c-001
# by uccabz1
#
# compiler GCC version 4.9.2
# options -cpp -iprefix /lustre/shared/ucl/apps/gcc/4.9.2/bin/../lib/gcc/x86_64-unknown-linux-gnu/4.9.2/ -mtune=corei7 -march=x86-64 -g -Og
#
# seed   868746176  2063777781 -1573346847   411317151 -1426013858   110766262  -585325753  -655362276  1583964436   -51935798  -715997554  -454244944
#
#      Author: C. J. Pickard (cjp20@cam.ac.uk)
#                Space group: Pm
#

%BLOCK LATTICE_ABC
      4.02957      6.47598      8.04227
     90.00000     90.00000    107.63863
%ENDBLOCK LATTICE_ABC

%BLOCK POSITIONS_FRAC
  Li   0.5030558   0.2622847   0.0000000 SPIN=   0.00000
  Li   0.2616249   0.0227766   0.5000000 SPIN=   0.00000
  Fe  -0.2976295  -0.1371517  -0.2351329 SPIN=   4.00000
  Fe  -0.2976295  -0.1371517   0.2351329 SPIN=   4.00000
   O  -0.1223726   0.6044061   0.3621969 SPIN=   0.00000
   O  -0.1243402   0.2218822   0.3603089 SPIN=   0.00000
   O   0.3677482   0.5058150   0.2346234 SPIN=   0.00000
   S  -0.0221610   0.4327835   0.2637725 SPIN=   0.00000
   O  -0.1223726   0.6044061  -0.3621969 SPIN=   0.00000
   O  -0.1243402   0.2218822  -0.3603089 SPIN=   0.00000
   O   0.3677482   0.5058150  -0.2346234 SPIN=   0.00000
   S  -0.0221610   0.4327835  -0.2637725 SPIN=   0.00000
   O   0.3648152   0.3658327   0.5000000 SPIN=   0.00000
   O  -0.4607579  -0.1883784   0.5000000 SPIN=   0.00000
   F   0.2604178  -0.0145908   0.2499096 SPIN=   0.00000
   F   0.2604178  -0.0145908  -0.2499096 SPIN=   0.00000
%ENDBLOCK POSITIONS_FRAC

# Note: total spin =   8.00

KPOINTS_MP_SPACING 0.07

%BLOCK SPECIES_POT
QC5
%ENDBLOCK SPECIES_POT

SNAP_TO_SYMMETRY
SYMMETRY_GENERATE

