#              Generated by Buildcell
#
# at 01:04:54 (GMT+1.0) 19th August 2020
# in /scratch/scratch/uccabz1/launch_tmp
# on node-k10g-003
# by uccabz1
#
# compiler GCC version 4.9.2
# options -cpp -iprefix /scratch/UCL/applications/gcc/4.9.2/bin/../lib/gcc/x86_64-unknown-linux-gnu/4.9.2/ -mtune=corei7 -march=x86-64 -g -O2
#
# seed  1989686988 -1322496545  1780731896  -214118689   623521619 -1568064584 -1108942257  2116936322  -962059340  1785048219  -114046850  1315025586
#
#      Author: C. J. Pickard (cjp20@cam.ac.uk)
#                Space group: Pmn21
#

%BLOCK LATTICE_ABC
      4.76518      5.88791      7.12836
     90.00000     90.00000     90.00000
%ENDBLOCK LATTICE_ABC

%BLOCK POSITIONS_FRAC
  Li   0.0000000  -0.0431971   0.1276312 SPIN=   0.00000
  Li   0.5000000   0.0431971  -0.3723688 SPIN=   0.00000
  Fe   0.0000000   0.3739918  -0.2508050 SPIN=   4.00000
  Fe  -0.5000000  -0.3739918   0.2491950 SPIN=   4.00000
   O  -0.2499919   0.2504962   0.1777637 SPIN=   0.00000
   O  -0.2500538   0.0919362  -0.1437736 SPIN=   0.00000
   O  -0.2500081  -0.2504962  -0.3222363 SPIN=   0.00000
   O  -0.2499462  -0.0919362  -0.6437736 SPIN=   0.00000
   O   0.2500081  -0.2504962  -0.3222363 SPIN=   0.00000
   O   0.2499462  -0.0919362  -0.6437736 SPIN=   0.00000
   O   0.2499919   0.2504962   0.1777637 SPIN=   0.00000
   O   0.2500538   0.0919362  -0.1437736 SPIN=   0.00000
   S   0.0000000  -0.1410498  -0.4758630 SPIN=   0.00000
   S   0.5000000   0.1410498   0.0241370 SPIN=   0.00000
   F   0.0000000  -0.3564298   0.0250107 SPIN=   0.00000
   F   0.5000000   0.3564298  -0.4749893 SPIN=   0.00000
%ENDBLOCK POSITIONS_FRAC

# Note: total spin =   8.00

KPOINTS_MP_SPACING 0.07

%BLOCK SPECIES_POT
QC5
%ENDBLOCK SPECIES_POT

SNAP_TO_SYMMETRY
SYMMETRY_GENERATE

