#              Generated by Buildcell
#
# at 19:59:37 (GMT+1.0) 18th August 2020
# in /lustre/scratch/uccabz1/launch_tmp
# on node-c12i-024
# by uccabz1
#
# compiler GCC version 4.9.2
# options -cpp -iprefix /lustre/shared/ucl/apps/gcc/4.9.2/bin/../lib/gcc/x86_64-unknown-linux-gnu/4.9.2/ -mtune=corei7 -march=x86-64 -g -Og
#
# seed  -853960680  -238230966 -1032292209   922417419 -1370608172 -1528543224 -1963593065 -2122123999  1613536023   430485512   547564655  1522120134
#
#      Author: C. J. Pickard (cjp20@cam.ac.uk)
#                Space group: Cc
#

%BLOCK LATTICE_ABC
      4.25246      4.25246     11.50590
     94.47186     94.47186    104.28360
%ENDBLOCK LATTICE_ABC

%BLOCK POSITIONS_FRAC
  Li   0.0242281  -0.0236289  -0.3486649 SPIN=   0.00000
  Li  -0.0236289   0.0242281   0.1513351 SPIN=   0.00000
  Fe  -0.1074956  -0.4546219   0.3347335 SPIN=   4.00000
  Fe  -0.4546219  -0.1074956  -0.1652665 SPIN=   4.00000
   O  -0.5784705   0.4692139   0.1848806 SPIN=   0.00000
   O  -0.4361917   0.7726774   0.0133423 SPIN=   0.00000
   O  -0.7160982   0.1843783  -0.0154082 SPIN=   0.00000
   O  -0.1402693   0.3654558   0.0696391 SPIN=   0.00000
   S  -0.4677574   0.4479313   0.0631134 SPIN=   0.00000
   O   0.4692139  -0.5784705  -0.3151194 SPIN=   0.00000
   O   0.7726774  -0.4361917  -0.4866577 SPIN=   0.00000
   O   0.1843783  -0.7160982  -0.5154082 SPIN=   0.00000
   O   0.3654558  -0.1402693  -0.4303609 SPIN=   0.00000
   S   0.4479313  -0.4677574  -0.4368866 SPIN=   0.00000
   F   0.1955400  -0.0858641   0.2962636 SPIN=   0.00000
   F  -0.0858641   0.1955400  -0.2037364 SPIN=   0.00000
%ENDBLOCK POSITIONS_FRAC

# Note: total spin =   8.00

KPOINTS_MP_SPACING 0.07

%BLOCK SPECIES_POT
QC5
%ENDBLOCK SPECIES_POT

SNAP_TO_SYMMETRY
SYMMETRY_GENERATE

