#              Generated by Buildcell
#
# at 03:48:42 (GMT+1.0) 4th August 2020
# in /lustre/scratch/uccabz1/launch_tmp
# on node-c12l-011
# by uccabz1
#
# compiler GCC version 4.9.2
# options -cpp -iprefix /lustre/shared/ucl/apps/gcc/4.9.2/bin/../lib/gcc/x86_64-unknown-linux-gnu/4.9.2/ -mtune=corei7 -march=x86-64 -g -Og
#
# seed  -104461925  -374356264  -960916804  -314050282   404385635  1707171554 -1355835698   213397819  1028115329 -1804654184  1185913432  1844859708
#
#      Author: C. J. Pickard (cjp20@cam.ac.uk)
#                Space group: Cc
#

%BLOCK LATTICE_ABC
      4.33631      7.49935      7.49935
    109.05801    106.76851    106.76851
%ENDBLOCK LATTICE_ABC

%BLOCK POSITIONS_FRAC
  Li   0.3990372   0.1359401  -0.2013781 SPIN=   0.00000
  Li  -0.1009628  -0.2013781   0.1359401 SPIN=   0.00000
  Fe  -0.8288065  -0.4747089  -0.1933085 SPIN=   4.00000
  Fe  -0.3288065  -0.1933085  -0.4747089 SPIN=   4.00000
   O   0.6491714   0.2237143   0.1532728 SPIN=   0.00000
   O   1.1459142   0.5728136   0.3840042 SPIN=   0.00000
   O   0.5324860   0.5382769   0.2270439 SPIN=   0.00000
   O   0.8500089   0.4621583   0.0058966 SPIN=   0.00000
   S   0.7943951   0.4492408   0.1925544 SPIN=   0.00000
   O   0.1491714   0.1532728   0.2237143 SPIN=   0.00000
   O   0.6459142   0.3840042   0.5728136 SPIN=   0.00000
   O   0.0324860   0.2270439   0.5382769 SPIN=   0.00000
   O   0.3500089   0.0058966   0.4621583 SPIN=   0.00000
   S   0.2943951   0.1925544   0.4492408 SPIN=   0.00000
   F  -0.1071324   0.0503230  -0.2118826 SPIN=   0.00000
   F  -0.6071324  -0.2118826   0.0503230 SPIN=   0.00000
%ENDBLOCK POSITIONS_FRAC

# Note: total spin =   8.00

KPOINTS_MP_SPACING 0.07

%BLOCK SPECIES_POT
QC5
%ENDBLOCK SPECIES_POT

SNAP_TO_SYMMETRY
SYMMETRY_GENERATE

