#              Generated by Buildcell
#
# at 23:15:42 (GMT+1.0) 18th August 2020
# in /lustre/scratch/uccabz1/launch_tmp
# on node-c12j-020
# by uccabz1
#
# compiler GCC version 4.9.2
# options -cpp -iprefix /lustre/shared/ucl/apps/gcc/4.9.2/bin/../lib/gcc/x86_64-unknown-linux-gnu/4.9.2/ -mtune=corei7 -march=x86-64 -g -Og
#
# seed  -431338825   276447590  -647702590   894756875 -1955225174  -785680961   939393377  1777191907  1211625263  1766481210  -676231686   983753427
#
#      Author: C. J. Pickard (cjp20@cam.ac.uk)
#                Space group: P2/c
#

%BLOCK LATTICE_ABC
      4.90952      4.98590      8.40471
    103.55880     90.00000     90.00000
%ENDBLOCK LATTICE_ABC

%BLOCK POSITIONS_FRAC
  Li   0.1952987   0.0000000  -0.2500000 SPIN=   0.00000
  Li  -0.1952987   0.0000000   0.2500000 SPIN=   0.00000
  Fe   0.5000000  -0.5000000  -0.0000000 SPIN=   4.00000
  Fe  -0.5000000   0.5000000  -0.5000000 SPIN=   4.00000
   O   0.0358241   0.2392231   0.0640252 SPIN=   0.00000
   O   0.1826794   0.7226134   0.1717222 SPIN=   0.00000
   O   0.0358241  -0.2392231   0.4359748 SPIN=   0.00000
   O   0.1826794  -0.7226134   0.3282778 SPIN=   0.00000
   O  -0.0358241  -0.2392231  -0.0640252 SPIN=   0.00000
   O  -0.1826794  -0.7226134  -0.1717222 SPIN=   0.00000
   O  -0.0358241   0.2392231  -0.4359748 SPIN=   0.00000
   O  -0.1826794   0.7226134  -0.3282778 SPIN=   0.00000
   S   0.0000000  -0.5000000  -0.2500000 SPIN=   0.00000
   S  -0.0000000  -0.5000000   0.2500000 SPIN=   0.00000
   F  -0.5000000   0.0000000  -0.0000000 SPIN=   0.00000
   F  -0.5000000   0.0000000  -0.5000000 SPIN=   0.00000
%ENDBLOCK POSITIONS_FRAC

# Note: total spin =   8.00

KPOINTS_MP_SPACING 0.07

%BLOCK SPECIES_POT
QC5
%ENDBLOCK SPECIES_POT

SNAP_TO_SYMMETRY
SYMMETRY_GENERATE

