#              Generated by Buildcell
#
# at 02:38:19 (GMT+1.0) 4th August 2020
# in /lustre/scratch/uccabz1/launch_tmp
# on node-c12c-023
# by uccabz1
#
# compiler GCC version 4.9.2
# options -cpp -iprefix /lustre/shared/ucl/apps/gcc/4.9.2/bin/../lib/gcc/x86_64-unknown-linux-gnu/4.9.2/ -mtune=corei7 -march=x86-64 -g -Og
#
# seed  -188058063  -645723627   628337117  -373451157   965187761   -48275598   787687153   759305584  1588830428   291344686  1455260389  1022011387
#
#      Author: C. J. Pickard (cjp20@cam.ac.uk)
#                Space group: Pc
#

%BLOCK LATTICE_ABC
      3.95899      5.93573      8.80552
    104.86524     90.00000     90.00000
%ENDBLOCK LATTICE_ABC

%BLOCK POSITIONS_FRAC
  Li  -0.0630447   0.3241541   0.2595104 SPIN=   0.00000
  Li   0.0630447   0.3241541  -0.2404896 SPIN=   0.00000
  Fe  -0.0185949  -0.0573007  -0.0492713 SPIN=   4.00000
  Fe   0.0185949  -0.0573007   0.4507287 SPIN=   4.00000
   O   0.0287969  -0.5509248  -0.0107839 SPIN=   0.00000
   O   0.5460385  -0.6620050   0.1102753 SPIN=   0.00000
   O   0.2225503  -0.3123477   0.2478317 SPIN=   0.00000
   O   0.5458360  -0.3110893   0.0074939 SPIN=   0.00000
   S   0.3358054  -0.4590917   0.0887043 SPIN=   0.00000
   O  -0.0287969  -0.5509248  -0.5107839 SPIN=   0.00000
   O  -0.5460385  -0.6620050  -0.3897247 SPIN=   0.00000
   O  -0.2225503  -0.3123477  -0.2521683 SPIN=   0.00000
   O  -0.5458360  -0.3110893  -0.4925061 SPIN=   0.00000
   S  -0.3358054  -0.4590917  -0.4112957 SPIN=   0.00000
   F  -0.2388694   0.0423334   0.2840993 SPIN=   0.00000
   F   0.2388694   0.0423334  -0.2159007 SPIN=   0.00000
%ENDBLOCK POSITIONS_FRAC

# Note: total spin =   8.00

KPOINTS_MP_SPACING 0.07

%BLOCK SPECIES_POT
QC5
%ENDBLOCK SPECIES_POT

SNAP_TO_SYMMETRY
SYMMETRY_GENERATE

