#              Generated by Buildcell
#
# at 04:51:37 (GMT+1.0) 4th August 2020
# in /lustre/scratch/uccabz1/launch_tmp
# on node-c12n-012
# by uccabz1
#
# compiler GCC version 4.9.2
# options -cpp -iprefix /lustre/shared/ucl/apps/gcc/4.9.2/bin/../lib/gcc/x86_64-unknown-linux-gnu/4.9.2/ -mtune=corei7 -march=x86-64 -g -Og
#
# seed -1455262503  1933819989   355730406 -1758883677  1496664687  1456452639  1212473017   899111424  -849118672   604572214   759587429  1611425212
#
#      Author: C. J. Pickard (cjp20@cam.ac.uk)
#                Space group: P21
#

%BLOCK LATTICE_ABC
      3.90732      5.84499      8.97757
     90.00000     90.00000    102.71985
%ENDBLOCK LATTICE_ABC

%BLOCK POSITIONS_FRAC
  Li  -0.0093277   0.0062760  -0.3561573 SPIN=   0.00000
  Li   0.0093277  -0.0062760   0.1438427 SPIN=   0.00000
  Fe   0.4645503  -0.0537533  -0.1076756 SPIN=   4.00000
  Fe  -0.4645503   0.0537533   0.3923244 SPIN=   4.00000
   O  -0.5350015  -0.4107380   0.4921485 SPIN=   0.00000
   O   0.0421231  -0.1734329   0.4139048 SPIN=   0.00000
   O  -0.0741739  -0.6066828   0.4014505 SPIN=   0.00000
   O  -0.0082978  -0.4066738   0.6461151 SPIN=   0.00000
   S  -0.1438375  -0.3993819   0.4884047 SPIN=   0.00000
   O   0.5350015   0.4107380  -0.0078515 SPIN=   0.00000
   O  -0.0421231   0.1734329  -0.0860952 SPIN=   0.00000
   O   0.0741739   0.6066828  -0.0985495 SPIN=   0.00000
   O   0.0082978   0.4066738   0.1461151 SPIN=   0.00000
   S   0.1438375   0.3993819  -0.0115953 SPIN=   0.00000
   F   0.4953308  -0.0490518   0.2025068 SPIN=   0.00000
   F  -0.4953308   0.0490518  -0.2974932 SPIN=   0.00000
%ENDBLOCK POSITIONS_FRAC

# Note: total spin =   8.00

KPOINTS_MP_SPACING 0.07

%BLOCK SPECIES_POT
QC5
%ENDBLOCK SPECIES_POT

SNAP_TO_SYMMETRY
SYMMETRY_GENERATE

