#              Generated by Buildcell
#
# at 02:44:39 (GMT+1.0) 19th August 2020
# in /lustre/scratch/uccabz1/launch_tmp
# on node-c12i-024
# by uccabz1
#
# compiler GCC version 4.9.2
# options -cpp -iprefix /lustre/shared/ucl/apps/gcc/4.9.2/bin/../lib/gcc/x86_64-unknown-linux-gnu/4.9.2/ -mtune=corei7 -march=x86-64 -g -Og
#
# seed   319004367 -1468393033   237173193 -1415209803  1977950622  -929345697  -772910619   299867037  1355227375 -2106301599 -1376305473   402451736
#
#      Author: C. J. Pickard (cjp20@cam.ac.uk)
#                Space group: P-1
#

%BLOCK LATTICE_ABC
      5.42100      6.30079      6.49412
     85.51816     67.00921     78.36291
%ENDBLOCK LATTICE_ABC

%BLOCK POSITIONS_FRAC
  Li  -0.1554799  -0.0931235  -0.2097210 SPIN=   0.00000
  Li   0.1554799   0.0931235   0.2097210 SPIN=   0.00000
  Fe   0.4340944  -0.3433957  -0.2403854 SPIN=   4.00000
  Fe  -0.4340944   0.3433957   0.2403854 SPIN=   4.00000
   O  -0.2245147  -0.3661585   0.0825085 SPIN=   0.00000
   O   0.1213758  -0.1966665   0.1342248 SPIN=   0.00000
   O  -0.2799346  -0.2704831   0.4625467 SPIN=   0.00000
   O  -0.3368729   0.0188103   0.1953871 SPIN=   0.00000
   S  -0.1799866  -0.2036245   0.2186668 SPIN=   0.00000
   O   0.2245147   0.3661585  -0.0825085 SPIN=   0.00000
   O  -0.1213758   0.1966665  -0.1342248 SPIN=   0.00000
   O   0.2799346   0.2704831  -0.4625467 SPIN=   0.00000
   O   0.3368729  -0.0188103  -0.1953871 SPIN=   0.00000
   S   0.1799866   0.2036245  -0.2186668 SPIN=   0.00000
   F   0.1758550  -0.2796953  -0.4349988 SPIN=   0.00000
   F  -0.1758550   0.2796953   0.4349988 SPIN=   0.00000
%ENDBLOCK POSITIONS_FRAC

# Note: total spin =   8.00

KPOINTS_MP_SPACING 0.07

%BLOCK SPECIES_POT
QC5
%ENDBLOCK SPECIES_POT

SNAP_TO_SYMMETRY
SYMMETRY_GENERATE

