#              Generated by Buildcell
#
# at 02:19:47 (GMT+1.0) 4th August 2020
# in /lustre/scratch/uccabz1/launch_tmp
# on node-c12o-002
# by uccabz1
#
# compiler GCC version 4.9.2
# options -cpp -iprefix /lustre/shared/ucl/apps/gcc/4.9.2/bin/../lib/gcc/x86_64-unknown-linux-gnu/4.9.2/ -mtune=corei7 -march=x86-64 -g -Og
#
# seed  1720074256    -2093729 -1147839629  1302291788  -181486476 -1594325081 -1740248312  -127311099  -158832157 -1615904139 -1642516096  -292375368
#
#      Author: C. J. Pickard (cjp20@cam.ac.uk)
#                Space group: P21/m
#

%BLOCK LATTICE_ABC
      3.93517      6.21735      8.20506
     90.00000     94.94775     90.00000
%ENDBLOCK LATTICE_ABC

%BLOCK POSITIONS_FRAC
  Li   0.2315512  -0.2500000  -0.0470891 SPIN=   0.00000
  Li  -0.2315512   0.2500000   0.0470891 SPIN=   0.00000
  Fe  -0.2222817  -0.2500000  -0.3560007 SPIN=   4.00000
  Fe   0.2222817   0.2500000   0.3560007 SPIN=   4.00000
   O   0.6956637   0.4409216  -0.2581215 SPIN=   0.00000
   O   0.2111149   0.4409051  -0.0848376 SPIN=   0.00000
   O  -0.6956637  -0.0590784   0.2581215 SPIN=   0.00000
   O  -0.2111149  -0.0590949   0.0848376 SPIN=   0.00000
   O  -0.6956637  -0.4409216   0.2581215 SPIN=   0.00000
   O  -0.2111149  -0.4409051   0.0848376 SPIN=   0.00000
   O   0.6956637   0.0590784  -0.2581215 SPIN=   0.00000
   O   0.2111149   0.0590949  -0.0848376 SPIN=   0.00000
   S  -0.2251942  -0.2500000   0.1938810 SPIN=   0.00000
   S   0.2251942   0.2500000  -0.1938810 SPIN=   0.00000
   F  -0.2672000   0.2500000   0.4144414 SPIN=   0.00000
   F   0.2672000  -0.2500000  -0.4144414 SPIN=   0.00000
%ENDBLOCK POSITIONS_FRAC

# Note: total spin =   8.00

KPOINTS_MP_SPACING 0.07

%BLOCK SPECIES_POT
QC5
%ENDBLOCK SPECIES_POT

SNAP_TO_SYMMETRY
SYMMETRY_GENERATE

