#              Generated by Buildcell
#
# at 04:59:32 (GMT+1.0) 4th August 2020
# in /lustre/scratch/uccabz1/launch_tmp
# on node-c12l-025
# by uccabz1
#
# compiler GCC version 4.9.2
# options -cpp -iprefix /lustre/shared/ucl/apps/gcc/4.9.2/bin/../lib/gcc/x86_64-unknown-linux-gnu/4.9.2/ -mtune=corei7 -march=x86-64 -g -Og
#
# seed -1225237261 -1952721882   226363257  -912190385  1531965562 -1100510940 -1781653737 -1984186105  1808660077  1123976187 -1197606814   933927403
#
#      Author: C. J. Pickard (cjp20@cam.ac.uk)
#                Space group: Cmc21
#

%BLOCK LATTICE_ABC
      5.55058      6.30922      6.30922
    115.15089     90.00000     90.00000
%ENDBLOCK LATTICE_ABC

%BLOCK POSITIONS_FRAC
  Li  -0.3836805   0.1353303  -0.1353303 SPIN=   0.00000
  Li   0.1163195  -0.1353303   0.1353303 SPIN=   0.00000
  Fe  -0.1101046  -0.3902922   0.3902922 SPIN=   4.00000
  Fe   0.3898954   0.3902922  -0.3902922 SPIN=   4.00000
   O  -0.3903630   0.4665198   0.0549749 SPIN=   0.00000
   O  -0.0472525   0.2492303   0.1177651 SPIN=   0.00000
   O   0.1096370  -0.4665198  -0.0549749 SPIN=   0.00000
   O   0.4527475  -0.2492303  -0.1177651 SPIN=   0.00000
   O   0.1096370   0.0549749   0.4665198 SPIN=   0.00000
   O   0.4527475   0.1177651   0.2492303 SPIN=   0.00000
   O  -0.3903630  -0.0549749  -0.4665198 SPIN=   0.00000
   O  -0.0472525  -0.1177651  -0.2492303 SPIN=   0.00000
   S   0.1053564   0.1198967  -0.1198967 SPIN=   0.00000
   S  -0.3946436  -0.1198967   0.1198967 SPIN=   0.00000
   F   0.2526496  -0.3897302   0.3897302 SPIN=   0.00000
   F  -0.2473504   0.3897302  -0.3897302 SPIN=   0.00000
%ENDBLOCK POSITIONS_FRAC

# Note: total spin =   8.00

KPOINTS_MP_SPACING 0.07

%BLOCK SPECIES_POT
QC5
%ENDBLOCK SPECIES_POT

SNAP_TO_SYMMETRY
SYMMETRY_GENERATE

