#              Generated by Buildcell
#
# at 00:19:21 (GMT+1.0) 19th August 2020
# in /scratch/scratch/uccabz1/launch_tmp
# on node-k10h-029
# by uccabz1
#
# compiler GCC version 4.9.2
# options -cpp -iprefix /scratch/UCL/applications/gcc/4.9.2/bin/../lib/gcc/x86_64-unknown-linux-gnu/4.9.2/ -mtune=corei7 -march=x86-64 -g -O2
#
# seed -1771069907   451764261 -1335822145 -1793749723   879782587 -1034697992 -1320178698  -903153726  -117736332 -1176440400  -600185470 -1057428783
#
#      Author: C. J. Pickard (cjp20@cam.ac.uk)
#                Space group: C2/c
#

%BLOCK LATTICE_ABC
      4.07979      6.78738      7.70532
     86.81644     79.35153     72.50982
%ENDBLOCK LATTICE_ABC

%BLOCK POSITIONS_FRAC
  Li  -0.0000000   0.5000000   0.0000000 SPIN=   0.00000
  Li  -0.0000000  -0.5000000   0.5000000 SPIN=   0.00000
  Fe   0.5000000   0.0000000   0.0000000 SPIN=   4.00000
  Fe  -1.0000000   0.0000000   0.5000000 SPIN=   4.00000
   O   1.2342868  -0.3095924  -0.4034030 SPIN=   0.00000
   O   0.6753318  -0.1710889  -0.5126179 SPIN=   0.00000
   O  -0.4246944  -0.3095924  -0.0965970 SPIN=   0.00000
   O  -0.0042429  -0.1710889   0.0126179 SPIN=   0.00000
   O  -1.2342868   0.3095924   0.4034030 SPIN=   0.00000
   O  -0.6753318   0.1710889   0.5126179 SPIN=   0.00000
   O   0.4246944   0.3095924   0.0965970 SPIN=   0.00000
   O   0.0042429   0.1710889  -0.0126179 SPIN=   0.00000
   S  -0.4243317   0.3486633   0.2500000 SPIN=   0.00000
   S   0.4243317  -0.3486633  -0.2500000 SPIN=   0.00000
   F  -0.6988912  -0.1022176   0.2500000 SPIN=   0.00000
   F   0.6988912   0.1022176  -0.2500000 SPIN=   0.00000
%ENDBLOCK POSITIONS_FRAC

# Note: total spin =   8.00

KPOINTS_MP_SPACING 0.07

%BLOCK SPECIES_POT
QC5
%ENDBLOCK SPECIES_POT

SNAP_TO_SYMMETRY
SYMMETRY_GENERATE

