#              Generated by Buildcell
#
# at 02:23:15 (GMT+1.0) 19th August 2020
# in /lustre/scratch/uccabz1/launch_tmp
# on node-c12j-010
# by uccabz1
#
# compiler GCC version 4.9.2
# options -cpp -iprefix /lustre/shared/ucl/apps/gcc/4.9.2/bin/../lib/gcc/x86_64-unknown-linux-gnu/4.9.2/ -mtune=corei7 -march=x86-64 -g -Og
#
# seed   989101730   701175781   323908916   -22528942 -1085804138  1667514489  -147933210   -49755305   613865104    59471877  -859405220  1834384400
#
#      Author: C. J. Pickard (cjp20@cam.ac.uk)
#                Space group: Pmn21
#

%BLOCK LATTICE_ABC
      3.96442      7.00727      7.19949
     90.00000     90.00000     90.00000
%ENDBLOCK LATTICE_ABC

%BLOCK POSITIONS_FRAC
  Li   0.4492006   0.5000000   0.0962442 SPIN=   0.00000
  Li  -0.4492006   0.0000000  -0.4037558 SPIN=   0.00000
  Fe   0.0582541   0.0000000   0.2895859 SPIN=   4.00000
  Fe  -0.0582541   0.5000000  -0.2104141 SPIN=   4.00000
   O   0.1784750  -0.2747783   0.1669127 SPIN=   0.00000
   O  -0.3101007  -0.1669406  -0.0195608 SPIN=   0.00000
   O  -0.1784750  -0.2252217  -0.3330873 SPIN=   0.00000
   O   0.3101007  -0.3330594  -0.5195608 SPIN=   0.00000
   O  -0.1784750   0.2252217  -0.3330873 SPIN=   0.00000
   O   0.3101007   0.3330594  -0.5195608 SPIN=   0.00000
   O   0.1784750   0.2747783   0.1669127 SPIN=   0.00000
   O  -0.3101007   0.1669406  -0.0195608 SPIN=   0.00000
   S   0.0496784   0.0000000  -0.1581621 SPIN=   0.00000
   S  -0.0496784   0.5000000   0.3418379 SPIN=   0.00000
   F  -0.3952283   0.0000000   0.3349697 SPIN=   0.00000
   F   0.3952283   0.5000000  -0.1650303 SPIN=   0.00000
%ENDBLOCK POSITIONS_FRAC

# Note: total spin =   8.00

KPOINTS_MP_SPACING 0.07

%BLOCK SPECIES_POT
QC5
%ENDBLOCK SPECIES_POT

SNAP_TO_SYMMETRY
SYMMETRY_GENERATE

