#              Generated by Buildcell
#
# at 00:38:54 (GMT+1.0) 19th August 2020
# in /lustre/scratch/uccabz1/launch_tmp
# on node-c12o-011
# by uccabz1
#
# compiler GCC version 4.9.2
# options -cpp -iprefix /lustre/shared/ucl/apps/gcc/4.9.2/bin/../lib/gcc/x86_64-unknown-linux-gnu/4.9.2/ -mtune=corei7 -march=x86-64 -g -Og
#
# seed  -168025904 -1028458825  -147354436  -456530152   685776680  1364979306  1770349795 -1505088714 -1184353649  -285037335   -26349469  -257740257
#
#      Author: C. J. Pickard (cjp20@cam.ac.uk)
#                Space group: P2221
#

%BLOCK LATTICE_ABC
      3.96956      6.77137      7.44066
     90.00000     90.00000     90.00000
%ENDBLOCK LATTICE_ABC

%BLOCK POSITIONS_FRAC
  Li   0.0000000   0.0000000   0.2130357 SPIN=   0.00000
  Li  -0.0000000  -0.5000000  -0.2130357 SPIN=   0.00000
  Fe  -0.2795299   0.2500000  -0.5000000 SPIN=   4.00000
  Fe   0.2795299  -0.2500000  -0.5000000 SPIN=   4.00000
   O   0.1256275  -0.3152675   0.2282432 SPIN=   0.00000
   O   0.2500899  -0.5823671   0.0111285 SPIN=   0.00000
   O  -0.1256275   0.1847325  -0.2282432 SPIN=   0.00000
   O  -0.2500899  -0.0823671  -0.0111285 SPIN=   0.00000
   O   0.1256275  -0.1847325  -0.2282432 SPIN=   0.00000
   O   0.2500899   0.0823671  -0.0111285 SPIN=   0.00000
   O  -0.1256275   0.3152675   0.2282432 SPIN=   0.00000
   O  -0.2500899   0.5823671   0.0111285 SPIN=   0.00000
   S  -0.5000000   0.0000000  -0.1393595 SPIN=   0.00000
   S   0.5000000  -0.5000000   0.1393595 SPIN=   0.00000
   F  -0.5000000   0.0000000   0.3590981 SPIN=   0.00000
   F   0.5000000   0.5000000  -0.3590981 SPIN=   0.00000
%ENDBLOCK POSITIONS_FRAC

# Note: total spin =   8.00

KPOINTS_MP_SPACING 0.07

%BLOCK SPECIES_POT
QC5
%ENDBLOCK SPECIES_POT

SNAP_TO_SYMMETRY
SYMMETRY_GENERATE

