#              Generated by Buildcell
#
# at 01:34:38 (GMT+1.0) 19th August 2020
# in /scratch/scratch/uccabz1/launch_tmp
# on node-k10e-006
# by uccabz1
#
# compiler GCC version 4.9.2
# options -cpp -iprefix /scratch/UCL/applications/gcc/4.9.2/bin/../lib/gcc/x86_64-unknown-linux-gnu/4.9.2/ -mtune=corei7 -march=x86-64 -g -O2
#
# seed  1571448856  -869835709  -291411800  1921134325  1643972932 -1756205121   709127257  1276148566  -575408859  1064795137   795407828  1859697880
#
#      Author: C. J. Pickard (cjp20@cam.ac.uk)
#                Space group: C2
#

%BLOCK LATTICE_ABC
      6.06018      6.16649      6.16649
    102.29403    106.74711    106.74711
%ENDBLOCK LATTICE_ABC

%BLOCK POSITIONS_FRAC
  Li   0.0000000   0.0332764  -0.0332764 SPIN=   0.00000
  Li   0.5000000   0.7623967   0.2376033 SPIN=   0.00000
  Fe  -0.0000000  -0.2717227   0.2717227 SPIN=   5.42018
  Fe   0.0000000   0.3385025  -0.3385025 SPIN=   2.57982
   O   0.7297375   0.7825750   0.6537929 SPIN=   0.00000
   O   0.3386424   0.5685019   0.6959012 SPIN=   0.00000
   O   0.3616146   0.8875411   0.5086682 SPIN=   0.00000
   S   0.5045842   0.8075564   0.7004617 SPIN=   0.00000
   O  -0.7297375  -0.6537929  -0.7825750 SPIN=   0.00000
   O  -0.3386424  -0.6959012  -0.5685019 SPIN=   0.00000
   O  -0.3616146  -0.5086682  -0.8875411 SPIN=   0.00000
   S  -0.5045842  -0.7004617  -0.8075564 SPIN=   0.00000
   O  -0.5000000  -0.9889038  -0.0110962 SPIN=   0.00000
   O   0.5000000   0.2743370   0.7256630 SPIN=   0.00000
   F  -0.0363173   0.0507113   0.3973868 SPIN=   0.00000
   F   0.0363173  -0.3973868  -0.0507113 SPIN=   0.00000
%ENDBLOCK POSITIONS_FRAC

# Note: total spin =   8.00

KPOINTS_MP_SPACING 0.07

%BLOCK SPECIES_POT
QC5
%ENDBLOCK SPECIES_POT

SNAP_TO_SYMMETRY
SYMMETRY_GENERATE

