#              Generated by Buildcell
#
# at 01:51:47 (GMT+1.0) 19th August 2020
# in /lustre/scratch/uccabz1/launch_tmp
# on node-c12f-023
# by uccabz1
#
# compiler GCC version 4.9.2
# options -cpp -iprefix /lustre/shared/ucl/apps/gcc/4.9.2/bin/../lib/gcc/x86_64-unknown-linux-gnu/4.9.2/ -mtune=corei7 -march=x86-64 -g -Og
#
# seed -1839925425 -1162913679  1393976956  2103766197  -404654390 -1114449378  1716483961  -115258581   385600191   985448209 -1015837613  1147961689
#
#      Author: C. J. Pickard (cjp20@cam.ac.uk)
#                Space group: C2
#

%BLOCK LATTICE_ABC
      5.80234      6.64061      6.64061
     62.21486     66.35633     66.35633
%ENDBLOCK LATTICE_ABC

%BLOCK POSITIONS_FRAC
  Li  -0.1511620   0.0526434  -0.2680144 SPIN=   0.00000
  Li   0.1511620   0.2680144  -0.0526434 SPIN=   0.00000
  Fe   0.4441056   0.1116159  -0.4956405 SPIN=   4.00000
  Fe  -0.4441056   0.4956405  -0.1116159 SPIN=   4.00000
   O   0.0024170  -0.3155631  -0.1648142 SPIN=   0.00000
   O   0.3381070  -0.1858856  -0.5359032 SPIN=   0.00000
   O  -0.0814045  -0.1868741  -0.5496458 SPIN=   0.00000
   O   0.2411346  -0.5646221  -0.4081915 SPIN=   0.00000
   S   0.1250635  -0.3132362  -0.4146386 SPIN=   0.00000
   O  -0.0024170   0.1648142   0.3155631 SPIN=   0.00000
   O  -0.3381070   0.5359032   0.1858856 SPIN=   0.00000
   O   0.0814045   0.5496458   0.1868741 SPIN=   0.00000
   O  -0.2411346   0.4081915   0.5646221 SPIN=   0.00000
   S  -0.1250635   0.4146386   0.3132362 SPIN=   0.00000
   F   0.4136428  -0.1246592  -0.1744802 SPIN=   0.00000
   F  -0.4136428   0.1744802   0.1246592 SPIN=   0.00000
%ENDBLOCK POSITIONS_FRAC

# Note: total spin =   8.00

KPOINTS_MP_SPACING 0.07

%BLOCK SPECIES_POT
QC5
%ENDBLOCK SPECIES_POT

SNAP_TO_SYMMETRY
SYMMETRY_GENERATE

