#              Generated by Buildcell
#
# at 22:24:30 (GMT+1.0) 18th August 2020
# in /lustre/scratch/uccabz1/launch_tmp
# on node-c12a-026
# by uccabz1
#
# compiler GCC version 4.9.2
# options -cpp -iprefix /lustre/shared/ucl/apps/gcc/4.9.2/bin/../lib/gcc/x86_64-unknown-linux-gnu/4.9.2/ -mtune=corei7 -march=x86-64 -g -Og
#
# seed    98798547 -1130845694  1243328886  -160858022  1700229749  1668303337   932845408  1947764482  1676603192 -1674033179   422906277 -2029788164
#
#      Author: C. J. Pickard (cjp20@cam.ac.uk)
#                Space group: Fdd2
#

%BLOCK LATTICE_ABC
      5.55653      5.55653      7.51726
    110.06676    110.06676     94.10713
%ENDBLOCK LATTICE_ABC

%BLOCK POSITIONS_FRAC
  Li  -0.3571601   0.1428399   0.2856799 SPIN=   0.00000
  Li   0.3928399   0.3928399  -0.2143201 SPIN=   0.00000
  Fe  -0.0102692  -0.0102692  -0.0205384 SPIN=   4.00000
  Fe   0.2397308  -0.2602692   0.4794616 SPIN=   4.00000
   O   0.0288515   0.1875228  -0.3653492 SPIN=   0.00000
   O  -0.1397238   0.4957247  -0.5252616 SPIN=   0.00000
   O  -0.3942007   0.4471280  -0.3653492 SPIN=   0.00000
   O  -0.3855377  -0.0209863  -0.5252616 SPIN=   0.00000
   O   0.6971280   0.3557993   0.1346508 SPIN=   0.00000
   O   0.2290137   0.3644623  -0.0252616 SPIN=   0.00000
   O  -0.5624772  -0.2211485   0.1346508 SPIN=   0.00000
   O  -0.2542753  -0.3897238  -0.0252616 SPIN=   0.00000
   S  -0.4011854  -0.4011854   0.1976292 SPIN=   0.00000
   S  -0.1511854   0.3488146  -0.3023708 SPIN=   0.00000
   F   0.1556821   0.1556821   0.3113641 SPIN=   0.00000
   F   0.4056821  -0.0943179  -0.1886359 SPIN=   0.00000
%ENDBLOCK POSITIONS_FRAC

# Note: total spin =   8.00

KPOINTS_MP_SPACING 0.07

%BLOCK SPECIES_POT
QC5
%ENDBLOCK SPECIES_POT

SNAP_TO_SYMMETRY
SYMMETRY_GENERATE

