#              Generated by Buildcell
#
# at 03:49:58 (GMT+1.0) 4th August 2020
# in /lustre/scratch/uccabz1/launch_tmp
# on node-c12m-030
# by uccabz1
#
# compiler GCC version 4.9.2
# options -cpp -iprefix /lustre/shared/ucl/apps/gcc/4.9.2/bin/../lib/gcc/x86_64-unknown-linux-gnu/4.9.2/ -mtune=corei7 -march=x86-64 -g -Og
#
# seed  -857280474  2146323591  -433741854  -301913530 -1243138271   -84943849  -763204340   826014360  -967358690 -1993578083   817212810 -1028419337
#
#      Author: C. J. Pickard (cjp20@cam.ac.uk)
#                Space group: Cm
#

%BLOCK LATTICE_ABC
      5.59116      5.59116      7.30606
    109.83482    109.83482     90.69274
%ENDBLOCK LATTICE_ABC

%BLOCK POSITIONS_FRAC
  Li  -0.1778216   0.3674395   0.4368096 SPIN=   0.00000
  Li   0.3674395  -0.1778216   0.4368096 SPIN=   0.00000
  Fe  -0.0755727  -0.0755727  -0.3435301 SPIN=   7.42834
  Fe   0.3808280   0.3808280  -0.3794296 SPIN=   0.57166
   O  -0.3811842  -0.1012287  -0.1859055 SPIN=   0.00000
   O  -0.3469733   0.3730039  -0.0505226 SPIN=   0.00000
   O  -0.1305718   0.1494602   0.1871501 SPIN=   0.00000
   O  -0.6048088   0.1151793   0.0516998 SPIN=   0.00000
   S  -0.3658845   0.1341036   0.0006054 SPIN=   0.00000
   O  -0.1012287  -0.3811842  -0.1859055 SPIN=   0.00000
   O   0.3730039  -0.3469733  -0.0505226 SPIN=   0.00000
   O   0.1494602  -0.1305718   0.1871501 SPIN=   0.00000
   O   0.1151793  -0.6048088   0.0516998 SPIN=   0.00000
   S   0.1341036  -0.3658845   0.0006054 SPIN=   0.00000
   F  -0.3555962   0.1147237  -0.4888182 SPIN=   0.00000
   F   0.1147237  -0.3555962  -0.4888182 SPIN=   0.00000
%ENDBLOCK POSITIONS_FRAC

# Note: total spin =   8.00

KPOINTS_MP_SPACING 0.07

%BLOCK SPECIES_POT
QC5
%ENDBLOCK SPECIES_POT

SNAP_TO_SYMMETRY
SYMMETRY_GENERATE

