#              Generated by Buildcell
#
# at 20:36:15 (GMT+1.0) 18th August 2020
# in /lustre/scratch/uccabz1/launch_tmp
# on node-c12b-010
# by uccabz1
#
# compiler GCC version 4.9.2
# options -cpp -iprefix /lustre/shared/ucl/apps/gcc/4.9.2/bin/../lib/gcc/x86_64-unknown-linux-gnu/4.9.2/ -mtune=corei7 -march=x86-64 -g -Og
#
# seed  1723044258 -2091829529   897332356  1853620716  -498917731 -1190594300  -788140649  -558807400 -1138178551  -421174816   622967548  1171501825
#
#      Author: C. J. Pickard (cjp20@cam.ac.uk)
#                Space group: Ccc2
#

%BLOCK LATTICE_ABC
      4.02126      5.84262      9.06633
     90.00000     90.00000    110.12877
%ENDBLOCK LATTICE_ABC

%BLOCK POSITIONS_FRAC
  Li   0.5000000   0.5000000   0.1252464 SPIN=   0.00000
  Li   0.0000000   0.5000000  -0.3747536 SPIN=   0.00000
  Fe  -0.5000000  -0.0000000   0.0723283 SPIN=   4.00000
  Fe  -0.5000000   0.0000000  -0.4276717 SPIN=   4.00000
   O   0.1994877   0.3214540  -0.0463170 SPIN=   0.00000
   O  -0.3588827   0.2350932  -0.1862078 SPIN=   0.00000
   O  -0.1994877  -0.3214540  -0.0463170 SPIN=   0.00000
   O   0.3588827  -0.2350932  -0.1862078 SPIN=   0.00000
   O   0.1219663   0.3214540   0.4536830 SPIN=   0.00000
   O   0.5939759   0.2350932   0.3137922 SPIN=   0.00000
   O  -0.1219663  -0.3214540   0.4536830 SPIN=   0.00000
   O  -0.5939759  -0.2350932   0.3137922 SPIN=   0.00000
   S   0.0000000  -0.5000000  -0.0759754 SPIN=   0.00000
   S  -0.5000000  -0.5000000   0.4240246 SPIN=   0.00000
   F   0.0000000  -0.0000000   0.1747270 SPIN=   0.00000
   F  -0.0000000   0.0000000  -0.3252730 SPIN=   0.00000
%ENDBLOCK POSITIONS_FRAC

# Note: total spin =   8.00

KPOINTS_MP_SPACING 0.07

%BLOCK SPECIES_POT
QC5
%ENDBLOCK SPECIES_POT

SNAP_TO_SYMMETRY
SYMMETRY_GENERATE

