#              Generated by Buildcell
#
# at 03:53:07 (GMT+1.0) 4th August 2020
# in /lustre/scratch/uccabz1/launch_tmp
# on node-c12c-018
# by uccabz1
#
# compiler GCC version 4.9.2
# options -cpp -iprefix /lustre/shared/ucl/apps/gcc/4.9.2/bin/../lib/gcc/x86_64-unknown-linux-gnu/4.9.2/ -mtune=corei7 -march=x86-64 -g -Og
#
# seed  -406056360  2112008013   345152489 -1564290569   361628439  1556484140  -926147880  -492818699 -1374026117  1254553783   333069024 -1971025004
#
#      Author: C. J. Pickard (cjp20@cam.ac.uk)
#                Space group: P-1
#

%BLOCK LATTICE_ABC
      4.26137      6.37790      7.79639
    104.58165     97.86913     97.66626
%ENDBLOCK LATTICE_ABC

%BLOCK POSITIONS_FRAC
  Li  -0.4823807  -0.2882744  -0.1312394 SPIN=   0.00000
  Li   0.4823807   0.2882744   0.1312394 SPIN=   0.00000
  Fe   0.3795516   0.1174593  -0.2608696 SPIN=   4.00000
  Fe  -0.3795516  -0.1174593   0.2608696 SPIN=   4.00000
   O   0.3960937  -0.5548490  -0.3419245 SPIN=   0.00000
   O   0.1356849  -0.3936669  -0.5696745 SPIN=   0.00000
   O   0.5969220  -0.1710945  -0.3384462 SPIN=   0.00000
   O   0.0699796  -0.2657315  -0.2516277 SPIN=   0.00000
   O  -0.3960937   0.5548490   0.3419245 SPIN=   0.00000
   O  -0.1356849   0.3936669   0.5696745 SPIN=   0.00000
   O  -0.5969220   0.1710945   0.3384462 SPIN=   0.00000
   O  -0.0699796   0.2657315   0.2516277 SPIN=   0.00000
   S   0.5000000  -0.5000000  -0.5000000 SPIN=   0.00000
   S   0.0000000  -0.5000000   0.0000000 SPIN=   0.00000
   F  -0.5000000  -0.0000000   0.0000000 SPIN=   0.00000
   F  -0.0000000  -1.0000000  -0.5000000 SPIN=   0.00000
%ENDBLOCK POSITIONS_FRAC

# Note: total spin =   8.00

KPOINTS_MP_SPACING 0.07

%BLOCK SPECIES_POT
QC5
%ENDBLOCK SPECIES_POT

SNAP_TO_SYMMETRY
SYMMETRY_GENERATE

