#              Generated by Buildcell
#
# at 05:41:27 (GMT+1.0) 4th August 2020
# in /lustre/scratch/uccabz1/launch_tmp
# on node-c12l-016
# by uccabz1
#
# compiler GCC version 4.9.2
# options -cpp -iprefix /lustre/shared/ucl/apps/gcc/4.9.2/bin/../lib/gcc/x86_64-unknown-linux-gnu/4.9.2/ -mtune=corei7 -march=x86-64 -g -Og
#
# seed -1655448475   877901079   520019757   195195680  1253848667  -573498914 -1285347442  2004671124   146606881   344363049 -1855063805   592710326
#
#      Author: C. J. Pickard (cjp20@cam.ac.uk)
#                Space group: Pc
#

%BLOCK LATTICE_ABC
      5.35122      5.99735      6.24517
     93.74090     90.00000     90.00000
%ENDBLOCK LATTICE_ABC

%BLOCK POSITIONS_FRAC
  Li   0.4115140  -0.2702915   0.2534255 SPIN=   0.00000
  Li  -0.4115140   0.2297085  -0.2465745 SPIN=   0.00000
  Fe   0.4389099  -0.2568650  -0.2797421 SPIN=   4.00000
  Fe  -0.4389099   0.2431350   0.2202579 SPIN=   4.00000
   O   0.0553136  -0.1783320   0.1859622 SPIN=   0.00000
   O  -0.3112576  -0.0375885   0.3952656 SPIN=   0.00000
   O   0.1103584  -0.0181652   0.5582972 SPIN=   0.00000
   O  -0.0987631  -0.3840327   0.4904976 SPIN=   0.00000
   S  -0.0610872  -0.1545296   0.4075056 SPIN=   0.00000
   O  -0.0553136   0.3216680  -0.3140378 SPIN=   0.00000
   O   0.3112576   0.4624115  -0.1047344 SPIN=   0.00000
   O  -0.1103584   0.4818348   0.0582972 SPIN=   0.00000
   O   0.0987631   0.1159673  -0.0095024 SPIN=   0.00000
   S   0.0610872   0.3454704  -0.0924944 SPIN=   0.00000
   F  -0.4614307  -0.0956054  -0.0241591 SPIN=   0.00000
   F   0.4614307   0.4043946   0.4758409 SPIN=   0.00000
%ENDBLOCK POSITIONS_FRAC

# Note: total spin =   8.00

KPOINTS_MP_SPACING 0.07

%BLOCK SPECIES_POT
QC5
%ENDBLOCK SPECIES_POT

SNAP_TO_SYMMETRY
SYMMETRY_GENERATE

