#              Generated by Buildcell
#
# at 01:48:31 (GMT+1.0) 4th August 2020
# in /lustre/scratch/uccabz1/launch_tmp
# on node-c12f-024
# by uccabz1
#
# compiler GCC version 4.9.2
# options -cpp -iprefix /lustre/shared/ucl/apps/gcc/4.9.2/bin/../lib/gcc/x86_64-unknown-linux-gnu/4.9.2/ -mtune=corei7 -march=x86-64 -g -Og
#
# seed -1355026582 -1037380030   231394716 -1905616237  1964751702   907370118  1820312931  1786215140 -2135210746    22918641 -1637009859  1915487064
#
#      Author: C. J. Pickard (cjp20@cam.ac.uk)
#                Space group: C2
#

%BLOCK LATTICE_ABC
      5.28112      5.28112      7.30646
     83.23962     83.23962     83.69177
%ENDBLOCK LATTICE_ABC

%BLOCK POSITIONS_FRAC
  Li   0.3237979  -0.1859091  -0.2756690 SPIN=   0.00000
  Li   0.1859091  -0.3237979   0.2756690 SPIN=   0.00000
  Fe  -0.2157484  -0.2166381  -0.0654507 SPIN=   4.00000
  Fe   0.2166381   0.2157484   0.0654507 SPIN=   4.00000
   O  -0.1611021   0.5011623  -0.5302975 SPIN=   0.00000
   O   0.2357532   0.5291970  -0.3873644 SPIN=   0.00000
   O   0.0672221   0.1092008  -0.3833254 SPIN=   0.00000
   O  -0.1626976   0.4332972  -0.1892025 SPIN=   0.00000
   S  -0.0052061   0.3932143  -0.3725474 SPIN=   0.00000
   O  -0.5011623   0.1611021   0.5302975 SPIN=   0.00000
   O  -0.5291970  -0.2357532   0.3873644 SPIN=   0.00000
   O  -0.1092008  -0.0672221   0.3833254 SPIN=   0.00000
   O  -0.4332972   0.1626976   0.1892025 SPIN=   0.00000
   S  -0.3932143   0.0052061   0.3725474 SPIN=   0.00000
   F   0.4894528  -0.0011104  -0.1186083 SPIN=   0.00000
   F   0.0011104  -0.4894528   0.1186083 SPIN=   0.00000
%ENDBLOCK POSITIONS_FRAC

# Note: total spin =   8.00

KPOINTS_MP_SPACING 0.07

%BLOCK SPECIES_POT
QC5
%ENDBLOCK SPECIES_POT

SNAP_TO_SYMMETRY
SYMMETRY_GENERATE

