#              Generated by Buildcell
#
# at 18:13:28 (GMT+1.0) 18th August 2020
# in /lustre/scratch/uccabz1/launch_tmp
# on node-c12o-031
# by uccabz1
#
# compiler GCC version 4.9.2
# options -cpp -iprefix /lustre/shared/ucl/apps/gcc/4.9.2/bin/../lib/gcc/x86_64-unknown-linux-gnu/4.9.2/ -mtune=corei7 -march=x86-64 -g -Og
#
# seed  -383951763   118885549   375693728  -149491048 -1204013278  1627622616  1584072388  -388848525  1985382333 -1195401845   435916989  1220329987
#
#      Author: C. J. Pickard (cjp20@cam.ac.uk)
#                Space group: Cm
#

%BLOCK LATTICE_ABC
      5.67050      6.14109      6.14109
     84.39288     75.32586     75.32586
%ENDBLOCK LATTICE_ABC

%BLOCK POSITIONS_FRAC
  Li   0.1862841  -0.0990382   0.3586232 SPIN=   0.00000
  Li   0.1862841   0.3586232  -0.0990382 SPIN=   0.00000
  Fe  -0.3491964  -0.2697588  -0.2697588 SPIN=   2.02001
  Fe   0.4357416   0.3651617   0.3651617 SPIN=   5.97999
   O  -0.1947666  -0.5163400   0.1967634 SPIN=   0.00000
   O   0.1609466  -0.3442161   0.1758791 SPIN=   0.00000
   O  -0.2678572  -0.1545131   0.3776114 SPIN=   0.00000
   S  -0.1152905  -0.2961520   0.1780472 SPIN=   0.00000
   O  -0.1947666   0.1967634  -0.5163400 SPIN=   0.00000
   O   0.1609466   0.1758791  -0.3442161 SPIN=   0.00000
   O  -0.2678572   0.3776114  -0.1545131 SPIN=   0.00000
   S  -0.1152905   0.1780472  -0.2961520 SPIN=   0.00000
   O  -0.0474899  -0.4903998  -0.4903998 SPIN=   0.00000
   O  -0.1636959  -0.0997833  -0.0997833 SPIN=   0.00000
   F   0.2954469   0.1634728   0.1634728 SPIN=   0.00000
   F   0.3294680  -0.3453794  -0.3453794 SPIN=   0.00000
%ENDBLOCK POSITIONS_FRAC

# Note: total spin =   8.00

KPOINTS_MP_SPACING 0.07

%BLOCK SPECIES_POT
QC5
%ENDBLOCK SPECIES_POT

SNAP_TO_SYMMETRY
SYMMETRY_GENERATE

