#              Generated by Buildcell
#
# at 03:34:59 (GMT+1.0) 4th August 2020
# in /lustre/scratch/uccabz1/launch_tmp
# on node-c12l-021
# by uccabz1
#
# compiler GCC version 4.9.2
# options -cpp -iprefix /lustre/shared/ucl/apps/gcc/4.9.2/bin/../lib/gcc/x86_64-unknown-linux-gnu/4.9.2/ -mtune=corei7 -march=x86-64 -g -Og
#
# seed -1784854644   -63599593  1477460140 -1908566941  1726779824 -1690763888  2109176558  1198927859 -1469189377 -1518301591  -844489121   953433520
#
#      Author: C. J. Pickard (cjp20@cam.ac.uk)
#                Space group: Cm
#

%BLOCK LATTICE_ABC
      6.01844      6.01844      6.13886
     71.58870     71.58870     82.08008
%ENDBLOCK LATTICE_ABC

%BLOCK POSITIONS_FRAC
  Li  -0.3041390  -0.3041390   0.2183329 SPIN=   0.00000
  Li   0.2227364   0.2227364  -0.4829353 SPIN=   0.00000
  Fe   0.2070090  -0.2648961   0.2079292 SPIN=   4.00000
  Fe  -0.2648961   0.2070090   0.2079292 SPIN=   4.00000
   O  -0.1072705   0.1713576  -0.4202952 SPIN=   0.00000
   O  -0.1182176   0.6034224  -0.5154576 SPIN=   0.00000
   O   0.0775380   0.3558424  -0.2167854 SPIN=   0.00000
   O  -0.3545756   0.3664275  -0.1209068 SPIN=   0.00000
   O   0.1713576  -0.1072705  -0.4202952 SPIN=   0.00000
   O   0.6034224  -0.1182176  -0.5154576 SPIN=   0.00000
   O   0.3558424   0.0775380  -0.2167854 SPIN=   0.00000
   O   0.3664275  -0.3545756  -0.1209068 SPIN=   0.00000
   S  -0.2565390  -0.2565390  -0.3556143 SPIN=   0.00000
   S   0.2882768   0.2882768   0.0113786 SPIN=   0.00000
   F  -0.0882768  -0.0882768   0.0359296 SPIN=   0.00000
   F   0.4744486   0.4744486   0.3907061 SPIN=   0.00000
%ENDBLOCK POSITIONS_FRAC

# Note: total spin =   8.00

KPOINTS_MP_SPACING 0.07

%BLOCK SPECIES_POT
QC5
%ENDBLOCK SPECIES_POT

SNAP_TO_SYMMETRY
SYMMETRY_GENERATE

