#              Generated by Buildcell
#
# at 23:17:32 (GMT+1.0) 18th August 2020
# in /lustre/scratch/uccabz1/launch_tmp
# on node-c12m-029
# by uccabz1
#
# compiler GCC version 4.9.2
# options -cpp -iprefix /lustre/shared/ucl/apps/gcc/4.9.2/bin/../lib/gcc/x86_64-unknown-linux-gnu/4.9.2/ -mtune=corei7 -march=x86-64 -g -Og
#
# seed  -142311352  1589782942  1535798500 -1842979848  1866207116 -1164437412 -1723914436 -1219759740 -1548967065 -1799188677  -354994657 -1572103364
#
#      Author: C. J. Pickard (cjp20@cam.ac.uk)
#                Space group: P2
#

%BLOCK LATTICE_ABC
      4.23590      6.77139      7.03388
     97.55688     90.00000     90.00000
%ENDBLOCK LATTICE_ABC

%BLOCK POSITIONS_FRAC
  Li   0.1462854  -0.0275928   0.2465008 SPIN=   0.00000
  Li   0.1462854   0.0275928  -0.2465008 SPIN=   0.00000
  Fe  -0.3537158   0.2653879  -0.3874262 SPIN=   4.00000
  Fe  -0.3537158  -0.2653879   0.3874262 SPIN=   4.00000
   O   0.1016505   0.2096860   0.0935644 SPIN=   0.00000
   O  -0.4086096   0.0808087   0.1966118 SPIN=   0.00000
   O  -0.3987374   0.3223450  -0.0385751 SPIN=   0.00000
   O  -0.2582494   0.4315922   0.3004809 SPIN=   0.00000
   S  -0.2409865   0.2611080   0.1380205 SPIN=   0.00000
   O   0.1016505  -0.2096860  -0.0935644 SPIN=   0.00000
   O  -0.4086096  -0.0808087  -0.1966118 SPIN=   0.00000
   O  -0.3987374  -0.3223450   0.0385751 SPIN=   0.00000
   O  -0.2582494  -0.4315922  -0.3004809 SPIN=   0.00000
   S  -0.2409865  -0.2611080  -0.1380205 SPIN=   0.00000
   F   0.1462841   0.2779844  -0.3766103 SPIN=   0.00000
   F   0.1462841  -0.2779844   0.3766103 SPIN=   0.00000
%ENDBLOCK POSITIONS_FRAC

# Note: total spin =   8.00

KPOINTS_MP_SPACING 0.07

%BLOCK SPECIES_POT
QC5
%ENDBLOCK SPECIES_POT

SNAP_TO_SYMMETRY
SYMMETRY_GENERATE

