#              Generated by Buildcell
#
# at 21:31:20 (GMT+1.0) 18th August 2020
# in /lustre/scratch/uccabz1/launch_tmp
# on node-c12e-001
# by uccabz1
#
# compiler GCC version 4.9.2
# options -cpp -iprefix /lustre/shared/ucl/apps/gcc/4.9.2/bin/../lib/gcc/x86_64-unknown-linux-gnu/4.9.2/ -mtune=corei7 -march=x86-64 -g -Og
#
# seed  1596714928 -2105600127   594303747  2046480504  -214720602   486970154  -946158556  1803705681  1001771028  1803075574  1445864667   159055353
#
#      Author: C. J. Pickard (cjp20@cam.ac.uk)
#                Space group: Pc
#

%BLOCK LATTICE_ABC
      3.85545      5.09665     10.18072
     90.00000     90.00000     91.27440
%ENDBLOCK LATTICE_ABC

%BLOCK POSITIONS_FRAC
  Li  -0.0140408  -0.4117453  -0.3886434 SPIN=   0.00000
  Li   0.4859592   0.0882547   0.3886434 SPIN=   0.00000
  Fe   0.4326289  -0.4887144  -0.1000036 SPIN=   4.00000
  Fe  -0.0673711   0.0112856   0.1000036 SPIN=   4.00000
   O  -0.1434888  -0.2331659  -0.1494540 SPIN=   0.00000
   O   0.3868375  -0.0022924  -0.2296666 SPIN=   0.00000
   O  -0.1151347   0.2523168  -0.1546096 SPIN=   0.00000
   O  -0.1508998   0.0010130  -0.3623588 SPIN=   0.00000
   S  -0.0056715   0.0044679  -0.2240223 SPIN=   0.00000
   O   0.3565112  -0.7331659   0.1494540 SPIN=   0.00000
   O   0.8868375  -0.5022924   0.2296666 SPIN=   0.00000
   O   0.3848653  -0.2476832   0.1546096 SPIN=   0.00000
   O   0.3491002  -0.4989870   0.3623588 SPIN=   0.00000
   S   0.4943285  -0.4955321   0.2240223 SPIN=   0.00000
   F  -0.0160070  -0.0008075   0.3584844 SPIN=   0.00000
   F   0.4839930   0.4991925  -0.3584844 SPIN=   0.00000
%ENDBLOCK POSITIONS_FRAC

# Note: total spin =   8.00

KPOINTS_MP_SPACING 0.07

%BLOCK SPECIES_POT
QC5
%ENDBLOCK SPECIES_POT

SNAP_TO_SYMMETRY
SYMMETRY_GENERATE

