#              Generated by Buildcell
#
# at 01:38:16 (GMT+1.0) 19th August 2020
# in /scratch/scratch/uccabz1/launch_tmp
# on node-k10b-010
# by uccabz1
#
# compiler GCC version 4.9.2
# options -cpp -iprefix /scratch/UCL/applications/gcc/4.9.2/bin/../lib/gcc/x86_64-unknown-linux-gnu/4.9.2/ -mtune=corei7 -march=x86-64 -g -O2
#
# seed   786891313  -969514300   133126607   246004273  -438771031   108002064  -884519240   589380633 -1890893144 -1243524703 -2044872806  1885218873
#
#      Author: C. J. Pickard (cjp20@cam.ac.uk)
#                Space group: P2
#

%BLOCK LATTICE_ABC
      4.79323      6.15431      6.78241
     90.00000     90.00000     91.56347
%ENDBLOCK LATTICE_ABC

%BLOCK POSITIONS_FRAC
  Li   0.2585956   0.2622289   0.3290814 SPIN=   0.00000
  Li  -0.2585956  -0.2622289   0.3290814 SPIN=   0.00000
  Fe  -0.2654391   0.2580280  -0.3888017 SPIN=   4.00000
  Fe   0.2654391  -0.2580280  -0.3888017 SPIN=   4.00000
   O  -0.2875255   0.4020855   0.2589182 SPIN=   0.00000
   O  -0.2503347   0.0142052   0.1690421 SPIN=   0.00000
   O   0.0405670   0.2935229  -0.0026844 SPIN=   0.00000
   O  -0.4687400   0.2699124  -0.0623325 SPIN=   0.00000
   S  -0.2415083   0.2449315   0.0907358 SPIN=   0.00000
   O   0.2875255  -0.4020855   0.2589182 SPIN=   0.00000
   O   0.2503347  -0.0142052   0.1690421 SPIN=   0.00000
   O  -0.0405670  -0.2935229  -0.0026844 SPIN=   0.00000
   O   0.4687400  -0.2699124  -0.0623325 SPIN=   0.00000
   S   0.2415083  -0.2449315   0.0907358 SPIN=   0.00000
   F  -0.1913870  -0.2552618  -0.3739889 SPIN=   0.00000
   F   0.1913870   0.2552618  -0.3739889 SPIN=   0.00000
%ENDBLOCK POSITIONS_FRAC

# Note: total spin =   8.00

KPOINTS_MP_SPACING 0.07

%BLOCK SPECIES_POT
QC5
%ENDBLOCK SPECIES_POT

SNAP_TO_SYMMETRY
SYMMETRY_GENERATE

