#              Generated by Buildcell
#
# at 00:50:42 (GMT+1.0) 19th August 2020
# in /lustre/scratch/uccabz1/launch_tmp
# on node-c12g-024
# by uccabz1
#
# compiler GCC version 4.9.2
# options -cpp -iprefix /lustre/shared/ucl/apps/gcc/4.9.2/bin/../lib/gcc/x86_64-unknown-linux-gnu/4.9.2/ -mtune=corei7 -march=x86-64 -g -Og
#
# seed  2007767466   727697466   744244964 -1182854051    95128247   172629227  1008606287   244573831  1273963138  1742148481  1921605176 -1799398350
#
#      Author: C. J. Pickard (cjp20@cam.ac.uk)
#                Space group: P21
#

%BLOCK LATTICE_ABC
      3.90398      4.43893     11.57177
     90.00000     94.17913     90.00000
%ENDBLOCK LATTICE_ABC

%BLOCK POSITIONS_FRAC
  Li   0.1165616   0.0708474  -0.1784541 SPIN=   0.00000
  Li  -0.1165616  -0.4291526   0.1784541 SPIN=   0.00000
  Fe   0.3059720   0.0708481   0.1015026 SPIN=   4.00000
  Fe  -0.3059720  -0.4291519  -0.1015026 SPIN=   4.00000
   O  -0.1638571  -0.0203707   0.2414032 SPIN=   0.00000
   O   0.3772132   0.1340818   0.3500280 SPIN=   0.00000
   O  -0.1175481  -0.0332741   0.4557876 SPIN=   0.00000
   O  -0.1397741   0.4558903   0.3528934 SPIN=   0.00000
   S  -0.0109915   0.1340818   0.3500280 SPIN=   0.00000
   O   0.1638571  -0.5203707  -0.2414032 SPIN=   0.00000
   O  -0.3772132  -0.3659182  -0.3500280 SPIN=   0.00000
   O   0.1175481  -0.5332741  -0.4557876 SPIN=   0.00000
   O   0.1397741  -0.0441097  -0.3528934 SPIN=   0.00000
   S   0.0109915  -0.3659182  -0.3500280 SPIN=   0.00000
   F   0.4003843  -0.3760062   0.1182934 SPIN=   0.00000
   F  -0.4003843   0.1239938  -0.1182934 SPIN=   0.00000
%ENDBLOCK POSITIONS_FRAC

# Note: total spin =   8.00

KPOINTS_MP_SPACING 0.07

%BLOCK SPECIES_POT
QC5
%ENDBLOCK SPECIES_POT

SNAP_TO_SYMMETRY
SYMMETRY_GENERATE

