#              Generated by Buildcell
#
# at 23:35:46 (GMT+1.0) 18th August 2020
# in /lustre/scratch/uccabz1/launch_tmp
# on node-c12a-035
# by uccabz1
#
# compiler GCC version 4.9.2
# options -cpp -iprefix /lustre/shared/ucl/apps/gcc/4.9.2/bin/../lib/gcc/x86_64-unknown-linux-gnu/4.9.2/ -mtune=corei7 -march=x86-64 -g -Og
#
# seed   246315148  1402016029  -845541033 -1130446687   391672812  1890348945  1951727958  -901292917  -266145495 -2076816719   921637784 -1426095496
#
#      Author: C. J. Pickard (cjp20@cam.ac.uk)
#                Space group: P-1
#

%BLOCK LATTICE_ABC
      4.08149      4.09642     12.15752
     81.98505     89.56356     83.54636
%ENDBLOCK LATTICE_ABC

%BLOCK POSITIONS_FRAC
  Li  -0.2376460  -0.2517989  -0.3922289 SPIN=   0.00000
  Li   0.2376460   0.2517989   0.3922289 SPIN=   0.00000
  Fe   0.3970728  -0.3479299   0.1294125 SPIN=   4.00000
  Fe  -0.3970728   0.3479299  -0.1294125 SPIN=   4.00000
   O   0.5349963   0.3297502  -0.3636214 SPIN=   0.00000
   O   0.2832903  -0.1888970  -0.3059720 SPIN=   0.00000
   O   0.0250127   0.2289917  -0.4560915 SPIN=   0.00000
   O   0.0074698   0.3461238  -0.2617263 SPIN=   0.00000
   S   0.2126922   0.1789922  -0.3468528 SPIN=   0.00000
   O  -0.5349963  -0.3297502   0.3636214 SPIN=   0.00000
   O  -0.2832903   0.1888970   0.3059720 SPIN=   0.00000
   O  -0.0250127  -0.2289917   0.4560915 SPIN=   0.00000
   O  -0.0074698  -0.3461238   0.2617263 SPIN=   0.00000
   S  -0.2126922  -0.1789922   0.3468528 SPIN=   0.00000
   F  -0.2260121  -0.1804057  -0.1072629 SPIN=   0.00000
   F   0.2260121   0.1804057   0.1072629 SPIN=   0.00000
%ENDBLOCK POSITIONS_FRAC

# Note: total spin =   8.00

KPOINTS_MP_SPACING 0.07

%BLOCK SPECIES_POT
QC5
%ENDBLOCK SPECIES_POT

SNAP_TO_SYMMETRY
SYMMETRY_GENERATE

