#              Generated by Buildcell
#
# at 04:09:04 (GMT+1.0) 4th August 2020
# in /lustre/scratch/uccabz1/launch_tmp
# on node-c12m-015
# by uccabz1
#
# compiler GCC version 4.9.2
# options -cpp -iprefix /lustre/shared/ucl/apps/gcc/4.9.2/bin/../lib/gcc/x86_64-unknown-linux-gnu/4.9.2/ -mtune=corei7 -march=x86-64 -g -Og
#
# seed -2023002010 -1662815785 -1654718943  -915775434   585898609  -806216523  1684143962  1026456723  1225147968  -171094047   469861710 -1430091731
#
#      Author: C. J. Pickard (cjp20@cam.ac.uk)
#                Space group: Pc
#

%BLOCK LATTICE_ABC
      4.26877      5.30277      9.41014
     90.00000     90.00000    110.12910
%ENDBLOCK LATTICE_ABC

%BLOCK POSITIONS_FRAC
  Li   0.5455947   0.4448578   0.3394842 SPIN=   0.00000
  Li   0.0455947  -0.0551422  -0.3394842 SPIN=   0.00000
  Fe   0.0063954   0.2720091   0.1292929 SPIN=   4.00000
  Fe  -0.4936046  -0.2279909  -0.1292929 SPIN=   4.00000
   O   0.6806710   0.0956129  -0.3897827 SPIN=   0.00000
   O   0.7083569   0.4451139  -0.2111071 SPIN=   0.00000
   O   0.7170497   0.5506710  -0.4675773 SPIN=   0.00000
   O   1.2052394   0.4797581  -0.3560562 SPIN=   0.00000
   S   0.8278292   0.3927890  -0.3561308 SPIN=   0.00000
   O   0.1806710  -0.4043871   0.3897827 SPIN=   0.00000
   O   0.2083569  -0.0548861   0.2111071 SPIN=   0.00000
   O   0.2170497   0.0506710   0.4675773 SPIN=   0.00000
   O   0.7052394  -0.0202419   0.3560562 SPIN=   0.00000
   S   0.3278292  -0.1072110   0.3561308 SPIN=   0.00000
   F   0.6525315   0.4827213   0.1402301 SPIN=   0.00000
   F   0.1525315  -0.0172787  -0.1402301 SPIN=   0.00000
%ENDBLOCK POSITIONS_FRAC

# Note: total spin =   8.00

KPOINTS_MP_SPACING 0.07

%BLOCK SPECIES_POT
QC5
%ENDBLOCK SPECIES_POT

SNAP_TO_SYMMETRY
SYMMETRY_GENERATE

