#              Generated by Buildcell
#
# at 02:44:58 (GMT+1.0) 19th August 2020
# in /lustre/scratch/uccabz1/launch_tmp
# on node-c12e-033
# by uccabz1
#
# compiler GCC version 4.9.2
# options -cpp -iprefix /lustre/shared/ucl/apps/gcc/4.9.2/bin/../lib/gcc/x86_64-unknown-linux-gnu/4.9.2/ -mtune=corei7 -march=x86-64 -g -Og
#
# seed -1928498083   731866436  1862417894  1594320692 -1241024605 -1233228729  1548913865 -1720629806 -1736543191  1919668514  -370090212  -905970946
#
#      Author: C. J. Pickard (cjp20@cam.ac.uk)
#                Space group: P21
#

%BLOCK LATTICE_ABC
      3.95034      4.54713     11.17697
     90.00000     95.01464     90.00000
%ENDBLOCK LATTICE_ABC

%BLOCK POSITIONS_FRAC
  Li   0.3843011  -0.2269338  -0.3356489 SPIN=   0.00000
  Li  -0.3843011   0.2730662   0.3356489 SPIN=   0.00000
  Fe   0.2374961   0.0451342  -0.0990472 SPIN=   4.00000
  Fe  -0.2374961  -0.4548658   0.0990472 SPIN=   4.00000
   O  -0.4057027   0.3034618  -0.2757032 SPIN=   0.00000
   O  -0.4683770   0.2452178  -0.4966854 SPIN=   0.00000
   O  -0.0780712  -0.0800800  -0.3722388 SPIN=   0.00000
   O   0.0653965   0.4452844  -0.3960159 SPIN=   0.00000
   S  -0.2216886   0.2284710  -0.3851608 SPIN=   0.00000
   O   0.4057027  -0.1965382   0.2757032 SPIN=   0.00000
   O   0.4683770  -0.2547822   0.4966854 SPIN=   0.00000
   O   0.0780712  -0.5800800   0.3722388 SPIN=   0.00000
   O  -0.0653965  -0.0547156   0.3960159 SPIN=   0.00000
   S   0.2216886  -0.2715290   0.3851608 SPIN=   0.00000
   F  -0.2106099   0.0833667   0.1165704 SPIN=   0.00000
   F   0.2106099  -0.4166333  -0.1165704 SPIN=   0.00000
%ENDBLOCK POSITIONS_FRAC

# Note: total spin =   8.00

KPOINTS_MP_SPACING 0.07

%BLOCK SPECIES_POT
QC5
%ENDBLOCK SPECIES_POT

SNAP_TO_SYMMETRY
SYMMETRY_GENERATE

