#              Generated by Buildcell
#
# at 00:11:21 (GMT+1.0) 19th August 2020
# in /lustre/scratch/uccabz1/launch_tmp
# on node-c12j-016
# by uccabz1
#
# compiler GCC version 4.9.2
# options -cpp -iprefix /lustre/shared/ucl/apps/gcc/4.9.2/bin/../lib/gcc/x86_64-unknown-linux-gnu/4.9.2/ -mtune=corei7 -march=x86-64 -g -Og
#
# seed  -294003388  -465194477  1139127045 -1592963834   726140147 -1125752877  -957970002 -1127243720  -776531829  1629554799  1143820671 -1991569622
#
#      Author: C. J. Pickard (cjp20@cam.ac.uk)
#                Space group: Cc
#

%BLOCK LATTICE_ABC
      4.49144      4.49144     11.44610
     80.79601     80.79601     61.83894
%ENDBLOCK LATTICE_ABC

%BLOCK POSITIONS_FRAC
  Li  -0.2176565   0.3400513  -0.3217642 SPIN=   0.00000
  Li   0.3400513  -0.2176565   0.1782358 SPIN=   0.00000
  Fe  -0.0670956   0.3749670   0.3284639 SPIN=   4.00000
  Fe   0.3749670  -0.0670956  -0.1715361 SPIN=   4.00000
   O   0.2695668   0.2821724  -0.3216471 SPIN=   0.00000
   O   0.7340143  -0.0167422  -0.4736840 SPIN=   0.00000
   O   0.3536120   0.5976568  -0.5113839 SPIN=   0.00000
   O   0.1368470   0.1819662  -0.5089521 SPIN=   0.00000
   S   0.3735100   0.2612633  -0.4539168 SPIN=   0.00000
   O   0.2821724   0.2695668   0.1783529 SPIN=   0.00000
   O  -0.0167422   0.7340143   0.0263160 SPIN=   0.00000
   O   0.5976568   0.3536120  -0.0113839 SPIN=   0.00000
   O   0.1819662   0.1368470  -0.0089521 SPIN=   0.00000
   S   0.2612633   0.3735100   0.0460832 SPIN=   0.00000
   F  -0.1143499  -0.0502033   0.2749942 SPIN=   0.00000
   F  -0.0502033  -0.1143499  -0.2250058 SPIN=   0.00000
%ENDBLOCK POSITIONS_FRAC

# Note: total spin =   8.00

KPOINTS_MP_SPACING 0.07

%BLOCK SPECIES_POT
QC5
%ENDBLOCK SPECIES_POT

SNAP_TO_SYMMETRY
SYMMETRY_GENERATE

