#              Generated by Buildcell
#
# at 03:03:50 (GMT+1.0) 19th August 2020
# in /lustre/scratch/uccabz1/launch_tmp
# on node-c12a-022
# by uccabz1
#
# compiler GCC version 4.9.2
# options -cpp -iprefix /lustre/shared/ucl/apps/gcc/4.9.2/bin/../lib/gcc/x86_64-unknown-linux-gnu/4.9.2/ -mtune=corei7 -march=x86-64 -g -Og
#
# seed   566836536  1442903158  -514433547  1790706906   874369261   245100540  2027352696  -399887028 -1400857457 -1076635264  2109221724  1848555136
#
#      Author: C. J. Pickard (cjp20@cam.ac.uk)
#                Space group: Cc
#

%BLOCK LATTICE_ABC
      4.19043      4.87443     10.94713
     97.08916     90.00000    115.45726
%ENDBLOCK LATTICE_ABC

%BLOCK POSITIONS_FRAC
  Li  -0.1253463   0.3191948  -0.1343539 SPIN=   0.00000
  Li  -0.0554590   0.3191948   0.3656461 SPIN=   0.00000
  Fe   0.3344332  -0.0839104   0.0308781 SPIN=   4.00000
  Fe   0.0816564  -0.0839104  -0.4691219 SPIN=   4.00000
   O   0.0404381  -0.2552175   0.3189265 SPIN=   0.00000
   O  -0.6065625  -0.5683258   0.2839790 SPIN=   0.00000
   O  -0.2318419  -0.4287513   0.1061892 SPIN=   0.00000
   O  -0.3355560  -0.0311614   0.2404107 SPIN=   0.00000
   S  -0.2833806  -0.3208640   0.2373764 SPIN=   0.00000
   O   0.2043444  -0.2552175  -0.1810735 SPIN=   0.00000
   O   0.5382367  -0.5683258  -0.2160210 SPIN=   0.00000
   O   0.3030906  -0.4287513  -0.3938108 SPIN=   0.00000
   O   0.8043945  -0.0311614  -0.2595893 SPIN=   0.00000
   S   0.4625166  -0.3208640  -0.2626236 SPIN=   0.00000
   F  -0.3975122   0.1651650   0.4965679 SPIN=   0.00000
   F   0.0626772   0.1651650  -0.0034321 SPIN=   0.00000
%ENDBLOCK POSITIONS_FRAC

# Note: total spin =   8.00

KPOINTS_MP_SPACING 0.07

%BLOCK SPECIES_POT
QC5
%ENDBLOCK SPECIES_POT

SNAP_TO_SYMMETRY
SYMMETRY_GENERATE

