#              Generated by Buildcell
#
# at 02:41:53 (GMT+1.0) 19th August 2020
# in /lustre/scratch/uccabz1/launch_tmp
# on node-c12k-012
# by uccabz1
#
# compiler GCC version 4.9.2
# options -cpp -iprefix /lustre/shared/ucl/apps/gcc/4.9.2/bin/../lib/gcc/x86_64-unknown-linux-gnu/4.9.2/ -mtune=corei7 -march=x86-64 -g -Og
#
# seed  -324224140   369794480   653852927  -656105160  1475645579 -1321550961  -946735245  -829455520  1960604956  1791015395  2012293717  -903330759
#
#      Author: C. J. Pickard (cjp20@cam.ac.uk)
#                Space group: P-1
#

%BLOCK LATTICE_ABC
      3.94382      5.31516      9.83312
     96.49821     99.41045     96.92116
%ENDBLOCK LATTICE_ABC

%BLOCK POSITIONS_FRAC
  Li   0.3392760  -0.2401901   0.1152916 SPIN=   0.00000
  Li  -0.3392760   0.2401901  -0.1152916 SPIN=   0.00000
  Fe  -0.1091230  -0.7364928  -0.3885754 SPIN=   4.00000
  Fe   0.1091230   0.7364928   0.3885754 SPIN=   4.00000
   O   0.5838032  -0.0073852   0.3164712 SPIN=   0.00000
   O   0.1072631   0.2566216   0.2910615 SPIN=   0.00000
   O   0.5847293   0.3230662   0.1582306 SPIN=   0.00000
   O   0.6955011   0.4514319   0.4132010 SPIN=   0.00000
   S   0.4928242   0.2559336   0.2947411 SPIN=   0.00000
   O  -0.5838032   0.0073852  -0.3164712 SPIN=   0.00000
   O  -0.1072631  -0.2566216  -0.2910615 SPIN=   0.00000
   O  -0.5847293  -0.3230662  -0.1582306 SPIN=   0.00000
   O  -0.6955011  -0.4514319  -0.4132010 SPIN=   0.00000
   S  -0.4928242  -0.2559336  -0.2947411 SPIN=   0.00000
   F   0.1734810   0.2472967  -0.0871157 SPIN=   0.00000
   F  -0.1734810  -0.2472967   0.0871157 SPIN=   0.00000
%ENDBLOCK POSITIONS_FRAC

# Note: total spin =   8.00

KPOINTS_MP_SPACING 0.07

%BLOCK SPECIES_POT
QC5
%ENDBLOCK SPECIES_POT

SNAP_TO_SYMMETRY
SYMMETRY_GENERATE

