#              Generated by Buildcell
#
# at 02:23:08 (GMT+1.0) 19th August 2020
# in /lustre/scratch/uccabz1/launch_tmp
# on node-c12p-014
# by uccabz1
#
# compiler GCC version 4.9.2
# options -cpp -iprefix /lustre/shared/ucl/apps/gcc/4.9.2/bin/../lib/gcc/x86_64-unknown-linux-gnu/4.9.2/ -mtune=corei7 -march=x86-64 -g -Og
#
# seed -2057832104  -722558348    86062607  -929564641  -159085470   868655350   753988160  1886110082  1490590185  1838977490   417817181    70704871
#
#      Author: C. J. Pickard (cjp20@cam.ac.uk)
#                Space group: Pnn2
#

%BLOCK LATTICE_ABC
      4.06683      6.54902      7.50926
     90.00000     90.00000     90.00000
%ENDBLOCK LATTICE_ABC

%BLOCK POSITIONS_FRAC
  Li   0.5000000   0.0000000  -0.3755636 SPIN=   0.00000
  Li  -0.0000000   0.5000000   0.1244364 SPIN=   0.00000
  Fe  -0.5000000   0.0000000   0.2325728 SPIN=   4.00000
  Fe  -0.0000000   0.5000000  -0.2674272 SPIN=   4.00000
   O  -0.2149038  -0.3851705   0.4627689 SPIN=   0.00000
   O  -0.6422336  -0.3095717   0.2375735 SPIN=   0.00000
   O   0.2149038   0.3851705   0.4627689 SPIN=   0.00000
   O   0.6422336   0.3095717   0.2375735 SPIN=   0.00000
   O   0.2850962  -0.1148295  -0.0372311 SPIN=   0.00000
   O  -0.1422336  -0.1904283  -0.2624265 SPIN=   0.00000
   O  -0.2850962   0.1148295  -0.0372311 SPIN=   0.00000
   O   0.1422336   0.1904283  -0.2624265 SPIN=   0.00000
   S  -0.0000000   0.0000000  -0.1142317 SPIN=   0.00000
   S   0.5000000   0.5000000   0.3857683 SPIN=   0.00000
   F   0.5000000   0.5000000  -0.1142317 SPIN=   0.00000
   F  -0.0000000   0.0000000   0.3857683 SPIN=   0.00000
%ENDBLOCK POSITIONS_FRAC

# Note: total spin =   8.00

KPOINTS_MP_SPACING 0.07

%BLOCK SPECIES_POT
QC5
%ENDBLOCK SPECIES_POT

SNAP_TO_SYMMETRY
SYMMETRY_GENERATE

