#              Generated by Buildcell
#
# at 03:08:57 (GMT+1.0) 4th August 2020
# in /lustre/scratch/uccabz1/launch_tmp
# on node-c12h-034
# by uccabz1
#
# compiler GCC version 4.9.2
# options -cpp -iprefix /lustre/shared/ucl/apps/gcc/4.9.2/bin/../lib/gcc/x86_64-unknown-linux-gnu/4.9.2/ -mtune=corei7 -march=x86-64 -g -Og
#
# seed -1724593054  1190328873 -1471292009   488360590  1285140998  1757412552  1659774161  1132352936 -1202454657   716056757  1618036129 -1529209386
#
#      Author: C. J. Pickard (cjp20@cam.ac.uk)
#                Space group: Pc
#

%BLOCK LATTICE_ABC
      4.55196      4.62872      9.51915
     94.30642     90.00000     90.00000
%ENDBLOCK LATTICE_ABC

%BLOCK POSITIONS_FRAC
  Li  -0.3591664   0.0736490   0.3091543 SPIN=   0.00000
  Li   0.3591664  -0.4263510  -0.1908457 SPIN=   0.00000
  Fe  -0.1407487   0.2309120  -0.0743534 SPIN=   4.00000
  Fe   0.1407487  -0.2690880   0.4256466 SPIN=   4.00000
   O   0.2200631  -0.0249021  -0.0130359 SPIN=   0.00000
   O   0.7257157  -0.1416229   0.0596752 SPIN=   0.00000
   O   0.3492284  -0.5277702   0.0343734 SPIN=   0.00000
   O   0.3175676  -0.1480509   0.2311735 SPIN=   0.00000
   S   0.4031437  -0.2105865   0.0780465 SPIN=   0.00000
   O  -0.2200631   0.4750979  -0.5130359 SPIN=   0.00000
   O  -0.7257157   0.3583771  -0.4403248 SPIN=   0.00000
   O  -0.3492284  -0.0277702  -0.4656266 SPIN=   0.00000
   O  -0.3175676   0.3519491  -0.2688265 SPIN=   0.00000
   S  -0.4031437   0.2894135  -0.4219535 SPIN=   0.00000
   F  -0.0961605   0.3366411   0.2140190 SPIN=   0.00000
   F   0.0961605  -0.1633589  -0.2859810 SPIN=   0.00000
%ENDBLOCK POSITIONS_FRAC

# Note: total spin =   8.00

KPOINTS_MP_SPACING 0.07

%BLOCK SPECIES_POT
QC5
%ENDBLOCK SPECIES_POT

SNAP_TO_SYMMETRY
SYMMETRY_GENERATE

