#              Generated by Buildcell
#
# at 04:03:10 (GMT+1.0) 4th August 2020
# in /lustre/scratch/uccabz1/launch_tmp
# on node-c12e-016
# by uccabz1
#
# compiler GCC version 4.9.2
# options -cpp -iprefix /lustre/shared/ucl/apps/gcc/4.9.2/bin/../lib/gcc/x86_64-unknown-linux-gnu/4.9.2/ -mtune=corei7 -march=x86-64 -g -Og
#
# seed  1052098969  1241480187 -1709118407  1889419918  1338641098  -538774286   802727528   107256295   867437535 -1445466768  -482915813  -233092367
#
#      Author: C. J. Pickard (cjp20@cam.ac.uk)
#                Space group: Pc
#

%BLOCK LATTICE_ABC
      5.43926      6.05883      6.07590
     90.00000     90.00000     92.77470
%ENDBLOCK LATTICE_ABC

%BLOCK POSITIONS_FRAC
  Li   0.3176124  -0.0600797   0.3180142 SPIN=   0.00000
  Li  -0.1823876   0.4399203  -0.3180142 SPIN=   0.00000
  Fe  -0.1223407  -0.0561671  -0.3696562 SPIN=   4.00000
  Fe   0.3776593   0.4438329   0.3696562 SPIN=   4.00000
   O  -0.2208661  -0.5566191   0.0176318 SPIN=   0.00000
   O   0.1608625  -0.3656143   0.1560454 SPIN=   0.00000
   O  -0.2407077  -0.2884426   0.3236125 SPIN=   0.00000
   O  -0.1418714  -0.1572462  -0.0533369 SPIN=   0.00000
   S  -0.1106457  -0.3419806   0.1109882 SPIN=   0.00000
   O   0.2791339  -0.0566191  -0.0176318 SPIN=   0.00000
   O   0.6608625   0.1343857  -0.1560454 SPIN=   0.00000
   O   0.2592923   0.2115574  -0.3236125 SPIN=   0.00000
   O   0.3581286   0.3427538   0.0533369 SPIN=   0.00000
   S   0.3893543   0.1580194  -0.1109882 SPIN=   0.00000
   F  -0.2658387   0.1512732   0.3881812 SPIN=   0.00000
   F   0.2341613  -0.3487268  -0.3881812 SPIN=   0.00000
%ENDBLOCK POSITIONS_FRAC

# Note: total spin =   8.00

KPOINTS_MP_SPACING 0.07

%BLOCK SPECIES_POT
QC5
%ENDBLOCK SPECIES_POT

SNAP_TO_SYMMETRY
SYMMETRY_GENERATE

