#              Generated by Buildcell
#
# at 01:54:42 (GMT+1.0) 4th August 2020
# in /lustre/scratch/uccabz1/launch_tmp
# on node-c12p-012
# by uccabz1
#
# compiler GCC version 4.9.2
# options -cpp -iprefix /lustre/shared/ucl/apps/gcc/4.9.2/bin/../lib/gcc/x86_64-unknown-linux-gnu/4.9.2/ -mtune=corei7 -march=x86-64 -g -Og
#
# seed -1265408449   996910015  -505461042 -1036736097  1871498570 -1472465659  1559858332  -274265136   860131466  -323640001   508381506  1818980785
#
#      Author: C. J. Pickard (cjp20@cam.ac.uk)
#                Space group: Cc
#

%BLOCK LATTICE_ABC
      5.50375      6.21597      7.13136
     73.64444     67.30139     63.72305
%ENDBLOCK LATTICE_ABC

%BLOCK POSITIONS_FRAC
  Li   0.2026703   0.3073458   0.1821261 SPIN=   0.00000
  Li   0.3078578  -0.1926542  -0.3178739 SPIN=   0.00000
  Fe  -0.2042594   0.2253226  -0.0746312 SPIN=   4.00000
  Fe   0.0535679  -0.2746774   0.4253688 SPIN=   4.00000
   O   0.2033443   0.2582440  -0.1688812 SPIN=   0.00000
   O   0.6947008  -0.0041953  -0.3392519 SPIN=   0.00000
   O   0.4930382   0.4224862  -0.4894821 SPIN=   0.00000
   O   0.3153340   0.1238835  -0.4982135 SPIN=   0.00000
   S   0.4266043   0.2001046  -0.3739572 SPIN=   0.00000
   O  -0.2927070  -0.2417560   0.3311188 SPIN=   0.00000
   O  -0.3512536  -0.5041953   0.1607481 SPIN=   0.00000
   O  -0.4260424  -0.0775138   0.0105179 SPIN=   0.00000
   O   0.0589959  -0.3761165   0.0017865 SPIN=   0.00000
   S  -0.2527518  -0.2998954   0.1260428 SPIN=   0.00000
   F   0.0286765   0.0671393   0.1961570 SPIN=   0.00000
   F  -0.2919728  -0.4328607  -0.3038430 SPIN=   0.00000
%ENDBLOCK POSITIONS_FRAC

# Note: total spin =   8.00

KPOINTS_MP_SPACING 0.07

%BLOCK SPECIES_POT
QC5
%ENDBLOCK SPECIES_POT

SNAP_TO_SYMMETRY
SYMMETRY_GENERATE

