#              Generated by Buildcell
#
# at 00:50:19 (GMT+1.0) 19th August 2020
# in /lustre/scratch/uccabz1/launch_tmp
# on node-c12i-032
# by uccabz1
#
# compiler GCC version 4.9.2
# options -cpp -iprefix /lustre/shared/ucl/apps/gcc/4.9.2/bin/../lib/gcc/x86_64-unknown-linux-gnu/4.9.2/ -mtune=corei7 -march=x86-64 -g -Og
#
# seed  -869072905 -1542829116  1144461215  1969810361  1307037224   810690941 -1238720303  1155450941 -1098694464 -1688871169  -164378142 -1935461061
#
#      Author: C. J. Pickard (cjp20@cam.ac.uk)
#                Space group: P-1
#

%BLOCK LATTICE_ABC
      5.08122      6.21696      6.97492
     87.63178     68.86339     76.93860
%ENDBLOCK LATTICE_ABC

%BLOCK POSITIONS_FRAC
  Li   0.6571238  -0.1097105  -0.2848485 SPIN=   0.00000
  Li  -0.6571238   0.1097105   0.2848485 SPIN=   0.00000
  Fe   0.0000000   0.0000000  -0.0000000 SPIN=   2.39142
  Fe  -0.5000000   0.5000000   0.0000000 SPIN=   5.60858
   O  -0.1202675  -0.3202314   0.0763743 SPIN=   0.00000
   O   0.1106415  -0.4959914   0.3186833 SPIN=   0.00000
   O  -0.3474336  -0.5787311   0.3271706 SPIN=   0.00000
   O  -0.3464660  -0.2098751   0.4471051 SPIN=   0.00000
   S  -0.1758814  -0.4012073   0.2923333 SPIN=   0.00000
   O   0.1202675   0.3202314  -0.0763743 SPIN=   0.00000
   O  -0.1106415   0.4959914  -0.3186833 SPIN=   0.00000
   O   0.3474336   0.5787311  -0.3271706 SPIN=   0.00000
   O   0.3464660   0.2098751  -0.4471051 SPIN=   0.00000
   S   0.1758814   0.4012073  -0.2923333 SPIN=   0.00000
   F   1.0000000   0.0000000  -0.5000000 SPIN=   0.00000
   F  -0.5000000   0.0000000   0.0000000 SPIN=   0.00000
%ENDBLOCK POSITIONS_FRAC

# Note: total spin =   8.00

KPOINTS_MP_SPACING 0.07

%BLOCK SPECIES_POT
QC5
%ENDBLOCK SPECIES_POT

SNAP_TO_SYMMETRY
SYMMETRY_GENERATE

