#              Generated by Buildcell
#
# at 22:48:57 (GMT+1.0) 18th August 2020
# in /scratch/scratch/uccabz1/launch_tmp
# on node-k10e-006
# by uccabz1
#
# compiler GCC version 4.9.2
# options -cpp -iprefix /scratch/UCL/applications/gcc/4.9.2/bin/../lib/gcc/x86_64-unknown-linux-gnu/4.9.2/ -mtune=corei7 -march=x86-64 -g -O2
#
# seed -1157398322  -989668301  1304868172  1964770253 -2020204491  1072212409   334857367  -646809577 -1550125691 -1574700077 -1143827862  -173281213
#
#      Author: C. J. Pickard (cjp20@cam.ac.uk)
#                Space group: Cc
#

%BLOCK LATTICE_ABC
      4.12933      4.12933     12.46443
     85.70706     85.70706     70.91205
%ENDBLOCK LATTICE_ABC

%BLOCK POSITIONS_FRAC
  Li  -0.1745885   0.3912169   0.1773493 SPIN=   0.00000
  Li  -0.1087831   0.3254115  -0.3226507 SPIN=   0.00000
  Fe  -0.4590634  -0.0496082   0.3278634 SPIN=   4.00000
  Fe   0.4503918   0.0409366  -0.1721366 SPIN=   4.00000
   O  -0.0531990  -0.1547601  -0.1138946 SPIN=   0.00000
   O   0.0120953  -0.7156069  -0.0166744 SPIN=   0.00000
   O  -0.1891582  -0.1826376   0.0826636 SPIN=   0.00000
   O   0.4139654  -0.4012508   0.0113956 SPIN=   0.00000
   S   0.0459259  -0.3635638  -0.0091275 SPIN=   0.00000
   O   0.3452399  -0.5531990   0.3861054 SPIN=   0.00000
   O  -0.2156069  -0.4879047   0.4833256 SPIN=   0.00000
   O   0.3173624  -0.6891582   0.5826636 SPIN=   0.00000
   O   0.0987492  -0.0860346   0.5113956 SPIN=   0.00000
   S   0.1364362  -0.4540741   0.4908725 SPIN=   0.00000
   F  -0.4713678  -0.2977899  -0.2689553 SPIN=   0.00000
   F   0.2022101   0.0286322   0.2310447 SPIN=   0.00000
%ENDBLOCK POSITIONS_FRAC

# Note: total spin =   8.00

KPOINTS_MP_SPACING 0.07

%BLOCK SPECIES_POT
QC5
%ENDBLOCK SPECIES_POT

SNAP_TO_SYMMETRY
SYMMETRY_GENERATE

