#              Generated by Buildcell
#
# at 04:03:18 (GMT+1.0) 4th August 2020
# in /lustre/scratch/uccabz1/launch_tmp
# on node-c12f-021
# by uccabz1
#
# compiler GCC version 4.9.2
# options -cpp -iprefix /lustre/shared/ucl/apps/gcc/4.9.2/bin/../lib/gcc/x86_64-unknown-linux-gnu/4.9.2/ -mtune=corei7 -march=x86-64 -g -Og
#
# seed -1712837444  -798072063   724358466  -236311921  1846294162  1676097202 -1083775037  1376140714 -1421368716 -1405200024   810737243  -387081680
#
#      Author: C. J. Pickard (cjp20@cam.ac.uk)
#                Space group: P-1
#

%BLOCK LATTICE_ABC
      4.09904      4.41584     11.12198
     90.98122     96.02921     92.26249
%ENDBLOCK LATTICE_ABC

%BLOCK POSITIONS_FRAC
  Li   0.0352337   0.2721844   0.1463168 SPIN=   0.00000
  Li  -0.0352337  -0.2721844  -0.1463168 SPIN=   0.00000
  Fe   0.2693756  -0.2326277  -0.3966047 SPIN=   4.00000
  Fe  -0.2693756   0.2326277   0.3966047 SPIN=   4.00000
   O   0.6029806   0.4562057  -0.0879172 SPIN=   0.00000
   O   0.0517442   0.1994713  -0.1153913 SPIN=   0.00000
   O   0.5318353  -0.0617779  -0.1778456 SPIN=   0.00000
   O   0.3153828   0.3739007  -0.2935766 SPIN=   0.00000
   S   0.3754858   0.2419500  -0.1686827 SPIN=   0.00000
   O  -0.6029806  -0.4562057   0.0879172 SPIN=   0.00000
   O  -0.0517442  -0.1994713   0.1153913 SPIN=   0.00000
   O  -0.5318353   0.0617779   0.1778456 SPIN=   0.00000
   O  -0.3153828  -0.3739007   0.2935766 SPIN=   0.00000
   S  -0.3754858  -0.2419500   0.1686827 SPIN=   0.00000
   F  -0.2029789  -0.2517796  -0.3717537 SPIN=   0.00000
   F   0.2029789   0.2517796   0.3717537 SPIN=   0.00000
%ENDBLOCK POSITIONS_FRAC

# Note: total spin =   8.00

KPOINTS_MP_SPACING 0.07

%BLOCK SPECIES_POT
QC5
%ENDBLOCK SPECIES_POT

SNAP_TO_SYMMETRY
SYMMETRY_GENERATE

