#              Generated by Buildcell
#
# at 22:44:24 (GMT+1.0) 18th August 2020
# in /lustre/scratch/uccabz1/launch_tmp
# on node-c12k-027
# by uccabz1
#
# compiler GCC version 4.9.2
# options -cpp -iprefix /lustre/shared/ucl/apps/gcc/4.9.2/bin/../lib/gcc/x86_64-unknown-linux-gnu/4.9.2/ -mtune=corei7 -march=x86-64 -g -Og
#
# seed  1648566907  1189319378  -238815856 -1692656603   727906590  1504319425  -152211859  1538449869   -14512940   824328052  -908286219   -94412873
#
#      Author: C. J. Pickard (cjp20@cam.ac.uk)
#                Space group: Pc
#

%BLOCK LATTICE_ABC
      3.99632      6.53151      8.29704
    112.55809     90.00000     90.00000
%ENDBLOCK LATTICE_ABC

%BLOCK POSITIONS_FRAC
  Li  -0.1298832  -0.0569088  -0.0163460 SPIN=   0.00000
  Li   0.1298832  -0.0569088   0.4836540 SPIN=   0.00000
  Fe   0.3769321   0.2339120   0.2550228 SPIN=   4.00000
  Fe  -0.3769321   0.2339120  -0.2449772 SPIN=   4.00000
   O   0.1354500  -0.3198769  -0.2901951 SPIN=   0.00000
   O  -0.3235372  -0.2120195  -0.4418825 SPIN=   0.00000
   O  -0.3447315  -0.5724373  -0.4085413 SPIN=   0.00000
   O   0.0660549  -0.5129545  -0.6095659 SPIN=   0.00000
   S  -0.1166910  -0.4043220  -0.4375462 SPIN=   0.00000
   O  -0.1354500  -0.3198769   0.2098049 SPIN=   0.00000
   O   0.3235372  -0.2120195   0.0581175 SPIN=   0.00000
   O   0.3447315  -0.5724373   0.0914587 SPIN=   0.00000
   O  -0.0660549  -0.5129545  -0.1095659 SPIN=   0.00000
   S   0.1166910  -0.4043220   0.0624538 SPIN=   0.00000
   F   0.4729265   0.0361380  -0.1323537 SPIN=   0.00000
   F  -0.4729265   0.0361380   0.3676463 SPIN=   0.00000
%ENDBLOCK POSITIONS_FRAC

# Note: total spin =   8.00

KPOINTS_MP_SPACING 0.07

%BLOCK SPECIES_POT
QC5
%ENDBLOCK SPECIES_POT

SNAP_TO_SYMMETRY
SYMMETRY_GENERATE

