#              Generated by Buildcell
#
# at 01:19:49 (GMT+1.0) 19th August 2020
# in /lustre/scratch/uccabz1/launch_tmp
# on node-c12p-007
# by uccabz1
#
# compiler GCC version 4.9.2
# options -cpp -iprefix /lustre/shared/ucl/apps/gcc/4.9.2/bin/../lib/gcc/x86_64-unknown-linux-gnu/4.9.2/ -mtune=corei7 -march=x86-64 -g -Og
#
# seed  1324958030   387639646 -1131465036  2101242052  1894266341 -1697727189 -1022751320   689549895  1121214055   372950232 -1861161389  1987892617
#
#      Author: C. J. Pickard (cjp20@cam.ac.uk)
#                Space group: Pba2
#

%BLOCK LATTICE_ABC
      3.87149      6.73326      7.67231
     90.00000     90.00000     90.00000
%ENDBLOCK LATTICE_ABC

%BLOCK POSITIONS_FRAC
  Li  -0.5000000  -0.0000000  -0.2994214 SPIN=   0.00000
  Li   0.0000000   0.5000000  -0.2994214 SPIN=   0.00000
  Fe   0.0000000  -0.5000000   0.0889525 SPIN=   4.00000
  Fe   0.5000000  -0.0000000   0.0889525 SPIN=   4.00000
   O   0.7280002   0.1038827   0.3329823 SPIN=   0.00000
   O   0.2212756   0.1461305   0.5261082 SPIN=   0.00000
   O  -0.7280002  -0.1038827   0.3329823 SPIN=   0.00000
   O  -0.2212756  -0.1461305   0.5261082 SPIN=   0.00000
   O  -0.2280002  -0.3961173   0.3329823 SPIN=   0.00000
   O   0.2787244  -0.3538695   0.5261082 SPIN=   0.00000
   O   0.2280002   0.3961173   0.3329823 SPIN=   0.00000
   O  -0.2787244   0.3538695   0.5261082 SPIN=   0.00000
   S   0.0000000  -0.0000000   0.4343217 SPIN=   0.00000
   S  -0.5000000   0.5000000   0.4343217 SPIN=   0.00000
   F   0.0000000  -0.0000000  -0.0629349 SPIN=   0.00000
   F  -0.5000000  -0.5000000  -0.0629349 SPIN=   0.00000
%ENDBLOCK POSITIONS_FRAC

# Note: total spin =   8.00

KPOINTS_MP_SPACING 0.07

%BLOCK SPECIES_POT
QC5
%ENDBLOCK SPECIES_POT

SNAP_TO_SYMMETRY
SYMMETRY_GENERATE

