#              Generated by Buildcell
#
# at 04:30:57 (GMT+1.0) 4th August 2020
# in /lustre/scratch/uccabz1/launch_tmp
# on node-c12k-002
# by uccabz1
#
# compiler GCC version 4.9.2
# options -cpp -iprefix /lustre/shared/ucl/apps/gcc/4.9.2/bin/../lib/gcc/x86_64-unknown-linux-gnu/4.9.2/ -mtune=corei7 -march=x86-64 -g -Og
#
# seed  -286159267 -1687893774  -254179023  -140148626 -1485655901  -234051982  -778963095  -628361062  -153069041  -697637067   179209544  -319509221
#
#      Author: C. J. Pickard (cjp20@cam.ac.uk)
#                Space group: P2/c
#

%BLOCK LATTICE_ABC
      4.21033      5.16193      9.36465
    100.68062     90.00000     90.00000
%ENDBLOCK LATTICE_ABC

%BLOCK POSITIONS_FRAC
  Li   0.3246008   0.0000000  -0.2500000 SPIN=   0.00000
  Li  -0.3246008   0.0000000   0.2500000 SPIN=   0.00000
  Fe  -0.2240944  -0.5000000  -0.2500000 SPIN=   4.00000
  Fe   0.2240944   0.5000000   0.2500000 SPIN=   4.00000
   O  -0.2814296  -0.6471090  -0.4828284 SPIN=   0.00000
   O  -0.2013259  -0.1813704  -0.3652226 SPIN=   0.00000
   O  -0.2814296   0.6471090  -0.0171716 SPIN=   0.00000
   O  -0.2013259   0.1813704  -0.1347774 SPIN=   0.00000
   O   0.2814296   0.6471090   0.4828284 SPIN=   0.00000
   O   0.2013259   0.1813704   0.3652226 SPIN=   0.00000
   O   0.2814296  -0.6471090   0.0171716 SPIN=   0.00000
   O   0.2013259  -0.1813704   0.1347774 SPIN=   0.00000
   S  -0.0000000   0.0000000   0.0000000 SPIN=   0.00000
   S  -0.0000000   0.0000000   0.5000000 SPIN=   0.00000
   F   0.3177541  -0.5000000  -0.2500000 SPIN=   0.00000
   F  -0.3177541   0.5000000   0.2500000 SPIN=   0.00000
%ENDBLOCK POSITIONS_FRAC

# Note: total spin =   8.00

KPOINTS_MP_SPACING 0.07

%BLOCK SPECIES_POT
QC5
%ENDBLOCK SPECIES_POT

SNAP_TO_SYMMETRY
SYMMETRY_GENERATE

