#              Generated by Buildcell
#
# at 03:58:58 (GMT+1.0) 4th August 2020
# in /lustre/scratch/uccabz1/launch_tmp
# on node-c12c-020
# by uccabz1
#
# compiler GCC version 4.9.2
# options -cpp -iprefix /lustre/shared/ucl/apps/gcc/4.9.2/bin/../lib/gcc/x86_64-unknown-linux-gnu/4.9.2/ -mtune=corei7 -march=x86-64 -g -Og
#
# seed  1089544630 -1698310573  1382007757  1804552337 -2139476119  1565402918  1160066793   636970474 -1931653612  2115871768   532581274   190689626
#
#      Author: C. J. Pickard (cjp20@cam.ac.uk)
#                Space group: P-1
#

%BLOCK LATTICE_ABC
      4.30037      6.87045      7.14258
    100.48863     93.63398    104.06345
%ENDBLOCK LATTICE_ABC

%BLOCK POSITIONS_FRAC
  Li   0.1579110  -0.1992550  -0.3777886 SPIN=   0.00000
  Li  -0.1579110   0.1992550   0.3777886 SPIN=   0.00000
  Fe   0.3422210   0.2527619   0.0725018 SPIN=   4.00000
  Fe  -0.3422210  -0.2527619  -0.0725018 SPIN=   4.00000
   O  -0.6588371  -0.4106663   0.4342721 SPIN=   0.00000
   O  -0.2468797  -0.0820715   0.5533986 SPIN=   0.00000
   O  -0.5185915  -0.1622939   0.2222678 SPIN=   0.00000
   O  -0.1273449  -0.3512271   0.3093185 SPIN=   0.00000
   S  -0.3879133  -0.2515647   0.3798143 SPIN=   0.00000
   O   0.6588371   0.4106663  -0.4342721 SPIN=   0.00000
   O   0.2468797   0.0820715  -0.5533986 SPIN=   0.00000
   O   0.5185915   0.1622939  -0.2222678 SPIN=   0.00000
   O   0.1273449   0.3512271  -0.3093185 SPIN=   0.00000
   S   0.3879133   0.2515647  -0.3798143 SPIN=   0.00000
   F   0.1384316  -0.2551728  -0.1350536 SPIN=   0.00000
   F  -0.1384316   0.2551728   0.1350536 SPIN=   0.00000
%ENDBLOCK POSITIONS_FRAC

# Note: total spin =   8.00

KPOINTS_MP_SPACING 0.07

%BLOCK SPECIES_POT
QC5
%ENDBLOCK SPECIES_POT

SNAP_TO_SYMMETRY
SYMMETRY_GENERATE

