#              Generated by Buildcell
#
# at 23:52:59 (GMT+1.0) 18th August 2020
# in /lustre/scratch/uccabz1/launch_tmp
# on node-c12l-020
# by uccabz1
#
# compiler GCC version 4.9.2
# options -cpp -iprefix /lustre/shared/ucl/apps/gcc/4.9.2/bin/../lib/gcc/x86_64-unknown-linux-gnu/4.9.2/ -mtune=corei7 -march=x86-64 -g -Og
#
# seed -1388983233   417598173 -1169671781  -145906776  -140407384 -1225819073  1048682570 -1483318849 -2134794607  1334734658  1849349284   984407665
#
#      Author: C. J. Pickard (cjp20@cam.ac.uk)
#                Space group: P-1
#

%BLOCK LATTICE_ABC
      3.99160      6.34950      8.16273
     76.58208     83.67601     87.98517
%ENDBLOCK LATTICE_ABC

%BLOCK POSITIONS_FRAC
  Li   0.2349221   0.0948720  -0.3099950 SPIN=   0.00000
  Li  -0.2349221  -0.0948720   0.3099950 SPIN=   0.00000
  Fe   0.2627396  -0.2593527   0.0499739 SPIN=   4.00000
  Fe  -0.2627396   0.2593527  -0.0499739 SPIN=   4.00000
   O   0.0151202  -0.2935003  -0.1876684 SPIN=   0.00000
   O   0.0852339  -0.5549055  -0.3718078 SPIN=   0.00000
   O   0.5722131  -0.4638138  -0.2388926 SPIN=   0.00000
   O   0.3422503  -0.1922376  -0.4696038 SPIN=   0.00000
   S   0.2537044  -0.3761143  -0.3169931 SPIN=   0.00000
   O  -0.0151202   0.2935003   0.1876684 SPIN=   0.00000
   O  -0.0852339   0.5549055   0.3718078 SPIN=   0.00000
   O  -0.5722131   0.4638138   0.2388926 SPIN=   0.00000
   O  -0.3422503   0.1922376   0.4696038 SPIN=   0.00000
   S  -0.2537044   0.3761143   0.3169931 SPIN=   0.00000
   F  -0.2389928   0.1061096  -0.2209364 SPIN=   0.00000
   F   0.2389928  -0.1061096   0.2209364 SPIN=   0.00000
%ENDBLOCK POSITIONS_FRAC

# Note: total spin =   8.00

KPOINTS_MP_SPACING 0.07

%BLOCK SPECIES_POT
QC5
%ENDBLOCK SPECIES_POT

SNAP_TO_SYMMETRY
SYMMETRY_GENERATE

