#              Generated by Buildcell
#
# at 03:00:24 (GMT+1.0) 4th August 2020
# in /lustre/scratch/uccabz1/launch_tmp
# on node-c12p-027
# by uccabz1
#
# compiler GCC version 4.9.2
# options -cpp -iprefix /lustre/shared/ucl/apps/gcc/4.9.2/bin/../lib/gcc/x86_64-unknown-linux-gnu/4.9.2/ -mtune=corei7 -march=x86-64 -g -Og
#
# seed -1599116966  -985684089 -1714920082  1546927187  1238788686  2116183870  1042077034  1159752022   356519801 -2036223354   749887980   802953919
#
#      Author: C. J. Pickard (cjp20@cam.ac.uk)
#                Space group: Cc
#

%BLOCK LATTICE_ABC
      5.36413      5.36413      7.05474
     95.93246     95.93246     94.52287
%ENDBLOCK LATTICE_ABC

%BLOCK POSITIONS_FRAC
  Li  -0.3112193  -0.2458304   0.3356216 SPIN=   0.00000
  Li   0.2541696   0.1887807  -0.1643784 SPIN=   0.00000
  Fe   0.3449852  -0.2852919  -0.0155517 SPIN=   4.00000
  Fe   0.2147081  -0.1550148   0.4844483 SPIN=   4.00000
   O  -0.4997326   0.0680725  -0.3213727 SPIN=   0.00000
   O  -0.2258975  -0.2402584  -0.1934670 SPIN=   0.00000
   O  -0.1476739   0.2106392  -0.0686185 SPIN=   0.00000
   O  -0.0598122   0.0674315  -0.3979592 SPIN=   0.00000
   S  -0.2332791   0.0264712  -0.2453544 SPIN=   0.00000
   O  -0.4319275   0.0002674   0.1786273 SPIN=   0.00000
   O  -0.7402584   0.2741025   0.3065330 SPIN=   0.00000
   O  -0.2893608   0.3523261   0.4313815 SPIN=   0.00000
   O  -0.4325685   0.4401878   0.1020408 SPIN=   0.00000
   S  -0.4735288   0.2667209   0.2546456 SPIN=   0.00000
   F   0.2581065  -0.4771393  -0.2894316 SPIN=   0.00000
   F   0.0228607  -0.2418935   0.2105684 SPIN=   0.00000
%ENDBLOCK POSITIONS_FRAC

# Note: total spin =   8.00

KPOINTS_MP_SPACING 0.07

%BLOCK SPECIES_POT
QC5
%ENDBLOCK SPECIES_POT

SNAP_TO_SYMMETRY
SYMMETRY_GENERATE

