#              Generated by Buildcell
#
# at 04:27:29 (GMT+1.0) 4th August 2020
# in /lustre/scratch/uccabz1/launch_tmp
# on node-c12c-027
# by uccabz1
#
# compiler GCC version 4.9.2
# options -cpp -iprefix /lustre/shared/ucl/apps/gcc/4.9.2/bin/../lib/gcc/x86_64-unknown-linux-gnu/4.9.2/ -mtune=corei7 -march=x86-64 -g -Og
#
# seed   -58467813    23364969  -270458375  -181122800 -1188293206  1108294098   862929421  1574054601   502602928    13960712 -1167987103   828876167
#
#      Author: C. J. Pickard (cjp20@cam.ac.uk)
#                Space group: P-1
#

%BLOCK LATTICE_ABC
      3.85039      4.64980     11.30535
     86.82949     84.75591     83.35585
%ENDBLOCK LATTICE_ABC

%BLOCK POSITIONS_FRAC
  Li   0.0000000  -0.5000000  -0.5000000 SPIN=   0.00000
  Li   0.0000000   0.0000000   0.0000000 SPIN=   0.00000
  Fe  -0.2355169  -0.4609243  -0.1406630 SPIN=   4.00000
  Fe   0.2355169   0.4609243   0.1406630 SPIN=   4.00000
   O  -0.4910110   0.2501086   0.4704851 SPIN=   0.00000
   O  -0.5303516   0.1116864   0.2642780 SPIN=   0.00000
   O  -0.0443983  -0.1159716   0.3786183 SPIN=   0.00000
   O  -0.0604047   0.3992815   0.3092922 SPIN=   0.00000
   S  -0.2815414   0.1612762   0.3556684 SPIN=   0.00000
   O   0.4910110  -0.2501086  -0.4704851 SPIN=   0.00000
   O   0.5303516  -0.1116864  -0.2642780 SPIN=   0.00000
   O   0.0443983   0.1159716  -0.3786183 SPIN=   0.00000
   O   0.0604047  -0.3992815  -0.3092922 SPIN=   0.00000
   S   0.2815414  -0.1612762  -0.3556684 SPIN=   0.00000
   F   0.2939299   0.3105013  -0.1093229 SPIN=   0.00000
   F  -0.2939299  -0.3105013   0.1093229 SPIN=   0.00000
%ENDBLOCK POSITIONS_FRAC

# Note: total spin =   8.00

KPOINTS_MP_SPACING 0.07

%BLOCK SPECIES_POT
QC5
%ENDBLOCK SPECIES_POT

SNAP_TO_SYMMETRY
SYMMETRY_GENERATE

