#              Generated by Buildcell
#
# at 04:58:13 (GMT+1.0) 4th August 2020
# in /lustre/scratch/uccabz1/launch_tmp
# on node-c12p-016
# by uccabz1
#
# compiler GCC version 4.9.2
# options -cpp -iprefix /lustre/shared/ucl/apps/gcc/4.9.2/bin/../lib/gcc/x86_64-unknown-linux-gnu/4.9.2/ -mtune=corei7 -march=x86-64 -g -Og
#
# seed  -294834114 -2078358295   408893248   819044766  -202429439 -1581731332 -1045719220 -1759310222  1336285065  -352947950  2012714938  1949217450
#
#      Author: C. J. Pickard (cjp20@cam.ac.uk)
#                Space group: P2
#

%BLOCK LATTICE_ABC
      5.65529      5.67488      6.23209
     90.00000     90.00000     90.47863
%ENDBLOCK LATTICE_ABC

%BLOCK POSITIONS_FRAC
  Li   0.2286787   0.2604793   0.1952185 SPIN=   0.00000
  Li  -0.2286787  -0.2604793   0.1952185 SPIN=   0.00000
  Fe  -0.2580806   0.2587106  -0.0643989 SPIN=   4.00000
  Fe   0.2580806  -0.2587106  -0.0643989 SPIN=   4.00000
   O  -0.2056969   0.0235562  -0.3260591 SPIN=   0.00000
   O  -0.1263744  -0.3443707  -0.1263771 SPIN=   0.00000
   O  -0.1295814  -0.3465322  -0.5234793 SPIN=   0.00000
   O  -0.5036095  -0.2983675  -0.3226541 SPIN=   0.00000
   S  -0.2413156  -0.2414286  -0.3246424 SPIN=   0.00000
   O   0.2056969  -0.0235562  -0.3260591 SPIN=   0.00000
   O   0.1263744   0.3443707  -0.1263771 SPIN=   0.00000
   O   0.1295814   0.3465322  -0.5234793 SPIN=   0.00000
   O   0.5036095   0.2983675  -0.3226541 SPIN=   0.00000
   S   0.2413156   0.2414286  -0.3246424 SPIN=   0.00000
   F  -0.3003075   0.2486538   0.2581241 SPIN=   0.00000
   F   0.3003075  -0.2486538   0.2581241 SPIN=   0.00000
%ENDBLOCK POSITIONS_FRAC

# Note: total spin =   8.00

KPOINTS_MP_SPACING 0.07

%BLOCK SPECIES_POT
QC5
%ENDBLOCK SPECIES_POT

SNAP_TO_SYMMETRY
SYMMETRY_GENERATE

