#              Generated by Buildcell
#
# at 00:50:24 (GMT+1.0) 19th August 2020
# in /lustre/scratch/uccabz1/launch_tmp
# on node-c12m-029
# by uccabz1
#
# compiler GCC version 4.9.2
# options -cpp -iprefix /lustre/shared/ucl/apps/gcc/4.9.2/bin/../lib/gcc/x86_64-unknown-linux-gnu/4.9.2/ -mtune=corei7 -march=x86-64 -g -Og
#
# seed  -134156222   319321745 -1770618439   522071286  1693615948 -2035963831  -782514393  -958313629 -1458879650 -1963218676  2078157566 -1359000730
#
#      Author: C. J. Pickard (cjp20@cam.ac.uk)
#                Space group: Cmc21
#

%BLOCK LATTICE_ABC
      5.80756      5.80756      6.54755
     90.00000     90.00000    115.08784
%ENDBLOCK LATTICE_ABC

%BLOCK POSITIONS_FRAC
  Li   0.6111039   0.3888961  -0.1232000 SPIN=   0.00000
  Li  -0.6111039  -0.3888961   0.3768000 SPIN=   0.00000
  Fe   0.2341613  -0.2341613  -0.1557017 SPIN=   4.00000
  Fe  -0.2341613   0.2341613   0.3442983 SPIN=   4.00000
   O   0.0124974  -0.3895813   0.2987836 SPIN=   0.00000
   O  -0.1402919  -0.2628883  -0.0158019 SPIN=   0.00000
   O  -0.0124974   0.3895813  -0.2012164 SPIN=   0.00000
   O   0.1402919   0.2628883  -0.5158019 SPIN=   0.00000
   O  -0.3895813   0.0124974  -0.2012164 SPIN=   0.00000
   O  -0.2628883  -0.1402919  -0.5158019 SPIN=   0.00000
   O   0.3895813  -0.0124974   0.2987836 SPIN=   0.00000
   O   0.2628883   0.1402919  -0.0158019 SPIN=   0.00000
   S  -0.1072966   0.1072966  -0.1394203 SPIN=   0.00000
   S   0.1072966  -0.1072966   0.3605797 SPIN=   0.00000
   F  -0.6167060  -0.3832940   0.0565265 SPIN=   0.00000
   F   0.6167060   0.3832940  -0.4434735 SPIN=   0.00000
%ENDBLOCK POSITIONS_FRAC

# Note: total spin =   8.00

KPOINTS_MP_SPACING 0.07

%BLOCK SPECIES_POT
QC5
%ENDBLOCK SPECIES_POT

SNAP_TO_SYMMETRY
SYMMETRY_GENERATE

