#              Generated by Buildcell
#
# at 03:35:42 (GMT+1.0) 4th August 2020
# in /lustre/scratch/uccabz1/launch_tmp
# on node-c12d-002
# by uccabz1
#
# compiler GCC version 4.9.2
# options -cpp -iprefix /lustre/shared/ucl/apps/gcc/4.9.2/bin/../lib/gcc/x86_64-unknown-linux-gnu/4.9.2/ -mtune=corei7 -march=x86-64 -g -Og
#
# seed  1315242316    62267301   903533226  1367937004 -1049459937  -122146536  1716009115  1278065910  -921469526 -1583112047  -412744264   -42921472
#
#      Author: C. J. Pickard (cjp20@cam.ac.uk)
#                Space group: Ama2
#

%BLOCK LATTICE_ABC
      4.13025      6.75807      7.52520
     90.00000     90.00000    107.79302
%ENDBLOCK LATTICE_ABC

%BLOCK POSITIONS_FRAC
  Li  -0.4576531   0.2739131   0.2500000 SPIN=   0.00000
  Li   0.2684338  -0.2739131  -0.2500000 SPIN=   0.00000
  Fe  -0.2601253   0.0000000  -0.0000000 SPIN=   4.00000
  Fe  -0.2601253   0.0000000  -0.5000000 SPIN=   4.00000
   O   0.3501283   0.2153487  -0.0054864 SPIN=   0.00000
   O  -0.0128461   0.4316992  -0.0895388 SPIN=   0.00000
   O   0.1347795  -0.2153487   0.0054864 SPIN=   0.00000
   O  -0.4445453  -0.4316992   0.0895388 SPIN=   0.00000
   O   0.1347795  -0.2153487   0.4945136 SPIN=   0.00000
   O  -0.4445453  -0.4316992   0.4104612 SPIN=   0.00000
   O   0.3501283   0.2153487  -0.4945136 SPIN=   0.00000
   O  -0.0128461   0.4316992  -0.4104612 SPIN=   0.00000
   S   0.1919924  -0.4227935   0.2500000 SPIN=   0.00000
   S  -0.3852141   0.4227935  -0.2500000 SPIN=   0.00000
   F  -0.0837514   0.0257263   0.2500000 SPIN=   0.00000
   F  -0.1094777  -0.0257263  -0.2500000 SPIN=   0.00000
%ENDBLOCK POSITIONS_FRAC

# Note: total spin =   8.00

KPOINTS_MP_SPACING 0.07

%BLOCK SPECIES_POT
QC5
%ENDBLOCK SPECIES_POT

SNAP_TO_SYMMETRY
SYMMETRY_GENERATE

