#              Generated by Buildcell
#
# at 04:36:52 (GMT+1.0) 4th August 2020
# in /lustre/scratch/uccabz1/launch_tmp
# on node-c12c-014
# by uccabz1
#
# compiler GCC version 4.9.2
# options -cpp -iprefix /lustre/shared/ucl/apps/gcc/4.9.2/bin/../lib/gcc/x86_64-unknown-linux-gnu/4.9.2/ -mtune=corei7 -march=x86-64 -g -Og
#
# seed -1798497766  -232227162  1590119522  1327768771  -802077633 -1329153973  1639106272 -1333180728  1946373679  1444430399   -54090833  -856778770
#
#      Author: C. J. Pickard (cjp20@cam.ac.uk)
#                Space group: P-1
#

%BLOCK LATTICE_ABC
      3.92395      6.99051      8.17422
    112.77586     94.49606    101.05048
%ENDBLOCK LATTICE_ABC

%BLOCK POSITIONS_FRAC
  Li  -0.6364505  -0.2263861  -0.4154033 SPIN=   0.00000
  Li   0.6364505   0.2263861   0.4154033 SPIN=   0.00000
  Fe   0.3430933   0.4463777   0.2093071 SPIN=   4.00000
  Fe  -0.3430933  -0.4463777  -0.2093071 SPIN=   4.00000
   O  -0.2697790   0.2423516  -0.2919938 SPIN=   0.00000
   O   0.2846617   0.2710919  -0.1078098 SPIN=   0.00000
   O  -0.0209288  -0.0740810  -0.3578050 SPIN=   0.00000
   O  -0.2807937   0.0654746  -0.0816287 SPIN=   0.00000
   S  -0.0717099   0.1262093  -0.2098093 SPIN=   0.00000
   O   0.2697790  -0.2423516   0.2919938 SPIN=   0.00000
   O  -0.2846617  -0.2710919   0.1078098 SPIN=   0.00000
   O   0.0209288   0.0740810   0.3578050 SPIN=   0.00000
   O   0.2807937  -0.0654746   0.0816287 SPIN=   0.00000
   S   0.0717099  -0.1262093   0.2098093 SPIN=   0.00000
   F   0.7473949   0.3629745   0.2629715 SPIN=   0.00000
   F  -0.7473949  -0.3629745  -0.2629715 SPIN=   0.00000
%ENDBLOCK POSITIONS_FRAC

# Note: total spin =   8.00

KPOINTS_MP_SPACING 0.07

%BLOCK SPECIES_POT
QC5
%ENDBLOCK SPECIES_POT

SNAP_TO_SYMMETRY
SYMMETRY_GENERATE

