#              Generated by Buildcell
#
# at 22:03:48 (GMT+1.0) 18th August 2020
# in /lustre/scratch/uccabz1/launch_tmp
# on node-c12g-028
# by uccabz1
#
# compiler GCC version 4.9.2
# options -cpp -iprefix /lustre/shared/ucl/apps/gcc/4.9.2/bin/../lib/gcc/x86_64-unknown-linux-gnu/4.9.2/ -mtune=corei7 -march=x86-64 -g -Og
#
# seed    53926521 -1311354985 -1204601030  1894476098   917817970 -1049379295 -1335199299  -243015677  -736879089  1376643865  1484893232 -1135168085
#
#      Author: C. J. Pickard (cjp20@cam.ac.uk)
#                Space group: P-1
#

%BLOCK LATTICE_ABC
      4.11103      6.17533      8.19565
     85.43526     75.77425     83.23253
%ENDBLOCK LATTICE_ABC

%BLOCK POSITIONS_FRAC
  Li  -0.5000000   0.5000000  -0.5000000 SPIN=   0.00000
  Li   0.0000000  -0.0000000   0.0000000 SPIN=   0.00000
  Fe  -0.1052804   0.4024734  -0.2242743 SPIN=   4.00000
  Fe   0.1052804  -0.4024734   0.2242743 SPIN=   4.00000
   O  -0.3370180  -0.1587759   0.2231444 SPIN=   0.00000
   O  -0.9207221   0.0222461   0.2830178 SPIN=   0.00000
   O  -0.4578447   0.2090020   0.0946122 SPIN=   0.00000
   O  -0.4900938   0.1609222   0.4006748 SPIN=   0.00000
   S  -0.5514196   0.0583486   0.2503623 SPIN=   0.00000
   O   0.3370180   0.1587759  -0.2231444 SPIN=   0.00000
   O   0.9207221  -0.0222461  -0.2830178 SPIN=   0.00000
   O   0.4578447  -0.2090020  -0.0946122 SPIN=   0.00000
   O   0.4900938  -0.1609222  -0.4006748 SPIN=   0.00000
   S   0.5514196  -0.0583486  -0.2503623 SPIN=   0.00000
   F   0.0000000   0.5000000   0.0000000 SPIN=   0.00000
   F  -1.0000000   0.5000000  -0.5000000 SPIN=   0.00000
%ENDBLOCK POSITIONS_FRAC

# Note: total spin =   8.00

KPOINTS_MP_SPACING 0.07

%BLOCK SPECIES_POT
QC5
%ENDBLOCK SPECIES_POT

SNAP_TO_SYMMETRY
SYMMETRY_GENERATE

