#              Generated by Buildcell
#
# at 22:49:29 (GMT+1.0) 18th August 2020
# in /scratch/scratch/uccabz1/launch_tmp
# on node-k10h-023
# by uccabz1
#
# compiler GCC version 4.9.2
# options -cpp -iprefix /scratch/UCL/applications/gcc/4.9.2/bin/../lib/gcc/x86_64-unknown-linux-gnu/4.9.2/ -mtune=corei7 -march=x86-64 -g -O2
#
# seed  1049058590 -1099063016  1243819003   522626537   535086018 -1631434452   895279500  1871347348   678578514  1284623430  1060903141 -1014338327
#
#      Author: C. J. Pickard (cjp20@cam.ac.uk)
#                Space group: C2
#

%BLOCK LATTICE_ABC
      5.45798      6.53975      6.53975
     60.50817     81.24026     81.24026
%ENDBLOCK LATTICE_ABC

%BLOCK POSITIONS_FRAC
  Li  -0.2155917  -0.1670315  -0.1900993 SPIN=   0.00000
  Li   0.2155917   0.1900993   0.1670315 SPIN=   0.00000
  Fe  -0.2084234   0.3891900   0.3820234 SPIN=   4.00000
  Fe   0.2084234  -0.3820234  -0.3891900 SPIN=   4.00000
   O   0.0211917   0.0565213  -0.2548487 SPIN=   0.00000
   O   0.3741992  -0.0108750  -0.5074880 SPIN=   0.00000
   O   0.4430741  -0.0689521  -0.1162392 SPIN=   0.00000
   O   0.3492950   0.3335935  -0.4415298 SPIN=   0.00000
   S   0.2969400   0.0775719  -0.3300264 SPIN=   0.00000
   O  -0.0211917   0.2548487  -0.0565213 SPIN=   0.00000
   O  -0.3741992   0.5074880   0.0108750 SPIN=   0.00000
   O  -0.4430741   0.1162392   0.0689521 SPIN=   0.00000
   O  -0.3492950   0.4415298  -0.3335935 SPIN=   0.00000
   S  -0.2969400   0.3300264  -0.0775719 SPIN=   0.00000
   F  -0.1319088  -0.1187971   0.4738259 SPIN=   0.00000
   F   0.1319088  -0.4738259   0.1187971 SPIN=   0.00000
%ENDBLOCK POSITIONS_FRAC

# Note: total spin =   8.00

KPOINTS_MP_SPACING 0.07

%BLOCK SPECIES_POT
QC5
%ENDBLOCK SPECIES_POT

SNAP_TO_SYMMETRY
SYMMETRY_GENERATE

