#              Generated by Buildcell
#
# at 20:24:33 (GMT+1.0) 18th August 2020
# in /lustre/scratch/uccabz1/launch_tmp
# on node-c12l-030
# by uccabz1
#
# compiler GCC version 4.9.2
# options -cpp -iprefix /lustre/shared/ucl/apps/gcc/4.9.2/bin/../lib/gcc/x86_64-unknown-linux-gnu/4.9.2/ -mtune=corei7 -march=x86-64 -g -Og
#
# seed  1674771851  1739211078   -37992313   -21594843  1241438013  1812492652  -295076232  -150119844 -1300128620 -1493983735  1524298721 -1980031544
#
#      Author: C. J. Pickard (cjp20@cam.ac.uk)
#                Space group: Pc
#

%BLOCK LATTICE_ABC
      5.84722      6.02242      6.41943
    117.78095     90.00000     90.00000
%ENDBLOCK LATTICE_ABC

%BLOCK POSITIONS_FRAC
  Li  -0.1992054  -0.2889714  -0.0970062 SPIN=   0.00000
  Li   0.1992054   0.2110286   0.4029938 SPIN=   0.00000
  Fe   0.2009546   0.4300415   0.9134423 SPIN=   4.00000
  Fe  -0.2009546  -0.0699585   0.4134423 SPIN=   4.00000
   O   0.0681477  -0.1658537  -0.4229288 SPIN=   0.00000
   O   0.2729306  -0.5208916  -0.7424861 SPIN=   0.00000
   O   0.3917882  -0.3679822  -0.3280561 SPIN=   0.00000
   O   0.4632896  -0.1081506  -0.5272969 SPIN=   0.00000
   S   0.2990390  -0.2907195  -0.5051920 SPIN=   0.00000
   O  -0.0681477   0.3341463   0.0770712 SPIN=   0.00000
   O  -0.2729306  -0.0208916  -0.2424861 SPIN=   0.00000
   O  -0.3917882   0.1320178   0.1719439 SPIN=   0.00000
   O  -0.4632896   0.3918494  -0.0272969 SPIN=   0.00000
   S  -0.2990390   0.2092805  -0.0051920 SPIN=   0.00000
   F   0.2201959  -0.0933326   0.0811147 SPIN=   0.00000
   F  -0.2201959   0.4066674   0.5811147 SPIN=   0.00000
%ENDBLOCK POSITIONS_FRAC

# Note: total spin =   8.00

KPOINTS_MP_SPACING 0.07

%BLOCK SPECIES_POT
QC5
%ENDBLOCK SPECIES_POT

SNAP_TO_SYMMETRY
SYMMETRY_GENERATE

