#              Generated by Buildcell
#
# at 01:32:04 (GMT+1.0) 19th August 2020
# in /lustre/scratch/uccabz1/launch_tmp
# on node-c12o-024
# by uccabz1
#
# compiler GCC version 4.9.2
# options -cpp -iprefix /lustre/shared/ucl/apps/gcc/4.9.2/bin/../lib/gcc/x86_64-unknown-linux-gnu/4.9.2/ -mtune=corei7 -march=x86-64 -g -Og
#
# seed   668439757  -588255176   268669829 -1892206066  1480932957 -1528741773  -494980942  -526900136 -1196122476  -765674810  -654735109 -1580939368
#
#      Author: C. J. Pickard (cjp20@cam.ac.uk)
#                Space group: P-1
#

%BLOCK LATTICE_ABC
      4.26723      5.47655      8.60485
     89.47575     84.11703     89.04436
%ENDBLOCK LATTICE_ABC

%BLOCK POSITIONS_FRAC
  Li   0.5000000   0.0000000  -0.0000000 SPIN=   0.00000
  Li  -0.5000000  -0.0000000   0.5000000 SPIN=   0.00000
  Fe   0.5768101  -0.4817556  -0.2276672 SPIN=   4.00000
  Fe  -0.5768101   0.4817556   0.2276672 SPIN=   4.00000
   O   0.4311025  -0.0219904  -0.2695562 SPIN=   0.00000
   O   0.0251477   0.1737045  -0.0830375 SPIN=   0.00000
   O  -0.0902396  -0.2123330  -0.2115963 SPIN=   0.00000
   O  -0.0414656   0.1717159  -0.3653655 SPIN=   0.00000
   S   0.0811363   0.0277743  -0.2323889 SPIN=   0.00000
   O  -0.4311025   0.0219904   0.2695562 SPIN=   0.00000
   O  -0.0251477  -0.1737045   0.0830375 SPIN=   0.00000
   O   0.0902396   0.2123330   0.2115963 SPIN=   0.00000
   O   0.0414656  -0.1717159   0.3653655 SPIN=   0.00000
   S  -0.0811363  -0.0277743   0.2323889 SPIN=   0.00000
   F   0.5000000  -0.5000000  -0.5000000 SPIN=   0.00000
   F  -0.5000000  -0.5000000  -0.0000000 SPIN=   0.00000
%ENDBLOCK POSITIONS_FRAC

# Note: total spin =   8.00

KPOINTS_MP_SPACING 0.07

%BLOCK SPECIES_POT
QC5
%ENDBLOCK SPECIES_POT

SNAP_TO_SYMMETRY
SYMMETRY_GENERATE

