#              Generated by Buildcell
#
# at 04:28:30 (GMT+1.0) 4th August 2020
# in /lustre/scratch/uccabz1/launch_tmp
# on node-c12p-017
# by uccabz1
#
# compiler GCC version 4.9.2
# options -cpp -iprefix /lustre/shared/ucl/apps/gcc/4.9.2/bin/../lib/gcc/x86_64-unknown-linux-gnu/4.9.2/ -mtune=corei7 -march=x86-64 -g -Og
#
# seed  1545333977  2080987511 -1368151876  -399226264   339920908   719398830 -2031241353   421219493  1638580534   226544716 -1230787271   137985444
#
#      Author: C. J. Pickard (cjp20@cam.ac.uk)
#                Space group: P21212
#

%BLOCK LATTICE_ABC
      4.05182      5.89924      8.36727
     90.00000     90.00000     90.00000
%ENDBLOCK LATTICE_ABC

%BLOCK POSITIONS_FRAC
  Li   0.5000000   0.0000000   0.0845641 SPIN=   0.00000
  Li  -0.0000000  -0.5000000  -0.0845641 SPIN=   0.00000
  Fe   0.5000000  -0.0000000   0.4376773 SPIN=   4.00000
  Fe   0.0000000  -0.5000000  -0.4376773 SPIN=   4.00000
   O   0.2649453  -0.3968334   0.2370021 SPIN=   0.00000
   O  -0.2392327  -0.2779793   0.0925838 SPIN=   0.00000
   O  -0.2649453   0.3968334   0.2370021 SPIN=   0.00000
   O   0.2392327   0.2779793   0.0925838 SPIN=   0.00000
   O   0.2350547   0.1031666  -0.2370021 SPIN=   0.00000
   O   0.7392327   0.2220207  -0.0925838 SPIN=   0.00000
   O  -0.2350547  -0.1031666  -0.2370021 SPIN=   0.00000
   O  -0.7392327  -0.2220207  -0.0925838 SPIN=   0.00000
   S   0.0000000  -0.0000000  -0.1226968 SPIN=   0.00000
   S   0.5000000  -0.5000000   0.1226968 SPIN=   0.00000
   F   0.0000000   0.0000000   0.3691292 SPIN=   0.00000
   F   0.5000000  -0.5000000  -0.3691292 SPIN=   0.00000
%ENDBLOCK POSITIONS_FRAC

# Note: total spin =   8.00

KPOINTS_MP_SPACING 0.07

%BLOCK SPECIES_POT
QC5
%ENDBLOCK SPECIES_POT

SNAP_TO_SYMMETRY
SYMMETRY_GENERATE

