#              Generated by Buildcell
#
# at 03:02:40 (GMT+1.0) 4th August 2020
# in /lustre/scratch/uccabz1/launch_tmp
# on node-c12d-006
# by uccabz1
#
# compiler GCC version 4.9.2
# options -cpp -iprefix /lustre/shared/ucl/apps/gcc/4.9.2/bin/../lib/gcc/x86_64-unknown-linux-gnu/4.9.2/ -mtune=corei7 -march=x86-64 -g -Og
#
# seed   618789400  1366658339  1430664949 -1012355479  1467638993  2092250258  -440345719  1506400484   789137670   246849845  -213019413   574467208
#
#      Author: C. J. Pickard (cjp20@cam.ac.uk)
#                Space group: P21
#

%BLOCK LATTICE_ABC
      4.01239      6.07853      8.39008
     90.00000    102.21008     90.00000
%ENDBLOCK LATTICE_ABC

%BLOCK POSITIONS_FRAC
  Li  -0.2287507  -0.0987782  -0.4520247 SPIN=   0.00000
  Li   0.2287507   0.4012218   0.4520247 SPIN=   0.00000
  Fe   0.2429232  -0.2050404   0.2437069 SPIN=   4.00000
  Fe  -0.2429232   0.2949596  -0.2437069 SPIN=   4.00000
   O  -0.1841990   0.5105710   0.1033097 SPIN=   0.00000
   O   0.3132678   0.2600412   0.1537673 SPIN=   0.00000
   O  -0.2588744   0.1179357   0.0259357 SPIN=   0.00000
   O  -0.1302035   0.2245812   0.3172022 SPIN=   0.00000
   S  -0.0650023   0.2782823   0.1500538 SPIN=   0.00000
   O   0.1841990   0.0105710  -0.1033097 SPIN=   0.00000
   O  -0.3132678  -0.2399588  -0.1537673 SPIN=   0.00000
   O   0.2588744  -0.3820643  -0.0259357 SPIN=   0.00000
   O   0.1302035  -0.2754188  -0.3172022 SPIN=   0.00000
   S   0.0650023  -0.2217177  -0.1500538 SPIN=   0.00000
   F   0.3166305   0.1814414  -0.3868972 SPIN=   0.00000
   F  -0.3166305  -0.3185586   0.3868972 SPIN=   0.00000
%ENDBLOCK POSITIONS_FRAC

# Note: total spin =   8.00

KPOINTS_MP_SPACING 0.07

%BLOCK SPECIES_POT
QC5
%ENDBLOCK SPECIES_POT

SNAP_TO_SYMMETRY
SYMMETRY_GENERATE

