#              Generated by Buildcell
#
# at 03:21:26 (GMT+1.0) 4th August 2020
# in /lustre/scratch/uccabz1/launch_tmp
# on node-c12e-019
# by uccabz1
#
# compiler GCC version 4.9.2
# options -cpp -iprefix /lustre/shared/ucl/apps/gcc/4.9.2/bin/../lib/gcc/x86_64-unknown-linux-gnu/4.9.2/ -mtune=corei7 -march=x86-64 -g -Og
#
# seed  1586238160  -355268787 -1281395890 -1507264012   276961315 -2055261520  2088004529  -181811912 -1786662512  -884238917  -384819354  1856791492
#
#      Author: C. J. Pickard (cjp20@cam.ac.uk)
#                Space group: P21
#

%BLOCK LATTICE_ABC
      4.30409      4.94657      9.42291
     94.49856     90.00000     90.00000
%ENDBLOCK LATTICE_ABC

%BLOCK POSITIONS_FRAC
  Li  -0.0862044  -0.0304470   0.2154755 SPIN=   0.00000
  Li   0.4137956   0.0304470  -0.2154755 SPIN=   0.00000
  Fe  -0.0575848   0.2926877  -0.3934918 SPIN=   4.00000
  Fe   0.4424152  -0.2926877   0.3934918 SPIN=   4.00000
   O   0.2513981   0.4899642   0.2029392 SPIN=   0.00000
   O   0.3738020  -0.0003264   0.1782962 SPIN=   0.00000
   O   0.7566969   0.3323370   0.1020750 SPIN=   0.00000
   O   0.2732183   0.2448531  -0.0361252 SPIN=   0.00000
   S   0.4137788   0.2667070   0.1117963 SPIN=   0.00000
   O  -0.2486019  -0.4899642  -0.2029392 SPIN=   0.00000
   O  -0.1261980   0.0003264  -0.1782962 SPIN=   0.00000
   O   0.2566969  -0.3323370  -0.1020750 SPIN=   0.00000
   O  -0.2267817  -0.2448531   0.0361252 SPIN=   0.00000
   S  -0.0862212  -0.2667070  -0.1117963 SPIN=   0.00000
   F  -0.0999151   0.2322563   0.4061607 SPIN=   0.00000
   F   0.4000849  -0.2322563  -0.4061607 SPIN=   0.00000
%ENDBLOCK POSITIONS_FRAC

# Note: total spin =   8.00

KPOINTS_MP_SPACING 0.07

%BLOCK SPECIES_POT
QC5
%ENDBLOCK SPECIES_POT

SNAP_TO_SYMMETRY
SYMMETRY_GENERATE

