#              Generated by Buildcell
#
# at 01:53:57 (GMT+1.0) 19th August 2020
# in /lustre/scratch/uccabz1/launch_tmp
# on node-c12f-006
# by uccabz1
#
# compiler GCC version 4.9.2
# options -cpp -iprefix /lustre/shared/ucl/apps/gcc/4.9.2/bin/../lib/gcc/x86_64-unknown-linux-gnu/4.9.2/ -mtune=corei7 -march=x86-64 -g -Og
#
# seed -2043095475  -568702453  1891112652 -1544070622   381535774  1445789491  1010224238    43171889 -1649310377  1341832954  -984926242  1168549724
#
#      Author: C. J. Pickard (cjp20@cam.ac.uk)
#                Space group: P2/m
#

%BLOCK LATTICE_ABC
      4.05372      6.28190      8.10793
     90.00000    104.37997     90.00000
%ENDBLOCK LATTICE_ABC

%BLOCK POSITIONS_FRAC
  Li  -0.5000000  -0.5000000  -0.0000000 SPIN=   0.00000
  Li   0.0000000   0.0000000   0.5000000 SPIN=   0.00000
  Fe  -0.1487484   0.5000000  -0.2889510 SPIN=   4.00000
  Fe   0.1487484   0.5000000   0.2889510 SPIN=   4.00000
   O   0.2707420  -0.1855171   0.3772195 SPIN=   0.00000
   O   0.2879560  -0.1866264   0.0742310 SPIN=   0.00000
   O  -0.2707420  -0.1855171  -0.3772195 SPIN=   0.00000
   O  -0.2879560  -0.1866264  -0.0742310 SPIN=   0.00000
   O  -0.2707420   0.1855171  -0.3772195 SPIN=   0.00000
   O  -0.2879560   0.1866264  -0.0742310 SPIN=   0.00000
   O   0.2707420   0.1855171   0.3772195 SPIN=   0.00000
   O   0.2879560   0.1866264   0.0742310 SPIN=   0.00000
   S  -0.2620810   0.0000000  -0.2298710 SPIN=   0.00000
   S   0.2620810   0.0000000   0.2298710 SPIN=   0.00000
   F   0.3107280  -0.5000000  -0.2619766 SPIN=   0.00000
   F  -0.3107280  -0.5000000   0.2619766 SPIN=   0.00000
%ENDBLOCK POSITIONS_FRAC

# Note: total spin =   8.00

KPOINTS_MP_SPACING 0.07

%BLOCK SPECIES_POT
QC5
%ENDBLOCK SPECIES_POT

SNAP_TO_SYMMETRY
SYMMETRY_GENERATE

