#              Generated by Buildcell
#
# at 04:04:08 (GMT+1.0) 4th August 2020
# in /lustre/scratch/uccabz1/launch_tmp
# on node-c12c-010
# by uccabz1
#
# compiler GCC version 4.9.2
# options -cpp -iprefix /lustre/shared/ucl/apps/gcc/4.9.2/bin/../lib/gcc/x86_64-unknown-linux-gnu/4.9.2/ -mtune=corei7 -march=x86-64 -g -Og
#
# seed -2062765698   119165501  -290571946  1128271347  1114820873  -813832604  1494481726  1781344100  1209105427  1382674298  1887935383   786035667
#
#      Author: C. J. Pickard (cjp20@cam.ac.uk)
#                Space group: P21
#

%BLOCK LATTICE_ABC
      4.16694      5.01429      9.60492
     90.00000     94.74472     90.00000
%ENDBLOCK LATTICE_ABC

%BLOCK POSITIONS_FRAC
  Li  -0.2255842  -0.0643465  -0.3832180 SPIN=   0.00000
  Li   0.2255842   0.4356535   0.3832180 SPIN=   0.00000
  Fe   0.3256231  -0.0988146  -0.1306450 SPIN=   4.00000
  Fe  -0.3256231   0.4011854   0.1306450 SPIN=   4.00000
   O   0.0640401   0.1549550   0.1363320 SPIN=   0.00000
   O   0.0847771  -0.1085699   0.3547579 SPIN=   0.00000
   O   0.5534099  -0.1034834   0.2124093 SPIN=   0.00000
   O   0.0536495  -0.3381609   0.1259456 SPIN=   0.00000
   S   0.1889691  -0.0988148   0.2073612 SPIN=   0.00000
   O  -0.0640401   0.6549550  -0.1363320 SPIN=   0.00000
   O  -0.0847771   0.3914301  -0.3547579 SPIN=   0.00000
   O  -0.5534099   0.3965166  -0.2124093 SPIN=   0.00000
   O  -0.0536495   0.1618391  -0.1259456 SPIN=   0.00000
   S  -0.1889691   0.4011852  -0.2073612 SPIN=   0.00000
   F  -0.7125796  -0.1034743  -0.3504192 SPIN=   0.00000
   F   0.7125796   0.3965257   0.3504192 SPIN=   0.00000
%ENDBLOCK POSITIONS_FRAC

# Note: total spin =   8.00

KPOINTS_MP_SPACING 0.07

%BLOCK SPECIES_POT
QC5
%ENDBLOCK SPECIES_POT

SNAP_TO_SYMMETRY
SYMMETRY_GENERATE

