#              Generated by Buildcell
#
# at 21:20:24 (GMT+1.0) 18th August 2020
# in /lustre/scratch/uccabz1/launch_tmp
# on node-c12p-018
# by uccabz1
#
# compiler GCC version 4.9.2
# options -cpp -iprefix /lustre/shared/ucl/apps/gcc/4.9.2/bin/../lib/gcc/x86_64-unknown-linux-gnu/4.9.2/ -mtune=corei7 -march=x86-64 -g -Og
#
# seed  -913617136  1495000288 -1349442435   483342223   831127124   982053958    17069294 -1853870535 -1353461464  1431915936  2027455810   -50209023
#
#      Author: C. J. Pickard (cjp20@cam.ac.uk)
#                Space group: Cc
#

%BLOCK LATTICE_ABC
      4.69013      4.69013      9.87916
     95.75694     95.75694    110.76932
%ENDBLOCK LATTICE_ABC

%BLOCK POSITIONS_FRAC
  Li  -0.3242767   0.3038970  -0.2976198 SPIN=   0.00000
  Li   0.3038970  -0.3242767   0.2023802 SPIN=   0.00000
  Fe  -0.3035398   0.4659786   0.0099213 SPIN=   4.00000
  Fe   0.4659786  -0.3035398  -0.4900787 SPIN=   4.00000
   O   0.0555324   0.1780126  -0.3216586 SPIN=   0.00000
   O  -0.1854932  -0.2483992  -0.1918221 SPIN=   0.00000
   O   0.3773541   0.0439362  -0.1437639 SPIN=   0.00000
   O   0.1480976  -0.3091044  -0.3626123 SPIN=   0.00000
   S   0.0988727  -0.0838887  -0.2549642 SPIN=   0.00000
   O   0.1780126   0.0555324   0.1783414 SPIN=   0.00000
   O  -0.2483992  -0.1854932   0.3081779 SPIN=   0.00000
   O   0.0439362   0.3773541   0.3562361 SPIN=   0.00000
   O  -0.3091044   0.1480976   0.1373877 SPIN=   0.00000
   S  -0.0838887   0.0988727   0.2450358 SPIN=   0.00000
   F  -0.4514557   0.3032384  -0.4898671 SPIN=   0.00000
   F   0.3032384  -0.4514557   0.0101329 SPIN=   0.00000
%ENDBLOCK POSITIONS_FRAC

# Note: total spin =   8.00

KPOINTS_MP_SPACING 0.07

%BLOCK SPECIES_POT
QC5
%ENDBLOCK SPECIES_POT

SNAP_TO_SYMMETRY
SYMMETRY_GENERATE

