#              Generated by Buildcell
#
# at 23:49:37 (GMT+1.0) 18th August 2020
# in /lustre/scratch/uccabz1/launch_tmp
# on node-c12i-018
# by uccabz1
#
# compiler GCC version 4.9.2
# options -cpp -iprefix /lustre/shared/ucl/apps/gcc/4.9.2/bin/../lib/gcc/x86_64-unknown-linux-gnu/4.9.2/ -mtune=corei7 -march=x86-64 -g -Og
#
# seed -1765525731 -1658807168  -418119742  1280212311  1787579495 -1650764100  1947659984  1781354805  -808145237   405177944   927855391 -1897258681
#
#      Author: C. J. Pickard (cjp20@cam.ac.uk)
#                Space group: Pm
#

%BLOCK LATTICE_ABC
      3.99596      6.33299      7.98793
     90.00000     90.00000     98.35548
%ENDBLOCK LATTICE_ABC

%BLOCK POSITIONS_FRAC
  Li   0.3336600   0.4593397  -0.2500001 SPIN=   0.00000
  Li   0.3336600   0.4593397   0.2500001 SPIN=   0.00000
  Fe  -0.2078699   0.2136470   0.5000000 SPIN=   2.86206
  Fe  -0.4719346   0.1610818   0.0000000 SPIN=   5.13794
   O   0.3359650  -0.1782855   0.1490794 SPIN=   0.00000
   O  -0.2283649  -0.3778564   0.2142163 SPIN=   0.00000
   O  -0.1452260   0.0169618   0.2061528 SPIN=   0.00000
   S   0.0167398  -0.1774527   0.2513755 SPIN=   0.00000
   O   0.3359650  -0.1782855  -0.1490794 SPIN=   0.00000
   O  -0.2283649  -0.3778564  -0.2142163 SPIN=   0.00000
   O  -0.1452260   0.0169618  -0.2061528 SPIN=   0.00000
   S   0.0167398  -0.1774527  -0.2513755 SPIN=   0.00000
   O  -0.2160677  -0.2575032  -0.5000000 SPIN=   0.00000
   O   0.3250176  -0.0790948  -0.5000000 SPIN=   0.00000
   F   0.1237683   0.3652297   0.0000000 SPIN=   0.00000
   F   0.3026954   0.3663853  -0.5000000 SPIN=   0.00000
%ENDBLOCK POSITIONS_FRAC

# Note: total spin =   8.00

KPOINTS_MP_SPACING 0.07

%BLOCK SPECIES_POT
QC5
%ENDBLOCK SPECIES_POT

SNAP_TO_SYMMETRY
SYMMETRY_GENERATE

