#              Generated by Buildcell
#
# at 03:28:19 (GMT+1.0) 4th August 2020
# in /lustre/scratch/uccabz1/launch_tmp
# on node-c12p-023
# by uccabz1
#
# compiler GCC version 4.9.2
# options -cpp -iprefix /lustre/shared/ucl/apps/gcc/4.9.2/bin/../lib/gcc/x86_64-unknown-linux-gnu/4.9.2/ -mtune=corei7 -march=x86-64 -g -Og
#
# seed  -547638907  1220196236   272117589  2087382684  1204160252  -944897178    26668578  -874597776  -554973549 -2122047100 -1157876688 -1813239875
#
#      Author: C. J. Pickard (cjp20@cam.ac.uk)
#                Space group: Pm
#

%BLOCK LATTICE_ABC
      3.91739      3.93978     13.08885
     90.00000     90.00000     98.08714
%ENDBLOCK LATTICE_ABC

%BLOCK POSITIONS_FRAC
  Li   0.2751177   0.2140783  -0.0000000 SPIN=   0.00000
  Li   0.0460581  -0.1519483  -0.5000000 SPIN=   0.00000
  Fe  -0.1714199  -0.4230170   0.1403950 SPIN=   4.00000
  Fe  -0.1714199  -0.4230170  -0.1403950 SPIN=   4.00000
   O   0.2132503   0.1237553   0.3699256 SPIN=   0.00000
   O   0.2579827   0.5789353   0.2383306 SPIN=   0.00000
   O   0.6773286   0.6183234   0.3807325 SPIN=   0.00000
   S   0.3051154   0.5049997   0.3506893 SPIN=   0.00000
   O   0.2132503   0.1237553  -0.3699256 SPIN=   0.00000
   O   0.2579827   0.5789353  -0.2383306 SPIN=   0.00000
   O   0.6773286   0.6183234  -0.3807325 SPIN=   0.00000
   S   0.3051154   0.5049997  -0.3506893 SPIN=   0.00000
   O   0.0839487  -0.3025235   0.0000000 SPIN=   0.00000
   O  -0.3624608   0.1192188   0.5000000 SPIN=   0.00000
   F  -0.2560249   0.0651478   0.1458781 SPIN=   0.00000
   F  -0.2560249   0.0651478  -0.1458781 SPIN=   0.00000
%ENDBLOCK POSITIONS_FRAC

# Note: total spin =   8.00

KPOINTS_MP_SPACING 0.07

%BLOCK SPECIES_POT
QC5
%ENDBLOCK SPECIES_POT

SNAP_TO_SYMMETRY
SYMMETRY_GENERATE

