#              Generated by Buildcell
#
# at 21:05:41 (GMT+1.0) 18th August 2020
# in /lustre/scratch/uccabz1/launch_tmp
# on node-c12f-005
# by uccabz1
#
# compiler GCC version 4.9.2
# options -cpp -iprefix /lustre/shared/ucl/apps/gcc/4.9.2/bin/../lib/gcc/x86_64-unknown-linux-gnu/4.9.2/ -mtune=corei7 -march=x86-64 -g -Og
#
# seed   258646393   750570928   475912044  -355621807  -291411800  1627750720  1888032467  -869949344   195425626   910900567   112579530    12510686
#
#      Author: C. J. Pickard (cjp20@cam.ac.uk)
#                Space group: Pc
#

%BLOCK LATTICE_ABC
      5.34541      5.65384      6.63024
     93.52785     90.00000     90.00000
%ENDBLOCK LATTICE_ABC

%BLOCK POSITIONS_FRAC
  Li  -0.2216296   0.4540999   0.0259556 SPIN=   0.00000
  Li   0.2216296   0.4540999  -0.4740444 SPIN=   0.00000
  Fe   0.1619211  -0.0325368  -0.2910989 SPIN=   4.00000
  Fe  -0.1619211  -0.0325368   0.2089011 SPIN=   4.00000
   O   0.2288381   0.2725711   0.0624299 SPIN=   0.00000
   O   0.5108413   0.4391764  -0.1886987 SPIN=   0.00000
   O   0.3173315   0.7029970   0.0792548 SPIN=   0.00000
   O   0.0566364   0.5227162  -0.1978102 SPIN=   0.00000
   S   0.2784118   0.4843652  -0.0612060 SPIN=   0.00000
   O  -0.2288381   0.2725711   0.5624299 SPIN=   0.00000
   O  -0.5108413   0.4391764   0.3113013 SPIN=   0.00000
   O  -0.3173315   0.7029970   0.5792548 SPIN=   0.00000
   O  -0.0566364   0.5227162   0.3021898 SPIN=   0.00000
   S  -0.2784118   0.4843652   0.4387940 SPIN=   0.00000
   F   0.2232555   0.0164086   0.3895675 SPIN=   0.00000
   F  -0.2232555   0.0164086  -0.1104325 SPIN=   0.00000
%ENDBLOCK POSITIONS_FRAC

# Note: total spin =   8.00

KPOINTS_MP_SPACING 0.07

%BLOCK SPECIES_POT
QC5
%ENDBLOCK SPECIES_POT

SNAP_TO_SYMMETRY
SYMMETRY_GENERATE

