#              Generated by Buildcell
#
# at 21:12:16 (GMT+1.0) 18th August 2020
# in /lustre/scratch/uccabz1/launch_tmp
# on node-c12p-024
# by uccabz1
#
# compiler GCC version 4.9.2
# options -cpp -iprefix /lustre/shared/ucl/apps/gcc/4.9.2/bin/../lib/gcc/x86_64-unknown-linux-gnu/4.9.2/ -mtune=corei7 -march=x86-64 -g -Og
#
# seed -1618013896   784324361   809167237  -742638588  1508359657  -531630733  1304370910  -708510176  -964349676 -1601415658  -662368766  1409374457
#
#      Author: C. J. Pickard (cjp20@cam.ac.uk)
#                Space group: P21/m
#

%BLOCK LATTICE_ABC
      4.77989      6.36822      6.65515
     90.00000     99.15138     90.00000
%ENDBLOCK LATTICE_ABC

%BLOCK POSITIONS_FRAC
  Li   0.5908162  -0.2500000   0.1767214 SPIN=   0.00000
  Li  -0.5908162   0.2500000  -0.1767214 SPIN=   0.00000
  Fe   0.0717808  -0.2500000  -0.1462718 SPIN=   4.00000
  Fe  -0.0717808   0.2500000   0.1462718 SPIN=   4.00000
   O  -0.0245526  -0.4365638   0.1893530 SPIN=   0.00000
   O  -0.2554704  -0.4714511   0.4951877 SPIN=   0.00000
   O   0.0245526   0.0634362  -0.1893530 SPIN=   0.00000
   O   0.2554704   0.0285489  -0.4951877 SPIN=   0.00000
   O   0.0245526   0.4365638  -0.1893530 SPIN=   0.00000
   O   0.2554704   0.4714511  -0.4951877 SPIN=   0.00000
   O  -0.0245526  -0.0634362   0.1893530 SPIN=   0.00000
   O  -0.2554704  -0.0285489   0.4951877 SPIN=   0.00000
   S  -0.1312642   0.2500000  -0.3607918 SPIN=   0.00000
   S   0.1312642  -0.2500000   0.3607918 SPIN=   0.00000
   F  -0.3724018  -0.2500000  -0.1396267 SPIN=   0.00000
   F   0.3724018   0.2500000   0.1396267 SPIN=   0.00000
%ENDBLOCK POSITIONS_FRAC

# Note: total spin =   8.00

KPOINTS_MP_SPACING 0.07

%BLOCK SPECIES_POT
QC5
%ENDBLOCK SPECIES_POT

SNAP_TO_SYMMETRY
SYMMETRY_GENERATE

