#              Generated by Buildcell
#
# at 03:23:32 (GMT+1.0) 4th August 2020
# in /lustre/scratch/uccabz1/launch_tmp
# on node-c12c-020
# by uccabz1
#
# compiler GCC version 4.9.2
# options -cpp -iprefix /lustre/shared/ucl/apps/gcc/4.9.2/bin/../lib/gcc/x86_64-unknown-linux-gnu/4.9.2/ -mtune=corei7 -march=x86-64 -g -Og
#
# seed -1481295271   550849222  2083940229 -1405609749   114607052 -1101037863   188593797 -1210065139 -1604992381 -2136919599   737442667  2000544876
#
#      Author: C. J. Pickard (cjp20@cam.ac.uk)
#                Space group: P-1
#

%BLOCK LATTICE_ABC
      5.38503      5.85399      7.53295
     71.56714     88.31823     63.57205
%ENDBLOCK LATTICE_ABC

%BLOCK POSITIONS_FRAC
  Li   0.3338518  -0.0625662  -0.2882375 SPIN=   0.00000
  Li  -0.3338518   0.0625662   0.2882375 SPIN=   0.00000
  Fe   0.0454091  -0.6756194   0.2946627 SPIN=   4.00000
  Fe  -0.0454091   0.6756194  -0.2946627 SPIN=   4.00000
   O  -0.1692151   0.1046438  -0.3057104 SPIN=   0.00000
   O  -0.2189445   0.0775250   0.0269936 SPIN=   0.00000
   O  -0.6304208   0.2090634  -0.1923775 SPIN=   0.00000
   S  -0.3615759   0.2288276  -0.1748105 SPIN=   0.00000
   O   0.1692151  -0.1046438   0.3057104 SPIN=   0.00000
   O   0.2189445  -0.0775250  -0.0269936 SPIN=   0.00000
   O   0.6304208  -0.2090634   0.1923775 SPIN=   0.00000
   S   0.3615759  -0.2288276   0.1748105 SPIN=   0.00000
   O  -0.5000000  -0.5000000   0.5000000 SPIN=   0.00000
   O   0.5000000  -0.5000000  -0.0000000 SPIN=   0.00000
   F  -0.0000000  -0.5000000   0.5000000 SPIN=   0.00000
   F  -0.0000000  -0.5000000  -0.0000000 SPIN=   0.00000
%ENDBLOCK POSITIONS_FRAC

# Note: total spin =   8.00

KPOINTS_MP_SPACING 0.07

%BLOCK SPECIES_POT
QC5
%ENDBLOCK SPECIES_POT

SNAP_TO_SYMMETRY
SYMMETRY_GENERATE

