#              Generated by Buildcell
#
# at 00:57:23 (GMT+1.0) 19th August 2020
# in /scratch/scratch/uccabz1/launch_tmp
# on node-k10b-029
# by uccabz1
#
# compiler GCC version 4.9.2
# options -cpp -iprefix /scratch/UCL/applications/gcc/4.9.2/bin/../lib/gcc/x86_64-unknown-linux-gnu/4.9.2/ -mtune=corei7 -march=x86-64 -g -O2
#
# seed -1696746366 -1407252175  -379313209 -1304828132  1291436166  1965992139   136931587 -1206078981 -1066311726  1393877571  -435342885  -326185719
#
#      Author: C. J. Pickard (cjp20@cam.ac.uk)
#                Space group: Pnn2
#

%BLOCK LATTICE_ABC
      4.11268      4.37427     11.11731
     90.00000     90.00000     90.00000
%ENDBLOCK LATTICE_ABC

%BLOCK POSITIONS_FRAC
  Li  -0.5000000   0.5000000  -0.1809025 SPIN=   0.00000
  Li  -0.0000000  -0.0000000   0.3190975 SPIN=   0.00000
  Fe  -0.5000000   0.5000000   0.4106468 SPIN=   4.00000
  Fe  -0.0000000  -0.0000000  -0.0893532 SPIN=   4.00000
   O  -0.2023901  -0.2919750   0.1240333 SPIN=   0.00000
   O  -0.2976104   0.2113108   0.0286270 SPIN=   0.00000
   O   0.2023901   0.2919750   0.1240333 SPIN=   0.00000
   O   0.2976104  -0.2113108   0.0286270 SPIN=   0.00000
   O   0.2976099  -0.2080250  -0.3759667 SPIN=   0.00000
   O   0.2023896  -0.7113108  -0.4713730 SPIN=   0.00000
   O  -0.2976099   0.2080250  -0.3759667 SPIN=   0.00000
   O  -0.2023896   0.7113108  -0.4713730 SPIN=   0.00000
   S  -0.5000000   0.5000000   0.0784606 SPIN=   0.00000
   S  -0.0000000  -0.0000000  -0.4215394 SPIN=   0.00000
   F  -0.0000000   0.5000000  -0.1740439 SPIN=   0.00000
   F  -0.5000000  -0.0000000   0.3259561 SPIN=   0.00000
%ENDBLOCK POSITIONS_FRAC

# Note: total spin =   8.00

KPOINTS_MP_SPACING 0.07

%BLOCK SPECIES_POT
QC5
%ENDBLOCK SPECIES_POT

SNAP_TO_SYMMETRY
SYMMETRY_GENERATE

