#              Generated by Buildcell
#
# at 02:02:02 (GMT+1.0) 19th August 2020
# in /lustre/scratch/uccabz1/launch_tmp
# on node-c12b-022
# by uccabz1
#
# compiler GCC version 4.9.2
# options -cpp -iprefix /lustre/shared/ucl/apps/gcc/4.9.2/bin/../lib/gcc/x86_64-unknown-linux-gnu/4.9.2/ -mtune=corei7 -march=x86-64 -g -Og
#
# seed  -527173001 -2133496713 -1972943664   146655269  1315430767  1245821640 -1862674644  -558780348 -1160167744  1118313587 -1945635975   707611781
#
#      Author: C. J. Pickard (cjp20@cam.ac.uk)
#                Space group: Pc
#

%BLOCK LATTICE_ABC
      4.16506      6.71073      7.23671
     90.00000     98.59278     90.00000
%ENDBLOCK LATTICE_ABC

%BLOCK POSITIONS_FRAC
  Li   0.4863522  -0.3392632   0.4818304 SPIN=   0.00000
  Li   0.4863522   0.3392632  -0.0181696 SPIN=   0.00000
  Fe   0.0335917   0.1059340  -0.3526011 SPIN=   4.00000
  Fe   0.0335917  -0.1059340   0.1473989 SPIN=   4.00000
   O   0.0486892  -0.2806733  -0.4480787 SPIN=   0.00000
   O  -0.0760672  -0.2187565  -0.1292328 SPIN=   0.00000
   O   0.4257408  -0.3987663  -0.1729173 SPIN=   0.00000
   O  -0.1095680  -0.5608731  -0.2583865 SPIN=   0.00000
   S   0.0721987  -0.3647673  -0.2521538 SPIN=   0.00000
   O   0.0486892   0.2806733   0.0519213 SPIN=   0.00000
   O  -0.0760672   0.2187565   0.3707672 SPIN=   0.00000
   O   0.4257408   0.3987663   0.3270827 SPIN=   0.00000
   O  -0.1095680   0.5608731   0.2416135 SPIN=   0.00000
   S   0.0721987   0.3647673   0.2478462 SPIN=   0.00000
   F   0.4873778   0.1141662  -0.1765578 SPIN=   0.00000
   F   0.4873778  -0.1141662   0.3234422 SPIN=   0.00000
%ENDBLOCK POSITIONS_FRAC

# Note: total spin =   8.00

KPOINTS_MP_SPACING 0.07

%BLOCK SPECIES_POT
QC5
%ENDBLOCK SPECIES_POT

SNAP_TO_SYMMETRY
SYMMETRY_GENERATE

