#              Generated by Buildcell
#
# at 23:25:40 (GMT+1.0) 18th August 2020
# in /lustre/scratch/uccabz1/launch_tmp
# on node-c12c-006
# by uccabz1
#
# compiler GCC version 4.9.2
# options -cpp -iprefix /lustre/shared/ucl/apps/gcc/4.9.2/bin/../lib/gcc/x86_64-unknown-linux-gnu/4.9.2/ -mtune=corei7 -march=x86-64 -g -Og
#
# seed  2102979667 -1926380062  -634554190    34631378  -875942027   176113330  2003765505  -260931704  2088690823 -2127046972  1115439757 -1880375854
#
#      Author: C. J. Pickard (cjp20@cam.ac.uk)
#                Space group: Cm
#

%BLOCK LATTICE_ABC
      5.91843      6.34436      6.34436
    110.02752    104.91468    104.91468
%ENDBLOCK LATTICE_ABC

%BLOCK POSITIONS_FRAC
  Li  -0.0934363  -0.4687870  -0.4687870 SPIN=   0.00000
  Li  -0.3863154  -0.0198010  -0.0198010 SPIN=   0.00000
  Fe  -0.0165042   0.4221108   0.0016198 SPIN=   4.00000
  Fe  -0.0165042   0.0016198   0.4221108 SPIN=   4.00000
   O   0.5594222   0.8309912   0.2089787 SPIN=   0.00000
   O   0.1508864   0.6352533  -0.1412929 SPIN=   0.00000
   O   0.3260047   0.3870115   0.0274702 SPIN=   0.00000
   O   0.5297411   0.5690874  -0.1975480 SPIN=   0.00000
   O   0.5594222   0.2089787   0.8309912 SPIN=   0.00000
   O   0.1508864  -0.1412929   0.6352533 SPIN=   0.00000
   O   0.3260047   0.0274702   0.3870115 SPIN=   0.00000
   O   0.5297411  -0.1975480   0.5690874 SPIN=   0.00000
   S   0.1410611  -0.0408900  -0.0408900 SPIN=   0.00000
   S   0.4188827   0.5611953   0.5611953 SPIN=   0.00000
   F  -0.1708052  -0.4144505   0.2150420 SPIN=   0.00000
   F  -0.1708052   0.2150420  -0.4144505 SPIN=   0.00000
%ENDBLOCK POSITIONS_FRAC

# Note: total spin =   8.00

KPOINTS_MP_SPACING 0.07

%BLOCK SPECIES_POT
QC5
%ENDBLOCK SPECIES_POT

SNAP_TO_SYMMETRY
SYMMETRY_GENERATE

