#              Generated by Buildcell
#
# at 23:36:26 (GMT+1.0) 18th August 2020
# in /lustre/scratch/uccabz1/launch_tmp
# on node-c12b-013
# by uccabz1
#
# compiler GCC version 4.9.2
# options -cpp -iprefix /lustre/shared/ucl/apps/gcc/4.9.2/bin/../lib/gcc/x86_64-unknown-linux-gnu/4.9.2/ -mtune=corei7 -march=x86-64 -g -Og
#
# seed  2031512550   220195388 -1736783327  1066311902 -1072697913  2083346347  1737133969  1564533644 -1307645888 -2058722920  1713429214  1312517496
#
#      Author: C. J. Pickard (cjp20@cam.ac.uk)
#                Space group: Cm
#

%BLOCK LATTICE_ABC
      3.94443      7.17327      7.17327
     83.11199     84.77286     84.77286
%ENDBLOCK LATTICE_ABC

%BLOCK POSITIONS_FRAC
  Li   0.0233296  -0.2189003   0.1882726 SPIN=   0.00000
  Li   0.0233296   0.1882726  -0.2189003 SPIN=   0.00000
  Fe  -0.2140566   0.0643054   0.4448226 SPIN=   4.00000
  Fe  -0.2140566   0.4448226   0.0643054 SPIN=   4.00000
   O  -0.2795859   0.3283579  -0.4393908 SPIN=   0.00000
   O  -0.8610990   0.4451234  -0.3233443 SPIN=   0.00000
   O  -0.3556787   0.5613228  -0.2078445 SPIN=   0.00000
   O  -0.4989684   0.2331204  -0.1106776 SPIN=   0.00000
   O  -0.2795859  -0.4393908   0.3283579 SPIN=   0.00000
   O  -0.8610990  -0.3233443   0.4451234 SPIN=   0.00000
   O  -0.3556787  -0.2078445   0.5613228 SPIN=   0.00000
   O  -0.4989684  -0.1106776   0.2331204 SPIN=   0.00000
   S  -0.3942043  -0.4496578  -0.4496578 SPIN=   0.00000
   S  -0.4903769   0.0242866   0.0242866 SPIN=   0.00000
   F   0.2635743  -0.4825852   0.1034202 SPIN=   0.00000
   F   0.2635743   0.1034202  -0.4825852 SPIN=   0.00000
%ENDBLOCK POSITIONS_FRAC

# Note: total spin =   8.00

KPOINTS_MP_SPACING 0.07

%BLOCK SPECIES_POT
QC5
%ENDBLOCK SPECIES_POT

SNAP_TO_SYMMETRY
SYMMETRY_GENERATE

