#              Generated by Buildcell
#
# at 04:20:55 (GMT+1.0) 4th August 2020
# in /lustre/scratch/uccabz1/launch_tmp
# on node-c12l-015
# by uccabz1
#
# compiler GCC version 4.9.2
# options -cpp -iprefix /lustre/shared/ucl/apps/gcc/4.9.2/bin/../lib/gcc/x86_64-unknown-linux-gnu/4.9.2/ -mtune=corei7 -march=x86-64 -g -Og
#
# seed  -745028130   725565767 -1716347241  2055034299   -87940106 -2072075820   951105925 -1766549652   656017016 -1580973681 -1692352901  1028026292
#
#      Author: C. J. Pickard (cjp20@cam.ac.uk)
#                Space group: P-1
#

%BLOCK LATTICE_ABC
      3.98645      6.96837      7.80045
     77.38677     77.65271     73.43031
%ENDBLOCK LATTICE_ABC

%BLOCK POSITIONS_FRAC
  Li   0.3051249   0.3521701  -0.2660757 SPIN=   0.00000
  Li  -0.3051249  -0.3521701   0.2660757 SPIN=   0.00000
  Fe   0.6293795  -0.3413320  -0.2088326 SPIN=   4.00000
  Fe  -0.6293795   0.3413320   0.2088326 SPIN=   4.00000
   O   0.6058245  -0.0026821  -0.3665563 SPIN=   0.00000
   O   0.1216196  -0.1524682  -0.1875499 SPIN=   0.00000
   O  -0.0164831   0.2017728  -0.3473637 SPIN=   0.00000
   O   0.2863597   0.1149177  -0.0845916 SPIN=   0.00000
   O  -0.6058245   0.0026821   0.3665563 SPIN=   0.00000
   O  -0.1216196   0.1524682   0.1875499 SPIN=   0.00000
   O   0.0164831  -0.2017728   0.3473637 SPIN=   0.00000
   O  -0.2863597  -0.1149177   0.0845916 SPIN=   0.00000
   S  -1.0000000   0.0000000   0.5000000 SPIN=   0.00000
   S   0.0000000  -0.0000000   0.0000000 SPIN=   0.00000
   F   0.5000000  -0.5000000   0.5000000 SPIN=   0.00000
   F   1.0000000  -0.5000000   0.0000000 SPIN=   0.00000
%ENDBLOCK POSITIONS_FRAC

# Note: total spin =   8.00

KPOINTS_MP_SPACING 0.07

%BLOCK SPECIES_POT
QC5
%ENDBLOCK SPECIES_POT

SNAP_TO_SYMMETRY
SYMMETRY_GENERATE

