#              Generated by Buildcell
#
# at 05:05:12 (GMT+1.0) 4th August 2020
# in /lustre/scratch/uccabz1/launch_tmp
# on node-c12m-011
# by uccabz1
#
# compiler GCC version 4.9.2
# options -cpp -iprefix /lustre/shared/ucl/apps/gcc/4.9.2/bin/../lib/gcc/x86_64-unknown-linux-gnu/4.9.2/ -mtune=corei7 -march=x86-64 -g -Og
#
# seed   -31440970  -892824765 -2033818480  -995939107 -1465010740  -897087849  1438482401 -2012140201    69278078   634140196 -1359558682   635636000
#
#      Author: C. J. Pickard (cjp20@cam.ac.uk)
#                Space group: Cmc21
#

%BLOCK LATTICE_ABC
      5.35667      5.37021      7.45302
    111.11683     90.00000     90.00000
%ENDBLOCK LATTICE_ABC

%BLOCK POSITIONS_FRAC
  Li   0.1264260   0.4066767  -0.1866466 SPIN=   0.00000
  Li  -0.3735740  -0.4066767   0.1866466 SPIN=   0.00000
  Fe  -0.1769696   0.1750014   0.3500029 SPIN=   4.00000
  Fe   0.3230304  -0.1750014  -0.3500029 SPIN=   4.00000
   O   0.1742624   0.0397307   0.5014134 SPIN=   0.00000
   O  -0.0018216  -0.1712302   0.1743586 SPIN=   0.00000
   O  -0.3257376  -0.0397307  -0.5014134 SPIN=   0.00000
   O  -0.5018216   0.1712302  -0.1743586 SPIN=   0.00000
   O  -0.3257376  -0.4616828  -0.5014134 SPIN=   0.00000
   O  -0.5018216  -0.3455888  -0.1743586 SPIN=   0.00000
   O   0.1742624   0.4616828   0.5014134 SPIN=   0.00000
   O  -0.0018216   0.3455888   0.1743586 SPIN=   0.00000
   S  -0.3735742   0.4005072  -0.1989855 SPIN=   0.00000
   S   0.1264258  -0.4005072   0.1989855 SPIN=   0.00000
   F   0.0412855  -0.0880915  -0.1761830 SPIN=   0.00000
   F  -0.4587145   0.0880915   0.1761830 SPIN=   0.00000
%ENDBLOCK POSITIONS_FRAC

# Note: total spin =   8.00

KPOINTS_MP_SPACING 0.07

%BLOCK SPECIES_POT
QC5
%ENDBLOCK SPECIES_POT

SNAP_TO_SYMMETRY
SYMMETRY_GENERATE

