#              Generated by Buildcell
#
# at 04:59:07 (GMT+1.0) 4th August 2020
# in /lustre/scratch/uccabz1/launch_tmp
# on node-c12f-007
# by uccabz1
#
# compiler GCC version 4.9.2
# options -cpp -iprefix /lustre/shared/ucl/apps/gcc/4.9.2/bin/../lib/gcc/x86_64-unknown-linux-gnu/4.9.2/ -mtune=corei7 -march=x86-64 -g -Og
#
# seed  1396668713  -335762205 -1407602137  -408970552  1557635383  -657280255   398707695  1574406664 -1625612132  1915495301  1910202472  -794307128
#
#      Author: C. J. Pickard (cjp20@cam.ac.uk)
#                Space group: C2
#

%BLOCK LATTICE_ABC
      5.26898      5.26898      8.04717
     71.16260     71.16260     85.76767
%ENDBLOCK LATTICE_ABC

%BLOCK POSITIONS_FRAC
  Li  -0.0418287  -0.3965596   0.3767580 SPIN=   0.00000
  Li   0.3965596   0.0418287  -0.3767580 SPIN=   0.00000
  Fe  -0.3389029  -0.0647255  -0.0651013 SPIN=   4.00000
  Fe   0.0647255   0.3389029   0.0651013 SPIN=   4.00000
   O   0.7313255   0.5446124   0.2311980 SPIN=   0.00000
   O   0.3139003   0.5506019   0.1520701 SPIN=   0.00000
   O   0.2925995   0.4453681   0.4791811 SPIN=   0.00000
   O   0.4805987   0.1197305   0.3115763 SPIN=   0.00000
   S   0.4546060   0.4150782   0.2935064 SPIN=   0.00000
   O  -0.5446124  -0.7313255  -0.2311980 SPIN=   0.00000
   O  -0.5506019  -0.3139003  -0.1520701 SPIN=   0.00000
   O  -0.4453681  -0.2925995  -0.4791811 SPIN=   0.00000
   O  -0.1197305  -0.4805987  -0.3115763 SPIN=   0.00000
   S  -0.4150782  -0.4546060  -0.2935064 SPIN=   0.00000
   F   0.0139712  -0.0286535   0.2502269 SPIN=   0.00000
   F   0.0286535  -0.0139712  -0.2502269 SPIN=   0.00000
%ENDBLOCK POSITIONS_FRAC

# Note: total spin =   8.00

KPOINTS_MP_SPACING 0.07

%BLOCK SPECIES_POT
QC5
%ENDBLOCK SPECIES_POT

SNAP_TO_SYMMETRY
SYMMETRY_GENERATE

