#              Generated by Buildcell
#
# at 22:08:33 (GMT+1.0) 18th August 2020
# in /lustre/scratch/uccabz1/launch_tmp
# on node-c12f-013
# by uccabz1
#
# compiler GCC version 4.9.2
# options -cpp -iprefix /lustre/shared/ucl/apps/gcc/4.9.2/bin/../lib/gcc/x86_64-unknown-linux-gnu/4.9.2/ -mtune=corei7 -march=x86-64 -g -Og
#
# seed  1275064223  1387623486 -2112646517  -351563765   333051299 -1270041481 -2046351025   467805261 -1919826461  1865632830  1443362433   -43504915
#
#      Author: C. J. Pickard (cjp20@cam.ac.uk)
#                Space group: Pcc2
#

%BLOCK LATTICE_ABC
      3.94793      6.45470      7.84845
     90.00000     90.00000     90.00000
%ENDBLOCK LATTICE_ABC

%BLOCK POSITIONS_FRAC
  Li   0.0000000   0.5000000  -0.0194871 SPIN=   0.00000
  Li   0.0000000   0.5000000   0.4805129 SPIN=   0.00000
  Fe   0.5000000   0.0000000   0.0541240 SPIN=   4.00000
  Fe   0.5000000   0.0000000  -0.4458760 SPIN=   4.00000
   O  -0.5010153   0.3178467  -0.5231195 SPIN=   0.00000
   O  -0.0586453   0.3220554  -0.2997206 SPIN=   0.00000
   O   0.5010153  -0.3178467  -0.5231195 SPIN=   0.00000
   O   0.0586453  -0.3220554  -0.2997206 SPIN=   0.00000
   O  -0.5010153  -0.3178467  -0.0231195 SPIN=   0.00000
   O  -0.0586453  -0.3220554   0.2002794 SPIN=   0.00000
   O   0.5010153   0.3178467  -0.0231195 SPIN=   0.00000
   O   0.0586453   0.3220554   0.2002794 SPIN=   0.00000
   S  -0.5000000   0.5000000   0.2305129 SPIN=   0.00000
   S  -0.5000000   0.5000000  -0.2694871 SPIN=   0.00000
   F   0.0000000   0.0000000  -0.0503503 SPIN=   0.00000
   F  -0.0000000   0.0000000   0.4496497 SPIN=   0.00000
%ENDBLOCK POSITIONS_FRAC

# Note: total spin =   8.00

KPOINTS_MP_SPACING 0.07

%BLOCK SPECIES_POT
QC5
%ENDBLOCK SPECIES_POT

SNAP_TO_SYMMETRY
SYMMETRY_GENERATE

