#              Generated by Buildcell
#
# at 18:57:44 (GMT+1.0) 18th August 2020
# in /scratch/scratch/uccabz1/launch_tmp
# on node-k10c-026
# by uccabz1
#
# compiler GCC version 4.9.2
# options -cpp -iprefix /scratch/UCL/applications/gcc/4.9.2/bin/../lib/gcc/x86_64-unknown-linux-gnu/4.9.2/ -mtune=corei7 -march=x86-64 -g -O2
#
# seed -1539815792  -658527924 -1625985908    36525741 -1339005335  -370824934  -257801900  -742787464 -1290070905 -2017481210 -1037704906   728556920
#
#      Author: C. J. Pickard (cjp20@cam.ac.uk)
#                Space group: Pma2
#

%BLOCK LATTICE_ABC
      4.50409      5.76412      7.70354
     90.00000     90.00000     90.00000
%ENDBLOCK LATTICE_ABC

%BLOCK POSITIONS_FRAC
  Li   0.0000000   0.0208998   0.0000000 SPIN=   0.00000
  Li   0.0000000   0.0208998   0.5000000 SPIN=   0.00000
  Fe  -0.4475920  -0.1848670  -0.2500000 SPIN=   4.00000
  Fe   0.4475920  -0.1848670   0.2500000 SPIN=   4.00000
   O   0.2493438  -0.3063631  -0.0514081 SPIN=   0.00000
   O   0.2180323  -0.6872674   0.0957165 SPIN=   0.00000
   O  -0.2493438  -0.3063631   0.0514081 SPIN=   0.00000
   O  -0.2180323  -0.6872674  -0.0957165 SPIN=   0.00000
   O  -0.2493438  -0.3063631  -0.5514081 SPIN=   0.00000
   O  -0.2180323  -0.6872674  -0.4042835 SPIN=   0.00000
   O   0.2493438  -0.3063631   0.5514081 SPIN=   0.00000
   O   0.2180323  -0.6872674   0.4042835 SPIN=   0.00000
   S   0.0000000  -0.4583593  -0.0000000 SPIN=   0.00000
   S   0.0000000  -0.4583593   0.5000000 SPIN=   0.00000
   F  -0.2931445   0.0970221   0.2500000 SPIN=   0.00000
   F   0.2931445   0.0970221  -0.2500000 SPIN=   0.00000
%ENDBLOCK POSITIONS_FRAC

# Note: total spin =   8.00

KPOINTS_MP_SPACING 0.07

%BLOCK SPECIES_POT
QC5
%ENDBLOCK SPECIES_POT

SNAP_TO_SYMMETRY
SYMMETRY_GENERATE

