#              Generated by Buildcell
#
# at 03:02:51 (GMT+1.0) 4th August 2020
# in /lustre/scratch/uccabz1/launch_tmp
# on node-c12g-006
# by uccabz1
#
# compiler GCC version 4.9.2
# options -cpp -iprefix /lustre/shared/ucl/apps/gcc/4.9.2/bin/../lib/gcc/x86_64-unknown-linux-gnu/4.9.2/ -mtune=corei7 -march=x86-64 -g -Og
#
# seed  1179955174   448856969  1688362893  1240708067  1073318452  1633190878  1964582113   600448708    37912646   369583852 -1588320681 -1867334225
#
#      Author: C. J. Pickard (cjp20@cam.ac.uk)
#                Space group: Cm
#

%BLOCK LATTICE_ABC
      3.93411      7.17293      7.17293
     81.16176     89.55957     89.55957
%ENDBLOCK LATTICE_ABC

%BLOCK POSITIONS_FRAC
  Li  -0.0543155  -0.3473702  -0.3473702 SPIN=   0.00000
  Li   0.4337600  -0.0729389  -0.0729389 SPIN=   0.00000
  Fe   0.4525964   0.4383124   0.4383124 SPIN=   6.54045
  Fe  -0.0377981   0.1517971   0.1517971 SPIN=   1.45955
   O   0.7508808   0.0648171  -0.4040931 SPIN=   0.00000
   O   0.2150740  -0.1149648  -0.3531477 SPIN=   0.00000
   O   0.6674750  -0.2179229  -0.5570993 SPIN=   0.00000
   O   0.3390378   0.0739831  -0.6644769 SPIN=   0.00000
   S   0.4931169  -0.0485219  -0.4947043 SPIN=   0.00000
   O   0.7508808  -0.4040931   0.0648171 SPIN=   0.00000
   O   0.2150740  -0.3531477  -0.1149648 SPIN=   0.00000
   O   0.6674750  -0.5570993  -0.2179229 SPIN=   0.00000
   O   0.3390378  -0.6644769   0.0739831 SPIN=   0.00000
   S   0.4931169  -0.4947043  -0.0485219 SPIN=   0.00000
   F  -0.0825622  -0.0255273  -0.0255273 SPIN=   0.00000
   F  -0.0469838   0.4244168   0.4244168 SPIN=   0.00000
%ENDBLOCK POSITIONS_FRAC

# Note: total spin =   8.00

KPOINTS_MP_SPACING 0.07

%BLOCK SPECIES_POT
QC5
%ENDBLOCK SPECIES_POT

SNAP_TO_SYMMETRY
SYMMETRY_GENERATE

