#              Generated by Buildcell
#
# at 03:16:30 (GMT+1.0) 4th August 2020
# in /lustre/scratch/uccabz1/launch_tmp
# on node-c12p-012
# by uccabz1
#
# compiler GCC version 4.9.2
# options -cpp -iprefix /lustre/shared/ucl/apps/gcc/4.9.2/bin/../lib/gcc/x86_64-unknown-linux-gnu/4.9.2/ -mtune=corei7 -march=x86-64 -g -Og
#
# seed  -953743058 -1138634829   136291145 -1688627701  -354039728 -1986062657   529042553   397844475   276739061  2015014985  -132948361 -1397684168
#
#      Author: C. J. Pickard (cjp20@cam.ac.uk)
#                Space group: C2
#

%BLOCK LATTICE_ABC
      6.18796      6.36180      6.61849
    115.73374    114.81898     95.69857
%ENDBLOCK LATTICE_ABC

%BLOCK POSITIONS_FRAC
  Li  -0.0940470  -0.1917366   0.2421647 SPIN=   0.00000
  Li   0.3362117   0.4339013   0.2421647 SPIN=   0.00000
  Fe  -0.0835520  -0.0835520  -0.1671040 SPIN=   5.18514
  Fe   0.3512034  -0.6487966  -0.2975932 SPIN=   2.81486
   O   0.7288165   0.0093306   0.3779153 SPIN=   0.00000
   O   0.2701046  -0.1172615   0.0697470 SPIN=   0.00000
   O   0.4254502   0.0056751   0.5295550 SPIN=   0.00000
   S   0.4644355  -0.1232519   0.3004318 SPIN=   0.00000
   O  -0.3509012   0.3685846   0.3779153 SPIN=   0.00000
   O  -0.2003577   0.1870085   0.0697470 SPIN=   0.00000
   O   0.1041048   0.5238799   0.5295550 SPIN=   0.00000
   S  -0.1640038   0.4236837   0.3004318 SPIN=   0.00000
   O  -0.0746786  -0.5746786  -0.1493571 SPIN=   0.00000
   O  -0.4340013   0.5659987   0.1319974 SPIN=   0.00000
   F  -0.3773884  -0.3093569  -0.2149828 SPIN=   0.00000
   F   0.1624056   0.0943741  -0.2149828 SPIN=   0.00000
%ENDBLOCK POSITIONS_FRAC

# Note: total spin =   8.00

KPOINTS_MP_SPACING 0.07

%BLOCK SPECIES_POT
QC5
%ENDBLOCK SPECIES_POT

SNAP_TO_SYMMETRY
SYMMETRY_GENERATE

