#              Generated by Buildcell
#
# at 05:36:19 (GMT+1.0) 4th August 2020
# in /lustre/scratch/uccabz1/launch_tmp
# on node-c12k-005
# by uccabz1
#
# compiler GCC version 4.9.2
# options -cpp -iprefix /lustre/shared/ucl/apps/gcc/4.9.2/bin/../lib/gcc/x86_64-unknown-linux-gnu/4.9.2/ -mtune=corei7 -march=x86-64 -g -Og
#
# seed -1161332875  -158084770  1520276514  -711341852  1004188448 -1169208348   423778301  -414806274  -772910619   801089914 -1936456000  1108000665
#
#      Author: C. J. Pickard (cjp20@cam.ac.uk)
#                Space group: Pma2
#

%BLOCK LATTICE_ABC
      5.08507      5.33883      7.36695
     90.00000     90.00000     90.00000
%ENDBLOCK LATTICE_ABC

%BLOCK POSITIONS_FRAC
  Li   0.0287411   0.3757610   0.2500000 SPIN=   0.00000
  Li  -0.0287411   0.3757610  -0.2500000 SPIN=   0.00000
  Fe   0.5000000   0.3755338   0.0000000 SPIN=   4.00000
  Fe   0.5000000   0.3755338  -0.5000000 SPIN=   4.00000
   O  -0.1976971   0.6073847  -0.0751217 SPIN=   0.00000
   O  -0.1976639   0.1438235  -0.0753090 SPIN=   0.00000
   O   0.1976971   0.6073847   0.0751217 SPIN=   0.00000
   O   0.1976639   0.1438235   0.0753090 SPIN=   0.00000
   O   0.1976971   0.6073847   0.4248783 SPIN=   0.00000
   O   0.1976639   0.1438235   0.4246910 SPIN=   0.00000
   O  -0.1976971   0.6073847  -0.4248783 SPIN=   0.00000
   O  -0.1976639   0.1438235  -0.4246910 SPIN=   0.00000
   S  -0.1790276  -0.1242450  -0.2500000 SPIN=   0.00000
   S   0.1790276  -0.1242450   0.2500000 SPIN=   0.00000
   F  -0.3685515   0.3755737   0.2500000 SPIN=   0.00000
   F   0.3685515   0.3755737  -0.2500000 SPIN=   0.00000
%ENDBLOCK POSITIONS_FRAC

# Note: total spin =   8.00

KPOINTS_MP_SPACING 0.07

%BLOCK SPECIES_POT
QC5
%ENDBLOCK SPECIES_POT

SNAP_TO_SYMMETRY
SYMMETRY_GENERATE

