#              Generated by Buildcell
#
# at 21:31:48 (GMT+1.0) 18th August 2020
# in /scratch/scratch/uccabz1/launch_tmp
# on node-k10h-001
# by uccabz1
#
# compiler GCC version 4.9.2
# options -cpp -iprefix /scratch/UCL/applications/gcc/4.9.2/bin/../lib/gcc/x86_64-unknown-linux-gnu/4.9.2/ -mtune=corei7 -march=x86-64 -g -O2
#
# seed   943832414   183598858  2053234115  1821507133 -1458892803   544728078  2064958248  -250888057   427938547  -202754668 -1708786597 -1173080272
#
#      Author: C. J. Pickard (cjp20@cam.ac.uk)
#                Space group: Pc
#

%BLOCK LATTICE_ABC
      3.96821      4.42211     11.46092
     90.00000     90.00000     96.03574
%ENDBLOCK LATTICE_ABC

%BLOCK POSITIONS_FRAC
  Li  -0.3812673   0.2429192  -0.3202467 SPIN=   0.00000
  Li  -0.3812673  -0.2570808   0.3202467 SPIN=   0.00000
  Fe   0.1693463  -0.2971759  -0.3692240 SPIN=   4.00000
  Fe   0.1693463   0.2028241   0.3692240 SPIN=   4.00000
   O  -0.2923133   0.1957835  -0.1409085 SPIN=   0.00000
   O   0.2137452   0.5674020  -0.1664628 SPIN=   0.00000
   O   0.2139147   0.0434399  -0.2423324 SPIN=   0.00000
   O   0.2308465   0.1368244  -0.0293959 SPIN=   0.00000
   S   0.0915483   0.2358624  -0.1447749 SPIN=   0.00000
   O  -0.2923133  -0.3042165   0.1409085 SPIN=   0.00000
   O   0.2137452   0.0674020   0.1664628 SPIN=   0.00000
   O   0.2139147  -0.4565601   0.2423324 SPIN=   0.00000
   O   0.2308465  -0.3631756   0.0293959 SPIN=   0.00000
   S   0.0915483  -0.2641376   0.1447749 SPIN=   0.00000
   F  -0.3315037   0.1874370   0.3576035 SPIN=   0.00000
   F  -0.3315037  -0.3125630  -0.3576035 SPIN=   0.00000
%ENDBLOCK POSITIONS_FRAC

# Note: total spin =   8.00

KPOINTS_MP_SPACING 0.07

%BLOCK SPECIES_POT
QC5
%ENDBLOCK SPECIES_POT

SNAP_TO_SYMMETRY
SYMMETRY_GENERATE

