#              Generated by Buildcell
#
# at 05:08:26 (GMT+1.0) 4th August 2020
# in /lustre/scratch/uccabz1/launch_tmp
# on node-c12l-018
# by uccabz1
#
# compiler GCC version 4.9.2
# options -cpp -iprefix /lustre/shared/ucl/apps/gcc/4.9.2/bin/../lib/gcc/x86_64-unknown-linux-gnu/4.9.2/ -mtune=corei7 -march=x86-64 -g -Og
#
# seed -2130993491  1614482031  2083522501  -993359419  1880142800   871738671   766063381 -1693502933   613786503  -726213432 -1376788760   602799363
#
#      Author: C. J. Pickard (cjp20@cam.ac.uk)
#                Space group: P-1
#

%BLOCK LATTICE_ABC
      3.99972      7.01395      7.42408
     82.02614     78.96033     79.79775
%ENDBLOCK LATTICE_ABC

%BLOCK POSITIONS_FRAC
  Li  -0.4865634  -0.2730124   0.1507791 SPIN=   0.00000
  Li   0.4865634   0.2730124  -0.1507791 SPIN=   0.00000
  Fe  -0.2409929  -0.3474748  -0.2795552 SPIN=   4.00000
  Fe   0.2409929   0.3474748   0.2795552 SPIN=   4.00000
   O   0.0113025  -0.1463569   0.1091639 SPIN=   0.00000
   O  -0.4282377  -0.1109881   0.3915258 SPIN=   0.00000
   O  -0.2555065   0.1821499   0.1945674 SPIN=   0.00000
   S  -0.1303691  -0.0253350   0.2687517 SPIN=   0.00000
   O  -0.0113025   0.1463569  -0.1091639 SPIN=   0.00000
   O   0.4282377   0.1109881  -0.3915258 SPIN=   0.00000
   O   0.2555065  -0.1821499  -0.1945674 SPIN=   0.00000
   S   0.1303691   0.0253350  -0.2687517 SPIN=   0.00000
   O   0.0000000  -0.0000000  -0.5000000 SPIN=   0.00000
   O  -0.5000000   0.0000000   0.0000000 SPIN=   0.00000
   F   0.5000000   0.5000000  -0.5000000 SPIN=   0.00000
   F   0.0000000   0.5000000  -0.0000000 SPIN=   0.00000
%ENDBLOCK POSITIONS_FRAC

# Note: total spin =   8.00

KPOINTS_MP_SPACING 0.07

%BLOCK SPECIES_POT
QC5
%ENDBLOCK SPECIES_POT

SNAP_TO_SYMMETRY
SYMMETRY_GENERATE

