#              Generated by Buildcell
#
# at 00:08:10 (GMT+1.0) 19th August 2020
# in /scratch/scratch/uccabz1/launch_tmp
# on node-k10h-023
# by uccabz1
#
# compiler GCC version 4.9.2
# options -cpp -iprefix /scratch/UCL/applications/gcc/4.9.2/bin/../lib/gcc/x86_64-unknown-linux-gnu/4.9.2/ -mtune=corei7 -march=x86-64 -g -O2
#
# seed  1120286048   743350390  1082201768   401939523 -1375619350 -1698985454   895279500  1593917804   547745403 -1156007201  -621581516   508392379
#
#      Author: C. J. Pickard (cjp20@cam.ac.uk)
#                Space group: Pcc2
#

%BLOCK LATTICE_ABC
      4.56525      5.18463      8.44983
     90.00000     90.00000     90.00000
%ENDBLOCK LATTICE_ABC

%BLOCK POSITIONS_FRAC
  Li  -0.0000000  -0.0000000   0.1274599 SPIN=   0.00000
  Li  -0.0000000   0.0000000  -0.3725401 SPIN=   0.00000
  Fe   0.5000000  -0.5000000  -0.3017711 SPIN=   4.00000
  Fe   0.5000000  -0.5000000   0.1982289 SPIN=   4.00000
   O   0.6299023  -0.2581870   0.4789232 SPIN=   0.00000
   O   0.2330730  -0.0949567   0.3063326 SPIN=   0.00000
   O  -0.6299023   0.2581870   0.4789232 SPIN=   0.00000
   O  -0.2330730   0.0949567   0.3063326 SPIN=   0.00000
   O  -0.6299023  -0.2581870  -0.0210768 SPIN=   0.00000
   O  -0.2330730  -0.0949567  -0.1936674 SPIN=   0.00000
   O   0.6299023   0.2581870  -0.0210768 SPIN=   0.00000
   O   0.2330730   0.0949567  -0.1936674 SPIN=   0.00000
   S  -0.5000000   0.0000000  -0.0513388 SPIN=   0.00000
   S   0.5000000  -0.0000000   0.4486612 SPIN=   0.00000
   F   0.0000000  -0.5000000   0.1664473 SPIN=   0.00000
   F  -0.0000000  -0.5000000  -0.3335527 SPIN=   0.00000
%ENDBLOCK POSITIONS_FRAC

# Note: total spin =   8.00

KPOINTS_MP_SPACING 0.07

%BLOCK SPECIES_POT
QC5
%ENDBLOCK SPECIES_POT

SNAP_TO_SYMMETRY
SYMMETRY_GENERATE

