#              Generated by Buildcell
#
# at 03:41:55 (GMT+1.0) 4th August 2020
# in /lustre/scratch/uccabz1/launch_tmp
# on node-c12e-006
# by uccabz1
#
# compiler GCC version 4.9.2
# options -cpp -iprefix /lustre/shared/ucl/apps/gcc/4.9.2/bin/../lib/gcc/x86_64-unknown-linux-gnu/4.9.2/ -mtune=corei7 -march=x86-64 -g -Og
#
# seed  -924850213   760932165 -1184649481  -639229491 -2083275507 -2145950601   239799708  1501976183    -8034593  -825963105   322617525 -1569216973
#
#      Author: C. J. Pickard (cjp20@cam.ac.uk)
#                Space group: P-1
#

%BLOCK LATTICE_ABC
      4.02016      6.90999      7.96007
    107.54722    101.39658    100.14321
%ENDBLOCK LATTICE_ABC

%BLOCK POSITIONS_FRAC
  Li  -0.2077809   0.3956612   0.1886240 SPIN=   0.00000
  Li   0.2077809  -0.3956612  -0.1886240 SPIN=   0.00000
  Fe   0.4401645   0.2724111  -0.4181333 SPIN=   4.00000
  Fe  -0.4401645  -0.2724111   0.4181333 SPIN=   4.00000
   O   0.1103126  -0.3056523   0.2240683 SPIN=   0.00000
   O   0.0278263   0.0038695   0.1416359 SPIN=   0.00000
   O  -0.4827193  -0.2927872   0.0745802 SPIN=   0.00000
   S  -0.0961575  -0.2323679   0.0848225 SPIN=   0.00000
   O  -0.1103126   0.3056523  -0.2240683 SPIN=   0.00000
   O  -0.0278263  -0.0038695  -0.1416359 SPIN=   0.00000
   O   0.4827193   0.2927872  -0.0745802 SPIN=   0.00000
   S   0.0961575   0.2323679  -0.0848225 SPIN=   0.00000
   O   0.0000000   0.0000000   0.5000000 SPIN=   0.00000
   O   0.5000000  -0.0000000   0.0000000 SPIN=   0.00000
   F   0.3448104  -0.2312166  -0.3529165 SPIN=   0.00000
   F  -0.3448104   0.2312166   0.3529165 SPIN=   0.00000
%ENDBLOCK POSITIONS_FRAC

# Note: total spin =   8.00

KPOINTS_MP_SPACING 0.07

%BLOCK SPECIES_POT
QC5
%ENDBLOCK SPECIES_POT

SNAP_TO_SYMMETRY
SYMMETRY_GENERATE

