#              Generated by Buildcell
#
# at 03:58:23 (GMT+1.0) 4th August 2020
# in /lustre/scratch/uccabz1/launch_tmp
# on node-c12j-018
# by uccabz1
#
# compiler GCC version 4.9.2
# options -cpp -iprefix /lustre/shared/ucl/apps/gcc/4.9.2/bin/../lib/gcc/x86_64-unknown-linux-gnu/4.9.2/ -mtune=corei7 -march=x86-64 -g -Og
#
# seed   880487452  -763562773  2004398798   766680260   931937834 -1832468048   459170615 -1732939742  -384721411   428451792  1500737043  -853950662
#
#      Author: C. J. Pickard (cjp20@cam.ac.uk)
#                Space group: Pmn21
#

%BLOCK LATTICE_ABC
      3.83634      6.48602      8.03775
     90.00000     90.00000     90.00000
%ENDBLOCK LATTICE_ABC

%BLOCK POSITIONS_FRAC
  Li   0.3377181  -0.5000000   0.2243361 SPIN=   0.00000
  Li  -0.1622819  -0.0000000  -0.2243361 SPIN=   0.00000
  Fe   0.3883790  -0.0000000   0.4642910 SPIN=   4.00000
  Fe  -0.1116210  -0.5000000  -0.4642910 SPIN=   4.00000
   O   0.5859342  -0.1783483  -0.0562839 SPIN=   0.00000
   O   0.1285345  -0.3216640  -0.2400541 SPIN=   0.00000
   O   0.0859342  -0.3216517   0.0562839 SPIN=   0.00000
   O  -0.3714655  -0.1783360   0.2400541 SPIN=   0.00000
   O   0.0859342   0.3216517   0.0562839 SPIN=   0.00000
   O  -0.3714655   0.1783360   0.2400541 SPIN=   0.00000
   O   0.5859342   0.1783483  -0.0562839 SPIN=   0.00000
   O   0.1285345   0.3216640  -0.2400541 SPIN=   0.00000
   S   0.2954471  -0.0000000   0.0543320 SPIN=   0.00000
   S  -0.2045529  -0.5000000  -0.0543320 SPIN=   0.00000
   F  -0.0982281  -0.0000000  -0.4556639 SPIN=   0.00000
   F   0.4017719  -0.5000000   0.4556639 SPIN=   0.00000
%ENDBLOCK POSITIONS_FRAC

# Note: total spin =   8.00

KPOINTS_MP_SPACING 0.07

%BLOCK SPECIES_POT
QC5
%ENDBLOCK SPECIES_POT

SNAP_TO_SYMMETRY
SYMMETRY_GENERATE

