#              Generated by Buildcell
#
# at 19:42:21 (GMT+1.0) 18th August 2020
# in /scratch/scratch/uccabz1/launch_tmp
# on node-k10c-029
# by uccabz1
#
# compiler GCC version 4.9.2
# options -cpp -iprefix /scratch/UCL/applications/gcc/4.9.2/bin/../lib/gcc/x86_64-unknown-linux-gnu/4.9.2/ -mtune=corei7 -march=x86-64 -g -O2
#
# seed  2037728439 -1353689314   686686329  -623828930 -1366212950  1627325075  1134155029  2070026232    41052693   929503645 -1277598372  1308454207
#
#      Author: C. J. Pickard (cjp20@cam.ac.uk)
#                Space group: C2
#

%BLOCK LATTICE_ABC
      3.80712      7.30107      7.30107
     85.00684     83.81518     83.81518
%ENDBLOCK LATTICE_ABC

%BLOCK POSITIONS_FRAC
  Li  -0.3148290  -0.0508166   0.3627484 SPIN=   0.00000
  Li   0.3148290  -0.3627484   0.0508166 SPIN=   0.00000
  Fe  -0.3183752  -0.3718383  -0.3262121 SPIN=   4.00000
  Fe   0.3183752   0.3262121   0.3718383 SPIN=   4.00000
   O  -0.0267468  -0.0595965  -0.1497760 SPIN=   0.00000
   O   0.5138747  -0.0615961  -0.3709244 SPIN=   0.00000
   O   0.0252471   0.1881196  -0.4021991 SPIN=   0.00000
   S   0.1145242  -0.0155782  -0.3490654 SPIN=   0.00000
   O   0.0267468   0.1497760   0.0595965 SPIN=   0.00000
   O  -0.5138747   0.3709244   0.0615961 SPIN=   0.00000
   O  -0.0252471   0.4021991  -0.1881196 SPIN=   0.00000
   S  -0.1145242   0.3490654   0.0155782 SPIN=   0.00000
   O   0.5000000   0.3943994  -0.3943994 SPIN=   0.00000
   O  -0.5000000   0.1621138  -0.1621138 SPIN=   0.00000
   F  -0.0000000  -0.4263612   0.4263612 SPIN=   0.00000
   F   0.5000000  -0.1191969   0.1191969 SPIN=   0.00000
%ENDBLOCK POSITIONS_FRAC

# Note: total spin =   8.00

KPOINTS_MP_SPACING 0.07

%BLOCK SPECIES_POT
QC5
%ENDBLOCK SPECIES_POT

SNAP_TO_SYMMETRY
SYMMETRY_GENERATE

