#              Generated by Buildcell
#
# at 00:04:10 (GMT+1.0) 19th August 2020
# in /lustre/scratch/uccabz1/launch_tmp
# on node-c12g-036
# by uccabz1
#
# compiler GCC version 4.9.2
# options -cpp -iprefix /lustre/shared/ucl/apps/gcc/4.9.2/bin/../lib/gcc/x86_64-unknown-linux-gnu/4.9.2/ -mtune=corei7 -march=x86-64 -g -Og
#
# seed  -784167233  1819675144  1076203355  1304488486   345430612  -166119145   249106785  1392735222 -1006831021 -1343588015   582382956   395147917
#
#      Author: C. J. Pickard (cjp20@cam.ac.uk)
#                Space group: Pba2
#

%BLOCK LATTICE_ABC
      4.58769      6.34205      6.87394
     90.00000     90.00000     90.00000
%ENDBLOCK LATTICE_ABC

%BLOCK POSITIONS_FRAC
  Li   0.0000000  -0.0000000   0.3686343 SPIN=   0.00000
  Li   0.5000000   0.5000000   0.3686343 SPIN=   0.00000
  Fe   0.0000000  -0.0000000  -0.0569277 SPIN=   4.00000
  Fe   0.5000000  -0.5000000  -0.0569277 SPIN=   4.00000
   O  -0.3284281  -0.1668163  -0.5318549 SPIN=   0.00000
   O  -0.2762974   0.1041706  -0.2751314 SPIN=   0.00000
   O   0.3284281   0.1668163  -0.5318549 SPIN=   0.00000
   O   0.2762974  -0.1041706  -0.2751314 SPIN=   0.00000
   O  -0.1715719   0.3331837  -0.5318549 SPIN=   0.00000
   O  -0.2237026   0.6041706  -0.2751314 SPIN=   0.00000
   O   0.1715719  -0.3331837  -0.5318549 SPIN=   0.00000
   O   0.2237026  -0.6041706  -0.2751314 SPIN=   0.00000
   S  -0.5000000  -0.0000000  -0.3964577 SPIN=   0.00000
   S  -0.0000000  -0.5000000  -0.3964577 SPIN=   0.00000
   F   0.5000000  -0.0000000   0.1021613 SPIN=   0.00000
   F  -0.0000000  -0.5000000   0.1021613 SPIN=   0.00000
%ENDBLOCK POSITIONS_FRAC

# Note: total spin =   8.00

KPOINTS_MP_SPACING 0.07

%BLOCK SPECIES_POT
QC5
%ENDBLOCK SPECIES_POT

SNAP_TO_SYMMETRY
SYMMETRY_GENERATE

