#              Generated by Buildcell
#
# at 05:13:30 (GMT+1.0) 4th August 2020
# in /lustre/scratch/uccabz1/launch_tmp
# on node-c12p-029
# by uccabz1
#
# compiler GCC version 4.9.2
# options -cpp -iprefix /lustre/shared/ucl/apps/gcc/4.9.2/bin/../lib/gcc/x86_64-unknown-linux-gnu/4.9.2/ -mtune=corei7 -march=x86-64 -g -Og
#
# seed -2146233867  1475505705  -883289305   302216372 -2140792589  -931480474  1126098279   392282382 -1379607305  -974354455   870235359  -752555143
#
#      Author: C. J. Pickard (cjp20@cam.ac.uk)
#                Space group: Cm
#

%BLOCK LATTICE_ABC
      3.80784      7.82620      7.98962
    119.32566    103.50510     90.00000
%ENDBLOCK LATTICE_ABC

%BLOCK POSITIONS_FRAC
  Li   0.0685348  -0.1707909  -0.3415818 SPIN=   0.00000
  Li   0.1201355   0.3485074  -0.3029852 SPIN=   0.00000
  Fe  -0.0980286   0.4052578   0.3465518 SPIN=   4.00000
  Fe  -0.0980286  -0.0587060   0.3465518 SPIN=   4.00000
   O  -0.0469615  -0.2170862  -0.1345083 SPIN=   0.00000
   O  -0.5349169  -0.4044479  -0.1084755 SPIN=   0.00000
   O  -0.3098607  -0.5554236  -0.4104583 SPIN=   0.00000
   S  -0.3922238  -0.3641199  -0.2494211 SPIN=   0.00000
   O  -0.0469615   0.0825779  -0.1345083 SPIN=   0.00000
   O  -0.5349169   0.2959724  -0.1084755 SPIN=   0.00000
   O  -0.3098607   0.1449653  -0.4104583 SPIN=   0.00000
   S  -0.3922238   0.1146988  -0.2494211 SPIN=   0.00000
   O  -0.1732549  -0.3522838   0.2954323 SPIN=   0.00000
   O   0.0172439   0.4997317  -0.0005367 SPIN=   0.00000
   F   0.3407739  -0.1281400   0.2237805 SPIN=   0.00000
   F   0.3407739   0.3519205   0.2237805 SPIN=   0.00000
%ENDBLOCK POSITIONS_FRAC

# Note: total spin =   8.00

KPOINTS_MP_SPACING 0.07

%BLOCK SPECIES_POT
QC5
%ENDBLOCK SPECIES_POT

SNAP_TO_SYMMETRY
SYMMETRY_GENERATE

