#              Generated by Buildcell
#
# at 23:19:22 (GMT+1.0) 18th August 2020
# in /scratch/scratch/uccabz1/launch_tmp
# on node-k10h-029
# by uccabz1
#
# compiler GCC version 4.9.2
# options -cpp -iprefix /scratch/UCL/applications/gcc/4.9.2/bin/../lib/gcc/x86_64-unknown-linux-gnu/4.9.2/ -mtune=corei7 -march=x86-64 -g -O2
#
# seed   669510679    55790471   270920472  1648697162  1936253946  -559507983  2037339584  -391188800 -1192139989  -330533539  -492267938  2064775172
#
#      Author: C. J. Pickard (cjp20@cam.ac.uk)
#                Space group: C2
#

%BLOCK LATTICE_ABC
      5.94526      5.94526      6.13579
     97.91621     97.91621    108.40240
%ENDBLOCK LATTICE_ABC

%BLOCK POSITIONS_FRAC
  Li   0.1678983   0.3032260   0.2585939 SPIN=   0.00000
  Li  -0.3032260  -0.1678983  -0.2585939 SPIN=   0.00000
  Fe   0.3431704   0.1654036  -0.3010117 SPIN=   4.00000
  Fe  -0.1654036  -0.3431704   0.3010117 SPIN=   4.00000
   O  -0.1211642   0.6401053  -0.0763006 SPIN=   0.00000
   O  -0.0237234   0.4636617  -0.4251753 SPIN=   0.00000
   O  -0.2559195   0.1961293  -0.1983566 SPIN=   0.00000
   O   0.1778670   0.4297760  -0.0565133 SPIN=   0.00000
   S  -0.0557350   0.4324181  -0.1890865 SPIN=   0.00000
   O  -0.6401053   0.1211642   0.0763006 SPIN=   0.00000
   O  -0.4636617   0.0237234   0.4251753 SPIN=   0.00000
   O  -0.1961293   0.2559195   0.1983566 SPIN=   0.00000
   O  -0.4297760  -0.1778670   0.0565133 SPIN=   0.00000
   S  -0.4324181   0.0557350   0.1890865 SPIN=   0.00000
   F   0.0556215  -0.0556215   0.5000000 SPIN=   0.00000
   F   0.4568100  -0.4568100  -0.5000000 SPIN=   0.00000
%ENDBLOCK POSITIONS_FRAC

# Note: total spin =   8.00

KPOINTS_MP_SPACING 0.07

%BLOCK SPECIES_POT
QC5
%ENDBLOCK SPECIES_POT

SNAP_TO_SYMMETRY
SYMMETRY_GENERATE

