#              Generated by Buildcell
#
# at 21:17:58 (GMT+1.0) 18th August 2020
# in /scratch/scratch/uccabz1/launch_tmp
# on node-k10e-023
# by uccabz1
#
# compiler GCC version 4.9.2
# options -cpp -iprefix /scratch/UCL/applications/gcc/4.9.2/bin/../lib/gcc/x86_64-unknown-linux-gnu/4.9.2/ -mtune=corei7 -march=x86-64 -g -O2
#
# seed -1444412583   440813445  1844697328  1641009512 -1202711212  1949422225   -21601558  2098168347 -1151117539  -331776922  1534760646  1224748885
#
#      Author: C. J. Pickard (cjp20@cam.ac.uk)
#                Space group: P-1
#

%BLOCK LATTICE_ABC
      4.30944      5.21219      9.42627
    103.28311    103.04310     91.71582
%ENDBLOCK LATTICE_ABC

%BLOCK POSITIONS_FRAC
  Li  -0.3824386   0.1126898   0.2265904 SPIN=   0.00000
  Li   0.3824386  -0.1126898  -0.2265904 SPIN=   0.00000
  Fe   0.0000000   0.5000000   0.5000000 SPIN=   4.75639
  Fe  -0.0000000  -0.0000000  -0.0000000 SPIN=   3.24361
   O   0.0273431   0.6813848   0.1066252 SPIN=   0.00000
   O   0.1318910   0.3562793   0.2625216 SPIN=   0.00000
   O   0.4279729   0.7998217   0.3500767 SPIN=   0.00000
   S   0.2817063   0.5778295   0.2136320 SPIN=   0.00000
   O  -0.0273431  -0.6813848  -0.1066252 SPIN=   0.00000
   O  -0.1318910  -0.3562793  -0.2625216 SPIN=   0.00000
   O  -0.4279729  -0.7998217  -0.3500767 SPIN=   0.00000
   S  -0.2817063  -0.5778295  -0.2136320 SPIN=   0.00000
   O  -0.5000000  -0.5000000  -0.5000000 SPIN=   0.00000
   O  -0.5000000   0.5000000   0.0000000 SPIN=   0.00000
   F  -0.5000000  -0.0000000  -0.0000000 SPIN=   0.00000
   F   0.0000000   0.0000000  -0.5000000 SPIN=   0.00000
%ENDBLOCK POSITIONS_FRAC

# Note: total spin =   8.00

KPOINTS_MP_SPACING 0.07

%BLOCK SPECIES_POT
QC5
%ENDBLOCK SPECIES_POT

SNAP_TO_SYMMETRY
SYMMETRY_GENERATE

