#              Generated by Buildcell
#
# at 20:18:13 (GMT+1.0) 18th August 2020
# in /scratch/scratch/uccabz1/launch_tmp
# on node-k10g-006
# by uccabz1
#
# compiler GCC version 4.9.2
# options -cpp -iprefix /scratch/UCL/applications/gcc/4.9.2/bin/../lib/gcc/x86_64-unknown-linux-gnu/4.9.2/ -mtune=corei7 -march=x86-64 -g -O2
#
# seed -1270079283  2034436026 -1113739915  -863064404 -1291960578   133922104    68465643   620870685  -338939839  -811027267   193264890   718339453
#
#      Author: C. J. Pickard (cjp20@cam.ac.uk)
#                Space group: C2
#

%BLOCK LATTICE_ABC
      5.93637      5.93637      5.99645
     94.72255     94.72255    107.12438
%ENDBLOCK LATTICE_ABC

%BLOCK POSITIONS_FRAC
  Li  -0.6152785  -0.3847215   0.5000000 SPIN=   0.00000
  Li   0.0001921  -0.0001921   0.0000000 SPIN=   0.00000
  Fe   0.0693786  -0.0693786   0.5000000 SPIN=   1.37223
  Fe   0.6957981   0.3042019  -0.5000000 SPIN=   6.62777
   O  -0.6816645  -0.2639828  -0.1893196 SPIN=   0.00000
   O  -0.3287275   0.0366587  -0.2901732 SPIN=   0.00000
   O  -0.3578949  -0.0440876   0.1065238 SPIN=   0.00000
   O  -0.6178017   0.1623515  -0.0750916 SPIN=   0.00000
   S  -0.4965222  -0.0272651  -0.1120152 SPIN=   0.00000
   O   0.2639828   0.6816645   0.1893196 SPIN=   0.00000
   O  -0.0366587   0.3287275   0.2901732 SPIN=   0.00000
   O   0.0440876   0.3578949  -0.1065238 SPIN=   0.00000
   O  -0.1623515   0.6178017   0.0750916 SPIN=   0.00000
   S   0.0272651   0.4965222   0.1120152 SPIN=   0.00000
   F   0.3462933   0.1507941   0.3929571 SPIN=   0.00000
   F  -0.1507941  -0.3462933  -0.3929571 SPIN=   0.00000
%ENDBLOCK POSITIONS_FRAC

# Note: total spin =   8.00

KPOINTS_MP_SPACING 0.07

%BLOCK SPECIES_POT
QC5
%ENDBLOCK SPECIES_POT

SNAP_TO_SYMMETRY
SYMMETRY_GENERATE

