#              Generated by Buildcell
#
# at 23:14:43 (GMT+1.0) 18th August 2020
# in /lustre/scratch/uccabz1/launch_tmp
# on node-c12b-022
# by uccabz1
#
# compiler GCC version 4.9.2
# options -cpp -iprefix /lustre/shared/ucl/apps/gcc/4.9.2/bin/../lib/gcc/x86_64-unknown-linux-gnu/4.9.2/ -mtune=corei7 -march=x86-64 -g -Og
#
# seed  1045358244   527324463   -63928713  1283679867  -278059380  -731848403 -1894017802  -650967801 -1867036338  2002112272  1474600344  1121374455
#
#      Author: C. J. Pickard (cjp20@cam.ac.uk)
#                Space group: C2
#

%BLOCK LATTICE_ABC
      4.51533      6.69929      7.02251
     90.21513     90.00000    109.69425
%ENDBLOCK LATTICE_ABC

%BLOCK POSITIONS_FRAC
  Li   0.3824551  -0.3202965  -0.3541826 SPIN=   0.00000
  Li  -0.2972484   0.3202965   0.3541826 SPIN=   0.00000
  Fe   0.4128351  -0.1467889   0.2414908 SPIN=   4.00000
  Fe  -0.4403761   0.1467889  -0.2414908 SPIN=   4.00000
   O   0.1643777   0.0942576   0.2500192 SPIN=   0.00000
   O   0.1250913   0.4538695   0.2456216 SPIN=   0.00000
   O  -0.0621407   0.2134796  -0.0304214 SPIN=   0.00000
   O   0.5080584   0.3686044   0.0368703 SPIN=   0.00000
   S   0.1838467   0.2825528   0.1255224 SPIN=   0.00000
   O   0.0701200  -0.0942576  -0.2500192 SPIN=   0.00000
   O  -0.3287782  -0.4538695  -0.2456216 SPIN=   0.00000
   O  -0.2756203  -0.2134796   0.0304214 SPIN=   0.00000
   O   0.1394539  -0.3686044  -0.0368703 SPIN=   0.00000
   S  -0.0987061  -0.2825528  -0.1255224 SPIN=   0.00000
   F  -0.0611159   0.2868810  -0.4039051 SPIN=   0.00000
   F  -0.3479969  -0.2868810   0.4039051 SPIN=   0.00000
%ENDBLOCK POSITIONS_FRAC

# Note: total spin =   8.00

KPOINTS_MP_SPACING 0.07

%BLOCK SPECIES_POT
QC5
%ENDBLOCK SPECIES_POT

SNAP_TO_SYMMETRY
SYMMETRY_GENERATE

