#              Generated by Buildcell
#
# at 04:15:58 (GMT+1.0) 4th August 2020
# in /lustre/scratch/uccabz1/launch_tmp
# on node-c12k-004
# by uccabz1
#
# compiler GCC version 4.9.2
# options -cpp -iprefix /lustre/shared/ucl/apps/gcc/4.9.2/bin/../lib/gcc/x86_64-unknown-linux-gnu/4.9.2/ -mtune=corei7 -march=x86-64 -g -Og
#
# seed  1639956878  1299547679  -847350090  -578001512 -2112311734  1780489467 -1822363812   118787547  -141378794 -1466518851  2094247563 -1925522127
#
#      Author: C. J. Pickard (cjp20@cam.ac.uk)
#                Space group: Pmm2
#

%BLOCK LATTICE_ABC
      4.43897      4.54698      9.90888
     90.00000     90.00000     90.00000
%ENDBLOCK LATTICE_ABC

%BLOCK POSITIONS_FRAC
  Li   0.0000000   0.4536581  -0.0000000 SPIN=   0.00000
  Li  -0.0000000   0.0227085  -0.5000000 SPIN=   0.00000
  Fe  -0.5000000   0.4855656   0.3130771 SPIN=   4.00000
  Fe   0.5000000   0.4855656  -0.3130771 SPIN=   4.00000
   O   0.2511941  -0.0871488   0.3545587 SPIN=   0.00000
   O   0.2494790   0.0405813   0.1117715 SPIN=   0.00000
   O  -0.2511941  -0.0871488  -0.3545587 SPIN=   0.00000
   O  -0.2494790   0.0405813  -0.1117715 SPIN=   0.00000
   O  -0.2511941  -0.0871488   0.3545587 SPIN=   0.00000
   O  -0.2494790   0.0405813   0.1117715 SPIN=   0.00000
   O   0.2511941  -0.0871488  -0.3545587 SPIN=   0.00000
   O   0.2494790   0.0405813  -0.1117715 SPIN=   0.00000
   S   0.0000000  -0.0207305  -0.2087133 SPIN=   0.00000
   S   0.0000000  -0.0207305   0.2087133 SPIN=   0.00000
   F   0.0000000   0.4591803  -0.5000000 SPIN=   0.00000
   F  -0.5000000  -0.4614036  -0.0000000 SPIN=   0.00000
%ENDBLOCK POSITIONS_FRAC

# Note: total spin =   8.00

KPOINTS_MP_SPACING 0.07

%BLOCK SPECIES_POT
QC5
%ENDBLOCK SPECIES_POT

SNAP_TO_SYMMETRY
SYMMETRY_GENERATE

