#              Generated by Buildcell
#
# at 03:08:11 (GMT+1.0) 4th August 2020
# in /lustre/scratch/uccabz1/launch_tmp
# on node-c12c-009
# by uccabz1
#
# compiler GCC version 4.9.2
# options -cpp -iprefix /lustre/shared/ucl/apps/gcc/4.9.2/bin/../lib/gcc/x86_64-unknown-linux-gnu/4.9.2/ -mtune=corei7 -march=x86-64 -g -Og
#
# seed  -633423545  1136008745 -1833355514 -1225720931 -1741133812  1199302142  2060922038   225522854  -363775913 -1577895242  1876675439  1693174689
#
#      Author: C. J. Pickard (cjp20@cam.ac.uk)
#                Space group: P21
#

%BLOCK LATTICE_ABC
      3.95884      6.80746      7.42363
     90.00000     91.45475     90.00000
%ENDBLOCK LATTICE_ABC

%BLOCK POSITIONS_FRAC
  Li  -0.1186194   0.0512729  -0.0049462 SPIN=   0.00000
  Li   0.1186194  -0.4487271   0.0049462 SPIN=   0.00000
  Fe   0.0090609  -0.1472343  -0.3578698 SPIN=   4.00000
  Fe  -0.0090609   0.3527657   0.3578698 SPIN=   4.00000
   O   0.2464700  -0.1750272   0.1624645 SPIN=   0.00000
   O   0.2949927  -0.3407513   0.4587176 SPIN=   0.00000
   O   0.7343323  -0.1047619   0.3674297 SPIN=   0.00000
   O   0.6862160  -0.4281194   0.2165799 SPIN=   0.00000
   S   0.4905027  -0.2621649   0.3012979 SPIN=   0.00000
   O  -0.2464700   0.3249728  -0.1624645 SPIN=   0.00000
   O  -0.2949927   0.1592487  -0.4587176 SPIN=   0.00000
   O  -0.7343323   0.3952381  -0.3674297 SPIN=   0.00000
   O  -0.6862160   0.0718806  -0.2165799 SPIN=   0.00000
   S  -0.4905027   0.2378351  -0.3012979 SPIN=   0.00000
   F  -0.2828504  -0.2633947  -0.1677199 SPIN=   0.00000
   F   0.2828504   0.2366053   0.1677199 SPIN=   0.00000
%ENDBLOCK POSITIONS_FRAC

# Note: total spin =   8.00

KPOINTS_MP_SPACING 0.07

%BLOCK SPECIES_POT
QC5
%ENDBLOCK SPECIES_POT

SNAP_TO_SYMMETRY
SYMMETRY_GENERATE

