#              Generated by Buildcell
#
# at 01:36:17 (GMT+1.0) 19th August 2020
# in /lustre/scratch/uccabz1/launch_tmp
# on node-c12p-030
# by uccabz1
#
# compiler GCC version 4.9.2
# options -cpp -iprefix /lustre/shared/ucl/apps/gcc/4.9.2/bin/../lib/gcc/x86_64-unknown-linux-gnu/4.9.2/ -mtune=corei7 -march=x86-64 -g -Og
#
# seed -1525906460   -92377379   768533933   705056184  1463098391  -796300070   -54090833   120599793   494124136  -728670174  -810259046 -1218466491
#
#      Author: C. J. Pickard (cjp20@cam.ac.uk)
#                Space group: Pnc2
#

%BLOCK LATTICE_ABC
      5.22128      6.09581      6.28380
     90.00000     90.00000     90.00000
%ENDBLOCK LATTICE_ABC

%BLOCK POSITIONS_FRAC
  Li  -0.5000000   0.0000000   0.2536845 SPIN=   0.00000
  Li  -0.0000000   0.0000000  -0.2463155 SPIN=   0.00000
  Fe   0.5000000  -0.5000000   0.1331134 SPIN=   4.00000
  Fe  -0.0000000   0.5000000  -0.3668866 SPIN=   4.00000
   O   0.1928238  -0.0818092   0.0883336 SPIN=   0.00000
   O  -0.0218399  -0.2310906   0.4082270 SPIN=   0.00000
   O  -0.1928238   0.0818092   0.0883336 SPIN=   0.00000
   O   0.0218399   0.2310906   0.4082270 SPIN=   0.00000
   O   0.3071762  -0.0818092  -0.4116664 SPIN=   0.00000
   O   0.5218399  -0.2310906  -0.0917730 SPIN=   0.00000
   O  -0.3071762   0.0818092  -0.4116664 SPIN=   0.00000
   O  -0.5218399   0.2310906  -0.0917730 SPIN=   0.00000
   S  -0.0000000   0.0000000   0.3310849 SPIN=   0.00000
   S  -0.5000000   0.0000000  -0.1689151 SPIN=   0.00000
   F  -0.0000000   0.5000000   0.0172332 SPIN=   0.00000
   F   0.5000000  -0.5000000  -0.4827668 SPIN=   0.00000
%ENDBLOCK POSITIONS_FRAC

# Note: total spin =   8.00

KPOINTS_MP_SPACING 0.07

%BLOCK SPECIES_POT
QC5
%ENDBLOCK SPECIES_POT

SNAP_TO_SYMMETRY
SYMMETRY_GENERATE

