#              Generated by Buildcell
#
# at 05:44:10 (GMT+1.0) 4th August 2020
# in /lustre/scratch/uccabz1/launch_tmp
# on node-c12d-008
# by uccabz1
#
# compiler GCC version 4.9.2
# options -cpp -iprefix /lustre/shared/ucl/apps/gcc/4.9.2/bin/../lib/gcc/x86_64-unknown-linux-gnu/4.9.2/ -mtune=corei7 -march=x86-64 -g -Og
#
# seed    79704987    48943824  1867661385   507900324  -622965181  -541091400  1356713002  1739552856  -512596484  -544901376 -1361919438  -791857099
#
#      Author: C. J. Pickard (cjp20@cam.ac.uk)
#                Space group: P2
#

%BLOCK LATTICE_ABC
      3.99499      6.48998      8.29578
    111.58824     90.00000     90.00000
%ENDBLOCK LATTICE_ABC

%BLOCK POSITIONS_FRAC
  Li  -0.0875408   0.5000000   0.5000000 SPIN=   0.00000
  Li  -0.0419051   0.5000000  -0.0000000 SPIN=   0.00000
  Fe   0.4581370  -0.2847956  -0.1777018 SPIN=   4.00000
  Fe   0.4581370   0.2847956   0.1777018 SPIN=   4.00000
   O   0.2159618  -0.2722700   0.1697368 SPIN=   0.00000
   O   0.6728341  -0.2728533   0.3710468 SPIN=   0.00000
   O   0.5465591   0.0683451   0.3153175 SPIN=   0.00000
   S   0.5603879  -0.1824047   0.2354845 SPIN=   0.00000
   O   0.2159618   0.2722700  -0.1697368 SPIN=   0.00000
   O   0.6728341   0.2728533  -0.3710468 SPIN=   0.00000
   O   0.5465591  -0.0683451  -0.3153175 SPIN=   0.00000
   S   0.5603879   0.1824047  -0.2354845 SPIN=   0.00000
   O   0.1336797   1.0000000   0.5000000 SPIN=   0.00000
   O   0.3899574   0.5000000   0.5000000 SPIN=   0.00000
   F  -0.0068577   0.3025683   0.1730638 SPIN=   0.00000
   F  -0.0068577  -0.3025683  -0.1730638 SPIN=   0.00000
%ENDBLOCK POSITIONS_FRAC

# Note: total spin =   8.00

KPOINTS_MP_SPACING 0.07

%BLOCK SPECIES_POT
QC5
%ENDBLOCK SPECIES_POT

SNAP_TO_SYMMETRY
SYMMETRY_GENERATE

