#              Generated by Buildcell
#
# at 17:38:28 (GMT+1.0) 18th August 2020
# in /lustre/scratch/uccabz1/launch_tmp
# on node-c12c-029
# by uccabz1
#
# compiler GCC version 4.9.2
# options -cpp -iprefix /lustre/shared/ucl/apps/gcc/4.9.2/bin/../lib/gcc/x86_64-unknown-linux-gnu/4.9.2/ -mtune=corei7 -march=x86-64 -g -Og
#
# seed   -69721082   557571978 -1649068993 -1986179111 -1201956953   -42410710  1111031226 -1756993842  -623967324   271948083  1754991262   351596687
#
#      Author: C. J. Pickard (cjp20@cam.ac.uk)
#                Space group: P-1
#

%BLOCK LATTICE_ABC
      4.58291      6.32100      7.16940
     97.69381    102.89605     92.65885
%ENDBLOCK LATTICE_ABC

%BLOCK POSITIONS_FRAC
  Li  -0.3335474   0.4567298   0.2686356 SPIN=   0.00000
  Li   0.3335474  -0.4567298  -0.2686356 SPIN=   0.00000
  Fe  -0.1729486   0.2487266  -0.2111193 SPIN=   4.00000
  Fe   0.1729486  -0.2487266   0.2111193 SPIN=   4.00000
   O  -0.2721198  -0.5023984  -0.3602365 SPIN=   0.00000
   O  -0.4384844  -0.1698320  -0.4833815 SPIN=   0.00000
   O   0.0936071  -0.2503464  -0.4415749 SPIN=   0.00000
   O  -0.1144987  -0.1511811  -0.1544913 SPIN=   0.00000
   S  -0.1828740  -0.2684395  -0.3599210 SPIN=   0.00000
   O   0.2721198   0.5023984   0.3602365 SPIN=   0.00000
   O   0.4384844   0.1698320   0.4833815 SPIN=   0.00000
   O  -0.0936071   0.2503464   0.4415749 SPIN=   0.00000
   O   0.1144987   0.1511811   0.1544913 SPIN=   0.00000
   S   0.1828740   0.2684395   0.3599210 SPIN=   0.00000
   F  -0.2780370  -0.2264678   0.1525141 SPIN=   0.00000
   F   0.2780370   0.2264678  -0.1525141 SPIN=   0.00000
%ENDBLOCK POSITIONS_FRAC

# Note: total spin =   8.00

KPOINTS_MP_SPACING 0.07

%BLOCK SPECIES_POT
QC5
%ENDBLOCK SPECIES_POT

SNAP_TO_SYMMETRY
SYMMETRY_GENERATE

