#              Generated by Buildcell
#
# at 02:44:32 (GMT+1.0) 19th August 2020
# in /lustre/scratch/uccabz1/launch_tmp
# on node-c12f-006
# by uccabz1
#
# compiler GCC version 4.9.2
# options -cpp -iprefix /lustre/shared/ucl/apps/gcc/4.9.2/bin/../lib/gcc/x86_64-unknown-linux-gnu/4.9.2/ -mtune=corei7 -march=x86-64 -g -Og
#
# seed   809226995  -702408386 -1822749472  2081608731  1710109702 -1439216752    47863547 -1218562882   353224632   529077325    73378441  -618011313
#
#      Author: C. J. Pickard (cjp20@cam.ac.uk)
#                Space group: P21
#

%BLOCK LATTICE_ABC
      3.99934      5.91879      8.64232
     90.00000    102.13938     90.00000
%ENDBLOCK LATTICE_ABC

%BLOCK POSITIONS_FRAC
  Li  -0.2143867   0.0391593  -0.4260718 SPIN=   0.00000
  Li   0.2143867  -0.4608407   0.4260718 SPIN=   0.00000
  Fe   0.4164773   0.3100460  -0.1399028 SPIN=   4.00000
  Fe  -0.4164773  -0.1899540   0.1399028 SPIN=   4.00000
   O   0.2073100   0.1218889   0.0398345 SPIN=   0.00000
   O   0.3341762   0.1340721   0.3326123 SPIN=   0.00000
   O  -0.2366403   0.2486544   0.1813702 SPIN=   0.00000
   O   0.2675705   0.4899451   0.1788327 SPIN=   0.00000
   S   0.1431041   0.2486401   0.1831624 SPIN=   0.00000
   O  -0.2073100  -0.3781111  -0.0398345 SPIN=   0.00000
   O  -0.3341762  -0.3659279  -0.3326123 SPIN=   0.00000
   O   0.2366403  -0.2513456  -0.1813702 SPIN=   0.00000
   O  -0.2675705  -0.0100549  -0.1788327 SPIN=   0.00000
   S  -0.1431041  -0.2513599  -0.1831624 SPIN=   0.00000
   F  -0.1914614  -0.2504623   0.3490194 SPIN=   0.00000
   F   0.1914614   0.2495377  -0.3490194 SPIN=   0.00000
%ENDBLOCK POSITIONS_FRAC

# Note: total spin =   8.00

KPOINTS_MP_SPACING 0.07

%BLOCK SPECIES_POT
QC5
%ENDBLOCK SPECIES_POT

SNAP_TO_SYMMETRY
SYMMETRY_GENERATE

