#              Generated by Buildcell
#
# at 00:33:20 (GMT+1.0) 19th August 2020
# in /lustre/scratch/uccabz1/launch_tmp
# on node-c12d-020
# by uccabz1
#
# compiler GCC version 4.9.2
# options -cpp -iprefix /lustre/shared/ucl/apps/gcc/4.9.2/bin/../lib/gcc/x86_64-unknown-linux-gnu/4.9.2/ -mtune=corei7 -march=x86-64 -g -Og
#
# seed  1972427614  -586948436  1384046123  -688009766  -821934252  -103461570  -386999816 -1104874577 -1630903420  -162375080  -958564944  1272699733
#
#      Author: C. J. Pickard (cjp20@cam.ac.uk)
#                Space group: Cm
#

%BLOCK LATTICE_ABC
      5.81147      5.81147      7.15271
    111.88919    113.32612     93.08380
%ENDBLOCK LATTICE_ABC

%BLOCK POSITIONS_FRAC
  Li  -0.0897707  -0.7897342  -0.3664060 SPIN=   0.00000
  Li   0.4233282  -0.2766353  -0.3664060 SPIN=   0.00000
  Fe   0.1026846   0.1833425   0.2860271 SPIN=   4.60878
  Fe  -0.4962900   0.7144575   0.2181675 SPIN=   3.39122
   O  -0.3890941  -0.6083083  -0.3152113 SPIN=   0.00000
   O  -0.1309790  -0.4921813   0.0909979 SPIN=   0.00000
   O  -0.3004767  -0.1654703  -0.0328928 SPIN=   0.00000
   S  -0.1921215  -0.3994299  -0.0914078 SPIN=   0.00000
   O   0.2930970   0.0738827  -0.3152113 SPIN=   0.00000
   O   0.5831792   0.2219769   0.0909979 SPIN=   0.00000
   O   0.1325775   0.2675839  -0.0328928 SPIN=   0.00000
   S   0.3080220   0.1007137  -0.0914078 SPIN=   0.00000
   O   0.2010749  -0.1167286   0.0843463 SPIN=   0.00000
   O   0.2957044  -0.4456847  -0.1499802 SPIN=   0.00000
   F  -0.0012332   0.4473614   0.4461282 SPIN=   0.00000
   F  -0.3922116  -0.0891589  -0.4813704 SPIN=   0.00000
%ENDBLOCK POSITIONS_FRAC

# Note: total spin =   8.00

KPOINTS_MP_SPACING 0.07

%BLOCK SPECIES_POT
QC5
%ENDBLOCK SPECIES_POT

SNAP_TO_SYMMETRY
SYMMETRY_GENERATE

