#              Generated by Buildcell
#
# at 03:29:57 (GMT+1.0) 4th August 2020
# in /lustre/scratch/uccabz1/launch_tmp
# on node-c12g-003
# by uccabz1
#
# compiler GCC version 4.9.2
# options -cpp -iprefix /lustre/shared/ucl/apps/gcc/4.9.2/bin/../lib/gcc/x86_64-unknown-linux-gnu/4.9.2/ -mtune=corei7 -march=x86-64 -g -Og
#
# seed   171062773  -985875701   244320368   620855210   547570791   270920052 -1603269910 -1880414582  -831042297   737600807  -294791027   646339348
#
#      Author: C. J. Pickard (cjp20@cam.ac.uk)
#                Space group: P-1
#

%BLOCK LATTICE_ABC
      5.35662      5.93691      6.48714
     79.55486     82.97260     82.21733
%ENDBLOCK LATTICE_ABC

%BLOCK POSITIONS_FRAC
  Li   0.1066272   0.2782103   0.2672913 SPIN=   0.00000
  Li  -0.1066272  -0.2782103  -0.2672913 SPIN=   0.00000
  Fe  -0.5000000   0.0000000   0.0000000 SPIN=   3.26748
  Fe   0.5000000  -0.5000000   0.5000000 SPIN=   4.73252
   O   0.1840201  -0.3689250   0.0775470 SPIN=   0.00000
   O   0.0953996  -0.3323520   0.4542529 SPIN=   0.00000
   O  -0.2581851  -0.3344469   0.2424339 SPIN=   0.00000
   O  -0.0147843   0.0015958   0.1789917 SPIN=   0.00000
   S   0.0016126  -0.2585320   0.2383063 SPIN=   0.00000
   O  -0.1840201   0.3689250  -0.0775470 SPIN=   0.00000
   O  -0.0953996   0.3323520  -0.4542529 SPIN=   0.00000
   O   0.2581851   0.3344469  -0.2424339 SPIN=   0.00000
   O   0.0147843  -0.0015958  -0.1789917 SPIN=   0.00000
   S  -0.0016126   0.2585320  -0.2383063 SPIN=   0.00000
   F  -0.4472613   0.2804838   0.2932324 SPIN=   0.00000
   F   0.4472613  -0.2804838  -0.2932324 SPIN=   0.00000
%ENDBLOCK POSITIONS_FRAC

# Note: total spin =   8.00

KPOINTS_MP_SPACING 0.07

%BLOCK SPECIES_POT
QC5
%ENDBLOCK SPECIES_POT

SNAP_TO_SYMMETRY
SYMMETRY_GENERATE

