#              Generated by Buildcell
#
# at 01:50:12 (GMT+1.0) 19th August 2020
# in /lustre/scratch/uccabz1/launch_tmp
# on node-c12j-002
# by uccabz1
#
# compiler GCC version 4.9.2
# options -cpp -iprefix /lustre/shared/ucl/apps/gcc/4.9.2/bin/../lib/gcc/x86_64-unknown-linux-gnu/4.9.2/ -mtune=corei7 -march=x86-64 -g -Og
#
# seed  1830956928    42915295    35126492  2096238032 -1410734202 -1573209538   705022223 -1473589338 -1250219368 -2039223223  1572562937  1406450938
#
#      Author: C. J. Pickard (cjp20@cam.ac.uk)
#                Space group: Pc
#

%BLOCK LATTICE_ABC
      4.31789      6.98058      7.02751
    109.23031     90.00000     90.00000
%ENDBLOCK LATTICE_ABC

%BLOCK POSITIONS_FRAC
  Li  -0.3937125   0.0655657  -0.0300712 SPIN=   0.00000
  Li   0.3937125  -0.4344343   0.4699288 SPIN=   0.00000
  Fe  -0.1062626   0.2571147   0.3710542 SPIN=   4.00000
  Fe   0.1062626  -0.2428853  -0.1289458 SPIN=   4.00000
   O  -0.1015426   0.3333642  -0.0153448 SPIN=   0.00000
   O  -0.1081635   0.1668293  -0.3854408 SPIN=   0.00000
   O   0.2049220   0.0213409  -0.1715092 SPIN=   0.00000
   O   0.3640365   0.3441096  -0.2169849 SPIN=   0.00000
   S   0.0898131   0.2164110  -0.1973199 SPIN=   0.00000
   O   0.1015426  -0.1666358   0.4846552 SPIN=   0.00000
   O   0.1081635  -0.3331707   0.1145592 SPIN=   0.00000
   O  -0.2049220  -0.4786591   0.3284908 SPIN=   0.00000
   O  -0.3640365  -0.1558904   0.2830151 SPIN=   0.00000
   S  -0.0898131  -0.2835890   0.3026801 SPIN=   0.00000
   F  -0.3048931  -0.2880349  -0.2016469 SPIN=   0.00000
   F   0.3048931   0.2119651   0.2983531 SPIN=   0.00000
%ENDBLOCK POSITIONS_FRAC

# Note: total spin =   8.00

KPOINTS_MP_SPACING 0.07

%BLOCK SPECIES_POT
QC5
%ENDBLOCK SPECIES_POT

SNAP_TO_SYMMETRY
SYMMETRY_GENERATE

