#              Generated by Buildcell
#
# at 01:45:11 (GMT+1.0) 4th August 2020
# in /lustre/scratch/uccabz1/launch_tmp
# on node-c12l-024
# by uccabz1
#
# compiler GCC version 4.9.2
# options -cpp -iprefix /lustre/shared/ucl/apps/gcc/4.9.2/bin/../lib/gcc/x86_64-unknown-linux-gnu/4.9.2/ -mtune=corei7 -march=x86-64 -g -Og
#
# seed  2008284611   961620036  -279116233  1503628852   529395711   326322738 -1187314715  -925850079  -263382666  1229662176 -1472187394  1917423467
#
#      Author: C. J. Pickard (cjp20@cam.ac.uk)
#                Space group: Cc
#

%BLOCK LATTICE_ABC
      3.98853      7.03944      7.94625
    116.29168     90.83862     90.00000
%ENDBLOCK LATTICE_ABC

%BLOCK POSITIONS_FRAC
  Li   0.3032032  -0.4574066  -0.4708743 SPIN=   0.00000
  Li  -0.1967968  -0.0134677  -0.4708743 SPIN=   0.00000
  Fe  -0.1313290  -0.2992325  -0.1434725 SPIN=   4.00000
  Fe   0.3686710   0.1557600  -0.1434725 SPIN=   4.00000
   O  -0.4422969   0.3946731   0.1130291 SPIN=   0.00000
   O  -0.0794192   0.6027241   0.3895926 SPIN=   0.00000
   O   0.0903261   0.2433844   0.1607363 SPIN=   0.00000
   O  -0.3873794   0.2882085   0.3700838 SPIN=   0.00000
   S  -0.2046923   0.3822475   0.2583605 SPIN=   0.00000
   O   0.0577031  -0.2816440   0.1130291 SPIN=   0.00000
   O   0.4205808  -0.2131315   0.3895926 SPIN=   0.00000
   O   0.5903261  -0.0826481   0.1607363 SPIN=   0.00000
   O   0.1126206   0.0818753   0.3700838 SPIN=   0.00000
   S   0.2953077  -0.1238871   0.2583605 SPIN=   0.00000
   F   0.4072168  -0.4067083  -0.2244496 SPIN=   0.00000
   F  -0.0927832   0.1822588  -0.2244496 SPIN=   0.00000
%ENDBLOCK POSITIONS_FRAC

# Note: total spin =   8.00

KPOINTS_MP_SPACING 0.07

%BLOCK SPECIES_POT
QC5
%ENDBLOCK SPECIES_POT

SNAP_TO_SYMMETRY
SYMMETRY_GENERATE

