#              Generated by Buildcell
#
# at 02:43:15 (GMT+1.0) 4th August 2020
# in /lustre/scratch/uccabz1/launch_tmp
# on node-c12p-009
# by uccabz1
#
# compiler GCC version 4.9.2
# options -cpp -iprefix /lustre/shared/ucl/apps/gcc/4.9.2/bin/../lib/gcc/x86_64-unknown-linux-gnu/4.9.2/ -mtune=corei7 -march=x86-64 -g -Og
#
# seed   676083964 -1639201677  1950466479  1983051621   762236863  1796935082  -934116324  1871494519   644418042 -1343391786  -731254775   855740241
#
#      Author: C. J. Pickard (cjp20@cam.ac.uk)
#                Space group: C2/c
#

%BLOCK LATTICE_ABC
      5.40258      5.40258      7.78087
    105.09436    108.50349     99.66484
%ENDBLOCK LATTICE_ABC

%BLOCK POSITIONS_FRAC
  Li   0.0000000  -0.0000000  -0.0000000 SPIN=   0.00000
  Li   0.0000000   0.5000000   0.5000000 SPIN=   0.00000
  Fe   0.3696623   0.1196623  -0.2500000 SPIN=   4.00000
  Fe  -0.3696623  -0.1196623   0.2500000 SPIN=   4.00000
   O   0.2684515   0.4148889   0.1004272 SPIN=   0.00000
   O   0.3099498   0.1136261   0.2930370 SPIN=   0.00000
   O   0.3144617   0.6680243   0.3995728 SPIN=   0.00000
   O  -0.1794109   0.5169128   0.2069630 SPIN=   0.00000
   O  -0.2684515  -0.4148889  -0.1004272 SPIN=   0.00000
   O  -0.3099498  -0.1136261  -0.2930370 SPIN=   0.00000
   O  -0.3144617  -0.6680243  -0.3995728 SPIN=   0.00000
   O   0.1794109  -0.5169128  -0.2069630 SPIN=   0.00000
   S  -0.0000000  -0.5000000   0.0000000 SPIN=   0.00000
   S   0.5000000  -0.5000000  -0.5000000 SPIN=   0.00000
   F   0.5000000   0.0000000   0.0000000 SPIN=   0.00000
   F  -0.0000000   0.0000000   0.5000000 SPIN=   0.00000
%ENDBLOCK POSITIONS_FRAC

# Note: total spin =   8.00

KPOINTS_MP_SPACING 0.07

%BLOCK SPECIES_POT
QC5
%ENDBLOCK SPECIES_POT

SNAP_TO_SYMMETRY
SYMMETRY_GENERATE

