#              Generated by Buildcell
#
# at 03:40:25 (GMT+1.0) 4th August 2020
# in /lustre/scratch/uccabz1/launch_tmp
# on node-c12g-028
# by uccabz1
#
# compiler GCC version 4.9.2
# options -cpp -iprefix /lustre/shared/ucl/apps/gcc/4.9.2/bin/../lib/gcc/x86_64-unknown-linux-gnu/4.9.2/ -mtune=corei7 -march=x86-64 -g -Og
#
# seed   251661545 -1617517165 -2069840560  -981595125 -1649440080    96689802  2004552918   412502764  1042304155  -782010638 -1489611177   573555512
#
#      Author: C. J. Pickard (cjp20@cam.ac.uk)
#                Space group: Pc
#

%BLOCK LATTICE_ABC
      3.96546      7.22313      7.65713
    114.23128     90.00000     90.00000
%ENDBLOCK LATTICE_ABC

%BLOCK POSITIONS_FRAC
  Li   0.2247235  -0.4493177  -0.1047658 SPIN=   0.00000
  Li  -0.2247235   0.0506823  -0.1047658 SPIN=   0.00000
  Fe  -0.2752770   0.4850924   0.1476484 SPIN=   4.00000
  Fe   0.2752770  -0.0149076   0.1476484 SPIN=   4.00000
   O  -0.3480298  -0.3714421  -0.2076721 SPIN=   0.00000
   O  -0.3404473  -0.1580728  -0.3910765 SPIN=   0.00000
   O  -0.3122470  -0.5322511  -0.5614564 SPIN=   0.00000
   O   0.1750764  -0.3410878  -0.3702602 SPIN=   0.00000
   S  -0.2064119  -0.3507134  -0.3826163 SPIN=   0.00000
   O   0.3480298   0.1285579  -0.2076721 SPIN=   0.00000
   O   0.3404473   0.3419272  -0.3910765 SPIN=   0.00000
   O   0.3122470  -0.0322511  -0.5614564 SPIN=   0.00000
   O  -0.1750764   0.1589122  -0.3702602 SPIN=   0.00000
   S   0.2064119   0.1492866  -0.3826163 SPIN=   0.00000
   F  -0.2734414  -0.0149424   0.1843523 SPIN=   0.00000
   F   0.2734414   0.4850576   0.1843523 SPIN=   0.00000
%ENDBLOCK POSITIONS_FRAC

# Note: total spin =   8.00

KPOINTS_MP_SPACING 0.07

%BLOCK SPECIES_POT
QC5
%ENDBLOCK SPECIES_POT

SNAP_TO_SYMMETRY
SYMMETRY_GENERATE

