#              Generated by Buildcell
#
# at 19:55:19 (GMT+1.0) 18th August 2020
# in /lustre/scratch/uccabz1/launch_tmp
# on node-c12k-010
# by uccabz1
#
# compiler GCC version 4.9.2
# options -cpp -iprefix /lustre/shared/ucl/apps/gcc/4.9.2/bin/../lib/gcc/x86_64-unknown-linux-gnu/4.9.2/ -mtune=corei7 -march=x86-64 -g -Og
#
# seed   930676541   830516265   -53571136   133968082 -1774577895 -1890494580   474928335  1044373035  1402309631  1691149321 -1792570506   478591280
#
#      Author: C. J. Pickard (cjp20@cam.ac.uk)
#                Space group: Pc
#

%BLOCK LATTICE_ABC
      4.04723      6.73541      7.40345
     97.69191     90.00000     90.00000
%ENDBLOCK LATTICE_ABC

%BLOCK POSITIONS_FRAC
  Li  -0.1568187   0.3850778  -0.1646949 SPIN=   0.00000
  Li   0.1568187  -0.1149222   0.3353051 SPIN=   0.00000
  Fe   0.2331919   0.0323975  -0.0211408 SPIN=   4.00000
  Fe  -0.2331919  -0.4676025   0.4788592 SPIN=   4.00000
   O   0.0322569  -0.3522503   0.0456606 SPIN=   0.00000
   O   0.5392209  -0.3693310   0.2298692 SPIN=   0.00000
   O   0.4094452  -0.6423789  -0.0181177 SPIN=   0.00000
   O   0.0733157  -0.5994803   0.2636693 SPIN=   0.00000
   S   0.2635597  -0.4908601   0.1302704 SPIN=   0.00000
   O  -0.0322569   0.1477497  -0.4543394 SPIN=   0.00000
   O  -0.5392209   0.1306690  -0.2701308 SPIN=   0.00000
   O  -0.4094452  -0.1423789  -0.5181177 SPIN=   0.00000
   O  -0.0733157  -0.0994803  -0.2363307 SPIN=   0.00000
   S  -0.2635597   0.0091399  -0.3697296 SPIN=   0.00000
   F  -0.2719487   0.0350965   0.1335915 SPIN=   0.00000
   F   0.2719487  -0.4649035  -0.3664085 SPIN=   0.00000
%ENDBLOCK POSITIONS_FRAC

# Note: total spin =   8.00

KPOINTS_MP_SPACING 0.07

%BLOCK SPECIES_POT
QC5
%ENDBLOCK SPECIES_POT

SNAP_TO_SYMMETRY
SYMMETRY_GENERATE

