#              Generated by Buildcell
#
# at 23:35:42 (GMT+1.0) 18th August 2020
# in /lustre/scratch/uccabz1/launch_tmp
# on node-c12b-001
# by uccabz1
#
# compiler GCC version 4.9.2
# options -cpp -iprefix /lustre/shared/ucl/apps/gcc/4.9.2/bin/../lib/gcc/x86_64-unknown-linux-gnu/4.9.2/ -mtune=corei7 -march=x86-64 -g -Og
#
# seed  1084736181   -56071673  -931988029  -695344298   -50640821  1824583863  -721269527  1054765614  1826981291 -1523236307 -1202739731  -514082502
#
#      Author: C. J. Pickard (cjp20@cam.ac.uk)
#                Space group: C2
#

%BLOCK LATTICE_ABC
      6.25137      6.36257      6.82314
     62.45512     62.73537     60.57647
%ENDBLOCK LATTICE_ABC

%BLOCK POSITIONS_FRAC
  Li   0.0497084   0.6594715  -0.2903079 SPIN=   0.00000
  Li   0.4188720  -0.6594715   0.2903079 SPIN=   0.00000
  Fe  -0.0634224  -0.5574683   0.2209460 SPIN=   4.00000
  Fe  -0.3999447   0.5574683  -0.2209460 SPIN=   4.00000
   O   0.6667804  -1.1410637   0.2724982 SPIN=   0.00000
   O   0.3758000  -1.3354273   0.3281779 SPIN=   0.00000
   O   0.2696391  -0.8712495   0.1544655 SPIN=   0.00000
   O   0.2411656  -1.0729628   0.5703706 SPIN=   0.00000
   S   0.3883462  -1.1051758   0.3313780 SPIN=   0.00000
   O  -0.2017852   1.1410637  -0.2724982 SPIN=   0.00000
   O  -0.6314494   1.3354273  -0.3281779 SPIN=   0.00000
   O  -0.4471449   0.8712495  -0.1544655 SPIN=   0.00000
   O  -0.2614267   1.0729628  -0.5703706 SPIN=   0.00000
   S  -0.3854515   1.1051758  -0.3313780 SPIN=   0.00000
   F  -0.1318971   0.3609341  -0.0445220 SPIN=   0.00000
   F   0.1845149  -0.3609341   0.0445220 SPIN=   0.00000
%ENDBLOCK POSITIONS_FRAC

# Note: total spin =   8.00

KPOINTS_MP_SPACING 0.07

%BLOCK SPECIES_POT
QC5
%ENDBLOCK SPECIES_POT

SNAP_TO_SYMMETRY
SYMMETRY_GENERATE

