#              Generated by Buildcell
#
# at 23:41:35 (GMT+1.0) 18th August 2020
# in /lustre/scratch/uccabz1/launch_tmp
# on node-c12c-009
# by uccabz1
#
# compiler GCC version 4.9.2
# options -cpp -iprefix /lustre/shared/ucl/apps/gcc/4.9.2/bin/../lib/gcc/x86_64-unknown-linux-gnu/4.9.2/ -mtune=corei7 -march=x86-64 -g -Og
#
# seed  -267906830 -1305213325  -312704583  -789865100  1658820357  2045638944 -2059475857  1808636639  -337671670 -1815688922  -258833570   554252405
#
#      Author: C. J. Pickard (cjp20@cam.ac.uk)
#                Space group: C2/m
#

%BLOCK LATTICE_ABC
      3.92717      7.21726      7.21726
    101.80250     91.75790     91.75790
%ENDBLOCK LATTICE_ABC

%BLOCK POSITIONS_FRAC
  Li  -0.0000000   0.3357119  -0.3357119 SPIN=   0.00000
  Li   0.0000000  -0.3357119   0.3357119 SPIN=   0.00000
  Fe   0.1803815  -0.2623730  -0.2623730 SPIN=   4.00000
  Fe  -0.1803815   0.2623730   0.2623730 SPIN=   4.00000
   O  -0.4632033   0.1591309  -0.4117128 SPIN=   0.00000
   O   0.0329209   0.0218707  -0.2766268 SPIN=   0.00000
   O   0.4632033   0.4117128  -0.1591309 SPIN=   0.00000
   O  -0.0329209   0.2766268  -0.0218707 SPIN=   0.00000
   O   0.4632033  -0.1591309   0.4117128 SPIN=   0.00000
   O  -0.0329209  -0.0218707   0.2766268 SPIN=   0.00000
   O  -0.4632033  -0.4117128   0.1591309 SPIN=   0.00000
   O   0.0329209  -0.2766268   0.0218707 SPIN=   0.00000
   S  -0.5000000  -0.1764606   0.1764606 SPIN=   0.00000
   S   0.5000000   0.1764606  -0.1764606 SPIN=   0.00000
   F  -0.2691564  -0.3156904  -0.3156904 SPIN=   0.00000
   F   0.2691564   0.3156904   0.3156904 SPIN=   0.00000
%ENDBLOCK POSITIONS_FRAC

# Note: total spin =   8.00

KPOINTS_MP_SPACING 0.07

%BLOCK SPECIES_POT
QC5
%ENDBLOCK SPECIES_POT

SNAP_TO_SYMMETRY
SYMMETRY_GENERATE

