#              Generated by Buildcell
#
# at 05:47:25 (GMT+1.0) 4th August 2020
# in /lustre/scratch/uccabz1/launch_tmp
# on node-c12g-026
# by uccabz1
#
# compiler GCC version 4.9.2
# options -cpp -iprefix /lustre/shared/ucl/apps/gcc/4.9.2/bin/../lib/gcc/x86_64-unknown-linux-gnu/4.9.2/ -mtune=corei7 -march=x86-64 -g -Og
#
# seed   598338400   808790865  1594533851 -1505190706  -797372638  -956473558 -1060435025  -464398468  1542860082   784100691 -1870522360  -566123894
#
#      Author: C. J. Pickard (cjp20@cam.ac.uk)
#                Space group: Pc
#

%BLOCK LATTICE_ABC
      3.97330      6.87884      7.49367
     90.00000    102.44794     90.00000
%ENDBLOCK LATTICE_ABC

%BLOCK POSITIONS_FRAC
  Li   0.3624817  -0.2212428   0.4279403 SPIN=   0.00000
  Li   0.8624817   0.2212428   0.4279403 SPIN=   0.00000
  Fe  -0.3507422   0.2584206  -0.2252341 SPIN=   4.00000
  Fe   0.1492578  -0.2584206  -0.2252341 SPIN=   4.00000
   O   0.4429453   0.1321818   0.0069015 SPIN=   0.00000
   O   0.2031008   0.1148082   0.2850998 SPIN=   0.00000
   O  -0.0175778   0.3598316   0.0467376 SPIN=   0.00000
   O   0.5697446   0.3931786   0.2390235 SPIN=   0.00000
   S   0.2995532   0.2500001   0.1444406 SPIN=   0.00000
   O  -0.0570547  -0.1321818   0.0069015 SPIN=   0.00000
   O  -0.2968992  -0.1148082   0.2850998 SPIN=   0.00000
   O  -0.5175778  -0.3598316   0.0467376 SPIN=   0.00000
   O   0.0697446  -0.3931786   0.2390235 SPIN=   0.00000
   S  -0.2004468  -0.2500001   0.1444406 SPIN=   0.00000
   F  -0.3659218  -0.2500020  -0.3325954 SPIN=   0.00000
   F   0.1340782   0.2500020  -0.3325954 SPIN=   0.00000
%ENDBLOCK POSITIONS_FRAC

# Note: total spin =   8.00

KPOINTS_MP_SPACING 0.07

%BLOCK SPECIES_POT
QC5
%ENDBLOCK SPECIES_POT

SNAP_TO_SYMMETRY
SYMMETRY_GENERATE

