#              Generated by Buildcell
#
# at 04:59:56 (GMT+1.0) 4th August 2020
# in /lustre/scratch/uccabz1/launch_tmp
# on node-c12m-025
# by uccabz1
#
# compiler GCC version 4.9.2
# options -cpp -iprefix /lustre/shared/ucl/apps/gcc/4.9.2/bin/../lib/gcc/x86_64-unknown-linux-gnu/4.9.2/ -mtune=corei7 -march=x86-64 -g -Og
#
# seed  -430227607   -88737548   495627496   849501286 -1796937331  -633609547   893388500  1949742898   809829791 -1975676810  -413962642  1898472878
#
#      Author: C. J. Pickard (cjp20@cam.ac.uk)
#                Space group: P21
#

%BLOCK LATTICE_ABC
      4.13518      6.12725      8.14865
     90.00000     90.00000    104.37555
%ENDBLOCK LATTICE_ABC

%BLOCK POSITIONS_FRAC
  Li   0.2193321   0.3720751   0.3428785 SPIN=   0.00000
  Li  -0.2193321  -0.3720751  -0.1571215 SPIN=   0.00000
  Fe   0.0658133   0.2303496  -0.2397520 SPIN=   4.00000
  Fe  -0.0658133  -0.2303496   0.2602480 SPIN=   4.00000
   O   0.7249701  -0.0905949  -0.3166462 SPIN=   0.00000
   O   0.5652991  -0.1238749  -0.6100032 SPIN=   0.00000
   O   0.3653146   0.1407646  -0.4302298 SPIN=   0.00000
   O   0.1421216  -0.2705356  -0.3961710 SPIN=   0.00000
   S   0.4494264  -0.0860602  -0.4382626 SPIN=   0.00000
   O  -0.7249701   0.0905949   0.1833538 SPIN=   0.00000
   O  -0.5652991   0.1238749  -0.1100032 SPIN=   0.00000
   O  -0.3653146  -0.1407646   0.0697702 SPIN=   0.00000
   O  -0.1421216   0.2705356   0.1038290 SPIN=   0.00000
   S  -0.4494264   0.0860602   0.0617374 SPIN=   0.00000
   F  -0.2136904   0.4703005   0.3999001 SPIN=   0.00000
   F   0.2136904  -0.4703005  -0.1000999 SPIN=   0.00000
%ENDBLOCK POSITIONS_FRAC

# Note: total spin =   8.00

KPOINTS_MP_SPACING 0.07

%BLOCK SPECIES_POT
QC5
%ENDBLOCK SPECIES_POT

SNAP_TO_SYMMETRY
SYMMETRY_GENERATE

