#              Generated by Buildcell
#
# at 22:34:17 (GMT+1.0) 18th August 2020
# in /lustre/scratch/uccabz1/launch_tmp
# on node-c12o-011
# by uccabz1
#
# compiler GCC version 4.9.2
# options -cpp -iprefix /lustre/shared/ucl/apps/gcc/4.9.2/bin/../lib/gcc/x86_64-unknown-linux-gnu/4.9.2/ -mtune=corei7 -march=x86-64 -g -Og
#
# seed -1772538458  -899616963  1233109114   498948547 -1335235829  -194408231 -1585358491  -223784483  -402811097 -1879610096  1641627176  1265403746
#
#      Author: C. J. Pickard (cjp20@cam.ac.uk)
#                Space group: Cc
#

%BLOCK LATTICE_ABC
      5.85551      5.85551      6.88932
     72.67854     72.67854     64.79769
%ENDBLOCK LATTICE_ABC

%BLOCK POSITIONS_FRAC
  Li   0.0151688  -0.1956857   0.0201497 SPIN=   0.00000
  Li  -0.1956857   0.0151688  -0.4798503 SPIN=   0.00000
  Fe  -0.3844691   0.3393187  -0.1751632 SPIN=   4.00000
  Fe   0.3393187  -0.3844691   0.3248368 SPIN=   4.00000
   O  -0.1819587   0.4522014  -0.0425187 SPIN=   0.00000
   O  -0.2352993   0.3792174   0.3384067 SPIN=   0.00000
   O   0.1657817   0.4218811   0.1094677 SPIN=   0.00000
   O   0.0739571   0.0332999   0.1491450 SPIN=   0.00000
   S  -0.0443798   0.3216500   0.1386252 SPIN=   0.00000
   O   0.4522014  -0.1819587  -0.5425187 SPIN=   0.00000
   O   0.3792174  -0.2352993  -0.1615933 SPIN=   0.00000
   O   0.4218811   0.1657817  -0.3905323 SPIN=   0.00000
   O   0.0332999   0.0739571  -0.3508550 SPIN=   0.00000
   S   0.3216500  -0.0443798  -0.3613748 SPIN=   0.00000
   F   0.0085840  -0.3583332   0.4872406 SPIN=   0.00000
   F  -0.3583332   0.0085840  -0.0127594 SPIN=   0.00000
%ENDBLOCK POSITIONS_FRAC

# Note: total spin =   8.00

KPOINTS_MP_SPACING 0.07

%BLOCK SPECIES_POT
QC5
%ENDBLOCK SPECIES_POT

SNAP_TO_SYMMETRY
SYMMETRY_GENERATE

