#              Generated by Buildcell
#
# at 04:17:42 (GMT+1.0) 4th August 2020
# in /lustre/scratch/uccabz1/launch_tmp
# on node-c12l-015
# by uccabz1
#
# compiler GCC version 4.9.2
# options -cpp -iprefix /lustre/shared/ucl/apps/gcc/4.9.2/bin/../lib/gcc/x86_64-unknown-linux-gnu/4.9.2/ -mtune=corei7 -march=x86-64 -g -Og
#
# seed  -740647432  1011757071 -2027277718  1823355697  -847318582  -874799075  -548942476 -1713653180  1001536526  -635583265  -125436770  2013643930
#
#      Author: C. J. Pickard (cjp20@cam.ac.uk)
#                Space group: Pm
#

%BLOCK LATTICE_ABC
      3.83305      6.80095      7.68216
     90.00000     90.00000     92.92784
%ENDBLOCK LATTICE_ABC

%BLOCK POSITIONS_FRAC
  Li   0.4040562  -0.3973203  -0.5000000 SPIN=   0.00000
  Li  -0.0124103   0.0925841  -0.5000000 SPIN=   0.00000
  Fe  -0.2083397   0.3826775  -0.2328234 SPIN=   4.00000
  Fe  -0.2083397   0.3826775   0.2328234 SPIN=   4.00000
   O  -0.6287301  -0.2117708   0.1449014 SPIN=   0.00000
   O  -0.0799768  -0.0035692   0.1453320 SPIN=   0.00000
   O  -0.1014878  -0.3292934   0.2896759 SPIN=   0.00000
   S  -0.3063462  -0.1499656   0.2495476 SPIN=   0.00000
   O  -0.6287301  -0.2117708  -0.1449014 SPIN=   0.00000
   O  -0.0799768  -0.0035692  -0.1453320 SPIN=   0.00000
   O  -0.1014878  -0.3292934  -0.2896759 SPIN=   0.00000
   S  -0.3063462  -0.1499656  -0.2495476 SPIN=   0.00000
   O  -0.2038774   0.4219888  -0.5000000 SPIN=   0.00000
   O   0.4612586  -0.0701666  -0.5000000 SPIN=   0.00000
   F   0.2863518   0.3262250   0.2637825 SPIN=   0.00000
   F   0.2863518   0.3262250  -0.2637825 SPIN=   0.00000
%ENDBLOCK POSITIONS_FRAC

# Note: total spin =   8.00

KPOINTS_MP_SPACING 0.07

%BLOCK SPECIES_POT
QC5
%ENDBLOCK SPECIES_POT

SNAP_TO_SYMMETRY
SYMMETRY_GENERATE

