#              Generated by Buildcell
#
# at 05:05:59 (GMT+1.0) 4th August 2020
# in /lustre/scratch/uccabz1/launch_tmp
# on node-c12g-016
# by uccabz1
#
# compiler GCC version 4.9.2
# options -cpp -iprefix /lustre/shared/ucl/apps/gcc/4.9.2/bin/../lib/gcc/x86_64-unknown-linux-gnu/4.9.2/ -mtune=corei7 -march=x86-64 -g -Og
#
# seed -1705446426   701747345   494031775  1821336700  -198567881 -1177821669 -1975253597 -1280688425   612683795  1728869963  1047261890   733006339
#
#      Author: C. J. Pickard (cjp20@cam.ac.uk)
#                Space group: P21212
#

%BLOCK LATTICE_ABC
      5.18118      5.60264      6.88984
     90.00000     90.00000     90.00000
%ENDBLOCK LATTICE_ABC

%BLOCK POSITIONS_FRAC
  Li   0.0000000   0.5000000   0.3976547 SPIN=   0.00000
  Li  -0.5000000  -0.0000000  -0.3976547 SPIN=   0.00000
  Fe   0.0000000   0.5000000  -0.1578730 SPIN=   4.00000
  Fe   0.5000000   0.0000000   0.1578730 SPIN=   4.00000
   O   0.2021405   0.0966279   0.3277019 SPIN=   0.00000
   O   0.4091373  -0.3005881   0.3492836 SPIN=   0.00000
   O  -0.2021405  -0.0966279   0.3277019 SPIN=   0.00000
   O  -0.4091373   0.3005881   0.3492836 SPIN=   0.00000
   O   0.2978595   0.5966279  -0.3277019 SPIN=   0.00000
   O   0.0908627   0.1994119  -0.3492836 SPIN=   0.00000
   O  -0.2978595  -0.5966279  -0.3277019 SPIN=   0.00000
   O  -0.0908627  -0.1994119  -0.3492836 SPIN=   0.00000
   S  -0.0000000   0.0000000   0.4733966 SPIN=   0.00000
   S  -0.5000000   0.5000000  -0.4733966 SPIN=   0.00000
   F   0.0000000   0.5000000   0.1121924 SPIN=   0.00000
   F   0.5000000   0.0000000  -0.1121924 SPIN=   0.00000
%ENDBLOCK POSITIONS_FRAC

# Note: total spin =   8.00

KPOINTS_MP_SPACING 0.07

%BLOCK SPECIES_POT
QC5
%ENDBLOCK SPECIES_POT

SNAP_TO_SYMMETRY
SYMMETRY_GENERATE

