#              Generated by Buildcell
#
# at 05:22:43 (GMT+1.0) 4th August 2020
# in /lustre/scratch/uccabz1/launch_tmp
# on node-c12p-010
# by uccabz1
#
# compiler GCC version 4.9.2
# options -cpp -iprefix /lustre/shared/ucl/apps/gcc/4.9.2/bin/../lib/gcc/x86_64-unknown-linux-gnu/4.9.2/ -mtune=corei7 -march=x86-64 -g -Og
#
# seed  1438796749   627869912   213041766  2059916135 -1662968830  -499297332  1586031521   877523760  -515664661   130184288   663073624   209799207
#
#      Author: C. J. Pickard (cjp20@cam.ac.uk)
#                Space group: C2
#

%BLOCK LATTICE_ABC
      5.66914      6.13932      6.13932
    102.56411    100.21585    100.21585
%ENDBLOCK LATTICE_ABC

%BLOCK POSITIONS_FRAC
  Li  -0.2702743   0.3293512   0.2993113 SPIN=   0.00000
  Li   0.2702743  -0.2993113  -0.3293512 SPIN=   0.00000
  Fe  -0.3118569   0.0483299  -0.3657405 SPIN=   4.00000
  Fe   0.3118569   0.3657405  -0.0483299 SPIN=   4.00000
   O   0.2374262   0.3644728   0.5803272 SPIN=   0.00000
   O   0.0141740  -0.0421457   0.4498638 SPIN=   0.00000
   O   0.3858423   0.0864741   0.3112817 SPIN=   0.00000
   O   0.0007646   0.2039857   0.1797653 SPIN=   0.00000
   S   0.1595518   0.1531967   0.3803095 SPIN=   0.00000
   O  -0.2374262  -0.5803272  -0.3644728 SPIN=   0.00000
   O  -0.0141740  -0.4498638   0.0421457 SPIN=   0.00000
   O  -0.3858423  -0.3112817  -0.0864741 SPIN=   0.00000
   O  -0.0007646  -0.1797653  -0.2039857 SPIN=   0.00000
   S  -0.1595518  -0.3803095  -0.1531967 SPIN=   0.00000
   F   0.5000000  -0.3123597   0.3123597 SPIN=   0.00000
   F  -0.5000000   0.0845727  -0.0845727 SPIN=   0.00000
%ENDBLOCK POSITIONS_FRAC

# Note: total spin =   8.00

KPOINTS_MP_SPACING 0.07

%BLOCK SPECIES_POT
QC5
%ENDBLOCK SPECIES_POT

SNAP_TO_SYMMETRY
SYMMETRY_GENERATE

