#              Generated by Buildcell
#
# at 00:29:21 (GMT+1.0) 19th August 2020
# in /lustre/scratch/uccabz1/launch_tmp
# on node-c12p-024
# by uccabz1
#
# compiler GCC version 4.9.2
# options -cpp -iprefix /lustre/shared/ucl/apps/gcc/4.9.2/bin/../lib/gcc/x86_64-unknown-linux-gnu/4.9.2/ -mtune=corei7 -march=x86-64 -g -Og
#
# seed  -331535142  1883696217 -1487947033  -598505328 -1532613748  1453728562  1541658035  -626512924   669473951  2022471260  -418023430    79791349
#
#      Author: C. J. Pickard (cjp20@cam.ac.uk)
#                Space group: P21
#

%BLOCK LATTICE_ABC
      3.92423      4.54842     11.22127
     90.00000     90.00000     93.07869
%ENDBLOCK LATTICE_ABC

%BLOCK POSITIONS_FRAC
  Li  -0.4197007  -0.0946340  -0.2322933 SPIN=   0.00000
  Li   0.4197007   0.0946340   0.2677067 SPIN=   0.00000
  Fe   0.2169665  -0.4147631   0.1190479 SPIN=   4.00000
  Fe  -0.2169665   0.4147631  -0.3809521 SPIN=   4.00000
   O   0.0620855   0.0316671   0.5955802 SPIN=   0.00000
   O   0.3937233  -0.3718201   0.5155400 SPIN=   0.00000
   O   0.5627843   0.1460228   0.4663284 SPIN=   0.00000
   O   0.0347045  -0.0891053   0.3806258 SPIN=   0.00000
   S   0.2633244  -0.0708089   0.4895186 SPIN=   0.00000
   O  -0.0620855  -0.0316671   0.0955802 SPIN=   0.00000
   O  -0.3937233   0.3718201   0.0155400 SPIN=   0.00000
   O  -0.5627843  -0.1460228  -0.0336716 SPIN=   0.00000
   O  -0.0347045   0.0891053  -0.1193742 SPIN=   0.00000
   S  -0.2633244   0.0708089  -0.0104814 SPIN=   0.00000
   F   0.1227627  -0.4036012  -0.2382214 SPIN=   0.00000
   F  -0.1227627   0.4036012   0.2617786 SPIN=   0.00000
%ENDBLOCK POSITIONS_FRAC

# Note: total spin =   8.00

KPOINTS_MP_SPACING 0.07

%BLOCK SPECIES_POT
QC5
%ENDBLOCK SPECIES_POT

SNAP_TO_SYMMETRY
SYMMETRY_GENERATE

