#              Generated by Buildcell
#
# at 05:21:38 (GMT+1.0) 4th August 2020
# in /lustre/scratch/uccabz1/launch_tmp
# on node-c12k-036
# by uccabz1
#
# compiler GCC version 4.9.2
# options -cpp -iprefix /lustre/shared/ucl/apps/gcc/4.9.2/bin/../lib/gcc/x86_64-unknown-linux-gnu/4.9.2/ -mtune=corei7 -march=x86-64 -g -Og
#
# seed   -34651466 -1897481628   676144851 -1279856411   669860041  1603482712  -546641278  1444946989   967169916   214489240  -937339012   573429931
#
#      Author: C. J. Pickard (cjp20@cam.ac.uk)
#                Space group: Pc
#

%BLOCK LATTICE_ABC
      5.67520      6.01747      6.05811
     90.00000     90.00000    104.82470
%ENDBLOCK LATTICE_ABC

%BLOCK POSITIONS_FRAC
  Li  -0.1787886  -0.1297040   0.3031775 SPIN=   0.00000
  Li  -0.1787886   0.3702960  -0.3031775 SPIN=   0.00000
  Fe  -0.3556399  -0.1418918  -0.1870773 SPIN=   4.00000
  Fe  -0.3556399   0.3581082   0.1870773 SPIN=   4.00000
   O   0.3985582  -0.2151327   0.5362903 SPIN=   0.00000
   O   0.0377418  -0.3497450   0.2956897 SPIN=   0.00000
   O   0.4419794  -0.3849199   0.1712105 SPIN=   0.00000
   O   0.3586104  -0.0015562   0.1950828 SPIN=   0.00000
   S   0.3092225  -0.2378385   0.2995683 SPIN=   0.00000
   O   0.3985582   0.2848673  -0.5362903 SPIN=   0.00000
   O   0.0377418   0.1502550  -0.2956897 SPIN=   0.00000
   O   0.4419794   0.1150801  -0.1712105 SPIN=   0.00000
   O   0.3586104   0.4984438  -0.1950828 SPIN=   0.00000
   S   0.3092225   0.2621615  -0.2995683 SPIN=   0.00000
   F  -0.0850879   0.1661674   0.2005861 SPIN=   0.00000
   F  -0.0850879  -0.3338326  -0.2005861 SPIN=   0.00000
%ENDBLOCK POSITIONS_FRAC

# Note: total spin =   8.00

KPOINTS_MP_SPACING 0.07

%BLOCK SPECIES_POT
QC5
%ENDBLOCK SPECIES_POT

SNAP_TO_SYMMETRY
SYMMETRY_GENERATE

