#              Generated by Buildcell
#
# at 02:48:15 (GMT+1.0) 4th August 2020
# in /lustre/scratch/uccabz1/launch_tmp
# on node-c12j-008
# by uccabz1
#
# compiler GCC version 4.9.2
# options -cpp -iprefix /lustre/shared/ucl/apps/gcc/4.9.2/bin/../lib/gcc/x86_64-unknown-linux-gnu/4.9.2/ -mtune=corei7 -march=x86-64 -g -Og
#
# seed  1811114297 -1279332070   279510071 -1285378344   372054196  -769044038  2086724893  1257580680  1983086656  2059585827 -1332212758  1122716015
#
#      Author: C. J. Pickard (cjp20@cam.ac.uk)
#                Space group: Pma2
#

%BLOCK LATTICE_ABC
      4.99521      5.16973      7.74476
     90.00000     90.00000     90.00000
%ENDBLOCK LATTICE_ABC

%BLOCK POSITIONS_FRAC
  Li  -0.4272958  -0.0928154  -0.2500000 SPIN=   0.00000
  Li   0.4272958  -0.0928154   0.2500000 SPIN=   0.00000
  Fe   0.0000000  -0.4086236  -0.0000000 SPIN=   4.00000
  Fe  -0.0000000  -0.4086236  -0.5000000 SPIN=   4.00000
   O  -0.1553293   0.1980934  -0.3950034 SPIN=   0.00000
   O   0.2389783  -0.0917649  -0.3952779 SPIN=   0.00000
   O   0.1553293   0.1980934   0.3950034 SPIN=   0.00000
   O  -0.2389783  -0.0917649   0.3952779 SPIN=   0.00000
   O   0.1553293   0.1980934   0.1049966 SPIN=   0.00000
   O  -0.2389783  -0.0917649   0.1047221 SPIN=   0.00000
   O  -0.1553293   0.1980934  -0.1049966 SPIN=   0.00000
   O   0.2389783  -0.0917649  -0.1047221 SPIN=   0.00000
   S  -0.0722508   0.0921601   0.2500000 SPIN=   0.00000
   S   0.0722508   0.0921601  -0.2500000 SPIN=   0.00000
   F   0.4312149  -0.4405484   0.2500000 SPIN=   0.00000
   F  -0.4312149  -0.4405484  -0.2500000 SPIN=   0.00000
%ENDBLOCK POSITIONS_FRAC

# Note: total spin =   8.00

KPOINTS_MP_SPACING 0.07

%BLOCK SPECIES_POT
QC5
%ENDBLOCK SPECIES_POT

SNAP_TO_SYMMETRY
SYMMETRY_GENERATE

