#              Generated by Buildcell
#
# at 01:53:45 (GMT+1.0) 19th August 2020
# in /lustre/scratch/uccabz1/launch_tmp
# on node-c12g-036
# by uccabz1
#
# compiler GCC version 4.9.2
# options -cpp -iprefix /lustre/shared/ucl/apps/gcc/4.9.2/bin/../lib/gcc/x86_64-unknown-linux-gnu/4.9.2/ -mtune=corei7 -march=x86-64 -g -Og
#
# seed -1835919013   304093127  1456310304  -591344574 -1420727212  1471640746  1468900839 -1382847191   -83597843  1735106754 -1244014929   512559472
#
#      Author: C. J. Pickard (cjp20@cam.ac.uk)
#                Space group: P2
#

%BLOCK LATTICE_ABC
      4.17523      6.80848      7.36919
    107.30607     90.00000     90.00000
%ENDBLOCK LATTICE_ABC

%BLOCK POSITIONS_FRAC
  Li   0.4409662   0.2919798  -0.3703801 SPIN=   0.00000
  Li   0.4409662  -0.2919798   0.3703801 SPIN=   0.00000
  Fe  -0.0610723   0.3851990   0.2340011 SPIN=   4.00000
  Fe  -0.0610723  -0.3851990  -0.2340011 SPIN=   4.00000
   O   0.2449387   0.0680197  -0.1298078 SPIN=   0.00000
   O  -0.2408714   0.2849735  -0.0902651 SPIN=   0.00000
   O  -0.2658865  -0.0825230  -0.2779067 SPIN=   0.00000
   O   0.0271393   0.1651462  -0.4034820 SPIN=   0.00000
   S  -0.0586700   0.1089041  -0.2253654 SPIN=   0.00000
   O   0.2449387  -0.0680197   0.1298078 SPIN=   0.00000
   O  -0.2408714  -0.2849735   0.0902651 SPIN=   0.00000
   O  -0.2658865   0.0825230   0.2779067 SPIN=   0.00000
   O   0.0271393  -0.1651462   0.4034820 SPIN=   0.00000
   S  -0.0586700  -0.1089041   0.2253654 SPIN=   0.00000
   F   0.4377962  -0.4013968  -0.2258835 SPIN=   0.00000
   F   0.4377962   0.4013968   0.2258835 SPIN=   0.00000
%ENDBLOCK POSITIONS_FRAC

# Note: total spin =   8.00

KPOINTS_MP_SPACING 0.07

%BLOCK SPECIES_POT
QC5
%ENDBLOCK SPECIES_POT

SNAP_TO_SYMMETRY
SYMMETRY_GENERATE

