#              Generated by Buildcell
#
# at 18:14:20 (GMT+1.0) 18th August 2020
# in /lustre/scratch/uccabz1/launch_tmp
# on node-c12l-020
# by uccabz1
#
# compiler GCC version 4.9.2
# options -cpp -iprefix /lustre/shared/ucl/apps/gcc/4.9.2/bin/../lib/gcc/x86_64-unknown-linux-gnu/4.9.2/ -mtune=corei7 -march=x86-64 -g -Og
#
# seed  -379306939 -2125170433 -1970517674   235952631  -271290163  1652477516 -2085132394 -1275569031  1276761162  -215346711  1106932955   561408204
#
#      Author: C. J. Pickard (cjp20@cam.ac.uk)
#                Space group: P21
#

%BLOCK LATTICE_ABC
      5.69749      6.03295      6.53228
     90.00000     90.00000    117.03351
%ENDBLOCK LATTICE_ABC

%BLOCK POSITIONS_FRAC
  Li  -0.3862540  -0.1006908  -0.2262872 SPIN=   0.00000
  Li   0.3862540   0.1006908   0.2737128 SPIN=   0.00000
  Fe  -0.4447556   0.3962590  -0.1150161 SPIN=   4.00000
  Fe   0.4447556  -0.3962590   0.3849839 SPIN=   4.00000
   O   0.1466473   0.2662166   0.2734102 SPIN=   0.00000
   O   0.0875818   0.2711262  -0.1016286 SPIN=   0.00000
   O  -0.2574156   0.2642160   0.1322519 SPIN=   0.00000
   O  -0.1852941  -0.1088019   0.0975914 SPIN=   0.00000
   S  -0.0521202   0.1731892   0.1004062 SPIN=   0.00000
   O  -0.1466473  -0.2662166  -0.2265898 SPIN=   0.00000
   O  -0.0875818  -0.2711262  -0.6016286 SPIN=   0.00000
   O   0.2574156  -0.2642160  -0.3677481 SPIN=   0.00000
   O   0.1852941   0.1088019  -0.4024086 SPIN=   0.00000
   S   0.0521202  -0.1731892  -0.3995938 SPIN=   0.00000
   F  -0.2807962   0.1913740  -0.4188846 SPIN=   0.00000
   F   0.2807962  -0.1913740   0.0811154 SPIN=   0.00000
%ENDBLOCK POSITIONS_FRAC

# Note: total spin =   8.00

KPOINTS_MP_SPACING 0.07

%BLOCK SPECIES_POT
QC5
%ENDBLOCK SPECIES_POT

SNAP_TO_SYMMETRY
SYMMETRY_GENERATE

