#              Generated by Buildcell
#
# at 04:01:08 (GMT+1.0) 4th August 2020
# in /lustre/scratch/uccabz1/launch_tmp
# on node-c12j-017
# by uccabz1
#
# compiler GCC version 4.9.2
# options -cpp -iprefix /lustre/shared/ucl/apps/gcc/4.9.2/bin/../lib/gcc/x86_64-unknown-linux-gnu/4.9.2/ -mtune=corei7 -march=x86-64 -g -Og
#
# seed -1341076418 -1513034411 -1461462199   820730014 -2047282260  -593729069   494673087 -2053144576  2105254655 -1467676265 -1222507524  -252323452
#
#      Author: C. J. Pickard (cjp20@cam.ac.uk)
#                Space group: Ccc2
#

%BLOCK LATTICE_ABC
      4.36933      4.36933     10.67992
     90.00000     90.00000    101.21151
%ENDBLOCK LATTICE_ABC

%BLOCK POSITIONS_FRAC
  Li   0.0000000  -0.5000000  -0.4061908 SPIN=   0.00000
  Li   0.5000000   0.0000000   0.0938092 SPIN=   0.00000
  Fe   0.0000000  -0.0000000  -0.1519994 SPIN=   4.00000
  Fe   0.0000000  -0.0000000   0.3480006 SPIN=   4.00000
   O  -0.1507518  -0.2299245   0.0810642 SPIN=   0.00000
   O   0.2990944  -0.3558240   0.1972094 SPIN=   0.00000
   O   0.1507518   0.2299245   0.0810642 SPIN=   0.00000
   O  -0.2990944   0.3558240   0.1972094 SPIN=   0.00000
   O  -0.2299245  -0.1507518  -0.4189358 SPIN=   0.00000
   O  -0.3558240   0.2990944  -0.3027906 SPIN=   0.00000
   O   0.2299245   0.1507518  -0.4189358 SPIN=   0.00000
   O   0.3558240  -0.2990944  -0.3027906 SPIN=   0.00000
   S   0.5000000  -0.0000000  -0.4034158 SPIN=   0.00000
   S   0.0000000   0.5000000   0.0965842 SPIN=   0.00000
   F   0.5000000   0.0000000  -0.0869204 SPIN=   0.00000
   F  -0.0000000  -0.5000000   0.4130796 SPIN=   0.00000
%ENDBLOCK POSITIONS_FRAC

# Note: total spin =   8.00

KPOINTS_MP_SPACING 0.07

%BLOCK SPECIES_POT
QC5
%ENDBLOCK SPECIES_POT

SNAP_TO_SYMMETRY
SYMMETRY_GENERATE

