#              Generated by Buildcell
#
# at 01:13:30 (GMT+1.0) 19th August 2020
# in /lustre/scratch/uccabz1/launch_tmp
# on node-c12p-003
# by uccabz1
#
# compiler GCC version 4.9.2
# options -cpp -iprefix /lustre/shared/ucl/apps/gcc/4.9.2/bin/../lib/gcc/x86_64-unknown-linux-gnu/4.9.2/ -mtune=corei7 -march=x86-64 -g -Og
#
# seed -1145176385   966401680  -680130222  1954347697 -1100912718  -795427526   253606550 -1788339656 -1682348371 -1045184430  -518895895 -1540347454
#
#      Author: C. J. Pickard (cjp20@cam.ac.uk)
#                Space group: P21
#

%BLOCK LATTICE_ABC
      4.14011      7.01294      7.18311
    106.46937     90.00000     90.00000
%ENDBLOCK LATTICE_ABC

%BLOCK POSITIONS_FRAC
  Li  -0.3811464  -0.1070402   0.1707368 SPIN=   0.00000
  Li   0.1188536   0.1070402  -0.1707368 SPIN=   0.00000
  Fe  -0.4089437  -0.2245554  -0.3555687 SPIN=   4.00000
  Fe   0.0910563   0.2245554   0.3555687 SPIN=   4.00000
   O  -0.7162503   0.4418310  -0.1917669 SPIN=   0.00000
   O  -0.1828321   0.3369545  -0.1001946 SPIN=   0.00000
   O  -0.2375092   0.4484382  -0.3961717 SPIN=   0.00000
   O  -0.4714643   0.1264958  -0.3869363 SPIN=   0.00000
   S  -0.4020140   0.3384299  -0.2687674 SPIN=   0.00000
   O  -0.2162503  -0.4418310   0.1917669 SPIN=   0.00000
   O   0.3171679  -0.3369545   0.1001946 SPIN=   0.00000
   O   0.2624908  -0.4484382   0.3961717 SPIN=   0.00000
   O   0.0285357  -0.1264958   0.3869363 SPIN=   0.00000
   S   0.0979860  -0.3384299   0.2687674 SPIN=   0.00000
   F  -0.4725858   0.1686334   0.1843224 SPIN=   0.00000
   F   0.0274142  -0.1686334  -0.1843224 SPIN=   0.00000
%ENDBLOCK POSITIONS_FRAC

# Note: total spin =   8.00

KPOINTS_MP_SPACING 0.07

%BLOCK SPECIES_POT
QC5
%ENDBLOCK SPECIES_POT

SNAP_TO_SYMMETRY
SYMMETRY_GENERATE

