#              Generated by Buildcell
#
# at 22:42:26 (GMT+1.0) 18th August 2020
# in /scratch/scratch/uccabz1/launch_tmp
# on node-k10h-032
# by uccabz1
#
# compiler GCC version 4.9.2
# options -cpp -iprefix /scratch/UCL/applications/gcc/4.9.2/bin/../lib/gcc/x86_64-unknown-linux-gnu/4.9.2/ -mtune=corei7 -march=x86-64 -g -O2
#
# seed  1281517765   685896899   231844669  1013592958 -1627363069   972119025 -1390835694 -1129412165   831758688   818910716   251228573  1493970934
#
#      Author: C. J. Pickard (cjp20@cam.ac.uk)
#                Space group: Pc
#

%BLOCK LATTICE_ABC
      4.06418      6.24786      8.09050
     90.00000     90.00000    103.21171
%ENDBLOCK LATTICE_ABC

%BLOCK POSITIONS_FRAC
  Li  -0.3440859  -0.0833524   0.1394388 SPIN=   0.00000
  Li  -0.3440859   0.4166476  -0.1394388 SPIN=   0.00000
  Fe  -0.2557929   0.0554891  -0.3511787 SPIN=   4.00000
  Fe  -0.2557929  -0.4445109   0.3511787 SPIN=   4.00000
   O   0.1528267  -0.1705920   0.3451164 SPIN=   0.00000
   O  -0.1229555   0.1420040   0.3164740 SPIN=   0.00000
   O   0.3915543   0.1355820   0.1547253 SPIN=   0.00000
   O   0.4303912   0.1945951   0.4572529 SPIN=   0.00000
   S   0.2129542   0.0753973   0.3183921 SPIN=   0.00000
   O   0.1528267  -0.6705920  -0.3451164 SPIN=   0.00000
   O  -0.1229555  -0.3579960  -0.3164740 SPIN=   0.00000
   O   0.3915543  -0.3644180  -0.1547253 SPIN=   0.00000
   O   0.4303912  -0.3054049  -0.4572529 SPIN=   0.00000
   S   0.2129542  -0.4246027  -0.3183921 SPIN=   0.00000
   F  -0.1293120   0.0245131  -0.1329397 SPIN=   0.00000
   F  -0.1293120  -0.4754869   0.1329397 SPIN=   0.00000
%ENDBLOCK POSITIONS_FRAC

# Note: total spin =   8.00

KPOINTS_MP_SPACING 0.07

%BLOCK SPECIES_POT
QC5
%ENDBLOCK SPECIES_POT

SNAP_TO_SYMMETRY
SYMMETRY_GENERATE

