#              Generated by Buildcell
#
# at 02:00:39 (GMT+1.0) 19th August 2020
# in /scratch/scratch/uccabz1/launch_tmp
# on node-k10c-028
# by uccabz1
#
# compiler GCC version 4.9.2
# options -cpp -iprefix /scratch/UCL/applications/gcc/4.9.2/bin/../lib/gcc/x86_64-unknown-linux-gnu/4.9.2/ -mtune=corei7 -march=x86-64 -g -O2
#
# seed  1634257129  -352211837 -1611345717 -1054752420  -117638250  1340327247  -144343812  1513779773 -1929608036   967334807  -208167085 -2055540434
#
#      Author: C. J. Pickard (cjp20@cam.ac.uk)
#                Space group: P-1
#

%BLOCK LATTICE_ABC
      3.86464      6.86182      7.61078
     84.85266     87.02766     84.83204
%ENDBLOCK LATTICE_ABC

%BLOCK POSITIONS_FRAC
  Li   0.0000000   0.0000000  -0.5000000 SPIN=   0.00000
  Li   0.0000000   0.0000000   0.0000000 SPIN=   0.00000
  Fe   0.0000000  -0.5000000   0.0000000 SPIN=   3.09092
  Fe  -0.5000000   0.5000000   0.5000000 SPIN=   4.90908
   O   0.0435167   0.1433275   0.2391787 SPIN=   0.00000
   O   0.6026492  -0.0539312   0.1894152 SPIN=   0.00000
   O   0.5420135   0.1785095   0.4218783 SPIN=   0.00000
   O   0.5546448   0.3042906   0.1067079 SPIN=   0.00000
   S   0.4357061   0.1430491   0.2392950 SPIN=   0.00000
   O  -0.0435167  -0.1433275  -0.2391787 SPIN=   0.00000
   O  -0.6026492   0.0539312  -0.1894152 SPIN=   0.00000
   O  -0.5420135  -0.1785095  -0.4218783 SPIN=   0.00000
   O  -0.5546448  -0.3042906  -0.1067079 SPIN=   0.00000
   S  -0.4357061  -0.1430491  -0.2392950 SPIN=   0.00000
   F  -0.1335181   0.3365764  -0.2594156 SPIN=   0.00000
   F   0.1335181  -0.3365764   0.2594156 SPIN=   0.00000
%ENDBLOCK POSITIONS_FRAC

# Note: total spin =   8.00

KPOINTS_MP_SPACING 0.07

%BLOCK SPECIES_POT
QC5
%ENDBLOCK SPECIES_POT

SNAP_TO_SYMMETRY
SYMMETRY_GENERATE

