#              Generated by Buildcell
#
# at 05:43:46 (GMT+1.0) 4th August 2020
# in /lustre/scratch/uccabz1/launch_tmp
# on node-c12c-015
# by uccabz1
#
# compiler GCC version 4.9.2
# options -cpp -iprefix /lustre/shared/ucl/apps/gcc/4.9.2/bin/../lib/gcc/x86_64-unknown-linux-gnu/4.9.2/ -mtune=corei7 -march=x86-64 -g -Og
#
# seed    10739611  1050716970  1920266435  1371685456  1499153536  1844243500   941038306  1782778903 -1254565070  -845354738   516826223  1589369086
#
#      Author: C. J. Pickard (cjp20@cam.ac.uk)
#                Space group: P21
#

%BLOCK LATTICE_ABC
      4.05049      6.51325      7.68720
     99.53589     90.00000     90.00000
%ENDBLOCK LATTICE_ABC

%BLOCK POSITIONS_FRAC
  Li   0.2726303  -0.1177138  -0.3367357 SPIN=   0.00000
  Li  -0.2273697   0.1177138   0.3367357 SPIN=   0.00000
  Fe   0.1435237   0.3549750  -0.3642618 SPIN=   4.00000
  Fe  -0.3564763  -0.3549750   0.3642618 SPIN=   4.00000
   O  -0.2421303   0.0427786   0.0688402 SPIN=   0.00000
   O   0.1607912   0.3024145  -0.0020070 SPIN=   0.00000
   O  -0.3700634   0.4188523   0.1406072 SPIN=   0.00000
   O  -0.3607312   0.2434559  -0.1706253 SPIN=   0.00000
   S  -0.2030334   0.2518753   0.0092038 SPIN=   0.00000
   O   0.2578697  -0.0427786  -0.0688402 SPIN=   0.00000
   O   0.6607912  -0.3024145   0.0020070 SPIN=   0.00000
   O   0.1299366  -0.4188523  -0.1406072 SPIN=   0.00000
   O   0.1392688  -0.2434559   0.1706253 SPIN=   0.00000
   S   0.2969666  -0.2518753  -0.0092038 SPIN=   0.00000
   F   0.2965854   0.2175325   0.3903494 SPIN=   0.00000
   F  -0.2034146  -0.2175325  -0.3903494 SPIN=   0.00000
%ENDBLOCK POSITIONS_FRAC

# Note: total spin =   8.00

KPOINTS_MP_SPACING 0.07

%BLOCK SPECIES_POT
QC5
%ENDBLOCK SPECIES_POT

SNAP_TO_SYMMETRY
SYMMETRY_GENERATE

