#              Generated by Buildcell
#
# at 02:46:02 (GMT+1.0) 4th August 2020
# in /lustre/scratch/uccabz1/launch_tmp
# on node-c12l-016
# by uccabz1
#
# compiler GCC version 4.9.2
# options -cpp -iprefix /lustre/shared/ucl/apps/gcc/4.9.2/bin/../lib/gcc/x86_64-unknown-linux-gnu/4.9.2/ -mtune=corei7 -march=x86-64 -g -Og
#
# seed   518200952   853805637  -694728041 -1224196160  2145543460  -125352963  1929870429  -751709100  1383865629   714158048 -1533544043  1377925048
#
#      Author: C. J. Pickard (cjp20@cam.ac.uk)
#                Space group: P-1
#

%BLOCK LATTICE_ABC
      4.13482      6.70498      7.53746
     94.69977     93.46094    105.45297
%ENDBLOCK LATTICE_ABC

%BLOCK POSITIONS_FRAC
  Li   0.1200049  -0.2951061  -0.2448694 SPIN=   0.00000
  Li  -0.1200049   0.2951061   0.2448694 SPIN=   0.00000
  Fe   0.5000000   0.5000000  -0.5000000 SPIN=   7.54493
  Fe   0.5000000  -0.5000000  -0.0000000 SPIN=   0.45507
   O  -0.2102637   0.1882357  -0.0878513 SPIN=   0.00000
   O   0.0445787   0.2676893  -0.3715103 SPIN=   0.00000
   O  -0.3557441  -0.0756246  -0.3504549 SPIN=   0.00000
   O   0.2128276   0.0142445  -0.1906603 SPIN=   0.00000
   O   0.2102637  -0.1882357   0.0878513 SPIN=   0.00000
   O  -0.0445787  -0.2676893   0.3715103 SPIN=   0.00000
   O   0.3557441   0.0756246   0.3504549 SPIN=   0.00000
   O  -0.2128276  -0.0142445   0.1906603 SPIN=   0.00000
   S   0.0000000  -0.0000000  -0.5000000 SPIN=   0.00000
   S  -0.5000000   0.0000000  -0.0000000 SPIN=   0.00000
   F   0.3533152  -0.4891073   0.2458611 SPIN=   0.00000
   F  -0.3533152   0.4891073  -0.2458611 SPIN=   0.00000
%ENDBLOCK POSITIONS_FRAC

# Note: total spin =   8.00

KPOINTS_MP_SPACING 0.07

%BLOCK SPECIES_POT
QC5
%ENDBLOCK SPECIES_POT

SNAP_TO_SYMMETRY
SYMMETRY_GENERATE

