#              Generated by Buildcell
#
# at 01:44:36 (GMT+1.0) 4th August 2020
# in /lustre/scratch/uccabz1/launch_tmp
# on node-c12g-014
# by uccabz1
#
# compiler GCC version 4.9.2
# options -cpp -iprefix /lustre/shared/ucl/apps/gcc/4.9.2/bin/../lib/gcc/x86_64-unknown-linux-gnu/4.9.2/ -mtune=corei7 -march=x86-64 -g -Og
#
# seed -1341650548   645615385 -1979406321  -466033201  1561605000  1750789910   894020861  2115813893  1322467229 -2069253135  2018232972   979156141
#
#      Author: C. J. Pickard (cjp20@cam.ac.uk)
#                Space group: P2
#

%BLOCK LATTICE_ABC
      4.03415      7.11177      7.23917
    105.64194     90.00000     90.00000
%ENDBLOCK LATTICE_ABC

%BLOCK POSITIONS_FRAC
  Li  -0.2910334   0.0000000   0.0000000 SPIN=   0.00000
  Li  -0.3439175   0.0000000  -0.5000000 SPIN=   0.00000
  Fe  -0.2928541  -0.4313371   0.2657716 SPIN=   4.00000
  Fe  -0.2928541   0.4313371  -0.2657716 SPIN=   4.00000
   O   0.4797999  -0.2971246  -0.2878639 SPIN=   0.00000
   O   0.2412268  -0.2772389  -0.5969968 SPIN=   0.00000
   O   0.1794814   0.0003827  -0.3073225 SPIN=   0.00000
   S   0.1929810  -0.2201529  -0.3814027 SPIN=   0.00000
   O   0.4797999   0.2971246   0.2878639 SPIN=   0.00000
   O   0.2412268   0.2772389   0.5969968 SPIN=   0.00000
   O   0.1794814  -0.0003827   0.3073225 SPIN=   0.00000
   S   0.1929810   0.2201529   0.3814027 SPIN=   0.00000
   O   0.1834657  -0.0000000  -0.0000000 SPIN=   0.00000
   O  -0.0515935   0.5000000   0.5000000 SPIN=   0.00000
   F  -0.3002684   0.2119820  -0.1384711 SPIN=   0.00000
   F  -0.3002684  -0.2119820   0.1384711 SPIN=   0.00000
%ENDBLOCK POSITIONS_FRAC

# Note: total spin =   8.00

KPOINTS_MP_SPACING 0.07

%BLOCK SPECIES_POT
QC5
%ENDBLOCK SPECIES_POT

SNAP_TO_SYMMETRY
SYMMETRY_GENERATE

