#              Generated by Buildcell
#
# at 01:33:31 (GMT+1.0) 19th August 2020
# in /scratch/scratch/uccabz1/launch_tmp
# on node-k10b-029
# by uccabz1
#
# compiler GCC version 4.9.2
# options -cpp -iprefix /scratch/UCL/applications/gcc/4.9.2/bin/../lib/gcc/x86_64-unknown-linux-gnu/4.9.2/ -mtune=corei7 -march=x86-64 -g -O2
#
# seed  -118889348 -2067650622  1205063636   950194766  2021498733  1155896430 -1979189490  -255285596  -310588472  1373140556   883269171   204575319
#
#      Author: C. J. Pickard (cjp20@cam.ac.uk)
#                Space group: P-1
#

%BLOCK LATTICE_ABC
      3.93625      7.24330      7.43700
     76.61837     75.82359     86.62372
%ENDBLOCK LATTICE_ABC

%BLOCK POSITIONS_FRAC
  Li  -0.0000000   0.0000000  -0.0000000 SPIN=   0.00000
  Li  -0.5000000  -0.0000000   0.5000000 SPIN=   0.00000
  Fe  -0.0850006   0.2539565  -0.3645279 SPIN=   4.00000
  Fe   0.0850006  -0.2539565   0.3645279 SPIN=   4.00000
   O   0.5243941  -0.5818570  -0.1307002 SPIN=   0.00000
   O   0.1163937  -0.3109598  -0.1031795 SPIN=   0.00000
   O   0.1342105  -0.4890436  -0.3520409 SPIN=   0.00000
   O   0.6305836  -0.2825897  -0.3771304 SPIN=   0.00000
   S   0.3513955  -0.4161126  -0.2407627 SPIN=   0.00000
   O  -0.5243941   0.5818570   0.1307002 SPIN=   0.00000
   O  -0.1163937   0.3109598   0.1031795 SPIN=   0.00000
   O  -0.1342105   0.4890436   0.3520409 SPIN=   0.00000
   O  -0.6305836   0.2825897   0.3771304 SPIN=   0.00000
   S  -0.3513955   0.4161126   0.2407627 SPIN=   0.00000
   F   0.1991586  -0.0026199   0.2312498 SPIN=   0.00000
   F  -0.1991586   0.0026199  -0.2312498 SPIN=   0.00000
%ENDBLOCK POSITIONS_FRAC

# Note: total spin =   8.00

KPOINTS_MP_SPACING 0.07

%BLOCK SPECIES_POT
QC5
%ENDBLOCK SPECIES_POT

SNAP_TO_SYMMETRY
SYMMETRY_GENERATE

