#              Generated by Buildcell
#
# at 01:58:35 (GMT+1.0) 4th August 2020
# in /lustre/scratch/uccabz1/launch_tmp
# on node-c12f-026
# by uccabz1
#
# compiler GCC version 4.9.2
# options -cpp -iprefix /lustre/shared/ucl/apps/gcc/4.9.2/bin/../lib/gcc/x86_64-unknown-linux-gnu/4.9.2/ -mtune=corei7 -march=x86-64 -g -Og
#
# seed -1194867435  1017389375 -1711691169  -482056450 -1293995534  -115865036  -497211537   784917382   571545158  1452902699  -788688900 -2035629058
#
#      Author: C. J. Pickard (cjp20@cam.ac.uk)
#                Space group: P-1
#

%BLOCK LATTICE_ABC
      3.90228      6.56537      7.89529
     94.14459     97.51348     90.16419
%ENDBLOCK LATTICE_ABC

%BLOCK POSITIONS_FRAC
  Li   0.7099083   0.2316621   0.3084140 SPIN=   0.00000
  Li  -0.7099083  -0.2316621  -0.3084140 SPIN=   0.00000
  Fe  -0.6926278   0.2808186  -0.3442903 SPIN=   4.00000
  Fe   0.6926278  -0.2808186   0.3442903 SPIN=   4.00000
   O  -0.2030490  -0.3285860  -0.2564717 SPIN=   0.00000
   O   0.1582071  -0.0453548  -0.1030652 SPIN=   0.00000
   O   0.3651478  -0.4009205  -0.0947751 SPIN=   0.00000
   O  -0.1219972  -0.2910815   0.0604462 SPIN=   0.00000
   O   0.2030490   0.3285860   0.2564717 SPIN=   0.00000
   O  -0.1582071   0.0453548   0.1030652 SPIN=   0.00000
   O  -0.3651478   0.4009205   0.0947751 SPIN=   0.00000
   O   0.1219972   0.2910815  -0.0604462 SPIN=   0.00000
   S  -0.0000000   0.5000000  -0.0000000 SPIN=   0.00000
   S  -0.5000000  -0.0000000  -0.0000000 SPIN=   0.00000
   F   0.2412298  -0.2557286   0.4393705 SPIN=   0.00000
   F  -0.2412298   0.2557286  -0.4393705 SPIN=   0.00000
%ENDBLOCK POSITIONS_FRAC

# Note: total spin =   8.00

KPOINTS_MP_SPACING 0.07

%BLOCK SPECIES_POT
QC5
%ENDBLOCK SPECIES_POT

SNAP_TO_SYMMETRY
SYMMETRY_GENERATE

