#              Generated by Buildcell
#
# at 03:08:01 (GMT+1.0) 4th August 2020
# in /lustre/scratch/uccabz1/launch_tmp
# on node-c12l-026
# by uccabz1
#
# compiler GCC version 4.9.2
# options -cpp -iprefix /lustre/shared/ucl/apps/gcc/4.9.2/bin/../lib/gcc/x86_64-unknown-linux-gnu/4.9.2/ -mtune=corei7 -march=x86-64 -g -Og
#
# seed  1078731741  1548658333  -755382204   447339333  -486444859   122050131 -1134027915   834623836  1287880106  1138617077  -535752230  -292540355
#
#      Author: C. J. Pickard (cjp20@cam.ac.uk)
#                Space group: P2221
#

%BLOCK LATTICE_ABC
      4.59758      5.51832      7.88303
     90.00000     90.00000     90.00000
%ENDBLOCK LATTICE_ABC

%BLOCK POSITIONS_FRAC
  Li  -0.4169506   0.5000000   0.0000000 SPIN=   0.00000
  Li   0.4169506  -0.5000000   0.5000000 SPIN=   0.00000
  Fe  -0.5000000  -0.0520360  -0.2500000 SPIN=   4.00000
  Fe  -0.5000000   0.0520360   0.2500000 SPIN=   4.00000
   O  -0.1137057   0.3164988  -0.5976539 SPIN=   0.00000
   O  -0.2508802   0.2840069  -0.2949222 SPIN=   0.00000
   O   0.1137057  -0.3164988  -0.0976539 SPIN=   0.00000
   O   0.2508802  -0.2840069   0.2050778 SPIN=   0.00000
   O   0.1137057   0.3164988   0.0976539 SPIN=   0.00000
   O   0.2508802   0.2840069  -0.2050778 SPIN=   0.00000
   O  -0.1137057  -0.3164988   0.5976539 SPIN=   0.00000
   O  -0.2508802  -0.2840069   0.2949222 SPIN=   0.00000
   S   0.0000000   0.4990206   0.2500000 SPIN=   0.00000
   S   0.0000000  -0.4990206  -0.2500000 SPIN=   0.00000
   F  -0.3452174  -0.0000000   0.0000000 SPIN=   0.00000
   F   0.3452174   0.0000000   0.5000000 SPIN=   0.00000
%ENDBLOCK POSITIONS_FRAC

# Note: total spin =   8.00

KPOINTS_MP_SPACING 0.07

%BLOCK SPECIES_POT
QC5
%ENDBLOCK SPECIES_POT

SNAP_TO_SYMMETRY
SYMMETRY_GENERATE

