#              Generated by Buildcell
#
# at 02:26:14 (GMT+1.0) 4th August 2020
# in /lustre/scratch/uccabz1/launch_tmp
# on node-c12m-020
# by uccabz1
#
# compiler GCC version 4.9.2
# options -cpp -iprefix /lustre/shared/ucl/apps/gcc/4.9.2/bin/../lib/gcc/x86_64-unknown-linux-gnu/4.9.2/ -mtune=corei7 -march=x86-64 -g -Og
#
# seed  1307840826  1025348705   873437708  -498916123   748494711  -598185492   943485418  1906387838   618844891  -813230175  -425333033   227327466
#
#      Author: C. J. Pickard (cjp20@cam.ac.uk)
#                Space group: P-4
#

%BLOCK LATTICE_ABC
      3.95036      3.95036     12.81614
     90.00000     90.00000     90.00000
%ENDBLOCK LATTICE_ABC

%BLOCK POSITIONS_FRAC
  Li  -0.5000000  -0.0000000  -0.0848483 SPIN=   0.00000
  Li   0.0000000   0.5000000   0.0848483 SPIN=   0.00000
  Fe   0.5000000  -0.0000000   0.2067767 SPIN=   4.00000
  Fe   0.0000000  -0.5000000  -0.2067767 SPIN=   4.00000
   O  -0.2862688  -0.2132452   0.5408626 SPIN=   0.00000
   O  -0.2731344  -0.2739251   0.3487071 SPIN=   0.00000
   O   0.2862688   0.2132452   0.5408626 SPIN=   0.00000
   O   0.2731344   0.2739251   0.3487071 SPIN=   0.00000
   O  -0.2132452   0.2862688  -0.5408626 SPIN=   0.00000
   O  -0.2739251   0.2731344  -0.3487071 SPIN=   0.00000
   O   0.2132452  -0.2862688  -0.5408626 SPIN=   0.00000
   O   0.2739251  -0.2731344  -0.3487071 SPIN=   0.00000
   S   0.0000000   0.5000000   0.3891517 SPIN=   0.00000
   S  -0.5000000  -0.0000000  -0.3891517 SPIN=   0.00000
   F   0.0000000   0.0000000  -0.1439874 SPIN=   0.00000
   F   0.0000000   0.0000000   0.1439874 SPIN=   0.00000
%ENDBLOCK POSITIONS_FRAC

# Note: total spin =   8.00

KPOINTS_MP_SPACING 0.07

%BLOCK SPECIES_POT
QC5
%ENDBLOCK SPECIES_POT

SNAP_TO_SYMMETRY
SYMMETRY_GENERATE

