#              Generated by Buildcell
#
# at 03:05:55 (GMT+1.0) 4th August 2020
# in /lustre/scratch/uccabz1/launch_tmp
# on node-c12f-011
# by uccabz1
#
# compiler GCC version 4.9.2
# options -cpp -iprefix /lustre/shared/ucl/apps/gcc/4.9.2/bin/../lib/gcc/x86_64-unknown-linux-gnu/4.9.2/ -mtune=corei7 -march=x86-64 -g -Og
#
# seed   295715941  2082099704 -1780717565 -1252617948 -1650455994   109722284   -40349055   504073362  -491308453   485480363  -612908887  -242978170
#
#      Author: C. J. Pickard (cjp20@cam.ac.uk)
#                Space group: Cm
#

%BLOCK LATTICE_ABC
      6.05683      6.05683      6.07892
     71.27810     71.27810     83.17472
%ENDBLOCK LATTICE_ABC

%BLOCK POSITIONS_FRAC
  Li  -0.2122871  -0.2122871   0.0193530 SPIN=   0.00000
  Li   0.3923648   0.3923648  -0.0928464 SPIN=   0.00000
  Fe  -0.0405544   0.4284689  -0.2560591 SPIN=   4.00000
  Fe   0.4284689  -0.0405544  -0.2560591 SPIN=   4.00000
   O  -0.2902521   0.3184590   0.1279533 SPIN=   0.00000
   O  -0.3884972   0.3164674   0.5564256 SPIN=   0.00000
   O  -0.0493315   0.5373636   0.2449764 SPIN=   0.00000
   S  -0.1909019   0.3195486   0.3268350 SPIN=   0.00000
   O   0.3184590  -0.2902521   0.1279533 SPIN=   0.00000
   O   0.3164674  -0.3884972   0.5564256 SPIN=   0.00000
   O   0.5373636  -0.0493315   0.2449764 SPIN=   0.00000
   S   0.3195486  -0.1909019   0.3268350 SPIN=   0.00000
   O   0.0346623   0.0346623   0.3157086 SPIN=   0.00000
   O   0.3005798   0.3005798   0.2952317 SPIN=   0.00000
   F   0.0962510   0.0962510  -0.1920795 SPIN=   0.00000
   F  -0.2899540  -0.2899540  -0.2953329 SPIN=   0.00000
%ENDBLOCK POSITIONS_FRAC

# Note: total spin =   8.00

KPOINTS_MP_SPACING 0.07

%BLOCK SPECIES_POT
QC5
%ENDBLOCK SPECIES_POT

SNAP_TO_SYMMETRY
SYMMETRY_GENERATE

