#              Generated by Buildcell
#
# at 20:36:56 (GMT+1.0) 18th August 2020
# in /lustre/scratch/uccabz1/launch_tmp
# on node-c12f-002
# by uccabz1
#
# compiler GCC version 4.9.2
# options -cpp -iprefix /lustre/shared/ucl/apps/gcc/4.9.2/bin/../lib/gcc/x86_64-unknown-linux-gnu/4.9.2/ -mtune=corei7 -march=x86-64 -g -Og
#
# seed   206738031 -1818083327 -1503108136  -758086576    48379917  1724012261   539268911  1859234508  -380079301 -2146582133  1648512971  1639504448
#
#      Author: C. J. Pickard (cjp20@cam.ac.uk)
#                Space group: C2
#

%BLOCK LATTICE_ABC
      4.39641      7.05150      7.05150
    111.03541     96.43461     96.43461
%ENDBLOCK LATTICE_ABC

%BLOCK POSITIONS_FRAC
  Li  -0.2082246   0.3991050   0.1338878 SPIN=   0.00000
  Li   0.2082246  -0.1338878  -0.3991050 SPIN=   0.00000
  Fe  -0.2751810  -0.2504203  -0.1841754 SPIN=   4.00000
  Fe   0.2751810   0.1841754   0.2504203 SPIN=   4.00000
   O  -0.0224474   0.4245076  -0.1208687 SPIN=   0.00000
   O   0.5412026   0.5574834  -0.0418484 SPIN=   0.00000
   O   0.3475417   0.2220107  -0.0238717 SPIN=   0.00000
   O   0.2546138   0.5454725   0.2374328 SPIN=   0.00000
   O   0.0224474   0.1208687  -0.4245076 SPIN=   0.00000
   O  -0.5412026   0.0418484  -0.5574834 SPIN=   0.00000
   O  -0.3475417   0.0238717  -0.2220107 SPIN=   0.00000
   O  -0.2546138  -0.2374328  -0.5454725 SPIN=   0.00000
   S  -0.5000000  -0.2724149   0.2724149 SPIN=   0.00000
   S  -0.5000000   0.2583579  -0.2583579 SPIN=   0.00000
   F  -0.1724682   0.1816030   0.2478597 SPIN=   0.00000
   F   0.1724682  -0.2478597  -0.1816030 SPIN=   0.00000
%ENDBLOCK POSITIONS_FRAC

# Note: total spin =   8.00

KPOINTS_MP_SPACING 0.07

%BLOCK SPECIES_POT
QC5
%ENDBLOCK SPECIES_POT

SNAP_TO_SYMMETRY
SYMMETRY_GENERATE

