#              Generated by Buildcell
#
# at 01:08:07 (GMT+1.0) 19th August 2020
# in /lustre/scratch/uccabz1/launch_tmp
# on node-c12j-010
# by uccabz1
#
# compiler GCC version 4.9.2
# options -cpp -iprefix /lustre/shared/ucl/apps/gcc/4.9.2/bin/../lib/gcc/x86_64-unknown-linux-gnu/4.9.2/ -mtune=corei7 -march=x86-64 -g -Og
#
# seed   971751858 -1824369211  1587402226   865369109 -1599003445  1450131939  -377051573   744618461  -705921988 -1296928483 -1781364139  -986419854
#
#      Author: C. J. Pickard (cjp20@cam.ac.uk)
#                Space group: Cc
#

%BLOCK LATTICE_ABC
      4.91273      4.91273      9.28548
     83.64993     83.64993     64.17737
%ENDBLOCK LATTICE_ABC

%BLOCK POSITIONS_FRAC
  Li  -0.1228780   0.1808162   0.0646104 SPIN=   0.00000
  Li   0.1808162  -0.1228780  -0.4353896 SPIN=   0.00000
  Fe  -0.2495203  -0.3135478   0.3319860 SPIN=   4.00000
  Fe  -0.3135478  -0.2495203  -0.1680140 SPIN=   4.00000
   O   0.4771228   0.3389280   0.1739430 SPIN=   0.00000
   O   0.3728929   0.1983403  -0.0548302 SPIN=   0.00000
   O   0.2938052   0.7249849  -0.0310832 SPIN=   0.00000
   O  -0.0514893   0.5281510   0.1067147 SPIN=   0.00000
   S   0.2730829   0.4476011   0.0486860 SPIN=   0.00000
   O   0.3389280   0.4771228  -0.3260570 SPIN=   0.00000
   O   0.1983403   0.3728929  -0.5548302 SPIN=   0.00000
   O   0.7249849   0.2938052  -0.5310832 SPIN=   0.00000
   O   0.5281510  -0.0514893  -0.3932853 SPIN=   0.00000
   S   0.4476011   0.2730829  -0.4513140 SPIN=   0.00000
   F  -0.0783609   0.2051823  -0.1855589 SPIN=   0.00000
   F   0.2051823  -0.0783609   0.3144411 SPIN=   0.00000
%ENDBLOCK POSITIONS_FRAC

# Note: total spin =   8.00

KPOINTS_MP_SPACING 0.07

%BLOCK SPECIES_POT
QC5
%ENDBLOCK SPECIES_POT

SNAP_TO_SYMMETRY
SYMMETRY_GENERATE

