#              Generated by Buildcell
#
# at 04:05:44 (GMT+1.0) 4th August 2020
# in /lustre/scratch/uccabz1/launch_tmp
# on node-c12c-022
# by uccabz1
#
# compiler GCC version 4.9.2
# options -cpp -iprefix /lustre/shared/ucl/apps/gcc/4.9.2/bin/../lib/gcc/x86_64-unknown-linux-gnu/4.9.2/ -mtune=corei7 -march=x86-64 -g -Og
#
# seed   494959383   633797561 -1840174420  1011500297   -26538733  1795228771 -1610920732 -1437826259 -1883554318   722437137  1630874735  1305864249
#
#      Author: C. J. Pickard (cjp20@cam.ac.uk)
#                Space group: C2/c
#

%BLOCK LATTICE_ABC
      5.38482      5.38482      7.48303
     93.89354     93.89354    111.78572
%ENDBLOCK LATTICE_ABC

%BLOCK POSITIONS_FRAC
  Li   0.1483239  -0.1483239   0.2500000 SPIN=   0.00000
  Li  -0.1483239   0.1483239  -0.2500000 SPIN=   0.00000
  Fe   0.4813197  -0.4813197   0.2500000 SPIN=   4.00000
  Fe  -0.4813197   0.4813197  -0.2500000 SPIN=   4.00000
   O   0.0826861   0.5051115  -0.3505114 SPIN=   0.00000
   O   0.2015905   0.1032630  -0.3479912 SPIN=   0.00000
   O  -0.5051115  -0.0826861  -0.1494886 SPIN=   0.00000
   O  -0.1032630  -0.2015905  -0.1520088 SPIN=   0.00000
   O  -0.0826861  -0.5051115   0.3505114 SPIN=   0.00000
   O  -0.2015905  -0.1032630   0.3479912 SPIN=   0.00000
   O   0.5051115   0.0826861   0.1494886 SPIN=   0.00000
   O   0.1032630   0.2015905   0.1520088 SPIN=   0.00000
   S  -0.1526202   0.1526202   0.2500000 SPIN=   0.00000
   S   0.1526202  -0.1526202  -0.2500000 SPIN=   0.00000
   F   0.5000000   0.5000000  -0.0000000 SPIN=   0.00000
   F  -0.5000000   0.5000000   0.5000000 SPIN=   0.00000
%ENDBLOCK POSITIONS_FRAC

# Note: total spin =   8.00

KPOINTS_MP_SPACING 0.07

%BLOCK SPECIES_POT
QC5
%ENDBLOCK SPECIES_POT

SNAP_TO_SYMMETRY
SYMMETRY_GENERATE

