#              Generated by Buildcell
#
# at 02:51:24 (GMT+1.0) 19th August 2020
# in /scratch/scratch/uccabz1/launch_tmp
# on node-k10d-018
# by uccabz1
#
# compiler GCC version 4.9.2
# options -cpp -iprefix /scratch/UCL/applications/gcc/4.9.2/bin/../lib/gcc/x86_64-unknown-linux-gnu/4.9.2/ -mtune=corei7 -march=x86-64 -g -O2
#
# seed  2038173904  1876674691  -281165563  1545555612  1512250219  -389219758  -192356894  1711044389   503883613  -812764897  1427483323  -528310504
#
#      Author: C. J. Pickard (cjp20@cam.ac.uk)
#                Space group: P21
#

%BLOCK LATTICE_ABC
      4.32294      4.63419     10.69703
     90.00000     90.00000    111.04730
%ENDBLOCK LATTICE_ABC

%BLOCK POSITIONS_FRAC
  Li  -0.2820795   0.3380038   0.4826197 SPIN=   0.00000
  Li   0.2820795  -0.3380038  -0.0173803 SPIN=   0.00000
  Fe  -0.3947612   0.3103644   0.1406297 SPIN=   4.00000
  Fe   0.3947612  -0.3103644  -0.3593703 SPIN=   4.00000
   O  -0.1096237  -0.3943626   0.3372882 SPIN=   0.00000
   O   0.3330807   0.1108753   0.3789838 SPIN=   0.00000
   O  -0.1914311  -0.0457774   0.4986675 SPIN=   0.00000
   O  -0.1855553   0.0900689   0.2747053 SPIN=   0.00000
   S  -0.0383824  -0.0597989   0.3724112 SPIN=   0.00000
   O   0.1096237   0.3943626  -0.1627118 SPIN=   0.00000
   O  -0.3330807  -0.1108753  -0.1210162 SPIN=   0.00000
   O   0.1914311   0.0457774  -0.0013325 SPIN=   0.00000
   O   0.1855553  -0.0900689  -0.2252947 SPIN=   0.00000
   S   0.0383824   0.0597989  -0.1275888 SPIN=   0.00000
   F   0.3002365  -0.4306539   0.1626269 SPIN=   0.00000
   F  -0.3002365   0.4306539  -0.3373731 SPIN=   0.00000
%ENDBLOCK POSITIONS_FRAC

# Note: total spin =   8.00

KPOINTS_MP_SPACING 0.07

%BLOCK SPECIES_POT
QC5
%ENDBLOCK SPECIES_POT

SNAP_TO_SYMMETRY
SYMMETRY_GENERATE

