#              Generated by Buildcell
#
# at 05:29:04 (GMT+1.0) 4th August 2020
# in /lustre/scratch/uccabz1/launch_tmp
# on node-c12k-033
# by uccabz1
#
# compiler GCC version 4.9.2
# options -cpp -iprefix /lustre/shared/ucl/apps/gcc/4.9.2/bin/../lib/gcc/x86_64-unknown-linux-gnu/4.9.2/ -mtune=corei7 -march=x86-64 -g -Og
#
# seed -2094462190  -484135927  -904343433  1222037754   165558015 -1205451276  1668639620   488013472     4579805   523363747  -808620771 -1529418033
#
#      Author: C. J. Pickard (cjp20@cam.ac.uk)
#                Space group: Cm
#

%BLOCK LATTICE_ABC
      3.87707      7.71530      7.71530
    119.93111     90.19998     90.19998
%ENDBLOCK LATTICE_ABC

%BLOCK POSITIONS_FRAC
  Li   0.3329742  -0.1630752   0.1567059 SPIN=   0.00000
  Li   0.3329742   0.1567059  -0.1630752 SPIN=   0.00000
  Fe  -0.1684836  -0.4537729  -0.1731684 SPIN=   4.00000
  Fe  -0.1684836  -0.1731684  -0.4537729 SPIN=   4.00000
   O   0.1446969  -0.0023074   0.4522286 SPIN=   0.00000
   O  -0.0043539   0.3269144   0.4912336 SPIN=   0.00000
   O   0.5378413   0.1602604   0.3234296 SPIN=   0.00000
   O   0.4759383   0.2997471   0.6883353 SPIN=   0.00000
   S   0.2885306   0.1961536   0.4888068 SPIN=   0.00000
   O   0.1446969   0.4522286  -0.0023074 SPIN=   0.00000
   O  -0.0043539   0.4912336   0.3269144 SPIN=   0.00000
   O   0.5378413   0.3234296   0.1602604 SPIN=   0.00000
   O   0.4759383   0.6883353   0.2997471 SPIN=   0.00000
   S   0.2885306   0.4888068   0.1961536 SPIN=   0.00000
   F  -0.1521166  -0.1909871   0.0836714 SPIN=   0.00000
   F  -0.1521166   0.0836714  -0.1909871 SPIN=   0.00000
%ENDBLOCK POSITIONS_FRAC

# Note: total spin =   8.00

KPOINTS_MP_SPACING 0.07

%BLOCK SPECIES_POT
QC5
%ENDBLOCK SPECIES_POT

SNAP_TO_SYMMETRY
SYMMETRY_GENERATE

