#              Generated by Buildcell
#
# at 00:43:24 (GMT+1.0) 19th August 2020
# in /lustre/scratch/uccabz1/launch_tmp
# on node-c12f-018
# by uccabz1
#
# compiler GCC version 4.9.2
# options -cpp -iprefix /lustre/shared/ucl/apps/gcc/4.9.2/bin/../lib/gcc/x86_64-unknown-linux-gnu/4.9.2/ -mtune=corei7 -march=x86-64 -g -Og
#
# seed  -303061124  1388593084  1111199410  -207144648  -465609660  1602127455  -273760252  -170272282 -1708696100  1732275533 -1692146652 -1335053061
#
#      Author: C. J. Pickard (cjp20@cam.ac.uk)
#                Space group: P-1
#

%BLOCK LATTICE_ABC
      5.31055      6.33366      6.40747
     68.61825     87.68733     85.31678
%ENDBLOCK LATTICE_ABC

%BLOCK POSITIONS_FRAC
  Li   0.2399982   0.4545606   0.3198615 SPIN=   0.00000
  Li  -0.2399982  -0.4545606  -0.3198615 SPIN=   0.00000
  Fe   0.2585330  -0.1760433  -0.3231049 SPIN=   4.00000
  Fe  -0.2585330   0.1760433   0.3231049 SPIN=   4.00000
   O   0.5201295   0.3139065  -0.0080792 SPIN=   0.00000
   O   0.2474439   0.0880724  -0.1371870 SPIN=   0.00000
   O   0.0975679   0.4766091  -0.1614161 SPIN=   0.00000
   O   0.1354444   0.1644951   0.2085791 SPIN=   0.00000
   S   0.2501464   0.2607708  -0.0245258 SPIN=   0.00000
   O  -0.5201295  -0.3139065   0.0080792 SPIN=   0.00000
   O  -0.2474439  -0.0880724   0.1371870 SPIN=   0.00000
   O  -0.0975679  -0.4766091   0.1614161 SPIN=   0.00000
   O  -0.1354444  -0.1644951  -0.2085791 SPIN=   0.00000
   S  -0.2501464  -0.2607708   0.0245258 SPIN=   0.00000
   F  -0.2335782   0.2928612  -0.4229062 SPIN=   0.00000
   F   0.2335782  -0.2928612   0.4229062 SPIN=   0.00000
%ENDBLOCK POSITIONS_FRAC

# Note: total spin =   8.00

KPOINTS_MP_SPACING 0.07

%BLOCK SPECIES_POT
QC5
%ENDBLOCK SPECIES_POT

SNAP_TO_SYMMETRY
SYMMETRY_GENERATE

