#              Generated by Buildcell
#
# at 01:51:00 (GMT+1.0) 4th August 2020
# in /lustre/scratch/uccabz1/launch_tmp
# on node-c12p-018
# by uccabz1
#
# compiler GCC version 4.9.2
# options -cpp -iprefix /lustre/shared/ucl/apps/gcc/4.9.2/bin/../lib/gcc/x86_64-unknown-linux-gnu/4.9.2/ -mtune=corei7 -march=x86-64 -g -Og
#
# seed  -450578207 -1623041116   178488882  -195533209   628042079  1158713961  2072409179  1066677950  -685967039 -2055805858 -1495892793 -1415440158
#
#      Author: C. J. Pickard (cjp20@cam.ac.uk)
#                Space group: Cm
#

%BLOCK LATTICE_ABC
      5.58905      5.58905      6.40473
     90.02080     90.02080     91.48889
%ENDBLOCK LATTICE_ABC

%BLOCK POSITIONS_FRAC
  Li   0.1718817   0.1718817   0.0354544 SPIN=   0.00000
  Li  -0.3281180  -0.3281180   0.0077882 SPIN=   0.00000
  Fe  -0.3278289   0.1724794   0.2405722 SPIN=   4.00000
  Fe   0.1724794  -0.3278289   0.2405722 SPIN=   4.00000
   O   0.3570262   0.0756303  -0.5745640 SPIN=   0.00000
   O   0.6644378  -0.0541249  -0.3236056 SPIN=   0.00000
   O   0.3696487  -0.3489673  -0.4665510 SPIN=   0.00000
   O   0.2398443  -0.0416091  -0.2155627 SPIN=   0.00000
   O   0.0756303   0.3570262  -0.5745640 SPIN=   0.00000
   O  -0.0541249   0.6644378  -0.3236056 SPIN=   0.00000
   O  -0.3489673   0.3696487  -0.4665510 SPIN=   0.00000
   O  -0.0416091   0.2398443  -0.2155627 SPIN=   0.00000
   S   0.1669558   0.1669558  -0.4085683 SPIN=   0.00000
   S  -0.3330537  -0.3330537  -0.4088779 SPIN=   0.00000
   F   0.4173592   0.4173592   0.0913174 SPIN=   0.00000
   F  -0.0834469  -0.0834469   0.0915282 SPIN=   0.00000
%ENDBLOCK POSITIONS_FRAC

# Note: total spin =   8.00

KPOINTS_MP_SPACING 0.07

%BLOCK SPECIES_POT
QC5
%ENDBLOCK SPECIES_POT

SNAP_TO_SYMMETRY
SYMMETRY_GENERATE

