#              Generated by Buildcell
#
# at 22:03:43 (GMT+1.0) 18th August 2020
# in /lustre/scratch/uccabz1/launch_tmp
# on node-c12g-028
# by uccabz1
#
# compiler GCC version 4.9.2
# options -cpp -iprefix /lustre/shared/ucl/apps/gcc/4.9.2/bin/../lib/gcc/x86_64-unknown-linux-gnu/4.9.2/ -mtune=corei7 -march=x86-64 -g -Og
#
# seed -1603883393  1044550376  1867063485   978828007   639676790  1670781865 -1783220595   518155170 -1053077167  -866053190 -1026500367  1146435172
#
#      Author: C. J. Pickard (cjp20@cam.ac.uk)
#                Space group: P2
#

%BLOCK LATTICE_ABC
      4.51618      5.92005      7.52015
     90.00000     95.88231     90.00000
%ENDBLOCK LATTICE_ABC

%BLOCK POSITIONS_FRAC
  Li   0.0000000   0.4813683   0.5000000 SPIN=   0.00000
  Li  -0.0000000   0.2449810   0.0000000 SPIN=   0.00000
  Fe  -0.4599890   0.2576420   0.2545774 SPIN=   4.00000
  Fe   0.4599890   0.2576420  -0.2545774 SPIN=   4.00000
   O   0.0035045  -0.1999136  -0.3359377 SPIN=   0.00000
   O   0.2334254  -0.0292978  -0.0545771 SPIN=   0.00000
   O   0.5289695  -0.0747804  -0.3118022 SPIN=   0.00000
   O   0.3868170  -0.4106749  -0.1439882 SPIN=   0.00000
   O  -0.0035045  -0.1999136   0.3359377 SPIN=   0.00000
   O  -0.2334254  -0.0292978   0.0545771 SPIN=   0.00000
   O  -0.5289695  -0.0747804   0.3118022 SPIN=   0.00000
   O  -0.3868170  -0.4106749   0.1439882 SPIN=   0.00000
   S   0.0000000  -0.0624031   0.5000000 SPIN=   0.00000
   S  -0.5000000  -0.1858859  -0.0000000 SPIN=   0.00000
   F  -0.1247589   0.4091288  -0.2357237 SPIN=   0.00000
   F   0.1247589   0.4091288   0.2357237 SPIN=   0.00000
%ENDBLOCK POSITIONS_FRAC

# Note: total spin =   8.00

KPOINTS_MP_SPACING 0.07

%BLOCK SPECIES_POT
QC5
%ENDBLOCK SPECIES_POT

SNAP_TO_SYMMETRY
SYMMETRY_GENERATE

