#              Generated by Buildcell
#
# at 21:20:44 (GMT+1.0) 18th August 2020
# in /scratch/scratch/uccabz1/launch_tmp
# on node-k10b-023
# by uccabz1
#
# compiler GCC version 4.9.2
# options -cpp -iprefix /scratch/UCL/applications/gcc/4.9.2/bin/../lib/gcc/x86_64-unknown-linux-gnu/4.9.2/ -mtune=corei7 -march=x86-64 -g -O2
#
# seed  1109604531  1729794918  1196415934  2001210187 -1858208603  -215493027 -1557664889  2015385923 -1635434180  -906999457 -1853884198   881712782
#
#      Author: C. J. Pickard (cjp20@cam.ac.uk)
#                Space group: Imm2
#

%BLOCK LATTICE_ABC
      6.41216      6.41216      6.41216
    101.43581    113.14205    114.12432
%ENDBLOCK LATTICE_ABC

%BLOCK POSITIONS_FRAC
  Li   0.1772797   0.4272797  -0.2500000 SPIN=   0.00000
  Li  -0.3227203   0.4272797   0.2500000 SPIN=   0.00000
  Fe  -0.3170718  -0.0695378   0.2475341 SPIN=   4.00000
  Fe  -0.3170718   0.4353941  -0.2475341 SPIN=   4.00000
   O  -0.1603250  -0.1383916  -0.3002134 SPIN=   0.00000
   O  -0.6439551  -0.4441686  -0.4780666 SPIN=   0.00000
   O   0.1618218   0.1398884   0.3002134 SPIN=   0.00000
   O   0.0338980  -0.1658885   0.4780666 SPIN=   0.00000
   O  -0.1603250   0.1398884  -0.0219334 SPIN=   0.00000
   O  -0.6439551  -0.1658885  -0.1997866 SPIN=   0.00000
   O   0.1618218  -0.1383916   0.0219334 SPIN=   0.00000
   O   0.0338980  -0.4441686   0.1997866 SPIN=   0.00000
   S   0.0849323   0.0849323  -0.0000000 SPIN=   0.00000
   S   0.2622183  -0.2377817   0.5000000 SPIN=   0.00000
   F  -0.2377817   0.2622183  -0.5000000 SPIN=   0.00000
   F  -0.4150677  -0.4150677   0.0000000 SPIN=   0.00000
%ENDBLOCK POSITIONS_FRAC

# Note: total spin =   8.00

KPOINTS_MP_SPACING 0.07

%BLOCK SPECIES_POT
QC5
%ENDBLOCK SPECIES_POT

SNAP_TO_SYMMETRY
SYMMETRY_GENERATE

