#              Generated by Buildcell
#
# at 19:59:02 (GMT+1.0) 18th August 2020
# in /lustre/scratch/uccabz1/launch_tmp
# on node-c12e-001
# by uccabz1
#
# compiler GCC version 4.9.2
# options -cpp -iprefix /lustre/shared/ucl/apps/gcc/4.9.2/bin/../lib/gcc/x86_64-unknown-linux-gnu/4.9.2/ -mtune=corei7 -march=x86-64 -g -Og
#
# seed  1861090588   -73569199  -827505545 -1073587824  1173135958  -580523664   917921306 -1948654499  1788667892  1049925093 -1853140793 -1392264306
#
#      Author: C. J. Pickard (cjp20@cam.ac.uk)
#                Space group: P2
#

%BLOCK LATTICE_ABC
      4.16840      6.57409      7.35436
     90.00000     97.07540     90.00000
%ENDBLOCK LATTICE_ABC

%BLOCK POSITIONS_FRAC
  Li  -0.4429446  -0.2211458  -0.2379600 SPIN=   0.00000
  Li   0.4429446  -0.2211458   0.2379600 SPIN=   0.00000
  Fe  -0.0000000  -0.0438264   0.5000000 SPIN=   0.83757
  Fe   0.0000000   0.0608817   0.0000000 SPIN=   7.16243
   O   0.7234782  -0.4954633  -0.2576724 SPIN=   0.00000
   O   0.1974098  -0.6728469  -0.3177321 SPIN=   0.00000
   O   0.2628175  -0.3285909  -0.4442835 SPIN=   0.00000
   O   0.2552482  -0.3746768  -0.1108525 SPIN=   0.00000
   O  -0.7234782  -0.4954633   0.2576724 SPIN=   0.00000
   O  -0.1974098  -0.6728469   0.3177321 SPIN=   0.00000
   O  -0.2628175  -0.3285909   0.4442835 SPIN=   0.00000
   O  -0.2552482  -0.3746768   0.1108525 SPIN=   0.00000
   S  -0.5000000   0.4726991   0.5000000 SPIN=   0.00000
   S  -0.0000000  -0.4399411  -0.0000000 SPIN=   0.00000
   F  -0.1974051   0.0150825  -0.2662165 SPIN=   0.00000
   F   0.1974051   0.0150825   0.2662165 SPIN=   0.00000
%ENDBLOCK POSITIONS_FRAC

# Note: total spin =   8.00

KPOINTS_MP_SPACING 0.07

%BLOCK SPECIES_POT
QC5
%ENDBLOCK SPECIES_POT

SNAP_TO_SYMMETRY
SYMMETRY_GENERATE

