#              Generated by Buildcell
#
# at 04:57:31 (GMT+1.0) 4th August 2020
# in /lustre/scratch/uccabz1/launch_tmp
# on node-c12n-034
# by uccabz1
#
# compiler GCC version 4.9.2
# options -cpp -iprefix /lustre/shared/ucl/apps/gcc/4.9.2/bin/../lib/gcc/x86_64-unknown-linux-gnu/4.9.2/ -mtune=corei7 -march=x86-64 -g -Og
#
# seed  1543851015 -1647185680  1889718954  1036054928   782502300   733865030   955099768  -640662469  -263243221  1309757808 -1509928643   -42619489
#
#      Author: C. J. Pickard (cjp20@cam.ac.uk)
#                Space group: Pmn21
#

%BLOCK LATTICE_ABC
      4.07769      6.56000      7.47674
     90.00000     90.00000     90.00000
%ENDBLOCK LATTICE_ABC

%BLOCK POSITIONS_FRAC
  Li  -0.3218896   0.0000000   0.3601789 SPIN=   0.00000
  Li   0.3218896   0.5000000  -0.1398211 SPIN=   0.00000
  Fe  -0.2936086   0.0000000  -0.2504691 SPIN=   4.00000
  Fe   0.2936086   0.5000000   0.2495309 SPIN=   4.00000
   O  -0.2989047  -0.3208729  -0.3033294 SPIN=   0.00000
   O   0.0553653  -0.1693885  -0.0697249 SPIN=   0.00000
   O   0.2989047  -0.1791271   0.1966706 SPIN=   0.00000
   O  -0.0553653  -0.3306115   0.4302751 SPIN=   0.00000
   O   0.2989047   0.1791271   0.1966706 SPIN=   0.00000
   O  -0.0553653   0.3306115   0.4302751 SPIN=   0.00000
   O  -0.2989047   0.3208729  -0.3033294 SPIN=   0.00000
   O   0.0553653   0.1693885  -0.0697249 SPIN=   0.00000
   S   0.1772671   0.0000000   0.0962610 SPIN=   0.00000
   S  -0.1772671   0.5000000  -0.4037390 SPIN=   0.00000
   F  -0.2734024   0.5000000   0.0960372 SPIN=   0.00000
   F   0.2734024   0.0000000  -0.4039628 SPIN=   0.00000
%ENDBLOCK POSITIONS_FRAC

# Note: total spin =   8.00

KPOINTS_MP_SPACING 0.07

%BLOCK SPECIES_POT
QC5
%ENDBLOCK SPECIES_POT

SNAP_TO_SYMMETRY
SYMMETRY_GENERATE

