#              Generated by Buildcell
#
# at 00:10:20 (GMT+1.0) 19th August 2020
# in /lustre/scratch/uccabz1/launch_tmp
# on node-c12o-024
# by uccabz1
#
# compiler GCC version 4.9.2
# options -cpp -iprefix /lustre/shared/ucl/apps/gcc/4.9.2/bin/../lib/gcc/x86_64-unknown-linux-gnu/4.9.2/ -mtune=corei7 -march=x86-64 -g -Og
#
# seed   564137188  -104881424 -2147341210   486873763   586203823  1507105433  1888628694  -129861043   406208595  1682719518  1066438865 -1503231919
#
#      Author: C. J. Pickard (cjp20@cam.ac.uk)
#                Space group: Cc
#

%BLOCK LATTICE_ABC
      3.92978      7.37513      8.00708
    114.43587     99.05858    101.00949
%ENDBLOCK LATTICE_ABC

%BLOCK POSITIONS_FRAC
  Li   0.0057097   0.1598644   0.4452577 SPIN=   0.00000
  Li   0.0604520  -0.2853933  -0.4452577 SPIN=   0.00000
  Fe  -0.2491500   0.0468342  -0.2228980 SPIN=   4.00000
  Fe   0.4737481   0.2697323   0.2228980 SPIN=   4.00000
   O   0.0493944  -0.1330832   0.3625209 SPIN=   0.00000
   O  -0.5157440  -0.1434717   0.1672651 SPIN=   0.00000
   O  -0.5358004  -0.3303571   0.3623639 SPIN=   0.00000
   O  -0.3067259  -0.4586269   0.0765656 SPIN=   0.00000
   S  -0.3272190  -0.2663847   0.2421789 SPIN=   0.00000
   O   0.1868735   0.5043960  -0.3625209 SPIN=   0.00000
   O  -0.1830091   0.6892632  -0.1672651 SPIN=   0.00000
   O  -0.3981643   0.3072790  -0.3623639 SPIN=   0.00000
   O   0.1167085   0.4648074  -0.0765656 SPIN=   0.00000
   S  -0.0693979   0.4914364  -0.2421789 SPIN=   0.00000
   F  -0.0627664   0.2573943   0.2290777 SPIN=   0.00000
   F   0.2081559   0.0283165  -0.2290777 SPIN=   0.00000
%ENDBLOCK POSITIONS_FRAC

# Note: total spin =   8.00

KPOINTS_MP_SPACING 0.07

%BLOCK SPECIES_POT
QC5
%ENDBLOCK SPECIES_POT

SNAP_TO_SYMMETRY
SYMMETRY_GENERATE

