#              Generated by Buildcell
#
# at 00:10:53 (GMT+1.0) 19th August 2020
# in /lustre/scratch/uccabz1/launch_tmp
# on node-c12i-026
# by uccabz1
#
# compiler GCC version 4.9.2
# options -cpp -iprefix /lustre/shared/ucl/apps/gcc/4.9.2/bin/../lib/gcc/x86_64-unknown-linux-gnu/4.9.2/ -mtune=corei7 -march=x86-64 -g -Og
#
# seed  1391050676  -391554364 -2016535375  -578770471  1948351203  -132244074  2040096578  -764789203   562339775 -1101248847  1932403525  -353204589
#
#      Author: C. J. Pickard (cjp20@cam.ac.uk)
#                Space group: P21
#

%BLOCK LATTICE_ABC
      3.96970      6.60709      7.68822
     97.33032     90.00000     90.00000
%ENDBLOCK LATTICE_ABC

%BLOCK POSITIONS_FRAC
  Li   0.0146648   0.2554634  -0.4627773 SPIN=   0.00000
  Li  -0.4853352  -0.2554634   0.4627773 SPIN=   0.00000
  Fe   0.1350873  -0.3067923   0.1386201 SPIN=   4.00000
  Fe  -0.3649127   0.3067923  -0.1386201 SPIN=   4.00000
   O  -0.1453593  -0.0568807  -0.2740772 SPIN=   0.00000
   O  -0.1459293  -0.3877890  -0.1552164 SPIN=   0.00000
   O  -0.6661326  -0.2639863  -0.2842656 SPIN=   0.00000
   O  -0.4544594  -0.0928829  -0.0001599 SPIN=   0.00000
   S  -0.3529701  -0.2003847  -0.1784298 SPIN=   0.00000
   O   0.3546407   0.0568807   0.2740772 SPIN=   0.00000
   O   0.3540707   0.3877890   0.1552164 SPIN=   0.00000
   O  -0.1661326   0.2639863   0.2842656 SPIN=   0.00000
   O   0.0455406   0.0928829   0.0001599 SPIN=   0.00000
   S   0.1470299   0.2003847   0.1784298 SPIN=   0.00000
   F   0.0045625  -0.2846397   0.3813115 SPIN=   0.00000
   F  -0.4954375   0.2846397  -0.3813115 SPIN=   0.00000
%ENDBLOCK POSITIONS_FRAC

# Note: total spin =   8.00

KPOINTS_MP_SPACING 0.07

%BLOCK SPECIES_POT
QC5
%ENDBLOCK SPECIES_POT

SNAP_TO_SYMMETRY
SYMMETRY_GENERATE

