#              Generated by Buildcell
#
# at 19:16:15 (GMT+1.0) 18th August 2020
# in /scratch/scratch/uccabz1/launch_tmp
# on node-k10e-035
# by uccabz1
#
# compiler GCC version 4.9.2
# options -cpp -iprefix /scratch/UCL/applications/gcc/4.9.2/bin/../lib/gcc/x86_64-unknown-linux-gnu/4.9.2/ -mtune=corei7 -march=x86-64 -g -O2
#
# seed  -508844369   -91930753   -99060022   542156562  2092318323   990262210   543298823  1573898164 -1834070650  1839400783 -2037880837   725689614
#
#      Author: C. J. Pickard (cjp20@cam.ac.uk)
#                Space group: P21
#

%BLOCK LATTICE_ABC
      4.28899      5.05427      9.22921
     90.00000     91.49270     90.00000
%ENDBLOCK LATTICE_ABC

%BLOCK POSITIONS_FRAC
  Li  -0.3765138  -0.1210674  -0.2287401 SPIN=   0.00000
  Li   0.3765138   0.3789326   0.2287401 SPIN=   0.00000
  Fe  -0.2445137   0.3755350  -0.4008447 SPIN=   4.00000
  Fe   0.2445137  -0.1244650   0.4008447 SPIN=   4.00000
   O  -0.1136476   0.0489293   0.1075197 SPIN=   0.00000
   O   0.0157993  -0.4234482   0.1461023 SPIN=   0.00000
   O  -0.3825390  -0.2954982  -0.0396998 SPIN=   0.00000
   O  -0.4948276  -0.2492350   0.2207517 SPIN=   0.00000
   S  -0.2438037  -0.2298130   0.1086685 SPIN=   0.00000
   O   0.1136476   0.5489293  -0.1075197 SPIN=   0.00000
   O  -0.0157993   0.0765518  -0.1461023 SPIN=   0.00000
   O   0.3825390   0.2045018   0.0396998 SPIN=   0.00000
   O   0.4948276   0.2507650  -0.2207517 SPIN=   0.00000
   S   0.2438037   0.2701870  -0.1086685 SPIN=   0.00000
   F  -0.2579447   0.2702695   0.3628027 SPIN=   0.00000
   F   0.2579447  -0.2297305  -0.3628027 SPIN=   0.00000
%ENDBLOCK POSITIONS_FRAC

# Note: total spin =   8.00

KPOINTS_MP_SPACING 0.07

%BLOCK SPECIES_POT
QC5
%ENDBLOCK SPECIES_POT

SNAP_TO_SYMMETRY
SYMMETRY_GENERATE

