#              Generated by Buildcell
#
# at 02:27:20 (GMT+1.0) 19th August 2020
# in /lustre/scratch/uccabz1/launch_tmp
# on node-c12e-033
# by uccabz1
#
# compiler GCC version 4.9.2
# options -cpp -iprefix /lustre/shared/ucl/apps/gcc/4.9.2/bin/../lib/gcc/x86_64-unknown-linux-gnu/4.9.2/ -mtune=corei7 -march=x86-64 -g -Og
#
# seed   381961625  1043089116  2080841467  1891428208  1798786096  -737413822  -886280832  -644480340   412168135  1806722216  -860769471    74676414
#
#      Author: C. J. Pickard (cjp20@cam.ac.uk)
#                Space group: C2
#

%BLOCK LATTICE_ABC
      6.25477      6.25477      6.36581
    111.44729    111.44729    101.02310
%ENDBLOCK LATTICE_ABC

%BLOCK POSITIONS_FRAC
  Li  -0.1884595   0.1884595   0.5000000 SPIN=   0.00000
  Li   0.3248801  -0.3248801  -0.5000000 SPIN=   0.00000
  Fe  -0.2724589  -0.2497640   0.0137428 SPIN=   4.00000
  Fe   0.2497640   0.2724589  -0.0137428 SPIN=   4.00000
   O   0.0178249  -0.4970704  -0.5187644 SPIN=   0.00000
   O  -0.2626009  -0.4043136  -0.3374627 SPIN=   0.00000
   O  -0.3422153  -0.4130903  -0.7516056 SPIN=   0.00000
   O   0.0160478  -0.0731792  -0.3472700 SPIN=   0.00000
   S  -0.1427359  -0.3469134  -0.4887757 SPIN=   0.00000
   O   0.4970704  -0.0178249   0.5187644 SPIN=   0.00000
   O   0.4043136   0.2626009   0.3374627 SPIN=   0.00000
   O   0.4130903   0.3422153   0.7516056 SPIN=   0.00000
   O   0.0731792  -0.0160478   0.3472700 SPIN=   0.00000
   S   0.3469134   0.1427359   0.4887757 SPIN=   0.00000
   F   0.0485051  -0.4973753   0.0438208 SPIN=   0.00000
   F   0.4973753  -0.0485051  -0.0438208 SPIN=   0.00000
%ENDBLOCK POSITIONS_FRAC

# Note: total spin =   8.00

KPOINTS_MP_SPACING 0.07

%BLOCK SPECIES_POT
QC5
%ENDBLOCK SPECIES_POT

SNAP_TO_SYMMETRY
SYMMETRY_GENERATE

