#              Generated by Buildcell
#
# at 02:30:41 (GMT+1.0) 4th August 2020
# in /lustre/scratch/uccabz1/launch_tmp
# on node-c12m-020
# by uccabz1
#
# compiler GCC version 4.9.2
# options -cpp -iprefix /lustre/shared/ucl/apps/gcc/4.9.2/bin/../lib/gcc/x86_64-unknown-linux-gnu/4.9.2/ -mtune=corei7 -march=x86-64 -g -Og
#
# seed  1243200427  1559590004 -1618938736  -431841521  2088215285  -619308308   932907218  1246912688  1371897809 -1413972989  1433235535  1655565258
#
#      Author: C. J. Pickard (cjp20@cam.ac.uk)
#                Space group: Cmc21
#

%BLOCK LATTICE_ABC
      4.87334      5.64856      8.05336
     90.00000     90.00000    115.55509
%ENDBLOCK LATTICE_ABC

%BLOCK POSITIONS_FRAC
  Li   0.2138816   0.4277633   0.2968370 SPIN=   0.00000
  Li  -0.2138816  -0.4277633  -0.2031630 SPIN=   0.00000
  Fe   0.0386762   0.0773523  -0.0226348 SPIN=   4.00000
  Fe  -0.0386762  -0.0773523   0.4773652 SPIN=   4.00000
   O   0.1156198  -0.2875112   0.6190544 SPIN=   0.00000
   O   0.1349451  -0.2461401   0.3128631 SPIN=   0.00000
   O  -0.1156198   0.2875112   0.1190544 SPIN=   0.00000
   O  -0.1349451   0.2461401  -0.1871369 SPIN=   0.00000
   O   0.4031310   0.2875112   0.1190544 SPIN=   0.00000
   O   0.3810852   0.2461401  -0.1871369 SPIN=   0.00000
   O  -0.4031310  -0.2875112   0.6190544 SPIN=   0.00000
   O  -0.3810852  -0.2461401   0.3128631 SPIN=   0.00000
   S   0.4564158  -0.0871683  -0.2594999 SPIN=   0.00000
   S  -0.4564158   0.0871683   0.2405001 SPIN=   0.00000
   F  -0.1508899  -0.3017797   0.0341974 SPIN=   0.00000
   F   0.1508899   0.3017797  -0.4658026 SPIN=   0.00000
%ENDBLOCK POSITIONS_FRAC

# Note: total spin =   8.00

KPOINTS_MP_SPACING 0.07

%BLOCK SPECIES_POT
QC5
%ENDBLOCK SPECIES_POT

SNAP_TO_SYMMETRY
SYMMETRY_GENERATE

