#              Generated by Buildcell
#
# at 03:26:10 (GMT+1.0) 4th August 2020
# in /lustre/scratch/uccabz1/launch_tmp
# on node-c12f-025
# by uccabz1
#
# compiler GCC version 4.9.2
# options -cpp -iprefix /lustre/shared/ucl/apps/gcc/4.9.2/bin/../lib/gcc/x86_64-unknown-linux-gnu/4.9.2/ -mtune=corei7 -march=x86-64 -g -Og
#
# seed  1046614521   465934164  -392169378   704991317   781274973   -76516384  -152625369  -559457264 -2116245771   199329482  1673816902 -1768211022
#
#      Author: C. J. Pickard (cjp20@cam.ac.uk)
#                Space group: Ama2
#

%BLOCK LATTICE_ABC
      3.88775      6.78772      7.91025
     90.00000     90.00000    106.64142
%ENDBLOCK LATTICE_ABC

%BLOCK POSITIONS_FRAC
  Li   0.1611707   0.0000000  -0.0000000 SPIN=   0.00000
  Li   0.1611707   0.0000000  -0.5000000 SPIN=   0.00000
  Fe  -0.2475629   0.1892866  -0.2500000 SPIN=   4.00000
  Fe  -0.4368495  -0.1892866   0.2500000 SPIN=   4.00000
   O  -0.5472560  -0.2133274   0.6023673 SPIN=   0.00000
   O  -0.3316660  -0.4240470   0.3950231 SPIN=   0.00000
   O  -0.3339286   0.2133274  -0.6023673 SPIN=   0.00000
   O   0.0923811   0.4240470  -0.3950231 SPIN=   0.00000
   O  -0.3339286   0.2133274   0.1023673 SPIN=   0.00000
   O   0.0923811   0.4240470  -0.1049769 SPIN=   0.00000
   O  -0.5472560  -0.2133274  -0.1023673 SPIN=   0.00000
   O  -0.3316660  -0.4240470   0.1049769 SPIN=   0.00000
   S  -0.1763473   0.3549880   0.2500000 SPIN=   0.00000
   S   0.4686648  -0.3549880  -0.2500000 SPIN=   0.00000
   F   0.1963557   0.1003847  -0.2500000 SPIN=   0.00000
   F   0.0959710  -0.1003847   0.2500000 SPIN=   0.00000
%ENDBLOCK POSITIONS_FRAC

# Note: total spin =   8.00

KPOINTS_MP_SPACING 0.07

%BLOCK SPECIES_POT
QC5
%ENDBLOCK SPECIES_POT

SNAP_TO_SYMMETRY
SYMMETRY_GENERATE

