#              Generated by Buildcell
#
# at 22:26:41 (GMT+1.0) 18th August 2020
# in /lustre/scratch/uccabz1/launch_tmp
# on node-c12g-033
# by uccabz1
#
# compiler GCC version 4.9.2
# options -cpp -iprefix /lustre/shared/ucl/apps/gcc/4.9.2/bin/../lib/gcc/x86_64-unknown-linux-gnu/4.9.2/ -mtune=corei7 -march=x86-64 -g -Og
#
# seed -1718141279  -894800497  1584146468   -31229127 -1175322322   -11916333 -1191657244   888999458   460611851  1471949485  -465455785 -1433313413
#
#      Author: C. J. Pickard (cjp20@cam.ac.uk)
#                Space group: P-1
#

%BLOCK LATTICE_ABC
      4.05532      6.84041      7.70708
    100.69508     98.13482    103.91019
%ENDBLOCK LATTICE_ABC

%BLOCK POSITIONS_FRAC
  Li  -1.0000000  -0.0000000  -0.5000000 SPIN=   0.00000
  Li  -0.0000000  -0.5000000  -0.0000000 SPIN=   0.00000
  Fe  -0.3111331  -0.1685239   0.1203645 SPIN=   4.00000
  Fe   0.3111331   0.1685239  -0.1203645 SPIN=   4.00000
   O   0.4116077   0.4316427   0.2141561 SPIN=   0.00000
   O   0.4592557   0.3331506   0.5079982 SPIN=   0.00000
   O   0.4461069   0.0791179   0.2310466 SPIN=   0.00000
   S   0.3085249   0.2569388   0.3083032 SPIN=   0.00000
   O  -0.4116077  -0.4316427  -0.2141561 SPIN=   0.00000
   O  -0.4592557  -0.3331506  -0.5079982 SPIN=   0.00000
   O  -0.4461069  -0.0791179  -0.2310466 SPIN=   0.00000
   S  -0.3085249  -0.2569388  -0.3083032 SPIN=   0.00000
   O   0.0000000   0.5000000   0.5000000 SPIN=   0.00000
   O   0.5000000   0.0000000   0.5000000 SPIN=   0.00000
   F  -0.0311120   0.2975700  -0.2299912 SPIN=   0.00000
   F   0.0311120  -0.2975700   0.2299912 SPIN=   0.00000
%ENDBLOCK POSITIONS_FRAC

# Note: total spin =   8.00

KPOINTS_MP_SPACING 0.07

%BLOCK SPECIES_POT
QC5
%ENDBLOCK SPECIES_POT

SNAP_TO_SYMMETRY
SYMMETRY_GENERATE

