#              Generated by Buildcell
#
# at 02:35:13 (GMT+1.0) 4th August 2020
# in /lustre/scratch/uccabz1/launch_tmp
# on node-c12c-016
# by uccabz1
#
# compiler GCC version 4.9.2
# options -cpp -iprefix /lustre/shared/ucl/apps/gcc/4.9.2/bin/../lib/gcc/x86_64-unknown-linux-gnu/4.9.2/ -mtune=corei7 -march=x86-64 -g -Og
#
# seed -1959866433   826793942 -1436921066 -2056196117   278609495 -1271567755  -150450065   437148002    42683875  1401284951 -1128410589  -350934619
#
#      Author: C. J. Pickard (cjp20@cam.ac.uk)
#                Space group: Aea2
#

%BLOCK LATTICE_ABC
      5.63042      5.95533      6.59562
     90.00000    115.26655     90.00000
%ENDBLOCK LATTICE_ABC

%BLOCK POSITIONS_FRAC
  Li   0.4239078  -0.0000000   0.8478156 SPIN=   0.00000
  Li  -0.0760922   0.5000000  -0.1521844 SPIN=   0.00000
  Fe   0.1756784  -0.0000000   0.3513567 SPIN=   4.00000
  Fe  -0.3243216   0.5000000  -0.6486433 SPIN=   4.00000
   O  -0.3144873   0.2098973  -0.3687190 SPIN=   0.00000
   O   0.1237534   0.1687803  -0.0510510 SPIN=   0.00000
   O  -0.0542316  -0.2098973  -0.3687190 SPIN=   0.00000
   O  -0.1748044  -0.1687803  -0.0510510 SPIN=   0.00000
   O   0.4457684  -0.2901027   0.6312810 SPIN=   0.00000
   O   0.3251956  -0.3312197   0.9489490 SPIN=   0.00000
   O   0.1855127   0.2901027   0.6312810 SPIN=   0.00000
   O   0.6237534   0.3312197   0.9489490 SPIN=   0.00000
   S  -0.1062010  -0.0000000  -0.2124020 SPIN=   0.00000
   S   0.3937990   0.5000000   0.7875980 SPIN=   0.00000
   F  -0.4093007  -0.0000000  -0.8186014 SPIN=   0.00000
   F   0.0906993   0.5000000   0.1813986 SPIN=   0.00000
%ENDBLOCK POSITIONS_FRAC

# Note: total spin =   8.00

KPOINTS_MP_SPACING 0.07

%BLOCK SPECIES_POT
QC5
%ENDBLOCK SPECIES_POT

SNAP_TO_SYMMETRY
SYMMETRY_GENERATE

