#              Generated by Buildcell
#
# at 05:45:51 (GMT+1.0) 4th August 2020
# in /lustre/scratch/uccabz1/launch_tmp
# on node-c12p-015
# by uccabz1
#
# compiler GCC version 4.9.2
# options -cpp -iprefix /lustre/shared/ucl/apps/gcc/4.9.2/bin/../lib/gcc/x86_64-unknown-linux-gnu/4.9.2/ -mtune=corei7 -march=x86-64 -g -Og
#
# seed -1260522738   725108068 -1890633087    54856278 -1820822451  -791310144   931383138 -1259162824  1092969820  -299128148  1971346994  1537396576
#
#      Author: C. J. Pickard (cjp20@cam.ac.uk)
#                Space group: C2/c
#

%BLOCK LATTICE_ABC
      4.09085      4.91799     10.93434
     89.43277     88.63605     65.42357
%ENDBLOCK LATTICE_ABC

%BLOCK POSITIONS_FRAC
  Li  -0.1994769   0.3989538  -0.2500000 SPIN=   0.00000
  Li   0.1994769  -0.3989538   0.2500000 SPIN=   0.00000
  Fe   0.0000000   0.5000000  -0.0000000 SPIN=   4.00000
  Fe   0.5000000  -0.5000000   0.5000000 SPIN=   4.00000
   O  -0.5337018   0.8000749   0.3477296 SPIN=   0.00000
   O  -0.3412572   0.2543449   0.3261297 SPIN=   0.00000
   O  -0.2663731   0.8000749   0.1522704 SPIN=   0.00000
   O   0.0869123   0.2543449   0.1738703 SPIN=   0.00000
   O   0.5337018  -0.8000749  -0.3477296 SPIN=   0.00000
   O   0.3412572  -0.2543449  -0.3261297 SPIN=   0.00000
   O   0.2663731  -0.8000749  -0.1522704 SPIN=   0.00000
   O  -0.0869123  -0.2543449  -0.1738703 SPIN=   0.00000
   S  -0.4979989   0.9959977   0.2500000 SPIN=   0.00000
   S   0.4979989  -0.9959977  -0.2500000 SPIN=   0.00000
   F  -0.5000000   0.5000000  -0.0000000 SPIN=   0.00000
   F   0.0000000   0.5000000   0.5000000 SPIN=   0.00000
%ENDBLOCK POSITIONS_FRAC

# Note: total spin =   8.00

KPOINTS_MP_SPACING 0.07

%BLOCK SPECIES_POT
QC5
%ENDBLOCK SPECIES_POT

SNAP_TO_SYMMETRY
SYMMETRY_GENERATE

