#              Generated by Buildcell
#
# at 21:20:53 (GMT+1.0) 18th August 2020
# in /lustre/scratch/uccabz1/launch_tmp
# on node-c12f-008
# by uccabz1
#
# compiler GCC version 4.9.2
# options -cpp -iprefix /lustre/shared/ucl/apps/gcc/4.9.2/bin/../lib/gcc/x86_64-unknown-linux-gnu/4.9.2/ -mtune=corei7 -march=x86-64 -g -Og
#
# seed -1497247087   247164080 -1376854199 -2109817172  -599288012  1892952482 -1719753721  1476630258   152777328   807734198  -575257870   810953137
#
#      Author: C. J. Pickard (cjp20@cam.ac.uk)
#                Space group: P21
#

%BLOCK LATTICE_ABC
      4.02194      5.34454      9.34690
     90.00000     95.47203     90.00000
%ENDBLOCK LATTICE_ABC

%BLOCK POSITIONS_FRAC
  Li  -0.2345251   0.2961646   0.0698581 SPIN=   0.00000
  Li   0.2345251  -0.2038354  -0.0698581 SPIN=   0.00000
  Fe   0.3827636   0.0873082   0.3406370 SPIN=   4.00000
  Fe  -0.3827636  -0.4126918  -0.3406370 SPIN=   4.00000
   O  -0.0416902  -0.4126661   0.1851689 SPIN=   0.00000
   O   0.2879217  -0.4126884   0.4226927 SPIN=   0.00000
   O  -0.2466643  -0.6442233   0.3885818 SPIN=   0.00000
   O  -0.2466698  -0.1811578   0.3885981 SPIN=   0.00000
   S  -0.0617756  -0.4126839   0.3462604 SPIN=   0.00000
   O   0.0416902   0.0873339  -0.1851689 SPIN=   0.00000
   O  -0.2879217   0.0873116  -0.4226927 SPIN=   0.00000
   O   0.2466643  -0.1442233  -0.3885818 SPIN=   0.00000
   O   0.2466698   0.3188422  -0.3885981 SPIN=   0.00000
   S   0.0617756   0.0873161  -0.3462604 SPIN=   0.00000
   F   0.2770071   0.0873047   0.1205207 SPIN=   0.00000
   F  -0.2770071  -0.4126953  -0.1205207 SPIN=   0.00000
%ENDBLOCK POSITIONS_FRAC

# Note: total spin =   8.00

KPOINTS_MP_SPACING 0.07

%BLOCK SPECIES_POT
QC5
%ENDBLOCK SPECIES_POT

SNAP_TO_SYMMETRY
SYMMETRY_GENERATE

