#              Generated by Buildcell
#
# at 01:18:34 (GMT+1.0) 19th August 2020
# in /lustre/scratch/uccabz1/launch_tmp
# on node-c12p-024
# by uccabz1
#
# compiler GCC version 4.9.2
# options -cpp -iprefix /lustre/shared/ucl/apps/gcc/4.9.2/bin/../lib/gcc/x86_64-unknown-linux-gnu/4.9.2/ -mtune=corei7 -march=x86-64 -g -Og
#
# seed  1159722055   143212602  -484303706  -119099582  -850981759   666853941  -854868233  -147929147   657520436  -698538184 -1732321662  -235716539
#
#      Author: C. J. Pickard (cjp20@cam.ac.uk)
#                Space group: Cmm2
#

%BLOCK LATTICE_ABC
      4.01394      7.45687      7.45687
    116.35274     90.00000     90.00000
%ENDBLOCK LATTICE_ABC

%BLOCK POSITIONS_FRAC
  Li  -0.0996834   0.3205375  -0.3205375 SPIN=   0.00000
  Li  -0.0996834  -0.3205375   0.3205375 SPIN=   0.00000
  Fe   0.2897438  -0.2408703  -0.2408703 SPIN=   4.00000
  Fe   0.2897438   0.2408703   0.2408703 SPIN=   4.00000
   O   0.2226639  -0.1419665  -0.4567640 SPIN=   0.00000
   O   0.7512430   0.0435854  -0.3350192 SPIN=   0.00000
   O   0.2226639   0.1419665   0.4567640 SPIN=   0.00000
   O   0.7512430  -0.0435854   0.3350192 SPIN=   0.00000
   O   0.2226639  -0.4567640  -0.1419665 SPIN=   0.00000
   O   0.7512430  -0.3350192   0.0435854 SPIN=   0.00000
   O   0.2226639   0.4567640   0.1419665 SPIN=   0.00000
   O   0.7512430   0.3350192  -0.0435854 SPIN=   0.00000
   S   0.4321621  -0.5000000  -0.0000000 SPIN=   0.00000
   S   0.4321621   0.0000000   0.5000000 SPIN=   0.00000
   F  -0.1623086   0.2525760   0.2525760 SPIN=   0.00000
   F  -0.1623086  -0.2525760  -0.2525760 SPIN=   0.00000
%ENDBLOCK POSITIONS_FRAC

# Note: total spin =   8.00

KPOINTS_MP_SPACING 0.07

%BLOCK SPECIES_POT
QC5
%ENDBLOCK SPECIES_POT

SNAP_TO_SYMMETRY
SYMMETRY_GENERATE

