#              Generated by Buildcell
#
# at 02:49:54 (GMT+1.0) 4th August 2020
# in /lustre/scratch/uccabz1/launch_tmp
# on node-c12m-029
# by uccabz1
#
# compiler GCC version 4.9.2
# options -cpp -iprefix /lustre/shared/ucl/apps/gcc/4.9.2/bin/../lib/gcc/x86_64-unknown-linux-gnu/4.9.2/ -mtune=corei7 -march=x86-64 -g -Og
#
# seed  -866343862  2126560310  1202565000   831153503 -1462780456   191467992  -319713463   188803243  1130507014  -220889371  1556592580 -1073500500
#
#      Author: C. J. Pickard (cjp20@cam.ac.uk)
#                Space group: P-1
#

%BLOCK LATTICE_ABC
      3.98420      4.94286     10.19387
     85.04189     89.92584     89.99293
%ENDBLOCK LATTICE_ABC

%BLOCK POSITIONS_FRAC
  Li  -0.2497037   0.2599710   0.3951957 SPIN=   0.00000
  Li   0.2497037  -0.2599710  -0.3951957 SPIN=   0.00000
  Fe  -0.1435142   0.2584623  -0.2662315 SPIN=   4.00000
  Fe   0.1435142  -0.2584623   0.2662315 SPIN=   4.00000
   O   0.0946940   0.1807828   0.1640460 SPIN=   0.00000
   O  -0.2125110   0.3498092  -0.0374562 SPIN=   0.00000
   O  -0.4408116   0.4288053   0.1818895 SPIN=   0.00000
   O  -0.4405232  -0.0345710   0.1073057 SPIN=   0.00000
   S  -0.2497879   0.2312066   0.1039462 SPIN=   0.00000
   O  -0.0946940  -0.1807828  -0.1640460 SPIN=   0.00000
   O   0.2125110  -0.3498092   0.0374562 SPIN=   0.00000
   O   0.4408116  -0.4288053  -0.1818895 SPIN=   0.00000
   O   0.4405232   0.0345710  -0.1073057 SPIN=   0.00000
   S   0.2497879  -0.2312066  -0.1039462 SPIN=   0.00000
   F   0.7499127  -0.2654885  -0.4138628 SPIN=   0.00000
   F  -0.7499127   0.2654885   0.4138628 SPIN=   0.00000
%ENDBLOCK POSITIONS_FRAC

# Note: total spin =   8.00

KPOINTS_MP_SPACING 0.07

%BLOCK SPECIES_POT
QC5
%ENDBLOCK SPECIES_POT

SNAP_TO_SYMMETRY
SYMMETRY_GENERATE

