#              Generated by Buildcell
#
# at 00:38:25 (GMT+1.0) 19th August 2020
# in /scratch/scratch/uccabz1/launch_tmp
# on node-k10d-028
# by uccabz1
#
# compiler GCC version 4.9.2
# options -cpp -iprefix /scratch/UCL/applications/gcc/4.9.2/bin/../lib/gcc/x86_64-unknown-linux-gnu/4.9.2/ -mtune=corei7 -march=x86-64 -g -O2
#
# seed -1223528966  -603899910 -1765776693 -1107281255 -1454200997 -1552730020 -2146571528  1826981291   891556934  -649059710 -1449698895  1204905011
#
#      Author: C. J. Pickard (cjp20@cam.ac.uk)
#                Space group: P2
#

%BLOCK LATTICE_ABC
      3.94234      4.31194     11.82463
     95.74107     90.00000     90.00000
%ENDBLOCK LATTICE_ABC

%BLOCK POSITIONS_FRAC
  Li  -0.1954748   0.2421562   0.1529486 SPIN=   0.00000
  Li  -0.1954748  -0.2421562  -0.1529486 SPIN=   0.00000
  Fe   0.1996109  -0.2180100  -0.3760865 SPIN=   4.00000
  Fe   0.1996109   0.2180100   0.3760865 SPIN=   4.00000
   O   0.4339052  -0.4815491   0.0941048 SPIN=   0.00000
   O   0.3441558   0.0520642   0.1872286 SPIN=   0.00000
   O   0.0245810  -0.3906432   0.2526435 SPIN=   0.00000
   O  -0.1056723  -0.2062405   0.0658671 SPIN=   0.00000
   S   0.1742424  -0.2565922   0.1499610 SPIN=   0.00000
   O   0.4339052   0.4815491  -0.0941048 SPIN=   0.00000
   O   0.3441558  -0.0520642  -0.1872286 SPIN=   0.00000
   O   0.0245810   0.3906432  -0.2526435 SPIN=   0.00000
   O  -0.1056723   0.2062405  -0.0658671 SPIN=   0.00000
   S   0.1742424   0.2565922  -0.1499610 SPIN=   0.00000
   F  -0.3055464   0.2173962   0.3797748 SPIN=   0.00000
   F  -0.3055464  -0.2173962  -0.3797748 SPIN=   0.00000
%ENDBLOCK POSITIONS_FRAC

# Note: total spin =   8.00

KPOINTS_MP_SPACING 0.07

%BLOCK SPECIES_POT
QC5
%ENDBLOCK SPECIES_POT

SNAP_TO_SYMMETRY
SYMMETRY_GENERATE

