#              Generated by Buildcell
#
# at 22:29:31 (GMT+1.0) 18th August 2020
# in /lustre/scratch/uccabz1/launch_tmp
# on node-c12k-027
# by uccabz1
#
# compiler GCC version 4.9.2
# options -cpp -iprefix /lustre/shared/ucl/apps/gcc/4.9.2/bin/../lib/gcc/x86_64-unknown-linux-gnu/4.9.2/ -mtune=corei7 -march=x86-64 -g -Og
#
# seed -1255154271  1965536770  1619615864  1371174236   607088563 -1845902154 -1086565712   988114041  2048624603  1742540866   256384463  -249821157
#
#      Author: C. J. Pickard (cjp20@cam.ac.uk)
#                Space group: Cc
#

%BLOCK LATTICE_ABC
      5.07200      6.19610      7.46031
     76.59658     70.12728     65.83982
%ENDBLOCK LATTICE_ABC

%BLOCK POSITIONS_FRAC
  Li   0.3621193   0.3017289  -0.3690620 SPIN=   0.00000
  Li  -0.2947862  -0.1982711   0.1309380 SPIN=   0.00000
  Fe   0.0145559   0.2169043   0.1058257 SPIN=   4.00000
  Fe  -0.3372859  -0.2830957  -0.3941743 SPIN=   4.00000
   O   0.4979433  -0.5435236  -0.0897528 SPIN=   0.00000
   O   0.2446808  -0.1298519  -0.0048810 SPIN=   0.00000
   O   0.5380714  -0.4432037   0.1999681 SPIN=   0.00000
   O   0.0541726  -0.4436232   0.1925087 SPIN=   0.00000
   S   0.3337170  -0.3900506   0.0744608 SPIN=   0.00000
   O   0.1353331  -0.0435236  -0.5897528 SPIN=   0.00000
   O  -0.1099478   0.3701481  -0.5048810 SPIN=   0.00000
   O  -0.2948359   0.0567963  -0.3000319 SPIN=   0.00000
   O   0.1969419   0.0563768  -0.3074913 SPIN=   0.00000
   S  -0.0181272   0.1099494  -0.4255392 SPIN=   0.00000
   F   0.0236857  -0.4559681  -0.2395567 SPIN=   0.00000
   F  -0.3281609   0.0440319   0.2604433 SPIN=   0.00000
%ENDBLOCK POSITIONS_FRAC

# Note: total spin =   8.00

KPOINTS_MP_SPACING 0.07

%BLOCK SPECIES_POT
QC5
%ENDBLOCK SPECIES_POT

SNAP_TO_SYMMETRY
SYMMETRY_GENERATE

