#              Generated by Buildcell
#
# at 04:58:23 (GMT+1.0) 4th August 2020
# in /lustre/scratch/uccabz1/launch_tmp
# on node-c12p-023
# by uccabz1
#
# compiler GCC version 4.9.2
# options -cpp -iprefix /lustre/shared/ucl/apps/gcc/4.9.2/bin/../lib/gcc/x86_64-unknown-linux-gnu/4.9.2/ -mtune=corei7 -march=x86-64 -g -Og
#
# seed   806590059 -1314793152   322591432  -243592914  1418203102  1059125304  -160880207  1223930819  1860426647  -630082839  -397932403  -236731005
#
#      Author: C. J. Pickard (cjp20@cam.ac.uk)
#                Space group: P21212
#

%BLOCK LATTICE_ABC
      3.94331      6.33405      8.00733
     90.00000     90.00000     90.00000
%ENDBLOCK LATTICE_ABC

%BLOCK POSITIONS_FRAC
  Li  -0.5000000   0.0000000   0.4151744 SPIN=   0.00000
  Li  -0.0000000  -0.5000000  -0.4151744 SPIN=   0.00000
  Fe  -0.0000000   0.0000000  -0.2843605 SPIN=   4.00000
  Fe  -0.5000000  -0.5000000   0.2843605 SPIN=   4.00000
   O  -0.2497962  -0.5934624   0.0613707 SPIN=   0.00000
   O  -0.1968304  -0.2443792   0.1977402 SPIN=   0.00000
   O   0.2497962   0.5934624   0.0613707 SPIN=   0.00000
   O   0.1968304   0.2443792   0.1977402 SPIN=   0.00000
   O   0.2502038   0.0934624  -0.0613707 SPIN=   0.00000
   O   0.3031696  -0.2556208  -0.1977402 SPIN=   0.00000
   O  -0.2502038  -0.0934624  -0.0613707 SPIN=   0.00000
   O  -0.3031696   0.2556208  -0.1977402 SPIN=   0.00000
   S  -0.5000000   0.0000000   0.0607287 SPIN=   0.00000
   S  -0.0000000  -0.5000000  -0.0607287 SPIN=   0.00000
   F  -0.0000000   0.0000000   0.4524040 SPIN=   0.00000
   F   0.5000000  -0.5000000  -0.4524040 SPIN=   0.00000
%ENDBLOCK POSITIONS_FRAC

# Note: total spin =   8.00

KPOINTS_MP_SPACING 0.07

%BLOCK SPECIES_POT
QC5
%ENDBLOCK SPECIES_POT

SNAP_TO_SYMMETRY
SYMMETRY_GENERATE

