#              Generated by Buildcell
#
# at 03:41:50 (GMT+1.0) 4th August 2020
# in /lustre/scratch/uccabz1/launch_tmp
# on node-c12g-012
# by uccabz1
#
# compiler GCC version 4.9.2
# options -cpp -iprefix /lustre/shared/ucl/apps/gcc/4.9.2/bin/../lib/gcc/x86_64-unknown-linux-gnu/4.9.2/ -mtune=corei7 -march=x86-64 -g -Og
#
# seed  -765988614 -1260583137  -344191627 -1416847478  -370821338 -1946003922   253285339 -1600163108   664737870 -1850375202  1289826572 -1401199725
#
#      Author: C. J. Pickard (cjp20@cam.ac.uk)
#                Space group: Cc
#

%BLOCK LATTICE_ABC
      6.17472      6.17472      6.61520
     63.98864     63.98864     69.77052
%ENDBLOCK LATTICE_ABC

%BLOCK POSITIONS_FRAC
  Li   0.0457999   0.2706593   0.3101781 SPIN=   0.00000
  Li   0.2706593   0.0457999  -0.1898219 SPIN=   0.00000
  Fe   0.3419715  -0.3179574   0.2849584 SPIN=   4.00000
  Fe  -0.3179574   0.3419715  -0.2150416 SPIN=   4.00000
   O   0.1645550  -0.3169977   0.0503976 SPIN=   0.00000
   O   0.1561080  -0.3583975  -0.3015084 SPIN=   0.00000
   O  -0.1485618  -0.0404713  -0.1354147 SPIN=   0.00000
   O  -0.1722091  -0.4792382   0.0902664 SPIN=   0.00000
   S  -0.0000270  -0.2987762  -0.0740648 SPIN=   0.00000
   O  -0.3169977   0.1645550   0.5503976 SPIN=   0.00000
   O  -0.3583975   0.1561080   0.1984916 SPIN=   0.00000
   O  -0.0404713  -0.1485618   0.3645853 SPIN=   0.00000
   O  -0.4792382  -0.1722091   0.5902664 SPIN=   0.00000
   S  -0.2987762  -0.0000270   0.4259352 SPIN=   0.00000
   F   0.0564054   0.3559108  -0.4430152 SPIN=   0.00000
   F   0.3559108   0.0564054   0.0569848 SPIN=   0.00000
%ENDBLOCK POSITIONS_FRAC

# Note: total spin =   8.00

KPOINTS_MP_SPACING 0.07

%BLOCK SPECIES_POT
QC5
%ENDBLOCK SPECIES_POT

SNAP_TO_SYMMETRY
SYMMETRY_GENERATE

