#              Generated by Buildcell
#
# at 01:11:07 (GMT+1.0) 19th August 2020
# in /lustre/scratch/uccabz1/launch_tmp
# on node-c12a-015
# by uccabz1
#
# compiler GCC version 4.9.2
# options -cpp -iprefix /lustre/shared/ucl/apps/gcc/4.9.2/bin/../lib/gcc/x86_64-unknown-linux-gnu/4.9.2/ -mtune=corei7 -march=x86-64 -g -Og
#
# seed  -640662469  2039767199  1537915253 -1308740059   176379320   515425424    34032267  -727801902  -604980037  2126359303  1617425151  1547160219
#
#      Author: C. J. Pickard (cjp20@cam.ac.uk)
#                Space group: P-1
#

%BLOCK LATTICE_ABC
      4.37817      7.02342      7.55963
    117.54863    100.80956     92.75954
%ENDBLOCK LATTICE_ABC

%BLOCK POSITIONS_FRAC
  Li  -0.1933504  -0.4770947   0.2321961 SPIN=   0.00000
  Li   0.1933504   0.4770947  -0.2321961 SPIN=   0.00000
  Fe  -0.3409808   0.1950092   0.4167373 SPIN=   4.00000
  Fe   0.3409808  -0.1950092  -0.4167373 SPIN=   4.00000
   O   0.2596452   0.4896140   0.0391061 SPIN=   0.00000
   O  -0.1352720   0.1811554  -0.0371924 SPIN=   0.00000
   O   0.3867312   0.2526240   0.1949415 SPIN=   0.00000
   O   0.3395376   0.1119086  -0.1772202 SPIN=   0.00000
   S   0.2126605   0.2588255   0.0049087 SPIN=   0.00000
   O  -0.2596452  -0.4896140  -0.0391061 SPIN=   0.00000
   O   0.1352720  -0.1811554   0.0371924 SPIN=   0.00000
   O  -0.3867312  -0.2526240  -0.1949415 SPIN=   0.00000
   O  -0.3395376  -0.1119086   0.1772202 SPIN=   0.00000
   S  -0.2126605  -0.2588255  -0.0049087 SPIN=   0.00000
   F  -0.2354780  -0.2632660   0.4875476 SPIN=   0.00000
   F   0.2354780   0.2632660  -0.4875476 SPIN=   0.00000
%ENDBLOCK POSITIONS_FRAC

# Note: total spin =   8.00

KPOINTS_MP_SPACING 0.07

%BLOCK SPECIES_POT
QC5
%ENDBLOCK SPECIES_POT

SNAP_TO_SYMMETRY
SYMMETRY_GENERATE

