#              Generated by Buildcell
#
# at 05:30:26 (GMT+1.0) 4th August 2020
# in /lustre/scratch/uccabz1/launch_tmp
# on node-c12j-014
# by uccabz1
#
# compiler GCC version 4.9.2
# options -cpp -iprefix /lustre/shared/ucl/apps/gcc/4.9.2/bin/../lib/gcc/x86_64-unknown-linux-gnu/4.9.2/ -mtune=corei7 -march=x86-64 -g -Og
#
# seed  -974780753  -233623335 -1305848950  1393345893 -1160702364  1016193574 -1129146204   -47407920  1210718997 -2084798434   399194518 -1591988504
#
#      Author: C. J. Pickard (cjp20@cam.ac.uk)
#                Space group: P21/m
#

%BLOCK LATTICE_ABC
      3.99465      5.14692     10.17576
     90.00000     90.00000    107.06835
%ENDBLOCK LATTICE_ABC

%BLOCK POSITIONS_FRAC
  Li   0.3799978   0.0332069  -0.2500000 SPIN=   0.00000
  Li  -0.3799978  -0.0332069   0.2500000 SPIN=   0.00000
  Fe  -0.5000000  -0.5000000  -0.0000000 SPIN=   4.00000
  Fe   0.5000000   0.5000000  -0.5000000 SPIN=   4.00000
   O   0.1052315   0.2650617  -0.1374461 SPIN=   0.00000
   O  -0.0709391   0.6876620  -0.1361038 SPIN=   0.00000
   O  -0.1052315  -0.2650617   0.3625539 SPIN=   0.00000
   O   0.0709391  -0.6876620   0.3638962 SPIN=   0.00000
   O  -0.1052315  -0.2650617   0.1374461 SPIN=   0.00000
   O   0.0709391  -0.6876620   0.1361038 SPIN=   0.00000
   O   0.1052315   0.2650617  -0.3625539 SPIN=   0.00000
   O  -0.0709391   0.6876620  -0.3638962 SPIN=   0.00000
   S   0.0102657  -0.4724636   0.2500000 SPIN=   0.00000
   S  -0.0102657   0.4724636  -0.2500000 SPIN=   0.00000
   F   0.5000000   0.0000000   0.0000000 SPIN=   0.00000
   F  -0.5000000   0.0000000  -0.5000000 SPIN=   0.00000
%ENDBLOCK POSITIONS_FRAC

# Note: total spin =   8.00

KPOINTS_MP_SPACING 0.07

%BLOCK SPECIES_POT
QC5
%ENDBLOCK SPECIES_POT

SNAP_TO_SYMMETRY
SYMMETRY_GENERATE

