#              Generated by Buildcell
#
# at 04:24:45 (GMT+1.0) 4th August 2020
# in /lustre/scratch/uccabz1/launch_tmp
# on node-c12d-025
# by uccabz1
#
# compiler GCC version 4.9.2
# options -cpp -iprefix /lustre/shared/ucl/apps/gcc/4.9.2/bin/../lib/gcc/x86_64-unknown-linux-gnu/4.9.2/ -mtune=corei7 -march=x86-64 -g -Og
#
# seed  1079597594  1675480643   909211253   240606172  -591456839     2362145  1641725511  1772378377 -1765614512 -2038796076 -2133626153  -837016249
#
#      Author: C. J. Pickard (cjp20@cam.ac.uk)
#                Space group: Pc
#

%BLOCK LATTICE_ABC
      3.88185      6.01668      8.61178
     90.00000     96.09033     90.00000
%ENDBLOCK LATTICE_ABC

%BLOCK POSITIONS_FRAC
  Li  -0.3619095  -0.1884432   0.0673096 SPIN=   0.00000
  Li   0.1380905   0.1884432  -0.4326904 SPIN=   0.00000
  Fe  -0.3773286   0.3125543   0.1294973 SPIN=   4.00000
  Fe   0.1226714  -0.3125543  -0.3705027 SPIN=   4.00000
   O  -0.1372191  -0.1649638  -0.1271626 SPIN=   0.00000
   O   0.3162262   0.0687364  -0.2264004 SPIN=   0.00000
   O   0.2760913   0.0421952   0.0578988 SPIN=   0.00000
   O  -0.1739441   0.2449303  -0.1114003 SPIN=   0.00000
   S   0.0702886   0.0477245  -0.1017661 SPIN=   0.00000
   O  -0.6372191   0.1649638   0.3728374 SPIN=   0.00000
   O  -0.1837738  -0.0687364   0.2735996 SPIN=   0.00000
   O  -0.2239087  -0.0421952   0.5578988 SPIN=   0.00000
   O  -0.6739441  -0.2449303   0.3885997 SPIN=   0.00000
   S  -0.4297114  -0.0477245   0.3982339 SPIN=   0.00000
   F   0.0147995   0.4609238   0.2243136 SPIN=   0.00000
   F  -0.4852005  -0.4609238  -0.2756864 SPIN=   0.00000
%ENDBLOCK POSITIONS_FRAC

# Note: total spin =   8.00

KPOINTS_MP_SPACING 0.07

%BLOCK SPECIES_POT
QC5
%ENDBLOCK SPECIES_POT

SNAP_TO_SYMMETRY
SYMMETRY_GENERATE

