#              Generated by Buildcell
#
# at 22:31:41 (GMT+1.0) 18th August 2020
# in /lustre/scratch/uccabz1/launch_tmp
# on node-c12c-009
# by uccabz1
#
# compiler GCC version 4.9.2
# options -cpp -iprefix /lustre/shared/ucl/apps/gcc/4.9.2/bin/../lib/gcc/x86_64-unknown-linux-gnu/4.9.2/ -mtune=corei7 -march=x86-64 -g -Og
#
# seed    26194163   775291365  -331950273 -1008910278   503114823   500331145  2093153245  -315224630  1591415947  -761320753   -31781387  -314381162
#
#      Author: C. J. Pickard (cjp20@cam.ac.uk)
#                Space group: P-1
#

%BLOCK LATTICE_ABC
      4.59094      4.89347      9.09016
     90.93037     90.95104    101.56843
%ENDBLOCK LATTICE_ABC

%BLOCK POSITIONS_FRAC
  Li  -0.2370883   0.0756449   0.3242461 SPIN=   0.00000
  Li   0.2370883  -0.0756449  -0.3242461 SPIN=   0.00000
  Fe  -0.2649636  -0.2629524  -0.1187799 SPIN=   4.00000
  Fe   0.2649636   0.2629524   0.1187799 SPIN=   4.00000
   O  -0.2748130   0.4107926  -0.4863526 SPIN=   0.00000
   O   0.1034303   0.3169980  -0.3073103 SPIN=   0.00000
   O  -0.2870756  -0.0710673  -0.4042833 SPIN=   0.00000
   O  -0.4183551   0.2797539  -0.2318945 SPIN=   0.00000
   S  -0.2192034   0.2341193  -0.3574602 SPIN=   0.00000
   O   0.2748130  -0.4107926   0.4863526 SPIN=   0.00000
   O  -0.1034303  -0.3169980   0.3073103 SPIN=   0.00000
   O   0.2870756   0.0710673   0.4042833 SPIN=   0.00000
   O   0.4183551  -0.2797539   0.2318945 SPIN=   0.00000
   S   0.2192034  -0.2341193   0.3574602 SPIN=   0.00000
   F  -0.2063761   0.1853219   0.1220863 SPIN=   0.00000
   F   0.2063761  -0.1853219  -0.1220863 SPIN=   0.00000
%ENDBLOCK POSITIONS_FRAC

# Note: total spin =   8.00

KPOINTS_MP_SPACING 0.07

%BLOCK SPECIES_POT
QC5
%ENDBLOCK SPECIES_POT

SNAP_TO_SYMMETRY
SYMMETRY_GENERATE

