#              Generated by Buildcell
#
# at 23:54:13 (GMT+1.0) 18th August 2020
# in /scratch/scratch/uccabz1/launch_tmp
# on node-k10g-003
# by uccabz1
#
# compiler GCC version 4.9.2
# options -cpp -iprefix /scratch/UCL/applications/gcc/4.9.2/bin/../lib/gcc/x86_64-unknown-linux-gnu/4.9.2/ -mtune=corei7 -march=x86-64 -g -O2
#
# seed  -556356658   188001253  -114868437 -1214144112   590577137  1779576253  -573899742 -1457904128     8609842  -853419232  1419104057   464331490
#
#      Author: C. J. Pickard (cjp20@cam.ac.uk)
#                Space group: P-1
#

%BLOCK LATTICE_ABC
      5.23350      5.86986      6.90898
     78.78694     80.56138     75.41732
%ENDBLOCK LATTICE_ABC

%BLOCK POSITIONS_FRAC
  Li   0.0758296  -0.1351472   0.2522474 SPIN=   0.00000
  Li  -0.0758296   0.1351472  -0.2522474 SPIN=   0.00000
  Fe  -0.2863456  -0.3428928  -0.2012748 SPIN=   4.00000
  Fe   0.2863456   0.3428928   0.2012748 SPIN=   4.00000
   O  -0.4985614  -0.4328588   0.2529757 SPIN=   0.00000
   O  -0.3470095  -0.0604984   0.1158680 SPIN=   0.00000
   O  -0.1624257  -0.3247255   0.4097330 SPIN=   0.00000
   O  -0.6292204  -0.0937358   0.4400065 SPIN=   0.00000
   S  -0.4093043  -0.2279546   0.3046458 SPIN=   0.00000
   O   0.4985614   0.4328588  -0.2529757 SPIN=   0.00000
   O   0.3470095   0.0604984  -0.1158680 SPIN=   0.00000
   O   0.1624257   0.3247255  -0.4097330 SPIN=   0.00000
   O   0.6292204   0.0937358  -0.4400065 SPIN=   0.00000
   S   0.4093043   0.2279546  -0.3046458 SPIN=   0.00000
   F   0.0248564  -0.2058980  -0.2169942 SPIN=   0.00000
   F  -0.0248564   0.2058980   0.2169942 SPIN=   0.00000
%ENDBLOCK POSITIONS_FRAC

# Note: total spin =   8.00

KPOINTS_MP_SPACING 0.07

%BLOCK SPECIES_POT
QC5
%ENDBLOCK SPECIES_POT

SNAP_TO_SYMMETRY
SYMMETRY_GENERATE

