#              Generated by Buildcell
#
# at 04:23:08 (GMT+1.0) 4th August 2020
# in /lustre/scratch/uccabz1/launch_tmp
# on node-c12n-012
# by uccabz1
#
# compiler GCC version 4.9.2
# options -cpp -iprefix /lustre/shared/ucl/apps/gcc/4.9.2/bin/../lib/gcc/x86_64-unknown-linux-gnu/4.9.2/ -mtune=corei7 -march=x86-64 -g -Og
#
# seed -1874356544   454999564 -1804886765 -1306522629 -1788604894   -95145317  -718267443 -1590942053  1772254974   556648283   535808659 -1418823003
#
#      Author: C. J. Pickard (cjp20@cam.ac.uk)
#                Space group: Cc
#

%BLOCK LATTICE_ABC
      6.03381      6.42517      6.57787
     76.29558     62.70031     61.99525
%ENDBLOCK LATTICE_ABC

%BLOCK POSITIONS_FRAC
  Li   0.0550384   0.4768650   0.1704960 SPIN=   0.00000
  Li   0.2976007  -0.0231350  -0.3295040 SPIN=   0.00000
  Fe  -0.4332530   0.4816936   0.1100726 SPIN=   4.00000
  Fe  -0.1585132  -0.0183064  -0.3899274 SPIN=   4.00000
   O  -0.0030569   0.2958908  -0.2055066 SPIN=   0.00000
   O   0.0133050   0.6429288  -0.1216755 SPIN=   0.00000
   O   0.2372201   0.5135176  -0.5204506 SPIN=   0.00000
   O   0.4346959   0.2720693  -0.2410901 SPIN=   0.00000
   S   0.1705410   0.4311016  -0.2721807 SPIN=   0.00000
   O  -0.0873273  -0.2041092   0.2944934 SPIN=   0.00000
   O  -0.5345582   0.1429288   0.3783245 SPIN=   0.00000
   O  -0.2302871   0.0135176  -0.0204506 SPIN=   0.00000
   O  -0.4656750  -0.2279307   0.2589099 SPIN=   0.00000
   S  -0.3294619  -0.0688984   0.2278193 SPIN=   0.00000
   F   0.4179193  -0.2262620  -0.1095721 SPIN=   0.00000
   F  -0.0820852   0.2737380   0.3904279 SPIN=   0.00000
%ENDBLOCK POSITIONS_FRAC

# Note: total spin =   8.00

KPOINTS_MP_SPACING 0.07

%BLOCK SPECIES_POT
QC5
%ENDBLOCK SPECIES_POT

SNAP_TO_SYMMETRY
SYMMETRY_GENERATE

