#              Generated by Buildcell
#
# at 01:45:10 (GMT+1.0) 19th August 2020
# in /scratch/scratch/uccabz1/launch_tmp
# on node-k10g-003
# by uccabz1
#
# compiler GCC version 4.9.2
# options -cpp -iprefix /scratch/UCL/applications/gcc/4.9.2/bin/../lib/gcc/x86_64-unknown-linux-gnu/4.9.2/ -mtune=corei7 -march=x86-64 -g -O2
#
# seed  -511402114  -821553416   676095454   -91258859   940394735  -351563765  -834316123   848118551   922849187 -1795093997 -1021908582   929987523
#
#      Author: C. J. Pickard (cjp20@cam.ac.uk)
#                Space group: Cc
#

%BLOCK LATTICE_ABC
      4.14689      5.30906      9.98619
     86.56505     81.17521     67.01137
%ENDBLOCK LATTICE_ABC

%BLOCK POSITIONS_FRAC
  Li  -0.0036097  -0.1664708   0.3116649 SPIN=   0.00000
  Li   0.3299195   0.1664708  -0.1883351 SPIN=   0.00000
  Fe   0.1250314  -0.2825702  -0.0859141 SPIN=   4.00000
  Fe   0.3424612   0.2825702   0.4140859 SPIN=   4.00000
   O  -0.3819470   0.2438078  -0.3521793 SPIN=   0.00000
   O   0.1033032  -0.0200838  -0.5287020 SPIN=   0.00000
   O  -0.2145398  -0.2549826  -0.3733091 SPIN=   0.00000
   O   0.1876011  -0.0803937  -0.2870907 SPIN=   0.00000
   S  -0.0763956  -0.0279131  -0.3853203 SPIN=   0.00000
   O   0.3618608  -0.2438078   0.1478207 SPIN=   0.00000
   O   0.5832193   0.0200838  -0.0287020 SPIN=   0.00000
   O   0.0304776   0.2549826   0.1266909 SPIN=   0.00000
   O   0.6072074   0.0803937   0.2129093 SPIN=   0.00000
   S   0.3956913   0.0279131   0.1146797 SPIN=   0.00000
   F  -0.1629921   0.3988236  -0.1167215 SPIN=   0.00000
   F  -0.2641685  -0.3988236   0.3832785 SPIN=   0.00000
%ENDBLOCK POSITIONS_FRAC

# Note: total spin =   8.00

KPOINTS_MP_SPACING 0.07

%BLOCK SPECIES_POT
QC5
%ENDBLOCK SPECIES_POT

SNAP_TO_SYMMETRY
SYMMETRY_GENERATE

