#              Generated by Buildcell
#
# at 18:02:30 (GMT+1.0) 18th August 2020
# in /lustre/scratch/uccabz1/launch_tmp
# on node-c12g-036
# by uccabz1
#
# compiler GCC version 4.9.2
# options -cpp -iprefix /lustre/shared/ucl/apps/gcc/4.9.2/bin/../lib/gcc/x86_64-unknown-linux-gnu/4.9.2/ -mtune=corei7 -march=x86-64 -g -Og
#
# seed -1082526013  -138127451    39678031   397451120 -1440270230 -1393065573  1805525045 -1330945363  -765084605     1756321 -1280384347 -1439165567
#
#      Author: C. J. Pickard (cjp20@cam.ac.uk)
#                Space group: Cmm2
#

%BLOCK LATTICE_ABC
      3.91855      7.64264      7.64264
    119.09530     90.00000     90.00000
%ENDBLOCK LATTICE_ABC

%BLOCK POSITIONS_FRAC
  Li  -0.4579418  -0.1466111   0.1466111 SPIN=   0.00000
  Li  -0.4579418   0.1466111  -0.1466111 SPIN=   0.00000
  Fe   0.0559377   0.0000000  -0.5000000 SPIN=   4.00000
  Fe   0.0559377   0.5000000   0.0000000 SPIN=   4.00000
   O  -0.6538842  -0.2533035  -0.4566556 SPIN=   0.00000
   O  -0.1199201  -0.1017132  -0.2717514 SPIN=   0.00000
   O  -0.6538842   0.2533035   0.4566556 SPIN=   0.00000
   O  -0.1199201   0.1017132   0.2717514 SPIN=   0.00000
   O  -0.6538842  -0.4566556  -0.2533035 SPIN=   0.00000
   O  -0.1199201  -0.2717514  -0.1017132 SPIN=   0.00000
   O  -0.6538842   0.4566556   0.2533035 SPIN=   0.00000
   O  -0.1199201   0.2717514   0.1017132 SPIN=   0.00000
   S   0.0450269  -0.0000000   0.0000000 SPIN=   0.00000
   S   0.3446162  -0.5000000  -0.5000000 SPIN=   0.00000
   F  -0.1551926   0.7313410   0.2686590 SPIN=   0.00000
   F  -0.1551926  -0.7313410  -0.2686590 SPIN=   0.00000
%ENDBLOCK POSITIONS_FRAC

# Note: total spin =   8.00

KPOINTS_MP_SPACING 0.07

%BLOCK SPECIES_POT
QC5
%ENDBLOCK SPECIES_POT

SNAP_TO_SYMMETRY
SYMMETRY_GENERATE

