#              Generated by Buildcell
#
# at 05:44:48 (GMT+1.0) 4th August 2020
# in /lustre/scratch/uccabz1/launch_tmp
# on node-c12h-012
# by uccabz1
#
# compiler GCC version 4.9.2
# options -cpp -iprefix /lustre/shared/ucl/apps/gcc/4.9.2/bin/../lib/gcc/x86_64-unknown-linux-gnu/4.9.2/ -mtune=corei7 -march=x86-64 -g -Og
#
# seed  1244001987  -223117480  2074427384   934770387   958943932  1763837699  1820626521  -996438101   116949082  -877762972  1534885696  -308538402
#
#      Author: C. J. Pickard (cjp20@cam.ac.uk)
#                Space group: Cm
#

%BLOCK LATTICE_ABC
      5.56836      5.56836      6.50152
     94.94793     94.94793     91.28570
%ENDBLOCK LATTICE_ABC

%BLOCK POSITIONS_FRAC
  Li  -0.3900860  -0.3900860  -0.0382361 SPIN=   0.00000
  Li   0.0283978   0.0283978   0.4495115 SPIN=   0.00000
  Fe  -0.3805995  -0.3805995   0.4243817 SPIN=   6.02558
  Fe   0.1923409   0.1923409   0.0582255 SPIN=   1.97442
   O  -0.3235752   0.3959097  -0.3516171 SPIN=   0.00000
   O  -0.3277128  -0.0481778  -0.4219062 SPIN=   0.00000
   O  -0.5795582   0.1401146  -0.1604601 SPIN=   0.00000
   O  -0.1355472   0.1449793  -0.0893390 SPIN=   0.00000
   S  -0.3415984   0.1582064  -0.2558306 SPIN=   0.00000
   O   0.3959097  -0.3235752  -0.3516171 SPIN=   0.00000
   O  -0.0481778  -0.3277128  -0.4219062 SPIN=   0.00000
   O   0.1401146  -0.5795582  -0.1604601 SPIN=   0.00000
   O   0.1449793  -0.1355472  -0.0893390 SPIN=   0.00000
   S   0.1582064  -0.3415984  -0.2558306 SPIN=   0.00000
   F  -0.2115174  -0.2115174   0.1793739 SPIN=   0.00000
   F   0.3067520   0.3067520   0.3200849 SPIN=   0.00000
%ENDBLOCK POSITIONS_FRAC

# Note: total spin =   8.00

KPOINTS_MP_SPACING 0.07

%BLOCK SPECIES_POT
QC5
%ENDBLOCK SPECIES_POT

SNAP_TO_SYMMETRY
SYMMETRY_GENERATE

