#              Generated by Buildcell
#
# at 02:05:41 (GMT+1.0) 19th August 2020
# in /lustre/scratch/uccabz1/launch_tmp
# on node-c12l-020
# by uccabz1
#
# compiler GCC version 4.9.2
# options -cpp -iprefix /lustre/shared/ucl/apps/gcc/4.9.2/bin/../lib/gcc/x86_64-unknown-linux-gnu/4.9.2/ -mtune=corei7 -march=x86-64 -g -Og
#
# seed -1836995264  1377456582 -1331173765   782556377  -715608440  1245227460  1396532477   422754038  1908702301  1425634765 -1770663115   647808409
#
#      Author: C. J. Pickard (cjp20@cam.ac.uk)
#                Space group: P-1
#

%BLOCK LATTICE_ABC
      4.59767      6.12544      7.19716
     85.44992     86.31757     82.44069
%ENDBLOCK LATTICE_ABC

%BLOCK POSITIONS_FRAC
  Li  -0.1903053   0.0349284  -0.2552007 SPIN=   0.00000
  Li   0.1903053  -0.0349284   0.2552007 SPIN=   0.00000
  Fe  -0.2514351  -0.2748109   0.0949284 SPIN=   4.00000
  Fe   0.2514351   0.2748109  -0.0949284 SPIN=   4.00000
   O   0.5570684  -0.3451856  -0.1472768 SPIN=   0.00000
   O   0.0416451  -0.2494356  -0.2349008 SPIN=   0.00000
   O   0.4404538  -0.3104660  -0.4801091 SPIN=   0.00000
   S   0.3585138  -0.2206672  -0.2909226 SPIN=   0.00000
   O  -0.5570684   0.3451856   0.1472768 SPIN=   0.00000
   O  -0.0416451   0.2494356   0.2349008 SPIN=   0.00000
   O  -0.4404538   0.3104660   0.4801091 SPIN=   0.00000
   S  -0.3585138   0.2206672   0.2909226 SPIN=   0.00000
   O  -0.0000000  -0.0000000   0.5000000 SPIN=   0.00000
   O   0.0000000  -0.0000000  -0.0000000 SPIN=   0.00000
   F   0.0411559  -0.3304237   0.2682312 SPIN=   0.00000
   F  -0.0411559   0.3304237  -0.2682312 SPIN=   0.00000
%ENDBLOCK POSITIONS_FRAC

# Note: total spin =   8.00

KPOINTS_MP_SPACING 0.07

%BLOCK SPECIES_POT
QC5
%ENDBLOCK SPECIES_POT

SNAP_TO_SYMMETRY
SYMMETRY_GENERATE

