#              Generated by Buildcell
#
# at 23:34:30 (GMT+1.0) 18th August 2020
# in /lustre/scratch/uccabz1/launch_tmp
# on node-c12a-018
# by uccabz1
#
# compiler GCC version 4.9.2
# options -cpp -iprefix /lustre/shared/ucl/apps/gcc/4.9.2/bin/../lib/gcc/x86_64-unknown-linux-gnu/4.9.2/ -mtune=corei7 -march=x86-64 -g -Og
#
# seed -1768331264  -787041291   442275045 -1555456436 -1856870434  -238748923  -603074074   528927987  -732083243   892973112  1566820420  -197673105
#
#      Author: C. J. Pickard (cjp20@cam.ac.uk)
#                Space group: P-1
#

%BLOCK LATTICE_ABC
      3.92844      6.66915      7.81069
     87.50396     86.09683     78.54548
%ENDBLOCK LATTICE_ABC

%BLOCK POSITIONS_FRAC
  Li  -0.5000000   0.0000000   0.0000000 SPIN=   0.00000
  Li   0.5000000  -0.0000000   0.5000000 SPIN=   0.00000
  Fe  -0.0000000  -0.5000000   0.0000000 SPIN=   7.16950
  Fe   0.0000000   0.5000000  -0.5000000 SPIN=   0.83050
   O   0.3684925   0.1109146   0.2635679 SPIN=   0.00000
   O  -0.2180410   0.2802108   0.3753545 SPIN=   0.00000
   O  -0.0862047  -0.0937038   0.3340799 SPIN=   0.00000
   O  -0.1333742   0.1458388   0.0818747 SPIN=   0.00000
   S  -0.0172818   0.1108151   0.2637193 SPIN=   0.00000
   O  -0.3684925  -0.1109146  -0.2635679 SPIN=   0.00000
   O   0.2180410  -0.2802108  -0.3753545 SPIN=   0.00000
   O   0.0862047   0.0937038  -0.3340799 SPIN=   0.00000
   O   0.1333742  -0.1458388  -0.0818747 SPIN=   0.00000
   S   0.0172818  -0.1108151  -0.2637193 SPIN=   0.00000
   F   0.3677598   0.3496755  -0.1763767 SPIN=   0.00000
   F  -0.3677598  -0.3496755   0.1763767 SPIN=   0.00000
%ENDBLOCK POSITIONS_FRAC

# Note: total spin =   8.00

KPOINTS_MP_SPACING 0.07

%BLOCK SPECIES_POT
QC5
%ENDBLOCK SPECIES_POT

SNAP_TO_SYMMETRY
SYMMETRY_GENERATE

