#              Generated by Buildcell
#
# at 22:56:10 (GMT+1.0) 18th August 2020
# in /lustre/scratch/uccabz1/launch_tmp
# on node-c12k-027
# by uccabz1
#
# compiler GCC version 4.9.2
# options -cpp -iprefix /lustre/shared/ucl/apps/gcc/4.9.2/bin/../lib/gcc/x86_64-unknown-linux-gnu/4.9.2/ -mtune=corei7 -march=x86-64 -g -Og
#
# seed  -106269508 -1994780162 -1518433346   529870282  -611673843  1979164115 -1244304766   340722747  1749895339   386524243  -652755510  1434327079
#
#      Author: C. J. Pickard (cjp20@cam.ac.uk)
#                Space group: P21
#

%BLOCK LATTICE_ABC
      4.11980      6.65701      7.78126
    110.41617     90.00000     90.00000
%ENDBLOCK LATTICE_ABC

%BLOCK POSITIONS_FRAC
  Li  -0.1189550  -0.3513120  -0.1272529 SPIN=   0.00000
  Li   0.3810450   0.3513120   0.1272529 SPIN=   0.00000
  Fe   0.3402006  -0.2707576  -0.4932471 SPIN=   4.00000
  Fe  -0.1597994   0.2707576   0.4932471 SPIN=   4.00000
   O   0.6800384  -0.0298119   0.2757134 SPIN=   0.00000
   O   0.3678275  -0.0957696  -0.0105013 SPIN=   0.00000
   O   0.1611445   0.1602463   0.2828131 SPIN=   0.00000
   O   0.1609162  -0.2288386   0.2286683 SPIN=   0.00000
   S   0.3424816  -0.0485434   0.1941734 SPIN=   0.00000
   O   0.1800384   0.0298119  -0.2757134 SPIN=   0.00000
   O  -0.1321725   0.0957696   0.0105013 SPIN=   0.00000
   O  -0.3388555  -0.1602463  -0.2828131 SPIN=   0.00000
   O  -0.3390838   0.2288386  -0.2286683 SPIN=   0.00000
   S  -0.1575184   0.0485434  -0.1941734 SPIN=   0.00000
   F   0.2371682  -0.4814685  -0.2694918 SPIN=   0.00000
   F  -0.2628318   0.4814685   0.2694918 SPIN=   0.00000
%ENDBLOCK POSITIONS_FRAC

# Note: total spin =   8.00

KPOINTS_MP_SPACING 0.07

%BLOCK SPECIES_POT
QC5
%ENDBLOCK SPECIES_POT

SNAP_TO_SYMMETRY
SYMMETRY_GENERATE

