#              Generated by Buildcell
#
# at 02:30:56 (GMT+1.0) 4th August 2020
# in /lustre/scratch/uccabz1/launch_tmp
# on node-c12f-013
# by uccabz1
#
# compiler GCC version 4.9.2
# options -cpp -iprefix /lustre/shared/ucl/apps/gcc/4.9.2/bin/../lib/gcc/x86_64-unknown-linux-gnu/4.9.2/ -mtune=corei7 -march=x86-64 -g -Og
#
# seed  1941425520   305243814 -1459494666  2093567692  1796281164  1559679880  1702069951  1941507945   981576642  -885554505 -2085089375  1603976162
#
#      Author: C. J. Pickard (cjp20@cam.ac.uk)
#                Space group: Cc
#

%BLOCK LATTICE_ABC
      5.48282      5.76337      7.11902
    113.87774    102.34704     90.00000
%ENDBLOCK LATTICE_ABC

%BLOCK POSITIONS_FRAC
  Li  -0.4497748   0.0790731  -0.2564637 SPIN=   0.00000
  Li   0.0502252  -0.3355367  -0.2564637 SPIN=   0.00000
  Fe   0.4332222   0.4654493   0.4952844 SPIN=   4.00000
  Fe  -0.0667778   0.0298351   0.4952844 SPIN=   4.00000
   O   0.6362774  -0.1954846   0.2200207 SPIN=   0.00000
   O   0.2277288  -0.4208542  -0.0132105 SPIN=   0.00000
   O   0.3212971   0.0379583   0.0806460 SPIN=   0.00000
   O   0.2483951  -0.1030115   0.3511772 SPIN=   0.00000
   S   0.3584246  -0.1703480   0.1596584 SPIN=   0.00000
   O   0.1362774   0.4155054   0.2200207 SPIN=   0.00000
   O  -0.2722712   0.4076437  -0.0132105 SPIN=   0.00000
   O  -0.1787029   0.0426877   0.0806460 SPIN=   0.00000
   O  -0.2516049   0.4541887   0.3511772 SPIN=   0.00000
   S  -0.1415754   0.3300064   0.1596584 SPIN=   0.00000
   F   0.1940599   0.0801613  -0.2751171 SPIN=   0.00000
   F  -0.3059401  -0.3552784  -0.2751171 SPIN=   0.00000
%ENDBLOCK POSITIONS_FRAC

# Note: total spin =   8.00

KPOINTS_MP_SPACING 0.07

%BLOCK SPECIES_POT
QC5
%ENDBLOCK SPECIES_POT

SNAP_TO_SYMMETRY
SYMMETRY_GENERATE

