#              Generated by Buildcell
#
# at 02:07:32 (GMT+1.0) 4th August 2020
# in /lustre/scratch/uccabz1/launch_tmp
# on node-c12j-014
# by uccabz1
#
# compiler GCC version 4.9.2
# options -cpp -iprefix /lustre/shared/ucl/apps/gcc/4.9.2/bin/../lib/gcc/x86_64-unknown-linux-gnu/4.9.2/ -mtune=corei7 -march=x86-64 -g -Og
#
# seed   119605129 -1664243132   -21529710   123665352  1065719439 -1352046505  -141988764 -1871046493  2109679398 -2133221993  1661405354  1914347818
#
#      Author: C. J. Pickard (cjp20@cam.ac.uk)
#                Space group: P21
#

%BLOCK LATTICE_ABC
      4.49942      5.78087      7.69254
     90.00000     91.69090     90.00000
%ENDBLOCK LATTICE_ABC

%BLOCK POSITIONS_FRAC
  Li   0.2486308   0.2775184   0.4726625 SPIN=   0.00000
  Li  -0.2486308  -0.2224816  -0.4726625 SPIN=   0.00000
  Fe  -0.4703856  -0.1111689   0.1597049 SPIN=   4.00000
  Fe   0.4703856   0.3888311  -0.1597049 SPIN=   4.00000
   O   0.2025059  -0.2960750  -0.1949034 SPIN=   0.00000
   O  -0.2876325  -0.1061144  -0.1715691 SPIN=   0.00000
   O   0.1305997   0.1049890  -0.3005446 SPIN=   0.00000
   O   0.1378905   0.0228086   0.0152934 SPIN=   0.00000
   S   0.0458409  -0.0685979  -0.1629310 SPIN=   0.00000
   O  -0.2025059   0.2039250   0.1949034 SPIN=   0.00000
   O   0.2876325   0.3938856   0.1715691 SPIN=   0.00000
   O  -0.1305997   0.6049890   0.3005446 SPIN=   0.00000
   O  -0.1378905   0.5228086  -0.0152934 SPIN=   0.00000
   S  -0.0458409   0.4314021   0.1629310 SPIN=   0.00000
   F   0.2557966  -0.0557524   0.3825977 SPIN=   0.00000
   F  -0.2557966   0.4442476  -0.3825977 SPIN=   0.00000
%ENDBLOCK POSITIONS_FRAC

# Note: total spin =   8.00

KPOINTS_MP_SPACING 0.07

%BLOCK SPECIES_POT
QC5
%ENDBLOCK SPECIES_POT

SNAP_TO_SYMMETRY
SYMMETRY_GENERATE

