#              Generated by Buildcell
#
# at 03:55:11 (GMT+1.0) 4th August 2020
# in /lustre/scratch/uccabz1/launch_tmp
# on node-c12f-008
# by uccabz1
#
# compiler GCC version 4.9.2
# options -cpp -iprefix /lustre/shared/ucl/apps/gcc/4.9.2/bin/../lib/gcc/x86_64-unknown-linux-gnu/4.9.2/ -mtune=corei7 -march=x86-64 -g -Og
#
# seed  1663957065  1631940732  1149968670  1974330454  -133007400   787695456  -432902506   514802226  -101495135 -2112175690   918582287   941909329
#
#      Author: C. J. Pickard (cjp20@cam.ac.uk)
#                Space group: C2
#

%BLOCK LATTICE_ABC
      4.09677      7.48876      7.72232
    119.00447    103.21583     90.00000
%ENDBLOCK LATTICE_ABC

%BLOCK POSITIONS_FRAC
  Li  -0.4033242   0.4029004   0.6813675 SPIN=   0.00000
  Li   0.4033242  -0.2784671  -0.6813675 SPIN=   0.00000
  Fe   0.1010031  -0.3019917  -0.3302716 SPIN=   4.00000
  Fe  -0.1010031   0.0282799   0.3302716 SPIN=   4.00000
   O  -0.0364138  -0.0109702  -0.3168791 SPIN=   0.00000
   O  -0.5063716  -0.0748553  -0.1934708 SPIN=   0.00000
   O  -0.6151961   0.0456107  -0.4460258 SPIN=   0.00000
   O  -0.2920210   0.2817992  -0.0873714 SPIN=   0.00000
   S  -0.3625006   0.0603961  -0.2609368 SPIN=   0.00000
   O   0.0364138   0.3059089   0.3168791 SPIN=   0.00000
   O   0.5063716   0.1186154   0.1934708 SPIN=   0.00000
   O   0.6151961   0.4916365   0.4460258 SPIN=   0.00000
   O   0.2920210   0.3691706   0.0873714 SPIN=   0.00000
   S   0.3625006   0.3213328   0.2609368 SPIN=   0.00000
   F  -0.1402342  -0.2731008  -0.7454537 SPIN=   0.00000
   F   0.1402342   0.4723529   0.7454537 SPIN=   0.00000
%ENDBLOCK POSITIONS_FRAC

# Note: total spin =   8.00

KPOINTS_MP_SPACING 0.07

%BLOCK SPECIES_POT
QC5
%ENDBLOCK SPECIES_POT

SNAP_TO_SYMMETRY
SYMMETRY_GENERATE

