#              Generated by Buildcell
#
# at 04:34:01 (GMT+1.0) 4th August 2020
# in /lustre/scratch/uccabz1/launch_tmp
# on node-c12d-013
# by uccabz1
#
# compiler GCC version 4.9.2
# options -cpp -iprefix /lustre/shared/ucl/apps/gcc/4.9.2/bin/../lib/gcc/x86_64-unknown-linux-gnu/4.9.2/ -mtune=corei7 -march=x86-64 -g -Og
#
# seed -1539093256  1699097285  -437186946 -1021335283  2049948488  -934040016  1478661205  1031935166 -1920249811  -936271251  -521107112 -1179736819
#
#      Author: C. J. Pickard (cjp20@cam.ac.uk)
#                Space group: Pmn21
#

%BLOCK LATTICE_ABC
      4.15531      6.51460      7.38821
     90.00000     90.00000     90.00000
%ENDBLOCK LATTICE_ABC

%BLOCK POSITIONS_FRAC
  Li   0.1420270  -0.0000000  -0.0910485 SPIN=   0.00000
  Li  -0.3579730  -0.5000000   0.0910485 SPIN=   0.00000
  Fe   0.1410500  -0.0000000   0.3055834 SPIN=   4.00000
  Fe  -0.3589500  -0.5000000  -0.3055834 SPIN=   4.00000
   O  -0.2584810   0.1904771  -0.2583773 SPIN=   0.00000
   O   0.2599160   0.1788203  -0.4229882 SPIN=   0.00000
   O  -0.7584810   0.3095229   0.2583773 SPIN=   0.00000
   O  -0.2400840   0.3211797   0.4229882 SPIN=   0.00000
   O  -0.7584810  -0.3095229   0.2583773 SPIN=   0.00000
   O  -0.2400840  -0.3211797   0.4229882 SPIN=   0.00000
   O  -0.2584810  -0.1904771  -0.2583773 SPIN=   0.00000
   O   0.2599160  -0.1788203  -0.4229882 SPIN=   0.00000
   S  -0.3583159  -0.0000000  -0.3521771 SPIN=   0.00000
   S   0.1416841  -0.5000000   0.3521771 SPIN=   0.00000
   F  -0.3072469  -0.0000000   0.1487532 SPIN=   0.00000
   F   0.1927531   0.5000000  -0.1487532 SPIN=   0.00000
%ENDBLOCK POSITIONS_FRAC

# Note: total spin =   8.00

KPOINTS_MP_SPACING 0.07

%BLOCK SPECIES_POT
QC5
%ENDBLOCK SPECIES_POT

SNAP_TO_SYMMETRY
SYMMETRY_GENERATE

