#              Generated by Buildcell
#
# at 02:06:45 (GMT+1.0) 4th August 2020
# in /lustre/scratch/uccabz1/launch_tmp
# on node-c12k-002
# by uccabz1
#
# compiler GCC version 4.9.2
# options -cpp -iprefix /lustre/shared/ucl/apps/gcc/4.9.2/bin/../lib/gcc/x86_64-unknown-linux-gnu/4.9.2/ -mtune=corei7 -march=x86-64 -g -Og
#
# seed  1737841665 -1135382120     2934865 -1337323045 -1819886050 -1952282060   611006651  1784007889  1319277376 -1094820337   522967328  2141829843
#
#      Author: C. J. Pickard (cjp20@cam.ac.uk)
#                Space group: Fmm2
#

%BLOCK LATTICE_ABC
      5.95126      5.95126      6.88898
    110.65117    110.65117    100.57394
%ENDBLOCK LATTICE_ABC

%BLOCK POSITIONS_FRAC
  Li   0.1905006   0.1905006  -0.0000000 SPIN=   0.00000
  Li  -0.3094994  -0.3094994   0.0000000 SPIN=   0.00000
  Fe   0.1506188   0.1506188   0.4696869 SPIN=   4.00000
  Fe  -0.3190681  -0.3190681  -0.4696869 SPIN=   4.00000
   O   0.5317449   0.1917234  -0.3386427 SPIN=   0.00000
   O   0.8813355   0.5912677  -0.2056406 SPIN=   0.00000
   O  -0.4696339  -0.1296124   0.3386427 SPIN=   0.00000
   O  -0.2030918   0.0869760   0.2056406 SPIN=   0.00000
   O  -0.8082766  -0.4682551  -0.3386427 SPIN=   0.00000
   O  -0.4087323  -0.1186645  -0.2056406 SPIN=   0.00000
   O  -0.1296124  -0.4696339   0.3386427 SPIN=   0.00000
   O   0.0869760  -0.2030918   0.2056406 SPIN=   0.00000
   S   0.1610309  -0.2797133   0.0000000 SPIN=   0.00000
   S  -0.2797133   0.1610309  -0.0000000 SPIN=   0.00000
   F   0.3799778   0.3799778   0.3583184 SPIN=   0.00000
   F   0.0216594   0.0216594  -0.3583184 SPIN=   0.00000
%ENDBLOCK POSITIONS_FRAC

# Note: total spin =   8.00

KPOINTS_MP_SPACING 0.07

%BLOCK SPECIES_POT
QC5
%ENDBLOCK SPECIES_POT

SNAP_TO_SYMMETRY
SYMMETRY_GENERATE

