#              Generated by Buildcell
#
# at 00:35:49 (GMT+1.0) 19th August 2020
# in /lustre/scratch/uccabz1/launch_tmp
# on node-c12j-002
# by uccabz1
#
# compiler GCC version 4.9.2
# options -cpp -iprefix /lustre/shared/ucl/apps/gcc/4.9.2/bin/../lib/gcc/x86_64-unknown-linux-gnu/4.9.2/ -mtune=corei7 -march=x86-64 -g -Og
#
# seed   967698952  1609727115  2034464023  -435748398  1083260776   573632819     1599529   491182852  -664631348 -1466629144 -1295699850  -594022530
#
#      Author: C. J. Pickard (cjp20@cam.ac.uk)
#                Space group: Pc
#

%BLOCK LATTICE_ABC
      4.86149      5.62641      7.42459
     99.99622     90.00000     90.00000
%ENDBLOCK LATTICE_ABC

%BLOCK POSITIONS_FRAC
  Li  -0.1365854   0.0187819  -0.3234422 SPIN=   0.00000
  Li   0.1365854   0.0187819   0.1765578 SPIN=   0.00000
  Fe   0.4006855  -0.2994151   0.4057882 SPIN=   4.00000
  Fe  -0.4006855  -0.2994151  -0.0942118 SPIN=   4.00000
   O  -0.1106631   0.3517717   0.2245504 SPIN=   0.00000
   O  -0.3029511   0.2195026  -0.0852787 SPIN=   0.00000
   O  -0.6023537   0.4215063   0.1647919 SPIN=   0.00000
   O  -0.4337889   0.0070082   0.1671678 SPIN=   0.00000
   S  -0.3624392   0.2499472   0.1178078 SPIN=   0.00000
   O   0.1106631   0.3517717  -0.2754496 SPIN=   0.00000
   O   0.3029511   0.2195026  -0.5852787 SPIN=   0.00000
   O   0.6023537   0.4215063  -0.3352081 SPIN=   0.00000
   O   0.4337889   0.0070082  -0.3328322 SPIN=   0.00000
   S   0.3624392   0.2499472  -0.3821922 SPIN=   0.00000
   F   0.1790023  -0.2614658  -0.0197317 SPIN=   0.00000
   F  -0.1790023  -0.2614658   0.4802683 SPIN=   0.00000
%ENDBLOCK POSITIONS_FRAC

# Note: total spin =   8.00

KPOINTS_MP_SPACING 0.07

%BLOCK SPECIES_POT
QC5
%ENDBLOCK SPECIES_POT

SNAP_TO_SYMMETRY
SYMMETRY_GENERATE

