#              Generated by Buildcell
#
# at 04:03:48 (GMT+1.0) 4th August 2020
# in /lustre/scratch/uccabz1/launch_tmp
# on node-c12c-024
# by uccabz1
#
# compiler GCC version 4.9.2
# options -cpp -iprefix /lustre/shared/ucl/apps/gcc/4.9.2/bin/../lib/gcc/x86_64-unknown-linux-gnu/4.9.2/ -mtune=corei7 -march=x86-64 -g -Og
#
# seed  -557564551  1497513632  -202647689   833629209 -2108720543  1396668949 -1298155855  2140357772 -1773276788  -237678647  1957282953  1089426166
#
#      Author: C. J. Pickard (cjp20@cam.ac.uk)
#                Space group: Cc
#

%BLOCK LATTICE_ABC
      3.99767      6.75383      8.29010
     71.44249     76.04787     72.78513
%ENDBLOCK LATTICE_ABC

%BLOCK POSITIONS_FRAC
  Li   0.0098640  -0.1046069  -0.1498475 SPIN=   0.00000
  Li   0.2445903   0.3953931   0.3501525 SPIN=   0.00000
  Fe  -0.2011977  -0.1837357  -0.4404544 SPIN=   4.00000
  Fe  -0.1746121   0.3162643   0.0595456 SPIN=   4.00000
   O   0.0567307  -0.0128963   0.3023924 SPIN=   0.00000
   O   0.4790167  -0.3673842   0.3153007 SPIN=   0.00000
   O   0.6789813  -0.0336623   0.1561363 SPIN=   0.00000
   O   0.2689301  -0.1459957   0.0410144 SPIN=   0.00000
   S   0.3709147  -0.1399846   0.2037110 SPIN=   0.00000
   O  -0.3462268   0.4871037  -0.1976076 SPIN=   0.00000
   O  -0.4269332   0.1326158  -0.1846993 SPIN=   0.00000
   O  -0.8014553   0.4663377  -0.3438637 SPIN=   0.00000
   O  -0.1639488   0.3540043  -0.4589856 SPIN=   0.00000
   S  -0.4346410   0.3600154  -0.2962890 SPIN=   0.00000
   F   0.1246387   0.4354150   0.1203691 SPIN=   0.00000
   F   0.3195772  -0.0645850  -0.3796309 SPIN=   0.00000
%ENDBLOCK POSITIONS_FRAC

# Note: total spin =   8.00

KPOINTS_MP_SPACING 0.07

%BLOCK SPECIES_POT
QC5
%ENDBLOCK SPECIES_POT

SNAP_TO_SYMMETRY
SYMMETRY_GENERATE

