#              Generated by Buildcell
#
# at 05:24:24 (GMT+1.0) 4th August 2020
# in /lustre/scratch/uccabz1/launch_tmp
# on node-c12p-019
# by uccabz1
#
# compiler GCC version 4.9.2
# options -cpp -iprefix /lustre/shared/ucl/apps/gcc/4.9.2/bin/../lib/gcc/x86_64-unknown-linux-gnu/4.9.2/ -mtune=corei7 -march=x86-64 -g -Og
#
# seed   954734397  -384220971  -363069677 -1505651005  -792470561 -1867477712   284593458  1791732255  1970084282 -1256499014  -119694076   870239479
#
#      Author: C. J. Pickard (cjp20@cam.ac.uk)
#                Space group: P21
#

%BLOCK LATTICE_ABC
      4.64868      4.78643     10.24032
     90.00000     90.00000    118.62692
%ENDBLOCK LATTICE_ABC

%BLOCK POSITIONS_FRAC
  Li   0.3930826  -0.4894770   0.1472310 SPIN=   0.00000
  Li  -0.3930826   0.4894770  -0.3527690 SPIN=   0.00000
  Fe  -0.0910558  -0.0036303   0.3162704 SPIN=   4.00000
  Fe   0.0910558   0.0036303  -0.1837296 SPIN=   4.00000
   O  -0.0898018   0.4434536   0.1243820 SPIN=   0.00000
   O  -0.2512725  -0.1001244   0.0448336 SPIN=   0.00000
   O  -0.2809227   0.2939572  -0.1032315 SPIN=   0.00000
   O  -0.6732023   0.0673182   0.0799380 SPIN=   0.00000
   S  -0.3237998   0.1761511   0.0364805 SPIN=   0.00000
   O   0.0898018  -0.4434536  -0.3756180 SPIN=   0.00000
   O   0.2512725   0.1001244  -0.4551664 SPIN=   0.00000
   O   0.2809227  -0.2939572  -0.6032315 SPIN=   0.00000
   O   0.6732023  -0.0673182  -0.4200620 SPIN=   0.00000
   S   0.3237998  -0.1761511  -0.4635195 SPIN=   0.00000
   F  -0.3473678   0.4768966   0.3369320 SPIN=   0.00000
   F   0.3473678  -0.4768966  -0.1630680 SPIN=   0.00000
%ENDBLOCK POSITIONS_FRAC

# Note: total spin =   8.00

KPOINTS_MP_SPACING 0.07

%BLOCK SPECIES_POT
QC5
%ENDBLOCK SPECIES_POT

SNAP_TO_SYMMETRY
SYMMETRY_GENERATE

