#              Generated by Buildcell
#
# at 05:26:00 (GMT+1.0) 4th August 2020
# in /lustre/scratch/uccabz1/launch_tmp
# on node-c12f-029
# by uccabz1
#
# compiler GCC version 4.9.2
# options -cpp -iprefix /lustre/shared/ucl/apps/gcc/4.9.2/bin/../lib/gcc/x86_64-unknown-linux-gnu/4.9.2/ -mtune=corei7 -march=x86-64 -g -Og
#
# seed  -412826673  1789985668  -491112435   394990894 -1295405179  -375784659  1403632013   346671107   270714115  -750964217 -1549198892 -1631471943
#
#      Author: C. J. Pickard (cjp20@cam.ac.uk)
#                Space group: P21
#

%BLOCK LATTICE_ABC
      4.34530      5.78758      7.95320
     90.65759     90.00000     90.00000
%ENDBLOCK LATTICE_ABC

%BLOCK POSITIONS_FRAC
  Li  -0.3035198  -0.2336539   0.4140085 SPIN=   0.00000
  Li   0.1964802   0.2336539  -0.4140085 SPIN=   0.00000
  Fe   0.2392973  -0.2678724  -0.3016875 SPIN=   4.00000
  Fe  -0.2607027   0.2678724   0.3016875 SPIN=   4.00000
   O   0.4310163   0.0537746   0.0368506 SPIN=   0.00000
   O   0.6349015   0.1443982  -0.2453687 SPIN=   0.00000
   O   0.5587093   0.4575285  -0.0349468 SPIN=   0.00000
   O   0.1080018   0.2659038  -0.1659768 SPIN=   0.00000
   S   0.4331572   0.2304013  -0.1023604 SPIN=   0.00000
   O  -0.0689837  -0.0537746  -0.0368506 SPIN=   0.00000
   O   0.1349015  -0.1443982   0.2453687 SPIN=   0.00000
   O   0.0587093  -0.4575285   0.0349468 SPIN=   0.00000
   O  -0.3919982  -0.2659038   0.1659768 SPIN=   0.00000
   S  -0.0668428  -0.2304013   0.1023604 SPIN=   0.00000
   F  -0.2449344  -0.3249089  -0.3358169 SPIN=   0.00000
   F   0.2550656   0.3249089   0.3358169 SPIN=   0.00000
%ENDBLOCK POSITIONS_FRAC

# Note: total spin =   8.00

KPOINTS_MP_SPACING 0.07

%BLOCK SPECIES_POT
QC5
%ENDBLOCK SPECIES_POT

SNAP_TO_SYMMETRY
SYMMETRY_GENERATE

