#              Generated by Buildcell
#
# at 00:02:38 (GMT+1.0) 19th August 2020
# in /scratch/scratch/uccabz1/launch_tmp
# on node-k10h-029
# by uccabz1
#
# compiler GCC version 4.9.2
# options -cpp -iprefix /scratch/UCL/applications/gcc/4.9.2/bin/../lib/gcc/x86_64-unknown-linux-gnu/4.9.2/ -mtune=corei7 -march=x86-64 -g -O2
#
# seed    82137895 -2009070100 -1275243148  -909462882   869737717   801938245  -548364187   111213573  -289355701 -1939609690   412988765 -1505200023
#
#      Author: C. J. Pickard (cjp20@cam.ac.uk)
#                Space group: Pmc21
#

%BLOCK LATTICE_ABC
      4.12488      6.13076      7.90869
     90.00000     90.00000     90.00000
%ENDBLOCK LATTICE_ABC

%BLOCK POSITIONS_FRAC
  Li  -0.0098072  -0.0000000  -0.0002681 SPIN=   0.00000
  Li   0.0098072   0.0000000   0.4997319 SPIN=   0.00000
  Fe  -0.0836550  -0.5000000  -0.0905828 SPIN=   4.00000
  Fe   0.0836550  -0.5000000   0.4094172 SPIN=   4.00000
   O   0.2785296  -0.1916161   0.3408183 SPIN=   0.00000
   O   0.2370629  -0.2316620   0.6514537 SPIN=   0.00000
   O  -0.2785296   0.1916161  -0.1591817 SPIN=   0.00000
   O  -0.2370629   0.2316620   0.1514537 SPIN=   0.00000
   O  -0.2785296  -0.1916161  -0.1591817 SPIN=   0.00000
   O  -0.2370629  -0.2316620   0.1514537 SPIN=   0.00000
   O   0.2785296   0.1916161   0.3408183 SPIN=   0.00000
   O   0.2370629   0.2316620   0.6514537 SPIN=   0.00000
   S   0.4951538   0.0000000  -0.2476653 SPIN=   0.00000
   S  -0.4951538  -0.0000000   0.2523347 SPIN=   0.00000
   F   0.2629323  -0.5000000   0.0572343 SPIN=   0.00000
   F  -0.2629323   0.5000000  -0.4427657 SPIN=   0.00000
%ENDBLOCK POSITIONS_FRAC

# Note: total spin =   8.00

KPOINTS_MP_SPACING 0.07

%BLOCK SPECIES_POT
QC5
%ENDBLOCK SPECIES_POT

SNAP_TO_SYMMETRY
SYMMETRY_GENERATE

