#              Generated by Buildcell
#
# at 03:03:10 (GMT+1.0) 19th August 2020
# in /lustre/scratch/uccabz1/launch_tmp
# on node-c12j-010
# by uccabz1
#
# compiler GCC version 4.9.2
# options -cpp -iprefix /lustre/shared/ucl/apps/gcc/4.9.2/bin/../lib/gcc/x86_64-unknown-linux-gnu/4.9.2/ -mtune=corei7 -march=x86-64 -g -Og
#
# seed -1019083535 -1691760696  -636345340   825629965 -1141730508   103644450  -616137770  1822383325  1246807575  1335892724  -638176436   324012643
#
#      Author: C. J. Pickard (cjp20@cam.ac.uk)
#                Space group: Cc
#

%BLOCK LATTICE_ABC
      5.55805      6.55845      6.55845
    106.07560    107.20610    107.20610
%ENDBLOCK LATTICE_ABC

%BLOCK POSITIONS_FRAC
  Li   0.2632777   0.0308200   0.3457030 SPIN=   0.00000
  Li  -0.2367223   0.3457030   0.0308200 SPIN=   0.00000
  Fe   0.4974443  -0.3464922  -0.1018883 SPIN=   4.00000
  Fe  -0.0025557  -0.1018883  -0.3464922 SPIN=   4.00000
   O   0.1674618  -0.4641748   0.0633846 SPIN=   0.00000
   O   0.6076278  -0.3205650   0.4054660 SPIN=   0.00000
   O   0.1936237  -0.6444344   0.3500706 SPIN=   0.00000
   O   0.2142950  -0.2449841   0.4570238 SPIN=   0.00000
   S   0.2957521  -0.4185396   0.3189862 SPIN=   0.00000
   O  -0.3325382   0.0633846  -0.4641748 SPIN=   0.00000
   O   0.1076278   0.4054660  -0.3205650 SPIN=   0.00000
   O  -0.3063763   0.3500706  -0.6444344 SPIN=   0.00000
   O  -0.2857050   0.4570238  -0.2449841 SPIN=   0.00000
   S  -0.2042479   0.3189862  -0.4185396 SPIN=   0.00000
   F  -0.1423846  -0.1303062   0.1410241 SPIN=   0.00000
   F   0.3576154   0.1410241  -0.1303062 SPIN=   0.00000
%ENDBLOCK POSITIONS_FRAC

# Note: total spin =   8.00

KPOINTS_MP_SPACING 0.07

%BLOCK SPECIES_POT
QC5
%ENDBLOCK SPECIES_POT

SNAP_TO_SYMMETRY
SYMMETRY_GENERATE

