#              Generated by Buildcell
#
# at 05:35:47 (GMT+1.0) 4th August 2020
# in /lustre/scratch/uccabz1/launch_tmp
# on node-c12e-015
# by uccabz1
#
# compiler GCC version 4.9.2
# options -cpp -iprefix /lustre/shared/ucl/apps/gcc/4.9.2/bin/../lib/gcc/x86_64-unknown-linux-gnu/4.9.2/ -mtune=corei7 -march=x86-64 -g -Og
#
# seed -1970378259  1805429355  -456506791  -332354424  1577541714   736528382  1302791860  1615893098   185210077  -444820459  2106012799  1064175356
#
#      Author: C. J. Pickard (cjp20@cam.ac.uk)
#                Space group: Cc
#

%BLOCK LATTICE_ABC
      5.50582      6.35091      6.95084
    109.98133    105.26311    106.89952
%ENDBLOCK LATTICE_ABC

%BLOCK POSITIONS_FRAC
  Li  -0.0745080  -0.3795206   0.1455857 SPIN=   0.00000
  Li  -0.2200937  -0.0251063  -0.1455857 SPIN=   0.00000
  Fe   0.3429057   0.2593350  -0.2846627 SPIN=   4.00000
  Fe  -0.3724316   0.0439977   0.2846627 SPIN=   4.00000
   O   0.3897612  -0.2496248  -0.3481938 SPIN=   0.00000
   O   0.0517457  -0.0868062  -0.2669243 SPIN=   0.00000
   O   0.2784771  -0.2420677  -0.0240222 SPIN=   0.00000
   O  -0.0707627  -0.5343417  -0.4090183 SPIN=   0.00000
   S   0.1623054  -0.2782101  -0.2620396 SPIN=   0.00000
   O   0.7379550   0.5985690   0.3481938 SPIN=   0.00000
   O   0.3186700   0.6801181   0.2669243 SPIN=   0.00000
   O   0.3024993   0.2819545   0.0240222 SPIN=   0.00000
   O   0.3382556   0.3746766   0.4090183 SPIN=   0.00000
   S   0.4243450   0.4838295   0.2620396 SPIN=   0.00000
   F  -0.1387452  -0.0792394   0.1358742 SPIN=   0.00000
   F   0.7253807   0.2848865  -0.1358742 SPIN=   0.00000
%ENDBLOCK POSITIONS_FRAC

# Note: total spin =   8.00

KPOINTS_MP_SPACING 0.07

%BLOCK SPECIES_POT
QC5
%ENDBLOCK SPECIES_POT

SNAP_TO_SYMMETRY
SYMMETRY_GENERATE

