#              Generated by Buildcell
#
# at 21:59:59 (GMT+1.0) 18th August 2020
# in /lustre/scratch/uccabz1/launch_tmp
# on node-c12j-021
# by uccabz1
#
# compiler GCC version 4.9.2
# options -cpp -iprefix /lustre/shared/ucl/apps/gcc/4.9.2/bin/../lib/gcc/x86_64-unknown-linux-gnu/4.9.2/ -mtune=corei7 -march=x86-64 -g -Og
#
# seed  2015082890  1583802383   166476984   568223822  1457454938  2129712545   -33092481   193930868  1736573971  1753172791 -1544997223 -1154100270
#
#      Author: C. J. Pickard (cjp20@cam.ac.uk)
#                Space group: Pc
#

%BLOCK LATTICE_ABC
      4.22374      4.62606     10.25266
     90.00000     90.00000     93.28669
%ENDBLOCK LATTICE_ABC

%BLOCK POSITIONS_FRAC
  Li   0.0614332  -0.1067491   0.1042209 SPIN=   0.00000
  Li  -0.4385668   0.3932509  -0.1042209 SPIN=   0.00000
  Fe  -0.4157265  -0.3971732  -0.4002455 SPIN=   4.00000
  Fe   0.0842735   0.1028268   0.4002455 SPIN=   4.00000
   O   0.1273250   0.1510422  -0.1282218 SPIN=   0.00000
   O   0.0151299  -0.3490175  -0.0481031 SPIN=   0.00000
   O   0.5054606  -0.2259446  -0.1732719 SPIN=   0.00000
   O  -0.0156364  -0.2432954  -0.2842447 SPIN=   0.00000
   S   0.1580698  -0.1668038  -0.1584604 SPIN=   0.00000
   O  -0.3726750   0.6510422   0.1282218 SPIN=   0.00000
   O  -0.4848701   0.1509825   0.0481031 SPIN=   0.00000
   O   0.0054606   0.2740554   0.1732719 SPIN=   0.00000
   O  -0.5156364   0.2567046   0.2842447 SPIN=   0.00000
   S  -0.3419302   0.3331962   0.1584604 SPIN=   0.00000
   F   0.2409890  -0.2554713   0.4071400 SPIN=   0.00000
   F  -0.2590110   0.2445287  -0.4071400 SPIN=   0.00000
%ENDBLOCK POSITIONS_FRAC

# Note: total spin =   8.00

KPOINTS_MP_SPACING 0.07

%BLOCK SPECIES_POT
QC5
%ENDBLOCK SPECIES_POT

SNAP_TO_SYMMETRY
SYMMETRY_GENERATE

