#              Generated by Buildcell
#
# at 05:19:17 (GMT+1.0) 4th August 2020
# in /lustre/scratch/uccabz1/launch_tmp
# on node-c12f-034
# by uccabz1
#
# compiler GCC version 4.9.2
# options -cpp -iprefix /lustre/shared/ucl/apps/gcc/4.9.2/bin/../lib/gcc/x86_64-unknown-linux-gnu/4.9.2/ -mtune=corei7 -march=x86-64 -g -Og
#
# seed  -624267879  1309757808   165504645   579525199  1653624773  -539944335  -527149404   347897350   968076533   268962168   107110173   882719387
#
#      Author: C. J. Pickard (cjp20@cam.ac.uk)
#                Space group: P21
#

%BLOCK LATTICE_ABC
      4.29635      4.53840     10.27623
     90.00000     90.00000     93.49095
%ENDBLOCK LATTICE_ABC

%BLOCK POSITIONS_FRAC
  Li   0.0201788  -0.1546073   0.3479988 SPIN=   0.00000
  Li  -0.0201788   0.1546073  -0.1520012 SPIN=   0.00000
  Fe  -0.4834619  -0.2314916  -0.2874689 SPIN=   4.00000
  Fe   0.4834619   0.2314916   0.2125311 SPIN=   4.00000
   O  -0.0136121   0.5487549   0.5980453 SPIN=   0.00000
   O  -0.4763097   0.4213424   0.4611558 SPIN=   0.00000
   O  -0.1702450   0.0252259   0.5522418 SPIN=   0.00000
   O   0.0526175   0.3465740   0.3767749 SPIN=   0.00000
   S  -0.1518873   0.3354743   0.4970544 SPIN=   0.00000
   O   0.0136121  -0.5487549   0.0980453 SPIN=   0.00000
   O   0.4763097  -0.4213424  -0.0388442 SPIN=   0.00000
   O   0.1702450  -0.0252259   0.0522418 SPIN=   0.00000
   O  -0.0526175  -0.3465740  -0.1232251 SPIN=   0.00000
   S   0.1518873  -0.3354743  -0.0029456 SPIN=   0.00000
   F   0.3357284   0.1751227  -0.2454711 SPIN=   0.00000
   F  -0.3357284  -0.1751227   0.2545289 SPIN=   0.00000
%ENDBLOCK POSITIONS_FRAC

# Note: total spin =   8.00

KPOINTS_MP_SPACING 0.07

%BLOCK SPECIES_POT
QC5
%ENDBLOCK SPECIES_POT

SNAP_TO_SYMMETRY
SYMMETRY_GENERATE

