#              Generated by Buildcell
#
# at 01:39:16 (GMT+1.0) 19th August 2020
# in /lustre/scratch/uccabz1/launch_tmp
# on node-c12a-029
# by uccabz1
#
# compiler GCC version 4.9.2
# options -cpp -iprefix /lustre/shared/ucl/apps/gcc/4.9.2/bin/../lib/gcc/x86_64-unknown-linux-gnu/4.9.2/ -mtune=corei7 -march=x86-64 -g -Og
#
# seed  1612930040  1371468564   856896782 -1712228327 -1224713338   244822741 -1119442814 -2087484422   233711978 -1763557520    87274587   859499504
#
#      Author: C. J. Pickard (cjp20@cam.ac.uk)
#                Space group: F222
#

%BLOCK LATTICE_ABC
      5.86590      5.86590      7.01844
    111.07151    111.07151     98.02768
%ENDBLOCK LATTICE_ABC

%BLOCK POSITIONS_FRAC
  Li   0.3049894   0.3049894   0.6099787 SPIN=   0.00000
  Li  -0.3049894  -0.3049894  -0.6099787 SPIN=   0.00000
  Fe  -0.2500163  -0.2500163  -0.0000000 SPIN=   4.00000
  Fe   0.2500163   0.2500163   0.0000000 SPIN=   4.00000
   O  -0.4477265  -0.2399373  -0.3139909 SPIN=   0.00000
   O  -0.2090553   0.0814012  -0.3817292 SPIN=   0.00000
   O   0.2399373   0.4477265   0.3139909 SPIN=   0.00000
   O  -0.0814012   0.2090553   0.3817292 SPIN=   0.00000
   O   0.0740536  -0.1337356   0.3139909 SPIN=   0.00000
   O   0.4631304   0.1726739   0.3817292 SPIN=   0.00000
   O   0.1337356  -0.0740536  -0.3139909 SPIN=   0.00000
   O  -0.1726739  -0.4631304  -0.3817292 SPIN=   0.00000
   S  -0.7500000  -0.2500000  -0.5000000 SPIN=   0.00000
   S   0.7500000   0.2500000   0.5000000 SPIN=   0.00000
   F  -0.2127549   0.2127549   0.0000000 SPIN=   0.00000
   F   0.2127549  -0.2127549  -0.0000000 SPIN=   0.00000
%ENDBLOCK POSITIONS_FRAC

# Note: total spin =   8.00

KPOINTS_MP_SPACING 0.07

%BLOCK SPECIES_POT
QC5
%ENDBLOCK SPECIES_POT

SNAP_TO_SYMMETRY
SYMMETRY_GENERATE

