#              Generated by Buildcell
#
# at 04:26:44 (GMT+1.0) 4th August 2020
# in /lustre/scratch/uccabz1/launch_tmp
# on node-c12p-004
# by uccabz1
#
# compiler GCC version 4.9.2
# options -cpp -iprefix /lustre/shared/ucl/apps/gcc/4.9.2/bin/../lib/gcc/x86_64-unknown-linux-gnu/4.9.2/ -mtune=corei7 -march=x86-64 -g -Og
#
# seed  2029562718  2090873816  -462030943 -2072592180  -305200579   572940097   -99038280 -1530379115  -929032432 -1320928662  -705822165   741436728
#
#      Author: C. J. Pickard (cjp20@cam.ac.uk)
#                Space group: P21
#

%BLOCK LATTICE_ABC
      5.07531      5.58008      7.20233
    101.32905     90.00000     90.00000
%ENDBLOCK LATTICE_ABC

%BLOCK POSITIONS_FRAC
  Li   0.0181650  -0.1542922   0.2990885 SPIN=   0.00000
  Li  -0.4818350   0.1542922  -0.2990885 SPIN=   0.00000
  Fe  -0.0804885  -0.1908859  -0.1645190 SPIN=   4.00000
  Fe   0.4195115   0.1908859   0.1645190 SPIN=   4.00000
   O  -0.4102616  -0.0471964   0.3318292 SPIN=   0.00000
   O  -0.7002134  -0.4072106   0.3161687 SPIN=   0.00000
   O  -0.5225339  -0.1941848   0.6246532 SPIN=   0.00000
   O  -0.2257090  -0.4376190   0.3872862 SPIN=   0.00000
   S  -0.4646795  -0.2715527   0.4149843 SPIN=   0.00000
   O   0.0897384   0.0471964  -0.3318292 SPIN=   0.00000
   O  -0.2002134   0.4072106  -0.3161687 SPIN=   0.00000
   O  -0.0225339   0.1941848  -0.6246532 SPIN=   0.00000
   O   0.2742910   0.4376190  -0.3872862 SPIN=   0.00000
   S   0.0353205   0.2715527  -0.4149843 SPIN=   0.00000
   F  -0.4048080   0.2661143  -0.0361259 SPIN=   0.00000
   F   0.0951920  -0.2661143   0.0361259 SPIN=   0.00000
%ENDBLOCK POSITIONS_FRAC

# Note: total spin =   8.00

KPOINTS_MP_SPACING 0.07

%BLOCK SPECIES_POT
QC5
%ENDBLOCK SPECIES_POT

SNAP_TO_SYMMETRY
SYMMETRY_GENERATE

