#              Generated by Buildcell
#
# at 02:59:56 (GMT+1.0) 19th August 2020
# in /lustre/scratch/uccabz1/launch_tmp
# on node-c12a-010
# by uccabz1
#
# compiler GCC version 4.9.2
# options -cpp -iprefix /lustre/shared/ucl/apps/gcc/4.9.2/bin/../lib/gcc/x86_64-unknown-linux-gnu/4.9.2/ -mtune=corei7 -march=x86-64 -g -Og
#
# seed  1133713177  2022741707   -39317522   573552464   274312342   308206794    98244128  1525330898  1392320932 -1758958047    41832302  1151221626
#
#      Author: C. J. Pickard (cjp20@cam.ac.uk)
#                Space group: P2
#

%BLOCK LATTICE_ABC
      4.91883      6.17531      6.58434
     90.00000     90.00000     90.18863
%ENDBLOCK LATTICE_ABC

%BLOCK POSITIONS_FRAC
  Li   0.2450519  -0.2255133   0.0150538 SPIN=   0.00000
  Li  -0.2450519   0.2255133   0.0150538 SPIN=   0.00000
  Fe   0.2691872  -0.2663229   0.4765079 SPIN=   4.00000
  Fe  -0.2691872   0.2663229   0.4765079 SPIN=   4.00000
   O   0.7589895  -0.4896179  -0.1247222 SPIN=   0.00000
   O   0.8148014  -0.1244518   0.0247519 SPIN=   0.00000
   O   0.4615312  -0.1897290  -0.2359970 SPIN=   0.00000
   O   0.9478742  -0.1908013  -0.3322980 SPIN=   0.00000
   S   0.7457991  -0.2486500  -0.1670663 SPIN=   0.00000
   O  -0.7589895   0.4896179  -0.1247222 SPIN=   0.00000
   O  -0.8148014   0.1244518   0.0247519 SPIN=   0.00000
   O  -0.4615312   0.1897290  -0.2359970 SPIN=   0.00000
   O  -0.9478742   0.1908013  -0.3322980 SPIN=   0.00000
   S  -0.7457991   0.2486500  -0.1670663 SPIN=   0.00000
   F  -0.0000000  -0.5000000   0.3266677 SPIN=   0.00000
   F   0.5000000   0.0000000   0.3682852 SPIN=   0.00000
%ENDBLOCK POSITIONS_FRAC

# Note: total spin =   8.00

KPOINTS_MP_SPACING 0.07

%BLOCK SPECIES_POT
QC5
%ENDBLOCK SPECIES_POT

SNAP_TO_SYMMETRY
SYMMETRY_GENERATE

