#              Generated by Buildcell
#
# at 04:39:21 (GMT+1.0) 4th August 2020
# in /lustre/scratch/uccabz1/launch_tmp
# on node-c12g-026
# by uccabz1
#
# compiler GCC version 4.9.2
# options -cpp -iprefix /lustre/shared/ucl/apps/gcc/4.9.2/bin/../lib/gcc/x86_64-unknown-linux-gnu/4.9.2/ -mtune=corei7 -march=x86-64 -g -Og
#
# seed  -535716265 -1466447202   239918871  1608827382   665440678  -523521073   974464240   877684856  -255329666 -1611176634  -574423676 -1900200074
#
#      Author: C. J. Pickard (cjp20@cam.ac.uk)
#                Space group: P21
#

%BLOCK LATTICE_ABC
      4.37186      5.44535      8.54174
     90.00000     90.00000    100.41077
%ENDBLOCK LATTICE_ABC

%BLOCK POSITIONS_FRAC
  Li   0.4857827   0.1922142   0.3743740 SPIN=   0.00000
  Li  -0.4857827  -0.1922142  -0.1256260 SPIN=   0.00000
  Fe   0.0061708  -0.0117943   0.1250187 SPIN=   4.00000
  Fe  -0.0061708   0.0117943  -0.3749813 SPIN=   4.00000
   O   0.1020987   0.5909408   0.0281051 SPIN=   0.00000
   O   0.1114293   0.2661591  -0.1736359 SPIN=   0.00000
   O   0.0434170   0.6906503  -0.2517448 SPIN=   0.00000
   O  -0.3804272   0.4111699  -0.1134945 SPIN=   0.00000
   S  -0.0308705   0.4897300  -0.1276925 SPIN=   0.00000
   O  -0.1020987  -0.5909408   0.5281051 SPIN=   0.00000
   O  -0.1114293  -0.2661591   0.3263641 SPIN=   0.00000
   O  -0.0434170  -0.6906503   0.2482552 SPIN=   0.00000
   O   0.3804272  -0.4111699   0.3865055 SPIN=   0.00000
   S   0.0308705  -0.4897300   0.3723075 SPIN=   0.00000
   F  -0.4978182  -0.0294998   0.1029056 SPIN=   0.00000
   F   0.4978182   0.0294998  -0.3970944 SPIN=   0.00000
%ENDBLOCK POSITIONS_FRAC

# Note: total spin =   8.00

KPOINTS_MP_SPACING 0.07

%BLOCK SPECIES_POT
QC5
%ENDBLOCK SPECIES_POT

SNAP_TO_SYMMETRY
SYMMETRY_GENERATE

