#              Generated by Buildcell
#
# at 02:02:44 (GMT+1.0) 4th August 2020
# in /lustre/scratch/uccabz1/launch_tmp
# on node-c12n-033
# by uccabz1
#
# compiler GCC version 4.9.2
# options -cpp -iprefix /lustre/shared/ucl/apps/gcc/4.9.2/bin/../lib/gcc/x86_64-unknown-linux-gnu/4.9.2/ -mtune=corei7 -march=x86-64 -g -Og
#
# seed  -531209336   592689419   989101730  1228068975   -81023823   -94857474 -1717088264  -134528249   665699927  1642323045   -60307615   684000602
#
#      Author: C. J. Pickard (cjp20@cam.ac.uk)
#                Space group: Aem2
#

%BLOCK LATTICE_ABC
      5.55600      5.55600      6.48055
     90.00000     90.00000     91.26973
%ENDBLOCK LATTICE_ABC

%BLOCK POSITIONS_FRAC
  Li  -0.1025132  -0.1025132   0.5000000 SPIN=   0.00000
  Li   0.3974868   0.3974868   0.5000000 SPIN=   0.00000
  Fe  -0.2222725   0.2777275   0.0390769 SPIN=   4.00000
  Fe   0.2777275  -0.2222725  -0.0390769 SPIN=   4.00000
   O   0.5752079  -0.2225891  -0.3662717 SPIN=   0.00000
   O   0.3868082  -0.5671894  -0.1803041 SPIN=   0.00000
   O  -0.2225891   0.5752079   0.3662717 SPIN=   0.00000
   O  -0.5671894   0.3868082   0.1803041 SPIN=   0.00000
   O   0.2774109   0.0752079  -0.3662717 SPIN=   0.00000
   O  -0.0671894  -0.1131918  -0.1803041 SPIN=   0.00000
   O   0.0752079   0.2774109   0.3662717 SPIN=   0.00000
   O  -0.1131918  -0.0671894   0.1803041 SPIN=   0.00000
   S  -0.1275145   0.3724855  -0.4519941 SPIN=   0.00000
   S   0.3724855  -0.1275145   0.4519941 SPIN=   0.00000
   F   0.0351590  -0.4648410   0.0474143 SPIN=   0.00000
   F  -0.4648410   0.0351590  -0.0474143 SPIN=   0.00000
%ENDBLOCK POSITIONS_FRAC

# Note: total spin =   8.00

KPOINTS_MP_SPACING 0.07

%BLOCK SPECIES_POT
QC5
%ENDBLOCK SPECIES_POT

SNAP_TO_SYMMETRY
SYMMETRY_GENERATE

