#              Generated by Buildcell
#
# at 04:21:14 (GMT+1.0) 4th August 2020
# in /lustre/scratch/uccabz1/launch_tmp
# on node-c12h-034
# by uccabz1
#
# compiler GCC version 4.9.2
# options -cpp -iprefix /lustre/shared/ucl/apps/gcc/4.9.2/bin/../lib/gcc/x86_64-unknown-linux-gnu/4.9.2/ -mtune=corei7 -march=x86-64 -g -Og
#
# seed -1884705232  -722270604 -1280672578  -995695859  -862371970 -1050882881   768033838  2124055638   -48793811  -371615971  -792776567   937513536
#
#      Author: C. J. Pickard (cjp20@cam.ac.uk)
#                Space group: P2
#

%BLOCK LATTICE_ABC
      4.28637      6.12187      7.62407
     90.00000     91.40452     90.00000
%ENDBLOCK LATTICE_ABC

%BLOCK POSITIONS_FRAC
  Li   0.0000000   0.1032872  -0.0000000 SPIN=   0.00000
  Li  -0.0000000   0.1360141   0.5000000 SPIN=   0.00000
  Fe  -0.0248136   0.4878993   0.2399022 SPIN=   4.00000
  Fe   0.0248136   0.4878993  -0.2399022 SPIN=   4.00000
   O  -0.1270492  -0.1173610   0.3551136 SPIN=   0.00000
   O  -0.5080920   0.1862759   0.3418497 SPIN=   0.00000
   O  -0.6562949  -0.1785683   0.2275072 SPIN=   0.00000
   S  -0.3920742  -0.0154063   0.2483836 SPIN=   0.00000
   O   0.1270492  -0.1173610  -0.3551136 SPIN=   0.00000
   O   0.5080920   0.1862759  -0.3418497 SPIN=   0.00000
   O   0.6562949  -0.1785683  -0.2275072 SPIN=   0.00000
   S   0.3920742  -0.0154063  -0.2483836 SPIN=   0.00000
   O   0.5000000  -0.3043584   0.5000000 SPIN=   0.00000
   O  -0.0000000  -0.2641609   0.0000000 SPIN=   0.00000
   F   0.0000000   0.4463267   0.5000000 SPIN=   0.00000
   F  -0.5000000   0.4846554   0.0000000 SPIN=   0.00000
%ENDBLOCK POSITIONS_FRAC

# Note: total spin =   8.00

KPOINTS_MP_SPACING 0.07

%BLOCK SPECIES_POT
QC5
%ENDBLOCK SPECIES_POT

SNAP_TO_SYMMETRY
SYMMETRY_GENERATE

