#              Generated by Buildcell
#
# at 22:11:34 (GMT+1.0) 18th August 2020
# in /lustre/scratch/uccabz1/launch_tmp
# on node-c12g-033
# by uccabz1
#
# compiler GCC version 4.9.2
# options -cpp -iprefix /lustre/shared/ucl/apps/gcc/4.9.2/bin/../lib/gcc/x86_64-unknown-linux-gnu/4.9.2/ -mtune=corei7 -march=x86-64 -g -Og
#
# seed  -300473883  1077993177  -832421172 -2002667235  -548612913  1021226088  1338423508   104930576 -1415801795 -1831322746  -503804858   510053882
#
#      Author: C. J. Pickard (cjp20@cam.ac.uk)
#                Space group: P42
#

%BLOCK LATTICE_ABC
      4.06017      4.06017     12.13227
     90.00000     90.00000     90.00000
%ENDBLOCK LATTICE_ABC

%BLOCK POSITIONS_FRAC
  Li  -0.0000000  -0.0000000  -0.2128759 SPIN=   0.00000
  Li  -0.0000000   0.0000000   0.2871241 SPIN=   0.00000
  Fe   0.0000000  -0.5000000   0.0370219 SPIN=   4.00000
  Fe   0.5000000   0.0000000  -0.4629781 SPIN=   4.00000
   O  -0.6337668  -0.2485098   0.3582569 SPIN=   0.00000
   O  -0.2583541  -0.3225557   0.1994674 SPIN=   0.00000
   O   0.6337668   0.2485098   0.3582569 SPIN=   0.00000
   O   0.2583541   0.3225557   0.1994674 SPIN=   0.00000
   O  -0.2485098   0.6337668  -0.1417431 SPIN=   0.00000
   O  -0.3225557   0.2583541  -0.3005326 SPIN=   0.00000
   O   0.2485098  -0.6337668  -0.1417431 SPIN=   0.00000
   O   0.3225557  -0.2583541  -0.3005326 SPIN=   0.00000
   S   0.5000000  -0.5000000  -0.2184862 SPIN=   0.00000
   S   0.5000000   0.5000000   0.2815138 SPIN=   0.00000
   F  -0.5000000   0.0000000   0.0315138 SPIN=   0.00000
   F   0.0000000   0.5000000  -0.4684862 SPIN=   0.00000
%ENDBLOCK POSITIONS_FRAC

# Note: total spin =   8.00

KPOINTS_MP_SPACING 0.07

%BLOCK SPECIES_POT
QC5
%ENDBLOCK SPECIES_POT

SNAP_TO_SYMMETRY
SYMMETRY_GENERATE

