#              Generated by Buildcell
#
# at 05:14:10 (GMT+1.0) 4th August 2020
# in /lustre/scratch/uccabz1/launch_tmp
# on node-c12l-013
# by uccabz1
#
# compiler GCC version 4.9.2
# options -cpp -iprefix /lustre/shared/ucl/apps/gcc/4.9.2/bin/../lib/gcc/x86_64-unknown-linux-gnu/4.9.2/ -mtune=corei7 -march=x86-64 -g -Og
#
# seed  2031499269  1771939402 -1396976366 -1347541422 -1981658345 -1622401933  1305201122 -1221118773  1666216516   -14623191  1737354013   618270198
#
#      Author: C. J. Pickard (cjp20@cam.ac.uk)
#                Space group: Pba2
#

%BLOCK LATTICE_ABC
      3.92988      6.76411      7.52385
     90.00000     90.00000     90.00000
%ENDBLOCK LATTICE_ABC

%BLOCK POSITIONS_FRAC
  Li   0.5000000   0.0000000  -0.2942988 SPIN=   0.00000
  Li   0.0000000  -0.5000000  -0.2942988 SPIN=   0.00000
  Fe   0.0000000  -0.0000000  -0.0006884 SPIN=   4.00000
  Fe   0.5000000  -0.5000000  -0.0006884 SPIN=   4.00000
   O   0.4188755   0.3333814   0.5964799 SPIN=   0.00000
   O   0.0181332   0.3337960   0.3427361 SPIN=   0.00000
   O  -0.4188755  -0.3333814   0.5964799 SPIN=   0.00000
   O  -0.0181332  -0.3337960   0.3427361 SPIN=   0.00000
   O  -0.0811245   0.1666186   0.5964799 SPIN=   0.00000
   O  -0.4818668   0.1662040   0.3427361 SPIN=   0.00000
   O   0.0811245  -0.1666186   0.5964799 SPIN=   0.00000
   O   0.4818668  -0.1662040   0.3427361 SPIN=   0.00000
   S   0.0000000   0.0000000   0.4350581 SPIN=   0.00000
   S   0.5000000   0.5000000   0.4350581 SPIN=   0.00000
   F   0.5000000   0.0000000  -0.0128829 SPIN=   0.00000
   F   0.0000000  -0.5000000  -0.0128829 SPIN=   0.00000
%ENDBLOCK POSITIONS_FRAC

# Note: total spin =   8.00

KPOINTS_MP_SPACING 0.07

%BLOCK SPECIES_POT
QC5
%ENDBLOCK SPECIES_POT

SNAP_TO_SYMMETRY
SYMMETRY_GENERATE

