#              Generated by Buildcell
#
# at 03:54:57 (GMT+1.0) 4th August 2020
# in /lustre/scratch/uccabz1/launch_tmp
# on node-c12c-001
# by uccabz1
#
# compiler GCC version 4.9.2
# options -cpp -iprefix /lustre/shared/ucl/apps/gcc/4.9.2/bin/../lib/gcc/x86_64-unknown-linux-gnu/4.9.2/ -mtune=corei7 -march=x86-64 -g -Og
#
# seed -2041693210 -1154155718  -801446274  1695272137   651946306  1046418975   -31025621  1787746437 -1848882874  -500143380   767639240  -197178685
#
#      Author: C. J. Pickard (cjp20@cam.ac.uk)
#                Space group: P21
#

%BLOCK LATTICE_ABC
      4.53896      4.96262      9.04591
     90.00000    101.02404     90.00000
%ENDBLOCK LATTICE_ABC

%BLOCK POSITIONS_FRAC
  Li  -0.1748431  -0.4175268  -0.1606948 SPIN=   0.00000
  Li   0.1748431   0.0824732   0.1606948 SPIN=   0.00000
  Fe   0.2819768  -0.3590646  -0.4156230 SPIN=   4.00000
  Fe  -0.2819768   0.1409354   0.4156230 SPIN=   4.00000
   O   0.1672558  -0.0551791  -0.0574158 SPIN=   0.00000
   O   0.3093343   0.4265178  -0.0327573 SPIN=   0.00000
   O  -0.0112592   0.2600841  -0.2674392 SPIN=   0.00000
   O   0.5251191   0.1317768  -0.2054737 SPIN=   0.00000
   S   0.2476125   0.1907999  -0.1407715 SPIN=   0.00000
   O  -0.1672558  -0.5551791   0.0574158 SPIN=   0.00000
   O  -0.3093343  -0.0734822   0.0327573 SPIN=   0.00000
   O   0.0112592  -0.2399159   0.2674392 SPIN=   0.00000
   O  -0.5251191  -0.3682232   0.2054737 SPIN=   0.00000
   S  -0.2476125  -0.3092001   0.1407715 SPIN=   0.00000
   F   0.2008628   0.2517850   0.3709627 SPIN=   0.00000
   F  -0.2008628  -0.2482150  -0.3709627 SPIN=   0.00000
%ENDBLOCK POSITIONS_FRAC

# Note: total spin =   8.00

KPOINTS_MP_SPACING 0.07

%BLOCK SPECIES_POT
QC5
%ENDBLOCK SPECIES_POT

SNAP_TO_SYMMETRY
SYMMETRY_GENERATE

