#              Generated by Buildcell
#
# at 01:50:37 (GMT+1.0) 4th August 2020
# in /lustre/scratch/uccabz1/launch_tmp
# on node-c12c-015
# by uccabz1
#
# compiler GCC version 4.9.2
# options -cpp -iprefix /lustre/shared/ucl/apps/gcc/4.9.2/bin/../lib/gcc/x86_64-unknown-linux-gnu/4.9.2/ -mtune=corei7 -march=x86-64 -g -Og
#
# seed   291562924 -1487347702  1789303938 -1123482618   117474567  -879375456 -1917969089 -1046261619  1783699103  1673379770  -517217625 -1585269112
#
#      Author: C. J. Pickard (cjp20@cam.ac.uk)
#                Space group: Pc
#

%BLOCK LATTICE_ABC
      3.85732      4.67881     11.32941
     90.00000     90.00000    102.00159
%ENDBLOCK LATTICE_ABC

%BLOCK POSITIONS_FRAC
  Li   0.4353854   0.2193102   0.3508572 SPIN=   0.00000
  Li  -0.0646146   0.2193102  -0.3508572 SPIN=   0.00000
  Fe  -0.3557568  -0.1160369   0.1378971 SPIN=   4.00000
  Fe   0.1442432  -0.1160369  -0.1378971 SPIN=   4.00000
   O  -0.1072783  -0.1856847  -0.3064707 SPIN=   0.00000
   O  -0.4018885  -0.5973458  -0.4323558 SPIN=   0.00000
   O  -0.6229811  -0.1373102  -0.4290777 SPIN=   0.00000
   O  -0.7065332  -0.4634352  -0.2548260 SPIN=   0.00000
   S  -0.4596703  -0.3459440  -0.3556825 SPIN=   0.00000
   O   0.3927217  -0.1856847   0.3064707 SPIN=   0.00000
   O   0.0981115  -0.5973458   0.4323558 SPIN=   0.00000
   O  -0.1229811  -0.1373102   0.4290777 SPIN=   0.00000
   O  -0.2065332  -0.4634352   0.2548260 SPIN=   0.00000
   S   0.0403297  -0.3459440   0.3556825 SPIN=   0.00000
   F   0.2032707   0.1914609   0.1388955 SPIN=   0.00000
   F  -0.2967293   0.1914609  -0.1388955 SPIN=   0.00000
%ENDBLOCK POSITIONS_FRAC

# Note: total spin =   8.00

KPOINTS_MP_SPACING 0.07

%BLOCK SPECIES_POT
QC5
%ENDBLOCK SPECIES_POT

SNAP_TO_SYMMETRY
SYMMETRY_GENERATE

