#              Generated by Buildcell
#
# at 05:29:35 (GMT+1.0) 4th August 2020
# in /lustre/scratch/uccabz1/launch_tmp
# on node-c12g-004
# by uccabz1
#
# compiler GCC version 4.9.2
# options -cpp -iprefix /lustre/shared/ucl/apps/gcc/4.9.2/bin/../lib/gcc/x86_64-unknown-linux-gnu/4.9.2/ -mtune=corei7 -march=x86-64 -g -Og
#
# seed -2128839784  1897615930  -396333255  -179523697  1580625233  1875811851 -1609911866    17266363  -602340268   220788120  -122642945   752228069
#
#      Author: C. J. Pickard (cjp20@cam.ac.uk)
#                Space group: C2
#

%BLOCK LATTICE_ABC
      4.90440      6.05986      7.38356
    114.22754     91.74555     90.00000
%ENDBLOCK LATTICE_ABC

%BLOCK POSITIONS_FRAC
  Li  -0.2392340  -0.3163522   0.2319140 SPIN=   0.00000
  Li   0.2392340   0.4517338  -0.2319140 SPIN=   0.00000
  Fe  -0.3611959  -0.3129125  -0.3792940 SPIN=   4.00000
  Fe   0.3611959   0.0663815   0.3792940 SPIN=   4.00000
   O  -0.0152412   0.1469348  -0.3329103 SPIN=   0.00000
   O  -0.5193458   0.1449975  -0.3251656 SPIN=   0.00000
   O  -0.2615405   0.5329453  -0.1787535 SPIN=   0.00000
   O  -0.2428226   0.2500184  -0.0142699 SPIN=   0.00000
   S  -0.2597375   0.2687240  -0.2127748 SPIN=   0.00000
   O   0.0152412   0.4798451   0.3329103 SPIN=   0.00000
   O   0.5193458   0.4701631   0.3251656 SPIN=   0.00000
   O   0.2615405   0.7116988   0.1787535 SPIN=   0.00000
   O   0.2428226   0.2642883   0.0142699 SPIN=   0.00000
   S   0.2597375   0.4814988   0.2127748 SPIN=   0.00000
   F  -0.2389212   0.0275160   0.2351371 SPIN=   0.00000
   F   0.2389212  -0.2076211  -0.2351371 SPIN=   0.00000
%ENDBLOCK POSITIONS_FRAC

# Note: total spin =   8.00

KPOINTS_MP_SPACING 0.07

%BLOCK SPECIES_POT
QC5
%ENDBLOCK SPECIES_POT

SNAP_TO_SYMMETRY
SYMMETRY_GENERATE

