#              Generated by Buildcell
#
# at 05:30:50 (GMT+1.0) 4th August 2020
# in /lustre/scratch/uccabz1/launch_tmp
# on node-c12m-012
# by uccabz1
#
# compiler GCC version 4.9.2
# options -cpp -iprefix /lustre/shared/ucl/apps/gcc/4.9.2/bin/../lib/gcc/x86_64-unknown-linux-gnu/4.9.2/ -mtune=corei7 -march=x86-64 -g -Og
#
# seed -1940558520   306837704   279621140   850400696 -1201449424 -1781813342 -1506228748  -294069592  2092418754  -609861501  -110792662 -1917857439
#
#      Author: C. J. Pickard (cjp20@cam.ac.uk)
#                Space group: C2
#

%BLOCK LATTICE_ABC
      3.86674      7.31066      7.31066
     80.88312     81.32192     81.32192
%ENDBLOCK LATTICE_ABC

%BLOCK POSITIONS_FRAC
  Li  -0.5000000   0.1296607  -0.1296607 SPIN=   0.00000
  Li   0.0000000   0.4847862  -0.4847862 SPIN=   0.00000
  Fe  -0.0552916  -0.3264783   0.0034114 SPIN=   4.00000
  Fe   0.0552916  -0.0034114   0.3264783 SPIN=   4.00000
   O  -0.7875506  -0.1499700  -0.2163272 SPIN=   0.00000
   O  -0.2796937  -0.3957926  -0.2620439 SPIN=   0.00000
   O  -0.2381607  -0.0712300  -0.4148854 SPIN=   0.00000
   O  -0.6215001  -0.2629972  -0.5233276 SPIN=   0.00000
   S  -0.4817263  -0.2199975  -0.3541460 SPIN=   0.00000
   O   0.7875506   0.2163272   0.1499700 SPIN=   0.00000
   O   0.2796937   0.2620439   0.3957926 SPIN=   0.00000
   O   0.2381607   0.4148854   0.0712300 SPIN=   0.00000
   O   0.6215001   0.5233276   0.2629972 SPIN=   0.00000
   S   0.4817263   0.3541460   0.2199975 SPIN=   0.00000
   F  -0.0000000   0.2642926  -0.2642926 SPIN=   0.00000
   F   0.0000000  -0.1204798   0.1204798 SPIN=   0.00000
%ENDBLOCK POSITIONS_FRAC

# Note: total spin =   8.00

KPOINTS_MP_SPACING 0.07

%BLOCK SPECIES_POT
QC5
%ENDBLOCK SPECIES_POT

SNAP_TO_SYMMETRY
SYMMETRY_GENERATE

