#              Generated by Buildcell
#
# at 23:48:32 (GMT+1.0) 18th August 2020
# in /lustre/scratch/uccabz1/launch_tmp
# on node-c12k-012
# by uccabz1
#
# compiler GCC version 4.9.2
# options -cpp -iprefix /lustre/shared/ucl/apps/gcc/4.9.2/bin/../lib/gcc/x86_64-unknown-linux-gnu/4.9.2/ -mtune=corei7 -march=x86-64 -g -Og
#
# seed  -890063811 -2012446554 -1953051333   385266381  1494221605   606478119   860330917  1104147737  1934803008    35019454  1066118812  -250386468
#
#      Author: C. J. Pickard (cjp20@cam.ac.uk)
#                Space group: Pnc2
#

%BLOCK LATTICE_ABC
      3.91745      4.23323     12.06021
     90.00000     90.00000     90.00000
%ENDBLOCK LATTICE_ABC

%BLOCK POSITIONS_FRAC
  Li  -0.0000000   0.0000000   0.1795133 SPIN=   0.00000
  Li   0.5000000   0.0000000  -0.3204867 SPIN=   0.00000
  Fe   0.0000000  -0.5000000  -0.4008009 SPIN=   4.00000
  Fe  -0.5000000   0.5000000   0.0991991 SPIN=   4.00000
   O  -0.7292223   0.3133603   0.4488550 SPIN=   0.00000
   O  -0.2230608   0.1946064   0.3333487 SPIN=   0.00000
   O   0.7292223  -0.3133603   0.4488550 SPIN=   0.00000
   O   0.2230608  -0.1946064   0.3333487 SPIN=   0.00000
   O   0.2292223   0.3133603  -0.0511450 SPIN=   0.00000
   O  -0.2769392   0.1946064  -0.1666513 SPIN=   0.00000
   O  -0.2292223  -0.3133603  -0.0511450 SPIN=   0.00000
   O   0.2769392  -0.1946064  -0.1666513 SPIN=   0.00000
   S  -0.5000000  -0.5000000  -0.1761128 SPIN=   0.00000
   S  -0.0000000   0.5000000   0.3238872 SPIN=   0.00000
   F  -0.5000000   0.0000000   0.1274857 SPIN=   0.00000
   F  -0.0000000   0.0000000  -0.3725143 SPIN=   0.00000
%ENDBLOCK POSITIONS_FRAC

# Note: total spin =   8.00

KPOINTS_MP_SPACING 0.07

%BLOCK SPECIES_POT
QC5
%ENDBLOCK SPECIES_POT

SNAP_TO_SYMMETRY
SYMMETRY_GENERATE

