#              Generated by Buildcell
#
# at 04:39:32 (GMT+1.0) 4th August 2020
# in /lustre/scratch/uccabz1/launch_tmp
# on node-c12f-036
# by uccabz1
#
# compiler GCC version 4.9.2
# options -cpp -iprefix /lustre/shared/ucl/apps/gcc/4.9.2/bin/../lib/gcc/x86_64-unknown-linux-gnu/4.9.2/ -mtune=corei7 -march=x86-64 -g -Og
#
# seed  -382506984 -1730548295   940826558  2009029681  2035755739 -1618258932  2142099894  -684049226  -206748266  1491981335   618184134   452478451
#
#      Author: C. J. Pickard (cjp20@cam.ac.uk)
#                Space group: C2
#

%BLOCK LATTICE_ABC
      5.20929      6.29411      6.29411
    104.13856     91.21464     91.21464
%ENDBLOCK LATTICE_ABC

%BLOCK POSITIONS_FRAC
  Li   0.0000000  -0.3946327   0.3946327 SPIN=   0.00000
  Li   0.0000000   0.0608241  -0.0608241 SPIN=   0.00000
  Fe   0.1425129  -0.4197428  -0.1413693 SPIN=   4.00000
  Fe  -0.1425129   0.1413693   0.4197428 SPIN=   4.00000
   O   0.5471567  -0.0230739   0.5398830 SPIN=   0.00000
   O   0.0835350  -0.0299272   0.6168748 SPIN=   0.00000
   O   0.3321828  -0.3681098   0.5712444 SPIN=   0.00000
   O   0.2366767  -0.2173948   0.2508891 SPIN=   0.00000
   O  -0.5471567  -0.5398830   0.0230739 SPIN=   0.00000
   O  -0.0835350  -0.6168748   0.0299272 SPIN=   0.00000
   O  -0.3321828  -0.5712444   0.3681098 SPIN=   0.00000
   O  -0.2366767  -0.2508891   0.2173948 SPIN=   0.00000
   S   0.5000000   0.1723207  -0.1723207 SPIN=   0.00000
   S   0.5000000  -0.2870189   0.2870189 SPIN=   0.00000
   F  -0.1669882  -0.3301451  -0.2180472 SPIN=   0.00000
   F   0.1669882   0.2180472   0.3301451 SPIN=   0.00000
%ENDBLOCK POSITIONS_FRAC

# Note: total spin =   8.00

KPOINTS_MP_SPACING 0.07

%BLOCK SPECIES_POT
QC5
%ENDBLOCK SPECIES_POT

SNAP_TO_SYMMETRY
SYMMETRY_GENERATE

