#              Generated by Buildcell
#
# at 22:26:42 (GMT+1.0) 18th August 2020
# in /lustre/scratch/uccabz1/launch_tmp
# on node-c12j-010
# by uccabz1
#
# compiler GCC version 4.9.2
# options -cpp -iprefix /lustre/shared/ucl/apps/gcc/4.9.2/bin/../lib/gcc/x86_64-unknown-linux-gnu/4.9.2/ -mtune=corei7 -march=x86-64 -g -Og
#
# seed  -776333672   903105337 -1813357223  -973071051  1340433356   413276264  1508366709 -1839853276  -563412647 -1104439337  1874577547   801319401
#
#      Author: C. J. Pickard (cjp20@cam.ac.uk)
#                Space group: C2
#

%BLOCK LATTICE_ABC
      5.09927      6.35946      6.73405
     89.45215     88.63342     66.36427
%ENDBLOCK LATTICE_ABC

%BLOCK POSITIONS_FRAC
  Li   0.3555761  -0.2307933   0.2907754 SPIN=   0.00000
  Li  -0.1247828  -0.2307933  -0.2907754 SPIN=   0.00000
  Fe  -0.4460992   0.2543038   0.2507945 SPIN=   4.00000
  Fe   0.1917953   0.2543038  -0.2507945 SPIN=   4.00000
   O   0.2470746  -0.4613911  -0.1745466 SPIN=   0.00000
   O   0.3703358  -0.2165532  -0.4147994 SPIN=   0.00000
   O   0.7282114  -0.4532264  -0.1736473 SPIN=   0.00000
   S   0.4126236  -0.3115132  -0.2052163 SPIN=   0.00000
   O   0.2143166  -0.4613911   0.1745466 SPIN=   0.00000
   O  -0.1537826  -0.2165532   0.4147994 SPIN=   0.00000
   O  -0.2749850  -0.4532264   0.1736473 SPIN=   0.00000
   S  -0.1011105  -0.3115132   0.2052163 SPIN=   0.00000
   O   0.3029895   0.3940210   0.5000000 SPIN=   0.00000
   O  -0.2052774   0.4105548   0.5000000 SPIN=   0.00000
   F  -0.2950076   0.1033972  -0.2279688 SPIN=   0.00000
   F   0.1916104   0.1033972   0.2279688 SPIN=   0.00000
%ENDBLOCK POSITIONS_FRAC

# Note: total spin =   8.00

KPOINTS_MP_SPACING 0.07

%BLOCK SPECIES_POT
QC5
%ENDBLOCK SPECIES_POT

SNAP_TO_SYMMETRY
SYMMETRY_GENERATE

