#              Generated by Buildcell
#
# at 04:40:30 (GMT+1.0) 4th August 2020
# in /lustre/scratch/uccabz1/launch_tmp
# on node-c12c-029
# by uccabz1
#
# compiler GCC version 4.9.2
# options -cpp -iprefix /lustre/shared/ucl/apps/gcc/4.9.2/bin/../lib/gcc/x86_64-unknown-linux-gnu/4.9.2/ -mtune=corei7 -march=x86-64 -g -Og
#
# seed  -834075846  1676522494  -592831597 -1693024965  -183780015  1670692276   -90321972  1356792716 -1470140632  1824528243 -1336277618  2144614338
#
#      Author: C. J. Pickard (cjp20@cam.ac.uk)
#                Space group: Cc
#

%BLOCK LATTICE_ABC
      4.44113      4.44113     11.67658
     79.68820     79.68820     62.63946
%ENDBLOCK LATTICE_ABC

%BLOCK POSITIONS_FRAC
  Li   0.0675776  -0.4131338  -0.1140818 SPIN=   0.00000
  Li  -0.4131338   0.0675776   0.3859182 SPIN=   0.00000
  Fe  -0.0257946   0.4546897   0.2475880 SPIN=   4.00000
  Fe   0.4546897  -0.0257946  -0.2524120 SPIN=   4.00000
   O   0.6127234  -0.2398275  -0.4203937 SPIN=   0.00000
   O   0.8478482  -0.8373120  -0.4633414 SPIN=   0.00000
   O   0.5533991  -0.3621977  -0.6115816 SPIN=   0.00000
   O   0.2229322  -0.4887390  -0.4314149 SPIN=   0.00000
   S   0.5592257  -0.4820191  -0.4816829 SPIN=   0.00000
   O   0.7601725  -0.3872766   0.0796063 SPIN=   0.00000
   O   0.1626880  -0.1521518   0.0366586 SPIN=   0.00000
   O   0.6378023  -0.4466009  -0.1115816 SPIN=   0.00000
   O   0.5112610  -0.7770678   0.0685851 SPIN=   0.00000
   S   0.5179809  -0.4407743   0.0183171 SPIN=   0.00000
   F   0.0139554  -0.0269420  -0.2316717 SPIN=   0.00000
   F  -0.0269420   0.0139554   0.2683283 SPIN=   0.00000
%ENDBLOCK POSITIONS_FRAC

# Note: total spin =   8.00

KPOINTS_MP_SPACING 0.07

%BLOCK SPECIES_POT
QC5
%ENDBLOCK SPECIES_POT

SNAP_TO_SYMMETRY
SYMMETRY_GENERATE

