#              Generated by Buildcell
#
# at 17:50:15 (GMT+1.0) 18th August 2020
# in /lustre/scratch/uccabz1/launch_tmp
# on node-c12j-016
# by uccabz1
#
# compiler GCC version 4.9.2
# options -cpp -iprefix /lustre/shared/ucl/apps/gcc/4.9.2/bin/../lib/gcc/x86_64-unknown-linux-gnu/4.9.2/ -mtune=corei7 -march=x86-64 -g -Og
#
# seed  -768945955  -502434357  1252393759 -1403357233  -238511324 -1842026523  1106024450   -38304641  1193816058  -260668773  1631205349  1685957475
#
#      Author: C. J. Pickard (cjp20@cam.ac.uk)
#                Space group: P-1
#

%BLOCK LATTICE_ABC
      4.10990      7.17036      7.38178
    105.98346     97.60971    102.35337
%ENDBLOCK LATTICE_ABC

%BLOCK POSITIONS_FRAC
  Li   0.1523735   0.2686588  -0.0431572 SPIN=   0.00000
  Li  -0.1523735  -0.2686588   0.0431572 SPIN=   0.00000
  Fe  -0.0108306  -0.1330769  -0.3209662 SPIN=   4.00000
  Fe   0.0108306   0.1330769   0.3209662 SPIN=   4.00000
   O  -0.6118755   0.5524460   0.1487796 SPIN=   0.00000
   O  -0.0964251   0.6619331   0.4066503 SPIN=   0.00000
   O  -0.1770209   0.3603503   0.1258789 SPIN=   0.00000
   O  -0.5386134   0.3512430   0.3677162 SPIN=   0.00000
   S  -0.3559837   0.4814931   0.2622563 SPIN=   0.00000
   O   0.6118755  -0.5524460  -0.1487796 SPIN=   0.00000
   O   0.0964251  -0.6619331  -0.4066503 SPIN=   0.00000
   O   0.1770209  -0.3603503  -0.1258789 SPIN=   0.00000
   O   0.5386134  -0.3512430  -0.3677162 SPIN=   0.00000
   S   0.3559837  -0.4814931  -0.2622563 SPIN=   0.00000
   F   0.2941416  -0.0823489   0.2127211 SPIN=   0.00000
   F  -0.2941416   0.0823489  -0.2127211 SPIN=   0.00000
%ENDBLOCK POSITIONS_FRAC

# Note: total spin =   8.00

KPOINTS_MP_SPACING 0.07

%BLOCK SPECIES_POT
QC5
%ENDBLOCK SPECIES_POT

SNAP_TO_SYMMETRY
SYMMETRY_GENERATE

