#              Generated by Buildcell
#
# at 02:26:44 (GMT+1.0) 4th August 2020
# in /lustre/scratch/uccabz1/launch_tmp
# on node-c12l-033
# by uccabz1
#
# compiler GCC version 4.9.2
# options -cpp -iprefix /lustre/shared/ucl/apps/gcc/4.9.2/bin/../lib/gcc/x86_64-unknown-linux-gnu/4.9.2/ -mtune=corei7 -march=x86-64 -g -Og
#
# seed   476666001  1446492733 -1043300239  1781280513   332054808  -736157543  -435735280  -394733260 -1472541611 -1209898018  1562841410  -654083495
#
#      Author: C. J. Pickard (cjp20@cam.ac.uk)
#                Space group: P-1
#

%BLOCK LATTICE_ABC
      5.84853      5.96453      6.13372
     81.33497     76.59091     74.87936
%ENDBLOCK LATTICE_ABC

%BLOCK POSITIONS_FRAC
  Li  -0.3146554  -0.1286123   0.2290498 SPIN=   0.00000
  Li   0.3146554   0.1286123  -0.2290498 SPIN=   0.00000
  Fe   0.4133683   0.3764372   0.2888502 SPIN=   4.00000
  Fe  -0.4133683  -0.3764372  -0.2888502 SPIN=   4.00000
   O  -0.2050064   0.0950711  -0.4613485 SPIN=   0.00000
   O  -0.3127521   0.2827849  -0.1062425 SPIN=   0.00000
   O   0.0528159  -0.0391097  -0.1770309 SPIN=   0.00000
   O  -0.3535589  -0.1207317  -0.1013365 SPIN=   0.00000
   S  -0.2046254   0.0545037  -0.2114896 SPIN=   0.00000
   O   0.2050064  -0.0950711   0.4613485 SPIN=   0.00000
   O   0.3127521  -0.2827849   0.1062425 SPIN=   0.00000
   O  -0.0528159   0.0391097   0.1770309 SPIN=   0.00000
   O   0.3535589   0.1207317   0.1013365 SPIN=   0.00000
   S   0.2046254  -0.0545037   0.2114896 SPIN=   0.00000
   F  -0.2093667  -0.4632379   0.2894027 SPIN=   0.00000
   F   0.2093667   0.4632379  -0.2894027 SPIN=   0.00000
%ENDBLOCK POSITIONS_FRAC

# Note: total spin =   8.00

KPOINTS_MP_SPACING 0.07

%BLOCK SPECIES_POT
QC5
%ENDBLOCK SPECIES_POT

SNAP_TO_SYMMETRY
SYMMETRY_GENERATE

