#              Generated by Buildcell
#
# at 05:11:23 (GMT+1.0) 4th August 2020
# in /lustre/scratch/uccabz1/launch_tmp
# on node-c12f-014
# by uccabz1
#
# compiler GCC version 4.9.2
# options -cpp -iprefix /lustre/shared/ucl/apps/gcc/4.9.2/bin/../lib/gcc/x86_64-unknown-linux-gnu/4.9.2/ -mtune=corei7 -march=x86-64 -g -Og
#
# seed   554965583  1853580964  -839642875 -1584738613  1599601567  -818167353  -415017973 -1939033528  -203144733  -670199407  1882924503  1809355021
#
#      Author: C. J. Pickard (cjp20@cam.ac.uk)
#                Space group: Cc
#

%BLOCK LATTICE_ABC
      4.80388      4.80388      8.94884
     87.22126     87.22126     75.99902
%ENDBLOCK LATTICE_ABC

%BLOCK POSITIONS_FRAC
  Li  -0.3748826   0.1026003  -0.0424206 SPIN=   0.00000
  Li   0.1026003  -0.3748826   0.4575794 SPIN=   0.00000
  Fe   0.2002945   0.0039390  -0.2558060 SPIN=   4.00000
  Fe   0.0039390   0.2002945   0.2441940 SPIN=   4.00000
   O   0.3261436  -0.0900892   0.0435191 SPIN=   0.00000
   O   0.2291289  -0.5738548   0.0626104 SPIN=   0.00000
   O   0.3797266  -0.3685269   0.2848074 SPIN=   0.00000
   O   0.7272077  -0.5202429   0.0737186 SPIN=   0.00000
   S   0.4155517  -0.3881784   0.1161639 SPIN=   0.00000
   O  -0.0900892   0.3261436  -0.4564809 SPIN=   0.00000
   O  -0.5738548   0.2291289  -0.4373896 SPIN=   0.00000
   O  -0.3685269   0.3797266  -0.2151926 SPIN=   0.00000
   O  -0.5202429   0.7272077  -0.4262814 SPIN=   0.00000
   S  -0.3881784   0.4155517  -0.3838361 SPIN=   0.00000
   F  -0.1968543  -0.0722431   0.3391438 SPIN=   0.00000
   F  -0.0722431  -0.1968543  -0.1608562 SPIN=   0.00000
%ENDBLOCK POSITIONS_FRAC

# Note: total spin =   8.00

KPOINTS_MP_SPACING 0.07

%BLOCK SPECIES_POT
QC5
%ENDBLOCK SPECIES_POT

SNAP_TO_SYMMETRY
SYMMETRY_GENERATE

