#              Generated by Buildcell
#
# at 05:48:01 (GMT+1.0) 4th August 2020
# in /lustre/scratch/uccabz1/launch_tmp
# on node-c12e-007
# by uccabz1
#
# compiler GCC version 4.9.2
# options -cpp -iprefix /lustre/shared/ucl/apps/gcc/4.9.2/bin/../lib/gcc/x86_64-unknown-linux-gnu/4.9.2/ -mtune=corei7 -march=x86-64 -g -Og
#
# seed  -109789832  -498269210 -1388162398 -1559989753 -1925894308 -1277846370 -1217831777   769590903  1911714662  1611468940  1406306936 -1455273905
#
#      Author: C. J. Pickard (cjp20@cam.ac.uk)
#                Space group: P-1
#

%BLOCK LATTICE_ABC
      4.46890      6.41973      7.35641
     90.41344    100.66222    105.00018
%ENDBLOCK LATTICE_ABC

%BLOCK POSITIONS_FRAC
  Li  -0.0455311   0.3421877  -0.2562849 SPIN=   0.00000
  Li   0.0455311  -0.3421877   0.2562849 SPIN=   0.00000
  Fe  -0.2846741  -0.2951615  -0.1302816 SPIN=   4.00000
  Fe   0.2846741   0.2951615   0.1302816 SPIN=   4.00000
   O   0.6699916   0.0278029  -0.2682486 SPIN=   0.00000
   O   0.1210781  -0.1545710  -0.2412049 SPIN=   0.00000
   O   0.2233345   0.1337344  -0.4608966 SPIN=   0.00000
   S   0.3433604   0.0581342  -0.2733738 SPIN=   0.00000
   O  -0.6699916  -0.0278029   0.2682486 SPIN=   0.00000
   O  -0.1210781   0.1545710   0.2412049 SPIN=   0.00000
   O  -0.2233345  -0.1337344   0.4608966 SPIN=   0.00000
   S  -0.3433604  -0.0581342   0.2733738 SPIN=   0.00000
   O  -0.5000000   0.0000000   0.0000000 SPIN=   0.00000
   O   0.0000000  -0.0000000  -0.0000000 SPIN=   0.00000
   F   0.0000000  -0.5000000   0.5000000 SPIN=   0.00000
   F   0.0000000  -0.5000000   0.0000000 SPIN=   0.00000
%ENDBLOCK POSITIONS_FRAC

# Note: total spin =   8.00

KPOINTS_MP_SPACING 0.07

%BLOCK SPECIES_POT
QC5
%ENDBLOCK SPECIES_POT

SNAP_TO_SYMMETRY
SYMMETRY_GENERATE

