#              Generated by Buildcell
#
# at 05:26:55 (GMT+1.0) 4th August 2020
# in /lustre/scratch/uccabz1/launch_tmp
# on node-c12k-029
# by uccabz1
#
# compiler GCC version 4.9.2
# options -cpp -iprefix /lustre/shared/ucl/apps/gcc/4.9.2/bin/../lib/gcc/x86_64-unknown-linux-gnu/4.9.2/ -mtune=corei7 -march=x86-64 -g -Og
#
# seed   827232316   894476385   332683589  1136748658  -553615383   579431131  -743808327 -1603991253   274212088  1428711558   -71050177  -838365626
#
#      Author: C. J. Pickard (cjp20@cam.ac.uk)
#                Space group: Pc
#

%BLOCK LATTICE_ABC
      4.36886      5.71264      8.25079
    103.77294     90.00000     90.00000
%ENDBLOCK LATTICE_ABC

%BLOCK POSITIONS_FRAC
  Li  -0.4250544  -0.0982285   0.4523911 SPIN=   0.00000
  Li   0.4250544   0.4017715  -0.0476089 SPIN=   0.00000
  Fe  -0.0664348  -0.0806420  -0.2128991 SPIN=   4.00000
  Fe   0.0664348   0.4193580   0.2871009 SPIN=   4.00000
   O  -0.3266588   0.1907321  -0.3261945 SPIN=   0.00000
   O  -0.3010514   0.4407614  -0.5330124 SPIN=   0.00000
   O  -0.4827917   0.6192772  -0.2460950 SPIN=   0.00000
   O  -0.8039044   0.3216781  -0.4401074 SPIN=   0.00000
   S  -0.4786016   0.3931122  -0.3863523 SPIN=   0.00000
   O   0.3266588  -0.3092679   0.1738055 SPIN=   0.00000
   O   0.3010514  -0.0592386  -0.0330124 SPIN=   0.00000
   O   0.4827917   0.1192772   0.2539050 SPIN=   0.00000
   O   0.8039044  -0.1783219   0.0598926 SPIN=   0.00000
   S   0.4786016  -0.1068878   0.1136477 SPIN=   0.00000
   F  -0.0412167   0.3488936  -0.0130885 SPIN=   0.00000
   F   0.0412167  -0.1511064   0.4869115 SPIN=   0.00000
%ENDBLOCK POSITIONS_FRAC

# Note: total spin =   8.00

KPOINTS_MP_SPACING 0.07

%BLOCK SPECIES_POT
QC5
%ENDBLOCK SPECIES_POT

SNAP_TO_SYMMETRY
SYMMETRY_GENERATE

