#              Generated by Buildcell
#
# at 05:31:32 (GMT+1.0) 4th August 2020
# in /lustre/scratch/uccabz1/launch_tmp
# on node-c12j-007
# by uccabz1
#
# compiler GCC version 4.9.2
# options -cpp -iprefix /lustre/shared/ucl/apps/gcc/4.9.2/bin/../lib/gcc/x86_64-unknown-linux-gnu/4.9.2/ -mtune=corei7 -march=x86-64 -g -Og
#
# seed  1726218157 -1081280101   549777043  1107598946 -1426515412  1679601761  -548527560 -1578431161 -1363806812  1220857786  1255757868   210585116
#
#      Author: C. J. Pickard (cjp20@cam.ac.uk)
#                Space group: Cm
#

%BLOCK LATTICE_ABC
      3.91644      7.26328      7.26328
    101.18396     95.91565     95.91565
%ENDBLOCK LATTICE_ABC

%BLOCK POSITIONS_FRAC
  Li   0.2478539  -0.3003825   0.0389160 SPIN=   0.00000
  Li   0.2478539   0.0389160  -0.3003825 SPIN=   0.00000
  Fe  -0.3250302  -0.0179874   0.3777145 SPIN=   4.00000
  Fe  -0.3250302   0.3777145  -0.0179874 SPIN=   4.00000
   O  -0.1930287  -0.5219472   0.2742395 SPIN=   0.00000
   O  -0.1016894  -0.2189031   0.5083727 SPIN=   0.00000
   O  -0.1656846  -0.2186639   0.1658609 SPIN=   0.00000
   O   0.3637946  -0.3142893   0.3179400 SPIN=   0.00000
   O  -0.1930287   0.2742395  -0.5219472 SPIN=   0.00000
   O  -0.1016894   0.5083727  -0.2189031 SPIN=   0.00000
   O  -0.1656846   0.1658609  -0.2186639 SPIN=   0.00000
   O   0.3637946   0.3179400  -0.3142893 SPIN=   0.00000
   S   0.1067280  -0.4538148  -0.4538148 SPIN=   0.00000
   S  -0.2469432  -0.0884910  -0.0884910 SPIN=   0.00000
   F   0.2458714   0.3929291   0.0440252 SPIN=   0.00000
   F   0.2458714   0.0440252   0.3929291 SPIN=   0.00000
%ENDBLOCK POSITIONS_FRAC

# Note: total spin =   8.00

KPOINTS_MP_SPACING 0.07

%BLOCK SPECIES_POT
QC5
%ENDBLOCK SPECIES_POT

SNAP_TO_SYMMETRY
SYMMETRY_GENERATE

