#              Generated by Buildcell
#
# at 21:59:04 (GMT+1.0) 18th August 2020
# in /lustre/scratch/uccabz1/launch_tmp
# on node-c12k-020
# by uccabz1
#
# compiler GCC version 4.9.2
# options -cpp -iprefix /lustre/shared/ucl/apps/gcc/4.9.2/bin/../lib/gcc/x86_64-unknown-linux-gnu/4.9.2/ -mtune=corei7 -march=x86-64 -g -Og
#
# seed     2535389   -90205433 -1958368037 -1543600869  -753201135   686442864 -1350207630  -326148168   395803555  -980205749   711932220  -246447390
#
#      Author: C. J. Pickard (cjp20@cam.ac.uk)
#                Space group: P2
#

%BLOCK LATTICE_ABC
      4.03514      7.26199      7.68911
    117.42125     90.00000     90.00000
%ENDBLOCK LATTICE_ABC

%BLOCK POSITIONS_FRAC
  Li  -0.4558488   0.1391408   0.3409152 SPIN=   0.00000
  Li  -0.4558488  -0.1391408  -0.3409152 SPIN=   0.00000
  Fe   0.0445921  -0.5000000  -0.5000000 SPIN=   4.47777
  Fe   0.0446982  -0.0000000   0.0000000 SPIN=   3.52223
   O  -0.1265594  -0.4332413   0.2793562 SPIN=   0.00000
   O  -0.3001539  -0.3132614   0.0396810 SPIN=   0.00000
   O   0.0592003  -0.0912666   0.3189907 SPIN=   0.00000
   S  -0.2239498  -0.2457212   0.2535682 SPIN=   0.00000
   O  -0.1265594   0.4332413  -0.2793562 SPIN=   0.00000
   O  -0.3001539   0.3132614  -0.0396810 SPIN=   0.00000
   O   0.0592003   0.0912666  -0.3189907 SPIN=   0.00000
   S  -0.2239498   0.2457212  -0.2535682 SPIN=   0.00000
   O  -0.4553230   0.5000000   0.5000000 SPIN=   0.00000
   O   0.2001300   0.5000000   0.0000000 SPIN=   0.00000
   F   0.2567231   0.2587307   0.1834905 SPIN=   0.00000
   F   0.2567231  -0.2587307  -0.1834905 SPIN=   0.00000
%ENDBLOCK POSITIONS_FRAC

# Note: total spin =   8.00

KPOINTS_MP_SPACING 0.07

%BLOCK SPECIES_POT
QC5
%ENDBLOCK SPECIES_POT

SNAP_TO_SYMMETRY
SYMMETRY_GENERATE

