#              Generated by Buildcell
#
# at 05:31:50 (GMT+1.0) 4th August 2020
# in /lustre/scratch/uccabz1/launch_tmp
# on node-c12o-002
# by uccabz1
#
# compiler GCC version 4.9.2
# options -cpp -iprefix /lustre/shared/ucl/apps/gcc/4.9.2/bin/../lib/gcc/x86_64-unknown-linux-gnu/4.9.2/ -mtune=corei7 -march=x86-64 -g -Og
#
# seed -1308274114 -1267714097   -16509399  1659207480  1513070955   217558602  1989214451   994248801  -863552847  1282012362 -1565404733   -90876618
#
#      Author: C. J. Pickard (cjp20@cam.ac.uk)
#                Space group: P-1
#

%BLOCK LATTICE_ABC
      5.59209      6.16927      6.67192
     74.12094     71.75906     68.43003
%ENDBLOCK LATTICE_ABC

%BLOCK POSITIONS_FRAC
  Li  -0.0000000   0.0000000  -0.0000000 SPIN=   0.00000
  Li   0.0000000  -0.5000000   0.5000000 SPIN=   0.00000
  Fe  -0.0000000   0.5000000   0.0000000 SPIN=   1.87646
  Fe   0.0000000   0.0000000  -0.5000000 SPIN=   6.12354
   O  -0.2107570   0.1479433   0.2533981 SPIN=   0.00000
   O  -0.6594837   0.1098960   0.4180951 SPIN=   0.00000
   O  -0.4926338   0.1676967   0.0233995 SPIN=   0.00000
   O  -0.6053883   0.4966434   0.2150368 SPIN=   0.00000
   S  -0.4920657   0.2305449   0.2274824 SPIN=   0.00000
   O   0.2107570  -0.1479433  -0.2533981 SPIN=   0.00000
   O   0.6594837  -0.1098960  -0.4180951 SPIN=   0.00000
   O   0.4926338  -0.1676967  -0.0233995 SPIN=   0.00000
   O   0.6053883  -0.4966434  -0.2150368 SPIN=   0.00000
   S   0.4920657  -0.2305449  -0.2274824 SPIN=   0.00000
   F   0.1596021   0.3894503  -0.2578626 SPIN=   0.00000
   F  -0.1596021  -0.3894503   0.2578626 SPIN=   0.00000
%ENDBLOCK POSITIONS_FRAC

# Note: total spin =   8.00

KPOINTS_MP_SPACING 0.07

%BLOCK SPECIES_POT
QC5
%ENDBLOCK SPECIES_POT

SNAP_TO_SYMMETRY
SYMMETRY_GENERATE

