#              Generated by Buildcell
#
# at 04:44:38 (GMT+1.0) 4th August 2020
# in /lustre/scratch/uccabz1/launch_tmp
# on node-c12f-020
# by uccabz1
#
# compiler GCC version 4.9.2
# options -cpp -iprefix /lustre/shared/ucl/apps/gcc/4.9.2/bin/../lib/gcc/x86_64-unknown-linux-gnu/4.9.2/ -mtune=corei7 -march=x86-64 -g -Og
#
# seed -1780282785  1376764210  -233298983   599482727 -1443273939 -1011020113  -348067935  1211136691  -295446399 -1772873725   439159167  -108346247
#
#      Author: C. J. Pickard (cjp20@cam.ac.uk)
#                Space group: P21
#

%BLOCK LATTICE_ABC
      4.18437      5.64318      8.55894
     90.00000     98.27346     90.00000
%ENDBLOCK LATTICE_ABC

%BLOCK POSITIONS_FRAC
  Li   0.2239930   0.0881115  -0.0884093 SPIN=   0.00000
  Li  -0.2239930  -0.4118885   0.0884093 SPIN=   0.00000
  Fe   0.0163138   0.4067746  -0.3523197 SPIN=   4.00000
  Fe  -0.0163138  -0.0932254   0.3523197 SPIN=   4.00000
   O   0.4413224   0.3523633   0.5275149 SPIN=   0.00000
   O   0.2367539   0.6078547   0.2999573 SPIN=   0.00000
   O   0.2537629   0.1726032   0.2666707 SPIN=   0.00000
   O   0.7620360   0.4031588   0.3083854 SPIN=   0.00000
   S   0.4234688   0.3839950   0.3506320 SPIN=   0.00000
   O  -0.4413224  -0.1476367  -0.5275149 SPIN=   0.00000
   O  -0.2367539   0.1078547  -0.2999573 SPIN=   0.00000
   O  -0.2537629  -0.3273968  -0.2666707 SPIN=   0.00000
   O  -0.7620360  -0.0968412  -0.3083854 SPIN=   0.00000
   S  -0.4234688  -0.1160050  -0.3506320 SPIN=   0.00000
   F  -0.2495008   0.2847047  -0.0092949 SPIN=   0.00000
   F   0.2495008  -0.2152953   0.0092949 SPIN=   0.00000
%ENDBLOCK POSITIONS_FRAC

# Note: total spin =   8.00

KPOINTS_MP_SPACING 0.07

%BLOCK SPECIES_POT
QC5
%ENDBLOCK SPECIES_POT

SNAP_TO_SYMMETRY
SYMMETRY_GENERATE

