#              Generated by Buildcell
#
# at 01:38:53 (GMT+1.0) 19th August 2020
# in /lustre/scratch/uccabz1/launch_tmp
# on node-c12k-027
# by uccabz1
#
# compiler GCC version 4.9.2
# options -cpp -iprefix /lustre/shared/ucl/apps/gcc/4.9.2/bin/../lib/gcc/x86_64-unknown-linux-gnu/4.9.2/ -mtune=corei7 -march=x86-64 -g -Og
#
# seed  1445790140   645165799  1242637496  2049314871 -1209718632   699724755   235728224 -1209587223  1443524697   182718376  1457620964   952474110
#
#      Author: C. J. Pickard (cjp20@cam.ac.uk)
#                Space group: P21212
#

%BLOCK LATTICE_ABC
      5.06069      5.62398      7.02711
     90.00000     90.00000     90.00000
%ENDBLOCK LATTICE_ABC

%BLOCK POSITIONS_FRAC
  Li  -0.0000000  -0.0000000   0.3986016 SPIN=   0.00000
  Li  -0.5000000  -0.5000000  -0.3986016 SPIN=   0.00000
  Fe  -0.0000000  -0.0000000  -0.1731405 SPIN=   4.00000
  Fe  -0.5000000   0.5000000   0.1731405 SPIN=   4.00000
   O  -0.1948637  -0.6226310   0.3415006 SPIN=   0.00000
   O  -0.3886286  -0.2187380   0.3502860 SPIN=   0.00000
   O   0.1948637   0.6226310   0.3415006 SPIN=   0.00000
   O   0.3886286   0.2187380   0.3502860 SPIN=   0.00000
   O  -0.3051363  -0.1226310  -0.3415006 SPIN=   0.00000
   O  -0.1113714   0.2812620  -0.3502860 SPIN=   0.00000
   O   0.3051363   0.1226310  -0.3415006 SPIN=   0.00000
   O   0.1113714  -0.2812620  -0.3502860 SPIN=   0.00000
   S   0.5000000  -0.0000000  -0.4722997 SPIN=   0.00000
   S   0.0000000   0.5000000   0.4722997 SPIN=   0.00000
   F  -0.0000000  -0.0000000   0.1124642 SPIN=   0.00000
   F   0.5000000   0.5000000  -0.1124642 SPIN=   0.00000
%ENDBLOCK POSITIONS_FRAC

# Note: total spin =   8.00

KPOINTS_MP_SPACING 0.07

%BLOCK SPECIES_POT
QC5
%ENDBLOCK SPECIES_POT

SNAP_TO_SYMMETRY
SYMMETRY_GENERATE

