#              Generated by Buildcell
#
# at 22:25:16 (GMT+1.0) 18th August 2020
# in /lustre/scratch/uccabz1/launch_tmp
# on node-c12a-029
# by uccabz1
#
# compiler GCC version 4.9.2
# options -cpp -iprefix /lustre/shared/ucl/apps/gcc/4.9.2/bin/../lib/gcc/x86_64-unknown-linux-gnu/4.9.2/ -mtune=corei7 -march=x86-64 -g -Og
#
# seed  2083629486  -393891202  -947071613 -1560523372   813874646   581289296   828888042  2120895819  -691329385   580608989  1396910761  1815258728
#
#      Author: C. J. Pickard (cjp20@cam.ac.uk)
#                Space group: Pnn2
#

%BLOCK LATTICE_ABC
      3.91355      6.97574      7.32603
     90.00000     90.00000     90.00000
%ENDBLOCK LATTICE_ABC

%BLOCK POSITIONS_FRAC
  Li   0.0000000  -0.0000000  -0.0326550 SPIN=   0.00000
  Li  -0.5000000   0.5000000   0.4673450 SPIN=   0.00000
  Fe   0.5000000   0.0000000   0.2815033 SPIN=   4.00000
  Fe  -0.0000000   0.5000000  -0.2184967 SPIN=   4.00000
   O  -0.0261596   0.1829036  -0.2340440 SPIN=   0.00000
   O  -0.0627329   0.3407743  -0.5359435 SPIN=   0.00000
   O   0.0261596  -0.1829036  -0.2340440 SPIN=   0.00000
   O   0.0627329  -0.3407743  -0.5359435 SPIN=   0.00000
   O   0.4738404   0.3170964   0.2659560 SPIN=   0.00000
   O   0.4372671   0.1592257  -0.0359435 SPIN=   0.00000
   O  -0.4738404  -0.3170964   0.2659560 SPIN=   0.00000
   O  -0.4372671  -0.1592257  -0.0359435 SPIN=   0.00000
   S   0.5000000  -0.0000000  -0.2815517 SPIN=   0.00000
   S   0.0000000  -0.5000000   0.2184483 SPIN=   0.00000
   F  -0.0000000  -0.0000000   0.2772332 SPIN=   0.00000
   F  -0.5000000   0.5000000  -0.2227668 SPIN=   0.00000
%ENDBLOCK POSITIONS_FRAC

# Note: total spin =   8.00

KPOINTS_MP_SPACING 0.07

%BLOCK SPECIES_POT
QC5
%ENDBLOCK SPECIES_POT

SNAP_TO_SYMMETRY
SYMMETRY_GENERATE

