#              Generated by Buildcell
#
# at 04:19:34 (GMT+1.0) 4th August 2020
# in /lustre/scratch/uccabz1/launch_tmp
# on node-c12g-005
# by uccabz1
#
# compiler GCC version 4.9.2
# options -cpp -iprefix /lustre/shared/ucl/apps/gcc/4.9.2/bin/../lib/gcc/x86_64-unknown-linux-gnu/4.9.2/ -mtune=corei7 -march=x86-64 -g -Og
#
# seed   663790234  -278072033 -1860069473  1298523392  1684161871 -1532096482  1068912984    -4686635 -1085002620 -1203977191   139069269 -2139277560
#
#      Author: C. J. Pickard (cjp20@cam.ac.uk)
#                Space group: Cc
#

%BLOCK LATTICE_ABC
      3.85606      6.66531      8.54695
    112.94972     97.93267     90.00000
%ENDBLOCK LATTICE_ABC

%BLOCK POSITIONS_FRAC
  Li  -0.3888174  -0.0110747  -0.4685614 SPIN=   0.00000
  Li   0.1111826  -0.4574868  -0.4685614 SPIN=   0.00000
  Fe   0.0189657  -0.1160531   0.2283091 SPIN=   4.00000
  Fe  -0.4810343   0.3443622   0.2283091 SPIN=   4.00000
   O   0.2952484  -0.0075231  -0.2879465 SPIN=   0.00000
   O  -0.1459130   0.2689352  -0.2622233 SPIN=   0.00000
   O   0.3654972   0.3429502  -0.0339988 SPIN=   0.00000
   O  -0.1040596   0.0681275  -0.0709122 SPIN=   0.00000
   S   0.1026932   0.1681224  -0.1637702 SPIN=   0.00000
   O  -0.2047516  -0.2804233  -0.2879465 SPIN=   0.00000
   O  -0.6459130  -0.5311585  -0.2622233 SPIN=   0.00000
   O  -0.1345028  -0.3769490  -0.0339988 SPIN=   0.00000
   O  -0.6040596  -0.1390397  -0.0709122 SPIN=   0.00000
   S  -0.3973068  -0.3318926  -0.1637702 SPIN=   0.00000
   F  -0.4673319  -0.1141297   0.2730745 SPIN=   0.00000
   F   0.0326681   0.3872041   0.2730745 SPIN=   0.00000
%ENDBLOCK POSITIONS_FRAC

# Note: total spin =   8.00

KPOINTS_MP_SPACING 0.07

%BLOCK SPECIES_POT
QC5
%ENDBLOCK SPECIES_POT

SNAP_TO_SYMMETRY
SYMMETRY_GENERATE

