#              Generated by Buildcell
#
# at 02:30:24 (GMT+1.0) 4th August 2020
# in /lustre/scratch/uccabz1/launch_tmp
# on node-c12d-002
# by uccabz1
#
# compiler GCC version 4.9.2
# options -cpp -iprefix /lustre/shared/ucl/apps/gcc/4.9.2/bin/../lib/gcc/x86_64-unknown-linux-gnu/4.9.2/ -mtune=corei7 -march=x86-64 -g -Og
#
# seed  1979109434  -816733444  -990403418   338939663   313105466   361246259  -724318583  1010725829    78780003  1635217830  -563624360  1849444195
#
#      Author: C. J. Pickard (cjp20@cam.ac.uk)
#                Space group: C2
#

%BLOCK LATTICE_ABC
      5.80870      6.54125      6.76076
    116.32771     90.00000    116.35969
%ENDBLOCK LATTICE_ABC

%BLOCK POSITIONS_FRAC
  Li   0.0034219  -0.3601594  -0.2478583 SPIN=   0.00000
  Li   0.3635813   0.3601594   0.2478583 SPIN=   0.00000
  Fe   0.3099976   0.3030952  -0.2226115 SPIN=   4.00000
  Fe   0.0069024  -0.3030952   0.2226115 SPIN=   4.00000
   O  -0.0116594   0.2380483   0.5531816 SPIN=   0.00000
   O  -0.4076127   0.1796064   0.3470392 SPIN=   0.00000
   O  -0.1850863  -0.0682806   0.1380921 SPIN=   0.00000
   O   0.0337577   0.4112497   0.2873141 SPIN=   0.00000
   S  -0.1426502   0.1901559   0.3314068 SPIN=   0.00000
   O  -0.2497077  -0.2380483  -0.5531816 SPIN=   0.00000
   O  -0.5872190  -0.1796064  -0.3470392 SPIN=   0.00000
   O  -0.1168057   0.0682806  -0.1380921 SPIN=   0.00000
   O  -0.3774920  -0.4112497  -0.2873141 SPIN=   0.00000
   S  -0.3328061  -0.1901559  -0.3314068 SPIN=   0.00000
   F  -0.4585798   0.3146099   0.0059118 SPIN=   0.00000
   F   0.2268103  -0.3146099  -0.0059118 SPIN=   0.00000
%ENDBLOCK POSITIONS_FRAC

# Note: total spin =   8.00

KPOINTS_MP_SPACING 0.07

%BLOCK SPECIES_POT
QC5
%ENDBLOCK SPECIES_POT

SNAP_TO_SYMMETRY
SYMMETRY_GENERATE

