#              Generated by Buildcell
#
# at 02:47:08 (GMT+1.0) 4th August 2020
# in /lustre/scratch/uccabz1/launch_tmp
# on node-c12c-029
# by uccabz1
#
# compiler GCC version 4.9.2
# options -cpp -iprefix /lustre/shared/ucl/apps/gcc/4.9.2/bin/../lib/gcc/x86_64-unknown-linux-gnu/4.9.2/ -mtune=corei7 -march=x86-64 -g -Og
#
# seed  1522735206  -303826197 -1818778617  1843414737   -87976225  -461639255 -1209690556 -1425588084   -21800074 -1126317742   430030158 -1605018275
#
#      Author: C. J. Pickard (cjp20@cam.ac.uk)
#                Space group: Cc
#

%BLOCK LATTICE_ABC
      3.96920      6.67869      7.92982
     94.62433     90.00000    107.28674
%ENDBLOCK LATTICE_ABC

%BLOCK POSITIONS_FRAC
  Li  -0.0511155   0.0116826   0.0025156 SPIN=   0.00000
  Li   0.0627981   0.0116826  -0.4974844 SPIN=   0.00000
  Fe   0.3291703  -0.2588132  -0.2285476 SPIN=   4.00000
  Fe   0.4120166  -0.2588132   0.2714524 SPIN=   4.00000
   O  -0.0543139   0.2944296  -0.0824444 SPIN=   0.00000
   O  -0.0178984   0.6106168   0.1107867 SPIN=   0.00000
   O  -0.5164814   0.2865205   0.1285865 SPIN=   0.00000
   O  -0.4763439   0.4971250  -0.1176143 SPIN=   0.00000
   S  -0.2662594   0.4221729   0.0098286 SPIN=   0.00000
   O  -0.6512565   0.2944296  -0.5824444 SPIN=   0.00000
   O  -0.3714848   0.6106168  -0.3892133 SPIN=   0.00000
   O  -0.1969982   0.2865205  -0.3714135 SPIN=   0.00000
   O  -0.0265311   0.4971250  -0.6176143 SPIN=   0.00000
   S  -0.3115676   0.4221729  -0.4901714 SPIN=   0.00000
   F   0.1265386  -0.0055862  -0.2519670 SPIN=   0.00000
   F  -0.1321247  -0.0055862   0.2480330 SPIN=   0.00000
%ENDBLOCK POSITIONS_FRAC

# Note: total spin =   8.00

KPOINTS_MP_SPACING 0.07

%BLOCK SPECIES_POT
QC5
%ENDBLOCK SPECIES_POT

SNAP_TO_SYMMETRY
SYMMETRY_GENERATE

