#              Generated by Buildcell
#
# at 02:04:28 (GMT+1.0) 19th August 2020
# in /lustre/scratch/uccabz1/launch_tmp
# on node-c12j-021
# by uccabz1
#
# compiler GCC version 4.9.2
# options -cpp -iprefix /lustre/shared/ucl/apps/gcc/4.9.2/bin/../lib/gcc/x86_64-unknown-linux-gnu/4.9.2/ -mtune=corei7 -march=x86-64 -g -Og
#
# seed  1487083965   500605990 -1530254526  1253906446   313627417  -624338356  1598191964 -1044713673  1667272948  1088604198    -3147348 -1639961531
#
#      Author: C. J. Pickard (cjp20@cam.ac.uk)
#                Space group: P-1
#

%BLOCK LATTICE_ABC
      3.98202      7.50250      7.55176
     64.95798     83.98106     78.14329
%ENDBLOCK LATTICE_ABC

%BLOCK POSITIONS_FRAC
  Li   0.3252411  -0.1510352  -0.1036723 SPIN=   0.00000
  Li  -0.3252411   0.1510352   0.1036723 SPIN=   0.00000
  Fe  -0.2832015   0.4885988   0.2071009 SPIN=   4.00000
  Fe   0.2832015  -0.4885988  -0.2071009 SPIN=   4.00000
   O  -0.0168105   0.3556561  -0.3638626 SPIN=   0.00000
   O   0.3257395   0.3193218  -0.6435040 SPIN=   0.00000
   O   0.1146788   0.0274481  -0.3836453 SPIN=   0.00000
   O   0.5763396   0.1636288  -0.3142575 SPIN=   0.00000
   S   0.2499869   0.2165137  -0.4263173 SPIN=   0.00000
   O   0.0168105  -0.3556561   0.3638626 SPIN=   0.00000
   O  -0.3257395  -0.3193218   0.6435040 SPIN=   0.00000
   O  -0.1146788  -0.0274481   0.3836453 SPIN=   0.00000
   O  -0.5763396  -0.1636288   0.3142575 SPIN=   0.00000
   S  -0.2499869  -0.2165137   0.4263173 SPIN=   0.00000
   F   0.1709731   0.2081859   0.0651244 SPIN=   0.00000
   F  -0.1709731  -0.2081859  -0.0651244 SPIN=   0.00000
%ENDBLOCK POSITIONS_FRAC

# Note: total spin =   8.00

KPOINTS_MP_SPACING 0.07

%BLOCK SPECIES_POT
QC5
%ENDBLOCK SPECIES_POT

SNAP_TO_SYMMETRY
SYMMETRY_GENERATE

