#              Generated by Buildcell
#
# at 19:33:12 (GMT+1.0) 18th August 2020
# in /lustre/scratch/uccabz1/launch_tmp
# on node-c12f-018
# by uccabz1
#
# compiler GCC version 4.9.2
# options -cpp -iprefix /lustre/shared/ucl/apps/gcc/4.9.2/bin/../lib/gcc/x86_64-unknown-linux-gnu/4.9.2/ -mtune=corei7 -march=x86-64 -g -Og
#
# seed   446407488 -1763496692  1515025666    24154013 -1431704898  -658128026 -1354333143 -1821439698 -1938688541  -549833153  1384062636 -1205935016
#
#      Author: C. J. Pickard (cjp20@cam.ac.uk)
#                Space group: Pc
#

%BLOCK LATTICE_ABC
      5.09153      6.04089      7.15938
    114.73544     90.00000     90.00000
%ENDBLOCK LATTICE_ABC

%BLOCK POSITIONS_FRAC
  Li  -0.1593844  -0.1450950   0.3146323 SPIN=   0.00000
  Li   0.1593844   0.3549050  -0.1853677 SPIN=   0.00000
  Fe  -0.1090715   0.2687466   0.1939839 SPIN=   4.00000
  Fe   0.1090715  -0.2312534  -0.3060161 SPIN=   4.00000
   O  -0.1328912  -0.2931771  -0.0095640 SPIN=   0.00000
   O  -0.2362933  -0.7055461  -0.2743988 SPIN=   0.00000
   O  -0.5541352  -0.3689513  -0.1987325 SPIN=   0.00000
   O  -0.4780597  -0.5405193   0.0557839 SPIN=   0.00000
   S  -0.3503449  -0.4770485  -0.1067278 SPIN=   0.00000
   O   0.1328912   0.2068229   0.4904360 SPIN=   0.00000
   O   0.2362933  -0.2055461   0.2256012 SPIN=   0.00000
   O   0.5541352   0.1310487   0.3012675 SPIN=   0.00000
   O   0.4780597  -0.0405193   0.5557839 SPIN=   0.00000
   S   0.3503449   0.0229515   0.3932722 SPIN=   0.00000
   F   0.1431686   0.0719101  -0.0903539 SPIN=   0.00000
   F  -0.1431686  -0.4280899   0.4096461 SPIN=   0.00000
%ENDBLOCK POSITIONS_FRAC

# Note: total spin =   8.00

KPOINTS_MP_SPACING 0.07

%BLOCK SPECIES_POT
QC5
%ENDBLOCK SPECIES_POT

SNAP_TO_SYMMETRY
SYMMETRY_GENERATE

