#              Generated by Buildcell
#
# at 20:30:10 (GMT+1.0) 18th August 2020
# in /lustre/scratch/uccabz1/launch_tmp
# on node-c12c-006
# by uccabz1
#
# compiler GCC version 4.9.2
# options -cpp -iprefix /lustre/shared/ucl/apps/gcc/4.9.2/bin/../lib/gcc/x86_64-unknown-linux-gnu/4.9.2/ -mtune=corei7 -march=x86-64 -g -Og
#
# seed  -192268658 -1856242836  -221208905  -329795888 -1487040571   776239696  2002150566  -170472114   452349705  -211958745 -2107449949  -465529371
#
#      Author: C. J. Pickard (cjp20@cam.ac.uk)
#                Space group: P2
#

%BLOCK LATTICE_ABC
      4.39085      6.09489      7.48596
     90.00000     93.32518     90.00000
%ENDBLOCK LATTICE_ABC

%BLOCK POSITIONS_FRAC
  Li   0.0000000  -0.3588391  -0.0000000 SPIN=   0.00000
  Li   0.0000000   0.2603632  -0.5000000 SPIN=   0.00000
  Fe  -0.4399722   0.4232898  -0.2487322 SPIN=   4.00000
  Fe   0.4399722   0.4232898   0.2487322 SPIN=   4.00000
   O   0.2971152  -0.1460061   0.0987477 SPIN=   0.00000
   O   0.2635302  -0.2683092   0.4122408 SPIN=   0.00000
   O  -0.1017804   0.0063860   0.2835338 SPIN=   0.00000
   S   0.2245347  -0.0750381   0.2855978 SPIN=   0.00000
   O  -0.2971152  -0.1460061  -0.0987477 SPIN=   0.00000
   O  -0.2635302  -0.2683092  -0.4122408 SPIN=   0.00000
   O   0.1017804   0.0063860  -0.2835338 SPIN=   0.00000
   S  -0.2245347  -0.0750381  -0.2855978 SPIN=   0.00000
   O  -0.0000000   0.1650232   0.0000000 SPIN=   0.00000
   O  -0.5000000   0.1645692   0.5000000 SPIN=   0.00000
   F  -0.1235920   0.4292271   0.2558892 SPIN=   0.00000
   F   0.1235920   0.4292271  -0.2558892 SPIN=   0.00000
%ENDBLOCK POSITIONS_FRAC

# Note: total spin =   8.00

KPOINTS_MP_SPACING 0.07

%BLOCK SPECIES_POT
QC5
%ENDBLOCK SPECIES_POT

SNAP_TO_SYMMETRY
SYMMETRY_GENERATE

