#              Generated by Buildcell
#
# at 05:22:42 (GMT+1.0) 4th August 2020
# in /lustre/scratch/uccabz1/launch_tmp
# on node-c12o-002
# by uccabz1
#
# compiler GCC version 4.9.2
# options -cpp -iprefix /lustre/shared/ucl/apps/gcc/4.9.2/bin/../lib/gcc/x86_64-unknown-linux-gnu/4.9.2/ -mtune=corei7 -march=x86-64 -g -Og
#
# seed   391151296   916519721  -852984178  1327377485  1140485222 -1906781959   847014359   652064913  -637428138  -749408635  -282394984 -1346492624
#
#      Author: C. J. Pickard (cjp20@cam.ac.uk)
#                Space group: Pm
#

%BLOCK LATTICE_ABC
      3.85845      6.33587      8.18124
     90.00000     90.00000     90.34445
%ENDBLOCK LATTICE_ABC

%BLOCK POSITIONS_FRAC
  Li  -0.1857827   0.3267040   0.0000000 SPIN=   0.00000
  Li   0.3160109  -0.1736832  -0.0000000 SPIN=   0.00000
  Fe  -0.1722239  -0.0130723  -0.2696809 SPIN=   4.00000
  Fe  -0.1722239  -0.0130723   0.2696809 SPIN=   4.00000
   O   0.1874235  -0.3793227  -0.3583884 SPIN=   0.00000
   O   0.6930385  -0.6178304  -0.3584496 SPIN=   0.00000
   O   0.2484103  -0.6490126  -0.1416200 SPIN=   0.00000
   O   0.6430286  -0.3397183  -0.1474907 SPIN=   0.00000
   S   0.4429752  -0.4964710  -0.2514872 SPIN=   0.00000
   O   0.1874235  -0.3793227   0.3583884 SPIN=   0.00000
   O   0.6930385  -0.6178304   0.3584496 SPIN=   0.00000
   O   0.2484103  -0.6490126   0.1416200 SPIN=   0.00000
   O   0.6430286  -0.3397183   0.1474907 SPIN=   0.00000
   S   0.4429752  -0.4964710   0.2514872 SPIN=   0.00000
   F  -0.2719214   0.0161182   0.0000000 SPIN=   0.00000
   F  -0.1564959  -0.0779087  -0.5000000 SPIN=   0.00000
%ENDBLOCK POSITIONS_FRAC

# Note: total spin =   8.00

KPOINTS_MP_SPACING 0.07

%BLOCK SPECIES_POT
QC5
%ENDBLOCK SPECIES_POT

SNAP_TO_SYMMETRY
SYMMETRY_GENERATE

