#              Generated by Buildcell
#
# at 01:47:19 (GMT+1.0) 4th August 2020
# in /lustre/scratch/uccabz1/launch_tmp
# on node-c12m-020
# by uccabz1
#
# compiler GCC version 4.9.2
# options -cpp -iprefix /lustre/shared/ucl/apps/gcc/4.9.2/bin/../lib/gcc/x86_64-unknown-linux-gnu/4.9.2/ -mtune=corei7 -march=x86-64 -g -Og
#
# seed   477981392   605820468  -229260720   239291159  1307312795   -11744286 -2102288975  -595083766 -1050525239   349326207 -2144111070  1824003502
#
#      Author: C. J. Pickard (cjp20@cam.ac.uk)
#                Space group: Pnc2
#

%BLOCK LATTICE_ABC
      5.06810      5.87081      6.72182
     90.00000     90.00000     90.00000
%ENDBLOCK LATTICE_ABC

%BLOCK POSITIONS_FRAC
  Li  -0.5000000   0.0000000  -0.3725431 SPIN=   0.00000
  Li  -0.5000000   0.5000000   0.1274569 SPIN=   0.00000
  Fe  -0.5000000   0.0000000   0.1820401 SPIN=   4.00000
  Fe  -0.5000000   0.5000000  -0.3179599 SPIN=   4.00000
   O   0.2444837   0.0902246   0.3970444 SPIN=   0.00000
   O   0.1191788  -0.2803920   0.2492067 SPIN=   0.00000
   O  -0.2444837  -0.0902246   0.3970444 SPIN=   0.00000
   O  -0.1191788   0.2803920   0.2492067 SPIN=   0.00000
   O   0.2444837  -0.5902246  -0.1029556 SPIN=   0.00000
   O   0.1191788  -0.2196080  -0.2507933 SPIN=   0.00000
   O  -0.2444837   0.5902246  -0.1029556 SPIN=   0.00000
   O  -0.1191788   0.2196080  -0.2507933 SPIN=   0.00000
   S  -0.0000000   0.0000000   0.4982589 SPIN=   0.00000
   S   0.0000000   0.5000000  -0.0017411 SPIN=   0.00000
   F  -0.5000000   0.0000000  -0.0949690 SPIN=   0.00000
   F  -0.5000000   0.5000000   0.4050310 SPIN=   0.00000
%ENDBLOCK POSITIONS_FRAC

# Note: total spin =   8.00

KPOINTS_MP_SPACING 0.07

%BLOCK SPECIES_POT
QC5
%ENDBLOCK SPECIES_POT

SNAP_TO_SYMMETRY
SYMMETRY_GENERATE

