#              Generated by Buildcell
#
# at 02:16:10 (GMT+1.0) 19th August 2020
# in /lustre/scratch/uccabz1/launch_tmp
# on node-c12p-030
# by uccabz1
#
# compiler GCC version 4.9.2
# options -cpp -iprefix /lustre/shared/ucl/apps/gcc/4.9.2/bin/../lib/gcc/x86_64-unknown-linux-gnu/4.9.2/ -mtune=corei7 -march=x86-64 -g -Og
#
# seed  1005058572  -472622873    68031564  1149548412  1383953422   310388562 -1472643654  -675640721   535023749   702795060  1707526198  1313750852
#
#      Author: C. J. Pickard (cjp20@cam.ac.uk)
#                Space group: C2
#

%BLOCK LATTICE_ABC
      4.14215      7.23375      7.84397
    116.96533    104.51728     91.66058
%ENDBLOCK LATTICE_ABC

%BLOCK POSITIONS_FRAC
  Li  -0.6332608  -0.1332608  -0.2665217 SPIN=   0.00000
  Li  -0.1179570   0.3820430   0.7640860 SPIN=   0.00000
  Fe  -0.0642312  -0.0518393   0.4015995 SPIN=   4.00000
  Fe   0.4658307   0.4534388   0.4015995 SPIN=   4.00000
   O   0.2810653   0.3031151  -0.1214024 SPIN=   0.00000
   O   0.2307170   0.1877160   0.1248342 SPIN=   0.00000
   O  -0.2051639   0.0386899  -0.2047489 SPIN=   0.00000
   O  -0.1632051   0.4091624   0.0480479 SPIN=   0.00000
   O  -0.4024677  -0.4245175  -0.1214024 SPIN=   0.00000
   O  -0.1058828  -0.0628818   0.1248342 SPIN=   0.00000
   O   0.0004150  -0.2434388  -0.2047489 SPIN=   0.00000
   O   0.2112531  -0.3611144   0.0480479 SPIN=   0.00000
   S  -0.4903261  -0.4903261  -0.9806522 SPIN=   0.00000
   S  -0.0082866  -0.0082866  -0.0165732 SPIN=   0.00000
   F  -0.7824990  -0.2824990  -0.5649980 SPIN=   0.00000
   F   0.7325425   0.2325425   0.4650850 SPIN=   0.00000
%ENDBLOCK POSITIONS_FRAC

# Note: total spin =   8.00

KPOINTS_MP_SPACING 0.07

%BLOCK SPECIES_POT
QC5
%ENDBLOCK SPECIES_POT

SNAP_TO_SYMMETRY
SYMMETRY_GENERATE

