#              Generated by Buildcell
#
# at 01:48:33 (GMT+1.0) 4th August 2020
# in /lustre/scratch/uccabz1/launch_tmp
# on node-c12p-027
# by uccabz1
#
# compiler GCC version 4.9.2
# options -cpp -iprefix /lustre/shared/ucl/apps/gcc/4.9.2/bin/../lib/gcc/x86_64-unknown-linux-gnu/4.9.2/ -mtune=corei7 -march=x86-64 -g -Og
#
# seed  1601317817  1993672481 -1605505508  1497957898 -1017749701   776499385   770107047  -103018065   181222959  1575892680   218120692 -1252677126
#
#      Author: C. J. Pickard (cjp20@cam.ac.uk)
#                Space group: Pc
#

%BLOCK LATTICE_ABC
      4.83554      6.41779      6.66363
    104.72952     90.00000     90.00000
%ENDBLOCK LATTICE_ABC

%BLOCK POSITIONS_FRAC
  Li  -0.0041385   0.1686071  -0.3300343 SPIN=   0.00000
  Li   0.0041385  -0.3313929   0.1699657 SPIN=   0.00000
  Fe  -0.4608497  -0.1303657  -0.4961541 SPIN=   4.00000
  Fe   0.4608497   0.3696343   0.0038459 SPIN=   4.00000
   O  -0.2508172   0.2332588   0.4429604 SPIN=   0.00000
   O   0.1724626   0.0319287   0.3018753 SPIN=   0.00000
   O   0.0122649   0.3340813   0.1632280 SPIN=   0.00000
   O  -0.2518905  -0.0073230   0.0878714 SPIN=   0.00000
   S  -0.0794950   0.1479865   0.2489838 SPIN=   0.00000
   O   0.2508172  -0.2667412  -0.0570396 SPIN=   0.00000
   O  -0.1724626  -0.4680713  -0.1981247 SPIN=   0.00000
   O  -0.0122649  -0.1659187  -0.3367720 SPIN=   0.00000
   O   0.2518905  -0.5073230  -0.4121286 SPIN=   0.00000
   S   0.0794950  -0.3520135  -0.2510162 SPIN=   0.00000
   F  -0.3968920  -0.3469236   0.2123513 SPIN=   0.00000
   F   0.3968920   0.1530764  -0.2876487 SPIN=   0.00000
%ENDBLOCK POSITIONS_FRAC

# Note: total spin =   8.00

KPOINTS_MP_SPACING 0.07

%BLOCK SPECIES_POT
QC5
%ENDBLOCK SPECIES_POT

SNAP_TO_SYMMETRY
SYMMETRY_GENERATE

