#              Generated by Buildcell
#
# at 01:57:05 (GMT+1.0) 19th August 2020
# in /lustre/scratch/uccabz1/launch_tmp
# on node-c12l-030
# by uccabz1
#
# compiler GCC version 4.9.2
# options -cpp -iprefix /lustre/shared/ucl/apps/gcc/4.9.2/bin/../lib/gcc/x86_64-unknown-linux-gnu/4.9.2/ -mtune=corei7 -march=x86-64 -g -Og
#
# seed   138085318  2046715727  -888596882   402692099  1958921554  1285681470 -2131703964 -1454375994   255561467 -1008847967   443393371 -1959414423
#
#      Author: C. J. Pickard (cjp20@cam.ac.uk)
#                Space group: P2221
#

%BLOCK LATTICE_ABC
      3.90716      6.84918      7.47361
     90.00000     90.00000     90.00000
%ENDBLOCK LATTICE_ABC

%BLOCK POSITIONS_FRAC
  Li  -0.5000000   0.0000000  -0.2404241 SPIN=   0.00000
  Li   0.5000000   0.5000000   0.2404241 SPIN=   0.00000
  Fe   0.5000000   0.0000000   0.1637550 SPIN=   4.00000
  Fe   0.5000000  -0.5000000  -0.1637550 SPIN=   4.00000
   O   0.0763695  -0.1687446   0.2906590 SPIN=   0.00000
   O  -0.2483692  -0.4124120   0.4666423 SPIN=   0.00000
   O  -0.0763695   0.3312554  -0.2906590 SPIN=   0.00000
   O   0.2483692   0.0875880  -0.4666423 SPIN=   0.00000
   O   0.0763695  -0.3312554  -0.2906590 SPIN=   0.00000
   O  -0.2483692  -0.0875880  -0.4666423 SPIN=   0.00000
   O  -0.0763695   0.1687446   0.2906590 SPIN=   0.00000
   O   0.2483692   0.4124120   0.4666423 SPIN=   0.00000
   S  -0.2403127   0.2500000  -0.5000000 SPIN=   0.00000
   S   0.2403127  -0.2500000  -0.5000000 SPIN=   0.00000
   F  -0.0000000   0.0000000  -0.0763571 SPIN=   0.00000
   F  -0.0000000  -0.5000000   0.0763571 SPIN=   0.00000
%ENDBLOCK POSITIONS_FRAC

# Note: total spin =   8.00

KPOINTS_MP_SPACING 0.07

%BLOCK SPECIES_POT
QC5
%ENDBLOCK SPECIES_POT

SNAP_TO_SYMMETRY
SYMMETRY_GENERATE

