#              Generated by Buildcell
#
# at 01:39:41 (GMT+1.0) 19th August 2020
# in /lustre/scratch/uccabz1/launch_tmp
# on node-c12k-010
# by uccabz1
#
# compiler GCC version 4.9.2
# options -cpp -iprefix /lustre/shared/ucl/apps/gcc/4.9.2/bin/../lib/gcc/x86_64-unknown-linux-gnu/4.9.2/ -mtune=corei7 -march=x86-64 -g -Og
#
# seed -1829468132   551405625  -186718077  1797048581 -1277145470 -1236604219   546844832   -83166874  -625228290   163469406  1334687861 -1832331691
#
#      Author: C. J. Pickard (cjp20@cam.ac.uk)
#                Space group: P2/c
#

%BLOCK LATTICE_ABC
      3.93546      6.45106      7.88034
     90.00000     91.46421     90.00000
%ENDBLOCK LATTICE_ABC

%BLOCK POSITIONS_FRAC
  Li   0.5000000  -0.0000000  -0.5000000 SPIN=   0.00000
  Li  -0.5000000   0.0000000  -0.0000000 SPIN=   0.00000
  Fe   0.5000000   0.3951953  -0.2500000 SPIN=   4.00000
  Fe  -0.5000000  -0.3951953   0.2500000 SPIN=   4.00000
   O  -0.0977868   0.1117716  -0.1194770 SPIN=   0.00000
   O  -0.2653152   0.1737054   0.1768244 SPIN=   0.00000
   O  -0.9022132   0.1117716   0.6194770 SPIN=   0.00000
   O  -0.7346848   0.1737054   0.3231756 SPIN=   0.00000
   O   0.0977868  -0.1117716   0.1194770 SPIN=   0.00000
   O   0.2653152  -0.1737054  -0.1768244 SPIN=   0.00000
   O   0.9022132  -0.1117716  -0.6194770 SPIN=   0.00000
   O   0.7346848  -0.1737054  -0.3231756 SPIN=   0.00000
   S  -0.0000000   0.0379251   0.2500000 SPIN=   0.00000
   S   0.0000000  -0.0379251  -0.2500000 SPIN=   0.00000
   F  -0.0000000  -0.5000000  -0.0000000 SPIN=   0.00000
   F  -1.0000000  -0.5000000   0.5000000 SPIN=   0.00000
%ENDBLOCK POSITIONS_FRAC

# Note: total spin =   8.00

KPOINTS_MP_SPACING 0.07

%BLOCK SPECIES_POT
QC5
%ENDBLOCK SPECIES_POT

SNAP_TO_SYMMETRY
SYMMETRY_GENERATE

