#              Generated by Buildcell
#
# at 03:28:50 (GMT+1.0) 4th August 2020
# in /lustre/scratch/uccabz1/launch_tmp
# on node-c12f-008
# by uccabz1
#
# compiler GCC version 4.9.2
# options -cpp -iprefix /lustre/shared/ucl/apps/gcc/4.9.2/bin/../lib/gcc/x86_64-unknown-linux-gnu/4.9.2/ -mtune=corei7 -march=x86-64 -g -Og
#
# seed -1641621307  1720074256 -1541849344  -890023156  1666753368  -850147689  -438025749   103088513 -1779625431 -1801438641  -663825489  -957095374
#
#      Author: C. J. Pickard (cjp20@cam.ac.uk)
#                Space group: Pma2
#

%BLOCK LATTICE_ABC
      3.91633      6.47665      7.88497
     90.00000     90.00000     90.00000
%ENDBLOCK LATTICE_ABC

%BLOCK POSITIONS_FRAC
  Li  -0.1615945  -0.3574595   0.2500000 SPIN=   0.00000
  Li   0.1615945  -0.3574595  -0.2500000 SPIN=   0.00000
  Fe   0.1193147   0.0717989   0.2500000 SPIN=   4.00000
  Fe  -0.1193147   0.0717989  -0.2500000 SPIN=   4.00000
   O   0.2299133   0.2125472  -0.0995885 SPIN=   0.00000
   O   0.2264526   0.5076142   0.0998402 SPIN=   0.00000
   O  -0.2299133   0.2125472   0.0995885 SPIN=   0.00000
   O  -0.2264526   0.5076142  -0.0998402 SPIN=   0.00000
   O  -0.2299133   0.2125472  -0.5995885 SPIN=   0.00000
   O  -0.2264526   0.5076142  -0.4001598 SPIN=   0.00000
   O   0.2299133   0.2125472   0.5995885 SPIN=   0.00000
   O   0.2264526   0.5076142   0.4001598 SPIN=   0.00000
   S  -0.5000000   0.3965952   0.0000000 SPIN=   0.00000
   S   0.5000000   0.3965952  -0.5000000 SPIN=   0.00000
   F  -0.4490618  -0.1259646  -0.2500000 SPIN=   0.00000
   F   0.4490618  -0.1259646   0.2500000 SPIN=   0.00000
%ENDBLOCK POSITIONS_FRAC

# Note: total spin =   8.00

KPOINTS_MP_SPACING 0.07

%BLOCK SPECIES_POT
QC5
%ENDBLOCK SPECIES_POT

SNAP_TO_SYMMETRY
SYMMETRY_GENERATE

