#              Generated by Buildcell
#
# at 00:09:16 (GMT+1.0) 19th August 2020
# in /scratch/scratch/uccabz1/launch_tmp
# on node-k10d-027
# by uccabz1
#
# compiler GCC version 4.9.2
# options -cpp -iprefix /scratch/UCL/applications/gcc/4.9.2/bin/../lib/gcc/x86_64-unknown-linux-gnu/4.9.2/ -mtune=corei7 -march=x86-64 -g -O2
#
# seed   923264403 -1110035045  1285382043   -18527017 -1161332875   260846869  1639431297    81258544   143761626  2135901291  2104888365    32482247
#
#      Author: C. J. Pickard (cjp20@cam.ac.uk)
#                Space group: P-1
#

%BLOCK LATTICE_ABC
      4.55369      6.64752      7.33061
     68.48662     79.15851     77.33815
%ENDBLOCK LATTICE_ABC

%BLOCK POSITIONS_FRAC
  Li  -0.3861473  -0.1836630   0.2581238 SPIN=   0.00000
  Li   0.3861473   0.1836630  -0.2581238 SPIN=   0.00000
  Fe  -0.1839026   0.2673243   0.0224233 SPIN=   4.00000
  Fe   0.1839026  -0.2673243  -0.0224233 SPIN=   4.00000
   O   0.7945405  -0.3037765  -0.1497250 SPIN=   0.00000
   O   0.7597277  -0.0180619  -0.4796500 SPIN=   0.00000
   O   0.5152834  -0.3448490  -0.3894619 SPIN=   0.00000
   O   1.0746317  -0.3810852  -0.4468955 SPIN=   0.00000
   S   0.7860458  -0.2619431  -0.3664331 SPIN=   0.00000
   O  -0.7945405   0.3037765   0.1497250 SPIN=   0.00000
   O  -0.7597277   0.0180619   0.4796500 SPIN=   0.00000
   O  -0.5152834   0.3448490   0.3894619 SPIN=   0.00000
   O  -1.0746317   0.3810852   0.4468955 SPIN=   0.00000
   S  -0.7860458   0.2619431   0.3664331 SPIN=   0.00000
   F  -0.2512544   0.1870792  -0.1964800 SPIN=   0.00000
   F   0.2512544  -0.1870792   0.1964800 SPIN=   0.00000
%ENDBLOCK POSITIONS_FRAC

# Note: total spin =   8.00

KPOINTS_MP_SPACING 0.07

%BLOCK SPECIES_POT
QC5
%ENDBLOCK SPECIES_POT

SNAP_TO_SYMMETRY
SYMMETRY_GENERATE

