#              Generated by Buildcell
#
# at 03:51:00 (GMT+1.0) 4th August 2020
# in /lustre/scratch/uccabz1/launch_tmp
# on node-c12m-020
# by uccabz1
#
# compiler GCC version 4.9.2
# options -cpp -iprefix /lustre/shared/ucl/apps/gcc/4.9.2/bin/../lib/gcc/x86_64-unknown-linux-gnu/4.9.2/ -mtune=corei7 -march=x86-64 -g -Og
#
# seed  1010905566   652952414   226121808 -1790543868   604290302  1391290120   618881462  -979887790 -1534274366 -1386572863   321246288 -2140014854
#
#      Author: C. J. Pickard (cjp20@cam.ac.uk)
#                Space group: Pc
#

%BLOCK LATTICE_ABC
      3.95590      6.04129      8.58052
     90.00000    102.75872     90.00000
%ENDBLOCK LATTICE_ABC

%BLOCK POSITIONS_FRAC
  Li  -0.0549311  -0.0964432   0.0460773 SPIN=   0.00000
  Li  -0.0549311   0.0964432  -0.4539227 SPIN=   0.00000
  Fe  -0.4868743   0.4007798  -0.0418148 SPIN=   4.00000
  Fe  -0.4868743  -0.4007798   0.4581852 SPIN=   4.00000
   O   0.5598097  -0.0500490   0.1973396 SPIN=   0.00000
   O   0.6064529   0.2802068   0.3714538 SPIN=   0.00000
   O   0.3088265  -0.0560777   0.4371856 SPIN=   0.00000
   O   0.0378500   0.1726072   0.2036315 SPIN=   0.00000
   S   0.3782348   0.0866718   0.3024026 SPIN=   0.00000
   O   0.5598097   0.0500490  -0.3026604 SPIN=   0.00000
   O   0.6064529  -0.2802068  -0.1285462 SPIN=   0.00000
   O   0.3088265   0.0560777  -0.0628144 SPIN=   0.00000
   O   0.0378500  -0.1726072  -0.2963685 SPIN=   0.00000
   S   0.3782348  -0.0866718  -0.1975974 SPIN=   0.00000
   F   0.1028449  -0.4199762   0.0900879 SPIN=   0.00000
   F   0.1028449   0.4199762  -0.4099121 SPIN=   0.00000
%ENDBLOCK POSITIONS_FRAC

# Note: total spin =   8.00

KPOINTS_MP_SPACING 0.07

%BLOCK SPECIES_POT
QC5
%ENDBLOCK SPECIES_POT

SNAP_TO_SYMMETRY
SYMMETRY_GENERATE

