#              Generated by Buildcell
#
# at 01:31:36 (GMT+1.0) 19th August 2020
# in /lustre/scratch/uccabz1/launch_tmp
# on node-c12p-007
# by uccabz1
#
# compiler GCC version 4.9.2
# options -cpp -iprefix /lustre/shared/ucl/apps/gcc/4.9.2/bin/../lib/gcc/x86_64-unknown-linux-gnu/4.9.2/ -mtune=corei7 -march=x86-64 -g -Og
#
# seed  -324173594  -894152979 -1253552062 -1979839025  1097063116   597605169  2102336220  1243348018 -2055994743   610750838 -1869241070    89604899
#
#      Author: C. J. Pickard (cjp20@cam.ac.uk)
#                Space group: Cc
#

%BLOCK LATTICE_ABC
      4.81000      4.81000      8.97912
    100.92587    100.92587     90.85515
%ENDBLOCK LATTICE_ABC

%BLOCK POSITIONS_FRAC
  Li  -0.4369689   0.0291197  -0.2582133 SPIN=   0.00000
  Li   0.0291197  -0.4369689   0.2417867 SPIN=   0.00000
  Fe   0.3017162   0.4449404  -0.0370410 SPIN=   4.00000
  Fe   0.4449404   0.3017162   0.4629590 SPIN=   4.00000
   O  -0.1547579  -0.0878236  -0.6230848 SPIN=   0.00000
   O  -0.0925154   0.1045692  -0.3422664 SPIN=   0.00000
   O   0.2862563  -0.1645806  -0.4462987 SPIN=   0.00000
   O  -0.1649165  -0.4130274  -0.4408502 SPIN=   0.00000
   S  -0.0314834  -0.1402156  -0.4631250 SPIN=   0.00000
   O  -0.0878236  -0.1547579  -0.1230848 SPIN=   0.00000
   O   0.1045692  -0.0925154   0.1577336 SPIN=   0.00000
   O  -0.1645806   0.2862563   0.0537013 SPIN=   0.00000
   O  -0.4130274  -0.1649165   0.0591498 SPIN=   0.00000
   S  -0.1402156  -0.0314834   0.0368750 SPIN=   0.00000
   F   0.4490325   0.4305977  -0.2512500 SPIN=   0.00000
   F   0.4305977   0.4490325   0.2487500 SPIN=   0.00000
%ENDBLOCK POSITIONS_FRAC

# Note: total spin =   8.00

KPOINTS_MP_SPACING 0.07

%BLOCK SPECIES_POT
QC5
%ENDBLOCK SPECIES_POT

SNAP_TO_SYMMETRY
SYMMETRY_GENERATE

