#              Generated by Buildcell
#
# at 05:03:12 (GMT+1.0) 4th August 2020
# in /lustre/scratch/uccabz1/launch_tmp
# on node-c12f-012
# by uccabz1
#
# compiler GCC version 4.9.2
# options -cpp -iprefix /lustre/shared/ucl/apps/gcc/4.9.2/bin/../lib/gcc/x86_64-unknown-linux-gnu/4.9.2/ -mtune=corei7 -march=x86-64 -g -Og
#
# seed -1630407905   206675843  2093168202 -1873918563 -1043725964  1935514897  1643832553  -459897156  -156630672  1078358709 -1544212191  -574667701
#
#      Author: C. J. Pickard (cjp20@cam.ac.uk)
#                Space group: Cc
#

%BLOCK LATTICE_ABC
      4.60787      4.60787      9.50813
     84.50159     84.50159     88.53188
%ENDBLOCK LATTICE_ABC

%BLOCK POSITIONS_FRAC
  Li  -0.2691686   0.2006125  -0.3129881 SPIN=   0.00000
  Li   0.2006125  -0.2691686   0.1870119 SPIN=   0.00000
  Fe  -0.3089742  -0.2444765  -0.0433066 SPIN=   4.00000
  Fe  -0.2444765  -0.3089742   0.4566934 SPIN=   4.00000
   O   0.5032990   0.2818763  -0.1018852 SPIN=   0.00000
   O   0.1505073  -0.0421074  -0.1865605 SPIN=   0.00000
   O   0.1641491   0.4806921  -0.2751106 SPIN=   0.00000
   O  -0.0233730   0.3321134  -0.0266605 SPIN=   0.00000
   S   0.1986456   0.2631436  -0.1475542 SPIN=   0.00000
   O   0.2818763   0.5032990   0.3981148 SPIN=   0.00000
   O  -0.0421074   0.1505073   0.3134395 SPIN=   0.00000
   O   0.4806921   0.1641491   0.2248894 SPIN=   0.00000
   O   0.3321134  -0.0233730   0.4733395 SPIN=   0.00000
   S   0.2631436   0.1986456   0.3524458 SPIN=   0.00000
   F  -0.2116908  -0.2939613   0.1594593 SPIN=   0.00000
   F  -0.2939613  -0.2116908  -0.3405407 SPIN=   0.00000
%ENDBLOCK POSITIONS_FRAC

# Note: total spin =   8.00

KPOINTS_MP_SPACING 0.07

%BLOCK SPECIES_POT
QC5
%ENDBLOCK SPECIES_POT

SNAP_TO_SYMMETRY
SYMMETRY_GENERATE

