#              Generated by Buildcell
#
# at 20:22:12 (GMT+1.0) 18th August 2020
# in /lustre/scratch/uccabz1/launch_tmp
# on node-c12f-008
# by uccabz1
#
# compiler GCC version 4.9.2
# options -cpp -iprefix /lustre/shared/ucl/apps/gcc/4.9.2/bin/../lib/gcc/x86_64-unknown-linux-gnu/4.9.2/ -mtune=corei7 -march=x86-64 -g -Og
#
# seed  1817537373  -191641757   104026755  -199348778   662596821  1782178201  -153295288  1997616913  1285148267 -1081705674 -1068949133 -1482983466
#
#      Author: C. J. Pickard (cjp20@cam.ac.uk)
#                Space group: P21
#

%BLOCK LATTICE_ABC
      3.98945      6.60221      7.63090
     90.00000     90.00000     95.69332
%ENDBLOCK LATTICE_ABC

%BLOCK POSITIONS_FRAC
  Li   0.0556184  -0.2071824   0.2111877 SPIN=   0.00000
  Li  -0.0556184   0.2071824  -0.2888123 SPIN=   0.00000
  Fe   0.1202808  -0.2129511  -0.2126317 SPIN=   4.00000
  Fe  -0.1202808   0.2129511   0.2873683 SPIN=   4.00000
   O  -0.6582306   0.3806272  -0.2275215 SPIN=   0.00000
   O  -0.2165264   0.2541361  -0.0407909 SPIN=   0.00000
   O  -0.6947268   0.4074339   0.0952716 SPIN=   0.00000
   O  -0.2582601   0.6244077  -0.0671326 SPIN=   0.00000
   S  -0.4569360   0.4166513  -0.0600434 SPIN=   0.00000
   O   0.6582306  -0.3806272   0.2724785 SPIN=   0.00000
   O   0.2165264  -0.2541361   0.4592091 SPIN=   0.00000
   O   0.6947268  -0.4074339   0.5952716 SPIN=   0.00000
   O   0.2582601  -0.6244077   0.4328674 SPIN=   0.00000
   S   0.4569360  -0.4166513   0.4399566 SPIN=   0.00000
   F  -0.3045694   0.0976455  -0.4833583 SPIN=   0.00000
   F   0.3045694  -0.0976455   0.0166417 SPIN=   0.00000
%ENDBLOCK POSITIONS_FRAC

# Note: total spin =   8.00

KPOINTS_MP_SPACING 0.07

%BLOCK SPECIES_POT
QC5
%ENDBLOCK SPECIES_POT

SNAP_TO_SYMMETRY
SYMMETRY_GENERATE

