#              Generated by Buildcell
#
# at 22:35:30 (GMT+1.0) 18th August 2020
# in /lustre/scratch/uccabz1/launch_tmp
# on node-c12f-013
# by uccabz1
#
# compiler GCC version 4.9.2
# options -cpp -iprefix /lustre/shared/ucl/apps/gcc/4.9.2/bin/../lib/gcc/x86_64-unknown-linux-gnu/4.9.2/ -mtune=corei7 -march=x86-64 -g -Og
#
# seed  1132642718  1260661581   185498495   286080137   914632942   112324111     2740815  1784059720   792850703  1084017840   103644450  1983987823
#
#      Author: C. J. Pickard (cjp20@cam.ac.uk)
#                Space group: C2/m
#

%BLOCK LATTICE_ABC
      4.58179      4.58179      9.57137
     87.18664     87.18664     86.04993
%ENDBLOCK LATTICE_ABC

%BLOCK POSITIONS_FRAC
  Li   0.1923346   0.1923346  -0.3856170 SPIN=   0.00000
  Li  -0.1923346  -0.1923346   0.3856170 SPIN=   0.00000
  Fe   0.2147477   0.2147477   0.2221826 SPIN=   4.00000
  Fe  -0.2147477  -0.2147477  -0.2221826 SPIN=   4.00000
   O  -0.0448291   0.3246612  -0.0772903 SPIN=   0.00000
   O  -0.4121853   0.2187081  -0.2457720 SPIN=   0.00000
   O  -0.3246612   0.0448291   0.0772903 SPIN=   0.00000
   O  -0.2187081   0.4121853   0.2457720 SPIN=   0.00000
   O   0.0448291  -0.3246612   0.0772903 SPIN=   0.00000
   O   0.4121853  -0.2187081   0.2457720 SPIN=   0.00000
   O   0.3246612  -0.0448291  -0.0772903 SPIN=   0.00000
   O   0.2187081  -0.4121853  -0.2457720 SPIN=   0.00000
   S   0.2767660   0.2767660  -0.1123789 SPIN=   0.00000
   S  -0.2767660  -0.2767660   0.1123789 SPIN=   0.00000
   F   0.2733908   0.2733908   0.4066243 SPIN=   0.00000
   F  -0.2733908  -0.2733908  -0.4066243 SPIN=   0.00000
%ENDBLOCK POSITIONS_FRAC

# Note: total spin =   8.00

KPOINTS_MP_SPACING 0.07

%BLOCK SPECIES_POT
QC5
%ENDBLOCK SPECIES_POT

SNAP_TO_SYMMETRY
SYMMETRY_GENERATE

