#              Generated by Buildcell
#
# at 00:15:04 (GMT+1.0) 19th August 2020
# in /lustre/scratch/uccabz1/launch_tmp
# on node-c12b-010
# by uccabz1
#
# compiler GCC version 4.9.2
# options -cpp -iprefix /lustre/shared/ucl/apps/gcc/4.9.2/bin/../lib/gcc/x86_64-unknown-linux-gnu/4.9.2/ -mtune=corei7 -march=x86-64 -g -Og
#
# seed  1634548827 -1500135809 -1904166629   213990630  -418740342  1954347697 -1302637019 -1040074988  1035282747  -547286608   138205114 -1371019801
#
#      Author: C. J. Pickard (cjp20@cam.ac.uk)
#                Space group: P-1
#

%BLOCK LATTICE_ABC
      4.22213      6.02347      8.16477
     74.90041     86.92015     86.80880
%ENDBLOCK LATTICE_ABC

%BLOCK POSITIONS_FRAC
  Li   0.5000000  -1.0000000   0.5000000 SPIN=   0.00000
  Li   0.5000000   0.0000000   0.0000000 SPIN=   0.00000
  Fe  -0.0000000  -0.5000000   0.0000000 SPIN=   6.88990
  Fe   0.5000000  -0.5000000   0.5000000 SPIN=   1.11010
   O   0.0563220  -0.3286433   0.3965898 SPIN=   0.00000
   O  -0.3804612  -0.1036482   0.2296443 SPIN=   0.00000
   O   0.1158442  -0.2013287   0.0832921 SPIN=   0.00000
   S  -0.0231220  -0.1374593   0.2407649 SPIN=   0.00000
   O  -0.0563220   0.3286433  -0.3965898 SPIN=   0.00000
   O   0.3804612   0.1036482  -0.2296443 SPIN=   0.00000
   O  -0.1158442   0.2013287  -0.0832921 SPIN=   0.00000
   S   0.0231220   0.1374593  -0.2407649 SPIN=   0.00000
   O  -0.5000000   0.5000000   0.0000000 SPIN=   0.00000
   O  -0.0000000  -0.0000000   0.5000000 SPIN=   0.00000
   F  -0.4321046   0.6884596  -0.3362310 SPIN=   0.00000
   F   0.4321046  -0.6884596   0.3362310 SPIN=   0.00000
%ENDBLOCK POSITIONS_FRAC

# Note: total spin =   8.00

KPOINTS_MP_SPACING 0.07

%BLOCK SPECIES_POT
QC5
%ENDBLOCK SPECIES_POT

SNAP_TO_SYMMETRY
SYMMETRY_GENERATE

