#              Generated by Buildcell
#
# at 00:36:44 (GMT+1.0) 19th August 2020
# in /lustre/scratch/uccabz1/launch_tmp
# on node-c12e-007
# by uccabz1
#
# compiler GCC version 4.9.2
# options -cpp -iprefix /lustre/shared/ucl/apps/gcc/4.9.2/bin/../lib/gcc/x86_64-unknown-linux-gnu/4.9.2/ -mtune=corei7 -march=x86-64 -g -Og
#
# seed  -682702179 -2061563012  1625004702  1515115613 -2011868472    99746043  1172397350  1046082781   402801505   196358133 -1303424695  -246574509
#
#      Author: C. J. Pickard (cjp20@cam.ac.uk)
#                Space group: P-1
#

%BLOCK LATTICE_ABC
      4.07660      6.50675      8.22839
    106.89221    104.31690     93.97173
%ENDBLOCK LATTICE_ABC

%BLOCK POSITIONS_FRAC
  Li   0.5000000   0.5000000  -0.5000000 SPIN=   0.00000
  Li  -0.0000000   0.0000000   0.5000000 SPIN=   0.00000
  Fe  -0.1759581  -0.2462307   0.1031644 SPIN=   4.00000
  Fe   0.1759581   0.2462307  -0.1031644 SPIN=   4.00000
   O   0.1700599   0.3043221   0.1691164 SPIN=   0.00000
   O  -0.3737893   0.0850977   0.1414123 SPIN=   0.00000
   O  -0.2990949   0.4864019   0.2598539 SPIN=   0.00000
   O   0.0225487   0.2789345   0.4376062 SPIN=   0.00000
   S  -0.1200689   0.2886890   0.2519972 SPIN=   0.00000
   O  -0.1700599  -0.3043221  -0.1691164 SPIN=   0.00000
   O   0.3737893  -0.0850977  -0.1414123 SPIN=   0.00000
   O   0.2990949  -0.4864019  -0.2598539 SPIN=   0.00000
   O  -0.0225487  -0.2789345  -0.4376062 SPIN=   0.00000
   S   0.1200689  -0.2886890  -0.2519972 SPIN=   0.00000
   F  -0.3390125   0.1835494  -0.2773119 SPIN=   0.00000
   F   0.3390125  -0.1835494   0.2773119 SPIN=   0.00000
%ENDBLOCK POSITIONS_FRAC

# Note: total spin =   8.00

KPOINTS_MP_SPACING 0.07

%BLOCK SPECIES_POT
QC5
%ENDBLOCK SPECIES_POT

SNAP_TO_SYMMETRY
SYMMETRY_GENERATE

