#              Generated by Buildcell
#
# at 05:37:14 (GMT+1.0) 4th August 2020
# in /lustre/scratch/uccabz1/launch_tmp
# on node-c12c-020
# by uccabz1
#
# compiler GCC version 4.9.2
# options -cpp -iprefix /lustre/shared/ucl/apps/gcc/4.9.2/bin/../lib/gcc/x86_64-unknown-linux-gnu/4.9.2/ -mtune=corei7 -march=x86-64 -g -Og
#
# seed  -893180273     8443601  1089821894  -283947555  -601878587   276708489  1184760312   528770166 -1150890301   460075716 -1321609032  1592664641
#
#      Author: C. J. Pickard (cjp20@cam.ac.uk)
#                Space group: P21
#

%BLOCK LATTICE_ABC
      4.15460      5.97947      8.29153
     90.00000    103.84044     90.00000
%ENDBLOCK LATTICE_ABC

%BLOCK POSITIONS_FRAC
  Li   0.2743887  -0.4088722   0.3395381 SPIN=   0.00000
  Li  -0.2743887   0.0911278  -0.3395381 SPIN=   0.00000
  Fe  -0.1881835  -0.4969248  -0.1253801 SPIN=   4.00000
  Fe   0.1881835   0.0030752   0.1253801 SPIN=   4.00000
   O   0.7612321   0.4320817   0.5111646 SPIN=   0.00000
   O   0.5564553   0.3741616   0.2083722 SPIN=   0.00000
   O   0.6887491   0.0482217   0.3965639 SPIN=   0.00000
   O   1.1401692   0.2880614   0.3460716 SPIN=   0.00000
   S   0.7866514   0.2856316   0.3655431 SPIN=   0.00000
   O  -0.7612321  -0.0679183  -0.5111646 SPIN=   0.00000
   O  -0.5564553  -0.1258384  -0.2083722 SPIN=   0.00000
   O  -0.6887491  -0.4517783  -0.3965639 SPIN=   0.00000
   O  -1.1401692  -0.2119386  -0.3460716 SPIN=   0.00000
   S  -0.7866514  -0.2143684  -0.3655431 SPIN=   0.00000
   F  -0.1856619  -0.2143666   0.1209758 SPIN=   0.00000
   F   0.1856619   0.2856334  -0.1209758 SPIN=   0.00000
%ENDBLOCK POSITIONS_FRAC

# Note: total spin =   8.00

KPOINTS_MP_SPACING 0.07

%BLOCK SPECIES_POT
QC5
%ENDBLOCK SPECIES_POT

SNAP_TO_SYMMETRY
SYMMETRY_GENERATE

