#              Generated by Buildcell
#
# at 02:43:52 (GMT+1.0) 4th August 2020
# in /lustre/scratch/uccabz1/launch_tmp
# on node-c12p-014
# by uccabz1
#
# compiler GCC version 4.9.2
# options -cpp -iprefix /lustre/shared/ucl/apps/gcc/4.9.2/bin/../lib/gcc/x86_64-unknown-linux-gnu/4.9.2/ -mtune=corei7 -march=x86-64 -g -Og
#
# seed -2077659995   274093394  -803941229  1065808453   746855938   723971424  -327253219 -1975829315 -1289560737   793945240  1736929111  1269647620
#
#      Author: C. J. Pickard (cjp20@cam.ac.uk)
#                Space group: C2
#

%BLOCK LATTICE_ABC
      4.59787      6.69745      7.65764
    115.93206    107.39942     90.00000
%ENDBLOCK LATTICE_ABC

%BLOCK POSITIONS_FRAC
  Li   0.1260600   0.3690448  -0.2161158 SPIN=   0.00000
  Li  -0.1260600  -0.4148394   0.2161158 SPIN=   0.00000
  Fe   0.4457234  -0.0806877   0.3973511 SPIN=   4.00000
  Fe  -0.4457234  -0.4780388  -0.3973511 SPIN=   4.00000
   O   0.2367142   0.0983258  -0.0267062 SPIN=   0.00000
   O   0.0047226  -0.3013113  -0.2478820 SPIN=   0.00000
   O   0.3980543  -0.1338050  -0.3261597 SPIN=   0.00000
   O  -0.1228631  -0.0237665  -0.3804808 SPIN=   0.00000
   S   0.1291570  -0.0901392  -0.2453072 SPIN=   0.00000
   O  -0.2367142   0.1250321   0.0267062 SPIN=   0.00000
   O  -0.0047226  -0.0534293   0.2478820 SPIN=   0.00000
   O  -0.3980543   0.1923547   0.3261597 SPIN=   0.00000
   O   0.1228631   0.3567143   0.3804808 SPIN=   0.00000
   S  -0.1291570   0.1551679   0.2453072 SPIN=   0.00000
   F  -0.3707109   0.3253047  -0.2434007 SPIN=   0.00000
   F   0.3707109  -0.4312946   0.2434007 SPIN=   0.00000
%ENDBLOCK POSITIONS_FRAC

# Note: total spin =   8.00

KPOINTS_MP_SPACING 0.07

%BLOCK SPECIES_POT
QC5
%ENDBLOCK SPECIES_POT

SNAP_TO_SYMMETRY
SYMMETRY_GENERATE

