#              Generated by Buildcell
#
# at 17:46:46 (GMT+1.0) 18th August 2020
# in /lustre/scratch/uccabz1/launch_tmp
# on node-c12n-031
# by uccabz1
#
# compiler GCC version 4.9.2
# options -cpp -iprefix /lustre/shared/ucl/apps/gcc/4.9.2/bin/../lib/gcc/x86_64-unknown-linux-gnu/4.9.2/ -mtune=corei7 -march=x86-64 -g -Og
#
# seed  -135109621  -477269207   827133426 -1556178345 -1248705549   794418836 -1038797139  1503921754   547544937  1774960100   248276263   -75266724
#
#      Author: C. J. Pickard (cjp20@cam.ac.uk)
#                Space group: Cc
#

%BLOCK LATTICE_ABC
      5.43568      6.46227      6.46227
    109.63380    101.75105    101.75105
%ENDBLOCK LATTICE_ABC

%BLOCK POSITIONS_FRAC
  Li   0.4754188   0.1249699  -0.1515568 SPIN=   0.00000
  Li  -0.0245812  -0.1515568   0.1249699 SPIN=   0.00000
  Fe  -0.3196193  -0.4093593   0.3500214 SPIN=   4.00000
  Fe   0.1803807   0.3500214  -0.4093593 SPIN=   4.00000
   O  -0.1855441   0.0738411   0.2983283 SPIN=   0.00000
   O  -0.6627497  -0.0790679   0.0952698 SPIN=   0.00000
   O  -0.4845597   0.2993563   0.4231362 SPIN=   0.00000
   O  -0.4978532  -0.0571789   0.4906716 SPIN=   0.00000
   S  -0.4576767   0.0592377   0.3268515 SPIN=   0.00000
   O   0.3144559   0.2983283   0.0738411 SPIN=   0.00000
   O  -0.1627497   0.0952698  -0.0790679 SPIN=   0.00000
   O   0.0154403   0.4231362   0.2993563 SPIN=   0.00000
   O   0.0021468   0.4906716  -0.0571789 SPIN=   0.00000
   S   0.0423233   0.3268515   0.0592377 SPIN=   0.00000
   F   0.0564526  -0.1636107  -0.4245685 SPIN=   0.00000
   F  -0.4435474  -0.4245685  -0.1636107 SPIN=   0.00000
%ENDBLOCK POSITIONS_FRAC

# Note: total spin =   8.00

KPOINTS_MP_SPACING 0.07

%BLOCK SPECIES_POT
QC5
%ENDBLOCK SPECIES_POT

SNAP_TO_SYMMETRY
SYMMETRY_GENERATE

