#              Generated by Buildcell
#
# at 22:44:09 (GMT+1.0) 18th August 2020
# in /scratch/scratch/uccabz1/launch_tmp
# on node-k10f-025
# by uccabz1
#
# compiler GCC version 4.9.2
# options -cpp -iprefix /scratch/UCL/applications/gcc/4.9.2/bin/../lib/gcc/x86_64-unknown-linux-gnu/4.9.2/ -mtune=corei7 -march=x86-64 -g -O2
#
# seed  2008509729  -821456204 -1725905761   382995124  1607382843 -1698757371  1822682499 -1766809131 -2101486612  1277956581  1033059217 -1810788031
#
#      Author: C. J. Pickard (cjp20@cam.ac.uk)
#                Space group: P-1
#

%BLOCK LATTICE_ABC
      4.54271      5.89230      7.68201
     83.10274     78.45357     88.21474
%ENDBLOCK LATTICE_ABC

%BLOCK POSITIONS_FRAC
  Li   0.0000000   0.0000000   0.0000000 SPIN=   0.00000
  Li  -0.5000000  -0.5000000   0.5000000 SPIN=   0.00000
  Fe  -0.1374695  -0.4302175  -0.2308621 SPIN=   4.00000
  Fe   0.1374695   0.4302175   0.2308621 SPIN=   4.00000
   O  -0.3835942   0.1599714   0.1316416 SPIN=   0.00000
   O  -0.4641301  -0.2561884   0.1482977 SPIN=   0.00000
   O  -0.8263345  -0.0204641   0.3370383 SPIN=   0.00000
   O  -0.3175373  -0.0954530   0.4015243 SPIN=   0.00000
   S  -0.4978990  -0.0530335   0.2546255 SPIN=   0.00000
   O   0.3835942  -0.1599714  -0.1316416 SPIN=   0.00000
   O   0.4641301   0.2561884  -0.1482977 SPIN=   0.00000
   O   0.8263345   0.0204641  -0.3370383 SPIN=   0.00000
   O   0.3175373   0.0954530  -0.4015243 SPIN=   0.00000
   S   0.4978990   0.0530335  -0.2546255 SPIN=   0.00000
   F   0.0000000   0.5000000   0.0000000 SPIN=   0.00000
   F  -1.0000000  -0.5000000  -0.5000000 SPIN=   0.00000
%ENDBLOCK POSITIONS_FRAC

# Note: total spin =   8.00

KPOINTS_MP_SPACING 0.07

%BLOCK SPECIES_POT
QC5
%ENDBLOCK SPECIES_POT

SNAP_TO_SYMMETRY
SYMMETRY_GENERATE

