#              Generated by Buildcell
#
# at 05:00:49 (GMT+1.0) 4th August 2020
# in /lustre/scratch/uccabz1/launch_tmp
# on node-c12d-025
# by uccabz1
#
# compiler GCC version 4.9.2
# options -cpp -iprefix /lustre/shared/ucl/apps/gcc/4.9.2/bin/../lib/gcc/x86_64-unknown-linux-gnu/4.9.2/ -mtune=corei7 -march=x86-64 -g -Og
#
# seed   764133695 -1362055607  -436169202   167283969 -1043311032  1911538108   -46561334  1889653643  2002345791  1664240126   545392360  -334187650
#
#      Author: C. J. Pickard (cjp20@cam.ac.uk)
#                Space group: P-1
#

%BLOCK LATTICE_ABC
      3.85992      7.29344      8.20474
    113.89806     93.78357    105.10023
%ENDBLOCK LATTICE_ABC

%BLOCK POSITIONS_FRAC
  Li  -0.1531425   0.2189011  -0.0274834 SPIN=   0.00000
  Li   0.1531425  -0.2189011   0.0274834 SPIN=   0.00000
  Fe  -0.8233293  -0.0929869  -0.3410621 SPIN=   4.00000
  Fe   0.8233293   0.0929869   0.3410621 SPIN=   4.00000
   O   1.0047834   0.6583203   0.2249985 SPIN=   0.00000
   O   0.3546431   0.4374851   0.1140877 SPIN=   0.00000
   O   0.6080816   0.6304059   0.4444030 SPIN=   0.00000
   O   0.7944375   0.3236551   0.2534195 SPIN=   0.00000
   S   0.6904864   0.5124666   0.2592272 SPIN=   0.00000
   O  -1.0047834  -0.6583203  -0.2249985 SPIN=   0.00000
   O  -0.3546431  -0.4374851  -0.1140877 SPIN=   0.00000
   O  -0.6080816  -0.6304059  -0.4444030 SPIN=   0.00000
   O  -0.7944375  -0.3236551  -0.2534195 SPIN=   0.00000
   S  -0.6904864  -0.5124666  -0.2592272 SPIN=   0.00000
   F   0.5000000   0.0000000   0.5000000 SPIN=   0.00000
   F   0.0000000   0.0000000   0.0000000 SPIN=   0.00000
%ENDBLOCK POSITIONS_FRAC

# Note: total spin =   8.00

KPOINTS_MP_SPACING 0.07

%BLOCK SPECIES_POT
QC5
%ENDBLOCK SPECIES_POT

SNAP_TO_SYMMETRY
SYMMETRY_GENERATE

