#              Generated by Buildcell
#
# at 01:39:38 (GMT+1.0) 19th August 2020
# in /lustre/scratch/uccabz1/launch_tmp
# on node-c12p-024
# by uccabz1
#
# compiler GCC version 4.9.2
# options -cpp -iprefix /lustre/shared/ucl/apps/gcc/4.9.2/bin/../lib/gcc/x86_64-unknown-linux-gnu/4.9.2/ -mtune=corei7 -march=x86-64 -g -Og
#
# seed -1020806827  -970977105 -2116471235  1611972879 -1508592971    -4446139 -1457861607   565727985  1738386982  -501773340   206184422  1120001510
#
#      Author: C. J. Pickard (cjp20@cam.ac.uk)
#                Space group: Iba2
#

%BLOCK LATTICE_ABC
      4.77102      6.33313      7.71560
    114.23064    108.00980     90.00000
%ENDBLOCK LATTICE_ABC

%BLOCK POSITIONS_FRAC
  Li   0.0610865   0.0610865   0.1221729 SPIN=   0.00000
  Li  -0.4389135  -0.4389135  -0.8778271 SPIN=   0.00000
  Fe  -0.3012242   0.1987758   0.3975517 SPIN=   4.00000
  Fe   0.1987758  -0.3012242  -0.6024483 SPIN=   4.00000
   O  -0.3475040  -0.4707418  -0.1368094 SPIN=   0.00000
   O   0.1461331  -0.2578937   0.1115622 SPIN=   0.00000
   O   0.2106946   0.3339323  -0.1368094 SPIN=   0.00000
   O  -0.0345709   0.3694558   0.1115622 SPIN=   0.00000
   O  -0.2893054   0.0292582  -0.1368094 SPIN=   0.00000
   O  -0.5345709   0.2421063   0.1115622 SPIN=   0.00000
   O   0.1524960  -0.1660677  -0.1368094 SPIN=   0.00000
   O   0.6461331  -0.1305442   0.1115622 SPIN=   0.00000
   S   0.4456700  -0.0543300  -0.1086601 SPIN=   0.00000
   S  -0.0543300   0.4456700   0.8913399 SPIN=   0.00000
   F   0.2155118   0.2155118   0.4310235 SPIN=   0.00000
   F  -0.2844882  -0.2844882  -0.5689765 SPIN=   0.00000
%ENDBLOCK POSITIONS_FRAC

# Note: total spin =   8.00

KPOINTS_MP_SPACING 0.07

%BLOCK SPECIES_POT
QC5
%ENDBLOCK SPECIES_POT

SNAP_TO_SYMMETRY
SYMMETRY_GENERATE

