#              Generated by Buildcell
#
# at 22:36:37 (GMT+1.0) 18th August 2020
# in /lustre/scratch/uccabz1/launch_tmp
# on node-c12f-002
# by uccabz1
#
# compiler GCC version 4.9.2
# options -cpp -iprefix /lustre/shared/ucl/apps/gcc/4.9.2/bin/../lib/gcc/x86_64-unknown-linux-gnu/4.9.2/ -mtune=corei7 -march=x86-64 -g -Og
#
# seed   309017533  1723703878  1788222403  1301619225 -1557621797  -444737251  1457959871  1486775237  -838683656  -660843752   137991603 -1878352386
#
#      Author: C. J. Pickard (cjp20@cam.ac.uk)
#                Space group: Pba2
#

%BLOCK LATTICE_ABC
      5.64472      5.64479      6.27683
     90.00000     90.00000     90.00000
%ENDBLOCK LATTICE_ABC

%BLOCK POSITIONS_FRAC
  Li  -0.0000000   0.0000000   0.3082121 SPIN=   0.00000
  Li   0.5000000   0.5000000   0.3082121 SPIN=   0.00000
  Fe  -0.0000000   0.5000000  -0.4488611 SPIN=   4.00000
  Fe   0.5000000  -0.0000000  -0.4488611 SPIN=   4.00000
   O  -0.4315541  -0.2509710  -0.1080764 SPIN=   0.00000
   O  -0.1581038  -0.1318426  -0.3970611 SPIN=   0.00000
   O   0.4315541   0.2509710  -0.1080764 SPIN=   0.00000
   O   0.1581038   0.1318426  -0.3970611 SPIN=   0.00000
   O  -0.0684459   0.2490290  -0.1080764 SPIN=   0.00000
   O  -0.3418962   0.3681574  -0.3970611 SPIN=   0.00000
   O   0.0684459  -0.2490290  -0.1080764 SPIN=   0.00000
   O   0.3418962  -0.3681574  -0.3970611 SPIN=   0.00000
   S  -0.0000000   0.0000000  -0.1522586 SPIN=   0.00000
   S   0.5000000   0.5000000  -0.1522586 SPIN=   0.00000
   F  -0.0000000  -0.5000000   0.2208046 SPIN=   0.00000
   F   0.5000000   0.0000000   0.2208046 SPIN=   0.00000
%ENDBLOCK POSITIONS_FRAC

# Note: total spin =   8.00

KPOINTS_MP_SPACING 0.07

%BLOCK SPECIES_POT
QC5
%ENDBLOCK SPECIES_POT

SNAP_TO_SYMMETRY
SYMMETRY_GENERATE

