#              Generated by Buildcell
#
# at 03:06:41 (GMT+1.0) 4th August 2020
# in /lustre/scratch/uccabz1/launch_tmp
# on node-c12n-019
# by uccabz1
#
# compiler GCC version 4.9.2
# options -cpp -iprefix /lustre/shared/ucl/apps/gcc/4.9.2/bin/../lib/gcc/x86_64-unknown-linux-gnu/4.9.2/ -mtune=corei7 -march=x86-64 -g -Og
#
# seed  -115515980 -1355694936  1996362044 -1934633605  1698250783    35938223 -1654671302 -1154150397 -1908460840   391328938    11639643  1924249464
#
#      Author: C. J. Pickard (cjp20@cam.ac.uk)
#                Space group: Cc
#

%BLOCK LATTICE_ABC
      3.95028      3.95028     12.94786
     84.22369     84.22369     89.60139
%ENDBLOCK LATTICE_ABC

%BLOCK POSITIONS_FRAC
  Li   0.0101646   0.4136001   0.0821025 SPIN=   0.00000
  Li   0.4136001   0.0101646  -0.4178975 SPIN=   0.00000
  Fe  -0.0633218  -0.4815799  -0.4974211 SPIN=   4.00000
  Fe  -0.4815799  -0.0633218   0.0025789 SPIN=   4.00000
   O   0.5694829   0.3658238   0.1977968 SPIN=   0.00000
   O   0.7179233  -0.0176577   0.3496571 SPIN=   0.00000
   O   0.2313879  -0.1567810   0.2549338 SPIN=   0.00000
   O   0.1923391   0.3264872   0.3632150 SPIN=   0.00000
   S   0.4277833   0.1294681   0.2914007 SPIN=   0.00000
   O   0.3658238   0.5694829  -0.3022032 SPIN=   0.00000
   O  -0.0176577   0.7179233  -0.1503429 SPIN=   0.00000
   O  -0.1567810   0.2313879  -0.2450662 SPIN=   0.00000
   O   0.3264872   0.1923391  -0.1367850 SPIN=   0.00000
   S   0.1294681   0.4277833  -0.2085993 SPIN=   0.00000
   F  -0.0108164  -0.0959891   0.0551890 SPIN=   0.00000
   F  -0.0959891  -0.0108164  -0.4448110 SPIN=   0.00000
%ENDBLOCK POSITIONS_FRAC

# Note: total spin =   8.00

KPOINTS_MP_SPACING 0.07

%BLOCK SPECIES_POT
QC5
%ENDBLOCK SPECIES_POT

SNAP_TO_SYMMETRY
SYMMETRY_GENERATE

