#              Generated by Buildcell
#
# at 23:19:29 (GMT+1.0) 18th August 2020
# in /lustre/scratch/uccabz1/launch_tmp
# on node-c12e-001
# by uccabz1
#
# compiler GCC version 4.9.2
# options -cpp -iprefix /lustre/shared/ucl/apps/gcc/4.9.2/bin/../lib/gcc/x86_64-unknown-linux-gnu/4.9.2/ -mtune=corei7 -march=x86-64 -g -Og
#
# seed    29627363  1653395289   919600352   -98464850   313087109 -1898228885  1892801055  1414513567  1730500102  -334283960 -2136312928  1344281449
#
#      Author: C. J. Pickard (cjp20@cam.ac.uk)
#                Space group: Cmm2
#

%BLOCK LATTICE_ABC
      3.78609      7.64528      7.89643
    118.95332     90.00000     90.00000
%ENDBLOCK LATTICE_ABC

%BLOCK POSITIONS_FRAC
  Li   0.3512341   0.1368113   0.2736226 SPIN=   0.00000
  Li   0.3512341  -0.1368113  -0.2736226 SPIN=   0.00000
  Fe   0.3598672  -0.3519357   0.2961286 SPIN=   4.00000
  Fe   0.3598672   0.3519357  -0.2961286 SPIN=   4.00000
   O   0.7332115  -0.4337637  -0.1638417 SPIN=   0.00000
   O   0.1982982  -0.4181765  -0.3361936 SPIN=   0.00000
   O   0.7332115   0.4337637   0.1638417 SPIN=   0.00000
   O   0.1982982   0.4181765   0.3361936 SPIN=   0.00000
   O   0.7332115  -0.2699220   0.1638417 SPIN=   0.00000
   O   0.1982982  -0.0819828   0.3361936 SPIN=   0.00000
   O   0.7332115   0.2699220  -0.1638417 SPIN=   0.00000
   O   0.1982982   0.0819828  -0.3361936 SPIN=   0.00000
   S  -0.1310145   0.2472585   0.0000000 SPIN=   0.00000
   S  -0.1310145  -0.2472585  -0.0000000 SPIN=   0.00000
   F  -0.2553824  -0.2370767  -0.4741535 SPIN=   0.00000
   F  -0.2553824   0.2370767   0.4741535 SPIN=   0.00000
%ENDBLOCK POSITIONS_FRAC

# Note: total spin =   8.00

KPOINTS_MP_SPACING 0.07

%BLOCK SPECIES_POT
QC5
%ENDBLOCK SPECIES_POT

SNAP_TO_SYMMETRY
SYMMETRY_GENERATE

