#              Generated by Buildcell
#
# at 02:53:58 (GMT+1.0) 19th August 2020
# in /lustre/scratch/uccabz1/launch_tmp
# on node-c12f-006
# by uccabz1
#
# compiler GCC version 4.9.2
# options -cpp -iprefix /lustre/shared/ucl/apps/gcc/4.9.2/bin/../lib/gcc/x86_64-unknown-linux-gnu/4.9.2/ -mtune=corei7 -march=x86-64 -g -Og
#
# seed   515095456  -999448996  1190620078 -1277759204  1980376079  2045638944 -1804922831 -2022029044  -456724867 -1225283419   549903908  -710652015
#
#      Author: C. J. Pickard (cjp20@cam.ac.uk)
#                Space group: C2
#

%BLOCK LATTICE_ABC
      5.77938      5.77938      7.08648
     67.33480     67.33480     75.29285
%ENDBLOCK LATTICE_ABC

%BLOCK POSITIONS_FRAC
  Li   0.2357054  -0.2357054  -0.5000000 SPIN=   0.00000
  Li   0.2993709  -0.2993709   0.0000000 SPIN=   0.00000
  Fe  -0.2535924  -0.0572773   0.3957883 SPIN=   4.00000
  Fe   0.0572773   0.2535924  -0.3957883 SPIN=   4.00000
   O  -0.2461781  -0.0718218  -0.1687958 SPIN=   0.00000
   O  -0.3015422  -0.4810544   0.1262323 SPIN=   0.00000
   O   0.1128555  -0.4130071  -0.1600480 SPIN=   0.00000
   S  -0.1709685  -0.3551056  -0.1118399 SPIN=   0.00000
   O   0.0718218   0.2461781   0.1687958 SPIN=   0.00000
   O   0.4810544   0.3015422  -0.1262323 SPIN=   0.00000
   O   0.4130071  -0.1128555   0.1600480 SPIN=   0.00000
   S   0.3551056   0.1709685   0.1118399 SPIN=   0.00000
   O  -0.4745568   0.4745568   0.5000000 SPIN=   0.00000
   O   0.0064751  -0.0064751   0.0000000 SPIN=   0.00000
   F   0.0133273  -0.4073730   0.3830249 SPIN=   0.00000
   F   0.4073730  -0.0133273  -0.3830249 SPIN=   0.00000
%ENDBLOCK POSITIONS_FRAC

# Note: total spin =   8.00

KPOINTS_MP_SPACING 0.07

%BLOCK SPECIES_POT
QC5
%ENDBLOCK SPECIES_POT

SNAP_TO_SYMMETRY
SYMMETRY_GENERATE

