#              Generated by Buildcell
#
# at 01:50:35 (GMT+1.0) 4th August 2020
# in /lustre/scratch/uccabz1/launch_tmp
# on node-c12p-010
# by uccabz1
#
# compiler GCC version 4.9.2
# options -cpp -iprefix /lustre/shared/ucl/apps/gcc/4.9.2/bin/../lib/gcc/x86_64-unknown-linux-gnu/4.9.2/ -mtune=corei7 -march=x86-64 -g -Og
#
# seed  1592559242 -1336063240  1337388650 -1440709607  1034084379  1613556205  1383329263  -443506153   655675393  -204230034 -1736452210   640167338
#
#      Author: C. J. Pickard (cjp20@cam.ac.uk)
#                Space group: P21/m
#

%BLOCK LATTICE_ABC
      3.99104      4.29189     11.67603
     90.00000     90.00000     90.03120
%ENDBLOCK LATTICE_ABC

%BLOCK POSITIONS_FRAC
  Li   0.4019426   0.4204178   0.2500000 SPIN=   0.00000
  Li  -0.4019426  -0.4204178  -0.2500000 SPIN=   0.00000
  Fe   0.0981728   0.0794823  -0.2500000 SPIN=   4.00000
  Fe  -0.0981728  -0.0794823   0.2500000 SPIN=   4.00000
   O  -0.2058564   0.1216947   0.4364181 SPIN=   0.00000
   O  -0.5168349  -0.3704955   0.4061241 SPIN=   0.00000
   O   0.2058564  -0.1216947  -0.0635819 SPIN=   0.00000
   O   0.5168349   0.3704955  -0.0938759 SPIN=   0.00000
   O   0.2058564  -0.1216947  -0.4364181 SPIN=   0.00000
   O   0.5168349   0.3704955  -0.4061241 SPIN=   0.00000
   O  -0.2058564   0.1216947   0.0635819 SPIN=   0.00000
   O  -0.5168349  -0.3704955   0.0938759 SPIN=   0.00000
   S  -0.5000000  -0.0000000   0.0000000 SPIN=   0.00000
   S  -0.5000000   0.0000000  -0.5000000 SPIN=   0.00000
   F   0.0892105  -0.4439539  -0.2500000 SPIN=   0.00000
   F  -0.0892105   0.4439539   0.2500000 SPIN=   0.00000
%ENDBLOCK POSITIONS_FRAC

# Note: total spin =   8.00

KPOINTS_MP_SPACING 0.07

%BLOCK SPECIES_POT
QC5
%ENDBLOCK SPECIES_POT

SNAP_TO_SYMMETRY
SYMMETRY_GENERATE

