#              Generated by Buildcell
#
# at 03:37:59 (GMT+1.0) 4th August 2020
# in /lustre/scratch/uccabz1/launch_tmp
# on node-c12g-007
# by uccabz1
#
# compiler GCC version 4.9.2
# options -cpp -iprefix /lustre/shared/ucl/apps/gcc/4.9.2/bin/../lib/gcc/x86_64-unknown-linux-gnu/4.9.2/ -mtune=corei7 -march=x86-64 -g -Og
#
# seed -1558706319 -1314930388 -1796644674  1787859159  2128628625  1302011719  1979857136 -1463102785  -200690008  1416936266 -1147301046  -552193465
#
#      Author: C. J. Pickard (cjp20@cam.ac.uk)
#                Space group: C2
#

%BLOCK LATTICE_ABC
      4.57133      6.87960      6.87960
    111.15591     94.28936     94.28936
%ENDBLOCK LATTICE_ABC

%BLOCK POSITIONS_FRAC
  Li   0.0215112  -0.2232034  -0.2658217 SPIN=   0.00000
  Li  -0.0215112   0.2658217   0.2232034 SPIN=   0.00000
  Fe  -0.5000000  -0.0889371   0.0889371 SPIN=   4.63109
  Fe  -0.5000000  -0.4153594   0.4153594 SPIN=   3.36891
   O   0.2136602   0.1571151   0.6973885 SPIN=   0.00000
   O   0.2486466  -0.0485181   0.3230424 SPIN=   0.00000
   O  -0.2025881   0.1207668   0.4306914 SPIN=   0.00000
   S   0.0426698   0.0111275   0.4929080 SPIN=   0.00000
   O  -0.2136602  -0.6973885  -0.1571151 SPIN=   0.00000
   O  -0.2486466  -0.3230424   0.0485181 SPIN=   0.00000
   O   0.2025881  -0.4306914  -0.1207668 SPIN=   0.00000
   S  -0.0426698  -0.4929080  -0.0111275 SPIN=   0.00000
   O  -0.5000000   0.4032808  -0.4032808 SPIN=   0.00000
   O   0.0000000   0.4760159  -0.4760159 SPIN=   0.00000
   F  -0.4517057  -0.1999918  -0.2426313 SPIN=   0.00000
   F   0.4517057   0.2426313   0.1999918 SPIN=   0.00000
%ENDBLOCK POSITIONS_FRAC

# Note: total spin =   8.00

KPOINTS_MP_SPACING 0.07

%BLOCK SPECIES_POT
QC5
%ENDBLOCK SPECIES_POT

SNAP_TO_SYMMETRY
SYMMETRY_GENERATE

