#              Generated by Buildcell
#
# at 05:47:55 (GMT+1.0) 4th August 2020
# in /lustre/scratch/uccabz1/launch_tmp
# on node-c12c-029
# by uccabz1
#
# compiler GCC version 4.9.2
# options -cpp -iprefix /lustre/shared/ucl/apps/gcc/4.9.2/bin/../lib/gcc/x86_64-unknown-linux-gnu/4.9.2/ -mtune=corei7 -march=x86-64 -g -Og
#
# seed  1856399055  -275796900  1472421705  1802991265 -1700794633  2095405491   957452178  1749698423   301601679   382009803  1399685670   425396659
#
#      Author: C. J. Pickard (cjp20@cam.ac.uk)
#                Space group: Cc
#

%BLOCK LATTICE_ABC
      4.46877      4.46877     10.34169
     80.35267     80.35267     83.65618
%ENDBLOCK LATTICE_ABC

%BLOCK POSITIONS_FRAC
  Li   0.4664779  -0.4425420   0.1746071 SPIN=   0.00000
  Li  -0.4425420   0.4664779  -0.3253929 SPIN=   0.00000
  Fe   0.1002327   0.0261587  -0.3701828 SPIN=   4.00000
  Fe   0.0261587   0.1002327   0.1298172 SPIN=   4.00000
   O  -0.1265184  -0.5123928   0.2577308 SPIN=   0.00000
   O  -0.0881060  -0.2427429   0.4439591 SPIN=   0.00000
   O  -0.2230009  -0.7766924   0.4890843 SPIN=   0.00000
   O  -0.5919979  -0.3628544   0.4072295 SPIN=   0.00000
   S  -0.2574058  -0.4736706   0.3995009 SPIN=   0.00000
   O  -0.5123928  -0.1265184  -0.2422692 SPIN=   0.00000
   O  -0.2427429  -0.0881060  -0.0560409 SPIN=   0.00000
   O  -0.7766924  -0.2230009  -0.0109157 SPIN=   0.00000
   O  -0.3628544  -0.5919979  -0.0927705 SPIN=   0.00000
   S  -0.4736706  -0.2574058  -0.1004991 SPIN=   0.00000
   F   0.1443294   0.4390549  -0.3220908 SPIN=   0.00000
   F   0.4390549   0.1443294   0.1779092 SPIN=   0.00000
%ENDBLOCK POSITIONS_FRAC

# Note: total spin =   8.00

KPOINTS_MP_SPACING 0.07

%BLOCK SPECIES_POT
QC5
%ENDBLOCK SPECIES_POT

SNAP_TO_SYMMETRY
SYMMETRY_GENERATE

