#              Generated by Buildcell
#
# at 01:39:12 (GMT+1.0) 19th August 2020
# in /lustre/scratch/uccabz1/launch_tmp
# on node-c12g-024
# by uccabz1
#
# compiler GCC version 4.9.2
# options -cpp -iprefix /lustre/shared/ucl/apps/gcc/4.9.2/bin/../lib/gcc/x86_64-unknown-linux-gnu/4.9.2/ -mtune=corei7 -march=x86-64 -g -Og
#
# seed   -34674478  -423487964   597266958   160687045  1683507199  1193015938  1258847169 -1540606121  -782164309  -183831381   -74914335  -682829324
#
#      Author: C. J. Pickard (cjp20@cam.ac.uk)
#                Space group: P21212
#

%BLOCK LATTICE_ABC
      3.99237      6.71185      7.46375
     90.00000     90.00000     90.00000
%ENDBLOCK LATTICE_ABC

%BLOCK POSITIONS_FRAC
  Li   0.0000000  -0.0000000   0.1571656 SPIN=   0.00000
  Li   0.5000000   0.5000000  -0.1571656 SPIN=   0.00000
  Fe  -0.0000000  -0.0000000  -0.4348263 SPIN=   4.00000
  Fe  -0.5000000  -0.5000000   0.4348263 SPIN=   4.00000
   O   0.1923543   0.6421797   0.2413782 SPIN=   0.00000
   O   0.2925495   0.3452045   0.0522833 SPIN=   0.00000
   O  -0.1923543  -0.6421797   0.2413782 SPIN=   0.00000
   O  -0.2925495  -0.3452045   0.0522833 SPIN=   0.00000
   O  -0.3076457  -0.1421797  -0.2413782 SPIN=   0.00000
   O  -0.2074505   0.1547955  -0.0522833 SPIN=   0.00000
   O   0.3076457   0.1421797  -0.2413782 SPIN=   0.00000
   O   0.2074505  -0.1547955  -0.0522833 SPIN=   0.00000
   S  -0.5000000  -0.0000000  -0.0980678 SPIN=   0.00000
   S   0.0000000   0.5000000   0.0980678 SPIN=   0.00000
   F  -0.5000000  -0.0000000   0.3833723 SPIN=   0.00000
   F  -0.0000000   0.5000000  -0.3833723 SPIN=   0.00000
%ENDBLOCK POSITIONS_FRAC

# Note: total spin =   8.00

KPOINTS_MP_SPACING 0.07

%BLOCK SPECIES_POT
QC5
%ENDBLOCK SPECIES_POT

SNAP_TO_SYMMETRY
SYMMETRY_GENERATE

