#              Generated by Buildcell
#
# at 00:31:45 (GMT+1.0) 19th August 2020
# in /scratch/scratch/uccabz1/launch_tmp
# on node-k10d-019
# by uccabz1
#
# compiler GCC version 4.9.2
# options -cpp -iprefix /scratch/UCL/applications/gcc/4.9.2/bin/../lib/gcc/x86_64-unknown-linux-gnu/4.9.2/ -mtune=corei7 -march=x86-64 -g -O2
#
# seed -1065702940 -1808814526  -891778380  1883457978 -1660037261  -939529394 -1293593215   497496835  2055784765  -858771091   206376735  1484225766
#
#      Author: C. J. Pickard (cjp20@cam.ac.uk)
#                Space group: C2
#

%BLOCK LATTICE_ABC
      5.34311      5.34311      7.74168
    106.46946    106.46946     94.78774
%ENDBLOCK LATTICE_ABC

%BLOCK POSITIONS_FRAC
  Li  -0.0042347   0.0042347   0.5000000 SPIN=   0.00000
  Li   0.4594485  -0.4594485  -0.0000000 SPIN=   0.00000
  Fe   0.0762443  -0.0762443   0.0000000 SPIN=   5.80502
  Fe   0.3779436  -0.3779436  -0.5000000 SPIN=   2.19498
   O  -0.4631974   0.4598162  -0.2519267 SPIN=   0.00000
   O  -0.0764303   0.3510131  -0.0396958 SPIN=   0.00000
   O  -0.0752117   0.3621731  -0.3568723 SPIN=   0.00000
   O  -0.3699950   0.0023171  -0.3301679 SPIN=   0.00000
   S  -0.2462086   0.2938299  -0.2446657 SPIN=   0.00000
   O  -0.4598162   0.4631974   0.2519267 SPIN=   0.00000
   O  -0.3510131   0.0764303   0.0396958 SPIN=   0.00000
   O  -0.3621731   0.0752117   0.3568723 SPIN=   0.00000
   O  -0.0023171   0.3699950   0.3301679 SPIN=   0.00000
   S  -0.2938299   0.2462086   0.2446657 SPIN=   0.00000
   F   0.2012396  -0.1505522  -0.2455802 SPIN=   0.00000
   F   0.1505522  -0.2012396   0.2455802 SPIN=   0.00000
%ENDBLOCK POSITIONS_FRAC

# Note: total spin =   8.00

KPOINTS_MP_SPACING 0.07

%BLOCK SPECIES_POT
QC5
%ENDBLOCK SPECIES_POT

SNAP_TO_SYMMETRY
SYMMETRY_GENERATE

