#              Generated by Buildcell
#
# at 03:04:09 (GMT+1.0) 19th August 2020
# in /lustre/scratch/uccabz1/launch_tmp
# on node-c12a-022
# by uccabz1
#
# compiler GCC version 4.9.2
# options -cpp -iprefix /lustre/shared/ucl/apps/gcc/4.9.2/bin/../lib/gcc/x86_64-unknown-linux-gnu/4.9.2/ -mtune=corei7 -march=x86-64 -g -Og
#
# seed   516985809 -2040713484  -346028139 -1319963901  1367940559  1291850472   597946633  -915902895  1881598074   520126968 -2106237138  -148411697
#
#      Author: C. J. Pickard (cjp20@cam.ac.uk)
#                Space group: P21212
#

%BLOCK LATTICE_ABC
      5.42284      5.64259      6.53620
     90.00000     90.00000     90.00000
%ENDBLOCK LATTICE_ABC

%BLOCK POSITIONS_FRAC
  Li   0.5000000  -0.0000000   0.1054924 SPIN=   0.00000
  Li  -0.0000000   0.5000000  -0.1054924 SPIN=   0.00000
  Fe   0.0000000  -0.0000000  -0.4716391 SPIN=   4.00000
  Fe  -0.5000000   0.5000000   0.4716391 SPIN=   4.00000
   O  -0.1855487   0.1122812   0.2404718 SPIN=   0.00000
   O  -0.1425438   0.1616925  -0.1340634 SPIN=   0.00000
   O   0.1855487  -0.1122812   0.2404718 SPIN=   0.00000
   O   0.1425438  -0.1616925  -0.1340634 SPIN=   0.00000
   O   0.3144513   0.3877188  -0.2404718 SPIN=   0.00000
   O   0.3574562   0.3383075   0.1340634 SPIN=   0.00000
   O  -0.3144513  -0.3877188  -0.2404718 SPIN=   0.00000
   O  -0.3574562  -0.3383075   0.1340634 SPIN=   0.00000
   S   0.0000000  -0.0000000   0.0284384 SPIN=   0.00000
   S  -0.5000000   0.5000000  -0.0284384 SPIN=   0.00000
   F   0.5000000  -0.0000000  -0.3875206 SPIN=   0.00000
   F  -0.0000000   0.5000000   0.3875206 SPIN=   0.00000
%ENDBLOCK POSITIONS_FRAC

# Note: total spin =   8.00

KPOINTS_MP_SPACING 0.07

%BLOCK SPECIES_POT
QC5
%ENDBLOCK SPECIES_POT

SNAP_TO_SYMMETRY
SYMMETRY_GENERATE

