#              Generated by Buildcell
#
# at 00:46:28 (GMT+1.0) 19th August 2020
# in /scratch/scratch/uccabz1/launch_tmp
# on node-k10d-029
# by uccabz1
#
# compiler GCC version 4.9.2
# options -cpp -iprefix /scratch/UCL/applications/gcc/4.9.2/bin/../lib/gcc/x86_64-unknown-linux-gnu/4.9.2/ -mtune=corei7 -march=x86-64 -g -O2
#
# seed   193197768  1189396618  1700321583  -433192633 -2007244737   669541010   350079000  2068721089  1625680844   339655948  1684926267  -490794126
#
#      Author: C. J. Pickard (cjp20@cam.ac.uk)
#                Space group: P-1
#

%BLOCK LATTICE_ABC
      4.02422      6.82447      7.67026
    100.55713    104.47532     91.26307
%ENDBLOCK LATTICE_ABC

%BLOCK POSITIONS_FRAC
  Li  -0.3491050   0.1561426   0.2625510 SPIN=   0.00000
  Li   0.3491050  -0.1561426  -0.2625510 SPIN=   0.00000
  Fe  -0.1425753  -0.2509852   0.0821473 SPIN=   4.00000
  Fe   0.1425753   0.2509852  -0.0821473 SPIN=   4.00000
   O   0.4158467   0.3624799   0.3813305 SPIN=   0.00000
   O   0.0736902   0.0561189   0.3799571 SPIN=   0.00000
   O   0.0220970   0.3735775   0.5839459 SPIN=   0.00000
   O   0.5555161   0.1960611   0.6489496 SPIN=   0.00000
   S   0.2667875   0.2470594   0.4985458 SPIN=   0.00000
   O  -0.4158467  -0.3624799  -0.3813305 SPIN=   0.00000
   O  -0.0736902  -0.0561189  -0.3799571 SPIN=   0.00000
   O  -0.0220970  -0.3735775  -0.5839459 SPIN=   0.00000
   O  -0.5555161  -0.1960611  -0.6489496 SPIN=   0.00000
   S  -0.2667875  -0.2470594  -0.4985458 SPIN=   0.00000
   F  -0.2311346   0.2648531   0.0577917 SPIN=   0.00000
   F   0.2311346  -0.2648531  -0.0577917 SPIN=   0.00000
%ENDBLOCK POSITIONS_FRAC

# Note: total spin =   8.00

KPOINTS_MP_SPACING 0.07

%BLOCK SPECIES_POT
QC5
%ENDBLOCK SPECIES_POT

SNAP_TO_SYMMETRY
SYMMETRY_GENERATE

