#              Generated by Buildcell
#
# at 00:50:47 (GMT+1.0) 19th August 2020
# in /lustre/scratch/uccabz1/launch_tmp
# on node-c12g-024
# by uccabz1
#
# compiler GCC version 4.9.2
# options -cpp -iprefix /lustre/shared/ucl/apps/gcc/4.9.2/bin/../lib/gcc/x86_64-unknown-linux-gnu/4.9.2/ -mtune=corei7 -march=x86-64 -g -Og
#
# seed   844380877  -779354644  -468853375 -1922935688   961118930  1057162598  -287779600 -1008611246  -783324614   945825758  -389056505 -1383181562
#
#      Author: C. J. Pickard (cjp20@cam.ac.uk)
#                Space group: Pma2
#

%BLOCK LATTICE_ABC
      3.85342      6.40514      8.10318
     90.00000     90.00000     90.00000
%ENDBLOCK LATTICE_ABC

%BLOCK POSITIONS_FRAC
  Li  -0.0141367   0.4624159   0.2500000 SPIN=   0.00000
  Li   0.0141367   0.4624159  -0.2500000 SPIN=   0.00000
  Fe   0.5000000   0.2139153  -0.0000000 SPIN=   4.00000
  Fe   0.5000000   0.2139153   0.5000000 SPIN=   4.00000
   O  -0.7138992  -0.2796333  -0.3950448 SPIN=   0.00000
   O  -0.2272398  -0.0274918  -0.3954795 SPIN=   0.00000
   O   0.7138992  -0.2796333   0.3950448 SPIN=   0.00000
   O   0.2272398  -0.0274918   0.3954795 SPIN=   0.00000
   O   0.7138992  -0.2796333   0.1049552 SPIN=   0.00000
   O   0.2272398  -0.0274918   0.1045205 SPIN=   0.00000
   O  -0.7138992  -0.2796333  -0.1049552 SPIN=   0.00000
   O  -0.2272398  -0.0274918  -0.1045205 SPIN=   0.00000
   S   0.3598584  -0.1891613   0.2500000 SPIN=   0.00000
   S  -0.3598584  -0.1891613  -0.2500000 SPIN=   0.00000
   F  -0.0000000   0.3538934  -0.0000000 SPIN=   0.00000
   F  -0.0000000   0.3538934   0.5000000 SPIN=   0.00000
%ENDBLOCK POSITIONS_FRAC

# Note: total spin =   8.00

KPOINTS_MP_SPACING 0.07

%BLOCK SPECIES_POT
QC5
%ENDBLOCK SPECIES_POT

SNAP_TO_SYMMETRY
SYMMETRY_GENERATE

