#              Generated by Buildcell
#
# at 02:01:01 (GMT+1.0) 4th August 2020
# in /lustre/scratch/uccabz1/launch_tmp
# on node-c12n-011
# by uccabz1
#
# compiler GCC version 4.9.2
# options -cpp -iprefix /lustre/shared/ucl/apps/gcc/4.9.2/bin/../lib/gcc/x86_64-unknown-linux-gnu/4.9.2/ -mtune=corei7 -march=x86-64 -g -Og
#
# seed  1983271817   248016680  -334852100 -2136917914  -738346364  2040380245  1202344040   404727142   727411087  -833148149 -1334236606 -1693575539
#
#      Author: C. J. Pickard (cjp20@cam.ac.uk)
#                Space group: P21
#

%BLOCK LATTICE_ABC
      4.01143      6.04398      8.53428
     90.00000     90.00000    104.85287
%ENDBLOCK LATTICE_ABC

%BLOCK POSITIONS_FRAC
  Li  -0.1783980   0.0682724   0.3244967 SPIN=   0.00000
  Li   0.1783980  -0.0682724  -0.1755033 SPIN=   0.00000
  Fe  -0.4514033  -0.4423561  -0.1281415 SPIN=   4.00000
  Fe   0.4514033   0.4423561   0.3718585 SPIN=   4.00000
   O   0.1688909   0.0906351  -0.3681906 SPIN=   0.00000
   O  -0.3189866   0.1418856  -0.2071844 SPIN=   0.00000
   O  -0.2770199   0.2553872  -0.4865730 SPIN=   0.00000
   O   0.1345034   0.4799466  -0.2938059 SPIN=   0.00000
   S  -0.0731531   0.2419636  -0.3389385 SPIN=   0.00000
   O  -0.1688909  -0.0906351   0.1318094 SPIN=   0.00000
   O   0.3189866  -0.1418856   0.2928156 SPIN=   0.00000
   O   0.2770199  -0.2553872   0.0134270 SPIN=   0.00000
   O  -0.1345034  -0.4799466   0.2061941 SPIN=   0.00000
   S   0.0731531  -0.2419636   0.1610615 SPIN=   0.00000
   F  -0.3685115  -0.3082805  -0.4681511 SPIN=   0.00000
   F   0.3685115   0.3082805   0.0318489 SPIN=   0.00000
%ENDBLOCK POSITIONS_FRAC

# Note: total spin =   8.00

KPOINTS_MP_SPACING 0.07

%BLOCK SPECIES_POT
QC5
%ENDBLOCK SPECIES_POT

SNAP_TO_SYMMETRY
SYMMETRY_GENERATE

