#              Generated by Buildcell
#
# at 01:43:13 (GMT+1.0) 19th August 2020
# in /scratch/scratch/uccabz1/launch_tmp
# on node-k10e-014
# by uccabz1
#
# compiler GCC version 4.9.2
# options -cpp -iprefix /scratch/UCL/applications/gcc/4.9.2/bin/../lib/gcc/x86_64-unknown-linux-gnu/4.9.2/ -mtune=corei7 -march=x86-64 -g -O2
#
# seed  1961228664  -400123157  1500597396  -597983072 -1222693155  1156788531    55445098 -1187322289  1846294162  -352155926   453068753 -1313595083
#
#      Author: C. J. Pickard (cjp20@cam.ac.uk)
#                Space group: P2
#

%BLOCK LATTICE_ABC
      4.59800      6.48411      6.72146
     93.58996     90.00000     90.00000
%ENDBLOCK LATTICE_ABC

%BLOCK POSITIONS_FRAC
  Li   0.1427134  -0.2403072  -0.3605246 SPIN=   0.00000
  Li   0.1427134   0.2403072   0.3605246 SPIN=   0.00000
  Fe  -0.4127821   0.2388815  -0.3268741 SPIN=   4.00000
  Fe  -0.4127821  -0.2388815   0.3268741 SPIN=   4.00000
   O  -0.5338683  -0.1927674   0.0125389 SPIN=   0.00000
   O  -0.3296030  -0.0833513  -0.3048143 SPIN=   0.00000
   O  -0.5070289  -0.4413996  -0.2816461 SPIN=   0.00000
   O  -0.0564751  -0.3270982  -0.1060162 SPIN=   0.00000
   S  -0.3567438  -0.2611541  -0.1699844 SPIN=   0.00000
   O  -0.5338683   0.1927674  -0.0125389 SPIN=   0.00000
   O  -0.3296030   0.0833513   0.3048143 SPIN=   0.00000
   O  -0.5070289   0.4413996   0.2816461 SPIN=   0.00000
   O  -0.0564751   0.3270982   0.1060162 SPIN=   0.00000
   S  -0.3567438   0.2611541   0.1699844 SPIN=   0.00000
   F   0.0441647   0.2621822  -0.3075060 SPIN=   0.00000
   F   0.0441647  -0.2621822   0.3075060 SPIN=   0.00000
%ENDBLOCK POSITIONS_FRAC

# Note: total spin =   8.00

KPOINTS_MP_SPACING 0.07

%BLOCK SPECIES_POT
QC5
%ENDBLOCK SPECIES_POT

SNAP_TO_SYMMETRY
SYMMETRY_GENERATE

