#              Generated by Buildcell
#
# at 20:32:54 (GMT+1.0) 18th August 2020
# in /scratch/scratch/uccabz1/launch_tmp
# on node-k10f-031
# by uccabz1
#
# compiler GCC version 4.9.2
# options -cpp -iprefix /scratch/UCL/applications/gcc/4.9.2/bin/../lib/gcc/x86_64-unknown-linux-gnu/4.9.2/ -mtune=corei7 -march=x86-64 -g -O2
#
# seed  -176237097   685727685 -1783602606   437597951  -772834413  2030318238  1454674552   449742895  -669342078  -839270093  -416879820  1360474731
#
#      Author: C. J. Pickard (cjp20@cam.ac.uk)
#                Space group: Pc
#

%BLOCK LATTICE_ABC
      4.20020      4.95392      9.64797
     94.95226     90.00000     90.00000
%ENDBLOCK LATTICE_ABC

%BLOCK POSITIONS_FRAC
  Li  -0.2723953  -0.3083564   0.1902437 SPIN=   0.00000
  Li   0.2723953  -0.3083564  -0.3097563 SPIN=   0.00000
  Fe  -0.4966369   0.4178689   0.4286880 SPIN=   4.00000
  Fe   0.4966369   0.4178689  -0.0713120 SPIN=   4.00000
   O   0.3266792   0.2230267  -0.2651984 SPIN=   0.00000
   O   0.0447537   0.1530798  -0.4906883 SPIN=   0.00000
   O  -0.1995843   0.4353117  -0.2947607 SPIN=   0.00000
   O  -0.1583795  -0.0612351  -0.2858016 SPIN=   0.00000
   S   0.0033673   0.1875458  -0.3341122 SPIN=   0.00000
   O  -0.3266792   0.2230267   0.2348016 SPIN=   0.00000
   O  -0.0447537   0.1530798   0.0093117 SPIN=   0.00000
   O   0.1995843   0.4353117   0.2052393 SPIN=   0.00000
   O   0.1583795  -0.0612351   0.2141984 SPIN=   0.00000
   S  -0.0033673   0.1875458   0.1658878 SPIN=   0.00000
   F   0.4642059  -0.1932755  -0.0729373 SPIN=   0.00000
   F  -0.4642059  -0.1932755   0.4270627 SPIN=   0.00000
%ENDBLOCK POSITIONS_FRAC

# Note: total spin =   8.00

KPOINTS_MP_SPACING 0.07

%BLOCK SPECIES_POT
QC5
%ENDBLOCK SPECIES_POT

SNAP_TO_SYMMETRY
SYMMETRY_GENERATE

