#              Generated by Buildcell
#
# at 19:18:09 (GMT+1.0) 18th August 2020
# in /lustre/scratch/uccabz1/launch_tmp
# on node-c12e-001
# by uccabz1
#
# compiler GCC version 4.9.2
# options -cpp -iprefix /lustre/shared/ucl/apps/gcc/4.9.2/bin/../lib/gcc/x86_64-unknown-linux-gnu/4.9.2/ -mtune=corei7 -march=x86-64 -g -Og
#
# seed   889283337   124155363  1096656877   213904549 -1759293690   135399628    24217874  1424126073  1202098640   718379922 -1136971505 -1250926526
#
#      Author: C. J. Pickard (cjp20@cam.ac.uk)
#                Space group: P-1
#

%BLOCK LATTICE_ABC
      5.53176      5.66326      6.81550
     90.34551    110.49145     90.00038
%ENDBLOCK LATTICE_ABC

%BLOCK POSITIONS_FRAC
  Li   0.0000000   0.0000000   0.0000000 SPIN=   0.00000
  Li   0.5000000  -0.0000000   0.5000000 SPIN=   0.00000
  Fe   0.6721681  -0.4348723   0.3181983 SPIN=   4.00000
  Fe  -0.6721681   0.4348723  -0.3181983 SPIN=   4.00000
   O  -0.2055391  -0.0094004   0.1907067 SPIN=   0.00000
   O  -0.1677413   0.4140947   0.1184131 SPIN=   0.00000
   O  -0.5921233   0.2462937   0.0892848 SPIN=   0.00000
   O  -0.3923549   0.1392852  -0.1720194 SPIN=   0.00000
   O   0.2055391   0.0094004  -0.1907067 SPIN=   0.00000
   O   0.1677413  -0.4140947  -0.1184131 SPIN=   0.00000
   O   0.5921233  -0.2462937  -0.0892848 SPIN=   0.00000
   O   0.3923549  -0.1392852   0.1720194 SPIN=   0.00000
   S  -0.5000000  -0.0000000   0.0000000 SPIN=   0.00000
   S   0.0000000   0.5000000   0.0000000 SPIN=   0.00000
   F  -0.7498272  -0.2500005  -0.4995600 SPIN=   0.00000
   F   0.7498272   0.2500005   0.4995600 SPIN=   0.00000
%ENDBLOCK POSITIONS_FRAC

# Note: total spin =   8.00

KPOINTS_MP_SPACING 0.07

%BLOCK SPECIES_POT
QC5
%ENDBLOCK SPECIES_POT

SNAP_TO_SYMMETRY
SYMMETRY_GENERATE

