#              Generated by Buildcell
#
# at 05:22:01 (GMT+1.0) 4th August 2020
# in /lustre/scratch/uccabz1/launch_tmp
# on node-c12f-024
# by uccabz1
#
# compiler GCC version 4.9.2
# options -cpp -iprefix /lustre/shared/ucl/apps/gcc/4.9.2/bin/../lib/gcc/x86_64-unknown-linux-gnu/4.9.2/ -mtune=corei7 -march=x86-64 -g -Og
#
# seed   544091907 -1042144106  -167924833 -1454011099 -1512069132 -1132185446  -757977059 -1689011237   772217060   538863402   473992218  -109689946
#
#      Author: C. J. Pickard (cjp20@cam.ac.uk)
#                Space group: P21
#

%BLOCK LATTICE_ABC
      3.96772      6.64441      8.09631
    110.44418     90.00000     90.00000
%ENDBLOCK LATTICE_ABC

%BLOCK POSITIONS_FRAC
  Li  -0.0981073   0.2434517   0.4412673 SPIN=   0.00000
  Li   0.4018927  -0.2434517  -0.4412673 SPIN=   0.00000
  Fe  -0.0987040   0.1117045  -0.2335465 SPIN=   4.00000
  Fe   0.4012960  -0.1117045   0.2335465 SPIN=   4.00000
   O   0.6369810   0.1848389   0.1923407 SPIN=   0.00000
   O   0.1064103   0.3925823   0.2342221 SPIN=   0.00000
   O   0.3250586   0.2035871  -0.0666049 SPIN=   0.00000
   O   0.6202985   0.5251602   0.1321431 SPIN=   0.00000
   S   0.4221871   0.3265421   0.1230253 SPIN=   0.00000
   O   0.1369810  -0.1848389  -0.1923407 SPIN=   0.00000
   O  -0.3935897  -0.3925823  -0.2342221 SPIN=   0.00000
   O  -0.1749414  -0.2035871   0.0666049 SPIN=   0.00000
   O   0.1202985  -0.5251602  -0.1321431 SPIN=   0.00000
   S  -0.0778129  -0.3265421  -0.1230253 SPIN=   0.00000
   F   0.3663915   0.2521588  -0.4828768 SPIN=   0.00000
   F  -0.1336085  -0.2521588   0.4828768 SPIN=   0.00000
%ENDBLOCK POSITIONS_FRAC

# Note: total spin =   8.00

KPOINTS_MP_SPACING 0.07

%BLOCK SPECIES_POT
QC5
%ENDBLOCK SPECIES_POT

SNAP_TO_SYMMETRY
SYMMETRY_GENERATE

