#              Generated by Buildcell
#
# at 19:24:55 (GMT+1.0) 18th August 2020
# in /scratch/scratch/uccabz1/launch_tmp
# on node-k10d-001
# by uccabz1
#
# compiler GCC version 4.9.2
# options -cpp -iprefix /scratch/UCL/applications/gcc/4.9.2/bin/../lib/gcc/x86_64-unknown-linux-gnu/4.9.2/ -mtune=corei7 -march=x86-64 -g -O2
#
# seed   -52352371   758026427 -1436129940  -857462705 -1027245155 -2111903535 -1659525287 -1470081378  -398449378   111738069  1178337426   823359124
#
#      Author: C. J. Pickard (cjp20@cam.ac.uk)
#                Space group: C2
#

%BLOCK LATTICE_ABC
      4.55550      6.81946      7.06898
    104.06044     90.00000    109.51220
%ENDBLOCK LATTICE_ABC

%BLOCK POSITIONS_FRAC
  Li   0.2778939   0.2989555   0.0680548 SPIN=   0.00000
  Li  -0.0210616  -0.2989555  -0.0680548 SPIN=   0.00000
  Fe  -0.2176169   0.3070665   0.3369823 SPIN=   4.00000
  Fe   0.4753165  -0.3070665  -0.3369823 SPIN=   4.00000
   O  -0.3052290  -0.0240040   0.3267949 SPIN=   0.00000
   O  -0.3844992  -0.4131010   0.2217866 SPIN=   0.00000
   O  -0.4250337  -0.2176619  -0.0242138 SPIN=   0.00000
   O  -0.8334593  -0.2884745   0.2060010 SPIN=   0.00000
   S  -0.4870553  -0.2358104   0.1825922 SPIN=   0.00000
   O  -0.2812250   0.0240040  -0.3267949 SPIN=   0.00000
   O   0.0286018   0.4131010  -0.2217866 SPIN=   0.00000
   O  -0.2073717   0.2176619   0.0242138 SPIN=   0.00000
   O  -0.5449848   0.2884745  -0.2060010 SPIN=   0.00000
   S  -0.2512449   0.2358104  -0.1825922 SPIN=   0.00000
   F   0.0513981  -0.2601001  -0.4014435 SPIN=   0.00000
   F   0.3114982   0.2601001   0.4014435 SPIN=   0.00000
%ENDBLOCK POSITIONS_FRAC

# Note: total spin =   8.00

KPOINTS_MP_SPACING 0.07

%BLOCK SPECIES_POT
QC5
%ENDBLOCK SPECIES_POT

SNAP_TO_SYMMETRY
SYMMETRY_GENERATE

