#              Generated by Buildcell
#
# at 02:34:25 (GMT+1.0) 19th August 2020
# in /lustre/scratch/uccabz1/launch_tmp
# on node-c12l-001
# by uccabz1
#
# compiler GCC version 4.9.2
# options -cpp -iprefix /lustre/shared/ucl/apps/gcc/4.9.2/bin/../lib/gcc/x86_64-unknown-linux-gnu/4.9.2/ -mtune=corei7 -march=x86-64 -g -Og
#
# seed  1975067619 -1014941934 -1664825088  -149742482  -384116191  -202023715  1191923477  1042077034 -1656691270 -1983499980 -1754603415  -362637054
#
#      Author: C. J. Pickard (cjp20@cam.ac.uk)
#                Space group: P21
#

%BLOCK LATTICE_ABC
      4.34174      6.74775      6.84698
     90.00000     90.00000     94.41598
%ENDBLOCK LATTICE_ABC

%BLOCK POSITIONS_FRAC
  Li   0.2904613   0.2420721  -0.2505532 SPIN=   0.00000
  Li  -0.2904613  -0.2420721   0.2494468 SPIN=   0.00000
  Fe  -0.0908945  -0.4063667  -0.3548019 SPIN=   4.00000
  Fe   0.0908945   0.4063667   0.1451981 SPIN=   4.00000
   O  -0.1528905   0.0963339   0.0923938 SPIN=   0.00000
   O  -0.6142682  -0.0403789  -0.0891920 SPIN=   0.00000
   O  -0.1208215  -0.1986224  -0.1193373 SPIN=   0.00000
   O  -0.1750665   0.1316442  -0.2670025 SPIN=   0.00000
   S  -0.2657617  -0.0027558  -0.0957845 SPIN=   0.00000
   O   0.1528905  -0.0963339   0.5923938 SPIN=   0.00000
   O   0.6142682   0.0403789   0.4108080 SPIN=   0.00000
   O   0.1208215   0.1986224   0.3806627 SPIN=   0.00000
   O   0.1750665  -0.1316442   0.2329975 SPIN=   0.00000
   S   0.2657617   0.0027558   0.4042155 SPIN=   0.00000
   F  -0.3716345   0.4869492   0.1327724 SPIN=   0.00000
   F   0.3716345  -0.4869492  -0.3672276 SPIN=   0.00000
%ENDBLOCK POSITIONS_FRAC

# Note: total spin =   8.00

KPOINTS_MP_SPACING 0.07

%BLOCK SPECIES_POT
QC5
%ENDBLOCK SPECIES_POT

SNAP_TO_SYMMETRY
SYMMETRY_GENERATE

