#              Generated by Buildcell
#
# at 03:41:45 (GMT+1.0) 4th August 2020
# in /lustre/scratch/uccabz1/launch_tmp
# on node-c12j-005
# by uccabz1
#
# compiler GCC version 4.9.2
# options -cpp -iprefix /lustre/shared/ucl/apps/gcc/4.9.2/bin/../lib/gcc/x86_64-unknown-linux-gnu/4.9.2/ -mtune=corei7 -march=x86-64 -g -Og
#
# seed  1537789728 -1235188320  1873214357   447651432  -921325703 -1277871844   698554568  1675437507  -714477643 -1936552067 -2140068115 -1458613581
#
#      Author: C. J. Pickard (cjp20@cam.ac.uk)
#                Space group: P21/m
#

%BLOCK LATTICE_ABC
      4.51704      6.07986      7.50097
    103.86128     90.00000     90.00000
%ENDBLOCK LATTICE_ABC

%BLOCK POSITIONS_FRAC
  Li   0.2500000   0.2567373  -0.1585186 SPIN=   0.00000
  Li  -0.2500000  -0.2567373   0.1585186 SPIN=   0.00000
  Fe  -0.2500000  -0.2057652  -0.2368515 SPIN=   4.00000
  Fe   0.2500000   0.2057652   0.2368515 SPIN=   4.00000
   O   0.0043358   0.0118914  -0.3497740 SPIN=   0.00000
   O   0.0044798   0.4032980  -0.3920430 SPIN=   0.00000
   O  -0.4956642  -0.0118914   0.3497740 SPIN=   0.00000
   O  -0.4955202  -0.4032980   0.3920430 SPIN=   0.00000
   O  -0.0043358  -0.0118914   0.3497740 SPIN=   0.00000
   O  -0.0044798  -0.4032980   0.3920430 SPIN=   0.00000
   O   0.4956642   0.0118914  -0.3497740 SPIN=   0.00000
   O   0.4955202   0.4032980  -0.3920430 SPIN=   0.00000
   S   0.2500000  -0.2502870   0.3909901 SPIN=   0.00000
   S  -0.2500000   0.2502870  -0.3909901 SPIN=   0.00000
   F   0.2500000  -0.2739944  -0.1136093 SPIN=   0.00000
   F  -0.2500000   0.2739944   0.1136093 SPIN=   0.00000
%ENDBLOCK POSITIONS_FRAC

# Note: total spin =   8.00

KPOINTS_MP_SPACING 0.07

%BLOCK SPECIES_POT
QC5
%ENDBLOCK SPECIES_POT

SNAP_TO_SYMMETRY
SYMMETRY_GENERATE

