#              Generated by Buildcell
#
# at 04:31:32 (GMT+1.0) 4th August 2020
# in /lustre/scratch/uccabz1/launch_tmp
# on node-c12n-020
# by uccabz1
#
# compiler GCC version 4.9.2
# options -cpp -iprefix /lustre/shared/ucl/apps/gcc/4.9.2/bin/../lib/gcc/x86_64-unknown-linux-gnu/4.9.2/ -mtune=corei7 -march=x86-64 -g -Og
#
# seed   792953813  1079812186 -1748577396  1791943557   -17942680  -179940900  1405578608 -1421603860 -1862674644  1656407384  1432268155  -959985532
#
#      Author: C. J. Pickard (cjp20@cam.ac.uk)
#                Space group: P21
#

%BLOCK LATTICE_ABC
      4.20286      6.81942      7.28643
    106.72742     90.00000     90.00000
%ENDBLOCK LATTICE_ABC

%BLOCK POSITIONS_FRAC
  Li  -0.2078270   0.3629044  -0.3344723 SPIN=   0.00000
  Li   0.2921730  -0.3629044   0.3344723 SPIN=   0.00000
  Fe  -0.2781020   0.2996259   0.0666339 SPIN=   4.00000
  Fe   0.2218980  -0.2996259  -0.0666339 SPIN=   4.00000
   O  -0.4362274  -0.2954902  -0.4348920 SPIN=   0.00000
   O   0.0775873  -0.1375163  -0.3058466 SPIN=   0.00000
   O  -0.4111133  -0.0517955  -0.1095427 SPIN=   0.00000
   O  -0.3426306   0.0728869  -0.3942594 SPIN=   0.00000
   S  -0.2780960  -0.1029788  -0.3111352 SPIN=   0.00000
   O   0.0637726   0.2954902   0.4348920 SPIN=   0.00000
   O   0.5775873   0.1375163   0.3058466 SPIN=   0.00000
   O   0.0888867   0.0517955   0.1095427 SPIN=   0.00000
   O   0.1573694  -0.0728869   0.3942594 SPIN=   0.00000
   S   0.2219040   0.1029788   0.3111352 SPIN=   0.00000
   F  -0.1460221  -0.4286812   0.2187964 SPIN=   0.00000
   F   0.3539779   0.4286812  -0.2187964 SPIN=   0.00000
%ENDBLOCK POSITIONS_FRAC

# Note: total spin =   8.00

KPOINTS_MP_SPACING 0.07

%BLOCK SPECIES_POT
QC5
%ENDBLOCK SPECIES_POT

SNAP_TO_SYMMETRY
SYMMETRY_GENERATE

