#              Generated by Buildcell
#
# at 03:04:05 (GMT+1.0) 19th August 2020
# in /lustre/scratch/uccabz1/launch_tmp
# on node-c12j-020
# by uccabz1
#
# compiler GCC version 4.9.2
# options -cpp -iprefix /lustre/shared/ucl/apps/gcc/4.9.2/bin/../lib/gcc/x86_64-unknown-linux-gnu/4.9.2/ -mtune=corei7 -march=x86-64 -g -Og
#
# seed   450639617 -1307000915  1428503268  -164648022  -531014700  1906287526  1823324060  -272327443  -116566464 -1365408462  1961563851 -2075864474
#
#      Author: C. J. Pickard (cjp20@cam.ac.uk)
#                Space group: Cc
#

%BLOCK LATTICE_ABC
      5.93016      6.03861      6.03861
    105.50356     99.77983     99.77983
%ENDBLOCK LATTICE_ABC

%BLOCK POSITIONS_FRAC
  Li   0.1334345   0.0784120   0.3499105 SPIN=   0.00000
  Li  -0.3665655   0.3499105   0.0784120 SPIN=   0.00000
  Fe   0.0257834  -0.0037405  -0.2124730 SPIN=   4.00000
  Fe  -0.4742166  -0.2124730  -0.0037405 SPIN=   4.00000
   O  -0.2252355   0.1571201  -0.3631918 SPIN=   0.00000
   O  -0.0049784   0.5684396  -0.1553322 SPIN=   0.00000
   O  -0.4396241   0.4706272  -0.2427593 SPIN=   0.00000
   O  -0.2326471   0.4619878  -0.5669443 SPIN=   0.00000
   S  -0.2256213   0.4145437  -0.3320569 SPIN=   0.00000
   O   0.2747645  -0.3631918   0.1571201 SPIN=   0.00000
   O   0.4950216  -0.1553322   0.5684396 SPIN=   0.00000
   O   0.0603759  -0.2427593   0.4706272 SPIN=   0.00000
   O   0.2673529  -0.5669443   0.4619878 SPIN=   0.00000
   S   0.2743787  -0.3320569   0.4145437 SPIN=   0.00000
   F  -0.1792759  -0.0623498   0.1692482 SPIN=   0.00000
   F   0.3207241   0.1692482  -0.0623498 SPIN=   0.00000
%ENDBLOCK POSITIONS_FRAC

# Note: total spin =   8.00

KPOINTS_MP_SPACING 0.07

%BLOCK SPECIES_POT
QC5
%ENDBLOCK SPECIES_POT

SNAP_TO_SYMMETRY
SYMMETRY_GENERATE

