#              Generated by Buildcell
#
# at 01:52:24 (GMT+1.0) 19th August 2020
# in /scratch/scratch/uccabz1/launch_tmp
# on node-k10i-026
# by uccabz1
#
# compiler GCC version 4.9.2
# options -cpp -iprefix /scratch/UCL/applications/gcc/4.9.2/bin/../lib/gcc/x86_64-unknown-linux-gnu/4.9.2/ -mtune=corei7 -march=x86-64 -g -O2
#
# seed   851795422  -642024163  -619009132  -832517775 -1800924166  1116543113  -975342686  1570019023 -1818029072  -790317458  2120457304   594393836
#
#      Author: C. J. Pickard (cjp20@cam.ac.uk)
#                Space group: P-1
#

%BLOCK LATTICE_ABC
      3.96270      7.29289      7.78605
     65.59991     78.35207     89.47383
%ENDBLOCK LATTICE_ABC

%BLOCK POSITIONS_FRAC
  Li   0.2236887  -0.4826414  -0.2919285 SPIN=   0.00000
  Li  -0.2236887   0.4826414   0.2919285 SPIN=   0.00000
  Fe  -0.1116449  -0.1627068   0.3911144 SPIN=   4.00000
  Fe   0.1116449   0.1627068  -0.3911144 SPIN=   4.00000
   O  -0.5910553   0.1017891   0.0860164 SPIN=   0.00000
   O  -0.1563495   0.2881650   0.1550828 SPIN=   0.00000
   O  -0.3988813   0.4585936  -0.1356617 SPIN=   0.00000
   O   0.0005692   0.1918084  -0.1188692 SPIN=   0.00000
   S  -0.2864293   0.2600890  -0.0033579 SPIN=   0.00000
   O   0.5910553  -0.1017891  -0.0860164 SPIN=   0.00000
   O   0.1563495  -0.2881650  -0.1550828 SPIN=   0.00000
   O   0.3988813  -0.4585936   0.1356617 SPIN=   0.00000
   O  -0.0005692  -0.1918084   0.1188692 SPIN=   0.00000
   S   0.2864293  -0.2600890   0.0033579 SPIN=   0.00000
   F   0.3401589  -0.2284186   0.4528696 SPIN=   0.00000
   F  -0.3401589   0.2284186  -0.4528696 SPIN=   0.00000
%ENDBLOCK POSITIONS_FRAC

# Note: total spin =   8.00

KPOINTS_MP_SPACING 0.07

%BLOCK SPECIES_POT
QC5
%ENDBLOCK SPECIES_POT

SNAP_TO_SYMMETRY
SYMMETRY_GENERATE

