#              Generated by Buildcell
#
# at 20:07:57 (GMT+1.0) 18th August 2020
# in /scratch/scratch/uccabz1/launch_tmp
# on node-k10b-023
# by uccabz1
#
# compiler GCC version 4.9.2
# options -cpp -iprefix /scratch/UCL/applications/gcc/4.9.2/bin/../lib/gcc/x86_64-unknown-linux-gnu/4.9.2/ -mtune=corei7 -march=x86-64 -g -O2
#
# seed   -30570582  -203217176  1500743199  1208168539  -887188425  1406240285 -1493342269  -104881424  -493902059  1089388627   705771015 -1751805322
#
#      Author: C. J. Pickard (cjp20@cam.ac.uk)
#                Space group: P-1
#

%BLOCK LATTICE_ABC
      4.96747      6.18088      6.77748
     90.61607    101.81729    100.52940
%ENDBLOCK LATTICE_ABC

%BLOCK POSITIONS_FRAC
  Li  -0.0000000   0.5000000   0.0000000 SPIN=   0.00000
  Li   0.5000000  -0.5000000   0.5000000 SPIN=   0.00000
  Fe   0.1495474   0.2062181  -0.2810772 SPIN=   4.00000
  Fe  -0.1495474  -0.2062181   0.2810772 SPIN=   4.00000
   O   0.4209309   0.1595353  -0.0246938 SPIN=   0.00000
   O   0.6047969   0.5002807   0.1930038 SPIN=   0.00000
   O   0.8540190   0.1864243   0.2382804 SPIN=   0.00000
   O   0.3960905   0.1589954   0.3363027 SPIN=   0.00000
   S   0.5689593   0.2513089   0.1857233 SPIN=   0.00000
   O  -0.4209309  -0.1595353   0.0246938 SPIN=   0.00000
   O  -0.6047969  -0.5002807  -0.1930038 SPIN=   0.00000
   O  -0.8540190  -0.1864243  -0.2382804 SPIN=   0.00000
   O  -0.3960905  -0.1589954  -0.3363027 SPIN=   0.00000
   S  -0.5689593  -0.2513089  -0.1857233 SPIN=   0.00000
   F  -0.2576679   0.2677254  -0.2839666 SPIN=   0.00000
   F   0.2576679  -0.2677254   0.2839666 SPIN=   0.00000
%ENDBLOCK POSITIONS_FRAC

# Note: total spin =   8.00

KPOINTS_MP_SPACING 0.07

%BLOCK SPECIES_POT
QC5
%ENDBLOCK SPECIES_POT

SNAP_TO_SYMMETRY
SYMMETRY_GENERATE

