#              Generated by Buildcell
#
# at 04:20:36 (GMT+1.0) 4th August 2020
# in /lustre/scratch/uccabz1/launch_tmp
# on node-c12h-034
# by uccabz1
#
# compiler GCC version 4.9.2
# options -cpp -iprefix /lustre/shared/ucl/apps/gcc/4.9.2/bin/../lib/gcc/x86_64-unknown-linux-gnu/4.9.2/ -mtune=corei7 -march=x86-64 -g -Og
#
# seed   361010915  1107717620   503324818   810448116   329203314 -1518388805   761843298  -758362649   305700230    31632565 -1921599670  1509829502
#
#      Author: C. J. Pickard (cjp20@cam.ac.uk)
#                Space group: P21/c
#

%BLOCK LATTICE_ABC
      5.47841      5.47859      6.69757
     90.00000     95.77544     90.00000
%ENDBLOCK LATTICE_ABC

%BLOCK POSITIONS_FRAC
  Li  -0.0000000  -0.0000000   0.0000000 SPIN=   0.00000
  Li  -0.5000000   0.5000000   0.0000000 SPIN=   0.00000
  Fe   0.5000000  -0.0000000  -0.5000000 SPIN=   4.00000
  Fe   0.0000000  -0.5000000  -0.5000000 SPIN=   4.00000
   O   0.3396878   0.2403731  -0.2169928 SPIN=   0.00000
   O   0.1878780   0.6368017  -0.1025065 SPIN=   0.00000
   O   0.1603122  -0.2596269   0.2169928 SPIN=   0.00000
   O   0.3121220   0.1368017   0.1025065 SPIN=   0.00000
   O  -0.3396878  -0.2403731   0.2169928 SPIN=   0.00000
   O  -0.1878780  -0.6368017   0.1025065 SPIN=   0.00000
   O  -0.1603122   0.2596269  -0.2169928 SPIN=   0.00000
   O  -0.3121220  -0.1368017  -0.1025065 SPIN=   0.00000
   S  -0.5000000  -0.0000000   0.0000000 SPIN=   0.00000
   S  -0.0000000  -0.5000000   0.0000000 SPIN=   0.00000
   F  -0.0000000  -0.0000000  -0.5000000 SPIN=   0.00000
   F  -0.5000000   0.5000000  -0.5000000 SPIN=   0.00000
%ENDBLOCK POSITIONS_FRAC

# Note: total spin =   8.00

KPOINTS_MP_SPACING 0.07

%BLOCK SPECIES_POT
QC5
%ENDBLOCK SPECIES_POT

SNAP_TO_SYMMETRY
SYMMETRY_GENERATE

