#              Generated by Buildcell
#
# at 05:27:36 (GMT+1.0) 4th August 2020
# in /lustre/scratch/uccabz1/launch_tmp
# on node-c12d-028
# by uccabz1
#
# compiler GCC version 4.9.2
# options -cpp -iprefix /lustre/shared/ucl/apps/gcc/4.9.2/bin/../lib/gcc/x86_64-unknown-linux-gnu/4.9.2/ -mtune=corei7 -march=x86-64 -g -Og
#
# seed   638544925   333572256   755082410  1980625780 -2125484548 -1133122567  1678862982 -1083718998 -1150890301 -1810797944   845618630 -2016831669
#
#      Author: C. J. Pickard (cjp20@cam.ac.uk)
#                Space group: Pnn2
#

%BLOCK LATTICE_ABC
      3.89334      6.18857      8.30075
     90.00000     90.00000     90.00000
%ENDBLOCK LATTICE_ABC

%BLOCK POSITIONS_FRAC
  Li   0.5000000   0.0000000  -0.3751518 SPIN=   0.00000
  Li  -0.0000000  -0.5000000   0.1248482 SPIN=   0.00000
  Fe  -0.0000000   0.0000000  -0.0376049 SPIN=   4.00000
  Fe   0.5000000  -0.5000000   0.4623951 SPIN=   4.00000
   O  -0.4993721   0.2574052   0.1796283 SPIN=   0.00000
   O  -0.2499383   0.4012113  -0.0727833 SPIN=   0.00000
   O   0.4993721  -0.2574052   0.1796283 SPIN=   0.00000
   O   0.2499383  -0.4012113  -0.0727833 SPIN=   0.00000
   O  -0.0006279  -0.2425948  -0.3203717 SPIN=   0.00000
   O  -0.2500617  -0.0987887  -0.5727833 SPIN=   0.00000
   O   0.0006279   0.2425948  -0.3203717 SPIN=   0.00000
   O   0.2500617   0.0987887  -0.5727833 SPIN=   0.00000
   S  -0.0000000  -0.5000000  -0.2080480 SPIN=   0.00000
   S   0.5000000   0.0000000   0.2919520 SPIN=   0.00000
   F   0.5000000   0.0000000  -0.1522882 SPIN=   0.00000
   F  -0.0000000   0.5000000   0.3477118 SPIN=   0.00000
%ENDBLOCK POSITIONS_FRAC

# Note: total spin =   8.00

KPOINTS_MP_SPACING 0.07

%BLOCK SPECIES_POT
QC5
%ENDBLOCK SPECIES_POT

SNAP_TO_SYMMETRY
SYMMETRY_GENERATE

