#              Generated by Buildcell
#
# at 21:40:13 (GMT+1.0) 18th August 2020
# in /lustre/scratch/uccabz1/launch_tmp
# on node-c12d-020
# by uccabz1
#
# compiler GCC version 4.9.2
# options -cpp -iprefix /lustre/shared/ucl/apps/gcc/4.9.2/bin/../lib/gcc/x86_64-unknown-linux-gnu/4.9.2/ -mtune=corei7 -march=x86-64 -g -Og
#
# seed -1720641450 -2029454025   104682203  -226743857  -177966720   535706838   348814003  1116601570  -196100540   152499648   803818381  1098743839
#
#      Author: C. J. Pickard (cjp20@cam.ac.uk)
#                Space group: P2221
#

%BLOCK LATTICE_ABC
      3.93512      6.85832      7.41063
     90.00000     90.00000     90.00000
%ENDBLOCK LATTICE_ABC

%BLOCK POSITIONS_FRAC
  Li  -0.5000000   0.0000000   0.4885420 SPIN=   0.00000
  Li  -0.5000000   0.5000000  -0.4885420 SPIN=   0.00000
  Fe  -0.5000000   0.0000000  -0.0995546 SPIN=   4.00000
  Fe   0.5000000  -0.5000000   0.0995546 SPIN=   4.00000
   O   0.2169058   0.1299533   0.1150174 SPIN=   0.00000
   O  -0.2980948   0.1733637   0.3024502 SPIN=   0.00000
   O  -0.2169058  -0.3700467  -0.1150174 SPIN=   0.00000
   O   0.2980948  -0.3266363  -0.3024502 SPIN=   0.00000
   O   0.2169058   0.3700467  -0.1150174 SPIN=   0.00000
   O  -0.2980948   0.3266363  -0.3024502 SPIN=   0.00000
   O  -0.2169058  -0.1299533   0.1150174 SPIN=   0.00000
   O   0.2980948  -0.1733637   0.3024502 SPIN=   0.00000
   S   0.0000000   0.0000000   0.2414952 SPIN=   0.00000
   S   0.0000000  -0.5000000  -0.2414952 SPIN=   0.00000
   F   0.0000000   0.0000000  -0.2196535 SPIN=   0.00000
   F   0.0000000  -0.5000000   0.2196535 SPIN=   0.00000
%ENDBLOCK POSITIONS_FRAC

# Note: total spin =   8.00

KPOINTS_MP_SPACING 0.07

%BLOCK SPECIES_POT
QC5
%ENDBLOCK SPECIES_POT

SNAP_TO_SYMMETRY
SYMMETRY_GENERATE

