#              Generated by Buildcell
#
# at 04:55:02 (GMT+1.0) 4th August 2020
# in /lustre/scratch/uccabz1/launch_tmp
# on node-c12g-031
# by uccabz1
#
# compiler GCC version 4.9.2
# options -cpp -iprefix /lustre/shared/ucl/apps/gcc/4.9.2/bin/../lib/gcc/x86_64-unknown-linux-gnu/4.9.2/ -mtune=corei7 -march=x86-64 -g -Og
#
# seed  -773009503 -1588430749  -754706351 -1192358040  -849371468   568074274  1750697937  1203136992   365288916  2085800632  1067502676  -102705608
#
#      Author: C. J. Pickard (cjp20@cam.ac.uk)
#                Space group: P2
#

%BLOCK LATTICE_ABC
      5.45269      6.00828      6.10476
     90.00000     90.00000     90.05586
%ENDBLOCK LATTICE_ABC

%BLOCK POSITIONS_FRAC
  Li   0.2451449  -0.2611962   0.3799445 SPIN=   0.00000
  Li  -0.2451449   0.2611962   0.3799445 SPIN=   0.00000
  Fe  -0.2594382  -0.2973304  -0.3941404 SPIN=   4.00000
  Fe   0.2594382   0.2973304  -0.3941404 SPIN=   4.00000
   O   0.3483798  -0.1373824   0.0812342 SPIN=   0.00000
   O   0.3782853  -0.1595105  -0.3226971 SPIN=   0.00000
   O  -0.0261284  -0.1922153  -0.1414278 SPIN=   0.00000
   O   0.2772861  -0.4963290  -0.1073356 SPIN=   0.00000
   S   0.2444557  -0.2463593  -0.1225566 SPIN=   0.00000
   O  -0.3483798   0.1373824   0.0812342 SPIN=   0.00000
   O  -0.3782853   0.1595105  -0.3226971 SPIN=   0.00000
   O   0.0261284   0.1922153  -0.1414278 SPIN=   0.00000
   O  -0.2772861   0.4963290  -0.1073356 SPIN=   0.00000
   S  -0.2444557   0.2463593  -0.1225566 SPIN=   0.00000
   F   0.2225362   0.2541976   0.2583746 SPIN=   0.00000
   F  -0.2225362  -0.2541976   0.2583746 SPIN=   0.00000
%ENDBLOCK POSITIONS_FRAC

# Note: total spin =   8.00

KPOINTS_MP_SPACING 0.07

%BLOCK SPECIES_POT
QC5
%ENDBLOCK SPECIES_POT

SNAP_TO_SYMMETRY
SYMMETRY_GENERATE

