#              Generated by Buildcell
#
# at 05:39:22 (GMT+1.0) 4th August 2020
# in /lustre/scratch/uccabz1/launch_tmp
# on node-c12m-012
# by uccabz1
#
# compiler GCC version 4.9.2
# options -cpp -iprefix /lustre/shared/ucl/apps/gcc/4.9.2/bin/../lib/gcc/x86_64-unknown-linux-gnu/4.9.2/ -mtune=corei7 -march=x86-64 -g -Og
#
# seed  1588838102   806992788  1310435490  -695972111  1334052157  1678501319 -1437612927   255457596  -569627557  1270343187     1685365  1376184820
#
#      Author: C. J. Pickard (cjp20@cam.ac.uk)
#                Space group: Pc
#

%BLOCK LATTICE_ABC
      4.77520      6.22985      6.78561
     90.00000     97.79105     90.00000
%ENDBLOCK LATTICE_ABC

%BLOCK POSITIONS_FRAC
  Li  -0.2730301  -0.3524800   0.1486280 SPIN=   0.00000
  Li  -0.2730301   0.3524800  -0.3513720 SPIN=   0.00000
  Fe   0.2606533   0.3786169  -0.0722326 SPIN=   4.00000
  Fe   0.2606533  -0.3786169   0.4277674 SPIN=   4.00000
   O   0.0770353  -0.3119984  -0.3193770 SPIN=   0.00000
   O  -0.3757411  -0.1964974  -0.5112973 SPIN=   0.00000
   O  -0.1110586   0.0510383  -0.2685178 SPIN=   0.00000
   O  -0.3474242  -0.2685587  -0.1504666 SPIN=   0.00000
   S  -0.1892972  -0.1815040  -0.3124147 SPIN=   0.00000
   O   0.0770353   0.3119984   0.1806230 SPIN=   0.00000
   O  -0.3757411   0.1964974  -0.0112973 SPIN=   0.00000
   O  -0.1110586  -0.0510383   0.2314822 SPIN=   0.00000
   O  -0.3474242   0.2685587   0.3495334 SPIN=   0.00000
   S  -0.1892972   0.1815040   0.1875853 SPIN=   0.00000
   F   0.2897884  -0.3099329   0.1401593 SPIN=   0.00000
   F   0.2897884   0.3099329  -0.3598407 SPIN=   0.00000
%ENDBLOCK POSITIONS_FRAC

# Note: total spin =   8.00

KPOINTS_MP_SPACING 0.07

%BLOCK SPECIES_POT
QC5
%ENDBLOCK SPECIES_POT

SNAP_TO_SYMMETRY
SYMMETRY_GENERATE

