#              Generated by Buildcell
#
# at 01:32:15 (GMT+1.0) 19th August 2020
# in /lustre/scratch/uccabz1/launch_tmp
# on node-c12a-003
# by uccabz1
#
# compiler GCC version 4.9.2
# options -cpp -iprefix /lustre/shared/ucl/apps/gcc/4.9.2/bin/../lib/gcc/x86_64-unknown-linux-gnu/4.9.2/ -mtune=corei7 -march=x86-64 -g -Og
#
# seed  1202713628 -1644669630  1907756916  1221306216  -671096847  1858622309   528612167   990636079   985192577 -1749627210  -773761962  -373225001
#
#      Author: C. J. Pickard (cjp20@cam.ac.uk)
#                Space group: P-1
#

%BLOCK LATTICE_ABC
      4.08042      5.15870      9.52709
     88.52557     86.12460     89.15527
%ENDBLOCK LATTICE_ABC

%BLOCK POSITIONS_FRAC
  Li   0.3143587  -0.1922076  -0.1393961 SPIN=   0.00000
  Li  -0.3143587   0.1922076   0.1393961 SPIN=   0.00000
  Fe  -0.1541113  -0.2311539  -0.3584594 SPIN=   4.00000
  Fe   0.1541113   0.2311539   0.3584594 SPIN=   4.00000
   O   0.2857689   0.5607865  -0.3338969 SPIN=   0.00000
   O   0.5135262   0.2242980  -0.1767522 SPIN=   0.00000
   O   0.5684059   0.1736949  -0.4349259 SPIN=   0.00000
   O   0.0240232   0.1311499  -0.3058911 SPIN=   0.00000
   S   0.3479310   0.2724823  -0.3128665 SPIN=   0.00000
   O  -0.2857689  -0.5607865   0.3338969 SPIN=   0.00000
   O  -0.5135262  -0.2242980   0.1767522 SPIN=   0.00000
   O  -0.5684059  -0.1736949   0.4349259 SPIN=   0.00000
   O  -0.0240232  -0.1311499   0.3058911 SPIN=   0.00000
   S  -0.3479310  -0.2724823   0.3128665 SPIN=   0.00000
   F   0.1901595   0.2416473   0.1289730 SPIN=   0.00000
   F  -0.1901595  -0.2416473  -0.1289730 SPIN=   0.00000
%ENDBLOCK POSITIONS_FRAC

# Note: total spin =   8.00

KPOINTS_MP_SPACING 0.07

%BLOCK SPECIES_POT
QC5
%ENDBLOCK SPECIES_POT

SNAP_TO_SYMMETRY
SYMMETRY_GENERATE

