#              Generated by Buildcell
#
# at 22:56:38 (GMT+1.0) 18th August 2020
# in /lustre/scratch/uccabz1/launch_tmp
# on node-c12f-017
# by uccabz1
#
# compiler GCC version 4.9.2
# options -cpp -iprefix /lustre/shared/ucl/apps/gcc/4.9.2/bin/../lib/gcc/x86_64-unknown-linux-gnu/4.9.2/ -mtune=corei7 -march=x86-64 -g -Og
#
# seed -1758033663  -918216604  -721688476  -656024348 -1997510342   -85131479  1977306055 -1641028630 -2021714207  -821074984 -1405483359   481849552
#
#      Author: C. J. Pickard (cjp20@cam.ac.uk)
#                Space group: C2
#

%BLOCK LATTICE_ABC
      4.10954      6.86572      7.71031
     84.04510     74.54410     72.58566
%ENDBLOCK LATTICE_ABC

%BLOCK POSITIONS_FRAC
  Li   0.0168390   0.3353401  -0.1810619 SPIN=   0.00000
  Li   0.1711172  -0.3353401   0.1810619 SPIN=   0.00000
  Fe  -0.0712172   0.2265995   0.4628719 SPIN=   4.00000
  Fe  -0.3817459  -0.2265995  -0.4628719 SPIN=   4.00000
   O  -0.6988237   0.3697482   0.2909982 SPIN=   0.00000
   O  -0.5535418   0.3478488  -0.0405104 SPIN=   0.00000
   O  -0.3630129   0.0397516   0.1456275 SPIN=   0.00000
   O  -0.0830965   0.3188669   0.1132413 SPIN=   0.00000
   S  -0.4246187   0.2690539   0.1273391 SPIN=   0.00000
   O  -0.0380774  -0.3697482  -0.2909982 SPIN=   0.00000
   O  -0.2462034  -0.3478488   0.0405104 SPIN=   0.00000
   O  -0.1776339  -0.0397516  -0.1456275 SPIN=   0.00000
   O   0.3490118  -0.3188669  -0.1132413 SPIN=   0.00000
   S  -0.0282257  -0.2690539  -0.1273391 SPIN=   0.00000
   F   0.2925978  -0.2217519   0.3758943 SPIN=   0.00000
   F   0.4467403   0.2217519  -0.3758943 SPIN=   0.00000
%ENDBLOCK POSITIONS_FRAC

# Note: total spin =   8.00

KPOINTS_MP_SPACING 0.07

%BLOCK SPECIES_POT
QC5
%ENDBLOCK SPECIES_POT

SNAP_TO_SYMMETRY
SYMMETRY_GENERATE

