#              Generated by Buildcell
#
# at 00:48:56 (GMT+1.0) 19th August 2020
# in /lustre/scratch/uccabz1/launch_tmp
# on node-c12e-001
# by uccabz1
#
# compiler GCC version 4.9.2
# options -cpp -iprefix /lustre/shared/ucl/apps/gcc/4.9.2/bin/../lib/gcc/x86_64-unknown-linux-gnu/4.9.2/ -mtune=corei7 -march=x86-64 -g -Og
#
# seed   217203658   307513252 -1472076819   166320531   508263500  1002086429   966189755  1526926808   247152401    27103140 -1647473312  1593357876
#
#      Author: C. J. Pickard (cjp20@cam.ac.uk)
#                Space group: P-1
#

%BLOCK LATTICE_ABC
      4.79797      6.67932      7.28479
     63.97295     72.43680     82.63948
%ENDBLOCK LATTICE_ABC

%BLOCK POSITIONS_FRAC
  Li   0.2320368  -0.2298696  -0.0840077 SPIN=   0.00000
  Li  -0.2320368   0.2298696   0.0840077 SPIN=   0.00000
  Fe  -0.2507315   0.0709148  -0.2619008 SPIN=   4.00000
  Fe   0.2507315  -0.0709148   0.2619008 SPIN=   4.00000
   O  -0.6901466  -0.3124463  -0.3341576 SPIN=   0.00000
   O  -0.2526517  -0.3935176  -0.5763840 SPIN=   0.00000
   O  -0.2779999  -0.5223649  -0.1971541 SPIN=   0.00000
   O  -0.2217201  -0.1205300  -0.4383978 SPIN=   0.00000
   S  -0.3606296  -0.3372147  -0.3865234 SPIN=   0.00000
   O   0.6901466   0.3124463   0.3341576 SPIN=   0.00000
   O   0.2526517   0.3935176   0.5763840 SPIN=   0.00000
   O   0.2779999   0.5223649   0.1971541 SPIN=   0.00000
   O   0.2217201   0.1205300   0.4383978 SPIN=   0.00000
   S   0.3606296   0.3372147   0.3865234 SPIN=   0.00000
   F   0.2057322   0.2274096   0.0110333 SPIN=   0.00000
   F  -0.2057322  -0.2274096  -0.0110333 SPIN=   0.00000
%ENDBLOCK POSITIONS_FRAC

# Note: total spin =   8.00

KPOINTS_MP_SPACING 0.07

%BLOCK SPECIES_POT
QC5
%ENDBLOCK SPECIES_POT

SNAP_TO_SYMMETRY
SYMMETRY_GENERATE

