#              Generated by Buildcell
#
# at 04:16:57 (GMT+1.0) 4th August 2020
# in /lustre/scratch/uccabz1/launch_tmp
# on node-c12d-011
# by uccabz1
#
# compiler GCC version 4.9.2
# options -cpp -iprefix /lustre/shared/ucl/apps/gcc/4.9.2/bin/../lib/gcc/x86_64-unknown-linux-gnu/4.9.2/ -mtune=corei7 -march=x86-64 -g -Og
#
# seed  -638823511  -429628675  -823498568  1600183556  1400810217  1196733772   579859536 -1936287815  -478599336 -1854242638 -2003864285 -1120408817
#
#      Author: C. J. Pickard (cjp20@cam.ac.uk)
#                Space group: C2
#

%BLOCK LATTICE_ABC
      5.54104      6.56276      6.94011
    117.42772    112.62963     91.74904
%ENDBLOCK LATTICE_ABC

%BLOCK POSITIONS_FRAC
  Li   0.0962415  -0.3439408  -0.2931740 SPIN=   0.00000
  Li  -0.3894155   0.0507668  -0.2931740 SPIN=   0.00000
  Fe   0.0075708   0.0233995   0.4900201 SPIN=   4.00000
  Fe   0.4824493   0.4666206   0.4900201 SPIN=   4.00000
   O  -0.5656446  -0.2595746   0.4014721 SPIN=   0.00000
   O  -0.3988580  -0.0567861   0.2349371 SPIN=   0.00000
   O  -0.8613432  -0.0707994   0.2003375 SPIN=   0.00000
   S  -0.6444508  -0.2058689   0.1982820 SPIN=   0.00000
   O   0.9671167   0.6610467   0.4014721 SPIN=   0.00000
   O   0.6337951   0.2917231   0.2349371 SPIN=   0.00000
   O   1.0616806   0.2711369   0.2003375 SPIN=   0.00000
   S   0.8427328   0.4041509   0.1982820 SPIN=   0.00000
   O  -0.2008710   0.2991290   0.5982580 SPIN=   0.00000
   O  -0.4578007  -0.4578007  -0.9156014 SPIN=   0.00000
   F  -0.3446356  -0.3123854  -0.1755741 SPIN=   0.00000
   F   0.1690614   0.1368113  -0.1755741 SPIN=   0.00000
%ENDBLOCK POSITIONS_FRAC

# Note: total spin =   8.00

KPOINTS_MP_SPACING 0.07

%BLOCK SPECIES_POT
QC5
%ENDBLOCK SPECIES_POT

SNAP_TO_SYMMETRY
SYMMETRY_GENERATE

