#              Generated by Buildcell
#
# at 02:35:43 (GMT+1.0) 19th August 2020
# in /scratch/scratch/uccabz1/launch_tmp
# on node-k10c-028
# by uccabz1
#
# compiler GCC version 4.9.2
# options -cpp -iprefix /scratch/UCL/applications/gcc/4.9.2/bin/../lib/gcc/x86_64-unknown-linux-gnu/4.9.2/ -mtune=corei7 -march=x86-64 -g -O2
#
# seed   668519878   889420546 -1598105797  1865415671  1649650446 -1981308667   719418891   173052291 -1150612867 -1064292524   970333776    19147185
#
#      Author: C. J. Pickard (cjp20@cam.ac.uk)
#                Space group: Pmn21
#

%BLOCK LATTICE_ABC
      5.45966      5.92532      6.18234
     90.00000     90.00000     90.00000
%ENDBLOCK LATTICE_ABC

%BLOCK POSITIONS_FRAC
  Li   0.0260769  -0.3060505   0.0000000 SPIN=   0.00000
  Li  -0.0260769   0.1939495  -0.5000000 SPIN=   0.00000
  Fe   0.2499430   0.2375521   0.0000000 SPIN=   4.00000
  Fe  -0.2499430  -0.2624479   0.5000000 SPIN=   4.00000
   O   0.2148358   0.3562330  -0.3053031 SPIN=   0.00000
   O   0.6534956   0.4615162  -0.3071284 SPIN=   0.00000
   O  -0.2148358  -0.1437670  -0.1946969 SPIN=   0.00000
   O  -0.6534956  -0.0384838  -0.1928716 SPIN=   0.00000
   O  -0.2148358  -0.1437670   0.1946969 SPIN=   0.00000
   O  -0.6534956  -0.0384838   0.1928716 SPIN=   0.00000
   O   0.2148358   0.3562330   0.3053031 SPIN=   0.00000
   O   0.6534956   0.4615162   0.3071284 SPIN=   0.00000
   S  -0.4739250  -0.2624464   0.0000000 SPIN=   0.00000
   S   0.4739250   0.2375536  -0.5000000 SPIN=   0.00000
   F  -0.1293892   0.2375555   0.0000000 SPIN=   0.00000
   F   0.1293892  -0.2624445  -0.5000000 SPIN=   0.00000
%ENDBLOCK POSITIONS_FRAC

# Note: total spin =   8.00

KPOINTS_MP_SPACING 0.07

%BLOCK SPECIES_POT
QC5
%ENDBLOCK SPECIES_POT

SNAP_TO_SYMMETRY
SYMMETRY_GENERATE

