#              Generated by Buildcell
#
# at 00:13:38 (GMT+1.0) 19th August 2020
# in /lustre/scratch/uccabz1/launch_tmp
# on node-c12m-030
# by uccabz1
#
# compiler GCC version 4.9.2
# options -cpp -iprefix /lustre/shared/ucl/apps/gcc/4.9.2/bin/../lib/gcc/x86_64-unknown-linux-gnu/4.9.2/ -mtune=corei7 -march=x86-64 -g -Og
#
# seed   416203303 -1530548675 -2010087130  -840316951  2129366137 -1304758810  -836842811   632051194  -760974009  -133984381 -1705031602  -278412708
#
#      Author: C. J. Pickard (cjp20@cam.ac.uk)
#                Space group: Cc
#

%BLOCK LATTICE_ABC
      5.89079      5.89079      6.37276
     83.19714     83.19714     66.00032
%ENDBLOCK LATTICE_ABC

%BLOCK POSITIONS_FRAC
  Li   0.2808603  -0.3617174  -0.1574830 SPIN=   0.00000
  Li  -0.3617174   0.2808603   0.3425170 SPIN=   0.00000
  Fe  -0.1807912   0.4340660  -0.3067101 SPIN=   4.00000
  Fe   0.4340660  -0.1807912   0.1932899 SPIN=   4.00000
   O   0.5769127   0.2079982  -0.3550636 SPIN=   0.00000
   O   0.4428756  -0.0963372  -0.1330628 SPIN=   0.00000
   O   0.5868544  -0.1618286  -0.5105300 SPIN=   0.00000
   O   0.1825535   0.1781843  -0.4142490 SPIN=   0.00000
   S   0.4472991   0.0320042  -0.3532264 SPIN=   0.00000
   O   0.2079982   0.5769127   0.1449364 SPIN=   0.00000
   O  -0.0963372   0.4428756   0.3669372 SPIN=   0.00000
   O  -0.1618286   0.5868544  -0.0105300 SPIN=   0.00000
   O   0.1781843   0.1825535   0.0857510 SPIN=   0.00000
   S   0.0320042   0.4472991   0.1467736 SPIN=   0.00000
   F  -0.3175125   0.0963474   0.1117189 SPIN=   0.00000
   F   0.0963474  -0.3175125  -0.3882811 SPIN=   0.00000
%ENDBLOCK POSITIONS_FRAC

# Note: total spin =   8.00

KPOINTS_MP_SPACING 0.07

%BLOCK SPECIES_POT
QC5
%ENDBLOCK SPECIES_POT

SNAP_TO_SYMMETRY
SYMMETRY_GENERATE

