#              Generated by Buildcell
#
# at 21:34:45 (GMT+1.0) 18th August 2020
# in /lustre/scratch/uccabz1/launch_tmp
# on node-c12p-018
# by uccabz1
#
# compiler GCC version 4.9.2
# options -cpp -iprefix /lustre/shared/ucl/apps/gcc/4.9.2/bin/../lib/gcc/x86_64-unknown-linux-gnu/4.9.2/ -mtune=corei7 -march=x86-64 -g -Og
#
# seed  1479116480  -138705888      942350 -2127676621  -507487514 -1571107856   348634221 -1229395193 -1692983334  2007910408 -1315035110   593881056
#
#      Author: C. J. Pickard (cjp20@cam.ac.uk)
#                Space group: Pc
#

%BLOCK LATTICE_ABC
      5.68714      5.72581      6.55617
    110.47811     90.00000     90.00000
%ENDBLOCK LATTICE_ABC

%BLOCK POSITIONS_FRAC
  Li   0.2043582  -0.0807740  -0.2805403 SPIN=   0.00000
  Li  -0.2043582   0.4192260   0.2194597 SPIN=   0.00000
  Fe   0.1802308  -0.3331863   0.0524219 SPIN=   4.00000
  Fe  -0.1802308   0.1668137  -0.4475781 SPIN=   4.00000
   O  -0.1054205  -0.3229826  -0.2615957 SPIN=   0.00000
   O  -0.3337048   0.0088423   0.0117764 SPIN=   0.00000
   O  -0.5044705  -0.4126433  -0.1574898 SPIN=   0.00000
   O  -0.4536473  -0.1400153  -0.3755234 SPIN=   0.00000
   S  -0.3493108  -0.2166997  -0.1957081 SPIN=   0.00000
   O   0.1054205   0.1770174   0.2384043 SPIN=   0.00000
   O   0.3337048   0.5088423   0.5117764 SPIN=   0.00000
   O   0.5044705   0.0873567   0.3425102 SPIN=   0.00000
   O   0.4536473   0.3599847   0.1244766 SPIN=   0.00000
   S   0.3493108   0.2833003   0.3042919 SPIN=   0.00000
   F   0.0856500   0.2692416  -0.2000011 SPIN=   0.00000
   F  -0.0856500  -0.2307584   0.2999989 SPIN=   0.00000
%ENDBLOCK POSITIONS_FRAC

# Note: total spin =   8.00

KPOINTS_MP_SPACING 0.07

%BLOCK SPECIES_POT
QC5
%ENDBLOCK SPECIES_POT

SNAP_TO_SYMMETRY
SYMMETRY_GENERATE

