#              Generated by Buildcell
#
# at 00:16:42 (GMT+1.0) 19th August 2020
# in /lustre/scratch/uccabz1/launch_tmp
# on node-c12g-001
# by uccabz1
#
# compiler GCC version 4.9.2
# options -cpp -iprefix /lustre/shared/ucl/apps/gcc/4.9.2/bin/../lib/gcc/x86_64-unknown-linux-gnu/4.9.2/ -mtune=corei7 -march=x86-64 -g -Og
#
# seed -2066751130  1200113803  -955237457   996155209  -906843182  1674289975 -2141413440  -650464882  1786009926  1820997143 -1675768136 -1070541395
#
#      Author: C. J. Pickard (cjp20@cam.ac.uk)
#                Space group: C2
#

%BLOCK LATTICE_ABC
      5.85798      6.62851      6.72809
    118.21998    114.39338     92.59910
%ENDBLOCK LATTICE_ABC

%BLOCK POSITIONS_FRAC
  Li  -0.4596548  -0.3539012  -0.2200115 SPIN=   0.00000
  Li   0.2396433   0.1338897  -0.2200115 SPIN=   0.00000
  Fe  -0.0449229  -0.4300403  -0.3927057 SPIN=   4.00000
  Fe  -0.3477828   0.0373345  -0.3927057 SPIN=   4.00000
   O  -0.0960272  -0.3166556  -0.0107049 SPIN=   0.00000
   O  -0.2347450   0.0156102   0.2390598 SPIN=   0.00000
   O   0.2360004   0.0384883   0.4142140 SPIN=   0.00000
   O  -0.0715776  -0.2492936   0.3930504 SPIN=   0.00000
   S  -0.0415874  -0.1279627   0.2589048 SPIN=   0.00000
   O   0.0853223   0.3059507  -0.0107049 SPIN=   0.00000
   O   0.4738048   0.2234496   0.2390598 SPIN=   0.00000
   O   0.1782135   0.3757257   0.4142140 SPIN=   0.00000
   O   0.4646280   0.6423440   0.3930504 SPIN=   0.00000
   S   0.3004922   0.3868675   0.2589048 SPIN=   0.00000
   F   0.2889606   0.6904194  -0.1100085 SPIN=   0.00000
   F  -0.3989691  -0.8004279  -0.1100085 SPIN=   0.00000
%ENDBLOCK POSITIONS_FRAC

# Note: total spin =   8.00

KPOINTS_MP_SPACING 0.07

%BLOCK SPECIES_POT
QC5
%ENDBLOCK SPECIES_POT

SNAP_TO_SYMMETRY
SYMMETRY_GENERATE

