#              Generated by Buildcell
#
# at 21:49:51 (GMT+1.0) 18th August 2020
# in /scratch/scratch/uccabz1/launch_tmp
# on node-k10c-029
# by uccabz1
#
# compiler GCC version 4.9.2
# options -cpp -iprefix /scratch/UCL/applications/gcc/4.9.2/bin/../lib/gcc/x86_64-unknown-linux-gnu/4.9.2/ -mtune=corei7 -march=x86-64 -g -O2
#
# seed -1728454153 -1491507672  1220527132    74885720   524849715     6475384   834369279  1326022196  -811853480  -562620961  1269782781  1395205474
#
#      Author: C. J. Pickard (cjp20@cam.ac.uk)
#                Space group: C2
#

%BLOCK LATTICE_ABC
      4.57417      7.04305      7.04305
    108.96025    102.15543    102.15543
%ENDBLOCK LATTICE_ABC

%BLOCK POSITIONS_FRAC
  Li  -0.2212629  -0.4518637  -0.0586380 SPIN=   0.00000
  Li   0.2212629   0.0586380   0.4518637 SPIN=   0.00000
  Fe  -0.0000000   0.1641048  -0.1641048 SPIN=   6.03750
  Fe  -0.5000000  -0.2910452   0.2910452 SPIN=   1.96250
   O   0.0756739  -0.2723948  -0.2119304 SPIN=   0.00000
   O   0.5991084  -0.0845341  -0.2100850 SPIN=   0.00000
   O   0.2744494  -0.4134961  -0.5126887 SPIN=   0.00000
   S   0.3654598  -0.2991040  -0.2759035 SPIN=   0.00000
   O  -0.0756739   0.2119304   0.2723948 SPIN=   0.00000
   O  -0.5991084   0.2100850   0.0845341 SPIN=   0.00000
   O  -0.2744494   0.5126887   0.4134961 SPIN=   0.00000
   S  -0.3654598   0.2759035   0.2991040 SPIN=   0.00000
   O  -0.0000000  -0.1488177   0.1488177 SPIN=   0.00000
   O   0.5000000  -0.1014976   0.1014976 SPIN=   0.00000
   F   0.1199759   0.4847992   0.0577824 SPIN=   0.00000
   F  -0.1199759  -0.0577824  -0.4847992 SPIN=   0.00000
%ENDBLOCK POSITIONS_FRAC

# Note: total spin =   8.00

KPOINTS_MP_SPACING 0.07

%BLOCK SPECIES_POT
QC5
%ENDBLOCK SPECIES_POT

SNAP_TO_SYMMETRY
SYMMETRY_GENERATE

