#              Generated by Buildcell
#
# at 02:02:06 (GMT+1.0) 4th August 2020
# in /lustre/scratch/uccabz1/launch_tmp
# on node-c12n-032
# by uccabz1
#
# compiler GCC version 4.9.2
# options -cpp -iprefix /lustre/shared/ucl/apps/gcc/4.9.2/bin/../lib/gcc/x86_64-unknown-linux-gnu/4.9.2/ -mtune=corei7 -march=x86-64 -g -Og
#
# seed -1560523372  -144087978   197015893  -627374321   290880040 -1624802001 -1638351896 -1476753653  1965373579 -1759795705   771602555  2096234039
#
#      Author: C. J. Pickard (cjp20@cam.ac.uk)
#                Space group: Pm
#

%BLOCK LATTICE_ABC
      3.86957      4.22701     13.74825
     90.00000     90.00000    117.20474
%ENDBLOCK LATTICE_ABC

%BLOCK POSITIONS_FRAC
  Li   0.8634497   0.4074511  -0.2315831 SPIN=   0.00000
  Li   0.8634497   0.4074511   0.2315831 SPIN=   0.00000
  Fe   0.2460816  -0.0081712   0.3684175 SPIN=   4.00000
  Fe   0.2460816  -0.0081712  -0.3684175 SPIN=   4.00000
   O  -0.8267103  -0.2123646  -0.1361488 SPIN=   0.00000
   O  -0.4692102  -0.5426719  -0.0849306 SPIN=   0.00000
   O  -0.1395635   0.1156397  -0.0845410 SPIN=   0.00000
   O  -0.3058477  -0.2122790  -0.2406308 SPIN=   0.00000
   S  -0.4353329  -0.2129189  -0.1365628 SPIN=   0.00000
   O  -0.8267103  -0.2123646   0.1361488 SPIN=   0.00000
   O  -0.4692102  -0.5426719   0.0849306 SPIN=   0.00000
   O  -0.1395635   0.1156397   0.0845410 SPIN=   0.00000
   O  -0.3058477  -0.2122790   0.2406308 SPIN=   0.00000
   S  -0.4353329  -0.2129189   0.1365628 SPIN=   0.00000
   F   0.0480070   0.3947435   0.3677610 SPIN=   0.00000
   F   0.0480070   0.3947435  -0.3677610 SPIN=   0.00000
%ENDBLOCK POSITIONS_FRAC

# Note: total spin =   8.00

KPOINTS_MP_SPACING 0.07

%BLOCK SPECIES_POT
QC5
%ENDBLOCK SPECIES_POT

SNAP_TO_SYMMETRY
SYMMETRY_GENERATE

