#              Generated by Buildcell
#
# at 18:14:06 (GMT+1.0) 18th August 2020
# in /scratch/scratch/uccabz1/launch_tmp
# on node-k10e-027
# by uccabz1
#
# compiler GCC version 4.9.2
# options -cpp -iprefix /scratch/UCL/applications/gcc/4.9.2/bin/../lib/gcc/x86_64-unknown-linux-gnu/4.9.2/ -mtune=corei7 -march=x86-64 -g -O2
#
# seed -2143862059 -1246363284 -1462585706  1607362732  1044223009  1978079790  -985875701  2086549699   -99283149 -1907594437   634500178 -1742825294
#
#      Author: C. J. Pickard (cjp20@cam.ac.uk)
#                Space group: P-1
#

%BLOCK LATTICE_ABC
      6.09647      6.25503      6.45859
     66.95029     62.09099     76.97683
%ENDBLOCK LATTICE_ABC

%BLOCK POSITIONS_FRAC
  Li   0.2664504   0.3333189   0.0322898 SPIN=   0.00000
  Li  -0.2664504  -0.3333189  -0.0322898 SPIN=   0.00000
  Fe   0.3325063  -0.0506854  -0.1547003 SPIN=   4.00000
  Fe  -0.3325063   0.0506854   0.1547003 SPIN=   4.00000
   O  -0.2567481  -0.3400090   0.4906922 SPIN=   0.00000
   O  -0.2747945  -0.0612361   0.6849805 SPIN=   0.00000
   O  -0.0239135   0.0189737   0.2332639 SPIN=   0.00000
   O   0.1129295  -0.2974757   0.5328163 SPIN=   0.00000
   O   0.2567481   0.3400090  -0.4906922 SPIN=   0.00000
   O   0.2747945   0.0612361  -0.6849805 SPIN=   0.00000
   O   0.0239135  -0.0189737  -0.2332639 SPIN=   0.00000
   O  -0.1129295   0.2974757  -0.5328163 SPIN=   0.00000
   S   0.0000000  -0.0000000   0.5000000 SPIN=   0.00000
   S  -0.5000000   0.5000000  -0.5000000 SPIN=   0.00000
   F  -0.1694491   0.3580432  -0.0933482 SPIN=   0.00000
   F   0.1694491  -0.3580432   0.0933482 SPIN=   0.00000
%ENDBLOCK POSITIONS_FRAC

# Note: total spin =   8.00

KPOINTS_MP_SPACING 0.07

%BLOCK SPECIES_POT
QC5
%ENDBLOCK SPECIES_POT

SNAP_TO_SYMMETRY
SYMMETRY_GENERATE

