#              Generated by Buildcell
#
# at 00:28:13 (GMT+1.0) 19th August 2020
# in /lustre/scratch/uccabz1/launch_tmp
# on node-c12d-004
# by uccabz1
#
# compiler GCC version 4.9.2
# options -cpp -iprefix /lustre/shared/ucl/apps/gcc/4.9.2/bin/../lib/gcc/x86_64-unknown-linux-gnu/4.9.2/ -mtune=corei7 -march=x86-64 -g -Og
#
# seed  -145313601  -934715225 -1593516770 -1570546120  1515995393    67299805  1607619778   530235792  -855172690   789551758  1066576380  -952090009
#
#      Author: C. J. Pickard (cjp20@cam.ac.uk)
#                Space group: Pmn21
#

%BLOCK LATTICE_ABC
      4.75974      5.88598      7.13885
     90.00000     90.00000     90.00000
%ENDBLOCK LATTICE_ABC

%BLOCK POSITIONS_FRAC
  Li  -0.2665798  -0.0000000  -0.4336958 SPIN=   0.00000
  Li   0.2334202  -0.5000000   0.4336958 SPIN=   0.00000
  Fe   0.2815302  -0.0000000   0.2730288 SPIN=   4.00000
  Fe  -0.2184698  -0.5000000  -0.2730288 SPIN=   4.00000
   O  -0.0280677  -0.1995720  -0.1688213 SPIN=   0.00000
   O   0.4851939  -0.2661148  -0.1606705 SPIN=   0.00000
   O  -0.5280677  -0.3004280   0.1688213 SPIN=   0.00000
   O  -0.0148061  -0.2338852   0.1606705 SPIN=   0.00000
   O  -0.5280677   0.3004280   0.1688213 SPIN=   0.00000
   O  -0.0148061   0.2338852   0.1606705 SPIN=   0.00000
   O  -0.0280677   0.1995720  -0.1688213 SPIN=   0.00000
   O   0.4851939   0.2661148  -0.1606705 SPIN=   0.00000
   S  -0.2173339  -0.0000000  -0.0527592 SPIN=   0.00000
   S   0.2826661  -0.5000000   0.0527592 SPIN=   0.00000
   F  -0.2154501  -0.5000000   0.4576899 SPIN=   0.00000
   F   0.2845499  -0.0000000  -0.4576899 SPIN=   0.00000
%ENDBLOCK POSITIONS_FRAC

# Note: total spin =   8.00

KPOINTS_MP_SPACING 0.07

%BLOCK SPECIES_POT
QC5
%ENDBLOCK SPECIES_POT

SNAP_TO_SYMMETRY
SYMMETRY_GENERATE

