#              Generated by Buildcell
#
# at 02:28:55 (GMT+1.0) 19th August 2020
# in /lustre/scratch/uccabz1/launch_tmp
# on node-c12i-026
# by uccabz1
#
# compiler GCC version 4.9.2
# options -cpp -iprefix /lustre/shared/ucl/apps/gcc/4.9.2/bin/../lib/gcc/x86_64-unknown-linux-gnu/4.9.2/ -mtune=corei7 -march=x86-64 -g -Og
#
# seed  -243647865  1001360477   519411163  -903790786   107164603 -1070785797  -338109475  1291634328 -1739199822  -584247807   839757718  -258135765
#
#      Author: C. J. Pickard (cjp20@cam.ac.uk)
#                Space group: P21
#

%BLOCK LATTICE_ABC
      5.18656      6.05739      6.61794
     90.00000     90.00000    105.86100
%ENDBLOCK LATTICE_ABC

%BLOCK POSITIONS_FRAC
  Li  -0.0751527  -0.2495339  -0.1154200 SPIN=   0.00000
  Li   0.0751527   0.2495339   0.3845800 SPIN=   0.00000
  Fe   0.4916115  -0.1438297   0.1298765 SPIN=   4.00000
  Fe  -0.4916115   0.1438297  -0.3701235 SPIN=   4.00000
   O  -0.0803232   0.1082691   0.0814622 SPIN=   0.00000
   O  -0.2657011   0.4174501  -0.0457539 SPIN=   0.00000
   O   0.1001997   0.3166754  -0.2319031 SPIN=   0.00000
   O   0.1915315   0.5131072   0.0989059 SPIN=   0.00000
   S  -0.0135733   0.3388755  -0.0243222 SPIN=   0.00000
   O   0.0803232  -0.1082691   0.5814622 SPIN=   0.00000
   O   0.2657011  -0.4174501   0.4542461 SPIN=   0.00000
   O  -0.1001997  -0.3166754   0.2680969 SPIN=   0.00000
   O  -0.1915315  -0.5131072   0.5989059 SPIN=   0.00000
   S   0.0135733  -0.3388755   0.4756778 SPIN=   0.00000
   F  -0.4439023  -0.2063245  -0.1700116 SPIN=   0.00000
   F   0.4439023   0.2063245   0.3299884 SPIN=   0.00000
%ENDBLOCK POSITIONS_FRAC

# Note: total spin =   8.00

KPOINTS_MP_SPACING 0.07

%BLOCK SPECIES_POT
QC5
%ENDBLOCK SPECIES_POT

SNAP_TO_SYMMETRY
SYMMETRY_GENERATE

