#              Generated by Buildcell
#
# at 05:28:54 (GMT+1.0) 4th August 2020
# in /lustre/scratch/uccabz1/launch_tmp
# on node-c12c-016
# by uccabz1
#
# compiler GCC version 4.9.2
# options -cpp -iprefix /lustre/shared/ucl/apps/gcc/4.9.2/bin/../lib/gcc/x86_64-unknown-linux-gnu/4.9.2/ -mtune=corei7 -march=x86-64 -g -Og
#
# seed  -835370119  1220073760  1217148502  -567231733  1400552700 -1019357902 -1094637434  -657368058 -1968353311  1190380876 -1575709788 -1730264704
#
#      Author: C. J. Pickard (cjp20@cam.ac.uk)
#                Space group: C2/m
#

%BLOCK LATTICE_ABC
      5.89272      5.89272      6.42627
     71.48430     71.48430     88.12301
%ENDBLOCK LATTICE_ABC

%BLOCK POSITIONS_FRAC
  Li  -0.5000000   0.0000000  -0.5000000 SPIN=   0.00000
  Li   0.0000000   0.5000000  -0.5000000 SPIN=   0.00000
  Fe  -0.0000000  -0.0000000   0.5000000 SPIN=   4.25309
  Fe   0.5000000   0.5000000   0.5000000 SPIN=   3.74691
   O  -0.2951767  -0.0146822  -0.0558318 SPIN=   0.00000
   O  -0.4873616   0.2315098   0.1914042 SPIN=   0.00000
   O   0.0146822   0.2951767   0.0558318 SPIN=   0.00000
   O  -0.2315098   0.4873616  -0.1914042 SPIN=   0.00000
   O   0.2951767   0.0146822   0.0558318 SPIN=   0.00000
   O   0.4873616  -0.2315098  -0.1914042 SPIN=   0.00000
   O  -0.0146822  -0.2951767  -0.0558318 SPIN=   0.00000
   O   0.2315098  -0.4873616   0.1914042 SPIN=   0.00000
   S   0.5000000   0.5000000  -0.0000000 SPIN=   0.00000
   S  -0.0000000   0.0000000  -0.0000000 SPIN=   0.00000
   F  -0.7357632  -0.2642368   0.5000000 SPIN=   0.00000
   F   0.7357632   0.2642368   0.5000000 SPIN=   0.00000
%ENDBLOCK POSITIONS_FRAC

# Note: total spin =   8.00

KPOINTS_MP_SPACING 0.07

%BLOCK SPECIES_POT
QC5
%ENDBLOCK SPECIES_POT

SNAP_TO_SYMMETRY
SYMMETRY_GENERATE

