#              Generated by Buildcell
#
# at 04:57:32 (GMT+1.0) 4th August 2020
# in /lustre/scratch/uccabz1/launch_tmp
# on node-c12f-015
# by uccabz1
#
# compiler GCC version 4.9.2
# options -cpp -iprefix /lustre/shared/ucl/apps/gcc/4.9.2/bin/../lib/gcc/x86_64-unknown-linux-gnu/4.9.2/ -mtune=corei7 -march=x86-64 -g -Og
#
# seed   585220371  -815344163  1774479113 -1510445097  1597147917   343646657  2033358746 -1906536379   -51254096   255001384   406028036   548622980
#
#      Author: C. J. Pickard (cjp20@cam.ac.uk)
#                Space group: C2
#

%BLOCK LATTICE_ABC
      4.31860      6.52057      7.68319
    100.91014     90.00000    109.33870
%ENDBLOCK LATTICE_ABC

%BLOCK POSITIONS_FRAC
  Li  -0.2207680  -0.2603653   0.0744946 SPIN=   0.00000
  Li   0.0395972   0.2603653  -0.0744946 SPIN=   0.00000
  Fe   0.2290017  -0.1170751  -0.3007721 SPIN=   4.00000
  Fe   0.3460768   0.1170751   0.3007721 SPIN=   4.00000
   O   0.2412851  -0.3480632   0.4332393 SPIN=   0.00000
   O  -0.2931994  -0.4626237   0.2607789 SPIN=   0.00000
   O   0.0088337  -0.7272048   0.2510766 SPIN=   0.00000
   O   0.2212543  -0.4051350   0.1051192 SPIN=   0.00000
   S   0.0445434  -0.4857567   0.2625535 SPIN=   0.00000
   O  -0.4106517   0.3480632  -0.4332393 SPIN=   0.00000
   O  -0.8305757   0.4626237  -0.2607789 SPIN=   0.00000
   O  -0.2639615   0.7272048  -0.2510766 SPIN=   0.00000
   O  -0.3736108   0.4051350  -0.1051192 SPIN=   0.00000
   S  -0.4696999   0.4857567  -0.2625535 SPIN=   0.00000
   F  -0.1611739   0.0000000   0.5000000 SPIN=   0.00000
   F   0.2422798  -0.0000000   0.0000000 SPIN=   0.00000
%ENDBLOCK POSITIONS_FRAC

# Note: total spin =   8.00

KPOINTS_MP_SPACING 0.07

%BLOCK SPECIES_POT
QC5
%ENDBLOCK SPECIES_POT

SNAP_TO_SYMMETRY
SYMMETRY_GENERATE

