#              Generated by Buildcell
#
# at 02:51:25 (GMT+1.0) 4th August 2020
# in /lustre/scratch/uccabz1/launch_tmp
# on node-c12f-019
# by uccabz1
#
# compiler GCC version 4.9.2
# options -cpp -iprefix /lustre/shared/ucl/apps/gcc/4.9.2/bin/../lib/gcc/x86_64-unknown-linux-gnu/4.9.2/ -mtune=corei7 -march=x86-64 -g -Og
#
# seed   120026081  -636412899  -445655673  -639772010 -1447727918 -1842838714   773117603 -1308183165   740883455   919572827  1929551975  -162617782
#
#      Author: C. J. Pickard (cjp20@cam.ac.uk)
#                Space group: C2
#

%BLOCK LATTICE_ABC
      5.55187      6.43405      6.64304
    118.96465    103.57879     90.00000
%ENDBLOCK LATTICE_ABC

%BLOCK POSITIONS_FRAC
  Li  -0.3134545   0.2386516  -0.2258985 SPIN=   0.00000
  Li   0.3134545   0.4645500   0.2258985 SPIN=   0.00000
  Fe  -0.1682190   0.2365126   0.2387702 SPIN=   4.00000
  Fe   0.1682190  -0.0022576  -0.2387702 SPIN=   4.00000
   O   0.4012931  -0.0909816   0.5217827 SPIN=   0.00000
   O   0.2516688   0.1061422   0.2837377 SPIN=   0.00000
   O   0.3262410  -0.3177270   0.0824430 SPIN=   0.00000
   O   0.6839354   0.0051204   0.3317315 SPIN=   0.00000
   S   0.4157846  -0.0743615   0.3049237 SPIN=   0.00000
   O  -0.4012931  -0.6127643  -0.5217827 SPIN=   0.00000
   O  -0.2516688  -0.1775955  -0.2837377 SPIN=   0.00000
   O  -0.3262410  -0.4001700  -0.0824430 SPIN=   0.00000
   O  -0.6839354  -0.3266111  -0.3317315 SPIN=   0.00000
   S  -0.4157846  -0.3792852  -0.3049237 SPIN=   0.00000
   F   0.0857446   0.2960098   0.7007137 SPIN=   0.00000
   F  -0.0857446  -0.4047039  -0.7007137 SPIN=   0.00000
%ENDBLOCK POSITIONS_FRAC

# Note: total spin =   8.00

KPOINTS_MP_SPACING 0.07

%BLOCK SPECIES_POT
QC5
%ENDBLOCK SPECIES_POT

SNAP_TO_SYMMETRY
SYMMETRY_GENERATE

