#              Generated by Buildcell
#
# at 01:54:25 (GMT+1.0) 19th August 2020
# in /lustre/scratch/uccabz1/launch_tmp
# on node-c12n-031
# by uccabz1
#
# compiler GCC version 4.9.2
# options -cpp -iprefix /lustre/shared/ucl/apps/gcc/4.9.2/bin/../lib/gcc/x86_64-unknown-linux-gnu/4.9.2/ -mtune=corei7 -march=x86-64 -g -Og
#
# seed  1445790140  -971366430  -935830676    -8072166   -46951408    54110393  -829849498  1020248663 -1777295632  1269643491 -1032886713   -97231600
#
#      Author: C. J. Pickard (cjp20@cam.ac.uk)
#                Space group: C2
#

%BLOCK LATTICE_ABC
      4.04897      4.04897     12.53751
     82.32985     82.32985     81.28260
%ENDBLOCK LATTICE_ABC

%BLOCK POSITIONS_FRAC
  Li  -0.2710735   0.0205873   0.2103858 SPIN=   0.00000
  Li  -0.0205873   0.2710735  -0.2103858 SPIN=   0.00000
  Fe   0.4204805  -0.0541291  -0.4028705 SPIN=   4.00000
  Fe   0.0541291  -0.4204805   0.4028705 SPIN=   4.00000
   O   0.5044049  -0.3943194   0.1663696 SPIN=   0.00000
   O  -0.0128757  -0.2498200   0.0751908 SPIN=   0.00000
   O  -0.0225108  -0.6045814   0.2520453 SPIN=   0.00000
   O   0.2829094  -0.8327929   0.0874108 SPIN=   0.00000
   S   0.1879820  -0.5203784   0.1452541 SPIN=   0.00000
   O   0.3943194  -0.5044049  -0.1663696 SPIN=   0.00000
   O   0.2498200   0.0128757  -0.0751908 SPIN=   0.00000
   O   0.6045814   0.0225108  -0.2520453 SPIN=   0.00000
   O   0.8327929  -0.2829094  -0.0874108 SPIN=   0.00000
   S   0.5203784  -0.1879820  -0.1452541 SPIN=   0.00000
   F   0.0922163   0.4099082  -0.3665730 SPIN=   0.00000
   F  -0.4099082  -0.0922163   0.3665730 SPIN=   0.00000
%ENDBLOCK POSITIONS_FRAC

# Note: total spin =   8.00

KPOINTS_MP_SPACING 0.07

%BLOCK SPECIES_POT
QC5
%ENDBLOCK SPECIES_POT

SNAP_TO_SYMMETRY
SYMMETRY_GENERATE

