#              Generated by Buildcell
#
# at 01:11:02 (GMT+1.0) 19th August 2020
# in /lustre/scratch/uccabz1/launch_tmp
# on node-c12m-009
# by uccabz1
#
# compiler GCC version 4.9.2
# options -cpp -iprefix /lustre/shared/ucl/apps/gcc/4.9.2/bin/../lib/gcc/x86_64-unknown-linux-gnu/4.9.2/ -mtune=corei7 -march=x86-64 -g -Og
#
# seed  1595079520    80678821  1411895143  -866215121 -1917051075   866360754 -1095990285 -1519366705  -480724937  -171370604  1735415582 -1302198717
#
#      Author: C. J. Pickard (cjp20@cam.ac.uk)
#                Space group: Pma2
#

%BLOCK LATTICE_ABC
      3.88445      6.86083      7.50453
     90.00000     90.00000     90.00000
%ENDBLOCK LATTICE_ABC

%BLOCK POSITIONS_FRAC
  Li  -0.4844268   0.1731963  -0.2500000 SPIN=   0.00000
  Li   0.4844268   0.1731963   0.2500000 SPIN=   0.00000
  Fe  -0.0000000   0.3884823  -0.0000000 SPIN=   4.00000
  Fe   0.0000000   0.3884823  -0.5000000 SPIN=   4.00000
   O   0.2504126   0.0016654   0.0912944 SPIN=   0.00000
   O   0.2506679  -0.3590591   0.0917975 SPIN=   0.00000
   O  -0.2504126   0.0016654  -0.0912944 SPIN=   0.00000
   O  -0.2506679  -0.3590591  -0.0917975 SPIN=   0.00000
   O  -0.2504126   0.0016654  -0.4087056 SPIN=   0.00000
   O  -0.2506679  -0.3590591  -0.4082025 SPIN=   0.00000
   O   0.2504126   0.0016654   0.4087056 SPIN=   0.00000
   O   0.2506679  -0.3590591   0.4082025 SPIN=   0.00000
   S   0.3958771  -0.2207848   0.2500000 SPIN=   0.00000
   S  -0.3958771  -0.2207848  -0.2500000 SPIN=   0.00000
   F   0.0804828   0.3136749  -0.2500000 SPIN=   0.00000
   F  -0.0804828   0.3136749   0.2500000 SPIN=   0.00000
%ENDBLOCK POSITIONS_FRAC

# Note: total spin =   8.00

KPOINTS_MP_SPACING 0.07

%BLOCK SPECIES_POT
QC5
%ENDBLOCK SPECIES_POT

SNAP_TO_SYMMETRY
SYMMETRY_GENERATE

