#              Generated by Buildcell
#
# at 21:37:46 (GMT+1.0) 18th August 2020
# in /lustre/scratch/uccabz1/launch_tmp
# on node-c12e-014
# by uccabz1
#
# compiler GCC version 4.9.2
# options -cpp -iprefix /lustre/shared/ucl/apps/gcc/4.9.2/bin/../lib/gcc/x86_64-unknown-linux-gnu/4.9.2/ -mtune=corei7 -march=x86-64 -g -Og
#
# seed  -979456026 -1317677427  -714417696   524512276   103200569 -1363239908 -2119033325  -475506923  -469787240  1412127709 -2140014854  1824144946
#
#      Author: C. J. Pickard (cjp20@cam.ac.uk)
#                Space group: C2
#

%BLOCK LATTICE_ABC
      5.69892      5.69892      7.26699
    104.38781    111.46115    102.50968
%ENDBLOCK LATTICE_ABC

%BLOCK POSITIONS_FRAC
  Li  -0.2090671  -0.4894657   0.2360197 SPIN=   0.00000
  Li  -0.7254854  -0.4450868  -0.2360197 SPIN=   0.00000
  Fe   0.0770409  -0.0240178  -0.3577193 SPIN=   4.00000
  Fe   0.3337015   0.4347603   0.3577193 SPIN=   4.00000
   O   0.1519992  -0.0909410  -0.0656554 SPIN=   0.00000
   O   0.1262987  -0.3249186   0.1751732 SPIN=   0.00000
   O   0.4652321   0.1094184   0.3168250 SPIN=   0.00000
   O   0.5111275  -0.2622444   0.0881497 SPIN=   0.00000
   S   0.3136644  -0.1421714   0.1286231 SPIN=   0.00000
   O  -0.0252856   0.2176546   0.0656554 SPIN=   0.00000
   O  -0.5000918  -0.0488745  -0.1751732 SPIN=   0.00000
   O  -0.2074066   0.1484071  -0.3168250 SPIN=   0.00000
   O  -0.3503941   0.4229777  -0.0881497 SPIN=   0.00000
   S  -0.2707946   0.1850412  -0.1286231 SPIN=   0.00000
   F   0.1318999   0.2239151   0.4987815 SPIN=   0.00000
   F  -0.2748664  -0.3668816  -0.4987815 SPIN=   0.00000
%ENDBLOCK POSITIONS_FRAC

# Note: total spin =   8.00

KPOINTS_MP_SPACING 0.07

%BLOCK SPECIES_POT
QC5
%ENDBLOCK SPECIES_POT

SNAP_TO_SYMMETRY
SYMMETRY_GENERATE

