#              Generated by Buildcell
#
# at 05:48:06 (GMT+1.0) 4th August 2020
# in /lustre/scratch/uccabz1/launch_tmp
# on node-c12g-016
# by uccabz1
#
# compiler GCC version 4.9.2
# options -cpp -iprefix /lustre/shared/ucl/apps/gcc/4.9.2/bin/../lib/gcc/x86_64-unknown-linux-gnu/4.9.2/ -mtune=corei7 -march=x86-64 -g -Og
#
# seed   459101442  1211708387 -2126685466   342742135  1086155024 -1392076969   925753407    71948605 -1186150176  -318842473  1652074283  -301863653
#
#      Author: C. J. Pickard (cjp20@cam.ac.uk)
#                Space group: Cm
#

%BLOCK LATTICE_ABC
      5.70341      5.70341      7.23238
    111.74146    111.74146     90.57997
%ENDBLOCK LATTICE_ABC

%BLOCK POSITIONS_FRAC
  Li   0.0059221   0.0059221  -0.2745321 SPIN=   0.00000
  Li  -0.2863148  -0.2863148   0.0213107 SPIN=   0.00000
  Fe  -0.3988283  -0.3988283   0.3484556 SPIN=   4.05609
  Fe   0.1394923   0.1394923   0.3351338 SPIN=   3.94391
   O  -0.3937711   0.3221037  -0.2084343 SPIN=   0.00000
   O  -0.1448996   0.1392246   0.0507988 SPIN=   0.00000
   O  -0.4322713  -0.1481450  -0.3259196 SPIN=   0.00000
   O  -0.6151479   0.1007255  -0.0666842 SPIN=   0.00000
   S  -0.3965224   0.1034772  -0.1375598 SPIN=   0.00000
   O   0.3221037  -0.3937711  -0.2084343 SPIN=   0.00000
   O   0.1392246  -0.1448996   0.0507988 SPIN=   0.00000
   O  -0.1481450  -0.4322713  -0.3259196 SPIN=   0.00000
   O   0.1007255  -0.6151479  -0.0666842 SPIN=   0.00000
   S   0.1034772  -0.3965224  -0.1375598 SPIN=   0.00000
   F  -0.4117412   0.0838310   0.3522585 SPIN=   0.00000
   F   0.0838310  -0.4117412   0.3522585 SPIN=   0.00000
%ENDBLOCK POSITIONS_FRAC

# Note: total spin =   8.00

KPOINTS_MP_SPACING 0.07

%BLOCK SPECIES_POT
QC5
%ENDBLOCK SPECIES_POT

SNAP_TO_SYMMETRY
SYMMETRY_GENERATE

