#              Generated by Buildcell
#
# at 02:29:39 (GMT+1.0) 19th August 2020
# in /scratch/scratch/uccabz1/launch_tmp
# on node-k10f-002
# by uccabz1
#
# compiler GCC version 4.9.2
# options -cpp -iprefix /scratch/UCL/applications/gcc/4.9.2/bin/../lib/gcc/x86_64-unknown-linux-gnu/4.9.2/ -mtune=corei7 -march=x86-64 -g -O2
#
# seed -1662961062  1270462475 -1773763549  -757374624  1942059709  1289361225  -195811323  1217722239 -2010788247  1584219124   261912661 -1872605300
#
#      Author: C. J. Pickard (cjp20@cam.ac.uk)
#                Space group: Ima2
#

%BLOCK LATTICE_ABC
      5.50824      6.80899      6.80899
     62.79203     66.14127     66.14127
%ENDBLOCK LATTICE_ABC

%BLOCK POSITIONS_FRAC
  Li  -0.4251532  -0.3751526   0.1248474 SPIN=   0.00000
  Li  -0.3245416   0.1248474  -0.3751526 SPIN=   0.00000
  Fe   0.1152725  -0.1152725  -0.1152725 SPIN=   4.00000
  Fe   0.1152725  -0.6152725   0.3847275 SPIN=   4.00000
   O  -0.0394339   0.1727507   0.3449424 SPIN=   0.00000
   O   0.2641293   0.0115680   0.0391239 SPIN=   0.00000
   O  -0.4782592   0.3449424   0.1727507 SPIN=   0.00000
   O  -0.3148212   0.0391239   0.0115680 SPIN=   0.00000
   O  -0.4782592   0.6727507  -0.1550576 SPIN=   0.00000
   O  -0.3148212   0.5115680  -0.4608761 SPIN=   0.00000
   O  -0.0394339   0.8449424  -0.3272493 SPIN=   0.00000
   O   0.2641293   0.5391239  -0.4884320 SPIN=   0.00000
   S   0.1048056  -0.1317360   0.3682640 SPIN=   0.00000
   S  -0.3413335   0.3682640  -0.1317360 SPIN=   0.00000
   F  -0.0705682  -0.3964210   0.1035790 SPIN=   0.00000
   F   0.3634102   0.1035790  -0.3964210 SPIN=   0.00000
%ENDBLOCK POSITIONS_FRAC

# Note: total spin =   8.00

KPOINTS_MP_SPACING 0.07

%BLOCK SPECIES_POT
QC5
%ENDBLOCK SPECIES_POT

SNAP_TO_SYMMETRY
SYMMETRY_GENERATE

