#              Generated by Buildcell
#
# at 22:17:43 (GMT+1.0) 18th August 2020
# in /scratch/scratch/uccabz1/launch_tmp
# on node-k10b-027
# by uccabz1
#
# compiler GCC version 4.9.2
# options -cpp -iprefix /scratch/UCL/applications/gcc/4.9.2/bin/../lib/gcc/x86_64-unknown-linux-gnu/4.9.2/ -mtune=corei7 -march=x86-64 -g -O2
#
# seed  2140189140  1493970934  1062046406  -240215734  -346157146  1185711607   785934576 -1664044453 -1891675825  1642358587 -1376677905 -1365755568
#
#      Author: C. J. Pickard (cjp20@cam.ac.uk)
#                Space group: C2/c
#

%BLOCK LATTICE_ABC
      5.03096      5.03096      8.19296
    100.69563    100.69563     90.65245
%ENDBLOCK LATTICE_ABC

%BLOCK POSITIONS_FRAC
  Li  -0.5000000  -0.5000000   0.0000000 SPIN=   0.00000
  Li  -1.0000000   0.0000000  -0.5000000 SPIN=   0.00000
  Fe   0.0000000   0.0000000   0.0000000 SPIN=   4.00000
  Fe   0.5000000  -0.5000000   0.5000000 SPIN=   4.00000
   O  -0.3943033   0.1094994  -0.0822866 SPIN=   0.00000
   O  -0.8767497   0.0730238  -0.2228540 SPIN=   0.00000
   O  -0.6094994  -0.1056967  -0.4177134 SPIN=   0.00000
   O  -0.5730238   0.3767497  -0.2771460 SPIN=   0.00000
   O   0.3943033  -0.1094994   0.0822866 SPIN=   0.00000
   O   0.8767497  -0.0730238   0.2228540 SPIN=   0.00000
   O   0.6094994   0.1056967   0.4177134 SPIN=   0.00000
   O   0.5730238  -0.3767497   0.2771460 SPIN=   0.00000
   S  -0.5747351   0.0747351  -0.2500000 SPIN=   0.00000
   S   0.5747351  -0.0747351   0.2500000 SPIN=   0.00000
   F  -0.0785627  -0.4214373  -0.2500000 SPIN=   0.00000
   F   0.0785627   0.4214373   0.2500000 SPIN=   0.00000
%ENDBLOCK POSITIONS_FRAC

# Note: total spin =   8.00

KPOINTS_MP_SPACING 0.07

%BLOCK SPECIES_POT
QC5
%ENDBLOCK SPECIES_POT

SNAP_TO_SYMMETRY
SYMMETRY_GENERATE

