#              Generated by Buildcell
#
# at 21:51:40 (GMT+1.0) 18th August 2020
# in /lustre/scratch/uccabz1/launch_tmp
# on node-c12m-030
# by uccabz1
#
# compiler GCC version 4.9.2
# options -cpp -iprefix /lustre/shared/ucl/apps/gcc/4.9.2/bin/../lib/gcc/x86_64-unknown-linux-gnu/4.9.2/ -mtune=corei7 -march=x86-64 -g -Og
#
# seed  1418695708  1932920261 -1499441421  1898705925   249355379   742443849 -1584548629  1124119230 -1226385267    50263820 -1953593480   -86019680
#
#      Author: C. J. Pickard (cjp20@cam.ac.uk)
#                Space group: P-1
#

%BLOCK LATTICE_ABC
      4.18222      6.40491      7.71201
     75.64351     89.73894     87.96282
%ENDBLOCK LATTICE_ABC

%BLOCK POSITIONS_FRAC
  Li   0.0000000   0.0000000   0.0000000 SPIN=   0.00000
  Li  -0.0000000   0.0000000  -0.5000000 SPIN=   0.00000
  Fe   0.7941336  -0.4887371  -0.2246141 SPIN=   4.00000
  Fe  -0.7941336   0.4887371   0.2246141 SPIN=   4.00000
   O   0.3773762  -0.1752208   0.1243759 SPIN=   0.00000
   O   0.3359727   0.1646205   0.2222847 SPIN=   0.00000
   O   0.8441758  -0.0522351   0.2632201 SPIN=   0.00000
   O   0.3730236  -0.1859893   0.4473880 SPIN=   0.00000
   S   0.4826371  -0.0622062   0.2643172 SPIN=   0.00000
   O  -0.3773762   0.1752208  -0.1243759 SPIN=   0.00000
   O  -0.3359727  -0.1646205  -0.2222847 SPIN=   0.00000
   O  -0.8441758   0.0522351  -0.2632201 SPIN=   0.00000
   O  -0.3730236   0.1859893  -0.4473880 SPIN=   0.00000
   S  -0.4826371   0.0622062  -0.2643172 SPIN=   0.00000
   F   1.0000000  -0.5000000   0.5000000 SPIN=   0.00000
   F   0.5000000  -0.5000000  -0.0000000 SPIN=   0.00000
%ENDBLOCK POSITIONS_FRAC

# Note: total spin =   8.00

KPOINTS_MP_SPACING 0.07

%BLOCK SPECIES_POT
QC5
%ENDBLOCK SPECIES_POT

SNAP_TO_SYMMETRY
SYMMETRY_GENERATE

