#              Generated by Buildcell
#
# at 02:10:12 (GMT+1.0) 4th August 2020
# in /lustre/scratch/uccabz1/launch_tmp
# on node-c12g-003
# by uccabz1
#
# compiler GCC version 4.9.2
# options -cpp -iprefix /lustre/shared/ucl/apps/gcc/4.9.2/bin/../lib/gcc/x86_64-unknown-linux-gnu/4.9.2/ -mtune=corei7 -march=x86-64 -g -Og
#
# seed   -59730114  1245725561 -1470553222  -507779523 -1383291826  -384616947   843643423  1928426051 -1376329045 -1642295320   527613891 -2064417509
#
#      Author: C. J. Pickard (cjp20@cam.ac.uk)
#                Space group: Pm
#

%BLOCK LATTICE_ABC
      3.86155      6.39882      8.17038
     90.00000     90.00000     97.83500
%ENDBLOCK LATTICE_ABC

%BLOCK POSITIONS_FRAC
  Li   0.4634997   0.4203911   0.2166538 SPIN=   0.00000
  Li   0.4634997   0.4203911  -0.2166538 SPIN=   0.00000
  Fe   0.0754721   0.2285513  -0.5000000 SPIN=   2.63221
  Fe  -0.0997474   0.2002842  -0.0000000 SPIN=   5.36779
   O   0.2373548  -0.3141458   0.1429057 SPIN=   0.00000
   O  -0.2200779  -0.3545666   0.3570942 SPIN=   0.00000
   O  -0.2247436  -0.0814766   0.1429058 SPIN=   0.00000
   O   0.2326893  -0.0410560   0.3570942 SPIN=   0.00000
   O   0.2373548  -0.3141458  -0.1429057 SPIN=   0.00000
   O  -0.2200779  -0.3545666  -0.3570942 SPIN=   0.00000
   O  -0.2247436  -0.0814766  -0.1429058 SPIN=   0.00000
   O   0.2326893  -0.0410560  -0.3570942 SPIN=   0.00000
   S   0.1854795  -0.2616853  -0.5000000 SPIN=   0.00000
   S   0.0102149  -0.2899573   0.0000000 SPIN=   0.00000
   F   0.4095136   0.2403270   0.0000000 SPIN=   0.00000
   F  -0.4152595   0.2686050  -0.5000000 SPIN=   0.00000
%ENDBLOCK POSITIONS_FRAC

# Note: total spin =   8.00

KPOINTS_MP_SPACING 0.07

%BLOCK SPECIES_POT
QC5
%ENDBLOCK SPECIES_POT

SNAP_TO_SYMMETRY
SYMMETRY_GENERATE

