#              Generated by Buildcell
#
# at 02:07:04 (GMT+1.0) 4th August 2020
# in /lustre/scratch/uccabz1/launch_tmp
# on node-c12d-003
# by uccabz1
#
# compiler GCC version 4.9.2
# options -cpp -iprefix /lustre/shared/ucl/apps/gcc/4.9.2/bin/../lib/gcc/x86_64-unknown-linux-gnu/4.9.2/ -mtune=corei7 -march=x86-64 -g -Og
#
# seed  1349167887  1803561441   122980963  -256635099   -79069907   -79157917 -1379138677 -1386620713 -1604098621   796871684  -475945117 -1895087586
#
#      Author: C. J. Pickard (cjp20@cam.ac.uk)
#                Space group: P2/c
#

%BLOCK LATTICE_ABC
      3.98102      6.77272      7.71787
     90.00000     90.00000    106.03067
%ENDBLOCK LATTICE_ABC

%BLOCK POSITIONS_FRAC
  Li  -0.2500000  -0.2500000  -0.1278293 SPIN=   0.00000
  Li   0.2500000   0.2500000   0.1278293 SPIN=   0.00000
  Fe   0.2500000   0.2500000  -0.2645771 SPIN=   4.00000
  Fe  -0.2500000  -0.2500000   0.2645771 SPIN=   4.00000
   O   0.3239999   0.0948111   0.4065724 SPIN=   0.00000
   O   0.6632773   0.4036098   0.2485798 SPIN=   0.00000
   O   0.1760001   0.4051889   0.4065724 SPIN=   0.00000
   O  -0.1632773   0.0963902   0.2485798 SPIN=   0.00000
   O  -0.3239999  -0.0948111  -0.4065724 SPIN=   0.00000
   O  -0.6632773  -0.4036098  -0.2485798 SPIN=   0.00000
   O  -0.1760001  -0.4051889  -0.4065724 SPIN=   0.00000
   O   0.1632773  -0.0963902  -0.2485798 SPIN=   0.00000
   S  -0.2500000   0.2500000   0.3919604 SPIN=   0.00000
   S   0.2500000  -0.2500000  -0.3919604 SPIN=   0.00000
   F  -0.2500000   0.2500000  -0.1245529 SPIN=   0.00000
   F  -0.7500000  -0.2500000   0.1245529 SPIN=   0.00000
%ENDBLOCK POSITIONS_FRAC

# Note: total spin =   8.00

KPOINTS_MP_SPACING 0.07

%BLOCK SPECIES_POT
QC5
%ENDBLOCK SPECIES_POT

SNAP_TO_SYMMETRY
SYMMETRY_GENERATE

