#              Generated by Buildcell
#
# at 04:13:03 (GMT+1.0) 4th August 2020
# in /lustre/scratch/uccabz1/launch_tmp
# on node-c12f-031
# by uccabz1
#
# compiler GCC version 4.9.2
# options -cpp -iprefix /lustre/shared/ucl/apps/gcc/4.9.2/bin/../lib/gcc/x86_64-unknown-linux-gnu/4.9.2/ -mtune=corei7 -march=x86-64 -g -Og
#
# seed -2068299811  2097832774   -33359298 -1735249268 -1453554772   347862410  2146548905    57965245  1137138762  1500485267 -1026087650 -1643413575
#
#      Author: C. J. Pickard (cjp20@cam.ac.uk)
#                Space group: Pc
#

%BLOCK LATTICE_ABC
      3.95617      5.08910     10.33990
     90.00000     90.00000    106.11191
%ENDBLOCK LATTICE_ABC

%BLOCK POSITIONS_FRAC
  Li   0.3457622   0.2880245   0.3200520 SPIN=   0.00000
  Li   0.3457622  -0.2119755  -0.3200520 SPIN=   0.00000
  Fe  -0.0083502   0.1108253  -0.1349705 SPIN=   4.00000
  Fe  -0.0083502  -0.3891747   0.1349705 SPIN=   4.00000
   O  -0.6455948  -0.1146285   0.2518223 SPIN=   0.00000
   O  -0.2165570  -0.3619470   0.3184166 SPIN=   0.00000
   O  -0.6376246  -0.2723258   0.4779295 SPIN=   0.00000
   O  -0.1506039   0.1095487   0.3962004 SPIN=   0.00000
   S  -0.4125951  -0.1598382   0.3610922 SPIN=   0.00000
   O  -0.6455948   0.3853715  -0.2518223 SPIN=   0.00000
   O  -0.2165570   0.1380530  -0.3184166 SPIN=   0.00000
   O  -0.6376246   0.2276742  -0.4779295 SPIN=   0.00000
   O  -0.1506039   0.6095487  -0.3962004 SPIN=   0.00000
   S  -0.4125951   0.3401618  -0.3610922 SPIN=   0.00000
   F   0.1215043   0.2891600   0.1370066 SPIN=   0.00000
   F   0.1215043  -0.2108400  -0.1370066 SPIN=   0.00000
%ENDBLOCK POSITIONS_FRAC

# Note: total spin =   8.00

KPOINTS_MP_SPACING 0.07

%BLOCK SPECIES_POT
QC5
%ENDBLOCK SPECIES_POT

SNAP_TO_SYMMETRY
SYMMETRY_GENERATE

