#              Generated by Buildcell
#
# at 23:41:10 (GMT+1.0) 18th August 2020
# in /scratch/scratch/uccabz1/launch_tmp
# on node-k10e-031
# by uccabz1
#
# compiler GCC version 4.9.2
# options -cpp -iprefix /scratch/UCL/applications/gcc/4.9.2/bin/../lib/gcc/x86_64-unknown-linux-gnu/4.9.2/ -mtune=corei7 -march=x86-64 -g -O2
#
# seed   312956950  -364006077  1142208093  -821456204  -919753971  1045953885  -662696283  -902566301 -1476880834    40348480 -1197850670  -960865157
#
#      Author: C. J. Pickard (cjp20@cam.ac.uk)
#                Space group: P-1
#

%BLOCK LATTICE_ABC
      3.81881      6.36638      8.42762
     80.26775     88.47389     82.04687
%ENDBLOCK LATTICE_ABC

%BLOCK POSITIONS_FRAC
  Li   0.3401094  -0.2534373   0.0776330 SPIN=   0.00000
  Li  -0.3401094   0.2534373  -0.0776330 SPIN=   0.00000
  Fe  -0.3171142   0.0050329   0.2722851 SPIN=   4.00000
  Fe   0.3171142  -0.0050329  -0.2722851 SPIN=   4.00000
   O   0.2967508  -0.4971352  -0.1293987 SPIN=   0.00000
   O   0.0025773  -0.7056772  -0.2960708 SPIN=   0.00000
   O   0.2906684  -0.3951434  -0.4261106 SPIN=   0.00000
   O  -0.2617047  -0.3355476  -0.2699523 SPIN=   0.00000
   S   0.0820729  -0.4833759  -0.2803831 SPIN=   0.00000
   O  -0.2967508   0.4971352   0.1293987 SPIN=   0.00000
   O  -0.0025773   0.7056772   0.2960708 SPIN=   0.00000
   O  -0.2906684   0.3951434   0.4261106 SPIN=   0.00000
   O   0.2617047   0.3355476   0.2699523 SPIN=   0.00000
   S  -0.0820729   0.4833759   0.2803831 SPIN=   0.00000
   F  -0.5000000  -0.0000000  -0.5000000 SPIN=   0.00000
   F   0.0000000  -0.0000000   0.0000000 SPIN=   0.00000
%ENDBLOCK POSITIONS_FRAC

# Note: total spin =   8.00

KPOINTS_MP_SPACING 0.07

%BLOCK SPECIES_POT
QC5
%ENDBLOCK SPECIES_POT

SNAP_TO_SYMMETRY
SYMMETRY_GENERATE

