#              Generated by Buildcell
#
# at 02:28:17 (GMT+1.0) 19th August 2020
# in /lustre/scratch/uccabz1/launch_tmp
# on node-c12m-030
# by uccabz1
#
# compiler GCC version 4.9.2
# options -cpp -iprefix /lustre/shared/ucl/apps/gcc/4.9.2/bin/../lib/gcc/x86_64-unknown-linux-gnu/4.9.2/ -mtune=corei7 -march=x86-64 -g -Og
#
# seed   336064910 -1056154578   700814324 -1098396392  -224128399   991120877  1603460675  2048111924  1284939218 -1006780857 -1799148774  1411431792
#
#      Author: C. J. Pickard (cjp20@cam.ac.uk)
#                Space group: Cc
#

%BLOCK LATTICE_ABC
      4.32183      5.71977      8.73827
     90.00110     90.00000    112.19731
%ENDBLOCK LATTICE_ABC

%BLOCK POSITIONS_FRAC
  Li  -0.0018575   0.1063472   0.0513985 SPIN=   0.00000
  Li   0.1082046   0.1063472  -0.4486015 SPIN=   0.00000
  Fe   0.4684676  -0.1766294   0.2945858 SPIN=   4.00000
  Fe   0.3549030  -0.1766294  -0.2054142 SPIN=   4.00000
   O  -0.1363279   0.4640347  -0.1210586 SPIN=   0.00000
   O  -0.5116514   0.2245169   0.0867041 SPIN=   0.00000
   O  -0.4237301   0.6725314   0.0424261 SPIN=   0.00000
   O   0.0329669   0.5612483   0.1494620 SPIN=   0.00000
   S  -0.2596856   0.4805828   0.0393834 SPIN=   0.00000
   O  -0.3996373   0.4640347  -0.6210586 SPIN=   0.00000
   O  -0.2638318   0.2245169  -0.4132959 SPIN=   0.00000
   O   0.0962614   0.6725314  -0.4575739 SPIN=   0.00000
   O  -0.4717186   0.5612483  -0.3505380 SPIN=   0.00000
   S  -0.2597316   0.4805828  -0.4606166 SPIN=   0.00000
   F   0.0315767   0.0631322  -0.2106148 SPIN=   0.00000
   F   0.0315555   0.0631322   0.2893852 SPIN=   0.00000
%ENDBLOCK POSITIONS_FRAC

# Note: total spin =   8.00

KPOINTS_MP_SPACING 0.07

%BLOCK SPECIES_POT
QC5
%ENDBLOCK SPECIES_POT

SNAP_TO_SYMMETRY
SYMMETRY_GENERATE

