#              Generated by Buildcell
#
# at 19:15:18 (GMT+1.0) 18th August 2020
# in /lustre/scratch/uccabz1/launch_tmp
# on node-c12f-005
# by uccabz1
#
# compiler GCC version 4.9.2
# options -cpp -iprefix /lustre/shared/ucl/apps/gcc/4.9.2/bin/../lib/gcc/x86_64-unknown-linux-gnu/4.9.2/ -mtune=corei7 -march=x86-64 -g -Og
#
# seed  -512998866   490885106  1310894150  1106408454   350170674  1811717234   381767189  -493131166  -128831592  -684227007    62306865  -182470086
#
#      Author: C. J. Pickard (cjp20@cam.ac.uk)
#                Space group: P-1
#

%BLOCK LATTICE_ABC
      5.20100      6.40664      6.90087
    100.48279    107.34614    107.36808
%ENDBLOCK LATTICE_ABC

%BLOCK POSITIONS_FRAC
  Li  -0.0764552  -0.3830289  -0.2682125 SPIN=   0.00000
  Li   0.0764552   0.3830289   0.2682125 SPIN=   0.00000
  Fe  -0.3829754  -0.1835689   0.3351283 SPIN=   4.00000
  Fe   0.3829754   0.1835689  -0.3351283 SPIN=   4.00000
   O   0.6732265   0.1222308   0.1542550 SPIN=   0.00000
   O   0.6993178   0.5137725   0.3007473 SPIN=   0.00000
   O   0.2929594   0.1773430   0.2803633 SPIN=   0.00000
   O   0.3207089   0.2661894  -0.0489043 SPIN=   0.00000
   S   0.4965532   0.2698839   0.1716154 SPIN=   0.00000
   O  -0.6732265  -0.1222308  -0.1542550 SPIN=   0.00000
   O  -0.6993178  -0.5137725  -0.3007473 SPIN=   0.00000
   O  -0.2929594  -0.1773430  -0.2803633 SPIN=   0.00000
   O  -0.3207089  -0.2661894   0.0489043 SPIN=   0.00000
   S  -0.4965532  -0.2698839  -0.1716154 SPIN=   0.00000
   F   0.1953054  -0.2791572   0.2711351 SPIN=   0.00000
   F  -0.1953054   0.2791572  -0.2711351 SPIN=   0.00000
%ENDBLOCK POSITIONS_FRAC

# Note: total spin =   8.00

KPOINTS_MP_SPACING 0.07

%BLOCK SPECIES_POT
QC5
%ENDBLOCK SPECIES_POT

SNAP_TO_SYMMETRY
SYMMETRY_GENERATE

