#              Generated by Buildcell
#
# at 04:40:53 (GMT+1.0) 4th August 2020
# in /lustre/scratch/uccabz1/launch_tmp
# on node-c12n-013
# by uccabz1
#
# compiler GCC version 4.9.2
# options -cpp -iprefix /lustre/shared/ucl/apps/gcc/4.9.2/bin/../lib/gcc/x86_64-unknown-linux-gnu/4.9.2/ -mtune=corei7 -march=x86-64 -g -Og
#
# seed  1567461881 -1898961491 -1555242501  -615169474  1026996386    72982479  1683054634    88936832   139847913   867309573   721612619  -747612704
#
#      Author: C. J. Pickard (cjp20@cam.ac.uk)
#                Space group: P-1
#

%BLOCK LATTICE_ABC
      4.19655      7.07750      7.31514
     67.01496     89.76099     89.23736
%ENDBLOCK LATTICE_ABC

%BLOCK POSITIONS_FRAC
  Li  -0.0000000  -0.5000000  -0.0000000 SPIN=   0.00000
  Li   0.0000000   0.0000000   0.5000000 SPIN=   0.00000
  Fe   0.4994189   0.2168619   0.2205205 SPIN=   4.00000
  Fe  -0.4994189  -0.2168619  -0.2205205 SPIN=   4.00000
   O   0.0093897   0.2186422   0.0005092 SPIN=   0.00000
   O  -0.1478217   0.1863466  -0.3116201 SPIN=   0.00000
   O   0.3701043   0.0439095  -0.1539659 SPIN=   0.00000
   O   0.2866739   0.4200958  -0.3134083 SPIN=   0.00000
   O  -0.0093897  -0.2186422  -0.0005092 SPIN=   0.00000
   O   0.1478217  -0.1863466   0.3116201 SPIN=   0.00000
   O  -0.3701043  -0.0439095   0.1539659 SPIN=   0.00000
   O  -0.2866739  -0.4200958   0.3134083 SPIN=   0.00000
   S  -0.0000000  -0.0000000   0.0000000 SPIN=   0.00000
   S  -0.5000000   0.5000000  -0.5000000 SPIN=   0.00000
   F   0.5000000   0.5000000   0.0000000 SPIN=   0.00000
   F  -0.5000000   0.0000000  -0.5000000 SPIN=   0.00000
%ENDBLOCK POSITIONS_FRAC

# Note: total spin =   8.00

KPOINTS_MP_SPACING 0.07

%BLOCK SPECIES_POT
QC5
%ENDBLOCK SPECIES_POT

SNAP_TO_SYMMETRY
SYMMETRY_GENERATE

