#              Generated by Buildcell
#
# at 01:45:59 (GMT+1.0) 19th August 2020
# in /lustre/scratch/uccabz1/launch_tmp
# on node-c12f-006
# by uccabz1
#
# compiler GCC version 4.9.2
# options -cpp -iprefix /lustre/shared/ucl/apps/gcc/4.9.2/bin/../lib/gcc/x86_64-unknown-linux-gnu/4.9.2/ -mtune=corei7 -march=x86-64 -g -Og
#
# seed   550131352   515717373 -1529695554 -1096896198  2002335436  1097587778   977999039  -666391344  1959773966   841375182  1418726142  1183333690
#
#      Author: C. J. Pickard (cjp20@cam.ac.uk)
#                Space group: Aea2
#

%BLOCK LATTICE_ABC
      5.63586      5.77474      6.76051
     90.00000    114.63414     90.00000
%ENDBLOCK LATTICE_ABC

%BLOCK POSITIONS_FRAC
  Li   0.4004351   0.0000000  -0.1991298 SPIN=   0.00000
  Li  -0.0995649  -0.5000000  -0.1991298 SPIN=   0.00000
  Fe   0.1330419  -0.0000000   0.2660839 SPIN=   4.00000
  Fe  -0.3669581  -0.5000000   0.2660839 SPIN=   4.00000
   O  -0.5564193   0.2259286  -0.5530880 SPIN=   0.00000
   O  -0.2433863   0.1773662  -0.1685885 SPIN=   0.00000
   O   0.0033313  -0.2259286  -0.5530880 SPIN=   0.00000
   O   0.0747978  -0.1773662  -0.1685885 SPIN=   0.00000
   O  -0.4966687  -0.2740714  -0.5530880 SPIN=   0.00000
   O  -0.4252022  -0.3226338  -0.1685885 SPIN=   0.00000
   O  -0.0564193   0.2740714  -0.5530880 SPIN=   0.00000
   O   0.2566137   0.3226338  -0.1685885 SPIN=   0.00000
   S  -0.1319059   0.0000000  -0.2638118 SPIN=   0.00000
   S   0.3680941   0.5000000  -0.2638118 SPIN=   0.00000
   F  -0.4341146  -0.0000000   0.1317708 SPIN=   0.00000
   F   0.0658854  -0.5000000   0.1317708 SPIN=   0.00000
%ENDBLOCK POSITIONS_FRAC

# Note: total spin =   8.00

KPOINTS_MP_SPACING 0.07

%BLOCK SPECIES_POT
QC5
%ENDBLOCK SPECIES_POT

SNAP_TO_SYMMETRY
SYMMETRY_GENERATE

