#              Generated by Buildcell
#
# at 04:28:55 (GMT+1.0) 4th August 2020
# in /lustre/scratch/uccabz1/launch_tmp
# on node-c12c-007
# by uccabz1
#
# compiler GCC version 4.9.2
# options -cpp -iprefix /lustre/shared/ucl/apps/gcc/4.9.2/bin/../lib/gcc/x86_64-unknown-linux-gnu/4.9.2/ -mtune=corei7 -march=x86-64 -g -Og
#
# seed   679588897   572822973   516963988  -666737960 -1829884298  -685593393 -2029163411  -234600779 -1666409262  -478653918   184752952  1944179182
#
#      Author: C. J. Pickard (cjp20@cam.ac.uk)
#                Space group: Pmn21
#

%BLOCK LATTICE_ABC
      5.28502      5.80493      6.51909
     90.00000     90.00000     90.00000
%ENDBLOCK LATTICE_ABC

%BLOCK POSITIONS_FRAC
  Li  -0.0000000  -0.4820964  -0.0627140 SPIN=   0.00000
  Li  -0.5000000   0.4820964   0.4372860 SPIN=   0.00000
  Fe   0.0000000   0.0234942   0.0758829 SPIN=   4.00000
  Fe   0.5000000  -0.0234942  -0.4241171 SPIN=   4.00000
   O  -0.2217801  -0.2847592  -0.5940805 SPIN=   0.00000
   O  -0.2793267  -0.3375225  -0.2202639 SPIN=   0.00000
   O  -0.2782199   0.2847592  -0.0940805 SPIN=   0.00000
   O  -0.2206733   0.3375225   0.2797361 SPIN=   0.00000
   O   0.2782199   0.2847592  -0.0940805 SPIN=   0.00000
   O   0.2206733   0.3375225   0.2797361 SPIN=   0.00000
   O   0.2217801  -0.2847592  -0.5940805 SPIN=   0.00000
   O   0.2793267  -0.3375225  -0.2202639 SPIN=   0.00000
   S   0.5000000   0.4952317  -0.1477699 SPIN=   0.00000
   S   0.0000000  -0.4952317   0.3522301 SPIN=   0.00000
   F  -0.0000000   0.0056040  -0.2856861 SPIN=   0.00000
   F   0.5000000  -0.0056040   0.2143139 SPIN=   0.00000
%ENDBLOCK POSITIONS_FRAC

# Note: total spin =   8.00

KPOINTS_MP_SPACING 0.07

%BLOCK SPECIES_POT
QC5
%ENDBLOCK SPECIES_POT

SNAP_TO_SYMMETRY
SYMMETRY_GENERATE

