#              Generated by Buildcell
#
# at 02:42:52 (GMT+1.0) 4th August 2020
# in /lustre/scratch/uccabz1/launch_tmp
# on node-c12g-015
# by uccabz1
#
# compiler GCC version 4.9.2
# options -cpp -iprefix /lustre/shared/ucl/apps/gcc/4.9.2/bin/../lib/gcc/x86_64-unknown-linux-gnu/4.9.2/ -mtune=corei7 -march=x86-64 -g -Og
#
# seed   726626670  1664271476   251384856   151800008  1275320392 -1114461914 -1776677641  -592162986   538209888  1905492057  -737465601 -1186196134
#
#      Author: C. J. Pickard (cjp20@cam.ac.uk)
#                Space group: C2
#

%BLOCK LATTICE_ABC
      5.66794      5.66794      6.49289
     78.35953     78.35953     89.36644
%ENDBLOCK LATTICE_ABC

%BLOCK POSITIONS_FRAC
  Li   0.4617040   0.0480176  -0.3337231 SPIN=   0.00000
  Li  -0.0480176  -0.4617040   0.3337231 SPIN=   0.00000
  Fe  -0.4654201  -0.1512283   0.2674382 SPIN=   4.00000
  Fe   0.1512283   0.4654201  -0.2674382 SPIN=   4.00000
   O   0.2142124   0.0161527   0.2287692 SPIN=   0.00000
   O   0.5766849   0.1008402  -0.0630352 SPIN=   0.00000
   O   0.5532404   0.2652486   0.2656231 SPIN=   0.00000
   O   0.2967058   0.4271609   0.0063558 SPIN=   0.00000
   O  -0.0161527  -0.2142124  -0.2287692 SPIN=   0.00000
   O  -0.1008402  -0.5766849   0.0630352 SPIN=   0.00000
   O  -0.2652486  -0.5532404  -0.2656231 SPIN=   0.00000
   O  -0.4271609  -0.2967058  -0.0063558 SPIN=   0.00000
   S   0.0955293  -0.0955293   0.0000000 SPIN=   0.00000
   S  -0.4097032   0.4097032  -0.0000000 SPIN=   0.00000
   F   0.1314149   0.2914096  -0.4819161 SPIN=   0.00000
   F  -0.2914096  -0.1314149   0.4819161 SPIN=   0.00000
%ENDBLOCK POSITIONS_FRAC

# Note: total spin =   8.00

KPOINTS_MP_SPACING 0.07

%BLOCK SPECIES_POT
QC5
%ENDBLOCK SPECIES_POT

SNAP_TO_SYMMETRY
SYMMETRY_GENERATE

