#              Generated by Buildcell
#
# at 22:52:33 (GMT+1.0) 18th August 2020
# in /scratch/scratch/uccabz1/launch_tmp
# on node-k10c-028
# by uccabz1
#
# compiler GCC version 4.9.2
# options -cpp -iprefix /scratch/UCL/applications/gcc/4.9.2/bin/../lib/gcc/x86_64-unknown-linux-gnu/4.9.2/ -mtune=corei7 -march=x86-64 -g -O2
#
# seed -1348671261  1714104669 -1905660720 -1789037656  1803369548  1097196664 -1680539305  1214324287  1189504437    88087304 -1997610166 -1114964030
#
#      Author: C. J. Pickard (cjp20@cam.ac.uk)
#                Space group: Ama2
#

%BLOCK LATTICE_ABC
      3.99578      7.10553      7.34033
     90.00000     90.00000    106.33029
%ENDBLOCK LATTICE_ABC

%BLOCK POSITIONS_FRAC
  Li  -0.1870124   0.1921298   0.2500000 SPIN=   0.00000
  Li  -0.3791422  -0.1921298  -0.2500000 SPIN=   0.00000
  Fe   0.2169370   0.0000000  -0.0000000 SPIN=   4.00000
  Fe   0.2169370   0.0000000  -0.5000000 SPIN=   4.00000
   O  -0.0942888  -0.4289224   0.4490825 SPIN=   0.00000
   O   0.5219898  -0.2292686   0.4335583 SPIN=   0.00000
   O  -0.6653664   0.4289224  -0.4490825 SPIN=   0.00000
   O  -0.2487416   0.2292686  -0.4335583 SPIN=   0.00000
   O  -0.6653664   0.4289224  -0.0509175 SPIN=   0.00000
   O  -0.2487416   0.2292686  -0.0664417 SPIN=   0.00000
   O  -0.0942888  -0.4289224   0.0509175 SPIN=   0.00000
   O   0.5219898  -0.2292686   0.0664417 SPIN=   0.00000
   S   0.0356401  -0.3990123   0.2500000 SPIN=   0.00000
   S   0.4346525   0.3990123  -0.2500000 SPIN=   0.00000
   F   0.2967659   0.1381185   0.2500000 SPIN=   0.00000
   F   0.1586475  -0.1381185  -0.2500000 SPIN=   0.00000
%ENDBLOCK POSITIONS_FRAC

# Note: total spin =   8.00

KPOINTS_MP_SPACING 0.07

%BLOCK SPECIES_POT
QC5
%ENDBLOCK SPECIES_POT

SNAP_TO_SYMMETRY
SYMMETRY_GENERATE

