#              Generated by Buildcell
#
# at 23:42:06 (GMT+1.0) 18th August 2020
# in /scratch/scratch/uccabz1/launch_tmp
# on node-k10d-036
# by uccabz1
#
# compiler GCC version 4.9.2
# options -cpp -iprefix /scratch/UCL/applications/gcc/4.9.2/bin/../lib/gcc/x86_64-unknown-linux-gnu/4.9.2/ -mtune=corei7 -march=x86-64 -g -O2
#
# seed -1367599423  1570322174   546000127 -1854453481   -53179347  -677885017 -1655776117  -957208731  1109793861 -2035696008  1645590740  1559109931
#
#      Author: C. J. Pickard (cjp20@cam.ac.uk)
#                Space group: Iba2
#

%BLOCK LATTICE_ABC
      5.06703      5.68172      7.92148
    111.01592    108.65255     90.00000
%ENDBLOCK LATTICE_ABC

%BLOCK POSITIONS_FRAC
  Li   0.1595161   0.1595161   0.3190322 SPIN=   0.00000
  Li  -0.3404839  -0.3404839   0.3190322 SPIN=   0.00000
  Fe  -0.0608284  -0.0608284  -0.1216568 SPIN=   4.00000
  Fe   0.4391716   0.4391716  -0.1216568 SPIN=   4.00000
   O  -0.0123598  -0.1736843   0.3021963 SPIN=   0.00000
   O  -0.1469680  -0.6049403   0.0467205 SPIN=   0.00000
   O   0.3145562  -0.5241193   0.3021963 SPIN=   0.00000
   O   0.1936885  -0.3483393   0.0467205 SPIN=   0.00000
   O   0.4876402  -0.0241193   0.3021963 SPIN=   0.00000
   O   0.3530320   0.1516607   0.0467205 SPIN=   0.00000
   O  -0.1854438   0.3263157   0.3021963 SPIN=   0.00000
   O  -0.3063115  -0.1049403   0.0467205 SPIN=   0.00000
   S   0.0995359  -0.4004641   0.1990718 SPIN=   0.00000
   S  -0.4004641   0.0995359   0.1990718 SPIN=   0.00000
   F  -0.2028052  -0.2028052  -0.4056103 SPIN=   0.00000
   F   0.2971948   0.2971948  -0.4056103 SPIN=   0.00000
%ENDBLOCK POSITIONS_FRAC

# Note: total spin =   8.00

KPOINTS_MP_SPACING 0.07

%BLOCK SPECIES_POT
QC5
%ENDBLOCK SPECIES_POT

SNAP_TO_SYMMETRY
SYMMETRY_GENERATE

