#              Generated by Buildcell
#
# at 23:37:45 (GMT+1.0) 18th August 2020
# in /lustre/scratch/uccabz1/launch_tmp
# on node-c12k-010
# by uccabz1
#
# compiler GCC version 4.9.2
# options -cpp -iprefix /lustre/shared/ucl/apps/gcc/4.9.2/bin/../lib/gcc/x86_64-unknown-linux-gnu/4.9.2/ -mtune=corei7 -march=x86-64 -g -Og
#
# seed  -165980149  2037971358  -977577643 -1146801177  -435735280  -510263287 -1893835957   790871196  -890603043   736546806  -997777010 -1215536626
#
#      Author: C. J. Pickard (cjp20@cam.ac.uk)
#                Space group: Cmc21
#

%BLOCK LATTICE_ABC
      4.39377      6.12673      7.95881
     90.00000     90.00000    111.01265
%ENDBLOCK LATTICE_ABC

%BLOCK POSITIONS_FRAC
  Li   0.1696484   0.3392967  -0.0418354 SPIN=   0.00000
  Li  -0.1696484  -0.3392967   0.4581646 SPIN=   0.00000
  Fe  -0.0610727  -0.1221454   0.1226102 SPIN=   4.00000
  Fe   0.0610727   0.1221454  -0.3773898 SPIN=   4.00000
   O  -0.3989645  -0.2979143  -0.2009301 SPIN=   0.00000
   O  -0.4744197  -0.4488350   0.0905043 SPIN=   0.00000
   O   0.3989645   0.2979143   0.2990699 SPIN=   0.00000
   O   0.4744197   0.4488350   0.5905043 SPIN=   0.00000
   O  -0.1010503   0.2979143   0.2990699 SPIN=   0.00000
   O  -0.0255846   0.4488350   0.5905043 SPIN=   0.00000
   O   0.1010503  -0.2979143  -0.2009301 SPIN=   0.00000
   O   0.0255846  -0.4488350   0.0905043 SPIN=   0.00000
   S  -0.2355707  -0.4711415  -0.2064279 SPIN=   0.00000
   S   0.2355707   0.4711415   0.2935721 SPIN=   0.00000
   F   0.4695633  -0.0608733   0.0278590 SPIN=   0.00000
   F  -0.4695633   0.0608733  -0.4721410 SPIN=   0.00000
%ENDBLOCK POSITIONS_FRAC

# Note: total spin =   8.00

KPOINTS_MP_SPACING 0.07

%BLOCK SPECIES_POT
QC5
%ENDBLOCK SPECIES_POT

SNAP_TO_SYMMETRY
SYMMETRY_GENERATE

