#              Generated by Buildcell
#
# at 05:15:36 (GMT+1.0) 4th August 2020
# in /lustre/scratch/uccabz1/launch_tmp
# on node-c12c-028
# by uccabz1
#
# compiler GCC version 4.9.2
# options -cpp -iprefix /lustre/shared/ucl/apps/gcc/4.9.2/bin/../lib/gcc/x86_64-unknown-linux-gnu/4.9.2/ -mtune=corei7 -march=x86-64 -g -Og
#
# seed   775670378  -375362317  -754261918    93148469  1079110498  -296814994  1965536770 -2099833761  -386813190 -1222661031  1234082711  -382003647
#
#      Author: C. J. Pickard (cjp20@cam.ac.uk)
#                Space group: Pc
#

%BLOCK LATTICE_ABC
      4.58735      6.01780      7.26528
     90.00000     94.29749     90.00000
%ENDBLOCK LATTICE_ABC

%BLOCK POSITIONS_FRAC
  Li  -0.0213128  -0.2517860   0.4053589 SPIN=   0.00000
  Li   0.4786872   0.2517860   0.4053589 SPIN=   0.00000
  Fe  -0.1051767  -0.2530609  -0.1788405 SPIN=   4.00000
  Fe   0.3948233   0.2530609  -0.1788405 SPIN=   4.00000
   O  -0.0543174   0.4997836   0.2363621 SPIN=   0.00000
   O   0.1404246   0.1936777   0.0539572 SPIN=   0.00000
   O  -0.3523004   0.1626137   0.1689556 SPIN=   0.00000
   O   0.0870947   0.1433864   0.3878497 SPIN=   0.00000
   S  -0.0447746   0.2498653   0.2117812 SPIN=   0.00000
   O   0.4456826  -0.4997836   0.2363621 SPIN=   0.00000
   O   0.6404246  -0.1936777   0.0539572 SPIN=   0.00000
   O   0.1476996  -0.1626137   0.1689556 SPIN=   0.00000
   O   0.5870947  -0.1433864   0.3878497 SPIN=   0.00000
   S   0.4552254  -0.2498653   0.2117812 SPIN=   0.00000
   F  -0.2027546   0.2549831  -0.2963067 SPIN=   0.00000
   F   0.2972454  -0.2549831  -0.2963067 SPIN=   0.00000
%ENDBLOCK POSITIONS_FRAC

# Note: total spin =   8.00

KPOINTS_MP_SPACING 0.07

%BLOCK SPECIES_POT
QC5
%ENDBLOCK SPECIES_POT

SNAP_TO_SYMMETRY
SYMMETRY_GENERATE

