#              Generated by Buildcell
#
# at 04:47:25 (GMT+1.0) 4th August 2020
# in /lustre/scratch/uccabz1/launch_tmp
# on node-c12a-017
# by uccabz1
#
# compiler GCC version 4.9.2
# options -cpp -iprefix /lustre/shared/ucl/apps/gcc/4.9.2/bin/../lib/gcc/x86_64-unknown-linux-gnu/4.9.2/ -mtune=corei7 -march=x86-64 -g -Og
#
# seed -1209743845 -1349329396  1137621385  -661377764  1093925287   773028958  -216004516 -1365453063  -535631773  1830949363   225132141   372485851
#
#      Author: C. J. Pickard (cjp20@cam.ac.uk)
#                Space group: Cc
#

%BLOCK LATTICE_ABC
      4.08153      4.08153     12.19435
     82.86134     82.86134     89.60047
%ENDBLOCK LATTICE_ABC

%BLOCK POSITIONS_FRAC
  Li   0.1918591  -0.1823843   0.3607518 SPIN=   0.00000
  Li   0.3176157  -0.3081409  -0.1392482 SPIN=   0.00000
  Fe  -0.3317390   0.2861549   0.4559804 SPIN=   4.00000
  Fe  -0.2138451   0.1682610  -0.0440196 SPIN=   4.00000
   O   0.1378088  -0.0268339   0.0896231 SPIN=   0.00000
   O  -0.1755934  -0.5538389   0.1305652 SPIN=   0.00000
   O   0.2944024  -0.4615080   0.2335371 SPIN=   0.00000
   O   0.3957795  -0.5417564   0.0343395 SPIN=   0.00000
   S   0.1630993  -0.3959843   0.1220162 SPIN=   0.00000
   O   0.4731661  -0.3621912  -0.4103769 SPIN=   0.00000
   O  -0.0538389  -0.6755934  -0.3694348 SPIN=   0.00000
   O   0.0384920  -0.2055976  -0.2664629 SPIN=   0.00000
   O  -0.0417564  -0.1042205  -0.4656605 SPIN=   0.00000
   S   0.1040157  -0.3369007  -0.3779838 SPIN=   0.00000
   F  -0.3381510  -0.0003424   0.3312574 SPIN=   0.00000
   F   0.4996576   0.1618490  -0.1687426 SPIN=   0.00000
%ENDBLOCK POSITIONS_FRAC

# Note: total spin =   8.00

KPOINTS_MP_SPACING 0.07

%BLOCK SPECIES_POT
QC5
%ENDBLOCK SPECIES_POT

SNAP_TO_SYMMETRY
SYMMETRY_GENERATE

