#              Generated by Buildcell
#
# at 04:37:27 (GMT+1.0) 4th August 2020
# in /lustre/scratch/uccabz1/launch_tmp
# on node-c12l-022
# by uccabz1
#
# compiler GCC version 4.9.2
# options -cpp -iprefix /lustre/shared/ucl/apps/gcc/4.9.2/bin/../lib/gcc/x86_64-unknown-linux-gnu/4.9.2/ -mtune=corei7 -march=x86-64 -g -Og
#
# seed -1277759204 -1050935703  -502290747  1084614750 -1933717636  -299783469   280112486 -1660889068  -840637953  1973506895  2113161456 -1364226521
#
#      Author: C. J. Pickard (cjp20@cam.ac.uk)
#                Space group: P21/m
#

%BLOCK LATTICE_ABC
      4.10497      5.66944      8.60355
     90.00000     90.00000     92.74413
%ENDBLOCK LATTICE_ABC

%BLOCK POSITIONS_FRAC
  Li   0.4518414  -0.3187522   0.2500000 SPIN=   0.00000
  Li  -0.4518414   0.3187522  -0.2500000 SPIN=   0.00000
  Fe   0.0000000   0.5000000  -0.0000000 SPIN=   4.00000
  Fe   0.0000000   0.5000000   0.5000000 SPIN=   4.00000
   O   0.0816347  -0.1648035   0.3835683 SPIN=   0.00000
   O   0.6208733   0.0500157   0.3835352 SPIN=   0.00000
   O  -0.0816347   0.1648035  -0.1164317 SPIN=   0.00000
   O  -0.6208733  -0.0500157  -0.1164648 SPIN=   0.00000
   O  -0.0816347   0.1648035  -0.3835683 SPIN=   0.00000
   O  -0.6208733  -0.0500157  -0.3835352 SPIN=   0.00000
   O   0.0816347  -0.1648035   0.1164317 SPIN=   0.00000
   O   0.6208733   0.0500157   0.1164648 SPIN=   0.00000
   S  -0.0919196   0.0617758   0.2500000 SPIN=   0.00000
   S   0.0919196  -0.0617758  -0.2500000 SPIN=   0.00000
   F  -0.5000000   0.5000000  -0.0000000 SPIN=   0.00000
   F   0.5000000  -0.5000000   0.5000000 SPIN=   0.00000
%ENDBLOCK POSITIONS_FRAC

# Note: total spin =   8.00

KPOINTS_MP_SPACING 0.07

%BLOCK SPECIES_POT
QC5
%ENDBLOCK SPECIES_POT

SNAP_TO_SYMMETRY
SYMMETRY_GENERATE

