#              Generated by Buildcell
#
# at 05:37:52 (GMT+1.0) 4th August 2020
# in /lustre/scratch/uccabz1/launch_tmp
# on node-c12p-019
# by uccabz1
#
# compiler GCC version 4.9.2
# options -cpp -iprefix /lustre/shared/ucl/apps/gcc/4.9.2/bin/../lib/gcc/x86_64-unknown-linux-gnu/4.9.2/ -mtune=corei7 -march=x86-64 -g -Og
#
# seed   335554511  -699535643 -1173691787    56140695 -1563335485 -1386948392  1593036617  -486548084  1172699550  1290051726  2007897910  -646296523
#
#      Author: C. J. Pickard (cjp20@cam.ac.uk)
#                Space group: P42
#

%BLOCK LATTICE_ABC
      4.31409      4.31409     10.74611
     90.00000     90.00000     90.00000
%ENDBLOCK LATTICE_ABC

%BLOCK POSITIONS_FRAC
  Li   0.0000000  -0.0000000  -0.1610910 SPIN=   0.00000
  Li  -0.0000000   0.0000000   0.3389090 SPIN=   0.00000
  Fe   0.5000000   0.5000000  -0.0934611 SPIN=   4.00000
  Fe  -0.5000000   0.5000000   0.4065389 SPIN=   4.00000
   O   0.1409073   0.2213303   0.0353996 SPIN=   0.00000
   O   0.3406562   0.7105656   0.1250320 SPIN=   0.00000
   O  -0.1409073  -0.2213303   0.0353996 SPIN=   0.00000
   O  -0.3406562  -0.7105656   0.1250320 SPIN=   0.00000
   O  -0.2213303   0.1409073  -0.4646004 SPIN=   0.00000
   O  -0.7105656   0.3406562  -0.3749680 SPIN=   0.00000
   O   0.2213303  -0.1409073  -0.4646004 SPIN=   0.00000
   O   0.7105656  -0.3406562  -0.3749680 SPIN=   0.00000
   S   0.5000000   0.0000000   0.1621158 SPIN=   0.00000
   S   0.0000000   0.5000000  -0.3378842 SPIN=   0.00000
   F   0.5000000   0.0000000  -0.1706788 SPIN=   0.00000
   F   0.0000000   0.5000000   0.3293212 SPIN=   0.00000
%ENDBLOCK POSITIONS_FRAC

# Note: total spin =   8.00

KPOINTS_MP_SPACING 0.07

%BLOCK SPECIES_POT
QC5
%ENDBLOCK SPECIES_POT

SNAP_TO_SYMMETRY
SYMMETRY_GENERATE

