#              Generated by Buildcell
#
# at 01:27:08 (GMT+1.0) 19th August 2020
# in /lustre/scratch/uccabz1/launch_tmp
# on node-c12m-028
# by uccabz1
#
# compiler GCC version 4.9.2
# options -cpp -iprefix /lustre/shared/ucl/apps/gcc/4.9.2/bin/../lib/gcc/x86_64-unknown-linux-gnu/4.9.2/ -mtune=corei7 -march=x86-64 -g -Og
#
# seed   652469479   375924584  1218638230    30050237  -807105689    73073512   970801558   248666256 -2144936404   617090530  -408036671 -1500354483
#
#      Author: C. J. Pickard (cjp20@cam.ac.uk)
#                Space group: Cc
#

%BLOCK LATTICE_ABC
      4.98699      4.98699      8.24546
     91.55623     91.55623    102.52035
%ENDBLOCK LATTICE_ABC

%BLOCK POSITIONS_FRAC
  Li   0.0190185  -0.4829354   0.2664167 SPIN=   0.00000
  Li  -0.4829354   0.0190185  -0.2335833 SPIN=   0.00000
  Fe   0.0082255  -0.1699499  -0.0594169 SPIN=   4.00000
  Fe  -0.1699499   0.0082255   0.4405831 SPIN=   4.00000
   O  -0.4243385   0.3393590   0.2458180 SPIN=   0.00000
   O  -0.6532329   0.3702832  -0.0209915 SPIN=   0.00000
   O  -0.4577530  -0.0339596   0.0373357 SPIN=   0.00000
   O  -0.1488479   0.4188446  -0.0003894 SPIN=   0.00000
   S  -0.4210431   0.2736318   0.0654432 SPIN=   0.00000
   O   0.3393590  -0.4243385  -0.2541820 SPIN=   0.00000
   O   0.3702832  -0.6532329  -0.5209915 SPIN=   0.00000
   O  -0.0339596  -0.4577530  -0.4626643 SPIN=   0.00000
   O   0.4188446  -0.1488479  -0.5003894 SPIN=   0.00000
   S   0.2736318  -0.4210431  -0.4345568 SPIN=   0.00000
   F  -0.0002710  -0.1274524   0.2371198 SPIN=   0.00000
   F  -0.1274524  -0.0002710  -0.2628802 SPIN=   0.00000
%ENDBLOCK POSITIONS_FRAC

# Note: total spin =   8.00

KPOINTS_MP_SPACING 0.07

%BLOCK SPECIES_POT
QC5
%ENDBLOCK SPECIES_POT

SNAP_TO_SYMMETRY
SYMMETRY_GENERATE

