#              Generated by Buildcell
#
# at 15:07:36 (GMT+1.0) 18th August 2020
# in /lustre/scratch/uccabz1/launch_tmp
# on node-c12o-016
# by uccabz1
#
# compiler GCC version 4.9.2
# options -cpp -iprefix /lustre/shared/ucl/apps/gcc/4.9.2/bin/../lib/gcc/x86_64-unknown-linux-gnu/4.9.2/ -mtune=corei7 -march=x86-64 -g -Og
#
# seed   778342001  -807427491  1331528302  -997390190  1148238602 -1097641275  1190755338 -1347626195  1519407872  2140676343  2010729425 -1745483056
#
#      Author: C. J. Pickard (cjp20@cam.ac.uk)
#                Space group: P41
#

%BLOCK LATTICE_ABC
      7.34403      7.34403      7.41636
     90.00000     90.00000     90.00000
%ENDBLOCK LATTICE_ABC

%BLOCK POSITIONS_FRAC
  Li   0.4581317   0.2140566  -0.2656262 SPIN=   0.00000
  Li  -0.4581317  -0.2140566   0.2343738 SPIN=   0.00000
  Li  -0.2140566   0.4581317   0.4843738 SPIN=   0.00000
  Li   0.2140566  -0.4581317  -0.0156262 SPIN=   0.00000
  Fe  -0.0746854   0.2901094  -0.1691569 SPIN=   4.00000
  Fe   0.0746854  -0.2901094   0.3308431 SPIN=   4.00000
  Fe  -0.2901094  -0.0746854  -0.4191569 SPIN=   4.00000
  Fe   0.2901094   0.0746854   0.0808431 SPIN=   4.00000
   O   0.3147156   0.1699025   0.3467559 SPIN=   0.00000
   O   0.3368947   0.4128877   0.5769310 SPIN=   0.00000
   O   0.0960205   0.1784182   0.6005047 SPIN=   0.00000
   O   0.0805493   0.4118560   0.3603202 SPIN=   0.00000
   S   0.2070450   0.2932661   0.4711279 SPIN=   0.00000
   O  -0.3147156  -0.1699025  -0.1532441 SPIN=   0.00000
   O  -0.3368947  -0.4128877   0.0769310 SPIN=   0.00000
   O  -0.0960205  -0.1784182   0.1005047 SPIN=   0.00000
   O  -0.0805493  -0.4118560  -0.1396798 SPIN=   0.00000
   S  -0.2070450  -0.2932661  -0.0288721 SPIN=   0.00000
   O  -0.1699025   0.3147156   0.0967559 SPIN=   0.00000
   O  -0.4128877   0.3368947   0.3269310 SPIN=   0.00000
   O  -0.1784182   0.0960205   0.3505047 SPIN=   0.00000
   O  -0.4118560   0.0805493   0.1103202 SPIN=   0.00000
   S  -0.2932661   0.2070450   0.2211279 SPIN=   0.00000
   O   0.1699025  -0.3147156  -0.4032441 SPIN=   0.00000
   O   0.4128877  -0.3368947  -0.1730690 SPIN=   0.00000
   O   0.1784182  -0.0960205  -0.1494953 SPIN=   0.00000
   O   0.4118560  -0.0805493  -0.3896798 SPIN=   0.00000
   S   0.2932661  -0.2070450  -0.2788721 SPIN=   0.00000
   F   0.2808070  -0.1751791   0.2208836 SPIN=   0.00000
   F  -0.2808070   0.1751791  -0.2791164 SPIN=   0.00000
   F   0.1751791   0.2808070  -0.0291164 SPIN=   0.00000
   F  -0.1751791  -0.2808070   0.4708836 SPIN=   0.00000
%ENDBLOCK POSITIONS_FRAC

# Note: total spin =  16.00

KPOINTS_MP_SPACING 0.07

%BLOCK SPECIES_POT
QC5
%ENDBLOCK SPECIES_POT

SNAP_TO_SYMMETRY
SYMMETRY_GENERATE

