#              Generated by Buildcell
#
# at 17:21:21 (GMT+1.0) 18th August 2020
# in /lustre/scratch/uccabz1/launch_tmp
# on node-c12g-001
# by uccabz1
#
# compiler GCC version 4.9.2
# options -cpp -iprefix /lustre/shared/ucl/apps/gcc/4.9.2/bin/../lib/gcc/x86_64-unknown-linux-gnu/4.9.2/ -mtune=corei7 -march=x86-64 -g -Og
#
# seed -1832289871 -1893338909 -2135463169  -443159809  -894986371 -1076129802 -1701145881  2020479006 -1222428092  -319013092  -591877805 -1864370118
#
#      Author: C. J. Pickard (cjp20@cam.ac.uk)
#                Space group: P-1
#

%BLOCK LATTICE_ABC
      4.72185      8.63820     10.28508
    101.86828     96.30051     99.77836
%ENDBLOCK LATTICE_ABC

%BLOCK POSITIONS_FRAC
  Li  -0.3226797   0.3518010   0.3899930 SPIN=   0.00000
  Li   0.3226797  -0.3518010  -0.3899930 SPIN=   0.00000
  Li   0.0608066   0.3442581  -0.1630697 SPIN=   0.00000
  Li  -0.0608066  -0.3442581   0.1630697 SPIN=   0.00000
  Fe   0.2883656  -0.2852598  -0.0552979 SPIN=   5.07109
  Fe  -0.2883656   0.2852598   0.0552979 SPIN=   5.07109
  Fe  -0.2087042  -0.2031450   0.4730850 SPIN=   2.92891
  Fe   0.2087042   0.2031450  -0.4730850 SPIN=   2.92891
   O  -0.3485253  -0.1889248  -0.2597741 SPIN=   0.00000
   O  -0.3639944   0.0474537  -0.0798571 SPIN=   0.00000
   O  -0.1342596   0.0860731  -0.2789145 SPIN=   0.00000
   O   0.1036895  -0.0374297  -0.1109259 SPIN=   0.00000
   S  -0.1857724  -0.0232069  -0.1823679 SPIN=   0.00000
   O   0.3485253   0.1889248   0.2597741 SPIN=   0.00000
   O   0.3639944  -0.0474537   0.0798571 SPIN=   0.00000
   O   0.1342596  -0.0860731   0.2789145 SPIN=   0.00000
   O  -0.1036895   0.0374297   0.1109259 SPIN=   0.00000
   S   0.1857724   0.0232069   0.1823679 SPIN=   0.00000
   O   0.0416048  -0.5821795  -0.3436936 SPIN=   0.00000
   O  -0.1213000  -0.3663396  -0.1893739 SPIN=   0.00000
   O  -0.4819427  -0.5996658  -0.3286304 SPIN=   0.00000
   O  -0.2259531  -0.3959403  -0.4353202 SPIN=   0.00000
   S  -0.1968978  -0.4860313  -0.3242545 SPIN=   0.00000
   O  -0.0416048   0.5821795   0.3436936 SPIN=   0.00000
   O   0.1213000   0.3663396   0.1893739 SPIN=   0.00000
   O   0.4819427   0.5996658   0.3286304 SPIN=   0.00000
   O   0.2259531   0.3959403   0.4353202 SPIN=   0.00000
   S   0.1968978   0.4860313   0.3242545 SPIN=   0.00000
   F  -0.4285052  -0.2951489   0.1180739 SPIN=   0.00000
   F   0.4285052   0.2951489  -0.1180739 SPIN=   0.00000
   F  -0.2145666   0.1458396   0.4443998 SPIN=   0.00000
   F   0.2145666  -0.1458396  -0.4443998 SPIN=   0.00000
%ENDBLOCK POSITIONS_FRAC

# Note: total spin =  16.00

KPOINTS_MP_SPACING 0.07

%BLOCK SPECIES_POT
QC5
%ENDBLOCK SPECIES_POT

SNAP_TO_SYMMETRY
SYMMETRY_GENERATE

