#              Generated by Buildcell
#
# at 06:45:52 (GMT+1.0) 4th August 2020
# in /lustre/scratch/uccabz1/launch_tmp
# on node-c12c-024
# by uccabz1
#
# compiler GCC version 4.9.2
# options -cpp -iprefix /lustre/shared/ucl/apps/gcc/4.9.2/bin/../lib/gcc/x86_64-unknown-linux-gnu/4.9.2/ -mtune=corei7 -march=x86-64 -g -Og
#
# seed   277725349  1462785548  1042901069   694590348  1913130283 -2058469736  1312848463  -709662570   -76778414 -1892873331  1517343694    35857312
#
#      Author: C. J. Pickard (cjp20@cam.ac.uk)
#                Space group: Cc
#

%BLOCK LATTICE_ABC
      7.10279      7.54460      7.54460
     98.17842     91.14386     91.14386
%ENDBLOCK LATTICE_ABC

%BLOCK POSITIONS_FRAC
  Li   0.4681137  -0.1637738   0.2344230 SPIN=   0.00000
  Li  -0.0318863   0.2344230  -0.1637738 SPIN=   0.00000
  Li  -0.2728077  -0.2696838  -0.3482691 SPIN=   0.00000
  Li   0.2271923  -0.3482691  -0.2696838 SPIN=   0.00000
  Fe   0.0936292  -0.0742680   0.0184091 SPIN=   4.37382
  Fe  -0.4063708   0.0184091  -0.0742680 SPIN=   4.37382
  Fe  -0.1650997  -0.4682299   0.1424591 SPIN=   3.62618
  Fe   0.3349003   0.1424591  -0.4682299 SPIN=   3.62618
   O   0.3869876  -0.2467958   0.4769880 SPIN=   0.00000
   O   0.2740263  -0.5572742   0.3727310 SPIN=   0.00000
   O   0.5325533  -0.5001322   0.5997897 SPIN=   0.00000
   O   0.5881721  -0.4556904   0.2861653 SPIN=   0.00000
   S   0.4454348  -0.4399732   0.4339185 SPIN=   0.00000
   O  -0.1130124   0.4769880  -0.2467958 SPIN=   0.00000
   O  -0.2259737   0.3727310  -0.5572742 SPIN=   0.00000
   O   0.0325533   0.5997897  -0.5001322 SPIN=   0.00000
   O   0.0881721   0.2861653  -0.4556904 SPIN=   0.00000
   S  -0.0545652   0.4339185  -0.4399732 SPIN=   0.00000
   O  -0.0546198   0.0715945   0.2950758 SPIN=   0.00000
   O  -0.0818792  -0.1209277   0.5333670 SPIN=   0.00000
   O  -0.2407600  -0.2124025   0.2386807 SPIN=   0.00000
   O  -0.3582728   0.0439759   0.4452158 SPIN=   0.00000
   S  -0.1838829  -0.0544399   0.3780848 SPIN=   0.00000
   O   0.4453802   0.2950758   0.0715945 SPIN=   0.00000
   O   0.4181208   0.5333670  -0.1209277 SPIN=   0.00000
   O   0.2592400   0.2386807  -0.2124025 SPIN=   0.00000
   O   0.1417272   0.4452158   0.0439759 SPIN=   0.00000
   S   0.3161171   0.3780848  -0.0544399 SPIN=   0.00000
   F  -0.2950511  -0.2556072  -0.0998290 SPIN=   0.00000
   F   0.2049489  -0.0998290  -0.2556072 SPIN=   0.00000
   F  -0.1603912   0.2550808   0.0522137 SPIN=   0.00000
   F   0.3396088   0.0522137   0.2550808 SPIN=   0.00000
%ENDBLOCK POSITIONS_FRAC

# Note: total spin =  16.00

KPOINTS_MP_SPACING 0.07

%BLOCK SPECIES_POT
QC5
%ENDBLOCK SPECIES_POT

SNAP_TO_SYMMETRY
SYMMETRY_GENERATE

