#              Generated by Buildcell
#
# at 01:24:00 (GMT+1.0) 18th August 2020
# in /scratch/scratch/uccabz1/launch_tmp
# on node-k10h-022
# by uccabz1
#
# compiler GCC version 4.9.2
# options -cpp -iprefix /scratch/UCL/applications/gcc/4.9.2/bin/../lib/gcc/x86_64-unknown-linux-gnu/4.9.2/ -mtune=corei7 -march=x86-64 -g -O2
#
# seed -1790663243  -938767643  -774837866  1134372208   746492475   376001399  1227923653   631639909 -1536304127 -1231262615   144266579  1339603137
#
#      Author: C. J. Pickard (cjp20@cam.ac.uk)
#                Space group: P21
#

%BLOCK LATTICE_ABC
      4.33155      7.57829     12.30411
     90.00000     90.00000     97.96057
%ENDBLOCK LATTICE_ABC

%BLOCK POSITIONS_FRAC
  Li   0.3617385   0.1677920   0.1062568 SPIN=   0.00000
  Li  -0.3617385  -0.1677920  -0.3937432 SPIN=   0.00000
  Li  -0.3737490   0.3770694  -0.1657344 SPIN=   0.00000
  Li   0.3737490  -0.3770694   0.3342656 SPIN=   0.00000
  Fe  -0.3893734   0.4670317  -0.4715004 SPIN=   2.13092
  Fe   0.3893734  -0.4670317   0.0284996 SPIN=   2.13092
  Fe   0.3312954   0.0064421   0.3666620 SPIN=   5.86908
  Fe  -0.3312954  -0.0064421  -0.1333380 SPIN=   5.86908
   O  -0.1710814  -0.3067680   0.1053557 SPIN=   0.00000
   O  -0.5513419  -0.1443222   0.1992557 SPIN=   0.00000
   O  -0.0118970   0.0026500   0.1682592 SPIN=   0.00000
   O  -0.1142795  -0.2422770   0.3020801 SPIN=   0.00000
   S  -0.2121500  -0.1726793   0.1937377 SPIN=   0.00000
   O   0.1710814   0.3067680  -0.3946443 SPIN=   0.00000
   O   0.5513419   0.1443222  -0.3007443 SPIN=   0.00000
   O   0.0118970  -0.0026500  -0.3317408 SPIN=   0.00000
   O   0.1142795   0.2422770  -0.1979199 SPIN=   0.00000
   S   0.2121500   0.1726793  -0.3062623 SPIN=   0.00000
   O   0.2709652  -0.4630946  -0.1519538 SPIN=   0.00000
   O  -0.0879489  -0.2379382  -0.1317450 SPIN=   0.00000
   O  -0.1395086  -0.4425685  -0.2894709 SPIN=   0.00000
   O   0.3121126  -0.2046735  -0.2766664 SPIN=   0.00000
   S   0.0889051  -0.3370687  -0.2124590 SPIN=   0.00000
   O  -0.2709652   0.4630946   0.3480462 SPIN=   0.00000
   O   0.0879489   0.2379382   0.3682550 SPIN=   0.00000
   O   0.1395086   0.4425685   0.2105291 SPIN=   0.00000
   O  -0.3121126   0.2046735   0.2233336 SPIN=   0.00000
   S  -0.0889051   0.3370687   0.2875410 SPIN=   0.00000
   F   0.3200130  -0.0399600  -0.0074755 SPIN=   0.00000
   F  -0.3200130   0.0399600   0.4925245 SPIN=   0.00000
   F  -0.0752627   0.3928114   0.0103396 SPIN=   0.00000
   F   0.0752627  -0.3928114  -0.4896604 SPIN=   0.00000
%ENDBLOCK POSITIONS_FRAC

# Note: total spin =  16.00

KPOINTS_MP_SPACING 0.07

%BLOCK SPECIES_POT
QC5
%ENDBLOCK SPECIES_POT

SNAP_TO_SYMMETRY
SYMMETRY_GENERATE

