#              Generated by Buildcell
#
# at 06:29:29 (GMT+1.0) 4th August 2020
# in /lustre/scratch/uccabz1/launch_tmp
# on node-c12f-011
# by uccabz1
#
# compiler GCC version 4.9.2
# options -cpp -iprefix /lustre/shared/ucl/apps/gcc/4.9.2/bin/../lib/gcc/x86_64-unknown-linux-gnu/4.9.2/ -mtune=corei7 -march=x86-64 -g -Og
#
# seed  -774528405  1400184319   162567036   371881478  -231322707  -709544951  1861555177  -191576324  1023247777   580901955  1265497146  -473274543
#
#      Author: C. J. Pickard (cjp20@cam.ac.uk)
#                Space group: P2
#

%BLOCK LATTICE_ABC
      5.63218      6.81888     10.48698
     96.70414     90.00000     90.00000
%ENDBLOCK LATTICE_ABC

%BLOCK POSITIONS_FRAC
  Li   0.1174562  -0.2347157  -0.0879199 SPIN=   0.00000
  Li   0.1174562   0.2347157   0.0879199 SPIN=   0.00000
  Li  -0.4937407   0.1027226   0.3546951 SPIN=   0.00000
  Li  -0.4937407  -0.1027226  -0.3546951 SPIN=   0.00000
  Fe   0.2657345  -0.3240775   0.3049736 SPIN=   2.85396
  Fe   0.2657345   0.3240775  -0.3049736 SPIN=   2.85396
  Fe  -0.2344729   0.1445711  -0.1343627 SPIN=   5.14604
  Fe  -0.2344729  -0.1445711   0.1343627 SPIN=   5.14604
   O   0.1036919  -0.0948770  -0.2849853 SPIN=   0.00000
   O   0.1111468  -0.4422825  -0.3844738 SPIN=   0.00000
   O   0.1908924  -0.1717801  -0.5167301 SPIN=   0.00000
   O  -0.2147480  -0.2207249  -0.4353932 SPIN=   0.00000
   S   0.0477458  -0.2324161  -0.4053956 SPIN=   0.00000
   O   0.1036919   0.0948770   0.2849853 SPIN=   0.00000
   O   0.1111468   0.4422825   0.3844738 SPIN=   0.00000
   O   0.1908924   0.1717801   0.5167301 SPIN=   0.00000
   O  -0.2147480   0.2207249   0.4353932 SPIN=   0.00000
   S   0.0477458   0.2324161   0.4053956 SPIN=   0.00000
   O  -0.1625328  -0.3097020  -0.1837933 SPIN=   0.00000
   O  -0.4487743  -0.5479048  -0.1102331 SPIN=   0.00000
   O  -0.5820724  -0.3060361  -0.2536513 SPIN=   0.00000
   O  -0.4764335  -0.1934377  -0.0278772 SPIN=   0.00000
   S  -0.4174532  -0.3392702  -0.1438887 SPIN=   0.00000
   O  -0.1625328   0.3097020   0.1837933 SPIN=   0.00000
   O  -0.4487743   0.5479048   0.1102331 SPIN=   0.00000
   O  -0.5820724   0.3060361   0.2536513 SPIN=   0.00000
   O  -0.4764335   0.1934377   0.0278772 SPIN=   0.00000
   S  -0.4174532   0.3392702   0.1438887 SPIN=   0.00000
   F  -0.4074242  -0.1539682   0.3257355 SPIN=   0.00000
   F  -0.4074242   0.1539682  -0.3257355 SPIN=   0.00000
   F   0.0858123   0.2494879  -0.0915627 SPIN=   0.00000
   F   0.0858123  -0.2494879   0.0915627 SPIN=   0.00000
%ENDBLOCK POSITIONS_FRAC

# Note: total spin =  16.00

KPOINTS_MP_SPACING 0.07

%BLOCK SPECIES_POT
QC5
%ENDBLOCK SPECIES_POT

SNAP_TO_SYMMETRY
SYMMETRY_GENERATE

