#              Generated by Buildcell
#
# at 05:51:32 (GMT+1.0) 4th August 2020
# in /lustre/scratch/uccabz1/launch_tmp
# on node-c12f-026
# by uccabz1
#
# compiler GCC version 4.9.2
# options -cpp -iprefix /lustre/shared/ucl/apps/gcc/4.9.2/bin/../lib/gcc/x86_64-unknown-linux-gnu/4.9.2/ -mtune=corei7 -march=x86-64 -g -Og
#
# seed -1077254356  1053895544  -545983693  1878765136  1061361123  1758331344  1666881821  1444579883  2060377301   796864558  -406004656  1163892354
#
#      Author: C. J. Pickard (cjp20@cam.ac.uk)
#                Space group: C2
#

%BLOCK LATTICE_ABC
      6.49745      6.49745     10.12860
     82.24430     82.24430     71.56398
%ENDBLOCK LATTICE_ABC

%BLOCK POSITIONS_FRAC
  Li   0.2028848  -0.4275710   0.3810466 SPIN=   0.00000
  Li   0.4275710  -0.2028848  -0.3810466 SPIN=   0.00000
  Li  -0.2467629   0.2287398  -0.3189530 SPIN=   0.00000
  Li  -0.2287398   0.2467629   0.3189530 SPIN=   0.00000
  Fe  -0.3248846  -0.2548636   0.3085558 SPIN=   2.02406
  Fe   0.2548636   0.3248846  -0.3085558 SPIN=   2.02406
  Fe   0.1652925  -0.0527941   0.1581989 SPIN=   5.97594
  Fe   0.0527941  -0.1652925  -0.1581989 SPIN=   5.97594
   O   0.3136046  -0.1170523   0.4354683 SPIN=   0.00000
   O   0.3818755   0.2023520   0.5079952 SPIN=   0.00000
   O   0.0171801   0.2326472   0.4457969 SPIN=   0.00000
   O   0.3285521   0.1977215   0.2711724 SPIN=   0.00000
   S   0.2603031   0.1289171   0.4151082 SPIN=   0.00000
   O   0.1170523  -0.3136046  -0.4354683 SPIN=   0.00000
   O  -0.2023520  -0.3818755  -0.5079952 SPIN=   0.00000
   O  -0.2326472  -0.0171801  -0.4457969 SPIN=   0.00000
   O  -0.1977215  -0.3285521  -0.2711724 SPIN=   0.00000
   S  -0.1289171  -0.2603031  -0.4151082 SPIN=   0.00000
   O  -0.0663129   0.3161452   0.0307604 SPIN=   0.00000
   O   0.2820208   0.3923310   0.0367577 SPIN=   0.00000
   O   0.0042537   0.4507218   0.2321953 SPIN=   0.00000
   O  -0.0611618   0.6968386   0.0230274 SPIN=   0.00000
   S   0.0397000   0.4640092   0.0806852 SPIN=   0.00000
   O  -0.3161452   0.0663129  -0.0307604 SPIN=   0.00000
   O  -0.3923310  -0.2820208  -0.0367577 SPIN=   0.00000
   O  -0.4507218  -0.0042537  -0.2321953 SPIN=   0.00000
   O  -0.6968386   0.0611618  -0.0230274 SPIN=   0.00000
   S  -0.4640092  -0.0397000  -0.0806852 SPIN=   0.00000
   F  -0.0019315   0.1773256  -0.2317568 SPIN=   0.00000
   F  -0.1773256   0.0019315   0.2317568 SPIN=   0.00000
   F   0.4687384  -0.4180771   0.2386446 SPIN=   0.00000
   F   0.4180771  -0.4687384  -0.2386446 SPIN=   0.00000
%ENDBLOCK POSITIONS_FRAC

# Note: total spin =  16.00

KPOINTS_MP_SPACING 0.07

%BLOCK SPECIES_POT
QC5
%ENDBLOCK SPECIES_POT

SNAP_TO_SYMMETRY
SYMMETRY_GENERATE

