#              Generated by Buildcell
#
# at 12:18:56 (GMT+1.0) 18th August 2020
# in /lustre/scratch/uccabz1/launch_tmp
# on node-c12f-013
# by uccabz1
#
# compiler GCC version 4.9.2
# options -cpp -iprefix /lustre/shared/ucl/apps/gcc/4.9.2/bin/../lib/gcc/x86_64-unknown-linux-gnu/4.9.2/ -mtune=corei7 -march=x86-64 -g -Og
#
# seed  1189489993   121256623    91388215   187276958 -1158408831   422370126  1055799461  -812430982  1484546479 -2054157114 -2119337837 -1305270983
#
#      Author: C. J. Pickard (cjp20@cam.ac.uk)
#                Space group: P-1
#

%BLOCK LATTICE_ABC
      5.23595      7.01298     11.02458
     97.09583     92.05765     94.58950
%ENDBLOCK LATTICE_ABC

%BLOCK POSITIONS_FRAC
  Li  -0.2929288   0.2181327  -0.2980426 SPIN=   0.00000
  Li   0.2929288  -0.2181327   0.2980426 SPIN=   0.00000
  Li   0.2250041   0.3052529   0.4446988 SPIN=   0.00000
  Li  -0.2250041  -0.3052529  -0.4446988 SPIN=   0.00000
  Fe  -0.2530115   0.0492320   0.3862668 SPIN=   2.43227
  Fe   0.2530115  -0.0492320  -0.3862668 SPIN=   2.43227
  Fe  -0.4536607  -0.2331555   0.0616321 SPIN=   5.56773
  Fe   0.4536607   0.2331555  -0.0616321 SPIN=   5.56773
   O   0.2243107   0.1319613   0.0707491 SPIN=   0.00000
   O   0.2637692   0.3328492   0.2725916 SPIN=   0.00000
   O   0.4774056   0.0294235   0.2415077 SPIN=   0.00000
   O   0.0043703   0.0184572   0.2468581 SPIN=   0.00000
   S   0.2424640   0.1281728   0.2079266 SPIN=   0.00000
   O  -0.2243107  -0.1319613  -0.0707491 SPIN=   0.00000
   O  -0.2637692  -0.3328492  -0.2725916 SPIN=   0.00000
   O  -0.4774056  -0.0294235  -0.2415077 SPIN=   0.00000
   O  -0.0043703  -0.0184572  -0.2468581 SPIN=   0.00000
   S  -0.2424640  -0.1281728  -0.2079266 SPIN=   0.00000
   O  -0.4223142  -0.4448782   0.2108911 SPIN=   0.00000
   O   0.0503218  -0.4092168   0.2011258 SPIN=   0.00000
   O  -0.1532798  -0.6254988   0.3377038 SPIN=   0.00000
   O  -0.1563410  -0.2716741   0.3866912 SPIN=   0.00000
   S  -0.1704033  -0.4378170   0.2841030 SPIN=   0.00000
   O   0.4223142   0.4448782  -0.2108911 SPIN=   0.00000
   O  -0.0503218   0.4092168  -0.2011258 SPIN=   0.00000
   O   0.1532798   0.6254988  -0.3377038 SPIN=   0.00000
   O   0.1563410   0.2716741  -0.3866912 SPIN=   0.00000
   S   0.1704033   0.4378170  -0.2841030 SPIN=   0.00000
   F  -0.2112236   0.2663355   0.0108272 SPIN=   0.00000
   F   0.2112236  -0.2663355  -0.0108272 SPIN=   0.00000
   F  -0.3621558   0.2639662  -0.4679436 SPIN=   0.00000
   F   0.3621558  -0.2639662   0.4679436 SPIN=   0.00000
%ENDBLOCK POSITIONS_FRAC

# Note: total spin =  16.00

KPOINTS_MP_SPACING 0.07

%BLOCK SPECIES_POT
QC5
%ENDBLOCK SPECIES_POT

SNAP_TO_SYMMETRY
SYMMETRY_GENERATE

