#              Generated by Buildcell
#
# at 08:38:48 (GMT+1.0) 18th August 2020
# in /lustre/scratch/uccabz1/launch_tmp
# on node-c12m-014
# by uccabz1
#
# compiler GCC version 4.9.2
# options -cpp -iprefix /lustre/shared/ucl/apps/gcc/4.9.2/bin/../lib/gcc/x86_64-unknown-linux-gnu/4.9.2/ -mtune=corei7 -march=x86-64 -g -Og
#
# seed  1832377042  1717316550   636046849 -1818983504   278017520 -1504574199   638386689  2043387952  -784996217  -717957559   788498129  1036689317
#
#      Author: C. J. Pickard (cjp20@cam.ac.uk)
#                Space group: Pc
#

%BLOCK LATTICE_ABC
      4.49976      7.43052     12.23965
    102.19787     90.00000     90.00000
%ENDBLOCK LATTICE_ABC

%BLOCK POSITIONS_FRAC
  Li  -0.2220076  -0.0555959  -0.2871137 SPIN=   0.00000
  Li   0.2220076   0.4444041  -0.2871137 SPIN=   0.00000
  Li   0.2767229  -0.0791880  -0.0272729 SPIN=   0.00000
  Li  -0.2767229   0.4208120  -0.0272729 SPIN=   0.00000
  Fe   0.2153244   0.3177023   0.3584846 SPIN=   4.87949
  Fe  -0.2153244  -0.1822977   0.3584846 SPIN=   4.87949
  Fe  -0.2745501   0.2414018  -0.4147815 SPIN=   3.12051
  Fe   0.2745501  -0.2585982  -0.4147815 SPIN=   3.12051
   O   0.4826886  -0.1781625   0.0952364 SPIN=   0.00000
   O  -0.0335608  -0.1327757   0.1653917 SPIN=   0.00000
   O   0.3226055   0.1267963   0.2027385 SPIN=   0.00000
   O   0.3815353  -0.1336166   0.2979370 SPIN=   0.00000
   S   0.2883171  -0.0794397   0.1903259 SPIN=   0.00000
   O  -0.4826886   0.3218375   0.0952364 SPIN=   0.00000
   O   0.0335608   0.3672243   0.1653917 SPIN=   0.00000
   O  -0.3226055   0.6267963   0.2027385 SPIN=   0.00000
   O  -0.3815353   0.3663834   0.2979370 SPIN=   0.00000
   S  -0.2883171   0.4205603   0.1903259 SPIN=   0.00000
   O  -0.3191149  -0.5806880  -0.2398959 SPIN=   0.00000
   O  -0.4791666  -0.2758945  -0.1321462 SPIN=   0.00000
   O  -0.3662926  -0.3180451  -0.3338634 SPIN=   0.00000
   O   0.0403307  -0.3231614  -0.1983988 SPIN=   0.00000
   S  -0.2810609  -0.3744473  -0.2260761 SPIN=   0.00000
   O   0.3191149  -0.0806880  -0.2398959 SPIN=   0.00000
   O   0.4791666   0.2241055  -0.1321462 SPIN=   0.00000
   O   0.3662926   0.1819549  -0.3338634 SPIN=   0.00000
   O  -0.0403307   0.1768386  -0.1983988 SPIN=   0.00000
   S   0.2810609   0.1255527  -0.2260761 SPIN=   0.00000
   F  -0.1819918   0.1124403   0.4143569 SPIN=   0.00000
   F   0.1819918  -0.3875597   0.4143569 SPIN=   0.00000
   F  -0.1707979   0.0234666  -0.0175644 SPIN=   0.00000
   F   0.1707979  -0.4765334  -0.0175644 SPIN=   0.00000
%ENDBLOCK POSITIONS_FRAC

# Note: total spin =  16.00

KPOINTS_MP_SPACING 0.07

%BLOCK SPECIES_POT
QC5
%ENDBLOCK SPECIES_POT

SNAP_TO_SYMMETRY
SYMMETRY_GENERATE

