#              Generated by Buildcell
#
# at 09:43:18 (GMT+1.0) 4th August 2020
# in /lustre/scratch/uccabz1/launch_tmp
# on node-c12e-016
# by uccabz1
#
# compiler GCC version 4.9.2
# options -cpp -iprefix /lustre/shared/ucl/apps/gcc/4.9.2/bin/../lib/gcc/x86_64-unknown-linux-gnu/4.9.2/ -mtune=corei7 -march=x86-64 -g -Og
#
# seed -1279811659 -1444980586   163730111 -1793580500  -415421576 -1146307214   407285110  1268648958   180349897    44064430   793361859 -1727050938
#
#      Author: C. J. Pickard (cjp20@cam.ac.uk)
#                Space group: Aea2
#

%BLOCK LATTICE_ABC
      7.61165      7.61165      7.71264
     90.00000     90.00000    116.47144
%ENDBLOCK LATTICE_ABC

%BLOCK POSITIONS_FRAC
  Li  -0.1589865   0.0368438  -0.1996740 SPIN=   0.00000
  Li   0.0368438  -0.1589865   0.1996740 SPIN=   0.00000
  Li  -0.4631562   0.3410135   0.3003260 SPIN=   0.00000
  Li   0.3410135  -0.4631562  -0.3003260 SPIN=   0.00000
  Fe  -0.4953203  -0.0487042  -0.4594760 SPIN=   4.00000
  Fe  -0.0487042  -0.4953203   0.4594760 SPIN=   4.00000
  Fe   0.4512958   0.0046797   0.0405240 SPIN=   4.00000
  Fe   0.0046797   0.4512958  -0.0405240 SPIN=   4.00000
   O   0.1394208  -0.3101113  -0.2721757 SPIN=   0.00000
   O  -0.0764178  -0.1632185  -0.3672919 SPIN=   0.00000
   O   0.2720618   0.0506040  -0.2975901 SPIN=   0.00000
   O   0.0378115  -0.1262299  -0.0629979 SPIN=   0.00000
   S   0.0932191  -0.1372389  -0.2500139 SPIN=   0.00000
   O  -0.3101113   0.1394208   0.2721757 SPIN=   0.00000
   O  -0.1632185  -0.0764178   0.3672919 SPIN=   0.00000
   O   0.0506040   0.2720618   0.2975901 SPIN=   0.00000
   O  -0.1262299   0.0378115   0.0629979 SPIN=   0.00000
   S  -0.1372389   0.0932191   0.2500139 SPIN=   0.00000
   O   0.1898887  -0.3605792   0.2278243 SPIN=   0.00000
   O   0.3367815  -0.5764178   0.1327081 SPIN=   0.00000
   O   0.5506040  -0.2279382   0.2024099 SPIN=   0.00000
   O   0.3737701  -0.4621885   0.4370021 SPIN=   0.00000
   S   0.3627611  -0.4067809   0.2499861 SPIN=   0.00000
   O  -0.3605792   0.1898887  -0.2278243 SPIN=   0.00000
   O  -0.5764178   0.3367815  -0.1327081 SPIN=   0.00000
   O  -0.2279382   0.5506040  -0.2024099 SPIN=   0.00000
   O  -0.4621885   0.3737701  -0.4370021 SPIN=   0.00000
   S  -0.4067809   0.3627611  -0.2499861 SPIN=   0.00000
   F   0.3039900   0.0712066   0.3456658 SPIN=   0.00000
   F   0.0712066   0.3039900  -0.3456658 SPIN=   0.00000
   F  -0.4287934  -0.1960100  -0.1543342 SPIN=   0.00000
   F  -0.1960100  -0.4287934   0.1543342 SPIN=   0.00000
%ENDBLOCK POSITIONS_FRAC

# Note: total spin =  16.00

KPOINTS_MP_SPACING 0.07

%BLOCK SPECIES_POT
QC5
%ENDBLOCK SPECIES_POT

SNAP_TO_SYMMETRY
SYMMETRY_GENERATE

