#              Generated by Buildcell
#
# at 06:32:08 (GMT+1.0) 4th August 2020
# in /lustre/scratch/uccabz1/launch_tmp
# on node-c12m-015
# by uccabz1
#
# compiler GCC version 4.9.2
# options -cpp -iprefix /lustre/shared/ucl/apps/gcc/4.9.2/bin/../lib/gcc/x86_64-unknown-linux-gnu/4.9.2/ -mtune=corei7 -march=x86-64 -g -Og
#
# seed  -111797204   -67478652 -1382946087 -1890357206   140649396 -2055039300   827133426 -1585789491  1894476098 -1504770360  -467255656 -1701122452
#
#      Author: C. J. Pickard (cjp20@cam.ac.uk)
#                Space group: C2/c
#

%BLOCK LATTICE_ABC
      6.34023      8.29257      8.36511
     86.12361     79.81409     67.52478
%ENDBLOCK LATTICE_ABC

%BLOCK POSITIONS_FRAC
  Li   0.3581733   0.2816866   0.0906292 SPIN=   0.00000
  Li  -0.1398599   0.2816866   0.4093708 SPIN=   0.00000
  Li  -0.3581733  -0.2816866  -0.0906292 SPIN=   0.00000
  Li   0.1398599  -0.2816866  -0.4093708 SPIN=   0.00000
  Fe  -0.2477517  -0.0044967   0.2500000 SPIN=   6.93843
  Fe   0.2477517   0.0044967  -0.2500000 SPIN=   6.93843
  Fe   0.3814633  -0.2629266   0.2500000 SPIN=   1.06157
  Fe  -0.3814633   0.2629266  -0.2500000 SPIN=   1.06157
   O   0.3570892   0.5138595   0.3651763 SPIN=   0.00000
   O   0.1333503   0.3921515   0.5766093 SPIN=   0.00000
   O   0.5602507   0.2501317   0.5179154 SPIN=   0.00000
   S   0.3438371   0.3473986   0.4443844 SPIN=   0.00000
   O  -0.3709487   0.5138595   0.1348237 SPIN=   0.00000
   O  -0.0255018   0.3921515  -0.0766093 SPIN=   0.00000
   O  -0.3103825   0.2501317  -0.0179154 SPIN=   0.00000
   S  -0.1912357   0.3473986   0.0556156 SPIN=   0.00000
   O  -0.3570892  -0.5138595  -0.3651763 SPIN=   0.00000
   O  -0.1333503  -0.3921515  -0.5766093 SPIN=   0.00000
   O  -0.5602507  -0.2501317  -0.5179154 SPIN=   0.00000
   S  -0.3438371  -0.3473986  -0.4443844 SPIN=   0.00000
   O   0.3709487  -0.5138595  -0.1348237 SPIN=   0.00000
   O   0.0255018  -0.3921515   0.0766093 SPIN=   0.00000
   O   0.3103825  -0.2501317   0.0179154 SPIN=   0.00000
   S   0.1912357  -0.3473986  -0.0556156 SPIN=   0.00000
   O   0.3831978  -0.2663957  -0.2500000 SPIN=   0.00000
   O  -0.3831978   0.2663957   0.2500000 SPIN=   0.00000
   O   0.0000000  -0.0000000   0.0000000 SPIN=   0.00000
   O  -0.5000000  -0.0000000  -0.5000000 SPIN=   0.00000
   F  -0.0650288   0.1815773  -0.3623893 SPIN=   0.00000
   F   0.3834514   0.1815773  -0.1376107 SPIN=   0.00000
   F   0.0650288  -0.1815773   0.3623893 SPIN=   0.00000
   F  -0.3834514  -0.1815773   0.1376107 SPIN=   0.00000
%ENDBLOCK POSITIONS_FRAC

# Note: total spin =  16.00

KPOINTS_MP_SPACING 0.07

%BLOCK SPECIES_POT
QC5
%ENDBLOCK SPECIES_POT

SNAP_TO_SYMMETRY
SYMMETRY_GENERATE

