#              Generated by Buildcell
#
# at 05:50:06 (GMT+1.0) 18th August 2020
# in /lustre/scratch/uccabz1/launch_tmp
# on node-c12g-036
# by uccabz1
#
# compiler GCC version 4.9.2
# options -cpp -iprefix /lustre/shared/ucl/apps/gcc/4.9.2/bin/../lib/gcc/x86_64-unknown-linux-gnu/4.9.2/ -mtune=corei7 -march=x86-64 -g -Og
#
# seed -1219405394   995488825   547027936 -1925688464  1772861476 -2051898235   750795050 -1839557957 -1443177719 -2021857439 -1799915213 -1818810885
#
#      Author: C. J. Pickard (cjp20@cam.ac.uk)
#                Space group: Pc
#

%BLOCK LATTICE_ABC
      7.46385      7.49225      7.71282
     90.00000     90.00000    111.96533
%ENDBLOCK LATTICE_ABC

%BLOCK POSITIONS_FRAC
  Li  -0.0211121   0.1899938   0.2181607 SPIN=   0.00000
  Li  -0.0211121  -0.3100062  -0.2181607 SPIN=   0.00000
  Li   0.4947529  -0.1567717   0.0223327 SPIN=   0.00000
  Li   0.4947529   0.3432283  -0.0223327 SPIN=   0.00000
  Fe  -0.3210822  -0.1988221   0.4698367 SPIN=   3.53048
  Fe  -0.3210822   0.3011779  -0.4698367 SPIN=   3.53048
  Fe   0.1252041  -0.2901012   0.3408643 SPIN=   4.46952
  Fe   0.1252041   0.2098988  -0.3408643 SPIN=   4.46952
   O  -0.1869697   0.3173616   0.1332251 SPIN=   0.00000
   O  -0.2492239   0.4733893  -0.1304609 SPIN=   0.00000
   O  -0.2212861   0.1551848  -0.1513011 SPIN=   0.00000
   O   0.0682910   0.4459438  -0.0890897 SPIN=   0.00000
   S  -0.1472972   0.3479699  -0.0594067 SPIN=   0.00000
   O  -0.1869697  -0.1826384  -0.1332251 SPIN=   0.00000
   O  -0.2492239  -0.0266107   0.1304609 SPIN=   0.00000
   O  -0.2212861  -0.3448152   0.1513011 SPIN=   0.00000
   O   0.0682910  -0.0540562   0.0890897 SPIN=   0.00000
   S  -0.1472972  -0.1520301   0.0594067 SPIN=   0.00000
   O   0.3570468   0.0750421  -0.3795918 SPIN=   0.00000
   O   0.5475181  -0.1184089  -0.2914889 SPIN=   0.00000
   O   0.2006673  -0.2797795  -0.3628179 SPIN=   0.00000
   O   0.2994263  -0.0873475  -0.0940222 SPIN=   0.00000
   S   0.3511646  -0.1026235  -0.2819802 SPIN=   0.00000
   O   0.3570468   0.5750421   0.3795918 SPIN=   0.00000
   O   0.5475181   0.3815911   0.2914889 SPIN=   0.00000
   O   0.2006673   0.2202205   0.3628179 SPIN=   0.00000
   O   0.2994263   0.4126525   0.0940222 SPIN=   0.00000
   S   0.3511646   0.3973765   0.2819802 SPIN=   0.00000
   F  -0.1703157  -0.4000794  -0.4553864 SPIN=   0.00000
   F  -0.1703157   0.0999206   0.4553864 SPIN=   0.00000
   F   0.3434010  -0.1164409   0.2382160 SPIN=   0.00000
   F   0.3434010   0.3835591  -0.2382160 SPIN=   0.00000
%ENDBLOCK POSITIONS_FRAC

# Note: total spin =  16.00

KPOINTS_MP_SPACING 0.07

%BLOCK SPECIES_POT
QC5
%ENDBLOCK SPECIES_POT

SNAP_TO_SYMMETRY
SYMMETRY_GENERATE

