#              Generated by Buildcell
#
# at 07:08:17 (GMT+1.0) 18th August 2020
# in /lustre/scratch/uccabz1/launch_tmp
# on node-c12h-020
# by uccabz1
#
# compiler GCC version 4.9.2
# options -cpp -iprefix /lustre/shared/ucl/apps/gcc/4.9.2/bin/../lib/gcc/x86_64-unknown-linux-gnu/4.9.2/ -mtune=corei7 -march=x86-64 -g -Og
#
# seed   460293816  -330313645  -791670318  1985538046 -2100282615  -298608711  1059390755  2114210931 -2080289212 -2094134682  1048121586   752997749
#
#      Author: C. J. Pickard (cjp20@cam.ac.uk)
#                Space group: P21
#

%BLOCK LATTICE_ABC
      4.77864      8.73008      9.93844
     90.00000     90.00000    105.25578
%ENDBLOCK LATTICE_ABC

%BLOCK POSITIONS_FRAC
  Li   0.6631862   0.4029046   0.4040912 SPIN=   0.00000
  Li  -0.6631862  -0.4029046  -0.0959088 SPIN=   0.00000
  Li  -0.2947069  -0.1372861  -0.4682074 SPIN=   0.00000
  Li   0.2947069   0.1372861   0.0317926 SPIN=   0.00000
  Fe   0.0705215   0.2090115   0.3070336 SPIN=   1.93467
  Fe  -0.0705215  -0.2090115  -0.1929664 SPIN=   1.93467
  Fe   0.1793028   0.4747542  -0.3813596 SPIN=   6.06533
  Fe  -0.1793028  -0.4747542   0.1186404 SPIN=   6.06533
   O  -0.5313206  -0.4238110   0.4504680 SPIN=   0.00000
   O  -0.4122481  -0.1642384   0.3337913 SPIN=   0.00000
   O  -0.9194414  -0.3299282   0.3396307 SPIN=   0.00000
   O  -0.5536598  -0.4132210   0.2019591 SPIN=   0.00000
   S  -0.6041675  -0.3327996   0.3314623 SPIN=   0.00000
   O   0.5313206   0.4238110  -0.0495320 SPIN=   0.00000
   O   0.4122481   0.1642384  -0.1662087 SPIN=   0.00000
   O   0.9194414   0.3299282  -0.1603693 SPIN=   0.00000
   O   0.5536598   0.4132210  -0.2980409 SPIN=   0.00000
   S   0.6041675   0.3327996  -0.1685377 SPIN=   0.00000
   O  -0.3522093  -0.1937989   0.0083728 SPIN=   0.00000
   O  -0.2277212   0.0924653  -0.0474632 SPIN=   0.00000
   O  -0.0173519   0.0003540   0.1548384 SPIN=   0.00000
   O  -0.5392791  -0.0088192   0.1491790 SPIN=   0.00000
   S  -0.2841404  -0.0274497   0.0662317 SPIN=   0.00000
   O   0.3522093   0.1937989  -0.4916272 SPIN=   0.00000
   O   0.2277212  -0.0924653  -0.5474632 SPIN=   0.00000
   O   0.0173519  -0.0003540  -0.3451616 SPIN=   0.00000
   O   0.5392791   0.0088192  -0.3508210 SPIN=   0.00000
   S   0.2841404   0.0274497  -0.4337683 SPIN=   0.00000
   F  -0.0662032   0.3393236  -0.4905715 SPIN=   0.00000
   F   0.0662032  -0.3393236   0.0094285 SPIN=   0.00000
   F  -0.3959918  -0.2792518  -0.3182263 SPIN=   0.00000
   F   0.3959918   0.2792518   0.1817737 SPIN=   0.00000
%ENDBLOCK POSITIONS_FRAC

# Note: total spin =  16.00

KPOINTS_MP_SPACING 0.07

%BLOCK SPECIES_POT
QC5
%ENDBLOCK SPECIES_POT

SNAP_TO_SYMMETRY
SYMMETRY_GENERATE

