#              Generated by Buildcell
#
# at 08:54:08 (GMT+1.0) 4th August 2020
# in /lustre/scratch/uccabz1/launch_tmp
# on node-c12h-033
# by uccabz1
#
# compiler GCC version 4.9.2
# options -cpp -iprefix /lustre/shared/ucl/apps/gcc/4.9.2/bin/../lib/gcc/x86_64-unknown-linux-gnu/4.9.2/ -mtune=corei7 -march=x86-64 -g -Og
#
# seed -1150964925   893154518  -776674867 -1233962031   802893896  1960979897   652600563  -594386772 -1812384039  1787264282  -982488995  -609443710
#
#      Author: C. J. Pickard (cjp20@cam.ac.uk)
#                Space group: P-1
#

%BLOCK LATTICE_ABC
      4.19196     10.18714     10.43243
    111.21222     99.90287     97.51316
%ENDBLOCK LATTICE_ABC

%BLOCK POSITIONS_FRAC
  Li  -0.3838708  -0.3023488   0.4010414 SPIN=   0.00000
  Li   0.3838708   0.3023488  -0.4010414 SPIN=   0.00000
  Li  -0.0399901   0.0931853  -0.1673527 SPIN=   0.00000
  Li   0.0399901  -0.0931853   0.1673527 SPIN=   0.00000
  Fe  -0.2824567   0.0908912   0.3989220 SPIN=   2.03890
  Fe   0.2824567  -0.0908912  -0.3989220 SPIN=   2.03890
  Fe   0.0000000  -0.5000000  -0.5000000 SPIN=   2.62741
  Fe  -0.5000000   0.0000000   0.0000000 SPIN=   9.29479
   O  -0.3596636  -0.2702821  -0.3112176 SPIN=   0.00000
   O   0.2213118  -0.2258143  -0.1800899 SPIN=   0.00000
   O  -0.2032359  -0.4150032  -0.1736108 SPIN=   0.00000
   O  -0.2114202  -0.1578562  -0.0493935 SPIN=   0.00000
   S  -0.1382520  -0.2672389  -0.1785780 SPIN=   0.00000
   O   0.3596636   0.2702821   0.3112176 SPIN=   0.00000
   O  -0.2213118   0.2258143   0.1800899 SPIN=   0.00000
   O   0.2032359   0.4150032   0.1736108 SPIN=   0.00000
   O   0.2114202   0.1578562   0.0493935 SPIN=   0.00000
   S   0.1382520   0.2672389   0.1785780 SPIN=   0.00000
   O   0.6390272  -0.4161980   0.1642200 SPIN=   0.00000
   O   0.2030937  -0.2734998   0.1988805 SPIN=   0.00000
   O   0.4102662  -0.3310256  -0.0192725 SPIN=   0.00000
   S   0.5053965  -0.2944014   0.1384520 SPIN=   0.00000
   O  -0.6390272   0.4161980  -0.1642200 SPIN=   0.00000
   O  -0.2030937   0.2734998  -0.1988805 SPIN=   0.00000
   O  -0.4102662   0.3310256   0.0192725 SPIN=   0.00000
   S  -0.5053965   0.2944014  -0.1384520 SPIN=   0.00000
   O  -0.5000000  -0.5000000  -0.5000000 SPIN=   0.00000
   O   0.0000000  -0.5000000  -0.0000000 SPIN=   0.00000
   F   0.0614532  -0.3282406   0.4372954 SPIN=   0.00000
   F  -0.0614532   0.3282406  -0.4372954 SPIN=   0.00000
   F  -0.1850274  -0.0148240  -0.3650035 SPIN=   0.00000
   F   0.1850274   0.0148240   0.3650035 SPIN=   0.00000
%ENDBLOCK POSITIONS_FRAC

# Note: total spin =  16.00

KPOINTS_MP_SPACING 0.07

%BLOCK SPECIES_POT
QC5
%ENDBLOCK SPECIES_POT

SNAP_TO_SYMMETRY
SYMMETRY_GENERATE

