#              Generated by Buildcell
#
# at 23:51:02 (GMT+1.0) 17th August 2020
# in /lustre/scratch/uccabz1/launch_tmp
# on node-c12o-031
# by uccabz1
#
# compiler GCC version 4.9.2
# options -cpp -iprefix /lustre/shared/ucl/apps/gcc/4.9.2/bin/../lib/gcc/x86_64-unknown-linux-gnu/4.9.2/ -mtune=corei7 -march=x86-64 -g -Og
#
# seed   866206677   850109605    19325668  1231449388 -1120978525  2080126227  -311475975  -776928507  1069885634   880073578   828859003  -158580040
#
#      Author: C. J. Pickard (cjp20@cam.ac.uk)
#                Space group: P21
#

%BLOCK LATTICE_ABC
      5.68692      5.82828     12.28644
     90.00000     90.00000    100.81550
%ENDBLOCK LATTICE_ABC

%BLOCK POSITIONS_FRAC
  Li   0.0825831   0.0935834   0.0617162 SPIN=   0.00000
  Li  -0.0825831  -0.0935834  -0.4382838 SPIN=   0.00000
  Li   0.4157654  -0.4249043   0.3390922 SPIN=   0.00000
  Li  -0.4157654   0.4249043  -0.1609078 SPIN=   0.00000
  Fe   0.4124339   0.1749925  -0.4358389 SPIN=   5.66069
  Fe  -0.4124339  -0.1749925   0.0641611 SPIN=   5.66069
  Fe   0.2170279  -0.3606497  -0.2708611 SPIN=   2.33931
  Fe  -0.2170279   0.3606497   0.2291389 SPIN=   2.33931
   O   0.3539267   0.2550327   0.2061450 SPIN=   0.00000
   O  -0.0423880   0.0514058   0.2712929 SPIN=   0.00000
   O   0.3039588   0.1181669   0.3969013 SPIN=   0.00000
   O   0.2866285  -0.1680783   0.2469635 SPIN=   0.00000
   S   0.2255315   0.0641318   0.2803257 SPIN=   0.00000
   O  -0.3539267  -0.2550327  -0.2938550 SPIN=   0.00000
   O   0.0423880  -0.0514058  -0.2287071 SPIN=   0.00000
   O  -0.3039588  -0.1181669  -0.1030987 SPIN=   0.00000
   O  -0.2866285   0.1680783  -0.2530365 SPIN=   0.00000
   S  -0.2255315  -0.0641318  -0.2196743 SPIN=   0.00000
   O   0.2238708  -0.3780136  -0.0982350 SPIN=   0.00000
   O  -0.1549009  -0.6473796  -0.0544412 SPIN=   0.00000
   O  -0.0709774  -0.2500687   0.0248798 SPIN=   0.00000
   O   0.1584995  -0.5472749   0.0864917 SPIN=   0.00000
   S   0.0391230  -0.4556842  -0.0103262 SPIN=   0.00000
   O  -0.2238708   0.3780136   0.4017650 SPIN=   0.00000
   O   0.1549009   0.6473796   0.4455588 SPIN=   0.00000
   O   0.0709774   0.2500687   0.5248798 SPIN=   0.00000
   O  -0.1584995   0.5472749   0.5864917 SPIN=   0.00000
   S  -0.0391230   0.4556842   0.4896738 SPIN=   0.00000
   F  -0.3259592  -0.3505269   0.2131840 SPIN=   0.00000
   F   0.3259592   0.3505269  -0.2868160 SPIN=   0.00000
   F   0.4164895   0.1211468   0.0036346 SPIN=   0.00000
   F  -0.4164895  -0.1211468  -0.4963654 SPIN=   0.00000
%ENDBLOCK POSITIONS_FRAC

# Note: total spin =  16.00

KPOINTS_MP_SPACING 0.07

%BLOCK SPECIES_POT
QC5
%ENDBLOCK SPECIES_POT

SNAP_TO_SYMMETRY
SYMMETRY_GENERATE

