#              Generated by Buildcell
#
# at 00:12:59 (GMT+1.0) 18th August 2020
# in /lustre/scratch/uccabz1/launch_tmp
# on node-c12k-008
# by uccabz1
#
# compiler GCC version 4.9.2
# options -cpp -iprefix /lustre/shared/ucl/apps/gcc/4.9.2/bin/../lib/gcc/x86_64-unknown-linux-gnu/4.9.2/ -mtune=corei7 -march=x86-64 -g -Og
#
# seed  1010801298 -1703127170    92648311  1970089753  -472692970  1127462718 -1804886765   803956186  -122562483 -1221369630  1860075284  2131495034
#
#      Author: C. J. Pickard (cjp20@cam.ac.uk)
#                Space group: P21
#

%BLOCK LATTICE_ABC
      4.70368      8.87764      9.64735
     90.00000     96.81992     90.00000
%ENDBLOCK LATTICE_ABC

%BLOCK POSITIONS_FRAC
  Li  -0.4672983   0.1753616   0.4084931 SPIN=   0.00000
  Li   0.4672983  -0.3246384  -0.4084931 SPIN=   0.00000
  Li   0.2188291   0.4855833   0.1886124 SPIN=   0.00000
  Li  -0.2188291  -0.0144167  -0.1886124 SPIN=   0.00000
  Fe  -0.1705768   0.4811611   0.4196423 SPIN=   2.54198
  Fe   0.1705768  -0.0188389  -0.4196423 SPIN=   2.54198
  Fe   0.3133653   0.2594725  -0.0392755 SPIN=   5.45802
  Fe  -0.3133653  -0.2405275   0.0392755 SPIN=   5.45802
   O  -0.1272181   0.0125590   0.3279985 SPIN=   0.00000
   O  -0.2742928  -0.0037217   0.0734838 SPIN=   0.00000
   O   0.0944501   0.1806773   0.1665910 SPIN=   0.00000
   O  -0.4110868   0.2181515   0.2060567 SPIN=   0.00000
   S  -0.1795369   0.1019165   0.1935325 SPIN=   0.00000
   O   0.1272181  -0.4874410  -0.3279985 SPIN=   0.00000
   O   0.2742928  -0.5037217  -0.0734838 SPIN=   0.00000
   O  -0.0944501  -0.3193227  -0.1665910 SPIN=   0.00000
   O   0.4110868  -0.2818485  -0.2060567 SPIN=   0.00000
   S   0.1795369  -0.3980835  -0.1935325 SPIN=   0.00000
   O   0.0662682  -0.2311369   0.1836512 SPIN=   0.00000
   O   0.1537989  -0.3005210   0.4335404 SPIN=   0.00000
   O   0.4178886  -0.0877349   0.3433646 SPIN=   0.00000
   O   0.5254590  -0.3493205   0.2778015 SPIN=   0.00000
   S   0.2908537  -0.2421783   0.3095894 SPIN=   0.00000
   O  -0.0662682   0.2688631  -0.1836512 SPIN=   0.00000
   O  -0.1537989   0.1994790  -0.4335404 SPIN=   0.00000
   O  -0.4178886   0.4122651  -0.3433646 SPIN=   0.00000
   O  -0.5254590   0.1506795  -0.2778015 SPIN=   0.00000
   S  -0.2908537   0.2578217  -0.3095894 SPIN=   0.00000
   F   0.1980029  -0.0124070  -0.0884693 SPIN=   0.00000
   F  -0.1980029   0.4875930   0.0884693 SPIN=   0.00000
   F  -0.1824728  -0.1205311  -0.4165755 SPIN=   0.00000
   F   0.1824728   0.3794689   0.4165755 SPIN=   0.00000
%ENDBLOCK POSITIONS_FRAC

# Note: total spin =  16.00

KPOINTS_MP_SPACING 0.07

%BLOCK SPECIES_POT
QC5
%ENDBLOCK SPECIES_POT

SNAP_TO_SYMMETRY
SYMMETRY_GENERATE

