#              Generated by Buildcell
#
# at 15:24:21 (GMT+1.0) 18th August 2020
# in /lustre/scratch/uccabz1/launch_tmp
# on node-c12o-024
# by uccabz1
#
# compiler GCC version 4.9.2
# options -cpp -iprefix /lustre/shared/ucl/apps/gcc/4.9.2/bin/../lib/gcc/x86_64-unknown-linux-gnu/4.9.2/ -mtune=corei7 -march=x86-64 -g -Og
#
# seed    76394017   371888321   674216003  1731075268    66388543   668239113   204809114  -108690878  -878223280  1185346420 -1831081926   328021541
#
#      Author: C. J. Pickard (cjp20@cam.ac.uk)
#                Space group: I41
#

%BLOCK LATTICE_ABC
      8.16186      8.16186      8.32843
    119.34056    119.34056     90.00000
%ENDBLOCK LATTICE_ABC

%BLOCK POSITIONS_FRAC
  Li   0.3045954   0.3747751   0.3862381 SPIN=   0.00000
  Li   0.0816427   0.0114629   0.3862381 SPIN=   0.00000
  Li   0.1247751   0.3316427  -0.1137619 SPIN=   0.00000
  Li  -0.2385371  -0.4454046  -0.1137619 SPIN=   0.00000
  Fe  -0.1887574   0.0927376   0.0541110 SPIN=   4.00000
  Fe   0.2428684  -0.0386266   0.0541110 SPIN=   4.00000
  Fe  -0.1572624   0.4928684  -0.4458890 SPIN=   4.00000
  Fe  -0.2886266   0.0612426  -0.4458890 SPIN=   4.00000
   O  -0.0575208  -0.1497924   0.5156606 SPIN=   0.00000
   O   0.0361782  -0.2666890   0.2459242 SPIN=   0.00000
   O  -0.2998413  -0.4221800   0.1210449 SPIN=   0.00000
   O  -0.0099596  -0.4790923   0.3633187 SPIN=   0.00000
   S  -0.0827859  -0.3294384   0.3114871 SPIN=   0.00000
   O   0.5731815  -0.3345470   0.5156606 SPIN=   0.00000
   O   0.2097460  -0.4873868   0.2459242 SPIN=   0.00000
   O   0.4208862  -0.4567750   0.1210449 SPIN=   0.00000
   O   0.3732783  -0.1575889   0.3633187 SPIN=   0.00000
   S   0.3942730  -0.3590744   0.3114871 SPIN=   0.00000
   O   0.6002076  -0.1768185   0.0156606 SPIN=   0.00000
   O   0.4833110  -0.5402540  -0.2540758 SPIN=   0.00000
   O   0.3278200  -0.3291138  -0.3789551 SPIN=   0.00000
   O   0.2709077  -0.3767217  -0.1366813 SPIN=   0.00000
   S   0.4205616  -0.3557270  -0.1885129 SPIN=   0.00000
   O   0.4154530   0.1924792   0.0156606 SPIN=   0.00000
   O   0.2626132   0.2861782  -0.2540758 SPIN=   0.00000
   O   0.2932250  -0.0498413  -0.3789551 SPIN=   0.00000
   O   0.5924111   0.2400404  -0.1366813 SPIN=   0.00000
   S   0.3909256   0.1672141  -0.1885129 SPIN=   0.00000
   F  -0.0255187  -0.2786525  -0.1071781 SPIN=   0.00000
   F  -0.0816594   0.1714744  -0.1071781 SPIN=   0.00000
   F   0.4713475   0.1683406   0.3928219 SPIN=   0.00000
   F  -0.0785256   0.2244813   0.3928219 SPIN=   0.00000
%ENDBLOCK POSITIONS_FRAC

# Note: total spin =  16.00

KPOINTS_MP_SPACING 0.07

%BLOCK SPECIES_POT
QC5
%ENDBLOCK SPECIES_POT

SNAP_TO_SYMMETRY
SYMMETRY_GENERATE

