#              Generated by Buildcell
#
# at 09:50:09 (GMT+1.0) 4th August 2020
# in /lustre/scratch/uccabz1/launch_tmp
# on node-c12e-018
# by uccabz1
#
# compiler GCC version 4.9.2
# options -cpp -iprefix /lustre/shared/ucl/apps/gcc/4.9.2/bin/../lib/gcc/x86_64-unknown-linux-gnu/4.9.2/ -mtune=corei7 -march=x86-64 -g -Og
#
# seed   611226811 -1394377404 -2039759155 -1541339116 -1933489072   992375523  1259689815  1090092506 -2028253229   415821111  -848222657  1277684571
#
#      Author: C. J. Pickard (cjp20@cam.ac.uk)
#                Space group: P21
#

%BLOCK LATTICE_ABC
      6.29888      7.68987      8.47014
     90.00000    102.84854     90.00000
%ENDBLOCK LATTICE_ABC

%BLOCK POSITIONS_FRAC
  Li  -0.3187293   0.4278311  -0.0052535 SPIN=   0.00000
  Li   0.3187293  -0.0721689   0.0052535 SPIN=   0.00000
  Li  -0.2510699   0.1592223   0.3620786 SPIN=   0.00000
  Li   0.2510699  -0.3407777  -0.3620786 SPIN=   0.00000
  Fe   0.4791275  -0.3042995   0.3092636 SPIN=   4.37107
  Fe  -0.4791275   0.1957005  -0.3092636 SPIN=   4.37107
  Fe  -0.2615289  -0.2004588  -0.0781728 SPIN=   3.62893
  Fe   0.2615289   0.2995412   0.0781728 SPIN=   3.62893
   O  -0.0509902  -0.1968548   0.1638542 SPIN=   0.00000
   O   0.3077292  -0.0524215   0.2463096 SPIN=   0.00000
   O   0.0199559   0.0064734   0.3961579 SPIN=   0.00000
   O  -0.0174830   0.1187270   0.1174766 SPIN=   0.00000
   S   0.0648030  -0.0310190   0.2309496 SPIN=   0.00000
   O   0.0509902   0.3031452  -0.1638542 SPIN=   0.00000
   O  -0.3077292   0.4475785  -0.2463096 SPIN=   0.00000
   O  -0.0199559   0.5064734  -0.3961579 SPIN=   0.00000
   O   0.0174830   0.6187270  -0.1174766 SPIN=   0.00000
   S  -0.0648030   0.4689810  -0.2309496 SPIN=   0.00000
   O   0.2643628   0.0011255  -0.3144962 SPIN=   0.00000
   O  -0.0495977  -0.2003478  -0.3764033 SPIN=   0.00000
   O  -0.1102759   0.1176214  -0.3966146 SPIN=   0.00000
   O   0.0137142  -0.0205284  -0.1279948 SPIN=   0.00000
   S   0.0295509  -0.0255323  -0.3038772 SPIN=   0.00000
   O  -0.2643628   0.5011255   0.3144962 SPIN=   0.00000
   O   0.0495977   0.2996522   0.3764033 SPIN=   0.00000
   O   0.1102759   0.6176214   0.3966146 SPIN=   0.00000
   O  -0.0137142   0.4794716   0.1279948 SPIN=   0.00000
   S  -0.0295509   0.4744677   0.3038772 SPIN=   0.00000
   F   0.4911440   0.2327453  -0.0643958 SPIN=   0.00000
   F  -0.4911440  -0.2672547   0.0643958 SPIN=   0.00000
   F  -0.4894621   0.2603873   0.4430954 SPIN=   0.00000
   F   0.4894621  -0.2396127  -0.4430954 SPIN=   0.00000
%ENDBLOCK POSITIONS_FRAC

# Note: total spin =  16.00

KPOINTS_MP_SPACING 0.07

%BLOCK SPECIES_POT
QC5
%ENDBLOCK SPECIES_POT

SNAP_TO_SYMMETRY
SYMMETRY_GENERATE

