#              Generated by Buildcell
#
# at 07:38:12 (GMT+1.0) 4th August 2020
# in /lustre/scratch/uccabz1/launch_tmp
# on node-c12p-021
# by uccabz1
#
# compiler GCC version 4.9.2
# options -cpp -iprefix /lustre/shared/ucl/apps/gcc/4.9.2/bin/../lib/gcc/x86_64-unknown-linux-gnu/4.9.2/ -mtune=corei7 -march=x86-64 -g -Og
#
# seed  1606523016  -717161285  -663239809   734202855  1128390529  1593898986  1072098690  -709235603  -907472218  1330278300   189978162 -1894209672
#
#      Author: C. J. Pickard (cjp20@cam.ac.uk)
#                Space group: P21
#

%BLOCK LATTICE_ABC
      6.73147      7.39966      8.03167
     90.00000     90.00000     91.00872
%ENDBLOCK LATTICE_ABC

%BLOCK POSITIONS_FRAC
  Li   0.4023141   0.2722374  -0.0366185 SPIN=   0.00000
  Li  -0.4023141  -0.2722374   0.4633815 SPIN=   0.00000
  Li  -0.3733322   0.2415251   0.4780083 SPIN=   0.00000
  Li   0.3733322  -0.2415251  -0.0219917 SPIN=   0.00000
  Fe   0.1527128   0.2550074   0.2851512 SPIN=   4.30679
  Fe  -0.1527128  -0.2550074  -0.2148488 SPIN=   4.30679
  Fe   0.3214698   0.0074217  -0.3262683 SPIN=   3.69321
  Fe  -0.3214698  -0.0074217   0.1737317 SPIN=   3.69321
   O  -0.4402957  -0.2735464   0.1688593 SPIN=   0.00000
   O  -0.4391042  -0.6042621   0.2146965 SPIN=   0.00000
   O  -0.1230888  -0.4375327   0.1633444 SPIN=   0.00000
   O  -0.3663673  -0.4794450  -0.0650471 SPIN=   0.00000
   S  -0.3422140  -0.4486966   0.1204633 SPIN=   0.00000
   O   0.4402957   0.2735464  -0.3311407 SPIN=   0.00000
   O   0.4391042   0.6042621  -0.2853035 SPIN=   0.00000
   O   0.1230888   0.4375327  -0.3366556 SPIN=   0.00000
   O   0.3663673   0.4794450  -0.5650471 SPIN=   0.00000
   S   0.3422140   0.4486966  -0.3795367 SPIN=   0.00000
   O  -0.0439299  -0.3152220   0.4717326 SPIN=   0.00000
   O   0.2628328  -0.2611847   0.3079636 SPIN=   0.00000
   O   0.1138412  -0.0106456   0.4662738 SPIN=   0.00000
   O  -0.0545842  -0.1310886   0.2147544 SPIN=   0.00000
   S   0.0695400  -0.1795352   0.3651811 SPIN=   0.00000
   O   0.0439299   0.3152220  -0.0282674 SPIN=   0.00000
   O  -0.2628328   0.2611847  -0.1920364 SPIN=   0.00000
   O  -0.1138412   0.0106456  -0.0337262 SPIN=   0.00000
   O   0.0545842   0.1310886  -0.2852456 SPIN=   0.00000
   S  -0.0695400   0.1795352  -0.1348189 SPIN=   0.00000
   F  -0.1018679   0.2988380   0.4299136 SPIN=   0.00000
   F   0.1018679  -0.2988380  -0.0700864 SPIN=   0.00000
   F   0.3938861   0.0908083   0.1232107 SPIN=   0.00000
   F  -0.3938861  -0.0908083  -0.3767893 SPIN=   0.00000
%ENDBLOCK POSITIONS_FRAC

# Note: total spin =  16.00

KPOINTS_MP_SPACING 0.07

%BLOCK SPECIES_POT
QC5
%ENDBLOCK SPECIES_POT

SNAP_TO_SYMMETRY
SYMMETRY_GENERATE

