#              Generated by Buildcell
#
# at 06:23:58 (GMT+1.0) 4th August 2020
# in /lustre/scratch/uccabz1/launch_tmp
# on node-c12l-012
# by uccabz1
#
# compiler GCC version 4.9.2
# options -cpp -iprefix /lustre/shared/ucl/apps/gcc/4.9.2/bin/../lib/gcc/x86_64-unknown-linux-gnu/4.9.2/ -mtune=corei7 -march=x86-64 -g -Og
#
# seed  -602462947 -1366326365   358174019    74544276  -228002128   153969414  -293451256  1380995432  1124194823   533918021 -1020850583   516529112
#
#      Author: C. J. Pickard (cjp20@cam.ac.uk)
#                Space group: Pca21
#

%BLOCK LATTICE_ABC
      6.06746      7.56450      8.71511
     90.00000     90.00000     90.00000
%ENDBLOCK LATTICE_ABC

%BLOCK POSITIONS_FRAC
  Li   0.4111971  -0.0603067  -0.4563630 SPIN=   0.00000
  Li  -0.4111971   0.0603067   0.0436370 SPIN=   0.00000
  Li  -0.4111971   0.4396933  -0.4563630 SPIN=   0.00000
  Li   0.4111971  -0.4396933   0.0436370 SPIN=   0.00000
  Fe   0.2633985   0.2500032   0.2983405 SPIN=   4.00000
  Fe  -0.2633985  -0.2500032  -0.2016595 SPIN=   4.00000
  Fe  -0.2633985  -0.2499968   0.2983405 SPIN=   4.00000
  Fe   0.2633985   0.2499968  -0.2016595 SPIN=   4.00000
   O  -0.0323130  -0.4517214  -0.2894978 SPIN=   0.00000
   O   0.2015742  -0.6236487  -0.4679866 SPIN=   0.00000
   O   0.1920517  -0.2971605  -0.4850609 SPIN=   0.00000
   O  -0.1329233  -0.4726710  -0.5640972 SPIN=   0.00000
   S   0.0570974  -0.4613004  -0.4516606 SPIN=   0.00000
   O   0.0323130   0.4517214   0.2105022 SPIN=   0.00000
   O  -0.2015742   0.6236487   0.0320134 SPIN=   0.00000
   O  -0.1920517   0.2971605   0.0149391 SPIN=   0.00000
   O   0.1329233   0.4726710  -0.0640972 SPIN=   0.00000
   S  -0.0570974   0.4613004   0.0483394 SPIN=   0.00000
   O   0.0323130   0.0482786  -0.2894978 SPIN=   0.00000
   O  -0.2015742  -0.1236487  -0.4679866 SPIN=   0.00000
   O  -0.1920517   0.2028395  -0.4850609 SPIN=   0.00000
   O   0.1329233   0.0273290  -0.5640972 SPIN=   0.00000
   S  -0.0570974   0.0386996  -0.4516606 SPIN=   0.00000
   O  -0.0323130  -0.0482786   0.2105022 SPIN=   0.00000
   O   0.2015742   0.1236487   0.0320134 SPIN=   0.00000
   O   0.1920517  -0.2028395   0.0149391 SPIN=   0.00000
   O  -0.1329233  -0.0273290  -0.0640972 SPIN=   0.00000
   S   0.0570974  -0.0386996   0.0483394 SPIN=   0.00000
   F   0.4603787  -0.1661372  -0.2550561 SPIN=   0.00000
   F  -0.4603787   0.1661372   0.2449439 SPIN=   0.00000
   F  -0.4603787   0.3338628  -0.2550561 SPIN=   0.00000
   F   0.4603787  -0.3338628   0.2449439 SPIN=   0.00000
%ENDBLOCK POSITIONS_FRAC

# Note: total spin =  16.00

KPOINTS_MP_SPACING 0.07

%BLOCK SPECIES_POT
QC5
%ENDBLOCK SPECIES_POT

SNAP_TO_SYMMETRY
SYMMETRY_GENERATE

