#              Generated by Buildcell
#
# at 05:51:34 (GMT+1.0) 4th August 2020
# in /lustre/scratch/uccabz1/launch_tmp
# on node-c12c-021
# by uccabz1
#
# compiler GCC version 4.9.2
# options -cpp -iprefix /lustre/shared/ucl/apps/gcc/4.9.2/bin/../lib/gcc/x86_64-unknown-linux-gnu/4.9.2/ -mtune=corei7 -march=x86-64 -g -Og
#
# seed  -869083190  -484857726 -2132037240   673438618  2129260335 -1472373203  -603410630  1651418135  1835726859 -2079093689   734852279  -459419157
#
#      Author: C. J. Pickard (cjp20@cam.ac.uk)
#                Space group: Pba2
#

%BLOCK LATTICE_ABC
      6.04635      7.90626      8.36749
     90.00000     90.00000     90.00000
%ENDBLOCK LATTICE_ABC

%BLOCK POSITIONS_FRAC
  Li  -0.1789738   0.4872774  -0.2363841 SPIN=   0.00000
  Li  -0.1789738  -0.4872774   0.2363841 SPIN=   0.00000
  Li  -0.1789738  -0.0127226  -0.2636159 SPIN=   0.00000
  Li  -0.1789738   0.0127226   0.2636159 SPIN=   0.00000
  Fe   0.0615829  -0.2663077  -0.0124525 SPIN=   4.00000
  Fe   0.0615829   0.2663077   0.0124525 SPIN=   4.00000
  Fe   0.0615829   0.2336923  -0.4875475 SPIN=   4.00000
  Fe   0.0615829  -0.2336923   0.4875475 SPIN=   4.00000
   O   0.3632292  -0.1334774  -0.3906458 SPIN=   0.00000
   O   0.1305615  -0.0448544  -0.1621660 SPIN=   0.00000
   O   0.3569235   0.1665633  -0.3064601 SPIN=   0.00000
   O   0.5382141  -0.0481596  -0.1357057 SPIN=   0.00000
   S   0.3472321  -0.0149820  -0.2487444 SPIN=   0.00000
   O   0.3632292   0.1334774   0.3906458 SPIN=   0.00000
   O   0.1305615   0.0448544   0.1621660 SPIN=   0.00000
   O   0.3569235  -0.1665633   0.3064601 SPIN=   0.00000
   O   0.5382141   0.0481596   0.1357057 SPIN=   0.00000
   S   0.3472321   0.0149820   0.2487444 SPIN=   0.00000
   O   0.3632292   0.3665226  -0.1093542 SPIN=   0.00000
   O   0.1305615   0.4551456  -0.3378340 SPIN=   0.00000
   O   0.3569235   0.6665633  -0.1935399 SPIN=   0.00000
   O   0.5382141   0.4518404  -0.3642943 SPIN=   0.00000
   S   0.3472321   0.4850180  -0.2512556 SPIN=   0.00000
   O   0.3632292  -0.3665226   0.1093542 SPIN=   0.00000
   O   0.1305615  -0.4551456   0.3378340 SPIN=   0.00000
   O   0.3569235  -0.6665633   0.1935399 SPIN=   0.00000
   O   0.5382141  -0.4518404   0.3642943 SPIN=   0.00000
   S   0.3472321  -0.4850180   0.2512556 SPIN=   0.00000
   F  -0.1527894   0.2645657   0.3269107 SPIN=   0.00000
   F  -0.1527894  -0.2645657  -0.3269107 SPIN=   0.00000
   F  -0.1527894  -0.2354343   0.1730893 SPIN=   0.00000
   F  -0.1527894   0.2354343  -0.1730893 SPIN=   0.00000
%ENDBLOCK POSITIONS_FRAC

# Note: total spin =  16.00

KPOINTS_MP_SPACING 0.07

%BLOCK SPECIES_POT
QC5
%ENDBLOCK SPECIES_POT

SNAP_TO_SYMMETRY
SYMMETRY_GENERATE

