#              Generated by Buildcell
#
# at 05:57:47 (GMT+1.0) 4th August 2020
# in /lustre/scratch/uccabz1/launch_tmp
# on node-c12g-030
# by uccabz1
#
# compiler GCC version 4.9.2
# options -cpp -iprefix /lustre/shared/ucl/apps/gcc/4.9.2/bin/../lib/gcc/x86_64-unknown-linux-gnu/4.9.2/ -mtune=corei7 -march=x86-64 -g -Og
#
# seed -1303367199 -1056779972  -320440266  -598872717  -782369345 -1850301076 -2093310715  1697659378  -319375166  -323887725  1694667104  1077954266
#
#      Author: C. J. Pickard (cjp20@cam.ac.uk)
#                Space group: P21
#

%BLOCK LATTICE_ABC
      7.12474      7.41146      8.15274
     90.00000    111.69789     90.00000
%ENDBLOCK LATTICE_ABC

%BLOCK POSITIONS_FRAC
  Li  -0.1655686  -0.2423557   0.0943869 SPIN=   0.00000
  Li   0.1655686   0.2576443  -0.0943869 SPIN=   0.00000
  Li  -0.2874924  -0.0130175  -0.3333811 SPIN=   0.00000
  Li   0.2874924   0.4869825   0.3333811 SPIN=   0.00000
  Fe   0.3357929  -0.2280900  -0.3681500 SPIN=   5.80397
  Fe  -0.3357929   0.2719100   0.3681500 SPIN=   5.80397
  Fe   0.1777340   0.0233698   0.2100290 SPIN=   2.19603
  Fe  -0.1777340  -0.4766302  -0.2100290 SPIN=   2.19603
   O  -0.3406077  -0.3824260   0.4444743 SPIN=   0.00000
   O  -0.1928586  -0.1162348   0.3536481 SPIN=   0.00000
   O  -0.1060865  -0.4238359   0.2868571 SPIN=   0.00000
   O   0.0227902  -0.3130114   0.5950482 SPIN=   0.00000
   S  -0.1541907  -0.3088770   0.4200069 SPIN=   0.00000
   O   0.3406077   0.1175740  -0.4444743 SPIN=   0.00000
   O   0.1928586   0.3837652  -0.3536481 SPIN=   0.00000
   O   0.1060865   0.0761641  -0.2868571 SPIN=   0.00000
   O  -0.0227902   0.1869886  -0.5950482 SPIN=   0.00000
   S   0.1541907   0.1911230  -0.4200069 SPIN=   0.00000
   O   0.5365640   0.4811420   0.1709103 SPIN=   0.00000
   O   0.4659423   0.3014704  -0.1012746 SPIN=   0.00000
   O   0.6233321   0.6031828  -0.0746944 SPIN=   0.00000
   O   0.2651705   0.5755648  -0.1070925 SPIN=   0.00000
   S   0.4727522   0.4903400  -0.0280378 SPIN=   0.00000
   O  -0.5365640  -0.0188580  -0.1709103 SPIN=   0.00000
   O  -0.4659423  -0.1985296   0.1012746 SPIN=   0.00000
   O  -0.6233321   0.1031828   0.0746944 SPIN=   0.00000
   O  -0.2651705   0.0755648   0.1070925 SPIN=   0.00000
   S  -0.4727522  -0.0096600   0.0280378 SPIN=   0.00000
   F  -0.0558437  -0.1518297  -0.1197351 SPIN=   0.00000
   F   0.0558437   0.3481703   0.1197351 SPIN=   0.00000
   F   0.3209622  -0.1843653   0.3595704 SPIN=   0.00000
   F  -0.3209622   0.3156347  -0.3595704 SPIN=   0.00000
%ENDBLOCK POSITIONS_FRAC

# Note: total spin =  16.00

KPOINTS_MP_SPACING 0.07

%BLOCK SPECIES_POT
QC5
%ENDBLOCK SPECIES_POT

SNAP_TO_SYMMETRY
SYMMETRY_GENERATE

