#              Generated by Buildcell
#
# at 08:19:23 (GMT+1.0) 4th August 2020
# in /lustre/scratch/uccabz1/launch_tmp
# on node-c12m-029
# by uccabz1
#
# compiler GCC version 4.9.2
# options -cpp -iprefix /lustre/shared/ucl/apps/gcc/4.9.2/bin/../lib/gcc/x86_64-unknown-linux-gnu/4.9.2/ -mtune=corei7 -march=x86-64 -g -Og
#
# seed  1352747230  -101205936   100010896   538531410 -1785459392  -380153396 -2044346979  -574718264 -1823890877 -2129432746  -990173303   300587127
#
#      Author: C. J. Pickard (cjp20@cam.ac.uk)
#                Space group: P21/m
#

%BLOCK LATTICE_ABC
      5.32204      8.46613      9.13183
     90.00000     90.00000    103.55062
%ENDBLOCK LATTICE_ABC

%BLOCK POSITIONS_FRAC
  Li  -0.1966372   0.1372885   0.4455786 SPIN=   0.00000
  Li   0.1966372  -0.1372885  -0.0544214 SPIN=   0.00000
  Li   0.1966372  -0.1372885  -0.4455786 SPIN=   0.00000
  Li  -0.1966372   0.1372885   0.0544214 SPIN=   0.00000
  Fe  -0.0000000  -0.5000000   0.0000000 SPIN=   5.47642
  Fe   0.0000000   0.5000000   0.5000000 SPIN=   5.47642
  Fe  -0.3140974  -0.0105355  -0.2500000 SPIN=   2.52358
  Fe   0.3140974   0.0105355   0.2500000 SPIN=   2.52358
   O   0.5499770   0.1405730  -0.1124620 SPIN=   0.00000
   O   0.4471835   0.2588749   0.1215304 SPIN=   0.00000
   O   0.1221525   0.2026410  -0.0771566 SPIN=   0.00000
   O   0.5128933   0.4263980  -0.1035226 SPIN=   0.00000
   S   0.4080515   0.2571217  -0.0429027 SPIN=   0.00000
   O  -0.5499770  -0.1405730   0.3875380 SPIN=   0.00000
   O  -0.4471835  -0.2588749   0.6215304 SPIN=   0.00000
   O  -0.1221525  -0.2026410   0.4228434 SPIN=   0.00000
   O  -0.5128933  -0.4263980   0.3964774 SPIN=   0.00000
   S  -0.4080515  -0.2571217   0.4570973 SPIN=   0.00000
   O  -0.5499770  -0.1405730   0.1124620 SPIN=   0.00000
   O  -0.4471835  -0.2588749  -0.1215304 SPIN=   0.00000
   O  -0.1221525  -0.2026410   0.0771566 SPIN=   0.00000
   O  -0.5128933  -0.4263980   0.1035226 SPIN=   0.00000
   S  -0.4080515  -0.2571217   0.0429027 SPIN=   0.00000
   O   0.5499770   0.1405730  -0.3875380 SPIN=   0.00000
   O   0.4471835   0.2588749  -0.6215304 SPIN=   0.00000
   O   0.1221525   0.2026410  -0.4228434 SPIN=   0.00000
   O   0.5128933   0.4263980  -0.3964774 SPIN=   0.00000
   S   0.4080515   0.2571217  -0.4570973 SPIN=   0.00000
   F  -0.0473537   0.0787556   0.2500000 SPIN=   0.00000
   F   0.0473537  -0.0787556  -0.2500000 SPIN=   0.00000
   F   0.0244336  -0.4364176   0.2500000 SPIN=   0.00000
   F  -0.0244336   0.4364176  -0.2500000 SPIN=   0.00000
%ENDBLOCK POSITIONS_FRAC

# Note: total spin =  16.00

KPOINTS_MP_SPACING 0.07

%BLOCK SPECIES_POT
QC5
%ENDBLOCK SPECIES_POT

SNAP_TO_SYMMETRY
SYMMETRY_GENERATE

