#              Generated by Buildcell
#
# at 16:33:22 (GMT+1.0) 18th August 2020
# in /scratch/scratch/uccabz1/launch_tmp
# on node-k10h-011
# by uccabz1
#
# compiler GCC version 4.9.2
# options -cpp -iprefix /scratch/UCL/applications/gcc/4.9.2/bin/../lib/gcc/x86_64-unknown-linux-gnu/4.9.2/ -mtune=corei7 -march=x86-64 -g -O2
#
# seed   426644130  1654252649   517100496  -744679113   661007421    46504851   818557283  1861631263   404508971  2125109664 -1785555343  1765529409
#
#      Author: C. J. Pickard (cjp20@cam.ac.uk)
#                Space group: P2/c
#

%BLOCK LATTICE_ABC
      4.58180      6.11543     14.42366
     98.21404     90.00000     90.00000
%ENDBLOCK LATTICE_ABC

%BLOCK POSITIONS_FRAC
  Li   0.2633102   0.2704526   0.3181660 SPIN=   0.00000
  Li   0.2633102  -0.2704526   0.1818340 SPIN=   0.00000
  Li  -0.2633102  -0.2704526  -0.3181660 SPIN=   0.00000
  Li  -0.2633102   0.2704526  -0.1818340 SPIN=   0.00000
  Fe  -0.2548332  -0.8502155  -0.4106679 SPIN=   4.00000
  Fe  -0.2548332  -0.1497845  -0.0893321 SPIN=   4.00000
  Fe   0.2548332   0.8502155   0.4106679 SPIN=   4.00000
  Fe   0.2548332   0.1497845   0.0893321 SPIN=   4.00000
   O  -0.4332038   0.6566341   0.0522037 SPIN=   0.00000
   O   0.0681969   0.5297744   0.0797179 SPIN=   0.00000
   O  -0.3558269   0.3029950   0.1133319 SPIN=   0.00000
   S  -0.2438626   0.5366761   0.1148580 SPIN=   0.00000
   O  -0.4332038   0.3433659   0.4477963 SPIN=   0.00000
   O   0.0681969   0.4702256   0.4202821 SPIN=   0.00000
   O  -0.3558269   0.6970050   0.3866681 SPIN=   0.00000
   S  -0.2438626   0.4633239   0.3851420 SPIN=   0.00000
   O   0.4332038  -0.6566341  -0.0522037 SPIN=   0.00000
   O  -0.0681969  -0.5297744  -0.0797179 SPIN=   0.00000
   O   0.3558269  -0.3029950  -0.1133319 SPIN=   0.00000
   S   0.2438626  -0.5366761  -0.1148580 SPIN=   0.00000
   O   0.4332038  -0.3433659  -0.4477963 SPIN=   0.00000
   O  -0.0681969  -0.4702256  -0.4202821 SPIN=   0.00000
   O   0.3558269  -0.6970050  -0.3866681 SPIN=   0.00000
   S   0.2438626  -0.4633239  -0.3851420 SPIN=   0.00000
   O   0.0859658  -0.5000000  -0.2500000 SPIN=   0.00000
   O  -0.0859658   0.5000000   0.2500000 SPIN=   0.00000
   O  -0.4176565  -0.5000000  -0.2500000 SPIN=   0.00000
   O   0.4176565   0.5000000   0.2500000 SPIN=   0.00000
   F   0.0000000  -0.0000000  -0.0000000 SPIN=   0.00000
   F   0.0000000   0.0000000  -0.5000000 SPIN=   0.00000
   F   0.3936513   0.0000000   0.2500000 SPIN=   0.00000
   F  -0.3936513  -0.0000000  -0.2500000 SPIN=   0.00000
%ENDBLOCK POSITIONS_FRAC

# Note: total spin =  16.00

KPOINTS_MP_SPACING 0.07

%BLOCK SPECIES_POT
QC5
%ENDBLOCK SPECIES_POT

SNAP_TO_SYMMETRY
SYMMETRY_GENERATE

