#              Generated by Buildcell
#
# at 07:36:20 (GMT+1.0) 4th August 2020
# in /lustre/scratch/uccabz1/launch_tmp
# on node-c12l-016
# by uccabz1
#
# compiler GCC version 4.9.2
# options -cpp -iprefix /lustre/shared/ucl/apps/gcc/4.9.2/bin/../lib/gcc/x86_64-unknown-linux-gnu/4.9.2/ -mtune=corei7 -march=x86-64 -g -Og
#
# seed  1389893391   726319628  1009534181  1648397680  1663926889 -1728874677 -1503512646  2031775604  1895404661  1719167315 -1510986038  1157146214
#
#      Author: C. J. Pickard (cjp20@cam.ac.uk)
#                Space group: P-1
#

%BLOCK LATTICE_ABC
      4.85734      9.59114      9.92551
    118.00237     97.61098     94.03844
%ENDBLOCK LATTICE_ABC

%BLOCK POSITIONS_FRAC
  Li   0.2829544  -0.4967348  -0.3355718 SPIN=   0.00000
  Li  -0.2829544   0.4967348   0.3355718 SPIN=   0.00000
  Li  -0.4397646  -0.0044570  -0.2585170 SPIN=   0.00000
  Li   0.4397646   0.0044570   0.2585170 SPIN=   0.00000
  Fe  -0.2034428   0.1704801   0.0843060 SPIN=   1.52020
  Fe   0.2034428  -0.1704801  -0.0843060 SPIN=   1.52020
  Fe  -0.3331611   0.2760002  -0.3211846 SPIN=   6.47980
  Fe   0.3331611  -0.2760002   0.3211846 SPIN=   6.47980
   O  -0.5140222  -0.2621723   0.0564830 SPIN=   0.00000
   O  -0.2661170  -0.4829336   0.0456929 SPIN=   0.00000
   O  -0.1245245  -0.2106349   0.2696143 SPIN=   0.00000
   O  -0.0247013  -0.2687387   0.0117250 SPIN=   0.00000
   S  -0.2323413  -0.3061199   0.0958788 SPIN=   0.00000
   O   0.5140222   0.2621723  -0.0564830 SPIN=   0.00000
   O   0.2661170   0.4829336  -0.0456929 SPIN=   0.00000
   O   0.1245245   0.2106349  -0.2696143 SPIN=   0.00000
   O   0.0247013   0.2687387  -0.0117250 SPIN=   0.00000
   S   0.2323413   0.3061199  -0.0958788 SPIN=   0.00000
   O  -0.1818590  -0.3004121  -0.4659914 SPIN=   0.00000
   O   0.2519121  -0.1481454  -0.4652717 SPIN=   0.00000
   O   0.0419604  -0.0504153  -0.2289314 SPIN=   0.00000
   O  -0.1967933  -0.0400213  -0.4596238 SPIN=   0.00000
   S  -0.0211950  -0.1347485  -0.4049546 SPIN=   0.00000
   O   0.1818590   0.3004121   0.4659914 SPIN=   0.00000
   O  -0.2519121   0.1481454   0.4652717 SPIN=   0.00000
   O  -0.0419604   0.0504153   0.2289314 SPIN=   0.00000
   O   0.1967933   0.0400213   0.4596238 SPIN=   0.00000
   S   0.0211950   0.1347485   0.4049546 SPIN=   0.00000
   F   0.1375774  -0.4805072   0.2904876 SPIN=   0.00000
   F  -0.1375774   0.4805072  -0.2904876 SPIN=   0.00000
   F  -0.4625584  -0.1736317  -0.1683430 SPIN=   0.00000
   F   0.4625584   0.1736317   0.1683430 SPIN=   0.00000
%ENDBLOCK POSITIONS_FRAC

# Note: total spin =  16.00

KPOINTS_MP_SPACING 0.07

%BLOCK SPECIES_POT
QC5
%ENDBLOCK SPECIES_POT

SNAP_TO_SYMMETRY
SYMMETRY_GENERATE

