#              Generated by Buildcell
#
# at 06:16:49 (GMT+1.0) 4th August 2020
# in /lustre/scratch/uccabz1/launch_tmp
# on node-c12c-019
# by uccabz1
#
# compiler GCC version 4.9.2
# options -cpp -iprefix /lustre/shared/ucl/apps/gcc/4.9.2/bin/../lib/gcc/x86_64-unknown-linux-gnu/4.9.2/ -mtune=corei7 -march=x86-64 -g -Og
#
# seed  1032531734  1318623635  -489048096  -963152280  1614947211   777898319  -153969200    51482979  1408231102  -941933316    -7899241   826319003
#
#      Author: C. J. Pickard (cjp20@cam.ac.uk)
#                Space group: P-1
#

%BLOCK LATTICE_ABC
      5.89126      6.48895     10.95910
    102.64680    101.18641     91.46706
%ENDBLOCK LATTICE_ABC

%BLOCK POSITIONS_FRAC
  Li   0.2816391   0.4075496   0.0795516 SPIN=   0.00000
  Li  -0.2816391  -0.4075496  -0.0795516 SPIN=   0.00000
  Li  -0.2328390  -0.1675603  -0.4610566 SPIN=   0.00000
  Li   0.2328390   0.1675603   0.4610566 SPIN=   0.00000
  Fe   0.2192600  -0.2951480  -0.2465711 SPIN=   4.98157
  Fe  -0.2192600   0.2951480   0.2465711 SPIN=   4.98157
  Fe  -0.2305655   0.0315981  -0.1332023 SPIN=   3.01843
  Fe   0.2305655  -0.0315981   0.1332023 SPIN=   3.01843
   O   0.0906685  -0.1553815   0.4989696 SPIN=   0.00000
   O   0.3160743  -0.4520079   0.5518628 SPIN=   0.00000
   O   0.4534734  -0.2292199   0.4204093 SPIN=   0.00000
   O   0.1039778  -0.4758173   0.3303981 SPIN=   0.00000
   S   0.2410485  -0.3281066   0.4504099 SPIN=   0.00000
   O  -0.0906685   0.1553815  -0.4989696 SPIN=   0.00000
   O  -0.3160743   0.4520079  -0.5518628 SPIN=   0.00000
   O  -0.4534734   0.2292199  -0.4204093 SPIN=   0.00000
   O  -0.1039778   0.4758173  -0.3303981 SPIN=   0.00000
   S  -0.2410485   0.3281066  -0.4504099 SPIN=   0.00000
   O   0.0044705   0.2704265  -0.1848278 SPIN=   0.00000
   O   0.2781373   0.1134538  -0.3183543 SPIN=   0.00000
   O   0.3398424   0.0928439  -0.0915605 SPIN=   0.00000
   O   0.4021818   0.4367943  -0.1470517 SPIN=   0.00000
   S   0.2561580   0.2283796  -0.1854486 SPIN=   0.00000
   O  -0.0044705  -0.2704265   0.1848278 SPIN=   0.00000
   O  -0.2781373  -0.1134538   0.3183543 SPIN=   0.00000
   O  -0.3398424  -0.0928439   0.0915605 SPIN=   0.00000
   O  -0.4021818  -0.4367943   0.1470517 SPIN=   0.00000
   S  -0.2561580  -0.2283796   0.1854486 SPIN=   0.00000
   F   0.4099245   0.2344919   0.2257005 SPIN=   0.00000
   F  -0.4099245  -0.2344919  -0.2257005 SPIN=   0.00000
   F   0.1631696  -0.2404688  -0.0226250 SPIN=   0.00000
   F  -0.1631696   0.2404688   0.0226250 SPIN=   0.00000
%ENDBLOCK POSITIONS_FRAC

# Note: total spin =  16.00

KPOINTS_MP_SPACING 0.07

%BLOCK SPECIES_POT
QC5
%ENDBLOCK SPECIES_POT

SNAP_TO_SYMMETRY
SYMMETRY_GENERATE

