#              Generated by Buildcell
#
# at 08:12:45 (GMT+1.0) 4th August 2020
# in /lustre/scratch/uccabz1/launch_tmp
# on node-c12l-027
# by uccabz1
#
# compiler GCC version 4.9.2
# options -cpp -iprefix /lustre/shared/ucl/apps/gcc/4.9.2/bin/../lib/gcc/x86_64-unknown-linux-gnu/4.9.2/ -mtune=corei7 -march=x86-64 -g -Og
#
# seed  1253047284  1763296208 -1370095440 -1498659126   260805209 -1268780588   893754621  1369602170 -1709333966  1925143638 -1816519676  -411177493
#
#      Author: C. J. Pickard (cjp20@cam.ac.uk)
#                Space group: I-4
#

%BLOCK LATTICE_ABC
      8.06852      8.06852      8.06852
    106.17048    106.17048    116.29592
%ENDBLOCK LATTICE_ABC

%BLOCK POSITIONS_FRAC
  Li  -0.3807532  -0.1082350   0.2354339 SPIN=   0.00000
  Li  -0.3436689   0.3838129  -0.2354339 SPIN=   0.00000
  Li  -0.3838129   0.3807532   0.2725182 SPIN=   0.00000
  Li   0.1082350   0.3436689  -0.2725182 SPIN=   0.00000
  Fe  -0.2141814   0.1797701   0.0133078 SPIN=   4.00000
  Fe   0.1664623  -0.2274892  -0.0133078 SPIN=   4.00000
  Fe   0.2274892   0.2141814   0.3939515 SPIN=   4.00000
  Fe  -0.1797701  -0.1664623  -0.3939515 SPIN=   4.00000
   O   0.2411676  -0.1004052  -0.2063239 SPIN=   0.00000
   O   0.4886921   0.2847088  -0.0279304 SPIN=   0.00000
   O   0.1541543   0.1195532  -0.3194478 SPIN=   0.00000
   O   0.4340855   0.0861422  -0.3558337 SPIN=   0.00000
   S   0.3295248   0.0974998  -0.2273840 SPIN=   0.00000
   O   0.1059187  -0.5525085   0.2063239 SPIN=   0.00000
   O   0.3126393  -0.4833775   0.0279304 SPIN=   0.00000
   O   0.4390010  -0.5263979   0.3194478 SPIN=   0.00000
   O   0.4419759  -0.2100808   0.3558337 SPIN=   0.00000
   S   0.3248837  -0.4430912   0.2273840 SPIN=   0.00000
   O   0.5525085  -0.2411676  -0.3415728 SPIN=   0.00000
   O   0.4833775  -0.4886921  -0.2039832 SPIN=   0.00000
   O   0.5263979  -0.1541543  -0.0346010 SPIN=   0.00000
   O   0.2100808  -0.4340855  -0.3479432 SPIN=   0.00000
   S   0.4430912  -0.3295248  -0.2320251 SPIN=   0.00000
   O   0.1004052  -0.1059187   0.3415728 SPIN=   0.00000
   O  -0.2847088  -0.3126393   0.2039832 SPIN=   0.00000
   O  -0.1195532  -0.4390010   0.0346010 SPIN=   0.00000
   O  -0.0861422  -0.4419759   0.3479432 SPIN=   0.00000
   S  -0.0974998  -0.3248837   0.2320251 SPIN=   0.00000
   F  -0.2171498  -0.4338016  -0.3848807 SPIN=   0.00000
   F  -0.0489209   0.1677310   0.3848807 SPIN=   0.00000
   F  -0.1677310   0.2171498  -0.2166518 SPIN=   0.00000
   F   0.4338016   0.0489209   0.2166518 SPIN=   0.00000
%ENDBLOCK POSITIONS_FRAC

# Note: total spin =  16.00

KPOINTS_MP_SPACING 0.07

%BLOCK SPECIES_POT
QC5
%ENDBLOCK SPECIES_POT

SNAP_TO_SYMMETRY
SYMMETRY_GENERATE

