#              Generated by Buildcell
#
# at 06:22:15 (GMT+1.0) 4th August 2020
# in /lustre/scratch/uccabz1/launch_tmp
# on node-c12d-010
# by uccabz1
#
# compiler GCC version 4.9.2
# options -cpp -iprefix /lustre/shared/ucl/apps/gcc/4.9.2/bin/../lib/gcc/x86_64-unknown-linux-gnu/4.9.2/ -mtune=corei7 -march=x86-64 -g -Og
#
# seed  1140349625  1141954508  -146300257  -410959676  1076223501  1626581902   162139167   525773915  -885150492   322963311   192022748  1270448466
#
#      Author: C. J. Pickard (cjp20@cam.ac.uk)
#                Space group: Pc
#

%BLOCK LATTICE_ABC
      4.19623      7.97598     12.30741
    103.81579     90.00000     90.00000
%ENDBLOCK LATTICE_ABC

%BLOCK POSITIONS_FRAC
  Li  -0.2997992   0.3681576   0.1168652 SPIN=   0.00000
  Li   0.2997992   0.3681576  -0.3831348 SPIN=   0.00000
  Li  -0.1036784  -0.2370599   0.3155126 SPIN=   0.00000
  Li   0.1036784  -0.2370599  -0.1844874 SPIN=   0.00000
  Fe  -0.2161051  -0.2991555  -0.4386116 SPIN=   4.62869
  Fe   0.2161051  -0.2991555   0.0613884 SPIN=   4.62869
  Fe  -0.2002375   0.1231316   0.4762111 SPIN=   3.37131
  Fe   0.2002375   0.1231316  -0.0237889 SPIN=   3.37131
   O  -0.0357527   0.1813115   0.1537581 SPIN=   0.00000
   O  -0.5487471   0.1200365   0.2356932 SPIN=   0.00000
   O  -0.0474048  -0.0006015   0.2908777 SPIN=   0.00000
   O  -0.2669118  -0.1124105   0.1007037 SPIN=   0.00000
   S  -0.2247041   0.0470840   0.1952582 SPIN=   0.00000
   O   0.0357527   0.1813115  -0.3462419 SPIN=   0.00000
   O   0.5487471   0.1200365  -0.2643068 SPIN=   0.00000
   O   0.0474048  -0.0006015  -0.2091223 SPIN=   0.00000
   O   0.2669118  -0.1124105  -0.3992963 SPIN=   0.00000
   S   0.2247041   0.0470840  -0.3047418 SPIN=   0.00000
   O   0.1861164   0.2458879   0.4301394 SPIN=   0.00000
   O   0.6431363   0.4184886   0.3908377 SPIN=   0.00000
   O   0.1766214   0.5643837   0.4953116 SPIN=   0.00000
   O   0.1296211   0.4264326   0.2932892 SPIN=   0.00000
   S   0.2838738   0.4137982   0.4023945 SPIN=   0.00000
   O  -0.1861164   0.2458879  -0.0698606 SPIN=   0.00000
   O  -0.6431363   0.4184886  -0.1091623 SPIN=   0.00000
   O  -0.1766214   0.5643837  -0.0046884 SPIN=   0.00000
   O  -0.1296211   0.4264326  -0.2067108 SPIN=   0.00000
   S  -0.2838738   0.4137982  -0.0976055 SPIN=   0.00000
   F  -0.2577074  -0.3026249  -0.2858074 SPIN=   0.00000
   F   0.2577074  -0.3026249   0.2141926 SPIN=   0.00000
   F   0.2486233  -0.1168030  -0.0353965 SPIN=   0.00000
   F  -0.2486233  -0.1168030   0.4646035 SPIN=   0.00000
%ENDBLOCK POSITIONS_FRAC

# Note: total spin =  16.00

KPOINTS_MP_SPACING 0.07

%BLOCK SPECIES_POT
QC5
%ENDBLOCK SPECIES_POT

SNAP_TO_SYMMETRY
SYMMETRY_GENERATE

