#              Generated by Buildcell
#
# at 16:28:11 (GMT+1.0) 18th August 2020
# in /lustre/scratch/uccabz1/launch_tmp
# on node-c12o-001
# by uccabz1
#
# compiler GCC version 4.9.2
# options -cpp -iprefix /lustre/shared/ucl/apps/gcc/4.9.2/bin/../lib/gcc/x86_64-unknown-linux-gnu/4.9.2/ -mtune=corei7 -march=x86-64 -g -Og
#
# seed    71877088   649476829   108726402 -1124954796  1454511328 -1296378454    30994600  1995200157  -301046024  -611093084   -35537129    85210978
#
#      Author: C. J. Pickard (cjp20@cam.ac.uk)
#                Space group: Cm
#

%BLOCK LATTICE_ABC
      7.27528      7.81318      8.67280
    113.40677    111.24231     97.28495
%ENDBLOCK LATTICE_ABC

%BLOCK POSITIONS_FRAC
  Li   0.0432677   0.3712685   0.4893038 SPIN=   0.00000
  Li  -0.4460362  -0.1180353  -0.4893038 SPIN=   0.00000
  Li  -0.4359971  -0.6650779  -0.4950829 SPIN=   0.00000
  Li   0.0590858   0.8300050   0.4950829 SPIN=   0.00000
  Fe  -0.1425390  -0.2522306  -0.2603078 SPIN=   4.40088
  Fe   0.1177688   0.0080773   0.2603078 SPIN=   4.40088
  Fe  -0.0439104   0.2298186  -0.2624120 SPIN=   3.59912
  Fe   0.2185016   0.4922306   0.2624120 SPIN=   3.59912
   O   0.3397224  -0.2502373  -0.4179734 SPIN=   0.00000
   O   0.2906698  -0.2803008  -0.1608950 SPIN=   0.00000
   O   0.6337606  -0.2510515  -0.1601408 SPIN=   0.00000
   O   0.3384416  -0.5563075  -0.3953879 SPIN=   0.00000
   S   0.4006486  -0.3344743  -0.2835993 SPIN=   0.00000
   O  -0.2423042   0.1677361   0.4179734 SPIN=   0.00000
   O  -0.5484352  -0.1194058   0.1608950 SPIN=   0.00000
   O  -0.2060986  -0.0909107   0.1601408 SPIN=   0.00000
   O  -0.2661705  -0.1609196   0.3953879 SPIN=   0.00000
   S  -0.3157521  -0.0508750   0.2835993 SPIN=   0.00000
   O  -0.3185362   0.1097770  -0.2478740 SPIN=   0.00000
   O  -0.6337347   0.1313621  -0.4685896 SPIN=   0.00000
   O  -0.3813745   0.4304515  -0.1742121 SPIN=   0.00000
   O  -0.6009956   0.1728850  -0.1606655 SPIN=   0.00000
   S  -0.4836603   0.2111189  -0.2628353 SPIN=   0.00000
   O  -0.0706622   0.3576510   0.2478740 SPIN=   0.00000
   O  -0.1651451   0.5999517   0.4685896 SPIN=   0.00000
   O  -0.2071624   0.6046636   0.1742121 SPIN=   0.00000
   O  -0.4403300   0.3335505   0.1606655 SPIN=   0.00000
   S  -0.2208249   0.4739542   0.2628353 SPIN=   0.00000
   F   0.3010223   0.2492049   0.2724832 SPIN=   0.00000
   F   0.0285391  -0.0232784  -0.2724832 SPIN=   0.00000
   F  -0.0795827  -0.5122904  -0.2719858 SPIN=   0.00000
   F   0.1924031   0.7596954   0.2719858 SPIN=   0.00000
%ENDBLOCK POSITIONS_FRAC

# Note: total spin =  16.00

KPOINTS_MP_SPACING 0.07

%BLOCK SPECIES_POT
QC5
%ENDBLOCK SPECIES_POT

SNAP_TO_SYMMETRY
SYMMETRY_GENERATE

