#              Generated by Buildcell
#
# at 06:37:34 (GMT+1.0) 18th August 2020
# in /lustre/scratch/uccabz1/launch_tmp
# on node-c12m-026
# by uccabz1
#
# compiler GCC version 4.9.2
# options -cpp -iprefix /lustre/shared/ucl/apps/gcc/4.9.2/bin/../lib/gcc/x86_64-unknown-linux-gnu/4.9.2/ -mtune=corei7 -march=x86-64 -g -Og
#
# seed -1213226516    74861027  1884794740  1484607170  1374072768 -1210394106  1388670241 -1884885968  1391849227  1425445570  2071590352 -1909610761
#
#      Author: C. J. Pickard (cjp20@cam.ac.uk)
#                Space group: Cm
#

%BLOCK LATTICE_ABC
      7.52662      8.03660      8.03660
     77.31250     65.19520     65.19520
%ENDBLOCK LATTICE_ABC

%BLOCK POSITIONS_FRAC
  Li   0.3535555   0.2940439  -0.1230016 SPIN=   0.00000
  Li   0.3535555  -0.1230016   0.2940439 SPIN=   0.00000
  Li   0.1041194   0.2437144  -0.3969890 SPIN=   0.00000
  Li   0.1041194  -0.3969890   0.2437144 SPIN=   0.00000
  Fe  -0.1818752   0.0874132  -0.4278896 SPIN=   5.16842
  Fe  -0.1818752  -0.4278896   0.0874132 SPIN=   5.16842
  Fe   0.0263766   0.0795533   0.0795533 SPIN=   1.36680
  Fe   0.3873855   0.4955785   0.4955785 SPIN=   4.29636
   O  -0.3943181  -0.0126443   0.2193560 SPIN=   0.00000
   O  -0.0573417  -0.1153965   0.2642770 SPIN=   0.00000
   O  -0.0681646  -0.2241741   0.0047314 SPIN=   0.00000
   O  -0.2326515  -0.3344399   0.3228913 SPIN=   0.00000
   O  -0.3943181   0.2193560  -0.0126443 SPIN=   0.00000
   O  -0.0573417   0.2642770  -0.1153965 SPIN=   0.00000
   O  -0.0681646   0.0047314  -0.2241741 SPIN=   0.00000
   O  -0.2326515   0.3228913  -0.3344399 SPIN=   0.00000
   O  -0.2238072  -0.2094269  -0.4390192 SPIN=   0.00000
   O  -0.6051479  -0.0516426  -0.3780173 SPIN=   0.00000
   O  -0.3596119   0.1073740  -0.5664399 SPIN=   0.00000
   O  -0.4374328   0.0489342  -0.2324820 SPIN=   0.00000
   O  -0.2238072  -0.4390192  -0.2094269 SPIN=   0.00000
   O  -0.6051479  -0.3780173  -0.0516426 SPIN=   0.00000
   O  -0.3596119  -0.5664399   0.1073740 SPIN=   0.00000
   O  -0.4374328  -0.2324820   0.0489342 SPIN=   0.00000
   S  -0.4776113  -0.1039789  -0.1039789 SPIN=   0.00000
   S   0.1076950  -0.1997849  -0.1997849 SPIN=   0.00000
   S  -0.4715161   0.2031592   0.2031592 SPIN=   0.00000
   S  -0.2249949  -0.4620912  -0.4620912 SPIN=   0.00000
   F   0.2949405  -0.3446441   0.3038164 SPIN=   0.00000
   F   0.2949405   0.3038164  -0.3446441 SPIN=   0.00000
   F   0.0969078   0.1000033   0.4438765 SPIN=   0.00000
   F   0.0969078   0.4438765   0.1000033 SPIN=   0.00000
%ENDBLOCK POSITIONS_FRAC

# Note: total spin =  16.00

KPOINTS_MP_SPACING 0.07

%BLOCK SPECIES_POT
QC5
%ENDBLOCK SPECIES_POT

SNAP_TO_SYMMETRY
SYMMETRY_GENERATE

