#              Generated by Buildcell
#
# at 06:51:36 (GMT+1.0) 4th August 2020
# in /lustre/scratch/uccabz1/launch_tmp
# on node-c12p-031
# by uccabz1
#
# compiler GCC version 4.9.2
# options -cpp -iprefix /lustre/shared/ucl/apps/gcc/4.9.2/bin/../lib/gcc/x86_64-unknown-linux-gnu/4.9.2/ -mtune=corei7 -march=x86-64 -g -Og
#
# seed   615238089 -2147089405 -1994459864   434136512 -1605285427  -430220186  -238119736 -1330039014  -780374947 -1179916840  1079104338   353525829
#
#      Author: C. J. Pickard (cjp20@cam.ac.uk)
#                Space group: P21
#

%BLOCK LATTICE_ABC
      5.74154      7.19901      9.68286
     91.92242     90.00000     90.00000
%ENDBLOCK LATTICE_ABC

%BLOCK POSITIONS_FRAC
  Li   0.0083186  -0.2613427   0.3642891 SPIN=   0.00000
  Li  -0.4916814   0.2613427  -0.3642891 SPIN=   0.00000
  Li  -0.4334598   0.2748818   0.1265682 SPIN=   0.00000
  Li   0.0665402  -0.2748818  -0.1265682 SPIN=   0.00000
  Fe   0.0226999   0.0830545   0.0971378 SPIN=   4.95624
  Fe  -0.4773001  -0.0830545  -0.0971378 SPIN=   4.95624
  Fe  -0.0113320   0.3780223  -0.4350852 SPIN=   3.04376
  Fe   0.4886680  -0.3780223   0.4350852 SPIN=   3.04376
   O   0.4283988  -0.2184170   0.0947911 SPIN=   0.00000
   O   0.0430859  -0.3276653   0.1729203 SPIN=   0.00000
   O   0.3948874  -0.5174415   0.2120855 SPIN=   0.00000
   O   0.2400313  -0.4880259  -0.0247068 SPIN=   0.00000
   S   0.2766008  -0.3878874   0.1137725 SPIN=   0.00000
   O  -0.0716012   0.2184170  -0.0947911 SPIN=   0.00000
   O  -0.4569141   0.3276653  -0.1729203 SPIN=   0.00000
   O  -0.1051126   0.5174415  -0.2120855 SPIN=   0.00000
   O  -0.2599687   0.4880259   0.0247068 SPIN=   0.00000
   S  -0.2233992   0.3878874  -0.1137725 SPIN=   0.00000
   O  -0.3820703  -0.1749895  -0.3389891 SPIN=   0.00000
   O  -0.1251811   0.1001002  -0.3136267 SPIN=   0.00000
   O  -0.1781257  -0.0559897  -0.5431077 SPIN=   0.00000
   O   0.0450483  -0.2113262  -0.3612588 SPIN=   0.00000
   S  -0.1600822  -0.0855513  -0.3892456 SPIN=   0.00000
   O   0.1179297   0.1749895   0.3389891 SPIN=   0.00000
   O   0.3748189  -0.1001002   0.3136267 SPIN=   0.00000
   O   0.3218743   0.0559897   0.5431077 SPIN=   0.00000
   O   0.5450483   0.2113262   0.3612588 SPIN=   0.00000
   S   0.3399178   0.0855513   0.3892456 SPIN=   0.00000
   F   0.2983831   0.4668817  -0.3894410 SPIN=   0.00000
   F  -0.2016169  -0.4668817   0.3894410 SPIN=   0.00000
   F  -0.1628400  -0.1452227  -0.0390476 SPIN=   0.00000
   F   0.3371600   0.1452227   0.0390476 SPIN=   0.00000
%ENDBLOCK POSITIONS_FRAC

# Note: total spin =  16.00

KPOINTS_MP_SPACING 0.07

%BLOCK SPECIES_POT
QC5
%ENDBLOCK SPECIES_POT

SNAP_TO_SYMMETRY
SYMMETRY_GENERATE

