#              Generated by Buildcell
#
# at 00:50:19 (GMT+1.0) 18th August 2020
# in /lustre/scratch/uccabz1/launch_tmp
# on node-c12o-008
# by uccabz1
#
# compiler GCC version 4.9.2
# options -cpp -iprefix /lustre/shared/ucl/apps/gcc/4.9.2/bin/../lib/gcc/x86_64-unknown-linux-gnu/4.9.2/ -mtune=corei7 -march=x86-64 -g -Og
#
# seed   902180682  1470039902  -515664661 -1739162287 -1616696635 -1301540431  -903097767  2116146883   647680213  1349095196 -1033469423 -1483196005
#
#      Author: C. J. Pickard (cjp20@cam.ac.uk)
#                Space group: P-1
#

%BLOCK LATTICE_ABC
      5.35935      8.70876      9.78761
     65.53902     82.84106     74.16342
%ENDBLOCK LATTICE_ABC

%BLOCK POSITIONS_FRAC
  Li   0.1480697  -0.1219716  -0.2988099 SPIN=   0.00000
  Li  -0.1480697   0.1219716   0.2988099 SPIN=   0.00000
  Li   0.7804191  -0.4932274  -0.1490316 SPIN=   0.00000
  Li  -0.7804191   0.4932274   0.1490316 SPIN=   0.00000
  Fe   0.6831341  -0.3597254  -0.4789202 SPIN=   1.10410
  Fe  -0.6831341   0.3597254   0.4789202 SPIN=   1.10410
  Fe   0.0844531  -0.1697034   0.1897407 SPIN=   6.89590
  Fe  -0.0844531   0.1697034  -0.1897407 SPIN=   6.89590
   O   0.7188988  -0.3715789   0.0358172 SPIN=   0.00000
   O   0.4612968  -0.3418928   0.2555798 SPIN=   0.00000
   O   0.9399731  -0.4015328   0.2561560 SPIN=   0.00000
   O   0.7308007  -0.6300479   0.2742354 SPIN=   0.00000
   S   0.7127424  -0.4362631   0.2054471 SPIN=   0.00000
   O  -0.7188988   0.3715789  -0.0358172 SPIN=   0.00000
   O  -0.4612968   0.3418928  -0.2555798 SPIN=   0.00000
   O  -0.9399731   0.4015328  -0.2561560 SPIN=   0.00000
   O  -0.7308007   0.6300479  -0.2742354 SPIN=   0.00000
   S  -0.7127424   0.4362631  -0.2054471 SPIN=   0.00000
   O  -0.2136498  -0.0398174  -0.1963369 SPIN=   0.00000
   O  -0.6759446   0.0215100  -0.2544711 SPIN=   0.00000
   O  -0.3667407  -0.2445493  -0.2613453 SPIN=   0.00000
   O  -0.3430373   0.0441754  -0.4565946 SPIN=   0.00000
   S  -0.3998431  -0.0546703  -0.2921870 SPIN=   0.00000
   O   0.2136498   0.0398174   0.1963369 SPIN=   0.00000
   O   0.6759446  -0.0215100   0.2544711 SPIN=   0.00000
   O   0.3667407   0.2445493   0.2613453 SPIN=   0.00000
   O   0.3430373  -0.0441754   0.4565946 SPIN=   0.00000
   S   0.3998431   0.0546703   0.2921870 SPIN=   0.00000
   F   0.0480885  -0.2726579   0.4474567 SPIN=   0.00000
   F  -0.0480885   0.2726579  -0.4474567 SPIN=   0.00000
   F   0.1992912  -0.2810962  -0.0321160 SPIN=   0.00000
   F  -0.1992912   0.2810962   0.0321160 SPIN=   0.00000
%ENDBLOCK POSITIONS_FRAC

# Note: total spin =  16.00

KPOINTS_MP_SPACING 0.07

%BLOCK SPECIES_POT
QC5
%ENDBLOCK SPECIES_POT

SNAP_TO_SYMMETRY
SYMMETRY_GENERATE

