#              Generated by Buildcell
#
# at 06:14:18 (GMT+1.0) 4th August 2020
# in /lustre/scratch/uccabz1/launch_tmp
# on node-c12g-031
# by uccabz1
#
# compiler GCC version 4.9.2
# options -cpp -iprefix /lustre/shared/ucl/apps/gcc/4.9.2/bin/../lib/gcc/x86_64-unknown-linux-gnu/4.9.2/ -mtune=corei7 -march=x86-64 -g -Og
#
# seed   459101442  2140354793  -318925963  -806390926   733957636 -1619243253 -1319506584   550747135  -986345071 -1916531462   166217321  1832193586
#
#      Author: C. J. Pickard (cjp20@cam.ac.uk)
#                Space group: Pc
#

%BLOCK LATTICE_ABC
      5.84043      8.44612      8.86009
    113.76487     90.00000     90.00000
%ENDBLOCK LATTICE_ABC

%BLOCK POSITIONS_FRAC
  Li  -0.1445695  -0.4423175   0.2433499 SPIN=   0.00000
  Li   0.1445695   0.0576825   0.2433499 SPIN=   0.00000
  Li  -0.4182228   0.4077768  -0.1723155 SPIN=   0.00000
  Li   0.4182228  -0.0922232  -0.1723155 SPIN=   0.00000
  Fe  -0.4159048  -0.4060752  -0.4578954 SPIN=   5.12885
  Fe   0.4159048   0.0939248  -0.4578954 SPIN=   5.12885
  Fe  -0.3812638   0.1334621   0.1550500 SPIN=   2.87115
  Fe   0.3812638  -0.3665379   0.1550500 SPIN=   2.87115
   O   0.1224414  -0.3201252   0.0038257 SPIN=   0.00000
   O  -0.2909690  -0.3836168   0.0057444 SPIN=   0.00000
   O  -0.1643157  -0.1224937  -0.0323420 SPIN=   0.00000
   O  -0.1195121  -0.1379982   0.2391348 SPIN=   0.00000
   S  -0.1130889  -0.2410584   0.0540907 SPIN=   0.00000
   O  -0.1224414   0.1798748   0.0038257 SPIN=   0.00000
   O   0.2909690   0.1163832   0.0057444 SPIN=   0.00000
   O   0.1643157   0.3775063  -0.0323420 SPIN=   0.00000
   O   0.1195121   0.3620018   0.2391348 SPIN=   0.00000
   S   0.1130889   0.2589416   0.0540907 SPIN=   0.00000
   O   0.1138240  -0.0284912  -0.4189188 SPIN=   0.00000
   O  -0.1418510  -0.2837300  -0.5112866 SPIN=   0.00000
   O   0.0859309  -0.2065769  -0.2559306 SPIN=   0.00000
   O   0.2786266  -0.3234081  -0.5277484 SPIN=   0.00000
   S   0.0841326  -0.2105515  -0.4284711 SPIN=   0.00000
   O  -0.1138240   0.4715088  -0.4189188 SPIN=   0.00000
   O   0.1418510   0.2162700  -0.5112866 SPIN=   0.00000
   O  -0.0859309   0.2934231  -0.2559306 SPIN=   0.00000
   O  -0.2786266   0.1765919  -0.5277484 SPIN=   0.00000
   S  -0.0841326   0.2894485  -0.4284711 SPIN=   0.00000
   F  -0.3875735   0.4123741   0.2771357 SPIN=   0.00000
   F   0.3875735  -0.0876259   0.2771357 SPIN=   0.00000
   F  -0.4158144   0.0209583  -0.2783579 SPIN=   0.00000
   F   0.4158144  -0.4790417  -0.2783579 SPIN=   0.00000
%ENDBLOCK POSITIONS_FRAC

# Note: total spin =  16.00

KPOINTS_MP_SPACING 0.07

%BLOCK SPECIES_POT
QC5
%ENDBLOCK SPECIES_POT

SNAP_TO_SYMMETRY
SYMMETRY_GENERATE

