#              Generated by Buildcell
#
# at 06:46:57 (GMT+1.0) 4th August 2020
# in /lustre/scratch/uccabz1/launch_tmp
# on node-c12f-030
# by uccabz1
#
# compiler GCC version 4.9.2
# options -cpp -iprefix /lustre/shared/ucl/apps/gcc/4.9.2/bin/../lib/gcc/x86_64-unknown-linux-gnu/4.9.2/ -mtune=corei7 -march=x86-64 -g -Og
#
# seed   578150462 -1964936497   700368687  -276068041   406609547 -1194708641  -353101260  1205254215   653150825  1160207982 -1491176754    23704437
#
#      Author: C. J. Pickard (cjp20@cam.ac.uk)
#                Space group: Pc
#

%BLOCK LATTICE_ABC
      3.81733      7.36957     14.45996
     90.00000     90.00000    100.48208
%ENDBLOCK LATTICE_ABC

%BLOCK POSITIONS_FRAC
  Li  -0.0531699  -0.4383795  -0.1055011 SPIN=   0.00000
  Li   0.4468301  -0.4383795   0.1055011 SPIN=   0.00000
  Li  -0.0185420   0.0909950   0.1054244 SPIN=   0.00000
  Li   0.4814580   0.0909950  -0.1054244 SPIN=   0.00000
  Fe   0.4035798  -0.1156445   0.2184751 SPIN=   4.09371
  Fe  -0.0964202  -0.1156445  -0.2184751 SPIN=   4.09371
  Fe   0.3389503   0.3711154  -0.2351267 SPIN=   3.90629
  Fe  -0.1610497   0.3711154   0.2351267 SPIN=   3.90629
   O   0.4541566   0.0874948   0.3822705 SPIN=   0.00000
   O  -0.0182091   0.2455398   0.4422737 SPIN=   0.00000
   O  -0.1334008  -0.0943474   0.4255790 SPIN=   0.00000
   O  -0.0760996   0.1044064   0.2864335 SPIN=   0.00000
   S   0.0566118   0.0857734   0.3841392 SPIN=   0.00000
   O  -0.0458434   0.0874948  -0.3822705 SPIN=   0.00000
   O  -0.5182091   0.2455398  -0.4422737 SPIN=   0.00000
   O  -0.6334008  -0.0943474  -0.4255790 SPIN=   0.00000
   O  -0.5760996   0.1044064  -0.2864335 SPIN=   0.00000
   S  -0.4433882   0.0857734  -0.3841392 SPIN=   0.00000
   O   0.6720736  -0.4939909   0.4545077 SPIN=   0.00000
   O   0.1841146  -0.5384127   0.3394073 SPIN=   0.00000
   O   0.7310134  -0.3077442   0.3110546 SPIN=   0.00000
   O   0.3065609  -0.2522506   0.4326472 SPIN=   0.00000
   S   0.4734406  -0.3980996   0.3844042 SPIN=   0.00000
   O   0.1720736  -0.4939909  -0.4545077 SPIN=   0.00000
   O  -0.3158854  -0.5384127  -0.3394073 SPIN=   0.00000
   O   0.2310134  -0.3077442  -0.3110546 SPIN=   0.00000
   O  -0.1934391  -0.2522506  -0.4326472 SPIN=   0.00000
   S  -0.0265594  -0.3980996  -0.3844042 SPIN=   0.00000
   F   0.1536499  -0.1618737  -0.1088769 SPIN=   0.00000
   F  -0.3463501  -0.1618737   0.1088769 SPIN=   0.00000
   F  -0.0138120   0.3693266   0.1088138 SPIN=   0.00000
   F   0.4861880   0.3693266  -0.1088138 SPIN=   0.00000
%ENDBLOCK POSITIONS_FRAC

# Note: total spin =  16.00

KPOINTS_MP_SPACING 0.07

%BLOCK SPECIES_POT
QC5
%ENDBLOCK SPECIES_POT

SNAP_TO_SYMMETRY
SYMMETRY_GENERATE

