#              Generated by Buildcell
#
# at 10:32:50 (GMT+1.0) 4th August 2020
# in /lustre/scratch/uccabz1/launch_tmp
# on node-c12h-012
# by uccabz1
#
# compiler GCC version 4.9.2
# options -cpp -iprefix /lustre/shared/ucl/apps/gcc/4.9.2/bin/../lib/gcc/x86_64-unknown-linux-gnu/4.9.2/ -mtune=corei7 -march=x86-64 -g -Og
#
# seed -1930214969  1191987562 -1040090137  -446734329  1459230389   286459762 -1397832889 -1421206451 -1056180788  1081046314  1529935549   186823593
#
#      Author: C. J. Pickard (cjp20@cam.ac.uk)
#                Space group: P-1
#

%BLOCK LATTICE_ABC
      5.85234      6.21973     11.47295
    105.23260     92.95461     95.26189
%ENDBLOCK LATTICE_ABC

%BLOCK POSITIONS_FRAC
  Li  -0.3515814   0.3342600   0.1705148 SPIN=   0.00000
  Li   0.3515814  -0.3342600  -0.1705148 SPIN=   0.00000
  Li  -0.0480983  -0.2880590   0.4299468 SPIN=   0.00000
  Li   0.0480983   0.2880590  -0.4299468 SPIN=   0.00000
  Fe  -0.2592568  -0.1311336   0.2251649 SPIN=   5.00955
  Fe   0.2592568   0.1311336  -0.2251649 SPIN=   5.00955
  Fe   0.1638130   0.4511264   0.2091294 SPIN=   2.99045
  Fe  -0.1638130  -0.4511264  -0.2091294 SPIN=   2.99045
   O  -0.0332618   0.2021068   0.0310188 SPIN=   0.00000
   O  -0.4166019   0.3081683  -0.0182948 SPIN=   0.00000
   O  -0.3452062  -0.0907883  -0.0748143 SPIN=   0.00000
   O  -0.1642381   0.1695138  -0.1821002 SPIN=   0.00000
   S  -0.2398270   0.1472501  -0.0610476 SPIN=   0.00000
   O   0.0332618  -0.2021068  -0.0310188 SPIN=   0.00000
   O   0.4166019  -0.3081683   0.0182948 SPIN=   0.00000
   O   0.3452062   0.0907883   0.0748143 SPIN=   0.00000
   O   0.1642381  -0.1695138   0.1821002 SPIN=   0.00000
   S   0.2398270  -0.1472501   0.0610476 SPIN=   0.00000
   O   0.2141234  -0.0022142   0.3908005 SPIN=   0.00000
   O   0.6199488   0.1444817   0.4593816 SPIN=   0.00000
   O   0.3167872   0.4019280   0.4901021 SPIN=   0.00000
   O   0.4310887   0.2374005   0.2835521 SPIN=   0.00000
   S   0.3954870   0.1953990   0.4059591 SPIN=   0.00000
   O  -0.2141234   0.0022142  -0.3908005 SPIN=   0.00000
   O  -0.6199488  -0.1444817  -0.4593816 SPIN=   0.00000
   O  -0.3167872  -0.4019280  -0.4901021 SPIN=   0.00000
   O  -0.4310887  -0.2374005  -0.2835521 SPIN=   0.00000
   S  -0.3954870  -0.1953990  -0.4059591 SPIN=   0.00000
   F   0.1196474  -0.1656520  -0.2446090 SPIN=   0.00000
   F  -0.1196474   0.1656520   0.2446090 SPIN=   0.00000
   F   0.4884369  -0.3498428   0.2819770 SPIN=   0.00000
   F  -0.4884369   0.3498428  -0.2819770 SPIN=   0.00000
%ENDBLOCK POSITIONS_FRAC

# Note: total spin =  16.00

KPOINTS_MP_SPACING 0.07

%BLOCK SPECIES_POT
QC5
%ENDBLOCK SPECIES_POT

SNAP_TO_SYMMETRY
SYMMETRY_GENERATE

