#              Generated by Buildcell
#
# at 17:15:59 (GMT+1.0) 18th August 2020
# in /lustre/scratch/uccabz1/launch_tmp
# on node-c12o-008
# by uccabz1
#
# compiler GCC version 4.9.2
# options -cpp -iprefix /lustre/shared/ucl/apps/gcc/4.9.2/bin/../lib/gcc/x86_64-unknown-linux-gnu/4.9.2/ -mtune=corei7 -march=x86-64 -g -Og
#
# seed  -918943373   193403173   884035340  1636756411   393466101 -1063937930   740130454   708765760 -1718436346  1000003011  1763336107 -2121559875
#
#      Author: C. J. Pickard (cjp20@cam.ac.uk)
#                Space group: P-1
#

%BLOCK LATTICE_ABC
      6.39150      7.45123      9.04656
     87.69978     84.79774     68.79496
%ENDBLOCK LATTICE_ABC

%BLOCK POSITIONS_FRAC
  Li  -0.3771202   0.2755807  -0.3646931 SPIN=   0.00000
  Li   0.3771202  -0.2755807   0.3646931 SPIN=   0.00000
  Li   0.2237718   0.0543297  -0.2515669 SPIN=   0.00000
  Li  -0.2237718  -0.0543297   0.2515669 SPIN=   0.00000
  Fe   0.1913879  -0.2554090   0.0448472 SPIN=   2.55208
  Fe  -0.1913879   0.2554090  -0.0448472 SPIN=   2.55208
  Fe   0.1621124   0.3825115   0.3285873 SPIN=   5.44792
  Fe  -0.1621124  -0.3825115  -0.3285873 SPIN=   5.44792
   O  -0.2389544   0.4670658   0.4051358 SPIN=   0.00000
   O  -0.4411868   0.4542295   0.1874292 SPIN=   0.00000
   O  -0.4766739   0.2675854   0.4146473 SPIN=   0.00000
   O  -0.1174197   0.1696211   0.2566192 SPIN=   0.00000
   S  -0.3185587   0.3396254   0.3159579 SPIN=   0.00000
   O   0.2389544  -0.4670658  -0.4051358 SPIN=   0.00000
   O   0.4411868  -0.4542295  -0.1874292 SPIN=   0.00000
   O   0.4766739  -0.2675854  -0.4146473 SPIN=   0.00000
   O   0.1174197  -0.1696211  -0.2566192 SPIN=   0.00000
   S   0.3185587  -0.3396254  -0.3159579 SPIN=   0.00000
   O   0.5034816   0.1849995   0.0783539 SPIN=   0.00000
   O   0.1946007   0.4785275   0.0045571 SPIN=   0.00000
   O   0.1315704   0.1703292   0.0398428 SPIN=   0.00000
   O   0.3772093   0.2145697  -0.1751323 SPIN=   0.00000
   S   0.3017155   0.2621065  -0.0130946 SPIN=   0.00000
   O  -0.5034816  -0.1849995  -0.0783539 SPIN=   0.00000
   O  -0.1946007  -0.4785275  -0.0045571 SPIN=   0.00000
   O  -0.1315704  -0.1703292  -0.0398428 SPIN=   0.00000
   O  -0.3772093  -0.2145697   0.1751323 SPIN=   0.00000
   S  -0.3017155  -0.2621065   0.0130946 SPIN=   0.00000
   F   0.3017034  -0.0075603   0.3458370 SPIN=   0.00000
   F  -0.3017034   0.0075603  -0.3458370 SPIN=   0.00000
   F  -0.0174781  -0.3082701   0.3619151 SPIN=   0.00000
   F   0.0174781   0.3082701  -0.3619151 SPIN=   0.00000
%ENDBLOCK POSITIONS_FRAC

# Note: total spin =  16.00

KPOINTS_MP_SPACING 0.07

%BLOCK SPECIES_POT
QC5
%ENDBLOCK SPECIES_POT

SNAP_TO_SYMMETRY
SYMMETRY_GENERATE

