#              Generated by Buildcell
#
# at 09:12:28 (GMT+1.0) 4th August 2020
# in /lustre/scratch/uccabz1/launch_tmp
# on node-c12b-034
# by uccabz1
#
# compiler GCC version 4.9.2
# options -cpp -iprefix /lustre/shared/ucl/apps/gcc/4.9.2/bin/../lib/gcc/x86_64-unknown-linux-gnu/4.9.2/ -mtune=corei7 -march=x86-64 -g -Og
#
# seed -1722205760   847348047 -1800884250  1911538108 -1058481489  1919134234   141729866 -1712903133   768435955  1567113226 -1320490404  -212079325
#
#      Author: C. J. Pickard (cjp20@cam.ac.uk)
#                Space group: Iba2
#

%BLOCK LATTICE_ABC
      7.72318      8.17441      8.17441
     74.02123     61.80980     61.80980
%ENDBLOCK LATTICE_ABC

%BLOCK POSITIONS_FRAC
  Li   0.3329901   0.2980495   0.4822182 SPIN=   0.00000
  Li  -0.3329901  -0.4822182  -0.2980495 SPIN=   0.00000
  Li  -0.1132578  -0.2019505  -0.0177818 SPIN=   0.00000
  Li   0.1132578   0.0177818   0.2019505 SPIN=   0.00000
  Fe  -0.2452048   0.4967856   0.0244549 SPIN=   4.00000
  Fe   0.2452048  -0.0244549  -0.4967856 SPIN=   4.00000
  Fe  -0.2760357  -0.0032144  -0.4755451 SPIN=   4.00000
  Fe   0.2760357   0.4755451   0.0032144 SPIN=   4.00000
   O  -0.3402701  -0.4832989   0.4632342 SPIN=   0.00000
   O  -0.4316499  -0.1685899   0.3036310 SPIN=   0.00000
   O  -0.0684408  -0.4158038   0.1673043 SPIN=   0.00000
   O  -0.1794569  -0.2796512   0.4546220 SPIN=   0.00000
   S  -0.2549544  -0.3368359   0.3471979 SPIN=   0.00000
   O   0.3402701  -0.4632342   0.4832989 SPIN=   0.00000
   O   0.4316499  -0.3036310   0.1685899 SPIN=   0.00000
   O   0.0684408  -0.1673043   0.4158038 SPIN=   0.00000
   O   0.1794569  -0.4546220   0.2796512 SPIN=   0.00000
   S   0.2549544  -0.3471979   0.3368359 SPIN=   0.00000
   O   0.3603348   0.0167011  -0.0367658 SPIN=   0.00000
   O   0.2966088   0.3314101  -0.1963690 SPIN=   0.00000
   O   0.3169403   0.0841962  -0.3326957 SPIN=   0.00000
   O   0.0044861   0.2203488  -0.0453780 SPIN=   0.00000
   S   0.2445925   0.1631641  -0.1528021 SPIN=   0.00000
   O  -0.3603348   0.0367658  -0.0167011 SPIN=   0.00000
   O  -0.2966088   0.1963690  -0.3314101 SPIN=   0.00000
   O  -0.3169403   0.3326957  -0.0841962 SPIN=   0.00000
   O  -0.0044861   0.0453780  -0.2203488 SPIN=   0.00000
   S  -0.2445925   0.1528021  -0.1631641 SPIN=   0.00000
   F   0.1223990   0.2244453   0.3986538 SPIN=   0.00000
   F  -0.1223990  -0.3986538  -0.2244453 SPIN=   0.00000
   F   0.2545019  -0.2755547  -0.1013462 SPIN=   0.00000
   F  -0.2545019   0.1013462   0.2755547 SPIN=   0.00000
%ENDBLOCK POSITIONS_FRAC

# Note: total spin =  16.00

KPOINTS_MP_SPACING 0.07

%BLOCK SPECIES_POT
QC5
%ENDBLOCK SPECIES_POT

SNAP_TO_SYMMETRY
SYMMETRY_GENERATE

