#              Generated by Buildcell
#
# at 07:28:06 (GMT+1.0) 4th August 2020
# in /lustre/scratch/uccabz1/launch_tmp
# on node-c12k-001
# by uccabz1
#
# compiler GCC version 4.9.2
# options -cpp -iprefix /lustre/shared/ucl/apps/gcc/4.9.2/bin/../lib/gcc/x86_64-unknown-linux-gnu/4.9.2/ -mtune=corei7 -march=x86-64 -g -Og
#
# seed  -400141736  1469185325   669115606   642534720   761035261 -1121755728 -1139882067  -128309080  -398161576   582997970  -774455954 -1431898670
#
#      Author: C. J. Pickard (cjp20@cam.ac.uk)
#                Space group: Ccc2
#

%BLOCK LATTICE_ABC
      6.54005      6.54005      9.39730
     90.00000     90.00000     95.63587
%ENDBLOCK LATTICE_ABC

%BLOCK POSITIONS_FRAC
  Li   0.0000000   0.5000000  -0.1885256 SPIN=   0.00000
  Li   0.5000000   0.0000000   0.3114744 SPIN=   0.00000
  Li   0.0000000  -0.0000000  -0.0158294 SPIN=   0.00000
  Li   0.0000000   0.0000000   0.4841706 SPIN=   0.00000
  Fe  -0.2787366  -0.1993340  -0.2924589 SPIN=   4.00000
  Fe   0.2787366   0.1993340  -0.2924589 SPIN=   4.00000
  Fe   0.1993340   0.2787366   0.2075411 SPIN=   4.00000
  Fe  -0.1993340  -0.2787366   0.2075411 SPIN=   4.00000
   O  -0.1718723   0.4192121   0.1693096 SPIN=   0.00000
   O  -0.2711241   0.2485001  -0.0589098 SPIN=   0.00000
   O  -0.5140893   0.2247900   0.1436794 SPIN=   0.00000
   O  -0.2018448   0.0398292   0.1522027 SPIN=   0.00000
   S  -0.2897326   0.2330829   0.1015705 SPIN=   0.00000
   O   0.1718723  -0.4192121   0.1693096 SPIN=   0.00000
   O   0.2711241  -0.2485001  -0.0589098 SPIN=   0.00000
   O   0.5140893  -0.2247900   0.1436794 SPIN=   0.00000
   O   0.2018448  -0.0398292   0.1522027 SPIN=   0.00000
   S   0.2897326  -0.2330829   0.1015705 SPIN=   0.00000
   O  -0.4192121   0.1718723  -0.3306904 SPIN=   0.00000
   O  -0.2485001   0.2711241  -0.5589098 SPIN=   0.00000
   O  -0.2247900   0.5140893  -0.3563206 SPIN=   0.00000
   O  -0.0398292   0.2018448  -0.3477973 SPIN=   0.00000
   S  -0.2330829   0.2897326  -0.3984295 SPIN=   0.00000
   O   0.4192121  -0.1718723  -0.3306904 SPIN=   0.00000
   O   0.2485001  -0.2711241  -0.5589098 SPIN=   0.00000
   O   0.2247900  -0.5140893  -0.3563206 SPIN=   0.00000
   O   0.0398292  -0.2018448  -0.3477973 SPIN=   0.00000
   S   0.2330829  -0.2897326  -0.3984295 SPIN=   0.00000
   F  -0.2597524  -0.2072376   0.4082297 SPIN=   0.00000
   F   0.2597524   0.2072376   0.4082297 SPIN=   0.00000
   F   0.2072376   0.2597524  -0.0917703 SPIN=   0.00000
   F  -0.2072376  -0.2597524  -0.0917703 SPIN=   0.00000
%ENDBLOCK POSITIONS_FRAC

# Note: total spin =  16.00

KPOINTS_MP_SPACING 0.07

%BLOCK SPECIES_POT
QC5
%ENDBLOCK SPECIES_POT

SNAP_TO_SYMMETRY
SYMMETRY_GENERATE

