#              Generated by Buildcell
#
# at 07:50:31 (GMT+1.0) 4th August 2020
# in /lustre/scratch/uccabz1/launch_tmp
# on node-c12l-023
# by uccabz1
#
# compiler GCC version 4.9.2
# options -cpp -iprefix /lustre/shared/ucl/apps/gcc/4.9.2/bin/../lib/gcc/x86_64-unknown-linux-gnu/4.9.2/ -mtune=corei7 -march=x86-64 -g -Og
#
# seed  -227415201   901564164  2012686572   116032029 -1027279966  -817850376  1407183911 -2078297495  -950107313   100264058 -1114537593   432509211
#
#      Author: C. J. Pickard (cjp20@cam.ac.uk)
#                Space group: Fdd2
#

%BLOCK LATTICE_ABC
      7.75308      7.75308      8.40282
    112.63844    112.63844     99.53529
%ENDBLOCK LATTICE_ABC

%BLOCK POSITIONS_FRAC
  Li   0.2934438   0.4677159   0.4478030 SPIN=   0.00000
  Li   0.1543591  -0.0199129   0.4478030 SPIN=   0.00000
  Li  -0.2822841   0.0434438  -0.0521970 SPIN=   0.00000
  Li   0.2300871  -0.0956409  -0.0521970 SPIN=   0.00000
  Fe  -0.0227896   0.1115236  -0.2439182 SPIN=   4.00000
  Fe  -0.2211286  -0.3554418  -0.2439182 SPIN=   4.00000
  Fe   0.3615236  -0.2727896   0.2560818 SPIN=   4.00000
  Fe  -0.1054418  -0.4711286   0.2560818 SPIN=   4.00000
   O  -0.3777480   0.0749295  -0.5323003 SPIN=   0.00000
   O  -0.5536447   0.0303320  -0.3516515 SPIN=   0.00000
   O  -0.5774365   0.2825124  -0.4629241 SPIN=   0.00000
   O  -0.2568879   0.3389442  -0.1890813 SPIN=   0.00000
   S  -0.4414293   0.1816795  -0.3839893 SPIN=   0.00000
   O  -0.1545523   0.3927702  -0.5323003 SPIN=   0.00000
   O   0.2019932   0.6180166  -0.3516515 SPIN=   0.00000
   O   0.1145124   0.2545635  -0.4629241 SPIN=   0.00000
   O   0.0678066   0.4719745  -0.1890813 SPIN=   0.00000
   S   0.0574400   0.4343312  -0.3839893 SPIN=   0.00000
   O   0.3249295   0.3722520  -0.0323003 SPIN=   0.00000
   O   0.2803320   0.1963553   0.1483485 SPIN=   0.00000
   O   0.5325124   0.1725635   0.0370759 SPIN=   0.00000
   O   0.5889442   0.4931121   0.3109187 SPIN=   0.00000
   S   0.4316795   0.3085707   0.1160107 SPIN=   0.00000
   O  -0.3572298  -0.4045523  -0.0323003 SPIN=   0.00000
   O  -0.1319834  -0.0480068   0.1483485 SPIN=   0.00000
   O  -0.4954365  -0.1354876   0.0370759 SPIN=   0.00000
   O  -0.2780255  -0.1821934   0.3109187 SPIN=   0.00000
   S  -0.3156688  -0.1925600   0.1160107 SPIN=   0.00000
   F  -0.4495963  -0.2950016  -0.3773459 SPIN=   0.00000
   F   0.0722504  -0.0823443  -0.3773459 SPIN=   0.00000
   F  -0.0450016   0.3004037   0.1226541 SPIN=   0.00000
   F   0.1676557  -0.1777496   0.1226541 SPIN=   0.00000
%ENDBLOCK POSITIONS_FRAC

# Note: total spin =  16.00

KPOINTS_MP_SPACING 0.07

%BLOCK SPECIES_POT
QC5
%ENDBLOCK SPECIES_POT

SNAP_TO_SYMMETRY
SYMMETRY_GENERATE

