#              Generated by Buildcell
#
# at 08:53:45 (GMT+1.0) 4th August 2020
# in /lustre/scratch/uccabz1/launch_tmp
# on node-c12p-025
# by uccabz1
#
# compiler GCC version 4.9.2
# options -cpp -iprefix /lustre/shared/ucl/apps/gcc/4.9.2/bin/../lib/gcc/x86_64-unknown-linux-gnu/4.9.2/ -mtune=corei7 -march=x86-64 -g -Og
#
# seed  1206257476 -1327458101  -783071350 -1526308107 -1053188725   778446955 -1707032269 -1710186791 -1641641280  1781996893 -1317783113  1270601189
#
#      Author: C. J. Pickard (cjp20@cam.ac.uk)
#                Space group: Cc
#

%BLOCK LATTICE_ABC
      5.40482      5.40482     14.41831
     97.11856     99.91608    102.12386
%ENDBLOCK LATTICE_ABC

%BLOCK POSITIONS_FRAC
  Li  -0.4484324   0.3644944  -0.4473782 SPIN=   0.00000
  Li  -0.3118726   0.0010542   0.0526218 SPIN=   0.00000
  Li   0.2003702  -0.2329416   0.3722733 SPIN=   0.00000
  Li   0.1052149   0.1719031  -0.1277267 SPIN=   0.00000
  Fe  -0.0259844   0.1746856   0.4838674 SPIN=   4.01883
  Fe  -0.1908181  -0.4901482  -0.0161326 SPIN=   4.01883
  Fe   0.3768622  -0.2653547   0.1762945 SPIN=   3.98117
  Fe  -0.0583508  -0.2005677  -0.3237055 SPIN=   3.98117
   O   0.0483030  -0.4024487  -0.1848601 SPIN=   0.00000
   O   0.3009025  -0.0592666  -0.0520923 SPIN=   0.00000
   O   0.5108324  -0.2165741  -0.1795749 SPIN=   0.00000
   O   0.3845414  -0.4938476  -0.0630288 SPIN=   0.00000
   S   0.3111448  -0.2930343  -0.1198890 SPIN=   0.00000
   O  -0.2824114  -0.2331631   0.3151399 SPIN=   0.00000
   O  -0.4928256  -0.3529947   0.4479077 SPIN=   0.00000
   O  -0.4630008  -0.6904073   0.3204251 SPIN=   0.00000
   O  -0.0691813  -0.4475702   0.4369712 SPIN=   0.00000
   S  -0.3268548  -0.4310339   0.3801110 SPIN=   0.00000
   O  -0.5014980   0.2129792  -0.1700478 SPIN=   0.00000
   O  -0.1616336   0.1254142  -0.2557010 SPIN=   0.00000
   O  -0.3585470   0.4902963  -0.2843697 SPIN=   0.00000
   O  -0.6143325   0.0446542  -0.3433968 SPIN=   0.00000
   S  -0.4090028   0.2183360  -0.2633788 SPIN=   0.00000
   O   0.1169730   0.3314502   0.3299522 SPIN=   0.00000
   O   0.1188848  -0.0940674   0.2442990 SPIN=   0.00000
   O  -0.2746661   0.0741772   0.2156303 SPIN=   0.00000
   O   0.1119490   0.2709356   0.1566032 SPIN=   0.00000
   S   0.0182852   0.1456239   0.2366212 SPIN=   0.00000
   F  -0.3964139  -0.4841569   0.1069569 SPIN=   0.00000
   F   0.0911138  -0.4966292  -0.3930431 SPIN=   0.00000
   F   0.3115072   0.0268079   0.4763069 SPIN=   0.00000
   F  -0.0505010   0.1647997  -0.0236931 SPIN=   0.00000
%ENDBLOCK POSITIONS_FRAC

# Note: total spin =  16.00

KPOINTS_MP_SPACING 0.07

%BLOCK SPECIES_POT
QC5
%ENDBLOCK SPECIES_POT

SNAP_TO_SYMMETRY
SYMMETRY_GENERATE

