#              Generated by Buildcell
#
# at 05:49:51 (GMT+1.0) 18th August 2020
# in /scratch/scratch/uccabz1/launch_tmp
# on node-k10c-033
# by uccabz1
#
# compiler GCC version 4.9.2
# options -cpp -iprefix /scratch/UCL/applications/gcc/4.9.2/bin/../lib/gcc/x86_64-unknown-linux-gnu/4.9.2/ -mtune=corei7 -march=x86-64 -g -O2
#
# seed  -802736177  1193778851 -1097249676 -1129850848 -2086994092  1332804093  -547055008   865884422 -1872991217  1888760283     1379462  -880969449
#
#      Author: C. J. Pickard (cjp20@cam.ac.uk)
#                Space group: P-1
#

%BLOCK LATTICE_ABC
      4.30453      5.85480     16.02190
     95.32244     95.11599     92.20186
%ENDBLOCK LATTICE_ABC

%BLOCK POSITIONS_FRAC
  Li  -0.2857786   0.1595935   0.1738645 SPIN=   0.00000
  Li   0.2857786  -0.1595935  -0.1738645 SPIN=   0.00000
  Li   0.3032708  -0.3108824   0.2993456 SPIN=   0.00000
  Li  -0.3032708   0.3108824  -0.2993456 SPIN=   0.00000
  Fe   0.2621361  -0.2455509   0.0243196 SPIN=   2.99395
  Fe  -0.2621361   0.2455509  -0.0243196 SPIN=   2.99395
  Fe   0.2710439   0.2496397  -0.4759506 SPIN=   5.00605
  Fe  -0.2710439  -0.2496397   0.4759506 SPIN=   5.00605
   O   0.0843800   0.1297265  -0.2387980 SPIN=   0.00000
   O   0.5606407   0.3694351  -0.1867371 SPIN=   0.00000
   O   0.1543485   0.3006003  -0.0907804 SPIN=   0.00000
   O   0.0513217   0.5490794  -0.2060360 SPIN=   0.00000
   S   0.2126727   0.3372103  -0.1805879 SPIN=   0.00000
   O  -0.0843800  -0.1297265   0.2387980 SPIN=   0.00000
   O  -0.5606407  -0.3694351   0.1867371 SPIN=   0.00000
   O  -0.1543485  -0.3006003   0.0907804 SPIN=   0.00000
   O  -0.0513217  -0.5490794   0.2060360 SPIN=   0.00000
   S  -0.2126727  -0.3372103   0.1805879 SPIN=   0.00000
   O   0.5529872  -0.0100350  -0.2767592 SPIN=   0.00000
   O   0.0471993  -0.2245916  -0.3171819 SPIN=   0.00000
   O   0.5416237  -0.4101182  -0.3425759 SPIN=   0.00000
   O   0.3653460  -0.0986223  -0.4272703 SPIN=   0.00000
   S   0.3767890  -0.1858418  -0.3409468 SPIN=   0.00000
   O  -0.5529872   0.0100350   0.2767592 SPIN=   0.00000
   O  -0.0471993   0.2245916   0.3171819 SPIN=   0.00000
   O  -0.5416237   0.4101182   0.3425759 SPIN=   0.00000
   O  -0.3653460   0.0986223   0.4272703 SPIN=   0.00000
   S  -0.3767890   0.1858418   0.3409468 SPIN=   0.00000
   F  -0.1249994   0.2631022  -0.4170491 SPIN=   0.00000
   F   0.1249994  -0.2631022   0.4170491 SPIN=   0.00000
   F  -0.2846463  -0.1516871  -0.0964500 SPIN=   0.00000
   F   0.2846463   0.1516871   0.0964500 SPIN=   0.00000
%ENDBLOCK POSITIONS_FRAC

# Note: total spin =  16.00

KPOINTS_MP_SPACING 0.07

%BLOCK SPECIES_POT
QC5
%ENDBLOCK SPECIES_POT

SNAP_TO_SYMMETRY
SYMMETRY_GENERATE

