#              Generated by Buildcell
#
# at 06:34:58 (GMT+1.0) 4th August 2020
# in /lustre/scratch/uccabz1/launch_tmp
# on node-c12l-030
# by uccabz1
#
# compiler GCC version 4.9.2
# options -cpp -iprefix /lustre/shared/ucl/apps/gcc/4.9.2/bin/../lib/gcc/x86_64-unknown-linux-gnu/4.9.2/ -mtune=corei7 -march=x86-64 -g -Og
#
# seed   -94940436  -331343255 -1587310325  -830500967  1414934327 -1948761223  1486653533  -993569298  1861788699   638518619   851405612   961616962
#
#      Author: C. J. Pickard (cjp20@cam.ac.uk)
#                Space group: P-1
#

%BLOCK LATTICE_ABC
      6.96747      7.46305      8.28475
    102.18232     97.31272    104.60491
%ENDBLOCK LATTICE_ABC

%BLOCK POSITIONS_FRAC
  Li   0.0152117  -0.4792330   0.2639439 SPIN=   0.00000
  Li  -0.0152117   0.4792330  -0.2639439 SPIN=   0.00000
  Li  -0.5000000   0.0000000  -0.5000000 SPIN=   0.00000
  Li  -0.0000000   0.0000000   0.0000000 SPIN=   0.00000
  Fe   0.3501461  -0.3181492  -0.3561869 SPIN=   5.15424
  Fe  -0.3501461   0.3181492   0.3561869 SPIN=   5.15424
  Fe  -0.2749678   0.1731404  -0.1594505 SPIN=   2.84576
  Fe   0.2749678  -0.1731404   0.1594505 SPIN=   2.84576
   O  -0.0619496   0.0267106  -0.3728009 SPIN=   0.00000
   O  -0.3120450  -0.2378536  -0.5892143 SPIN=   0.00000
   O  -0.3145643  -0.2156232  -0.2872210 SPIN=   0.00000
   O  -0.0370226  -0.3042122  -0.4127700 SPIN=   0.00000
   S  -0.1813954  -0.1827446  -0.4155016 SPIN=   0.00000
   O   0.0619496  -0.0267106   0.3728009 SPIN=   0.00000
   O   0.3120450   0.2378536   0.5892143 SPIN=   0.00000
   O   0.3145643   0.2156232   0.2872210 SPIN=   0.00000
   O   0.0370226   0.3042122   0.4127700 SPIN=   0.00000
   S   0.1813954   0.1827446   0.4155016 SPIN=   0.00000
   O  -0.2141148  -0.0446655   0.1629933 SPIN=   0.00000
   O  -0.1214931  -0.3453786   0.0785825 SPIN=   0.00000
   O  -0.4449803  -0.3166701  -0.0594875 SPIN=   0.00000
   S  -0.2948453  -0.2608436   0.1046981 SPIN=   0.00000
   O   0.2141148   0.0446655  -0.1629933 SPIN=   0.00000
   O   0.1214931   0.3453786  -0.0785825 SPIN=   0.00000
   O   0.4449803   0.3166701   0.0594875 SPIN=   0.00000
   S   0.2948453   0.2608436  -0.1046981 SPIN=   0.00000
   O  -0.5000000   0.0000000  -0.0000000 SPIN=   0.00000
   O   0.5000000   0.5000000   0.5000000 SPIN=   0.00000
   F   0.2588091  -0.2999453   0.4105343 SPIN=   0.00000
   F  -0.2588091   0.2999453  -0.4105343 SPIN=   0.00000
   F   0.1721148  -0.2733579  -0.0813561 SPIN=   0.00000
   F  -0.1721148   0.2733579   0.0813561 SPIN=   0.00000
%ENDBLOCK POSITIONS_FRAC

# Note: total spin =  16.00

KPOINTS_MP_SPACING 0.07

%BLOCK SPECIES_POT
QC5
%ENDBLOCK SPECIES_POT

SNAP_TO_SYMMETRY
SYMMETRY_GENERATE

