#              Generated by Buildcell
#
# at 07:18:19 (GMT+1.0) 4th August 2020
# in /lustre/scratch/uccabz1/launch_tmp
# on node-c12h-033
# by uccabz1
#
# compiler GCC version 4.9.2
# options -cpp -iprefix /lustre/shared/ucl/apps/gcc/4.9.2/bin/../lib/gcc/x86_64-unknown-linux-gnu/4.9.2/ -mtune=corei7 -march=x86-64 -g -Og
#
# seed   148824757   767435892 -1326784259   557259594 -2062069566  1964751702 -1203156868 -1307128741  1464092922  1705218176  1273614431 -1908807547
#
#      Author: C. J. Pickard (cjp20@cam.ac.uk)
#                Space group: P21
#

%BLOCK LATTICE_ABC
      4.64125      7.64086     11.29142
     90.00000     92.65464     90.00000
%ENDBLOCK LATTICE_ABC

%BLOCK POSITIONS_FRAC
  Li   0.1462434   0.2165567  -0.1717930 SPIN=   0.00000
  Li  -0.1462434  -0.2834433   0.1717930 SPIN=   0.00000
  Li  -0.3182191   0.2167495   0.1127918 SPIN=   0.00000
  Li   0.3182191  -0.2832505  -0.1127918 SPIN=   0.00000
  Fe   0.4354512  -0.3621968   0.3692340 SPIN=   4.51372
  Fe  -0.4354512   0.1378032  -0.3692340 SPIN=   4.51372
  Fe   0.0376782   0.2192168   0.3905114 SPIN=   3.48628
  Fe  -0.0376782  -0.2807832  -0.3905114 SPIN=   3.48628
   O  -0.0598017   0.5395667  -0.1634985 SPIN=   0.00000
   O  -0.3314473   0.3997797  -0.0054156 SPIN=   0.00000
   O  -0.2652413   0.2432282  -0.1940994 SPIN=   0.00000
   O  -0.5882409   0.5006524  -0.1899251 SPIN=   0.00000
   S  -0.3111828   0.4208067  -0.1382346 SPIN=   0.00000
   O   0.0598017   0.0395667   0.1634985 SPIN=   0.00000
   O   0.3314473  -0.1002203   0.0054156 SPIN=   0.00000
   O   0.2652413  -0.2567718   0.1940994 SPIN=   0.00000
   O   0.5882409   0.0006524   0.1899251 SPIN=   0.00000
   S   0.3111828  -0.0791933   0.1382346 SPIN=   0.00000
   O   0.0608768   0.3729564   0.2445640 SPIN=   0.00000
   O   0.5138105   0.4931133   0.1704666 SPIN=   0.00000
   O   0.0473552   0.5578629   0.0644361 SPIN=   0.00000
   O   0.2521308   0.2590871   0.0586362 SPIN=   0.00000
   S   0.2185433   0.4207549   0.1345257 SPIN=   0.00000
   O  -0.0608768  -0.1270436  -0.2445640 SPIN=   0.00000
   O  -0.5138105  -0.0068867  -0.1704666 SPIN=   0.00000
   O  -0.0473552   0.0578629  -0.0644361 SPIN=   0.00000
   O  -0.2521308  -0.2409129  -0.0586362 SPIN=   0.00000
   S  -0.2185433  -0.0792451  -0.1345257 SPIN=   0.00000
   F   0.1671139   0.1977964  -0.3418768 SPIN=   0.00000
   F  -0.1671139  -0.3022036   0.3418768 SPIN=   0.00000
   F   0.3639243  -0.3020966  -0.3752877 SPIN=   0.00000
   F  -0.3639243   0.1979034   0.3752877 SPIN=   0.00000
%ENDBLOCK POSITIONS_FRAC

# Note: total spin =  16.00

KPOINTS_MP_SPACING 0.07

%BLOCK SPECIES_POT
QC5
%ENDBLOCK SPECIES_POT

SNAP_TO_SYMMETRY
SYMMETRY_GENERATE

