#              Generated by Buildcell
#
# at 06:20:30 (GMT+1.0) 4th August 2020
# in /lustre/scratch/uccabz1/launch_tmp
# on node-c12j-010
# by uccabz1
#
# compiler GCC version 4.9.2
# options -cpp -iprefix /lustre/shared/ucl/apps/gcc/4.9.2/bin/../lib/gcc/x86_64-unknown-linux-gnu/4.9.2/ -mtune=corei7 -march=x86-64 -g -Og
#
# seed   160404412  1601892128 -1127306284   740096160    81178674 -1014220289  1011021356  -358352410   768557104 -1299221701  1209517096  -212778698
#
#      Author: C. J. Pickard (cjp20@cam.ac.uk)
#                Space group: P-1
#

%BLOCK LATTICE_ABC
      4.59584      8.13276     11.24945
     75.85711     79.50776     83.76521
%ENDBLOCK LATTICE_ABC

%BLOCK POSITIONS_FRAC
  Li   0.2053324   0.3081313  -0.0509976 SPIN=   0.00000
  Li  -0.2053324  -0.3081313   0.0509976 SPIN=   0.00000
  Li  -0.1902760   0.4069967  -0.3333974 SPIN=   0.00000
  Li   0.1902760  -0.4069967   0.3333974 SPIN=   0.00000
  Fe  -0.2697106   0.0389314  -0.3125801 SPIN=   6.85933
  Fe   0.2697106  -0.0389314   0.3125801 SPIN=   6.85933
  Fe   0.1952959  -0.3739356  -0.2583070 SPIN=   1.14067
  Fe  -0.1952959   0.3739356   0.2583070 SPIN=   1.14067
   O  -0.2123575   0.3314909   0.0586342 SPIN=   0.00000
   O  -0.6404319   0.1532556   0.1038654 SPIN=   0.00000
   O  -0.1397815   0.0193437   0.1312421 SPIN=   0.00000
   O  -0.2555072   0.1443610  -0.0799833 SPIN=   0.00000
   S  -0.3120195   0.1621128   0.0534396 SPIN=   0.00000
   O   0.2123575  -0.3314909  -0.0586342 SPIN=   0.00000
   O   0.6404319  -0.1532556  -0.1038654 SPIN=   0.00000
   O   0.1397815  -0.0193437  -0.1312421 SPIN=   0.00000
   O   0.2555072  -0.1443610   0.0799833 SPIN=   0.00000
   S   0.3120195  -0.1621128  -0.0534396 SPIN=   0.00000
   O  -0.0033276  -0.2135199   0.4217185 SPIN=   0.00000
   O  -0.2743339  -0.4715093   0.4529521 SPIN=   0.00000
   O  -0.5520625  -0.1933264   0.4535848 SPIN=   0.00000
   O  -0.2871751  -0.3351832   0.6280834 SPIN=   0.00000
   S  -0.2792248  -0.3033847   0.4890847 SPIN=   0.00000
   O   0.0033276   0.2135199  -0.4217185 SPIN=   0.00000
   O   0.2743339   0.4715093  -0.4529521 SPIN=   0.00000
   O   0.5520625   0.1933264  -0.4535848 SPIN=   0.00000
   O   0.2871751   0.3351832  -0.6280834 SPIN=   0.00000
   S   0.2792248   0.3033847  -0.4890847 SPIN=   0.00000
   F  -0.4294690  -0.3930894   0.2182215 SPIN=   0.00000
   F   0.4294690   0.3930894  -0.2182215 SPIN=   0.00000
   F  -0.1066990   0.1208840   0.3422940 SPIN=   0.00000
   F   0.1066990  -0.1208840  -0.3422940 SPIN=   0.00000
%ENDBLOCK POSITIONS_FRAC

# Note: total spin =  16.00

KPOINTS_MP_SPACING 0.07

%BLOCK SPECIES_POT
QC5
%ENDBLOCK SPECIES_POT

SNAP_TO_SYMMETRY
SYMMETRY_GENERATE

