#              Generated by Buildcell
#
# at 12:05:13 (GMT+1.0) 18th August 2020
# in /lustre/scratch/uccabz1/launch_tmp
# on node-c12l-006
# by uccabz1
#
# compiler GCC version 4.9.2
# options -cpp -iprefix /lustre/shared/ucl/apps/gcc/4.9.2/bin/../lib/gcc/x86_64-unknown-linux-gnu/4.9.2/ -mtune=corei7 -march=x86-64 -g -Og
#
# seed  1789121898 -1238862214  -679101495  -608598305 -1825801854  -709314137 -1105078171   117446640   554405151 -1224317904 -1761561471   292371817
#
#      Author: C. J. Pickard (cjp20@cam.ac.uk)
#                Space group: Cc
#

%BLOCK LATTICE_ABC
      5.74221      9.09165      9.09165
    104.81253    107.39384    107.39384
%ENDBLOCK LATTICE_ABC

%BLOCK POSITIONS_FRAC
  Li  -0.1441604   0.3350318   0.1711891 SPIN=   0.00000
  Li   0.3558396   0.1711891   0.3350318 SPIN=   0.00000
  Li   0.0670369   0.1212780  -0.1387811 SPIN=   0.00000
  Li  -0.4329631  -0.1387811   0.1212780 SPIN=   0.00000
  Fe  -0.0351191   0.2312698  -0.4973806 SPIN=   3.00234
  Fe   0.4648809  -0.4973806   0.2312698 SPIN=   3.00234
  Fe   0.1903752  -0.3120746  -0.4763980 SPIN=   4.99766
  Fe  -0.3096248  -0.4763980  -0.3120746 SPIN=   4.99766
   O   0.0883088  -0.2007236  -0.0761603 SPIN=   0.00000
   O  -0.1842259  -0.2888049   0.0762497 SPIN=   0.00000
   O  -0.0625793  -0.0051795   0.0722359 SPIN=   0.00000
   O   0.2837146  -0.0803716   0.2320082 SPIN=   0.00000
   S   0.0313046  -0.1437699   0.0760834 SPIN=   0.00000
   O  -0.4116912  -0.0761603  -0.2007236 SPIN=   0.00000
   O  -0.6842259   0.0762497  -0.2888049 SPIN=   0.00000
   O  -0.5625793   0.0722359  -0.0051795 SPIN=   0.00000
   O  -0.2162854   0.2320082  -0.0803716 SPIN=   0.00000
   S  -0.4686954   0.0760834  -0.1437699 SPIN=   0.00000
   O   0.4956884  -0.5223526  -0.1464706 SPIN=   0.00000
   O   0.3483529  -0.3722551   0.0502903 SPIN=   0.00000
   O   0.0135989  -0.6083419  -0.2102830 SPIN=   0.00000
   O   0.2708957  -0.3420197  -0.2210966 SPIN=   0.00000
   S   0.2821340  -0.4612423  -0.1318900 SPIN=   0.00000
   O  -0.0043116  -0.1464706  -0.5223526 SPIN=   0.00000
   O  -0.1516471   0.0502903  -0.3722551 SPIN=   0.00000
   O  -0.4864011  -0.2102830  -0.6083419 SPIN=   0.00000
   O  -0.2291043  -0.2210966  -0.3420197 SPIN=   0.00000
   S  -0.2178660  -0.1318900  -0.4612423 SPIN=   0.00000
   F   0.2480339   0.2819469   0.1094718 SPIN=   0.00000
   F  -0.2519661   0.1094718   0.2819469 SPIN=   0.00000
   F  -0.0196696  -0.4193792   0.3008463 SPIN=   0.00000
   F   0.4803304   0.3008463  -0.4193792 SPIN=   0.00000
%ENDBLOCK POSITIONS_FRAC

# Note: total spin =  16.00

KPOINTS_MP_SPACING 0.07

%BLOCK SPECIES_POT
QC5
%ENDBLOCK SPECIES_POT

SNAP_TO_SYMMETRY
SYMMETRY_GENERATE

