#              Generated by Buildcell
#
# at 09:57:59 (GMT+1.0) 4th August 2020
# in /lustre/scratch/uccabz1/launch_tmp
# on node-c12n-013
# by uccabz1
#
# compiler GCC version 4.9.2
# options -cpp -iprefix /lustre/shared/ucl/apps/gcc/4.9.2/bin/../lib/gcc/x86_64-unknown-linux-gnu/4.9.2/ -mtune=corei7 -march=x86-64 -g -Og
#
# seed   254948613   853044562 -1467719894 -1368808784   291614385   301595438 -1594298115   685346562   756714302  1516242342  2111606328   275074695
#
#      Author: C. J. Pickard (cjp20@cam.ac.uk)
#                Space group: P2
#

%BLOCK LATTICE_ABC
      6.09140      7.70226      8.53524
     90.00000     90.00000     92.72454
%ENDBLOCK LATTICE_ABC

%BLOCK POSITIONS_FRAC
  Li   0.2408959   0.3439465  -0.1183167 SPIN=   0.00000
  Li  -0.2408959  -0.3439465  -0.1183167 SPIN=   0.00000
  Li  -0.1558581   0.2731848   0.2392536 SPIN=   0.00000
  Li   0.1558581  -0.2731848   0.2392536 SPIN=   0.00000
  Fe  -0.2374570  -0.1594485  -0.4256303 SPIN=   2.33465
  Fe   0.2374570   0.1594485  -0.4256303 SPIN=   2.33465
  Fe   0.2418088  -0.1327851  -0.0822446 SPIN=   5.66535
  Fe  -0.2418088   0.1327851  -0.0822446 SPIN=   5.66535
   O  -0.3202791   0.5221169  -0.4318010 SPIN=   0.00000
   O  -0.3411098   0.2249638  -0.3207674 SPIN=   0.00000
   O  -0.0192442   0.3239844  -0.4797563 SPIN=   0.00000
   O  -0.3810989   0.2679350  -0.6065174 SPIN=   0.00000
   S  -0.2654330   0.3347500  -0.4597105 SPIN=   0.00000
   O   0.3202791  -0.5221169  -0.4318010 SPIN=   0.00000
   O   0.3411098  -0.2249638  -0.3207674 SPIN=   0.00000
   O   0.0192442  -0.3239844  -0.4797563 SPIN=   0.00000
   O   0.3810989  -0.2679350  -0.6065174 SPIN=   0.00000
   S   0.2654330  -0.3347500  -0.4597105 SPIN=   0.00000
   O   0.1740985   0.0441233   0.2054224 SPIN=   0.00000
   O   0.5059211   0.2292845   0.1434700 SPIN=   0.00000
   O   0.2658565   0.3064489   0.3642413 SPIN=   0.00000
   O   0.1363930   0.3365256   0.0911763 SPIN=   0.00000
   S   0.2705673   0.2290956   0.2010775 SPIN=   0.00000
   O  -0.1740985  -0.0441233   0.2054224 SPIN=   0.00000
   O  -0.5059211  -0.2292845   0.1434700 SPIN=   0.00000
   O  -0.2658565  -0.3064489   0.3642413 SPIN=   0.00000
   O  -0.1363930  -0.3365256   0.0911763 SPIN=   0.00000
   S  -0.2705673  -0.2290956   0.2010775 SPIN=   0.00000
   F  -0.2561436   0.3896664  -0.0534987 SPIN=   0.00000
   F   0.2561436  -0.3896664  -0.0534987 SPIN=   0.00000
   F  -0.2571193  -0.1155679  -0.1942047 SPIN=   0.00000
   F   0.2571193   0.1155679  -0.1942047 SPIN=   0.00000
%ENDBLOCK POSITIONS_FRAC

# Note: total spin =  16.00

KPOINTS_MP_SPACING 0.07

%BLOCK SPECIES_POT
QC5
%ENDBLOCK SPECIES_POT

SNAP_TO_SYMMETRY
SYMMETRY_GENERATE

