#              Generated by Buildcell
#
# at 01:21:15 (GMT+1.0) 18th August 2020
# in /lustre/scratch/uccabz1/launch_tmp
# on node-c12l-010
# by uccabz1
#
# compiler GCC version 4.9.2
# options -cpp -iprefix /lustre/shared/ucl/apps/gcc/4.9.2/bin/../lib/gcc/x86_64-unknown-linux-gnu/4.9.2/ -mtune=corei7 -march=x86-64 -g -Og
#
# seed -1215205360   319422274   285387747 -1184667017   150509777  1221269129  -161108626  1392891071  -652842425  1697802482  -227177771  -975214994
#
#      Author: C. J. Pickard (cjp20@cam.ac.uk)
#                Space group: P-1
#

%BLOCK LATTICE_ABC
      7.24168      7.39045      8.92432
     83.65821     66.41959     66.26878
%ENDBLOCK LATTICE_ABC

%BLOCK POSITIONS_FRAC
  Li   0.6634785  -0.3505572  -0.4844949 SPIN=   0.00000
  Li  -0.6634785   0.3505572   0.4844949 SPIN=   0.00000
  Li  -0.2479882   0.1599204  -0.3518075 SPIN=   0.00000
  Li   0.2479882  -0.1599204   0.3518075 SPIN=   0.00000
  Fe  -0.0588986  -0.2828180  -0.3388809 SPIN=   3.92914
  Fe   0.0588986   0.2828180   0.3388809 SPIN=   3.92914
  Fe  -0.2464753  -0.0114952   0.3273358 SPIN=   4.07086
  Fe   0.2464753   0.0114952  -0.3273358 SPIN=   4.07086
   O   0.4728968  -0.1384804   0.0709241 SPIN=   0.00000
   O   0.2411001  -0.2696351   0.0136056 SPIN=   0.00000
   O   0.2607897   0.0478564  -0.0952852 SPIN=   0.00000
   O   0.0687757   0.0270758   0.2019681 SPIN=   0.00000
   S   0.2608906  -0.0832958   0.0478032 SPIN=   0.00000
   O  -0.4728968   0.1384804  -0.0709241 SPIN=   0.00000
   O  -0.2411001   0.2696351  -0.0136056 SPIN=   0.00000
   O  -0.2607897  -0.0478564   0.0952852 SPIN=   0.00000
   O  -0.0687757  -0.0270758  -0.2019681 SPIN=   0.00000
   S  -0.2608906   0.0832958  -0.0478032 SPIN=   0.00000
   O  -0.4668784   0.4521117  -0.1563792 SPIN=   0.00000
   O  -0.4751509   0.3663824  -0.4133350 SPIN=   0.00000
   O  -0.6670799   0.7133433  -0.2988357 SPIN=   0.00000
   O  -0.8110441   0.4612697  -0.1588681 SPIN=   0.00000
   S  -0.6050383   0.4982768  -0.2568545 SPIN=   0.00000
   O   0.4668784  -0.4521117   0.1563792 SPIN=   0.00000
   O   0.4751509  -0.3663824   0.4133350 SPIN=   0.00000
   O   0.6670799  -0.7133433   0.2988357 SPIN=   0.00000
   O   0.8110441  -0.4612697   0.1588681 SPIN=   0.00000
   S   0.6050383  -0.4982768   0.2568545 SPIN=   0.00000
   F  -0.7928103   0.4025647   0.1448199 SPIN=   0.00000
   F   0.7928103  -0.4025647  -0.1448199 SPIN=   0.00000
   F   0.0755830   0.1857648  -0.4502634 SPIN=   0.00000
   F  -0.0755830  -0.1857648   0.4502634 SPIN=   0.00000
%ENDBLOCK POSITIONS_FRAC

# Note: total spin =  16.00

KPOINTS_MP_SPACING 0.07

%BLOCK SPECIES_POT
QC5
%ENDBLOCK SPECIES_POT

SNAP_TO_SYMMETRY
SYMMETRY_GENERATE

