#              Generated by Buildcell
#
# at 08:09:12 (GMT+1.0) 4th August 2020
# in /lustre/scratch/uccabz1/launch_tmp
# on node-c12l-034
# by uccabz1
#
# compiler GCC version 4.9.2
# options -cpp -iprefix /lustre/shared/ucl/apps/gcc/4.9.2/bin/../lib/gcc/x86_64-unknown-linux-gnu/4.9.2/ -mtune=corei7 -march=x86-64 -g -Og
#
# seed  1568457434   252613418    63750959 -1322803888  -382943512  1360222215 -1622253297  1709844690  -437990421  1931898898  -888777774  -524838976
#
#      Author: C. J. Pickard (cjp20@cam.ac.uk)
#                Space group: Cm
#

%BLOCK LATTICE_ABC
      6.01179      8.18877      8.18877
     83.43502     87.89826     87.89826
%ENDBLOCK LATTICE_ABC

%BLOCK POSITIONS_FRAC
  Li   0.2833149   0.3219805  -0.2306467 SPIN=   0.00000
  Li   0.2833149  -0.2306467   0.3219805 SPIN=   0.00000
  Li  -0.0181050  -0.1072795  -0.1072795 SPIN=   0.00000
  Li   0.2132511   0.3006165   0.3006165 SPIN=   0.00000
  Fe  -0.3268684   0.1976314  -0.4701014 SPIN=   4.30415
  Fe  -0.3268684  -0.4701014   0.1976314 SPIN=   4.30415
  Fe  -0.4935932  -0.3598322  -0.3598322 SPIN=   3.21639
  Fe   0.4876750  -0.0302849  -0.0302849 SPIN=   4.17531
   O  -0.3516250  -0.0396429   0.4877722 SPIN=   0.00000
   O  -0.0229947  -0.1371588   0.3308414 SPIN=   0.00000
   O  -0.3578575  -0.0248870   0.1844084 SPIN=   0.00000
   O  -0.3682615  -0.2949171   0.3540750 SPIN=   0.00000
   S  -0.2751847  -0.1241515   0.3392742 SPIN=   0.00000
   O  -0.3516250   0.4877722  -0.0396429 SPIN=   0.00000
   O  -0.0229947   0.3308414  -0.1371588 SPIN=   0.00000
   O  -0.3578575   0.1844084  -0.0248870 SPIN=   0.00000
   O  -0.3682615   0.3540750  -0.2949171 SPIN=   0.00000
   S  -0.2751847   0.3392742  -0.1241515 SPIN=   0.00000
   O   0.1216655  -0.3323157  -0.1230053 SPIN=   0.00000
   O  -0.0037211  -0.3619162   0.1698274 SPIN=   0.00000
   O   0.3926869  -0.3138169   0.0939201 SPIN=   0.00000
   O   0.2317077  -0.5813675   0.0603498 SPIN=   0.00000
   S   0.1855847  -0.3973541   0.0502730 SPIN=   0.00000
   O   0.1216655  -0.1230053  -0.3323157 SPIN=   0.00000
   O  -0.0037211   0.1698274  -0.3619162 SPIN=   0.00000
   O   0.3926869   0.0939201  -0.3138169 SPIN=   0.00000
   O   0.2317077   0.0603498  -0.5813675 SPIN=   0.00000
   S   0.1855847   0.0502730  -0.3973541 SPIN=   0.00000
   F  -0.4721229   0.3275501   0.3275501 SPIN=   0.00000
   F  -0.3103564  -0.1721982  -0.1721982 SPIN=   0.00000
   F   0.0317655  -0.4811637  -0.4811637 SPIN=   0.00000
   F   0.1966443   0.0672241   0.0672241 SPIN=   0.00000
%ENDBLOCK POSITIONS_FRAC

# Note: total spin =  16.00

KPOINTS_MP_SPACING 0.07

%BLOCK SPECIES_POT
QC5
%ENDBLOCK SPECIES_POT

SNAP_TO_SYMMETRY
SYMMETRY_GENERATE

