#              Generated by Buildcell
#
# at 07:10:48 (GMT+1.0) 4th August 2020
# in /lustre/scratch/uccabz1/launch_tmp
# on node-c12c-006
# by uccabz1
#
# compiler GCC version 4.9.2
# options -cpp -iprefix /lustre/shared/ucl/apps/gcc/4.9.2/bin/../lib/gcc/x86_64-unknown-linux-gnu/4.9.2/ -mtune=corei7 -march=x86-64 -g -Og
#
# seed  -213049531  1062309646  -869941507 -1900380877 -2031446153 -1707032269   721528758  -861355257 -1385720042   -82869660 -1166967558  1557784906
#
#      Author: C. J. Pickard (cjp20@cam.ac.uk)
#                Space group: Pca21
#

%BLOCK LATTICE_ABC
      6.98767      7.39148      7.74455
     90.00000     90.00000     90.00000
%ENDBLOCK LATTICE_ABC

%BLOCK POSITIONS_FRAC
  Li   0.4355223  -0.4708107   0.4552806 SPIN=   0.00000
  Li  -0.4355223   0.4708107  -0.0447194 SPIN=   0.00000
  Li  -0.4355223   0.0291893   0.4552806 SPIN=   0.00000
  Li   0.4355223  -0.0291893  -0.0447194 SPIN=   0.00000
  Fe   0.2245332  -0.1079311   0.2740063 SPIN=   4.00000
  Fe  -0.2245332   0.1079311  -0.2259937 SPIN=   4.00000
  Fe  -0.2245332   0.3920689   0.2740063 SPIN=   4.00000
  Fe   0.2245332  -0.3920689  -0.2259937 SPIN=   4.00000
   O   0.0793266  -0.2084801  -0.0429882 SPIN=   0.00000
   O  -0.2318462  -0.0723854   0.0371505 SPIN=   0.00000
   O  -0.1192189  -0.3495768   0.1848156 SPIN=   0.00000
   O  -0.2226213  -0.3634799  -0.1205371 SPIN=   0.00000
   S  -0.1235899  -0.2484806   0.0146102 SPIN=   0.00000
   O  -0.0793266   0.2084801  -0.5429882 SPIN=   0.00000
   O   0.2318462   0.0723854  -0.4628495 SPIN=   0.00000
   O   0.1192189   0.3495768  -0.3151844 SPIN=   0.00000
   O   0.2226213   0.3634799  -0.6205371 SPIN=   0.00000
   S   0.1235899   0.2484806  -0.4853898 SPIN=   0.00000
   O  -0.0793266   0.2915199  -0.0429882 SPIN=   0.00000
   O   0.2318462   0.4276146   0.0371505 SPIN=   0.00000
   O   0.1192189   0.1504232   0.1848156 SPIN=   0.00000
   O   0.2226213   0.1365201  -0.1205371 SPIN=   0.00000
   S   0.1235899   0.2515194   0.0146102 SPIN=   0.00000
   O   0.0793266  -0.2915199  -0.5429882 SPIN=   0.00000
   O  -0.2318462  -0.4276146  -0.4628495 SPIN=   0.00000
   O  -0.1192189  -0.1504232  -0.3151844 SPIN=   0.00000
   O  -0.2226213  -0.1365201  -0.6205371 SPIN=   0.00000
   S  -0.1235899  -0.2515194  -0.4853898 SPIN=   0.00000
   F   0.4172234  -0.3102239   0.2339542 SPIN=   0.00000
   F  -0.4172234   0.3102239  -0.2660458 SPIN=   0.00000
   F  -0.4172234   0.1897761   0.2339542 SPIN=   0.00000
   F   0.4172234  -0.1897761  -0.2660458 SPIN=   0.00000
%ENDBLOCK POSITIONS_FRAC

# Note: total spin =  16.00

KPOINTS_MP_SPACING 0.07

%BLOCK SPECIES_POT
QC5
%ENDBLOCK SPECIES_POT

SNAP_TO_SYMMETRY
SYMMETRY_GENERATE

