#              Generated by Buildcell
#
# at 00:24:28 (GMT+1.0) 18th August 2020
# in /lustre/scratch/uccabz1/launch_tmp
# on node-c12k-032
# by uccabz1
#
# compiler GCC version 4.9.2
# options -cpp -iprefix /lustre/shared/ucl/apps/gcc/4.9.2/bin/../lib/gcc/x86_64-unknown-linux-gnu/4.9.2/ -mtune=corei7 -march=x86-64 -g -Og
#
# seed -1298822685  1433899808   583352402  2146577289  1539714667  1761696170  -977758253  -394428116 -1833801127  1955093344   -19071348 -1189847554
#
#      Author: C. J. Pickard (cjp20@cam.ac.uk)
#                Space group: Cm
#

%BLOCK LATTICE_ABC
      6.98541      6.98541      8.26905
     88.37821     88.37821     82.76600
%ENDBLOCK LATTICE_ABC

%BLOCK POSITIONS_FRAC
  Li   0.4925544   0.4925544   0.0138167 SPIN=   0.00000
  Li  -0.4650070  -0.4650070  -0.4656629 SPIN=   0.00000
  Li   0.0875064   0.0875064   0.1325811 SPIN=   0.00000
  Li  -0.1332187  -0.1332187  -0.2485108 SPIN=   0.00000
  Fe  -0.4798668   0.0715051   0.0793365 SPIN=   2.88406
  Fe   0.0715051  -0.4798668   0.0793365 SPIN=   2.88406
  Fe  -0.1488029  -0.1488029   0.3951255 SPIN=   5.33450
  Fe   0.2624117   0.2624117   0.4506089 SPIN=   4.89739
   O   0.3189399  -0.0121223  -0.0929343 SPIN=   0.00000
   O   0.1883803  -0.1124224  -0.3480104 SPIN=   0.00000
   O   0.0658854  -0.2305901  -0.0846999 SPIN=   0.00000
   O   0.3969263  -0.3490148  -0.1816238 SPIN=   0.00000
   S   0.2425330  -0.1760374  -0.1768171 SPIN=   0.00000
   O  -0.0121223   0.3189399  -0.0929343 SPIN=   0.00000
   O  -0.1124224   0.1883803  -0.3480104 SPIN=   0.00000
   O  -0.2305901   0.0658854  -0.0846999 SPIN=   0.00000
   O  -0.3490148   0.3969263  -0.1816238 SPIN=   0.00000
   S  -0.1760374   0.2425330  -0.1768171 SPIN=   0.00000
   O   0.5199050  -0.1447093   0.3926801 SPIN=   0.00000
   O   0.3139701  -0.4074358   0.3825441 SPIN=   0.00000
   O   0.2838908  -0.1438717   0.1749373 SPIN=   0.00000
   S   0.3219209  -0.1936561   0.3516574 SPIN=   0.00000
   O  -0.1447093   0.5199050   0.3926801 SPIN=   0.00000
   O  -0.4074358   0.3139701   0.3825441 SPIN=   0.00000
   O  -0.1438717   0.2838908   0.1749373 SPIN=   0.00000
   S  -0.1936561   0.3219209   0.3516574 SPIN=   0.00000
   O  -0.4051627  -0.4051627   0.2147272 SPIN=   0.00000
   O  -0.3126233  -0.3126233  -0.0514574 SPIN=   0.00000
   F  -0.1499343  -0.1499343   0.1742991 SPIN=   0.00000
   F  -0.2784659  -0.2784659  -0.3624272 SPIN=   0.00000
   F   0.2836947   0.2836947   0.1229236 SPIN=   0.00000
   F   0.3405698   0.3405698  -0.3555302 SPIN=   0.00000
%ENDBLOCK POSITIONS_FRAC

# Note: total spin =  16.00

KPOINTS_MP_SPACING 0.07

%BLOCK SPECIES_POT
QC5
%ENDBLOCK SPECIES_POT

SNAP_TO_SYMMETRY
SYMMETRY_GENERATE

