#              Generated by Buildcell
#
# at 07:41:32 (GMT+1.0) 4th August 2020
# in /lustre/scratch/uccabz1/launch_tmp
# on node-c12c-002
# by uccabz1
#
# compiler GCC version 4.9.2
# options -cpp -iprefix /lustre/shared/ucl/apps/gcc/4.9.2/bin/../lib/gcc/x86_64-unknown-linux-gnu/4.9.2/ -mtune=corei7 -march=x86-64 -g -Og
#
# seed   568569576  -925250078 -1977287436  1382746223    67127730   411070485 -1916586325   740363993   905805153   664915310  -918314023 -1939490125
#
#      Author: C. J. Pickard (cjp20@cam.ac.uk)
#                Space group: Pm
#

%BLOCK LATTICE_ABC
      7.08628      7.57910      7.94634
     90.00000     90.00000    110.40475
%ENDBLOCK LATTICE_ABC

%BLOCK POSITIONS_FRAC
  Li   0.4720699  -0.1355420  -0.5000000 SPIN=   0.00000
  Li  -0.0620546   0.2676578   0.5000000 SPIN=   0.00000
  Li   0.4643558   0.3795428   0.5000000 SPIN=   0.00000
  Li  -0.0527791  -0.2609491   0.5000000 SPIN=   0.00000
  Fe   0.1800301  -0.4577920   0.2268417 SPIN=   3.36963
  Fe   0.1800301  -0.4577920  -0.2268417 SPIN=   3.36963
  Fe   0.2091390   0.0479093   0.2554843 SPIN=   4.63037
  Fe   0.2091390   0.0479093  -0.2554843 SPIN=   4.63037
   O  -0.1819598  -0.2880567   0.1394078 SPIN=   0.00000
   O  -0.4391886  -0.3189793   0.3590185 SPIN=   0.00000
   O  -0.3771685  -0.0735447   0.1395418 SPIN=   0.00000
   O  -0.1217849  -0.0444514   0.3603812 SPIN=   0.00000
   S  -0.2800255  -0.1812580   0.2495873 SPIN=   0.00000
   O  -0.1819598  -0.2880567  -0.1394078 SPIN=   0.00000
   O  -0.4391886  -0.3189793  -0.3590185 SPIN=   0.00000
   O  -0.3771685  -0.0735447  -0.1395418 SPIN=   0.00000
   O  -0.1217849  -0.0444514  -0.3603812 SPIN=   0.00000
   S  -0.2800255  -0.1812580  -0.2495873 SPIN=   0.00000
   O  -0.4410452   0.1654651   0.3500679 SPIN=   0.00000
   O  -0.1361629   0.4525417   0.3458707 SPIN=   0.00000
   O  -0.4112165   0.4169209   0.1421732 SPIN=   0.00000
   S  -0.2966528   0.3137233   0.2382848 SPIN=   0.00000
   O  -0.4410452   0.1654651  -0.3500679 SPIN=   0.00000
   O  -0.1361629   0.4525417  -0.3458707 SPIN=   0.00000
   O  -0.4112165   0.4169209  -0.1421732 SPIN=   0.00000
   S  -0.2966528   0.3137233  -0.2382848 SPIN=   0.00000
   O  -0.0737055   0.3150166   0.0000000 SPIN=   0.00000
   O   0.4752296  -0.3470748   0.0000000 SPIN=   0.00000
   F   0.2181784  -0.1977306  -0.2374089 SPIN=   0.00000
   F   0.2181784  -0.1977306   0.2374089 SPIN=   0.00000
   F   0.1908474   0.2907966   0.2622206 SPIN=   0.00000
   F   0.1908474   0.2907966  -0.2622206 SPIN=   0.00000
%ENDBLOCK POSITIONS_FRAC

# Note: total spin =  16.00

KPOINTS_MP_SPACING 0.07

%BLOCK SPECIES_POT
QC5
%ENDBLOCK SPECIES_POT

SNAP_TO_SYMMETRY
SYMMETRY_GENERATE

