#              Generated by Buildcell
#
# at 00:03:31 (GMT+1.0) 18th August 2020
# in /scratch/scratch/uccabz1/launch_tmp
# on node-k10e-017
# by uccabz1
#
# compiler GCC version 4.9.2
# options -cpp -iprefix /scratch/UCL/applications/gcc/4.9.2/bin/../lib/gcc/x86_64-unknown-linux-gnu/4.9.2/ -mtune=corei7 -march=x86-64 -g -O2
#
# seed -1696519255  1107598946 -2014778657   682805900  -622252742  1493366389  1902343931  -625959519  1209840001   613012374  2002698515 -1865946720
#
#      Author: C. J. Pickard (cjp20@cam.ac.uk)
#                Space group: Pnc2
#

%BLOCK LATTICE_ABC
      4.13202      8.70944     11.11495
     90.00000     90.00000     90.00000
%ENDBLOCK LATTICE_ABC

%BLOCK POSITIONS_FRAC
  Li   0.2555990  -0.3310825  -0.3458355 SPIN=   0.00000
  Li  -0.2555990  -0.3310825   0.3458355 SPIN=   0.00000
  Li   0.2444010   0.1689175  -0.3458355 SPIN=   0.00000
  Li  -0.2444010   0.1689175   0.3458355 SPIN=   0.00000
  Fe   0.2494379  -0.2998171   0.1398196 SPIN=   4.00000
  Fe  -0.2494379  -0.2998171  -0.1398196 SPIN=   4.00000
  Fe   0.2505621   0.2001829   0.1398196 SPIN=   4.00000
  Fe  -0.2505621   0.2001829  -0.1398196 SPIN=   4.00000
   O   0.1490049   0.5947086   0.4180779 SPIN=   0.00000
   O   0.6217026   0.4304530   0.3718966 SPIN=   0.00000
   O   0.1864241   0.4633339   0.2211322 SPIN=   0.00000
   O   0.0844750   0.3126199   0.4060514 SPIN=   0.00000
   S   0.2604016   0.4502788   0.3542895 SPIN=   0.00000
   O  -0.1490049   0.5947086  -0.4180779 SPIN=   0.00000
   O  -0.6217026   0.4304530  -0.3718966 SPIN=   0.00000
   O  -0.1864241   0.4633339  -0.2211322 SPIN=   0.00000
   O  -0.0844750   0.3126199  -0.4060514 SPIN=   0.00000
   S  -0.2604016   0.4502788  -0.3542895 SPIN=   0.00000
   O   0.3509951   0.0947086   0.4180779 SPIN=   0.00000
   O  -0.1217026  -0.0695470   0.3718966 SPIN=   0.00000
   O   0.3135759  -0.0366661   0.2211322 SPIN=   0.00000
   O   0.4155250  -0.1873801   0.4060514 SPIN=   0.00000
   S   0.2395984  -0.0497212   0.3542895 SPIN=   0.00000
   O  -0.3509951   0.0947086  -0.4180779 SPIN=   0.00000
   O   0.1217026  -0.0695470  -0.3718966 SPIN=   0.00000
   O  -0.3135759  -0.0366661  -0.2211322 SPIN=   0.00000
   O  -0.4155250  -0.1873801  -0.4060514 SPIN=   0.00000
   S  -0.2395984  -0.0497212  -0.3542895 SPIN=   0.00000
   F   0.2506377  -0.2924616  -0.1796336 SPIN=   0.00000
   F  -0.2506377  -0.2924616   0.1796336 SPIN=   0.00000
   F   0.2493623   0.2075384  -0.1796336 SPIN=   0.00000
   F  -0.2493623   0.2075384   0.1796336 SPIN=   0.00000
%ENDBLOCK POSITIONS_FRAC

# Note: total spin =  16.00

KPOINTS_MP_SPACING 0.07

%BLOCK SPECIES_POT
QC5
%ENDBLOCK SPECIES_POT

SNAP_TO_SYMMETRY
SYMMETRY_GENERATE

