#              Generated by Buildcell
#
# at 06:26:36 (GMT+1.0) 4th August 2020
# in /lustre/scratch/uccabz1/launch_tmp
# on node-c12l-032
# by uccabz1
#
# compiler GCC version 4.9.2
# options -cpp -iprefix /lustre/shared/ucl/apps/gcc/4.9.2/bin/../lib/gcc/x86_64-unknown-linux-gnu/4.9.2/ -mtune=corei7 -march=x86-64 -g -Og
#
# seed  -346586789   315181234 -1802001796  -426378997  -144131067   516372040 -1888310550  -606350637  -399753704 -1155522598  1138790809  1333960465
#
#      Author: C. J. Pickard (cjp20@cam.ac.uk)
#                Space group: P21
#

%BLOCK LATTICE_ABC
      4.67466      7.45370     11.48227
     90.00000     91.16966     90.00000
%ENDBLOCK LATTICE_ABC

%BLOCK POSITIONS_FRAC
  Li  -0.3363082  -0.4445658   0.4930758 SPIN=   0.00000
  Li   0.3363082   0.0554342  -0.4930758 SPIN=   0.00000
  Li   0.2328195  -0.3290544  -0.2315314 SPIN=   0.00000
  Li  -0.2328195   0.1709456   0.2315314 SPIN=   0.00000
  Fe   0.2563850   0.3888113   0.1582721 SPIN=   4.77007
  Fe  -0.2563850  -0.1111887  -0.1582721 SPIN=   4.77007
  Fe   0.2553850  -0.0762626   0.2680972 SPIN=   3.22993
  Fe  -0.2553850   0.4237374  -0.2680972 SPIN=   3.22993
   O   0.2515719  -0.4054486  -0.0716565 SPIN=   0.00000
   O   0.2851569  -0.3110343   0.1348111 SPIN=   0.00000
   O  -0.0346320  -0.1482273  -0.0032878 SPIN=   0.00000
   O   0.4907520  -0.1198647  -0.0185726 SPIN=   0.00000
   S   0.2482122  -0.2461437   0.0103236 SPIN=   0.00000
   O  -0.2515719   0.0945514   0.0716565 SPIN=   0.00000
   O  -0.2851569   0.1889657  -0.1348111 SPIN=   0.00000
   O   0.0346320   0.3517727   0.0032878 SPIN=   0.00000
   O  -0.4907520   0.3801353   0.0185726 SPIN=   0.00000
   S  -0.2482122   0.2538563  -0.0103236 SPIN=   0.00000
   O  -0.0686158   0.1182240  -0.3004345 SPIN=   0.00000
   O   0.2665113   0.0811581  -0.1325111 SPIN=   0.00000
   O   0.3434559   0.3240866  -0.2754257 SPIN=   0.00000
   O   0.4231887   0.0076882  -0.3314970 SPIN=   0.00000
   S   0.2411350   0.1327892  -0.2599671 SPIN=   0.00000
   O   0.0686158  -0.3817760   0.3004345 SPIN=   0.00000
   O  -0.2665113  -0.4188419   0.1325111 SPIN=   0.00000
   O  -0.3434559  -0.1759134   0.2754257 SPIN=   0.00000
   O  -0.4231887  -0.4923118   0.3314970 SPIN=   0.00000
   S  -0.2411350  -0.3672108   0.2599671 SPIN=   0.00000
   F   0.3746931   0.1786023   0.2542738 SPIN=   0.00000
   F  -0.3746931  -0.3213977  -0.2542738 SPIN=   0.00000
   F   0.1152676   0.4589265  -0.4832035 SPIN=   0.00000
   F  -0.1152676  -0.0410735   0.4832035 SPIN=   0.00000
%ENDBLOCK POSITIONS_FRAC

# Note: total spin =  16.00

KPOINTS_MP_SPACING 0.07

%BLOCK SPECIES_POT
QC5
%ENDBLOCK SPECIES_POT

SNAP_TO_SYMMETRY
SYMMETRY_GENERATE

