#              Generated by Buildcell
#
# at 08:34:31 (GMT+1.0) 18th August 2020
# in /lustre/scratch/uccabz1/launch_tmp
# on node-c12e-015
# by uccabz1
#
# compiler GCC version 4.9.2
# options -cpp -iprefix /lustre/shared/ucl/apps/gcc/4.9.2/bin/../lib/gcc/x86_64-unknown-linux-gnu/4.9.2/ -mtune=corei7 -march=x86-64 -g -Og
#
# seed  -888596882  -450509457  -222653071  -403053612  -553056685  -254083665   885589773 -1447875192 -1101549951    18415732 -1740641939  -318837445
#
#      Author: C. J. Pickard (cjp20@cam.ac.uk)
#                Space group: Cc
#

%BLOCK LATTICE_ABC
      7.61444      7.61444      8.50406
     64.41303     64.41303     82.73718
%ENDBLOCK LATTICE_ABC

%BLOCK POSITIONS_FRAC
  Li   0.3717010  -0.3895913  -0.4533222 SPIN=   0.00000
  Li  -0.3895913   0.3717010   0.0466778 SPIN=   0.00000
  Li   0.2211830   0.0936771  -0.3555624 SPIN=   0.00000
  Li   0.0936771   0.2211830   0.1444376 SPIN=   0.00000
  Fe   0.1962983  -0.4798681   0.3343921 SPIN=   6.07215
  Fe  -0.4798681   0.1962983  -0.1656079 SPIN=   6.07215
  Fe   0.4647643  -0.2650935  -0.2094909 SPIN=   1.92785
  Fe  -0.2650935   0.4647643   0.2905091 SPIN=   1.92785
   O  -0.2039793  -0.3212869  -0.1520198 SPIN=   0.00000
   O  -0.0961787   0.0284322  -0.3603109 SPIN=   0.00000
   O   0.0891844  -0.1817564  -0.1783218 SPIN=   0.00000
   O  -0.2388969  -0.0918329  -0.0063625 SPIN=   0.00000
   S  -0.1124676  -0.1416110  -0.1742538 SPIN=   0.00000
   O  -0.3212869  -0.2039793   0.3479802 SPIN=   0.00000
   O   0.0284322  -0.0961787   0.1396891 SPIN=   0.00000
   O  -0.1817564   0.0891844   0.3216782 SPIN=   0.00000
   O  -0.0918329  -0.2388969   0.4936375 SPIN=   0.00000
   S  -0.1416110  -0.1124676   0.3257462 SPIN=   0.00000
   O   0.2904433   0.2477208   0.3291607 SPIN=   0.00000
   O   0.5338997   0.0959562   0.1280029 SPIN=   0.00000
   O   0.1851287  -0.0222038   0.2934829 SPIN=   0.00000
   O   0.3779066  -0.0883579   0.4819489 SPIN=   0.00000
   S   0.3468446   0.0582788   0.3081489 SPIN=   0.00000
   O   0.2477208   0.2904433  -0.1708393 SPIN=   0.00000
   O   0.0959562   0.5338997  -0.3719971 SPIN=   0.00000
   O  -0.0222038   0.1851287  -0.2065171 SPIN=   0.00000
   O  -0.0883579   0.3779066  -0.0180511 SPIN=   0.00000
   S   0.0582788   0.3468446  -0.1918511 SPIN=   0.00000
   F   0.4738423  -0.4214285   0.2926012 SPIN=   0.00000
   F  -0.4214285   0.4738423  -0.2073988 SPIN=   0.00000
   F   0.4698540   0.0349963  -0.3055492 SPIN=   0.00000
   F   0.0349963   0.4698540   0.1944508 SPIN=   0.00000
%ENDBLOCK POSITIONS_FRAC

# Note: total spin =  16.00

KPOINTS_MP_SPACING 0.07

%BLOCK SPECIES_POT
QC5
%ENDBLOCK SPECIES_POT

SNAP_TO_SYMMETRY
SYMMETRY_GENERATE

