#              Generated by Buildcell
#
# at 07:09:54 (GMT+1.0) 18th August 2020
# in /scratch/scratch/uccabz1/launch_tmp
# on node-k10d-030
# by uccabz1
#
# compiler GCC version 4.9.2
# options -cpp -iprefix /scratch/UCL/applications/gcc/4.9.2/bin/../lib/gcc/x86_64-unknown-linux-gnu/4.9.2/ -mtune=corei7 -march=x86-64 -g -O2
#
# seed -1099694058   797968081  1153917853  -675788763 -1909307479  -902982909 -1681655637  1315242316   639093343  1318429591  2076467095   558375167
#
#      Author: C. J. Pickard (cjp20@cam.ac.uk)
#                Space group: Cc
#

%BLOCK LATTICE_ABC
      5.82954      8.63376      8.63376
     67.91709     84.53134     84.53134
%ENDBLOCK LATTICE_ABC

%BLOCK POSITIONS_FRAC
  Li   0.0708958  -0.3541552  -0.0917896 SPIN=   0.00000
  Li  -0.4291042  -0.0917896  -0.3541552 SPIN=   0.00000
  Li  -0.2449413   0.2003770  -0.1113122 SPIN=   0.00000
  Li   0.2550587  -0.1113122   0.2003770 SPIN=   0.00000
  Fe   0.3608745   0.4660345  -0.2733149 SPIN=   4.08352
  Fe  -0.1391255  -0.2733149   0.4660345 SPIN=   4.08352
  Fe  -0.2528658   0.3945108   0.1131079 SPIN=   3.91648
  Fe   0.2471342   0.1131079   0.3945108 SPIN=   3.91648
   O   0.1546483   0.0983133  -0.3495652 SPIN=   0.00000
   O   0.0813774   0.0777248  -0.0555820 SPIN=   0.00000
   O   0.4430952   0.1905600  -0.2153550 SPIN=   0.00000
   O   0.3820923  -0.1111096  -0.1274652 SPIN=   0.00000
   S   0.2653033   0.0638721  -0.1869919 SPIN=   0.00000
   O  -0.3453517  -0.3495652   0.0983133 SPIN=   0.00000
   O  -0.4186226  -0.0555820   0.0777248 SPIN=   0.00000
   O  -0.0569048  -0.2153550   0.1905600 SPIN=   0.00000
   O  -0.1179077  -0.1274652  -0.1111096 SPIN=   0.00000
   S  -0.2346967  -0.1869919   0.0638721 SPIN=   0.00000
   O   0.3739795  -0.6389533   0.3271900 SPIN=   0.00000
   O   0.4359824  -0.3719083   0.3564774 SPIN=   0.00000
   O   0.0394214  -0.4615686   0.3787356 SPIN=   0.00000
   O   0.2627480  -0.3691141   0.1045752 SPIN=   0.00000
   S   0.2780328  -0.4603861   0.2917445 SPIN=   0.00000
   O  -0.1260205   0.3271900  -0.6389533 SPIN=   0.00000
   O  -0.0640176   0.3564774  -0.3719083 SPIN=   0.00000
   O  -0.4605786   0.3787356  -0.4615686 SPIN=   0.00000
   O  -0.2372520   0.1045752  -0.3691141 SPIN=   0.00000
   S  -0.2219672   0.2917445  -0.4603861 SPIN=   0.00000
   F  -0.1083560  -0.4283234  -0.2063830 SPIN=   0.00000
   F   0.3916440  -0.2063830  -0.4283234 SPIN=   0.00000
   F  -0.0170946   0.0538513   0.2769453 SPIN=   0.00000
   F   0.4829054   0.2769453   0.0538513 SPIN=   0.00000
%ENDBLOCK POSITIONS_FRAC

# Note: total spin =  16.00

KPOINTS_MP_SPACING 0.07

%BLOCK SPECIES_POT
QC5
%ENDBLOCK SPECIES_POT

SNAP_TO_SYMMETRY
SYMMETRY_GENERATE

