#              Generated by Buildcell
#
# at 08:49:35 (GMT+1.0) 4th August 2020
# in /lustre/scratch/uccabz1/launch_tmp
# on node-c12f-006
# by uccabz1
#
# compiler GCC version 4.9.2
# options -cpp -iprefix /lustre/shared/ucl/apps/gcc/4.9.2/bin/../lib/gcc/x86_64-unknown-linux-gnu/4.9.2/ -mtune=corei7 -march=x86-64 -g -Og
#
# seed -1731919900  1400454869   112382703  1434041155   666300777  1919792899 -1522224592 -1463799128   133191713  1087608708 -1156528259  1741369502
#
#      Author: C. J. Pickard (cjp20@cam.ac.uk)
#                Space group: Iba2
#

%BLOCK LATTICE_ABC
      7.30766      8.20799      8.64092
    118.35599    115.01476     90.00000
%ENDBLOCK LATTICE_ABC

%BLOCK POSITIONS_FRAC
  Li  -0.1926223  -0.1680864  -0.3373616 SPIN=   0.00000
  Li   0.1926223   0.1692753   0.3373616 SPIN=   0.00000
  Li  -0.1447393   0.3319136  -0.3373616 SPIN=   0.00000
  Li   0.1447393  -0.3307247   0.3373616 SPIN=   0.00000
  Fe  -0.2162062   0.2575617   0.1251751 SPIN=   4.00000
  Fe   0.2162062   0.1323866  -0.1251751 SPIN=   4.00000
  Fe   0.3413812  -0.2424383   0.1251751 SPIN=   4.00000
  Fe  -0.3413812  -0.3676134  -0.1251751 SPIN=   4.00000
   O   0.0351411  -0.2533782  -0.4680786 SPIN=   0.00000
   O   0.1867504  -0.5226651  -0.4668850 SPIN=   0.00000
   O   0.0006946  -0.3817994  -0.2714282 SPIN=   0.00000
   O   0.3449171  -0.1983685  -0.1620260 SPIN=   0.00000
   S   0.1418758  -0.3390528  -0.3421045 SPIN=   0.00000
   O  -0.0351411   0.2147003   0.4680786 SPIN=   0.00000
   O  -0.1867504  -0.0557801   0.4668850 SPIN=   0.00000
   O  -0.0006946  -0.1103712   0.2714282 SPIN=   0.00000
   O  -0.3449171  -0.0363424   0.1620260 SPIN=   0.00000
   S  -0.1418758   0.0030517   0.3421045 SPIN=   0.00000
   O  -0.5032197   0.2466218  -0.4680786 SPIN=   0.00000
   O  -0.6536355  -0.0226651  -0.4668850 SPIN=   0.00000
   O  -0.2721228   0.1182006  -0.2714282 SPIN=   0.00000
   O  -0.5069431   0.3016315  -0.1620260 SPIN=   0.00000
   S  -0.4839803   0.1609472  -0.3421045 SPIN=   0.00000
   O   0.5032197  -0.2852997   0.4680786 SPIN=   0.00000
   O   0.6536355  -0.5557801   0.4668850 SPIN=   0.00000
   O   0.2721228  -0.6103712   0.2714282 SPIN=   0.00000
   O   0.5069431  -0.5363424   0.1620260 SPIN=   0.00000
   S   0.4839803  -0.4969483   0.3421045 SPIN=   0.00000
   F   0.3111045   0.0199868   0.1545635 SPIN=   0.00000
   F  -0.3111045  -0.1345767  -0.1545635 SPIN=   0.00000
   F  -0.1565410  -0.4800132   0.1545635 SPIN=   0.00000
   F   0.1565410   0.3654233  -0.1545635 SPIN=   0.00000
%ENDBLOCK POSITIONS_FRAC

# Note: total spin =  16.00

KPOINTS_MP_SPACING 0.07

%BLOCK SPECIES_POT
QC5
%ENDBLOCK SPECIES_POT

SNAP_TO_SYMMETRY
SYMMETRY_GENERATE

