#              Generated by Buildcell
#
# at 06:35:19 (GMT+1.0) 4th August 2020
# in /lustre/scratch/uccabz1/launch_tmp
# on node-c12c-008
# by uccabz1
#
# compiler GCC version 4.9.2
# options -cpp -iprefix /lustre/shared/ucl/apps/gcc/4.9.2/bin/../lib/gcc/x86_64-unknown-linux-gnu/4.9.2/ -mtune=corei7 -march=x86-64 -g -Og
#
# seed -1179218482  -210621792   630179939  1672244859  -536768237   112318004  -217243776  1461458430  2094903901 -1954368835  -780711150  2086396474
#
#      Author: C. J. Pickard (cjp20@cam.ac.uk)
#                Space group: C2
#

%BLOCK LATTICE_ABC
      6.87813      6.87813      9.51602
     77.62271     77.62271     66.83003
%ENDBLOCK LATTICE_ABC

%BLOCK POSITIONS_FRAC
  Li   0.0454812   0.4445981  -0.1958865 SPIN=   0.00000
  Li  -0.4445981  -0.0454812   0.1958865 SPIN=   0.00000
  Li   0.2580417  -0.1358379  -0.1998750 SPIN=   0.00000
  Li   0.1358379  -0.2580417   0.1998750 SPIN=   0.00000
  Fe  -0.4343669   0.3974157   0.1981468 SPIN=   3.45664
  Fe  -0.3974157   0.4343669  -0.1981468 SPIN=   3.45664
  Fe  -0.1245423  -0.0967441  -0.3194582 SPIN=   4.54336
  Fe   0.0967441   0.1245423   0.3194582 SPIN=   4.54336
   O   0.4611006  -0.1802334  -0.0158988 SPIN=   0.00000
   O   0.2047931   0.1657694   0.0563765 SPIN=   0.00000
   O   0.3354308   0.1324098  -0.2039705 SPIN=   0.00000
   O   0.5797574   0.1239526  -0.0440465 SPIN=   0.00000
   S   0.3952705   0.0604746  -0.0518848 SPIN=   0.00000
   O   0.1802334  -0.4611006   0.0158988 SPIN=   0.00000
   O  -0.1657694  -0.2047931  -0.0563765 SPIN=   0.00000
   O  -0.1324098  -0.3354308   0.2039705 SPIN=   0.00000
   O  -0.1239526  -0.5797574   0.0440465 SPIN=   0.00000
   S  -0.0604746  -0.3952705   0.0518848 SPIN=   0.00000
   O   0.6235172   0.1343556  -0.4287755 SPIN=   0.00000
   O   0.4631457   0.1507652  -0.6423548 SPIN=   0.00000
   O   0.2465486   0.3669264  -0.4474376 SPIN=   0.00000
   O   0.3502276  -0.0263358  -0.4014910 SPIN=   0.00000
   S   0.4208598   0.1564279  -0.4800147 SPIN=   0.00000
   O  -0.1343556  -0.6235172   0.4287755 SPIN=   0.00000
   O  -0.1507652  -0.4631457   0.6423548 SPIN=   0.00000
   O  -0.3669264  -0.2465486   0.4474376 SPIN=   0.00000
   O   0.0263358  -0.3502276   0.4014910 SPIN=   0.00000
   S  -0.1564279  -0.4208598   0.4800147 SPIN=   0.00000
   F  -0.0532967   0.1195027  -0.2292139 SPIN=   0.00000
   F  -0.1195027   0.0532967   0.2292139 SPIN=   0.00000
   F   0.3403887  -0.4197240  -0.2744775 SPIN=   0.00000
   F   0.4197240  -0.3403887   0.2744775 SPIN=   0.00000
%ENDBLOCK POSITIONS_FRAC

# Note: total spin =  16.00

KPOINTS_MP_SPACING 0.07

%BLOCK SPECIES_POT
QC5
%ENDBLOCK SPECIES_POT

SNAP_TO_SYMMETRY
SYMMETRY_GENERATE

