#              Generated by Buildcell
#
# at 22:52:12 (GMT+1.0) 17th August 2020
# in /lustre/scratch/uccabz1/launch_tmp
# on node-c12d-004
# by uccabz1
#
# compiler GCC version 4.9.2
# options -cpp -iprefix /lustre/shared/ucl/apps/gcc/4.9.2/bin/../lib/gcc/x86_64-unknown-linux-gnu/4.9.2/ -mtune=corei7 -march=x86-64 -g -Og
#
# seed  1895058649 -1013021685  1741524459  -652291043  -932396067  1026393005  1813904834 -1361303397  -422050320  2052995500  1013912246 -1873178639
#
#      Author: C. J. Pickard (cjp20@cam.ac.uk)
#                Space group: C2
#

%BLOCK LATTICE_ABC
      6.92477      6.92477      9.53295
     91.92024     91.92024    118.72618
%ENDBLOCK LATTICE_ABC

%BLOCK POSITIONS_FRAC
  Li  -0.3254706  -0.1818881   0.1610431 SPIN=   0.00000
  Li   0.1818881   0.3254706  -0.1610431 SPIN=   0.00000
  Li  -0.4635361   0.0572520  -0.1470285 SPIN=   0.00000
  Li  -0.0572520   0.4635361   0.1470285 SPIN=   0.00000
  Fe   0.3378560  -0.1225815   0.3302602 SPIN=   4.07186
  Fe   0.1225815  -0.3378560  -0.3302602 SPIN=   4.07186
  Fe   0.1232597   0.2652219   0.3562689 SPIN=   3.92814
  Fe  -0.2652219  -0.1232597  -0.3562689 SPIN=   3.92814
   O  -0.3155176  -0.3459105   0.4731487 SPIN=   0.00000
   O  -0.1405265  -0.2869127   0.2450216 SPIN=   0.00000
   O  -0.3005432  -0.6544217   0.3444893 SPIN=   0.00000
   O   0.0410612  -0.3441559   0.4554303 SPIN=   0.00000
   S  -0.1788815  -0.4078502   0.3795225 SPIN=   0.00000
   O   0.3459105   0.3155176  -0.4731487 SPIN=   0.00000
   O   0.2869127   0.1405265  -0.2450216 SPIN=   0.00000
   O   0.6544217   0.3005432  -0.3444893 SPIN=   0.00000
   O   0.3441559  -0.0410612  -0.4554303 SPIN=   0.00000
   S   0.4078502   0.1788815  -0.3795225 SPIN=   0.00000
   O  -0.0458803  -0.6015388  -0.2026875 SPIN=   0.00000
   O  -0.0423897  -0.3564540  -0.0064582 SPIN=   0.00000
   O  -0.3974839  -0.6408563  -0.1202618 SPIN=   0.00000
   O  -0.1519952  -0.3144156  -0.2485043 SPIN=   0.00000
   O   0.6015388   0.0458803   0.2026875 SPIN=   0.00000
   O   0.3564540   0.0423897   0.0064582 SPIN=   0.00000
   O   0.6408563   0.3974839   0.1202618 SPIN=   0.00000
   O   0.3144156   0.1519952   0.2485043 SPIN=   0.00000
   S   0.1971638  -0.1971638   0.0000000 SPIN=   0.00000
   S  -0.4545870   0.4545870  -0.0000000 SPIN=   0.00000
   F   0.4230861  -0.3268193  -0.2815428 SPIN=   0.00000
   F   0.3268193  -0.4230861   0.2815428 SPIN=   0.00000
   F  -0.1209674   0.1209674  -0.5000000 SPIN=   0.00000
   F  -0.0906505   0.0906505  -0.0000000 SPIN=   0.00000
%ENDBLOCK POSITIONS_FRAC

# Note: total spin =  16.00

KPOINTS_MP_SPACING 0.07

%BLOCK SPECIES_POT
QC5
%ENDBLOCK SPECIES_POT

SNAP_TO_SYMMETRY
SYMMETRY_GENERATE

