#              Generated by Buildcell
#
# at 07:52:58 (GMT+1.0) 4th August 2020
# in /lustre/scratch/uccabz1/launch_tmp
# on node-c12h-015
# by uccabz1
#
# compiler GCC version 4.9.2
# options -cpp -iprefix /lustre/shared/ucl/apps/gcc/4.9.2/bin/../lib/gcc/x86_64-unknown-linux-gnu/4.9.2/ -mtune=corei7 -march=x86-64 -g -Og
#
# seed  1676409060 -2028596257  1807043638  -824201978 -1300632020   -46154660  -628846906   404851002  1762592981 -1359928569  -749399766  1369881667
#
#      Author: C. J. Pickard (cjp20@cam.ac.uk)
#                Space group: Cm
#

%BLOCK LATTICE_ABC
      5.58807      8.76331      8.76331
    109.78650     94.51626     94.51626
%ENDBLOCK LATTICE_ABC

%BLOCK POSITIONS_FRAC
  Li   0.3197373  -0.3136413   0.2802883 SPIN=   0.00000
  Li   0.3197373   0.2802883  -0.3136413 SPIN=   0.00000
  Li  -0.2221301  -0.3535268  -0.0693093 SPIN=   0.00000
  Li  -0.2221301  -0.0693093  -0.3535268 SPIN=   0.00000
  Fe   0.0267192  -0.0635595   0.1957818 SPIN=   4.20308
  Fe   0.0267192   0.1957818  -0.0635595 SPIN=   4.20308
  Fe   0.4856821  -0.0959595  -0.0959595 SPIN=   1.18499
  Fe   0.3485711  -0.4693494  -0.4693494 SPIN=   6.40885
   O   0.0214524   0.3700550  -0.4425873 SPIN=   0.00000
   O  -0.2020828   0.1489996  -0.3771778 SPIN=   0.00000
   O  -0.3668565   0.2316439  -0.6042702 SPIN=   0.00000
   O  -0.3613069   0.4162234  -0.3185354 SPIN=   0.00000
   S  -0.2271984   0.2917305  -0.4356427 SPIN=   0.00000
   O   0.0214524  -0.4425873   0.3700550 SPIN=   0.00000
   O  -0.2020828  -0.3771778   0.1489996 SPIN=   0.00000
   O  -0.3668565  -0.6042702   0.2316439 SPIN=   0.00000
   O  -0.3613069  -0.3185354   0.4162234 SPIN=   0.00000
   S  -0.2271984  -0.4356427   0.2917305 SPIN=   0.00000
   O   0.0136231  -0.1585394  -0.5372619 SPIN=   0.00000
   O   0.3765997   0.0187661  -0.5446461 SPIN=   0.00000
   O   0.4033739  -0.1676975  -0.3873064 SPIN=   0.00000
   O   0.1816191   0.0745940  -0.2902386 SPIN=   0.00000
   S   0.2438039  -0.0582192  -0.4398633 SPIN=   0.00000
   O   0.0136231  -0.5372619  -0.1585394 SPIN=   0.00000
   O   0.3765997  -0.5446461   0.0187661 SPIN=   0.00000
   O   0.4033739  -0.3873064  -0.1676975 SPIN=   0.00000
   O   0.1816191  -0.2902386   0.0745940 SPIN=   0.00000
   S   0.2438039  -0.4398633  -0.0582192 SPIN=   0.00000
   F  -0.3594959   0.2005158  -0.0791803 SPIN=   0.00000
   F  -0.3594959  -0.0791803   0.2005158 SPIN=   0.00000
   F   0.1968866   0.2658838   0.2658838 SPIN=   0.00000
   F  -0.1996851  -0.2623687  -0.2623687 SPIN=   0.00000
%ENDBLOCK POSITIONS_FRAC

# Note: total spin =  16.00

KPOINTS_MP_SPACING 0.07

%BLOCK SPECIES_POT
QC5
%ENDBLOCK SPECIES_POT

SNAP_TO_SYMMETRY
SYMMETRY_GENERATE

