#              Generated by Buildcell
#
# at 15:44:26 (GMT+1.0) 18th August 2020
# in /scratch/scratch/uccabz1/launch_tmp
# on node-k10i-025
# by uccabz1
#
# compiler GCC version 4.9.2
# options -cpp -iprefix /scratch/UCL/applications/gcc/4.9.2/bin/../lib/gcc/x86_64-unknown-linux-gnu/4.9.2/ -mtune=corei7 -march=x86-64 -g -O2
#
# seed  -972558975   838807449 -1055641914 -1229323865  -266512395 -1661319306  1528431184  -298801353  1970943371   312927374  -949583353 -2051787291
#
#      Author: C. J. Pickard (cjp20@cam.ac.uk)
#                Space group: Pnc2
#

%BLOCK LATTICE_ABC
      7.09116      7.45881      7.56264
     90.00000     90.00000     90.00000
%ENDBLOCK LATTICE_ABC

%BLOCK POSITIONS_FRAC
  Li   0.4700317  -0.3686946  -0.2538100 SPIN=   0.00000
  Li  -0.4700317  -0.3686946   0.2538100 SPIN=   0.00000
  Li   0.4700317   0.1313054  -0.2461900 SPIN=   0.00000
  Li  -0.4700317   0.1313054   0.2461900 SPIN=   0.00000
  Fe   0.1035704  -0.3733400   0.2176812 SPIN=   4.00000
  Fe  -0.1035704  -0.3733400  -0.2176812 SPIN=   4.00000
  Fe   0.1035704   0.1266600   0.2823188 SPIN=   4.00000
  Fe  -0.1035704   0.1266600  -0.2823188 SPIN=   4.00000
   O   0.2297820  -0.3128991  -0.0429541 SPIN=   0.00000
   O   0.0562176  -0.0442903  -0.1450516 SPIN=   0.00000
   O   0.3684425  -0.1167331  -0.2726426 SPIN=   0.00000
   O   0.3444179  -0.0100063   0.0363965 SPIN=   0.00000
   S   0.2497150  -0.1209822  -0.1060629 SPIN=   0.00000
   O  -0.2297820  -0.3128991   0.0429541 SPIN=   0.00000
   O  -0.0562176  -0.0442903   0.1450516 SPIN=   0.00000
   O  -0.3684425  -0.1167331   0.2726426 SPIN=   0.00000
   O  -0.3444179  -0.0100063  -0.0363965 SPIN=   0.00000
   S  -0.2497150  -0.1209822   0.1060629 SPIN=   0.00000
   O   0.2297820   0.1871009  -0.4570459 SPIN=   0.00000
   O   0.0562176   0.4557097  -0.3549484 SPIN=   0.00000
   O   0.3684425   0.3832669  -0.2273574 SPIN=   0.00000
   O   0.3444179   0.4899937  -0.5363965 SPIN=   0.00000
   S   0.2497150   0.3790178  -0.3939371 SPIN=   0.00000
   O  -0.2297820   0.1871009   0.4570459 SPIN=   0.00000
   O  -0.0562176   0.4557097   0.3549484 SPIN=   0.00000
   O  -0.3684425   0.3832669   0.2273574 SPIN=   0.00000
   O  -0.3444179   0.4899937   0.5363965 SPIN=   0.00000
   S  -0.2497150   0.3790178   0.3939371 SPIN=   0.00000
   F   0.2449744  -0.1530961   0.3714029 SPIN=   0.00000
   F  -0.2449744  -0.1530961  -0.3714029 SPIN=   0.00000
   F   0.2449744   0.3469039   0.1285971 SPIN=   0.00000
   F  -0.2449744   0.3469039  -0.1285971 SPIN=   0.00000
%ENDBLOCK POSITIONS_FRAC

# Note: total spin =  16.00

KPOINTS_MP_SPACING 0.07

%BLOCK SPECIES_POT
QC5
%ENDBLOCK SPECIES_POT

SNAP_TO_SYMMETRY
SYMMETRY_GENERATE

