#              Generated by Buildcell
#
# at 07:33:30 (GMT+1.0) 4th August 2020
# in /lustre/scratch/uccabz1/launch_tmp
# on node-c12c-026
# by uccabz1
#
# compiler GCC version 4.9.2
# options -cpp -iprefix /lustre/shared/ucl/apps/gcc/4.9.2/bin/../lib/gcc/x86_64-unknown-linux-gnu/4.9.2/ -mtune=corei7 -march=x86-64 -g -Og
#
# seed   799252797  1353548276 -1699192574  -990413598  1346916140  1738786311  1451021867   904078343 -1904311552  2001524283   189009194  -441769877
#
#      Author: C. J. Pickard (cjp20@cam.ac.uk)
#                Space group: Aea2
#

%BLOCK LATTICE_ABC
      7.31234      7.31234      7.48186
     90.00000     90.00000     90.97496
%ENDBLOCK LATTICE_ABC

%BLOCK POSITIONS_FRAC
  Li   0.2262881   0.2570263   0.2506660 SPIN=   0.00000
  Li   0.2570263   0.2262881  -0.2506660 SPIN=   0.00000
  Li  -0.2429737  -0.2737119  -0.2493340 SPIN=   0.00000
  Li  -0.2737119  -0.2429737   0.2493340 SPIN=   0.00000
  Fe  -0.4946509  -0.0360319  -0.0379772 SPIN=   4.00000
  Fe  -0.0360319  -0.4946509   0.0379772 SPIN=   4.00000
  Fe   0.4639681   0.0053491   0.4620228 SPIN=   4.00000
  Fe   0.0053491   0.4639681  -0.4620228 SPIN=   4.00000
   O   0.2406739  -0.1806940  -0.0975956 SPIN=   0.00000
   O   0.2103542  -0.0158074  -0.3846625 SPIN=   0.00000
   O  -0.0415685  -0.0113967  -0.1638888 SPIN=   0.00000
   O   0.0252737  -0.2963630  -0.3280927 SPIN=   0.00000
   S   0.1086833  -0.1260653  -0.2435599 SPIN=   0.00000
   O  -0.1806940   0.2406739   0.0975956 SPIN=   0.00000
   O  -0.0158074   0.2103542   0.3846625 SPIN=   0.00000
   O  -0.0113967  -0.0415685   0.1638888 SPIN=   0.00000
   O  -0.2963630   0.0252737   0.3280927 SPIN=   0.00000
   S  -0.1260653   0.1086833   0.2435599 SPIN=   0.00000
   O   0.3193060  -0.2593261   0.4024044 SPIN=   0.00000
   O   0.4841926  -0.2896458   0.1153375 SPIN=   0.00000
   O   0.4886033  -0.5415685   0.3361112 SPIN=   0.00000
   O   0.2036370  -0.4747263   0.1719073 SPIN=   0.00000
   S   0.3739347  -0.3913167   0.2564401 SPIN=   0.00000
   O  -0.2593261   0.3193060  -0.4024044 SPIN=   0.00000
   O  -0.2896458   0.4841926  -0.1153375 SPIN=   0.00000
   O  -0.5415685   0.4886033  -0.3361112 SPIN=   0.00000
   O  -0.4747263   0.2036370  -0.1719073 SPIN=   0.00000
   S  -0.3913167   0.3739347  -0.2564401 SPIN=   0.00000
   F   0.0751169   0.3807303  -0.1462702 SPIN=   0.00000
   F   0.3807303   0.0751169   0.1462702 SPIN=   0.00000
   F  -0.1192697  -0.4248831   0.3537298 SPIN=   0.00000
   F  -0.4248831  -0.1192697  -0.3537298 SPIN=   0.00000
%ENDBLOCK POSITIONS_FRAC

# Note: total spin =  16.00

KPOINTS_MP_SPACING 0.07

%BLOCK SPECIES_POT
QC5
%ENDBLOCK SPECIES_POT

SNAP_TO_SYMMETRY
SYMMETRY_GENERATE

