#              Generated by Buildcell
#
# at 06:28:04 (GMT+1.0) 4th August 2020
# in /lustre/scratch/uccabz1/launch_tmp
# on node-c12l-019
# by uccabz1
#
# compiler GCC version 4.9.2
# options -cpp -iprefix /lustre/shared/ucl/apps/gcc/4.9.2/bin/../lib/gcc/x86_64-unknown-linux-gnu/4.9.2/ -mtune=corei7 -march=x86-64 -g -Og
#
# seed -1518961636 -1650814892 -1827981286  1430382704 -1075841264  1685818629   762530282 -1143673548 -1801213071 -1065461287 -1745059539  1983350599
#
#      Author: C. J. Pickard (cjp20@cam.ac.uk)
#                Space group: P21
#

%BLOCK LATTICE_ABC
      7.22617      7.74458      8.09749
    118.03271     90.00000     90.00000
%ENDBLOCK LATTICE_ABC

%BLOCK POSITIONS_FRAC
  Li  -0.0272657  -0.3095602  -0.0504914 SPIN=   0.00000
  Li   0.4727343   0.3095602   0.0504914 SPIN=   0.00000
  Li  -0.4663047   0.2480363  -0.4702670 SPIN=   0.00000
  Li   0.0336953  -0.2480363   0.4702670 SPIN=   0.00000
  Fe  -0.2560530  -0.0129003  -0.2012592 SPIN=   4.61390
  Fe   0.2439470   0.0129003   0.2012592 SPIN=   4.61390
  Fe   0.0535551   0.3877120   0.0846811 SPIN=   3.38610
  Fe  -0.4464449  -0.3877120  -0.0846811 SPIN=   3.38610
   O  -0.1829874  -0.2695410   0.2885782 SPIN=   0.00000
   O  -0.4541516  -0.1241790   0.2132190 SPIN=   0.00000
   O  -0.2616831   0.0787084   0.4903588 SPIN=   0.00000
   O  -0.4617860  -0.1811156   0.4893808 SPIN=   0.00000
   S  -0.3401520  -0.1240318   0.3703842 SPIN=   0.00000
   O   0.3170126   0.2695410  -0.2885782 SPIN=   0.00000
   O   0.0458484   0.1241790  -0.2132190 SPIN=   0.00000
   O   0.2383169  -0.0787084  -0.4903588 SPIN=   0.00000
   O   0.0382140   0.1811156  -0.4893808 SPIN=   0.00000
   S   0.1598480   0.1240318  -0.3703842 SPIN=   0.00000
   O   0.5449609   0.4227974   0.3385654 SPIN=   0.00000
   O   0.2667867   0.5937786   0.3107618 SPIN=   0.00000
   O   0.3612783   0.6329762   0.6202832 SPIN=   0.00000
   O   0.2333907   0.3173196   0.3815690 SPIN=   0.00000
   S   0.3516041   0.4917179   0.4127948 SPIN=   0.00000
   O   0.0449609  -0.4227974  -0.3385654 SPIN=   0.00000
   O  -0.2332133  -0.5937786  -0.3107618 SPIN=   0.00000
   O  -0.1387217  -0.6329762  -0.6202832 SPIN=   0.00000
   O  -0.2666093  -0.3173196  -0.3815690 SPIN=   0.00000
   S  -0.1483959  -0.4917179  -0.4127948 SPIN=   0.00000
   F   0.2225465  -0.4067683  -0.0047098 SPIN=   0.00000
   F  -0.2774535   0.4067683   0.0047098 SPIN=   0.00000
   F  -0.1510730  -0.0627618   0.0080574 SPIN=   0.00000
   F   0.3489270   0.0627618  -0.0080574 SPIN=   0.00000
%ENDBLOCK POSITIONS_FRAC

# Note: total spin =  16.00

KPOINTS_MP_SPACING 0.07

%BLOCK SPECIES_POT
QC5
%ENDBLOCK SPECIES_POT

SNAP_TO_SYMMETRY
SYMMETRY_GENERATE

