#              Generated by Buildcell
#
# at 09:08:44 (GMT+1.0) 4th August 2020
# in /lustre/scratch/uccabz1/launch_tmp
# on node-c12o-004
# by uccabz1
#
# compiler GCC version 4.9.2
# options -cpp -iprefix /lustre/shared/ucl/apps/gcc/4.9.2/bin/../lib/gcc/x86_64-unknown-linux-gnu/4.9.2/ -mtune=corei7 -march=x86-64 -g -Og
#
# seed -1630267816  1449998376  1437560351   444187778  2136501761  1215650606 -1261923648  1930080162  -137717724 -1630060823  -610140244   437537199
#
#      Author: C. J. Pickard (cjp20@cam.ac.uk)
#                Space group: P-1
#

%BLOCK LATTICE_ABC
      3.88245      9.92773     10.88993
     72.52116     87.59711     88.93145
%ENDBLOCK LATTICE_ABC

%BLOCK POSITIONS_FRAC
  Li  -0.3862973   0.0759799   0.3084719 SPIN=   0.00000
  Li   0.3862973  -0.0759799  -0.3084719 SPIN=   0.00000
  Li  -0.2256294  -0.4246107  -0.1496713 SPIN=   0.00000
  Li   0.2256294   0.4246107   0.1496713 SPIN=   0.00000
  Fe   0.4334187   0.1439816  -0.1554890 SPIN=   4.29024
  Fe  -0.4334187  -0.1439816   0.1554890 SPIN=   4.29024
  Fe  -0.0751359  -0.2569344   0.4873821 SPIN=   3.70976
  Fe   0.0751359   0.2569344  -0.4873821 SPIN=   3.70976
   O   0.2842684  -0.3087242   0.0811134 SPIN=   0.00000
   O   0.3028741  -0.3281203  -0.1403958 SPIN=   0.00000
   O   0.2976625  -0.0927159  -0.1060375 SPIN=   0.00000
   O  -0.2257751  -0.2407158  -0.0534979 SPIN=   0.00000
   S   0.1647575  -0.2425691  -0.0547044 SPIN=   0.00000
   O  -0.2842684   0.3087242  -0.0811134 SPIN=   0.00000
   O  -0.3028741   0.3281203   0.1403958 SPIN=   0.00000
   O  -0.2976625   0.0927159   0.1060375 SPIN=   0.00000
   O   0.2257751   0.2407158   0.0534979 SPIN=   0.00000
   S  -0.1647575   0.2425691   0.0547044 SPIN=   0.00000
   O   0.2502517   0.6331976  -0.3778012 SPIN=   0.00000
   O   0.7700406   0.4828620  -0.3201946 SPIN=   0.00000
   O   0.2647526   0.3931160  -0.4020196 SPIN=   0.00000
   O   0.2340876   0.4236988  -0.1844903 SPIN=   0.00000
   S   0.3797831   0.4832186  -0.3211264 SPIN=   0.00000
   O  -0.2502517  -0.6331976   0.3778012 SPIN=   0.00000
   O  -0.7700406  -0.4828620   0.3201946 SPIN=   0.00000
   O  -0.2647526  -0.3931160   0.4020196 SPIN=   0.00000
   O  -0.2340876  -0.4236988   0.1844903 SPIN=   0.00000
   S  -0.3797831  -0.4832186   0.3211264 SPIN=   0.00000
   F  -0.1117070   0.1409658  -0.2543186 SPIN=   0.00000
   F   0.1117070  -0.1409658   0.2543186 SPIN=   0.00000
   F  -0.2584162  -0.1468447  -0.3932962 SPIN=   0.00000
   F   0.2584162   0.1468447   0.3932962 SPIN=   0.00000
%ENDBLOCK POSITIONS_FRAC

# Note: total spin =  16.00

KPOINTS_MP_SPACING 0.07

%BLOCK SPECIES_POT
QC5
%ENDBLOCK SPECIES_POT

SNAP_TO_SYMMETRY
SYMMETRY_GENERATE

