#              Generated by Buildcell
#
# at 23:34:33 (GMT+1.0) 17th August 2020
# in /scratch/scratch/uccabz1/launch_tmp
# on node-k10b-001
# by uccabz1
#
# compiler GCC version 4.9.2
# options -cpp -iprefix /scratch/UCL/applications/gcc/4.9.2/bin/../lib/gcc/x86_64-unknown-linux-gnu/4.9.2/ -mtune=corei7 -march=x86-64 -g -O2
#
# seed  -874078794 -1884997660   111160377  2017416354  -952370746 -1945124500 -1298166938   117474567  -391181463 -1665865919 -1784411383  1174559864
#
#      Author: C. J. Pickard (cjp20@cam.ac.uk)
#                Space group: Cc
#

%BLOCK LATTICE_ABC
      6.20885      7.34546      9.39457
     97.97029    109.29603     90.00000
%ENDBLOCK LATTICE_ABC

%BLOCK POSITIONS_FRAC
  Li   0.1690417  -0.4816660   0.0304172 SPIN=   0.00000
  Li  -0.1386245   0.0183340   0.0304172 SPIN=   0.00000
  Li   0.4014650  -0.3747010  -0.4025392 SPIN=   0.00000
  Li   0.1959958   0.1252990  -0.4025392 SPIN=   0.00000
  Fe  -0.3600675   0.3873269   0.0442592 SPIN=   2.94064
  Fe   0.4043267  -0.1126731   0.0442592 SPIN=   2.94064
  Fe   0.0333271  -0.2233428   0.2786041 SPIN=   5.05936
  Fe   0.2452770   0.2766572   0.2786041 SPIN=   5.05936
   O  -0.3192234  -0.3847807  -0.0821879 SPIN=   0.00000
   O  -0.2505856  -0.3944364  -0.3280110 SPIN=   0.00000
   O   0.0597347  -0.2858628  -0.0858109 SPIN=   0.00000
   O  -0.2723706  -0.0947974  -0.1775153 SPIN=   0.00000
   S  -0.1956112  -0.2899693  -0.1683813 SPIN=   0.00000
   O   0.2370355   0.1152193  -0.0821879 SPIN=   0.00000
   O  -0.0774255   0.1055636  -0.3280110 SPIN=   0.00000
   O  -0.1455456   0.2141372  -0.0858109 SPIN=   0.00000
   O   0.0948554   0.4052026  -0.1775153 SPIN=   0.00000
   S   0.0272299   0.2100307  -0.1683813 SPIN=   0.00000
   O  -0.5202315  -0.2934395   0.2241393 SPIN=   0.00000
   O  -0.1662525  -0.3792934   0.4137388 SPIN=   0.00000
   O  -0.5429161  -0.4957140   0.4091134 SPIN=   0.00000
   O  -0.4246457  -0.1661790   0.4969491 SPIN=   0.00000
   S  -0.4135115  -0.3336565   0.3859852 SPIN=   0.00000
   O  -0.2556291   0.2065605   0.2241393 SPIN=   0.00000
   O  -0.4200087   0.1207066   0.4137388 SPIN=   0.00000
   O  -0.0479705   0.0042860   0.4091134 SPIN=   0.00000
   O  -0.0784051   0.3338210   0.4969491 SPIN=   0.00000
   S  -0.2005034   0.1663435   0.3859852 SPIN=   0.00000
   F   0.2205171  -0.1896907  -0.3506964 SPIN=   0.00000
   F   0.4287866   0.3103093  -0.3506964 SPIN=   0.00000
   F   0.1598855  -0.0066333   0.1752716 SPIN=   0.00000
   F   0.0153861   0.4933667   0.1752716 SPIN=   0.00000
%ENDBLOCK POSITIONS_FRAC

# Note: total spin =  16.00

KPOINTS_MP_SPACING 0.07

%BLOCK SPECIES_POT
QC5
%ENDBLOCK SPECIES_POT

SNAP_TO_SYMMETRY
SYMMETRY_GENERATE

