#              Generated by Buildcell
#
# at 07:18:34 (GMT+1.0) 4th August 2020
# in /lustre/scratch/uccabz1/launch_tmp
# on node-c12j-012
# by uccabz1
#
# compiler GCC version 4.9.2
# options -cpp -iprefix /lustre/shared/ucl/apps/gcc/4.9.2/bin/../lib/gcc/x86_64-unknown-linux-gnu/4.9.2/ -mtune=corei7 -march=x86-64 -g -Og
#
# seed  -623969723  -980373500 -1459483073  1787781784  -412639506   649373871 -1644423627 -2124805975  -621749199 -2079416881 -1533807961  1616892663
#
#      Author: C. J. Pickard (cjp20@cam.ac.uk)
#                Space group: P-1
#

%BLOCK LATTICE_ABC
      4.97483      7.46054     10.83807
     95.85622     90.71472     91.33994
%ENDBLOCK LATTICE_ABC

%BLOCK POSITIONS_FRAC
  Li  -0.2334330   0.1614401  -0.3878045 SPIN=   0.00000
  Li   0.2334330  -0.1614401   0.3878045 SPIN=   0.00000
  Li  -0.2524926  -0.1433854   0.0930908 SPIN=   0.00000
  Li   0.2524926   0.1433854  -0.0930908 SPIN=   0.00000
  Fe   0.2616494  -0.4120706  -0.1891880 SPIN=   2.90082
  Fe  -0.2616494   0.4120706   0.1891880 SPIN=   2.90082
  Fe   0.3064751   0.2801098   0.4538545 SPIN=   5.09918
  Fe  -0.3064751  -0.2801098  -0.4538545 SPIN=   5.09918
   O   0.0623268  -0.1134170  -0.4449319 SPIN=   0.00000
   O   0.1420774  -0.1429250  -0.2221398 SPIN=   0.00000
   O   0.1293413   0.1594937  -0.2967023 SPIN=   0.00000
   O   0.5115270  -0.0388465  -0.3502270 SPIN=   0.00000
   S   0.2113181  -0.0339237  -0.3285003 SPIN=   0.00000
   O  -0.0623268   0.1134170   0.4449319 SPIN=   0.00000
   O  -0.1420774   0.1429250   0.2221398 SPIN=   0.00000
   O  -0.1293413  -0.1594937   0.2967023 SPIN=   0.00000
   O  -0.5115270   0.0388465   0.3502270 SPIN=   0.00000
   S  -0.2113181   0.0339237   0.3285003 SPIN=   0.00000
   O   0.1774608  -0.4317738   0.2463654 SPIN=   0.00000
   O   0.2541729  -0.1208147   0.1916122 SPIN=   0.00000
   O   0.0352537  -0.3508524   0.0399678 SPIN=   0.00000
   O   0.5192416  -0.3702483   0.0911251 SPIN=   0.00000
   S   0.2465323  -0.3184223   0.1422676 SPIN=   0.00000
   O  -0.1774608   0.4317738  -0.2463654 SPIN=   0.00000
   O  -0.2541729   0.1208147  -0.1916122 SPIN=   0.00000
   O  -0.0352537   0.3508524  -0.0399678 SPIN=   0.00000
   O  -0.5192416   0.3702483  -0.0911251 SPIN=   0.00000
   S  -0.2465323   0.3184223  -0.1422676 SPIN=   0.00000
   F   0.2850943   0.1791280   0.0997292 SPIN=   0.00000
   F  -0.2850943  -0.1791280  -0.0997292 SPIN=   0.00000
   F   0.2523154   0.4637204  -0.3697088 SPIN=   0.00000
   F  -0.2523154  -0.4637204   0.3697088 SPIN=   0.00000
%ENDBLOCK POSITIONS_FRAC

# Note: total spin =  16.00

KPOINTS_MP_SPACING 0.07

%BLOCK SPECIES_POT
QC5
%ENDBLOCK SPECIES_POT

SNAP_TO_SYMMETRY
SYMMETRY_GENERATE

