#              Generated by Buildcell
#
# at 06:24:10 (GMT+1.0) 4th August 2020
# in /lustre/scratch/uccabz1/launch_tmp
# on node-c12l-010
# by uccabz1
#
# compiler GCC version 4.9.2
# options -cpp -iprefix /lustre/shared/ucl/apps/gcc/4.9.2/bin/../lib/gcc/x86_64-unknown-linux-gnu/4.9.2/ -mtune=corei7 -march=x86-64 -g -Og
#
# seed   611867894 -1498356789 -1106741854  1071806250  1257832587  -925152507   381910389  -693790745   111396549   498310226  -745561151  -874304027
#
#      Author: C. J. Pickard (cjp20@cam.ac.uk)
#                Space group: Cc
#

%BLOCK LATTICE_ABC
      7.65465      7.87234      7.87234
     66.05309     71.13081     71.13081
%ENDBLOCK LATTICE_ABC

%BLOCK POSITIONS_FRAC
  Li   0.0763643   0.0802629  -0.1413673 SPIN=   0.00000
  Li  -0.4236357  -0.1413673   0.0802629 SPIN=   0.00000
  Li  -0.3445273   0.0989218   0.3682869 SPIN=   0.00000
  Li   0.1554727   0.3682869   0.0989218 SPIN=   0.00000
  Fe  -0.0911506  -0.4753896   0.4711891 SPIN=   2.78594
  Fe   0.4088494   0.4711891  -0.4753896 SPIN=   2.78594
  Fe  -0.4127389   0.2773839  -0.0368498 SPIN=   5.21406
  Fe   0.0872611  -0.0368498   0.2773839 SPIN=   5.21406
   O  -0.4503807  -0.0179393  -0.3220491 SPIN=   0.00000
   O  -0.2724504  -0.2789390  -0.0918300 SPIN=   0.00000
   O  -0.1462469   0.0089678  -0.2987480 SPIN=   0.00000
   O  -0.1496524  -0.2206385  -0.4379268 SPIN=   0.00000
   S  -0.2546826  -0.1271372  -0.2876385 SPIN=   0.00000
   O   0.0496193  -0.3220491  -0.0179393 SPIN=   0.00000
   O   0.2275496  -0.0918300  -0.2789390 SPIN=   0.00000
   O   0.3537531  -0.2987480   0.0089678 SPIN=   0.00000
   O   0.3503476  -0.4379268  -0.2206385 SPIN=   0.00000
   S   0.2453174  -0.2876385  -0.1271372 SPIN=   0.00000
   O  -0.4227913   0.4568937   0.1418410 SPIN=   0.00000
   O  -0.1887711   0.2616095   0.3416589 SPIN=   0.00000
   O  -0.2314082   0.6125582   0.2094024 SPIN=   0.00000
   O  -0.0798839   0.4208554  -0.0044723 SPIN=   0.00000
   S  -0.2307136   0.4379792   0.1721075 SPIN=   0.00000
   O   0.0772087   0.1418410   0.4568937 SPIN=   0.00000
   O   0.3112289   0.3416589   0.2616095 SPIN=   0.00000
   O   0.2685918   0.2094024   0.6125582 SPIN=   0.00000
   O   0.4201161  -0.0044723   0.4208554 SPIN=   0.00000
   S   0.2692864   0.1721075   0.4379792 SPIN=   0.00000
   F  -0.2030810  -0.0249753   0.1192255 SPIN=   0.00000
   F   0.2969190   0.1192255  -0.0249753 SPIN=   0.00000
   F   0.2067215  -0.3184956   0.3944427 SPIN=   0.00000
   F  -0.2932785   0.3944427  -0.3184956 SPIN=   0.00000
%ENDBLOCK POSITIONS_FRAC

# Note: total spin =  16.00

KPOINTS_MP_SPACING 0.07

%BLOCK SPECIES_POT
QC5
%ENDBLOCK SPECIES_POT

SNAP_TO_SYMMETRY
SYMMETRY_GENERATE

