#              Generated by Buildcell
#
# at 09:50:20 (GMT+1.0) 4th August 2020
# in /lustre/scratch/uccabz1/launch_tmp
# on node-c12o-002
# by uccabz1
#
# compiler GCC version 4.9.2
# options -cpp -iprefix /lustre/shared/ucl/apps/gcc/4.9.2/bin/../lib/gcc/x86_64-unknown-linux-gnu/4.9.2/ -mtune=corei7 -march=x86-64 -g -Og
#
# seed -1431616965  1635987585 -1383530153   313822709  1096347817  -367811902  1746047065   797782646  -899250876  -784730235  1659539528   232846167
#
#      Author: C. J. Pickard (cjp20@cam.ac.uk)
#                Space group: I41
#

%BLOCK LATTICE_ABC
      7.54101      7.54101      8.82668
    115.28820    115.28820     90.00000
%ENDBLOCK LATTICE_ABC

%BLOCK POSITIONS_FRAC
  Li  -0.0307137  -0.3382496   0.4282151 SPIN=   0.00000
  Li   0.4589288  -0.2335353   0.4282151 SPIN=   0.00000
  Li   0.4117504  -0.2910712  -0.0717849 SPIN=   0.00000
  Li  -0.4835353   0.2192863  -0.0717849 SPIN=   0.00000
  Fe  -0.1933122   0.1254607  -0.2415672 SPIN=   4.00000
  Fe  -0.0482550  -0.3670279  -0.2415672 SPIN=   4.00000
  Fe  -0.1245393   0.2017450   0.2584328 SPIN=   4.00000
  Fe   0.3829721   0.0566878   0.2584328 SPIN=   4.00000
   O   0.4140641   0.0751730  -0.3527342 SPIN=   0.00000
   O   0.1079873   0.1915443  -0.4936987 SPIN=   0.00000
   O   0.0990606  -0.0398003  -0.3641708 SPIN=   0.00000
   O   0.1254013  -0.1625985  -0.6607969 SPIN=   0.00000
   S   0.1866283   0.0160796  -0.4678502 SPIN=   0.00000
   O   0.2332017  -0.4279072  -0.3527342 SPIN=   0.00000
   O   0.3983140  -0.6852430  -0.4936987 SPIN=   0.00000
   O   0.5367686  -0.3243705  -0.3641708 SPIN=   0.00000
   O   0.2138018  -0.4981985  -0.6607969 SPIN=   0.00000
   S   0.3455215  -0.4839298  -0.4678502 SPIN=   0.00000
   O  -0.1748270  -0.5167983   0.1472658 SPIN=   0.00000
   O  -0.0584557  -0.3516860   0.0063013 SPIN=   0.00000
   O  -0.2898003  -0.2132314   0.1358292 SPIN=   0.00000
   O  -0.4125985  -0.5361982  -0.1607969 SPIN=   0.00000
   S  -0.2339204  -0.4044785   0.0321498 SPIN=   0.00000
   O   0.3220928   0.6640641   0.1472658 SPIN=   0.00000
   O   0.0647570   0.3579873   0.0063013 SPIN=   0.00000
   O   0.4256295   0.3490606   0.1358292 SPIN=   0.00000
   O   0.2518015   0.3754013  -0.1607969 SPIN=   0.00000
   S   0.2660702   0.4366283   0.0321498 SPIN=   0.00000
   F  -0.1786117   0.4655700   0.4529718 SPIN=   0.00000
   F  -0.3684165  -0.0125982   0.4529718 SPIN=   0.00000
   F   0.2155700  -0.1184165  -0.0470282 SPIN=   0.00000
   F  -0.2625982   0.0713883  -0.0470282 SPIN=   0.00000
%ENDBLOCK POSITIONS_FRAC

# Note: total spin =  16.00

KPOINTS_MP_SPACING 0.07

%BLOCK SPECIES_POT
QC5
%ENDBLOCK SPECIES_POT

SNAP_TO_SYMMETRY
SYMMETRY_GENERATE

