#              Generated by Buildcell
#
# at 03:06:29 (GMT+1.0) 18th August 2020
# in /lustre/scratch/uccabz1/launch_tmp
# on node-c12j-026
# by uccabz1
#
# compiler GCC version 4.9.2
# options -cpp -iprefix /lustre/shared/ucl/apps/gcc/4.9.2/bin/../lib/gcc/x86_64-unknown-linux-gnu/4.9.2/ -mtune=corei7 -march=x86-64 -g -Og
#
# seed    91007030  -411824494   808360488  -152211859   400318969  1519850445  -605334762 -1540881978  -844591538    47759356 -1604981279 -1313622513
#
#      Author: C. J. Pickard (cjp20@cam.ac.uk)
#                Space group: P41
#

%BLOCK LATTICE_ABC
      5.00311      5.00311     15.98011
     90.00000     90.00000     90.00000
%ENDBLOCK LATTICE_ABC

%BLOCK POSITIONS_FRAC
  Li  -0.0448631   0.4118350  -0.2232008 SPIN=   0.00000
  Li   0.0448631  -0.4118350   0.2767992 SPIN=   0.00000
  Li  -0.4118350  -0.0448631  -0.4732008 SPIN=   0.00000
  Li   0.4118350   0.0448631   0.0267992 SPIN=   0.00000
  Fe   0.4551387   0.2991467  -0.3113577 SPIN=   4.00000
  Fe  -0.4551387  -0.2991467   0.1886423 SPIN=   4.00000
  Fe  -0.2991467   0.4551387   0.4386423 SPIN=   4.00000
  Fe   0.2991467  -0.4551387  -0.0613577 SPIN=   4.00000
   O  -0.1285395  -0.2513162  -0.0720941 SPIN=   0.00000
   O  -0.2137205   0.1950284  -0.0108896 SPIN=   0.00000
   O  -0.3709176   0.0912495  -0.1540939 SPIN=   0.00000
   O   0.1127210   0.1444834  -0.1261692 SPIN=   0.00000
   S  -0.1501141   0.0448613  -0.0908117 SPIN=   0.00000
   O   0.1285395   0.2513162   0.4279059 SPIN=   0.00000
   O   0.2137205  -0.1950284   0.4891104 SPIN=   0.00000
   O   0.3709176  -0.0912495   0.3459061 SPIN=   0.00000
   O  -0.1127210  -0.1444834   0.3738308 SPIN=   0.00000
   S   0.1501141  -0.0448613   0.4091883 SPIN=   0.00000
   O   0.2513162  -0.1285395  -0.3220941 SPIN=   0.00000
   O  -0.1950284  -0.2137205  -0.2608896 SPIN=   0.00000
   O  -0.0912495  -0.3709176  -0.4040939 SPIN=   0.00000
   O  -0.1444834   0.1127210  -0.3761692 SPIN=   0.00000
   S  -0.0448613  -0.1501141  -0.3408117 SPIN=   0.00000
   O  -0.2513162   0.1285395   0.1779059 SPIN=   0.00000
   O   0.1950284   0.2137205   0.2391104 SPIN=   0.00000
   O   0.0912495   0.3709176   0.0959061 SPIN=   0.00000
   O   0.1444834  -0.1127210   0.1238308 SPIN=   0.00000
   S   0.0448613   0.1501141   0.1591883 SPIN=   0.00000
   F   0.3928958  -0.4404852  -0.1827878 SPIN=   0.00000
   F  -0.3928958   0.4404852   0.3172122 SPIN=   0.00000
   F   0.4404852   0.3928958  -0.4327878 SPIN=   0.00000
   F  -0.4404852  -0.3928958   0.0672122 SPIN=   0.00000
%ENDBLOCK POSITIONS_FRAC

# Note: total spin =  16.00

KPOINTS_MP_SPACING 0.07

%BLOCK SPECIES_POT
QC5
%ENDBLOCK SPECIES_POT

SNAP_TO_SYMMETRY
SYMMETRY_GENERATE

