#              Generated by Buildcell
#
# at 04:57:08 (GMT+1.0) 18th August 2020
# in /lustre/scratch/uccabz1/launch_tmp
# on node-c12f-003
# by uccabz1
#
# compiler GCC version 4.9.2
# options -cpp -iprefix /lustre/shared/ucl/apps/gcc/4.9.2/bin/../lib/gcc/x86_64-unknown-linux-gnu/4.9.2/ -mtune=corei7 -march=x86-64 -g -Og
#
# seed  -514082502  1173501534   965093727   131820781  1794014838 -1543485796   433915964   728080228  2129366137   276785352  -173064612  -899798445
#
#      Author: C. J. Pickard (cjp20@cam.ac.uk)
#                Space group: Cc
#

%BLOCK LATTICE_ABC
      5.39085      5.39085     14.23811
     92.29224     92.29224    104.35768
%ENDBLOCK LATTICE_ABC

%BLOCK POSITIONS_FRAC
  Li   0.0208913   0.0512653  -0.0655533 SPIN=   0.00000
  Li  -0.4487347  -0.4791087   0.4344467 SPIN=   0.00000
  Li  -0.0641391   0.1024059   0.3173629 SPIN=   0.00000
  Li  -0.3975941   0.4358609  -0.1826371 SPIN=   0.00000
  Fe   0.1890809  -0.2229540  -0.4583591 SPIN=   7.13745
  Fe   0.2770460  -0.3109191   0.0416409 SPIN=   7.13745
  Fe   0.4672299   0.2631789   0.2352609 SPIN=   0.86255
  Fe  -0.2368211  -0.0327701  -0.2647391 SPIN=   0.86255
   O   0.3182343  -0.2184330  -0.2430205 SPIN=   0.00000
   O   0.2641169  -0.4750569  -0.1015670 SPIN=   0.00000
   O   0.0131303  -0.6463936  -0.2496416 SPIN=   0.00000
   O  -0.0833597  -0.2841578  -0.1584397 SPIN=   0.00000
   S   0.1280304  -0.4060103  -0.1881672 SPIN=   0.00000
   O   0.2815670  -0.1817657   0.2569795 SPIN=   0.00000
   O   0.0249431  -0.2358831   0.3984330 SPIN=   0.00000
   O  -0.1463936  -0.4868697   0.2503584 SPIN=   0.00000
   O   0.2158422  -0.5833597   0.3415603 SPIN=   0.00000
   S   0.0939897  -0.3719696   0.3118328 SPIN=   0.00000
   O  -0.1048374  -0.2177038   0.0569035 SPIN=   0.00000
   O  -0.0939280   0.2408484   0.0425738 SPIN=   0.00000
   O   0.0679882   0.0945442   0.1901282 SPIN=   0.00000
   O  -0.3973343  -0.0225253   0.1472519 SPIN=   0.00000
   S  -0.1320279   0.0237909   0.1092143 SPIN=   0.00000
   O  -0.7177038   0.3951626  -0.4430965 SPIN=   0.00000
   O  -0.2591516   0.4060720  -0.4574262 SPIN=   0.00000
   O  -0.4054558   0.5679882  -0.3098718 SPIN=   0.00000
   O  -0.5225253   0.1026657  -0.3527481 SPIN=   0.00000
   S  -0.4762091   0.3679721  -0.3907857 SPIN=   0.00000
   F  -0.3731993   0.1147452  -0.1192754 SPIN=   0.00000
   F  -0.3852548   0.1268007   0.3807246 SPIN=   0.00000
   F  -0.0762953  -0.0344913  -0.3992971 SPIN=   0.00000
   F   0.4655087   0.4237047   0.1007029 SPIN=   0.00000
%ENDBLOCK POSITIONS_FRAC

# Note: total spin =  16.00

KPOINTS_MP_SPACING 0.07

%BLOCK SPECIES_POT
QC5
%ENDBLOCK SPECIES_POT

SNAP_TO_SYMMETRY
SYMMETRY_GENERATE

