#              Generated by Buildcell
#
# at 16:28:14 (GMT+1.0) 18th August 2020
# in /lustre/scratch/uccabz1/launch_tmp
# on node-c12o-001
# by uccabz1
#
# compiler GCC version 4.9.2
# options -cpp -iprefix /lustre/shared/ucl/apps/gcc/4.9.2/bin/../lib/gcc/x86_64-unknown-linux-gnu/4.9.2/ -mtune=corei7 -march=x86-64 -g -Og
#
# seed  2063512241  1424576534  2095069042  1791811726  1289667409   960103952   724743657 -1597201065  -483384668 -1855568401 -1940958327  2140557724
#
#      Author: C. J. Pickard (cjp20@cam.ac.uk)
#                Space group: P21
#

%BLOCK LATTICE_ABC
      5.67629      6.28201     11.30157
     90.00000     90.00000     96.99187
%ENDBLOCK LATTICE_ABC

%BLOCK POSITIONS_FRAC
  Li   0.2909204   0.4811886   0.0163463 SPIN=   0.00000
  Li  -0.2909204  -0.4811886  -0.4836537 SPIN=   0.00000
  Li   0.4900920  -0.0706786   0.3139899 SPIN=   0.00000
  Li  -0.4900920   0.0706786  -0.1860101 SPIN=   0.00000
  Fe  -0.1781308   0.4653249  -0.1060213 SPIN=   4.70465
  Fe   0.1781308  -0.4653249   0.3939787 SPIN=   4.70465
  Fe  -0.3472813   0.3571575   0.2066713 SPIN=   3.29535
  Fe   0.3472813  -0.3571575  -0.2933287 SPIN=   3.29535
   O  -0.2934184   0.0397432  -0.5490277 SPIN=   0.00000
   O  -0.3577569   0.1504330  -0.3425318 SPIN=   0.00000
   O  -0.6657513  -0.0950697  -0.4452050 SPIN=   0.00000
   O  -0.5907113   0.2860971  -0.5051053 SPIN=   0.00000
   S  -0.4769095   0.0953009  -0.4604675 SPIN=   0.00000
   O   0.2934184  -0.0397432  -0.0490277 SPIN=   0.00000
   O   0.3577569  -0.1504330   0.1574682 SPIN=   0.00000
   O   0.6657513   0.0950697   0.0547950 SPIN=   0.00000
   O   0.5907113  -0.2860971  -0.0051053 SPIN=   0.00000
   S   0.4769095  -0.0953009   0.0395325 SPIN=   0.00000
   O   0.2063649  -0.0363602  -0.2610650 SPIN=   0.00000
   O  -0.1119183   0.1654401  -0.1872325 SPIN=   0.00000
   O  -0.0665823  -0.1919314  -0.1043196 SPIN=   0.00000
   O  -0.2133980  -0.1602678  -0.3089931 SPIN=   0.00000
   S  -0.0463834  -0.0557798  -0.2154026 SPIN=   0.00000
   O  -0.2063649   0.0363602   0.2389350 SPIN=   0.00000
   O   0.1119183  -0.1654401   0.3127675 SPIN=   0.00000
   O   0.0665823   0.1919314   0.3956804 SPIN=   0.00000
   O   0.2133980   0.1602678   0.1910069 SPIN=   0.00000
   S   0.0463834   0.0557798   0.2845974 SPIN=   0.00000
   F   0.0499561   0.4980983  -0.4169841 SPIN=   0.00000
   F  -0.0499561  -0.4980983   0.0830159 SPIN=   0.00000
   F   0.4338214   0.3827538  -0.1513153 SPIN=   0.00000
   F  -0.4338214  -0.3827538   0.3486847 SPIN=   0.00000
%ENDBLOCK POSITIONS_FRAC

# Note: total spin =  16.00

KPOINTS_MP_SPACING 0.07

%BLOCK SPECIES_POT
QC5
%ENDBLOCK SPECIES_POT

SNAP_TO_SYMMETRY
SYMMETRY_GENERATE

