#              Generated by Buildcell
#
# at 12:52:40 (GMT+1.0) 18th August 2020
# in /lustre/scratch/uccabz1/launch_tmp
# on node-c12o-027
# by uccabz1
#
# compiler GCC version 4.9.2
# options -cpp -iprefix /lustre/shared/ucl/apps/gcc/4.9.2/bin/../lib/gcc/x86_64-unknown-linux-gnu/4.9.2/ -mtune=corei7 -march=x86-64 -g -Og
#
# seed   561502597   749265918   559558378 -1505026606  1289679332  -997819675   777652397   322892572  2127760545 -2020752570  -813230175  1247958978
#
#      Author: C. J. Pickard (cjp20@cam.ac.uk)
#                Space group: Cc
#

%BLOCK LATTICE_ABC
      7.28748      7.82116      8.12612
     84.17979     77.42796     62.23268
%ENDBLOCK LATTICE_ABC

%BLOCK POSITIONS_FRAC
  Li  -0.2414117  -0.4571517   0.3972706 SPIN=   0.00000
  Li  -0.1985634   0.4571517  -0.1027294 SPIN=   0.00000
  Li   0.2630922   0.2216088   0.1608308 SPIN=   0.00000
  Li  -0.0152990  -0.2216088  -0.3391692 SPIN=   0.00000
  Fe  -0.3957073   0.3192981   0.2216888 SPIN=   2.85301
  Fe   0.4235909  -0.3192981  -0.2783112 SPIN=   2.85301
  Fe  -0.4343967   0.1540681  -0.2268037 SPIN=   5.14699
  Fe   0.2196715  -0.1540681   0.2731963 SPIN=   5.14699
   O   0.1161681   0.2952575  -0.1423194 SPIN=   0.00000
   O   0.0705651   0.1106982   0.1158639 SPIN=   0.00000
   O   0.3776280  -0.0459688  -0.1155233 SPIN=   0.00000
   O   0.0183730   0.0336144  -0.1530228 SPIN=   0.00000
   S   0.1456836   0.0984003  -0.0737504 SPIN=   0.00000
   O  -0.0885744  -0.2952575   0.3576806 SPIN=   0.00000
   O  -0.3187367  -0.1106982   0.6158639 SPIN=   0.00000
   O  -0.1683407   0.0459688   0.3844767 SPIN=   0.00000
   O  -0.4480126  -0.0336144   0.3469772 SPIN=   0.00000
   S  -0.2559161  -0.0984003   0.4262496 SPIN=   0.00000
   O  -0.0102160  -0.4896835   0.1127267 SPIN=   0.00000
   O  -0.1629001  -0.2568417  -0.1091622 SPIN=   0.00000
   O   0.2227721  -0.4699041  -0.1521175 SPIN=   0.00000
   O   0.0543910  -0.2034547   0.0555344 SPIN=   0.00000
   S   0.0260118  -0.3549710  -0.0232546 SPIN=   0.00000
   O   0.0001005   0.4896835   0.6127267 SPIN=   0.00000
   O   0.0802582   0.2568417   0.3908378 SPIN=   0.00000
   O   0.2528681   0.4699041   0.3478825 SPIN=   0.00000
   O   0.3509363   0.2034547   0.5555344 SPIN=   0.00000
   S   0.1710408   0.3549710   0.4767454 SPIN=   0.00000
   F  -0.4968685  -0.3647710   0.1193343 SPIN=   0.00000
   F  -0.3616395   0.3647710  -0.3806657 SPIN=   0.00000
   F   0.2547838  -0.1696937  -0.4715921 SPIN=   0.00000
   F  -0.4149099   0.1696937   0.0284079 SPIN=   0.00000
%ENDBLOCK POSITIONS_FRAC

# Note: total spin =  16.00

KPOINTS_MP_SPACING 0.07

%BLOCK SPECIES_POT
QC5
%ENDBLOCK SPECIES_POT

SNAP_TO_SYMMETRY
SYMMETRY_GENERATE

