#              Generated by Buildcell
#
# at 01:05:16 (GMT+1.0) 18th August 2020
# in /scratch/scratch/uccabz1/launch_tmp
# on node-k10d-001
# by uccabz1
#
# compiler GCC version 4.9.2
# options -cpp -iprefix /scratch/UCL/applications/gcc/4.9.2/bin/../lib/gcc/x86_64-unknown-linux-gnu/4.9.2/ -mtune=corei7 -march=x86-64 -g -O2
#
# seed -1488085646 -1366461434  1535837445  1311215924  1469635603  -847611381 -1361258825 -1612436818   807571584  1760207966   241086706   476549534
#
#      Author: C. J. Pickard (cjp20@cam.ac.uk)
#                Space group: Cc
#

%BLOCK LATTICE_ABC
      7.41380      7.41380      7.47803
     98.72689     98.72689     93.61793
%ENDBLOCK LATTICE_ABC

%BLOCK POSITIONS_FRAC
  Li   0.2103510   0.3749354   0.2536740 SPIN=   0.00000
  Li   0.3749354   0.2103510  -0.2463260 SPIN=   0.00000
  Li  -0.4968749  -0.1977907   0.1522131 SPIN=   0.00000
  Li  -0.1977907  -0.4968749  -0.3477869 SPIN=   0.00000
  Fe  -0.3993638   0.4030452   0.1193702 SPIN=   5.16834
  Fe   0.4030452  -0.3993638  -0.3806298 SPIN=   5.16834
  Fe  -0.0056623   0.2051743  -0.1246769 SPIN=   2.83166
  Fe   0.2051743  -0.0056623   0.3753231 SPIN=   2.83166
   O  -0.2573727  -0.0960290   0.0461961 SPIN=   0.00000
   O  -0.3990393   0.1581326  -0.0856446 SPIN=   0.00000
   O  -0.5671102  -0.1495069  -0.1405839 SPIN=   0.00000
   O  -0.2959326  -0.0968994  -0.2885311 SPIN=   0.00000
   S  -0.3798637  -0.0460757  -0.1171409 SPIN=   0.00000
   O  -0.0960290  -0.2573727   0.5461961 SPIN=   0.00000
   O   0.1581326  -0.3990393   0.4143554 SPIN=   0.00000
   O  -0.1495069  -0.5671102   0.3594161 SPIN=   0.00000
   O  -0.0968994  -0.2959326   0.2114689 SPIN=   0.00000
   S  -0.0460757  -0.3798637   0.3828591 SPIN=   0.00000
   O  -0.0318830  -0.1799861  -0.1266624 SPIN=   0.00000
   O   0.1581513  -0.4092039  -0.2630309 SPIN=   0.00000
   O  -0.0369146  -0.4896334  -0.0409660 SPIN=   0.00000
   O   0.2387430  -0.2713127   0.0646482 SPIN=   0.00000
   S   0.0820242  -0.3375340  -0.0915027 SPIN=   0.00000
   O  -0.1799861  -0.0318830   0.3733376 SPIN=   0.00000
   O  -0.4092039   0.1581513   0.2369691 SPIN=   0.00000
   O  -0.4896334  -0.0369146   0.4590340 SPIN=   0.00000
   O  -0.2713127   0.2387430   0.5646482 SPIN=   0.00000
   S  -0.3375340   0.0820242   0.4084973 SPIN=   0.00000
   F  -0.4472335   0.4470166  -0.2366251 SPIN=   0.00000
   F   0.4470166  -0.4472335   0.2633749 SPIN=   0.00000
   F   0.1358572   0.1238104   0.1944511 SPIN=   0.00000
   F   0.1238104   0.1358572  -0.3055489 SPIN=   0.00000
%ENDBLOCK POSITIONS_FRAC

# Note: total spin =  16.00

KPOINTS_MP_SPACING 0.07

%BLOCK SPECIES_POT
QC5
%ENDBLOCK SPECIES_POT

SNAP_TO_SYMMETRY
SYMMETRY_GENERATE

