#              Generated by Buildcell
#
# at 06:46:50 (GMT+1.0) 4th August 2020
# in /lustre/scratch/uccabz1/launch_tmp
# on node-c12k-005
# by uccabz1
#
# compiler GCC version 4.9.2
# options -cpp -iprefix /lustre/shared/ucl/apps/gcc/4.9.2/bin/../lib/gcc/x86_64-unknown-linux-gnu/4.9.2/ -mtune=corei7 -march=x86-64 -g -Og
#
# seed  1964029299  1473271733   469894231  -637428138  1876289760  -453734566  1989811812  1209010467   109295630  -535046471   -26448592  1794414469
#
#      Author: C. J. Pickard (cjp20@cam.ac.uk)
#                Space group: Pca21
#

%BLOCK LATTICE_ABC
      7.06013      7.24487      7.82018
     90.00000     90.00000     90.00000
%ENDBLOCK LATTICE_ABC

%BLOCK POSITIONS_FRAC
  Li   0.3180880  -0.1431026   0.3814349 SPIN=   0.00000
  Li  -0.3180880   0.3568974  -0.3814349 SPIN=   0.00000
  Li  -0.1819120  -0.1431026  -0.3814349 SPIN=   0.00000
  Li   0.1819120   0.3568974   0.3814349 SPIN=   0.00000
  Fe  -0.4482356   0.1849252   0.2940601 SPIN=   4.00000
  Fe   0.4482356  -0.3150748  -0.2940601 SPIN=   4.00000
  Fe   0.0517644   0.1849252  -0.2940601 SPIN=   4.00000
  Fe  -0.0517644  -0.3150748   0.2940601 SPIN=   4.00000
   O  -0.0775583  -0.5112501  -0.2945793 SPIN=   0.00000
   O  -0.1333185  -0.5338431   0.0171620 SPIN=   0.00000
   O  -0.2158005  -0.2469527  -0.1376556 SPIN=   0.00000
   O   0.1204919  -0.3309711  -0.0938543 SPIN=   0.00000
   S  -0.0765464  -0.4057543  -0.1272318 SPIN=   0.00000
   O   0.0775583  -0.0112501   0.2945793 SPIN=   0.00000
   O   0.1333185  -0.0338431  -0.0171620 SPIN=   0.00000
   O   0.2158005   0.2530473   0.1376556 SPIN=   0.00000
   O  -0.1204919   0.1690289   0.0938543 SPIN=   0.00000
   S   0.0765464   0.0942457   0.1272318 SPIN=   0.00000
   O   0.4224417  -0.5112501   0.2945793 SPIN=   0.00000
   O   0.3666815  -0.5338431  -0.0171620 SPIN=   0.00000
   O   0.2841995  -0.2469527   0.1376556 SPIN=   0.00000
   O   0.6204919  -0.3309711   0.0938543 SPIN=   0.00000
   S   0.4234536  -0.4057543   0.1272318 SPIN=   0.00000
   O  -0.4224417  -0.0112501  -0.2945793 SPIN=   0.00000
   O  -0.3666815  -0.0338431   0.0171620 SPIN=   0.00000
   O  -0.2841995   0.2530473  -0.1376556 SPIN=   0.00000
   O  -0.6204919   0.1690289  -0.0938543 SPIN=   0.00000
   S  -0.4234536   0.0942457  -0.1272318 SPIN=   0.00000
   F  -0.1956708   0.4091061   0.3691764 SPIN=   0.00000
   F   0.1956708  -0.0908939  -0.3691764 SPIN=   0.00000
   F   0.3043292   0.4091061  -0.3691764 SPIN=   0.00000
   F  -0.3043292  -0.0908939   0.3691764 SPIN=   0.00000
%ENDBLOCK POSITIONS_FRAC

# Note: total spin =  16.00

KPOINTS_MP_SPACING 0.07

%BLOCK SPECIES_POT
QC5
%ENDBLOCK SPECIES_POT

SNAP_TO_SYMMETRY
SYMMETRY_GENERATE

