#              Generated by Buildcell
#
# at 08:26:22 (GMT+1.0) 18th August 2020
# in /lustre/scratch/uccabz1/launch_tmp
# on node-c12e-013
# by uccabz1
#
# compiler GCC version 4.9.2
# options -cpp -iprefix /lustre/shared/ucl/apps/gcc/4.9.2/bin/../lib/gcc/x86_64-unknown-linux-gnu/4.9.2/ -mtune=corei7 -march=x86-64 -g -Og
#
# seed  1190581829  1273046426   947794370   932439737  -429108774  1936894401 -2093463660  -437886424   -76090126  1956968206   155109072 -1393111487
#
#      Author: C. J. Pickard (cjp20@cam.ac.uk)
#                Space group: Cc
#

%BLOCK LATTICE_ABC
      6.25245      8.08626      9.23566
    115.96190    105.84381     90.00000
%ENDBLOCK LATTICE_ABC

%BLOCK POSITIONS_FRAC
  Li   0.0977442   0.1153287   0.0030904 SPIN=   0.00000
  Li  -0.4022558  -0.1122384   0.0030904 SPIN=   0.00000
  Li   0.1014915  -0.3001461  -0.3666952 SPIN=   0.00000
  Li  -0.3985085  -0.0665492  -0.3666952 SPIN=   0.00000
  Fe   0.4553460   0.4529277  -0.3368783 SPIN=   5.90440
  Fe  -0.0446540   0.2101940  -0.3368783 SPIN=   5.90440
  Fe  -0.3482405  -0.4366974   0.3676153 SPIN=   2.09560
  Fe   0.1517595  -0.1956872   0.3676153 SPIN=   2.09560
   O   0.3007004   0.1198645  -0.1396642 SPIN=   0.00000
   O   0.6095326   0.3313305   0.1120294 SPIN=   0.00000
   O   0.2288571   0.4227623   0.0615524 SPIN=   0.00000
   O   0.4569684   0.4112806  -0.1226868 SPIN=   0.00000
   S   0.3990146   0.3213095  -0.0221923 SPIN=   0.00000
   O  -0.1992996  -0.2595287  -0.1396642 SPIN=   0.00000
   O   0.1095326  -0.2193011   0.1120294 SPIN=   0.00000
   O  -0.2711429  -0.3612099   0.0615524 SPIN=   0.00000
   O  -0.0430316  -0.5339673  -0.1226868 SPIN=   0.00000
   S  -0.1009854  -0.3435018  -0.0221923 SPIN=   0.00000
   O   0.0019009   0.5203292   0.2585959 SPIN=   0.00000
   O   0.2990547   0.3171416   0.2503565 SPIN=   0.00000
   O  -0.0909714   0.1957288   0.2014450 SPIN=   0.00000
   O   0.1361301   0.4282312   0.4871818 SPIN=   0.00000
   S   0.0865286   0.3653577   0.2993948 SPIN=   0.00000
   O  -0.4980991  -0.2617333   0.2585959 SPIN=   0.00000
   O  -0.2009453  -0.0667851   0.2503565 SPIN=   0.00000
   O  -0.5909714   0.0057162   0.2014450 SPIN=   0.00000
   O  -0.3638699   0.0589506   0.4871818 SPIN=   0.00000
   S  -0.4134714  -0.0659629   0.2993948 SPIN=   0.00000
   F   0.3327232  -0.2504602  -0.1681346 SPIN=   0.00000
   F  -0.1672768   0.0823256  -0.1681346 SPIN=   0.00000
   F  -0.3000268   0.4297990  -0.4696339 SPIN=   0.00000
   F   0.1999732   0.1005671  -0.4696339 SPIN=   0.00000
%ENDBLOCK POSITIONS_FRAC

# Note: total spin =  16.00

KPOINTS_MP_SPACING 0.07

%BLOCK SPECIES_POT
QC5
%ENDBLOCK SPECIES_POT

SNAP_TO_SYMMETRY
SYMMETRY_GENERATE

