#              Generated by Buildcell
#
# at 22:58:36 (GMT+1.0) 17th August 2020
# in /scratch/scratch/uccabz1/launch_tmp
# on node-k10h-033
# by uccabz1
#
# compiler GCC version 4.9.2
# options -cpp -iprefix /scratch/UCL/applications/gcc/4.9.2/bin/../lib/gcc/x86_64-unknown-linux-gnu/4.9.2/ -mtune=corei7 -march=x86-64 -g -O2
#
# seed   546803335  1667942821  -992602487  -837830879  2038813318  -262370463  1923218923  2060444672   583264321  1323423402  1380699684  -758690524
#
#      Author: C. J. Pickard (cjp20@cam.ac.uk)
#                Space group: P2
#

%BLOCK LATTICE_ABC
      4.11231      8.85084     11.28968
    103.23564     90.00000     90.00000
%ENDBLOCK LATTICE_ABC

%BLOCK POSITIONS_FRAC
  Li  -0.2577794  -0.1321624   0.3056490 SPIN=   0.00000
  Li  -0.2577794   0.1321624  -0.3056490 SPIN=   0.00000
  Li   0.1801679   0.4923928  -0.1611381 SPIN=   0.00000
  Li   0.1801679  -0.4923928   0.1611381 SPIN=   0.00000
  Fe   0.4465273   0.1149096   0.1894618 SPIN=   3.06044
  Fe   0.4465273  -0.1149096  -0.1894618 SPIN=   3.06044
  Fe  -0.0586467   0.2371857  -0.0394452 SPIN=   4.93956
  Fe  -0.0586467  -0.2371857   0.0394452 SPIN=   4.93956
   O  -0.4885434  -0.3668713  -0.2210415 SPIN=   0.00000
   O  -0.5620984  -0.5542089  -0.4186743 SPIN=   0.00000
   O  -0.2048388  -0.6201139  -0.2614147 SPIN=   0.00000
   O  -0.0356684  -0.4189835  -0.3691814 SPIN=   0.00000
   S  -0.3227872  -0.4900444  -0.3175780 SPIN=   0.00000
   O  -0.4885434   0.3668713   0.2210415 SPIN=   0.00000
   O  -0.5620984   0.5542089   0.4186743 SPIN=   0.00000
   O  -0.2048388   0.6201139   0.2614147 SPIN=   0.00000
   O  -0.0356684   0.4189835   0.3691814 SPIN=   0.00000
   S  -0.3227872   0.4900444   0.3175780 SPIN=   0.00000
   O   0.3886990  -0.1430536  -0.5650846 SPIN=   0.00000
   O  -0.0083955  -0.0644997  -0.3975571 SPIN=   0.00000
   O   0.3989713  -0.2679467  -0.3901271 SPIN=   0.00000
   O  -0.0526123  -0.3226267  -0.5387109 SPIN=   0.00000
   S   0.1816656  -0.1995317  -0.4728699 SPIN=   0.00000
   O   0.3886990   0.1430536   0.5650846 SPIN=   0.00000
   O  -0.0083955   0.0644997   0.3975571 SPIN=   0.00000
   O   0.3989713   0.2679467   0.3901271 SPIN=   0.00000
   O  -0.0526123   0.3226267   0.5387109 SPIN=   0.00000
   S   0.1816656   0.1995317   0.4728699 SPIN=   0.00000
   F   0.0051408   0.1400227   0.1666952 SPIN=   0.00000
   F   0.0051408  -0.1400227  -0.1666952 SPIN=   0.00000
   F   0.3008366  -0.2955303   0.1173470 SPIN=   0.00000
   F   0.3008366   0.2955303  -0.1173470 SPIN=   0.00000
%ENDBLOCK POSITIONS_FRAC

# Note: total spin =  16.00

KPOINTS_MP_SPACING 0.07

%BLOCK SPECIES_POT
QC5
%ENDBLOCK SPECIES_POT

SNAP_TO_SYMMETRY
SYMMETRY_GENERATE

