#              Generated by Buildcell
#
# at 02:29:55 (GMT+1.0) 18th August 2020
# in /scratch/scratch/uccabz1/launch_tmp
# on node-k10h-007
# by uccabz1
#
# compiler GCC version 4.9.2
# options -cpp -iprefix /scratch/UCL/applications/gcc/4.9.2/bin/../lib/gcc/x86_64-unknown-linux-gnu/4.9.2/ -mtune=corei7 -march=x86-64 -g -O2
#
# seed  -248773987 -1788255732  1852644353  -835599778 -1763676336  1843681871  1458632967 -1807700346  1899565047 -1921702585  -349715168  1987215330
#
#      Author: C. J. Pickard (cjp20@cam.ac.uk)
#                Space group: C2
#

%BLOCK LATTICE_ABC
      5.96852      5.96852     12.42387
     96.56167    101.83785    109.57959
%ENDBLOCK LATTICE_ABC

%BLOCK POSITIONS_FRAC
  Li  -0.2273332   0.2922201   0.2793262 SPIN=   0.00000
  Li   0.0128939   0.4933406  -0.2793262 SPIN=   0.00000
  Li  -0.2394615  -0.1325350  -0.4569160 SPIN=   0.00000
  Li   0.3243810   0.2174545   0.4569160 SPIN=   0.00000
  Fe  -0.2911036   0.1500440   0.0363410 SPIN=   3.56454
  Fe   0.1137030  -0.3274447  -0.0363410 SPIN=   3.56454
  Fe  -0.4948437   0.4565012  -0.2257710 SPIN=   4.43546
  Fe  -0.3177277  -0.2690727   0.2257710 SPIN=   4.43546
   O   0.2579959   0.1673194  -0.0975721 SPIN=   0.00000
   O  -0.1263642   0.2450734  -0.1047629 SPIN=   0.00000
   O  -0.1463325  -0.1665084  -0.1779928 SPIN=   0.00000
   O  -0.0054301   0.1651294  -0.2799701 SPIN=   0.00000
   S  -0.0050327   0.1027535  -0.1650745 SPIN=   0.00000
   O   0.2648915   0.3555680   0.0975721 SPIN=   0.00000
   O   0.3498363  -0.0216014   0.1047629 SPIN=   0.00000
   O   0.0114844   0.0316603   0.1779928 SPIN=   0.00000
   O   0.4450995   0.2745400   0.2799701 SPIN=   0.00000
   S   0.2678279   0.1600417   0.1650745 SPIN=   0.00000
   O   0.2891057  -0.1368923   0.2697043 SPIN=   0.00000
   O   0.0032602  -0.2907056   0.3864059 SPIN=   0.00000
   O   0.4340923  -0.2671332   0.4443113 SPIN=   0.00000
   O   0.1404594  -0.5723424   0.2793087 SPIN=   0.00000
   S   0.2167294  -0.3167684   0.3449326 SPIN=   0.00000
   O   0.5934034   0.0194014  -0.2697043 SPIN=   0.00000
   O   0.3228885  -0.3831457  -0.3864059 SPIN=   0.00000
   O   0.2885555  -0.0102190  -0.4443113 SPIN=   0.00000
   O   0.1483489  -0.1388493  -0.2793087 SPIN=   0.00000
   S   0.3382991  -0.1282032  -0.3449326 SPIN=   0.00000
   F  -0.1904856   0.0881608   0.3758136 SPIN=   0.00000
   F  -0.2876528   0.4337009  -0.3758136 SPIN=   0.00000
   F  -0.2067330   0.4703389   0.0931373 SPIN=   0.00000
   F   0.3772016  -0.2998703  -0.0931373 SPIN=   0.00000
%ENDBLOCK POSITIONS_FRAC

# Note: total spin =  16.00

KPOINTS_MP_SPACING 0.07

%BLOCK SPECIES_POT
QC5
%ENDBLOCK SPECIES_POT

SNAP_TO_SYMMETRY
SYMMETRY_GENERATE

