#              Generated by Buildcell
#
# at 05:26:41 (GMT+1.0) 18th August 2020
# in /lustre/scratch/uccabz1/launch_tmp
# on node-c12l-029
# by uccabz1
#
# compiler GCC version 4.9.2
# options -cpp -iprefix /lustre/shared/ucl/apps/gcc/4.9.2/bin/../lib/gcc/x86_64-unknown-linux-gnu/4.9.2/ -mtune=corei7 -march=x86-64 -g -Og
#
# seed   460185993  1062017792 -1997684563  -668528448  1164699599  -511710944  1699335748  1833263647   364266900 -1056542387  1825665568  1380705036
#
#      Author: C. J. Pickard (cjp20@cam.ac.uk)
#                Space group: P2
#

%BLOCK LATTICE_ABC
      7.52305      7.60349      7.61773
    113.36917     90.00000     90.00000
%ENDBLOCK LATTICE_ABC

%BLOCK POSITIONS_FRAC
  Li  -0.4569031  -0.2856571  -0.2484327 SPIN=   0.00000
  Li  -0.4569031   0.2856571   0.2484327 SPIN=   0.00000
  Li   0.0226773   0.4178239  -0.2827604 SPIN=   0.00000
  Li   0.0226773  -0.4178239   0.2827604 SPIN=   0.00000
  Fe   0.2327840   0.2626559  -0.0002980 SPIN=   1.20027
  Fe   0.2327840  -0.2626559   0.0002980 SPIN=   1.20027
  Fe  -0.4520974  -0.2921097   0.3560449 SPIN=   6.79973
  Fe  -0.4520974   0.2921097  -0.3560449 SPIN=   6.79973
   O  -0.3758020  -0.1089698   0.0797910 SPIN=   0.00000
   O  -0.2719052  -0.4374906  -0.1167238 SPIN=   0.00000
   O  -0.1445341  -0.2599415   0.2050895 SPIN=   0.00000
   O  -0.0733728  -0.1605895  -0.0594240 SPIN=   0.00000
   S  -0.2164035  -0.2417478   0.0271832 SPIN=   0.00000
   O  -0.3758020   0.1089698  -0.0797910 SPIN=   0.00000
   O  -0.2719052   0.4374906   0.1167238 SPIN=   0.00000
   O  -0.1445341   0.2599415  -0.2050895 SPIN=   0.00000
   O  -0.0733728   0.1605895   0.0594240 SPIN=   0.00000
   S  -0.2164035   0.2417478  -0.0271832 SPIN=   0.00000
   O   0.3560618  -0.1160782  -0.2739652 SPIN=   0.00000
   O   0.0817962  -0.3103938  -0.3288337 SPIN=   0.00000
   O   0.1641648  -0.1601990  -0.5522018 SPIN=   0.00000
   O   0.0616245   0.0413913  -0.2250485 SPIN=   0.00000
   S   0.1659118  -0.1363199  -0.3450123 SPIN=   0.00000
   O   0.3560618   0.1160782   0.2739652 SPIN=   0.00000
   O   0.0817962   0.3103938   0.3288337 SPIN=   0.00000
   O   0.1641648   0.1601990   0.5522018 SPIN=   0.00000
   O   0.0616245  -0.0413913   0.2250485 SPIN=   0.00000
   S   0.1659118   0.1363199   0.3450123 SPIN=   0.00000
   F  -0.2979664   0.2050121   0.4229149 SPIN=   0.00000
   F  -0.2979664  -0.2050121  -0.4229149 SPIN=   0.00000
   F   0.3639757   0.4962040  -0.2405413 SPIN=   0.00000
   F   0.3639757  -0.4962040   0.2405413 SPIN=   0.00000
%ENDBLOCK POSITIONS_FRAC

# Note: total spin =  16.00

KPOINTS_MP_SPACING 0.07

%BLOCK SPECIES_POT
QC5
%ENDBLOCK SPECIES_POT

SNAP_TO_SYMMETRY
SYMMETRY_GENERATE

