#              Generated by Buildcell
#
# at 07:03:03 (GMT+1.0) 4th August 2020
# in /lustre/scratch/uccabz1/launch_tmp
# on node-c12d-002
# by uccabz1
#
# compiler GCC version 4.9.2
# options -cpp -iprefix /lustre/shared/ucl/apps/gcc/4.9.2/bin/../lib/gcc/x86_64-unknown-linux-gnu/4.9.2/ -mtune=corei7 -march=x86-64 -g -Og
#
# seed   -87811005   356048225  -839748050  -329573751  -338417818  -527867117  -266297238  1544917852   551940366 -1193033924  -664390523 -1949063699
#
#      Author: C. J. Pickard (cjp20@cam.ac.uk)
#                Space group: P2
#

%BLOCK LATTICE_ABC
      6.22269      8.19959      8.71643
    115.92120     90.00000     90.00000
%ENDBLOCK LATTICE_ABC

%BLOCK POSITIONS_FRAC
  Li  -0.1610708   0.2713925   0.3362241 SPIN=   0.00000
  Li  -0.1610708  -0.2713925  -0.3362241 SPIN=   0.00000
  Li  -0.4221689  -0.2077435   0.1662341 SPIN=   0.00000
  Li  -0.4221689   0.2077435  -0.1662341 SPIN=   0.00000
  Fe   0.4367953  -0.4886911  -0.2702863 SPIN=   3.77936
  Fe   0.4367953   0.4886911   0.2702863 SPIN=   3.77936
  Fe   0.0037720  -0.2205641   0.0010185 SPIN=   4.22064
  Fe   0.0037720   0.2205641  -0.0010185 SPIN=   4.22064
   O   0.1041489   0.3137208  -0.2011090 SPIN=   0.00000
   O   0.0204039   0.5140034  -0.3385885 SPIN=   0.00000
   O  -0.2673243   0.4243464  -0.1947085 SPIN=   0.00000
   O  -0.1124856   0.1977184  -0.4657586 SPIN=   0.00000
   S  -0.0638143   0.3624473  -0.3000411 SPIN=   0.00000
   O   0.1041489  -0.3137208   0.2011090 SPIN=   0.00000
   O   0.0204039  -0.5140034   0.3385885 SPIN=   0.00000
   O  -0.2673243  -0.4243464   0.1947085 SPIN=   0.00000
   O  -0.1124856  -0.1977184   0.4657586 SPIN=   0.00000
   S  -0.0638143  -0.3624473   0.3000411 SPIN=   0.00000
   O   0.5342474  -0.1764064  -0.2392088 SPIN=   0.00000
   O   0.2255520  -0.2845432  -0.4375592 SPIN=   0.00000
   O   0.5381005  -0.1433050  -0.5081310 SPIN=   0.00000
   O   0.2923566   0.0446119  -0.2741367 SPIN=   0.00000
   S   0.3975641  -0.1399107  -0.3647589 SPIN=   0.00000
   O   0.5342474   0.1764064   0.2392088 SPIN=   0.00000
   O   0.2255520   0.2845432   0.4375592 SPIN=   0.00000
   O   0.5381005   0.1433050   0.5081310 SPIN=   0.00000
   O   0.2923566  -0.0446119   0.2741367 SPIN=   0.00000
   S   0.3975641   0.1399107   0.3647589 SPIN=   0.00000
   F   0.3641124   0.2881335   0.0298850 SPIN=   0.00000
   F   0.3641124  -0.2881335  -0.0298850 SPIN=   0.00000
   F  -0.1029365   0.0009178   0.2131717 SPIN=   0.00000
   F  -0.1029365  -0.0009178  -0.2131717 SPIN=   0.00000
%ENDBLOCK POSITIONS_FRAC

# Note: total spin =  16.00

KPOINTS_MP_SPACING 0.07

%BLOCK SPECIES_POT
QC5
%ENDBLOCK SPECIES_POT

SNAP_TO_SYMMETRY
SYMMETRY_GENERATE

