#              Generated by Buildcell
#
# at 10:54:23 (GMT+1.0) 18th August 2020
# in /scratch/scratch/uccabz1/launch_tmp
# on node-k10e-035
# by uccabz1
#
# compiler GCC version 4.9.2
# options -cpp -iprefix /scratch/UCL/applications/gcc/4.9.2/bin/../lib/gcc/x86_64-unknown-linux-gnu/4.9.2/ -mtune=corei7 -march=x86-64 -g -O2
#
# seed    83987676 -1390457114  1433313473  1486247830  1659969872  1450464338  -573595431  -924392044   261518361   242024863  1741392361  1153436293
#
#      Author: C. J. Pickard (cjp20@cam.ac.uk)
#                Space group: Cc
#

%BLOCK LATTICE_ABC
      4.86633      9.39136      9.39136
     70.57315     82.82771     82.82771
%ENDBLOCK LATTICE_ABC

%BLOCK POSITIONS_FRAC
  Li   0.0327637  -0.1992480   0.3608374 SPIN=   0.00000
  Li  -0.4672363   0.3608374  -0.1992480 SPIN=   0.00000
  Li  -0.0507166   0.3878833   0.1128792 SPIN=   0.00000
  Li   0.4492834   0.1128792   0.3878833 SPIN=   0.00000
  Fe  -0.4482043  -0.0810026   0.1666750 SPIN=   3.94622
  Fe   0.0517957   0.1666750  -0.0810026 SPIN=   3.94622
  Fe  -0.1554820  -0.0484441  -0.3038327 SPIN=   4.05378
  Fe   0.3445180  -0.3038327  -0.0484441 SPIN=   4.05378
   O   0.1049700   0.1772868  -0.3243813 SPIN=   0.00000
   O   0.3146148   0.4200453  -0.3867155 SPIN=   0.00000
   O   0.2188649   0.3281874  -0.5923715 SPIN=   0.00000
   O   0.5964656   0.1971066  -0.4291455 SPIN=   0.00000
   S   0.3087288   0.2806565  -0.4331535 SPIN=   0.00000
   O  -0.3950300  -0.3243813   0.1772868 SPIN=   0.00000
   O  -0.1853852  -0.3867155   0.4200453 SPIN=   0.00000
   O  -0.2811351  -0.5923715   0.3281874 SPIN=   0.00000
   O   0.0964656  -0.4291455   0.1971066 SPIN=   0.00000
   S  -0.1912712  -0.4331535   0.2806565 SPIN=   0.00000
   O   0.3122982  -0.3167812  -0.4860012 SPIN=   0.00000
   O   0.6429081  -0.2459436  -0.3463687 SPIN=   0.00000
   O   0.2127190  -0.0799505  -0.4205690 SPIN=   0.00000
   O   0.5925916  -0.0999107  -0.6162846 SPIN=   0.00000
   S   0.4401292  -0.1856465  -0.4673059 SPIN=   0.00000
   O  -0.1877018  -0.4860012  -0.3167812 SPIN=   0.00000
   O   0.1429081  -0.3463687  -0.2459436 SPIN=   0.00000
   O  -0.2872810  -0.4205690  -0.0799505 SPIN=   0.00000
   O   0.0925916  -0.6162846  -0.0999107 SPIN=   0.00000
   S  -0.0598708  -0.4673059  -0.1856465 SPIN=   0.00000
   F   0.1625139  -0.1091796   0.1219440 SPIN=   0.00000
   F  -0.3374861   0.1219440  -0.1091796 SPIN=   0.00000
   F   0.4373055   0.3487657   0.1195222 SPIN=   0.00000
   F  -0.0626945   0.1195222   0.3487657 SPIN=   0.00000
%ENDBLOCK POSITIONS_FRAC

# Note: total spin =  16.00

KPOINTS_MP_SPACING 0.07

%BLOCK SPECIES_POT
QC5
%ENDBLOCK SPECIES_POT

SNAP_TO_SYMMETRY
SYMMETRY_GENERATE

