#              Generated by Buildcell
#
# at 00:07:31 (GMT+1.0) 18th August 2020
# in /lustre/scratch/uccabz1/launch_tmp
# on node-c12i-018
# by uccabz1
#
# compiler GCC version 4.9.2
# options -cpp -iprefix /lustre/shared/ucl/apps/gcc/4.9.2/bin/../lib/gcc/x86_64-unknown-linux-gnu/4.9.2/ -mtune=corei7 -march=x86-64 -g -Og
#
# seed   503298774   304102786   977377126 -1499870337  1762989665   344171101 -1870019323  1967175981  -127468278  -863865624  2061190326   968038991
#
#      Author: C. J. Pickard (cjp20@cam.ac.uk)
#                Space group: C2
#

%BLOCK LATTICE_ABC
      5.96573      8.73144      8.73144
    115.59095     96.78226     96.78226
%ENDBLOCK LATTICE_ABC

%BLOCK POSITIONS_FRAC
  Li   0.0739599   0.0338412  -0.4217069 SPIN=   0.00000
  Li  -0.0739599   0.4217069  -0.0338412 SPIN=   0.00000
  Li  -0.5000000  -0.1626511   0.1626511 SPIN=   0.00000
  Li  -0.5000000   0.4722988  -0.4722988 SPIN=   0.00000
  Fe  -0.4323707  -0.1237505  -0.4611405 SPIN=   4.27479
  Fe   0.4323707   0.4611405   0.1237505 SPIN=   4.27479
  Fe   0.1964559  -0.3858855  -0.2043527 SPIN=   3.72521
  Fe  -0.1964559   0.2043527   0.3858855 SPIN=   3.72521
   O  -0.0177339  -0.1894775  -0.1618546 SPIN=   0.00000
   O  -0.3079451  -0.3716003  -0.1002156 SPIN=   0.00000
   O  -0.4166659  -0.2813601  -0.3269305 SPIN=   0.00000
   O  -0.3325373  -0.0659479  -0.0184688 SPIN=   0.00000
   S  -0.2687205  -0.2270964  -0.1518674 SPIN=   0.00000
   O   0.0177339   0.1618546   0.1894775 SPIN=   0.00000
   O   0.3079451   0.1002156   0.3716003 SPIN=   0.00000
   O   0.4166659   0.3269305   0.2813601 SPIN=   0.00000
   O   0.3325373   0.0184688   0.0659479 SPIN=   0.00000
   S   0.2687205   0.1518674   0.2270964 SPIN=   0.00000
   O  -0.0823530  -0.1934240  -0.4343388 SPIN=   0.00000
   O   0.2232697  -0.1376776  -0.5824592 SPIN=   0.00000
   O   0.2090797  -0.3803856  -0.5064316 SPIN=   0.00000
   O   0.3199061  -0.0784728  -0.2761184 SPIN=   0.00000
   O   0.0823530   0.4343388   0.1934240 SPIN=   0.00000
   O  -0.2232697   0.5824592   0.1376776 SPIN=   0.00000
   O  -0.2090797   0.5064316   0.3803856 SPIN=   0.00000
   O  -0.3199061   0.2761184   0.0784728 SPIN=   0.00000
   S   0.0000000  -0.3761355   0.3761355 SPIN=   0.00000
   S  -0.5000000   0.2789010  -0.2789010 SPIN=   0.00000
   F   0.2101426  -0.3044293   0.0633967 SPIN=   0.00000
   F  -0.2101426  -0.0633967   0.3044293 SPIN=   0.00000
   F   0.0000000   0.1436866  -0.1436866 SPIN=   0.00000
   F   0.0000000   0.3956896  -0.3956896 SPIN=   0.00000
%ENDBLOCK POSITIONS_FRAC

# Note: total spin =  16.00

KPOINTS_MP_SPACING 0.07

%BLOCK SPECIES_POT
QC5
%ENDBLOCK SPECIES_POT

SNAP_TO_SYMMETRY
SYMMETRY_GENERATE

