#              Generated by Buildcell
#
# at 05:56:46 (GMT+1.0) 4th August 2020
# in /lustre/scratch/uccabz1/launch_tmp
# on node-c12p-012
# by uccabz1
#
# compiler GCC version 4.9.2
# options -cpp -iprefix /lustre/shared/ucl/apps/gcc/4.9.2/bin/../lib/gcc/x86_64-unknown-linux-gnu/4.9.2/ -mtune=corei7 -march=x86-64 -g -Og
#
# seed   847946309  -204858415  -154124217 -1320995488   710727022 -1253937930   944703560 -1322978338  1338322050   729654332   353042113 -2024884596
#
#      Author: C. J. Pickard (cjp20@cam.ac.uk)
#                Space group: Pnc2
#

%BLOCK LATTICE_ABC
      7.01693      7.40623      7.69690
     90.00000     90.00000     90.00000
%ENDBLOCK LATTICE_ABC

%BLOCK POSITIONS_FRAC
  Li  -0.4226717   0.2497015  -0.4672313 SPIN=   0.00000
  Li   0.4226717  -0.2497015  -0.4672313 SPIN=   0.00000
  Li  -0.4226717   0.2502985   0.0327687 SPIN=   0.00000
  Li   0.4226717  -0.2502985   0.0327687 SPIN=   0.00000
  Fe   0.2512502   0.0696523  -0.1333521 SPIN=   4.00000
  Fe  -0.2512502  -0.0696523  -0.1333521 SPIN=   4.00000
  Fe   0.2512502   0.4303477   0.3666479 SPIN=   4.00000
  Fe  -0.2512502  -0.4303477   0.3666479 SPIN=   4.00000
   O   0.1708522  -0.3893332   0.0195757 SPIN=   0.00000
   O   0.1436562  -0.0651752   0.0936195 SPIN=   0.00000
   O   0.0665551  -0.2975265   0.3137601 SPIN=   0.00000
   O  -0.1470707  -0.2514509   0.0617788 SPIN=   0.00000
   S   0.0584982  -0.2508714   0.1221835 SPIN=   0.00000
   O  -0.1708522   0.3893332   0.0195757 SPIN=   0.00000
   O  -0.1436562   0.0651752   0.0936195 SPIN=   0.00000
   O  -0.0665551   0.2975265   0.3137601 SPIN=   0.00000
   O   0.1470707   0.2514509   0.0617788 SPIN=   0.00000
   S  -0.0584982   0.2508714   0.1221835 SPIN=   0.00000
   O   0.1708522  -0.1106668  -0.4804243 SPIN=   0.00000
   O   0.1436562  -0.4348248  -0.4063805 SPIN=   0.00000
   O   0.0665551  -0.2024735  -0.1862399 SPIN=   0.00000
   O  -0.1470707  -0.2485491  -0.4382212 SPIN=   0.00000
   S   0.0584982  -0.2491286  -0.3778165 SPIN=   0.00000
   O  -0.1708522   0.1106668  -0.4804243 SPIN=   0.00000
   O  -0.1436562   0.4348248  -0.4063805 SPIN=   0.00000
   O  -0.0665551   0.2024735  -0.1862399 SPIN=   0.00000
   O   0.1470707   0.2485491  -0.4382212 SPIN=   0.00000
   S  -0.0584982   0.2491286  -0.3778165 SPIN=   0.00000
   F   0.4857197   0.2518140  -0.2170349 SPIN=   0.00000
   F  -0.4857197  -0.2518140  -0.2170349 SPIN=   0.00000
   F   0.4857197   0.2481860   0.2829651 SPIN=   0.00000
   F  -0.4857197  -0.2481860   0.2829651 SPIN=   0.00000
%ENDBLOCK POSITIONS_FRAC

# Note: total spin =  16.00

KPOINTS_MP_SPACING 0.07

%BLOCK SPECIES_POT
QC5
%ENDBLOCK SPECIES_POT

SNAP_TO_SYMMETRY
SYMMETRY_GENERATE

