#              Generated by Buildcell
#
# at 11:19:07 (GMT+1.0) 18th August 2020
# in /scratch/scratch/uccabz1/launch_tmp
# on node-k10b-019
# by uccabz1
#
# compiler GCC version 4.9.2
# options -cpp -iprefix /scratch/UCL/applications/gcc/4.9.2/bin/../lib/gcc/x86_64-unknown-linux-gnu/4.9.2/ -mtune=corei7 -march=x86-64 -g -O2
#
# seed   -84263907   557789618 -1749336619   606076088  1753560729   486366833  1496935353  -886920060 -1960051082 -1914754263  -669709560  1049781469
#
#      Author: C. J. Pickard (cjp20@cam.ac.uk)
#                Space group: P43
#

%BLOCK LATTICE_ABC
      5.22193      5.22193     14.66890
     90.00000     90.00000     90.00000
%ENDBLOCK LATTICE_ABC

%BLOCK POSITIONS_FRAC
  Li   0.2804908  -0.0202062  -0.2265466 SPIN=   0.00000
  Li  -0.2804908   0.0202062   0.2734534 SPIN=   0.00000
  Li  -0.0202062  -0.2804908   0.0234534 SPIN=   0.00000
  Li   0.0202062   0.2804908  -0.4765466 SPIN=   0.00000
  Fe  -0.2730747  -0.3340781  -0.2831964 SPIN=   4.00000
  Fe   0.2730747   0.3340781   0.2168036 SPIN=   4.00000
  Fe  -0.3340781   0.2730747  -0.0331964 SPIN=   4.00000
  Fe   0.3340781  -0.2730747   0.4668036 SPIN=   4.00000
   O  -0.0649598  -0.7057625   0.3401815 SPIN=   0.00000
   O  -0.1575470  -0.3548767   0.4486987 SPIN=   0.00000
   O  -0.4397586  -0.4241526   0.3154175 SPIN=   0.00000
   O  -0.0014266  -0.2548360   0.2934314 SPIN=   0.00000
   S  -0.1659230  -0.4349070   0.3494323 SPIN=   0.00000
   O   0.0649598   0.7057625  -0.1598185 SPIN=   0.00000
   O   0.1575470   0.3548767  -0.0513013 SPIN=   0.00000
   O   0.4397586   0.4241526  -0.1845825 SPIN=   0.00000
   O   0.0014266   0.2548360  -0.2065686 SPIN=   0.00000
   S   0.1659230   0.4349070  -0.1505677 SPIN=   0.00000
   O  -0.7057625   0.0649598  -0.4098185 SPIN=   0.00000
   O  -0.3548767   0.1575470  -0.3013013 SPIN=   0.00000
   O  -0.4241526   0.4397586  -0.4345825 SPIN=   0.00000
   O  -0.2548360   0.0014266  -0.4565686 SPIN=   0.00000
   S  -0.4349070   0.1659230  -0.4005677 SPIN=   0.00000
   O   0.7057625  -0.0649598   0.0901815 SPIN=   0.00000
   O   0.3548767  -0.1575470   0.1986987 SPIN=   0.00000
   O   0.4241526  -0.4397586   0.0654175 SPIN=   0.00000
   O   0.2548360  -0.0014266   0.0434314 SPIN=   0.00000
   S   0.4349070  -0.1659230   0.0994323 SPIN=   0.00000
   F  -0.4166483  -0.0650936  -0.1249400 SPIN=   0.00000
   F   0.4166483   0.0650936   0.3750600 SPIN=   0.00000
   F  -0.0650936   0.4166483   0.1250600 SPIN=   0.00000
   F   0.0650936  -0.4166483  -0.3749400 SPIN=   0.00000
%ENDBLOCK POSITIONS_FRAC

# Note: total spin =  16.00

KPOINTS_MP_SPACING 0.07

%BLOCK SPECIES_POT
QC5
%ENDBLOCK SPECIES_POT

SNAP_TO_SYMMETRY
SYMMETRY_GENERATE

