#              Generated by Buildcell
#
# at 06:50:30 (GMT+1.0) 4th August 2020
# in /lustre/scratch/uccabz1/launch_tmp
# on node-c12e-012
# by uccabz1
#
# compiler GCC version 4.9.2
# options -cpp -iprefix /lustre/shared/ucl/apps/gcc/4.9.2/bin/../lib/gcc/x86_64-unknown-linux-gnu/4.9.2/ -mtune=corei7 -march=x86-64 -g -Og
#
# seed   162708593  -216443705  2006136462 -1706694837  1834334254  1528343992  1995082407  1440900463 -1365457909   780390089  -375044985 -1538094683
#
#      Author: C. J. Pickard (cjp20@cam.ac.uk)
#                Space group: I-4
#

%BLOCK LATTICE_ABC
      7.39014      8.23284      8.23284
     78.37882     63.33195     63.33195
%ENDBLOCK LATTICE_ABC

%BLOCK POSITIONS_FRAC
  Li  -0.1341293  -0.4812001  -0.1955839 SPIN=   0.00000
  Li   0.1890868   0.4812001   0.1955839 SPIN=   0.00000
  Li   0.3297132  -0.1955839   0.4812001 SPIN=   0.00000
  Li  -0.3846706   0.1955839  -0.4812001 SPIN=   0.00000
  Fe  -0.2496786  -0.4296958   0.1924165 SPIN=   4.00000
  Fe  -0.4869579   0.4296958  -0.1924165 SPIN=   4.00000
  Fe   0.0572621   0.1924165   0.4296958 SPIN=   4.00000
  Fe  -0.3206256  -0.1924165  -0.4296958 SPIN=   4.00000
   O  -0.0391075  -0.0460139   0.3981043 SPIN=   0.00000
   O   0.3079334  -0.0903737   0.1226947 SPIN=   0.00000
   O   0.0354998  -0.1878994   0.1240817 SPIN=   0.00000
   O   0.2547360  -0.3558695   0.3063727 SPIN=   0.00000
   S   0.1397654  -0.1700391   0.2378134 SPIN=   0.00000
   O   0.3129829   0.0460139  -0.3981043 SPIN=   0.00000
   O   0.3402545   0.0903737  -0.1226947 SPIN=   0.00000
   O  -0.0283179   0.1878994  -0.1240817 SPIN=   0.00000
   O   0.2052392   0.3558695  -0.3063727 SPIN=   0.00000
   S   0.2075397   0.1700391  -0.2378134 SPIN=   0.00000
   O  -0.3589968   0.3981043   0.0460139 SPIN=   0.00000
   O  -0.4306281   0.1226947   0.0903737 SPIN=   0.00000
   O  -0.1595815   0.1240817   0.1878994 SPIN=   0.00000
   O  -0.5611087   0.3063727   0.3558695 SPIN=   0.00000
   S  -0.3775788   0.2378134   0.1700391 SPIN=   0.00000
   O   0.0851215  -0.3981043  -0.0460139 SPIN=   0.00000
   O  -0.2175598  -0.1226947  -0.0903737 SPIN=   0.00000
   O   0.1523996  -0.1240817  -0.1878994 SPIN=   0.00000
   O   0.1011336  -0.3063727  -0.3558695 SPIN=   0.00000
   S   0.0302737  -0.2378134  -0.1700391 SPIN=   0.00000
   F  -0.3887688  -0.2058604   0.3064395 SPIN=   0.00000
   F  -0.2881897   0.2058604  -0.3064395 SPIN=   0.00000
   F   0.0823293   0.3064395   0.2058604 SPIN=   0.00000
   F  -0.4053708  -0.3064395  -0.2058604 SPIN=   0.00000
%ENDBLOCK POSITIONS_FRAC

# Note: total spin =  16.00

KPOINTS_MP_SPACING 0.07

%BLOCK SPECIES_POT
QC5
%ENDBLOCK SPECIES_POT

SNAP_TO_SYMMETRY
SYMMETRY_GENERATE

