#              Generated by Buildcell
#
# at 08:40:22 (GMT+1.0) 4th August 2020
# in /lustre/scratch/uccabz1/launch_tmp
# on node-c12p-026
# by uccabz1
#
# compiler GCC version 4.9.2
# options -cpp -iprefix /lustre/shared/ucl/apps/gcc/4.9.2/bin/../lib/gcc/x86_64-unknown-linux-gnu/4.9.2/ -mtune=corei7 -march=x86-64 -g -Og
#
# seed -1990236272 -1465653076 -1668758699  -749874522  1152432396  -550066804  2118697934  2145905118  -813069762 -1528838836  1480722806  -824873234
#
#      Author: C. J. Pickard (cjp20@cam.ac.uk)
#                Space group: Pc
#

%BLOCK LATTICE_ABC
      7.41530      7.70835      7.93351
     90.00000     90.00000    118.10673
%ENDBLOCK LATTICE_ABC

%BLOCK POSITIONS_FRAC
  Li  -0.0699575   0.0054319   0.1572734 SPIN=   0.00000
  Li  -0.0699575  -0.4945681  -0.1572734 SPIN=   0.00000
  Li   0.3439615   0.3610721  -0.4106681 SPIN=   0.00000
  Li   0.3439615  -0.1389279   0.4106681 SPIN=   0.00000
  Fe  -0.4120600   0.2011817   0.1656229 SPIN=   4.95483
  Fe  -0.4120600  -0.2988183  -0.1656229 SPIN=   4.95483
  Fe   0.1193788   0.4306773   0.2923094 SPIN=   3.04517
  Fe   0.1193788  -0.0693227  -0.2923094 SPIN=   3.04517
   O   0.2881248   0.0287534   0.1173551 SPIN=   0.00000
   O   0.1618976  -0.2319291  -0.1003556 SPIN=   0.00000
   O  -0.0535320  -0.2605947   0.1471871 SPIN=   0.00000
   O   0.2580854  -0.2979343   0.1819305 SPIN=   0.00000
   S   0.1636440  -0.1904262   0.0865293 SPIN=   0.00000
   O   0.2881248   0.5287534  -0.1173551 SPIN=   0.00000
   O   0.1618976   0.2680709   0.1003556 SPIN=   0.00000
   O  -0.0535320   0.2394053  -0.1471871 SPIN=   0.00000
   O   0.2580854   0.2020657  -0.1819305 SPIN=   0.00000
   S   0.1636440   0.3095738  -0.0865293 SPIN=   0.00000
   O  -0.1386644   0.2623313  -0.4962661 SPIN=   0.00000
   O  -0.3511883  -0.0840128  -0.5834299 SPIN=   0.00000
   O  -0.4398535   0.0412460  -0.3262710 SPIN=   0.00000
   O  -0.1322551  -0.0062787  -0.3298602 SPIN=   0.00000
   S  -0.2654903   0.0533215  -0.4339568 SPIN=   0.00000
   O  -0.1386644  -0.2376687   0.4962661 SPIN=   0.00000
   O  -0.3511883  -0.5840128   0.5834299 SPIN=   0.00000
   O  -0.4398535  -0.4587540   0.3262710 SPIN=   0.00000
   O  -0.1322551  -0.5062787   0.3298602 SPIN=   0.00000
   S  -0.2654903  -0.4466785   0.4339568 SPIN=   0.00000
   F   0.2365150   0.1225755   0.4547560 SPIN=   0.00000
   F   0.2365150  -0.3774245  -0.4547560 SPIN=   0.00000
   F  -0.3183526  -0.1215411   0.0145548 SPIN=   0.00000
   F  -0.3183526   0.3784589  -0.0145548 SPIN=   0.00000
%ENDBLOCK POSITIONS_FRAC

# Note: total spin =  16.00

KPOINTS_MP_SPACING 0.07

%BLOCK SPECIES_POT
QC5
%ENDBLOCK SPECIES_POT

SNAP_TO_SYMMETRY
SYMMETRY_GENERATE

