#              Generated by Buildcell
#
# at 03:58:05 (GMT+1.0) 18th August 2020
# in /lustre/scratch/uccabz1/launch_tmp
# on node-c12o-031
# by uccabz1
#
# compiler GCC version 4.9.2
# options -cpp -iprefix /lustre/shared/ucl/apps/gcc/4.9.2/bin/../lib/gcc/x86_64-unknown-linux-gnu/4.9.2/ -mtune=corei7 -march=x86-64 -g -Og
#
# seed  -473100015   -91124972   928470560 -1973696592  1683574211   637886263 -1915993504   385968261  -202465370  -222747147  1912116876  -379769020
#
#      Author: C. J. Pickard (cjp20@cam.ac.uk)
#                Space group: P-1
#

%BLOCK LATTICE_ABC
      3.97878      6.96586     14.80004
     90.24788     90.63573    102.77767
%ENDBLOCK LATTICE_ABC

%BLOCK POSITIONS_FRAC
  Li   0.3405948  -0.2419711  -0.2018304 SPIN=   0.00000
  Li  -0.3405948   0.2419711   0.2018304 SPIN=   0.00000
  Li   0.2915008  -0.4169942   0.3490620 SPIN=   0.00000
  Li  -0.2915008   0.4169942  -0.3490620 SPIN=   0.00000
  Fe   0.3621165  -0.2184761   0.1745822 SPIN=   3.89596
  Fe  -0.3621165   0.2184761  -0.1745822 SPIN=   3.89596
  Fe   0.0852361   0.1089140  -0.3813132 SPIN=   4.10404
  Fe  -0.0852361  -0.1089140   0.3813132 SPIN=   4.10404
   O   0.0625036   0.3298070  -0.0105149 SPIN=   0.00000
   O   0.5936354   0.3845974   0.0835997 SPIN=   0.00000
   O   0.5095418   0.1424396  -0.0420508 SPIN=   0.00000
   O   0.1563855   0.0723428   0.0954883 SPIN=   0.00000
   S   0.3305166   0.2322967   0.0316306 SPIN=   0.00000
   O  -0.0625036  -0.3298070   0.0105149 SPIN=   0.00000
   O  -0.5936354  -0.3845974  -0.0835997 SPIN=   0.00000
   O  -0.5095418  -0.1424396   0.0420508 SPIN=   0.00000
   O  -0.1563855  -0.0723428  -0.0954883 SPIN=   0.00000
   S  -0.3305166  -0.2322967  -0.0316306 SPIN=   0.00000
   O   0.6484924  -0.1984767  -0.5006666 SPIN=   0.00000
   O   0.6175156  -0.2957197  -0.3398132 SPIN=   0.00000
   O   0.2372879  -0.5011528  -0.4533450 SPIN=   0.00000
   O   0.1385886  -0.1742772  -0.4107404 SPIN=   0.00000
   S   0.4104711  -0.2924066  -0.4261413 SPIN=   0.00000
   O  -0.6484924   0.1984767   0.5006666 SPIN=   0.00000
   O  -0.6175156   0.2957197   0.3398132 SPIN=   0.00000
   O  -0.2372879   0.5011528   0.4533450 SPIN=   0.00000
   O  -0.1385886   0.1742772   0.4107404 SPIN=   0.00000
   S  -0.4104711   0.2924066   0.4261413 SPIN=   0.00000
   F  -0.0856463   0.4900489  -0.2173557 SPIN=   0.00000
   F   0.0856463  -0.4900489   0.2173557 SPIN=   0.00000
   F   0.2361392   0.0294611  -0.2483456 SPIN=   0.00000
   F  -0.2361392  -0.0294611   0.2483456 SPIN=   0.00000
%ENDBLOCK POSITIONS_FRAC

# Note: total spin =  16.00

KPOINTS_MP_SPACING 0.07

%BLOCK SPECIES_POT
QC5
%ENDBLOCK SPECIES_POT

SNAP_TO_SYMMETRY
SYMMETRY_GENERATE

