#              Generated by Buildcell
#
# at 05:17:04 (GMT+1.0) 18th August 2020
# in /scratch/scratch/uccabz1/launch_tmp
# on node-k10i-026
# by uccabz1
#
# compiler GCC version 4.9.2
# options -cpp -iprefix /scratch/UCL/applications/gcc/4.9.2/bin/../lib/gcc/x86_64-unknown-linux-gnu/4.9.2/ -mtune=corei7 -march=x86-64 -g -O2
#
# seed   931335004  1709916116  2022471260  1529232105   560597189  1620277536   288617778  1316252145  -451437342   347662637  -173367571   817813158
#
#      Author: C. J. Pickard (cjp20@cam.ac.uk)
#                Space group: P-1
#

%BLOCK LATTICE_ABC
      7.02058      7.31739      8.71939
     68.30635     80.07067     74.66798
%ENDBLOCK LATTICE_ABC

%BLOCK POSITIONS_FRAC
  Li  -0.0035788  -0.4111888   0.2723273 SPIN=   0.00000
  Li   0.0035788   0.4111888  -0.2723273 SPIN=   0.00000
  Li  -0.5000000   0.0000000   0.5000000 SPIN=   0.00000
  Li   0.5000000   0.5000000  -0.5000000 SPIN=   0.00000
  Fe  -0.4067711  -0.2222230   0.1777505 SPIN=   5.60011
  Fe   0.4067711   0.2222230  -0.1777505 SPIN=   5.60011
  Fe  -0.2251228  -0.2061673  -0.2444667 SPIN=   2.39989
  Fe   0.2251228   0.2061673   0.2444667 SPIN=   2.39989
   O  -0.2397787  -0.8840334   0.2875201 SPIN=   0.00000
   O  -0.0078619  -0.8288679   0.4417043 SPIN=   0.00000
   O  -0.3500353  -0.8514638   0.5633623 SPIN=   0.00000
   O  -0.2906138  -0.5535578   0.3227764 SPIN=   0.00000
   S  -0.2220724  -0.7794807   0.4038408 SPIN=   0.00000
   O   0.2397787   0.8840334  -0.2875201 SPIN=   0.00000
   O   0.0078619   0.8288679  -0.4417043 SPIN=   0.00000
   O   0.3500353   0.8514638  -0.5633623 SPIN=   0.00000
   O   0.2906138   0.5535578  -0.3227764 SPIN=   0.00000
   S   0.2220724   0.7794807  -0.4038408 SPIN=   0.00000
   O   0.1372604   0.1332664  -0.1702924 SPIN=   0.00000
   O  -0.1169155  -0.0679486  -0.1104872 SPIN=   0.00000
   O  -0.1652967   0.2737732  -0.3218930 SPIN=   0.00000
   O  -0.1870884   0.2318688  -0.0248906 SPIN=   0.00000
   O  -0.1372604  -0.1332664   0.1702924 SPIN=   0.00000
   O   0.1169155   0.0679486   0.1104872 SPIN=   0.00000
   O   0.1652967  -0.2737732   0.3218930 SPIN=   0.00000
   O   0.1870884  -0.2318688   0.0248906 SPIN=   0.00000
   S   0.0000000   0.0000000   0.0000000 SPIN=   0.00000
   S  -0.5000000   0.5000000  -0.0000000 SPIN=   0.00000
   F   0.2700379   0.3149779  -0.4921260 SPIN=   0.00000
   F  -0.2700379  -0.3149779   0.4921260 SPIN=   0.00000
   F   0.5000000  -0.0000000  -0.0000000 SPIN=   0.00000
   F   0.0000000   0.5000000   0.0000000 SPIN=   0.00000
%ENDBLOCK POSITIONS_FRAC

# Note: total spin =  16.00

KPOINTS_MP_SPACING 0.07

%BLOCK SPECIES_POT
QC5
%ENDBLOCK SPECIES_POT

SNAP_TO_SYMMETRY
SYMMETRY_GENERATE

