#              Generated by Buildcell
#
# at 11:24:19 (GMT+1.0) 18th August 2020
# in /scratch/scratch/uccabz1/launch_tmp
# on node-k10b-033
# by uccabz1
#
# compiler GCC version 4.9.2
# options -cpp -iprefix /scratch/UCL/applications/gcc/4.9.2/bin/../lib/gcc/x86_64-unknown-linux-gnu/4.9.2/ -mtune=corei7 -march=x86-64 -g -O2
#
# seed   806990472 -1961903805 -1412635830  -232451226  1802708111   536665432  1131809247 -1858628619 -1167947172  1526129947 -1693328028  -114129531
#
#      Author: C. J. Pickard (cjp20@cam.ac.uk)
#                Space group: Pc
#

%BLOCK LATTICE_ABC
      4.56247      8.19256     10.79886
     97.70375     90.00000     90.00000
%ENDBLOCK LATTICE_ABC

%BLOCK POSITIONS_FRAC
  Li  -0.0825097  -0.3779863   0.0021499 SPIN=   0.00000
  Li   0.0825097   0.1220137   0.0021499 SPIN=   0.00000
  Li   0.4621813   0.3264217   0.3098572 SPIN=   0.00000
  Li  -0.4621813  -0.1735783   0.3098572 SPIN=   0.00000
  Fe  -0.0378183  -0.4349780   0.3681543 SPIN=   1.48570
  Fe   0.0378183   0.0650220   0.3681543 SPIN=   1.48570
  Fe   0.4886826   0.3510940  -0.4092645 SPIN=   6.51430
  Fe  -0.4886826  -0.1489060  -0.4092645 SPIN=   6.51430
   O  -0.1639219  -0.1400240   0.0792272 SPIN=   0.00000
   O  -0.6874088  -0.0748874   0.1206145 SPIN=   0.00000
   O  -0.4794595  -0.0607883  -0.0893560 SPIN=   0.00000
   O  -0.3392067   0.1472380   0.0884921 SPIN=   0.00000
   S  -0.4174992  -0.0321154   0.0497444 SPIN=   0.00000
   O   0.1639219   0.3599760   0.0792272 SPIN=   0.00000
   O   0.6874088   0.4251126   0.1206145 SPIN=   0.00000
   O   0.4794595   0.4392117  -0.0893560 SPIN=   0.00000
   O   0.3392067   0.6472380   0.0884921 SPIN=   0.00000
   S   0.4174992   0.4678846   0.0497444 SPIN=   0.00000
   O  -0.2458403   0.0878607  -0.2764365 SPIN=   0.00000
   O  -0.1000998   0.2924052  -0.0972548 SPIN=   0.00000
   O   0.0238731   0.3391850  -0.3128217 SPIN=   0.00000
   O   0.2767793   0.1201884  -0.2167771 SPIN=   0.00000
   S  -0.0113219   0.2099098  -0.2258226 SPIN=   0.00000
   O   0.2458403  -0.4121393  -0.2764365 SPIN=   0.00000
   O   0.1000998  -0.2075948  -0.0972548 SPIN=   0.00000
   O  -0.0238731  -0.1608150  -0.3128217 SPIN=   0.00000
   O  -0.2767793  -0.3798116  -0.2167771 SPIN=   0.00000
   S   0.0113219  -0.2900902  -0.2258226 SPIN=   0.00000
   F  -0.4886568  -0.4396252  -0.4863288 SPIN=   0.00000
   F   0.4886568   0.0603748  -0.4863288 SPIN=   0.00000
   F   0.0114031  -0.2382479   0.2776351 SPIN=   0.00000
   F  -0.0114031   0.2617521   0.2776351 SPIN=   0.00000
%ENDBLOCK POSITIONS_FRAC

# Note: total spin =  16.00

KPOINTS_MP_SPACING 0.07

%BLOCK SPECIES_POT
QC5
%ENDBLOCK SPECIES_POT

SNAP_TO_SYMMETRY
SYMMETRY_GENERATE

