#              Generated by Buildcell
#
# at 09:04:36 (GMT+1.0) 18th August 2020
# in /lustre/scratch/uccabz1/launch_tmp
# on node-c12l-008
# by uccabz1
#
# compiler GCC version 4.9.2
# options -cpp -iprefix /lustre/shared/ucl/apps/gcc/4.9.2/bin/../lib/gcc/x86_64-unknown-linux-gnu/4.9.2/ -mtune=corei7 -march=x86-64 -g -Og
#
# seed   197438474 -1127472274   872405433  1372416148  1230970078  1146353784 -2141307292  -381878909  1256960920   776479218 -1162268613  1567138177
#
#      Author: C. J. Pickard (cjp20@cam.ac.uk)
#                Space group: P21212
#

%BLOCK LATTICE_ABC
      6.60755      7.55506      8.01275
     90.00000     90.00000     90.00000
%ENDBLOCK LATTICE_ABC

%BLOCK POSITIONS_FRAC
  Li  -0.2833323   0.4024929  -0.2343586 SPIN=   0.00000
  Li  -0.2833323  -0.4024929   0.2343586 SPIN=   0.00000
  Li   0.2833323   0.0975071   0.2656414 SPIN=   0.00000
  Li   0.2833323  -0.0975071  -0.2656414 SPIN=   0.00000
  Fe   0.3539079   0.2604968  -0.4038459 SPIN=   4.00000
  Fe   0.3539079  -0.2604968   0.4038459 SPIN=   4.00000
  Fe  -0.3539079   0.2395032   0.0961541 SPIN=   4.00000
  Fe  -0.3539079  -0.2395032  -0.0961541 SPIN=   4.00000
   O  -0.2861913   0.0564767  -0.2990490 SPIN=   0.00000
   O   0.0013879  -0.0605327  -0.1347669 SPIN=   0.00000
   O  -0.0605176   0.2622789  -0.1470210 SPIN=   0.00000
   O   0.0649814   0.1038167  -0.3967508 SPIN=   0.00000
   S  -0.0700849   0.0905099  -0.2443969 SPIN=   0.00000
   O  -0.2861913  -0.0564767   0.2990490 SPIN=   0.00000
   O   0.0013879   0.0605327   0.1347669 SPIN=   0.00000
   O  -0.0605176  -0.2622789   0.1470210 SPIN=   0.00000
   O   0.0649814  -0.1038167   0.3967508 SPIN=   0.00000
   S  -0.0700849  -0.0905099   0.2443969 SPIN=   0.00000
   O   0.2861913   0.4435233   0.2009510 SPIN=   0.00000
   O  -0.0013879   0.5605327   0.3652331 SPIN=   0.00000
   O   0.0605176   0.2377211   0.3529790 SPIN=   0.00000
   O  -0.0649814   0.3961833   0.1032492 SPIN=   0.00000
   S   0.0700849   0.4094901   0.2556031 SPIN=   0.00000
   O   0.2861913  -0.4435233  -0.2009510 SPIN=   0.00000
   O  -0.0013879  -0.5605327  -0.3652331 SPIN=   0.00000
   O   0.0605176  -0.2377211  -0.3529790 SPIN=   0.00000
   O  -0.0649814  -0.3961833  -0.1032492 SPIN=   0.00000
   S   0.0700849  -0.4094901  -0.2556031 SPIN=   0.00000
   F   0.4290386   0.2501225  -0.1054057 SPIN=   0.00000
   F   0.4290386  -0.2501225   0.1054057 SPIN=   0.00000
   F  -0.4290386   0.2498775   0.3945943 SPIN=   0.00000
   F  -0.4290386  -0.2498775  -0.3945943 SPIN=   0.00000
%ENDBLOCK POSITIONS_FRAC

# Note: total spin =  16.00

KPOINTS_MP_SPACING 0.07

%BLOCK SPECIES_POT
QC5
%ENDBLOCK SPECIES_POT

SNAP_TO_SYMMETRY
SYMMETRY_GENERATE

