#              Generated by Buildcell
#
# at 10:03:47 (GMT+1.0) 4th August 2020
# in /lustre/scratch/uccabz1/launch_tmp
# on node-c12f-025
# by uccabz1
#
# compiler GCC version 4.9.2
# options -cpp -iprefix /lustre/shared/ucl/apps/gcc/4.9.2/bin/../lib/gcc/x86_64-unknown-linux-gnu/4.9.2/ -mtune=corei7 -march=x86-64 -g -Og
#
# seed  -191775548  -755204126  -679077641  1199002248 -2053604471  -728074705   207449667  -257013153 -1364939759  -154890841 -1811503189   541494351
#
#      Author: C. J. Pickard (cjp20@cam.ac.uk)
#                Space group: Pc
#

%BLOCK LATTICE_ABC
      4.28227      7.69902     12.18875
     95.50715     90.00000     90.00000
%ENDBLOCK LATTICE_ABC

%BLOCK POSITIONS_FRAC
  Li  -0.1512777  -0.4150599  -0.0223060 SPIN=   0.00000
  Li   0.1512777   0.0849401   0.4776940 SPIN=   0.00000
  Li   0.2876670  -0.1336852   0.1934209 SPIN=   0.00000
  Li  -0.2876670   0.3663148  -0.3065791 SPIN=   0.00000
  Fe   0.1317066  -0.4080568   0.3847142 SPIN=   1.85424
  Fe  -0.1317066   0.0919432  -0.1152858 SPIN=   1.85424
  Fe   0.2126495  -0.3708979  -0.3101647 SPIN=   6.14576
  Fe  -0.2126495   0.1291021   0.1898353 SPIN=   6.14576
   O   0.6277199  -0.0888101  -0.0438457 SPIN=   0.00000
   O   0.1353567  -0.1399250  -0.1482950 SPIN=   0.00000
   O   0.1722333  -0.2173040   0.0437193 SPIN=   0.00000
   O   0.4604872  -0.3902743  -0.1051295 SPIN=   0.00000
   S   0.3489493  -0.2090783  -0.0633877 SPIN=   0.00000
   O  -0.6277199   0.4111899   0.4561543 SPIN=   0.00000
   O  -0.1353567   0.3600750   0.3517050 SPIN=   0.00000
   O  -0.1722333   0.2826960   0.5437193 SPIN=   0.00000
   O  -0.4604872   0.1097257   0.3948705 SPIN=   0.00000
   S  -0.3489493   0.2909217   0.4366123 SPIN=   0.00000
   O   0.6538741   0.0262625  -0.3822169 SPIN=   0.00000
   O   0.4548047   0.0795340  -0.1913329 SPIN=   0.00000
   O   0.1277865  -0.0779427  -0.3358767 SPIN=   0.00000
   O   0.2263540   0.2382371  -0.3392852 SPIN=   0.00000
   S   0.3657048   0.0665227  -0.3121779 SPIN=   0.00000
   O  -0.6538741  -0.4737375   0.1177831 SPIN=   0.00000
   O  -0.4548047  -0.4204660   0.3086671 SPIN=   0.00000
   O  -0.1277865  -0.5779427   0.1641233 SPIN=   0.00000
   O  -0.2263540  -0.2617629   0.1607148 SPIN=   0.00000
   S  -0.3657048  -0.4334773   0.1878221 SPIN=   0.00000
   F   0.0396077  -0.1302659   0.3868328 SPIN=   0.00000
   F  -0.0396077   0.3697341  -0.1131672 SPIN=   0.00000
   F  -0.2871100  -0.3664657  -0.3375104 SPIN=   0.00000
   F   0.2871100   0.1335343   0.1624896 SPIN=   0.00000
%ENDBLOCK POSITIONS_FRAC

# Note: total spin =  16.00

KPOINTS_MP_SPACING 0.07

%BLOCK SPECIES_POT
QC5
%ENDBLOCK SPECIES_POT

SNAP_TO_SYMMETRY
SYMMETRY_GENERATE

