#              Generated by Buildcell
#
# at 08:17:17 (GMT+1.0) 4th August 2020
# in /lustre/scratch/uccabz1/launch_tmp
# on node-c12f-025
# by uccabz1
#
# compiler GCC version 4.9.2
# options -cpp -iprefix /lustre/shared/ucl/apps/gcc/4.9.2/bin/../lib/gcc/x86_64-unknown-linux-gnu/4.9.2/ -mtune=corei7 -march=x86-64 -g -Og
#
# seed  -807105689  -504235047 -1637662933  1087812950  -344104800  1472614008   595201282  1173972109   859124328  1610682864  1751470751  -236917919
#
#      Author: C. J. Pickard (cjp20@cam.ac.uk)
#                Space group: C2
#

%BLOCK LATTICE_ABC
      5.74413      8.34694      8.34694
     88.68383     89.10515     89.10515
%ENDBLOCK LATTICE_ABC

%BLOCK POSITIONS_FRAC
  Li   0.1579387  -0.0573253  -0.2463400 SPIN=   0.00000
  Li  -0.1579387   0.2463400   0.0573253 SPIN=   0.00000
  Li  -0.2352495   0.1901357   0.4965489 SPIN=   0.00000
  Li   0.2352495  -0.4965489  -0.1901357 SPIN=   0.00000
  Fe   0.2341658  -0.1328509   0.3930834 SPIN=   3.59992
  Fe  -0.2341658  -0.3930834   0.1328509 SPIN=   3.59992
  Fe  -0.2708660  -0.2046030  -0.3644566 SPIN=   4.40008
  Fe   0.2708660   0.3644566   0.2046030 SPIN=   4.40008
   O   0.2323760   0.1941643  -0.6157770 SPIN=   0.00000
   O   0.4680711   0.1174868  -0.3796650 SPIN=   0.00000
   O   0.0418968   0.1573517  -0.3497633 SPIN=   0.00000
   O   0.2951757   0.3902817  -0.4033673 SPIN=   0.00000
   S   0.2593799   0.2148211  -0.4371432 SPIN=   0.00000
   O  -0.2323760   0.6157770  -0.1941643 SPIN=   0.00000
   O  -0.4680711   0.3796650  -0.1174868 SPIN=   0.00000
   O  -0.0418968   0.3497633  -0.1573517 SPIN=   0.00000
   O  -0.2951757   0.4033673  -0.3902817 SPIN=   0.00000
   S  -0.2593799   0.4371432  -0.2148211 SPIN=   0.00000
   O   0.2978932  -0.1115602   0.1410826 SPIN=   0.00000
   O   0.0203489  -0.2346186  -0.0417576 SPIN=   0.00000
   O   0.2954591  -0.4060668   0.1131388 SPIN=   0.00000
   O   0.4410806  -0.2331422  -0.1102437 SPIN=   0.00000
   S   0.2636954  -0.2463470   0.0255550 SPIN=   0.00000
   O  -0.2978932  -0.1410826   0.1115602 SPIN=   0.00000
   O  -0.0203489   0.0417576   0.2346186 SPIN=   0.00000
   O  -0.2954591  -0.1131388   0.4060668 SPIN=   0.00000
   O  -0.4410806   0.1102437   0.2331422 SPIN=   0.00000
   S  -0.2636954  -0.0255550   0.2463470 SPIN=   0.00000
   F   0.2636436  -0.3015534  -0.4350360 SPIN=   0.00000
   F  -0.2636436   0.4350360   0.3015534 SPIN=   0.00000
   F  -0.2409653  -0.0371551  -0.2037455 SPIN=   0.00000
   F   0.2409653   0.2037455   0.0371551 SPIN=   0.00000
%ENDBLOCK POSITIONS_FRAC

# Note: total spin =  16.00

KPOINTS_MP_SPACING 0.07

%BLOCK SPECIES_POT
QC5
%ENDBLOCK SPECIES_POT

SNAP_TO_SYMMETRY
SYMMETRY_GENERATE

