#              Generated by Buildcell
#
# at 07:44:40 (GMT+1.0) 4th August 2020
# in /lustre/scratch/uccabz1/launch_tmp
# on node-c12e-011
# by uccabz1
#
# compiler GCC version 4.9.2
# options -cpp -iprefix /lustre/shared/ucl/apps/gcc/4.9.2/bin/../lib/gcc/x86_64-unknown-linux-gnu/4.9.2/ -mtune=corei7 -march=x86-64 -g -Og
#
# seed  1382007757 -1623749919  1448561302  1356902713   199431702  -623836101  1375241775 -1277520777  1697015245  1638190475  -518576029 -1142369375
#
#      Author: C. J. Pickard (cjp20@cam.ac.uk)
#                Space group: Cc
#

%BLOCK LATTICE_ABC
      6.15463      7.18673     10.28908
     84.28632     76.55538     64.64703
%ENDBLOCK LATTICE_ABC

%BLOCK POSITIONS_FRAC
  Li  -0.1463106   0.0314218  -0.4114926 SPIN=   0.00000
  Li   0.3851113  -0.0314218   0.0885074 SPIN=   0.00000
  Li  -0.4822500   0.4084950   0.2024025 SPIN=   0.00000
  Li   0.4262450  -0.4084950  -0.2975975 SPIN=   0.00000
  Fe   0.0107806  -0.3837846   0.4740644 SPIN=   6.85849
  Fe   0.1269961   0.3837846  -0.0259356 SPIN=   6.85849
  Fe  -0.3346479  -0.1958218  -0.1845224 SPIN=   1.14151
  Fe  -0.0304698   0.1958218   0.3154776 SPIN=   1.14151
   O   0.2291120  -0.3435549   0.2465988 SPIN=   0.00000
   O  -0.1679208  -0.2723027   0.1890420 SPIN=   0.00000
   O   0.1848706  -0.2809281   0.0112527 SPIN=   0.00000
   O  -0.0271337   0.0056635   0.1742173 SPIN=   0.00000
   S   0.0547320  -0.2227806   0.1552777 SPIN=   0.00000
   O   0.3855571   0.3435549  -0.2534012 SPIN=   0.00000
   O   0.0597765   0.2723027  -0.3109580 SPIN=   0.00000
   O   0.4039425   0.2809281  -0.4887473 SPIN=   0.00000
   O   0.4785298  -0.0056635  -0.3257827 SPIN=   0.00000
   S   0.3319515   0.2227806  -0.3447223 SPIN=   0.00000
   O  -0.3469714   0.0821318   0.0113749 SPIN=   0.00000
   O  -0.4500349   0.4287149  -0.0896534 SPIN=   0.00000
   O  -0.2140963   0.1184220  -0.2323672 SPIN=   0.00000
   O  -0.0194621   0.2030359  -0.0755779 SPIN=   0.00000
   S  -0.2576412   0.2080762  -0.0965559 SPIN=   0.00000
   O   0.2351604  -0.0821318   0.5113749 SPIN=   0.00000
   O   0.4786800  -0.4287149   0.4103466 SPIN=   0.00000
   O   0.4043257  -0.1184220   0.2676328 SPIN=   0.00000
   O   0.6835738  -0.2030359   0.4244221 SPIN=   0.00000
   S   0.4504350  -0.2080762   0.4034441 SPIN=   0.00000
   F   0.2055693   0.2389487   0.1306654 SPIN=   0.00000
   F  -0.0554820  -0.2389487  -0.3693346 SPIN=   0.00000
   F  -0.1527392   0.3092096   0.4987992 SPIN=   0.00000
   F  -0.3435296  -0.3092096  -0.0012008 SPIN=   0.00000
%ENDBLOCK POSITIONS_FRAC

# Note: total spin =  16.00

KPOINTS_MP_SPACING 0.07

%BLOCK SPECIES_POT
QC5
%ENDBLOCK SPECIES_POT

SNAP_TO_SYMMETRY
SYMMETRY_GENERATE

