#              Generated by Buildcell
#
# at 23:43:58 (GMT+1.0) 17th August 2020
# in /lustre/scratch/uccabz1/launch_tmp
# on node-c12g-033
# by uccabz1
#
# compiler GCC version 4.9.2
# options -cpp -iprefix /lustre/shared/ucl/apps/gcc/4.9.2/bin/../lib/gcc/x86_64-unknown-linux-gnu/4.9.2/ -mtune=corei7 -march=x86-64 -g -Og
#
# seed   389606832  -307815993 -1201151196  -739158318  -676859522  -654448526  1040940501 -1913404986 -1078658768   121506202   688162170  1521533825
#
#      Author: C. J. Pickard (cjp20@cam.ac.uk)
#                Space group: Pm
#

%BLOCK LATTICE_ABC
      5.82422      8.03073      8.75528
     90.00000     90.00000    102.37091
%ENDBLOCK LATTICE_ABC

%BLOCK POSITIONS_FRAC
  Li  -0.3345577  -0.2483341  -0.2122991 SPIN=   0.00000
  Li  -0.3345577  -0.2483341   0.2122991 SPIN=   0.00000
  Li  -0.3256823   0.1945649   0.0000000 SPIN=   0.00000
  Li   0.1290633  -0.0509279   0.5000000 SPIN=   0.00000
  Fe   0.0512064   0.1105768   0.2077519 SPIN=   6.14715
  Fe   0.0512064   0.1105768  -0.2077519 SPIN=   6.14715
  Fe  -0.3774715  -0.0677996   0.5000000 SPIN=   1.84864
  Fe   0.0055535   0.4246946  -0.5000000 SPIN=   1.85706
   O  -0.7073419   0.3463758  -0.2166951 SPIN=   0.00000
   O  -0.2927352   0.4385484  -0.1349762 SPIN=   0.00000
   O  -0.4304421   0.5590196  -0.3694202 SPIN=   0.00000
   O  -0.3916211   0.2581454  -0.3648867 SPIN=   0.00000
   S  -0.4555351   0.4005223  -0.2714946 SPIN=   0.00000
   O  -0.7073419   0.3463758   0.2166951 SPIN=   0.00000
   O  -0.2927352   0.4385484   0.1349762 SPIN=   0.00000
   O  -0.4304421   0.5590196   0.3694202 SPIN=   0.00000
   O  -0.3916211   0.2581454   0.3648867 SPIN=   0.00000
   S  -0.4555351   0.4005223   0.2714946 SPIN=   0.00000
   O   0.0193900  -0.1773576  -0.1320158 SPIN=   0.00000
   O   0.3037439  -0.1717443  -0.3429975 SPIN=   0.00000
   O  -0.0366799  -0.4145872  -0.3181374 SPIN=   0.00000
   O   0.2886868  -0.3775430  -0.1309123 SPIN=   0.00000
   S   0.1437852  -0.2853080  -0.2310157 SPIN=   0.00000
   O   0.0193900  -0.1773576   0.1320158 SPIN=   0.00000
   O   0.3037439  -0.1717443   0.3429975 SPIN=   0.00000
   O  -0.0366799  -0.4145872   0.3181374 SPIN=   0.00000
   O   0.2886868  -0.3775430   0.1309123 SPIN=   0.00000
   S   0.1437852  -0.2853080   0.2310157 SPIN=   0.00000
   F  -0.3067745   0.0001637  -0.2051694 SPIN=   0.00000
   F  -0.3067745   0.0001637   0.2051694 SPIN=   0.00000
   F   0.2257960   0.1136446   0.0000000 SPIN=   0.00000
   F   0.0762420   0.1835310   0.5000000 SPIN=   0.00000
%ENDBLOCK POSITIONS_FRAC

# Note: total spin =  16.00

KPOINTS_MP_SPACING 0.07

%BLOCK SPECIES_POT
QC5
%ENDBLOCK SPECIES_POT

SNAP_TO_SYMMETRY
SYMMETRY_GENERATE

