#              Generated by Buildcell
#
# at 23:54:31 (GMT+1.0) 17th August 2020
# in /lustre/scratch/uccabz1/launch_tmp
# on node-c12h-021
# by uccabz1
#
# compiler GCC version 4.9.2
# options -cpp -iprefix /lustre/shared/ucl/apps/gcc/4.9.2/bin/../lib/gcc/x86_64-unknown-linux-gnu/4.9.2/ -mtune=corei7 -march=x86-64 -g -Og
#
# seed  1060747599  1260928474  1984253163  1054686550  1873605066   293857729  1511808315  -567294938   443576107   280921528  1419864521   944806256
#
#      Author: C. J. Pickard (cjp20@cam.ac.uk)
#                Space group: I-4
#

%BLOCK LATTICE_ABC
      8.04461      8.04461      8.04461
    106.56579    110.94318    110.94318
%ENDBLOCK LATTICE_ABC

%BLOCK POSITIONS_FRAC
  Li   0.1768716  -0.0883670   0.3823032 SPIN=   0.00000
  Li  -0.1768716   0.2054316  -0.2652386 SPIN=   0.00000
  Li  -0.4706702  -0.3823032  -0.2054316 SPIN=   0.00000
  Li   0.4706702   0.2652386   0.0883670 SPIN=   0.00000
  Fe   0.2878246  -0.4954458   0.3453546 SPIN=   4.00000
  Fe  -0.2878246   0.0575300   0.2167296 SPIN=   4.00000
  Fe   0.1591996  -0.3453546  -0.0575300 SPIN=   4.00000
  Fe  -0.1591996  -0.2167296   0.4954458 SPIN=   4.00000
   O  -0.0230199   0.0444467  -0.5372328 SPIN=   0.00000
   O   0.0823786   0.3695081  -0.2677539 SPIN=   0.00000
   O   0.2488695   0.3655072  -0.4736570 SPIN=   0.00000
   O   0.3220229   0.2387059  -0.2254305 SPIN=   0.00000
   S   0.1575628   0.2545420  -0.3760186 SPIN=   0.00000
   O   0.0230199   0.4857871   0.0674666 SPIN=   0.00000
   O  -0.0823786   0.6498675   0.2871295 SPIN=   0.00000
   O  -0.2488695   0.2774735   0.1166378 SPIN=   0.00000
   O  -0.3220229   0.4525467  -0.0833170 SPIN=   0.00000
   S  -0.1575628   0.4664187   0.0969792 SPIN=   0.00000
   O  -0.4183205   0.5372328  -0.4857871 SPIN=   0.00000
   O  -0.3627380   0.2677539  -0.6498675 SPIN=   0.00000
   O  -0.1608357   0.4736570  -0.2774735 SPIN=   0.00000
   O  -0.5358637   0.2254305  -0.4525467 SPIN=   0.00000
   S  -0.3694395   0.3760186  -0.4664187 SPIN=   0.00000
   O   0.4183205  -0.0674666  -0.0444467 SPIN=   0.00000
   O   0.3627380  -0.2871295  -0.3695081 SPIN=   0.00000
   O   0.1608357  -0.1166378  -0.3655072 SPIN=   0.00000
   O   0.5358637   0.0833170  -0.2387059 SPIN=   0.00000
   S   0.3694395  -0.0969792  -0.2545420 SPIN=   0.00000
   F   0.2211240  -0.1017089   0.1696275 SPIN=   0.00000
   F  -0.2211240  -0.0514966  -0.3228329 SPIN=   0.00000
   F  -0.2713363  -0.1696275   0.0514966 SPIN=   0.00000
   F   0.2713363   0.3228329   0.1017089 SPIN=   0.00000
%ENDBLOCK POSITIONS_FRAC

# Note: total spin =  16.00

KPOINTS_MP_SPACING 0.07

%BLOCK SPECIES_POT
QC5
%ENDBLOCK SPECIES_POT

SNAP_TO_SYMMETRY
SYMMETRY_GENERATE

