#              Generated by Buildcell
#
# at 00:04:56 (GMT+1.0) 18th August 2020
# in /lustre/scratch/uccabz1/launch_tmp
# on node-c12o-034
# by uccabz1
#
# compiler GCC version 4.9.2
# options -cpp -iprefix /lustre/shared/ucl/apps/gcc/4.9.2/bin/../lib/gcc/x86_64-unknown-linux-gnu/4.9.2/ -mtune=corei7 -march=x86-64 -g -Og
#
# seed  1956289218  -899754148   329084930  1176295189  -290872892 -1573200521  2062341448 -1440697769  -557906091   440150028 -1901112065  1348047947
#
#      Author: C. J. Pickard (cjp20@cam.ac.uk)
#                Space group: I-4
#

%BLOCK LATTICE_ABC
      8.09692      8.09692      8.09692
     99.72963    114.55084    114.55084
%ENDBLOCK LATTICE_ABC

%BLOCK POSITIONS_FRAC
  Li  -0.2784580  -0.1388812   0.1071723 SPIN=   0.00000
  Li   0.2784580   0.3856303   0.1395768 SPIN=   0.00000
  Li  -0.2460535  -0.1071723  -0.3856303 SPIN=   0.00000
  Li   0.2460535  -0.1395768   0.1388812 SPIN=   0.00000
  Fe   0.4027382  -0.2146453  -0.3154104 SPIN=   4.00000
  Fe  -0.4027382   0.2818514   0.3826165 SPIN=   4.00000
  Fe   0.1007651   0.3154104  -0.2818514 SPIN=   4.00000
  Fe  -0.1007651  -0.3826165   0.2146453 SPIN=   4.00000
   O   0.0714713  -0.1121011  -0.2931737 SPIN=   0.00000
   O   0.2398658   0.0786539   0.0655875 SPIN=   0.00000
   O   0.3644041   0.2448487  -0.1263668 SPIN=   0.00000
   O   0.4464377  -0.0048888  -0.0486463 SPIN=   0.00000
   S   0.2805447   0.0516282  -0.1006498 SPIN=   0.00000
   O  -0.0714713  -0.3646450  -0.1835724 SPIN=   0.00000
   O  -0.2398658  -0.1742783  -0.1612119 SPIN=   0.00000
   O  -0.3644041  -0.4907709  -0.1195554 SPIN=   0.00000
   O  -0.4464377  -0.4950840  -0.4513265 SPIN=   0.00000
   S  -0.2805447  -0.3811945  -0.2289166 SPIN=   0.00000
   O   0.1810725   0.2931737   0.3646450 SPIN=   0.00000
   O   0.0130663  -0.0655875   0.1742783 SPIN=   0.00000
   O   0.3712155   0.1263668   0.4907709 SPIN=   0.00000
   O   0.0437575   0.0486463   0.4950840 SPIN=   0.00000
   S   0.1522780   0.1006498   0.3811945 SPIN=   0.00000
   O  -0.1810725   0.1835724   0.1121011 SPIN=   0.00000
   O  -0.0130663   0.1612119  -0.0786539 SPIN=   0.00000
   O  -0.3712155   0.1195554  -0.2448487 SPIN=   0.00000
   O  -0.0437575   0.4513265   0.0048888 SPIN=   0.00000
   S  -0.1522780   0.2289166  -0.0516282 SPIN=   0.00000
   F   0.2868597  -0.3366542   0.4080487 SPIN=   0.00000
   F  -0.2868597   0.1211890   0.3764861 SPIN=   0.00000
   F   0.2552971  -0.4080487  -0.1211890 SPIN=   0.00000
   F  -0.2552971  -0.3764861   0.3366542 SPIN=   0.00000
%ENDBLOCK POSITIONS_FRAC

# Note: total spin =  16.00

KPOINTS_MP_SPACING 0.07

%BLOCK SPECIES_POT
QC5
%ENDBLOCK SPECIES_POT

SNAP_TO_SYMMETRY
SYMMETRY_GENERATE

