#              Generated by Buildcell
#
# at 09:23:04 (GMT+1.0) 4th August 2020
# in /lustre/scratch/uccabz1/launch_tmp
# on node-c12h-010
# by uccabz1
#
# compiler GCC version 4.9.2
# options -cpp -iprefix /lustre/shared/ucl/apps/gcc/4.9.2/bin/../lib/gcc/x86_64-unknown-linux-gnu/4.9.2/ -mtune=corei7 -march=x86-64 -g -Og
#
# seed -2135301038  1992235420  1100551914   -10910396    89563069  1889293033  -598505328   124657392  -137216156 -1461162800  1889323048 -2017908639
#
#      Author: C. J. Pickard (cjp20@cam.ac.uk)
#                Space group: P-1
#

%BLOCK LATTICE_ABC
      4.31255      9.52649     10.75000
     66.47279     81.12597     87.55019
%ENDBLOCK LATTICE_ABC

%BLOCK POSITIONS_FRAC
  Li  -0.2523206  -0.3332881   0.4208928 SPIN=   0.00000
  Li   0.2523206   0.3332881  -0.4208928 SPIN=   0.00000
  Li  -0.0071666   0.1584674   0.0485790 SPIN=   0.00000
  Li   0.0071666  -0.1584674  -0.0485790 SPIN=   0.00000
  Fe   0.1973042  -0.0084501  -0.3613167 SPIN=   3.90324
  Fe  -0.1973042   0.0084501   0.3613167 SPIN=   3.90324
  Fe   0.1179334  -0.3918420  -0.3415472 SPIN=   4.09676
  Fe  -0.1179334   0.3918420   0.3415472 SPIN=   4.09676
   O  -0.2711085  -0.4307937  -0.0656558 SPIN=   0.00000
   O  -0.2195637  -0.1735569  -0.2551159 SPIN=   0.00000
   O  -0.5473428  -0.2119480  -0.0333200 SPIN=   0.00000
   O  -0.7230477  -0.3189490  -0.1866951 SPIN=   0.00000
   S  -0.4402657  -0.2838119  -0.1351967 SPIN=   0.00000
   O   0.2711085   0.4307937   0.0656558 SPIN=   0.00000
   O   0.2195637   0.1735569   0.2551159 SPIN=   0.00000
   O   0.5473428   0.2119480   0.0333200 SPIN=   0.00000
   O   0.7230477   0.3189490   0.1866951 SPIN=   0.00000
   S   0.4402657   0.2838119   0.1351967 SPIN=   0.00000
   O   0.3891930  -0.3209578   0.2341926 SPIN=   0.00000
   O   0.0364151  -0.1041888   0.2168132 SPIN=   0.00000
   O   0.5908986  -0.0544738   0.1062886 SPIN=   0.00000
   O   0.4611734  -0.1588246   0.3594380 SPIN=   0.00000
   S   0.3694200  -0.1596113   0.2291831 SPIN=   0.00000
   O  -0.3891930   0.3209578  -0.2341926 SPIN=   0.00000
   O  -0.0364151   0.1041888  -0.2168132 SPIN=   0.00000
   O  -0.5908986   0.0544738  -0.1062886 SPIN=   0.00000
   O  -0.4611734   0.1588246  -0.3594380 SPIN=   0.00000
   S  -0.3694200   0.1596113  -0.2291831 SPIN=   0.00000
   F  -0.0795455  -0.4023968   0.1559656 SPIN=   0.00000
   F   0.0795455   0.4023968  -0.1559656 SPIN=   0.00000
   F   0.1521903   0.2152681   0.4744993 SPIN=   0.00000
   F  -0.1521903  -0.2152681  -0.4744993 SPIN=   0.00000
%ENDBLOCK POSITIONS_FRAC

# Note: total spin =  16.00

KPOINTS_MP_SPACING 0.07

%BLOCK SPECIES_POT
QC5
%ENDBLOCK SPECIES_POT

SNAP_TO_SYMMETRY
SYMMETRY_GENERATE

