#              Generated by Buildcell
#
# at 10:05:58 (GMT+1.0) 4th August 2020
# in /lustre/scratch/uccabz1/launch_tmp
# on node-c12g-010
# by uccabz1
#
# compiler GCC version 4.9.2
# options -cpp -iprefix /lustre/shared/ucl/apps/gcc/4.9.2/bin/../lib/gcc/x86_64-unknown-linux-gnu/4.9.2/ -mtune=corei7 -march=x86-64 -g -Og
#
# seed   962836911    -7194712   929618186  -976922925  -234758411 -1385855207  -545349093  -222784241 -1469481487  1395592025  1712240039   473044753
#
#      Author: C. J. Pickard (cjp20@cam.ac.uk)
#                Space group: P21/c
#

%BLOCK LATTICE_ABC
      3.97528      9.08433     11.09746
     90.00000     90.00000     93.52893
%ENDBLOCK LATTICE_ABC

%BLOCK POSITIONS_FRAC
  Li  -0.2620482   0.1110103   0.1476266 SPIN=   0.00000
  Li   0.2620482   0.3889897  -0.3523734 SPIN=   0.00000
  Li   0.2620482  -0.1110103  -0.1476266 SPIN=   0.00000
  Li  -0.2620482  -0.3889897   0.3523734 SPIN=   0.00000
  Fe  -0.0975277   0.3052372   0.4193322 SPIN=   4.00000
  Fe   0.0975277   0.1947628  -0.0806678 SPIN=   4.00000
  Fe   0.0975277  -0.3052372  -0.4193322 SPIN=   4.00000
  Fe  -0.0975277  -0.1947628   0.0806678 SPIN=   4.00000
   O  -0.0742745  -0.1593954  -0.2796774 SPIN=   0.00000
   O  -0.3610261   0.0422189  -0.1803893 SPIN=   0.00000
   O  -0.5066041  -0.0284846  -0.3902390 SPIN=   0.00000
   O   0.0470583   0.0989715  -0.3448373 SPIN=   0.00000
   S  -0.2237116  -0.0116724  -0.2987858 SPIN=   0.00000
   O   0.0742745  -0.3406046   0.2203226 SPIN=   0.00000
   O   0.3610261  -0.5422189   0.3196107 SPIN=   0.00000
   O   0.5066041  -0.4715154   0.1097610 SPIN=   0.00000
   O  -0.0470583  -0.5989715   0.1551627 SPIN=   0.00000
   S   0.2237116  -0.4883276   0.2012142 SPIN=   0.00000
   O   0.0742745   0.1593954   0.2796774 SPIN=   0.00000
   O   0.3610261  -0.0422189   0.1803893 SPIN=   0.00000
   O   0.5066041   0.0284846   0.3902390 SPIN=   0.00000
   O  -0.0470583  -0.0989715   0.3448373 SPIN=   0.00000
   S   0.2237116   0.0116724   0.2987858 SPIN=   0.00000
   O  -0.0742745   0.3406046  -0.2203226 SPIN=   0.00000
   O  -0.3610261   0.5422189  -0.3196107 SPIN=   0.00000
   O  -0.5066041   0.4715154  -0.1097610 SPIN=   0.00000
   O   0.0470583   0.5989715  -0.1551627 SPIN=   0.00000
   S  -0.2237116   0.4883276  -0.2012142 SPIN=   0.00000
   F   0.4813693   0.2882712  -0.4779123 SPIN=   0.00000
   F  -0.4813693   0.2117288   0.0220877 SPIN=   0.00000
   F  -0.4813693  -0.2882712   0.4779123 SPIN=   0.00000
   F   0.4813693  -0.2117288  -0.0220877 SPIN=   0.00000
%ENDBLOCK POSITIONS_FRAC

# Note: total spin =  16.00

KPOINTS_MP_SPACING 0.07

%BLOCK SPECIES_POT
QC5
%ENDBLOCK SPECIES_POT

SNAP_TO_SYMMETRY
SYMMETRY_GENERATE

