#              Generated by Buildcell
#
# at 08:33:47 (GMT+1.0) 4th August 2020
# in /lustre/scratch/uccabz1/launch_tmp
# on node-c12p-018
# by uccabz1
#
# compiler GCC version 4.9.2
# options -cpp -iprefix /lustre/shared/ucl/apps/gcc/4.9.2/bin/../lib/gcc/x86_64-unknown-linux-gnu/4.9.2/ -mtune=corei7 -march=x86-64 -g -Og
#
# seed   756610928  -109652390  -576618947   661065100  -487983689  2098439454   950868328   846631370 -1706762127  1480392309  1745504786 -2115571078
#
#      Author: C. J. Pickard (cjp20@cam.ac.uk)
#                Space group: P212121
#

%BLOCK LATTICE_ABC
      4.33263      8.95412     10.31064
     90.00000     90.00000     90.00000
%ENDBLOCK LATTICE_ABC

%BLOCK POSITIONS_FRAC
  Li   0.0048214  -0.1218296   0.0790714 SPIN=   0.00000
  Li  -0.0048214  -0.3781704  -0.4209286 SPIN=   0.00000
  Li  -0.4951786   0.1218296   0.4209286 SPIN=   0.00000
  Li   0.4951786   0.3781704  -0.0790714 SPIN=   0.00000
  Fe   0.4936374  -0.1280246  -0.1381671 SPIN=   4.00000
  Fe  -0.4936374  -0.3719754   0.3618329 SPIN=   4.00000
  Fe  -0.0063626   0.1280246  -0.3618329 SPIN=   4.00000
  Fe   0.0063626   0.3719754   0.1381671 SPIN=   4.00000
   O   0.8438580   0.4001186  -0.4226500 SPIN=   0.00000
   O   0.4401731   0.4494011  -0.2583086 SPIN=   0.00000
   O   0.3795200   0.2395710  -0.4124508 SPIN=   0.00000
   O   0.3362569   0.5002379  -0.4901685 SPIN=   0.00000
   S   0.4999520   0.3973322  -0.3958945 SPIN=   0.00000
   O  -0.8438580   0.0998814   0.0773500 SPIN=   0.00000
   O  -0.4401731   0.0505989   0.2416914 SPIN=   0.00000
   O  -0.3795200   0.2604290   0.0875492 SPIN=   0.00000
   O  -0.3362569  -0.0002379   0.0098315 SPIN=   0.00000
   S  -0.4999520   0.1026678   0.1041055 SPIN=   0.00000
   O   0.3438580  -0.4001186  -0.0773500 SPIN=   0.00000
   O  -0.0598269  -0.4494011  -0.2416914 SPIN=   0.00000
   O  -0.1204800  -0.2395710  -0.0875492 SPIN=   0.00000
   O  -0.1637431  -0.5002379  -0.0098315 SPIN=   0.00000
   S  -0.0000480  -0.3973322  -0.1041055 SPIN=   0.00000
   O  -0.3438580  -0.0998814   0.4226500 SPIN=   0.00000
   O   0.0598269  -0.0505989   0.2583086 SPIN=   0.00000
   O   0.1204800  -0.2604290   0.4124508 SPIN=   0.00000
   O   0.1637431   0.0002379   0.4901685 SPIN=   0.00000
   S   0.0000480  -0.1026678   0.3958945 SPIN=   0.00000
   F   0.4999520  -0.2015887  -0.3325848 SPIN=   0.00000
   F  -0.4999520  -0.2984113   0.1674152 SPIN=   0.00000
   F  -0.0000480   0.2015887  -0.1674152 SPIN=   0.00000
   F   0.0000480   0.2984113   0.3325848 SPIN=   0.00000
%ENDBLOCK POSITIONS_FRAC

# Note: total spin =  16.00

KPOINTS_MP_SPACING 0.07

%BLOCK SPECIES_POT
QC5
%ENDBLOCK SPECIES_POT

SNAP_TO_SYMMETRY
SYMMETRY_GENERATE

