#              Generated by Buildcell
#
# at 10:24:25 (GMT+1.0) 4th August 2020
# in /lustre/scratch/uccabz1/launch_tmp
# on node-c12g-003
# by uccabz1
#
# compiler GCC version 4.9.2
# options -cpp -iprefix /lustre/shared/ucl/apps/gcc/4.9.2/bin/../lib/gcc/x86_64-unknown-linux-gnu/4.9.2/ -mtune=corei7 -march=x86-64 -g -Og
#
# seed  1299439215  -753059882  -758186537  -794807548  1895058649  -428349402   211789001  -995467620  -565108454   253170056 -1698734820   -10735960
#
#      Author: C. J. Pickard (cjp20@cam.ac.uk)
#                Space group: Cm
#

%BLOCK LATTICE_ABC
      7.11706      7.49977      7.49977
     87.81990     89.58465     89.58465
%ENDBLOCK LATTICE_ABC

%BLOCK POSITIONS_FRAC
  Li  -0.4703296   0.4473479   0.4473479 SPIN=   0.00000
  Li   0.2448125  -0.0138930  -0.0138930 SPIN=   0.00000
  Li   0.0124066   0.3111379   0.3111379 SPIN=   0.00000
  Li  -0.2655008  -0.1433621  -0.1433621 SPIN=   0.00000
  Fe   0.2293452   0.2348383  -0.3437713 SPIN=   4.76901
  Fe   0.2293452  -0.3437713   0.2348383 SPIN=   4.76901
  Fe   0.3660337  -0.2880815  -0.2880815 SPIN=   0.37626
  Fe  -0.1024887  -0.4071706  -0.4071706 SPIN=   6.08572
   O  -0.2279026  -0.5127391   0.0023770 SPIN=   0.00000
   O  -0.1564261  -0.4636572   0.3191467 SPIN=   0.00000
   O  -0.4777863  -0.4078368   0.2051060 SPIN=   0.00000
   O  -0.2188045  -0.2057563   0.1118056 SPIN=   0.00000
   S  -0.2702299  -0.3974973   0.1596088 SPIN=   0.00000
   O  -0.2279026   0.0023770  -0.5127391 SPIN=   0.00000
   O  -0.1564261   0.3191467  -0.4636572 SPIN=   0.00000
   O  -0.4777863   0.2051060  -0.4078368 SPIN=   0.00000
   O  -0.2188045   0.1118056  -0.2057563 SPIN=   0.00000
   S  -0.2702299   0.1596088  -0.3974973 SPIN=   0.00000
   O   0.4317046   0.4089230  -0.2089777 SPIN=   0.00000
   O   0.5278218   0.3147442   0.0969936 SPIN=   0.00000
   O   0.4744390   0.0882016  -0.1283758 SPIN=   0.00000
   O   0.2051541   0.2552088  -0.0050453 SPIN=   0.00000
   O   0.4317046  -0.2089777   0.4089230 SPIN=   0.00000
   O   0.5278218   0.0969936   0.3147442 SPIN=   0.00000
   O   0.4744390  -0.1283758   0.0882016 SPIN=   0.00000
   O   0.2051541  -0.0050453   0.2552088 SPIN=   0.00000
   S  -0.1055049   0.0784635   0.0784635 SPIN=   0.00000
   S   0.3945059   0.2117505   0.2117505 SPIN=   0.00000
   F   0.1962589  -0.0125860  -0.3673042 SPIN=   0.00000
   F   0.1962589  -0.3673042  -0.0125860 SPIN=   0.00000
   F  -0.3209518  -0.3130481  -0.3130481 SPIN=   0.00000
   F   0.1814735  -0.4851013  -0.4851013 SPIN=   0.00000
%ENDBLOCK POSITIONS_FRAC

# Note: total spin =  16.00

KPOINTS_MP_SPACING 0.07

%BLOCK SPECIES_POT
QC5
%ENDBLOCK SPECIES_POT

SNAP_TO_SYMMETRY
SYMMETRY_GENERATE

