#              Generated by Buildcell
#
# at 10:27:21 (GMT+1.0) 4th August 2020
# in /lustre/scratch/uccabz1/launch_tmp
# on node-c12m-018
# by uccabz1
#
# compiler GCC version 4.9.2
# options -cpp -iprefix /lustre/shared/ucl/apps/gcc/4.9.2/bin/../lib/gcc/x86_64-unknown-linux-gnu/4.9.2/ -mtune=corei7 -march=x86-64 -g -Og
#
# seed   374315891 -1219636082  1867729339   891048101  1502056921  1667941056   206239022   131796084 -1028890670  2145621352  -191357885 -1133234107
#
#      Author: C. J. Pickard (cjp20@cam.ac.uk)
#                Space group: Pna21
#

%BLOCK LATTICE_ABC
      5.82730      6.95751      9.86596
     90.00000     90.00000     90.00000
%ENDBLOCK LATTICE_ABC

%BLOCK POSITIONS_FRAC
  Li  -0.0859846   0.3493311   0.3938719 SPIN=   0.00000
  Li   0.0859846  -0.3493311  -0.1061281 SPIN=   0.00000
  Li  -0.4140154  -0.1506689   0.3938719 SPIN=   0.00000
  Li   0.4140154   0.1506689  -0.1061281 SPIN=   0.00000
  Fe  -0.3303869  -0.1847989  -0.2553554 SPIN=   4.00000
  Fe   0.3303869   0.1847989   0.2446446 SPIN=   4.00000
  Fe  -0.1696131   0.3152011  -0.2553554 SPIN=   4.00000
  Fe   0.1696131  -0.3152011   0.2446446 SPIN=   4.00000
   O   0.0106279   0.2292073   0.0078878 SPIN=   0.00000
   O   0.1609276  -0.0629698  -0.1043199 SPIN=   0.00000
   O  -0.2557169  -0.0296817  -0.0617241 SPIN=   0.00000
   O   0.0110332  -0.0814955   0.1300229 SPIN=   0.00000
   S  -0.0182821   0.0137651  -0.0070334 SPIN=   0.00000
   O  -0.0106279  -0.2292073   0.5078878 SPIN=   0.00000
   O  -0.1609276   0.0629698   0.3956801 SPIN=   0.00000
   O   0.2557169   0.0296817   0.4382759 SPIN=   0.00000
   O  -0.0110332   0.0814955   0.6300229 SPIN=   0.00000
   S   0.0182821  -0.0137651   0.4929666 SPIN=   0.00000
   O  -0.5106279  -0.2707927   0.0078878 SPIN=   0.00000
   O  -0.6609276  -0.5629698  -0.1043199 SPIN=   0.00000
   O  -0.2442831  -0.5296817  -0.0617241 SPIN=   0.00000
   O  -0.5110332  -0.5814955   0.1300229 SPIN=   0.00000
   S  -0.4817179  -0.4862349  -0.0070334 SPIN=   0.00000
   O   0.5106279   0.2707927   0.5078878 SPIN=   0.00000
   O   0.6609276   0.5629698   0.3956801 SPIN=   0.00000
   O   0.2442831   0.5296817   0.4382759 SPIN=   0.00000
   O   0.5110332   0.5814955   0.6300229 SPIN=   0.00000
   S   0.4817179   0.4862349   0.4929666 SPIN=   0.00000
   F  -0.4905927   0.0502617  -0.2815733 SPIN=   0.00000
   F   0.4905927  -0.0502617   0.2184267 SPIN=   0.00000
   F  -0.0094073  -0.4497383  -0.2815733 SPIN=   0.00000
   F   0.0094073   0.4497383   0.2184267 SPIN=   0.00000
%ENDBLOCK POSITIONS_FRAC

# Note: total spin =  16.00

KPOINTS_MP_SPACING 0.07

%BLOCK SPECIES_POT
QC5
%ENDBLOCK SPECIES_POT

SNAP_TO_SYMMETRY
SYMMETRY_GENERATE

