#              Generated by Buildcell
#
# at 08:10:14 (GMT+1.0) 4th August 2020
# in /lustre/scratch/uccabz1/launch_tmp
# on node-c12h-031
# by uccabz1
#
# compiler GCC version 4.9.2
# options -cpp -iprefix /lustre/shared/ucl/apps/gcc/4.9.2/bin/../lib/gcc/x86_64-unknown-linux-gnu/4.9.2/ -mtune=corei7 -march=x86-64 -g -Og
#
# seed  1933543871  1835714761  -246190301    92552487   126492154   621563290  1452921012  2008736707  1504077970  1208656633  -619225326  1372591118
#
#      Author: C. J. Pickard (cjp20@cam.ac.uk)
#                Space group: C2
#

%BLOCK LATTICE_ABC
      5.84747      8.57602      9.07292
    118.20427     93.50706     90.00000
%ENDBLOCK LATTICE_ABC

%BLOCK POSITIONS_FRAC
  Li   0.0011278  -0.3027754   0.4356090 SPIN=   0.00000
  Li  -0.0011278   0.2616157  -0.4356090 SPIN=   0.00000
  Li  -0.2367845  -0.1193468   0.1508462 SPIN=   0.00000
  Li   0.2367845  -0.2701930  -0.1508462 SPIN=   0.00000
  Fe  -0.2365115   0.2358548   0.1498458 SPIN=   3.55513
  Fe   0.2365115   0.0860090  -0.1498458 SPIN=   3.55513
  Fe  -0.4748660  -0.1522686   0.4358153 SPIN=   4.44487
  Fe   0.4748660   0.4119161  -0.4358153 SPIN=   4.44487
   O  -0.0497578  -0.0694275  -0.1414191 SPIN=   0.00000
   O  -0.2368753  -0.3459171  -0.3655552 SPIN=   0.00000
   O  -0.4627642  -0.1305432  -0.1389967 SPIN=   0.00000
   O  -0.1726720  -0.3057043  -0.0773476 SPIN=   0.00000
   S  -0.2305173  -0.2128980  -0.1808296 SPIN=   0.00000
   O   0.0497578   0.0719916   0.1414191 SPIN=   0.00000
   O   0.2368753   0.0196381   0.3655552 SPIN=   0.00000
   O   0.4627642   0.0084535   0.1389967 SPIN=   0.00000
   O   0.1726720  -0.2283568   0.0773476 SPIN=   0.00000
   S   0.2305173  -0.0320684   0.1808296 SPIN=   0.00000
   O   0.3257743   0.2479850   0.1169841 SPIN=   0.00000
   O   0.4700066   0.5352403   0.3509977 SPIN=   0.00000
   O   0.0583153   0.4497948   0.3176009 SPIN=   0.00000
   O   0.2244384   0.5273889   0.1153748 SPIN=   0.00000
   S   0.2696337   0.4401023   0.2252394 SPIN=   0.00000
   O  -0.3257743   0.1310009  -0.1169841 SPIN=   0.00000
   O  -0.4700066   0.1842426  -0.3509977 SPIN=   0.00000
   O  -0.0583153   0.1321938  -0.3176009 SPIN=   0.00000
   O  -0.2244384   0.4120141  -0.1153748 SPIN=   0.00000
   S  -0.2696337   0.2148629  -0.2252394 SPIN=   0.00000
   F  -0.2302640  -0.2875843   0.2499454 SPIN=   0.00000
   F   0.2302640   0.4624703  -0.2499454 SPIN=   0.00000
   F  -0.2640646   0.2690276   0.3974080 SPIN=   0.00000
   F   0.2640646  -0.1283804  -0.3974080 SPIN=   0.00000
%ENDBLOCK POSITIONS_FRAC

# Note: total spin =  16.00

KPOINTS_MP_SPACING 0.07

%BLOCK SPECIES_POT
QC5
%ENDBLOCK SPECIES_POT

SNAP_TO_SYMMETRY
SYMMETRY_GENERATE

