#              Generated by Buildcell
#
# at 11:32:43 (GMT+1.0) 18th August 2020
# in /lustre/scratch/uccabz1/launch_tmp
# on node-c12o-034
# by uccabz1
#
# compiler GCC version 4.9.2
# options -cpp -iprefix /lustre/shared/ucl/apps/gcc/4.9.2/bin/../lib/gcc/x86_64-unknown-linux-gnu/4.9.2/ -mtune=corei7 -march=x86-64 -g -Og
#
# seed   385266381   -94023817    51881193 -1099940367   998982800   314404885 -2124969986   695193804 -1224460878  -128467458 -1331717912 -1972573845
#
#      Author: C. J. Pickard (cjp20@cam.ac.uk)
#                Space group: Fdd2
#

%BLOCK LATTICE_ABC
      7.87974      7.87974      8.43553
    116.40581    116.40581     92.74042
%ENDBLOCK LATTICE_ABC

%BLOCK POSITIONS_FRAC
  Li  -0.2158780  -0.2127904  -0.0512248 SPIN=   0.00000
  Li   0.2127904   0.2158780   0.0512248 SPIN=   0.00000
  Li   0.4115656  -0.0853467   0.4487752 SPIN=   0.00000
  Li   0.0853467  -0.4115656  -0.4487752 SPIN=   0.00000
  Fe   0.0510499  -0.4409641   0.1726063 SPIN=   4.00000
  Fe   0.4409641  -0.0510499  -0.1726063 SPIN=   4.00000
  Fe  -0.1364296  -0.1284436  -0.3273937 SPIN=   4.00000
  Fe   0.1284436   0.1364296   0.3273937 SPIN=   4.00000
   O  -0.3247290   0.2629850   0.3420239 SPIN=   0.00000
   O  -0.2011766   0.5787968   0.3752191 SPIN=   0.00000
   O  -0.5376484   0.4816900   0.3143921 SPIN=   0.00000
   O  -0.4694336   0.2973565   0.0345408 SPIN=   0.00000
   S  -0.3832469   0.4052071   0.2665440 SPIN=   0.00000
   O  -0.2629850   0.3247290  -0.3420239 SPIN=   0.00000
   O  -0.5787968   0.2011766  -0.3752191 SPIN=   0.00000
   O  -0.4816900   0.5376484  -0.3143921 SPIN=   0.00000
   O  -0.2973565   0.4694336  -0.0345408 SPIN=   0.00000
   S  -0.4052071   0.3832469  -0.2665440 SPIN=   0.00000
   O   0.3290390   0.4167529  -0.1579761 SPIN=   0.00000
   O   0.0464223   0.3263957  -0.1247809 SPIN=   0.00000
   O   0.0827021   0.6020405  -0.1856079 SPIN=   0.00000
   O  -0.0128157   0.2539744  -0.4654592 SPIN=   0.00000
   S   0.1113369   0.3997909  -0.2334560 SPIN=   0.00000
   O  -0.4167529  -0.3290390   0.1579761 SPIN=   0.00000
   O  -0.3263957  -0.0464223   0.1247809 SPIN=   0.00000
   O  -0.6020405  -0.0827021   0.1856079 SPIN=   0.00000
   O  -0.2539744   0.0128157   0.4654592 SPIN=   0.00000
   S  -0.3997909  -0.1113369   0.2334560 SPIN=   0.00000
   F   0.1035566   0.4097172   0.3354640 SPIN=   0.00000
   F  -0.4097172  -0.1035566  -0.3354640 SPIN=   0.00000
   F   0.1757468  -0.0180926  -0.1645360 SPIN=   0.00000
   F   0.0180926  -0.1757468   0.1645360 SPIN=   0.00000
%ENDBLOCK POSITIONS_FRAC

# Note: total spin =  16.00

KPOINTS_MP_SPACING 0.07

%BLOCK SPECIES_POT
QC5
%ENDBLOCK SPECIES_POT

SNAP_TO_SYMMETRY
SYMMETRY_GENERATE

