#              Generated by Buildcell
#
# at 07:54:17 (GMT+1.0) 4th August 2020
# in /lustre/scratch/uccabz1/launch_tmp
# on node-c12f-015
# by uccabz1
#
# compiler GCC version 4.9.2
# options -cpp -iprefix /lustre/shared/ucl/apps/gcc/4.9.2/bin/../lib/gcc/x86_64-unknown-linux-gnu/4.9.2/ -mtune=corei7 -march=x86-64 -g -Og
#
# seed  1505407660  -857328988 -1858331943   333208114  1815676848  -544336534  -494752449   440444088  -651682475  1618185383 -2045542413  1036296518
#
#      Author: C. J. Pickard (cjp20@cam.ac.uk)
#                Space group: P21
#

%BLOCK LATTICE_ABC
      5.37878      7.31879     10.17909
     93.41468     90.00000     90.00000
%ENDBLOCK LATTICE_ABC

%BLOCK POSITIONS_FRAC
  Li   0.4026108   0.0620101  -0.3179724 SPIN=   0.00000
  Li  -0.0973892  -0.0620101   0.3179724 SPIN=   0.00000
  Li   0.2213454  -0.4158139   0.1099467 SPIN=   0.00000
  Li  -0.2786546   0.4158139  -0.1099467 SPIN=   0.00000
  Fe  -0.3813463  -0.1454597   0.0714858 SPIN=   4.07263
  Fe   0.1186537   0.1454597  -0.0714858 SPIN=   4.07263
  Fe  -0.0973199  -0.0764266  -0.3924932 SPIN=   3.92737
  Fe   0.4026801   0.0764266   0.3924932 SPIN=   3.92737
   O   0.2782634  -0.6494679   0.3524161 SPIN=   0.00000
   O   0.1241380  -0.4126623   0.5161606 SPIN=   0.00000
   O  -0.1127261  -0.4841244   0.3110670 SPIN=   0.00000
   O   0.2907308  -0.3226490   0.3027814 SPIN=   0.00000
   S   0.1451015  -0.4672259   0.3706063 SPIN=   0.00000
   O  -0.2217366   0.6494679  -0.3524161 SPIN=   0.00000
   O  -0.3758620   0.4126623  -0.5161606 SPIN=   0.00000
   O  -0.6127261   0.4841244  -0.3110670 SPIN=   0.00000
   O  -0.2092692   0.3226490  -0.3027814 SPIN=   0.00000
   S  -0.3548985   0.4672259  -0.3706063 SPIN=   0.00000
   O   0.0183345  -0.4609349  -0.1978437 SPIN=   0.00000
   O   0.0500547  -0.2307633  -0.0103867 SPIN=   0.00000
   O   0.1709949  -0.1489021  -0.2339881 SPIN=   0.00000
   O   0.4316947  -0.3620876  -0.1137930 SPIN=   0.00000
   S   0.1677697  -0.3006719  -0.1390029 SPIN=   0.00000
   O  -0.4816655   0.4609349   0.1978437 SPIN=   0.00000
   O  -0.4499453   0.2307633   0.0103867 SPIN=   0.00000
   O  -0.3290051   0.1489021   0.2339881 SPIN=   0.00000
   O  -0.0683053   0.3620876   0.1137930 SPIN=   0.00000
   S  -0.3322303   0.3006719   0.1390029 SPIN=   0.00000
   F  -0.3547914  -0.1540311   0.4259891 SPIN=   0.00000
   F   0.1452086   0.1540311  -0.4259891 SPIN=   0.00000
   F   0.1677123  -0.0079283   0.1828150 SPIN=   0.00000
   F  -0.3322877   0.0079283  -0.1828150 SPIN=   0.00000
%ENDBLOCK POSITIONS_FRAC

# Note: total spin =  16.00

KPOINTS_MP_SPACING 0.07

%BLOCK SPECIES_POT
QC5
%ENDBLOCK SPECIES_POT

SNAP_TO_SYMMETRY
SYMMETRY_GENERATE

