#              Generated by Buildcell
#
# at 06:03:28 (GMT+1.0) 4th August 2020
# in /lustre/scratch/uccabz1/launch_tmp
# on node-c12m-020
# by uccabz1
#
# compiler GCC version 4.9.2
# options -cpp -iprefix /lustre/shared/ucl/apps/gcc/4.9.2/bin/../lib/gcc/x86_64-unknown-linux-gnu/4.9.2/ -mtune=corei7 -march=x86-64 -g -Og
#
# seed   487060017  1590482628  1212926378 -1585476459  -476248765  1835988117 -1270371013 -1403017026    64613774  1934354783    50767772  -452690485
#
#      Author: C. J. Pickard (cjp20@cam.ac.uk)
#                Space group: P41
#

%BLOCK LATTICE_ABC
      6.02617      8.14722      8.14722
     90.00000     90.00000     90.00000
%ENDBLOCK LATTICE_ABC

%BLOCK POSITIONS_FRAC
  Li  -0.0673033  -0.0834512  -0.2678680 SPIN=   0.00000
  Li   0.4326967   0.0834512   0.2678680 SPIN=   0.00000
  Li   0.1826967   0.2678680  -0.0834512 SPIN=   0.00000
  Li  -0.3173033  -0.2678680   0.0834512 SPIN=   0.00000
  Fe   0.0476004   0.2019704  -0.4841539 SPIN=   4.00000
  Fe  -0.4523996  -0.2019704   0.4841539 SPIN=   4.00000
  Fe   0.2976004   0.4841539   0.2019704 SPIN=   4.00000
  Fe  -0.2023996  -0.4841539  -0.2019704 SPIN=   4.00000
   O   0.2859345  -0.4493929  -0.0831367 SPIN=   0.00000
   O   0.0979241  -0.1800326  -0.0635906 SPIN=   0.00000
   O   0.2330749  -0.2802050  -0.3323807 SPIN=   0.00000
   O   0.5012333  -0.1932615  -0.1193656 SPIN=   0.00000
   S   0.2795417  -0.2757230  -0.1496184 SPIN=   0.00000
   O  -0.2140655   0.4493929   0.0831367 SPIN=   0.00000
   O  -0.4020759   0.1800326   0.0635906 SPIN=   0.00000
   O  -0.2669251   0.2802050   0.3323807 SPIN=   0.00000
   O   0.0012333   0.1932615   0.1193656 SPIN=   0.00000
   S  -0.2204583   0.2757230   0.1496184 SPIN=   0.00000
   O  -0.4640655   0.0831367  -0.4493929 SPIN=   0.00000
   O  -0.6520759   0.0635906  -0.1800326 SPIN=   0.00000
   O  -0.5169251   0.3323807  -0.2802050 SPIN=   0.00000
   O  -0.2487667   0.1193656  -0.1932615 SPIN=   0.00000
   S  -0.4704583   0.1496184  -0.2757230 SPIN=   0.00000
   O   0.0359345  -0.0831367   0.4493929 SPIN=   0.00000
   O  -0.1520759  -0.0635906   0.1800326 SPIN=   0.00000
   O  -0.0169251  -0.3323807   0.2802050 SPIN=   0.00000
   O   0.2512333  -0.1193656   0.1932615 SPIN=   0.00000
   S   0.0295417  -0.1496184   0.2757230 SPIN=   0.00000
   F   0.0295372   0.3491203  -0.2570505 SPIN=   0.00000
   F  -0.4704628  -0.3491203   0.2570505 SPIN=   0.00000
   F   0.2795372   0.2570505   0.3491203 SPIN=   0.00000
   F  -0.2204628  -0.2570505  -0.3491203 SPIN=   0.00000
%ENDBLOCK POSITIONS_FRAC

# Note: total spin =  16.00

KPOINTS_MP_SPACING 0.07

%BLOCK SPECIES_POT
QC5
%ENDBLOCK SPECIES_POT

SNAP_TO_SYMMETRY
SYMMETRY_GENERATE

