#              Generated by Buildcell
#
# at 01:51:32 (GMT+1.0) 18th August 2020
# in /lustre/scratch/uccabz1/launch_tmp
# on node-c12g-023
# by uccabz1
#
# compiler GCC version 4.9.2
# options -cpp -iprefix /lustre/shared/ucl/apps/gcc/4.9.2/bin/../lib/gcc/x86_64-unknown-linux-gnu/4.9.2/ -mtune=corei7 -march=x86-64 -g -Og
#
# seed   590904563  2139746669  -245910546   836912830   931937834 -1280278760  -220849346  -679267970 -1913601681  1533579570 -1687282236  -288036420
#
#      Author: C. J. Pickard (cjp20@cam.ac.uk)
#                Space group: P21
#

%BLOCK LATTICE_ABC
      4.13755      5.88365     16.46422
     90.00000     90.00000     93.62820
%ENDBLOCK LATTICE_ABC

%BLOCK POSITIONS_FRAC
  Li   0.0248145  -0.4899906   0.2924166 SPIN=   0.00000
  Li  -0.0248145   0.4899906  -0.2075834 SPIN=   0.00000
  Li  -0.3468919   0.0181734  -0.4631240 SPIN=   0.00000
  Li   0.3468919  -0.0181734   0.0368760 SPIN=   0.00000
  Fe  -0.0175384  -0.4338718   0.0871049 SPIN=   3.75210
  Fe   0.0175384   0.4338718  -0.4128951 SPIN=   3.75210
  Fe   0.4872134  -0.3730708  -0.0934808 SPIN=   4.24790
  Fe  -0.4872134   0.3730708   0.4065192 SPIN=   4.24790
   O  -0.2907295  -0.2499626  -0.2142160 SPIN=   0.00000
   O  -0.5475748  -0.4780270  -0.3258077 SPIN=   0.00000
   O  -0.2772120  -0.0993408  -0.3546081 SPIN=   0.00000
   O  -0.7932567  -0.1291636  -0.2781962 SPIN=   0.00000
   S  -0.4771932  -0.2391235  -0.2932070 SPIN=   0.00000
   O   0.2907295   0.2499626   0.2857840 SPIN=   0.00000
   O   0.5475748   0.4780270   0.1741923 SPIN=   0.00000
   O   0.2772120   0.0993408   0.1453919 SPIN=   0.00000
   O   0.7932567   0.1291636   0.2218038 SPIN=   0.00000
   S   0.4771932   0.2391235   0.2067930 SPIN=   0.00000
   O  -0.3148772   0.1058962  -0.1450887 SPIN=   0.00000
   O   0.2153733   0.3083327  -0.1163597 SPIN=   0.00000
   O   0.1745040  -0.1114250  -0.1299134 SPIN=   0.00000
   O  -0.0606425   0.0706563  -0.0099844 SPIN=   0.00000
   S   0.0035894   0.0933650  -0.1003365 SPIN=   0.00000
   O   0.3148772  -0.1058962   0.3549113 SPIN=   0.00000
   O  -0.2153733  -0.3083327   0.3836403 SPIN=   0.00000
   O  -0.1745040   0.1114250   0.3700866 SPIN=   0.00000
   O   0.0606425  -0.0706563   0.4900156 SPIN=   0.00000
   S  -0.0035894  -0.0933650   0.3996635 SPIN=   0.00000
   F   0.0592125  -0.2785051   0.2037867 SPIN=   0.00000
   F  -0.0592125   0.2785051  -0.2962133 SPIN=   0.00000
   F   0.4655158  -0.4360217  -0.4883893 SPIN=   0.00000
   F  -0.4655158   0.4360217   0.0116107 SPIN=   0.00000
%ENDBLOCK POSITIONS_FRAC

# Note: total spin =  16.00

KPOINTS_MP_SPACING 0.07

%BLOCK SPECIES_POT
QC5
%ENDBLOCK SPECIES_POT

SNAP_TO_SYMMETRY
SYMMETRY_GENERATE

