#              Generated by Buildcell
#
# at 09:52:49 (GMT+1.0) 4th August 2020
# in /lustre/scratch/uccabz1/launch_tmp
# on node-c12g-019
# by uccabz1
#
# compiler GCC version 4.9.2
# options -cpp -iprefix /lustre/shared/ucl/apps/gcc/4.9.2/bin/../lib/gcc/x86_64-unknown-linux-gnu/4.9.2/ -mtune=corei7 -march=x86-64 -g -Og
#
# seed   636469802   952057001 -1585403232  1154712311 -1885225268  1805076519  1502889554  -765084605 -1292767628   229317787  -946085729   644937208
#
#      Author: C. J. Pickard (cjp20@cam.ac.uk)
#                Space group: P21
#

%BLOCK LATTICE_ABC
      6.34639      7.88955      8.19297
     90.00000     90.00000    102.81816
%ENDBLOCK LATTICE_ABC

%BLOCK POSITIONS_FRAC
  Li  -0.2558862   0.0459789  -0.0304379 SPIN=   0.00000
  Li   0.2558862  -0.0459789   0.4695621 SPIN=   0.00000
  Li  -0.0751245   0.4700463   0.4384619 SPIN=   0.00000
  Li   0.0751245  -0.4700463  -0.0615381 SPIN=   0.00000
  Fe   0.3961355  -0.4464949   0.3612904 SPIN=   3.13598
  Fe  -0.3961355   0.4464949  -0.1387096 SPIN=   3.13598
  Fe  -0.0757839   0.1163362   0.3053531 SPIN=   4.86402
  Fe   0.0757839  -0.1163362  -0.1946469 SPIN=   4.86402
   O  -0.1238719  -0.1975592   0.0185056 SPIN=   0.00000
   O  -0.3044072  -0.4872732   0.1241951 SPIN=   0.00000
   O  -0.2255167  -0.2338453   0.3101365 SPIN=   0.00000
   O   0.0732499  -0.3568522   0.2029246 SPIN=   0.00000
   S  -0.1451365  -0.3188825   0.1639405 SPIN=   0.00000
   O   0.1238719   0.1975592  -0.4814944 SPIN=   0.00000
   O   0.3044072   0.4872732  -0.3758049 SPIN=   0.00000
   O   0.2255167   0.2338453  -0.1898635 SPIN=   0.00000
   O  -0.0732499   0.3568522  -0.2970754 SPIN=   0.00000
   S   0.1451365   0.3188825  -0.3360595 SPIN=   0.00000
   O   0.3362815   0.0236334  -0.0419799 SPIN=   0.00000
   O   0.1816787  -0.0317260   0.2353234 SPIN=   0.00000
   O   0.4095801   0.2565468   0.1662745 SPIN=   0.00000
   O   0.5747654   0.0016354   0.1924059 SPIN=   0.00000
   S   0.3755764   0.0625224   0.1380060 SPIN=   0.00000
   O  -0.3362815  -0.0236334  -0.5419799 SPIN=   0.00000
   O  -0.1816787   0.0317260  -0.2646766 SPIN=   0.00000
   O  -0.4095801  -0.2565468  -0.3337255 SPIN=   0.00000
   O  -0.5747654  -0.0016354  -0.3075941 SPIN=   0.00000
   S  -0.3755764  -0.0625224  -0.3619940 SPIN=   0.00000
   F   0.0705094  -0.2581525  -0.4336188 SPIN=   0.00000
   F  -0.0705094   0.2581525   0.0663812 SPIN=   0.00000
   F   0.3602809  -0.3470584  -0.0503499 SPIN=   0.00000
   F  -0.3602809   0.3470584   0.4496501 SPIN=   0.00000
%ENDBLOCK POSITIONS_FRAC

# Note: total spin =  16.00

KPOINTS_MP_SPACING 0.07

%BLOCK SPECIES_POT
QC5
%ENDBLOCK SPECIES_POT

SNAP_TO_SYMMETRY
SYMMETRY_GENERATE

