#              Generated by Buildcell
#
# at 09:00:42 (GMT+1.0) 4th August 2020
# in /lustre/scratch/uccabz1/launch_tmp
# on node-c12g-034
# by uccabz1
#
# compiler GCC version 4.9.2
# options -cpp -iprefix /lustre/shared/ucl/apps/gcc/4.9.2/bin/../lib/gcc/x86_64-unknown-linux-gnu/4.9.2/ -mtune=corei7 -march=x86-64 -g -Og
#
# seed  1656946765 -1361298430  1497116227 -1819238147 -1052884126  -918638821   326529882  1908179428   485940133     8650844  -754994209 -1177433510
#
#      Author: C. J. Pickard (cjp20@cam.ac.uk)
#                Space group: Pc
#

%BLOCK LATTICE_ABC
      5.29645      7.42950     10.30570
     99.47200     90.00000     90.00000
%ENDBLOCK LATTICE_ABC

%BLOCK POSITIONS_FRAC
  Li  -0.0705262  -0.0365113   0.2374992 SPIN=   0.00000
  Li   0.0705262   0.4634887   0.2374992 SPIN=   0.00000
  Li  -0.4681876   0.3375721  -0.3869890 SPIN=   0.00000
  Li   0.4681876  -0.1624279  -0.3869890 SPIN=   0.00000
  Fe  -0.3987380   0.2768764   0.3273730 SPIN=   3.29714
  Fe   0.3987380  -0.2231236   0.3273730 SPIN=   3.29714
  Fe   0.1483927  -0.2148706  -0.0119467 SPIN=   4.70286
  Fe  -0.1483927   0.2851294  -0.0119467 SPIN=   4.70286
   O  -0.1098120  -0.3076851  -0.2175271 SPIN=   0.00000
   O  -0.5532357  -0.3782659  -0.2826210 SPIN=   0.00000
   O  -0.4393370  -0.3048163  -0.0469363 SPIN=   0.00000
   O  -0.3030721  -0.5975020  -0.1788721 SPIN=   0.00000
   S  -0.3513642  -0.3970673  -0.1814891 SPIN=   0.00000
   O   0.1098120   0.1923149  -0.2175271 SPIN=   0.00000
   O   0.5532357   0.1217341  -0.2826210 SPIN=   0.00000
   O   0.4393370   0.1951837  -0.0469363 SPIN=   0.00000
   O   0.3030721  -0.0975020  -0.1788721 SPIN=   0.00000
   S   0.3513642   0.1029327  -0.1814891 SPIN=   0.00000
   O  -0.1182281   0.6066619  -0.4674736 SPIN=   0.00000
   O   0.3441789   0.5982594  -0.5025080 SPIN=   0.00000
   O   0.0809378   0.3343759  -0.5982912 SPIN=   0.00000
   O   0.1481436   0.4030763  -0.3575668 SPIN=   0.00000
   S   0.1137581   0.4855934  -0.4814599 SPIN=   0.00000
   O   0.1182281   0.1066619  -0.4674736 SPIN=   0.00000
   O  -0.3441789   0.0982594  -0.5025080 SPIN=   0.00000
   O  -0.0809378  -0.1656241  -0.5982912 SPIN=   0.00000
   O  -0.1481436  -0.0969237  -0.3575668 SPIN=   0.00000
   S  -0.1137581  -0.0144066  -0.4814599 SPIN=   0.00000
   F   0.3474996   0.0515163   0.2981392 SPIN=   0.00000
   F  -0.3474996  -0.4484837   0.2981392 SPIN=   0.00000
   F  -0.1494839   0.0020524   0.0032161 SPIN=   0.00000
   F   0.1494839  -0.4979476   0.0032161 SPIN=   0.00000
%ENDBLOCK POSITIONS_FRAC

# Note: total spin =  16.00

KPOINTS_MP_SPACING 0.07

%BLOCK SPECIES_POT
QC5
%ENDBLOCK SPECIES_POT

SNAP_TO_SYMMETRY
SYMMETRY_GENERATE

