#              Generated by Buildcell
#
# at 11:21:13 (GMT+1.0) 18th August 2020
# in /scratch/scratch/uccabz1/launch_tmp
# on node-k10g-006
# by uccabz1
#
# compiler GCC version 4.9.2
# options -cpp -iprefix /scratch/UCL/applications/gcc/4.9.2/bin/../lib/gcc/x86_64-unknown-linux-gnu/4.9.2/ -mtune=corei7 -march=x86-64 -g -O2
#
# seed   -53857732 -1147738621 -1038343991 -1012218918  1490602093  -123653030  1335683541   985461785  1858941429   274613412 -2022443298   735066542
#
#      Author: C. J. Pickard (cjp20@cam.ac.uk)
#                Space group: Pnc2
#

%BLOCK LATTICE_ABC
      7.20056      7.44303      7.46353
     90.00000     90.00000     90.00000
%ENDBLOCK LATTICE_ABC

%BLOCK POSITIONS_FRAC
  Li  -0.2471885  -0.0755265   0.1691277 SPIN=   0.00000
  Li   0.2471885   0.0755265   0.1691277 SPIN=   0.00000
  Li  -0.2528115  -0.0755265  -0.3308723 SPIN=   0.00000
  Li   0.2528115   0.0755265  -0.3308723 SPIN=   0.00000
  Fe  -0.2650849  -0.4109549  -0.0919007 SPIN=   4.00000
  Fe   0.2650849   0.4109549  -0.0919007 SPIN=   4.00000
  Fe  -0.2349151  -0.4109549   0.4080993 SPIN=   4.00000
  Fe   0.2349151   0.4109549   0.4080993 SPIN=   4.00000
   O   0.1077117  -0.2451634  -0.0716573 SPIN=   0.00000
   O   0.2357211  -0.3806571   0.2048311 SPIN=   0.00000
   O  -0.1027551  -0.3304410   0.1763215 SPIN=   0.00000
   S   0.0875890  -0.2569093   0.1301329 SPIN=   0.00000
   O  -0.1077117   0.2451634  -0.0716573 SPIN=   0.00000
   O  -0.2357211   0.3806571   0.2048311 SPIN=   0.00000
   O   0.1027551   0.3304410   0.1763215 SPIN=   0.00000
   S  -0.0875890   0.2569093   0.1301329 SPIN=   0.00000
   O   0.3922883  -0.2451634  -0.5716573 SPIN=   0.00000
   O   0.2642789  -0.3806571  -0.2951689 SPIN=   0.00000
   O   0.6027551  -0.3304410  -0.3236785 SPIN=   0.00000
   S   0.4124110  -0.2569093  -0.3698671 SPIN=   0.00000
   O  -0.3922883   0.2451634  -0.5716573 SPIN=   0.00000
   O  -0.2642789   0.3806571  -0.2951689 SPIN=   0.00000
   O  -0.6027551   0.3304410  -0.3236785 SPIN=   0.00000
   S  -0.4124110   0.2569093  -0.3698671 SPIN=   0.00000
   O   0.5000000  -0.0000000  -0.1626350 SPIN=   0.00000
   O  -0.0000000   0.0000000   0.3373650 SPIN=   0.00000
   O   0.5000000   0.0000000   0.2854301 SPIN=   0.00000
   O   0.0000000   0.0000000  -0.2145699 SPIN=   0.00000
   F  -0.0662709  -0.2682707  -0.4277831 SPIN=   0.00000
   F   0.0662709   0.2682707  -0.4277831 SPIN=   0.00000
   F  -0.4337291  -0.2682707   0.0722169 SPIN=   0.00000
   F   0.4337291   0.2682707   0.0722169 SPIN=   0.00000
%ENDBLOCK POSITIONS_FRAC

# Note: total spin =  16.00

KPOINTS_MP_SPACING 0.07

%BLOCK SPECIES_POT
QC5
%ENDBLOCK SPECIES_POT

SNAP_TO_SYMMETRY
SYMMETRY_GENERATE

