#              Generated by Buildcell
#
# at 02:48:10 (GMT+1.0) 18th August 2020
# in /lustre/scratch/uccabz1/launch_tmp
# on node-c12m-003
# by uccabz1
#
# compiler GCC version 4.9.2
# options -cpp -iprefix /lustre/shared/ucl/apps/gcc/4.9.2/bin/../lib/gcc/x86_64-unknown-linux-gnu/4.9.2/ -mtune=corei7 -march=x86-64 -g -Og
#
# seed  -334414880   139539744 -2087293493   663402448  -572527808 -1194867435   838066872  -436278030   -87101071 -1871365005   139873645 -1361377857
#
#      Author: C. J. Pickard (cjp20@cam.ac.uk)
#                Space group: Iba2
#

%BLOCK LATTICE_ABC
      6.96046      7.98842      8.93404
    116.55637    112.92635     90.00000
%ENDBLOCK LATTICE_ABC

%BLOCK POSITIONS_FRAC
  Li   0.1977720  -0.4240671  -0.1125605 SPIN=   0.00000
  Li  -0.1977720  -0.3115066   0.1125605 SPIN=   0.00000
  Li   0.3103325   0.1884934   0.1125605 SPIN=   0.00000
  Li  -0.3103325   0.0759329  -0.1125605 SPIN=   0.00000
  Fe   0.1699158   0.0107948   0.2938092 SPIN=   4.00000
  Fe  -0.1699158  -0.2830145  -0.2938092 SPIN=   4.00000
  Fe  -0.1238934   0.2169855   0.7061908 SPIN=   4.00000
  Fe   0.1238934  -0.4892052  -0.7061908 SPIN=   4.00000
   O   0.3992448   0.4696641   0.7615852 SPIN=   0.00000
   O   0.5271245   0.1682322   0.7088784 SPIN=   0.00000
   O   0.1412028   0.1585070   0.5577956 SPIN=   0.00000
   O   0.3249852   0.2815164   0.8975939 SPIN=   0.00000
   S   0.3481393   0.2694799   0.7314633 SPIN=   0.00000
   O  -0.3992448  -0.2919211  -0.7615852 SPIN=   0.00000
   O  -0.5271245  -0.5406462  -0.7088784 SPIN=   0.00000
   O  -0.1412028  -0.3992886  -0.5577956 SPIN=   0.00000
   O  -0.3249852  -0.6160775  -0.8975939 SPIN=   0.00000
   S  -0.3481393  -0.4619834  -0.7314633 SPIN=   0.00000
   O  -0.3623405   0.2080789   0.2384148 SPIN=   0.00000
   O  -0.1817539  -0.0406462   0.2911216 SPIN=   0.00000
   O  -0.4165928   0.1007114   0.4422044 SPIN=   0.00000
   O  -0.5726087  -0.1160775   0.1024061 SPIN=   0.00000
   S  -0.3833240   0.0380166   0.2685367 SPIN=   0.00000
   O   0.3623405  -0.0303359  -0.2384148 SPIN=   0.00000
   O   0.1817539  -0.3317678  -0.2911216 SPIN=   0.00000
   O   0.4165928  -0.3414930  -0.4422044 SPIN=   0.00000
   O   0.5726087  -0.2184836  -0.1024061 SPIN=   0.00000
   S   0.3833240  -0.2305201  -0.2685367 SPIN=   0.00000
   F  -0.0873292  -0.0124195  -0.2820835 SPIN=   0.00000
   F   0.0873292   0.2696640   0.2820835 SPIN=   0.00000
   F   0.1947543  -0.2303360  -0.7179165 SPIN=   0.00000
   F  -0.1947543   0.4875805   0.7179165 SPIN=   0.00000
%ENDBLOCK POSITIONS_FRAC

# Note: total spin =  16.00

KPOINTS_MP_SPACING 0.07

%BLOCK SPECIES_POT
QC5
%ENDBLOCK SPECIES_POT

SNAP_TO_SYMMETRY
SYMMETRY_GENERATE

