#              Generated by Buildcell
#
# at 06:27:31 (GMT+1.0) 4th August 2020
# in /lustre/scratch/uccabz1/launch_tmp
# on node-c12d-006
# by uccabz1
#
# compiler GCC version 4.9.2
# options -cpp -iprefix /lustre/shared/ucl/apps/gcc/4.9.2/bin/../lib/gcc/x86_64-unknown-linux-gnu/4.9.2/ -mtune=corei7 -march=x86-64 -g -Og
#
# seed -1381327280  -654778087 -1829468132  1658242222   -88993752 -2136248576   480279271 -1711942683  -505424582  -531400816   535352404   670763035
#
#      Author: C. J. Pickard (cjp20@cam.ac.uk)
#                Space group: Cc
#

%BLOCK LATTICE_ABC
      6.17023      6.17023     11.40610
     93.47335     93.47335    112.09004
%ENDBLOCK LATTICE_ABC

%BLOCK POSITIONS_FRAC
  Li  -0.2185755  -0.4720889   0.3252223 SPIN=   0.00000
  Li   0.0279111   0.2814245  -0.1747777 SPIN=   0.00000
  Li  -0.4292222   0.1388658  -0.4274771 SPIN=   0.00000
  Li  -0.3611342   0.0707778   0.0725229 SPIN=   0.00000
  Fe  -0.4128220  -0.4067716  -0.0492159 SPIN=   4.56596
  Fe   0.0932284   0.0871780   0.4507841 SPIN=   4.56596
  Fe   0.1825452   0.1184903   0.1371358 SPIN=   3.43404
  Fe  -0.3815097  -0.3174548  -0.3628642 SPIN=   3.43404
   O   0.6564005   0.1905610  -0.2187757 SPIN=   0.00000
   O   0.3622969   0.0807790  -0.0722563 SPIN=   0.00000
   O   0.2974346  -0.1707804  -0.2587756 SPIN=   0.00000
   O   0.2703035   0.2190772  -0.2610226 SPIN=   0.00000
   S   0.3966089   0.0799092  -0.2027076 SPIN=   0.00000
   O  -0.3094390   0.1564005   0.2812243 SPIN=   0.00000
   O  -0.4192210  -0.1377031   0.4277437 SPIN=   0.00000
   O  -0.6707804  -0.2025654   0.2412244 SPIN=   0.00000
   O  -0.2809228  -0.2296965   0.2389774 SPIN=   0.00000
   S  -0.4200908  -0.1033911   0.2972924 SPIN=   0.00000
   O  -0.0550977  -0.3496374  -0.3561868 SPIN=   0.00000
   O   0.2554074  -0.4964831  -0.4013016 SPIN=   0.00000
   O   0.1980574  -0.1911864  -0.5158696 SPIN=   0.00000
   O  -0.0977493  -0.5983083  -0.5414526 SPIN=   0.00000
   S   0.0751545  -0.4089038  -0.4537026 SPIN=   0.00000
   O   0.1503626  -0.5550977   0.1438132 SPIN=   0.00000
   O   0.0035169  -0.2445926   0.0986984 SPIN=   0.00000
   O   0.3088136  -0.3019426  -0.0158696 SPIN=   0.00000
   O  -0.0983083  -0.5977493  -0.0414526 SPIN=   0.00000
   S   0.0910962  -0.4248455   0.0462974 SPIN=   0.00000
   F  -0.1340020   0.0212216  -0.3768497 SPIN=   0.00000
   F  -0.4787784   0.3659980   0.1231503 SPIN=   0.00000
   F   0.4678884   0.3193067   0.4673871 SPIN=   0.00000
   F  -0.1806933  -0.0321116  -0.0326129 SPIN=   0.00000
%ENDBLOCK POSITIONS_FRAC

# Note: total spin =  16.00

KPOINTS_MP_SPACING 0.07

%BLOCK SPECIES_POT
QC5
%ENDBLOCK SPECIES_POT

SNAP_TO_SYMMETRY
SYMMETRY_GENERATE

