#              Generated by Buildcell
#
# at 23:42:49 (GMT+1.0) 17th August 2020
# in /lustre/scratch/uccabz1/launch_tmp
# on node-c12l-029
# by uccabz1
#
# compiler GCC version 4.9.2
# options -cpp -iprefix /lustre/shared/ucl/apps/gcc/4.9.2/bin/../lib/gcc/x86_64-unknown-linux-gnu/4.9.2/ -mtune=corei7 -march=x86-64 -g -Og
#
# seed  -666094484 -1344284398  1293679509   609181002  1813015672   175080306  1284257567 -1489334894  1233378388 -1496851577  1064737306   263404953
#
#      Author: C. J. Pickard (cjp20@cam.ac.uk)
#                Space group: P21
#

%BLOCK LATTICE_ABC
      6.47169      7.45194      8.33998
     90.00000     90.00000     96.00754
%ENDBLOCK LATTICE_ABC

%BLOCK POSITIONS_FRAC
  Li   0.0429446  -0.4316973   0.4096435 SPIN=   0.00000
  Li  -0.0429446   0.4316973  -0.0903565 SPIN=   0.00000
  Li  -0.2385632  -0.1266470  -0.3020635 SPIN=   0.00000
  Li   0.2385632   0.1266470   0.1979365 SPIN=   0.00000
  Fe  -0.2149826   0.2721760  -0.4051872 SPIN=   6.26605
  Fe   0.2149826  -0.2721760   0.0948128 SPIN=   6.26605
  Fe  -0.2989842   0.1597580   0.1214627 SPIN=   1.73395
  Fe   0.2989842  -0.1597580  -0.3785373 SPIN=   1.73395
   O  -0.0709344  -0.1103101   0.2238352 SPIN=   0.00000
   O  -0.2665943   0.0468347   0.4258985 SPIN=   0.00000
   O   0.1074933   0.0188837   0.4665470 SPIN=   0.00000
   O  -0.1488848  -0.2506723   0.4889001 SPIN=   0.00000
   S  -0.0947300  -0.0738160   0.4012952 SPIN=   0.00000
   O   0.0709344   0.1103101  -0.2761648 SPIN=   0.00000
   O   0.2665943  -0.0468347  -0.0741015 SPIN=   0.00000
   O  -0.1074933  -0.0188837  -0.0334530 SPIN=   0.00000
   O   0.1488848   0.2506723  -0.0110999 SPIN=   0.00000
   S   0.0947300   0.0738160  -0.0987048 SPIN=   0.00000
   O  -0.4710789  -0.4975016   0.0255713 SPIN=   0.00000
   O  -0.4314394  -0.1705991  -0.0350520 SPIN=   0.00000
   O  -0.3190100  -0.3877754  -0.2331643 SPIN=   0.00000
   O  -0.1208545  -0.3287805   0.0184974 SPIN=   0.00000
   S  -0.3355957  -0.3461642  -0.0560369 SPIN=   0.00000
   O   0.4710789   0.4975016   0.5255713 SPIN=   0.00000
   O   0.4314394   0.1705991   0.4649480 SPIN=   0.00000
   O   0.3190100   0.3877754   0.2668357 SPIN=   0.00000
   O   0.1208545   0.3287805   0.5184974 SPIN=   0.00000
   S   0.3355957   0.3461642   0.4439631 SPIN=   0.00000
   F   0.1545301  -0.3846710  -0.2456592 SPIN=   0.00000
   F  -0.1545301   0.3846710   0.2543408 SPIN=   0.00000
   F   0.3885534  -0.2125383   0.2823131 SPIN=   0.00000
   F  -0.3885534   0.2125383  -0.2176869 SPIN=   0.00000
%ENDBLOCK POSITIONS_FRAC

# Note: total spin =  16.00

KPOINTS_MP_SPACING 0.07

%BLOCK SPECIES_POT
QC5
%ENDBLOCK SPECIES_POT

SNAP_TO_SYMMETRY
SYMMETRY_GENERATE

