#              Generated by Buildcell
#
# at 08:30:39 (GMT+1.0) 4th August 2020
# in /lustre/scratch/uccabz1/launch_tmp
# on node-c12f-015
# by uccabz1
#
# compiler GCC version 4.9.2
# options -cpp -iprefix /lustre/shared/ucl/apps/gcc/4.9.2/bin/../lib/gcc/x86_64-unknown-linux-gnu/4.9.2/ -mtune=corei7 -march=x86-64 -g -Og
#
# seed  1139442281  -290610597 -1473478215 -2104140722 -1628952120   296435750  1663284021 -1839055044  1738386982  1023337482 -1845670660 -1071186436
#
#      Author: C. J. Pickard (cjp20@cam.ac.uk)
#                Space group: Cc
#

%BLOCK LATTICE_ABC
      7.42694      7.42694      8.04596
     73.78208     73.78208     74.19725
%ENDBLOCK LATTICE_ABC

%BLOCK POSITIONS_FRAC
  Li   0.1998400   0.3384113  -0.4210635 SPIN=   0.00000
  Li   0.3384113   0.1998400   0.0789365 SPIN=   0.00000
  Li   0.0855507  -0.1432833  -0.2900327 SPIN=   0.00000
  Li  -0.1432833   0.0855507   0.2099673 SPIN=   0.00000
  Fe  -0.0214502   0.3964541   0.2983880 SPIN=   3.37146
  Fe   0.3964541  -0.0214502  -0.2016120 SPIN=   3.37146
  Fe   0.3559457  -0.1810754   0.3402742 SPIN=   4.62854
  Fe  -0.1810754   0.3559457  -0.1597258 SPIN=   4.62854
   O  -0.3883707  -0.0491462   0.1534516 SPIN=   0.00000
   O  -0.0709321  -0.0034426  -0.0350702 SPIN=   0.00000
   O  -0.3341922   0.0088913  -0.1731684 SPIN=   0.00000
   O  -0.1800553  -0.3001009  -0.0039569 SPIN=   0.00000
   S  -0.2433876  -0.0859496  -0.0146860 SPIN=   0.00000
   O  -0.0491462  -0.3883707   0.6534516 SPIN=   0.00000
   O  -0.0034426  -0.0709321   0.4649298 SPIN=   0.00000
   O   0.0088913  -0.3341922   0.3268316 SPIN=   0.00000
   O  -0.3001009  -0.1800553   0.4960431 SPIN=   0.00000
   S  -0.0859496  -0.2433876   0.4853140 SPIN=   0.00000
   O   0.3515005  -0.4135403  -0.4289822 SPIN=   0.00000
   O   0.3665893  -0.7105944  -0.1932033 SPIN=   0.00000
   O   0.1933963  -0.3986770  -0.1171355 SPIN=   0.00000
   O   0.5477157  -0.4693188  -0.2091646 SPIN=   0.00000
   S   0.3648004  -0.4980326  -0.2371214 SPIN=   0.00000
   O  -0.4135403   0.3515005   0.0710178 SPIN=   0.00000
   O  -0.7105944   0.3665893   0.3067967 SPIN=   0.00000
   O  -0.3986770   0.1933963   0.3828645 SPIN=   0.00000
   O  -0.4693188   0.5477157   0.2908354 SPIN=   0.00000
   S  -0.4980326   0.3648004   0.2628786 SPIN=   0.00000
   F   0.3182173  -0.1889368   0.0291251 SPIN=   0.00000
   F  -0.1889368   0.3182173  -0.4708749 SPIN=   0.00000
   F   0.3276012  -0.0371964  -0.4918584 SPIN=   0.00000
   F  -0.0371964   0.3276012   0.0081416 SPIN=   0.00000
%ENDBLOCK POSITIONS_FRAC

# Note: total spin =  16.00

KPOINTS_MP_SPACING 0.07

%BLOCK SPECIES_POT
QC5
%ENDBLOCK SPECIES_POT

SNAP_TO_SYMMETRY
SYMMETRY_GENERATE

