#              Generated by Buildcell
#
# at 10:04:29 (GMT+1.0) 4th August 2020
# in /lustre/scratch/uccabz1/launch_tmp
# on node-c12p-030
# by uccabz1
#
# compiler GCC version 4.9.2
# options -cpp -iprefix /lustre/shared/ucl/apps/gcc/4.9.2/bin/../lib/gcc/x86_64-unknown-linux-gnu/4.9.2/ -mtune=corei7 -march=x86-64 -g -Og
#
# seed  -461061458  -104766040   555599013  1798590906 -1344161904 -1573731600 -1879679169   799894978 -1671898918 -2067155376  1308706419  1461000029
#
#      Author: C. J. Pickard (cjp20@cam.ac.uk)
#                Space group: Pba2
#

%BLOCK LATTICE_ABC
      3.82622      8.85346     11.80802
     90.00000     90.00000     90.00000
%ENDBLOCK LATTICE_ABC

%BLOCK POSITIONS_FRAC
  Li  -0.1822831  -0.4217642   0.2763447 SPIN=   0.00000
  Li  -0.1822831   0.4217642  -0.2763447 SPIN=   0.00000
  Li  -0.1822831  -0.0782358  -0.2236553 SPIN=   0.00000
  Li  -0.1822831   0.0782358   0.2236553 SPIN=   0.00000
  Fe   0.3116923   0.1582719  -0.3272375 SPIN=   4.00000
  Fe   0.3116923  -0.1582719   0.3272375 SPIN=   4.00000
  Fe   0.3116923   0.3417281   0.1727625 SPIN=   4.00000
  Fe   0.3116923  -0.3417281  -0.1727625 SPIN=   4.00000
   O  -0.4834261   0.2114362   0.3261409 SPIN=   0.00000
   O  -0.4936573   0.2614633   0.5323231 SPIN=   0.00000
   O  -0.4541393   0.4742193   0.3969786 SPIN=   0.00000
   O   0.0499886   0.3025584   0.4230204 SPIN=   0.00000
   S  -0.3453085   0.3124193   0.4196158 SPIN=   0.00000
   O  -0.4834261  -0.2114362  -0.3261409 SPIN=   0.00000
   O  -0.4936573  -0.2614633  -0.5323231 SPIN=   0.00000
   O  -0.4541393  -0.4742193  -0.3969786 SPIN=   0.00000
   O   0.0499886  -0.3025584  -0.4230204 SPIN=   0.00000
   S  -0.3453085  -0.3124193  -0.4196158 SPIN=   0.00000
   O  -0.4834261   0.2885638  -0.1738591 SPIN=   0.00000
   O  -0.4936573   0.2385367   0.0323231 SPIN=   0.00000
   O  -0.4541393   0.0257807  -0.1030214 SPIN=   0.00000
   O   0.0499886   0.1974416  -0.0769796 SPIN=   0.00000
   S  -0.3453085   0.1875807  -0.0803842 SPIN=   0.00000
   O  -0.4834261  -0.2885638   0.1738591 SPIN=   0.00000
   O  -0.4936573  -0.2385367  -0.0323231 SPIN=   0.00000
   O  -0.4541393  -0.0257807   0.1030214 SPIN=   0.00000
   O   0.0499886  -0.1974416   0.0769796 SPIN=   0.00000
   S  -0.3453085  -0.1875807   0.0803842 SPIN=   0.00000
   F  -0.1117761   0.4352692   0.1444950 SPIN=   0.00000
   F  -0.1117761  -0.4352692  -0.1444950 SPIN=   0.00000
   F  -0.1117761   0.0647308  -0.3555050 SPIN=   0.00000
   F  -0.1117761  -0.0647308   0.3555050 SPIN=   0.00000
%ENDBLOCK POSITIONS_FRAC

# Note: total spin =  16.00

KPOINTS_MP_SPACING 0.07

%BLOCK SPECIES_POT
QC5
%ENDBLOCK SPECIES_POT

SNAP_TO_SYMMETRY
SYMMETRY_GENERATE

