#              Generated by Buildcell
#
# at 05:22:29 (GMT+1.0) 18th August 2020
# in /scratch/scratch/uccabz1/launch_tmp
# on node-k10h-033
# by uccabz1
#
# compiler GCC version 4.9.2
# options -cpp -iprefix /scratch/UCL/applications/gcc/4.9.2/bin/../lib/gcc/x86_64-unknown-linux-gnu/4.9.2/ -mtune=corei7 -march=x86-64 -g -O2
#
# seed  1810223572   614534257  1968281064  1000159140  1260907313  1447210339  1348117627   863037093 -1527189871   504469553 -1853543749  -959475313
#
#      Author: C. J. Pickard (cjp20@cam.ac.uk)
#                Space group: C2
#

%BLOCK LATTICE_ABC
      7.20103      8.42046      8.42046
    101.51296    112.33296    112.33296
%ENDBLOCK LATTICE_ABC

%BLOCK POSITIONS_FRAC
  Li  -0.2826977   0.4273120   0.2046445 SPIN=   0.00000
  Li   0.2826977  -0.2046445  -0.4273120 SPIN=   0.00000
  Li   0.2116242  -0.0323725  -0.0423851 SPIN=   0.00000
  Li  -0.2116242   0.0423851   0.0323725 SPIN=   0.00000
  Fe   0.4727221   0.2173993   0.4162065 SPIN=   3.36482
  Fe  -0.4727221  -0.4162065  -0.2173993 SPIN=   3.36482
  Fe  -0.1880057  -0.1682628   0.2921926 SPIN=   4.63518
  Fe   0.1880057  -0.2921926   0.1682628 SPIN=   4.63518
   O   0.1346277   0.4338270   0.3297508 SPIN=   0.00000
   O   0.1901071   0.3525693   0.6046979 SPIN=   0.00000
   O   0.0614125   0.1148556   0.3018562 SPIN=   0.00000
   O  -0.2060692   0.2166544   0.3374091 SPIN=   0.00000
   S   0.0450195   0.2794765   0.3934285 SPIN=   0.00000
   O  -0.1346277  -0.3297508  -0.4338270 SPIN=   0.00000
   O  -0.1901071  -0.6046979  -0.3525693 SPIN=   0.00000
   O  -0.0614125  -0.3018562  -0.1148556 SPIN=   0.00000
   O   0.2060692  -0.3374091  -0.2166544 SPIN=   0.00000
   S  -0.0450195  -0.3934285  -0.2794765 SPIN=   0.00000
   O  -0.4480699  -0.2309291  -0.3638698 SPIN=   0.00000
   O  -0.3161783   0.1056768  -0.2901807 SPIN=   0.00000
   O  -0.3485967  -0.0900980  -0.5718972 SPIN=   0.00000
   O  -0.0383881  -0.0079252  -0.2557946 SPIN=   0.00000
   S  -0.2878082  -0.0558189  -0.3704356 SPIN=   0.00000
   O   0.4480699   0.3638698   0.2309291 SPIN=   0.00000
   O   0.3161783   0.2901807  -0.1056768 SPIN=   0.00000
   O   0.3485967   0.5718972   0.0900980 SPIN=   0.00000
   O   0.0383881   0.2557946   0.0079252 SPIN=   0.00000
   S   0.2878082   0.3704356   0.0558189 SPIN=   0.00000
   F   0.2202903  -0.0120202  -0.3993102 SPIN=   0.00000
   F  -0.2202903   0.3993102   0.0120202 SPIN=   0.00000
   F  -0.3540925  -0.2071900   0.0058272 SPIN=   0.00000
   F   0.3540925  -0.0058272   0.2071900 SPIN=   0.00000
%ENDBLOCK POSITIONS_FRAC

# Note: total spin =  16.00

KPOINTS_MP_SPACING 0.07

%BLOCK SPECIES_POT
QC5
%ENDBLOCK SPECIES_POT

SNAP_TO_SYMMETRY
SYMMETRY_GENERATE

