#              Generated by Buildcell
#
# at 07:03:42 (GMT+1.0) 4th August 2020
# in /lustre/scratch/uccabz1/launch_tmp
# on node-c12p-017
# by uccabz1
#
# compiler GCC version 4.9.2
# options -cpp -iprefix /lustre/shared/ucl/apps/gcc/4.9.2/bin/../lib/gcc/x86_64-unknown-linux-gnu/4.9.2/ -mtune=corei7 -march=x86-64 -g -Og
#
# seed   258646393  -695849253 -1460175271  1239363053 -2046279514   218943372  1671596806   724925708 -1674871125 -1424996744   229735585 -1635675934
#
#      Author: C. J. Pickard (cjp20@cam.ac.uk)
#                Space group: Iba2
#

%BLOCK LATTICE_ABC
      7.66036      8.22810      8.47759
    119.03119    116.85929     90.00000
%ENDBLOCK LATTICE_ABC

%BLOCK POSITIONS_FRAC
  Li   0.1777937   0.4855352  -0.3616573 SPIN=   0.00000
  Li   0.4605491   0.1528075  -0.3616573 SPIN=   0.00000
  Li  -0.0394509  -0.0144648  -0.3616573 SPIN=   0.00000
  Li  -0.3222063  -0.3471925  -0.3616573 SPIN=   0.00000
  Fe  -0.3854210  -0.3543483  -0.0541337 SPIN=   4.00000
  Fe   0.3312872   0.3002146  -0.0541337 SPIN=   4.00000
  Fe  -0.1687128   0.1456517  -0.0541337 SPIN=   4.00000
  Fe   0.1145790  -0.1997854  -0.0541337 SPIN=   4.00000
   O   0.1670581   0.0596036   0.5806167 SPIN=   0.00000
   O   0.0162077  -0.0228782   0.2149998 SPIN=   0.00000
   O  -0.1041754  -0.2469293   0.2839937 SPIN=   0.00000
   O   0.2400948  -0.2063238   0.3323407 SPIN=   0.00000
   S   0.0797963  -0.1041320   0.3529877 SPIN=   0.00000
   O   0.4135586   0.5210131   0.5806167 SPIN=   0.00000
   O   0.1987922   0.2378780   0.2149998 SPIN=   0.00000
   O   0.3881691   0.5309230   0.2839937 SPIN=   0.00000
   O   0.0922459   0.5386645   0.3323407 SPIN=   0.00000
   S   0.2731914   0.4571197   0.3529877 SPIN=   0.00000
   O  -0.0864414   0.5596036   0.5806167 SPIN=   0.00000
   O  -0.3012078   0.4771218   0.2149998 SPIN=   0.00000
   O  -0.1118309   0.2530707   0.2839937 SPIN=   0.00000
   O  -0.4077541   0.2936762   0.3323407 SPIN=   0.00000
   S  -0.2268086   0.3958680   0.3529877 SPIN=   0.00000
   O  -0.3329419   0.0210131   0.5806167 SPIN=   0.00000
   O  -0.4837923  -0.2621220   0.2149998 SPIN=   0.00000
   O  -0.6041754   0.0309230   0.2839937 SPIN=   0.00000
   O  -0.2599052   0.0386645   0.3323407 SPIN=   0.00000
   S  -0.4202037  -0.0428803   0.3529877 SPIN=   0.00000
   F   0.1859261  -0.0187050  -0.1476365 SPIN=   0.00000
   F  -0.3335627  -0.1289316  -0.1476365 SPIN=   0.00000
   F   0.1664373   0.4812950  -0.1476365 SPIN=   0.00000
   F  -0.3140739   0.3710684  -0.1476365 SPIN=   0.00000
%ENDBLOCK POSITIONS_FRAC

# Note: total spin =  16.00

KPOINTS_MP_SPACING 0.07

%BLOCK SPECIES_POT
QC5
%ENDBLOCK SPECIES_POT

SNAP_TO_SYMMETRY
SYMMETRY_GENERATE

