#              Generated by Buildcell
#
# at 01:26:17 (GMT+1.0) 18th August 2020
# in /lustre/scratch/uccabz1/launch_tmp
# on node-c12m-003
# by uccabz1
#
# compiler GCC version 4.9.2
# options -cpp -iprefix /lustre/shared/ucl/apps/gcc/4.9.2/bin/../lib/gcc/x86_64-unknown-linux-gnu/4.9.2/ -mtune=corei7 -march=x86-64 -g -Og
#
# seed   162651117    77929239 -1890633087  1981784474  1808378587  2147366611 -2065432501   681907122  1129378011  1253047284  -784750511   509952932
#
#      Author: C. J. Pickard (cjp20@cam.ac.uk)
#                Space group: Cc
#

%BLOCK LATTICE_ABC
      6.54190      6.54190      9.84600
     94.27636     94.27636    106.90142
%ENDBLOCK LATTICE_ABC

%BLOCK POSITIONS_FRAC
  Li   0.4418088  -0.3827135   0.2704351 SPIN=   0.00000
  Li  -0.3827135   0.4418088  -0.2295649 SPIN=   0.00000
  Li   0.1842461  -0.3069257  -0.2837972 SPIN=   0.00000
  Li  -0.3069257   0.1842461   0.2162028 SPIN=   0.00000
  Fe  -0.0920566  -0.4506502   0.0460765 SPIN=   4.72476
  Fe  -0.4506502  -0.0920566  -0.4539235 SPIN=   4.72476
  Fe   0.0616577   0.4267496   0.4352090 SPIN=   3.27524
  Fe   0.4267496   0.0616577  -0.0647910 SPIN=   3.27524
   O   0.0476122  -0.0610142   0.0411577 SPIN=   0.00000
   O  -0.2047494  -0.2053883  -0.1671860 SPIN=   0.00000
   O   0.0695623   0.1486088  -0.1592243 SPIN=   0.00000
   O  -0.2373527   0.1049734  -0.0200804 SPIN=   0.00000
   S  -0.0812319  -0.0032051  -0.0763333 SPIN=   0.00000
   O  -0.0610142   0.0476122   0.5411577 SPIN=   0.00000
   O  -0.2053883  -0.2047494   0.3328140 SPIN=   0.00000
   O   0.1486088   0.0695623   0.3407757 SPIN=   0.00000
   O   0.1049734  -0.2373527   0.4799196 SPIN=   0.00000
   S  -0.0032051  -0.0812319   0.4236667 SPIN=   0.00000
   O  -0.4801397   0.3471867   0.3269138 SPIN=   0.00000
   O  -0.3367893   0.6185196   0.5263854 SPIN=   0.00000
   O  -0.3155007   0.2483716   0.5369089 SPIN=   0.00000
   O  -0.6671518   0.3190201   0.5372895 SPIN=   0.00000
   S  -0.4498954   0.3832745   0.4818744 SPIN=   0.00000
   O   0.3471867  -0.4801397  -0.1730862 SPIN=   0.00000
   O   0.6185196  -0.3367893   0.0263854 SPIN=   0.00000
   O   0.2483716  -0.3155007   0.0369089 SPIN=   0.00000
   O   0.3190201  -0.6671518   0.0372895 SPIN=   0.00000
   S   0.3832745  -0.4498954  -0.0181256 SPIN=   0.00000
   F  -0.0177200   0.3552480   0.2053906 SPIN=   0.00000
   F   0.3552480  -0.0177200  -0.2946094 SPIN=   0.00000
   F   0.4429873  -0.0885442   0.2627713 SPIN=   0.00000
   F  -0.0885442   0.4429873  -0.2372287 SPIN=   0.00000
%ENDBLOCK POSITIONS_FRAC

# Note: total spin =  16.00

KPOINTS_MP_SPACING 0.07

%BLOCK SPECIES_POT
QC5
%ENDBLOCK SPECIES_POT

SNAP_TO_SYMMETRY
SYMMETRY_GENERATE

