#              Generated by Buildcell
#
# at 07:29:06 (GMT+1.0) 4th August 2020
# in /lustre/scratch/uccabz1/launch_tmp
# on node-y12q-003
# by uccabz1
#
# compiler GCC version 4.9.2
# options -cpp -iprefix /lustre/shared/ucl/apps/gcc/4.9.2/bin/../lib/gcc/x86_64-unknown-linux-gnu/4.9.2/ -mtune=corei7 -march=x86-64 -g -Og
#
# seed  -830814415 -1996415994  1815460976   179978717  1600473252  1795655316  1768035744   975936543 -1586466353  1408466374   585914154  -955481734
#
#      Author: C. J. Pickard (cjp20@cam.ac.uk)
#                Space group: P2
#

%BLOCK LATTICE_ABC
      5.99654      8.09310      8.24389
     91.15468     90.00000     90.00000
%ENDBLOCK LATTICE_ABC

%BLOCK POSITIONS_FRAC
  Li  -0.2250286  -0.2104810   0.2405796 SPIN=   0.00000
  Li  -0.2250286   0.2104810  -0.2405796 SPIN=   0.00000
  Li  -0.2200940   0.3269817   0.3234373 SPIN=   0.00000
  Li  -0.2200940  -0.3269817  -0.3234373 SPIN=   0.00000
  Fe   0.2808365  -0.4143418  -0.2975218 SPIN=   4.64955
  Fe   0.2808365   0.4143418   0.2975218 SPIN=   4.64955
  Fe  -0.1406488   0.5000000  -0.0000000 SPIN=   1.44391
  Fe  -0.4831011  -0.0000000   0.5000000 SPIN=   5.25698
   O   0.4187059   0.1063641  -0.1595222 SPIN=   0.00000
   O   0.1818550   0.3368533  -0.0587136 SPIN=   0.00000
   O   0.5714100   0.3902538  -0.1418280 SPIN=   0.00000
   O   0.4946507   0.2369580   0.1088481 SPIN=   0.00000
   S   0.4166554   0.2676073  -0.0628039 SPIN=   0.00000
   O   0.4187059  -0.1063641   0.1595222 SPIN=   0.00000
   O   0.1818550  -0.3368533   0.0587136 SPIN=   0.00000
   O   0.5714100  -0.3902538   0.1418280 SPIN=   0.00000
   O   0.4946507  -0.2369580  -0.1088481 SPIN=   0.00000
   S   0.4166554  -0.2676073   0.0628039 SPIN=   0.00000
   O   0.2185922  -0.0429458  -0.3610584 SPIN=   0.00000
   O   0.0220144   0.0748441  -0.1214263 SPIN=   0.00000
   O   0.0212447  -0.2274570  -0.1730818 SPIN=   0.00000
   O  -0.1939149  -0.0438638  -0.3515452 SPIN=   0.00000
   S   0.0169841  -0.0598556  -0.2517779 SPIN=   0.00000
   O   0.2185922   0.0429458   0.3610584 SPIN=   0.00000
   O   0.0220144  -0.0748441   0.1214263 SPIN=   0.00000
   O   0.0212447   0.2274570   0.1730818 SPIN=   0.00000
   O  -0.1939149   0.0438638   0.3515452 SPIN=   0.00000
   S   0.0169841   0.0598556   0.2517779 SPIN=   0.00000
   F   0.4875909   0.2573625   0.4786664 SPIN=   0.00000
   F   0.4875909  -0.2573625  -0.4786664 SPIN=   0.00000
   F  -0.0588814   0.4800000  -0.2637703 SPIN=   0.00000
   F  -0.0588814  -0.4800000   0.2637703 SPIN=   0.00000
%ENDBLOCK POSITIONS_FRAC

# Note: total spin =  16.00

KPOINTS_MP_SPACING 0.07

%BLOCK SPECIES_POT
QC5
%ENDBLOCK SPECIES_POT

SNAP_TO_SYMMETRY
SYMMETRY_GENERATE

