#              Generated by Buildcell
#
# at 16:22:41 (GMT+1.0) 18th August 2020
# in /lustre/scratch/uccabz1/launch_tmp
# on node-c12o-008
# by uccabz1
#
# compiler GCC version 4.9.2
# options -cpp -iprefix /lustre/shared/ucl/apps/gcc/4.9.2/bin/../lib/gcc/x86_64-unknown-linux-gnu/4.9.2/ -mtune=corei7 -march=x86-64 -g -Og
#
# seed   986587391  -341835737   166818080  1525114946 -1637895546 -1422570894  1891428208  -424190697 -1135127753  -193947486  1030015865   344882970
#
#      Author: C. J. Pickard (cjp20@cam.ac.uk)
#                Space group: P43
#

%BLOCK LATTICE_ABC
      7.14726      7.14726      7.83035
     90.00000     90.00000     90.00000
%ENDBLOCK LATTICE_ABC

%BLOCK POSITIONS_FRAC
  Li   0.2827339  -0.0894878  -0.3707372 SPIN=   0.00000
  Li  -0.2827339   0.0894878   0.1292628 SPIN=   0.00000
  Li   0.0894878   0.2827339   0.3792628 SPIN=   0.00000
  Li  -0.0894878  -0.2827339  -0.1207372 SPIN=   0.00000
  Fe  -0.2041706  -0.4447029   0.2301379 SPIN=   4.00000
  Fe   0.2041706   0.4447029  -0.2698621 SPIN=   4.00000
  Fe   0.4447029  -0.2041706  -0.0198621 SPIN=   4.00000
  Fe  -0.4447029   0.2041706   0.4801379 SPIN=   4.00000
   O  -0.1761741  -0.3878859  -0.4534119 SPIN=   0.00000
   O  -0.1677321  -0.0857666  -0.2991713 SPIN=   0.00000
   O  -0.4713808  -0.2376348  -0.3613183 SPIN=   0.00000
   O  -0.2856286  -0.0989525  -0.5961054 SPIN=   0.00000
   S  -0.2752289  -0.2025599  -0.4275017 SPIN=   0.00000
   O   0.1761741   0.3878859   0.0465881 SPIN=   0.00000
   O   0.1677321   0.0857666   0.2008287 SPIN=   0.00000
   O   0.4713808   0.2376348   0.1386817 SPIN=   0.00000
   O   0.2856286   0.0989525  -0.0961054 SPIN=   0.00000
   S   0.2752289   0.2025599   0.0724983 SPIN=   0.00000
   O   0.3878859  -0.1761741   0.2965881 SPIN=   0.00000
   O   0.0857666  -0.1677321   0.4508287 SPIN=   0.00000
   O   0.2376348  -0.4713808   0.3886817 SPIN=   0.00000
   O   0.0989525  -0.2856286   0.1538946 SPIN=   0.00000
   S   0.2025599  -0.2752289   0.3224983 SPIN=   0.00000
   O  -0.3878859   0.1761741  -0.2034119 SPIN=   0.00000
   O  -0.0857666   0.1677321  -0.0491713 SPIN=   0.00000
   O  -0.2376348   0.4713808  -0.1113183 SPIN=   0.00000
   O  -0.0989525   0.2856286  -0.3461054 SPIN=   0.00000
   S  -0.2025599   0.2752289  -0.1775017 SPIN=   0.00000
   F   0.2639804   0.1719128  -0.4524796 SPIN=   0.00000
   F  -0.2639804  -0.1719128   0.0475204 SPIN=   0.00000
   F  -0.1719128   0.2639804   0.2975204 SPIN=   0.00000
   F   0.1719128  -0.2639804  -0.2024796 SPIN=   0.00000
%ENDBLOCK POSITIONS_FRAC

# Note: total spin =  16.00

KPOINTS_MP_SPACING 0.07

%BLOCK SPECIES_POT
QC5
%ENDBLOCK SPECIES_POT

SNAP_TO_SYMMETRY
SYMMETRY_GENERATE

