#              Generated by Buildcell
#
# at 03:06:58 (GMT+1.0) 18th August 2020
# in /lustre/scratch/uccabz1/launch_tmp
# on node-c12h-021
# by uccabz1
#
# compiler GCC version 4.9.2
# options -cpp -iprefix /lustre/shared/ucl/apps/gcc/4.9.2/bin/../lib/gcc/x86_64-unknown-linux-gnu/4.9.2/ -mtune=corei7 -march=x86-64 -g -Og
#
# seed   -63176245  -381402533  -872700006 -1336464016  1264482211  -835487549  -139239027   245076710   258457054  1385172050 -1406785323   203631868
#
#      Author: C. J. Pickard (cjp20@cam.ac.uk)
#                Space group: P212121
#

%BLOCK LATTICE_ABC
      4.46226      9.23016      9.71171
     90.00000     90.00000     90.00000
%ENDBLOCK LATTICE_ABC

%BLOCK POSITIONS_FRAC
  Li  -0.1038018  -0.3865533  -0.0792155 SPIN=   0.00000
  Li   0.3961982  -0.1134467   0.0792155 SPIN=   0.00000
  Li  -0.3961982   0.3865533   0.4207845 SPIN=   0.00000
  Li   0.1038018   0.1134467  -0.4207845 SPIN=   0.00000
  Fe  -0.0657121   0.0244529  -0.1222665 SPIN=   4.00000
  Fe   0.4342879   0.4755471   0.1222665 SPIN=   4.00000
  Fe  -0.4342879  -0.0244529   0.3777335 SPIN=   4.00000
  Fe   0.0657121  -0.4755471  -0.3777335 SPIN=   4.00000
   O  -0.4553938   0.2112123  -0.4548372 SPIN=   0.00000
   O  -0.6071345   0.1896984  -0.2105804 SPIN=   0.00000
   O  -0.4481840   0.4271271  -0.3037784 SPIN=   0.00000
   O  -0.0751020   0.2318650  -0.2703832 SPIN=   0.00000
   S  -0.3964536   0.2649757  -0.3098948 SPIN=   0.00000
   O   0.0446062   0.2887877   0.4548372 SPIN=   0.00000
   O  -0.1071345   0.3103016   0.2105804 SPIN=   0.00000
   O   0.0518160   0.0728729   0.3037784 SPIN=   0.00000
   O   0.4248980   0.2681350   0.2703832 SPIN=   0.00000
   S   0.1035464   0.2350243   0.3098948 SPIN=   0.00000
   O  -0.0446062  -0.2112123   0.0451628 SPIN=   0.00000
   O   0.1071345  -0.1896984   0.2894196 SPIN=   0.00000
   O  -0.0518160  -0.4271271   0.1962216 SPIN=   0.00000
   O  -0.4248980  -0.2318650   0.2296168 SPIN=   0.00000
   S  -0.1035464  -0.2649757   0.1901052 SPIN=   0.00000
   O   0.4553938  -0.2887877  -0.0451628 SPIN=   0.00000
   O   0.6071345  -0.3103016  -0.2894196 SPIN=   0.00000
   O   0.4481840  -0.0728729  -0.1962216 SPIN=   0.00000
   O   0.0751020  -0.2681350  -0.2296168 SPIN=   0.00000
   S   0.3964536  -0.2350243  -0.1901052 SPIN=   0.00000
   F  -0.1037423  -0.0804021  -0.4647335 SPIN=   0.00000
   F   0.3962577  -0.4195979   0.4647335 SPIN=   0.00000
   F  -0.3962577   0.0804021   0.0352665 SPIN=   0.00000
   F   0.1037423   0.4195979  -0.0352665 SPIN=   0.00000
%ENDBLOCK POSITIONS_FRAC

# Note: total spin =  16.00

KPOINTS_MP_SPACING 0.07

%BLOCK SPECIES_POT
QC5
%ENDBLOCK SPECIES_POT

SNAP_TO_SYMMETRY
SYMMETRY_GENERATE

