#              Generated by Buildcell
#
# at 08:13:41 (GMT+1.0) 4th August 2020
# in /lustre/scratch/uccabz1/launch_tmp
# on node-c12p-030
# by uccabz1
#
# compiler GCC version 4.9.2
# options -cpp -iprefix /lustre/shared/ucl/apps/gcc/4.9.2/bin/../lib/gcc/x86_64-unknown-linux-gnu/4.9.2/ -mtune=corei7 -march=x86-64 -g -Og
#
# seed -1558997949  -833999060 -1997949460 -2000046957 -1224312798 -1154342898   155369819  -972301126 -1024906101  -483645164  -690089812  1081217223
#
#      Author: C. J. Pickard (cjp20@cam.ac.uk)
#                Space group: C2
#

%BLOCK LATTICE_ABC
      6.49963      6.49963     10.26482
     98.07664     98.07664    108.17876
%ENDBLOCK LATTICE_ABC

%BLOCK POSITIONS_FRAC
  Li  -0.3803607  -0.2141622   0.4261779 SPIN=   0.00000
  Li   0.2141622   0.3803607  -0.4261779 SPIN=   0.00000
  Li  -0.1636789   0.1010260  -0.2096044 SPIN=   0.00000
  Li  -0.1010260   0.1636789   0.2096044 SPIN=   0.00000
  Fe  -0.0407211  -0.3393419   0.2783771 SPIN=   1.95228
  Fe   0.3393419   0.0407211  -0.2783771 SPIN=   1.95228
  Fe   0.3735370   0.4154252   0.1798326 SPIN=   6.04772
  Fe  -0.4154252  -0.3735370  -0.1798326 SPIN=   6.04772
   O  -0.3918275   0.2070717   0.1486752 SPIN=   0.00000
   O  -0.3285991   0.0197835  -0.0614175 SPIN=   0.00000
   O  -0.7051668   0.0143952  -0.0412948 SPIN=   0.00000
   O  -0.5292331  -0.2011045   0.0879575 SPIN=   0.00000
   S  -0.4887066   0.0100365   0.0334801 SPIN=   0.00000
   O  -0.2070717   0.3918275  -0.1486752 SPIN=   0.00000
   O  -0.0197835   0.3285991   0.0614175 SPIN=   0.00000
   O  -0.0143952   0.7051668   0.0412948 SPIN=   0.00000
   O   0.2011045   0.5292331  -0.0879575 SPIN=   0.00000
   S  -0.0100365   0.4887066  -0.0334801 SPIN=   0.00000
   O   0.2091615   0.0955437   0.4636628 SPIN=   0.00000
   O   0.3360302  -0.0967182   0.2823792 SPIN=   0.00000
   O   0.5856545   0.0738098   0.5028809 SPIN=   0.00000
   O   0.4931808   0.3102074   0.3513948 SPIN=   0.00000
   S   0.4060067   0.0957107   0.4000794 SPIN=   0.00000
   O  -0.0955437  -0.2091615  -0.4636628 SPIN=   0.00000
   O   0.0967182  -0.3360302  -0.2823792 SPIN=   0.00000
   O  -0.0738098  -0.5856545  -0.5028809 SPIN=   0.00000
   O  -0.3102074  -0.4931808  -0.3513948 SPIN=   0.00000
   S  -0.0957107  -0.4060067  -0.4000794 SPIN=   0.00000
   F  -0.4957514  -0.1882824  -0.3232175 SPIN=   0.00000
   F   0.1882824   0.4957514   0.3232175 SPIN=   0.00000
   F   0.0867698   0.1839648  -0.3055957 SPIN=   0.00000
   F  -0.1839648  -0.0867698   0.3055957 SPIN=   0.00000
%ENDBLOCK POSITIONS_FRAC

# Note: total spin =  16.00

KPOINTS_MP_SPACING 0.07

%BLOCK SPECIES_POT
QC5
%ENDBLOCK SPECIES_POT

SNAP_TO_SYMMETRY
SYMMETRY_GENERATE

