#              Generated by Buildcell
#
# at 05:51:08 (GMT+1.0) 18th August 2020
# in /scratch/scratch/uccabz1/launch_tmp
# on node-k10h-033
# by uccabz1
#
# compiler GCC version 4.9.2
# options -cpp -iprefix /scratch/UCL/applications/gcc/4.9.2/bin/../lib/gcc/x86_64-unknown-linux-gnu/4.9.2/ -mtune=corei7 -march=x86-64 -g -O2
#
# seed   658955329    -3936528  1102016775  1127769131  -421751871 -1507676907  -124794053   433785517   314014738   440946989   609000232  -756494642
#
#      Author: C. J. Pickard (cjp20@cam.ac.uk)
#                Space group: Cc
#

%BLOCK LATTICE_ABC
      7.00771      7.54999      8.61868
     64.02356     84.50126     77.36289
%ENDBLOCK LATTICE_ABC

%BLOCK POSITIONS_FRAC
  Li   0.0899747  -0.2770088  -0.2678828 SPIN=   0.00000
  Li  -0.4100253   0.4551084   0.2678828 SPIN=   0.00000
  Li   0.2848725   0.0758846   0.2104199 SPIN=   0.00000
  Li  -0.2151275   0.2863045  -0.2104199 SPIN=   0.00000
  Fe   0.2067242   0.2520404  -0.3332324 SPIN=   2.28587
  Fe  -0.2932758  -0.0811920   0.3332324 SPIN=   2.28587
  Fe   0.0787834  -0.3092149   0.0967297 SPIN=   5.71413
  Fe  -0.4212166  -0.2124852  -0.0967297 SPIN=   5.71413
   O   0.0059394   0.1843704  -0.4647542 SPIN=   0.00000
   O  -0.3535658   0.2173041  -0.4596972 SPIN=   0.00000
   O  -0.1576641  -0.0231588  -0.2001509 SPIN=   0.00000
   O  -0.1378460  -0.0904342  -0.4582439 SPIN=   0.00000
   S  -0.1607841   0.0720204  -0.3957116 SPIN=   0.00000
   O   0.5059394  -0.2803839   0.4647542 SPIN=   0.00000
   O   0.1464342  -0.2423931   0.4596972 SPIN=   0.00000
   O   0.3423359  -0.2233097   0.2001509 SPIN=   0.00000
   O   0.3621540  -0.5486781   0.4582439 SPIN=   0.00000
   S   0.3392159  -0.3236912   0.3957116 SPIN=   0.00000
   O   0.3318674   0.5595156  -0.0081992 SPIN=   0.00000
   O   0.4950882   0.2216270   0.0187682 SPIN=   0.00000
   O   0.5416896   0.5241650  -0.2448882 SPIN=   0.00000
   O   0.2217852   0.4188569  -0.1872084 SPIN=   0.00000
   S   0.3976076   0.4310411  -0.1053819 SPIN=   0.00000
   O  -0.1681326   0.5513164   0.0081992 SPIN=   0.00000
   O  -0.0049118   0.2403951  -0.0187682 SPIN=   0.00000
   O   0.0416896   0.2792767   0.2448882 SPIN=   0.00000
   O  -0.2782148   0.2316485   0.1872084 SPIN=   0.00000
   S  -0.1023924   0.3256592   0.1053819 SPIN=   0.00000
   F   0.3999345   0.1589102   0.3643995 SPIN=   0.00000
   F  -0.1000655  -0.4766903  -0.3643995 SPIN=   0.00000
   F   0.2606555  -0.0285126  -0.1300152 SPIN=   0.00000
   F  -0.2393445  -0.1585278   0.1300152 SPIN=   0.00000
%ENDBLOCK POSITIONS_FRAC

# Note: total spin =  16.00

KPOINTS_MP_SPACING 0.07

%BLOCK SPECIES_POT
QC5
%ENDBLOCK SPECIES_POT

SNAP_TO_SYMMETRY
SYMMETRY_GENERATE

