#              Generated by Buildcell
#
# at 01:27:48 (GMT+1.0) 18th August 2020
# in /lustre/scratch/uccabz1/launch_tmp
# on node-c12i-003
# by uccabz1
#
# compiler GCC version 4.9.2
# options -cpp -iprefix /lustre/shared/ucl/apps/gcc/4.9.2/bin/../lib/gcc/x86_64-unknown-linux-gnu/4.9.2/ -mtune=corei7 -march=x86-64 -g -Og
#
# seed   983075757  -468635495  1772043708  1829155161   309308705  1970387115  -461218640  1232049991  1459808438  1169305032  1656389487  1258839381
#
#      Author: C. J. Pickard (cjp20@cam.ac.uk)
#                Space group: Pnc2
#

%BLOCK LATTICE_ABC
      4.83774      8.84679      9.34613
     90.00000     90.00000     90.00000
%ENDBLOCK LATTICE_ABC

%BLOCK POSITIONS_FRAC
  Li   0.2495420  -0.2336905   0.3471733 SPIN=   0.00000
  Li  -0.2495420  -0.2336905  -0.3471733 SPIN=   0.00000
  Li   0.2504580   0.2663095   0.3471733 SPIN=   0.00000
  Li  -0.2504580   0.2663095  -0.3471733 SPIN=   0.00000
  Fe  -0.2490296   0.2679699   0.1458569 SPIN=   4.00000
  Fe   0.2490296   0.2679699  -0.1458569 SPIN=   4.00000
  Fe  -0.2509704  -0.2320301   0.1458569 SPIN=   4.00000
  Fe   0.2509704  -0.2320301  -0.1458569 SPIN=   4.00000
   O   0.0658432   0.0182120  -0.1455392 SPIN=   0.00000
   O  -0.3664082  -0.1237543  -0.1008024 SPIN=   0.00000
   O  -0.3038568   0.0148245  -0.3285410 SPIN=   0.00000
   O  -0.3716164   0.1559728  -0.1026228 SPIN=   0.00000
   S  -0.2440096   0.0163137  -0.1693764 SPIN=   0.00000
   O  -0.0658432   0.0182120   0.1455392 SPIN=   0.00000
   O   0.3664082  -0.1237543   0.1008024 SPIN=   0.00000
   O   0.3038568   0.0148245   0.3285410 SPIN=   0.00000
   O   0.3716164   0.1559728   0.1026228 SPIN=   0.00000
   S   0.2440096   0.0163137   0.1693764 SPIN=   0.00000
   O  -0.5658432  -0.4817880  -0.1455392 SPIN=   0.00000
   O  -0.1335918  -0.6237543  -0.1008024 SPIN=   0.00000
   O  -0.1961432  -0.4851755  -0.3285410 SPIN=   0.00000
   O  -0.1283836  -0.3440272  -0.1026228 SPIN=   0.00000
   S  -0.2559904  -0.4836863  -0.1693764 SPIN=   0.00000
   O   0.5658432  -0.4817880   0.1455392 SPIN=   0.00000
   O   0.1335918  -0.6237543   0.1008024 SPIN=   0.00000
   O   0.1961432  -0.4851755   0.3285410 SPIN=   0.00000
   O   0.1283836  -0.3440272   0.1026228 SPIN=   0.00000
   S   0.2559904  -0.4836863   0.1693764 SPIN=   0.00000
   F   0.2520503   0.2232995  -0.3462475 SPIN=   0.00000
   F  -0.2520503   0.2232995   0.3462475 SPIN=   0.00000
   F   0.2479497  -0.2767005  -0.3462475 SPIN=   0.00000
   F  -0.2479497  -0.2767005   0.3462475 SPIN=   0.00000
%ENDBLOCK POSITIONS_FRAC

# Note: total spin =  16.00

KPOINTS_MP_SPACING 0.07

%BLOCK SPECIES_POT
QC5
%ENDBLOCK SPECIES_POT

SNAP_TO_SYMMETRY
SYMMETRY_GENERATE

