#              Generated by Buildcell
#
# at 11:53:50 (GMT+1.0) 18th August 2020
# in /scratch/scratch/uccabz1/launch_tmp
# on node-k10g-031
# by uccabz1
#
# compiler GCC version 4.9.2
# options -cpp -iprefix /scratch/UCL/applications/gcc/4.9.2/bin/../lib/gcc/x86_64-unknown-linux-gnu/4.9.2/ -mtune=corei7 -march=x86-64 -g -O2
#
# seed -1390033881 -1037292750 -1562405149   127654708   894744850  -835176383   777149462  -141828352  1457089696  1151927593  -523636610  -891709914
#
#      Author: C. J. Pickard (cjp20@cam.ac.uk)
#                Space group: P21
#

%BLOCK LATTICE_ABC
      5.95218      6.71111     10.53740
    108.14176     90.00000     90.00000
%ENDBLOCK LATTICE_ABC

%BLOCK POSITIONS_FRAC
  Li   0.2223080   0.1694115   0.0610766 SPIN=   0.00000
  Li  -0.2776920  -0.1694115  -0.0610766 SPIN=   0.00000
  Li   0.2502512   0.3700725  -0.4823417 SPIN=   0.00000
  Li  -0.2497488  -0.3700725   0.4823417 SPIN=   0.00000
  Fe   0.0296601  -0.3775148   0.1153238 SPIN=   4.50089
  Fe  -0.4703399   0.3775148  -0.1153238 SPIN=   4.50089
  Fe  -0.4793767  -0.0314019   0.3985784 SPIN=   3.49911
  Fe   0.0206233   0.0314019  -0.3985784 SPIN=   3.49911
   O  -0.1299374  -0.6575540  -0.2878546 SPIN=   0.00000
   O   0.2606857  -0.5246867  -0.2646120 SPIN=   0.00000
   O  -0.0113468  -0.3847805  -0.0807256 SPIN=   0.00000
   O  -0.0512995  -0.2969939  -0.2909783 SPIN=   0.00000
   S   0.0170255  -0.4660038  -0.2310426 SPIN=   0.00000
   O  -0.6299374   0.6575540   0.2878546 SPIN=   0.00000
   O  -0.2393143   0.5246867   0.2646120 SPIN=   0.00000
   O  -0.5113468   0.3847805   0.0807256 SPIN=   0.00000
   O  -0.5512995   0.2969939   0.2909783 SPIN=   0.00000
   S  -0.4829745   0.4660038   0.2310426 SPIN=   0.00000
   O   0.0692697   0.3308737   0.2807430 SPIN=   0.00000
   O   0.0919216  -0.0506725   0.1641703 SPIN=   0.00000
   O  -0.2348132   0.0961412   0.3081935 SPIN=   0.00000
   O   0.1381997   0.0851207   0.4095573 SPIN=   0.00000
   S   0.0161444   0.1153658   0.2906660 SPIN=   0.00000
   O  -0.4307303  -0.3308737  -0.2807430 SPIN=   0.00000
   O  -0.4080784   0.0506725  -0.1641703 SPIN=   0.00000
   O  -0.7348132  -0.0961412  -0.3081935 SPIN=   0.00000
   O  -0.3618003  -0.0851207  -0.4095573 SPIN=   0.00000
   S  -0.4838556  -0.1153658  -0.2906660 SPIN=   0.00000
   F  -0.4961977  -0.1172356   0.0658992 SPIN=   0.00000
   F   0.0038023   0.1172356  -0.0658992 SPIN=   0.00000
   F  -0.4606433   0.2960911  -0.4625946 SPIN=   0.00000
   F   0.0393567  -0.2960911   0.4625946 SPIN=   0.00000
%ENDBLOCK POSITIONS_FRAC

# Note: total spin =  16.00

KPOINTS_MP_SPACING 0.07

%BLOCK SPECIES_POT
QC5
%ENDBLOCK SPECIES_POT

SNAP_TO_SYMMETRY
SYMMETRY_GENERATE

