#              Generated by Buildcell
#
# at 15:45:15 (GMT+1.0) 18th August 2020
# in /lustre/scratch/uccabz1/launch_tmp
# on node-c12j-002
# by uccabz1
#
# compiler GCC version 4.9.2
# options -cpp -iprefix /lustre/shared/ucl/apps/gcc/4.9.2/bin/../lib/gcc/x86_64-unknown-linux-gnu/4.9.2/ -mtune=corei7 -march=x86-64 -g -Og
#
# seed   935360603   582547290 -1941858559  -179258454   593177507 -1813454985  -411190604  1733022980 -1653341195  1682263576   190263174  1909339340
#
#      Author: C. J. Pickard (cjp20@cam.ac.uk)
#                Space group: P21
#

%BLOCK LATTICE_ABC
      4.75751      7.58584     11.17407
     90.00000     97.29962     90.00000
%ENDBLOCK LATTICE_ABC

%BLOCK POSITIONS_FRAC
  Li   0.4781261  -0.4940995   0.1823809 SPIN=   0.00000
  Li  -0.4781261   0.0059005  -0.1823809 SPIN=   0.00000
  Li  -0.2572886   0.0653909   0.3497861 SPIN=   0.00000
  Li   0.2572886  -0.4346091  -0.3497861 SPIN=   0.00000
  Fe  -0.2375692  -0.1413466  -0.4036956 SPIN=   3.07815
  Fe   0.2375692   0.3586534   0.4036956 SPIN=   3.07815
  Fe   0.1980326   0.3386127  -0.1269853 SPIN=   4.92185
  Fe  -0.1980326  -0.1613873   0.1269853 SPIN=   4.92185
   O  -0.4545046   0.2454142  -0.3285382 SPIN=   0.00000
   O   0.0650364   0.2898544  -0.3025993 SPIN=   0.00000
   O  -0.2451857   0.4829357  -0.4406643 SPIN=   0.00000
   O  -0.1775316   0.1707651  -0.4946765 SPIN=   0.00000
   S  -0.2030464   0.2972424  -0.3916196 SPIN=   0.00000
   O   0.4545046  -0.2545858   0.3285382 SPIN=   0.00000
   O  -0.0650364  -0.2101456   0.3025993 SPIN=   0.00000
   O   0.2451857  -0.0170643   0.4406643 SPIN=   0.00000
   O   0.1775316  -0.3292349   0.4946765 SPIN=   0.00000
   S   0.2030464  -0.2027576   0.3916196 SPIN=   0.00000
   O  -0.0019657   0.0738569   0.1249849 SPIN=   0.00000
   O   0.5015043   0.0269073   0.0990121 SPIN=   0.00000
   O   0.3769519   0.1867057   0.2780686 SPIN=   0.00000
   O   0.2936710   0.3259760   0.0763863 SPIN=   0.00000
   S   0.2925404   0.1533615   0.1446130 SPIN=   0.00000
   O   0.0019657  -0.4261431  -0.1249849 SPIN=   0.00000
   O  -0.5015043  -0.4730927  -0.0990121 SPIN=   0.00000
   O  -0.3769519  -0.3132943  -0.2780686 SPIN=   0.00000
   O  -0.2936710  -0.1740240  -0.0763863 SPIN=   0.00000
   S  -0.2925404  -0.3466385  -0.1446130 SPIN=   0.00000
   F  -0.1621078   0.4046581   0.3041905 SPIN=   0.00000
   F   0.1621078  -0.0953419  -0.3041905 SPIN=   0.00000
   F  -0.2760401   0.1952318  -0.0886900 SPIN=   0.00000
   F   0.2760401  -0.3047682   0.0886900 SPIN=   0.00000
%ENDBLOCK POSITIONS_FRAC

# Note: total spin =  16.00

KPOINTS_MP_SPACING 0.07

%BLOCK SPECIES_POT
QC5
%ENDBLOCK SPECIES_POT

SNAP_TO_SYMMETRY
SYMMETRY_GENERATE

