#              Generated by Buildcell
#
# at 06:48:03 (GMT+1.0) 4th August 2020
# in /lustre/scratch/uccabz1/launch_tmp
# on node-c12d-011
# by uccabz1
#
# compiler GCC version 4.9.2
# options -cpp -iprefix /lustre/shared/ucl/apps/gcc/4.9.2/bin/../lib/gcc/x86_64-unknown-linux-gnu/4.9.2/ -mtune=corei7 -march=x86-64 -g -Og
#
# seed  -391795153 -1782365544 -1264876922   207224978  -621998471   911180328   494390348  1683107044  -324941175  -626944968  1224067996  1735119271
#
#      Author: C. J. Pickard (cjp20@cam.ac.uk)
#                Space group: Pc
#

%BLOCK LATTICE_ABC
      5.82035      7.64708      9.06652
     90.00000     90.00000     97.59378
%ENDBLOCK LATTICE_ABC

%BLOCK POSITIONS_FRAC
  Li   0.4892186  -0.0706265  -0.1703600 SPIN=   0.00000
  Li  -0.0107814  -0.0706265   0.1703600 SPIN=   0.00000
  Li  -0.4479510   0.3901433   0.3907626 SPIN=   0.00000
  Li   0.0520490   0.3901433  -0.3907626 SPIN=   0.00000
  Fe  -0.1826906  -0.2454240  -0.3541789 SPIN=   3.58588
  Fe   0.3173094  -0.2454240   0.3541789 SPIN=   3.58588
  Fe   0.1256106   0.3410850   0.1433424 SPIN=   4.41412
  Fe  -0.3743894   0.3410850  -0.1433424 SPIN=   4.41412
   O  -0.1926098  -0.2602064   0.0380504 SPIN=   0.00000
   O  -0.5311499  -0.4168907   0.1699816 SPIN=   0.00000
   O  -0.1479179  -0.3684211   0.2923452 SPIN=   0.00000
   O  -0.2158673  -0.5806875   0.0858996 SPIN=   0.00000
   S  -0.2718862  -0.4065514   0.1465692 SPIN=   0.00000
   O   0.3073902  -0.2602064  -0.0380504 SPIN=   0.00000
   O  -0.0311499  -0.4168907  -0.1699816 SPIN=   0.00000
   O   0.3520821  -0.3684211  -0.2923452 SPIN=   0.00000
   O   0.2841327  -0.5806875  -0.0858996 SPIN=   0.00000
   S   0.2281138  -0.4065514  -0.1465692 SPIN=   0.00000
   O  -0.4066553   0.1191440  -0.0144898 SPIN=   0.00000
   O  -0.2245860   0.1748806   0.2306485 SPIN=   0.00000
   O  -0.4407681  -0.1179505   0.1731254 SPIN=   0.00000
   O  -0.6517122   0.1398842   0.2062586 SPIN=   0.00000
   S  -0.4309304   0.0789896   0.1488857 SPIN=   0.00000
   O   0.0933447   0.1191440   0.0144898 SPIN=   0.00000
   O   0.2754140   0.1748806  -0.2306485 SPIN=   0.00000
   O   0.0592319  -0.1179505  -0.1731254 SPIN=   0.00000
   O  -0.1517122   0.1398842  -0.2062586 SPIN=   0.00000
   S   0.0690696   0.0789896  -0.1488857 SPIN=   0.00000
   F  -0.3031905   0.4416889  -0.3860841 SPIN=   0.00000
   F   0.1968095   0.4416889   0.3860841 SPIN=   0.00000
   F  -0.4530434  -0.0533133  -0.3884896 SPIN=   0.00000
   F   0.0469566  -0.0533133   0.3884896 SPIN=   0.00000
%ENDBLOCK POSITIONS_FRAC

# Note: total spin =  16.00

KPOINTS_MP_SPACING 0.07

%BLOCK SPECIES_POT
QC5
%ENDBLOCK SPECIES_POT

SNAP_TO_SYMMETRY
SYMMETRY_GENERATE

