#              Generated by Buildcell
#
# at 17:21:22 (GMT+1.0) 18th August 2020
# in /lustre/scratch/uccabz1/launch_tmp
# on node-c12g-001
# by uccabz1
#
# compiler GCC version 4.9.2
# options -cpp -iprefix /lustre/shared/ucl/apps/gcc/4.9.2/bin/../lib/gcc/x86_64-unknown-linux-gnu/4.9.2/ -mtune=corei7 -march=x86-64 -g -Og
#
# seed  2118882325  -214538976  1979967357  1978636768  1526208638  -734828158  -834970673   307391062  -263529758 -1851407557 -1627953188 -1622341726
#
#      Author: C. J. Pickard (cjp20@cam.ac.uk)
#                Space group: C2
#

%BLOCK LATTICE_ABC
      7.28681      7.28681      9.43521
     68.48433     68.48433     62.05898
%ENDBLOCK LATTICE_ABC

%BLOCK POSITIONS_FRAC
  Li  -0.1275675  -0.2197692  -0.1584493 SPIN=   0.00000
  Li   0.2197692   0.1275675   0.1584493 SPIN=   0.00000
  Li  -0.5054341   0.3950763  -0.2161255 SPIN=   0.00000
  Li   0.6049237  -0.4945659   0.2161255 SPIN=   0.00000
  Fe  -0.1976041   0.1976041   0.0000000 SPIN=   1.85165
  Fe  -0.2077692   0.2077692  -0.5000000 SPIN=   8.92645
  Fe   0.2976518  -0.2976518   0.0000000 SPIN=   0.09254
  Fe   0.2865907  -0.2865907   0.5000000 SPIN=   5.12936
   O   0.5298220  -0.2579167  -0.3815757 SPIN=   0.00000
   O   0.7141939  -0.4189037  -0.1652564 SPIN=   0.00000
   O   0.8362211  -0.1771898  -0.4068535 SPIN=   0.00000
   O   0.8957919  -0.5377042  -0.4134559 SPIN=   0.00000
   S   0.7440072  -0.3479286  -0.3417854 SPIN=   0.00000
   O  -0.7420833   0.4701780   0.3815757 SPIN=   0.00000
   O  -0.5810963   0.2858061   0.1652564 SPIN=   0.00000
   O  -0.8228102   0.1637789   0.4068535 SPIN=   0.00000
   O  -0.4622958   0.1042081   0.4134559 SPIN=   0.00000
   S  -0.6520714   0.2559928   0.3417854 SPIN=   0.00000
   O  -0.0506534  -0.1188971   0.1389021 SPIN=   0.00000
   O  -0.3912141  -0.1552334   0.3032559 SPIN=   0.00000
   O  -0.0477361  -0.4645151   0.3227833 SPIN=   0.00000
   O  -0.1837615  -0.3368698   0.0848262 SPIN=   0.00000
   S  -0.1683413  -0.2688788   0.2124419 SPIN=   0.00000
   O   0.1188971   0.0506534  -0.1389021 SPIN=   0.00000
   O   0.1552334   0.3912141  -0.3032559 SPIN=   0.00000
   O   0.4645151   0.0477361  -0.3227833 SPIN=   0.00000
   O   0.3368698   0.1837615  -0.0848262 SPIN=   0.00000
   S   0.2688788   0.1683413  -0.2124419 SPIN=   0.00000
   F  -0.2273820   0.1141997  -0.2457538 SPIN=   0.00000
   F  -0.1141997   0.2273820   0.2457538 SPIN=   0.00000
   F   0.3665477  -0.1965922   0.1502164 SPIN=   0.00000
   F   0.1965922  -0.3665477  -0.1502164 SPIN=   0.00000
%ENDBLOCK POSITIONS_FRAC

# Note: total spin =  16.00

KPOINTS_MP_SPACING 0.07

%BLOCK SPECIES_POT
QC5
%ENDBLOCK SPECIES_POT

SNAP_TO_SYMMETRY
SYMMETRY_GENERATE

