#              Generated by Buildcell
#
# at 05:54:37 (GMT+1.0) 4th August 2020
# in /lustre/scratch/uccabz1/launch_tmp
# on node-c12m-015
# by uccabz1
#
# compiler GCC version 4.9.2
# options -cpp -iprefix /lustre/shared/ucl/apps/gcc/4.9.2/bin/../lib/gcc/x86_64-unknown-linux-gnu/4.9.2/ -mtune=corei7 -march=x86-64 -g -Og
#
# seed -1233825787    65590333  1990142125  1727725828  -441181647   592500591  2046918904  1460463002  1875778513  -140144625  -900864277 -1732464299
#
#      Author: C. J. Pickard (cjp20@cam.ac.uk)
#                Space group: Pca21
#

%BLOCK LATTICE_ABC
      6.21027      7.91432      8.13834
     90.00000     90.00000     90.00000
%ENDBLOCK LATTICE_ABC

%BLOCK POSITIONS_FRAC
  Li   0.3966989  -0.1206434  -0.3783674 SPIN=   0.00000
  Li  -0.3966989   0.1206434   0.1216326 SPIN=   0.00000
  Li  -0.1033011   0.1206434  -0.3783674 SPIN=   0.00000
  Li   0.1033011  -0.1206434   0.1216326 SPIN=   0.00000
  Fe  -0.2158710   0.3821368   0.3683400 SPIN=   4.00000
  Fe   0.2158710  -0.3821368  -0.1316600 SPIN=   4.00000
  Fe   0.2841290  -0.3821368   0.3683400 SPIN=   4.00000
  Fe  -0.2841290   0.3821368  -0.1316600 SPIN=   4.00000
   O  -0.1123482  -0.2603797  -0.0533177 SPIN=   0.00000
   O  -0.4799396  -0.2385523  -0.1688326 SPIN=   0.00000
   O  -0.1680199  -0.1326190  -0.3276092 SPIN=   0.00000
   O  -0.2880910   0.0191290  -0.0779998 SPIN=   0.00000
   S  -0.2620997  -0.1531055  -0.1569398 SPIN=   0.00000
   O   0.1123482   0.2603797   0.4466823 SPIN=   0.00000
   O   0.4799396   0.2385523   0.3311674 SPIN=   0.00000
   O   0.1680199   0.1326190   0.1723908 SPIN=   0.00000
   O   0.2880910  -0.0191290   0.4220002 SPIN=   0.00000
   S   0.2620997   0.1531055   0.3430602 SPIN=   0.00000
   O   0.3876518   0.2603797  -0.0533177 SPIN=   0.00000
   O   0.0200604   0.2385523  -0.1688326 SPIN=   0.00000
   O   0.3319801   0.1326190  -0.3276092 SPIN=   0.00000
   O   0.2119090  -0.0191290  -0.0779998 SPIN=   0.00000
   S   0.2379003   0.1531055  -0.1569398 SPIN=   0.00000
   O  -0.3876518  -0.2603797   0.4466823 SPIN=   0.00000
   O  -0.0200604  -0.2385523   0.3311674 SPIN=   0.00000
   O  -0.3319801  -0.1326190   0.1723908 SPIN=   0.00000
   O  -0.2119090   0.0191290   0.4220002 SPIN=   0.00000
   S  -0.2379003  -0.1531055   0.3430602 SPIN=   0.00000
   F  -0.1858624   0.3259969   0.1137199 SPIN=   0.00000
   F   0.1858624  -0.3259969  -0.3862801 SPIN=   0.00000
   F   0.3141376  -0.3259969   0.1137199 SPIN=   0.00000
   F  -0.3141376   0.3259969  -0.3862801 SPIN=   0.00000
%ENDBLOCK POSITIONS_FRAC

# Note: total spin =  16.00

KPOINTS_MP_SPACING 0.07

%BLOCK SPECIES_POT
QC5
%ENDBLOCK SPECIES_POT

SNAP_TO_SYMMETRY
SYMMETRY_GENERATE

