#              Generated by Buildcell
#
# at 11:41:13 (GMT+1.0) 18th August 2020
# in /lustre/scratch/uccabz1/launch_tmp
# on node-c12b-013
# by uccabz1
#
# compiler GCC version 4.9.2
# options -cpp -iprefix /lustre/shared/ucl/apps/gcc/4.9.2/bin/../lib/gcc/x86_64-unknown-linux-gnu/4.9.2/ -mtune=corei7 -march=x86-64 -g -Og
#
# seed   332318192   262010787 -2003834262  1868505888  1307213110  1129798098 -1963273364   694222750  -478227060 -1718355512  1562078295   569292513
#
#      Author: C. J. Pickard (cjp20@cam.ac.uk)
#                Space group: Cc
#

%BLOCK LATTICE_ABC
      6.59238      7.63055      9.03585
     84.57495     77.35765     64.40717
%ENDBLOCK LATTICE_ABC

%BLOCK POSITIONS_FRAC
  Li   0.0527492  -0.3600025  -0.2961729 SPIN=   0.00000
  Li  -0.3072532   0.3600025   0.2038271 SPIN=   0.00000
  Li   0.3600050  -0.0282516  -0.0058505 SPIN=   0.00000
  Li   0.3317534   0.0282516   0.4941495 SPIN=   0.00000
  Fe  -0.3161222  -0.1022870   0.2008437 SPIN=   3.34418
  Fe  -0.4184092   0.1022870  -0.2991563 SPIN=   3.34418
  Fe   0.4667225  -0.4128155   0.4811237 SPIN=   4.65582
  Fe   0.0539069   0.4128155  -0.0188763 SPIN=   4.65582
   O   0.1901702   0.1858207  -0.1932071 SPIN=   0.00000
   O   0.0062462  -0.0262307  -0.0673529 SPIN=   0.00000
   O   0.2461882  -0.1062559  -0.3252119 SPIN=   0.00000
   O  -0.1321471   0.1773783  -0.2857701 SPIN=   0.00000
   S   0.0776144   0.0576781  -0.2178855 SPIN=   0.00000
   O   0.3759909  -0.1858207   0.3067929 SPIN=   0.00000
   O  -0.0199845   0.0262307   0.4326471 SPIN=   0.00000
   O   0.1399323   0.1062559   0.1747881 SPIN=   0.00000
   O   0.0452313  -0.1773783   0.2142299 SPIN=   0.00000
   S   0.1352925  -0.0576781   0.2821145 SPIN=   0.00000
   O  -0.4931828  -0.2037829  -0.1785493 SPIN=   0.00000
   O  -0.3652266  -0.5036862  -0.0247008 SPIN=   0.00000
   O  -0.1920246  -0.5113948  -0.2976077 SPIN=   0.00000
   O  -0.5937013  -0.4708022  -0.2180151 SPIN=   0.00000
   S  -0.4110338  -0.4224165  -0.1797182 SPIN=   0.00000
   O   0.3030342   0.2037829   0.3214507 SPIN=   0.00000
   O   0.1310873   0.5036862   0.4752992 SPIN=   0.00000
   O   0.2965806   0.5113948   0.2023923 SPIN=   0.00000
   O  -0.0645035   0.4708022   0.2819849 SPIN=   0.00000
   S   0.1665496   0.4224165   0.3202818 SPIN=   0.00000
   F   0.4538185   0.1941598  -0.0293180 SPIN=   0.00000
   F  -0.3520217  -0.1941598   0.4706820 SPIN=   0.00000
   F  -0.4062385   0.3036561  -0.4695530 SPIN=   0.00000
   F  -0.1025824  -0.3036561   0.0304470 SPIN=   0.00000
%ENDBLOCK POSITIONS_FRAC

# Note: total spin =  16.00

KPOINTS_MP_SPACING 0.07

%BLOCK SPECIES_POT
QC5
%ENDBLOCK SPECIES_POT

SNAP_TO_SYMMETRY
SYMMETRY_GENERATE

