#              Generated by Buildcell
#
# at 10:14:52 (GMT+1.0) 4th August 2020
# in /lustre/scratch/uccabz1/launch_tmp
# on node-c12k-036
# by uccabz1
#
# compiler GCC version 4.9.2
# options -cpp -iprefix /lustre/shared/ucl/apps/gcc/4.9.2/bin/../lib/gcc/x86_64-unknown-linux-gnu/4.9.2/ -mtune=corei7 -march=x86-64 -g -Og
#
# seed  -309392543  -966868142  -964776278   202777298  1229843442   420630699   959653484  -349712364  -893180273  -134271075  -363510912  -530355249
#
#      Author: C. J. Pickard (cjp20@cam.ac.uk)
#                Space group: P2
#

%BLOCK LATTICE_ABC
      7.37010      7.49207      7.54859
     90.00000     90.00000    106.32877
%ENDBLOCK LATTICE_ABC

%BLOCK POSITIONS_FRAC
  Li   0.3109191   0.1097483   0.3514439 SPIN=   0.00000
  Li  -0.3109191  -0.1097483   0.3514439 SPIN=   0.00000
  Li   0.2664041  -0.4468433  -0.4863894 SPIN=   0.00000
  Li  -0.2664041   0.4468433  -0.4863894 SPIN=   0.00000
  Fe   0.0215475  -0.2507951   0.3385902 SPIN=   2.23931
  Fe  -0.0215475   0.2507951   0.3385902 SPIN=   2.23931
  Fe   0.1234107  -0.1818364  -0.1858751 SPIN=   5.76069
  Fe  -0.1234107   0.1818364  -0.1858751 SPIN=   5.76069
   O   0.3342778  -0.1094819   0.1930621 SPIN=   0.00000
   O   0.5992978  -0.1936856   0.0467947 SPIN=   0.00000
   O   0.2689520  -0.3681574  -0.0230778 SPIN=   0.00000
   O   0.4043486  -0.4042484   0.2702997 SPIN=   0.00000
   S   0.4017190  -0.2688933   0.1217697 SPIN=   0.00000
   O  -0.3342778   0.1094819   0.1930621 SPIN=   0.00000
   O  -0.5992978   0.1936856   0.0467947 SPIN=   0.00000
   O  -0.2689520   0.3681574  -0.0230778 SPIN=   0.00000
   O  -0.4043486   0.4042484   0.2702997 SPIN=   0.00000
   S  -0.4017190   0.2688933   0.1217697 SPIN=   0.00000
   O  -0.3661478  -0.0775626  -0.2464845 SPIN=   0.00000
   O  -0.4552291  -0.3417947  -0.4561884 SPIN=   0.00000
   O  -0.3290286  -0.3840339  -0.1601356 SPIN=   0.00000
   O  -0.1181224  -0.1941603  -0.3868408 SPIN=   0.00000
   S  -0.3171320  -0.2493879  -0.3124123 SPIN=   0.00000
   O   0.3661478   0.0775626  -0.2464845 SPIN=   0.00000
   O   0.4552291   0.3417947  -0.4561884 SPIN=   0.00000
   O   0.3290286   0.3840339  -0.1601356 SPIN=   0.00000
   O   0.1181224   0.1941603  -0.3868408 SPIN=   0.00000
   S   0.3171320   0.2493879  -0.3124123 SPIN=   0.00000
   F   0.2163506  -0.2279735  -0.4444152 SPIN=   0.00000
   F  -0.2163506   0.2279735  -0.4444152 SPIN=   0.00000
   F  -0.0845701  -0.2724085   0.1000053 SPIN=   0.00000
   F   0.0845701   0.2724085   0.1000053 SPIN=   0.00000
%ENDBLOCK POSITIONS_FRAC

# Note: total spin =  16.00

KPOINTS_MP_SPACING 0.07

%BLOCK SPECIES_POT
QC5
%ENDBLOCK SPECIES_POT

SNAP_TO_SYMMETRY
SYMMETRY_GENERATE

