#              Generated by Buildcell
#
# at 06:56:08 (GMT+1.0) 4th August 2020
# in /lustre/scratch/uccabz1/launch_tmp
# on node-c12c-007
# by uccabz1
#
# compiler GCC version 4.9.2
# options -cpp -iprefix /lustre/shared/ucl/apps/gcc/4.9.2/bin/../lib/gcc/x86_64-unknown-linux-gnu/4.9.2/ -mtune=corei7 -march=x86-64 -g -Og
#
# seed  -553805482   -49131491   881945572  -268089374  1872441145   474942864  1077693448  -948628229   -25836500   122424939 -1278908249  2081481526
#
#      Author: C. J. Pickard (cjp20@cam.ac.uk)
#                Space group: I-4
#

%BLOCK LATTICE_ABC
      8.17298      8.17298      8.17298
     94.62874    117.36456    117.36456
%ENDBLOCK LATTICE_ABC

%BLOCK POSITIONS_FRAC
  Li   0.2447075   0.0965746  -0.0779525 SPIN=   0.00000
  Li  -0.2447075  -0.3226601  -0.1481329 SPIN=   0.00000
  Li  -0.1745272   0.1481329  -0.0965746 SPIN=   0.00000
  Li   0.1745272   0.0779525   0.3226601 SPIN=   0.00000
  Fe  -0.4543068  -0.1930155   0.0041523 SPIN=   4.00000
  Fe   0.4543068   0.4584591   0.2612913 SPIN=   4.00000
  Fe   0.1971678  -0.2612913   0.1930155 SPIN=   4.00000
  Fe  -0.1971678  -0.0041523  -0.4584591 SPIN=   4.00000
   O  -0.9963981  -0.7662645  -0.5770533 SPIN=   0.00000
   O  -0.7223596  -0.4443698  -0.2941191 SPIN=   0.00000
   O  -0.6128887  -0.5563063  -0.4928771 SPIN=   0.00000
   O  -0.6820365  -0.7253643  -0.2715772 SPIN=   0.00000
   S  -0.7534207  -0.6230762  -0.4089067 SPIN=   0.00000
   O  -0.0036019  -0.5806552   0.2301337 SPIN=   0.00000
   O  -0.2776404  -0.5717595   0.2779898 SPIN=   0.00000
   O  -0.3871113  -0.8799885   0.0565824 SPIN=   0.00000
   O  -0.3179635  -0.5895407  -0.0433278 SPIN=   0.00000
   S  -0.2465793  -0.6554860   0.1303445 SPIN=   0.00000
   O  -0.8107889  -0.2301337  -0.2337355 SPIN=   0.00000
   O  -0.8497493  -0.2779898  -0.5556302 SPIN=   0.00000
   O  -0.9365708  -0.0565824  -0.4436937 SPIN=   0.00000
   O  -0.5462129   0.0433278  -0.2746357 SPIN=   0.00000
   S  -0.7858305  -0.1303445  -0.3769238 SPIN=   0.00000
   O  -0.1892111   0.5770533  -0.4193448 SPIN=   0.00000
   O  -0.1502507   0.2941191  -0.4282405 SPIN=   0.00000
   O  -0.0634292   0.4928771  -0.1200115 SPIN=   0.00000
   O  -0.4537871   0.2715772  -0.4104593 SPIN=   0.00000
   S  -0.2141695   0.4089067  -0.3445140 SPIN=   0.00000
   F  -0.2140023  -0.2143129   0.1372198 SPIN=   0.00000
   F   0.2140023   0.3512221  -0.0003106 SPIN=   0.00000
   F   0.3515326   0.0003106   0.2143129 SPIN=   0.00000
   F  -0.3515326  -0.1372198  -0.3512221 SPIN=   0.00000
%ENDBLOCK POSITIONS_FRAC

# Note: total spin =  16.00

KPOINTS_MP_SPACING 0.07

%BLOCK SPECIES_POT
QC5
%ENDBLOCK SPECIES_POT

SNAP_TO_SYMMETRY
SYMMETRY_GENERATE

