#              Generated by Buildcell
#
# at 06:37:55 (GMT+1.0) 4th August 2020
# in /lustre/scratch/uccabz1/launch_tmp
# on node-c12l-013
# by uccabz1
#
# compiler GCC version 4.9.2
# options -cpp -iprefix /lustre/shared/ucl/apps/gcc/4.9.2/bin/../lib/gcc/x86_64-unknown-linux-gnu/4.9.2/ -mtune=corei7 -march=x86-64 -g -Og
#
# seed  -931988029   -64460667   364900858 -1131269864  -527440015   239694274  -324455494  -370454198  -639763433 -1601328269 -1834260843    37176186
#
#      Author: C. J. Pickard (cjp20@cam.ac.uk)
#                Space group: P21212
#

%BLOCK LATTICE_ABC
      6.51795      6.97183      8.80242
     90.00000     90.00000     90.00000
%ENDBLOCK LATTICE_ABC

%BLOCK POSITIONS_FRAC
  Li  -0.0925035  -0.3838536  -0.1823158 SPIN=   0.00000
  Li  -0.0925035   0.3838536   0.1823158 SPIN=   0.00000
  Li   0.0925035  -0.1161464   0.3176842 SPIN=   0.00000
  Li   0.0925035   0.1161464  -0.3176842 SPIN=   0.00000
  Fe   0.4075749   0.4295577  -0.2018467 SPIN=   4.00000
  Fe   0.4075749  -0.4295577   0.2018467 SPIN=   4.00000
  Fe  -0.4075749   0.0704423   0.2981533 SPIN=   4.00000
  Fe  -0.4075749  -0.0704423  -0.2981533 SPIN=   4.00000
   O   0.2045621  -0.4660514  -0.3724330 SPIN=   0.00000
   O   0.3364758  -0.1629270  -0.4813732 SPIN=   0.00000
   O   0.1166181  -0.1558702  -0.2522108 SPIN=   0.00000
   O  -0.0326954  -0.2419338  -0.5015689 SPIN=   0.00000
   S   0.1562402  -0.2566956  -0.4018965 SPIN=   0.00000
   O   0.2045621   0.4660514   0.3724330 SPIN=   0.00000
   O   0.3364758   0.1629270   0.4813732 SPIN=   0.00000
   O   0.1166181   0.1558702   0.2522108 SPIN=   0.00000
   O  -0.0326954   0.2419338   0.5015689 SPIN=   0.00000
   S   0.1562402   0.2566956   0.4018965 SPIN=   0.00000
   O  -0.2045621  -0.0339486   0.1275670 SPIN=   0.00000
   O  -0.3364758  -0.3370730   0.0186268 SPIN=   0.00000
   O  -0.1166181  -0.3441298   0.2477892 SPIN=   0.00000
   O   0.0326954  -0.2580662  -0.0015689 SPIN=   0.00000
   S  -0.1562402  -0.2433044   0.0981035 SPIN=   0.00000
   O  -0.2045621   0.0339486  -0.1275670 SPIN=   0.00000
   O  -0.3364758   0.3370730  -0.0186268 SPIN=   0.00000
   O  -0.1166181   0.3441298  -0.2477892 SPIN=   0.00000
   O   0.0326954   0.2580662   0.0015689 SPIN=   0.00000
   S  -0.1562402   0.2433044  -0.0981035 SPIN=   0.00000
   F   0.3440826   0.1457778  -0.2042742 SPIN=   0.00000
   F   0.3440826  -0.1457778   0.2042742 SPIN=   0.00000
   F  -0.3440826   0.3542222   0.2957258 SPIN=   0.00000
   F  -0.3440826  -0.3542222  -0.2957258 SPIN=   0.00000
%ENDBLOCK POSITIONS_FRAC

# Note: total spin =  16.00

KPOINTS_MP_SPACING 0.07

%BLOCK SPECIES_POT
QC5
%ENDBLOCK SPECIES_POT

SNAP_TO_SYMMETRY
SYMMETRY_GENERATE

