#              Generated by Buildcell
#
# at 09:23:16 (GMT+1.0) 4th August 2020
# in /lustre/scratch/uccabz1/launch_tmp
# on node-c12f-035
# by uccabz1
#
# compiler GCC version 4.9.2
# options -cpp -iprefix /lustre/shared/ucl/apps/gcc/4.9.2/bin/../lib/gcc/x86_64-unknown-linux-gnu/4.9.2/ -mtune=corei7 -march=x86-64 -g -Og
#
# seed -1800148660  1891242285    66551595  -144428468  -967621888 -2137848978  1625124587 -1837815858   864039071  -172919656 -1838723957   773821946
#
#      Author: C. J. Pickard (cjp20@cam.ac.uk)
#                Space group: P21/c
#

%BLOCK LATTICE_ABC
      6.48364      6.99700      9.00847
     90.00000     90.00000    101.82911
%ENDBLOCK LATTICE_ABC

%BLOCK POSITIONS_FRAC
  Li  -0.1484276  -0.2703964   0.0212792 SPIN=   0.00000
  Li  -0.3515724  -0.2296036  -0.4787208 SPIN=   0.00000
  Li   0.1484276   0.2703964  -0.0212792 SPIN=   0.00000
  Li   0.3515724   0.2296036   0.4787208 SPIN=   0.00000
  Fe  -0.3979613  -0.0776235   0.2222459 SPIN=   4.00000
  Fe  -0.1020387  -0.4223765  -0.2777541 SPIN=   4.00000
  Fe   0.3979613   0.0776235  -0.2222459 SPIN=   4.00000
  Fe   0.1020387   0.4223765   0.2777541 SPIN=   4.00000
   O  -0.1058284   0.4703014   0.1079834 SPIN=   0.00000
   O  -0.4940602   0.3700227   0.0920070 SPIN=   0.00000
   O  -0.2712281   0.1263149   0.0535845 SPIN=   0.00000
   O  -0.2769380   0.3822738  -0.1350928 SPIN=   0.00000
   S  -0.2870137   0.3372282   0.0296205 SPIN=   0.00000
   O  -0.3941716   0.0296986  -0.3920166 SPIN=   0.00000
   O  -0.0059398   0.1299773  -0.4079930 SPIN=   0.00000
   O  -0.2287719   0.3736851  -0.4464155 SPIN=   0.00000
   O  -0.2230620   0.1177262  -0.6350928 SPIN=   0.00000
   S  -0.2129863   0.1627718  -0.4703795 SPIN=   0.00000
   O   0.1058284  -0.4703014  -0.1079834 SPIN=   0.00000
   O   0.4940602  -0.3700227  -0.0920070 SPIN=   0.00000
   O   0.2712281  -0.1263149  -0.0535845 SPIN=   0.00000
   O   0.2769380  -0.3822738   0.1350928 SPIN=   0.00000
   S   0.2870137  -0.3372282  -0.0296205 SPIN=   0.00000
   O   0.3941716  -0.0296986   0.3920166 SPIN=   0.00000
   O   0.0059398  -0.1299773   0.4079930 SPIN=   0.00000
   O   0.2287719  -0.3736851   0.4464155 SPIN=   0.00000
   O   0.2230620  -0.1177262   0.6350928 SPIN=   0.00000
   S   0.2129863  -0.1627718   0.4703795 SPIN=   0.00000
   F  -0.3683479  -0.3424571   0.3137867 SPIN=   0.00000
   F  -0.1316521  -0.1575429  -0.1862133 SPIN=   0.00000
   F   0.3683479   0.3424571  -0.3137867 SPIN=   0.00000
   F   0.1316521   0.1575429   0.1862133 SPIN=   0.00000
%ENDBLOCK POSITIONS_FRAC

# Note: total spin =  16.00

KPOINTS_MP_SPACING 0.07

%BLOCK SPECIES_POT
QC5
%ENDBLOCK SPECIES_POT

SNAP_TO_SYMMETRY
SYMMETRY_GENERATE

