#              Generated by Buildcell
#
# at 10:25:00 (GMT+1.0) 18th August 2020
# in /lustre/scratch/uccabz1/launch_tmp
# on node-c12e-015
# by uccabz1
#
# compiler GCC version 4.9.2
# options -cpp -iprefix /lustre/shared/ucl/apps/gcc/4.9.2/bin/../lib/gcc/x86_64-unknown-linux-gnu/4.9.2/ -mtune=corei7 -march=x86-64 -g -Og
#
# seed -1915163071  -150235888  -108104593  -456580765  1772365214 -1939280298  -100348601   993082085   187696277  1390860506  -969988076 -1580386947
#
#      Author: C. J. Pickard (cjp20@cam.ac.uk)
#                Space group: P21212
#

%BLOCK LATTICE_ABC
      5.23912      8.60323      8.87442
     90.00000     90.00000     90.00000
%ENDBLOCK LATTICE_ABC

%BLOCK POSITIONS_FRAC
  Li   0.4461308   0.2184239  -0.0624335 SPIN=   0.00000
  Li   0.4461308  -0.2184239   0.0624335 SPIN=   0.00000
  Li  -0.4461308  -0.2815761  -0.4375665 SPIN=   0.00000
  Li  -0.4461308   0.2815761   0.4375665 SPIN=   0.00000
  Fe   0.2289408  -0.4907142   0.2493270 SPIN=   4.00000
  Fe   0.2289408   0.4907142  -0.2493270 SPIN=   4.00000
  Fe  -0.2289408   0.0092858   0.2506730 SPIN=   4.00000
  Fe  -0.2289408  -0.0092858  -0.2506730 SPIN=   4.00000
   O  -0.2923047   0.3677664   0.0143258 SPIN=   0.00000
   O   0.1652766   0.3753885  -0.0545438 SPIN=   0.00000
   O  -0.0844317   0.1344771  -0.0932092 SPIN=   0.00000
   O   0.0232578   0.2207137   0.1651343 SPIN=   0.00000
   S  -0.0470505   0.2745864   0.0079268 SPIN=   0.00000
   O  -0.2923047  -0.3677664  -0.0143258 SPIN=   0.00000
   O   0.1652766  -0.3753885   0.0545438 SPIN=   0.00000
   O  -0.0844317  -0.1344771   0.0932092 SPIN=   0.00000
   O   0.0232578  -0.2207137  -0.1651343 SPIN=   0.00000
   S  -0.0470505  -0.2745864  -0.0079268 SPIN=   0.00000
   O   0.2923047  -0.1322336   0.4856742 SPIN=   0.00000
   O  -0.1652766  -0.1246115   0.5545438 SPIN=   0.00000
   O   0.0844317  -0.3655229   0.5932092 SPIN=   0.00000
   O  -0.0232578  -0.2792863   0.3348657 SPIN=   0.00000
   S   0.0470505  -0.2254136   0.4920732 SPIN=   0.00000
   O   0.2923047   0.1322336  -0.4856742 SPIN=   0.00000
   O  -0.1652766   0.1246115  -0.5545438 SPIN=   0.00000
   O   0.0844317   0.3655229  -0.5932092 SPIN=   0.00000
   O  -0.0232578   0.2792863  -0.3348657 SPIN=   0.00000
   S   0.0470505   0.2254136  -0.4920732 SPIN=   0.00000
   F   0.4291475   0.0103958   0.2264545 SPIN=   0.00000
   F   0.4291475  -0.0103958  -0.2264545 SPIN=   0.00000
   F  -0.4291475  -0.4896042   0.2735455 SPIN=   0.00000
   F  -0.4291475   0.4896042  -0.2735455 SPIN=   0.00000
%ENDBLOCK POSITIONS_FRAC

# Note: total spin =  16.00

KPOINTS_MP_SPACING 0.07

%BLOCK SPECIES_POT
QC5
%ENDBLOCK SPECIES_POT

SNAP_TO_SYMMETRY
SYMMETRY_GENERATE

