#              Generated by Buildcell
#
# at 09:15:16 (GMT+1.0) 18th August 2020
# in /lustre/scratch/uccabz1/launch_tmp
# on node-c12j-023
# by uccabz1
#
# compiler GCC version 4.9.2
# options -cpp -iprefix /lustre/shared/ucl/apps/gcc/4.9.2/bin/../lib/gcc/x86_64-unknown-linux-gnu/4.9.2/ -mtune=corei7 -march=x86-64 -g -Og
#
# seed -2003968996   773932449   -79988275  2107425840  1598804169 -1698697941 -2100980159 -2063525406  1273986521  2085985172  1892960656  1591043613
#
#      Author: C. J. Pickard (cjp20@cam.ac.uk)
#                Space group: Iba2
#

%BLOCK LATTICE_ABC
      7.03631      8.35993      8.35993
     72.44050     65.11264     65.11264
%ENDBLOCK LATTICE_ABC

%BLOCK POSITIONS_FRAC
  Li   0.3281938  -0.5713144   0.3601194 SPIN=   0.00000
  Li  -0.3281938   0.6398806  -0.4286856 SPIN=   0.00000
  Li   0.1169988   0.1398806   0.0713144 SPIN=   0.00000
  Li  -0.1169988  -0.0713144  -0.1398806 SPIN=   0.00000
  Fe   0.3244349  -0.5067939  -0.1432789 SPIN=   4.00000
  Fe  -0.3244349   0.1432789  -0.4932061 SPIN=   4.00000
  Fe  -0.3256379   0.6432789   0.0067939 SPIN=   4.00000
  Fe   0.3256379  -0.0067939   0.3567211 SPIN=   4.00000
   O   0.3269762   0.0653337  -0.3812744 SPIN=   0.00000
   O   0.4307005  -0.0850480  -0.1108662 SPIN=   0.00000
   O   0.3576400  -0.2510031  -0.2662114 SPIN=   0.00000
   S   0.2904797  -0.0710359  -0.2144115 SPIN=   0.00000
   O  -0.3269762   0.3812744  -0.0653337 SPIN=   0.00000
   O  -0.4307005   0.1108662   0.0850480 SPIN=   0.00000
   O  -0.3576400   0.2662114   0.2510031 SPIN=   0.00000
   S  -0.2904797   0.2144115   0.0710359 SPIN=   0.00000
   O   0.0110355  -0.1187256  -0.5653337 SPIN=   0.00000
   O   0.2347863  -0.3891338  -0.4149520 SPIN=   0.00000
   O  -0.1595744  -0.2337886  -0.2489969 SPIN=   0.00000
   S   0.0050322  -0.2855885  -0.4289641 SPIN=   0.00000
   O  -0.0110355   0.5653337   0.1187256 SPIN=   0.00000
   O  -0.2347863   0.4149520   0.3891338 SPIN=   0.00000
   O   0.1595744   0.2489969   0.2337886 SPIN=   0.00000
   S  -0.0050322   0.4289641   0.2855885 SPIN=   0.00000
   O   0.0000000   0.1124375  -0.1124375 SPIN=   0.00000
   O   0.0000000  -0.3875625   0.3875625 SPIN=   0.00000
   O   0.0000000   0.3702077  -0.3702077 SPIN=   0.00000
   O   0.0000000  -0.1297923   0.1297923 SPIN=   0.00000
   F  -0.3767757   0.8452365   0.3625927 SPIN=   0.00000
   F   0.3767757  -0.3625927   0.1547635 SPIN=   0.00000
   F  -0.1689464   0.1374073  -0.3452365 SPIN=   0.00000
   F   0.1689464  -0.6547635  -0.1374073 SPIN=   0.00000
%ENDBLOCK POSITIONS_FRAC

# Note: total spin =  16.00

KPOINTS_MP_SPACING 0.07

%BLOCK SPECIES_POT
QC5
%ENDBLOCK SPECIES_POT

SNAP_TO_SYMMETRY
SYMMETRY_GENERATE

