#              Generated by Buildcell
#
# at 10:38:25 (GMT+1.0) 18th August 2020
# in /lustre/scratch/uccabz1/launch_tmp
# on node-c12f-002
# by uccabz1
#
# compiler GCC version 4.9.2
# options -cpp -iprefix /lustre/shared/ucl/apps/gcc/4.9.2/bin/../lib/gcc/x86_64-unknown-linux-gnu/4.9.2/ -mtune=corei7 -march=x86-64 -g -Og
#
# seed   437759825  1369145110  1667444436 -1058479443 -2085970117  -727267495  -360071888  1420638616   246899480 -1677610128 -1844141972  1935684857
#
#      Author: C. J. Pickard (cjp20@cam.ac.uk)
#                Space group: P21
#

%BLOCK LATTICE_ABC
      6.23358      8.11151      8.22326
     90.00000    105.84528     90.00000
%ENDBLOCK LATTICE_ABC

%BLOCK POSITIONS_FRAC
  Li   0.0718826  -0.4743358  -0.0370606 SPIN=   0.00000
  Li  -0.0718826   0.0256642   0.0370606 SPIN=   0.00000
  Li  -0.4461821  -0.4063161   0.4520635 SPIN=   0.00000
  Li   0.4461821   0.0936839  -0.4520635 SPIN=   0.00000
  Fe   0.2234514   0.4099668  -0.3875157 SPIN=   4.54514
  Fe  -0.2234514  -0.0900332   0.3875157 SPIN=   4.54514
  Fe  -0.3081335  -0.4938018   0.1244697 SPIN=   3.45486
  Fe   0.3081335   0.0061982  -0.1244697 SPIN=   3.45486
   O   0.3535392   0.2857310   0.0861280 SPIN=   0.00000
   O  -0.0122513   0.3150474   0.1467480 SPIN=   0.00000
   O   0.3285659   0.4240981   0.3485720 SPIN=   0.00000
   O   0.2699732   0.1228025   0.3158828 SPIN=   0.00000
   S   0.2349567   0.2869197   0.2243327 SPIN=   0.00000
   O  -0.3535392  -0.2142690  -0.0861280 SPIN=   0.00000
   O   0.0122513  -0.1849526  -0.1467480 SPIN=   0.00000
   O  -0.3285659  -0.0759019  -0.3485720 SPIN=   0.00000
   O  -0.2699732  -0.3771975  -0.3158828 SPIN=   0.00000
   S  -0.2349567  -0.2130803  -0.2243327 SPIN=   0.00000
   O  -0.0148201  -0.2822047   0.1452276 SPIN=   0.00000
   O   0.2647654  -0.0754252   0.1170458 SPIN=   0.00000
   O   0.3737523  -0.3680907   0.1699249 SPIN=   0.00000
   O   0.2880454  -0.2005542   0.3958243 SPIN=   0.00000
   S   0.2279357  -0.2315687   0.2070056 SPIN=   0.00000
   O   0.0148201   0.2177953  -0.1452276 SPIN=   0.00000
   O  -0.2647654   0.4245748  -0.1170458 SPIN=   0.00000
   O  -0.3737523   0.1319093  -0.1699249 SPIN=   0.00000
   O  -0.2880454   0.2994458  -0.3958243 SPIN=   0.00000
   S  -0.2279357   0.2684313  -0.2070056 SPIN=   0.00000
   F   0.1968652   0.0294639  -0.3689364 SPIN=   0.00000
   F  -0.1968652  -0.4705361   0.3689364 SPIN=   0.00000
   F   0.2835530  -0.4709730  -0.1739464 SPIN=   0.00000
   F  -0.2835530   0.0290270   0.1739464 SPIN=   0.00000
%ENDBLOCK POSITIONS_FRAC

# Note: total spin =  16.00

KPOINTS_MP_SPACING 0.07

%BLOCK SPECIES_POT
QC5
%ENDBLOCK SPECIES_POT

SNAP_TO_SYMMETRY
SYMMETRY_GENERATE

