#              Generated by Buildcell
#
# at 02:18:24 (GMT+1.0) 18th August 2020
# in /lustre/scratch/uccabz1/launch_tmp
# on node-c12h-021
# by uccabz1
#
# compiler GCC version 4.9.2
# options -cpp -iprefix /lustre/shared/ucl/apps/gcc/4.9.2/bin/../lib/gcc/x86_64-unknown-linux-gnu/4.9.2/ -mtune=corei7 -march=x86-64 -g -Og
#
# seed  -193611495  -335992717 -1986015208  -830611219   -39237429  -377218516 -1409086633  -432405800 -1074830231  -400285542   541333647  -524816437
#
#      Author: C. J. Pickard (cjp20@cam.ac.uk)
#                Space group: P21
#

%BLOCK LATTICE_ABC
      5.56792      7.60939      9.99272
     90.00000     90.00000    109.12851
%ENDBLOCK LATTICE_ABC

%BLOCK POSITIONS_FRAC
  Li   0.2243000  -0.4675881   0.4453487 SPIN=   0.00000
  Li  -0.2243000   0.4675881  -0.0546513 SPIN=   0.00000
  Li  -0.4065433   0.2876455  -0.3868363 SPIN=   0.00000
  Li   0.4065433  -0.2876455   0.1131637 SPIN=   0.00000
  Fe  -0.0501489  -0.2868607   0.2572249 SPIN=   3.72624
  Fe   0.0501489   0.2868607  -0.2427751 SPIN=   3.72624
  Fe   0.1628682  -0.1773081  -0.1169576 SPIN=   4.27376
  Fe  -0.1628682   0.1773081   0.3830424 SPIN=   4.27376
   O   0.6816417   0.3686182   0.2174728 SPIN=   0.00000
   O   0.3065796   0.3334067   0.3610645 SPIN=   0.00000
   O   0.2905152   0.0986126   0.1868787 SPIN=   0.00000
   O   0.2961257   0.4136783   0.1216159 SPIN=   0.00000
   S   0.3937155   0.3035789   0.2217580 SPIN=   0.00000
   O  -0.6816417  -0.3686182  -0.2825272 SPIN=   0.00000
   O  -0.3065796  -0.3334067  -0.1389355 SPIN=   0.00000
   O  -0.2905152  -0.0986126  -0.3131213 SPIN=   0.00000
   O  -0.2961257  -0.4136783  -0.3783841 SPIN=   0.00000
   S  -0.3937155  -0.3035789  -0.2782420 SPIN=   0.00000
   O  -0.3238128  -0.0077118   0.1696454 SPIN=   0.00000
   O   0.0220921  -0.0042272   0.0130577 SPIN=   0.00000
   O  -0.1837427   0.2381242  -0.0029195 SPIN=   0.00000
   O  -0.4203356  -0.0859562  -0.0690947 SPIN=   0.00000
   S  -0.2264497   0.0350572   0.0276722 SPIN=   0.00000
   O   0.3238128   0.0077118  -0.3303546 SPIN=   0.00000
   O  -0.0220921   0.0042272  -0.4869423 SPIN=   0.00000
   O   0.1837427  -0.2381242  -0.5029195 SPIN=   0.00000
   O   0.4203356   0.0859562  -0.5690947 SPIN=   0.00000
   S   0.2264497  -0.0350572  -0.4723278 SPIN=   0.00000
   F  -0.0499803   0.3455638  -0.4518987 SPIN=   0.00000
   F   0.0499803  -0.3455638   0.0481013 SPIN=   0.00000
   F  -0.3743045  -0.2505197   0.3699454 SPIN=   0.00000
   F   0.3743045   0.2505197  -0.1300546 SPIN=   0.00000
%ENDBLOCK POSITIONS_FRAC

# Note: total spin =  16.00

KPOINTS_MP_SPACING 0.07

%BLOCK SPECIES_POT
QC5
%ENDBLOCK SPECIES_POT

SNAP_TO_SYMMETRY
SYMMETRY_GENERATE

