#              Generated by Buildcell
#
# at 06:04:33 (GMT+1.0) 4th August 2020
# in /lustre/scratch/uccabz1/launch_tmp
# on node-y12q-001
# by uccabz1
#
# compiler GCC version 4.9.2
# options -cpp -iprefix /lustre/shared/ucl/apps/gcc/4.9.2/bin/../lib/gcc/x86_64-unknown-linux-gnu/4.9.2/ -mtune=corei7 -march=x86-64 -g -Og
#
# seed  -533800692  1062309646   851897675  1468749225   642100340 -1108438416  1795450773 -1590717099   937772966   797354486  1330152005 -1325878234
#
#      Author: C. J. Pickard (cjp20@cam.ac.uk)
#                Space group: Cc
#

%BLOCK LATTICE_ABC
      6.05912      6.05912     11.03659
     87.81660     87.81660     81.28314
%ENDBLOCK LATTICE_ABC

%BLOCK POSITIONS_FRAC
  Li   0.0389845  -0.0122130   0.3324255 SPIN=   0.00000
  Li  -0.0122130   0.0389845  -0.1675745 SPIN=   0.00000
  Li  -0.4128424  -0.1290914  -0.4143781 SPIN=   0.00000
  Li  -0.1290914  -0.4128424   0.0856219 SPIN=   0.00000
  Fe   0.4613947  -0.1877178   0.2072414 SPIN=   3.03199
  Fe  -0.1877178   0.4613947  -0.2927586 SPIN=   3.03199
  Fe  -0.4950909   0.3646146  -0.0021634 SPIN=   4.96801
  Fe   0.3646146  -0.4950909   0.4978366 SPIN=   4.96801
   O  -0.2734746  -0.4322006   0.2583543 SPIN=   0.00000
   O   0.1135103  -0.4646903   0.3286102 SPIN=   0.00000
   O  -0.1353870  -0.7269734   0.4102168 SPIN=   0.00000
   O  -0.2051891  -0.3308167   0.4673177 SPIN=   0.00000
   S  -0.1251351  -0.4886702   0.3661247 SPIN=   0.00000
   O  -0.4322006  -0.2734746  -0.2416457 SPIN=   0.00000
   O  -0.4646903   0.1135103  -0.1713898 SPIN=   0.00000
   O  -0.7269734  -0.1353870  -0.0897832 SPIN=   0.00000
   O  -0.3308167  -0.2051891  -0.0326823 SPIN=   0.00000
   S  -0.4886702  -0.1251351  -0.1338753 SPIN=   0.00000
   O  -0.0292231  -0.0998700   0.0702112 SPIN=   0.00000
   O  -0.0899287   0.2804426  -0.0244139 SPIN=   0.00000
   O   0.2759416   0.1300055   0.0614455 SPIN=   0.00000
   O  -0.0546909   0.2305399   0.1979754 SPIN=   0.00000
   S   0.0255247   0.1352795   0.0763045 SPIN=   0.00000
   O  -0.0998700  -0.0292231  -0.4297888 SPIN=   0.00000
   O   0.2804426  -0.0899287  -0.5244139 SPIN=   0.00000
   O   0.1300055   0.2759416  -0.4385545 SPIN=   0.00000
   O   0.2305399  -0.0546909  -0.3020246 SPIN=   0.00000
   S   0.1352795   0.0255247  -0.4236955 SPIN=   0.00000
   F  -0.3946596   0.0458131   0.2933613 SPIN=   0.00000
   F   0.0458131  -0.3946596  -0.2066387 SPIN=   0.00000
   F  -0.4144462   0.3147186  -0.3840971 SPIN=   0.00000
   F   0.3147186  -0.4144462   0.1159029 SPIN=   0.00000
%ENDBLOCK POSITIONS_FRAC

# Note: total spin =  16.00

KPOINTS_MP_SPACING 0.07

%BLOCK SPECIES_POT
QC5
%ENDBLOCK SPECIES_POT

SNAP_TO_SYMMETRY
SYMMETRY_GENERATE

