#              Generated by Buildcell
#
# at 08:10:05 (GMT+1.0) 4th August 2020
# in /lustre/scratch/uccabz1/launch_tmp
# on node-c12g-029
# by uccabz1
#
# compiler GCC version 4.9.2
# options -cpp -iprefix /lustre/shared/ucl/apps/gcc/4.9.2/bin/../lib/gcc/x86_64-unknown-linux-gnu/4.9.2/ -mtune=corei7 -march=x86-64 -g -Og
#
# seed  2127426664 -1108409097 -1973680746 -1779043572   194448138  -970071216  1612578656  1561938651  2124085654  1153699591  -732625001  -812999682
#
#      Author: C. J. Pickard (cjp20@cam.ac.uk)
#                Space group: Pc
#

%BLOCK LATTICE_ABC
      6.43641      6.67732      9.79378
     90.00000     90.00000    108.13874
%ENDBLOCK LATTICE_ABC

%BLOCK POSITIONS_FRAC
  Li  -0.1023231  -0.1341069   0.1052186 SPIN=   0.00000
  Li  -0.1023231   0.3658931  -0.1052186 SPIN=   0.00000
  Li   0.4006929  -0.2534478   0.3639386 SPIN=   0.00000
  Li   0.4006929   0.2465522  -0.3639386 SPIN=   0.00000
  Fe  -0.1826435   0.1181700   0.3460972 SPIN=   3.77941
  Fe  -0.1826435  -0.3818300  -0.3460972 SPIN=   3.77941
  Fe   0.4067709  -0.0172967   0.0746272 SPIN=   4.22059
  Fe   0.4067709   0.4827033  -0.0746272 SPIN=   4.22059
   O  -0.0096045  -0.5748159   0.3166281 SPIN=   0.00000
   O  -0.2749954  -0.3787896   0.2840607 SPIN=   0.00000
   O   0.1177579  -0.2048160   0.2368735 SPIN=   0.00000
   O  -0.0100756  -0.2859609   0.4748477 SPIN=   0.00000
   S  -0.0442294  -0.3610956   0.3281025 SPIN=   0.00000
   O  -0.0096045  -0.0748159  -0.3166281 SPIN=   0.00000
   O  -0.2749954   0.1212104  -0.2840607 SPIN=   0.00000
   O   0.1177579   0.2951840  -0.2368735 SPIN=   0.00000
   O  -0.0100756   0.2140391  -0.4748477 SPIN=   0.00000
   S  -0.0442294   0.1389044  -0.3281025 SPIN=   0.00000
   O   0.3032266   0.4284749   0.4132898 SPIN=   0.00000
   O   0.1815831   0.0391423   0.3985330 SPIN=   0.00000
   O   0.5763347   0.2369865   0.4106621 SPIN=   0.00000
   O   0.3663740   0.2535330   0.2015684 SPIN=   0.00000
   S   0.3568796   0.2395342   0.3560133 SPIN=   0.00000
   O   0.3032266  -0.0715251  -0.4132898 SPIN=   0.00000
   O   0.1815831  -0.4608577  -0.3985330 SPIN=   0.00000
   O   0.5763347  -0.2630135  -0.4106621 SPIN=   0.00000
   O   0.3663740  -0.2464670  -0.2015684 SPIN=   0.00000
   S   0.3568796  -0.2604658  -0.3560133 SPIN=   0.00000
   F  -0.0666807   0.1862429   0.0892983 SPIN=   0.00000
   F  -0.0666807  -0.3137571  -0.0892983 SPIN=   0.00000
   F   0.4296132   0.1726879  -0.1041280 SPIN=   0.00000
   F   0.4296132  -0.3273121   0.1041280 SPIN=   0.00000
%ENDBLOCK POSITIONS_FRAC

# Note: total spin =  16.00

KPOINTS_MP_SPACING 0.07

%BLOCK SPECIES_POT
QC5
%ENDBLOCK SPECIES_POT

SNAP_TO_SYMMETRY
SYMMETRY_GENERATE

