#              Generated by Buildcell
#
# at 17:00:54 (GMT+1.0) 18th August 2020
# in /lustre/scratch/uccabz1/launch_tmp
# on node-c12e-025
# by uccabz1
#
# compiler GCC version 4.9.2
# options -cpp -iprefix /lustre/shared/ucl/apps/gcc/4.9.2/bin/../lib/gcc/x86_64-unknown-linux-gnu/4.9.2/ -mtune=corei7 -march=x86-64 -g -Og
#
# seed   939096643   520820531 -1301144049 -1046211418  1484803532  1598256810   687940856  1168921509 -1840359316  -443579072  1507532284   228059222
#
#      Author: C. J. Pickard (cjp20@cam.ac.uk)
#                Space group: Iba2
#

%BLOCK LATTICE_ABC
      6.76299      8.67059      8.67059
     62.07414     67.04576     67.04576
%ENDBLOCK LATTICE_ABC

%BLOCK POSITIONS_FRAC
  Li   0.0035247  -0.0857017  -0.2949649 SPIN=   0.00000
  Li  -0.0035247   0.2949649   0.0857017 SPIN=   0.00000
  Li   0.3771419   0.4142983   0.2050351 SPIN=   0.00000
  Li  -0.3771419  -0.2050351  -0.4142983 SPIN=   0.00000
  Fe   0.2389275  -0.0763820   0.3229771 SPIN=   4.00000
  Fe  -0.2389275  -0.3229771   0.0763820 SPIN=   4.00000
  Fe  -0.4855226   0.4236180  -0.1770229 SPIN=   4.00000
  Fe   0.4855226   0.1770229  -0.4236180 SPIN=   4.00000
   O  -0.2235353  -0.5497097  -0.1225915 SPIN=   0.00000
   O   0.1793057  -0.6073607  -0.2698666 SPIN=   0.00000
   O  -0.0176484  -0.3309733  -0.1999882 SPIN=   0.00000
   O  -0.0869570  -0.3629188  -0.4422983 SPIN=   0.00000
   S  -0.0372087  -0.4627406  -0.2586861 SPIN=   0.00000
   O   0.2235353   0.1225915   0.5497097 SPIN=   0.00000
   O  -0.1793057   0.2698666   0.6073607 SPIN=   0.00000
   O   0.0176484   0.1999882   0.3309733 SPIN=   0.00000
   O   0.0869570   0.4422983   0.3629188 SPIN=   0.00000
   S   0.0372087   0.2586861   0.4627406 SPIN=   0.00000
   O  -0.1041635  -0.0497097   0.3774085 SPIN=   0.00000
   O  -0.3020784  -0.1073607   0.2301334 SPIN=   0.00000
   O  -0.4513902   0.1690267   0.3000118 SPIN=   0.00000
   O  -0.1078260   0.1370812   0.0577017 SPIN=   0.00000
   S  -0.2413645   0.0372594   0.2413139 SPIN=   0.00000
   O   0.1041635  -0.3774085   0.0497097 SPIN=   0.00000
   O   0.3020784  -0.2301334   0.1073607 SPIN=   0.00000
   O   0.4513902  -0.3000118  -0.1690267 SPIN=   0.00000
   O   0.1078260  -0.0577017  -0.1370812 SPIN=   0.00000
   S   0.2413645  -0.2413139  -0.0372594 SPIN=   0.00000
   F  -0.3333121  -0.0175181  -0.2970697 SPIN=   0.00000
   F   0.3333121   0.2970697   0.0175181 SPIN=   0.00000
   F  -0.3521001   0.4824819   0.2029303 SPIN=   0.00000
   F   0.3521001  -0.2029303  -0.4824819 SPIN=   0.00000
%ENDBLOCK POSITIONS_FRAC

# Note: total spin =  16.00

KPOINTS_MP_SPACING 0.07

%BLOCK SPECIES_POT
QC5
%ENDBLOCK SPECIES_POT

SNAP_TO_SYMMETRY
SYMMETRY_GENERATE

