#              Generated by Buildcell
#
# at 07:48:49 (GMT+1.0) 4th August 2020
# in /lustre/scratch/uccabz1/launch_tmp
# on node-c12m-031
# by uccabz1
#
# compiler GCC version 4.9.2
# options -cpp -iprefix /lustre/shared/ucl/apps/gcc/4.9.2/bin/../lib/gcc/x86_64-unknown-linux-gnu/4.9.2/ -mtune=corei7 -march=x86-64 -g -Og
#
# seed  1996346994 -1484887593  -413633723  -772693484  2078926298  1027584497 -1820429286  -126605381  -121321710  1919613754   328651693   447288645
#
#      Author: C. J. Pickard (cjp20@cam.ac.uk)
#                Space group: P-1
#

%BLOCK LATTICE_ABC
      4.13063      8.51623     11.77649
     97.95842     98.42535     98.36234
%ENDBLOCK LATTICE_ABC

%BLOCK POSITIONS_FRAC
  Li   0.0114564  -0.4372440  -0.1517789 SPIN=   0.00000
  Li  -0.0114564   0.4372440   0.1517789 SPIN=   0.00000
  Li  -0.4814199  -0.0212334  -0.1648995 SPIN=   0.00000
  Li   0.4814199   0.0212334   0.1648995 SPIN=   0.00000
  Fe  -0.1801285   0.0556884  -0.3732714 SPIN=   3.59062
  Fe   0.1801285  -0.0556884   0.3732714 SPIN=   3.59062
  Fe  -0.2246124  -0.2496732   0.0479575 SPIN=   4.40938
  Fe   0.2246124   0.2496732  -0.0479575 SPIN=   4.40938
   O   0.3614703   0.4948257  -0.3573156 SPIN=   0.00000
   O   0.3883924   0.3887863  -0.1714342 SPIN=   0.00000
   O   0.8425743   0.3713660  -0.2858899 SPIN=   0.00000
   O   0.2922705   0.2011025  -0.3579569 SPIN=   0.00000
   S   0.4711769   0.3640201  -0.2931492 SPIN=   0.00000
   O  -0.3614703  -0.4948257   0.3573156 SPIN=   0.00000
   O  -0.3883924  -0.3887863   0.1714342 SPIN=   0.00000
   O  -0.8425743  -0.3713660   0.2858899 SPIN=   0.00000
   O  -0.2922705  -0.2011025   0.3579569 SPIN=   0.00000
   S  -0.4711769  -0.3640201   0.2931492 SPIN=   0.00000
   O  -0.1152862  -0.4041308  -0.4168301 SPIN=   0.00000
   O   0.3659197  -0.2183300  -0.2954114 SPIN=   0.00000
   O   0.0340494  -0.1287903  -0.4593707 SPIN=   0.00000
   O   0.3948935  -0.3309901  -0.4982798 SPIN=   0.00000
   S   0.1698941  -0.2705603  -0.4174730 SPIN=   0.00000
   O   0.1152862   0.4041308   0.4168301 SPIN=   0.00000
   O  -0.3659197   0.2183300   0.2954114 SPIN=   0.00000
   O  -0.0340494   0.1287903   0.4593707 SPIN=   0.00000
   O  -0.3948935   0.3309901   0.4982798 SPIN=   0.00000
   S  -0.1698941   0.2705603   0.4174730 SPIN=   0.00000
   F  -0.0705775   0.0371116  -0.2190668 SPIN=   0.00000
   F   0.0705775  -0.0371116   0.2190668 SPIN=   0.00000
   F   0.6046466   0.2947287   0.0624318 SPIN=   0.00000
   F  -0.6046466  -0.2947287  -0.0624318 SPIN=   0.00000
%ENDBLOCK POSITIONS_FRAC

# Note: total spin =  16.00

KPOINTS_MP_SPACING 0.07

%BLOCK SPECIES_POT
QC5
%ENDBLOCK SPECIES_POT

SNAP_TO_SYMMETRY
SYMMETRY_GENERATE

