#              Generated by Buildcell
#
# at 06:52:24 (GMT+1.0) 4th August 2020
# in /lustre/scratch/uccabz1/launch_tmp
# on node-c12c-028
# by uccabz1
#
# compiler GCC version 4.9.2
# options -cpp -iprefix /lustre/shared/ucl/apps/gcc/4.9.2/bin/../lib/gcc/x86_64-unknown-linux-gnu/4.9.2/ -mtune=corei7 -march=x86-64 -g -Og
#
# seed  -490809729  1935025318    44999687  2086843321   700140703  -653493525  1936886178  -527867117   909253719  2035961102 -1143222469  1112721346
#
#      Author: C. J. Pickard (cjp20@cam.ac.uk)
#                Space group: Pca21
#

%BLOCK LATTICE_ABC
      6.71665      7.33334      8.12093
     90.00000     90.00000     90.00000
%ENDBLOCK LATTICE_ABC

%BLOCK POSITIONS_FRAC
  Li  -0.0816170  -0.0296598  -0.2956089 SPIN=   0.00000
  Li   0.0816170   0.0296598   0.2043911 SPIN=   0.00000
  Li   0.0816170   0.4703402  -0.2956089 SPIN=   0.00000
  Li  -0.0816170  -0.4703402   0.2043911 SPIN=   0.00000
  Fe   0.2849431  -0.2153858  -0.0537011 SPIN=   4.00000
  Fe  -0.2849431   0.2153858   0.4462989 SPIN=   4.00000
  Fe  -0.2849431   0.2846142  -0.0537011 SPIN=   4.00000
  Fe   0.2849431  -0.2846142   0.4462989 SPIN=   4.00000
   O   0.0491268   0.2019087  -0.4986499 SPIN=   0.00000
   O   0.3322533  -0.0134718  -0.5132185 SPIN=   0.00000
   O   0.2238558   0.1090463  -0.2437818 SPIN=   0.00000
   O   0.3917310   0.3108409  -0.4447552 SPIN=   0.00000
   S   0.2492417   0.1520810  -0.4251013 SPIN=   0.00000
   O  -0.0491268  -0.2019087   0.0013501 SPIN=   0.00000
   O  -0.3322533   0.0134718  -0.0132185 SPIN=   0.00000
   O  -0.2238558  -0.1090463   0.2562182 SPIN=   0.00000
   O  -0.3917310  -0.3108409   0.0552448 SPIN=   0.00000
   S  -0.2492417  -0.1520810   0.0748987 SPIN=   0.00000
   O  -0.0491268  -0.2980913  -0.4986499 SPIN=   0.00000
   O  -0.3322533  -0.5134718  -0.5132185 SPIN=   0.00000
   O  -0.2238558  -0.3909537  -0.2437818 SPIN=   0.00000
   O  -0.3917310  -0.1891591  -0.4447552 SPIN=   0.00000
   S  -0.2492417  -0.3479190  -0.4251013 SPIN=   0.00000
   O   0.0491268   0.2980913   0.0013501 SPIN=   0.00000
   O   0.3322533   0.5134718  -0.0132185 SPIN=   0.00000
   O   0.2238558   0.3909537   0.2562182 SPIN=   0.00000
   O   0.3917310   0.1891591   0.0552448 SPIN=   0.00000
   S   0.2492417   0.3479190   0.0748987 SPIN=   0.00000
   F  -0.2628735   0.2974435   0.2119462 SPIN=   0.00000
   F   0.2628735  -0.2974435  -0.2880538 SPIN=   0.00000
   F   0.2628735  -0.2025565   0.2119462 SPIN=   0.00000
   F  -0.2628735   0.2025565  -0.2880538 SPIN=   0.00000
%ENDBLOCK POSITIONS_FRAC

# Note: total spin =  16.00

KPOINTS_MP_SPACING 0.07

%BLOCK SPECIES_POT
QC5
%ENDBLOCK SPECIES_POT

SNAP_TO_SYMMETRY
SYMMETRY_GENERATE

