#              Generated by Buildcell
#
# at 06:57:05 (GMT+1.0) 4th August 2020
# in /lustre/scratch/uccabz1/launch_tmp
# on node-c12l-021
# by uccabz1
#
# compiler GCC version 4.9.2
# options -cpp -iprefix /lustre/shared/ucl/apps/gcc/4.9.2/bin/../lib/gcc/x86_64-unknown-linux-gnu/4.9.2/ -mtune=corei7 -march=x86-64 -g -Og
#
# seed  1813525676  1471524458  1379582935 -2076774613  1301992380 -1928195927  1401775080  -316014191  -671804349  1435275385  1709028469  -997039148
#
#      Author: C. J. Pickard (cjp20@cam.ac.uk)
#                Space group: P21
#

%BLOCK LATTICE_ABC
      5.39992      7.66214      9.88094
     90.00000     90.00000    101.92530
%ENDBLOCK LATTICE_ABC

%BLOCK POSITIONS_FRAC
  Li   0.2011199   0.0308127   0.4316456 SPIN=   0.00000
  Li  -0.2011199  -0.0308127  -0.0683544 SPIN=   0.00000
  Li   0.2067471  -0.3920767   0.1738347 SPIN=   0.00000
  Li  -0.2067471   0.3920767  -0.3261653 SPIN=   0.00000
  Fe   0.2303220   0.1226433   0.1125355 SPIN=   2.63975
  Fe  -0.2303220  -0.1226433  -0.3874645 SPIN=   2.63975
  Fe  -0.2956698   0.3674392   0.3576807 SPIN=   5.36025
  Fe   0.2956698  -0.3674392  -0.1423193 SPIN=   5.36025
   O  -0.0565496   0.3113721   0.1288145 SPIN=   0.00000
   O  -0.4495385   0.2249549  -0.0055988 SPIN=   0.00000
   O  -0.0453606   0.3552923  -0.1194268 SPIN=   0.00000
   O  -0.2543996   0.5440435   0.0266927 SPIN=   0.00000
   S  -0.2014621   0.3589157   0.0076204 SPIN=   0.00000
   O   0.0565496  -0.3113721  -0.3711855 SPIN=   0.00000
   O   0.4495385  -0.2249549  -0.5055988 SPIN=   0.00000
   O   0.0453606  -0.3552923  -0.6194268 SPIN=   0.00000
   O   0.2543996  -0.5440435  -0.4733073 SPIN=   0.00000
   S   0.2014621  -0.3589157  -0.4923796 SPIN=   0.00000
   O  -0.3988167  -0.2742624   0.2798113 SPIN=   0.00000
   O  -0.4814474   0.0183136   0.3504405 SPIN=   0.00000
   O  -0.3726042  -0.0311639   0.1121516 SPIN=   0.00000
   O  -0.0465745  -0.0105162   0.2907889 SPIN=   0.00000
   S  -0.3248607  -0.0744072   0.2582981 SPIN=   0.00000
   O   0.3988167   0.2742624  -0.2201887 SPIN=   0.00000
   O   0.4814474  -0.0183136  -0.1495595 SPIN=   0.00000
   O   0.3726042   0.0311639  -0.3878484 SPIN=   0.00000
   O   0.0465745   0.0105162  -0.2092111 SPIN=   0.00000
   S   0.3248607   0.0744072  -0.2417019 SPIN=   0.00000
   F  -0.1726628   0.2115280  -0.4655138 SPIN=   0.00000
   F   0.1726628  -0.2115280   0.0344862 SPIN=   0.00000
   F   0.3666139   0.3454385   0.2720698 SPIN=   0.00000
   F  -0.3666139  -0.3454385  -0.2279302 SPIN=   0.00000
%ENDBLOCK POSITIONS_FRAC

# Note: total spin =  16.00

KPOINTS_MP_SPACING 0.07

%BLOCK SPECIES_POT
QC5
%ENDBLOCK SPECIES_POT

SNAP_TO_SYMMETRY
SYMMETRY_GENERATE

