#              Generated by Buildcell
#
# at 08:37:18 (GMT+1.0) 4th August 2020
# in /lustre/scratch/uccabz1/launch_tmp
# on node-c12m-020
# by uccabz1
#
# compiler GCC version 4.9.2
# options -cpp -iprefix /lustre/shared/ucl/apps/gcc/4.9.2/bin/../lib/gcc/x86_64-unknown-linux-gnu/4.9.2/ -mtune=corei7 -march=x86-64 -g -Og
#
# seed  1502717308 -1346064515  2033495306   958420516  -392192881   955428606   349936618  1448895775 -1181080766   522626537 -1277192453  1421667635
#
#      Author: C. J. Pickard (cjp20@cam.ac.uk)
#                Space group: Pc
#

%BLOCK LATTICE_ABC
      6.18870      6.22608     10.41919
     94.89757     90.00000     90.00000
%ENDBLOCK LATTICE_ABC

%BLOCK POSITIONS_FRAC
  Li   0.2762606  -0.1930229  -0.1376372 SPIN=   0.00000
  Li  -0.2762606  -0.1930229   0.3623628 SPIN=   0.00000
  Li   0.1545565   0.4510752  -0.4592985 SPIN=   0.00000
  Li  -0.1545565   0.4510752   0.0407015 SPIN=   0.00000
  Fe  -0.3283127  -0.3222922  -0.3604568 SPIN=   2.11581
  Fe   0.3283127  -0.3222922   0.1395432 SPIN=   2.11581
  Fe   0.4508045   0.2148967   0.3371726 SPIN=   5.88419
  Fe  -0.4508045   0.2148967  -0.1628274 SPIN=   5.88419
   O  -0.2702946   0.0775012   0.0715487 SPIN=   0.00000
   O  -0.0477457  -0.2520930   0.0757025 SPIN=   0.00000
   O   0.1255892   0.0964106   0.0408690 SPIN=   0.00000
   O  -0.1040690  -0.0868184  -0.1294512 SPIN=   0.00000
   S  -0.0741300  -0.0412499   0.0146672 SPIN=   0.00000
   O   0.2702946   0.0775012  -0.4284513 SPIN=   0.00000
   O   0.0477457  -0.2520930  -0.4242975 SPIN=   0.00000
   O  -0.1255892   0.0964106  -0.4591310 SPIN=   0.00000
   O   0.1040690  -0.0868184  -0.6294512 SPIN=   0.00000
   S   0.0741300  -0.0412499  -0.4853328 SPIN=   0.00000
   O   0.1198463   0.4253688  -0.0596150 SPIN=   0.00000
   O   0.0360252   0.1892032  -0.2565182 SPIN=   0.00000
   O   0.2173812   0.5398291  -0.2738220 SPIN=   0.00000
   O  -0.1665222   0.5292329  -0.2081488 SPIN=   0.00000
   S   0.0516826   0.4209085  -0.1995260 SPIN=   0.00000
   O  -0.1198463   0.4253688   0.4403850 SPIN=   0.00000
   O  -0.0360252   0.1892032   0.2434818 SPIN=   0.00000
   O  -0.2173812   0.5398291   0.2261780 SPIN=   0.00000
   O   0.1665222   0.5292329   0.2918512 SPIN=   0.00000
   S  -0.0516826   0.4209085   0.3004740 SPIN=   0.00000
   F  -0.4953540  -0.1052707   0.2641587 SPIN=   0.00000
   F   0.4953540  -0.1052707  -0.2358413 SPIN=   0.00000
   F  -0.4496921   0.4472029   0.0026212 SPIN=   0.00000
   F   0.4496921   0.4472029  -0.4973788 SPIN=   0.00000
%ENDBLOCK POSITIONS_FRAC

# Note: total spin =  16.00

KPOINTS_MP_SPACING 0.07

%BLOCK SPECIES_POT
QC5
%ENDBLOCK SPECIES_POT

SNAP_TO_SYMMETRY
SYMMETRY_GENERATE

