#              Generated by Buildcell
#
# at 08:04:21 (GMT+1.0) 4th August 2020
# in /lustre/scratch/uccabz1/launch_tmp
# on node-c12g-029
# by uccabz1
#
# compiler GCC version 4.9.2
# options -cpp -iprefix /lustre/shared/ucl/apps/gcc/4.9.2/bin/../lib/gcc/x86_64-unknown-linux-gnu/4.9.2/ -mtune=corei7 -march=x86-64 -g -Og
#
# seed  -863680793 -1202377673   277036690   820820213  -299043187  -413857331  1330370889  1225152344   489483914   196780544   -76458287   686768872
#
#      Author: C. J. Pickard (cjp20@cam.ac.uk)
#                Space group: P2
#

%BLOCK LATTICE_ABC
      5.29487      6.70053     11.27455
     90.00000     90.23212     90.00000
%ENDBLOCK LATTICE_ABC

%BLOCK POSITIONS_FRAC
  Li   0.2507376   0.4096715  -0.1320148 SPIN=   0.00000
  Li  -0.2507376   0.4096715   0.1320148 SPIN=   0.00000
  Li  -0.2497683   0.3795636  -0.3806354 SPIN=   0.00000
  Li   0.2497683   0.3795636   0.3806354 SPIN=   0.00000
  Fe   0.2506700  -0.1634824  -0.2359608 SPIN=   4.19828
  Fe  -0.2506700  -0.1634824   0.2359608 SPIN=   4.19828
  Fe  -0.2501367   0.1375886  -0.1080561 SPIN=   3.80172
  Fe   0.2501367   0.1375886   0.1080561 SPIN=   3.80172
   O  -0.4432840  -0.2112777  -0.0964960 SPIN=   0.00000
   O   0.0132074  -0.2900309  -0.1015463 SPIN=   0.00000
   O  -0.2771228  -0.4437201  -0.2478773 SPIN=   0.00000
   O  -0.2931895  -0.5467015  -0.0372379 SPIN=   0.00000
   S  -0.2500972  -0.3729326  -0.1207894 SPIN=   0.00000
   O   0.4432840  -0.2112777   0.0964960 SPIN=   0.00000
   O  -0.0132074  -0.2900309   0.1015463 SPIN=   0.00000
   O   0.2771228  -0.4437201   0.2478773 SPIN=   0.00000
   O   0.2931895  -0.5467015   0.0372379 SPIN=   0.00000
   S   0.2500972  -0.3729326   0.1207894 SPIN=   0.00000
   O   0.0474449   0.1383562   0.4012738 SPIN=   0.00000
   O   0.2226947  -0.1050701   0.2584933 SPIN=   0.00000
   O   0.2135564  -0.1855059   0.4726743 SPIN=   0.00000
   O   0.5072085   0.0722262   0.3977035 SPIN=   0.00000
   S   0.2477261  -0.0199984   0.3825362 SPIN=   0.00000
   O  -0.0474449   0.1383562  -0.4012738 SPIN=   0.00000
   O  -0.2226947  -0.1050701  -0.2584933 SPIN=   0.00000
   O  -0.2135564  -0.1855059  -0.4726743 SPIN=   0.00000
   O  -0.5072085   0.0722262  -0.3977035 SPIN=   0.00000
   S  -0.2477261  -0.0199984  -0.3825362 SPIN=   0.00000
   F  -0.2387411  -0.4989134   0.3706483 SPIN=   0.00000
   F   0.2387411  -0.4989134  -0.3706483 SPIN=   0.00000
   F   0.2360670   0.1064393  -0.1272986 SPIN=   0.00000
   F  -0.2360670   0.1064393   0.1272986 SPIN=   0.00000
%ENDBLOCK POSITIONS_FRAC

# Note: total spin =  16.00

KPOINTS_MP_SPACING 0.07

%BLOCK SPECIES_POT
QC5
%ENDBLOCK SPECIES_POT

SNAP_TO_SYMMETRY
SYMMETRY_GENERATE

