#              Generated by Buildcell
#
# at 16:12:50 (GMT+1.0) 18th August 2020
# in /lustre/scratch/uccabz1/launch_tmp
# on node-c12m-034
# by uccabz1
#
# compiler GCC version 4.9.2
# options -cpp -iprefix /lustre/shared/ucl/apps/gcc/4.9.2/bin/../lib/gcc/x86_64-unknown-linux-gnu/4.9.2/ -mtune=corei7 -march=x86-64 -g -Og
#
# seed -1346003452 -2108873982 -1306165702 -2070606329  1178128389 -1144618222  -678185882 -1437071661   561989296  1184060139   136659803  1295037759
#
#      Author: C. J. Pickard (cjp20@cam.ac.uk)
#                Space group: Pc
#

%BLOCK LATTICE_ABC
      4.45048      6.00515     14.96752
     90.00000     90.00000     90.55517
%ENDBLOCK LATTICE_ABC

%BLOCK POSITIONS_FRAC
  Li   0.1080762  -0.2818652  -0.3305234 SPIN=   0.00000
  Li  -0.3919238   0.2181348   0.3305234 SPIN=   0.00000
  Li  -0.0727360   0.4755532   0.1327216 SPIN=   0.00000
  Li   0.4272640  -0.0244468  -0.1327216 SPIN=   0.00000
  Fe   0.1023319  -0.1050831   0.3824818 SPIN=   5.22801
  Fe  -0.3976681   0.3949169  -0.3824818 SPIN=   5.22801
  Fe  -0.4580726  -0.1294164   0.1816998 SPIN=   2.77199
  Fe   0.0419274   0.3705836  -0.1816998 SPIN=   2.77199
   O  -0.2858565   0.0508206  -0.5252687 SPIN=   0.00000
   O  -0.1700504  -0.0310694  -0.3669860 SPIN=   0.00000
   O  -0.2601067  -0.3398964  -0.4734533 SPIN=   0.00000
   O  -0.6817490  -0.1017636  -0.4258934 SPIN=   0.00000
   S  -0.3494406  -0.1054772  -0.4479003 SPIN=   0.00000
   O   0.2141435   0.5508206   0.5252687 SPIN=   0.00000
   O   0.3299496   0.4689306   0.3669860 SPIN=   0.00000
   O   0.2398933   0.1601036   0.4734533 SPIN=   0.00000
   O  -0.1817490   0.3982364   0.4258934 SPIN=   0.00000
   S   0.1505594   0.3945228   0.4479003 SPIN=   0.00000
   O  -0.4103958  -0.0633364   0.0355314 SPIN=   0.00000
   O  -0.2243676   0.1652706  -0.0908277 SPIN=   0.00000
   O   0.0832928   0.1281226   0.0460052 SPIN=   0.00000
   O  -0.3848318   0.3470741   0.0494436 SPIN=   0.00000
   S  -0.2340756   0.1442827   0.0100381 SPIN=   0.00000
   O   0.0896042  -0.5633364  -0.0355314 SPIN=   0.00000
   O   0.2756324  -0.3347294   0.0908277 SPIN=   0.00000
   O   0.5832928  -0.3718774  -0.0460052 SPIN=   0.00000
   O   0.1151682  -0.1529259  -0.0494436 SPIN=   0.00000
   S   0.2659244  -0.3557173  -0.0100381 SPIN=   0.00000
   F   0.2092649   0.2797360   0.2051991 SPIN=   0.00000
   F  -0.2907351  -0.2202640  -0.2051991 SPIN=   0.00000
   F  -0.2967681  -0.2196836   0.3153977 SPIN=   0.00000
   F   0.2032319   0.2803164  -0.3153977 SPIN=   0.00000
%ENDBLOCK POSITIONS_FRAC

# Note: total spin =  16.00

KPOINTS_MP_SPACING 0.07

%BLOCK SPECIES_POT
QC5
%ENDBLOCK SPECIES_POT

SNAP_TO_SYMMETRY
SYMMETRY_GENERATE

