#              Generated by Buildcell
#
# at 02:18:18 (GMT+1.0) 18th August 2020
# in /lustre/scratch/uccabz1/launch_tmp
# on node-c12e-013
# by uccabz1
#
# compiler GCC version 4.9.2
# options -cpp -iprefix /lustre/shared/ucl/apps/gcc/4.9.2/bin/../lib/gcc/x86_64-unknown-linux-gnu/4.9.2/ -mtune=corei7 -march=x86-64 -g -Og
#
# seed -1392381788  1606791467   349326207   886420559  1190540440  1631955082  -438038442  1273551684   707584463 -1502492474 -1515012158  1014385572
#
#      Author: C. J. Pickard (cjp20@cam.ac.uk)
#                Space group: Pba2
#

%BLOCK LATTICE_ABC
      4.50265      6.67330     13.31224
     90.00000     90.00000     90.00000
%ENDBLOCK LATTICE_ABC

%BLOCK POSITIONS_FRAC
  Li   0.2859152  -0.0266477  -0.3647392 SPIN=   0.00000
  Li  -0.2859152  -0.0266477   0.3647392 SPIN=   0.00000
  Li   0.2140848  -0.0266477   0.1352608 SPIN=   0.00000
  Li  -0.2140848  -0.0266477  -0.1352608 SPIN=   0.00000
  Fe   0.2161315  -0.3242809   0.3778504 SPIN=   4.00000
  Fe  -0.2161315  -0.3242809  -0.3778504 SPIN=   4.00000
  Fe   0.2838685  -0.3242809  -0.1221496 SPIN=   4.00000
  Fe  -0.2838685  -0.3242809   0.1221496 SPIN=   4.00000
   O  -0.2590493   0.0712024   0.0292108 SPIN=   0.00000
   O  -0.0962145   0.3693084   0.1251136 SPIN=   0.00000
   O  -0.1819534   0.0475567   0.2129006 SPIN=   0.00000
   O  -0.6076929   0.2397381   0.1454810 SPIN=   0.00000
   S  -0.2862275   0.1819514   0.1281765 SPIN=   0.00000
   O   0.2590493   0.0712024  -0.0292108 SPIN=   0.00000
   O   0.0962145   0.3693084  -0.1251136 SPIN=   0.00000
   O   0.1819534   0.0475567  -0.2129006 SPIN=   0.00000
   O   0.6076929   0.2397381  -0.1454810 SPIN=   0.00000
   S   0.2862275   0.1819514  -0.1281765 SPIN=   0.00000
   O  -0.2409507   0.0712024  -0.4707892 SPIN=   0.00000
   O  -0.4037855   0.3693084  -0.3748864 SPIN=   0.00000
   O  -0.3180466   0.0475567  -0.2870994 SPIN=   0.00000
   O   0.1076929   0.2397381  -0.3545190 SPIN=   0.00000
   S  -0.2137725   0.1819514  -0.3718235 SPIN=   0.00000
   O   0.2409507   0.0712024   0.4707892 SPIN=   0.00000
   O   0.4037855   0.3693084   0.3748864 SPIN=   0.00000
   O   0.3180466   0.0475567   0.2870994 SPIN=   0.00000
   O  -0.1076929   0.2397381   0.3545190 SPIN=   0.00000
   S   0.2137725   0.1819514   0.3718235 SPIN=   0.00000
   F  -0.1888281  -0.3237466   0.3694798 SPIN=   0.00000
   F   0.1888281  -0.3237466  -0.3694798 SPIN=   0.00000
   F  -0.3111719  -0.3237466  -0.1305202 SPIN=   0.00000
   F   0.3111719  -0.3237466   0.1305202 SPIN=   0.00000
%ENDBLOCK POSITIONS_FRAC

# Note: total spin =  16.00

KPOINTS_MP_SPACING 0.07

%BLOCK SPECIES_POT
QC5
%ENDBLOCK SPECIES_POT

SNAP_TO_SYMMETRY
SYMMETRY_GENERATE

