#              Generated by Buildcell
#
# at 13:54:22 (GMT+1.0) 18th August 2020
# in /lustre/scratch/uccabz1/launch_tmp
# on node-c12g-023
# by uccabz1
#
# compiler GCC version 4.9.2
# options -cpp -iprefix /lustre/shared/ucl/apps/gcc/4.9.2/bin/../lib/gcc/x86_64-unknown-linux-gnu/4.9.2/ -mtune=corei7 -march=x86-64 -g -Og
#
# seed -1353411731 -2050909163  1278870403  -931523048  -608608747  1361645616    82475890  1814475179  1667367049  1628239742   698364649 -1696714970
#
#      Author: C. J. Pickard (cjp20@cam.ac.uk)
#                Space group: C2
#

%BLOCK LATTICE_ABC
      6.97571      8.42765      8.69491
    117.72034     90.00000    114.44744
%ENDBLOCK LATTICE_ABC

%BLOCK POSITIONS_FRAC
  Li  -0.3530860   0.2290088   0.3662620 SPIN=   0.00000
  Li   0.4179052  -0.2290088  -0.3662620 SPIN=   0.00000
  Li   0.1587752   0.4138647  -0.1110429 SPIN=   0.00000
  Li  -0.2550895  -0.4138647   0.1110429 SPIN=   0.00000
  Fe  -0.4232852  -0.4095963  -0.2027646 SPIN=   6.99360
  Fe  -0.0136888   0.4095963   0.2027646 SPIN=   6.99360
  Fe   0.3041382   0.1091407  -0.1486098 SPIN=   1.00640
  Fe   0.1949975  -0.1091407   0.1486098 SPIN=   1.00640
   O   0.4503547  -0.4294666   0.0819373 SPIN=   0.00000
   O   0.4885478  -0.0838414   0.2628824 SPIN=   0.00000
   O   0.6933884  -0.1958001   0.3856696 SPIN=   0.00000
   O   0.2954245  -0.3410430   0.3476214 SPIN=   0.00000
   S   0.4819289  -0.2625378   0.2695277 SPIN=   0.00000
   O  -0.1201787   0.4294666  -0.0819373 SPIN=   0.00000
   O  -0.4276108   0.0838414  -0.2628824 SPIN=   0.00000
   O  -0.1108115   0.1958001  -0.3856696 SPIN=   0.00000
   O  -0.3635325   0.3410430  -0.3476214 SPIN=   0.00000
   S  -0.2555334   0.2625378  -0.2695277 SPIN=   0.00000
   O  -0.3142565  -0.4864713  -0.4931962 SPIN=   0.00000
   O   0.0736881  -0.2734297  -0.3344517 SPIN=   0.00000
   O  -0.1510415  -0.1126459  -0.3408425 SPIN=   0.00000
   O  -0.0517241  -0.3016057  -0.6165683 SPIN=   0.00000
   S  -0.1108335  -0.2935382  -0.4462647 SPIN=   0.00000
   O   0.1722148   0.4864713   0.4931962 SPIN=   0.00000
   O   0.3471178   0.2734297   0.3344517 SPIN=   0.00000
   O  -0.0383955   0.1126459   0.3408425 SPIN=   0.00000
   O   0.2498816   0.3016057   0.6165683 SPIN=   0.00000
   S   0.1827047   0.2935382   0.4462647 SPIN=   0.00000
   F  -0.1334545  -0.2197995   0.0142254 SPIN=   0.00000
   F   0.0863450   0.2197995  -0.0142254 SPIN=   0.00000
   F   0.3615025  -0.2729071  -0.1252591 SPIN=   0.00000
   F  -0.3655904   0.2729071   0.1252591 SPIN=   0.00000
%ENDBLOCK POSITIONS_FRAC

# Note: total spin =  16.00

KPOINTS_MP_SPACING 0.07

%BLOCK SPECIES_POT
QC5
%ENDBLOCK SPECIES_POT

SNAP_TO_SYMMETRY
SYMMETRY_GENERATE

