#              Generated by Buildcell
#
# at 07:03:11 (GMT+1.0) 4th August 2020
# in /lustre/scratch/uccabz1/launch_tmp
# on node-c12c-003
# by uccabz1
#
# compiler GCC version 4.9.2
# options -cpp -iprefix /lustre/shared/ucl/apps/gcc/4.9.2/bin/../lib/gcc/x86_64-unknown-linux-gnu/4.9.2/ -mtune=corei7 -march=x86-64 -g -Og
#
# seed -1998622035   480008317  1363641748 -1750143221  -937440222   539874694  -918659968  -683388256  -897472039  1107705272   -96918348 -1429069608
#
#      Author: C. J. Pickard (cjp20@cam.ac.uk)
#                Space group: P21/c
#

%BLOCK LATTICE_ABC
      6.30410      7.27584      8.72250
     90.00000     90.00000     91.14647
%ENDBLOCK LATTICE_ABC

%BLOCK POSITIONS_FRAC
  Li   0.0000000   0.5000000   0.0000000 SPIN=   0.00000
  Li   0.5000000   0.0000000   0.5000000 SPIN=   0.00000
  Li   0.5000000   0.0000000   0.0000000 SPIN=   0.00000
  Li   0.0000000   0.5000000  -0.5000000 SPIN=   0.00000
  Fe  -0.0000000   0.0000000   0.5000000 SPIN=   5.35513
  Fe  -0.5000000   0.5000000   0.0000000 SPIN=   5.35513
  Fe  -0.0000000   0.0000000   0.0000000 SPIN=   2.64487
  Fe  -0.5000000   0.5000000  -0.5000000 SPIN=   2.64487
   O   0.3620828  -0.2469170   0.4131559 SPIN=   0.00000
   O   0.4593715  -0.2547004   0.1383820 SPIN=   0.00000
   O   0.1996440  -0.0297338   0.2313558 SPIN=   0.00000
   O   0.1018862  -0.3606418   0.2211776 SPIN=   0.00000
   S   0.2807461  -0.2229982   0.2510178 SPIN=   0.00000
   O   0.1379172  -0.2530830  -0.0868441 SPIN=   0.00000
   O   0.0406285  -0.2452996  -0.3616180 SPIN=   0.00000
   O   0.3003560  -0.4702662  -0.2686442 SPIN=   0.00000
   O   0.3981138  -0.1393582  -0.2788224 SPIN=   0.00000
   S   0.2192539  -0.2770018  -0.2489822 SPIN=   0.00000
   O  -0.3620828   0.2469170  -0.4131559 SPIN=   0.00000
   O  -0.4593715   0.2547004  -0.1383820 SPIN=   0.00000
   O  -0.1996440   0.0297338  -0.2313558 SPIN=   0.00000
   O  -0.1018862   0.3606418  -0.2211776 SPIN=   0.00000
   S  -0.2807461   0.2229982  -0.2510178 SPIN=   0.00000
   O  -0.1379172   0.2530830   0.0868441 SPIN=   0.00000
   O  -0.0406285   0.2452996   0.3616180 SPIN=   0.00000
   O  -0.3003560   0.4702662   0.2686442 SPIN=   0.00000
   O  -0.3981138   0.1393582   0.2788224 SPIN=   0.00000
   S  -0.2192539   0.2770018   0.2489822 SPIN=   0.00000
   F   0.2812655   0.2996697   0.0758437 SPIN=   0.00000
   F   0.2187345   0.2003303  -0.4241563 SPIN=   0.00000
   F  -0.2812655  -0.2996697  -0.0758437 SPIN=   0.00000
   F  -0.2187345  -0.2003303   0.4241563 SPIN=   0.00000
%ENDBLOCK POSITIONS_FRAC

# Note: total spin =  16.00

KPOINTS_MP_SPACING 0.07

%BLOCK SPECIES_POT
QC5
%ENDBLOCK SPECIES_POT

SNAP_TO_SYMMETRY
SYMMETRY_GENERATE

