#              Generated by Buildcell
#
# at 01:12:32 (GMT+1.0) 18th August 2020
# in /lustre/scratch/uccabz1/launch_tmp
# on node-c12p-008
# by uccabz1
#
# compiler GCC version 4.9.2
# options -cpp -iprefix /lustre/shared/ucl/apps/gcc/4.9.2/bin/../lib/gcc/x86_64-unknown-linux-gnu/4.9.2/ -mtune=corei7 -march=x86-64 -g -Og
#
# seed  1298153596 -2039119446  1686951835  -233211267  -256387384  1077805083   226363257  -291216786  1643339142  -389666115 -1363672144    80897493
#
#      Author: C. J. Pickard (cjp20@cam.ac.uk)
#                Space group: Pba2
#

%BLOCK LATTICE_ABC
      6.62147      7.58348      7.96595
     90.00000     90.00000     90.00000
%ENDBLOCK LATTICE_ABC

%BLOCK POSITIONS_FRAC
  Li   0.0966734  -0.1657531  -0.3201929 SPIN=   0.00000
  Li   0.0966734   0.1657531   0.3201929 SPIN=   0.00000
  Li   0.0966734   0.3342469  -0.1798071 SPIN=   0.00000
  Li   0.0966734  -0.3342469   0.1798071 SPIN=   0.00000
  Fe   0.4274489   0.0775885  -0.2235191 SPIN=   4.00000
  Fe   0.4274489  -0.0775885   0.2235191 SPIN=   4.00000
  Fe   0.4274489  -0.4224115  -0.2764809 SPIN=   4.00000
  Fe   0.4274489   0.4224115   0.2764809 SPIN=   4.00000
   O  -0.0723706   0.1417371  -0.0563155 SPIN=   0.00000
   O  -0.2106783   0.1386663   0.2322980 SPIN=   0.00000
   O  -0.3828438   0.3096776   0.0097238 SPIN=   0.00000
   O  -0.0528004   0.4099218   0.1199689 SPIN=   0.00000
   S  -0.1796733   0.2500007   0.0764188 SPIN=   0.00000
   O  -0.0723706  -0.1417371   0.0563155 SPIN=   0.00000
   O  -0.2106783  -0.1386663  -0.2322980 SPIN=   0.00000
   O  -0.3828438  -0.3096776  -0.0097238 SPIN=   0.00000
   O  -0.0528004  -0.4099218  -0.1199689 SPIN=   0.00000
   S  -0.1796733  -0.2500007  -0.0764188 SPIN=   0.00000
   O  -0.0723706  -0.3582629   0.5563155 SPIN=   0.00000
   O  -0.2106783  -0.3613337   0.2677020 SPIN=   0.00000
   O  -0.3828438  -0.1903224   0.4902762 SPIN=   0.00000
   O  -0.0528004  -0.0900782   0.3800311 SPIN=   0.00000
   S  -0.1796733  -0.2499993   0.4235812 SPIN=   0.00000
   O  -0.0723706   0.3582629  -0.5563155 SPIN=   0.00000
   O  -0.2106783   0.3613337  -0.2677020 SPIN=   0.00000
   O  -0.3828438   0.1903224  -0.4902762 SPIN=   0.00000
   O  -0.0528004   0.0900782  -0.3800311 SPIN=   0.00000
   S  -0.1796733   0.2499993  -0.4235812 SPIN=   0.00000
   F   0.3733507   0.1555193   0.2713212 SPIN=   0.00000
   F   0.3733507  -0.1555193  -0.2713212 SPIN=   0.00000
   F   0.3733507  -0.3444807   0.2286788 SPIN=   0.00000
   F   0.3733507   0.3444807  -0.2286788 SPIN=   0.00000
%ENDBLOCK POSITIONS_FRAC

# Note: total spin =  16.00

KPOINTS_MP_SPACING 0.07

%BLOCK SPECIES_POT
QC5
%ENDBLOCK SPECIES_POT

SNAP_TO_SYMMETRY
SYMMETRY_GENERATE

