#              Generated by Buildcell
#
# at 11:00:13 (GMT+1.0) 4th August 2020
# in /lustre/scratch/uccabz1/launch_tmp
# on node-c12h-031
# by uccabz1
#
# compiler GCC version 4.9.2
# options -cpp -iprefix /lustre/shared/ucl/apps/gcc/4.9.2/bin/../lib/gcc/x86_64-unknown-linux-gnu/4.9.2/ -mtune=corei7 -march=x86-64 -g -Og
#
# seed -1813454985   830273856 -2062411165 -1214824872   186849509  -504750361 -2019346986  1278193283  -183904920   136021671  -802383543 -1501863157
#
#      Author: C. J. Pickard (cjp20@cam.ac.uk)
#                Space group: Cc
#

%BLOCK LATTICE_ABC
      7.51772      7.72997      7.72997
     93.80347    107.95493    107.95493
%ENDBLOCK LATTICE_ABC

%BLOCK POSITIONS_FRAC
  Li  -0.2544373   0.1734167   0.4888621 SPIN=   0.00000
  Li   0.2455627   0.4888621   0.1734167 SPIN=   0.00000
  Li  -0.3149017  -0.3024695  -0.3706353 SPIN=   0.00000
  Li   0.1850983  -0.3706353  -0.3024695 SPIN=   0.00000
  Fe  -0.1991298   0.3810369  -0.1231232 SPIN=   5.05600
  Fe   0.3008702  -0.1231232   0.3810369 SPIN=   5.05600
  Fe  -0.2658575  -0.2528442   0.1768263 SPIN=   2.94400
  Fe   0.2341425   0.1768263  -0.2528442 SPIN=   2.94400
   O  -0.5889411   0.3236970   0.0036452 SPIN=   0.00000
   O  -0.2577791   0.3493135   0.2204115 SPIN=   0.00000
   O  -0.5623235   0.1151522   0.2324213 SPIN=   0.00000
   O  -0.4906570   0.4471193   0.3359642 SPIN=   0.00000
   S  -0.4749252   0.3088205   0.1981105 SPIN=   0.00000
   O  -0.0889411   0.0036452   0.3236970 SPIN=   0.00000
   O   0.2422209   0.2204115   0.3493135 SPIN=   0.00000
   O  -0.0623235   0.2324213   0.1151522 SPIN=   0.00000
   O   0.0093430   0.3359642   0.4471193 SPIN=   0.00000
   S   0.0250748   0.1981105   0.3088205 SPIN=   0.00000
   O   0.0351767  -0.1397387  -0.2546817 SPIN=   0.00000
   O   0.0752671   0.0106769   0.0544754 SPIN=   0.00000
   O   0.2104774  -0.2397611   0.0258263 SPIN=   0.00000
   O  -0.1542156  -0.3116634  -0.0714813 SPIN=   0.00000
   S   0.0416764  -0.1701216  -0.0614653 SPIN=   0.00000
   O  -0.4648233  -0.2546817  -0.1397387 SPIN=   0.00000
   O  -0.4247329   0.0544754   0.0106769 SPIN=   0.00000
   O  -0.2895226   0.0258263  -0.2397611 SPIN=   0.00000
   O  -0.6542156  -0.0714813  -0.3116634 SPIN=   0.00000
   S  -0.4583236  -0.0614653  -0.1701216 SPIN=   0.00000
   F   0.0548456   0.3203058  -0.1547509 SPIN=   0.00000
   F  -0.4451544  -0.1547509   0.3203058 SPIN=   0.00000
   F  -0.4556948   0.4505496  -0.3182214 SPIN=   0.00000
   F   0.0443052  -0.3182214   0.4505496 SPIN=   0.00000
%ENDBLOCK POSITIONS_FRAC

# Note: total spin =  16.00

KPOINTS_MP_SPACING 0.07

%BLOCK SPECIES_POT
QC5
%ENDBLOCK SPECIES_POT

SNAP_TO_SYMMETRY
SYMMETRY_GENERATE

