#              Generated by Buildcell
#
# at 07:18:54 (GMT+1.0) 4th August 2020
# in /lustre/scratch/uccabz1/launch_tmp
# on node-c12p-011
# by uccabz1
#
# compiler GCC version 4.9.2
# options -cpp -iprefix /lustre/shared/ucl/apps/gcc/4.9.2/bin/../lib/gcc/x86_64-unknown-linux-gnu/4.9.2/ -mtune=corei7 -march=x86-64 -g -Og
#
# seed -1700363082 -1860337093  -976411662  -937247335 -1817194272  1293191575   382471521 -1676929234 -1950996025  1266269651  -898890671  -165980231
#
#      Author: C. J. Pickard (cjp20@cam.ac.uk)
#                Space group: Aea2
#

%BLOCK LATTICE_ABC
      5.07906      5.07906     15.52216
     90.00000     90.00000     92.63568
%ENDBLOCK LATTICE_ABC

%BLOCK POSITIONS_FRAC
  Li   0.2646656   0.2473426  -0.1791221 SPIN=   0.00000
  Li  -0.2473426  -0.2646656   0.1791221 SPIN=   0.00000
  Li   0.2526574   0.2353344   0.3208779 SPIN=   0.00000
  Li  -0.2353344  -0.2526574  -0.3208779 SPIN=   0.00000
  Fe  -0.4756923  -0.2523912   0.3522237 SPIN=   4.00000
  Fe   0.2523912   0.4756923  -0.3522237 SPIN=   4.00000
  Fe  -0.2476088  -0.0243077  -0.1477763 SPIN=   4.00000
  Fe   0.0243077   0.2476088   0.1477763 SPIN=   4.00000
   O  -0.2199483   0.1116290  -0.4281617 SPIN=   0.00000
   O  -0.4718039  -0.3153246  -0.4412527 SPIN=   0.00000
   O  -0.5390738   0.0392939  -0.5472609 SPIN=   0.00000
   O  -0.6986460   0.0844451  -0.3975746 SPIN=   0.00000
   S  -0.4823680  -0.0199891  -0.4535625 SPIN=   0.00000
   O  -0.1116290   0.2199483   0.4281617 SPIN=   0.00000
   O   0.3153246   0.4718039   0.4412527 SPIN=   0.00000
   O  -0.0392939   0.5390738   0.5472609 SPIN=   0.00000
   O  -0.0844451   0.6986460   0.3975746 SPIN=   0.00000
   S   0.0199891   0.4823680   0.4535625 SPIN=   0.00000
   O  -0.6116290  -0.2800517   0.0718383 SPIN=   0.00000
   O  -0.1846754  -0.0281961   0.0587473 SPIN=   0.00000
   O  -0.5392939   0.0390738  -0.0472609 SPIN=   0.00000
   O  -0.5844451   0.1986460   0.1024254 SPIN=   0.00000
   S  -0.4800109  -0.0176320   0.0464375 SPIN=   0.00000
   O   0.2800517   0.6116290  -0.0718383 SPIN=   0.00000
   O   0.0281961   0.1846754  -0.0587473 SPIN=   0.00000
   O  -0.0390738   0.5392939   0.0472609 SPIN=   0.00000
   O  -0.1986460   0.5844451  -0.1024254 SPIN=   0.00000
   S   0.0176320   0.4800109  -0.0464375 SPIN=   0.00000
   F  -0.4061324   0.2008803  -0.2252507 SPIN=   0.00000
   F  -0.2008803   0.4061324   0.2252507 SPIN=   0.00000
   F   0.2991197  -0.0938676   0.2747493 SPIN=   0.00000
   F   0.0938676  -0.2991197  -0.2747493 SPIN=   0.00000
%ENDBLOCK POSITIONS_FRAC

# Note: total spin =  16.00

KPOINTS_MP_SPACING 0.07

%BLOCK SPECIES_POT
QC5
%ENDBLOCK SPECIES_POT

SNAP_TO_SYMMETRY
SYMMETRY_GENERATE

