#              Generated by Buildcell
#
# at 15:03:58 (GMT+1.0) 18th August 2020
# in /lustre/scratch/uccabz1/launch_tmp
# on node-c12f-018
# by uccabz1
#
# compiler GCC version 4.9.2
# options -cpp -iprefix /lustre/shared/ucl/apps/gcc/4.9.2/bin/../lib/gcc/x86_64-unknown-linux-gnu/4.9.2/ -mtune=corei7 -march=x86-64 -g -Og
#
# seed  1115228268  -301295396  -793775452  -792637429  1883148914 -1679717583 -1347605960   612631159 -1987705365  2082084041 -1573685788  -117145056
#
#      Author: C. J. Pickard (cjp20@cam.ac.uk)
#                Space group: P41
#

%BLOCK LATTICE_ABC
      6.79130      7.67456      7.67456
     90.00000     90.00000     90.00000
%ENDBLOCK LATTICE_ABC

%BLOCK POSITIONS_FRAC
  Li   0.3023124   0.1966168   0.4131049 SPIN=   0.00000
  Li  -0.1976876  -0.1966168  -0.4131049 SPIN=   0.00000
  Li   0.0523124  -0.4131049   0.1966168 SPIN=   0.00000
  Li  -0.4476876   0.4131049  -0.1966168 SPIN=   0.00000
  Fe   0.4339729  -0.0144314  -0.2917010 SPIN=   4.00000
  Fe  -0.0660271   0.0144314   0.2917010 SPIN=   4.00000
  Fe   0.1839729   0.2917010  -0.0144314 SPIN=   4.00000
  Fe  -0.3160271  -0.2917010   0.0144314 SPIN=   4.00000
   O  -0.5833784   0.4106690   0.1417328 SPIN=   0.00000
   O  -0.2204365   0.3896606   0.1217481 SPIN=   0.00000
   O  -0.4164276   0.1316689   0.2074947 SPIN=   0.00000
   O  -0.3837615   0.3810479   0.4098961 SPIN=   0.00000
   S  -0.4010010   0.3282616   0.2202179 SPIN=   0.00000
   O  -0.0833784  -0.4106690  -0.1417328 SPIN=   0.00000
   O   0.2795635  -0.3896606  -0.1217481 SPIN=   0.00000
   O   0.0835724  -0.1316689  -0.2074947 SPIN=   0.00000
   O   0.1162385  -0.3810479  -0.4098961 SPIN=   0.00000
   S   0.0989990  -0.3282616  -0.2202179 SPIN=   0.00000
   O   0.1666216  -0.1417328   0.4106690 SPIN=   0.00000
   O   0.5295635  -0.1217481   0.3896606 SPIN=   0.00000
   O   0.3335724  -0.2074947   0.1316689 SPIN=   0.00000
   O   0.3662385  -0.4098961   0.3810479 SPIN=   0.00000
   S   0.3489990  -0.2202179   0.3282616 SPIN=   0.00000
   O  -0.3333784   0.1417328  -0.4106690 SPIN=   0.00000
   O   0.0295635   0.1217481  -0.3896606 SPIN=   0.00000
   O  -0.1664276   0.2074947  -0.1316689 SPIN=   0.00000
   O  -0.1337615   0.4098961  -0.3810479 SPIN=   0.00000
   S  -0.1510010   0.2202179  -0.3282616 SPIN=   0.00000
   F  -0.4016818  -0.2394349  -0.2417663 SPIN=   0.00000
   F   0.0983182   0.2394349   0.2417663 SPIN=   0.00000
   F   0.3483182   0.2417663  -0.2394349 SPIN=   0.00000
   F  -0.1516818  -0.2417663   0.2394349 SPIN=   0.00000
%ENDBLOCK POSITIONS_FRAC

# Note: total spin =  16.00

KPOINTS_MP_SPACING 0.07

%BLOCK SPECIES_POT
QC5
%ENDBLOCK SPECIES_POT

SNAP_TO_SYMMETRY
SYMMETRY_GENERATE

