#              Generated by Buildcell
#
# at 09:25:23 (GMT+1.0) 18th August 2020
# in /lustre/scratch/uccabz1/launch_tmp
# on node-c12i-005
# by uccabz1
#
# compiler GCC version 4.9.2
# options -cpp -iprefix /lustre/shared/ucl/apps/gcc/4.9.2/bin/../lib/gcc/x86_64-unknown-linux-gnu/4.9.2/ -mtune=corei7 -march=x86-64 -g -Og
#
# seed  2036556806  -798838498   -96651013  1970534828  1252792646   928551817  -196226293  -266512395 -1386578378   483646381   479613194  1122769819
#
#      Author: C. J. Pickard (cjp20@cam.ac.uk)
#                Space group: Pc
#

%BLOCK LATTICE_ABC
      6.50668      7.79266      8.74890
    115.61779     90.00000     90.00000
%ENDBLOCK LATTICE_ABC

%BLOCK POSITIONS_FRAC
  Li  -0.1631654  -0.0267430   0.4857869 SPIN=   0.00000
  Li   0.1631654   0.4732570  -0.0142131 SPIN=   0.00000
  Li   0.3849947   0.3297411   0.3678520 SPIN=   0.00000
  Li  -0.3849947  -0.1702589  -0.1321480 SPIN=   0.00000
  Fe   0.0197849  -0.3774780  -0.4588637 SPIN=   3.71879
  Fe  -0.0197849   0.1225220   0.0411363 SPIN=   3.71879
  Fe  -0.2399224  -0.3164691   0.1212970 SPIN=   4.28121
  Fe   0.2399224   0.1835309  -0.3787030 SPIN=   4.28121
   O   0.3918948   0.2384527  -0.1363006 SPIN=   0.00000
   O   0.6691821   0.3738423   0.0760532 SPIN=   0.00000
   O   0.4915131   0.0791840   0.0435455 SPIN=   0.00000
   O   0.3081597   0.3876360   0.1697193 SPIN=   0.00000
   S   0.4651874   0.2697788   0.0382543 SPIN=   0.00000
   O  -0.3918948  -0.2615473  -0.6363006 SPIN=   0.00000
   O  -0.6691821  -0.1261577  -0.4239468 SPIN=   0.00000
   O  -0.4915131  -0.4208160  -0.4564545 SPIN=   0.00000
   O  -0.3081597  -0.1123640  -0.3302807 SPIN=   0.00000
   S  -0.4651874  -0.2302212  -0.4617457 SPIN=   0.00000
   O   0.0795566  -0.1822410   0.0596204 SPIN=   0.00000
   O   0.4543635  -0.2418094   0.0311944 SPIN=   0.00000
   O   0.2627148  -0.2692802   0.2639626 SPIN=   0.00000
   O   0.3182614   0.0471406   0.2686407 SPIN=   0.00000
   S   0.2787241  -0.1615475   0.1558545 SPIN=   0.00000
   O  -0.0795566   0.3177590  -0.4403796 SPIN=   0.00000
   O  -0.4543635   0.2581906  -0.4688056 SPIN=   0.00000
   O  -0.2627148   0.2307198  -0.2360374 SPIN=   0.00000
   O  -0.3182614   0.5471406  -0.2313593 SPIN=   0.00000
   S  -0.2787241   0.3384525  -0.3441455 SPIN=   0.00000
   F  -0.2212249   0.0352835   0.2192068 SPIN=   0.00000
   F   0.2212249  -0.4647165  -0.2807932 SPIN=   0.00000
   F   0.0398929   0.0347845  -0.2189825 SPIN=   0.00000
   F  -0.0398929  -0.4652155   0.2810175 SPIN=   0.00000
%ENDBLOCK POSITIONS_FRAC

# Note: total spin =  16.00

KPOINTS_MP_SPACING 0.07

%BLOCK SPECIES_POT
QC5
%ENDBLOCK SPECIES_POT

SNAP_TO_SYMMETRY
SYMMETRY_GENERATE

