#              Generated by Buildcell
#
# at 07:45:47 (GMT+1.0) 18th August 2020
# in /scratch/scratch/uccabz1/launch_tmp
# on node-k10h-025
# by uccabz1
#
# compiler GCC version 4.9.2
# options -cpp -iprefix /scratch/UCL/applications/gcc/4.9.2/bin/../lib/gcc/x86_64-unknown-linux-gnu/4.9.2/ -mtune=corei7 -march=x86-64 -g -O2
#
# seed   296912572  -315679869  1172437826  -234394536 -1509601084  1183563876  -325475169   177842033  1109877881  1823211018 -2067875127 -2106235157
#
#      Author: C. J. Pickard (cjp20@cam.ac.uk)
#                Space group: Pna21
#

%BLOCK LATTICE_ABC
      4.36864      9.46122      9.67758
     90.00000     90.00000     90.00000
%ENDBLOCK LATTICE_ABC

%BLOCK POSITIONS_FRAC
  Li  -0.2533511  -0.4302740  -0.3062360 SPIN=   0.00000
  Li   0.2533511   0.0697260   0.3062360 SPIN=   0.00000
  Li  -0.2466489  -0.4302740   0.1937640 SPIN=   0.00000
  Li   0.2466489   0.0697260  -0.1937640 SPIN=   0.00000
  Fe   0.2533533  -0.2169156   0.1792944 SPIN=   4.00000
  Fe  -0.2533533   0.2830844  -0.1792944 SPIN=   4.00000
  Fe   0.2466467  -0.2169156  -0.3207056 SPIN=   4.00000
  Fe  -0.2466467   0.2830844   0.3207056 SPIN=   4.00000
   O   0.1337316   0.0772357  -0.4757654 SPIN=   0.00000
   O   0.2148836   0.2540901  -0.2909338 SPIN=   0.00000
   O   0.0753317   0.3321438  -0.5267467 SPIN=   0.00000
   O   0.5894858   0.2324886  -0.4816105 SPIN=   0.00000
   S   0.2533582   0.2239895  -0.4437641 SPIN=   0.00000
   O  -0.1337316  -0.4227643   0.4757654 SPIN=   0.00000
   O  -0.2148836  -0.2459099   0.2909338 SPIN=   0.00000
   O  -0.0753317  -0.1678562   0.5267467 SPIN=   0.00000
   O  -0.5894858  -0.2675114   0.4816105 SPIN=   0.00000
   S  -0.2533582  -0.2760105   0.4437641 SPIN=   0.00000
   O   0.3662684   0.0772357   0.0242346 SPIN=   0.00000
   O   0.2851164   0.2540901   0.2090662 SPIN=   0.00000
   O   0.4246683   0.3321438  -0.0267467 SPIN=   0.00000
   O  -0.0894858   0.2324886   0.0183895 SPIN=   0.00000
   S   0.2466418   0.2239895   0.0562359 SPIN=   0.00000
   O  -0.3662684  -0.4227643  -0.0242346 SPIN=   0.00000
   O  -0.2851164  -0.2459099  -0.2090662 SPIN=   0.00000
   O  -0.4246683  -0.1678562   0.0267467 SPIN=   0.00000
   O   0.0894858  -0.2675114  -0.0183895 SPIN=   0.00000
   S  -0.2466418  -0.2760105  -0.0562359 SPIN=   0.00000
   F  -0.2533588   0.0588465   0.2889414 SPIN=   0.00000
   F   0.2533588  -0.4411535  -0.2889414 SPIN=   0.00000
   F  -0.2466412   0.0588465  -0.2110586 SPIN=   0.00000
   F   0.2466412  -0.4411535   0.2110586 SPIN=   0.00000
%ENDBLOCK POSITIONS_FRAC

# Note: total spin =  16.00

KPOINTS_MP_SPACING 0.07

%BLOCK SPECIES_POT
QC5
%ENDBLOCK SPECIES_POT

SNAP_TO_SYMMETRY
SYMMETRY_GENERATE

