#              Generated by Buildcell
#
# at 08:28:27 (GMT+1.0) 18th August 2020
# in /lustre/scratch/uccabz1/launch_tmp
# on node-c12f-003
# by uccabz1
#
# compiler GCC version 4.9.2
# options -cpp -iprefix /lustre/shared/ucl/apps/gcc/4.9.2/bin/../lib/gcc/x86_64-unknown-linux-gnu/4.9.2/ -mtune=corei7 -march=x86-64 -g -Og
#
# seed  2038182991  1357442430  1042543374 -1981486353   -21523949   367242504 -1264619139 -1909190332  1167123632   124693344  -619633431   377605657
#
#      Author: C. J. Pickard (cjp20@cam.ac.uk)
#                Space group: P21
#

%BLOCK LATTICE_ABC
      6.69873      6.86601      9.24718
     90.00000     90.00000    109.86616
%ENDBLOCK LATTICE_ABC

%BLOCK POSITIONS_FRAC
  Li  -0.4642246  -0.3807004  -0.2306204 SPIN=   0.00000
  Li   0.4642246   0.3807004   0.2693796 SPIN=   0.00000
  Li   0.1704681  -0.0183067  -0.2149568 SPIN=   0.00000
  Li  -0.1704681   0.0183067   0.2850432 SPIN=   0.00000
  Fe  -0.2436448  -0.3406071   0.4847832 SPIN=   3.07933
  Fe   0.2436448   0.3406071  -0.0152168 SPIN=   3.07933
  Fe  -0.1586916  -0.2057844   0.0101484 SPIN=   4.92067
  Fe   0.1586916   0.2057844  -0.4898516 SPIN=   4.92067
   O  -0.2918124   0.2828405   0.2252378 SPIN=   0.00000
   O  -0.0103611   0.5054351   0.3853805 SPIN=   0.00000
   O  -0.0383193   0.6124820   0.1327798 SPIN=   0.00000
   O   0.0833896   0.3168636   0.1830197 SPIN=   0.00000
   S  -0.0642758   0.4294053   0.2316045 SPIN=   0.00000
   O   0.2918124  -0.2828405  -0.2747622 SPIN=   0.00000
   O   0.0103611  -0.5054351  -0.1146195 SPIN=   0.00000
   O   0.0383193  -0.6124820  -0.3672202 SPIN=   0.00000
   O  -0.0833896  -0.3168636  -0.3169803 SPIN=   0.00000
   S   0.0642758  -0.4294053  -0.2683955 SPIN=   0.00000
   O  -0.2927029   0.3650230  -0.4410147 SPIN=   0.00000
   O  -0.2170941   0.0391873  -0.4079766 SPIN=   0.00000
   O  -0.4700006   0.0623536  -0.5967255 SPIN=   0.00000
   O  -0.5673044   0.0565957  -0.3381780 SPIN=   0.00000
   S  -0.3867755   0.1307899  -0.4459737 SPIN=   0.00000
   O   0.2927029  -0.3650230   0.0589853 SPIN=   0.00000
   O   0.2170941  -0.0391873   0.0920234 SPIN=   0.00000
   O   0.4700006  -0.0623536  -0.0967255 SPIN=   0.00000
   O   0.5673044  -0.0565957   0.1618220 SPIN=   0.00000
   S   0.3867755  -0.1307899   0.0540263 SPIN=   0.00000
   F  -0.4446584   0.4196008  -0.0640963 SPIN=   0.00000
   F   0.4446584  -0.4196008   0.4359037 SPIN=   0.00000
   F   0.0756575  -0.0410358   0.3868414 SPIN=   0.00000
   F  -0.0756575   0.0410358  -0.1131586 SPIN=   0.00000
%ENDBLOCK POSITIONS_FRAC

# Note: total spin =  16.00

KPOINTS_MP_SPACING 0.07

%BLOCK SPECIES_POT
QC5
%ENDBLOCK SPECIES_POT

SNAP_TO_SYMMETRY
SYMMETRY_GENERATE

