#              Generated by Buildcell
#
# at 08:26:30 (GMT+1.0) 4th August 2020
# in /lustre/scratch/uccabz1/launch_tmp
# on node-c12m-023
# by uccabz1
#
# compiler GCC version 4.9.2
# options -cpp -iprefix /lustre/shared/ucl/apps/gcc/4.9.2/bin/../lib/gcc/x86_64-unknown-linux-gnu/4.9.2/ -mtune=corei7 -march=x86-64 -g -Og
#
# seed -1942578989   383617781  1058081986 -1128832050  2088166597  1526791835   782502300 -1775622583  1301561846  1109232534   817900529  1133360002
#
#      Author: C. J. Pickard (cjp20@cam.ac.uk)
#                Space group: Cc
#

%BLOCK LATTICE_ABC
      5.77248      8.37097      8.37097
     84.83602     84.96803     84.96803
%ENDBLOCK LATTICE_ABC

%BLOCK POSITIONS_FRAC
  Li   0.4252927  -0.2954663   0.4674168 SPIN=   0.00000
  Li  -0.0747073   0.4674168  -0.2954663 SPIN=   0.00000
  Li  -0.1885791   0.4259032   0.1747325 SPIN=   0.00000
  Li   0.3114209   0.1747325   0.4259032 SPIN=   0.00000
  Fe   0.1253853  -0.1087726   0.2098987 SPIN=   3.07093
  Fe  -0.3746147   0.2098987  -0.1087726 SPIN=   3.07093
  Fe  -0.1794954  -0.1515367  -0.3835757 SPIN=   4.92907
  Fe   0.3205046  -0.3835757  -0.1515367 SPIN=   4.92907
   O  -0.0715010   0.3602172   0.5029303 SPIN=   0.00000
   O   0.0139327   0.1182013   0.3517855 SPIN=   0.00000
   O  -0.3822171   0.2582885   0.3633840 SPIN=   0.00000
   O  -0.2382287   0.1049994   0.6066907 SPIN=   0.00000
   S  -0.1695035   0.2104266   0.4561976 SPIN=   0.00000
   O   0.4284990   0.5029303   0.3602172 SPIN=   0.00000
   O   0.5139327   0.3517855   0.1182013 SPIN=   0.00000
   O   0.1177829   0.3633840   0.2582885 SPIN=   0.00000
   O   0.2617713   0.6066907   0.1049994 SPIN=   0.00000
   S   0.3304965   0.4561976   0.2104266 SPIN=   0.00000
   O  -0.3382691  -0.4348390  -0.0232245 SPIN=   0.00000
   O  -0.1085442  -0.2905960   0.1454013 SPIN=   0.00000
   O  -0.3921542  -0.1379421  -0.0275529 SPIN=   0.00000
   O  -0.0270613  -0.2690758  -0.1506413 SPIN=   0.00000
   S  -0.2165072  -0.2831132  -0.0140043 SPIN=   0.00000
   O   0.1617309  -0.0232245  -0.4348390 SPIN=   0.00000
   O   0.3914558   0.1454013  -0.2905960 SPIN=   0.00000
   O   0.1078458  -0.0275529  -0.1379421 SPIN=   0.00000
   O   0.4729387  -0.1506413  -0.2690758 SPIN=   0.00000
   S   0.2834928  -0.0140043  -0.2831132 SPIN=   0.00000
   F   0.4383736  -0.0053325   0.2464038 SPIN=   0.00000
   F  -0.0616264   0.2464038  -0.0053325 SPIN=   0.00000
   F  -0.0558622  -0.2866111   0.4626430 SPIN=   0.00000
   F   0.4441378   0.4626430  -0.2866111 SPIN=   0.00000
%ENDBLOCK POSITIONS_FRAC

# Note: total spin =  16.00

KPOINTS_MP_SPACING 0.07

%BLOCK SPECIES_POT
QC5
%ENDBLOCK SPECIES_POT

SNAP_TO_SYMMETRY
SYMMETRY_GENERATE

