#              Generated by Buildcell
#
# at 09:18:46 (GMT+1.0) 4th August 2020
# in /lustre/scratch/uccabz1/launch_tmp
# on node-c12c-026
# by uccabz1
#
# compiler GCC version 4.9.2
# options -cpp -iprefix /lustre/shared/ucl/apps/gcc/4.9.2/bin/../lib/gcc/x86_64-unknown-linux-gnu/4.9.2/ -mtune=corei7 -march=x86-64 -g -Og
#
# seed  -285910776 -1334453021  -288793756    45349517  -338298280  -265253043  -533925918  -709548827  1423426147    -1150496  -637694001 -1993734540
#
#      Author: C. J. Pickard (cjp20@cam.ac.uk)
#                Space group: P-1
#

%BLOCK LATTICE_ABC
      6.83615      7.46732      8.03598
    100.17484     91.14602     97.42044
%ENDBLOCK LATTICE_ABC

%BLOCK POSITIONS_FRAC
  Li   0.4526811  -0.4349420  -0.2596586 SPIN=   0.00000
  Li  -0.4526811   0.4349420   0.2596586 SPIN=   0.00000
  Li  -0.1561478  -0.0798047   0.1452261 SPIN=   0.00000
  Li   0.1561478   0.0798047  -0.1452261 SPIN=   0.00000
  Fe  -0.1289986   0.2702353  -0.2883027 SPIN=   4.49855
  Fe   0.1289986  -0.2702353   0.2883027 SPIN=   4.49855
  Fe   0.3587570   0.1932636  -0.4270420 SPIN=   3.50145
  Fe  -0.3587570  -0.1932636   0.4270420 SPIN=   3.50145
   O   0.1181145   0.0366553   0.1923834 SPIN=   0.00000
   O   0.4287637   0.2169482   0.3252221 SPIN=   0.00000
   O   0.3390761   0.2191109   0.0257484 SPIN=   0.00000
   O   0.4397639  -0.0609308   0.1079667 SPIN=   0.00000
   S   0.3314296   0.1029459   0.1628302 SPIN=   0.00000
   O  -0.1181145  -0.0366553  -0.1923834 SPIN=   0.00000
   O  -0.4287637  -0.2169482  -0.3252221 SPIN=   0.00000
   O  -0.3390761  -0.2191109  -0.0257484 SPIN=   0.00000
   O  -0.4397639   0.0609308  -0.1079667 SPIN=   0.00000
   S  -0.3314296  -0.1029459  -0.1628302 SPIN=   0.00000
   O   0.0131290  -0.3430929  -0.2987305 SPIN=   0.00000
   O   0.3302169  -0.2428709  -0.1341290 SPIN=   0.00000
   O   0.1182539  -0.5244059  -0.0914286 SPIN=   0.00000
   O   0.0143565  -0.2195072   0.0081116 SPIN=   0.00000
   S   0.1189891  -0.3324692  -0.1290441 SPIN=   0.00000
   O  -0.0131290   0.3430929   0.2987305 SPIN=   0.00000
   O  -0.3302169   0.2428709   0.1341290 SPIN=   0.00000
   O  -0.1182539   0.5244059   0.0914286 SPIN=   0.00000
   O  -0.0143565   0.2195072  -0.0081116 SPIN=   0.00000
   S  -0.1189891   0.3324692   0.1290441 SPIN=   0.00000
   F   0.2472622  -0.0251224  -0.3794137 SPIN=   0.00000
   F  -0.2472622   0.0251224   0.3794137 SPIN=   0.00000
   F   0.3293154  -0.4091800   0.2312244 SPIN=   0.00000
   F  -0.3293154   0.4091800  -0.2312244 SPIN=   0.00000
%ENDBLOCK POSITIONS_FRAC

# Note: total spin =  16.00

KPOINTS_MP_SPACING 0.07

%BLOCK SPECIES_POT
QC5
%ENDBLOCK SPECIES_POT

SNAP_TO_SYMMETRY
SYMMETRY_GENERATE

