#              Generated by Buildcell
#
# at 01:34:28 (GMT+1.0) 18th August 2020
# in /lustre/scratch/uccabz1/launch_tmp
# on node-c12h-021
# by uccabz1
#
# compiler GCC version 4.9.2
# options -cpp -iprefix /lustre/shared/ucl/apps/gcc/4.9.2/bin/../lib/gcc/x86_64-unknown-linux-gnu/4.9.2/ -mtune=corei7 -march=x86-64 -g -Og
#
# seed   109859902  1070957537 -2074078472  -809673968   688164419  -832619862  -267219049 -1780519543 -1444297046  1874371361   104752632  -271007479
#
#      Author: C. J. Pickard (cjp20@cam.ac.uk)
#                Space group: C2
#

%BLOCK LATTICE_ABC
      6.86428      8.22411      8.22411
    105.53424    105.71363    105.71363
%ENDBLOCK LATTICE_ABC

%BLOCK POSITIONS_FRAC
  Li  -0.1877030  -0.0576231   0.2536443 SPIN=   0.00000
  Li   0.1877030  -0.2536443   0.0576231 SPIN=   0.00000
  Li  -0.2345687   0.3252906   0.0652383 SPIN=   0.00000
  Li   0.2345687  -0.0652383  -0.3252906 SPIN=   0.00000
  Fe  -0.2997256  -0.0552625  -0.1182098 SPIN=   4.34692
  Fe   0.2997256   0.1182098   0.0552625 SPIN=   4.34692
  Fe  -0.4791045   0.0055980   0.4487203 SPIN=   3.65308
  Fe   0.4791045  -0.4487203  -0.0055980 SPIN=   3.65308
   O   0.1346620   0.2161074  -0.2799285 SPIN=   0.00000
   O   0.1854603   0.0491481  -0.5543136 SPIN=   0.00000
   O   0.3275564   0.3853140  -0.4332260 SPIN=   0.00000
   O  -0.0699685   0.2116383  -0.5804282 SPIN=   0.00000
   S   0.1444276   0.2155520  -0.4619741 SPIN=   0.00000
   O  -0.1346620   0.2799285  -0.2161074 SPIN=   0.00000
   O  -0.1854603   0.5543136  -0.0491481 SPIN=   0.00000
   O  -0.3275564   0.4332260  -0.3853140 SPIN=   0.00000
   O   0.0699685   0.5804282  -0.2116383 SPIN=   0.00000
   S  -0.1444276   0.4619741  -0.2155520 SPIN=   0.00000
   O  -0.3579864  -0.3240672   0.5472467 SPIN=   0.00000
   O  -0.2850400  -0.3752356   0.2627115 SPIN=   0.00000
   O   0.0025254  -0.3254820   0.5485929 SPIN=   0.00000
   O  -0.1062954  -0.0712212   0.5081665 SPIN=   0.00000
   S  -0.1866991  -0.2740015   0.4666794 SPIN=   0.00000
   O   0.3579864  -0.5472467   0.3240672 SPIN=   0.00000
   O   0.2850400  -0.2627115   0.3752356 SPIN=   0.00000
   O  -0.0025254  -0.5485929   0.3254820 SPIN=   0.00000
   O   0.1062954  -0.5081665   0.0712212 SPIN=   0.00000
   S   0.1866991  -0.4666794   0.2740015 SPIN=   0.00000
   F  -0.4563831  -0.0085917  -0.3325084 SPIN=   0.00000
   F   0.4563831   0.3325084   0.0085917 SPIN=   0.00000
   F  -0.3755554  -0.2273790  -0.0165645 SPIN=   0.00000
   F   0.3755554   0.0165645   0.2273790 SPIN=   0.00000
%ENDBLOCK POSITIONS_FRAC

# Note: total spin =  16.00

KPOINTS_MP_SPACING 0.07

%BLOCK SPECIES_POT
QC5
%ENDBLOCK SPECIES_POT

SNAP_TO_SYMMETRY
SYMMETRY_GENERATE

