#              Generated by Buildcell
#
# at 08:15:11 (GMT+1.0) 18th August 2020
# in /lustre/scratch/uccabz1/launch_tmp
# on node-c12g-033
# by uccabz1
#
# compiler GCC version 4.9.2
# options -cpp -iprefix /lustre/shared/ucl/apps/gcc/4.9.2/bin/../lib/gcc/x86_64-unknown-linux-gnu/4.9.2/ -mtune=corei7 -march=x86-64 -g -Og
#
# seed   566820770  1482597013   367236586  2137617668  -288166020  1625499329 -1711622708   858974151 -1159224806 -1721976356  -105749902   719470412
#
#      Author: C. J. Pickard (cjp20@cam.ac.uk)
#                Space group: P-1
#

%BLOCK LATTICE_ABC
      4.30905      9.67051      9.82517
     91.62136     90.75160    102.15934
%ENDBLOCK LATTICE_ABC

%BLOCK POSITIONS_FRAC
  Li  -0.3298896  -0.3174295  -0.1089821 SPIN=   0.00000
  Li   0.3298896   0.3174295   0.1089821 SPIN=   0.00000
  Li   0.4004616   0.2839976  -0.2861942 SPIN=   0.00000
  Li  -0.4004616  -0.2839976   0.2861942 SPIN=   0.00000
  Fe   0.7145442   0.4333400   0.3556249 SPIN=   4.49278
  Fe  -0.7145442  -0.4333400  -0.3556249 SPIN=   4.49278
  Fe   0.2219359  -0.0227262  -0.2276360 SPIN=   3.50722
  Fe  -0.2219359   0.0227262   0.2276360 SPIN=   3.50722
   O  -0.1136594   0.3081335   0.0700724 SPIN=   0.00000
   O  -0.1984511   0.2777551  -0.1795404 SPIN=   0.00000
   O  -0.6229295   0.1688609  -0.0245786 SPIN=   0.00000
   O  -0.1337327   0.0742831  -0.0428162 SPIN=   0.00000
   S  -0.2671932   0.2072581  -0.0442157 SPIN=   0.00000
   O   0.1136594  -0.3081335  -0.0700724 SPIN=   0.00000
   O   0.1984511  -0.2777551   0.1795404 SPIN=   0.00000
   O   0.6229295  -0.1688609   0.0245786 SPIN=   0.00000
   O   0.1337327  -0.0742831   0.0428162 SPIN=   0.00000
   S   0.2671932  -0.2072581   0.0442157 SPIN=   0.00000
   O  -0.3106422   0.1173797  -0.5841345 SPIN=   0.00000
   O  -0.4175678   0.1085103  -0.3373132 SPIN=   0.00000
   O  -0.1912134   0.3373448  -0.4407352 SPIN=   0.00000
   O   0.1362654   0.1573509  -0.4169057 SPIN=   0.00000
   S  -0.1957895   0.1801464  -0.4447722 SPIN=   0.00000
   O   0.3106422  -0.1173797   0.5841345 SPIN=   0.00000
   O   0.4175678  -0.1085103   0.3373132 SPIN=   0.00000
   O   0.1912134  -0.3373448   0.4407352 SPIN=   0.00000
   O  -0.1362654  -0.1573509   0.4169057 SPIN=   0.00000
   S   0.1957895  -0.1801464   0.4447722 SPIN=   0.00000
   F   0.3527981   0.4692708  -0.1942156 SPIN=   0.00000
   F  -0.3527981  -0.4692708   0.1942156 SPIN=   0.00000
   F  -0.2072505  -0.1286401  -0.2416625 SPIN=   0.00000
   F   0.2072505   0.1286401   0.2416625 SPIN=   0.00000
%ENDBLOCK POSITIONS_FRAC

# Note: total spin =  16.00

KPOINTS_MP_SPACING 0.07

%BLOCK SPECIES_POT
QC5
%ENDBLOCK SPECIES_POT

SNAP_TO_SYMMETRY
SYMMETRY_GENERATE

