#              Generated by Buildcell
#
# at 12:50:55 (GMT+1.0) 18th August 2020
# in /lustre/scratch/uccabz1/launch_tmp
# on node-c12o-008
# by uccabz1
#
# compiler GCC version 4.9.2
# options -cpp -iprefix /lustre/shared/ucl/apps/gcc/4.9.2/bin/../lib/gcc/x86_64-unknown-linux-gnu/4.9.2/ -mtune=corei7 -march=x86-64 -g -Og
#
# seed -1256997655 -1522816048 -2052039892  2103553960  1627946639 -1007555342 -1825856606  1988044951  1610260247  -246737770 -1361675763  1733175700
#
#      Author: C. J. Pickard (cjp20@cam.ac.uk)
#                Space group: P2221
#

%BLOCK LATTICE_ABC
      5.35724      5.94367     12.56216
     90.00000     90.00000     90.00000
%ENDBLOCK LATTICE_ABC

%BLOCK POSITIONS_FRAC
  Li  -0.2688895  -0.1572771  -0.1500001 SPIN=   0.00000
  Li   0.2688895   0.1572771   0.3499999 SPIN=   0.00000
  Li   0.2688895  -0.1572771  -0.3499999 SPIN=   0.00000
  Li  -0.2688895   0.1572771   0.1500001 SPIN=   0.00000
  Fe  -0.4338834   0.2542335  -0.3947868 SPIN=   4.00000
  Fe   0.4338834  -0.2542335   0.1052132 SPIN=   4.00000
  Fe   0.4338834   0.2542335  -0.1052132 SPIN=   4.00000
  Fe  -0.4338834  -0.2542335   0.3947868 SPIN=   4.00000
   O  -0.0074251  -0.3416731  -0.4256844 SPIN=   0.00000
   O  -0.4539788  -0.2372929  -0.4360711 SPIN=   0.00000
   O  -0.1656282  -0.0155576  -0.3234435 SPIN=   0.00000
   O  -0.2836570  -0.4021962  -0.2703918 SPIN=   0.00000
   S  -0.2276723  -0.2491799  -0.3638977 SPIN=   0.00000
   O   0.0074251   0.3416731   0.0743156 SPIN=   0.00000
   O   0.4539788   0.2372929   0.0639289 SPIN=   0.00000
   O   0.1656282   0.0155576   0.1765565 SPIN=   0.00000
   O   0.2836570   0.4021962   0.2296082 SPIN=   0.00000
   S   0.2276723   0.2491799   0.1361023 SPIN=   0.00000
   O   0.0074251  -0.3416731  -0.0743156 SPIN=   0.00000
   O   0.4539788  -0.2372929  -0.0639289 SPIN=   0.00000
   O   0.1656282  -0.0155576  -0.1765565 SPIN=   0.00000
   O   0.2836570  -0.4021962  -0.2296082 SPIN=   0.00000
   S   0.2276723  -0.2491799  -0.1361023 SPIN=   0.00000
   O  -0.0074251   0.3416731   0.4256844 SPIN=   0.00000
   O  -0.4539788   0.2372929   0.4360711 SPIN=   0.00000
   O  -0.1656282   0.0155576   0.3234435 SPIN=   0.00000
   O  -0.2836570   0.4021962   0.2703918 SPIN=   0.00000
   S  -0.2276723   0.2491799   0.3638977 SPIN=   0.00000
   F  -0.1677713  -0.2502750   0.1078645 SPIN=   0.00000
   F   0.1677713   0.2502750  -0.3921355 SPIN=   0.00000
   F   0.1677713  -0.2502750   0.3921355 SPIN=   0.00000
   F  -0.1677713   0.2502750  -0.1078645 SPIN=   0.00000
%ENDBLOCK POSITIONS_FRAC

# Note: total spin =  16.00

KPOINTS_MP_SPACING 0.07

%BLOCK SPECIES_POT
QC5
%ENDBLOCK SPECIES_POT

SNAP_TO_SYMMETRY
SYMMETRY_GENERATE

