#              Generated by Buildcell
#
# at 10:17:56 (GMT+1.0) 18th August 2020
# in /lustre/scratch/uccabz1/launch_tmp
# on node-c12c-009
# by uccabz1
#
# compiler GCC version 4.9.2
# options -cpp -iprefix /lustre/shared/ucl/apps/gcc/4.9.2/bin/../lib/gcc/x86_64-unknown-linux-gnu/4.9.2/ -mtune=corei7 -march=x86-64 -g -Og
#
# seed  1905994344   556054043 -1816314943  1428411844  -701295656  -886988436 -1559025419  -614079963  1895123607   116819419 -1694654027 -1656465576
#
#      Author: C. J. Pickard (cjp20@cam.ac.uk)
#                Space group: C2
#

%BLOCK LATTICE_ABC
      6.68109      6.68109     10.00075
     86.39489     86.39489     63.96485
%ENDBLOCK LATTICE_ABC

%BLOCK POSITIONS_FRAC
  Li   0.1929110   0.4951890   0.4482135 SPIN=   0.00000
  Li  -0.4951890  -0.1929110  -0.4482135 SPIN=   0.00000
  Li  -0.0597664   0.1940010  -0.3406340 SPIN=   0.00000
  Li  -0.1940010   0.0597664   0.3406340 SPIN=   0.00000
  Fe   0.1975069   0.0945634  -0.0883335 SPIN=   5.91783
  Fe  -0.0945634  -0.1975069   0.0883335 SPIN=   5.91783
  Fe  -0.2970364  -0.3923857  -0.1802721 SPIN=   2.08217
  Fe   0.3923857   0.2970364   0.1802721 SPIN=   2.08217
   O  -0.1720619   0.3835589   0.2957266 SPIN=   0.00000
   O  -0.3460145   0.5480914   0.0796333 SPIN=   0.00000
   O  -0.1647794   0.1383434   0.1181574 SPIN=   0.00000
   O   0.0646366   0.3462663   0.0895016 SPIN=   0.00000
   S  -0.1545548   0.3540650   0.1457548 SPIN=   0.00000
   O  -0.3835589   0.1720619  -0.2957266 SPIN=   0.00000
   O  -0.5480914   0.3460145  -0.0796333 SPIN=   0.00000
   O  -0.1383434   0.1647794  -0.1181574 SPIN=   0.00000
   O  -0.3462663  -0.0646366  -0.0895016 SPIN=   0.00000
   S  -0.3540650   0.1545548  -0.1457548 SPIN=   0.00000
   O   0.5120758  -0.3114168   0.3823479 SPIN=   0.00000
   O   0.4603347  -0.0296984   0.1982473 SPIN=   0.00000
   O   0.1532731   0.0266150   0.3657221 SPIN=   0.00000
   O   0.2604628  -0.2661285   0.1996776 SPIN=   0.00000
   S   0.3465366  -0.1451572   0.2864987 SPIN=   0.00000
   O   0.3114168  -0.5120758  -0.3823479 SPIN=   0.00000
   O   0.0296984  -0.4603347  -0.1982473 SPIN=   0.00000
   O  -0.0266150  -0.1532731  -0.3657221 SPIN=   0.00000
   O   0.2661285  -0.2604628  -0.1996776 SPIN=   0.00000
   S   0.1451572  -0.3465366  -0.2864987 SPIN=   0.00000
   F  -0.3139856  -0.4609694  -0.3720525 SPIN=   0.00000
   F   0.4609694   0.3139856   0.3720525 SPIN=   0.00000
   F  -0.1078311  -0.2544129   0.3289182 SPIN=   0.00000
   F   0.2544129   0.1078311  -0.3289182 SPIN=   0.00000
%ENDBLOCK POSITIONS_FRAC

# Note: total spin =  16.00

KPOINTS_MP_SPACING 0.07

%BLOCK SPECIES_POT
QC5
%ENDBLOCK SPECIES_POT

SNAP_TO_SYMMETRY
SYMMETRY_GENERATE

