#              Generated by Buildcell
#
# at 16:11:57 (GMT+1.0) 18th August 2020
# in /lustre/scratch/uccabz1/launch_tmp
# on node-c12l-030
# by uccabz1
#
# compiler GCC version 4.9.2
# options -cpp -iprefix /lustre/shared/ucl/apps/gcc/4.9.2/bin/../lib/gcc/x86_64-unknown-linux-gnu/4.9.2/ -mtune=corei7 -march=x86-64 -g -Og
#
# seed -1398039136  1340675193   516152337 -1762306231  -567548273 -1912588219 -1523378758  1518114018   692157135   566242306  1168479674   995000135
#
#      Author: C. J. Pickard (cjp20@cam.ac.uk)
#                Space group: Cmc21
#

%BLOCK LATTICE_ABC
      7.22313      7.69160      8.05480
     90.00000    116.63942     90.00000
%ENDBLOCK LATTICE_ABC

%BLOCK POSITIONS_FRAC
  Li  -0.1063965  -0.2423282  -0.5147140 SPIN=   0.00000
  Li   0.1063965   0.2576718   0.5147140 SPIN=   0.00000
  Li  -0.4083175   0.2576718  -0.5147140 SPIN=   0.00000
  Li   0.4083175  -0.2423282   0.5147140 SPIN=   0.00000
  Fe   0.2130788   0.0514547   0.2482708 SPIN=   4.00000
  Fe  -0.2130788  -0.4485453  -0.2482708 SPIN=   4.00000
  Fe   0.0351920  -0.4485453   0.2482708 SPIN=   4.00000
  Fe  -0.0351920   0.0514547  -0.2482708 SPIN=   4.00000
   O  -0.2300762  -0.4317528  -0.7041723 SPIN=   0.00000
   O  -0.4542361  -0.4520076  -0.5458118 SPIN=   0.00000
   O  -0.5491677  -0.6098411  -0.8406911 SPIN=   0.00000
   O  -0.5735390  -0.2888905  -0.8407604 SPIN=   0.00000
   S  -0.4517547  -0.4456230  -0.7328589 SPIN=   0.00000
   O   0.2300762   0.0682472   0.7041723 SPIN=   0.00000
   O   0.4542361   0.0479924   0.5458118 SPIN=   0.00000
   O   0.5491677  -0.1098411   0.8406911 SPIN=   0.00000
   O   0.5735390   0.2111095   0.8407604 SPIN=   0.00000
   S   0.4517547   0.0543770   0.7328589 SPIN=   0.00000
   O  -0.4740961   0.0682472  -0.7041723 SPIN=   0.00000
   O  -0.0915757   0.0479924  -0.5458118 SPIN=   0.00000
   O  -0.2915234  -0.1098411  -0.8406911 SPIN=   0.00000
   O  -0.2672214   0.2111095  -0.8407604 SPIN=   0.00000
   S  -0.2811042   0.0543770  -0.7328589 SPIN=   0.00000
   O   0.4740961  -0.4317528   0.7041723 SPIN=   0.00000
   O   0.0915757  -0.4520076   0.5458118 SPIN=   0.00000
   O   0.2915234  -0.6098411   0.8406911 SPIN=   0.00000
   O   0.2672214  -0.2888905   0.8407604 SPIN=   0.00000
   S   0.2811042  -0.4456230   0.7328589 SPIN=   0.00000
   F  -0.1652826  -0.1953420  -0.3093742 SPIN=   0.00000
   F   0.1652826   0.3046580   0.3093742 SPIN=   0.00000
   F  -0.1440916   0.3046580  -0.3093742 SPIN=   0.00000
   F   0.1440916  -0.1953420   0.3093742 SPIN=   0.00000
%ENDBLOCK POSITIONS_FRAC

# Note: total spin =  16.00

KPOINTS_MP_SPACING 0.07

%BLOCK SPECIES_POT
QC5
%ENDBLOCK SPECIES_POT

SNAP_TO_SYMMETRY
SYMMETRY_GENERATE

