#              Generated by Buildcell
#
# at 10:57:19 (GMT+1.0) 4th August 2020
# in /lustre/scratch/uccabz1/launch_tmp
# on node-c12c-008
# by uccabz1
#
# compiler GCC version 4.9.2
# options -cpp -iprefix /lustre/shared/ucl/apps/gcc/4.9.2/bin/../lib/gcc/x86_64-unknown-linux-gnu/4.9.2/ -mtune=corei7 -march=x86-64 -g -Og
#
# seed   -15354224 -1636705747   777491631  1323363578  1380134588  1545972276  -837002069   -14916571   186781051 -1946640872 -1004448372  1299999840
#
#      Author: C. J. Pickard (cjp20@cam.ac.uk)
#                Space group: Pnn2
#

%BLOCK LATTICE_ABC
      3.96396      8.75090     11.53129
     90.00000     90.00000     90.00000
%ENDBLOCK LATTICE_ABC

%BLOCK POSITIONS_FRAC
  Li   0.0000000  -0.0000000   0.4841671 SPIN=   0.00000
  Li  -0.5000000  -0.5000000  -0.0158329 SPIN=   0.00000
  Li  -0.5000000  -0.0000000   0.1475413 SPIN=   0.00000
  Li   0.0000000  -0.5000000  -0.3524587 SPIN=   0.00000
  Fe   0.0000000  -0.0000000  -0.0464863 SPIN=   6.32776
  Fe  -0.5000000   0.5000000   0.4535137 SPIN=   6.32776
  Fe   0.5000000  -0.0000000  -0.3195049 SPIN=   1.67224
  Fe   0.0000000  -0.5000000   0.1804951 SPIN=   1.67224
   O  -0.5011419   0.2923200  -0.0837781 SPIN=   0.00000
   O  -0.4278417   0.2904812  -0.2969117 SPIN=   0.00000
   O   0.0363673   0.2032907  -0.1695521 SPIN=   0.00000
   S  -0.2519170   0.3158935  -0.1818275 SPIN=   0.00000
   O   0.5011419  -0.2923200  -0.0837781 SPIN=   0.00000
   O   0.4278417  -0.2904812  -0.2969117 SPIN=   0.00000
   O  -0.0363673  -0.2032907  -0.1695521 SPIN=   0.00000
   S   0.2519170  -0.3158935  -0.1818275 SPIN=   0.00000
   O   0.0011419  -0.2076800   0.4162219 SPIN=   0.00000
   O  -0.0721583  -0.2095188   0.2030883 SPIN=   0.00000
   O  -0.5363673  -0.2967093   0.3304479 SPIN=   0.00000
   S  -0.2480830  -0.1841065   0.3181725 SPIN=   0.00000
   O  -0.0011419   0.2076800   0.4162219 SPIN=   0.00000
   O   0.0721583   0.2095188   0.2030883 SPIN=   0.00000
   O   0.5363673   0.2967093   0.3304479 SPIN=   0.00000
   S   0.2480830   0.1841065   0.3181725 SPIN=   0.00000
   O  -0.5000000  -0.0000000   0.3154381 SPIN=   0.00000
   O   0.0000000  -0.5000000  -0.1845619 SPIN=   0.00000
   O   0.0000000  -0.5000000   0.0043386 SPIN=   0.00000
   O   0.5000000  -0.0000000  -0.4956614 SPIN=   0.00000
   F   0.0000000  -0.0000000  -0.3443533 SPIN=   0.00000
   F  -0.5000000  -0.5000000   0.1556467 SPIN=   0.00000
   F  -0.5000000  -0.0000000  -0.0111875 SPIN=   0.00000
   F   0.0000000   0.5000000   0.4888125 SPIN=   0.00000
%ENDBLOCK POSITIONS_FRAC

# Note: total spin =  16.00

KPOINTS_MP_SPACING 0.07

%BLOCK SPECIES_POT
QC5
%ENDBLOCK SPECIES_POT

SNAP_TO_SYMMETRY
SYMMETRY_GENERATE

