#              Generated by Buildcell
#
# at 00:01:13 (GMT+1.0) 18th August 2020
# in /lustre/scratch/uccabz1/launch_tmp
# on node-c12e-013
# by uccabz1
#
# compiler GCC version 4.9.2
# options -cpp -iprefix /lustre/shared/ucl/apps/gcc/4.9.2/bin/../lib/gcc/x86_64-unknown-linux-gnu/4.9.2/ -mtune=corei7 -march=x86-64 -g -Og
#
# seed -1053212446 -1056549567  -911915928  1933585891   671754413  1205551789  2139032331  2035762632  1867280576 -1716251912  -787031618 -1863898630
#
#      Author: C. J. Pickard (cjp20@cam.ac.uk)
#                Space group: P-1
#

%BLOCK LATTICE_ABC
      6.88780      7.03464      9.85249
     82.30732     71.72560     61.94763
%ENDBLOCK LATTICE_ABC

%BLOCK POSITIONS_FRAC
  Li  -0.1543730   0.3083995   0.0097266 SPIN=   0.00000
  Li   0.1543730  -0.3083995  -0.0097266 SPIN=   0.00000
  Li   0.1882966  -0.4529684  -0.4157007 SPIN=   0.00000
  Li  -0.1882966   0.4529684   0.4157007 SPIN=   0.00000
  Fe  -0.2163768  -0.0951598  -0.1781121 SPIN=   4.11918
  Fe   0.2163768   0.0951598   0.1781121 SPIN=   4.11918
  Fe  -0.3579460   0.4775231  -0.2269522 SPIN=   3.88082
  Fe   0.3579460  -0.4775231   0.2269522 SPIN=   3.88082
   O  -0.5301211   0.2418908  -0.2713933 SPIN=   0.00000
   O  -0.9105708   0.2558407  -0.2278672 SPIN=   0.00000
   O  -0.8837932   0.5676524  -0.1609006 SPIN=   0.00000
   O  -0.7623172   0.2305866  -0.0240859 SPIN=   0.00000
   S  -0.7717006   0.3239926  -0.1710618 SPIN=   0.00000
   O   0.5301211  -0.2418908   0.2713933 SPIN=   0.00000
   O   0.9105708  -0.2558407   0.2278672 SPIN=   0.00000
   O   0.8837932  -0.5676524   0.1609006 SPIN=   0.00000
   O   0.7623172  -0.2305866   0.0240859 SPIN=   0.00000
   S   0.7717006  -0.3239926   0.1710618 SPIN=   0.00000
   O   0.2742085  -0.1774047  -0.2463498 SPIN=   0.00000
   O   0.5191061  -0.3023126  -0.4928805 SPIN=   0.00000
   O   0.2863614   0.0880107  -0.4368144 SPIN=   0.00000
   O   0.0960718  -0.1348369  -0.4381921 SPIN=   0.00000
   S   0.2939369  -0.1316359  -0.4035592 SPIN=   0.00000
   O  -0.2742085   0.1774047   0.2463498 SPIN=   0.00000
   O  -0.5191061   0.3023126   0.4928805 SPIN=   0.00000
   O  -0.2863614  -0.0880107   0.4368144 SPIN=   0.00000
   O  -0.0960718   0.1348369   0.4381921 SPIN=   0.00000
   S  -0.2939369   0.1316359   0.4035592 SPIN=   0.00000
   F  -0.2841420   0.1774847  -0.0756356 SPIN=   0.00000
   F   0.2841420  -0.1774847   0.0756356 SPIN=   0.00000
   F  -0.7948757   0.3146205   0.3138145 SPIN=   0.00000
   F   0.7948757  -0.3146205  -0.3138145 SPIN=   0.00000
%ENDBLOCK POSITIONS_FRAC

# Note: total spin =  16.00

KPOINTS_MP_SPACING 0.07

%BLOCK SPECIES_POT
QC5
%ENDBLOCK SPECIES_POT

SNAP_TO_SYMMETRY
SYMMETRY_GENERATE

