#              Generated by Buildcell
#
# at 12:54:03 (GMT+1.0) 18th August 2020
# in /scratch/scratch/uccabz1/launch_tmp
# on node-k10d-009
# by uccabz1
#
# compiler GCC version 4.9.2
# options -cpp -iprefix /scratch/UCL/applications/gcc/4.9.2/bin/../lib/gcc/x86_64-unknown-linux-gnu/4.9.2/ -mtune=corei7 -march=x86-64 -g -O2
#
# seed -1104579081  1172918445   209716772   650033278  -550650331  1489345302 -1774446539   -43388707 -1410418731  -461013001     1599529  1894780535
#
#      Author: C. J. Pickard (cjp20@cam.ac.uk)
#                Space group: P-1
#

%BLOCK LATTICE_ABC
      6.74442      7.31837      8.56569
     89.55145     71.36319     86.87259
%ENDBLOCK LATTICE_ABC

%BLOCK POSITIONS_FRAC
  Li  -0.2316241   0.1748440   0.0617169 SPIN=   0.00000
  Li   0.2316241  -0.1748440  -0.0617169 SPIN=   0.00000
  Li   0.4555241  -0.2513443   0.4912443 SPIN=   0.00000
  Li  -0.4555241   0.2513443  -0.4912443 SPIN=   0.00000
  Fe  -0.4655123  -0.4703874  -0.2491449 SPIN=   4.59009
  Fe   0.4655123   0.4703874   0.2491449 SPIN=   4.59009
  Fe  -0.4043289   0.0337879  -0.2215214 SPIN=   3.40991
  Fe   0.4043289  -0.0337879   0.2215214 SPIN=   3.40991
   O   0.1485573   0.1015079  -0.0206891 SPIN=   0.00000
   O   0.2998223   0.4043715  -0.0848844 SPIN=   0.00000
   O   0.2588291   0.2649095   0.1870301 SPIN=   0.00000
   O  -0.0540241   0.3802086   0.1172652 SPIN=   0.00000
   S   0.1632961   0.2877494   0.0496804 SPIN=   0.00000
   O  -0.1485573  -0.1015079   0.0206891 SPIN=   0.00000
   O  -0.2998223  -0.4043715   0.0848844 SPIN=   0.00000
   O  -0.2588291  -0.2649095  -0.1870301 SPIN=   0.00000
   O   0.0540241  -0.3802086  -0.1172652 SPIN=   0.00000
   S  -0.1632961  -0.2877494  -0.0496804 SPIN=   0.00000
   O   0.1290070   0.2370628  -0.2858049 SPIN=   0.00000
   O   0.1960560   0.0685648  -0.5486215 SPIN=   0.00000
   O   0.0225621  -0.0814966  -0.2838166 SPIN=   0.00000
   O   0.3984879  -0.0188153  -0.3616236 SPIN=   0.00000
   S   0.1865282   0.0513289  -0.3699667 SPIN=   0.00000
   O  -0.1290070  -0.2370628   0.2858049 SPIN=   0.00000
   O  -0.1960560  -0.0685648   0.5486215 SPIN=   0.00000
   O  -0.0225621   0.0814966   0.2838166 SPIN=   0.00000
   O  -0.3984879   0.0188153   0.3616236 SPIN=   0.00000
   S  -0.1865282  -0.0513289   0.3699667 SPIN=   0.00000
   F   0.3008559  -0.2480717   0.1489110 SPIN=   0.00000
   F  -0.3008559   0.2480717  -0.1489110 SPIN=   0.00000
   F  -0.2266962   0.4391170   0.4520332 SPIN=   0.00000
   F   0.2266962  -0.4391170  -0.4520332 SPIN=   0.00000
%ENDBLOCK POSITIONS_FRAC

# Note: total spin =  16.00

KPOINTS_MP_SPACING 0.07

%BLOCK SPECIES_POT
QC5
%ENDBLOCK SPECIES_POT

SNAP_TO_SYMMETRY
SYMMETRY_GENERATE

