#              Generated by Buildcell
#
# at 17:22:22 (GMT+1.0) 18th August 2020
# in /lustre/scratch/uccabz1/launch_tmp
# on node-c12f-005
# by uccabz1
#
# compiler GCC version 4.9.2
# options -cpp -iprefix /lustre/shared/ucl/apps/gcc/4.9.2/bin/../lib/gcc/x86_64-unknown-linux-gnu/4.9.2/ -mtune=corei7 -march=x86-64 -g -Og
#
# seed  1734530290  2037728439 -1089858619  1197304602 -1126859918   669216034 -1333253086  -698191047  1478553707 -1999058528  1961415092 -1481555003
#
#      Author: C. J. Pickard (cjp20@cam.ac.uk)
#                Space group: Cc
#

%BLOCK LATTICE_ABC
      6.28278      6.28278     11.26102
     98.58632     98.58632    111.10108
%ENDBLOCK LATTICE_ABC

%BLOCK POSITIONS_FRAC
  Li  -0.0951572   0.1309035  -0.2640689 SPIN=   0.00000
  Li   0.1309035  -0.0951572   0.2359311 SPIN=   0.00000
  Li  -0.3451630   0.0945303   0.0299805 SPIN=   0.00000
  Li   0.0945303  -0.3451630  -0.4700195 SPIN=   0.00000
  Fe   0.1353248   0.2062459  -0.4701843 SPIN=   3.29253
  Fe   0.2062459   0.1353248   0.0298157 SPIN=   3.29253
  Fe  -0.4686372  -0.4415636  -0.1706554 SPIN=   4.70747
  Fe  -0.4415636  -0.4686372   0.3293446 SPIN=   4.70747
   O  -0.4757953   0.2394881   0.3922707 SPIN=   0.00000
   O  -0.6505650  -0.0294635   0.5231713 SPIN=   0.00000
   O  -0.2205380   0.1504654   0.5498203 SPIN=   0.00000
   O  -0.4623396  -0.1534072   0.3633283 SPIN=   0.00000
   S  -0.4523095   0.0517707   0.4571476 SPIN=   0.00000
   O   0.2394881  -0.4757953  -0.1077293 SPIN=   0.00000
   O  -0.0294635  -0.6505650   0.0231713 SPIN=   0.00000
   O   0.1504654  -0.2205380   0.0498203 SPIN=   0.00000
   O  -0.1534072  -0.4623396  -0.1366717 SPIN=   0.00000
   S   0.0517707  -0.4523095  -0.0428524 SPIN=   0.00000
   O  -0.1635015   0.0480876   0.1868553 SPIN=   0.00000
   O   0.0048439   0.3224416   0.3903452 SPIN=   0.00000
   O  -0.1207245   0.4600779   0.2079847 SPIN=   0.00000
   O   0.2301124   0.3639869   0.2266708 SPIN=   0.00000
   S  -0.0123174   0.2986485   0.2529640 SPIN=   0.00000
   O   0.0480876  -0.1635015  -0.3131447 SPIN=   0.00000
   O   0.3224416   0.0048439  -0.1096548 SPIN=   0.00000
   O   0.4600779  -0.1207245  -0.2920153 SPIN=   0.00000
   O   0.3639869   0.2301124  -0.2733292 SPIN=   0.00000
   S   0.2986485  -0.0123174  -0.2470360 SPIN=   0.00000
   F  -0.1761299  -0.0578640  -0.1193167 SPIN=   0.00000
   F  -0.0578640  -0.1761299   0.3806833 SPIN=   0.00000
   F  -0.4738367   0.4058494   0.0405782 SPIN=   0.00000
   F   0.4058494  -0.4738367  -0.4594218 SPIN=   0.00000
%ENDBLOCK POSITIONS_FRAC

# Note: total spin =  16.00

KPOINTS_MP_SPACING 0.07

%BLOCK SPECIES_POT
QC5
%ENDBLOCK SPECIES_POT

SNAP_TO_SYMMETRY
SYMMETRY_GENERATE

