#              Generated by Buildcell
#
# at 06:47:44 (GMT+1.0) 4th August 2020
# in /lustre/scratch/uccabz1/launch_tmp
# on node-c12n-017
# by uccabz1
#
# compiler GCC version 4.9.2
# options -cpp -iprefix /lustre/shared/ucl/apps/gcc/4.9.2/bin/../lib/gcc/x86_64-unknown-linux-gnu/4.9.2/ -mtune=corei7 -march=x86-64 -g -Og
#
# seed  -920498119   650183501 -2072303940 -1588136028   -14594355 -1361375594  1163343557  1842783412   389459974   793707699 -1157053143  1550794300
#
#      Author: C. J. Pickard (cjp20@cam.ac.uk)
#                Space group: P2
#

%BLOCK LATTICE_ABC
      7.39511      7.69148      7.77100
     90.00000     90.00000    115.18243
%ENDBLOCK LATTICE_ABC

%BLOCK POSITIONS_FRAC
  Li  -0.2288259  -0.3788384  -0.0038988 SPIN=   0.00000
  Li   0.2288259   0.3788384  -0.0038988 SPIN=   0.00000
  Li  -0.2922372   0.2386258   0.4661297 SPIN=   0.00000
  Li   0.2922372  -0.2386258   0.4661297 SPIN=   0.00000
  Fe   0.2752206   0.1424711   0.3530535 SPIN=   4.73616
  Fe  -0.2752206  -0.1424711   0.3530535 SPIN=   4.73616
  Fe  -0.2669280  -0.0380262  -0.1775293 SPIN=   3.26384
  Fe   0.2669280   0.0380262  -0.1775293 SPIN=   3.26384
   O  -0.3439205   0.3833173   0.2530137 SPIN=   0.00000
   O  -0.1625012   0.3857743  -0.0152625 SPIN=   0.00000
   O  -0.5120275   0.1454436   0.0239823 SPIN=   0.00000
   O  -0.2410531   0.1219216   0.1950970 SPIN=   0.00000
   S  -0.3148756   0.2591142   0.1142076 SPIN=   0.00000
   O   0.3439205  -0.3833173   0.2530137 SPIN=   0.00000
   O   0.1625012  -0.3857743  -0.0152625 SPIN=   0.00000
   O   0.5120275  -0.1454436   0.0239823 SPIN=   0.00000
   O   0.2410531  -0.1219216   0.1950970 SPIN=   0.00000
   S   0.3148756  -0.2591142   0.1142076 SPIN=   0.00000
   O   0.0508390   0.3121111  -0.2297151 SPIN=   0.00000
   O   0.1371229   0.4661915  -0.5162173 SPIN=   0.00000
   O   0.3531807   0.3317435  -0.3814572 SPIN=   0.00000
   O   0.3431406   0.6259959  -0.2625211 SPIN=   0.00000
   S   0.2210708   0.4340105  -0.3474777 SPIN=   0.00000
   O  -0.0508390  -0.3121111  -0.2297151 SPIN=   0.00000
   O  -0.1371229  -0.4661915  -0.5162173 SPIN=   0.00000
   O  -0.3531807  -0.3317435  -0.3814572 SPIN=   0.00000
   O  -0.3431406  -0.6259959  -0.2625211 SPIN=   0.00000
   S  -0.2210708  -0.4340105  -0.3474777 SPIN=   0.00000
   F  -0.2387066   0.0249186  -0.4113222 SPIN=   0.00000
   F   0.2387066  -0.0249186  -0.4113222 SPIN=   0.00000
   F  -0.1383834  -0.2625852   0.2362294 SPIN=   0.00000
   F   0.1383834   0.2625852   0.2362294 SPIN=   0.00000
%ENDBLOCK POSITIONS_FRAC

# Note: total spin =  16.00

KPOINTS_MP_SPACING 0.07

%BLOCK SPECIES_POT
QC5
%ENDBLOCK SPECIES_POT

SNAP_TO_SYMMETRY
SYMMETRY_GENERATE

