#              Generated by Buildcell
#
# at 12:50:27 (GMT+1.0) 18th August 2020
# in /lustre/scratch/uccabz1/launch_tmp
# on node-c12e-015
# by uccabz1
#
# compiler GCC version 4.9.2
# options -cpp -iprefix /lustre/shared/ucl/apps/gcc/4.9.2/bin/../lib/gcc/x86_64-unknown-linux-gnu/4.9.2/ -mtune=corei7 -march=x86-64 -g -Og
#
# seed   412629643  1687921328  1711314927 -1702051332  2024323094  -519642797  1474855691   452624081  -424302983 -1220960367  1593732073 -1013031497
#
#      Author: C. J. Pickard (cjp20@cam.ac.uk)
#                Space group: P21
#

%BLOCK LATTICE_ABC
      3.91202      6.20811     16.57733
     90.00000     90.00000     96.51682
%ENDBLOCK LATTICE_ABC

%BLOCK POSITIONS_FRAC
  Li  -0.0268054   0.0760896   0.1372267 SPIN=   0.00000
  Li   0.0268054  -0.0760896  -0.3627733 SPIN=   0.00000
  Li  -0.4807755  -0.4160379   0.4074470 SPIN=   0.00000
  Li   0.4807755   0.4160379  -0.0925530 SPIN=   0.00000
  Fe  -0.1100700   0.3786129  -0.4044255 SPIN=   4.52064
  Fe   0.1100700  -0.3786129   0.0955745 SPIN=   4.52064
  Fe  -0.0544814  -0.1765733  -0.1194440 SPIN=   3.47936
  Fe   0.0544814   0.1765733   0.3805560 SPIN=   3.47936
   O  -0.5773808   0.1614630  -0.4589728 SPIN=   0.00000
   O  -0.0998528  -0.0552660  -0.4893961 SPIN=   0.00000
   O  -0.6231792  -0.0928687  -0.5744433 SPIN=   0.00000
   O  -0.6486390  -0.2344673  -0.4347558 SPIN=   0.00000
   S  -0.4872629  -0.0552847  -0.4893920 SPIN=   0.00000
   O   0.5773808  -0.1614630   0.0410272 SPIN=   0.00000
   O   0.0998528   0.0552660   0.0106039 SPIN=   0.00000
   O   0.6231792   0.0928687  -0.0744433 SPIN=   0.00000
   O   0.6486390   0.2344673   0.0652442 SPIN=   0.00000
   S   0.4872629   0.0552847   0.0106080 SPIN=   0.00000
   O   0.6152481   0.0864877  -0.3272934 SPIN=   0.00000
   O   0.0995237   0.0909581  -0.2411111 SPIN=   0.00000
   O   0.6526220   0.2937351  -0.1994571 SPIN=   0.00000
   O   0.5803122  -0.1074356  -0.1965948 SPIN=   0.00000
   S   0.4869265   0.0909363  -0.2411141 SPIN=   0.00000
   O  -0.6152481  -0.0864877   0.1727066 SPIN=   0.00000
   O  -0.0995237  -0.0909581   0.2588889 SPIN=   0.00000
   O  -0.6526220  -0.2937351   0.3005429 SPIN=   0.00000
   O  -0.5803122   0.1074356   0.3034052 SPIN=   0.00000
   S  -0.4869265  -0.0909363   0.2588859 SPIN=   0.00000
   F  -0.0281610   0.4705206   0.4137929 SPIN=   0.00000
   F   0.0281610  -0.4705206  -0.0862071 SPIN=   0.00000
   F   0.0974048   0.3796861   0.1727022 SPIN=   0.00000
   F  -0.0974048  -0.3796861  -0.3272978 SPIN=   0.00000
%ENDBLOCK POSITIONS_FRAC

# Note: total spin =  16.00

KPOINTS_MP_SPACING 0.07

%BLOCK SPECIES_POT
QC5
%ENDBLOCK SPECIES_POT

SNAP_TO_SYMMETRY
SYMMETRY_GENERATE

