#              Generated by Buildcell
#
# at 23:08:44 (GMT+1.0) 17th August 2020
# in /lustre/scratch/uccabz1/launch_tmp
# on node-c12i-024
# by uccabz1
#
# compiler GCC version 4.9.2
# options -cpp -iprefix /lustre/shared/ucl/apps/gcc/4.9.2/bin/../lib/gcc/x86_64-unknown-linux-gnu/4.9.2/ -mtune=corei7 -march=x86-64 -g -Og
#
# seed -1899793226  1385591571   -62370511  1954617474  1311206315  -188174932    61730776   341936754 -1937120075  -325040137  1234100608 -1627779655
#
#      Author: C. J. Pickard (cjp20@cam.ac.uk)
#                Space group: C2
#

%BLOCK LATTICE_ABC
      7.42368      7.42368      7.43592
     94.21985     94.21985    100.69211
%ENDBLOCK LATTICE_ABC

%BLOCK POSITIONS_FRAC
  Li   0.3482305   0.3942437   0.1463851 SPIN=   0.00000
  Li  -0.3942437  -0.3482305  -0.1463851 SPIN=   0.00000
  Li  -0.2531481   0.2531481   0.0000000 SPIN=   0.00000
  Li   0.1733459  -0.1733459   0.5000000 SPIN=   0.00000
  Fe  -0.4808300  -0.1987982   0.2231045 SPIN=   4.70857
  Fe   0.1987982   0.4808300  -0.2231045 SPIN=   4.70857
  Fe  -0.4156925   0.4156925  -0.5000000 SPIN=   2.11328
  Fe  -0.0945479   0.0945479   0.5000000 SPIN=   4.46959
   O   0.1262453   0.2017494   0.3136061 SPIN=   0.00000
   O   0.2975154   0.1160258   0.0575512 SPIN=   0.00000
   O   0.0566038  -0.1166997   0.1672891 SPIN=   0.00000
   O   0.3508038  -0.0032493   0.3550882 SPIN=   0.00000
   S   0.2077921   0.0494565   0.2233837 SPIN=   0.00000
   O  -0.2017494  -0.1262453  -0.3136061 SPIN=   0.00000
   O  -0.1160258  -0.2975154  -0.0575512 SPIN=   0.00000
   O   0.1166997  -0.0566038  -0.1672891 SPIN=   0.00000
   O   0.0032493  -0.3508038  -0.3550882 SPIN=   0.00000
   S  -0.0494565  -0.2077921  -0.2233837 SPIN=   0.00000
   O  -0.0329344   0.4482026   0.3734439 SPIN=   0.00000
   O   0.0572849   0.3518471   0.0726729 SPIN=   0.00000
   O   0.2046951   0.6547091   0.2294345 SPIN=   0.00000
   S   0.0269932   0.5139677   0.1950805 SPIN=   0.00000
   O  -0.4482026   0.0329344  -0.3734439 SPIN=   0.00000
   O  -0.3518471  -0.0572849  -0.0726729 SPIN=   0.00000
   O  -0.6547091  -0.2046951  -0.2294345 SPIN=   0.00000
   S  -0.5139677  -0.0269932  -0.1950805 SPIN=   0.00000
   O   0.3775906  -0.3775906  -0.0000000 SPIN=   0.00000
   O   0.3532740  -0.3532740   0.5000000 SPIN=   0.00000
   F  -0.1372343   0.3133586  -0.2519449 SPIN=   0.00000
   F  -0.3133586   0.1372343   0.2519449 SPIN=   0.00000
   F   0.3315544   0.3374691  -0.3776747 SPIN=   0.00000
   F  -0.3374691  -0.3315544   0.3776747 SPIN=   0.00000
%ENDBLOCK POSITIONS_FRAC

# Note: total spin =  16.00

KPOINTS_MP_SPACING 0.07

%BLOCK SPECIES_POT
QC5
%ENDBLOCK SPECIES_POT

SNAP_TO_SYMMETRY
SYMMETRY_GENERATE

