#              Generated by Buildcell
#
# at 23:18:52 (GMT+1.0) 17th August 2020
# in /lustre/scratch/uccabz1/launch_tmp
# on node-c12k-029
# by uccabz1
#
# compiler GCC version 4.9.2
# options -cpp -iprefix /lustre/shared/ucl/apps/gcc/4.9.2/bin/../lib/gcc/x86_64-unknown-linux-gnu/4.9.2/ -mtune=corei7 -march=x86-64 -g -Og
#
# seed -1190237224  1735031672 -1269966532  2108110329  -330559076  -649921995  1809290945  -377454121  -422114125   212771165   803055092  1997763127
#
#      Author: C. J. Pickard (cjp20@cam.ac.uk)
#                Space group: P-1
#

%BLOCK LATTICE_ABC
      4.72174      9.59846      9.88120
    113.33639     92.56908    101.01238
%ENDBLOCK LATTICE_ABC

%BLOCK POSITIONS_FRAC
  Li  -0.2102927   0.1758765   0.1920651 SPIN=   0.00000
  Li   0.2102927  -0.1758765  -0.1920651 SPIN=   0.00000
  Li   0.4374503   0.4338354  -0.3004672 SPIN=   0.00000
  Li  -0.4374503  -0.4338354   0.3004672 SPIN=   0.00000
  Fe   0.1850622   0.3552055   0.0249652 SPIN=   1.08742
  Fe  -0.1850622  -0.3552055  -0.0249652 SPIN=   1.08742
  Fe   0.1425924  -0.2664343   0.4608656 SPIN=   6.91258
  Fe  -0.1425924   0.2664343  -0.4608656 SPIN=   6.91258
   O  -0.1114977  -0.1288363   0.4114662 SPIN=   0.00000
   O  -0.6116445  -0.0928263   0.3798924 SPIN=   0.00000
   O  -0.3838629  -0.2303174   0.1592398 SPIN=   0.00000
   O  -0.2067025   0.0540045   0.3045767 SPIN=   0.00000
   S  -0.3284269  -0.0994939   0.3137938 SPIN=   0.00000
   O   0.1114977   0.1288363  -0.4114662 SPIN=   0.00000
   O   0.6116445   0.0928263  -0.3798924 SPIN=   0.00000
   O   0.3838629   0.2303174  -0.1592398 SPIN=   0.00000
   O   0.2067025  -0.0540045  -0.3045767 SPIN=   0.00000
   S   0.3284269   0.0994939  -0.3137938 SPIN=   0.00000
   O   0.4346735   0.2743378   0.4658700 SPIN=   0.00000
   O   0.1379475   0.4018680   0.3589388 SPIN=   0.00000
   O   0.2043144   0.1382495   0.2036750 SPIN=   0.00000
   O   0.6179679   0.3668609   0.2783468 SPIN=   0.00000
   S   0.3487258   0.2953291   0.3267076 SPIN=   0.00000
   O  -0.4346735  -0.2743378  -0.4658700 SPIN=   0.00000
   O  -0.1379475  -0.4018680  -0.3589388 SPIN=   0.00000
   O  -0.2043144  -0.1382495  -0.2036750 SPIN=   0.00000
   O  -0.6179679  -0.3668609  -0.2783468 SPIN=   0.00000
   S  -0.3487258  -0.2953291  -0.3267076 SPIN=   0.00000
   F  -0.1562506   0.1615449  -0.0055156 SPIN=   0.00000
   F   0.1562506  -0.1615449   0.0055156 SPIN=   0.00000
   F  -0.0410944   0.4129483  -0.2206722 SPIN=   0.00000
   F   0.0410944  -0.4129483   0.2206722 SPIN=   0.00000
%ENDBLOCK POSITIONS_FRAC

# Note: total spin =  16.00

KPOINTS_MP_SPACING 0.07

%BLOCK SPECIES_POT
QC5
%ENDBLOCK SPECIES_POT

SNAP_TO_SYMMETRY
SYMMETRY_GENERATE

