#              Generated by Buildcell
#
# at 13:54:31 (GMT+1.0) 18th August 2020
# in /lustre/scratch/uccabz1/launch_tmp
# on node-c12j-002
# by uccabz1
#
# compiler GCC version 4.9.2
# options -cpp -iprefix /lustre/shared/ucl/apps/gcc/4.9.2/bin/../lib/gcc/x86_64-unknown-linux-gnu/4.9.2/ -mtune=corei7 -march=x86-64 -g -Og
#
# seed -1021948874  1048813739  -762900539   167655797  -862561947 -1473967871  2111691655  -932273251  1618519530   439397026  1026421114  -340557719
#
#      Author: C. J. Pickard (cjp20@cam.ac.uk)
#                Space group: C2
#

%BLOCK LATTICE_ABC
      4.12123     10.12926     10.83816
    117.85892     90.17212     90.00000
%ENDBLOCK LATTICE_ABC

%BLOCK POSITIONS_FRAC
  Li  -0.2128245  -0.2186694   0.4617237 SPIN=   0.00000
  Li   0.2128245   0.3196068  -0.4617237 SPIN=   0.00000
  Li   0.2600970   0.1172364  -0.2281996 SPIN=   0.00000
  Li  -0.2600970   0.3454360   0.2281996 SPIN=   0.00000
  Fe  -0.2536520   0.0870089   0.4995205 SPIN=   3.68612
  Fe   0.2536520  -0.4125115  -0.4995205 SPIN=   3.68612
  Fe  -0.2514715  -0.3226928  -0.1642249 SPIN=   4.31388
  Fe   0.2514715  -0.1584679   0.1642249 SPIN=   4.31388
   O   0.3944555   0.1076838   0.1046481 SPIN=   0.00000
   O  -0.1046273   0.1340666   0.2406579 SPIN=   0.00000
   O   0.2438079   0.3542603   0.2976884 SPIN=   0.00000
   O   0.4341365   0.1535515   0.3494043 SPIN=   0.00000
   S   0.2419432   0.1873905   0.2480997 SPIN=   0.00000
   O  -0.3944555   0.0030356  -0.1046481 SPIN=   0.00000
   O   0.1046273  -0.1065913  -0.2406579 SPIN=   0.00000
   O  -0.2438079   0.0565719  -0.2976884 SPIN=   0.00000
   O  -0.4341365  -0.1958528  -0.3494043 SPIN=   0.00000
   S  -0.2419432  -0.0607091  -0.2480997 SPIN=   0.00000
   O  -0.2713175   0.5221866  -0.0618698 SPIN=   0.00000
   O   0.1036074   0.3170493  -0.2059053 SPIN=   0.00000
   O  -0.4292109   0.3372743  -0.3016248 SPIN=   0.00000
   O  -0.4006821   0.2624204  -0.1147437 SPIN=   0.00000
   S  -0.2494008   0.3597326  -0.1710359 SPIN=   0.00000
   O   0.2713175  -0.4159436   0.0618698 SPIN=   0.00000
   O  -0.1036074  -0.4770454   0.2059053 SPIN=   0.00000
   O   0.4292109  -0.3611009   0.3016248 SPIN=   0.00000
   O   0.4006821  -0.6228359   0.1147437 SPIN=   0.00000
   S   0.2494008  -0.4692314   0.1710359 SPIN=   0.00000
   F   0.2522737   0.0751725  -0.4533202 SPIN=   0.00000
   F  -0.2522737  -0.4715073   0.4533202 SPIN=   0.00000
   F  -0.2496039  -0.1530295   0.1833784 SPIN=   0.00000
   F   0.2496039  -0.3364078  -0.1833784 SPIN=   0.00000
%ENDBLOCK POSITIONS_FRAC

# Note: total spin =  16.00

KPOINTS_MP_SPACING 0.07

%BLOCK SPECIES_POT
QC5
%ENDBLOCK SPECIES_POT

SNAP_TO_SYMMETRY
SYMMETRY_GENERATE

