#              Generated by Buildcell
#
# at 14:58:39 (GMT+1.0) 18th August 2020
# in /lustre/scratch/uccabz1/launch_tmp
# on node-c12m-029
# by uccabz1
#
# compiler GCC version 4.9.2
# options -cpp -iprefix /lustre/shared/ucl/apps/gcc/4.9.2/bin/../lib/gcc/x86_64-unknown-linux-gnu/4.9.2/ -mtune=corei7 -march=x86-64 -g -Og
#
# seed -2025734527   555361290  -271763387  -565723841 -1809027965   426438601 -1217603777  1163545817    89851970    31754253 -2053234744   925034347
#
#      Author: C. J. Pickard (cjp20@cam.ac.uk)
#                Space group: Iba2
#

%BLOCK LATTICE_ABC
      7.82216      8.24905      8.24905
     65.47700     61.69762     61.69762
%ENDBLOCK LATTICE_ABC

%BLOCK POSITIONS_FRAC
  Li  -0.0897372  -0.2699269   0.3260231 SPIN=   0.00000
  Li   0.0336410   0.3260231  -0.2699269 SPIN=   0.00000
  Li  -0.4663590   0.2300731  -0.1739769 SPIN=   0.00000
  Li   0.4102628  -0.1739769   0.2300731 SPIN=   0.00000
  Fe   0.4563221   0.0252923  -0.4081461 SPIN=   4.00000
  Fe  -0.0734683  -0.4081461   0.0252923 SPIN=   4.00000
  Fe   0.4265317  -0.4747077   0.0918539 SPIN=   4.00000
  Fe  -0.0436779   0.0918539  -0.4747077 SPIN=   4.00000
   O   0.1210189  -0.4827295  -0.2390256 SPIN=   0.00000
   O   0.2690359  -0.2374922  -0.4839576 SPIN=   0.00000
   O  -0.0587333  -0.2356943  -0.4615730 SPIN=   0.00000
   O   0.2715852  -0.4875083  -0.5778081 SPIN=   0.00000
   S   0.1507267  -0.3608561  -0.4405911 SPIN=   0.00000
   O  -0.3992637  -0.2390256  -0.4827295 SPIN=   0.00000
   O  -0.5475861  -0.4839576  -0.2374922 SPIN=   0.00000
   O  -0.2439995  -0.4615730  -0.2356943 SPIN=   0.00000
   O  -0.2062688  -0.5778081  -0.4875083 SPIN=   0.00000
   S  -0.3492795  -0.4405911  -0.3608561 SPIN=   0.00000
   O   0.1007363   0.0172705   0.2609744 SPIN=   0.00000
   O  -0.0475861   0.2625078   0.0160424 SPIN=   0.00000
   O   0.2560005   0.2643057   0.0384270 SPIN=   0.00000
   O   0.2937312   0.0124917  -0.0778081 SPIN=   0.00000
   S   0.1507205   0.1391439   0.0594089 SPIN=   0.00000
   O  -0.3789811   0.2609744   0.0172705 SPIN=   0.00000
   O  -0.2309641   0.0160424   0.2625078 SPIN=   0.00000
   O  -0.5587333   0.0384270   0.2643057 SPIN=   0.00000
   O  -0.2284148  -0.0778081   0.0124917 SPIN=   0.00000
   S  -0.3492733   0.0594089   0.1391439 SPIN=   0.00000
   F   0.1109455  -0.3948261   0.1375400 SPIN=   0.00000
   F   0.1463405   0.1375400  -0.3948261 SPIN=   0.00000
   F  -0.3536595   0.1051739  -0.3624600 SPIN=   0.00000
   F  -0.3890545  -0.3624600   0.1051739 SPIN=   0.00000
%ENDBLOCK POSITIONS_FRAC

# Note: total spin =  16.00

KPOINTS_MP_SPACING 0.07

%BLOCK SPECIES_POT
QC5
%ENDBLOCK SPECIES_POT

SNAP_TO_SYMMETRY
SYMMETRY_GENERATE

