#              Generated by Buildcell
#
# at 13:42:04 (GMT+1.0) 18th August 2020
# in /scratch/scratch/uccabz1/launch_tmp
# on node-k10b-012
# by uccabz1
#
# compiler GCC version 4.9.2
# options -cpp -iprefix /scratch/UCL/applications/gcc/4.9.2/bin/../lib/gcc/x86_64-unknown-linux-gnu/4.9.2/ -mtune=corei7 -march=x86-64 -g -O2
#
# seed -1487979652  1926656269  1961214433 -1148415823 -1404207559  -589242594   461709435  -187715326  -854108994  -561070073 -1113260984  2092843615
#
#      Author: C. J. Pickard (cjp20@cam.ac.uk)
#                Space group: P-1
#

%BLOCK LATTICE_ABC
      6.94897      8.17615      8.29928
    118.33587    101.53465     93.46378
%ENDBLOCK LATTICE_ABC

%BLOCK POSITIONS_FRAC
  Li   0.0863180  -0.1392448  -0.3503738 SPIN=   0.00000
  Li  -0.0863180   0.1392448   0.3503738 SPIN=   0.00000
  Li   0.4468091   0.2578047   0.1725310 SPIN=   0.00000
  Li  -0.4468091  -0.2578047  -0.1725310 SPIN=   0.00000
  Fe  -0.1419000  -0.4902236  -0.3365547 SPIN=   4.77420
  Fe   0.1419000   0.4902236   0.3365547 SPIN=   4.77420
  Fe   0.3895464   0.1889278   0.4878002 SPIN=   3.22580
  Fe  -0.3895464  -0.1889278  -0.4878002 SPIN=   3.22580
   O  -0.1091698  -0.4696164   0.1590355 SPIN=   0.00000
   O  -0.2578965  -0.3863219  -0.0831335 SPIN=   0.00000
   O  -0.1277958  -0.1361758   0.2526548 SPIN=   0.00000
   O  -0.4361161  -0.3650564   0.1543369 SPIN=   0.00000
   S  -0.2327446  -0.3392926   0.1207234 SPIN=   0.00000
   O   0.1091698   0.4696164  -0.1590355 SPIN=   0.00000
   O   0.2578965   0.3863219   0.0831335 SPIN=   0.00000
   O   0.1277958   0.1361758  -0.2526548 SPIN=   0.00000
   O   0.4361161   0.3650564  -0.1543369 SPIN=   0.00000
   S   0.2327446   0.3392926  -0.1207234 SPIN=   0.00000
   O  -0.2645366   0.2538843   0.2017593 SPIN=   0.00000
   O  -0.2041590  -0.0642805  -0.0106287 SPIN=   0.00000
   O  -0.0743636   0.2102767  -0.0338330 SPIN=   0.00000
   O  -0.4376428   0.0869296  -0.1402478 SPIN=   0.00000
   S  -0.2451755   0.1217025   0.0042624 SPIN=   0.00000
   O   0.2645366  -0.2538843  -0.2017593 SPIN=   0.00000
   O   0.2041590   0.0642805   0.0106287 SPIN=   0.00000
   O   0.0743636  -0.2102767   0.0338330 SPIN=   0.00000
   O   0.4376428  -0.0869296   0.1402478 SPIN=   0.00000
   S   0.2451755  -0.1217025  -0.0042624 SPIN=   0.00000
   F   0.1700855   0.2780153   0.3864515 SPIN=   0.00000
   F  -0.1700855  -0.2780153  -0.3864515 SPIN=   0.00000
   F   0.2702756  -0.2331965   0.3539329 SPIN=   0.00000
   F  -0.2702756   0.2331965  -0.3539329 SPIN=   0.00000
%ENDBLOCK POSITIONS_FRAC

# Note: total spin =  16.00

KPOINTS_MP_SPACING 0.07

%BLOCK SPECIES_POT
QC5
%ENDBLOCK SPECIES_POT

SNAP_TO_SYMMETRY
SYMMETRY_GENERATE

