#              Generated by Buildcell
#
# at 08:02:40 (GMT+1.0) 18th August 2020
# in /lustre/scratch/uccabz1/launch_tmp
# on node-c12f-010
# by uccabz1
#
# compiler GCC version 4.9.2
# options -cpp -iprefix /lustre/shared/ucl/apps/gcc/4.9.2/bin/../lib/gcc/x86_64-unknown-linux-gnu/4.9.2/ -mtune=corei7 -march=x86-64 -g -Og
#
# seed   213041766  -152554160  1207881326 -1507431740   765845460   124730554  1394981223  1772248518 -1825239283   -76164761  -767683646 -1849222243
#
#      Author: C. J. Pickard (cjp20@cam.ac.uk)
#                Space group: Pba2
#

%BLOCK LATTICE_ABC
      4.11622      8.93351     10.87775
     90.00000     90.00000     90.00000
%ENDBLOCK LATTICE_ABC

%BLOCK POSITIONS_FRAC
  Li  -0.3739579  -0.3032802   0.1820280 SPIN=   0.00000
  Li  -0.3739579   0.3032802  -0.1820280 SPIN=   0.00000
  Li  -0.3739579  -0.1967198  -0.3179720 SPIN=   0.00000
  Li  -0.3739579   0.1967198   0.3179720 SPIN=   0.00000
  Fe   0.1133215  -0.2165012  -0.0175940 SPIN=   4.00000
  Fe   0.1133215   0.2165012   0.0175940 SPIN=   4.00000
  Fe   0.1133215  -0.2834988   0.4824060 SPIN=   4.00000
  Fe   0.1133215   0.2834988  -0.4824060 SPIN=   4.00000
   O  -0.3387860   0.4729819   0.2603197 SPIN=   0.00000
   O   0.1745139   0.5955684   0.3227742 SPIN=   0.00000
   O   0.1198360   0.4890052   0.1137842 SPIN=   0.00000
   O   0.1557423   0.3208805   0.2941027 SPIN=   0.00000
   S   0.0278265   0.4696090   0.2477452 SPIN=   0.00000
   O  -0.3387860  -0.4729819  -0.2603197 SPIN=   0.00000
   O   0.1745139  -0.5955684  -0.3227742 SPIN=   0.00000
   O   0.1198360  -0.4890052  -0.1137842 SPIN=   0.00000
   O   0.1557423  -0.3208805  -0.2941027 SPIN=   0.00000
   S   0.0278265  -0.4696090  -0.2477452 SPIN=   0.00000
   O  -0.3387860   0.0270181  -0.2396803 SPIN=   0.00000
   O   0.1745139  -0.0955684  -0.1772258 SPIN=   0.00000
   O   0.1198360   0.0109948  -0.3862158 SPIN=   0.00000
   O   0.1557423   0.1791195  -0.2058973 SPIN=   0.00000
   S   0.0278265   0.0303910  -0.2522548 SPIN=   0.00000
   O  -0.3387860  -0.0270181   0.2396803 SPIN=   0.00000
   O   0.1745139   0.0955684   0.1772258 SPIN=   0.00000
   O   0.1198360  -0.0109948   0.3862158 SPIN=   0.00000
   O   0.1557423  -0.1791195   0.2058973 SPIN=   0.00000
   S   0.0278265  -0.0303910   0.2522548 SPIN=   0.00000
   F  -0.3882094  -0.2241521  -0.0128643 SPIN=   0.00000
   F  -0.3882094   0.2241521   0.0128643 SPIN=   0.00000
   F  -0.3882094  -0.2758479   0.4871357 SPIN=   0.00000
   F  -0.3882094   0.2758479  -0.4871357 SPIN=   0.00000
%ENDBLOCK POSITIONS_FRAC

# Note: total spin =  16.00

KPOINTS_MP_SPACING 0.07

%BLOCK SPECIES_POT
QC5
%ENDBLOCK SPECIES_POT

SNAP_TO_SYMMETRY
SYMMETRY_GENERATE

