#              Generated by Buildcell
#
# at 02:06:12 (GMT+1.0) 18th August 2020
# in /lustre/scratch/uccabz1/launch_tmp
# on node-c12p-003
# by uccabz1
#
# compiler GCC version 4.9.2
# options -cpp -iprefix /lustre/shared/ucl/apps/gcc/4.9.2/bin/../lib/gcc/x86_64-unknown-linux-gnu/4.9.2/ -mtune=corei7 -march=x86-64 -g -Og
#
# seed  1308931747 -1615974435  -725637711 -1923909325    39008089 -1530268630 -1805749724   -14676121  1895432679  1534728323   614789289   896007655
#
#      Author: C. J. Pickard (cjp20@cam.ac.uk)
#                Space group: Pnn2
#

%BLOCK LATTICE_ABC
      4.06642      9.35367     10.51636
     90.00000     90.00000     90.00000
%ENDBLOCK LATTICE_ABC

%BLOCK POSITIONS_FRAC
  Li   0.3948942   0.2646647   0.2045745 SPIN=   0.00000
  Li  -0.3948942  -0.2646647   0.2045745 SPIN=   0.00000
  Li  -0.1051058   0.2353353  -0.2954255 SPIN=   0.00000
  Li   0.1051058  -0.2353353  -0.2954255 SPIN=   0.00000
  Fe   0.0000000   0.0000000   0.1263009 SPIN=   4.45627
  Fe  -0.5000000   0.5000000  -0.3736991 SPIN=   4.45627
  Fe  -0.5000000  -0.0000000   0.4369750 SPIN=   3.54373
  Fe   0.0000000   0.5000000  -0.0630250 SPIN=   3.54373
   O  -0.4258436  -0.2245513  -0.2048474 SPIN=   0.00000
   O  -0.1461886  -0.1817893   0.0006834 SPIN=   0.00000
   O  -0.6270348  -0.3435742  -0.0095949 SPIN=   0.00000
   S  -0.4752821  -0.2081914  -0.0627510 SPIN=   0.00000
   O   0.4258436   0.2245513  -0.2048474 SPIN=   0.00000
   O   0.1461886   0.1817893   0.0006834 SPIN=   0.00000
   O   0.6270348   0.3435742  -0.0095949 SPIN=   0.00000
   S   0.4752821   0.2081914  -0.0627510 SPIN=   0.00000
   O   0.0741564  -0.2754487   0.2951526 SPIN=   0.00000
   O   0.3538114  -0.3182107   0.5006834 SPIN=   0.00000
   O  -0.1270348  -0.1564258   0.4904051 SPIN=   0.00000
   S   0.0247179  -0.2918086   0.4372490 SPIN=   0.00000
   O  -0.0741564   0.2754487   0.2951526 SPIN=   0.00000
   O  -0.3538114   0.3182107   0.5006834 SPIN=   0.00000
   O   0.1270348   0.1564258   0.4904051 SPIN=   0.00000
   S  -0.0247179   0.2918086   0.4372490 SPIN=   0.00000
   O   0.0000000   0.0000000  -0.1932778 SPIN=   0.00000
   O  -0.5000000   0.5000000   0.3067222 SPIN=   0.00000
   O  -0.5000000  -0.0000000  -0.0756914 SPIN=   0.00000
   O  -0.0000000  -0.5000000   0.4243086 SPIN=   0.00000
   F  -0.5000000  -0.0000000   0.2305915 SPIN=   0.00000
   F   0.0000000   0.5000000  -0.2694085 SPIN=   0.00000
   F  -0.5000000  -0.0000000  -0.3561702 SPIN=   0.00000
   F   0.0000000   0.5000000   0.1438298 SPIN=   0.00000
%ENDBLOCK POSITIONS_FRAC

# Note: total spin =  16.00

KPOINTS_MP_SPACING 0.07

%BLOCK SPECIES_POT
QC5
%ENDBLOCK SPECIES_POT

SNAP_TO_SYMMETRY
SYMMETRY_GENERATE

