#              Generated by Buildcell
#
# at 06:37:30 (GMT+1.0) 4th August 2020
# in /lustre/scratch/uccabz1/launch_tmp
# on node-c12j-008
# by uccabz1
#
# compiler GCC version 4.9.2
# options -cpp -iprefix /lustre/shared/ucl/apps/gcc/4.9.2/bin/../lib/gcc/x86_64-unknown-linux-gnu/4.9.2/ -mtune=corei7 -march=x86-64 -g -Og
#
# seed   790321484  1120911742 -1957330605  -169371600  1322641202 -2092588983  1784680880   819071008  2127760880 -1202084068  2114572481 -1367586236
#
#      Author: C. J. Pickard (cjp20@cam.ac.uk)
#                Space group: C2
#

%BLOCK LATTICE_ABC
      7.40177      7.82934      7.82934
     85.68414     69.96350     69.96350
%ENDBLOCK LATTICE_ABC

%BLOCK POSITIONS_FRAC
  Li   0.4686776  -0.4369961  -0.0465412 SPIN=   0.00000
  Li  -0.4686776   0.0465412   0.4369961 SPIN=   0.00000
  Li  -0.2349388  -0.4848315   0.4440952 SPIN=   0.00000
  Li   0.2349388  -0.4440952   0.4848315 SPIN=   0.00000
  Fe   0.0470174  -0.3026308  -0.0428972 SPIN=   5.56951
  Fe  -0.0470174   0.0428972   0.3026308 SPIN=   5.56951
  Fe   0.2453305   0.2127756  -0.1988471 SPIN=   2.43049
  Fe  -0.2453305   0.1988471  -0.2127756 SPIN=   2.43049
   O   0.5376783   0.1970681   0.1404053 SPIN=   0.00000
   O   0.2468299   0.0876629   0.1956637 SPIN=   0.00000
   O   0.2497984   0.3719529   0.0353032 SPIN=   0.00000
   O   0.2001396   0.3631606   0.3645192 SPIN=   0.00000
   S   0.3086115   0.2549611   0.1839728 SPIN=   0.00000
   O  -0.5376783  -0.1404053  -0.1970681 SPIN=   0.00000
   O  -0.2468299  -0.1956637  -0.0876629 SPIN=   0.00000
   O  -0.2497984  -0.0353032  -0.3719529 SPIN=   0.00000
   O  -0.2001396  -0.3645192  -0.3631606 SPIN=   0.00000
   S  -0.3086115  -0.1839728  -0.2549611 SPIN=   0.00000
   O   0.2224681   0.0809446  -0.4937513 SPIN=   0.00000
   O   0.4372830  -0.2338392  -0.4654768 SPIN=   0.00000
   O   0.1064596  -0.1768152  -0.5097664 SPIN=   0.00000
   O   0.1132088  -0.0847571  -0.2170756 SPIN=   0.00000
   S   0.2198549  -0.1036167  -0.4215175 SPIN=   0.00000
   O  -0.2224681   0.4937513  -0.0809446 SPIN=   0.00000
   O  -0.4372830   0.4654768   0.2338392 SPIN=   0.00000
   O  -0.1064596   0.5097664   0.1768152 SPIN=   0.00000
   O  -0.1132088   0.2170756   0.0847571 SPIN=   0.00000
   S  -0.2198549   0.4215175   0.1036167 SPIN=   0.00000
   F   0.2193641   0.4306939  -0.3066834 SPIN=   0.00000
   F  -0.2193641   0.3066834  -0.4306939 SPIN=   0.00000
   F  -0.2736843  -0.1249203   0.2616904 SPIN=   0.00000
   F   0.2736843  -0.2616904   0.1249203 SPIN=   0.00000
%ENDBLOCK POSITIONS_FRAC

# Note: total spin =  16.00

KPOINTS_MP_SPACING 0.07

%BLOCK SPECIES_POT
QC5
%ENDBLOCK SPECIES_POT

SNAP_TO_SYMMETRY
SYMMETRY_GENERATE

