#              Generated by Buildcell
#
# at 06:23:14 (GMT+1.0) 4th August 2020
# in /lustre/scratch/uccabz1/launch_tmp
# on node-c12m-025
# by uccabz1
#
# compiler GCC version 4.9.2
# options -cpp -iprefix /lustre/shared/ucl/apps/gcc/4.9.2/bin/../lib/gcc/x86_64-unknown-linux-gnu/4.9.2/ -mtune=corei7 -march=x86-64 -g -Og
#
# seed  1389893391  -731620269 -2085331287   911827803    52713434 -1158868400   161638674  -296503038 -1613039994 -1147933963 -1962904008  1506397011
#
#      Author: C. J. Pickard (cjp20@cam.ac.uk)
#                Space group: Ccc2
#

%BLOCK LATTICE_ABC
      3.94722      7.78480     13.45695
     90.00000     90.00000    104.68596
%ENDBLOCK LATTICE_ABC

%BLOCK POSITIONS_FRAC
  Li  -0.5000000   0.0000000  -0.2551596 SPIN=   0.00000
  Li  -0.5000000   0.0000000   0.2448404 SPIN=   0.00000
  Li   0.0000000   0.5000000  -0.2250580 SPIN=   0.00000
  Li  -0.5000000  -0.5000000   0.2749420 SPIN=   0.00000
  Fe  -0.2961527  -0.2368032  -0.1102605 SPIN=   4.00000
  Fe   0.2961527   0.2368032  -0.1102605 SPIN=   4.00000
  Fe  -0.0593495   0.2368032   0.3897395 SPIN=   4.00000
  Fe   0.0593495  -0.2368032   0.3897395 SPIN=   4.00000
   O  -0.0816149  -0.2030105  -0.2651057 SPIN=   0.00000
   O  -0.1997781  -0.4184240  -0.4039675 SPIN=   0.00000
   O   0.4103817  -0.2602875  -0.3624414 SPIN=   0.00000
   S   0.0358022  -0.2446565  -0.3675572 SPIN=   0.00000
   O   0.0816149   0.2030105  -0.2651057 SPIN=   0.00000
   O   0.1997781   0.4184240  -0.4039675 SPIN=   0.00000
   O  -0.4103817   0.2602875  -0.3624414 SPIN=   0.00000
   S  -0.0358022   0.2446565  -0.3675572 SPIN=   0.00000
   O   0.1213957   0.2030105   0.2348943 SPIN=   0.00000
   O   0.2186459   0.4184240   0.0960325 SPIN=   0.00000
   O   0.6706692   0.2602875   0.1375586 SPIN=   0.00000
   S   0.2804586   0.2446565   0.1324428 SPIN=   0.00000
   O  -0.1213957  -0.2030105   0.2348943 SPIN=   0.00000
   O  -0.2186459  -0.4184240   0.0960325 SPIN=   0.00000
   O  -0.6706692  -0.2602875   0.1375586 SPIN=   0.00000
   S  -0.2804586  -0.2446565   0.1324428 SPIN=   0.00000
   O   0.0000000   0.0000000   0.0747566 SPIN=   0.00000
   O   0.0000000   0.0000000  -0.4252434 SPIN=   0.00000
   O   0.5000000   0.5000000  -0.2638412 SPIN=   0.00000
   O   0.0000000  -0.5000000   0.2361588 SPIN=   0.00000
   F   0.0000000  -0.5000000  -0.0854481 SPIN=   0.00000
   F  -0.5000000  -0.5000000   0.4145519 SPIN=   0.00000
   F  -0.5000000   0.0000000  -0.0941045 SPIN=   0.00000
   F   0.5000000   0.0000000   0.4058955 SPIN=   0.00000
%ENDBLOCK POSITIONS_FRAC

# Note: total spin =  16.00

KPOINTS_MP_SPACING 0.07

%BLOCK SPECIES_POT
QC5
%ENDBLOCK SPECIES_POT

SNAP_TO_SYMMETRY
SYMMETRY_GENERATE

