#              Generated by Buildcell
#
# at 15:53:06 (GMT+1.0) 18th August 2020
# in /lustre/scratch/uccabz1/launch_tmp
# on node-c12j-026
# by uccabz1
#
# compiler GCC version 4.9.2
# options -cpp -iprefix /lustre/shared/ucl/apps/gcc/4.9.2/bin/../lib/gcc/x86_64-unknown-linux-gnu/4.9.2/ -mtune=corei7 -march=x86-64 -g -Og
#
# seed -1590105609  1842550910   603729666  1402615246  -646957714  1782918526 -1757038822  1420782463  1536183477 -2072561502  1362518858   302548494
#
#      Author: C. J. Pickard (cjp20@cam.ac.uk)
#                Space group: Pba2
#

%BLOCK LATTICE_ABC
      4.35937      6.09326     15.05869
     90.00000     90.00000     90.00000
%ENDBLOCK LATTICE_ABC

%BLOCK POSITIONS_FRAC
  Li   0.4835265  -0.0684862  -0.3867047 SPIN=   0.00000
  Li   0.4835265   0.0684862   0.3867047 SPIN=   0.00000
  Li   0.4835265  -0.4315138   0.1132953 SPIN=   0.00000
  Li   0.4835265   0.4315138  -0.1132953 SPIN=   0.00000
  Fe  -0.0428009   0.2499067   0.0666979 SPIN=   4.00000
  Fe  -0.0428009  -0.2499067  -0.0666979 SPIN=   4.00000
  Fe  -0.0428009   0.2500933  -0.4333021 SPIN=   4.00000
  Fe  -0.0428009  -0.2500933   0.4333021 SPIN=   4.00000
   O  -0.2896428  -0.0715622   0.1816022 SPIN=   0.00000
   O   0.2351000  -0.1565155   0.2340670 SPIN=   0.00000
   O   0.1068088  -0.1925432   0.0746348 SPIN=   0.00000
   O  -0.1063367  -0.4559457   0.1834624 SPIN=   0.00000
   S  -0.0135177  -0.2191417   0.1684416 SPIN=   0.00000
   O  -0.2896428   0.0715622  -0.1816022 SPIN=   0.00000
   O   0.2351000   0.1565155  -0.2340670 SPIN=   0.00000
   O   0.1068088   0.1925432  -0.0746348 SPIN=   0.00000
   O  -0.1063367   0.4559457  -0.1834624 SPIN=   0.00000
   S  -0.0135177   0.2191417  -0.1684416 SPIN=   0.00000
   O  -0.2896428  -0.4284378  -0.3183978 SPIN=   0.00000
   O   0.2351000  -0.3434845  -0.2659330 SPIN=   0.00000
   O   0.1068088  -0.3074568  -0.4253652 SPIN=   0.00000
   O  -0.1063367  -0.0440543  -0.3165376 SPIN=   0.00000
   S  -0.0135177  -0.2808583  -0.3315584 SPIN=   0.00000
   O  -0.2896428   0.4284378   0.3183978 SPIN=   0.00000
   O   0.2351000   0.3434845   0.2659330 SPIN=   0.00000
   O   0.1068088   0.3074568   0.4253652 SPIN=   0.00000
   O  -0.1063367   0.0440543   0.3165376 SPIN=   0.00000
   S  -0.0135177   0.2808583   0.3315584 SPIN=   0.00000
   F   0.3926154  -0.2508834  -0.0925450 SPIN=   0.00000
   F   0.3926154   0.2508834   0.0925450 SPIN=   0.00000
   F   0.3926154  -0.2491166   0.4074550 SPIN=   0.00000
   F   0.3926154   0.2491166  -0.4074550 SPIN=   0.00000
%ENDBLOCK POSITIONS_FRAC

# Note: total spin =  16.00

KPOINTS_MP_SPACING 0.07

%BLOCK SPECIES_POT
QC5
%ENDBLOCK SPECIES_POT

SNAP_TO_SYMMETRY
SYMMETRY_GENERATE

