#              Generated by Buildcell
#
# at 15:34:19 (GMT+1.0) 18th August 2020
# in /lustre/scratch/uccabz1/launch_tmp
# on node-c12f-001
# by uccabz1
#
# compiler GCC version 4.9.2
# options -cpp -iprefix /lustre/shared/ucl/apps/gcc/4.9.2/bin/../lib/gcc/x86_64-unknown-linux-gnu/4.9.2/ -mtune=corei7 -march=x86-64 -g -Og
#
# seed   174276749  1003826688  1172764243  -613602921  -314292897  1896828956 -1277797918  1162129733  1830818533   756324896   917781673  1121323211
#
#      Author: C. J. Pickard (cjp20@cam.ac.uk)
#                Space group: Pc
#

%BLOCK LATTICE_ABC
      6.08314      7.67140      8.99090
     90.00000     90.00000    107.56896
%ENDBLOCK LATTICE_ABC

%BLOCK POSITIONS_FRAC
  Li   0.0456621  -0.1329748   0.3196259 SPIN=   0.00000
  Li  -0.4543379   0.3670252  -0.3196259 SPIN=   0.00000
  Li   0.4299781  -0.4483621   0.0720864 SPIN=   0.00000
  Li  -0.0700219   0.0516379  -0.0720864 SPIN=   0.00000
  Fe  -0.0009616   0.1825788  -0.3865590 SPIN=   4.04963
  Fe   0.4990384  -0.3174212   0.3865590 SPIN=   4.04963
  Fe  -0.0124949  -0.3477123  -0.3952804 SPIN=   3.95037
  Fe   0.4875051   0.1522877   0.3952804 SPIN=   3.95037
   O   0.4471071   0.2340230   0.1352037 SPIN=   0.00000
   O   0.6479745   0.1101193  -0.0583158 SPIN=   0.00000
   O   0.5857298   0.4116086  -0.0941302 SPIN=   0.00000
   O   0.2549606   0.1290216  -0.1053670 SPIN=   0.00000
   S   0.4839430   0.2211931  -0.0306523 SPIN=   0.00000
   O  -0.0528929  -0.2659770  -0.1352037 SPIN=   0.00000
   O   0.1479745  -0.3898807   0.0583158 SPIN=   0.00000
   O   0.0857298  -0.0883914   0.0941302 SPIN=   0.00000
   O  -0.2450394  -0.3709784   0.1053670 SPIN=   0.00000
   S  -0.0160570  -0.2788069   0.0306523 SPIN=   0.00000
   O  -0.6107263  -0.3827650  -0.3415797 SPIN=   0.00000
   O  -0.2703918  -0.1097599  -0.3121028 SPIN=   0.00000
   O  -0.4446698  -0.2927861  -0.0916584 SPIN=   0.00000
   O  -0.6521091  -0.1045157  -0.2207152 SPIN=   0.00000
   S  -0.4944743  -0.2224567  -0.2415140 SPIN=   0.00000
   O  -0.1107263   0.1172350   0.3415797 SPIN=   0.00000
   O   0.2296082   0.3902401   0.3121028 SPIN=   0.00000
   O   0.0553302   0.2072139   0.0916584 SPIN=   0.00000
   O  -0.1521091   0.3954843   0.2207152 SPIN=   0.00000
   S   0.0055257   0.2775433   0.2415140 SPIN=   0.00000
   F  -0.3822948   0.4374522   0.4594196 SPIN=   0.00000
   F   0.1177052  -0.0625478  -0.4594196 SPIN=   0.00000
   F  -0.4644558  -0.1405956   0.1925192 SPIN=   0.00000
   F   0.0355442   0.3594044  -0.1925192 SPIN=   0.00000
%ENDBLOCK POSITIONS_FRAC

# Note: total spin =  16.00

KPOINTS_MP_SPACING 0.07

%BLOCK SPECIES_POT
QC5
%ENDBLOCK SPECIES_POT

SNAP_TO_SYMMETRY
SYMMETRY_GENERATE

