#              Generated by Buildcell
#
# at 07:29:10 (GMT+1.0) 4th August 2020
# in /lustre/scratch/uccabz1/launch_tmp
# on node-c12f-012
# by uccabz1
#
# compiler GCC version 4.9.2
# options -cpp -iprefix /lustre/shared/ucl/apps/gcc/4.9.2/bin/../lib/gcc/x86_64-unknown-linux-gnu/4.9.2/ -mtune=corei7 -march=x86-64 -g -Og
#
# seed -1181389551  -358651034 -1755190087  1714231656 -1427551045    28224143  -294093448 -1578695577   439501685 -1480585548  1495485154 -2056431729
#
#      Author: C. J. Pickard (cjp20@cam.ac.uk)
#                Space group: P21/c
#

%BLOCK LATTICE_ABC
      5.71051      8.21526      8.52641
     90.20026     90.00000     90.00000
%ENDBLOCK LATTICE_ABC

%BLOCK POSITIONS_FRAC
  Li   0.4679351   0.1688696   0.2217169 SPIN=   0.00000
  Li  -0.0320649   0.3311304  -0.2217169 SPIN=   0.00000
  Li  -0.4679351  -0.1688696  -0.2217169 SPIN=   0.00000
  Li   0.0320649  -0.3311304   0.2217169 SPIN=   0.00000
  Fe  -0.4697418  -0.3166996   0.1104749 SPIN=   4.00000
  Fe   0.0302582  -0.1833004  -0.1104749 SPIN=   4.00000
  Fe   0.4697418   0.3166996  -0.1104749 SPIN=   4.00000
  Fe  -0.0302582   0.1833004   0.1104749 SPIN=   4.00000
   O  -0.5075169   0.4171426   0.3928654 SPIN=   0.00000
   O  -0.1124945   0.4423849   0.2760523 SPIN=   0.00000
   O  -0.2291033   0.1868323   0.4075718 SPIN=   0.00000
   O  -0.1590584   0.4360787   0.5645466 SPIN=   0.00000
   S  -0.2520433   0.3706096   0.4102590 SPIN=   0.00000
   O  -0.0075169   0.0828574  -0.3928654 SPIN=   0.00000
   O   0.3875055   0.0576151  -0.2760523 SPIN=   0.00000
   O   0.2708967   0.3131677  -0.4075718 SPIN=   0.00000
   O   0.3409416   0.0639213  -0.5645466 SPIN=   0.00000
   S   0.2479567   0.1293904  -0.4102590 SPIN=   0.00000
   O   0.5075169  -0.4171426  -0.3928654 SPIN=   0.00000
   O   0.1124945  -0.4423849  -0.2760523 SPIN=   0.00000
   O   0.2291033  -0.1868323  -0.4075718 SPIN=   0.00000
   O   0.1590584  -0.4360787  -0.5645466 SPIN=   0.00000
   S   0.2520433  -0.3706096  -0.4102590 SPIN=   0.00000
   O   0.0075169  -0.0828574   0.3928654 SPIN=   0.00000
   O  -0.3875055  -0.0576151   0.2760523 SPIN=   0.00000
   O  -0.2708967  -0.3131677   0.4075718 SPIN=   0.00000
   O  -0.3409416  -0.0639213   0.5645466 SPIN=   0.00000
   S  -0.2479567  -0.1293904   0.4102590 SPIN=   0.00000
   F  -0.2697419  -0.3661671  -0.1370171 SPIN=   0.00000
   F   0.2302581  -0.1338329   0.1370171 SPIN=   0.00000
   F   0.2697419   0.3661671   0.1370171 SPIN=   0.00000
   F  -0.2302581   0.1338329  -0.1370171 SPIN=   0.00000
%ENDBLOCK POSITIONS_FRAC

# Note: total spin =  16.00

KPOINTS_MP_SPACING 0.07

%BLOCK SPECIES_POT
QC5
%ENDBLOCK SPECIES_POT

SNAP_TO_SYMMETRY
SYMMETRY_GENERATE

