#              Generated by Buildcell
#
# at 17:11:34 (GMT+1.0) 18th August 2020
# in /lustre/scratch/uccabz1/launch_tmp
# on node-c12o-035
# by uccabz1
#
# compiler GCC version 4.9.2
# options -cpp -iprefix /lustre/shared/ucl/apps/gcc/4.9.2/bin/../lib/gcc/x86_64-unknown-linux-gnu/4.9.2/ -mtune=corei7 -march=x86-64 -g -Og
#
# seed  -440083722   385746624 -1619905821  1321195351  -314126163  1710513687  -985844452  -784341796  1851543324  1038871284  1713219428 -1801331807
#
#      Author: C. J. Pickard (cjp20@cam.ac.uk)
#                Space group: P21/c
#

%BLOCK LATTICE_ABC
      5.67466      8.58867      8.78521
    110.89996     90.00000     90.00000
%ENDBLOCK LATTICE_ABC

%BLOCK POSITIONS_FRAC
  Li  -0.2426401  -0.4394852   0.4052356 SPIN=   0.00000
  Li   0.2573599   0.4394852   0.0947644 SPIN=   0.00000
  Li   0.2426401   0.4394852  -0.4052356 SPIN=   0.00000
  Li  -0.2573599  -0.4394852  -0.0947644 SPIN=   0.00000
  Fe   0.2575950  -0.2934444   0.4378531 SPIN=   4.00000
  Fe  -0.2424050   0.2934444   0.0621469 SPIN=   4.00000
  Fe  -0.2575950   0.2934444  -0.4378531 SPIN=   4.00000
  Fe   0.2424050  -0.2934444  -0.0621469 SPIN=   4.00000
   O   0.1389090   0.1581065   0.2762989 SPIN=   0.00000
   O   0.1645505   0.2145461   0.5724401 SPIN=   0.00000
   O   0.5089268   0.0995241   0.3950552 SPIN=   0.00000
   O   0.1569835  -0.0762883   0.3772981 SPIN=   0.00000
   S   0.2423425   0.0989721   0.4052731 SPIN=   0.00000
   O  -0.3610910  -0.1581065   0.2237011 SPIN=   0.00000
   O  -0.3354495  -0.2145461  -0.0724401 SPIN=   0.00000
   O   0.0089268  -0.0995241   0.1049448 SPIN=   0.00000
   O  -0.3430165   0.0762883   0.1227019 SPIN=   0.00000
   S  -0.2576575  -0.0989721   0.0947269 SPIN=   0.00000
   O  -0.1389090  -0.1581065  -0.2762989 SPIN=   0.00000
   O  -0.1645505  -0.2145461  -0.5724401 SPIN=   0.00000
   O  -0.5089268  -0.0995241  -0.3950552 SPIN=   0.00000
   O  -0.1569835   0.0762883  -0.3772981 SPIN=   0.00000
   S  -0.2423425  -0.0989721  -0.4052731 SPIN=   0.00000
   O   0.3610910   0.1581065  -0.2237011 SPIN=   0.00000
   O   0.3354495   0.2145461   0.0724401 SPIN=   0.00000
   O  -0.0089268   0.0995241  -0.1049448 SPIN=   0.00000
   O   0.3430165  -0.0762883  -0.1227019 SPIN=   0.00000
   S   0.2576575   0.0989721  -0.0947269 SPIN=   0.00000
   F  -0.2319507   0.3301044   0.3663230 SPIN=   0.00000
   F   0.2680493  -0.3301044   0.1336770 SPIN=   0.00000
   F   0.2319507  -0.3301044  -0.3663230 SPIN=   0.00000
   F  -0.2680493   0.3301044  -0.1336770 SPIN=   0.00000
%ENDBLOCK POSITIONS_FRAC

# Note: total spin =  16.00

KPOINTS_MP_SPACING 0.07

%BLOCK SPECIES_POT
QC5
%ENDBLOCK SPECIES_POT

SNAP_TO_SYMMETRY
SYMMETRY_GENERATE

