#              Generated by Buildcell
#
# at 06:58:56 (GMT+1.0) 4th August 2020
# in /lustre/scratch/uccabz1/launch_tmp
# on node-c12g-004
# by uccabz1
#
# compiler GCC version 4.9.2
# options -cpp -iprefix /lustre/shared/ucl/apps/gcc/4.9.2/bin/../lib/gcc/x86_64-unknown-linux-gnu/4.9.2/ -mtune=corei7 -march=x86-64 -g -Og
#
# seed  -114853414  1703042738 -1446837709   721962068 -1150116010  -137313871   464562946 -1722873698 -1492646165 -1830414449  1803527501   189547876
#
#      Author: C. J. Pickard (cjp20@cam.ac.uk)
#                Space group: Cc
#

%BLOCK LATTICE_ABC
      7.23236      8.12552      8.12552
    108.04980    106.13388    106.13388
%ENDBLOCK LATTICE_ABC

%BLOCK POSITIONS_FRAC
  Li  -0.4907264   0.2947003   0.1524670 SPIN=   0.00000
  Li   0.0092736  -0.3475330  -0.2052997 SPIN=   0.00000
  Li  -0.4737021  -0.2177461   0.3558119 SPIN=   0.00000
  Li   0.0262979  -0.1441881   0.2822539 SPIN=   0.00000
  Fe  -0.1310817   0.4425730   0.0688800 SPIN=   4.95879
  Fe   0.3689183  -0.4311200  -0.0574270 SPIN=   4.95879
  Fe   0.0677500   0.0442248  -0.0344089 SPIN=   3.04121
  Fe  -0.4322500   0.4655911  -0.4557752 SPIN=   3.04121
   O   0.1026800   0.2735163  -0.3817593 SPIN=   0.00000
   O  -0.0377847   0.3118752  -0.1334636 SPIN=   0.00000
   O  -0.2441203   0.0424236  -0.4469689 SPIN=   0.00000
   O  -0.1991150   0.3663491  -0.4121533 SPIN=   0.00000
   S  -0.0945850   0.2485410  -0.3435863 SPIN=   0.00000
   O   0.6026800   0.1182407  -0.2264837 SPIN=   0.00000
   O   0.4622153   0.3665364  -0.1881248 SPIN=   0.00000
   O   0.2558797   0.0530311  -0.4575764 SPIN=   0.00000
   O   0.3008850   0.0878467  -0.1336509 SPIN=   0.00000
   S   0.4054150   0.1564137  -0.2514590 SPIN=   0.00000
   O  -0.4816892  -0.0884134  -0.0821598 SPIN=   0.00000
   O  -0.2692683  -0.1467592   0.1729229 SPIN=   0.00000
   O  -0.3717039   0.1247976   0.2519903 SPIN=   0.00000
   O  -0.1087492   0.1270349   0.1113335 SPIN=   0.00000
   S  -0.3078526   0.0041650   0.1135217 SPIN=   0.00000
   O   0.0183108  -0.5821598  -0.5884134 SPIN=   0.00000
   O   0.2307317  -0.3270771  -0.6467592 SPIN=   0.00000
   O   0.1282961  -0.2480097  -0.3752024 SPIN=   0.00000
   O   0.3912508  -0.3886665  -0.3729651 SPIN=   0.00000
   S   0.1921474  -0.3864783  -0.4958350 SPIN=   0.00000
   F  -0.1585515  -0.3777528  -0.0325557 SPIN=   0.00000
   F   0.3414485   0.4674443   0.1222472 SPIN=   0.00000
   F   0.2547776   0.0731161   0.2329431 SPIN=   0.00000
   F  -0.2452224  -0.2670569  -0.4268839 SPIN=   0.00000
%ENDBLOCK POSITIONS_FRAC

# Note: total spin =  16.00

KPOINTS_MP_SPACING 0.07

%BLOCK SPECIES_POT
QC5
%ENDBLOCK SPECIES_POT

SNAP_TO_SYMMETRY
SYMMETRY_GENERATE

