#              Generated by Buildcell
#
# at 08:37:46 (GMT+1.0) 4th August 2020
# in /lustre/scratch/uccabz1/launch_tmp
# on node-c12p-015
# by uccabz1
#
# compiler GCC version 4.9.2
# options -cpp -iprefix /lustre/shared/ucl/apps/gcc/4.9.2/bin/../lib/gcc/x86_64-unknown-linux-gnu/4.9.2/ -mtune=corei7 -march=x86-64 -g -Og
#
# seed   -73335870   691881892  1353935776   617408950  1831823819 -2112530298  -886754287   356692400  1115366465 -1323030743   461577255  1174555505
#
#      Author: C. J. Pickard (cjp20@cam.ac.uk)
#                Space group: P-1
#

%BLOCK LATTICE_ABC
      5.52851      7.24689     10.42409
     73.30564     89.31062     89.56742
%ENDBLOCK LATTICE_ABC

%BLOCK POSITIONS_FRAC
  Li  -0.1961109  -0.0933018   0.3631475 SPIN=   0.00000
  Li   0.1961109   0.0933018  -0.3631475 SPIN=   0.00000
  Li  -0.3855103   0.4691130   0.2330344 SPIN=   0.00000
  Li   0.3855103  -0.4691130  -0.2330344 SPIN=   0.00000
  Fe   0.3163050  -0.2909235   0.3744046 SPIN=   5.43214
  Fe  -0.3163050   0.2909235  -0.3744046 SPIN=   5.43214
  Fe   0.0048848   0.2662817  -0.0601476 SPIN=   2.56786
  Fe  -0.0048848  -0.2662817   0.0601476 SPIN=   2.56786
   O  -0.2323480   0.1176670   0.0967593 SPIN=   0.00000
   O  -0.6545651   0.0501937   0.0486865 SPIN=   0.00000
   O  -0.5554418   0.3558255   0.0969801 SPIN=   0.00000
   O  -0.5410127   0.0480749   0.2780370 SPIN=   0.00000
   S  -0.4958419   0.1429403   0.1301157 SPIN=   0.00000
   O   0.2323480  -0.1176670  -0.0967593 SPIN=   0.00000
   O   0.6545651  -0.0501937  -0.0486865 SPIN=   0.00000
   O   0.5554418  -0.3558255  -0.0969801 SPIN=   0.00000
   O   0.5410127  -0.0480749  -0.2780370 SPIN=   0.00000
   S   0.4958419  -0.1429403  -0.1301157 SPIN=   0.00000
   O   0.1799667   0.3613299   0.2561615 SPIN=   0.00000
   O  -0.2193299   0.2042579   0.3100290 SPIN=   0.00000
   O  -0.0367474   0.3662904   0.4642832 SPIN=   0.00000
   S   0.0157613   0.2483253   0.3682991 SPIN=   0.00000
   O  -0.1799667  -0.3613299  -0.2561615 SPIN=   0.00000
   O   0.2193299  -0.2042579  -0.3100290 SPIN=   0.00000
   O   0.0367474  -0.3662904  -0.4642832 SPIN=   0.00000
   S  -0.0157613  -0.2483253  -0.3682991 SPIN=   0.00000
   O  -0.0000000  -0.0000000  -0.5000000 SPIN=   0.00000
   O   0.5000000  -0.0000000   0.5000000 SPIN=   0.00000
   F   0.0049320  -0.2095226   0.2610451 SPIN=   0.00000
   F  -0.0049320   0.2095226  -0.2610451 SPIN=   0.00000
   F   0.5000000   0.5000000  -0.5000000 SPIN=   0.00000
   F  -0.0000000  -0.5000000   0.0000000 SPIN=   0.00000
%ENDBLOCK POSITIONS_FRAC

# Note: total spin =  16.00

KPOINTS_MP_SPACING 0.07

%BLOCK SPECIES_POT
QC5
%ENDBLOCK SPECIES_POT

SNAP_TO_SYMMETRY
SYMMETRY_GENERATE

