#              Generated by Buildcell
#
# at 13:55:41 (GMT+1.0) 18th August 2020
# in /lustre/scratch/uccabz1/launch_tmp
# on node-c12j-023
# by uccabz1
#
# compiler GCC version 4.9.2
# options -cpp -iprefix /lustre/shared/ucl/apps/gcc/4.9.2/bin/../lib/gcc/x86_64-unknown-linux-gnu/4.9.2/ -mtune=corei7 -march=x86-64 -g -Og
#
# seed   767610397 -1286189803  1930547441  -923198831 -1744930520  -258718777 -2080716575 -1094387850 -1386114673  -653323019  -612438204  2105378757
#
#      Author: C. J. Pickard (cjp20@cam.ac.uk)
#                Space group: P-1
#

%BLOCK LATTICE_ABC
      7.67714      8.09492      8.11467
    104.52364    101.13465    118.29916
%ENDBLOCK LATTICE_ABC

%BLOCK POSITIONS_FRAC
  Li   0.2173421  -0.1050579  -0.1321486 SPIN=   0.00000
  Li  -0.2173421   0.1050579   0.1321486 SPIN=   0.00000
  Li   0.3090170   0.2350508   0.3444173 SPIN=   0.00000
  Li  -0.3090170  -0.2350508  -0.3444173 SPIN=   0.00000
  Fe   0.1173626  -0.2809925   0.4365763 SPIN=   2.99773
  Fe  -0.1173626   0.2809925  -0.4365763 SPIN=   2.99773
  Fe  -0.5680305  -0.3597297  -0.1150418 SPIN=   5.00227
  Fe   0.5680305   0.3597297   0.1150418 SPIN=   5.00227
   O  -0.2728556  -0.3179297  -0.1045815 SPIN=   0.00000
   O  -0.1505746  -0.3410994   0.1891600 SPIN=   0.00000
   O   0.0418905  -0.0132791   0.1543246 SPIN=   0.00000
   O   0.0627028  -0.3022099  -0.0082980 SPIN=   0.00000
   S  -0.0797092  -0.2436296   0.0576513 SPIN=   0.00000
   O   0.2728556   0.3179297   0.1045815 SPIN=   0.00000
   O   0.1505746   0.3410994  -0.1891600 SPIN=   0.00000
   O  -0.0418905   0.0132791  -0.1543246 SPIN=   0.00000
   O  -0.0627028   0.3022099   0.0082980 SPIN=   0.00000
   S   0.0797092   0.2436296  -0.0576513 SPIN=   0.00000
   O   0.4142440   0.3763235  -0.3136616 SPIN=   0.00000
   O   0.3951895   0.1154395  -0.1976453 SPIN=   0.00000
   O   0.7011171   0.3119262  -0.2814139 SPIN=   0.00000
   O   0.3458472   0.0531851  -0.5227920 SPIN=   0.00000
   S   0.4640994   0.2142186  -0.3288782 SPIN=   0.00000
   O  -0.4142440  -0.3763235   0.3136616 SPIN=   0.00000
   O  -0.3951895  -0.1154395   0.1976453 SPIN=   0.00000
   O  -0.7011171  -0.3119262   0.2814139 SPIN=   0.00000
   O  -0.3458472  -0.0531851   0.5227920 SPIN=   0.00000
   S  -0.4640994  -0.2142186   0.3288782 SPIN=   0.00000
   F  -0.4669316  -0.1568327  -0.2216030 SPIN=   0.00000
   F   0.4669316   0.1568327   0.2216030 SPIN=   0.00000
   F  -0.0557502  -0.2519410  -0.4252016 SPIN=   0.00000
   F   0.0557502   0.2519410   0.4252016 SPIN=   0.00000
%ENDBLOCK POSITIONS_FRAC

# Note: total spin =  16.00

KPOINTS_MP_SPACING 0.07

%BLOCK SPECIES_POT
QC5
%ENDBLOCK SPECIES_POT

SNAP_TO_SYMMETRY
SYMMETRY_GENERATE

