#              Generated by Buildcell
#
# at 09:15:24 (GMT+1.0) 18th August 2020
# in /lustre/scratch/uccabz1/launch_tmp
# on node-c12j-023
# by uccabz1
#
# compiler GCC version 4.9.2
# options -cpp -iprefix /lustre/shared/ucl/apps/gcc/4.9.2/bin/../lib/gcc/x86_64-unknown-linux-gnu/4.9.2/ -mtune=corei7 -march=x86-64 -g -Og
#
# seed  -363203009 -1881298029    62249393   841243775  -193031164 -1746126486  -524844532  1807486310  -131648230 -1774193555  1754794451 -1784300246
#
#      Author: C. J. Pickard (cjp20@cam.ac.uk)
#                Space group: P2221
#

%BLOCK LATTICE_ABC
      3.98621      7.63752     13.13853
     90.00000     90.00000     90.00000
%ENDBLOCK LATTICE_ABC

%BLOCK POSITIONS_FRAC
  Li   0.0000000  -0.3340548   0.0000000 SPIN=   0.00000
  Li   0.0000000   0.3340548  -0.5000000 SPIN=   0.00000
  Li   0.5000000   0.1429231  -0.0000000 SPIN=   0.00000
  Li   0.5000000  -0.1429231  -0.5000000 SPIN=   0.00000
  Fe   0.0010352  -0.3467510   0.3591118 SPIN=   4.00000
  Fe  -0.0010352   0.3467510  -0.1408882 SPIN=   4.00000
  Fe   0.0010352   0.3467510   0.1408882 SPIN=   4.00000
  Fe  -0.0010352  -0.3467510  -0.3591118 SPIN=   4.00000
   O  -0.3782838   0.4766970  -0.3896440 SPIN=   0.00000
   O  -0.3711341   0.2785335  -0.2406204 SPIN=   0.00000
   O  -0.3637303   0.1556734  -0.4149092 SPIN=   0.00000
   O  -0.8778386   0.2974972  -0.3489109 SPIN=   0.00000
   S  -0.4977467   0.3021003  -0.3485211 SPIN=   0.00000
   O   0.3782838  -0.4766970   0.1103560 SPIN=   0.00000
   O   0.3711341  -0.2785335   0.2593796 SPIN=   0.00000
   O   0.3637303  -0.1556734   0.0850908 SPIN=   0.00000
   O   0.8778386  -0.2974972   0.1510891 SPIN=   0.00000
   S   0.4977467  -0.3021003   0.1514789 SPIN=   0.00000
   O  -0.3782838  -0.4766970  -0.1103560 SPIN=   0.00000
   O  -0.3711341  -0.2785335  -0.2593796 SPIN=   0.00000
   O  -0.3637303  -0.1556734  -0.0850908 SPIN=   0.00000
   O  -0.8778386  -0.2974972  -0.1510891 SPIN=   0.00000
   S  -0.4977467  -0.3021003  -0.1514789 SPIN=   0.00000
   O   0.3782838   0.4766970   0.3896440 SPIN=   0.00000
   O   0.3711341   0.2785335   0.2406204 SPIN=   0.00000
   O   0.3637303   0.1556734   0.4149092 SPIN=   0.00000
   O   0.8778386   0.2974972   0.3489109 SPIN=   0.00000
   S   0.4977467   0.3021003   0.3485211 SPIN=   0.00000
   F  -0.1626635  -0.1151613   0.3709854 SPIN=   0.00000
   F   0.1626635   0.1151613  -0.1290146 SPIN=   0.00000
   F  -0.1626635   0.1151613   0.1290146 SPIN=   0.00000
   F   0.1626635  -0.1151613  -0.3709854 SPIN=   0.00000
%ENDBLOCK POSITIONS_FRAC

# Note: total spin =  16.00

KPOINTS_MP_SPACING 0.07

%BLOCK SPECIES_POT
QC5
%ENDBLOCK SPECIES_POT

SNAP_TO_SYMMETRY
SYMMETRY_GENERATE

