#              Generated by Buildcell
#
# at 13:33:59 (GMT+1.0) 18th August 2020
# in /scratch/scratch/uccabz1/launch_tmp
# on node-k10h-001
# by uccabz1
#
# compiler GCC version 4.9.2
# options -cpp -iprefix /scratch/UCL/applications/gcc/4.9.2/bin/../lib/gcc/x86_64-unknown-linux-gnu/4.9.2/ -mtune=corei7 -march=x86-64 -g -O2
#
# seed -1123581244   758759306    49520923 -1784721218   902957548   -14497552  1592720091  1035837161   429110250  1702985540 -1039534095  -394423109
#
#      Author: C. J. Pickard (cjp20@cam.ac.uk)
#                Space group: Pcc2
#

%BLOCK LATTICE_ABC
      7.06636      7.51008      7.53736
     90.00000     90.00000     90.00000
%ENDBLOCK LATTICE_ABC

%BLOCK POSITIONS_FRAC
  Li   0.2564267  -0.3882176  -0.3336920 SPIN=   0.00000
  Li  -0.2564267   0.3882176  -0.3336920 SPIN=   0.00000
  Li  -0.2564267  -0.3882176   0.1663080 SPIN=   0.00000
  Li   0.2564267   0.3882176   0.1663080 SPIN=   0.00000
  Fe   0.3540958   0.2042830  -0.4312649 SPIN=   4.00000
  Fe  -0.3540958  -0.2042830  -0.4312649 SPIN=   4.00000
  Fe  -0.3540958   0.2042830   0.0687351 SPIN=   4.00000
  Fe   0.3540958  -0.2042830   0.0687351 SPIN=   4.00000
   O  -0.0951551   0.3010695   0.0186445 SPIN=   0.00000
   O   0.1339555   0.4164854  -0.2014716 SPIN=   0.00000
   O  -0.0531490   0.1461487  -0.2684689 SPIN=   0.00000
   O   0.2004059   0.1351603  -0.0422261 SPIN=   0.00000
   S   0.0465143   0.2497160  -0.1233805 SPIN=   0.00000
   O   0.0951551  -0.3010695   0.0186445 SPIN=   0.00000
   O  -0.1339555  -0.4164854  -0.2014716 SPIN=   0.00000
   O   0.0531490  -0.1461487  -0.2684689 SPIN=   0.00000
   O  -0.2004059  -0.1351603  -0.0422261 SPIN=   0.00000
   S  -0.0465143  -0.2497160  -0.1233805 SPIN=   0.00000
   O   0.0951551   0.3010695   0.5186445 SPIN=   0.00000
   O  -0.1339555   0.4164854   0.2985284 SPIN=   0.00000
   O   0.0531490   0.1461487   0.2315311 SPIN=   0.00000
   O  -0.2004059   0.1351603   0.4577739 SPIN=   0.00000
   S  -0.0465143   0.2497160   0.3766195 SPIN=   0.00000
   O  -0.0951551  -0.3010695   0.5186445 SPIN=   0.00000
   O   0.1339555  -0.4164854   0.2985284 SPIN=   0.00000
   O  -0.0531490  -0.1461487   0.2315311 SPIN=   0.00000
   O   0.2004059  -0.1351603   0.4577739 SPIN=   0.00000
   S   0.0465143  -0.2497160   0.3766195 SPIN=   0.00000
   F  -0.4536258  -0.2382040   0.2949593 SPIN=   0.00000
   F   0.4536258   0.2382040   0.2949593 SPIN=   0.00000
   F   0.4536258  -0.2382040  -0.2050407 SPIN=   0.00000
   F  -0.4536258   0.2382040  -0.2050407 SPIN=   0.00000
%ENDBLOCK POSITIONS_FRAC

# Note: total spin =  16.00

KPOINTS_MP_SPACING 0.07

%BLOCK SPECIES_POT
QC5
%ENDBLOCK SPECIES_POT

SNAP_TO_SYMMETRY
SYMMETRY_GENERATE

