#              Generated by Buildcell
#
# at 16:54:43 (GMT+1.0) 18th August 2020
# in /scratch/scratch/uccabz1/launch_tmp
# on node-k10h-017
# by uccabz1
#
# compiler GCC version 4.9.2
# options -cpp -iprefix /scratch/UCL/applications/gcc/4.9.2/bin/../lib/gcc/x86_64-unknown-linux-gnu/4.9.2/ -mtune=corei7 -march=x86-64 -g -O2
#
# seed  1970461046 -1765678337  -675820840  -543652539   -36050684 -2094496870  1385638356  -163736115  -800209918  1830801748   291127633   277354485
#
#      Author: C. J. Pickard (cjp20@cam.ac.uk)
#                Space group: P42
#

%BLOCK LATTICE_ABC
      6.85245      7.64024      7.64024
     90.00000     90.00000     90.00000
%ENDBLOCK LATTICE_ABC

%BLOCK POSITIONS_FRAC
  Li  -0.2374010   0.4099223  -0.2373511 SPIN=   0.00000
  Li  -0.2374010  -0.4099223   0.2373511 SPIN=   0.00000
  Li   0.2625990   0.2373511   0.4099223 SPIN=   0.00000
  Li   0.2625990  -0.2373511  -0.4099223 SPIN=   0.00000
  Fe   0.2073492  -0.4175836   0.2596850 SPIN=   4.00000
  Fe   0.2073492   0.4175836  -0.2596850 SPIN=   4.00000
  Fe  -0.2926508  -0.2596850  -0.4175836 SPIN=   4.00000
  Fe  -0.2926508   0.2596850   0.4175836 SPIN=   4.00000
   O  -0.0412505  -0.1453533   0.4252015 SPIN=   0.00000
   O  -0.0905304  -0.2275317   0.1150057 SPIN=   0.00000
   O   0.0938970   0.0408378   0.1894715 SPIN=   0.00000
   O  -0.2629207   0.0290788   0.2381861 SPIN=   0.00000
   S  -0.0752011  -0.0757421   0.2419662 SPIN=   0.00000
   O  -0.0412505   0.1453533  -0.4252015 SPIN=   0.00000
   O  -0.0905304   0.2275317  -0.1150057 SPIN=   0.00000
   O   0.0938970  -0.0408378  -0.1894715 SPIN=   0.00000
   O  -0.2629207  -0.0290788  -0.2381861 SPIN=   0.00000
   S  -0.0752011   0.0757421  -0.2419662 SPIN=   0.00000
   O   0.4587495  -0.4252015  -0.1453533 SPIN=   0.00000
   O   0.4094696  -0.1150057  -0.2275317 SPIN=   0.00000
   O   0.5938970  -0.1894715   0.0408378 SPIN=   0.00000
   O   0.2370793  -0.2381861   0.0290788 SPIN=   0.00000
   S   0.4247989  -0.2419662  -0.0757421 SPIN=   0.00000
   O   0.4587495   0.4252015   0.1453533 SPIN=   0.00000
   O   0.4094696   0.1150057   0.2275317 SPIN=   0.00000
   O   0.5938970   0.1894715  -0.0408378 SPIN=   0.00000
   O   0.2370793   0.2381861  -0.0290788 SPIN=   0.00000
   S   0.4247989   0.2419662   0.0757421 SPIN=   0.00000
   F   0.4487401  -0.2503131   0.4171041 SPIN=   0.00000
   F   0.4487401   0.2503131  -0.4171041 SPIN=   0.00000
   F  -0.0512599  -0.4171041  -0.2503131 SPIN=   0.00000
   F  -0.0512599   0.4171041   0.2503131 SPIN=   0.00000
%ENDBLOCK POSITIONS_FRAC

# Note: total spin =  16.00

KPOINTS_MP_SPACING 0.07

%BLOCK SPECIES_POT
QC5
%ENDBLOCK SPECIES_POT

SNAP_TO_SYMMETRY
SYMMETRY_GENERATE

