#              Generated by Buildcell
#
# at 15:49:34 (GMT+1.0) 18th August 2020
# in /lustre/scratch/uccabz1/launch_tmp
# on node-c12c-010
# by uccabz1
#
# compiler GCC version 4.9.2
# options -cpp -iprefix /lustre/shared/ucl/apps/gcc/4.9.2/bin/../lib/gcc/x86_64-unknown-linux-gnu/4.9.2/ -mtune=corei7 -march=x86-64 -g -Og
#
# seed  -522925045  1550840824 -1600454186  1820794652  -117638161 -1048958093    95789757  1952068415 -1699125337   705289779 -1245130453  -373722830
#
#      Author: C. J. Pickard (cjp20@cam.ac.uk)
#                Space group: Pca21
#

%BLOCK LATTICE_ABC
      3.96041      8.35533     12.08807
     90.00000     90.00000     90.00000
%ENDBLOCK LATTICE_ABC

%BLOCK POSITIONS_FRAC
  Li   0.0633330  -0.0877220   0.3926613 SPIN=   0.00000
  Li  -0.4366670   0.0877220  -0.3926613 SPIN=   0.00000
  Li   0.0633330   0.0877220  -0.1073387 SPIN=   0.00000
  Li  -0.4366670  -0.0877220   0.1073387 SPIN=   0.00000
  Fe   0.3688925  -0.2495172  -0.3805136 SPIN=   4.00000
  Fe  -0.1311075   0.2495172   0.3805136 SPIN=   4.00000
  Fe   0.3688925   0.2495172   0.1194864 SPIN=   4.00000
  Fe  -0.1311075  -0.2495172  -0.1194864 SPIN=   4.00000
   O  -0.4637159   0.5163533  -0.1680435 SPIN=   0.00000
   O  -0.1150290   0.2737534  -0.1953890 SPIN=   0.00000
   O  -0.5853820   0.2708923  -0.0606076 SPIN=   0.00000
   O  -0.0696152   0.4281733  -0.0213105 SPIN=   0.00000
   S  -0.3084355   0.3722931  -0.1113377 SPIN=   0.00000
   O   0.0362841  -0.5163533   0.1680435 SPIN=   0.00000
   O   0.3849710  -0.2737534   0.1953890 SPIN=   0.00000
   O  -0.0853820  -0.2708923   0.0606076 SPIN=   0.00000
   O   0.4303848  -0.4281733   0.0213105 SPIN=   0.00000
   S   0.1915645  -0.3722931   0.1113377 SPIN=   0.00000
   O  -0.4637159  -0.5163533   0.3319565 SPIN=   0.00000
   O  -0.1150290  -0.2737534   0.3046110 SPIN=   0.00000
   O  -0.5853820  -0.2708923   0.4393924 SPIN=   0.00000
   O  -0.0696152  -0.4281733   0.4786895 SPIN=   0.00000
   S  -0.3084355  -0.3722931   0.3886623 SPIN=   0.00000
   O   0.0362841   0.5163533  -0.3319565 SPIN=   0.00000
   O   0.3849710   0.2737534  -0.3046110 SPIN=   0.00000
   O  -0.0853820   0.2708923  -0.4393924 SPIN=   0.00000
   O   0.4303848   0.4281733  -0.4786895 SPIN=   0.00000
   S   0.1915645   0.3722931  -0.3886623 SPIN=   0.00000
   F   0.4760897   0.1322579   0.3916773 SPIN=   0.00000
   F  -0.0239103  -0.1322579  -0.3916773 SPIN=   0.00000
   F   0.4760897  -0.1322579  -0.1083227 SPIN=   0.00000
   F  -0.0239103   0.1322579   0.1083227 SPIN=   0.00000
%ENDBLOCK POSITIONS_FRAC

# Note: total spin =  16.00

KPOINTS_MP_SPACING 0.07

%BLOCK SPECIES_POT
QC5
%ENDBLOCK SPECIES_POT

SNAP_TO_SYMMETRY
SYMMETRY_GENERATE

