#              Generated by Buildcell
#
# at 02:15:07 (GMT+1.0) 18th August 2020
# in /lustre/scratch/uccabz1/launch_tmp
# on node-c12k-020
# by uccabz1
#
# compiler GCC version 4.9.2
# options -cpp -iprefix /lustre/shared/ucl/apps/gcc/4.9.2/bin/../lib/gcc/x86_64-unknown-linux-gnu/4.9.2/ -mtune=corei7 -march=x86-64 -g -Og
#
# seed -1254189788   -69704050   490672889  1139442281  1851647995  -285433408 -1174838380   244653974   818733900 -1223583790   684632700   770516085
#
#      Author: C. J. Pickard (cjp20@cam.ac.uk)
#                Space group: P-1
#

%BLOCK LATTICE_ABC
      4.83280      7.07323     12.15585
     78.35762     86.75787     79.43597
%ENDBLOCK LATTICE_ABC

%BLOCK POSITIONS_FRAC
  Li  -0.3422186   0.2266239   0.0541891 SPIN=   0.00000
  Li   0.3422186  -0.2266239  -0.0541891 SPIN=   0.00000
  Li   0.0980558  -0.1796216  -0.3593332 SPIN=   0.00000
  Li  -0.0980558   0.1796216   0.3593332 SPIN=   0.00000
  Fe  -0.5709193  -0.1436366   0.3979267 SPIN=   2.53989
  Fe   0.5709193   0.1436366  -0.3979267 SPIN=   2.53989
  Fe  -0.1823659  -0.3272297   0.1609952 SPIN=   5.46011
  Fe   0.1823659   0.3272297  -0.1609952 SPIN=   5.46011
   O  -0.0784239  -0.0133516   0.1504832 SPIN=   0.00000
   O   0.2812803   0.1364236   0.0273714 SPIN=   0.00000
   O   0.3816931  -0.2152408   0.1164544 SPIN=   0.00000
   O   0.3526689   0.0381737   0.2324204 SPIN=   0.00000
   S   0.2343046  -0.0134988   0.1316823 SPIN=   0.00000
   O   0.0784239   0.0133516  -0.1504832 SPIN=   0.00000
   O  -0.2812803  -0.1364236  -0.0273714 SPIN=   0.00000
   O  -0.3816931   0.2152408  -0.1164544 SPIN=   0.00000
   O  -0.3526689  -0.0381737  -0.2324204 SPIN=   0.00000
   S  -0.2343046   0.0134988  -0.1316823 SPIN=   0.00000
   O   0.7211210  -0.4599271  -0.4931587 SPIN=   0.00000
   O   0.6087676  -0.2486720  -0.3515641 SPIN=   0.00000
   O   1.0517443  -0.4906399  -0.3397298 SPIN=   0.00000
   O   0.5949308  -0.6035102  -0.2979480 SPIN=   0.00000
   S   0.7441409  -0.4506873  -0.3706002 SPIN=   0.00000
   O  -0.7211210   0.4599271   0.4931587 SPIN=   0.00000
   O  -0.6087676   0.2486720   0.3515641 SPIN=   0.00000
   O  -1.0517443   0.4906399   0.3397298 SPIN=   0.00000
   O  -0.5949308   0.6035102   0.2979480 SPIN=   0.00000
   S  -0.7441409   0.4506873   0.3706002 SPIN=   0.00000
   F   0.2033305   0.0945562  -0.3786438 SPIN=   0.00000
   F  -0.2033305  -0.0945562   0.3786438 SPIN=   0.00000
   F  -0.2499710   0.4299050   0.1426526 SPIN=   0.00000
   F   0.2499710  -0.4299050  -0.1426526 SPIN=   0.00000
%ENDBLOCK POSITIONS_FRAC

# Note: total spin =  16.00

KPOINTS_MP_SPACING 0.07

%BLOCK SPECIES_POT
QC5
%ENDBLOCK SPECIES_POT

SNAP_TO_SYMMETRY
SYMMETRY_GENERATE

