#              Generated by Buildcell
#
# at 23:12:34 (GMT+1.0) 17th August 2020
# in /lustre/scratch/uccabz1/launch_tmp
# on node-c12k-029
# by uccabz1
#
# compiler GCC version 4.9.2
# options -cpp -iprefix /lustre/shared/ucl/apps/gcc/4.9.2/bin/../lib/gcc/x86_64-unknown-linux-gnu/4.9.2/ -mtune=corei7 -march=x86-64 -g -Og
#
# seed -1798595890 -1722301924  2057487719   522751450 -1614706959  -900599599  1289244916  1334116608 -2105373580  1289433242 -2133749871 -1818407310
#
#      Author: C. J. Pickard (cjp20@cam.ac.uk)
#                Space group: P-1
#

%BLOCK LATTICE_ABC
      4.80873      8.66619      9.91654
     85.08847     79.30303     80.62840
%ENDBLOCK LATTICE_ABC

%BLOCK POSITIONS_FRAC
  Li  -0.1511851  -0.1411286  -0.1644470 SPIN=   0.00000
  Li   0.1511851   0.1411286   0.1644470 SPIN=   0.00000
  Li   0.1100359  -0.2839303   0.3380514 SPIN=   0.00000
  Li  -0.1100359   0.2839303  -0.3380514 SPIN=   0.00000
  Fe   0.4014476   0.1137360  -0.2345282 SPIN=   3.33985
  Fe  -0.4014476  -0.1137360   0.2345282 SPIN=   3.33985
  Fe  -0.2440508   0.3142321  -0.0102153 SPIN=   4.66015
  Fe   0.2440508  -0.3142321   0.0102153 SPIN=   4.66015
   O  -1.0169393   0.1884225   0.3581340 SPIN=   0.00000
   O  -0.7769023   0.3088086   0.5135779 SPIN=   0.00000
   O  -0.4880710   0.1588883   0.3207599 SPIN=   0.00000
   O  -0.7504153   0.0206776   0.5210312 SPIN=   0.00000
   S  -0.7580820   0.1691992   0.4283757 SPIN=   0.00000
   O   1.0169393  -0.1884225  -0.3581340 SPIN=   0.00000
   O   0.7769023  -0.3088086  -0.5135779 SPIN=   0.00000
   O   0.4880710  -0.1588883  -0.3207599 SPIN=   0.00000
   O   0.7504153  -0.0206776  -0.5210312 SPIN=   0.00000
   S   0.7580820  -0.1691992  -0.4283757 SPIN=   0.00000
   O  -0.1551887   0.3721100   0.1868102 SPIN=   0.00000
   O  -0.6184722   0.5238336   0.2868450 SPIN=   0.00000
   O  -0.1772983   0.6460045   0.2461231 SPIN=   0.00000
   O  -0.2463602   0.4376445   0.4307085 SPIN=   0.00000
   S  -0.2993298   0.4948982   0.2876217 SPIN=   0.00000
   O   0.1551887  -0.3721100  -0.1868102 SPIN=   0.00000
   O   0.6184722  -0.5238336  -0.2868450 SPIN=   0.00000
   O   0.1772983  -0.6460045  -0.2461231 SPIN=   0.00000
   O   0.2463602  -0.4376445  -0.4307085 SPIN=   0.00000
   S   0.2993298  -0.4948982  -0.2876217 SPIN=   0.00000
   F  -0.0327431  -0.0683655   0.1990673 SPIN=   0.00000
   F   0.0327431   0.0683655  -0.1990673 SPIN=   0.00000
   F   0.3737081   0.2921672   0.0525582 SPIN=   0.00000
   F  -0.3737081  -0.2921672  -0.0525582 SPIN=   0.00000
%ENDBLOCK POSITIONS_FRAC

# Note: total spin =  16.00

KPOINTS_MP_SPACING 0.07

%BLOCK SPECIES_POT
QC5
%ENDBLOCK SPECIES_POT

SNAP_TO_SYMMETRY
SYMMETRY_GENERATE

