#              Generated by Buildcell
#
# at 10:19:48 (GMT+1.0) 18th August 2020
# in /lustre/scratch/uccabz1/launch_tmp
# on node-c12l-008
# by uccabz1
#
# compiler GCC version 4.9.2
# options -cpp -iprefix /lustre/shared/ucl/apps/gcc/4.9.2/bin/../lib/gcc/x86_64-unknown-linux-gnu/4.9.2/ -mtune=corei7 -march=x86-64 -g -Og
#
# seed -1430725687 -1031389889  1316885318 -1321504714  1583534092  -543806841  1782718667  2074278451 -1387758905  2010847007  1601079994  2086496864
#
#      Author: C. J. Pickard (cjp20@cam.ac.uk)
#                Space group: Aea2
#

%BLOCK LATTICE_ABC
      7.30271      7.70597      8.07166
     90.00000     90.00000    118.28349
%ENDBLOCK LATTICE_ABC

%BLOCK POSITIONS_FRAC
  Li  -0.0176648  -0.1663949  -0.2762661 SPIN=   0.00000
  Li  -0.1487301  -0.1663949   0.2762661 SPIN=   0.00000
  Li   0.3512699  -0.1663949   0.2237339 SPIN=   0.00000
  Li   0.4823352  -0.1663949  -0.2237339 SPIN=   0.00000
  Fe   0.0391909   0.4851663  -0.1577468 SPIN=   4.00000
  Fe   0.4459754   0.4851663   0.1577468 SPIN=   4.00000
  Fe  -0.0540246   0.4851663   0.3422532 SPIN=   4.00000
  Fe  -0.4608091   0.4851663  -0.3422532 SPIN=   4.00000
   O   0.3028288   0.1283123   0.5979990 SPIN=   0.00000
   O   0.1282966  -0.0867935   0.3579264 SPIN=   0.00000
   O   0.5100723   0.1250798   0.3565512 SPIN=   0.00000
   O   0.2772663   0.2749684   0.3319079 SPIN=   0.00000
   S   0.3046160   0.1103917   0.4110961 SPIN=   0.00000
   O  -0.1745165   0.1283123  -0.5979990 SPIN=   0.00000
   O  -0.2150901  -0.0867935  -0.3579264 SPIN=   0.00000
   O  -0.3849925   0.1250798  -0.3565512 SPIN=   0.00000
   O  -0.0022979   0.2749684  -0.3319079 SPIN=   0.00000
   S  -0.1942242   0.1103917  -0.4110961 SPIN=   0.00000
   O   0.3254835   0.1283123   0.0979990 SPIN=   0.00000
   O   0.2849099  -0.0867935  -0.1420736 SPIN=   0.00000
   O   0.1150075   0.1250798  -0.1434488 SPIN=   0.00000
   O   0.4977021   0.2749684  -0.1680921 SPIN=   0.00000
   S   0.3057758   0.1103917  -0.0889039 SPIN=   0.00000
   O  -0.1971712   0.1283123  -0.0979990 SPIN=   0.00000
   O  -0.3717034  -0.0867935   0.1420736 SPIN=   0.00000
   O   0.0100723   0.1250798   0.1434488 SPIN=   0.00000
   O  -0.2227337   0.2749684   0.1680921 SPIN=   0.00000
   S  -0.1953840   0.1103917   0.0889039 SPIN=   0.00000
   F  -0.4198534  -0.3559344  -0.1315924 SPIN=   0.00000
   F   0.0639191  -0.3559344   0.1315924 SPIN=   0.00000
   F  -0.4360809  -0.3559344   0.3684076 SPIN=   0.00000
   F   0.0801466  -0.3559344  -0.3684076 SPIN=   0.00000
%ENDBLOCK POSITIONS_FRAC

# Note: total spin =  16.00

KPOINTS_MP_SPACING 0.07

%BLOCK SPECIES_POT
QC5
%ENDBLOCK SPECIES_POT

SNAP_TO_SYMMETRY
SYMMETRY_GENERATE

