#              Generated by Buildcell
#
# at 15:13:04 (GMT+1.0) 18th August 2020
# in /lustre/scratch/uccabz1/launch_tmp
# on node-c12o-031
# by uccabz1
#
# compiler GCC version 4.9.2
# options -cpp -iprefix /lustre/shared/ucl/apps/gcc/4.9.2/bin/../lib/gcc/x86_64-unknown-linux-gnu/4.9.2/ -mtune=corei7 -march=x86-64 -g -Og
#
# seed  -198321521  -758488750   645586490  1808535908   134271642  -413109944   371988030  1633895147  -162118825  1711688391  1288915663  -527322350
#
#      Author: C. J. Pickard (cjp20@cam.ac.uk)
#                Space group: C2
#

%BLOCK LATTICE_ABC
      6.39369      8.11866      8.11866
    104.13053     97.23763     97.23763
%ENDBLOCK LATTICE_ABC

%BLOCK POSITIONS_FRAC
  Li   0.1182488  -0.0480449  -0.3436183 SPIN=   0.00000
  Li  -0.1182488   0.3436183   0.0480449 SPIN=   0.00000
  Li  -0.5000000  -0.0714903   0.0714903 SPIN=   0.00000
  Li  -0.5000000  -0.3800342   0.3800342 SPIN=   0.00000
  Fe  -0.2113240   0.2650701   0.4323832 SPIN=   3.98091
  Fe   0.2113240  -0.4323832  -0.2650701 SPIN=   3.98091
  Fe  -0.0000000  -0.3399330   0.3399330 SPIN=   3.07368
  Fe   0.0000000  -0.0583242   0.0583242 SPIN=   4.96449
   O  -0.2269089  -0.0198850  -0.4558785 SPIN=   0.00000
   O  -0.1877370  -0.0211506  -0.1490261 SPIN=   0.00000
   O  -0.5224112   0.0413371  -0.2923821 SPIN=   0.00000
   O  -0.1899016   0.2536187  -0.2297342 SPIN=   0.00000
   S  -0.2817397   0.0634801  -0.2817552 SPIN=   0.00000
   O   0.2269089   0.4558785   0.0198850 SPIN=   0.00000
   O   0.1877370   0.1490261   0.0211506 SPIN=   0.00000
   O   0.5224112   0.2923821  -0.0413371 SPIN=   0.00000
   O   0.1899016   0.2297342  -0.2536187 SPIN=   0.00000
   S   0.2817397   0.2817552  -0.0634801 SPIN=   0.00000
   O   0.1469619   0.3715202   0.5128833 SPIN=   0.00000
   O   0.3648388   0.3694420   0.2813348 SPIN=   0.00000
   O   0.1533834   0.0983561   0.2975123 SPIN=   0.00000
   O   0.4732786   0.2368009   0.5159396 SPIN=   0.00000
   S   0.2846157   0.2690298   0.4019175 SPIN=   0.00000
   O  -0.1469619  -0.5128833  -0.3715202 SPIN=   0.00000
   O  -0.3648388  -0.2813348  -0.3694420 SPIN=   0.00000
   O  -0.1533834  -0.2975123  -0.0983561 SPIN=   0.00000
   O  -0.4732786  -0.5159396  -0.2368009 SPIN=   0.00000
   S  -0.2846157  -0.4019175  -0.2690298 SPIN=   0.00000
   F   0.2896487  -0.1851480   0.3874109 SPIN=   0.00000
   F  -0.2896487  -0.3874109   0.1851480 SPIN=   0.00000
   F   0.2628868  -0.1794231  -0.1325340 SPIN=   0.00000
   F  -0.2628868   0.1325340   0.1794231 SPIN=   0.00000
%ENDBLOCK POSITIONS_FRAC

# Note: total spin =  16.00

KPOINTS_MP_SPACING 0.07

%BLOCK SPECIES_POT
QC5
%ENDBLOCK SPECIES_POT

SNAP_TO_SYMMETRY
SYMMETRY_GENERATE

