#              Generated by Buildcell
#
# at 06:54:13 (GMT+1.0) 4th August 2020
# in /lustre/scratch/uccabz1/launch_tmp
# on node-c12f-005
# by uccabz1
#
# compiler GCC version 4.9.2
# options -cpp -iprefix /lustre/shared/ucl/apps/gcc/4.9.2/bin/../lib/gcc/x86_64-unknown-linux-gnu/4.9.2/ -mtune=corei7 -march=x86-64 -g -Og
#
# seed -1039486983  1019775361  1120595467  2111033204  1566187711   551500536 -1388814534   632226758 -2016803607 -1851406652  1271163386 -1959304526
#
#      Author: C. J. Pickard (cjp20@cam.ac.uk)
#                Space group: P-1
#

%BLOCK LATTICE_ABC
      4.90932      7.33309     11.43563
     79.20229     82.24758     85.24388
%ENDBLOCK LATTICE_ABC

%BLOCK POSITIONS_FRAC
  Li   0.2074327  -0.2629190   0.0234264 SPIN=   0.00000
  Li  -0.2074327   0.2629190  -0.0234264 SPIN=   0.00000
  Li  -0.0861714   0.2105093   0.3268823 SPIN=   0.00000
  Li   0.0861714  -0.2105093  -0.3268823 SPIN=   0.00000
  Fe  -0.3590713   0.3740443  -0.2962878 SPIN=   3.47803
  Fe   0.3590713  -0.3740443   0.2962878 SPIN=   3.47803
  Fe  -0.2188098  -0.1612864   0.4621911 SPIN=   4.52197
  Fe   0.2188098   0.1612864  -0.4621911 SPIN=   4.52197
   O  -0.4384810  -0.5096595  -0.0962979 SPIN=   0.00000
   O   0.0398220  -0.4357874  -0.1792881 SPIN=   0.00000
   O  -0.1834368  -0.3123974  -0.0004867 SPIN=   0.00000
   O  -0.3369657  -0.1901805  -0.1992563 SPIN=   0.00000
   S  -0.2297654  -0.3620062  -0.1188322 SPIN=   0.00000
   O   0.4384810   0.5096595   0.0962979 SPIN=   0.00000
   O  -0.0398220   0.4357874   0.1792881 SPIN=   0.00000
   O   0.1834368   0.3123974   0.0004867 SPIN=   0.00000
   O   0.3369657   0.1901805   0.1992563 SPIN=   0.00000
   S   0.2297654   0.3620062   0.1188322 SPIN=   0.00000
   O   0.2792797  -0.0030974  -0.2775584 SPIN=   0.00000
   O   0.2540391   0.2852175  -0.1925351 SPIN=   0.00000
   O   0.3651702  -0.0187147  -0.0674717 SPIN=   0.00000
   O  -0.1056204   0.0583872  -0.1237989 SPIN=   0.00000
   S   0.1982172   0.0804481  -0.1653410 SPIN=   0.00000
   O  -0.2792797   0.0030974   0.2775584 SPIN=   0.00000
   O  -0.2540391  -0.2852175   0.1925351 SPIN=   0.00000
   O  -0.3651702   0.0187147   0.0674717 SPIN=   0.00000
   O   0.1056204  -0.0583872   0.1237989 SPIN=   0.00000
   S  -0.1982172  -0.0804481   0.1653410 SPIN=   0.00000
   F  -0.2916383  -0.3841522  -0.4174409 SPIN=   0.00000
   F   0.2916383   0.3841522   0.4174409 SPIN=   0.00000
   F  -0.2346997   0.1039060  -0.3881941 SPIN=   0.00000
   F   0.2346997  -0.1039060   0.3881941 SPIN=   0.00000
%ENDBLOCK POSITIONS_FRAC

# Note: total spin =  16.00

KPOINTS_MP_SPACING 0.07

%BLOCK SPECIES_POT
QC5
%ENDBLOCK SPECIES_POT

SNAP_TO_SYMMETRY
SYMMETRY_GENERATE

