#              Generated by Buildcell
#
# at 06:30:58 (GMT+1.0) 4th August 2020
# in /lustre/scratch/uccabz1/launch_tmp
# on node-c12p-016
# by uccabz1
#
# compiler GCC version 4.9.2
# options -cpp -iprefix /lustre/shared/ucl/apps/gcc/4.9.2/bin/../lib/gcc/x86_64-unknown-linux-gnu/4.9.2/ -mtune=corei7 -march=x86-64 -g -Og
#
# seed  1311146076 -1596596477  -349833165  1421667635  1434225271  -587151259  1579655519  1443276927  1876961743 -1457299551  -234692388  -789356225
#
#      Author: C. J. Pickard (cjp20@cam.ac.uk)
#                Space group: Pc
#

%BLOCK LATTICE_ABC
      6.13255      6.41044     10.84120
     90.00000     90.00000    110.19194
%ENDBLOCK LATTICE_ABC

%BLOCK POSITIONS_FRAC
  Li  -0.3896170   0.3708959   0.1845804 SPIN=   0.00000
  Li   0.1103830   0.3708959  -0.1845804 SPIN=   0.00000
  Li  -0.2530526  -0.2467030  -0.1124622 SPIN=   0.00000
  Li   0.2469474  -0.2467030   0.1124622 SPIN=   0.00000
  Fe  -0.1400149  -0.3523082   0.4006660 SPIN=   4.94574
  Fe   0.3599851  -0.3523082  -0.4006660 SPIN=   4.94574
  Fe   0.3819844   0.0828088  -0.0986369 SPIN=   3.05426
  Fe  -0.1180156   0.0828088   0.0986369 SPIN=   3.05426
   O  -0.3287077   0.2747365   0.3524650 SPIN=   0.00000
   O  -0.6201269  -0.1039386   0.3356279 SPIN=   0.00000
   O  -0.3986253   0.0157935   0.5293434 SPIN=   0.00000
   O  -0.2010847  -0.0513934   0.3423027 SPIN=   0.00000
   S  -0.3871361   0.0337995   0.3899347 SPIN=   0.00000
   O   0.1712923   0.2747365  -0.3524650 SPIN=   0.00000
   O  -0.1201269  -0.1039386  -0.3356279 SPIN=   0.00000
   O   0.1013747   0.0157935  -0.5293434 SPIN=   0.00000
   O   0.2989153  -0.0513934  -0.3423027 SPIN=   0.00000
   S   0.1128639   0.0337995  -0.3899347 SPIN=   0.00000
   O   0.0975149   0.4017662   0.4347235 SPIN=   0.00000
   O   0.4825566   0.5938075   0.3406325 SPIN=   0.00000
   O   0.1300980   0.4727533   0.2098989 SPIN=   0.00000
   O   0.2777721   0.1933640   0.3010934 SPIN=   0.00000
   S   0.2469854   0.4154228   0.3215871 SPIN=   0.00000
   O  -0.4024851   0.4017662  -0.4347235 SPIN=   0.00000
   O  -0.0174434   0.5938075  -0.3406325 SPIN=   0.00000
   O  -0.3699020   0.4727533  -0.2098989 SPIN=   0.00000
   O  -0.2222279   0.1933640  -0.3010934 SPIN=   0.00000
   S  -0.2530146   0.4154228  -0.3215871 SPIN=   0.00000
   F   0.3149223  -0.3239237  -0.1656100 SPIN=   0.00000
   F  -0.1850777  -0.3239237   0.1656100 SPIN=   0.00000
   F   0.3805312   0.0707651   0.0856388 SPIN=   0.00000
   F  -0.1194688   0.0707651  -0.0856388 SPIN=   0.00000
%ENDBLOCK POSITIONS_FRAC

# Note: total spin =  16.00

KPOINTS_MP_SPACING 0.07

%BLOCK SPECIES_POT
QC5
%ENDBLOCK SPECIES_POT

SNAP_TO_SYMMETRY
SYMMETRY_GENERATE

