#              Generated by Buildcell
#
# at 11:03:20 (GMT+1.0) 18th August 2020
# in /scratch/scratch/uccabz1/launch_tmp
# on node-k10c-005
# by uccabz1
#
# compiler GCC version 4.9.2
# options -cpp -iprefix /scratch/UCL/applications/gcc/4.9.2/bin/../lib/gcc/x86_64-unknown-linux-gnu/4.9.2/ -mtune=corei7 -march=x86-64 -g -O2
#
# seed   -20865882   363287580   980896122   368983792  -613359109  1842539575  2011700891  1229840636 -1287838572 -1221109020 -1678049806   -10975275
#
#      Author: C. J. Pickard (cjp20@cam.ac.uk)
#                Space group: P21
#

%BLOCK LATTICE_ABC
      6.16388      7.99524      8.13192
     90.00000     93.51741     90.00000
%ENDBLOCK LATTICE_ABC

%BLOCK POSITIONS_FRAC
  Li   0.4799995   0.2887172  -0.4120426 SPIN=   0.00000
  Li  -0.4799995  -0.2112828   0.4120426 SPIN=   0.00000
  Li  -0.1946653   0.2035380  -0.0415930 SPIN=   0.00000
  Li   0.1946653  -0.2964620   0.0415930 SPIN=   0.00000
  Fe  -0.4157486   0.4451065   0.2602705 SPIN=   5.85953
  Fe   0.4157486  -0.0548935  -0.2602705 SPIN=   5.85953
  Fe   0.1349294   0.0424023   0.2043045 SPIN=   2.14047
  Fe  -0.1349294  -0.4575977  -0.2043045 SPIN=   2.14047
   O   0.0200755  -0.0284123  -0.5669283 SPIN=   0.00000
   O   0.1636656  -0.2141186  -0.3423413 SPIN=   0.00000
   O   0.0679968  -0.3306977  -0.6192731 SPIN=   0.00000
   O  -0.2220754  -0.2346488  -0.4442309 SPIN=   0.00000
   S   0.0074156  -0.2019694  -0.4931934 SPIN=   0.00000
   O  -0.0200755   0.4715877   0.5669283 SPIN=   0.00000
   O  -0.1636656   0.2858814   0.3423413 SPIN=   0.00000
   O  -0.0679968   0.1693023   0.6192731 SPIN=   0.00000
   O   0.2220754   0.2653512   0.4442309 SPIN=   0.00000
   S  -0.0074156   0.2980306   0.4931934 SPIN=   0.00000
   O   0.3573959   0.6227666  -0.1398377 SPIN=   0.00000
   O   0.2647501   0.3840935   0.0365313 SPIN=   0.00000
   O   0.6087633   0.3822266  -0.1052093 SPIN=   0.00000
   O   0.2573794   0.3496998  -0.2662163 SPIN=   0.00000
   S   0.3720722   0.4346966  -0.1186830 SPIN=   0.00000
   O  -0.3573959   0.1227666   0.1398377 SPIN=   0.00000
   O  -0.2647501  -0.1159065  -0.0365313 SPIN=   0.00000
   O  -0.6087633  -0.1177734   0.1052093 SPIN=   0.00000
   O  -0.2573794  -0.1503002   0.2662163 SPIN=   0.00000
   S  -0.3720722  -0.0653034   0.1186830 SPIN=   0.00000
   F   0.4898114  -0.4588328   0.4586535 SPIN=   0.00000
   F  -0.4898114   0.0411672  -0.4586535 SPIN=   0.00000
   F   0.1097527   0.0253395  -0.1062843 SPIN=   0.00000
   F  -0.1097527  -0.4746605   0.1062843 SPIN=   0.00000
%ENDBLOCK POSITIONS_FRAC

# Note: total spin =  16.00

KPOINTS_MP_SPACING 0.07

%BLOCK SPECIES_POT
QC5
%ENDBLOCK SPECIES_POT

SNAP_TO_SYMMETRY
SYMMETRY_GENERATE

