#              Generated by Buildcell
#
# at 07:02:15 (GMT+1.0) 18th August 2020
# in /lustre/scratch/uccabz1/launch_tmp
# on node-c12l-006
# by uccabz1
#
# compiler GCC version 4.9.2
# options -cpp -iprefix /lustre/shared/ucl/apps/gcc/4.9.2/bin/../lib/gcc/x86_64-unknown-linux-gnu/4.9.2/ -mtune=corei7 -march=x86-64 -g -Og
#
# seed  1304923444   696446361 -1129782678    -1570818  1912305597 -1062425230  1929564856  1380195900   658388165 -1323804712  -213468339 -1790542048
#
#      Author: C. J. Pickard (cjp20@cam.ac.uk)
#                Space group: Pna21
#

%BLOCK LATTICE_ABC
      4.95363      7.48895     10.78239
     90.00000     90.00000     90.00000
%ENDBLOCK LATTICE_ABC

%BLOCK POSITIONS_FRAC
  Li   0.1485910  -0.3435349   0.2952917 SPIN=   0.00000
  Li  -0.1485910   0.3435349  -0.2047083 SPIN=   0.00000
  Li   0.3514090   0.1564651   0.2952917 SPIN=   0.00000
  Li  -0.3514090  -0.1564651  -0.2047083 SPIN=   0.00000
  Fe   0.0830284  -0.2682185  -0.0390039 SPIN=   4.00000
  Fe  -0.0830284   0.2682185   0.4609961 SPIN=   4.00000
  Fe   0.4169716   0.2317815  -0.0390039 SPIN=   4.00000
  Fe  -0.4169716  -0.2317815   0.4609961 SPIN=   4.00000
   O   0.1607454   0.1787809  -0.3542452 SPIN=   0.00000
   O   0.5075689  -0.0482200  -0.4036138 SPIN=   0.00000
   O   0.5176662   0.1079015  -0.2013664 SPIN=   0.00000
   O   0.6325616   0.2714232  -0.3937155 SPIN=   0.00000
   S   0.4546355   0.1274714  -0.3382352 SPIN=   0.00000
   O  -0.1607454  -0.1787809   0.1457548 SPIN=   0.00000
   O  -0.5075689   0.0482200   0.0963862 SPIN=   0.00000
   O  -0.5176662  -0.1079015   0.2986336 SPIN=   0.00000
   O  -0.6325616  -0.2714232   0.1062845 SPIN=   0.00000
   S  -0.4546355  -0.1274714   0.1617648 SPIN=   0.00000
   O   0.3392546  -0.3212191  -0.3542452 SPIN=   0.00000
   O  -0.0075689  -0.5482200  -0.4036138 SPIN=   0.00000
   O  -0.0176662  -0.3920985  -0.2013664 SPIN=   0.00000
   O  -0.1325616  -0.2285768  -0.3937155 SPIN=   0.00000
   S   0.0453645  -0.3725286  -0.3382352 SPIN=   0.00000
   O  -0.3392546   0.3212191   0.1457548 SPIN=   0.00000
   O   0.0075689   0.5482200   0.0963862 SPIN=   0.00000
   O   0.0176662   0.3920985   0.2986336 SPIN=   0.00000
   O   0.1325616   0.2285768   0.1062845 SPIN=   0.00000
   S  -0.0453645   0.3725286   0.1617648 SPIN=   0.00000
   F   0.4788797  -0.4745717   0.3974043 SPIN=   0.00000
   F  -0.4788797   0.4745717  -0.1025957 SPIN=   0.00000
   F   0.0211203   0.0254283   0.3974043 SPIN=   0.00000
   F  -0.0211203  -0.0254283  -0.1025957 SPIN=   0.00000
%ENDBLOCK POSITIONS_FRAC

# Note: total spin =  16.00

KPOINTS_MP_SPACING 0.07

%BLOCK SPECIES_POT
QC5
%ENDBLOCK SPECIES_POT

SNAP_TO_SYMMETRY
SYMMETRY_GENERATE

