#              Generated by Buildcell
#
# at 08:16:10 (GMT+1.0) 4th August 2020
# in /lustre/scratch/uccabz1/launch_tmp
# on node-c12m-018
# by uccabz1
#
# compiler GCC version 4.9.2
# options -cpp -iprefix /lustre/shared/ucl/apps/gcc/4.9.2/bin/../lib/gcc/x86_64-unknown-linux-gnu/4.9.2/ -mtune=corei7 -march=x86-64 -g -Og
#
# seed   805584343   605313957   507392934  2099381431   541920492  -894059843  1798145152   184634027   877647509  1741825682   826024402    28463572
#
#      Author: C. J. Pickard (cjp20@cam.ac.uk)
#                Space group: P-1
#

%BLOCK LATTICE_ABC
      5.41287      7.40546     10.51388
     89.23353     82.02242     73.48558
%ENDBLOCK LATTICE_ABC

%BLOCK POSITIONS_FRAC
  Li  -0.0049341  -0.3601701  -0.1795710 SPIN=   0.00000
  Li   0.0049341   0.3601701   0.1795710 SPIN=   0.00000
  Li   0.4425779  -0.1720966   0.1377621 SPIN=   0.00000
  Li  -0.4425779   0.1720966  -0.1377621 SPIN=   0.00000
  Fe   0.3293938  -0.0157514  -0.3258130 SPIN=   4.15302
  Fe  -0.3293938   0.0157514   0.3258130 SPIN=   4.15302
  Fe   0.4060735  -0.4628427   0.3359748 SPIN=   3.84698
  Fe  -0.4060735   0.4628427  -0.3359748 SPIN=   3.84698
   O  -0.2919370   0.4325419  -0.0395620 SPIN=   0.00000
   O   0.1887069   0.3377542  -0.0578103 SPIN=   0.00000
   O  -0.0241286   0.3313725  -0.2507142 SPIN=   0.00000
   O  -0.0415309   0.0979575  -0.0815194 SPIN=   0.00000
   S  -0.0422224   0.2999065  -0.1074015 SPIN=   0.00000
   O   0.2919370  -0.4325419   0.0395620 SPIN=   0.00000
   O  -0.1887069  -0.3377542   0.0578103 SPIN=   0.00000
   O   0.0241286  -0.3313725   0.2507142 SPIN=   0.00000
   O   0.0415309  -0.0979575   0.0815194 SPIN=   0.00000
   S   0.0422224  -0.2999065   0.1074015 SPIN=   0.00000
   O   0.3182832   0.2754595   0.3896431 SPIN=   0.00000
   O  -0.0219792   0.1557829   0.3157424 SPIN=   0.00000
   O  -0.1468392   0.4329665   0.4646528 SPIN=   0.00000
   O   0.0619931   0.1162394   0.5413735 SPIN=   0.00000
   S   0.0528645   0.2451121   0.4278530 SPIN=   0.00000
   O  -0.3182832  -0.2754595  -0.3896431 SPIN=   0.00000
   O   0.0219792  -0.1557829  -0.3157424 SPIN=   0.00000
   O   0.1468392  -0.4329665  -0.4646528 SPIN=   0.00000
   O  -0.0619931  -0.1162394  -0.5413735 SPIN=   0.00000
   S  -0.0528645  -0.2451121  -0.4278530 SPIN=   0.00000
   F   0.4706799  -0.1667026  -0.1255651 SPIN=   0.00000
   F  -0.4706799   0.1667026   0.1255651 SPIN=   0.00000
   F   0.4866953  -0.2021642   0.3671351 SPIN=   0.00000
   F  -0.4866953   0.2021642  -0.3671351 SPIN=   0.00000
%ENDBLOCK POSITIONS_FRAC

# Note: total spin =  16.00

KPOINTS_MP_SPACING 0.07

%BLOCK SPECIES_POT
QC5
%ENDBLOCK SPECIES_POT

SNAP_TO_SYMMETRY
SYMMETRY_GENERATE

