#              Generated by Buildcell
#
# at 07:29:58 (GMT+1.0) 4th August 2020
# in /lustre/scratch/uccabz1/launch_tmp
# on node-c12d-004
# by uccabz1
#
# compiler GCC version 4.9.2
# options -cpp -iprefix /lustre/shared/ucl/apps/gcc/4.9.2/bin/../lib/gcc/x86_64-unknown-linux-gnu/4.9.2/ -mtune=corei7 -march=x86-64 -g -Og
#
# seed -1572264482  1509515034  -759558577   639685105  -799823333  -576924636   416078789   910470686  1608816844 -1601637794  1456221384 -1516452780
#
#      Author: C. J. Pickard (cjp20@cam.ac.uk)
#                Space group: P21/c
#

%BLOCK LATTICE_ABC
      5.88428      6.27840     10.92025
     90.00000     90.00000     97.48352
%ENDBLOCK LATTICE_ABC

%BLOCK POSITIONS_FRAC
  Li  -0.2293643   0.4942971  -0.1530698 SPIN=   0.00000
  Li   0.2293643   0.0057029   0.3469302 SPIN=   0.00000
  Li   0.2293643  -0.4942971   0.1530698 SPIN=   0.00000
  Li  -0.2293643  -0.0057029  -0.3469302 SPIN=   0.00000
  Fe   0.2633648   0.1330632  -0.0501481 SPIN=   4.00000
  Fe  -0.2633648   0.3669368   0.4498519 SPIN=   4.00000
  Fe  -0.2633648  -0.1330632   0.0501481 SPIN=   4.00000
  Fe   0.2633648  -0.3669368  -0.4498519 SPIN=   4.00000
   O  -0.4194803   0.5610463   0.0902071 SPIN=   0.00000
   O  -0.4669116   0.1639892   0.0794250 SPIN=   0.00000
   O  -0.4168443   0.3466812   0.2802725 SPIN=   0.00000
   O  -0.0911207   0.3644029   0.1356385 SPIN=   0.00000
   S  -0.3485892   0.3590299   0.1463858 SPIN=   0.00000
   O   0.4194803  -0.0610463  -0.4097929 SPIN=   0.00000
   O   0.4669116   0.3360108  -0.4205750 SPIN=   0.00000
   O   0.4168443   0.1533188  -0.2197275 SPIN=   0.00000
   O   0.0911207   0.1355971  -0.3643615 SPIN=   0.00000
   S   0.3485892   0.1409701  -0.3536142 SPIN=   0.00000
   O   0.4194803  -0.5610463  -0.0902071 SPIN=   0.00000
   O   0.4669116  -0.1639892  -0.0794250 SPIN=   0.00000
   O   0.4168443  -0.3466812  -0.2802725 SPIN=   0.00000
   O   0.0911207  -0.3644029  -0.1356385 SPIN=   0.00000
   S   0.3485892  -0.3590299  -0.1463858 SPIN=   0.00000
   O  -0.4194803   0.0610463   0.4097929 SPIN=   0.00000
   O  -0.4669116  -0.3360108   0.4205750 SPIN=   0.00000
   O  -0.4168443  -0.1533188   0.2197275 SPIN=   0.00000
   O  -0.0911207  -0.1355971   0.3643615 SPIN=   0.00000
   S  -0.3485892  -0.1409701   0.3536142 SPIN=   0.00000
   F  -0.1286724   0.1561258  -0.1370665 SPIN=   0.00000
   F   0.1286724   0.3438742   0.3629335 SPIN=   0.00000
   F   0.1286724  -0.1561258   0.1370665 SPIN=   0.00000
   F  -0.1286724  -0.3438742  -0.3629335 SPIN=   0.00000
%ENDBLOCK POSITIONS_FRAC

# Note: total spin =  16.00

KPOINTS_MP_SPACING 0.07

%BLOCK SPECIES_POT
QC5
%ENDBLOCK SPECIES_POT

SNAP_TO_SYMMETRY
SYMMETRY_GENERATE

