#              Generated by Buildcell
#
# at 09:58:09 (GMT+1.0) 18th August 2020
# in /lustre/scratch/uccabz1/launch_tmp
# on node-c12f-005
# by uccabz1
#
# compiler GCC version 4.9.2
# options -cpp -iprefix /lustre/shared/ucl/apps/gcc/4.9.2/bin/../lib/gcc/x86_64-unknown-linux-gnu/4.9.2/ -mtune=corei7 -march=x86-64 -g -Og
#
# seed -1544384007  -818030543 -1594325081  1331575177  1337514508  1411421387  1693592705   140397958  1258279236 -1428603922   622769614  1744782764
#
#      Author: C. J. Pickard (cjp20@cam.ac.uk)
#                Space group: P21
#

%BLOCK LATTICE_ABC
      6.68185      7.07520      8.47319
     90.00000     93.06739     90.00000
%ENDBLOCK LATTICE_ABC

%BLOCK POSITIONS_FRAC
  Li   0.4371844  -0.3637060   0.3804826 SPIN=   0.00000
  Li  -0.4371844   0.1362940  -0.3804826 SPIN=   0.00000
  Li   0.1762556   0.1106973   0.3101851 SPIN=   0.00000
  Li  -0.1762556  -0.3893027  -0.3101851 SPIN=   0.00000
  Fe  -0.0956893   0.4426560   0.0644988 SPIN=   4.61322
  Fe   0.0956893  -0.0573440  -0.0644988 SPIN=   4.61322
  Fe   0.2341670   0.3873728  -0.2825746 SPIN=   3.38678
  Fe  -0.2341670  -0.1126272   0.2825746 SPIN=   3.38678
   O  -0.3075213  -0.1447033  -0.2773881 SPIN=   0.00000
   O  -0.6282710  -0.1560717  -0.1445424 SPIN=   0.00000
   O  -0.3890303   0.1050362  -0.0866479 SPIN=   0.00000
   O  -0.3089239  -0.2185199   0.0080556 SPIN=   0.00000
   S  -0.4084366  -0.1035647  -0.1251307 SPIN=   0.00000
   O   0.3075213   0.3552967   0.2773881 SPIN=   0.00000
   O   0.6282710   0.3439283   0.1445424 SPIN=   0.00000
   O   0.3890303   0.6050362   0.0866479 SPIN=   0.00000
   O   0.3089239   0.2814801  -0.0080556 SPIN=   0.00000
   S   0.4084366   0.3964353   0.1251307 SPIN=   0.00000
   O   0.3729110  -0.1126908  -0.4203062 SPIN=   0.00000
   O   0.0888258  -0.1293474  -0.6195772 SPIN=   0.00000
   O   0.0251594  -0.0768875  -0.3378696 SPIN=   0.00000
   O   0.1448840  -0.3885409  -0.4261041 SPIN=   0.00000
   S   0.1579451  -0.1768666  -0.4509643 SPIN=   0.00000
   O  -0.3729110   0.3873092   0.4203062 SPIN=   0.00000
   O  -0.0888258   0.3706526   0.6195772 SPIN=   0.00000
   O  -0.0251594   0.4231125   0.3378696 SPIN=   0.00000
   O  -0.1448840   0.1114591   0.4261041 SPIN=   0.00000
   S  -0.1579451   0.3231334   0.4509643 SPIN=   0.00000
   F   0.0279478  -0.4111482  -0.1079812 SPIN=   0.00000
   F  -0.0279478   0.0888518   0.1079812 SPIN=   0.00000
   F   0.4717926  -0.0559876   0.2599661 SPIN=   0.00000
   F  -0.4717926   0.4440124  -0.2599661 SPIN=   0.00000
%ENDBLOCK POSITIONS_FRAC

# Note: total spin =  16.00

KPOINTS_MP_SPACING 0.07

%BLOCK SPECIES_POT
QC5
%ENDBLOCK SPECIES_POT

SNAP_TO_SYMMETRY
SYMMETRY_GENERATE

