#              Generated by Buildcell
#
# at 06:14:24 (GMT+1.0) 4th August 2020
# in /lustre/scratch/uccabz1/launch_tmp
# on node-c12c-023
# by uccabz1
#
# compiler GCC version 4.9.2
# options -cpp -iprefix /lustre/shared/ucl/apps/gcc/4.9.2/bin/../lib/gcc/x86_64-unknown-linux-gnu/4.9.2/ -mtune=corei7 -march=x86-64 -g -Og
#
# seed  1909914350 -1428678649   714515311   762237667  -488838937 -1257912154 -1993609354  1375241775   471417039 -2069103213   845767774  2037268387
#
#      Author: C. J. Pickard (cjp20@cam.ac.uk)
#                Space group: I-4
#

%BLOCK LATTICE_ABC
      8.05745      8.05745      8.05745
    106.84915    106.84915    114.85316
%ENDBLOCK LATTICE_ABC

%BLOCK POSITIONS_FRAC
  Li   0.1640349   0.4604340   0.1554018 SPIN=   0.00000
  Li   0.3050322   0.0086331  -0.1554018 SPIN=   0.00000
  Li  -0.0086331  -0.1640349   0.2963991 SPIN=   0.00000
  Li  -0.4604340  -0.3050322  -0.2963991 SPIN=   0.00000
  Fe  -0.0812592   0.1574610   0.2618570 SPIN=   4.00000
  Fe  -0.1043960  -0.3431162  -0.2618570 SPIN=   4.00000
  Fe   0.3431162   0.0812592   0.2387202 SPIN=   4.00000
  Fe  -0.1574610   0.1043960  -0.2387202 SPIN=   4.00000
   O  -0.5788116  -0.1255296   0.1723397 SPIN=   0.00000
   O  -0.5607998  -0.4242407   0.1739696 SPIN=   0.00000
   O  -0.4512847  -0.1349211   0.4861486 SPIN=   0.00000
   O  -0.2373337  -0.0811508   0.3160206 SPIN=   0.00000
   S  -0.4570574  -0.1914606   0.2871196 SPIN=   0.00000
   O  -0.2978693   0.2488487  -0.1723397 SPIN=   0.00000
   O  -0.5982103   0.2652307  -0.1739696 SPIN=   0.00000
   O  -0.6210697   0.0625668  -0.4861486 SPIN=   0.00000
   O  -0.3971715   0.4466457  -0.3160206 SPIN=   0.00000
   S  -0.4785802   0.2558229  -0.2871196 SPIN=   0.00000
   O  -0.2488487   0.5788116   0.4532820 SPIN=   0.00000
   O  -0.2652307   0.5607998   0.1365591 SPIN=   0.00000
   O  -0.0625668   0.4512847   0.3163636 SPIN=   0.00000
   O  -0.4466457   0.2373337   0.1561828 SPIN=   0.00000
   S  -0.2558229   0.4570574   0.2655969 SPIN=   0.00000
   O   0.1255296   0.2978693  -0.4532820 SPIN=   0.00000
   O   0.4242407   0.5982103  -0.1365591 SPIN=   0.00000
   O   0.1349211   0.6210697  -0.3163636 SPIN=   0.00000
   O   0.0811508   0.3971715  -0.1561828 SPIN=   0.00000
   S   0.1914606   0.4785802  -0.2655969 SPIN=   0.00000
   F   0.0203165  -0.0350198  -0.3123352 SPIN=   0.00000
   F   0.2773154   0.3326517   0.3123352 SPIN=   0.00000
   F  -0.3326517  -0.0203165  -0.0553363 SPIN=   0.00000
   F   0.0350198  -0.2773154   0.0553363 SPIN=   0.00000
%ENDBLOCK POSITIONS_FRAC

# Note: total spin =  16.00

KPOINTS_MP_SPACING 0.07

%BLOCK SPECIES_POT
QC5
%ENDBLOCK SPECIES_POT

SNAP_TO_SYMMETRY
SYMMETRY_GENERATE

