#              Generated by Buildcell
#
# at 09:01:57 (GMT+1.0) 4th August 2020
# in /lustre/scratch/uccabz1/launch_tmp
# on node-c12l-022
# by uccabz1
#
# compiler GCC version 4.9.2
# options -cpp -iprefix /lustre/shared/ucl/apps/gcc/4.9.2/bin/../lib/gcc/x86_64-unknown-linux-gnu/4.9.2/ -mtune=corei7 -march=x86-64 -g -Og
#
# seed -1294157548   588109850  2074031917  1521972892  -881150550  -250026015  1332877156 -1147194871  1632618286 -2043071602  -874892633   642995316
#
#      Author: C. J. Pickard (cjp20@cam.ac.uk)
#                Space group: Pc
#

%BLOCK LATTICE_ABC
      6.08962      7.30852      9.00153
     90.00000     90.00000     93.19675
%ENDBLOCK LATTICE_ABC

%BLOCK POSITIONS_FRAC
  Li  -0.0636343   0.4543841  -0.1773061 SPIN=   0.00000
  Li   0.4363657   0.4543841   0.1773061 SPIN=   0.00000
  Li   0.0172811  -0.0946490   0.1512502 SPIN=   0.00000
  Li  -0.4827189  -0.0946490  -0.1512502 SPIN=   0.00000
  Fe  -0.3385535  -0.3451774  -0.3830188 SPIN=   2.93404
  Fe   0.1614465  -0.3451774   0.3830188 SPIN=   2.93404
  Fe   0.3388845   0.1477899   0.3828478 SPIN=   5.06596
  Fe  -0.1611155   0.1477899  -0.3828478 SPIN=   5.06596
   O  -0.2541503  -0.2651916   0.2430918 SPIN=   0.00000
   O  -0.6327722  -0.1619865   0.2192602 SPIN=   0.00000
   O  -0.4640247  -0.3250292   0.0110538 SPIN=   0.00000
   O  -0.3298589  -0.0087756   0.0744612 SPIN=   0.00000
   S  -0.4202015  -0.1902458   0.1369668 SPIN=   0.00000
   O   0.2458497  -0.2651916  -0.2430918 SPIN=   0.00000
   O  -0.1327722  -0.1619865  -0.2192602 SPIN=   0.00000
   O   0.0359753  -0.3250292  -0.0110538 SPIN=   0.00000
   O   0.1701411  -0.0087756  -0.0744612 SPIN=   0.00000
   S   0.0797985  -0.1902458  -0.1369668 SPIN=   0.00000
   O  -0.3362736   0.2414332   0.2454843 SPIN=   0.00000
   O  -0.0288252   0.4771655   0.2337143 SPIN=   0.00000
   O  -0.2551605   0.4072129   0.0103524 SPIN=   0.00000
   O   0.0000139   0.1813698   0.1032907 SPIN=   0.00000
   S  -0.1550613   0.3267953   0.1482104 SPIN=   0.00000
   O   0.1637264   0.2414332  -0.2454843 SPIN=   0.00000
   O   0.4711748   0.4771655  -0.2337143 SPIN=   0.00000
   O   0.2448395   0.4072129  -0.0103524 SPIN=   0.00000
   O   0.5000139   0.1813698  -0.1032907 SPIN=   0.00000
   S   0.3449387   0.3267953  -0.1482104 SPIN=   0.00000
   F   0.3776556   0.4793101   0.3817765 SPIN=   0.00000
   F  -0.1223444   0.4793101  -0.3817765 SPIN=   0.00000
   F  -0.4671886  -0.0033425  -0.3818639 SPIN=   0.00000
   F   0.0328114  -0.0033425   0.3818639 SPIN=   0.00000
%ENDBLOCK POSITIONS_FRAC

# Note: total spin =  16.00

KPOINTS_MP_SPACING 0.07

%BLOCK SPECIES_POT
QC5
%ENDBLOCK SPECIES_POT

SNAP_TO_SYMMETRY
SYMMETRY_GENERATE

