#              Generated by Buildcell
#
# at 15:17:12 (GMT+1.0) 18th August 2020
# in /scratch/scratch/uccabz1/launch_tmp
# on node-k10i-017
# by uccabz1
#
# compiler GCC version 4.9.2
# options -cpp -iprefix /scratch/UCL/applications/gcc/4.9.2/bin/../lib/gcc/x86_64-unknown-linux-gnu/4.9.2/ -mtune=corei7 -march=x86-64 -g -O2
#
# seed  1760935379   176602864  1097092560  1004189263  -470972318  1817202568   364170876   803686362  1879315730  1491552264  2092739483   -39887861
#
#      Author: C. J. Pickard (cjp20@cam.ac.uk)
#                Space group: Cm
#

%BLOCK LATTICE_ABC
      6.51192      7.92481      7.92481
     83.66840     82.39073     82.39073
%ENDBLOCK LATTICE_ABC

%BLOCK POSITIONS_FRAC
  Li  -0.3560838  -0.0225932  -0.3654311 SPIN=   0.00000
  Li  -0.3560838  -0.3654311  -0.0225932 SPIN=   0.00000
  Li  -0.3454655   0.2196377   0.2196377 SPIN=   0.00000
  Li   0.2574345   0.0110190   0.0110190 SPIN=   0.00000
  Fe   0.4662703   0.3140589  -0.0932404 SPIN=   5.73040
  Fe   0.4662703  -0.0932404   0.3140589 SPIN=   5.73040
  Fe   0.1772614  -0.3641271  -0.3641271 SPIN=   1.31883
  Fe  -0.1452965  -0.0612281  -0.0612281 SPIN=   3.22036
   O   0.1467053   0.0400989   0.2670674 SPIN=   0.00000
   O  -0.1512590  -0.1007041   0.2104969 SPIN=   0.00000
   O  -0.2019889   0.1074486   0.4277195 SPIN=   0.00000
   O   0.0003799  -0.1759319   0.4831713 SPIN=   0.00000
   S  -0.0515407  -0.0322721   0.3471138 SPIN=   0.00000
   O   0.1467053   0.2670674   0.0400989 SPIN=   0.00000
   O  -0.1512590   0.2104969  -0.1007041 SPIN=   0.00000
   O  -0.2019889   0.4277195   0.1074486 SPIN=   0.00000
   O   0.0003799   0.4831713  -0.1759319 SPIN=   0.00000
   S  -0.0515407   0.3471138  -0.0322721 SPIN=   0.00000
   O   0.4196006   0.1543644  -0.5940545 SPIN=   0.00000
   O   0.3449284   0.3800636  -0.3945531 SPIN=   0.00000
   O   0.3431332   0.0759084  -0.2831315 SPIN=   0.00000
   O   0.0620469   0.2202544  -0.4484338 SPIN=   0.00000
   S   0.2924273   0.2076477  -0.4300432 SPIN=   0.00000
   O   0.4196006  -0.5940545   0.1543644 SPIN=   0.00000
   O   0.3449284  -0.3945531   0.3800636 SPIN=   0.00000
   O   0.3431332  -0.2831315   0.0759084 SPIN=   0.00000
   O   0.0620469  -0.4484338   0.2202544 SPIN=   0.00000
   S   0.2924273  -0.4300432   0.2076477 SPIN=   0.00000
   F   0.1491445  -0.1778806  -0.1778806 SPIN=   0.00000
   F  -0.4495487   0.0547934   0.0547934 SPIN=   0.00000
   F  -0.2233619   0.4262941   0.4262941 SPIN=   0.00000
   F  -0.3189036  -0.2765687  -0.2765687 SPIN=   0.00000
%ENDBLOCK POSITIONS_FRAC

# Note: total spin =  16.00

KPOINTS_MP_SPACING 0.07

%BLOCK SPECIES_POT
QC5
%ENDBLOCK SPECIES_POT

SNAP_TO_SYMMETRY
SYMMETRY_GENERATE

