#              Generated by Buildcell
#
# at 06:30:28 (GMT+1.0) 18th August 2020
# in /lustre/scratch/uccabz1/launch_tmp
# on node-c12a-018
# by uccabz1
#
# compiler GCC version 4.9.2
# options -cpp -iprefix /lustre/shared/ucl/apps/gcc/4.9.2/bin/../lib/gcc/x86_64-unknown-linux-gnu/4.9.2/ -mtune=corei7 -march=x86-64 -g -Og
#
# seed   -57829281  -455634101  -259777903  1678924277  1459258569 -1526726447    75264596  1048351822   -88740817   689491409  -544715556 -1553610629
#
#      Author: C. J. Pickard (cjp20@cam.ac.uk)
#                Space group: P21
#

%BLOCK LATTICE_ABC
      5.72180      6.83263     10.30962
     90.00000     97.05726     90.00000
%ENDBLOCK LATTICE_ABC

%BLOCK POSITIONS_FRAC
  Li   0.3235122  -0.4219854   0.2853494 SPIN=   0.00000
  Li  -0.3235122   0.0780146  -0.2853494 SPIN=   0.00000
  Li  -0.3341323   0.0750736   0.2142083 SPIN=   0.00000
  Li   0.3341323  -0.4249264  -0.2142083 SPIN=   0.00000
  Fe   0.4072385  -0.0412607  -0.0556779 SPIN=   3.09008
  Fe  -0.4072385   0.4587393   0.0556779 SPIN=   3.09008
  Fe  -0.3841550  -0.4966204  -0.4468791 SPIN=   4.90992
  Fe   0.3841550   0.0033796   0.4468791 SPIN=   4.90992
   O   0.0254498  -0.2275697   0.4721284 SPIN=   0.00000
   O  -0.1118267  -0.4664020   0.2988917 SPIN=   0.00000
   O   0.0269061  -0.1391522   0.2394360 SPIN=   0.00000
   O  -0.3510409  -0.1726207   0.3311364 SPIN=   0.00000
   S  -0.1026279  -0.2514362   0.3353981 SPIN=   0.00000
   O  -0.0254498   0.2724303  -0.4721284 SPIN=   0.00000
   O   0.1118267   0.0335980  -0.2988917 SPIN=   0.00000
   O  -0.0269061   0.3608478  -0.2394360 SPIN=   0.00000
   O   0.3510409   0.3273793  -0.3311364 SPIN=   0.00000
   S   0.1026279   0.2485638  -0.3353981 SPIN=   0.00000
   O   0.1189366   0.1820224   0.2906086 SPIN=   0.00000
   O  -0.0949154   0.0833862   0.0773332 SPIN=   0.00000
   O   0.3293842   0.1644307   0.0950665 SPIN=   0.00000
   O   0.0364829   0.4262731   0.1136382 SPIN=   0.00000
   S   0.0974721   0.2140281   0.1441616 SPIN=   0.00000
   O  -0.1189366  -0.3179776  -0.2906086 SPIN=   0.00000
   O   0.0949154  -0.4166138  -0.0773332 SPIN=   0.00000
   O  -0.3293842  -0.3355693  -0.0950665 SPIN=   0.00000
   O  -0.0364829  -0.0737269  -0.1136382 SPIN=   0.00000
   S  -0.0974721  -0.2859719  -0.1441616 SPIN=   0.00000
   F  -0.4070527   0.2771270  -0.0892680 SPIN=   0.00000
   F   0.4070527  -0.2228730   0.0892680 SPIN=   0.00000
   F   0.4519898  -0.1622755  -0.3985944 SPIN=   0.00000
   F  -0.4519898   0.3377245   0.3985944 SPIN=   0.00000
%ENDBLOCK POSITIONS_FRAC

# Note: total spin =  16.00

KPOINTS_MP_SPACING 0.07

%BLOCK SPECIES_POT
QC5
%ENDBLOCK SPECIES_POT

SNAP_TO_SYMMETRY
SYMMETRY_GENERATE

