#              Generated by Buildcell
#
# at 06:42:35 (GMT+1.0) 4th August 2020
# in /lustre/scratch/uccabz1/launch_tmp
# on node-c12c-020
# by uccabz1
#
# compiler GCC version 4.9.2
# options -cpp -iprefix /lustre/shared/ucl/apps/gcc/4.9.2/bin/../lib/gcc/x86_64-unknown-linux-gnu/4.9.2/ -mtune=corei7 -march=x86-64 -g -Og
#
# seed -1353912077  1968364746 -1041935709  -212311428  1281885390   400805243  1406099408  1410575312   733738746 -1666682381  -656434958   462725230
#
#      Author: C. J. Pickard (cjp20@cam.ac.uk)
#                Space group: Pc
#

%BLOCK LATTICE_ABC
      4.42086      8.28444     11.48405
    108.00473     90.00000     90.00000
%ENDBLOCK LATTICE_ABC

%BLOCK POSITIONS_FRAC
  Li  -0.3758631  -0.1501833   0.0404622 SPIN=   0.00000
  Li   0.3758631   0.3498167  -0.4595378 SPIN=   0.00000
  Li   0.3475478   0.3592813   0.2065188 SPIN=   0.00000
  Li  -0.3475478  -0.1407187  -0.2934812 SPIN=   0.00000
  Fe  -0.1242004   0.0875973  -0.4855996 SPIN=   7.09423
  Fe   0.1242004  -0.4124027   0.0144004 SPIN=   7.09423
  Fe   0.2351539   0.1636273  -0.1917815 SPIN=   0.90577
  Fe  -0.2351539  -0.3363727   0.3082185 SPIN=   0.90577
   O   0.5612847   0.2134727   0.2850995 SPIN=   0.00000
   O   0.5469675  -0.0997902   0.2301707 SPIN=   0.00000
   O   0.0760134   0.0606021   0.2276543 SPIN=   0.00000
   O   0.3199181   0.0766912   0.4249035 SPIN=   0.00000
   S   0.3760459   0.0627440   0.2919570 SPIN=   0.00000
   O  -0.5612847  -0.2865273  -0.2149005 SPIN=   0.00000
   O  -0.5469675  -0.5997902  -0.2698293 SPIN=   0.00000
   O  -0.0760134  -0.4393979  -0.2723457 SPIN=   0.00000
   O  -0.3199181  -0.4233088  -0.0750965 SPIN=   0.00000
   S  -0.3760459  -0.4372560  -0.2080430 SPIN=   0.00000
   O  -0.0899968   0.3581345   0.1979933 SPIN=   0.00000
   O   0.1436152   0.1828103   0.0043457 SPIN=   0.00000
   O  -0.3273025   0.3421693  -0.0004442 SPIN=   0.00000
   O  -0.3383810   0.0925815   0.0746848 SPIN=   0.00000
   S  -0.1530163   0.2439239   0.0691449 SPIN=   0.00000
   O   0.0899968  -0.1418655  -0.3020067 SPIN=   0.00000
   O  -0.1436152  -0.3171897  -0.4956543 SPIN=   0.00000
   O   0.3273025  -0.1578307  -0.5004442 SPIN=   0.00000
   O   0.3383810  -0.4074185  -0.4253152 SPIN=   0.00000
   S   0.1530163  -0.2560761  -0.4308551 SPIN=   0.00000
   F   0.1237360  -0.1705106   0.0000324 SPIN=   0.00000
   F  -0.1237360   0.3294894  -0.4999676 SPIN=   0.00000
   F  -0.3470572   0.1028624  -0.2414213 SPIN=   0.00000
   F   0.3470572  -0.3971376   0.2585787 SPIN=   0.00000
%ENDBLOCK POSITIONS_FRAC

# Note: total spin =  16.00

KPOINTS_MP_SPACING 0.07

%BLOCK SPECIES_POT
QC5
%ENDBLOCK SPECIES_POT

SNAP_TO_SYMMETRY
SYMMETRY_GENERATE

