#              Generated by Buildcell
#
# at 12:45:57 (GMT+1.0) 18th August 2020
# in /scratch/scratch/uccabz1/launch_tmp
# on node-k10c-026
# by uccabz1
#
# compiler GCC version 4.9.2
# options -cpp -iprefix /scratch/UCL/applications/gcc/4.9.2/bin/../lib/gcc/x86_64-unknown-linux-gnu/4.9.2/ -mtune=corei7 -march=x86-64 -g -O2
#
# seed   759034481 -1087194351  1363488280  1462029795   748106958   317484327  -649283654  -558982025   650346814   818133891   195193658  -804168347
#
#      Author: C. J. Pickard (cjp20@cam.ac.uk)
#                Space group: P21/c
#

%BLOCK LATTICE_ABC
      6.87038      7.69343      7.84886
     90.00000    105.38432     90.00000
%ENDBLOCK LATTICE_ABC

%BLOCK POSITIONS_FRAC
  Li   0.3311403  -0.1675889   0.3857990 SPIN=   0.00000
  Li   0.1688597   0.3324111   0.1142010 SPIN=   0.00000
  Li  -0.3311403   0.1675889  -0.3857990 SPIN=   0.00000
  Li  -0.1688597  -0.3324111  -0.1142010 SPIN=   0.00000
  Fe   0.3941283  -0.1278162  -0.1962154 SPIN=   4.00000
  Fe   0.1058717   0.3721838  -0.3037846 SPIN=   4.00000
  Fe  -0.3941283   0.1278162   0.1962154 SPIN=   4.00000
  Fe  -0.1058717  -0.3721838   0.3037846 SPIN=   4.00000
   O  -0.1076357   0.2180235  -0.0884527 SPIN=   0.00000
   O   0.1791229   0.0225184  -0.0861223 SPIN=   0.00000
   O  -0.0446044   0.1233884  -0.3704466 SPIN=   0.00000
   O  -0.1713111  -0.0872516  -0.1868925 SPIN=   0.00000
   O  -0.3923643  -0.2819765  -0.4115473 SPIN=   0.00000
   O  -0.6791229  -0.4774816  -0.4138777 SPIN=   0.00000
   O  -0.4553956  -0.3766116  -0.1295534 SPIN=   0.00000
   O  -0.3286889  -0.5872516  -0.3131075 SPIN=   0.00000
   O   0.1076357  -0.2180235   0.0884527 SPIN=   0.00000
   O  -0.1791229  -0.0225184   0.0861223 SPIN=   0.00000
   O   0.0446044  -0.1233884   0.3704466 SPIN=   0.00000
   O   0.1713111   0.0872516   0.1868925 SPIN=   0.00000
   O   0.3923643   0.2819765   0.4115473 SPIN=   0.00000
   O   0.6791229   0.4774816   0.4138777 SPIN=   0.00000
   O   0.4553956   0.3766116   0.1295534 SPIN=   0.00000
   O   0.3286889   0.5872516   0.3131075 SPIN=   0.00000
   S  -0.0000000   0.0000000  -0.5000000 SPIN=   0.00000
   S   0.5000000  -0.5000000  -0.0000000 SPIN=   0.00000
   S   0.0000000   0.0000000  -0.0000000 SPIN=   0.00000
   S   0.5000000   0.5000000   0.5000000 SPIN=   0.00000
   F  -0.0012992  -0.3944006  -0.2483168 SPIN=   0.00000
   F  -0.4987008   0.1055994  -0.2516832 SPIN=   0.00000
   F   0.0012992   0.3944006   0.2483168 SPIN=   0.00000
   F   0.4987008  -0.1055994   0.2516832 SPIN=   0.00000
%ENDBLOCK POSITIONS_FRAC

# Note: total spin =  16.00

KPOINTS_MP_SPACING 0.07

%BLOCK SPECIES_POT
QC5
%ENDBLOCK SPECIES_POT

SNAP_TO_SYMMETRY
SYMMETRY_GENERATE

