#              Generated by Buildcell
#
# at 08:46:45 (GMT+1.0) 18th August 2020
# in /lustre/scratch/uccabz1/launch_tmp
# on node-c12a-022
# by uccabz1
#
# compiler GCC version 4.9.2
# options -cpp -iprefix /lustre/shared/ucl/apps/gcc/4.9.2/bin/../lib/gcc/x86_64-unknown-linux-gnu/4.9.2/ -mtune=corei7 -march=x86-64 -g -Og
#
# seed -1576473544 -1836505169 -1460993908  1404759258   114176573   680638794  -238947669 -1724880450   454881240 -1915223649  1696941023   724886278
#
#      Author: C. J. Pickard (cjp20@cam.ac.uk)
#                Space group: P212121
#

%BLOCK LATTICE_ABC
      5.05437      8.87855      8.91356
     90.00000     90.00000     90.00000
%ENDBLOCK LATTICE_ABC

%BLOCK POSITIONS_FRAC
  Li  -0.1142904   0.3956348  -0.0633719 SPIN=   0.00000
  Li   0.1142904  -0.1043652  -0.4366281 SPIN=   0.00000
  Li   0.3857096   0.1043652   0.0633719 SPIN=   0.00000
  Li  -0.3857096  -0.3956348   0.4366281 SPIN=   0.00000
  Fe  -0.0657215   0.0045858  -0.1334191 SPIN=   4.00000
  Fe   0.0657215  -0.4954142  -0.3665809 SPIN=   4.00000
  Fe   0.4342785   0.4954142   0.1334191 SPIN=   4.00000
  Fe  -0.4342785  -0.0045858   0.3665809 SPIN=   4.00000
   O  -0.7072027  -0.1694536  -0.2227704 SPIN=   0.00000
   O  -0.5215862  -0.4137064  -0.3053615 SPIN=   0.00000
   O  -0.2248275  -0.2148596  -0.2076653 SPIN=   0.00000
   O  -0.4401631  -0.1835735  -0.4550726 SPIN=   0.00000
   S  -0.4734449  -0.2453983  -0.2977175 SPIN=   0.00000
   O   0.7072027   0.3305464  -0.2772296 SPIN=   0.00000
   O   0.5215862   0.0862936  -0.1946385 SPIN=   0.00000
   O   0.2248275   0.2851404  -0.2923347 SPIN=   0.00000
   O   0.4401631   0.3164265  -0.0449274 SPIN=   0.00000
   S   0.4734449   0.2546017  -0.2022825 SPIN=   0.00000
   O  -0.2072027  -0.3305464   0.2227704 SPIN=   0.00000
   O  -0.0215862  -0.0862936   0.3053615 SPIN=   0.00000
   O   0.2751725  -0.2851404   0.2076653 SPIN=   0.00000
   O   0.0598369  -0.3164265   0.4550726 SPIN=   0.00000
   S   0.0265551  -0.2546017   0.2977175 SPIN=   0.00000
   O   0.2072027   0.1694536   0.2772296 SPIN=   0.00000
   O   0.0215862   0.4137064   0.1946385 SPIN=   0.00000
   O  -0.2751725   0.2148596   0.2923347 SPIN=   0.00000
   O  -0.0598369   0.1835735   0.0449274 SPIN=   0.00000
   S  -0.0265551   0.2453983   0.2022825 SPIN=   0.00000
   F  -0.3964205  -0.0567873   0.0496673 SPIN=   0.00000
   F   0.3964205   0.4432127   0.4503327 SPIN=   0.00000
   F   0.1035795  -0.4432127  -0.0496673 SPIN=   0.00000
   F  -0.1035795   0.0567873  -0.4503327 SPIN=   0.00000
%ENDBLOCK POSITIONS_FRAC

# Note: total spin =  16.00

KPOINTS_MP_SPACING 0.07

%BLOCK SPECIES_POT
QC5
%ENDBLOCK SPECIES_POT

SNAP_TO_SYMMETRY
SYMMETRY_GENERATE

