#              Generated by Buildcell
#
# at 06:30:55 (GMT+1.0) 4th August 2020
# in /lustre/scratch/uccabz1/launch_tmp
# on node-c12p-023
# by uccabz1
#
# compiler GCC version 4.9.2
# options -cpp -iprefix /lustre/shared/ucl/apps/gcc/4.9.2/bin/../lib/gcc/x86_64-unknown-linux-gnu/4.9.2/ -mtune=corei7 -march=x86-64 -g -Og
#
# seed  -752885165 -1050673190   392645134   822378320   198102020  -763195108   127578865    25348088  1564339563   448670797 -1261724897   700525391
#
#      Author: C. J. Pickard (cjp20@cam.ac.uk)
#                Space group: Cm
#

%BLOCK LATTICE_ABC
      7.15779      7.15779      8.76138
     73.36626     73.36626     72.37617
%ENDBLOCK LATTICE_ABC

%BLOCK POSITIONS_FRAC
  Li   0.1458806  -0.3355170   0.3876648 SPIN=   0.00000
  Li  -0.3355170   0.1458806   0.3876648 SPIN=   0.00000
  Li   0.3807523  -0.1641669  -0.0831160 SPIN=   0.00000
  Li  -0.1641669   0.3807523  -0.0831160 SPIN=   0.00000
  Fe  -0.0613042   0.4754122   0.2501246 SPIN=   4.98159
  Fe   0.4754122  -0.0613042   0.2501246 SPIN=   4.98159
  Fe   0.2680460   0.2680460  -0.2349371 SPIN=   3.55664
  Fe  -0.0024717  -0.0024717   0.1362340 SPIN=   2.48019
   O   0.0694137   0.3540994  -0.5550656 SPIN=   0.00000
   O  -0.2765284   0.3705906  -0.5673277 SPIN=   0.00000
   O  -0.2204307   0.5000589  -0.3548881 SPIN=   0.00000
   O  -0.1277228   0.1341963  -0.3410495 SPIN=   0.00000
   O   0.3540994   0.0694137  -0.5550656 SPIN=   0.00000
   O   0.3705906  -0.2765284  -0.5673277 SPIN=   0.00000
   O   0.5000589  -0.2204307  -0.3548881 SPIN=   0.00000
   O   0.1341963  -0.1277228  -0.3410495 SPIN=   0.00000
   O  -0.1638505   0.0975900  -0.0396254 SPIN=   0.00000
   O  -0.4506846  -0.0344771  -0.0284080 SPIN=   0.00000
   O  -0.4301699   0.3084983  -0.1867702 SPIN=   0.00000
   O  -0.5027297   0.2349635   0.1151267 SPIN=   0.00000
   O   0.0975900  -0.1638505  -0.0396254 SPIN=   0.00000
   O  -0.0344771  -0.4506846  -0.0284080 SPIN=   0.00000
   O   0.3084983  -0.4301699  -0.1867702 SPIN=   0.00000
   O   0.2349635  -0.5027297   0.1151267 SPIN=   0.00000
   S   0.4458085   0.4458085   0.1949845 SPIN=   0.00000
   S  -0.4359220  -0.4359220  -0.2842673 SPIN=   0.00000
   S   0.0933537   0.0933537  -0.4658460 SPIN=   0.00000
   S  -0.1943832  -0.1943832  -0.0685711 SPIN=   0.00000
   F  -0.4566037   0.1164411  -0.3741190 SPIN=   0.00000
   F   0.1164411  -0.4566037  -0.3741190 SPIN=   0.00000
   F   0.1994447   0.1994447   0.0315067 SPIN=   0.00000
   F  -0.1834403  -0.1834403   0.3304186 SPIN=   0.00000
%ENDBLOCK POSITIONS_FRAC

# Note: total spin =  16.00

KPOINTS_MP_SPACING 0.07

%BLOCK SPECIES_POT
QC5
%ENDBLOCK SPECIES_POT

SNAP_TO_SYMMETRY
SYMMETRY_GENERATE

