#              Generated by Buildcell
#
# at 23:01:27 (GMT+1.0) 17th August 2020
# in /lustre/scratch/uccabz1/launch_tmp
# on node-c12l-019
# by uccabz1
#
# compiler GCC version 4.9.2
# options -cpp -iprefix /lustre/shared/ucl/apps/gcc/4.9.2/bin/../lib/gcc/x86_64-unknown-linux-gnu/4.9.2/ -mtune=corei7 -march=x86-64 -g -Og
#
# seed  1368625772 -1943185105  1579239615  -423198428  1897434348  -195070127  1814472807  1845190407  -257049845  1632541130   890498071   761378537
#
#      Author: C. J. Pickard (cjp20@cam.ac.uk)
#                Space group: Pc
#

%BLOCK LATTICE_ABC
      4.18276      8.45607     11.43284
     98.43721     90.00000     90.00000
%ENDBLOCK LATTICE_ABC

%BLOCK POSITIONS_FRAC
  Li  -0.0185999   0.2755524  -0.1156899 SPIN=   0.00000
  Li   0.0185999   0.2755524   0.3843101 SPIN=   0.00000
  Li   0.3679629  -0.4475192  -0.3521963 SPIN=   0.00000
  Li  -0.3679629  -0.4475192   0.1478037 SPIN=   0.00000
  Fe   0.3745873  -0.4021088  -0.0877383 SPIN=   4.39784
  Fe  -0.3745873  -0.4021088   0.4122617 SPIN=   4.39784
  Fe   0.1049876  -0.1965541   0.2056220 SPIN=   3.60216
  Fe  -0.1049876  -0.1965541  -0.2943780 SPIN=   3.60216
   O   0.4709570   0.2677886  -0.1260728 SPIN=   0.00000
   O   0.6479279   0.0883760  -0.3050348 SPIN=   0.00000
   O   0.6630785   0.3817572  -0.3006977 SPIN=   0.00000
   O   0.1434690   0.2406368  -0.3082111 SPIN=   0.00000
   S   0.4813581   0.2446396  -0.2600041 SPIN=   0.00000
   O  -0.4709570   0.2677886   0.3739272 SPIN=   0.00000
   O  -0.6479279   0.0883760   0.1949652 SPIN=   0.00000
   O  -0.6630785   0.3817572   0.1993023 SPIN=   0.00000
   O  -0.1434690   0.2406368   0.1917889 SPIN=   0.00000
   S  -0.4813581   0.2446396   0.2399959 SPIN=   0.00000
   O  -0.3286105  -0.0993694   0.4319730 SPIN=   0.00000
   O   0.1829500   0.0134146   0.3733398 SPIN=   0.00000
   O   0.1237662  -0.0634826   0.5729021 SPIN=   0.00000
   O  -0.1640619   0.1726916   0.5216295 SPIN=   0.00000
   S  -0.0464891   0.0058135   0.4749611 SPIN=   0.00000
   O   0.3286105  -0.0993694  -0.0680270 SPIN=   0.00000
   O  -0.1829500   0.0134146  -0.1266602 SPIN=   0.00000
   O  -0.1237662  -0.0634826   0.0729021 SPIN=   0.00000
   O   0.1640619   0.1726916   0.0216295 SPIN=   0.00000
   S   0.0464891   0.0058135  -0.0250389 SPIN=   0.00000
   F  -0.1005489   0.4652158  -0.4876975 SPIN=   0.00000
   F   0.1005489   0.4652158   0.0123025 SPIN=   0.00000
   F  -0.4053132  -0.2088528   0.2183148 SPIN=   0.00000
   F   0.4053132  -0.2088528  -0.2816852 SPIN=   0.00000
%ENDBLOCK POSITIONS_FRAC

# Note: total spin =  16.00

KPOINTS_MP_SPACING 0.07

%BLOCK SPECIES_POT
QC5
%ENDBLOCK SPECIES_POT

SNAP_TO_SYMMETRY
SYMMETRY_GENERATE

