#              Generated by Buildcell
#
# at 06:11:58 (GMT+1.0) 4th August 2020
# in /lustre/scratch/uccabz1/launch_tmp
# on node-c12g-032
# by uccabz1
#
# compiler GCC version 4.9.2
# options -cpp -iprefix /lustre/shared/ucl/apps/gcc/4.9.2/bin/../lib/gcc/x86_64-unknown-linux-gnu/4.9.2/ -mtune=corei7 -march=x86-64 -g -Og
#
# seed  1372947598   912716862  1908947844 -1964648023   549026980 -1851244687  -961276051  2146357944  1214633597  -859339105 -2121804557  -168970226
#
#      Author: C. J. Pickard (cjp20@cam.ac.uk)
#                Space group: C2/c
#

%BLOCK LATTICE_ABC
      6.84730      7.03519     10.01920
     81.14716     71.56429     60.87961
%ENDBLOCK LATTICE_ABC

%BLOCK POSITIONS_FRAC
  Li   0.6344780  -0.6184168  -0.3554108 SPIN=   0.00000
  Li  -0.0160612   0.3815832  -0.1445892 SPIN=   0.00000
  Li  -0.6344780   0.6184168   0.3554108 SPIN=   0.00000
  Li   0.0160612  -0.3815832   0.1445892 SPIN=   0.00000
  Fe  -0.3316413   0.2403979   0.0893397 SPIN=   4.00000
  Fe  -0.9087566   0.2403979   0.4106603 SPIN=   4.00000
  Fe   0.3316413  -0.2403979  -0.0893397 SPIN=   4.00000
  Fe   0.9087566  -0.2403979  -0.4106603 SPIN=   4.00000
   O   0.6020006  -0.3070645  -0.4091859 SPIN=   0.00000
   O   0.1998842  -0.0384585  -0.2903293 SPIN=   0.00000
   O   0.2678579  -0.3487767  -0.4184067 SPIN=   0.00000
   O   0.3406720  -0.0512534  -0.5503766 SPIN=   0.00000
   S   0.3526037  -0.1863883  -0.4170746 SPIN=   0.00000
   O  -0.2949361  -0.3070645  -0.0908141 SPIN=   0.00000
   O  -0.1614257  -0.0384585  -0.2096707 SPIN=   0.00000
   O   0.0809188  -0.3487767  -0.0815933 SPIN=   0.00000
   O  -0.2894186  -0.0512534   0.0503766 SPIN=   0.00000
   S  -0.1662154  -0.1863883  -0.0829254 SPIN=   0.00000
   O  -0.6020006   0.3070645   0.4091859 SPIN=   0.00000
   O  -0.1998842   0.0384585   0.2903293 SPIN=   0.00000
   O  -0.2678579   0.3487767   0.4184067 SPIN=   0.00000
   O  -0.3406720   0.0512534   0.5503766 SPIN=   0.00000
   S  -0.3526037   0.1863883   0.4170746 SPIN=   0.00000
   O   0.2949361   0.3070645   0.0908141 SPIN=   0.00000
   O   0.1614257   0.0384585   0.2096707 SPIN=   0.00000
   O  -0.0809188   0.3487767   0.0815933 SPIN=   0.00000
   O   0.2894186   0.0512534  -0.0503766 SPIN=   0.00000
   S   0.1662154   0.1863883   0.0829254 SPIN=   0.00000
   F   0.0753432   0.3904939  -0.3386611 SPIN=   0.00000
   F   0.5341629  -0.6095061  -0.1613389 SPIN=   0.00000
   F  -0.0753432  -0.3904939   0.3386611 SPIN=   0.00000
   F  -0.5341629   0.6095061   0.1613389 SPIN=   0.00000
%ENDBLOCK POSITIONS_FRAC

# Note: total spin =  16.00

KPOINTS_MP_SPACING 0.07

%BLOCK SPECIES_POT
QC5
%ENDBLOCK SPECIES_POT

SNAP_TO_SYMMETRY
SYMMETRY_GENERATE

