#              Generated by Buildcell
#
# at 08:44:05 (GMT+1.0) 4th August 2020
# in /lustre/scratch/uccabz1/launch_tmp
# on node-c12l-011
# by uccabz1
#
# compiler GCC version 4.9.2
# options -cpp -iprefix /lustre/shared/ucl/apps/gcc/4.9.2/bin/../lib/gcc/x86_64-unknown-linux-gnu/4.9.2/ -mtune=corei7 -march=x86-64 -g -Og
#
# seed  -619277650  1632770650 -1227305354  1785223317  2093973046   838672590  1809317938 -1153045577 -1825210769  -561617221 -1441366838 -1037444393
#
#      Author: C. J. Pickard (cjp20@cam.ac.uk)
#                Space group: Iba2
#

%BLOCK LATTICE_ABC
      8.00128      8.17135      8.17135
     68.16411     60.68615     60.68615
%ENDBLOCK LATTICE_ABC

%BLOCK POSITIONS_FRAC
  Li   0.2052207  -0.1813816  -0.4632474 SPIN=   0.00000
  Li  -0.2052207   0.4632474   0.1813816 SPIN=   0.00000
  Li  -0.4394082  -0.0367526  -0.3186184 SPIN=   0.00000
  Li   0.4394082   0.3186184   0.0367526 SPIN=   0.00000
  Fe   0.2876404   0.4202202  -0.4617954 SPIN=   4.00000
  Fe  -0.2876404   0.4617954  -0.4202202 SPIN=   4.00000
  Fe   0.2460651  -0.0382046   0.0797798 SPIN=   4.00000
  Fe  -0.2460651  -0.0797798   0.0382046 SPIN=   4.00000
   O  -0.1863354  -0.5808724  -0.0991417 SPIN=   0.00000
   O  -0.0027184  -0.3635392  -0.2187706 SPIN=   0.00000
   O  -0.3775716  -0.2567819  -0.0189666 SPIN=   0.00000
   O  -0.2548334  -0.2993835  -0.3489019 SPIN=   0.00000
   S  -0.2053647  -0.3751442  -0.1714452 SPIN=   0.00000
   O   0.1863354   0.0991417   0.5808724 SPIN=   0.00000
   O   0.0027184   0.2187706   0.3635392 SPIN=   0.00000
   O   0.3775716   0.0189666   0.2567819 SPIN=   0.00000
   O   0.2548334   0.3489019   0.2993835 SPIN=   0.00000
   S   0.2053647   0.1714452   0.3751442 SPIN=   0.00000
   O   0.1336505  -0.4008583   0.0808724 SPIN=   0.00000
   O   0.4149719  -0.2812294  -0.1364608 SPIN=   0.00000
   O   0.3466799  -0.4810334  -0.2432181 SPIN=   0.00000
   O   0.0968812  -0.1510981  -0.2006165 SPIN=   0.00000
   S   0.2480459  -0.3285548  -0.1248558 SPIN=   0.00000
   O  -0.1336505  -0.0808724   0.4008583 SPIN=   0.00000
   O  -0.4149719   0.1364608   0.2812294 SPIN=   0.00000
   O  -0.3466799   0.2432181   0.4810334 SPIN=   0.00000
   O  -0.0968812   0.2006165   0.1510981 SPIN=   0.00000
   S  -0.2480459   0.1248558   0.3285548 SPIN=   0.00000
   F  -0.3092204  -0.3090966   0.3658939 SPIN=   0.00000
   F   0.3092204  -0.3658939   0.3090966 SPIN=   0.00000
   F  -0.2524231   0.1341061  -0.1909034 SPIN=   0.00000
   F   0.2524231   0.1909034  -0.1341061 SPIN=   0.00000
%ENDBLOCK POSITIONS_FRAC

# Note: total spin =  16.00

KPOINTS_MP_SPACING 0.07

%BLOCK SPECIES_POT
QC5
%ENDBLOCK SPECIES_POT

SNAP_TO_SYMMETRY
SYMMETRY_GENERATE

