#              Generated by Buildcell
#
# at 05:51:50 (GMT+1.0) 4th August 2020
# in /lustre/scratch/uccabz1/launch_tmp
# on node-c12p-014
# by uccabz1
#
# compiler GCC version 4.9.2
# options -cpp -iprefix /lustre/shared/ucl/apps/gcc/4.9.2/bin/../lib/gcc/x86_64-unknown-linux-gnu/4.9.2/ -mtune=corei7 -march=x86-64 -g -Og
#
# seed   643384221 -2116762800  1663256661  1635486553   135504225  1112582131   250627418   733142544  1386815082   192358979   118720890 -1958894541
#
#      Author: C. J. Pickard (cjp20@cam.ac.uk)
#                Space group: Pba2
#

%BLOCK LATTICE_ABC
      4.39725      8.76963     10.37284
     90.00000     90.00000     90.00000
%ENDBLOCK LATTICE_ABC

%BLOCK POSITIONS_FRAC
  Li   0.3695041   0.0577990   0.1783028 SPIN=   0.00000
  Li   0.3695041  -0.0577990  -0.1783028 SPIN=   0.00000
  Li   0.3695041   0.4422010  -0.3216972 SPIN=   0.00000
  Li   0.3695041  -0.4422010   0.3216972 SPIN=   0.00000
  Fe  -0.1653166  -0.1548357   0.3153916 SPIN=   4.00000
  Fe  -0.1653166   0.1548357  -0.3153916 SPIN=   4.00000
  Fe  -0.1653166  -0.3451643  -0.1846084 SPIN=   4.00000
  Fe  -0.1653166   0.3451643   0.1846084 SPIN=   4.00000
   O  -0.0351154   0.2412695  -0.0459738 SPIN=   0.00000
   O   0.3547881   0.4348623  -0.0990558 SPIN=   0.00000
   O   0.4128587   0.1697985  -0.1771646 SPIN=   0.00000
   O   0.4742280   0.2277416   0.0548901 SPIN=   0.00000
   S   0.3016898   0.2684180  -0.0668260 SPIN=   0.00000
   O  -0.0351154  -0.2412695   0.0459738 SPIN=   0.00000
   O   0.3547881  -0.4348623   0.0990558 SPIN=   0.00000
   O   0.4128587  -0.1697985   0.1771646 SPIN=   0.00000
   O   0.4742280  -0.2277416  -0.0548901 SPIN=   0.00000
   S   0.3016898  -0.2684180   0.0668260 SPIN=   0.00000
   O  -0.0351154   0.2587305   0.4540262 SPIN=   0.00000
   O   0.3547881   0.0651377   0.4009442 SPIN=   0.00000
   O   0.4128587   0.3302015   0.3228354 SPIN=   0.00000
   O   0.4742280   0.2722584   0.5548901 SPIN=   0.00000
   S   0.3016898   0.2315820   0.4331740 SPIN=   0.00000
   O  -0.0351154  -0.2587305  -0.4540262 SPIN=   0.00000
   O   0.3547881  -0.0651377  -0.4009442 SPIN=   0.00000
   O   0.4128587  -0.3302015  -0.3228354 SPIN=   0.00000
   O   0.4742280  -0.2722584  -0.5548901 SPIN=   0.00000
   S   0.3016898  -0.2315820  -0.4331740 SPIN=   0.00000
   F  -0.0871698   0.4560993  -0.3069229 SPIN=   0.00000
   F  -0.0871698  -0.4560993   0.3069229 SPIN=   0.00000
   F  -0.0871698   0.0439007   0.1930771 SPIN=   0.00000
   F  -0.0871698  -0.0439007  -0.1930771 SPIN=   0.00000
%ENDBLOCK POSITIONS_FRAC

# Note: total spin =  16.00

KPOINTS_MP_SPACING 0.07

%BLOCK SPECIES_POT
QC5
%ENDBLOCK SPECIES_POT

SNAP_TO_SYMMETRY
SYMMETRY_GENERATE

