#              Generated by Buildcell
#
# at 01:08:12 (GMT+1.0) 18th August 2020
# in /lustre/scratch/uccabz1/launch_tmp
# on node-c12k-033
# by uccabz1
#
# compiler GCC version 4.9.2
# options -cpp -iprefix /lustre/shared/ucl/apps/gcc/4.9.2/bin/../lib/gcc/x86_64-unknown-linux-gnu/4.9.2/ -mtune=corei7 -march=x86-64 -g -Og
#
# seed  -359398693  -914186554    71788185   808701097  -595097613   339263094  1159660946 -1474184552  -736576688   544229131 -1192834587   917921306
#
#      Author: C. J. Pickard (cjp20@cam.ac.uk)
#                Space group: I4
#

%BLOCK LATTICE_ABC
      6.46493      8.50418      8.50418
     81.69295     67.65996     67.65996
%ENDBLOCK LATTICE_ABC

%BLOCK POSITIONS_FRAC
  Li  -0.1854922  -0.4301857   0.2428165 SPIN=   0.00000
  Li  -0.3728614   0.4301857  -0.2428165 SPIN=   0.00000
  Li   0.0573243  -0.2428165  -0.4301857 SPIN=   0.00000
  Li   0.3843222   0.2428165   0.4301857 SPIN=   0.00000
  Fe  -0.1708006  -0.0472381   0.3326270 SPIN=   4.00000
  Fe   0.1145883   0.0472381  -0.3326270 SPIN=   4.00000
  Fe   0.1618265  -0.3326270  -0.0472381 SPIN=   4.00000
  Fe  -0.2180387   0.3326270   0.0472381 SPIN=   4.00000
   O   0.5065615   0.2139046   0.0763148 SPIN=   0.00000
   O   0.1750950   0.4093313   0.3019817 SPIN=   0.00000
   O   0.1181410   0.1714343   0.2079810 SPIN=   0.00000
   O   0.1509697   0.4167686   0.0172954 SPIN=   0.00000
   S   0.2376918   0.3028597   0.1508932 SPIN=   0.00000
   O  -0.2032191  -0.2139046  -0.0763148 SPIN=   0.00000
   O  -0.1135921  -0.4093313  -0.3019817 SPIN=   0.00000
   O  -0.5024437  -0.1714343  -0.2079810 SPIN=   0.00000
   O  -0.4149664  -0.4167686  -0.0172954 SPIN=   0.00000
   S  -0.3085553  -0.3028597  -0.1508932 SPIN=   0.00000
   O   0.5828763  -0.0763148   0.2139046 SPIN=   0.00000
   O   0.4770767  -0.3019817   0.4093313 SPIN=   0.00000
   O   0.3261220  -0.2079810   0.1714343 SPIN=   0.00000
   O   0.1682650  -0.0172954   0.4167686 SPIN=   0.00000
   S   0.3885850  -0.1508932   0.3028597 SPIN=   0.00000
   O  -0.2795339   0.0763148  -0.2139046 SPIN=   0.00000
   O  -0.4155738   0.3019817  -0.4093313 SPIN=   0.00000
   O  -0.7104247   0.2079810  -0.1714343 SPIN=   0.00000
   O  -0.4322618   0.0172954  -0.4167686 SPIN=   0.00000
   S  -0.4594485   0.1508932  -0.3028597 SPIN=   0.00000
   F  -0.0947850  -0.2822371   0.4006366 SPIN=   0.00000
   F   0.0236145   0.2822371  -0.4006366 SPIN=   0.00000
   F   0.3058516  -0.4006366  -0.2822371 SPIN=   0.00000
   F  -0.3770221   0.4006366   0.2822371 SPIN=   0.00000
%ENDBLOCK POSITIONS_FRAC

# Note: total spin =  16.00

KPOINTS_MP_SPACING 0.07

%BLOCK SPECIES_POT
QC5
%ENDBLOCK SPECIES_POT

SNAP_TO_SYMMETRY
SYMMETRY_GENERATE

