#              Generated by Buildcell
#
# at 08:50:57 (GMT+1.0) 18th August 2020
# in /lustre/scratch/uccabz1/launch_tmp
# on node-c12n-011
# by uccabz1
#
# compiler GCC version 4.9.2
# options -cpp -iprefix /lustre/shared/ucl/apps/gcc/4.9.2/bin/../lib/gcc/x86_64-unknown-linux-gnu/4.9.2/ -mtune=corei7 -march=x86-64 -g -Og
#
# seed  1082201768  -575033739  -115681608   -94005477 -1851881048  2011711960   299259476 -1226143420 -2020752759  -398137753 -1585372254  1174700370
#
#      Author: C. J. Pickard (cjp20@cam.ac.uk)
#                Space group: P2
#

%BLOCK LATTICE_ABC
      5.42063      6.24137     11.83625
     90.00000     92.70491     90.00000
%ENDBLOCK LATTICE_ABC

%BLOCK POSITIONS_FRAC
  Li   0.2369596   0.0639496   0.3796569 SPIN=   0.00000
  Li  -0.2369596   0.0639496  -0.3796569 SPIN=   0.00000
  Li  -0.2634053  -0.3920865   0.3775907 SPIN=   0.00000
  Li   0.2634053  -0.3920865  -0.3775907 SPIN=   0.00000
  Fe  -0.2289460   0.4857763  -0.2669361 SPIN=   6.40087
  Fe   0.2289460   0.4857763   0.2669361 SPIN=   6.40087
  Fe  -0.2279737  -0.0149047  -0.1149233 SPIN=   1.59913
  Fe   0.2279737  -0.0149047   0.1149233 SPIN=   1.59913
   O  -0.2715572  -0.0780148   0.3838905 SPIN=   0.00000
   O  -0.2142066   0.2564619   0.4943273 SPIN=   0.00000
   O  -0.5070250   0.2476318   0.3275154 SPIN=   0.00000
   O  -0.0569470   0.2311012   0.3018547 SPIN=   0.00000
   S  -0.2624339   0.1642950   0.3768970 SPIN=   0.00000
   O   0.2715572  -0.0780148  -0.3838905 SPIN=   0.00000
   O   0.2142066   0.2564619  -0.4943273 SPIN=   0.00000
   O   0.5070250   0.2476318  -0.3275154 SPIN=   0.00000
   O   0.0569470   0.2311012  -0.3018547 SPIN=   0.00000
   S   0.2624339   0.1642950  -0.3768970 SPIN=   0.00000
   O   0.2321641  -0.5488067  -0.1575457 SPIN=   0.00000
   O   0.0599976  -0.1860654  -0.1917599 SPIN=   0.00000
   O   0.5125197  -0.2417614  -0.1840015 SPIN=   0.00000
   O   0.2808661  -0.2702053  -0.0093841 SPIN=   0.00000
   S   0.2713869  -0.3117097  -0.1356728 SPIN=   0.00000
   O  -0.2321641  -0.5488067   0.1575457 SPIN=   0.00000
   O  -0.0599976  -0.1860654   0.1917599 SPIN=   0.00000
   O  -0.5125197  -0.2417614   0.1840015 SPIN=   0.00000
   O  -0.2808661  -0.2702053   0.0093841 SPIN=   0.00000
   S  -0.2713869  -0.3117097   0.1356728 SPIN=   0.00000
   F   0.2616999   0.3267905   0.1075783 SPIN=   0.00000
   F  -0.2616999   0.3267905  -0.1075783 SPIN=   0.00000
   F   0.2396752  -0.2683310   0.3934634 SPIN=   0.00000
   F  -0.2396752  -0.2683310  -0.3934634 SPIN=   0.00000
%ENDBLOCK POSITIONS_FRAC

# Note: total spin =  16.00

KPOINTS_MP_SPACING 0.07

%BLOCK SPECIES_POT
QC5
%ENDBLOCK SPECIES_POT

SNAP_TO_SYMMETRY
SYMMETRY_GENERATE

