#              Generated by Buildcell
#
# at 06:49:42 (GMT+1.0) 4th August 2020
# in /lustre/scratch/uccabz1/launch_tmp
# on node-c12g-023
# by uccabz1
#
# compiler GCC version 4.9.2
# options -cpp -iprefix /lustre/shared/ucl/apps/gcc/4.9.2/bin/../lib/gcc/x86_64-unknown-linux-gnu/4.9.2/ -mtune=corei7 -march=x86-64 -g -Og
#
# seed -1209743845 -1927411016    18299849   498308921  1350292451  1508183495   -80460419  1969333586   808264027  1484897002 -1500533885   166080940
#
#      Author: C. J. Pickard (cjp20@cam.ac.uk)
#                Space group: P41
#

%BLOCK LATTICE_ABC
      4.22896      9.72553      9.72553
     90.00000     90.00000     90.00000
%ENDBLOCK LATTICE_ABC

%BLOCK POSITIONS_FRAC
  Li  -0.1472281   0.3844079   0.0897085 SPIN=   0.00000
  Li   0.3527719  -0.3844079  -0.0897085 SPIN=   0.00000
  Li   0.1027719   0.0897085  -0.3844079 SPIN=   0.00000
  Li  -0.3972281  -0.0897085   0.3844079 SPIN=   0.00000
  Fe  -0.3989620   0.2452974   0.4705127 SPIN=   4.00000
  Fe   0.1010380  -0.2452974  -0.4705127 SPIN=   4.00000
  Fe  -0.1489620   0.4705127  -0.2452974 SPIN=   4.00000
  Fe   0.3510380  -0.4705127   0.2452974 SPIN=   4.00000
   O  -0.3672880  -0.2309534  -0.1808791 SPIN=   0.00000
   O  -0.2326628   0.0160507  -0.1630457 SPIN=   0.00000
   O  -0.7456548  -0.0549627  -0.2628216 SPIN=   0.00000
   O  -0.2493381  -0.0968567  -0.3909827 SPIN=   0.00000
   S  -0.3987359  -0.0916805  -0.2494323 SPIN=   0.00000
   O   0.1327120   0.2309534   0.1808791 SPIN=   0.00000
   O   0.2673372  -0.0160507   0.1630457 SPIN=   0.00000
   O  -0.2456548   0.0549627   0.2628216 SPIN=   0.00000
   O   0.2506619   0.0968567   0.3909827 SPIN=   0.00000
   S   0.1012641   0.0916805   0.2494323 SPIN=   0.00000
   O  -0.1172880  -0.1808791   0.2309534 SPIN=   0.00000
   O   0.0173372  -0.1630457  -0.0160507 SPIN=   0.00000
   O  -0.4956548  -0.2628216   0.0549627 SPIN=   0.00000
   O   0.0006619  -0.3909827   0.0968567 SPIN=   0.00000
   S  -0.1487359  -0.2494323   0.0916805 SPIN=   0.00000
   O   0.3827120   0.1808791  -0.2309534 SPIN=   0.00000
   O   0.5173372   0.1630457   0.0160507 SPIN=   0.00000
   O   0.0043452   0.2628216  -0.0549627 SPIN=   0.00000
   O   0.5006619   0.3909827  -0.0968567 SPIN=   0.00000
   S   0.3512641   0.2494323  -0.0916805 SPIN=   0.00000
   F   0.3733115  -0.2740769   0.3668621 SPIN=   0.00000
   F  -0.1266885   0.2740769  -0.3668621 SPIN=   0.00000
   F  -0.3766885   0.3668621   0.2740769 SPIN=   0.00000
   F   0.1233115  -0.3668621  -0.2740769 SPIN=   0.00000
%ENDBLOCK POSITIONS_FRAC

# Note: total spin =  16.00

KPOINTS_MP_SPACING 0.07

%BLOCK SPECIES_POT
QC5
%ENDBLOCK SPECIES_POT

SNAP_TO_SYMMETRY
SYMMETRY_GENERATE

