#              Generated by Buildcell
#
# at 04:34:22 (GMT+1.0) 18th August 2020
# in /lustre/scratch/uccabz1/launch_tmp
# on node-c12i-026
# by uccabz1
#
# compiler GCC version 4.9.2
# options -cpp -iprefix /lustre/shared/ucl/apps/gcc/4.9.2/bin/../lib/gcc/x86_64-unknown-linux-gnu/4.9.2/ -mtune=corei7 -march=x86-64 -g -Og
#
# seed -1275241042  1742132974 -1737804522  1955719532  1639662191   -65905420  1020271935   396256104  2077318445 -1306516880  1195769854 -1724436292
#
#      Author: C. J. Pickard (cjp20@cam.ac.uk)
#                Space group: P2
#

%BLOCK LATTICE_ABC
      6.49085      6.57656      9.38173
     90.00000     90.00000     92.81171
%ENDBLOCK LATTICE_ABC

%BLOCK POSITIONS_FRAC
  Li  -0.2570610   0.3558673  -0.1463057 SPIN=   0.00000
  Li   0.2570610  -0.3558673  -0.1463057 SPIN=   0.00000
  Li   0.1555648  -0.2209487   0.2710555 SPIN=   0.00000
  Li  -0.1555648   0.2209487   0.2710555 SPIN=   0.00000
  Fe   0.1318826   0.2571348  -0.3773622 SPIN=   2.66890
  Fe  -0.1318826  -0.2571348  -0.3773622 SPIN=   2.66890
  Fe  -0.3747001  -0.2445432   0.2717776 SPIN=   5.33110
  Fe   0.3747001   0.2445432   0.2717776 SPIN=   5.33110
   O   0.1807880  -0.1548152  -0.3559690 SPIN=   0.00000
   O   0.5564677  -0.1948216  -0.3329499 SPIN=   0.00000
   O   0.3965680  -0.1813737  -0.5720297 SPIN=   0.00000
   O   0.3292667  -0.4828343  -0.4179878 SPIN=   0.00000
   S   0.3657726  -0.2534612  -0.4197341 SPIN=   0.00000
   O  -0.1807880   0.1548152  -0.3559690 SPIN=   0.00000
   O  -0.5564677   0.1948216  -0.3329499 SPIN=   0.00000
   O  -0.3965680   0.1813737  -0.5720297 SPIN=   0.00000
   O  -0.3292667   0.4828343  -0.4179878 SPIN=   0.00000
   S  -0.3657726   0.2534612  -0.4197341 SPIN=   0.00000
   O  -0.4044904  -0.3322654  -0.0676609 SPIN=   0.00000
   O  -0.3226219   0.0156469  -0.1585233 SPIN=   0.00000
   O  -0.0407182  -0.2056461  -0.0913161 SPIN=   0.00000
   O  -0.2623553  -0.0647695   0.0953310 SPIN=   0.00000
   S  -0.2575465  -0.1467585  -0.0555423 SPIN=   0.00000
   O   0.4044904   0.3322654  -0.0676609 SPIN=   0.00000
   O   0.3226219  -0.0156469  -0.1585233 SPIN=   0.00000
   O   0.0407182   0.2056461  -0.0913161 SPIN=   0.00000
   O   0.2623553   0.0647695   0.0953310 SPIN=   0.00000
   S   0.2575465   0.1467585  -0.0555423 SPIN=   0.00000
   F  -0.2519445   0.3717450   0.1156824 SPIN=   0.00000
   F   0.2519445  -0.3717450   0.1156824 SPIN=   0.00000
   F  -0.1066982  -0.2549788   0.3953902 SPIN=   0.00000
   F   0.1066982   0.2549788   0.3953902 SPIN=   0.00000
%ENDBLOCK POSITIONS_FRAC

# Note: total spin =  16.00

KPOINTS_MP_SPACING 0.07

%BLOCK SPECIES_POT
QC5
%ENDBLOCK SPECIES_POT

SNAP_TO_SYMMETRY
SYMMETRY_GENERATE

