#              Generated by Buildcell
#
# at 09:54:41 (GMT+1.0) 4th August 2020
# in /lustre/scratch/uccabz1/launch_tmp
# on node-c12j-018
# by uccabz1
#
# compiler GCC version 4.9.2
# options -cpp -iprefix /lustre/shared/ucl/apps/gcc/4.9.2/bin/../lib/gcc/x86_64-unknown-linux-gnu/4.9.2/ -mtune=corei7 -march=x86-64 -g -Og
#
# seed -1739439381 -1632108356  -434376723   417788072 -2023139036   -15852239  1103420265 -1995869853  1838779732 -1669938552  2082821944  -631572969
#
#      Author: C. J. Pickard (cjp20@cam.ac.uk)
#                Space group: Pc
#

%BLOCK LATTICE_ABC
      6.23903      6.46033      9.99272
     90.00000     96.72159     90.00000
%ENDBLOCK LATTICE_ABC

%BLOCK POSITIONS_FRAC
  Li   0.3956287  -0.1393169  -0.0009325 SPIN=   0.00000
  Li  -0.1043713   0.1393169  -0.0009325 SPIN=   0.00000
  Li  -0.0442887  -0.3608329   0.4383699 SPIN=   0.00000
  Li   0.4557113   0.3608329   0.4383699 SPIN=   0.00000
  Fe   0.2759087   0.3442333   0.1502533 SPIN=   4.02500
  Fe  -0.2240913  -0.3442333   0.1502533 SPIN=   4.02500
  Fe   0.2709485   0.3207361  -0.2142098 SPIN=   3.97500
  Fe  -0.2290515  -0.3207361  -0.2142098 SPIN=   3.97500
   O  -0.3731116   0.1385288  -0.1646957 SPIN=   0.00000
   O  -0.1449736  -0.0219086  -0.3228656 SPIN=   0.00000
   O  -0.0625948   0.3312164  -0.2355386 SPIN=   0.00000
   O  -0.3868383   0.2695910  -0.3982656 SPIN=   0.00000
   S  -0.2418796   0.1793569  -0.2803414 SPIN=   0.00000
   O   0.1268884  -0.1385288  -0.1646957 SPIN=   0.00000
   O   0.3550264   0.0219086  -0.3228656 SPIN=   0.00000
   O   0.4374052  -0.3312164  -0.2355386 SPIN=   0.00000
   O   0.1131617  -0.2695910  -0.3982656 SPIN=   0.00000
   S   0.2581204  -0.1793569  -0.2803414 SPIN=   0.00000
   O   0.0972047  -0.1012300   0.1489980 SPIN=   0.00000
   O   0.3090145  -0.0014031   0.3642887 SPIN=   0.00000
   O   0.4726368  -0.2254452   0.2028503 SPIN=   0.00000
   O   0.1839746  -0.3628199   0.3280913 SPIN=   0.00000
   S   0.2657076  -0.1727246   0.2610571 SPIN=   0.00000
   O  -0.4027953   0.1012300   0.1489980 SPIN=   0.00000
   O  -0.1909855   0.0014031   0.3642887 SPIN=   0.00000
   O  -0.0273632   0.2254452   0.2028503 SPIN=   0.00000
   O  -0.3160254   0.3628199   0.3280913 SPIN=   0.00000
   S  -0.2342924   0.1727246   0.2610571 SPIN=   0.00000
   F   0.3222075   0.2939076  -0.0282771 SPIN=   0.00000
   F  -0.1777925  -0.2939076  -0.0282771 SPIN=   0.00000
   F   0.2168016   0.3185857  -0.4742406 SPIN=   0.00000
   F  -0.2831984  -0.3185857  -0.4742406 SPIN=   0.00000
%ENDBLOCK POSITIONS_FRAC

# Note: total spin =  16.00

KPOINTS_MP_SPACING 0.07

%BLOCK SPECIES_POT
QC5
%ENDBLOCK SPECIES_POT

SNAP_TO_SYMMETRY
SYMMETRY_GENERATE

