#              Generated by Buildcell
#
# at 06:08:09 (GMT+1.0) 18th August 2020
# in /lustre/scratch/uccabz1/launch_tmp
# on node-c12p-008
# by uccabz1
#
# compiler GCC version 4.9.2
# options -cpp -iprefix /lustre/shared/ucl/apps/gcc/4.9.2/bin/../lib/gcc/x86_64-unknown-linux-gnu/4.9.2/ -mtune=corei7 -march=x86-64 -g -Og
#
# seed  1118542691  1783835696  -114754429 -1333513943  1429018278   889792072  1712219834 -1671116113 -1792263849    71217487  1657205352  -934917919
#
#      Author: C. J. Pickard (cjp20@cam.ac.uk)
#                Space group: Aea2
#

%BLOCK LATTICE_ABC
      6.82554      6.92420      9.72713
     90.00000     90.00000    119.52976
%ENDBLOCK LATTICE_ABC

%BLOCK POSITIONS_FRAC
  Li  -0.2245362   0.0499539   0.0951771 SPIN=   0.00000
  Li   0.2744902   0.0499539  -0.0951771 SPIN=   0.00000
  Li  -0.2255098   0.0499539  -0.4048229 SPIN=   0.00000
  Li   0.2754638   0.0499539   0.4048229 SPIN=   0.00000
  Fe  -0.1928053   0.3681717  -0.1689739 SPIN=   4.00000
  Fe  -0.4390230   0.3681717   0.1689739 SPIN=   4.00000
  Fe   0.0609770   0.3681717   0.3310261 SPIN=   4.00000
  Fe   0.3071947   0.3681717  -0.3310261 SPIN=   4.00000
   O   0.1967655  -0.2019063   0.0906421 SPIN=   0.00000
   O   0.0281471  -0.2086075   0.3170680 SPIN=   0.00000
   O  -0.1629732  -0.1971787   0.1035085 SPIN=   0.00000
   O   0.1920664   0.1327091   0.1755725 SPIN=   0.00000
   S   0.0635014  -0.1187458   0.1716978 SPIN=   0.00000
   O  -0.3986717  -0.2019063  -0.0906421 SPIN=   0.00000
   O  -0.2367546  -0.2086075  -0.3170680 SPIN=   0.00000
   O  -0.0342055  -0.1971787  -0.1035085 SPIN=   0.00000
   O  -0.0593572   0.1327091  -0.1755725 SPIN=   0.00000
   S  -0.1822473  -0.1187458  -0.1716978 SPIN=   0.00000
   O   0.1013283  -0.2019063  -0.4093579 SPIN=   0.00000
   O   0.2632454  -0.2086075  -0.1829320 SPIN=   0.00000
   O   0.4657945  -0.1971787  -0.3964915 SPIN=   0.00000
   O   0.4406428   0.1327091  -0.3244275 SPIN=   0.00000
   S   0.3177527  -0.1187458  -0.3283022 SPIN=   0.00000
   O  -0.3032345  -0.2019063   0.4093579 SPIN=   0.00000
   O  -0.4718529  -0.2086075   0.1829320 SPIN=   0.00000
   O  -0.6629732  -0.1971787   0.3964915 SPIN=   0.00000
   O  -0.3079336   0.1327091   0.3244275 SPIN=   0.00000
   S  -0.4364986  -0.1187458   0.3283022 SPIN=   0.00000
   F   0.4793606   0.3599939   0.3753408 SPIN=   0.00000
   F  -0.1193667   0.3599939  -0.3753408 SPIN=   0.00000
   F   0.3806333   0.3599939  -0.1246592 SPIN=   0.00000
   F  -0.0206394   0.3599939   0.1246592 SPIN=   0.00000
%ENDBLOCK POSITIONS_FRAC

# Note: total spin =  16.00

KPOINTS_MP_SPACING 0.07

%BLOCK SPECIES_POT
QC5
%ENDBLOCK SPECIES_POT

SNAP_TO_SYMMETRY
SYMMETRY_GENERATE

