#              Generated by Buildcell
#
# at 03:19:30 (GMT+1.0) 18th August 2020
# in /lustre/scratch/uccabz1/launch_tmp
# on node-c12l-014
# by uccabz1
#
# compiler GCC version 4.9.2
# options -cpp -iprefix /lustre/shared/ucl/apps/gcc/4.9.2/bin/../lib/gcc/x86_64-unknown-linux-gnu/4.9.2/ -mtune=corei7 -march=x86-64 -g -Og
#
# seed  -107954185  -626226441  1208287718  -249481192  1947391784 -1583610469  -877487674   761255383  1933857984  -134912827  1885856289  1745689549
#
#      Author: C. J. Pickard (cjp20@cam.ac.uk)
#                Space group: C2221
#

%BLOCK LATTICE_ABC
      7.60153      7.60153      7.85583
     90.00000     90.00000    118.21461
%ENDBLOCK LATTICE_ABC

%BLOCK POSITIONS_FRAC
  Li  -0.6770242  -0.3339077   0.2501663 SPIN=   0.00000
  Li   0.6770242   0.3339077  -0.2498337 SPIN=   0.00000
  Li   0.6660923   0.3229758   0.2498337 SPIN=   0.00000
  Li  -0.6660923  -0.3229758  -0.2501663 SPIN=   0.00000
  Fe   0.0071887   0.4755520  -0.4882776 SPIN=   4.00000
  Fe  -0.0071887  -0.4755520   0.0117224 SPIN=   4.00000
  Fe   0.4755520   0.0071887  -0.0117224 SPIN=   4.00000
  Fe  -0.4755520  -0.0071887   0.4882776 SPIN=   4.00000
   O   0.2607576   0.0892724  -0.3648843 SPIN=   0.00000
   O   0.0798220   0.1337020  -0.6090774 SPIN=   0.00000
   O   0.4490734   0.2970093  -0.6103881 SPIN=   0.00000
   O   0.2731392   0.4164288  -0.4146499 SPIN=   0.00000
   S   0.2656981   0.2341031  -0.4997499 SPIN=   0.00000
   O  -0.2607576  -0.0892724   0.1351157 SPIN=   0.00000
   O  -0.0798220  -0.1337020  -0.1090774 SPIN=   0.00000
   O  -0.4490734  -0.2970093  -0.1103881 SPIN=   0.00000
   O  -0.2731392  -0.4164288   0.0853501 SPIN=   0.00000
   S  -0.2656981  -0.2341031   0.0002501 SPIN=   0.00000
   O   0.0892724   0.2607576  -0.1351157 SPIN=   0.00000
   O   0.1337020   0.0798220   0.1090774 SPIN=   0.00000
   O   0.2970093   0.4490734   0.1103881 SPIN=   0.00000
   O   0.4164288   0.2731392  -0.0853501 SPIN=   0.00000
   S   0.2341031   0.2656981  -0.0002501 SPIN=   0.00000
   O  -0.0892724  -0.2607576   0.3648843 SPIN=   0.00000
   O  -0.1337020  -0.0798220   0.6090774 SPIN=   0.00000
   O  -0.2970093  -0.4490734   0.6103881 SPIN=   0.00000
   O  -0.4164288  -0.2731392   0.4146499 SPIN=   0.00000
   S  -0.2341031  -0.2656981   0.4997499 SPIN=   0.00000
   F   0.0623706  -0.4063060  -0.2232326 SPIN=   0.00000
   F  -0.0623706   0.4063060   0.2767674 SPIN=   0.00000
   F  -0.4063060   0.0623706  -0.2767674 SPIN=   0.00000
   F   0.4063060  -0.0623706   0.2232326 SPIN=   0.00000
%ENDBLOCK POSITIONS_FRAC

# Note: total spin =  16.00

KPOINTS_MP_SPACING 0.07

%BLOCK SPECIES_POT
QC5
%ENDBLOCK SPECIES_POT

SNAP_TO_SYMMETRY
SYMMETRY_GENERATE

