#              Generated by Buildcell
#
# at 09:27:43 (GMT+1.0) 4th August 2020
# in /lustre/scratch/uccabz1/launch_tmp
# on node-c12f-028
# by uccabz1
#
# compiler GCC version 4.9.2
# options -cpp -iprefix /lustre/shared/ucl/apps/gcc/4.9.2/bin/../lib/gcc/x86_64-unknown-linux-gnu/4.9.2/ -mtune=corei7 -march=x86-64 -g -Og
#
# seed  1163537841  -738346364   753054953  -898190205  -870416464  2071746946  -613937628   817095900  -793319791  -536622316  1594779664   762746110
#
#      Author: C. J. Pickard (cjp20@cam.ac.uk)
#                Space group: Pna21
#

%BLOCK LATTICE_ABC
      4.86994      8.66912      9.47461
     90.00000     90.00000     90.00000
%ENDBLOCK LATTICE_ABC

%BLOCK POSITIONS_FRAC
  Li  -0.3617321   0.4382570  -0.1225464 SPIN=   0.00000
  Li   0.3617321  -0.4382570   0.3774536 SPIN=   0.00000
  Li  -0.1382679  -0.0617430  -0.1225464 SPIN=   0.00000
  Li   0.1382679   0.0617430   0.3774536 SPIN=   0.00000
  Fe  -0.0387019  -0.2284097   0.2321263 SPIN=   4.00000
  Fe   0.0387019   0.2284097  -0.2678737 SPIN=   4.00000
  Fe  -0.4612981   0.2715903   0.2321263 SPIN=   4.00000
  Fe   0.4612981  -0.2715903  -0.2678737 SPIN=   4.00000
   O   0.0436392  -0.6180529  -0.0961404 SPIN=   0.00000
   O   0.2839198  -0.5679394   0.1294157 SPIN=   0.00000
   O  -0.1001740  -0.3996462   0.0549609 SPIN=   0.00000
   O   0.3436643  -0.3891601  -0.0719044 SPIN=   0.00000
   S   0.1427623  -0.4936997   0.0040829 SPIN=   0.00000
   O  -0.0436392   0.6180529  -0.5961404 SPIN=   0.00000
   O  -0.2839198   0.5679394  -0.3705843 SPIN=   0.00000
   O   0.1001740   0.3996462  -0.4450391 SPIN=   0.00000
   O  -0.3436643   0.3891601  -0.5719044 SPIN=   0.00000
   S  -0.1427623   0.4936997  -0.4959171 SPIN=   0.00000
   O   0.4563608  -0.1180529  -0.0961404 SPIN=   0.00000
   O   0.2160802  -0.0679394   0.1294157 SPIN=   0.00000
   O   0.6001740   0.1003538   0.0549609 SPIN=   0.00000
   O   0.1563357   0.1108399  -0.0719044 SPIN=   0.00000
   S   0.3572377   0.0063003   0.0040829 SPIN=   0.00000
   O  -0.4563608   0.1180529  -0.5961404 SPIN=   0.00000
   O  -0.2160802   0.0679394  -0.3705843 SPIN=   0.00000
   O  -0.6001740  -0.1003538  -0.4450391 SPIN=   0.00000
   O  -0.1563357  -0.1108399  -0.5719044 SPIN=   0.00000
   S  -0.3572377  -0.0063003  -0.4959171 SPIN=   0.00000
   F   0.0429919  -0.2166396  -0.2583820 SPIN=   0.00000
   F  -0.0429919   0.2166396   0.2416180 SPIN=   0.00000
   F   0.4570081   0.2833604  -0.2583820 SPIN=   0.00000
   F  -0.4570081  -0.2833604   0.2416180 SPIN=   0.00000
%ENDBLOCK POSITIONS_FRAC

# Note: total spin =  16.00

KPOINTS_MP_SPACING 0.07

%BLOCK SPECIES_POT
QC5
%ENDBLOCK SPECIES_POT

SNAP_TO_SYMMETRY
SYMMETRY_GENERATE

