#              Generated by Buildcell
#
# at 07:35:56 (GMT+1.0) 4th August 2020
# in /lustre/scratch/uccabz1/launch_tmp
# on node-c12l-015
# by uccabz1
#
# compiler GCC version 4.9.2
# options -cpp -iprefix /lustre/shared/ucl/apps/gcc/4.9.2/bin/../lib/gcc/x86_64-unknown-linux-gnu/4.9.2/ -mtune=corei7 -march=x86-64 -g -Og
#
# seed  1214179697   752164026 -1764510714   710786899  1350314535   680280811  1464835066  1584993688  -617834582   -67592096  1819075977  -424069293
#
#      Author: C. J. Pickard (cjp20@cam.ac.uk)
#                Space group: P41
#

%BLOCK LATTICE_ABC
      6.05983      6.05983     10.89278
     90.00000     90.00000     90.00000
%ENDBLOCK LATTICE_ABC

%BLOCK POSITIONS_FRAC
  Li   0.3738841   0.1840312  -0.1995068 SPIN=   0.00000
  Li  -0.3738841  -0.1840312   0.3004932 SPIN=   0.00000
  Li  -0.1840312   0.3738841   0.0504932 SPIN=   0.00000
  Li   0.1840312  -0.3738841  -0.4495068 SPIN=   0.00000
  Fe   0.3131330   0.2276672   0.4111647 SPIN=   4.00000
  Fe  -0.3131330  -0.2276672  -0.0888353 SPIN=   4.00000
  Fe  -0.2276672   0.3131330  -0.3388353 SPIN=   4.00000
  Fe   0.2276672  -0.3131330   0.1611647 SPIN=   4.00000
   O   0.3788779  -0.3896749  -0.1589298 SPIN=   0.00000
   O   0.2626324  -0.1302297  -0.3220461 SPIN=   0.00000
   O   0.1029215  -0.0998289  -0.1136212 SPIN=   0.00000
   O   0.0031758  -0.4152209  -0.2468754 SPIN=   0.00000
   S   0.1869019  -0.2587386  -0.2103681 SPIN=   0.00000
   O  -0.3788779   0.3896749   0.3410702 SPIN=   0.00000
   O  -0.2626324   0.1302297   0.1779539 SPIN=   0.00000
   O  -0.1029215   0.0998289   0.3863788 SPIN=   0.00000
   O  -0.0031758   0.4152209   0.2531246 SPIN=   0.00000
   S  -0.1869019   0.2587386   0.2896319 SPIN=   0.00000
   O   0.3896749   0.3788779   0.0910702 SPIN=   0.00000
   O   0.1302297   0.2626324  -0.0720461 SPIN=   0.00000
   O   0.0998289   0.1029215   0.1363788 SPIN=   0.00000
   O   0.4152209   0.0031758   0.0031246 SPIN=   0.00000
   S   0.2587386   0.1869019   0.0396319 SPIN=   0.00000
   O  -0.3896749  -0.3788779  -0.4089298 SPIN=   0.00000
   O  -0.1302297  -0.2626324  -0.5720461 SPIN=   0.00000
   O  -0.0998289  -0.1029215  -0.3636212 SPIN=   0.00000
   O  -0.4152209  -0.0031758  -0.4968754 SPIN=   0.00000
   S  -0.2587386  -0.1869019  -0.4603681 SPIN=   0.00000
   F   0.0548994   0.3171277  -0.4261981 SPIN=   0.00000
   F  -0.0548994  -0.3171277   0.0738019 SPIN=   0.00000
   F  -0.3171277   0.0548994  -0.1761981 SPIN=   0.00000
   F   0.3171277  -0.0548994   0.3238019 SPIN=   0.00000
%ENDBLOCK POSITIONS_FRAC

# Note: total spin =  16.00

KPOINTS_MP_SPACING 0.07

%BLOCK SPECIES_POT
QC5
%ENDBLOCK SPECIES_POT

SNAP_TO_SYMMETRY
SYMMETRY_GENERATE

