#              Generated by Buildcell
#
# at 08:00:38 (GMT+1.0) 4th August 2020
# in /lustre/scratch/uccabz1/launch_tmp
# on node-c12j-016
# by uccabz1
#
# compiler GCC version 4.9.2
# options -cpp -iprefix /lustre/shared/ucl/apps/gcc/4.9.2/bin/../lib/gcc/x86_64-unknown-linux-gnu/4.9.2/ -mtune=corei7 -march=x86-64 -g -Og
#
# seed   437434941 -1783919877   -51111068   995900926   -58044666 -1205226668  -740457501  -352587409  -339205620   842805077  -971648047 -1189818025
#
#      Author: C. J. Pickard (cjp20@cam.ac.uk)
#                Space group: Cm
#

%BLOCK LATTICE_ABC
      4.74396      8.05890     11.44334
    110.32687    101.49120     91.31209
%ENDBLOCK LATTICE_ABC

%BLOCK POSITIONS_FRAC
  Li   0.2135470  -0.3858698  -0.1889890 SPIN=   0.00000
  Li   0.4025359  -0.1968808   0.1889890 SPIN=   0.00000
  Li  -0.3069618   0.0929003  -0.3272965 SPIN=   0.00000
  Li   0.0203346   0.4201968   0.3272965 SPIN=   0.00000
  Fe  -0.4757671  -0.6711247  -0.4983755 SPIN=   4.48614
  Fe   0.0226084   0.8272508   0.4983755 SPIN=   4.48614
  Fe   0.2770211  -0.0008902   0.0000000 SPIN=   5.21602
  Fe  -0.1291528  -0.4892645   0.0000000 SPIN=   1.81170
   O   0.5174104  -0.6347854  -0.2325722 SPIN=   0.00000
   O   0.3016718  -0.8680932  -0.1730768 SPIN=   0.00000
   O   0.1055707  -0.8442753  -0.3832661 SPIN=   0.00000
   O   0.0294795  -0.6142266  -0.1856355 SPIN=   0.00000
   S   0.2385331  -0.7403451  -0.2436376 SPIN=   0.00000
   O   0.7499826   0.5977868   0.2325722 SPIN=   0.00000
   O   0.4747486   0.3049836   0.1730768 SPIN=   0.00000
   O   0.4888368   0.5389908   0.3832661 SPIN=   0.00000
   O   0.2151150   0.5714089   0.1856355 SPIN=   0.00000
   S   0.4821707   0.5032925   0.2436376 SPIN=   0.00000
   O  -0.3789526   0.0418849   0.1984487 SPIN=   0.00000
   O   0.1343666   0.1400360   0.2224958 SPIN=   0.00000
   O  -0.0120548  -0.1732207   0.1876798 SPIN=   0.00000
   O  -0.0192995   0.0642755   0.3937540 SPIN=   0.00000
   S  -0.0689851   0.0182439   0.2505946 SPIN=   0.00000
   O  -0.5774013  -0.1565637  -0.1984487 SPIN=   0.00000
   O  -0.0881292  -0.0824598  -0.2224958 SPIN=   0.00000
   O  -0.1997345  -0.3609004  -0.1876798 SPIN=   0.00000
   O  -0.4130535  -0.3294786  -0.3937540 SPIN=   0.00000
   S  -0.3195796  -0.2323506  -0.2505946 SPIN=   0.00000
   F  -0.4770297   0.9511327   0.4907504 SPIN=   0.00000
   F   0.0322200  -0.5396177  -0.4907504 SPIN=   0.00000
   F  -0.1375362   0.2166828   0.0000000 SPIN=   0.00000
   F   0.3390661  -0.2856392   0.0000000 SPIN=   0.00000
%ENDBLOCK POSITIONS_FRAC

# Note: total spin =  16.00

KPOINTS_MP_SPACING 0.07

%BLOCK SPECIES_POT
QC5
%ENDBLOCK SPECIES_POT

SNAP_TO_SYMMETRY
SYMMETRY_GENERATE

