#              Generated by Buildcell
#
# at 05:55:23 (GMT+1.0) 4th August 2020
# in /lustre/scratch/uccabz1/launch_tmp
# on node-c12a-003
# by uccabz1
#
# compiler GCC version 4.9.2
# options -cpp -iprefix /lustre/shared/ucl/apps/gcc/4.9.2/bin/../lib/gcc/x86_64-unknown-linux-gnu/4.9.2/ -mtune=corei7 -march=x86-64 -g -Og
#
# seed  1563384883 -1830859107   -28008960   740685431   596878539  -515150399 -1089903014  -323573080   251006685  1799019799  -718247592  1003421605
#
#      Author: C. J. Pickard (cjp20@cam.ac.uk)
#                Space group: Pc
#

%BLOCK LATTICE_ABC
      6.19230      7.94548      9.04090
    115.94156     90.00000     90.00000
%ENDBLOCK LATTICE_ABC

%BLOCK POSITIONS_FRAC
  Li   0.2829095   0.1239872  -0.0065121 SPIN=   0.00000
  Li  -0.2829095   0.1239872   0.4934879 SPIN=   0.00000
  Li   0.2833222  -0.6241461  -0.2480433 SPIN=   0.00000
  Li  -0.2833222   0.3758539   0.2519567 SPIN=   0.00000
  Fe   0.1803559  -0.0292523  -0.4673645 SPIN=   4.17296
  Fe  -0.1803559  -0.0292523   0.0326355 SPIN=   4.17296
  Fe  -0.3390378  -0.2572975  -0.4168208 SPIN=   3.82704
  Fe   0.3390378  -0.2572975   0.0831792 SPIN=   3.82704
   O   0.1608022  -0.3767974  -0.4578670 SPIN=   0.00000
   O  -0.0560341  -0.3807136  -0.2294417 SPIN=   0.00000
   O   0.1186574  -0.0872012  -0.1991450 SPIN=   0.00000
   O   0.3413852  -0.3480406  -0.2036649 SPIN=   0.00000
   S   0.1412027  -0.2981882  -0.2725296 SPIN=   0.00000
   O  -0.1608022   0.6232026   0.0421330 SPIN=   0.00000
   O   0.0560341   0.6192864   0.2705583 SPIN=   0.00000
   O  -0.1186574   0.9127988   0.3008550 SPIN=   0.00000
   O  -0.3413852   0.6519594   0.2963351 SPIN=   0.00000
   S  -0.1412027   0.7018118   0.2274704 SPIN=   0.00000
   O   0.0820161   0.2161674  -0.1751155 SPIN=   0.00000
   O  -0.2416692   0.3290670   0.0017938 SPIN=   0.00000
   O  -0.2563302   0.0320008  -0.2528348 SPIN=   0.00000
   O  -0.2332670   0.3339272  -0.2699923 SPIN=   0.00000
   S  -0.1623126   0.2277906  -0.1740372 SPIN=   0.00000
   O  -0.0820161   0.2161674   0.3248845 SPIN=   0.00000
   O   0.2416692   0.3290670   0.5017938 SPIN=   0.00000
   O   0.2563302   0.0320008   0.2471652 SPIN=   0.00000
   O   0.2332670   0.3339272   0.2300077 SPIN=   0.00000
   S   0.1623126   0.2277906   0.3259628 SPIN=   0.00000
   F  -0.3602551  -0.5080266  -0.4760007 SPIN=   0.00000
   F   0.3602551   0.4919734   0.0239993 SPIN=   0.00000
   F  -0.4675382  -0.0122128  -0.0047892 SPIN=   0.00000
   F   0.4675382   0.9877872   0.4952108 SPIN=   0.00000
%ENDBLOCK POSITIONS_FRAC

# Note: total spin =  16.00

KPOINTS_MP_SPACING 0.07

%BLOCK SPECIES_POT
QC5
%ENDBLOCK SPECIES_POT

SNAP_TO_SYMMETRY
SYMMETRY_GENERATE

