#              Generated by Buildcell
#
# at 01:15:05 (GMT+1.0) 18th August 2020
# in /lustre/scratch/uccabz1/launch_tmp
# on node-c12j-020
# by uccabz1
#
# compiler GCC version 4.9.2
# options -cpp -iprefix /lustre/shared/ucl/apps/gcc/4.9.2/bin/../lib/gcc/x86_64-unknown-linux-gnu/4.9.2/ -mtune=corei7 -march=x86-64 -g -Og
#
# seed   883923019 -1511783597 -1890542832   105532163  1195748244  1475635783   879606696  1281566735  1920504338 -1290799122   356060982  2017305771
#
#      Author: C. J. Pickard (cjp20@cam.ac.uk)
#                Space group: C2/c
#

%BLOCK LATTICE_ABC
      6.04703      6.23361     12.13477
     89.79954     89.58670     60.98527
%ENDBLOCK LATTICE_ABC

%BLOCK POSITIONS_FRAC
  Li  -0.1837594  -0.0920123  -0.0976585 SPIN=   0.00000
  Li  -0.2242283  -0.0920123  -0.4023415 SPIN=   0.00000
  Li   0.1837594   0.0920123   0.0976585 SPIN=   0.00000
  Li   0.2242283   0.0920123   0.4023415 SPIN=   0.00000
  Fe  -0.3244234  -0.3496252   0.1685009 SPIN=   4.00000
  Fe   0.1740486  -0.3496252   0.3314991 SPIN=   4.00000
  Fe   0.3244234   0.3496252  -0.1685009 SPIN=   4.00000
  Fe  -0.1740486   0.3496252  -0.3314991 SPIN=   4.00000
   O  -0.1849796  -0.4080371   0.5443769 SPIN=   0.00000
   O  -0.3772852  -0.0739667   0.4069375 SPIN=   0.00000
   O  -0.5950762  -0.3082043   0.4598212 SPIN=   0.00000
   O  -0.2020333  -0.5062900   0.3482492 SPIN=   0.00000
   S  -0.3398436  -0.3241245   0.4398462 SPIN=   0.00000
   O   0.0930167  -0.4080371  -0.0443769 SPIN=   0.00000
   O  -0.0487481  -0.0739667   0.0930625 SPIN=   0.00000
   O   0.4032805  -0.3082043   0.0401788 SPIN=   0.00000
   O   0.2083233  -0.5062900   0.1517508 SPIN=   0.00000
   S   0.1639681  -0.3241245   0.0601538 SPIN=   0.00000
   O   0.1849796   0.4080371  -0.5443769 SPIN=   0.00000
   O   0.3772852   0.0739667  -0.4069375 SPIN=   0.00000
   O   0.5950762   0.3082043  -0.4598212 SPIN=   0.00000
   O   0.2020333   0.5062900  -0.3482492 SPIN=   0.00000
   S   0.3398436   0.3241245  -0.4398462 SPIN=   0.00000
   O  -0.0930167   0.4080371   0.0443769 SPIN=   0.00000
   O   0.0487481   0.0739667  -0.0930625 SPIN=   0.00000
   O  -0.4032805   0.3082043  -0.0401788 SPIN=   0.00000
   O  -0.2083233   0.5062900  -0.1517508 SPIN=   0.00000
   S  -0.1639681   0.3241245  -0.0601538 SPIN=   0.00000
   F  -0.4858461  -0.0325501  -0.1559165 SPIN=   0.00000
   F   0.0183962  -0.0325501  -0.3440835 SPIN=   0.00000
   F   0.4858461   0.0325501   0.1559165 SPIN=   0.00000
   F  -0.0183962   0.0325501   0.3440835 SPIN=   0.00000
%ENDBLOCK POSITIONS_FRAC

# Note: total spin =  16.00

KPOINTS_MP_SPACING 0.07

%BLOCK SPECIES_POT
QC5
%ENDBLOCK SPECIES_POT

SNAP_TO_SYMMETRY
SYMMETRY_GENERATE

