#              Generated by Buildcell
#
# at 08:18:28 (GMT+1.0) 4th August 2020
# in /lustre/scratch/uccabz1/launch_tmp
# on node-c12p-031
# by uccabz1
#
# compiler GCC version 4.9.2
# options -cpp -iprefix /lustre/shared/ucl/apps/gcc/4.9.2/bin/../lib/gcc/x86_64-unknown-linux-gnu/4.9.2/ -mtune=corei7 -march=x86-64 -g -Og
#
# seed   362525499   495631957  1235724629    25875477   442269160  -558254390 -1102624054   -20602234  1511681672  1644072022 -1549760850   277180568
#
#      Author: C. J. Pickard (cjp20@cam.ac.uk)
#                Space group: C2
#

%BLOCK LATTICE_ABC
      6.20547      7.98698      9.11284
    115.99081     98.84258     90.00000
%ENDBLOCK LATTICE_ABC

%BLOCK POSITIONS_FRAC
  Li  -0.2086511  -0.4272060   0.1693944 SPIN=   0.00000
  Li   0.2086511   0.4033996  -0.1693944 SPIN=   0.00000
  Li  -0.2889035   0.0375067  -0.4425229 SPIN=   0.00000
  Li   0.2889035   0.4800296   0.4425229 SPIN=   0.00000
  Fe   0.1870270  -0.1365857  -0.3558416 SPIN=   4.84104
  Fe  -0.1870270   0.2192559   0.3558416 SPIN=   4.84104
  Fe   0.2742539   0.1717061   0.1113451 SPIN=   3.15896
  Fe  -0.2742539   0.0603610  -0.1113451 SPIN=   3.15896
   O  -0.4948091   0.3769385  -0.2433128 SPIN=   0.00000
   O  -0.1968332   0.6285993  -0.0987583 SPIN=   0.00000
   O  -0.1258238   0.3242520  -0.3188844 SPIN=   0.00000
   O  -0.1887073   0.3476931  -0.0490568 SPIN=   0.00000
   S  -0.2515434   0.4193707  -0.1775031 SPIN=   0.00000
   O   0.4948091  -0.3797487   0.2433128 SPIN=   0.00000
   O   0.1968332  -0.2726424   0.0987583 SPIN=   0.00000
   O   0.1258238  -0.3568635   0.3188844 SPIN=   0.00000
   O   0.1887073  -0.6032501   0.0490568 SPIN=   0.00000
   S   0.2515434  -0.4031262   0.1775031 SPIN=   0.00000
   O   0.1887917   0.0610483   0.2661064 SPIN=   0.00000
   O   0.5375720   0.1930160   0.4608790 SPIN=   0.00000
   O   0.2932817  -0.0285859   0.4937612 SPIN=   0.00000
   O   0.1856351   0.2909060   0.5563025 SPIN=   0.00000
   S   0.3013201   0.1290961   0.4442623 SPIN=   0.00000
   O  -0.1887917  -0.2050581  -0.2661064 SPIN=   0.00000
   O  -0.5375720  -0.2678630  -0.4608790 SPIN=   0.00000
   O  -0.2932817  -0.5223471  -0.4937612 SPIN=   0.00000
   O  -0.1856351  -0.2653964  -0.5563025 SPIN=   0.00000
   S  -0.3013201  -0.3151662  -0.4442623 SPIN=   0.00000
   F  -0.2915860   0.2889956   0.1903042 SPIN=   0.00000
   F   0.2915860   0.0986913  -0.1903042 SPIN=   0.00000
   F  -0.2164204  -0.1592047   0.2105753 SPIN=   0.00000
   F   0.2164204  -0.3697800  -0.2105753 SPIN=   0.00000
%ENDBLOCK POSITIONS_FRAC

# Note: total spin =  16.00

KPOINTS_MP_SPACING 0.07

%BLOCK SPECIES_POT
QC5
%ENDBLOCK SPECIES_POT

SNAP_TO_SYMMETRY
SYMMETRY_GENERATE

