#              Generated by Buildcell
#
# at 10:25:04 (GMT+1.0) 4th August 2020
# in /lustre/scratch/uccabz1/launch_tmp
# on node-c12n-015
# by uccabz1
#
# compiler GCC version 4.9.2
# options -cpp -iprefix /lustre/shared/ucl/apps/gcc/4.9.2/bin/../lib/gcc/x86_64-unknown-linux-gnu/4.9.2/ -mtune=corei7 -march=x86-64 -g -Og
#
# seed -1621558509 -1548839761  -881710399 -1190009192  -947634811  1355672190  1181735123  1378116193 -2024930438  -472690429  -997197254 -1400074427
#
#      Author: C. J. Pickard (cjp20@cam.ac.uk)
#                Space group: Pm
#

%BLOCK LATTICE_ABC
      5.67411      5.87383     12.00165
     90.00000     90.00000     90.00353
%ENDBLOCK LATTICE_ABC

%BLOCK POSITIONS_FRAC
  Li   0.1562342   0.4412049  -0.2426806 SPIN=   0.00000
  Li   0.1562342   0.4412049   0.2426806 SPIN=   0.00000
  Li   0.4986589   0.3010764  -0.5000000 SPIN=   0.00000
  Li   0.4509755   0.1843839   0.0000000 SPIN=   0.00000
  Fe  -0.3472007  -0.0759425   0.3460990 SPIN=   3.85743
  Fe  -0.3472007  -0.0759425  -0.3460990 SPIN=   3.85743
  Fe  -0.0048862   0.4683958  -0.5000000 SPIN=   4.64864
  Fe   0.3839603  -0.3165542   0.0000000 SPIN=   3.63649
   O   0.2171610  -0.2611075  -0.1561673 SPIN=   0.00000
   O  -0.0576174   0.0660621  -0.1539848 SPIN=   0.00000
   O   0.0915862  -0.0832961  -0.3334369 SPIN=   0.00000
   O   0.3600607   0.1235783  -0.2063050 SPIN=   0.00000
   S   0.1527976  -0.0386908  -0.2124735 SPIN=   0.00000
   O   0.2171610  -0.2611075   0.1561673 SPIN=   0.00000
   O  -0.0576174   0.0660621   0.1539848 SPIN=   0.00000
   O   0.0915862  -0.0832961   0.3334369 SPIN=   0.00000
   O   0.3600607   0.1235783   0.2063050 SPIN=   0.00000
   S   0.1527976  -0.0386908   0.2124735 SPIN=   0.00000
   O  -0.3082197   0.3482659   0.0956087 SPIN=   0.00000
   O  -0.3187119   0.6867870   0.2182829 SPIN=   0.00000
   O  -0.1700869   0.3193390   0.2906923 SPIN=   0.00000
   S  -0.3480145   0.4304889   0.2138149 SPIN=   0.00000
   O  -0.3082197   0.3482659  -0.0956087 SPIN=   0.00000
   O  -0.3187119   0.6867870  -0.2182829 SPIN=   0.00000
   O  -0.1700869   0.3193390  -0.2906923 SPIN=   0.00000
   S  -0.3480145   0.4304889  -0.2138149 SPIN=   0.00000
   O   0.1574060  -0.0383328   0.0000000 SPIN=   0.00000
   O   0.2070197  -0.2436816   0.5000000 SPIN=   0.00000
   F   0.1790757   0.2146446  -0.5000000 SPIN=   0.00000
   F  -0.3664174  -0.0826486  -0.0000000 SPIN=   0.00000
   F   0.1327931   0.4206089   0.0000000 SPIN=   0.00000
   F  -0.3201220  -0.2859460  -0.5000000 SPIN=   0.00000
%ENDBLOCK POSITIONS_FRAC

# Note: total spin =  16.00

KPOINTS_MP_SPACING 0.07

%BLOCK SPECIES_POT
QC5
%ENDBLOCK SPECIES_POT

SNAP_TO_SYMMETRY
SYMMETRY_GENERATE

