#              Generated by Buildcell
#
# at 02:02:56 (GMT+1.0) 18th August 2020
# in /lustre/scratch/uccabz1/launch_tmp
# on node-c12j-016
# by uccabz1
#
# compiler GCC version 4.9.2
# options -cpp -iprefix /lustre/shared/ucl/apps/gcc/4.9.2/bin/../lib/gcc/x86_64-unknown-linux-gnu/4.9.2/ -mtune=corei7 -march=x86-64 -g -Og
#
# seed  1213278280 -1596997977 -1280653618   743378468  1527988093 -1937726940   210876804   943351253 -1733362102 -1548783200   866911777  1326554726
#
#      Author: C. J. Pickard (cjp20@cam.ac.uk)
#                Space group: P2
#

%BLOCK LATTICE_ABC
      6.38340      7.06140      9.01829
    100.26454     90.00000     90.00000
%ENDBLOCK LATTICE_ABC

%BLOCK POSITIONS_FRAC
  Li  -0.1261654  -0.2360320   0.0892980 SPIN=   0.00000
  Li  -0.1261654   0.2360320  -0.0892980 SPIN=   0.00000
  Li   0.4526650   0.0386837   0.3133069 SPIN=   0.00000
  Li   0.4526650  -0.0386837  -0.3133069 SPIN=   0.00000
  Fe  -0.2953849  -0.2666691   0.4332069 SPIN=   4.17718
  Fe  -0.2953849   0.2666691  -0.4332069 SPIN=   4.17718
  Fe   0.2551373   0.4217104   0.2883783 SPIN=   3.82282
  Fe   0.2551373  -0.4217104  -0.2883783 SPIN=   3.82282
   O  -0.0023006   0.2904715   0.1771023 SPIN=   0.00000
   O  -0.2749834   0.3781318   0.3723507 SPIN=   0.00000
   O  -0.3469369   0.1274527   0.1491910 SPIN=   0.00000
   O  -0.3179526   0.4688726   0.1213869 SPIN=   0.00000
   S  -0.2355434   0.3162321   0.2050077 SPIN=   0.00000
   O  -0.0023006  -0.2904715  -0.1771023 SPIN=   0.00000
   O  -0.2749834  -0.3781318  -0.3723507 SPIN=   0.00000
   O  -0.3469369  -0.1274527  -0.1491910 SPIN=   0.00000
   O  -0.3179526  -0.4688726  -0.1213869 SPIN=   0.00000
   S  -0.2355434  -0.3162321  -0.2050077 SPIN=   0.00000
   O   0.2211762  -0.0299023   0.1218438 SPIN=   0.00000
   O   0.1522024  -0.3724448   0.1312595 SPIN=   0.00000
   O   0.5091864  -0.2393082   0.1804890 SPIN=   0.00000
   O   0.3619381  -0.2850166  -0.0772996 SPIN=   0.00000
   S   0.3111258  -0.2316680   0.0890732 SPIN=   0.00000
   O   0.2211762   0.0299023  -0.1218438 SPIN=   0.00000
   O   0.1522024   0.3724448  -0.1312595 SPIN=   0.00000
   O   0.5091864   0.2393082  -0.1804890 SPIN=   0.00000
   O   0.3619381   0.2850166   0.0772996 SPIN=   0.00000
   S   0.3111258   0.2316680  -0.0890732 SPIN=   0.00000
   F   0.3560922  -0.2560145   0.4734861 SPIN=   0.00000
   F   0.3560922   0.2560145  -0.4734861 SPIN=   0.00000
   F  -0.1064704  -0.1018020   0.3099902 SPIN=   0.00000
   F  -0.1064704   0.1018020  -0.3099902 SPIN=   0.00000
%ENDBLOCK POSITIONS_FRAC

# Note: total spin =  16.00

KPOINTS_MP_SPACING 0.07

%BLOCK SPECIES_POT
QC5
%ENDBLOCK SPECIES_POT

SNAP_TO_SYMMETRY
SYMMETRY_GENERATE

