#              Generated by Buildcell
#
# at 05:58:05 (GMT+1.0) 4th August 2020
# in /lustre/scratch/uccabz1/launch_tmp
# on node-c12g-013
# by uccabz1
#
# compiler GCC version 4.9.2
# options -cpp -iprefix /lustre/shared/ucl/apps/gcc/4.9.2/bin/../lib/gcc/x86_64-unknown-linux-gnu/4.9.2/ -mtune=corei7 -march=x86-64 -g -Og
#
# seed -1364601814   726630756   846163732   749652227 -1253536342  1860885522  1218366720  1685878282  1180910064 -1935384118  1820509076 -1675688589
#
#      Author: C. J. Pickard (cjp20@cam.ac.uk)
#                Space group: P21
#

%BLOCK LATTICE_ABC
      6.59151      7.82458      7.91138
    101.38930     90.00000     90.00000
%ENDBLOCK LATTICE_ABC

%BLOCK POSITIONS_FRAC
  Li   0.3660484   0.2293221  -0.1286711 SPIN=   0.00000
  Li  -0.1339516  -0.2293221   0.1286711 SPIN=   0.00000
  Li   0.2365809   0.2292560   0.4002662 SPIN=   0.00000
  Li  -0.2634191  -0.2292560  -0.4002662 SPIN=   0.00000
  Fe   0.2847945  -0.1598045   0.2830386 SPIN=   5.52099
  Fe  -0.2152055   0.1598045  -0.2830386 SPIN=   5.52099
  Fe  -0.2918282   0.1412289   0.2509021 SPIN=   2.47901
  Fe   0.2081718  -0.1412289  -0.2509021 SPIN=   2.47901
   O   0.4755474  -0.3388236   0.5452385 SPIN=   0.00000
   O   0.6075167  -0.4225541   0.2474970 SPIN=   0.00000
   O   0.2887094  -0.5528344   0.3285895 SPIN=   0.00000
   O   0.6171156  -0.6339944   0.4423564 SPIN=   0.00000
   S   0.4972223  -0.4870516   0.3909204 SPIN=   0.00000
   O  -0.0244526   0.3388236  -0.5452385 SPIN=   0.00000
   O   0.1075167   0.4225541  -0.2474970 SPIN=   0.00000
   O  -0.2112906   0.5528344  -0.3285895 SPIN=   0.00000
   O   0.1171156   0.6339944  -0.4423564 SPIN=   0.00000
   S  -0.0027777   0.4870516  -0.3909204 SPIN=   0.00000
   O   0.0991521   0.2040364   0.1811689 SPIN=   0.00000
   O  -0.0985576   0.3021739  -0.0480013 SPIN=   0.00000
   O   0.2437221   0.4231029   0.0284075 SPIN=   0.00000
   O  -0.0420565   0.5028838   0.2315623 SPIN=   0.00000
   S   0.0505650   0.3580492   0.0982843 SPIN=   0.00000
   O  -0.4008479  -0.2040364  -0.1811689 SPIN=   0.00000
   O  -0.5985576  -0.3021739   0.0480013 SPIN=   0.00000
   O  -0.2562779  -0.4231029  -0.0284075 SPIN=   0.00000
   O  -0.5420565  -0.5028838  -0.2315623 SPIN=   0.00000
   S  -0.4494350  -0.3580492  -0.0982843 SPIN=   0.00000
   F   0.0476662  -0.1263660  -0.0394514 SPIN=   0.00000
   F  -0.4523338   0.1263660   0.0394514 SPIN=   0.00000
   F  -0.1855866  -0.0618497   0.3951176 SPIN=   0.00000
   F   0.3144134   0.0618497  -0.3951176 SPIN=   0.00000
%ENDBLOCK POSITIONS_FRAC

# Note: total spin =  16.00

KPOINTS_MP_SPACING 0.07

%BLOCK SPECIES_POT
QC5
%ENDBLOCK SPECIES_POT

SNAP_TO_SYMMETRY
SYMMETRY_GENERATE

