#              Generated by Buildcell
#
# at 07:56:09 (GMT+1.0) 4th August 2020
# in /lustre/scratch/uccabz1/launch_tmp
# on node-c12g-024
# by uccabz1
#
# compiler GCC version 4.9.2
# options -cpp -iprefix /lustre/shared/ucl/apps/gcc/4.9.2/bin/../lib/gcc/x86_64-unknown-linux-gnu/4.9.2/ -mtune=corei7 -march=x86-64 -g -Og
#
# seed -1856086899  1629576344 -2142976875  1053688712   583373071  1541153108  1476027164   448306881 -1762546824 -1237035221  1209306065  -943252045
#
#      Author: C. J. Pickard (cjp20@cam.ac.uk)
#                Space group: P-1
#

%BLOCK LATTICE_ABC
      5.00133      8.68708      9.42305
     89.26572     77.89127     87.82358
%ENDBLOCK LATTICE_ABC

%BLOCK POSITIONS_FRAC
  Li  -0.1600203  -0.2442993   0.2803429 SPIN=   0.00000
  Li   0.1600203   0.2442993  -0.2803429 SPIN=   0.00000
  Li  -0.3684834  -0.2577136  -0.2881066 SPIN=   0.00000
  Li   0.3684834   0.2577136   0.2881066 SPIN=   0.00000
  Fe  -0.4471071  -0.3006736   0.0384138 SPIN=   4.32603
  Fe   0.4471071   0.3006736  -0.0384138 SPIN=   4.32603
  Fe  -0.1251472   0.4221755   0.2438828 SPIN=   3.67397
  Fe   0.1251472  -0.4221755  -0.2438828 SPIN=   3.67397
   O  -0.4769707   0.0654181  -0.1425036 SPIN=   0.00000
   O  -0.1854769  -0.1624678  -0.1069800 SPIN=   0.00000
   O  -0.0278294   0.0997638  -0.0783781 SPIN=   0.00000
   O  -0.0497674   0.0054492  -0.3222484 SPIN=   0.00000
   S  -0.1850111   0.0020408  -0.1625275 SPIN=   0.00000
   O   0.4769707  -0.0654181   0.1425036 SPIN=   0.00000
   O   0.1854769   0.1624678   0.1069800 SPIN=   0.00000
   O   0.0278294  -0.0997638   0.0783781 SPIN=   0.00000
   O   0.0497674  -0.0054492   0.3222484 SPIN=   0.00000
   S   0.1850111  -0.0020408   0.1625275 SPIN=   0.00000
   O  -0.5308277   0.4986962  -0.3751953 SPIN=   0.00000
   O  -0.1555608   0.4214203  -0.2518002 SPIN=   0.00000
   O  -0.0971424   0.3843728  -0.5166509 SPIN=   0.00000
   O  -0.4137721   0.2224260  -0.3456052 SPIN=   0.00000
   S  -0.2993257   0.3817288  -0.3723129 SPIN=   0.00000
   O   0.5308277  -0.4986962   0.3751953 SPIN=   0.00000
   O   0.1555608  -0.4214203   0.2518002 SPIN=   0.00000
   O   0.0971424  -0.3843728   0.5166509 SPIN=   0.00000
   O   0.4137721  -0.2224260   0.3456052 SPIN=   0.00000
   S   0.2993257  -0.3817288   0.3723129 SPIN=   0.00000
   F  -0.2718673  -0.1562271  -0.4854978 SPIN=   0.00000
   F   0.2718673   0.1562271   0.4854978 SPIN=   0.00000
   F   0.3079704  -0.2718131  -0.1192290 SPIN=   0.00000
   F  -0.3079704   0.2718131   0.1192290 SPIN=   0.00000
%ENDBLOCK POSITIONS_FRAC

# Note: total spin =  16.00

KPOINTS_MP_SPACING 0.07

%BLOCK SPECIES_POT
QC5
%ENDBLOCK SPECIES_POT

SNAP_TO_SYMMETRY
SYMMETRY_GENERATE

