#              Generated by Buildcell
#
# at 01:41:59 (GMT+1.0) 18th August 2020
# in /lustre/scratch/uccabz1/launch_tmp
# on node-c12e-014
# by uccabz1
#
# compiler GCC version 4.9.2
# options -cpp -iprefix /lustre/shared/ucl/apps/gcc/4.9.2/bin/../lib/gcc/x86_64-unknown-linux-gnu/4.9.2/ -mtune=corei7 -march=x86-64 -g -Og
#
# seed -2002482743  1721412054 -1209707704 -1603436738   432078296  -994673460  1061118303   685490962  2031418675  1823177232  1567721778  1396404511
#
#      Author: C. J. Pickard (cjp20@cam.ac.uk)
#                Space group: Cm
#

%BLOCK LATTICE_ABC
      6.60374      6.60374     10.07093
    106.34594    106.34594     93.22516
%ENDBLOCK LATTICE_ABC

%BLOCK POSITIONS_FRAC
  Li  -0.3376863   0.2306390   0.4399665 SPIN=   0.00000
  Li   0.2306390  -0.3376863   0.4399665 SPIN=   0.00000
  Li  -0.1261294  -0.1261294  -0.0902134 SPIN=   0.00000
  Li   0.3961858   0.3961858  -0.1061216 SPIN=   0.00000
  Fe   0.3326805  -0.0659006  -0.0731494 SPIN=   4.31790
  Fe  -0.0659006   0.3326805  -0.0731494 SPIN=   4.31790
  Fe  -0.2961329  -0.2961329   0.1636223 SPIN=   5.09540
  Fe   0.0430404   0.0430404  -0.4035989 SPIN=   2.26880
   O  -0.3627196   0.0100012   0.1630352 SPIN=   0.00000
   O  -0.3713184   0.3815783   0.1570487 SPIN=   0.00000
   O  -0.0964240   0.1797708   0.0817366 SPIN=   0.00000
   O  -0.0798353   0.2984500   0.3410800 SPIN=   0.00000
   S  -0.2275743   0.2174501   0.1857251 SPIN=   0.00000
   O   0.0100012  -0.3627196   0.1630352 SPIN=   0.00000
   O   0.3815783  -0.3713184   0.1570487 SPIN=   0.00000
   O   0.1797708  -0.0964240   0.0817366 SPIN=   0.00000
   O   0.2984500  -0.0798353   0.3410800 SPIN=   0.00000
   S   0.2174501  -0.2275743   0.1857251 SPIN=   0.00000
   O   0.1867301   0.5017183  -0.3267532 SPIN=   0.00000
   O  -0.1467749   0.3931139  -0.2822311 SPIN=   0.00000
   O  -0.1620359   0.5361687  -0.4865542 SPIN=   0.00000
   S  -0.0360832   0.5516132  -0.3320169 SPIN=   0.00000
   O   0.5017183   0.1867301  -0.3267532 SPIN=   0.00000
   O   0.3931139  -0.1467749  -0.2822311 SPIN=   0.00000
   O   0.5361687  -0.1620359  -0.4865542 SPIN=   0.00000
   S   0.5516132  -0.0360832  -0.3320169 SPIN=   0.00000
   O  -0.0185749  -0.0185749   0.2273506 SPIN=   0.00000
   O   0.1848121   0.1848121   0.4766564 SPIN=   0.00000
   F   0.1313073   0.1313073  -0.1683687 SPIN=   0.00000
   F  -0.1653052  -0.1653052   0.3946271 SPIN=   0.00000
   F  -0.3892110  -0.3892110  -0.1018416 SPIN=   0.00000
   F   0.4208714   0.4208714   0.4029566 SPIN=   0.00000
%ENDBLOCK POSITIONS_FRAC

# Note: total spin =  16.00

KPOINTS_MP_SPACING 0.07

%BLOCK SPECIES_POT
QC5
%ENDBLOCK SPECIES_POT

SNAP_TO_SYMMETRY
SYMMETRY_GENERATE

