#              Generated by Buildcell
#
# at 02:37:10 (GMT+1.0) 18th August 2020
# in /lustre/scratch/uccabz1/launch_tmp
# on node-c12e-007
# by uccabz1
#
# compiler GCC version 4.9.2
# options -cpp -iprefix /lustre/shared/ucl/apps/gcc/4.9.2/bin/../lib/gcc/x86_64-unknown-linux-gnu/4.9.2/ -mtune=corei7 -march=x86-64 -g -Og
#
# seed  -581324433   978479318   -34896690  1143853947 -1229052812 -2122158965    99497385 -1917146560  -511906055  -609706575  1443318083   174339942
#
#      Author: C. J. Pickard (cjp20@cam.ac.uk)
#                Space group: P21
#

%BLOCK LATTICE_ABC
      6.54882      7.83032      8.14368
     90.00000     90.00000    106.69499
%ENDBLOCK LATTICE_ABC

%BLOCK POSITIONS_FRAC
  Li  -0.1066040   0.0406236  -0.0746965 SPIN=   0.00000
  Li   0.1066040  -0.0406236   0.4253035 SPIN=   0.00000
  Li   0.4877204  -0.3079371   0.1794118 SPIN=   0.00000
  Li  -0.4877204   0.3079371  -0.3205882 SPIN=   0.00000
  Fe  -0.4690673  -0.3480849  -0.1774907 SPIN=   1.17533
  Fe   0.4690673   0.3480849   0.3225093 SPIN=   1.17533
  Fe   0.0576980   0.2515899  -0.3646037 SPIN=   6.82467
  Fe  -0.0576980  -0.2515899   0.1353963 SPIN=   6.82467
   O  -0.0859771   0.1913740   0.3908255 SPIN=   0.00000
   O  -0.2016167  -0.1348072   0.3449846 SPIN=   0.00000
   O  -0.3246663   0.0646511   0.1582225 SPIN=   0.00000
   O  -0.4605666   0.0184395   0.4432280 SPIN=   0.00000
   S  -0.2682067   0.0349144   0.3343151 SPIN=   0.00000
   O   0.0859771  -0.1913740  -0.1091745 SPIN=   0.00000
   O   0.2016167   0.1348072  -0.1550154 SPIN=   0.00000
   O   0.3246663  -0.0646511  -0.3417775 SPIN=   0.00000
   O   0.4605666  -0.0184395  -0.0567720 SPIN=   0.00000
   S   0.2682067  -0.0349144  -0.1656849 SPIN=   0.00000
   O   0.3084985  -0.2092196   0.3178787 SPIN=   0.00000
   O   0.1153524  -0.5256620   0.3708529 SPIN=   0.00000
   O   0.0661109  -0.2905016   0.5566405 SPIN=   0.00000
   O   0.4082820  -0.3656381   0.5552878 SPIN=   0.00000
   S   0.2245609  -0.3477553   0.4501650 SPIN=   0.00000
   O  -0.3084985   0.2092196  -0.1821213 SPIN=   0.00000
   O  -0.1153524   0.5256620  -0.1291471 SPIN=   0.00000
   O  -0.0661109   0.2905016   0.0566405 SPIN=   0.00000
   O  -0.4082820   0.3656381   0.0552878 SPIN=   0.00000
   S  -0.2245609   0.3477553  -0.0498350 SPIN=   0.00000
   F   0.2622498   0.1244921   0.2293756 SPIN=   0.00000
   F  -0.2622498  -0.1244921  -0.2706244 SPIN=   0.00000
   F   0.3069420  -0.4223850   0.0175232 SPIN=   0.00000
   F  -0.3069420   0.4223850  -0.4824768 SPIN=   0.00000
%ENDBLOCK POSITIONS_FRAC

# Note: total spin =  16.00

KPOINTS_MP_SPACING 0.07

%BLOCK SPECIES_POT
QC5
%ENDBLOCK SPECIES_POT

SNAP_TO_SYMMETRY
SYMMETRY_GENERATE

