#              Generated by Buildcell
#
# at 14:24:37 (GMT+1.0) 18th August 2020
# in /scratch/scratch/uccabz1/launch_tmp
# on node-k10a-026
# by uccabz1
#
# compiler GCC version 4.9.2
# options -cpp -iprefix /scratch/UCL/applications/gcc/4.9.2/bin/../lib/gcc/x86_64-unknown-linux-gnu/4.9.2/ -mtune=corei7 -march=x86-64 -g -O2
#
# seed  1647054072  1508350171  -400514914   939188796 -1252512180  1944673833  -988147866   479900445  1971065888   468654548  -206702353 -1049715607
#
#      Author: C. J. Pickard (cjp20@cam.ac.uk)
#                Space group: C2
#

%BLOCK LATTICE_ABC
      7.36885      7.61275      8.16604
     93.29665     90.00000    118.94568
%ENDBLOCK LATTICE_ABC

%BLOCK POSITIONS_FRAC
  Li   0.2222745  -0.1030150  -0.2105728 SPIN=   0.00000
  Li   0.3252896   0.1030150   0.2105728 SPIN=   0.00000
  Li  -0.1156710  -0.4793483   0.0613984 SPIN=   0.00000
  Li   0.3636773   0.4793483  -0.0613984 SPIN=   0.00000
  Fe   0.0167626   0.2291760   0.1409953 SPIN=   3.89702
  Fe  -0.2124134  -0.2291760  -0.1409953 SPIN=   3.89702
  Fe  -0.3035423  -0.6444956   0.4183544 SPIN=   4.10298
  Fe   0.3409533   0.6444956  -0.4183544 SPIN=   4.10298
   O  -0.2307771  -0.5922217  -0.1726946 SPIN=   0.00000
   O  -0.4990049  -0.9128330  -0.3092693 SPIN=   0.00000
   O  -0.5436256  -0.6105275  -0.3022317 SPIN=   0.00000
   O  -0.5725957  -0.7823831  -0.0475533 SPIN=   0.00000
   S  -0.4615008  -0.7244913  -0.2079372 SPIN=   0.00000
   O   0.3614445   0.5922217   0.1726946 SPIN=   0.00000
   O   0.4138281   0.9128330   0.3092693 SPIN=   0.00000
   O   0.0669018   0.6105275   0.3022317 SPIN=   0.00000
   O   0.2097874   0.7823831   0.0475533 SPIN=   0.00000
   S   0.2629905   0.7244913   0.2079372 SPIN=   0.00000
   O   0.1605601   0.4076772  -0.2576923 SPIN=   0.00000
   O  -0.0681030   0.1902533  -0.4902777 SPIN=   0.00000
   O  -0.1895091   0.1300320  -0.2059982 SPIN=   0.00000
   O   0.0861677   0.0541695  -0.2992416 SPIN=   0.00000
   S  -0.0027211   0.1955330  -0.3133025 SPIN=   0.00000
   O  -0.2471171  -0.4076772   0.2576923 SPIN=   0.00000
   O  -0.2583563  -0.1902533   0.4902777 SPIN=   0.00000
   O  -0.3195411  -0.1300320   0.2059982 SPIN=   0.00000
   O   0.0319982  -0.0541695   0.2992416 SPIN=   0.00000
   S  -0.1982541  -0.1955330   0.3133025 SPIN=   0.00000
   F   0.3665373   0.3367413   0.3779717 SPIN=   0.00000
   F   0.0297960  -0.3367413  -0.3779717 SPIN=   0.00000
   F  -0.4656087  -0.2518686  -0.1735704 SPIN=   0.00000
   F  -0.2137401   0.2518686   0.1735704 SPIN=   0.00000
%ENDBLOCK POSITIONS_FRAC

# Note: total spin =  16.00

KPOINTS_MP_SPACING 0.07

%BLOCK SPECIES_POT
QC5
%ENDBLOCK SPECIES_POT

SNAP_TO_SYMMETRY
SYMMETRY_GENERATE

