#              Generated by Buildcell
#
# at 08:16:57 (GMT+1.0) 4th August 2020
# in /lustre/scratch/uccabz1/launch_tmp
# on node-c12l-010
# by uccabz1
#
# compiler GCC version 4.9.2
# options -cpp -iprefix /lustre/shared/ucl/apps/gcc/4.9.2/bin/../lib/gcc/x86_64-unknown-linux-gnu/4.9.2/ -mtune=corei7 -march=x86-64 -g -Og
#
# seed   936574949  1077800613  1718772044  -987669216  1407249425   -18985354 -1577014429  -518314506 -2111918767  -951034163  1447120008  -424315429
#
#      Author: C. J. Pickard (cjp20@cam.ac.uk)
#                Space group: P21/c
#

%BLOCK LATTICE_ABC
      4.14363      6.74270     14.35430
     90.00000     90.00000     94.14362
%ENDBLOCK LATTICE_ABC

%BLOCK POSITIONS_FRAC
  Li   0.3800552  -0.4138875   0.2127374 SPIN=   0.00000
  Li   0.1199448  -0.0861125  -0.2872626 SPIN=   0.00000
  Li  -0.3800552   0.4138875  -0.2127374 SPIN=   0.00000
  Li  -0.1199448   0.0861125   0.2872626 SPIN=   0.00000
  Fe   0.3636869  -0.1746274   0.3966254 SPIN=   4.00000
  Fe   0.1363131  -0.3253726  -0.1033746 SPIN=   4.00000
  Fe  -0.3636869   0.1746274  -0.3966254 SPIN=   4.00000
  Fe  -0.1363131   0.3253726   0.1033746 SPIN=   4.00000
   O  -0.2578695  -0.0667147  -0.0068750 SPIN=   0.00000
   O  -0.0951242  -0.0459491   0.1589273 SPIN=   0.00000
   O  -0.1092307  -0.3685298   0.0762318 SPIN=   0.00000
   O  -0.6203273  -0.2183703   0.1147032 SPIN=   0.00000
   S  -0.2706379  -0.1748910   0.0857468 SPIN=   0.00000
   O  -0.2421305  -0.4332853  -0.5068750 SPIN=   0.00000
   O  -0.4048758  -0.4540509  -0.3410727 SPIN=   0.00000
   O  -0.3907693  -0.1314702  -0.4237682 SPIN=   0.00000
   O   0.1203273  -0.2816297  -0.3852968 SPIN=   0.00000
   S  -0.2293621  -0.3251090  -0.4142532 SPIN=   0.00000
   O   0.2578695   0.0667147   0.0068750 SPIN=   0.00000
   O   0.0951242   0.0459491  -0.1589273 SPIN=   0.00000
   O   0.1092307   0.3685298  -0.0762318 SPIN=   0.00000
   O   0.6203273   0.2183703  -0.1147032 SPIN=   0.00000
   S   0.2706379   0.1748910  -0.0857468 SPIN=   0.00000
   O   0.2421305   0.4332853   0.5068750 SPIN=   0.00000
   O   0.4048758   0.4540509   0.3410727 SPIN=   0.00000
   O   0.3907693   0.1314702   0.4237682 SPIN=   0.00000
   O  -0.1203273   0.2816297   0.3852968 SPIN=   0.00000
   S   0.2293621   0.3251090   0.4142532 SPIN=   0.00000
   F  -0.0650639  -0.1850546   0.3382574 SPIN=   0.00000
   F  -0.4349361  -0.3149454  -0.1617426 SPIN=   0.00000
   F   0.0650639   0.1850546  -0.3382574 SPIN=   0.00000
   F   0.4349361   0.3149454   0.1617426 SPIN=   0.00000
%ENDBLOCK POSITIONS_FRAC

# Note: total spin =  16.00

KPOINTS_MP_SPACING 0.07

%BLOCK SPECIES_POT
QC5
%ENDBLOCK SPECIES_POT

SNAP_TO_SYMMETRY
SYMMETRY_GENERATE

