#              Generated by Buildcell
#
# at 08:28:38 (GMT+1.0) 4th August 2020
# in /lustre/scratch/uccabz1/launch_tmp
# on node-c12d-029
# by uccabz1
#
# compiler GCC version 4.9.2
# options -cpp -iprefix /lustre/shared/ucl/apps/gcc/4.9.2/bin/../lib/gcc/x86_64-unknown-linux-gnu/4.9.2/ -mtune=corei7 -march=x86-64 -g -Og
#
# seed  -732189197  1101690624  1430382704  -417167980   926318524  -440097490 -1218693526 -2064675962  1587365292   282975036   605054123 -1935913668
#
#      Author: C. J. Pickard (cjp20@cam.ac.uk)
#                Space group: Iba2
#

%BLOCK LATTICE_ABC
      6.77530      8.32039      8.89554
    117.88328    112.38483     90.00000
%ENDBLOCK LATTICE_ABC

%BLOCK POSITIONS_FRAC
  Li   0.3267646  -0.2376960  -0.2831039 SPIN=   0.00000
  Li  -0.3267646   0.0454079   0.2831039 SPIN=   0.00000
  Li  -0.3901315  -0.4545921  -0.7168961 SPIN=   0.00000
  Li   0.3901315   0.2623040   0.7168961 SPIN=   0.00000
  Fe   0.0257389  -0.2146670  -0.6271554 SPIN=   4.00000
  Fe  -0.0257389   0.4124884   0.6271554 SPIN=   4.00000
  Fe  -0.3471057  -0.0875116  -0.3728446 SPIN=   4.00000
  Fe   0.3471057   0.2853330   0.3728446 SPIN=   4.00000
   O  -0.0167088   0.0446593  -0.1479114 SPIN=   0.00000
   O   0.3730994   0.1986906   0.0650727 SPIN=   0.00000
   O   0.1456173   0.3215948  -0.1323986 SPIN=   0.00000
   O   0.2509096   0.0212376  -0.2803228 SPIN=   0.00000
   S   0.1882294   0.1465456  -0.1238900 SPIN=   0.00000
   O   0.0167088   0.1925708   0.1479114 SPIN=   0.00000
   O  -0.3730994   0.1336179  -0.0650727 SPIN=   0.00000
   O  -0.1456173   0.4539934   0.1323986 SPIN=   0.00000
   O  -0.2509096   0.3015604   0.2803228 SPIN=   0.00000
   S  -0.1882294   0.2704356   0.1238900 SPIN=   0.00000
   O   0.1312026  -0.3074292   0.1479114 SPIN=   0.00000
   O   0.3080267  -0.3663821  -0.0650727 SPIN=   0.00000
   O   0.2780158  -0.0460066   0.1323986 SPIN=   0.00000
   O   0.5312324  -0.1984396   0.2803228 SPIN=   0.00000
   S   0.3121194  -0.2295644   0.1238900 SPIN=   0.00000
   O  -0.1312026  -0.4553407  -0.1479114 SPIN=   0.00000
   O  -0.3080267  -0.3013094   0.0650727 SPIN=   0.00000
   O  -0.2780158  -0.1784052  -0.1323986 SPIN=   0.00000
   O  -0.5312324  -0.4787624  -0.2803228 SPIN=   0.00000
   S  -0.3121194  -0.3534544  -0.1238900 SPIN=   0.00000
   F  -0.0178098   0.0105440   0.3760631 SPIN=   0.00000
   F   0.0178098  -0.3655192  -0.3760631 SPIN=   0.00000
   F  -0.3938730   0.1344808   0.6239369 SPIN=   0.00000
   F   0.3938730  -0.4894560  -0.6239369 SPIN=   0.00000
%ENDBLOCK POSITIONS_FRAC

# Note: total spin =  16.00

KPOINTS_MP_SPACING 0.07

%BLOCK SPECIES_POT
QC5
%ENDBLOCK SPECIES_POT

SNAP_TO_SYMMETRY
SYMMETRY_GENERATE

