#              Generated by Buildcell
#
# at 06:18:42 (GMT+1.0) 4th August 2020
# in /lustre/scratch/uccabz1/launch_tmp
# on node-c12n-031
# by uccabz1
#
# compiler GCC version 4.9.2
# options -cpp -iprefix /lustre/shared/ucl/apps/gcc/4.9.2/bin/../lib/gcc/x86_64-unknown-linux-gnu/4.9.2/ -mtune=corei7 -march=x86-64 -g -Og
#
# seed -2022832465  1681650372  1176116815  -838437397  1448555580 -2133328893  -113275050  2072720468  -808775782 -1873489458   809326992 -1939697723
#
#      Author: C. J. Pickard (cjp20@cam.ac.uk)
#                Space group: Pc
#

%BLOCK LATTICE_ABC
      4.15852      9.18226     10.52369
     95.48983     90.00000     90.00000
%ENDBLOCK LATTICE_ABC

%BLOCK POSITIONS_FRAC
  Li  -0.3073060   0.1040798  -0.0550682 SPIN=   0.00000
  Li   0.3073060  -0.3959202   0.4449318 SPIN=   0.00000
  Li   0.0466844   0.4265157  -0.2198772 SPIN=   0.00000
  Li  -0.0466844  -0.0734843   0.2801228 SPIN=   0.00000
  Fe  -0.4574794   0.4292591  -0.0083097 SPIN=   4.85292
  Fe   0.4574794  -0.0707409   0.4916903 SPIN=   4.85292
  Fe   0.0400440  -0.2402904   0.0178710 SPIN=   3.14708
  Fe  -0.0400440   0.2597096  -0.4821290 SPIN=   3.14708
   O  -0.6403631   0.4319921   0.2971573 SPIN=   0.00000
   O  -0.1880400   0.5200618   0.1721944 SPIN=   0.00000
   O  -0.1245118   0.2969732   0.2844650 SPIN=   0.00000
   O  -0.1591172   0.5396659   0.4081067 SPIN=   0.00000
   S  -0.2780080   0.4471733   0.2904808 SPIN=   0.00000
   O   0.6403631  -0.0680079  -0.2028427 SPIN=   0.00000
   O   0.1880400   0.0200618  -0.3278056 SPIN=   0.00000
   O   0.1245118  -0.2030268  -0.2155350 SPIN=   0.00000
   O   0.1591172   0.0396659  -0.0918933 SPIN=   0.00000
   S   0.2780080  -0.0528267  -0.2095192 SPIN=   0.00000
   O   0.0987181  -0.3987284  -0.3779433 SPIN=   0.00000
   O  -0.3401351  -0.3508082  -0.2206455 SPIN=   0.00000
   O  -0.4178485  -0.5313496  -0.4082695 SPIN=   0.00000
   O  -0.3907680  -0.2671086  -0.4364158 SPIN=   0.00000
   S  -0.2625084  -0.3869987  -0.3608185 SPIN=   0.00000
   O  -0.0987181   0.1012716   0.1220567 SPIN=   0.00000
   O   0.3401351   0.1491918   0.2793545 SPIN=   0.00000
   O   0.4178485  -0.0313496   0.0917305 SPIN=   0.00000
   O   0.3907680   0.2328914   0.0635842 SPIN=   0.00000
   S   0.2625084   0.1130013   0.1391815 SPIN=   0.00000
   F  -0.2249592   0.2606540  -0.2358601 SPIN=   0.00000
   F   0.2249592  -0.2393460   0.2641399 SPIN=   0.00000
   F   0.1676023  -0.4378251  -0.0537461 SPIN=   0.00000
   F  -0.1676023   0.0621749   0.4462539 SPIN=   0.00000
%ENDBLOCK POSITIONS_FRAC

# Note: total spin =  16.00

KPOINTS_MP_SPACING 0.07

%BLOCK SPECIES_POT
QC5
%ENDBLOCK SPECIES_POT

SNAP_TO_SYMMETRY
SYMMETRY_GENERATE

