#              Generated by Buildcell
#
# at 01:53:20 (GMT+1.0) 18th August 2020
# in /lustre/scratch/uccabz1/launch_tmp
# on node-c12e-033
# by uccabz1
#
# compiler GCC version 4.9.2
# options -cpp -iprefix /lustre/shared/ucl/apps/gcc/4.9.2/bin/../lib/gcc/x86_64-unknown-linux-gnu/4.9.2/ -mtune=corei7 -march=x86-64 -g -Og
#
# seed -1790659139 -1001981616 -2042943384   708159571  -712248964  1105407049 -1658513596   137696525  1649954389   449279031 -1613480065  1327596670
#
#      Author: C. J. Pickard (cjp20@cam.ac.uk)
#                Space group: P43
#

%BLOCK LATTICE_ABC
      6.32494      6.32494      9.99879
     90.00000     90.00000     90.00000
%ENDBLOCK LATTICE_ABC

%BLOCK POSITIONS_FRAC
  Li   0.0150461  -0.4529390   0.2913649 SPIN=   0.00000
  Li  -0.0150461   0.4529390  -0.2086351 SPIN=   0.00000
  Li  -0.4529390  -0.0150461   0.0413649 SPIN=   0.00000
  Li   0.4529390   0.0150461  -0.4586351 SPIN=   0.00000
  Fe  -0.2132190   0.3842568   0.0553646 SPIN=   4.00000
  Fe   0.2132190  -0.3842568  -0.4446354 SPIN=   4.00000
  Fe   0.3842568   0.2132190  -0.1946354 SPIN=   4.00000
  Fe  -0.3842568  -0.2132190   0.3053646 SPIN=   4.00000
   O   0.1111464  -0.1118337   0.2006280 SPIN=   0.00000
   O   0.4185827  -0.3418415   0.1529293 SPIN=   0.00000
   O   0.2638521  -0.1224967  -0.0271621 SPIN=   0.00000
   O   0.0668943  -0.4310649   0.0602605 SPIN=   0.00000
   S   0.2151189  -0.2518092   0.0966639 SPIN=   0.00000
   O  -0.1111464   0.1118337  -0.2993720 SPIN=   0.00000
   O  -0.4185827   0.3418415  -0.3470707 SPIN=   0.00000
   O  -0.2638521   0.1224967  -0.5271621 SPIN=   0.00000
   O  -0.0668943   0.4310649  -0.4397395 SPIN=   0.00000
   S  -0.2151189   0.2518092  -0.4033361 SPIN=   0.00000
   O  -0.1118337  -0.1111464  -0.0493720 SPIN=   0.00000
   O  -0.3418415  -0.4185827  -0.0970707 SPIN=   0.00000
   O  -0.1224967  -0.2638521  -0.2771621 SPIN=   0.00000
   O  -0.4310649  -0.0668943  -0.1897395 SPIN=   0.00000
   S  -0.2518092  -0.2151189  -0.1533361 SPIN=   0.00000
   O   0.1118337   0.1111464   0.4506280 SPIN=   0.00000
   O   0.3418415   0.4185827   0.4029293 SPIN=   0.00000
   O   0.1224967   0.2638521   0.2228379 SPIN=   0.00000
   O   0.4310649   0.0668943   0.3102605 SPIN=   0.00000
   S   0.2518092   0.2151189   0.3466639 SPIN=   0.00000
   F  -0.2511816   0.1443304   0.1588642 SPIN=   0.00000
   F   0.2511816  -0.1443304  -0.3411358 SPIN=   0.00000
   F   0.1443304   0.2511816  -0.0911358 SPIN=   0.00000
   F  -0.1443304  -0.2511816   0.4088642 SPIN=   0.00000
%ENDBLOCK POSITIONS_FRAC

# Note: total spin =  16.00

KPOINTS_MP_SPACING 0.07

%BLOCK SPECIES_POT
QC5
%ENDBLOCK SPECIES_POT

SNAP_TO_SYMMETRY
SYMMETRY_GENERATE

