#              Generated by Buildcell
#
# at 09:15:32 (GMT+1.0) 18th August 2020
# in /lustre/scratch/uccabz1/launch_tmp
# on node-c12a-021
# by uccabz1
#
# compiler GCC version 4.9.2
# options -cpp -iprefix /lustre/shared/ucl/apps/gcc/4.9.2/bin/../lib/gcc/x86_64-unknown-linux-gnu/4.9.2/ -mtune=corei7 -march=x86-64 -g -Og
#
# seed -2109640092  1717882044 -1149559617 -1164021040 -2078050989 -1907975423 -1979227862  -932682198   519423389 -1493674919   205235463   692207556
#
#      Author: C. J. Pickard (cjp20@cam.ac.uk)
#                Space group: Cm
#

%BLOCK LATTICE_ABC
      7.99313      7.99313      8.32346
     97.03593    111.51249    119.37922
%ENDBLOCK LATTICE_ABC

%BLOCK POSITIONS_FRAC
  Li   0.4815125  -0.2253572   0.2561553 SPIN=   0.00000
  Li  -0.2548065   0.0622602  -0.1925463 SPIN=   0.00000
  Li   0.1906267   0.1868457   0.3774724 SPIN=   0.00000
  Li   0.1219059  -0.3850638  -0.2631579 SPIN=   0.00000
  Fe  -0.2307137   0.3443784   0.1136647 SPIN=   0.32554
  Fe   0.1772860  -0.0956891   0.0815970 SPIN=   5.90188
  Fe   0.3739746   0.4152079  -0.2108175 SPIN=   0.40466
  Fe  -0.1859036  -0.2188048  -0.4047084 SPIN=   9.36792
   O   0.1691701  -0.0848591   0.3629610 SPIN=   0.00000
   O   0.4398885  -0.1083234   0.6076428 SPIN=   0.00000
   O   0.0873970  -0.4275626   0.3576273 SPIN=   0.00000
   O   0.0889691  -0.2128349   0.5999063 SPIN=   0.00000
   S   0.1963562  -0.2083950   0.4820344 SPIN=   0.00000
   O  -0.5521800   0.1937909   0.3629610 SPIN=   0.00000
   O  -0.2840338   0.1677543   0.6076428 SPIN=   0.00000
   O  -0.2148101   0.2702303   0.3576273 SPIN=   0.00000
   O  -0.1872587   0.5109372   0.5999063 SPIN=   0.00000
   S  -0.3095706   0.2856782   0.4820344 SPIN=   0.00000
   O   0.2471400   0.4854160   0.0084437 SPIN=   0.00000
   O   0.1610785   0.3638521   0.2456300 SPIN=   0.00000
   O   0.5031957   0.4436274   0.2483641 SPIN=   0.00000
   O   0.1400457   0.1349917  -0.0013783 SPIN=   0.00000
   S   0.2628650   0.3569718   0.1252649 SPIN=   0.00000
   O  -0.4769723  -0.2386963   0.0084437 SPIN=   0.00000
   O  -0.1182222   0.0845515   0.2456300 SPIN=   0.00000
   O  -0.1952633  -0.2548316   0.2483641 SPIN=   0.00000
   O  -0.1363700  -0.1414240  -0.0013783 SPIN=   0.00000
   S  -0.2317070  -0.1376001   0.1252649 SPIN=   0.00000
   F  -0.0952502  -0.4751801  -0.0238767 SPIN=   0.00000
   F   0.4513034   0.0713735  -0.0238767 SPIN=   0.00000
   F   0.0535249   0.1239681  -0.3692027 SPIN=   0.00000
   F  -0.4931708  -0.4227276  -0.3692027 SPIN=   0.00000
%ENDBLOCK POSITIONS_FRAC

# Note: total spin =  16.00

KPOINTS_MP_SPACING 0.07

%BLOCK SPECIES_POT
QC5
%ENDBLOCK SPECIES_POT

SNAP_TO_SYMMETRY
SYMMETRY_GENERATE

