#              Generated by Buildcell
#
# at 07:03:47 (GMT+1.0) 4th August 2020
# in /lustre/scratch/uccabz1/launch_tmp
# on node-c12e-015
# by uccabz1
#
# compiler GCC version 4.9.2
# options -cpp -iprefix /lustre/shared/ucl/apps/gcc/4.9.2/bin/../lib/gcc/x86_64-unknown-linux-gnu/4.9.2/ -mtune=corei7 -march=x86-64 -g -Og
#
# seed   756610928 -1672731815  -184295747 -1962663382  1491289569   162700806  -186214717  -900105578  2090433802   563546137 -1369771367 -1559045564
#
#      Author: C. J. Pickard (cjp20@cam.ac.uk)
#                Space group: Pm
#

%BLOCK LATTICE_ABC
      5.57814      6.69754     11.00618
     90.00000     90.00000    103.39682
%ENDBLOCK LATTICE_ABC

%BLOCK POSITIONS_FRAC
  Li  -0.2873435   0.0198492  -0.0000000 SPIN=   0.00000
  Li   0.1615821  -0.0919362   0.5000000 SPIN=   0.00000
  Li   0.0752283  -0.4512224  -0.0000000 SPIN=   0.00000
  Li  -0.4682202   0.4348119  -0.5000000 SPIN=   0.00000
  Fe   0.0495020   0.2020674   0.2361235 SPIN=   3.58380
  Fe   0.0495020   0.2020674  -0.2361235 SPIN=   3.58380
  Fe   0.3407101  -0.2417154   0.2586212 SPIN=   4.41620
  Fe   0.3407101  -0.2417154  -0.2586212 SPIN=   4.41620
   O   0.3153940  -0.4497580  -0.3967382 SPIN=   0.00000
   O  -0.0768999  -0.3369810  -0.3962073 SPIN=   0.00000
   O   0.0550088  -0.4949343  -0.2121500 SPIN=   0.00000
   O  -0.0821957  -0.7074841  -0.3942652 SPIN=   0.00000
   O   0.3153940  -0.4497580   0.3967382 SPIN=   0.00000
   O  -0.0768999  -0.3369810   0.3962073 SPIN=   0.00000
   O   0.0550088  -0.4949343   0.2121500 SPIN=   0.00000
   O  -0.0821957  -0.7074841   0.3942652 SPIN=   0.00000
   O  -0.4565993  -0.2026908   0.1032938 SPIN=   0.00000
   O  -0.0201176  -0.1888702   0.1524602 SPIN=   0.00000
   O  -0.3490671  -0.4735739   0.2308004 SPIN=   0.00000
   O  -0.3030057  -0.1226325   0.3127866 SPIN=   0.00000
   O  -0.4565993  -0.2026908  -0.1032938 SPIN=   0.00000
   O  -0.0201176  -0.1888702  -0.1524602 SPIN=   0.00000
   O  -0.3490671  -0.4735739  -0.2308004 SPIN=   0.00000
   O  -0.3030057  -0.1226325  -0.3127866 SPIN=   0.00000
   S   0.0424840   0.4736554   0.5000000 SPIN=   0.00000
   S   0.2015880  -0.0195759   0.0000000 SPIN=   0.00000
   S  -0.3400471  -0.0994975  -0.5000000 SPIN=   0.00000
   S  -0.4210998  -0.4378233  -0.0000000 SPIN=   0.00000
   F   0.1908427   0.0178481  -0.3383552 SPIN=   0.00000
   F   0.1908427   0.0178481   0.3383552 SPIN=   0.00000
   F  -0.2735307   0.1766014   0.1603402 SPIN=   0.00000
   F  -0.2735307   0.1766014  -0.1603402 SPIN=   0.00000
%ENDBLOCK POSITIONS_FRAC

# Note: total spin =  16.00

KPOINTS_MP_SPACING 0.07

%BLOCK SPECIES_POT
QC5
%ENDBLOCK SPECIES_POT

SNAP_TO_SYMMETRY
SYMMETRY_GENERATE

