#              Generated by Buildcell
#
# at 09:41:52 (GMT+1.0) 18th August 2020
# in /lustre/scratch/uccabz1/launch_tmp
# on node-c12k-008
# by uccabz1
#
# compiler GCC version 4.9.2
# options -cpp -iprefix /lustre/shared/ucl/apps/gcc/4.9.2/bin/../lib/gcc/x86_64-unknown-linux-gnu/4.9.2/ -mtune=corei7 -march=x86-64 -g -Og
#
# seed  1548534441 -1357170541  1248734420    12451241 -1832118450   875817502 -1856109887 -1617175124  1909111095  -762988638  1032044832  -258255690
#
#      Author: C. J. Pickard (cjp20@cam.ac.uk)
#                Space group: P-1
#

%BLOCK LATTICE_ABC
      5.90027      8.28047      8.62867
    101.50355     94.86838    102.31933
%ENDBLOCK LATTICE_ABC

%BLOCK POSITIONS_FRAC
  Li   0.5000000   0.0000000  -0.0000000 SPIN=   0.00000
  Li  -0.0000000   0.5000000  -0.0000000 SPIN=   0.00000
  Li  -0.0000000   0.0000000  -0.5000000 SPIN=   0.00000
  Li   0.5000000   0.5000000  -0.5000000 SPIN=   0.00000
  Fe  -0.1836450   0.3006167  -0.3391860 SPIN=   3.12806
  Fe   0.1836450  -0.3006167   0.3391860 SPIN=   3.12806
  Fe   0.1082020  -0.2524577  -0.2404071 SPIN=   4.87194
  Fe  -0.1082020   0.2524577   0.2404071 SPIN=   4.87194
   O   0.5047549   0.2133455   0.2410247 SPIN=   0.00000
   O   0.5246739   0.1378873   0.5044920 SPIN=   0.00000
   O   0.2705622  -0.0617193   0.2715804 SPIN=   0.00000
   O   0.1652791   0.2051672   0.3916542 SPIN=   0.00000
   S   0.3663175   0.1236702   0.3521878 SPIN=   0.00000
   O  -0.5047549  -0.2133455  -0.2410247 SPIN=   0.00000
   O  -0.5246739  -0.1378873  -0.5044920 SPIN=   0.00000
   O  -0.2705622   0.0617193  -0.2715804 SPIN=   0.00000
   O  -0.1652791  -0.2051672  -0.3916542 SPIN=   0.00000
   S  -0.3663175  -0.1236702  -0.3521878 SPIN=   0.00000
   O   0.1649174   0.3046339  -0.2375784 SPIN=   0.00000
   O   0.0783800   0.0063061  -0.2108689 SPIN=   0.00000
   O   0.3165237   0.2330202   0.0100601 SPIN=   0.00000
   S   0.2600720   0.1734370  -0.1696869 SPIN=   0.00000
   O  -0.1649174  -0.3046339   0.2375784 SPIN=   0.00000
   O  -0.0783800  -0.0063061   0.2108689 SPIN=   0.00000
   O  -0.3165237  -0.2330202  -0.0100601 SPIN=   0.00000
   S  -0.2600720  -0.1734370   0.1696869 SPIN=   0.00000
   O  -0.5000000  -0.5000000   0.0000000 SPIN=   0.00000
   O   0.0000000  -0.5000000   0.5000000 SPIN=   0.00000
   F   0.3656002  -0.4743975   0.3083229 SPIN=   0.00000
   F  -0.3656002   0.4743975  -0.3083229 SPIN=   0.00000
   F  -0.1765876   0.2950768   0.0280324 SPIN=   0.00000
   F   0.1765876  -0.2950768  -0.0280324 SPIN=   0.00000
%ENDBLOCK POSITIONS_FRAC

# Note: total spin =  16.00

KPOINTS_MP_SPACING 0.07

%BLOCK SPECIES_POT
QC5
%ENDBLOCK SPECIES_POT

SNAP_TO_SYMMETRY
SYMMETRY_GENERATE

