#              Generated by Buildcell
#
# at 12:22:32 (GMT+1.0) 18th August 2020
# in /lustre/scratch/uccabz1/launch_tmp
# on node-c12a-021
# by uccabz1
#
# compiler GCC version 4.9.2
# options -cpp -iprefix /lustre/shared/ucl/apps/gcc/4.9.2/bin/../lib/gcc/x86_64-unknown-linux-gnu/4.9.2/ -mtune=corei7 -march=x86-64 -g -Og
#
# seed -1263476533  -734280905 -1920386419 -1405686037  1524798724  1570452989  2123779813  1971524190  2146735973 -1422112078  2023019070    54187861
#
#      Author: C. J. Pickard (cjp20@cam.ac.uk)
#                Space group: P21/c
#

%BLOCK LATTICE_ABC
      4.13116      8.02173     12.28593
     90.00000     90.00000    100.74877
%ENDBLOCK LATTICE_ABC

%BLOCK POSITIONS_FRAC
  Li  -0.3724462   0.1609266   0.1325140 SPIN=   0.00000
  Li  -0.1275538  -0.1609266  -0.3674860 SPIN=   0.00000
  Li   0.3724462  -0.1609266  -0.1325140 SPIN=   0.00000
  Li   0.1275538   0.1609266   0.3674860 SPIN=   0.00000
  Fe   0.2437226   0.1911302  -0.3941702 SPIN=   4.00000
  Fe   0.2562774  -0.1911302   0.1058298 SPIN=   4.00000
  Fe  -0.2437226  -0.1911302   0.3941702 SPIN=   4.00000
  Fe  -0.2562774   0.1911302  -0.1058298 SPIN=   4.00000
   O   0.0129083   0.3570913   0.0138154 SPIN=   0.00000
   O   0.5713768   0.4636678   0.0869350 SPIN=   0.00000
   O   0.1879151   0.2414210   0.1863076 SPIN=   0.00000
   O   0.0833251   0.5351572   0.1797283 SPIN=   0.00000
   S   0.2138814   0.3993343   0.1166966 SPIN=   0.00000
   O   0.4870917  -0.3570913  -0.4861846 SPIN=   0.00000
   O  -0.0713768  -0.4636678  -0.4130650 SPIN=   0.00000
   O   0.3120849  -0.2414210  -0.3136924 SPIN=   0.00000
   O   0.4166749  -0.5351572  -0.3202717 SPIN=   0.00000
   S   0.2861186  -0.3993343  -0.3833034 SPIN=   0.00000
   O  -0.0129083  -0.3570913  -0.0138154 SPIN=   0.00000
   O  -0.5713768  -0.4636678  -0.0869350 SPIN=   0.00000
   O  -0.1879151  -0.2414210  -0.1863076 SPIN=   0.00000
   O  -0.0833251  -0.5351572  -0.1797283 SPIN=   0.00000
   S  -0.2138814  -0.3993343  -0.1166966 SPIN=   0.00000
   O  -0.4870917   0.3570913   0.4861846 SPIN=   0.00000
   O   0.0713768   0.4636678   0.4130650 SPIN=   0.00000
   O  -0.3120849   0.2414210   0.3136924 SPIN=   0.00000
   O  -0.4166749   0.5351572   0.3202717 SPIN=   0.00000
   S  -0.2861186   0.3993343   0.3833034 SPIN=   0.00000
   F   0.2793560  -0.1252487   0.3807253 SPIN=   0.00000
   F   0.2206440   0.1252487  -0.1192747 SPIN=   0.00000
   F  -0.2793560   0.1252487  -0.3807253 SPIN=   0.00000
   F  -0.2206440  -0.1252487   0.1192747 SPIN=   0.00000
%ENDBLOCK POSITIONS_FRAC

# Note: total spin =  16.00

KPOINTS_MP_SPACING 0.07

%BLOCK SPECIES_POT
QC5
%ENDBLOCK SPECIES_POT

SNAP_TO_SYMMETRY
SYMMETRY_GENERATE

