#              Generated by Buildcell
#
# at 08:25:10 (GMT+1.0) 4th August 2020
# in /lustre/scratch/uccabz1/launch_tmp
# on node-c12o-002
# by uccabz1
#
# compiler GCC version 4.9.2
# options -cpp -iprefix /lustre/shared/ucl/apps/gcc/4.9.2/bin/../lib/gcc/x86_64-unknown-linux-gnu/4.9.2/ -mtune=corei7 -march=x86-64 -g -Og
#
# seed -1242433310 -1131801059   -87870448 -1705924147  -651988605  -200135403  -497318608 -1961742008 -1678959828 -1248405203 -1862914463  1088441190
#
#      Author: C. J. Pickard (cjp20@cam.ac.uk)
#                Space group: Pm
#

%BLOCK LATTICE_ABC
      6.63958      6.66427      9.14346
     90.00000     90.00000     98.62877
%ENDBLOCK LATTICE_ABC

%BLOCK POSITIONS_FRAC
  Li   0.4280561  -0.2299312  -0.5000000 SPIN=   0.00000
  Li  -0.0192700   0.1193195   0.5000000 SPIN=   0.00000
  Li   0.4520378   0.3323521   0.0000000 SPIN=   0.00000
  Li  -0.0511435  -0.2582064  -0.0000000 SPIN=   0.00000
  Fe  -0.3068143   0.4045656   0.2829214 SPIN=   3.58376
  Fe  -0.3068143   0.4045656  -0.2829214 SPIN=   3.58376
  Fe   0.2397613   0.0143788  -0.2099089 SPIN=   4.41624
  Fe   0.2397613   0.0143788   0.2099089 SPIN=   4.41624
   O   0.0982373  -0.6398281   0.3756655 SPIN=   0.00000
   O   0.0798565  -0.3238042   0.2374348 SPIN=   0.00000
   O   0.2374061  -0.5999489   0.1244945 SPIN=   0.00000
   O   0.4123046  -0.3984221   0.3273635 SPIN=   0.00000
   S   0.2069511  -0.4905008   0.2662395 SPIN=   0.00000
   O   0.0982373  -0.6398281  -0.3756655 SPIN=   0.00000
   O   0.0798565  -0.3238042  -0.2374348 SPIN=   0.00000
   O   0.2374061  -0.5999489  -0.1244945 SPIN=   0.00000
   O   0.4123046  -0.3984221  -0.3273635 SPIN=   0.00000
   S   0.2069511  -0.4905008  -0.2662395 SPIN=   0.00000
   O  -0.1613812  -0.1626736  -0.3479083 SPIN=   0.00000
   O  -0.4707696  -0.0252644  -0.2704033 SPIN=   0.00000
   O  -0.1426191   0.0849157  -0.1448062 SPIN=   0.00000
   S  -0.2744601  -0.0919096  -0.2182930 SPIN=   0.00000
   O  -0.1613812  -0.1626736   0.3479083 SPIN=   0.00000
   O  -0.4707696  -0.0252644   0.2704033 SPIN=   0.00000
   O  -0.1426191   0.0849157   0.1448062 SPIN=   0.00000
   S  -0.2744601  -0.0919096   0.2182930 SPIN=   0.00000
   O  -0.3387664   0.0236153   0.5000000 SPIN=   0.00000
   O  -0.3548652  -0.1343760   0.0000000 SPIN=   0.00000
   F   0.2200300  -0.0570393  -0.0000000 SPIN=   0.00000
   F  -0.2729662   0.4594307   0.5000000 SPIN=   0.00000
   F  -0.2676458   0.4285832   0.0000000 SPIN=   0.00000
   F   0.2153206  -0.0091369   0.5000000 SPIN=   0.00000
%ENDBLOCK POSITIONS_FRAC

# Note: total spin =  16.00

KPOINTS_MP_SPACING 0.07

%BLOCK SPECIES_POT
QC5
%ENDBLOCK SPECIES_POT

SNAP_TO_SYMMETRY
SYMMETRY_GENERATE

