#              Generated by Buildcell
#
# at 06:30:02 (GMT+1.0) 4th August 2020
# in /lustre/scratch/uccabz1/launch_tmp
# on node-c12k-034
# by uccabz1
#
# compiler GCC version 4.9.2
# options -cpp -iprefix /lustre/shared/ucl/apps/gcc/4.9.2/bin/../lib/gcc/x86_64-unknown-linux-gnu/4.9.2/ -mtune=corei7 -march=x86-64 -g -Og
#
# seed  -630879147   596207752  1393755557  -290799044   760747806 -1847233365   845303933   377642840   381277873   457742279  1114040225  1873702544
#
#      Author: C. J. Pickard (cjp20@cam.ac.uk)
#                Space group: Cc
#

%BLOCK LATTICE_ABC
      7.43032      7.43032      7.79659
     80.97213     80.97213     71.27800
%ENDBLOCK LATTICE_ABC

%BLOCK POSITIONS_FRAC
  Li  -0.1252008  -0.0134042  -0.3106257 SPIN=   0.00000
  Li  -0.0134042  -0.1252008   0.1893743 SPIN=   0.00000
  Li  -0.4708585   0.4407698   0.0562142 SPIN=   0.00000
  Li   0.4407698  -0.4708585  -0.4437858 SPIN=   0.00000
  Fe   0.4789637   0.0951620  -0.0889054 SPIN=   3.70109
  Fe   0.0951620   0.4789637   0.4110946 SPIN=   3.70109
  Fe   0.1354427  -0.4166375  -0.0877973 SPIN=   4.29891
  Fe  -0.4166375   0.1354427   0.4122027 SPIN=   4.29891
   O   0.1220071   0.0958817  -0.4128389 SPIN=   0.00000
   O   0.4467049  -0.0917440  -0.5280662 SPIN=   0.00000
   O   0.1656422  -0.0831258  -0.6662608 SPIN=   0.00000
   O   0.2178275  -0.2578870  -0.3718820 SPIN=   0.00000
   S   0.2380454  -0.0842188  -0.4947620 SPIN=   0.00000
   O   0.0958817   0.1220071   0.0871611 SPIN=   0.00000
   O  -0.0917440   0.4467049  -0.0280662 SPIN=   0.00000
   O  -0.0831258   0.1656422  -0.1662608 SPIN=   0.00000
   O  -0.2578870   0.2178275   0.1281180 SPIN=   0.00000
   S  -0.0842188   0.2380454   0.0052380 SPIN=   0.00000
   O  -0.4375030  -0.1280829  -0.2661234 SPIN=   0.00000
   O  -0.0948989  -0.3073984  -0.2535882 SPIN=   0.00000
   O  -0.2561096  -0.3220052  -0.5034880 SPIN=   0.00000
   O  -0.3349298  -0.4814941  -0.2110296 SPIN=   0.00000
   S  -0.2808603  -0.3097452  -0.3085573 SPIN=   0.00000
   O  -0.1280829  -0.4375030   0.2338766 SPIN=   0.00000
   O  -0.3073984  -0.0948989   0.2464118 SPIN=   0.00000
   O  -0.3220052  -0.2561096  -0.0034880 SPIN=   0.00000
   O  -0.4814941  -0.3349298   0.2889704 SPIN=   0.00000
   S  -0.3097452  -0.2808603   0.1914427 SPIN=   0.00000
   F   0.2281471  -0.2428694   0.0018803 SPIN=   0.00000
   F  -0.2428694   0.2281471  -0.4981197 SPIN=   0.00000
   F   0.3494001   0.3339946  -0.1929258 SPIN=   0.00000
   F   0.3339946   0.3494001   0.3070742 SPIN=   0.00000
%ENDBLOCK POSITIONS_FRAC

# Note: total spin =  16.00

KPOINTS_MP_SPACING 0.07

%BLOCK SPECIES_POT
QC5
%ENDBLOCK SPECIES_POT

SNAP_TO_SYMMETRY
SYMMETRY_GENERATE

