#              Generated by Buildcell
#
# at 12:07:55 (GMT+1.0) 18th August 2020
# in /lustre/scratch/uccabz1/launch_tmp
# on node-c12l-029
# by uccabz1
#
# compiler GCC version 4.9.2
# options -cpp -iprefix /lustre/shared/ucl/apps/gcc/4.9.2/bin/../lib/gcc/x86_64-unknown-linux-gnu/4.9.2/ -mtune=corei7 -march=x86-64 -g -Og
#
# seed   922853758   767973450 -1855621640 -1899322177  1941962128  -721601823  -715618320   547032456  2020715233  -214033764   531932033  -658094657
#
#      Author: C. J. Pickard (cjp20@cam.ac.uk)
#                Space group: P2
#

%BLOCK LATTICE_ABC
      6.46515      7.98855      8.29678
    111.01663     90.00000     90.00000
%ENDBLOCK LATTICE_ABC

%BLOCK POSITIONS_FRAC
  Li  -0.4527849   0.1793892   0.2673338 SPIN=   0.00000
  Li  -0.4527849  -0.1793892  -0.2673338 SPIN=   0.00000
  Li  -0.0556588   0.3727241  -0.2774698 SPIN=   0.00000
  Li  -0.0556588  -0.3727241   0.2774698 SPIN=   0.00000
  Fe   0.2577258   0.1672817  -0.1218283 SPIN=   5.12310
  Fe   0.2577258  -0.1672817   0.1218283 SPIN=   5.12310
  Fe   0.0072307   0.2733394   0.3311925 SPIN=   2.87690
  Fe   0.0072307  -0.2733394  -0.3311925 SPIN=   2.87690
   O   0.5501727  -0.5409031   0.3494446 SPIN=   0.00000
   O   0.1727961  -0.4854217   0.3644000 SPIN=   0.00000
   O   0.3503454  -0.5933613   0.0813114 SPIN=   0.00000
   O   0.4091452  -0.2836525   0.2851717 SPIN=   0.00000
   S   0.3706148  -0.4758347   0.2700819 SPIN=   0.00000
   O   0.5501727   0.5409031  -0.3494446 SPIN=   0.00000
   O   0.1727961   0.4854217  -0.3644000 SPIN=   0.00000
   O   0.3503454   0.5933613  -0.0813114 SPIN=   0.00000
   O   0.4091452   0.2836525  -0.2851717 SPIN=   0.00000
   S   0.3706148   0.4758347  -0.2700819 SPIN=   0.00000
   O  -0.0935350  -0.2581615  -0.0814648 SPIN=   0.00000
   O  -0.2878334  -0.3654630   0.1197142 SPIN=   0.00000
   O  -0.4470205  -0.1451479   0.0103727 SPIN=   0.00000
   S  -0.2464265  -0.2055973   0.0668440 SPIN=   0.00000
   O  -0.0935350   0.2581615   0.0814648 SPIN=   0.00000
   O  -0.2878334   0.3654630  -0.1197142 SPIN=   0.00000
   O  -0.4470205   0.1451479  -0.0103727 SPIN=   0.00000
   S  -0.2464265   0.2055973  -0.0668440 SPIN=   0.00000
   O   0.0275812  -0.5000000   0.0000000 SPIN=   0.00000
   O   0.1143861  -0.0000000   0.0000000 SPIN=   0.00000
   F  -0.1913967  -0.2345977   0.4764745 SPIN=   0.00000
   F  -0.1913967   0.2345977  -0.4764745 SPIN=   0.00000
   F   0.3087613   0.0876909   0.3262032 SPIN=   0.00000
   F   0.3087613  -0.0876909  -0.3262032 SPIN=   0.00000
%ENDBLOCK POSITIONS_FRAC

# Note: total spin =  16.00

KPOINTS_MP_SPACING 0.07

%BLOCK SPECIES_POT
QC5
%ENDBLOCK SPECIES_POT

SNAP_TO_SYMMETRY
SYMMETRY_GENERATE

