#              Generated by Buildcell
#
# at 03:18:28 (GMT+1.0) 18th August 2020
# in /lustre/scratch/uccabz1/launch_tmp
# on node-c12f-002
# by uccabz1
#
# compiler GCC version 4.9.2
# options -cpp -iprefix /lustre/shared/ucl/apps/gcc/4.9.2/bin/../lib/gcc/x86_64-unknown-linux-gnu/4.9.2/ -mtune=corei7 -march=x86-64 -g -Og
#
# seed  -515768488 -1080921261  -940015005   433274298  1164456882 -1791463776  -225399304  -573915716   930306631  1420836838     1169884   676433482
#
#      Author: C. J. Pickard (cjp20@cam.ac.uk)
#                Space group: P-1
#

%BLOCK LATTICE_ABC
      6.17307      7.95498      8.31805
     81.09421     87.15573     82.59751
%ENDBLOCK LATTICE_ABC

%BLOCK POSITIONS_FRAC
  Li   0.3794991  -0.0439125   0.2283575 SPIN=   0.00000
  Li  -0.3794991   0.0439125  -0.2283575 SPIN=   0.00000
  Li  -0.1251721   0.2448403   0.0839514 SPIN=   0.00000
  Li   0.1251721  -0.2448403  -0.0839514 SPIN=   0.00000
  Fe   0.1072453   0.1852930  -0.4260886 SPIN=   1.69675
  Fe  -0.1072453  -0.1852930   0.4260886 SPIN=   1.69675
  Fe  -0.4573235  -0.4152086   0.1947064 SPIN=   6.30325
  Fe   0.4573235   0.4152086  -0.1947064 SPIN=   6.30325
   O  -0.2602525  -0.5235861  -0.3289816 SPIN=   0.00000
   O  -0.0873690  -0.2896435  -0.2423447 SPIN=   0.00000
   O   0.1378594  -0.5147174  -0.3727206 SPIN=   0.00000
   O  -0.0170728  -0.5849475  -0.0938202 SPIN=   0.00000
   S  -0.0567087  -0.4782236  -0.2594668 SPIN=   0.00000
   O   0.2602525   0.5235861   0.3289816 SPIN=   0.00000
   O   0.0873690   0.2896435   0.2423447 SPIN=   0.00000
   O  -0.1378594   0.5147174   0.3727206 SPIN=   0.00000
   O   0.0170728   0.5849475   0.0938202 SPIN=   0.00000
   S   0.0567087   0.4782236   0.2594668 SPIN=   0.00000
   O   0.3048959  -0.0265569  -0.2698586 SPIN=   0.00000
   O   0.5819614  -0.1355856  -0.4662390 SPIN=   0.00000
   O   0.2220580  -0.2445453  -0.4325979 SPIN=   0.00000
   O   0.4893342  -0.3238268  -0.2131931 SPIN=   0.00000
   S   0.3995624  -0.1826287  -0.3454721 SPIN=   0.00000
   O  -0.3048959   0.0265569   0.2698586 SPIN=   0.00000
   O  -0.5819614   0.1355856   0.4662390 SPIN=   0.00000
   O  -0.2220580   0.2445453   0.4325979 SPIN=   0.00000
   O  -0.4893342   0.3238268   0.2131931 SPIN=   0.00000
   S  -0.3995624   0.1826287   0.3454721 SPIN=   0.00000
   F   0.3650834   0.2477239  -0.0432029 SPIN=   0.00000
   F  -0.3650834  -0.2477239   0.0432029 SPIN=   0.00000
   F  -0.0971475   0.0871831  -0.2919909 SPIN=   0.00000
   F   0.0971475  -0.0871831   0.2919909 SPIN=   0.00000
%ENDBLOCK POSITIONS_FRAC

# Note: total spin =  16.00

KPOINTS_MP_SPACING 0.07

%BLOCK SPECIES_POT
QC5
%ENDBLOCK SPECIES_POT

SNAP_TO_SYMMETRY
SYMMETRY_GENERATE

