#              Generated by Buildcell
#
# at 16:47:49 (GMT+1.0) 18th August 2020
# in /lustre/scratch/uccabz1/launch_tmp
# on node-c12p-013
# by uccabz1
#
# compiler GCC version 4.9.2
# options -cpp -iprefix /lustre/shared/ucl/apps/gcc/4.9.2/bin/../lib/gcc/x86_64-unknown-linux-gnu/4.9.2/ -mtune=corei7 -march=x86-64 -g -Og
#
# seed   572608682  1241873007   370516411  1716222687   534954145   843721896  -194908715 -2006561508  -524195602   295437229 -1369162147  1945187304
#
#      Author: C. J. Pickard (cjp20@cam.ac.uk)
#                Space group: P-1
#

%BLOCK LATTICE_ABC
      5.52915      7.91285      9.97328
    105.27883    104.95808     95.73595
%ENDBLOCK LATTICE_ABC

%BLOCK POSITIONS_FRAC
  Li  -0.0655393   0.2606810   0.3682289 SPIN=   0.00000
  Li   0.0655393  -0.2606810  -0.3682289 SPIN=   0.00000
  Li   0.0000000   0.0000000   0.0000000 SPIN=   0.00000
  Li   0.5000000   0.0000000   0.5000000 SPIN=   0.00000
  Fe   0.3787389   0.1790557   0.2759108 SPIN=   3.12111
  Fe  -0.3787389  -0.1790557  -0.2759108 SPIN=   3.12111
  Fe  -0.6325103   0.3955881  -0.2163281 SPIN=   4.87889
  Fe   0.6325103  -0.3955881   0.2163281 SPIN=   4.87889
   O  -0.0613603  -0.4258547   0.3895910 SPIN=   0.00000
   O   0.2976476  -0.5810599   0.4560543 SPIN=   0.00000
   O   0.3770244  -0.2540102   0.5049504 SPIN=   0.00000
   O   0.2534998  -0.4529459   0.2516462 SPIN=   0.00000
   S   0.2167029  -0.4284677   0.4005605 SPIN=   0.00000
   O   0.0613603   0.4258547  -0.3895910 SPIN=   0.00000
   O  -0.2976476   0.5810599  -0.4560543 SPIN=   0.00000
   O  -0.3770244   0.2540102  -0.5049504 SPIN=   0.00000
   O  -0.2534998   0.4529459  -0.2516462 SPIN=   0.00000
   S  -0.2167029   0.4284677  -0.4005605 SPIN=   0.00000
   O   0.6063858   0.3320243  -0.0337815 SPIN=   0.00000
   O   0.3648436   0.1222366   0.0507289 SPIN=   0.00000
   O   0.1944413   0.1482264  -0.1966911 SPIN=   0.00000
   O   0.2051246   0.3946325   0.0187396 SPIN=   0.00000
   O  -0.6063858  -0.3320243   0.0337815 SPIN=   0.00000
   O  -0.3648436  -0.1222366  -0.0507289 SPIN=   0.00000
   O  -0.1944413  -0.1482264   0.1966911 SPIN=   0.00000
   O  -0.2051246  -0.3946325  -0.0187396 SPIN=   0.00000
   S   0.0000000  -0.5000000   0.0000000 SPIN=   0.00000
   S  -0.0000000   0.0000000   0.5000000 SPIN=   0.00000
   F  -0.3864414   0.0849718  -0.2778814 SPIN=   0.00000
   F   0.3864414  -0.0849718   0.2778814 SPIN=   0.00000
   F  -0.1249380   0.1805837   0.1581256 SPIN=   0.00000
   F   0.1249380  -0.1805837  -0.1581256 SPIN=   0.00000
%ENDBLOCK POSITIONS_FRAC

# Note: total spin =  16.00

KPOINTS_MP_SPACING 0.07

%BLOCK SPECIES_POT
QC5
%ENDBLOCK SPECIES_POT

SNAP_TO_SYMMETRY
SYMMETRY_GENERATE

