#              Generated by Buildcell
#
# at 13:20:36 (GMT+1.0) 18th August 2020
# in /lustre/scratch/uccabz1/launch_tmp
# on node-c12c-006
# by uccabz1
#
# compiler GCC version 4.9.2
# options -cpp -iprefix /lustre/shared/ucl/apps/gcc/4.9.2/bin/../lib/gcc/x86_64-unknown-linux-gnu/4.9.2/ -mtune=corei7 -march=x86-64 -g -Og
#
# seed -1775622583  1688547282 -1847233365  1173935428   392742464 -1370466650 -1885816962 -1987791990 -1466160943   134366481    96259884  1522912948
#
#      Author: C. J. Pickard (cjp20@cam.ac.uk)
#                Space group: Cm
#

%BLOCK LATTICE_ABC
      6.79725      8.00977      8.00977
     68.02225     82.99828     82.99828
%ENDBLOCK LATTICE_ABC

%BLOCK POSITIONS_FRAC
  Li   0.2041589  -0.4084776  -0.4084776 SPIN=   0.00000
  Li  -0.2625768  -0.1826004  -0.1826004 SPIN=   0.00000
  Li  -0.0265493   0.1581645   0.1581645 SPIN=   0.00000
  Li   0.4389850   0.3047404   0.3047404 SPIN=   0.00000
  Fe   0.2746114  -0.0367934  -0.4394463 SPIN=   2.35836
  Fe   0.2746114  -0.4394463  -0.0367934 SPIN=   2.35836
  Fe   0.4059152   0.0841142   0.0841142 SPIN=   6.86722
  Fe  -0.2349801  -0.4094935  -0.4094935 SPIN=   4.41606
   O  -0.4466132  -0.2257176   0.3368374 SPIN=   0.00000
   O  -0.4668329  -0.2266427   0.0307682 SPIN=   0.00000
   O  -0.6528606  -0.4386023   0.2941978 SPIN=   0.00000
   O  -0.2857461  -0.4824993   0.2558076 SPIN=   0.00000
   S  -0.4630132  -0.3433655   0.2294028 SPIN=   0.00000
   O  -0.4466132   0.3368374  -0.2257176 SPIN=   0.00000
   O  -0.4668329   0.0307682  -0.2266427 SPIN=   0.00000
   O  -0.6528606   0.2941978  -0.4386023 SPIN=   0.00000
   O  -0.2857461   0.2558076  -0.4824993 SPIN=   0.00000
   S  -0.4630132   0.2294028  -0.3433655 SPIN=   0.00000
   O  -0.0522781  -0.3529951   0.0138799 SPIN=   0.00000
   O   0.1902438  -0.1831052   0.0787939 SPIN=   0.00000
   O   0.0009718  -0.4052932   0.3303783 SPIN=   0.00000
   O  -0.1705042  -0.1174814   0.1415875 SPIN=   0.00000
   O  -0.0522781   0.0138799  -0.3529951 SPIN=   0.00000
   O   0.1902438   0.0787939  -0.1831052 SPIN=   0.00000
   O   0.0009718   0.3303783  -0.4052932 SPIN=   0.00000
   O  -0.1705042   0.1415875  -0.1174814 SPIN=   0.00000
   S   0.0316932  -0.0551849  -0.0551849 SPIN=   0.00000
   S   0.0292150   0.3638054   0.3638054 SPIN=   0.00000
   F   0.0926341  -0.1408283   0.4151657 SPIN=   0.00000
   F   0.0926341   0.4151657  -0.1408283 SPIN=   0.00000
   F  -0.4585386  -0.2744930  -0.2744930 SPIN=   0.00000
   F  -0.3657711   0.1830385   0.1830385 SPIN=   0.00000
%ENDBLOCK POSITIONS_FRAC

# Note: total spin =  16.00

KPOINTS_MP_SPACING 0.07

%BLOCK SPECIES_POT
QC5
%ENDBLOCK SPECIES_POT

SNAP_TO_SYMMETRY
SYMMETRY_GENERATE

