#              Generated by Buildcell
#
# at 07:35:29 (GMT+1.0) 4th August 2020
# in /lustre/scratch/uccabz1/launch_tmp
# on node-c12a-003
# by uccabz1
#
# compiler GCC version 4.9.2
# options -cpp -iprefix /lustre/shared/ucl/apps/gcc/4.9.2/bin/../lib/gcc/x86_64-unknown-linux-gnu/4.9.2/ -mtune=corei7 -march=x86-64 -g -Og
#
# seed   213724719  -448105851 -1587379860 -2120537764  1219409663  1197838348   447319915  1466377527 -1113823391  1002171645 -1285727266 -1471209133
#
#      Author: C. J. Pickard (cjp20@cam.ac.uk)
#                Space group: Pc
#

%BLOCK LATTICE_ABC
      6.83616      7.49297      8.31792
     90.00000     90.00000    110.14690
%ENDBLOCK LATTICE_ABC

%BLOCK POSITIONS_FRAC
  Li   0.2777299   0.4204201  -0.2030680 SPIN=   0.00000
  Li  -0.2222701   0.4204201   0.2030680 SPIN=   0.00000
  Li   0.3572086  -0.0371219   0.3702394 SPIN=   0.00000
  Li  -0.1427914  -0.0371219  -0.3702394 SPIN=   0.00000
  Fe  -0.2386000  -0.3582844  -0.1112301 SPIN=   2.80867
  Fe   0.2614000  -0.3582844   0.1112301 SPIN=   2.80867
  Fe   0.3876680  -0.1703687  -0.2945465 SPIN=   5.19133
  Fe  -0.1123320  -0.1703687   0.2945465 SPIN=   5.19133
   O  -0.4367327   0.4675690  -0.2788169 SPIN=   0.00000
   O  -0.2002563   0.2883491  -0.3342814 SPIN=   0.00000
   O  -0.3772074   0.3873821  -0.5589629 SPIN=   0.00000
   O  -0.5805346   0.1340655  -0.3724197 SPIN=   0.00000
   S  -0.3986828   0.3193414  -0.3861202 SPIN=   0.00000
   O   0.0632673   0.4675690   0.2788169 SPIN=   0.00000
   O   0.2997437   0.2883491   0.3342814 SPIN=   0.00000
   O   0.1227926   0.3873821   0.5589629 SPIN=   0.00000
   O  -0.0805346   0.1340655   0.3724197 SPIN=   0.00000
   S   0.1013172   0.3193414   0.3861202 SPIN=   0.00000
   O  -0.1571253   0.1972123   0.1197202 SPIN=   0.00000
   O  -0.3821807  -0.1243432   0.2052615 SPIN=   0.00000
   O  -0.4378548   0.0009769  -0.0595608 SPIN=   0.00000
   O  -0.5262725   0.1362785   0.1900192 SPIN=   0.00000
   S  -0.3758583   0.0525311   0.1138600 SPIN=   0.00000
   O   0.3428747   0.1972123  -0.1197202 SPIN=   0.00000
   O   0.1178193  -0.1243432  -0.2052615 SPIN=   0.00000
   O   0.0621452   0.0009769   0.0595608 SPIN=   0.00000
   O  -0.0262725   0.1362785  -0.1900192 SPIN=   0.00000
   S   0.1241417   0.0525311  -0.1138600 SPIN=   0.00000
   F  -0.3987180  -0.1908866  -0.4475302 SPIN=   0.00000
   F   0.1012820  -0.1908866   0.4475302 SPIN=   0.00000
   F   0.0307591  -0.4897987  -0.0857968 SPIN=   0.00000
   F  -0.4692409  -0.4897987   0.0857968 SPIN=   0.00000
%ENDBLOCK POSITIONS_FRAC

# Note: total spin =  16.00

KPOINTS_MP_SPACING 0.07

%BLOCK SPECIES_POT
QC5
%ENDBLOCK SPECIES_POT

SNAP_TO_SYMMETRY
SYMMETRY_GENERATE

