#              Generated by Buildcell
#
# at 07:15:05 (GMT+1.0) 18th August 2020
# in /lustre/scratch/uccabz1/launch_tmp
# on node-c12f-005
# by uccabz1
#
# compiler GCC version 4.9.2
# options -cpp -iprefix /lustre/shared/ucl/apps/gcc/4.9.2/bin/../lib/gcc/x86_64-unknown-linux-gnu/4.9.2/ -mtune=corei7 -march=x86-64 -g -Og
#
# seed    40141919  1524850999  1556242589  -803131828 -1821007412  1038709258  -868707761   138373045  1594208369  -790948658  1282275297 -1067208066
#
#      Author: C. J. Pickard (cjp20@cam.ac.uk)
#                Space group: P2/c
#

%BLOCK LATTICE_ABC
      7.06182      7.23390      7.89845
     90.00000     90.00000     97.53961
%ENDBLOCK LATTICE_ABC

%BLOCK POSITIONS_FRAC
  Li  -0.0736721   0.3452177   0.1981981 SPIN=   0.00000
  Li  -0.4263279  -0.3452177   0.1981981 SPIN=   0.00000
  Li   0.0736721  -0.3452177  -0.1981981 SPIN=   0.00000
  Li   0.4263279   0.3452177  -0.1981981 SPIN=   0.00000
  Fe   0.2579897  -0.2489743   0.4481202 SPIN=   4.00000
  Fe   0.2420103   0.2489743   0.4481202 SPIN=   4.00000
  Fe  -0.2579897   0.2489743  -0.4481202 SPIN=   4.00000
  Fe  -0.2420103  -0.2489743  -0.4481202 SPIN=   4.00000
   O  -0.3576291   0.3370977   0.2980897 SPIN=   0.00000
   O  -0.3894422   0.0714818   0.0980713 SPIN=   0.00000
   O  -0.3896088   0.3929505  -0.0090939 SPIN=   0.00000
   O  -0.6659661   0.2402360   0.1541104 SPIN=   0.00000
   S  -0.4506616   0.2604415   0.1352944 SPIN=   0.00000
   O  -0.1423709  -0.3370977   0.2980897 SPIN=   0.00000
   O  -0.1105578  -0.0714818   0.0980713 SPIN=   0.00000
   O  -0.1103912  -0.3929505  -0.0090939 SPIN=   0.00000
   O   0.1659661  -0.2402360   0.1541104 SPIN=   0.00000
   S  -0.0493384  -0.2604415   0.1352944 SPIN=   0.00000
   O   0.3576291  -0.3370977  -0.2980897 SPIN=   0.00000
   O   0.3894422  -0.0714818  -0.0980713 SPIN=   0.00000
   O   0.3896088  -0.3929505   0.0090939 SPIN=   0.00000
   O   0.6659661  -0.2402360  -0.1541104 SPIN=   0.00000
   S   0.4506616  -0.2604415  -0.1352944 SPIN=   0.00000
   O   0.1423709   0.3370977  -0.2980897 SPIN=   0.00000
   O   0.1105578   0.0714818  -0.0980713 SPIN=   0.00000
   O   0.1103912   0.3929505   0.0090939 SPIN=   0.00000
   O  -0.1659661   0.2402360  -0.1541104 SPIN=   0.00000
   S   0.0493384   0.2604415  -0.1352944 SPIN=   0.00000
   F   0.0189466  -0.2402474  -0.3990469 SPIN=   0.00000
   F   0.4810534   0.2402474  -0.3990469 SPIN=   0.00000
   F  -0.0189466   0.2402474   0.3990469 SPIN=   0.00000
   F  -0.4810534  -0.2402474   0.3990469 SPIN=   0.00000
%ENDBLOCK POSITIONS_FRAC

# Note: total spin =  16.00

KPOINTS_MP_SPACING 0.07

%BLOCK SPECIES_POT
QC5
%ENDBLOCK SPECIES_POT

SNAP_TO_SYMMETRY
SYMMETRY_GENERATE

