#              Generated by Buildcell
#
# at 01:57:13 (GMT+1.0) 18th August 2020
# in /lustre/scratch/uccabz1/launch_tmp
# on node-c12p-030
# by uccabz1
#
# compiler GCC version 4.9.2
# options -cpp -iprefix /lustre/shared/ucl/apps/gcc/4.9.2/bin/../lib/gcc/x86_64-unknown-linux-gnu/4.9.2/ -mtune=corei7 -march=x86-64 -g -Og
#
# seed  -898539192  -794426934   916156557  1966185075  -213107052  -998132463  -356014892  2016165974  1233013006  1111658491 -1712780902  2023510469
#
#      Author: C. J. Pickard (cjp20@cam.ac.uk)
#                Space group: Pba2
#

%BLOCK LATTICE_ABC
      4.51436      9.05682      9.78337
     90.00000     90.00000     90.00000
%ENDBLOCK LATTICE_ABC

%BLOCK POSITIONS_FRAC
  Li   0.2782122  -0.2707782  -0.3804632 SPIN=   0.00000
  Li   0.2782122   0.2707782   0.3804632 SPIN=   0.00000
  Li   0.2782122  -0.2292218   0.1195368 SPIN=   0.00000
  Li   0.2782122   0.2292218  -0.1195368 SPIN=   0.00000
  Fe  -0.4192625  -0.0246845  -0.2435826 SPIN=   4.00000
  Fe  -0.4192625   0.0246845   0.2435826 SPIN=   4.00000
  Fe  -0.4192625  -0.4753155   0.2564174 SPIN=   4.00000
  Fe  -0.4192625   0.4753155  -0.2564174 SPIN=   4.00000
   O   0.0822208  -0.1914736   0.4221213 SPIN=   0.00000
   O  -0.3193813  -0.3751761   0.4491694 SPIN=   0.00000
   O  -0.4412378  -0.1102750   0.4228279 SPIN=   0.00000
   O  -0.2087402  -0.1998661   0.6363798 SPIN=   0.00000
   S  -0.2217846  -0.2191977   0.4826246 SPIN=   0.00000
   O   0.0822208   0.1914736  -0.4221213 SPIN=   0.00000
   O  -0.3193813   0.3751761  -0.4491694 SPIN=   0.00000
   O  -0.4412378   0.1102750  -0.4228279 SPIN=   0.00000
   O  -0.2087402   0.1998661  -0.6363798 SPIN=   0.00000
   S  -0.2217846   0.2191977  -0.4826246 SPIN=   0.00000
   O   0.0822208  -0.3085264  -0.0778787 SPIN=   0.00000
   O  -0.3193813  -0.1248239  -0.0508306 SPIN=   0.00000
   O  -0.4412378  -0.3897250  -0.0771721 SPIN=   0.00000
   O  -0.2087402  -0.3001339   0.1363798 SPIN=   0.00000
   S  -0.2217846  -0.2808023  -0.0173754 SPIN=   0.00000
   O   0.0822208   0.3085264   0.0778787 SPIN=   0.00000
   O  -0.3193813   0.1248239   0.0508306 SPIN=   0.00000
   O  -0.4412378   0.3897250   0.0771721 SPIN=   0.00000
   O  -0.2087402   0.3001339  -0.1363798 SPIN=   0.00000
   S  -0.2217846   0.2808023   0.0173754 SPIN=   0.00000
   F   0.1643479  -0.0151235   0.2061511 SPIN=   0.00000
   F   0.1643479   0.0151235  -0.2061511 SPIN=   0.00000
   F   0.1643479  -0.4848765  -0.2938489 SPIN=   0.00000
   F   0.1643479   0.4848765   0.2938489 SPIN=   0.00000
%ENDBLOCK POSITIONS_FRAC

# Note: total spin =  16.00

KPOINTS_MP_SPACING 0.07

%BLOCK SPECIES_POT
QC5
%ENDBLOCK SPECIES_POT

SNAP_TO_SYMMETRY
SYMMETRY_GENERATE

