#              Generated by Buildcell
#
# at 11:43:11 (GMT+1.0) 18th August 2020
# in /lustre/scratch/uccabz1/launch_tmp
# on node-c12j-026
# by uccabz1
#
# compiler GCC version 4.9.2
# options -cpp -iprefix /lustre/shared/ucl/apps/gcc/4.9.2/bin/../lib/gcc/x86_64-unknown-linux-gnu/4.9.2/ -mtune=corei7 -march=x86-64 -g -Og
#
# seed   107213099  -997390190 -1021335283  1027943290  1980026413  1131939454  -547890837  1353632606  1646851200 -1060356083   624974286  1203429968
#
#      Author: C. J. Pickard (cjp20@cam.ac.uk)
#                Space group: Pc
#

%BLOCK LATTICE_ABC
      4.43134      7.57323     11.92329
     90.00000     91.51842     90.00000
%ENDBLOCK LATTICE_ABC

%BLOCK POSITIONS_FRAC
  Li  -0.4194413  -0.4057545  -0.4472789 SPIN=   0.00000
  Li   0.0805587   0.4057545   0.0527211 SPIN=   0.00000
  Li  -0.4193457   0.0712090  -0.4797354 SPIN=   0.00000
  Li   0.0806543  -0.0712090   0.0202646 SPIN=   0.00000
  Fe  -0.4244168  -0.0662438   0.1936939 SPIN=   5.42334
  Fe   0.0755832   0.0662438  -0.3063061 SPIN=   5.42334
  Fe  -0.3990377   0.3890320  -0.1236577 SPIN=   2.57666
  Fe   0.1009623  -0.3890320   0.3763423 SPIN=   2.57666
   O   0.0818781   0.1028205   0.5254740 SPIN=   0.00000
   O  -0.0625664   0.3478748   0.3976507 SPIN=   0.00000
   O  -0.1270902   0.0381266   0.3353527 SPIN=   0.00000
   O   0.3854502   0.1649358   0.3587376 SPIN=   0.00000
   S   0.0694179   0.1634394   0.4043038 SPIN=   0.00000
   O  -0.4181219  -0.1028205   0.0254740 SPIN=   0.00000
   O  -0.5625664  -0.3478748  -0.1023493 SPIN=   0.00000
   O  -0.6270902  -0.0381266  -0.1646473 SPIN=   0.00000
   O  -0.1145498  -0.1649358  -0.1412624 SPIN=   0.00000
   S  -0.4305821  -0.1634394  -0.0956962 SPIN=   0.00000
   O   0.4147291  -0.4871324  -0.2969349 SPIN=   0.00000
   O   0.0789894  -0.2407404  -0.3553137 SPIN=   0.00000
   O  -0.0901453  -0.4576547  -0.2150181 SPIN=   0.00000
   O  -0.0443301  -0.5465548  -0.4135785 SPIN=   0.00000
   S   0.0898108  -0.4330206  -0.3202113 SPIN=   0.00000
   O  -0.0852709   0.4871324   0.2030651 SPIN=   0.00000
   O  -0.4210106   0.2407404   0.1446863 SPIN=   0.00000
   O  -0.5901453   0.4576547   0.2849819 SPIN=   0.00000
   O  -0.5443301   0.5465548   0.0864215 SPIN=   0.00000
   S  -0.4101892   0.4330206   0.1797887 SPIN=   0.00000
   F  -0.3904812  -0.2507697   0.4389123 SPIN=   0.00000
   F   0.1095188   0.2507697  -0.0610877 SPIN=   0.00000
   F  -0.4087705   0.1648829  -0.3390340 SPIN=   0.00000
   F   0.0912295  -0.1648829   0.1609660 SPIN=   0.00000
%ENDBLOCK POSITIONS_FRAC

# Note: total spin =  16.00

KPOINTS_MP_SPACING 0.07

%BLOCK SPECIES_POT
QC5
%ENDBLOCK SPECIES_POT

SNAP_TO_SYMMETRY
SYMMETRY_GENERATE

