#              Generated by Buildcell
#
# at 22:59:37 (GMT+1.0) 17th August 2020
# in /lustre/scratch/uccabz1/launch_tmp
# on node-c12f-023
# by uccabz1
#
# compiler GCC version 4.9.2
# options -cpp -iprefix /lustre/shared/ucl/apps/gcc/4.9.2/bin/../lib/gcc/x86_64-unknown-linux-gnu/4.9.2/ -mtune=corei7 -march=x86-64 -g -Og
#
# seed -1202518707 -2043916432  1383644950  1726717575 -2039461992  1046032266   348442124 -1738702482 -1987102842 -1098529751  2025400859 -1903580603
#
#      Author: C. J. Pickard (cjp20@cam.ac.uk)
#                Space group: Cc
#

%BLOCK LATTICE_ABC
      7.03504      7.03504      9.22419
    109.24785    109.24785     93.14705
%ENDBLOCK LATTICE_ABC

%BLOCK POSITIONS_FRAC
  Li  -0.3724435   0.4243557  -0.2460166 SPIN=   0.00000
  Li  -0.0756443   0.1275565   0.2539834 SPIN=   0.00000
  Li   0.3562262  -0.0899147   0.1169468 SPIN=   0.00000
  Li   0.4100853  -0.1437738  -0.3830532 SPIN=   0.00000
  Fe  -0.0665617   0.1480205  -0.3943503 SPIN=   5.24119
  Fe  -0.3519795   0.4334383   0.1056497 SPIN=   5.24119
  Fe  -0.1756090  -0.3790882  -0.4435636 SPIN=   2.75881
  Fe   0.1209118   0.3243910   0.0564364 SPIN=   2.75881
   O  -0.0016346  -0.2037056   0.0522560 SPIN=   0.00000
   O  -0.2661473  -0.3080742  -0.2284161 SPIN=   0.00000
   O  -0.0213658   0.0193013  -0.1091526 SPIN=   0.00000
   O  -0.2910381  -0.0185131   0.0019044 SPIN=   0.00000
   S  -0.1450464  -0.1277479  -0.0708521 SPIN=   0.00000
   O   0.2962944   0.4983654   0.5522560 SPIN=   0.00000
   O   0.1919258   0.2338527   0.2715839 SPIN=   0.00000
   O   0.5193013   0.4786342   0.3908474 SPIN=   0.00000
   O   0.4814869   0.2089619   0.5019044 SPIN=   0.00000
   S   0.3722521   0.3549536   0.4291479 SPIN=   0.00000
   O   0.1159144  -0.3190204  -0.1847395 SPIN=   0.00000
   O   0.2152942  -0.6551399  -0.2882594 SPIN=   0.00000
   O   0.2971500  -0.4782059   0.0114063 SPIN=   0.00000
   O   0.4811598  -0.3412833  -0.1304042 SPIN=   0.00000
   S   0.2773796  -0.4484124  -0.1479992 SPIN=   0.00000
   O   0.1809796  -0.3840856   0.3152605 SPIN=   0.00000
   O  -0.1551399  -0.2847058   0.2117406 SPIN=   0.00000
   O   0.0217941  -0.2028500   0.5114063 SPIN=   0.00000
   O   0.1587167  -0.0188402   0.3695958 SPIN=   0.00000
   S   0.0515876  -0.2226204   0.3520008 SPIN=   0.00000
   F  -0.1157356   0.3331688   0.4406364 SPIN=   0.00000
   F  -0.1668312   0.3842644  -0.0593636 SPIN=   0.00000
   F   0.3270779   0.0244593  -0.1863844 SPIN=   0.00000
   F  -0.4755407  -0.1729221   0.3136156 SPIN=   0.00000
%ENDBLOCK POSITIONS_FRAC

# Note: total spin =  16.00

KPOINTS_MP_SPACING 0.07

%BLOCK SPECIES_POT
QC5
%ENDBLOCK SPECIES_POT

SNAP_TO_SYMMETRY
SYMMETRY_GENERATE

