#              Generated by Buildcell
#
# at 23:47:20 (GMT+1.0) 17th August 2020
# in /lustre/scratch/uccabz1/launch_tmp
# on node-c12c-006
# by uccabz1
#
# compiler GCC version 4.9.2
# options -cpp -iprefix /lustre/shared/ucl/apps/gcc/4.9.2/bin/../lib/gcc/x86_64-unknown-linux-gnu/4.9.2/ -mtune=corei7 -march=x86-64 -g -Og
#
# seed -1116956168 -1347606880 -2045642587    50081519   523982374  -125507034   359062217   866790136 -1889838048   399819342  -815495664  -775673779
#
#      Author: C. J. Pickard (cjp20@cam.ac.uk)
#                Space group: P21
#

%BLOCK LATTICE_ABC
      6.54126      6.98232      9.48539
     90.00000     90.00000    112.58634
%ENDBLOCK LATTICE_ABC

%BLOCK POSITIONS_FRAC
  Li   0.1328376  -0.1923343   0.3630578 SPIN=   0.00000
  Li  -0.1328376   0.1923343  -0.1369422 SPIN=   0.00000
  Li   0.4450296   0.4639537   0.3312177 SPIN=   0.00000
  Li  -0.4450296  -0.4639537  -0.1687823 SPIN=   0.00000
  Fe   0.2880791   0.2106802  -0.3868556 SPIN=   5.24817
  Fe  -0.2880791  -0.2106802   0.1131444 SPIN=   5.24817
  Fe  -0.1075818   0.4648261  -0.4195917 SPIN=   2.75183
  Fe   0.1075818  -0.4648261   0.0804083 SPIN=   2.75183
   O  -0.6221042  -0.0513055   0.1553868 SPIN=   0.00000
   O  -0.2508526   0.2301497   0.1740987 SPIN=   0.00000
   O  -0.5794296   0.3147837   0.1292922 SPIN=   0.00000
   O  -0.4405921   0.1474323  -0.0569161 SPIN=   0.00000
   S  -0.4732446   0.1602651   0.1004654 SPIN=   0.00000
   O   0.6221042   0.0513055  -0.3446132 SPIN=   0.00000
   O   0.2508526  -0.2301497  -0.3259013 SPIN=   0.00000
   O   0.5794296  -0.3147837  -0.3707078 SPIN=   0.00000
   O   0.4405921  -0.1474323  -0.5569161 SPIN=   0.00000
   S   0.4732446  -0.1602651  -0.3995346 SPIN=   0.00000
   O   0.0350545   0.1066017   0.1610460 SPIN=   0.00000
   O   0.0916252   0.4037668   0.3199773 SPIN=   0.00000
   O   0.1996997   0.1172837   0.3972843 SPIN=   0.00000
   O  -0.1966305   0.0593046   0.3746100 SPIN=   0.00000
   S   0.0324372   0.1717392   0.3132294 SPIN=   0.00000
   O  -0.0350545  -0.1066017  -0.3389540 SPIN=   0.00000
   O  -0.0916252  -0.4037668  -0.1800227 SPIN=   0.00000
   O  -0.1996997  -0.1172837  -0.1027157 SPIN=   0.00000
   O   0.1966305  -0.0593046  -0.1253900 SPIN=   0.00000
   S  -0.0324372  -0.1717392  -0.1867706 SPIN=   0.00000
   F   0.0737022   0.3295976  -0.3274164 SPIN=   0.00000
   F  -0.0737022  -0.3295976   0.1725836 SPIN=   0.00000
   F  -0.3556175   0.3728682   0.4645363 SPIN=   0.00000
   F   0.3556175  -0.3728682  -0.0354637 SPIN=   0.00000
%ENDBLOCK POSITIONS_FRAC

# Note: total spin =  16.00

KPOINTS_MP_SPACING 0.07

%BLOCK SPECIES_POT
QC5
%ENDBLOCK SPECIES_POT

SNAP_TO_SYMMETRY
SYMMETRY_GENERATE

