#              Generated by Buildcell
#
# at 05:30:45 (GMT+1.0) 18th August 2020
# in /lustre/scratch/uccabz1/launch_tmp
# on node-c12a-026
# by uccabz1
#
# compiler GCC version 4.9.2
# options -cpp -iprefix /lustre/shared/ucl/apps/gcc/4.9.2/bin/../lib/gcc/x86_64-unknown-linux-gnu/4.9.2/ -mtune=corei7 -march=x86-64 -g -Og
#
# seed -1713491285  1311046677  -455614197  1064525081   943539825  2093493208 -1079661855  1663949034  -980893270 -1034409811  1791952633  1377455571
#
#      Author: C. J. Pickard (cjp20@cam.ac.uk)
#                Space group: Pba2
#

%BLOCK LATTICE_ABC
      4.24040      6.81990     13.83169
     90.00000     90.00000     90.00000
%ENDBLOCK LATTICE_ABC

%BLOCK POSITIONS_FRAC
  Li   0.4494969   0.0108332   0.1644257 SPIN=   0.00000
  Li   0.4494969  -0.0108332  -0.1644257 SPIN=   0.00000
  Li   0.4494969  -0.4891668   0.3355743 SPIN=   0.00000
  Li   0.4494969   0.4891668  -0.3355743 SPIN=   0.00000
  Fe  -0.0560518   0.3021777   0.1860327 SPIN=   4.00000
  Fe  -0.0560518  -0.3021777  -0.1860327 SPIN=   4.00000
  Fe  -0.0560518  -0.1978223   0.3139673 SPIN=   4.00000
  Fe  -0.0560518   0.1978223  -0.3139673 SPIN=   4.00000
   O   0.0987361   0.0823040   0.4101861 SPIN=   0.00000
   O   0.0316789   0.4425772   0.4040653 SPIN=   0.00000
   O  -0.2257141   0.2503523   0.5337009 SPIN=   0.00000
   O  -0.4175934   0.2247693   0.3651908 SPIN=   0.00000
   S  -0.1282231   0.2500007   0.4282858 SPIN=   0.00000
   O   0.0987361  -0.0823040  -0.4101861 SPIN=   0.00000
   O   0.0316789  -0.4425772  -0.4040653 SPIN=   0.00000
   O  -0.2257141  -0.2503523  -0.5337009 SPIN=   0.00000
   O  -0.4175934  -0.2247693  -0.3651908 SPIN=   0.00000
   S  -0.1282231  -0.2500007  -0.4282858 SPIN=   0.00000
   O   0.0987361  -0.4176960   0.0898139 SPIN=   0.00000
   O   0.0316789  -0.0574228   0.0959347 SPIN=   0.00000
   O  -0.2257141  -0.2496477  -0.0337009 SPIN=   0.00000
   O  -0.4175934  -0.2752307   0.1348092 SPIN=   0.00000
   S  -0.1282231  -0.2499993   0.0717142 SPIN=   0.00000
   O   0.0987361   0.4176960  -0.0898139 SPIN=   0.00000
   O   0.0316789   0.0574228  -0.0959347 SPIN=   0.00000
   O  -0.2257141   0.2496477   0.0337009 SPIN=   0.00000
   O  -0.4175934   0.2752307  -0.1348092 SPIN=   0.00000
   S  -0.1282231   0.2499993  -0.0717142 SPIN=   0.00000
   F   0.4620468   0.1494042  -0.3029067 SPIN=   0.00000
   F   0.4620468  -0.1494042   0.3029067 SPIN=   0.00000
   F   0.4620468  -0.3505958  -0.1970933 SPIN=   0.00000
   F   0.4620468   0.3505958   0.1970933 SPIN=   0.00000
%ENDBLOCK POSITIONS_FRAC

# Note: total spin =  16.00

KPOINTS_MP_SPACING 0.07

%BLOCK SPECIES_POT
QC5
%ENDBLOCK SPECIES_POT

SNAP_TO_SYMMETRY
SYMMETRY_GENERATE

