#              Generated by Buildcell
#
# at 07:30:02 (GMT+1.0) 4th August 2020
# in /lustre/scratch/uccabz1/launch_tmp
# on node-c12d-009
# by uccabz1
#
# compiler GCC version 4.9.2
# options -cpp -iprefix /lustre/shared/ucl/apps/gcc/4.9.2/bin/../lib/gcc/x86_64-unknown-linux-gnu/4.9.2/ -mtune=corei7 -march=x86-64 -g -Og
#
# seed   989178763  -276795605  2088194236   579396821    88349391  -502461236  1298959785   815875661 -1159303558  1320345136  -803213270  1634735778
#
#      Author: C. J. Pickard (cjp20@cam.ac.uk)
#                Space group: C2
#

%BLOCK LATTICE_ABC
      7.13116      7.77293      8.48458
    108.43608    114.84991     90.00000
%ENDBLOCK LATTICE_ABC

%BLOCK POSITIONS_FRAC
  Li  -0.0738477  -0.0248206  -0.3788676 SPIN=   0.00000
  Li   0.3050199   0.0248206   0.3788676 SPIN=   0.00000
  Li   0.3995588  -0.2791195  -0.1473341 SPIN=   0.00000
  Li  -0.4531071   0.2791195   0.1473341 SPIN=   0.00000
  Fe  -0.4436475  -0.3158526   0.3206302 SPIN=   4.90964
  Fe   0.2357224   0.3158526  -0.3206302 SPIN=   4.90964
  Fe  -0.3994944  -0.0070549  -0.2379827 SPIN=   3.09036
  Fe  -0.1615118   0.0070549   0.2379827 SPIN=   3.09036
   O  -0.3758269   0.3785669  -0.3062828 SPIN=   0.00000
   O  -0.5416944   0.3050639  -0.6459623 SPIN=   0.00000
   O  -0.3204380   0.0960904  -0.5093617 SPIN=   0.00000
   O  -0.1585850   0.4001013  -0.4646417 SPIN=   0.00000
   S  -0.3491361   0.2949556  -0.4815621 SPIN=   0.00000
   O  -0.0695441  -0.3785669   0.3062828 SPIN=   0.00000
   O   0.1042679  -0.3050639   0.6459623 SPIN=   0.00000
   O   0.1889236  -0.0960904   0.5093617 SPIN=   0.00000
   O   0.3060567  -0.4001013   0.4646417 SPIN=   0.00000
   S   0.1324260  -0.2949556   0.4815621 SPIN=   0.00000
   O   0.2872254  -0.0953868   0.0829984 SPIN=   0.00000
   O   0.1315332  -0.2973651   0.1853724 SPIN=   0.00000
   O   0.1051570  -0.4081271  -0.1317332 SPIN=   0.00000
   O  -0.0975448  -0.1675878  -0.0470274 SPIN=   0.00000
   S   0.1065927  -0.2421167   0.0224025 SPIN=   0.00000
   O   0.2042270   0.0953868  -0.0829984 SPIN=   0.00000
   O  -0.0538392   0.2973651  -0.1853724 SPIN=   0.00000
   O   0.2368902   0.4081271   0.1317332 SPIN=   0.00000
   O  -0.0505174   0.1675878   0.0470274 SPIN=   0.00000
   S   0.0841902   0.2421167  -0.0224025 SPIN=   0.00000
   F  -0.3581650  -0.2208892   0.0934038 SPIN=   0.00000
   F  -0.4515689   0.2208892  -0.0934038 SPIN=   0.00000
   F  -0.3076810  -0.2202173  -0.4100217 SPIN=   0.00000
   F   0.1023408   0.2202173   0.4100217 SPIN=   0.00000
%ENDBLOCK POSITIONS_FRAC

# Note: total spin =  16.00

KPOINTS_MP_SPACING 0.07

%BLOCK SPECIES_POT
QC5
%ENDBLOCK SPECIES_POT

SNAP_TO_SYMMETRY
SYMMETRY_GENERATE

