#              Generated by Buildcell
#
# at 08:33:37 (GMT+1.0) 4th August 2020
# in /lustre/scratch/uccabz1/launch_tmp
# on node-c12a-004
# by uccabz1
#
# compiler GCC version 4.9.2
# options -cpp -iprefix /lustre/shared/ucl/apps/gcc/4.9.2/bin/../lib/gcc/x86_64-unknown-linux-gnu/4.9.2/ -mtune=corei7 -march=x86-64 -g -Og
#
# seed   503298774  1906752375 -1603606603  -243491643 -1842834915  1568392777 -1999295422  -595154287   628336264  -957555270  1032417003   831440702
#
#      Author: C. J. Pickard (cjp20@cam.ac.uk)
#                Space group: Iba2
#

%BLOCK LATTICE_ABC
      7.53322      8.21674      8.21674
     73.54286     62.71562     62.71562
%ENDBLOCK LATTICE_ABC

%BLOCK POSITIONS_FRAC
  Li  -0.2983756  -0.3147060  -0.2875173 SPIN=   0.00000
  Li   0.2983756   0.2875173   0.3147060 SPIN=   0.00000
  Li  -0.0994011   0.1852940   0.2124827 SPIN=   0.00000
  Li   0.0994011  -0.2124827  -0.1852940 SPIN=   0.00000
  Fe  -0.2056449  -0.4840139   0.3849547 SPIN=   4.00000
  Fe   0.2056449  -0.3849547   0.4840139 SPIN=   4.00000
  Fe   0.3047041   0.0159861  -0.1150453 SPIN=   4.00000
  Fe  -0.3047041   0.1150453  -0.0159861 SPIN=   4.00000
   O  -0.2878687  -0.3590908  -0.0361873 SPIN=   0.00000
   O  -0.2417085  -0.6858672   0.0235473 SPIN=   0.00000
   O  -0.6089259  -0.4403858   0.0997789 SPIN=   0.00000
   O  -0.3968680  -0.5025079   0.2837003 SPIN=   0.00000
   S  -0.3838428  -0.4969629   0.0927098 SPIN=   0.00000
   O   0.2878687   0.0361873   0.3590908 SPIN=   0.00000
   O   0.2417085  -0.0235473   0.6858672 SPIN=   0.00000
   O   0.6089259  -0.0997789   0.4403858 SPIN=   0.00000
   O   0.3968680  -0.2837003   0.5025079 SPIN=   0.00000
   S   0.3838428  -0.0927098   0.4969629 SPIN=   0.00000
   O  -0.3168532   0.1409092  -0.5361873 SPIN=   0.00000
   O  -0.0959717  -0.1858672  -0.4764527 SPIN=   0.00000
   O  -0.0504673   0.0596142  -0.4002211 SPIN=   0.00000
   O  -0.3843244  -0.0025079  -0.2162997 SPIN=   0.00000
   S  -0.2119042   0.0030371  -0.4072902 SPIN=   0.00000
   O   0.3168532   0.5361873  -0.1409092 SPIN=   0.00000
   O   0.0959717   0.4764527   0.1858672 SPIN=   0.00000
   O   0.0504673   0.4002211  -0.0596142 SPIN=   0.00000
   O   0.3843244   0.2162997   0.0025079 SPIN=   0.00000
   S   0.2119042   0.4072902  -0.0030371 SPIN=   0.00000
   F   0.2928234   0.3621757  -0.4555836 SPIN=   0.00000
   F  -0.2928234   0.4555836  -0.3621757 SPIN=   0.00000
   F  -0.1994155  -0.1378243   0.0444164 SPIN=   0.00000
   F   0.1994155  -0.0444164   0.1378243 SPIN=   0.00000
%ENDBLOCK POSITIONS_FRAC

# Note: total spin =  16.00

KPOINTS_MP_SPACING 0.07

%BLOCK SPECIES_POT
QC5
%ENDBLOCK SPECIES_POT

SNAP_TO_SYMMETRY
SYMMETRY_GENERATE

