#              Generated by Buildcell
#
# at 11:45:50 (GMT+1.0) 18th August 2020
# in /lustre/scratch/uccabz1/launch_tmp
# on node-c12j-028
# by uccabz1
#
# compiler GCC version 4.9.2
# options -cpp -iprefix /lustre/shared/ucl/apps/gcc/4.9.2/bin/../lib/gcc/x86_64-unknown-linux-gnu/4.9.2/ -mtune=corei7 -march=x86-64 -g -Og
#
# seed -1773154762  -918064679  1697873802 -2035561073 -1961267523   704483595  1851701910  1549490224  1248853484  1743799587 -1160616613 -1293162610
#
#      Author: C. J. Pickard (cjp20@cam.ac.uk)
#                Space group: Pnn2
#

%BLOCK LATTICE_ABC
      5.53548      6.53841     11.05179
     90.00000     90.00000     90.00000
%ENDBLOCK LATTICE_ABC

%BLOCK POSITIONS_FRAC
  Li   0.2282685  -0.0153520   0.1996785 SPIN=   0.00000
  Li   0.2282685   0.0153520  -0.1996785 SPIN=   0.00000
  Li  -0.2717315   0.4846480   0.3003215 SPIN=   0.00000
  Li  -0.2717315  -0.4846480  -0.3003215 SPIN=   0.00000
  Fe   0.2455802   0.4654589   0.1699991 SPIN=   4.00000
  Fe   0.2455802  -0.4654589  -0.1699991 SPIN=   4.00000
  Fe  -0.2544198  -0.0345411   0.3300009 SPIN=   4.00000
  Fe  -0.2544198   0.0345411  -0.3300009 SPIN=   4.00000
   O  -0.2234085   0.2115219  -0.0420372 SPIN=   0.00000
   O  -0.0997878   0.1004271   0.1628845 SPIN=   0.00000
   O  -0.5173027   0.2211450   0.1266214 SPIN=   0.00000
   O  -0.1771796   0.4666814   0.1217388 SPIN=   0.00000
   S  -0.2544196   0.2499439   0.0923019 SPIN=   0.00000
   O  -0.2234085  -0.2115219   0.0420372 SPIN=   0.00000
   O  -0.0997878  -0.1004271  -0.1628845 SPIN=   0.00000
   O  -0.5173027  -0.2211450  -0.1266214 SPIN=   0.00000
   O  -0.1771796  -0.4666814  -0.1217388 SPIN=   0.00000
   S  -0.2544196  -0.2499439  -0.0923019 SPIN=   0.00000
   O   0.2765915  -0.2884781   0.5420372 SPIN=   0.00000
   O   0.4002122  -0.3995729   0.3371155 SPIN=   0.00000
   O  -0.0173027  -0.2788550   0.3733786 SPIN=   0.00000
   O   0.3228204  -0.0333186   0.3782612 SPIN=   0.00000
   S   0.2455804  -0.2500561   0.4076981 SPIN=   0.00000
   O   0.2765915   0.2884781  -0.5420372 SPIN=   0.00000
   O   0.4002122   0.3995729  -0.3371155 SPIN=   0.00000
   O  -0.0173027   0.2788550  -0.3733786 SPIN=   0.00000
   O   0.3228204   0.0333186  -0.3782612 SPIN=   0.00000
   S   0.2455804   0.2500561  -0.4076981 SPIN=   0.00000
   F   0.2455807   0.2500566  -0.0950222 SPIN=   0.00000
   F   0.2455807  -0.2500566   0.0950222 SPIN=   0.00000
   F  -0.2544193  -0.2499434  -0.4049778 SPIN=   0.00000
   F  -0.2544193   0.2499434   0.4049778 SPIN=   0.00000
%ENDBLOCK POSITIONS_FRAC

# Note: total spin =  16.00

KPOINTS_MP_SPACING 0.07

%BLOCK SPECIES_POT
QC5
%ENDBLOCK SPECIES_POT

SNAP_TO_SYMMETRY
SYMMETRY_GENERATE

