#              Generated by Buildcell
#
# at 02:19:30 (GMT+1.0) 18th August 2020
# in /lustre/scratch/uccabz1/launch_tmp
# on node-c12h-020
# by uccabz1
#
# compiler GCC version 4.9.2
# options -cpp -iprefix /lustre/shared/ucl/apps/gcc/4.9.2/bin/../lib/gcc/x86_64-unknown-linux-gnu/4.9.2/ -mtune=corei7 -march=x86-64 -g -Og
#
# seed  -258594586 -1055549506   -26263567  -954700498 -1044357520  1672019768  -557838361 -1695675826   527219056  1814058991  -555201072   520521639
#
#      Author: C. J. Pickard (cjp20@cam.ac.uk)
#                Space group: Ama2
#

%BLOCK LATTICE_ABC
      4.30780      7.06389     13.80228
     90.00000     90.00000    107.75316
%ENDBLOCK LATTICE_ABC

%BLOCK POSITIONS_FRAC
  Li  -0.2779299  -0.3001519  -0.2500000 SPIN=   0.00000
  Li   0.0222220   0.3001519   0.2500000 SPIN=   0.00000
  Li   0.0281072   0.2229292  -0.2500000 SPIN=   0.00000
  Li  -0.1948220  -0.2229292   0.2500000 SPIN=   0.00000
  Fe   0.1562608  -0.4318039  -0.1023661 SPIN=   4.00000
  Fe  -0.4119352   0.4318039   0.1023661 SPIN=   4.00000
  Fe  -0.4119352   0.4318039   0.3976339 SPIN=   4.00000
  Fe   0.1562608  -0.4318039  -0.3976339 SPIN=   4.00000
   O   0.2817098  -0.0027834  -0.3418339 SPIN=   0.00000
   O   0.3838854   0.3614683  -0.3445538 SPIN=   0.00000
   O   0.3724197   0.1780995  -0.4979701 SPIN=   0.00000
   O   0.8299896   0.2209593  -0.3831400 SPIN=   0.00000
   S   0.4670012   0.1894359  -0.3918745 SPIN=   0.00000
   O   0.2844933   0.0027834   0.3418339 SPIN=   0.00000
   O   0.0224171  -0.3614683   0.3445538 SPIN=   0.00000
   O   0.1943203  -0.1780995   0.4979701 SPIN=   0.00000
   O   0.6090303  -0.2209593   0.3831400 SPIN=   0.00000
   S   0.2775652  -0.1894359   0.3918745 SPIN=   0.00000
   O   0.2844933   0.0027834   0.1581661 SPIN=   0.00000
   O   0.0224171  -0.3614683   0.1554462 SPIN=   0.00000
   O   0.1943203  -0.1780995   0.0020299 SPIN=   0.00000
   O   0.6090303  -0.2209593   0.1168600 SPIN=   0.00000
   S   0.2775652  -0.1894359   0.1081255 SPIN=   0.00000
   O   0.2817098  -0.0027834  -0.1581661 SPIN=   0.00000
   O   0.3838854   0.3614683  -0.1554462 SPIN=   0.00000
   O   0.3724197   0.1780995  -0.0020299 SPIN=   0.00000
   O   0.8299896   0.2209593  -0.1168600 SPIN=   0.00000
   S   0.4670012   0.1894359  -0.1081255 SPIN=   0.00000
   F  -0.0510113   0.2667504   0.3887174 SPIN=   0.00000
   F  -0.3177616  -0.2667504  -0.3887174 SPIN=   0.00000
   F  -0.3177616  -0.2667504  -0.1112826 SPIN=   0.00000
   F  -0.0510113   0.2667504   0.1112826 SPIN=   0.00000
%ENDBLOCK POSITIONS_FRAC

# Note: total spin =  16.00

KPOINTS_MP_SPACING 0.07

%BLOCK SPECIES_POT
QC5
%ENDBLOCK SPECIES_POT

SNAP_TO_SYMMETRY
SYMMETRY_GENERATE

