#              Generated by Buildcell
#
# at 06:34:32 (GMT+1.0) 4th August 2020
# in /lustre/scratch/uccabz1/launch_tmp
# on node-c12d-004
# by uccabz1
#
# compiler GCC version 4.9.2
# options -cpp -iprefix /lustre/shared/ucl/apps/gcc/4.9.2/bin/../lib/gcc/x86_64-unknown-linux-gnu/4.9.2/ -mtune=corei7 -march=x86-64 -g -Og
#
# seed  1205570624  -116482387  -523164838  -287533713 -1357286260  1542950219  1249765102   236167222 -2139580538  1744292662  1360032027 -1433582574
#
#      Author: C. J. Pickard (cjp20@cam.ac.uk)
#                Space group: Pnc2
#

%BLOCK LATTICE_ABC
      4.50997      8.03912     11.03259
     90.00000     90.00000     90.00000
%ENDBLOCK LATTICE_ABC

%BLOCK POSITIONS_FRAC
  Li  -0.2485037   0.4564180   0.3527759 SPIN=   0.00000
  Li   0.2485037   0.4564180  -0.3527759 SPIN=   0.00000
  Li  -0.2514963  -0.0435820   0.3527759 SPIN=   0.00000
  Li   0.2514963  -0.0435820  -0.3527759 SPIN=   0.00000
  Fe  -0.2482306   0.4293236  -0.1256262 SPIN=   4.00000
  Fe   0.2482306   0.4293236   0.1256262 SPIN=   4.00000
  Fe  -0.2517694  -0.0706764  -0.1256262 SPIN=   4.00000
  Fe   0.2517694  -0.0706764   0.1256262 SPIN=   4.00000
   O  -0.3343891  -0.1390255  -0.3598726 SPIN=   0.00000
   O  -0.2502543  -0.3979312  -0.4762637 SPIN=   0.00000
   O  -0.4270216  -0.4125607  -0.2641645 SPIN=   0.00000
   O   0.0869344  -0.3229408  -0.3079307 SPIN=   0.00000
   S  -0.2311826  -0.3181146  -0.3520579 SPIN=   0.00000
   O   0.3343891  -0.1390255   0.3598726 SPIN=   0.00000
   O   0.2502543  -0.3979312   0.4762637 SPIN=   0.00000
   O   0.4270216  -0.4125607   0.2641645 SPIN=   0.00000
   O  -0.0869344  -0.3229408   0.3079307 SPIN=   0.00000
   S   0.2311826  -0.3181146   0.3520579 SPIN=   0.00000
   O  -0.1656109   0.3609745  -0.3598726 SPIN=   0.00000
   O  -0.2497457   0.1020688  -0.4762637 SPIN=   0.00000
   O  -0.0729784   0.0874393  -0.2641645 SPIN=   0.00000
   O  -0.5869344   0.1770592  -0.3079307 SPIN=   0.00000
   S  -0.2688174   0.1818854  -0.3520579 SPIN=   0.00000
   O   0.1656109   0.3609745   0.3598726 SPIN=   0.00000
   O   0.2497457   0.1020688   0.4762637 SPIN=   0.00000
   O   0.0729784   0.0874393   0.2641645 SPIN=   0.00000
   O   0.5869344   0.1770592   0.3079307 SPIN=   0.00000
   S   0.2688174   0.1818854   0.3520579 SPIN=   0.00000
   F  -0.2959943  -0.1050049   0.1644843 SPIN=   0.00000
   F   0.2959943  -0.1050049  -0.1644843 SPIN=   0.00000
   F  -0.2040057   0.3949951   0.1644843 SPIN=   0.00000
   F   0.2040057   0.3949951  -0.1644843 SPIN=   0.00000
%ENDBLOCK POSITIONS_FRAC

# Note: total spin =  16.00

KPOINTS_MP_SPACING 0.07

%BLOCK SPECIES_POT
QC5
%ENDBLOCK SPECIES_POT

SNAP_TO_SYMMETRY
SYMMETRY_GENERATE

