#              Generated by Buildcell
#
# at 08:02:43 (GMT+1.0) 18th August 2020
# in /lustre/scratch/uccabz1/launch_tmp
# on node-c12h-020
# by uccabz1
#
# compiler GCC version 4.9.2
# options -cpp -iprefix /lustre/shared/ucl/apps/gcc/4.9.2/bin/../lib/gcc/x86_64-unknown-linux-gnu/4.9.2/ -mtune=corei7 -march=x86-64 -g -Og
#
# seed   880262494   287856741  -797060881   950302434    70984843  1179680185 -2112646517  -191496019 -1527410437 -1488509035  -193328807  1480392309
#
#      Author: C. J. Pickard (cjp20@cam.ac.uk)
#                Space group: P21/c
#

%BLOCK LATTICE_ABC
      4.11622      5.61297     17.34441
     90.00000     90.00000     93.45716
%ENDBLOCK LATTICE_ABC

%BLOCK POSITIONS_FRAC
  Li  -0.3571088  -0.2414003  -0.0690653 SPIN=   0.00000
  Li   0.3571088  -0.2585997   0.4309347 SPIN=   0.00000
  Li   0.3571088   0.2414003   0.0690653 SPIN=   0.00000
  Li  -0.3571088   0.2585997  -0.4309347 SPIN=   0.00000
  Fe   0.2807253  -0.0847768  -0.3172166 SPIN=   4.00000
  Fe  -0.2807253  -0.4152232   0.1827834 SPIN=   4.00000
  Fe  -0.2807253   0.0847768   0.3172166 SPIN=   4.00000
  Fe   0.2807253   0.4152232  -0.1827834 SPIN=   4.00000
   O   0.5847320  -0.1626058   0.0390486 SPIN=   0.00000
   O   0.2162044  -0.4556125   0.1077516 SPIN=   0.00000
   O   0.0563165  -0.2979554  -0.0190711 SPIN=   0.00000
   O   0.0711410  -0.0356978   0.0957371 SPIN=   0.00000
   S   0.2320985  -0.2379679   0.0558665 SPIN=   0.00000
   O  -0.5847320  -0.3373942  -0.4609514 SPIN=   0.00000
   O  -0.2162044  -0.0443875  -0.3922484 SPIN=   0.00000
   O  -0.0563165  -0.2020446  -0.5190711 SPIN=   0.00000
   O  -0.0711410  -0.4643022  -0.4042629 SPIN=   0.00000
   S  -0.2320985  -0.2620321  -0.4441335 SPIN=   0.00000
   O  -0.5847320   0.1626058  -0.0390486 SPIN=   0.00000
   O  -0.2162044   0.4556125  -0.1077516 SPIN=   0.00000
   O  -0.0563165   0.2979554   0.0190711 SPIN=   0.00000
   O  -0.0711410   0.0356978  -0.0957371 SPIN=   0.00000
   S  -0.2320985   0.2379679  -0.0558665 SPIN=   0.00000
   O   0.5847320   0.3373942   0.4609514 SPIN=   0.00000
   O   0.2162044   0.0443875   0.3922484 SPIN=   0.00000
   O   0.0563165   0.2020446   0.5190711 SPIN=   0.00000
   O   0.0711410   0.4643022   0.4042629 SPIN=   0.00000
   S   0.2320985   0.2620321   0.4441335 SPIN=   0.00000
   F   0.3244259   0.2344537  -0.3380121 SPIN=   0.00000
   F  -0.3244259   0.2655463   0.1619879 SPIN=   0.00000
   F  -0.3244259  -0.2344537   0.3380121 SPIN=   0.00000
   F   0.3244259  -0.2655463  -0.1619879 SPIN=   0.00000
%ENDBLOCK POSITIONS_FRAC

# Note: total spin =  16.00

KPOINTS_MP_SPACING 0.07

%BLOCK SPECIES_POT
QC5
%ENDBLOCK SPECIES_POT

SNAP_TO_SYMMETRY
SYMMETRY_GENERATE

