#              Generated by Buildcell
#
# at 23:36:07 (GMT+1.0) 17th August 2020
# in /lustre/scratch/uccabz1/launch_tmp
# on node-c12k-020
# by uccabz1
#
# compiler GCC version 4.9.2
# options -cpp -iprefix /lustre/shared/ucl/apps/gcc/4.9.2/bin/../lib/gcc/x86_64-unknown-linux-gnu/4.9.2/ -mtune=corei7 -march=x86-64 -g -Og
#
# seed  -662937389  1707862459 -1574956008  -254836650    57432111 -1433477126 -1175567570   322877293  1437049995   588980932 -1180359945 -1092196868
#
#      Author: C. J. Pickard (cjp20@cam.ac.uk)
#                Space group: P42
#

%BLOCK LATTICE_ABC
      4.11879      9.85474      9.85474
     90.00000     90.00000     90.00000
%ENDBLOCK LATTICE_ABC

%BLOCK POSITIONS_FRAC
  Li   0.4038471  -0.2028000  -0.0606417 SPIN=   0.00000
  Li   0.4038471   0.2028000   0.0606417 SPIN=   0.00000
  Li  -0.0961529  -0.0606417   0.2028000 SPIN=   0.00000
  Li  -0.0961529   0.0606417  -0.2028000 SPIN=   0.00000
  Fe   0.4039644  -0.1025117  -0.3429499 SPIN=   4.00000
  Fe   0.4039644   0.1025117   0.3429499 SPIN=   4.00000
  Fe  -0.0960356  -0.3429499   0.1025117 SPIN=   4.00000
  Fe  -0.0960356   0.3429499  -0.1025117 SPIN=   4.00000
   O   0.5805952   0.5527691   0.3416195 SPIN=   0.00000
   O   0.6442759   0.4367389   0.1204916 SPIN=   0.00000
   O   0.1135472   0.4333195   0.2381948 SPIN=   0.00000
   O   0.5756049   0.3018932   0.3304006 SPIN=   0.00000
   S   0.4785058   0.4311802   0.2576766 SPIN=   0.00000
   O   0.5805952  -0.5527691  -0.3416195 SPIN=   0.00000
   O   0.6442759  -0.4367389  -0.1204916 SPIN=   0.00000
   O   0.1135472  -0.4333195  -0.2381948 SPIN=   0.00000
   O   0.5756049  -0.3018932  -0.3304006 SPIN=   0.00000
   S   0.4785058  -0.4311802  -0.2576766 SPIN=   0.00000
   O   0.0805952   0.3416195  -0.5527691 SPIN=   0.00000
   O   0.1442759   0.1204916  -0.4367389 SPIN=   0.00000
   O  -0.3864528   0.2381948  -0.4333195 SPIN=   0.00000
   O   0.0756049   0.3304006  -0.3018932 SPIN=   0.00000
   S  -0.0214942   0.2576766  -0.4311802 SPIN=   0.00000
   O   0.0805952  -0.3416195   0.5527691 SPIN=   0.00000
   O   0.1442759  -0.1204916   0.4367389 SPIN=   0.00000
   O  -0.3864528  -0.2381948   0.4333195 SPIN=   0.00000
   O   0.0756049  -0.3304006   0.3018932 SPIN=   0.00000
   S  -0.0214942  -0.2576766   0.4311802 SPIN=   0.00000
   F   0.4777886   0.2228915  -0.1274144 SPIN=   0.00000
   F   0.4777886  -0.2228915   0.1274144 SPIN=   0.00000
   F  -0.0222114  -0.1274144  -0.2228915 SPIN=   0.00000
   F  -0.0222114   0.1274144   0.2228915 SPIN=   0.00000
%ENDBLOCK POSITIONS_FRAC

# Note: total spin =  16.00

KPOINTS_MP_SPACING 0.07

%BLOCK SPECIES_POT
QC5
%ENDBLOCK SPECIES_POT

SNAP_TO_SYMMETRY
SYMMETRY_GENERATE

