#              Generated by Buildcell
#
# at 06:39:16 (GMT+1.0) 18th August 2020
# in /lustre/scratch/uccabz1/launch_tmp
# on node-c12j-016
# by uccabz1
#
# compiler GCC version 4.9.2
# options -cpp -iprefix /lustre/shared/ucl/apps/gcc/4.9.2/bin/../lib/gcc/x86_64-unknown-linux-gnu/4.9.2/ -mtune=corei7 -march=x86-64 -g -Og
#
# seed  -913307423 -1327140163  -249875941  -330613298 -1754619366     4912087   653160243  -695279745 -1573204474  -411779375  -108706491    25613547
#
#      Author: C. J. Pickard (cjp20@cam.ac.uk)
#                Space group: Pna21
#

%BLOCK LATTICE_ABC
      4.61151      9.00777      9.62941
     90.00000     90.00000     90.00000
%ENDBLOCK LATTICE_ABC

%BLOCK POSITIONS_FRAC
  Li  -0.1993844  -0.2359727   0.3843760 SPIN=   0.00000
  Li   0.1993844   0.2359727  -0.1156240 SPIN=   0.00000
  Li  -0.3006156   0.2640273   0.3843760 SPIN=   0.00000
  Li   0.3006156  -0.2640273  -0.1156240 SPIN=   0.00000
  Fe   0.1165741   0.1330135  -0.4134135 SPIN=   4.00000
  Fe  -0.1165741  -0.1330135   0.0865865 SPIN=   4.00000
  Fe   0.3834259  -0.3669865  -0.4134135 SPIN=   4.00000
  Fe  -0.3834259   0.3669865   0.0865865 SPIN=   4.00000
   O   0.1848039  -0.5696135   0.1595362 SPIN=   0.00000
   O   0.3715625  -0.4543571   0.3750163 SPIN=   0.00000
   O  -0.1479041  -0.5202563   0.3558428 SPIN=   0.00000
   O   0.0502395  -0.3112533   0.2186329 SPIN=   0.00000
   S   0.1146755  -0.4638701   0.2772570 SPIN=   0.00000
   O  -0.1848039   0.5696135  -0.3404638 SPIN=   0.00000
   O  -0.3715625   0.4543571  -0.1249837 SPIN=   0.00000
   O   0.1479041   0.5202563  -0.1441572 SPIN=   0.00000
   O  -0.0502395   0.3112533  -0.2813671 SPIN=   0.00000
   S  -0.1146755   0.4638701  -0.2227430 SPIN=   0.00000
   O   0.3151961  -0.0696135   0.1595362 SPIN=   0.00000
   O   0.1284375   0.0456429   0.3750163 SPIN=   0.00000
   O   0.6479041  -0.0202563   0.3558428 SPIN=   0.00000
   O   0.4497605   0.1887467   0.2186329 SPIN=   0.00000
   S   0.3853245   0.0361299   0.2772570 SPIN=   0.00000
   O  -0.3151961   0.0696135  -0.3404638 SPIN=   0.00000
   O  -0.1284375  -0.0456429  -0.1249837 SPIN=   0.00000
   O  -0.6479041   0.0202563  -0.1441572 SPIN=   0.00000
   O  -0.4497605  -0.1887467  -0.2813671 SPIN=   0.00000
   S  -0.3853245  -0.0361299  -0.2227430 SPIN=   0.00000
   F  -0.4036834  -0.3034628   0.0413561 SPIN=   0.00000
   F   0.4036834   0.3034628  -0.4586439 SPIN=   0.00000
   F  -0.0963166   0.1965372   0.0413561 SPIN=   0.00000
   F   0.0963166  -0.1965372  -0.4586439 SPIN=   0.00000
%ENDBLOCK POSITIONS_FRAC

# Note: total spin =  16.00

KPOINTS_MP_SPACING 0.07

%BLOCK SPECIES_POT
QC5
%ENDBLOCK SPECIES_POT

SNAP_TO_SYMMETRY
SYMMETRY_GENERATE

