#              Generated by Buildcell
#
# at 06:50:26 (GMT+1.0) 4th August 2020
# in /lustre/scratch/uccabz1/launch_tmp
# on node-c12l-019
# by uccabz1
#
# compiler GCC version 4.9.2
# options -cpp -iprefix /lustre/shared/ucl/apps/gcc/4.9.2/bin/../lib/gcc/x86_64-unknown-linux-gnu/4.9.2/ -mtune=corei7 -march=x86-64 -g -Og
#
# seed  -554554018  1158605174    10156217   203695950   171113083  -353119400   101478107 -1830445920  2049290623  1443373300 -1036841555 -1055450902
#
#      Author: C. J. Pickard (cjp20@cam.ac.uk)
#                Space group: Fdd2
#

%BLOCK LATTICE_ABC
      6.83890      6.83890     10.09134
    101.49669    101.49669    114.31799
%ENDBLOCK LATTICE_ABC

%BLOCK POSITIONS_FRAC
  Li   0.2880010   0.0961962  -0.4229807 SPIN=   0.00000
  Li  -0.4808231  -0.2890183   0.4229807 SPIN=   0.00000
  Li   0.4609817  -0.2308231  -0.0770193 SPIN=   0.00000
  Li  -0.1538038  -0.4619990   0.0770193 SPIN=   0.00000
  Fe  -0.1002705  -0.0539419   0.3219487 SPIN=   4.00000
  Fe  -0.3758906  -0.4222192  -0.3219487 SPIN=   4.00000
  Fe   0.3277808  -0.1258906   0.1780513 SPIN=   4.00000
  Fe  -0.3039419   0.1497295  -0.1780513 SPIN=   4.00000
   O   0.1247449   0.3825650  -0.4864654 SPIN=   0.00000
   O  -0.0279000   0.0777627  -0.3803466 SPIN=   0.00000
   O  -0.1095309   0.4007149  -0.3311826 SPIN=   0.00000
   O   0.2768645   0.4571086  -0.2273916 SPIN=   0.00000
   S   0.0660446   0.3295378  -0.3563466 SPIN=   0.00000
   O  -0.1309696   0.6112104   0.4864654 SPIN=   0.00000
   O  -0.5418907   0.3524466   0.3803466 SPIN=   0.00000
   O  -0.2681025   0.2216518   0.3311826 SPIN=   0.00000
   O  -0.3154998   0.5042561   0.2273916 SPIN=   0.00000
   S  -0.3141156   0.4223912   0.3563466 SPIN=   0.00000
   O   0.3612104   0.1190304  -0.0135346 SPIN=   0.00000
   O   0.1024466  -0.2918907  -0.1196534 SPIN=   0.00000
   O  -0.0283482  -0.0181025  -0.1688174 SPIN=   0.00000
   O   0.2542561  -0.0654998  -0.2726084 SPIN=   0.00000
   S   0.1723912  -0.0641156  -0.1436534 SPIN=   0.00000
   O   0.1325650   0.3747449   0.0135346 SPIN=   0.00000
   O  -0.1722373   0.2221000   0.1196534 SPIN=   0.00000
   O   0.1507149   0.1404691   0.1688174 SPIN=   0.00000
   O   0.2071086   0.5268645   0.2726084 SPIN=   0.00000
   S   0.0795378   0.3160446   0.1436534 SPIN=   0.00000
   F  -0.3360501   0.4413709  -0.1478747 SPIN=   0.00000
   F  -0.4107544  -0.1881754   0.1478747 SPIN=   0.00000
   F  -0.4381754  -0.1607544  -0.3521253 SPIN=   0.00000
   F   0.1913709  -0.0860501   0.3521253 SPIN=   0.00000
%ENDBLOCK POSITIONS_FRAC

# Note: total spin =  16.00

KPOINTS_MP_SPACING 0.07

%BLOCK SPECIES_POT
QC5
%ENDBLOCK SPECIES_POT

SNAP_TO_SYMMETRY
SYMMETRY_GENERATE

