#              Generated by Buildcell
#
# at 09:05:09 (GMT+1.0) 4th August 2020
# in /lustre/scratch/uccabz1/launch_tmp
# on node-c12g-009
# by uccabz1
#
# compiler GCC version 4.9.2
# options -cpp -iprefix /lustre/shared/ucl/apps/gcc/4.9.2/bin/../lib/gcc/x86_64-unknown-linux-gnu/4.9.2/ -mtune=corei7 -march=x86-64 -g -Og
#
# seed  1364578643  -803346335  1130430532   651946306  -326532230   775899339 -2114376219 -1872637192 -1423290588  -737942740   412779339 -1828882486
#
#      Author: C. J. Pickard (cjp20@cam.ac.uk)
#                Space group: P21/m
#

%BLOCK LATTICE_ABC
      3.83005      7.66833     13.71343
     90.00000     90.00000     96.71696
%ENDBLOCK LATTICE_ABC

%BLOCK POSITIONS_FRAC
  Li   0.0900808  -0.0623959  -0.3791997 SPIN=   0.00000
  Li  -0.0900808   0.0623959   0.1208003 SPIN=   0.00000
  Li  -0.0900808   0.0623959   0.3791997 SPIN=   0.00000
  Li   0.0900808  -0.0623959  -0.1208003 SPIN=   0.00000
  Fe  -0.7568005  -0.4266290  -0.1140676 SPIN=   4.00000
  Fe   0.7568005   0.4266290   0.3859324 SPIN=   4.00000
  Fe   0.7568005   0.4266290   0.1140676 SPIN=   4.00000
  Fe  -0.7568005  -0.4266290  -0.3859324 SPIN=   4.00000
   O  -0.5212263   0.1057625  -0.3315879 SPIN=   0.00000
   O  -0.1559757   0.1115234  -0.4806847 SPIN=   0.00000
   O   0.0564334   0.2877314  -0.3367782 SPIN=   0.00000
   O  -0.4405224   0.3729670  -0.4341756 SPIN=   0.00000
   S  -0.2653227   0.2194961  -0.3958066 SPIN=   0.00000
   O   0.5212263  -0.1057625   0.1684121 SPIN=   0.00000
   O   0.1559757  -0.1115234   0.0193153 SPIN=   0.00000
   O  -0.0564334  -0.2877314   0.1632218 SPIN=   0.00000
   O   0.4405224  -0.3729670   0.0658244 SPIN=   0.00000
   S   0.2653227  -0.2194961   0.1041934 SPIN=   0.00000
   O   0.5212263  -0.1057625   0.3315879 SPIN=   0.00000
   O   0.1559757  -0.1115234   0.4806847 SPIN=   0.00000
   O  -0.0564334  -0.2877314   0.3367782 SPIN=   0.00000
   O   0.4405224  -0.3729670   0.4341756 SPIN=   0.00000
   S   0.2653227  -0.2194961   0.3958066 SPIN=   0.00000
   O  -0.5212263   0.1057625  -0.1684121 SPIN=   0.00000
   O  -0.1559757   0.1115234  -0.0193153 SPIN=   0.00000
   O   0.0564334   0.2877314  -0.1632218 SPIN=   0.00000
   O  -0.4405224   0.3729670  -0.0658244 SPIN=   0.00000
   S  -0.2653227   0.2194961  -0.1041934 SPIN=   0.00000
   F   0.3080641   0.2691747   0.3885250 SPIN=   0.00000
   F  -0.3080641  -0.2691747  -0.1114750 SPIN=   0.00000
   F  -0.3080641  -0.2691747  -0.3885250 SPIN=   0.00000
   F   0.3080641   0.2691747   0.1114750 SPIN=   0.00000
%ENDBLOCK POSITIONS_FRAC

# Note: total spin =  16.00

KPOINTS_MP_SPACING 0.07

%BLOCK SPECIES_POT
QC5
%ENDBLOCK SPECIES_POT

SNAP_TO_SYMMETRY
SYMMETRY_GENERATE

