#              Generated by Buildcell
#
# at 15:01:54 (GMT+1.0) 18th August 2020
# in /lustre/scratch/uccabz1/launch_tmp
# on node-c12n-029
# by uccabz1
#
# compiler GCC version 4.9.2
# options -cpp -iprefix /lustre/shared/ucl/apps/gcc/4.9.2/bin/../lib/gcc/x86_64-unknown-linux-gnu/4.9.2/ -mtune=corei7 -march=x86-64 -g -Og
#
# seed -1960599427  1094808758  1589483980 -1125846448  -708679394  -188737371  1448355881  -870468001   196143523 -1791389004  1870065336   328381024
#
#      Author: C. J. Pickard (cjp20@cam.ac.uk)
#                Space group: P43
#

%BLOCK LATTICE_ABC
      6.58511      6.58511      9.22431
     90.00000     90.00000     90.00000
%ENDBLOCK LATTICE_ABC

%BLOCK POSITIONS_FRAC
  Li   0.4097775  -0.1558555   0.4184166 SPIN=   0.00000
  Li  -0.4097775   0.1558555  -0.0815834 SPIN=   0.00000
  Li  -0.1558555  -0.4097775  -0.3315834 SPIN=   0.00000
  Li   0.1558555   0.4097775   0.1684166 SPIN=   0.00000
  Fe   0.1274597   0.3445423  -0.1523694 SPIN=   4.00000
  Fe  -0.1274597  -0.3445423   0.3476306 SPIN=   4.00000
  Fe   0.3445423  -0.1274597   0.0976306 SPIN=   4.00000
  Fe  -0.3445423   0.1274597  -0.4023694 SPIN=   4.00000
   O  -0.1359724   0.3178512   0.1606615 SPIN=   0.00000
   O  -0.3625553   0.0190217   0.1430529 SPIN=   0.00000
   O  -0.5047509   0.3560560   0.2046114 SPIN=   0.00000
   O  -0.2906387   0.1731637   0.3823012 SPIN=   0.00000
   S  -0.3234793   0.2165232   0.2226567 SPIN=   0.00000
   O   0.1359724  -0.3178512  -0.3393385 SPIN=   0.00000
   O   0.3625553  -0.0190217  -0.3569471 SPIN=   0.00000
   O   0.5047509  -0.3560560  -0.2953886 SPIN=   0.00000
   O   0.2906387  -0.1731637  -0.1176988 SPIN=   0.00000
   S   0.3234793  -0.2165232  -0.2773433 SPIN=   0.00000
   O   0.3178512   0.1359724   0.4106615 SPIN=   0.00000
   O   0.0190217   0.3625553   0.3930529 SPIN=   0.00000
   O   0.3560560   0.5047509   0.4546114 SPIN=   0.00000
   O   0.1731637   0.2906387   0.6323012 SPIN=   0.00000
   S   0.2165232   0.3234793   0.4726567 SPIN=   0.00000
   O  -0.3178512  -0.1359724  -0.0893385 SPIN=   0.00000
   O  -0.0190217  -0.3625553  -0.1069471 SPIN=   0.00000
   O  -0.3560560  -0.5047509  -0.0453886 SPIN=   0.00000
   O  -0.1731637  -0.2906387   0.1323012 SPIN=   0.00000
   S  -0.2165232  -0.3234793  -0.0273433 SPIN=   0.00000
   F   0.1901279  -0.3016327   0.2115557 SPIN=   0.00000
   F  -0.1901279   0.3016327  -0.2884443 SPIN=   0.00000
   F  -0.3016327  -0.1901279   0.4615557 SPIN=   0.00000
   F   0.3016327   0.1901279  -0.0384443 SPIN=   0.00000
%ENDBLOCK POSITIONS_FRAC

# Note: total spin =  16.00

KPOINTS_MP_SPACING 0.07

%BLOCK SPECIES_POT
QC5
%ENDBLOCK SPECIES_POT

SNAP_TO_SYMMETRY
SYMMETRY_GENERATE

