#              Generated by Buildcell
#
# at 15:46:11 (GMT+1.0) 18th August 2020
# in /lustre/scratch/uccabz1/launch_tmp
# on node-c12l-008
# by uccabz1
#
# compiler GCC version 4.9.2
# options -cpp -iprefix /lustre/shared/ucl/apps/gcc/4.9.2/bin/../lib/gcc/x86_64-unknown-linux-gnu/4.9.2/ -mtune=corei7 -march=x86-64 -g -Og
#
# seed   460293106  1829867794  1881665057 -1728425166 -1995569112  1263371274   570875256 -1482067174 -1785242157  -251933621  2021391841  1025322605
#
#      Author: C. J. Pickard (cjp20@cam.ac.uk)
#                Space group: Pc
#

%BLOCK LATTICE_ABC
      4.45131      9.40313      9.58921
     94.73186     90.00000     90.00000
%ENDBLOCK LATTICE_ABC

%BLOCK POSITIONS_FRAC
  Li  -0.0306996   0.2325076   0.3475627 SPIN=   0.00000
  Li   0.0306996   0.2325076  -0.1524373 SPIN=   0.00000
  Li  -0.3862624  -0.1269272  -0.0839101 SPIN=   0.00000
  Li   0.3862624  -0.1269272   0.4160899 SPIN=   0.00000
  Fe   0.2996336  -0.2718950  -0.3256703 SPIN=   5.88442
  Fe  -0.2996336  -0.2718950   0.1743297 SPIN=   5.88442
  Fe  -0.4718399   0.4362507  -0.1056119 SPIN=   2.11558
  Fe   0.4718399   0.4362507   0.3943881 SPIN=   2.11558
   O  -0.0159344   0.4262771  -0.0235413 SPIN=   0.00000
   O   0.2542514   0.5124110   0.1926977 SPIN=   0.00000
   O   0.1321648   0.2559705   0.1475716 SPIN=   0.00000
   O  -0.2730722   0.4311217   0.2056302 SPIN=   0.00000
   S   0.0243524   0.4064451   0.1305895 SPIN=   0.00000
   O   0.0159344   0.4262771  -0.5235413 SPIN=   0.00000
   O  -0.2542514   0.5124110  -0.3073023 SPIN=   0.00000
   O  -0.1321648   0.2559705  -0.3524284 SPIN=   0.00000
   O   0.2730722   0.4311217  -0.2943698 SPIN=   0.00000
   S  -0.0243524   0.4064451  -0.3694105 SPIN=   0.00000
   O   0.0051467  -0.0110138  -0.0388093 SPIN=   0.00000
   O   0.2109211  -0.1990256   0.1000193 SPIN=   0.00000
   O   0.0167129   0.0255819   0.2196941 SPIN=   0.00000
   O   0.4904377   0.0266673   0.0846828 SPIN=   0.00000
   S   0.1808046  -0.0394475   0.0913967 SPIN=   0.00000
   O  -0.0051467  -0.0110138  -0.5388093 SPIN=   0.00000
   O  -0.2109211  -0.1990256  -0.3999807 SPIN=   0.00000
   O  -0.0167129   0.0255819  -0.2803059 SPIN=   0.00000
   O  -0.4904377   0.0266673  -0.4153172 SPIN=   0.00000
   S  -0.1808046  -0.0394475  -0.4086033 SPIN=   0.00000
   F  -0.3311124  -0.3236201  -0.0725598 SPIN=   0.00000
   F   0.3311124  -0.3236201   0.4274402 SPIN=   0.00000
   F  -0.4798289   0.2145402   0.3566449 SPIN=   0.00000
   F   0.4798289   0.2145402  -0.1433551 SPIN=   0.00000
%ENDBLOCK POSITIONS_FRAC

# Note: total spin =  16.00

KPOINTS_MP_SPACING 0.07

%BLOCK SPECIES_POT
QC5
%ENDBLOCK SPECIES_POT

SNAP_TO_SYMMETRY
SYMMETRY_GENERATE

