#              Generated by Buildcell
#
# at 08:29:01 (GMT+1.0) 4th August 2020
# in /lustre/scratch/uccabz1/launch_tmp
# on node-c12g-009
# by uccabz1
#
# compiler GCC version 4.9.2
# options -cpp -iprefix /lustre/shared/ucl/apps/gcc/4.9.2/bin/../lib/gcc/x86_64-unknown-linux-gnu/4.9.2/ -mtune=corei7 -march=x86-64 -g -Og
#
# seed   748098972  2110291957  -108018372  -744285223 -1452818012  1861145723  1223472365    13920356  -765989349  -745734031  1113914323   776744338
#
#      Author: C. J. Pickard (cjp20@cam.ac.uk)
#                Space group: P-1
#

%BLOCK LATTICE_ABC
      6.00323      8.25911      9.09569
    115.37960     90.43204     99.70883
%ENDBLOCK LATTICE_ABC

%BLOCK POSITIONS_FRAC
  Li  -0.2312311   0.0831292  -0.0401512 SPIN=   0.00000
  Li   0.2312311  -0.0831292   0.0401512 SPIN=   0.00000
  Li  -0.1569012   0.0396312   0.3597479 SPIN=   0.00000
  Li   0.1569012  -0.0396312  -0.3597479 SPIN=   0.00000
  Fe   0.3637569   0.7012159   0.2524712 SPIN=   3.35754
  Fe  -0.3637569  -0.7012159  -0.2524712 SPIN=   3.35754
  Fe   0.1820546  -0.4992025  -0.3373190 SPIN=   4.64246
  Fe  -0.1820546   0.4992025   0.3373190 SPIN=   4.64246
   O   0.4397028   0.3331290   0.4401568 SPIN=   0.00000
   O   0.1352405   0.1115392   0.2319522 SPIN=   0.00000
   O   0.2154886   0.0803399   0.4848948 SPIN=   0.00000
   O   0.4896651   0.0155331   0.2744810 SPIN=   0.00000
   S   0.3200242   0.1351353   0.3578712 SPIN=   0.00000
   O  -0.4397028  -0.3331290  -0.4401568 SPIN=   0.00000
   O  -0.1352405  -0.1115392  -0.2319522 SPIN=   0.00000
   O  -0.2154886  -0.0803399  -0.4848948 SPIN=   0.00000
   O  -0.4896651  -0.0155331  -0.2744810 SPIN=   0.00000
   S  -0.3200242  -0.1351353  -0.3578712 SPIN=   0.00000
   O  -0.3213552  -0.3591503   0.1560679 SPIN=   0.00000
   O   0.0834686  -0.2323782   0.1583744 SPIN=   0.00000
   O  -0.2153762  -0.0933592   0.0945142 SPIN=   0.00000
   O  -0.1577210  -0.3984647  -0.1033791 SPIN=   0.00000
   S  -0.1527459  -0.2708381   0.0763943 SPIN=   0.00000
   O   0.3213552   0.3591503  -0.1560679 SPIN=   0.00000
   O  -0.0834686   0.2323782  -0.1583744 SPIN=   0.00000
   O   0.2153762   0.0933592  -0.0945142 SPIN=   0.00000
   O   0.1577210   0.3984647   0.1033791 SPIN=   0.00000
   S   0.1527459   0.2708381  -0.0763943 SPIN=   0.00000
   F   0.3461167  -0.2742050  -0.1116381 SPIN=   0.00000
   F  -0.3461167   0.2742050   0.1116381 SPIN=   0.00000
   F  -0.1423810  -0.7121929  -0.4440904 SPIN=   0.00000
   F   0.1423810   0.7121929   0.4440904 SPIN=   0.00000
%ENDBLOCK POSITIONS_FRAC

# Note: total spin =  16.00

KPOINTS_MP_SPACING 0.07

%BLOCK SPECIES_POT
QC5
%ENDBLOCK SPECIES_POT

SNAP_TO_SYMMETRY
SYMMETRY_GENERATE

