#              Generated by Buildcell
#
# at 01:43:04 (GMT+1.0) 18th August 2020
# in /lustre/scratch/uccabz1/launch_tmp
# on node-c12n-023
# by uccabz1
#
# compiler GCC version 4.9.2
# options -cpp -iprefix /lustre/shared/ucl/apps/gcc/4.9.2/bin/../lib/gcc/x86_64-unknown-linux-gnu/4.9.2/ -mtune=corei7 -march=x86-64 -g -Og
#
# seed  1354164913   378134931  -621525158    88419039   664584461  -741780080  -235014202  -586854512 -2074181171  -278084213  1977665169   -29268698
#
#      Author: C. J. Pickard (cjp20@cam.ac.uk)
#                Space group: Iba2
#

%BLOCK LATTICE_ABC
      6.82757      8.60201      8.60201
     63.54705     66.61803     66.61803
%ENDBLOCK LATTICE_ABC

%BLOCK POSITIONS_FRAC
  Li  -0.0865140  -0.4153282   0.2192145 SPIN=   0.00000
  Li   0.2826277   0.2192145  -0.4153282 SPIN=   0.00000
  Li  -0.2173723   0.0846718  -0.2807855 SPIN=   0.00000
  Li   0.4134860  -0.2807855   0.0846718 SPIN=   0.00000
  Fe   0.0181872  -0.0181872  -0.0181872 SPIN=   4.90249
  Fe  -0.4818128   0.4818128   0.4818128 SPIN=   4.90249
  Fe   0.4290196   0.0709804   0.0709804 SPIN=   3.09751
  Fe  -0.0709804  -0.4290196  -0.4290196 SPIN=   3.09751
   O   0.1271430   0.0122429   0.2111721 SPIN=   0.00000
   O  -0.1165083   0.2602925   0.3292854 SPIN=   0.00000
   O   0.0751774  -0.0255300   0.5263491 SPIN=   0.00000
   S  -0.0366301   0.0574907   0.3758433 SPIN=   0.00000
   O  -0.3505579   0.2111721   0.0122429 SPIN=   0.00000
   O  -0.4730696   0.3292854   0.2602925 SPIN=   0.00000
   O  -0.5759966   0.5263491  -0.0255300 SPIN=   0.00000
   S  -0.3967038   0.3758433   0.0574907 SPIN=   0.00000
   O   0.1494421  -0.4877571  -0.2888279 SPIN=   0.00000
   O   0.0269304  -0.2397075  -0.1707146 SPIN=   0.00000
   O  -0.0759966  -0.5255300   0.0263491 SPIN=   0.00000
   S   0.1032962  -0.4425093  -0.1241567 SPIN=   0.00000
   O  -0.3728570  -0.2888279  -0.4877571 SPIN=   0.00000
   O  -0.6165083  -0.1707146  -0.2397075 SPIN=   0.00000
   O  -0.4248226   0.0263491  -0.5255300 SPIN=   0.00000
   S  -0.5366301  -0.1241567  -0.4425093 SPIN=   0.00000
   O  -0.4121597  -0.0878403  -0.0878403 SPIN=   0.00000
   O   0.0878403   0.4121597   0.4121597 SPIN=   0.00000
   O   0.2701391   0.2298609   0.2298609 SPIN=   0.00000
   O  -0.2298609  -0.2701391  -0.2701391 SPIN=   0.00000
   F   0.1909280   0.1409987  -0.1526091 SPIN=   0.00000
   F  -0.1793177  -0.1526091   0.1409987 SPIN=   0.00000
   F   0.3206823  -0.3590013   0.3473909 SPIN=   0.00000
   F  -0.3090720   0.3473909  -0.3590013 SPIN=   0.00000
%ENDBLOCK POSITIONS_FRAC

# Note: total spin =  16.00

KPOINTS_MP_SPACING 0.07

%BLOCK SPECIES_POT
QC5
%ENDBLOCK SPECIES_POT

SNAP_TO_SYMMETRY
SYMMETRY_GENERATE

