#              Generated by Buildcell
#
# at 08:44:35 (GMT+1.0) 18th August 2020
# in /lustre/scratch/uccabz1/launch_tmp
# on node-c12c-006
# by uccabz1
#
# compiler GCC version 4.9.2
# options -cpp -iprefix /lustre/shared/ucl/apps/gcc/4.9.2/bin/../lib/gcc/x86_64-unknown-linux-gnu/4.9.2/ -mtune=corei7 -march=x86-64 -g -Og
#
# seed  -657713042  1357664418  1624629776   428552075 -1703912429  1292211226   665229466  -608598305  1147753458 -1661131811 -2058283877 -1413876086
#
#      Author: C. J. Pickard (cjp20@cam.ac.uk)
#                Space group: P21/c
#

%BLOCK LATTICE_ABC
      6.39104      7.46678      8.70775
    105.71794     90.00000     90.00000
%ENDBLOCK LATTICE_ABC

%BLOCK POSITIONS_FRAC
  Li  -0.4023618  -0.2218418   0.1276707 SPIN=   0.00000
  Li   0.0976382  -0.2781582   0.3723293 SPIN=   0.00000
  Li   0.4023618   0.2218418  -0.1276707 SPIN=   0.00000
  Li  -0.0976382   0.2781582  -0.3723293 SPIN=   0.00000
  Fe   0.1617276  -0.3083817  -0.0294025 SPIN=   4.00000
  Fe  -0.3382724  -0.1916183  -0.4705975 SPIN=   4.00000
  Fe  -0.1617276   0.3083817   0.0294025 SPIN=   4.00000
  Fe   0.3382724   0.1916183   0.4705975 SPIN=   4.00000
   O   0.3344046  -0.2009349  -0.4388829 SPIN=   0.00000
   O   0.2739963  -0.0212381  -0.1587877 SPIN=   0.00000
   O  -0.0039363  -0.2268712  -0.3083259 SPIN=   0.00000
   O   0.0868620   0.0638526  -0.3777285 SPIN=   0.00000
   S   0.1728317  -0.0962979  -0.3209313 SPIN=   0.00000
   O  -0.1655954  -0.2990651  -0.0611171 SPIN=   0.00000
   O  -0.2260037  -0.4787619  -0.3412123 SPIN=   0.00000
   O  -0.5039363  -0.2731288  -0.1916741 SPIN=   0.00000
   O  -0.4131380  -0.5638526  -0.1222715 SPIN=   0.00000
   S  -0.3271683  -0.4037021  -0.1790687 SPIN=   0.00000
   O  -0.3344046   0.2009349   0.4388829 SPIN=   0.00000
   O  -0.2739963   0.0212381   0.1587877 SPIN=   0.00000
   O   0.0039363   0.2268712   0.3083259 SPIN=   0.00000
   O  -0.0868620  -0.0638526   0.3777285 SPIN=   0.00000
   S  -0.1728317   0.0962979   0.3209313 SPIN=   0.00000
   O   0.1655954   0.2990651   0.0611171 SPIN=   0.00000
   O   0.2260037   0.4787619   0.3412123 SPIN=   0.00000
   O   0.5039363   0.2731288   0.1916741 SPIN=   0.00000
   O   0.4131380   0.5638526   0.1222715 SPIN=   0.00000
   S   0.3271683   0.4037021   0.1790687 SPIN=   0.00000
   F   0.1815615   0.3933318  -0.3785057 SPIN=   0.00000
   F  -0.3184385   0.1066682  -0.1214943 SPIN=   0.00000
   F  -0.1815615  -0.3933318   0.3785057 SPIN=   0.00000
   F   0.3184385  -0.1066682   0.1214943 SPIN=   0.00000
%ENDBLOCK POSITIONS_FRAC

# Note: total spin =  16.00

KPOINTS_MP_SPACING 0.07

%BLOCK SPECIES_POT
QC5
%ENDBLOCK SPECIES_POT

SNAP_TO_SYMMETRY
SYMMETRY_GENERATE

