#              Generated by Buildcell
#
# at 15:57:34 (GMT+1.0) 18th August 2020
# in /scratch/scratch/uccabz1/launch_tmp
# on node-k10f-031
# by uccabz1
#
# compiler GCC version 4.9.2
# options -cpp -iprefix /scratch/UCL/applications/gcc/4.9.2/bin/../lib/gcc/x86_64-unknown-linux-gnu/4.9.2/ -mtune=corei7 -march=x86-64 -g -O2
#
# seed  1466566530 -1537377245 -2062672775   305301693  -907056963   780594506  1574023941   107353753 -1085074682  -456580793  -373134190  -934354669
#
#      Author: C. J. Pickard (cjp20@cam.ac.uk)
#                Space group: P21
#

%BLOCK LATTICE_ABC
      5.34704      7.34240     10.18896
     90.56721     90.00000     90.00000
%ENDBLOCK LATTICE_ABC

%BLOCK POSITIONS_FRAC
  Li   0.0922491   0.3193494  -0.0380450 SPIN=   0.00000
  Li  -0.4077509  -0.3193494   0.0380450 SPIN=   0.00000
  Li  -0.4074345   0.0699448  -0.2421090 SPIN=   0.00000
  Li   0.0925655  -0.0699448   0.2421090 SPIN=   0.00000
  Fe  -0.1552142   0.3241414  -0.4178192 SPIN=   1.84923
  Fe   0.3447858  -0.3241414   0.4178192 SPIN=   1.84923
  Fe   0.1662086  -0.0965922  -0.1079430 SPIN=   6.15077
  Fe  -0.3337914   0.0965922   0.1079430 SPIN=   6.15077
   O  -0.0319231  -0.1885723  -0.2677669 SPIN=   0.00000
   O   0.0229958  -0.2097242  -0.5086174 SPIN=   0.00000
   O  -0.3678976  -0.0823796  -0.4155242 SPIN=   0.00000
   O  -0.2785812  -0.4118831  -0.3972274 SPIN=   0.00000
   S  -0.1638515  -0.2231398  -0.3972840 SPIN=   0.00000
   O   0.4680769   0.1885723   0.2677669 SPIN=   0.00000
   O   0.5229958   0.2097242   0.5086174 SPIN=   0.00000
   O   0.1321024   0.0823796   0.4155242 SPIN=   0.00000
   O   0.2214188   0.4118831   0.3972274 SPIN=   0.00000
   S   0.3361485   0.2231398   0.3972840 SPIN=   0.00000
   O  -0.4907293   0.3430828  -0.2795403 SPIN=   0.00000
   O  -0.6756462   0.5342928  -0.1032540 SPIN=   0.00000
   O  -0.2157287   0.5111403  -0.1250228 SPIN=   0.00000
   O  -0.4602700   0.2467148  -0.0480175 SPIN=   0.00000
   S  -0.4605935   0.4088077  -0.1389586 SPIN=   0.00000
   O   0.0092707  -0.3430828   0.2795403 SPIN=   0.00000
   O  -0.1756462  -0.5342928   0.1032540 SPIN=   0.00000
   O   0.2842713  -0.5111403   0.1250228 SPIN=   0.00000
   O   0.0397300  -0.2467148   0.0480175 SPIN=   0.00000
   S   0.0394065  -0.4088077   0.1389586 SPIN=   0.00000
   F   0.0459671   0.1846332  -0.2779098 SPIN=   0.00000
   F  -0.4540329  -0.1846332   0.2779098 SPIN=   0.00000
   F   0.0496961   0.1300102   0.1060561 SPIN=   0.00000
   F  -0.4503039  -0.1300102  -0.1060561 SPIN=   0.00000
%ENDBLOCK POSITIONS_FRAC

# Note: total spin =  16.00

KPOINTS_MP_SPACING 0.07

%BLOCK SPECIES_POT
QC5
%ENDBLOCK SPECIES_POT

SNAP_TO_SYMMETRY
SYMMETRY_GENERATE

