#              Generated by Buildcell
#
# at 15:53:04 (GMT+1.0) 18th August 2020
# in /scratch/scratch/uccabz1/launch_tmp
# on node-k10h-020
# by uccabz1
#
# compiler GCC version 4.9.2
# options -cpp -iprefix /scratch/UCL/applications/gcc/4.9.2/bin/../lib/gcc/x86_64-unknown-linux-gnu/4.9.2/ -mtune=corei7 -march=x86-64 -g -O2
#
# seed  -720141860   847112107   385732251 -1632981116   170717438  -278882720  -735740105   798327061  -297829789   127931053 -1261677576  -242905247
#
#      Author: C. J. Pickard (cjp20@cam.ac.uk)
#                Space group: Aea2
#

%BLOCK LATTICE_ABC
      6.22827      8.01551      8.01551
     91.60012     90.00000     90.00000
%ENDBLOCK LATTICE_ABC

%BLOCK POSITIONS_FRAC
  Li   0.1964507   0.3016262   0.4574494 SPIN=   0.00000
  Li  -0.1964507  -0.4574494  -0.3016262 SPIN=   0.00000
  Li  -0.3035493   0.0425506   0.1983738 SPIN=   0.00000
  Li   0.3035493  -0.1983738  -0.0425506 SPIN=   0.00000
  Fe  -0.1056184  -0.1761941   0.4894869 SPIN=   4.00000
  Fe   0.1056184  -0.4894869   0.1761941 SPIN=   4.00000
  Fe   0.3943816   0.0105131  -0.3238059 SPIN=   4.00000
  Fe  -0.3943816   0.3238059  -0.0105131 SPIN=   4.00000
   O  -0.4838113   0.2842231  -0.5216531 SPIN=   0.00000
   O  -0.1802565   0.0851989  -0.5381014 SPIN=   0.00000
   O  -0.1946894   0.2994199  -0.3099653 SPIN=   0.00000
   O  -0.1217343   0.3826402  -0.5995308 SPIN=   0.00000
   S  -0.2451229   0.2628705  -0.4923126 SPIN=   0.00000
   O   0.4838113   0.5216531  -0.2842231 SPIN=   0.00000
   O   0.1802565   0.5381014  -0.0851989 SPIN=   0.00000
   O   0.1946894   0.3099653  -0.2994199 SPIN=   0.00000
   O   0.1217343   0.5995308  -0.3826402 SPIN=   0.00000
   S   0.2451229   0.4923126  -0.2628705 SPIN=   0.00000
   O   0.0161887   0.0216531   0.2157769 SPIN=   0.00000
   O   0.3197435   0.0381014   0.4148011 SPIN=   0.00000
   O   0.3053106  -0.1900347   0.2005801 SPIN=   0.00000
   O   0.3782657   0.0995308   0.1173598 SPIN=   0.00000
   S   0.2548771  -0.0076874   0.2371295 SPIN=   0.00000
   O  -0.0161887  -0.2157769  -0.0216531 SPIN=   0.00000
   O  -0.3197435  -0.4148011  -0.0381014 SPIN=   0.00000
   O  -0.3053106  -0.2005801   0.1900347 SPIN=   0.00000
   O  -0.3782657  -0.1173598  -0.0995308 SPIN=   0.00000
   S  -0.2548771  -0.2371295   0.0076874 SPIN=   0.00000
   F  -0.0715546   0.2861448   0.0352807 SPIN=   0.00000
   F   0.0715546  -0.0352807  -0.2861448 SPIN=   0.00000
   F   0.4284454   0.4647193   0.2138552 SPIN=   0.00000
   F  -0.4284454  -0.2138552  -0.4647193 SPIN=   0.00000
%ENDBLOCK POSITIONS_FRAC

# Note: total spin =  16.00

KPOINTS_MP_SPACING 0.07

%BLOCK SPECIES_POT
QC5
%ENDBLOCK SPECIES_POT

SNAP_TO_SYMMETRY
SYMMETRY_GENERATE

