#              Generated by Buildcell
#
# at 07:46:06 (GMT+1.0) 18th August 2020
# in /scratch/scratch/uccabz1/launch_tmp
# on node-k10d-009
# by uccabz1
#
# compiler GCC version 4.9.2
# options -cpp -iprefix /scratch/UCL/applications/gcc/4.9.2/bin/../lib/gcc/x86_64-unknown-linux-gnu/4.9.2/ -mtune=corei7 -march=x86-64 -g -O2
#
# seed   596829210  1805336207  -868928249  -608696503 -2100540690   702551615  -223642600   404752433  2110633335   392881430  2128924708   241802101
#
#      Author: C. J. Pickard (cjp20@cam.ac.uk)
#                Space group: Aea2
#

%BLOCK LATTICE_ABC
      6.72917      6.72917      9.22450
     90.00000     90.00000    106.74016
%ENDBLOCK LATTICE_ABC

%BLOCK POSITIONS_FRAC
  Li   0.2709922  -0.1570483   0.3162132 SPIN=   0.00000
  Li  -0.1570483   0.2709922  -0.3162132 SPIN=   0.00000
  Li   0.3429517  -0.2290078  -0.1837868 SPIN=   0.00000
  Li  -0.2290078   0.3429517   0.1837868 SPIN=   0.00000
  Fe   0.1914717   0.2436096   0.1987028 SPIN=   4.00000
  Fe   0.2436096   0.1914717  -0.1987028 SPIN=   4.00000
  Fe  -0.2563904  -0.3085283  -0.3012972 SPIN=   4.00000
  Fe  -0.3085283  -0.2563904   0.3012972 SPIN=   4.00000
   O  -0.1649856   0.2899731   0.4319720 SPIN=   0.00000
   O   0.1586421   0.4865111   0.5552161 SPIN=   0.00000
   O  -0.0965762   0.6662106   0.4772733 SPIN=   0.00000
   O   0.1097623   0.5433587   0.2941828 SPIN=   0.00000
   S   0.0017106   0.4965134   0.4396611 SPIN=   0.00000
   O   0.2899731  -0.1649856  -0.4319720 SPIN=   0.00000
   O   0.4865111   0.1586421  -0.5552161 SPIN=   0.00000
   O   0.6662106  -0.0965762  -0.4772733 SPIN=   0.00000
   O   0.5433587   0.1097623  -0.2941828 SPIN=   0.00000
   S   0.4965134   0.0017106  -0.4396611 SPIN=   0.00000
   O  -0.2100269  -0.6649856  -0.0680280 SPIN=   0.00000
   O  -0.0134889  -0.3413579   0.0552161 SPIN=   0.00000
   O   0.1662106  -0.5965762  -0.0227267 SPIN=   0.00000
   O   0.0433587  -0.3902377  -0.2058172 SPIN=   0.00000
   S  -0.0034866  -0.4982894  -0.0603389 SPIN=   0.00000
   O  -0.6649856  -0.2100269   0.0680280 SPIN=   0.00000
   O  -0.3413579  -0.0134889  -0.0552161 SPIN=   0.00000
   O  -0.5965762   0.1662106   0.0227267 SPIN=   0.00000
   O  -0.3902377   0.0433587   0.2058172 SPIN=   0.00000
   S  -0.4982894  -0.0034866   0.0603389 SPIN=   0.00000
   F  -0.0143071  -0.0310188   0.2306432 SPIN=   0.00000
   F  -0.0310188  -0.0143071  -0.2306432 SPIN=   0.00000
   F   0.4689812   0.4856929  -0.2693568 SPIN=   0.00000
   F   0.4856929   0.4689812   0.2693568 SPIN=   0.00000
%ENDBLOCK POSITIONS_FRAC

# Note: total spin =  16.00

KPOINTS_MP_SPACING 0.07

%BLOCK SPECIES_POT
QC5
%ENDBLOCK SPECIES_POT

SNAP_TO_SYMMETRY
SYMMETRY_GENERATE

