#              Generated by Buildcell
#
# at 07:26:54 (GMT+1.0) 4th August 2020
# in /lustre/scratch/uccabz1/launch_tmp
# on node-c12g-005
# by uccabz1
#
# compiler GCC version 4.9.2
# options -cpp -iprefix /lustre/shared/ucl/apps/gcc/4.9.2/bin/../lib/gcc/x86_64-unknown-linux-gnu/4.9.2/ -mtune=corei7 -march=x86-64 -g -Og
#
# seed -1536280426   190725877   509074784   316704251 -1566431152  1694034645 -2020064336 -1365363343  -934296852   921995465  -532305606 -1668833450
#
#      Author: C. J. Pickard (cjp20@cam.ac.uk)
#                Space group: P43
#

%BLOCK LATTICE_ABC
      5.02659      5.02659     15.83116
     90.00000     90.00000     90.00000
%ENDBLOCK LATTICE_ABC

%BLOCK POSITIONS_FRAC
  Li   0.2290969   0.2726269   0.0007760 SPIN=   0.00000
  Li  -0.2290969  -0.2726269  -0.4992240 SPIN=   0.00000
  Li   0.2726269  -0.2290969  -0.2492240 SPIN=   0.00000
  Li  -0.2726269   0.2290969   0.2507760 SPIN=   0.00000
  Fe  -0.2273744  -0.4770803  -0.3198461 SPIN=   4.00000
  Fe   0.2273744   0.4770803   0.1801539 SPIN=   4.00000
  Fe  -0.4770803   0.2273744   0.4301539 SPIN=   4.00000
  Fe   0.4770803  -0.2273744  -0.0698461 SPIN=   4.00000
   O  -0.1907078  -0.4732440   0.3872918 SPIN=   0.00000
   O  -0.1641631   0.0161624   0.3724280 SPIN=   0.00000
   O  -0.3572430  -0.2556790   0.2574039 SPIN=   0.00000
   O   0.1264990  -0.2733090   0.2859757 SPIN=   0.00000
   S  -0.1464037  -0.2465174   0.3257748 SPIN=   0.00000
   O   0.1907078   0.4732440  -0.1127082 SPIN=   0.00000
   O   0.1641631  -0.0161624  -0.1275720 SPIN=   0.00000
   O   0.3572430   0.2556790  -0.2425961 SPIN=   0.00000
   O  -0.1264990   0.2733090  -0.2140243 SPIN=   0.00000
   S   0.1464037   0.2465174  -0.1742252 SPIN=   0.00000
   O  -0.4732440   0.1907078   0.1372918 SPIN=   0.00000
   O   0.0161624   0.1641631   0.1224280 SPIN=   0.00000
   O  -0.2556790   0.3572430   0.0074039 SPIN=   0.00000
   O  -0.2733090  -0.1264990   0.0359757 SPIN=   0.00000
   S  -0.2465174   0.1464037   0.0757748 SPIN=   0.00000
   O   0.4732440  -0.1907078  -0.3627082 SPIN=   0.00000
   O  -0.0161624  -0.1641631  -0.3775720 SPIN=   0.00000
   O   0.2556790  -0.3572430  -0.4925961 SPIN=   0.00000
   O   0.2733090   0.1264990  -0.4640243 SPIN=   0.00000
   S   0.2465174  -0.1464037  -0.4242252 SPIN=   0.00000
   F   0.3552625   0.2267079   0.3058228 SPIN=   0.00000
   F  -0.3552625  -0.2267079  -0.1941772 SPIN=   0.00000
   F   0.2267079  -0.3552625   0.0558228 SPIN=   0.00000
   F  -0.2267079   0.3552625  -0.4441772 SPIN=   0.00000
%ENDBLOCK POSITIONS_FRAC

# Note: total spin =  16.00

KPOINTS_MP_SPACING 0.07

%BLOCK SPECIES_POT
QC5
%ENDBLOCK SPECIES_POT

SNAP_TO_SYMMETRY
SYMMETRY_GENERATE

