#              Generated by Buildcell
#
# at 10:08:19 (GMT+1.0) 18th August 2020
# in /lustre/scratch/uccabz1/launch_tmp
# on node-c12i-018
# by uccabz1
#
# compiler GCC version 4.9.2
# options -cpp -iprefix /lustre/shared/ucl/apps/gcc/4.9.2/bin/../lib/gcc/x86_64-unknown-linux-gnu/4.9.2/ -mtune=corei7 -march=x86-64 -g -Og
#
# seed  -421929091   830181397  -581460976  1404205348   243802978  -522905483   989019074  1158165131   781558720  1245885877  -822478666 -1139542248
#
#      Author: C. J. Pickard (cjp20@cam.ac.uk)
#                Space group: Pnn2
#

%BLOCK LATTICE_ABC
      4.46438      7.10641     12.60807
     90.00000     90.00000     90.00000
%ENDBLOCK LATTICE_ABC

%BLOCK POSITIONS_FRAC
  Li   0.1719451  -0.1663390  -0.3626174 SPIN=   0.00000
  Li   0.1719451   0.1663390   0.3626174 SPIN=   0.00000
  Li  -0.3280549  -0.3336610   0.1373826 SPIN=   0.00000
  Li  -0.3280549   0.3336610  -0.1373826 SPIN=   0.00000
  Fe  -0.3280931  -0.1286715   0.3750304 SPIN=   4.00000
  Fe  -0.3280931   0.1286715  -0.3750304 SPIN=   4.00000
  Fe   0.1719069  -0.3713285  -0.1249696 SPIN=   4.00000
  Fe   0.1719069   0.3713285   0.1249696 SPIN=   4.00000
   O  -0.0075107  -0.4324517  -0.2797750 SPIN=   0.00000
   O  -0.3296630  -0.3638069  -0.4347647 SPIN=   0.00000
   O  -0.4875750  -0.2638205  -0.2552421 SPIN=   0.00000
   O  -0.4876167  -0.6017150  -0.3027745 SPIN=   0.00000
   S  -0.3280914  -0.4154485  -0.3181391 SPIN=   0.00000
   O  -0.0075107   0.4324517   0.2797750 SPIN=   0.00000
   O  -0.3296630   0.3638069   0.4347647 SPIN=   0.00000
   O  -0.4875750   0.2638205   0.2552421 SPIN=   0.00000
   O  -0.4876167   0.6017150   0.3027745 SPIN=   0.00000
   S  -0.3280914   0.4154485   0.3181391 SPIN=   0.00000
   O   0.4924893  -0.0675483   0.2202250 SPIN=   0.00000
   O   0.1703370  -0.1361931   0.0652353 SPIN=   0.00000
   O   0.0124250  -0.2361795   0.2447579 SPIN=   0.00000
   O   0.0123833   0.1017150   0.1972255 SPIN=   0.00000
   S   0.1719086  -0.0845515   0.1818609 SPIN=   0.00000
   O   0.4924893   0.0675483  -0.2202250 SPIN=   0.00000
   O   0.1703370   0.1361931  -0.0652353 SPIN=   0.00000
   O   0.0124250   0.2361795  -0.2447579 SPIN=   0.00000
   O   0.0123833  -0.1017150  -0.1972255 SPIN=   0.00000
   S   0.1719086   0.0845515  -0.1818609 SPIN=   0.00000
   F  -0.3280987   0.2500897   0.0368224 SPIN=   0.00000
   F  -0.3280987  -0.2500897  -0.0368224 SPIN=   0.00000
   F   0.1719013   0.2499103  -0.4631776 SPIN=   0.00000
   F   0.1719013  -0.2499103   0.4631776 SPIN=   0.00000
%ENDBLOCK POSITIONS_FRAC

# Note: total spin =  16.00

KPOINTS_MP_SPACING 0.07

%BLOCK SPECIES_POT
QC5
%ENDBLOCK SPECIES_POT

SNAP_TO_SYMMETRY
SYMMETRY_GENERATE

