#              Generated by Buildcell
#
# at 12:35:30 (GMT+1.0) 18th August 2020
# in /lustre/scratch/uccabz1/launch_tmp
# on node-c12j-023
# by uccabz1
#
# compiler GCC version 4.9.2
# options -cpp -iprefix /lustre/shared/ucl/apps/gcc/4.9.2/bin/../lib/gcc/x86_64-unknown-linux-gnu/4.9.2/ -mtune=corei7 -march=x86-64 -g -Og
#
# seed -1548305113 -1303196001  2043572296 -1814256113 -1551880168  -354244921  1631833688 -1219235430 -1177191068 -1574397906   250218315  -575670935
#
#      Author: C. J. Pickard (cjp20@cam.ac.uk)
#                Space group: Pba2
#

%BLOCK LATTICE_ABC
      5.20482      8.41833      9.12910
     90.00000     90.00000     90.00000
%ENDBLOCK LATTICE_ABC

%BLOCK POSITIONS_FRAC
  Li  -0.2316487  -0.4799163   0.2833657 SPIN=   0.00000
  Li  -0.2316487   0.4799163  -0.2833657 SPIN=   0.00000
  Li  -0.2316487  -0.0200837  -0.2166343 SPIN=   0.00000
  Li  -0.2316487   0.0200837   0.2166343 SPIN=   0.00000
  Fe   0.2957168  -0.2206945  -0.2365347 SPIN=   4.00000
  Fe   0.2957168   0.2206945   0.2365347 SPIN=   4.00000
  Fe   0.2957168  -0.2793055   0.2634653 SPIN=   4.00000
  Fe   0.2957168   0.2793055  -0.2634653 SPIN=   4.00000
   O  -0.1557827   0.2375134   0.1519519 SPIN=   0.00000
   O  -0.4583028   0.2203403  -0.0566015 SPIN=   0.00000
   O  -0.0243192   0.1022116  -0.0767597 SPIN=   0.00000
   O  -0.0761717   0.3944125  -0.0727708 SPIN=   0.00000
   S  -0.1786441   0.2386194  -0.0135450 SPIN=   0.00000
   O  -0.1557827  -0.2375134  -0.1519519 SPIN=   0.00000
   O  -0.4583028  -0.2203403   0.0566015 SPIN=   0.00000
   O  -0.0243192  -0.1022116   0.0767597 SPIN=   0.00000
   O  -0.0761717  -0.3944125   0.0727708 SPIN=   0.00000
   S  -0.1786441  -0.2386194   0.0135450 SPIN=   0.00000
   O  -0.1557827   0.2624866   0.6519519 SPIN=   0.00000
   O  -0.4583028   0.2796597   0.4433985 SPIN=   0.00000
   O  -0.0243192   0.3977884   0.4232403 SPIN=   0.00000
   O  -0.0761717   0.1055875   0.4272292 SPIN=   0.00000
   S  -0.1786441   0.2613806   0.4864550 SPIN=   0.00000
   O  -0.1557827  -0.2624866  -0.6519519 SPIN=   0.00000
   O  -0.4583028  -0.2796597  -0.4433985 SPIN=   0.00000
   O  -0.0243192  -0.3977884  -0.4232403 SPIN=   0.00000
   O  -0.0761717  -0.1055875  -0.4272292 SPIN=   0.00000
   S  -0.1786441  -0.2613806  -0.4864550 SPIN=   0.00000
   F   0.3705119   0.0150997  -0.2849468 SPIN=   0.00000
   F   0.3705119  -0.0150997   0.2849468 SPIN=   0.00000
   F   0.3705119   0.4849003   0.2150532 SPIN=   0.00000
   F   0.3705119  -0.4849003  -0.2150532 SPIN=   0.00000
%ENDBLOCK POSITIONS_FRAC

# Note: total spin =  16.00

KPOINTS_MP_SPACING 0.07

%BLOCK SPECIES_POT
QC5
%ENDBLOCK SPECIES_POT

SNAP_TO_SYMMETRY
SYMMETRY_GENERATE

