#              Generated by Buildcell
#
# at 03:13:00 (GMT+1.0) 18th August 2020
# in /lustre/scratch/uccabz1/launch_tmp
# on node-c12i-030
# by uccabz1
#
# compiler GCC version 4.9.2
# options -cpp -iprefix /lustre/shared/ucl/apps/gcc/4.9.2/bin/../lib/gcc/x86_64-unknown-linux-gnu/4.9.2/ -mtune=corei7 -march=x86-64 -g -Og
#
# seed  -402671101 -1292850734    77117181  -593426734 -2116773810   578261789   584888252 -1040613385 -2026664378   693189721  -993630157  1159612041
#
#      Author: C. J. Pickard (cjp20@cam.ac.uk)
#                Space group: Cc
#

%BLOCK LATTICE_ABC
      5.43262      5.43262     13.69967
     84.06614     84.06614     89.23561
%ENDBLOCK LATTICE_ABC

%BLOCK POSITIONS_FRAC
  Li  -0.2435319  -0.4521069  -0.4698249 SPIN=   0.00000
  Li  -0.4521069  -0.2435319   0.0301751 SPIN=   0.00000
  Li  -0.3164950   0.0290491   0.3234228 SPIN=   0.00000
  Li   0.0290491  -0.3164950  -0.1765772 SPIN=   0.00000
  Fe   0.4349020  -0.4694849   0.3303599 SPIN=   4.58056
  Fe  -0.4694849   0.4349020  -0.1696401 SPIN=   4.58056
  Fe   0.0006855   0.0721630  -0.0321695 SPIN=   3.41944
  Fe   0.0721630   0.0006855   0.4678305 SPIN=   3.41944
   O   0.5996314   0.2220524  -0.0147980 SPIN=   0.00000
   O   0.3244315   0.4961012   0.0813324 SPIN=   0.00000
   O   0.6060781   0.2044086   0.1661613 SPIN=   0.00000
   O   0.2437438   0.0457601   0.0967056 SPIN=   0.00000
   S   0.4434712   0.2420806   0.0823504 SPIN=   0.00000
   O   0.2220524   0.5996314  -0.5147980 SPIN=   0.00000
   O   0.4961012   0.3244315  -0.4186676 SPIN=   0.00000
   O   0.2044086   0.6060781  -0.3338387 SPIN=   0.00000
   O   0.0457601   0.2437438  -0.4032944 SPIN=   0.00000
   S   0.2420806   0.4434712  -0.4176496 SPIN=   0.00000
   O  -0.3781783  -0.3754311   0.1883560 SPIN=   0.00000
   O  -0.0808911  -0.0576265   0.2187656 SPIN=   0.00000
   O  -0.0249537  -0.2586798   0.0638757 SPIN=   0.00000
   O   0.0477726  -0.4969227   0.2223074 SPIN=   0.00000
   S  -0.1090626  -0.2971650   0.1733262 SPIN=   0.00000
   O  -0.3754311  -0.3781783  -0.3116440 SPIN=   0.00000
   O  -0.0576265  -0.0808911  -0.2812344 SPIN=   0.00000
   O  -0.2586798  -0.0249537  -0.4361243 SPIN=   0.00000
   O  -0.4969227   0.0477726  -0.2776926 SPIN=   0.00000
   S  -0.2971650  -0.1090626  -0.3266738 SPIN=   0.00000
   F  -0.1851687   0.3746113   0.4119398 SPIN=   0.00000
   F   0.3746113  -0.1851687  -0.0880602 SPIN=   0.00000
   F  -0.0968384   0.3424823  -0.1852604 SPIN=   0.00000
   F   0.3424823  -0.0968384   0.3147396 SPIN=   0.00000
%ENDBLOCK POSITIONS_FRAC

# Note: total spin =  16.00

KPOINTS_MP_SPACING 0.07

%BLOCK SPECIES_POT
QC5
%ENDBLOCK SPECIES_POT

SNAP_TO_SYMMETRY
SYMMETRY_GENERATE

