#              Generated by Buildcell
#
# at 12:17:28 (GMT+1.0) 18th August 2020
# in /lustre/scratch/uccabz1/launch_tmp
# on node-c12m-012
# by uccabz1
#
# compiler GCC version 4.9.2
# options -cpp -iprefix /lustre/shared/ucl/apps/gcc/4.9.2/bin/../lib/gcc/x86_64-unknown-linux-gnu/4.9.2/ -mtune=corei7 -march=x86-64 -g -Og
#
# seed  -956997833  -623676647   423622711 -1474253277  -354777818  -541071952 -1907594437   938951853   343856594  1694034645   804300047  1501735299
#
#      Author: C. J. Pickard (cjp20@cam.ac.uk)
#                Space group: Cc
#

%BLOCK LATTICE_ABC
      5.50840      6.57978     12.28529
     97.66341     90.00000    114.74529
%ENDBLOCK LATTICE_ABC

%BLOCK POSITIONS_FRAC
  Li   0.3199538   0.2664615  -0.0116848 SPIN=   0.00000
  Li   0.4465077   0.2664615   0.4883152 SPIN=   0.00000
  Li   0.0829315   0.4814129  -0.2433615 SPIN=   0.00000
  Li  -0.1015185   0.4814129   0.2566385 SPIN=   0.00000
  Fe  -0.0943310   0.4771211   0.0014732 SPIN=   2.57143
  Fe   0.0714521   0.4771211  -0.4985268 SPIN=   2.57143
  Fe  -0.1791666  -0.0935706  -0.4297166 SPIN=   5.42857
  Fe  -0.4144040  -0.0935706   0.0702834 SPIN=   5.42857
   O  -0.3486699   0.1498405  -0.1695401 SPIN=   0.00000
   O  -0.5188570   0.3896323  -0.2541712 SPIN=   0.00000
   O  -0.6756154  -0.0150524  -0.3305485 SPIN=   0.00000
   O  -0.2102573   0.2551010  -0.3531713 SPIN=   0.00000
   S  -0.4383499   0.1948803  -0.2768578 SPIN=   0.00000
   O  -0.0014896   0.1498405   0.3304599 SPIN=   0.00000
   O   0.4084893   0.3896323   0.2458288 SPIN=   0.00000
   O   0.1605630  -0.0150524   0.1694515 SPIN=   0.00000
   O  -0.0346417   0.2551010   0.1468287 SPIN=   0.00000
   S   0.1332302   0.1948803   0.2231422 SPIN=   0.00000
   O  -0.2708852  -0.1400903  -0.2472346 SPIN=   0.00000
   O  -0.0485545   0.0384905  -0.0623132 SPIN=   0.00000
   O   0.1326652  -0.1828537  -0.1881773 SPIN=   0.00000
   O  -0.2964572  -0.3778589  -0.1037646 SPIN=   0.00000
   S  -0.1208079  -0.1655781  -0.1503724 SPIN=   0.00000
   O   0.6307949  -0.1400903   0.2527654 SPIN=   0.00000
   O   0.5870450   0.0384905   0.4376868 SPIN=   0.00000
   O   0.1844811  -0.1828537   0.3118227 SPIN=   0.00000
   O   0.4185984  -0.3778589   0.3962354 SPIN=   0.00000
   S   0.4552298  -0.1655781   0.3496276 SPIN=   0.00000
   F   0.1850544   0.4539102  -0.1009346 SPIN=   0.00000
   F  -0.2311442   0.4539102   0.3990654 SPIN=   0.00000
   F  -0.2433587  -0.4029396   0.1098581 SPIN=   0.00000
   F   0.3404191  -0.4029396  -0.3901419 SPIN=   0.00000
%ENDBLOCK POSITIONS_FRAC

# Note: total spin =  16.00

KPOINTS_MP_SPACING 0.07

%BLOCK SPECIES_POT
QC5
%ENDBLOCK SPECIES_POT

SNAP_TO_SYMMETRY
SYMMETRY_GENERATE

