#              Generated by Buildcell
#
# at 07:23:27 (GMT+1.0) 4th August 2020
# in /lustre/scratch/uccabz1/launch_tmp
# on node-c12f-019
# by uccabz1
#
# compiler GCC version 4.9.2
# options -cpp -iprefix /lustre/shared/ucl/apps/gcc/4.9.2/bin/../lib/gcc/x86_64-unknown-linux-gnu/4.9.2/ -mtune=corei7 -march=x86-64 -g -Og
#
# seed  1869555176  1692613080  1653083943   512989732 -1212684331  -723755207   974083776  -383724310   364773459 -1831845120   448843368   161469855
#
#      Author: C. J. Pickard (cjp20@cam.ac.uk)
#                Space group: Cc
#

%BLOCK LATTICE_ABC
      6.53191      8.06508      8.06508
     78.87971     77.43051     77.43051
%ENDBLOCK LATTICE_ABC

%BLOCK POSITIONS_FRAC
  Li  -0.3949976   0.0375381   0.3301082 SPIN=   0.00000
  Li   0.1050024   0.3301082   0.0375381 SPIN=   0.00000
  Li  -0.0322296   0.0712519  -0.3615516 SPIN=   0.00000
  Li   0.4677704  -0.3615516   0.0712519 SPIN=   0.00000
  Fe  -0.3532748   0.4003964  -0.3625831 SPIN=   3.48578
  Fe   0.1467252  -0.3625831   0.4003964 SPIN=   3.48578
  Fe  -0.0953355  -0.3241342  -0.1287670 SPIN=   4.51422
  Fe   0.4046645  -0.1287670  -0.3241342 SPIN=   4.51422
   O   0.2205482   0.3332605  -0.4984879 SPIN=   0.00000
   O  -0.0559495   0.3007317  -0.2365627 SPIN=   0.00000
   O   0.2376889   0.4516761  -0.2416762 SPIN=   0.00000
   O   0.3116613   0.1368495  -0.2380717 SPIN=   0.00000
   S   0.1784872   0.3056294  -0.3036996 SPIN=   0.00000
   O  -0.2794518  -0.4984879   0.3332605 SPIN=   0.00000
   O  -0.5559495  -0.2365627   0.3007317 SPIN=   0.00000
   O  -0.2623111  -0.2416762   0.4516761 SPIN=   0.00000
   O  -0.1883387  -0.2380717   0.1368495 SPIN=   0.00000
   S  -0.3215128  -0.3036996   0.3056294 SPIN=   0.00000
   O  -0.2111421   0.4585026   0.0244562 SPIN=   0.00000
   O  -0.4082124   0.2806394  -0.0781605 SPIN=   0.00000
   O  -0.4804223   0.3113784   0.2296838 SPIN=   0.00000
   O  -0.1382194   0.1419155   0.1028545 SPIN=   0.00000
   S  -0.3094990   0.2981090   0.0697085 SPIN=   0.00000
   O   0.2888579   0.0244562   0.4585026 SPIN=   0.00000
   O   0.0917876  -0.0781605   0.2806394 SPIN=   0.00000
   O   0.0195777   0.2296838   0.3113784 SPIN=   0.00000
   O   0.3617806   0.1028545   0.1419155 SPIN=   0.00000
   S   0.1905010   0.0697085   0.2981090 SPIN=   0.00000
   F   0.1721797  -0.4936329   0.1189716 SPIN=   0.00000
   F  -0.3278203   0.1189716  -0.4936329 SPIN=   0.00000
   F   0.0860860  -0.1538995  -0.2933908 SPIN=   0.00000
   F  -0.4139140  -0.2933908  -0.1538995 SPIN=   0.00000
%ENDBLOCK POSITIONS_FRAC

# Note: total spin =  16.00

KPOINTS_MP_SPACING 0.07

%BLOCK SPECIES_POT
QC5
%ENDBLOCK SPECIES_POT

SNAP_TO_SYMMETRY
SYMMETRY_GENERATE

