#              Generated by Buildcell
#
# at 06:38:30 (GMT+1.0) 4th August 2020
# in /lustre/scratch/uccabz1/launch_tmp
# on node-c12f-004
# by uccabz1
#
# compiler GCC version 4.9.2
# options -cpp -iprefix /lustre/shared/ucl/apps/gcc/4.9.2/bin/../lib/gcc/x86_64-unknown-linux-gnu/4.9.2/ -mtune=corei7 -march=x86-64 -g -Og
#
# seed -1724144627 -1385329092  -779180310  1982555820 -1983099006    17515292  1842591791    79752664  -366596800 -1371048066 -1904873923   440342461
#
#      Author: C. J. Pickard (cjp20@cam.ac.uk)
#                Space group: P-1
#

%BLOCK LATTICE_ABC
      5.52247      6.26899     12.03255
     95.15608     99.28471    101.27103
%ENDBLOCK LATTICE_ABC

%BLOCK POSITIONS_FRAC
  Li   0.3138744  -0.2728366   0.0440200 SPIN=   0.00000
  Li  -0.3138744   0.2728366  -0.0440200 SPIN=   0.00000
  Li  -0.2022115   0.0440648  -0.3782680 SPIN=   0.00000
  Li   0.2022115  -0.0440648   0.3782680 SPIN=   0.00000
  Fe   0.2014439   0.1425959   0.1463175 SPIN=   4.33092
  Fe  -0.2014439  -0.1425959  -0.1463175 SPIN=   4.33092
  Fe  -0.1783430  -0.4487667   0.1861036 SPIN=   3.66908
  Fe   0.1783430   0.4487667  -0.1861036 SPIN=   3.66908
   O  -0.5155263   0.3435093  -0.2392389 SPIN=   0.00000
   O  -0.5555577   0.3123991  -0.4482096 SPIN=   0.00000
   O  -0.1378618   0.3560039  -0.3267670 SPIN=   0.00000
   O  -0.3540496   0.6665608  -0.3308714 SPIN=   0.00000
   S  -0.3907488   0.4196183  -0.3362717 SPIN=   0.00000
   O   0.5155263  -0.3435093   0.2392389 SPIN=   0.00000
   O   0.5555577  -0.3123991   0.4482096 SPIN=   0.00000
   O   0.1378618  -0.3560039   0.3267670 SPIN=   0.00000
   O   0.3540496  -0.6665608   0.3308714 SPIN=   0.00000
   S   0.3907488  -0.4196183   0.3362717 SPIN=   0.00000
   O   0.4345393  -0.0489877  -0.4171750 SPIN=   0.00000
   O   0.1017351  -0.0331396  -0.3032936 SPIN=   0.00000
   O   0.1951344  -0.3907368  -0.3653795 SPIN=   0.00000
   O  -0.0120559  -0.1876472  -0.5059994 SPIN=   0.00000
   S   0.1798382  -0.1651278  -0.3979619 SPIN=   0.00000
   O  -0.4345393   0.0489877   0.4171750 SPIN=   0.00000
   O  -0.1017351   0.0331396   0.3032936 SPIN=   0.00000
   O  -0.1951344   0.3907368   0.3653795 SPIN=   0.00000
   O   0.0120559   0.1876472   0.5059994 SPIN=   0.00000
   S  -0.1798382   0.1651278   0.3979619 SPIN=   0.00000
   F   0.0129284  -0.1873937   0.1151188 SPIN=   0.00000
   F  -0.0129284   0.1873937  -0.1151188 SPIN=   0.00000
   F   0.4196161  -0.2582628  -0.1054558 SPIN=   0.00000
   F  -0.4196161   0.2582628   0.1054558 SPIN=   0.00000
%ENDBLOCK POSITIONS_FRAC

# Note: total spin =  16.00

KPOINTS_MP_SPACING 0.07

%BLOCK SPECIES_POT
QC5
%ENDBLOCK SPECIES_POT

SNAP_TO_SYMMETRY
SYMMETRY_GENERATE

