#              Generated by Buildcell
#
# at 06:39:22 (GMT+1.0) 4th August 2020
# in /lustre/scratch/uccabz1/launch_tmp
# on node-c12p-018
# by uccabz1
#
# compiler GCC version 4.9.2
# options -cpp -iprefix /lustre/shared/ucl/apps/gcc/4.9.2/bin/../lib/gcc/x86_64-unknown-linux-gnu/4.9.2/ -mtune=corei7 -march=x86-64 -g -Og
#
# seed  2059437997   894742539   554579324  -900298175 -1071765176   -94969363  -856186711   401873285   170096899   937166389 -2132486331  1851172067
#
#      Author: C. J. Pickard (cjp20@cam.ac.uk)
#                Space group: P-1
#

%BLOCK LATTICE_ABC
      7.25263      7.25550      8.48700
     79.54827     70.16393     72.96704
%ENDBLOCK LATTICE_ABC

%BLOCK POSITIONS_FRAC
  Li   0.2302429  -0.3730408  -0.4962749 SPIN=   0.00000
  Li  -0.2302429   0.3730408   0.4962749 SPIN=   0.00000
  Li   0.4772850  -0.2105866  -0.2399330 SPIN=   0.00000
  Li  -0.4772850   0.2105866   0.2399330 SPIN=   0.00000
  Fe  -0.1731878   0.4617896  -0.1932753 SPIN=   3.92293
  Fe   0.1731878  -0.4617896   0.1932753 SPIN=   3.92293
  Fe   0.3796011   0.3391074  -0.2352378 SPIN=   4.07707
  Fe  -0.3796011  -0.3391074   0.2352378 SPIN=   4.07707
   O  -0.3319071  -0.0100997   0.4577484 SPIN=   0.00000
   O  -0.2100697  -0.2287006   0.6814227 SPIN=   0.00000
   O   0.0354829  -0.1243499   0.4216563 SPIN=   0.00000
   O  -0.1546920  -0.3527390   0.4116519 SPIN=   0.00000
   S  -0.1652965  -0.1789723   0.4931198 SPIN=   0.00000
   O   0.3319071   0.0100997  -0.4577484 SPIN=   0.00000
   O   0.2100697   0.2287006  -0.6814227 SPIN=   0.00000
   O  -0.0354829   0.1243499  -0.4216563 SPIN=   0.00000
   O   0.1546920   0.3527390  -0.4116519 SPIN=   0.00000
   S   0.1652965   0.1789723  -0.4931198 SPIN=   0.00000
   O  -0.1096888  -0.0109723  -0.0601118 SPIN=   0.00000
   O  -0.0939492  -0.3550911  -0.0661605 SPIN=   0.00000
   O   0.2103554  -0.2610040  -0.0727536 SPIN=   0.00000
   O   0.0846699  -0.1742405  -0.3203057 SPIN=   0.00000
   S   0.0228468  -0.2003269  -0.1298329 SPIN=   0.00000
   O   0.1096888   0.0109723   0.0601118 SPIN=   0.00000
   O   0.0939492   0.3550911   0.0661605 SPIN=   0.00000
   O  -0.2103554   0.2610040   0.0727536 SPIN=   0.00000
   O  -0.0846699   0.1742405   0.3203057 SPIN=   0.00000
   S  -0.0228468   0.2003269   0.1298329 SPIN=   0.00000
   F   0.4429274   0.4883430   0.2314261 SPIN=   0.00000
   F  -0.4429274  -0.4883430  -0.2314261 SPIN=   0.00000
   F  -0.4206807  -0.0513122   0.1924129 SPIN=   0.00000
   F   0.4206807   0.0513122  -0.1924129 SPIN=   0.00000
%ENDBLOCK POSITIONS_FRAC

# Note: total spin =  16.00

KPOINTS_MP_SPACING 0.07

%BLOCK SPECIES_POT
QC5
%ENDBLOCK SPECIES_POT

SNAP_TO_SYMMETRY
SYMMETRY_GENERATE

