#              Generated by Buildcell
#
# at 07:23:44 (GMT+1.0) 4th August 2020
# in /lustre/scratch/uccabz1/launch_tmp
# on node-c12e-020
# by uccabz1
#
# compiler GCC version 4.9.2
# options -cpp -iprefix /lustre/shared/ucl/apps/gcc/4.9.2/bin/../lib/gcc/x86_64-unknown-linux-gnu/4.9.2/ -mtune=corei7 -march=x86-64 -g -Og
#
# seed  -438168764  1471759647   175249969  -435521837  -404446306   376528700   407772458   254127718   326881120  1658796812  1279720431  1282390761
#
#      Author: C. J. Pickard (cjp20@cam.ac.uk)
#                Space group: Pna21
#

%BLOCK LATTICE_ABC
      7.01746      7.06774      8.06491
     90.00000     90.00000     90.00000
%ENDBLOCK LATTICE_ABC

%BLOCK POSITIONS_FRAC
  Li   0.1057853   0.1501791  -0.3502346 SPIN=   0.00000
  Li  -0.3942147  -0.1501791   0.3502346 SPIN=   0.00000
  Li   0.1057853  -0.3498209  -0.1497654 SPIN=   0.00000
  Li  -0.3942147   0.3498209   0.1497654 SPIN=   0.00000
  Fe   0.3319856   0.0858942   0.0086914 SPIN=   4.00000
  Fe  -0.1680144  -0.0858942  -0.0086914 SPIN=   4.00000
  Fe   0.3319856  -0.4141058   0.4913086 SPIN=   4.00000
  Fe  -0.1680144   0.4141058  -0.4913086 SPIN=   4.00000
   O   0.0907364  -0.1318350   0.1799857 SPIN=   0.00000
   O   0.0111965  -0.2101414   0.4709659 SPIN=   0.00000
   O  -0.0894628   0.0966376   0.3517254 SPIN=   0.00000
   O   0.2514869   0.0365009   0.4098587 SPIN=   0.00000
   S   0.0659893  -0.0522095   0.3531339 SPIN=   0.00000
   O  -0.4092636   0.1318350  -0.1799857 SPIN=   0.00000
   O  -0.4888035   0.2101414  -0.4709659 SPIN=   0.00000
   O  -0.5894628  -0.0966376  -0.3517254 SPIN=   0.00000
   O  -0.2485131  -0.0365009  -0.4098587 SPIN=   0.00000
   S  -0.4340107   0.0522095  -0.3531339 SPIN=   0.00000
   O   0.0907364   0.3681650   0.3200143 SPIN=   0.00000
   O   0.0111965   0.2898586   0.0290341 SPIN=   0.00000
   O  -0.0894628   0.5966376   0.1482746 SPIN=   0.00000
   O   0.2514869   0.5365009   0.0901413 SPIN=   0.00000
   S   0.0659893   0.4477905   0.1468661 SPIN=   0.00000
   O  -0.4092636  -0.3681650  -0.3200143 SPIN=   0.00000
   O  -0.4888035  -0.2898586  -0.0290341 SPIN=   0.00000
   O  -0.5894628  -0.5966376  -0.1482746 SPIN=   0.00000
   O  -0.2485131  -0.5365009  -0.0901413 SPIN=   0.00000
   S  -0.4340107  -0.4477905  -0.1468661 SPIN=   0.00000
   F  -0.4077937   0.0171228   0.1375147 SPIN=   0.00000
   F   0.0922063  -0.0171228  -0.1375147 SPIN=   0.00000
   F  -0.4077937  -0.4828772   0.3624853 SPIN=   0.00000
   F   0.0922063   0.4828772  -0.3624853 SPIN=   0.00000
%ENDBLOCK POSITIONS_FRAC

# Note: total spin =  16.00

KPOINTS_MP_SPACING 0.07

%BLOCK SPECIES_POT
QC5
%ENDBLOCK SPECIES_POT

SNAP_TO_SYMMETRY
SYMMETRY_GENERATE

