#              Generated by Buildcell
#
# at 23:19:08 (GMT+1.0) 17th August 2020
# in /lustre/scratch/uccabz1/launch_tmp
# on node-c12h-024
# by uccabz1
#
# compiler GCC version 4.9.2
# options -cpp -iprefix /lustre/shared/ucl/apps/gcc/4.9.2/bin/../lib/gcc/x86_64-unknown-linux-gnu/4.9.2/ -mtune=corei7 -march=x86-64 -g -Og
#
# seed   697775737   309253102  -717222407  -641134457 -1377374584  2074233012   408519659 -1920567643   191236937   638229323  -276623707  1962135329
#
#      Author: C. J. Pickard (cjp20@cam.ac.uk)
#                Space group: Fdd2
#

%BLOCK LATTICE_ABC
      7.97773      7.97773      8.33283
    116.60483    116.60483     93.69606
%ENDBLOCK LATTICE_ABC

%BLOCK POSITIONS_FRAC
  Li   0.4206009   0.3718347   0.1403024 SPIN=   0.00000
  Li  -0.3718347  -0.4206009  -0.1403024 SPIN=   0.00000
  Li   0.0184678   0.4697016  -0.3596976 SPIN=   0.00000
  Li  -0.4697016  -0.0184678   0.3596976 SPIN=   0.00000
  Fe   0.3107970   0.2857564   0.4170295 SPIN=   4.00000
  Fe  -0.2857564  -0.3107970  -0.4170295 SPIN=   4.00000
  Fe   0.3812731  -0.1437675  -0.0829705 SPIN=   4.00000
  Fe   0.1437675  -0.3812731   0.0829705 SPIN=   4.00000
   O   0.2247678   0.0355579  -0.4651584 SPIN=   0.00000
   O   0.4746950  -0.0979455  -0.3004830 SPIN=   0.00000
   O   0.4869310   0.2443251  -0.0829645 SPIN=   0.00000
   O   0.5737567   0.1645902  -0.3531725 SPIN=   0.00000
   S   0.4400377   0.0866320  -0.3004446 SPIN=   0.00000
   O  -0.0355579  -0.2247678   0.4651584 SPIN=   0.00000
   O   0.0979455  -0.4746950   0.3004830 SPIN=   0.00000
   O  -0.2443251  -0.4869310   0.0829645 SPIN=   0.00000
   O  -0.1645902  -0.5737567   0.3531725 SPIN=   0.00000
   S  -0.0866320  -0.4400377   0.3004446 SPIN=   0.00000
   O  -0.2507163   0.0600738   0.0348416 SPIN=   0.00000
   O   0.0474625  -0.0251780   0.1995170 SPIN=   0.00000
   O  -0.0772896   0.1801045   0.4170355 SPIN=   0.00000
   O  -0.2677627  -0.1769292   0.1468275 SPIN=   0.00000
   S  -0.1370765   0.0095178   0.1995554 SPIN=   0.00000
   O  -0.0600738   0.2507163  -0.0348416 SPIN=   0.00000
   O   0.0251780  -0.0474625  -0.1995170 SPIN=   0.00000
   O  -0.1801045   0.0772896  -0.4170355 SPIN=   0.00000
   O   0.1769292   0.2677627  -0.1468275 SPIN=   0.00000
   S  -0.0095178   0.1370765  -0.1995554 SPIN=   0.00000
   F  -0.1307490  -0.4292978  -0.2239650 SPIN=   0.00000
   F   0.4292978   0.1307490   0.2239650 SPIN=   0.00000
   F   0.4553328  -0.3432160   0.2760350 SPIN=   0.00000
   F   0.3432160  -0.4553328  -0.2760350 SPIN=   0.00000
%ENDBLOCK POSITIONS_FRAC

# Note: total spin =  16.00

KPOINTS_MP_SPACING 0.07

%BLOCK SPECIES_POT
QC5
%ENDBLOCK SPECIES_POT

SNAP_TO_SYMMETRY
SYMMETRY_GENERATE

