#              Generated by Buildcell
#
# at 14:15:17 (GMT+1.0) 18th August 2020
# in /lustre/scratch/uccabz1/launch_tmp
# on node-c12j-022
# by uccabz1
#
# compiler GCC version 4.9.2
# options -cpp -iprefix /lustre/shared/ucl/apps/gcc/4.9.2/bin/../lib/gcc/x86_64-unknown-linux-gnu/4.9.2/ -mtune=corei7 -march=x86-64 -g -Og
#
# seed  2026835326 -1059146032  -619967099   -75800471 -1438252568  1846336017 -1619735771  2014219727 -1652625883  -125585714 -2113342506   804671933
#
#      Author: C. J. Pickard (cjp20@cam.ac.uk)
#                Space group: I-4
#

%BLOCK LATTICE_ABC
      8.09355      8.09355      8.09355
    105.04481    105.04481    118.74102
%ENDBLOCK LATTICE_ABC

%BLOCK POSITIONS_FRAC
  Li   0.1873254  -0.0858574  -0.1768591 SPIN=   0.00000
  Li   0.0910016   0.3641845   0.1768591 SPIN=   0.00000
  Li  -0.3641845  -0.1873254  -0.2731828 SPIN=   0.00000
  Li   0.0858574  -0.0910016   0.2731828 SPIN=   0.00000
  Fe  -0.0611655  -0.4288994  -0.0939816 SPIN=   4.00000
  Fe  -0.3349178   0.0328161   0.0939816 SPIN=   4.00000
  Fe  -0.0328161   0.0611655  -0.3677339 SPIN=   4.00000
  Fe   0.4288994   0.3349178   0.3677339 SPIN=   4.00000
   O  -0.6634989  -0.2214967  -0.2945896 SPIN=   0.00000
   O  -0.6353087  -0.3937249  -0.0874891 SPIN=   0.00000
   O  -0.6895277  -0.5508646  -0.4199753 SPIN=   0.00000
   O  -0.9792749  -0.5612008  -0.3622565 SPIN=   0.00000
   S  -0.7419025  -0.4318218  -0.2910776 SPIN=   0.00000
   O   0.0730929  -0.3689093   0.2945896 SPIN=   0.00000
   O  -0.3062358  -0.5478196   0.0874891 SPIN=   0.00000
   O  -0.1308893  -0.2695523   0.4199753 SPIN=   0.00000
   O  -0.1989443  -0.6170184   0.3622565 SPIN=   0.00000
   S  -0.1407441  -0.4508249   0.2910776 SPIN=   0.00000
   O  -0.6310907  -0.3365011   0.4420022 SPIN=   0.00000
   O  -0.4521804  -0.3646913   0.2415838 SPIN=   0.00000
   O  -0.7304477  -0.3104723   0.1386630 SPIN=   0.00000
   O  -0.3829816  -0.0207251   0.4180741 SPIN=   0.00000
   S  -0.5491751  -0.2580975   0.3100808 SPIN=   0.00000
   O   0.2214967  -0.0730929  -0.4420022 SPIN=   0.00000
   O   0.3937249   0.3062358  -0.2415838 SPIN=   0.00000
   O   0.5508646   0.1308893  -0.1386630 SPIN=   0.00000
   O   0.5612008   0.1989443  -0.4180741 SPIN=   0.00000
   S   0.4318218   0.1407441  -0.3100808 SPIN=   0.00000
   F  -0.0481422   0.0474032   0.3069758 SPIN=   0.00000
   F  -0.2595726  -0.3551180  -0.3069758 SPIN=   0.00000
   F   0.3551180   0.0481422   0.0955454 SPIN=   0.00000
   F  -0.0474032   0.2595726  -0.0955454 SPIN=   0.00000
%ENDBLOCK POSITIONS_FRAC

# Note: total spin =  16.00

KPOINTS_MP_SPACING 0.07

%BLOCK SPECIES_POT
QC5
%ENDBLOCK SPECIES_POT

SNAP_TO_SYMMETRY
SYMMETRY_GENERATE

