#              Generated by Buildcell
#
# at 08:31:15 (GMT+1.0) 4th August 2020
# in /lustre/scratch/uccabz1/launch_tmp
# on node-c12h-015
# by uccabz1
#
# compiler GCC version 4.9.2
# options -cpp -iprefix /lustre/shared/ucl/apps/gcc/4.9.2/bin/../lib/gcc/x86_64-unknown-linux-gnu/4.9.2/ -mtune=corei7 -march=x86-64 -g -Og
#
# seed -2102793790  -501154428  1253886700  1420003608  2010254832   409508190  1141194918  1729111747 -1229120012  -365614251  -325043162  1055956538
#
#      Author: C. J. Pickard (cjp20@cam.ac.uk)
#                Space group: P-1
#

%BLOCK LATTICE_ABC
      4.12316      9.18521     11.52060
     67.70266     84.15410     83.08680
%ENDBLOCK LATTICE_ABC

%BLOCK POSITIONS_FRAC
  Li  -0.1993759  -0.1999085   0.4295601 SPIN=   0.00000
  Li   0.1993759   0.1999085  -0.4295601 SPIN=   0.00000
  Li   0.1168978  -0.4833083  -0.1557213 SPIN=   0.00000
  Li  -0.1168978   0.4833083   0.1557213 SPIN=   0.00000
  Fe   0.3672420  -0.3007253   0.0074658 SPIN=   3.04929
  Fe  -0.3672420   0.3007253  -0.0074658 SPIN=   3.04929
  Fe  -0.2280595  -0.0598961  -0.3378379 SPIN=   4.95071
  Fe   0.2280595   0.0598961   0.3378379 SPIN=   4.95071
   O   0.4008051  -0.0626104  -0.0607243 SPIN=   0.00000
   O   0.5488694   0.1912666  -0.2238105 SPIN=   0.00000
   O   0.0424764   0.1827388  -0.0870050 SPIN=   0.00000
   O   0.0780205   0.0643665  -0.2488590 SPIN=   0.00000
   S   0.2675429   0.0939404  -0.1550997 SPIN=   0.00000
   O  -0.4008051   0.0626104   0.0607243 SPIN=   0.00000
   O  -0.5488694  -0.1912666   0.2238105 SPIN=   0.00000
   O  -0.0424764  -0.1827388   0.0870050 SPIN=   0.00000
   O  -0.0780205  -0.0643665   0.2488590 SPIN=   0.00000
   S  -0.2675429  -0.0939404   0.1550997 SPIN=   0.00000
   O  -0.0749724   0.6251111  -0.3166760 SPIN=   0.00000
   O   0.0015856   0.3479639  -0.3034363 SPIN=   0.00000
   O  -0.2693515   0.5547806  -0.4833275 SPIN=   0.00000
   O  -0.5531234   0.4687839  -0.2715314 SPIN=   0.00000
   S  -0.2239654   0.4991599  -0.3437428 SPIN=   0.00000
   O   0.0749724  -0.6251111   0.3166760 SPIN=   0.00000
   O  -0.0015856  -0.3479639   0.3034363 SPIN=   0.00000
   O   0.2693515  -0.5547806   0.4833275 SPIN=   0.00000
   O   0.5531234  -0.4687839   0.2715314 SPIN=   0.00000
   S   0.2239654  -0.4991599   0.3437428 SPIN=   0.00000
   F   0.3403710  -0.2888224  -0.1694245 SPIN=   0.00000
   F  -0.3403710   0.2888224   0.1694245 SPIN=   0.00000
   F   0.3033196  -0.1627158   0.4631521 SPIN=   0.00000
   F  -0.3033196   0.1627158  -0.4631521 SPIN=   0.00000
%ENDBLOCK POSITIONS_FRAC

# Note: total spin =  16.00

KPOINTS_MP_SPACING 0.07

%BLOCK SPECIES_POT
QC5
%ENDBLOCK SPECIES_POT

SNAP_TO_SYMMETRY
SYMMETRY_GENERATE

