#              Generated by Buildcell
#
# at 08:47:35 (GMT+1.0) 4th August 2020
# in /lustre/scratch/uccabz1/launch_tmp
# on node-c12l-022
# by uccabz1
#
# compiler GCC version 4.9.2
# options -cpp -iprefix /lustre/shared/ucl/apps/gcc/4.9.2/bin/../lib/gcc/x86_64-unknown-linux-gnu/4.9.2/ -mtune=corei7 -march=x86-64 -g -Og
#
# seed  1641491073 -1250562916 -1630211660  1440248392   292285556 -1578207211   608048481 -1167750888 -1786918360  -503446864    63111504  -649678105
#
#      Author: C. J. Pickard (cjp20@cam.ac.uk)
#                Space group: C2/c
#

%BLOCK LATTICE_ABC
      7.23289      7.56996      7.56996
     75.44494     86.53278     86.53278
%ENDBLOCK LATTICE_ABC

%BLOCK POSITIONS_FRAC
  Li  -0.2443081   0.0747633  -0.4049732 SPIN=   0.00000
  Li  -0.2556919   0.4049732  -0.0747633 SPIN=   0.00000
  Li   0.2443081  -0.0747633   0.4049732 SPIN=   0.00000
  Li   0.2556919  -0.4049732   0.0747633 SPIN=   0.00000
  Fe   0.1315213   0.3090953   0.4243902 SPIN=   4.00000
  Fe   0.3684787  -0.4243902  -0.3090953 SPIN=   4.00000
  Fe  -0.1315213  -0.3090953  -0.4243902 SPIN=   4.00000
  Fe  -0.3684787   0.4243902   0.3090953 SPIN=   4.00000
   O   0.3559976  -0.0580996  -0.2504250 SPIN=   0.00000
   O   0.0447138   0.0935452  -0.3064508 SPIN=   0.00000
   O   0.1091256  -0.1126262  -0.0045122 SPIN=   0.00000
   O   0.0892263  -0.2397230  -0.2733703 SPIN=   0.00000
   S   0.1497658  -0.0792259  -0.2086896 SPIN=   0.00000
   O   0.1440024   0.2504250   0.0580996 SPIN=   0.00000
   O   0.4552862   0.3064508  -0.0935452 SPIN=   0.00000
   O   0.3908744   0.0045122   0.1126262 SPIN=   0.00000
   O   0.4107737   0.2733703   0.2397230 SPIN=   0.00000
   S   0.3502342   0.2086896   0.0792259 SPIN=   0.00000
   O  -0.3559976   0.0580996   0.2504250 SPIN=   0.00000
   O  -0.0447138  -0.0935452   0.3064508 SPIN=   0.00000
   O  -0.1091256   0.1126262   0.0045122 SPIN=   0.00000
   O  -0.0892263   0.2397230   0.2733703 SPIN=   0.00000
   S  -0.1497658   0.0792259   0.2086896 SPIN=   0.00000
   O  -0.1440024  -0.2504250  -0.0580996 SPIN=   0.00000
   O  -0.4552862  -0.3064508   0.0935452 SPIN=   0.00000
   O  -0.3908744  -0.0045122  -0.1126262 SPIN=   0.00000
   O  -0.4107737  -0.2733703  -0.2397230 SPIN=   0.00000
   S  -0.3502342  -0.2086896  -0.0792259 SPIN=   0.00000
   F   0.4642460  -0.2309210   0.4266050 SPIN=   0.00000
   F   0.0357540  -0.4266050   0.2309210 SPIN=   0.00000
   F  -0.4642460   0.2309210  -0.4266050 SPIN=   0.00000
   F  -0.0357540   0.4266050  -0.2309210 SPIN=   0.00000
%ENDBLOCK POSITIONS_FRAC

# Note: total spin =  16.00

KPOINTS_MP_SPACING 0.07

%BLOCK SPECIES_POT
QC5
%ENDBLOCK SPECIES_POT

SNAP_TO_SYMMETRY
SYMMETRY_GENERATE

