#              Generated by Buildcell
#
# at 05:45:16 (GMT+1.0) 18th August 2020
# in /lustre/scratch/uccabz1/launch_tmp
# on node-c12j-026
# by uccabz1
#
# compiler GCC version 4.9.2
# options -cpp -iprefix /lustre/shared/ucl/apps/gcc/4.9.2/bin/../lib/gcc/x86_64-unknown-linux-gnu/4.9.2/ -mtune=corei7 -march=x86-64 -g -Og
#
# seed  2105160330 -1564905670  -688905278   638856741 -1051126983  1911883060   327616650 -1960599427   443391200  -140020318   565078596  1267481566
#
#      Author: C. J. Pickard (cjp20@cam.ac.uk)
#                Space group: P21/c
#

%BLOCK LATTICE_ABC
      7.42945      7.61015      7.80139
     90.00000    114.92556     90.00000
%ENDBLOCK LATTICE_ABC

%BLOCK POSITIONS_FRAC
  Li  -0.2026336   0.2013211  -0.3318675 SPIN=   0.00000
  Li   0.2026336  -0.2986789  -0.1681325 SPIN=   0.00000
  Li   0.2026336  -0.2013211   0.3318675 SPIN=   0.00000
  Li  -0.2026336   0.2986789   0.1681325 SPIN=   0.00000
  Fe  -0.4394171  -0.2096301  -0.2585872 SPIN=   4.00000
  Fe  -0.5605829   0.2903699  -0.2414128 SPIN=   4.00000
  Fe   0.4394171   0.2096301   0.2585872 SPIN=   4.00000
  Fe   0.5605829  -0.2903699   0.2414128 SPIN=   4.00000
   O   0.1852829   0.1899714  -0.0922155 SPIN=   0.00000
   O   0.2329099   0.4264261   0.1407755 SPIN=   0.00000
   O  -0.0984381   0.2917200  -0.0307346 SPIN=   0.00000
   O   0.0404497   0.4843404  -0.2007023 SPIN=   0.00000
   O  -0.1852829  -0.3100286  -0.4077845 SPIN=   0.00000
   O  -0.2329099  -0.0735739  -0.6407755 SPIN=   0.00000
   O   0.0984381  -0.2082800  -0.4692654 SPIN=   0.00000
   O  -0.0404497  -0.0156596  -0.2992977 SPIN=   0.00000
   O  -0.1852829  -0.1899714   0.0922155 SPIN=   0.00000
   O  -0.2329099  -0.4264261  -0.1407755 SPIN=   0.00000
   O   0.0984381  -0.2917200   0.0307346 SPIN=   0.00000
   O  -0.0404497  -0.4843404   0.2007023 SPIN=   0.00000
   O   0.1852829   0.3100286   0.4077845 SPIN=   0.00000
   O   0.2329099   0.0735739   0.6407755 SPIN=   0.00000
   O  -0.0984381   0.2082800   0.4692654 SPIN=   0.00000
   O   0.0404497   0.0156596   0.2992977 SPIN=   0.00000
   S  -0.0000000  -0.0000000   0.0000000 SPIN=   0.00000
   S   0.0000000   0.5000000  -0.5000000 SPIN=   0.00000
   S   0.0000000  -0.0000000  -0.5000000 SPIN=   0.00000
   S  -0.0000000   0.5000000   0.0000000 SPIN=   0.00000
   F  -0.5000000  -0.0000000   0.0000000 SPIN=   0.00000
   F  -0.5000000   0.5000000  -0.5000000 SPIN=   0.00000
   F  -0.5000000  -0.0000000  -0.5000000 SPIN=   0.00000
   F   0.5000000   0.5000000   0.0000000 SPIN=   0.00000
%ENDBLOCK POSITIONS_FRAC

# Note: total spin =  16.00

KPOINTS_MP_SPACING 0.07

%BLOCK SPECIES_POT
QC5
%ENDBLOCK SPECIES_POT

SNAP_TO_SYMMETRY
SYMMETRY_GENERATE

