#              Generated by Buildcell
#
# at 06:34:15 (GMT+1.0) 4th August 2020
# in /lustre/scratch/uccabz1/launch_tmp
# on node-c12h-010
# by uccabz1
#
# compiler GCC version 4.9.2
# options -cpp -iprefix /lustre/shared/ucl/apps/gcc/4.9.2/bin/../lib/gcc/x86_64-unknown-linux-gnu/4.9.2/ -mtune=corei7 -march=x86-64 -g -Og
#
# seed  1361010262  -385203753   303916093  2017743500  2141190283  1294761501  -842459803 -1113929060   266800978  2073364454  -565125865   252873393
#
#      Author: C. J. Pickard (cjp20@cam.ac.uk)
#                Space group: P-1
#

%BLOCK LATTICE_ABC
      4.69194      8.32344     10.48174
     84.01738     84.70876     80.18826
%ENDBLOCK LATTICE_ABC

%BLOCK POSITIONS_FRAC
  Li   0.1404691  -0.3332343  -0.0929449 SPIN=   0.00000
  Li  -0.1404691   0.3332343   0.0929449 SPIN=   0.00000
  Li  -0.3493071  -0.4078222   0.3504311 SPIN=   0.00000
  Li   0.3493071   0.4078222  -0.3504311 SPIN=   0.00000
  Fe   0.4676219  -0.0638420  -0.1960201 SPIN=   4.01834
  Fe  -0.4676219   0.0638420   0.1960201 SPIN=   4.01834
  Fe  -0.0573605   0.1956894  -0.4174218 SPIN=   3.98166
  Fe   0.0573605  -0.1956894   0.4174218 SPIN=   3.98166
   O   0.1107171   0.2510347  -0.1331539 SPIN=   0.00000
   O   0.5458903   0.1493257  -0.0133405 SPIN=   0.00000
   O   0.2694028   0.4260353   0.0145430 SPIN=   0.00000
   O   0.5592858   0.3701306  -0.1901741 SPIN=   0.00000
   S   0.3713240   0.2991316  -0.0805314 SPIN=   0.00000
   O  -0.1107171  -0.2510347   0.1331539 SPIN=   0.00000
   O  -0.5458903  -0.1493257   0.0133405 SPIN=   0.00000
   O  -0.2694028  -0.4260353  -0.0145430 SPIN=   0.00000
   O  -0.5592858  -0.3701306   0.1901741 SPIN=   0.00000
   S  -0.3713240  -0.2991316   0.0805314 SPIN=   0.00000
   O   0.2108675   0.5299195   0.4185683 SPIN=   0.00000
   O   0.0222464   0.4741892   0.2175609 SPIN=   0.00000
   O   0.0993489   0.2548167   0.3952777 SPIN=   0.00000
   O   0.5208950   0.3503924   0.2692563 SPIN=   0.00000
   S   0.2133394   0.4023294   0.3251658 SPIN=   0.00000
   O  -0.2108675  -0.5299195  -0.4185683 SPIN=   0.00000
   O  -0.0222464  -0.4741892  -0.2175609 SPIN=   0.00000
   O  -0.0993489  -0.2548167  -0.3952777 SPIN=   0.00000
   O  -0.5208950  -0.3503924  -0.2692563 SPIN=   0.00000
   S  -0.2133394  -0.4023294  -0.3251658 SPIN=   0.00000
   F  -0.4968643  -0.2010416   0.3980116 SPIN=   0.00000
   F   0.4968643   0.2010416  -0.3980116 SPIN=   0.00000
   F  -0.0465547   0.1212698   0.1655558 SPIN=   0.00000
   F   0.0465547  -0.1212698  -0.1655558 SPIN=   0.00000
%ENDBLOCK POSITIONS_FRAC

# Note: total spin =  16.00

KPOINTS_MP_SPACING 0.07

%BLOCK SPECIES_POT
QC5
%ENDBLOCK SPECIES_POT

SNAP_TO_SYMMETRY
SYMMETRY_GENERATE

