#              Generated by Buildcell
#
# at 02:37:27 (GMT+1.0) 18th August 2020
# in /lustre/scratch/uccabz1/launch_tmp
# on node-c12h-024
# by uccabz1
#
# compiler GCC version 4.9.2
# options -cpp -iprefix /lustre/shared/ucl/apps/gcc/4.9.2/bin/../lib/gcc/x86_64-unknown-linux-gnu/4.9.2/ -mtune=corei7 -march=x86-64 -g -Og
#
# seed -1067652289    71216418   563769747    19940527 -2018716939  -423606684  1798039334  1049757762   691012272  1184463425   442073460  -465455785
#
#      Author: C. J. Pickard (cjp20@cam.ac.uk)
#                Space group: P212121
#

%BLOCK LATTICE_ABC
      4.06697      9.00036     10.92770
     90.00000     90.00000     90.00000
%ENDBLOCK LATTICE_ABC

%BLOCK POSITIONS_FRAC
  Li  -0.3372240  -0.1450055   0.4501576 SPIN=   0.00000
  Li   0.3372240  -0.3549945  -0.0498424 SPIN=   0.00000
  Li   0.1627760   0.1450055   0.0498424 SPIN=   0.00000
  Li  -0.1627760   0.3549945  -0.4501576 SPIN=   0.00000
  Fe   0.4386183   0.0926558  -0.3825423 SPIN=   4.00000
  Fe  -0.4386183   0.4073442   0.1174577 SPIN=   4.00000
  Fe  -0.0613817  -0.0926558  -0.1174577 SPIN=   4.00000
  Fe   0.0613817  -0.4073442   0.3825423 SPIN=   4.00000
   O   0.1979426   0.2672045  -0.0944338 SPIN=   0.00000
   O  -0.2667609   0.1760663  -0.2199163 SPIN=   0.00000
   O   0.2090896   0.2975637  -0.3194880 SPIN=   0.00000
   O  -0.1773017   0.4463076  -0.1945730 SPIN=   0.00000
   S  -0.0092576   0.2967855  -0.2071028 SPIN=   0.00000
   O  -0.1979426   0.2327955   0.4055662 SPIN=   0.00000
   O   0.2667609   0.3239337   0.2800837 SPIN=   0.00000
   O  -0.2090896   0.2024363   0.1805120 SPIN=   0.00000
   O   0.1773017   0.0536924   0.3054270 SPIN=   0.00000
   S   0.0092576   0.2032145   0.2928972 SPIN=   0.00000
   O   0.6979426  -0.2672045  -0.4055662 SPIN=   0.00000
   O   0.2332391  -0.1760663  -0.2800837 SPIN=   0.00000
   O   0.7090896  -0.2975637  -0.1805120 SPIN=   0.00000
   O   0.3226983  -0.4463076  -0.3054270 SPIN=   0.00000
   S   0.4907424  -0.2967855  -0.2928972 SPIN=   0.00000
   O  -0.6979426  -0.2327955   0.0944338 SPIN=   0.00000
   O  -0.2332391  -0.3239337   0.2199163 SPIN=   0.00000
   O  -0.7090896  -0.2024363   0.3194880 SPIN=   0.00000
   O  -0.3226983  -0.0536924   0.1945730 SPIN=   0.00000
   S  -0.4907424  -0.2032145   0.2071028 SPIN=   0.00000
   F   0.4916727  -0.0166364  -0.0690226 SPIN=   0.00000
   F  -0.4916727  -0.4833636   0.4309774 SPIN=   0.00000
   F  -0.0083273   0.0166364  -0.4309774 SPIN=   0.00000
   F   0.0083273   0.4833636   0.0690226 SPIN=   0.00000
%ENDBLOCK POSITIONS_FRAC

# Note: total spin =  16.00

KPOINTS_MP_SPACING 0.07

%BLOCK SPECIES_POT
QC5
%ENDBLOCK SPECIES_POT

SNAP_TO_SYMMETRY
SYMMETRY_GENERATE

