#              Generated by Buildcell
#
# at 06:26:03 (GMT+1.0) 4th August 2020
# in /lustre/scratch/uccabz1/launch_tmp
# on node-c12c-005
# by uccabz1
#
# compiler GCC version 4.9.2
# options -cpp -iprefix /lustre/shared/ucl/apps/gcc/4.9.2/bin/../lib/gcc/x86_64-unknown-linux-gnu/4.9.2/ -mtune=corei7 -march=x86-64 -g -Og
#
# seed  1778214411  -744685839  -839642875  1708987258   640439430  1667662557  1758364536   253388194  1660890841 -1887196605  1278791236 -1090909166
#
#      Author: C. J. Pickard (cjp20@cam.ac.uk)
#                Space group: C2
#

%BLOCK LATTICE_ABC
      3.84729     10.72649     10.72649
    109.81817     99.20371     99.20371
%ENDBLOCK LATTICE_ABC

%BLOCK POSITIONS_FRAC
  Li  -0.5000000  -0.1066586   0.1066586 SPIN=   0.00000
  Li   0.5000000  -0.3265946   0.3265946 SPIN=   0.00000
  Li   0.0000000   0.1981604  -0.1981604 SPIN=   0.00000
  Li   0.5000000   0.3895360  -0.3895360 SPIN=   0.00000
  Fe  -0.3345025  -0.3634435  -0.0839386 SPIN=   5.91143
  Fe   0.3345025   0.0839386   0.3634435 SPIN=   5.91143
  Fe  -0.0985969   0.1921841   0.0882869 SPIN=   2.08857
  Fe   0.0985969  -0.0882869  -0.1921841 SPIN=   2.08857
   O   0.0018131   0.5986644   0.0564512 SPIN=   0.00000
   O   0.5564494   0.5417178   0.1523276 SPIN=   0.00000
   O   0.1893272   0.3936588  -0.0779540 SPIN=   0.00000
   O  -0.0453654   0.3995961   0.1252678 SPIN=   0.00000
   S   0.1755561   0.4834093   0.0640231 SPIN=   0.00000
   O  -0.0018131  -0.0564512  -0.5986644 SPIN=   0.00000
   O  -0.5564494  -0.1523276  -0.5417178 SPIN=   0.00000
   O  -0.1893272   0.0779540  -0.3936588 SPIN=   0.00000
   O   0.0453654  -0.1252678  -0.3995961 SPIN=   0.00000
   S  -0.1755561  -0.0640231  -0.4834093 SPIN=   0.00000
   O  -0.7160188  -0.3591348  -0.5249227 SPIN=   0.00000
   O  -0.5139141  -0.1935655  -0.2869218 SPIN=   0.00000
   O  -0.3217977  -0.4118178  -0.3525215 SPIN=   0.00000
   S  -0.6277502  -0.3435334  -0.3767933 SPIN=   0.00000
   O   0.7160188   0.5249227   0.3591348 SPIN=   0.00000
   O   0.5139141   0.2869218   0.1935655 SPIN=   0.00000
   O   0.3217977   0.3525215   0.4118178 SPIN=   0.00000
   S   0.6277502   0.3767933   0.3435334 SPIN=   0.00000
   O  -0.0000000  -0.1896468   0.1896468 SPIN=   0.00000
   O   0.5000000   0.0070823  -0.0070823 SPIN=   0.00000
   F   0.0657876  -0.2225949  -0.0547578 SPIN=   0.00000
   F  -0.0657876   0.0547578   0.2225949 SPIN=   0.00000
   F   0.5000000   0.1542747  -0.1542747 SPIN=   0.00000
   F   0.0000000   0.3361284  -0.3361284 SPIN=   0.00000
%ENDBLOCK POSITIONS_FRAC

# Note: total spin =  16.00

KPOINTS_MP_SPACING 0.07

%BLOCK SPECIES_POT
QC5
%ENDBLOCK SPECIES_POT

SNAP_TO_SYMMETRY
SYMMETRY_GENERATE

