#              Generated by Buildcell
#
# at 11:46:23 (GMT+1.0) 18th August 2020
# in /lustre/scratch/uccabz1/launch_tmp
# on node-c12m-012
# by uccabz1
#
# compiler GCC version 4.9.2
# options -cpp -iprefix /lustre/shared/ucl/apps/gcc/4.9.2/bin/../lib/gcc/x86_64-unknown-linux-gnu/4.9.2/ -mtune=corei7 -march=x86-64 -g -Og
#
# seed  2012042461   324111552 -1605846224  -724211099 -2041260847  1733552649 -1949871799  -870360522   659866276  -328856847  1649804437    39793948
#
#      Author: C. J. Pickard (cjp20@cam.ac.uk)
#                Space group: Cc
#

%BLOCK LATTICE_ABC
      6.58194      8.00402      8.57047
    105.08178    112.58102     90.00000
%ENDBLOCK LATTICE_ABC

%BLOCK POSITIONS_FRAC
  Li   0.1821327  -0.0690400  -0.2297299 SPIN=   0.00000
  Li  -0.4118626   0.4309600  -0.2297299 SPIN=   0.00000
  Li   0.4053449  -0.2739878   0.4117085 SPIN=   0.00000
  Li   0.0063636   0.2260122   0.4117085 SPIN=   0.00000
  Fe  -0.0879658  -0.3803522   0.2205385 SPIN=   4.57330
  Fe   0.3085043   0.1196478   0.2205385 SPIN=   4.57330
  Fe   0.0582466   0.3380701  -0.1202481 SPIN=   3.42670
  Fe  -0.1784948  -0.1619299  -0.1202481 SPIN=   3.42670
   O  -0.0216104  -0.5679926  -0.3309643 SPIN=   0.00000
   O  -0.3080512  -0.3642836  -0.3609500 SPIN=   0.00000
   O  -0.3822185  -0.6478161  -0.5868729 SPIN=   0.00000
   O  -0.1137717  -0.4160998  -0.5627886 SPIN=   0.00000
   S  -0.2064130  -0.4990480  -0.4603940 SPIN=   0.00000
   O  -0.3093539  -0.0679926  -0.3309643 SPIN=   0.00000
   O  -0.0528988   0.1357164  -0.3609500 SPIN=   0.00000
   O  -0.2046545  -0.1478161  -0.5868729 SPIN=   0.00000
   O  -0.4490168   0.0839002  -0.5627886 SPIN=   0.00000
   S  -0.2539810   0.0009520  -0.4603940 SPIN=   0.00000
   O   0.1745919  -0.2538550  -0.0994448 SPIN=   0.00000
   O   0.3932809  -0.4902534  -0.0118482 SPIN=   0.00000
   O   0.5559446  -0.1827989   0.1304736 SPIN=   0.00000
   O   0.4942398  -0.3208960  -0.1804837 SPIN=   0.00000
   S   0.4045143  -0.3119508  -0.0403258 SPIN=   0.00000
   O  -0.2740367   0.2461450  -0.0994448 SPIN=   0.00000
   O  -0.4051291   0.0097466  -0.0118482 SPIN=   0.00000
   O  -0.4254709   0.3172011   0.1304736 SPIN=   0.00000
   O  -0.6747235   0.1791040  -0.1804837 SPIN=   0.00000
   S  -0.4448401   0.1880492  -0.0403258 SPIN=   0.00000
   F   0.3085526   0.3302228  -0.4306591 SPIN=   0.00000
   F   0.2607883  -0.1697772  -0.4306591 SPIN=   0.00000
   F   0.0855019   0.4544938   0.1110349 SPIN=   0.00000
   F   0.0255330  -0.0455062   0.1110349 SPIN=   0.00000
%ENDBLOCK POSITIONS_FRAC

# Note: total spin =  16.00

KPOINTS_MP_SPACING 0.07

%BLOCK SPECIES_POT
QC5
%ENDBLOCK SPECIES_POT

SNAP_TO_SYMMETRY
SYMMETRY_GENERATE

