#              Generated by Buildcell
#
# at 06:57:22 (GMT+1.0) 4th August 2020
# in /lustre/scratch/uccabz1/launch_tmp
# on node-c12c-020
# by uccabz1
#
# compiler GCC version 4.9.2
# options -cpp -iprefix /lustre/shared/ucl/apps/gcc/4.9.2/bin/../lib/gcc/x86_64-unknown-linux-gnu/4.9.2/ -mtune=corei7 -march=x86-64 -g -Og
#
# seed  1260874103 -1361557183  1284795122   484351985  2030954099  1293898651  -824892784 -2099833761   602784556  -273510721  1898205477   -20444228
#
#      Author: C. J. Pickard (cjp20@cam.ac.uk)
#                Space group: Cm
#

%BLOCK LATTICE_ABC
      6.24486      8.01001      8.01001
     87.14843     88.77072     88.77072
%ENDBLOCK LATTICE_ABC

%BLOCK POSITIONS_FRAC
  Li   0.0634303   0.0256908   0.3959482 SPIN=   0.00000
  Li   0.0634303   0.3959482   0.0256908 SPIN=   0.00000
  Li  -0.1627253  -0.1310131  -0.1310131 SPIN=   0.00000
  Li   0.2199479  -0.4030163  -0.4030163 SPIN=   0.00000
  Fe  -0.0389823  -0.2880329   0.2118402 SPIN=   4.24325
  Fe  -0.0389823   0.2118402  -0.2880329 SPIN=   4.24325
  Fe   0.3236719   0.0297708   0.0297708 SPIN=   3.01794
  Fe  -0.2911469   0.2618486   0.2618486 SPIN=   4.49555
   O  -0.5418396  -0.4673126  -0.1505148 SPIN=   0.00000
   O  -0.5660737  -0.2059184   0.0016617 SPIN=   0.00000
   O  -0.2415138  -0.3877995   0.0238103 SPIN=   0.00000
   O  -0.5825948  -0.4799593   0.1578450 SPIN=   0.00000
   S  -0.4830055  -0.3852475   0.0082006 SPIN=   0.00000
   O  -0.5418396  -0.1505148  -0.4673126 SPIN=   0.00000
   O  -0.5660737   0.0016617  -0.2059184 SPIN=   0.00000
   O  -0.2415138   0.0238103  -0.3877995 SPIN=   0.00000
   O  -0.5825948   0.1578450  -0.4799593 SPIN=   0.00000
   S  -0.4830055   0.0082006  -0.3852475 SPIN=   0.00000
   O  -0.2207075   0.3018154  -0.4995590 SPIN=   0.00000
   O  -0.5667628   0.4123959  -0.3909833 SPIN=   0.00000
   O  -0.2265694   0.5033335  -0.2750257 SPIN=   0.00000
   O  -0.3490493   0.2143581  -0.2147268 SPIN=   0.00000
   O  -0.2207075  -0.4995590   0.3018154 SPIN=   0.00000
   O  -0.5667628  -0.3909833   0.4123959 SPIN=   0.00000
   O  -0.2265694  -0.2750257   0.5033335 SPIN=   0.00000
   O  -0.3490493  -0.2147268   0.2143581 SPIN=   0.00000
   S  -0.3040826  -0.4488524  -0.4488524 SPIN=   0.00000
   S   0.2044174   0.3552481   0.3552481 SPIN=   0.00000
   F   0.1927142  -0.1441773   0.2738889 SPIN=   0.00000
   F   0.1927142   0.2738889  -0.1441773 SPIN=   0.00000
   F  -0.3079484   0.0956299   0.0956299 SPIN=   0.00000
   F   0.0797249  -0.2310927  -0.2310927 SPIN=   0.00000
%ENDBLOCK POSITIONS_FRAC

# Note: total spin =  16.00

KPOINTS_MP_SPACING 0.07

%BLOCK SPECIES_POT
QC5
%ENDBLOCK SPECIES_POT

SNAP_TO_SYMMETRY
SYMMETRY_GENERATE

