#              Generated by Buildcell
#
# at 09:43:10 (GMT+1.0) 4th August 2020
# in /lustre/scratch/uccabz1/launch_tmp
# on node-c12f-005
# by uccabz1
#
# compiler GCC version 4.9.2
# options -cpp -iprefix /lustre/shared/ucl/apps/gcc/4.9.2/bin/../lib/gcc/x86_64-unknown-linux-gnu/4.9.2/ -mtune=corei7 -march=x86-64 -g -Og
#
# seed -1326932248 -2106530927  1430891694   412617090  1052168509  -787697907   678920152   675869092  1477316254 -1879357935  1521364133 -2026370660
#
#      Author: C. J. Pickard (cjp20@cam.ac.uk)
#                Space group: Pnn2
#

%BLOCK LATTICE_ABC
      3.95501      8.02253     12.60671
     90.00000     90.00000     90.00000
%ENDBLOCK LATTICE_ABC

%BLOCK POSITIONS_FRAC
  Li   0.1820395  -0.3936437  -0.1375848 SPIN=   0.00000
  Li   0.1820395   0.3936437   0.1375848 SPIN=   0.00000
  Li  -0.3179605  -0.1063563   0.3624152 SPIN=   0.00000
  Li  -0.3179605   0.1063563  -0.3624152 SPIN=   0.00000
  Fe  -0.4188653  -0.4864126   0.3345123 SPIN=   4.00000
  Fe  -0.4188653   0.4864126  -0.3345123 SPIN=   4.00000
  Fe   0.0811347  -0.0135874  -0.1654877 SPIN=   4.00000
  Fe   0.0811347   0.0135874   0.1654877 SPIN=   4.00000
   O  -0.7216391   0.1832442   0.0452567 SPIN=   0.00000
   O  -0.2402359   0.3802718   0.0483083 SPIN=   0.00000
   O  -0.5697443   0.3407448  -0.1166774 SPIN=   0.00000
   O  -0.1950427   0.1157552  -0.0517070 SPIN=   0.00000
   S  -0.4316655   0.2550040  -0.0187048 SPIN=   0.00000
   O  -0.7216391  -0.1832442  -0.0452567 SPIN=   0.00000
   O  -0.2402359  -0.3802718  -0.0483083 SPIN=   0.00000
   O  -0.5697443  -0.3407448   0.1166774 SPIN=   0.00000
   O  -0.1950427  -0.1157552   0.0517070 SPIN=   0.00000
   S  -0.4316655  -0.2550040   0.0187048 SPIN=   0.00000
   O  -0.2216391   0.3167558   0.5452567 SPIN=   0.00000
   O   0.2597641   0.1197282   0.5483083 SPIN=   0.00000
   O  -0.0697443   0.1592552   0.3833226 SPIN=   0.00000
   O   0.3049573   0.3842448   0.4482930 SPIN=   0.00000
   S   0.0683345   0.2449960   0.4812952 SPIN=   0.00000
   O  -0.2216391  -0.3167558  -0.5452567 SPIN=   0.00000
   O   0.2597641  -0.1197282  -0.5483083 SPIN=   0.00000
   O  -0.0697443  -0.1592552  -0.3833226 SPIN=   0.00000
   O   0.3049573  -0.3842448  -0.4482930 SPIN=   0.00000
   S   0.0683345  -0.2449960  -0.4812952 SPIN=   0.00000
   F   0.0067440   0.4549067  -0.2518268 SPIN=   0.00000
   F   0.0067440  -0.4549067   0.2518268 SPIN=   0.00000
   F  -0.4932560   0.0450933   0.2481732 SPIN=   0.00000
   F  -0.4932560  -0.0450933  -0.2481732 SPIN=   0.00000
%ENDBLOCK POSITIONS_FRAC

# Note: total spin =  16.00

KPOINTS_MP_SPACING 0.07

%BLOCK SPECIES_POT
QC5
%ENDBLOCK SPECIES_POT

SNAP_TO_SYMMETRY
SYMMETRY_GENERATE

