#              Generated by Buildcell
#
# at 06:51:55 (GMT+1.0) 4th August 2020
# in /lustre/scratch/uccabz1/launch_tmp
# on node-c12j-012
# by uccabz1
#
# compiler GCC version 4.9.2
# options -cpp -iprefix /lustre/shared/ucl/apps/gcc/4.9.2/bin/../lib/gcc/x86_64-unknown-linux-gnu/4.9.2/ -mtune=corei7 -march=x86-64 -g -Og
#
# seed  -538043592   888182384  1206538778  1477905601  -693449527  -395776860  1077805083  2004305507 -1667895104   582997970  -928890481   318029042
#
#      Author: C. J. Pickard (cjp20@cam.ac.uk)
#                Space group: C2
#

%BLOCK LATTICE_ABC
      6.38702      6.38702     10.90202
    101.51967    102.98372    105.99938
%ENDBLOCK LATTICE_ABC

%BLOCK POSITIONS_FRAC
  Li  -0.2584888  -0.3781350  -0.4987276 SPIN=   0.00000
  Li   0.1205926   0.2402388   0.4987276 SPIN=   0.00000
  Li   0.1371686  -0.2689026   0.1888517 SPIN=   0.00000
  Li  -0.4577544  -0.0516831  -0.1888517 SPIN=   0.00000
  Fe  -0.4334180   0.4660217  -0.2774637 SPIN=   7.75404
  Fe   0.7434855  -0.1559542   0.2774637 SPIN=   7.75404
  Fe  -0.0311302   0.0689390  -0.2829794 SPIN=   0.24596
  Fe   0.3519184   0.2518492   0.2829794 SPIN=   0.24596
   O   0.1425143   0.5196382   0.4121372 SPIN=   0.00000
   O  -0.1641359   0.5417102   0.2356544 SPIN=   0.00000
   O  -0.2618045   0.3192636   0.3888624 SPIN=   0.00000
   O  -0.0837057   0.1819250   0.2241918 SPIN=   0.00000
   S  -0.0917830   0.3906343   0.3152115 SPIN=   0.00000
   O   0.1075009  -0.2696230  -0.4121372 SPIN=   0.00000
   O   0.3060558  -0.3997903  -0.2356544 SPIN=   0.00000
   O  -0.0695988  -0.6506669  -0.3888624 SPIN=   0.00000
   O  -0.0422668  -0.3078975  -0.2241918 SPIN=   0.00000
   S   0.0754228  -0.4069944  -0.3152115 SPIN=   0.00000
   O  -0.1797264   0.3096635  -0.1792045 SPIN=   0.00000
   O  -0.2415850   0.5026681   0.0233421 SPIN=   0.00000
   O   0.1503962   0.5704193   0.0067767 SPIN=   0.00000
   O  -0.0708526   0.1988540   0.0245727 SPIN=   0.00000
   S  -0.0854419   0.3954012  -0.0311283 SPIN=   0.00000
   O   0.4888680  -0.0005219   0.1792045 SPIN=   0.00000
   O   0.4793260  -0.2649271  -0.0233421 SPIN=   0.00000
   O   0.5636427   0.1436195  -0.0067767 SPIN=   0.00000
   O   0.1742814  -0.0954252  -0.0245727 SPIN=   0.00000
   S   0.4265295  -0.0543137   0.0311283 SPIN=   0.00000
   F   0.1494619  -0.0177053   0.3875107 SPIN=   0.00000
   F  -0.4052160  -0.2380488  -0.3875107 SPIN=   0.00000
   F  -0.6616339   0.2167995  -0.2152091 SPIN=   0.00000
   F   0.4320086  -0.4464248   0.2152091 SPIN=   0.00000
%ENDBLOCK POSITIONS_FRAC

# Note: total spin =  16.00

KPOINTS_MP_SPACING 0.07

%BLOCK SPECIES_POT
QC5
%ENDBLOCK SPECIES_POT

SNAP_TO_SYMMETRY
SYMMETRY_GENERATE

