#              Generated by Buildcell
#
# at 09:39:27 (GMT+1.0) 4th August 2020
# in /lustre/scratch/uccabz1/launch_tmp
# on node-c12p-004
# by uccabz1
#
# compiler GCC version 4.9.2
# options -cpp -iprefix /lustre/shared/ucl/apps/gcc/4.9.2/bin/../lib/gcc/x86_64-unknown-linux-gnu/4.9.2/ -mtune=corei7 -march=x86-64 -g -Og
#
# seed  1165574312  2020522448 -1219352843  -820688130 -1747397631 -2085509993  2036763497 -1429035131  2113545478   766593962   112849467  -719694543
#
#      Author: C. J. Pickard (cjp20@cam.ac.uk)
#                Space group: P-1
#

%BLOCK LATTICE_ABC
      3.86906      9.35358     11.98218
     69.79888     80.83779     81.85396
%ENDBLOCK LATTICE_ABC

%BLOCK POSITIONS_FRAC
  Li  -0.1916948  -0.2923494   0.0665960 SPIN=   0.00000
  Li   0.1916948   0.2923494  -0.0665960 SPIN=   0.00000
  Li   0.3134661  -0.1041422  -0.3363696 SPIN=   0.00000
  Li  -0.3134661   0.1041422   0.3363696 SPIN=   0.00000
  Fe  -0.3164962   0.0040511   0.1288552 SPIN=   4.50985
  Fe   0.3164962  -0.0040511  -0.1288552 SPIN=   4.50985
  Fe   0.2224388  -0.3372875   0.2843774 SPIN=   3.49015
  Fe  -0.2224388   0.3372875  -0.2843774 SPIN=   3.49015
   O   0.2977404  -0.3977856  -0.5358983 SPIN=   0.00000
   O   0.5659125  -0.4357364  -0.3523068 SPIN=   0.00000
   O   0.1109715  -0.2207333  -0.4199524 SPIN=   0.00000
   O   0.7028835  -0.2159859  -0.5348661 SPIN=   0.00000
   S   0.4193770  -0.3175603  -0.4607559 SPIN=   0.00000
   O  -0.2977404   0.3977856   0.5358983 SPIN=   0.00000
   O  -0.5659125   0.4357364   0.3523068 SPIN=   0.00000
   O  -0.1109715   0.2207333   0.4199524 SPIN=   0.00000
   O  -0.7028835   0.2159859   0.5348661 SPIN=   0.00000
   S  -0.4193770   0.3175603   0.4607559 SPIN=   0.00000
   O  -0.6823316   0.2718800   0.2669976 SPIN=   0.00000
   O  -1.0671512   0.5145271   0.2116690 SPIN=   0.00000
   O  -0.9674454   0.3536523   0.0812021 SPIN=   0.00000
   O  -0.4861421   0.4932327   0.0945079 SPIN=   0.00000
   S  -0.8007676   0.4083230   0.1635941 SPIN=   0.00000
   O   0.6823316  -0.2718800  -0.2669976 SPIN=   0.00000
   O   1.0671512  -0.5145271  -0.2116690 SPIN=   0.00000
   O   0.9674454  -0.3536523  -0.0812021 SPIN=   0.00000
   O   0.4861421  -0.4932327  -0.0945079 SPIN=   0.00000
   S   0.8007676  -0.4083230  -0.1635941 SPIN=   0.00000
   F  -0.1224427   0.0131600  -0.2754267 SPIN=   0.00000
   F   0.1224427  -0.0131600   0.2754267 SPIN=   0.00000
   F   0.3061906  -0.1863298   0.0209613 SPIN=   0.00000
   F  -0.3061906   0.1863298  -0.0209613 SPIN=   0.00000
%ENDBLOCK POSITIONS_FRAC

# Note: total spin =  16.00

KPOINTS_MP_SPACING 0.07

%BLOCK SPECIES_POT
QC5
%ENDBLOCK SPECIES_POT

SNAP_TO_SYMMETRY
SYMMETRY_GENERATE

