#              Generated by Buildcell
#
# at 06:15:48 (GMT+1.0) 4th August 2020
# in /lustre/scratch/uccabz1/launch_tmp
# on node-c12n-032
# by uccabz1
#
# compiler GCC version 4.9.2
# options -cpp -iprefix /lustre/shared/ucl/apps/gcc/4.9.2/bin/../lib/gcc/x86_64-unknown-linux-gnu/4.9.2/ -mtune=corei7 -march=x86-64 -g -Og
#
# seed   344281410  1132009268  -742103630  -469939487  -281949489   637488293   -14512940   272368438   327846795  1319826041   267372591   521834098
#
#      Author: C. J. Pickard (cjp20@cam.ac.uk)
#                Space group: P-1
#

%BLOCK LATTICE_ABC
      5.65984      6.83344     11.27487
     87.09809     82.22116     67.79032
%ENDBLOCK LATTICE_ABC

%BLOCK POSITIONS_FRAC
  Li  -0.1468230   0.2995858   0.4549523 SPIN=   0.00000
  Li   0.1468230  -0.2995858  -0.4549523 SPIN=   0.00000
  Li  -0.3858537   0.2399562   0.1072303 SPIN=   0.00000
  Li   0.3858537  -0.2399562  -0.1072303 SPIN=   0.00000
  Fe  -0.1688678  -0.1499259  -0.0571296 SPIN=   3.06921
  Fe   0.1688678   0.1499259   0.0571296 SPIN=   3.06921
  Fe  -0.3681445  -0.3390637   0.2298759 SPIN=   4.93079
  Fe   0.3681445   0.3390637  -0.2298759 SPIN=   4.93079
   O  -0.1686268   0.1427534  -0.2401977 SPIN=   0.00000
   O   0.1460043  -0.2190053  -0.2885459 SPIN=   0.00000
   O   0.2945988   0.0563004  -0.2315165 SPIN=   0.00000
   O   0.1345658   0.0761176  -0.4272095 SPIN=   0.00000
   S   0.1016355   0.0140415  -0.2968674 SPIN=   0.00000
   O   0.1686268  -0.1427534   0.2401977 SPIN=   0.00000
   O  -0.1460043   0.2190053   0.2885459 SPIN=   0.00000
   O  -0.2945988  -0.0563004   0.2315165 SPIN=   0.00000
   O  -0.1345658  -0.0761176   0.4272095 SPIN=   0.00000
   S  -0.1016355  -0.0140415   0.2968674 SPIN=   0.00000
   O   0.4364296   0.4647205   0.2705999 SPIN=   0.00000
   O   0.0045629   0.5338775   0.3817068 SPIN=   0.00000
   O   0.3131335   0.1659057   0.3463345 SPIN=   0.00000
   O   0.1130330   0.3824263   0.1775459 SPIN=   0.00000
   S   0.2167897   0.3867325   0.2940468 SPIN=   0.00000
   O  -0.4364296  -0.4647205  -0.2705999 SPIN=   0.00000
   O  -0.0045629  -0.5338775  -0.3817068 SPIN=   0.00000
   O  -0.3131335  -0.1659057  -0.3463345 SPIN=   0.00000
   O  -0.1130330  -0.3824263  -0.1775459 SPIN=   0.00000
   S  -0.2167897  -0.3867325  -0.2940468 SPIN=   0.00000
   F   0.4621984  -0.2325356   0.4298455 SPIN=   0.00000
   F  -0.4621984   0.2325356  -0.4298455 SPIN=   0.00000
   F   0.1536593  -0.3078839   0.0342626 SPIN=   0.00000
   F  -0.1536593   0.3078839  -0.0342626 SPIN=   0.00000
%ENDBLOCK POSITIONS_FRAC

# Note: total spin =  16.00

KPOINTS_MP_SPACING 0.07

%BLOCK SPECIES_POT
QC5
%ENDBLOCK SPECIES_POT

SNAP_TO_SYMMETRY
SYMMETRY_GENERATE

