#              Generated by Buildcell
#
# at 06:35:55 (GMT+1.0) 4th August 2020
# in /lustre/scratch/uccabz1/launch_tmp
# on node-c12f-018
# by uccabz1
#
# compiler GCC version 4.9.2
# options -cpp -iprefix /lustre/shared/ucl/apps/gcc/4.9.2/bin/../lib/gcc/x86_64-unknown-linux-gnu/4.9.2/ -mtune=corei7 -march=x86-64 -g -Og
#
# seed  -338152205  1958252151   833595606   861138743 -1836618069  -226282848  -801389836  -173385650  -784816528  2095783307   737607425  1709697172
#
#      Author: C. J. Pickard (cjp20@cam.ac.uk)
#                Space group: C2221
#

%BLOCK LATTICE_ABC
      7.19199      7.19199      7.82373
     90.00000     90.00000     98.72256
%ENDBLOCK LATTICE_ABC

%BLOCK POSITIONS_FRAC
  Li  -0.4737279  -0.0179836  -0.2021522 SPIN=   0.00000
  Li   0.4737279   0.0179836   0.2978478 SPIN=   0.00000
  Li   0.0179836   0.4737279  -0.2978478 SPIN=   0.00000
  Li  -0.0179836  -0.4737279   0.2021522 SPIN=   0.00000
  Fe  -0.2608063  -0.2608063   0.0000000 SPIN=   0.94597
  Fe   0.2608063   0.2608063  -0.5000000 SPIN=   0.94597
  Fe   0.2609447   0.2609447  -0.0000000 SPIN=   7.05403
  Fe  -0.2609447  -0.2609447  -0.5000000 SPIN=   7.05403
   O   0.2034368  -0.1292763  -0.1086749 SPIN=   0.00000
   O   0.4465928  -0.1860352   0.1007111 SPIN=   0.00000
   O   0.3336652  -0.4285824  -0.1151491 SPIN=   0.00000
   S   0.2770808  -0.2769134  -0.0003436 SPIN=   0.00000
   O  -0.2034368   0.1292763   0.3913251 SPIN=   0.00000
   O  -0.4465928   0.1860352   0.6007111 SPIN=   0.00000
   O  -0.3336652   0.4285824   0.3848509 SPIN=   0.00000
   S  -0.2770808   0.2769134   0.4996564 SPIN=   0.00000
   O   0.1292763  -0.2034368  -0.3913251 SPIN=   0.00000
   O   0.1860352  -0.4465928  -0.6007111 SPIN=   0.00000
   O   0.4285824  -0.3336652  -0.3848509 SPIN=   0.00000
   S   0.2769134  -0.2770808  -0.4996564 SPIN=   0.00000
   O  -0.1292763   0.2034368   0.1086749 SPIN=   0.00000
   O  -0.1860352   0.4465928  -0.1007111 SPIN=   0.00000
   O  -0.4285824   0.3336652   0.1151491 SPIN=   0.00000
   S  -0.2769134   0.2770808   0.0003436 SPIN=   0.00000
   O   0.4462328  -0.4462328   0.2500000 SPIN=   0.00000
   O  -0.4462328   0.4462328  -0.2500000 SPIN=   0.00000
   O   0.1843816  -0.1843816   0.2500000 SPIN=   0.00000
   O  -0.1843816   0.1843816  -0.2500000 SPIN=   0.00000
   F  -0.1680474  -0.2737503   0.2500032 SPIN=   0.00000
   F   0.1680474   0.2737503  -0.2499968 SPIN=   0.00000
   F   0.2737503   0.1680474   0.2499968 SPIN=   0.00000
   F  -0.2737503  -0.1680474  -0.2500032 SPIN=   0.00000
%ENDBLOCK POSITIONS_FRAC

# Note: total spin =  16.00

KPOINTS_MP_SPACING 0.07

%BLOCK SPECIES_POT
QC5
%ENDBLOCK SPECIES_POT

SNAP_TO_SYMMETRY
SYMMETRY_GENERATE

