#              Generated by Buildcell
#
# at 17:18:46 (GMT+1.0) 18th August 2020
# in /lustre/scratch/uccabz1/launch_tmp
# on node-c12c-003
# by uccabz1
#
# compiler GCC version 4.9.2
# options -cpp -iprefix /lustre/shared/ucl/apps/gcc/4.9.2/bin/../lib/gcc/x86_64-unknown-linux-gnu/4.9.2/ -mtune=corei7 -march=x86-64 -g -Og
#
# seed  1835966228  2116600822   340395895    16604238 -1627349446 -2137228148  -756738961  -599067987 -1608476386   268643398  2024027927   -76322064
#
#      Author: C. J. Pickard (cjp20@cam.ac.uk)
#                Space group: Iba2
#

%BLOCK LATTICE_ABC
      8.15781      8.15781      8.15781
     95.55367    115.88861    117.81375
%ENDBLOCK LATTICE_ABC

%BLOCK POSITIONS_FRAC
  Li   0.3801635   0.2224804   0.1581870 SPIN=   0.00000
  Li  -0.3801635  -0.2219765  -0.1576831 SPIN=   0.00000
  Li   0.0642934  -0.2775196   0.3423169 SPIN=   0.00000
  Li  -0.0642934   0.2780235  -0.3418130 SPIN=   0.00000
  Fe  -0.1948565  -0.1101558   0.3240152 SPIN=   4.00000
  Fe   0.1948565  -0.4811283   0.0847007 SPIN=   4.00000
  Fe  -0.4341710   0.3898442  -0.4152993 SPIN=   4.00000
  Fe   0.4341710   0.0188717  -0.1759848 SPIN=   4.00000
   O   0.2454547   0.3359211  -0.1635119 SPIN=   0.00000
   O  -0.1276784   0.0256805  -0.3138686 SPIN=   0.00000
   O   0.1096070   0.2128172   0.0465191 SPIN=   0.00000
   O   0.2056595   0.0289803  -0.1113191 SPIN=   0.00000
   O  -0.2454547  -0.4089666   0.0904664 SPIN=   0.00000
   O   0.1276784  -0.1861902   0.1533589 SPIN=   0.00000
   O  -0.1096070  -0.0630878   0.1032102 SPIN=   0.00000
   O  -0.2056595  -0.3169786  -0.1766792 SPIN=   0.00000
   O   0.4994330  -0.1640789  -0.4095336 SPIN=   0.00000
   O   0.3395491  -0.4743195  -0.3466411 SPIN=   0.00000
   O   0.1662980  -0.2871828  -0.3967898 SPIN=   0.00000
   O   0.1402994  -0.4710197  -0.6766792 SPIN=   0.00000
   O  -0.4994330   0.0910334   0.3364881 SPIN=   0.00000
   O  -0.3395491   0.3138098   0.1861314 SPIN=   0.00000
   O  -0.1662980   0.4369122   0.5465191 SPIN=   0.00000
   O  -0.1402994   0.1830214   0.3886809 SPIN=   0.00000
   S  -0.5000000  -0.0451872   0.4548128 SPIN=   0.00000
   S   0.5000000   0.4548128  -0.0451872 SPIN=   0.00000
   S  -0.0000000  -0.1394085  -0.1394085 SPIN=   0.00000
   S  -0.0000000   0.3605915   0.3605915 SPIN=   0.00000
   F   0.1588765   0.0451842  -0.4774763 SPIN=   0.00000
   F  -0.1588765   0.3636472  -0.1136923 SPIN=   0.00000
   F  -0.4773395  -0.4548158   0.3863077 SPIN=   0.00000
   F   0.4773395  -0.1363528   0.0225237 SPIN=   0.00000
%ENDBLOCK POSITIONS_FRAC

# Note: total spin =  16.00

KPOINTS_MP_SPACING 0.07

%BLOCK SPECIES_POT
QC5
%ENDBLOCK SPECIES_POT

SNAP_TO_SYMMETRY
SYMMETRY_GENERATE

