#              Generated by Buildcell
#
# at 07:34:06 (GMT+1.0) 4th August 2020
# in /lustre/scratch/uccabz1/launch_tmp
# on node-c12f-027
# by uccabz1
#
# compiler GCC version 4.9.2
# options -cpp -iprefix /lustre/shared/ucl/apps/gcc/4.9.2/bin/../lib/gcc/x86_64-unknown-linux-gnu/4.9.2/ -mtune=corei7 -march=x86-64 -g -Og
#
# seed  1432073187  -965965283 -1398425542   942702415  -354488437 -1797947553  -572044761  2038537905   823018908  1129798098 -1290582062   510325453
#
#      Author: C. J. Pickard (cjp20@cam.ac.uk)
#                Space group: P21/c
#

%BLOCK LATTICE_ABC
      4.19413      9.36487     10.19148
     90.00000     90.00000     92.20222
%ENDBLOCK LATTICE_ABC

%BLOCK POSITIONS_FRAC
  Li   0.0551210   0.2875003   0.1510755 SPIN=   0.00000
  Li   0.4448790   0.2124997  -0.3489245 SPIN=   0.00000
  Li  -0.0551210  -0.2875003  -0.1510755 SPIN=   0.00000
  Li  -0.4448790  -0.2124997   0.3489245 SPIN=   0.00000
  Fe  -0.2330591   0.1044937   0.3755510 SPIN=   4.00000
  Fe  -0.2669409   0.3955063  -0.1244490 SPIN=   4.00000
  Fe   0.2330591  -0.1044937  -0.3755510 SPIN=   4.00000
  Fe   0.2669409  -0.3955063   0.1244490 SPIN=   4.00000
   O   0.4448983  -0.5771490  -0.3899406 SPIN=   0.00000
   O  -0.0777224  -0.5224830  -0.2931986 SPIN=   0.00000
   O   0.1750400  -0.3580056  -0.4560351 SPIN=   0.00000
   O   0.4050604  -0.3766406  -0.2333434 SPIN=   0.00000
   S   0.2368191  -0.4585695  -0.3431294 SPIN=   0.00000
   O   0.0551017   0.0771490   0.1100594 SPIN=   0.00000
   O   0.5777224   0.0224830   0.2068014 SPIN=   0.00000
   O   0.3249600  -0.1419944   0.0439649 SPIN=   0.00000
   O   0.0949396  -0.1233594   0.2666566 SPIN=   0.00000
   S   0.2631809  -0.0414305   0.1568706 SPIN=   0.00000
   O  -0.4448983   0.5771490   0.3899406 SPIN=   0.00000
   O   0.0777224   0.5224830   0.2931986 SPIN=   0.00000
   O  -0.1750400   0.3580056   0.4560351 SPIN=   0.00000
   O  -0.4050604   0.3766406   0.2333434 SPIN=   0.00000
   S  -0.2368191   0.4585695   0.3431294 SPIN=   0.00000
   O  -0.0551017  -0.0771490  -0.1100594 SPIN=   0.00000
   O  -0.5777224  -0.0224830  -0.2068014 SPIN=   0.00000
   O  -0.3249600   0.1419944  -0.0439649 SPIN=   0.00000
   O  -0.0949396   0.1233594  -0.2666566 SPIN=   0.00000
   S  -0.2631809   0.0414305  -0.1568706 SPIN=   0.00000
   F  -0.2465742  -0.3469136   0.0184458 SPIN=   0.00000
   F  -0.2534258  -0.1530864  -0.4815542 SPIN=   0.00000
   F   0.2465742   0.3469136  -0.0184458 SPIN=   0.00000
   F   0.2534258   0.1530864   0.4815542 SPIN=   0.00000
%ENDBLOCK POSITIONS_FRAC

# Note: total spin =  16.00

KPOINTS_MP_SPACING 0.07

%BLOCK SPECIES_POT
QC5
%ENDBLOCK SPECIES_POT

SNAP_TO_SYMMETRY
SYMMETRY_GENERATE

