#              Generated by Buildcell
#
# at 00:01:23 (GMT+1.0) 18th August 2020
# in /scratch/scratch/uccabz1/launch_tmp
# on node-k10c-005
# by uccabz1
#
# compiler GCC version 4.9.2
# options -cpp -iprefix /scratch/UCL/applications/gcc/4.9.2/bin/../lib/gcc/x86_64-unknown-linux-gnu/4.9.2/ -mtune=corei7 -march=x86-64 -g -O2
#
# seed  -425376467  -285854013   627233338 -1653975204  1637334583  2079458820   465903554 -1368443773  1871268441   270878545   748388177  -646111614
#
#      Author: C. J. Pickard (cjp20@cam.ac.uk)
#                Space group: C2
#

%BLOCK LATTICE_ABC
      6.93181      6.93181      8.70581
     97.39218     97.39218    102.31339
%ENDBLOCK LATTICE_ABC

%BLOCK POSITIONS_FRAC
  Li   0.3415452  -0.2899219   0.2339645 SPIN=   0.00000
  Li   0.2899219  -0.3415452  -0.2339645 SPIN=   0.00000
  Li  -0.0111286   0.0748869  -0.2581186 SPIN=   0.00000
  Li  -0.0748869   0.0111286   0.2581186 SPIN=   0.00000
  Fe  -0.1643292  -0.4578980  -0.3199206 SPIN=   3.19997
  Fe   0.4578980   0.1643292   0.3199206 SPIN=   3.19997
  Fe  -0.3434668  -0.0866884  -0.0439840 SPIN=   4.80003
  Fe   0.0866884   0.3434668   0.0439840 SPIN=   4.80003
   O   0.2310361   0.2132190  -0.3285800 SPIN=   0.00000
   O   0.5627124   0.4490910  -0.2521717 SPIN=   0.00000
   O   0.4950416   0.1311055  -0.1461261 SPIN=   0.00000
   O   0.3321447   0.4013618  -0.0582959 SPIN=   0.00000
   S   0.4052337   0.2986943  -0.1962934 SPIN=   0.00000
   O  -0.2132190  -0.2310361   0.3285800 SPIN=   0.00000
   O  -0.4490910  -0.5627124   0.2521717 SPIN=   0.00000
   O  -0.1311055  -0.4950416   0.1461261 SPIN=   0.00000
   O  -0.4013618  -0.3321447   0.0582959 SPIN=   0.00000
   S  -0.2986943  -0.4052337   0.1962934 SPIN=   0.00000
   O  -0.5538193   0.0121989  -0.4110159 SPIN=   0.00000
   O  -0.5003074  -0.2934691  -0.5633722 SPIN=   0.00000
   O  -0.3909492  -0.2182465  -0.2757125 SPIN=   0.00000
   O  -0.2114608  -0.0123643  -0.4485262 SPIN=   0.00000
   S  -0.4141342  -0.1279703  -0.4246567 SPIN=   0.00000
   O  -0.0121989   0.5538193   0.4110159 SPIN=   0.00000
   O   0.2934691   0.5003074   0.5633722 SPIN=   0.00000
   O   0.2182465   0.3909492   0.2757125 SPIN=   0.00000
   O   0.0123643   0.2114608   0.4485262 SPIN=   0.00000
   S   0.1279703   0.4141342   0.4246567 SPIN=   0.00000
   F   0.1891993  -0.0828877   0.2904862 SPIN=   0.00000
   F   0.0828877  -0.1891993  -0.2904862 SPIN=   0.00000
   F  -0.0917951   0.2959654  -0.1753387 SPIN=   0.00000
   F  -0.2959654   0.0917951   0.1753387 SPIN=   0.00000
%ENDBLOCK POSITIONS_FRAC

# Note: total spin =  16.00

KPOINTS_MP_SPACING 0.07

%BLOCK SPECIES_POT
QC5
%ENDBLOCK SPECIES_POT

SNAP_TO_SYMMETRY
SYMMETRY_GENERATE

