#              Generated by Buildcell
#
# at 08:04:41 (GMT+1.0) 4th August 2020
# in /lustre/scratch/uccabz1/launch_tmp
# on node-c12j-007
# by uccabz1
#
# compiler GCC version 4.9.2
# options -cpp -iprefix /lustre/shared/ucl/apps/gcc/4.9.2/bin/../lib/gcc/x86_64-unknown-linux-gnu/4.9.2/ -mtune=corei7 -march=x86-64 -g -Og
#
# seed  -413633723  -973281208   913265789    48500918 -1181055544  2023219641  -177785074  -191004349   -53332995  2078412402  1508810512  -719124758
#
#      Author: C. J. Pickard (cjp20@cam.ac.uk)
#                Space group: Pc
#

%BLOCK LATTICE_ABC
      4.93921      7.87328     10.70002
    105.99058     90.00000     90.00000
%ENDBLOCK LATTICE_ABC

%BLOCK POSITIONS_FRAC
  Li   0.4366993  -0.4803713  -0.0431948 SPIN=   0.00000
  Li  -0.4366993   0.0196287  -0.0431948 SPIN=   0.00000
  Li   0.2785001   0.3608262   0.2682622 SPIN=   0.00000
  Li  -0.2785001  -0.1391738   0.2682622 SPIN=   0.00000
  Fe  -0.2269841  -0.4318656   0.4072545 SPIN=   2.69957
  Fe   0.2269841   0.0681344   0.4072545 SPIN=   2.69957
  Fe  -0.0632023  -0.3030014  -0.1198480 SPIN=   5.30043
  Fe   0.0632023   0.1969986  -0.1198480 SPIN=   5.30043
   O   0.3266223  -0.1282109   0.2338422 SPIN=   0.00000
   O   0.1304096  -0.3510336   0.3316876 SPIN=   0.00000
   O   0.4447062  -0.4440716   0.1451436 SPIN=   0.00000
   O  -0.0159124  -0.3398164   0.1128893 SPIN=   0.00000
   S   0.2214564  -0.3157832   0.2058907 SPIN=   0.00000
   O  -0.3266223   0.3717891   0.2338422 SPIN=   0.00000
   O  -0.1304096   0.1489664   0.3316876 SPIN=   0.00000
   O  -0.4447062   0.0559284   0.1451436 SPIN=   0.00000
   O   0.0159124   0.1601836   0.1128893 SPIN=   0.00000
   S  -0.2214564   0.1842168   0.2058907 SPIN=   0.00000
   O  -0.1794118  -0.0576786  -0.2833499 SPIN=   0.00000
   O   0.0459896  -0.3463470  -0.3731528 SPIN=   0.00000
   O   0.3208398  -0.0761889  -0.2886655 SPIN=   0.00000
   O   0.0632712  -0.1193724  -0.4934513 SPIN=   0.00000
   S   0.0626722  -0.1498967  -0.3596549 SPIN=   0.00000
   O   0.1794118   0.4423214  -0.2833499 SPIN=   0.00000
   O  -0.0459896   0.1536530  -0.3731528 SPIN=   0.00000
   O  -0.3208398   0.4238111  -0.2886655 SPIN=   0.00000
   O  -0.0632712   0.3806276  -0.4934513 SPIN=   0.00000
   S  -0.0626722   0.3501033  -0.3596549 SPIN=   0.00000
   F  -0.2281863   0.3674388  -0.0473582 SPIN=   0.00000
   F   0.2281863  -0.1325612  -0.0473582 SPIN=   0.00000
   F   0.4361903   0.4828372   0.4675945 SPIN=   0.00000
   F  -0.4361903  -0.0171628   0.4675945 SPIN=   0.00000
%ENDBLOCK POSITIONS_FRAC

# Note: total spin =  16.00

KPOINTS_MP_SPACING 0.07

%BLOCK SPECIES_POT
QC5
%ENDBLOCK SPECIES_POT

SNAP_TO_SYMMETRY
SYMMETRY_GENERATE

