#              Generated by Buildcell
#
# at 11:15:21 (GMT+1.0) 18th August 2020
# in /lustre/scratch/uccabz1/launch_tmp
# on node-c12c-029
# by uccabz1
#
# compiler GCC version 4.9.2
# options -cpp -iprefix /lustre/shared/ucl/apps/gcc/4.9.2/bin/../lib/gcc/x86_64-unknown-linux-gnu/4.9.2/ -mtune=corei7 -march=x86-64 -g -Og
#
# seed  -962185622  1932785411 -1617489911  1399459753  -376029485   513225882   468453371  1997854028   350207304   378031035  -801183225  1664531467
#
#      Author: C. J. Pickard (cjp20@cam.ac.uk)
#                Space group: Cc
#

%BLOCK LATTICE_ABC
      6.94402      8.37732      8.50361
    119.50992    108.76819     90.00000
%ENDBLOCK LATTICE_ABC

%BLOCK POSITIONS_FRAC
  Li   0.1544269  -0.1453536   0.0367098 SPIN=   0.00000
  Li  -0.3455731   0.1820634   0.0367098 SPIN=   0.00000
  Li   0.4082905   0.1327309   0.5551077 SPIN=   0.00000
  Li  -0.0917095   0.4223768   0.5551077 SPIN=   0.00000
  Fe   0.0154754  -0.3490548  -0.7995754 SPIN=   4.58025
  Fe  -0.4845246  -0.4505206  -0.7995754 SPIN=   4.58025
  Fe   0.1452118  -0.0767570  -0.2803412 SPIN=   3.41975
  Fe  -0.3547882  -0.2035842  -0.2803412 SPIN=   3.41975
   O  -0.2677211  -0.0533321   0.0313627 SPIN=   0.00000
   O  -0.1069677   0.1318743   0.3907009 SPIN=   0.00000
   O  -0.2405233  -0.2077061   0.2198651 SPIN=   0.00000
   O  -0.4849768   0.0087823   0.2284999 SPIN=   0.00000
   S  -0.2750472  -0.0300954   0.2176071 SPIN=   0.00000
   O   0.2322789   0.0846948   0.0313627 SPIN=   0.00000
   O   0.3930323   0.2588266   0.3907009 SPIN=   0.00000
   O   0.2594767   0.4275712   0.2198651 SPIN=   0.00000
   O   0.0150232   0.2197176   0.2284999 SPIN=   0.00000
   S   0.2249528   0.2477025   0.2176071 SPIN=   0.00000
   O   0.0784466   0.2190779  -0.2506156 SPIN=   0.00000
   O  -0.2969785   0.1677055  -0.4326985 SPIN=   0.00000
   O  -0.1196734   0.4677262  -0.1251534 SPIN=   0.00000
   O  -0.1762177   0.1793937  -0.1191745 SPIN=   0.00000
   S  -0.1286057   0.2584758  -0.2319105 SPIN=   0.00000
   O   0.5784466  -0.4696935  -0.2506156 SPIN=   0.00000
   O   0.2030215  -0.6004040  -0.4326985 SPIN=   0.00000
   O   0.3803266  -0.5928796  -0.1251534 SPIN=   0.00000
   O   0.3237823  -0.2985682  -0.1191745 SPIN=   0.00000
   S   0.3713943  -0.4903863  -0.2319105 SPIN=   0.00000
   F   0.4214259   0.0100232  -0.2052817 SPIN=   0.00000
   F  -0.0785741  -0.2153049  -0.2052817 SPIN=   0.00000
   F   0.2760686  -0.2606897   0.2301238 SPIN=   0.00000
   F  -0.2239314   0.4908135   0.2301238 SPIN=   0.00000
%ENDBLOCK POSITIONS_FRAC

# Note: total spin =  16.00

KPOINTS_MP_SPACING 0.07

%BLOCK SPECIES_POT
QC5
%ENDBLOCK SPECIES_POT

SNAP_TO_SYMMETRY
SYMMETRY_GENERATE

