#              Generated by Buildcell
#
# at 05:57:26 (GMT+1.0) 18th August 2020
# in /lustre/scratch/uccabz1/launch_tmp
# on node-c12h-020
# by uccabz1
#
# compiler GCC version 4.9.2
# options -cpp -iprefix /lustre/shared/ucl/apps/gcc/4.9.2/bin/../lib/gcc/x86_64-unknown-linux-gnu/4.9.2/ -mtune=corei7 -march=x86-64 -g -Og
#
# seed   766603653  -614789059 -1184577107  1650097476 -1055842424  1630678459   109005817   728851946  -435612957   137397112  2125911384  1856270056
#
#      Author: C. J. Pickard (cjp20@cam.ac.uk)
#                Space group: Pcc2
#

%BLOCK LATTICE_ABC
      7.07696      7.46786      7.56863
     90.00000     90.00000     90.00000
%ENDBLOCK LATTICE_ABC

%BLOCK POSITIONS_FRAC
  Li  -0.2342751  -0.3933659   0.1128936 SPIN=   0.00000
  Li   0.2342751  -0.3933659  -0.1128936 SPIN=   0.00000
  Li  -0.2342751   0.1066341  -0.1128936 SPIN=   0.00000
  Li   0.2342751   0.1066341   0.1128936 SPIN=   0.00000
  Fe  -0.3765634   0.2593446   0.2775671 SPIN=   4.00000
  Fe   0.3765634   0.2593446  -0.2775671 SPIN=   4.00000
  Fe  -0.3765634  -0.2406554  -0.2775671 SPIN=   4.00000
  Fe   0.3765634  -0.2406554   0.2775671 SPIN=   4.00000
   O   0.0441111   0.5319541  -0.3498144 SPIN=   0.00000
   O  -0.2076145   0.3061967  -0.3934527 SPIN=   0.00000
   O  -0.2157488   0.5057778  -0.1325191 SPIN=   0.00000
   O   0.0263131   0.2675346  -0.1534016 SPIN=   0.00000
   S  -0.0882348   0.4028658  -0.2572969 SPIN=   0.00000
   O  -0.0441111   0.5319541   0.3498144 SPIN=   0.00000
   O   0.2076145   0.3061967   0.3934527 SPIN=   0.00000
   O   0.2157488   0.5057778   0.1325191 SPIN=   0.00000
   O  -0.0263131   0.2675346   0.1534016 SPIN=   0.00000
   S   0.0882348   0.4028658   0.2572969 SPIN=   0.00000
   O   0.0441111   0.0319541   0.3498144 SPIN=   0.00000
   O  -0.2076145  -0.1938033   0.3934527 SPIN=   0.00000
   O  -0.2157488   0.0057778   0.1325191 SPIN=   0.00000
   O   0.0263131  -0.2324654   0.1534016 SPIN=   0.00000
   S  -0.0882348  -0.0971342   0.2572969 SPIN=   0.00000
   O  -0.0441111   0.0319541  -0.3498144 SPIN=   0.00000
   O   0.2076145  -0.1938033  -0.3934527 SPIN=   0.00000
   O   0.2157488   0.0057778  -0.1325191 SPIN=   0.00000
   O  -0.0263131  -0.2324654  -0.1534016 SPIN=   0.00000
   S   0.0882348  -0.0971342  -0.2572969 SPIN=   0.00000
   F  -0.4143093  -0.4790399   0.2801790 SPIN=   0.00000
   F   0.4143093  -0.4790399  -0.2801790 SPIN=   0.00000
   F  -0.4143093   0.0209601  -0.2801790 SPIN=   0.00000
   F   0.4143093   0.0209601   0.2801790 SPIN=   0.00000
%ENDBLOCK POSITIONS_FRAC

# Note: total spin =  16.00

KPOINTS_MP_SPACING 0.07

%BLOCK SPECIES_POT
QC5
%ENDBLOCK SPECIES_POT

SNAP_TO_SYMMETRY
SYMMETRY_GENERATE

