#              Generated by Buildcell
#
# at 15:35:23 (GMT+1.0) 18th August 2020
# in /lustre/scratch/uccabz1/launch_tmp
# on node-c12k-032
# by uccabz1
#
# compiler GCC version 4.9.2
# options -cpp -iprefix /lustre/shared/ucl/apps/gcc/4.9.2/bin/../lib/gcc/x86_64-unknown-linux-gnu/4.9.2/ -mtune=corei7 -march=x86-64 -g -Og
#
# seed  1654082863  1487580851  -149053844 -1208077457  1789429723   249406982   838923624   337424287  -387466853  1021137867 -1834184932 -1089577781
#
#      Author: C. J. Pickard (cjp20@cam.ac.uk)
#                Space group: P21
#

%BLOCK LATTICE_ABC
      6.57150      7.21732      8.90859
    108.79169     90.00000     90.00000
%ENDBLOCK LATTICE_ABC

%BLOCK POSITIONS_FRAC
  Li   0.2659676  -0.0278152   0.3838064 SPIN=   0.00000
  Li  -0.2340324   0.0278152  -0.3838064 SPIN=   0.00000
  Li  -0.2351416  -0.1042171   0.0469264 SPIN=   0.00000
  Li   0.2648584   0.1042171  -0.0469264 SPIN=   0.00000
  Fe   0.0085177   0.2149942   0.2521410 SPIN=   2.88623
  Fe  -0.4914823  -0.2149942  -0.2521410 SPIN=   2.88623
  Fe  -0.2027703  -0.2848265   0.3039957 SPIN=   5.11377
  Fe   0.2972297   0.2848265  -0.3039957 SPIN=   5.11377
   O   0.5556656  -0.3051702  -0.0504494 SPIN=   0.00000
   O   0.5026292  -0.2130401   0.2394013 SPIN=   0.00000
   O   0.2850933  -0.4661862   0.0561571 SPIN=   0.00000
   O   0.2484577  -0.1191106   0.0719927 SPIN=   0.00000
   S   0.3979614  -0.2758768   0.0792755 SPIN=   0.00000
   O   0.0556656   0.3051702   0.0504494 SPIN=   0.00000
   O   0.0026292   0.2130401  -0.2394013 SPIN=   0.00000
   O  -0.2149067   0.4661862  -0.0561571 SPIN=   0.00000
   O  -0.2515423   0.1191106  -0.0719927 SPIN=   0.00000
   S  -0.1020386   0.2758768  -0.0792755 SPIN=   0.00000
   O  -0.0148813  -0.2796843  -0.0681566 SPIN=   0.00000
   O   0.2080587  -0.3440854  -0.3033493 SPIN=   0.00000
   O  -0.0649179  -0.0956557  -0.2565470 SPIN=   0.00000
   O  -0.1527831  -0.4475136  -0.3361438 SPIN=   0.00000
   S  -0.0061309  -0.2917347  -0.2410492 SPIN=   0.00000
   O   0.4851187   0.2796843   0.0681566 SPIN=   0.00000
   O   0.7080587   0.3440854   0.3033493 SPIN=   0.00000
   O   0.4350821   0.0956557   0.2565470 SPIN=   0.00000
   O   0.3472169   0.4475136   0.3361438 SPIN=   0.00000
   S   0.4938691   0.2917347   0.2410492 SPIN=   0.00000
   F   0.0915693   0.2651907   0.4817737 SPIN=   0.00000
   F  -0.4084307  -0.2651907  -0.4817737 SPIN=   0.00000
   F   0.0891180  -0.2457611   0.3929287 SPIN=   0.00000
   F  -0.4108820   0.2457611  -0.3929287 SPIN=   0.00000
%ENDBLOCK POSITIONS_FRAC

# Note: total spin =  16.00

KPOINTS_MP_SPACING 0.07

%BLOCK SPECIES_POT
QC5
%ENDBLOCK SPECIES_POT

SNAP_TO_SYMMETRY
SYMMETRY_GENERATE

