#              Generated by Buildcell
#
# at 06:01:25 (GMT+1.0) 4th August 2020
# in /lustre/scratch/uccabz1/launch_tmp
# on node-c12g-021
# by uccabz1
#
# compiler GCC version 4.9.2
# options -cpp -iprefix /lustre/shared/ucl/apps/gcc/4.9.2/bin/../lib/gcc/x86_64-unknown-linux-gnu/4.9.2/ -mtune=corei7 -march=x86-64 -g -Og
#
# seed  -959532685 -2103029345   651743461   244487606  1545193446  1852768248   -95324544  -818045231  1502086694  1653299871   415821111 -1205403413
#
#      Author: C. J. Pickard (cjp20@cam.ac.uk)
#                Space group: P21/c
#

%BLOCK LATTICE_ABC
      4.47648      8.21520     11.13246
     90.00000     90.00000    102.30058
%ENDBLOCK LATTICE_ABC

%BLOCK POSITIONS_FRAC
  Li   0.3176596  -0.3108126   0.3933704 SPIN=   0.00000
  Li  -0.3176596  -0.1891874  -0.1066296 SPIN=   0.00000
  Li  -0.3176596   0.3108126  -0.3933704 SPIN=   0.00000
  Li   0.3176596   0.1891874   0.1066296 SPIN=   0.00000
  Fe   0.3293045  -0.4421673   0.1386189 SPIN=   4.00000
  Fe  -0.3293045  -0.0578327  -0.3613811 SPIN=   4.00000
  Fe  -0.3293045   0.4421673  -0.1386189 SPIN=   4.00000
  Fe   0.3293045   0.0578327   0.3613811 SPIN=   4.00000
   O  -0.0579495   0.5889541   0.2827187 SPIN=   0.00000
   O  -0.2792824   0.4635850   0.4736387 SPIN=   0.00000
   O   0.0132046   0.3097950   0.3431675 SPIN=   0.00000
   O  -0.4971291   0.3480594   0.2795693 SPIN=   0.00000
   S  -0.2052891   0.4275984   0.3447735 SPIN=   0.00000
   O   0.0579495  -0.0889541  -0.2172813 SPIN=   0.00000
   O   0.2792824   0.0364150  -0.0263613 SPIN=   0.00000
   O  -0.0132046   0.1902050  -0.1568325 SPIN=   0.00000
   O   0.4971291   0.1519406  -0.2204307 SPIN=   0.00000
   S   0.2052891   0.0724016  -0.1552265 SPIN=   0.00000
   O   0.0579495  -0.5889541  -0.2827187 SPIN=   0.00000
   O   0.2792824  -0.4635850  -0.4736387 SPIN=   0.00000
   O  -0.0132046  -0.3097950  -0.3431675 SPIN=   0.00000
   O   0.4971291  -0.3480594  -0.2795693 SPIN=   0.00000
   S   0.2052891  -0.4275984  -0.3447735 SPIN=   0.00000
   O  -0.0579495   0.0889541   0.2172813 SPIN=   0.00000
   O  -0.2792824  -0.0364150   0.0263613 SPIN=   0.00000
   O   0.0132046  -0.1902050   0.1568325 SPIN=   0.00000
   O  -0.4971291  -0.1519406   0.2204307 SPIN=   0.00000
   S  -0.2052891  -0.0724016   0.1552265 SPIN=   0.00000
   F   0.3108796   0.1852546  -0.4517256 SPIN=   0.00000
   F  -0.3108796   0.3147454   0.0482744 SPIN=   0.00000
   F  -0.3108796  -0.1852546   0.4517256 SPIN=   0.00000
   F   0.3108796  -0.3147454  -0.0482744 SPIN=   0.00000
%ENDBLOCK POSITIONS_FRAC

# Note: total spin =  16.00

KPOINTS_MP_SPACING 0.07

%BLOCK SPECIES_POT
QC5
%ENDBLOCK SPECIES_POT

SNAP_TO_SYMMETRY
SYMMETRY_GENERATE

