#              Generated by Buildcell
#
# at 22:41:30 (GMT+1.0) 17th August 2020
# in /lustre/scratch/uccabz1/launch_tmp
# on node-c12e-013
# by uccabz1
#
# compiler GCC version 4.9.2
# options -cpp -iprefix /lustre/shared/ucl/apps/gcc/4.9.2/bin/../lib/gcc/x86_64-unknown-linux-gnu/4.9.2/ -mtune=corei7 -march=x86-64 -g -Og
#
# seed -1502691171  2104112408  1778816743   613576299   207398374  1515025666  1484125358   710081366  -579037362  1602127455   886904710 -1712108852
#
#      Author: C. J. Pickard (cjp20@cam.ac.uk)
#                Space group: Pca21
#

%BLOCK LATTICE_ABC
      4.07200      9.40761     10.44176
     90.00000     90.00000     90.00000
%ENDBLOCK LATTICE_ABC

%BLOCK POSITIONS_FRAC
  Li   0.2390369  -0.1936776  -0.0457966 SPIN=   0.00000
  Li  -0.2390369   0.1936776   0.4542034 SPIN=   0.00000
  Li  -0.2390369   0.3063224  -0.0457966 SPIN=   0.00000
  Li   0.2390369  -0.3063224   0.4542034 SPIN=   0.00000
  Fe  -0.1003132  -0.4267732  -0.1740406 SPIN=   4.00000
  Fe   0.1003132   0.4267732   0.3259594 SPIN=   4.00000
  Fe   0.1003132   0.0732268  -0.1740406 SPIN=   4.00000
  Fe  -0.1003132  -0.0732268   0.3259594 SPIN=   4.00000
   O   0.0966780   0.3106082   0.0847073 SPIN=   0.00000
   O   0.0608851   0.1334898   0.2593999 SPIN=   0.00000
   O   0.5653203   0.1501528   0.1280433 SPIN=   0.00000
   O   0.0539003   0.0544553   0.0333486 SPIN=   0.00000
   S   0.1941959   0.1621765   0.1263748 SPIN=   0.00000
   O  -0.0966780  -0.3106082  -0.4152927 SPIN=   0.00000
   O  -0.0608851  -0.1334898  -0.2406001 SPIN=   0.00000
   O  -0.5653203  -0.1501528  -0.3719567 SPIN=   0.00000
   O  -0.0539003  -0.0544553  -0.4666514 SPIN=   0.00000
   S  -0.1941959  -0.1621765  -0.3736252 SPIN=   0.00000
   O  -0.0966780  -0.1893918   0.0847073 SPIN=   0.00000
   O  -0.0608851  -0.3665102   0.2593999 SPIN=   0.00000
   O  -0.5653203  -0.3498472   0.1280433 SPIN=   0.00000
   O  -0.0539003  -0.4455447   0.0333486 SPIN=   0.00000
   S  -0.1941959  -0.3378235   0.1263748 SPIN=   0.00000
   O   0.0966780   0.1893918  -0.4152927 SPIN=   0.00000
   O   0.0608851   0.3665102  -0.2406001 SPIN=   0.00000
   O   0.5653203   0.3498472  -0.3719567 SPIN=   0.00000
   O   0.0539003   0.4455447  -0.4666514 SPIN=   0.00000
   S   0.1941959   0.3378235  -0.3736252 SPIN=   0.00000
   F  -0.3219359   0.3713748   0.3417624 SPIN=   0.00000
   F   0.3219359  -0.3713748  -0.1582376 SPIN=   0.00000
   F   0.3219359  -0.1286252   0.3417624 SPIN=   0.00000
   F  -0.3219359   0.1286252  -0.1582376 SPIN=   0.00000
%ENDBLOCK POSITIONS_FRAC

# Note: total spin =  16.00

KPOINTS_MP_SPACING 0.07

%BLOCK SPECIES_POT
QC5
%ENDBLOCK SPECIES_POT

SNAP_TO_SYMMETRY
SYMMETRY_GENERATE

