#              Generated by Buildcell
#
# at 16:13:25 (GMT+1.0) 18th August 2020
# in /lustre/scratch/uccabz1/launch_tmp
# on node-c12p-018
# by uccabz1
#
# compiler GCC version 4.9.2
# options -cpp -iprefix /lustre/shared/ucl/apps/gcc/4.9.2/bin/../lib/gcc/x86_64-unknown-linux-gnu/4.9.2/ -mtune=corei7 -march=x86-64 -g -Og
#
# seed  -326940997  1744521457   383628119   459684185 -1223286638 -1153613502  2062896563  -202926098  2018909460  1855909294  1362268586 -2044298401
#
#      Author: C. J. Pickard (cjp20@cam.ac.uk)
#                Space group: Pba2
#

%BLOCK LATTICE_ABC
      5.18770      8.12747      9.48702
     90.00000     90.00000     90.00000
%ENDBLOCK LATTICE_ABC

%BLOCK POSITIONS_FRAC
  Li   0.1658507  -0.0065677  -0.2722950 SPIN=   0.00000
  Li   0.1658507   0.0065677   0.2722950 SPIN=   0.00000
  Li   0.1658507  -0.4934323   0.2277050 SPIN=   0.00000
  Li   0.1658507   0.4934323  -0.2277050 SPIN=   0.00000
  Fe  -0.4385174   0.2387574  -0.1843116 SPIN=   4.00000
  Fe  -0.4385174  -0.2387574   0.1843116 SPIN=   4.00000
  Fe  -0.4385174   0.2612426   0.3156884 SPIN=   4.00000
  Fe  -0.4385174  -0.2612426  -0.3156884 SPIN=   4.00000
   O   0.3154198  -0.1751415   0.4199137 SPIN=   0.00000
   O  -0.1537741  -0.1238629   0.4371592 SPIN=   0.00000
   O   0.0755118  -0.2627787   0.6325312 SPIN=   0.00000
   O   0.0087623  -0.4078458   0.4060900 SPIN=   0.00000
   S   0.0614799  -0.2424072   0.4739235 SPIN=   0.00000
   O   0.3154198   0.1751415  -0.4199137 SPIN=   0.00000
   O  -0.1537741   0.1238629  -0.4371592 SPIN=   0.00000
   O   0.0755118   0.2627787  -0.6325312 SPIN=   0.00000
   O   0.0087623   0.4078458  -0.4060900 SPIN=   0.00000
   S   0.0614799   0.2424072  -0.4739235 SPIN=   0.00000
   O   0.3154198  -0.3248585  -0.0800863 SPIN=   0.00000
   O  -0.1537741  -0.3761371  -0.0628408 SPIN=   0.00000
   O   0.0755118  -0.2372213   0.1325312 SPIN=   0.00000
   O   0.0087623  -0.0921542  -0.0939100 SPIN=   0.00000
   S   0.0614799  -0.2575928  -0.0260765 SPIN=   0.00000
   O   0.3154198   0.3248585   0.0800863 SPIN=   0.00000
   O  -0.1537741   0.3761371   0.0628408 SPIN=   0.00000
   O   0.0755118   0.2372213  -0.1325312 SPIN=   0.00000
   O   0.0087623   0.0921542   0.0939100 SPIN=   0.00000
   S   0.0614799   0.2575928   0.0260765 SPIN=   0.00000
   F  -0.4468139  -0.4850538   0.2818122 SPIN=   0.00000
   F  -0.4468139   0.4850538  -0.2818122 SPIN=   0.00000
   F  -0.4468139  -0.0149462  -0.2181878 SPIN=   0.00000
   F  -0.4468139   0.0149462   0.2181878 SPIN=   0.00000
%ENDBLOCK POSITIONS_FRAC

# Note: total spin =  16.00

KPOINTS_MP_SPACING 0.07

%BLOCK SPECIES_POT
QC5
%ENDBLOCK SPECIES_POT

SNAP_TO_SYMMETRY
SYMMETRY_GENERATE

