#              Generated by Buildcell
#
# at 13:06:41 (GMT+1.0) 18th August 2020
# in /scratch/scratch/uccabz1/launch_tmp
# on node-k10b-019
# by uccabz1
#
# compiler GCC version 4.9.2
# options -cpp -iprefix /scratch/UCL/applications/gcc/4.9.2/bin/../lib/gcc/x86_64-unknown-linux-gnu/4.9.2/ -mtune=corei7 -march=x86-64 -g -O2
#
# seed  1763152131 -1401671980   873668735 -1648859830   -77899423  1260981838   482694595  1198134903   702837032 -1758734586   752242760   645143022
#
#      Author: C. J. Pickard (cjp20@cam.ac.uk)
#                Space group: Pca21
#

%BLOCK LATTICE_ABC
      5.41510      6.62452     11.15062
     90.00000     90.00000     90.00000
%ENDBLOCK LATTICE_ABC

%BLOCK POSITIONS_FRAC
  Li   0.1833646  -0.2679668   0.3272524 SPIN=   0.00000
  Li  -0.1833646   0.2320332  -0.3272524 SPIN=   0.00000
  Li  -0.1833646  -0.2679668  -0.1727476 SPIN=   0.00000
  Li   0.1833646   0.2320332   0.1727476 SPIN=   0.00000
  Fe   0.3191652   0.0258656  -0.4441574 SPIN=   4.00000
  Fe  -0.3191652  -0.4741344   0.4441574 SPIN=   4.00000
  Fe  -0.3191652   0.0258656   0.0558426 SPIN=   4.00000
  Fe   0.3191652  -0.4741344  -0.0558426 SPIN=   4.00000
   O  -0.3774720   0.1596695   0.3787202 SPIN=   0.00000
   O  -0.1080464   0.0364035   0.2150769 SPIN=   0.00000
   O  -0.1483233  -0.1610930   0.4024595 SPIN=   0.00000
   O   0.0766978   0.1640769   0.4033826 SPIN=   0.00000
   S  -0.1392860   0.0497642   0.3499098 SPIN=   0.00000
   O   0.3774720  -0.3403305  -0.3787202 SPIN=   0.00000
   O   0.1080464  -0.4635965  -0.2150769 SPIN=   0.00000
   O   0.1483233  -0.6610930  -0.4024595 SPIN=   0.00000
   O  -0.0766978  -0.3359231  -0.4033826 SPIN=   0.00000
   S   0.1392860  -0.4502358  -0.3499098 SPIN=   0.00000
   O   0.3774720   0.1596695  -0.1212798 SPIN=   0.00000
   O   0.1080464   0.0364035  -0.2849231 SPIN=   0.00000
   O   0.1483233  -0.1610930  -0.0975405 SPIN=   0.00000
   O  -0.0766978   0.1640769  -0.0966174 SPIN=   0.00000
   S   0.1392860   0.0497642  -0.1500902 SPIN=   0.00000
   O  -0.3774720  -0.3403305   0.1212798 SPIN=   0.00000
   O  -0.1080464  -0.4635965   0.2849231 SPIN=   0.00000
   O  -0.1483233  -0.6610930   0.0975405 SPIN=   0.00000
   O   0.0766978  -0.3359231   0.0966174 SPIN=   0.00000
   S  -0.1392860  -0.4502358   0.1500902 SPIN=   0.00000
   F  -0.3642999  -0.0070682  -0.3563437 SPIN=   0.00000
   F   0.3642999   0.4929318   0.3563437 SPIN=   0.00000
   F   0.3642999  -0.0070682   0.1436563 SPIN=   0.00000
   F  -0.3642999   0.4929318  -0.1436563 SPIN=   0.00000
%ENDBLOCK POSITIONS_FRAC

# Note: total spin =  16.00

KPOINTS_MP_SPACING 0.07

%BLOCK SPECIES_POT
QC5
%ENDBLOCK SPECIES_POT

SNAP_TO_SYMMETRY
SYMMETRY_GENERATE

