#              Generated by Buildcell
#
# at 10:25:15 (GMT+1.0) 4th August 2020
# in /lustre/scratch/uccabz1/launch_tmp
# on node-c12e-007
# by uccabz1
#
# compiler GCC version 4.9.2
# options -cpp -iprefix /lustre/shared/ucl/apps/gcc/4.9.2/bin/../lib/gcc/x86_64-unknown-linux-gnu/4.9.2/ -mtune=corei7 -march=x86-64 -g -Og
#
# seed  -199206523  -797874169 -1413394353   264145399 -2001630407 -1502841688   453568285  1601262428  -741774741 -1195076175  1620201153 -2008658225
#
#      Author: C. J. Pickard (cjp20@cam.ac.uk)
#                Space group: P-1
#

%BLOCK LATTICE_ABC
      4.85655      8.94312      9.58582
    103.48173     95.85052     95.11940
%ENDBLOCK LATTICE_ABC

%BLOCK POSITIONS_FRAC
  Li   0.2011568  -0.1561681   0.4597100 SPIN=   0.00000
  Li  -0.2011568   0.1561681  -0.4597100 SPIN=   0.00000
  Li  -0.2168760   0.0325444   0.1400812 SPIN=   0.00000
  Li   0.2168760  -0.0325444  -0.1400812 SPIN=   0.00000
  Fe  -0.2193028  -0.3402418   0.0269151 SPIN=   4.80484
  Fe   0.2193028   0.3402418  -0.0269151 SPIN=   4.80484
  Fe  -0.3099765  -0.2206109  -0.3147370 SPIN=   3.19516
  Fe   0.3099765   0.2206109   0.3147370 SPIN=   3.19516
   O  -0.0808458   0.1182438  -0.2659670 SPIN=   0.00000
   O  -0.3112144   0.1109530  -0.0485552 SPIN=   0.00000
   O  -0.5862270   0.0327515  -0.2912125 SPIN=   0.00000
   O  -0.4076174   0.3081012  -0.1846501 SPIN=   0.00000
   S  -0.3464762   0.1425124  -0.1975962 SPIN=   0.00000
   O   0.0808458  -0.1182438   0.2659670 SPIN=   0.00000
   O   0.3112144  -0.1109530   0.0485552 SPIN=   0.00000
   O   0.5862270  -0.0327515   0.2912125 SPIN=   0.00000
   O   0.4076174  -0.3081012   0.1846501 SPIN=   0.00000
   S   0.3464762  -0.1425124   0.1975962 SPIN=   0.00000
   O  -0.0655092   0.6622150   0.3575493 SPIN=   0.00000
   O  -0.0204601   0.4657383   0.1343235 SPIN=   0.00000
   O  -0.4148899   0.4310028   0.2725585 SPIN=   0.00000
   O   0.0634027   0.4043989   0.3727485 SPIN=   0.00000
   S  -0.1093641   0.4908388   0.2842950 SPIN=   0.00000
   O   0.0655092  -0.6622150  -0.3575493 SPIN=   0.00000
   O   0.0204601  -0.4657383  -0.1343235 SPIN=   0.00000
   O   0.4148899  -0.4310028  -0.2725585 SPIN=   0.00000
   O  -0.0634027  -0.4043989  -0.3727485 SPIN=   0.00000
   S   0.1093641  -0.4908388  -0.2842950 SPIN=   0.00000
   F   0.2296635   0.1962819   0.0840437 SPIN=   0.00000
   F  -0.2296635  -0.1962819  -0.0840437 SPIN=   0.00000
   F   0.4739368  -0.2832703  -0.4923453 SPIN=   0.00000
   F  -0.4739368   0.2832703   0.4923453 SPIN=   0.00000
%ENDBLOCK POSITIONS_FRAC

# Note: total spin =  16.00

KPOINTS_MP_SPACING 0.07

%BLOCK SPECIES_POT
QC5
%ENDBLOCK SPECIES_POT

SNAP_TO_SYMMETRY
SYMMETRY_GENERATE

