#              Generated by Buildcell
#
# at 09:40:15 (GMT+1.0) 4th August 2020
# in /lustre/scratch/uccabz1/launch_tmp
# on node-c12e-020
# by uccabz1
#
# compiler GCC version 4.9.2
# options -cpp -iprefix /lustre/shared/ucl/apps/gcc/4.9.2/bin/../lib/gcc/x86_64-unknown-linux-gnu/4.9.2/ -mtune=corei7 -march=x86-64 -g -Og
#
# seed  -952060722  -524149757 -1750611373     6142850 -1424718485  1551759505  -355621565  -669654163 -1654801880  -579158146   323980579 -2110975637
#
#      Author: C. J. Pickard (cjp20@cam.ac.uk)
#                Space group: Cmc21
#

%BLOCK LATTICE_ABC
      7.26125      7.45942      8.22909
     90.00000    116.18007     90.00000
%ENDBLOCK LATTICE_ABC

%BLOCK POSITIONS_FRAC
  Li   0.4698249  -0.4986048   0.3964510 SPIN=   0.00000
  Li  -0.4698249   0.0013952  -0.3964510 SPIN=   0.00000
  Li  -0.0733740   0.0013952   0.3964510 SPIN=   0.00000
  Li   0.0733740  -0.4986048  -0.3964510 SPIN=   0.00000
  Fe   0.2146598   0.1595922   0.2475089 SPIN=   4.00000
  Fe  -0.2146598  -0.3404078  -0.2475089 SPIN=   4.00000
  Fe   0.0328491  -0.3404078   0.2475089 SPIN=   4.00000
  Fe  -0.0328491   0.1595922  -0.2475089 SPIN=   4.00000
   O  -0.3595059  -0.2689254  -0.5572314 SPIN=   0.00000
   O  -0.4580391   0.0313193  -0.6970222 SPIN=   0.00000
   O  -0.6807137  -0.2304595  -0.8389228 SPIN=   0.00000
   O  -0.3446441  -0.2029769  -0.8459563 SPIN=   0.00000
   S  -0.4607257  -0.1677606  -0.7347832 SPIN=   0.00000
   O   0.3595059   0.2310746   0.5572314 SPIN=   0.00000
   O   0.4580391   0.5313193   0.6970222 SPIN=   0.00000
   O   0.6807137   0.2695405   0.8389228 SPIN=   0.00000
   O   0.3446441   0.2970231   0.8459563 SPIN=   0.00000
   S   0.4607257   0.3322394   0.7347832 SPIN=   0.00000
   O  -0.1977255   0.2310746  -0.5572314 SPIN=   0.00000
   O  -0.2389831   0.5313193  -0.6970222 SPIN=   0.00000
   O  -0.1582090   0.2695405  -0.8389228 SPIN=   0.00000
   O  -0.5013122   0.2970231  -0.8459563 SPIN=   0.00000
   S  -0.2740574   0.3322394  -0.7347832 SPIN=   0.00000
   O   0.1977255  -0.2689254   0.5572314 SPIN=   0.00000
   O   0.2389831   0.0313193   0.6970222 SPIN=   0.00000
   O   0.1582090  -0.2304595   0.8389228 SPIN=   0.00000
   O   0.5013122  -0.2029769   0.8459563 SPIN=   0.00000
   S   0.2740574  -0.1677606   0.7347832 SPIN=   0.00000
   F  -0.0305412   0.4407960  -0.2413715 SPIN=   0.00000
   F   0.0305412  -0.0592040   0.2413715 SPIN=   0.00000
   F  -0.2108303  -0.0592040  -0.2413715 SPIN=   0.00000
   F   0.2108303   0.4407960   0.2413715 SPIN=   0.00000
%ENDBLOCK POSITIONS_FRAC

# Note: total spin =  16.00

KPOINTS_MP_SPACING 0.07

%BLOCK SPECIES_POT
QC5
%ENDBLOCK SPECIES_POT

SNAP_TO_SYMMETRY
SYMMETRY_GENERATE

