#              Generated by Buildcell
#
# at 07:07:10 (GMT+1.0) 4th August 2020
# in /lustre/scratch/uccabz1/launch_tmp
# on node-c12h-022
# by uccabz1
#
# compiler GCC version 4.9.2
# options -cpp -iprefix /lustre/shared/ucl/apps/gcc/4.9.2/bin/../lib/gcc/x86_64-unknown-linux-gnu/4.9.2/ -mtune=corei7 -march=x86-64 -g -Og
#
# seed  -871909530    69055313   611574503   297064593  -509243872   723082068 -1477038423  -104284006  -276895036 -2078317406  -188796308  -200913431
#
#      Author: C. J. Pickard (cjp20@cam.ac.uk)
#                Space group: P21
#

%BLOCK LATTICE_ABC
      7.34269      7.42511      7.99755
     90.00000    113.45537     90.00000
%ENDBLOCK LATTICE_ABC

%BLOCK POSITIONS_FRAC
  Li   0.4786179  -0.3229550  -0.2303235 SPIN=   0.00000
  Li  -0.4786179   0.1770450   0.2303235 SPIN=   0.00000
  Li   0.0338637  -0.3379883   0.3495804 SPIN=   0.00000
  Li  -0.0338637   0.1620117  -0.3495804 SPIN=   0.00000
  Fe   0.3816124   0.0443159  -0.1485340 SPIN=   2.96015
  Fe  -0.3816124  -0.4556841   0.1485340 SPIN=   2.96015
  Fe  -0.1014931  -0.4445912  -0.3405748 SPIN=   5.03985
  Fe   0.1014931   0.0554088   0.3405748 SPIN=   5.03985
   O  -0.5830726  -0.0701526  -0.3738379 SPIN=   0.00000
   O  -0.3599007  -0.2884889  -0.4313474 SPIN=   0.00000
   O  -0.2444931   0.0223538  -0.3341522 SPIN=   0.00000
   O  -0.5006532  -0.0337989  -0.6433909 SPIN=   0.00000
   S  -0.4220299  -0.0925217  -0.4456821 SPIN=   0.00000
   O   0.5830726   0.4298474   0.3738379 SPIN=   0.00000
   O   0.3599007   0.2115111   0.4313474 SPIN=   0.00000
   O   0.2444931   0.5223538   0.3341522 SPIN=   0.00000
   O   0.5006532   0.4662011   0.6433909 SPIN=   0.00000
   S   0.4220299   0.4074783   0.4456821 SPIN=   0.00000
   O  -0.4045170   0.2344999  -0.1522621 SPIN=   0.00000
   O  -0.1311286   0.3907979   0.0949001 SPIN=   0.00000
   O  -0.1005509   0.3208943  -0.1953991 SPIN=   0.00000
   O  -0.0883892   0.0751520   0.0178587 SPIN=   0.00000
   S  -0.1811464   0.2553360  -0.0587256 SPIN=   0.00000
   O   0.4045170  -0.2655001   0.1522621 SPIN=   0.00000
   O   0.1311286  -0.1092021  -0.0949001 SPIN=   0.00000
   O   0.1005509  -0.1791057   0.1953991 SPIN=   0.00000
   O   0.0883892  -0.4248480  -0.0178587 SPIN=   0.00000
   S   0.1811464  -0.2446640   0.0587256 SPIN=   0.00000
   F  -0.1450901   0.1504464   0.3725997 SPIN=   0.00000
   F   0.1450901  -0.3495536  -0.3725997 SPIN=   0.00000
   F  -0.3136366  -0.2612377  -0.0157257 SPIN=   0.00000
   F   0.3136366   0.2387623   0.0157257 SPIN=   0.00000
%ENDBLOCK POSITIONS_FRAC

# Note: total spin =  16.00

KPOINTS_MP_SPACING 0.07

%BLOCK SPECIES_POT
QC5
%ENDBLOCK SPECIES_POT

SNAP_TO_SYMMETRY
SYMMETRY_GENERATE

