#              Generated by Buildcell
#
# at 06:59:45 (GMT+1.0) 4th August 2020
# in /lustre/scratch/uccabz1/launch_tmp
# on node-c12f-028
# by uccabz1
#
# compiler GCC version 4.9.2
# options -cpp -iprefix /lustre/shared/ucl/apps/gcc/4.9.2/bin/../lib/gcc/x86_64-unknown-linux-gnu/4.9.2/ -mtune=corei7 -march=x86-64 -g -Og
#
# seed   569117911  1214388936   303266320   585549330   846744355  1853981554  -340507661  1055694303   716046253 -1892139777 -1132563040  1655850824
#
#      Author: C. J. Pickard (cjp20@cam.ac.uk)
#                Space group: P212121
#

%BLOCK LATTICE_ABC
      5.24541      7.19251     10.60230
     90.00000     90.00000     90.00000
%ENDBLOCK LATTICE_ABC

%BLOCK POSITIONS_FRAC
  Li  -0.2759764  -0.0408010  -0.4450708 SPIN=   0.00000
  Li   0.2240236  -0.4591990   0.4450708 SPIN=   0.00000
  Li  -0.2240236   0.0408010   0.0549292 SPIN=   0.00000
  Li   0.2759764   0.4591990  -0.0549292 SPIN=   0.00000
  Fe   0.1593843   0.2806244  -0.2950983 SPIN=   4.00000
  Fe  -0.3406157   0.2193756   0.2950983 SPIN=   4.00000
  Fe   0.3406157  -0.2806244   0.2049017 SPIN=   4.00000
  Fe  -0.1593843  -0.2193756  -0.2049017 SPIN=   4.00000
   O  -0.4906500  -0.5903664  -0.4711451 SPIN=   0.00000
   O  -0.2258606  -0.3906205  -0.6088589 SPIN=   0.00000
   O  -0.0247404  -0.5709656  -0.4367553 SPIN=   0.00000
   O  -0.2999238  -0.3015003  -0.3863938 SPIN=   0.00000
   S  -0.2602937  -0.4633632  -0.4757883 SPIN=   0.00000
   O   0.0093500   0.0903664   0.4711451 SPIN=   0.00000
   O   0.2741394  -0.1093795   0.6088589 SPIN=   0.00000
   O   0.4752596   0.0709656   0.4367553 SPIN=   0.00000
   O   0.2000762  -0.1984997   0.3863938 SPIN=   0.00000
   S   0.2397063  -0.0366368   0.4757883 SPIN=   0.00000
   O  -0.0093500   0.5903664   0.0288549 SPIN=   0.00000
   O  -0.2741394   0.3906205  -0.1088589 SPIN=   0.00000
   O  -0.4752596   0.5709656   0.0632447 SPIN=   0.00000
   O  -0.2000762   0.3015003   0.1136062 SPIN=   0.00000
   S  -0.2397063   0.4633632   0.0242117 SPIN=   0.00000
   O   0.4906500  -0.0903664  -0.0288549 SPIN=   0.00000
   O   0.2258606   0.1093795   0.1088589 SPIN=   0.00000
   O   0.0247404  -0.0709656  -0.0632447 SPIN=   0.00000
   O   0.2999238   0.1984997  -0.1136062 SPIN=   0.00000
   S   0.2602937   0.0366368  -0.0242117 SPIN=   0.00000
   F   0.2602900   0.3975042   0.2761911 SPIN=   0.00000
   F  -0.2397100   0.1024958  -0.2761911 SPIN=   0.00000
   F   0.2397100  -0.3975042  -0.2238089 SPIN=   0.00000
   F  -0.2602900  -0.1024958   0.2238089 SPIN=   0.00000
%ENDBLOCK POSITIONS_FRAC

# Note: total spin =  16.00

KPOINTS_MP_SPACING 0.07

%BLOCK SPECIES_POT
QC5
%ENDBLOCK SPECIES_POT

SNAP_TO_SYMMETRY
SYMMETRY_GENERATE

