#              Generated by Buildcell
#
# at 03:09:00 (GMT+1.0) 18th August 2020
# in /scratch/scratch/uccabz1/launch_tmp
# on node-k10i-027
# by uccabz1
#
# compiler GCC version 4.9.2
# options -cpp -iprefix /scratch/UCL/applications/gcc/4.9.2/bin/../lib/gcc/x86_64-unknown-linux-gnu/4.9.2/ -mtune=corei7 -march=x86-64 -g -O2
#
# seed -1238624120  1854338608   204692904   442097179  1242425197 -1620471535  -355621807 -1597254804  1641081614 -1795492062  1248233075  -156078643
#
#      Author: C. J. Pickard (cjp20@cam.ac.uk)
#                Space group: P2
#

%BLOCK LATTICE_ABC
      7.17481      7.26471      8.10256
     90.00000    108.71463     90.00000
%ENDBLOCK LATTICE_ABC

%BLOCK POSITIONS_FRAC
  Li   0.4525955  -0.1037892  -0.2892528 SPIN=   0.00000
  Li  -0.4525955  -0.1037892   0.2892528 SPIN=   0.00000
  Li  -0.2682323   0.2929575  -0.0507370 SPIN=   0.00000
  Li   0.2682323   0.2929575   0.0507370 SPIN=   0.00000
  Fe  -0.1751466  -0.0316992  -0.3679088 SPIN=   6.46348
  Fe   0.1751466  -0.0316992   0.3679088 SPIN=   6.46348
  Fe   0.2411484  -0.2174242  -0.0245943 SPIN=   1.53652
  Fe  -0.2411484  -0.2174242   0.0245943 SPIN=   1.53652
   O  -0.0209401   0.2620704   0.3411846 SPIN=   0.00000
   O  -0.2948456   0.2044640   0.4579322 SPIN=   0.00000
   O  -0.3038169   0.0701503   0.1747823 SPIN=   0.00000
   O  -0.3461094   0.4058482   0.2007868 SPIN=   0.00000
   S  -0.2414280   0.2356332   0.2936715 SPIN=   0.00000
   O   0.0209401   0.2620704  -0.3411846 SPIN=   0.00000
   O   0.2948456   0.2044640  -0.4579322 SPIN=   0.00000
   O   0.3038169   0.0701503  -0.1747823 SPIN=   0.00000
   O   0.3461094   0.4058482  -0.2007868 SPIN=   0.00000
   S   0.2414280   0.2356332  -0.2936715 SPIN=   0.00000
   O  -0.4086398  -0.6112939  -0.3111405 SPIN=   0.00000
   O  -0.1794800  -0.5085270  -0.4648201 SPIN=   0.00000
   O  -0.0833939  -0.4827952  -0.1438038 SPIN=   0.00000
   O  -0.3420186  -0.2791677  -0.3309326 SPIN=   0.00000
   S  -0.2533831  -0.4704460  -0.3126743 SPIN=   0.00000
   O   0.4086398  -0.6112939   0.3111405 SPIN=   0.00000
   O   0.1794800  -0.5085270   0.4648201 SPIN=   0.00000
   O   0.0833939  -0.4827952   0.1438038 SPIN=   0.00000
   O   0.3420186  -0.2791677   0.3309326 SPIN=   0.00000
   S   0.2533831  -0.4704460   0.3126743 SPIN=   0.00000
   F  -0.2180815  -0.2643605   0.2878056 SPIN=   0.00000
   F   0.2180815  -0.2643605  -0.2878056 SPIN=   0.00000
   F   0.2728580   0.0158024   0.1430941 SPIN=   0.00000
   F  -0.2728580   0.0158024  -0.1430941 SPIN=   0.00000
%ENDBLOCK POSITIONS_FRAC

# Note: total spin =  16.00

KPOINTS_MP_SPACING 0.07

%BLOCK SPECIES_POT
QC5
%ENDBLOCK SPECIES_POT

SNAP_TO_SYMMETRY
SYMMETRY_GENERATE

