#              Generated by Buildcell
#
# at 02:23:55 (GMT+1.0) 18th August 2020
# in /lustre/scratch/uccabz1/launch_tmp
# on node-c12j-010
# by uccabz1
#
# compiler GCC version 4.9.2
# options -cpp -iprefix /lustre/shared/ucl/apps/gcc/4.9.2/bin/../lib/gcc/x86_64-unknown-linux-gnu/4.9.2/ -mtune=corei7 -march=x86-64 -g -Og
#
# seed  1923506263 -1801141835  1445099971   864175263   -91876735  2019964115 -1559433200  2132086080   483094069   879130770  -980311082  1330066194
#
#      Author: C. J. Pickard (cjp20@cam.ac.uk)
#                Space group: Pc
#

%BLOCK LATTICE_ABC
      7.02530      7.46358      8.37499
     90.00000     90.00000    114.37219
%ENDBLOCK LATTICE_ABC

%BLOCK POSITIONS_FRAC
  Li   0.3969910  -0.1123921  -0.1985479 SPIN=   0.00000
  Li  -0.1030090  -0.1123921   0.1985479 SPIN=   0.00000
  Li   0.4216247   0.4074231  -0.3870669 SPIN=   0.00000
  Li  -0.0783753   0.4074231   0.3870669 SPIN=   0.00000
  Fe  -0.4505779  -0.1681982   0.4250384 SPIN=   6.64853
  Fe   0.0494221  -0.1681982  -0.4250384 SPIN=   6.64853
  Fe  -0.3340370  -0.3113651  -0.0945418 SPIN=   1.35147
  Fe   0.1659630  -0.3113651   0.0945418 SPIN=   1.35147
   O  -0.3617465   0.3446627   0.2734121 SPIN=   0.00000
   O  -0.1129208   0.2626849   0.1126767 SPIN=   0.00000
   O  -0.2969992   0.4486799  -0.0093197 SPIN=   0.00000
   O  -0.4923262   0.0967119   0.0578291 SPIN=   0.00000
   S  -0.3159982   0.2881848   0.1086496 SPIN=   0.00000
   O   0.1382535   0.3446627  -0.2734121 SPIN=   0.00000
   O   0.3870792   0.2626849  -0.1126767 SPIN=   0.00000
   O   0.2030008   0.4486799   0.0093197 SPIN=   0.00000
   O   0.0076738   0.0967119  -0.0578291 SPIN=   0.00000
   S   0.1840018   0.2881848  -0.1086496 SPIN=   0.00000
   O  -0.2192849   0.2455511  -0.1687487 SPIN=   0.00000
   O  -0.5378318   0.1380710  -0.3356987 SPIN=   0.00000
   O  -0.2204484   0.1117191  -0.4392945 SPIN=   0.00000
   O  -0.2266313   0.4388730  -0.4069269 SPIN=   0.00000
   S  -0.3010491   0.2335536  -0.3376672 SPIN=   0.00000
   O   0.2807151   0.2455511   0.1687487 SPIN=   0.00000
   O  -0.0378318   0.1380710   0.3356987 SPIN=   0.00000
   O   0.2795516   0.1117191   0.4392945 SPIN=   0.00000
   O   0.2733687   0.4388730   0.4069269 SPIN=   0.00000
   S   0.1989509   0.2335536   0.3376672 SPIN=   0.00000
   F   0.0768799  -0.3011898   0.3738345 SPIN=   0.00000
   F  -0.4231201  -0.3011898  -0.3738345 SPIN=   0.00000
   F  -0.4001235  -0.2459421   0.1257215 SPIN=   0.00000
   F   0.0998765  -0.2459421  -0.1257215 SPIN=   0.00000
%ENDBLOCK POSITIONS_FRAC

# Note: total spin =  16.00

KPOINTS_MP_SPACING 0.07

%BLOCK SPECIES_POT
QC5
%ENDBLOCK SPECIES_POT

SNAP_TO_SYMMETRY
SYMMETRY_GENERATE

