#              Generated by Buildcell
#
# at 06:31:07 (GMT+1.0) 18th August 2020
# in /lustre/scratch/uccabz1/launch_tmp
# on node-c12m-014
# by uccabz1
#
# compiler GCC version 4.9.2
# options -cpp -iprefix /lustre/shared/ucl/apps/gcc/4.9.2/bin/../lib/gcc/x86_64-unknown-linux-gnu/4.9.2/ -mtune=corei7 -march=x86-64 -g -Og
#
# seed    65350088 -1523313310  -272246073 -1461115023 -1780849760  -551736890  -204838282   637686635   459847607    -3152021 -1039595511   984194052
#
#      Author: C. J. Pickard (cjp20@cam.ac.uk)
#                Space group: Pnc2
#

%BLOCK LATTICE_ABC
      7.05906      7.42439      7.63224
     90.00000     90.00000     90.00000
%ENDBLOCK LATTICE_ABC

%BLOCK POSITIONS_FRAC
  Li   0.0441551   0.2491877  -0.1654392 SPIN=   0.00000
  Li  -0.0441551  -0.2491877  -0.1654392 SPIN=   0.00000
  Li   0.0441551   0.2508123   0.3345608 SPIN=   0.00000
  Li  -0.0441551  -0.2508123   0.3345608 SPIN=   0.00000
  Fe   0.2507449  -0.4327819   0.0506506 SPIN=   4.00000
  Fe  -0.2507449   0.4327819   0.0506506 SPIN=   4.00000
  Fe   0.2507449  -0.0672181  -0.4493494 SPIN=   4.00000
  Fe  -0.2507449   0.0672181  -0.4493494 SPIN=   4.00000
   O   0.6267372   0.2330844  -0.1406437 SPIN=   0.00000
   O   0.3018007   0.1102601  -0.1171410 SPIN=   0.00000
   O   0.4284360   0.2012815  -0.4062607 SPIN=   0.00000
   O   0.3502741   0.4330218  -0.1846671 SPIN=   0.00000
   S   0.4268120   0.2444119  -0.2121781 SPIN=   0.00000
   O  -0.6267372  -0.2330844  -0.1406437 SPIN=   0.00000
   O  -0.3018007  -0.1102601  -0.1171410 SPIN=   0.00000
   O  -0.4284360  -0.2012815  -0.4062607 SPIN=   0.00000
   O  -0.3502741  -0.4330218  -0.1846671 SPIN=   0.00000
   S  -0.4268120  -0.2444119  -0.2121781 SPIN=   0.00000
   O   0.6267372   0.2669156   0.3593563 SPIN=   0.00000
   O   0.3018007   0.3897399   0.3828590 SPIN=   0.00000
   O   0.4284360   0.2987185   0.0937393 SPIN=   0.00000
   O   0.3502741   0.0669782   0.3153329 SPIN=   0.00000
   S   0.4268120   0.2555881   0.2878219 SPIN=   0.00000
   O  -0.6267372  -0.2669156   0.3593563 SPIN=   0.00000
   O  -0.3018007  -0.3897399   0.3828590 SPIN=   0.00000
   O  -0.4284360  -0.2987185   0.0937393 SPIN=   0.00000
   O  -0.3502741  -0.0669782   0.3153329 SPIN=   0.00000
   S  -0.4268120  -0.2555881   0.2878219 SPIN=   0.00000
   F   0.0588421  -0.2503276  -0.4149337 SPIN=   0.00000
   F  -0.0588421   0.2503276  -0.4149337 SPIN=   0.00000
   F   0.0588421  -0.2496724   0.0850663 SPIN=   0.00000
   F  -0.0588421   0.2496724   0.0850663 SPIN=   0.00000
%ENDBLOCK POSITIONS_FRAC

# Note: total spin =  16.00

KPOINTS_MP_SPACING 0.07

%BLOCK SPECIES_POT
QC5
%ENDBLOCK SPECIES_POT

SNAP_TO_SYMMETRY
SYMMETRY_GENERATE

