#              Generated by Buildcell
#
# at 09:28:15 (GMT+1.0) 18th August 2020
# in /scratch/scratch/uccabz1/launch_tmp
# on node-k10h-001
# by uccabz1
#
# compiler GCC version 4.9.2
# options -cpp -iprefix /scratch/UCL/applications/gcc/4.9.2/bin/../lib/gcc/x86_64-unknown-linux-gnu/4.9.2/ -mtune=corei7 -march=x86-64 -g -O2
#
# seed  2143803579  -148746922  -769667219   711144438 -1083909816  1350425806  1228040203 -2031112986 -1528786288   561460876   374005389   719953557
#
#      Author: C. J. Pickard (cjp20@cam.ac.uk)
#                Space group: Pc
#

%BLOCK LATTICE_ABC
      5.03807      5.44455     14.62973
     94.60269     90.00000     90.00000
%ENDBLOCK LATTICE_ABC

%BLOCK POSITIONS_FRAC
  Li  -0.3185513  -0.2569730  -0.4694742 SPIN=   0.00000
  Li   0.3185513  -0.2569730   0.0305258 SPIN=   0.00000
  Li   0.3886901   0.2810518  -0.3401453 SPIN=   0.00000
  Li  -0.3886901   0.2810518   0.1598547 SPIN=   0.00000
  Fe   0.0094959  -0.1083662  -0.2836816 SPIN=   3.35172
  Fe  -0.0094959  -0.1083662   0.2163184 SPIN=   3.35172
  Fe   0.3440051   0.2578119   0.4359348 SPIN=   4.64828
  Fe  -0.3440051   0.2578119  -0.0640652 SPIN=   4.64828
   O   0.1042123   0.2694590   0.3190204 SPIN=   0.00000
   O  -0.3859661   0.2509570   0.3271755 SPIN=   0.00000
   O  -0.1686044   0.5354657   0.2266958 SPIN=   0.00000
   O  -0.1473510   0.6185423   0.3953523 SPIN=   0.00000
   S  -0.1494273   0.4186060   0.3170610 SPIN=   0.00000
   O  -0.1042123   0.2694590  -0.1809796 SPIN=   0.00000
   O   0.3859661   0.2509570  -0.1728245 SPIN=   0.00000
   O   0.1686044   0.5354657  -0.2733042 SPIN=   0.00000
   O   0.1473510   0.6185423  -0.1046477 SPIN=   0.00000
   S   0.1494273   0.4186060  -0.1829390 SPIN=   0.00000
   O  -0.2552811   0.2972113  -0.5259842 SPIN=   0.00000
   O   0.1306993   0.1729575  -0.4357528 SPIN=   0.00000
   O  -0.3240618   0.0628604  -0.3898079 SPIN=   0.00000
   O  -0.1749149   0.4970261  -0.3704927 SPIN=   0.00000
   S  -0.1558896   0.2575138  -0.4305094 SPIN=   0.00000
   O   0.2552811   0.2972113  -0.0259842 SPIN=   0.00000
   O  -0.1306993   0.1729575   0.0642472 SPIN=   0.00000
   O   0.3240618   0.0628604   0.1101921 SPIN=   0.00000
   O   0.1749149   0.4970261   0.1295073 SPIN=   0.00000
   S   0.1558896   0.2575138   0.0694906 SPIN=   0.00000
   F  -0.3215079  -0.3088317   0.0084510 SPIN=   0.00000
   F   0.3215079  -0.3088317  -0.4915490 SPIN=   0.00000
   F   0.3502940  -0.1703078   0.2682729 SPIN=   0.00000
   F  -0.3502940  -0.1703078  -0.2317271 SPIN=   0.00000
%ENDBLOCK POSITIONS_FRAC

# Note: total spin =  16.00

KPOINTS_MP_SPACING 0.07

%BLOCK SPECIES_POT
QC5
%ENDBLOCK SPECIES_POT

SNAP_TO_SYMMETRY
SYMMETRY_GENERATE

