#              Generated by Buildcell
#
# at 10:08:36 (GMT+1.0) 18th August 2020
# in /lustre/scratch/uccabz1/launch_tmp
# on node-c12o-031
# by uccabz1
#
# compiler GCC version 4.9.2
# options -cpp -iprefix /lustre/shared/ucl/apps/gcc/4.9.2/bin/../lib/gcc/x86_64-unknown-linux-gnu/4.9.2/ -mtune=corei7 -march=x86-64 -g -Og
#
# seed  -657641743  1231143717 -1602967478  1029042248 -1260885308  -502760096  1640665246 -1292174050 -1677883727   902247367  1299390944   318831913
#
#      Author: C. J. Pickard (cjp20@cam.ac.uk)
#                Space group: P21
#

%BLOCK LATTICE_ABC
      4.33593      7.35619     12.61648
     90.00000     90.00000     96.27963
%ENDBLOCK LATTICE_ABC

%BLOCK POSITIONS_FRAC
  Li   0.3380238  -0.2356297   0.0320155 SPIN=   0.00000
  Li  -0.3380238   0.2356297  -0.4679845 SPIN=   0.00000
  Li   0.1271276   0.3079194  -0.2234898 SPIN=   0.00000
  Li  -0.1271276  -0.3079194   0.2765102 SPIN=   0.00000
  Fe  -0.2749189  -0.3957006  -0.1808198 SPIN=   5.71316
  Fe   0.2749189   0.3957006   0.3191802 SPIN=   5.71316
  Fe  -0.3056452   0.0742704  -0.0828439 SPIN=   2.28684
  Fe   0.3056452  -0.0742704   0.4171561 SPIN=   2.28684
   O   0.0204979   0.5077413  -0.0448824 SPIN=   0.00000
   O   0.1133521   0.2964396   0.1014813 SPIN=   0.00000
   O   0.5433395   0.5155990   0.0348144 SPIN=   0.00000
   O   0.3367509   0.2524325  -0.0759887 SPIN=   0.00000
   S   0.2534851   0.3930531   0.0038562 SPIN=   0.00000
   O  -0.0204979  -0.5077413  -0.5448824 SPIN=   0.00000
   O  -0.1133521  -0.2964396  -0.3985187 SPIN=   0.00000
   O  -0.5433395  -0.5155990  -0.4651856 SPIN=   0.00000
   O  -0.3367509  -0.2524325  -0.5759887 SPIN=   0.00000
   S  -0.2534851  -0.3930531  -0.4961438 SPIN=   0.00000
   O   0.6009547  -0.0219944  -0.2408468 SPIN=   0.00000
   O   0.1436992  -0.2549562  -0.2388122 SPIN=   0.00000
   O   0.3873915  -0.1541105  -0.4093564 SPIN=   0.00000
   O   0.0940900   0.0562484  -0.3065422 SPIN=   0.00000
   S   0.3065338  -0.0937032  -0.2988894 SPIN=   0.00000
   O  -0.6009547   0.0219944   0.2591532 SPIN=   0.00000
   O  -0.1436992   0.2549562   0.2611878 SPIN=   0.00000
   O  -0.3873915   0.1541105   0.0906436 SPIN=   0.00000
   O  -0.0940900  -0.0562484   0.1934578 SPIN=   0.00000
   S  -0.3065338   0.0937032   0.2011106 SPIN=   0.00000
   F  -0.0256620   0.0970683   0.4757572 SPIN=   0.00000
   F   0.0256620  -0.0970683  -0.0242428 SPIN=   0.00000
   F  -0.3112156   0.3583708  -0.2549048 SPIN=   0.00000
   F   0.3112156  -0.3583708   0.2450952 SPIN=   0.00000
%ENDBLOCK POSITIONS_FRAC

# Note: total spin =  16.00

KPOINTS_MP_SPACING 0.07

%BLOCK SPECIES_POT
QC5
%ENDBLOCK SPECIES_POT

SNAP_TO_SYMMETRY
SYMMETRY_GENERATE

