#              Generated by Buildcell
#
# at 03:53:01 (GMT+1.0) 18th August 2020
# in /lustre/scratch/uccabz1/launch_tmp
# on node-c12m-012
# by uccabz1
#
# compiler GCC version 4.9.2
# options -cpp -iprefix /lustre/shared/ucl/apps/gcc/4.9.2/bin/../lib/gcc/x86_64-unknown-linux-gnu/4.9.2/ -mtune=corei7 -march=x86-64 -g -Og
#
# seed  -118889348   963430451 -1832109121   780246612   724965557  1081265827 -1726261870  1986819284   320548976   515304876  -976695116 -1553896382
#
#      Author: C. J. Pickard (cjp20@cam.ac.uk)
#                Space group: Cm
#

%BLOCK LATTICE_ABC
      3.97332     10.04334     10.04334
     90.15505     92.52647     92.52647
%ENDBLOCK LATTICE_ABC

%BLOCK POSITIONS_FRAC
  Li   0.3287852   0.0274125   0.0274125 SPIN=   0.00000
  Li  -0.2268664  -0.1950106  -0.1950106 SPIN=   0.00000
  Li  -0.2992205   0.2733384   0.2733384 SPIN=   0.00000
  Li   0.2177284  -0.4174273  -0.4174273 SPIN=   0.00000
  Fe  -0.4586337   0.4928238  -0.1648620 SPIN=   4.37656
  Fe  -0.4586337  -0.1648620   0.4928238 SPIN=   4.37656
  Fe  -0.4362284   0.0904271  -0.2408966 SPIN=   3.62344
  Fe  -0.4362284  -0.2408966   0.0904271 SPIN=   3.62344
   O  -0.0300554   0.4195563  -0.3193749 SPIN=   0.00000
   O  -0.0672501   0.3057715  -0.5387521 SPIN=   0.00000
   O   0.1174341   0.1834745  -0.3367438 SPIN=   0.00000
   O   0.4906695   0.3611483  -0.4283107 SPIN=   0.00000
   S   0.1276996   0.3174877  -0.4057954 SPIN=   0.00000
   O  -0.0300554  -0.3193749   0.4195563 SPIN=   0.00000
   O  -0.0672501  -0.5387521   0.3057715 SPIN=   0.00000
   O   0.1174341  -0.3367438   0.1834745 SPIN=   0.00000
   O   0.4906695  -0.4283107   0.3611483 SPIN=   0.00000
   S   0.1276996  -0.4057954   0.3174877 SPIN=   0.00000
   O  -0.1298748   0.1246226  -0.0306863 SPIN=   0.00000
   O   0.0466805   0.3096673   0.1237395 SPIN=   0.00000
   O  -0.1096358   0.3570780  -0.1120934 SPIN=   0.00000
   O   0.4202471   0.2456749  -0.0542888 SPIN=   0.00000
   S   0.0568542   0.2592607  -0.0183322 SPIN=   0.00000
   O  -0.1298748  -0.0306863   0.1246226 SPIN=   0.00000
   O   0.0466805   0.1237395   0.3096673 SPIN=   0.00000
   O  -0.1096358  -0.1120934   0.3570780 SPIN=   0.00000
   O   0.4202471  -0.0542888   0.2456749 SPIN=   0.00000
   S   0.0568542  -0.0183322   0.2592607 SPIN=   0.00000
   F  -0.4059944  -0.4581681   0.0314755 SPIN=   0.00000
   F  -0.4059944   0.0314755  -0.4581681 SPIN=   0.00000
   F  -0.3388556  -0.3670391  -0.3670391 SPIN=   0.00000
   F  -0.4818899  -0.0875156  -0.0875156 SPIN=   0.00000
%ENDBLOCK POSITIONS_FRAC

# Note: total spin =  16.00

KPOINTS_MP_SPACING 0.07

%BLOCK SPECIES_POT
QC5
%ENDBLOCK SPECIES_POT

SNAP_TO_SYMMETRY
SYMMETRY_GENERATE

