#              Generated by Buildcell
#
# at 09:55:08 (GMT+1.0) 4th August 2020
# in /lustre/scratch/uccabz1/launch_tmp
# on node-c12m-013
# by uccabz1
#
# compiler GCC version 4.9.2
# options -cpp -iprefix /lustre/shared/ucl/apps/gcc/4.9.2/bin/../lib/gcc/x86_64-unknown-linux-gnu/4.9.2/ -mtune=corei7 -march=x86-64 -g -Og
#
# seed   206837370   611882257 -1251666986  -776123367  -442618243  -408053820 -1851147222 -1157095469 -1829716287 -1656335272  -662855607 -1109219560
#
#      Author: C. J. Pickard (cjp20@cam.ac.uk)
#                Space group: P-1
#

%BLOCK LATTICE_ABC
      7.18177      7.25790      7.88870
     81.48687     81.60062     82.75235
%ENDBLOCK LATTICE_ABC

%BLOCK POSITIONS_FRAC
  Li   0.0364825   0.2962042   0.2022085 SPIN=   0.00000
  Li  -0.0364825  -0.2962042  -0.2022085 SPIN=   0.00000
  Li  -0.5000000   0.0000000  -0.5000000 SPIN=   0.00000
  Li   0.5000000   0.5000000  -0.0000000 SPIN=   0.00000
  Fe   0.5000000   0.5000000   0.5000000 SPIN=   6.13785
  Fe  -0.0000000   0.0000000  -0.0000000 SPIN=   2.43228
  Fe  -0.0000000   0.0000000   0.5000000 SPIN=   2.87037
  Fe   0.0000000  -0.5000000  -0.5000000 SPIN=   4.55950
   O  -0.3848434  -0.2496026   0.1150066 SPIN=   0.00000
   O  -0.0415725  -0.2647754   0.1311383 SPIN=   0.00000
   O  -0.1689310  -0.5216248   0.0252010 SPIN=   0.00000
   O  -0.2375551  -0.4789681   0.3344730 SPIN=   0.00000
   S  -0.2082255  -0.3787427   0.1514547 SPIN=   0.00000
   O   0.3848434   0.2496026  -0.1150066 SPIN=   0.00000
   O   0.0415725   0.2647754  -0.1311383 SPIN=   0.00000
   O   0.1689310   0.5216248  -0.0252010 SPIN=   0.00000
   O   0.2375551   0.4789681  -0.3344730 SPIN=   0.00000
   S   0.2082255   0.3787427  -0.1514547 SPIN=   0.00000
   O   0.4177252  -0.3190679  -0.2488631 SPIN=   0.00000
   O   0.6310479  -0.1161805  -0.1639656 SPIN=   0.00000
   O   0.3294197  -0.1747289   0.0208559 SPIN=   0.00000
   O   0.3263476   0.0227062  -0.2630137 SPIN=   0.00000
   S   0.4261351  -0.1468178  -0.1637466 SPIN=   0.00000
   O  -0.4177252   0.3190679   0.2488631 SPIN=   0.00000
   O  -0.6310479   0.1161805   0.1639656 SPIN=   0.00000
   O  -0.3294197   0.1747289  -0.0208559 SPIN=   0.00000
   O  -0.3263476  -0.0227062   0.2630137 SPIN=   0.00000
   S  -0.4261351   0.1468178   0.1637466 SPIN=   0.00000
   F   0.1607059   0.1928680   0.4657464 SPIN=   0.00000
   F  -0.1607059  -0.1928680  -0.4657464 SPIN=   0.00000
   F  -0.3098444   0.3253784  -0.3506273 SPIN=   0.00000
   F   0.3098444  -0.3253784   0.3506273 SPIN=   0.00000
%ENDBLOCK POSITIONS_FRAC

# Note: total spin =  16.00

KPOINTS_MP_SPACING 0.07

%BLOCK SPECIES_POT
QC5
%ENDBLOCK SPECIES_POT

SNAP_TO_SYMMETRY
SYMMETRY_GENERATE

