#              Generated by Buildcell
#
# at 02:06:23 (GMT+1.0) 18th August 2020
# in /lustre/scratch/uccabz1/launch_tmp
# on node-c12k-006
# by uccabz1
#
# compiler GCC version 4.9.2
# options -cpp -iprefix /lustre/shared/ucl/apps/gcc/4.9.2/bin/../lib/gcc/x86_64-unknown-linux-gnu/4.9.2/ -mtune=corei7 -march=x86-64 -g -Og
#
# seed -2104575498 -1409195274  2068018269 -1916232663 -1616704633   698293207  1383715180   771345390 -1218952780   296498627 -1962794294  2090657486
#
#      Author: C. J. Pickard (cjp20@cam.ac.uk)
#                Space group: Pc
#

%BLOCK LATTICE_ABC
      3.89591      8.61849     12.01946
     90.00000     90.00000     97.63299
%ENDBLOCK LATTICE_ABC

%BLOCK POSITIONS_FRAC
  Li   0.3501475  -0.2996960  -0.1014432 SPIN=   0.00000
  Li   0.3501475   0.2003040   0.1014432 SPIN=   0.00000
  Li   0.4034373  -0.1041113   0.4659139 SPIN=   0.00000
  Li   0.4034373   0.3958887  -0.4659139 SPIN=   0.00000
  Fe  -0.0178603   0.1851780   0.3847586 SPIN=   6.83676
  Fe  -0.0178603  -0.3148220  -0.3847586 SPIN=   6.83676
  Fe   0.4661469   0.3524226  -0.2277090 SPIN=   1.16324
  Fe   0.4661469  -0.1475774   0.2277090 SPIN=   1.16324
   O   0.1715903   0.1368232  -0.3793719 SPIN=   0.00000
   O   0.1572800  -0.0639581  -0.2316361 SPIN=   0.00000
   O  -0.3455448  -0.0609948  -0.3570846 SPIN=   0.00000
   O  -0.2118128   0.1476503  -0.2161648 SPIN=   0.00000
   S  -0.0571218   0.0398801  -0.2960643 SPIN=   0.00000
   O   0.1715903  -0.3631768   0.3793719 SPIN=   0.00000
   O   0.1572800  -0.5639581   0.2316361 SPIN=   0.00000
   O  -0.3455448  -0.5609948   0.3570846 SPIN=   0.00000
   O  -0.2118128  -0.3523497   0.2161648 SPIN=   0.00000
   S  -0.0571218  -0.4601199   0.2960643 SPIN=   0.00000
   O   0.0817560  -0.2387003   0.0573115 SPIN=   0.00000
   O  -0.2485835  -0.1148432  -0.0859317 SPIN=   0.00000
   O   0.3098223   0.0222978  -0.0174110 SPIN=   0.00000
   O  -0.2046382  -0.0079061   0.1053920 SPIN=   0.00000
   S  -0.0154109  -0.0847880   0.0148402 SPIN=   0.00000
   O   0.0817560   0.2612997  -0.0573115 SPIN=   0.00000
   O  -0.2485835   0.3851568   0.0859317 SPIN=   0.00000
   O   0.3098223   0.5222978   0.0174110 SPIN=   0.00000
   O  -0.2046382   0.4920939  -0.1053920 SPIN=   0.00000
   S  -0.0154109   0.4152120  -0.0148402 SPIN=   0.00000
   F   0.4482897   0.1651213   0.2467211 SPIN=   0.00000
   F   0.4482897  -0.3348787  -0.2467211 SPIN=   0.00000
   F  -0.1305859   0.3968257  -0.4298143 SPIN=   0.00000
   F  -0.1305859  -0.1031743   0.4298143 SPIN=   0.00000
%ENDBLOCK POSITIONS_FRAC

# Note: total spin =  16.00

KPOINTS_MP_SPACING 0.07

%BLOCK SPECIES_POT
QC5
%ENDBLOCK SPECIES_POT

SNAP_TO_SYMMETRY
SYMMETRY_GENERATE

