#              Generated by Buildcell
#
# at 23:18:59 (GMT+1.0) 17th August 2020
# in /lustre/scratch/uccabz1/launch_tmp
# on node-c12p-014
# by uccabz1
#
# compiler GCC version 4.9.2
# options -cpp -iprefix /lustre/shared/ucl/apps/gcc/4.9.2/bin/../lib/gcc/x86_64-unknown-linux-gnu/4.9.2/ -mtune=corei7 -march=x86-64 -g -Og
#
# seed -1897527429  2092425518  -566138736  1852052504   393812622   768217432   817247315  -595154287 -1164437412  1188970929   326322738  -652112504
#
#      Author: C. J. Pickard (cjp20@cam.ac.uk)
#                Space group: Pm
#

%BLOCK LATTICE_ABC
      6.27643      7.76616      8.28332
     90.00000     90.00000     97.82557
%ENDBLOCK LATTICE_ABC

%BLOCK POSITIONS_FRAC
  Li  -0.3310992  -0.2022432  -0.5000000 SPIN=   0.00000
  Li  -0.0145851  -0.3093161   0.0000000 SPIN=   0.00000
  Li  -0.4831002   0.2850228   0.0000000 SPIN=   0.00000
  Li   0.2774996   0.1656907   0.5000000 SPIN=   0.00000
  Fe   0.0078040   0.1623771  -0.2155145 SPIN=   3.03298
  Fe   0.0078040   0.1623771   0.2155145 SPIN=   3.03298
  Fe   0.1491475  -0.2072509  -0.5000000 SPIN=   7.47338
  Fe  -0.2458331   0.4135654  -0.5000000 SPIN=   2.46065
   O   0.4380503  -0.3384074  -0.3614929 SPIN=   0.00000
   O   0.3344828  -0.6554671  -0.3283818 SPIN=   0.00000
   O   0.2020690  -0.4513428  -0.1351295 SPIN=   0.00000
   O   0.5862161  -0.4924702  -0.1348124 SPIN=   0.00000
   S   0.3902045  -0.4844219  -0.2399542 SPIN=   0.00000
   O   0.4380503  -0.3384074   0.3614929 SPIN=   0.00000
   O   0.3344828  -0.6554671   0.3283818 SPIN=   0.00000
   O   0.2020690  -0.4513428   0.1351295 SPIN=   0.00000
   O   0.5862161  -0.4924702   0.1348124 SPIN=   0.00000
   S   0.3902045  -0.4844219   0.2399542 SPIN=   0.00000
   O  -0.3099288   0.1497770   0.2534833 SPIN=   0.00000
   O  -0.4716405  -0.1435345   0.1651331 SPIN=   0.00000
   O  -0.6781115   0.1048732   0.1400593 SPIN=   0.00000
   S  -0.5169693   0.0247315   0.2421525 SPIN=   0.00000
   O  -0.3099288   0.1497770  -0.2534833 SPIN=   0.00000
   O  -0.4716405  -0.1435345  -0.1651331 SPIN=   0.00000
   O  -0.6781115   0.1048732  -0.1400593 SPIN=   0.00000
   S  -0.5169693   0.0247315  -0.2421525 SPIN=   0.00000
   O  -0.1977240  -0.0509772   0.0000000 SPIN=   0.00000
   O   0.4418245  -0.0463859  -0.5000000 SPIN=   0.00000
   F  -0.0636396  -0.2315253  -0.2506653 SPIN=   0.00000
   F  -0.0636396  -0.2315253   0.2506653 SPIN=   0.00000
   F  -0.0386791   0.2555220  -0.5000000 SPIN=   0.00000
   F  -0.0811053   0.2966980   0.0000000 SPIN=   0.00000
%ENDBLOCK POSITIONS_FRAC

# Note: total spin =  16.00

KPOINTS_MP_SPACING 0.07

%BLOCK SPECIES_POT
QC5
%ENDBLOCK SPECIES_POT

SNAP_TO_SYMMETRY
SYMMETRY_GENERATE

