#              Generated by Buildcell
#
# at 00:35:04 (GMT+1.0) 18th August 2020
# in /lustre/scratch/uccabz1/launch_tmp
# on node-c12c-028
# by uccabz1
#
# compiler GCC version 4.9.2
# options -cpp -iprefix /lustre/shared/ucl/apps/gcc/4.9.2/bin/../lib/gcc/x86_64-unknown-linux-gnu/4.9.2/ -mtune=corei7 -march=x86-64 -g -Og
#
# seed  1249204736  1091419917  -781502224  -903097767   809123045 -1441674908  1345931777  1462529394 -1429838223  -462443060 -1635525769 -2133366197
#
#      Author: C. J. Pickard (cjp20@cam.ac.uk)
#                Space group: C2
#

%BLOCK LATTICE_ABC
      7.51180      7.51180      7.80178
     72.74640     72.74640     89.47768
%ENDBLOCK LATTICE_ABC

%BLOCK POSITIONS_FRAC
  Li  -0.0996104  -0.2032768  -0.2777789 SPIN=   0.00000
  Li   0.2032768   0.0996104   0.2777789 SPIN=   0.00000
  Li   0.4798588  -0.2331971   0.0981252 SPIN=   0.00000
  Li   0.2331971  -0.4798588  -0.0981252 SPIN=   0.00000
  Fe  -0.1798472   0.4155235   0.2455701 SPIN=   2.51027
  Fe  -0.4155235   0.1798472  -0.2455701 SPIN=   2.51027
  Fe   0.2922570   0.4210179   0.4245223 SPIN=   5.48973
  Fe  -0.4210179  -0.2922570  -0.4245223 SPIN=   5.48973
   O  -0.0061905  -0.0092997   0.2305820 SPIN=   0.00000
   O  -0.1322377  -0.3225932   0.4559547 SPIN=   0.00000
   O   0.2089994  -0.2528128   0.2993190 SPIN=   0.00000
   O   0.0001119  -0.2832194   0.1149054 SPIN=   0.00000
   S   0.0176708  -0.2169813   0.2751903 SPIN=   0.00000
   O   0.0092997   0.0061905  -0.2305820 SPIN=   0.00000
   O   0.3225932   0.1322377  -0.4559547 SPIN=   0.00000
   O   0.2528128  -0.2089994  -0.2993190 SPIN=   0.00000
   O   0.2832194  -0.0001119  -0.1149054 SPIN=   0.00000
   S   0.2169813  -0.0176708  -0.2751903 SPIN=   0.00000
   O   0.0731605   0.5608081  -0.3873748 SPIN=   0.00000
   O  -0.2085651   0.5149561  -0.1104327 SPIN=   0.00000
   O   0.0564061   0.3214094  -0.0850495 SPIN=   0.00000
   O  -0.1418237   0.2736642  -0.2733792 SPIN=   0.00000
   S  -0.0552056   0.4177095  -0.2140591 SPIN=   0.00000
   O  -0.5608081  -0.0731605   0.3873748 SPIN=   0.00000
   O  -0.5149561   0.2085651   0.1104327 SPIN=   0.00000
   O  -0.3214094  -0.0564061   0.0850495 SPIN=   0.00000
   O  -0.2736642   0.1418237   0.2733792 SPIN=   0.00000
   S  -0.4177095   0.0552056   0.2140591 SPIN=   0.00000
   F   0.4191049   0.3511422  -0.2070352 SPIN=   0.00000
   F  -0.3511422  -0.4191049   0.2070352 SPIN=   0.00000
   F   0.1080906   0.3231327   0.3666384 SPIN=   0.00000
   F  -0.3231327  -0.1080906  -0.3666384 SPIN=   0.00000
%ENDBLOCK POSITIONS_FRAC

# Note: total spin =  16.00

KPOINTS_MP_SPACING 0.07

%BLOCK SPECIES_POT
QC5
%ENDBLOCK SPECIES_POT

SNAP_TO_SYMMETRY
SYMMETRY_GENERATE

