#              Generated by Buildcell
#
# at 06:18:26 (GMT+1.0) 4th August 2020
# in /lustre/scratch/uccabz1/launch_tmp
# on node-c12f-017
# by uccabz1
#
# compiler GCC version 4.9.2
# options -cpp -iprefix /lustre/shared/ucl/apps/gcc/4.9.2/bin/../lib/gcc/x86_64-unknown-linux-gnu/4.9.2/ -mtune=corei7 -march=x86-64 -g -Og
#
# seed  -166785415   890850797  -273512997  1040785569  2054470580  1053990453   384962597   551513733  -557114157  -319072283  -380846528  1088173225
#
#      Author: C. J. Pickard (cjp20@cam.ac.uk)
#                Space group: Pmn21
#

%BLOCK LATTICE_ABC
      3.88433      7.44364     13.83432
     90.00000     90.00000     90.00000
%ENDBLOCK LATTICE_ABC

%BLOCK POSITIONS_FRAC
  Li  -0.2965807   0.0461929   0.1805271 SPIN=   0.00000
  Li   0.2965807  -0.4538071   0.3194729 SPIN=   0.00000
  Li   0.2965807  -0.4538071  -0.3194729 SPIN=   0.00000
  Li  -0.2965807   0.0461929  -0.1805271 SPIN=   0.00000
  Fe  -0.2783251  -0.3402829  -0.1317818 SPIN=   4.00000
  Fe   0.2783251   0.1597171  -0.3682182 SPIN=   4.00000
  Fe   0.2783251   0.1597171   0.3682182 SPIN=   4.00000
  Fe  -0.2783251  -0.3402829   0.1317818 SPIN=   4.00000
   O   0.0548865   0.2006509  -0.2262603 SPIN=   0.00000
   O   0.4465172   0.2011278  -0.0851516 SPIN=   0.00000
   O  -0.0694421   0.3961914  -0.0858508 SPIN=   0.00000
   O   0.4219798   0.4654669  -0.1934398 SPIN=   0.00000
   S   0.2134853   0.3158592  -0.1476756 SPIN=   0.00000
   O  -0.0548865  -0.2993491  -0.2737397 SPIN=   0.00000
   O  -0.4465172  -0.2988722  -0.4148484 SPIN=   0.00000
   O   0.0694421  -0.1038086  -0.4141492 SPIN=   0.00000
   O  -0.4219798  -0.0345331  -0.3065602 SPIN=   0.00000
   S  -0.2134853  -0.1841408  -0.3523244 SPIN=   0.00000
   O  -0.0548865  -0.2993491   0.2737397 SPIN=   0.00000
   O  -0.4465172  -0.2988722   0.4148484 SPIN=   0.00000
   O   0.0694421  -0.1038086   0.4141492 SPIN=   0.00000
   O  -0.4219798  -0.0345331   0.3065602 SPIN=   0.00000
   S  -0.2134853  -0.1841408   0.3523244 SPIN=   0.00000
   O   0.0548865   0.2006509   0.2262603 SPIN=   0.00000
   O   0.4465172   0.2011278   0.0851516 SPIN=   0.00000
   O  -0.0694421   0.3961914   0.0858508 SPIN=   0.00000
   O   0.4219798   0.4654669   0.1934398 SPIN=   0.00000
   S   0.2134853   0.3158592   0.1476756 SPIN=   0.00000
   F   0.3013983  -0.1728625  -0.1293189 SPIN=   0.00000
   F  -0.3013983   0.3271375  -0.3706811 SPIN=   0.00000
   F  -0.3013983   0.3271375   0.3706811 SPIN=   0.00000
   F   0.3013983  -0.1728625   0.1293189 SPIN=   0.00000
%ENDBLOCK POSITIONS_FRAC

# Note: total spin =  16.00

KPOINTS_MP_SPACING 0.07

%BLOCK SPECIES_POT
QC5
%ENDBLOCK SPECIES_POT

SNAP_TO_SYMMETRY
SYMMETRY_GENERATE

