#              Generated by Buildcell
#
# at 01:10:12 (GMT+1.0) 18th August 2020
# in /scratch/scratch/uccabz1/launch_tmp
# on node-k10i-025
# by uccabz1
#
# compiler GCC version 4.9.2
# options -cpp -iprefix /scratch/UCL/applications/gcc/4.9.2/bin/../lib/gcc/x86_64-unknown-linux-gnu/4.9.2/ -mtune=corei7 -march=x86-64 -g -O2
#
# seed  1646309260   583682233  -527302977 -1145970818 -2086880255    24416822   -28977193  -118911838  1157460324 -1902484311   752336485  1262941931
#
#      Author: C. J. Pickard (cjp20@cam.ac.uk)
#                Space group: P-1
#

%BLOCK LATTICE_ABC
      6.16803      8.65553      8.92428
    117.91743    103.90763     93.61623
%ENDBLOCK LATTICE_ABC

%BLOCK POSITIONS_FRAC
  Li  -0.3399353   0.0226439  -0.1447320 SPIN=   0.00000
  Li   0.3399353  -0.0226439   0.1447320 SPIN=   0.00000
  Li   0.1723664  -0.2632551  -0.5774893 SPIN=   0.00000
  Li  -0.1723664   0.2632551   0.5774893 SPIN=   0.00000
  Fe  -0.2625111  -0.1152815  -0.4997872 SPIN=   5.17690
  Fe   0.2625111   0.1152815   0.4997872 SPIN=   5.17690
  Fe  -0.2195689   0.4745089   0.1055719 SPIN=   2.82310
  Fe   0.2195689  -0.4745089  -0.1055719 SPIN=   2.82310
   O   0.0595780   0.0523957  -0.2644203 SPIN=   0.00000
   O   0.4120740   0.0951443  -0.0341819 SPIN=   0.00000
   O   0.2748982  -0.1905597  -0.3197901 SPIN=   0.00000
   O   0.0625651  -0.1119877  -0.0999504 SPIN=   0.00000
   S   0.2022788  -0.0387518  -0.1795857 SPIN=   0.00000
   O  -0.0595780  -0.0523957   0.2644203 SPIN=   0.00000
   O  -0.4120740  -0.0951443   0.0341819 SPIN=   0.00000
   O  -0.2748982   0.1905597   0.3197901 SPIN=   0.00000
   O  -0.0625651   0.1119877   0.0999504 SPIN=   0.00000
   S  -0.2022788   0.0387518   0.1795857 SPIN=   0.00000
   O  -0.0619820  -0.4038648  -0.3063323 SPIN=   0.00000
   O  -0.3724493  -0.2400069  -0.2407906 SPIN=   0.00000
   O  -0.2477599  -0.4147324  -0.0936133 SPIN=   0.00000
   O  -0.4593571  -0.5703680  -0.4155782 SPIN=   0.00000
   S  -0.2853871  -0.4072430  -0.2640786 SPIN=   0.00000
   O   0.0619820   0.4038648   0.3063323 SPIN=   0.00000
   O   0.3724493   0.2400069   0.2407906 SPIN=   0.00000
   O   0.2477599   0.4147324   0.0936133 SPIN=   0.00000
   O   0.4593571   0.5703680   0.4155782 SPIN=   0.00000
   S   0.2853871   0.4072430   0.2640786 SPIN=   0.00000
   F   0.2588198  -0.2530942   0.1127683 SPIN=   0.00000
   F  -0.2588198   0.2530942  -0.1127683 SPIN=   0.00000
   F   0.1639483   0.3189190   0.6577030 SPIN=   0.00000
   F  -0.1639483  -0.3189190  -0.6577030 SPIN=   0.00000
%ENDBLOCK POSITIONS_FRAC

# Note: total spin =  16.00

KPOINTS_MP_SPACING 0.07

%BLOCK SPECIES_POT
QC5
%ENDBLOCK SPECIES_POT

SNAP_TO_SYMMETRY
SYMMETRY_GENERATE

