#              Generated by Buildcell
#
# at 07:33:34 (GMT+1.0) 4th August 2020
# in /lustre/scratch/uccabz1/launch_tmp
# on node-c12d-028
# by uccabz1
#
# compiler GCC version 4.9.2
# options -cpp -iprefix /lustre/shared/ucl/apps/gcc/4.9.2/bin/../lib/gcc/x86_64-unknown-linux-gnu/4.9.2/ -mtune=corei7 -march=x86-64 -g -Og
#
# seed  -286729635  2130672539  -926285537  1079261809  2090207228   340108681 -1420487569  1139058029   861976063   952371118  -468311654    61814157
#
#      Author: C. J. Pickard (cjp20@cam.ac.uk)
#                Space group: P2
#

%BLOCK LATTICE_ABC
      3.88803      8.00986     12.84466
     90.00000     90.50488     90.00000
%ENDBLOCK LATTICE_ABC

%BLOCK POSITIONS_FRAC
  Li   0.2420162  -0.1832159  -0.1364569 SPIN=   0.00000
  Li  -0.2420162  -0.1832159   0.1364569 SPIN=   0.00000
  Li   0.2488585   0.0133352   0.3697914 SPIN=   0.00000
  Li  -0.2488585   0.0133352  -0.3697914 SPIN=   0.00000
  Fe  -0.2536453   0.3108623   0.3769040 SPIN=   6.41875
  Fe   0.2536453   0.3108623  -0.3769040 SPIN=   6.41875
  Fe  -0.2763080   0.0976734  -0.1479051 SPIN=   1.58125
  Fe   0.2763080   0.0976734   0.1479051 SPIN=   1.58125
   O  -0.3721152   0.4319801   0.2374514 SPIN=   0.00000
   O  -0.3334713   0.2812390   0.0697705 SPIN=   0.00000
   O   0.1676575   0.4399134   0.1368775 SPIN=   0.00000
   O  -0.3477512   0.5901154   0.0721509 SPIN=   0.00000
   S  -0.2214200   0.4358120   0.1290626 SPIN=   0.00000
   O   0.3721152   0.4319801  -0.2374514 SPIN=   0.00000
   O   0.3334713   0.2812390  -0.0697705 SPIN=   0.00000
   O  -0.1676575   0.4399134  -0.1368775 SPIN=   0.00000
   O   0.3477512   0.5901154  -0.0721509 SPIN=   0.00000
   S   0.2214200   0.4358120  -0.1290626 SPIN=   0.00000
   O   0.0025969  -0.3674174   0.2664597 SPIN=   0.00000
   O   0.1565899  -0.2185735   0.4291563 SPIN=   0.00000
   O  -0.3732243  -0.3894359   0.4203629 SPIN=   0.00000
   O  -0.3398045  -0.1236277   0.3227434 SPIN=   0.00000
   S  -0.1384605  -0.2747636   0.3596806 SPIN=   0.00000
   O  -0.0025969  -0.3674174  -0.2664597 SPIN=   0.00000
   O  -0.1565899  -0.2185735  -0.4291563 SPIN=   0.00000
   O   0.3732243  -0.3894359  -0.4203629 SPIN=   0.00000
   O   0.3398045  -0.1236277  -0.3227434 SPIN=   0.00000
   S   0.1384605  -0.2747636  -0.3596806 SPIN=   0.00000
   F   0.2466184   0.2578519   0.3853676 SPIN=   0.00000
   F  -0.2466184   0.2578519  -0.3853676 SPIN=   0.00000
   F  -0.2552470  -0.1467898  -0.1135981 SPIN=   0.00000
   F   0.2552470  -0.1467898   0.1135981 SPIN=   0.00000
%ENDBLOCK POSITIONS_FRAC

# Note: total spin =  16.00

KPOINTS_MP_SPACING 0.07

%BLOCK SPECIES_POT
QC5
%ENDBLOCK SPECIES_POT

SNAP_TO_SYMMETRY
SYMMETRY_GENERATE

