#              Generated by Buildcell
#
# at 06:34:28 (GMT+1.0) 4th August 2020
# in /lustre/scratch/uccabz1/launch_tmp
# on node-c12n-017
# by uccabz1
#
# compiler GCC version 4.9.2
# options -cpp -iprefix /lustre/shared/ucl/apps/gcc/4.9.2/bin/../lib/gcc/x86_64-unknown-linux-gnu/4.9.2/ -mtune=corei7 -march=x86-64 -g -Og
#
# seed   953297268 -1548511507   960816247    55709960  -650006298 -1453562498  1204030267  1859110187  1819114550   997100221 -1848717184  1687553773
#
#      Author: C. J. Pickard (cjp20@cam.ac.uk)
#                Space group: P21212
#

%BLOCK LATTICE_ABC
      5.95191      6.03934     11.12791
     90.00000     90.00000     90.00000
%ENDBLOCK LATTICE_ABC

%BLOCK POSITIONS_FRAC
  Li   0.1835428  -0.2499955   0.0829666 SPIN=   0.00000
  Li   0.1835428   0.2499955  -0.0829666 SPIN=   0.00000
  Li  -0.1835428  -0.2500045  -0.4170334 SPIN=   0.00000
  Li  -0.1835428   0.2500045   0.4170334 SPIN=   0.00000
  Fe   0.0868025  -0.2643940   0.3477654 SPIN=   4.00000
  Fe   0.0868025   0.2643940  -0.3477654 SPIN=   4.00000
  Fe  -0.0868025  -0.2356060  -0.1522346 SPIN=   4.00000
  Fe  -0.0868025   0.2356060   0.1522346 SPIN=   4.00000
   O  -0.5360263  -0.3866931   0.1818835 SPIN=   0.00000
   O  -0.3647385  -0.3178331  -0.0172968 SPIN=   0.00000
   O  -0.1331793  -0.2890582   0.1667671 SPIN=   0.00000
   O  -0.4238210  -0.0067865   0.1240076 SPIN=   0.00000
   S  -0.3644413  -0.2500927   0.1138403 SPIN=   0.00000
   O  -0.5360263   0.3866931  -0.1818835 SPIN=   0.00000
   O  -0.3647385   0.3178331   0.0172968 SPIN=   0.00000
   O  -0.1331793   0.2890582  -0.1667671 SPIN=   0.00000
   O  -0.4238210   0.0067865  -0.1240076 SPIN=   0.00000
   S  -0.3644413   0.2500927  -0.1138403 SPIN=   0.00000
   O   0.5360263  -0.1133069  -0.3181165 SPIN=   0.00000
   O   0.3647385  -0.1821669  -0.5172968 SPIN=   0.00000
   O   0.1331793  -0.2109418  -0.3332329 SPIN=   0.00000
   O   0.4238210  -0.4932135  -0.3759924 SPIN=   0.00000
   S   0.3644413  -0.2499073  -0.3861597 SPIN=   0.00000
   O   0.5360263   0.1133069   0.3181165 SPIN=   0.00000
   O   0.3647385   0.1821669   0.5172968 SPIN=   0.00000
   O   0.1331793   0.2109418   0.3332329 SPIN=   0.00000
   O   0.4238210   0.4932135   0.3759924 SPIN=   0.00000
   S   0.3644413   0.2499073   0.3861597 SPIN=   0.00000
   F  -0.2031132   0.2499836  -0.4085122 SPIN=   0.00000
   F  -0.2031132  -0.2499836   0.4085122 SPIN=   0.00000
   F   0.2031132   0.2500164   0.0914878 SPIN=   0.00000
   F   0.2031132  -0.2500164  -0.0914878 SPIN=   0.00000
%ENDBLOCK POSITIONS_FRAC

# Note: total spin =  16.00

KPOINTS_MP_SPACING 0.07

%BLOCK SPECIES_POT
QC5
%ENDBLOCK SPECIES_POT

SNAP_TO_SYMMETRY
SYMMETRY_GENERATE

