#              Generated by Buildcell
#
# at 01:19:31 (GMT+1.0) 18th August 2020
# in /lustre/scratch/uccabz1/launch_tmp
# on node-c12g-036
# by uccabz1
#
# compiler GCC version 4.9.2
# options -cpp -iprefix /lustre/shared/ucl/apps/gcc/4.9.2/bin/../lib/gcc/x86_64-unknown-linux-gnu/4.9.2/ -mtune=corei7 -march=x86-64 -g -Og
#
# seed -1866323561  1162728455  1957182508   579450542  -129051289  2143098684  -491619809  2137637504  1180786998  -556814415  1704700389  -443736729
#
#      Author: C. J. Pickard (cjp20@cam.ac.uk)
#                Space group: P2
#

%BLOCK LATTICE_ABC
      6.42299      6.94718      9.25584
     90.00000     90.00000    104.41968
%ENDBLOCK LATTICE_ABC

%BLOCK POSITIONS_FRAC
  Li   0.5000000   0.0000000  -0.3558307 SPIN=   0.00000
  Li   0.0000000   0.0000000   0.1830102 SPIN=   0.00000
  Li  -0.5000000   0.5000000   0.1930497 SPIN=   0.00000
  Li   0.0000000  -0.5000000  -0.2844436 SPIN=   0.00000
  Fe  -0.2457223  -0.2539470   0.4867566 SPIN=   5.48480
  Fe   0.2457223   0.2539470   0.4867566 SPIN=   5.48480
  Fe   0.2366861   0.2274290  -0.1012492 SPIN=   2.51520
  Fe  -0.2366861  -0.2274290  -0.1012492 SPIN=   2.51520
   O   0.2429115  -0.4650164   0.3162554 SPIN=   0.00000
   O   0.0282255  -0.2194870   0.3570509 SPIN=   0.00000
   O   0.3471631  -0.1358648   0.1973952 SPIN=   0.00000
   O   0.3931772  -0.1632464   0.4614520 SPIN=   0.00000
   S   0.2528693  -0.2459037   0.3330384 SPIN=   0.00000
   O  -0.2429115   0.4650164   0.3162554 SPIN=   0.00000
   O  -0.0282255   0.2194870   0.3570509 SPIN=   0.00000
   O  -0.3471631   0.1358648   0.1973952 SPIN=   0.00000
   O  -0.3931772   0.1632464   0.4614520 SPIN=   0.00000
   S  -0.2528693   0.2459037   0.3330384 SPIN=   0.00000
   O   0.1876455  -0.4375844  -0.0179239 SPIN=   0.00000
   O   0.1156015  -0.1060706  -0.0476859 SPIN=   0.00000
   O   0.2488659  -0.2669581  -0.2545637 SPIN=   0.00000
   S   0.2605460  -0.2376947  -0.0922335 SPIN=   0.00000
   O  -0.1876455   0.4375844  -0.0179239 SPIN=   0.00000
   O  -0.1156015   0.1060706  -0.0476859 SPIN=   0.00000
   O  -0.2488659   0.2669581  -0.2545637 SPIN=   0.00000
   S  -0.2605460   0.2376947  -0.0922335 SPIN=   0.00000
   O  -0.0000000   0.5000000  -0.4919827 SPIN=   0.00000
   O  -0.5000000   0.0000000  -0.1369333 SPIN=   0.00000
   F  -0.2465320  -0.2294189   0.1243490 SPIN=   0.00000
   F   0.2465320   0.2294189   0.1243490 SPIN=   0.00000
   F  -0.0000000  -0.0000000  -0.3798839 SPIN=   0.00000
   F   0.5000000   0.5000000  -0.3800509 SPIN=   0.00000
%ENDBLOCK POSITIONS_FRAC

# Note: total spin =  16.00

KPOINTS_MP_SPACING 0.07

%BLOCK SPECIES_POT
QC5
%ENDBLOCK SPECIES_POT

SNAP_TO_SYMMETRY
SYMMETRY_GENERATE

