#              Generated by Buildcell
#
# at 17:18:51 (GMT+1.0) 18th August 2020
# in /lustre/scratch/uccabz1/launch_tmp
# on node-c12c-003
# by uccabz1
#
# compiler GCC version 4.9.2
# options -cpp -iprefix /lustre/shared/ucl/apps/gcc/4.9.2/bin/../lib/gcc/x86_64-unknown-linux-gnu/4.9.2/ -mtune=corei7 -march=x86-64 -g -Og
#
# seed   886738979    18299849  1204579347 -1857036983   868607027 -1557408080 -1833202580 -1152154766   456087702  -541168966 -1219267870  1950816199
#
#      Author: C. J. Pickard (cjp20@cam.ac.uk)
#                Space group: P-1
#

%BLOCK LATTICE_ABC
      6.99749      8.12711      8.43816
    112.99614    101.64140    105.35334
%ENDBLOCK LATTICE_ABC

%BLOCK POSITIONS_FRAC
  Li   0.4159839   0.2169494   0.2829394 SPIN=   0.00000
  Li  -0.4159839  -0.2169494  -0.2829394 SPIN=   0.00000
  Li   0.3682365   0.1761337  -0.2424420 SPIN=   0.00000
  Li  -0.3682365  -0.1761337   0.2424420 SPIN=   0.00000
  Fe   0.2775209  -0.4493503   0.3258459 SPIN=   4.42509
  Fe  -0.2775209   0.4493503  -0.3258459 SPIN=   4.42509
  Fe   0.2938145  -0.4509033  -0.1592189 SPIN=   3.57491
  Fe  -0.2938145   0.4509033   0.1592189 SPIN=   3.57491
   O  -0.2721151   0.2759860   0.3909789 SPIN=   0.00000
   O  -0.0935149   0.0549929   0.4079020 SPIN=   0.00000
   O   0.1139128   0.3808614   0.4590786 SPIN=   0.00000
   O  -0.1305394   0.1297455   0.1483972 SPIN=   0.00000
   S  -0.0955642   0.2103964   0.3515892 SPIN=   0.00000
   O   0.2721151  -0.2759860  -0.3909789 SPIN=   0.00000
   O   0.0935149  -0.0549929  -0.4079020 SPIN=   0.00000
   O  -0.1139128  -0.3808614  -0.4590786 SPIN=   0.00000
   O   0.1305394  -0.1297455  -0.1483972 SPIN=   0.00000
   S   0.0955642  -0.2103964  -0.3515892 SPIN=   0.00000
   O   0.0365375   0.2380488  -0.2584232 SPIN=   0.00000
   O   0.0598340   0.3533914   0.0657890 SPIN=   0.00000
   O  -0.1308376   0.0064102  -0.1576157 SPIN=   0.00000
   O  -0.2814040   0.2449347  -0.1745059 SPIN=   0.00000
   S  -0.0789675   0.2106963  -0.1311890 SPIN=   0.00000
   O  -0.0365375  -0.2380488   0.2584232 SPIN=   0.00000
   O  -0.0598340  -0.3533914  -0.0657890 SPIN=   0.00000
   O   0.1308376  -0.0064102   0.1576157 SPIN=   0.00000
   O   0.2814040  -0.2449347   0.1745059 SPIN=   0.00000
   S   0.0789675  -0.2106963   0.1311890 SPIN=   0.00000
   F  -0.4169465  -0.2235762   0.4570425 SPIN=   0.00000
   F   0.4169465   0.2235762  -0.4570425 SPIN=   0.00000
   F  -0.4441415  -0.2358639  -0.0435369 SPIN=   0.00000
   F   0.4441415   0.2358639   0.0435369 SPIN=   0.00000
%ENDBLOCK POSITIONS_FRAC

# Note: total spin =  16.00

KPOINTS_MP_SPACING 0.07

%BLOCK SPECIES_POT
QC5
%ENDBLOCK SPECIES_POT

SNAP_TO_SYMMETRY
SYMMETRY_GENERATE

