#              Generated by Buildcell
#
# at 06:02:15 (GMT+1.0) 4th August 2020
# in /lustre/scratch/uccabz1/launch_tmp
# on node-c12c-005
# by uccabz1
#
# compiler GCC version 4.9.2
# options -cpp -iprefix /lustre/shared/ucl/apps/gcc/4.9.2/bin/../lib/gcc/x86_64-unknown-linux-gnu/4.9.2/ -mtune=corei7 -march=x86-64 -g -Og
#
# seed    78782418  -681916422 -1761986111  -868556633 -1865943888  1089685533   376220792   954209312   769601488  1667147129   597287098   306932151
#
#      Author: C. J. Pickard (cjp20@cam.ac.uk)
#                Space group: Pca21
#

%BLOCK LATTICE_ABC
      5.57773      6.21903     11.53134
     90.00000     90.00000     90.00000
%ENDBLOCK LATTICE_ABC

%BLOCK POSITIONS_FRAC
  Li  -0.2197624   0.0029793  -0.1235805 SPIN=   0.00000
  Li   0.2802376  -0.0029793   0.1235805 SPIN=   0.00000
  Li  -0.2197624  -0.4970207   0.1235805 SPIN=   0.00000
  Li   0.2802376   0.4970207  -0.1235805 SPIN=   0.00000
  Fe  -0.4822707   0.0566349  -0.4000360 SPIN=   4.00000
  Fe   0.0177293  -0.0566349   0.4000360 SPIN=   4.00000
  Fe  -0.4822707  -0.4433651   0.4000360 SPIN=   4.00000
  Fe   0.0177293   0.4433651  -0.4000360 SPIN=   4.00000
   O   0.1667232   0.2007512  -0.1469453 SPIN=   0.00000
   O   0.4254276  -0.0724857  -0.2401557 SPIN=   0.00000
   O   0.0848242  -0.1864268  -0.1170965 SPIN=   0.00000
   O   0.4423681  -0.0190397  -0.0276365 SPIN=   0.00000
   S   0.2798358  -0.0193002  -0.1329585 SPIN=   0.00000
   O  -0.3332768  -0.2007512   0.1469453 SPIN=   0.00000
   O  -0.0745724   0.0724857   0.2401557 SPIN=   0.00000
   O  -0.4151758   0.1864268   0.1170965 SPIN=   0.00000
   O  -0.0576319   0.0190397   0.0276365 SPIN=   0.00000
   S  -0.2201642   0.0193002   0.1329585 SPIN=   0.00000
   O   0.1667232   0.7007512   0.1469453 SPIN=   0.00000
   O   0.4254276   0.4275143   0.2401557 SPIN=   0.00000
   O   0.0848242   0.3135732   0.1170965 SPIN=   0.00000
   O   0.4423681   0.4809603   0.0276365 SPIN=   0.00000
   S   0.2798358   0.4806998   0.1329585 SPIN=   0.00000
   O  -0.3332768  -0.7007512  -0.1469453 SPIN=   0.00000
   O  -0.0745724  -0.4275143  -0.2401557 SPIN=   0.00000
   O  -0.4151758  -0.3135732  -0.1170965 SPIN=   0.00000
   O  -0.0576319  -0.4809603  -0.0276365 SPIN=   0.00000
   S  -0.2201642  -0.4806998  -0.1329585 SPIN=   0.00000
   F   0.3396590   0.4726539  -0.3809441 SPIN=   0.00000
   F  -0.1603410  -0.4726539   0.3809441 SPIN=   0.00000
   F   0.3396590  -0.0273461   0.3809441 SPIN=   0.00000
   F  -0.1603410   0.0273461  -0.3809441 SPIN=   0.00000
%ENDBLOCK POSITIONS_FRAC

# Note: total spin =  16.00

KPOINTS_MP_SPACING 0.07

%BLOCK SPECIES_POT
QC5
%ENDBLOCK SPECIES_POT

SNAP_TO_SYMMETRY
SYMMETRY_GENERATE

