#              Generated by Buildcell
#
# at 03:42:54 (GMT+1.0) 18th August 2020
# in /lustre/scratch/uccabz1/launch_tmp
# on node-c12b-022
# by uccabz1
#
# compiler GCC version 4.9.2
# options -cpp -iprefix /lustre/shared/ucl/apps/gcc/4.9.2/bin/../lib/gcc/x86_64-unknown-linux-gnu/4.9.2/ -mtune=corei7 -march=x86-64 -g -Og
#
# seed -1672269240   852666736  -483759811   527011738 -1396803321 -1073062531  1788520971   371796466 -1898725404   856920334 -1294090919   374905260
#
#      Author: C. J. Pickard (cjp20@cam.ac.uk)
#                Space group: Pm
#

%BLOCK LATTICE_ABC
      3.98623      6.93763     14.68520
     90.00000     90.00000     99.95836
%ENDBLOCK LATTICE_ABC

%BLOCK POSITIONS_FRAC
  Li  -0.1802700   0.0762917   0.3140447 SPIN=   0.00000
  Li  -0.1802700   0.0762917  -0.3140447 SPIN=   0.00000
  Li   0.4295291  -0.3992094   0.1344593 SPIN=   0.00000
  Li   0.4295291  -0.3992094  -0.1344593 SPIN=   0.00000
  Fe  -0.3267543   0.2101386  -0.1261424 SPIN=   3.45259
  Fe  -0.3267543   0.2101386   0.1261424 SPIN=   3.45259
  Fe   0.0629315  -0.2559270   0.5000000 SPIN=   3.81811
  Fe  -0.3299941   0.2123879   0.5000000 SPIN=   5.27671
   O   0.6281314   0.5388490  -0.3309806 SPIN=   0.00000
   O   0.4688578   0.2088519  -0.2634561 SPIN=   0.00000
   O   0.1130459   0.3167521  -0.3849973 SPIN=   0.00000
   O   0.1214982   0.4641664  -0.2313685 SPIN=   0.00000
   S   0.3328833   0.3821548  -0.3027006 SPIN=   0.00000
   O   0.6281314   0.5388490   0.3309806 SPIN=   0.00000
   O   0.4688578   0.2088519   0.2634561 SPIN=   0.00000
   O   0.1130459   0.3167521   0.3849973 SPIN=   0.00000
   O   0.1214982   0.4641664   0.2313685 SPIN=   0.00000
   S   0.3328833   0.3821548   0.3027006 SPIN=   0.00000
   O   0.3488941  -0.2043441   0.2230801 SPIN=   0.00000
   O  -0.0968195  -0.2838321   0.1050749 SPIN=   0.00000
   O   0.0357494   0.0515011   0.1681776 SPIN=   0.00000
   S   0.0074787  -0.1642277   0.1899851 SPIN=   0.00000
   O   0.3488941  -0.2043441  -0.2230801 SPIN=   0.00000
   O  -0.0968195  -0.2838321  -0.1050749 SPIN=   0.00000
   O   0.0357494   0.0515011  -0.1681776 SPIN=   0.00000
   S   0.0074787  -0.1642277  -0.1899851 SPIN=   0.00000
   O  -0.3960089   0.3640667   0.0000000 SPIN=   0.00000
   O  -0.4084190  -0.1738511   0.5000000 SPIN=   0.00000
   F   0.3955016  -0.3127483   0.0000000 SPIN=   0.00000
   F  -0.2077724   0.4938654   0.5000000 SPIN=   0.00000
   F   0.1597973   0.0522234   0.5000000 SPIN=   0.00000
   F   0.0358404   0.1377179   0.0000000 SPIN=   0.00000
%ENDBLOCK POSITIONS_FRAC

# Note: total spin =  16.00

KPOINTS_MP_SPACING 0.07

%BLOCK SPECIES_POT
QC5
%ENDBLOCK SPECIES_POT

SNAP_TO_SYMMETRY
SYMMETRY_GENERATE

