#              Generated by Buildcell
#
# at 16:24:36 (GMT+1.0) 18th August 2020
# in /lustre/scratch/uccabz1/launch_tmp
# on node-c12m-030
# by uccabz1
#
# compiler GCC version 4.9.2
# options -cpp -iprefix /lustre/shared/ucl/apps/gcc/4.9.2/bin/../lib/gcc/x86_64-unknown-linux-gnu/4.9.2/ -mtune=corei7 -march=x86-64 -g -Og
#
# seed  2119485088  1687921328  -231816558  -814677390  -601470303  1256314914  1911599751  1980160017  1154895487  1508954688    98281287   561588949
#
#      Author: C. J. Pickard (cjp20@cam.ac.uk)
#                Space group: Ima2
#

%BLOCK LATTICE_ABC
      7.78608      8.23306      8.23306
     66.91773     61.78024     61.78024
%ENDBLOCK LATTICE_ABC

%BLOCK POSITIONS_FRAC
  Li   0.0000000   0.1351316  -0.1351316 SPIN=   0.00000
  Li   0.5000000  -0.3648684   0.3648684 SPIN=   0.00000
  Li  -0.2314450  -0.0207178  -0.4792822 SPIN=   0.00000
  Li   0.2314450   0.4792822   0.0207178 SPIN=   0.00000
  Fe   0.1939184  -0.0641751   0.1592242 SPIN=   4.00000
  Fe  -0.1939184  -0.1592242   0.0641751 SPIN=   4.00000
  Fe   0.2110325   0.4358249  -0.3407758 SPIN=   4.00000
  Fe  -0.2110325   0.3407758  -0.4358249 SPIN=   4.00000
   O  -0.5665035   0.2069550   0.0781524 SPIN=   0.00000
   O  -0.2538820   0.1885845   0.1047222 SPIN=   0.00000
   O  -0.3843437   0.4299426  -0.1468853 SPIN=   0.00000
   O  -0.2185863   0.0927251  -0.1625462 SPIN=   0.00000
   O   0.5665035  -0.0781524  -0.2069550 SPIN=   0.00000
   O   0.2538820  -0.1047222  -0.1885845 SPIN=   0.00000
   O   0.3843437   0.1468853  -0.4299426 SPIN=   0.00000
   O   0.2185863   0.1625462  -0.0927251 SPIN=   0.00000
   O  -0.2186039  -0.2930450   0.5781524 SPIN=   0.00000
   O  -0.5394247  -0.3114155   0.6047222 SPIN=   0.00000
   O  -0.3987135  -0.0700574   0.3531147 SPIN=   0.00000
   O  -0.2115926  -0.4072749   0.3374538 SPIN=   0.00000
   O   0.2186039  -0.5781524   0.2930450 SPIN=   0.00000
   O   0.5394247  -0.6047222   0.3114155 SPIN=   0.00000
   O   0.3987135  -0.3531147   0.0700574 SPIN=   0.00000
   O   0.2115926  -0.3374538   0.4072749 SPIN=   0.00000
   S  -0.1086623   0.3912133   0.1087867 SPIN=   0.00000
   S   0.1086623  -0.1087867  -0.3912133 SPIN=   0.00000
   S   0.4849323   0.1602555   0.3397445 SPIN=   0.00000
   S  -0.4849323  -0.3397445  -0.1602555 SPIN=   0.00000
   F   0.5000000   0.3028016  -0.3028016 SPIN=   0.00000
   F  -0.0000000  -0.1971984   0.1971984 SPIN=   0.00000
   F   0.5000000  -0.1394626   0.1394626 SPIN=   0.00000
   F   0.0000000   0.3605374  -0.3605374 SPIN=   0.00000
%ENDBLOCK POSITIONS_FRAC

# Note: total spin =  16.00

KPOINTS_MP_SPACING 0.07

%BLOCK SPECIES_POT
QC5
%ENDBLOCK SPECIES_POT

SNAP_TO_SYMMETRY
SYMMETRY_GENERATE

