#              Generated by Buildcell
#
# at 23:44:09 (GMT+1.0) 17th August 2020
# in /lustre/scratch/uccabz1/launch_tmp
# on node-c12e-001
# by uccabz1
#
# compiler GCC version 4.9.2
# options -cpp -iprefix /lustre/shared/ucl/apps/gcc/4.9.2/bin/../lib/gcc/x86_64-unknown-linux-gnu/4.9.2/ -mtune=corei7 -march=x86-64 -g -Og
#
# seed   475196345 -2126685466  1063105469   756128157 -1109623610   223378867 -2049314134  2020939487  -441115394  1289045731  1907964695   607250363
#
#      Author: C. J. Pickard (cjp20@cam.ac.uk)
#                Space group: Iba2
#

%BLOCK LATTICE_ABC
      7.35556      8.24264      8.24264
     76.84659     63.50051     63.50051
%ENDBLOCK LATTICE_ABC

%BLOCK POSITIONS_FRAC
  Li   0.4186185  -0.2732826  -0.0164026 SPIN=   0.00000
  Li   0.1289333   0.2732826   0.0164026 SPIN=   0.00000
  Li  -0.3710667   0.0164026   0.2732826 SPIN=   0.00000
  Li  -0.0813815  -0.0164026  -0.2732826 SPIN=   0.00000
  Fe  -0.4088361   0.3570231  -0.1499417 SPIN=   4.00000
  Fe  -0.2017548  -0.3570231   0.1499417 SPIN=   4.00000
  Fe   0.2982452   0.1499417  -0.3570231 SPIN=   4.00000
  Fe   0.0911639  -0.1499417   0.3570231 SPIN=   4.00000
   O   0.2090495  -0.5642037  -0.3329255 SPIN=   0.00000
   O   0.2591144  -0.2753097  -0.4413642 SPIN=   0.00000
   O   0.2633766  -0.4116426  -0.1420869 SPIN=   0.00000
   O  -0.0867131  -0.2776347  -0.1874952 SPIN=   0.00000
   S   0.1612069  -0.3821977  -0.2759680 SPIN=   0.00000
   O  -0.6880797   0.5642037   0.3329255 SPIN=   0.00000
   O  -0.4575595   0.2753097   0.4413642 SPIN=   0.00000
   O  -0.2903530   0.4116426   0.1420869 SPIN=   0.00000
   O  -0.5518430   0.2776347   0.1874952 SPIN=   0.00000
   S  -0.4969588   0.3821977   0.2759680 SPIN=   0.00000
   O  -0.1880797   0.3329255   0.5642037 SPIN=   0.00000
   O   0.0424405   0.4413642   0.2753097 SPIN=   0.00000
   O   0.2096470   0.1420869   0.4116426 SPIN=   0.00000
   O  -0.0518430   0.1874952   0.2776347 SPIN=   0.00000
   S   0.0030412   0.2759680   0.3821977 SPIN=   0.00000
   O  -0.2909505  -0.3329255  -0.5642037 SPIN=   0.00000
   O  -0.2408856  -0.4413642  -0.2753097 SPIN=   0.00000
   O  -0.2366234  -0.1420869  -0.4116426 SPIN=   0.00000
   O  -0.5867131  -0.1874952  -0.2776347 SPIN=   0.00000
   S  -0.3387931  -0.2759680  -0.3821977 SPIN=   0.00000
   F   0.0698997  -0.2099910   0.1511994 SPIN=   0.00000
   F   0.0111080   0.2099910  -0.1511994 SPIN=   0.00000
   F  -0.4888920  -0.1511994   0.2099910 SPIN=   0.00000
   F  -0.4301003   0.1511994  -0.2099910 SPIN=   0.00000
%ENDBLOCK POSITIONS_FRAC

# Note: total spin =  16.00

KPOINTS_MP_SPACING 0.07

%BLOCK SPECIES_POT
QC5
%ENDBLOCK SPECIES_POT

SNAP_TO_SYMMETRY
SYMMETRY_GENERATE

