#              Generated by Buildcell
#
# at 06:10:01 (GMT+1.0) 4th August 2020
# in /lustre/scratch/uccabz1/launch_tmp
# on node-c12e-014
# by uccabz1
#
# compiler GCC version 4.9.2
# options -cpp -iprefix /lustre/shared/ucl/apps/gcc/4.9.2/bin/../lib/gcc/x86_64-unknown-linux-gnu/4.9.2/ -mtune=corei7 -march=x86-64 -g -Og
#
# seed -1264807514 -1455154939  -524227946  1089471486   118427535 -1382141755    52611783  1460836752   246043897  -330358888  1359655850 -2058864789
#
#      Author: C. J. Pickard (cjp20@cam.ac.uk)
#                Space group: Pc
#

%BLOCK LATTICE_ABC
      6.29338      7.67988      8.30000
     90.00000     90.00000     94.35652
%ENDBLOCK LATTICE_ABC

%BLOCK POSITIONS_FRAC
  Li   0.0040049   0.0481888   0.4023652 SPIN=   0.00000
  Li  -0.4959951  -0.4518112  -0.4023652 SPIN=   0.00000
  Li   0.1009640  -0.1703009  -0.1799589 SPIN=   0.00000
  Li  -0.3990360   0.3296991   0.1799589 SPIN=   0.00000
  Fe   0.3867081  -0.4257093  -0.0254145 SPIN=   4.70402
  Fe  -0.1132919   0.0742907   0.0254145 SPIN=   4.70402
  Fe  -0.1226079   0.4671816  -0.2154332 SPIN=   3.29598
  Fe   0.3773921  -0.0328184   0.2154332 SPIN=   3.29598
   O   0.2832739   0.2328360   0.1888411 SPIN=   0.00000
   O  -0.0494899   0.2995226   0.3269521 SPIN=   0.00000
   O   0.1670268   0.5334894   0.1838060 SPIN=   0.00000
   O   0.2998572   0.4114398   0.4373499 SPIN=   0.00000
   S   0.1751670   0.3693219   0.2842373 SPIN=   0.00000
   O  -0.2167261  -0.2671640  -0.1888411 SPIN=   0.00000
   O  -0.5494899  -0.2004774  -0.3269521 SPIN=   0.00000
   O  -0.3329732   0.0334894  -0.1838060 SPIN=   0.00000
   O  -0.2001428  -0.0885602  -0.4373499 SPIN=   0.00000
   S  -0.3248330  -0.1306781  -0.2842373 SPIN=   0.00000
   O  -0.2959115  -0.1031961   0.2512093 SPIN=   0.00000
   O  -0.1251220  -0.3194940   0.0834380 SPIN=   0.00000
   O  -0.4628882  -0.4042267   0.2256440 SPIN=   0.00000
   O  -0.1284027  -0.3489476   0.3803743 SPIN=   0.00000
   S  -0.2530811  -0.2939661   0.2351664 SPIN=   0.00000
   O   0.2040885   0.3968039  -0.2512093 SPIN=   0.00000
   O   0.3748780   0.1805060  -0.0834380 SPIN=   0.00000
   O   0.0371118   0.0957733  -0.2256440 SPIN=   0.00000
   O   0.3715973   0.1510524  -0.3803743 SPIN=   0.00000
   S   0.2469189   0.2060339  -0.2351664 SPIN=   0.00000
   F  -0.2703713   0.3896334  -0.4332956 SPIN=   0.00000
   F   0.2296287  -0.1103666   0.4332956 SPIN=   0.00000
   F   0.2542101  -0.1874447   0.0221805 SPIN=   0.00000
   F  -0.2457899   0.3125553  -0.0221805 SPIN=   0.00000
%ENDBLOCK POSITIONS_FRAC

# Note: total spin =  16.00

KPOINTS_MP_SPACING 0.07

%BLOCK SPECIES_POT
QC5
%ENDBLOCK SPECIES_POT

SNAP_TO_SYMMETRY
SYMMETRY_GENERATE

