#              Generated by Buildcell
#
# at 16:40:43 (GMT+1.0) 18th August 2020
# in /lustre/scratch/uccabz1/launch_tmp
# on node-c12l-006
# by uccabz1
#
# compiler GCC version 4.9.2
# options -cpp -iprefix /lustre/shared/ucl/apps/gcc/4.9.2/bin/../lib/gcc/x86_64-unknown-linux-gnu/4.9.2/ -mtune=corei7 -march=x86-64 -g -Og
#
# seed  2132230160  -804670773 -1389006562  -765677323 -1585476459  -937930778  1022038796   395024916 -2098859589  -530412905  1044125757  1715600840
#
#      Author: C. J. Pickard (cjp20@cam.ac.uk)
#                Space group: C2
#

%BLOCK LATTICE_ABC
      7.11143      7.11143      9.26465
    105.56515    111.91987     99.44366
%ENDBLOCK LATTICE_ABC

%BLOCK POSITIONS_FRAC
  Li   0.0286664   0.3667253   0.2995276 SPIN=   0.00000
  Li   0.0671976  -0.2708612  -0.2995276 SPIN=   0.00000
  Li  -0.3219429  -0.7049365  -0.2845848 SPIN=   0.00000
  Li  -0.4203517  -0.0373581   0.2845848 SPIN=   0.00000
  Fe  -0.0905716   0.7504731   0.3621739 SPIN=   2.10255
  Fe   0.3882992  -0.4527455  -0.3621739 SPIN=   2.10255
  Fe  -0.3142281   0.0172062   0.0161727 SPIN=   5.89745
  Fe   0.0010335  -0.3304009  -0.0161727 SPIN=   5.89745
   O   0.0314825   0.0428575   0.3318827 SPIN=   0.00000
   O   0.3914973   0.2826915   0.4517040 SPIN=   0.00000
   O   0.2098459   0.0696100   0.1511813 SPIN=   0.00000
   O   0.3389857  -0.0902730   0.3614010 SPIN=   0.00000
   S   0.2429528   0.0762215   0.3240422 SPIN=   0.00000
   O  -0.2890252  -0.3004002  -0.3318827 SPIN=   0.00000
   O  -0.1690125  -0.0602067  -0.4517040 SPIN=   0.00000
   O  -0.0815713   0.0586646  -0.1511813 SPIN=   0.00000
   O  -0.4516740  -0.0224153  -0.3614010 SPIN=   0.00000
   S  -0.2478207  -0.0810894  -0.3240422 SPIN=   0.00000
   O   0.5186899   0.6703958   0.3955840 SPIN=   0.00000
   O   0.3358470   0.7025667   0.1217625 SPIN=   0.00000
   O   0.1958423   0.3981171   0.1738967 SPIN=   0.00000
   O   0.5315372   0.4463518   0.1459150 SPIN=   0.00000
   S   0.3954791   0.5543578   0.2092896 SPIN=   0.00000
   O   0.2748117   0.1231059  -0.3955840 SPIN=   0.00000
   O   0.5808042   0.2140845  -0.1217625 SPIN=   0.00000
   O   0.2242204   0.0219456  -0.1738967 SPIN=   0.00000
   O   0.3004368   0.3856223  -0.1459150 SPIN=   0.00000
   S   0.3450683   0.1861896  -0.2092896 SPIN=   0.00000
   F  -0.0511327  -0.5230911  -0.2398211 SPIN=   0.00000
   F  -0.2832701   0.1886884   0.2398211 SPIN=   0.00000
   F  -0.2837782  -0.2837782  -0.0000000 SPIN=   0.00000
   F   0.1379790  -0.3620210  -0.5000000 SPIN=   0.00000
%ENDBLOCK POSITIONS_FRAC

# Note: total spin =  16.00

KPOINTS_MP_SPACING 0.07

%BLOCK SPECIES_POT
QC5
%ENDBLOCK SPECIES_POT

SNAP_TO_SYMMETRY
SYMMETRY_GENERATE

