#              Generated by Buildcell
#
# at 16:12:44 (GMT+1.0) 18th August 2020
# in /lustre/scratch/uccabz1/launch_tmp
# on node-c12m-034
# by uccabz1
#
# compiler GCC version 4.9.2
# options -cpp -iprefix /lustre/shared/ucl/apps/gcc/4.9.2/bin/../lib/gcc/x86_64-unknown-linux-gnu/4.9.2/ -mtune=corei7 -march=x86-64 -g -Og
#
# seed -1347258737 -1900134276  1862591149  1166798821  1945812258  1348788478 -1494520848   477379176   825808806  1802349416   922701365   873520251
#
#      Author: C. J. Pickard (cjp20@cam.ac.uk)
#                Space group: P2/c
#

%BLOCK LATTICE_ABC
      3.93579      8.47775     12.01969
     90.00000     94.16140     90.00000
%ENDBLOCK LATTICE_ABC

%BLOCK POSITIONS_FRAC
  Li  -0.0489990  -0.3297668  -0.4043863 SPIN=   0.00000
  Li   0.0489990  -0.3297668  -0.0956137 SPIN=   0.00000
  Li   0.0489990   0.3297668   0.4043863 SPIN=   0.00000
  Li  -0.0489990   0.3297668   0.0956137 SPIN=   0.00000
  Fe   0.2670040   0.0421881  -0.3802937 SPIN=   4.00000
  Fe  -0.2670040   0.0421881  -0.1197063 SPIN=   4.00000
  Fe  -0.2670040  -0.0421881   0.3802937 SPIN=   4.00000
  Fe   0.2670040  -0.0421881   0.1197063 SPIN=   4.00000
   O  -0.3536279  -0.2094112   0.1664088 SPIN=   0.00000
   O  -0.3517715  -0.5013326   0.1673916 SPIN=   0.00000
   O   0.1474755  -0.3551522   0.1072736 SPIN=   0.00000
   O  -0.3924159  -0.3565756  -0.0118851 SPIN=   0.00000
   S  -0.2375849  -0.3556179   0.1072972 SPIN=   0.00000
   O   0.3536279  -0.2094112   0.3335912 SPIN=   0.00000
   O   0.3517715  -0.5013326   0.3326084 SPIN=   0.00000
   O  -0.1474755  -0.3551522   0.3927264 SPIN=   0.00000
   O   0.3924159  -0.3565756   0.5118851 SPIN=   0.00000
   S   0.2375849  -0.3556179   0.3927028 SPIN=   0.00000
   O   0.3536279   0.2094112  -0.1664088 SPIN=   0.00000
   O   0.3517715   0.5013326  -0.1673916 SPIN=   0.00000
   O  -0.1474755   0.3551522  -0.1072736 SPIN=   0.00000
   O   0.3924159   0.3565756   0.0118851 SPIN=   0.00000
   S   0.2375849   0.3556179  -0.1072972 SPIN=   0.00000
   O  -0.3536279   0.2094112  -0.3335912 SPIN=   0.00000
   O  -0.3517715   0.5013326  -0.3326084 SPIN=   0.00000
   O   0.1474755   0.3551522  -0.3927264 SPIN=   0.00000
   O  -0.3924159   0.3565756  -0.5118851 SPIN=   0.00000
   S  -0.2375849   0.3556179  -0.3927028 SPIN=   0.00000
   F   0.2696600   0.1119659   0.3845365 SPIN=   0.00000
   F  -0.2696600   0.1119659   0.1154635 SPIN=   0.00000
   F  -0.2696600  -0.1119659  -0.3845365 SPIN=   0.00000
   F   0.2696600  -0.1119659  -0.1154635 SPIN=   0.00000
%ENDBLOCK POSITIONS_FRAC

# Note: total spin =  16.00

KPOINTS_MP_SPACING 0.07

%BLOCK SPECIES_POT
QC5
%ENDBLOCK SPECIES_POT

SNAP_TO_SYMMETRY
SYMMETRY_GENERATE

