#              Generated by Buildcell
#
# at 00:56:48 (GMT+1.0) 18th August 2020
# in /lustre/scratch/uccabz1/launch_tmp
# on node-c12k-034
# by uccabz1
#
# compiler GCC version 4.9.2
# options -cpp -iprefix /lustre/shared/ucl/apps/gcc/4.9.2/bin/../lib/gcc/x86_64-unknown-linux-gnu/4.9.2/ -mtune=corei7 -march=x86-64 -g -Og
#
# seed -1464182240   695466395  -297451901  -549895964  1504600061  1998502291 -1138555903   107320690  1992216438  1787368181  1748518357  1432204527
#
#      Author: C. J. Pickard (cjp20@cam.ac.uk)
#                Space group: Cc
#

%BLOCK LATTICE_ABC
      6.70781      8.01960      8.01960
    110.25404     95.00032     95.00032
%ENDBLOCK LATTICE_ABC

%BLOCK POSITIONS_FRAC
  Li  -0.0921109  -0.2008582  -0.3141946 SPIN=   0.00000
  Li   0.4078891  -0.3141946  -0.2008582 SPIN=   0.00000
  Li  -0.0576682  -0.0008589   0.1873658 SPIN=   0.00000
  Li   0.4423318   0.1873658  -0.0008589 SPIN=   0.00000
  Fe  -0.0091344   0.1925851  -0.0759152 SPIN=   3.64832
  Fe   0.4908656  -0.0759152   0.1925851 SPIN=   3.64832
  Fe   0.2371852   0.3122184   0.4398681 SPIN=   4.35168
  Fe  -0.2628148   0.4398681   0.3122184 SPIN=   4.35168
   O  -0.3021939   0.3231985  -0.3566157 SPIN=   0.00000
   O  -0.0065080   0.1584918  -0.3589547 SPIN=   0.00000
   O  -0.1278835   0.2239493  -0.6274142 SPIN=   0.00000
   O  -0.3299224   0.0007958  -0.5407479 SPIN=   0.00000
   S  -0.1916269   0.1766088  -0.4709331 SPIN=   0.00000
   O   0.1978061  -0.3566157   0.3231985 SPIN=   0.00000
   O   0.4934920  -0.3589547   0.1584918 SPIN=   0.00000
   O   0.3721165  -0.6274142   0.2239493 SPIN=   0.00000
   O   0.1700776  -0.5407479   0.0007958 SPIN=   0.00000
   S   0.3083731  -0.4709331   0.1766088 SPIN=   0.00000
   O  -0.2955996  -0.5252232  -0.0437849 SPIN=   0.00000
   O  -0.0225655  -0.4177393  -0.1843317 SPIN=   0.00000
   O  -0.0582212  -0.2550526   0.1338114 SPIN=   0.00000
   O  -0.3103120  -0.2445735  -0.1056580 SPIN=   0.00000
   S  -0.1716746  -0.3606471  -0.0499908 SPIN=   0.00000
   O   0.2044004  -0.0437849  -0.5252232 SPIN=   0.00000
   O   0.4774345  -0.1843317  -0.4177393 SPIN=   0.00000
   O   0.4417788   0.1338114  -0.2550526 SPIN=   0.00000
   O   0.1896880  -0.1056580  -0.2445735 SPIN=   0.00000
   S   0.3283254  -0.0499908  -0.3606471 SPIN=   0.00000
   F   0.2440972   0.0199365   0.1634473 SPIN=   0.00000
   F  -0.2559028   0.1634473   0.0199365 SPIN=   0.00000
   F   0.3225713   0.4385557  -0.3115994 SPIN=   0.00000
   F  -0.1774287  -0.3115994   0.4385557 SPIN=   0.00000
%ENDBLOCK POSITIONS_FRAC

# Note: total spin =  16.00

KPOINTS_MP_SPACING 0.07

%BLOCK SPECIES_POT
QC5
%ENDBLOCK SPECIES_POT

SNAP_TO_SYMMETRY
SYMMETRY_GENERATE

