#              Generated by Buildcell
#
# at 14:58:43 (GMT+1.0) 18th August 2020
# in /lustre/scratch/uccabz1/launch_tmp
# on node-c12m-029
# by uccabz1
#
# compiler GCC version 4.9.2
# options -cpp -iprefix /lustre/shared/ucl/apps/gcc/4.9.2/bin/../lib/gcc/x86_64-unknown-linux-gnu/4.9.2/ -mtune=corei7 -march=x86-64 -g -Og
#
# seed -1043375227 -1672194043   338180550 -1618031428 -1571574945  -345153449 -1065464919   704008385  -944261596 -1060170594 -1216179039   315263558
#
#      Author: C. J. Pickard (cjp20@cam.ac.uk)
#                Space group: P-1
#

%BLOCK LATTICE_ABC
      7.02686      7.18438      8.40754
     75.37705     79.87275     79.46267
%ENDBLOCK LATTICE_ABC

%BLOCK POSITIONS_FRAC
  Li   0.0000000   0.5000000   0.0000000 SPIN=   0.00000
  Li  -0.5000000   0.5000000   0.0000000 SPIN=   0.00000
  Li  -0.0000000   0.0000000  -0.0000000 SPIN=   0.00000
  Li   0.0000000  -0.5000000   0.5000000 SPIN=   0.00000
  Fe   0.2230217  -0.2135877   0.2692230 SPIN=   2.08429
  Fe  -0.2230217   0.2135877  -0.2692230 SPIN=   2.08429
  Fe   0.4601958  -0.1558875  -0.2702277 SPIN=   5.91571
  Fe  -0.4601958   0.1558875   0.2702277 SPIN=   5.91571
   O   0.2839716   0.1532851   0.0608757 SPIN=   0.00000
   O   0.4764154   0.1405416  -0.2135623 SPIN=   0.00000
   O   0.3198959   0.4573654  -0.1528349 SPIN=   0.00000
   O   0.1166666   0.2271361  -0.1881846 SPIN=   0.00000
   S   0.2992374   0.2445821  -0.1234265 SPIN=   0.00000
   O  -0.2839716  -0.1532851  -0.0608757 SPIN=   0.00000
   O  -0.4764154  -0.1405416   0.2135623 SPIN=   0.00000
   O  -0.3198959  -0.4573654   0.1528349 SPIN=   0.00000
   O  -0.1166666  -0.2271361   0.1881846 SPIN=   0.00000
   S  -0.2992374  -0.2445821   0.1234265 SPIN=   0.00000
   O   0.0345473   0.8291787  -0.1616504 SPIN=   0.00000
   O   0.1233879   0.8776184  -0.4659616 SPIN=   0.00000
   O  -0.2119687   0.8217518  -0.3362180 SPIN=   0.00000
   O   0.0637065   0.5532527  -0.2951310 SPIN=   0.00000
   S   0.0024183   0.7704504  -0.3147403 SPIN=   0.00000
   O  -0.0345473  -0.8291787   0.1616504 SPIN=   0.00000
   O  -0.1233879  -0.8776184   0.4659616 SPIN=   0.00000
   O   0.2119687  -0.8217518   0.3362180 SPIN=   0.00000
   O  -0.0637065  -0.5532527   0.2951310 SPIN=   0.00000
   S  -0.0024183  -0.7704504   0.3147403 SPIN=   0.00000
   F   0.2457084  -0.3694529   0.0962591 SPIN=   0.00000
   F  -0.2457084   0.3694529  -0.0962591 SPIN=   0.00000
   F  -0.5000000   0.0000000   0.5000000 SPIN=   0.00000
   F   0.5000000   0.5000000  -0.5000000 SPIN=   0.00000
%ENDBLOCK POSITIONS_FRAC

# Note: total spin =  16.00

KPOINTS_MP_SPACING 0.07

%BLOCK SPECIES_POT
QC5
%ENDBLOCK SPECIES_POT

SNAP_TO_SYMMETRY
SYMMETRY_GENERATE

