#              Generated by Buildcell
#
# at 08:46:09 (GMT+1.0) 4th August 2020
# in /lustre/scratch/uccabz1/launch_tmp
# on node-c12f-010
# by uccabz1
#
# compiler GCC version 4.9.2
# options -cpp -iprefix /lustre/shared/ucl/apps/gcc/4.9.2/bin/../lib/gcc/x86_64-unknown-linux-gnu/4.9.2/ -mtune=corei7 -march=x86-64 -g -Og
#
# seed -1408497583   701202313  2012764690  1077466759  1241371067  1855167876 -1741134489 -1341743621  1182813615  -247229440  1273233096   603962509
#
#      Author: C. J. Pickard (cjp20@cam.ac.uk)
#                Space group: P-1
#

%BLOCK LATTICE_ABC
      7.33391      8.00092      8.24366
    110.84622    113.71594     94.39342
%ENDBLOCK LATTICE_ABC

%BLOCK POSITIONS_FRAC
  Li  -0.3973834  -0.7752472  -0.3011145 SPIN=   0.00000
  Li   0.3973834   0.7752472   0.3011145 SPIN=   0.00000
  Li   0.5203577   0.3444542   0.2886000 SPIN=   0.00000
  Li  -0.5203577  -0.3444542  -0.2886000 SPIN=   0.00000
  Fe   0.2002333   0.1346672   0.3378912 SPIN=   3.41575
  Fe  -0.2002333  -0.1346672  -0.3378912 SPIN=   3.41575
  Fe   0.1084008  -0.4634739  -0.2432222 SPIN=   4.58425
  Fe  -0.1084008   0.4634739   0.2432222 SPIN=   4.58425
   O  -0.8612565  -0.3108833  -0.6263747 SPIN=   0.00000
   O  -0.5513909  -0.1020697  -0.3204588 SPIN=   0.00000
   O  -0.8862219  -0.1648108  -0.3188150 SPIN=   0.00000
   O  -0.8309828   0.0255443  -0.4828734 SPIN=   0.00000
   S  -0.7824630  -0.1380549  -0.4371305 SPIN=   0.00000
   O   0.8612565   0.3108833   0.6263747 SPIN=   0.00000
   O   0.5513909   0.1020697   0.3204588 SPIN=   0.00000
   O   0.8862219   0.1648108   0.3188150 SPIN=   0.00000
   O   0.8309828  -0.0255443   0.4828734 SPIN=   0.00000
   S   0.7824630   0.1380549   0.4371305 SPIN=   0.00000
   O   0.1016365  -0.1623816   0.1596360 SPIN=   0.00000
   O  -0.1304267  -0.3838575  -0.1830602 SPIN=   0.00000
   O  -0.2473871  -0.1267696  -0.0125491 SPIN=   0.00000
   O  -0.2052313  -0.3869830   0.0831988 SPIN=   0.00000
   S  -0.1203522  -0.2649979   0.0118064 SPIN=   0.00000
   O  -0.1016365   0.1623816  -0.1596360 SPIN=   0.00000
   O   0.1304267   0.3838575   0.1830602 SPIN=   0.00000
   O   0.2473871   0.1267696   0.0125491 SPIN=   0.00000
   O   0.2052313   0.3869830  -0.0831988 SPIN=   0.00000
   S   0.1203522   0.2649979  -0.0118064 SPIN=   0.00000
   F  -0.6004062  -0.6265250  -0.3969422 SPIN=   0.00000
   F   0.6004062   0.6265250   0.3969422 SPIN=   0.00000
   F   0.3724197  -0.2460425  -0.0084245 SPIN=   0.00000
   F  -0.3724197   0.2460425   0.0084245 SPIN=   0.00000
%ENDBLOCK POSITIONS_FRAC

# Note: total spin =  16.00

KPOINTS_MP_SPACING 0.07

%BLOCK SPECIES_POT
QC5
%ENDBLOCK SPECIES_POT

SNAP_TO_SYMMETRY
SYMMETRY_GENERATE

