#              Generated by Buildcell
#
# at 14:06:04 (GMT+1.0) 18th August 2020
# in /lustre/scratch/uccabz1/launch_tmp
# on node-c12e-036
# by uccabz1
#
# compiler GCC version 4.9.2
# options -cpp -iprefix /lustre/shared/ucl/apps/gcc/4.9.2/bin/../lib/gcc/x86_64-unknown-linux-gnu/4.9.2/ -mtune=corei7 -march=x86-64 -g -Og
#
# seed  -890063811   675142468 -1146206550 -2104726471   -72283541 -1854627188   565271657  -976195787 -1651629615   -74272817  1059871699 -1382987158
#
#      Author: C. J. Pickard (cjp20@cam.ac.uk)
#                Space group: P-1
#

%BLOCK LATTICE_ABC
      6.17773      7.82152      8.72540
     98.81946     99.05344    101.78797
%ENDBLOCK LATTICE_ABC

%BLOCK POSITIONS_FRAC
  Li  -0.1189599  -0.2708989  -0.0353062 SPIN=   0.00000
  Li   0.1189599   0.2708989   0.0353062 SPIN=   0.00000
  Li   0.3569989   0.1483782  -0.3137092 SPIN=   0.00000
  Li  -0.3569989  -0.1483782   0.3137092 SPIN=   0.00000
  Fe  -0.4397931   0.4448624   0.2990310 SPIN=   6.14939
  Fe   0.4397931  -0.4448624  -0.2990310 SPIN=   6.14939
  Fe  -0.1751594   0.0817497  -0.3509213 SPIN=   1.85061
  Fe   0.1751594  -0.0817497   0.3509213 SPIN=   1.85061
   O   0.0278960   0.4975403   0.3392510 SPIN=   0.00000
   O   0.0817977   0.2884217   0.5201072 SPIN=   0.00000
   O   0.2202380   0.2568798   0.2684500 SPIN=   0.00000
   O  -0.1897178   0.1842221   0.2655485 SPIN=   0.00000
   S   0.0350535   0.3067660   0.3483392 SPIN=   0.00000
   O  -0.0278960  -0.4975403  -0.3392510 SPIN=   0.00000
   O  -0.0817977  -0.2884217  -0.5201072 SPIN=   0.00000
   O  -0.2202380  -0.2568798  -0.2684500 SPIN=   0.00000
   O   0.1897178  -0.1842221  -0.2655485 SPIN=   0.00000
   S  -0.0350535  -0.3067660  -0.3483392 SPIN=   0.00000
   O  -0.4946835   0.4203550  -0.1167947 SPIN=   0.00000
   O  -0.2449785   0.4037991   0.1291025 SPIN=   0.00000
   O  -0.0936164   0.4212633  -0.1157902 SPIN=   0.00000
   O  -0.3595105   0.1467025  -0.0942397 SPIN=   0.00000
   S  -0.2981972   0.3480300  -0.0494305 SPIN=   0.00000
   O   0.4946835  -0.4203550   0.1167947 SPIN=   0.00000
   O   0.2449785  -0.4037991  -0.1291025 SPIN=   0.00000
   O   0.0936164  -0.4212633   0.1157902 SPIN=   0.00000
   O   0.3595105  -0.1467025   0.0942397 SPIN=   0.00000
   S   0.2981972  -0.3480300   0.0494305 SPIN=   0.00000
   F   0.1212328   0.1510623  -0.1807467 SPIN=   0.00000
   F  -0.1212328  -0.1510623   0.1807467 SPIN=   0.00000
   F  -0.4340900   0.2662146  -0.4654152 SPIN=   0.00000
   F   0.4340900  -0.2662146   0.4654152 SPIN=   0.00000
%ENDBLOCK POSITIONS_FRAC

# Note: total spin =  16.00

KPOINTS_MP_SPACING 0.07

%BLOCK SPECIES_POT
QC5
%ENDBLOCK SPECIES_POT

SNAP_TO_SYMMETRY
SYMMETRY_GENERATE

