#              Generated by Buildcell
#
# at 05:59:33 (GMT+1.0) 4th August 2020
# in /lustre/scratch/uccabz1/launch_tmp
# on node-c12j-006
# by uccabz1
#
# compiler GCC version 4.9.2
# options -cpp -iprefix /lustre/shared/ucl/apps/gcc/4.9.2/bin/../lib/gcc/x86_64-unknown-linux-gnu/4.9.2/ -mtune=corei7 -march=x86-64 -g -Og
#
# seed -1482969292  1791078363  2018469062   272162144 -1729923101 -1379527678  1958752271 -2124643275 -1244033992   217278219 -1559983870  2099851937
#
#      Author: C. J. Pickard (cjp20@cam.ac.uk)
#                Space group: Pc
#

%BLOCK LATTICE_ABC
      5.80130      6.31002     11.00921
     97.00351     90.00000     90.00000
%ENDBLOCK LATTICE_ABC

%BLOCK POSITIONS_FRAC
  Li   0.1878535  -0.1380438   0.2234227 SPIN=   0.00000
  Li  -0.1878535   0.3619562   0.2234227 SPIN=   0.00000
  Li  -0.3125263   0.1536971  -0.4166364 SPIN=   0.00000
  Li   0.3125263  -0.3463029  -0.4166364 SPIN=   0.00000
  Fe  -0.1563448  -0.3681527   0.4658515 SPIN=   7.50822
  Fe   0.1563448   0.1318473   0.4658515 SPIN=   7.50822
  Fe  -0.1568238   0.0220003  -0.0238375 SPIN=   0.49178
  Fe   0.1568238  -0.4779997  -0.0238375 SPIN=   0.49178
   O  -0.4451189  -0.3065171   0.1301599 SPIN=   0.00000
   O  -0.1569659  -0.0154001   0.1577198 SPIN=   0.00000
   O  -0.1407507  -0.3088769   0.2875052 SPIN=   0.00000
   O  -0.4553027  -0.0424742   0.3157759 SPIN=   0.00000
   S  -0.2995345  -0.1683171   0.2227902 SPIN=   0.00000
   O   0.4451189   0.1934829   0.1301599 SPIN=   0.00000
   O   0.1569659   0.4845999   0.1577198 SPIN=   0.00000
   O   0.1407507   0.1911231   0.2875052 SPIN=   0.00000
   O   0.4553027   0.4575258   0.3157759 SPIN=   0.00000
   S   0.2995345   0.3316829   0.2227902 SPIN=   0.00000
   O   0.0596070   0.2524774  -0.2078245 SPIN=   0.00000
   O   0.3581497   0.2746254  -0.3663634 SPIN=   0.00000
   O   0.3006667  -0.0628497  -0.2769878 SPIN=   0.00000
   O   0.4727583   0.2500121  -0.1520007 SPIN=   0.00000
   S   0.2977954   0.1785663  -0.2507941 SPIN=   0.00000
   O  -0.0596070  -0.2475226  -0.2078245 SPIN=   0.00000
   O  -0.3581497  -0.2253746  -0.3663634 SPIN=   0.00000
   O  -0.3006667  -0.5628497  -0.2769878 SPIN=   0.00000
   O  -0.4727583  -0.2499879  -0.1520007 SPIN=   0.00000
   S  -0.2977954  -0.3214337  -0.2507941 SPIN=   0.00000
   F  -0.2013429   0.3310973   0.0017676 SPIN=   0.00000
   F   0.2013429  -0.1689027   0.0017676 SPIN=   0.00000
   F  -0.2028809   0.3230923   0.4505945 SPIN=   0.00000
   F   0.2028809  -0.1769077   0.4505945 SPIN=   0.00000
%ENDBLOCK POSITIONS_FRAC

# Note: total spin =  16.00

KPOINTS_MP_SPACING 0.07

%BLOCK SPECIES_POT
QC5
%ENDBLOCK SPECIES_POT

SNAP_TO_SYMMETRY
SYMMETRY_GENERATE

