#              Generated by Buildcell
#
# at 07:35:05 (GMT+1.0) 4th August 2020
# in /lustre/scratch/uccabz1/launch_tmp
# on node-c12g-036
# by uccabz1
#
# compiler GCC version 4.9.2
# options -cpp -iprefix /lustre/shared/ucl/apps/gcc/4.9.2/bin/../lib/gcc/x86_64-unknown-linux-gnu/4.9.2/ -mtune=corei7 -march=x86-64 -g -Og
#
# seed   798508359  -553593300   692424421  1581707624 -1394320230   329428491  1625413050    83007323   975049989   202231682   136828324 -1238057192
#
#      Author: C. J. Pickard (cjp20@cam.ac.uk)
#                Space group: Pc
#

%BLOCK LATTICE_ABC
      5.65244      7.65250      9.29861
     90.00000     90.00000     96.01428
%ENDBLOCK LATTICE_ABC

%BLOCK POSITIONS_FRAC
  Li  -0.0830378   0.1078494  -0.4302582 SPIN=   0.00000
  Li   0.4169622  -0.3921506   0.4302582 SPIN=   0.00000
  Li  -0.4256358  -0.2282347  -0.1891977 SPIN=   0.00000
  Li   0.0743642   0.2717653   0.1891977 SPIN=   0.00000
  Fe  -0.3471020   0.2355540  -0.1438148 SPIN=   3.38596
  Fe   0.1528980  -0.2644460   0.1438148 SPIN=   3.38596
  Fe   0.4063438   0.0330819   0.4661719 SPIN=   4.61404
  Fe  -0.0936562  -0.4669181  -0.4661719 SPIN=   4.61404
   O  -0.1789675   0.1281567   0.0702970 SPIN=   0.00000
   O  -0.5611527   0.0312995   0.1902622 SPIN=   0.00000
   O  -0.1844970  -0.0559309   0.2893452 SPIN=   0.00000
   O  -0.3433863  -0.1843279   0.0602535 SPIN=   0.00000
   S  -0.3170009  -0.0202007   0.1525395 SPIN=   0.00000
   O   0.3210325   0.6281567  -0.0702970 SPIN=   0.00000
   O  -0.0611527   0.5312995  -0.1902622 SPIN=   0.00000
   O   0.3155030   0.4440691  -0.2893452 SPIN=   0.00000
   O   0.1566137   0.3156721  -0.0602535 SPIN=   0.00000
   S   0.1829991   0.4797993  -0.1525395 SPIN=   0.00000
   O  -0.6191416   0.4500006   0.1163593 SPIN=   0.00000
   O  -0.2007471   0.4819730   0.0335154 SPIN=   0.00000
   O  -0.3122657   0.3153588   0.2557527 SPIN=   0.00000
   O  -0.3138336   0.6386065   0.2517803 SPIN=   0.00000
   S  -0.3614970   0.4714847   0.1643519 SPIN=   0.00000
   O  -0.1191416  -0.0499994  -0.1163593 SPIN=   0.00000
   O   0.2992529  -0.0180270  -0.0335154 SPIN=   0.00000
   O   0.1877343  -0.1846412  -0.2557527 SPIN=   0.00000
   O   0.1861664   0.1386065  -0.2517803 SPIN=   0.00000
   S   0.1385030  -0.0285153  -0.1643519 SPIN=   0.00000
   F  -0.3289096   0.2162179  -0.3378573 SPIN=   0.00000
   F   0.1710904  -0.2837821   0.3378573 SPIN=   0.00000
   F   0.1655333   0.2157103   0.3839706 SPIN=   0.00000
   F  -0.3344667  -0.2842897  -0.3839706 SPIN=   0.00000
%ENDBLOCK POSITIONS_FRAC

# Note: total spin =  16.00

KPOINTS_MP_SPACING 0.07

%BLOCK SPECIES_POT
QC5
%ENDBLOCK SPECIES_POT

SNAP_TO_SYMMETRY
SYMMETRY_GENERATE

