#              Generated by Buildcell
#
# at 16:50:03 (GMT+1.0) 18th August 2020
# in /lustre/scratch/uccabz1/launch_tmp
# on node-c12i-003
# by uccabz1
#
# compiler GCC version 4.9.2
# options -cpp -iprefix /lustre/shared/ucl/apps/gcc/4.9.2/bin/../lib/gcc/x86_64-unknown-linux-gnu/4.9.2/ -mtune=corei7 -march=x86-64 -g -Og
#
# seed  -281781871   884271338   862428756 -1359517336 -1118754588   332010584  -493861541   836235797  1357853924 -2081690343 -1163738728 -1817927802
#
#      Author: C. J. Pickard (cjp20@cam.ac.uk)
#                Space group: C2/m
#

%BLOCK LATTICE_ABC
      7.45965      7.51886      7.51886
     74.40509     82.03524     82.03524
%ENDBLOCK LATTICE_ABC

%BLOCK POSITIONS_FRAC
  Li   0.0000000   0.2656028  -0.2656028 SPIN=   0.00000
  Li  -0.0000000  -0.2656028   0.2656028 SPIN=   0.00000
  Li   0.2800998   0.1113705   0.1113705 SPIN=   0.00000
  Li  -0.2800998  -0.1113705  -0.1113705 SPIN=   0.00000
  Fe   0.1203880  -0.3596194  -0.3596194 SPIN=   2.47993
  Fe  -0.1203880   0.3596194   0.3596194 SPIN=   2.47993
  Fe  -0.5000000   0.2459633  -0.2459633 SPIN=   5.52007
  Fe  -0.5000000  -0.2459633   0.2459633 SPIN=   5.52007
   O   0.2265912  -0.3764910  -0.1221430 SPIN=   0.00000
   O   0.0794736  -0.6014303   0.1425495 SPIN=   0.00000
   O   0.2704939  -0.3825460   0.1997956 SPIN=   0.00000
   S   0.2475130  -0.5002239   0.0711038 SPIN=   0.00000
   O  -0.2265912   0.1221430   0.3764910 SPIN=   0.00000
   O  -0.0794736  -0.1425495   0.6014303 SPIN=   0.00000
   O  -0.2704939  -0.1997956   0.3825460 SPIN=   0.00000
   S  -0.2475130  -0.0711038   0.5002239 SPIN=   0.00000
   O  -0.2265912   0.3764910   0.1221430 SPIN=   0.00000
   O  -0.0794736   0.6014303  -0.1425495 SPIN=   0.00000
   O  -0.2704939   0.3825460  -0.1997956 SPIN=   0.00000
   S  -0.2475130   0.5002239  -0.0711038 SPIN=   0.00000
   O   0.2265912  -0.1221430  -0.3764910 SPIN=   0.00000
   O   0.0794736   0.1425495  -0.6014303 SPIN=   0.00000
   O   0.2704939   0.1997956  -0.3825460 SPIN=   0.00000
   S   0.2475130   0.0711038  -0.5002239 SPIN=   0.00000
   O   0.4199903   0.2735746   0.2735746 SPIN=   0.00000
   O  -0.4199903  -0.2735746  -0.2735746 SPIN=   0.00000
   O  -0.5000000  -0.0000000   0.5000000 SPIN=   0.00000
   O  -0.5000000   0.5000000   0.0000000 SPIN=   0.00000
   F   0.5000000   0.5000000  -0.5000000 SPIN=   0.00000
   F   0.0000000   0.5000000  -0.5000000 SPIN=   0.00000
   F   0.5000000  -0.0000000  -0.0000000 SPIN=   0.00000
   F   0.0000000   0.0000000   0.0000000 SPIN=   0.00000
%ENDBLOCK POSITIONS_FRAC

# Note: total spin =  16.00

KPOINTS_MP_SPACING 0.07

%BLOCK SPECIES_POT
QC5
%ENDBLOCK SPECIES_POT

SNAP_TO_SYMMETRY
SYMMETRY_GENERATE

