#              Generated by Buildcell
#
# at 01:13:23 (GMT+1.0) 18th August 2020
# in /scratch/scratch/uccabz1/launch_tmp
# on node-k10e-015
# by uccabz1
#
# compiler GCC version 4.9.2
# options -cpp -iprefix /scratch/UCL/applications/gcc/4.9.2/bin/../lib/gcc/x86_64-unknown-linux-gnu/4.9.2/ -mtune=corei7 -march=x86-64 -g -O2
#
# seed  1257830544   564616078  2072251119   143684690  1398210632  1974729747 -1482477196 -1403359560 -1173686443 -1781486984 -1649439068 -1070579927
#
#      Author: C. J. Pickard (cjp20@cam.ac.uk)
#                Space group: Iba2
#

%BLOCK LATTICE_ABC
      7.57627      8.20798      8.20798
     73.42039     62.51488     62.51488
%ENDBLOCK LATTICE_ABC

%BLOCK POSITIONS_FRAC
  Li  -0.0714565  -0.3026903  -0.0213213 SPIN=   0.00000
  Li  -0.3954680   0.3026903   0.0213213 SPIN=   0.00000
  Li   0.1045320   0.0213213   0.3026903 SPIN=   0.00000
  Li   0.4285435  -0.0213213  -0.3026903 SPIN=   0.00000
  Fe   0.1055031   0.3634980  -0.2716187 SPIN=   4.00000
  Fe   0.1973824  -0.3634980   0.2716187 SPIN=   4.00000
  Fe  -0.3026176   0.2716187  -0.3634980 SPIN=   4.00000
  Fe  -0.3944969   0.7283813   0.3634980 SPIN=   4.00000
   O   0.5344477  -0.8055716   0.3302091 SPIN=   0.00000
   O   0.1445827  -0.6414293   0.3927591 SPIN=   0.00000
   O   0.2983355  -0.9802294   0.4605657 SPIN=   0.00000
   O   0.3855066  -0.8425682   0.1369550 SPIN=   0.00000
   S   0.3407181  -0.8174496   0.3301222 SPIN=   0.00000
   O   0.0590852  -0.1944284  -0.3302091 SPIN=   0.00000
   O  -0.1040875  -0.3585707  -0.3927591 SPIN=   0.00000
   O  -0.2213282  -0.0197706  -0.4605657 SPIN=   0.00000
   O  -0.3201065  -0.1574318  -0.1369550 SPIN=   0.00000
   S  -0.1466093  -0.1825504  -0.3301222 SPIN=   0.00000
   O   0.5590852  -0.3302091  -0.1944284 SPIN=   0.00000
   O   0.3959125  -0.3927591  -0.3585707 SPIN=   0.00000
   O   0.2786718  -0.4605657  -0.0197706 SPIN=   0.00000
   O   0.1798935  -0.1369550  -0.1574318 SPIN=   0.00000
   S   0.3533907  -0.3301222  -0.1825504 SPIN=   0.00000
   O   0.0344477   0.3302091   0.1944284 SPIN=   0.00000
   O  -0.3554173   0.3927591   0.3585707 SPIN=   0.00000
   O  -0.2016645   0.4605657   0.0197706 SPIN=   0.00000
   O  -0.1144934   0.1369550   0.1574318 SPIN=   0.00000
   S  -0.1592819   0.3301222   0.1825504 SPIN=   0.00000
   F   0.3708882  -0.7738828  -0.1890974 SPIN=   0.00000
   F   0.4079079  -0.2261172   0.1890974 SPIN=   0.00000
   F  -0.0920921   0.1890974  -0.2261172 SPIN=   0.00000
   F  -0.1291118  -0.1890974   0.2261172 SPIN=   0.00000
%ENDBLOCK POSITIONS_FRAC

# Note: total spin =  16.00

KPOINTS_MP_SPACING 0.07

%BLOCK SPECIES_POT
QC5
%ENDBLOCK SPECIES_POT

SNAP_TO_SYMMETRY
SYMMETRY_GENERATE

