#              Generated by Buildcell
#
# at 09:15:15 (GMT+1.0) 18th August 2020
# in /lustre/scratch/uccabz1/launch_tmp
# on node-c12j-023
# by uccabz1
#
# compiler GCC version 4.9.2
# options -cpp -iprefix /lustre/shared/ucl/apps/gcc/4.9.2/bin/../lib/gcc/x86_64-unknown-linux-gnu/4.9.2/ -mtune=corei7 -march=x86-64 -g -Og
#
# seed   942344453  1260589300 -1679407915  -919117219 -2116212802   291225773  1177577442   938946772 -1582477690  1097262259  1664661931  1797543611
#
#      Author: C. J. Pickard (cjp20@cam.ac.uk)
#                Space group: Pnc2
#

%BLOCK LATTICE_ABC
      4.83003      6.88071     12.03586
     90.00000     90.00000     90.00000
%ENDBLOCK LATTICE_ABC

%BLOCK POSITIONS_FRAC
  Li   0.1708780  -0.3541306  -0.3692871 SPIN=   0.00000
  Li   0.1708780   0.3541306   0.3692871 SPIN=   0.00000
  Li  -0.3291220  -0.3541306  -0.1307129 SPIN=   0.00000
  Li  -0.3291220   0.3541306   0.1307129 SPIN=   0.00000
  Fe   0.4452631   0.2308296  -0.1341842 SPIN=   4.00000
  Fe   0.4452631  -0.2308296   0.1341842 SPIN=   4.00000
  Fe  -0.0547369   0.2308296  -0.3658158 SPIN=   4.00000
  Fe  -0.0547369  -0.2308296   0.3658158 SPIN=   4.00000
   O  -0.0729774  -0.0723240  -0.0831745 SPIN=   0.00000
   O   0.1161400  -0.4064607  -0.0889181 SPIN=   0.00000
   O   0.4304731  -0.1266783  -0.0608727 SPIN=   0.00000
   O   0.2085914  -0.1789392  -0.2437951 SPIN=   0.00000
   S   0.1705568  -0.1961005  -0.1191901 SPIN=   0.00000
   O  -0.0729774   0.0723240   0.0831745 SPIN=   0.00000
   O   0.1161400   0.4064607   0.0889181 SPIN=   0.00000
   O   0.4304731   0.1266783   0.0608727 SPIN=   0.00000
   O   0.2085914   0.1789392   0.2437951 SPIN=   0.00000
   S   0.1705568   0.1961005   0.1191901 SPIN=   0.00000
   O  -0.5729774  -0.0723240  -0.4168255 SPIN=   0.00000
   O  -0.3838600  -0.4064607  -0.4110819 SPIN=   0.00000
   O  -0.0695269  -0.1266783  -0.4391273 SPIN=   0.00000
   O  -0.2914086  -0.1789392  -0.2562049 SPIN=   0.00000
   S  -0.3294432  -0.1961005  -0.3808099 SPIN=   0.00000
   O  -0.5729774   0.0723240   0.4168255 SPIN=   0.00000
   O  -0.3838600   0.4064607   0.4110819 SPIN=   0.00000
   O  -0.0695269   0.1266783   0.4391273 SPIN=   0.00000
   O  -0.2914086   0.1789392   0.2562049 SPIN=   0.00000
   S  -0.3294432   0.1961005   0.3808099 SPIN=   0.00000
   F   0.2998391   0.3192129  -0.3568576 SPIN=   0.00000
   F   0.2998391  -0.3192129   0.3568576 SPIN=   0.00000
   F  -0.2001609   0.3192129  -0.1431424 SPIN=   0.00000
   F  -0.2001609  -0.3192129   0.1431424 SPIN=   0.00000
%ENDBLOCK POSITIONS_FRAC

# Note: total spin =  16.00

KPOINTS_MP_SPACING 0.07

%BLOCK SPECIES_POT
QC5
%ENDBLOCK SPECIES_POT

SNAP_TO_SYMMETRY
SYMMETRY_GENERATE

