#              Generated by Buildcell
#
# at 08:18:38 (GMT+1.0) 18th August 2020
# in /lustre/scratch/uccabz1/launch_tmp
# on node-c12b-013
# by uccabz1
#
# compiler GCC version 4.9.2
# options -cpp -iprefix /lustre/shared/ucl/apps/gcc/4.9.2/bin/../lib/gcc/x86_64-unknown-linux-gnu/4.9.2/ -mtune=corei7 -march=x86-64 -g -Og
#
# seed  1630558463  1592948921 -1354066376  -571059584  -979971191   967051791  1882865377   833104376   789817227  -702736716   414793508  1462507842
#
#      Author: C. J. Pickard (cjp20@cam.ac.uk)
#                Space group: P21
#

%BLOCK LATTICE_ABC
      6.56973      6.93400      9.32465
     90.00000    109.66708     90.00000
%ENDBLOCK LATTICE_ABC

%BLOCK POSITIONS_FRAC
  Li  -0.0672513   0.3490185  -0.1783896 SPIN=   0.00000
  Li   0.0672513  -0.1509815   0.1783896 SPIN=   0.00000
  Li  -0.4940821   0.1852756   0.1028467 SPIN=   0.00000
  Li   0.4940821  -0.3147244  -0.1028467 SPIN=   0.00000
  Fe  -0.4071763   0.3165463  -0.4861161 SPIN=   3.93054
  Fe   0.4071763  -0.1834537   0.4861161 SPIN=   3.93054
  Fe  -0.0934223  -0.4981145   0.2845737 SPIN=   4.06946
  Fe   0.0934223   0.0018855  -0.2845737 SPIN=   4.06946
   O  -0.0015058   0.3491771  -0.3914240 SPIN=   0.00000
   O   0.2977049   0.4735163  -0.4704319 SPIN=   0.00000
   O   0.3698386   0.3640726  -0.2052757 SPIN=   0.00000
   O   0.1645571   0.6650957  -0.2962263 SPIN=   0.00000
   S   0.2076487   0.4629654  -0.3408395 SPIN=   0.00000
   O   0.0015058  -0.1508229   0.3914240 SPIN=   0.00000
   O  -0.2977049  -0.0264837   0.4704319 SPIN=   0.00000
   O  -0.3698386  -0.1359274   0.2052757 SPIN=   0.00000
   O  -0.1645571   0.1650957   0.2962263 SPIN=   0.00000
   S  -0.2076487  -0.0370346   0.3408395 SPIN=   0.00000
   O  -0.2346426   0.1281988  -0.2802111 SPIN=   0.00000
   O  -0.2699818  -0.1679425  -0.1423087 SPIN=   0.00000
   O  -0.5892614   0.0392768  -0.2607734 SPIN=   0.00000
   O  -0.2943539   0.1526550  -0.0325621 SPIN=   0.00000
   S  -0.3470599   0.0380470  -0.1789638 SPIN=   0.00000
   O   0.2346426  -0.3718012   0.2802111 SPIN=   0.00000
   O   0.2699818  -0.6679425   0.1423087 SPIN=   0.00000
   O   0.5892614  -0.4607232   0.2607734 SPIN=   0.00000
   O   0.2943539  -0.3473450   0.0325621 SPIN=   0.00000
   S   0.3470599  -0.4619530   0.1789638 SPIN=   0.00000
   F  -0.3138441  -0.3720446  -0.4124515 SPIN=   0.00000
   F   0.3138441   0.1279554   0.4124515 SPIN=   0.00000
   F   0.2320375   0.0249546  -0.0350484 SPIN=   0.00000
   F  -0.2320375  -0.4750454   0.0350484 SPIN=   0.00000
%ENDBLOCK POSITIONS_FRAC

# Note: total spin =  16.00

KPOINTS_MP_SPACING 0.07

%BLOCK SPECIES_POT
QC5
%ENDBLOCK SPECIES_POT

SNAP_TO_SYMMETRY
SYMMETRY_GENERATE

