#              Generated by Buildcell
#
# at 10:01:07 (GMT+1.0) 18th August 2020
# in /lustre/scratch/uccabz1/launch_tmp
# on node-c12i-026
# by uccabz1
#
# compiler GCC version 4.9.2
# options -cpp -iprefix /lustre/shared/ucl/apps/gcc/4.9.2/bin/../lib/gcc/x86_64-unknown-linux-gnu/4.9.2/ -mtune=corei7 -march=x86-64 -g -Og
#
# seed -1834669780   589408923  1852062486  1937268186 -1581073578 -1901314445   640649324  -945943328   317425956   428785842   658704308  1465408223
#
#      Author: C. J. Pickard (cjp20@cam.ac.uk)
#                Space group: C2
#

%BLOCK LATTICE_ABC
      7.16024      7.64846      8.13942
     88.99421     63.90572     87.71284
%ENDBLOCK LATTICE_ABC

%BLOCK POSITIONS_FRAC
  Li   0.2846882  -0.0000000  -0.5693764 SPIN=   0.00000
  Li   0.0411288  -0.0000000  -0.0822575 SPIN=   0.00000
  Li  -0.4603932   0.0000000   0.9207863 SPIN=   0.00000
  Li  -0.2177060   0.0000000   0.4354120 SPIN=   0.00000
  Fe   0.0202595   0.2751149   0.1760298 SPIN=   5.32391
  Fe  -0.1962893  -0.2751149   0.1760298 SPIN=   5.32391
  Fe  -0.1041692   0.4355690  -0.2851105 SPIN=   2.67609
  Fe   0.3892797  -0.4355690  -0.2851105 SPIN=   2.67609
   O   0.3412953  -0.2425159  -0.0788042 SPIN=   0.00000
   O   0.1353271  -0.3932737   0.2137579 SPIN=   0.00000
   O   0.2771112  -0.1035973   0.2145172 SPIN=   0.00000
   O   0.5144119  -0.3645321   0.1046771 SPIN=   0.00000
   S   0.3170364  -0.2759798   0.1135370 SPIN=   0.00000
   O  -0.2624911   0.2425159  -0.0788042 SPIN=   0.00000
   O  -0.3490850   0.3932737   0.2137579 SPIN=   0.00000
   O  -0.4916284   0.1035973   0.2145172 SPIN=   0.00000
   O  -0.6190890   0.3645321   0.1046771 SPIN=   0.00000
   S  -0.4305734   0.2759798   0.1135370 SPIN=   0.00000
   O  -0.1478937   0.0455830   0.6704787 SPIN=   0.00000
   O   0.1112428  -0.1549500   0.7069618 SPIN=   0.00000
   O  -0.0395973  -0.2327882   0.4977648 SPIN=   0.00000
   O  -0.2571640  -0.2361483   0.8327220 SPIN=   0.00000
   S  -0.0833531  -0.1445759   0.6769818 SPIN=   0.00000
   O  -0.5225850  -0.0455830   0.6704787 SPIN=   0.00000
   O  -0.8182046   0.1549500   0.7069618 SPIN=   0.00000
   O  -0.4581675   0.2327882   0.4977648 SPIN=   0.00000
   O  -0.5755580   0.2361483   0.8327220 SPIN=   0.00000
   S  -0.5936288   0.1445759   0.6769818 SPIN=   0.00000
   F   0.0649828   0.3313070  -0.5388225 SPIN=   0.00000
   F   0.4738397  -0.3313070  -0.5388225 SPIN=   0.00000
   F  -0.0882467   0.0000000   0.1764933 SPIN=   0.00000
   F   0.0316140  -0.5000000   0.9367720 SPIN=   0.00000
%ENDBLOCK POSITIONS_FRAC

# Note: total spin =  16.00

KPOINTS_MP_SPACING 0.07

%BLOCK SPECIES_POT
QC5
%ENDBLOCK SPECIES_POT

SNAP_TO_SYMMETRY
SYMMETRY_GENERATE

