#              Generated by Buildcell
#
# at 06:26:45 (GMT+1.0) 4th August 2020
# in /lustre/scratch/uccabz1/launch_tmp
# on node-c12d-012
# by uccabz1
#
# compiler GCC version 4.9.2
# options -cpp -iprefix /lustre/shared/ucl/apps/gcc/4.9.2/bin/../lib/gcc/x86_64-unknown-linux-gnu/4.9.2/ -mtune=corei7 -march=x86-64 -g -Og
#
# seed -1083796740  1157484095   594613485  -794329806  -421560265 -1544720957   988037546   668831606   134392814 -2014765987  1260390368  -513626712
#
#      Author: C. J. Pickard (cjp20@cam.ac.uk)
#                Space group: P-1
#

%BLOCK LATTICE_ABC
      3.92423      9.25293     11.17069
     81.40900     87.03149     86.65895
%ENDBLOCK LATTICE_ABC

%BLOCK POSITIONS_FRAC
  Li   0.0440190  -0.2564675  -0.4711300 SPIN=   0.00000
  Li  -0.0440190   0.2564675   0.4711300 SPIN=   0.00000
  Li   0.1638451   0.1708109   0.0066202 SPIN=   0.00000
  Li  -0.1638451  -0.1708109  -0.0066202 SPIN=   0.00000
  Fe   0.4778861   0.3198024   0.2638167 SPIN=   5.51720
  Fe  -0.4778861  -0.3198024  -0.2638167 SPIN=   5.51720
  Fe   0.0000000  -0.5000000  -0.0000000 SPIN=   0.61929
  Fe  -0.5000000   0.0000000   0.5000000 SPIN=   4.34632
   O   0.1470383   0.0274771  -0.1420299 SPIN=   0.00000
   O  -0.2911375  -0.1268959  -0.2014335 SPIN=   0.00000
   O   0.2615566  -0.1045092  -0.3181224 SPIN=   0.00000
   O  -0.1599578   0.1062456  -0.3306750 SPIN=   0.00000
   S  -0.0106251  -0.0244206  -0.2480652 SPIN=   0.00000
   O  -0.1470383  -0.0274771   0.1420299 SPIN=   0.00000
   O   0.2911375   0.1268959   0.2014335 SPIN=   0.00000
   O  -0.2615566   0.1045092   0.3181224 SPIN=   0.00000
   O   0.1599578  -0.1062456   0.3306750 SPIN=   0.00000
   S   0.0106251   0.0244206   0.2480652 SPIN=   0.00000
   O   0.2636164   0.4832365  -0.4252398 SPIN=   0.00000
   O   0.3972456   0.2227170  -0.4442511 SPIN=   0.00000
   O   0.2618111   0.2959244  -0.2422222 SPIN=   0.00000
   O   0.8080382   0.3617010  -0.3519684 SPIN=   0.00000
   S   0.4326778   0.3408947  -0.3659204 SPIN=   0.00000
   O  -0.2636164  -0.4832365   0.4252398 SPIN=   0.00000
   O  -0.3972456  -0.2227170   0.4442511 SPIN=   0.00000
   O  -0.2618111  -0.2959244   0.2422222 SPIN=   0.00000
   O  -0.8080382  -0.3617010   0.3519684 SPIN=   0.00000
   S  -0.4326778  -0.3408947   0.3659204 SPIN=   0.00000
   F   0.3791998  -0.2030533   0.0315733 SPIN=   0.00000
   F  -0.3791998   0.2030533  -0.0315733 SPIN=   0.00000
   F  -0.0538046  -0.4221306  -0.1811860 SPIN=   0.00000
   F   0.0538046   0.4221306   0.1811860 SPIN=   0.00000
%ENDBLOCK POSITIONS_FRAC

# Note: total spin =  16.00

KPOINTS_MP_SPACING 0.07

%BLOCK SPECIES_POT
QC5
%ENDBLOCK SPECIES_POT

SNAP_TO_SYMMETRY
SYMMETRY_GENERATE

