#              Generated by Buildcell
#
# at 23:23:12 (GMT+1.0) 17th August 2020
# in /scratch/scratch/uccabz1/launch_tmp
# on node-k10a-013
# by uccabz1
#
# compiler GCC version 4.9.2
# options -cpp -iprefix /scratch/UCL/applications/gcc/4.9.2/bin/../lib/gcc/x86_64-unknown-linux-gnu/4.9.2/ -mtune=corei7 -march=x86-64 -g -O2
#
# seed  -762417084 -1745512362 -1952323833  1502461812  -657983898 -1115291408  1423005606   306084431   135855984  -730787390   988697591  -939149459
#
#      Author: C. J. Pickard (cjp20@cam.ac.uk)
#                Space group: P-1
#

%BLOCK LATTICE_ABC
      4.02100      6.68871     14.92823
     94.00416     92.14570     91.82088
%ENDBLOCK LATTICE_ABC

%BLOCK POSITIONS_FRAC
  Li   0.3689522  -0.0080038  -0.2244761 SPIN=   0.00000
  Li  -0.3689522   0.0080038   0.2244761 SPIN=   0.00000
  Li   0.1354291   0.2572837   0.4330229 SPIN=   0.00000
  Li  -0.1354291  -0.2572837  -0.4330229 SPIN=   0.00000
  Fe  -0.0771736   0.2313742   0.0755484 SPIN=   3.64227
  Fe   0.0771736  -0.2313742  -0.0755484 SPIN=   3.64227
  Fe  -0.4604651  -0.4342445  -0.2766520 SPIN=   4.35773
  Fe   0.4604651   0.4342445   0.2766520 SPIN=   4.35773
   O   0.4597343   0.2614775  -0.4654985 SPIN=   0.00000
   O  -0.0724094   0.1700197  -0.3982201 SPIN=   0.00000
   O   0.4437253   0.2176517  -0.3024463 SPIN=   0.00000
   O   0.3710257  -0.0772959  -0.4119077 SPIN=   0.00000
   S   0.3005190   0.1429633  -0.3945182 SPIN=   0.00000
   O  -0.4597343  -0.2614775   0.4654985 SPIN=   0.00000
   O   0.0724094  -0.1700197   0.3982201 SPIN=   0.00000
   O  -0.4437253  -0.2176517   0.3024463 SPIN=   0.00000
   O  -0.3710257   0.0772959   0.4119077 SPIN=   0.00000
   S  -0.3005190  -0.1429633   0.3945182 SPIN=   0.00000
   O  -0.0717883  -0.3766566   0.0748445 SPIN=   0.00000
   O  -0.0037174  -0.0264258   0.1397973 SPIN=   0.00000
   O   0.4798265  -0.2463029   0.1358829 SPIN=   0.00000
   O   0.0252579  -0.3074091   0.2389248 SPIN=   0.00000
   S   0.1073947  -0.2391986   0.1473624 SPIN=   0.00000
   O   0.0717883   0.3766566  -0.0748445 SPIN=   0.00000
   O   0.0037174   0.0264258  -0.1397973 SPIN=   0.00000
   O  -0.4798265   0.2463029  -0.1358829 SPIN=   0.00000
   O  -0.0252579   0.3074091  -0.2389248 SPIN=   0.00000
   S  -0.1073947   0.2391986  -0.1473624 SPIN=   0.00000
   F  -0.4232122  -0.2607588  -0.0659541 SPIN=   0.00000
   F   0.4232122   0.2607588   0.0659541 SPIN=   0.00000
   F   0.0239079  -0.3012595  -0.2732934 SPIN=   0.00000
   F  -0.0239079   0.3012595   0.2732934 SPIN=   0.00000
%ENDBLOCK POSITIONS_FRAC

# Note: total spin =  16.00

KPOINTS_MP_SPACING 0.07

%BLOCK SPECIES_POT
QC5
%ENDBLOCK SPECIES_POT

SNAP_TO_SYMMETRY
SYMMETRY_GENERATE

