#              Generated by Buildcell
#
# at 11:45:48 (GMT+1.0) 18th August 2020
# in /lustre/scratch/uccabz1/launch_tmp
# on node-c12m-003
# by uccabz1
#
# compiler GCC version 4.9.2
# options -cpp -iprefix /lustre/shared/ucl/apps/gcc/4.9.2/bin/../lib/gcc/x86_64-unknown-linux-gnu/4.9.2/ -mtune=corei7 -march=x86-64 -g -Og
#
# seed  1546489161   687082306   499284288 -1852861057 -1746304273   997849533  -841738657   675707549  2081294488  -720283893  1025973549  1188174831
#
#      Author: C. J. Pickard (cjp20@cam.ac.uk)
#                Space group: P21
#

%BLOCK LATTICE_ABC
      5.75699      6.11346     11.63487
     90.00000    102.35970     90.00000
%ENDBLOCK LATTICE_ABC

%BLOCK POSITIONS_FRAC
  Li   0.3204128   0.3779560   0.0765253 SPIN=   0.00000
  Li  -0.3204128  -0.1220440  -0.0765253 SPIN=   0.00000
  Li   0.2686813  -0.4141900  -0.4774154 SPIN=   0.00000
  Li  -0.2686813   0.0858100   0.4774154 SPIN=   0.00000
  Fe  -0.1988627  -0.4485851  -0.4100580 SPIN=   3.26468
  Fe   0.1988627   0.0514149   0.4100580 SPIN=   3.26468
  Fe  -0.0892224  -0.4468439   0.2979947 SPIN=   4.73532
  Fe   0.0892224   0.0531561  -0.2979947 SPIN=   4.73532
   O  -0.2740626  -0.0826889   0.1023331 SPIN=   0.00000
   O  -0.3380300   0.3122340   0.0604834 SPIN=   0.00000
   O   0.0578435   0.1479404   0.0680187 SPIN=   0.00000
   O  -0.0915369   0.1914102   0.2509727 SPIN=   0.00000
   S  -0.1614465   0.1422239   0.1204520 SPIN=   0.00000
   O   0.2740626  -0.5826889  -0.1023331 SPIN=   0.00000
   O   0.3380300  -0.1877660  -0.0604834 SPIN=   0.00000
   O  -0.0578435  -0.3520596  -0.0680187 SPIN=   0.00000
   O   0.0915369  -0.3085898  -0.2509727 SPIN=   0.00000
   S   0.1614465  -0.3577761  -0.1204520 SPIN=   0.00000
   O  -0.5501544   0.1084189  -0.1659314 SPIN=   0.00000
   O  -0.1257591   0.1621250  -0.1696993 SPIN=   0.00000
   O  -0.3945999   0.4814528  -0.1837250 SPIN=   0.00000
   O  -0.4355351   0.2222666  -0.3502574 SPIN=   0.00000
   S  -0.3765121   0.2435658  -0.2174033 SPIN=   0.00000
   O   0.5501544  -0.3915811   0.1659314 SPIN=   0.00000
   O   0.1257591  -0.3378750   0.1696993 SPIN=   0.00000
   O   0.3945999  -0.0185472   0.1837250 SPIN=   0.00000
   O   0.4355351  -0.2777334   0.3502574 SPIN=   0.00000
   S   0.3765121  -0.2564342   0.2174033 SPIN=   0.00000
   F   0.0460403   0.3209794  -0.3962306 SPIN=   0.00000
   F  -0.0460403  -0.1790206   0.3962306 SPIN=   0.00000
   F   0.4509231   0.2463897   0.3797772 SPIN=   0.00000
   F  -0.4509231  -0.2536103  -0.3797772 SPIN=   0.00000
%ENDBLOCK POSITIONS_FRAC

# Note: total spin =  16.00

KPOINTS_MP_SPACING 0.07

%BLOCK SPECIES_POT
QC5
%ENDBLOCK SPECIES_POT

SNAP_TO_SYMMETRY
SYMMETRY_GENERATE

