#              Generated by Buildcell
#
# at 06:20:59 (GMT+1.0) 18th August 2020
# in /lustre/scratch/uccabz1/launch_tmp
# on node-c12b-013
# by uccabz1
#
# compiler GCC version 4.9.2
# options -cpp -iprefix /lustre/shared/ucl/apps/gcc/4.9.2/bin/../lib/gcc/x86_64-unknown-linux-gnu/4.9.2/ -mtune=corei7 -march=x86-64 -g -Og
#
# seed  2053211070   499953064   405095518 -1868197996 -1559333006  1345018439 -1444456257  -635790219  -897301118  1943242595 -1016722011  1730507535
#
#      Author: C. J. Pickard (cjp20@cam.ac.uk)
#                Space group: Cc
#

%BLOCK LATTICE_ABC
      4.98375      8.80926     10.23199
     64.50221     85.96119     80.58324
%ENDBLOCK LATTICE_ABC

%BLOCK POSITIONS_FRAC
  Li   0.1920324   0.1502907  -0.1681602 SPIN=   0.00000
  Li  -0.3079676  -0.0178694   0.1681602 SPIN=   0.00000
  Li   0.2314160  -0.1572934  -0.4673061 SPIN=   0.00000
  Li  -0.2685840   0.3754005   0.4673061 SPIN=   0.00000
  Fe   0.2792338  -0.2668629   0.2785643 SPIN=   3.29011
  Fe  -0.2207662   0.0117014  -0.2785643 SPIN=   3.29011
  Fe   0.1321960   0.1828672   0.1747520 SPIN=   4.70989
  Fe  -0.3678040   0.3576192  -0.1747520 SPIN=   4.70989
   O  -0.4330422  -0.4231527  -0.4943248 SPIN=   0.00000
   O   0.0485306  -0.3782408  -0.5164683 SPIN=   0.00000
   O  -0.2590074  -0.2964269  -0.3492965 SPIN=   0.00000
   O  -0.3162568  -0.1313656  -0.6142595 SPIN=   0.00000
   S  -0.2399440  -0.3072965  -0.4935873 SPIN=   0.00000
   O   0.0669578   0.0825225   0.4943248 SPIN=   0.00000
   O   0.5485306   0.1052909   0.5164683 SPIN=   0.00000
   O   0.2409926   0.3542767   0.3492965 SPIN=   0.00000
   O   0.1837432   0.2543749   0.6142595 SPIN=   0.00000
   S   0.2600560   0.1991162   0.4935873 SPIN=   0.00000
   O   0.1410257  -0.2399542  -0.0575432 SPIN=   0.00000
   O   0.4448050  -0.1239165  -0.2679661 SPIN=   0.00000
   O   0.1611824  -0.3369883  -0.2523608 SPIN=   0.00000
   O   0.5522789  -0.4225309  -0.0867054 SPIN=   0.00000
   S   0.3248230  -0.2808475  -0.1661439 SPIN=   0.00000
   O  -0.3589743  -0.2974974   0.0575432 SPIN=   0.00000
   O  -0.0551950  -0.3918826   0.2679661 SPIN=   0.00000
   O  -0.3388176  -0.5893491   0.2523608 SPIN=   0.00000
   O   0.0522789  -0.5092363   0.0867054 SPIN=   0.00000
   S  -0.1751770  -0.4469914   0.1661439 SPIN=   0.00000
   F   0.0862938  -0.0640622   0.1354192 SPIN=   0.00000
   F  -0.4137062   0.0713570  -0.1354192 SPIN=   0.00000
   F   0.0021255   0.3560548  -0.1350543 SPIN=   0.00000
   F  -0.4978745   0.2210005   0.1350543 SPIN=   0.00000
%ENDBLOCK POSITIONS_FRAC

# Note: total spin =  16.00

KPOINTS_MP_SPACING 0.07

%BLOCK SPECIES_POT
QC5
%ENDBLOCK SPECIES_POT

SNAP_TO_SYMMETRY
SYMMETRY_GENERATE

