#              Generated by Buildcell
#
# at 07:59:43 (GMT+1.0) 4th August 2020
# in /lustre/scratch/uccabz1/launch_tmp
# on node-c12j-010
# by uccabz1
#
# compiler GCC version 4.9.2
# options -cpp -iprefix /lustre/shared/ucl/apps/gcc/4.9.2/bin/../lib/gcc/x86_64-unknown-linux-gnu/4.9.2/ -mtune=corei7 -march=x86-64 -g -Og
#
# seed   833731575   -41367598 -1025250739  -430532178  -885574780   282596597   434664547 -1229395193  -633974168  -806983372   670554390   417897228
#
#      Author: C. J. Pickard (cjp20@cam.ac.uk)
#                Space group: Cc
#

%BLOCK LATTICE_ABC
      5.19172      5.74426     15.37308
     79.32211     80.27859     63.13398
%ENDBLOCK LATTICE_ABC

%BLOCK POSITIONS_FRAC
  Li  -0.0801825  -0.1953182  -0.3845288 SPIN=   0.00000
  Li   0.1600295   0.3046818   0.1154712 SPIN=   0.00000
  Li  -0.6594706  -0.0481907   0.3528005 SPIN=   0.00000
  Li  -0.1451392   0.4518093  -0.1471995 SPIN=   0.00000
  Fe   0.5040902   0.2979797  -0.2940613 SPIN=   5.54774
  Fe  -0.0080087  -0.2020203   0.2059387 SPIN=   5.54774
  Fe  -0.3734175   0.0683561  -0.0319524 SPIN=   2.45226
  Fe  -0.1629861  -0.4316439   0.4680476 SPIN=   2.45226
   O  -0.2608162   0.4173240   0.1441392 SPIN=   0.00000
   O  -0.0560781   0.2626815   0.2894893 SPIN=   0.00000
   O  -0.5301298   0.2759403   0.2748487 SPIN=   0.00000
   O  -0.4859061   0.6905944   0.2675335 SPIN=   0.00000
   S  -0.3332325   0.4116351   0.2440027 SPIN=   0.00000
   O   0.1993530  -0.0826760  -0.3558608 SPIN=   0.00000
   O   0.0039073  -0.2373185  -0.2105107 SPIN=   0.00000
   O   0.4793407  -0.2240597  -0.2251513 SPIN=   0.00000
   O   0.0277781   0.1905944  -0.2324665 SPIN=   0.00000
   S   0.1775948  -0.0883649  -0.2559973 SPIN=   0.00000
   O   0.0880804  -0.3596645  -0.0394073 SPIN=   0.00000
   O   0.6059717  -0.4739432  -0.0341743 SPIN=   0.00000
   O   0.2722761  -0.4048329   0.1040996 SPIN=   0.00000
   O   0.2304165  -0.0266779  -0.0098216 SPIN=   0.00000
   S   0.2991862  -0.3162796   0.0051741 SPIN=   0.00000
   O   0.8109914   0.1403355  -0.5394073 SPIN=   0.00000
   O   0.4021458   0.0260568  -0.5341743 SPIN=   0.00000
   O   0.5284571   0.0951671  -0.3959004 SPIN=   0.00000
   O   0.3060830   0.4733221  -0.5098216 SPIN=   0.00000
   S   0.5119193   0.1837204  -0.4948259 SPIN=   0.00000
   F   0.7922290  -0.4814628  -0.3924691 SPIN=   0.00000
   F  -0.4182971   0.0185372   0.1075309 SPIN=   0.00000
   F  -0.0526860  -0.2528190   0.3454837 SPIN=   0.00000
   F   0.4600214   0.2471810  -0.1545163 SPIN=   0.00000
%ENDBLOCK POSITIONS_FRAC

# Note: total spin =  16.00

KPOINTS_MP_SPACING 0.07

%BLOCK SPECIES_POT
QC5
%ENDBLOCK SPECIES_POT

SNAP_TO_SYMMETRY
SYMMETRY_GENERATE

