#              Generated by Buildcell
#
# at 01:31:07 (GMT+1.0) 18th August 2020
# in /lustre/scratch/uccabz1/launch_tmp
# on node-c12p-024
# by uccabz1
#
# compiler GCC version 4.9.2
# options -cpp -iprefix /lustre/shared/ucl/apps/gcc/4.9.2/bin/../lib/gcc/x86_64-unknown-linux-gnu/4.9.2/ -mtune=corei7 -march=x86-64 -g -Og
#
# seed   956527966 -1433251746   911399634   486784243  -647189677   704112515  -383608101  2098048157 -1448367214 -2060241711  1041613730 -1936736605
#
#      Author: C. J. Pickard (cjp20@cam.ac.uk)
#                Space group: P-1
#

%BLOCK LATTICE_ABC
      4.14058      9.69505     10.23302
     82.12569     79.42445     88.56575
%ENDBLOCK LATTICE_ABC

%BLOCK POSITIONS_FRAC
  Li   0.2997292   0.1529651  -0.4111033 SPIN=   0.00000
  Li  -0.2997292  -0.1529651   0.4111033 SPIN=   0.00000
  Li   0.2558091   0.1697396  -0.0333482 SPIN=   0.00000
  Li  -0.2558091  -0.1697396   0.0333482 SPIN=   0.00000
  Fe   0.3605973   0.0129226   0.2190791 SPIN=   5.49122
  Fe  -0.3605973  -0.0129226  -0.2190791 SPIN=   5.49122
  Fe   0.2088865  -0.3522456  -0.1076299 SPIN=   2.50878
  Fe  -0.2088865   0.3522456   0.1076299 SPIN=   2.50878
   O   0.0637928  -0.2866120  -0.5261045 SPIN=   0.00000
   O   0.3336835  -0.3092802  -0.3275316 SPIN=   0.00000
   O  -0.2047437  -0.1911306  -0.3209412 SPIN=   0.00000
   O   0.2949089  -0.0785229  -0.4611563 SPIN=   0.00000
   S   0.1219104  -0.2163864  -0.4089334 SPIN=   0.00000
   O  -0.0637928   0.2866120   0.5261045 SPIN=   0.00000
   O  -0.3336835   0.3092802   0.3275316 SPIN=   0.00000
   O   0.2047437   0.1911306   0.3209412 SPIN=   0.00000
   O  -0.2949089   0.0785229   0.4611563 SPIN=   0.00000
   S  -0.1219104   0.2163864   0.4089334 SPIN=   0.00000
   O   0.5507817  -0.3386412   0.3483907 SPIN=   0.00000
   O   0.5772126  -0.4650412   0.1523365 SPIN=   0.00000
   O   0.0743967  -0.3351579   0.2330599 SPIN=   0.00000
   O   0.2193147  -0.5518620   0.3679214 SPIN=   0.00000
   S   0.3554264  -0.4226756   0.2754271 SPIN=   0.00000
   O  -0.5507817   0.3386412  -0.3483907 SPIN=   0.00000
   O  -0.5772126   0.4650412  -0.1523365 SPIN=   0.00000
   O  -0.0743967   0.3351579  -0.2330599 SPIN=   0.00000
   O  -0.2193147   0.5518620  -0.3679214 SPIN=   0.00000
   S  -0.3554264   0.4226756  -0.2754271 SPIN=   0.00000
   F   0.3224911   0.3012392   0.0724494 SPIN=   0.00000
   F  -0.3224911  -0.3012392  -0.0724494 SPIN=   0.00000
   F   0.1194380   0.0796741  -0.2312159 SPIN=   0.00000
   F  -0.1194380  -0.0796741   0.2312159 SPIN=   0.00000
%ENDBLOCK POSITIONS_FRAC

# Note: total spin =  16.00

KPOINTS_MP_SPACING 0.07

%BLOCK SPECIES_POT
QC5
%ENDBLOCK SPECIES_POT

SNAP_TO_SYMMETRY
SYMMETRY_GENERATE

