#              Generated by Buildcell
#
# at 04:38:11 (GMT+1.0) 18th August 2020
# in /lustre/scratch/uccabz1/launch_tmp
# on node-c12l-001
# by uccabz1
#
# compiler GCC version 4.9.2
# options -cpp -iprefix /lustre/shared/ucl/apps/gcc/4.9.2/bin/../lib/gcc/x86_64-unknown-linux-gnu/4.9.2/ -mtune=corei7 -march=x86-64 -g -Og
#
# seed   163298861   388479511  1716695122  1972809918   771285426    -5391595 -2027126275   145938107   635601077  2081888568  -734659671   629670457
#
#      Author: C. J. Pickard (cjp20@cam.ac.uk)
#                Space group: Cc
#

%BLOCK LATTICE_ABC
      6.81230      7.06494      9.33671
    105.84422    111.39605     90.00000
%ENDBLOCK LATTICE_ABC

%BLOCK POSITIONS_FRAC
  Li   0.1271707  -0.3791618   0.3077873 SPIN=   0.00000
  Li   0.1806166   0.1208382   0.3077873 SPIN=   0.00000
  Li  -0.3219187  -0.1095216   0.2380698 SPIN=   0.00000
  Li  -0.4400115   0.3904784   0.2380698 SPIN=   0.00000
  Fe  -0.0103603   0.4183779  -0.4849658 SPIN=   7.67206
  Fe  -0.4746054  -0.0816221  -0.4849658 SPIN=   7.67206
  Fe  -0.1259416  -0.2543450  -0.1624467 SPIN=   0.32794
  Fe  -0.0365051   0.2456550  -0.1624467 SPIN=   0.32794
   O  -0.2735627  -0.7000390   0.0015831 SPIN=   0.00000
   O  -0.4836288  -0.4220959  -0.0473088 SPIN=   0.00000
   O  -0.1001611  -0.3902818   0.0047286 SPIN=   0.00000
   O  -0.2191722  -0.3942477   0.2247559 SPIN=   0.00000
   S  -0.2691312  -0.4766661   0.0459397 SPIN=   0.00000
   O   0.2751459  -0.2000390   0.0015831 SPIN=   0.00000
   O   0.4363200   0.0779041  -0.0473088 SPIN=   0.00000
   O   0.1048896   0.1097182   0.0047286 SPIN=   0.00000
   O   0.4439281   0.1057523   0.2247559 SPIN=   0.00000
   S   0.3150709   0.0233339   0.0459397 SPIN=   0.00000
   O   0.5056977   0.5943586  -0.2975907 SPIN=   0.00000
   O   0.6671167   0.2797474  -0.3338623 SPIN=   0.00000
   O   0.4989642   0.4092968  -0.5661545 SPIN=   0.00000
   O   0.2769023   0.2766953  -0.4491239 SPIN=   0.00000
   S   0.4871703   0.3900245  -0.4116828 SPIN=   0.00000
   O   0.1967116   0.0943586  -0.2975907 SPIN=   0.00000
   O  -0.0009790  -0.2202526  -0.3338623 SPIN=   0.00000
   O  -0.0651187  -0.0907032  -0.5661545 SPIN=   0.00000
   O   0.2739738  -0.2233047  -0.4491239 SPIN=   0.00000
   S   0.1011469  -0.1099755  -0.4116828 SPIN=   0.00000
   F   0.3789087  -0.3435962   0.2689779 SPIN=   0.00000
   F  -0.1099308   0.1564038   0.2689779 SPIN=   0.00000
   F   0.0928955   0.4803156  -0.2245406 SPIN=   0.00000
   F  -0.3174361  -0.0196844  -0.2245406 SPIN=   0.00000
%ENDBLOCK POSITIONS_FRAC

# Note: total spin =  16.00

KPOINTS_MP_SPACING 0.07

%BLOCK SPECIES_POT
QC5
%ENDBLOCK SPECIES_POT

SNAP_TO_SYMMETRY
SYMMETRY_GENERATE

