#              Generated by Buildcell
#
# at 05:59:03 (GMT+1.0) 4th August 2020
# in /lustre/scratch/uccabz1/launch_tmp
# on node-c12g-017
# by uccabz1
#
# compiler GCC version 4.9.2
# options -cpp -iprefix /lustre/shared/ucl/apps/gcc/4.9.2/bin/../lib/gcc/x86_64-unknown-linux-gnu/4.9.2/ -mtune=corei7 -march=x86-64 -g -Og
#
# seed  -674908528   879548667  -780394900  2086211488  -731212427  2063562026   -25106795 -1236348315  -850703570  -381147303  1908826644  1412998562
#
#      Author: C. J. Pickard (cjp20@cam.ac.uk)
#                Space group: P21
#

%BLOCK LATTICE_ABC
      5.12269      7.55309     10.73848
     90.00000     90.00000    105.69674
%ENDBLOCK LATTICE_ABC

%BLOCK POSITIONS_FRAC
  Li   0.2029085  -0.3932261  -0.4632378 SPIN=   0.00000
  Li  -0.2029085   0.3932261   0.0367622 SPIN=   0.00000
  Li  -0.3498845   0.1435123  -0.4265854 SPIN=   0.00000
  Li   0.3498845  -0.1435123   0.0734146 SPIN=   0.00000
  Fe  -0.0705172   0.0557993   0.1484555 SPIN=   4.06413
  Fe   0.0705172  -0.0557993  -0.3515445 SPIN=   4.06413
  Fe  -0.4233259   0.4766574  -0.2846585 SPIN=   3.93587
  Fe   0.4233259  -0.4766574   0.2153415 SPIN=   3.93587
   O   0.3717707  -0.0671810   0.4810843 SPIN=   0.00000
   O  -0.0571418  -0.1022800   0.3654364 SPIN=   0.00000
   O   0.1923726  -0.3395905   0.3470995 SPIN=   0.00000
   O   0.3791330  -0.0330438   0.2517981 SPIN=   0.00000
   S   0.2215336  -0.1355238   0.3613546 SPIN=   0.00000
   O  -0.3717707   0.0671810  -0.0189157 SPIN=   0.00000
   O   0.0571418   0.1022800  -0.1345636 SPIN=   0.00000
   O  -0.1923726   0.3395905  -0.1529005 SPIN=   0.00000
   O  -0.3791330   0.0330438  -0.2482019 SPIN=   0.00000
   S  -0.2215336   0.1355238  -0.1386454 SPIN=   0.00000
   O   0.2866074  -0.1353207  -0.1279627 SPIN=   0.00000
   O   0.1786268  -0.4240713  -0.0060033 SPIN=   0.00000
   O   0.2372950  -0.4331590  -0.2344644 SPIN=   0.00000
   O  -0.1659480  -0.3574881  -0.1464926 SPIN=   0.00000
   S   0.1341453  -0.3375098  -0.1287307 SPIN=   0.00000
   O  -0.2866074   0.1353207   0.3720373 SPIN=   0.00000
   O  -0.1786268   0.4240713   0.4939967 SPIN=   0.00000
   O  -0.2372950   0.4331590   0.2655356 SPIN=   0.00000
   O   0.1659480   0.3574881   0.3535074 SPIN=   0.00000
   S  -0.1341453   0.3375098   0.3712693 SPIN=   0.00000
   F  -0.3117314  -0.2699813  -0.3916981 SPIN=   0.00000
   F   0.3117314   0.2699813   0.1083019 SPIN=   0.00000
   F   0.3256938   0.2474428  -0.3812585 SPIN=   0.00000
   F  -0.3256938  -0.2474428   0.1187415 SPIN=   0.00000
%ENDBLOCK POSITIONS_FRAC

# Note: total spin =  16.00

KPOINTS_MP_SPACING 0.07

%BLOCK SPECIES_POT
QC5
%ENDBLOCK SPECIES_POT

SNAP_TO_SYMMETRY
SYMMETRY_GENERATE

