#              Generated by Buildcell
#
# at 08:32:18 (GMT+1.0) 4th August 2020
# in /lustre/scratch/uccabz1/launch_tmp
# on node-c12n-017
# by uccabz1
#
# compiler GCC version 4.9.2
# options -cpp -iprefix /lustre/shared/ucl/apps/gcc/4.9.2/bin/../lib/gcc/x86_64-unknown-linux-gnu/4.9.2/ -mtune=corei7 -march=x86-64 -g -Og
#
# seed  2106768175   801118847   -78014060    81160166  1012732015  -542293115  1164857622  -112003364  1499419995 -1274144048  2008568173 -2054508215
#
#      Author: C. J. Pickard (cjp20@cam.ac.uk)
#                Space group: Pc
#

%BLOCK LATTICE_ABC
      7.27591      7.60395      7.87151
     90.00000    113.29344     90.00000
%ENDBLOCK LATTICE_ABC

%BLOCK POSITIONS_FRAC
  Li  -0.0389913   0.2543432  -0.3468414 SPIN=   0.00000
  Li   0.4610087  -0.2543432   0.1531586 SPIN=   0.00000
  Li  -0.1252315  -0.2815418  -0.3837589 SPIN=   0.00000
  Li   0.3747685   0.2815418   0.1162411 SPIN=   0.00000
  Fe  -0.0496881   0.1850759   0.0236044 SPIN=   4.62882
  Fe   0.4503119  -0.1850759  -0.4763956 SPIN=   4.62882
  Fe  -0.4690728   0.3080446  -0.4238368 SPIN=   3.37118
  Fe   0.0309272  -0.3080446   0.0761632 SPIN=   3.37118
   O   0.2794504  -0.5071821  -0.0391113 SPIN=   0.00000
   O   0.1636522  -0.3162022  -0.3162820 SPIN=   0.00000
   O   0.2059747  -0.6358382  -0.3479528 SPIN=   0.00000
   O   0.5031954  -0.4458272  -0.2007538 SPIN=   0.00000
   S   0.2880682  -0.4762624  -0.2260250 SPIN=   0.00000
   O  -0.2205496   0.5071821   0.4608887 SPIN=   0.00000
   O  -0.3363478   0.3162022   0.1837180 SPIN=   0.00000
   O  -0.2940253   0.6358382   0.1520472 SPIN=   0.00000
   O   0.0031954   0.4458272   0.2992462 SPIN=   0.00000
   S  -0.2119318   0.4762624   0.2739750 SPIN=   0.00000
   O   0.6692775   0.0120390   0.1086787 SPIN=   0.00000
   O   0.4935436   0.1926851  -0.1703600 SPIN=   0.00000
   O   0.2994638   0.0070826  -0.0424109 SPIN=   0.00000
   O   0.5008706  -0.1313794  -0.1962216 SPIN=   0.00000
   S   0.4907889   0.0201068  -0.0750785 SPIN=   0.00000
   O   0.1692775  -0.0120390   0.6086787 SPIN=   0.00000
   O  -0.0064564  -0.1926851   0.3296400 SPIN=   0.00000
   O  -0.2005362  -0.0070826   0.4575891 SPIN=   0.00000
   O   0.0008706   0.1313794   0.3037784 SPIN=   0.00000
   S  -0.0092111  -0.0201068   0.4249215 SPIN=   0.00000
   F   0.4406866   0.1587838   0.3622440 SPIN=   0.00000
   F  -0.0593134  -0.1587838  -0.1377560 SPIN=   0.00000
   F   0.3288392  -0.3437313   0.3202290 SPIN=   0.00000
   F  -0.1711608   0.3437313  -0.1797710 SPIN=   0.00000
%ENDBLOCK POSITIONS_FRAC

# Note: total spin =  16.00

KPOINTS_MP_SPACING 0.07

%BLOCK SPECIES_POT
QC5
%ENDBLOCK SPECIES_POT

SNAP_TO_SYMMETRY
SYMMETRY_GENERATE

