#              Generated by Buildcell
#
# at 12:10:24 (GMT+1.0) 18th August 2020
# in /lustre/scratch/uccabz1/launch_tmp
# on node-c12l-029
# by uccabz1
#
# compiler GCC version 4.9.2
# options -cpp -iprefix /lustre/shared/ucl/apps/gcc/4.9.2/bin/../lib/gcc/x86_64-unknown-linux-gnu/4.9.2/ -mtune=corei7 -march=x86-64 -g -Og
#
# seed    63174206  1050327774  1251850998 -1719666960 -1383289070   737304510  -357826000  1063306332 -1841713457   560322358  -872087797 -1548354819
#
#      Author: C. J. Pickard (cjp20@cam.ac.uk)
#                Space group: Cc
#

%BLOCK LATTICE_ABC
      6.01566      6.01566     11.80144
     92.84814     92.84814    109.92520
%ENDBLOCK LATTICE_ABC

%BLOCK POSITIONS_FRAC
  Li  -0.1402750  -0.1341239   0.1354342 SPIN=   0.00000
  Li  -0.1341239  -0.1402750  -0.3645658 SPIN=   0.00000
  Li   0.4959218   0.3113227  -0.4927107 SPIN=   0.00000
  Li   0.3113227   0.4959218   0.0072893 SPIN=   0.00000
  Fe   0.0561210   0.3873632  -0.2929448 SPIN=   4.89182
  Fe   0.3873632   0.0561210   0.2070552 SPIN=   4.89182
  Fe   0.5334854   0.1752073  -0.1178827 SPIN=   3.10818
  Fe  -0.8247927  -0.4665146   0.3821173 SPIN=   3.10818
   O   1.0391266   0.6105119   0.0437096 SPIN=   0.00000
   O   0.9215667   0.5205041   0.2389109 SPIN=   0.00000
   O   1.0032676   0.2194063   0.1135149 SPIN=   0.00000
   O   0.6435621   0.3219562   0.0733007 SPIN=   0.00000
   S   0.9018807   0.4180946   0.1173590 SPIN=   0.00000
   O  -0.3894881   0.0391266  -0.4562904 SPIN=   0.00000
   O  -0.4794959  -0.0784333  -0.2610891 SPIN=   0.00000
   O  -0.7805937   0.0032676  -0.3864851 SPIN=   0.00000
   O  -0.6780438  -0.3564379  -0.4266993 SPIN=   0.00000
   S  -0.5819054  -0.0981193  -0.3826410 SPIN=   0.00000
   O   0.0034733   0.0605429  -0.1914950 SPIN=   0.00000
   O  -0.0954857  -0.3491968  -0.1325616 SPIN=   0.00000
   O  -0.2860698  -0.0826304  -0.0464731 SPIN=   0.00000
   O   0.1395912  -0.0097393   0.0004064 SPIN=   0.00000
   S  -0.0596227  -0.0952559  -0.0925308 SPIN=   0.00000
   O   0.0605429   0.0034733   0.3085050 SPIN=   0.00000
   O  -0.3491968  -0.0954857   0.3674384 SPIN=   0.00000
   O  -0.0826304  -0.2860698   0.4535269 SPIN=   0.00000
   O  -0.0097393   0.1395912   0.5004064 SPIN=   0.00000
   S  -0.0952559  -0.0596227   0.4074692 SPIN=   0.00000
   F  -0.4711590  -0.2015006   0.1408403 SPIN=   0.00000
   F  -0.2015006  -0.4711590  -0.3591597 SPIN=   0.00000
   F   0.3193798   0.4978402  -0.1533924 SPIN=   0.00000
   F   0.4978402   0.3193798   0.3466076 SPIN=   0.00000
%ENDBLOCK POSITIONS_FRAC

# Note: total spin =  16.00

KPOINTS_MP_SPACING 0.07

%BLOCK SPECIES_POT
QC5
%ENDBLOCK SPECIES_POT

SNAP_TO_SYMMETRY
SYMMETRY_GENERATE

