#              Generated by Buildcell
#
# at 06:46:43 (GMT+1.0) 4th August 2020
# in /lustre/scratch/uccabz1/launch_tmp
# on node-c12i-035
# by uccabz1
#
# compiler GCC version 4.9.2
# options -cpp -iprefix /lustre/shared/ucl/apps/gcc/4.9.2/bin/../lib/gcc/x86_64-unknown-linux-gnu/4.9.2/ -mtune=corei7 -march=x86-64 -g -Og
#
# seed  -404137123  1919077466  1026559092 -1114529526   129322979   357409602  -593985415   269557264  1921723278  1589492332    31997880   434536633
#
#      Author: C. J. Pickard (cjp20@cam.ac.uk)
#                Space group: Pc
#

%BLOCK LATTICE_ABC
      4.87417      6.81441     12.12320
     90.00000     96.59860     90.00000
%ENDBLOCK LATTICE_ABC

%BLOCK POSITIONS_FRAC
  Li  -0.0334573  -0.3973747  -0.1125308 SPIN=   0.00000
  Li   0.4665427   0.3973747   0.3874692 SPIN=   0.00000
  Li  -0.2019228  -0.0875383   0.3366375 SPIN=   0.00000
  Li   0.2980772   0.0875383  -0.1633625 SPIN=   0.00000
  Fe   0.0021536  -0.4135315   0.4933638 SPIN=   2.82942
  Fe  -0.4978464   0.4135315  -0.0066362 SPIN=   2.82942
  Fe  -0.4369153  -0.2229168  -0.2934587 SPIN=   5.17058
  Fe   0.0630847   0.2229168   0.2065413 SPIN=   5.17058
   O   0.1756368  -0.1322611  -0.5431453 SPIN=   0.00000
   O   0.5619309   0.1054237  -0.5205837 SPIN=   0.00000
   O   0.2683255   0.0585024  -0.3691383 SPIN=   0.00000
   O   0.0789337   0.2242688  -0.5430281 SPIN=   0.00000
   S   0.2712067   0.0639835  -0.4939738 SPIN=   0.00000
   O  -0.3243632   0.1322611  -0.0431453 SPIN=   0.00000
   O   0.0619309  -0.1054237  -0.0205837 SPIN=   0.00000
   O  -0.2316745  -0.0585024   0.1308617 SPIN=   0.00000
   O  -0.4210663  -0.2242688  -0.0430281 SPIN=   0.00000
   S  -0.2287933  -0.0639835   0.0060262 SPIN=   0.00000
   O  -0.0020113   0.3224066  -0.1614457 SPIN=   0.00000
   O  -0.1570947   0.0397562  -0.2808440 SPIN=   0.00000
   O  -0.0863754   0.3637912  -0.3653389 SPIN=   0.00000
   O  -0.4794449   0.3126930  -0.2562025 SPIN=   0.00000
   S  -0.1812316   0.2596617  -0.2659578 SPIN=   0.00000
   O   0.4979887  -0.3224066   0.3385543 SPIN=   0.00000
   O   0.3429053  -0.0397562   0.2191560 SPIN=   0.00000
   O   0.4136246  -0.3637912   0.1346611 SPIN=   0.00000
   O   0.0205551  -0.3126930   0.2437975 SPIN=   0.00000
   S   0.3187684  -0.2596617   0.2340422 SPIN=   0.00000
   F  -0.3088894   0.2158128   0.2934216 SPIN=   0.00000
   F   0.1911106  -0.2158128  -0.2065784 SPIN=   0.00000
   F   0.4854768  -0.4469598  -0.4659732 SPIN=   0.00000
   F  -0.0145232   0.4469598   0.0340268 SPIN=   0.00000
%ENDBLOCK POSITIONS_FRAC

# Note: total spin =  16.00

KPOINTS_MP_SPACING 0.07

%BLOCK SPECIES_POT
QC5
%ENDBLOCK SPECIES_POT

SNAP_TO_SYMMETRY
SYMMETRY_GENERATE

