#              Generated by Buildcell
#
# at 08:47:39 (GMT+1.0) 4th August 2020
# in /lustre/scratch/uccabz1/launch_tmp
# on node-c12k-035
# by uccabz1
#
# compiler GCC version 4.9.2
# options -cpp -iprefix /lustre/shared/ucl/apps/gcc/4.9.2/bin/../lib/gcc/x86_64-unknown-linux-gnu/4.9.2/ -mtune=corei7 -march=x86-64 -g -Og
#
# seed  -309799096  -338027414  1464497016  -542270488  2060163347 -2090394821   252135216  1012722070  1838759564 -1204367716  1719905465    67193498
#
#      Author: C. J. Pickard (cjp20@cam.ac.uk)
#                Space group: P-1
#

%BLOCK LATTICE_ABC
      4.03701      8.15638     12.57725
    103.48499     90.62683     96.30039
%ENDBLOCK LATTICE_ABC

%BLOCK POSITIONS_FRAC
  Li  -0.4186181   0.3345938   0.3615405 SPIN=   0.00000
  Li   0.4186181  -0.3345938  -0.3615405 SPIN=   0.00000
  Li   0.3192879   0.2912768  -0.2264179 SPIN=   0.00000
  Li  -0.3192879  -0.2912768   0.2264179 SPIN=   0.00000
  Fe   0.3031967   0.1921792  -0.4635263 SPIN=   4.11701
  Fe  -0.3031967  -0.1921792   0.4635263 SPIN=   4.11701
  Fe   0.1443698   0.4355267   0.2097883 SPIN=   3.88299
  Fe  -0.1443698  -0.4355267  -0.2097883 SPIN=   3.88299
   O  -0.4165592  -0.0699130   0.1198103 SPIN=   0.00000
   O  -0.1699635  -0.1480830  -0.0618041 SPIN=   0.00000
   O  -0.7357671  -0.2763976  -0.0323235 SPIN=   0.00000
   O  -0.2423352  -0.3566396   0.0533323 SPIN=   0.00000
   S  -0.3911563  -0.2127583   0.0197538 SPIN=   0.00000
   O   0.4165592   0.0699130  -0.1198103 SPIN=   0.00000
   O   0.1699635   0.1480830   0.0618041 SPIN=   0.00000
   O   0.7357671   0.2763976   0.0323235 SPIN=   0.00000
   O   0.2423352   0.3566396  -0.0533323 SPIN=   0.00000
   S   0.3911563   0.2127583  -0.0197538 SPIN=   0.00000
   O  -0.1235963   0.1559832  -0.1949156 SPIN=   0.00000
   O  -0.3157664  -0.1516064  -0.2348043 SPIN=   0.00000
   O   0.2232703  -0.0502540  -0.3027726 SPIN=   0.00000
   O  -0.3064297   0.0010513  -0.3834699 SPIN=   0.00000
   S  -0.1306305  -0.0112065  -0.2789906 SPIN=   0.00000
   O   0.1235963  -0.1559832   0.1949156 SPIN=   0.00000
   O   0.3157664   0.1516064   0.2348043 SPIN=   0.00000
   O  -0.2232703   0.0502540   0.3027726 SPIN=   0.00000
   O   0.3064297  -0.0010513   0.3834699 SPIN=   0.00000
   S   0.1306305   0.0112065   0.2789906 SPIN=   0.00000
   F   0.2256252  -0.2819249   0.4945570 SPIN=   0.00000
   F  -0.2256252   0.2819249  -0.4945570 SPIN=   0.00000
   F   0.3247261  -0.4677324  -0.2451956 SPIN=   0.00000
   F  -0.3247261   0.4677324   0.2451956 SPIN=   0.00000
%ENDBLOCK POSITIONS_FRAC

# Note: total spin =  16.00

KPOINTS_MP_SPACING 0.07

%BLOCK SPECIES_POT
QC5
%ENDBLOCK SPECIES_POT

SNAP_TO_SYMMETRY
SYMMETRY_GENERATE

