#              Generated by Buildcell
#
# at 00:12:13 (GMT+1.0) 18th August 2020
# in /scratch/scratch/uccabz1/launch_tmp
# on node-k10e-030
# by uccabz1
#
# compiler GCC version 4.9.2
# options -cpp -iprefix /scratch/UCL/applications/gcc/4.9.2/bin/../lib/gcc/x86_64-unknown-linux-gnu/4.9.2/ -mtune=corei7 -march=x86-64 -g -O2
#
# seed -1305836406   748965174 -1904597547  1237437926  -480047252  1011422545   345666257   643887896 -1038272783   424050189   212135665  2113002178
#
#      Author: C. J. Pickard (cjp20@cam.ac.uk)
#                Space group: Pna21
#

%BLOCK LATTICE_ABC
      4.13907      7.47607     12.92658
     90.00000     90.00000     90.00000
%ENDBLOCK LATTICE_ABC

%BLOCK POSITIONS_FRAC
  Li   0.0276314   0.1800940  -0.3238336 SPIN=   0.00000
  Li  -0.0276314  -0.3199060   0.3238336 SPIN=   0.00000
  Li   0.4723686   0.1800940   0.1761664 SPIN=   0.00000
  Li  -0.4723686  -0.3199060  -0.1761664 SPIN=   0.00000
  Fe  -0.4723618   0.1578059  -0.1557814 SPIN=   4.00000
  Fe   0.4723618  -0.3421941   0.1557814 SPIN=   4.00000
  Fe  -0.0276382   0.1578059   0.3442186 SPIN=   4.00000
  Fe   0.0276382  -0.3421941  -0.3442186 SPIN=   4.00000
   O  -0.1656795  -0.3643898  -0.0502474 SPIN=   0.00000
   O  -0.3217766  -0.0451120  -0.0424886 SPIN=   0.00000
   O   0.2136625  -0.1314722  -0.1115309 SPIN=   0.00000
   O   0.0988445  -0.1622682   0.0755162 SPIN=   0.00000
   S  -0.0437373  -0.1758106  -0.0321877 SPIN=   0.00000
   O   0.1656795   0.1356102   0.0502474 SPIN=   0.00000
   O   0.3217766   0.4548880   0.0424886 SPIN=   0.00000
   O  -0.2136625   0.3685278   0.1115309 SPIN=   0.00000
   O  -0.0988445   0.3377318  -0.0755162 SPIN=   0.00000
   S   0.0437373   0.3241894   0.0321877 SPIN=   0.00000
   O  -0.3343205  -0.3643898   0.4497526 SPIN=   0.00000
   O  -0.1782234  -0.0451120   0.4575114 SPIN=   0.00000
   O  -0.7136625  -0.1314722   0.3884691 SPIN=   0.00000
   O  -0.5988445  -0.1622682   0.5755162 SPIN=   0.00000
   S  -0.4562627  -0.1758106   0.4678123 SPIN=   0.00000
   O   0.3343205   0.1356102  -0.4497526 SPIN=   0.00000
   O   0.1782234   0.4548880  -0.4575114 SPIN=   0.00000
   O   0.7136625   0.3685278  -0.3884691 SPIN=   0.00000
   O   0.5988445   0.3377318  -0.5755162 SPIN=   0.00000
   S   0.4562627   0.3241894  -0.4678123 SPIN=   0.00000
   F   0.0972492   0.4230203   0.2884248 SPIN=   0.00000
   F  -0.0972492  -0.0769797  -0.2884248 SPIN=   0.00000
   F   0.4027508   0.4230203  -0.2115752 SPIN=   0.00000
   F  -0.4027508  -0.0769797   0.2115752 SPIN=   0.00000
%ENDBLOCK POSITIONS_FRAC

# Note: total spin =  16.00

KPOINTS_MP_SPACING 0.07

%BLOCK SPECIES_POT
QC5
%ENDBLOCK SPECIES_POT

SNAP_TO_SYMMETRY
SYMMETRY_GENERATE

