#              Generated by Buildcell
#
# at 07:25:10 (GMT+1.0) 4th August 2020
# in /lustre/scratch/uccabz1/launch_tmp
# on node-c12n-009
# by uccabz1
#
# compiler GCC version 4.9.2
# options -cpp -iprefix /lustre/shared/ucl/apps/gcc/4.9.2/bin/../lib/gcc/x86_64-unknown-linux-gnu/4.9.2/ -mtune=corei7 -march=x86-64 -g -Og
#
# seed  -311887376  1993465142   199200650 -1504390021 -1957483609 -1808069283   287697245   142985363 -1347452092   197591316  1566405668  1517328066
#
#      Author: C. J. Pickard (cjp20@cam.ac.uk)
#                Space group: Cc
#

%BLOCK LATTICE_ABC
      5.91649      5.91649     11.47073
     91.42145     91.42145     94.54748
%ENDBLOCK LATTICE_ABC

%BLOCK POSITIONS_FRAC
  Li   0.3621166   0.3766018  -0.0259267 SPIN=   0.00000
  Li  -0.1233982  -0.1378834   0.4740733 SPIN=   0.00000
  Li  -0.0977776   0.3200735   0.2522057 SPIN=   0.00000
  Li  -0.1799265   0.4022224  -0.2477943 SPIN=   0.00000
  Fe  -0.2794882   0.3492069   0.4945021 SPIN=   4.00603
  Fe  -0.1507931   0.2205118  -0.0054979 SPIN=   4.00603
  Fe   0.3891399   0.2087158   0.2207749 SPIN=   3.99397
  Fe  -0.2912842  -0.1108601  -0.2792251 SPIN=   3.99397
   O   0.3161017  -0.0330118  -0.3510460 SPIN=   0.00000
   O   0.2735761   0.2029743  -0.5241739 SPIN=   0.00000
   O   0.2776683   0.3787303  -0.3260065 SPIN=   0.00000
   O  -0.0514803   0.1225161  -0.3957650 SPIN=   0.00000
   S   0.2039664   0.1678022  -0.3992478 SPIN=   0.00000
   O  -0.5330118  -0.1838983   0.1489540 SPIN=   0.00000
   O  -0.2970257  -0.2264239  -0.0241739 SPIN=   0.00000
   O  -0.1212697  -0.2223317   0.1739935 SPIN=   0.00000
   O  -0.3774839  -0.5514803   0.1042350 SPIN=   0.00000
   S  -0.3321978  -0.2960336   0.1007522 SPIN=   0.00000
   O   0.2399109  -0.1324856  -0.0122563 SPIN=   0.00000
   O   0.0457523  -0.1224701  -0.2054480 SPIN=   0.00000
   O  -0.0092959  -0.4637957  -0.0857471 SPIN=   0.00000
   O   0.3600218  -0.3694463  -0.1767720 SPIN=   0.00000
   S   0.1590973  -0.2720494  -0.1200559 SPIN=   0.00000
   O   0.3675144  -0.2600891   0.4877437 SPIN=   0.00000
   O   0.3775299  -0.4542477   0.2945520 SPIN=   0.00000
   O   0.0362043  -0.5092959   0.4142529 SPIN=   0.00000
   O   0.1305537  -0.1399782   0.3232280 SPIN=   0.00000
   S   0.2279506  -0.3409027   0.3799441 SPIN=   0.00000
   F  -0.3599320   0.1873557  -0.1383109 SPIN=   0.00000
   F  -0.3126443   0.1400680   0.3616891 SPIN=   0.00000
   F  -0.2226257  -0.3439980  -0.3908305 SPIN=   0.00000
   F   0.1560020   0.2773743   0.1091695 SPIN=   0.00000
%ENDBLOCK POSITIONS_FRAC

# Note: total spin =  16.00

KPOINTS_MP_SPACING 0.07

%BLOCK SPECIES_POT
QC5
%ENDBLOCK SPECIES_POT

SNAP_TO_SYMMETRY
SYMMETRY_GENERATE

