#              Generated by Buildcell
#
# at 08:27:19 (GMT+1.0) 18th August 2020
# in /lustre/scratch/uccabz1/launch_tmp
# on node-c12h-020
# by uccabz1
#
# compiler GCC version 4.9.2
# options -cpp -iprefix /lustre/shared/ucl/apps/gcc/4.9.2/bin/../lib/gcc/x86_64-unknown-linux-gnu/4.9.2/ -mtune=corei7 -march=x86-64 -g -Og
#
# seed   -49747023  1835307686  -606734094    78554751  -447026571 -1454669011  1476998749   893795185   360243074   176748532  -552798360  -721458711
#
#      Author: C. J. Pickard (cjp20@cam.ac.uk)
#                Space group: P-1
#

%BLOCK LATTICE_ABC
      6.31178      8.50511      8.70942
     63.20725     85.73934     73.77611
%ENDBLOCK LATTICE_ABC

%BLOCK POSITIONS_FRAC
  Li   0.2116870  -0.8498067   0.3922233 SPIN=   0.00000
  Li  -0.2116870   0.8498067  -0.3922233 SPIN=   0.00000
  Li  -0.1594291   0.1657871  -0.2466499 SPIN=   0.00000
  Li   0.1594291  -0.1657871   0.2466499 SPIN=   0.00000
  Fe   0.4790775  -0.1426325  -0.1081943 SPIN=   3.42434
  Fe  -0.4790775   0.1426325   0.1081943 SPIN=   3.42434
  Fe  -0.3380246  -0.3568481   0.3468597 SPIN=   4.57566
  Fe   0.3380246   0.3568481  -0.3468597 SPIN=   4.57566
   O   0.1573895   0.6333265  -0.3907370 SPIN=   0.00000
   O   0.3523504   0.8689136  -0.5572343 SPIN=   0.00000
   O   0.4317854   0.6845233  -0.2421969 SPIN=   0.00000
   O   0.0721410   0.9180053  -0.3571317 SPIN=   0.00000
   S   0.2534166   0.7761922  -0.3868250 SPIN=   0.00000
   O  -0.1573895  -0.6333265   0.3907370 SPIN=   0.00000
   O  -0.3523504  -0.8689136   0.5572343 SPIN=   0.00000
   O  -0.4317854  -0.6845233   0.2421969 SPIN=   0.00000
   O  -0.0721410  -0.9180053   0.3571317 SPIN=   0.00000
   S  -0.2534166  -0.7761922   0.3868250 SPIN=   0.00000
   O   0.2898783  -0.4981918   0.3258690 SPIN=   0.00000
   O   0.2612900  -0.3266988   0.0076253 SPIN=   0.00000
   O  -0.0773770  -0.3541744   0.1684509 SPIN=   0.00000
   O   0.1751493  -0.6255539   0.1504951 SPIN=   0.00000
   S   0.1622352  -0.4511547   0.1631101 SPIN=   0.00000
   O  -0.2898783   0.4981918  -0.3258690 SPIN=   0.00000
   O  -0.2612900   0.3266988  -0.0076253 SPIN=   0.00000
   O   0.0773770   0.3541744  -0.1684509 SPIN=   0.00000
   O  -0.1751493   0.6255539  -0.1504951 SPIN=   0.00000
   S  -0.1622352   0.4511547  -0.1631101 SPIN=   0.00000
   F  -0.2165201  -0.0546351  -0.1175986 SPIN=   0.00000
   F   0.2165201   0.0546351   0.1175986 SPIN=   0.00000
   F  -0.2187434  -0.2014252   0.4266051 SPIN=   0.00000
   F   0.2187434   0.2014252  -0.4266051 SPIN=   0.00000
%ENDBLOCK POSITIONS_FRAC

# Note: total spin =  16.00

KPOINTS_MP_SPACING 0.07

%BLOCK SPECIES_POT
QC5
%ENDBLOCK SPECIES_POT

SNAP_TO_SYMMETRY
SYMMETRY_GENERATE

