#              Generated by Buildcell
#
# at 09:38:39 (GMT+1.0) 4th August 2020
# in /lustre/scratch/uccabz1/launch_tmp
# on node-c12h-032
# by uccabz1
#
# compiler GCC version 4.9.2
# options -cpp -iprefix /lustre/shared/ucl/apps/gcc/4.9.2/bin/../lib/gcc/x86_64-unknown-linux-gnu/4.9.2/ -mtune=corei7 -march=x86-64 -g -Og
#
# seed  -437317043   978479318   867548041 -1288411195 -1453931432 -1608170285   139378999   151923857  -189587339 -1773390330 -1900831695  1047975656
#
#      Author: C. J. Pickard (cjp20@cam.ac.uk)
#                Space group: P-1
#

%BLOCK LATTICE_ABC
      4.11074      8.09738     12.34262
     95.44196     98.90954     97.13778
%ENDBLOCK LATTICE_ABC

%BLOCK POSITIONS_FRAC
  Li  -0.0202995   0.3344279  -0.1568091 SPIN=   0.00000
  Li   0.0202995  -0.3344279   0.1568091 SPIN=   0.00000
  Li  -0.1278279   0.1516031   0.1014908 SPIN=   0.00000
  Li   0.1278279  -0.1516031  -0.1014908 SPIN=   0.00000
  Fe   0.4010981   0.0025701   0.2362326 SPIN=   7.25734
  Fe  -0.4010981  -0.0025701  -0.2362326 SPIN=   7.25734
  Fe  -0.1683452  -0.3849365  -0.3851803 SPIN=   0.74266
  Fe   0.1683452   0.3849365   0.3851803 SPIN=   0.74266
   O   0.2125008   0.3035466   0.0558697 SPIN=   0.00000
   O   0.5684274   0.5791569   0.0844914 SPIN=   0.00000
   O   0.7533623   0.3451973   0.1820859 SPIN=   0.00000
   O   0.2853641   0.4818451   0.2346133 SPIN=   0.00000
   S   0.4549137   0.4274365   0.1392651 SPIN=   0.00000
   O  -0.2125008  -0.3035466  -0.0558697 SPIN=   0.00000
   O  -0.5684274  -0.5791569  -0.0844914 SPIN=   0.00000
   O  -0.7533623  -0.3451973  -0.1820859 SPIN=   0.00000
   O  -0.2853641  -0.4818451  -0.2346133 SPIN=   0.00000
   S  -0.4549137  -0.4274365  -0.1392651 SPIN=   0.00000
   O   0.2414057   0.2046344  -0.2551694 SPIN=   0.00000
   O   0.1866039   0.1118917  -0.4548707 SPIN=   0.00000
   O   0.2430234   0.4139938  -0.3887941 SPIN=   0.00000
   O  -0.2761956   0.2275100  -0.3817313 SPIN=   0.00000
   S   0.0987093   0.2395075  -0.3701414 SPIN=   0.00000
   O  -0.2414057  -0.2046344   0.2551694 SPIN=   0.00000
   O  -0.1866039  -0.1118917   0.4548707 SPIN=   0.00000
   O  -0.2430234  -0.4139938   0.3887941 SPIN=   0.00000
   O   0.2761956  -0.2275100   0.3817313 SPIN=   0.00000
   S  -0.0987093  -0.2395075   0.3701414 SPIN=   0.00000
   F  -0.1283854   0.1744809   0.3520049 SPIN=   0.00000
   F   0.1283854  -0.1744809  -0.3520049 SPIN=   0.00000
   F   0.2695040  -0.1501730   0.1013203 SPIN=   0.00000
   F  -0.2695040   0.1501730  -0.1013203 SPIN=   0.00000
%ENDBLOCK POSITIONS_FRAC

# Note: total spin =  16.00

KPOINTS_MP_SPACING 0.07

%BLOCK SPECIES_POT
QC5
%ENDBLOCK SPECIES_POT

SNAP_TO_SYMMETRY
SYMMETRY_GENERATE

