#              Generated by Buildcell
#
# at 12:52:42 (GMT+1.0) 18th August 2020
# in /lustre/scratch/uccabz1/launch_tmp
# on node-c12o-027
# by uccabz1
#
# compiler GCC version 4.9.2
# options -cpp -iprefix /lustre/shared/ucl/apps/gcc/4.9.2/bin/../lib/gcc/x86_64-unknown-linux-gnu/4.9.2/ -mtune=corei7 -march=x86-64 -g -Og
#
# seed  -275294948  1507820445  -101463116  1836766435 -1579772621 -1743103768  1211831995 -1665042406   899783988  1209187413  -129071560   620102051
#
#      Author: C. J. Pickard (cjp20@cam.ac.uk)
#                Space group: P41
#

%BLOCK LATTICE_ABC
      5.52765      5.52765     13.09119
     90.00000     90.00000     90.00000
%ENDBLOCK LATTICE_ABC

%BLOCK POSITIONS_FRAC
  Li   0.2478098   0.1859582   0.0680306 SPIN=   0.00000
  Li  -0.2478098  -0.1859582  -0.4319694 SPIN=   0.00000
  Li  -0.1859582   0.2478098   0.3180306 SPIN=   0.00000
  Li   0.1859582  -0.2478098  -0.1819694 SPIN=   0.00000
  Fe   0.3910349  -0.3140405   0.1078240 SPIN=   4.00000
  Fe  -0.3910349   0.3140405  -0.3921760 SPIN=   4.00000
  Fe   0.3140405   0.3910349   0.3578240 SPIN=   4.00000
  Fe  -0.3140405  -0.3910349  -0.1421760 SPIN=   4.00000
   O  -0.0084487   0.0244650  -0.0279282 SPIN=   0.00000
   O  -0.3283107   0.0149359   0.1042924 SPIN=   0.00000
   O  -0.4394967   0.0134145  -0.0788332 SPIN=   0.00000
   O  -0.2684579   0.3830413  -0.0003136 SPIN=   0.00000
   S  -0.2611785   0.1089642  -0.0006957 SPIN=   0.00000
   O   0.0084487  -0.0244650   0.4720718 SPIN=   0.00000
   O   0.3283107  -0.0149359   0.6042924 SPIN=   0.00000
   O   0.4394967  -0.0134145   0.4211668 SPIN=   0.00000
   O   0.2684579  -0.3830413   0.4996864 SPIN=   0.00000
   S   0.2611785  -0.1089642   0.4993043 SPIN=   0.00000
   O  -0.0244650  -0.0084487   0.2220718 SPIN=   0.00000
   O  -0.0149359  -0.3283107   0.3542924 SPIN=   0.00000
   O  -0.0134145  -0.4394967   0.1711668 SPIN=   0.00000
   O  -0.3830413  -0.2684579   0.2496864 SPIN=   0.00000
   S  -0.1089642  -0.2611785   0.2493043 SPIN=   0.00000
   O   0.0244650   0.0084487  -0.2779282 SPIN=   0.00000
   O   0.0149359   0.3283107  -0.1457076 SPIN=   0.00000
   O   0.0134145   0.4394967  -0.3288332 SPIN=   0.00000
   O   0.3830413   0.2684579  -0.2503136 SPIN=   0.00000
   S   0.1089642   0.2611785  -0.2506957 SPIN=   0.00000
   F  -0.2914673   0.3940693   0.4780067 SPIN=   0.00000
   F   0.2914673  -0.3940693  -0.0219933 SPIN=   0.00000
   F  -0.3940693  -0.2914673  -0.2719933 SPIN=   0.00000
   F   0.3940693   0.2914673   0.2280067 SPIN=   0.00000
%ENDBLOCK POSITIONS_FRAC

# Note: total spin =  16.00

KPOINTS_MP_SPACING 0.07

%BLOCK SPECIES_POT
QC5
%ENDBLOCK SPECIES_POT

SNAP_TO_SYMMETRY
SYMMETRY_GENERATE

