#              Generated by Buildcell
#
# at 07:02:10 (GMT+1.0) 4th August 2020
# in /lustre/scratch/uccabz1/launch_tmp
# on node-c12f-014
# by uccabz1
#
# compiler GCC version 4.9.2
# options -cpp -iprefix /lustre/shared/ucl/apps/gcc/4.9.2/bin/../lib/gcc/x86_64-unknown-linux-gnu/4.9.2/ -mtune=corei7 -march=x86-64 -g -Og
#
# seed   308265559 -1918016054 -1705577392  -354011436  -211727711  1935455715 -1403656878  -574611222  -660094867  2014135650  1638870107  1997506373
#
#      Author: C. J. Pickard (cjp20@cam.ac.uk)
#                Space group: P2221
#

%BLOCK LATTICE_ABC
      3.93786      7.82942     12.97388
     90.00000     90.00000     90.00000
%ENDBLOCK LATTICE_ABC

%BLOCK POSITIONS_FRAC
  Li   0.2497288  -0.3902827  -0.1224376 SPIN=   0.00000
  Li  -0.2497288   0.3902827   0.3775624 SPIN=   0.00000
  Li   0.2497288   0.3902827  -0.3775624 SPIN=   0.00000
  Li  -0.2497288  -0.3902827   0.1224376 SPIN=   0.00000
  Fe  -0.2502335  -0.0972490  -0.1225694 SPIN=   4.00000
  Fe   0.2502335   0.0972490   0.3774306 SPIN=   4.00000
  Fe  -0.2502335   0.0972490  -0.3774306 SPIN=   4.00000
  Fe   0.2502335  -0.0972490   0.1225694 SPIN=   4.00000
   O  -0.3362045   0.1626330  -0.0978683 SPIN=   0.00000
   O  -0.2952280   0.3543644  -0.2490182 SPIN=   0.00000
   O   0.1932996   0.3241476  -0.1304033 SPIN=   0.00000
   O  -0.3246448   0.4760198  -0.0731801 SPIN=   0.00000
   S  -0.1906944   0.3292912  -0.1376175 SPIN=   0.00000
   O   0.3362045  -0.1626330   0.4021317 SPIN=   0.00000
   O   0.2952280  -0.3543644   0.2509818 SPIN=   0.00000
   O  -0.1932996  -0.3241476   0.3695967 SPIN=   0.00000
   O   0.3246448  -0.4760198   0.4268199 SPIN=   0.00000
   S   0.1906944  -0.3292912   0.3623825 SPIN=   0.00000
   O  -0.3362045  -0.1626330  -0.4021317 SPIN=   0.00000
   O  -0.2952280  -0.3543644  -0.2509818 SPIN=   0.00000
   O   0.1932996  -0.3241476  -0.3695967 SPIN=   0.00000
   O  -0.3246448  -0.4760198  -0.4268199 SPIN=   0.00000
   S  -0.1906944  -0.3292912  -0.3623825 SPIN=   0.00000
   O   0.3362045   0.1626330   0.0978683 SPIN=   0.00000
   O   0.2952280   0.3543644   0.2490182 SPIN=   0.00000
   O  -0.1932996   0.3241476   0.1304033 SPIN=   0.00000
   O   0.3246448   0.4760198   0.0731801 SPIN=   0.00000
   S   0.1906944   0.3292912   0.1376175 SPIN=   0.00000
   F  -0.2500012   0.1572586   0.3683669 SPIN=   0.00000
   F   0.2500012  -0.1572586  -0.1316331 SPIN=   0.00000
   F  -0.2500012  -0.1572586   0.1316331 SPIN=   0.00000
   F   0.2500012   0.1572586  -0.3683669 SPIN=   0.00000
%ENDBLOCK POSITIONS_FRAC

# Note: total spin =  16.00

KPOINTS_MP_SPACING 0.07

%BLOCK SPECIES_POT
QC5
%ENDBLOCK SPECIES_POT

SNAP_TO_SYMMETRY
SYMMETRY_GENERATE

