#              Generated by Buildcell
#
# at 11:17:00 (GMT+1.0) 18th August 2020
# in /lustre/scratch/uccabz1/launch_tmp
# on node-c12i-005
# by uccabz1
#
# compiler GCC version 4.9.2
# options -cpp -iprefix /lustre/shared/ucl/apps/gcc/4.9.2/bin/../lib/gcc/x86_64-unknown-linux-gnu/4.9.2/ -mtune=corei7 -march=x86-64 -g -Og
#
# seed -1269409512  1253675644  -855108003  -801902371  1790676084  -114868437 -2016353100 -1468207731   266154114  2127790590  -217005476   261695478
#
#      Author: C. J. Pickard (cjp20@cam.ac.uk)
#                Space group: P2
#

%BLOCK LATTICE_ABC
      4.08906      9.55593     10.29966
     96.33477     90.00000     90.00000
%ENDBLOCK LATTICE_ABC

%BLOCK POSITIONS_FRAC
  Li   0.4508495   0.0006952  -0.3253736 SPIN=   0.00000
  Li   0.4508495  -0.0006952   0.3253736 SPIN=   0.00000
  Li   0.0663929   0.3389306  -0.2852842 SPIN=   0.00000
  Li   0.0663929  -0.3389306   0.2852842 SPIN=   0.00000
  Fe  -0.2235668  -0.3105847   0.0290588 SPIN=   1.76248
  Fe  -0.2235668   0.3105847  -0.0290588 SPIN=   1.76248
  Fe  -0.4331866   0.2415015  -0.4789823 SPIN=   6.23752
  Fe  -0.4331866  -0.2415015   0.4789823 SPIN=   6.23752
   O   0.1959304   0.4840950   0.1871573 SPIN=   0.00000
   O   0.7107566   0.3485898   0.1919650 SPIN=   0.00000
   O   0.3413438   0.3696761   0.3834658 SPIN=   0.00000
   O   0.6534223   0.5771128   0.3285569 SPIN=   0.00000
   S   0.4753633   0.4448684   0.2727862 SPIN=   0.00000
   O   0.1959304  -0.4840950  -0.1871573 SPIN=   0.00000
   O   0.7107566  -0.3485898  -0.1919650 SPIN=   0.00000
   O   0.3413438  -0.3696761  -0.3834658 SPIN=   0.00000
   O   0.6534223  -0.5771128  -0.3285569 SPIN=   0.00000
   S   0.4753633  -0.4448684  -0.2727862 SPIN=   0.00000
   O   0.0415139   0.0483484  -0.2123877 SPIN=   0.00000
   O  -0.2456474  -0.1154910  -0.0811224 SPIN=   0.00000
   O   0.2590342  -0.1917411  -0.2013937 SPIN=   0.00000
   O  -0.2524985  -0.1579476  -0.3225292 SPIN=   0.00000
   S  -0.0493995  -0.1042078  -0.2043582 SPIN=   0.00000
   O   0.0415139  -0.0483484   0.2123877 SPIN=   0.00000
   O  -0.2456474   0.1154910   0.0811224 SPIN=   0.00000
   O   0.2590342   0.1917411   0.2013937 SPIN=   0.00000
   O  -0.2524985   0.1579476   0.3225292 SPIN=   0.00000
   S  -0.0493995   0.1042078   0.2043582 SPIN=   0.00000
   F   0.3174919   0.2789108  -0.0533873 SPIN=   0.00000
   F   0.3174919  -0.2789108   0.0533873 SPIN=   0.00000
   F   0.1112470   0.1843901  -0.4408636 SPIN=   0.00000
   F   0.1112470  -0.1843901   0.4408636 SPIN=   0.00000
%ENDBLOCK POSITIONS_FRAC

# Note: total spin =  16.00

KPOINTS_MP_SPACING 0.07

%BLOCK SPECIES_POT
QC5
%ENDBLOCK SPECIES_POT

SNAP_TO_SYMMETRY
SYMMETRY_GENERATE

