#              Generated by Buildcell
#
# at 01:45:52 (GMT+1.0) 18th August 2020
# in /lustre/scratch/uccabz1/launch_tmp
# on node-c12e-025
# by uccabz1
#
# compiler GCC version 4.9.2
# options -cpp -iprefix /lustre/shared/ucl/apps/gcc/4.9.2/bin/../lib/gcc/x86_64-unknown-linux-gnu/4.9.2/ -mtune=corei7 -march=x86-64 -g -Og
#
# seed -1964880608 -1883085065  1199221634  1537881287 -1852626670   960169624  1347046171  1532189499 -1219805069   153240954   373387927 -1608994365
#
#      Author: C. J. Pickard (cjp20@cam.ac.uk)
#                Space group: P-1
#

%BLOCK LATTICE_ABC
      5.86735      8.17650      8.71819
     99.71471     98.60153     99.33880
%ENDBLOCK LATTICE_ABC

%BLOCK POSITIONS_FRAC
  Li  -0.1716704   0.2114804   0.1327971 SPIN=   0.00000
  Li   0.1716704  -0.2114804  -0.1327971 SPIN=   0.00000
  Li  -0.2021874  -0.3128404   0.1838720 SPIN=   0.00000
  Li   0.2021874   0.3128404  -0.1838720 SPIN=   0.00000
  Fe  -0.2772305   0.0085747   0.3777085 SPIN=   3.87631
  Fe   0.2772305  -0.0085747  -0.3777085 SPIN=   3.87631
  Fe  -0.2989395  -0.1312632  -0.0822220 SPIN=   4.12369
  Fe   0.2989395   0.1312632   0.0822220 SPIN=   4.12369
   O  -0.3418479  -0.1702194  -0.4688247 SPIN=   0.00000
   O  -0.3140380  -0.4722278  -0.5314784 SPIN=   0.00000
   O  -0.1918295  -0.3116710  -0.2558875 SPIN=   0.00000
   O   0.0475893  -0.2517298  -0.4579497 SPIN=   0.00000
   S  -0.2000315  -0.3014620  -0.4285351 SPIN=   0.00000
   O   0.3418479   0.1702194   0.4688247 SPIN=   0.00000
   O   0.3140380   0.4722278   0.5314784 SPIN=   0.00000
   O   0.1918295   0.3116710   0.2558875 SPIN=   0.00000
   O  -0.0475893   0.2517298   0.4579497 SPIN=   0.00000
   S   0.2000315   0.3014620   0.4285351 SPIN=   0.00000
   O  -0.5001186   0.3380769  -0.2844387 SPIN=   0.00000
   O  -0.2597595   0.1212857  -0.3446201 SPIN=   0.00000
   O  -0.1791035   0.3062582  -0.0791987 SPIN=   0.00000
   O  -0.0857891   0.4247339  -0.3105774 SPIN=   0.00000
   S  -0.2561927   0.2975887  -0.2547087 SPIN=   0.00000
   O   0.5001186  -0.3380769   0.2844387 SPIN=   0.00000
   O   0.2597595  -0.1212857   0.3446201 SPIN=   0.00000
   O   0.1791035  -0.3062582   0.0791987 SPIN=   0.00000
   O   0.0857891  -0.4247339   0.3105774 SPIN=   0.00000
   S   0.2561927  -0.2975887   0.2547087 SPIN=   0.00000
   F  -0.2061315  -0.0635728   0.1578408 SPIN=   0.00000
   F   0.2061315   0.0635728  -0.1578408 SPIN=   0.00000
   F  -0.3230647   0.4112289   0.1766089 SPIN=   0.00000
   F   0.3230647  -0.4112289  -0.1766089 SPIN=   0.00000
%ENDBLOCK POSITIONS_FRAC

# Note: total spin =  16.00

KPOINTS_MP_SPACING 0.07

%BLOCK SPECIES_POT
QC5
%ENDBLOCK SPECIES_POT

SNAP_TO_SYMMETRY
SYMMETRY_GENERATE

