#              Generated by Buildcell
#
# at 07:58:43 (GMT+1.0) 4th August 2020
# in /lustre/scratch/uccabz1/launch_tmp
# on node-c12f-031
# by uccabz1
#
# compiler GCC version 4.9.2
# options -cpp -iprefix /lustre/shared/ucl/apps/gcc/4.9.2/bin/../lib/gcc/x86_64-unknown-linux-gnu/4.9.2/ -mtune=corei7 -march=x86-64 -g -Og
#
# seed   844636139 -1558863203   459356305   319093376  1733850541   -35333805 -1420094204  -659622004  2069844172   888100600 -2065663046  -168364418
#
#      Author: C. J. Pickard (cjp20@cam.ac.uk)
#                Space group: C2/c
#

%BLOCK LATTICE_ABC
      7.11148      7.73401      8.13584
     95.71606    115.91558     90.00000
%ENDBLOCK LATTICE_ABC

%BLOCK POSITIONS_FRAC
  Li  -0.1487983   0.0767095  -0.3105767 SPIN=   0.00000
  Li   0.1617784   0.4232905   0.3105767 SPIN=   0.00000
  Li   0.1487983  -0.0767095   0.3105767 SPIN=   0.00000
  Li  -0.1617784  -0.4232905  -0.3105767 SPIN=   0.00000
  Fe   0.2490246  -0.0156449  -0.0008705 SPIN=   4.00000
  Fe   0.2498951  -0.4843551   0.0008705 SPIN=   4.00000
  Fe  -0.2490246   0.0156449   0.0008705 SPIN=   4.00000
  Fe  -0.2498951   0.4843551  -0.0008705 SPIN=   4.00000
   O   0.1341689   0.1304996  -0.3254433 SPIN=   0.00000
   O   0.4075199   0.3481727  -0.1095175 SPIN=   0.00000
   O   0.3174721   0.3214295  -0.4415026 SPIN=   0.00000
   O   0.5061482   0.0891186  -0.2533094 SPIN=   0.00000
   S   0.3413273   0.2223051  -0.2824432 SPIN=   0.00000
   O  -0.5403878   0.3695004   0.3254433 SPIN=   0.00000
   O  -0.4829626   0.1518273   0.1095175 SPIN=   0.00000
   O  -0.2410253   0.1785705   0.4415026 SPIN=   0.00000
   O  -0.2405424   0.4108814   0.2533094 SPIN=   0.00000
   S  -0.3762295   0.2776949   0.2824432 SPIN=   0.00000
   O  -0.1341689  -0.1304996   0.3254433 SPIN=   0.00000
   O  -0.4075199  -0.3481727   0.1095175 SPIN=   0.00000
   O  -0.3174721  -0.3214295   0.4415026 SPIN=   0.00000
   O  -0.5061482  -0.0891186   0.2533094 SPIN=   0.00000
   S  -0.3413273  -0.2223051   0.2824432 SPIN=   0.00000
   O   0.5403878  -0.3695004  -0.3254433 SPIN=   0.00000
   O   0.4829626  -0.1518273  -0.1095175 SPIN=   0.00000
   O   0.2410253  -0.1785705  -0.4415026 SPIN=   0.00000
   O   0.2405424  -0.4108814  -0.2533094 SPIN=   0.00000
   S   0.3762295  -0.2776949  -0.2824432 SPIN=   0.00000
   F   0.1510465  -0.3546463   0.2287342 SPIN=   0.00000
   F  -0.0776877  -0.1453537  -0.2287342 SPIN=   0.00000
   F  -0.1510465   0.3546463  -0.2287342 SPIN=   0.00000
   F   0.0776877   0.1453537   0.2287342 SPIN=   0.00000
%ENDBLOCK POSITIONS_FRAC

# Note: total spin =  16.00

KPOINTS_MP_SPACING 0.07

%BLOCK SPECIES_POT
QC5
%ENDBLOCK SPECIES_POT

SNAP_TO_SYMMETRY
SYMMETRY_GENERATE

