#              Generated by Buildcell
#
# at 10:58:28 (GMT+1.0) 4th August 2020
# in /lustre/scratch/uccabz1/launch_tmp
# on node-c12i-007
# by uccabz1
#
# compiler GCC version 4.9.2
# options -cpp -iprefix /lustre/shared/ucl/apps/gcc/4.9.2/bin/../lib/gcc/x86_64-unknown-linux-gnu/4.9.2/ -mtune=corei7 -march=x86-64 -g -Og
#
# seed -1416407302  1170498532   692736848 -1371301234  1289092424   840093216   424674054 -1920572879  -569343131  1885040311   894960928   440990557
#
#      Author: C. J. Pickard (cjp20@cam.ac.uk)
#                Space group: Pc
#

%BLOCK LATTICE_ABC
      6.95194      7.10202      8.11810
     93.65180     90.00000     90.00000
%ENDBLOCK LATTICE_ABC

%BLOCK POSITIONS_FRAC
  Li  -0.4380107   0.3854243   0.3942104 SPIN=   0.00000
  Li   0.4380107  -0.1145757   0.3942104 SPIN=   0.00000
  Li   0.3437295  -0.1187899  -0.0474098 SPIN=   0.00000
  Li  -0.3437295   0.3812101  -0.0474098 SPIN=   0.00000
  Fe  -0.2610756   0.1291956  -0.3570923 SPIN=   4.28506
  Fe   0.2610756  -0.3708044  -0.3570923 SPIN=   4.28506
  Fe   0.1611520   0.2325656   0.3226845 SPIN=   3.71494
  Fe  -0.1611520  -0.2674344   0.3226845 SPIN=   3.71494
   O  -0.0407080  -0.5699115  -0.0713455 SPIN=   0.00000
   O   0.2193178  -0.5882796   0.1352323 SPIN=   0.00000
   O   0.0298143  -0.2946809   0.1216160 SPIN=   0.00000
   O   0.2599162  -0.3885965  -0.1013047 SPIN=   0.00000
   S   0.1170851  -0.4603671   0.0210495 SPIN=   0.00000
   O   0.0407080  -0.0699115  -0.0713455 SPIN=   0.00000
   O  -0.2193178  -0.0882796   0.1352323 SPIN=   0.00000
   O  -0.0298143   0.2053191   0.1216160 SPIN=   0.00000
   O  -0.2599162   0.1114035  -0.1013047 SPIN=   0.00000
   S  -0.1170851   0.0396329   0.0210495 SPIN=   0.00000
   O   0.2987034   0.1741229  -0.1050692 SPIN=   0.00000
   O   0.2702610   0.3348642  -0.3656512 SPIN=   0.00000
   O   0.0750262   0.0506136  -0.3231889 SPIN=   0.00000
   O   0.4266848   0.0218752  -0.3650663 SPIN=   0.00000
   S   0.2676689   0.1453690  -0.2897439 SPIN=   0.00000
   O  -0.2987034  -0.3258771  -0.1050692 SPIN=   0.00000
   O  -0.2702610  -0.1651358  -0.3656512 SPIN=   0.00000
   O  -0.0750262  -0.4493864  -0.3231889 SPIN=   0.00000
   O  -0.4266848  -0.4781248  -0.3650663 SPIN=   0.00000
   S  -0.2676689  -0.3546310  -0.2897439 SPIN=   0.00000
   F  -0.4048701  -0.3985698   0.1922335 SPIN=   0.00000
   F   0.4048701   0.1014302   0.1922335 SPIN=   0.00000
   F   0.1222436  -0.2479975   0.4356650 SPIN=   0.00000
   F  -0.1222436   0.2520025   0.4356650 SPIN=   0.00000
%ENDBLOCK POSITIONS_FRAC

# Note: total spin =  16.00

KPOINTS_MP_SPACING 0.07

%BLOCK SPECIES_POT
QC5
%ENDBLOCK SPECIES_POT

SNAP_TO_SYMMETRY
SYMMETRY_GENERATE

