#              Generated by Buildcell
#
# at 23:08:52 (GMT+1.0) 17th August 2020
# in /lustre/scratch/uccabz1/launch_tmp
# on node-c12i-030
# by uccabz1
#
# compiler GCC version 4.9.2
# options -cpp -iprefix /lustre/shared/ucl/apps/gcc/4.9.2/bin/../lib/gcc/x86_64-unknown-linux-gnu/4.9.2/ -mtune=corei7 -march=x86-64 -g -Og
#
# seed -1468743794   412004862  -844375583   506250796  -797280712  1704899291 -1766606846  -441054421   142453622  1333967149  2043710239  -929067480
#
#      Author: C. J. Pickard (cjp20@cam.ac.uk)
#                Space group: P21212
#

%BLOCK LATTICE_ABC
      6.74613      6.95022      8.53113
     90.00000     90.00000     90.00000
%ENDBLOCK LATTICE_ABC

%BLOCK POSITIONS_FRAC
  Li  -0.2997041   0.3252284  -0.4035052 SPIN=   0.00000
  Li   0.2997041  -0.3252284  -0.4035052 SPIN=   0.00000
  Li  -0.2002959  -0.1747716   0.4035052 SPIN=   0.00000
  Li   0.2002959   0.1747716   0.4035052 SPIN=   0.00000
  Fe  -0.1846581  -0.2942483  -0.2550195 SPIN=   4.00000
  Fe   0.1846581   0.2942483  -0.2550195 SPIN=   4.00000
  Fe  -0.3153419   0.2057517   0.2550195 SPIN=   4.00000
  Fe   0.3153419  -0.2057517   0.2550195 SPIN=   4.00000
   O   0.4670915  -0.1907904  -0.0976167 SPIN=   0.00000
   O   0.1392440  -0.3335993  -0.1560156 SPIN=   0.00000
   O   0.2276390  -0.0143800  -0.2638947 SPIN=   0.00000
   O   0.1639889  -0.0517371   0.0201792 SPIN=   0.00000
   S   0.2494909  -0.1476267  -0.1243370 SPIN=   0.00000
   O  -0.4670915   0.1907904  -0.0976167 SPIN=   0.00000
   O  -0.1392440   0.3335993  -0.1560156 SPIN=   0.00000
   O  -0.2276390   0.0143800  -0.2638947 SPIN=   0.00000
   O  -0.1639889   0.0517371   0.0201792 SPIN=   0.00000
   S  -0.2494909   0.1476267  -0.1243370 SPIN=   0.00000
   O   0.0329085   0.3092096   0.0976167 SPIN=   0.00000
   O   0.3607560   0.1664007   0.1560156 SPIN=   0.00000
   O   0.2723610   0.4856200   0.2638947 SPIN=   0.00000
   O   0.3360111   0.4482629  -0.0201792 SPIN=   0.00000
   S   0.2505091   0.3523733   0.1243370 SPIN=   0.00000
   O  -0.0329085  -0.3092096   0.0976167 SPIN=   0.00000
   O  -0.3607560  -0.1664007   0.1560156 SPIN=   0.00000
   O  -0.2723610  -0.4856200   0.2638947 SPIN=   0.00000
   O  -0.3360111  -0.4482629  -0.0201792 SPIN=   0.00000
   S  -0.2505091  -0.3523733   0.1243370 SPIN=   0.00000
   F  -0.1071044   0.2304943   0.4382683 SPIN=   0.00000
   F   0.1071044  -0.2304943   0.4382683 SPIN=   0.00000
   F  -0.3928956  -0.2695057  -0.4382683 SPIN=   0.00000
   F   0.3928956   0.2695057  -0.4382683 SPIN=   0.00000
%ENDBLOCK POSITIONS_FRAC

# Note: total spin =  16.00

KPOINTS_MP_SPACING 0.07

%BLOCK SPECIES_POT
QC5
%ENDBLOCK SPECIES_POT

SNAP_TO_SYMMETRY
SYMMETRY_GENERATE

