#              Generated by Buildcell
#
# at 01:03:03 (GMT+1.0) 18th August 2020
# in /lustre/scratch/uccabz1/launch_tmp
# on node-c12p-003
# by uccabz1
#
# compiler GCC version 4.9.2
# options -cpp -iprefix /lustre/shared/ucl/apps/gcc/4.9.2/bin/../lib/gcc/x86_64-unknown-linux-gnu/4.9.2/ -mtune=corei7 -march=x86-64 -g -Og
#
# seed  -211542556 -1738926989   646922748 -2113175770 -1293526215  2012720866 -1203494321   139556671 -1427962475 -1556311194  -312617207  -890548900
#
#      Author: C. J. Pickard (cjp20@cam.ac.uk)
#                Space group: P4
#

%BLOCK LATTICE_ABC
      4.27433      9.67378      9.67378
     90.00000     90.00000     90.00000
%ENDBLOCK LATTICE_ABC

%BLOCK POSITIONS_FRAC
  Li   0.1724707   0.4071982  -0.2491437 SPIN=   0.00000
  Li   0.1724707  -0.4071982   0.2491437 SPIN=   0.00000
  Li   0.1724707  -0.2491437  -0.4071982 SPIN=   0.00000
  Li   0.1724707   0.2491437   0.4071982 SPIN=   0.00000
  Fe  -0.3275841   0.0792754   0.2616644 SPIN=   4.00000
  Fe  -0.3275841  -0.0792754  -0.2616644 SPIN=   4.00000
  Fe  -0.3275841   0.2616644  -0.0792754 SPIN=   4.00000
  Fe  -0.3275841  -0.2616644   0.0792754 SPIN=   4.00000
   O  -0.4614894  -0.2796489  -0.1549870 SPIN=   0.00000
   O  -0.3332282  -0.5256600  -0.1135439 SPIN=   0.00000
   O   0.0064931  -0.3834335  -0.2641788 SPIN=   0.00000
   O  -0.5226625  -0.4506327  -0.3433607 SPIN=   0.00000
   S  -0.3277218  -0.4098438  -0.2190176 SPIN=   0.00000
   O  -0.4614894   0.2796489   0.1549870 SPIN=   0.00000
   O  -0.3332282   0.5256600   0.1135439 SPIN=   0.00000
   O   0.0064931   0.3834335   0.2641788 SPIN=   0.00000
   O  -0.5226625   0.4506327   0.3433607 SPIN=   0.00000
   S  -0.3277218   0.4098438   0.2190176 SPIN=   0.00000
   O  -0.4614894  -0.1549870   0.2796489 SPIN=   0.00000
   O  -0.3332282  -0.1135439   0.5256600 SPIN=   0.00000
   O   0.0064931  -0.2641788   0.3834335 SPIN=   0.00000
   O  -0.5226625  -0.3433607   0.4506327 SPIN=   0.00000
   S  -0.3277218  -0.2190176   0.4098438 SPIN=   0.00000
   O  -0.4614894   0.1549870  -0.2796489 SPIN=   0.00000
   O  -0.3332282   0.1135439  -0.5256600 SPIN=   0.00000
   O   0.0064931   0.2641788  -0.3834335 SPIN=   0.00000
   O  -0.5226625   0.3433607  -0.4506327 SPIN=   0.00000
   S  -0.3277218   0.2190176  -0.4098438 SPIN=   0.00000
   F   0.1724025  -0.0730440  -0.2843043 SPIN=   0.00000
   F   0.1724025   0.0730440   0.2843043 SPIN=   0.00000
   F   0.1724025  -0.2843043   0.0730440 SPIN=   0.00000
   F   0.1724025   0.2843043  -0.0730440 SPIN=   0.00000
%ENDBLOCK POSITIONS_FRAC

# Note: total spin =  16.00

KPOINTS_MP_SPACING 0.07

%BLOCK SPECIES_POT
QC5
%ENDBLOCK SPECIES_POT

SNAP_TO_SYMMETRY
SYMMETRY_GENERATE

