#              Generated by Buildcell
#
# at 07:23:59 (GMT+1.0) 4th August 2020
# in /lustre/scratch/uccabz1/launch_tmp
# on node-c12f-027
# by uccabz1
#
# compiler GCC version 4.9.2
# options -cpp -iprefix /lustre/shared/ucl/apps/gcc/4.9.2/bin/../lib/gcc/x86_64-unknown-linux-gnu/4.9.2/ -mtune=corei7 -march=x86-64 -g -Og
#
# seed  1751252596  -302875404  -103570238  -199890205  -882607738 -1329935251 -1855311481  -395166838  -849745147   450715378 -1736747492 -1567002022
#
#      Author: C. J. Pickard (cjp20@cam.ac.uk)
#                Space group: Cc
#

%BLOCK LATTICE_ABC
      5.95509      8.22139      8.22139
     94.54917     93.05997     93.05997
%ENDBLOCK LATTICE_ABC

%BLOCK POSITIONS_FRAC
  Li  -0.2765292   0.3171167  -0.4409312 SPIN=   0.00000
  Li   0.2234708  -0.4409312   0.3171167 SPIN=   0.00000
  Li  -0.2296737  -0.1261314   0.3732285 SPIN=   0.00000
  Li   0.2703263   0.3732285  -0.1261314 SPIN=   0.00000
  Fe   0.4147935  -0.2133451  -0.3966860 SPIN=   3.72416
  Fe  -0.0852065  -0.3966860  -0.2133451 SPIN=   3.72416
  Fe   0.1629427   0.0412606   0.2237715 SPIN=   4.27584
  Fe  -0.3370573   0.2237715   0.0412606 SPIN=   4.27584
   O  -0.1705456  -0.4201127   0.4745382 SPIN=   0.00000
   O  -0.1550900  -0.5243831   0.1848110 SPIN=   0.00000
   O  -0.4207892  -0.3140705   0.2624010 SPIN=   0.00000
   O  -0.4866030  -0.5970345   0.3391065 SPIN=   0.00000
   S  -0.3082569  -0.4639002   0.3152141 SPIN=   0.00000
   O   0.3294544   0.4745382  -0.4201127 SPIN=   0.00000
   O   0.3449100   0.1848110  -0.5243831 SPIN=   0.00000
   O   0.0792108   0.2624010  -0.3140705 SPIN=   0.00000
   O   0.0133970   0.3391065  -0.5970345 SPIN=   0.00000
   S   0.1917431   0.3152141  -0.4639002 SPIN=   0.00000
   O   0.0837181   0.0110038  -0.1311197 SPIN=   0.00000
   O  -0.2790506   0.1284976  -0.2028532 SPIN=   0.00000
   O  -0.2463769  -0.1710634  -0.2337433 SPIN=   0.00000
   O  -0.0552103   0.0052209  -0.4207710 SPIN=   0.00000
   S  -0.1242299  -0.0065852  -0.2471218 SPIN=   0.00000
   O   0.5837181  -0.1311197   0.0110038 SPIN=   0.00000
   O   0.2209494  -0.2028532   0.1284976 SPIN=   0.00000
   O   0.2536231  -0.2337433  -0.1710634 SPIN=   0.00000
   O   0.4447897  -0.4207710   0.0052209 SPIN=   0.00000
   S   0.3757701  -0.2471218  -0.0065852 SPIN=   0.00000
   F   0.1944267   0.3319616   0.1056570 SPIN=   0.00000
   F  -0.3055733   0.1056570   0.3319616 SPIN=   0.00000
   F   0.1813118  -0.2029181   0.4318306 SPIN=   0.00000
   F  -0.3186882   0.4318306  -0.2029181 SPIN=   0.00000
%ENDBLOCK POSITIONS_FRAC

# Note: total spin =  16.00

KPOINTS_MP_SPACING 0.07

%BLOCK SPECIES_POT
QC5
%ENDBLOCK SPECIES_POT

SNAP_TO_SYMMETRY
SYMMETRY_GENERATE

