#              Generated by Buildcell
#
# at 12:33:48 (GMT+1.0) 18th August 2020
# in /lustre/scratch/uccabz1/launch_tmp
# on node-c12n-031
# by uccabz1
#
# compiler GCC version 4.9.2
# options -cpp -iprefix /lustre/shared/ucl/apps/gcc/4.9.2/bin/../lib/gcc/x86_64-unknown-linux-gnu/4.9.2/ -mtune=corei7 -march=x86-64 -g -Og
#
# seed   153074020  -251726449  -872024399  1111949730  1914495783   263414616 -1291318408  1251126529  1114604378 -1672160946 -1834669780   586924057
#
#      Author: C. J. Pickard (cjp20@cam.ac.uk)
#                Space group: P-1
#

%BLOCK LATTICE_ABC
      6.76384      8.00158      8.89199
    102.24739    103.84086    114.01406
%ENDBLOCK LATTICE_ABC

%BLOCK POSITIONS_FRAC
  Li  -0.2398783  -0.2439164   0.0126392 SPIN=   0.00000
  Li   0.2398783   0.2439164  -0.0126392 SPIN=   0.00000
  Li  -0.2291811   0.2522803   0.4878298 SPIN=   0.00000
  Li   0.2291811  -0.2522803  -0.4878298 SPIN=   0.00000
  Fe   0.2807622   0.1307225  -0.3332697 SPIN=   2.81863
  Fe  -0.2807622  -0.1307225   0.3332697 SPIN=   2.81863
  Fe  -0.2384667  -0.3839456  -0.3177418 SPIN=   5.18137
  Fe   0.2384667   0.3839456   0.3177418 SPIN=   5.18137
   O   0.4920161   0.1550684   0.2734152 SPIN=   0.00000
   O   0.1859231   0.0627975   0.3936715 SPIN=   0.00000
   O   0.3881274  -0.1323918   0.3620836 SPIN=   0.00000
   O   0.1129281  -0.1435281   0.1150036 SPIN=   0.00000
   S   0.2947487  -0.0145135   0.2860435 SPIN=   0.00000
   O  -0.4920161  -0.1550684  -0.2734152 SPIN=   0.00000
   O  -0.1859231  -0.0627975  -0.3936715 SPIN=   0.00000
   O  -0.3881274   0.1323918  -0.3620836 SPIN=   0.00000
   O  -0.1129281   0.1435281  -0.1150036 SPIN=   0.00000
   S  -0.2947487   0.0145135  -0.2860435 SPIN=   0.00000
   O  -0.0488363   0.4033998   0.3613266 SPIN=   0.00000
   O  -0.0527915   0.6770273   0.2754389 SPIN=   0.00000
   O  -0.3472384   0.5003444   0.3846728 SPIN=   0.00000
   O  -0.3623805   0.3379640   0.1090719 SPIN=   0.00000
   S  -0.2028117   0.4796838   0.2826275 SPIN=   0.00000
   O   0.0488363  -0.4033998  -0.3613266 SPIN=   0.00000
   O   0.0527915  -0.6770273  -0.2754389 SPIN=   0.00000
   O   0.3472384  -0.5003444  -0.3846728 SPIN=   0.00000
   O   0.3623805  -0.3379640  -0.1090719 SPIN=   0.00000
   S   0.2028117  -0.4796838  -0.2826275 SPIN=   0.00000
   F  -0.2719327  -0.4939808  -0.1394262 SPIN=   0.00000
   F   0.2719327   0.4939808   0.1394262 SPIN=   0.00000
   F  -0.2296634   0.0048321   0.1534567 SPIN=   0.00000
   F   0.2296634  -0.0048321  -0.1534567 SPIN=   0.00000
%ENDBLOCK POSITIONS_FRAC

# Note: total spin =  16.00

KPOINTS_MP_SPACING 0.07

%BLOCK SPECIES_POT
QC5
%ENDBLOCK SPECIES_POT

SNAP_TO_SYMMETRY
SYMMETRY_GENERATE

