#              Generated by Buildcell
#
# at 09:30:55 (GMT+1.0) 18th August 2020
# in /lustre/scratch/uccabz1/launch_tmp
# on node-c12f-027
# by uccabz1
#
# compiler GCC version 4.9.2
# options -cpp -iprefix /lustre/shared/ucl/apps/gcc/4.9.2/bin/../lib/gcc/x86_64-unknown-linux-gnu/4.9.2/ -mtune=corei7 -march=x86-64 -g -Og
#
# seed  1498669203  1127724643  1108623610  2121021104    12257070  1459445672   451793978  -676787352 -1420457891  1819434186  -108054751  1500756429
#
#      Author: C. J. Pickard (cjp20@cam.ac.uk)
#                Space group: Pm
#

%BLOCK LATTICE_ABC
      4.58290      9.26122      9.42920
     90.00000     91.83692     90.00000
%ENDBLOCK LATTICE_ABC

%BLOCK POSITIONS_FRAC
  Li   0.3946031  -0.2952616  -0.3129310 SPIN=   0.00000
  Li   0.3946031   0.2952616  -0.3129310 SPIN=   0.00000
  Li   0.0113726   0.5000000   0.0952908 SPIN=   0.00000
  Li  -0.1121610  -0.0000000  -0.4201743 SPIN=   0.00000
  Fe   0.3383915   0.0000000  -0.1854790 SPIN=   3.92325
  Fe   0.3942327   0.5000000   0.4221848 SPIN=   3.30117
  Fe  -0.1441107  -0.0000000   0.0968903 SPIN=   3.66485
  Fe   0.3757211   0.0000000   0.3784716 SPIN=   5.11072
   O   0.1045761  -0.3781554  -0.1706571 SPIN=   0.00000
   O  -0.4127411  -0.3564111  -0.1060508 SPIN=   0.00000
   O  -0.1676249  -0.1526328  -0.2232790 SPIN=   0.00000
   O  -0.0319368  -0.2161261   0.0251197 SPIN=   0.00000
   S  -0.1269317  -0.2758313  -0.1187168 SPIN=   0.00000
   O   0.1045761   0.3781554  -0.1706571 SPIN=   0.00000
   O  -0.4127411   0.3564111  -0.1060508 SPIN=   0.00000
   O  -0.1676249   0.1526328  -0.2232790 SPIN=   0.00000
   O  -0.0319368   0.2161261   0.0251197 SPIN=   0.00000
   S  -0.1269317   0.2758313  -0.1187168 SPIN=   0.00000
   O  -0.0234277  -0.1223917   0.4017584 SPIN=   0.00000
   O  -0.1622573  -0.3771337   0.4413067 SPIN=   0.00000
   O   0.1318266  -0.3119313   0.2352239 SPIN=   0.00000
   O  -0.3879532  -0.2403188   0.2407830 SPIN=   0.00000
   S  -0.1104529  -0.2629439   0.3297680 SPIN=   0.00000
   O  -0.0234277   0.1223917   0.4017584 SPIN=   0.00000
   O  -0.1622573   0.3771337   0.4413067 SPIN=   0.00000
   O   0.1318266   0.3119313   0.2352239 SPIN=   0.00000
   O  -0.3879532   0.2403188   0.2407830 SPIN=   0.00000
   S  -0.1104529   0.2629439   0.3297680 SPIN=   0.00000
   F   0.4759752   0.5000000   0.1228781 SPIN=   0.00000
   F  -0.4607290  -0.5000000  -0.3637781 SPIN=   0.00000
   F   0.4361633   0.0000000  -0.4005672 SPIN=   0.00000
   F   0.3774603   0.0000000   0.0697730 SPIN=   0.00000
%ENDBLOCK POSITIONS_FRAC

# Note: total spin =  16.00

KPOINTS_MP_SPACING 0.07

%BLOCK SPECIES_POT
QC5
%ENDBLOCK SPECIES_POT

SNAP_TO_SYMMETRY
SYMMETRY_GENERATE

