#              Generated by Buildcell
#
# at 12:04:57 (GMT+1.0) 18th August 2020
# in /lustre/scratch/uccabz1/launch_tmp
# on node-c12k-019
# by uccabz1
#
# compiler GCC version 4.9.2
# options -cpp -iprefix /lustre/shared/ucl/apps/gcc/4.9.2/bin/../lib/gcc/x86_64-unknown-linux-gnu/4.9.2/ -mtune=corei7 -march=x86-64 -g -Og
#
# seed -1612538204 -1676202365  -351301165 -1691318807   676961273  1108295354 -1836286453   758651384   377537967   617501616  -162575542 -1508446561
#
#      Author: C. J. Pickard (cjp20@cam.ac.uk)
#                Space group: C2/c
#

%BLOCK LATTICE_ABC
      7.25234      7.69543      7.69543
     68.65770     89.44276     89.44276
%ENDBLOCK LATTICE_ABC

%BLOCK POSITIONS_FRAC
  Li  -0.2574419  -0.0816351   0.4195686 SPIN=   0.00000
  Li  -0.2425581  -0.4195686   0.0816351 SPIN=   0.00000
  Li   0.2574419   0.0816351  -0.4195686 SPIN=   0.00000
  Li   0.2425581   0.4195686  -0.0816351 SPIN=   0.00000
  Fe   0.3148912   0.4394896   0.2813715 SPIN=   4.00000
  Fe   0.1851088  -0.2813715  -0.4394896 SPIN=   4.00000
  Fe  -0.3148912  -0.4394896  -0.2813715 SPIN=   4.00000
  Fe  -0.1851088   0.2813715   0.4394896 SPIN=   4.00000
   O   0.5429891  -0.1190000   0.2344973 SPIN=   0.00000
   O   0.2131232  -0.0474746   0.2627992 SPIN=   0.00000
   O   0.4117963   0.1838712   0.0304692 SPIN=   0.00000
   O   0.4532799   0.1182846   0.3673277 SPIN=   0.00000
   S   0.4052971   0.0339203   0.2237733 SPIN=   0.00000
   O  -0.0429891  -0.2344973   0.1190000 SPIN=   0.00000
   O   0.2868768  -0.2627992   0.0474746 SPIN=   0.00000
   O   0.0882037  -0.0304692  -0.1838712 SPIN=   0.00000
   O   0.0467201  -0.3673277  -0.1182846 SPIN=   0.00000
   S   0.0947029  -0.2237733  -0.0339203 SPIN=   0.00000
   O  -0.5429891   0.1190000  -0.2344973 SPIN=   0.00000
   O  -0.2131232   0.0474746  -0.2627992 SPIN=   0.00000
   O  -0.4117963  -0.1838712  -0.0304692 SPIN=   0.00000
   O  -0.4532799  -0.1182846  -0.3673277 SPIN=   0.00000
   S  -0.4052971  -0.0339203  -0.2237733 SPIN=   0.00000
   O   0.0429891   0.2344973  -0.1190000 SPIN=   0.00000
   O  -0.2868768   0.2627992  -0.0474746 SPIN=   0.00000
   O  -0.0882037   0.0304692   0.1838712 SPIN=   0.00000
   O  -0.0467201   0.3673277   0.1182846 SPIN=   0.00000
   S  -0.0947029   0.2237733   0.0339203 SPIN=   0.00000
   F   0.1044514   0.2840960   0.4608404 SPIN=   0.00000
   F   0.3955486  -0.4608404  -0.2840960 SPIN=   0.00000
   F  -0.1044514  -0.2840960  -0.4608404 SPIN=   0.00000
   F  -0.3955486   0.4608404   0.2840960 SPIN=   0.00000
%ENDBLOCK POSITIONS_FRAC

# Note: total spin =  16.00

KPOINTS_MP_SPACING 0.07

%BLOCK SPECIES_POT
QC5
%ENDBLOCK SPECIES_POT

SNAP_TO_SYMMETRY
SYMMETRY_GENERATE

