#              Generated by Buildcell
#
# at 23:59:58 (GMT+1.0) 17th August 2020
# in /scratch/scratch/uccabz1/launch_tmp
# on node-k10c-026
# by uccabz1
#
# compiler GCC version 4.9.2
# options -cpp -iprefix /scratch/UCL/applications/gcc/4.9.2/bin/../lib/gcc/x86_64-unknown-linux-gnu/4.9.2/ -mtune=corei7 -march=x86-64 -g -O2
#
# seed  -752747070 -1764916276  1619743719  1917350088    46845707  1610157254  -845322942  1647787777   934135479 -1999587071 -1040773404 -1388254732
#
#      Author: C. J. Pickard (cjp20@cam.ac.uk)
#                Space group: C2
#

%BLOCK LATTICE_ABC
      7.35949      7.35949      8.48067
    102.20191    102.20191    110.37381
%ENDBLOCK LATTICE_ABC

%BLOCK POSITIONS_FRAC
  Li  -0.4375345   0.0861990  -0.3864229 SPIN=   0.00000
  Li  -0.0861990   0.4375345   0.3864229 SPIN=   0.00000
  Li   0.4810539  -0.3847071  -0.2085535 SPIN=   0.00000
  Li   0.3847071  -0.4810539   0.2085535 SPIN=   0.00000
  Fe   0.4568279   0.1508775   0.2652678 SPIN=   4.21857
  Fe  -0.1508775  -0.4568279  -0.2652678 SPIN=   4.21857
  Fe   0.0398720   0.1516520  -0.1591947 SPIN=   3.78143
  Fe  -0.1516520  -0.0398720   0.1591947 SPIN=   3.78143
   O   0.0310478   0.1065169  -0.5874574 SPIN=   0.00000
   O   0.2805409   0.2480558  -0.2992650 SPIN=   0.00000
   O   0.1699079   0.4754419  -0.4336560 SPIN=   0.00000
   O   0.3913640   0.3276502  -0.5418052 SPIN=   0.00000
   S   0.2182152   0.2894162  -0.4655459 SPIN=   0.00000
   O  -0.1065169  -0.0310478   0.5874574 SPIN=   0.00000
   O  -0.2480558  -0.2805409   0.2992650 SPIN=   0.00000
   O  -0.4754419  -0.1699079   0.4336560 SPIN=   0.00000
   O  -0.3276502  -0.3913640   0.5418052 SPIN=   0.00000
   S  -0.2894162  -0.2182152   0.4655459 SPIN=   0.00000
   O   0.1861599  -0.4492536   0.3309991 SPIN=   0.00000
   O   0.2612804  -0.2493332   0.1339922 SPIN=   0.00000
   O   0.1694330  -0.1124923   0.3834613 SPIN=   0.00000
   O  -0.0920196  -0.4063156   0.1426053 SPIN=   0.00000
   S   0.1312134  -0.3043487   0.2477645 SPIN=   0.00000
   O   0.4492536  -0.1861599  -0.3309991 SPIN=   0.00000
   O   0.2493332  -0.2612804  -0.1339922 SPIN=   0.00000
   O   0.1124923  -0.1694330  -0.3834613 SPIN=   0.00000
   O   0.4063156   0.0920196  -0.1426053 SPIN=   0.00000
   S   0.3043487  -0.1312134  -0.2477645 SPIN=   0.00000
   F  -0.2441242  -0.2402906  -0.0981015 SPIN=   0.00000
   F   0.2402906   0.2441242   0.0981015 SPIN=   0.00000
   F  -0.2000886   0.2581983  -0.2130725 SPIN=   0.00000
   F  -0.2581983   0.2000886   0.2130725 SPIN=   0.00000
%ENDBLOCK POSITIONS_FRAC

# Note: total spin =  16.00

KPOINTS_MP_SPACING 0.07

%BLOCK SPECIES_POT
QC5
%ENDBLOCK SPECIES_POT

SNAP_TO_SYMMETRY
SYMMETRY_GENERATE

