#              Generated by Buildcell
#
# at 07:35:03 (GMT+1.0) 18th August 2020
# in /scratch/scratch/uccabz1/launch_tmp
# on node-k10e-018
# by uccabz1
#
# compiler GCC version 4.9.2
# options -cpp -iprefix /scratch/UCL/applications/gcc/4.9.2/bin/../lib/gcc/x86_64-unknown-linux-gnu/4.9.2/ -mtune=corei7 -march=x86-64 -g -O2
#
# seed  -853711502 -1047096558  1501525692  -212850398 -1166705093  -293067700  1086994743  2124994991   993372541 -1473752492   401296918  -900125067
#
#      Author: C. J. Pickard (cjp20@cam.ac.uk)
#                Space group: Aea2
#

%BLOCK LATTICE_ABC
      7.37606      7.37606      7.43074
     90.00000     90.00000     98.34291
%ENDBLOCK LATTICE_ABC

%BLOCK POSITIONS_FRAC
  Li  -0.4517668  -0.0233517   0.4552593 SPIN=   0.00000
  Li   0.0233517   0.4517668  -0.4552593 SPIN=   0.00000
  Li  -0.4766483  -0.0482332  -0.0447407 SPIN=   0.00000
  Li   0.0482332   0.4766483   0.0447407 SPIN=   0.00000
  Fe  -0.2548409  -0.4516026   0.2869459 SPIN=   4.00000
  Fe   0.4516026   0.2548409  -0.2869459 SPIN=   4.00000
  Fe  -0.0483974  -0.2451591  -0.2130541 SPIN=   4.00000
  Fe   0.2451591   0.0483974   0.2130541 SPIN=   4.00000
   O  -0.5454399  -0.4593022   0.3228344 SPIN=   0.00000
   O  -0.6200091  -0.2091483   0.1267324 SPIN=   0.00000
   O  -0.3757761  -0.3886798   0.0380953 SPIN=   0.00000
   O  -0.3269511  -0.1726188   0.2942162 SPIN=   0.00000
   O   0.4593022   0.5454399  -0.3228344 SPIN=   0.00000
   O   0.2091483   0.6200091  -0.1267324 SPIN=   0.00000
   O   0.3886798   0.3757761  -0.0380953 SPIN=   0.00000
   O   0.1726188   0.3269511  -0.2942162 SPIN=   0.00000
   O  -0.0406978   0.0454399  -0.1771656 SPIN=   0.00000
   O  -0.2908517   0.1200091  -0.3732676 SPIN=   0.00000
   O  -0.1113202  -0.1242239  -0.4619047 SPIN=   0.00000
   O  -0.3273812  -0.1730489  -0.2057838 SPIN=   0.00000
   O  -0.0454399   0.0406978   0.1771656 SPIN=   0.00000
   O  -0.1200091   0.2908517   0.3732676 SPIN=   0.00000
   O   0.1242239   0.1113202   0.4619047 SPIN=   0.00000
   O   0.1730489   0.3273812   0.2057838 SPIN=   0.00000
   S  -0.1196035   0.1196035   0.0000000 SPIN=   0.00000
   S   0.3803965  -0.3803965   0.5000000 SPIN=   0.00000
   S  -0.0781373   0.0781373   0.5000000 SPIN=   0.00000
   S   0.4218627  -0.4218627   0.0000000 SPIN=   0.00000
   F   0.4766171   0.1790098   0.2916762 SPIN=   0.00000
   F  -0.1790098  -0.4766171  -0.2916762 SPIN=   0.00000
   F   0.3209902   0.0233829  -0.2083238 SPIN=   0.00000
   F  -0.0233829  -0.3209902   0.2083238 SPIN=   0.00000
%ENDBLOCK POSITIONS_FRAC

# Note: total spin =  16.00

KPOINTS_MP_SPACING 0.07

%BLOCK SPECIES_POT
QC5
%ENDBLOCK SPECIES_POT

SNAP_TO_SYMMETRY
SYMMETRY_GENERATE

