#              Generated by Buildcell
#
# at 08:00:10 (GMT+1.0) 4th August 2020
# in /lustre/scratch/uccabz1/launch_tmp
# on node-c12j-016
# by uccabz1
#
# compiler GCC version 4.9.2
# options -cpp -iprefix /lustre/shared/ucl/apps/gcc/4.9.2/bin/../lib/gcc/x86_64-unknown-linux-gnu/4.9.2/ -mtune=corei7 -march=x86-64 -g -Og
#
# seed   607468055  2029645588  1950309410  1200484451  1982632627 -1070896699 -1692467811 -1614218254  1500034584  1943465805  1321723087 -2055515504
#
#      Author: C. J. Pickard (cjp20@cam.ac.uk)
#                Space group: P41
#

%BLOCK LATTICE_ABC
      5.71893      5.71893     12.23011
     90.00000     90.00000     90.00000
%ENDBLOCK LATTICE_ABC

%BLOCK POSITIONS_FRAC
  Li  -0.3067249   0.3200299  -0.3104031 SPIN=   0.00000
  Li   0.3067249  -0.3200299   0.1895969 SPIN=   0.00000
  Li  -0.3200299  -0.3067249  -0.0604031 SPIN=   0.00000
  Li   0.3200299   0.3067249   0.4395969 SPIN=   0.00000
  Fe   0.1547097  -0.3367087  -0.1754272 SPIN=   4.00000
  Fe  -0.1547097   0.3367087   0.3245728 SPIN=   4.00000
  Fe   0.3367087   0.1547097   0.0745728 SPIN=   4.00000
  Fe  -0.3367087  -0.1547097  -0.4254272 SPIN=   4.00000
   O  -0.3104368   0.1887762   0.0382611 SPIN=   0.00000
   O   0.0442947   0.3867495  -0.0314828 SPIN=   0.00000
   O  -0.3107549   0.3643264  -0.1466998 SPIN=   0.00000
   O  -0.0787394   0.0074910  -0.1101458 SPIN=   0.00000
   S  -0.1639091   0.2368358  -0.0625168 SPIN=   0.00000
   O   0.3104368  -0.1887762   0.5382611 SPIN=   0.00000
   O  -0.0442947  -0.3867495   0.4685172 SPIN=   0.00000
   O   0.3107549  -0.3643264   0.3533002 SPIN=   0.00000
   O   0.0787394  -0.0074910   0.3898542 SPIN=   0.00000
   S   0.1639091  -0.2368358   0.4374832 SPIN=   0.00000
   O  -0.1887762  -0.3104368   0.2882611 SPIN=   0.00000
   O  -0.3867495   0.0442947   0.2185172 SPIN=   0.00000
   O  -0.3643264  -0.3107549   0.1033002 SPIN=   0.00000
   O  -0.0074910  -0.0787394   0.1398542 SPIN=   0.00000
   S  -0.2368358  -0.1639091   0.1874832 SPIN=   0.00000
   O   0.1887762   0.3104368  -0.2117389 SPIN=   0.00000
   O   0.3867495  -0.0442947  -0.2814828 SPIN=   0.00000
   O   0.3643264   0.3107549  -0.3966998 SPIN=   0.00000
   O   0.0074910   0.0787394  -0.3601458 SPIN=   0.00000
   S   0.2368358   0.1639091  -0.3125168 SPIN=   0.00000
   F  -0.3585745   0.1517538   0.4473323 SPIN=   0.00000
   F   0.3585745  -0.1517538  -0.0526677 SPIN=   0.00000
   F  -0.1517538  -0.3585745  -0.3026677 SPIN=   0.00000
   F   0.1517538   0.3585745   0.1973323 SPIN=   0.00000
%ENDBLOCK POSITIONS_FRAC

# Note: total spin =  16.00

KPOINTS_MP_SPACING 0.07

%BLOCK SPECIES_POT
QC5
%ENDBLOCK SPECIES_POT

SNAP_TO_SYMMETRY
SYMMETRY_GENERATE

