#              Generated by Buildcell
#
# at 15:46:00 (GMT+1.0) 18th August 2020
# in /lustre/scratch/uccabz1/launch_tmp
# on node-c12k-033
# by uccabz1
#
# compiler GCC version 4.9.2
# options -cpp -iprefix /lustre/shared/ucl/apps/gcc/4.9.2/bin/../lib/gcc/x86_64-unknown-linux-gnu/4.9.2/ -mtune=corei7 -march=x86-64 -g -Og
#
# seed -1062884603  2035182139  1948185007  -628052049  2004249567   -74471928  1332461081   604043480    93759569  1507985562 -1602908374   -21891540
#
#      Author: C. J. Pickard (cjp20@cam.ac.uk)
#                Space group: Pca21
#

%BLOCK LATTICE_ABC
      4.02301      8.04964     12.35187
     90.00000     90.00000     90.00000
%ENDBLOCK LATTICE_ABC

%BLOCK POSITIONS_FRAC
  Li   0.4486791   0.3577184   0.4132000 SPIN=   0.00000
  Li  -0.0513209  -0.3577184  -0.4132000 SPIN=   0.00000
  Li   0.4486791  -0.3577184  -0.0868000 SPIN=   0.00000
  Li  -0.0513209   0.3577184   0.0868000 SPIN=   0.00000
  Fe   0.1271934   0.2944169  -0.3773561 SPIN=   4.00000
  Fe  -0.3728066  -0.2944169   0.3773561 SPIN=   4.00000
  Fe   0.1271934  -0.2944169   0.1226439 SPIN=   4.00000
  Fe  -0.3728066   0.2944169  -0.1226439 SPIN=   4.00000
   O   0.0725108  -0.1052559  -0.3831199 SPIN=   0.00000
   O   0.5951544   0.0360844  -0.3313041 SPIN=   0.00000
   O   0.5655306  -0.1232757  -0.5023804 SPIN=   0.00000
   O   0.5609796  -0.2708073  -0.3265973 SPIN=   0.00000
   S   0.4485439  -0.1158136  -0.3858504 SPIN=   0.00000
   O  -0.4274892   0.1052559   0.3831199 SPIN=   0.00000
   O   0.0951544  -0.0360844   0.3313041 SPIN=   0.00000
   O   0.0655306   0.1232757   0.5023804 SPIN=   0.00000
   O   0.0609796   0.2708073   0.3265973 SPIN=   0.00000
   S  -0.0514561   0.1158136   0.3858504 SPIN=   0.00000
   O   0.0725108   0.1052559   0.1168801 SPIN=   0.00000
   O   0.5951544  -0.0360844   0.1686959 SPIN=   0.00000
   O   0.5655306   0.1232757  -0.0023804 SPIN=   0.00000
   O   0.5609796   0.2708073   0.1734027 SPIN=   0.00000
   S   0.4485439   0.1158136   0.1141496 SPIN=   0.00000
   O  -0.4274892  -0.1052559  -0.1168801 SPIN=   0.00000
   O   0.0951544   0.0360844  -0.1686959 SPIN=   0.00000
   O   0.0655306  -0.1232757   0.0023804 SPIN=   0.00000
   O   0.0609796  -0.2708073  -0.1734027 SPIN=   0.00000
   S  -0.0514561  -0.1158136  -0.1141496 SPIN=   0.00000
   F   0.0786050   0.3632786  -0.1090866 SPIN=   0.00000
   F  -0.4213950  -0.3632786   0.1090866 SPIN=   0.00000
   F   0.0786050  -0.3632786   0.3909134 SPIN=   0.00000
   F  -0.4213950   0.3632786  -0.3909134 SPIN=   0.00000
%ENDBLOCK POSITIONS_FRAC

# Note: total spin =  16.00

KPOINTS_MP_SPACING 0.07

%BLOCK SPECIES_POT
QC5
%ENDBLOCK SPECIES_POT

SNAP_TO_SYMMETRY
SYMMETRY_GENERATE

