#              Generated by Buildcell
#
# at 11:27:28 (GMT+1.0) 18th August 2020
# in /scratch/scratch/uccabz1/launch_tmp
# on node-k10b-033
# by uccabz1
#
# compiler GCC version 4.9.2
# options -cpp -iprefix /scratch/UCL/applications/gcc/4.9.2/bin/../lib/gcc/x86_64-unknown-linux-gnu/4.9.2/ -mtune=corei7 -march=x86-64 -g -O2
#
# seed -2038018982  1495769339  -439362180 -1505916982   291210057  1954409649   747733864  1767888371 -1844186966   547867676   177603919  1687503593
#
#      Author: C. J. Pickard (cjp20@cam.ac.uk)
#                Space group: Pm
#

%BLOCK LATTICE_ABC
      4.31454      8.75353     10.65539
     90.00000     90.00000     96.29584
%ENDBLOCK LATTICE_ABC

%BLOCK POSITIONS_FRAC
  Li   0.1791068   0.3125665  -0.2278104 SPIN=   0.00000
  Li   0.1791068   0.3125665   0.2278104 SPIN=   0.00000
  Li  -0.4953712   0.0809668   0.5000000 SPIN=   0.00000
  Li  -0.2537186  -0.3940148   0.5000000 SPIN=   0.00000
  Fe   0.4593286   0.0195223  -0.2218230 SPIN=   2.89296
  Fe   0.4593286   0.0195223   0.2218230 SPIN=   2.89296
  Fe   0.0545172   0.3127878   0.5000000 SPIN=   4.06035
  Fe   0.0499988  -0.2400745   0.0000000 SPIN=   6.15373
   O  -0.3796321  -0.2765832   0.1121164 SPIN=   0.00000
   O  -0.8372174  -0.4260401   0.2097449 SPIN=   0.00000
   O  -0.3240880  -0.4066975   0.3158032 SPIN=   0.00000
   O  -0.4108350  -0.5603536   0.1215056 SPIN=   0.00000
   S  -0.4879432  -0.4174186   0.1897925 SPIN=   0.00000
   O  -0.3796321  -0.2765832  -0.1121164 SPIN=   0.00000
   O  -0.8372174  -0.4260401  -0.2097449 SPIN=   0.00000
   O  -0.3240880  -0.4066975  -0.3158032 SPIN=   0.00000
   O  -0.4108350  -0.5603536  -0.1215056 SPIN=   0.00000
   S  -0.4879432  -0.4174186  -0.1897925 SPIN=   0.00000
   O   0.1107181  -0.2196039  -0.3512406 SPIN=   0.00000
   O   0.1354516   0.0606005  -0.3881782 SPIN=   0.00000
   O  -0.0760192  -0.0503902  -0.1881447 SPIN=   0.00000
   O  -0.3749989  -0.0988277  -0.3850308 SPIN=   0.00000
   O   0.1107181  -0.2196039   0.3512406 SPIN=   0.00000
   O   0.1354516   0.0606005   0.3881782 SPIN=   0.00000
   O  -0.0760192  -0.0503902   0.1881447 SPIN=   0.00000
   O  -0.3749989  -0.0988277   0.3850308 SPIN=   0.00000
   S  -0.0661268   0.2757529  -0.0000000 SPIN=   0.00000
   S  -0.0367887  -0.0971562  -0.5000000 SPIN=   0.00000
   F  -0.3279301   0.2259997  -0.3098555 SPIN=   0.00000
   F  -0.3279301   0.2259997   0.3098555 SPIN=   0.00000
   F   0.2416182  -0.4569240   0.5000000 SPIN=   0.00000
   F   0.3632334  -0.0405634  -0.0000000 SPIN=   0.00000
%ENDBLOCK POSITIONS_FRAC

# Note: total spin =  16.00

KPOINTS_MP_SPACING 0.07

%BLOCK SPECIES_POT
QC5
%ENDBLOCK SPECIES_POT

SNAP_TO_SYMMETRY
SYMMETRY_GENERATE

