#              Generated by Buildcell
#
# at 05:57:26 (GMT+1.0) 4th August 2020
# in /lustre/scratch/uccabz1/launch_tmp
# on node-c12e-013
# by uccabz1
#
# compiler GCC version 4.9.2
# options -cpp -iprefix /lustre/shared/ucl/apps/gcc/4.9.2/bin/../lib/gcc/x86_64-unknown-linux-gnu/4.9.2/ -mtune=corei7 -march=x86-64 -g -Og
#
# seed  -344804388 -1879892120 -2100066839 -2107436377   330802879  1814817256   193027489  -857195482  1654824675  1771505660   -35527387   341599773
#
#      Author: C. J. Pickard (cjp20@cam.ac.uk)
#                Space group: P-1
#

%BLOCK LATTICE_ABC
      4.10960      6.55411     15.06555
     97.29482     90.20013     96.31283
%ENDBLOCK LATTICE_ABC

%BLOCK POSITIONS_FRAC
  Li  -0.2017168  -0.1064600  -0.2176774 SPIN=   0.00000
  Li   0.2017168   0.1064600   0.2176774 SPIN=   0.00000
  Li  -0.2814821  -0.2499021   0.4662707 SPIN=   0.00000
  Li   0.2814821   0.2499021  -0.4662707 SPIN=   0.00000
  Fe   0.2953632  -0.2862169  -0.3673471 SPIN=   2.63527
  Fe  -0.2953632   0.2862169   0.3673471 SPIN=   2.63527
  Fe   0.2137922   0.3032178  -0.0645077 SPIN=   5.36473
  Fe  -0.2137922  -0.3032178   0.0645077 SPIN=   5.36473
   O   0.0079988  -0.0502394   0.3590416 SPIN=   0.00000
   O  -0.5293640  -0.1493128   0.2818748 SPIN=   0.00000
   O  -0.1878811  -0.4200126   0.3145946 SPIN=   0.00000
   O  -0.0182513  -0.1952655   0.1989598 SPIN=   0.00000
   S  -0.1818744  -0.2037076   0.2886177 SPIN=   0.00000
   O  -0.0079988   0.0502394  -0.3590416 SPIN=   0.00000
   O   0.5293640   0.1493128  -0.2818748 SPIN=   0.00000
   O   0.1878811   0.4200126  -0.3145946 SPIN=   0.00000
   O   0.0182513   0.1952655  -0.1989598 SPIN=   0.00000
   S   0.1818744   0.2037076  -0.2886177 SPIN=   0.00000
   O  -0.0922964  -0.2284618  -0.1030465 SPIN=   0.00000
   O   0.3960906  -0.0137798  -0.1490572 SPIN=   0.00000
   O   0.3931740  -0.3938340  -0.1591847 SPIN=   0.00000
   O   0.4168539  -0.1805163  -0.0109852 SPIN=   0.00000
   S   0.2784555  -0.2041480  -0.1055684 SPIN=   0.00000
   O   0.0922964   0.2284618   0.1030465 SPIN=   0.00000
   O  -0.3960906   0.0137798   0.1490572 SPIN=   0.00000
   O  -0.3931740   0.3938340   0.1591847 SPIN=   0.00000
   O  -0.4168539   0.1805163   0.0109852 SPIN=   0.00000
   S  -0.2784555   0.2041480   0.1055684 SPIN=   0.00000
   F  -0.2502413  -0.3264404  -0.3089332 SPIN=   0.00000
   F   0.2502413   0.3264404   0.3089332 SPIN=   0.00000
   F   0.2616362  -0.2545003   0.4954928 SPIN=   0.00000
   F  -0.2616362   0.2545003  -0.4954928 SPIN=   0.00000
%ENDBLOCK POSITIONS_FRAC

# Note: total spin =  16.00

KPOINTS_MP_SPACING 0.07

%BLOCK SPECIES_POT
QC5
%ENDBLOCK SPECIES_POT

SNAP_TO_SYMMETRY
SYMMETRY_GENERATE

