#              Generated by Buildcell
#
# at 08:27:21 (GMT+1.0) 18th August 2020
# in /lustre/scratch/uccabz1/launch_tmp
# on node-c12h-020
# by uccabz1
#
# compiler GCC version 4.9.2
# options -cpp -iprefix /lustre/shared/ucl/apps/gcc/4.9.2/bin/../lib/gcc/x86_64-unknown-linux-gnu/4.9.2/ -mtune=corei7 -march=x86-64 -g -Og
#
# seed -1212842542  1095459209 -1980937652  -935411420   265253143   618181698  -676329745 -2084581605   491457042 -1054590295 -1052860827  2147333397
#
#      Author: C. J. Pickard (cjp20@cam.ac.uk)
#                Space group: Pma2
#

%BLOCK LATTICE_ABC
      3.91907      8.51435     11.98740
     90.00000     90.00000     90.00000
%ENDBLOCK LATTICE_ABC

%BLOCK POSITIONS_FRAC
  Li  -0.1071425   0.0239790  -0.2500000 SPIN=   0.00000
  Li  -0.1071425  -0.0239790   0.2500000 SPIN=   0.00000
  Li  -0.3648190  -0.4314931  -0.2500000 SPIN=   0.00000
  Li  -0.3648190   0.4314931   0.2500000 SPIN=   0.00000
  Fe   0.1794288   0.3372075  -0.4009532 SPIN=   4.00000
  Fe   0.1794288  -0.3372075   0.4009532 SPIN=   4.00000
  Fe   0.1794288  -0.3372075   0.0990468 SPIN=   4.00000
  Fe   0.1794288   0.3372075  -0.0990468 SPIN=   4.00000
   O  -0.2510652   0.2367755   0.5203068 SPIN=   0.00000
   O  -0.7520492   0.2181099   0.3953192 SPIN=   0.00000
   O  -0.3287597   0.0025398   0.4007267 SPIN=   0.00000
   S  -0.3768795   0.1788532   0.4080588 SPIN=   0.00000
   O  -0.2510652  -0.2367755  -0.5203068 SPIN=   0.00000
   O  -0.7520492  -0.2181099  -0.3953192 SPIN=   0.00000
   O  -0.3287597  -0.0025398  -0.4007267 SPIN=   0.00000
   S  -0.3768795  -0.1788532  -0.4080588 SPIN=   0.00000
   O  -0.2510652  -0.2367755   0.0203068 SPIN=   0.00000
   O  -0.7520492  -0.2181099  -0.1046808 SPIN=   0.00000
   O  -0.3287597  -0.0025398  -0.0992733 SPIN=   0.00000
   S  -0.3768795  -0.1788532  -0.0919412 SPIN=   0.00000
   O  -0.2510652   0.2367755  -0.0203068 SPIN=   0.00000
   O  -0.7520492   0.2181099   0.1046808 SPIN=   0.00000
   O  -0.3287597   0.0025398   0.0992733 SPIN=   0.00000
   S  -0.3768795   0.1788532   0.0919412 SPIN=   0.00000
   O   0.3553284  -0.0602048  -0.2500000 SPIN=   0.00000
   O   0.3553284   0.0602048   0.2500000 SPIN=   0.00000
   O   0.1828760   0.0000000   0.0000000 SPIN=   0.00000
   O   0.1828760   0.0000000  -0.5000000 SPIN=   0.00000
   F  -0.3790696  -0.2091336   0.2500000 SPIN=   0.00000
   F  -0.3790696   0.2091336  -0.2500000 SPIN=   0.00000
   F   0.1224953  -0.4256094  -0.2500000 SPIN=   0.00000
   F   0.1224953   0.4256094   0.2500000 SPIN=   0.00000
%ENDBLOCK POSITIONS_FRAC

# Note: total spin =  16.00

KPOINTS_MP_SPACING 0.07

%BLOCK SPECIES_POT
QC5
%ENDBLOCK SPECIES_POT

SNAP_TO_SYMMETRY
SYMMETRY_GENERATE

