#              Generated by Buildcell
#
# at 08:43:06 (GMT+1.0) 4th August 2020
# in /lustre/scratch/uccabz1/launch_tmp
# on node-y12q-003
# by uccabz1
#
# compiler GCC version 4.9.2
# options -cpp -iprefix /lustre/shared/ucl/apps/gcc/4.9.2/bin/../lib/gcc/x86_64-unknown-linux-gnu/4.9.2/ -mtune=corei7 -march=x86-64 -g -Og
#
# seed -1812440326 -2145198640  1442925877  2003980961   718561148   744424768  -209739415  1878866628   344531486  1924331606   776371111   482700318
#
#      Author: C. J. Pickard (cjp20@cam.ac.uk)
#                Space group: P21/c
#

%BLOCK LATTICE_ABC
      7.10361      7.35760      8.02760
     90.00000    107.56712     90.00000
%ENDBLOCK LATTICE_ABC

%BLOCK POSITIONS_FRAC
  Li  -0.3789560  -0.1016657  -0.1425220 SPIN=   0.00000
  Li  -0.1210440   0.3983343  -0.3574780 SPIN=   0.00000
  Li   0.3789560   0.1016657   0.1425220 SPIN=   0.00000
  Li   0.1210440  -0.3983343   0.3574780 SPIN=   0.00000
  Fe  -0.4555116  -0.2483803   0.4834621 SPIN=   4.00000
  Fe  -0.0444884   0.2516197   0.0165379 SPIN=   4.00000
  Fe   0.4555116   0.2483803  -0.4834621 SPIN=   4.00000
  Fe   0.0444884  -0.2516197  -0.0165379 SPIN=   4.00000
   O  -0.0950163  -0.5173562   0.1476825 SPIN=   0.00000
   O  -0.3288537  -0.2597573   0.0655579 SPIN=   0.00000
   O  -0.2170920  -0.3683145   0.3715537 SPIN=   0.00000
   O  -0.4428999  -0.5573863   0.1417553 SPIN=   0.00000
   S  -0.2709655  -0.4257036   0.1816374 SPIN=   0.00000
   O  -0.4049837  -0.0173562   0.3523175 SPIN=   0.00000
   O  -0.1711463   0.2402427   0.4344421 SPIN=   0.00000
   O  -0.2829080   0.1316855   0.1284463 SPIN=   0.00000
   O  -0.0571001  -0.0573863   0.3582447 SPIN=   0.00000
   S  -0.2290345   0.0742964   0.3183626 SPIN=   0.00000
   O   0.0950163   0.5173562  -0.1476825 SPIN=   0.00000
   O   0.3288537   0.2597573  -0.0655579 SPIN=   0.00000
   O   0.2170920   0.3683145  -0.3715537 SPIN=   0.00000
   O   0.4428999   0.5573863  -0.1417553 SPIN=   0.00000
   S   0.2709655   0.4257036  -0.1816374 SPIN=   0.00000
   O   0.4049837   0.0173562  -0.3523175 SPIN=   0.00000
   O   0.1711463  -0.2402427  -0.4344421 SPIN=   0.00000
   O   0.2829080  -0.1316855  -0.1284463 SPIN=   0.00000
   O   0.0571001   0.0573863  -0.3582447 SPIN=   0.00000
   S   0.2290345  -0.0742964  -0.3183626 SPIN=   0.00000
   F   0.2256194  -0.1124260   0.2110471 SPIN=   0.00000
   F   0.2743806   0.3875740   0.2889529 SPIN=   0.00000
   F  -0.2256194   0.1124260  -0.2110471 SPIN=   0.00000
   F  -0.2743806  -0.3875740  -0.2889529 SPIN=   0.00000
%ENDBLOCK POSITIONS_FRAC

# Note: total spin =  16.00

KPOINTS_MP_SPACING 0.07

%BLOCK SPECIES_POT
QC5
%ENDBLOCK SPECIES_POT

SNAP_TO_SYMMETRY
SYMMETRY_GENERATE

