#              Generated by Buildcell
#
# at 06:26:15 (GMT+1.0) 4th August 2020
# in /lustre/scratch/uccabz1/launch_tmp
# on node-c12d-009
# by uccabz1
#
# compiler GCC version 4.9.2
# options -cpp -iprefix /lustre/shared/ucl/apps/gcc/4.9.2/bin/../lib/gcc/x86_64-unknown-linux-gnu/4.9.2/ -mtune=corei7 -march=x86-64 -g -Og
#
# seed -1589187911   635992130  -530412905  -934415275   188936035 -1751165919  1448505337  1263234147 -1618039196  -564508347  -119725015 -1668891809
#
#      Author: C. J. Pickard (cjp20@cam.ac.uk)
#                Space group: Ima2
#

%BLOCK LATTICE_ABC
      8.04843      8.22657      8.22657
     64.03916     60.71374     60.71374
%ENDBLOCK LATTICE_ABC

%BLOCK POSITIONS_FRAC
  Li  -0.4999770  -0.0000230  -0.0000230 SPIN=   0.00000
  Li  -0.4999770  -0.5000230   0.4999770 SPIN=   0.00000
  Li   0.0426549  -0.0853175   0.4146825 SPIN=   0.00000
  Li  -0.3720199   0.4146825  -0.0853175 SPIN=   0.00000
  Fe  -0.0509216   0.0509216   0.0509216 SPIN=   4.52537
  Fe  -0.0509216   0.5509216  -0.4490784 SPIN=   4.52537
  Fe  -0.4850408  -0.1035791   0.3964209 SPIN=   3.47463
  Fe   0.1921990   0.3964209  -0.1035791 SPIN=   3.47463
   O   0.5467138  -0.8294300   0.2371179 SPIN=   0.00000
   O   0.3470206  -0.7054386   0.5281406 SPIN=   0.00000
   O   0.2467758  -0.5276453   0.2390061 SPIN=   0.00000
   O   0.5599354  -0.5333961   0.2332156 SPIN=   0.00000
   S   0.4251114  -0.6489775   0.3093701 SPIN=   0.00000
   O   0.0455983  -0.7628821   0.1705700 SPIN=   0.00000
   O  -0.1697226  -0.4718594   0.2945614 SPIN=   0.00000
   O   0.0418634  -0.7609939   0.4723547 SPIN=   0.00000
   O  -0.2597549  -0.7667844   0.4666039 SPIN=   0.00000
   S  -0.0855040  -0.6906299   0.3510225 SPIN=   0.00000
   O   0.0455983  -0.3294300  -0.2628821 SPIN=   0.00000
   O  -0.1697226  -0.2054386   0.0281406 SPIN=   0.00000
   O   0.0418634  -0.0276453  -0.2609939 SPIN=   0.00000
   O  -0.2597549  -0.0333961  -0.2667844 SPIN=   0.00000
   S  -0.0855040  -0.1489775  -0.1906299 SPIN=   0.00000
   O   0.5467138  -0.2628821  -0.3294300 SPIN=   0.00000
   O   0.3470206   0.0281406  -0.2054386 SPIN=   0.00000
   O   0.2467758  -0.2609939  -0.0276453 SPIN=   0.00000
   O   0.5599354  -0.2667844  -0.0333961 SPIN=   0.00000
   S   0.4251114  -0.1906299  -0.1489775 SPIN=   0.00000
   F  -0.1689303  -0.1656339   0.3343661 SPIN=   0.00000
   F   0.0001981   0.3343661  -0.1656339 SPIN=   0.00000
   F   0.3392643  -0.1741248   0.3258752 SPIN=   0.00000
   F  -0.4910147   0.3258752  -0.1741248 SPIN=   0.00000
%ENDBLOCK POSITIONS_FRAC

# Note: total spin =  16.00

KPOINTS_MP_SPACING 0.07

%BLOCK SPECIES_POT
QC5
%ENDBLOCK SPECIES_POT

SNAP_TO_SYMMETRY
SYMMETRY_GENERATE

