#              Generated by Buildcell
#
# at 02:12:19 (GMT+1.0) 18th August 2020
# in /lustre/scratch/uccabz1/launch_tmp
# on node-c12k-006
# by uccabz1
#
# compiler GCC version 4.9.2
# options -cpp -iprefix /lustre/shared/ucl/apps/gcc/4.9.2/bin/../lib/gcc/x86_64-unknown-linux-gnu/4.9.2/ -mtune=corei7 -march=x86-64 -g -Og
#
# seed -1914147864   931095951 -1223746184  -985684089   994319547  1776725131 -1585192259 -1566689717 -1862426364  1255332407 -1090185061  1815983078
#
#      Author: C. J. Pickard (cjp20@cam.ac.uk)
#                Space group: Pc
#

%BLOCK LATTICE_ABC
      4.49265      5.94001     15.03228
     94.35378     90.00000     90.00000
%ENDBLOCK LATTICE_ABC

%BLOCK POSITIONS_FRAC
  Li   0.4207534  -0.1609881   0.1636046 SPIN=   0.00000
  Li  -0.4207534  -0.1609881  -0.3363954 SPIN=   0.00000
  Li  -0.3395912   0.2368370  -0.1518206 SPIN=   0.00000
  Li   0.3395912   0.2368370   0.3481794 SPIN=   0.00000
  Fe  -0.1599582   0.2943407   0.4780130 SPIN=   3.85112
  Fe   0.1599582   0.2943407  -0.0219870 SPIN=   3.85112
  Fe  -0.3951423  -0.2616427  -0.1452547 SPIN=   4.14888
  Fe   0.3951423  -0.2616427   0.3547453 SPIN=   4.14888
   O   0.3959428  -0.1818439  -0.4766657 SPIN=   0.00000
   O  -0.0261657  -0.4199011  -0.4348922 SPIN=   0.00000
   O  -0.1212729  -0.0635505  -0.5053425 SPIN=   0.00000
   O   0.0686023  -0.0527840  -0.3505295 SPIN=   0.00000
   S   0.0792766  -0.1795199  -0.4418574 SPIN=   0.00000
   O  -0.3959428  -0.1818439   0.0233343 SPIN=   0.00000
   O   0.0261657  -0.4199011   0.0651078 SPIN=   0.00000
   O   0.1212729  -0.0635505  -0.0053425 SPIN=   0.00000
   O  -0.0686023  -0.0527840   0.1494705 SPIN=   0.00000
   S  -0.0792766  -0.1795199   0.0581426 SPIN=   0.00000
   O   0.5475822   0.5343937   0.1209000 SPIN=   0.00000
   O   0.2427576   0.4160192   0.2463084 SPIN=   0.00000
   O   0.7598655   0.2775633   0.2265097 SPIN=   0.00000
   O   0.3679533   0.1403736   0.1200994 SPIN=   0.00000
   S   0.4795397   0.3420874   0.1784544 SPIN=   0.00000
   O  -0.5475822   0.5343937  -0.3791000 SPIN=   0.00000
   O  -0.2427576   0.4160192  -0.2536916 SPIN=   0.00000
   O  -0.7598655   0.2775633  -0.2734903 SPIN=   0.00000
   O  -0.3679533   0.1403736  -0.3799006 SPIN=   0.00000
   S  -0.4795397   0.3420874  -0.3215456 SPIN=   0.00000
   F  -0.0412121  -0.0509922  -0.1764819 SPIN=   0.00000
   F   0.0412121  -0.0509922   0.3235181 SPIN=   0.00000
   F  -0.4591137   0.4660235   0.4119594 SPIN=   0.00000
   F   0.4591137   0.4660235  -0.0880406 SPIN=   0.00000
%ENDBLOCK POSITIONS_FRAC

# Note: total spin =  16.00

KPOINTS_MP_SPACING 0.07

%BLOCK SPECIES_POT
QC5
%ENDBLOCK SPECIES_POT

SNAP_TO_SYMMETRY
SYMMETRY_GENERATE

