#              Generated by Buildcell
#
# at 05:34:53 (GMT+1.0) 18th August 2020
# in /lustre/scratch/uccabz1/launch_tmp
# on node-c12c-029
# by uccabz1
#
# compiler GCC version 4.9.2
# options -cpp -iprefix /lustre/shared/ucl/apps/gcc/4.9.2/bin/../lib/gcc/x86_64-unknown-linux-gnu/4.9.2/ -mtune=corei7 -march=x86-64 -g -Og
#
# seed -1218380967  -876650160  1349978894  1302011719  -978855711  1383644950   665769834  -775980020    23976638  1679717196  -837668454  1476060898
#
#      Author: C. J. Pickard (cjp20@cam.ac.uk)
#                Space group: C2
#

%BLOCK LATTICE_ABC
      7.51747      7.98413      8.38778
     78.19127     64.23394     61.91532
%ENDBLOCK LATTICE_ABC

%BLOCK POSITIONS_FRAC
  Li   0.1106453  -0.4309995  -0.2323930 SPIN=   0.00000
  Li  -0.6796458  -0.4309995   0.2323930 SPIN=   0.00000
  Li   0.2112721   0.0552528   0.0228615 SPIN=   0.00000
  Li  -0.2665250   0.0552528  -0.0228615 SPIN=   0.00000
  Fe  -0.4852794  -0.1599445   0.2433778 SPIN=   3.58253
  Fe   0.6452239  -0.1599445  -0.2433778 SPIN=   3.58253
  Fe   0.0641570   0.4002712   0.2049904 SPIN=   4.41747
  Fe   0.5355718   0.4002712  -0.2049904 SPIN=   4.41747
   O  -0.4278590   0.5744911   0.3345076 SPIN=   0.00000
   O  -0.4293291   0.2903980   0.2611151 SPIN=   0.00000
   O  -0.5707563   0.3762442   0.5743373 SPIN=   0.00000
   O  -0.1731647   0.2534564   0.3905239 SPIN=   0.00000
   S  -0.4002773   0.3736474   0.3901210 SPIN=   0.00000
   O  -0.1466322   0.5744911  -0.3345076 SPIN=   0.00000
   O   0.1389311   0.2903980  -0.2611151 SPIN=   0.00000
   O   0.1945122   0.3762442  -0.5743373 SPIN=   0.00000
   O  -0.0802917   0.2534564  -0.3905239 SPIN=   0.00000
   S   0.0266298   0.3736474  -0.3901210 SPIN=   0.00000
   O   0.4808060  -0.2799435  -0.3055149 SPIN=   0.00000
   O   0.2501619  -0.2780941  -0.4455341 SPIN=   0.00000
   O   0.2447188   0.0230956  -0.4053609 SPIN=   0.00000
   O   0.0777703  -0.1442390  -0.1452617 SPIN=   0.00000
   S   0.2633643  -0.1697952  -0.3254179 SPIN=   0.00000
   O  -0.2008625  -0.2799435   0.3055149 SPIN=   0.00000
   O   0.0279322  -0.2780941   0.4455341 SPIN=   0.00000
   O  -0.2678145   0.0230956   0.4053609 SPIN=   0.00000
   O   0.0664687  -0.1442390   0.1452617 SPIN=   0.00000
   S  -0.0935690  -0.1697952   0.3254179 SPIN=   0.00000
   F   0.4942705  -0.4780654  -0.0117160 SPIN=   0.00000
   F  -0.0162051  -0.4780654   0.0117160 SPIN=   0.00000
   F   0.6765196   0.0595414  -0.2365338 SPIN=   0.00000
   F  -0.7360610   0.0595414   0.2365338 SPIN=   0.00000
%ENDBLOCK POSITIONS_FRAC

# Note: total spin =  16.00

KPOINTS_MP_SPACING 0.07

%BLOCK SPECIES_POT
QC5
%ENDBLOCK SPECIES_POT

SNAP_TO_SYMMETRY
SYMMETRY_GENERATE

