#              Generated by Buildcell
#
# at 12:08:12 (GMT+1.0) 18th August 2020
# in /lustre/scratch/uccabz1/launch_tmp
# on node-c12i-018
# by uccabz1
#
# compiler GCC version 4.9.2
# options -cpp -iprefix /lustre/shared/ucl/apps/gcc/4.9.2/bin/../lib/gcc/x86_64-unknown-linux-gnu/4.9.2/ -mtune=corei7 -march=x86-64 -g -Og
#
# seed  -973051785  1180366617  -502669815  1671140652  -569872659  1883148914   -14683032  1503183808  1349949004 -1398189844  -955691566  -771050179
#
#      Author: C. J. Pickard (cjp20@cam.ac.uk)
#                Space group: P-1
#

%BLOCK LATTICE_ABC
      4.50997      9.05993     10.59452
     69.60548     81.92288     82.23922
%ENDBLOCK LATTICE_ABC

%BLOCK POSITIONS_FRAC
  Li  -0.1926769   0.3399809  -0.3395569 SPIN=   0.00000
  Li   0.1926769  -0.3399809   0.3395569 SPIN=   0.00000
  Li  -0.2327149   0.1290130   0.2834225 SPIN=   0.00000
  Li   0.2327149  -0.1290130  -0.2834225 SPIN=   0.00000
  Fe   0.1883048   0.1737510   0.4963514 SPIN=   2.99417
  Fe  -0.1883048  -0.1737510  -0.4963514 SPIN=   2.99417
  Fe   0.3101222  -0.4652199  -0.2506396 SPIN=   5.00583
  Fe  -0.3101222   0.4652199   0.2506396 SPIN=   5.00583
   O   0.3011139  -0.1952547  -0.0941117 SPIN=   0.00000
   O   0.3765262  -0.3515860   0.1444226 SPIN=   0.00000
   O   0.2444874  -0.4824058  -0.0071742 SPIN=   0.00000
   O  -0.1340696  -0.2983683   0.0688739 SPIN=   0.00000
   S   0.1970145  -0.3319037   0.0280026 SPIN=   0.00000
   O  -0.3011139   0.1952547   0.0941117 SPIN=   0.00000
   O  -0.3765262   0.3515860  -0.1444226 SPIN=   0.00000
   O  -0.2444874   0.4824058   0.0071742 SPIN=   0.00000
   O   0.1340696   0.2983683  -0.0688739 SPIN=   0.00000
   S  -0.1970145   0.3319037  -0.0280026 SPIN=   0.00000
   O   0.6125825  -0.0610809   0.1800640 SPIN=   0.00000
   O   0.1767030   0.1414413   0.1463815 SPIN=   0.00000
   O   0.2124670  -0.0718372   0.3677838 SPIN=   0.00000
   O   0.1093862  -0.1336040   0.1691273 SPIN=   0.00000
   S   0.2777847  -0.0312702   0.2158392 SPIN=   0.00000
   O  -0.6125825   0.0610809  -0.1800640 SPIN=   0.00000
   O  -0.1767030  -0.1414413  -0.1463815 SPIN=   0.00000
   O  -0.2124670   0.0718372  -0.3677838 SPIN=   0.00000
   O  -0.1093862   0.1336040  -0.1691273 SPIN=   0.00000
   S  -0.2777847   0.0312702  -0.2158392 SPIN=   0.00000
   F   0.3771306   0.2993221   0.3038466 SPIN=   0.00000
   F  -0.3771306  -0.2993221  -0.3038466 SPIN=   0.00000
   F   0.2360111   0.3736984  -0.3545721 SPIN=   0.00000
   F  -0.2360111  -0.3736984   0.3545721 SPIN=   0.00000
%ENDBLOCK POSITIONS_FRAC

# Note: total spin =  16.00

KPOINTS_MP_SPACING 0.07

%BLOCK SPECIES_POT
QC5
%ENDBLOCK SPECIES_POT

SNAP_TO_SYMMETRY
SYMMETRY_GENERATE

