#              Generated by Buildcell
#
# at 02:32:40 (GMT+1.0) 18th August 2020
# in /scratch/scratch/uccabz1/launch_tmp
# on node-k10i-017
# by uccabz1
#
# compiler GCC version 4.9.2
# options -cpp -iprefix /scratch/UCL/applications/gcc/4.9.2/bin/../lib/gcc/x86_64-unknown-linux-gnu/4.9.2/ -mtune=corei7 -march=x86-64 -g -O2
#
# seed  1295358825  -639182662  2071519201 -1527441357  1651282742 -2055826097  1584604327   847244708 -1403646819 -1100384164 -1006744007  -663843809
#
#      Author: C. J. Pickard (cjp20@cam.ac.uk)
#                Space group: P21
#

%BLOCK LATTICE_ABC
      4.86807      7.32568     11.47049
     90.00000    102.08088     90.00000
%ENDBLOCK LATTICE_ABC

%BLOCK POSITIONS_FRAC
  Li   0.4379214   0.1348026   0.2126561 SPIN=   0.00000
  Li  -0.4379214  -0.3651974  -0.2126561 SPIN=   0.00000
  Li  -0.5601453   0.0839246  -0.1019169 SPIN=   0.00000
  Li   0.5601453  -0.4160754   0.1019169 SPIN=   0.00000
  Fe  -0.0338467  -0.1281923   0.2200912 SPIN=   5.20731
  Fe   0.0338467   0.3718077  -0.2200912 SPIN=   5.20731
  Fe   0.8391766   0.3698962   0.3850187 SPIN=   2.79269
  Fe  -0.8391766  -0.1301038  -0.3850187 SPIN=   2.79269
   O  -0.2821593   0.2555141  -0.4443033 SPIN=   0.00000
   O  -0.7447869   0.1394158  -0.4206318 SPIN=   0.00000
   O  -0.7086909   0.4437473  -0.5098981 SPIN=   0.00000
   O  -0.5182004   0.3943942  -0.2947121 SPIN=   0.00000
   S  -0.5634594   0.3082679  -0.4173863 SPIN=   0.00000
   O   0.2821593  -0.2444859   0.4443033 SPIN=   0.00000
   O   0.7447869  -0.3605842   0.4206318 SPIN=   0.00000
   O   0.7086909  -0.0562527   0.5098981 SPIN=   0.00000
   O   0.5182004  -0.1056058   0.2947121 SPIN=   0.00000
   S   0.5634594  -0.1917321   0.4173863 SPIN=   0.00000
   O   0.0967391  -0.0592706  -0.0918364 SPIN=   0.00000
   O   0.3019033  -0.3670890  -0.0992180 SPIN=   0.00000
   O  -0.1725291  -0.3326472  -0.0559006 SPIN=   0.00000
   O   0.2463369  -0.2377114   0.0938194 SPIN=   0.00000
   S   0.1181126  -0.2491795  -0.0382839 SPIN=   0.00000
   O  -0.0967391   0.4407294   0.0918364 SPIN=   0.00000
   O  -0.3019033   0.1329110   0.0992180 SPIN=   0.00000
   O   0.1725291   0.1673528   0.0559006 SPIN=   0.00000
   O  -0.2463369   0.2622886  -0.0938194 SPIN=   0.00000
   S  -0.1181126   0.2508205   0.0382839 SPIN=   0.00000
   F  -0.4655791  -0.0556074  -0.2185427 SPIN=   0.00000
   F   0.4655791   0.4443926   0.2185427 SPIN=   0.00000
   F  -0.0220979  -0.3855766  -0.3333906 SPIN=   0.00000
   F   0.0220979   0.1144234   0.3333906 SPIN=   0.00000
%ENDBLOCK POSITIONS_FRAC

# Note: total spin =  16.00

KPOINTS_MP_SPACING 0.07

%BLOCK SPECIES_POT
QC5
%ENDBLOCK SPECIES_POT

SNAP_TO_SYMMETRY
SYMMETRY_GENERATE

