#              Generated by Buildcell
#
# at 06:54:18 (GMT+1.0) 18th August 2020
# in /lustre/scratch/uccabz1/launch_tmp
# on node-c12f-001
# by uccabz1
#
# compiler GCC version 4.9.2
# options -cpp -iprefix /lustre/shared/ucl/apps/gcc/4.9.2/bin/../lib/gcc/x86_64-unknown-linux-gnu/4.9.2/ -mtune=corei7 -march=x86-64 -g -Og
#
# seed -1495260316  1841893209 -2015760764 -1131014686 -1821485549  1818509857 -1471154726 -2095547954  -686415158   137424094    -7024404   551433741
#
#      Author: C. J. Pickard (cjp20@cam.ac.uk)
#                Space group: Pmn21
#

%BLOCK LATTICE_ABC
      3.94363      8.56048     11.84858
     90.00000     90.00000     90.00000
%ENDBLOCK LATTICE_ABC

%BLOCK POSITIONS_FRAC
  Li  -0.0759579  -0.4472845  -0.1554993 SPIN=   0.00000
  Li   0.0759579   0.0527155  -0.3445007 SPIN=   0.00000
  Li   0.0759579   0.0527155   0.3445007 SPIN=   0.00000
  Li  -0.0759579  -0.4472845   0.1554993 SPIN=   0.00000
  Fe  -0.4590065  -0.0551033  -0.1512185 SPIN=   4.00000
  Fe   0.4590065   0.4448967  -0.3487815 SPIN=   4.00000
  Fe   0.4590065   0.4448967   0.3487815 SPIN=   4.00000
  Fe  -0.4590065  -0.0551033   0.1512185 SPIN=   4.00000
   O  -0.1864356  -0.1283099   0.4053979 SPIN=   0.00000
   O   0.1561662  -0.1802522   0.2344662 SPIN=   0.00000
   O  -0.3121191  -0.3587742   0.2864274 SPIN=   0.00000
   O   0.2113030  -0.3518721   0.4015519 SPIN=   0.00000
   S  -0.0327714  -0.2548021   0.3319608 SPIN=   0.00000
   O   0.1864356   0.3716901   0.0946021 SPIN=   0.00000
   O  -0.1561662   0.3197478   0.2655338 SPIN=   0.00000
   O   0.3121191   0.1412258   0.2135726 SPIN=   0.00000
   O  -0.2113030   0.1481279   0.0984481 SPIN=   0.00000
   S   0.0327714   0.2451979   0.1680392 SPIN=   0.00000
   O   0.1864356   0.3716901  -0.0946021 SPIN=   0.00000
   O  -0.1561662   0.3197478  -0.2655338 SPIN=   0.00000
   O   0.3121191   0.1412258  -0.2135726 SPIN=   0.00000
   O  -0.2113030   0.1481279  -0.0984481 SPIN=   0.00000
   S   0.0327714   0.2451979  -0.1680392 SPIN=   0.00000
   O  -0.1864356  -0.1283099  -0.4053979 SPIN=   0.00000
   O   0.1561662  -0.1802522  -0.2344662 SPIN=   0.00000
   O  -0.3121191  -0.3587742  -0.2864274 SPIN=   0.00000
   O   0.2113030  -0.3518721  -0.4015519 SPIN=   0.00000
   S  -0.0327714  -0.2548021  -0.3319608 SPIN=   0.00000
   F   0.2012522  -0.0880456   0.0000000 SPIN=   0.00000
   F  -0.2012522   0.4119544  -0.5000000 SPIN=   0.00000
   F  -0.3117782  -0.4518351   0.0000000 SPIN=   0.00000
   F   0.3117782   0.0481649  -0.5000000 SPIN=   0.00000
%ENDBLOCK POSITIONS_FRAC

# Note: total spin =  16.00

KPOINTS_MP_SPACING 0.07

%BLOCK SPECIES_POT
QC5
%ENDBLOCK SPECIES_POT

SNAP_TO_SYMMETRY
SYMMETRY_GENERATE

