#              Generated by Buildcell
#
# at 09:25:08 (GMT+1.0) 4th August 2020
# in /lustre/scratch/uccabz1/launch_tmp
# on node-c12j-016
# by uccabz1
#
# compiler GCC version 4.9.2
# options -cpp -iprefix /lustre/shared/ucl/apps/gcc/4.9.2/bin/../lib/gcc/x86_64-unknown-linux-gnu/4.9.2/ -mtune=corei7 -march=x86-64 -g -Og
#
# seed  -613819939 -2037726330   -82002832   159655547   558168134  -524572792  1499749595   934840031  1802175418  1695218082  -216816218  1913364140
#
#      Author: C. J. Pickard (cjp20@cam.ac.uk)
#                Space group: P21
#

%BLOCK LATTICE_ABC
      4.42374      8.58089     10.53939
     90.00000     90.00000     91.08245
%ENDBLOCK LATTICE_ABC

%BLOCK POSITIONS_FRAC
  Li   0.0613951   0.2628836  -0.0456320 SPIN=   0.00000
  Li  -0.0613951  -0.2628836   0.4543680 SPIN=   0.00000
  Li   0.1915554   0.3444005   0.3558166 SPIN=   0.00000
  Li  -0.1915554  -0.3444005  -0.1441834 SPIN=   0.00000
  Fe  -0.4654487   0.1272897  -0.2025929 SPIN=   3.12763
  Fe   0.4654487  -0.1272897   0.2974071 SPIN=   3.12763
  Fe  -0.0348265   0.0841913  -0.4910076 SPIN=   4.87237
  Fe   0.0348265  -0.0841913   0.0089924 SPIN=   4.87237
   O  -0.0796463   0.2495071  -0.3348487 SPIN=   0.00000
   O  -0.0703369   0.4356854  -0.1554852 SPIN=   0.00000
   O  -0.0663688   0.5334152  -0.3764197 SPIN=   0.00000
   O   0.3846200   0.4049213  -0.2891525 SPIN=   0.00000
   S   0.0420670   0.4058823  -0.2889765 SPIN=   0.00000
   O   0.0796463  -0.2495071   0.1651513 SPIN=   0.00000
   O   0.0703369  -0.4356854   0.3445148 SPIN=   0.00000
   O   0.0663688  -0.5334152   0.1235803 SPIN=   0.00000
   O  -0.3846200  -0.4049213   0.2108475 SPIN=   0.00000
   S  -0.0420670  -0.4058823   0.2110235 SPIN=   0.00000
   O  -0.5161409   0.0398605   0.0460606 SPIN=   0.00000
   O  -0.1045876   0.2007427   0.1409211 SPIN=   0.00000
   O  -0.6150647   0.1987461   0.2370578 SPIN=   0.00000
   O  -0.5272081   0.3274216   0.0298100 SPIN=   0.00000
   S  -0.4407503   0.1916927   0.1134624 SPIN=   0.00000
   O   0.5161409  -0.0398605  -0.4539394 SPIN=   0.00000
   O   0.1045876  -0.2007427  -0.3590789 SPIN=   0.00000
   O   0.6150647  -0.1987461  -0.2629422 SPIN=   0.00000
   O   0.5272081  -0.3274216  -0.4701900 SPIN=   0.00000
   S   0.4407503  -0.1916927  -0.3865376 SPIN=   0.00000
   F  -0.0234356   0.0233320  -0.1475931 SPIN=   0.00000
   F   0.0234356  -0.0233320   0.3524069 SPIN=   0.00000
   F   0.4617101  -0.3734402  -0.0569146 SPIN=   0.00000
   F  -0.4617101   0.3734402   0.4430854 SPIN=   0.00000
%ENDBLOCK POSITIONS_FRAC

# Note: total spin =  16.00

KPOINTS_MP_SPACING 0.07

%BLOCK SPECIES_POT
QC5
%ENDBLOCK SPECIES_POT

SNAP_TO_SYMMETRY
SYMMETRY_GENERATE

