#              Generated by Buildcell
#
# at 06:09:37 (GMT+1.0) 4th August 2020
# in /lustre/scratch/uccabz1/launch_tmp
# on node-c12c-002
# by uccabz1
#
# compiler GCC version 4.9.2
# options -cpp -iprefix /lustre/shared/ucl/apps/gcc/4.9.2/bin/../lib/gcc/x86_64-unknown-linux-gnu/4.9.2/ -mtune=corei7 -march=x86-64 -g -Og
#
# seed -1162869709 -2002391628  -985844452  -785876273   984910321   448423794   110083267  -215178847 -1320120574  1839972215  1565286358  -136376743
#
#      Author: C. J. Pickard (cjp20@cam.ac.uk)
#                Space group: P21212
#

%BLOCK LATTICE_ABC
      4.40658      8.65884     10.48332
     90.00000     90.00000     90.00000
%ENDBLOCK LATTICE_ABC

%BLOCK POSITIONS_FRAC
  Li   0.0943887   0.3016109   0.3906135 SPIN=   0.00000
  Li   0.0943887  -0.3016109  -0.3906135 SPIN=   0.00000
  Li  -0.0943887  -0.1983891   0.1093865 SPIN=   0.00000
  Li  -0.0943887   0.1983891  -0.1093865 SPIN=   0.00000
  Fe   0.4891858   0.1290023  -0.3605305 SPIN=   4.00000
  Fe   0.4891858  -0.1290023   0.3605305 SPIN=   4.00000
  Fe  -0.4891858  -0.3709977  -0.1394695 SPIN=   4.00000
  Fe  -0.4891858   0.3709977   0.1394695 SPIN=   4.00000
   O  -0.1164374  -0.4433110   0.1608608 SPIN=   0.00000
   O   0.3156041  -0.4915289   0.3063460 SPIN=   0.00000
   O  -0.2061455  -0.4740526   0.3925197 SPIN=   0.00000
   O   0.0502332  -0.2396892   0.3109886 SPIN=   0.00000
   S   0.0108136  -0.4121454   0.2926788 SPIN=   0.00000
   O  -0.1164374   0.4433110  -0.1608608 SPIN=   0.00000
   O   0.3156041   0.4915289  -0.3063460 SPIN=   0.00000
   O  -0.2061455   0.4740526  -0.3925197 SPIN=   0.00000
   O   0.0502332   0.2396892  -0.3109886 SPIN=   0.00000
   S   0.0108136   0.4121454  -0.2926788 SPIN=   0.00000
   O   0.1164374   0.0566890   0.3391392 SPIN=   0.00000
   O  -0.3156041   0.0084711   0.1936540 SPIN=   0.00000
   O   0.2061455   0.0259474   0.1074803 SPIN=   0.00000
   O  -0.0502332   0.2603108   0.1890114 SPIN=   0.00000
   S  -0.0108136   0.0878546   0.2073212 SPIN=   0.00000
   O   0.1164374  -0.0566890  -0.3391392 SPIN=   0.00000
   O  -0.3156041  -0.0084711  -0.1936540 SPIN=   0.00000
   O   0.2061455  -0.0259474  -0.1074803 SPIN=   0.00000
   O  -0.0502332  -0.2603108  -0.1890114 SPIN=   0.00000
   S  -0.0108136  -0.0878546  -0.2073212 SPIN=   0.00000
   F  -0.4697838   0.2535257   0.4593512 SPIN=   0.00000
   F  -0.4697838  -0.2535257  -0.4593512 SPIN=   0.00000
   F   0.4697838  -0.2464743   0.0406488 SPIN=   0.00000
   F   0.4697838   0.2464743  -0.0406488 SPIN=   0.00000
%ENDBLOCK POSITIONS_FRAC

# Note: total spin =  16.00

KPOINTS_MP_SPACING 0.07

%BLOCK SPECIES_POT
QC5
%ENDBLOCK SPECIES_POT

SNAP_TO_SYMMETRY
SYMMETRY_GENERATE

