#              Generated by Buildcell
#
# at 07:14:53 (GMT+1.0) 18th August 2020
# in /lustre/scratch/uccabz1/launch_tmp
# on node-c12p-030
# by uccabz1
#
# compiler GCC version 4.9.2
# options -cpp -iprefix /lustre/shared/ucl/apps/gcc/4.9.2/bin/../lib/gcc/x86_64-unknown-linux-gnu/4.9.2/ -mtune=corei7 -march=x86-64 -g -Og
#
# seed  -852333100 -1880489404  1686951835  -427328199  1672163524 -1265575964  1294540735   670367515   559823154  1606791467 -1817513632 -1794389784
#
#      Author: C. J. Pickard (cjp20@cam.ac.uk)
#                Space group: P2/c
#

%BLOCK LATTICE_ABC
      3.95324      9.13505     11.52432
    106.02818     90.00000     90.00000
%ENDBLOCK LATTICE_ABC

%BLOCK POSITIONS_FRAC
  Li   0.2592804  -0.0445062   0.2996684 SPIN=   0.00000
  Li   0.2592804   0.5445062   0.2003316 SPIN=   0.00000
  Li  -0.2592804   0.0445062  -0.2996684 SPIN=   0.00000
  Li  -0.2592804  -0.5445062  -0.2003316 SPIN=   0.00000
  Fe   0.2407509   0.0828402  -0.1048227 SPIN=   4.00000
  Fe   0.2407509  -0.5828402  -0.3951773 SPIN=   4.00000
  Fe  -0.2407509  -0.0828402   0.1048227 SPIN=   4.00000
  Fe  -0.2407509   0.5828402   0.3951773 SPIN=   4.00000
   O  -0.1418916  -0.3467444  -0.0593666 SPIN=   0.00000
   O   0.3459480  -0.5229065  -0.0878593 SPIN=   0.00000
   O   0.3842472  -0.2671033   0.0573748 SPIN=   0.00000
   O   0.3744972  -0.2936160  -0.1622020 SPIN=   0.00000
   S   0.2407002  -0.3575926  -0.0630133 SPIN=   0.00000
   O  -0.1418916  -0.1532556  -0.4406334 SPIN=   0.00000
   O   0.3459480   0.0229065  -0.4121407 SPIN=   0.00000
   O   0.3842472  -0.2328967  -0.5573748 SPIN=   0.00000
   O   0.3744972  -0.2063840  -0.3377980 SPIN=   0.00000
   S   0.2407002  -0.1424074  -0.4369867 SPIN=   0.00000
   O   0.1418916   0.3467444   0.0593666 SPIN=   0.00000
   O  -0.3459480   0.5229065   0.0878593 SPIN=   0.00000
   O  -0.3842472   0.2671033  -0.0573748 SPIN=   0.00000
   O  -0.3744972   0.2936160   0.1622020 SPIN=   0.00000
   S  -0.2407002   0.3575926   0.0630133 SPIN=   0.00000
   O   0.1418916   0.1532556   0.4406334 SPIN=   0.00000
   O  -0.3459480  -0.0229065   0.4121407 SPIN=   0.00000
   O  -0.3842472   0.2328967   0.5573748 SPIN=   0.00000
   O  -0.3744972   0.2063840   0.3377980 SPIN=   0.00000
   S  -0.2407002   0.1424074   0.4369867 SPIN=   0.00000
   F   0.2508685   0.0386778   0.1475791 SPIN=   0.00000
   F   0.2508685   0.4613222   0.3524209 SPIN=   0.00000
   F  -0.2508685  -0.0386778  -0.1475791 SPIN=   0.00000
   F  -0.2508685  -0.4613222  -0.3524209 SPIN=   0.00000
%ENDBLOCK POSITIONS_FRAC

# Note: total spin =  16.00

KPOINTS_MP_SPACING 0.07

%BLOCK SPECIES_POT
QC5
%ENDBLOCK SPECIES_POT

SNAP_TO_SYMMETRY
SYMMETRY_GENERATE

