#              Generated by Buildcell
#
# at 09:33:27 (GMT+1.0) 18th August 2020
# in /lustre/scratch/uccabz1/launch_tmp
# on node-c12j-026
# by uccabz1
#
# compiler GCC version 4.9.2
# options -cpp -iprefix /lustre/shared/ucl/apps/gcc/4.9.2/bin/../lib/gcc/x86_64-unknown-linux-gnu/4.9.2/ -mtune=corei7 -march=x86-64 -g -Og
#
# seed  -875551892 -1339348962  1324750404    15033768 -2132486331  -759899422  1199717592  1047320761  1646026442   212750086   784750767  1557817090
#
#      Author: C. J. Pickard (cjp20@cam.ac.uk)
#                Space group: Pna21
#

%BLOCK LATTICE_ABC
      4.14749      8.76240     11.00655
     90.00000     90.00000     90.00000
%ENDBLOCK LATTICE_ABC

%BLOCK POSITIONS_FRAC
  Li  -0.4050862   0.1343687   0.0837520 SPIN=   0.00000
  Li   0.4050862  -0.3656313  -0.0837520 SPIN=   0.00000
  Li  -0.0949138   0.1343687  -0.4162480 SPIN=   0.00000
  Li   0.0949138  -0.3656313   0.4162480 SPIN=   0.00000
  Fe   0.4051312   0.3360645   0.4737654 SPIN=   4.00000
  Fe  -0.4051312  -0.1639355  -0.4737654 SPIN=   4.00000
  Fe   0.0948688   0.3360645  -0.0262346 SPIN=   4.00000
  Fe  -0.0948688  -0.1639355   0.0262346 SPIN=   4.00000
   O   0.7502462   0.0604564  -0.2253393 SPIN=   0.00000
   O   0.2402195   0.1912086  -0.1725393 SPIN=   0.00000
   O   0.2270155  -0.0622455  -0.2716404 SPIN=   0.00000
   O   0.4020649   0.1648362  -0.3879446 SPIN=   0.00000
   S   0.4048865   0.0885639  -0.2643659 SPIN=   0.00000
   O  -0.7502462  -0.4395436   0.2253393 SPIN=   0.00000
   O  -0.2402195  -0.3087914   0.1725393 SPIN=   0.00000
   O  -0.2270155  -0.5622455   0.2716404 SPIN=   0.00000
   O  -0.4020649  -0.3351638   0.3879446 SPIN=   0.00000
   S  -0.4048865  -0.4114361   0.2643659 SPIN=   0.00000
   O  -0.2502462   0.0604564   0.2746607 SPIN=   0.00000
   O   0.2597805   0.1912086   0.3274607 SPIN=   0.00000
   O   0.2729845  -0.0622455   0.2283596 SPIN=   0.00000
   O   0.0979351   0.1648362   0.1120554 SPIN=   0.00000
   S   0.0951135   0.0885639   0.2356341 SPIN=   0.00000
   O   0.2502462  -0.4395436  -0.2746607 SPIN=   0.00000
   O  -0.2597805  -0.3087914  -0.3274607 SPIN=   0.00000
   O  -0.2729845  -0.5622455  -0.2283596 SPIN=   0.00000
   O  -0.0979351  -0.3351638  -0.1120554 SPIN=   0.00000
   S  -0.0951135  -0.4114361  -0.2356341 SPIN=   0.00000
   F   0.3825807  -0.1771732  -0.0034295 SPIN=   0.00000
   F  -0.3825807   0.3228268   0.0034295 SPIN=   0.00000
   F   0.1174193  -0.1771732   0.4965705 SPIN=   0.00000
   F  -0.1174193   0.3228268  -0.4965705 SPIN=   0.00000
%ENDBLOCK POSITIONS_FRAC

# Note: total spin =  16.00

KPOINTS_MP_SPACING 0.07

%BLOCK SPECIES_POT
QC5
%ENDBLOCK SPECIES_POT

SNAP_TO_SYMMETRY
SYMMETRY_GENERATE

