#              Generated by Buildcell
#
# at 08:41:17 (GMT+1.0) 18th August 2020
# in /lustre/scratch/uccabz1/launch_tmp
# on node-c12e-015
# by uccabz1
#
# compiler GCC version 4.9.2
# options -cpp -iprefix /lustre/shared/ucl/apps/gcc/4.9.2/bin/../lib/gcc/x86_64-unknown-linux-gnu/4.9.2/ -mtune=corei7 -march=x86-64 -g -Og
#
# seed  -837378708  1832977427 -1593460113   335253291 -1817723407 -1427960805  -495065518  -672997470  1059362944 -1569935780  -620683425     6895062
#
#      Author: C. J. Pickard (cjp20@cam.ac.uk)
#                Space group: Cc
#

%BLOCK LATTICE_ABC
      6.35958      6.35958     10.20294
     95.35655     95.35655    101.46090
%ENDBLOCK LATTICE_ABC

%BLOCK POSITIONS_FRAC
  Li  -0.1636276  -0.0040467   0.3523125 SPIN=   0.00000
  Li  -0.0040467  -0.1636276  -0.1476875 SPIN=   0.00000
  Li   0.3310905   0.0110613   0.1639914 SPIN=   0.00000
  Li   0.0110613   0.3310905  -0.3360086 SPIN=   0.00000
  Fe   0.4775040  -0.0883625  -0.1214370 SPIN=   3.24418
  Fe  -0.0883625   0.4775040   0.3785630 SPIN=   3.24418
  Fe   0.2852563   0.0144334   0.4522994 SPIN=   4.75582
  Fe   0.0144334   0.2852563  -0.0477006 SPIN=   4.75582
   O  -0.2406222   0.1078182  -0.4289731 SPIN=   0.00000
   O  -0.3508081  -0.1900195  -0.2936955 SPIN=   0.00000
   O   0.0327115  -0.0768225  -0.3300010 SPIN=   0.00000
   O  -0.2366339  -0.2680434  -0.5152813 SPIN=   0.00000
   S  -0.1988382  -0.1067668  -0.3919877 SPIN=   0.00000
   O   0.1078182  -0.2406222   0.0710269 SPIN=   0.00000
   O  -0.1900195  -0.3508081   0.2063045 SPIN=   0.00000
   O  -0.0768225   0.0327115   0.1699990 SPIN=   0.00000
   O  -0.2680434  -0.2366339  -0.0152813 SPIN=   0.00000
   S  -0.1067668  -0.1988382   0.1080123 SPIN=   0.00000
   O  -0.3837551   0.4673170  -0.3938629 SPIN=   0.00000
   O  -0.5278164   0.5113636  -0.1781538 SPIN=   0.00000
   O  -0.3636983   0.1980363  -0.2354895 SPIN=   0.00000
   O  -0.7168759   0.2196414  -0.3516820 SPIN=   0.00000
   S  -0.4980364   0.3490896  -0.2897971 SPIN=   0.00000
   O   0.4673170  -0.3837551   0.1061371 SPIN=   0.00000
   O   0.5113636  -0.5278164   0.3218462 SPIN=   0.00000
   O   0.1980363  -0.3636983   0.2645105 SPIN=   0.00000
   O   0.2196414  -0.7168759   0.1483180 SPIN=   0.00000
   S   0.3490896  -0.4980364   0.2102029 SPIN=   0.00000
   F  -0.3148825   0.2473635   0.0271249 SPIN=   0.00000
   F   0.2473635  -0.3148825  -0.4728751 SPIN=   0.00000
   F   0.0641694  -0.4633696  -0.1657853 SPIN=   0.00000
   F  -0.4633696   0.0641694   0.3342147 SPIN=   0.00000
%ENDBLOCK POSITIONS_FRAC

# Note: total spin =  16.00

KPOINTS_MP_SPACING 0.07

%BLOCK SPECIES_POT
QC5
%ENDBLOCK SPECIES_POT

SNAP_TO_SYMMETRY
SYMMETRY_GENERATE

