#              Generated by Buildcell
#
# at 00:44:43 (GMT+1.0) 18th August 2020
# in /lustre/scratch/uccabz1/launch_tmp
# on node-c12g-033
# by uccabz1
#
# compiler GCC version 4.9.2
# options -cpp -iprefix /lustre/shared/ucl/apps/gcc/4.9.2/bin/../lib/gcc/x86_64-unknown-linux-gnu/4.9.2/ -mtune=corei7 -march=x86-64 -g -Og
#
# seed  -390261680   333947161  1330050901  -784186208  -333347740   695682632  1027751444   874184232  -468506054  1216670090    93933342  -361320346
#
#      Author: C. J. Pickard (cjp20@cam.ac.uk)
#                Space group: P21
#

%BLOCK LATTICE_ABC
      4.28184      9.27218     10.33612
     90.00000     90.00000    102.90489
%ENDBLOCK LATTICE_ABC

%BLOCK POSITIONS_FRAC
  Li  -0.2740997   0.1726358   0.4875488 SPIN=   0.00000
  Li   0.2740997  -0.1726358  -0.0124512 SPIN=   0.00000
  Li   0.5982663   0.4637285   0.0178929 SPIN=   0.00000
  Li  -0.5982663  -0.4637285  -0.4821071 SPIN=   0.00000
  Fe   0.2042997   0.1469407   0.0020580 SPIN=   2.08034
  Fe  -0.2042997  -0.1469407  -0.4979420 SPIN=   2.08034
  Fe   0.0061953   0.3836403  -0.2553283 SPIN=   5.91966
  Fe  -0.0061953  -0.3836403   0.2446717 SPIN=   5.91966
   O   0.3755112   0.1902236   0.3620549 SPIN=   0.00000
   O  -0.0365466   0.3389332   0.3470395 SPIN=   0.00000
   O   0.2818650   0.3056654   0.1539509 SPIN=   0.00000
   O   0.5385872   0.4619724   0.3356667 SPIN=   0.00000
   S   0.2898542   0.3241986   0.2996780 SPIN=   0.00000
   O  -0.3755112  -0.1902236  -0.1379451 SPIN=   0.00000
   O   0.0365466  -0.3389332  -0.1529605 SPIN=   0.00000
   O  -0.2818650  -0.3056654  -0.3460491 SPIN=   0.00000
   O  -0.5385872  -0.4619724  -0.1643333 SPIN=   0.00000
   S  -0.2898542  -0.3241986  -0.2003220 SPIN=   0.00000
   O   0.2518956   0.0758836  -0.4333844 SPIN=   0.00000
   O   0.2871868  -0.1463051  -0.3065449 SPIN=   0.00000
   O   0.2224509   0.0810109  -0.1943527 SPIN=   0.00000
   O   0.7351004   0.0747349  -0.3023540 SPIN=   0.00000
   S   0.3741584   0.0213311  -0.3091590 SPIN=   0.00000
   O  -0.2518956  -0.0758836   0.0666156 SPIN=   0.00000
   O  -0.2871868   0.1463051   0.1934551 SPIN=   0.00000
   O  -0.2224509  -0.0810109   0.3056473 SPIN=   0.00000
   O  -0.7351004  -0.0747349   0.1976460 SPIN=   0.00000
   S  -0.3741584  -0.0213311   0.1908410 SPIN=   0.00000
   F  -0.7368984  -0.3815735   0.0881028 SPIN=   0.00000
   F   0.7368984   0.3815735  -0.4118972 SPIN=   0.00000
   F   0.6707791   0.2650949  -0.0463397 SPIN=   0.00000
   F  -0.6707791  -0.2650949   0.4536603 SPIN=   0.00000
%ENDBLOCK POSITIONS_FRAC

# Note: total spin =  16.00

KPOINTS_MP_SPACING 0.07

%BLOCK SPECIES_POT
QC5
%ENDBLOCK SPECIES_POT

SNAP_TO_SYMMETRY
SYMMETRY_GENERATE

