#              Generated by Buildcell
#
# at 06:19:02 (GMT+1.0) 4th August 2020
# in /lustre/scratch/uccabz1/launch_tmp
# on node-c12n-015
# by uccabz1
#
# compiler GCC version 4.9.2
# options -cpp -iprefix /lustre/shared/ucl/apps/gcc/4.9.2/bin/../lib/gcc/x86_64-unknown-linux-gnu/4.9.2/ -mtune=corei7 -march=x86-64 -g -Og
#
# seed -1240030046  1863468101 -1097423172 -1742609443 -1496943421 -1869192537  1606432200  1354682433  2029176272  1729254573  1187777910  -488933322
#
#      Author: C. J. Pickard (cjp20@cam.ac.uk)
#                Space group: P-1
#

%BLOCK LATTICE_ABC
      4.31498      7.76255     12.65458
     97.05802     96.44022    105.81369
%ENDBLOCK LATTICE_ABC

%BLOCK POSITIONS_FRAC
  Li   0.2167158   0.2327128  -0.1186857 SPIN=   0.00000
  Li  -0.2167158  -0.2327128   0.1186857 SPIN=   0.00000
  Li   0.3231819   0.1812618   0.4240292 SPIN=   0.00000
  Li  -0.3231819  -0.1812618  -0.4240292 SPIN=   0.00000
  Fe   0.2265787   0.4024544   0.1006101 SPIN=   1.83683
  Fe  -0.2265787  -0.4024544  -0.1006101 SPIN=   1.83683
  Fe  -0.0000000  -0.5000000  -0.5000000 SPIN=   6.87825
  Fe   0.5000000  -0.0000000  -0.0000000 SPIN=   5.44809
   O  -0.0700377   0.2288139   0.3486995 SPIN=   0.00000
   O  -0.3291755   0.4420446   0.2707727 SPIN=   0.00000
   O  -0.6327719   0.1164748   0.2495230 SPIN=   0.00000
   O  -0.1679473   0.2154282   0.1509740 SPIN=   0.00000
   S  -0.2999831   0.2506904   0.2549923 SPIN=   0.00000
   O   0.0700377  -0.2288139  -0.3486995 SPIN=   0.00000
   O   0.3291755  -0.4420446  -0.2707727 SPIN=   0.00000
   O   0.6327719  -0.1164748  -0.2495230 SPIN=   0.00000
   O   0.1679473  -0.2154282  -0.1509740 SPIN=   0.00000
   S   0.2999831  -0.2506904  -0.2549923 SPIN=   0.00000
   O   0.0439936  -0.7900831  -0.2673170 SPIN=   0.00000
   O  -0.4445132  -0.8097047  -0.3963664 SPIN=   0.00000
   O  -0.2179437  -0.5432090  -0.2524359 SPIN=   0.00000
   O  -0.4945546  -0.8420558  -0.2063822 SPIN=   0.00000
   S  -0.2782545  -0.7462631  -0.2806254 SPIN=   0.00000
   O  -0.0439936   0.7900831   0.2673170 SPIN=   0.00000
   O   0.4445132   0.8097047   0.3963664 SPIN=   0.00000
   O   0.2179437   0.5432090   0.2524359 SPIN=   0.00000
   O   0.4945546   0.8420558   0.2063822 SPIN=   0.00000
   S   0.2782545   0.7462631   0.2806254 SPIN=   0.00000
   F  -0.5000000   0.5000000   0.5000000 SPIN=   0.00000
   F   0.0000000   0.0000000   0.0000000 SPIN=   0.00000
   F   0.0000000   1.0000000   0.5000000 SPIN=   0.00000
   F   0.0000000   0.5000000   0.0000000 SPIN=   0.00000
%ENDBLOCK POSITIONS_FRAC

# Note: total spin =  16.00

KPOINTS_MP_SPACING 0.07

%BLOCK SPECIES_POT
QC5
%ENDBLOCK SPECIES_POT

SNAP_TO_SYMMETRY
SYMMETRY_GENERATE

