#              Generated by Buildcell
#
# at 06:34:20 (GMT+1.0) 4th August 2020
# in /lustre/scratch/uccabz1/launch_tmp
# on node-c12l-019
# by uccabz1
#
# compiler GCC version 4.9.2
# options -cpp -iprefix /lustre/shared/ucl/apps/gcc/4.9.2/bin/../lib/gcc/x86_64-unknown-linux-gnu/4.9.2/ -mtune=corei7 -march=x86-64 -g -Og
#
# seed -1245184532  1902586123 -1144727920  1739356041   945624149 -1171428907 -1916196523   965544898 -2004935537  1038714308   114190783    94159782
#
#      Author: C. J. Pickard (cjp20@cam.ac.uk)
#                Space group: C2
#

%BLOCK LATTICE_ABC
      6.32767      6.32767     10.15216
     83.73634     83.73634     84.18600
%ENDBLOCK LATTICE_ABC

%BLOCK POSITIONS_FRAC
  Li   0.0114221  -0.4560575  -0.1737733 SPIN=   0.00000
  Li   0.4560575  -0.0114221   0.1737733 SPIN=   0.00000
  Li   0.4490112  -0.0197685  -0.2071535 SPIN=   0.00000
  Li   0.0197685  -0.4490112   0.2071535 SPIN=   0.00000
  Fe   0.4656976   0.4002322   0.2785269 SPIN=   3.17939
  Fe  -0.4002322  -0.4656976  -0.2785269 SPIN=   3.17939
  Fe  -0.0314162  -0.0277162  -0.3126209 SPIN=   4.82061
  Fe   0.0277162   0.0314162   0.3126209 SPIN=   4.82061
   O  -0.2433415  -0.1523917   0.4989202 SPIN=   0.00000
   O  -0.4709847  -0.3285465   0.3687749 SPIN=   0.00000
   O  -0.4666946   0.0644923   0.3394009 SPIN=   0.00000
   O  -0.6362672  -0.1121985   0.5482180 SPIN=   0.00000
   S  -0.4543220  -0.1321611   0.4388285 SPIN=   0.00000
   O   0.1523917   0.2433415  -0.4989202 SPIN=   0.00000
   O   0.3285465   0.4709847  -0.3687749 SPIN=   0.00000
   O  -0.0644923   0.4666946  -0.3394009 SPIN=   0.00000
   O   0.1121985   0.6362672  -0.5482180 SPIN=   0.00000
   S   0.1321611   0.4543220  -0.4388285 SPIN=   0.00000
   O  -0.4567524  -0.4102339   0.0965167 SPIN=   0.00000
   O  -0.3463945  -0.2218211  -0.1230036 SPIN=   0.00000
   O  -0.0745151  -0.4228650   0.0112303 SPIN=   0.00000
   O  -0.2631902  -0.0865907   0.0834319 SPIN=   0.00000
   S  -0.2852131  -0.2853777   0.0170438 SPIN=   0.00000
   O   0.4102339   0.4567524  -0.0965167 SPIN=   0.00000
   O   0.2218211   0.3463945   0.1230036 SPIN=   0.00000
   O   0.4228650   0.0745151  -0.0112303 SPIN=   0.00000
   O   0.0865907   0.2631902  -0.0834319 SPIN=   0.00000
   S   0.2853777   0.2852131  -0.0170438 SPIN=   0.00000
   F  -0.3046709   0.1372366  -0.2856328 SPIN=   0.00000
   F  -0.1372366   0.3046709   0.2856328 SPIN=   0.00000
   F   0.1755636  -0.2112016   0.1952514 SPIN=   0.00000
   F   0.2112016  -0.1755636  -0.1952514 SPIN=   0.00000
%ENDBLOCK POSITIONS_FRAC

# Note: total spin =  16.00

KPOINTS_MP_SPACING 0.07

%BLOCK SPECIES_POT
QC5
%ENDBLOCK SPECIES_POT

SNAP_TO_SYMMETRY
SYMMETRY_GENERATE

