#              Generated by Buildcell
#
# at 06:45:34 (GMT+1.0) 4th August 2020
# in /lustre/scratch/uccabz1/launch_tmp
# on node-c12m-016
# by uccabz1
#
# compiler GCC version 4.9.2
# options -cpp -iprefix /lustre/shared/ucl/apps/gcc/4.9.2/bin/../lib/gcc/x86_64-unknown-linux-gnu/4.9.2/ -mtune=corei7 -march=x86-64 -g -Og
#
# seed  1942747773   835589131  -161829292  -472107667   168922531  -467147935  -955791872   679387115 -1272510448  1422795620   335985394 -1734892528
#
#      Author: C. J. Pickard (cjp20@cam.ac.uk)
#                Space group: P2
#

%BLOCK LATTICE_ABC
      4.07358      7.74970     12.91937
    101.26049     90.00000     90.00000
%ENDBLOCK LATTICE_ABC

%BLOCK POSITIONS_FRAC
  Li  -0.4505898   0.1251033  -0.3619827 SPIN=   0.00000
  Li  -0.4505898  -0.1251033   0.3619827 SPIN=   0.00000
  Li  -0.4076319   0.4906303   0.1407037 SPIN=   0.00000
  Li  -0.4076319  -0.4906303  -0.1407037 SPIN=   0.00000
  Fe  -0.1967790  -0.2075960   0.0420614 SPIN=   3.78051
  Fe  -0.1967790   0.2075960  -0.0420614 SPIN=   3.78051
  Fe   0.0941505   0.4754952  -0.3137272 SPIN=   4.21949
  Fe   0.0941505  -0.4754952   0.3137272 SPIN=   4.21949
   O   0.2910101  -0.0877532  -0.3927000 SPIN=   0.00000
   O  -0.1131209  -0.3223659  -0.3826492 SPIN=   0.00000
   O   0.2892798  -0.3610123  -0.5288832 SPIN=   0.00000
   O  -0.1628934  -0.1458188  -0.5221651 SPIN=   0.00000
   S   0.0760689  -0.2292375  -0.4565994 SPIN=   0.00000
   O   0.2910101   0.0877532   0.3927000 SPIN=   0.00000
   O  -0.1131209   0.3223659   0.3826492 SPIN=   0.00000
   O   0.2892798   0.3610123   0.5288832 SPIN=   0.00000
   O  -0.1628934   0.1458188   0.5221651 SPIN=   0.00000
   S   0.0760689   0.2292375   0.4565994 SPIN=   0.00000
   O  -0.2770237   0.0002271  -0.2266597 SPIN=   0.00000
   O  -0.6906386  -0.0984372  -0.1104711 SPIN=   0.00000
   O  -0.1527788  -0.2487631  -0.1387573 SPIN=   0.00000
   O  -0.5594979  -0.2852498  -0.2837070 SPIN=   0.00000
   S  -0.4199847  -0.1580558  -0.1898988 SPIN=   0.00000
   O  -0.2770237  -0.0002271   0.2266597 SPIN=   0.00000
   O  -0.6906386   0.0984372   0.1104711 SPIN=   0.00000
   O  -0.1527788   0.2487631   0.1387573 SPIN=   0.00000
   O  -0.5594979   0.2852498   0.2837070 SPIN=   0.00000
   S  -0.4199847   0.1580558   0.1898988 SPIN=   0.00000
   F  -0.3476541  -0.3988561   0.3104659 SPIN=   0.00000
   F  -0.3476541   0.3988561  -0.3104659 SPIN=   0.00000
   F   0.2642299  -0.2344335   0.0512789 SPIN=   0.00000
   F   0.2642299   0.2344335  -0.0512789 SPIN=   0.00000
%ENDBLOCK POSITIONS_FRAC

# Note: total spin =  16.00

KPOINTS_MP_SPACING 0.07

%BLOCK SPECIES_POT
QC5
%ENDBLOCK SPECIES_POT

SNAP_TO_SYMMETRY
SYMMETRY_GENERATE

