#              Generated by Buildcell
#
# at 05:52:06 (GMT+1.0) 4th August 2020
# in /lustre/scratch/uccabz1/launch_tmp
# on node-c12e-006
# by uccabz1
#
# compiler GCC version 4.9.2
# options -cpp -iprefix /lustre/shared/ucl/apps/gcc/4.9.2/bin/../lib/gcc/x86_64-unknown-linux-gnu/4.9.2/ -mtune=corei7 -march=x86-64 -g -Og
#
# seed  1901409174  -594202045   713021985  -918111206  1812472937  -847919882   959625087  1258527538 -1339263260 -1996509094  1144530464  1330944871
#
#      Author: C. J. Pickard (cjp20@cam.ac.uk)
#                Space group: Pm
#

%BLOCK LATTICE_ABC
      5.10011      8.15586     10.02452
     90.00000     90.00000    106.40630
%ENDBLOCK LATTICE_ABC

%BLOCK POSITIONS_FRAC
  Li  -0.1079404  -0.0370757   0.2332877 SPIN=   0.00000
  Li  -0.1079404  -0.0370757  -0.2332877 SPIN=   0.00000
  Li  -0.1922406  -0.4573588   0.0000000 SPIN=   0.00000
  Li  -0.4022809   0.4721637  -0.5000000 SPIN=   0.00000
  Fe   0.4519758   0.2139412  -0.2829049 SPIN=   5.10044
  Fe   0.4519758   0.2139412   0.2829049 SPIN=   5.10044
  Fe   0.0979865  -0.3328864   0.3053254 SPIN=   2.89956
  Fe   0.0979865  -0.3328864  -0.3053254 SPIN=   2.89956
   O   0.0808792   0.4351376   0.2290044 SPIN=   0.00000
   O  -0.1754381   0.1551983   0.3230791 SPIN=   0.00000
   O   0.0961715   0.1676892   0.1168132 SPIN=   0.00000
   O  -0.3288594   0.2570764   0.1125248 SPIN=   0.00000
   O   0.0808792   0.4351376  -0.2290044 SPIN=   0.00000
   O  -0.1754381   0.1551983  -0.3230791 SPIN=   0.00000
   O   0.0961715   0.1676892  -0.1168132 SPIN=   0.00000
   O  -0.3288594   0.2570764  -0.1125248 SPIN=   0.00000
   O  -0.3998885  -0.0342722   0.1131313 SPIN=   0.00000
   O  -0.1336220  -0.2448622   0.1246560 SPIN=   0.00000
   O  -0.6387140  -0.3439520   0.1137369 SPIN=   0.00000
   O  -0.4093740  -0.2043117   0.3184746 SPIN=   0.00000
   O  -0.3998885  -0.0342722  -0.1131313 SPIN=   0.00000
   O  -0.1336220  -0.2448622  -0.1246560 SPIN=   0.00000
   O  -0.6387140  -0.3439520  -0.1137369 SPIN=   0.00000
   O  -0.4093740  -0.2043117  -0.3184746 SPIN=   0.00000
   S   0.3683690  -0.2159368   0.0000000 SPIN=   0.00000
   S   0.0273815   0.3246348   0.5000000 SPIN=   0.00000
   S   0.0563897   0.2776108  -0.0000000 SPIN=   0.00000
   S  -0.3560409  -0.1810773   0.5000000 SPIN=   0.00000
   F  -0.4075338   0.4713204  -0.2933829 SPIN=   0.00000
   F  -0.4075338   0.4713204   0.2933829 SPIN=   0.00000
   F   0.2265291  -0.0206218   0.3000682 SPIN=   0.00000
   F   0.2265291  -0.0206218  -0.3000682 SPIN=   0.00000
%ENDBLOCK POSITIONS_FRAC

# Note: total spin =  16.00

KPOINTS_MP_SPACING 0.07

%BLOCK SPECIES_POT
QC5
%ENDBLOCK SPECIES_POT

SNAP_TO_SYMMETRY
SYMMETRY_GENERATE

