#              Generated by Buildcell
#
# at 10:58:37 (GMT+1.0) 18th August 2020
# in /scratch/scratch/uccabz1/launch_tmp
# on node-k10b-027
# by uccabz1
#
# compiler GCC version 4.9.2
# options -cpp -iprefix /scratch/UCL/applications/gcc/4.9.2/bin/../lib/gcc/x86_64-unknown-linux-gnu/4.9.2/ -mtune=corei7 -march=x86-64 -g -O2
#
# seed   -94792537   -71229808  1559703650    64515961 -1379024906   160253540   526758380     5409803  -513347990 -1414887940  1483397639 -1791327254
#
#      Author: C. J. Pickard (cjp20@cam.ac.uk)
#                Space group: Pna21
#

%BLOCK LATTICE_ABC
      6.58867      6.95951      8.72335
     90.00000     90.00000     90.00000
%ENDBLOCK LATTICE_ABC

%BLOCK POSITIONS_FRAC
  Li  -0.0276322  -0.4191967   0.2846176 SPIN=   0.00000
  Li   0.0276322   0.0808033  -0.2846176 SPIN=   0.00000
  Li  -0.4723678  -0.4191967  -0.2153824 SPIN=   0.00000
  Li   0.4723678   0.0808033   0.2153824 SPIN=   0.00000
  Fe  -0.3144795   0.2910811  -0.4351714 SPIN=   4.00000
  Fe   0.3144795  -0.2089189   0.4351714 SPIN=   4.00000
  Fe  -0.1855205   0.2910811   0.0648286 SPIN=   4.00000
  Fe   0.1855205  -0.2089189  -0.0648286 SPIN=   4.00000
   O  -0.4646890  -0.2124529   0.1455691 SPIN=   0.00000
   O  -0.1419115  -0.0515298   0.0779465 SPIN=   0.00000
   O  -0.4193734  -0.0714672  -0.1126296 SPIN=   0.00000
   O  -0.2296067  -0.3643744  -0.0395614 SPIN=   0.00000
   S  -0.3138951  -0.1749561   0.0178312 SPIN=   0.00000
   O   0.4646890   0.2875471  -0.1455691 SPIN=   0.00000
   O   0.1419115   0.4484702  -0.0779465 SPIN=   0.00000
   O   0.4193734   0.4285328   0.1126296 SPIN=   0.00000
   O   0.2296067   0.1356256   0.0395614 SPIN=   0.00000
   S   0.3138951   0.3250439  -0.0178312 SPIN=   0.00000
   O  -0.0353110  -0.2124529  -0.3544309 SPIN=   0.00000
   O  -0.3580885  -0.0515298  -0.4220535 SPIN=   0.00000
   O  -0.0806266  -0.0714672  -0.6126296 SPIN=   0.00000
   O  -0.2703933  -0.3643744  -0.5395614 SPIN=   0.00000
   S  -0.1861049  -0.1749561  -0.4821688 SPIN=   0.00000
   O   0.0353110   0.2875471   0.3544309 SPIN=   0.00000
   O   0.3580885   0.4484702   0.4220535 SPIN=   0.00000
   O   0.0806266   0.4285328   0.6126296 SPIN=   0.00000
   O   0.2703933   0.1356256   0.5395614 SPIN=   0.00000
   S   0.1861049   0.3250439   0.4821688 SPIN=   0.00000
   F  -0.1575891   0.2728059  -0.1937396 SPIN=   0.00000
   F   0.1575891  -0.2271941   0.1937396 SPIN=   0.00000
   F  -0.3424109   0.2728059   0.3062604 SPIN=   0.00000
   F   0.3424109  -0.2271941  -0.3062604 SPIN=   0.00000
%ENDBLOCK POSITIONS_FRAC

# Note: total spin =  16.00

KPOINTS_MP_SPACING 0.07

%BLOCK SPECIES_POT
QC5
%ENDBLOCK SPECIES_POT

SNAP_TO_SYMMETRY
SYMMETRY_GENERATE

