#              Generated by Buildcell
#
# at 09:04:36 (GMT+1.0) 18th August 2020
# in /lustre/scratch/uccabz1/launch_tmp
# on node-c12l-008
# by uccabz1
#
# compiler GCC version 4.9.2
# options -cpp -iprefix /lustre/shared/ucl/apps/gcc/4.9.2/bin/../lib/gcc/x86_64-unknown-linux-gnu/4.9.2/ -mtune=corei7 -march=x86-64 -g -Og
#
# seed   365982231  -819869945  1716483961 -1961346525 -1946497225 -1531655131   398086870 -1664804742  -650336843  1504118546 -1266397129 -2143937493
#
#      Author: C. J. Pickard (cjp20@cam.ac.uk)
#                Space group: P-1
#

%BLOCK LATTICE_ABC
      6.07774      7.79832      9.24566
     82.29017     89.49676     67.24397
%ENDBLOCK LATTICE_ABC

%BLOCK POSITIONS_FRAC
  Li   0.5000000  -0.0000000  -0.0000000 SPIN=   0.00000
  Li   0.5000000   0.5000000  -0.5000000 SPIN=   0.00000
  Li  -0.5000000   0.0000000  -0.5000000 SPIN=   0.00000
  Li  -0.0000000  -0.5000000   0.0000000 SPIN=   0.00000
  Fe  -0.3715971   0.4275956   0.1884597 SPIN=   4.59700
  Fe   0.3715971  -0.4275956  -0.1884597 SPIN=   4.59700
  Fe  -0.0000000   0.0000000  -0.5000000 SPIN=   1.52211
  Fe   0.0000000   0.0000000   0.0000000 SPIN=   5.28390
   O   0.4162184   0.1325673   0.1857672 SPIN=   0.00000
   O   0.2851483   0.2448381   0.4222472 SPIN=   0.00000
   O  -0.0008949   0.2036577   0.2551330 SPIN=   0.00000
   O   0.1388540   0.4619731   0.1910357 SPIN=   0.00000
   S   0.2098315   0.2607591   0.2635458 SPIN=   0.00000
   O  -0.4162184  -0.1325673  -0.1857672 SPIN=   0.00000
   O  -0.2851483  -0.2448381  -0.4222472 SPIN=   0.00000
   O   0.0008949  -0.2036577  -0.2551330 SPIN=   0.00000
   O  -0.1388540  -0.4619731  -0.1910357 SPIN=   0.00000
   S  -0.2098315  -0.2607591  -0.2635458 SPIN=   0.00000
   O   0.4656316   0.1846918  -0.1746542 SPIN=   0.00000
   O   0.2823302   0.0556739  -0.3471254 SPIN=   0.00000
   O   0.1578126   0.3996526  -0.3606777 SPIN=   0.00000
   O   0.0443479   0.2208696  -0.1524834 SPIN=   0.00000
   S   0.2375306   0.2152220  -0.2587352 SPIN=   0.00000
   O  -0.4656316  -0.1846918   0.1746542 SPIN=   0.00000
   O  -0.2823302  -0.0556739   0.3471254 SPIN=   0.00000
   O  -0.1578126  -0.3996526   0.3606777 SPIN=   0.00000
   O  -0.0443479  -0.2208696   0.1524834 SPIN=   0.00000
   S  -0.2375306  -0.2152220   0.2587352 SPIN=   0.00000
   F  -0.2892811   0.2505811   0.0266510 SPIN=   0.00000
   F   0.2892811  -0.2505811  -0.0266510 SPIN=   0.00000
   F   0.2786111  -0.2544931   0.4915649 SPIN=   0.00000
   F  -0.2786111   0.2544931  -0.4915649 SPIN=   0.00000
%ENDBLOCK POSITIONS_FRAC

# Note: total spin =  16.00

KPOINTS_MP_SPACING 0.07

%BLOCK SPECIES_POT
QC5
%ENDBLOCK SPECIES_POT

SNAP_TO_SYMMETRY
SYMMETRY_GENERATE

