#              Generated by Buildcell
#
# at 00:44:59 (GMT+1.0) 18th August 2020
# in /lustre/scratch/uccabz1/launch_tmp
# on node-c12i-024
# by uccabz1
#
# compiler GCC version 4.9.2
# options -cpp -iprefix /lustre/shared/ucl/apps/gcc/4.9.2/bin/../lib/gcc/x86_64-unknown-linux-gnu/4.9.2/ -mtune=corei7 -march=x86-64 -g -Og
#
# seed -1457702949  -146236883  1522100745 -1414219987  -963331927  1899387820  -167415108   334600600 -1361252805   -34454825 -1148176459    86156225
#
#      Author: C. J. Pickard (cjp20@cam.ac.uk)
#                Space group: P-1
#

%BLOCK LATTICE_ABC
      5.46683      8.61844      8.74574
     91.00065    101.29258     97.73355
%ENDBLOCK LATTICE_ABC

%BLOCK POSITIONS_FRAC
  Li  -0.1347290   0.0926533   0.3240268 SPIN=   0.00000
  Li   0.1347290  -0.0926533  -0.3240268 SPIN=   0.00000
  Li  -0.4860976   0.3570248  -0.1484264 SPIN=   0.00000
  Li   0.4860976  -0.3570248   0.1484264 SPIN=   0.00000
  Fe   0.0523936  -0.2415727  -0.0388708 SPIN=   2.86465
  Fe  -0.0523936   0.2415727   0.0388708 SPIN=   2.86465
  Fe   0.4449821  -0.3478087  -0.3098004 SPIN=   5.13535
  Fe  -0.4449821   0.3478087   0.3098004 SPIN=   5.13535
   O   0.0683429   0.1243840  -0.4375432 SPIN=   0.00000
   O   0.1632558   0.3721552  -0.2764286 SPIN=   0.00000
   O  -0.0552028   0.3695016  -0.5526887 SPIN=   0.00000
   O   0.3948786   0.3346231  -0.4876248 SPIN=   0.00000
   S   0.1428186   0.3001660  -0.4385713 SPIN=   0.00000
   O  -0.0683429  -0.1243840   0.4375432 SPIN=   0.00000
   O  -0.1632558  -0.3721552   0.2764286 SPIN=   0.00000
   O   0.0552028  -0.3695016   0.5526887 SPIN=   0.00000
   O  -0.3948786  -0.3346231   0.4876248 SPIN=   0.00000
   S  -0.1428186  -0.3001660   0.4385713 SPIN=   0.00000
   O  -0.2232704  -0.0883053  -0.3380875 SPIN=   0.00000
   O  -0.5200584  -0.0338756  -0.1701103 SPIN=   0.00000
   O  -0.5306816   0.0949199  -0.4215808 SPIN=   0.00000
   O  -0.1721842   0.1711684  -0.2009182 SPIN=   0.00000
   S  -0.3615487   0.0359769  -0.2826742 SPIN=   0.00000
   O   0.2232704   0.0883053   0.3380875 SPIN=   0.00000
   O   0.5200584   0.0338756   0.1701103 SPIN=   0.00000
   O   0.5306816  -0.0949199   0.4215808 SPIN=   0.00000
   O   0.1721842  -0.1711684   0.2009182 SPIN=   0.00000
   S   0.3615487  -0.0359769   0.2826742 SPIN=   0.00000
   F   0.2660850  -0.4707917   0.2633718 SPIN=   0.00000
   F  -0.2660850   0.4707917  -0.2633718 SPIN=   0.00000
   F   0.2702640   0.1699104  -0.0503935 SPIN=   0.00000
   F  -0.2702640  -0.1699104   0.0503935 SPIN=   0.00000
%ENDBLOCK POSITIONS_FRAC

# Note: total spin =  16.00

KPOINTS_MP_SPACING 0.07

%BLOCK SPECIES_POT
QC5
%ENDBLOCK SPECIES_POT

SNAP_TO_SYMMETRY
SYMMETRY_GENERATE

