#              Generated by Buildcell
#
# at 06:37:25 (GMT+1.0) 4th August 2020
# in /lustre/scratch/uccabz1/launch_tmp
# on node-c12d-010
# by uccabz1
#
# compiler GCC version 4.9.2
# options -cpp -iprefix /lustre/shared/ucl/apps/gcc/4.9.2/bin/../lib/gcc/x86_64-unknown-linux-gnu/4.9.2/ -mtune=corei7 -march=x86-64 -g -Og
#
# seed -1952201925   -76740100  1396080752   -57171672  -820546411 -1746577850 -1874247615 -1359918845 -1865755659   913562950 -2042171175   694491682
#
#      Author: C. J. Pickard (cjp20@cam.ac.uk)
#                Space group: C2
#

%BLOCK LATTICE_ABC
      6.47566      8.17935      8.17935
    111.94549     93.06724     93.06724
%ENDBLOCK LATTICE_ABC

%BLOCK POSITIONS_FRAC
  Li   0.0000000   0.1633412  -0.1633412 SPIN=   0.00000
  Li   0.0000000  -0.2047261   0.2047261 SPIN=   0.00000
  Li  -0.5000000  -0.0051196   0.0051196 SPIN=   0.00000
  Li  -0.5000000  -0.6862792  -0.3137208 SPIN=   0.00000
  Fe   0.3600099   0.0446428   0.3479747 SPIN=   4.19578
  Fe  -0.3600099  -0.3479747  -0.0446428 SPIN=   4.19578
  Fe  -0.0996112  -0.2277815  -0.3920096 SPIN=   3.80422
  Fe   0.0996112   0.3920096   0.2277815 SPIN=   3.80422
   O  -0.2611652   0.0592073   0.5661807 SPIN=   0.00000
   O  -0.1597144   0.0275521   0.2690217 SPIN=   0.00000
   O   0.1063955   0.1171503   0.5215320 SPIN=   0.00000
   O  -0.1515299   0.3246557   0.5063057 SPIN=   0.00000
   S  -0.1165035   0.1321414   0.4657600 SPIN=   0.00000
   O   0.2611652  -0.5661807  -0.0592073 SPIN=   0.00000
   O   0.1597144  -0.2690217  -0.0275521 SPIN=   0.00000
   O  -0.1063955  -0.5215320  -0.1171503 SPIN=   0.00000
   O   0.1515299  -0.5063057  -0.3246557 SPIN=   0.00000
   S   0.1165035  -0.4657600  -0.1321414 SPIN=   0.00000
   O   0.2456112  -0.2065707  -0.2794096 SPIN=   0.00000
   O   0.6151044  -0.1047128  -0.2666444 SPIN=   0.00000
   O   0.3421274   0.0989232  -0.2553314 SPIN=   0.00000
   O   0.3825936  -0.1536928  -0.5335980 SPIN=   0.00000
   S   0.3963592  -0.0915132  -0.3337458 SPIN=   0.00000
   O  -0.2456112   0.2794096   0.2065707 SPIN=   0.00000
   O  -0.6151044   0.2666444   0.1047128 SPIN=   0.00000
   O  -0.3421274   0.2553314  -0.0989232 SPIN=   0.00000
   O  -0.3825936   0.5335980   0.1536928 SPIN=   0.00000
   S  -0.3963592   0.3337458   0.0915132 SPIN=   0.00000
   F   0.5000000  -0.5372138  -0.4627862 SPIN=   0.00000
   F   0.0000000   0.0148177  -0.0148177 SPIN=   0.00000
   F   0.5000000  -0.1681366   0.1681366 SPIN=   0.00000
   F   0.0000000   0.6452439   0.3547561 SPIN=   0.00000
%ENDBLOCK POSITIONS_FRAC

# Note: total spin =  16.00

KPOINTS_MP_SPACING 0.07

%BLOCK SPECIES_POT
QC5
%ENDBLOCK SPECIES_POT

SNAP_TO_SYMMETRY
SYMMETRY_GENERATE

