#              Generated by Buildcell
#
# at 06:23:30 (GMT+1.0) 4th August 2020
# in /lustre/scratch/uccabz1/launch_tmp
# on node-c12h-022
# by uccabz1
#
# compiler GCC version 4.9.2
# options -cpp -iprefix /lustre/shared/ucl/apps/gcc/4.9.2/bin/../lib/gcc/x86_64-unknown-linux-gnu/4.9.2/ -mtune=corei7 -march=x86-64 -g -Og
#
# seed  -144993680  2060349387 -1160690825 -1614603897 -1538070468 -1682832040  -629893755  -904530350   535989944 -1565470224  -306083912  -514883306
#
#      Author: C. J. Pickard (cjp20@cam.ac.uk)
#                Space group: P-1
#

%BLOCK LATTICE_ABC
      5.64745      6.65110     11.56110
     81.55976     75.87773     72.32168
%ENDBLOCK LATTICE_ABC

%BLOCK POSITIONS_FRAC
  Li  -0.7612646  -0.3267686   0.3164237 SPIN=   0.00000
  Li   0.7612646   0.3267686  -0.3164237 SPIN=   0.00000
  Li   0.5000000   0.0000000  -0.5000000 SPIN=   0.00000
  Li  -0.0000000   0.5000000   0.0000000 SPIN=   0.00000
  Fe  -0.1985073   0.3285927   0.4140332 SPIN=   4.59052
  Fe   0.1985073  -0.3285927  -0.4140332 SPIN=   4.59052
  Fe  -0.2054967  -0.0818722  -0.1425362 SPIN=   3.40948
  Fe   0.2054967   0.0818722   0.1425362 SPIN=   3.40948
   O   0.1282815  -0.3393414  -0.1529720 SPIN=   0.00000
   O   0.5578094  -0.3931602  -0.2830765 SPIN=   0.00000
   O   0.4739665  -0.6587688  -0.1163084 SPIN=   0.00000
   O   0.4837118  -0.3077914  -0.0736422 SPIN=   0.00000
   S   0.4109423  -0.4247655  -0.1564998 SPIN=   0.00000
   O  -0.1282815   0.3393414   0.1529720 SPIN=   0.00000
   O  -0.5578094   0.3931602   0.2830765 SPIN=   0.00000
   O  -0.4739665   0.6587688   0.1163084 SPIN=   0.00000
   O  -0.4837118   0.3077914   0.0736422 SPIN=   0.00000
   S  -0.4109423   0.4247655   0.1564998 SPIN=   0.00000
   O   0.0103383   0.2826500  -0.2082166 SPIN=   0.00000
   O   0.4725533   0.2214337  -0.2885916 SPIN=   0.00000
   O   0.1968752   0.1835488  -0.4160385 SPIN=   0.00000
   S   0.2412769   0.1518936  -0.2897032 SPIN=   0.00000
   O  -0.0103383  -0.2826500   0.2082166 SPIN=   0.00000
   O  -0.4725533  -0.2214337   0.2885916 SPIN=   0.00000
   O  -0.1968752  -0.1835488   0.4160385 SPIN=   0.00000
   S  -0.2412769  -0.1518936   0.2897032 SPIN=   0.00000
   O   1.0000000  -0.5000000  -0.5000000 SPIN=   0.00000
   O  -0.5000000  -0.0000000   0.0000000 SPIN=   0.00000
   F   0.1138595   0.1317649   0.3594492 SPIN=   0.00000
   F  -0.1138595  -0.1317649  -0.3594492 SPIN=   0.00000
   F  -0.0000000  -0.0000000   0.0000000 SPIN=   0.00000
   F  -0.5000000   0.5000000   0.5000000 SPIN=   0.00000
%ENDBLOCK POSITIONS_FRAC

# Note: total spin =  16.00

KPOINTS_MP_SPACING 0.07

%BLOCK SPECIES_POT
QC5
%ENDBLOCK SPECIES_POT

SNAP_TO_SYMMETRY
SYMMETRY_GENERATE

