#              Generated by Buildcell
#
# at 09:18:44 (GMT+1.0) 4th August 2020
# in /lustre/scratch/uccabz1/launch_tmp
# on node-c12n-016
# by uccabz1
#
# compiler GCC version 4.9.2
# options -cpp -iprefix /lustre/shared/ucl/apps/gcc/4.9.2/bin/../lib/gcc/x86_64-unknown-linux-gnu/4.9.2/ -mtune=corei7 -march=x86-64 -g -Og
#
# seed  1852713665  -404822351   352493871  1446439599  1015748650 -1107770219  1610652711  1537142335   864661888  1038302519  -231619524   409711776
#
#      Author: C. J. Pickard (cjp20@cam.ac.uk)
#                Space group: P2
#

%BLOCK LATTICE_ABC
      7.22911      7.37013      7.76044
    104.66627     90.00000     90.00000
%ENDBLOCK LATTICE_ABC

%BLOCK POSITIONS_FRAC
  Li  -0.4357740   0.4611449   0.2405274 SPIN=   0.00000
  Li  -0.4357740  -0.4611449  -0.2405274 SPIN=   0.00000
  Li  -0.0138659  -0.0796817   0.2342613 SPIN=   0.00000
  Li  -0.0138659   0.0796817  -0.2342613 SPIN=   0.00000
  Fe  -0.4184723   0.1778127  -0.1310433 SPIN=   0.61390
  Fe  -0.4184723  -0.1778127   0.1310433 SPIN=   0.61390
  Fe   0.1105887   0.2877073   0.1760653 SPIN=   7.38610
  Fe   0.1105887  -0.2877073  -0.1760653 SPIN=   7.38610
   O  -0.4624347   0.3011176   0.4076016 SPIN=   0.00000
   O  -0.2531283   0.0478899   0.2489436 SPIN=   0.00000
   O  -0.2238187   0.1756407   0.5749266 SPIN=   0.00000
   O  -0.1315320   0.3687170   0.3706640 SPIN=   0.00000
   S  -0.2677284   0.2233413   0.4005340 SPIN=   0.00000
   O  -0.4624347  -0.3011176  -0.4076016 SPIN=   0.00000
   O  -0.2531283  -0.0478899  -0.2489436 SPIN=   0.00000
   O  -0.2238187  -0.1756407  -0.5749266 SPIN=   0.00000
   O  -0.1315320  -0.3687170  -0.3706640 SPIN=   0.00000
   S  -0.2677284  -0.2233413  -0.4005340 SPIN=   0.00000
   O   0.3423260  -0.4464162   0.3798846 SPIN=   0.00000
   O   0.2336886  -0.1386355   0.5611243 SPIN=   0.00000
   O   0.0346364  -0.3267013   0.3223432 SPIN=   0.00000
   O   0.3184549  -0.1769075   0.2449502 SPIN=   0.00000
   S   0.2322765  -0.2721651   0.3770756 SPIN=   0.00000
   O   0.3423260   0.4464162  -0.3798846 SPIN=   0.00000
   O   0.2336886   0.1386355  -0.5611243 SPIN=   0.00000
   O   0.0346364   0.3267013  -0.3223432 SPIN=   0.00000
   O   0.3184549   0.1769075  -0.2449502 SPIN=   0.00000
   S   0.2322765   0.2721651  -0.3770756 SPIN=   0.00000
   F  -0.1059939  -0.2437617   0.0269086 SPIN=   0.00000
   F  -0.1059939   0.2437617  -0.0269086 SPIN=   0.00000
   F   0.3994466  -0.2940202  -0.0948142 SPIN=   0.00000
   F   0.3994466   0.2940202   0.0948142 SPIN=   0.00000
%ENDBLOCK POSITIONS_FRAC

# Note: total spin =  16.00

KPOINTS_MP_SPACING 0.07

%BLOCK SPECIES_POT
QC5
%ENDBLOCK SPECIES_POT

SNAP_TO_SYMMETRY
SYMMETRY_GENERATE

