#              Generated by Buildcell
#
# at 00:41:44 (GMT+1.0) 18th August 2020
# in /lustre/scratch/uccabz1/launch_tmp
# on node-c12o-031
# by uccabz1
#
# compiler GCC version 4.9.2
# options -cpp -iprefix /lustre/shared/ucl/apps/gcc/4.9.2/bin/../lib/gcc/x86_64-unknown-linux-gnu/4.9.2/ -mtune=corei7 -march=x86-64 -g -Og
#
# seed -1372332202  1382944843   966418250   693546396   459356305  1475587851 -1701544664   994839761  1917824209  -968989649  -286539472 -1134137401
#
#      Author: C. J. Pickard (cjp20@cam.ac.uk)
#                Space group: Pca21
#

%BLOCK LATTICE_ABC
      6.71259      7.57882      7.86263
     90.00000     90.00000     90.00000
%ENDBLOCK LATTICE_ABC

%BLOCK POSITIONS_FRAC
  Li   0.2063623   0.4133031  -0.2539859 SPIN=   0.00000
  Li  -0.2936377  -0.4133031   0.2539859 SPIN=   0.00000
  Li   0.2063623  -0.0866969   0.2539859 SPIN=   0.00000
  Li  -0.2936377   0.0866969  -0.2539859 SPIN=   0.00000
  Fe   0.1318528   0.3528525   0.3724877 SPIN=   4.00000
  Fe  -0.3681472  -0.3528525  -0.3724877 SPIN=   4.00000
  Fe   0.1318528  -0.1471475  -0.3724877 SPIN=   4.00000
  Fe  -0.3681472   0.1471475   0.3724877 SPIN=   4.00000
   O   0.0149043   0.3179695  -0.0885052 SPIN=   0.00000
   O  -0.1800007   0.1103569   0.0885287 SPIN=   0.00000
   O   0.1884837   0.1016561   0.0949110 SPIN=   0.00000
   O   0.0070677   0.0002981  -0.1611028 SPIN=   0.00000
   S   0.0076138   0.1325701  -0.0165421 SPIN=   0.00000
   O  -0.4850957  -0.3179695   0.0885052 SPIN=   0.00000
   O  -0.6800007  -0.1103569  -0.0885287 SPIN=   0.00000
   O  -0.3115163  -0.1016561  -0.0949110 SPIN=   0.00000
   O  -0.4929323  -0.0002981   0.1611028 SPIN=   0.00000
   S  -0.4923862  -0.1325701   0.0165421 SPIN=   0.00000
   O   0.0149043  -0.1820305   0.0885052 SPIN=   0.00000
   O  -0.1800007  -0.3896431  -0.0885287 SPIN=   0.00000
   O   0.1884837  -0.3983439  -0.0949110 SPIN=   0.00000
   O   0.0070677  -0.4997019   0.1611028 SPIN=   0.00000
   S   0.0076138  -0.3674299   0.0165421 SPIN=   0.00000
   O  -0.4850957   0.1820305  -0.0885052 SPIN=   0.00000
   O  -0.6800007   0.3896431   0.0885287 SPIN=   0.00000
   O  -0.3115163   0.3983439   0.0949110 SPIN=   0.00000
   O  -0.4929323   0.4997019  -0.1611028 SPIN=   0.00000
   S  -0.4923862   0.3674299  -0.0165421 SPIN=   0.00000
   F   0.3252943   0.0929629  -0.3941175 SPIN=   0.00000
   F  -0.1747057  -0.0929629   0.3941175 SPIN=   0.00000
   F   0.3252943  -0.4070371   0.3941175 SPIN=   0.00000
   F  -0.1747057   0.4070371  -0.3941175 SPIN=   0.00000
%ENDBLOCK POSITIONS_FRAC

# Note: total spin =  16.00

KPOINTS_MP_SPACING 0.07

%BLOCK SPECIES_POT
QC5
%ENDBLOCK SPECIES_POT

SNAP_TO_SYMMETRY
SYMMETRY_GENERATE

