#              Generated by Buildcell
#
# at 16:28:40 (GMT+1.0) 18th August 2020
# in /lustre/scratch/uccabz1/launch_tmp
# on node-c12l-014
# by uccabz1
#
# compiler GCC version 4.9.2
# options -cpp -iprefix /lustre/shared/ucl/apps/gcc/4.9.2/bin/../lib/gcc/x86_64-unknown-linux-gnu/4.9.2/ -mtune=corei7 -march=x86-64 -g -Og
#
# seed -1587310325 -1853521666 -1387767283   317712671  -462417570 -1788709876  1048511566   722626980 -1515415417   365158597 -1730407220  1709621298
#
#      Author: C. J. Pickard (cjp20@cam.ac.uk)
#                Space group: Iba2
#

%BLOCK LATTICE_ABC
      7.78621      8.17733      8.17733
     71.63073     61.57000     61.57000
%ENDBLOCK LATTICE_ABC

%BLOCK POSITIONS_FRAC
  Li   0.3515663  -0.0596438  -0.4351717 SPIN=   0.00000
  Li   0.1432492  -0.4351717  -0.0596438 SPIN=   0.00000
  Li  -0.1484337   0.0648283   0.4403562 SPIN=   0.00000
  Li  -0.3567508   0.4403562   0.0648283 SPIN=   0.00000
  Fe  -0.2040829   0.1960622  -0.2269331 SPIN=   4.00000
  Fe   0.2349538  -0.2269331   0.1960622 SPIN=   4.00000
  Fe   0.2959171   0.2730669  -0.3039378 SPIN=   4.00000
  Fe  -0.2650462  -0.3039378   0.2730669 SPIN=   4.00000
   O   0.2749049   0.2656037   0.0597207 SPIN=   0.00000
   O   0.0768546   0.0666875   0.1489646 SPIN=   0.00000
   O  -0.0653270   0.3984214   0.0217453 SPIN=   0.00000
   O  -0.0623708   0.3188957   0.3387943 SPIN=   0.00000
   S   0.0560154   0.2624021   0.1423062 SPIN=   0.00000
   O  -0.6002293   0.0597207   0.2656037 SPIN=   0.00000
   O  -0.2925067   0.1489646   0.0666875 SPIN=   0.00000
   O  -0.3548397   0.0217453   0.3984214 SPIN=   0.00000
   O  -0.5953192   0.3387943   0.3188957 SPIN=   0.00000
   S  -0.4607237   0.1423062   0.2624021 SPIN=   0.00000
   O  -0.2250951  -0.4402793  -0.2343963 SPIN=   0.00000
   O  -0.4231454  -0.3510354  -0.4333125 SPIN=   0.00000
   O  -0.5653270  -0.4782547  -0.1015786 SPIN=   0.00000
   O  -0.5623708  -0.1612057  -0.1811043 SPIN=   0.00000
   S  -0.4439846  -0.3576938  -0.2375979 SPIN=   0.00000
   O  -0.1002293  -0.2343963  -0.4402793 SPIN=   0.00000
   O   0.2074933  -0.4333125  -0.3510354 SPIN=   0.00000
   O   0.1451603  -0.1015786  -0.4782547 SPIN=   0.00000
   O  -0.0953192  -0.1811043  -0.1612057 SPIN=   0.00000
   S   0.0392763  -0.2375979  -0.3576938 SPIN=   0.00000
   F  -0.4272517   0.2135512  -0.3208753 SPIN=   0.00000
   F  -0.4654241  -0.3208753   0.2135512 SPIN=   0.00000
   F   0.0727483   0.1791247  -0.2864488 SPIN=   0.00000
   F   0.0345759  -0.2864488   0.1791247 SPIN=   0.00000
%ENDBLOCK POSITIONS_FRAC

# Note: total spin =  16.00

KPOINTS_MP_SPACING 0.07

%BLOCK SPECIES_POT
QC5
%ENDBLOCK SPECIES_POT

SNAP_TO_SYMMETRY
SYMMETRY_GENERATE

