#              Generated by Buildcell
#
# at 16:16:41 (GMT+1.0) 18th August 2020
# in /lustre/scratch/uccabz1/launch_tmp
# on node-c12f-008
# by uccabz1
#
# compiler GCC version 4.9.2
# options -cpp -iprefix /lustre/shared/ucl/apps/gcc/4.9.2/bin/../lib/gcc/x86_64-unknown-linux-gnu/4.9.2/ -mtune=corei7 -march=x86-64 -g -Og
#
# seed   675142468  1406081782   505801269   470591825  1921992866   279005687 -1030025282 -1323809219  -977592044 -1320701593  -690172932   168129709
#
#      Author: C. J. Pickard (cjp20@cam.ac.uk)
#                Space group: P21
#

%BLOCK LATTICE_ABC
      4.24513      9.33754     10.32055
     90.00000     90.00000    102.10562
%ENDBLOCK LATTICE_ABC

%BLOCK POSITIONS_FRAC
  Li   0.1476424  -0.3955027   0.0277769 SPIN=   0.00000
  Li  -0.1476424   0.3955027  -0.4722231 SPIN=   0.00000
  Li  -0.3102259  -0.3061494  -0.2794680 SPIN=   0.00000
  Li   0.3102259   0.3061494   0.2205320 SPIN=   0.00000
  Fe  -0.0988767   0.1492615  -0.2947307 SPIN=   2.51965
  Fe   0.0988767  -0.1492615   0.2052693 SPIN=   2.51965
  Fe   0.2704623  -0.1339336  -0.1450179 SPIN=   5.48035
  Fe  -0.2704623   0.1339336   0.3549821 SPIN=   5.48035
   O   0.5182552  -0.3165395  -0.4675882 SPIN=   0.00000
   O   0.2104735  -0.1623605  -0.5884658 SPIN=   0.00000
   O   0.6300404  -0.0485744  -0.4317044 SPIN=   0.00000
   O   0.1195836  -0.2032930  -0.3532727 SPIN=   0.00000
   S   0.3695882  -0.1826919  -0.4602578 SPIN=   0.00000
   O  -0.5182552   0.3165395   0.0324118 SPIN=   0.00000
   O  -0.2104735   0.1623605  -0.0884658 SPIN=   0.00000
   O  -0.6300404   0.0485744   0.0682956 SPIN=   0.00000
   O  -0.1195836   0.2032930   0.1467273 SPIN=   0.00000
   S  -0.3695882   0.1826919   0.0397422 SPIN=   0.00000
   O  -0.2359186   0.4998917  -0.2125118 SPIN=   0.00000
   O   0.1784283   0.3660746  -0.1407894 SPIN=   0.00000
   O   0.3117154   0.6365502  -0.1563180 SPIN=   0.00000
   O   0.2244543   0.4862069  -0.3557206 SPIN=   0.00000
   S   0.1196698   0.4971809  -0.2163349 SPIN=   0.00000
   O   0.2359186  -0.4998917   0.2874882 SPIN=   0.00000
   O  -0.1784283  -0.3660746   0.3592106 SPIN=   0.00000
   O  -0.3117154  -0.6365502   0.3436820 SPIN=   0.00000
   O  -0.2244543  -0.4862069   0.1442794 SPIN=   0.00000
   S  -0.1196698  -0.4971809   0.2836651 SPIN=   0.00000
   F  -0.2119765  -0.1196045  -0.1525775 SPIN=   0.00000
   F   0.2119765   0.1196045   0.3474225 SPIN=   0.00000
   F   0.4217401   0.1738184  -0.3013092 SPIN=   0.00000
   F  -0.4217401  -0.1738184   0.1986908 SPIN=   0.00000
%ENDBLOCK POSITIONS_FRAC

# Note: total spin =  16.00

KPOINTS_MP_SPACING 0.07

%BLOCK SPECIES_POT
QC5
%ENDBLOCK SPECIES_POT

SNAP_TO_SYMMETRY
SYMMETRY_GENERATE

