#              Generated by Buildcell
#
# at 14:43:52 (GMT+1.0) 18th August 2020
# in /scratch/scratch/uccabz1/launch_tmp
# on node-k10e-023
# by uccabz1
#
# compiler GCC version 4.9.2
# options -cpp -iprefix /scratch/UCL/applications/gcc/4.9.2/bin/../lib/gcc/x86_64-unknown-linux-gnu/4.9.2/ -mtune=corei7 -march=x86-64 -g -O2
#
# seed -1946037522   935360603  1660842813  2120989319 -1217867383   900902358 -1406233207   163220661 -1171066075   420381291  1929049510  1045130170
#
#      Author: C. J. Pickard (cjp20@cam.ac.uk)
#                Space group: P2/c
#

%BLOCK LATTICE_ABC
      4.15742      7.39922     13.01027
     90.00000     91.89143     90.00000
%ENDBLOCK LATTICE_ABC

%BLOCK POSITIONS_FRAC
  Li   0.2430527  -0.2727602   0.4768891 SPIN=   0.00000
  Li  -0.2430527  -0.2727602   0.0231109 SPIN=   0.00000
  Li  -0.2430527   0.2727602  -0.4768891 SPIN=   0.00000
  Li   0.2430527   0.2727602  -0.0231109 SPIN=   0.00000
  Fe  -0.2378746   0.0010350  -0.1364343 SPIN=   4.00000
  Fe   0.2378746   0.0010350  -0.3635657 SPIN=   4.00000
  Fe   0.2378746  -0.0010350   0.1364343 SPIN=   4.00000
  Fe  -0.2378746  -0.0010350   0.3635657 SPIN=   4.00000
   O  -0.0829439  -0.2757473   0.3425833 SPIN=   0.00000
   O  -0.6157791  -0.4249694   0.3418488 SPIN=   0.00000
   O  -0.2501547  -0.4466762   0.4953627 SPIN=   0.00000
   O  -0.1201279  -0.6093835   0.3358052 SPIN=   0.00000
   S  -0.2672514  -0.4391941   0.3789000 SPIN=   0.00000
   O   0.0829439  -0.2757473   0.1574167 SPIN=   0.00000
   O   0.6157791  -0.4249694   0.1581512 SPIN=   0.00000
   O   0.2501547  -0.4466762   0.0046373 SPIN=   0.00000
   O   0.1201279  -0.6093835   0.1641948 SPIN=   0.00000
   S   0.2672514  -0.4391941   0.1211000 SPIN=   0.00000
   O   0.0829439   0.2757473  -0.3425833 SPIN=   0.00000
   O   0.6157791   0.4249694  -0.3418488 SPIN=   0.00000
   O   0.2501547   0.4466762  -0.4953627 SPIN=   0.00000
   O   0.1201279   0.6093835  -0.3358052 SPIN=   0.00000
   S   0.2672514   0.4391941  -0.3789000 SPIN=   0.00000
   O  -0.0829439   0.2757473  -0.1574167 SPIN=   0.00000
   O  -0.6157791   0.4249694  -0.1581512 SPIN=   0.00000
   O  -0.2501547   0.4466762  -0.0046373 SPIN=   0.00000
   O  -0.1201279   0.6093835  -0.1641948 SPIN=   0.00000
   S  -0.2672514   0.4391941  -0.1211000 SPIN=   0.00000
   F  -0.2645260   0.1478895   0.1123479 SPIN=   0.00000
   F   0.2645260   0.1478895   0.3876521 SPIN=   0.00000
   F   0.2645260  -0.1478895  -0.1123479 SPIN=   0.00000
   F  -0.2645260  -0.1478895  -0.3876521 SPIN=   0.00000
%ENDBLOCK POSITIONS_FRAC

# Note: total spin =  16.00

KPOINTS_MP_SPACING 0.07

%BLOCK SPECIES_POT
QC5
%ENDBLOCK SPECIES_POT

SNAP_TO_SYMMETRY
SYMMETRY_GENERATE

