#              Generated by Buildcell
#
# at 06:42:35 (GMT+1.0) 4th August 2020
# in /lustre/scratch/uccabz1/launch_tmp
# on node-c12d-014
# by uccabz1
#
# compiler GCC version 4.9.2
# options -cpp -iprefix /lustre/shared/ucl/apps/gcc/4.9.2/bin/../lib/gcc/x86_64-unknown-linux-gnu/4.9.2/ -mtune=corei7 -march=x86-64 -g -Og
#
# seed -1683508231   111617109  -169063707   500056858 -1254903301  1055953616  1189431722 -1533982138  -436236644 -1553705835 -1892051194   233389398
#
#      Author: C. J. Pickard (cjp20@cam.ac.uk)
#                Space group: Pna21
#

%BLOCK LATTICE_ABC
      5.42927      8.35921      8.81359
     90.00000     90.00000     90.00000
%ENDBLOCK LATTICE_ABC

%BLOCK POSITIONS_FRAC
  Li  -0.1938810   0.2129998   0.0969316 SPIN=   0.00000
  Li   0.3061190  -0.2129998  -0.0969316 SPIN=   0.00000
  Li  -0.1938810   0.2870002  -0.4030684 SPIN=   0.00000
  Li   0.3061190  -0.2870002   0.4030684 SPIN=   0.00000
  Fe  -0.4495390  -0.0386940  -0.3647277 SPIN=   4.00000
  Fe   0.0504610   0.0386940   0.3647277 SPIN=   4.00000
  Fe  -0.4495390  -0.4613060   0.1352723 SPIN=   4.00000
  Fe   0.0504610   0.4613060  -0.1352723 SPIN=   4.00000
   O  -0.1017852   0.2197490  -0.1741920 SPIN=   0.00000
   O  -0.1138968  -0.0718801  -0.2220418 SPIN=   0.00000
   O   0.0523452   0.0312653   0.0204295 SPIN=   0.00000
   O   0.2855833   0.0706541  -0.2179210 SPIN=   0.00000
   S   0.0305616   0.0624471  -0.1484313 SPIN=   0.00000
   O  -0.6017852  -0.2197490   0.1741920 SPIN=   0.00000
   O  -0.6138968   0.0718801   0.2220418 SPIN=   0.00000
   O  -0.4476548  -0.0312653  -0.0204295 SPIN=   0.00000
   O  -0.2144167  -0.0706541   0.2179210 SPIN=   0.00000
   S  -0.4694384  -0.0624471   0.1484313 SPIN=   0.00000
   O  -0.1017852   0.2802510   0.3258080 SPIN=   0.00000
   O  -0.1138968   0.5718801   0.2779582 SPIN=   0.00000
   O   0.0523452   0.4687347   0.5204295 SPIN=   0.00000
   O   0.2855833   0.4293459   0.2820790 SPIN=   0.00000
   S   0.0305616   0.4375529   0.3515687 SPIN=   0.00000
   O  -0.6017852  -0.2802510  -0.3258080 SPIN=   0.00000
   O  -0.6138968  -0.5718801  -0.2779582 SPIN=   0.00000
   O  -0.4476548  -0.4687347  -0.5204295 SPIN=   0.00000
   O  -0.2144167  -0.4293459  -0.2820790 SPIN=   0.00000
   S  -0.4694384  -0.4375529  -0.3515687 SPIN=   0.00000
   F   0.4722770   0.1512163  -0.4904801 SPIN=   0.00000
   F  -0.0277230  -0.1512163   0.4904801 SPIN=   0.00000
   F   0.4722770   0.3487837   0.0095199 SPIN=   0.00000
   F  -0.0277230  -0.3487837  -0.0095199 SPIN=   0.00000
%ENDBLOCK POSITIONS_FRAC

# Note: total spin =  16.00

KPOINTS_MP_SPACING 0.07

%BLOCK SPECIES_POT
QC5
%ENDBLOCK SPECIES_POT

SNAP_TO_SYMMETRY
SYMMETRY_GENERATE

