#              Generated by Buildcell
#
# at 10:48:22 (GMT+1.0) 4th August 2020
# in /lustre/scratch/uccabz1/launch_tmp
# on node-c12h-031
# by uccabz1
#
# compiler GCC version 4.9.2
# options -cpp -iprefix /lustre/shared/ucl/apps/gcc/4.9.2/bin/../lib/gcc/x86_64-unknown-linux-gnu/4.9.2/ -mtune=corei7 -march=x86-64 -g -Og
#
# seed  2108390171  1045540014  -180094471   566383600   282068935 -1500489670   -44256006   370161285  1873301439  -984123869   376336462   469626342
#
#      Author: C. J. Pickard (cjp20@cam.ac.uk)
#                Space group: I-4
#

%BLOCK LATTICE_ABC
      8.17163      8.17163      8.32289
    119.40063    119.40063     90.00000
%ENDBLOCK LATTICE_ABC

%BLOCK POSITIONS_FRAC
  Li  -0.1207003  -0.3259238   0.2913369 SPIN=   0.00000
  Li   0.4120373  -0.3827393   0.2913369 SPIN=   0.00000
  Li   0.3827393   0.1207003  -0.2913369 SPIN=   0.00000
  Li   0.3259238  -0.4120373  -0.2913369 SPIN=   0.00000
  Fe  -0.1667110   0.0257617   0.2753514 SPIN=   4.00000
  Fe   0.4420624   0.2495897   0.2753514 SPIN=   4.00000
  Fe  -0.2495897   0.1667110  -0.2753514 SPIN=   4.00000
  Fe  -0.0257617  -0.4420624  -0.2753514 SPIN=   4.00000
   O  -0.2920640  -0.1097879  -0.3166083 SPIN=   0.00000
   O  -0.1793402  -0.2852712  -0.1291373 SPIN=   0.00000
   O  -0.5224547  -0.4176113  -0.4611017 SPIN=   0.00000
   O  -0.4209382  -0.1095968  -0.1024839 SPIN=   0.00000
   S  -0.3536993  -0.2305668  -0.2523328 SPIN=   0.00000
   O  -0.0245444  -0.2068204  -0.3166083 SPIN=   0.00000
   O   0.0502029   0.1561339  -0.1291373 SPIN=   0.00000
   O   0.0613530  -0.0434905  -0.4611017 SPIN=   0.00000
   O   0.3184544   0.0071130  -0.1024839 SPIN=   0.00000
   S   0.1013665  -0.0217660  -0.2523328 SPIN=   0.00000
   O   0.2068204   0.2920640   0.3166083 SPIN=   0.00000
   O  -0.1561339   0.1793402   0.1291373 SPIN=   0.00000
   O   0.0434905   0.5224547   0.4611017 SPIN=   0.00000
   O  -0.0071130   0.4209382   0.1024839 SPIN=   0.00000
   S   0.0217660   0.3536993   0.2523328 SPIN=   0.00000
   O   0.1097879   0.0245444   0.3166083 SPIN=   0.00000
   O   0.2852712  -0.0502029   0.1291373 SPIN=   0.00000
   O   0.4176113  -0.0613530   0.4611017 SPIN=   0.00000
   O   0.1095968  -0.3184544   0.1024839 SPIN=   0.00000
   S   0.2305668  -0.1013665   0.2523328 SPIN=   0.00000
   F  -0.3890259   0.3615019  -0.2113767 SPIN=   0.00000
   F   0.1776491   0.4271214  -0.2113767 SPIN=   0.00000
   F  -0.4271214   0.3890259   0.2113767 SPIN=   0.00000
   F  -0.3615019  -0.1776491   0.2113767 SPIN=   0.00000
%ENDBLOCK POSITIONS_FRAC

# Note: total spin =  16.00

KPOINTS_MP_SPACING 0.07

%BLOCK SPECIES_POT
QC5
%ENDBLOCK SPECIES_POT

SNAP_TO_SYMMETRY
SYMMETRY_GENERATE

