#              Generated by Buildcell
#
# at 07:46:50 (GMT+1.0) 4th August 2020
# in /lustre/scratch/uccabz1/launch_tmp
# on node-c12p-017
# by uccabz1
#
# compiler GCC version 4.9.2
# options -cpp -iprefix /lustre/shared/ucl/apps/gcc/4.9.2/bin/../lib/gcc/x86_64-unknown-linux-gnu/4.9.2/ -mtune=corei7 -march=x86-64 -g -Og
#
# seed  1862651527  1243826202   144546920  -465449742 -1288439809   942376278 -2012257546  -293274247 -1705231239 -1544604119  1210525569  2130985981
#
#      Author: C. J. Pickard (cjp20@cam.ac.uk)
#                Space group: Pc
#

%BLOCK LATTICE_ABC
      3.92636     10.08910     10.48656
    105.65444     90.00000     90.00000
%ENDBLOCK LATTICE_ABC

%BLOCK POSITIONS_FRAC
  Li   0.0523418  -0.1578456   0.0990107 SPIN=   0.00000
  Li  -0.0523418   0.3421544  -0.4009893 SPIN=   0.00000
  Li   0.2848607  -0.3997787   0.4558027 SPIN=   0.00000
  Li  -0.2848607   0.1002213  -0.0441973 SPIN=   0.00000
  Fe  -0.2150458  -0.3538941  -0.3167352 SPIN=   3.15604
  Fe   0.2150458   0.1461059   0.1832648 SPIN=   3.15604
  Fe   0.2854244   0.1459360  -0.2682087 SPIN=   4.84396
  Fe  -0.2854244  -0.3540640   0.2317913 SPIN=   4.84396
   O  -0.0265496  -0.0134331   0.4462784 SPIN=   0.00000
   O   0.3261309  -0.0969423   0.6042531 SPIN=   0.00000
   O   0.4492360  -0.1747715   0.3641052 SPIN=   0.00000
   O  -0.0701504  -0.2559990   0.4535518 SPIN=   0.00000
   S   0.1696667  -0.1352865   0.4670471 SPIN=   0.00000
   O   0.0265496   0.4865669  -0.0537216 SPIN=   0.00000
   O  -0.3261309   0.4030577   0.1042531 SPIN=   0.00000
   O  -0.4492360   0.3252285  -0.1358948 SPIN=   0.00000
   O   0.0701504   0.2440010  -0.0464482 SPIN=   0.00000
   S  -0.1696667   0.3647135  -0.0329529 SPIN=   0.00000
   O  -0.4087380   0.4522252   0.5150154 SPIN=   0.00000
   O  -0.0765658   0.2608350   0.3715612 SPIN=   0.00000
   O  -0.0662503   0.4910028   0.3302397 SPIN=   0.00000
   O  -0.5883904   0.3487080   0.2832592 SPIN=   0.00000
   S  -0.2849861   0.3881927   0.3750189 SPIN=   0.00000
   O   0.4087380  -0.0477748   0.0150154 SPIN=   0.00000
   O   0.0765658  -0.2391650  -0.1284388 SPIN=   0.00000
   O   0.0662503  -0.0089972  -0.1697603 SPIN=   0.00000
   O   0.5883904  -0.1512920  -0.2167408 SPIN=   0.00000
   S   0.2849861  -0.1118073  -0.1249811 SPIN=   0.00000
   F   0.3292050  -0.3203131   0.1158645 SPIN=   0.00000
   F  -0.3292050   0.1796869  -0.3841355 SPIN=   0.00000
   F   0.1688759  -0.4823356  -0.2937666 SPIN=   0.00000
   F  -0.1688759   0.0176644   0.2062334 SPIN=   0.00000
%ENDBLOCK POSITIONS_FRAC

# Note: total spin =  16.00

KPOINTS_MP_SPACING 0.07

%BLOCK SPECIES_POT
QC5
%ENDBLOCK SPECIES_POT

SNAP_TO_SYMMETRY
SYMMETRY_GENERATE

