#              Generated by Buildcell
#
# at 05:54:54 (GMT+1.0) 4th August 2020
# in /lustre/scratch/uccabz1/launch_tmp
# on node-c12d-008
# by uccabz1
#
# compiler GCC version 4.9.2
# options -cpp -iprefix /lustre/shared/ucl/apps/gcc/4.9.2/bin/../lib/gcc/x86_64-unknown-linux-gnu/4.9.2/ -mtune=corei7 -march=x86-64 -g -Og
#
# seed   959202054  -951886752 -1507856329   461931770 -1520795789  -857243044  -185528884 -1523093724  -668214801  1857405126  1411227640  1581176945
#
#      Author: C. J. Pickard (cjp20@cam.ac.uk)
#                Space group: P21/c
#

%BLOCK LATTICE_ABC
      5.97006      7.67658      8.79264
     90.00000     90.00000     96.95272
%ENDBLOCK LATTICE_ABC

%BLOCK POSITIONS_FRAC
  Li   0.3243905  -0.3032744  -0.4965722 SPIN=   0.00000
  Li  -0.3243905  -0.1967256   0.0034278 SPIN=   0.00000
  Li  -0.3243905   0.3032744   0.4965722 SPIN=   0.00000
  Li   0.3243905   0.1967256  -0.0034278 SPIN=   0.00000
  Fe  -0.1759042  -0.2028535   0.4085393 SPIN=   4.00000
  Fe   0.1759042  -0.2971465  -0.0914607 SPIN=   4.00000
  Fe   0.1759042   0.2028535  -0.4085393 SPIN=   4.00000
  Fe  -0.1759042   0.2971465   0.0914607 SPIN=   4.00000
   O  -0.2474577  -0.0620008  -0.1759514 SPIN=   0.00000
   O  -0.4192664  -0.1529198  -0.4240612 SPIN=   0.00000
   O  -0.4165501   0.1533589  -0.3355296 SPIN=   0.00000
   O  -0.6618242  -0.0864202  -0.2086161 SPIN=   0.00000
   S  -0.4362746  -0.0369955  -0.2860396 SPIN=   0.00000
   O   0.2474577  -0.4379992   0.3240486 SPIN=   0.00000
   O   0.4192664  -0.3470802   0.0759388 SPIN=   0.00000
   O   0.4165501  -0.6533589   0.1644704 SPIN=   0.00000
   O   0.6618242  -0.4135798   0.2913839 SPIN=   0.00000
   S   0.4362746  -0.4630045   0.2139604 SPIN=   0.00000
   O   0.2474577   0.0620008   0.1759514 SPIN=   0.00000
   O   0.4192664   0.1529198   0.4240612 SPIN=   0.00000
   O   0.4165501  -0.1533589   0.3355296 SPIN=   0.00000
   O   0.6618242   0.0864202   0.2086161 SPIN=   0.00000
   S   0.4362746   0.0369955   0.2860396 SPIN=   0.00000
   O  -0.2474577   0.4379992  -0.3240486 SPIN=   0.00000
   O  -0.4192664   0.3470802  -0.0759388 SPIN=   0.00000
   O  -0.4165501   0.6533589  -0.1644704 SPIN=   0.00000
   O  -0.6618242   0.4135798  -0.2913839 SPIN=   0.00000
   S  -0.4362746   0.4630045  -0.2139604 SPIN=   0.00000
   F  -0.0280306  -0.2339476   0.0873736 SPIN=   0.00000
   F   0.0280306  -0.2660524  -0.4126264 SPIN=   0.00000
   F   0.0280306   0.2339476  -0.0873736 SPIN=   0.00000
   F  -0.0280306   0.2660524   0.4126264 SPIN=   0.00000
%ENDBLOCK POSITIONS_FRAC

# Note: total spin =  16.00

KPOINTS_MP_SPACING 0.07

%BLOCK SPECIES_POT
QC5
%ENDBLOCK SPECIES_POT

SNAP_TO_SYMMETRY
SYMMETRY_GENERATE

