#              Generated by Buildcell
#
# at 07:29:45 (GMT+1.0) 4th August 2020
# in /lustre/scratch/uccabz1/launch_tmp
# on node-c12k-033
# by uccabz1
#
# compiler GCC version 4.9.2
# options -cpp -iprefix /lustre/shared/ucl/apps/gcc/4.9.2/bin/../lib/gcc/x86_64-unknown-linux-gnu/4.9.2/ -mtune=corei7 -march=x86-64 -g -Og
#
# seed  1667569241   930738965  1482162538   725232726  1621945045  -565401004 -1460499630  1923091656 -1526684415  1007670221 -2035428293  1200388915
#
#      Author: C. J. Pickard (cjp20@cam.ac.uk)
#                Space group: P2
#

%BLOCK LATTICE_ABC
      6.33268      6.42815      9.95541
     99.24051     90.00000     90.00000
%ENDBLOCK LATTICE_ABC

%BLOCK POSITIONS_FRAC
  Li  -0.0636749   0.2756461  -0.3942956 SPIN=   0.00000
  Li  -0.0636749  -0.2756461   0.3942956 SPIN=   0.00000
  Li   0.0841025  -0.2742588  -0.1082644 SPIN=   0.00000
  Li   0.0841025   0.2742588   0.1082644 SPIN=   0.00000
  Fe  -0.3125949   0.3198232   0.3356955 SPIN=   4.04920
  Fe  -0.3125949  -0.3198232  -0.3356955 SPIN=   4.04920
  Fe  -0.3259599   0.2041250  -0.1082625 SPIN=   3.95080
  Fe  -0.3259599  -0.2041250   0.1082625 SPIN=   3.95080
   O   0.3356954   0.2854100   0.4963686 SPIN=   0.00000
   O   0.3076502   0.1348676   0.2521190 SPIN=   0.00000
   O   0.1005619   0.4516600   0.3456696 SPIN=   0.00000
   O   0.0074707   0.1049705   0.4070593 SPIN=   0.00000
   S   0.1878446   0.2442270   0.3753041 SPIN=   0.00000
   O   0.3356954  -0.2854100  -0.4963686 SPIN=   0.00000
   O   0.3076502  -0.1348676  -0.2521190 SPIN=   0.00000
   O   0.1005619  -0.4516600  -0.3456696 SPIN=   0.00000
   O   0.0074707  -0.1049705  -0.4070593 SPIN=   0.00000
   S   0.1878446  -0.2442270  -0.3753041 SPIN=   0.00000
   O   0.3170801   0.4946728  -0.1556998 SPIN=   0.00000
   O   0.1898973   0.1708425  -0.3017988 SPIN=   0.00000
   O  -0.0448893   0.3642827  -0.1258692 SPIN=   0.00000
   O   0.2631200   0.1682203  -0.0578831 SPIN=   0.00000
   S   0.1813020   0.2995046  -0.1603127 SPIN=   0.00000
   O   0.3170801  -0.4946728   0.1556998 SPIN=   0.00000
   O   0.1898973  -0.1708425   0.3017988 SPIN=   0.00000
   O  -0.0448893  -0.3642827   0.1258692 SPIN=   0.00000
   O   0.2631200  -0.1682203   0.0578831 SPIN=   0.00000
   S   0.1813020  -0.2995046   0.1603127 SPIN=   0.00000
   F  -0.3367258  -0.1785758   0.3291123 SPIN=   0.00000
   F  -0.3367258   0.1785758  -0.3291123 SPIN=   0.00000
   F  -0.3000453   0.2692170   0.1135109 SPIN=   0.00000
   F  -0.3000453  -0.2692170  -0.1135109 SPIN=   0.00000
%ENDBLOCK POSITIONS_FRAC

# Note: total spin =  16.00

KPOINTS_MP_SPACING 0.07

%BLOCK SPECIES_POT
QC5
%ENDBLOCK SPECIES_POT

SNAP_TO_SYMMETRY
SYMMETRY_GENERATE

