#              Generated by Buildcell
#
# at 05:41:22 (GMT+1.0) 18th August 2020
# in /lustre/scratch/uccabz1/launch_tmp
# on node-c12k-033
# by uccabz1
#
# compiler GCC version 4.9.2
# options -cpp -iprefix /lustre/shared/ucl/apps/gcc/4.9.2/bin/../lib/gcc/x86_64-unknown-linux-gnu/4.9.2/ -mtune=corei7 -march=x86-64 -g -Og
#
# seed  -697098227  -809841177  1820307109  2118237684   742466499  1922103998   236182862  -325951293  -309448474   750144969   566659771  -780498849
#
#      Author: C. J. Pickard (cjp20@cam.ac.uk)
#                Space group: C2
#

%BLOCK LATTICE_ABC
      3.97580      7.62100     13.69305
     89.23119     87.05140     74.87979
%ENDBLOCK LATTICE_ABC

%BLOCK POSITIONS_FRAC
  Li  -0.2751792  -0.4912016  -0.1450080 SPIN=   0.00000
  Li  -0.2336192  -0.4912016   0.1450080 SPIN=   0.00000
  Li   0.3610066   0.2779868  -0.5000000 SPIN=   0.00000
  Li  -0.9062675  -0.1874649   0.5000000 SPIN=   0.00000
  Fe  -0.4481770  -0.0345044   0.3549818 SPIN=   2.80686
  Fe   0.4826814  -0.0345044  -0.3549818 SPIN=   2.80686
  Fe   0.1746925   0.1119271   0.1136890 SPIN=   5.19314
  Fe  -0.2866197   0.1119271  -0.1136890 SPIN=   5.19314
   O   0.1970882  -0.4776954  -0.2126031 SPIN=   0.00000
   O  -0.0902956  -0.2068153  -0.1126445 SPIN=   0.00000
   O  -0.0690916  -0.1854402  -0.2932579 SPIN=   0.00000
   O   0.4702498  -0.2217003  -0.2038540 SPIN=   0.00000
   S   0.1269877  -0.2729128  -0.2055899 SPIN=   0.00000
   O   0.2806072  -0.4776954   0.2126031 SPIN=   0.00000
   O   0.2971110  -0.2068153   0.1126445 SPIN=   0.00000
   O   0.2545318  -0.1854402   0.2932579 SPIN=   0.00000
   O  -0.2485495  -0.2217003   0.2038540 SPIN=   0.00000
   S   0.1459251  -0.2729128   0.2055899 SPIN=   0.00000
   O   0.7424776   0.5193498  -0.2999047 SPIN=   0.00000
   O   0.4436897   0.2740993  -0.3128778 SPIN=   0.00000
   O   0.9944124   0.2177611  -0.2269217 SPIN=   0.00000
   O   1.0010580   0.2541796  -0.4068254 SPIN=   0.00000
   S   0.7954094   0.3163474  -0.3116324 SPIN=   0.00000
   O  -0.2618273   0.5193498   0.2999047 SPIN=   0.00000
   O   0.2822110   0.2740993   0.3128778 SPIN=   0.00000
   O  -0.2121735   0.2177611   0.2269217 SPIN=   0.00000
   O  -0.2552375   0.2541796   0.4068254 SPIN=   0.00000
   S  -0.1117568   0.3163474   0.3116324 SPIN=   0.00000
   F  -0.2522236  -0.4955528  -0.0000000 SPIN=   0.00000
   F   0.2249419  -0.4498838  -0.5000000 SPIN=   0.00000
   F  -0.4959662  -0.0080675   0.5000000 SPIN=   0.00000
   F   0.4710656   0.0578687   0.0000000 SPIN=   0.00000
%ENDBLOCK POSITIONS_FRAC

# Note: total spin =  16.00

KPOINTS_MP_SPACING 0.07

%BLOCK SPECIES_POT
QC5
%ENDBLOCK SPECIES_POT

SNAP_TO_SYMMETRY
SYMMETRY_GENERATE

