#              Generated by Buildcell
#
# at 12:01:41 (GMT+1.0) 18th August 2020
# in /lustre/scratch/uccabz1/launch_tmp
# on node-c12b-010
# by uccabz1
#
# compiler GCC version 4.9.2
# options -cpp -iprefix /lustre/shared/ucl/apps/gcc/4.9.2/bin/../lib/gcc/x86_64-unknown-linux-gnu/4.9.2/ -mtune=corei7 -march=x86-64 -g -Og
#
# seed   724518216   563885466  1798249407  -887438904 -1442457806   -39317522 -1256330744 -1952201925  2048538786  -294946188  -366789489 -1045213253
#
#      Author: C. J. Pickard (cjp20@cam.ac.uk)
#                Space group: P43
#

%BLOCK LATTICE_ABC
      5.15431      5.15431     15.05631
     90.00000     90.00000     90.00000
%ENDBLOCK LATTICE_ABC

%BLOCK POSITIONS_FRAC
  Li   0.3910317  -0.1499582  -0.0228767 SPIN=   0.00000
  Li  -0.3910317   0.1499582   0.4771233 SPIN=   0.00000
  Li  -0.1499582  -0.3910317  -0.2728767 SPIN=   0.00000
  Li   0.1499582   0.3910317   0.2271233 SPIN=   0.00000
  Fe   0.0905663  -0.1573577   0.4176568 SPIN=   4.00000
  Fe  -0.0905663   0.1573577  -0.0823432 SPIN=   4.00000
  Fe  -0.1573577  -0.0905663   0.1676568 SPIN=   4.00000
  Fe   0.1573577   0.0905663  -0.3323432 SPIN=   4.00000
   O   0.5102781   0.6951247  -0.1439244 SPIN=   0.00000
   O   0.5360161   0.3573266  -0.2604089 SPIN=   0.00000
   O   0.1179384   0.4464606  -0.1855509 SPIN=   0.00000
   O   0.4735640   0.2313602  -0.1032393 SPIN=   0.00000
   S   0.4094491   0.4325680  -0.1732809 SPIN=   0.00000
   O  -0.5102781  -0.6951247   0.3560756 SPIN=   0.00000
   O  -0.5360161  -0.3573266   0.2395911 SPIN=   0.00000
   O  -0.1179384  -0.4464606   0.3144491 SPIN=   0.00000
   O  -0.4735640  -0.2313602   0.3967607 SPIN=   0.00000
   S  -0.4094491  -0.4325680   0.3267191 SPIN=   0.00000
   O   0.6951247  -0.5102781  -0.3939244 SPIN=   0.00000
   O   0.3573266  -0.5360161  -0.5104089 SPIN=   0.00000
   O   0.4464606  -0.1179384  -0.4355509 SPIN=   0.00000
   O   0.2313602  -0.4735640  -0.3532393 SPIN=   0.00000
   S   0.4325680  -0.4094491  -0.4232809 SPIN=   0.00000
   O  -0.6951247   0.5102781   0.1060756 SPIN=   0.00000
   O  -0.3573266   0.5360161  -0.0104089 SPIN=   0.00000
   O  -0.4464606   0.1179384   0.0644491 SPIN=   0.00000
   O  -0.2313602   0.4735640   0.1467607 SPIN=   0.00000
   S  -0.4325680   0.4094491   0.0767191 SPIN=   0.00000
   F  -0.0535165   0.0771380  -0.4915968 SPIN=   0.00000
   F   0.0535165  -0.0771380   0.0084032 SPIN=   0.00000
   F   0.0771380   0.0535165   0.2584032 SPIN=   0.00000
   F  -0.0771380  -0.0535165  -0.2415968 SPIN=   0.00000
%ENDBLOCK POSITIONS_FRAC

# Note: total spin =  16.00

KPOINTS_MP_SPACING 0.07

%BLOCK SPECIES_POT
QC5
%ENDBLOCK SPECIES_POT

SNAP_TO_SYMMETRY
SYMMETRY_GENERATE

