#              Generated by Buildcell
#
# at 11:22:41 (GMT+1.0) 18th August 2020
# in /lustre/scratch/uccabz1/launch_tmp
# on node-c12f-008
# by uccabz1
#
# compiler GCC version 4.9.2
# options -cpp -iprefix /lustre/shared/ucl/apps/gcc/4.9.2/bin/../lib/gcc/x86_64-unknown-linux-gnu/4.9.2/ -mtune=corei7 -march=x86-64 -g -Og
#
# seed    88552040   966842760  1990714888   -86141435 -1140338976  -488778924  -549323576   341227491  1665624727   442467071   923697495 -1424942744
#
#      Author: C. J. Pickard (cjp20@cam.ac.uk)
#                Space group: P41
#

%BLOCK LATTICE_ABC
      7.32130      7.39156      7.39156
     90.00000     90.00000     90.00000
%ENDBLOCK LATTICE_ABC

%BLOCK POSITIONS_FRAC
  Li  -0.3899995  -0.2050273   0.3874710 SPIN=   0.00000
  Li   0.1100005   0.2050273  -0.3874710 SPIN=   0.00000
  Li  -0.1399995  -0.3874710  -0.2050273 SPIN=   0.00000
  Li   0.3600005   0.3874710   0.2050273 SPIN=   0.00000
  Fe  -0.2520205   0.0137232  -0.2990909 SPIN=   4.00000
  Fe   0.2479795  -0.0137232   0.2990909 SPIN=   4.00000
  Fe  -0.0020205   0.2990909   0.0137232 SPIN=   4.00000
  Fe   0.4979795  -0.2990909  -0.0137232 SPIN=   4.00000
   O  -0.2605615   0.3624337   0.3125543 SPIN=   0.00000
   O  -0.5397726   0.1747486   0.3324986 SPIN=   0.00000
   O  -0.2399916   0.0447962   0.4164711 SPIN=   0.00000
   O  -0.3093390   0.1119245   0.0957171 SPIN=   0.00000
   S  -0.3374162   0.1734757   0.2893103 SPIN=   0.00000
   O   0.2394385  -0.3624337  -0.3125543 SPIN=   0.00000
   O  -0.0397726  -0.1747486  -0.3324986 SPIN=   0.00000
   O   0.2600084  -0.0447962  -0.4164711 SPIN=   0.00000
   O   0.1906610  -0.1119245  -0.0957171 SPIN=   0.00000
   S   0.1625838  -0.1734757  -0.2893103 SPIN=   0.00000
   O  -0.0105615  -0.3125543   0.3624337 SPIN=   0.00000
   O  -0.2897726  -0.3324986   0.1747486 SPIN=   0.00000
   O   0.0100084  -0.4164711   0.0447962 SPIN=   0.00000
   O  -0.0593390  -0.0957171   0.1119245 SPIN=   0.00000
   S  -0.0874162  -0.2893103   0.1734757 SPIN=   0.00000
   O   0.4894385   0.3125543  -0.3624337 SPIN=   0.00000
   O   0.2102274   0.3324986  -0.1747486 SPIN=   0.00000
   O   0.5100084   0.4164711  -0.0447962 SPIN=   0.00000
   O   0.4406610   0.0957171  -0.1119245 SPIN=   0.00000
   S   0.4125838   0.2893103  -0.1734757 SPIN=   0.00000
   F   0.1289749   0.2689134   0.2536458 SPIN=   0.00000
   F  -0.3710251  -0.2689134  -0.2536458 SPIN=   0.00000
   F   0.3789749  -0.2536458   0.2689134 SPIN=   0.00000
   F  -0.1210251   0.2536458  -0.2689134 SPIN=   0.00000
%ENDBLOCK POSITIONS_FRAC

# Note: total spin =  16.00

KPOINTS_MP_SPACING 0.07

%BLOCK SPECIES_POT
QC5
%ENDBLOCK SPECIES_POT

SNAP_TO_SYMMETRY
SYMMETRY_GENERATE

