#              Generated by Buildcell
#
# at 23:04:14 (GMT+1.0) 17th August 2020
# in /scratch/scratch/uccabz1/launch_tmp
# on node-k10i-026
# by uccabz1
#
# compiler GCC version 4.9.2
# options -cpp -iprefix /scratch/UCL/applications/gcc/4.9.2/bin/../lib/gcc/x86_64-unknown-linux-gnu/4.9.2/ -mtune=corei7 -march=x86-64 -g -O2
#
# seed  -566000270 -1437243476   524389757 -1782440293  -795420449   858899660    44132308  1218448119   679516797   997421321  -186568645  1491093864
#
#      Author: C. J. Pickard (cjp20@cam.ac.uk)
#                Space group: C2
#

%BLOCK LATTICE_ABC
      6.19533      8.17995      8.53168
     91.51701     90.00000    112.25257
%ENDBLOCK LATTICE_ABC

%BLOCK POSITIONS_FRAC
  Li   0.2905733   0.2559314  -0.3305236 SPIN=   0.00000
  Li   0.0346419  -0.2559314   0.3305236 SPIN=   0.00000
  Li  -0.0893822  -0.2058686  -0.1334774 SPIN=   0.00000
  Li   0.1164865   0.2058686   0.1334774 SPIN=   0.00000
  Fe   0.4250938   0.4594401   0.3716267 SPIN=   2.97546
  Fe  -0.0343464  -0.4594401  -0.3716267 SPIN=   2.97546
  Fe  -0.4255023   0.3541634  -0.0282590 SPIN=   5.02454
  Fe   0.2203343  -0.3541634   0.0282590 SPIN=   5.02454
   O  -0.7536396  -0.4808053  -0.2495383 SPIN=   0.00000
   O  -0.4028483  -0.2234869  -0.1653318 SPIN=   0.00000
   O  -0.4566673  -0.3229058  -0.4441904 SPIN=   0.00000
   O  -0.3673174  -0.5048766  -0.2464594 SPIN=   0.00000
   S  -0.4951182  -0.3830186  -0.2763800 SPIN=   0.00000
   O  -0.2728344   0.4808053   0.2495383 SPIN=   0.00000
   O  -0.1793615   0.2234869   0.1653318 SPIN=   0.00000
   O  -0.1337615   0.3229058   0.4441904 SPIN=   0.00000
   O   0.1375592   0.5048766   0.2464594 SPIN=   0.00000
   S  -0.1120995   0.3830186   0.2763800 SPIN=   0.00000
   O  -0.2111162   0.0291406   0.3668160 SPIN=   0.00000
   O  -0.4609521  -0.0618384   0.1286774 SPIN=   0.00000
   O  -0.6371348  -0.1318439   0.3910609 SPIN=   0.00000
   O  -0.3915533  -0.2870662   0.2865654 SPIN=   0.00000
   S  -0.4251891  -0.1129020   0.2932799 SPIN=   0.00000
   O  -0.2402568  -0.0291406  -0.3668160 SPIN=   0.00000
   O  -0.3991138   0.0618384  -0.1286774 SPIN=   0.00000
   O  -0.5052910   0.1318439  -0.3910609 SPIN=   0.00000
   O  -0.1044871   0.2870662  -0.2865654 SPIN=   0.00000
   S  -0.3122872   0.1129020  -0.2932799 SPIN=   0.00000
   F   0.2227243   0.2099845  -0.0906960 SPIN=   0.00000
   F   0.0127398  -0.2099845   0.0906960 SPIN=   0.00000
   F   0.2845787   0.1822210   0.3284499 SPIN=   0.00000
   F   0.1023577  -0.1822210  -0.3284499 SPIN=   0.00000
%ENDBLOCK POSITIONS_FRAC

# Note: total spin =  16.00

KPOINTS_MP_SPACING 0.07

%BLOCK SPECIES_POT
QC5
%ENDBLOCK SPECIES_POT

SNAP_TO_SYMMETRY
SYMMETRY_GENERATE

