#              Generated by Buildcell
#
# at 06:25:06 (GMT+1.0) 4th August 2020
# in /lustre/scratch/uccabz1/launch_tmp
# on node-c12l-023
# by uccabz1
#
# compiler GCC version 4.9.2
# options -cpp -iprefix /lustre/shared/ucl/apps/gcc/4.9.2/bin/../lib/gcc/x86_64-unknown-linux-gnu/4.9.2/ -mtune=corei7 -march=x86-64 -g -Og
#
# seed  1058865758 -1020489543  1119938243  1003999130 -1801656183   464963363  2074534251 -1549597703  1738039942  1412205246 -1327458101   -22512320
#
#      Author: C. J. Pickard (cjp20@cam.ac.uk)
#                Space group: P2
#

%BLOCK LATTICE_ABC
      5.27775      8.80472      8.83490
    103.01710     90.00000     90.00000
%ENDBLOCK LATTICE_ABC

%BLOCK POSITIONS_FRAC
  Li   0.1142240   0.2779026   0.4901716 SPIN=   0.00000
  Li   0.1142240  -0.2779026  -0.4901716 SPIN=   0.00000
  Li  -0.3893726   0.4559409   0.2560646 SPIN=   0.00000
  Li  -0.3893726  -0.4559409  -0.2560646 SPIN=   0.00000
  Fe   0.1112739  -0.3367978  -0.1004951 SPIN=   2.64614
  Fe   0.1112739   0.3367978   0.1004951 SPIN=   2.64614
  Fe  -0.3873806   0.2182171  -0.1905102 SPIN=   5.35386
  Fe  -0.3873806  -0.2182171   0.1905102 SPIN=   5.35386
   O   0.3009828   0.1136515   0.1649851 SPIN=   0.00000
   O  -0.1387241   0.0135136   0.1379997 SPIN=   0.00000
   O   0.0785448   0.0563015   0.3923453 SPIN=   0.00000
   O   0.2132847  -0.1596507   0.1764670 SPIN=   0.00000
   S   0.1135221   0.0059540   0.2179492 SPIN=   0.00000
   O   0.3009828  -0.1136515  -0.1649851 SPIN=   0.00000
   O  -0.1387241  -0.0135136  -0.1379997 SPIN=   0.00000
   O   0.0785448  -0.0563015  -0.3923453 SPIN=   0.00000
   O   0.2132847   0.1596507  -0.1764670 SPIN=   0.00000
   S   0.1135221  -0.0059540  -0.2179492 SPIN=   0.00000
   O  -0.2689111  -0.3509353  -0.6092880 SPIN=   0.00000
   O  -0.5900289  -0.3790981  -0.4133126 SPIN=   0.00000
   O  -0.5004056  -0.1191458  -0.4640205 SPIN=   0.00000
   O  -0.1822333  -0.2480848  -0.3296551 SPIN=   0.00000
   S  -0.3853947  -0.2743160  -0.4540691 SPIN=   0.00000
   O  -0.2689111   0.3509353   0.6092880 SPIN=   0.00000
   O  -0.5900289   0.3790981   0.4133126 SPIN=   0.00000
   O  -0.5004056   0.1191458   0.4640205 SPIN=   0.00000
   O  -0.1822333   0.2480848   0.3296551 SPIN=   0.00000
   S  -0.3853947   0.2743160   0.4540691 SPIN=   0.00000
   F  -0.3285410  -0.2514865  -0.0483852 SPIN=   0.00000
   F  -0.3285410   0.2514865   0.0483852 SPIN=   0.00000
   F   0.1640622  -0.4218229   0.2485980 SPIN=   0.00000
   F   0.1640622   0.4218229  -0.2485980 SPIN=   0.00000
%ENDBLOCK POSITIONS_FRAC

# Note: total spin =  16.00

KPOINTS_MP_SPACING 0.07

%BLOCK SPECIES_POT
QC5
%ENDBLOCK SPECIES_POT

SNAP_TO_SYMMETRY
SYMMETRY_GENERATE

