#              Generated by Buildcell
#
# at 10:41:26 (GMT+1.0) 4th August 2020
# in /lustre/scratch/uccabz1/launch_tmp
# on node-c12l-013
# by uccabz1
#
# compiler GCC version 4.9.2
# options -cpp -iprefix /lustre/shared/ucl/apps/gcc/4.9.2/bin/../lib/gcc/x86_64-unknown-linux-gnu/4.9.2/ -mtune=corei7 -march=x86-64 -g -Og
#
# seed  1980510861 -1773494635 -2088129311 -2135583179  1645202530  -418742646     7140371 -1149700438  -677915213  -567639909  -437458324  1295358566
#
#      Author: C. J. Pickard (cjp20@cam.ac.uk)
#                Space group: C2
#

%BLOCK LATTICE_ABC
      7.53109      7.61664      8.57979
    110.90655    110.54057    101.43691
%ENDBLOCK LATTICE_ABC

%BLOCK POSITIONS_FRAC
  Li  -0.4786627   0.0213373   0.0426746 SPIN=   0.00000
  Li   0.1412553   0.1412553   0.2825107 SPIN=   0.00000
  Li  -0.1960144  -0.1960144  -0.3920289 SPIN=   0.00000
  Li  -0.8835581  -0.3835581  -0.7671162 SPIN=   0.00000
  Fe   0.0551993   0.2122127  -0.0549361 SPIN=   4.20961
  Fe  -0.1101354  -0.2671488  -0.0549361 SPIN=   4.20961
  Fe   0.5501646   0.2426061  -0.1801537 SPIN=   3.79039
  Fe  -0.7303184  -0.4227598  -0.1801537 SPIN=   3.79039
   O   0.1050524   0.4070078   0.3276030 SPIN=   0.00000
   O  -0.1516094   0.5306192   0.3981451 SPIN=   0.00000
   O  -0.1568076   0.1921034   0.3618692 SPIN=   0.00000
   O  -0.2557856   0.2533399   0.0844161 SPIN=   0.00000
   S  -0.1147875   0.3457676   0.2930084 SPIN=   0.00000
   O   0.2225506  -0.0794048   0.3276030 SPIN=   0.00000
   O   0.5497545  -0.1324741   0.3981451 SPIN=   0.00000
   O   0.5186768   0.1697658   0.3618692 SPIN=   0.00000
   O   0.3402017  -0.1689238   0.0844161 SPIN=   0.00000
   S   0.4077959  -0.0527592   0.2930084 SPIN=   0.00000
   O   0.0631022   0.2100084  -0.3160982 SPIN=   0.00000
   O  -0.1552172  -0.1140798  -0.6061694 SPIN=   0.00000
   O   0.1798222  -0.0778739  -0.3793540 SPIN=   0.00000
   S   0.0627588   0.0301751  -0.4679984 SPIN=   0.00000
   O  -0.3792004  -0.5261065  -0.3160982 SPIN=   0.00000
   O  -0.4509522  -0.4920896  -0.6061694 SPIN=   0.00000
   O  -0.5591762  -0.3014801  -0.3793540 SPIN=   0.00000
   S  -0.5307571  -0.4981735  -0.4679984 SPIN=   0.00000
   O   0.9768859   0.4768859   0.9537718 SPIN=   0.00000
   O   0.2892615   0.2892615   0.5785230 SPIN=   0.00000
   F  -0.2526663   0.1096439  -0.2268598 SPIN=   0.00000
   F   0.0258065  -0.3365038  -0.2268598 SPIN=   0.00000
   F  -0.3187940  -0.2285894   0.0428093 SPIN=   0.00000
   F   0.3616033   0.2713987   0.0428093 SPIN=   0.00000
%ENDBLOCK POSITIONS_FRAC

# Note: total spin =  16.00

KPOINTS_MP_SPACING 0.07

%BLOCK SPECIES_POT
QC5
%ENDBLOCK SPECIES_POT

SNAP_TO_SYMMETRY
SYMMETRY_GENERATE

