#              Generated by Buildcell
#
# at 02:13:50 (GMT+1.0) 18th August 2020
# in /lustre/scratch/uccabz1/launch_tmp
# on node-c12e-007
# by uccabz1
#
# compiler GCC version 4.9.2
# options -cpp -iprefix /lustre/shared/ucl/apps/gcc/4.9.2/bin/../lib/gcc/x86_64-unknown-linux-gnu/4.9.2/ -mtune=corei7 -march=x86-64 -g -Og
#
# seed  -790018111  1158490486 -1720466899   911997885   -10078658 -1802895071 -1666237417  1519758816 -1990294825 -1035304392   421379702  -768249701
#
#      Author: C. J. Pickard (cjp20@cam.ac.uk)
#                Space group: Cc
#

%BLOCK LATTICE_ABC
      6.42359      7.96249      7.96249
     86.87098     82.48109     82.48109
%ENDBLOCK LATTICE_ABC

%BLOCK POSITIONS_FRAC
  Li   0.1396490  -0.4346484   0.2473152 SPIN=   0.00000
  Li  -0.3603510   0.2473152  -0.4346484 SPIN=   0.00000
  Li   0.4841592   0.2056060   0.0323441 SPIN=   0.00000
  Li  -0.0158408   0.0323441   0.2056060 SPIN=   0.00000
  Fe  -0.0601625   0.0289340  -0.1769684 SPIN=   3.88512
  Fe   0.4398375  -0.1769684   0.0289340 SPIN=   3.88512
  Fe  -0.3150407  -0.1938635   0.4209548 SPIN=   4.11488
  Fe   0.1849593   0.4209548  -0.1938635 SPIN=   4.11488
   O  -0.0394343   0.4165441   0.4114109 SPIN=   0.00000
   O   0.1519065   0.2449542   0.6250459 SPIN=   0.00000
   O   0.2641969   0.2030930   0.3192808 SPIN=   0.00000
   O  -0.0730166   0.1106929   0.4555054 SPIN=   0.00000
   S   0.0759131   0.2438210   0.4528107 SPIN=   0.00000
   O  -0.5394343   0.4114109   0.4165441 SPIN=   0.00000
   O  -0.3480935   0.6250459   0.2449542 SPIN=   0.00000
   O  -0.2358031   0.3192808   0.2030930 SPIN=   0.00000
   O  -0.5730166   0.4555054   0.1106929 SPIN=   0.00000
   S  -0.4240869   0.4528107   0.2438210 SPIN=   0.00000
   O  -0.0183167  -0.1428173  -0.3750685 SPIN=   0.00000
   O   0.3715302  -0.2023962  -0.3909206 SPIN=   0.00000
   O   0.1982584  -0.2028627  -0.6507865 SPIN=   0.00000
   O   0.1604993  -0.4325755  -0.4309079 SPIN=   0.00000
   S   0.1779928  -0.2451629  -0.4619209 SPIN=   0.00000
   O  -0.5183167  -0.3750685  -0.1428173 SPIN=   0.00000
   O  -0.1284698  -0.3909206  -0.2023962 SPIN=   0.00000
   O  -0.3017416  -0.6507865  -0.2028627 SPIN=   0.00000
   O  -0.3395007  -0.4309079  -0.4325755 SPIN=   0.00000
   S  -0.3220072  -0.4619209  -0.2451629 SPIN=   0.00000
   F  -0.3879759  -0.0454421   0.2143607 SPIN=   0.00000
   F   0.1120241   0.2143607  -0.0454421 SPIN=   0.00000
   F  -0.3781198   0.0047824  -0.2624316 SPIN=   0.00000
   F   0.1218802  -0.2624316   0.0047824 SPIN=   0.00000
%ENDBLOCK POSITIONS_FRAC

# Note: total spin =  16.00

KPOINTS_MP_SPACING 0.07

%BLOCK SPECIES_POT
QC5
%ENDBLOCK SPECIES_POT

SNAP_TO_SYMMETRY
SYMMETRY_GENERATE

