#              Generated by Buildcell
#
# at 23:47:22 (GMT+1.0) 17th August 2020
# in /lustre/scratch/uccabz1/launch_tmp
# on node-c12h-024
# by uccabz1
#
# compiler GCC version 4.9.2
# options -cpp -iprefix /lustre/shared/ucl/apps/gcc/4.9.2/bin/../lib/gcc/x86_64-unknown-linux-gnu/4.9.2/ -mtune=corei7 -march=x86-64 -g -Og
#
# seed  1172582483   647779705  1131412815   903295333  1853620429   233275800  -829118778  1592024510  1728832523 -1489321492 -1018106990  -446384859
#
#      Author: C. J. Pickard (cjp20@cam.ac.uk)
#                Space group: Pc
#

%BLOCK LATTICE_ABC
      4.16625      8.04316     11.94156
     90.00000     90.00000     91.61813
%ENDBLOCK LATTICE_ABC

%BLOCK POSITIONS_FRAC
  Li   0.4487711  -0.0043408  -0.3629798 SPIN=   0.00000
  Li  -0.0512289  -0.0043408   0.3629798 SPIN=   0.00000
  Li   0.4608839   0.2247997   0.1367253 SPIN=   0.00000
  Li  -0.0391161   0.2247997  -0.1367253 SPIN=   0.00000
  Fe  -0.0877503  -0.1362662  -0.1407487 SPIN=   3.72674
  Fe   0.4122497  -0.1362662   0.1407487 SPIN=   3.72674
  Fe  -0.1375549  -0.3632462   0.3695528 SPIN=   4.27326
  Fe   0.3624451  -0.3632462  -0.3695528 SPIN=   4.27326
   O  -0.2087421   0.4550996   0.2453271 SPIN=   0.00000
   O   0.3295112   0.4645875   0.1574967 SPIN=   0.00000
   O  -0.1362644   0.5749460   0.0558228 SPIN=   0.00000
   O  -0.0941400   0.2716431   0.0846852 SPIN=   0.00000
   S  -0.0274088   0.4415691   0.1358329 SPIN=   0.00000
   O   0.2912579   0.4550996  -0.2453271 SPIN=   0.00000
   O   0.8295112   0.4645875  -0.1574967 SPIN=   0.00000
   O   0.3637356   0.5749460  -0.0558228 SPIN=   0.00000
   O   0.4058600   0.2716431  -0.0846852 SPIN=   0.00000
   S   0.4725912   0.4415691  -0.1358329 SPIN=   0.00000
   O   0.6891543   0.1762976   0.2702301 SPIN=   0.00000
   O   0.3628378   0.0557461   0.4248909 SPIN=   0.00000
   O   0.1605557   0.2921345   0.3154081 SPIN=   0.00000
   O   0.6180481   0.3356968   0.4453287 SPIN=   0.00000
   S   0.4576490   0.2149687   0.3639644 SPIN=   0.00000
   O   0.1891543   0.1762976  -0.2702301 SPIN=   0.00000
   O  -0.1371622   0.0557461  -0.4248909 SPIN=   0.00000
   O  -0.3394443   0.2921345  -0.3154081 SPIN=   0.00000
   O   0.1180481   0.3356968  -0.4453287 SPIN=   0.00000
   S  -0.0423510   0.2149687  -0.3639644 SPIN=   0.00000
   F  -0.0673559  -0.0336780   0.1404729 SPIN=   0.00000
   F   0.4326441  -0.0336780  -0.1404729 SPIN=   0.00000
   F  -0.1191523  -0.3123922  -0.3595109 SPIN=   0.00000
   F   0.3808477  -0.3123922   0.3595109 SPIN=   0.00000
%ENDBLOCK POSITIONS_FRAC

# Note: total spin =  16.00

KPOINTS_MP_SPACING 0.07

%BLOCK SPECIES_POT
QC5
%ENDBLOCK SPECIES_POT

SNAP_TO_SYMMETRY
SYMMETRY_GENERATE

