#              Generated by Buildcell
#
# at 05:17:12 (GMT+1.0) 18th August 2020
# in /lustre/scratch/uccabz1/launch_tmp
# on node-c12l-006
# by uccabz1
#
# compiler GCC version 4.9.2
# options -cpp -iprefix /lustre/shared/ucl/apps/gcc/4.9.2/bin/../lib/gcc/x86_64-unknown-linux-gnu/4.9.2/ -mtune=corei7 -march=x86-64 -g -Og
#
# seed -1493447318   483294854  1785803927 -2098214615  1526234992   958735678  1334608973   819586053  1946134484   971583453  -682200157  -751920114
#
#      Author: C. J. Pickard (cjp20@cam.ac.uk)
#                Space group: P2/c
#

%BLOCK LATTICE_ABC
      4.17131      6.69885     14.31704
     90.99743     90.00000     90.00000
%ENDBLOCK LATTICE_ABC

%BLOCK POSITIONS_FRAC
  Li   0.3210822   0.4427254  -0.1246523 SPIN=   0.00000
  Li   0.3210822  -0.4427254  -0.3753477 SPIN=   0.00000
  Li  -0.3210822  -0.4427254   0.1246523 SPIN=   0.00000
  Li  -0.3210822   0.4427254   0.3753477 SPIN=   0.00000
  Fe  -0.1789362  -0.2594167  -0.0616269 SPIN=   4.00000
  Fe  -0.1789362   0.2594167  -0.4383731 SPIN=   4.00000
  Fe   0.1789362   0.2594167   0.0616269 SPIN=   4.00000
  Fe   0.1789362  -0.2594167   0.4383731 SPIN=   4.00000
   O   0.3187021   0.3005528   0.4408521 SPIN=   0.00000
   O  -0.1725731   0.1558958   0.3702901 SPIN=   0.00000
   O   0.3572752   0.0082260   0.3333403 SPIN=   0.00000
   O   0.2122449   0.3394177   0.2720867 SPIN=   0.00000
   S   0.1789123   0.2010231   0.3541423 SPIN=   0.00000
   O   0.3187021  -0.3005528   0.0591479 SPIN=   0.00000
   O  -0.1725731  -0.1558958   0.1297099 SPIN=   0.00000
   O   0.3572752  -0.0082260   0.1666597 SPIN=   0.00000
   O   0.2122449  -0.3394177   0.2279133 SPIN=   0.00000
   S   0.1789123  -0.2010231   0.1458577 SPIN=   0.00000
   O  -0.3187021  -0.3005528  -0.4408521 SPIN=   0.00000
   O   0.1725731  -0.1558958  -0.3702901 SPIN=   0.00000
   O  -0.3572752  -0.0082260  -0.3333403 SPIN=   0.00000
   O  -0.2122449  -0.3394177  -0.2720867 SPIN=   0.00000
   S  -0.1789123  -0.2010231  -0.3541423 SPIN=   0.00000
   O  -0.3187021   0.3005528  -0.0591479 SPIN=   0.00000
   O   0.1725731   0.1558958  -0.1297099 SPIN=   0.00000
   O  -0.3572752   0.0082260  -0.1666597 SPIN=   0.00000
   O  -0.2122449   0.3394177  -0.2279133 SPIN=   0.00000
   S  -0.1789123   0.2010231  -0.1458577 SPIN=   0.00000
   F  -0.2051179   0.2883943   0.1292864 SPIN=   0.00000
   F  -0.2051179  -0.2883943   0.3707136 SPIN=   0.00000
   F   0.2051179  -0.2883943  -0.1292864 SPIN=   0.00000
   F   0.2051179   0.2883943  -0.3707136 SPIN=   0.00000
%ENDBLOCK POSITIONS_FRAC

# Note: total spin =  16.00

KPOINTS_MP_SPACING 0.07

%BLOCK SPECIES_POT
QC5
%ENDBLOCK SPECIES_POT

SNAP_TO_SYMMETRY
SYMMETRY_GENERATE

