#              Generated by Buildcell
#
# at 01:27:04 (GMT+1.0) 18th August 2020
# in /lustre/scratch/uccabz1/launch_tmp
# on node-c12i-005
# by uccabz1
#
# compiler GCC version 4.9.2
# options -cpp -iprefix /lustre/shared/ucl/apps/gcc/4.9.2/bin/../lib/gcc/x86_64-unknown-linux-gnu/4.9.2/ -mtune=corei7 -march=x86-64 -g -Og
#
# seed  -661606081 -1313555753   760747806 -1245144333  -985171082  1184631365   714915585   -35423510   370059097 -1531680261  1386613690 -1635550436
#
#      Author: C. J. Pickard (cjp20@cam.ac.uk)
#                Space group: Fdd2
#

%BLOCK LATTICE_ABC
      7.00573      7.72412      9.00319
     79.83743     67.10340     63.03173
%ENDBLOCK LATTICE_ABC

%BLOCK POSITIONS_FRAC
  Li  -0.4009901   0.3937509   0.2523843 SPIN=   0.00000
  Li   0.2451451  -0.3937509  -0.2523843 SPIN=   0.00000
  Li   0.2427608   0.1062491  -0.2476157 SPIN=   0.00000
  Li   0.1013942  -0.1062491   0.2476157 SPIN=   0.00000
  Fe  -0.4506574  -0.2587949  -0.0738160 SPIN=   4.00000
  Fe   0.2167317   0.2587949   0.0738160 SPIN=   4.00000
  Fe  -0.4594523  -0.2412051   0.4261840 SPIN=   4.00000
  Fe  -0.2744734   0.2412051  -0.4261840 SPIN=   4.00000
   O  -0.1430492  -0.2328261  -0.0649208 SPIN=   0.00000
   O  -0.1068465  -0.4099945   0.1871617 SPIN=   0.00000
   O  -0.1401775  -0.0734996   0.1493021 SPIN=   0.00000
   O   0.2142107  -0.3417506  -0.0099146 SPIN=   0.00000
   S  -0.0439656  -0.2645177   0.0654071 SPIN=   0.00000
   O  -0.4407961   0.2328261   0.0649208 SPIN=   0.00000
   O  -0.3296793   0.4099945  -0.1871617 SPIN=   0.00000
   O  -0.0643751   0.0734996  -0.1493021 SPIN=   0.00000
   O  -0.1374545   0.3417506   0.0099146 SPIN=   0.00000
   S  -0.2430762   0.2645177  -0.0654071 SPIN=   0.00000
   O  -0.1258753  -0.2671739  -0.5649208 SPIN=   0.00000
   O  -0.2668409  -0.0900055  -0.3128383 SPIN=   0.00000
   O   0.0363228  -0.4265004  -0.3506979 SPIN=   0.00000
   O   0.1224601  -0.1582494  -0.5099146 SPIN=   0.00000
   S  -0.0584833  -0.2354823  -0.4345929 SPIN=   0.00000
   O   0.0420300   0.2671739   0.5649208 SPIN=   0.00000
   O   0.3303152   0.0900055   0.3128383 SPIN=   0.00000
   O   0.2591245   0.4265004   0.3506979 SPIN=   0.00000
   O   0.4542961   0.1582494   0.5099146 SPIN=   0.00000
   S   0.2714415   0.2354823   0.4345929 SPIN=   0.00000
   F   0.4142502  -0.2991112   0.1835833 SPIN=   0.00000
   F   0.2987222   0.2991112  -0.1835833 SPIN=   0.00000
   F   0.3651390  -0.2008888  -0.3164167 SPIN=   0.00000
   F  -0.1521665   0.2008888   0.3164167 SPIN=   0.00000
%ENDBLOCK POSITIONS_FRAC

# Note: total spin =  16.00

KPOINTS_MP_SPACING 0.07

%BLOCK SPECIES_POT
QC5
%ENDBLOCK SPECIES_POT

SNAP_TO_SYMMETRY
SYMMETRY_GENERATE

