#              Generated by Buildcell
#
# at 07:20:04 (GMT+1.0) 4th August 2020
# in /lustre/scratch/uccabz1/launch_tmp
# on node-c12j-007
# by uccabz1
#
# compiler GCC version 4.9.2
# options -cpp -iprefix /lustre/shared/ucl/apps/gcc/4.9.2/bin/../lib/gcc/x86_64-unknown-linux-gnu/4.9.2/ -mtune=corei7 -march=x86-64 -g -Og
#
# seed   727879575   139848654   279539020 -1272682543  2061189018 -1384407103  -326713101 -1618646530  -657104267  1978503697    31317132  1801764823
#
#      Author: C. J. Pickard (cjp20@cam.ac.uk)
#                Space group: Pna21
#

%BLOCK LATTICE_ABC
      5.75495      6.61585     10.50590
     90.00000     90.00000     90.00000
%ENDBLOCK LATTICE_ABC

%BLOCK POSITIONS_FRAC
  Li   0.2060367  -0.3327346   0.4530204 SPIN=   0.00000
  Li  -0.2939633   0.3327346  -0.4530204 SPIN=   0.00000
  Li   0.2060367  -0.1672654  -0.0469796 SPIN=   0.00000
  Li  -0.2939633   0.1672654   0.0469796 SPIN=   0.00000
  Fe  -0.2676606  -0.3328925  -0.0481590 SPIN=   4.00000
  Fe   0.2323394   0.3328925   0.0481590 SPIN=   4.00000
  Fe  -0.2676606  -0.1671075   0.4518410 SPIN=   4.00000
  Fe   0.2323394   0.1671075  -0.4518410 SPIN=   4.00000
   O   0.1224153  -0.1437278   0.3137094 SPIN=   0.00000
   O   0.1855975   0.0193464   0.1045453 SPIN=   0.00000
   O  -0.1891090   0.0631995   0.2167944 SPIN=   0.00000
   O  -0.0867879  -0.2685619   0.1234970 SPIN=   0.00000
   S   0.0080290  -0.0824359   0.1896365 SPIN=   0.00000
   O  -0.3775847   0.1437278  -0.3137094 SPIN=   0.00000
   O  -0.3144025  -0.0193464  -0.1045453 SPIN=   0.00000
   O  -0.6891090  -0.0631995  -0.2167944 SPIN=   0.00000
   O  -0.5867879   0.2685619  -0.1234970 SPIN=   0.00000
   S  -0.4919710   0.0824359  -0.1896365 SPIN=   0.00000
   O   0.1224153  -0.3562722  -0.1862906 SPIN=   0.00000
   O   0.1855975  -0.5193464  -0.3954547 SPIN=   0.00000
   O  -0.1891090  -0.5631995  -0.2832056 SPIN=   0.00000
   O  -0.0867879  -0.2314381  -0.3765030 SPIN=   0.00000
   S   0.0080290  -0.4175641  -0.3103635 SPIN=   0.00000
   O  -0.3775847   0.3562722   0.1862906 SPIN=   0.00000
   O  -0.3144025   0.5193464   0.3954547 SPIN=   0.00000
   O  -0.6891090   0.5631995   0.2832056 SPIN=   0.00000
   O  -0.5867879   0.2314381   0.3765030 SPIN=   0.00000
   S  -0.4919710   0.4175641   0.3103635 SPIN=   0.00000
   F  -0.0502186   0.3251046  -0.0299905 SPIN=   0.00000
   F   0.4497814  -0.3251046   0.0299905 SPIN=   0.00000
   F  -0.0502186   0.1748954   0.4700095 SPIN=   0.00000
   F   0.4497814  -0.1748954  -0.4700095 SPIN=   0.00000
%ENDBLOCK POSITIONS_FRAC

# Note: total spin =  16.00

KPOINTS_MP_SPACING 0.07

%BLOCK SPECIES_POT
QC5
%ENDBLOCK SPECIES_POT

SNAP_TO_SYMMETRY
SYMMETRY_GENERATE

