#              Generated by Buildcell
#
# at 09:20:40 (GMT+1.0) 4th August 2020
# in /lustre/scratch/uccabz1/launch_tmp
# on node-c12l-032
# by uccabz1
#
# compiler GCC version 4.9.2
# options -cpp -iprefix /lustre/shared/ucl/apps/gcc/4.9.2/bin/../lib/gcc/x86_64-unknown-linux-gnu/4.9.2/ -mtune=corei7 -march=x86-64 -g -Og
#
# seed  -476683821  2026835326   839234734  -842905241    12979953 -1285904246 -1292307245 -1806442250  -476002042   602240508 -1661309401  1388845475
#
#      Author: C. J. Pickard (cjp20@cam.ac.uk)
#                Space group: C2
#

%BLOCK LATTICE_ABC
      6.87643      6.87643      8.90685
     98.71807     98.71807    101.90372
%ENDBLOCK LATTICE_ABC

%BLOCK POSITIONS_FRAC
  Li  -0.4313125  -0.1063162   0.2908821 SPIN=   0.00000
  Li   0.1063162   0.4313125  -0.2908821 SPIN=   0.00000
  Li  -0.4593145   0.1575160  -0.1879428 SPIN=   0.00000
  Li  -0.1575160   0.4593145   0.1879428 SPIN=   0.00000
  Fe  -0.0999769  -0.3204209  -0.0856072 SPIN=   6.57406
  Fe   0.3204209   0.0999769   0.0856072 SPIN=   6.57406
  Fe   0.3543381   0.2349101   0.4992434 SPIN=   1.42594
  Fe  -0.2349101  -0.3543381  -0.4992434 SPIN=   1.42594
   O   0.3896532  -0.4210412  -0.2639329 SPIN=   0.00000
   O   0.6405955  -0.0918444  -0.1970964 SPIN=   0.00000
   O   0.5315160  -0.2653722   0.0104889 SPIN=   0.00000
   O   0.2940601  -0.1137577  -0.1449743 SPIN=   0.00000
   S   0.4639562  -0.2230039  -0.1488787 SPIN=   0.00000
   O   0.4210412  -0.3896532   0.2639329 SPIN=   0.00000
   O   0.0918444  -0.6405955   0.1970964 SPIN=   0.00000
   O   0.2653722  -0.5315160  -0.0104889 SPIN=   0.00000
   O   0.1137577  -0.2940601   0.1449743 SPIN=   0.00000
   S   0.2230039  -0.4639562   0.1488787 SPIN=   0.00000
   O  -0.0049732  -0.1777339  -0.3092359 SPIN=   0.00000
   O   0.0619306   0.1119591  -0.0913675 SPIN=   0.00000
   O  -0.0979399   0.1410556  -0.3527581 SPIN=   0.00000
   O   0.2626455   0.1284994  -0.2993846 SPIN=   0.00000
   S   0.0554157   0.0509451  -0.2631866 SPIN=   0.00000
   O   0.1777339   0.0049732   0.3092359 SPIN=   0.00000
   O  -0.1119591  -0.0619306   0.0913675 SPIN=   0.00000
   O  -0.1410556   0.0979399   0.3527581 SPIN=   0.00000
   O  -0.1284994  -0.2626455   0.2993846 SPIN=   0.00000
   S  -0.0509451  -0.0554157   0.2631866 SPIN=   0.00000
   F   0.0951137   0.4390289  -0.4983427 SPIN=   0.00000
   F  -0.4390289  -0.0951137   0.4983427 SPIN=   0.00000
   F  -0.2469209   0.4059852  -0.1871167 SPIN=   0.00000
   F  -0.4059852   0.2469209   0.1871167 SPIN=   0.00000
%ENDBLOCK POSITIONS_FRAC

# Note: total spin =  16.00

KPOINTS_MP_SPACING 0.07

%BLOCK SPECIES_POT
QC5
%ENDBLOCK SPECIES_POT

SNAP_TO_SYMMETRY
SYMMETRY_GENERATE

