#              Generated by Buildcell
#
# at 14:33:54 (GMT+1.0) 18th August 2020
# in /lustre/scratch/uccabz1/launch_tmp
# on node-c12e-001
# by uccabz1
#
# compiler GCC version 4.9.2
# options -cpp -iprefix /lustre/shared/ucl/apps/gcc/4.9.2/bin/../lib/gcc/x86_64-unknown-linux-gnu/4.9.2/ -mtune=corei7 -march=x86-64 -g -Og
#
# seed   910451217  1613862932   336659358  1976581886   977802902    67932582  1780696123   383628119  1485693820   687995902  -844199129 -1066399316
#
#      Author: C. J. Pickard (cjp20@cam.ac.uk)
#                Space group: P21/c
#

%BLOCK LATTICE_ABC
      4.63177      6.52389     13.52538
     90.00000     90.00000    101.84220
%ENDBLOCK LATTICE_ABC

%BLOCK POSITIONS_FRAC
  Li  -0.2379964  -0.0032700  -0.3396713 SPIN=   0.00000
  Li   0.2379964  -0.4967300   0.1603287 SPIN=   0.00000
  Li   0.2379964   0.0032700   0.3396713 SPIN=   0.00000
  Li  -0.2379964   0.4967300  -0.1603287 SPIN=   0.00000
  Fe  -0.1954510  -0.2924569   0.0480340 SPIN=   4.00000
  Fe   0.1954510  -0.2075431  -0.4519660 SPIN=   4.00000
  Fe   0.1954510   0.2924569  -0.0480340 SPIN=   4.00000
  Fe  -0.1954510   0.2075431   0.4519660 SPIN=   4.00000
   O  -0.3722283   0.4247353   0.1290835 SPIN=   0.00000
   O  -0.3993436   0.0965225   0.2236152 SPIN=   0.00000
   O  -0.0687161   0.1715169   0.0785819 SPIN=   0.00000
   O  -0.6100222   0.0850345   0.0550628 SPIN=   0.00000
   S  -0.3625775   0.1944523   0.1215859 SPIN=   0.00000
   O   0.3722283   0.0752647  -0.3709165 SPIN=   0.00000
   O   0.3993436   0.4034775  -0.2763848 SPIN=   0.00000
   O   0.0687161   0.3284831  -0.4214181 SPIN=   0.00000
   O   0.6100222   0.4149655  -0.4449372 SPIN=   0.00000
   S   0.3625775   0.3055477  -0.3784141 SPIN=   0.00000
   O   0.3722283  -0.4247353  -0.1290835 SPIN=   0.00000
   O   0.3993436  -0.0965225  -0.2236152 SPIN=   0.00000
   O   0.0687161  -0.1715169  -0.0785819 SPIN=   0.00000
   O   0.6100222  -0.0850345  -0.0550628 SPIN=   0.00000
   S   0.3625775  -0.1944523  -0.1215859 SPIN=   0.00000
   O  -0.3722283  -0.0752647   0.3709165 SPIN=   0.00000
   O  -0.3993436  -0.4034775   0.2763848 SPIN=   0.00000
   O  -0.0687161  -0.3284831   0.4214181 SPIN=   0.00000
   O  -0.6100222  -0.4149655   0.4449372 SPIN=   0.00000
   S  -0.3625775  -0.3055477   0.3784141 SPIN=   0.00000
   F  -0.0863398  -0.2792848  -0.3229653 SPIN=   0.00000
   F   0.0863398  -0.2207152   0.1770347 SPIN=   0.00000
   F   0.0863398   0.2792848   0.3229653 SPIN=   0.00000
   F  -0.0863398   0.2207152  -0.1770347 SPIN=   0.00000
%ENDBLOCK POSITIONS_FRAC

# Note: total spin =  16.00

KPOINTS_MP_SPACING 0.07

%BLOCK SPECIES_POT
QC5
%ENDBLOCK SPECIES_POT

SNAP_TO_SYMMETRY
SYMMETRY_GENERATE

