#              Generated by Buildcell
#
# at 00:49:44 (GMT+1.0) 18th August 2020
# in /scratch/scratch/uccabz1/launch_tmp
# on node-k10e-027
# by uccabz1
#
# compiler GCC version 4.9.2
# options -cpp -iprefix /scratch/UCL/applications/gcc/4.9.2/bin/../lib/gcc/x86_64-unknown-linux-gnu/4.9.2/ -mtune=corei7 -march=x86-64 -g -O2
#
# seed -1600784330   651459785 -1439708610  2016165974   934978567  2041651272 -1505248829   -36443954   355927773  -267184262  1174808087 -1801208428
#
#      Author: C. J. Pickard (cjp20@cam.ac.uk)
#                Space group: C2
#

%BLOCK LATTICE_ABC
      7.07799      8.57002      8.61269
     60.59793     65.73830     65.60965
%ENDBLOCK LATTICE_ABC

%BLOCK POSITIONS_FRAC
  Li   0.4907880  -0.1441551   0.6142499 SPIN=   0.00000
  Li  -0.0391172   0.1441551  -0.6142499 SPIN=   0.00000
  Li  -0.4958248  -0.4212679   0.2289291 SPIN=   0.00000
  Li   0.3118365   0.4212679  -0.2289291 SPIN=   0.00000
  Fe  -0.0864810   0.2433692  -0.0175286 SPIN=   5.97856
  Fe   0.1393596  -0.2433692   0.0175286 SPIN=   5.97856
  Fe   0.3376170   0.2573684  -0.4743652 SPIN=   2.02144
  Fe   0.1206202  -0.2573684   0.4743652 SPIN=   2.02144
   O  -0.3285392   0.1624184  -0.3869586 SPIN=   0.00000
   O  -0.0243412   0.2691802  -0.4377093 SPIN=   0.00000
   O  -0.2455441   0.1347816  -0.1205518 SPIN=   0.00000
   O  -0.3984524   0.4445155  -0.3373300 SPIN=   0.00000
   S  -0.2492192   0.2527239  -0.3206374 SPIN=   0.00000
   O  -0.5530795  -0.1624184   0.3869586 SPIN=   0.00000
   O  -0.1928703  -0.2691802   0.4377093 SPIN=   0.00000
   O  -0.2313143  -0.1347816   0.1205518 SPIN=   0.00000
   O  -0.2912670  -0.4445155   0.3373300 SPIN=   0.00000
   S  -0.3171328  -0.2527239   0.3206374 SPIN=   0.00000
   O  -0.4289884  -0.3751296  -0.0590730 SPIN=   0.00000
   O  -0.4276900  -0.0621714  -0.1184363 SPIN=   0.00000
   O  -0.1790363  -0.2118010  -0.3388134 SPIN=   0.00000
   O  -0.1210050  -0.3325142  -0.0308326 SPIN=   0.00000
   S  -0.2891799  -0.2454041  -0.1367888 SPIN=   0.00000
   O   0.1368090   0.3751296   0.0590730 SPIN=   0.00000
   O   0.3917023   0.0621714   0.1184363 SPIN=   0.00000
   O   0.2703493   0.2118010   0.3388134 SPIN=   0.00000
   O   0.5156482   0.3325142   0.0308326 SPIN=   0.00000
   S   0.3286272   0.2454041   0.1367888 SPIN=   0.00000
   F  -0.2450054   0.2917529  -0.7696843 SPIN=   0.00000
   F   0.2770632  -0.2917529   0.7696843 SPIN=   0.00000
   F   0.2150369   0.2361894  -0.2343644 SPIN=   0.00000
   F   0.2168619  -0.2361894   0.2343644 SPIN=   0.00000
%ENDBLOCK POSITIONS_FRAC

# Note: total spin =  16.00

KPOINTS_MP_SPACING 0.07

%BLOCK SPECIES_POT
QC5
%ENDBLOCK SPECIES_POT

SNAP_TO_SYMMETRY
SYMMETRY_GENERATE

