#              Generated by Buildcell
#
# at 11:35:06 (GMT+1.0) 18th August 2020
# in /lustre/scratch/uccabz1/launch_tmp
# on node-c12a-035
# by uccabz1
#
# compiler GCC version 4.9.2
# options -cpp -iprefix /lustre/shared/ucl/apps/gcc/4.9.2/bin/../lib/gcc/x86_64-unknown-linux-gnu/4.9.2/ -mtune=corei7 -march=x86-64 -g -Og
#
# seed  -588998993 -1292129781  1151926595  -488270107 -1688627701  -175819091  -993361352   241658639  2030731643  2005367011   -24921525   830739829
#
#      Author: C. J. Pickard (cjp20@cam.ac.uk)
#                Space group: P2
#

%BLOCK LATTICE_ABC
      6.41281      6.65175      9.57669
    101.71362     90.00000     90.00000
%ENDBLOCK LATTICE_ABC

%BLOCK POSITIONS_FRAC
  Li  -0.0059376   0.2279286  -0.0760045 SPIN=   0.00000
  Li  -0.0059376  -0.2279286   0.0760045 SPIN=   0.00000
  Li   0.4873876  -0.7340388  -0.4072739 SPIN=   0.00000
  Li   0.4873876   0.7340388   0.4072739 SPIN=   0.00000
  Fe   0.2357738   0.3382871   0.3240590 SPIN=   2.69918
  Fe   0.2357738  -0.3382871  -0.3240590 SPIN=   2.69918
  Fe  -0.2644318   0.1588573   0.1773503 SPIN=   5.30082
  Fe  -0.2644318  -0.1588573  -0.1773503 SPIN=   5.30082
   O  -0.2017277   0.9115088   0.3800306 SPIN=   0.00000
   O   0.0622217   0.6671492   0.2565507 SPIN=   0.00000
   O  -0.2344016   0.5407560   0.3799449 SPIN=   0.00000
   O   0.0449210   0.7455102   0.5202069 SPIN=   0.00000
   S  -0.0822466   0.7162311   0.3841833 SPIN=   0.00000
   O  -0.2017277  -0.9115088  -0.3800306 SPIN=   0.00000
   O   0.0622217  -0.6671492  -0.2565507 SPIN=   0.00000
   O  -0.2344016  -0.5407560  -0.3799449 SPIN=   0.00000
   O   0.0449210  -0.7455102  -0.5202069 SPIN=   0.00000
   S  -0.0822466  -0.7162311  -0.3841833 SPIN=   0.00000
   O   0.2867970   0.0792852  -0.2315456 SPIN=   0.00000
   O   0.3839228   0.1740665   0.0234789 SPIN=   0.00000
   O   0.3609607   0.4419413  -0.1213854 SPIN=   0.00000
   O   0.6479021   0.1879781  -0.1628359 SPIN=   0.00000
   S   0.4198957   0.2208178  -0.1230720 SPIN=   0.00000
   O   0.2867970  -0.0792852   0.2315456 SPIN=   0.00000
   O   0.3839228  -0.1740665  -0.0234789 SPIN=   0.00000
   O   0.3609607  -0.4419413   0.1213854 SPIN=   0.00000
   O   0.6479021  -0.1879781   0.1628359 SPIN=   0.00000
   S   0.4198957  -0.2208178   0.1230720 SPIN=   0.00000
   F  -0.4825699  -0.2133505  -0.3742771 SPIN=   0.00000
   F  -0.4825699   0.2133505   0.3742771 SPIN=   0.00000
   F   0.0167887  -0.2867463  -0.1258777 SPIN=   0.00000
   F   0.0167887   0.2867463   0.1258777 SPIN=   0.00000
%ENDBLOCK POSITIONS_FRAC

# Note: total spin =  16.00

KPOINTS_MP_SPACING 0.07

%BLOCK SPECIES_POT
QC5
%ENDBLOCK SPECIES_POT

SNAP_TO_SYMMETRY
SYMMETRY_GENERATE

