#              Generated by Buildcell
#
# at 15:48:48 (GMT+1.0) 18th August 2020
# in /lustre/scratch/uccabz1/launch_tmp
# on node-c12f-003
# by uccabz1
#
# compiler GCC version 4.9.2
# options -cpp -iprefix /lustre/shared/ucl/apps/gcc/4.9.2/bin/../lib/gcc/x86_64-unknown-linux-gnu/4.9.2/ -mtune=corei7 -march=x86-64 -g -Og
#
# seed -1544384007   757931388  1395582882   102488574  1970943371  1081411174  1981440603  1718037948    31081254 -1360454614   -82726578  1867527660
#
#      Author: C. J. Pickard (cjp20@cam.ac.uk)
#                Space group: P21
#

%BLOCK LATTICE_ABC
      6.97456      7.55337      7.90477
     90.00000     90.00000    106.15048
%ENDBLOCK LATTICE_ABC

%BLOCK POSITIONS_FRAC
  Li  -0.4655716   0.0962397   0.3154253 SPIN=   0.00000
  Li   0.4655716  -0.0962397  -0.1845747 SPIN=   0.00000
  Li  -0.1180543  -0.1851240   0.1649117 SPIN=   0.00000
  Li   0.1180543   0.1851240  -0.3350883 SPIN=   0.00000
  Fe   0.1242188   0.4766912   0.4104069 SPIN=   3.05495
  Fe  -0.1242188  -0.4766912  -0.0895931 SPIN=   3.05495
  Fe  -0.1678839  -0.2114390  -0.4654646 SPIN=   4.94505
  Fe   0.1678839   0.2114390   0.0345354 SPIN=   4.94505
   O   0.4440303  -0.2666320   0.0726686 SPIN=   0.00000
   O   0.0975791  -0.2560226   0.0201837 SPIN=   0.00000
   O   0.3573651   0.0283801   0.0994554 SPIN=   0.00000
   O   0.2340628  -0.2185410   0.3111097 SPIN=   0.00000
   S   0.2832593  -0.1782039   0.1258543 SPIN=   0.00000
   O  -0.4440303   0.2666320  -0.4273314 SPIN=   0.00000
   O  -0.0975791   0.2560226  -0.4798163 SPIN=   0.00000
   O  -0.3573651  -0.0283801  -0.4005446 SPIN=   0.00000
   O  -0.2340628   0.2185410  -0.1888903 SPIN=   0.00000
   S  -0.2832593   0.1782039  -0.3741457 SPIN=   0.00000
   O   0.2758571  -0.3720865  -0.1819968 SPIN=   0.00000
   O   0.6342192  -0.3593962  -0.1876519 SPIN=   0.00000
   O   0.4256684  -0.4575055  -0.4425473 SPIN=   0.00000
   O   0.3774284  -0.6608668  -0.1914459 SPIN=   0.00000
   S   0.4282933  -0.4624637  -0.2509105 SPIN=   0.00000
   O  -0.2758571   0.3720865   0.3180032 SPIN=   0.00000
   O  -0.6342192   0.3593962   0.3123481 SPIN=   0.00000
   O  -0.4256684   0.4575055   0.0574527 SPIN=   0.00000
   O  -0.3774284   0.6608668   0.3085541 SPIN=   0.00000
   S  -0.4282933   0.4624637   0.2490895 SPIN=   0.00000
   F   0.0349725   0.3397015   0.1789473 SPIN=   0.00000
   F  -0.0349725  -0.3397015  -0.3210527 SPIN=   0.00000
   F  -0.2059953  -0.0810392  -0.0142637 SPIN=   0.00000
   F   0.2059953   0.0810392   0.4857363 SPIN=   0.00000
%ENDBLOCK POSITIONS_FRAC

# Note: total spin =  16.00

KPOINTS_MP_SPACING 0.07

%BLOCK SPECIES_POT
QC5
%ENDBLOCK SPECIES_POT

SNAP_TO_SYMMETRY
SYMMETRY_GENERATE

