#              Generated by Buildcell
#
# at 10:23:13 (GMT+1.0) 4th August 2020
# in /lustre/scratch/uccabz1/launch_tmp
# on node-c12k-004
# by uccabz1
#
# compiler GCC version 4.9.2
# options -cpp -iprefix /lustre/shared/ucl/apps/gcc/4.9.2/bin/../lib/gcc/x86_64-unknown-linux-gnu/4.9.2/ -mtune=corei7 -march=x86-64 -g -Og
#
# seed  -364006077 -1455154939  -479146981 -1998493294 -1124176914  1088472895  1699907943   733866762 -1678732014   925823221  -720049586  1292024276
#
#      Author: C. J. Pickard (cjp20@cam.ac.uk)
#                Space group: Pc
#

%BLOCK LATTICE_ABC
      3.97273      8.23384     12.30647
     90.00000     90.00000     96.45761
%ENDBLOCK LATTICE_ABC

%BLOCK POSITIONS_FRAC
  Li   0.0640532   0.2776292   0.3080867 SPIN=   0.00000
  Li  -0.4359468  -0.2223708  -0.3080867 SPIN=   0.00000
  Li   0.1679898   0.3153428  -0.3245335 SPIN=   0.00000
  Li  -0.3320102  -0.1846572   0.3245335 SPIN=   0.00000
  Fe   0.4571572   0.0661575   0.1718236 SPIN=   5.37400
  Fe  -0.0428428  -0.4338425  -0.1718236 SPIN=   5.37400
  Fe   0.4216172   0.0675381  -0.1780981 SPIN=   2.62600
  Fe  -0.0783828  -0.4324619   0.1780981 SPIN=   2.62600
   O   0.2997301   0.5177796   0.0550694 SPIN=   0.00000
   O   0.7899785   0.3686200   0.0116624 SPIN=   0.00000
   O   0.3244345   0.3752689  -0.1213294 SPIN=   0.00000
   O   0.2292584   0.2154537   0.0483888 SPIN=   0.00000
   S   0.4108504   0.3692805  -0.0015522 SPIN=   0.00000
   O  -0.2002699   0.0177796  -0.0550694 SPIN=   0.00000
   O   0.2899785  -0.1313800  -0.0116624 SPIN=   0.00000
   O  -0.1755655  -0.1247311   0.1213294 SPIN=   0.00000
   O  -0.2707416  -0.2845463  -0.0483888 SPIN=   0.00000
   S  -0.0891496  -0.1307195   0.0015522 SPIN=   0.00000
   O   0.0812175  -0.0268053  -0.3940130 SPIN=   0.00000
   O  -0.0772344   0.0068011  -0.5865278 SPIN=   0.00000
   O  -0.3720188   0.1437598  -0.4415152 SPIN=   0.00000
   O  -0.4704714  -0.1568204  -0.4621513 SPIN=   0.00000
   S  -0.2096268  -0.0082662  -0.4710518 SPIN=   0.00000
   O   0.5812175   0.4731947   0.3940130 SPIN=   0.00000
   O   0.4227656   0.5068011   0.5865278 SPIN=   0.00000
   O   0.1279812   0.6437598   0.4415152 SPIN=   0.00000
   O   0.0295286   0.3431796   0.4621513 SPIN=   0.00000
   S   0.2903732   0.4917338   0.4710518 SPIN=   0.00000
   F   0.4155381   0.1538302   0.3087015 SPIN=   0.00000
   F  -0.0844619  -0.3461698  -0.3087015 SPIN=   0.00000
   F  -0.2218556   0.2076879  -0.2325945 SPIN=   0.00000
   F   0.2781444  -0.2923121   0.2325945 SPIN=   0.00000
%ENDBLOCK POSITIONS_FRAC

# Note: total spin =  16.00

KPOINTS_MP_SPACING 0.07

%BLOCK SPECIES_POT
QC5
%ENDBLOCK SPECIES_POT

SNAP_TO_SYMMETRY
SYMMETRY_GENERATE

