#              Generated by Buildcell
#
# at 10:09:48 (GMT+1.0) 18th August 2020
# in /lustre/scratch/uccabz1/launch_tmp
# on node-c12a-022
# by uccabz1
#
# compiler GCC version 4.9.2
# options -cpp -iprefix /lustre/shared/ucl/apps/gcc/4.9.2/bin/../lib/gcc/x86_64-unknown-linux-gnu/4.9.2/ -mtune=corei7 -march=x86-64 -g -Og
#
# seed    92609660 -1222693155 -1583683187  2030184128 -1306553228  1161646401  1235365298  -732215241  -414670374 -1803883133  1162381715    75792234
#
#      Author: C. J. Pickard (cjp20@cam.ac.uk)
#                Space group: P2
#

%BLOCK LATTICE_ABC
      4.01055      8.72741     11.80769
    104.56897     90.00000     90.00000
%ENDBLOCK LATTICE_ABC

%BLOCK POSITIONS_FRAC
  Li  -0.3833408  -0.0336274   0.1540904 SPIN=   0.00000
  Li  -0.3833408   0.0336274  -0.1540904 SPIN=   0.00000
  Li   0.0784381  -0.1878381  -0.4443532 SPIN=   0.00000
  Li   0.0784381   0.1878381   0.4443532 SPIN=   0.00000
  Fe  -0.4207703   0.3832771   0.3445435 SPIN=   5.22484
  Fe  -0.4207703  -0.3832771  -0.3445435 SPIN=   5.22484
  Fe   0.1067642   0.3819574  -0.1576171 SPIN=   2.77516
  Fe   0.1067642  -0.3819574   0.1576171 SPIN=   2.77516
   O  -0.7721205   0.2733402   0.0429856 SPIN=   0.00000
   O  -0.3468615   0.4815583   0.1113900 SPIN=   0.00000
   O  -0.2434435   0.2661596  -0.0663331 SPIN=   0.00000
   O  -0.2431518   0.2087524   0.1285295 SPIN=   0.00000
   S  -0.4013943   0.3074526   0.0541430 SPIN=   0.00000
   O  -0.7721205  -0.2733402  -0.0429856 SPIN=   0.00000
   O  -0.3468615  -0.4815583  -0.1113900 SPIN=   0.00000
   O  -0.2434435  -0.2661596   0.0663331 SPIN=   0.00000
   O  -0.2431518  -0.2087524  -0.1285295 SPIN=   0.00000
   S  -0.4013943  -0.3074526  -0.0541430 SPIN=   0.00000
   O  -0.5452498   0.0290940  -0.3896808 SPIN=   0.00000
   O  -0.4409814   0.2874780  -0.2493802 SPIN=   0.00000
   O  -0.5452379   0.2748467  -0.4581165 SPIN=   0.00000
   O  -0.0163186   0.1717223  -0.3984543 SPIN=   0.00000
   S  -0.3869469   0.1907853  -0.3739079 SPIN=   0.00000
   O  -0.5452498  -0.0290940   0.3896808 SPIN=   0.00000
   O  -0.4409814  -0.2874780   0.2493802 SPIN=   0.00000
   O  -0.5452379  -0.2748467   0.4581165 SPIN=   0.00000
   O  -0.0163186  -0.1717223   0.3984543 SPIN=   0.00000
   S  -0.3869469  -0.1907853   0.3739079 SPIN=   0.00000
   F   0.1163771  -0.0213511   0.1702053 SPIN=   0.00000
   F   0.1163771   0.0213511  -0.1702053 SPIN=   0.00000
   F   0.1053459   0.4416176   0.3252870 SPIN=   0.00000
   F   0.1053459  -0.4416176  -0.3252870 SPIN=   0.00000
%ENDBLOCK POSITIONS_FRAC

# Note: total spin =  16.00

KPOINTS_MP_SPACING 0.07

%BLOCK SPECIES_POT
QC5
%ENDBLOCK SPECIES_POT

SNAP_TO_SYMMETRY
SYMMETRY_GENERATE

