#              Generated by Buildcell
#
# at 22:46:21 (GMT+1.0) 17th August 2020
# in /lustre/scratch/uccabz1/launch_tmp
# on node-c12p-008
# by uccabz1
#
# compiler GCC version 4.9.2
# options -cpp -iprefix /lustre/shared/ucl/apps/gcc/4.9.2/bin/../lib/gcc/x86_64-unknown-linux-gnu/4.9.2/ -mtune=corei7 -march=x86-64 -g -Og
#
# seed  1037401041   264990809  1207755243   916443385  -980404506 -1642393583 -1544798454 -1895505076  -609675539 -2039888787  1116628880   605434972
#
#      Author: C. J. Pickard (cjp20@cam.ac.uk)
#                Space group: I222
#

%BLOCK LATTICE_ABC
      5.98964      8.72706      8.72706
     77.57603     69.93020     69.93020
%ENDBLOCK LATTICE_ABC

%BLOCK POSITIONS_FRAC
  Li  -0.3684291  -0.0564869   0.3442478 SPIN=   0.00000
  Li   0.3684291  -0.3442478   0.0564869 SPIN=   0.00000
  Li   0.0806683   0.3442478  -0.0564869 SPIN=   0.00000
  Li  -0.0806683   0.0564869  -0.3442478 SPIN=   0.00000
  Fe   0.1258177  -0.2851897  -0.4665392 SPIN=   4.00000
  Fe  -0.1258177   0.4665392   0.2851897 SPIN=   4.00000
  Fe  -0.3740888  -0.4665392  -0.2851897 SPIN=   4.00000
  Fe   0.3740888   0.2851897   0.4665392 SPIN=   4.00000
   O  -0.4380649   0.0960457   0.1485080 SPIN=   0.00000
   O  -0.2013029   0.1641387  -0.1381066 SPIN=   0.00000
   O  -0.2564843   0.3266208   0.0792906 SPIN=   0.00000
   O  -0.6152596   0.3508340  -0.0134092 SPIN=   0.00000
   S  -0.3777779   0.2344098   0.0190707 SPIN=   0.00000
   O   0.4380649  -0.1485080  -0.0960457 SPIN=   0.00000
   O   0.2013029   0.1381066  -0.1641387 SPIN=   0.00000
   O   0.2564843  -0.0792906  -0.3266208 SPIN=   0.00000
   O   0.6152596   0.0134092  -0.3508340 SPIN=   0.00000
   S   0.3777779  -0.0190707  -0.2344098 SPIN=   0.00000
   O   0.1935111   0.1485080   0.0960457 SPIN=   0.00000
   O   0.1752708  -0.1381066   0.1641387 SPIN=   0.00000
   O  -0.1494270   0.0792906   0.3266208 SPIN=   0.00000
   O   0.2778349  -0.0134092   0.3508340 SPIN=   0.00000
   S   0.1242974   0.0190707   0.2344098 SPIN=   0.00000
   O  -0.1935111  -0.0960457  -0.1485080 SPIN=   0.00000
   O  -0.1752708  -0.1641387   0.1381066 SPIN=   0.00000
   O   0.1494270  -0.3266208  -0.0792906 SPIN=   0.00000
   O  -0.2778349  -0.3508340   0.0134092 SPIN=   0.00000
   S  -0.1242974  -0.2344098  -0.0190707 SPIN=   0.00000
   F   0.3462691  -0.4598138   0.2681464 SPIN=   0.00000
   F  -0.3462691  -0.2681464   0.4598138 SPIN=   0.00000
   F  -0.1546017   0.2681464  -0.4598138 SPIN=   0.00000
   F   0.1546017   0.4598138  -0.2681464 SPIN=   0.00000
%ENDBLOCK POSITIONS_FRAC

# Note: total spin =  16.00

KPOINTS_MP_SPACING 0.07

%BLOCK SPECIES_POT
QC5
%ENDBLOCK SPECIES_POT

SNAP_TO_SYMMETRY
SYMMETRY_GENERATE

