#              Generated by Buildcell
#
# at 07:32:33 (GMT+1.0) 4th August 2020
# in /lustre/scratch/uccabz1/launch_tmp
# on node-c12g-022
# by uccabz1
#
# compiler GCC version 4.9.2
# options -cpp -iprefix /lustre/shared/ucl/apps/gcc/4.9.2/bin/../lib/gcc/x86_64-unknown-linux-gnu/4.9.2/ -mtune=corei7 -march=x86-64 -g -Og
#
# seed  1502197911  -911621792  1860002568   931364700  2006225949  -773082436  2107825950  1709505065 -1092471568  -106371236  -354011436  1502837478
#
#      Author: C. J. Pickard (cjp20@cam.ac.uk)
#                Space group: P212121
#

%BLOCK LATTICE_ABC
      4.18622      9.73085      9.81945
     90.00000     90.00000     90.00000
%ENDBLOCK LATTICE_ABC

%BLOCK POSITIONS_FRAC
  Li  -0.1258331  -0.0117823   0.2514116 SPIN=   0.00000
  Li   0.1258331   0.4882177   0.2485884 SPIN=   0.00000
  Li   0.3741669  -0.4882177  -0.2514116 SPIN=   0.00000
  Li  -0.3741669   0.0117823  -0.2485884 SPIN=   0.00000
  Fe  -0.2923928  -0.4078872   0.4827424 SPIN=   4.00000
  Fe   0.2923928   0.0921128   0.0172576 SPIN=   4.00000
  Fe   0.2076072  -0.0921128  -0.4827424 SPIN=   4.00000
  Fe  -0.2076072   0.4078872  -0.0172576 SPIN=   4.00000
   O  -0.5205315   0.1297203   0.2247286 SPIN=   0.00000
   O  -0.0927756   0.1914425   0.3875983 SPIN=   0.00000
   O  -0.5783542   0.3355203   0.3707514 SPIN=   0.00000
   O  -0.1841347   0.3345682   0.1829298 SPIN=   0.00000
   S  -0.3439490   0.2478128   0.2915020 SPIN=   0.00000
   O   0.5205315  -0.3702797   0.2752714 SPIN=   0.00000
   O   0.0927756  -0.3085575   0.1124017 SPIN=   0.00000
   O   0.5783542  -0.1644797   0.1292486 SPIN=   0.00000
   O   0.1841347  -0.1654318   0.3170702 SPIN=   0.00000
   S   0.3439490  -0.2521872   0.2084980 SPIN=   0.00000
   O  -0.0205315   0.3702797  -0.2247286 SPIN=   0.00000
   O   0.4072244   0.3085575  -0.3875983 SPIN=   0.00000
   O  -0.0783542   0.1644797  -0.3707514 SPIN=   0.00000
   O   0.3158653   0.1654318  -0.1829298 SPIN=   0.00000
   S   0.1560510   0.2521872  -0.2915020 SPIN=   0.00000
   O   0.0205315  -0.1297203  -0.2752714 SPIN=   0.00000
   O  -0.4072244  -0.1914425  -0.1124017 SPIN=   0.00000
   O   0.0783542  -0.3355203  -0.1292486 SPIN=   0.00000
   O  -0.3158653  -0.3345682  -0.3170702 SPIN=   0.00000
   S  -0.1560510  -0.2478128  -0.2084980 SPIN=   0.00000
   F   0.3190114   0.4356881   0.0155916 SPIN=   0.00000
   F  -0.3190114  -0.0643119   0.4844084 SPIN=   0.00000
   F  -0.1809886   0.0643119  -0.0155916 SPIN=   0.00000
   F   0.1809886  -0.4356881  -0.4844084 SPIN=   0.00000
%ENDBLOCK POSITIONS_FRAC

# Note: total spin =  16.00

KPOINTS_MP_SPACING 0.07

%BLOCK SPECIES_POT
QC5
%ENDBLOCK SPECIES_POT

SNAP_TO_SYMMETRY
SYMMETRY_GENERATE

