#              Generated by Buildcell
#
# at 07:24:58 (GMT+1.0) 4th August 2020
# in /lustre/scratch/uccabz1/launch_tmp
# on node-c12l-015
# by uccabz1
#
# compiler GCC version 4.9.2
# options -cpp -iprefix /lustre/shared/ucl/apps/gcc/4.9.2/bin/../lib/gcc/x86_64-unknown-linux-gnu/4.9.2/ -mtune=corei7 -march=x86-64 -g -Og
#
# seed   714910830 -1692187929 -1097471796    63321783 -1067730164  -644287730   417220609   432561673   569166127 -1357576265  1545746975   444986833
#
#      Author: C. J. Pickard (cjp20@cam.ac.uk)
#                Space group: Aem2
#

%BLOCK LATTICE_ABC
      6.12425      8.02957      9.07104
    116.26949     90.00000     90.00000
%ENDBLOCK LATTICE_ABC

%BLOCK POSITIONS_FRAC
  Li  -0.2534682   0.1172471   0.1276311 SPIN=   0.00000
  Li   0.2534682  -0.0103840  -0.1276311 SPIN=   0.00000
  Li  -0.2534682   0.4896160   0.8723689 SPIN=   0.00000
  Li   0.2534682  -0.3827529  -0.8723689 SPIN=   0.00000
  Fe  -0.1343171   0.0798677  -0.2833328 SPIN=   4.00000
  Fe   0.1343171   0.3632005   0.2833328 SPIN=   4.00000
  Fe  -0.1343171  -0.1367995   0.2833328 SPIN=   4.00000
  Fe   0.1343171  -0.4201323  -0.2833328 SPIN=   4.00000
   O   0.3340766  -0.0139065  -0.3544816 SPIN=   0.00000
   O   0.5921085   0.0374982  -0.1283713 SPIN=   0.00000
   O   0.2864094   0.2564140  -0.0831644 SPIN=   0.00000
   O   0.5958614   0.2476422  -0.2619283 SPIN=   0.00000
   O  -0.3340766   0.3405751   0.3544816 SPIN=   0.00000
   O  -0.5921085   0.1658695   0.1283713 SPIN=   0.00000
   O  -0.2864094   0.3395784   0.0831644 SPIN=   0.00000
   O  -0.5958614   0.5095705   0.2619283 SPIN=   0.00000
   O   0.3340766  -0.1594249   0.3544816 SPIN=   0.00000
   O   0.5921085  -0.3341305   0.1283713 SPIN=   0.00000
   O   0.2864094  -0.1604216   0.0831644 SPIN=   0.00000
   O   0.5958614   0.0095705   0.2619283 SPIN=   0.00000
   O  -0.3340766  -0.5139065  -0.3544816 SPIN=   0.00000
   O  -0.5921085  -0.4625018  -0.1283713 SPIN=   0.00000
   O  -0.2864094  -0.2435860  -0.0831644 SPIN=   0.00000
   O  -0.5958614  -0.2523578  -0.2619283 SPIN=   0.00000
   S  -0.5000000  -0.1947585   0.0000000 SPIN=   0.00000
   S   0.5000000   0.3052415   0.0000000 SPIN=   0.00000
   S   0.4601413  -0.2218677  -0.5000000 SPIN=   0.00000
   S  -0.4601413   0.2781323   0.5000000 SPIN=   0.00000
   F  -0.0219618  -0.3728947  -0.7497564 SPIN=   0.00000
   F   0.0219618   0.3768617   0.7497564 SPIN=   0.00000
   F  -0.0219618  -0.1231383  -0.2502436 SPIN=   0.00000
   F   0.0219618   0.1271053   0.2502436 SPIN=   0.00000
%ENDBLOCK POSITIONS_FRAC

# Note: total spin =  16.00

KPOINTS_MP_SPACING 0.07

%BLOCK SPECIES_POT
QC5
%ENDBLOCK SPECIES_POT

SNAP_TO_SYMMETRY
SYMMETRY_GENERATE

