#              Generated by Buildcell
#
# at 06:39:33 (GMT+1.0) 4th August 2020
# in /lustre/scratch/uccabz1/launch_tmp
# on node-c12c-006
# by uccabz1
#
# compiler GCC version 4.9.2
# options -cpp -iprefix /lustre/shared/ucl/apps/gcc/4.9.2/bin/../lib/gcc/x86_64-unknown-linux-gnu/4.9.2/ -mtune=corei7 -march=x86-64 -g -Og
#
# seed    24895645   685268167  1153057438  -493883839  1546072077   415927114  1116902979  1201679301 -2024078931   394839613 -1112008766  2119119820
#
#      Author: C. J. Pickard (cjp20@cam.ac.uk)
#                Space group: Pc
#

%BLOCK LATTICE_ABC
      6.99649      7.97509      8.11917
    118.00063     90.00000     90.00000
%ENDBLOCK LATTICE_ABC

%BLOCK POSITIONS_FRAC
  Li  -0.0557428   0.2467847  -0.3760468 SPIN=   0.00000
  Li   0.0557428  -0.2532153  -0.3760468 SPIN=   0.00000
  Li   0.4397695   0.2547262   0.3477023 SPIN=   0.00000
  Li  -0.4397695  -0.2452738   0.3477023 SPIN=   0.00000
  Fe   0.1282357  -0.4154647  -0.0675674 SPIN=   4.97807
  Fe  -0.1282357   0.0845353  -0.0675674 SPIN=   4.97807
  Fe   0.3377537   0.0967019  -0.3969083 SPIN=   3.02193
  Fe  -0.3377537  -0.4032981  -0.3969083 SPIN=   3.02193
   O   0.3522651  -0.2121983  -0.0182795 SPIN=   0.00000
   O   0.2488446   0.1010419   0.0204832 SPIN=   0.00000
   O   0.3154532  -0.1615755  -0.2949023 SPIN=   0.00000
   O   0.5813638  -0.0075273  -0.0736666 SPIN=   0.00000
   S   0.3744817  -0.0700648  -0.0915913 SPIN=   0.00000
   O  -0.3522651   0.2878017  -0.0182795 SPIN=   0.00000
   O  -0.2488446   0.6010419   0.0204832 SPIN=   0.00000
   O  -0.3154532   0.3384245  -0.2949023 SPIN=   0.00000
   O  -0.5813638   0.4924727  -0.0736666 SPIN=   0.00000
   S  -0.3744817   0.4299352  -0.0915913 SPIN=   0.00000
   O  -0.4474064  -0.0584587   0.2560340 SPIN=   0.00000
   O  -0.1497837  -0.0271980   0.4329401 SPIN=   0.00000
   O  -0.2652600   0.2427656   0.3895222 SPIN=   0.00000
   O  -0.1345898  -0.0435473   0.1211938 SPIN=   0.00000
   S  -0.2492600   0.0283904   0.2999225 SPIN=   0.00000
   O   0.4474064  -0.5584587   0.2560340 SPIN=   0.00000
   O   0.1497837  -0.5271980   0.4329401 SPIN=   0.00000
   O   0.2652600  -0.2572344   0.3895222 SPIN=   0.00000
   O   0.1345898  -0.5435473   0.1211938 SPIN=   0.00000
   S   0.2492600  -0.4716096   0.2999225 SPIN=   0.00000
   F   0.0500714   0.1787729  -0.2081020 SPIN=   0.00000
   F  -0.0500714  -0.3212271  -0.2081020 SPIN=   0.00000
   F   0.2280768   0.1244157   0.3615143 SPIN=   0.00000
   F  -0.2280768  -0.3755843   0.3615143 SPIN=   0.00000
%ENDBLOCK POSITIONS_FRAC

# Note: total spin =  16.00

KPOINTS_MP_SPACING 0.07

%BLOCK SPECIES_POT
QC5
%ENDBLOCK SPECIES_POT

SNAP_TO_SYMMETRY
SYMMETRY_GENERATE

