#              Generated by Buildcell
#
# at 07:20:14 (GMT+1.0) 4th August 2020
# in /lustre/scratch/uccabz1/launch_tmp
# on node-c12f-024
# by uccabz1
#
# compiler GCC version 4.9.2
# options -cpp -iprefix /lustre/shared/ucl/apps/gcc/4.9.2/bin/../lib/gcc/x86_64-unknown-linux-gnu/4.9.2/ -mtune=corei7 -march=x86-64 -g -Og
#
# seed  -605250805  1379605257  -217602500  1021169286   873437708  -501985700   514592830 -1992812867   271623094    58835103  2142554969   510802635
#
#      Author: C. J. Pickard (cjp20@cam.ac.uk)
#                Space group: P-1
#

%BLOCK LATTICE_ABC
      6.56558      7.86503      9.07691
     64.96654     75.15975     72.21796
%ENDBLOCK LATTICE_ABC

%BLOCK POSITIONS_FRAC
  Li  -0.2422423   0.2640623  -0.0477287 SPIN=   0.00000
  Li   0.2422423  -0.2640623   0.0477287 SPIN=   0.00000
  Li  -0.1886144  -0.0985198   0.4294654 SPIN=   0.00000
  Li   0.1886144   0.0985198  -0.4294654 SPIN=   0.00000
  Fe  -0.2716695  -0.3241087  -0.1070992 SPIN=   3.02666
  Fe   0.2716695   0.3241087   0.1070992 SPIN=   3.02666
  Fe   0.2335399  -0.3941714   0.4111083 SPIN=   4.97334
  Fe  -0.2335399   0.3941714  -0.4111083 SPIN=   4.97334
   O   0.3013103   0.2697071  -0.2928998 SPIN=   0.00000
   O   0.1713399   0.1752446   0.0057114 SPIN=   0.00000
   O   0.4797614  -0.0402853  -0.0973892 SPIN=   0.00000
   O   0.1104898   0.0030823  -0.1472127 SPIN=   0.00000
   S   0.2657253   0.1019372  -0.1329476 SPIN=   0.00000
   O  -0.3013103  -0.2697071   0.2928998 SPIN=   0.00000
   O  -0.1713399  -0.1752446  -0.0057114 SPIN=   0.00000
   O  -0.4797614   0.0402853   0.0973892 SPIN=   0.00000
   O  -0.1104898  -0.0030823   0.1472127 SPIN=   0.00000
   S  -0.2657253  -0.1019372   0.1329476 SPIN=   0.00000
   O   0.4088971  -0.2366228  -0.1846043 SPIN=   0.00000
   O   0.4822000  -0.2725374  -0.4525411 SPIN=   0.00000
   O   0.1057706  -0.2123446  -0.3130587 SPIN=   0.00000
   O   0.3562816  -0.5272909  -0.1991843 SPIN=   0.00000
   S   0.3382873  -0.3121989  -0.2873471 SPIN=   0.00000
   O  -0.4088971   0.2366228   0.1846043 SPIN=   0.00000
   O  -0.4822000   0.2725374   0.4525411 SPIN=   0.00000
   O  -0.1057706   0.2123446   0.3130587 SPIN=   0.00000
   O  -0.3562816   0.5272909   0.1991843 SPIN=   0.00000
   S  -0.3382873   0.3121989   0.2873471 SPIN=   0.00000
   F   0.2026670  -0.0970651   0.3194515 SPIN=   0.00000
   F  -0.2026670   0.0970651  -0.3194515 SPIN=   0.00000
   F  -0.1179165  -0.4693783  -0.2487281 SPIN=   0.00000
   F   0.1179165   0.4693783   0.2487281 SPIN=   0.00000
%ENDBLOCK POSITIONS_FRAC

# Note: total spin =  16.00

KPOINTS_MP_SPACING 0.07

%BLOCK SPECIES_POT
QC5
%ENDBLOCK SPECIES_POT

SNAP_TO_SYMMETRY
SYMMETRY_GENERATE

