#              Generated by Buildcell
#
# at 15:38:28 (GMT+1.0) 18th August 2020
# in /scratch/scratch/uccabz1/launch_tmp
# on node-k10b-001
# by uccabz1
#
# compiler GCC version 4.9.2
# options -cpp -iprefix /scratch/UCL/applications/gcc/4.9.2/bin/../lib/gcc/x86_64-unknown-linux-gnu/4.9.2/ -mtune=corei7 -march=x86-64 -g -O2
#
# seed  -411520980  2103076248   239543142  1242425197  2060637433  1247518954  1551343081 -1849616111  -432028871  1693303040   731800515 -1802321164
#
#      Author: C. J. Pickard (cjp20@cam.ac.uk)
#                Space group: P-1
#

%BLOCK LATTICE_ABC
      6.31996      7.27787      8.79250
     96.60687     93.48658     93.58972
%ENDBLOCK LATTICE_ABC

%BLOCK POSITIONS_FRAC
  Li   0.0526435   0.4331177   0.2913986 SPIN=   0.00000
  Li  -0.0526435  -0.4331177  -0.2913986 SPIN=   0.00000
  Li  -0.3612571  -0.2567398   0.4000851 SPIN=   0.00000
  Li   0.3612571   0.2567398  -0.4000851 SPIN=   0.00000
  Fe   0.1465530   0.0223791   0.3323477 SPIN=   2.73378
  Fe  -0.1465530  -0.0223791  -0.3323477 SPIN=   2.73378
  Fe  -0.2233681  -0.2015518   0.0278927 SPIN=   5.26622
  Fe   0.2233681   0.2015518  -0.0278927 SPIN=   5.26622
   O   0.3018981  -0.1329189   0.1136423 SPIN=   0.00000
   O   0.0652003  -0.4163877   0.1165597 SPIN=   0.00000
   O   0.4548951  -0.4368515   0.1209623 SPIN=   0.00000
   O   0.2560713  -0.3681871  -0.1147739 SPIN=   0.00000
   S   0.2695162  -0.3385863   0.0590976 SPIN=   0.00000
   O  -0.3018981   0.1329189  -0.1136423 SPIN=   0.00000
   O  -0.0652003   0.4163877  -0.1165597 SPIN=   0.00000
   O  -0.4548951   0.4368515  -0.1209623 SPIN=   0.00000
   O  -0.2560713   0.3681871   0.1147739 SPIN=   0.00000
   S  -0.2695162   0.3385863  -0.0590976 SPIN=   0.00000
   O   0.3955809  -0.1614699  -0.3971201 SPIN=   0.00000
   O   0.0327037  -0.2814223  -0.4973731 SPIN=   0.00000
   O   0.2708769  -0.4851952  -0.3724447 SPIN=   0.00000
   O   0.3447311  -0.3935400  -0.6275117 SPIN=   0.00000
   S   0.2609731  -0.3304068  -0.4736124 SPIN=   0.00000
   O  -0.3955809   0.1614699   0.3971201 SPIN=   0.00000
   O  -0.0327037   0.2814223   0.4973731 SPIN=   0.00000
   O  -0.2708769   0.4851952   0.3724447 SPIN=   0.00000
   O  -0.3447311   0.3935400   0.6275117 SPIN=   0.00000
   S  -0.2609731   0.3304068   0.4736124 SPIN=   0.00000
   F  -0.2194216  -0.1582767   0.2452591 SPIN=   0.00000
   F   0.2194216   0.1582767  -0.2452591 SPIN=   0.00000
   F  -0.2170595  -0.2360337  -0.2353628 SPIN=   0.00000
   F   0.2170595   0.2360337   0.2353628 SPIN=   0.00000
%ENDBLOCK POSITIONS_FRAC

# Note: total spin =  16.00

KPOINTS_MP_SPACING 0.07

%BLOCK SPECIES_POT
QC5
%ENDBLOCK SPECIES_POT

SNAP_TO_SYMMETRY
SYMMETRY_GENERATE

