#              Generated by Buildcell
#
# at 10:22:51 (GMT+1.0) 4th August 2020
# in /lustre/scratch/uccabz1/launch_tmp
# on node-c12f-009
# by uccabz1
#
# compiler GCC version 4.9.2
# options -cpp -iprefix /lustre/shared/ucl/apps/gcc/4.9.2/bin/../lib/gcc/x86_64-unknown-linux-gnu/4.9.2/ -mtune=corei7 -march=x86-64 -g -Og
#
# seed -2003659444  1962452030  -996106012  1956041338  -428144561   866825827  1437234954 -1349320353  1427758582 -1230528129  1171288349  -220076428
#
#      Author: C. J. Pickard (cjp20@cam.ac.uk)
#                Space group: P42
#

%BLOCK LATTICE_ABC
      6.64453      7.75886      7.75886
     90.00000     90.00000     90.00000
%ENDBLOCK LATTICE_ABC

%BLOCK POSITIONS_FRAC
  Li  -0.2751529  -0.2789128   0.0789226 SPIN=   0.00000
  Li  -0.2751529   0.2789128  -0.0789226 SPIN=   0.00000
  Li   0.2248471  -0.0789226  -0.2789128 SPIN=   0.00000
  Li   0.2248471   0.0789226   0.2789128 SPIN=   0.00000
  Fe   0.1651915  -0.2258568   0.0639101 SPIN=   4.00000
  Fe   0.1651915   0.2258568  -0.0639101 SPIN=   4.00000
  Fe  -0.3348085  -0.0639101  -0.2258568 SPIN=   4.00000
  Fe  -0.3348085   0.0639101   0.2258568 SPIN=   4.00000
   O   0.2015004  -0.5112673  -0.2104792 SPIN=   0.00000
   O   0.3779686  -0.2846355  -0.3764431 SPIN=   0.00000
   O   0.5310889  -0.5737364  -0.3452949 SPIN=   0.00000
   O   0.5114235  -0.3783078  -0.0937629 SPIN=   0.00000
   S   0.4054954  -0.4369867  -0.2564950 SPIN=   0.00000
   O   0.2015004   0.5112673   0.2104792 SPIN=   0.00000
   O   0.3779686   0.2846355   0.3764431 SPIN=   0.00000
   O   0.5310889   0.5737364   0.3452949 SPIN=   0.00000
   O   0.5114235   0.3783078   0.0937629 SPIN=   0.00000
   S   0.4054954   0.4369867   0.2564950 SPIN=   0.00000
   O  -0.2984996   0.2104792  -0.5112673 SPIN=   0.00000
   O  -0.1220314   0.3764431  -0.2846355 SPIN=   0.00000
   O   0.0310889   0.3452949  -0.5737364 SPIN=   0.00000
   O   0.0114235   0.0937629  -0.3783078 SPIN=   0.00000
   S  -0.0945046   0.2564950  -0.4369867 SPIN=   0.00000
   O  -0.2984996  -0.2104792   0.5112673 SPIN=   0.00000
   O  -0.1220314  -0.3764431   0.2846355 SPIN=   0.00000
   O   0.0310889  -0.3452949   0.5737364 SPIN=   0.00000
   O   0.0114235  -0.0937629   0.3783078 SPIN=   0.00000
   S  -0.0945046  -0.2564950   0.4369867 SPIN=   0.00000
   F   0.4379498  -0.1065633   0.2738193 SPIN=   0.00000
   F   0.4379498   0.1065633  -0.2738193 SPIN=   0.00000
   F  -0.0620502  -0.2738193  -0.1065633 SPIN=   0.00000
   F  -0.0620502   0.2738193   0.1065633 SPIN=   0.00000
%ENDBLOCK POSITIONS_FRAC

# Note: total spin =  16.00

KPOINTS_MP_SPACING 0.07

%BLOCK SPECIES_POT
QC5
%ENDBLOCK SPECIES_POT

SNAP_TO_SYMMETRY
SYMMETRY_GENERATE

