#              Generated by Buildcell
#
# at 14:11:41 (GMT+1.0) 18th August 2020
# in /lustre/scratch/uccabz1/launch_tmp
# on node-c12i-032
# by uccabz1
#
# compiler GCC version 4.9.2
# options -cpp -iprefix /lustre/shared/ucl/apps/gcc/4.9.2/bin/../lib/gcc/x86_64-unknown-linux-gnu/4.9.2/ -mtune=corei7 -march=x86-64 -g -Og
#
# seed  -758186537 -1357982466   369411409 -1797372150   597198789   296879258  -553746432 -1901561449  -994864333  -875501794  2101278227  1116699349
#
#      Author: C. J. Pickard (cjp20@cam.ac.uk)
#                Space group: P-1
#

%BLOCK LATTICE_ABC
      4.20492      8.05774     12.05857
    100.68570     91.62671     94.26944
%ENDBLOCK LATTICE_ABC

%BLOCK POSITIONS_FRAC
  Li   0.2938080   0.2617754   0.4222115 SPIN=   0.00000
  Li  -0.2938080  -0.2617754  -0.4222115 SPIN=   0.00000
  Li  -0.1476926   0.4580988  -0.1603665 SPIN=   0.00000
  Li   0.1476926  -0.4580988   0.1603665 SPIN=   0.00000
  Fe  -0.1290633   0.1880529   0.2134009 SPIN=   4.28334
  Fe   0.1290633  -0.1880529  -0.2134009 SPIN=   4.28334
  Fe   0.3900767  -0.1053878   0.3539141 SPIN=   3.71666
  Fe  -0.3900767   0.1053878  -0.3539141 SPIN=   3.71666
   O  -0.0811903  -0.1536666   0.1271722 SPIN=   0.00000
   O   0.2120187  -0.0898827  -0.0370014 SPIN=   0.00000
   O   0.3682099  -0.3204767   0.0580151 SPIN=   0.00000
   O   0.4726895  -0.0214131   0.1543634 SPIN=   0.00000
   S   0.2429320  -0.1463598   0.0756373 SPIN=   0.00000
   O   0.0811903   0.1536666  -0.1271722 SPIN=   0.00000
   O  -0.2120187   0.0898827   0.0370014 SPIN=   0.00000
   O  -0.3682099   0.3204767  -0.0580151 SPIN=   0.00000
   O  -0.4726895   0.0214131  -0.1543634 SPIN=   0.00000
   S  -0.2429320   0.1463598  -0.0756373 SPIN=   0.00000
   O   0.0275436   0.5971279  -0.3603054 SPIN=   0.00000
   O   0.4562392   0.4190229  -0.4354009 SPIN=   0.00000
   O  -0.0946160   0.2897184  -0.4305752 SPIN=   0.00000
   O   0.2271051   0.3902089  -0.2524780 SPIN=   0.00000
   S   0.1540680   0.4240195  -0.3696899 SPIN=   0.00000
   O  -0.0275436  -0.5971279   0.3603054 SPIN=   0.00000
   O  -0.4562392  -0.4190229   0.4354009 SPIN=   0.00000
   O   0.0946160  -0.2897184   0.4305752 SPIN=   0.00000
   O  -0.2271051  -0.3902089   0.2524780 SPIN=   0.00000
   S  -0.1540680  -0.4240195   0.3696899 SPIN=   0.00000
   F  -0.2044979   0.0632069   0.3651389 SPIN=   0.00000
   F   0.2044979  -0.0632069  -0.3651389 SPIN=   0.00000
   F  -0.2996488  -0.3086286  -0.1638407 SPIN=   0.00000
   F   0.2996488   0.3086286   0.1638407 SPIN=   0.00000
%ENDBLOCK POSITIONS_FRAC

# Note: total spin =  16.00

KPOINTS_MP_SPACING 0.07

%BLOCK SPECIES_POT
QC5
%ENDBLOCK SPECIES_POT

SNAP_TO_SYMMETRY
SYMMETRY_GENERATE

