#              Generated by Buildcell
#
# at 15:27:32 (GMT+1.0) 18th August 2020
# in /scratch/scratch/uccabz1/launch_tmp
# on node-k10b-015
# by uccabz1
#
# compiler GCC version 4.9.2
# options -cpp -iprefix /scratch/UCL/applications/gcc/4.9.2/bin/../lib/gcc/x86_64-unknown-linux-gnu/4.9.2/ -mtune=corei7 -march=x86-64 -g -O2
#
# seed  -476191016  -856275064  -225124374   622165528  -313579830  -192043944   726815738  -860237131   995474722 -1288599545   186664567 -1178772511
#
#      Author: C. J. Pickard (cjp20@cam.ac.uk)
#                Space group: P21/c
#

%BLOCK LATTICE_ABC
      4.16127      8.36874     11.48746
     90.00000     90.86343     90.00000
%ENDBLOCK LATTICE_ABC

%BLOCK POSITIONS_FRAC
  Li  -0.2429214  -0.3535716   0.3347032 SPIN=   0.00000
  Li   0.2429214   0.1464284   0.1652968 SPIN=   0.00000
  Li   0.2429214   0.3535716  -0.3347032 SPIN=   0.00000
  Li  -0.2429214  -0.1464284  -0.1652968 SPIN=   0.00000
  Fe   0.3108641  -0.4204624  -0.1361727 SPIN=   4.00000
  Fe  -0.3108641   0.0795376  -0.3638273 SPIN=   4.00000
  Fe  -0.3108641   0.4204624   0.1361727 SPIN=   4.00000
  Fe   0.3108641  -0.0795376   0.3638273 SPIN=   4.00000
   O  -0.6350989  -0.0923415   0.1855110 SPIN=   0.00000
   O  -0.7505028  -0.2842400   0.0263764 SPIN=   0.00000
   O  -0.2611313  -0.3162256   0.1492715 SPIN=   0.00000
   O  -0.3012190  -0.0923543   0.0090350 SPIN=   0.00000
   S  -0.4869880  -0.1962904   0.0925485 SPIN=   0.00000
   O   0.6350989   0.4076585   0.3144890 SPIN=   0.00000
   O   0.7505028   0.2157600   0.4736236 SPIN=   0.00000
   O   0.2611313   0.1837744   0.3507285 SPIN=   0.00000
   O   0.3012190   0.4076457   0.4909650 SPIN=   0.00000
   S   0.4869880   0.3037096   0.4074515 SPIN=   0.00000
   O   0.6350989   0.0923415  -0.1855110 SPIN=   0.00000
   O   0.7505028   0.2842400  -0.0263764 SPIN=   0.00000
   O   0.2611313   0.3162256  -0.1492715 SPIN=   0.00000
   O   0.3012190   0.0923543  -0.0090350 SPIN=   0.00000
   S   0.4869880   0.1962904  -0.0925485 SPIN=   0.00000
   O  -0.6350989  -0.4076585  -0.3144890 SPIN=   0.00000
   O  -0.7505028  -0.2157600  -0.4736236 SPIN=   0.00000
   O  -0.2611313  -0.1837744  -0.3507285 SPIN=   0.00000
   O  -0.3012190  -0.4076457  -0.4909650 SPIN=   0.00000
   S  -0.4869880  -0.3037096  -0.4074515 SPIN=   0.00000
   F   0.1330780   0.4249553   0.1356013 SPIN=   0.00000
   F  -0.1330780  -0.0750447   0.3643987 SPIN=   0.00000
   F  -0.1330780  -0.4249553  -0.1356013 SPIN=   0.00000
   F   0.1330780   0.0750447  -0.3643987 SPIN=   0.00000
%ENDBLOCK POSITIONS_FRAC

# Note: total spin =  16.00

KPOINTS_MP_SPACING 0.07

%BLOCK SPECIES_POT
QC5
%ENDBLOCK SPECIES_POT

SNAP_TO_SYMMETRY
SYMMETRY_GENERATE

