#              Generated by Buildcell
#
# at 04:55:45 (GMT+1.0) 18th August 2020
# in /scratch/scratch/uccabz1/launch_tmp
# on node-k10c-026
# by uccabz1
#
# compiler GCC version 4.9.2
# options -cpp -iprefix /scratch/UCL/applications/gcc/4.9.2/bin/../lib/gcc/x86_64-unknown-linux-gnu/4.9.2/ -mtune=corei7 -march=x86-64 -g -O2
#
# seed  -945688791 -1484887593   785254528 -1209707704   296828982   942702415 -1982200841  -634868053   -38663014  1512374766  -287534976  1033144175
#
#      Author: C. J. Pickard (cjp20@cam.ac.uk)
#                Space group: Pm
#

%BLOCK LATTICE_ABC
      3.88321      9.77442     10.73846
     90.00000     90.00000    101.07481
%ENDBLOCK LATTICE_ABC

%BLOCK POSITIONS_FRAC
  Li   0.4987452   0.3959987  -0.1753303 SPIN=   0.00000
  Li   0.4987452   0.3959987   0.1753303 SPIN=   0.00000
  Li  -0.3014525  -0.1652704   0.0000000 SPIN=   0.00000
  Li   0.3700114   0.4039408   0.5000000 SPIN=   0.00000
  Fe  -0.1339866   0.2100612   0.3332371 SPIN=   4.09672
  Fe  -0.1339866   0.2100612  -0.3332371 SPIN=   4.09672
  Fe  -0.9401504  -0.4585359   0.0000000 SPIN=   3.64144
  Fe   0.3073884   0.0791275   0.0000000 SPIN=   4.16513
   O  -0.4543331  -0.0244924  -0.1706953 SPIN=   0.00000
   O  -0.1832886  -0.2333736  -0.1848519 SPIN=   0.00000
   O  -0.0004643  -0.0361688  -0.3300531 SPIN=   0.00000
   O  -0.5896619  -0.1854226  -0.3496299 SPIN=   0.00000
   S  -0.3069370  -0.1198643  -0.2588076 SPIN=   0.00000
   O  -0.4543331  -0.0244924   0.1706953 SPIN=   0.00000
   O  -0.1832886  -0.2333736   0.1848519 SPIN=   0.00000
   O  -0.0004643  -0.0361688   0.3300531 SPIN=   0.00000
   O  -0.5896619  -0.1854226   0.3496299 SPIN=   0.00000
   S  -0.3069370  -0.1198643   0.2588076 SPIN=   0.00000
   O  -0.5878127  -0.4229645   0.3673313 SPIN=   0.00000
   O  -1.1739134  -0.5727306   0.3940109 SPIN=   0.00000
   O  -0.9849732  -0.4770822   0.1862779 SPIN=   0.00000
   S  -0.9671177  -0.4483224   0.3250451 SPIN=   0.00000
   O  -0.5878127  -0.4229645  -0.3673313 SPIN=   0.00000
   O  -1.1739134  -0.5727306  -0.3940109 SPIN=   0.00000
   O  -0.9849732  -0.4770822  -0.1862779 SPIN=   0.00000
   S  -0.9671177  -0.4483224  -0.3250451 SPIN=   0.00000
   O   0.1699010  -0.2249785  -0.0000000 SPIN=   0.00000
   O   0.4257684   0.3186129   0.0000000 SPIN=   0.00000
   F   0.3701523   0.2187585  -0.2851907 SPIN=   0.00000
   F   0.3701523   0.2187585   0.2851907 SPIN=   0.00000
   F  -0.1628863   0.1447201   0.0000000 SPIN=   0.00000
   F  -0.4119250  -0.3972697   0.0000000 SPIN=   0.00000
%ENDBLOCK POSITIONS_FRAC

# Note: total spin =  16.00

KPOINTS_MP_SPACING 0.07

%BLOCK SPECIES_POT
QC5
%ENDBLOCK SPECIES_POT

SNAP_TO_SYMMETRY
SYMMETRY_GENERATE

