#              Generated by Buildcell
#
# at 04:29:13 (GMT+1.0) 18th August 2020
# in /lustre/scratch/uccabz1/launch_tmp
# on node-c12m-003
# by uccabz1
#
# compiler GCC version 4.9.2
# options -cpp -iprefix /lustre/shared/ucl/apps/gcc/4.9.2/bin/../lib/gcc/x86_64-unknown-linux-gnu/4.9.2/ -mtune=corei7 -march=x86-64 -g -Og
#
# seed  1067089414   194761390  -611125290   520891629  1924557812  1066151934  1850808910 -1128513036  -749394464 -1616849385  1794725814  -396201212
#
#      Author: C. J. Pickard (cjp20@cam.ac.uk)
#                Space group: P2
#

%BLOCK LATTICE_ABC
      4.76310      6.23589     13.58507
     90.00000     97.55854     90.00000
%ENDBLOCK LATTICE_ABC

%BLOCK POSITIONS_FRAC
  Li  -0.2113238   0.2407614   0.1083195 SPIN=   0.00000
  Li   0.2113238   0.2407614  -0.1083195 SPIN=   0.00000
  Li  -0.4243184   0.4860391  -0.3099494 SPIN=   0.00000
  Li   0.4243184   0.4860391   0.3099494 SPIN=   0.00000
  Fe  -0.3761844  -0.0138956  -0.2293031 SPIN=   4.94472
  Fe   0.3761844  -0.0138956   0.2293031 SPIN=   4.94472
  Fe   0.5000000   0.1544380   0.5000000 SPIN=   0.01858
  Fe   0.0000000  -0.3211677   0.5000000 SPIN=   6.09197
   O  -0.0295964  -0.4522364  -0.0858878 SPIN=   0.00000
   O   0.0007805  -0.1714984  -0.2128233 SPIN=   0.00000
   O   0.4078135  -0.4130989  -0.1644696 SPIN=   0.00000
   O   0.2814944  -0.1373919  -0.0468288 SPIN=   0.00000
   S   0.1651230  -0.2935564  -0.1275024 SPIN=   0.00000
   O   0.0295964  -0.4522364   0.0858878 SPIN=   0.00000
   O  -0.0007805  -0.1714984   0.2128233 SPIN=   0.00000
   O  -0.4078135  -0.4130989   0.1644696 SPIN=   0.00000
   O  -0.2814944  -0.1373919   0.0468288 SPIN=   0.00000
   S  -0.1651230  -0.2935564   0.1275024 SPIN=   0.00000
   O  -0.2067583   0.3119687   0.4336334 SPIN=   0.00000
   O  -0.2458624   0.1328863   0.2698238 SPIN=   0.00000
   O   0.2174397   0.1505399   0.3759984 SPIN=   0.00000
   S  -0.0573294   0.2687470   0.3438062 SPIN=   0.00000
   O   0.2067583   0.3119687  -0.4336334 SPIN=   0.00000
   O   0.2458624   0.1328863  -0.2698238 SPIN=   0.00000
   O  -0.2174397   0.1505399  -0.3759984 SPIN=   0.00000
   S   0.0573294   0.2687470  -0.3438062 SPIN=   0.00000
   O   0.5000000   0.4800556   0.0000000 SPIN=   0.00000
   O   0.0000000   0.0016941  -0.5000000 SPIN=   0.00000
   F  -0.3959352  -0.2371079  -0.3583299 SPIN=   0.00000
   F   0.3959352  -0.2371079   0.3583299 SPIN=   0.00000
   F   0.3081513   0.1900179   0.1162711 SPIN=   0.00000
   F  -0.3081513   0.1900179  -0.1162711 SPIN=   0.00000
%ENDBLOCK POSITIONS_FRAC

# Note: total spin =  16.00

KPOINTS_MP_SPACING 0.07

%BLOCK SPECIES_POT
QC5
%ENDBLOCK SPECIES_POT

SNAP_TO_SYMMETRY
SYMMETRY_GENERATE

