#              Generated by Buildcell
#
# at 02:14:28 (GMT+1.0) 18th August 2020
# in /lustre/scratch/uccabz1/launch_tmp
# on node-c12l-006
# by uccabz1
#
# compiler GCC version 4.9.2
# options -cpp -iprefix /lustre/shared/ucl/apps/gcc/4.9.2/bin/../lib/gcc/x86_64-unknown-linux-gnu/4.9.2/ -mtune=corei7 -march=x86-64 -g -Og
#
# seed -1656807804 -1220707703 -1760755811  -712627544 -2067353457  1850999957    23519637 -1687970041 -1037350216   808944032  2004305507 -1978726137
#
#      Author: C. J. Pickard (cjp20@cam.ac.uk)
#                Space group: P42
#

%BLOCK LATTICE_ABC
      3.87870     10.15516     10.15516
     90.00000     90.00000     90.00000
%ENDBLOCK LATTICE_ABC

%BLOCK POSITIONS_FRAC
  Li   0.4506635   0.2089119  -0.2827159 SPIN=   0.00000
  Li   0.4506635  -0.2089119   0.2827159 SPIN=   0.00000
  Li  -0.0493365   0.2827159   0.2089119 SPIN=   0.00000
  Li  -0.0493365  -0.2827159  -0.2089119 SPIN=   0.00000
  Fe   0.3983610   0.4965080  -0.2856561 SPIN=   4.00000
  Fe   0.3983610  -0.4965080   0.2856561 SPIN=   4.00000
  Fe  -0.1016390   0.2856561   0.4965080 SPIN=   4.00000
  Fe  -0.1016390  -0.2856561  -0.4965080 SPIN=   4.00000
   O   0.3858756   0.2613717  -0.0663916 SPIN=   0.00000
   O  -0.1399845   0.1270288  -0.0347012 SPIN=   0.00000
   O  -0.1258474   0.2993803  -0.2069174 SPIN=   0.00000
   O  -0.1390032   0.3624122   0.0284426 SPIN=   0.00000
   S  -0.0047399   0.2625482  -0.0698919 SPIN=   0.00000
   O   0.3858756  -0.2613717   0.0663916 SPIN=   0.00000
   O  -0.1399845  -0.1270288   0.0347012 SPIN=   0.00000
   O  -0.1258474  -0.2993803   0.2069174 SPIN=   0.00000
   O  -0.1390032  -0.3624122  -0.0284426 SPIN=   0.00000
   S  -0.0047399  -0.2625482   0.0698919 SPIN=   0.00000
   O   0.8858756   0.0663916   0.2613717 SPIN=   0.00000
   O   0.3600155   0.0347012   0.1270288 SPIN=   0.00000
   O   0.3741526   0.2069174   0.2993803 SPIN=   0.00000
   O   0.3609968  -0.0284426   0.3624122 SPIN=   0.00000
   S   0.4952601   0.0698919   0.2625482 SPIN=   0.00000
   O   0.8858756  -0.0663916  -0.2613717 SPIN=   0.00000
   O   0.3600155  -0.0347012  -0.1270288 SPIN=   0.00000
   O   0.3741526  -0.2069174  -0.2993803 SPIN=   0.00000
   O   0.3609968   0.0284426  -0.3624122 SPIN=   0.00000
   S   0.4952601  -0.0698919  -0.2625482 SPIN=   0.00000
   F  -0.1018771  -0.4464162  -0.2756272 SPIN=   0.00000
   F  -0.1018771   0.4464162   0.2756272 SPIN=   0.00000
   F   0.3981229   0.2756272  -0.4464162 SPIN=   0.00000
   F   0.3981229  -0.2756272   0.4464162 SPIN=   0.00000
%ENDBLOCK POSITIONS_FRAC

# Note: total spin =  16.00

KPOINTS_MP_SPACING 0.07

%BLOCK SPECIES_POT
QC5
%ENDBLOCK SPECIES_POT

SNAP_TO_SYMMETRY
SYMMETRY_GENERATE

