#              Generated by Buildcell
#
# at 17:18:58 (GMT+1.0) 18th August 2020
# in /lustre/scratch/uccabz1/launch_tmp
# on node-c12c-003
# by uccabz1
#
# compiler GCC version 4.9.2
# options -cpp -iprefix /lustre/shared/ucl/apps/gcc/4.9.2/bin/../lib/gcc/x86_64-unknown-linux-gnu/4.9.2/ -mtune=corei7 -march=x86-64 -g -Og
#
# seed  1327637746   815471354  -982932402 -1416472816 -1405808190  -340766626 -1203487800   309484621  1319640663    72214318 -1541132451   663785977
#
#      Author: C. J. Pickard (cjp20@cam.ac.uk)
#                Space group: P21
#

%BLOCK LATTICE_ABC
      7.59525      7.71829      7.83305
    119.41384     90.00000     90.00000
%ENDBLOCK LATTICE_ABC

%BLOCK POSITIONS_FRAC
  Li  -0.4556175  -0.3128862  -0.4871475 SPIN=   0.00000
  Li   0.0443825   0.3128862   0.4871475 SPIN=   0.00000
  Li  -0.4922501  -0.1467171   0.1231925 SPIN=   0.00000
  Li   0.0077499   0.1467171  -0.1231925 SPIN=   0.00000
  Fe   0.3242404   0.3366607   0.2214782 SPIN=   4.21374
  Fe  -0.1757596  -0.3366607  -0.2214782 SPIN=   4.21374
  Fe  -0.1397602   0.5504462   0.1738350 SPIN=   3.78626
  Fe   0.3602398  -0.5504462  -0.1738350 SPIN=   3.78626
   O   0.2781549  -0.1027822   0.3436282 SPIN=   0.00000
   O   0.1947458  -0.3076117  -0.0052429 SPIN=   0.00000
   O   0.1585815   0.0580391   0.1619749 SPIN=   0.00000
   O  -0.0359919  -0.1451634   0.2475173 SPIN=   0.00000
   S   0.1488726  -0.1243796   0.1869694 SPIN=   0.00000
   O  -0.2218451   0.1027822  -0.3436282 SPIN=   0.00000
   O  -0.3052542   0.3076117   0.0052429 SPIN=   0.00000
   O  -0.3414185  -0.0580391  -0.1619749 SPIN=   0.00000
   O  -0.5359919   0.1451634  -0.2475173 SPIN=   0.00000
   S  -0.3511274   0.1243796  -0.1869694 SPIN=   0.00000
   O   0.0633996  -0.1915004  -0.2012614 SPIN=   0.00000
   O   0.3875192  -0.1890186  -0.2324598 SPIN=   0.00000
   O   0.2009746  -0.0022414  -0.3455606 SPIN=   0.00000
   O   0.2026470  -0.3702902  -0.5287072 SPIN=   0.00000
   S   0.2136351  -0.1882626  -0.3269972 SPIN=   0.00000
   O  -0.4366004   0.1915004   0.2012614 SPIN=   0.00000
   O  -0.1124808   0.1890186   0.2324598 SPIN=   0.00000
   O  -0.2990254   0.0022414   0.3455606 SPIN=   0.00000
   O  -0.2973530   0.3702902   0.5287072 SPIN=   0.00000
   S  -0.2863649   0.1882626   0.3269972 SPIN=   0.00000
   F   0.3070859  -0.6740059  -0.4412996 SPIN=   0.00000
   F  -0.1929141   0.6740059   0.4412996 SPIN=   0.00000
   F  -0.3245217  -0.3754468  -0.0528512 SPIN=   0.00000
   F   0.1754783   0.3754468   0.0528512 SPIN=   0.00000
%ENDBLOCK POSITIONS_FRAC

# Note: total spin =  16.00

KPOINTS_MP_SPACING 0.07

%BLOCK SPECIES_POT
QC5
%ENDBLOCK SPECIES_POT

SNAP_TO_SYMMETRY
SYMMETRY_GENERATE

