#              Generated by Buildcell
#
# at 16:28:12 (GMT+1.0) 18th August 2020
# in /lustre/scratch/uccabz1/launch_tmp
# on node-c12o-001
# by uccabz1
#
# compiler GCC version 4.9.2
# options -cpp -iprefix /lustre/shared/ucl/apps/gcc/4.9.2/bin/../lib/gcc/x86_64-unknown-linux-gnu/4.9.2/ -mtune=corei7 -march=x86-64 -g -Og
#
# seed  2007413416  1594637534 -1128832050  -211368700   908653830  -680051681  -220644877  2094616931   652146668   445655694  -450182959  -545363158
#
#      Author: C. J. Pickard (cjp20@cam.ac.uk)
#                Space group: Fdd2
#

%BLOCK LATTICE_ABC
      7.30278      7.30278      8.98180
    106.23532    106.23532    108.19628
%ENDBLOCK LATTICE_ABC

%BLOCK POSITIONS_FRAC
  Li   0.2232931   0.2829069  -0.3356197 SPIN=   0.00000
  Li  -0.2829069  -0.2232931   0.3356197 SPIN=   0.00000
  Li  -0.3685266   0.1910872   0.1643803 SPIN=   0.00000
  Li  -0.1910872   0.3685266  -0.1643803 SPIN=   0.00000
  Fe   0.4272547   0.0353159   0.4944411 SPIN=   4.00000
  Fe  -0.0353159  -0.4272547  -0.4944411 SPIN=   4.00000
  Fe  -0.2908748  -0.1828136  -0.0055589 SPIN=   4.00000
  Fe   0.1828136   0.2908748   0.0055589 SPIN=   4.00000
   O  -0.1466890  -0.1046470  -0.1653079 SPIN=   0.00000
   O  -0.0281657  -0.0597965  -0.3906231 SPIN=   0.00000
   O  -0.2853251   0.0739049  -0.3351335 SPIN=   0.00000
   O  -0.3922218  -0.3098366  -0.4666014 SPIN=   0.00000
   S  -0.2131004  -0.1000938  -0.3394165 SPIN=   0.00000
   O   0.1046470   0.1466890   0.1653079 SPIN=   0.00000
   O   0.0597965   0.0281657   0.3906231 SPIN=   0.00000
   O  -0.0739049   0.2853251   0.3351335 SPIN=   0.00000
   O   0.3098366   0.3922218   0.4666014 SPIN=   0.00000
   S   0.1000938   0.2131004   0.3394165 SPIN=   0.00000
   O   0.1893391  -0.2686190   0.3346921 SPIN=   0.00000
   O  -0.0808266  -0.6124574   0.1093769 SPIN=   0.00000
   O  -0.1590384  -0.2998083   0.1648665 SPIN=   0.00000
   O   0.0932352  -0.3243796   0.0333986 SPIN=   0.00000
   S   0.0106773  -0.3763161   0.1605835 SPIN=   0.00000
   O   0.2686190  -0.1893391  -0.3346921 SPIN=   0.00000
   O   0.6124574   0.0808266  -0.1093769 SPIN=   0.00000
   O   0.2998083   0.1590384  -0.1648665 SPIN=   0.00000
   O   0.3243796  -0.0932352  -0.0333986 SPIN=   0.00000
   S   0.3763161  -0.0106773  -0.1605835 SPIN=   0.00000
   F  -0.4983615   0.4250481   0.1910162 SPIN=   0.00000
   F  -0.4250481   0.4983615  -0.1910162 SPIN=   0.00000
   F   0.0159681   0.4393776  -0.3089838 SPIN=   0.00000
   F  -0.4393776  -0.0159681   0.3089838 SPIN=   0.00000
%ENDBLOCK POSITIONS_FRAC

# Note: total spin =  16.00

KPOINTS_MP_SPACING 0.07

%BLOCK SPECIES_POT
QC5
%ENDBLOCK SPECIES_POT

SNAP_TO_SYMMETRY
SYMMETRY_GENERATE

