#              Generated by Buildcell
#
# at 00:58:41 (GMT+1.0) 18th August 2020
# in /scratch/scratch/uccabz1/launch_tmp
# on node-k10b-015
# by uccabz1
#
# compiler GCC version 4.9.2
# options -cpp -iprefix /scratch/UCL/applications/gcc/4.9.2/bin/../lib/gcc/x86_64-unknown-linux-gnu/4.9.2/ -mtune=corei7 -march=x86-64 -g -O2
#
# seed  -991172169 -1539576640  -412475915 -1629778366    35767269 -1431832887 -1040611489   716746346  -783462516  1025496176  -947150319  1413973443
#
#      Author: C. J. Pickard (cjp20@cam.ac.uk)
#                Space group: Pc
#

%BLOCK LATTICE_ABC
      6.17541      6.74349      9.65560
     90.00000     90.00000     95.85294
%ENDBLOCK LATTICE_ABC

%BLOCK POSITIONS_FRAC
  Li  -0.4480214   0.2803841  -0.3404869 SPIN=   0.00000
  Li  -0.4480214  -0.2196159   0.3404869 SPIN=   0.00000
  Li   0.0297257  -0.4195232   0.2017729 SPIN=   0.00000
  Li   0.0297257   0.0804768  -0.2017729 SPIN=   0.00000
  Fe  -0.1257029   0.1906345   0.0757411 SPIN=   4.24077
  Fe  -0.1257029  -0.3093655  -0.0757411 SPIN=   4.24077
  Fe   0.1998307  -0.4535695  -0.3709669 SPIN=   3.75923
  Fe   0.1998307   0.0464305   0.3709669 SPIN=   3.75923
   O  -0.4710690  -0.1670630  -0.4452231 SPIN=   0.00000
   O  -0.2111648  -0.4070780  -0.5106786 SPIN=   0.00000
   O  -0.3776266  -0.4221761  -0.2772679 SPIN=   0.00000
   O  -0.1043275  -0.1420873  -0.3393412 SPIN=   0.00000
   S  -0.2910470  -0.2846011  -0.3931277 SPIN=   0.00000
   O  -0.4710690   0.3329370   0.4452231 SPIN=   0.00000
   O  -0.2111648   0.0929220   0.5106786 SPIN=   0.00000
   O  -0.3776266   0.0778239   0.2772679 SPIN=   0.00000
   O  -0.1043275   0.3579127   0.3393412 SPIN=   0.00000
   S  -0.2910470   0.2153989   0.3931277 SPIN=   0.00000
   O   0.4802878  -0.4697499  -0.0509064 SPIN=   0.00000
   O   0.6559945  -0.5175754   0.1753405 SPIN=   0.00000
   O   0.2666892  -0.6348152   0.1413352 SPIN=   0.00000
   O   0.3849473  -0.2733149   0.1526905 SPIN=   0.00000
   S   0.4469797  -0.4738638   0.1046150 SPIN=   0.00000
   O   0.4802878   0.0302501   0.0509064 SPIN=   0.00000
   O   0.6559945  -0.0175754  -0.1753405 SPIN=   0.00000
   O   0.2666892  -0.1348152  -0.1413352 SPIN=   0.00000
   O   0.3849473   0.2266851  -0.1526905 SPIN=   0.00000
   S   0.4469797   0.0261362  -0.1046150 SPIN=   0.00000
   F   0.1919961   0.1569219  -0.4171330 SPIN=   0.00000
   F   0.1919961  -0.3430781   0.4171330 SPIN=   0.00000
   F  -0.0605088  -0.1370438   0.1041518 SPIN=   0.00000
   F  -0.0605088   0.3629562  -0.1041518 SPIN=   0.00000
%ENDBLOCK POSITIONS_FRAC

# Note: total spin =  16.00

KPOINTS_MP_SPACING 0.07

%BLOCK SPECIES_POT
QC5
%ENDBLOCK SPECIES_POT

SNAP_TO_SYMMETRY
SYMMETRY_GENERATE

