#              Generated by Buildcell
#
# at 17:34:39 (GMT+1.0) 18th August 2020
# in /lustre/scratch/uccabz1/launch_tmp
# on node-c12f-003
# by uccabz1
#
# compiler GCC version 4.9.2
# options -cpp -iprefix /lustre/shared/ucl/apps/gcc/4.9.2/bin/../lib/gcc/x86_64-unknown-linux-gnu/4.9.2/ -mtune=corei7 -march=x86-64 -g -Og
#
# seed -1029744165    28921694 -1489962204  1739805798  -780937571   788362312  -297292431  1164547764   268800749   413202266   947236041   389737233
#
#      Author: C. J. Pickard (cjp20@cam.ac.uk)
#                Space group: P-1
#

%BLOCK LATTICE_ABC
      5.54354      6.14320     11.84326
     91.52529     91.51983     96.99421
%ENDBLOCK LATTICE_ABC

%BLOCK POSITIONS_FRAC
  Li   0.2434404  -0.0845140  -0.3064745 SPIN=   0.00000
  Li  -0.2434404   0.0845140   0.3064745 SPIN=   0.00000
  Li   0.2588225  -0.3935586   0.3957484 SPIN=   0.00000
  Li  -0.2588225   0.3935586  -0.3957484 SPIN=   0.00000
  Fe  -0.2515929  -0.4408923   0.3221689 SPIN=   4.56064
  Fe   0.2515929   0.4408923  -0.3221689 SPIN=   4.56064
  Fe  -0.2469023  -0.0803892  -0.4026320 SPIN=   3.43936
  Fe   0.2469023   0.0803892   0.4026320 SPIN=   3.43936
   O   0.1916564  -0.4388939  -0.1533627 SPIN=   0.00000
   O  -0.0832679  -0.1822226  -0.2254123 SPIN=   0.00000
   O   0.1285611  -0.1082969  -0.0392631 SPIN=   0.00000
   O  -0.2033120  -0.4153103  -0.0640802 SPIN=   0.00000
   S   0.0084094  -0.2861809  -0.1205296 SPIN=   0.00000
   O  -0.1916564   0.4388939   0.1533627 SPIN=   0.00000
   O   0.0832679   0.1822226   0.2254123 SPIN=   0.00000
   O  -0.1285611   0.1082969   0.0392631 SPIN=   0.00000
   O   0.2033120   0.4153103   0.0640802 SPIN=   0.00000
   S  -0.0084094   0.2861809   0.1205296 SPIN=   0.00000
   O  -0.1640925   0.2451807  -0.1353689 SPIN=   0.00000
   O  -0.5783119   0.3126995  -0.0828899 SPIN=   0.00000
   O  -0.4806025  -0.0678264  -0.1077747 SPIN=   0.00000
   O  -0.5075272   0.1648123  -0.2739691 SPIN=   0.00000
   S  -0.4326335   0.1637165  -0.1500007 SPIN=   0.00000
   O   0.1640925  -0.2451807   0.1353689 SPIN=   0.00000
   O   0.5783119  -0.3126995   0.0828899 SPIN=   0.00000
   O   0.4806025   0.0678264   0.1077747 SPIN=   0.00000
   O   0.5075272  -0.1648123   0.2739691 SPIN=   0.00000
   S   0.4326335  -0.1637165   0.1500007 SPIN=   0.00000
   F  -0.4428797  -0.3657241  -0.3623229 SPIN=   0.00000
   F   0.4428797   0.3657241   0.3623229 SPIN=   0.00000
   F  -0.0036935   0.2053190  -0.3881909 SPIN=   0.00000
   F   0.0036935  -0.2053190   0.3881909 SPIN=   0.00000
%ENDBLOCK POSITIONS_FRAC

# Note: total spin =  16.00

KPOINTS_MP_SPACING 0.07

%BLOCK SPECIES_POT
QC5
%ENDBLOCK SPECIES_POT

SNAP_TO_SYMMETRY
SYMMETRY_GENERATE

