#              Generated by Buildcell
#
# at 16:00:16 (GMT+1.0) 18th August 2020
# in /scratch/scratch/uccabz1/launch_tmp
# on node-k10e-031
# by uccabz1
#
# compiler GCC version 4.9.2
# options -cpp -iprefix /scratch/UCL/applications/gcc/4.9.2/bin/../lib/gcc/x86_64-unknown-linux-gnu/4.9.2/ -mtune=corei7 -march=x86-64 -g -O2
#
# seed  -640760456  1447504721  -234472380 -1886233653  1473707988  2111943881 -1109994894   426853677 -1731895523   668729756  -265271388  2054092681
#
#      Author: C. J. Pickard (cjp20@cam.ac.uk)
#                Space group: Pca21
#

%BLOCK LATTICE_ABC
      4.08215      8.19175     11.96174
     90.00000     90.00000     90.00000
%ENDBLOCK LATTICE_ABC

%BLOCK POSITIONS_FRAC
  Li  -0.0688635   0.0888268   0.2793902 SPIN=   0.00000
  Li   0.0688635  -0.0888268  -0.2206098 SPIN=   0.00000
  Li   0.0688635  -0.4111732   0.2793902 SPIN=   0.00000
  Li  -0.0688635   0.4111732  -0.2206098 SPIN=   0.00000
  Fe   0.4386219   0.3125421   0.1659165 SPIN=   4.00000
  Fe  -0.4386219  -0.3125421  -0.3340835 SPIN=   4.00000
  Fe  -0.4386219  -0.1874579   0.1659165 SPIN=   4.00000
  Fe   0.4386219   0.1874579  -0.3340835 SPIN=   4.00000
   O  -0.1045671   0.3790695   0.5789782 SPIN=   0.00000
   O   0.1552743   0.1471304   0.4804175 SPIN=   0.00000
   O   0.1552746   0.4218727   0.3943578 SPIN=   0.00000
   O  -0.3614837   0.2652451   0.4085560 SPIN=   0.00000
   S  -0.0388755   0.3033294   0.4655774 SPIN=   0.00000
   O   0.1045671  -0.3790695   0.0789782 SPIN=   0.00000
   O  -0.1552743  -0.1471304  -0.0195825 SPIN=   0.00000
   O  -0.1552746  -0.4218727  -0.1056422 SPIN=   0.00000
   O   0.3614837  -0.2652451  -0.0914440 SPIN=   0.00000
   S   0.0388755  -0.3033294  -0.0344226 SPIN=   0.00000
   O   0.1045671  -0.1209305   0.5789782 SPIN=   0.00000
   O  -0.1552743  -0.3528696   0.4804175 SPIN=   0.00000
   O  -0.1552746  -0.0781273   0.3943578 SPIN=   0.00000
   O   0.3614837  -0.2347549   0.4085560 SPIN=   0.00000
   S   0.0388755  -0.1966706   0.4655774 SPIN=   0.00000
   O  -0.1045671   0.1209305   0.0789782 SPIN=   0.00000
   O   0.1552743   0.3528696  -0.0195825 SPIN=   0.00000
   O   0.1552746   0.0781273  -0.1056422 SPIN=   0.00000
   O  -0.3614837   0.2347549  -0.0914440 SPIN=   0.00000
   S  -0.0388755   0.1966706  -0.0344226 SPIN=   0.00000
   F  -0.4167329  -0.0596977  -0.2606415 SPIN=   0.00000
   F   0.4167329   0.0596977   0.2393585 SPIN=   0.00000
   F   0.4167329   0.4403023  -0.2606415 SPIN=   0.00000
   F  -0.4167329  -0.4403023   0.2393585 SPIN=   0.00000
%ENDBLOCK POSITIONS_FRAC

# Note: total spin =  16.00

KPOINTS_MP_SPACING 0.07

%BLOCK SPECIES_POT
QC5
%ENDBLOCK SPECIES_POT

SNAP_TO_SYMMETRY
SYMMETRY_GENERATE

