#              Generated by Buildcell
#
# at 15:45:36 (GMT+1.0) 18th August 2020
# in /scratch/scratch/uccabz1/launch_tmp
# on node-k10a-012
# by uccabz1
#
# compiler GCC version 4.9.2
# options -cpp -iprefix /scratch/UCL/applications/gcc/4.9.2/bin/../lib/gcc/x86_64-unknown-linux-gnu/4.9.2/ -mtune=corei7 -march=x86-64 -g -O2
#
# seed   584855962 -1801607180   207398374 -1045286430  1937790611   976401054    34545901  -316053684    12302851  1885177401  -890002581  -183436197
#
#      Author: C. J. Pickard (cjp20@cam.ac.uk)
#                Space group: Pmn21
#

%BLOCK LATTICE_ABC
      5.64241      7.78002      9.11202
     90.00000     90.00000     90.00000
%ENDBLOCK LATTICE_ABC

%BLOCK POSITIONS_FRAC
  Li   0.2948678  -0.2465273  -0.2614412 SPIN=   0.00000
  Li  -0.2948678   0.2534727  -0.2385588 SPIN=   0.00000
  Li  -0.2948678   0.2534727   0.2385588 SPIN=   0.00000
  Li   0.2948678  -0.2465273   0.2614412 SPIN=   0.00000
  Fe   0.4223177   0.0170914   0.0000000 SPIN=   5.54553
  Fe  -0.4223177  -0.4829086   0.5000000 SPIN=   5.54553
  Fe  -0.4023246  -0.4795399  -0.0000000 SPIN=   2.45447
  Fe   0.4023246   0.0204601  -0.5000000 SPIN=   2.45447
   O   0.0014851   0.4548909  -0.3738514 SPIN=   0.00000
   O   0.2655362   0.2056744  -0.3319355 SPIN=   0.00000
   O   0.0336684   0.3269972  -0.1259642 SPIN=   0.00000
   O   0.3702590   0.4905738  -0.2299924 SPIN=   0.00000
   S   0.1677372   0.3695341  -0.2654359 SPIN=   0.00000
   O  -0.0014851  -0.0451091  -0.1261486 SPIN=   0.00000
   O  -0.2655362  -0.2943256  -0.1680645 SPIN=   0.00000
   O  -0.0336684  -0.1730028  -0.3740358 SPIN=   0.00000
   O  -0.3702590  -0.0094262  -0.2700076 SPIN=   0.00000
   S  -0.1677372  -0.1304659  -0.2345641 SPIN=   0.00000
   O  -0.0014851  -0.0451091   0.1261486 SPIN=   0.00000
   O  -0.2655362  -0.2943256   0.1680645 SPIN=   0.00000
   O  -0.0336684  -0.1730028   0.3740358 SPIN=   0.00000
   O  -0.3702590  -0.0094262   0.2700076 SPIN=   0.00000
   S  -0.1677372  -0.1304659   0.2345641 SPIN=   0.00000
   O   0.0014851   0.4548909   0.3738514 SPIN=   0.00000
   O   0.2655362   0.2056744   0.3319355 SPIN=   0.00000
   O   0.0336684   0.3269972   0.1259642 SPIN=   0.00000
   O   0.3702590   0.4905738   0.2299924 SPIN=   0.00000
   S   0.1677372   0.3695341   0.2654359 SPIN=   0.00000
   F   0.3219662  -0.2745887  -0.0000000 SPIN=   0.00000
   F  -0.3219662   0.2254113  -0.5000000 SPIN=   0.00000
   F  -0.3938304   0.2216709   0.0000000 SPIN=   0.00000
   F   0.3938304  -0.2783291  -0.5000000 SPIN=   0.00000
%ENDBLOCK POSITIONS_FRAC

# Note: total spin =  16.00

KPOINTS_MP_SPACING 0.07

%BLOCK SPECIES_POT
QC5
%ENDBLOCK SPECIES_POT

SNAP_TO_SYMMETRY
SYMMETRY_GENERATE

