#              Generated by Buildcell
#
# at 08:24:40 (GMT+1.0) 4th August 2020
# in /lustre/scratch/uccabz1/launch_tmp
# on node-c12c-021
# by uccabz1
#
# compiler GCC version 4.9.2
# options -cpp -iprefix /lustre/shared/ucl/apps/gcc/4.9.2/bin/../lib/gcc/x86_64-unknown-linux-gnu/4.9.2/ -mtune=corei7 -march=x86-64 -g -Og
#
# seed  2140577981    10026432 -2136241022 -2033476989 -1738471249  -853399370  1913525646 -1183975864   113780921  -775749966   507266803  1592391936
#
#      Author: C. J. Pickard (cjp20@cam.ac.uk)
#                Space group: Cc
#

%BLOCK LATTICE_ABC
      6.90598      7.39641      8.80401
    103.56467    113.09188     90.00000
%ENDBLOCK LATTICE_ABC

%BLOCK POSITIONS_FRAC
  Li   0.0526193   0.1487968  -0.2754811 SPIN=   0.00000
  Li  -0.3281004  -0.3512032  -0.2754811 SPIN=   0.00000
  Li   0.1523234  -0.3518404   0.1298689 SPIN=   0.00000
  Li  -0.0224545   0.1481596   0.1298689 SPIN=   0.00000
  Fe  -0.3802318  -0.0597818  -0.4711052 SPIN=   5.20526
  Fe  -0.0908735   0.4402182  -0.4711052 SPIN=   5.20526
  Fe   0.4498855   0.2287881   0.1226645 SPIN=   2.79474
  Fe  -0.3272210  -0.2712119   0.1226645 SPIN=   2.79474
   O   0.1253007  -0.0921484   0.2633786 SPIN=   0.00000
   O  -0.0035789   0.2014105   0.3727248 SPIN=   0.00000
   O   0.3103930   0.0849089   0.5655640 SPIN=   0.00000
   O  -0.0452854  -0.0821225   0.4650560 SPIN=   0.00000
   S   0.0967074   0.0280121   0.4166808 SPIN=   0.00000
   O   0.1380779  -0.5921484   0.2633786 SPIN=   0.00000
   O   0.3763037  -0.2985895   0.3727248 SPIN=   0.00000
   O   0.2551710  -0.4150911   0.5655640 SPIN=   0.00000
   O   0.5103414  -0.5821225   0.4650560 SPIN=   0.00000
   S   0.3199735  -0.4719879   0.4166808 SPIN=   0.00000
   O  -0.4043088   0.1732686  -0.0873988 SPIN=   0.00000
   O  -0.3448147   0.2422632  -0.3284498 SPIN=   0.00000
   O  -0.2458232   0.4866032  -0.0574113 SPIN=   0.00000
   O  -0.6234926   0.3875742  -0.2455752 SPIN=   0.00000
   S  -0.4046098   0.3224273  -0.1797088 SPIN=   0.00000
   O   0.3169100  -0.3267314  -0.0873988 SPIN=   0.00000
   O   0.0163650  -0.2577368  -0.3284498 SPIN=   0.00000
   O   0.1884119  -0.0133968  -0.0574113 SPIN=   0.00000
   O   0.3779173  -0.1124258  -0.2455752 SPIN=   0.00000
   S   0.2249011  -0.1775727  -0.1797088 SPIN=   0.00000
   F  -0.2266654  -0.4435637   0.2729330 SPIN=   0.00000
   F   0.4995985   0.0564363   0.2729330 SPIN=   0.00000
   F   0.1307293   0.3566328  -0.0610377 SPIN=   0.00000
   F  -0.1917670  -0.1433672  -0.0610377 SPIN=   0.00000
%ENDBLOCK POSITIONS_FRAC

# Note: total spin =  16.00

KPOINTS_MP_SPACING 0.07

%BLOCK SPECIES_POT
QC5
%ENDBLOCK SPECIES_POT

SNAP_TO_SYMMETRY
SYMMETRY_GENERATE

