#              Generated by Buildcell
#
# at 01:29:03 (GMT+1.0) 18th August 2020
# in /lustre/scratch/uccabz1/launch_tmp
# on node-c12o-035
# by uccabz1
#
# compiler GCC version 4.9.2
# options -cpp -iprefix /lustre/shared/ucl/apps/gcc/4.9.2/bin/../lib/gcc/x86_64-unknown-linux-gnu/4.9.2/ -mtune=corei7 -march=x86-64 -g -Og
#
# seed   971597232   161468321  1033515526  1916747451  1661550444 -1589111677 -1106287559  1764616216  1982086216   -86092055  -719992305   308247841
#
#      Author: C. J. Pickard (cjp20@cam.ac.uk)
#                Space group: Ccc2
#

%BLOCK LATTICE_ABC
      6.40431      7.90540      7.90540
     91.98472     90.00000     90.00000
%ENDBLOCK LATTICE_ABC

%BLOCK POSITIONS_FRAC
  Li  -0.2404113  -0.2480238  -0.4619233 SPIN=   0.00000
  Li  -0.2404113   0.2480238   0.4619233 SPIN=   0.00000
  Li   0.2595887  -0.4619233  -0.2480238 SPIN=   0.00000
  Li   0.2595887   0.4619233   0.2480238 SPIN=   0.00000
  Fe   0.4894148  -0.0570233   0.2302320 SPIN=   4.00000
  Fe   0.4894148   0.0570233  -0.2302320 SPIN=   4.00000
  Fe  -0.0105852   0.2302320  -0.0570233 SPIN=   4.00000
  Fe  -0.0105852  -0.2302320   0.0570233 SPIN=   4.00000
   O   0.0486644  -0.1528181   0.3723023 SPIN=   0.00000
   O   0.3566399  -0.3397088   0.3953665 SPIN=   0.00000
   O   0.0513339  -0.3780157   0.5821021 SPIN=   0.00000
   O   0.2785886  -0.1267757   0.6234738 SPIN=   0.00000
   S   0.1838067  -0.2493296   0.4933112 SPIN=   0.00000
   O   0.0486644   0.1528181  -0.3723023 SPIN=   0.00000
   O   0.3566399   0.3397088  -0.3953665 SPIN=   0.00000
   O   0.0513339   0.3780157  -0.5821021 SPIN=   0.00000
   O   0.2785886   0.1267757  -0.6234738 SPIN=   0.00000
   S   0.1838067   0.2493296  -0.4933112 SPIN=   0.00000
   O  -0.4513356   0.3723023  -0.1528181 SPIN=   0.00000
   O  -0.1433601   0.3953665  -0.3397088 SPIN=   0.00000
   O  -0.4486661   0.5821021  -0.3780157 SPIN=   0.00000
   O  -0.2214114   0.6234738  -0.1267757 SPIN=   0.00000
   S  -0.3161933   0.4933112  -0.2493296 SPIN=   0.00000
   O  -0.4513356  -0.3723023   0.1528181 SPIN=   0.00000
   O  -0.1433601  -0.3953665   0.3397088 SPIN=   0.00000
   O  -0.4486661  -0.5821021   0.3780157 SPIN=   0.00000
   O  -0.2214114  -0.6234738   0.1267757 SPIN=   0.00000
   S  -0.3161933  -0.4933112   0.2493296 SPIN=   0.00000
   F   0.2655451   0.2359676   0.0423262 SPIN=   0.00000
   F   0.2655451  -0.2359676  -0.0423262 SPIN=   0.00000
   F  -0.2344549   0.0423262   0.2359676 SPIN=   0.00000
   F  -0.2344549  -0.0423262  -0.2359676 SPIN=   0.00000
%ENDBLOCK POSITIONS_FRAC

# Note: total spin =  16.00

KPOINTS_MP_SPACING 0.07

%BLOCK SPECIES_POT
QC5
%ENDBLOCK SPECIES_POT

SNAP_TO_SYMMETRY
SYMMETRY_GENERATE

