#              Generated by Buildcell
#
# at 12:27:39 (GMT+1.0) 18th August 2020
# in /lustre/scratch/uccabz1/launch_tmp
# on node-c12m-030
# by uccabz1
#
# compiler GCC version 4.9.2
# options -cpp -iprefix /lustre/shared/ucl/apps/gcc/4.9.2/bin/../lib/gcc/x86_64-unknown-linux-gnu/4.9.2/ -mtune=corei7 -march=x86-64 -g -Og
#
# seed   491208230 -1137036075  -720296063  2116951849  2120527759 -1166693999   363287580  1500157529   920241997  -505364377   931832498  2134001764
#
#      Author: C. J. Pickard (cjp20@cam.ac.uk)
#                Space group: P21
#

%BLOCK LATTICE_ABC
      6.58775      7.25468      8.38212
     93.13230     90.00000     90.00000
%ENDBLOCK LATTICE_ABC

%BLOCK POSITIONS_FRAC
  Li   0.4184723   0.3429546   0.0836916 SPIN=   0.00000
  Li  -0.0815277  -0.3429546  -0.0836916 SPIN=   0.00000
  Li  -0.4629964   0.3507678  -0.4651195 SPIN=   0.00000
  Li   0.0370036  -0.3507678   0.4651195 SPIN=   0.00000
  Fe  -0.4776765  -0.2415060  -0.4948680 SPIN=   3.54108
  Fe   0.0223235   0.2415060   0.4948680 SPIN=   3.54108
  Fe   0.2058608   0.0044909  -0.1275033 SPIN=   4.45892
  Fe  -0.2941392  -0.0044909   0.1275033 SPIN=   4.45892
   O   0.3252399  -0.2619335   0.2671988 SPIN=   0.00000
   O   0.2363098   0.0136810   0.1203629 SPIN=   0.00000
   O   0.1513210   0.0024894   0.4072724 SPIN=   0.00000
   O  -0.0342601  -0.1956092   0.2066069 SPIN=   0.00000
   S   0.1696526  -0.1103431   0.2503603 SPIN=   0.00000
   O  -0.1747601   0.2619335  -0.2671988 SPIN=   0.00000
   O  -0.2636902  -0.0136810  -0.1203629 SPIN=   0.00000
   O  -0.3486790  -0.0024894  -0.4072724 SPIN=   0.00000
   O  -0.5342601   0.1956092  -0.2066069 SPIN=   0.00000
   S  -0.3303474   0.1103431  -0.2503603 SPIN=   0.00000
   O  -0.6931827  -0.4213746  -0.0174722 SPIN=   0.00000
   O  -0.3497908  -0.3011981   0.0478265 SPIN=   0.00000
   O  -0.5313993  -0.1967851  -0.1894376 SPIN=   0.00000
   O  -0.4007344  -0.5165366  -0.1880596 SPIN=   0.00000
   S  -0.4937768  -0.3589736  -0.0867857 SPIN=   0.00000
   O  -0.1931827   0.4213746   0.0174722 SPIN=   0.00000
   O   0.1502092   0.3011981  -0.0478265 SPIN=   0.00000
   O  -0.0313993   0.1967851   0.1894376 SPIN=   0.00000
   O   0.0992656   0.5165366   0.1880596 SPIN=   0.00000
   S   0.0062232   0.3589736   0.0867857 SPIN=   0.00000
   F  -0.2490819  -0.3637588   0.4039183 SPIN=   0.00000
   F   0.2509181   0.3637588  -0.4039183 SPIN=   0.00000
   F  -0.3612753   0.1312790   0.3234692 SPIN=   0.00000
   F   0.1387247  -0.1312790  -0.3234692 SPIN=   0.00000
%ENDBLOCK POSITIONS_FRAC

# Note: total spin =  16.00

KPOINTS_MP_SPACING 0.07

%BLOCK SPECIES_POT
QC5
%ENDBLOCK SPECIES_POT

SNAP_TO_SYMMETRY
SYMMETRY_GENERATE

