#              Generated by Buildcell
#
# at 06:54:15 (GMT+1.0) 18th August 2020
# in /lustre/scratch/uccabz1/launch_tmp
# on node-c12f-001
# by uccabz1
#
# compiler GCC version 4.9.2
# options -cpp -iprefix /lustre/shared/ucl/apps/gcc/4.9.2/bin/../lib/gcc/x86_64-unknown-linux-gnu/4.9.2/ -mtune=corei7 -march=x86-64 -g -Og
#
# seed  -686445929  -327475577  -841580317   496058534  1084561374  1650823595 -1995247981  -694615062    13093540  1194447035 -1223832998  -817648403
#
#      Author: C. J. Pickard (cjp20@cam.ac.uk)
#                Space group: Cc
#

%BLOCK LATTICE_ABC
      7.50910      7.57685      8.67510
    112.74800    112.47761     96.63707
%ENDBLOCK LATTICE_ABC

%BLOCK POSITIONS_FRAC
  Li  -0.1497127  -0.1844665   0.0523350 SPIN=   0.00000
  Li  -0.2020477   0.2631984  -0.0523350 SPIN=   0.00000
  Li  -0.3940098   0.1958395   0.3788864 SPIN=   0.00000
  Li   0.2271039   0.3169532  -0.3788864 SPIN=   0.00000
  Fe   0.3241892  -0.4912866   0.4009910 SPIN=   3.49000
  Fe  -0.0768018  -0.3922776  -0.4009910 SPIN=   3.49000
  Fe   0.4642969  -0.0889030  -0.1226882 SPIN=   4.51000
  Fe  -0.4130148  -0.4662148   0.1226882 SPIN=   4.51000
   O   0.1668985   0.0254241   0.3835254 SPIN=   0.00000
   O   0.2148111  -0.2337093   0.4890898 SPIN=   0.00000
   O  -0.1231769  -0.2731505   0.2516351 SPIN=   0.00000
   O   0.0184604  -0.0111095   0.5839522 SPIN=   0.00000
   S   0.0692483  -0.1231363   0.4270506 SPIN=   0.00000
   O  -0.2166269   0.1418987  -0.3835254 SPIN=   0.00000
   O  -0.2742787  -0.2227991  -0.4890898 SPIN=   0.00000
   O  -0.3748120  -0.0247856  -0.2516351 SPIN=   0.00000
   O  -0.5654918  -0.0950618  -0.5839522 SPIN=   0.00000
   S  -0.3578023  -0.0501869  -0.4270506 SPIN=   0.00000
   O   0.1328993   0.5394252  -0.2138312 SPIN=   0.00000
   O   0.3028060   0.6214660   0.1232932 SPIN=   0.00000
   O   0.0877344   0.2736246  -0.1209905 SPIN=   0.00000
   O  -0.0694043   0.5437574  -0.0451296 SPIN=   0.00000
   S   0.1135089   0.4945683  -0.0641645 SPIN=   0.00000
   O   0.3467306   0.2532564   0.2138312 SPIN=   0.00000
   O   0.1795128  -0.0018272  -0.1232932 SPIN=   0.00000
   O   0.2087248  -0.1053849   0.1209905 SPIN=   0.00000
   O  -0.0242748   0.0888870   0.0451296 SPIN=   0.00000
   S   0.1776733   0.0587328   0.0641645 SPIN=   0.00000
   F   0.4575468   0.2207871  -0.1247349 SPIN=   0.00000
   F  -0.4177183  -0.1544780   0.1247349 SPIN=   0.00000
   F   0.0335309   0.3901561   0.3694252 SPIN=   0.00000
   F  -0.3358943  -0.4792691  -0.3694252 SPIN=   0.00000
%ENDBLOCK POSITIONS_FRAC

# Note: total spin =  16.00

KPOINTS_MP_SPACING 0.07

%BLOCK SPECIES_POT
QC5
%ENDBLOCK SPECIES_POT

SNAP_TO_SYMMETRY
SYMMETRY_GENERATE

