#              Generated by Buildcell
#
# at 23:33:51 (GMT+1.0) 17th August 2020
# in /lustre/scratch/uccabz1/launch_tmp
# on node-c12g-030
# by uccabz1
#
# compiler GCC version 4.9.2
# options -cpp -iprefix /lustre/shared/ucl/apps/gcc/4.9.2/bin/../lib/gcc/x86_64-unknown-linux-gnu/4.9.2/ -mtune=corei7 -march=x86-64 -g -Og
#
# seed   848563869  1970254162   594435983 -1868609165  1451285677 -2045715671   275668065 -1458765159   294211312   594393836  1285529078  -786851299
#
#      Author: C. J. Pickard (cjp20@cam.ac.uk)
#                Space group: Aea2
#

%BLOCK LATTICE_ABC
      4.94710      7.95139     10.69961
     90.00000     90.00000    108.12457
%ENDBLOCK LATTICE_ABC

%BLOCK POSITIONS_FRAC
  Li  -0.2232925  -0.1767280  -0.1188142 SPIN=   0.00000
  Li  -0.0465645   0.1767280   0.1188142 SPIN=   0.00000
  Li   0.4534355   0.1767280   0.3811858 SPIN=   0.00000
  Li   0.2767075  -0.1767280  -0.3811858 SPIN=   0.00000
  Fe   0.3898125  -0.4636617   0.1201253 SPIN=   4.00000
  Fe  -0.1465258   0.4636617  -0.1201253 SPIN=   4.00000
  Fe   0.3534742   0.4636617  -0.3798747 SPIN=   4.00000
  Fe  -0.1101875  -0.4636617   0.3798747 SPIN=   4.00000
   O  -0.4845111  -0.3663421   0.4562556 SPIN=   0.00000
   O  -0.7082156  -0.1287349   0.4401008 SPIN=   0.00000
   O  -0.5426846  -0.2429128   0.2493018 SPIN=   0.00000
   O  -0.1927278  -0.0620208   0.4002403 SPIN=   0.00000
   S  -0.4820348  -0.2000026   0.3864746 SPIN=   0.00000
   O  -0.1181689   0.3663421  -0.4562556 SPIN=   0.00000
   O  -0.5794808   0.1287349  -0.4401008 SPIN=   0.00000
   O  -0.2997718   0.2429128  -0.2493018 SPIN=   0.00000
   O  -0.1307071   0.0620208  -0.4002403 SPIN=   0.00000
   S  -0.2820321   0.2000026  -0.3864746 SPIN=   0.00000
   O   0.3818311   0.3663421  -0.0437444 SPIN=   0.00000
   O  -0.0794808   0.1287349  -0.0598992 SPIN=   0.00000
   O   0.2002282   0.2429128  -0.2506982 SPIN=   0.00000
   O   0.3692929   0.0620208  -0.0997597 SPIN=   0.00000
   S   0.2179679   0.2000026  -0.1135254 SPIN=   0.00000
   O   0.0154889  -0.3663421   0.0437444 SPIN=   0.00000
   O  -0.2082156  -0.1287349   0.0598992 SPIN=   0.00000
   O  -0.0426846  -0.2429128   0.2506982 SPIN=   0.00000
   O   0.3072722  -0.0620208   0.0997597 SPIN=   0.00000
   S   0.0179652  -0.2000026   0.1135254 SPIN=   0.00000
   F  -0.1040291  -0.3276805  -0.3769082 SPIN=   0.00000
   F   0.2236514   0.3276805   0.3769082 SPIN=   0.00000
   F  -0.2763486   0.3276805   0.1230918 SPIN=   0.00000
   F   0.3959709  -0.3276805  -0.1230918 SPIN=   0.00000
%ENDBLOCK POSITIONS_FRAC

# Note: total spin =  16.00

KPOINTS_MP_SPACING 0.07

%BLOCK SPECIES_POT
QC5
%ENDBLOCK SPECIES_POT

SNAP_TO_SYMMETRY
SYMMETRY_GENERATE

