#              Generated by Buildcell
#
# at 08:07:58 (GMT+1.0) 4th August 2020
# in /lustre/scratch/uccabz1/launch_tmp
# on node-c12p-020
# by uccabz1
#
# compiler GCC version 4.9.2
# options -cpp -iprefix /lustre/shared/ucl/apps/gcc/4.9.2/bin/../lib/gcc/x86_64-unknown-linux-gnu/4.9.2/ -mtune=corei7 -march=x86-64 -g -Og
#
# seed -1116956168   539972261  1190399763  2037981104   489738037  -754562425 -1770554750 -1132040969   -41285984  1322196036 -1400970090 -1687686766
#
#      Author: C. J. Pickard (cjp20@cam.ac.uk)
#                Space group: P2
#

%BLOCK LATTICE_ABC
      6.67647      7.69274      7.82332
     90.00000     90.00000     95.43848
%ENDBLOCK LATTICE_ABC

%BLOCK POSITIONS_FRAC
  Li   0.0000000   0.5000000   0.3435903 SPIN=   0.00000
  Li  -0.5000000  -0.5000000  -0.3968602 SPIN=   0.00000
  Li  -0.5000000  -0.5000000   0.1174687 SPIN=   0.00000
  Li  -0.5000000   0.0000000   0.2755001 SPIN=   0.00000
  Fe   0.2031641   0.1900201   0.4910192 SPIN=   5.27704
  Fe  -0.2031641  -0.1900201   0.4910192 SPIN=   5.27704
  Fe   0.5000000  -0.0000000  -0.1172847 SPIN=   4.64183
  Fe   0.0000000   0.5000000  -0.2094111 SPIN=   0.80409
   O  -0.1410599   0.0795472  -0.5027561 SPIN=   0.00000
   O  -0.2382918   0.2177987  -0.2333677 SPIN=   0.00000
   O  -0.4909051   0.1527138  -0.4616624 SPIN=   0.00000
   O  -0.2160854   0.3884924  -0.5019687 SPIN=   0.00000
   S  -0.2715855   0.2096380  -0.4249387 SPIN=   0.00000
   O   0.1410599  -0.0795472  -0.5027561 SPIN=   0.00000
   O   0.2382918  -0.2177987  -0.2333677 SPIN=   0.00000
   O   0.4909051  -0.1527138  -0.4616624 SPIN=   0.00000
   O   0.2160854  -0.3884924  -0.5019687 SPIN=   0.00000
   S   0.2715855  -0.2096380  -0.4249387 SPIN=   0.00000
   O  -0.2078094   0.0242310   0.0632984 SPIN=   0.00000
   O  -0.0553345   0.2532969   0.2581420 SPIN=   0.00000
   O  -0.3106573   0.3244978   0.0464742 SPIN=   0.00000
   S  -0.1362508   0.2164493   0.0794779 SPIN=   0.00000
   O   0.2078094  -0.0242310   0.0632984 SPIN=   0.00000
   O   0.0553345  -0.2532969   0.2581420 SPIN=   0.00000
   O   0.3106573  -0.3244978   0.0464742 SPIN=   0.00000
   S   0.1362508  -0.2164493   0.0794779 SPIN=   0.00000
   O   0.0000000   0.5000000   0.0687798 SPIN=   0.00000
   O  -0.5000000  -0.5000000  -0.1396187 SPIN=   0.00000
   F   0.2112693   0.2360377  -0.2519352 SPIN=   0.00000
   F  -0.2112693  -0.2360377  -0.2519352 SPIN=   0.00000
   F   0.3525422   0.2633998   0.2421780 SPIN=   0.00000
   F  -0.3525422  -0.2633998   0.2421780 SPIN=   0.00000
%ENDBLOCK POSITIONS_FRAC

# Note: total spin =  16.00

KPOINTS_MP_SPACING 0.07

%BLOCK SPECIES_POT
QC5
%ENDBLOCK SPECIES_POT

SNAP_TO_SYMMETRY
SYMMETRY_GENERATE

