#              Generated by Buildcell
#
# at 07:01:51 (GMT+1.0) 4th August 2020
# in /lustre/scratch/uccabz1/launch_tmp
# on node-c12g-027
# by uccabz1
#
# compiler GCC version 4.9.2
# options -cpp -iprefix /lustre/shared/ucl/apps/gcc/4.9.2/bin/../lib/gcc/x86_64-unknown-linux-gnu/4.9.2/ -mtune=corei7 -march=x86-64 -g -Og
#
# seed    46922623  2017375385  2104912384   800208728  -305925728  -713845928  -413302407  1511977671  -154333485  1756188949  1519163020  -830537832
#
#      Author: C. J. Pickard (cjp20@cam.ac.uk)
#                Space group: Cc
#

%BLOCK LATTICE_ABC
      6.73876      7.81304      8.42198
     89.54892     88.95397     64.45304
%ENDBLOCK LATTICE_ABC

%BLOCK POSITIONS_FRAC
  Li   0.4871704   0.4460531   0.0050397 SPIN=   0.00000
  Li  -0.0667765  -0.4460531  -0.4949603 SPIN=   0.00000
  Li  -0.4529891   0.3231853  -0.4324515 SPIN=   0.00000
  Li  -0.1298038  -0.3231853   0.0675485 SPIN=   0.00000
  Fe   0.1430859   0.1394596  -0.3684674 SPIN=   4.15959
  Fe   0.2825455  -0.1394596   0.1315326 SPIN=   4.15959
  Fe  -0.3913225  -0.3191555  -0.2325890 SPIN=   3.84041
  Fe   0.2895220   0.3191555   0.2674110 SPIN=   3.84041
   O  -0.4338201   0.3844427   0.2435093 SPIN=   0.00000
   O  -0.0733228   0.2983889   0.3679465 SPIN=   0.00000
   O  -0.3178322   0.6349360   0.3117487 SPIN=   0.00000
   O  -0.1329217   0.4136359   0.0904040 SPIN=   0.00000
   S  -0.2394742   0.4328509   0.2534021 SPIN=   0.00000
   O  -0.0493774  -0.3844427  -0.2564907 SPIN=   0.00000
   O   0.2250661  -0.2983889  -0.1320535 SPIN=   0.00000
   O   0.3171038  -0.6349360  -0.1882513 SPIN=   0.00000
   O   0.2807142  -0.4136359  -0.4095960 SPIN=   0.00000
   S   0.1933767  -0.4328509  -0.2465979 SPIN=   0.00000
   O  -0.1276271  -0.0650584   0.1197557 SPIN=   0.00000
   O  -0.4817417   0.1706972   0.0150510 SPIN=   0.00000
   O  -0.2255535  -0.0865657  -0.1587812 SPIN=   0.00000
   O  -0.1322619   0.1732450  -0.0773035 SPIN=   0.00000
   S  -0.2417961   0.0480796  -0.0253195 SPIN=   0.00000
   O  -0.1926855   0.0650584   0.6197557 SPIN=   0.00000
   O  -0.3110445  -0.1706972   0.5150510 SPIN=   0.00000
   O  -0.3121191   0.0865657   0.3412188 SPIN=   0.00000
   O   0.0409831  -0.1732450   0.4226965 SPIN=   0.00000
   S  -0.1937165  -0.0480796   0.4746805 SPIN=   0.00000
   F   0.1729074  -0.3893370   0.1837244 SPIN=   0.00000
   F  -0.2164295   0.3893370  -0.3162756 SPIN=   0.00000
   F   0.3002965   0.0306003   0.2726801 SPIN=   0.00000
   F   0.3308967  -0.0306003  -0.2273199 SPIN=   0.00000
%ENDBLOCK POSITIONS_FRAC

# Note: total spin =  16.00

KPOINTS_MP_SPACING 0.07

%BLOCK SPECIES_POT
QC5
%ENDBLOCK SPECIES_POT

SNAP_TO_SYMMETRY
SYMMETRY_GENERATE

