#              Generated by Buildcell
#
# at 08:13:22 (GMT+1.0) 18th August 2020
# in /lustre/scratch/uccabz1/launch_tmp
# on node-c12j-002
# by uccabz1
#
# compiler GCC version 4.9.2
# options -cpp -iprefix /lustre/shared/ucl/apps/gcc/4.9.2/bin/../lib/gcc/x86_64-unknown-linux-gnu/4.9.2/ -mtune=corei7 -march=x86-64 -g -Og
#
# seed  -928890481  1759146265  1940066835 -1309126315   467684198    56116873  -123945646  -177287562  1400833372  -114100990   212135665  1714737351
#
#      Author: C. J. Pickard (cjp20@cam.ac.uk)
#                Space group: Aea2
#

%BLOCK LATTICE_ABC
      5.49875      8.53040      8.53040
     91.46678     90.00000     90.00000
%ENDBLOCK LATTICE_ABC

%BLOCK POSITIONS_FRAC
  Li  -0.2456390   0.4688777  -0.2542393 SPIN=   0.00000
  Li   0.2456390  -0.2542393   0.4688777 SPIN=   0.00000
  Li   0.2543610   0.2457607  -0.0311223 SPIN=   0.00000
  Li  -0.2543610  -0.0311223   0.2457607 SPIN=   0.00000
  Fe  -0.2473734  -0.4064088   0.3889171 SPIN=   4.00000
  Fe   0.2473734   0.3889171  -0.4064088 SPIN=   4.00000
  Fe   0.2526266  -0.1110829   0.0935912 SPIN=   4.00000
  Fe  -0.2526266   0.0935912  -0.1110829 SPIN=   4.00000
   O  -0.1152680   0.3732377   0.5444953 SPIN=   0.00000
   O  -0.5154069   0.2714804   0.4564783 SPIN=   0.00000
   O  -0.2281794   0.0977491   0.5924919 SPIN=   0.00000
   O  -0.1394705   0.1811241   0.3226787 SPIN=   0.00000
   S  -0.2495812   0.2308978   0.4790361 SPIN=   0.00000
   O   0.1152680   0.5444953   0.3732377 SPIN=   0.00000
   O   0.5154069   0.4564783   0.2714804 SPIN=   0.00000
   O   0.2281794   0.5924919   0.0977491 SPIN=   0.00000
   O   0.1394705   0.3226787   0.1811241 SPIN=   0.00000
   S   0.2495812   0.4790361   0.2308978 SPIN=   0.00000
   O   0.3847320   0.0444953  -0.1267623 SPIN=   0.00000
   O  -0.0154069  -0.0435217  -0.2285196 SPIN=   0.00000
   O   0.2718206   0.0924919  -0.4022509 SPIN=   0.00000
   O   0.3605295  -0.1773213  -0.3188759 SPIN=   0.00000
   S   0.2504188  -0.0209639  -0.2691022 SPIN=   0.00000
   O  -0.3847320  -0.1267623   0.0444953 SPIN=   0.00000
   O   0.0154069  -0.2285196  -0.0435217 SPIN=   0.00000
   O  -0.2718206  -0.4022509   0.0924919 SPIN=   0.00000
   O  -0.3605295  -0.3188759  -0.1773213 SPIN=   0.00000
   S  -0.2504188  -0.2691022  -0.0209639 SPIN=   0.00000
   F  -0.2481795  -0.2070775   0.4982515 SPIN=   0.00000
   F   0.2481795   0.4982515  -0.2070775 SPIN=   0.00000
   F   0.2518205  -0.0017485   0.2929225 SPIN=   0.00000
   F  -0.2518205   0.2929225  -0.0017485 SPIN=   0.00000
%ENDBLOCK POSITIONS_FRAC

# Note: total spin =  16.00

KPOINTS_MP_SPACING 0.07

%BLOCK SPECIES_POT
QC5
%ENDBLOCK SPECIES_POT

SNAP_TO_SYMMETRY
SYMMETRY_GENERATE

