#              Generated by Buildcell
#
# at 23:09:45 (GMT+1.0) 17th August 2020
# in /lustre/scratch/uccabz1/launch_tmp
# on node-c12l-014
# by uccabz1
#
# compiler GCC version 4.9.2
# options -cpp -iprefix /lustre/shared/ucl/apps/gcc/4.9.2/bin/../lib/gcc/x86_64-unknown-linux-gnu/4.9.2/ -mtune=corei7 -march=x86-64 -g -Og
#
# seed   796051048  1277933376   593645539 -1766523165   192451656 -1840992578 -1509552406   820692170  1638542427   306482386  1879580269  1416100973
#
#      Author: C. J. Pickard (cjp20@cam.ac.uk)
#                Space group: I-4
#

%BLOCK LATTICE_ABC
      5.89667      8.74801      8.74801
     83.47777     70.30402     70.30402
%ENDBLOCK LATTICE_ABC

%BLOCK POSITIONS_FRAC
  Li   0.1695709  -0.1132467   0.4895442 SPIN=   0.00000
  Li  -0.4541316   0.1132467  -0.4895442 SPIN=   0.00000
  Li  -0.0563242  -0.4895442  -0.1132467 SPIN=   0.00000
  Li   0.3408849   0.4895442   0.1132467 SPIN=   0.00000
  Fe   0.0118637  -0.1921006   0.2389878 SPIN=   4.00000
  Fe   0.0587510   0.1921006  -0.2389878 SPIN=   4.00000
  Fe   0.1802368  -0.2389878  -0.1921006 SPIN=   4.00000
  Fe  -0.2508515   0.2389878   0.1921006 SPIN=   4.00000
   O  -0.4243856  -0.4088937   0.1437773 SPIN=   0.00000
   O  -0.6488158  -0.3775851   0.4394261 SPIN=   0.00000
   O  -0.5071842  -0.1544440   0.2815061 SPIN=   0.00000
   O  -0.1903650  -0.4077383   0.3310431 SPIN=   0.00000
   S  -0.4426876  -0.3371653   0.2989381 SPIN=   0.00000
   O  -0.6895020   0.4088937  -0.1437773 SPIN=   0.00000
   O  -0.5869748   0.3775851  -0.4394261 SPIN=   0.00000
   O  -0.3801221   0.1544440  -0.2815061 SPIN=   0.00000
   O  -0.2670602   0.4077383  -0.3310431 SPIN=   0.00000
   S  -0.4809148   0.3371653  -0.2989381 SPIN=   0.00000
   O  -0.1667207  -0.1437773  -0.4088937 SPIN=   0.00000
   O   0.0264008  -0.4394261  -0.3775851 SPIN=   0.00000
   O  -0.3383719  -0.2815061  -0.1544440 SPIN=   0.00000
   O  -0.4018967  -0.3310431  -0.4077383 SPIN=   0.00000
   S  -0.2201471  -0.2989381  -0.3371653 SPIN=   0.00000
   O   0.2806083   0.1437773   0.4088937 SPIN=   0.00000
   O   0.2093897   0.4394261   0.3775851 SPIN=   0.00000
   O   0.2256781   0.2815061   0.1544440 SPIN=   0.00000
   O  -0.1406780   0.3310431   0.4077383 SPIN=   0.00000
   S   0.1437495   0.2989381   0.3371653 SPIN=   0.00000
   F   0.1771639  -0.3048990   0.0179028 SPIN=   0.00000
   F  -0.1098323   0.3048990  -0.0179028 SPIN=   0.00000
   F   0.1277350  -0.0179028  -0.3048990 SPIN=   0.00000
   F  -0.1950667   0.0179028   0.3048990 SPIN=   0.00000
%ENDBLOCK POSITIONS_FRAC

# Note: total spin =  16.00

KPOINTS_MP_SPACING 0.07

%BLOCK SPECIES_POT
QC5
%ENDBLOCK SPECIES_POT

SNAP_TO_SYMMETRY
SYMMETRY_GENERATE

