#              Generated by Buildcell
#
# at 02:49:19 (GMT+1.0) 18th August 2020
# in /lustre/scratch/uccabz1/launch_tmp
# on node-c12k-032
# by uccabz1
#
# compiler GCC version 4.9.2
# options -cpp -iprefix /lustre/shared/ucl/apps/gcc/4.9.2/bin/../lib/gcc/x86_64-unknown-linux-gnu/4.9.2/ -mtune=corei7 -march=x86-64 -g -Og
#
# seed   394599980  -993214023  1011822606 -1763496692  1503291992  1626593998   403994235   980130595  1970211020   439982914  -697468120   680638794
#
#      Author: C. J. Pickard (cjp20@cam.ac.uk)
#                Space group: C2
#

%BLOCK LATTICE_ABC
      7.20373      7.20373      8.93773
     78.76684     78.76684     62.33495
%ENDBLOCK LATTICE_ABC

%BLOCK POSITIONS_FRAC
  Li  -0.2495323  -0.4595828   0.2164265 SPIN=   0.00000
  Li   0.4595828   0.2495323  -0.2164265 SPIN=   0.00000
  Li   0.2289840   0.0324636  -0.4151799 SPIN=   0.00000
  Li  -0.0324636  -0.2289840   0.4151799 SPIN=   0.00000
  Fe   0.2914932   0.4890682   0.1788479 SPIN=   4.36830
  Fe  -0.4890682  -0.2914932  -0.1788479 SPIN=   4.36830
  Fe  -0.2168950  -0.0837098   0.0043822 SPIN=   3.63170
  Fe   0.0837098   0.2168950  -0.0043822 SPIN=   3.63170
   O  -0.1091249   0.1633693  -0.1359407 SPIN=   0.00000
   O  -0.3822410   0.4316694  -0.2953693 SPIN=   0.00000
   O  -0.1674441   0.0709498  -0.3696162 SPIN=   0.00000
   O  -0.0037087   0.3123288  -0.3930523 SPIN=   0.00000
   S  -0.1656297   0.2445793  -0.2984946 SPIN=   0.00000
   O  -0.1633693   0.1091249   0.1359407 SPIN=   0.00000
   O  -0.4316694   0.3822410   0.2953693 SPIN=   0.00000
   O  -0.0709498   0.1674441   0.3696162 SPIN=   0.00000
   O  -0.3123288   0.0037087   0.3930523 SPIN=   0.00000
   S  -0.2445793   0.1656297   0.2984946 SPIN=   0.00000
   O   0.2726680  -0.1929680   0.2546332 SPIN=   0.00000
   O   0.6030679  -0.1535288   0.2126925 SPIN=   0.00000
   O   0.4791294  -0.2819957   0.4712756 SPIN=   0.00000
   O   0.2858191   0.0908873   0.3633793 SPIN=   0.00000
   S   0.4101711  -0.1344013   0.3254951 SPIN=   0.00000
   O   0.1929680  -0.2726680  -0.2546332 SPIN=   0.00000
   O   0.1535288  -0.6030679  -0.2126925 SPIN=   0.00000
   O   0.2819957  -0.4791294  -0.4712756 SPIN=   0.00000
   O  -0.0908873  -0.2858191  -0.3633793 SPIN=   0.00000
   S   0.1344013  -0.4101711  -0.3254951 SPIN=   0.00000
   F  -0.0094459  -0.4651448   0.3091717 SPIN=   0.00000
   F   0.4651448   0.0094459  -0.3091717 SPIN=   0.00000
   F   0.4235326   0.2635142   0.0131578 SPIN=   0.00000
   F  -0.2635142  -0.4235326  -0.0131578 SPIN=   0.00000
%ENDBLOCK POSITIONS_FRAC

# Note: total spin =  16.00

KPOINTS_MP_SPACING 0.07

%BLOCK SPECIES_POT
QC5
%ENDBLOCK SPECIES_POT

SNAP_TO_SYMMETRY
SYMMETRY_GENERATE

