#              Generated by Buildcell
#
# at 16:13:46 (GMT+1.0) 18th August 2020
# in /lustre/scratch/uccabz1/launch_tmp
# on node-c12p-018
# by uccabz1
#
# compiler GCC version 4.9.2
# options -cpp -iprefix /lustre/shared/ucl/apps/gcc/4.9.2/bin/../lib/gcc/x86_64-unknown-linux-gnu/4.9.2/ -mtune=corei7 -march=x86-64 -g -Og
#
# seed  2128457313 -1327932360 -1504061275 -1346779819 -1200094449  1629469890  -459934602 -1732279473  -851797103 -1915319058  -734427852   988744301
#
#      Author: C. J. Pickard (cjp20@cam.ac.uk)
#                Space group: Pc
#

%BLOCK LATTICE_ABC
      4.09808      8.02302     12.17378
     90.00000     90.00000     92.06989
%ENDBLOCK LATTICE_ABC

%BLOCK POSITIONS_FRAC
  Li  -0.0978599  -0.1904567  -0.1869659 SPIN=   0.00000
  Li  -0.0978599   0.3095433   0.1869659 SPIN=   0.00000
  Li  -0.2781347   0.4299508  -0.4476626 SPIN=   0.00000
  Li  -0.2781347  -0.0700492   0.4476626 SPIN=   0.00000
  Fe  -0.3871967   0.0929485  -0.3251431 SPIN=   4.45410
  Fe  -0.3871967  -0.4070515   0.3251431 SPIN=   4.45410
  Fe   0.0755513   0.1489661  -0.0528709 SPIN=   3.54590
  Fe   0.0755513  -0.3510339   0.0528709 SPIN=   3.54590
   O  -0.4348274   0.4726805  -0.2781796 SPIN=   0.00000
   O  -0.3433999   0.6355819  -0.1076082 SPIN=   0.00000
   O   0.0772010   0.4452938  -0.1729709 SPIN=   0.00000
   O  -0.4448519   0.3299725  -0.0979156 SPIN=   0.00000
   S  -0.2864695   0.4708822  -0.1641686 SPIN=   0.00000
   O  -0.4348274  -0.0273195   0.2781796 SPIN=   0.00000
   O  -0.3433999   0.1355819   0.1076082 SPIN=   0.00000
   O   0.0772010  -0.0547062   0.1729709 SPIN=   0.00000
   O  -0.4448519  -0.1700275   0.0979156 SPIN=   0.00000
   S  -0.2864695  -0.0291178   0.1641686 SPIN=   0.00000
   O   0.4766237   0.2217250   0.4652186 SPIN=   0.00000
   O   0.4096506   0.2547687   0.2644425 SPIN=   0.00000
   O  -0.0229870   0.3444632   0.3909416 SPIN=   0.00000
   O   0.0701946   0.0439502   0.3650116 SPIN=   0.00000
   S   0.2333705   0.2162268   0.3714036 SPIN=   0.00000
   O   0.4766237  -0.2782750  -0.4652186 SPIN=   0.00000
   O   0.4096506  -0.2452313  -0.2644425 SPIN=   0.00000
   O  -0.0229870  -0.1555368  -0.3909416 SPIN=   0.00000
   O   0.0701946  -0.4560498  -0.3650116 SPIN=   0.00000
   S   0.2333705  -0.2837732  -0.3714036 SPIN=   0.00000
   F   0.2095267  -0.1569627  -0.0759219 SPIN=   0.00000
   F   0.2095267   0.3430373   0.0759219 SPIN=   0.00000
   F   0.1890756  -0.3262118   0.3269433 SPIN=   0.00000
   F   0.1890756   0.1737882  -0.3269433 SPIN=   0.00000
%ENDBLOCK POSITIONS_FRAC

# Note: total spin =  16.00

KPOINTS_MP_SPACING 0.07

%BLOCK SPECIES_POT
QC5
%ENDBLOCK SPECIES_POT

SNAP_TO_SYMMETRY
SYMMETRY_GENERATE

