#              Generated by Buildcell
#
# at 07:38:00 (GMT+1.0) 4th August 2020
# in /lustre/scratch/uccabz1/launch_tmp
# on node-c12c-002
# by uccabz1
#
# compiler GCC version 4.9.2
# options -cpp -iprefix /lustre/shared/ucl/apps/gcc/4.9.2/bin/../lib/gcc/x86_64-unknown-linux-gnu/4.9.2/ -mtune=corei7 -march=x86-64 -g -Og
#
# seed -1585810672  -323978328 -1310601715  2145135647 -2016675135   719792775  1271939095  2109343222 -1993696226  -853953584    86000661   409137176
#
#      Author: C. J. Pickard (cjp20@cam.ac.uk)
#                Space group: P212121
#

%BLOCK LATTICE_ABC
      4.02754      7.81459     12.70907
     90.00000     90.00000     90.00000
%ENDBLOCK LATTICE_ABC

%BLOCK POSITIONS_FRAC
  Li   0.3931717  -0.4231546  -0.1245066 SPIN=   0.00000
  Li  -0.1068283   0.4231546  -0.3754934 SPIN=   0.00000
  Li   0.1068283   0.0768454   0.1245066 SPIN=   0.00000
  Li  -0.3931717  -0.0768454   0.3754934 SPIN=   0.00000
  Fe   0.3862022  -0.2617398   0.0829770 SPIN=   4.00000
  Fe  -0.1137978   0.2617398   0.4170230 SPIN=   4.00000
  Fe   0.1137978   0.2382602  -0.0829770 SPIN=   4.00000
  Fe  -0.3862022  -0.2382602  -0.4170230 SPIN=   4.00000
   O   0.0889479   0.0433433  -0.4001872 SPIN=   0.00000
   O   0.2005819   0.2582153  -0.2615750 SPIN=   0.00000
   O   0.5265365   0.2614823  -0.4266411 SPIN=   0.00000
   O   0.6094637   0.0289603  -0.2970698 SPIN=   0.00000
   S   0.3563825   0.1480003  -0.3463683 SPIN=   0.00000
   O  -0.4110521  -0.0433433  -0.0998128 SPIN=   0.00000
   O  -0.2994181  -0.2582153  -0.2384250 SPIN=   0.00000
   O   0.0265365  -0.2614823  -0.0733589 SPIN=   0.00000
   O   0.1094637  -0.0289603  -0.2029302 SPIN=   0.00000
   S  -0.1436175  -0.1480003  -0.1536317 SPIN=   0.00000
   O   0.4110521  -0.4566567   0.4001872 SPIN=   0.00000
   O   0.2994181  -0.2417847   0.2615750 SPIN=   0.00000
   O  -0.0265365  -0.2385177   0.4266411 SPIN=   0.00000
   O  -0.1094637  -0.4710397   0.2970698 SPIN=   0.00000
   S   0.1436175  -0.3519997   0.3463683 SPIN=   0.00000
   O  -0.0889479   0.4566567   0.0998128 SPIN=   0.00000
   O  -0.2005819   0.2417847   0.2384250 SPIN=   0.00000
   O  -0.5265365   0.2385177   0.0733589 SPIN=   0.00000
   O  -0.6094637   0.4710397   0.2029302 SPIN=   0.00000
   S  -0.3563825   0.3519997   0.1536317 SPIN=   0.00000
   F  -0.2665986  -0.1153660   0.1324776 SPIN=   0.00000
   F   0.2334014   0.1153660   0.3675224 SPIN=   0.00000
   F  -0.2334014   0.3846340  -0.1324776 SPIN=   0.00000
   F   0.2665986  -0.3846340  -0.3675224 SPIN=   0.00000
%ENDBLOCK POSITIONS_FRAC

# Note: total spin =  16.00

KPOINTS_MP_SPACING 0.07

%BLOCK SPECIES_POT
QC5
%ENDBLOCK SPECIES_POT

SNAP_TO_SYMMETRY
SYMMETRY_GENERATE

