#              Generated by Buildcell
#
# at 09:57:54 (GMT+1.0) 18th August 2020
# in /lustre/scratch/uccabz1/launch_tmp
# on node-c12j-026
# by uccabz1
#
# compiler GCC version 4.9.2
# options -cpp -iprefix /lustre/shared/ucl/apps/gcc/4.9.2/bin/../lib/gcc/x86_64-unknown-linux-gnu/4.9.2/ -mtune=corei7 -march=x86-64 -g -Og
#
# seed  1764490088 -1474253277 -2005060895  -296751432  -338957197  1535923887  -774579320   192516935  1854104896  2033749626 -1197774571  1911960736
#
#      Author: C. J. Pickard (cjp20@cam.ac.uk)
#                Space group: Pc
#

%BLOCK LATTICE_ABC
      5.77206      8.33924      8.43111
     90.00000     99.72206     90.00000
%ENDBLOCK LATTICE_ABC

%BLOCK POSITIONS_FRAC
  Li  -0.3943558  -0.4775302  -0.2461977 SPIN=   0.00000
  Li  -0.3943558   0.4775302   0.2538023 SPIN=   0.00000
  Li   0.1753688  -0.3014523  -0.0284827 SPIN=   0.00000
  Li   0.1753688   0.3014523   0.4715173 SPIN=   0.00000
  Fe  -0.2406832   0.0787294   0.3843221 SPIN=   2.08615
  Fe  -0.2406832  -0.0787294  -0.1156779 SPIN=   2.08615
  Fe   0.0359975  -0.3722788  -0.3844778 SPIN=   5.91385
  Fe   0.0359975   0.3722788   0.1155222 SPIN=   5.91385
   O   0.0577409  -0.1137737   0.2581947 SPIN=   0.00000
   O   0.0682257  -0.4103640   0.2518735 SPIN=   0.00000
   O  -0.2358094  -0.2629650   0.0656579 SPIN=   0.00000
   O  -0.2527816  -0.2708568   0.3569089 SPIN=   0.00000
   S  -0.0906561  -0.2644899   0.2331587 SPIN=   0.00000
   O   0.0577409   0.1137737  -0.2418053 SPIN=   0.00000
   O   0.0682257   0.4103640  -0.2481265 SPIN=   0.00000
   O  -0.2358094   0.2629650  -0.4343421 SPIN=   0.00000
   O  -0.2527816   0.2708568  -0.1430911 SPIN=   0.00000
   S  -0.0906561   0.2644899  -0.2668413 SPIN=   0.00000
   O   0.4071854   0.0810458   0.2486477 SPIN=   0.00000
   O   0.4310715   0.1610617  -0.0308008 SPIN=   0.00000
   O   0.0646708   0.0417932   0.0322983 SPIN=   0.00000
   O   0.4197128  -0.1264187   0.0403676 SPIN=   0.00000
   S   0.3306602   0.0393705   0.0726282 SPIN=   0.00000
   O   0.4071854  -0.0810458  -0.2513523 SPIN=   0.00000
   O   0.4310715  -0.1610617  -0.5308008 SPIN=   0.00000
   O   0.0646708  -0.0417932  -0.4677017 SPIN=   0.00000
   O   0.4197128   0.1264187  -0.4596324 SPIN=   0.00000
   S   0.3306602  -0.0393705  -0.4273718 SPIN=   0.00000
   F   0.4288911   0.4935806  -0.0148719 SPIN=   0.00000
   F   0.4288911  -0.4935806   0.4851281 SPIN=   0.00000
   F  -0.1214768  -0.2720800  -0.2158337 SPIN=   0.00000
   F  -0.1214768   0.2720800   0.2841663 SPIN=   0.00000
%ENDBLOCK POSITIONS_FRAC

# Note: total spin =  16.00

KPOINTS_MP_SPACING 0.07

%BLOCK SPECIES_POT
QC5
%ENDBLOCK SPECIES_POT

SNAP_TO_SYMMETRY
SYMMETRY_GENERATE

