#              Generated by Buildcell
#
# at 06:20:33 (GMT+1.0) 4th August 2020
# in /lustre/scratch/uccabz1/launch_tmp
# on node-c12f-009
# by uccabz1
#
# compiler GCC version 4.9.2
# options -cpp -iprefix /lustre/shared/ucl/apps/gcc/4.9.2/bin/../lib/gcc/x86_64-unknown-linux-gnu/4.9.2/ -mtune=corei7 -march=x86-64 -g -Og
#
# seed  1153147703 -2106510549  -141165554  -530974650  -766159652 -1051480702   116314548   403695320  -373804212  -977937566  -679017738  1333062548
#
#      Author: C. J. Pickard (cjp20@cam.ac.uk)
#                Space group: P21
#

%BLOCK LATTICE_ABC
      6.09801      7.20507      9.29676
    101.68696     90.00000     90.00000
%ENDBLOCK LATTICE_ABC

%BLOCK POSITIONS_FRAC
  Li   0.3597995   0.2467070   0.1056639 SPIN=   0.00000
  Li  -0.1402005  -0.2467070  -0.1056639 SPIN=   0.00000
  Li  -0.0246188   0.2575035  -0.3370178 SPIN=   0.00000
  Li   0.4753812  -0.2575035   0.3370178 SPIN=   0.00000
  Fe   0.4692964   0.4799302  -0.1397442 SPIN=   3.35614
  Fe  -0.0307036  -0.4799302   0.1397442 SPIN=   3.35614
  Fe  -0.4863663  -0.0480599  -0.2591037 SPIN=   4.64386
  Fe   0.0136337   0.0480599   0.2591037 SPIN=   4.64386
   O   0.1779354   0.2116781  -0.1798551 SPIN=   0.00000
   O   0.0034218   0.2206141   0.0617931 SPIN=   0.00000
   O   0.1650624  -0.0781777  -0.0756840 SPIN=   0.00000
   O  -0.1753661   0.0475525  -0.1650327 SPIN=   0.00000
   S   0.0427634   0.1004168  -0.0896946 SPIN=   0.00000
   O  -0.3220646  -0.2116781   0.1798551 SPIN=   0.00000
   O  -0.4965782  -0.2206141  -0.0617931 SPIN=   0.00000
   O  -0.3349376   0.0781777   0.0756840 SPIN=   0.00000
   O  -0.6753661  -0.0475525   0.1650327 SPIN=   0.00000
   S  -0.4572366  -0.1004168   0.0896946 SPIN=   0.00000
   O  -0.3770166   0.4103637   0.4490497 SPIN=   0.00000
   O  -0.1654416   0.1265480   0.4766771 SPIN=   0.00000
   O  -0.5515793   0.0938008   0.3934405 SPIN=   0.00000
   O  -0.4651931   0.2449778   0.6506091 SPIN=   0.00000
   S  -0.3898077   0.2189226   0.4924441 SPIN=   0.00000
   O   0.1229834  -0.4103637  -0.4490497 SPIN=   0.00000
   O   0.3345584  -0.1265480  -0.4766771 SPIN=   0.00000
   O  -0.0515793  -0.0938008  -0.3934405 SPIN=   0.00000
   O   0.0348069  -0.2449778  -0.6506091 SPIN=   0.00000
   S   0.1101923  -0.2189226  -0.4924441 SPIN=   0.00000
   F   0.1102649  -0.4337156  -0.1157480 SPIN=   0.00000
   F  -0.3897351   0.4337156   0.1157480 SPIN=   0.00000
   F   0.1102917   0.2982391   0.3457226 SPIN=   0.00000
   F  -0.3897083  -0.2982391  -0.3457226 SPIN=   0.00000
%ENDBLOCK POSITIONS_FRAC

# Note: total spin =  16.00

KPOINTS_MP_SPACING 0.07

%BLOCK SPECIES_POT
QC5
%ENDBLOCK SPECIES_POT

SNAP_TO_SYMMETRY
SYMMETRY_GENERATE

