#              Generated by Buildcell
#
# at 08:41:11 (GMT+1.0) 4th August 2020
# in /lustre/scratch/uccabz1/launch_tmp
# on node-c12f-036
# by uccabz1
#
# compiler GCC version 4.9.2
# options -cpp -iprefix /lustre/shared/ucl/apps/gcc/4.9.2/bin/../lib/gcc/x86_64-unknown-linux-gnu/4.9.2/ -mtune=corei7 -march=x86-64 -g -Og
#
# seed -1897527429  -243290892 -1436408632 -1119754135 -1934943602  2016451803  1756165595   319920722   297132667  1715826532 -1320999651  1281546420
#
#      Author: C. J. Pickard (cjp20@cam.ac.uk)
#                Space group: P21/c
#

%BLOCK LATTICE_ABC
      6.14739      7.27103      9.52243
    109.98574     90.00000     90.00000
%ENDBLOCK LATTICE_ABC

%BLOCK POSITIONS_FRAC
  Li   0.3945407   0.4067724   0.1609148 SPIN=   0.00000
  Li  -0.1054593   0.0932276  -0.1609148 SPIN=   0.00000
  Li  -0.3945407  -0.4067724  -0.1609148 SPIN=   0.00000
  Li   0.1054593  -0.0932276   0.1609148 SPIN=   0.00000
  Fe  -0.4766429   0.2382906   0.3930560 SPIN=   4.00000
  Fe   0.0233571  -0.7382906  -0.3930560 SPIN=   4.00000
  Fe   0.4766429  -0.2382906  -0.3930560 SPIN=   4.00000
  Fe  -0.0233571   0.7382906   0.3930560 SPIN=   4.00000
   O  -0.2185249  -0.1248519   0.2702219 SPIN=   0.00000
   O  -0.2721225  -0.1678475   0.0032697 SPIN=   0.00000
   O  -0.5819887  -0.0713189   0.1792380 SPIN=   0.00000
   O  -0.4309432  -0.4063238   0.1076187 SPIN=   0.00000
   S  -0.3758948  -0.1925855   0.1400871 SPIN=   0.00000
   O   0.2814751  -0.3751481  -0.2702219 SPIN=   0.00000
   O   0.2278775  -0.3321525  -0.0032697 SPIN=   0.00000
   O  -0.0819887  -0.4286811  -0.1792380 SPIN=   0.00000
   O   0.0690568  -0.0936762  -0.1076187 SPIN=   0.00000
   S   0.1241052  -0.3074145  -0.1400871 SPIN=   0.00000
   O   0.2185249   0.1248519  -0.2702219 SPIN=   0.00000
   O   0.2721225   0.1678475  -0.0032697 SPIN=   0.00000
   O   0.5819887   0.0713189  -0.1792380 SPIN=   0.00000
   O   0.4309432   0.4063238  -0.1076187 SPIN=   0.00000
   S   0.3758948   0.1925855  -0.1400871 SPIN=   0.00000
   O  -0.2814751   0.3751481   0.2702219 SPIN=   0.00000
   O  -0.2278775   0.3321525   0.0032697 SPIN=   0.00000
   O   0.0819887   0.4286811   0.1792380 SPIN=   0.00000
   O  -0.0690568   0.0936762   0.1076187 SPIN=   0.00000
   S  -0.1241052   0.3074145   0.1400871 SPIN=   0.00000
   F   0.2499673   0.0868158   0.4434867 SPIN=   0.00000
   F  -0.2500327  -0.5868158  -0.4434867 SPIN=   0.00000
   F  -0.2499673  -0.0868158  -0.4434867 SPIN=   0.00000
   F   0.2500327   0.5868158   0.4434867 SPIN=   0.00000
%ENDBLOCK POSITIONS_FRAC

# Note: total spin =  16.00

KPOINTS_MP_SPACING 0.07

%BLOCK SPECIES_POT
QC5
%ENDBLOCK SPECIES_POT

SNAP_TO_SYMMETRY
SYMMETRY_GENERATE

