#              Generated by Buildcell
#
# at 08:21:45 (GMT+1.0) 4th August 2020
# in /lustre/scratch/uccabz1/launch_tmp
# on node-c12n-018
# by uccabz1
#
# compiler GCC version 4.9.2
# options -cpp -iprefix /lustre/shared/ucl/apps/gcc/4.9.2/bin/../lib/gcc/x86_64-unknown-linux-gnu/4.9.2/ -mtune=corei7 -march=x86-64 -g -Og
#
# seed  1141214343  1673861686 -2097114246    57303690  1980723285  1935786075  -488127961  1778075906 -1040069533 -1781293179  -649842701  -832492246
#
#      Author: C. J. Pickard (cjp20@cam.ac.uk)
#                Space group: P212121
#

%BLOCK LATTICE_ABC
      4.30739      7.23432     12.83653
     90.00000     90.00000     90.00000
%ENDBLOCK LATTICE_ABC

%BLOCK POSITIONS_FRAC
  Li  -0.4096053   0.2228615  -0.1273926 SPIN=   0.00000
  Li   0.0903947   0.2771385   0.1273926 SPIN=   0.00000
  Li  -0.0903947  -0.2228615   0.3726074 SPIN=   0.00000
  Li   0.4096053  -0.2771385  -0.3726074 SPIN=   0.00000
  Fe  -0.1287737   0.2035495   0.3535580 SPIN=   4.00000
  Fe   0.3712263   0.2964505  -0.3535580 SPIN=   4.00000
  Fe  -0.3712263  -0.2035495  -0.1464420 SPIN=   4.00000
  Fe   0.1287737  -0.2964505   0.1464420 SPIN=   4.00000
   O   0.2806285  -0.6401607   0.4861852 SPIN=   0.00000
   O   0.2556689  -0.4902989   0.3130718 SPIN=   0.00000
   O   0.7170011  -0.4456841   0.4252112 SPIN=   0.00000
   O   0.2163109  -0.3010005   0.4731211 SPIN=   0.00000
   S   0.3674023  -0.4692861   0.4243973 SPIN=   0.00000
   O  -0.2193715   0.1401607  -0.4861852 SPIN=   0.00000
   O  -0.2443311  -0.0097011  -0.3130718 SPIN=   0.00000
   O   0.2170011  -0.0543159  -0.4252112 SPIN=   0.00000
   O  -0.2836891  -0.1989995  -0.4731211 SPIN=   0.00000
   S  -0.1325977  -0.0307139  -0.4243973 SPIN=   0.00000
   O   0.2193715   0.6401607  -0.0138148 SPIN=   0.00000
   O   0.2443311   0.4902989  -0.1869282 SPIN=   0.00000
   O  -0.2170011   0.4456841  -0.0747888 SPIN=   0.00000
   O   0.2836891   0.3010005  -0.0268789 SPIN=   0.00000
   S   0.1325977   0.4692861  -0.0756027 SPIN=   0.00000
   O  -0.2806285  -0.1401607   0.0138148 SPIN=   0.00000
   O  -0.2556689   0.0097011   0.1869282 SPIN=   0.00000
   O  -0.7170011   0.0543159   0.0747888 SPIN=   0.00000
   O  -0.2163109   0.1989995   0.0268789 SPIN=   0.00000
   S  -0.3674023   0.0307139   0.0756027 SPIN=   0.00000
   F  -0.2566340  -0.4918206  -0.3241412 SPIN=   0.00000
   F   0.2433660  -0.0081794   0.3241412 SPIN=   0.00000
   F  -0.2433660   0.4918206   0.1758588 SPIN=   0.00000
   F   0.2566340   0.0081794  -0.1758588 SPIN=   0.00000
%ENDBLOCK POSITIONS_FRAC

# Note: total spin =  16.00

KPOINTS_MP_SPACING 0.07

%BLOCK SPECIES_POT
QC5
%ENDBLOCK SPECIES_POT

SNAP_TO_SYMMETRY
SYMMETRY_GENERATE

