#              Generated by Buildcell
#
# at 07:17:58 (GMT+1.0) 4th August 2020
# in /lustre/scratch/uccabz1/launch_tmp
# on node-c12i-007
# by uccabz1
#
# compiler GCC version 4.9.2
# options -cpp -iprefix /lustre/shared/ucl/apps/gcc/4.9.2/bin/../lib/gcc/x86_64-unknown-linux-gnu/4.9.2/ -mtune=corei7 -march=x86-64 -g -Og
#
# seed -1773356415 -1555074016   447447233 -1748733138 -1210807616 -1735344726 -1060999102 -1589116507 -1773390330  1104824720  1526343473  -173130744
#
#      Author: C. J. Pickard (cjp20@cam.ac.uk)
#                Space group: Cc
#

%BLOCK LATTICE_ABC
      7.41228      7.66215      7.66215
     82.98331     73.58765     73.58765
%ENDBLOCK LATTICE_ABC

%BLOCK POSITIONS_FRAC
  Li  -0.4847210  -0.3055660  -0.4922468 SPIN=   0.00000
  Li   0.0152790  -0.4922468  -0.3055660 SPIN=   0.00000
  Li   0.0163558   0.0810778  -0.0118137 SPIN=   0.00000
  Li  -0.4836442  -0.0118137   0.0810778 SPIN=   0.00000
  Fe   0.3352695   0.1530452  -0.3148277 SPIN=   4.22040
  Fe  -0.1647305  -0.3148277   0.1530452 SPIN=   4.22040
  Fe   0.3665588  -0.2830592  -0.0313788 SPIN=   3.77960
  Fe  -0.1334412  -0.0313788  -0.2830592 SPIN=   3.77960
   O  -0.4416247   0.2588940   0.4013881 SPIN=   0.00000
   O  -0.3975988  -0.0736481   0.4025645 SPIN=   0.00000
   O  -0.1138143   0.0480758   0.3718238 SPIN=   0.00000
   O  -0.2703928   0.0939103   0.1181772 SPIN=   0.00000
   S  -0.3058577   0.0818080   0.3234884 SPIN=   0.00000
   O   0.0583753   0.4013881   0.2588940 SPIN=   0.00000
   O   0.1024012   0.4025645  -0.0736481 SPIN=   0.00000
   O   0.3861857   0.3718238   0.0480758 SPIN=   0.00000
   O   0.2296072   0.1181772   0.0939103 SPIN=   0.00000
   S   0.1941423   0.3234884   0.0818080 SPIN=   0.00000
   O   0.2211289  -0.2830696   0.5713289 SPIN=   0.00000
   O   0.2722248  -0.4795905   0.3189667 SPIN=   0.00000
   O   0.2009167  -0.1448153   0.2658745 SPIN=   0.00000
   O  -0.0567574  -0.2858654   0.4541028 SPIN=   0.00000
   S   0.1593783  -0.2983352   0.4025682 SPIN=   0.00000
   O  -0.2788711   0.5713289  -0.2830696 SPIN=   0.00000
   O  -0.2277752   0.3189667  -0.4795905 SPIN=   0.00000
   O  -0.2990833   0.2658745  -0.1448153 SPIN=   0.00000
   O  -0.5567574   0.4541028  -0.2858654 SPIN=   0.00000
   S  -0.3406217   0.4025682  -0.2983352 SPIN=   0.00000
   F  -0.4335386  -0.0259748  -0.1999312 SPIN=   0.00000
   F   0.0664614  -0.1999312  -0.0259748 SPIN=   0.00000
   F  -0.3453309  -0.4769151   0.1284870 SPIN=   0.00000
   F   0.1546691   0.1284870  -0.4769151 SPIN=   0.00000
%ENDBLOCK POSITIONS_FRAC

# Note: total spin =  16.00

KPOINTS_MP_SPACING 0.07

%BLOCK SPECIES_POT
QC5
%ENDBLOCK SPECIES_POT

SNAP_TO_SYMMETRY
SYMMETRY_GENERATE

