#              Generated by Buildcell
#
# at 03:06:42 (GMT+1.0) 18th August 2020
# in /lustre/scratch/uccabz1/launch_tmp
# on node-c12k-019
# by uccabz1
#
# compiler GCC version 4.9.2
# options -cpp -iprefix /lustre/shared/ucl/apps/gcc/4.9.2/bin/../lib/gcc/x86_64-unknown-linux-gnu/4.9.2/ -mtune=corei7 -march=x86-64 -g -Og
#
# seed -1581439087 -1796004080  -136942305 -1473954682  1820154335  -686435129  -583308267  2027578233  -643549418 -1503484628 -1927693881  -501401877
#
#      Author: C. J. Pickard (cjp20@cam.ac.uk)
#                Space group: Ama2
#

%BLOCK LATTICE_ABC
      4.06359      6.67259     15.48763
     90.00000     90.00000    107.72803
%ENDBLOCK LATTICE_ABC

%BLOCK POSITIONS_FRAC
  Li   0.4693682  -0.0612636  -0.0000000 SPIN=   0.00000
  Li   0.4693682  -0.0612636   0.5000000 SPIN=   0.00000
  Li   0.1972994   0.3945987  -0.0000000 SPIN=   0.00000
  Li   0.1972994   0.3945987   0.5000000 SPIN=   0.00000
  Fe  -0.0761382  -0.2639595   0.1332975 SPIN=   4.00000
  Fe  -0.1878212  -0.2639595  -0.1332975 SPIN=   4.00000
  Fe  -0.1878212  -0.2639595  -0.3667025 SPIN=   4.00000
  Fe  -0.0761382  -0.2639595   0.3667025 SPIN=   4.00000
   O   0.0554399   0.4142031   0.3705707 SPIN=   0.00000
   O  -0.5263097   0.2368648   0.4297440 SPIN=   0.00000
   O  -0.1026015   0.0400312   0.4141505 SPIN=   0.00000
   S  -0.2353501   0.2084807   0.3747022 SPIN=   0.00000
   O   0.3587632   0.4142031  -0.3705707 SPIN=   0.00000
   O   0.7631745   0.2368648  -0.4297440 SPIN=   0.00000
   O   0.1426328   0.0400312  -0.4141505 SPIN=   0.00000
   S   0.4438309   0.2084807  -0.3747022 SPIN=   0.00000
   O   0.3587632   0.4142031  -0.1294293 SPIN=   0.00000
   O   0.7631745   0.2368648  -0.0702560 SPIN=   0.00000
   O   0.1426328   0.0400312  -0.0858495 SPIN=   0.00000
   S   0.4438309   0.2084807  -0.1252978 SPIN=   0.00000
   O   0.0554399   0.4142031   0.1294293 SPIN=   0.00000
   O  -0.5263097   0.2368648   0.0702560 SPIN=   0.00000
   O  -0.1026015   0.0400312   0.0858495 SPIN=   0.00000
   S  -0.2353501   0.2084807   0.1252978 SPIN=   0.00000
   O   0.0407263  -0.0417780   0.2500000 SPIN=   0.00000
   O  -0.0825043  -0.0417780  -0.2500000 SPIN=   0.00000
   O  -0.4907641   0.1485427  -0.2500000 SPIN=   0.00000
   O  -0.3606932   0.1485427   0.2500000 SPIN=   0.00000
   F  -0.1564290  -0.3128581  -0.0000000 SPIN=   0.00000
   F  -0.1564290  -0.3128581   0.5000000 SPIN=   0.00000
   F   0.1433141  -0.3743738  -0.2500000 SPIN=   0.00000
   F   0.4823121  -0.3743738   0.2500000 SPIN=   0.00000
%ENDBLOCK POSITIONS_FRAC

# Note: total spin =  16.00

KPOINTS_MP_SPACING 0.07

%BLOCK SPECIES_POT
QC5
%ENDBLOCK SPECIES_POT

SNAP_TO_SYMMETRY
SYMMETRY_GENERATE

