#              Generated by Buildcell
#
# at 07:47:54 (GMT+1.0) 18th August 2020
# in /lustre/scratch/uccabz1/launch_tmp
# on node-c12l-006
# by uccabz1
#
# compiler GCC version 4.9.2
# options -cpp -iprefix /lustre/shared/ucl/apps/gcc/4.9.2/bin/../lib/gcc/x86_64-unknown-linux-gnu/4.9.2/ -mtune=corei7 -march=x86-64 -g -Og
#
# seed   158208318  1541201687   394090585    19900429  -746570836  1701841870  1798321718  1316884816  1631838217 -1079677024 -1195871960 -1376382535
#
#      Author: C. J. Pickard (cjp20@cam.ac.uk)
#                Space group: P2/c
#

%BLOCK LATTICE_ABC
      5.75256      8.32606      8.38400
     95.05464     90.00000     90.00000
%ENDBLOCK LATTICE_ABC

%BLOCK POSITIONS_FRAC
  Li  -0.2557693  -0.3107981  -0.4590991 SPIN=   0.00000
  Li  -0.2557693  -0.1892019  -0.0409009 SPIN=   0.00000
  Li   0.2557693   0.3107981   0.4590991 SPIN=   0.00000
  Li   0.2557693   0.1892019   0.0409009 SPIN=   0.00000
  Fe  -0.1251302  -0.0260656   0.2933531 SPIN=   4.00000
  Fe  -0.1251302  -0.4739344   0.2066469 SPIN=   4.00000
  Fe   0.1251302   0.0260656  -0.2933531 SPIN=   4.00000
  Fe   0.1251302   0.4739344  -0.2066469 SPIN=   4.00000
   O   0.2797141  -0.4625696   0.5809195 SPIN=   0.00000
   O   0.2975092  -0.1658143   0.5783986 SPIN=   0.00000
   O   0.0330287  -0.3250348   0.3930086 SPIN=   0.00000
   O   0.4585992  -0.3412557   0.3513872 SPIN=   0.00000
   S   0.2672128  -0.3236686   0.4759285 SPIN=   0.00000
   O   0.2797141  -0.0374304  -0.0809195 SPIN=   0.00000
   O   0.2975092  -0.3341857  -0.0783986 SPIN=   0.00000
   O   0.0330287  -0.1749652   0.1069914 SPIN=   0.00000
   O   0.4585992  -0.1587443   0.1486128 SPIN=   0.00000
   S   0.2672128  -0.1763314   0.0240715 SPIN=   0.00000
   O  -0.2797141   0.4625696  -0.5809195 SPIN=   0.00000
   O  -0.2975092   0.1658143  -0.5783986 SPIN=   0.00000
   O  -0.0330287   0.3250348  -0.3930086 SPIN=   0.00000
   O  -0.4585992   0.3412557  -0.3513872 SPIN=   0.00000
   S  -0.2672128   0.3236686  -0.4759285 SPIN=   0.00000
   O  -0.2797141   0.0374304   0.0809195 SPIN=   0.00000
   O  -0.2975092   0.3341857   0.0783986 SPIN=   0.00000
   O  -0.0330287   0.1749652  -0.1069914 SPIN=   0.00000
   O  -0.4585992   0.1587443  -0.1486128 SPIN=   0.00000
   S  -0.2672128   0.1763314  -0.0240715 SPIN=   0.00000
   F  -0.2355987  -0.4152691  -0.1167010 SPIN=   0.00000
   F  -0.2355987  -0.0847309  -0.3832990 SPIN=   0.00000
   F   0.2355987   0.4152691   0.1167010 SPIN=   0.00000
   F   0.2355987   0.0847309   0.3832990 SPIN=   0.00000
%ENDBLOCK POSITIONS_FRAC

# Note: total spin =  16.00

KPOINTS_MP_SPACING 0.07

%BLOCK SPECIES_POT
QC5
%ENDBLOCK SPECIES_POT

SNAP_TO_SYMMETRY
SYMMETRY_GENERATE

