#              Generated by Buildcell
#
# at 02:01:29 (GMT+1.0) 18th August 2020
# in /lustre/scratch/uccabz1/launch_tmp
# on node-c12j-002
# by uccabz1
#
# compiler GCC version 4.9.2
# options -cpp -iprefix /lustre/shared/ucl/apps/gcc/4.9.2/bin/../lib/gcc/x86_64-unknown-linux-gnu/4.9.2/ -mtune=corei7 -march=x86-64 -g -Og
#
# seed -1782124235  2065380378  1121098667  1821648390   645809110 -1232073448    -3686500   648647054  -450085868 -1678861164   274104283 -1087679153
#
#      Author: C. J. Pickard (cjp20@cam.ac.uk)
#                Space group: Pc
#

%BLOCK LATTICE_ABC
      5.77249      7.65571      9.05140
     90.00000     90.26431     90.00000
%ENDBLOCK LATTICE_ABC

%BLOCK POSITIONS_FRAC
  Li  -0.0287318   0.4280413   0.2156198 SPIN=   0.00000
  Li  -0.0287318  -0.4280413  -0.2843802 SPIN=   0.00000
  Li  -0.4074462   0.1887638  -0.1687180 SPIN=   0.00000
  Li  -0.4074462  -0.1887638   0.3312820 SPIN=   0.00000
  Fe  -0.4512733  -0.4208601   0.0596333 SPIN=   1.74852
  Fe  -0.4512733   0.4208601  -0.4403667 SPIN=   1.74852
  Fe   0.0941197  -0.2671230   0.4169842 SPIN=   6.25148
  Fe   0.0941197   0.2671230  -0.0830158 SPIN=   6.25148
   O  -0.4478944  -0.1449588   0.0722058 SPIN=   0.00000
   O  -0.3313505   0.1448123   0.1682977 SPIN=   0.00000
   O  -0.1675865   0.0356978  -0.0664569 SPIN=   0.00000
   O  -0.0516630  -0.1001946   0.1707061 SPIN=   0.00000
   S  -0.2496236  -0.0161608   0.0861882 SPIN=   0.00000
   O  -0.4478944   0.1449588  -0.4277942 SPIN=   0.00000
   O  -0.3313505  -0.1448123  -0.3317023 SPIN=   0.00000
   O  -0.1675865  -0.0356978  -0.5664569 SPIN=   0.00000
   O  -0.0516630   0.1001946  -0.3292939 SPIN=   0.00000
   S  -0.2496236   0.0161608  -0.4138118 SPIN=   0.00000
   O   0.3736820   0.0090849   0.3851896 SPIN=   0.00000
   O   0.4172016   0.3241004   0.3305493 SPIN=   0.00000
   O   0.0438309   0.2103629   0.4233056 SPIN=   0.00000
   O   0.1715175   0.1386367   0.1698120 SPIN=   0.00000
   S   0.2515580   0.1705462   0.3272142 SPIN=   0.00000
   O   0.3736820  -0.0090849  -0.1148104 SPIN=   0.00000
   O   0.4172016  -0.3241004  -0.1694507 SPIN=   0.00000
   O   0.0438309  -0.2103629  -0.0766944 SPIN=   0.00000
   O   0.1715175  -0.1386367  -0.3301880 SPIN=   0.00000
   S   0.2515580  -0.1705462  -0.1727858 SPIN=   0.00000
   F  -0.2647241   0.3991321  -0.0740878 SPIN=   0.00000
   F  -0.2647241  -0.3991321   0.4259122 SPIN=   0.00000
   F   0.2171253   0.4002206  -0.3397116 SPIN=   0.00000
   F   0.2171253  -0.4002206   0.1602884 SPIN=   0.00000
%ENDBLOCK POSITIONS_FRAC

# Note: total spin =  16.00

KPOINTS_MP_SPACING 0.07

%BLOCK SPECIES_POT
QC5
%ENDBLOCK SPECIES_POT

SNAP_TO_SYMMETRY
SYMMETRY_GENERATE

