#              Generated by Buildcell
#
# at 03:05:00 (GMT+1.0) 18th August 2020
# in /lustre/scratch/uccabz1/launch_tmp
# on node-c12p-024
# by uccabz1
#
# compiler GCC version 4.9.2
# options -cpp -iprefix /lustre/shared/ucl/apps/gcc/4.9.2/bin/../lib/gcc/x86_64-unknown-linux-gnu/4.9.2/ -mtune=corei7 -march=x86-64 -g -Og
#
# seed -2013261895  1871286110    45771715  1163032724 -1155869053  -198540654 -2001838905   677516060  -881576623  -251932721 -1594360249 -1318646682
#
#      Author: C. J. Pickard (cjp20@cam.ac.uk)
#                Space group: Cm
#

%BLOCK LATTICE_ABC
      4.14048     10.09913     10.09913
     73.90541     82.29875     82.29875
%ENDBLOCK LATTICE_ABC

%BLOCK POSITIONS_FRAC
  Li   0.4594297   0.0435565  -0.4340878 SPIN=   0.00000
  Li   0.4594297  -0.4340878   0.0435565 SPIN=   0.00000
  Li   0.2001506  -0.3002484   0.3775521 SPIN=   0.00000
  Li   0.2001506   0.3775521  -0.3002484 SPIN=   0.00000
  Fe  -0.3801906   0.2181429  -0.0818465 SPIN=   3.48134
  Fe  -0.3801906  -0.0818465   0.2181429 SPIN=   3.48134
  Fe   0.4755817  -0.1510086  -0.1510086 SPIN=   4.83749
  Fe  -0.0658704   0.2722100   0.2722100 SPIN=   4.19982
   O  -0.0871367  -0.1949966   0.4951991 SPIN=   0.00000
   O   0.3980486  -0.0640079   0.4146558 SPIN=   0.00000
   O  -0.0565292   0.0172864   0.5680170 SPIN=   0.00000
   O  -0.1347397   0.0344520   0.3249065 SPIN=   0.00000
   S   0.0299108  -0.0518165   0.4506946 SPIN=   0.00000
   O  -0.0871367   0.4951991  -0.1949966 SPIN=   0.00000
   O   0.3980486   0.4146558  -0.0640079 SPIN=   0.00000
   O  -0.0565292   0.5680170   0.0172864 SPIN=   0.00000
   O  -0.1347397   0.3249065   0.0344520 SPIN=   0.00000
   S   0.0299108   0.4506946  -0.0518165 SPIN=   0.00000
   O  -0.4024100  -0.3148832   0.1475121 SPIN=   0.00000
   O  -0.2636152  -0.3315697   0.3828410 SPIN=   0.00000
   O   0.1258261  -0.4382465   0.2242469 SPIN=   0.00000
   S  -0.2331543  -0.4062017   0.2699270 SPIN=   0.00000
   O  -0.4024100   0.1475121  -0.3148832 SPIN=   0.00000
   O  -0.2636152   0.3828410  -0.3315697 SPIN=   0.00000
   O   0.1258261   0.2242469  -0.4382465 SPIN=   0.00000
   S  -0.2331543   0.2699270  -0.4062017 SPIN=   0.00000
   O   0.0898597  -0.4993532  -0.4993532 SPIN=   0.00000
   O  -0.4300182  -0.0260494  -0.0260494 SPIN=   0.00000
   F  -0.4781370  -0.3660251  -0.3660251 SPIN=   0.00000
   F  -0.0179479  -0.1609867  -0.1609867 SPIN=   0.00000
   F   0.0111549   0.0657817   0.0657817 SPIN=   0.00000
   F   0.4376064   0.2668732   0.2668732 SPIN=   0.00000
%ENDBLOCK POSITIONS_FRAC

# Note: total spin =  16.00

KPOINTS_MP_SPACING 0.07

%BLOCK SPECIES_POT
QC5
%ENDBLOCK SPECIES_POT

SNAP_TO_SYMMETRY
SYMMETRY_GENERATE

