#              Generated by Buildcell
#
# at 12:37:11 (GMT+1.0) 18th August 2020
# in /lustre/scratch/uccabz1/launch_tmp
# on node-c12h-020
# by uccabz1
#
# compiler GCC version 4.9.2
# options -cpp -iprefix /lustre/shared/ucl/apps/gcc/4.9.2/bin/../lib/gcc/x86_64-unknown-linux-gnu/4.9.2/ -mtune=corei7 -march=x86-64 -g -Og
#
# seed   434948008   702081444 -1041614955  2074517228   764014659 -1480911953  1722656926 -1103210317 -1719411320   -68327204   195151153  -662830112
#
#      Author: C. J. Pickard (cjp20@cam.ac.uk)
#                Space group: P-4
#

%BLOCK LATTICE_ABC
      5.69011      5.69011     12.35434
     90.00000     90.00000     90.00000
%ENDBLOCK LATTICE_ABC

%BLOCK POSITIONS_FRAC
  Li  -0.2489504  -0.2377174   0.2328264 SPIN=   0.00000
  Li   0.2489504   0.2377174   0.2328264 SPIN=   0.00000
  Li   0.2377174  -0.2489504  -0.2328264 SPIN=   0.00000
  Li  -0.2377174   0.2489504  -0.2328264 SPIN=   0.00000
  Fe   0.2285625   0.2653962  -0.0976177 SPIN=   4.00000
  Fe  -0.2285625  -0.2653962  -0.0976177 SPIN=   4.00000
  Fe  -0.2653962   0.2285625   0.0976177 SPIN=   4.00000
  Fe   0.2653962  -0.2285625   0.0976177 SPIN=   4.00000
   O   0.5190499   0.2647578  -0.3525632 SPIN=   0.00000
   O   0.1165984   0.2824491  -0.2770294 SPIN=   0.00000
   O   0.2029520   0.0209261  -0.4320763 SPIN=   0.00000
   O   0.1994734   0.4523542  -0.4574433 SPIN=   0.00000
   S   0.2595184   0.2551218  -0.3797780 SPIN=   0.00000
   O  -0.5190499  -0.2647578  -0.3525632 SPIN=   0.00000
   O  -0.1165984  -0.2824491  -0.2770294 SPIN=   0.00000
   O  -0.2029520  -0.0209261  -0.4320763 SPIN=   0.00000
   O  -0.1994734  -0.4523542  -0.4574433 SPIN=   0.00000
   S  -0.2595184  -0.2551218  -0.3797780 SPIN=   0.00000
   O  -0.2647578   0.5190499   0.3525632 SPIN=   0.00000
   O  -0.2824491   0.1165984   0.2770294 SPIN=   0.00000
   O  -0.0209261   0.2029520   0.4320763 SPIN=   0.00000
   O  -0.4523542   0.1994734   0.4574433 SPIN=   0.00000
   S  -0.2551218   0.2595184   0.3797780 SPIN=   0.00000
   O   0.2647578  -0.5190499   0.3525632 SPIN=   0.00000
   O   0.2824491  -0.1165984   0.2770294 SPIN=   0.00000
   O   0.0209261  -0.2029520   0.4320763 SPIN=   0.00000
   O   0.4523542  -0.1994734   0.4574433 SPIN=   0.00000
   S   0.2551218  -0.2595184   0.3797780 SPIN=   0.00000
   F  -0.2192314   0.2809564  -0.0821695 SPIN=   0.00000
   F   0.2192314  -0.2809564  -0.0821695 SPIN=   0.00000
   F  -0.2809564  -0.2192314   0.0821695 SPIN=   0.00000
   F   0.2809564   0.2192314   0.0821695 SPIN=   0.00000
%ENDBLOCK POSITIONS_FRAC

# Note: total spin =  16.00

KPOINTS_MP_SPACING 0.07

%BLOCK SPECIES_POT
QC5
%ENDBLOCK SPECIES_POT

SNAP_TO_SYMMETRY
SYMMETRY_GENERATE

