#              Generated by Buildcell
#
# at 08:56:33 (GMT+1.0) 4th August 2020
# in /lustre/scratch/uccabz1/launch_tmp
# on node-c12d-012
# by uccabz1
#
# compiler GCC version 4.9.2
# options -cpp -iprefix /lustre/shared/ucl/apps/gcc/4.9.2/bin/../lib/gcc/x86_64-unknown-linux-gnu/4.9.2/ -mtune=corei7 -march=x86-64 -g -Og
#
# seed -1124892542  1862225635  1210336259 -1555458035   545266705  1170698642  -850748017   349664295  1368970751   844226882    22666050 -1311397809
#
#      Author: C. J. Pickard (cjp20@cam.ac.uk)
#                Space group: P42
#

%BLOCK LATTICE_ABC
      5.45799      8.56079      8.56079
     90.00000     90.00000     90.00000
%ENDBLOCK LATTICE_ABC

%BLOCK POSITIONS_FRAC
  Li   0.3050483   0.2066530   0.0062430 SPIN=   0.00000
  Li   0.3050483  -0.2066530  -0.0062430 SPIN=   0.00000
  Li  -0.1949517   0.0062430  -0.2066530 SPIN=   0.00000
  Li  -0.1949517  -0.0062430   0.2066530 SPIN=   0.00000
  Fe   0.2589109  -0.1374044   0.3241912 SPIN=   4.00000
  Fe   0.2589109   0.1374044  -0.3241912 SPIN=   4.00000
  Fe  -0.2410891   0.3241912   0.1374044 SPIN=   4.00000
  Fe  -0.2410891  -0.3241912  -0.1374044 SPIN=   4.00000
   O   0.0160405   0.2706709  -0.4500571 SPIN=   0.00000
   O  -0.4100468   0.3673159  -0.4710039 SPIN=   0.00000
   O  -0.3311795   0.0918270  -0.3992193 SPIN=   0.00000
   O  -0.2476982   0.1831097  -0.6683106 SPIN=   0.00000
   S  -0.2432210   0.2282309  -0.4971477 SPIN=   0.00000
   O   0.0160405  -0.2706709   0.4500571 SPIN=   0.00000
   O  -0.4100468  -0.3673159   0.4710039 SPIN=   0.00000
   O  -0.3311795  -0.0918270   0.3992193 SPIN=   0.00000
   O  -0.2476982  -0.1831097   0.6683106 SPIN=   0.00000
   S  -0.2432210  -0.2282309   0.4971477 SPIN=   0.00000
   O   0.5160405  -0.4500571  -0.2706709 SPIN=   0.00000
   O   0.0899532  -0.4710039  -0.3673159 SPIN=   0.00000
   O   0.1688205  -0.3992193  -0.0918270 SPIN=   0.00000
   O   0.2523018  -0.6683106  -0.1831097 SPIN=   0.00000
   S   0.2567790  -0.4971477  -0.2282309 SPIN=   0.00000
   O   0.5160405   0.4500571   0.2706709 SPIN=   0.00000
   O   0.0899532   0.4710039   0.3673159 SPIN=   0.00000
   O   0.1688205   0.3992193   0.0918270 SPIN=   0.00000
   O   0.2523018   0.6683106   0.1831097 SPIN=   0.00000
   S   0.2567790   0.4971477   0.2282309 SPIN=   0.00000
   F   0.1748961  -0.0688118  -0.2006296 SPIN=   0.00000
   F   0.1748961   0.0688118   0.2006296 SPIN=   0.00000
   F  -0.3251039  -0.2006296   0.0688118 SPIN=   0.00000
   F  -0.3251039   0.2006296  -0.0688118 SPIN=   0.00000
%ENDBLOCK POSITIONS_FRAC

# Note: total spin =  16.00

KPOINTS_MP_SPACING 0.07

%BLOCK SPECIES_POT
QC5
%ENDBLOCK SPECIES_POT

SNAP_TO_SYMMETRY
SYMMETRY_GENERATE

