#              Generated by Buildcell
#
# at 09:52:12 (GMT+1.0) 4th August 2020
# in /lustre/scratch/uccabz1/launch_tmp
# on node-c12f-028
# by uccabz1
#
# compiler GCC version 4.9.2
# options -cpp -iprefix /lustre/shared/ucl/apps/gcc/4.9.2/bin/../lib/gcc/x86_64-unknown-linux-gnu/4.9.2/ -mtune=corei7 -march=x86-64 -g -Og
#
# seed  2008091108 -1043919307 -1753852497   -64134870  -836335066   226518990  -186613248 -2064945451 -1639336130  -686744351  -995999755   587738309
#
#      Author: C. J. Pickard (cjp20@cam.ac.uk)
#                Space group: P21
#

%BLOCK LATTICE_ABC
      5.38460      8.45676      8.78654
     91.31876     90.00000     90.00000
%ENDBLOCK LATTICE_ABC

%BLOCK POSITIONS_FRAC
  Li  -0.4984525   0.3371011   0.0127965 SPIN=   0.00000
  Li   0.0015475  -0.3371011  -0.0127965 SPIN=   0.00000
  Li  -0.2716104  -0.2870276  -0.4359800 SPIN=   0.00000
  Li   0.2283896   0.2870276   0.4359800 SPIN=   0.00000
  Fe  -0.3707668   0.0671913   0.3052259 SPIN=   7.48292
  Fe   0.1292332  -0.0671913  -0.3052259 SPIN=   7.48292
  Fe  -0.3079911   0.2612604  -0.3229714 SPIN=   0.51708
  Fe   0.1920089  -0.2612604   0.3229714 SPIN=   0.51708
   O  -0.2502343  -0.2402720  -0.2129505 SPIN=   0.00000
   O  -0.2824705  -0.1572867   0.0582754 SPIN=   0.00000
   O  -0.6505232  -0.1422345  -0.1094769 SPIN=   0.00000
   O  -0.2997895   0.0429890  -0.1424396 SPIN=   0.00000
   S  -0.3707544  -0.1242010  -0.1016479 SPIN=   0.00000
   O   0.2497657   0.2402720   0.2129505 SPIN=   0.00000
   O   0.2175295   0.1572867  -0.0582754 SPIN=   0.00000
   O  -0.1505232   0.1422345   0.1094769 SPIN=   0.00000
   O   0.2002105  -0.0429890   0.1424396 SPIN=   0.00000
   S   0.1292456   0.1242010   0.1016479 SPIN=   0.00000
   O   0.0671084  -0.5768306  -0.3849055 SPIN=   0.00000
   O   0.2286448  -0.3118623  -0.4463705 SPIN=   0.00000
   O   0.5183197  -0.5229453  -0.3699874 SPIN=   0.00000
   O   0.2331761  -0.4010505  -0.1800859 SPIN=   0.00000
   S   0.2618123  -0.4531722  -0.3453373 SPIN=   0.00000
   O  -0.4328916   0.5768306   0.3849055 SPIN=   0.00000
   O  -0.2713552   0.3118623   0.4463705 SPIN=   0.00000
   O   0.0183197   0.5229453   0.3699874 SPIN=   0.00000
   O  -0.2668239   0.4010505   0.1800859 SPIN=   0.00000
   S  -0.2381877   0.4531722   0.3453373 SPIN=   0.00000
   F  -0.2078521   0.3784229  -0.1283210 SPIN=   0.00000
   F   0.2921479  -0.3784229   0.1283210 SPIN=   0.00000
   F  -0.2077327  -0.1338703   0.3836780 SPIN=   0.00000
   F   0.2922673   0.1338703  -0.3836780 SPIN=   0.00000
%ENDBLOCK POSITIONS_FRAC

# Note: total spin =  16.00

KPOINTS_MP_SPACING 0.07

%BLOCK SPECIES_POT
QC5
%ENDBLOCK SPECIES_POT

SNAP_TO_SYMMETRY
SYMMETRY_GENERATE

