#              Generated by Buildcell
#
# at 23:45:11 (GMT+1.0) 17th August 2020
# in /scratch/scratch/uccabz1/launch_tmp
# on node-k10b-027
# by uccabz1
#
# compiler GCC version 4.9.2
# options -cpp -iprefix /scratch/UCL/applications/gcc/4.9.2/bin/../lib/gcc/x86_64-unknown-linux-gnu/4.9.2/ -mtune=corei7 -march=x86-64 -g -O2
#
# seed -1625003454   936527326   -35715317   967650511   534600966  -896606172 -1609795600    87844200  1927683692 -1265575964  1698885712     -161158
#
#      Author: C. J. Pickard (cjp20@cam.ac.uk)
#                Space group: Pc
#

%BLOCK LATTICE_ABC
      7.11690      7.47136      7.52298
     90.00000     90.55021     90.00000
%ENDBLOCK LATTICE_ABC

%BLOCK POSITIONS_FRAC
  Li  -0.0570567  -0.0991602  -0.1617931 SPIN=   0.00000
  Li   0.4429433   0.0991602  -0.1617931 SPIN=   0.00000
  Li   0.3883190  -0.3280901   0.1269344 SPIN=   0.00000
  Li  -0.1116810   0.3280901   0.1269344 SPIN=   0.00000
  Fe   0.0799139   0.0502974   0.3322721 SPIN=   2.12300
  Fe  -0.4200861  -0.0502974   0.3322721 SPIN=   2.12300
  Fe   0.3035958  -0.2546678  -0.2630507 SPIN=   5.87700
  Fe  -0.1964042   0.2546678  -0.2630507 SPIN=   5.87700
   O   0.1094018  -0.3267917   0.3829489 SPIN=   0.00000
   O  -0.2317404  -0.2690071   0.4079155 SPIN=   0.00000
   O  -0.0368822  -0.3075670   0.6794635 SPIN=   0.00000
   O  -0.1032335  -0.5672820   0.4845525 SPIN=   0.00000
   S  -0.0656136  -0.3676619   0.4887201 SPIN=   0.00000
   O   0.6094018   0.3267917   0.3829489 SPIN=   0.00000
   O   0.2682596   0.2690071   0.4079155 SPIN=   0.00000
   O   0.4631178   0.3075670   0.6794635 SPIN=   0.00000
   O   0.3967665   0.5672820   0.4845525 SPIN=   0.00000
   S   0.4343864   0.3676619   0.4887201 SPIN=   0.00000
   O   0.1962082   0.4874927   0.1410771 SPIN=   0.00000
   O   0.1212536   0.1897665   0.0148230 SPIN=   0.00000
   O   0.4430554   0.3122696  -0.0096957 SPIN=   0.00000
   O   0.1826391   0.4457685  -0.1851487 SPIN=   0.00000
   S   0.2357891   0.3588243  -0.0097361 SPIN=   0.00000
   O  -0.3037918  -0.4874927   0.1410771 SPIN=   0.00000
   O  -0.3787464  -0.1897665   0.0148230 SPIN=   0.00000
   O  -0.0569446  -0.3122696  -0.0096957 SPIN=   0.00000
   O  -0.3173609  -0.4457685  -0.1851487 SPIN=   0.00000
   S  -0.2642109  -0.3588243  -0.0097361 SPIN=   0.00000
   F  -0.0055939   0.1224295  -0.3907403 SPIN=   0.00000
   F   0.4944061  -0.1224295  -0.3907403 SPIN=   0.00000
   F  -0.2952627   0.1224813   0.1295394 SPIN=   0.00000
   F   0.2047373  -0.1224813   0.1295394 SPIN=   0.00000
%ENDBLOCK POSITIONS_FRAC

# Note: total spin =  16.00

KPOINTS_MP_SPACING 0.07

%BLOCK SPECIES_POT
QC5
%ENDBLOCK SPECIES_POT

SNAP_TO_SYMMETRY
SYMMETRY_GENERATE

