#              Generated by Buildcell
#
# at 23:54:09 (GMT+1.0) 17th August 2020
# in /lustre/scratch/uccabz1/launch_tmp
# on node-c12i-030
# by uccabz1
#
# compiler GCC version 4.9.2
# options -cpp -iprefix /lustre/shared/ucl/apps/gcc/4.9.2/bin/../lib/gcc/x86_64-unknown-linux-gnu/4.9.2/ -mtune=corei7 -march=x86-64 -g -Og
#
# seed  1424749173   447391870   391845613  -471919215 -1802993329  1376010587 -1452734252   782385468  -265633556 -1760533321 -1641675718  1164860848
#
#      Author: C. J. Pickard (cjp20@cam.ac.uk)
#                Space group: C2
#

%BLOCK LATTICE_ABC
      3.91817     10.26940     10.26940
     88.70698     79.70647     79.70647
%ENDBLOCK LATTICE_ABC

%BLOCK POSITIONS_FRAC
  Li  -0.3702603  -0.0024102   0.2422530 SPIN=   0.00000
  Li   0.3702603  -0.2422530   0.0024102 SPIN=   0.00000
  Li   0.2688565   0.0341157  -0.3631802 SPIN=   0.00000
  Li  -0.2688565   0.3631802  -0.0341157 SPIN=   0.00000
  Fe  -0.4919068  -0.4735942   0.2219721 SPIN=   6.93411
  Fe   0.4919068  -0.2219721   0.4735942 SPIN=   6.93411
  Fe   0.0000000   0.0405077  -0.0405077 SPIN=   1.09305
  Fe   0.5000000   0.2854583  -0.2854583 SPIN=   1.03873
   O  -0.2201608  -0.3972810  -0.0294446 SPIN=   0.00000
   O   0.1934918  -0.5835290  -0.1512328 SPIN=   0.00000
   O   0.3262153  -0.4943776   0.0523580 SPIN=   0.00000
   O   0.3589641  -0.3618820  -0.1523714 SPIN=   0.00000
   S   0.1646276  -0.4592674  -0.0701727 SPIN=   0.00000
   O   0.2201608   0.0294446   0.3972810 SPIN=   0.00000
   O  -0.1934918   0.1512328   0.5835290 SPIN=   0.00000
   O  -0.3262153  -0.0523580   0.4943776 SPIN=   0.00000
   O  -0.3589641   0.1523714   0.3618820 SPIN=   0.00000
   S  -0.1646276   0.0701727   0.4592674 SPIN=   0.00000
   O   0.3309351   0.3219731   0.2718887 SPIN=   0.00000
   O   0.7397394   0.1861872   0.0937937 SPIN=   0.00000
   O   0.1667751   0.3085728   0.0514171 SPIN=   0.00000
   O   0.1854639   0.1139140   0.1982068 SPIN=   0.00000
   S   0.3557284   0.2326618   0.1538266 SPIN=   0.00000
   O  -0.3309351  -0.2718887  -0.3219731 SPIN=   0.00000
   O  -0.7397394  -0.0937937  -0.1861872 SPIN=   0.00000
   O  -0.1667751  -0.0514171  -0.3085728 SPIN=   0.00000
   O  -0.1854639  -0.1982068  -0.1139140 SPIN=   0.00000
   S  -0.3557284  -0.1538266  -0.2326618 SPIN=   0.00000
   F  -0.5000000   0.4368762  -0.4368762 SPIN=   0.00000
   F   0.0000000   0.1917393  -0.1917393 SPIN=   0.00000
   F   0.0000000  -0.1107350   0.1107350 SPIN=   0.00000
   F   0.0000000  -0.3574162   0.3574162 SPIN=   0.00000
%ENDBLOCK POSITIONS_FRAC

# Note: total spin =  16.00

KPOINTS_MP_SPACING 0.07

%BLOCK SPECIES_POT
QC5
%ENDBLOCK SPECIES_POT

SNAP_TO_SYMMETRY
SYMMETRY_GENERATE

