#              Generated by Buildcell
#
# at 08:24:29 (GMT+1.0) 18th August 2020
# in /scratch/scratch/uccabz1/launch_tmp
# on node-k10i-027
# by uccabz1
#
# compiler GCC version 4.9.2
# options -cpp -iprefix /scratch/UCL/applications/gcc/4.9.2/bin/../lib/gcc/x86_64-unknown-linux-gnu/4.9.2/ -mtune=corei7 -march=x86-64 -g -O2
#
# seed    40348480 -2044306951   192712942  1262919369  1058395534  1396876292 -1429562821   337939551  1374900105   -79099111  1044667099  -295470591
#
#      Author: C. J. Pickard (cjp20@cam.ac.uk)
#                Space group: P222
#

%BLOCK LATTICE_ABC
      6.22475      6.42852      9.99602
     90.00000     90.00000     90.00000
%ENDBLOCK LATTICE_ABC

%BLOCK POSITIONS_FRAC
  Li   0.2499266  -0.2450782   0.0980569 SPIN=   0.00000
  Li  -0.2499266   0.2450782   0.0980569 SPIN=   0.00000
  Li   0.2499266   0.2450782  -0.0980569 SPIN=   0.00000
  Li  -0.2499266  -0.2450782  -0.0980569 SPIN=   0.00000
  Fe   0.2251986   0.2014143   0.2950716 SPIN=   4.00000
  Fe  -0.2251986  -0.2014143   0.2950716 SPIN=   4.00000
  Fe   0.2251986  -0.2014143  -0.2950716 SPIN=   4.00000
  Fe  -0.2251986   0.2014143  -0.2950716 SPIN=   4.00000
   O  -0.4794292  -0.1706203  -0.3901565 SPIN=   0.00000
   O  -0.1083809  -0.1400282  -0.3034219 SPIN=   0.00000
   O  -0.1773392  -0.3289236  -0.5148394 SPIN=   0.00000
   O  -0.2940463  -0.4803912  -0.2991353 SPIN=   0.00000
   S  -0.2647989  -0.2799908  -0.3768883 SPIN=   0.00000
   O   0.4794292   0.1706203  -0.3901565 SPIN=   0.00000
   O   0.1083809   0.1400282  -0.3034219 SPIN=   0.00000
   O   0.1773392   0.3289236  -0.5148394 SPIN=   0.00000
   O   0.2940463   0.4803912  -0.2991353 SPIN=   0.00000
   S   0.2647989   0.2799908  -0.3768883 SPIN=   0.00000
   O  -0.4794292   0.1706203   0.3901565 SPIN=   0.00000
   O  -0.1083809   0.1400282   0.3034219 SPIN=   0.00000
   O  -0.1773392   0.3289236   0.5148394 SPIN=   0.00000
   O  -0.2940463   0.4803912   0.2991353 SPIN=   0.00000
   S  -0.2647989   0.2799908   0.3768883 SPIN=   0.00000
   O   0.4794292  -0.1706203   0.3901565 SPIN=   0.00000
   O   0.1083809  -0.1400282   0.3034219 SPIN=   0.00000
   O   0.1773392  -0.3289236   0.5148394 SPIN=   0.00000
   O   0.2940463  -0.4803912   0.2991353 SPIN=   0.00000
   S   0.2647989  -0.2799908   0.3768883 SPIN=   0.00000
   F  -0.2502353   0.2540385  -0.1123867 SPIN=   0.00000
   F   0.2502353  -0.2540385  -0.1123867 SPIN=   0.00000
   F  -0.2502353  -0.2540385   0.1123867 SPIN=   0.00000
   F   0.2502353   0.2540385   0.1123867 SPIN=   0.00000
%ENDBLOCK POSITIONS_FRAC

# Note: total spin =  16.00

KPOINTS_MP_SPACING 0.07

%BLOCK SPECIES_POT
QC5
%ENDBLOCK SPECIES_POT

SNAP_TO_SYMMETRY
SYMMETRY_GENERATE

