#              Generated by Buildcell
#
# at 06:28:55 (GMT+1.0) 4th August 2020
# in /lustre/scratch/uccabz1/launch_tmp
# on node-c12l-030
# by uccabz1
#
# compiler GCC version 4.9.2
# options -cpp -iprefix /lustre/shared/ucl/apps/gcc/4.9.2/bin/../lib/gcc/x86_64-unknown-linux-gnu/4.9.2/ -mtune=corei7 -march=x86-64 -g -Og
#
# seed -1962795480  -431917021 -1765568213  2054912032   986262433  -292863808  1285637408   229486598  1745391301  1611982211  -787962835   -32473624
#
#      Author: C. J. Pickard (cjp20@cam.ac.uk)
#                Space group: Pc
#

%BLOCK LATTICE_ABC
      6.11520      7.61031      8.88714
     90.00000     90.00000    104.73063
%ENDBLOCK LATTICE_ABC

%BLOCK POSITIONS_FRAC
  Li   0.3674544  -0.3068128  -0.3394600 SPIN=   0.00000
  Li  -0.1325456   0.1931872   0.3394600 SPIN=   0.00000
  Li   0.4670100   0.4767753   0.0273281 SPIN=   0.00000
  Li  -0.0329900  -0.0232247  -0.0273281 SPIN=   0.00000
  Fe   0.3098670   0.2035931  -0.2456886 SPIN=   4.15444
  Fe  -0.1901330  -0.2964069   0.2456886 SPIN=   4.15444
  Fe  -0.1683259  -0.4769755  -0.3809206 SPIN=   3.84556
  Fe   0.3316741   0.0230245   0.3809206 SPIN=   3.84556
   O   0.5716763  -0.1675715   0.1886166 SPIN=   0.00000
   O   0.2515155  -0.0920423   0.0559961 SPIN=   0.00000
   O   0.5239629  -0.2195647  -0.0856703 SPIN=   0.00000
   O   0.6418781   0.0940703   0.0139119 SPIN=   0.00000
   S   0.4972582  -0.0962770   0.0432136 SPIN=   0.00000
   O   0.0716763   0.3324285  -0.1886166 SPIN=   0.00000
   O  -0.2484845   0.4079577  -0.0559961 SPIN=   0.00000
   O   0.0239629   0.2804353   0.0856703 SPIN=   0.00000
   O   0.1418781   0.5940703  -0.0139119 SPIN=   0.00000
   S  -0.0027418   0.4037230  -0.0432136 SPIN=   0.00000
   O  -0.2112211   0.2531344  -0.4183340 SPIN=   0.00000
   O  -0.5109412   0.0087281  -0.3035973 SPIN=   0.00000
   O  -0.1085089   0.0284283  -0.2491812 SPIN=   0.00000
   O  -0.2647211  -0.0651458  -0.5020756 SPIN=   0.00000
   S  -0.2738481   0.0562862  -0.3682970 SPIN=   0.00000
   O   0.2887789  -0.2468656   0.4183340 SPIN=   0.00000
   O  -0.0109412  -0.4912719   0.3035973 SPIN=   0.00000
   O   0.3914911  -0.4715717   0.2491812 SPIN=   0.00000
   O   0.2352789  -0.5651458   0.5020756 SPIN=   0.00000
   S   0.2261519  -0.4437138   0.3682970 SPIN=   0.00000
   F  -0.4730765  -0.4834466  -0.2756984 SPIN=   0.00000
   F   0.0269235   0.0165534   0.2756984 SPIN=   0.00000
   F   0.0947146  -0.2308331  -0.3018099 SPIN=   0.00000
   F  -0.4052854   0.2691669   0.3018099 SPIN=   0.00000
%ENDBLOCK POSITIONS_FRAC

# Note: total spin =  16.00

KPOINTS_MP_SPACING 0.07

%BLOCK SPECIES_POT
QC5
%ENDBLOCK SPECIES_POT

SNAP_TO_SYMMETRY
SYMMETRY_GENERATE

