#              Generated by Buildcell
#
# at 16:09:09 (GMT+1.0) 18th August 2020
# in /lustre/scratch/uccabz1/launch_tmp
# on node-c12p-008
# by uccabz1
#
# compiler GCC version 4.9.2
# options -cpp -iprefix /lustre/shared/ucl/apps/gcc/4.9.2/bin/../lib/gcc/x86_64-unknown-linux-gnu/4.9.2/ -mtune=corei7 -march=x86-64 -g -Og
#
# seed  1258062260 -1858600793  1328920249  2093929902   817525497  1744086448  -340735459  -976368855  1163043300  -426588891   511634565  1555343110
#
#      Author: C. J. Pickard (cjp20@cam.ac.uk)
#                Space group: C2
#

%BLOCK LATTICE_ABC
      7.72786      7.82051      7.82051
     82.62065     66.94821     66.94821
%ENDBLOCK LATTICE_ABC

%BLOCK POSITIONS_FRAC
  Li  -0.2446123   0.3881494  -0.3778348 SPIN=   0.00000
  Li   0.2446123   0.3778348  -0.3881494 SPIN=   0.00000
  Li  -0.0686677  -0.1202885  -0.3905663 SPIN=   0.00000
  Li   0.0686677   0.3905663   0.1202885 SPIN=   0.00000
  Fe   0.3052872  -0.3638888  -0.1712735 SPIN=   2.32811
  Fe  -0.3052872   0.1712735   0.3638888 SPIN=   2.32811
  Fe  -0.2989694  -0.2892629   0.3570762 SPIN=   5.67189
  Fe   0.2989694  -0.3570762   0.2892629 SPIN=   5.67189
   O   0.0668771   0.1262121   0.6443519 SPIN=   0.00000
   O   0.4133570   0.1227525   0.4695650 SPIN=   0.00000
   O   0.1672266   0.2136513   0.3143226 SPIN=   0.00000
   O   0.3113881  -0.1138377   0.3971820 SPIN=   0.00000
   S   0.2397122   0.0871946   0.4563553 SPIN=   0.00000
   O  -0.0668771  -0.6443519  -0.1262121 SPIN=   0.00000
   O  -0.4133570  -0.4695650  -0.1227525 SPIN=   0.00000
   O  -0.1672266  -0.3143226  -0.2136513 SPIN=   0.00000
   O  -0.3113881  -0.3971820   0.1138377 SPIN=   0.00000
   S  -0.2397122  -0.4563553  -0.0871946 SPIN=   0.00000
   O  -0.0206521  -0.0554468  -0.1186360 SPIN=   0.00000
   O  -0.3131394   0.2428568  -0.0164012 SPIN=   0.00000
   O  -0.3278438  -0.0430977   0.1552864 SPIN=   0.00000
   O  -0.3381441  -0.0063368  -0.1600689 SPIN=   0.00000
   S  -0.2499449   0.0344939  -0.0349549 SPIN=   0.00000
   O   0.0206521   0.1186360   0.0554468 SPIN=   0.00000
   O   0.3131394   0.0164012  -0.2428568 SPIN=   0.00000
   O   0.3278438  -0.1552864   0.0430977 SPIN=   0.00000
   O   0.3381441   0.1600689   0.0063368 SPIN=   0.00000
   S   0.2499449   0.0349549  -0.0344939 SPIN=   0.00000
   F  -0.2145662   0.3882160   0.3675644 SPIN=   0.00000
   F   0.2145662  -0.3675644  -0.3882160 SPIN=   0.00000
   F   0.2634837   0.4910289   0.1118770 SPIN=   0.00000
   F  -0.2634837  -0.1118770  -0.4910289 SPIN=   0.00000
%ENDBLOCK POSITIONS_FRAC

# Note: total spin =  16.00

KPOINTS_MP_SPACING 0.07

%BLOCK SPECIES_POT
QC5
%ENDBLOCK SPECIES_POT

SNAP_TO_SYMMETRY
SYMMETRY_GENERATE

