#              Generated by Buildcell
#
# at 13:12:17 (GMT+1.0) 18th August 2020
# in /scratch/scratch/uccabz1/launch_tmp
# on node-k10b-027
# by uccabz1
#
# compiler GCC version 4.9.2
# options -cpp -iprefix /scratch/UCL/applications/gcc/4.9.2/bin/../lib/gcc/x86_64-unknown-linux-gnu/4.9.2/ -mtune=corei7 -march=x86-64 -g -O2
#
# seed  -370440631   -21893859   444705748  -852089514  1338047413   316710573  2065256755  -502423929  -269187417  -888487155  1126324584  -151935692
#
#      Author: C. J. Pickard (cjp20@cam.ac.uk)
#                Space group: P-1
#

%BLOCK LATTICE_ABC
      4.13550      7.49294     12.96425
     87.65545     85.29069     89.08102
%ENDBLOCK LATTICE_ABC

%BLOCK POSITIONS_FRAC
  Li  -0.2650940   0.3248077  -0.4187241 SPIN=   0.00000
  Li   0.2650940  -0.3248077   0.4187241 SPIN=   0.00000
  Li   0.1845501   0.1620300   0.1633669 SPIN=   0.00000
  Li  -0.1845501  -0.1620300  -0.1633669 SPIN=   0.00000
  Fe  -0.3045975  -0.1123775   0.1504557 SPIN=   4.90384
  Fe   0.3045975   0.1123775  -0.1504557 SPIN=   4.90384
  Fe  -0.2525794  -0.0635140  -0.3817063 SPIN=   3.09616
  Fe   0.2525794   0.0635140   0.3817063 SPIN=   3.09616
   O   0.2529820  -0.0752857   0.0004057 SPIN=   0.00000
   O  -0.1054875  -0.3315435  -0.0177042 SPIN=   0.00000
   O   0.3891825  -0.3727371   0.0763354 SPIN=   0.00000
   O   0.4363941  -0.3198548  -0.1139630 SPIN=   0.00000
   S   0.2432678  -0.2748553  -0.0137315 SPIN=   0.00000
   O  -0.2529820   0.0752857  -0.0004057 SPIN=   0.00000
   O   0.1054875   0.3315435   0.0177042 SPIN=   0.00000
   O  -0.3891825   0.3727371  -0.0763354 SPIN=   0.00000
   O  -0.4363941   0.3198548   0.1139630 SPIN=   0.00000
   S  -0.2432678   0.2748553   0.0137315 SPIN=   0.00000
   O  -0.0738592  -0.6526988   0.2457673 SPIN=   0.00000
   O  -0.2758793  -0.4887917   0.4005232 SPIN=   0.00000
   O  -0.5968104  -0.4871212   0.2475368 SPIN=   0.00000
   O  -0.0810869  -0.3221064   0.2391971 SPIN=   0.00000
   S  -0.2569089  -0.4876795   0.2832561 SPIN=   0.00000
   O   0.0738592   0.6526988  -0.2457673 SPIN=   0.00000
   O   0.2758793   0.4887917  -0.4005232 SPIN=   0.00000
   O   0.5968104   0.4871212  -0.2475368 SPIN=   0.00000
   O   0.0810869   0.3221064  -0.2391971 SPIN=   0.00000
   S   0.2569089   0.4876795  -0.2832561 SPIN=   0.00000
   F  -0.2377042   0.0151210   0.2655039 SPIN=   0.00000
   F   0.2377042  -0.0151210  -0.2655039 SPIN=   0.00000
   F  -0.2013499  -0.2451705  -0.4736642 SPIN=   0.00000
   F   0.2013499   0.2451705   0.4736642 SPIN=   0.00000
%ENDBLOCK POSITIONS_FRAC

# Note: total spin =  16.00

KPOINTS_MP_SPACING 0.07

%BLOCK SPECIES_POT
QC5
%ENDBLOCK SPECIES_POT

SNAP_TO_SYMMETRY
SYMMETRY_GENERATE

