#              Generated by Buildcell
#
# at 12:05:57 (GMT+1.0) 18th August 2020
# in /lustre/scratch/uccabz1/launch_tmp
# on node-c12h-020
# by uccabz1
#
# compiler GCC version 4.9.2
# options -cpp -iprefix /lustre/shared/ucl/apps/gcc/4.9.2/bin/../lib/gcc/x86_64-unknown-linux-gnu/4.9.2/ -mtune=corei7 -march=x86-64 -g -Og
#
# seed  -840921998   231746738  1033312401  1358283942  -958479785 -1017127303 -1278240620 -1147618625 -1122656949  -965106653   694582256  -844591081
#
#      Author: C. J. Pickard (cjp20@cam.ac.uk)
#                Space group: P-1
#

%BLOCK LATTICE_ABC
      6.37221      8.00854      8.88606
     64.05202     79.06841     87.39315
%ENDBLOCK LATTICE_ABC

%BLOCK POSITIONS_FRAC
  Li   0.3235396   0.0113268  -0.1672639 SPIN=   0.00000
  Li  -0.3235396  -0.0113268   0.1672639 SPIN=   0.00000
  Li  -0.2855344  -0.4904565   0.1322647 SPIN=   0.00000
  Li   0.2855344   0.4904565  -0.1322647 SPIN=   0.00000
  Fe  -0.2168258  -0.8281223   0.4452156 SPIN=   4.38297
  Fe   0.2168258   0.8281223  -0.4452156 SPIN=   4.38297
  Fe   0.2486391   0.3632399  -0.4653731 SPIN=   3.61703
  Fe  -0.2486391  -0.3632399   0.4653731 SPIN=   3.61703
   O  -0.1492589  -0.1716434   0.0538847 SPIN=   0.00000
   O   0.2047001  -0.1505077   0.1220268 SPIN=   0.00000
   O   0.1656241  -0.2994809  -0.0639505 SPIN=   0.00000
   O   0.0098689  -0.4553205   0.2440051 SPIN=   0.00000
   S   0.0577335  -0.2692381   0.0889915 SPIN=   0.00000
   O   0.1492589   0.1716434  -0.0538847 SPIN=   0.00000
   O  -0.2047001   0.1505077  -0.1220268 SPIN=   0.00000
   O  -0.1656241   0.2994809   0.0639505 SPIN=   0.00000
   O  -0.0098689   0.4553205  -0.2440051 SPIN=   0.00000
   S  -0.0577335   0.2692381  -0.0889915 SPIN=   0.00000
   O  -0.4678486  -0.3034386  -0.2906121 SPIN=   0.00000
   O  -0.1308867  -0.2794510  -0.1999682 SPIN=   0.00000
   O  -0.4791840  -0.2959996  -0.0136792 SPIN=   0.00000
   O  -0.3673764  -0.0128170  -0.2828254 SPIN=   0.00000
   S  -0.3613239  -0.2229266  -0.1967712 SPIN=   0.00000
   O   0.4678486   0.3034386   0.2906121 SPIN=   0.00000
   O   0.1308867   0.2794510   0.1999682 SPIN=   0.00000
   O   0.4791840   0.2959996   0.0136792 SPIN=   0.00000
   O   0.3673764   0.0128170   0.2828254 SPIN=   0.00000
   S   0.3613239   0.2229266   0.1967712 SPIN=   0.00000
   F  -0.4945410  -0.3186262   0.2903033 SPIN=   0.00000
   F   0.4945410   0.3186262  -0.2903033 SPIN=   0.00000
   F   0.1501724   0.0274645  -0.3571891 SPIN=   0.00000
   F  -0.1501724  -0.0274645   0.3571891 SPIN=   0.00000
%ENDBLOCK POSITIONS_FRAC

# Note: total spin =  16.00

KPOINTS_MP_SPACING 0.07

%BLOCK SPECIES_POT
QC5
%ENDBLOCK SPECIES_POT

SNAP_TO_SYMMETRY
SYMMETRY_GENERATE

