#              Generated by Buildcell
#
# at 07:19:08 (GMT+1.0) 4th August 2020
# in /lustre/scratch/uccabz1/launch_tmp
# on node-c12c-034
# by uccabz1
#
# compiler GCC version 4.9.2
# options -cpp -iprefix /lustre/shared/ucl/apps/gcc/4.9.2/bin/../lib/gcc/x86_64-unknown-linux-gnu/4.9.2/ -mtune=corei7 -march=x86-64 -g -Og
#
# seed   918531698 -1433356799  1961185643  -640396462  1505470622   424718459    52080831 -1853431547 -1323896526 -1027431716  1392852383 -1659874646
#
#      Author: C. J. Pickard (cjp20@cam.ac.uk)
#                Space group: Aea2
#

%BLOCK LATTICE_ABC
      7.25165      7.69829      8.12255
     90.00000     90.00000    118.09863
%ENDBLOCK LATTICE_ABC

%BLOCK POSITIONS_FRAC
  Li   0.1800954   0.1512442  -0.3182111 SPIN=   0.00000
  Li   0.0288512  -0.1512442   0.3182111 SPIN=   0.00000
  Li  -0.4711488  -0.1512442   0.1817889 SPIN=   0.00000
  Li  -0.3199046   0.1512442  -0.1817889 SPIN=   0.00000
  Fe  -0.4448037   0.4662096  -0.1159189 SPIN=   4.00000
  Fe   0.0889867  -0.4662096   0.1159189 SPIN=   4.00000
  Fe  -0.4110133  -0.4662096   0.3840811 SPIN=   4.00000
  Fe   0.0551963   0.4662096  -0.3840811 SPIN=   4.00000
   O  -0.4721169   0.1466280   0.4278943 SPIN=   0.00000
   O  -0.3161682   0.2135801   0.1490605 SPIN=   0.00000
   O  -0.2112536   0.0382943   0.3535273 SPIN=   0.00000
   O  -0.1011441   0.3929856   0.3895199 SPIN=   0.00000
   S  -0.2751707   0.1978720   0.3300005 SPIN=   0.00000
   O  -0.6187449  -0.1466280  -0.4278943 SPIN=   0.00000
   O  -0.5297483  -0.2135801  -0.1490605 SPIN=   0.00000
   O  -0.2495479  -0.0382943  -0.3535273 SPIN=   0.00000
   O  -0.4941296  -0.3929856  -0.3895199 SPIN=   0.00000
   S  -0.4730427  -0.1978720  -0.3300005 SPIN=   0.00000
   O  -0.1187449  -0.1466280  -0.0721057 SPIN=   0.00000
   O  -0.0297483  -0.2135801  -0.3509395 SPIN=   0.00000
   O   0.2504521  -0.0382943  -0.1464727 SPIN=   0.00000
   O   0.0058704  -0.3929856  -0.1104801 SPIN=   0.00000
   S   0.0269573  -0.1978720  -0.1699995 SPIN=   0.00000
   O   0.0278831   0.1466280   0.0721057 SPIN=   0.00000
   O   0.1838318   0.2135801   0.3509395 SPIN=   0.00000
   O   0.2887464   0.0382943   0.1464727 SPIN=   0.00000
   O   0.3988559   0.3929856   0.1104801 SPIN=   0.00000
   S   0.2248293   0.1978720   0.1699995 SPIN=   0.00000
   F   0.1908701  -0.2815231   0.2995491 SPIN=   0.00000
   F   0.4723932   0.2815231  -0.2995491 SPIN=   0.00000
   F  -0.0276068   0.2815231  -0.2004509 SPIN=   0.00000
   F  -0.3091299  -0.2815231   0.2004509 SPIN=   0.00000
%ENDBLOCK POSITIONS_FRAC

# Note: total spin =  16.00

KPOINTS_MP_SPACING 0.07

%BLOCK SPECIES_POT
QC5
%ENDBLOCK SPECIES_POT

SNAP_TO_SYMMETRY
SYMMETRY_GENERATE

