#              Generated by Buildcell
#
# at 16:15:16 (GMT+1.0) 18th August 2020
# in /scratch/scratch/uccabz1/launch_tmp
# on node-k10d-030
# by uccabz1
#
# compiler GCC version 4.9.2
# options -cpp -iprefix /scratch/UCL/applications/gcc/4.9.2/bin/../lib/gcc/x86_64-unknown-linux-gnu/4.9.2/ -mtune=corei7 -march=x86-64 -g -O2
#
# seed  -723849226 -1945715565  1815676848  1957614826  -388774013  1061145503     8810684  2000882778 -2001177097   415329410 -1200113261  1118472954
#
#      Author: C. J. Pickard (cjp20@cam.ac.uk)
#                Space group: C2
#

%BLOCK LATTICE_ABC
      7.91571      7.91571      8.19860
     63.05763     63.05763     68.63879
%ENDBLOCK LATTICE_ABC

%BLOCK POSITIONS_FRAC
  Li   0.3208598  -0.0448164  -0.4661005 SPIN=   0.00000
  Li   0.0448164  -0.3208598   0.4661005 SPIN=   0.00000
  Li   0.3504756   0.0609050   0.0017376 SPIN=   0.00000
  Li  -0.0609050  -0.3504756  -0.0017376 SPIN=   0.00000
  Fe   0.2724204   0.2869429  -0.3666858 SPIN=   4.89821
  Fe  -0.2869429  -0.2724204   0.3666858 SPIN=   4.89821
  Fe  -0.1976123   0.1644248  -0.2092080 SPIN=   3.10179
  Fe  -0.1644248   0.1976123   0.2092080 SPIN=   3.10179
   O   0.3457493  -0.6612993  -0.1824750 SPIN=   0.00000
   O   0.2755561  -0.4029135  -0.0565024 SPIN=   0.00000
   O   0.4319141  -0.3434847  -0.4109802 SPIN=   0.00000
   O   0.6138752  -0.5655981  -0.1884169 SPIN=   0.00000
   S   0.4167737  -0.4933239  -0.2095936 SPIN=   0.00000
   O   0.6612993  -0.3457493   0.1824750 SPIN=   0.00000
   O   0.4029135  -0.2755561   0.0565024 SPIN=   0.00000
   O   0.3434847  -0.4319141   0.4109802 SPIN=   0.00000
   O   0.5655981  -0.6138752   0.1884169 SPIN=   0.00000
   S   0.4933239  -0.4167737   0.2095936 SPIN=   0.00000
   O  -0.3072278  -0.2629133  -0.3659715 SPIN=   0.00000
   O  -0.3252709  -0.1275519  -0.1379520 SPIN=   0.00000
   O  -0.5802407  -0.0003139  -0.2835283 SPIN=   0.00000
   O  -0.2517500   0.0683182  -0.4891014 SPIN=   0.00000
   S  -0.3661223  -0.0806152  -0.3191383 SPIN=   0.00000
   O   0.2629133   0.3072278   0.3659715 SPIN=   0.00000
   O   0.1275519   0.3252709   0.1379520 SPIN=   0.00000
   O   0.0003139   0.5802407   0.2835283 SPIN=   0.00000
   O  -0.0683182   0.2517500   0.4891014 SPIN=   0.00000
   S   0.0806152   0.3661223   0.3191383 SPIN=   0.00000
   F  -0.4308246   0.0126617   0.2360963 SPIN=   0.00000
   F  -0.0126617   0.4308246  -0.2360963 SPIN=   0.00000
   F   0.0202525  -0.0932016  -0.1867447 SPIN=   0.00000
   F   0.0932016  -0.0202525   0.1867447 SPIN=   0.00000
%ENDBLOCK POSITIONS_FRAC

# Note: total spin =  16.00

KPOINTS_MP_SPACING 0.07

%BLOCK SPECIES_POT
QC5
%ENDBLOCK SPECIES_POT

SNAP_TO_SYMMETRY
SYMMETRY_GENERATE

