#              Generated by Buildcell
#
# at 06:58:57 (GMT+1.0) 4th August 2020
# in /lustre/scratch/uccabz1/launch_tmp
# on node-c12a-004
# by uccabz1
#
# compiler GCC version 4.9.2
# options -cpp -iprefix /lustre/shared/ucl/apps/gcc/4.9.2/bin/../lib/gcc/x86_64-unknown-linux-gnu/4.9.2/ -mtune=corei7 -march=x86-64 -g -Og
#
# seed   -51248527 -1386772663  -301046024   883338148  1906364648 -1324443261 -1227172598  1720904476 -1396085802   277832236 -1441041272 -1324415556
#
#      Author: C. J. Pickard (cjp20@cam.ac.uk)
#                Space group: Cc
#

%BLOCK LATTICE_ABC
      7.79583      7.79947      7.79947
    104.40657    107.53276    107.53276
%ENDBLOCK LATTICE_ABC

%BLOCK POSITIONS_FRAC
  Li   0.3587576   0.3903585  -0.0256361 SPIN=   0.00000
  Li  -0.1412424  -0.0256361   0.3903585 SPIN=   0.00000
  Li   0.0746721  -0.2952748  -0.2799715 SPIN=   0.00000
  Li  -0.4253279  -0.2799715  -0.2952748 SPIN=   0.00000
  Fe   0.4662713  -0.1827141   0.0477810 SPIN=   5.11747
  Fe  -0.0337287   0.0477810  -0.1827141 SPIN=   5.11747
  Fe  -0.3137496  -0.4352363   0.3770999 SPIN=   2.88253
  Fe   0.1862504   0.3770999  -0.4352363 SPIN=   2.88253
   O  -0.3138326   0.3716994  -0.0768500 SPIN=   0.00000
   O  -0.2768026   0.0673142  -0.0777904 SPIN=   0.00000
   O  -0.5113293   0.1550278   0.0408512 SPIN=   0.00000
   O  -0.1523722   0.3405848   0.2329494 SPIN=   0.00000
   S  -0.3135842   0.2336565   0.0297901 SPIN=   0.00000
   O   0.1861674  -0.0768500   0.3716994 SPIN=   0.00000
   O   0.2231974  -0.0777904   0.0673142 SPIN=   0.00000
   O  -0.0113293   0.0408512   0.1550278 SPIN=   0.00000
   O   0.3476278   0.2329494   0.3405848 SPIN=   0.00000
   S   0.1864158   0.0297901   0.2336565 SPIN=   0.00000
   O   0.1588718  -0.6616157   0.1543058 SPIN=   0.00000
   O   0.1148480  -0.3847642   0.3435673 SPIN=   0.00000
   O   0.2273175  -0.3627275   0.0819086 SPIN=   0.00000
   O   0.4499053  -0.3610570   0.3859015 SPIN=   0.00000
   S   0.2377357  -0.4425411   0.2414208 SPIN=   0.00000
   O  -0.3411282   0.1543058  -0.6616157 SPIN=   0.00000
   O  -0.3851520   0.3435673  -0.3847642 SPIN=   0.00000
   O  -0.2726825   0.0819086  -0.3627275 SPIN=   0.00000
   O  -0.0500947   0.3859015  -0.3610570 SPIN=   0.00000
   S  -0.2622643   0.2414208  -0.4425411 SPIN=   0.00000
   F   0.2217726   0.2044346  -0.2853428 SPIN=   0.00000
   F  -0.2782274  -0.2853428   0.2044346 SPIN=   0.00000
   F   0.3377793  -0.2508278  -0.2444661 SPIN=   0.00000
   F  -0.1622207  -0.2444661  -0.2508278 SPIN=   0.00000
%ENDBLOCK POSITIONS_FRAC

# Note: total spin =  16.00

KPOINTS_MP_SPACING 0.07

%BLOCK SPECIES_POT
QC5
%ENDBLOCK SPECIES_POT

SNAP_TO_SYMMETRY
SYMMETRY_GENERATE

