#              Generated by Buildcell
#
# at 08:15:39 (GMT+1.0) 4th August 2020
# in /lustre/scratch/uccabz1/launch_tmp
# on node-c12p-027
# by uccabz1
#
# compiler GCC version 4.9.2
# options -cpp -iprefix /lustre/shared/ucl/apps/gcc/4.9.2/bin/../lib/gcc/x86_64-unknown-linux-gnu/4.9.2/ -mtune=corei7 -march=x86-64 -g -Og
#
# seed   678103985 -1705104109  2038871348  -338316414  1600310746 -1278718181  -435285606 -1128516454  -559691952  1072275339   770845251 -1658489077
#
#      Author: C. J. Pickard (cjp20@cam.ac.uk)
#                Space group: Ccc2
#

%BLOCK LATTICE_ABC
      6.49379      6.49379      9.66033
     90.00000     90.00000    100.91449
%ENDBLOCK LATTICE_ABC

%BLOCK POSITIONS_FRAC
  Li  -0.5000000  -0.5000000  -0.2060401 SPIN=   0.00000
  Li   0.5000000   0.5000000   0.2939599 SPIN=   0.00000
  Li  -0.5000000   0.0000000   0.0963432 SPIN=   0.00000
  Li   1.0000000   0.5000000  -0.4036568 SPIN=   0.00000
  Fe  -0.5000000   0.0000000  -0.2512482 SPIN=   1.62418
  Fe   0.0000000  -0.5000000   0.2487518 SPIN=   1.62418
  Fe   0.0000000   0.0000000   0.0908240 SPIN=   6.37582
  Fe  -0.0000000  -0.0000000  -0.4091760 SPIN=   6.37582
   O  -0.6825617  -0.5036796   0.4907341 SPIN=   0.00000
   O  -0.7730857  -0.1853520   0.5966123 SPIN=   0.00000
   O  -0.7790231  -0.2265825   0.3418756 SPIN=   0.00000
   O  -0.4405229  -0.1619752   0.4672268 SPIN=   0.00000
   S  -0.6687984  -0.2693973   0.4741122 SPIN=   0.00000
   O   0.6825617   0.5036796   0.4907341 SPIN=   0.00000
   O   0.7730857   0.1853520   0.5966123 SPIN=   0.00000
   O   0.7790231   0.2265825   0.3418756 SPIN=   0.00000
   O   0.4405229   0.1619752   0.4672268 SPIN=   0.00000
   S   0.6687984   0.2693973   0.4741122 SPIN=   0.00000
   O   0.4963204   0.3174383  -0.0092659 SPIN=   0.00000
   O   0.8146480   0.2269143   0.0966123 SPIN=   0.00000
   O   0.7734175   0.2209769  -0.1581244 SPIN=   0.00000
   O   0.8380248   0.5594771  -0.0327732 SPIN=   0.00000
   S   0.7306027   0.3312016  -0.0258878 SPIN=   0.00000
   O  -0.4963204  -0.3174383  -0.0092659 SPIN=   0.00000
   O  -0.8146480  -0.2269143   0.0966123 SPIN=   0.00000
   O  -0.7734175  -0.2209769  -0.1581244 SPIN=   0.00000
   O  -0.8380248  -0.5594771  -0.0327732 SPIN=   0.00000
   S  -0.7306027  -0.3312016  -0.0258878 SPIN=   0.00000
   F   0.2659153   0.2131967  -0.2657108 SPIN=   0.00000
   F  -0.2659153  -0.2131967  -0.2657108 SPIN=   0.00000
   F   0.2131967   0.2659153   0.2342892 SPIN=   0.00000
   F  -0.2131967  -0.2659153   0.2342892 SPIN=   0.00000
%ENDBLOCK POSITIONS_FRAC

# Note: total spin =  16.00

KPOINTS_MP_SPACING 0.07

%BLOCK SPECIES_POT
QC5
%ENDBLOCK SPECIES_POT

SNAP_TO_SYMMETRY
SYMMETRY_GENERATE

