#              Generated by Buildcell
#
# at 23:55:15 (GMT+1.0) 17th August 2020
# in /scratch/scratch/uccabz1/launch_tmp
# on node-k10a-012
# by uccabz1
#
# compiler GCC version 4.9.2
# options -cpp -iprefix /scratch/UCL/applications/gcc/4.9.2/bin/../lib/gcc/x86_64-unknown-linux-gnu/4.9.2/ -mtune=corei7 -march=x86-64 -g -O2
#
# seed  1345720170 -1329908745  1042985306   590263523  -745028130 -1463428101   570084599  2062902528 -2136073706  1186424121 -1115538543  1445790140
#
#      Author: C. J. Pickard (cjp20@cam.ac.uk)
#                Space group: P2
#

%BLOCK LATTICE_ABC
      4.00766      9.39811     11.03877
    105.83024     90.00000     90.00000
%ENDBLOCK LATTICE_ABC

%BLOCK POSITIONS_FRAC
  Li   0.0899710  -0.2176865   0.2578524 SPIN=   0.00000
  Li   0.0899710   0.2176865  -0.2578524 SPIN=   0.00000
  Li   0.2094872  -0.2725272  -0.0976062 SPIN=   0.00000
  Li   0.2094872   0.2725272   0.0976062 SPIN=   0.00000
  Fe  -0.3926877  -0.4577981   0.1778653 SPIN=   3.54389
  Fe  -0.3926877   0.4577981  -0.1778653 SPIN=   3.54389
  Fe   0.1365487  -0.3257841  -0.3670909 SPIN=   4.45611
  Fe   0.1365487   0.3257841   0.3670909 SPIN=   4.45611
   O  -0.1637856  -0.1123379  -0.0740753 SPIN=   0.00000
   O  -0.6903965  -0.0129702  -0.1351868 SPIN=   0.00000
   O  -0.4246780  -0.2318603  -0.2799047 SPIN=   0.00000
   O  -0.1629435   0.0147933  -0.2430984 SPIN=   0.00000
   S  -0.3604509  -0.0855938  -0.1830663 SPIN=   0.00000
   O  -0.1637856   0.1123379   0.0740753 SPIN=   0.00000
   O  -0.6903965   0.0129702   0.1351868 SPIN=   0.00000
   O  -0.4246780   0.2318603   0.2799047 SPIN=   0.00000
   O  -0.1629435  -0.0147933   0.2430984 SPIN=   0.00000
   S  -0.3604509   0.0855938   0.1830663 SPIN=   0.00000
   O  -0.5206205  -0.3596394   0.4531579 SPIN=   0.00000
   O  -0.4204633  -0.1868426   0.3232582 SPIN=   0.00000
   O   0.0087937  -0.2193746   0.4746614 SPIN=   0.00000
   O  -0.5188812  -0.0895664   0.5523439 SPIN=   0.00000
   S  -0.3627928  -0.2138557   0.4508554 SPIN=   0.00000
   O  -0.5206205   0.3596394  -0.4531579 SPIN=   0.00000
   O  -0.4204633   0.1868426  -0.3232582 SPIN=   0.00000
   O   0.0087937   0.2193746  -0.4746614 SPIN=   0.00000
   O  -0.5188812   0.0895664  -0.5523439 SPIN=   0.00000
   S  -0.3627928   0.2138557  -0.4508554 SPIN=   0.00000
   F   0.0937301   0.4471182   0.2637001 SPIN=   0.00000
   F   0.0937301  -0.4471182  -0.2637001 SPIN=   0.00000
   F   0.3072333   0.3002409  -0.0757851 SPIN=   0.00000
   F   0.3072333  -0.3002409   0.0757851 SPIN=   0.00000
%ENDBLOCK POSITIONS_FRAC

# Note: total spin =  16.00

KPOINTS_MP_SPACING 0.07

%BLOCK SPECIES_POT
QC5
%ENDBLOCK SPECIES_POT

SNAP_TO_SYMMETRY
SYMMETRY_GENERATE

