#              Generated by Buildcell
#
# at 06:36:56 (GMT+1.0) 4th August 2020
# in /lustre/scratch/uccabz1/launch_tmp
# on node-c12d-006
# by uccabz1
#
# compiler GCC version 4.9.2
# options -cpp -iprefix /lustre/shared/ucl/apps/gcc/4.9.2/bin/../lib/gcc/x86_64-unknown-linux-gnu/4.9.2/ -mtune=corei7 -march=x86-64 -g -Og
#
# seed   277714325  -400514914  -218311748  1158888626  1825028833  1549441896  -998063691 -1693494584    79616349   744988050 -1223025399  -352406104
#
#      Author: C. J. Pickard (cjp20@cam.ac.uk)
#                Space group: Aea2
#

%BLOCK LATTICE_ABC
      6.77026      8.04737      8.37207
    118.72511     90.00000     90.00000
%ENDBLOCK LATTICE_ABC

%BLOCK POSITIONS_FRAC
  Li   0.2498204   0.4034037  -0.1197339 SPIN=   0.00000
  Li  -0.2498204  -0.4768624   0.1197339 SPIN=   0.00000
  Li  -0.2501796   0.0231376   0.1197339 SPIN=   0.00000
  Li   0.2501796  -0.0965963  -0.1197339 SPIN=   0.00000
  Fe   0.1821107  -0.1783820   0.1792912 SPIN=   4.00000
  Fe  -0.1821107  -0.3576732  -0.1792912 SPIN=   4.00000
  Fe  -0.3178893   0.1423268  -0.1792912 SPIN=   4.00000
  Fe   0.3178893   0.3216180   0.1792912 SPIN=   4.00000
   O   0.3765672   0.0159672  -0.3112117 SPIN=   0.00000
   O   0.1690879   0.1016052  -0.5040798 SPIN=   0.00000
   O   0.0494221   0.1643644  -0.2008196 SPIN=   0.00000
   O   0.0717811  -0.1652402  -0.4524253 SPIN=   0.00000
   S   0.1667146   0.0291741  -0.3671341 SPIN=   0.00000
   O  -0.3765672   0.3271789   0.3112117 SPIN=   0.00000
   O  -0.1690879   0.6056849   0.5040798 SPIN=   0.00000
   O  -0.0494221   0.3651841   0.2008196 SPIN=   0.00000
   O  -0.0717811   0.2871851   0.4524253 SPIN=   0.00000
   S  -0.1667146   0.3963082   0.3671341 SPIN=   0.00000
   O  -0.1234328  -0.1728211   0.3112117 SPIN=   0.00000
   O  -0.3309121   0.1056849   0.5040798 SPIN=   0.00000
   O  -0.4505779  -0.1348159   0.2008196 SPIN=   0.00000
   O  -0.4282189  -0.2128149   0.4524253 SPIN=   0.00000
   S  -0.3332854  -0.1036918   0.3671341 SPIN=   0.00000
   O   0.1234328  -0.4840328  -0.3112117 SPIN=   0.00000
   O   0.3309121  -0.3983948  -0.5040798 SPIN=   0.00000
   O   0.4505779  -0.3356356  -0.2008196 SPIN=   0.00000
   O   0.4282189  -0.6652402  -0.4524253 SPIN=   0.00000
   S   0.3332854  -0.4708259  -0.3671341 SPIN=   0.00000
   F  -0.2497841  -0.0625911  -0.1538785 SPIN=   0.00000
   F   0.2497841   0.0912874   0.1538785 SPIN=   0.00000
   F   0.2502159  -0.4087126   0.1538785 SPIN=   0.00000
   F  -0.2502159   0.4374089  -0.1538785 SPIN=   0.00000
%ENDBLOCK POSITIONS_FRAC

# Note: total spin =  16.00

KPOINTS_MP_SPACING 0.07

%BLOCK SPECIES_POT
QC5
%ENDBLOCK SPECIES_POT

SNAP_TO_SYMMETRY
SYMMETRY_GENERATE

