#              Generated by Buildcell
#
# at 08:26:14 (GMT+1.0) 4th August 2020
# in /lustre/scratch/uccabz1/launch_tmp
# on node-c12k-006
# by uccabz1
#
# compiler GCC version 4.9.2
# options -cpp -iprefix /lustre/shared/ucl/apps/gcc/4.9.2/bin/../lib/gcc/x86_64-unknown-linux-gnu/4.9.2/ -mtune=corei7 -march=x86-64 -g -Og
#
# seed   103628376  1710017492  1884096555  -183445556  2125993061   183381162 -1712511936  -652028244  1401345244   975601778  -179443329  2083354270
#
#      Author: C. J. Pickard (cjp20@cam.ac.uk)
#                Space group: P-1
#

%BLOCK LATTICE_ABC
      6.23046      6.32659     10.55626
     76.54836     82.87277     83.46261
%ENDBLOCK LATTICE_ABC

%BLOCK POSITIONS_FRAC
  Li  -0.1159523  -0.3935841   0.3288837 SPIN=   0.00000
  Li   0.1159523   0.3935841  -0.3288837 SPIN=   0.00000
  Li  -0.3384279   0.2568855   0.1145548 SPIN=   0.00000
  Li   0.3384279  -0.2568855  -0.1145548 SPIN=   0.00000
  Fe   0.1708885   0.3688521   0.1411449 SPIN=   2.81106
  Fe  -0.1708885  -0.3688521  -0.1411449 SPIN=   2.81106
  Fe  -0.4725837  -0.2131745   0.1492354 SPIN=   5.18894
  Fe   0.4725837   0.2131745  -0.1492354 SPIN=   5.18894
   O  -0.0703921  -0.1586957   0.4446264 SPIN=   0.00000
   O  -0.3893967   0.1141319   0.4277933 SPIN=   0.00000
   O  -0.2223184  -0.0183230   0.2321330 SPIN=   0.00000
   O  -0.0279298   0.2220603   0.3242513 SPIN=   0.00000
   S  -0.1775093   0.0397934   0.3572010 SPIN=   0.00000
   O   0.0703921   0.1586957  -0.4446264 SPIN=   0.00000
   O   0.3893967  -0.1141319  -0.4277933 SPIN=   0.00000
   O   0.2223184   0.0183230  -0.2321330 SPIN=   0.00000
   O   0.0279298  -0.2220603  -0.3242513 SPIN=   0.00000
   S   0.1775093  -0.0397934  -0.3572010 SPIN=   0.00000
   O   0.1770170  -0.2873996   0.2813869 SPIN=   0.00000
   O   0.2199329  -0.3869908   0.5184482 SPIN=   0.00000
   O   0.5441103  -0.3753279   0.3565318 SPIN=   0.00000
   O   0.2978190  -0.6673842   0.3860466 SPIN=   0.00000
   O  -0.1770170   0.2873996  -0.2813869 SPIN=   0.00000
   O  -0.2199329   0.3869908  -0.5184482 SPIN=   0.00000
   O  -0.5441103   0.3753279  -0.3565318 SPIN=   0.00000
   O  -0.2978190   0.6673842  -0.3860466 SPIN=   0.00000
   S  -0.0000000   0.0000000   0.0000000 SPIN=   0.00000
   S  -0.5000000  -0.5000000  -0.5000000 SPIN=   0.00000
   F   0.3538888   0.0985177   0.1979705 SPIN=   0.00000
   F  -0.3538888  -0.0985177  -0.1979705 SPIN=   0.00000
   F  -0.2351909  -0.4739319   0.1340310 SPIN=   0.00000
   F   0.2351909   0.4739319  -0.1340310 SPIN=   0.00000
%ENDBLOCK POSITIONS_FRAC

# Note: total spin =  16.00

KPOINTS_MP_SPACING 0.07

%BLOCK SPECIES_POT
QC5
%ENDBLOCK SPECIES_POT

SNAP_TO_SYMMETRY
SYMMETRY_GENERATE

