#              Generated by Buildcell
#
# at 07:41:37 (GMT+1.0) 4th August 2020
# in /lustre/scratch/uccabz1/launch_tmp
# on node-c12c-028
# by uccabz1
#
# compiler GCC version 4.9.2
# options -cpp -iprefix /lustre/shared/ucl/apps/gcc/4.9.2/bin/../lib/gcc/x86_64-unknown-linux-gnu/4.9.2/ -mtune=corei7 -march=x86-64 -g -Og
#
# seed  -271763387  -717365089 -1965934306  -725225709  1808661338 -1387116834  1732619610 -1342138494  -275588054  2012666331  -492247276  1638046608
#
#      Author: C. J. Pickard (cjp20@cam.ac.uk)
#                Space group: C2/c
#

%BLOCK LATTICE_ABC
      5.61528      8.34727      9.86837
     69.20441     73.47049     70.34509
%ENDBLOCK LATTICE_ABC

%BLOCK POSITIONS_FRAC
  Li  -0.2437383  -0.4945283   0.3416598 SPIN=   0.00000
  Li  -0.3966069  -0.0054717   0.1583402 SPIN=   0.00000
  Li   0.2437383   0.4945283  -0.3416598 SPIN=   0.00000
  Li   0.3966069   0.0054717  -0.1583402 SPIN=   0.00000
  Fe   0.1742709  -0.1286998  -0.3504463 SPIN=   4.00000
  Fe  -0.3048751   0.6286998  -0.1495537 SPIN=   4.00000
  Fe  -0.1742709   0.1286998   0.3504463 SPIN=   4.00000
  Fe   0.3048751  -0.6286998   0.1495537 SPIN=   4.00000
   O  -0.2953895   0.2251656   0.0173028 SPIN=   0.00000
   O   0.0003201   0.3234305   0.0956543 SPIN=   0.00000
   O   0.0732893   0.3222358  -0.1634476 SPIN=   0.00000
   O   0.1490112   0.0382005   0.0345519 SPIN=   0.00000
   S  -0.0181922   0.2272581  -0.0039847 SPIN=   0.00000
   O  -0.0529210   0.2748344  -0.5173028 SPIN=   0.00000
   O   0.4194048   0.1765695  -0.5956543 SPIN=   0.00000
   O   0.2320775   0.1777642  -0.3365524 SPIN=   0.00000
   O   0.2217636   0.4617995  -0.5345519 SPIN=   0.00000
   S   0.2050812   0.2727419  -0.4960153 SPIN=   0.00000
   O   0.2953895  -0.2251656  -0.0173028 SPIN=   0.00000
   O  -0.0003201  -0.3234305  -0.0956543 SPIN=   0.00000
   O  -0.0732893  -0.3222358   0.1634476 SPIN=   0.00000
   O  -0.1490112  -0.0382005  -0.0345519 SPIN=   0.00000
   S   0.0181922  -0.2272581   0.0039847 SPIN=   0.00000
   O   0.0529210  -0.2748344   0.5173028 SPIN=   0.00000
   O  -0.4194048  -0.1765695   0.5956543 SPIN=   0.00000
   O  -0.2320775  -0.1777642   0.3365524 SPIN=   0.00000
   O  -0.2217636  -0.4617995   0.5345519 SPIN=   0.00000
   S  -0.2050812  -0.2727419   0.4960153 SPIN=   0.00000
   F  -0.2671997   0.0288078  -0.3095015 SPIN=   0.00000
   F   0.4521066   0.4711922  -0.1904985 SPIN=   0.00000
   F   0.2671997  -0.0288078   0.3095015 SPIN=   0.00000
   F  -0.4521066  -0.4711922   0.1904985 SPIN=   0.00000
%ENDBLOCK POSITIONS_FRAC

# Note: total spin =  16.00

KPOINTS_MP_SPACING 0.07

%BLOCK SPECIES_POT
QC5
%ENDBLOCK SPECIES_POT

SNAP_TO_SYMMETRY
SYMMETRY_GENERATE

