#              Generated by Buildcell
#
# at 13:30:03 (GMT+1.0) 18th August 2020
# in /scratch/scratch/uccabz1/launch_tmp
# on node-k10h-023
# by uccabz1
#
# compiler GCC version 4.9.2
# options -cpp -iprefix /scratch/UCL/applications/gcc/4.9.2/bin/../lib/gcc/x86_64-unknown-linux-gnu/4.9.2/ -mtune=corei7 -march=x86-64 -g -O2
#
# seed -1859146469  1327107482  2035296346   173592534   471078659 -1379232814  1090360546   -99515996 -1025250739  1792745207  -314406522 -1156921311
#
#      Author: C. J. Pickard (cjp20@cam.ac.uk)
#                Space group: C2
#

%BLOCK LATTICE_ABC
      7.45221      7.45221      7.97512
     97.88074     97.88074    111.39137
%ENDBLOCK LATTICE_ABC

%BLOCK POSITIONS_FRAC
  Li  -0.1430520  -0.3526601   0.2242165 SPIN=   0.00000
  Li   0.3526601   0.1430520  -0.2242165 SPIN=   0.00000
  Li   0.3007232  -0.3007232   0.0000000 SPIN=   0.00000
  Li  -0.1708691   0.1708691  -0.5000000 SPIN=   0.00000
  Fe   0.2088153  -0.2088153  -0.5000000 SPIN=   7.62352
  Fe   0.0619596  -0.0619596   0.0000000 SPIN=   1.23244
  Fe  -0.4087839   0.4087839   0.5000000 SPIN=   3.42619
  Fe  -0.2597968   0.2597968  -0.0000000 SPIN=   3.71785
   O   0.0691178   0.4032969   0.4465554 SPIN=   0.00000
   O   0.2380343   0.5360945   0.2173100 SPIN=   0.00000
   O  -0.0116600   0.1948300   0.1550236 SPIN=   0.00000
   O   0.3110030   0.2804194   0.3463432 SPIN=   0.00000
   S   0.1516238   0.3536602   0.2913081 SPIN=   0.00000
   O  -0.4032969  -0.0691178  -0.4465554 SPIN=   0.00000
   O  -0.5360945  -0.2380343  -0.2173100 SPIN=   0.00000
   O  -0.1948300   0.0116600  -0.1550236 SPIN=   0.00000
   O  -0.2804194  -0.3110030  -0.3463432 SPIN=   0.00000
   S  -0.3536602  -0.1516238  -0.2913081 SPIN=   0.00000
   O   0.1763338   0.2725236  -0.0560976 SPIN=   0.00000
   O   0.3018138   0.4316644  -0.2925574 SPIN=   0.00000
   O   0.0543208   0.5142841  -0.1578631 SPIN=   0.00000
   S   0.1229391   0.3512807  -0.2126595 SPIN=   0.00000
   O  -0.2725236  -0.1763338   0.0560976 SPIN=   0.00000
   O  -0.4316644  -0.3018138   0.2925574 SPIN=   0.00000
   O  -0.5142841  -0.0543208   0.1578631 SPIN=   0.00000
   S  -0.3512807  -0.1229391   0.2126595 SPIN=   0.00000
   O   0.4883731  -0.4883731  -0.0000000 SPIN=   0.00000
   O   0.3964504  -0.3964504   0.5000000 SPIN=   0.00000
   F  -0.3371089   0.3810561   0.2471729 SPIN=   0.00000
   F  -0.3810561   0.3371089  -0.2471729 SPIN=   0.00000
   F   0.1371552  -0.1505123   0.2580699 SPIN=   0.00000
   F   0.1505123  -0.1371552  -0.2580699 SPIN=   0.00000
%ENDBLOCK POSITIONS_FRAC

# Note: total spin =  16.00

KPOINTS_MP_SPACING 0.07

%BLOCK SPECIES_POT
QC5
%ENDBLOCK SPECIES_POT

SNAP_TO_SYMMETRY
SYMMETRY_GENERATE

