#              Generated by Buildcell
#
# at 06:25:46 (GMT+1.0) 18th August 2020
# in /lustre/scratch/uccabz1/launch_tmp
# on node-c12j-016
# by uccabz1
#
# compiler GCC version 4.9.2
# options -cpp -iprefix /lustre/shared/ucl/apps/gcc/4.9.2/bin/../lib/gcc/x86_64-unknown-linux-gnu/4.9.2/ -mtune=corei7 -march=x86-64 -g -Og
#
# seed   416466526   815509243  1200459048   728755012   -52103752  2021251870  -565472677  1697279715  1575258693  1742202602   726342178   770770103
#
#      Author: C. J. Pickard (cjp20@cam.ac.uk)
#                Space group: Pm
#

%BLOCK LATTICE_ABC
      6.36789      6.49251     11.00520
     90.00000     90.00000    118.46222
%ENDBLOCK LATTICE_ABC

%BLOCK POSITIONS_FRAC
  Li  -0.2913885  -0.0485299  -0.5000000 SPIN=   0.00000
  Li   0.2767985  -0.4425218   0.0000000 SPIN=   0.00000
  Li  -0.0342212  -0.0857667   0.0000000 SPIN=   0.00000
  Li  -0.3791589   0.2330155   0.0000000 SPIN=   0.00000
  Fe  -0.3665601  -0.4169649   0.1811003 SPIN=   5.20186
  Fe  -0.3665601  -0.4169649  -0.1811003 SPIN=   5.20186
  Fe   0.0644947  -0.2227247   0.5000000 SPIN=   3.04889
  Fe   0.3971658   0.4327543   0.5000000 SPIN=   2.54738
   O   0.1192591   0.5245728   0.3846563 SPIN=   0.00000
   O  -0.1217597   0.3838986   0.1968606 SPIN=   0.00000
   O  -0.3004704   0.2101308   0.3955412 SPIN=   0.00000
   O   0.0084638   0.1296011   0.3046228 SPIN=   0.00000
   S  -0.0736268   0.3120508   0.3204202 SPIN=   0.00000
   O   0.1192591   0.5245728  -0.3846563 SPIN=   0.00000
   O  -0.1217597   0.3838986  -0.1968606 SPIN=   0.00000
   O  -0.3004704   0.2101308  -0.3955412 SPIN=   0.00000
   O   0.0084638   0.1296011  -0.3046228 SPIN=   0.00000
   S  -0.0736268   0.3120508  -0.3204202 SPIN=   0.00000
   O   0.2994769   0.2057369   0.1648547 SPIN=   0.00000
   O   0.0232704  -0.2207394   0.1574793 SPIN=   0.00000
   O   0.2749154  -0.0455265   0.3392252 SPIN=   0.00000
   O   0.4599358  -0.0730704   0.1463820 SPIN=   0.00000
   S   0.2643996  -0.0333999   0.2019853 SPIN=   0.00000
   O   0.2994769   0.2057369  -0.1648547 SPIN=   0.00000
   O   0.0232704  -0.2207394  -0.1574793 SPIN=   0.00000
   O   0.2749154  -0.0455265  -0.3392252 SPIN=   0.00000
   O   0.4599358  -0.0730704  -0.1463820 SPIN=   0.00000
   S   0.2643996  -0.0333999  -0.2019853 SPIN=   0.00000
   F  -0.3579983  -0.3126579  -0.3382743 SPIN=   0.00000
   F  -0.3579983  -0.3126579   0.3382743 SPIN=   0.00000
   F  -0.3940345  -0.4447731   0.0000000 SPIN=   0.00000
   F  -0.0503543   0.2219951   0.0000000 SPIN=   0.00000
%ENDBLOCK POSITIONS_FRAC

# Note: total spin =  16.00

KPOINTS_MP_SPACING 0.07

%BLOCK SPECIES_POT
QC5
%ENDBLOCK SPECIES_POT

SNAP_TO_SYMMETRY
SYMMETRY_GENERATE

