#              Generated by Buildcell
#
# at 00:27:45 (GMT+1.0) 18th August 2020
# in /lustre/scratch/uccabz1/launch_tmp
# on node-c12i-030
# by uccabz1
#
# compiler GCC version 4.9.2
# options -cpp -iprefix /lustre/shared/ucl/apps/gcc/4.9.2/bin/../lib/gcc/x86_64-unknown-linux-gnu/4.9.2/ -mtune=corei7 -march=x86-64 -g -Og
#
# seed -1560414595 -1013677125 -1824928975 -1209230833 -2074326745   -93455066  -332029893 -1715194282  -654815701 -1570143754  -789900224 -1138875194
#
#      Author: C. J. Pickard (cjp20@cam.ac.uk)
#                Space group: Ccc2
#

%BLOCK LATTICE_ABC
      6.90546      7.73846      8.24329
     90.00000    114.76222     90.00000
%ENDBLOCK LATTICE_ABC

%BLOCK POSITIONS_FRAC
  Li   0.2037837   0.3955094  -0.0921268 SPIN=   0.00000
  Li  -0.2037837   0.3955094   0.0921268 SPIN=   0.00000
  Li  -0.2959105  -0.1044906  -0.0921268 SPIN=   0.00000
  Li   0.2959105  -0.1044906   0.0921268 SPIN=   0.00000
  Fe   0.3789336   0.1599552  -0.3151587 SPIN=   4.00000
  Fe  -0.3789336   0.1599552   0.3151587 SPIN=   4.00000
  Fe   0.3059077  -0.3400448  -0.3151587 SPIN=   4.00000
  Fe  -0.3059077  -0.3400448   0.3151587 SPIN=   4.00000
   O   0.0365980   0.2986993   0.3047580 SPIN=   0.00000
   O  -0.1110360   0.0733808   0.0718910 SPIN=   0.00000
   O   0.0742796  -0.0102459   0.3900989 SPIN=   0.00000
   O   0.2797127   0.1108797   0.2324248 SPIN=   0.00000
   S   0.0698886   0.1181785   0.2497932 SPIN=   0.00000
   O  -0.0365980   0.2986993  -0.3047580 SPIN=   0.00000
   O   0.1110360   0.0733808  -0.0718910 SPIN=   0.00000
   O  -0.0742796  -0.0102459  -0.3900989 SPIN=   0.00000
   O  -0.2797127   0.1108797  -0.2324248 SPIN=   0.00000
   S  -0.0698886   0.1181785  -0.2497932 SPIN=   0.00000
   O   0.2681600  -0.2013007   0.3047580 SPIN=   0.00000
   O   0.1829269  -0.4266192   0.0718910 SPIN=   0.00000
   O   0.3158194  -0.5102459   0.3900989 SPIN=   0.00000
   O  -0.0472879  -0.3891203   0.2324248 SPIN=   0.00000
   S   0.1799046  -0.3818215   0.2497932 SPIN=   0.00000
   O  -0.2681600  -0.2013007  -0.3047580 SPIN=   0.00000
   O  -0.1829269  -0.4266192  -0.0718910 SPIN=   0.00000
   O  -0.3158194  -0.5102459  -0.3900989 SPIN=   0.00000
   O   0.0472879  -0.3891203  -0.2324248 SPIN=   0.00000
   S  -0.1799046  -0.3818215  -0.2497932 SPIN=   0.00000
   F  -0.3669671  -0.0906458   0.2580550 SPIN=   0.00000
   F   0.3669671  -0.0906458  -0.2580550 SPIN=   0.00000
   F  -0.3749779   0.4093542   0.2580550 SPIN=   0.00000
   F   0.3749779   0.4093542  -0.2580550 SPIN=   0.00000
%ENDBLOCK POSITIONS_FRAC

# Note: total spin =  16.00

KPOINTS_MP_SPACING 0.07

%BLOCK SPECIES_POT
QC5
%ENDBLOCK SPECIES_POT

SNAP_TO_SYMMETRY
SYMMETRY_GENERATE

