#              Generated by Buildcell
#
# at 05:43:37 (GMT+1.0) 18th August 2020
# in /lustre/scratch/uccabz1/launch_tmp
# on node-c12i-005
# by uccabz1
#
# compiler GCC version 4.9.2
# options -cpp -iprefix /lustre/shared/ucl/apps/gcc/4.9.2/bin/../lib/gcc/x86_64-unknown-linux-gnu/4.9.2/ -mtune=corei7 -march=x86-64 -g -Og
#
# seed  -522659956   -41427021   729617777  1374848646 -1035525155 -1709681388   684300554   463341320 -1264148494  -599780177  -115647290  -704577813
#
#      Author: C. J. Pickard (cjp20@cam.ac.uk)
#                Space group: P21212
#

%BLOCK LATTICE_ABC
      4.12331      8.09300     11.98682
     90.00000     90.00000     90.00000
%ENDBLOCK LATTICE_ABC

%BLOCK POSITIONS_FRAC
  Li  -0.2527407  -0.3443046   0.1183453 SPIN=   0.00000
  Li   0.2527407  -0.3443046  -0.1183453 SPIN=   0.00000
  Li   0.2472593   0.3443046   0.3816547 SPIN=   0.00000
  Li  -0.2472593   0.3443046  -0.3816547 SPIN=   0.00000
  Fe   0.2794212  -0.0292660   0.3713851 SPIN=   4.00000
  Fe  -0.2794212  -0.0292660  -0.3713851 SPIN=   4.00000
  Fe  -0.2205788   0.0292660   0.1286149 SPIN=   4.00000
  Fe   0.2205788   0.0292660  -0.1286149 SPIN=   4.00000
   O   0.5981970  -0.3170011  -0.3298083 SPIN=   0.00000
   O   0.0787398  -0.2137879  -0.4062501 SPIN=   0.00000
   O   0.0781085  -0.4238391  -0.2561969 SPIN=   0.00000
   O   0.2567835  -0.4996669  -0.4465380 SPIN=   0.00000
   S   0.2529572  -0.3635737  -0.3596983 SPIN=   0.00000
   O  -0.5981970  -0.3170011   0.3298083 SPIN=   0.00000
   O  -0.0787398  -0.2137879   0.4062501 SPIN=   0.00000
   O  -0.0781085  -0.4238391   0.2561969 SPIN=   0.00000
   O  -0.2567835  -0.4996669   0.4465380 SPIN=   0.00000
   S  -0.2529572  -0.3635737   0.3596983 SPIN=   0.00000
   O   0.0981970   0.3170011  -0.1701917 SPIN=   0.00000
   O  -0.4212602   0.2137879  -0.0937499 SPIN=   0.00000
   O  -0.4218915   0.4238391  -0.2438031 SPIN=   0.00000
   O  -0.2432165   0.4996669  -0.0534620 SPIN=   0.00000
   S  -0.2470428   0.3635737  -0.1403017 SPIN=   0.00000
   O  -0.0981970   0.3170011   0.1701917 SPIN=   0.00000
   O   0.4212602   0.2137879   0.0937499 SPIN=   0.00000
   O   0.4218915   0.4238391   0.2438031 SPIN=   0.00000
   O   0.2432165   0.4996669   0.0534620 SPIN=   0.00000
   S   0.2470428   0.3635737   0.1403017 SPIN=   0.00000
   F   0.2486104  -0.1298517   0.1400986 SPIN=   0.00000
   F  -0.2486104  -0.1298517  -0.1400986 SPIN=   0.00000
   F  -0.2513896   0.1298517   0.3599014 SPIN=   0.00000
   F   0.2513896   0.1298517  -0.3599014 SPIN=   0.00000
%ENDBLOCK POSITIONS_FRAC

# Note: total spin =  16.00

KPOINTS_MP_SPACING 0.07

%BLOCK SPECIES_POT
QC5
%ENDBLOCK SPECIES_POT

SNAP_TO_SYMMETRY
SYMMETRY_GENERATE

