#              Generated by Buildcell
#
# at 00:35:22 (GMT+1.0) 18th August 2020
# in /lustre/scratch/uccabz1/launch_tmp
# on node-c12h-022
# by uccabz1
#
# compiler GCC version 4.9.2
# options -cpp -iprefix /lustre/shared/ucl/apps/gcc/4.9.2/bin/../lib/gcc/x86_64-unknown-linux-gnu/4.9.2/ -mtune=corei7 -march=x86-64 -g -Og
#
# seed -1104579081   537304465  1182827543   710576171   151955544  1453281146 -1379317538   455690063  1125896852 -1363881691  -960797902  1146819298
#
#      Author: C. J. Pickard (cjp20@cam.ac.uk)
#                Space group: P21
#

%BLOCK LATTICE_ABC
      5.68582      8.10940      8.69014
     93.36366     90.00000     90.00000
%ENDBLOCK LATTICE_ABC

%BLOCK POSITIONS_FRAC
  Li  -0.1784093  -0.1838137  -0.4438789 SPIN=   0.00000
  Li   0.3215907   0.1838137   0.4438789 SPIN=   0.00000
  Li   0.3185827  -0.3797998   0.3415919 SPIN=   0.00000
  Li  -0.1814173   0.3797998  -0.3415919 SPIN=   0.00000
  Fe   0.2449001  -0.3169875   0.0151689 SPIN=   3.89641
  Fe  -0.2550999   0.3169875  -0.0151689 SPIN=   3.89641
  Fe   0.3762614  -0.0537643  -0.3172199 SPIN=   4.10359
  Fe  -0.1237386   0.0537643   0.3172199 SPIN=   4.10359
   O  -0.0096178  -0.2683861   0.1765848 SPIN=   0.00000
   O  -0.4019897  -0.3023769   0.0555741 SPIN=   0.00000
   O  -0.3669805  -0.2648403   0.3393356 SPIN=   0.00000
   O  -0.2354766  -0.5258430   0.2042751 SPIN=   0.00000
   S  -0.2535161  -0.3403616   0.1939424 SPIN=   0.00000
   O   0.4903822   0.2683861  -0.1765848 SPIN=   0.00000
   O   0.0980103   0.3023769  -0.0555741 SPIN=   0.00000
   O   0.1330195   0.2648403  -0.3393356 SPIN=   0.00000
   O   0.2645234   0.5258430  -0.2042751 SPIN=   0.00000
   S   0.2464839   0.3403616  -0.1939424 SPIN=   0.00000
   O   0.1550218   0.1555076   0.1763257 SPIN=   0.00000
   O   0.3560546  -0.1109992   0.2082950 SPIN=   0.00000
   O   0.5859386   0.1484928   0.2155883 SPIN=   0.00000
   O   0.4139355   0.0362140  -0.0303524 SPIN=   0.00000
   S   0.3777376   0.0573038   0.1424641 SPIN=   0.00000
   O  -0.3449782  -0.1555076  -0.1763257 SPIN=   0.00000
   O  -0.1439454   0.1109992  -0.2082950 SPIN=   0.00000
   O   0.0859386  -0.1484928  -0.2155883 SPIN=   0.00000
   O  -0.0860645  -0.0362140   0.0303524 SPIN=   0.00000
   S  -0.1222624  -0.0573038  -0.1424641 SPIN=   0.00000
   F  -0.3371184  -0.4009792  -0.3921598 SPIN=   0.00000
   F   0.1628816   0.4009792   0.3921598 SPIN=   0.00000
   F  -0.3376140   0.1465491  -0.4809364 SPIN=   0.00000
   F   0.1623860  -0.1465491   0.4809364 SPIN=   0.00000
%ENDBLOCK POSITIONS_FRAC

# Note: total spin =  16.00

KPOINTS_MP_SPACING 0.07

%BLOCK SPECIES_POT
QC5
%ENDBLOCK SPECIES_POT

SNAP_TO_SYMMETRY
SYMMETRY_GENERATE

