#              Generated by Buildcell
#
# at 06:20:47 (GMT+1.0) 4th August 2020
# in /lustre/scratch/uccabz1/launch_tmp
# on node-c12f-013
# by uccabz1
#
# compiler GCC version 4.9.2
# options -cpp -iprefix /lustre/shared/ucl/apps/gcc/4.9.2/bin/../lib/gcc/x86_64-unknown-linux-gnu/4.9.2/ -mtune=corei7 -march=x86-64 -g -Og
#
# seed  1395966812  -165568336  -826473558  -158116441  1050933427   661130368   -46287819  1631343420  1228644342  -393683869 -1323807848    17196502
#
#      Author: C. J. Pickard (cjp20@cam.ac.uk)
#                Space group: P41
#

%BLOCK LATTICE_ABC
      6.79809      6.79809      8.65538
     90.00000     90.00000     90.00000
%ENDBLOCK LATTICE_ABC

%BLOCK POSITIONS_FRAC
  Li  -0.3086516   0.1639550  -0.3875683 SPIN=   0.00000
  Li   0.3086516  -0.1639550   0.1124317 SPIN=   0.00000
  Li   0.1639550   0.3086516  -0.1375683 SPIN=   0.00000
  Li  -0.1639550  -0.3086516   0.3624317 SPIN=   0.00000
  Fe   0.2263953  -0.3605965  -0.4721305 SPIN=   4.00000
  Fe  -0.2263953   0.3605965   0.0278695 SPIN=   4.00000
  Fe  -0.3605965  -0.2263953  -0.2221305 SPIN=   4.00000
  Fe   0.3605965   0.2263953   0.2778695 SPIN=   4.00000
   O   0.0651472  -0.0926289  -0.1199940 SPIN=   0.00000
   O   0.0583978  -0.4053737  -0.2662603 SPIN=   0.00000
   O  -0.0487241  -0.3983117   0.0069595 SPIN=   0.00000
   O   0.3032814  -0.3565149  -0.0581908 SPIN=   0.00000
   S   0.0945256  -0.3132073  -0.1093714 SPIN=   0.00000
   O  -0.0651472   0.0926289   0.3800060 SPIN=   0.00000
   O  -0.0583978   0.4053737   0.2337397 SPIN=   0.00000
   O   0.0487241   0.3983117   0.5069595 SPIN=   0.00000
   O  -0.3032814   0.3565149   0.4418092 SPIN=   0.00000
   S  -0.0945256   0.3132073   0.3906286 SPIN=   0.00000
   O  -0.0926289  -0.0651472   0.1300060 SPIN=   0.00000
   O  -0.4053737  -0.0583978  -0.0162603 SPIN=   0.00000
   O  -0.3983117   0.0487241   0.2569595 SPIN=   0.00000
   O  -0.3565149  -0.3032814   0.1918092 SPIN=   0.00000
   S  -0.3132073  -0.0945256   0.1406286 SPIN=   0.00000
   O   0.0926289   0.0651472  -0.3699940 SPIN=   0.00000
   O   0.4053737   0.0583978  -0.5162603 SPIN=   0.00000
   O   0.3983117  -0.0487241  -0.2430405 SPIN=   0.00000
   O   0.3565149   0.3032814  -0.3081908 SPIN=   0.00000
   S   0.3132073   0.0945256  -0.3593714 SPIN=   0.00000
   F   0.2797385   0.2010546   0.0371031 SPIN=   0.00000
   F  -0.2797385  -0.2010546  -0.4628969 SPIN=   0.00000
   F   0.2010546  -0.2797385   0.2871031 SPIN=   0.00000
   F  -0.2010546   0.2797385  -0.2128969 SPIN=   0.00000
%ENDBLOCK POSITIONS_FRAC

# Note: total spin =  16.00

KPOINTS_MP_SPACING 0.07

%BLOCK SPECIES_POT
QC5
%ENDBLOCK SPECIES_POT

SNAP_TO_SYMMETRY
SYMMETRY_GENERATE

