#              Generated by Buildcell
#
# at 08:49:25 (GMT+1.0) 18th August 2020
# in /lustre/scratch/uccabz1/launch_tmp
# on node-c12k-019
# by uccabz1
#
# compiler GCC version 4.9.2
# options -cpp -iprefix /lustre/shared/ucl/apps/gcc/4.9.2/bin/../lib/gcc/x86_64-unknown-linux-gnu/4.9.2/ -mtune=corei7 -march=x86-64 -g -Og
#
# seed -1299452251  1742332318  2139649367 -1029399004  1198902916  1828047162   566256700  1552725879  -562548045   601607805  1874969305  1992532862
#
#      Author: C. J. Pickard (cjp20@cam.ac.uk)
#                Space group: Cc
#

%BLOCK LATTICE_ABC
      6.40910      8.23545      8.23545
    109.91654     96.76134     96.76134
%ENDBLOCK LATTICE_ABC

%BLOCK POSITIONS_FRAC
  Li  -0.3438340   0.4718698   0.0271338 SPIN=   0.00000
  Li   0.1561660   0.0271338   0.4718698 SPIN=   0.00000
  Li   0.3117164  -0.3438999  -0.4590123 SPIN=   0.00000
  Li  -0.1882836  -0.4590123  -0.3438999 SPIN=   0.00000
  Fe  -0.3556927  -0.1697375   0.3812731 SPIN=   2.48845
  Fe   0.1443073   0.3812731  -0.1697375 SPIN=   2.48845
  Fe  -0.4440258  -0.2291180  -0.0911289 SPIN=   5.51155
  Fe   0.0559742  -0.0911289  -0.2291180 SPIN=   5.51155
   O  -0.2159382  -0.2394298   0.1625812 SPIN=   0.00000
   O   0.1668839  -0.1996368   0.2827868 SPIN=   0.00000
   O   0.0570448  -0.2056926  -0.0178439 SPIN=   0.00000
   O  -0.0097606  -0.4773843   0.0473494 SPIN=   0.00000
   S  -0.0004425  -0.2805359   0.1187184 SPIN=   0.00000
   O   0.2840618   0.1625812  -0.2394298 SPIN=   0.00000
   O   0.6668839   0.2827868  -0.1996368 SPIN=   0.00000
   O   0.5570448  -0.0178439  -0.2056926 SPIN=   0.00000
   O   0.4902394   0.0473494  -0.4773843 SPIN=   0.00000
   S   0.4995575   0.1187184  -0.2805359 SPIN=   0.00000
   O   0.4060053   0.2748864   0.3188710 SPIN=   0.00000
   O   0.2113084   0.5082300   0.2889943 SPIN=   0.00000
   O   0.3833437   0.3402741   0.0460521 SPIN=   0.00000
   O   0.6047373   0.5518790   0.3199786 SPIN=   0.00000
   S   0.4013487   0.4188174   0.2434740 SPIN=   0.00000
   O  -0.0939947   0.3188710   0.2748864 SPIN=   0.00000
   O  -0.2886916   0.2889943   0.5082300 SPIN=   0.00000
   O  -0.1166563   0.0460521   0.3402741 SPIN=   0.00000
   O   0.1047373   0.3199786   0.5518790 SPIN=   0.00000
   S  -0.0986513   0.2434740   0.4188174 SPIN=   0.00000
   F   0.4891419  -0.4729778  -0.2884752 SPIN=   0.00000
   F  -0.0108581  -0.2884752  -0.4729778 SPIN=   0.00000
   F   0.4806337  -0.0454068   0.1402807 SPIN=   0.00000
   F  -0.0193663   0.1402807  -0.0454068 SPIN=   0.00000
%ENDBLOCK POSITIONS_FRAC

# Note: total spin =  16.00

KPOINTS_MP_SPACING 0.07

%BLOCK SPECIES_POT
QC5
%ENDBLOCK SPECIES_POT

SNAP_TO_SYMMETRY
SYMMETRY_GENERATE

