#              Generated by Buildcell
#
# at 09:01:13 (GMT+1.0) 4th August 2020
# in /lustre/scratch/uccabz1/launch_tmp
# on node-c12m-023
# by uccabz1
#
# compiler GCC version 4.9.2
# options -cpp -iprefix /lustre/shared/ucl/apps/gcc/4.9.2/bin/../lib/gcc/x86_64-unknown-linux-gnu/4.9.2/ -mtune=corei7 -march=x86-64 -g -Og
#
# seed  1166318213 -1839557957  1029950518    -1783811   -99632588 -1070483677  -262447612  -934073659 -1396704540   717980380  1599036649   832611845
#
#      Author: C. J. Pickard (cjp20@cam.ac.uk)
#                Space group: P41
#

%BLOCK LATTICE_ABC
      5.68528      5.68528     12.37530
     90.00000     90.00000     90.00000
%ENDBLOCK LATTICE_ABC

%BLOCK POSITIONS_FRAC
  Li   0.1454216   0.2663501   0.4404699 SPIN=   0.00000
  Li  -0.1454216  -0.2663501  -0.0595301 SPIN=   0.00000
  Li  -0.2663501   0.1454216   0.1904699 SPIN=   0.00000
  Li   0.2663501  -0.1454216  -0.3095301 SPIN=   0.00000
  Fe  -0.3545824   0.2847714  -0.4829155 SPIN=   4.00000
  Fe   0.3545824  -0.2847714   0.0170845 SPIN=   4.00000
  Fe  -0.2847714  -0.3545824   0.2670845 SPIN=   4.00000
  Fe   0.2847714   0.3545824  -0.2329155 SPIN=   4.00000
   O  -0.0188098  -0.3103675  -0.3524761 SPIN=   0.00000
   O  -0.4234555  -0.3929367  -0.2892501 SPIN=   0.00000
   O  -0.3601248  -0.1707347  -0.4587405 SPIN=   0.00000
   O  -0.2672075   0.0131068  -0.2825624 SPIN=   0.00000
   S  -0.2673994  -0.2152330  -0.3457573 SPIN=   0.00000
   O   0.0188098   0.3103675   0.1475239 SPIN=   0.00000
   O   0.4234555   0.3929367   0.2107499 SPIN=   0.00000
   O   0.3601248   0.1707347   0.0412595 SPIN=   0.00000
   O   0.2672075  -0.0131068   0.2174376 SPIN=   0.00000
   S   0.2673994   0.2152330   0.1542427 SPIN=   0.00000
   O   0.3103675  -0.0188098   0.3975239 SPIN=   0.00000
   O   0.3929367  -0.4234555   0.4607499 SPIN=   0.00000
   O   0.1707347  -0.3601248   0.2912595 SPIN=   0.00000
   O  -0.0131068  -0.2672075   0.4674376 SPIN=   0.00000
   S   0.2152330  -0.2673994   0.4042427 SPIN=   0.00000
   O  -0.3103675   0.0188098  -0.1024761 SPIN=   0.00000
   O  -0.3929367   0.4234555  -0.0392501 SPIN=   0.00000
   O  -0.1707347   0.3601248  -0.2087405 SPIN=   0.00000
   O   0.0131068   0.2672075  -0.0325624 SPIN=   0.00000
   S  -0.2152330   0.2673994  -0.0957573 SPIN=   0.00000
   F   0.2767233  -0.2812710  -0.1245928 SPIN=   0.00000
   F  -0.2767233   0.2812710   0.3754072 SPIN=   0.00000
   F   0.2812710   0.2767233  -0.3745928 SPIN=   0.00000
   F  -0.2812710  -0.2767233   0.1254072 SPIN=   0.00000
%ENDBLOCK POSITIONS_FRAC

# Note: total spin =  16.00

KPOINTS_MP_SPACING 0.07

%BLOCK SPECIES_POT
QC5
%ENDBLOCK SPECIES_POT

SNAP_TO_SYMMETRY
SYMMETRY_GENERATE

