#              Generated by Buildcell
#
# at 07:36:46 (GMT+1.0) 4th August 2020
# in /lustre/scratch/uccabz1/launch_tmp
# on node-c12c-025
# by uccabz1
#
# compiler GCC version 4.9.2
# options -cpp -iprefix /lustre/shared/ucl/apps/gcc/4.9.2/bin/../lib/gcc/x86_64-unknown-linux-gnu/4.9.2/ -mtune=corei7 -march=x86-64 -g -Og
#
# seed  -678953334  -973896000  -258784611   245069387  1155003361 -1792277848   329919819  1336959281  1057869719  1312725994   147219297 -1731812407
#
#      Author: C. J. Pickard (cjp20@cam.ac.uk)
#                Space group: P-1
#

%BLOCK LATTICE_ABC
      6.63258      6.98013      9.73490
    108.69285    105.85011     96.83282
%ENDBLOCK LATTICE_ABC

%BLOCK POSITIONS_FRAC
  Li   0.3631800  -0.2253390   0.1247495 SPIN=   0.00000
  Li  -0.3631800   0.2253390  -0.1247495 SPIN=   0.00000
  Li   0.0027970  -0.2765879   0.4385240 SPIN=   0.00000
  Li  -0.0027970   0.2765879  -0.4385240 SPIN=   0.00000
  Fe  -0.4065465  -0.2253503  -0.1973156 SPIN=   4.14759
  Fe   0.4065465   0.2253503   0.1973156 SPIN=   4.14759
  Fe   0.1501307   0.0584665  -0.2294715 SPIN=   3.85241
  Fe  -0.1501307  -0.0584665   0.2294715 SPIN=   3.85241
   O  -0.3668118  -0.4392581   0.4575140 SPIN=   0.00000
   O  -0.3757403  -0.3035548   0.2506957 SPIN=   0.00000
   O  -0.3018901  -0.0604331   0.5168882 SPIN=   0.00000
   O  -0.6665834  -0.2826676   0.3652865 SPIN=   0.00000
   S  -0.4277564  -0.2714784   0.3975961 SPIN=   0.00000
   O   0.3668118   0.4392581  -0.4575140 SPIN=   0.00000
   O   0.3757403   0.3035548  -0.2506957 SPIN=   0.00000
   O   0.3018901   0.0604331  -0.5168882 SPIN=   0.00000
   O   0.6665834   0.2826676  -0.3652865 SPIN=   0.00000
   S   0.4277564   0.2714784  -0.3975961 SPIN=   0.00000
   O  -0.1078365  -0.3591192  -0.0643621 SPIN=   0.00000
   O   0.2384716  -0.2510926  -0.0986996 SPIN=   0.00000
   O  -0.0915375  -0.4183679  -0.3253501 SPIN=   0.00000
   O   0.0755745  -0.6244202  -0.1800458 SPIN=   0.00000
   S   0.0286680  -0.4132500  -0.1671144 SPIN=   0.00000
   O   0.1078365   0.3591192   0.0643621 SPIN=   0.00000
   O  -0.2384716   0.2510926   0.0986996 SPIN=   0.00000
   O   0.0915375   0.4183679   0.3253501 SPIN=   0.00000
   O  -0.0755745   0.6244202   0.1800458 SPIN=   0.00000
   S  -0.0286680   0.4132500   0.1671144 SPIN=   0.00000
   F  -0.1511798   0.0236554  -0.1820721 SPIN=   0.00000
   F   0.1511798  -0.0236554   0.1820721 SPIN=   0.00000
   F   0.2640519  -0.1925205  -0.3656095 SPIN=   0.00000
   F  -0.2640519   0.1925205   0.3656095 SPIN=   0.00000
%ENDBLOCK POSITIONS_FRAC

# Note: total spin =  16.00

KPOINTS_MP_SPACING 0.07

%BLOCK SPECIES_POT
QC5
%ENDBLOCK SPECIES_POT

SNAP_TO_SYMMETRY
SYMMETRY_GENERATE

