#              Generated by Buildcell
#
# at 05:14:49 (GMT+1.0) 18th August 2020
# in /scratch/scratch/uccabz1/launch_tmp
# on node-k10e-030
# by uccabz1
#
# compiler GCC version 4.9.2
# options -cpp -iprefix /scratch/UCL/applications/gcc/4.9.2/bin/../lib/gcc/x86_64-unknown-linux-gnu/4.9.2/ -mtune=corei7 -march=x86-64 -g -O2
#
# seed -1510616617 -1211908143   397975923 -2101226505 -1706571106  1342936666   911132114  1843256058   172241949  1841312260  1211059331   478852842
#
#      Author: C. J. Pickard (cjp20@cam.ac.uk)
#                Space group: Cm
#

%BLOCK LATTICE_ABC
      3.87309     10.67870     10.67870
    108.34633    100.08985    100.08985
%ENDBLOCK LATTICE_ABC

%BLOCK POSITIONS_FRAC
  Li   0.1183953  -0.0455963  -0.2556354 SPIN=   0.00000
  Li   0.1183953  -0.2556354  -0.0455963 SPIN=   0.00000
  Li   0.0044827  -0.1374627   0.3635666 SPIN=   0.00000
  Li   0.0044827   0.3635666  -0.1374627 SPIN=   0.00000
  Fe  -0.3187800   0.2945663  -0.4952544 SPIN=   4.08547
  Fe  -0.3187800  -0.4952544   0.2945663 SPIN=   4.08547
  Fe   0.4389462  -0.4444268  -0.2323417 SPIN=   3.91453
  Fe   0.4389462  -0.2323417  -0.4444268 SPIN=   3.91453
   O  -0.3950840   0.2426825  -0.3052760 SPIN=   0.00000
   O  -0.5808289  -0.0036025  -0.4426521 SPIN=   0.00000
   O  -0.3746909   0.0737209  -0.1917439 SPIN=   0.00000
   O   0.0641782   0.1078451  -0.3280620 SPIN=   0.00000
   S  -0.3216064   0.1051615  -0.3169335 SPIN=   0.00000
   O  -0.3950840  -0.3052760   0.2426825 SPIN=   0.00000
   O  -0.5808289  -0.4426521  -0.0036025 SPIN=   0.00000
   O  -0.3746909  -0.1917439   0.0737209 SPIN=   0.00000
   O   0.0641782  -0.3280620   0.1078451 SPIN=   0.00000
   S  -0.3216064  -0.3169335   0.1051615 SPIN=   0.00000
   O   0.5555227  -0.0878380   0.2840081 SPIN=   0.00000
   O   0.1738331  -0.0417451   0.1002468 SPIN=   0.00000
   O   0.6641969   0.1440412   0.2745956 SPIN=   0.00000
   O   0.1150574   0.0510214   0.3369156 SPIN=   0.00000
   S   0.3771525   0.0163699   0.2489415 SPIN=   0.00000
   O   0.5555227   0.2840081  -0.0878380 SPIN=   0.00000
   O   0.1738331   0.1002468  -0.0417451 SPIN=   0.00000
   O   0.6641969   0.2745956   0.1440412 SPIN=   0.00000
   O   0.1150574   0.3369156   0.0510214 SPIN=   0.00000
   S   0.3771525   0.2489415   0.0163699 SPIN=   0.00000
   F   0.1817486   0.2911779  -0.4898236 SPIN=   0.00000
   F   0.1817486  -0.4898236   0.2911779 SPIN=   0.00000
   F  -0.0467086  -0.2132187  -0.4339292 SPIN=   0.00000
   F  -0.0467086  -0.4339292  -0.2132187 SPIN=   0.00000
%ENDBLOCK POSITIONS_FRAC

# Note: total spin =  16.00

KPOINTS_MP_SPACING 0.07

%BLOCK SPECIES_POT
QC5
%ENDBLOCK SPECIES_POT

SNAP_TO_SYMMETRY
SYMMETRY_GENERATE

