#              Generated by Buildcell
#
# at 07:21:11 (GMT+1.0) 4th August 2020
# in /lustre/scratch/uccabz1/launch_tmp
# on node-c12d-030
# by uccabz1
#
# compiler GCC version 4.9.2
# options -cpp -iprefix /lustre/shared/ucl/apps/gcc/4.9.2/bin/../lib/gcc/x86_64-unknown-linux-gnu/4.9.2/ -mtune=corei7 -march=x86-64 -g -Og
#
# seed  2099604006  2059426313 -1384471844   397189977 -1305591853   139075869  1277935990  -740205919   618631372  -535822320 -2025379049  -605511135
#
#      Author: C. J. Pickard (cjp20@cam.ac.uk)
#                Space group: P-1
#

%BLOCK LATTICE_ABC
      5.24928      6.47661     11.93408
     82.81707     86.52253     84.18435
%ENDBLOCK LATTICE_ABC

%BLOCK POSITIONS_FRAC
  Li   0.2460994   0.3876803   0.3697278 SPIN=   0.00000
  Li  -0.2460994  -0.3876803  -0.3697278 SPIN=   0.00000
  Li   0.2436206   0.2705388  -0.0490198 SPIN=   0.00000
  Li  -0.2436206  -0.2705388   0.0490198 SPIN=   0.00000
  Fe  -0.3183530  -0.0288174  -0.1711308 SPIN=   2.57514
  Fe   0.3183530   0.0288174   0.1711308 SPIN=   2.57514
  Fe   0.2404603  -0.3917973  -0.2631114 SPIN=   5.42486
  Fe  -0.2404603   0.3917973   0.2631114 SPIN=   5.42486
   O  -0.4979634  -0.0019876   0.4066896 SPIN=   0.00000
   O  -0.1971527  -0.3131770   0.4607400 SPIN=   0.00000
   O  -0.4564654  -0.2992765   0.2930795 SPIN=   0.00000
   O  -0.6653086  -0.3366498   0.4851556 SPIN=   0.00000
   S  -0.4542225  -0.2377727   0.4114162 SPIN=   0.00000
   O   0.4979634   0.0019876  -0.4066896 SPIN=   0.00000
   O   0.1971527   0.3131770  -0.4607400 SPIN=   0.00000
   O   0.4564654   0.2992765  -0.2930795 SPIN=   0.00000
   O   0.6653086   0.3366498  -0.4851556 SPIN=   0.00000
   S   0.4542225   0.2377727  -0.4114162 SPIN=   0.00000
   O   0.1852172  -0.2760999   0.1995851 SPIN=   0.00000
   O   0.4374347  -0.6154747   0.1814880 SPIN=   0.00000
   O   0.3919249  -0.3482009   0.0147633 SPIN=   0.00000
   O   0.0189789  -0.5338318   0.0930440 SPIN=   0.00000
   S   0.2583889  -0.4434018   0.1222201 SPIN=   0.00000
   O  -0.1852172   0.2760999  -0.1995851 SPIN=   0.00000
   O  -0.4374347   0.6154747  -0.1814880 SPIN=   0.00000
   O  -0.3919249   0.3482009  -0.0147633 SPIN=   0.00000
   O  -0.0189789   0.5338318  -0.0930440 SPIN=   0.00000
   S  -0.2583889   0.4434018  -0.1222201 SPIN=   0.00000
   F  -0.2741563  -0.0073920   0.1154859 SPIN=   0.00000
   F   0.2741563   0.0073920  -0.1154859 SPIN=   0.00000
   F   0.0005812   0.1819028   0.3639051 SPIN=   0.00000
   F  -0.0005812  -0.1819028  -0.3639051 SPIN=   0.00000
%ENDBLOCK POSITIONS_FRAC

# Note: total spin =  16.00

KPOINTS_MP_SPACING 0.07

%BLOCK SPECIES_POT
QC5
%ENDBLOCK SPECIES_POT

SNAP_TO_SYMMETRY
SYMMETRY_GENERATE

