#              Generated by Buildcell
#
# at 23:52:58 (GMT+1.0) 17th August 2020
# in /lustre/scratch/uccabz1/launch_tmp
# on node-c12f-013
# by uccabz1
#
# compiler GCC version 4.9.2
# options -cpp -iprefix /lustre/shared/ucl/apps/gcc/4.9.2/bin/../lib/gcc/x86_64-unknown-linux-gnu/4.9.2/ -mtune=corei7 -march=x86-64 -g -Og
#
# seed -1872017587  1975551427 -1041856944   242143230  -267047859  2073826568  1553725796  -410016993   447391870   994599530  2144175474  -993992619
#
#      Author: C. J. Pickard (cjp20@cam.ac.uk)
#                Space group: P-1
#

%BLOCK LATTICE_ABC
      5.37080      8.79456      9.27855
     70.96830     75.54508     81.26553
%ENDBLOCK LATTICE_ABC

%BLOCK POSITIONS_FRAC
  Li   0.7902732  -0.3716741  -0.3087798 SPIN=   0.00000
  Li  -0.7902732   0.3716741   0.3087798 SPIN=   0.00000
  Li   0.0313225  -0.2166505   0.1032238 SPIN=   0.00000
  Li  -0.0313225   0.2166505  -0.1032238 SPIN=   0.00000
  Fe  -0.4020343  -0.1821031  -0.0704810 SPIN=   6.47791
  Fe   0.4020343   0.1821031   0.0704810 SPIN=   6.47791
  Fe   0.1647537   0.0329375  -0.3465709 SPIN=   1.52209
  Fe  -0.1647537  -0.0329375   0.3465709 SPIN=   1.52209
   O  -0.0381409   0.5061557   0.1272933 SPIN=   0.00000
   O  -0.0415253   0.2103664   0.1905588 SPIN=   0.00000
   O  -0.3815234   0.3917944   0.0688553 SPIN=   0.00000
   O  -0.3729955   0.3593800   0.3427837 SPIN=   0.00000
   S  -0.2085463   0.3669241   0.1823728 SPIN=   0.00000
   O   0.0381409  -0.5061557  -0.1272933 SPIN=   0.00000
   O   0.0415253  -0.2103664  -0.1905588 SPIN=   0.00000
   O   0.3815234  -0.3917944  -0.0688553 SPIN=   0.00000
   O   0.3729955  -0.3593800  -0.3427837 SPIN=   0.00000
   S   0.2085463  -0.3669241  -0.1823728 SPIN=   0.00000
   O  -0.5274900  -0.3743274   0.2235858 SPIN=   0.00000
   O  -0.9885422  -0.3105975   0.3285672 SPIN=   0.00000
   O  -0.6512012  -0.2063550   0.4023601 SPIN=   0.00000
   O  -0.7191897  -0.4977265   0.5028380 SPIN=   0.00000
   S  -0.7216058  -0.3472516   0.3643378 SPIN=   0.00000
   O   0.5274900   0.3743274  -0.2235858 SPIN=   0.00000
   O   0.9885422   0.3105975  -0.3285672 SPIN=   0.00000
   O   0.6512012   0.2063550  -0.4023601 SPIN=   0.00000
   O   0.7191897   0.4977265  -0.5028380 SPIN=   0.00000
   S   0.7216058   0.3472516  -0.3643378 SPIN=   0.00000
   F  -0.3029589  -0.0196662   0.1365158 SPIN=   0.00000
   F   0.3029589   0.0196662  -0.1365158 SPIN=   0.00000
   F  -0.7504369   0.1330169   0.4248751 SPIN=   0.00000
   F   0.7504369  -0.1330169  -0.4248751 SPIN=   0.00000
%ENDBLOCK POSITIONS_FRAC

# Note: total spin =  16.00

KPOINTS_MP_SPACING 0.07

%BLOCK SPECIES_POT
QC5
%ENDBLOCK SPECIES_POT

SNAP_TO_SYMMETRY
SYMMETRY_GENERATE

