#              Generated by Buildcell
#
# at 06:23:01 (GMT+1.0) 4th August 2020
# in /lustre/scratch/uccabz1/launch_tmp
# on node-c12a-004
# by uccabz1
#
# compiler GCC version 4.9.2
# options -cpp -iprefix /lustre/shared/ucl/apps/gcc/4.9.2/bin/../lib/gcc/x86_64-unknown-linux-gnu/4.9.2/ -mtune=corei7 -march=x86-64 -g -Og
#
# seed   602116673 -1417549636   783576434  2134073686  1488255145  1551672244 -1100957027  1100275754   380113846   732518371 -1378931179   326776019
#
#      Author: C. J. Pickard (cjp20@cam.ac.uk)
#                Space group: C2
#

%BLOCK LATTICE_ABC
      4.85887      7.25158     12.30772
    101.08395     90.00000    109.57385
%ENDBLOCK LATTICE_ABC

%BLOCK POSITIONS_FRAC
  Li   0.4628588   0.1647613  -0.3198708 SPIN=   0.00000
  Li   0.2980975  -0.1647613   0.3198708 SPIN=   0.00000
  Li  -0.2514410  -0.2977082  -0.0375456 SPIN=   0.00000
  Li   0.0462672   0.2977082   0.0375456 SPIN=   0.00000
  Fe  -0.0196202  -0.0812048  -0.2128409 SPIN=   3.19927
  Fe   0.0615846   0.0812048   0.2128409 SPIN=   3.19927
  Fe  -0.3847272  -0.2794110   0.4812784 SPIN=   4.80073
  Fe  -0.1053162   0.2794110  -0.4812784 SPIN=   4.80073
   O  -0.7905241   0.1980620  -0.0959009 SPIN=   0.00000
   O  -0.3387054   0.1428262  -0.0412565 SPIN=   0.00000
   O  -0.4018714   0.4688065   0.0285014 SPIN=   0.00000
   O  -0.3202608   0.3704244  -0.1694824 SPIN=   0.00000
   S  -0.4628404   0.2950298  -0.0695346 SPIN=   0.00000
   O   0.0114139  -0.1980620   0.0959009 SPIN=   0.00000
   O   0.5184684  -0.1428262   0.0412565 SPIN=   0.00000
   O   0.1293221  -0.4688065  -0.0285014 SPIN=   0.00000
   O   0.3093148  -0.3704244   0.1694824 SPIN=   0.00000
   S   0.2421298  -0.2950298   0.0695346 SPIN=   0.00000
   O   0.0194593  -0.3881508  -0.2750634 SPIN=   0.00000
   O   0.5059983  -0.3305001  -0.3510028 SPIN=   0.00000
   O   0.2701626  -0.6343787  -0.2755868 SPIN=   0.00000
   O   0.4599212  -0.3033465  -0.1487738 SPIN=   0.00000
   S   0.3138854  -0.4140940  -0.2626067 SPIN=   0.00000
   O  -0.5923899   0.3881508   0.2750634 SPIN=   0.00000
   O  -0.1635016   0.3305001   0.3510028 SPIN=   0.00000
   O  -0.0954587   0.6343787   0.2755868 SPIN=   0.00000
   O  -0.2367323   0.3033465   0.1487738 SPIN=   0.00000
   S  -0.2720206   0.4140940   0.2626067 SPIN=   0.00000
   F   0.4681865   0.2855258  -0.4889520 SPIN=   0.00000
   F   0.1826607  -0.2855258   0.4889520 SPIN=   0.00000
   F  -0.1942119   0.0538655  -0.2900484 SPIN=   0.00000
   F  -0.2480775  -0.0538655   0.2900484 SPIN=   0.00000
%ENDBLOCK POSITIONS_FRAC

# Note: total spin =  16.00

KPOINTS_MP_SPACING 0.07

%BLOCK SPECIES_POT
QC5
%ENDBLOCK SPECIES_POT

SNAP_TO_SYMMETRY
SYMMETRY_GENERATE

