#              Generated by Buildcell
#
# at 07:55:31 (GMT+1.0) 4th August 2020
# in /lustre/scratch/uccabz1/launch_tmp
# on node-c12o-004
# by uccabz1
#
# compiler GCC version 4.9.2
# options -cpp -iprefix /lustre/shared/ucl/apps/gcc/4.9.2/bin/../lib/gcc/x86_64-unknown-linux-gnu/4.9.2/ -mtune=corei7 -march=x86-64 -g -Og
#
# seed   608142214 -2033334660   563579930   492889383  1170810100   405895631  -813096837 -1903882562  -746004416  1992623565  2088586406   629785654
#
#      Author: C. J. Pickard (cjp20@cam.ac.uk)
#                Space group: Pc
#

%BLOCK LATTICE_ABC
      5.07215      7.57377     10.42987
     93.30526     90.00000     90.00000
%ENDBLOCK LATTICE_ABC

%BLOCK POSITIONS_FRAC
  Li  -0.4143645  -0.2814870   0.1921356 SPIN=   0.00000
  Li   0.4143645   0.2185130  -0.3078644 SPIN=   0.00000
  Li  -0.0847035  -0.1445190  -0.2791502 SPIN=   0.00000
  Li   0.0847035   0.3554810   0.2208498 SPIN=   0.00000
  Fe  -0.4379517  -0.4259537  -0.3659479 SPIN=   3.79521
  Fe   0.4379517   0.0740463   0.1340521 SPIN=   3.79521
  Fe  -0.0776697  -0.3110259  -0.0355731 SPIN=   4.20479
  Fe   0.0776697   0.1889741   0.4644269 SPIN=   4.20479
   O   0.6142199   0.0492798  -0.2017254 SPIN=   0.00000
   O   0.5470293  -0.2198692  -0.0819770 SPIN=   0.00000
   O   0.3082106  -0.1841675  -0.2857791 SPIN=   0.00000
   O   0.1902433   0.0019100  -0.0913964 SPIN=   0.00000
   S   0.4149258  -0.0882117  -0.1652195 SPIN=   0.00000
   O  -0.6142199   0.5492798   0.2982746 SPIN=   0.00000
   O  -0.5470293   0.2801308   0.4180230 SPIN=   0.00000
   O  -0.3082106   0.3158325   0.2142209 SPIN=   0.00000
   O  -0.1902433   0.5019100   0.4086036 SPIN=   0.00000
   S  -0.4149258   0.4117883   0.3347805 SPIN=   0.00000
   O   0.2313356  -0.4130147   0.5021612 SPIN=   0.00000
   O   0.0481540  -0.2467072   0.3251854 SPIN=   0.00000
   O   0.2447856  -0.0858272   0.5151110 SPIN=   0.00000
   O  -0.1809688  -0.2415568   0.5348665 SPIN=   0.00000
   S   0.0858266  -0.2467765   0.4693310 SPIN=   0.00000
   O  -0.2313356   0.0869853   0.0021612 SPIN=   0.00000
   O  -0.0481540   0.2532928  -0.1748146 SPIN=   0.00000
   O  -0.2447856   0.4141728   0.0151110 SPIN=   0.00000
   O   0.1809688   0.2584432   0.0348665 SPIN=   0.00000
   S  -0.0858266   0.2532235  -0.0306690 SPIN=   0.00000
   F   0.2154265  -0.3497274   0.0865987 SPIN=   0.00000
   F  -0.2154265   0.1502726  -0.4134013 SPIN=   0.00000
   F  -0.2794122  -0.0325721   0.2362998 SPIN=   0.00000
   F   0.2794122   0.4674279  -0.2637002 SPIN=   0.00000
%ENDBLOCK POSITIONS_FRAC

# Note: total spin =  16.00

KPOINTS_MP_SPACING 0.07

%BLOCK SPECIES_POT
QC5
%ENDBLOCK SPECIES_POT

SNAP_TO_SYMMETRY
SYMMETRY_GENERATE

