#              Generated by Buildcell
#
# at 16:50:36 (GMT+1.0) 18th August 2020
# in /lustre/scratch/uccabz1/launch_tmp
# on node-c12p-012
# by uccabz1
#
# compiler GCC version 4.9.2
# options -cpp -iprefix /lustre/shared/ucl/apps/gcc/4.9.2/bin/../lib/gcc/x86_64-unknown-linux-gnu/4.9.2/ -mtune=corei7 -march=x86-64 -g -Og
#
# seed  2017375385  1746796507  2123659490 -1388270478 -1372056111  1330403040 -1522504339   463988552  -719521265 -1826502839  -235410296   373024653
#
#      Author: C. J. Pickard (cjp20@cam.ac.uk)
#                Space group: P21/c
#

%BLOCK LATTICE_ABC
      4.61797      5.94135     15.80881
     90.00000     90.00000    112.75025
%ENDBLOCK LATTICE_ABC

%BLOCK POSITIONS_FRAC
  Li  -0.3710506  -0.0776391   0.3203837 SPIN=   0.00000
  Li   0.3710506  -0.4223609  -0.1796163 SPIN=   0.00000
  Li   0.3710506   0.0776391  -0.3203837 SPIN=   0.00000
  Li  -0.3710506   0.4223609   0.1796163 SPIN=   0.00000
  Fe   0.0371838  -0.1343855  -0.1023578 SPIN=   4.00000
  Fe  -0.0371838  -0.3656145   0.3976422 SPIN=   4.00000
  Fe  -0.0371838   0.1343855   0.1023578 SPIN=   4.00000
  Fe   0.0371838   0.3656145  -0.3976422 SPIN=   4.00000
   O   0.1590445  -0.3637039   0.2563253 SPIN=   0.00000
   O   0.1965536  -0.1074150   0.1301243 SPIN=   0.00000
   O   0.2823067  -0.4920401   0.1165325 SPIN=   0.00000
   O   0.6757754  -0.1373270   0.1898573 SPIN=   0.00000
   S   0.3284200  -0.2751215   0.1732098 SPIN=   0.00000
   O  -0.1590445  -0.1362961  -0.2436747 SPIN=   0.00000
   O  -0.1965536  -0.3925850  -0.3698757 SPIN=   0.00000
   O  -0.2823067  -0.0079599  -0.3834675 SPIN=   0.00000
   O  -0.6757754  -0.3626730  -0.3101427 SPIN=   0.00000
   S  -0.3284200  -0.2248785  -0.3267902 SPIN=   0.00000
   O  -0.1590445   0.3637039  -0.2563253 SPIN=   0.00000
   O  -0.1965536   0.1074150  -0.1301243 SPIN=   0.00000
   O  -0.2823067   0.4920401  -0.1165325 SPIN=   0.00000
   O  -0.6757754   0.1373270  -0.1898573 SPIN=   0.00000
   S  -0.3284200   0.2751215  -0.1732098 SPIN=   0.00000
   O   0.1590445   0.1362961   0.2436747 SPIN=   0.00000
   O   0.1965536   0.3925850   0.3698757 SPIN=   0.00000
   O   0.2823067   0.0079599   0.3834675 SPIN=   0.00000
   O   0.6757754   0.3626730   0.3101427 SPIN=   0.00000
   S   0.3284200   0.2248785   0.3267902 SPIN=   0.00000
   F  -0.3653765  -0.1910495   0.4413601 SPIN=   0.00000
   F   0.3653765  -0.3089505  -0.0586399 SPIN=   0.00000
   F   0.3653765   0.1910495  -0.4413601 SPIN=   0.00000
   F  -0.3653765   0.3089505   0.0586399 SPIN=   0.00000
%ENDBLOCK POSITIONS_FRAC

# Note: total spin =  16.00

KPOINTS_MP_SPACING 0.07

%BLOCK SPECIES_POT
QC5
%ENDBLOCK SPECIES_POT

SNAP_TO_SYMMETRY
SYMMETRY_GENERATE

