#              Generated by Buildcell
#
# at 07:08:13 (GMT+1.0) 4th August 2020
# in /lustre/scratch/uccabz1/launch_tmp
# on node-c12m-031
# by uccabz1
#
# compiler GCC version 4.9.2
# options -cpp -iprefix /lustre/shared/ucl/apps/gcc/4.9.2/bin/../lib/gcc/x86_64-unknown-linux-gnu/4.9.2/ -mtune=corei7 -march=x86-64 -g -Og
#
# seed   193630127  1318136580   337758313  1239220008   269108828   416208528  -162836584   466805186 -1029487234  1574277405  -603715552   502463134
#
#      Author: C. J. Pickard (cjp20@cam.ac.uk)
#                Space group: P2
#

%BLOCK LATTICE_ABC
      6.82070      7.12105      8.28405
     90.00000     96.20957     90.00000
%ENDBLOCK LATTICE_ABC

%BLOCK POSITIONS_FRAC
  Li   0.2040829   0.3111068   0.2645181 SPIN=   0.00000
  Li  -0.2040829   0.3111068  -0.2645181 SPIN=   0.00000
  Li   0.0117844  -0.1860553  -0.2776727 SPIN=   0.00000
  Li  -0.0117844  -0.1860553   0.2776727 SPIN=   0.00000
  Fe  -0.2183521   0.1863983   0.2543398 SPIN=   5.04735
  Fe   0.2183521   0.1863983  -0.2543398 SPIN=   5.04735
  Fe   0.5000000  -0.1422899  -0.5000000 SPIN=   4.22088
  Fe   0.0000000  -0.4490709  -0.0000000 SPIN=   1.68442
   O  -0.2742938  -0.2299383  -0.0975209 SPIN=   0.00000
   O  -0.4692301   0.0631715  -0.1324731 SPIN=   0.00000
   O  -0.1537256   0.0353355  -0.2526591 SPIN=   0.00000
   O  -0.1534116   0.0597300   0.0453835 SPIN=   0.00000
   S  -0.2626653  -0.0179254  -0.1093174 SPIN=   0.00000
   O   0.2742938  -0.2299383   0.0975209 SPIN=   0.00000
   O   0.4692301   0.0631715   0.1324731 SPIN=   0.00000
   O   0.1537256   0.0353355   0.2526591 SPIN=   0.00000
   O   0.1534116   0.0597300  -0.0453835 SPIN=   0.00000
   S   0.2626653  -0.0179254   0.1093174 SPIN=   0.00000
   O   0.2885175  -0.5508090   0.0778520 SPIN=   0.00000
   O   0.5342952  -0.6581742   0.3003982 SPIN=   0.00000
   O   0.3169632  -0.3886025   0.3435744 SPIN=   0.00000
   O   0.5814488  -0.3552998   0.1632511 SPIN=   0.00000
   O  -0.2885175  -0.5508090  -0.0778520 SPIN=   0.00000
   O  -0.5342952  -0.6581742  -0.3003982 SPIN=   0.00000
   O  -0.3169632  -0.3886025  -0.3435744 SPIN=   0.00000
   O  -0.5814488  -0.3552998  -0.1632511 SPIN=   0.00000
   S  -0.5000000   0.3958951  -0.5000000 SPIN=   0.00000
   S  -0.5000000  -0.4908398   0.0000000 SPIN=   0.00000
   F  -0.0652630   0.4481147   0.2727939 SPIN=   0.00000
   F   0.0652630   0.4481147  -0.2727939 SPIN=   0.00000
   F  -0.2493048  -0.0706722   0.3820615 SPIN=   0.00000
   F   0.2493048  -0.0706722  -0.3820615 SPIN=   0.00000
%ENDBLOCK POSITIONS_FRAC

# Note: total spin =  16.00

KPOINTS_MP_SPACING 0.07

%BLOCK SPECIES_POT
QC5
%ENDBLOCK SPECIES_POT

SNAP_TO_SYMMETRY
SYMMETRY_GENERATE

