#              Generated by Buildcell
#
# at 08:42:14 (GMT+1.0) 4th August 2020
# in /lustre/scratch/uccabz1/launch_tmp
# on node-c12j-011
# by uccabz1
#
# compiler GCC version 4.9.2
# options -cpp -iprefix /lustre/shared/ucl/apps/gcc/4.9.2/bin/../lib/gcc/x86_64-unknown-linux-gnu/4.9.2/ -mtune=corei7 -march=x86-64 -g -Og
#
# seed     1725637  1958752271   305531313   590603378   407057333   645586490   368902719   824950471  1967557083   706273711  1043077330  -154100188
#
#      Author: C. J. Pickard (cjp20@cam.ac.uk)
#                Space group: P212121
#

%BLOCK LATTICE_ABC
      4.08230      9.30242     10.53317
     90.00000     90.00000     90.00000
%ENDBLOCK LATTICE_ABC

%BLOCK POSITIONS_FRAC
  Li  -0.2781344   0.1222479  -0.4113378 SPIN=   0.00000
  Li   0.2218656  -0.1222479  -0.0886622 SPIN=   0.00000
  Li  -0.2218656  -0.3777521   0.4113378 SPIN=   0.00000
  Li   0.2781344   0.3777521   0.0886622 SPIN=   0.00000
  Fe   0.2306912   0.3724816  -0.4384558 SPIN=   4.00000
  Fe  -0.2693088  -0.3724816  -0.0615442 SPIN=   4.00000
  Fe   0.2693088  -0.1275184   0.4384558 SPIN=   4.00000
  Fe  -0.2306912   0.1275184   0.0615442 SPIN=   4.00000
   O   0.1217451  -0.1743789   0.2193567 SPIN=   0.00000
   O   0.6179872  -0.3255135   0.1993306 SPIN=   0.00000
   O   0.1691770  -0.3485368   0.0426897 SPIN=   0.00000
   O   0.0907192  -0.4355159   0.2626462 SPIN=   0.00000
   S   0.2499071  -0.3209863   0.1810058 SPIN=   0.00000
   O  -0.3782549   0.1743789   0.2806433 SPIN=   0.00000
   O   0.1179872   0.3255135   0.3006694 SPIN=   0.00000
   O  -0.3308230   0.3485368   0.4573103 SPIN=   0.00000
   O  -0.4092808   0.4355159   0.2373538 SPIN=   0.00000
   S  -0.2500929   0.3209863   0.3189942 SPIN=   0.00000
   O   0.3782549   0.3256211  -0.2193567 SPIN=   0.00000
   O  -0.1179872   0.1744865  -0.1993306 SPIN=   0.00000
   O   0.3308230   0.1514632  -0.0426897 SPIN=   0.00000
   O   0.4092808   0.0644841  -0.2626462 SPIN=   0.00000
   S   0.2500929   0.1790137  -0.1810058 SPIN=   0.00000
   O  -0.1217451  -0.3256211  -0.2806433 SPIN=   0.00000
   O  -0.6179872  -0.1744865  -0.3006694 SPIN=   0.00000
   O  -0.1691770  -0.1514632  -0.4573103 SPIN=   0.00000
   O  -0.0907192  -0.0644841  -0.2373538 SPIN=   0.00000
   S  -0.2499071  -0.1790137  -0.3189942 SPIN=   0.00000
   F   0.2500684   0.0616222   0.4897079 SPIN=   0.00000
   F  -0.2499316  -0.0616222   0.0102921 SPIN=   0.00000
   F   0.2499316  -0.4383778  -0.4897079 SPIN=   0.00000
   F  -0.2500684   0.4383778  -0.0102921 SPIN=   0.00000
%ENDBLOCK POSITIONS_FRAC

# Note: total spin =  16.00

KPOINTS_MP_SPACING 0.07

%BLOCK SPECIES_POT
QC5
%ENDBLOCK SPECIES_POT

SNAP_TO_SYMMETRY
SYMMETRY_GENERATE

