#              Generated by Buildcell
#
# at 06:15:27 (GMT+1.0) 4th August 2020
# in /lustre/scratch/uccabz1/launch_tmp
# on node-c12n-016
# by uccabz1
#
# compiler GCC version 4.9.2
# options -cpp -iprefix /lustre/shared/ucl/apps/gcc/4.9.2/bin/../lib/gcc/x86_64-unknown-linux-gnu/4.9.2/ -mtune=corei7 -march=x86-64 -g -Og
#
# seed  1325125339  1354173356  2055641261  -328004714  1211708547 -1380389015   409824210  1425482695 -1509099372  1283213972  1723415180  -446759804
#
#      Author: C. J. Pickard (cjp20@cam.ac.uk)
#                Space group: Pnn2
#

%BLOCK LATTICE_ABC
      4.04766      8.04986     12.27630
     90.00000     90.00000     90.00000
%ENDBLOCK LATTICE_ABC

%BLOCK POSITIONS_FRAC
  Li  -0.1801057  -0.4771808  -0.1604288 SPIN=   0.00000
  Li   0.1801057  -0.4771808   0.1604288 SPIN=   0.00000
  Li   0.3198943   0.0228192  -0.3395712 SPIN=   0.00000
  Li  -0.3198943   0.0228192   0.3395712 SPIN=   0.00000
  Fe  -0.2499626  -0.3235411  -0.3765813 SPIN=   4.00000
  Fe   0.2499626  -0.3235411   0.3765813 SPIN=   4.00000
  Fe   0.2500374   0.1764589  -0.1234187 SPIN=   4.00000
  Fe  -0.2500374   0.1764589   0.1234187 SPIN=   4.00000
   O  -0.0704878  -0.2429581   0.1352906 SPIN=   0.00000
   O   0.2779084  -0.0473746   0.2401647 SPIN=   0.00000
   O   0.2535271  -0.0273584   0.0391554 SPIN=   0.00000
   S   0.2499438  -0.1455641   0.1352355 SPIN=   0.00000
   O   0.0704878  -0.2429581  -0.1352906 SPIN=   0.00000
   O  -0.2779084  -0.0473746  -0.2401647 SPIN=   0.00000
   O  -0.2535271  -0.0273584  -0.0391554 SPIN=   0.00000
   S  -0.2499438  -0.1455641  -0.1352355 SPIN=   0.00000
   O  -0.5704878   0.2570419   0.3647094 SPIN=   0.00000
   O  -0.2220916   0.4526254   0.2598353 SPIN=   0.00000
   O  -0.2464729   0.4726416   0.4608446 SPIN=   0.00000
   S  -0.2500562   0.3544359   0.3647645 SPIN=   0.00000
   O   0.5704878   0.2570419  -0.3647094 SPIN=   0.00000
   O   0.2220916   0.4526254  -0.2598353 SPIN=   0.00000
   O   0.2464729   0.4726416  -0.4608446 SPIN=   0.00000
   S   0.2500562   0.3544359  -0.3647645 SPIN=   0.00000
   O   0.5000000   0.0785322  -0.5000000 SPIN=   0.00000
   O   0.0000000  -0.4214678  -0.0000000 SPIN=   0.00000
   O  -0.5000000   0.4693222   0.0000000 SPIN=   0.00000
   O  -0.0000000  -0.0306778  -0.5000000 SPIN=   0.00000
   F   0.2500565  -0.2183485  -0.3561639 SPIN=   0.00000
   F  -0.2500565  -0.2183485   0.3561639 SPIN=   0.00000
   F  -0.2499435   0.2816515  -0.1438361 SPIN=   0.00000
   F   0.2499435   0.2816515   0.1438361 SPIN=   0.00000
%ENDBLOCK POSITIONS_FRAC

# Note: total spin =  16.00

KPOINTS_MP_SPACING 0.07

%BLOCK SPECIES_POT
QC5
%ENDBLOCK SPECIES_POT

SNAP_TO_SYMMETRY
SYMMETRY_GENERATE

