#              Generated by Buildcell
#
# at 12:27:39 (GMT+1.0) 18th August 2020
# in /lustre/scratch/uccabz1/launch_tmp
# on node-c12m-030
# by uccabz1
#
# compiler GCC version 4.9.2
# options -cpp -iprefix /lustre/shared/ucl/apps/gcc/4.9.2/bin/../lib/gcc/x86_64-unknown-linux-gnu/4.9.2/ -mtune=corei7 -march=x86-64 -g -Og
#
# seed  1765708088   568547539 -1918454279   869151017   -72255809 -1052392909 -1553176629   830195739 -1840873215   679117313 -1375295039 -1818129600
#
#      Author: C. J. Pickard (cjp20@cam.ac.uk)
#                Space group: P21
#

%BLOCK LATTICE_ABC
      5.06032      9.42493      9.60871
    119.20872     90.00000     90.00000
%ENDBLOCK LATTICE_ABC

%BLOCK POSITIONS_FRAC
  Li  -0.0372682  -0.1645732   0.2525676 SPIN=   0.00000
  Li   0.4627318   0.1645732  -0.2525676 SPIN=   0.00000
  Li  -0.2185098  -0.2684471  -0.3704336 SPIN=   0.00000
  Li   0.2814902   0.2684471   0.3704336 SPIN=   0.00000
  Fe   0.0259258  -0.3216519  -0.1089377 SPIN=   3.19888
  Fe  -0.4740742   0.3216519   0.1089377 SPIN=   3.19888
  Fe   0.2810488  -0.2816774  -0.5534283 SPIN=   4.80112
  Fe  -0.2189512   0.2816774   0.5534283 SPIN=   4.80112
   O  -0.0158252   0.1432651  -0.2293309 SPIN=   0.00000
   O  -0.2739854   0.3938964  -0.0668012 SPIN=   0.00000
   O   0.1461877   0.4075206  -0.1915787 SPIN=   0.00000
   O   0.1514024   0.3509482   0.0342983 SPIN=   0.00000
   S   0.0019449   0.3239076  -0.1133531 SPIN=   0.00000
   O  -0.5158252  -0.1432651   0.2293309 SPIN=   0.00000
   O  -0.7739854  -0.3938964   0.0668012 SPIN=   0.00000
   O  -0.3538123  -0.4075206   0.1915787 SPIN=   0.00000
   O  -0.3485976  -0.3509482  -0.0342983 SPIN=   0.00000
   S  -0.4980551  -0.3239076   0.1133531 SPIN=   0.00000
   O  -0.0371898   0.2260397   0.1634775 SPIN=   0.00000
   O  -0.4054230   0.0873065   0.2180045 SPIN=   0.00000
   O   0.0495343   0.0670650   0.3012264 SPIN=   0.00000
   O  -0.0688885  -0.0741140   0.0149243 SPIN=   0.00000
   S  -0.1154917   0.0765743   0.1744082 SPIN=   0.00000
   O   0.4628102  -0.2260397  -0.1634775 SPIN=   0.00000
   O   0.0945770  -0.0873065  -0.2180045 SPIN=   0.00000
   O   0.5495343  -0.0670650  -0.3012264 SPIN=   0.00000
   O   0.4311115   0.0741140  -0.0149243 SPIN=   0.00000
   S   0.3845083  -0.0765743  -0.1744082 SPIN=   0.00000
   F   0.3791698   0.4337891   0.3288683 SPIN=   0.00000
   F  -0.1208302  -0.4337891  -0.3288683 SPIN=   0.00000
   F   0.4520859   0.1656590   0.5282119 SPIN=   0.00000
   F  -0.0479141  -0.1656590  -0.5282119 SPIN=   0.00000
%ENDBLOCK POSITIONS_FRAC

# Note: total spin =  16.00

KPOINTS_MP_SPACING 0.07

%BLOCK SPECIES_POT
QC5
%ENDBLOCK SPECIES_POT

SNAP_TO_SYMMETRY
SYMMETRY_GENERATE

