#              Generated by Buildcell
#
# at 00:35:15 (GMT+1.0) 18th August 2020
# in /lustre/scratch/uccabz1/launch_tmp
# on node-c12l-010
# by uccabz1
#
# compiler GCC version 4.9.2
# options -cpp -iprefix /lustre/shared/ucl/apps/gcc/4.9.2/bin/../lib/gcc/x86_64-unknown-linux-gnu/4.9.2/ -mtune=corei7 -march=x86-64 -g -Og
#
# seed     1150050  -324650024  1359282667   566871819  2013351382    86351502  -398368286   524312565 -2113199529  1821565281    70574244  -794712016
#
#      Author: C. J. Pickard (cjp20@cam.ac.uk)
#                Space group: Aea2
#

%BLOCK LATTICE_ABC
      7.25688      7.25688      7.72704
     90.00000     90.00000    100.58491
%ENDBLOCK LATTICE_ABC

%BLOCK POSITIONS_FRAC
  Li  -0.3401835   0.2006746   0.1889859 SPIN=   0.00000
  Li   0.2006746  -0.3401835  -0.1889859 SPIN=   0.00000
  Li  -0.2993254   0.1598165  -0.3110141 SPIN=   0.00000
  Li   0.1598165  -0.2993254   0.3110141 SPIN=   0.00000
  Fe   0.0703501   0.1444982   0.2294550 SPIN=   4.00000
  Fe   0.1444982   0.0703501  -0.2294550 SPIN=   4.00000
  Fe  -0.3555018  -0.4296499  -0.2705450 SPIN=   4.00000
  Fe  -0.4296499  -0.3555018   0.2705450 SPIN=   4.00000
   O  -0.5294465  -0.2331343   0.0651500 SPIN=   0.00000
   O  -0.4844918  -0.1430184  -0.2429920 SPIN=   0.00000
   O  -0.2864093   0.0382266  -0.0179666 SPIN=   0.00000
   O  -0.6222798   0.0585571  -0.0405073 SPIN=   0.00000
   S  -0.4806569  -0.0698422  -0.0590790 SPIN=   0.00000
   O  -0.2331343  -0.5294465  -0.0651500 SPIN=   0.00000
   O  -0.1430184  -0.4844918   0.2429920 SPIN=   0.00000
   O   0.0382266  -0.2864093   0.0179666 SPIN=   0.00000
   O   0.0585571  -0.6222798   0.0405073 SPIN=   0.00000
   S  -0.0698422  -0.4806569   0.0590790 SPIN=   0.00000
   O   0.2668657  -0.0294465   0.5651500 SPIN=   0.00000
   O   0.3569816   0.0155082   0.2570080 SPIN=   0.00000
   O   0.5382266   0.2135907   0.4820334 SPIN=   0.00000
   O   0.5585571  -0.1222798   0.4594927 SPIN=   0.00000
   S   0.4301578   0.0193431   0.4409210 SPIN=   0.00000
   O  -0.0294465   0.2668657  -0.5651500 SPIN=   0.00000
   O   0.0155082   0.3569816  -0.2570080 SPIN=   0.00000
   O   0.2135907   0.5382266  -0.4820334 SPIN=   0.00000
   O  -0.1222798   0.5585571  -0.4594927 SPIN=   0.00000
   S   0.0193431   0.4301578  -0.4409210 SPIN=   0.00000
   F   0.3628130   0.4205715   0.2357724 SPIN=   0.00000
   F   0.4205715   0.3628130  -0.2357724 SPIN=   0.00000
   F  -0.0794285  -0.1371870  -0.2642276 SPIN=   0.00000
   F  -0.1371870  -0.0794285   0.2642276 SPIN=   0.00000
%ENDBLOCK POSITIONS_FRAC

# Note: total spin =  16.00

KPOINTS_MP_SPACING 0.07

%BLOCK SPECIES_POT
QC5
%ENDBLOCK SPECIES_POT

SNAP_TO_SYMMETRY
SYMMETRY_GENERATE

