#              Generated by Buildcell
#
# at 07:36:34 (GMT+1.0) 4th August 2020
# in /lustre/scratch/uccabz1/launch_tmp
# on node-c12e-019
# by uccabz1
#
# compiler GCC version 4.9.2
# options -cpp -iprefix /lustre/shared/ucl/apps/gcc/4.9.2/bin/../lib/gcc/x86_64-unknown-linux-gnu/4.9.2/ -mtune=corei7 -march=x86-64 -g -Og
#
# seed  1838872031   194604306 -1733106568  -608710807  -209989794 -1024443227  1110481952   248976503  1243271005   678269650  1829447492  -312595576
#
#      Author: C. J. Pickard (cjp20@cam.ac.uk)
#                Space group: P2
#

%BLOCK LATTICE_ABC
      5.85214      7.15523      9.55312
     90.00000     90.00000     90.60134
%ENDBLOCK LATTICE_ABC

%BLOCK POSITIONS_FRAC
  Li   0.1770307  -0.2686560  -0.2928791 SPIN=   0.00000
  Li  -0.1770307   0.2686560  -0.2928791 SPIN=   0.00000
  Li   0.3146070  -0.2283300   0.3095604 SPIN=   0.00000
  Li  -0.3146070   0.2283300   0.3095604 SPIN=   0.00000
  Fe   0.2497649   0.1443484   0.0910859 SPIN=   6.99753
  Fe  -0.2497649  -0.1443484   0.0910859 SPIN=   6.99753
  Fe   0.2478661   0.3541130   0.4320746 SPIN=   1.00247
  Fe  -0.2478661  -0.3541130   0.4320746 SPIN=   1.00247
   O  -0.5168711  -0.1630087  -0.2382976 SPIN=   0.00000
   O  -0.1476043  -0.1128907  -0.3595948 SPIN=   0.00000
   O  -0.2636794  -0.4309672  -0.2843834 SPIN=   0.00000
   O  -0.1539511  -0.1935315  -0.1076897 SPIN=   0.00000
   S  -0.2705265  -0.2250995  -0.2474914 SPIN=   0.00000
   O   0.5168711   0.1630087  -0.2382976 SPIN=   0.00000
   O   0.1476043   0.1128907  -0.3595948 SPIN=   0.00000
   O   0.2636794   0.4309672  -0.2843834 SPIN=   0.00000
   O   0.1539511   0.1935315  -0.1076897 SPIN=   0.00000
   S   0.2705265   0.2250995  -0.2474914 SPIN=   0.00000
   O   0.4907821  -0.3320514   0.0986698 SPIN=   0.00000
   O   0.2002257  -0.4891780  -0.0497308 SPIN=   0.00000
   O   0.2307958  -0.1439479  -0.0477150 SPIN=   0.00000
   O   0.0808502  -0.3119100   0.1598742 SPIN=   0.00000
   S   0.2506635  -0.3192718   0.0402745 SPIN=   0.00000
   O  -0.4907821   0.3320514   0.0986698 SPIN=   0.00000
   O  -0.2002257   0.4891780  -0.0497308 SPIN=   0.00000
   O  -0.2307958   0.1439479  -0.0477150 SPIN=   0.00000
   O  -0.0808502   0.3119100   0.1598742 SPIN=   0.00000
   S  -0.2506635   0.3192718   0.0402745 SPIN=   0.00000
   F  -0.2538892  -0.1350438   0.3294122 SPIN=   0.00000
   F   0.2538892   0.1350438   0.3294122 SPIN=   0.00000
   F   0.2380373  -0.3002697   0.4953143 SPIN=   0.00000
   F  -0.2380373   0.3002697   0.4953143 SPIN=   0.00000
%ENDBLOCK POSITIONS_FRAC

# Note: total spin =  16.00

KPOINTS_MP_SPACING 0.07

%BLOCK SPECIES_POT
QC5
%ENDBLOCK SPECIES_POT

SNAP_TO_SYMMETRY
SYMMETRY_GENERATE

