#              Generated by Buildcell
#
# at 10:01:30 (GMT+1.0) 4th August 2020
# in /lustre/scratch/uccabz1/launch_tmp
# on node-c12c-020
# by uccabz1
#
# compiler GCC version 4.9.2
# options -cpp -iprefix /lustre/shared/ucl/apps/gcc/4.9.2/bin/../lib/gcc/x86_64-unknown-linux-gnu/4.9.2/ -mtune=corei7 -march=x86-64 -g -Og
#
# seed  1194689361  2002734892  -126513858  1251386637  2040921059  1107513603   879377534  -415529017   940945952  1649535220 -1499920005  -282931645
#
#      Author: C. J. Pickard (cjp20@cam.ac.uk)
#                Space group: P21212
#

%BLOCK LATTICE_ABC
      5.79448      6.78563     10.17315
     90.00000     90.00000     90.00000
%ENDBLOCK LATTICE_ABC

%BLOCK POSITIONS_FRAC
  Li   0.2640145   0.2870871   0.1497897 SPIN=   0.00000
  Li  -0.2640145  -0.2870871   0.1497897 SPIN=   0.00000
  Li   0.2359855  -0.2129129  -0.1497897 SPIN=   0.00000
  Li  -0.2359855   0.2129129  -0.1497897 SPIN=   0.00000
  Fe  -0.0000000   0.0000000   0.3174230 SPIN=   4.05231
  Fe  -0.5000000  -0.5000000  -0.3174230 SPIN=   4.05231
  Fe  -0.5000000   0.0000000  -0.4565937 SPIN=   3.94769
  Fe  -0.0000000  -0.5000000   0.4565937 SPIN=   3.94769
   O  -0.2875993   0.0922033   0.1355090 SPIN=   0.00000
   O  -0.0849181   0.3437399   0.0024458 SPIN=   0.00000
   O  -0.1632156   0.4054390   0.2380306 SPIN=   0.00000
   S  -0.2551267   0.3113459   0.1134758 SPIN=   0.00000
   O   0.2875993  -0.0922033   0.1355090 SPIN=   0.00000
   O   0.0849181  -0.3437399   0.0024458 SPIN=   0.00000
   O   0.1632156  -0.4054390   0.2380306 SPIN=   0.00000
   S   0.2551267  -0.3113459   0.1134758 SPIN=   0.00000
   O  -0.2124007  -0.4077967  -0.1355090 SPIN=   0.00000
   O  -0.4150819  -0.1562601  -0.0024458 SPIN=   0.00000
   O  -0.3367844  -0.0945610  -0.2380306 SPIN=   0.00000
   S  -0.2448733  -0.1886541  -0.1134758 SPIN=   0.00000
   O   0.2124007   0.4077967  -0.1355090 SPIN=   0.00000
   O   0.4150819   0.1562601  -0.0024458 SPIN=   0.00000
   O   0.3367844   0.0945610  -0.2380306 SPIN=   0.00000
   S   0.2448733   0.1886541  -0.1134758 SPIN=   0.00000
   O  -0.0000000   0.0000000  -0.4682141 SPIN=   0.00000
   O  -0.5000000   0.5000000   0.4682141 SPIN=   0.00000
   O   0.0000000   0.0000000  -0.0952832 SPIN=   0.00000
   O  -0.5000000  -0.5000000   0.0952832 SPIN=   0.00000
   F  -0.2473809  -0.2069128   0.3347782 SPIN=   0.00000
   F   0.2473809   0.2069128   0.3347782 SPIN=   0.00000
   F  -0.2526191   0.2930872  -0.3347782 SPIN=   0.00000
   F   0.2526191  -0.2930872  -0.3347782 SPIN=   0.00000
%ENDBLOCK POSITIONS_FRAC

# Note: total spin =  16.00

KPOINTS_MP_SPACING 0.07

%BLOCK SPECIES_POT
QC5
%ENDBLOCK SPECIES_POT

SNAP_TO_SYMMETRY
SYMMETRY_GENERATE

