#              Generated by Buildcell
#
# at 04:46:06 (GMT+1.0) 18th August 2020
# in /lustre/scratch/uccabz1/launch_tmp
# on node-c12p-008
# by uccabz1
#
# compiler GCC version 4.9.2
# options -cpp -iprefix /lustre/shared/ucl/apps/gcc/4.9.2/bin/../lib/gcc/x86_64-unknown-linux-gnu/4.9.2/ -mtune=corei7 -march=x86-64 -g -Og
#
# seed   572553118     3834549   405164585  1105475311  -193862398 -2145862706   622488709   199510698   229046998 -1341655587  1819575688 -1739820008
#
#      Author: C. J. Pickard (cjp20@cam.ac.uk)
#                Space group: Cm
#

%BLOCK LATTICE_ABC
      6.65416      8.37247      8.91723
    117.43079    111.22690     91.34811
%ENDBLOCK LATTICE_ABC

%BLOCK POSITIONS_FRAC
  Li   0.1716487  -0.4799721  -0.4519550 SPIN=   0.00000
  Li   0.6236038  -0.0280171   0.4519550 SPIN=   0.00000
  Li  -0.4811832   0.3775440   0.2651015 SPIN=   0.00000
  Li  -0.7462847   0.1124424  -0.2651015 SPIN=   0.00000
  Fe  -0.4411926  -0.1340882  -0.2537804 SPIN=   3.18380
  Fe  -0.1874121   0.1196922   0.2537804 SPIN=   3.18380
  Fe  -0.1824393  -0.3637704  -0.7449177 SPIN=   4.81620
  Fe   0.5624783   0.3811473   0.7449177 SPIN=   4.81620
   O  -0.0008877   0.3069602   0.5273472 SPIN=   0.00000
   O  -0.0588992   0.2322954   0.7489766 SPIN=   0.00000
   O  -0.0235173   0.5536801   0.8096572 SPIN=   0.00000
   O   0.3035686   0.4156788   0.8377297 SPIN=   0.00000
   S   0.0550661   0.3771536   0.7309277 SPIN=   0.00000
   O  -0.5282349  -0.2203870  -0.5273472 SPIN=   0.00000
   O  -0.8078758  -0.5166812  -0.7489766 SPIN=   0.00000
   O  -0.8331745  -0.2559771  -0.8096572 SPIN=   0.00000
   O  -0.5341611  -0.4220510  -0.8377297 SPIN=   0.00000
   S  -0.6758616  -0.3537741  -0.7309277 SPIN=   0.00000
   O   0.1608684   0.1713931   0.1630994 SPIN=   0.00000
   O   0.3909886  -0.0565465   0.1632192 SPIN=   0.00000
   O   0.2230195   0.0636185   0.3888250 SPIN=   0.00000
   O   0.5308208   0.2678247   0.4225035 SPIN=   0.00000
   S   0.3264243   0.1115724   0.2844118 SPIN=   0.00000
   O  -0.0022310   0.0082937  -0.1630994 SPIN=   0.00000
   O   0.2277694  -0.2197657  -0.1632192 SPIN=   0.00000
   O  -0.1658055  -0.3252065  -0.3888250 SPIN=   0.00000
   O   0.1083173  -0.1546788  -0.4225035 SPIN=   0.00000
   S   0.0420125  -0.1728393  -0.2844118 SPIN=   0.00000
   F  -0.1935309   0.3866425   0.2558045 SPIN=   0.00000
   F  -0.4493354   0.1308380  -0.2558045 SPIN=   0.00000
   F   0.4961964  -0.4088798  -0.3179095 SPIN=   0.00000
   F   0.8141059  -0.0909703   0.3179095 SPIN=   0.00000
%ENDBLOCK POSITIONS_FRAC

# Note: total spin =  16.00

KPOINTS_MP_SPACING 0.07

%BLOCK SPECIES_POT
QC5
%ENDBLOCK SPECIES_POT

SNAP_TO_SYMMETRY
SYMMETRY_GENERATE

