#              Generated by Buildcell
#
# at 23:58:59 (GMT+1.0) 17th August 2020
# in /scratch/scratch/uccabz1/launch_tmp
# on node-k10c-003
# by uccabz1
#
# compiler GCC version 4.9.2
# options -cpp -iprefix /scratch/UCL/applications/gcc/4.9.2/bin/../lib/gcc/x86_64-unknown-linux-gnu/4.9.2/ -mtune=corei7 -march=x86-64 -g -O2
#
# seed -1888139853  -778926712   885807750  -200376826  -639843577  -171477916   396116149 -2087484422 -1520439648   461201531  -553455692  -785933888
#
#      Author: C. J. Pickard (cjp20@cam.ac.uk)
#                Space group: Cc
#

%BLOCK LATTICE_ABC
      5.51463      8.81834      8.81834
     76.96533     76.94021     76.94021
%ENDBLOCK LATTICE_ABC

%BLOCK POSITIONS_FRAC
  Li  -0.0883275  -0.1688910   0.1200594 SPIN=   0.00000
  Li   0.4116725   0.1200594  -0.1688910 SPIN=   0.00000
  Li   0.3474214   0.0730945   0.2743280 SPIN=   0.00000
  Li  -0.1525786   0.2743280   0.0730945 SPIN=   0.00000
  Fe   0.4886951  -0.4268614  -0.0057583 SPIN=   6.05045
  Fe  -0.0113049  -0.0057583  -0.4268614 SPIN=   6.05045
  Fe   0.2418962  -0.3680005   0.4047986 SPIN=   1.94955
  Fe  -0.2581038   0.4047986  -0.3680005 SPIN=   1.94955
   O  -0.0008976  -0.3626580   0.2641935 SPIN=   0.00000
   O  -0.1222055  -0.6223373   0.3889527 SPIN=   0.00000
   O  -0.0382620  -0.5440137   0.0969596 SPIN=   0.00000
   O  -0.4228195  -0.4098846   0.2555811 SPIN=   0.00000
   S  -0.1460462  -0.4847234   0.2514217 SPIN=   0.00000
   O   0.4991024   0.2641935  -0.3626580 SPIN=   0.00000
   O   0.3777945   0.3889527  -0.6223373 SPIN=   0.00000
   O   0.4617380   0.0969596  -0.5440137 SPIN=   0.00000
   O   0.0771805   0.2555811  -0.4098846 SPIN=   0.00000
   S   0.3539538   0.2514217  -0.4847234 SPIN=   0.00000
   O  -0.6746219  -0.1441572  -0.5111026 SPIN=   0.00000
   O  -0.2062342  -0.1921797  -0.5755964 SPIN=   0.00000
   O  -0.4257856  -0.3702473  -0.3553317 SPIN=   0.00000
   O  -0.4302672  -0.0961163  -0.3287696 SPIN=   0.00000
   S  -0.4342272  -0.2006751  -0.4427001 SPIN=   0.00000
   O  -0.1746219  -0.5111026  -0.1441572 SPIN=   0.00000
   O   0.2937658  -0.5755964  -0.1921797 SPIN=   0.00000
   O   0.0742144  -0.3553317  -0.3702473 SPIN=   0.00000
   O   0.0697328  -0.3287696  -0.0961163 SPIN=   0.00000
   S   0.0657728  -0.4427001  -0.2006751 SPIN=   0.00000
   F   0.4952285   0.3189499   0.0674049 SPIN=   0.00000
   F  -0.0047715   0.0674049   0.3189499 SPIN=   0.00000
   F   0.3636186  -0.2210200   0.0325300 SPIN=   0.00000
   F  -0.1363814   0.0325300  -0.2210200 SPIN=   0.00000
%ENDBLOCK POSITIONS_FRAC

# Note: total spin =  16.00

KPOINTS_MP_SPACING 0.07

%BLOCK SPECIES_POT
QC5
%ENDBLOCK SPECIES_POT

SNAP_TO_SYMMETRY
SYMMETRY_GENERATE

