#              Generated by Buildcell
#
# at 10:26:50 (GMT+1.0) 4th August 2020
# in /lustre/scratch/uccabz1/launch_tmp
# on node-c12d-029
# by uccabz1
#
# compiler GCC version 4.9.2
# options -cpp -iprefix /lustre/shared/ucl/apps/gcc/4.9.2/bin/../lib/gcc/x86_64-unknown-linux-gnu/4.9.2/ -mtune=corei7 -march=x86-64 -g -Og
#
# seed  1108489774   507075698  1693783129   281963187 -1025436458   -20896466   719751032   -10857018  -802736177  1808652246  -836013425 -1152593431
#
#      Author: C. J. Pickard (cjp20@cam.ac.uk)
#                Space group: P21212
#

%BLOCK LATTICE_ABC
      5.29017      7.92285      9.54352
     90.00000     90.00000     90.00000
%ENDBLOCK LATTICE_ABC

%BLOCK POSITIONS_FRAC
  Li  -0.4893919   0.4733325   0.2078577 SPIN=   0.00000
  Li  -0.4893919  -0.4733325  -0.2078577 SPIN=   0.00000
  Li   0.4893919   0.0266675  -0.2921423 SPIN=   0.00000
  Li   0.4893919  -0.0266675   0.2921423 SPIN=   0.00000
  Fe  -0.2791506   0.2277767  -0.0145120 SPIN=   4.00000
  Fe  -0.2791506  -0.2277767   0.0145120 SPIN=   4.00000
  Fe   0.2791506   0.2722233   0.4854880 SPIN=   4.00000
  Fe   0.2791506  -0.2722233  -0.4854880 SPIN=   4.00000
   O   0.1543594  -0.6422358   0.2430075 SPIN=   0.00000
   O  -0.2046779  -0.4938020   0.3546089 SPIN=   0.00000
   O  -0.0945473  -0.4341333   0.1074877 SPIN=   0.00000
   O   0.1876953  -0.3378409   0.2982271 SPIN=   0.00000
   S   0.0107074  -0.4770030   0.2508328 SPIN=   0.00000
   O   0.1543594   0.6422358  -0.2430075 SPIN=   0.00000
   O  -0.2046779   0.4938020  -0.3546089 SPIN=   0.00000
   O  -0.0945473   0.4341333  -0.1074877 SPIN=   0.00000
   O   0.1876953   0.3378409  -0.2982271 SPIN=   0.00000
   S   0.0107074   0.4770030  -0.2508328 SPIN=   0.00000
   O  -0.1543594   0.1422358  -0.2569925 SPIN=   0.00000
   O   0.2046779  -0.0061980  -0.1453911 SPIN=   0.00000
   O   0.0945473  -0.0658667  -0.3925123 SPIN=   0.00000
   O  -0.1876953  -0.1621591  -0.2017729 SPIN=   0.00000
   S  -0.0107074  -0.0229970  -0.2491672 SPIN=   0.00000
   O  -0.1543594  -0.1422358   0.2569925 SPIN=   0.00000
   O   0.2046779   0.0061980   0.1453911 SPIN=   0.00000
   O   0.0945473   0.0658667   0.3925123 SPIN=   0.00000
   O  -0.1876953   0.1621591   0.2017729 SPIN=   0.00000
   S  -0.0107074   0.0229970   0.2491672 SPIN=   0.00000
   F   0.3824887  -0.2761315   0.0080948 SPIN=   0.00000
   F   0.3824887   0.2761315  -0.0080948 SPIN=   0.00000
   F  -0.3824887  -0.2238685  -0.4919052 SPIN=   0.00000
   F  -0.3824887   0.2238685   0.4919052 SPIN=   0.00000
%ENDBLOCK POSITIONS_FRAC

# Note: total spin =  16.00

KPOINTS_MP_SPACING 0.07

%BLOCK SPECIES_POT
QC5
%ENDBLOCK SPECIES_POT

SNAP_TO_SYMMETRY
SYMMETRY_GENERATE

