#              Generated by Buildcell
#
# at 10:35:27 (GMT+1.0) 18th August 2020
# in /lustre/scratch/uccabz1/launch_tmp
# on node-c12a-010
# by uccabz1
#
# compiler GCC version 4.9.2
# options -cpp -iprefix /lustre/shared/ucl/apps/gcc/4.9.2/bin/../lib/gcc/x86_64-unknown-linux-gnu/4.9.2/ -mtune=corei7 -march=x86-64 -g -Og
#
# seed   795501576  -262506974   570894531  1441106949   846264783   475484536 -1719185736   102208682  1742302891  1237182607    32747584  1243033664
#
#      Author: C. J. Pickard (cjp20@cam.ac.uk)
#                Space group: C2
#

%BLOCK LATTICE_ABC
      4.13207      9.96466      9.96466
     87.70059     80.90865     80.90865
%ENDBLOCK LATTICE_ABC

%BLOCK POSITIONS_FRAC
  Li   0.1682702   0.3430519  -0.1287390 SPIN=   0.00000
  Li  -0.1682702   0.1287390  -0.3430519 SPIN=   0.00000
  Li   0.1903209  -0.2614608  -0.2562984 SPIN=   0.00000
  Li  -0.1903209   0.2562984   0.2614608 SPIN=   0.00000
  Fe  -0.2895703  -0.2483588   0.4774933 SPIN=   2.86242
  Fe   0.2895703  -0.4774933   0.2483588 SPIN=   2.86242
  Fe   0.2108453  -0.0338553   0.2624112 SPIN=   5.13758
  Fe  -0.2108453  -0.2624112   0.0338553 SPIN=   5.13758
   O  -0.2713017  -0.5398699  -0.3621463 SPIN=   0.00000
   O   0.1793493  -0.4831573  -0.2483134 SPIN=   0.00000
   O  -0.3729661  -0.4974786  -0.1149045 SPIN=   0.00000
   O  -0.2991331  -0.3071672  -0.2785188 SPIN=   0.00000
   S  -0.1910129  -0.4569182  -0.2509707 SPIN=   0.00000
   O   0.2713017   0.3621463   0.5398699 SPIN=   0.00000
   O  -0.1793493   0.2483134   0.4831573 SPIN=   0.00000
   O   0.3729661   0.1149045   0.4974786 SPIN=   0.00000
   O   0.2991331   0.2785188   0.3071672 SPIN=   0.00000
   S   0.1910129   0.2509707   0.4569182 SPIN=   0.00000
   O   0.5766400  -0.0805226  -0.3567494 SPIN=   0.00000
   O   0.4710972  -0.0530050  -0.1071618 SPIN=   0.00000
   O   0.0005514  -0.0451589  -0.2346517 SPIN=   0.00000
   O   0.3305313   0.1435805  -0.2583664 SPIN=   0.00000
   S   0.3447050  -0.0087765  -0.2392323 SPIN=   0.00000
   O  -0.5766400   0.3567494   0.0805226 SPIN=   0.00000
   O  -0.4710972   0.1071618   0.0530050 SPIN=   0.00000
   O  -0.0005514   0.2346517   0.0451589 SPIN=   0.00000
   O  -0.3305313   0.2583664  -0.1435805 SPIN=   0.00000
   S  -0.3447050   0.2392323   0.0087765 SPIN=   0.00000
   F   0.2803336  -0.2676353   0.0277107 SPIN=   0.00000
   F  -0.2803336  -0.0277107   0.2676353 SPIN=   0.00000
   F   0.2203940  -0.2495417   0.4875691 SPIN=   0.00000
   F  -0.2203940  -0.4875691   0.2495417 SPIN=   0.00000
%ENDBLOCK POSITIONS_FRAC

# Note: total spin =  16.00

KPOINTS_MP_SPACING 0.07

%BLOCK SPECIES_POT
QC5
%ENDBLOCK SPECIES_POT

SNAP_TO_SYMMETRY
SYMMETRY_GENERATE

