#              Generated by Buildcell
#
# at 01:23:24 (GMT+1.0) 18th August 2020
# in /scratch/scratch/uccabz1/launch_tmp
# on node-k10i-003
# by uccabz1
#
# compiler GCC version 4.9.2
# options -cpp -iprefix /scratch/UCL/applications/gcc/4.9.2/bin/../lib/gcc/x86_64-unknown-linux-gnu/4.9.2/ -mtune=corei7 -march=x86-64 -g -O2
#
# seed   536623816 -1626528634 -1476429888  1743331380 -1232691222  -257801900  1774590437  1266910109   184034865   142563077   915435089  1964162885
#
#      Author: C. J. Pickard (cjp20@cam.ac.uk)
#                Space group: C2
#

%BLOCK LATTICE_ABC
      7.69939      7.74537      8.54052
     77.62897     63.20775     61.62159
%ENDBLOCK LATTICE_ABC

%BLOCK POSITIONS_FRAC
  Li   0.0813450  -0.2563856   0.3244491 SPIN=   0.00000
  Li  -0.4057942   0.2563856   0.3244491 SPIN=   0.00000
  Li   0.3212258   0.2479188  -0.1492495 SPIN=   0.00000
  Li  -0.1719764  -0.2479188  -0.1492495 SPIN=   0.00000
  Fe   0.0284013   0.2349690   0.2245718 SPIN=   3.38118
  Fe  -0.2529730  -0.2349690   0.2245718 SPIN=   3.38118
  Fe  -0.0877913   0.3835069  -0.2859049 SPIN=   4.61882
  Fe   0.3736962  -0.3835069  -0.2859049 SPIN=   4.61882
   O   0.1925105  -0.1297013  -0.5494442 SPIN=   0.00000
   O  -0.1459744   0.1773851  -0.4836414 SPIN=   0.00000
   O  -0.0269596  -0.0001843  -0.2462183 SPIN=   0.00000
   O  -0.1605771  -0.1408462  -0.3773010 SPIN=   0.00000
   S  -0.0352501  -0.0233367  -0.4141512 SPIN=   0.00000
   O   0.3569337   0.1297013  -0.5494442 SPIN=   0.00000
   O   0.6296158  -0.1773851  -0.4836414 SPIN=   0.00000
   O   0.2731779   0.0001843  -0.2462183 SPIN=   0.00000
   O   0.5378780   0.1408462  -0.3773010 SPIN=   0.00000
   S   0.4494014   0.0233367  -0.4141512 SPIN=   0.00000
   O  -0.7346302   0.3546166   0.1191847 SPIN=   0.00000
   O  -0.4443148   0.0428619   0.1575586 SPIN=   0.00000
   O  -0.3939457   0.3474430   0.0835369 SPIN=   0.00000
   O  -0.3963298   0.1893179  -0.1379806 SPIN=   0.00000
   S  -0.4923051   0.2335599   0.0555749 SPIN=   0.00000
   O   0.6154455  -0.3546166   0.1191847 SPIN=   0.00000
   O   0.2867562  -0.0428619   0.1575586 SPIN=   0.00000
   O   0.3104088  -0.3474430   0.0835369 SPIN=   0.00000
   O   0.5343104  -0.1893179  -0.1379806 SPIN=   0.00000
   S   0.4367302  -0.2335599   0.0555749 SPIN=   0.00000
   F   0.0026814   0.2477992   0.0067624 SPIN=   0.00000
   F  -0.0094439  -0.2477992   0.0067624 SPIN=   0.00000
   F   0.0324612   0.4615994   0.4710560 SPIN=   0.00000
   F   0.4964827  -0.4615994   0.4710560 SPIN=   0.00000
%ENDBLOCK POSITIONS_FRAC

# Note: total spin =  16.00

KPOINTS_MP_SPACING 0.07

%BLOCK SPECIES_POT
QC5
%ENDBLOCK SPECIES_POT

SNAP_TO_SYMMETRY
SYMMETRY_GENERATE

