#              Generated by Buildcell
#
# at 06:52:47 (GMT+1.0) 4th August 2020
# in /lustre/scratch/uccabz1/launch_tmp
# on node-c12l-015
# by uccabz1
#
# compiler GCC version 4.9.2
# options -cpp -iprefix /lustre/shared/ucl/apps/gcc/4.9.2/bin/../lib/gcc/x86_64-unknown-linux-gnu/4.9.2/ -mtune=corei7 -march=x86-64 -g -Og
#
# seed -1529248640  -468243761 -1120113916   102367518   334617329 -1288090478  -693542627  -791415411  -586147471   620128177  1872924842 -1122299892
#
#      Author: C. J. Pickard (cjp20@cam.ac.uk)
#                Space group: P-4
#

%BLOCK LATTICE_ABC
      5.79763      8.30624      8.30624
     90.00000     90.00000     90.00000
%ENDBLOCK LATTICE_ABC

%BLOCK POSITIONS_FRAC
  Li  -0.2093568  -0.2580699   0.4575273 SPIN=   0.00000
  Li  -0.2093568   0.2580699  -0.4575273 SPIN=   0.00000
  Li   0.2093568  -0.4575273  -0.2580699 SPIN=   0.00000
  Li   0.2093568   0.4575273   0.2580699 SPIN=   0.00000
  Fe   0.3140620  -0.2469427   0.0170200 SPIN=   4.00000
  Fe   0.3140620   0.2469427  -0.0170200 SPIN=   4.00000
  Fe  -0.3140620  -0.0170200  -0.2469427 SPIN=   4.00000
  Fe  -0.3140620   0.0170200   0.2469427 SPIN=   4.00000
   O   0.5164278  -0.1086035   0.4203605 SPIN=   0.00000
   O   0.0935477  -0.1462647   0.4049942 SPIN=   0.00000
   O   0.3363788  -0.3509755   0.5396867 SPIN=   0.00000
   O   0.3527089  -0.3195070   0.2436190 SPIN=   0.00000
   S   0.3247658  -0.2313377   0.4021651 SPIN=   0.00000
   O   0.5164278   0.1086035  -0.4203605 SPIN=   0.00000
   O   0.0935477   0.1462647  -0.4049942 SPIN=   0.00000
   O   0.3363788   0.3509755  -0.5396867 SPIN=   0.00000
   O   0.3527089   0.3195070  -0.2436190 SPIN=   0.00000
   S   0.3247658   0.2313377  -0.4021651 SPIN=   0.00000
   O  -0.5164278  -0.4203605  -0.1086035 SPIN=   0.00000
   O  -0.0935477  -0.4049942  -0.1462647 SPIN=   0.00000
   O  -0.3363788  -0.5396867  -0.3509755 SPIN=   0.00000
   O  -0.3527089  -0.2436190  -0.3195070 SPIN=   0.00000
   S  -0.3247658  -0.4021651  -0.2313377 SPIN=   0.00000
   O  -0.5164278   0.4203605   0.1086035 SPIN=   0.00000
   O  -0.0935477   0.4049942   0.1462647 SPIN=   0.00000
   O  -0.3363788   0.5396867   0.3509755 SPIN=   0.00000
   O  -0.3527089   0.2436190   0.3195070 SPIN=   0.00000
   S  -0.3247658   0.4021651   0.2313377 SPIN=   0.00000
   F  -0.1911267   0.1864188  -0.1360342 SPIN=   0.00000
   F  -0.1911267  -0.1864188   0.1360342 SPIN=   0.00000
   F   0.1911267   0.1360342   0.1864188 SPIN=   0.00000
   F   0.1911267  -0.1360342  -0.1864188 SPIN=   0.00000
%ENDBLOCK POSITIONS_FRAC

# Note: total spin =  16.00

KPOINTS_MP_SPACING 0.07

%BLOCK SPECIES_POT
QC5
%ENDBLOCK SPECIES_POT

SNAP_TO_SYMMETRY
SYMMETRY_GENERATE

