#              Generated by Buildcell
#
# at 02:08:28 (GMT+1.0) 18th August 2020
# in /lustre/scratch/uccabz1/launch_tmp
# on node-c12o-031
# by uccabz1
#
# compiler GCC version 4.9.2
# options -cpp -iprefix /lustre/shared/ucl/apps/gcc/4.9.2/bin/../lib/gcc/x86_64-unknown-linux-gnu/4.9.2/ -mtune=corei7 -march=x86-64 -g -Og
#
# seed -1504261041 -1784738614 -1366607392   -72377061  -497211537  -242096376   159545860  1177759706  1336726723   159413914  1884785057  1555353111
#
#      Author: C. J. Pickard (cjp20@cam.ac.uk)
#                Space group: P2221
#

%BLOCK LATTICE_ABC
      3.90071      7.74993     13.23179
     90.00000     90.00000     90.00000
%ENDBLOCK LATTICE_ABC

%BLOCK POSITIONS_FRAC
  Li   0.2497306  -0.1197362  -0.1256103 SPIN=   0.00000
  Li  -0.2497306   0.1197362   0.3743897 SPIN=   0.00000
  Li  -0.2497306  -0.1197362  -0.3743897 SPIN=   0.00000
  Li   0.2497306   0.1197362   0.1256103 SPIN=   0.00000
  Fe   0.2499097   0.3965649   0.3719230 SPIN=   4.00000
  Fe  -0.2499097  -0.3965649  -0.1280770 SPIN=   4.00000
  Fe  -0.2499097   0.3965649   0.1280770 SPIN=   4.00000
  Fe   0.2499097  -0.3965649  -0.3719230 SPIN=   4.00000
   O   0.1795522   0.0167387  -0.3269180 SPIN=   0.00000
   O   0.1981886   0.1610916  -0.4936674 SPIN=   0.00000
   O   0.7033530   0.1718137  -0.3806768 SPIN=   0.00000
   O   0.1791120   0.3356040  -0.3371271 SPIN=   0.00000
   S   0.3150515   0.1713120  -0.3845973 SPIN=   0.00000
   O  -0.1795522  -0.0167387   0.1730820 SPIN=   0.00000
   O  -0.1981886  -0.1610916   0.0063326 SPIN=   0.00000
   O  -0.7033530  -0.1718137   0.1193232 SPIN=   0.00000
   O  -0.1791120  -0.3356040   0.1628729 SPIN=   0.00000
   S  -0.3150515  -0.1713120   0.1154027 SPIN=   0.00000
   O  -0.1795522   0.0167387  -0.1730820 SPIN=   0.00000
   O  -0.1981886   0.1610916  -0.0063326 SPIN=   0.00000
   O  -0.7033530   0.1718137  -0.1193232 SPIN=   0.00000
   O  -0.1791120   0.3356040  -0.1628729 SPIN=   0.00000
   S  -0.3150515   0.1713120  -0.1154027 SPIN=   0.00000
   O   0.1795522  -0.0167387   0.3269180 SPIN=   0.00000
   O   0.1981886  -0.1610916   0.4936674 SPIN=   0.00000
   O   0.7033530  -0.1718137   0.3806768 SPIN=   0.00000
   O   0.1791120  -0.3356040   0.3371271 SPIN=   0.00000
   S   0.3150515  -0.1713120   0.3845973 SPIN=   0.00000
   F  -0.2501887   0.3690560   0.3607681 SPIN=   0.00000
   F   0.2501887  -0.3690560  -0.1392319 SPIN=   0.00000
   F   0.2501887   0.3690560   0.1392319 SPIN=   0.00000
   F  -0.2501887  -0.3690560  -0.3607681 SPIN=   0.00000
%ENDBLOCK POSITIONS_FRAC

# Note: total spin =  16.00

KPOINTS_MP_SPACING 0.07

%BLOCK SPECIES_POT
QC5
%ENDBLOCK SPECIES_POT

SNAP_TO_SYMMETRY
SYMMETRY_GENERATE

