#              Generated by Buildcell
#
# at 06:52:36 (GMT+1.0) 4th August 2020
# in /lustre/scratch/uccabz1/launch_tmp
# on node-c12c-029
# by uccabz1
#
# compiler GCC version 4.9.2
# options -cpp -iprefix /lustre/shared/ucl/apps/gcc/4.9.2/bin/../lib/gcc/x86_64-unknown-linux-gnu/4.9.2/ -mtune=corei7 -march=x86-64 -g -Og
#
# seed  1781348730   758097999  -254450794  -416887219   968799479   619431990    88757302  1676917200   262258307   -26066893  -250083079   349665241
#
#      Author: C. J. Pickard (cjp20@cam.ac.uk)
#                Space group: P21
#

%BLOCK LATTICE_ABC
      5.07121      5.09282     15.56364
     90.00000     95.65884     90.00000
%ENDBLOCK LATTICE_ABC

%BLOCK POSITIONS_FRAC
  Li  -0.0180231   0.4475889   0.2382792 SPIN=   0.00000
  Li   0.0180231  -0.0524111  -0.2382792 SPIN=   0.00000
  Li   0.2784995  -0.4058612  -0.4195335 SPIN=   0.00000
  Li  -0.2784995   0.0941388   0.4195335 SPIN=   0.00000
  Fe  -0.1979591   0.0084922  -0.0709046 SPIN=   7.31485
  Fe   0.1979591  -0.4915078   0.0709046 SPIN=   7.31485
  Fe   0.4647704   0.1152299  -0.3309923 SPIN=   0.68515
  Fe  -0.4647704  -0.3847701   0.3309923 SPIN=   0.68515
   O   0.1858969   0.6953749  -0.1421631 SPIN=   0.00000
   O   0.4119108   0.4107136  -0.2409152 SPIN=   0.00000
   O  -0.0757956   0.4600371  -0.2608242 SPIN=   0.00000
   O   0.1354960   0.2126505  -0.1355480 SPIN=   0.00000
   S   0.1643770   0.4446940  -0.1948626 SPIN=   0.00000
   O  -0.1858969   0.1953749   0.1421631 SPIN=   0.00000
   O  -0.4119108  -0.0892864   0.2409152 SPIN=   0.00000
   O   0.0757956  -0.0399629   0.2608242 SPIN=   0.00000
   O  -0.1354960  -0.2873495   0.1355480 SPIN=   0.00000
   S  -0.1643770  -0.0553060   0.1948626 SPIN=   0.00000
   O   0.0108953   0.3646198   0.3923647 SPIN=   0.00000
   O   0.1470509   0.2192029   0.5419042 SPIN=   0.00000
   O   0.4797786   0.4025060   0.4523503 SPIN=   0.00000
   O   0.2845676  -0.0351798   0.4183813 SPIN=   0.00000
   S   0.2305731   0.2377872   0.4512501 SPIN=   0.00000
   O  -0.0108953  -0.1353802  -0.3923647 SPIN=   0.00000
   O  -0.1470509  -0.2807971  -0.5419042 SPIN=   0.00000
   O  -0.4797786  -0.0974940  -0.4523503 SPIN=   0.00000
   O  -0.2845676  -0.5351798  -0.4183813 SPIN=   0.00000
   S  -0.2305731  -0.2622128  -0.4512501 SPIN=   0.00000
   F  -0.2628154   0.4100943  -0.0383864 SPIN=   0.00000
   F   0.2628154  -0.0899057   0.0383864 SPIN=   0.00000
   F   0.3577720   0.4104678   0.2207932 SPIN=   0.00000
   F  -0.3577720  -0.0895322  -0.2207932 SPIN=   0.00000
%ENDBLOCK POSITIONS_FRAC

# Note: total spin =  16.00

KPOINTS_MP_SPACING 0.07

%BLOCK SPECIES_POT
QC5
%ENDBLOCK SPECIES_POT

SNAP_TO_SYMMETRY
SYMMETRY_GENERATE

