#              Generated by Buildcell
#
# at 06:08:51 (GMT+1.0) 4th August 2020
# in /lustre/scratch/uccabz1/launch_tmp
# on node-c12f-027
# by uccabz1
#
# compiler GCC version 4.9.2
# options -cpp -iprefix /lustre/shared/ucl/apps/gcc/4.9.2/bin/../lib/gcc/x86_64-unknown-linux-gnu/4.9.2/ -mtune=corei7 -march=x86-64 -g -Og
#
# seed   278532401   394723363  -266130826 -1894267855   -90638447 -2091800939  1830977629  -433562520  -578133624  1401636620 -1894564446   241759334
#
#      Author: C. J. Pickard (cjp20@cam.ac.uk)
#                Space group: P42
#

%BLOCK LATTICE_ABC
      6.75951      6.75951      8.75446
     90.00000     90.00000     90.00000
%ENDBLOCK LATTICE_ABC

%BLOCK POSITIONS_FRAC
  Li  -0.4228400   0.2499444  -0.3611015 SPIN=   0.00000
  Li   0.4228400  -0.2499444  -0.3611015 SPIN=   0.00000
  Li  -0.2499444  -0.4228400   0.1388985 SPIN=   0.00000
  Li   0.2499444   0.4228400   0.1388985 SPIN=   0.00000
  Fe   0.2053504  -0.1856053  -0.0387466 SPIN=   4.00000
  Fe  -0.2053504   0.1856053  -0.0387466 SPIN=   4.00000
  Fe   0.1856053   0.2053504   0.4612534 SPIN=   4.00000
  Fe  -0.1856053  -0.2053504   0.4612534 SPIN=   4.00000
   O   0.4937969  -0.3342621   0.4164173 SPIN=   0.00000
   O   0.2880334  -0.2773225   0.1867554 SPIN=   0.00000
   O   0.1919884  -0.1282504   0.4340824 SPIN=   0.00000
   O   0.1634612  -0.4898979   0.3958653 SPIN=   0.00000
   S   0.2843200  -0.3074332   0.3582801 SPIN=   0.00000
   O  -0.4937969   0.3342621   0.4164173 SPIN=   0.00000
   O  -0.2880334   0.2773225   0.1867554 SPIN=   0.00000
   O  -0.1919884   0.1282504   0.4340824 SPIN=   0.00000
   O  -0.1634612   0.4898979   0.3958653 SPIN=   0.00000
   S  -0.2843200   0.3074332   0.3582801 SPIN=   0.00000
   O   0.3342621   0.4937969  -0.0835827 SPIN=   0.00000
   O   0.2773225   0.2880334  -0.3132446 SPIN=   0.00000
   O   0.1282504   0.1919884  -0.0659176 SPIN=   0.00000
   O   0.4898979   0.1634612  -0.1041347 SPIN=   0.00000
   S   0.3074332   0.2843200  -0.1417199 SPIN=   0.00000
   O  -0.3342621  -0.4937969  -0.0835827 SPIN=   0.00000
   O  -0.2773225  -0.2880334  -0.3132446 SPIN=   0.00000
   O  -0.1282504  -0.1919884  -0.0659176 SPIN=   0.00000
   O  -0.4898979  -0.1634612  -0.1041347 SPIN=   0.00000
   S  -0.3074332  -0.2843200  -0.1417199 SPIN=   0.00000
   F   0.2247858   0.1758188   0.2430352 SPIN=   0.00000
   F  -0.2247858  -0.1758188   0.2430352 SPIN=   0.00000
   F  -0.1758188   0.2247858  -0.2569648 SPIN=   0.00000
   F   0.1758188  -0.2247858  -0.2569648 SPIN=   0.00000
%ENDBLOCK POSITIONS_FRAC

# Note: total spin =  16.00

KPOINTS_MP_SPACING 0.07

%BLOCK SPECIES_POT
QC5
%ENDBLOCK SPECIES_POT

SNAP_TO_SYMMETRY
SYMMETRY_GENERATE

