#              Generated by Buildcell
#
# at 02:23:12 (GMT+1.0) 18th August 2020
# in /scratch/scratch/uccabz1/launch_tmp
# on node-k10h-001
# by uccabz1
#
# compiler GCC version 4.9.2
# options -cpp -iprefix /scratch/UCL/applications/gcc/4.9.2/bin/../lib/gcc/x86_64-unknown-linux-gnu/4.9.2/ -mtune=corei7 -march=x86-64 -g -O2
#
# seed -1244512188   144939613 -1269353339  -831684200 -1962210997   957683899  1402994072 -1164567193   713734915  1826027233   438039403 -1866523051
#
#      Author: C. J. Pickard (cjp20@cam.ac.uk)
#                Space group: P21/c
#

%BLOCK LATTICE_ABC
      4.33239      7.01651     13.22281
     95.64618     90.00000     90.00000
%ENDBLOCK LATTICE_ABC

%BLOCK POSITIONS_FRAC
  Li   0.2391142   0.0328380  -0.1289764 SPIN=   0.00000
  Li  -0.2608858  -0.0328380  -0.3710236 SPIN=   0.00000
  Li  -0.2391142  -0.0328380   0.1289764 SPIN=   0.00000
  Li   0.2608858   0.0328380   0.3710236 SPIN=   0.00000
  Fe   0.3474864   0.4426131   0.3558577 SPIN=   4.00000
  Fe  -0.1525136  -0.4426131   0.1441423 SPIN=   4.00000
  Fe  -0.3474864  -0.4426131  -0.3558577 SPIN=   4.00000
  Fe   0.1525136   0.4426131  -0.1441423 SPIN=   4.00000
   O   0.6898410   0.2273106   0.0988783 SPIN=   0.00000
   O   0.2777930   0.3929447   0.0118444 SPIN=   0.00000
   O   0.1668544   0.2580002   0.1740105 SPIN=   0.00000
   O   0.2554475   0.0416597   0.0173275 SPIN=   0.00000
   S   0.3474840   0.2299788   0.0755152 SPIN=   0.00000
   O   0.1898410  -0.2273106   0.4011217 SPIN=   0.00000
   O  -0.2222070  -0.3929447   0.4881556 SPIN=   0.00000
   O  -0.3331456  -0.2580002   0.3259895 SPIN=   0.00000
   O  -0.2445525  -0.0416597   0.4826725 SPIN=   0.00000
   S  -0.1525160  -0.2299788   0.4244848 SPIN=   0.00000
   O  -0.6898410  -0.2273106  -0.0988783 SPIN=   0.00000
   O  -0.2777930  -0.3929447  -0.0118444 SPIN=   0.00000
   O  -0.1668544  -0.2580002  -0.1740105 SPIN=   0.00000
   O  -0.2554475  -0.0416597  -0.0173275 SPIN=   0.00000
   S  -0.3474840  -0.2299788  -0.0755152 SPIN=   0.00000
   O  -0.1898410   0.2273106  -0.4011217 SPIN=   0.00000
   O   0.2222070   0.3929447  -0.4881556 SPIN=   0.00000
   O   0.3331456   0.2580002  -0.3259895 SPIN=   0.00000
   O   0.2445525   0.0416597  -0.4826725 SPIN=   0.00000
   S   0.1525160   0.2299788  -0.4244848 SPIN=   0.00000
   F   0.1845138  -0.2539951   0.1619212 SPIN=   0.00000
   F  -0.3154862   0.2539951   0.3380788 SPIN=   0.00000
   F  -0.1845138   0.2539951  -0.1619212 SPIN=   0.00000
   F   0.3154862  -0.2539951  -0.3380788 SPIN=   0.00000
%ENDBLOCK POSITIONS_FRAC

# Note: total spin =  16.00

KPOINTS_MP_SPACING 0.07

%BLOCK SPECIES_POT
QC5
%ENDBLOCK SPECIES_POT

SNAP_TO_SYMMETRY
SYMMETRY_GENERATE

