#              Generated by Buildcell
#
# at 01:05:20 (GMT+1.0) 18th August 2020
# in /lustre/scratch/uccabz1/launch_tmp
# on node-c12c-010
# by uccabz1
#
# compiler GCC version 4.9.2
# options -cpp -iprefix /lustre/shared/ucl/apps/gcc/4.9.2/bin/../lib/gcc/x86_64-unknown-linux-gnu/4.9.2/ -mtune=corei7 -march=x86-64 -g -Og
#
# seed  -890504005   577679452   245275086   741931164 -1558011841  -771818056 -1992328542   267798662  1546482579 -1332375808   936735062  -110371786
#
#      Author: C. J. Pickard (cjp20@cam.ac.uk)
#                Space group: P-1
#

%BLOCK LATTICE_ABC
      5.22621      8.34089      9.47499
    100.38110     95.73524     97.07974
%ENDBLOCK LATTICE_ABC

%BLOCK POSITIONS_FRAC
  Li  -0.1799885   0.0284859  -0.3480037 SPIN=   0.00000
  Li   0.1799885  -0.0284859   0.3480037 SPIN=   0.00000
  Li   0.5000000   0.0000000   0.0000000 SPIN=   0.00000
  Li   0.5000000  -0.5000000  -0.5000000 SPIN=   0.00000
  Fe   0.2769353  -0.1682056  -0.3770461 SPIN=   5.02426
  Fe  -0.2769353   0.1682056   0.3770461 SPIN=   5.02426
  Fe  -0.1134449  -0.4890917  -0.2316624 SPIN=   2.97574
  Fe   0.1134449   0.4890917   0.2316624 SPIN=   2.97574
   O   0.6357254   0.2841505  -0.4055142 SPIN=   0.00000
   O   0.2970406   0.3769184  -0.2580962 SPIN=   0.00000
   O   0.4133628   0.0968624  -0.2665214 SPIN=   0.00000
   O   0.1743923   0.1650033  -0.4817459 SPIN=   0.00000
   S   0.3801303   0.2307336  -0.3529694 SPIN=   0.00000
   O  -0.6357254  -0.2841505   0.4055142 SPIN=   0.00000
   O  -0.2970406  -0.3769184   0.2580962 SPIN=   0.00000
   O  -0.4133628  -0.0968624   0.2665214 SPIN=   0.00000
   O  -0.1743923  -0.1650033   0.4817459 SPIN=   0.00000
   S  -0.3801303  -0.2307336   0.3529694 SPIN=   0.00000
   O   0.1313696   0.2688379   0.0745179 SPIN=   0.00000
   O  -0.3362440   0.2133313  -0.0201840 SPIN=   0.00000
   O  -0.0378364   0.0242202  -0.1164930 SPIN=   0.00000
   S  -0.0636992   0.2024261  -0.0589901 SPIN=   0.00000
   O  -0.1313696  -0.2688379  -0.0745179 SPIN=   0.00000
   O   0.3362440  -0.2133313   0.0201840 SPIN=   0.00000
   O   0.0378364  -0.0242202   0.1164930 SPIN=   0.00000
   S   0.0636992  -0.2024261   0.0589901 SPIN=   0.00000
   O   0.0000000   0.5000000   0.0000000 SPIN=   0.00000
   O   0.5000000  -0.0000000  -0.5000000 SPIN=   0.00000
   F   0.4203477   0.1782240   0.2685951 SPIN=   0.00000
   F  -0.4203477  -0.1782240  -0.2685951 SPIN=   0.00000
   F  -0.0000000  -0.5000000   0.5000000 SPIN=   0.00000
   F   0.5000000  -0.5000000   0.0000000 SPIN=   0.00000
%ENDBLOCK POSITIONS_FRAC

# Note: total spin =  16.00

KPOINTS_MP_SPACING 0.07

%BLOCK SPECIES_POT
QC5
%ENDBLOCK SPECIES_POT

SNAP_TO_SYMMETRY
SYMMETRY_GENERATE

