#              Generated by Buildcell
#
# at 09:29:02 (GMT+1.0) 4th August 2020
# in /lustre/scratch/uccabz1/launch_tmp
# on node-c12c-004
# by uccabz1
#
# compiler GCC version 4.9.2
# options -cpp -iprefix /lustre/shared/ucl/apps/gcc/4.9.2/bin/../lib/gcc/x86_64-unknown-linux-gnu/4.9.2/ -mtune=corei7 -march=x86-64 -g -Og
#
# seed   730866261  -465827670   627137504  1132352936 -1866335748  1524985242  -227787412   306109549  1168658923  1131926672   430476799  1565215864
#
#      Author: C. J. Pickard (cjp20@cam.ac.uk)
#                Space group: Cm
#

%BLOCK LATTICE_ABC
      6.07556      6.07556     11.59851
     96.59018     96.59018    107.72841
%ENDBLOCK LATTICE_ABC

%BLOCK POSITIONS_FRAC
  Li  -0.4777536  -0.1144155  -0.4204165 SPIN=   0.00000
  Li  -0.1144155  -0.4777536  -0.4204165 SPIN=   0.00000
  Li  -0.2539971   0.3849089   0.2169443 SPIN=   0.00000
  Li   0.3849089  -0.2539971   0.2169443 SPIN=   0.00000
  Fe   0.2846295  -0.3321758  -0.2095963 SPIN=   1.59775
  Fe  -0.3321758   0.2846295  -0.2095963 SPIN=   1.59775
  Fe   0.1635389   0.1635389  -0.0285563 SPIN=   5.28811
  Fe   0.0604605   0.0604605  -0.3889794 SPIN=   7.51638
   O  -0.2225287  -0.4611315   0.0771277 SPIN=   0.00000
   O   0.1250861  -0.1139683   0.0840397 SPIN=   0.00000
   O  -0.0297946  -0.4015435  -0.0987866 SPIN=   0.00000
   O   0.1677846  -0.5076457   0.0748110 SPIN=   0.00000
   S   0.0101368  -0.3710722   0.0342979 SPIN=   0.00000
   O  -0.4611315  -0.2225287   0.0771277 SPIN=   0.00000
   O  -0.1139683   0.1250861   0.0840397 SPIN=   0.00000
   O  -0.4015435  -0.0297946  -0.0987866 SPIN=   0.00000
   O  -0.5076457   0.1677846   0.0748110 SPIN=   0.00000
   S  -0.3710722   0.0101368   0.0342979 SPIN=   0.00000
   O  -0.1506032   0.1117929   0.2822919 SPIN=   0.00000
   O  -0.4827569   0.2013741   0.3587947 SPIN=   0.00000
   O  -0.1352164   0.2130961   0.4965732 SPIN=   0.00000
   O  -0.4053148  -0.1664413   0.3893788 SPIN=   0.00000
   S  -0.2934728   0.0899554   0.3817597 SPIN=   0.00000
   O   0.1117929  -0.1506032   0.2822919 SPIN=   0.00000
   O   0.2013741  -0.4827569   0.3587947 SPIN=   0.00000
   O   0.2130961  -0.1352164   0.4965732 SPIN=   0.00000
   O  -0.1664413  -0.4053148   0.3893788 SPIN=   0.00000
   S   0.0899554  -0.2934728   0.3817597 SPIN=   0.00000
   F   0.3075350   0.3075350  -0.4686931 SPIN=   0.00000
   F  -0.1531672  -0.1531672  -0.2821134 SPIN=   0.00000
   F   0.4935537   0.4935537   0.2273912 SPIN=   0.00000
   F   0.3991903   0.3991903  -0.1204774 SPIN=   0.00000
%ENDBLOCK POSITIONS_FRAC

# Note: total spin =  16.00

KPOINTS_MP_SPACING 0.07

%BLOCK SPECIES_POT
QC5
%ENDBLOCK SPECIES_POT

SNAP_TO_SYMMETRY
SYMMETRY_GENERATE

