#              Generated by Buildcell
#
# at 06:51:58 (GMT+1.0) 18th August 2020
# in /lustre/scratch/uccabz1/launch_tmp
# on node-c12m-009
# by uccabz1
#
# compiler GCC version 4.9.2
# options -cpp -iprefix /lustre/shared/ucl/apps/gcc/4.9.2/bin/../lib/gcc/x86_64-unknown-linux-gnu/4.9.2/ -mtune=corei7 -march=x86-64 -g -Og
#
# seed   709470834  1157405828  -393300524 -1778411366 -1941130090  -143025583 -1984157549 -1513709992   780071972   571295066  -218288184   108727666
#
#      Author: C. J. Pickard (cjp20@cam.ac.uk)
#                Space group: P2
#

%BLOCK LATTICE_ABC
      6.18646      7.47735      9.34428
    112.27298     90.00000     90.00000
%ENDBLOCK LATTICE_ABC

%BLOCK POSITIONS_FRAC
  Li  -0.0943317   0.3749378   0.2983901 SPIN=   0.00000
  Li  -0.0943317  -0.3749378  -0.2983901 SPIN=   0.00000
  Li   0.3868335  -0.2304410   0.0093881 SPIN=   0.00000
  Li   0.3868335   0.2304410  -0.0093881 SPIN=   0.00000
  Fe   0.0439905  -0.3136467   0.1971834 SPIN=   3.43681
  Fe   0.0439905   0.3136467  -0.1971834 SPIN=   3.43681
  Fe   0.2574723  -0.1840494  -0.4048428 SPIN=   4.56319
  Fe   0.2574723   0.1840494   0.4048428 SPIN=   4.56319
   O  -0.3530451   0.2817376  -0.3502987 SPIN=   0.00000
   O  -0.2956002   0.5930138  -0.1311070 SPIN=   0.00000
   O  -0.6273074   0.4029198  -0.1428846 SPIN=   0.00000
   O  -0.5766181   0.5660122  -0.3267353 SPIN=   0.00000
   S  -0.4631427   0.4609208  -0.2377564 SPIN=   0.00000
   O  -0.3530451  -0.2817376   0.3502987 SPIN=   0.00000
   O  -0.2956002  -0.5930138   0.1311070 SPIN=   0.00000
   O  -0.6273074  -0.4029198   0.1428846 SPIN=   0.00000
   O  -0.5766181  -0.5660122   0.3267353 SPIN=   0.00000
   S  -0.4631427  -0.4609208   0.2377564 SPIN=   0.00000
   O  -0.3351798   0.0882084   0.3835489 SPIN=   0.00000
   O  -0.3267747  -0.1919369   0.1340158 SPIN=   0.00000
   O  -0.0679325   0.0772508   0.1833078 SPIN=   0.00000
   O  -0.4557574   0.1258788   0.1439821 SPIN=   0.00000
   S  -0.2964111   0.0248502   0.2112137 SPIN=   0.00000
   O  -0.3351798  -0.0882084  -0.3835489 SPIN=   0.00000
   O  -0.3267747   0.1919369  -0.1340158 SPIN=   0.00000
   O  -0.0679325  -0.0772508  -0.1833078 SPIN=   0.00000
   O  -0.4557574  -0.1258788  -0.1439821 SPIN=   0.00000
   S  -0.2964111  -0.0248502  -0.2112137 SPIN=   0.00000
   F   0.0324487  -0.3056901   0.4215376 SPIN=   0.00000
   F   0.0324487   0.3056901  -0.4215376 SPIN=   0.00000
   F   0.0844241  -0.2768075  -0.0443184 SPIN=   0.00000
   F   0.0844241   0.2768075   0.0443184 SPIN=   0.00000
%ENDBLOCK POSITIONS_FRAC

# Note: total spin =  16.00

KPOINTS_MP_SPACING 0.07

%BLOCK SPECIES_POT
QC5
%ENDBLOCK SPECIES_POT

SNAP_TO_SYMMETRY
SYMMETRY_GENERATE

