#              Generated by Buildcell
#
# at 09:55:29 (GMT+1.0) 4th August 2020
# in /lustre/scratch/uccabz1/launch_tmp
# on node-c12e-011
# by uccabz1
#
# compiler GCC version 4.9.2
# options -cpp -iprefix /lustre/shared/ucl/apps/gcc/4.9.2/bin/../lib/gcc/x86_64-unknown-linux-gnu/4.9.2/ -mtune=corei7 -march=x86-64 -g -Og
#
# seed -2147024717 -1275099341   992555093 -1499296629 -1964593435 -1557847481 -1776005225   116228637  -509564181 -1947869737   668292209  2114673426
#
#      Author: C. J. Pickard (cjp20@cam.ac.uk)
#                Space group: P21
#

%BLOCK LATTICE_ABC
      4.57840      6.15349     14.24692
     90.00000     90.00000     94.75448
%ENDBLOCK LATTICE_ABC

%BLOCK POSITIONS_FRAC
  Li   0.2270745   0.2108925   0.0132414 SPIN=   0.00000
  Li  -0.2270745  -0.2108925  -0.4867586 SPIN=   0.00000
  Li   0.4837648  -0.1720054  -0.1635650 SPIN=   0.00000
  Li  -0.4837648   0.1720054   0.3364350 SPIN=   0.00000
  Fe  -0.0536343   0.1037534  -0.2677986 SPIN=   4.01581
  Fe   0.0536343  -0.1037534   0.2322014 SPIN=   4.01581
  Fe  -0.2983792   0.3746759   0.1524213 SPIN=   3.98419
  Fe   0.2983792  -0.3746759  -0.3475787 SPIN=   3.98419
   O  -0.1456631  -0.3681420   0.3548814 SPIN=   0.00000
   O  -0.5875967  -0.4393099   0.2559610 SPIN=   0.00000
   O  -0.5872193  -0.1733935   0.3862954 SPIN=   0.00000
   O  -0.5907912  -0.5678820   0.4205840 SPIN=   0.00000
   S  -0.4778176  -0.3871819   0.3544304 SPIN=   0.00000
   O   0.1456631   0.3681420  -0.1451186 SPIN=   0.00000
   O   0.5875967   0.4393099  -0.2440390 SPIN=   0.00000
   O   0.5872193   0.1733935  -0.1137046 SPIN=   0.00000
   O   0.5907912   0.5678820  -0.0794160 SPIN=   0.00000
   S   0.4778176   0.3871819  -0.1455696 SPIN=   0.00000
   O  -0.5423561   0.0500674   0.1259426 SPIN=   0.00000
   O  -0.4976859  -0.3454563   0.1064637 SPIN=   0.00000
   O  -0.1268051  -0.0782369   0.0362492 SPIN=   0.00000
   O  -0.6284845  -0.1228634  -0.0295370 SPIN=   0.00000
   S  -0.4488329  -0.1241223   0.0597796 SPIN=   0.00000
   O   0.5423561  -0.0500674  -0.3740574 SPIN=   0.00000
   O   0.4976859   0.3454563  -0.3935363 SPIN=   0.00000
   O   0.1268051   0.0782369  -0.4637508 SPIN=   0.00000
   O   0.6284845   0.1228634  -0.5295370 SPIN=   0.00000
   S   0.4488329   0.1241223  -0.4402204 SPIN=   0.00000
   F   0.0111606   0.1355934   0.3130386 SPIN=   0.00000
   F  -0.0111606  -0.1355934  -0.1869614 SPIN=   0.00000
   F   0.0206498  -0.4027238  -0.4461206 SPIN=   0.00000
   F  -0.0206498   0.4027238   0.0538794 SPIN=   0.00000
%ENDBLOCK POSITIONS_FRAC

# Note: total spin =  16.00

KPOINTS_MP_SPACING 0.07

%BLOCK SPECIES_POT
QC5
%ENDBLOCK SPECIES_POT

SNAP_TO_SYMMETRY
SYMMETRY_GENERATE

