#              Generated by Buildcell
#
# at 07:49:17 (GMT+1.0) 18th August 2020
# in /lustre/scratch/uccabz1/launch_tmp
# on node-c12i-018
# by uccabz1
#
# compiler GCC version 4.9.2
# options -cpp -iprefix /lustre/shared/ucl/apps/gcc/4.9.2/bin/../lib/gcc/x86_64-unknown-linux-gnu/4.9.2/ -mtune=corei7 -march=x86-64 -g -Og
#
# seed   -10291143 -1904389727  -626352546 -1806548433 -1229513754  1633393506  1831798647  -749014183   921657963 -1954586996  2121739644    60663219
#
#      Author: C. J. Pickard (cjp20@cam.ac.uk)
#                Space group: Aea2
#

%BLOCK LATTICE_ABC
      6.48728      6.48728      9.64574
     90.00000     90.00000     99.81278
%ENDBLOCK LATTICE_ABC

%BLOCK POSITIONS_FRAC
  Li  -0.4258768  -0.3491447  -0.2689996 SPIN=   0.00000
  Li   0.3491447   0.4258768   0.2689996 SPIN=   0.00000
  Li  -0.1508553  -0.0741232   0.2310004 SPIN=   0.00000
  Li   0.0741232   0.1508553  -0.2310004 SPIN=   0.00000
  Fe  -0.1015147  -0.3374589   0.4999690 SPIN=   4.00000
  Fe   0.3374589   0.1015147  -0.4999690 SPIN=   4.00000
  Fe  -0.1625411  -0.3984853  -0.0000310 SPIN=   4.00000
  Fe   0.3984853   0.1625411   0.0000310 SPIN=   4.00000
   O   0.3283749  -0.0086691  -0.2850460 SPIN=   0.00000
   O   0.3529407  -0.2974603  -0.1215206 SPIN=   0.00000
   O   0.1549740  -0.3691873  -0.3405338 SPIN=   0.00000
   O   0.0163151  -0.1721003  -0.1525131 SPIN=   0.00000
   S   0.2131512  -0.2118543  -0.2249034 SPIN=   0.00000
   O   0.0086691  -0.3283749   0.2850460 SPIN=   0.00000
   O   0.2974603  -0.3529407   0.1215206 SPIN=   0.00000
   O   0.3691873  -0.1549740   0.3405338 SPIN=   0.00000
   O   0.1721003  -0.0163151   0.1525131 SPIN=   0.00000
   S   0.2118543  -0.2131512   0.2249034 SPIN=   0.00000
   O  -0.4913309   0.1716251   0.2149540 SPIN=   0.00000
   O  -0.2025397   0.1470593   0.3784794 SPIN=   0.00000
   O  -0.1308127   0.3450260   0.1594662 SPIN=   0.00000
   O  -0.3278997   0.4836849   0.3474869 SPIN=   0.00000
   S  -0.2881457   0.2868488   0.2750966 SPIN=   0.00000
   O  -0.1716251   0.4913309  -0.2149540 SPIN=   0.00000
   O  -0.1470593   0.2025397  -0.3784794 SPIN=   0.00000
   O  -0.3450260   0.1308127  -0.1594662 SPIN=   0.00000
   O  -0.4836849   0.3278997  -0.3474869 SPIN=   0.00000
   S  -0.2868488   0.2881457  -0.2750966 SPIN=   0.00000
   F   0.1985382   0.3541303   0.4443109 SPIN=   0.00000
   F  -0.3541303  -0.1985382  -0.4443109 SPIN=   0.00000
   F   0.1458697   0.3014618  -0.0556891 SPIN=   0.00000
   F  -0.3014618  -0.1458697   0.0556891 SPIN=   0.00000
%ENDBLOCK POSITIONS_FRAC

# Note: total spin =  16.00

KPOINTS_MP_SPACING 0.07

%BLOCK SPECIES_POT
QC5
%ENDBLOCK SPECIES_POT

SNAP_TO_SYMMETRY
SYMMETRY_GENERATE

