#              Generated by Buildcell
#
# at 06:28:47 (GMT+1.0) 4th August 2020
# in /lustre/scratch/uccabz1/launch_tmp
# on node-c12e-012
# by uccabz1
#
# compiler GCC version 4.9.2
# options -cpp -iprefix /lustre/shared/ucl/apps/gcc/4.9.2/bin/../lib/gcc/x86_64-unknown-linux-gnu/4.9.2/ -mtune=corei7 -march=x86-64 -g -Og
#
# seed -1999065176  1201592431   -16748361  -648773893  -189929879 -1662387781 -1521693632  1871587968  1828115404  2131759493 -1416004205  2012570710
#
#      Author: C. J. Pickard (cjp20@cam.ac.uk)
#                Space group: Pba2
#

%BLOCK LATTICE_ABC
      6.79263      7.58209      7.76664
     90.00000     90.00000     90.00000
%ENDBLOCK LATTICE_ABC

%BLOCK POSITIONS_FRAC
  Li  -0.2029860   0.0451387  -0.2610200 SPIN=   0.00000
  Li  -0.2029860  -0.0451387   0.2610200 SPIN=   0.00000
  Li  -0.2029860   0.4548613   0.2389800 SPIN=   0.00000
  Li  -0.2029860  -0.4548613  -0.2389800 SPIN=   0.00000
  Fe   0.3865576  -0.4386445   0.2762464 SPIN=   4.00000
  Fe   0.3865576   0.4386445  -0.2762464 SPIN=   4.00000
  Fe   0.3865576  -0.0613555  -0.2237536 SPIN=   4.00000
  Fe   0.3865576   0.0613555   0.2237536 SPIN=   4.00000
   O   0.1074645  -0.1483615  -0.6059706 SPIN=   0.00000
   O   0.1978269  -0.3871154  -0.4035643 SPIN=   0.00000
   O  -0.1511811  -0.3407062  -0.4830440 SPIN=   0.00000
   O   0.0197228  -0.1238520  -0.2976211 SPIN=   0.00000
   S   0.0434583  -0.2500088  -0.4475500 SPIN=   0.00000
   O   0.1074645   0.1483615   0.6059706 SPIN=   0.00000
   O   0.1978269   0.3871154   0.4035643 SPIN=   0.00000
   O  -0.1511811   0.3407062   0.4830440 SPIN=   0.00000
   O   0.0197228   0.1238520   0.2976211 SPIN=   0.00000
   S   0.0434583   0.2500088   0.4475500 SPIN=   0.00000
   O   0.1074645  -0.3516385  -0.1059706 SPIN=   0.00000
   O   0.1978269  -0.1128846   0.0964357 SPIN=   0.00000
   O  -0.1511811  -0.1592938   0.0169560 SPIN=   0.00000
   O   0.0197228  -0.3761480   0.2023789 SPIN=   0.00000
   S   0.0434583  -0.2499912   0.0524500 SPIN=   0.00000
   O   0.1074645   0.3516385   0.1059706 SPIN=   0.00000
   O   0.1978269   0.1128846  -0.0964357 SPIN=   0.00000
   O  -0.1511811   0.1592938  -0.0169560 SPIN=   0.00000
   O   0.0197228   0.3761480  -0.2023789 SPIN=   0.00000
   S   0.0434583   0.2499912  -0.0524500 SPIN=   0.00000
   F  -0.4738395   0.3082549   0.1742930 SPIN=   0.00000
   F  -0.4738395  -0.3082549  -0.1742930 SPIN=   0.00000
   F  -0.4738395   0.1917451  -0.3257070 SPIN=   0.00000
   F  -0.4738395  -0.1917451   0.3257070 SPIN=   0.00000
%ENDBLOCK POSITIONS_FRAC

# Note: total spin =  16.00

KPOINTS_MP_SPACING 0.07

%BLOCK SPECIES_POT
QC5
%ENDBLOCK SPECIES_POT

SNAP_TO_SYMMETRY
SYMMETRY_GENERATE

