#              Generated by Buildcell
#
# at 00:59:41 (GMT+1.0) 18th August 2020
# in /lustre/scratch/uccabz1/launch_tmp
# on node-c12a-026
# by uccabz1
#
# compiler GCC version 4.9.2
# options -cpp -iprefix /lustre/shared/ucl/apps/gcc/4.9.2/bin/../lib/gcc/x86_64-unknown-linux-gnu/4.9.2/ -mtune=corei7 -march=x86-64 -g -Og
#
# seed -1900301655  -809173382 -1039228195  -781061937   625210720  -302588614  -131825230  1442403071    26279384   946222958   107742659  2037761705
#
#      Author: C. J. Pickard (cjp20@cam.ac.uk)
#                Space group: P2
#

%BLOCK LATTICE_ABC
      7.44217      7.62569      7.85021
    116.12406     90.00000     90.00000
%ENDBLOCK LATTICE_ABC

%BLOCK POSITIONS_FRAC
  Li  -0.2339023   0.4772242  -0.2688761 SPIN=   0.00000
  Li  -0.2339023  -0.4772242   0.2688761 SPIN=   0.00000
  Li   0.1216551  -0.0000000  -0.0000000 SPIN=   0.00000
  Li  -0.3799729  -0.0000000  -0.0000000 SPIN=   0.00000
  Fe   0.4029054   0.2402318  -0.1563304 SPIN=   3.99867
  Fe   0.4029054  -0.2402318   0.1563304 SPIN=   3.99867
  Fe  -0.1234951  -0.1087843   0.2440979 SPIN=   4.00133
  Fe  -0.1234951   0.1087843  -0.2440979 SPIN=   4.00133
   O   0.0258414   0.3249760   0.2795637 SPIN=   0.00000
   O  -0.0001071   0.5822477   0.1695199 SPIN=   0.00000
   O   0.2746963   0.3795634   0.0992813 SPIN=   0.00000
   O   0.2112244   0.6241414   0.4280969 SPIN=   0.00000
   S   0.1279138   0.4777321   0.2441155 SPIN=   0.00000
   O   0.0258414  -0.3249760  -0.2795637 SPIN=   0.00000
   O  -0.0001071  -0.5822477  -0.1695199 SPIN=   0.00000
   O   0.2746963  -0.3795634  -0.0992813 SPIN=   0.00000
   O   0.2112244  -0.6241414  -0.4280969 SPIN=   0.00000
   S   0.1279138  -0.4777321  -0.2441155 SPIN=   0.00000
   O  -0.5353074  -0.3155817  -0.3313429 SPIN=   0.00000
   O  -0.4894623  -0.3106695  -0.6414644 SPIN=   0.00000
   O  -0.2315199  -0.2590675  -0.4255699 SPIN=   0.00000
   O  -0.4657091  -0.0044278  -0.3445125 SPIN=   0.00000
   S  -0.4304997  -0.2224366  -0.4357224 SPIN=   0.00000
   O  -0.5353074   0.3155817   0.3313429 SPIN=   0.00000
   O  -0.4894623   0.3106695   0.6414644 SPIN=   0.00000
   O  -0.2315199   0.2590675   0.4255699 SPIN=   0.00000
   O  -0.4657091   0.0044278   0.3445125 SPIN=   0.00000
   S  -0.4304997   0.2224366   0.4357224 SPIN=   0.00000
   F   0.1558072  -0.0467029   0.2391465 SPIN=   0.00000
   F   0.1558072   0.0467029  -0.2391465 SPIN=   0.00000
   F  -0.2943947  -0.2608803  -0.0044517 SPIN=   0.00000
   F  -0.2943947   0.2608803   0.0044517 SPIN=   0.00000
%ENDBLOCK POSITIONS_FRAC

# Note: total spin =  16.00

KPOINTS_MP_SPACING 0.07

%BLOCK SPECIES_POT
QC5
%ENDBLOCK SPECIES_POT

SNAP_TO_SYMMETRY
SYMMETRY_GENERATE

