#              Generated by Buildcell
#
# at 23:18:23 (GMT+1.0) 17th August 2020
# in /lustre/scratch/uccabz1/launch_tmp
# on node-c12m-026
# by uccabz1
#
# compiler GCC version 4.9.2
# options -cpp -iprefix /lustre/shared/ucl/apps/gcc/4.9.2/bin/../lib/gcc/x86_64-unknown-linux-gnu/4.9.2/ -mtune=corei7 -march=x86-64 -g -Og
#
# seed   117333505 -1948640014  2093770553   890603230 -1572484026  -221435675 -1620785319   -31189425 -1620326743  1175612573  -802286671 -1813767255
#
#      Author: C. J. Pickard (cjp20@cam.ac.uk)
#                Space group: Pc
#

%BLOCK LATTICE_ABC
      3.99613      7.00266     14.31804
     93.31237     90.00000     90.00000
%ENDBLOCK LATTICE_ABC

%BLOCK POSITIONS_FRAC
  Li   0.4135061   0.4726502   0.1276336 SPIN=   0.00000
  Li  -0.4135061  -0.0273498  -0.3723664 SPIN=   0.00000
  Li   0.4604593  -0.1523545   0.3483568 SPIN=   0.00000
  Li  -0.4604593   0.3476455  -0.1516432 SPIN=   0.00000
  Fe  -0.1601271   0.3129256   0.2847352 SPIN=   5.81994
  Fe   0.1601271  -0.1870744  -0.2152648 SPIN=   5.81994
  Fe  -0.0521869  -0.1751589   0.1811670 SPIN=   2.18006
  Fe   0.0521869   0.3248411  -0.3188330 SPIN=   2.18006
   O  -0.1034967  -0.5975970   0.0775458 SPIN=   0.00000
   O  -0.4379961  -0.4253477  -0.0362801 SPIN=   0.00000
   O   0.0942268  -0.5812561  -0.0856023 SPIN=   0.00000
   O   0.1013207  -0.2909296   0.0214887 SPIN=   0.00000
   S  -0.0864863  -0.4737826  -0.0057120 SPIN=   0.00000
   O   0.1034967  -0.0975970   0.5775458 SPIN=   0.00000
   O   0.4379961   0.0746523   0.4637199 SPIN=   0.00000
   O  -0.0942268  -0.0812561   0.4143977 SPIN=   0.00000
   O  -0.1013207   0.2090704   0.5214887 SPIN=   0.00000
   S   0.0864863   0.0262174   0.4942880 SPIN=   0.00000
   O  -0.0162879  -0.4950237   0.4817509 SPIN=   0.00000
   O  -0.5421996  -0.5311454   0.3911672 SPIN=   0.00000
   O  -0.4839735  -0.2688527   0.5135215 SPIN=   0.00000
   O  -0.5320325  -0.6038876   0.5582494 SPIN=   0.00000
   S  -0.3936234  -0.4747273   0.4861722 SPIN=   0.00000
   O   0.0162879   0.0049763  -0.0182491 SPIN=   0.00000
   O   0.5421996  -0.0311454  -0.1088328 SPIN=   0.00000
   O   0.4839735   0.2311473   0.0135215 SPIN=   0.00000
   O   0.5320325  -0.1038876   0.0582494 SPIN=   0.00000
   S   0.3936234   0.0252727  -0.0138278 SPIN=   0.00000
   F   0.0139324   0.1102269  -0.2377301 SPIN=   0.00000
   F  -0.0139324  -0.3897731   0.2622699 SPIN=   0.00000
   F  -0.4327541  -0.3838638  -0.2435373 SPIN=   0.00000
   F   0.4327541   0.1161362   0.2564627 SPIN=   0.00000
%ENDBLOCK POSITIONS_FRAC

# Note: total spin =  16.00

KPOINTS_MP_SPACING 0.07

%BLOCK SPECIES_POT
QC5
%ENDBLOCK SPECIES_POT

SNAP_TO_SYMMETRY
SYMMETRY_GENERATE

