#              Generated by Buildcell
#
# at 06:36:41 (GMT+1.0) 4th August 2020
# in /lustre/scratch/uccabz1/launch_tmp
# on node-c12g-032
# by uccabz1
#
# compiler GCC version 4.9.2
# options -cpp -iprefix /lustre/shared/ucl/apps/gcc/4.9.2/bin/../lib/gcc/x86_64-unknown-linux-gnu/4.9.2/ -mtune=corei7 -march=x86-64 -g -Og
#
# seed  1067089414   886381789 -2084060731  1457881204 -1244877934 -1077921645  1526500697  1157033027 -1200704465  -385751560  -376449039  -711341852
#
#      Author: C. J. Pickard (cjp20@cam.ac.uk)
#                Space group: P21/c
#

%BLOCK LATTICE_ABC
      4.69386      7.36631     11.60342
     90.00000     90.00000     94.44127
%ENDBLOCK LATTICE_ABC

%BLOCK POSITIONS_FRAC
  Li   0.0000000   0.5000000  -0.0000000 SPIN=   0.00000
  Li  -0.5000000  -0.0000000  -0.5000000 SPIN=   0.00000
  Li   0.0000000  -0.0000000  -0.0000000 SPIN=   0.00000
  Li   0.5000000  -0.5000000  -0.5000000 SPIN=   0.00000
  Fe  -0.0009034  -0.2496806   0.4708159 SPIN=   4.00000
  Fe  -0.4990966  -0.2503194  -0.0291841 SPIN=   4.00000
  Fe   0.0009034   0.2496806  -0.4708159 SPIN=   4.00000
  Fe   0.4990966   0.2503194   0.0291841 SPIN=   4.00000
   O   0.2928485   0.2744251   0.2914907 SPIN=   0.00000
   O  -0.2253580   0.2319298   0.3326794 SPIN=   0.00000
   O  -0.0244578   0.0790486   0.1646139 SPIN=   0.00000
   O  -0.0521031   0.4131934   0.1636022 SPIN=   0.00000
   S  -0.0022676   0.2496492   0.2380965 SPIN=   0.00000
   O  -0.7928485   0.2255749  -0.2085093 SPIN=   0.00000
   O  -0.2746420   0.2680702  -0.1673206 SPIN=   0.00000
   O  -0.4755422   0.4209514  -0.3353861 SPIN=   0.00000
   O  -0.4478969   0.0868066  -0.3363978 SPIN=   0.00000
   S  -0.4977324   0.2503508  -0.2619035 SPIN=   0.00000
   O  -0.2928485  -0.2744251  -0.2914907 SPIN=   0.00000
   O   0.2253580  -0.2319298  -0.3326794 SPIN=   0.00000
   O   0.0244578  -0.0790486  -0.1646139 SPIN=   0.00000
   O   0.0521031  -0.4131934  -0.1636022 SPIN=   0.00000
   S   0.0022676  -0.2496492  -0.2380965 SPIN=   0.00000
   O   0.7928485  -0.2255749   0.2085093 SPIN=   0.00000
   O   0.2746420  -0.2680702   0.1673206 SPIN=   0.00000
   O   0.4755422  -0.4209514   0.3353861 SPIN=   0.00000
   O   0.4478969  -0.0868066   0.3363978 SPIN=   0.00000
   S   0.4977324  -0.2503508   0.2619035 SPIN=   0.00000
   F  -0.5000000  -0.0000000  -0.0000000 SPIN=   0.00000
   F   0.0000000  -0.5000000  -0.5000000 SPIN=   0.00000
   F  -0.5000000   0.5000000  -0.0000000 SPIN=   0.00000
   F   0.0000000  -0.0000000  -0.5000000 SPIN=   0.00000
%ENDBLOCK POSITIONS_FRAC

# Note: total spin =  16.00

KPOINTS_MP_SPACING 0.07

%BLOCK SPECIES_POT
QC5
%ENDBLOCK SPECIES_POT

SNAP_TO_SYMMETRY
SYMMETRY_GENERATE

