#              Generated by Buildcell
#
# at 16:47:45 (GMT+1.0) 18th August 2020
# in /lustre/scratch/uccabz1/launch_tmp
# on node-c12p-013
# by uccabz1
#
# compiler GCC version 4.9.2
# options -cpp -iprefix /lustre/shared/ucl/apps/gcc/4.9.2/bin/../lib/gcc/x86_64-unknown-linux-gnu/4.9.2/ -mtune=corei7 -march=x86-64 -g -Og
#
# seed  2113907375  1023133113   566404306   958627844 -1383038796  -469459314   889483253  -442796548 -1750482700   167941337  -928279572 -1201750999
#
#      Author: C. J. Pickard (cjp20@cam.ac.uk)
#                Space group: P-1
#

%BLOCK LATTICE_ABC
      5.40628      8.33040      9.71439
    113.88039     90.48994     90.48312
%ENDBLOCK LATTICE_ABC

%BLOCK POSITIONS_FRAC
  Li   0.4927266  -0.0638613   0.1696690 SPIN=   0.00000
  Li  -0.4927266   0.0638613  -0.1696690 SPIN=   0.00000
  Li  -0.0000000  -0.5000000  -0.5000000 SPIN=   0.00000
  Li   0.0000000   0.0000000   0.5000000 SPIN=   0.00000
  Fe  -0.2982624   0.2557432   0.1440049 SPIN=   5.22553
  Fe   0.2982624  -0.2557432  -0.1440049 SPIN=   5.22553
  Fe  -0.2157242  -0.5989418  -0.2344662 SPIN=   2.77447
  Fe   0.2157242   0.5989418   0.2344662 SPIN=   2.77447
   O   0.0773021  -0.0884456   0.0483146 SPIN=   0.00000
   O  -0.2095142  -0.1783011   0.2021862 SPIN=   0.00000
   O  -0.0998922   0.1355327   0.2797764 SPIN=   0.00000
   O   0.2122586  -0.0707227   0.2982102 SPIN=   0.00000
   S  -0.0049614  -0.0504842   0.2071219 SPIN=   0.00000
   O  -0.0773021   0.0884456  -0.0483146 SPIN=   0.00000
   O   0.2095142   0.1783011  -0.2021862 SPIN=   0.00000
   O   0.0998922  -0.1355327  -0.2797764 SPIN=   0.00000
   O  -0.2122586   0.0707227  -0.2982102 SPIN=   0.00000
   S   0.0049614   0.0504842  -0.2071219 SPIN=   0.00000
   O  -0.3253291  -0.3004607  -0.0759553 SPIN=   0.00000
   O  -0.0233370  -0.3942179  -0.2829481 SPIN=   0.00000
   O  -0.3250711  -0.1628961  -0.2590001 SPIN=   0.00000
   O  -0.4669505  -0.4710263  -0.3385233 SPIN=   0.00000
   O   0.3253291   0.3004607   0.0759553 SPIN=   0.00000
   O   0.0233370   0.3942179   0.2829481 SPIN=   0.00000
   O   0.3250711   0.1628961   0.2590001 SPIN=   0.00000
   O   0.4669505   0.4710263   0.3385233 SPIN=   0.00000
   S   0.5000000   1.0000000   0.5000000 SPIN=   0.00000
   S  -0.5000000  -0.5000000  -0.5000000 SPIN=   0.00000
   F  -0.0007167   0.7183102   0.4352698 SPIN=   0.00000
   F   0.0007167  -0.7183102  -0.4352698 SPIN=   0.00000
   F  -0.5000000  -0.0000000   0.0000000 SPIN=   0.00000
   F  -0.0000000   0.5000000   0.0000000 SPIN=   0.00000
%ENDBLOCK POSITIONS_FRAC

# Note: total spin =  16.00

KPOINTS_MP_SPACING 0.07

%BLOCK SPECIES_POT
QC5
%ENDBLOCK SPECIES_POT

SNAP_TO_SYMMETRY
SYMMETRY_GENERATE

