#              Generated by Buildcell
#
# at 08:10:09 (GMT+1.0) 4th August 2020
# in /lustre/scratch/uccabz1/launch_tmp
# on node-c12i-035
# by uccabz1
#
# compiler GCC version 4.9.2
# options -cpp -iprefix /lustre/shared/ucl/apps/gcc/4.9.2/bin/../lib/gcc/x86_64-unknown-linux-gnu/4.9.2/ -mtune=corei7 -march=x86-64 -g -Og
#
# seed  -302315125  1568246747  2064117548 -1012218918 -1432126157   895007653    52367997   864765395 -1277875435  -777418808  1083415307  -248186882
#
#      Author: C. J. Pickard (cjp20@cam.ac.uk)
#                Space group: Pc
#

%BLOCK LATTICE_ABC
      6.10755      6.54876     10.00105
     90.00000     90.42351     90.00000
%ENDBLOCK LATTICE_ABC

%BLOCK POSITIONS_FRAC
  Li   0.0845499  -0.3160003  -0.3799451 SPIN=   0.00000
  Li  -0.4154501   0.3160003  -0.3799451 SPIN=   0.00000
  Li  -0.3025955   0.2617641   0.2394804 SPIN=   0.00000
  Li   0.1974045  -0.2617641   0.2394804 SPIN=   0.00000
  Fe  -0.3105379  -0.3098755  -0.2128691 SPIN=   2.47966
  Fe   0.1894621   0.3098755  -0.2128691 SPIN=   2.47966
  Fe   0.0126362   0.1532597   0.4526357 SPIN=   5.52034
  Fe  -0.4873638  -0.1532597   0.4526357 SPIN=   5.52034
   O  -0.1833318  -0.4719848   0.1751840 SPIN=   0.00000
   O  -0.2434165  -0.1794194   0.0226294 SPIN=   0.00000
   O  -0.0924954  -0.1215672   0.2498232 SPIN=   0.00000
   O  -0.4798017  -0.2243541   0.2203920 SPIN=   0.00000
   S  -0.2497613  -0.2493314   0.1670071 SPIN=   0.00000
   O   0.3166682   0.4719848   0.1751840 SPIN=   0.00000
   O   0.2565835   0.1794194   0.0226294 SPIN=   0.00000
   O   0.4075046   0.1215672   0.2498232 SPIN=   0.00000
   O   0.0201983   0.2243541   0.2203920 SPIN=   0.00000
   S   0.2502387   0.2493314   0.1670071 SPIN=   0.00000
   O  -0.1669880   0.1935402   0.0110269 SPIN=   0.00000
   O  -0.1650900   0.2318568  -0.2351480 SPIN=   0.00000
   O  -0.4505953   0.4033782  -0.1014381 SPIN=   0.00000
   O  -0.4545263   0.0274304  -0.1265561 SPIN=   0.00000
   S  -0.3092999   0.2140514  -0.1130288 SPIN=   0.00000
   O   0.3330120  -0.1935402   0.0110269 SPIN=   0.00000
   O   0.3349100  -0.2318568  -0.2351480 SPIN=   0.00000
   O   0.0494047  -0.4033782  -0.1014381 SPIN=   0.00000
   O   0.0454737  -0.0274304  -0.1265561 SPIN=   0.00000
   S   0.1907001  -0.2140514  -0.1130288 SPIN=   0.00000
   F   0.2298045  -0.3586581   0.4353373 SPIN=   0.00000
   F  -0.2701955   0.3586581   0.4353373 SPIN=   0.00000
   F  -0.2263578  -0.1413043  -0.3950591 SPIN=   0.00000
   F   0.2736422   0.1413043  -0.3950591 SPIN=   0.00000
%ENDBLOCK POSITIONS_FRAC

# Note: total spin =  16.00

KPOINTS_MP_SPACING 0.07

%BLOCK SPECIES_POT
QC5
%ENDBLOCK SPECIES_POT

SNAP_TO_SYMMETRY
SYMMETRY_GENERATE

