#              Generated by Buildcell
#
# at 11:23:23 (GMT+1.0) 18th August 2020
# in /scratch/scratch/uccabz1/launch_tmp
# on node-k10i-027
# by uccabz1
#
# compiler GCC version 4.9.2
# options -cpp -iprefix /scratch/UCL/applications/gcc/4.9.2/bin/../lib/gcc/x86_64-unknown-linux-gnu/4.9.2/ -mtune=corei7 -march=x86-64 -g -O2
#
# seed   -30051169 -1120209972   238233781  1669581086 -1972963336 -1500135809  -672207596 -1354187069  -287207125   814287552 -1869178774   -21434647
#
#      Author: C. J. Pickard (cjp20@cam.ac.uk)
#                Space group: P2
#

%BLOCK LATTICE_ABC
      5.74997      7.49017      9.86654
    109.72546     90.00000     90.00000
%ENDBLOCK LATTICE_ABC

%BLOCK POSITIONS_FRAC
  Li   0.1507721  -0.6433146  -0.1903919 SPIN=   0.00000
  Li   0.1507721   0.6433146   0.1903919 SPIN=   0.00000
  Li   0.3223182   0.1884432   0.4157964 SPIN=   0.00000
  Li   0.3223182  -0.1884432  -0.4157964 SPIN=   0.00000
  Fe  -0.2941384   0.4477721   0.2359259 SPIN=   3.74885
  Fe  -0.2941384  -0.4477721  -0.2359259 SPIN=   3.74885
  Fe  -0.4268517  -0.1176560   0.1412684 SPIN=   4.25115
  Fe  -0.4268517   0.1176560  -0.1412684 SPIN=   4.25115
   O   0.2762740  -0.4360759  -0.2670303 SPIN=   0.00000
   O   0.3052645  -0.2506990  -0.0072019 SPIN=   0.00000
   O  -0.0520056  -0.2333403  -0.1420874 SPIN=   0.00000
   O   0.3125429  -0.0865556  -0.1868236 SPIN=   0.00000
   S   0.2105189  -0.2516677  -0.1507858 SPIN=   0.00000
   O   0.2762740   0.4360759   0.2670303 SPIN=   0.00000
   O   0.3052645   0.2506990   0.0072019 SPIN=   0.00000
   O  -0.0520056   0.2333403   0.1420874 SPIN=   0.00000
   O   0.3125429   0.0865556   0.1868236 SPIN=   0.00000
   S   0.2105189   0.2516677   0.1507858 SPIN=   0.00000
   O  -0.2744022  -0.0681908  -0.3290835 SPIN=   0.00000
   O  -0.0976030  -0.1530295  -0.5713357 SPIN=   0.00000
   O  -0.3938273  -0.3627709  -0.5218685 SPIN=   0.00000
   O  -0.0017545  -0.3389616  -0.4136850 SPIN=   0.00000
   S  -0.1918967  -0.2307382  -0.4589932 SPIN=   0.00000
   O  -0.2744022   0.0681908   0.3290835 SPIN=   0.00000
   O  -0.0976030   0.1530295   0.5713357 SPIN=   0.00000
   O  -0.3938273   0.3627709   0.5218685 SPIN=   0.00000
   O  -0.0017545   0.3389616   0.4136850 SPIN=   0.00000
   S  -0.1918967   0.2307382   0.4589932 SPIN=   0.00000
   F  -0.1445965   0.2700921  -0.1222068 SPIN=   0.00000
   F  -0.1445965  -0.2700921   0.1222068 SPIN=   0.00000
   F   0.3570368  -0.8297823  -0.3315682 SPIN=   0.00000
   F   0.3570368   0.8297823   0.3315682 SPIN=   0.00000
%ENDBLOCK POSITIONS_FRAC

# Note: total spin =  16.00

KPOINTS_MP_SPACING 0.07

%BLOCK SPECIES_POT
QC5
%ENDBLOCK SPECIES_POT

SNAP_TO_SYMMETRY
SYMMETRY_GENERATE

