#              Generated by Buildcell
#
# at 07:41:37 (GMT+1.0) 4th August 2020
# in /lustre/scratch/uccabz1/launch_tmp
# on node-c12e-008
# by uccabz1
#
# compiler GCC version 4.9.2
# options -cpp -iprefix /lustre/shared/ucl/apps/gcc/4.9.2/bin/../lib/gcc/x86_64-unknown-linux-gnu/4.9.2/ -mtune=corei7 -march=x86-64 -g -Og
#
# seed  1983660982   -24529115   960739334   418877493 -2009423954   244089166   255136019 -1289949151  1394642176 -1392717011 -2094259710  -359213132
#
#      Author: C. J. Pickard (cjp20@cam.ac.uk)
#                Space group: C2
#

%BLOCK LATTICE_ABC
      3.92610      5.82969     18.64094
     95.01581     90.00000    109.67795
%ENDBLOCK LATTICE_ABC

%BLOCK POSITIONS_FRAC
  Li  -0.4242199   0.4644517  -0.3411962 SPIN=   0.00000
  Li   0.1113283  -0.4644517   0.3411962 SPIN=   0.00000
  Li  -0.1948954  -0.3213884   0.1768046 SPIN=   0.00000
  Li   0.1264931   0.3213884  -0.1768046 SPIN=   0.00000
  Fe   0.2857902  -0.1036807  -0.3409035 SPIN=   3.03752
  Fe   0.3894708   0.1036807   0.3409035 SPIN=   3.03752
  Fe  -0.3070111  -0.2974296   0.4481318 SPIN=   4.96248
  Fe  -0.0095815   0.2974296  -0.4481318 SPIN=   4.96248
   O  -0.2234588   0.5153484  -0.0793913 SPIN=   0.00000
   O  -0.3697034   0.2057014   0.0089970 SPIN=   0.00000
   O  -0.4095373   0.0750431  -0.1215805 SPIN=   0.00000
   O  -0.8571871   0.2472098  -0.0674584 SPIN=   0.00000
   S  -0.4649716   0.2608256  -0.0648583 SPIN=   0.00000
   O   0.2611928  -0.5153484   0.0793913 SPIN=   0.00000
   O   0.4245952  -0.2057014  -0.0089970 SPIN=   0.00000
   O   0.5154197  -0.0750431   0.1215805 SPIN=   0.00000
   O  -0.1043969  -0.2472098   0.0674584 SPIN=   0.00000
   S   0.2742027  -0.2608256   0.0648583 SPIN=   0.00000
   O   0.0098696  -0.0724597  -0.1700739 SPIN=   0.00000
   O  -0.6437297  -0.3125382  -0.1700607 SPIN=   0.00000
   O  -0.2081639  -0.5115663  -0.2145002 SPIN=   0.00000
   O  -0.3420768  -0.2106660  -0.2853691 SPIN=   0.00000
   S  -0.2960252  -0.2768076  -0.2100010 SPIN=   0.00000
   O   0.0823294   0.0724597   0.1700739 SPIN=   0.00000
   O  -0.3311915   0.3125382   0.1700607 SPIN=   0.00000
   O   0.3034023   0.5115663   0.2145002 SPIN=   0.00000
   O  -0.1314108   0.2106660   0.2853691 SPIN=   0.00000
   S  -0.0192176   0.2768076   0.2100010 SPIN=   0.00000
   F  -0.1323112  -0.3071359  -0.4405684 SPIN=   0.00000
   F   0.1748247   0.3071359   0.4405684 SPIN=   0.00000
   F  -0.2258619  -0.2572313   0.3382060 SPIN=   0.00000
   F   0.0313695   0.2572313  -0.3382060 SPIN=   0.00000
%ENDBLOCK POSITIONS_FRAC

# Note: total spin =  16.00

KPOINTS_MP_SPACING 0.07

%BLOCK SPECIES_POT
QC5
%ENDBLOCK SPECIES_POT

SNAP_TO_SYMMETRY
SYMMETRY_GENERATE

