#              Generated by Buildcell
#
# at 06:54:37 (GMT+1.0) 4th August 2020
# in /lustre/scratch/uccabz1/launch_tmp
# on node-c12c-018
# by uccabz1
#
# compiler GCC version 4.9.2
# options -cpp -iprefix /lustre/shared/ucl/apps/gcc/4.9.2/bin/../lib/gcc/x86_64-unknown-linux-gnu/4.9.2/ -mtune=corei7 -march=x86-64 -g -Og
#
# seed -1898648898 -1739669967   636298759 -1372075613  1760461301  -119713295  -687163591   200701787  1161603813  1018119171 -1588952887 -1392212804
#
#      Author: C. J. Pickard (cjp20@cam.ac.uk)
#                Space group: P2
#

%BLOCK LATTICE_ABC
      5.53641      7.42494      9.73852
     92.31401     90.00000     90.00000
%ENDBLOCK LATTICE_ABC

%BLOCK POSITIONS_FRAC
  Li   0.1141781  -0.0825798  -0.3138239 SPIN=   0.00000
  Li   0.1141781   0.0825798   0.3138239 SPIN=   0.00000
  Li  -0.3886820  -0.3323871   0.1579551 SPIN=   0.00000
  Li  -0.3886820   0.3323871  -0.1579551 SPIN=   0.00000
  Fe  -0.3864669   0.0868315   0.1845526 SPIN=   2.95687
  Fe  -0.3864669  -0.0868315  -0.1845526 SPIN=   2.95687
  Fe   0.1111796  -0.2438189   0.0492062 SPIN=   5.04313
  Fe   0.1111796   0.2438189  -0.0492062 SPIN=   5.04313
   O  -0.2562939   0.3247420   0.3079660 SPIN=   0.00000
   O  -0.0668717   0.4744795   0.1126396 SPIN=   0.00000
   O   0.1887528   0.3496942   0.2943442 SPIN=   0.00000
   O  -0.0588937   0.6217736   0.3451467 SPIN=   0.00000
   S  -0.0483266   0.4426723   0.2650241 SPIN=   0.00000
   O  -0.2562939  -0.3247420  -0.3079660 SPIN=   0.00000
   O  -0.0668717  -0.4744795  -0.1126396 SPIN=   0.00000
   O   0.1887528  -0.3496942  -0.2943442 SPIN=   0.00000
   O  -0.0588937  -0.6217736  -0.3451467 SPIN=   0.00000
   S  -0.0483266  -0.4426723  -0.2650241 SPIN=   0.00000
   O   0.4378793   0.4057130  -0.3336610 SPIN=   0.00000
   O   0.6926901   0.1978182  -0.4761323 SPIN=   0.00000
   O   0.2493708   0.1996217  -0.5086724 SPIN=   0.00000
   S   0.4512530   0.2202170  -0.4041147 SPIN=   0.00000
   O   0.4378793  -0.4057130   0.3336610 SPIN=   0.00000
   O   0.6926901  -0.1978182   0.4761323 SPIN=   0.00000
   O   0.2493708  -0.1996217   0.5086724 SPIN=   0.00000
   S   0.4512530  -0.2202170   0.4041147 SPIN=   0.00000
   O   0.1887810   0.5000000   0.5000000 SPIN=   0.00000
   O  -0.3114578   0.5000000   0.5000000 SPIN=   0.00000
   F  -0.0494699  -0.0729606   0.1967459 SPIN=   0.00000
   F  -0.0494699   0.0729606  -0.1967459 SPIN=   0.00000
   F   0.4510457   0.2558556   0.0646655 SPIN=   0.00000
   F   0.4510457  -0.2558556  -0.0646655 SPIN=   0.00000
%ENDBLOCK POSITIONS_FRAC

# Note: total spin =  16.00

KPOINTS_MP_SPACING 0.07

%BLOCK SPECIES_POT
QC5
%ENDBLOCK SPECIES_POT

SNAP_TO_SYMMETRY
SYMMETRY_GENERATE

