#              Generated by Buildcell
#
# at 10:58:39 (GMT+1.0) 4th August 2020
# in /lustre/scratch/uccabz1/launch_tmp
# on node-c12g-015
# by uccabz1
#
# compiler GCC version 4.9.2
# options -cpp -iprefix /lustre/shared/ucl/apps/gcc/4.9.2/bin/../lib/gcc/x86_64-unknown-linux-gnu/4.9.2/ -mtune=corei7 -march=x86-64 -g -Og
#
# seed  1324951440  2117636274   768956850  1407911647 -1605686919  1286844865   -53538763  1432401512  1446548024  -150027522  1021204166    21530231
#
#      Author: C. J. Pickard (cjp20@cam.ac.uk)
#                Space group: P21212
#

%BLOCK LATTICE_ABC
      6.93486      7.49475      7.69599
     90.00000     90.00000     90.00000
%ENDBLOCK LATTICE_ABC

%BLOCK POSITIONS_FRAC
  Li  -0.1954613   0.2432439  -0.4927029 SPIN=   0.00000
  Li  -0.1954613  -0.2432439   0.4927029 SPIN=   0.00000
  Li   0.1954613  -0.2567561  -0.0072971 SPIN=   0.00000
  Li   0.1954613   0.2567561   0.0072971 SPIN=   0.00000
  Fe   0.0288369  -0.0149432  -0.2650751 SPIN=   4.00000
  Fe   0.0288369   0.0149432   0.2650751 SPIN=   4.00000
  Fe  -0.0288369   0.4850568  -0.2349249 SPIN=   4.00000
  Fe  -0.0288369  -0.4850568   0.2349249 SPIN=   4.00000
   O   0.4644823   0.3062174   0.0944654 SPIN=   0.00000
   O   0.3803518   0.6028611   0.2136735 SPIN=   0.00000
   O   0.6092301   0.4078845   0.3712289 SPIN=   0.00000
   O   0.2629538   0.3290129   0.3589326 SPIN=   0.00000
   S   0.4292545   0.4114940   0.2595751 SPIN=   0.00000
   O   0.4644823  -0.3062174  -0.0944654 SPIN=   0.00000
   O   0.3803518  -0.6028611  -0.2136735 SPIN=   0.00000
   O   0.6092301  -0.4078845  -0.3712289 SPIN=   0.00000
   O   0.2629538  -0.3290129  -0.3589326 SPIN=   0.00000
   S   0.4292545  -0.4114940  -0.2595751 SPIN=   0.00000
   O  -0.4644823  -0.1937826   0.4055346 SPIN=   0.00000
   O  -0.3803518   0.1028611   0.2863265 SPIN=   0.00000
   O  -0.6092301  -0.0921155   0.1287711 SPIN=   0.00000
   O  -0.2629538  -0.1709871   0.1410674 SPIN=   0.00000
   S  -0.4292545  -0.0885060   0.2404249 SPIN=   0.00000
   O  -0.4644823   0.1937826  -0.4055346 SPIN=   0.00000
   O  -0.3803518  -0.1028611  -0.2863265 SPIN=   0.00000
   O  -0.6092301   0.0921155  -0.1287711 SPIN=   0.00000
   O  -0.2629538   0.1709871  -0.1410674 SPIN=   0.00000
   S  -0.4292545   0.0885060  -0.2404249 SPIN=   0.00000
   F  -0.0708000   0.2818960   0.1506926 SPIN=   0.00000
   F  -0.0708000  -0.2818960  -0.1506926 SPIN=   0.00000
   F   0.0708000  -0.2181040   0.3493074 SPIN=   0.00000
   F   0.0708000   0.2181040  -0.3493074 SPIN=   0.00000
%ENDBLOCK POSITIONS_FRAC

# Note: total spin =  16.00

KPOINTS_MP_SPACING 0.07

%BLOCK SPECIES_POT
QC5
%ENDBLOCK SPECIES_POT

SNAP_TO_SYMMETRY
SYMMETRY_GENERATE

