#              Generated by Buildcell
#
# at 06:38:43 (GMT+1.0) 18th August 2020
# in /lustre/scratch/uccabz1/launch_tmp
# on node-c12e-015
# by uccabz1
#
# compiler GCC version 4.9.2
# options -cpp -iprefix /lustre/shared/ucl/apps/gcc/4.9.2/bin/../lib/gcc/x86_64-unknown-linux-gnu/4.9.2/ -mtune=corei7 -march=x86-64 -g -Og
#
# seed  -305987259   281817453  -974058553  -164571768 -1299638181 -1274270007  -442649377  1258096665   -77527644  -615079690  -612442282  1501897017
#
#      Author: C. J. Pickard (cjp20@cam.ac.uk)
#                Space group: C2
#

%BLOCK LATTICE_ABC
      6.93562      6.93562      9.59644
     98.31922     98.31922    115.77357
%ENDBLOCK LATTICE_ABC

%BLOCK POSITIONS_FRAC
  Li   0.1556508   0.4873720   0.2888265 SPIN=   0.00000
  Li  -0.4873720  -0.1556508  -0.2888265 SPIN=   0.00000
  Li  -0.0834903   0.0834903   0.5000000 SPIN=   0.00000
  Li   0.0542579  -0.0542579  -0.0000000 SPIN=   0.00000
  Fe  -0.1931893   0.1931893  -0.0000000 SPIN=   5.85733
  Fe   0.3017989  -0.3017989  -0.0000000 SPIN=   1.58762
  Fe   0.1627048  -0.1627048   0.5000000 SPIN=   4.87918
  Fe  -0.4929966   0.4929966  -0.5000000 SPIN=   3.67587
   O  -0.2080624   0.2147242  -0.3072342 SPIN=   0.00000
   O  -0.1777713   0.5031561  -0.4402043 SPIN=   0.00000
   O   0.1539794   0.4690197  -0.3439828 SPIN=   0.00000
   O  -0.0215250   0.6064745  -0.1758867 SPIN=   0.00000
   S  -0.0633448   0.4483436  -0.3168270 SPIN=   0.00000
   O  -0.2147242   0.2080624   0.3072342 SPIN=   0.00000
   O  -0.5031561   0.1777713   0.4402043 SPIN=   0.00000
   O  -0.4690197  -0.1539794   0.3439828 SPIN=   0.00000
   O  -0.6064745   0.0215250   0.1758867 SPIN=   0.00000
   S  -0.4483436   0.0633448   0.3168270 SPIN=   0.00000
   O   0.6307129   0.3172040  -0.1278033 SPIN=   0.00000
   O   0.2534140   0.0251899  -0.1472224 SPIN=   0.00000
   O   0.3452544   0.1942359  -0.3544068 SPIN=   0.00000
   O   0.3234603   0.4098899  -0.1335216 SPIN=   0.00000
   S   0.3882104   0.2366299  -0.1907385 SPIN=   0.00000
   O  -0.3172040  -0.6307129   0.1278033 SPIN=   0.00000
   O  -0.0251899  -0.2534140   0.1472224 SPIN=   0.00000
   O  -0.1942359  -0.3452544   0.3544068 SPIN=   0.00000
   O  -0.4098899  -0.3234603   0.1335216 SPIN=   0.00000
   S  -0.2366299  -0.3882104   0.1907385 SPIN=   0.00000
   F   0.1382584   0.4174150   0.0742569 SPIN=   0.00000
   F  -0.4174150  -0.1382584  -0.0742569 SPIN=   0.00000
   F   0.1705119   0.2571509   0.4158545 SPIN=   0.00000
   F  -0.2571509  -0.1705119  -0.4158545 SPIN=   0.00000
%ENDBLOCK POSITIONS_FRAC

# Note: total spin =  16.00

KPOINTS_MP_SPACING 0.07

%BLOCK SPECIES_POT
QC5
%ENDBLOCK SPECIES_POT

SNAP_TO_SYMMETRY
SYMMETRY_GENERATE

