#              Generated by Buildcell
#
# at 10:42:29 (GMT+1.0) 4th August 2020
# in /lustre/scratch/uccabz1/launch_tmp
# on node-c12k-003
# by uccabz1
#
# compiler GCC version 4.9.2
# options -cpp -iprefix /lustre/shared/ucl/apps/gcc/4.9.2/bin/../lib/gcc/x86_64-unknown-linux-gnu/4.9.2/ -mtune=corei7 -march=x86-64 -g -Og
#
# seed   434959747 -1865358528   275534134  2006444555  -316282870 -1906581597 -1738188711  -155592430   -20997244  1797855952 -2025374161 -1014133420
#
#      Author: C. J. Pickard (cjp20@cam.ac.uk)
#                Space group: Pc
#

%BLOCK LATTICE_ABC
      7.02205      7.08885      8.05771
     90.00000     90.00000     94.24161
%ENDBLOCK LATTICE_ABC

%BLOCK POSITIONS_FRAC
  Li   0.2426649   0.1284869   0.1585086 SPIN=   0.00000
  Li  -0.2573351   0.1284869  -0.1585086 SPIN=   0.00000
  Li   0.1881495  -0.0820004  -0.4376571 SPIN=   0.00000
  Li  -0.3118505  -0.0820004   0.4376571 SPIN=   0.00000
  Fe  -0.4244626  -0.2684173  -0.0681352 SPIN=   2.03467
  Fe   0.0755374  -0.2684173   0.0681352 SPIN=   2.03467
  Fe   0.0803955   0.3684616   0.4252926 SPIN=   5.96533
  Fe  -0.4196045   0.3684616  -0.4252926 SPIN=   5.96533
   O   0.3220453  -0.2671497   0.4488654 SPIN=   0.00000
   O   0.6022351  -0.4387569   0.3684362 SPIN=   0.00000
   O   0.4921091  -0.1877624   0.1861381 SPIN=   0.00000
   O   0.2985484  -0.4923521   0.2137807 SPIN=   0.00000
   S   0.4287345  -0.3465053   0.3043051 SPIN=   0.00000
   O  -0.1779547  -0.2671497  -0.4488654 SPIN=   0.00000
   O   0.1022351  -0.4387569  -0.3684362 SPIN=   0.00000
   O  -0.0078909  -0.1877624  -0.1861381 SPIN=   0.00000
   O  -0.2014516  -0.4923521  -0.2137807 SPIN=   0.00000
   S  -0.0712655  -0.3465053  -0.3043051 SPIN=   0.00000
   O  -0.0138796   0.2452314   0.0858597 SPIN=   0.00000
   O  -0.3224080   0.1833109   0.2316114 SPIN=   0.00000
   O  -0.0467373   0.0024396   0.3067616 SPIN=   0.00000
   O  -0.2095574  -0.0544845   0.0370454 SPIN=   0.00000
   S  -0.1481456   0.0941243   0.1653195 SPIN=   0.00000
   O   0.4861204   0.2452314  -0.0858597 SPIN=   0.00000
   O   0.1775920   0.1833109  -0.2316114 SPIN=   0.00000
   O   0.4532627   0.0024396  -0.3067616 SPIN=   0.00000
   O   0.2904426  -0.0544845  -0.0370454 SPIN=   0.00000
   S   0.3518544   0.0941243  -0.1653195 SPIN=   0.00000
   F   0.3549368   0.1512397   0.3700876 SPIN=   0.00000
   F  -0.1450632   0.1512397  -0.3700876 SPIN=   0.00000
   F  -0.0753986  -0.4018316   0.2194638 SPIN=   0.00000
   F   0.4246014  -0.4018316  -0.2194638 SPIN=   0.00000
%ENDBLOCK POSITIONS_FRAC

# Note: total spin =  16.00

KPOINTS_MP_SPACING 0.07

%BLOCK SPECIES_POT
QC5
%ENDBLOCK SPECIES_POT

SNAP_TO_SYMMETRY
SYMMETRY_GENERATE

