#              Generated by Buildcell
#
# at 10:33:47 (GMT+1.0) 18th August 2020
# in /lustre/scratch/uccabz1/launch_tmp
# on node-c12f-013
# by uccabz1
#
# compiler GCC version 4.9.2
# options -cpp -iprefix /lustre/shared/ucl/apps/gcc/4.9.2/bin/../lib/gcc/x86_64-unknown-linux-gnu/4.9.2/ -mtune=corei7 -march=x86-64 -g -Og
#
# seed -2069721149  1943068370 -1830747823  1549812600 -1268283322   613642806  1078551738 -1700162154  -674590372  -715750260  1605055540   171258689
#
#      Author: C. J. Pickard (cjp20@cam.ac.uk)
#                Space group: P-1
#

%BLOCK LATTICE_ABC
      4.10239      9.92485     10.05067
     77.97709     88.33497     88.58201
%ENDBLOCK LATTICE_ABC

%BLOCK POSITIONS_FRAC
  Li  -0.1862529  -0.4816322   0.3390581 SPIN=   0.00000
  Li   0.1862529   0.4816322  -0.3390581 SPIN=   0.00000
  Li  -0.0000000  -0.5000000   0.0000000 SPIN=   0.00000
  Li   0.0000000  -0.0000000  -0.0000000 SPIN=   0.00000
  Fe   0.5222350   0.3139750  -0.0922193 SPIN=   4.20751
  Fe  -0.5222350  -0.3139750   0.0922193 SPIN=   4.20751
  Fe   0.5187252  -0.0384903  -0.2095750 SPIN=   3.79249
  Fe  -0.5187252   0.0384903   0.2095750 SPIN=   3.79249
   O  -0.1514765  -0.2958361   0.2184471 SPIN=   0.00000
   O  -0.0753297  -0.0580948   0.2503286 SPIN=   0.00000
   O   0.3526681  -0.2366992   0.3211928 SPIN=   0.00000
   O  -0.1724527  -0.2468556   0.4501541 SPIN=   0.00000
   S  -0.0116477  -0.2093714   0.3100307 SPIN=   0.00000
   O   0.1514765   0.2958361  -0.2184471 SPIN=   0.00000
   O   0.0753297   0.0580948  -0.2503286 SPIN=   0.00000
   O  -0.3526681   0.2366992  -0.3211928 SPIN=   0.00000
   O   0.1724527   0.2468556  -0.4501541 SPIN=   0.00000
   S   0.0116477   0.2093714  -0.3100307 SPIN=   0.00000
   O   0.2180619  -0.2156148  -0.1518138 SPIN=   0.00000
   O   0.2384753  -0.2561921  -0.3866934 SPIN=   0.00000
   O  -0.2883073  -0.2002481  -0.2825671 SPIN=   0.00000
   O  -0.0177065  -0.4268050  -0.2005824 SPIN=   0.00000
   S   0.0376308  -0.2747150  -0.2554142 SPIN=   0.00000
   O  -0.2180619   0.2156148   0.1518138 SPIN=   0.00000
   O  -0.2384753   0.2561921   0.3866934 SPIN=   0.00000
   O   0.2883073   0.2002481   0.2825671 SPIN=   0.00000
   O   0.0177065   0.4268050   0.2005824 SPIN=   0.00000
   S  -0.0376308   0.2747150   0.2554142 SPIN=   0.00000
   F   0.5000000  -0.5000000  -0.5000000 SPIN=   0.00000
   F   0.5000000   0.0000000  -0.0000000 SPIN=   0.00000
   F   0.5000000  -0.0000000  -0.5000000 SPIN=   0.00000
   F   0.5000000  -0.5000000   0.0000000 SPIN=   0.00000
%ENDBLOCK POSITIONS_FRAC

# Note: total spin =  16.00

KPOINTS_MP_SPACING 0.07

%BLOCK SPECIES_POT
QC5
%ENDBLOCK SPECIES_POT

SNAP_TO_SYMMETRY
SYMMETRY_GENERATE

