#              Generated by Buildcell
#
# at 01:26:16 (GMT+1.0) 18th August 2020
# in /lustre/scratch/uccabz1/launch_tmp
# on node-c12o-011
# by uccabz1
#
# compiler GCC version 4.9.2
# options -cpp -iprefix /lustre/shared/ucl/apps/gcc/4.9.2/bin/../lib/gcc/x86_64-unknown-linux-gnu/4.9.2/ -mtune=corei7 -march=x86-64 -g -Og
#
# seed  -616007056  -391037478   406838291  1354164913   -48833903 -1886582843  -983843464   669459692   960139779   -45586672  1228552268   574380334
#
#      Author: C. J. Pickard (cjp20@cam.ac.uk)
#                Space group: P42
#

%BLOCK LATTICE_ABC
      4.88928      9.04498      9.04498
     90.00000     90.00000     90.00000
%ENDBLOCK LATTICE_ABC

%BLOCK POSITIONS_FRAC
  Li  -0.1244073   0.3612120  -0.1348052 SPIN=   0.00000
  Li  -0.1244073  -0.3612120   0.1348052 SPIN=   0.00000
  Li   0.3755927   0.1348052   0.3612120 SPIN=   0.00000
  Li   0.3755927  -0.1348052  -0.3612120 SPIN=   0.00000
  Fe  -0.1031105   0.2121886   0.1785118 SPIN=   4.00000
  Fe  -0.1031105  -0.2121886  -0.1785118 SPIN=   4.00000
  Fe   0.3968895  -0.1785118   0.2121886 SPIN=   4.00000
  Fe   0.3968895   0.1785118  -0.2121886 SPIN=   4.00000
   O  -0.3947398  -0.2004082   0.4578629 SPIN=   0.00000
   O   0.0581610  -0.1586953   0.3430064 SPIN=   0.00000
   O  -0.0932926  -0.4130132   0.4020578 SPIN=   0.00000
   O   0.0272052  -0.2399590   0.6037426 SPIN=   0.00000
   S  -0.1006666  -0.2530189   0.4516674 SPIN=   0.00000
   O  -0.3947398   0.2004082  -0.4578629 SPIN=   0.00000
   O   0.0581610   0.1586953  -0.3430064 SPIN=   0.00000
   O  -0.0932926   0.4130132  -0.4020578 SPIN=   0.00000
   O   0.0272052   0.2399590  -0.6037426 SPIN=   0.00000
   S  -0.1006666   0.2530189  -0.4516674 SPIN=   0.00000
   O   0.1052602  -0.4578629  -0.2004082 SPIN=   0.00000
   O   0.5581610  -0.3430064  -0.1586953 SPIN=   0.00000
   O   0.4067074  -0.4020578  -0.4130132 SPIN=   0.00000
   O   0.5272052  -0.6037426  -0.2399590 SPIN=   0.00000
   S   0.3993334  -0.4516674  -0.2530189 SPIN=   0.00000
   O   0.1052602   0.4578629   0.2004082 SPIN=   0.00000
   O   0.5581610   0.3430064   0.1586953 SPIN=   0.00000
   O   0.4067074   0.4020578   0.4130132 SPIN=   0.00000
   O   0.5272052   0.6037426   0.2399590 SPIN=   0.00000
   S   0.3993334   0.4516674   0.2530189 SPIN=   0.00000
   F   0.1314190  -0.2494641   0.0401779 SPIN=   0.00000
   F   0.1314190   0.2494641  -0.0401779 SPIN=   0.00000
   F  -0.3685810  -0.0401779  -0.2494641 SPIN=   0.00000
   F  -0.3685810   0.0401779   0.2494641 SPIN=   0.00000
%ENDBLOCK POSITIONS_FRAC

# Note: total spin =  16.00

KPOINTS_MP_SPACING 0.07

%BLOCK SPECIES_POT
QC5
%ENDBLOCK SPECIES_POT

SNAP_TO_SYMMETRY
SYMMETRY_GENERATE

