#              Generated by Buildcell
#
# at 06:30:28 (GMT+1.0) 4th August 2020
# in /lustre/scratch/uccabz1/launch_tmp
# on node-c12m-027
# by uccabz1
#
# compiler GCC version 4.9.2
# options -cpp -iprefix /lustre/shared/ucl/apps/gcc/4.9.2/bin/../lib/gcc/x86_64-unknown-linux-gnu/4.9.2/ -mtune=corei7 -march=x86-64 -g -Og
#
# seed  1800610242   -24089877   -93877114   327836784 -1501518360  1235952558 -1761333967  -670155194 -1888609005  -427464080   287700502 -1338633025
#
#      Author: C. J. Pickard (cjp20@cam.ac.uk)
#                Space group: Cm
#

%BLOCK LATTICE_ABC
      6.29085      8.20669      8.20669
     72.05161     84.28374     84.28374
%ENDBLOCK LATTICE_ABC

%BLOCK POSITIONS_FRAC
  Li   0.2075377   0.3339558   0.3339558 SPIN=   0.00000
  Li  -0.2988330  -0.4422008  -0.4422008 SPIN=   0.00000
  Li  -0.1440419   0.1307531   0.1307531 SPIN=   0.00000
  Li   0.3853387  -0.1928866  -0.1928866 SPIN=   0.00000
  Fe   0.2373414  -0.3912385  -0.3912385 SPIN=   5.03702
  Fe   0.2840633   0.0243029   0.0243029 SPIN=   4.04455
  Fe  -0.1317458  -0.1488770  -0.1488770 SPIN=   1.46130
  Fe  -0.3306660   0.3424182   0.3424182 SPIN=   5.45714
   O  -0.0931088  -0.4998840   0.2480403 SPIN=   0.00000
   O   0.2199400  -0.3997508   0.3400598 SPIN=   0.00000
   O  -0.1437482  -0.2685593   0.3861921 SPIN=   0.00000
   O   0.0302492  -0.2120318   0.0920510 SPIN=   0.00000
   S   0.0033330  -0.3450565   0.2665858 SPIN=   0.00000
   O  -0.0931088   0.2480403  -0.4998840 SPIN=   0.00000
   O   0.2199400   0.3400598  -0.3997508 SPIN=   0.00000
   O  -0.1437482   0.3861921  -0.2685593 SPIN=   0.00000
   O   0.0302492   0.0920510  -0.2120318 SPIN=   0.00000
   S   0.0033330   0.2665858  -0.3450565 SPIN=   0.00000
   O  -0.4938682   0.4847652  -0.2039011 SPIN=   0.00000
   O  -0.6730604   0.3158462   0.0697786 SPIN=   0.00000
   O  -0.3222099   0.4286227   0.0685580 SPIN=   0.00000
   O  -0.3457390   0.1915428  -0.0544819 SPIN=   0.00000
   S  -0.4587194   0.3551942  -0.0300116 SPIN=   0.00000
   O  -0.4938682  -0.2039011   0.4847652 SPIN=   0.00000
   O  -0.6730604   0.0697786   0.3158462 SPIN=   0.00000
   O  -0.3222099   0.0685580   0.4286227 SPIN=   0.00000
   O  -0.3457390  -0.0544819   0.1915428 SPIN=   0.00000
   S  -0.4587194  -0.0300116   0.3551942 SPIN=   0.00000
   F   0.0323046  -0.0862149  -0.4784538 SPIN=   0.00000
   F   0.0323046  -0.4784538  -0.0862149 SPIN=   0.00000
   F  -0.4855143   0.1036573  -0.2899157 SPIN=   0.00000
   F  -0.4855143  -0.2899157   0.1036573 SPIN=   0.00000
%ENDBLOCK POSITIONS_FRAC

# Note: total spin =  16.00

KPOINTS_MP_SPACING 0.07

%BLOCK SPECIES_POT
QC5
%ENDBLOCK SPECIES_POT

SNAP_TO_SYMMETRY
SYMMETRY_GENERATE

