#              Generated by Buildcell
#
# at 06:03:23 (GMT+1.0) 4th August 2020
# in /lustre/scratch/uccabz1/launch_tmp
# on node-c12p-005
# by uccabz1
#
# compiler GCC version 4.9.2
# options -cpp -iprefix /lustre/shared/ucl/apps/gcc/4.9.2/bin/../lib/gcc/x86_64-unknown-linux-gnu/4.9.2/ -mtune=corei7 -march=x86-64 -g -Og
#
# seed  1986814762  -316130834  -104415156    51623742 -1498981204 -1545029851  1569946962 -1269011504  1116973055 -1943955940  1617306591  -312694564
#
#      Author: C. J. Pickard (cjp20@cam.ac.uk)
#                Space group: P21/c
#

%BLOCK LATTICE_ABC
      6.13696      7.29026      9.59026
     90.00000     90.00000    111.21124
%ENDBLOCK LATTICE_ABC

%BLOCK POSITIONS_FRAC
  Li  -0.2631665   0.2573806  -0.4962238 SPIN=   0.00000
  Li  -0.2368335   0.2426194   0.0037762 SPIN=   0.00000
  Li   0.2631665  -0.2573806   0.4962238 SPIN=   0.00000
  Li   0.2368335  -0.2426194  -0.0037762 SPIN=   0.00000
  Fe   0.3884274  -0.4348255  -0.2500273 SPIN=   4.00000
  Fe   0.1115726  -0.0651745   0.2499727 SPIN=   4.00000
  Fe  -0.3884274   0.4348255   0.2500273 SPIN=   4.00000
  Fe  -0.1115726   0.0651745  -0.2499727 SPIN=   4.00000
   O  -0.1044479  -0.2635160   0.0877722 SPIN=   0.00000
   O  -0.2724990  -0.2160913  -0.1378957 SPIN=   0.00000
   O  -0.2985962  -0.0204009   0.0679924 SPIN=   0.00000
   O  -0.5336339  -0.3767015   0.0583913 SPIN=   0.00000
   S  -0.3022942  -0.2191774   0.0190650 SPIN=   0.00000
   O  -0.3955521  -0.2364840  -0.4122278 SPIN=   0.00000
   O  -0.2275010  -0.2839087  -0.6378957 SPIN=   0.00000
   O  -0.2014038  -0.4795991  -0.4320076 SPIN=   0.00000
   O   0.0336339  -0.1232985  -0.4416087 SPIN=   0.00000
   S  -0.1977058  -0.2808226  -0.4809350 SPIN=   0.00000
   O   0.1044479   0.2635160  -0.0877722 SPIN=   0.00000
   O   0.2724990   0.2160913   0.1378957 SPIN=   0.00000
   O   0.2985962   0.0204009  -0.0679924 SPIN=   0.00000
   O   0.5336339   0.3767015  -0.0583913 SPIN=   0.00000
   S   0.3022942   0.2191774  -0.0190650 SPIN=   0.00000
   O   0.3955521   0.2364840   0.4122278 SPIN=   0.00000
   O   0.2275010   0.2839087   0.6378957 SPIN=   0.00000
   O   0.2014038   0.4795991   0.4320076 SPIN=   0.00000
   O  -0.0336339   0.1232985   0.4416087 SPIN=   0.00000
   S   0.1977058   0.2808226   0.4809350 SPIN=   0.00000
   F  -0.1372729   0.3616193   0.1789383 SPIN=   0.00000
   F  -0.3627271   0.1383807  -0.3210617 SPIN=   0.00000
   F   0.1372729  -0.3616193  -0.1789383 SPIN=   0.00000
   F   0.3627271  -0.1383807   0.3210617 SPIN=   0.00000
%ENDBLOCK POSITIONS_FRAC

# Note: total spin =  16.00

KPOINTS_MP_SPACING 0.07

%BLOCK SPECIES_POT
QC5
%ENDBLOCK SPECIES_POT

SNAP_TO_SYMMETRY
SYMMETRY_GENERATE

