#              Generated by Buildcell
#
# at 06:21:01 (GMT+1.0) 4th August 2020
# in /lustre/scratch/uccabz1/launch_tmp
# on node-c12l-035
# by uccabz1
#
# compiler GCC version 4.9.2
# options -cpp -iprefix /lustre/shared/ucl/apps/gcc/4.9.2/bin/../lib/gcc/x86_64-unknown-linux-gnu/4.9.2/ -mtune=corei7 -march=x86-64 -g -Og
#
# seed  1137932363  1756543135    51731250 -1745847067  1868838011  -715472197  1328769329   282262839 -1596927047 -1001671778  -851132598  -376051718
#
#      Author: C. J. Pickard (cjp20@cam.ac.uk)
#                Space group: Cc
#

%BLOCK LATTICE_ABC
      3.94779     10.06983     10.06983
     92.26009     90.03679     90.03679
%ENDBLOCK LATTICE_ABC

%BLOCK POSITIONS_FRAC
  Li   0.0881051  -0.0092430  -0.2149420 SPIN=   0.00000
  Li  -0.4118949  -0.2149420  -0.0092430 SPIN=   0.00000
  Li   0.0871695   0.4875197  -0.0199923 SPIN=   0.00000
  Li  -0.4128305  -0.0199923   0.4875197 SPIN=   0.00000
  Fe  -0.4299541   0.2860410   0.0686475 SPIN=   6.05077
  Fe   0.0700459   0.0686475   0.2860410 SPIN=   6.05077
  Fe  -0.4346488  -0.2452314   0.2815375 SPIN=   1.94923
  Fe   0.0653512   0.2815375  -0.2452314 SPIN=   1.94923
   O  -0.3956150  -0.4830293  -0.0674261 SPIN=   0.00000
   O  -0.0920252  -0.4327739  -0.2744709 SPIN=   0.00000
   O  -0.6310874  -0.3184503  -0.2185293 SPIN=   0.00000
   O  -0.6322301  -0.5575754  -0.2855051 SPIN=   0.00000
   S  -0.4377394  -0.4479572  -0.2114829 SPIN=   0.00000
   O   0.1043850  -0.0674261  -0.4830293 SPIN=   0.00000
   O   0.4079748  -0.2744709  -0.4327739 SPIN=   0.00000
   O  -0.1310874  -0.2185293  -0.3184503 SPIN=   0.00000
   O  -0.1322301  -0.2855051  -0.5575754 SPIN=   0.00000
   S   0.0622606  -0.2114829  -0.4479572 SPIN=   0.00000
   O  -0.1991631   0.5828309   0.2117754 SPIN=   0.00000
   O  -0.0953508   0.3535416   0.2817705 SPIN=   0.00000
   O   0.2292142   0.5411063   0.3847414 SPIN=   0.00000
   O   0.3371714   0.4689104   0.1508285 SPIN=   0.00000
   S   0.0679679   0.4865973   0.2572789 SPIN=   0.00000
   O  -0.6991631   0.2117754   0.5828309 SPIN=   0.00000
   O  -0.5953508   0.2817705   0.3535416 SPIN=   0.00000
   O  -0.2707858   0.3847414   0.5411063 SPIN=   0.00000
   O  -0.1628286   0.1508285   0.4689104 SPIN=   0.00000
   S  -0.4320321   0.2572789   0.4865973 SPIN=   0.00000
   F  -0.4338876   0.0279957  -0.2344046 SPIN=   0.00000
   F   0.0661124  -0.2344046   0.0279957 SPIN=   0.00000
   F  -0.4314901   0.0105203   0.2249023 SPIN=   0.00000
   F   0.0685099   0.2249023   0.0105203 SPIN=   0.00000
%ENDBLOCK POSITIONS_FRAC

# Note: total spin =  16.00

KPOINTS_MP_SPACING 0.07

%BLOCK SPECIES_POT
QC5
%ENDBLOCK SPECIES_POT

SNAP_TO_SYMMETRY
SYMMETRY_GENERATE

