#              Generated by Buildcell
#
# at 05:21:14 (GMT+1.0) 18th August 2020
# in /lustre/scratch/uccabz1/launch_tmp
# on node-c12f-018
# by uccabz1
#
# compiler GCC version 4.9.2
# options -cpp -iprefix /lustre/shared/ucl/apps/gcc/4.9.2/bin/../lib/gcc/x86_64-unknown-linux-gnu/4.9.2/ -mtune=corei7 -march=x86-64 -g -Og
#
# seed  1723950078    43735267 -1667381807   461789960 -2057182035 -2135853554  1465347118  -451692769  -973497198  -169876567  1916499553 -1846067901
#
#      Author: C. J. Pickard (cjp20@cam.ac.uk)
#                Space group: P-1
#

%BLOCK LATTICE_ABC
      4.24511      7.40879     12.89891
     83.05774     86.11703     84.17664
%ENDBLOCK LATTICE_ABC

%BLOCK POSITIONS_FRAC
  Li  -0.3168998  -0.3059776  -0.0701467 SPIN=   0.00000
  Li   0.3168998   0.3059776   0.0701467 SPIN=   0.00000
  Li  -0.2959863  -0.1506811  -0.3622502 SPIN=   0.00000
  Li   0.2959863   0.1506811   0.3622502 SPIN=   0.00000
  Fe  -0.2550564   0.2880408  -0.1167462 SPIN=   2.97001
  Fe   0.2550564  -0.2880408   0.1167462 SPIN=   2.97001
  Fe  -0.2033981   0.3316176   0.2301436 SPIN=   5.02999
  Fe   0.2033981  -0.3316176  -0.2301436 SPIN=   5.02999
   O  -0.4222203   0.3826290  -0.4326821 SPIN=   0.00000
   O   0.1284840   0.3631907  -0.5097138 SPIN=   0.00000
   O  -0.2964931   0.2493874  -0.5992313 SPIN=   0.00000
   O  -0.1096467   0.0820254  -0.4335170 SPIN=   0.00000
   S  -0.1749690   0.2693081  -0.4937860 SPIN=   0.00000
   O   0.4222203  -0.3826290   0.4326821 SPIN=   0.00000
   O  -0.1284840  -0.3631907   0.5097138 SPIN=   0.00000
   O   0.2964931  -0.2493874   0.5992313 SPIN=   0.00000
   O   0.1096467  -0.0820254   0.4335170 SPIN=   0.00000
   S   0.1749690  -0.2693081   0.4937860 SPIN=   0.00000
   O   0.3692540   0.0881585  -0.3706284 SPIN=   0.00000
   O  -0.0406570   0.0734457  -0.2247725 SPIN=   0.00000
   O   0.3902692   0.2748475  -0.2250076 SPIN=   0.00000
   O   0.5084384  -0.0608058  -0.1953359 SPIN=   0.00000
   S   0.3068262   0.0939115  -0.2539361 SPIN=   0.00000
   O  -0.3692540  -0.0881585   0.3706284 SPIN=   0.00000
   O   0.0406570  -0.0734457   0.2247725 SPIN=   0.00000
   O  -0.3902692  -0.2748475   0.2250076 SPIN=   0.00000
   O  -0.5084384   0.0608058   0.1953359 SPIN=   0.00000
   S  -0.3068262  -0.0939115   0.2539361 SPIN=   0.00000
   F  -0.2364851  -0.4328185  -0.2734205 SPIN=   0.00000
   F   0.2364851   0.4328185   0.2734205 SPIN=   0.00000
   F  -0.1519338   0.2512507   0.0358715 SPIN=   0.00000
   F   0.1519338  -0.2512507  -0.0358715 SPIN=   0.00000
%ENDBLOCK POSITIONS_FRAC

# Note: total spin =  16.00

KPOINTS_MP_SPACING 0.07

%BLOCK SPECIES_POT
QC5
%ENDBLOCK SPECIES_POT

SNAP_TO_SYMMETRY
SYMMETRY_GENERATE

