#              Generated by Buildcell
#
# at 07:37:40 (GMT+1.0) 4th August 2020
# in /lustre/scratch/uccabz1/launch_tmp
# on node-c12f-006
# by uccabz1
#
# compiler GCC version 4.9.2
# options -cpp -iprefix /lustre/shared/ucl/apps/gcc/4.9.2/bin/../lib/gcc/x86_64-unknown-linux-gnu/4.9.2/ -mtune=corei7 -march=x86-64 -g -Og
#
# seed  1661354066 -1995093738  -168511889    -5826304  -336446849  -528046045 -1494414978  -189636037 -1705419824  1378450286  -738003663   477331992
#
#      Author: C. J. Pickard (cjp20@cam.ac.uk)
#                Space group: C2/c
#

%BLOCK LATTICE_ABC
      6.40325      8.06754      8.06754
     86.78083     78.45254     78.45254
%ENDBLOCK LATTICE_ABC

%BLOCK POSITIONS_FRAC
  Li  -0.3700914  -0.4485652  -0.2214792 SPIN=   0.00000
  Li  -0.1299086   0.2214792   0.4485652 SPIN=   0.00000
  Li   0.3700914   0.4485652   0.2214792 SPIN=   0.00000
  Li   0.1299086  -0.2214792  -0.4485652 SPIN=   0.00000
  Fe  -0.1518283   0.3429350   0.0983433 SPIN=   4.00000
  Fe  -0.3481717  -0.0983433  -0.3429350 SPIN=   4.00000
  Fe   0.1518283  -0.3429350  -0.0983433 SPIN=   4.00000
  Fe   0.3481717   0.0983433   0.3429350 SPIN=   4.00000
   O  -0.0675672  -0.1674626   0.3931372 SPIN=   0.00000
   O  -0.2673961   0.0108965   0.1936519 SPIN=   0.00000
   O   0.0964057  -0.1614294   0.0883303 SPIN=   0.00000
   O   0.0592144   0.0889951   0.2633425 SPIN=   0.00000
   S  -0.0448358  -0.0572501   0.2346155 SPIN=   0.00000
   O  -0.4324328  -0.3931372   0.1674626 SPIN=   0.00000
   O  -0.2326039  -0.1936519  -0.0108965 SPIN=   0.00000
   O  -0.5964057  -0.0883303   0.1614294 SPIN=   0.00000
   O  -0.5592144  -0.2633425  -0.0889951 SPIN=   0.00000
   S  -0.4551642  -0.2346155   0.0572501 SPIN=   0.00000
   O   0.0675672   0.1674626  -0.3931372 SPIN=   0.00000
   O   0.2673961  -0.0108965  -0.1936519 SPIN=   0.00000
   O  -0.0964057   0.1614294  -0.0883303 SPIN=   0.00000
   O  -0.0592144  -0.0889951  -0.2633425 SPIN=   0.00000
   S   0.0448358   0.0572501  -0.2346155 SPIN=   0.00000
   O   0.4324328   0.3931372  -0.1674626 SPIN=   0.00000
   O   0.2326039   0.1936519   0.0108965 SPIN=   0.00000
   O   0.5964057   0.0883303  -0.1614294 SPIN=   0.00000
   O   0.5592144   0.2633425   0.0889951 SPIN=   0.00000
   S   0.4551642   0.2346155  -0.0572501 SPIN=   0.00000
   F   0.0406953   0.4855626   0.2445416 SPIN=   0.00000
   F   0.4593047  -0.2445416  -0.4855626 SPIN=   0.00000
   F  -0.0406953  -0.4855626  -0.2445416 SPIN=   0.00000
   F  -0.4593047   0.2445416   0.4855626 SPIN=   0.00000
%ENDBLOCK POSITIONS_FRAC

# Note: total spin =  16.00

KPOINTS_MP_SPACING 0.07

%BLOCK SPECIES_POT
QC5
%ENDBLOCK SPECIES_POT

SNAP_TO_SYMMETRY
SYMMETRY_GENERATE

