#              Generated by Buildcell
#
# at 23:11:58 (GMT+1.0) 17th August 2020
# in /lustre/scratch/uccabz1/launch_tmp
# on node-c12j-028
# by uccabz1
#
# compiler GCC version 4.9.2
# options -cpp -iprefix /lustre/shared/ucl/apps/gcc/4.9.2/bin/../lib/gcc/x86_64-unknown-linux-gnu/4.9.2/ -mtune=corei7 -march=x86-64 -g -Og
#
# seed  -157944918 -1548787083   462878587  1123525969  1670199069  2092246294 -1774382227   786558089 -1379879203   338890366   453293138   813670455
#
#      Author: C. J. Pickard (cjp20@cam.ac.uk)
#                Space group: P21
#

%BLOCK LATTICE_ABC
      4.66667      6.93509     12.54946
     99.98195     90.00000     90.00000
%ENDBLOCK LATTICE_ABC

%BLOCK POSITIONS_FRAC
  Li   0.1191782   0.3957473  -0.1453880 SPIN=   0.00000
  Li  -0.3808218  -0.3957473   0.1453880 SPIN=   0.00000
  Li   0.2154174  -0.0309213  -0.3818183 SPIN=   0.00000
  Li  -0.2845826   0.0309213   0.3818183 SPIN=   0.00000
  Fe  -0.2555861   0.0317535  -0.2096259 SPIN=   4.86712
  Fe   0.2444139  -0.0317535   0.2096259 SPIN=   4.86712
  Fe  -0.0365404   0.3444169  -0.4403775 SPIN=   3.13288
  Fe   0.4634596  -0.3444169   0.4403775 SPIN=   3.13288
   O  -0.0225526   0.3125932   0.1634346 SPIN=   0.00000
   O  -0.0277121   0.2622854   0.3539058 SPIN=   0.00000
   O  -0.3125705   0.5300753   0.2993769 SPIN=   0.00000
   O   0.2167550   0.5513816   0.3049775 SPIN=   0.00000
   S  -0.0365200   0.4140839   0.2804237 SPIN=   0.00000
   O   0.4774474  -0.3125932  -0.1634346 SPIN=   0.00000
   O   0.4722879  -0.2622854  -0.3539058 SPIN=   0.00000
   O   0.1874295  -0.5300753  -0.2993769 SPIN=   0.00000
   O   0.7167550  -0.5513816  -0.3049775 SPIN=   0.00000
   S   0.4634800  -0.4140839  -0.2804237 SPIN=   0.00000
   O   0.0147904  -0.2078190  -0.1436428 SPIN=   0.00000
   O  -0.2295110  -0.0722569   0.0280721 SPIN=   0.00000
   O   0.2478159  -0.2266052   0.0314144 SPIN=   0.00000
   O  -0.1775883  -0.4308437  -0.0270201 SPIN=   0.00000
   S  -0.0361233  -0.2343812  -0.0277941 SPIN=   0.00000
   O   0.5147904   0.2078190   0.1436428 SPIN=   0.00000
   O   0.2704890   0.0722569  -0.0280721 SPIN=   0.00000
   O   0.7478159   0.2266052  -0.0314144 SPIN=   0.00000
   O   0.3224117   0.4308437   0.0270201 SPIN=   0.00000
   S   0.4638767   0.2343812   0.0277941 SPIN=   0.00000
   F  -0.0278396  -0.2697582  -0.4745235 SPIN=   0.00000
   F   0.4721604   0.2697582   0.4745235 SPIN=   0.00000
   F  -0.1701881  -0.1095823   0.2460149 SPIN=   0.00000
   F   0.3298119   0.1095823  -0.2460149 SPIN=   0.00000
%ENDBLOCK POSITIONS_FRAC

# Note: total spin =  16.00

KPOINTS_MP_SPACING 0.07

%BLOCK SPECIES_POT
QC5
%ENDBLOCK SPECIES_POT

SNAP_TO_SYMMETRY
SYMMETRY_GENERATE

