#              Generated by Buildcell
#
# at 13:09:45 (GMT+1.0) 18th August 2020
# in /lustre/scratch/uccabz1/launch_tmp
# on node-c12o-016
# by uccabz1
#
# compiler GCC version 4.9.2
# options -cpp -iprefix /lustre/shared/ucl/apps/gcc/4.9.2/bin/../lib/gcc/x86_64-unknown-linux-gnu/4.9.2/ -mtune=corei7 -march=x86-64 -g -Og
#
# seed  -803806901   926364943  1350171625  2099327126  1412336663 -1169293009   588459023 -1596303176  -365195263  -484124322   587622642  1079338281
#
#      Author: C. J. Pickard (cjp20@cam.ac.uk)
#                Space group: P-1
#

%BLOCK LATTICE_ABC
      4.80097      9.17603      9.33548
     99.61012     94.44625     97.44555
%ENDBLOCK LATTICE_ABC

%BLOCK POSITIONS_FRAC
  Li  -0.1758087   0.4585916   0.3060824 SPIN=   0.00000
  Li   0.1758087  -0.4585916  -0.3060824 SPIN=   0.00000
  Li   0.2428024  -0.0831167  -0.3970555 SPIN=   0.00000
  Li  -0.2428024   0.0831167   0.3970555 SPIN=   0.00000
  Fe  -0.3087263   0.4147589  -0.1518334 SPIN=   4.30463
  Fe   0.3087263  -0.4147589   0.1518334 SPIN=   4.30463
  Fe  -0.2872860  -0.3115269  -0.4390057 SPIN=   3.69537
  Fe   0.2872860   0.3115269   0.4390057 SPIN=   3.69537
   O  -0.3915163   0.1782777  -0.3213026 SPIN=   0.00000
   O   0.0844888   0.1036117  -0.3334998 SPIN=   0.00000
   O  -0.3355177  -0.0709713  -0.4553450 SPIN=   0.00000
   O  -0.2536274  -0.0152641  -0.1855289 SPIN=   0.00000
   S  -0.2240432   0.0489135  -0.3239191 SPIN=   0.00000
   O   0.3915163  -0.1782777   0.3213026 SPIN=   0.00000
   O  -0.0844888  -0.1036117   0.3334998 SPIN=   0.00000
   O   0.3355177   0.0709713   0.4553450 SPIN=   0.00000
   O   0.2536274   0.0152641   0.1855289 SPIN=   0.00000
   S   0.2240432  -0.0489135   0.3239191 SPIN=   0.00000
   O  -0.1846480   0.1096457   0.1743686 SPIN=   0.00000
   O   0.1215058   0.3530814   0.1996774 SPIN=   0.00000
   O  -0.3226481   0.3003148   0.0348123 SPIN=   0.00000
   O   0.0817746   0.1693521  -0.0300772 SPIN=   0.00000
   S  -0.0760039   0.2330985   0.0946953 SPIN=   0.00000
   O   0.1846480  -0.1096457  -0.1743686 SPIN=   0.00000
   O  -0.1215058  -0.3530814  -0.1996774 SPIN=   0.00000
   O   0.3226481  -0.3003148  -0.0348123 SPIN=   0.00000
   O  -0.0817746  -0.1693521   0.0300772 SPIN=   0.00000
   S   0.0760039  -0.2330985  -0.0946953 SPIN=   0.00000
   F   0.2721226   0.3632865  -0.1839428 SPIN=   0.00000
   F  -0.2721226  -0.3632865   0.1839428 SPIN=   0.00000
   F   0.2981042  -0.3070489  -0.4433480 SPIN=   0.00000
   F  -0.2981042   0.3070489   0.4433480 SPIN=   0.00000
%ENDBLOCK POSITIONS_FRAC

# Note: total spin =  16.00

KPOINTS_MP_SPACING 0.07

%BLOCK SPECIES_POT
QC5
%ENDBLOCK SPECIES_POT

SNAP_TO_SYMMETRY
SYMMETRY_GENERATE

