#              Generated by Buildcell
#
# at 07:19:14 (GMT+1.0) 4th August 2020
# in /lustre/scratch/uccabz1/launch_tmp
# on node-c12b-034
# by uccabz1
#
# compiler GCC version 4.9.2
# options -cpp -iprefix /lustre/shared/ucl/apps/gcc/4.9.2/bin/../lib/gcc/x86_64-unknown-linux-gnu/4.9.2/ -mtune=corei7 -march=x86-64 -g -Og
#
# seed    78715817    85561472   561349462   290813749 -1817475815  1515860823  -617205880    -6888662  -938444179 -2045900872  -914270350 -1831398834
#
#      Author: C. J. Pickard (cjp20@cam.ac.uk)
#                Space group: Cc
#

%BLOCK LATTICE_ABC
      6.13933      6.40248     10.67794
     88.35883     73.29300     84.28243
%ENDBLOCK LATTICE_ABC

%BLOCK POSITIONS_FRAC
  Li  -0.1108352   0.2155697   0.1852190 SPIN=   0.00000
  Li   0.0743838  -0.2844303  -0.1852190 SPIN=   0.00000
  Li  -0.4903400  -0.1283469   0.0881122 SPIN=   0.00000
  Li  -0.4022279   0.3716531  -0.0881122 SPIN=   0.00000
  Fe  -0.4503793  -0.0409844  -0.4687822 SPIN=   4.42781
  Fe   0.0808385   0.4590156   0.4687822 SPIN=   4.42781
  Fe   0.0488174  -0.2388335   0.0891888 SPIN=   3.57219
  Fe   0.1380062   0.2611665  -0.0891888 SPIN=   3.57219
   O  -0.0737701   0.1651610   0.3758250 SPIN=   0.00000
   O   0.3293646   0.0743787   0.3722409 SPIN=   0.00000
   O   0.2047680   0.0075664   0.1774563 SPIN=   0.00000
   O   0.0788188  -0.2073331   0.3769321 SPIN=   0.00000
   S   0.1347954   0.0099433   0.3256136 SPIN=   0.00000
   O   0.3020550  -0.3348390  -0.3758250 SPIN=   0.00000
   O   0.7016055  -0.4256213  -0.3722409 SPIN=   0.00000
   O   0.3822243  -0.4924336  -0.1774563 SPIN=   0.00000
   O   0.4557509  -0.7073331  -0.3769321 SPIN=   0.00000
   S   0.4604089  -0.4900567  -0.3256136 SPIN=   0.00000
   O  -0.5447800  -0.2697596   0.3651691 SPIN=   0.00000
   O  -0.2623488  -0.3749362   0.1546800 SPIN=   0.00000
   O  -0.4912367  -0.6392317   0.2915367 SPIN=   0.00000
   O  -0.1895375  -0.4910576   0.3632730 SPIN=   0.00000
   S  -0.3719758  -0.4437463   0.2936647 SPIN=   0.00000
   O  -0.1796109   0.2302404  -0.3651691 SPIN=   0.00000
   O  -0.1076688   0.1250638  -0.1546800 SPIN=   0.00000
   O  -0.1997000  -0.1392317  -0.2915367 SPIN=   0.00000
   O   0.1737355   0.0089424  -0.3632730 SPIN=   0.00000
   S  -0.0783110   0.0562537  -0.2936647 SPIN=   0.00000
   F  -0.2796164   0.0517376   0.1111752 SPIN=   0.00000
   F  -0.1684413  -0.4482624  -0.1111752 SPIN=   0.00000
   F   0.2319964   0.4664963   0.1035632 SPIN=   0.00000
   F   0.3355596  -0.0335037  -0.1035632 SPIN=   0.00000
%ENDBLOCK POSITIONS_FRAC

# Note: total spin =  16.00

KPOINTS_MP_SPACING 0.07

%BLOCK SPECIES_POT
QC5
%ENDBLOCK SPECIES_POT

SNAP_TO_SYMMETRY
SYMMETRY_GENERATE

