#              Generated by Buildcell
#
# at 01:39:38 (GMT+1.0) 18th August 2020
# in /lustre/scratch/uccabz1/launch_tmp
# on node-c12h-012
# by uccabz1
#
# compiler GCC version 4.9.2
# options -cpp -iprefix /lustre/shared/ucl/apps/gcc/4.9.2/bin/../lib/gcc/x86_64-unknown-linux-gnu/4.9.2/ -mtune=corei7 -march=x86-64 -g -Og
#
# seed  -488347804   539972261   778383956   961558968 -1737770762  -558886422  -439834213  -125585714  1507053763 -1232581510   538026722  2036413800
#
#      Author: C. J. Pickard (cjp20@cam.ac.uk)
#                Space group: P21
#

%BLOCK LATTICE_ABC
      4.91181      8.03200     10.64132
     90.00000     90.00000    107.67515
%ENDBLOCK LATTICE_ABC

%BLOCK POSITIONS_FRAC
  Li   0.0522453   0.2758041   0.3666438 SPIN=   0.00000
  Li  -0.0522453  -0.2758041  -0.1333562 SPIN=   0.00000
  Li  -0.5460352  -0.2775300   0.1657489 SPIN=   0.00000
  Li   0.5460352   0.2775300  -0.3342511 SPIN=   0.00000
  Fe  -0.1924952  -0.3541352   0.4033125 SPIN=   5.76849
  Fe   0.1924952   0.3541352  -0.0966875 SPIN=   5.76849
  Fe   0.4619641   0.0201260   0.3999238 SPIN=   2.23151
  Fe  -0.4619641  -0.0201260  -0.1000762 SPIN=   2.23151
   O   0.0182688   0.1221129  -0.4129658 SPIN=   0.00000
   O   0.3387621   0.0229696  -0.2719575 SPIN=   0.00000
   O   0.0468142  -0.1793979  -0.4303816 SPIN=   0.00000
   O  -0.1856075  -0.0935864  -0.2455413 SPIN=   0.00000
   S   0.0545594  -0.0319754  -0.3402116 SPIN=   0.00000
   O  -0.0182688  -0.1221129   0.0870342 SPIN=   0.00000
   O  -0.3387621  -0.0229696   0.2280425 SPIN=   0.00000
   O  -0.0468142   0.1793979   0.0696184 SPIN=   0.00000
   O   0.1856075   0.0935864   0.2544587 SPIN=   0.00000
   S  -0.0545594   0.0319754   0.1597884 SPIN=   0.00000
   O   0.5080854   0.2609641   0.0623101 SPIN=   0.00000
   O   0.7784382   0.5758232   0.0554709 SPIN=   0.00000
   O   0.8627176   0.3907031   0.2279583 SPIN=   0.00000
   O   0.4083537   0.4634732   0.2183033 SPIN=   0.00000
   S   0.6393987   0.4227409   0.1410106 SPIN=   0.00000
   O  -0.5080854  -0.2609641  -0.4376899 SPIN=   0.00000
   O  -0.7784382  -0.5758232  -0.4445291 SPIN=   0.00000
   O  -0.8627176  -0.3907031  -0.2720417 SPIN=   0.00000
   O  -0.4083537  -0.4634732  -0.2816967 SPIN=   0.00000
   S  -0.6393987  -0.4227409  -0.3589894 SPIN=   0.00000
   F  -0.6144005  -0.2608387  -0.0384566 SPIN=   0.00000
   F   0.6144005   0.2608387   0.4615434 SPIN=   0.00000
   F  -0.1946047   0.2843810  -0.1674697 SPIN=   0.00000
   F   0.1946047  -0.2843810   0.3325303 SPIN=   0.00000
%ENDBLOCK POSITIONS_FRAC

# Note: total spin =  16.00

KPOINTS_MP_SPACING 0.07

%BLOCK SPECIES_POT
QC5
%ENDBLOCK SPECIES_POT

SNAP_TO_SYMMETRY
SYMMETRY_GENERATE

