#              Generated by Buildcell
#
# at 07:49:32 (GMT+1.0) 4th August 2020
# in /lustre/scratch/uccabz1/launch_tmp
# on node-c12g-007
# by uccabz1
#
# compiler GCC version 4.9.2
# options -cpp -iprefix /lustre/shared/ucl/apps/gcc/4.9.2/bin/../lib/gcc/x86_64-unknown-linux-gnu/4.9.2/ -mtune=corei7 -march=x86-64 -g -Og
#
# seed  1033760569  -164271129  1315810521  1863242814   510687749  1242381176  -298086432  -711465833   694747518 -1461749610 -1155266788   -18797503
#
#      Author: C. J. Pickard (cjp20@cam.ac.uk)
#                Space group: Cm
#

%BLOCK LATTICE_ABC
      6.98000      6.98000      9.44265
     69.41479     69.41479     89.20811
%ENDBLOCK LATTICE_ABC

%BLOCK POSITIONS_FRAC
  Li   0.2270446   0.2270446  -0.3238298 SPIN=   0.00000
  Li  -0.1952776  -0.1952776   0.0387586 SPIN=   0.00000
  Li   0.6380185   0.6380185  -0.3834513 SPIN=   0.00000
  Li   0.0801097   0.0801097   0.3701969 SPIN=   0.00000
  Fe   0.2712133  -0.1601646  -0.0639551 SPIN=   6.14822
  Fe  -0.1601646   0.2712133  -0.0639551 SPIN=   6.14822
  Fe  -0.5678990  -0.5678990   0.2557851 SPIN=   1.38245
  Fe   0.3386885   0.3386885  -0.0642227 SPIN=   2.32110
   O   0.2664732   0.5331284  -0.4151931 SPIN=   0.00000
   O   0.3547561   0.8044716  -0.3281653 SPIN=   0.00000
   O   0.0322567   0.5639535  -0.1595919 SPIN=   0.00000
   O   0.0658763   0.8295632  -0.4256198 SPIN=   0.00000
   S   0.1798405   0.6827792  -0.3321425 SPIN=   0.00000
   O   0.5331284   0.2664732  -0.4151931 SPIN=   0.00000
   O   0.8044716   0.3547561  -0.3281653 SPIN=   0.00000
   O   0.5639535   0.0322567  -0.1595919 SPIN=   0.00000
   O   0.8295632   0.0658763  -0.4256198 SPIN=   0.00000
   S   0.6827792   0.1798405  -0.3321425 SPIN=   0.00000
   O  -0.0167189  -0.7737061   0.1905671 SPIN=   0.00000
   O  -0.1405102  -0.5888617   0.3802431 SPIN=   0.00000
   O  -0.2417491  -0.5007451   0.1407602 SPIN=   0.00000
   S  -0.0701003  -0.5678312   0.2036636 SPIN=   0.00000
   O  -0.7737061  -0.0167189   0.1905671 SPIN=   0.00000
   O  -0.5888617  -0.1405102   0.3802431 SPIN=   0.00000
   O  -0.5007451  -0.2417491   0.1407602 SPIN=   0.00000
   S  -0.5678312  -0.0701003   0.2036636 SPIN=   0.00000
   O  -0.4285158  -0.4285158   0.3686491 SPIN=   0.00000
   O  -0.1713118  -0.1713118  -0.1821895 SPIN=   0.00000
   F  -0.1700025  -0.1700025   0.3984059 SPIN=   0.00000
   F  -0.7524435  -0.7524435   0.4527860 SPIN=   0.00000
   F   0.5143179   0.5143179  -0.0384897 SPIN=   0.00000
   F   0.1276996   0.1276996  -0.0791560 SPIN=   0.00000
%ENDBLOCK POSITIONS_FRAC

# Note: total spin =  16.00

KPOINTS_MP_SPACING 0.07

%BLOCK SPECIES_POT
QC5
%ENDBLOCK SPECIES_POT

SNAP_TO_SYMMETRY
SYMMETRY_GENERATE

