#              Generated by Buildcell
#
# at 01:15:53 (GMT+1.0) 18th August 2020
# in /lustre/scratch/uccabz1/launch_tmp
# on node-c12e-007
# by uccabz1
#
# compiler GCC version 4.9.2
# options -cpp -iprefix /lustre/shared/ucl/apps/gcc/4.9.2/bin/../lib/gcc/x86_64-unknown-linux-gnu/4.9.2/ -mtune=corei7 -march=x86-64 -g -Og
#
# seed -1530379115  -808762850  -437016455   958070918  -855888405 -1874573171 -1840662809  1298079758 -1975093410  -698214073  1814981654   538350251
#
#      Author: C. J. Pickard (cjp20@cam.ac.uk)
#                Space group: I222
#

%BLOCK LATTICE_ABC
      5.48753      8.97415      8.97415
     81.70696     72.19725     72.19725
%ENDBLOCK LATTICE_ABC

%BLOCK POSITIONS_FRAC
  Li  -0.4831755   0.3395416   0.1208286 SPIN=   0.00000
  Li   0.4831755  -0.1208286  -0.3395416 SPIN=   0.00000
  Li   0.0228053   0.1208286   0.3395416 SPIN=   0.00000
  Li  -0.0228053  -0.3395416  -0.1208286 SPIN=   0.00000
  Fe   0.1526983  -0.2120185   0.4087675 SPIN=   4.00000
  Fe  -0.1526983  -0.4087675   0.2120185 SPIN=   4.00000
  Fe  -0.3494474   0.4087675  -0.2120185 SPIN=   4.00000
  Fe   0.3494474   0.2120185  -0.4087675 SPIN=   4.00000
   O  -0.1181204  -0.0946197  -0.0907630 SPIN=   0.00000
   O  -0.3630773   0.0845205  -0.2665921 SPIN=   0.00000
   O  -0.0677478  -0.1757693  -0.3531515 SPIN=   0.00000
   O   0.1260854   0.0318817  -0.3286897 SPIN=   0.00000
   S  -0.1057150  -0.0384967  -0.2597991 SPIN=   0.00000
   O   0.1181204   0.0907630   0.0946197 SPIN=   0.00000
   O   0.3630773   0.2665921  -0.0845205 SPIN=   0.00000
   O   0.0677478   0.3531515   0.1757693 SPIN=   0.00000
   O  -0.1260854   0.3286897  -0.0318817 SPIN=   0.00000
   S   0.1057150   0.2597991   0.0384967 SPIN=   0.00000
   O   0.3035031  -0.0907630  -0.0946197 SPIN=   0.00000
   O   0.5451489  -0.2665921   0.0845205 SPIN=   0.00000
   O   0.5966686  -0.3531515  -0.1757693 SPIN=   0.00000
   O   0.1707225  -0.3286897   0.0318817 SPIN=   0.00000
   S   0.4040108  -0.2597991  -0.0384967 SPIN=   0.00000
   O  -0.3035031   0.0946197   0.0907630 SPIN=   0.00000
   O  -0.5451489  -0.0845205   0.2665921 SPIN=   0.00000
   O  -0.5966686   0.1757693   0.3531515 SPIN=   0.00000
   O  -0.1707225  -0.0318817   0.3286897 SPIN=   0.00000
   S  -0.4040108   0.0384967   0.2597991 SPIN=   0.00000
   F   0.1423417  -0.4946595  -0.2900971 SPIN=   0.00000
   F  -0.1423417   0.2900971   0.4946595 SPIN=   0.00000
   F  -0.3575852  -0.2900971  -0.4946595 SPIN=   0.00000
   F   0.3575852   0.4946595   0.2900971 SPIN=   0.00000
%ENDBLOCK POSITIONS_FRAC

# Note: total spin =  16.00

KPOINTS_MP_SPACING 0.07

%BLOCK SPECIES_POT
QC5
%ENDBLOCK SPECIES_POT

SNAP_TO_SYMMETRY
SYMMETRY_GENERATE

