#              Generated by Buildcell
#
# at 17:36:05 (GMT+1.0) 18th August 2020
# in /lustre/scratch/uccabz1/launch_tmp
# on node-c12e-006
# by uccabz1
#
# compiler GCC version 4.9.2
# options -cpp -iprefix /lustre/shared/ucl/apps/gcc/4.9.2/bin/../lib/gcc/x86_64-unknown-linux-gnu/4.9.2/ -mtune=corei7 -march=x86-64 -g -Og
#
# seed  -280918263  1696900561  1102774966 -1353076106  1722238296  -493054227 -1262088958  -315350564  1660594586   528583454 -1972253589  1336035222
#
#      Author: C. J. Pickard (cjp20@cam.ac.uk)
#                Space group: P42
#

%BLOCK LATTICE_ABC
      5.09134      8.86368      8.86368
     90.00000     90.00000     90.00000
%ENDBLOCK LATTICE_ABC

%BLOCK POSITIONS_FRAC
  Li  -0.3848385   0.2217091  -0.2906430 SPIN=   0.00000
  Li  -0.3848385  -0.2217091   0.2906430 SPIN=   0.00000
  Li   0.1151615   0.2906430   0.2217091 SPIN=   0.00000
  Li   0.1151615  -0.2906430  -0.2217091 SPIN=   0.00000
  Fe   0.0855964  -0.3284478   0.1153049 SPIN=   4.00000
  Fe   0.0855964   0.3284478  -0.1153049 SPIN=   4.00000
  Fe  -0.4144036  -0.1153049  -0.3284478 SPIN=   4.00000
  Fe  -0.4144036   0.1153049   0.3284478 SPIN=   4.00000
   O  -0.5824891   0.4328788   0.3656449 SPIN=   0.00000
   O  -0.5097829   0.3401472   0.1056105 SPIN=   0.00000
   O  -0.1428082   0.4545626   0.2485683 SPIN=   0.00000
   O  -0.5086606   0.6144403   0.1578032 SPIN=   0.00000
   S  -0.4359352   0.4605072   0.2194067 SPIN=   0.00000
   O  -0.5824891  -0.4328788  -0.3656449 SPIN=   0.00000
   O  -0.5097829  -0.3401472  -0.1056105 SPIN=   0.00000
   O  -0.1428082  -0.4545626  -0.2485683 SPIN=   0.00000
   O  -0.5086606  -0.6144403  -0.1578032 SPIN=   0.00000
   S  -0.4359352  -0.4605072  -0.2194067 SPIN=   0.00000
   O  -0.0824891  -0.3656449   0.4328788 SPIN=   0.00000
   O  -0.0097829  -0.1056105   0.3401472 SPIN=   0.00000
   O   0.3571918  -0.2485683   0.4545626 SPIN=   0.00000
   O  -0.0086606  -0.1578032   0.6144403 SPIN=   0.00000
   S   0.0640648  -0.2194067   0.4605072 SPIN=   0.00000
   O  -0.0824891   0.3656449  -0.4328788 SPIN=   0.00000
   O  -0.0097829   0.1056105  -0.3401472 SPIN=   0.00000
   O   0.3571918   0.2485683  -0.4545626 SPIN=   0.00000
   O  -0.0086606   0.1578032  -0.6144403 SPIN=   0.00000
   S   0.0640648   0.2194067  -0.4605072 SPIN=   0.00000
   F   0.0166547  -0.1973577  -0.0419192 SPIN=   0.00000
   F   0.0166547   0.1973577   0.0419192 SPIN=   0.00000
   F  -0.4833453   0.0419192  -0.1973577 SPIN=   0.00000
   F  -0.4833453  -0.0419192   0.1973577 SPIN=   0.00000
%ENDBLOCK POSITIONS_FRAC

# Note: total spin =  16.00

KPOINTS_MP_SPACING 0.07

%BLOCK SPECIES_POT
QC5
%ENDBLOCK SPECIES_POT

SNAP_TO_SYMMETRY
SYMMETRY_GENERATE

