#              Generated by Buildcell
#
# at 02:27:45 (GMT+1.0) 18th August 2020
# in /scratch/scratch/uccabz1/launch_tmp
# on node-k10i-026
# by uccabz1
#
# compiler GCC version 4.9.2
# options -cpp -iprefix /scratch/UCL/applications/gcc/4.9.2/bin/../lib/gcc/x86_64-unknown-linux-gnu/4.9.2/ -mtune=corei7 -march=x86-64 -g -O2
#
# seed   861124185  1440463331 -1723505161   738777972  -380461143  -713167151 -1633336723 -1793412158   538861796    71877088  1680280996 -1787828093
#
#      Author: C. J. Pickard (cjp20@cam.ac.uk)
#                Space group: Pcc2
#

%BLOCK LATTICE_ABC
      7.10050      7.16970      7.85725
     90.00000     90.00000     90.00000
%ENDBLOCK LATTICE_ABC

%BLOCK POSITIONS_FRAC
  Li  -0.1750640  -0.4498336   0.2197883 SPIN=   0.00000
  Li  -0.1750640   0.4498336  -0.2197883 SPIN=   0.00000
  Li   0.3249360   0.4498336   0.2197883 SPIN=   0.00000
  Li   0.3249360  -0.4498336  -0.2197883 SPIN=   0.00000
  Fe   0.4377466   0.2482009  -0.4622888 SPIN=   4.00000
  Fe   0.4377466  -0.2482009   0.4622888 SPIN=   4.00000
  Fe  -0.0622534  -0.2482009  -0.4622888 SPIN=   4.00000
  Fe  -0.0622534   0.2482009   0.4622888 SPIN=   4.00000
   O   0.2715956   0.0812039  -0.1934169 SPIN=   0.00000
   O   0.2189304   0.3448156   0.0042839 SPIN=   0.00000
   O  -0.0451126   0.1353625  -0.0715296 SPIN=   0.00000
   O   0.0837200   0.3537066  -0.2859168 SPIN=   0.00000
   S   0.1322834   0.2287722  -0.1366448 SPIN=   0.00000
   O   0.2715956  -0.0812039   0.1934169 SPIN=   0.00000
   O   0.2189304  -0.3448156  -0.0042839 SPIN=   0.00000
   O  -0.0451126  -0.1353625   0.0715296 SPIN=   0.00000
   O   0.0837200  -0.3537066   0.2859168 SPIN=   0.00000
   S   0.1322834  -0.2287722   0.1366448 SPIN=   0.00000
   O  -0.2284044  -0.0812039  -0.1934169 SPIN=   0.00000
   O  -0.2810696  -0.3448156   0.0042839 SPIN=   0.00000
   O  -0.5451126  -0.1353625  -0.0715296 SPIN=   0.00000
   O  -0.4162800  -0.3537066  -0.2859168 SPIN=   0.00000
   S  -0.3677166  -0.2287722  -0.1366448 SPIN=   0.00000
   O  -0.2284044   0.0812039   0.1934169 SPIN=   0.00000
   O  -0.2810696   0.3448156  -0.0042839 SPIN=   0.00000
   O  -0.5451126   0.1353625   0.0715296 SPIN=   0.00000
   O  -0.4162800   0.3537066   0.2859168 SPIN=   0.00000
   S  -0.3677166   0.2287722   0.1366448 SPIN=   0.00000
   F   0.1809189  -0.2601260  -0.3650574 SPIN=   0.00000
   F   0.1809189   0.2601260   0.3650574 SPIN=   0.00000
   F  -0.3190811   0.2601260  -0.3650574 SPIN=   0.00000
   F  -0.3190811  -0.2601260   0.3650574 SPIN=   0.00000
%ENDBLOCK POSITIONS_FRAC

# Note: total spin =  16.00

KPOINTS_MP_SPACING 0.07

%BLOCK SPECIES_POT
QC5
%ENDBLOCK SPECIES_POT

SNAP_TO_SYMMETRY
SYMMETRY_GENERATE

