#              Generated by Buildcell
#
# at 06:18:30 (GMT+1.0) 4th August 2020
# in /lustre/scratch/uccabz1/launch_tmp
# on node-c12p-016
# by uccabz1
#
# compiler GCC version 4.9.2
# options -cpp -iprefix /lustre/shared/ucl/apps/gcc/4.9.2/bin/../lib/gcc/x86_64-unknown-linux-gnu/4.9.2/ -mtune=corei7 -march=x86-64 -g -Og
#
# seed   212779552  -798624155   255857988  1735332611 -1039715897   567586154  -475387600 -1062395522 -1301669650  -524096331   480322986  -667921820
#
#      Author: C. J. Pickard (cjp20@cam.ac.uk)
#                Space group: Pmn21
#

%BLOCK LATTICE_ABC
      3.96238      8.06195     12.52170
     90.00000     90.00000     90.00000
%ENDBLOCK LATTICE_ABC

%BLOCK POSITIONS_FRAC
  Li  -0.4416717   0.2322282   0.2236419 SPIN=   0.00000
  Li   0.4416717   0.2677718  -0.2763581 SPIN=   0.00000
  Li   0.4416717  -0.2677718  -0.2763581 SPIN=   0.00000
  Li  -0.4416717  -0.2322282   0.2236419 SPIN=   0.00000
  Fe   0.0595223  -0.5000000   0.1691449 SPIN=   4.55379
  Fe  -0.0595223   0.0000000  -0.3308551 SPIN=   4.55379
  Fe   0.0730448   0.0000000   0.3323811 SPIN=   3.44621
  Fe  -0.0730448  -0.5000000  -0.1676189 SPIN=   3.44621
   O  -0.7614246   0.3594001   0.4432557 SPIN=   0.00000
   O  -0.3328301   0.1407409   0.4140879 SPIN=   0.00000
   O  -0.6697983   0.1431303   0.5804964 SPIN=   0.00000
   O  -0.2355423   0.3585944   0.5498926 SPIN=   0.00000
   S  -0.4998988   0.2504664   0.4969332 SPIN=   0.00000
   O   0.7614246   0.1405999  -0.0567443 SPIN=   0.00000
   O   0.3328301   0.3592591  -0.0859121 SPIN=   0.00000
   O   0.6697983   0.3568697   0.0804964 SPIN=   0.00000
   O   0.2355423   0.1414056   0.0498926 SPIN=   0.00000
   S   0.4998988   0.2495336  -0.0030668 SPIN=   0.00000
   O   0.7614246  -0.1405999  -0.0567443 SPIN=   0.00000
   O   0.3328301  -0.3592591  -0.0859121 SPIN=   0.00000
   O   0.6697983  -0.3568697   0.0804964 SPIN=   0.00000
   O   0.2355423  -0.1414056   0.0498926 SPIN=   0.00000
   S   0.4998988  -0.2495336  -0.0030668 SPIN=   0.00000
   O  -0.7614246  -0.3594001   0.4432557 SPIN=   0.00000
   O  -0.3328301  -0.1407409   0.4140879 SPIN=   0.00000
   O  -0.6697983  -0.1431303   0.5804964 SPIN=   0.00000
   O  -0.2355423  -0.3585944   0.5498926 SPIN=   0.00000
   S  -0.4998988  -0.2504664   0.4969332 SPIN=   0.00000
   F  -0.0549151  -0.2556807  -0.2521392 SPIN=   0.00000
   F   0.0549151  -0.2443193   0.2478608 SPIN=   0.00000
   F   0.0549151   0.2443193   0.2478608 SPIN=   0.00000
   F  -0.0549151   0.2556807  -0.2521392 SPIN=   0.00000
%ENDBLOCK POSITIONS_FRAC

# Note: total spin =  16.00

KPOINTS_MP_SPACING 0.07

%BLOCK SPECIES_POT
QC5
%ENDBLOCK SPECIES_POT

SNAP_TO_SYMMETRY
SYMMETRY_GENERATE

