#              Generated by Buildcell
#
# at 14:58:45 (GMT+1.0) 18th August 2020
# in /lustre/scratch/uccabz1/launch_tmp
# on node-c12l-006
# by uccabz1
#
# compiler GCC version 4.9.2
# options -cpp -iprefix /lustre/shared/ucl/apps/gcc/4.9.2/bin/../lib/gcc/x86_64-unknown-linux-gnu/4.9.2/ -mtune=corei7 -march=x86-64 -g -Og
#
# seed  -869949344  1166761815  1833478138 -1018813157  -753994374  1648092692  -688538545  1347848481   301459252   391592765    82106115   222546870
#
#      Author: C. J. Pickard (cjp20@cam.ac.uk)
#                Space group: Pc
#

%BLOCK LATTICE_ABC
      3.91644      5.30859     19.23936
     90.00000     90.00000     90.09515
%ENDBLOCK LATTICE_ABC

%BLOCK POSITIONS_FRAC
  Li   0.2569338  -0.2947767  -0.4249201 SPIN=   0.00000
  Li   0.2569338   0.2052233   0.4249201 SPIN=   0.00000
  Li  -0.4503166  -0.4080244   0.2156165 SPIN=   0.00000
  Li  -0.4503166   0.0919756  -0.2156165 SPIN=   0.00000
  Fe   0.1779948   0.0417673   0.0704839 SPIN=   3.83748
  Fe   0.1779948  -0.4582327  -0.0704839 SPIN=   3.83748
  Fe  -0.2668370  -0.4201922  -0.2902681 SPIN=   4.16252
  Fe  -0.2668370   0.0798078   0.2902681 SPIN=   4.16252
   O  -0.0486361   0.2061828  -0.1076577 SPIN=   0.00000
   O  -0.5844133   0.2023164  -0.0394570 SPIN=   0.00000
   O  -0.1611772  -0.1389210  -0.0242170 SPIN=   0.00000
   O  -0.4958116  -0.1106538  -0.1330488 SPIN=   0.00000
   S  -0.3225095   0.0397311  -0.0760951 SPIN=   0.00000
   O  -0.0486361  -0.2938172   0.1076577 SPIN=   0.00000
   O  -0.5844133  -0.2976836   0.0394570 SPIN=   0.00000
   O  -0.1611772  -0.6389210   0.0242170 SPIN=   0.00000
   O  -0.4958116  -0.6106538   0.1330488 SPIN=   0.00000
   S  -0.3225095  -0.4602689   0.0760951 SPIN=   0.00000
   O   0.0185153   0.0428713  -0.4023410 SPIN=   0.00000
   O   0.3326398   0.3580070  -0.3322273 SPIN=   0.00000
   O   0.5185372  -0.0873370  -0.3324566 SPIN=   0.00000
   O  -0.0197489   0.0332678  -0.2739681 SPIN=   0.00000
   S   0.2124859   0.0867023  -0.3352482 SPIN=   0.00000
   O   0.0185153  -0.4571287   0.4023410 SPIN=   0.00000
   O   0.3326398  -0.1419930   0.3322273 SPIN=   0.00000
   O   0.5185372  -0.5873370   0.3324566 SPIN=   0.00000
   O  -0.0197489  -0.4667322   0.2739681 SPIN=   0.00000
   S   0.2124859  -0.4132977   0.3352482 SPIN=   0.00000
   F   0.0494127  -0.4155490  -0.2030372 SPIN=   0.00000
   F   0.0494127   0.0844510   0.2030372 SPIN=   0.00000
   F  -0.2664570   0.0800474   0.4327957 SPIN=   0.00000
   F  -0.2664570  -0.4199526  -0.4327957 SPIN=   0.00000
%ENDBLOCK POSITIONS_FRAC

# Note: total spin =  16.00

KPOINTS_MP_SPACING 0.07

%BLOCK SPECIES_POT
QC5
%ENDBLOCK SPECIES_POT

SNAP_TO_SYMMETRY
SYMMETRY_GENERATE

