#              Generated by Buildcell
#
# at 07:14:52 (GMT+1.0) 4th August 2020
# in /lustre/scratch/uccabz1/launch_tmp
# on node-c12n-034
# by uccabz1
#
# compiler GCC version 4.9.2
# options -cpp -iprefix /lustre/shared/ucl/apps/gcc/4.9.2/bin/../lib/gcc/x86_64-unknown-linux-gnu/4.9.2/ -mtune=corei7 -march=x86-64 -g -Og
#
# seed -1380314609  2118944604   123665352 -1771791602 -1795500643   366066848  1399353731   415927114  1601352977  1649338470   186358585 -1092293528
#
#      Author: C. J. Pickard (cjp20@cam.ac.uk)
#                Space group: C2
#

%BLOCK LATTICE_ABC
      7.06189      8.44929      8.44929
     98.10377    113.07821    113.07821
%ENDBLOCK LATTICE_ABC

%BLOCK POSITIONS_FRAC
  Li  -0.8433540  -0.4481839  -0.1244784 SPIN=   0.00000
  Li   0.8433540   0.1244784   0.4481839 SPIN=   0.00000
  Li  -0.5466876  -0.2549944  -0.4326829 SPIN=   0.00000
  Li   0.5466876   0.4326829   0.2549944 SPIN=   0.00000
  Fe   0.7822311   0.2538238   0.1231134 SPIN=   4.13846
  Fe  -0.7822311  -0.1231134  -0.2538238 SPIN=   4.13846
  Fe   0.2504830   0.1405442   0.3572385 SPIN=   3.86154
  Fe  -0.2504830  -0.3572385  -0.1405442 SPIN=   3.86154
   O  -0.0108533  -0.4706544   0.2304493 SPIN=   0.00000
   O   0.3333454  -0.4291696   0.1917732 SPIN=   0.00000
   O   0.3410414  -0.1625577   0.3646378 SPIN=   0.00000
   O   0.0805765  -0.3056004   0.0278700 SPIN=   0.00000
   S   0.1860275  -0.3419955   0.2036826 SPIN=   0.00000
   O   0.0108533  -0.2304493   0.4706544 SPIN=   0.00000
   O  -0.3333454  -0.1917732   0.4291696 SPIN=   0.00000
   O  -0.3410414  -0.3646378   0.1625577 SPIN=   0.00000
   O  -0.0805765  -0.0278700   0.3056004 SPIN=   0.00000
   S  -0.1860275  -0.2036826   0.3419955 SPIN=   0.00000
   O  -0.1581073   0.2953672  -0.1166721 SPIN=   0.00000
   O  -0.3205024   0.2179837  -0.4523168 SPIN=   0.00000
   O  -0.5720719   0.0521710  -0.3287269 SPIN=   0.00000
   O  -0.2431125  -0.0005235  -0.3067152 SPIN=   0.00000
   S  -0.3234485   0.1412496  -0.3011078 SPIN=   0.00000
   O   0.1581073   0.1166721  -0.2953672 SPIN=   0.00000
   O   0.3205024   0.4523168  -0.2179837 SPIN=   0.00000
   O   0.5720719   0.3287269  -0.0521710 SPIN=   0.00000
   O   0.2431125   0.3067152   0.0005235 SPIN=   0.00000
   S   0.3234485   0.3011078  -0.1412496 SPIN=   0.00000
   F   1.1332383   0.3353985   0.4217581 SPIN=   0.00000
   F  -1.1332383  -0.4217581  -0.3353985 SPIN=   0.00000
   F  -0.4083053  -0.1886252  -0.0977627 SPIN=   0.00000
   F   0.4083053   0.0977627   0.1886252 SPIN=   0.00000
%ENDBLOCK POSITIONS_FRAC

# Note: total spin =  16.00

KPOINTS_MP_SPACING 0.07

%BLOCK SPECIES_POT
QC5
%ENDBLOCK SPECIES_POT

SNAP_TO_SYMMETRY
SYMMETRY_GENERATE

