#              Generated by Buildcell
#
# at 10:09:55 (GMT+1.0) 4th August 2020
# in /lustre/scratch/uccabz1/launch_tmp
# on node-c12j-017
# by uccabz1
#
# compiler GCC version 4.9.2
# options -cpp -iprefix /lustre/shared/ucl/apps/gcc/4.9.2/bin/../lib/gcc/x86_64-unknown-linux-gnu/4.9.2/ -mtune=corei7 -march=x86-64 -g -Og
#
# seed -1377135917    22206083  -698906405  1775601053  1805718024  -752885165 -1728445660  -206761716   617056875   117273370  1720388160 -1064561865
#
#      Author: C. J. Pickard (cjp20@cam.ac.uk)
#                Space group: P2
#

%BLOCK LATTICE_ABC
      7.52512      7.55873      7.79648
     90.00000    115.57979     90.00000
%ENDBLOCK LATTICE_ABC

%BLOCK POSITIONS_FRAC
  Li  -0.2463306   0.2938415   0.0338261 SPIN=   0.00000
  Li   0.2463306   0.2938415  -0.0338261 SPIN=   0.00000
  Li  -0.2455886  -0.3697202  -0.4638070 SPIN=   0.00000
  Li   0.2455886  -0.3697202   0.4638070 SPIN=   0.00000
  Fe  -0.1721681  -0.3575960   0.2047865 SPIN=   4.73939
  Fe   0.1721681  -0.3575960  -0.2047865 SPIN=   4.73939
  Fe   0.2406032  -0.0958509   0.2053305 SPIN=   3.26061
  Fe  -0.2406032  -0.0958509  -0.2053305 SPIN=   3.26061
   O  -0.0974282   0.3905213  -0.4184395 SPIN=   0.00000
   O  -0.0086969   0.1785525  -0.1521907 SPIN=   0.00000
   O  -0.3592579   0.2433835  -0.3588653 SPIN=   0.00000
   O  -0.1484386   0.4708432  -0.1351840 SPIN=   0.00000
   S  -0.1534554   0.3208251  -0.2661699 SPIN=   0.00000
   O   0.0974282   0.3905213   0.4184395 SPIN=   0.00000
   O   0.0086969   0.1785525   0.1521907 SPIN=   0.00000
   O   0.3592579   0.2433835   0.3588653 SPIN=   0.00000
   O   0.1484386   0.4708432   0.1351840 SPIN=   0.00000
   S   0.1534554   0.3208251   0.2661699 SPIN=   0.00000
   O   0.4970887   0.2073223  -0.1508139 SPIN=   0.00000
   O   0.3245568  -0.0669547  -0.1361486 SPIN=   0.00000
   O   0.3826746  -0.0042310  -0.4193482 SPIN=   0.00000
   O   0.1405133   0.1734209  -0.3570068 SPIN=   0.00000
   S   0.3362084   0.0773894  -0.2658294 SPIN=   0.00000
   O  -0.4970887   0.2073223   0.1508139 SPIN=   0.00000
   O  -0.3245568  -0.0669547   0.1361486 SPIN=   0.00000
   O  -0.3826746  -0.0042310   0.4193482 SPIN=   0.00000
   O  -0.1405133   0.1734209   0.3570068 SPIN=   0.00000
   S  -0.3362084   0.0773894   0.2658294 SPIN=   0.00000
   F  -0.0569706  -0.2084314  -0.2796429 SPIN=   0.00000
   F   0.0569706  -0.2084314   0.2796429 SPIN=   0.00000
   F   0.4203515  -0.4387673  -0.2686989 SPIN=   0.00000
   F  -0.4203515  -0.4387673   0.2686989 SPIN=   0.00000
%ENDBLOCK POSITIONS_FRAC

# Note: total spin =  16.00

KPOINTS_MP_SPACING 0.07

%BLOCK SPECIES_POT
QC5
%ENDBLOCK SPECIES_POT

SNAP_TO_SYMMETRY
SYMMETRY_GENERATE

