#              Generated by Buildcell
#
# at 23:21:40 (GMT+1.0) 17th August 2020
# in /lustre/scratch/uccabz1/launch_tmp
# on node-c12f-013
# by uccabz1
#
# compiler GCC version 4.9.2
# options -cpp -iprefix /lustre/shared/ucl/apps/gcc/4.9.2/bin/../lib/gcc/x86_64-unknown-linux-gnu/4.9.2/ -mtune=corei7 -march=x86-64 -g -Og
#
# seed -2121217045  1772024852  -831482211   -25321995  1647054072   148734599  -728516677  1452844710  1768313840  -938621701  2137903181  1658778738
#
#      Author: C. J. Pickard (cjp20@cam.ac.uk)
#                Space group: P-1
#

%BLOCK LATTICE_ABC
      7.24171      7.29134      7.93934
     77.83784     79.92710     80.61410
%ENDBLOCK LATTICE_ABC

%BLOCK POSITIONS_FRAC
  Li  -0.1789965   0.3898781  -0.2804736 SPIN=   0.00000
  Li   0.1789965  -0.3898781   0.2804736 SPIN=   0.00000
  Li  -0.5000000  -0.0000000  -0.5000000 SPIN=   0.00000
  Li  -0.0000000   0.0000000  -0.5000000 SPIN=   0.00000
  Fe   0.5000000   0.5000000   0.0000000 SPIN=   6.18562
  Fe  -0.0000000  -0.5000000  -0.0000000 SPIN=   2.25745
  Fe   0.5000000   0.5000000  -0.5000000 SPIN=   1.89938
  Fe  -0.5000000  -0.0000000   0.0000000 SPIN=   5.65756
   O  -0.0576080  -0.1453917   0.0109455 SPIN=   0.00000
   O  -0.2065849  -0.3237052   0.2883607 SPIN=   0.00000
   O  -0.2771719   0.0253626   0.2196195 SPIN=   0.00000
   O   0.0391396  -0.1247554   0.2896063 SPIN=   0.00000
   S  -0.1255563  -0.1421224   0.2021330 SPIN=   0.00000
   O   0.0576080   0.1453917  -0.0109455 SPIN=   0.00000
   O   0.2065849   0.3237052  -0.2883607 SPIN=   0.00000
   O   0.2771719  -0.0253626  -0.2196195 SPIN=   0.00000
   O  -0.0391396   0.1247554  -0.2896063 SPIN=   0.00000
   S   0.1255563   0.1421224  -0.2021330 SPIN=   0.00000
   O  -0.0449458   0.6516094  -0.2815934 SPIN=   0.00000
   O  -0.2764890   0.9145727  -0.1902985 SPIN=   0.00000
   O  -0.3881439   0.6372431  -0.2551266 SPIN=   0.00000
   O  -0.2335535   0.8639866  -0.4940870 SPIN=   0.00000
   S  -0.2357830   0.7668529  -0.3052764 SPIN=   0.00000
   O   0.0449458  -0.6516094   0.2815934 SPIN=   0.00000
   O   0.2764890  -0.9145727   0.1902985 SPIN=   0.00000
   O   0.3881439  -0.6372431   0.2551266 SPIN=   0.00000
   O   0.2335535  -0.8639866   0.4940870 SPIN=   0.00000
   S   0.2357830  -0.7668529   0.3052764 SPIN=   0.00000
   F   0.3866171  -0.2638241   0.3150298 SPIN=   0.00000
   F  -0.3866171   0.2638241  -0.3150298 SPIN=   0.00000
   F  -0.2556049  -0.6165934   0.1294850 SPIN=   0.00000
   F   0.2556049   0.6165934  -0.1294850 SPIN=   0.00000
%ENDBLOCK POSITIONS_FRAC

# Note: total spin =  16.00

KPOINTS_MP_SPACING 0.07

%BLOCK SPECIES_POT
QC5
%ENDBLOCK SPECIES_POT

SNAP_TO_SYMMETRY
SYMMETRY_GENERATE

