#              Generated by Buildcell
#
# at 05:10:44 (GMT+1.0) 18th August 2020
# in /lustre/scratch/uccabz1/launch_tmp
# on node-c12l-008
# by uccabz1
#
# compiler GCC version 4.9.2
# options -cpp -iprefix /lustre/shared/ucl/apps/gcc/4.9.2/bin/../lib/gcc/x86_64-unknown-linux-gnu/4.9.2/ -mtune=corei7 -march=x86-64 -g -Og
#
# seed  1769205106 -1931501554  1821450260  -512446165  -996024971  2039813532  -639319357 -1429117257  1289595070   944791913   372566154 -1778411366
#
#      Author: C. J. Pickard (cjp20@cam.ac.uk)
#                Space group: I-4
#

%BLOCK LATTICE_ABC
      8.13419      8.13419      8.13419
     96.96293    116.06474    116.06474
%ENDBLOCK LATTICE_ABC

%BLOCK POSITIONS_FRAC
  Li   0.3808413   0.4373838  -0.3266591 SPIN=   0.00000
  Li  -0.3808413   0.2924996   0.0565425 SPIN=   0.00000
  Li   0.2359571  -0.0565425  -0.4373838 SPIN=   0.00000
  Li  -0.2359571   0.3266591  -0.2924996 SPIN=   0.00000
  Fe  -0.3066987  -0.0343863  -0.0360200 SPIN=   4.00000
  Fe   0.3066987   0.2706787   0.2723124 SPIN=   4.00000
  Fe  -0.0016337  -0.2723124   0.0343863 SPIN=   4.00000
  Fe   0.0016337   0.0360200  -0.2706787 SPIN=   4.00000
   O   0.3970884  -0.2620869   0.6393805 SPIN=   0.00000
   O   0.3060667  -0.1688615   0.3480821 SPIN=   0.00000
   O   0.0760382  -0.5154135   0.3054273 SPIN=   0.00000
   O   0.4522774  -0.3817419   0.3854954 SPIN=   0.00000
   S   0.3078677  -0.3320260   0.4195963 SPIN=   0.00000
   O  -0.3970884   0.2422921   0.3408246 SPIN=   0.00000
   O  -0.3060667   0.0420155   0.5250718 SPIN=   0.00000
   O  -0.0760382   0.2293892   0.4085483 SPIN=   0.00000
   O  -0.4522774  -0.0667820   0.1659807 SPIN=   0.00000
   S  -0.3078677   0.1117287   0.3601064 SPIN=   0.00000
   O  -0.0985326  -0.3408246   0.2620869 SPIN=   0.00000
   O  -0.4830564  -0.5250718   0.1688615 SPIN=   0.00000
   O  -0.1791591  -0.4085483   0.5154135 SPIN=   0.00000
   O  -0.2327627  -0.1659807   0.3817419 SPIN=   0.00000
   S  -0.2483777  -0.3601064   0.3320260 SPIN=   0.00000
   O   0.0985326  -0.6393805  -0.2422921 SPIN=   0.00000
   O   0.4830564  -0.3480821  -0.0420155 SPIN=   0.00000
   O   0.1791591  -0.3054273  -0.2293892 SPIN=   0.00000
   O   0.2327627  -0.3854954   0.0667820 SPIN=   0.00000
   S   0.2483777  -0.4195963  -0.1117287 SPIN=   0.00000
   F  -0.2852736  -0.3699964  -0.1886909 SPIN=   0.00000
   F   0.2852736   0.0965827  -0.0847228 SPIN=   0.00000
   F   0.1813055   0.0847228   0.3699964 SPIN=   0.00000
   F  -0.1813055   0.1886909  -0.0965827 SPIN=   0.00000
%ENDBLOCK POSITIONS_FRAC

# Note: total spin =  16.00

KPOINTS_MP_SPACING 0.07

%BLOCK SPECIES_POT
QC5
%ENDBLOCK SPECIES_POT

SNAP_TO_SYMMETRY
SYMMETRY_GENERATE

