#              Generated by Buildcell
#
# at 08:56:12 (GMT+1.0) 4th August 2020
# in /lustre/scratch/uccabz1/launch_tmp
# on node-c12g-023
# by uccabz1
#
# compiler GCC version 4.9.2
# options -cpp -iprefix /lustre/shared/ucl/apps/gcc/4.9.2/bin/../lib/gcc/x86_64-unknown-linux-gnu/4.9.2/ -mtune=corei7 -march=x86-64 -g -Og
#
# seed   509872903  1277376004  2105160330  1790217340   380325753 -1354534470   695908317  -479454867 -1080033132  1673183516  1179540731    79681643
#
#      Author: C. J. Pickard (cjp20@cam.ac.uk)
#                Space group: P21
#

%BLOCK LATTICE_ABC
      5.61210      8.41978      8.55360
     90.00000     98.24721     90.00000
%ENDBLOCK LATTICE_ABC

%BLOCK POSITIONS_FRAC
  Li   0.4978278   0.3440944   0.4556841 SPIN=   0.00000
  Li  -0.4978278  -0.1559056  -0.4556841 SPIN=   0.00000
  Li  -0.2649470  -0.1303408   0.0973269 SPIN=   0.00000
  Li   0.2649470   0.3696592  -0.0973269 SPIN=   0.00000
  Fe  -0.3067721  -0.4437019  -0.2750646 SPIN=   4.26858
  Fe   0.3067721   0.0562981   0.2750646 SPIN=   4.26858
  Fe   0.2048861  -0.2966934   0.0122488 SPIN=   3.73142
  Fe  -0.2048861   0.2033066  -0.0122488 SPIN=   3.73142
   O   0.3954988   0.0298003  -0.3423415 SPIN=   0.00000
   O   0.4040860  -0.1330200  -0.1007066 SPIN=   0.00000
   O   0.0461318   0.0306092  -0.1956303 SPIN=   0.00000
   O   0.4273137   0.1599603  -0.0807479 SPIN=   0.00000
   S   0.3182576   0.0218375  -0.1798566 SPIN=   0.00000
   O  -0.3954988  -0.4701997   0.3423415 SPIN=   0.00000
   O  -0.4040860  -0.6330200   0.1007066 SPIN=   0.00000
   O  -0.0461318  -0.4693908   0.1956303 SPIN=   0.00000
   O  -0.4273137  -0.3400397   0.0807479 SPIN=   0.00000
   S  -0.3182576  -0.4781625   0.1798566 SPIN=   0.00000
   O  -0.0980806  -0.1027706   0.5655707 SPIN=   0.00000
   O  -0.3367669   0.1450770   0.5299055 SPIN=   0.00000
   O  -0.2551961  -0.0082901   0.2965029 SPIN=   0.00000
   O   0.0751447   0.1373385   0.4585783 SPIN=   0.00000
   S  -0.1537247   0.0428387   0.4626394 SPIN=   0.00000
   O   0.0980806  -0.6027706  -0.5655707 SPIN=   0.00000
   O   0.3367669  -0.3549230  -0.5299055 SPIN=   0.00000
   O   0.2551961  -0.5082901  -0.2965029 SPIN=   0.00000
   O  -0.0751447  -0.3626615  -0.4585783 SPIN=   0.00000
   S   0.1537247  -0.4571613  -0.4626394 SPIN=   0.00000
   F   0.1905632  -0.1846285   0.1953547 SPIN=   0.00000
   F  -0.1905632   0.3153715  -0.1953547 SPIN=   0.00000
   F  -0.1783356  -0.2646657  -0.1701923 SPIN=   0.00000
   F   0.1783356   0.2353343   0.1701923 SPIN=   0.00000
%ENDBLOCK POSITIONS_FRAC

# Note: total spin =  16.00

KPOINTS_MP_SPACING 0.07

%BLOCK SPECIES_POT
QC5
%ENDBLOCK SPECIES_POT

SNAP_TO_SYMMETRY
SYMMETRY_GENERATE

