#              Generated by Buildcell
#
# at 06:13:32 (GMT+1.0) 4th August 2020
# in /lustre/scratch/uccabz1/launch_tmp
# on node-c12j-010
# by uccabz1
#
# compiler GCC version 4.9.2
# options -cpp -iprefix /lustre/shared/ucl/apps/gcc/4.9.2/bin/../lib/gcc/x86_64-unknown-linux-gnu/4.9.2/ -mtune=corei7 -march=x86-64 -g -Og
#
# seed  -323029967  1256813145 -1577190230 -1267976823 -1161517005    93703836 -1042331848  2006548047 -1867402284 -1600997677  1940779827  1260740956
#
#      Author: C. J. Pickard (cjp20@cam.ac.uk)
#                Space group: C2
#

%BLOCK LATTICE_ABC
      7.98441      8.02380      8.31361
    118.85338    116.78686     90.00000
%ENDBLOCK LATTICE_ABC

%BLOCK POSITIONS_FRAC
  Li  -0.2655264  -0.1067525  -0.2373257 SPIN=   0.00000
  Li   0.2655264   0.1305732   0.2373257 SPIN=   0.00000
  Li   0.0038037  -0.2254041   0.3432989 SPIN=   0.00000
  Li  -0.0038037   0.4312971  -0.3432989 SPIN=   0.00000
  Fe   0.2355743  -0.0444521  -0.1863265 SPIN=   5.05992
  Fe  -0.2355743   0.1418744   0.1863265 SPIN=   5.05992
  Fe  -0.2966898   0.1977380  -0.3460768 SPIN=   2.94008
  Fe   0.2966898  -0.4561852   0.3460768 SPIN=   2.94008
   O   0.4038364   0.0854067  -0.4492735 SPIN=   0.00000
   O   0.4014748   0.4053869  -0.1781934 SPIN=   0.00000
   O   0.1440410   0.0998874  -0.3617341 SPIN=   0.00000
   O   0.1501295   0.2472146  -0.5614857 SPIN=   0.00000
   S   0.2748704   0.2094739  -0.3876717 SPIN=   0.00000
   O  -0.4038364  -0.4653198   0.4492735 SPIN=   0.00000
   O  -0.4014748  -0.4164197   0.1781934 SPIN=   0.00000
   O  -0.1440410  -0.5383785   0.3617341 SPIN=   0.00000
   O  -0.1501295  -0.1912996   0.5614857 SPIN=   0.00000
   S  -0.2748704  -0.4028544   0.3876717 SPIN=   0.00000
   O  -0.1786687  -0.1390560   0.1384611 SPIN=   0.00000
   O  -0.1978761  -0.3618242  -0.2072974 SPIN=   0.00000
   O  -0.5003133  -0.3430245  -0.1921788 SPIN=   0.00000
   O  -0.2743967  -0.5024523  -0.0329277 SPIN=   0.00000
   S  -0.2878137  -0.3365893  -0.0734857 SPIN=   0.00000
   O   0.1786687  -0.2775172  -0.1384611 SPIN=   0.00000
   O   0.1978761  -0.1545268   0.2072974 SPIN=   0.00000
   O   0.5003133  -0.1508458   0.1921788 SPIN=   0.00000
   O   0.2743967  -0.4695247   0.0329277 SPIN=   0.00000
   S   0.2878137  -0.2631036   0.0734857 SPIN=   0.00000
   F   0.2738828   0.1997122   0.0598242 SPIN=   0.00000
   F  -0.2738828   0.1398880  -0.0598242 SPIN=   0.00000
   F   0.2101273  -0.2700509  -0.4771411 SPIN=   0.00000
   F  -0.2101273   0.2070902   0.4771411 SPIN=   0.00000
%ENDBLOCK POSITIONS_FRAC

# Note: total spin =  16.00

KPOINTS_MP_SPACING 0.07

%BLOCK SPECIES_POT
QC5
%ENDBLOCK SPECIES_POT

SNAP_TO_SYMMETRY
SYMMETRY_GENERATE

