#              Generated by Buildcell
#
# at 10:41:12 (GMT+1.0) 18th August 2020
# in /lustre/scratch/uccabz1/launch_tmp
# on node-c12c-010
# by uccabz1
#
# compiler GCC version 4.9.2
# options -cpp -iprefix /lustre/shared/ucl/apps/gcc/4.9.2/bin/../lib/gcc/x86_64-unknown-linux-gnu/4.9.2/ -mtune=corei7 -march=x86-64 -g -Og
#
# seed  -464335984   675048934   648799110 -1955862270 -1951486131  -878874766 -1223281276  -903778762  -495849922  -289379098  1137399768  1453680026
#
#      Author: C. J. Pickard (cjp20@cam.ac.uk)
#                Space group: Cm
#

%BLOCK LATTICE_ABC
      4.31167      9.45143     10.89424
    115.70775     90.40482     90.00000
%ENDBLOCK LATTICE_ABC

%BLOCK POSITIONS_FRAC
  Li  -0.4121645   0.0158493   0.4153946 SPIN=   0.00000
  Li  -0.4121645   0.3995453   0.4153946 SPIN=   0.00000
  Li  -0.1046663  -0.1735542   0.0345511 SPIN=   0.00000
  Li  -0.1046663   0.2081053   0.0345511 SPIN=   0.00000
  Fe  -0.4264898  -0.4035301  -0.2030160 SPIN=   4.31022
  Fe  -0.4264898   0.2005141  -0.2030160 SPIN=   4.31022
  Fe   0.0845569   0.1656699   0.3313397 SPIN=   4.75648
  Fe  -0.4062286  -0.2812383   0.4375234 SPIN=   2.62308
   O   0.5549426  -0.2457858   0.2658490 SPIN=   0.00000
   O   0.0299422  -0.2320325   0.1784226 SPIN=   0.00000
   O   0.4892103  -0.2613957   0.0344378 SPIN=   0.00000
   O   0.3966847  -0.0103309   0.2368372 SPIN=   0.00000
   S   0.3676949  -0.1873862   0.1788866 SPIN=   0.00000
   O   0.5549426   0.5116348   0.2658490 SPIN=   0.00000
   O   0.0299422   0.4104551   0.1784226 SPIN=   0.00000
   O   0.4892103   0.2958335   0.0344378 SPIN=   0.00000
   O   0.3966847   0.2471681   0.2368372 SPIN=   0.00000
   S   0.3676949   0.3662729   0.1788866 SPIN=   0.00000
   O   0.0339978  -0.0164408  -0.5877277 SPIN=   0.00000
   O  -0.0814749   0.1439323  -0.3439464 SPIN=   0.00000
   O   0.4398197   0.0280961  -0.4128679 SPIN=   0.00000
   S   0.0956377   0.0031091  -0.4440854 SPIN=   0.00000
   O   0.0339978  -0.5712869  -0.5877277 SPIN=   0.00000
   O  -0.0814749  -0.4878787  -0.3439464 SPIN=   0.00000
   O   0.4398197  -0.4409640  -0.4128679 SPIN=   0.00000
   S   0.0956377  -0.4471945  -0.4440854 SPIN=   0.00000
   O   0.3059976   0.3629103  -0.2741794 SPIN=   0.00000
   O   0.3200113  -0.4552922   0.0894156 SPIN=   0.00000
   F  -0.3828481  -0.1298982  -0.2597963 SPIN=   0.00000
   F  -0.1859688   0.4534778  -0.0930444 SPIN=   0.00000
   F  -0.1104707   0.0506051   0.1012103 SPIN=   0.00000
   F  -0.3954445   0.2379526   0.4759052 SPIN=   0.00000
%ENDBLOCK POSITIONS_FRAC

# Note: total spin =  16.00

KPOINTS_MP_SPACING 0.07

%BLOCK SPECIES_POT
QC5
%ENDBLOCK SPECIES_POT

SNAP_TO_SYMMETRY
SYMMETRY_GENERATE

