#              Generated by Buildcell
#
# at 12:52:43 (GMT+1.0) 18th August 2020
# in /lustre/scratch/uccabz1/launch_tmp
# on node-c12c-006
# by uccabz1
#
# compiler GCC version 4.9.2
# options -cpp -iprefix /lustre/shared/ucl/apps/gcc/4.9.2/bin/../lib/gcc/x86_64-unknown-linux-gnu/4.9.2/ -mtune=corei7 -march=x86-64 -g -Og
#
# seed  -300262523 -1928376905 -1264782518   524587517    -8732152   641919353   736067102  1269782781  -925006924  1052564269  -658696643   247760982
#
#      Author: C. J. Pickard (cjp20@cam.ac.uk)
#                Space group: C2
#

%BLOCK LATTICE_ABC
      3.97586     10.07793     10.07793
     82.50354     88.18541     88.18541
%ENDBLOCK LATTICE_ABC

%BLOCK POSITIONS_FRAC
  Li   0.2344013  -0.4561559  -0.3495631 SPIN=   0.00000
  Li  -0.2344013   0.3495631   0.4561559 SPIN=   0.00000
  Li  -0.1921611  -0.3902339   0.1829161 SPIN=   0.00000
  Li   0.1921611  -0.1829161   0.3902339 SPIN=   0.00000
  Fe  -0.0600979   0.0978087   0.3458146 SPIN=   5.37753
  Fe   0.0600979  -0.3458146  -0.0978087 SPIN=   5.37753
  Fe  -0.5000000   0.2676381  -0.2676381 SPIN=   3.99492
  Fe   0.5000000  -0.1047429   0.1047429 SPIN=   1.25002
   O  -0.1266290  -0.1522250  -0.3852411 SPIN=   0.00000
   O  -0.1162044  -0.3188224  -0.5454190 SPIN=   0.00000
   O  -0.6518832  -0.2609471  -0.4319482 SPIN=   0.00000
   O  -0.2056365  -0.3918304  -0.3030840 SPIN=   0.00000
   S  -0.2750883  -0.2809562  -0.4164231 SPIN=   0.00000
   O   0.1266290   0.3852411   0.1522250 SPIN=   0.00000
   O   0.1162044   0.5454190   0.3188224 SPIN=   0.00000
   O   0.6518832   0.4319482   0.2609471 SPIN=   0.00000
   O   0.2056365   0.3030840   0.3918304 SPIN=   0.00000
   S   0.2750883   0.4164231   0.2809562 SPIN=   0.00000
   O  -0.3956853   0.1945675   0.1697439 SPIN=   0.00000
   O   0.1521730   0.1619637   0.0532171 SPIN=   0.00000
   O  -0.2334830   0.3492418  -0.0317766 SPIN=   0.00000
   S  -0.2135312   0.2054262   0.0345333 SPIN=   0.00000
   O   0.3956853  -0.1697439  -0.1945675 SPIN=   0.00000
   O  -0.1521730  -0.0532171  -0.1619637 SPIN=   0.00000
   O   0.2334830   0.0317766  -0.3492418 SPIN=   0.00000
   S   0.2135312  -0.0345333  -0.2054262 SPIN=   0.00000
   O  -0.5000000  -0.2967915   0.2967915 SPIN=   0.00000
   O  -0.0000000  -0.1890101   0.1890101 SPIN=   0.00000
   F   0.2858697   0.4402090  -0.1880053 SPIN=   0.00000
   F  -0.2858697   0.1880053  -0.4402090 SPIN=   0.00000
   F  -0.3928321  -0.2959934   0.0370652 SPIN=   0.00000
   F   0.3928321  -0.0370652   0.2959934 SPIN=   0.00000
%ENDBLOCK POSITIONS_FRAC

# Note: total spin =  16.00

KPOINTS_MP_SPACING 0.07

%BLOCK SPECIES_POT
QC5
%ENDBLOCK SPECIES_POT

SNAP_TO_SYMMETRY
SYMMETRY_GENERATE

