#              Generated by Buildcell
#
# at 07:34:27 (GMT+1.0) 4th August 2020
# in /lustre/scratch/uccabz1/launch_tmp
# on node-c12g-008
# by uccabz1
#
# compiler GCC version 4.9.2
# options -cpp -iprefix /lustre/shared/ucl/apps/gcc/4.9.2/bin/../lib/gcc/x86_64-unknown-linux-gnu/4.9.2/ -mtune=corei7 -march=x86-64 -g -Og
#
# seed  1831402538 -1146689972  -839587130  -582024775 -1221888064  -846161631   560669220  1816300626  2013582394 -1984026929 -1931635845 -1329292010
#
#      Author: C. J. Pickard (cjp20@cam.ac.uk)
#                Space group: Pc
#

%BLOCK LATTICE_ABC
      4.22164      7.80777     12.16796
     94.19691     90.00000     90.00000
%ENDBLOCK LATTICE_ABC

%BLOCK POSITIONS_FRAC
  Li   0.3976026   0.1953155  -0.4302540 SPIN=   0.00000
  Li  -0.3976026  -0.3046845   0.0697460 SPIN=   0.00000
  Li   0.2499795  -0.2615833  -0.4753854 SPIN=   0.00000
  Li  -0.2499795   0.2384167   0.0246146 SPIN=   0.00000
  Fe  -0.3447997  -0.2899291   0.3185810 SPIN=   2.60895
  Fe   0.3447997   0.2100709  -0.1814190 SPIN=   2.60895
  Fe  -0.1450912   0.4817414  -0.3599803 SPIN=   5.39105
  Fe   0.1450912  -0.0182586   0.1400197 SPIN=   5.39105
   O   0.0104267   0.2614328   0.4826880 SPIN=   0.00000
   O   0.0344130   0.0815990   0.3067468 SPIN=   0.00000
   O  -0.4832857   0.1473575   0.3954879 SPIN=   0.00000
   O  -0.1086223  -0.0492907   0.4791771 SPIN=   0.00000
   S  -0.1367671   0.1102747   0.4160250 SPIN=   0.00000
   O  -0.0104267  -0.2385672  -0.0173120 SPIN=   0.00000
   O  -0.0344130  -0.4184010  -0.1932532 SPIN=   0.00000
   O   0.4832857  -0.3526425  -0.1045121 SPIN=   0.00000
   O   0.1086223  -0.5492907  -0.0208229 SPIN=   0.00000
   S   0.1367671  -0.3897253  -0.0839750 SPIN=   0.00000
   O   0.1473017  -0.1843842  -0.2857217 SPIN=   0.00000
   O  -0.3227712  -0.0565546  -0.1898402 SPIN=   0.00000
   O  -0.3703931  -0.1849827  -0.3811840 SPIN=   0.00000
   O  -0.0781094   0.0876997  -0.3431944 SPIN=   0.00000
   S  -0.1559930  -0.0845555  -0.2999851 SPIN=   0.00000
   O  -0.1473017   0.3156158   0.2142783 SPIN=   0.00000
   O   0.3227712   0.4434454   0.3101598 SPIN=   0.00000
   O   0.3703931   0.3150173   0.1188160 SPIN=   0.00000
   O   0.0781094   0.5876997   0.1568056 SPIN=   0.00000
   S   0.1559930   0.4154445   0.2000149 SPIN=   0.00000
   F   0.1253865   0.1140043  -0.0423643 SPIN=   0.00000
   F  -0.1253865  -0.3859957   0.4576357 SPIN=   0.00000
   F  -0.4658677   0.3449427  -0.2951330 SPIN=   0.00000
   F   0.4658677  -0.1550573   0.2048670 SPIN=   0.00000
%ENDBLOCK POSITIONS_FRAC

# Note: total spin =  16.00

KPOINTS_MP_SPACING 0.07

%BLOCK SPECIES_POT
QC5
%ENDBLOCK SPECIES_POT

SNAP_TO_SYMMETRY
SYMMETRY_GENERATE

