#              Generated by Buildcell
#
# at 07:42:46 (GMT+1.0) 18th August 2020
# in /scratch/scratch/uccabz1/launch_tmp
# on node-k10i-015
# by uccabz1
#
# compiler GCC version 4.9.2
# options -cpp -iprefix /scratch/UCL/applications/gcc/4.9.2/bin/../lib/gcc/x86_64-unknown-linux-gnu/4.9.2/ -mtune=corei7 -march=x86-64 -g -O2
#
# seed  1798018922 -1073432710  1748532395 -1826468386  -159523110  -590059306  -381290687   720604583  -890517461  -587275699 -1837212324  1433992168
#
#      Author: C. J. Pickard (cjp20@cam.ac.uk)
#                Space group: C2
#

%BLOCK LATTICE_ABC
      7.47460      7.92733      7.92733
     69.23628     70.12869     70.12869
%ENDBLOCK LATTICE_ABC

%BLOCK POSITIONS_FRAC
  Li  -0.2775752   0.4886779  -0.3925747 SPIN=   0.00000
  Li   0.2775752   0.3925747  -0.4886779 SPIN=   0.00000
  Li   0.2931909  -0.1033751  -0.3887261 SPIN=   0.00000
  Li  -0.2931909   0.3887261   0.1033751 SPIN=   0.00000
  Fe  -0.2489955   0.0488202  -0.0348993 SPIN=   3.51194
  Fe   0.2489955   0.0348993  -0.0488202 SPIN=   3.51194
  Fe  -0.1750722   0.1565029   0.4578841 SPIN=   4.48806
  Fe   0.1750722  -0.4578841  -0.1565029 SPIN=   4.48806
   O   0.3819967  -0.3096821   0.4839656 SPIN=   0.00000
   O   0.2999195  -0.2364194   0.1843590 SPIN=   0.00000
   O   0.1039868  -0.0442746   0.4039280 SPIN=   0.00000
   O   0.0783574  -0.3675241   0.4802250 SPIN=   0.00000
   S   0.2160651  -0.2394751   0.3881194 SPIN=   0.00000
   O  -0.3819967  -0.4839656   0.3096821 SPIN=   0.00000
   O  -0.2999195  -0.1843590   0.2364194 SPIN=   0.00000
   O  -0.1039868  -0.4039280   0.0442746 SPIN=   0.00000
   O  -0.0783574  -0.4802250   0.3675241 SPIN=   0.00000
   S  -0.2160651  -0.3881194   0.2394751 SPIN=   0.00000
   O   0.3604273   0.1702138   0.4193009 SPIN=   0.00000
   O   0.4211171   0.1503100   0.0991354 SPIN=   0.00000
   O   0.3153585   0.4583559   0.1623301 SPIN=   0.00000
   O   0.0817171   0.2598465   0.2776105 SPIN=   0.00000
   S   0.2946550   0.2596815   0.2395942 SPIN=   0.00000
   O  -0.3604273  -0.4193009  -0.1702138 SPIN=   0.00000
   O  -0.4211171  -0.0991354  -0.1503100 SPIN=   0.00000
   O  -0.3153585  -0.1623301  -0.4583559 SPIN=   0.00000
   O  -0.0817171  -0.2776105  -0.2598465 SPIN=   0.00000
   S  -0.2946550  -0.2395942  -0.2596815 SPIN=   0.00000
   F   0.1857587  -0.2163314  -0.1117766 SPIN=   0.00000
   F  -0.1857587   0.1117766   0.2163314 SPIN=   0.00000
   F   0.2120343   0.3179737  -0.2051921 SPIN=   0.00000
   F  -0.2120343   0.2051921  -0.3179737 SPIN=   0.00000
%ENDBLOCK POSITIONS_FRAC

# Note: total spin =  16.00

KPOINTS_MP_SPACING 0.07

%BLOCK SPECIES_POT
QC5
%ENDBLOCK SPECIES_POT

SNAP_TO_SYMMETRY
SYMMETRY_GENERATE

