#              Generated by Buildcell
#
# at 07:41:13 (GMT+1.0) 18th August 2020
# in /lustre/scratch/uccabz1/launch_tmp
# on node-c12o-035
# by uccabz1
#
# compiler GCC version 4.9.2
# options -cpp -iprefix /lustre/shared/ucl/apps/gcc/4.9.2/bin/../lib/gcc/x86_64-unknown-linux-gnu/4.9.2/ -mtune=corei7 -march=x86-64 -g -Og
#
# seed  2034141186  2070970600  1829990971   -82524274 -1364403763  1085958521    55514395  -450939226 -1766249083   776501488  -471894049  -508966522
#
#      Author: C. J. Pickard (cjp20@cam.ac.uk)
#                Space group: Cc
#

%BLOCK LATTICE_ABC
      7.16485      7.70326      7.70326
     70.36897     87.77823     87.77823
%ENDBLOCK LATTICE_ABC

%BLOCK POSITIONS_FRAC
  Li  -0.3163286  -0.3940841  -0.4681515 SPIN=   0.00000
  Li   0.1836714  -0.4681515  -0.3940841 SPIN=   0.00000
  Li  -0.0428715   0.2621405   0.0646012 SPIN=   0.00000
  Li   0.4571285   0.0646012   0.2621405 SPIN=   0.00000
  Fe   0.0142550   0.0269499   0.4666726 SPIN=   1.89868
  Fe  -0.4857450   0.4666726   0.0269499 SPIN=   1.89868
  Fe   0.2884832   0.1420334  -0.1461383 SPIN=   6.10132
  Fe  -0.2115168  -0.1461383   0.1420334 SPIN=   6.10132
   O   0.1181825  -0.1449988   0.2490999 SPIN=   0.00000
   O   0.1695098  -0.2075816  -0.0441709 SPIN=   0.00000
   O   0.1867524  -0.4637327   0.2533153 SPIN=   0.00000
   O   0.4344261  -0.2324613   0.1604585 SPIN=   0.00000
   S   0.2272177  -0.2621936   0.1546757 SPIN=   0.00000
   O  -0.3818175   0.2490999  -0.1449988 SPIN=   0.00000
   O  -0.3304902  -0.0441709  -0.2075816 SPIN=   0.00000
   O  -0.3132476   0.2533153  -0.4637327 SPIN=   0.00000
   O  -0.0655739   0.1604585  -0.2324613 SPIN=   0.00000
   S  -0.2727823   0.1546757  -0.2621936 SPIN=   0.00000
   O  -0.1523231  -0.5403331  -0.2652993 SPIN=   0.00000
   O  -0.2512473  -0.3507667  -0.0728644 SPIN=   0.00000
   O  -0.0250788  -0.2296168  -0.3331463 SPIN=   0.00000
   O   0.0702894  -0.4841261  -0.0534419 SPIN=   0.00000
   S  -0.0895899  -0.4012107  -0.1811880 SPIN=   0.00000
   O   0.3476769  -0.2652993  -0.5403331 SPIN=   0.00000
   O   0.2487527  -0.0728644  -0.3507667 SPIN=   0.00000
   O   0.4749212  -0.3331463  -0.2296168 SPIN=   0.00000
   O   0.5702894  -0.0534419  -0.4841261 SPIN=   0.00000
   S   0.4104101  -0.1811880  -0.4012107 SPIN=   0.00000
   F  -0.2817640  -0.4369295   0.2931044 SPIN=   0.00000
   F   0.2182360   0.2931044  -0.4369295 SPIN=   0.00000
   F   0.3036292   0.2558244   0.0775601 SPIN=   0.00000
   F  -0.1963708   0.0775601   0.2558244 SPIN=   0.00000
%ENDBLOCK POSITIONS_FRAC

# Note: total spin =  16.00

KPOINTS_MP_SPACING 0.07

%BLOCK SPECIES_POT
QC5
%ENDBLOCK SPECIES_POT

SNAP_TO_SYMMETRY
SYMMETRY_GENERATE

