#              Generated by Buildcell
#
# at 10:12:30 (GMT+1.0) 18th August 2020
# in /scratch/scratch/uccabz1/launch_tmp
# on node-k10b-019
# by uccabz1
#
# compiler GCC version 4.9.2
# options -cpp -iprefix /scratch/UCL/applications/gcc/4.9.2/bin/../lib/gcc/x86_64-unknown-linux-gnu/4.9.2/ -mtune=corei7 -march=x86-64 -g -O2
#
# seed    32723345   678213532 -1823921520  -894178587  -361825878  1982632627  -607969356   515182562  -646546779    -2782781  1296995259   987583524
#
#      Author: C. J. Pickard (cjp20@cam.ac.uk)
#                Space group: Cc
#

%BLOCK LATTICE_ABC
      4.81442      4.81442     17.51652
     93.36567     93.36567     98.42705
%ENDBLOCK LATTICE_ABC

%BLOCK POSITIONS_FRAC
  Li  -0.0456103  -0.3944290  -0.2947435 SPIN=   0.00000
  Li  -0.3944290  -0.0456103   0.2052565 SPIN=   0.00000
  Li   0.3146378   0.0325014   0.4937099 SPIN=   0.00000
  Li   0.0325014   0.3146378  -0.0062901 SPIN=   0.00000
  Fe   0.1760352   0.3466739   0.1823032 SPIN=   3.89851
  Fe   0.3466739   0.1760352  -0.3176968 SPIN=   3.89851
  Fe  -0.2832593  -0.4992566   0.4114610 SPIN=   4.10149
  Fe  -0.4992566  -0.2832593  -0.0885390 SPIN=   4.10149
   O   0.0200581   0.2377378  -0.2422070 SPIN=   0.00000
   O  -0.4030669   0.3612413  -0.1826088 SPIN=   0.00000
   O   0.0706114   0.5341758  -0.1204441 SPIN=   0.00000
   O  -0.1252912   0.0287937  -0.1223315 SPIN=   0.00000
   S  -0.1094222   0.2904872  -0.1668978 SPIN=   0.00000
   O   0.2377378   0.0200581   0.2577930 SPIN=   0.00000
   O   0.3612413  -0.4030669   0.3173912 SPIN=   0.00000
   O   0.5341758   0.0706114   0.3795559 SPIN=   0.00000
   O   0.0287937  -0.1252912   0.3776685 SPIN=   0.00000
   S   0.2904872  -0.1094222   0.3331022 SPIN=   0.00000
   O  -0.1328931   0.1053638   0.0857631 SPIN=   0.00000
   O  -0.1084925  -0.2958386  -0.0073683 SPIN=   0.00000
   O  -0.3998021  -0.3633761   0.1037868 SPIN=   0.00000
   O   0.1197853  -0.2828843   0.1233850 SPIN=   0.00000
   S  -0.1303506  -0.2091838   0.0763917 SPIN=   0.00000
   O   0.1053638  -0.1328931  -0.4142369 SPIN=   0.00000
   O  -0.2958386  -0.1084925  -0.5073683 SPIN=   0.00000
   O  -0.3633761  -0.3998021  -0.3962132 SPIN=   0.00000
   O  -0.2828843   0.1197853  -0.3766150 SPIN=   0.00000
   S  -0.2091838  -0.1303506  -0.4236083 SPIN=   0.00000
   F   0.3533597  -0.2215316  -0.2652875 SPIN=   0.00000
   F  -0.2215316   0.3533597   0.2347125 SPIN=   0.00000
   F   0.4096111   0.2031790  -0.0184929 SPIN=   0.00000
   F   0.2031790   0.4096111   0.4815071 SPIN=   0.00000
%ENDBLOCK POSITIONS_FRAC

# Note: total spin =  16.00

KPOINTS_MP_SPACING 0.07

%BLOCK SPECIES_POT
QC5
%ENDBLOCK SPECIES_POT

SNAP_TO_SYMMETRY
SYMMETRY_GENERATE

