#              Generated by Buildcell
#
# at 16:22:36 (GMT+1.0) 18th August 2020
# in /lustre/scratch/uccabz1/launch_tmp
# on node-c12o-008
# by uccabz1
#
# compiler GCC version 4.9.2
# options -cpp -iprefix /lustre/shared/ucl/apps/gcc/4.9.2/bin/../lib/gcc/x86_64-unknown-linux-gnu/4.9.2/ -mtune=corei7 -march=x86-64 -g -Og
#
# seed   277560018  1728267052 -1111851011 -1934599615  -932682198 -1136971981   719800965  1671161173  -814559730  1411236334  -964690053  -754549623
#
#      Author: C. J. Pickard (cjp20@cam.ac.uk)
#                Space group: P-1
#

%BLOCK LATTICE_ABC
      4.11613      7.83142     12.60645
    100.12926     90.08276     90.74436
%ENDBLOCK LATTICE_ABC

%BLOCK POSITIONS_FRAC
  Li  -0.0315831   0.4079536  -0.1452449 SPIN=   0.00000
  Li   0.0315831  -0.4079536   0.1452449 SPIN=   0.00000
  Li  -0.4270249   0.2808935   0.2791366 SPIN=   0.00000
  Li   0.4270249  -0.2808935  -0.2791366 SPIN=   0.00000
  Fe  -0.2595698   0.3332667  -0.4557913 SPIN=   2.64647
  Fe   0.2595698  -0.3332667   0.4557913 SPIN=   2.64647
  Fe  -0.4599251  -0.1387919   0.1136845 SPIN=   5.35353
  Fe   0.4599251   0.1387919  -0.1136845 SPIN=   5.35353
   O   0.1137408   0.2248588  -0.3816725 SPIN=   0.00000
   O   0.1053599  -0.0103218  -0.2737334 SPIN=   0.00000
   O   0.6251015   0.0815961  -0.3461472 SPIN=   0.00000
   O   0.2124935  -0.0780848  -0.4696623 SPIN=   0.00000
   S   0.2641739   0.0545121  -0.3678038 SPIN=   0.00000
   O  -0.1137408  -0.2248588   0.3816725 SPIN=   0.00000
   O  -0.1053599   0.0103218   0.2737334 SPIN=   0.00000
   O  -0.6251015  -0.0815961   0.3461472 SPIN=   0.00000
   O  -0.2124935   0.0780848   0.4696623 SPIN=   0.00000
   S  -0.2641739  -0.0545121   0.3678038 SPIN=   0.00000
   O   0.1734907  -0.3467869  -0.0196928 SPIN=   0.00000
   O  -0.2058252  -0.1053128  -0.0235390 SPIN=   0.00000
   O  -0.1303179  -0.3280470  -0.1867234 SPIN=   0.00000
   O   0.3112309  -0.1165385  -0.1243267 SPIN=   0.00000
   S   0.0371446  -0.2241713  -0.0885705 SPIN=   0.00000
   O  -0.1734907   0.3467869   0.0196928 SPIN=   0.00000
   O   0.2058252   0.1053128   0.0235390 SPIN=   0.00000
   O   0.1303179   0.3280470   0.1867234 SPIN=   0.00000
   O  -0.3112309   0.1165385   0.1243267 SPIN=   0.00000
   S  -0.0371446   0.2241713   0.0885705 SPIN=   0.00000
   F  -0.2449683  -0.3119730  -0.4002857 SPIN=   0.00000
   F   0.2449683   0.3119730   0.4002857 SPIN=   0.00000
   F   0.4784501   0.3944171  -0.1596794 SPIN=   0.00000
   F  -0.4784501  -0.3944171   0.1596794 SPIN=   0.00000
%ENDBLOCK POSITIONS_FRAC

# Note: total spin =  16.00

KPOINTS_MP_SPACING 0.07

%BLOCK SPECIES_POT
QC5
%ENDBLOCK SPECIES_POT

SNAP_TO_SYMMETRY
SYMMETRY_GENERATE

