#              Generated by Buildcell
#
# at 06:29:14 (GMT+1.0) 4th August 2020
# in /lustre/scratch/uccabz1/launch_tmp
# on node-c12f-034
# by uccabz1
#
# compiler GCC version 4.9.2
# options -cpp -iprefix /lustre/shared/ucl/apps/gcc/4.9.2/bin/../lib/gcc/x86_64-unknown-linux-gnu/4.9.2/ -mtune=corei7 -march=x86-64 -g -Og
#
# seed  -529806026 -1264713846   407823828  -516102679 -1203304745  -498607905  -313853567 -1263475851  -786307618 -1590352495  1221080503 -1716019326
#
#      Author: C. J. Pickard (cjp20@cam.ac.uk)
#                Space group: Fdd2
#

%BLOCK LATTICE_ABC
      7.95461      7.95461      8.34727
    116.41436    116.41436     93.80509
%ENDBLOCK LATTICE_ABC

%BLOCK POSITIONS_FRAC
  Li   0.4939873   0.3175388   0.2194908 SPIN=   0.00000
  Li  -0.2744966  -0.0980480   0.2194908 SPIN=   0.00000
  Li   0.1519520   0.4755034  -0.2805092 SPIN=   0.00000
  Li  -0.4324612   0.2439873  -0.2805092 SPIN=   0.00000
  Fe   0.1986221  -0.0803688  -0.1276250 SPIN=   4.00000
  Fe  -0.3262472  -0.0472562  -0.1276250 SPIN=   4.00000
  Fe   0.2027438   0.4237528   0.3723750 SPIN=   4.00000
  Fe   0.1696312  -0.0513779   0.3723750 SPIN=   4.00000
   O   0.1588485  -0.3541367  -0.0041028 SPIN=   0.00000
   O   0.3103567  -0.3484392   0.3300788 SPIN=   0.00000
   O   0.5222962  -0.2797253   0.2066993 SPIN=   0.00000
   O   0.2934044  -0.6201395   0.0176174 SPIN=   0.00000
   S   0.3212265  -0.4006102   0.1375732 SPIN=   0.00000
   O  -0.1629513  -0.6499661  -0.0041028 SPIN=   0.00000
   O   0.0197221  -0.3214820   0.3300788 SPIN=   0.00000
   O  -0.3155969  -0.5135753   0.2066993 SPIN=   0.00000
   O  -0.2757870  -0.3622431   0.0176174 SPIN=   0.00000
   S  -0.1836533  -0.4618166   0.1375732 SPIN=   0.00000
   O  -0.3999661  -0.4129513  -0.5041028 SPIN=   0.00000
   O  -0.0714820  -0.2302779  -0.1699212 SPIN=   0.00000
   O  -0.2635753  -0.5655969  -0.2933007 SPIN=   0.00000
   O  -0.1122431  -0.5257870  -0.4823826 SPIN=   0.00000
   S  -0.2118166  -0.4336533  -0.3624268 SPIN=   0.00000
   O  -0.1041367  -0.0911515  -0.5041028 SPIN=   0.00000
   O  -0.0984392   0.0603567  -0.1699212 SPIN=   0.00000
   O  -0.0297253   0.2722962  -0.2933007 SPIN=   0.00000
   O  -0.3701395   0.0434044  -0.4823826 SPIN=   0.00000
   S  -0.1506102   0.0712265  -0.3624268 SPIN=   0.00000
   F  -0.1350947   0.1599687   0.2229755 SPIN=   0.00000
   F   0.3580702   0.0630069   0.2229755 SPIN=   0.00000
   F   0.3130069   0.1080702  -0.2770245 SPIN=   0.00000
   F   0.4099687  -0.3850947  -0.2770245 SPIN=   0.00000
%ENDBLOCK POSITIONS_FRAC

# Note: total spin =  16.00

KPOINTS_MP_SPACING 0.07

%BLOCK SPECIES_POT
QC5
%ENDBLOCK SPECIES_POT

SNAP_TO_SYMMETRY
SYMMETRY_GENERATE

