#              Generated by Buildcell
#
# at 09:04:36 (GMT+1.0) 18th August 2020
# in /lustre/scratch/uccabz1/launch_tmp
# on node-c12l-008
# by uccabz1
#
# compiler GCC version 4.9.2
# options -cpp -iprefix /lustre/shared/ucl/apps/gcc/4.9.2/bin/../lib/gcc/x86_64-unknown-linux-gnu/4.9.2/ -mtune=corei7 -march=x86-64 -g -Og
#
# seed -1322483270 -1196132511    25098424   735901707   823574245   385600191  1970728378   636597130   223313628   415594197  -352220909  -946655363
#
#      Author: C. J. Pickard (cjp20@cam.ac.uk)
#                Space group: Cc
#

%BLOCK LATTICE_ABC
      5.58245      8.50094      9.12650
     85.73873     72.19143     75.93903
%ENDBLOCK LATTICE_ABC

%BLOCK POSITIONS_FRAC
  Li  -0.2342387   0.4536844  -0.1133360 SPIN=   0.00000
  Li  -0.3475747  -0.0463156   0.1133360 SPIN=   0.00000
  Li  -0.3815544   0.0924220  -0.3117410 SPIN=   0.00000
  Li   0.3067046  -0.4075780   0.3117410 SPIN=   0.00000
  Fe   0.2681631  -0.2567188  -0.0047175 SPIN=   2.43649
  Fe   0.2634456   0.2432812   0.0047175 SPIN=   2.43649
  Fe  -0.0907878  -0.0165020   0.3570698 SPIN=   5.56351
  Fe   0.2662820   0.4834980  -0.3570698 SPIN=   5.56351
   O  -0.1251922  -0.4359266   0.6145817 SPIN=   0.00000
   O  -0.0296635  -0.5666542   0.3632114 SPIN=   0.00000
   O  -0.0994160  -0.2687703   0.3788262 SPIN=   0.00000
   O  -0.4671896  -0.3993451   0.4866801 SPIN=   0.00000
   S  -0.1803653  -0.4176741   0.4608249 SPIN=   0.00000
   O   0.4893895   0.0640734  -0.6145817 SPIN=   0.00000
   O   0.3335479  -0.0666542  -0.3632114 SPIN=   0.00000
   O   0.2794102   0.2312297  -0.3788262 SPIN=   0.00000
   O   0.0194904   0.1006549  -0.4866801 SPIN=   0.00000
   S   0.2804595   0.0823259  -0.4608249 SPIN=   0.00000
   O  -0.4296173   0.2063931   0.0996131 SPIN=   0.00000
   O  -0.3817977   0.4842928   0.1242629 SPIN=   0.00000
   O  -0.0885240   0.2485248   0.2030034 SPIN=   0.00000
   O  -0.5486093   0.3282679   0.3574812 SPIN=   0.00000
   S  -0.3621371   0.3168697   0.1960901 SPIN=   0.00000
   O  -0.3300042  -0.2936069  -0.0996131 SPIN=   0.00000
   O  -0.2575348  -0.0157072  -0.1242629 SPIN=   0.00000
   O   0.1144794  -0.2514752  -0.2030034 SPIN=   0.00000
   O  -0.1911281  -0.1717321  -0.3574812 SPIN=   0.00000
   S  -0.1660469  -0.1831303  -0.1960901 SPIN=   0.00000
   F  -0.3327125   0.3020813  -0.2396744 SPIN=   0.00000
   F   0.4276132  -0.1979187   0.2396744 SPIN=   0.00000
   F   0.1114649  -0.4502237   0.0588183 SPIN=   0.00000
   F   0.1702831   0.0497763  -0.0588183 SPIN=   0.00000
%ENDBLOCK POSITIONS_FRAC

# Note: total spin =  16.00

KPOINTS_MP_SPACING 0.07

%BLOCK SPECIES_POT
QC5
%ENDBLOCK SPECIES_POT

SNAP_TO_SYMMETRY
SYMMETRY_GENERATE

