#              Generated by Buildcell
#
# at 07:34:32 (GMT+1.0) 4th August 2020
# in /lustre/scratch/uccabz1/launch_tmp
# on node-c12f-001
# by uccabz1
#
# compiler GCC version 4.9.2
# options -cpp -iprefix /lustre/shared/ucl/apps/gcc/4.9.2/bin/../lib/gcc/x86_64-unknown-linux-gnu/4.9.2/ -mtune=corei7 -march=x86-64 -g -Og
#
# seed   241908682  -662696283   789718369   -68620541 -1109407640  1474672632 -1696136768  1210575673  -499508280 -1142551429 -1081414075  1957553231
#
#      Author: C. J. Pickard (cjp20@cam.ac.uk)
#                Space group: P-1
#

%BLOCK LATTICE_ABC
      6.98179      7.77221      8.61231
     72.26226     72.16196     66.89343
%ENDBLOCK LATTICE_ABC

%BLOCK POSITIONS_FRAC
  Li  -0.4019651   0.0526318   0.2651070 SPIN=   0.00000
  Li   0.4019651  -0.0526318  -0.2651070 SPIN=   0.00000
  Li   0.0017770   0.2555661   0.4259179 SPIN=   0.00000
  Li  -0.0017770  -0.2555661  -0.4259179 SPIN=   0.00000
  Fe  -0.3189901  -0.3701405   0.4961475 SPIN=   5.30460
  Fe   0.3189901   0.3701405  -0.4961475 SPIN=   5.30460
  Fe   0.2258259   0.2104729  -0.0260650 SPIN=   2.69540
  Fe  -0.2258259  -0.2104729   0.0260650 SPIN=   2.69540
   O   0.0770199  -0.4296357  -0.1578926 SPIN=   0.00000
   O   0.2922186  -0.2715180  -0.4018961 SPIN=   0.00000
   O   0.4386093  -0.4551582  -0.1497132 SPIN=   0.00000
   O   0.1447172  -0.1462225  -0.1425942 SPIN=   0.00000
   S   0.2381413  -0.3256336  -0.2130240 SPIN=   0.00000
   O  -0.0770199   0.4296357   0.1578926 SPIN=   0.00000
   O  -0.2922186   0.2715180   0.4018961 SPIN=   0.00000
   O  -0.4386093   0.4551582   0.1497132 SPIN=   0.00000
   O  -0.1447172   0.1462225   0.1425942 SPIN=   0.00000
   S  -0.2381413   0.3256336   0.2130240 SPIN=   0.00000
   O  -0.2890110   0.1466706  -0.0730869 SPIN=   0.00000
   O  -0.2094688   0.3330231  -0.3600979 SPIN=   0.00000
   O  -0.5388882   0.2467905  -0.2597807 SPIN=   0.00000
   O  -0.1878624  -0.0036409  -0.3146515 SPIN=   0.00000
   S  -0.3063076   0.1807108  -0.2519042 SPIN=   0.00000
   O   0.2890110  -0.1466706   0.0730869 SPIN=   0.00000
   O   0.2094688  -0.3330231   0.3600979 SPIN=   0.00000
   O   0.5388882  -0.2467905   0.2597807 SPIN=   0.00000
   O   0.1878624   0.0036409   0.3146515 SPIN=   0.00000
   S   0.3063076  -0.1807108   0.2519042 SPIN=   0.00000
   F  -0.2249953  -0.1518233   0.4128097 SPIN=   0.00000
   F   0.2249953   0.1518233  -0.4128097 SPIN=   0.00000
   F   0.3323960   0.2812786   0.1169217 SPIN=   0.00000
   F  -0.3323960  -0.2812786  -0.1169217 SPIN=   0.00000
%ENDBLOCK POSITIONS_FRAC

# Note: total spin =  16.00

KPOINTS_MP_SPACING 0.07

%BLOCK SPECIES_POT
QC5
%ENDBLOCK SPECIES_POT

SNAP_TO_SYMMETRY
SYMMETRY_GENERATE

