#              Generated by Buildcell
#
# at 00:24:37 (GMT+1.0) 18th August 2020
# in /lustre/scratch/uccabz1/launch_tmp
# on node-c12p-024
# by uccabz1
#
# compiler GCC version 4.9.2
# options -cpp -iprefix /lustre/shared/ucl/apps/gcc/4.9.2/bin/../lib/gcc/x86_64-unknown-linux-gnu/4.9.2/ -mtune=corei7 -march=x86-64 -g -Og
#
# seed   479006027   513264077  -153578840  -632288005 -2024041195   494994890 -1281525995  -714103987    20878609 -1541644274  1612365537  -815262274
#
#      Author: C. J. Pickard (cjp20@cam.ac.uk)
#                Space group: P21212
#

%BLOCK LATTICE_ABC
      5.68130      7.26651      9.68918
     90.00000     90.00000     90.00000
%ENDBLOCK LATTICE_ABC

%BLOCK POSITIONS_FRAC
  Li   0.2499923   0.3264799  -0.1141528 SPIN=   0.00000
  Li  -0.2499923  -0.3264799  -0.1141528 SPIN=   0.00000
  Li   0.2500077  -0.1735201   0.1141528 SPIN=   0.00000
  Li  -0.2500077   0.1735201   0.1141528 SPIN=   0.00000
  Fe   0.2507134   0.3436119  -0.4110717 SPIN=   4.00000
  Fe  -0.2507134  -0.3436119  -0.4110717 SPIN=   4.00000
  Fe   0.2492866  -0.1563881   0.4110717 SPIN=   4.00000
  Fe  -0.2492866   0.1563881   0.4110717 SPIN=   4.00000
   O  -0.3805564   0.3807815  -0.3498414 SPIN=   0.00000
   O  -0.1160223   0.3788720  -0.1469095 SPIN=   0.00000
   O  -0.0752419   0.1397301  -0.3272026 SPIN=   0.00000
   O  -0.4213410   0.1382735  -0.1720955 SPIN=   0.00000
   S  -0.2482904   0.2594143  -0.2490122 SPIN=   0.00000
   O   0.3805564  -0.3807815  -0.3498414 SPIN=   0.00000
   O   0.1160223  -0.3788720  -0.1469095 SPIN=   0.00000
   O   0.0752419  -0.1397301  -0.3272026 SPIN=   0.00000
   O   0.4213410  -0.1382735  -0.1720955 SPIN=   0.00000
   S   0.2482904  -0.2594143  -0.2490122 SPIN=   0.00000
   O  -0.1194436  -0.1192185   0.3498414 SPIN=   0.00000
   O  -0.3839777  -0.1211280   0.1469095 SPIN=   0.00000
   O  -0.4247581  -0.3602699   0.3272026 SPIN=   0.00000
   O  -0.0786590  -0.3617265   0.1720955 SPIN=   0.00000
   S  -0.2517096  -0.2405857   0.2490122 SPIN=   0.00000
   O   0.1194436   0.1192185   0.3498414 SPIN=   0.00000
   O   0.3839777   0.1211280   0.1469095 SPIN=   0.00000
   O   0.4247581   0.3602699   0.3272026 SPIN=   0.00000
   O   0.0786590   0.3617265   0.1720955 SPIN=   0.00000
   S   0.2517096   0.2405857   0.2490122 SPIN=   0.00000
   F  -0.5000000   0.0000000  -0.4922167 SPIN=   0.00000
   F  -0.0000000   0.5000000   0.4922167 SPIN=   0.00000
   F  -0.0000000   0.0000000  -0.0067240 SPIN=   0.00000
   F  -0.5000000  -0.5000000   0.0067240 SPIN=   0.00000
%ENDBLOCK POSITIONS_FRAC

# Note: total spin =  16.00

KPOINTS_MP_SPACING 0.07

%BLOCK SPECIES_POT
QC5
%ENDBLOCK SPECIES_POT

SNAP_TO_SYMMETRY
SYMMETRY_GENERATE

