#              Generated by Buildcell
#
# at 02:49:42 (GMT+1.0) 18th August 2020
# in /lustre/scratch/uccabz1/launch_tmp
# on node-c12p-010
# by uccabz1
#
# compiler GCC version 4.9.2
# options -cpp -iprefix /lustre/shared/ucl/apps/gcc/4.9.2/bin/../lib/gcc/x86_64-unknown-linux-gnu/4.9.2/ -mtune=corei7 -march=x86-64 -g -Og
#
# seed -1405838497 -1693095792  -464054134  1965189855  -344083108 -1999135510  -856309101   813002890  1394046555  -407114907  -845949784  1439451856
#
#      Author: C. J. Pickard (cjp20@cam.ac.uk)
#                Space group: Cc
#

%BLOCK LATTICE_ABC
      7.41129      7.41129      8.48590
     81.62780     81.62780     60.53210
%ENDBLOCK LATTICE_ABC

%BLOCK POSITIONS_FRAC
  Li  -0.2498304  -0.4111902  -0.2119539 SPIN=   0.00000
  Li  -0.4111902  -0.2498304   0.2880461 SPIN=   0.00000
  Li  -0.0625658   0.1660668  -0.4660808 SPIN=   0.00000
  Li   0.1660668  -0.0625658   0.0339192 SPIN=   0.00000
  Fe   0.3712707  -0.4074763  -0.4399743 SPIN=   4.61850
  Fe  -0.4074763   0.3712707   0.0600257 SPIN=   4.61850
  Fe   0.0440028   0.4917963   0.3514527 SPIN=   3.38150
  Fe   0.4917963   0.0440028  -0.1485473 SPIN=   3.38150
   O   0.0962559   0.2789477  -0.1585804 SPIN=   0.00000
   O  -0.1933203   0.5264536   0.0146532 SPIN=   0.00000
   O   0.1630358   0.4727889   0.0189402 SPIN=   0.00000
   O   0.0777865   0.1945516   0.1344382 SPIN=   0.00000
   S   0.0359395   0.3681855   0.0023628 SPIN=   0.00000
   O   0.2789477   0.0962559  -0.6585804 SPIN=   0.00000
   O   0.5264536  -0.1933203  -0.4853468 SPIN=   0.00000
   O   0.4727889   0.1630358  -0.4810598 SPIN=   0.00000
   O   0.1945516   0.0777865  -0.3655618 SPIN=   0.00000
   S   0.3681855   0.0359395  -0.4976372 SPIN=   0.00000
   O   0.2208332  -0.2161126  -0.2170785 SPIN=   0.00000
   O  -0.0919670  -0.0764686  -0.3648125 SPIN=   0.00000
   O  -0.0929890   0.1111308  -0.1458072 SPIN=   0.00000
   O  -0.0954942  -0.2244971  -0.0841725 SPIN=   0.00000
   S  -0.0149043  -0.1014869  -0.2029677 SPIN=   0.00000
   O  -0.2161126   0.2208332   0.2829215 SPIN=   0.00000
   O  -0.0764686  -0.0919670   0.1351875 SPIN=   0.00000
   O   0.1111308  -0.0929890   0.3541928 SPIN=   0.00000
   O  -0.2244971  -0.0954942   0.4158275 SPIN=   0.00000
   S  -0.1014869  -0.0149043   0.2970323 SPIN=   0.00000
   F  -0.4378285  -0.1111430   0.0874294 SPIN=   0.00000
   F  -0.1111430  -0.4378285  -0.4125706 SPIN=   0.00000
   F   0.4773917   0.3501634  -0.2603462 SPIN=   0.00000
   F   0.3501634   0.4773917   0.2396538 SPIN=   0.00000
%ENDBLOCK POSITIONS_FRAC

# Note: total spin =  16.00

KPOINTS_MP_SPACING 0.07

%BLOCK SPECIES_POT
QC5
%ENDBLOCK SPECIES_POT

SNAP_TO_SYMMETRY
SYMMETRY_GENERATE

