#              Generated by Buildcell
#
# at 12:39:22 (GMT+1.0) 18th August 2020
# in /lustre/scratch/uccabz1/launch_tmp
# on node-c12j-028
# by uccabz1
#
# compiler GCC version 4.9.2
# options -cpp -iprefix /lustre/shared/ucl/apps/gcc/4.9.2/bin/../lib/gcc/x86_64-unknown-linux-gnu/4.9.2/ -mtune=corei7 -march=x86-64 -g -Og
#
# seed  1533219400 -2009916162  -640972400  -467195971  1967266454 -2092781452 -1633487177    93914285   494013759  1791015395 -1519863852  1255520724
#
#      Author: C. J. Pickard (cjp20@cam.ac.uk)
#                Space group: C2
#

%BLOCK LATTICE_ABC
      7.41102      8.15329      8.15329
     98.13466    112.01378    112.01378
%ENDBLOCK LATTICE_ABC

%BLOCK POSITIONS_FRAC
  Li  -0.4339044   0.3366653   0.0655587 SPIN=   0.00000
  Li   0.4339044  -0.0655587  -0.3366653 SPIN=   0.00000
  Li   0.5000000  -0.2347890   0.2347890 SPIN=   0.00000
  Li  -0.0000000  -0.1568365   0.1568365 SPIN=   0.00000
  Fe  -0.1655641   0.1197362   0.0484232 SPIN=   5.51081
  Fe   0.1655641  -0.0484232  -0.1197362 SPIN=   5.51081
  Fe   0.5000000  -0.4805709   0.4805709 SPIN=   2.13695
  Fe   0.0000000  -0.4192793   0.4192793 SPIN=   2.84143
   O  -0.2325429   0.2210276   0.2558130 SPIN=   0.00000
   O  -0.4551720   0.2918392   0.3893947 SPIN=   0.00000
   O  -0.3182100   0.0668627   0.4766727 SPIN=   0.00000
   O  -0.6126046  -0.0184181   0.1569540 SPIN=   0.00000
   S  -0.4046324   0.1403279   0.3197086 SPIN=   0.00000
   O   0.2325429  -0.2558130  -0.2210276 SPIN=   0.00000
   O   0.4551720  -0.3893947  -0.2918392 SPIN=   0.00000
   O   0.3182100  -0.4766727  -0.0668627 SPIN=   0.00000
   O   0.6126046  -0.1569540   0.0184181 SPIN=   0.00000
   S   0.4046324  -0.3197086  -0.1403279 SPIN=   0.00000
   O  -0.2408351   0.2386013  -0.1958815 SPIN=   0.00000
   O  -0.3419979   0.4845434  -0.1165416 SPIN=   0.00000
   O  -0.1687135   0.4996895  -0.3248619 SPIN=   0.00000
   O   0.0500084   0.5586268   0.0125345 SPIN=   0.00000
   S  -0.1753845   0.4453652  -0.1561876 SPIN=   0.00000
   O   0.2408351   0.1958815  -0.2386013 SPIN=   0.00000
   O   0.3419979   0.1165416  -0.4845434 SPIN=   0.00000
   O   0.1687135   0.3248619  -0.4996895 SPIN=   0.00000
   O  -0.0500084  -0.0125345  -0.5586268 SPIN=   0.00000
   S   0.1753845   0.1561876  -0.4453652 SPIN=   0.00000
   F  -0.2903164  -0.4083291   0.2568297 SPIN=   0.00000
   F   0.2903164  -0.2568297   0.4083291 SPIN=   0.00000
   F   0.1431054   0.2731104   0.1372641 SPIN=   0.00000
   F  -0.1431054  -0.1372641  -0.2731104 SPIN=   0.00000
%ENDBLOCK POSITIONS_FRAC

# Note: total spin =  16.00

KPOINTS_MP_SPACING 0.07

%BLOCK SPECIES_POT
QC5
%ENDBLOCK SPECIES_POT

SNAP_TO_SYMMETRY
SYMMETRY_GENERATE

