#              Generated by Buildcell
#
# at 03:18:00 (GMT+1.0) 18th August 2020
# in /lustre/scratch/uccabz1/launch_tmp
# on node-c12e-015
# by uccabz1
#
# compiler GCC version 4.9.2
# options -cpp -iprefix /lustre/shared/ucl/apps/gcc/4.9.2/bin/../lib/gcc/x86_64-unknown-linux-gnu/4.9.2/ -mtune=corei7 -march=x86-64 -g -Og
#
# seed -1829633105  1634924383   455082738  -101805918  2122346007 -2084945336  1742004513  -394749916  -389641164   408480947 -1136269249   430506602
#
#      Author: C. J. Pickard (cjp20@cam.ac.uk)
#                Space group: I-4
#

%BLOCK LATTICE_ABC
      8.24580      8.24580      8.24580
     91.05181    119.39460    119.39460
%ENDBLOCK LATTICE_ABC

%BLOCK POSITIONS_FRAC
  Li   0.0753706  -0.3701178  -0.0697337 SPIN=   0.00000
  Li  -0.0753706  -0.1451043  -0.4454884 SPIN=   0.00000
  Li   0.3003841   0.4454884   0.3701178 SPIN=   0.00000
  Li  -0.3003841   0.0697337   0.1451043 SPIN=   0.00000
  Fe  -0.0983731  -0.4902841   0.1924114 SPIN=   4.00000
  Fe   0.0983731   0.2907845  -0.3919110 SPIN=   4.00000
  Fe  -0.3173045   0.3919110   0.4902841 SPIN=   4.00000
  Fe   0.3173045  -0.1924114  -0.2907845 SPIN=   4.00000
   O  -0.2024028  -0.1898863  -0.2116898 SPIN=   0.00000
   O  -0.2889949  -0.3607981   0.0072171 SPIN=   0.00000
   O  -0.3286232  -0.5391289  -0.2688127 SPIN=   0.00000
   O  -0.6001947  -0.4540217  -0.3392834 SPIN=   0.00000
   S  -0.3550539  -0.3859587  -0.2031422 SPIN=   0.00000
   O   0.2024028  -0.0092870   0.0125166 SPIN=   0.00000
   O   0.2889949   0.2962120  -0.0718032 SPIN=   0.00000
   O   0.3286232   0.0598105  -0.2105057 SPIN=   0.00000
   O   0.6001947   0.2609113   0.1461730 SPIN=   0.00000
   S   0.3550539   0.1519117  -0.0309048 SPIN=   0.00000
   O  -0.0218035  -0.0125166   0.1898863 SPIN=   0.00000
   O   0.3680152   0.0718032   0.3607981 SPIN=   0.00000
   O   0.2703162   0.2105057   0.5391289 SPIN=   0.00000
   O   0.1147383  -0.1461730   0.4540217 SPIN=   0.00000
   S   0.1828165   0.0309048   0.3859587 SPIN=   0.00000
   O   0.0218035   0.2116898   0.0092870 SPIN=   0.00000
   O  -0.3680152  -0.0072171  -0.2962120 SPIN=   0.00000
   O  -0.2703162   0.2688127  -0.0598105 SPIN=   0.00000
   O  -0.1147383   0.3392834  -0.2609113 SPIN=   0.00000
   S  -0.1828165   0.2031422  -0.1519117 SPIN=   0.00000
   F  -0.3284153  -0.4124908   0.3774019 SPIN=   0.00000
   F   0.3284153  -0.2941827  -0.0840754 SPIN=   0.00000
   F  -0.2101073   0.0840754   0.4124908 SPIN=   0.00000
   F   0.2101073  -0.3774019   0.2941827 SPIN=   0.00000
%ENDBLOCK POSITIONS_FRAC

# Note: total spin =  16.00

KPOINTS_MP_SPACING 0.07

%BLOCK SPECIES_POT
QC5
%ENDBLOCK SPECIES_POT

SNAP_TO_SYMMETRY
SYMMETRY_GENERATE

