#              Generated by Buildcell
#
# at 08:39:19 (GMT+1.0) 4th August 2020
# in /lustre/scratch/uccabz1/launch_tmp
# on node-c12f-025
# by uccabz1
#
# compiler GCC version 4.9.2
# options -cpp -iprefix /lustre/shared/ucl/apps/gcc/4.9.2/bin/../lib/gcc/x86_64-unknown-linux-gnu/4.9.2/ -mtune=corei7 -march=x86-64 -g -Og
#
# seed -1668758699   509292811   -50059703 -1724286661  1971922329   861138743    89874904  1431574199  -410531444  -742641103  -913794657   574113385
#
#      Author: C. J. Pickard (cjp20@cam.ac.uk)
#                Space group: C2221
#

%BLOCK LATTICE_ABC
      5.66068      5.66068     13.63717
     90.00000     90.00000    113.74134
%ENDBLOCK LATTICE_ABC

%BLOCK POSITIONS_FRAC
  Li  -0.0034436  -0.4968318  -0.4151603 SPIN=   0.00000
  Li   0.0034436   0.4968318   0.0848397 SPIN=   0.00000
  Li  -0.4968318  -0.0034436  -0.0848397 SPIN=   0.00000
  Li   0.4968318   0.0034436   0.4151603 SPIN=   0.00000
  Fe   0.4262326   0.1945203  -0.3616332 SPIN=   4.00000
  Fe  -0.4262326  -0.1945203   0.1383668 SPIN=   4.00000
  Fe   0.1945203   0.4262326  -0.1383668 SPIN=   4.00000
  Fe  -0.1945203  -0.4262326   0.3616332 SPIN=   4.00000
   O  -0.0644082   0.0578586   0.4129434 SPIN=   0.00000
   O   0.3592030   0.2646659   0.3304734 SPIN=   0.00000
   O   0.3256294   0.3110259   0.5097901 SPIN=   0.00000
   O   0.1418830   0.5331049   0.3959551 SPIN=   0.00000
   S   0.1905768   0.2916638   0.4122905 SPIN=   0.00000
   O   0.0644082  -0.0578586  -0.0870566 SPIN=   0.00000
   O  -0.3592030  -0.2646659  -0.1695266 SPIN=   0.00000
   O  -0.3256294  -0.3110259   0.0097901 SPIN=   0.00000
   O  -0.1418830  -0.5331049  -0.1040449 SPIN=   0.00000
   S  -0.1905768  -0.2916638  -0.0877095 SPIN=   0.00000
   O   0.0578586  -0.0644082   0.0870566 SPIN=   0.00000
   O   0.2646659   0.3592030   0.1695266 SPIN=   0.00000
   O   0.3110259   0.3256294  -0.0097901 SPIN=   0.00000
   O   0.5331049   0.1418830   0.1040449 SPIN=   0.00000
   S   0.2916638   0.1905768   0.0877095 SPIN=   0.00000
   O  -0.0578586   0.0644082  -0.4129434 SPIN=   0.00000
   O  -0.2646659  -0.3592030  -0.3304734 SPIN=   0.00000
   O  -0.3110259  -0.3256294  -0.5097901 SPIN=   0.00000
   O  -0.5331049  -0.1418830  -0.3959551 SPIN=   0.00000
   S  -0.2916638  -0.1905768  -0.4122905 SPIN=   0.00000
   F  -0.4366092  -0.0814001   0.2856328 SPIN=   0.00000
   F   0.4366092   0.0814001  -0.2143672 SPIN=   0.00000
   F  -0.0814001  -0.4366092   0.2143672 SPIN=   0.00000
   F   0.0814001   0.4366092  -0.2856328 SPIN=   0.00000
%ENDBLOCK POSITIONS_FRAC

# Note: total spin =  16.00

KPOINTS_MP_SPACING 0.07

%BLOCK SPECIES_POT
QC5
%ENDBLOCK SPECIES_POT

SNAP_TO_SYMMETRY
SYMMETRY_GENERATE

