#              Generated by Buildcell
#
# at 06:04:58 (GMT+1.0) 4th August 2020
# in /lustre/scratch/uccabz1/launch_tmp
# on node-c12m-011
# by uccabz1
#
# compiler GCC version 4.9.2
# options -cpp -iprefix /lustre/shared/ucl/apps/gcc/4.9.2/bin/../lib/gcc/x86_64-unknown-linux-gnu/4.9.2/ -mtune=corei7 -march=x86-64 -g -Og
#
# seed  1256598871  1775601053 -1400322238  1887451950  1881219285  -385777859 -2063757095 -1338548622   544634832  1453218211  1399757417  1753916133
#
#      Author: C. J. Pickard (cjp20@cam.ac.uk)
#                Space group: Iba2
#

%BLOCK LATTICE_ABC
      8.10333      8.10333      8.10333
    101.01575    109.34312    118.53507
%ENDBLOCK LATTICE_ABC

%BLOCK POSITIONS_FRAC
  Li   0.2225395   0.0381024  -0.2240882 SPIN=   0.00000
  Li  -0.2225395  -0.4466277  -0.1844371 SPIN=   0.00000
  Li  -0.2621907   0.0533723   0.2759118 SPIN=   0.00000
  Li   0.2621907  -0.4618976   0.3155629 SPIN=   0.00000
  Fe  -0.4985473  -0.1168763  -0.1718590 SPIN=   4.00000
  Fe   0.4985473   0.3266882   0.3816710 SPIN=   4.00000
  Fe  -0.0549828  -0.1733118   0.3281410 SPIN=   4.00000
  Fe   0.0549828   0.3831237  -0.1183290 SPIN=   4.00000
   O  -0.1791688   0.1864671   0.1047571 SPIN=   0.00000
   O  -0.2383335   0.4172799   0.2843661 SPIN=   0.00000
   O  -0.3837503   0.3048678  -0.0680571 SPIN=   0.00000
   O   0.0094411   0.5527571   0.1530384 SPIN=   0.00000
   S  -0.1979529   0.3653430   0.1185261 SPIN=   0.00000
   O   0.1791688   0.2839259  -0.6343641 SPIN=   0.00000
   O   0.2383335   0.5226996  -0.3443866 SPIN=   0.00000
   O   0.3837503   0.3156932  -0.3113819 SPIN=   0.00000
   O  -0.0094411   0.1435973  -0.4566840 SPIN=   0.00000
   S   0.1979529   0.3164790  -0.4367042 SPIN=   0.00000
   O  -0.0817100  -0.2160741  -0.3952429 SPIN=   0.00000
   O  -0.1329138   0.0226996  -0.2156339 SPIN=   0.00000
   O  -0.3729249  -0.1843068  -0.5680571 SPIN=   0.00000
   O  -0.3997186  -0.3564027  -0.3469616 SPIN=   0.00000
   S  -0.2468168  -0.1835210  -0.3814739 SPIN=   0.00000
   O   0.0817100  -0.3135329  -0.1343641 SPIN=   0.00000
   O   0.1329138  -0.0827201   0.1556134 SPIN=   0.00000
   O   0.3729249  -0.1951322   0.1886181 SPIN=   0.00000
   O   0.3997186   0.0527571   0.0433160 SPIN=   0.00000
   S   0.2468168  -0.1346570   0.0632958 SPIN=   0.00000
   F  -0.3012434  -0.2087798   0.0503967 SPIN=   0.00000
   F   0.3012434   0.3516402   0.0924636 SPIN=   0.00000
   F   0.2591765  -0.1483598  -0.4496033 SPIN=   0.00000
   F  -0.2591765   0.2912202  -0.4075364 SPIN=   0.00000
%ENDBLOCK POSITIONS_FRAC

# Note: total spin =  16.00

KPOINTS_MP_SPACING 0.07

%BLOCK SPECIES_POT
QC5
%ENDBLOCK SPECIES_POT

SNAP_TO_SYMMETRY
SYMMETRY_GENERATE

