#              Generated by Buildcell
#
# at 08:05:39 (GMT+1.0) 4th August 2020
# in /lustre/scratch/uccabz1/launch_tmp
# on node-c12f-018
# by uccabz1
#
# compiler GCC version 4.9.2
# options -cpp -iprefix /lustre/shared/ucl/apps/gcc/4.9.2/bin/../lib/gcc/x86_64-unknown-linux-gnu/4.9.2/ -mtune=corei7 -march=x86-64 -g -Og
#
# seed  1356748125   531034267   568153680  1362288290 -1282347089  -692863261 -1260740958   290956349  1686100138   539658082 -1389216033   994907255
#
#      Author: C. J. Pickard (cjp20@cam.ac.uk)
#                Space group: P42
#

%BLOCK LATTICE_ABC
      7.36197      7.37111      7.37111
     90.00000     90.00000     90.00000
%ENDBLOCK LATTICE_ABC

%BLOCK POSITIONS_FRAC
  Li   0.2042344   0.5000000  -0.5000000 SPIN=   0.00000
  Li  -0.2957656   0.5000000   0.5000000 SPIN=   0.00000
  Li  -0.3872299   0.5000000  -0.0000000 SPIN=   0.00000
  Li   0.1127701   0.0000000   0.5000000 SPIN=   0.00000
  Fe   0.3526273   0.2134676  -0.1392243 SPIN=   4.00000
  Fe   0.3526273  -0.2134676   0.1392243 SPIN=   4.00000
  Fe  -0.1473727  -0.1392243  -0.2134676 SPIN=   4.00000
  Fe  -0.1473727   0.1392243   0.2134676 SPIN=   4.00000
   O  -0.0413186   0.5923402  -0.2742216 SPIN=   0.00000
   O  -0.2446709   0.3252188  -0.2854748 SPIN=   0.00000
   O  -0.0092590   0.3474056  -0.0468191 SPIN=   0.00000
   O   0.0801171   0.2929759  -0.3658791 SPIN=   0.00000
   S  -0.0537829   0.3894852  -0.2430986 SPIN=   0.00000
   O  -0.0413186  -0.5923402   0.2742216 SPIN=   0.00000
   O  -0.2446709  -0.3252188   0.2854748 SPIN=   0.00000
   O  -0.0092590  -0.3474056   0.0468191 SPIN=   0.00000
   O   0.0801171  -0.2929759   0.3658791 SPIN=   0.00000
   S  -0.0537829  -0.3894852   0.2430986 SPIN=   0.00000
   O   0.4586814  -0.2742216  -0.5923402 SPIN=   0.00000
   O   0.2553291  -0.2854748  -0.3252188 SPIN=   0.00000
   O   0.4907410  -0.0468191  -0.3474056 SPIN=   0.00000
   O   0.5801171  -0.3658791  -0.2929759 SPIN=   0.00000
   S   0.4462171  -0.2430986  -0.3894852 SPIN=   0.00000
   O   0.4586814   0.2742216   0.5923402 SPIN=   0.00000
   O   0.2553291   0.2854748   0.3252188 SPIN=   0.00000
   O   0.4907410   0.0468191   0.3474056 SPIN=   0.00000
   O   0.5801171   0.3658791   0.2929759 SPIN=   0.00000
   S   0.4462171   0.2430986   0.3894852 SPIN=   0.00000
   F   0.3450662  -0.5000000   0.0000000 SPIN=   0.00000
   F  -0.1549338   0.0000000  -0.5000000 SPIN=   0.00000
   F  -0.2422885  -0.0000000   0.0000000 SPIN=   0.00000
   F   0.2577115   0.0000000   0.0000000 SPIN=   0.00000
%ENDBLOCK POSITIONS_FRAC

# Note: total spin =  16.00

KPOINTS_MP_SPACING 0.07

%BLOCK SPECIES_POT
QC5
%ENDBLOCK SPECIES_POT

SNAP_TO_SYMMETRY
SYMMETRY_GENERATE

