#              Generated by Buildcell
#
# at 06:50:09 (GMT+1.0) 4th August 2020
# in /lustre/scratch/uccabz1/launch_tmp
# on node-c12g-014
# by uccabz1
#
# compiler GCC version 4.9.2
# options -cpp -iprefix /lustre/shared/ucl/apps/gcc/4.9.2/bin/../lib/gcc/x86_64-unknown-linux-gnu/4.9.2/ -mtune=corei7 -march=x86-64 -g -Og
#
# seed   277714325  2085445221   112405432  1163972317  1377224370 -1172900288   314170507  1069739351  -482814521 -1334243801   116576851  2002076177
#
#      Author: C. J. Pickard (cjp20@cam.ac.uk)
#                Space group: Pc
#

%BLOCK LATTICE_ABC
      5.71194      7.20600     10.10150
     90.00000     90.00000    105.83582
%ENDBLOCK LATTICE_ABC

%BLOCK POSITIONS_FRAC
  Li  -0.4663897   0.1608085   0.4062624 SPIN=   0.00000
  Li   0.0336103  -0.3391915  -0.4062624 SPIN=   0.00000
  Li   0.0258872  -0.2358544  -0.0316420 SPIN=   0.00000
  Li  -0.4741128   0.2641456   0.0316420 SPIN=   0.00000
  Fe  -0.4014655  -0.2476010   0.4311406 SPIN=   1.27261
  Fe   0.0985345   0.2523990  -0.4311406 SPIN=   1.27261
  Fe  -0.4025737  -0.4224192  -0.2156903 SPIN=   6.72739
  Fe   0.0974263   0.0775808   0.2156903 SPIN=   6.72739
   O   0.0796192   0.3329995  -0.1933727 SPIN=   0.00000
   O  -0.1441054   0.4174344  -0.0030179 SPIN=   0.00000
   O   0.2847868   0.5987912  -0.0429691 SPIN=   0.00000
   O   0.1853061   0.2605872   0.0348832 SPIN=   0.00000
   S   0.1014017   0.4024531  -0.0511191 SPIN=   0.00000
   O  -0.4203808  -0.1670005   0.1933727 SPIN=   0.00000
   O  -0.6441054  -0.0825656   0.0030179 SPIN=   0.00000
   O  -0.2152132   0.0987912   0.0429691 SPIN=   0.00000
   O  -0.3146939  -0.2394128  -0.0348832 SPIN=   0.00000
   S  -0.3985983  -0.0975469   0.0511191 SPIN=   0.00000
   O   0.0809411  -0.1817804   0.3733939 SPIN=   0.00000
   O  -0.1354713  -0.5294346   0.3629782 SPIN=   0.00000
   O   0.2900445  -0.4140145   0.2844603 SPIN=   0.00000
   O  -0.0419251  -0.3382551   0.1566654 SPIN=   0.00000
   S   0.0483973  -0.3658711   0.2943745 SPIN=   0.00000
   O  -0.4190589   0.3182196  -0.3733939 SPIN=   0.00000
   O  -0.6354713  -0.0294346  -0.3629782 SPIN=   0.00000
   O  -0.2099555   0.0859855  -0.2844603 SPIN=   0.00000
   O  -0.5419251   0.1617449  -0.1566654 SPIN=   0.00000
   S  -0.4516027   0.1341289  -0.2943745 SPIN=   0.00000
   F   0.3585918  -0.4253911  -0.3882766 SPIN=   0.00000
   F  -0.1414082   0.0746089   0.3882766 SPIN=   0.00000
   F  -0.0673329  -0.2102416  -0.2448146 SPIN=   0.00000
   F   0.4326671   0.2897584   0.2448146 SPIN=   0.00000
%ENDBLOCK POSITIONS_FRAC

# Note: total spin =  16.00

KPOINTS_MP_SPACING 0.07

%BLOCK SPECIES_POT
QC5
%ENDBLOCK SPECIES_POT

SNAP_TO_SYMMETRY
SYMMETRY_GENERATE

