#              Generated by Buildcell
#
# at 06:58:22 (GMT+1.0) 4th August 2020
# in /lustre/scratch/uccabz1/launch_tmp
# on node-c12n-032
# by uccabz1
#
# compiler GCC version 4.9.2
# options -cpp -iprefix /lustre/shared/ucl/apps/gcc/4.9.2/bin/../lib/gcc/x86_64-unknown-linux-gnu/4.9.2/ -mtune=corei7 -march=x86-64 -g -Og
#
# seed   661007421  -895885353   449068169  -197623306 -1682777640    20490757 -1994629709   539188379  1342176698   548915369   772589671  -261446931
#
#      Author: C. J. Pickard (cjp20@cam.ac.uk)
#                Space group: P21
#

%BLOCK LATTICE_ABC
      4.06688     10.51317     10.52686
    117.28693     90.00000     90.00000
%ENDBLOCK LATTICE_ABC

%BLOCK POSITIONS_FRAC
  Li  -0.0283129   0.3097585   0.2886872 SPIN=   0.00000
  Li   0.4716871  -0.3097585  -0.2886872 SPIN=   0.00000
  Li   0.2778514  -0.0831697   0.1069623 SPIN=   0.00000
  Li  -0.2221486   0.0831697  -0.1069623 SPIN=   0.00000
  Fe  -0.2525346  -0.3923120  -0.5719174 SPIN=   5.22315
  Fe   0.2474654   0.3923120   0.5719174 SPIN=   5.22315
  Fe  -0.2225576   0.0606075   0.3276122 SPIN=   2.77685
  Fe   0.2774424  -0.0606075  -0.3276122 SPIN=   2.77685
   O  -0.3629161   0.5521471   0.2132971 SPIN=   0.00000
   O  -0.6887648   0.4487968  -0.0101201 SPIN=   0.00000
   O  -0.6966868   0.3343898   0.1495172 SPIN=   0.00000
   O  -0.1952932   0.3220833   0.0110995 SPIN=   0.00000
   S  -0.4859152   0.4143542   0.0909484 SPIN=   0.00000
   O   0.1370839  -0.5521471  -0.2132971 SPIN=   0.00000
   O  -0.1887648  -0.4487968   0.0101201 SPIN=   0.00000
   O  -0.1966868  -0.3343898  -0.1495172 SPIN=   0.00000
   O   0.3047068  -0.3220833  -0.0110995 SPIN=   0.00000
   S   0.0140848  -0.4143542  -0.0909484 SPIN=   0.00000
   O  -0.0863543   0.2335694   0.5684347 SPIN=   0.00000
   O  -0.3215064   0.3418240   0.8123885 SPIN=   0.00000
   O  -0.0924037   0.0965495   0.7068889 SPIN=   0.00000
   O  -0.6128075   0.1434519   0.6138270 SPIN=   0.00000
   S  -0.2782680   0.2038487   0.6753848 SPIN=   0.00000
   O   0.4136457  -0.2335694  -0.5684347 SPIN=   0.00000
   O   0.1784936  -0.3418240  -0.8123885 SPIN=   0.00000
   O   0.4075963  -0.0965495  -0.7068889 SPIN=   0.00000
   O  -0.1128075  -0.1434519  -0.6138270 SPIN=   0.00000
   S   0.2217320  -0.2038487  -0.6753848 SPIN=   0.00000
   F   0.3718766   0.3119808   0.3763213 SPIN=   0.00000
   F  -0.1281234  -0.3119808  -0.3763213 SPIN=   0.00000
   F   0.3229184   0.0687755  -0.1276880 SPIN=   0.00000
   F  -0.1770816  -0.0687755   0.1276880 SPIN=   0.00000
%ENDBLOCK POSITIONS_FRAC

# Note: total spin =  16.00

KPOINTS_MP_SPACING 0.07

%BLOCK SPECIES_POT
QC5
%ENDBLOCK SPECIES_POT

SNAP_TO_SYMMETRY
SYMMETRY_GENERATE

