#              Generated by Buildcell
#
# at 09:04:35 (GMT+1.0) 4th August 2020
# in /lustre/scratch/uccabz1/launch_tmp
# on node-c12n-014
# by uccabz1
#
# compiler GCC version 4.9.2
# options -cpp -iprefix /lustre/shared/ucl/apps/gcc/4.9.2/bin/../lib/gcc/x86_64-unknown-linux-gnu/4.9.2/ -mtune=corei7 -march=x86-64 -g -Og
#
# seed   601881759  -253371357   383067471   278414222   646631156   211352821 -1107593455 -1279547396   788457181  1073560001  -845391883   938477378
#
#      Author: C. J. Pickard (cjp20@cam.ac.uk)
#                Space group: C222
#

%BLOCK LATTICE_ABC
      5.49714      8.53028      8.53028
     90.23948     90.00000     90.00000
%ENDBLOCK LATTICE_ABC

%BLOCK POSITIONS_FRAC
  Li   0.2492660  -0.1395744   0.3210820 SPIN=   0.00000
  Li   0.2492660   0.1395744  -0.3210820 SPIN=   0.00000
  Li  -0.2492660   0.3210820  -0.1395744 SPIN=   0.00000
  Li  -0.2492660  -0.3210820   0.1395744 SPIN=   0.00000
  Fe  -0.2500356  -0.2805532   0.4884752 SPIN=   4.00000
  Fe  -0.2500356   0.2805532  -0.4884752 SPIN=   4.00000
  Fe   0.2500356   0.4884752  -0.2805532 SPIN=   4.00000
  Fe   0.2500356  -0.4884752   0.2805532 SPIN=   4.00000
   O  -0.2397963   0.0982358  -0.0974688 SPIN=   0.00000
   O  -0.0071481  -0.0165962  -0.3182001 SPIN=   0.00000
   O  -0.4522022   0.0203972  -0.3414729 SPIN=   0.00000
   O  -0.2877012  -0.1826798  -0.1642857 SPIN=   0.00000
   S  -0.2467119  -0.0201608  -0.2303569 SPIN=   0.00000
   O  -0.2397963  -0.0982358   0.0974688 SPIN=   0.00000
   O  -0.0071481   0.0165962   0.3182001 SPIN=   0.00000
   O  -0.4522022  -0.0203972   0.3414729 SPIN=   0.00000
   O  -0.2877012   0.1826798   0.1642857 SPIN=   0.00000
   S  -0.2467119   0.0201608   0.2303569 SPIN=   0.00000
   O   0.2397963  -0.0974688   0.0982358 SPIN=   0.00000
   O   0.0071481  -0.3182001  -0.0165962 SPIN=   0.00000
   O   0.4522022  -0.3414729   0.0203972 SPIN=   0.00000
   O   0.2877012  -0.1642857  -0.1826798 SPIN=   0.00000
   S   0.2467119  -0.2303569  -0.0201608 SPIN=   0.00000
   O   0.2397963   0.0974688  -0.0982358 SPIN=   0.00000
   O   0.0071481   0.3182001   0.0165962 SPIN=   0.00000
   O   0.4522022   0.3414729  -0.0203972 SPIN=   0.00000
   O   0.2877012   0.1642857   0.1826798 SPIN=   0.00000
   S   0.2467119   0.2303569   0.0201608 SPIN=   0.00000
   F   0.2497012   0.2390850   0.4640552 SPIN=   0.00000
   F   0.2497012  -0.2390850  -0.4640552 SPIN=   0.00000
   F  -0.2497012   0.4640552   0.2390850 SPIN=   0.00000
   F  -0.2497012  -0.4640552  -0.2390850 SPIN=   0.00000
%ENDBLOCK POSITIONS_FRAC

# Note: total spin =  16.00

KPOINTS_MP_SPACING 0.07

%BLOCK SPECIES_POT
QC5
%ENDBLOCK SPECIES_POT

SNAP_TO_SYMMETRY
SYMMETRY_GENERATE

