#              Generated by Buildcell
#
# at 12:27:42 (GMT+1.0) 18th August 2020
# in /lustre/scratch/uccabz1/launch_tmp
# on node-c12m-030
# by uccabz1
#
# compiler GCC version 4.9.2
# options -cpp -iprefix /lustre/shared/ucl/apps/gcc/4.9.2/bin/../lib/gcc/x86_64-unknown-linux-gnu/4.9.2/ -mtune=corei7 -march=x86-64 -g -Og
#
# seed   918575110   473163741 -1622135300  -507249616  1905994344  1462029795  1545019703  2026796926  1971876878  1984635304   680104772  1175014701
#
#      Author: C. J. Pickard (cjp20@cam.ac.uk)
#                Space group: P2/c
#

%BLOCK LATTICE_ABC
      6.69633      7.38925      8.18473
     90.00000     90.00000     99.00116
%ENDBLOCK LATTICE_ABC

%BLOCK POSITIONS_FRAC
  Li  -0.7901240  -0.4856203  -0.3264003 SPIN=   0.00000
  Li  -0.2098760  -0.0143797  -0.3264003 SPIN=   0.00000
  Li   0.7901240   0.4856203   0.3264003 SPIN=   0.00000
  Li   0.2098760   0.0143797   0.3264003 SPIN=   0.00000
  Fe  -0.7662067  -0.3469338   0.0421351 SPIN=   4.00000
  Fe  -0.2337933  -0.1530662   0.0421351 SPIN=   4.00000
  Fe   0.7662067   0.3469338  -0.0421351 SPIN=   4.00000
  Fe   0.2337933   0.1530662  -0.0421351 SPIN=   4.00000
   O  -0.0943786  -0.4890815  -0.3794105 SPIN=   0.00000
   O  -0.2764153  -0.2651634  -0.5171168 SPIN=   0.00000
   O  -0.2530190  -0.2686542  -0.2153941 SPIN=   0.00000
   O  -0.4671512  -0.5220109  -0.3601691 SPIN=   0.00000
   S  -0.2727410  -0.3862275  -0.3680226 SPIN=   0.00000
   O   0.0943786  -0.0109185  -0.3794105 SPIN=   0.00000
   O   0.2764153  -0.2348366  -0.5171168 SPIN=   0.00000
   O   0.2530190  -0.2313458  -0.2153941 SPIN=   0.00000
   O   0.4671512   0.0220109  -0.3601691 SPIN=   0.00000
   S   0.2727410  -0.1137725  -0.3680226 SPIN=   0.00000
   O   0.0943786   0.4890815   0.3794105 SPIN=   0.00000
   O   0.2764153   0.2651634   0.5171168 SPIN=   0.00000
   O   0.2530190   0.2686542   0.2153941 SPIN=   0.00000
   O   0.4671512   0.5220109   0.3601691 SPIN=   0.00000
   S   0.2727410   0.3862275   0.3680226 SPIN=   0.00000
   O  -0.0943786   0.0109185   0.3794105 SPIN=   0.00000
   O  -0.2764153   0.2348366   0.5171168 SPIN=   0.00000
   O  -0.2530190   0.2313458   0.2153941 SPIN=   0.00000
   O  -0.4671512  -0.0220109   0.3601691 SPIN=   0.00000
   S  -0.2727410   0.1137725   0.3680226 SPIN=   0.00000
   F  -0.2533918  -0.4096967   0.1029893 SPIN=   0.00000
   F   0.2533918  -0.0903033   0.1029893 SPIN=   0.00000
   F   0.2533918   0.4096967  -0.1029893 SPIN=   0.00000
   F  -0.2533918   0.0903033  -0.1029893 SPIN=   0.00000
%ENDBLOCK POSITIONS_FRAC

# Note: total spin =  16.00

KPOINTS_MP_SPACING 0.07

%BLOCK SPECIES_POT
QC5
%ENDBLOCK SPECIES_POT

SNAP_TO_SYMMETRY
SYMMETRY_GENERATE

