#              Generated by Buildcell
#
# at 16:13:52 (GMT+1.0) 18th August 2020
# in /lustre/scratch/uccabz1/launch_tmp
# on node-c12p-018
# by uccabz1
#
# compiler GCC version 4.9.2
# options -cpp -iprefix /lustre/shared/ucl/apps/gcc/4.9.2/bin/../lib/gcc/x86_64-unknown-linux-gnu/4.9.2/ -mtune=corei7 -march=x86-64 -g -Og
#
# seed  -434025906   168424042  1876292525   313276861 -2021758730 -1856593854 -1624980263 -1017224485  -575156472    77573948 -1678128916   841772330
#
#      Author: C. J. Pickard (cjp20@cam.ac.uk)
#                Space group: P21212
#

%BLOCK LATTICE_ABC
      6.64923      7.14655      8.41768
     90.00000     90.00000     90.00000
%ENDBLOCK LATTICE_ABC

%BLOCK POSITIONS_FRAC
  Li  -0.2497050  -0.1463959   0.3443334 SPIN=   0.00000
  Li   0.2497050   0.1463959   0.3443334 SPIN=   0.00000
  Li   0.2502950  -0.3536041  -0.3443334 SPIN=   0.00000
  Li  -0.2502950   0.3536041  -0.3443334 SPIN=   0.00000
  Fe   0.2500046   0.3871927   0.0471575 SPIN=   4.00000
  Fe  -0.2500046  -0.3871927   0.0471575 SPIN=   4.00000
  Fe  -0.2499954   0.1128073  -0.0471575 SPIN=   4.00000
  Fe   0.2499954  -0.1128073  -0.0471575 SPIN=   4.00000
   O  -0.2387350   0.5169527   0.3374185 SPIN=   0.00000
   O  -0.4581810   0.2395849   0.3067410 SPIN=   0.00000
   O  -0.1522178   0.2206480   0.4733894 SPIN=   0.00000
   O  -0.1217314   0.2446225   0.1810761 SPIN=   0.00000
   S  -0.2427163   0.3054520   0.3246562 SPIN=   0.00000
   O   0.2387350  -0.5169527   0.3374185 SPIN=   0.00000
   O   0.4581810  -0.2395849   0.3067410 SPIN=   0.00000
   O   0.1522178  -0.2206480   0.4733894 SPIN=   0.00000
   O   0.1217314  -0.2446225   0.1810761 SPIN=   0.00000
   S   0.2427163  -0.3054520   0.3246562 SPIN=   0.00000
   O   0.2612650  -0.0169527  -0.3374185 SPIN=   0.00000
   O   0.0418190   0.2604151  -0.3067410 SPIN=   0.00000
   O   0.3477822   0.2793520  -0.4733894 SPIN=   0.00000
   O   0.3782686   0.2553775  -0.1810761 SPIN=   0.00000
   S   0.2572837   0.1945480  -0.3246562 SPIN=   0.00000
   O  -0.2612650   0.0169527  -0.3374185 SPIN=   0.00000
   O  -0.0418190  -0.2604151  -0.3067410 SPIN=   0.00000
   O  -0.3477822  -0.2793520  -0.4733894 SPIN=   0.00000
   O  -0.3782686  -0.2553775  -0.1810761 SPIN=   0.00000
   S  -0.2572837  -0.1945480  -0.3246562 SPIN=   0.00000
   F  -0.2493586   0.3901126  -0.1023916 SPIN=   0.00000
   F   0.2493586  -0.3901126  -0.1023916 SPIN=   0.00000
   F   0.2506414   0.1098874   0.1023916 SPIN=   0.00000
   F  -0.2506414  -0.1098874   0.1023916 SPIN=   0.00000
%ENDBLOCK POSITIONS_FRAC

# Note: total spin =  16.00

KPOINTS_MP_SPACING 0.07

%BLOCK SPECIES_POT
QC5
%ENDBLOCK SPECIES_POT

SNAP_TO_SYMMETRY
SYMMETRY_GENERATE

