#              Generated by Buildcell
#
# at 12:01:10 (GMT+1.0) 18th August 2020
# in /lustre/scratch/uccabz1/launch_tmp
# on node-c12f-008
# by uccabz1
#
# compiler GCC version 4.9.2
# options -cpp -iprefix /lustre/shared/ucl/apps/gcc/4.9.2/bin/../lib/gcc/x86_64-unknown-linux-gnu/4.9.2/ -mtune=corei7 -march=x86-64 -g -Og
#
# seed -1190907256 -1011534441 -1180667923  1502837478   470320834   560404893 -1155442086  1259423699  1758249345  1086709344  -145742974  -679856554
#
#      Author: C. J. Pickard (cjp20@cam.ac.uk)
#                Space group: P2
#

%BLOCK LATTICE_ABC
      5.84331      7.03281      9.94069
    101.71651     90.00000     90.00000
%ENDBLOCK LATTICE_ABC

%BLOCK POSITIONS_FRAC
  Li  -0.4130503   0.3298785  -0.2508047 SPIN=   0.00000
  Li  -0.4130503  -0.3298785   0.2508047 SPIN=   0.00000
  Li  -0.0550434   0.1625663   0.3819309 SPIN=   0.00000
  Li  -0.0550434  -0.1625663  -0.3819309 SPIN=   0.00000
  Fe   0.0798329  -0.2299908   0.2218540 SPIN=   4.68035
  Fe   0.0798329   0.2299908  -0.2218540 SPIN=   4.68035
  Fe  -0.2567135   0.2868096   0.1075752 SPIN=   3.31965
  Fe  -0.2567135  -0.2868096  -0.1075752 SPIN=   3.31965
   O   0.0116002  -0.4379296  -0.2410007 SPIN=   0.00000
   O   0.3374715  -0.3820155  -0.3872086 SPIN=   0.00000
   O   0.4063204  -0.4235784  -0.1492205 SPIN=   0.00000
   O   0.2195306  -0.1249224  -0.1907174 SPIN=   0.00000
   S   0.2437307  -0.3421115  -0.2420368 SPIN=   0.00000
   O   0.0116002   0.4379296   0.2410007 SPIN=   0.00000
   O   0.3374715   0.3820155   0.3872086 SPIN=   0.00000
   O   0.4063204   0.4235784   0.1492205 SPIN=   0.00000
   O   0.2195306   0.1249224   0.1907174 SPIN=   0.00000
   S   0.2437307   0.3421115   0.2420368 SPIN=   0.00000
   O  -0.1861778   0.1078678  -0.3521304 SPIN=   0.00000
   O  -0.6093860   0.0993866  -0.3612527 SPIN=   0.00000
   O  -0.4011248  -0.0966979  -0.2204698 SPIN=   0.00000
   O  -0.3855846  -0.1876234  -0.4742238 SPIN=   0.00000
   O  -0.1861778  -0.1078678   0.3521304 SPIN=   0.00000
   O  -0.6093860  -0.0993866   0.3612527 SPIN=   0.00000
   O  -0.4011248   0.0966979   0.2204698 SPIN=   0.00000
   O  -0.3855846   0.1876234   0.4742238 SPIN=   0.00000
   S   0.3100897  -0.0000000   0.5000000 SPIN=   0.00000
   S  -0.2573281   0.5000000  -0.5000000 SPIN=   0.00000
   F   0.4104261   0.2233983  -0.0999834 SPIN=   0.00000
   F   0.4104261  -0.2233983   0.0999834 SPIN=   0.00000
   F  -0.0906455   0.5000000   0.0000000 SPIN=   0.00000
   F  -0.0890094   0.0000000   0.0000000 SPIN=   0.00000
%ENDBLOCK POSITIONS_FRAC

# Note: total spin =  16.00

KPOINTS_MP_SPACING 0.07

%BLOCK SPECIES_POT
QC5
%ENDBLOCK SPECIES_POT

SNAP_TO_SYMMETRY
SYMMETRY_GENERATE

