#              Generated by Buildcell
#
# at 06:42:46 (GMT+1.0) 4th August 2020
# in /lustre/scratch/uccabz1/launch_tmp
# on node-c12f-017
# by uccabz1
#
# compiler GCC version 4.9.2
# options -cpp -iprefix /lustre/shared/ucl/apps/gcc/4.9.2/bin/../lib/gcc/x86_64-unknown-linux-gnu/4.9.2/ -mtune=corei7 -march=x86-64 -g -Og
#
# seed  -522820603   268505687 -1114355898   743140324  -319397941  1804120188 -1305890838    97981250 -1931487015 -2119665436  -465096518   509451922
#
#      Author: C. J. Pickard (cjp20@cam.ac.uk)
#                Space group: Cm
#

%BLOCK LATTICE_ABC
      3.87926     10.26228     10.26228
     91.06680     98.15932     98.15932
%ENDBLOCK LATTICE_ABC

%BLOCK POSITIONS_FRAC
  Li  -0.0266840   0.3796307   0.0761065 SPIN=   0.00000
  Li  -0.0266840   0.0761065   0.3796307 SPIN=   0.00000
  Li   0.4269186  -0.2717038  -0.0060566 SPIN=   0.00000
  Li   0.4269186  -0.0060566  -0.2717038 SPIN=   0.00000
  Fe  -0.4468525   0.2846083  -0.3428722 SPIN=   3.57828
  Fe  -0.4468525  -0.3428722   0.2846083 SPIN=   3.57828
  Fe   0.2616696  -0.3875759  -0.3875759 SPIN=   4.53790
  Fe  -0.4785940   0.2910231   0.2910231 SPIN=   4.30554
   O  -0.3746741  -0.0242797  -0.4373902 SPIN=   0.00000
   O   0.0787402  -0.0968079  -0.5576683 SPIN=   0.00000
   O  -0.4104089  -0.2594469  -0.5038059 SPIN=   0.00000
   O   0.0555466  -0.1578020  -0.3265542 SPIN=   0.00000
   S  -0.1626991  -0.1345841  -0.4563546 SPIN=   0.00000
   O  -0.3746741  -0.4373902  -0.0242797 SPIN=   0.00000
   O   0.0787402  -0.5576683  -0.0968079 SPIN=   0.00000
   O  -0.4104089  -0.5038059  -0.2594469 SPIN=   0.00000
   O   0.0555466  -0.3265542  -0.1578020 SPIN=   0.00000
   S  -0.1626991  -0.4563546  -0.1345841 SPIN=   0.00000
   O   0.4086642   0.0817865  -0.0997712 SPIN=   0.00000
   O  -0.0137852   0.2226823  -0.0372205 SPIN=   0.00000
   O   0.5155556   0.3223620  -0.1284615 SPIN=   0.00000
   S   0.3714982   0.2154146  -0.0425040 SPIN=   0.00000
   O   0.4086642  -0.0997712   0.0817865 SPIN=   0.00000
   O  -0.0137852  -0.0372205   0.2226823 SPIN=   0.00000
   O   0.5155556  -0.1284615   0.3223620 SPIN=   0.00000
   S   0.3714982  -0.0425040   0.2154146 SPIN=   0.00000
   O   0.4084411   0.1258448   0.1258448 SPIN=   0.00000
   O  -0.0641202   0.4402250   0.4402250 SPIN=   0.00000
   F  -0.0416470  -0.3767132   0.2182785 SPIN=   0.00000
   F  -0.0416470   0.2182785  -0.3767132 SPIN=   0.00000
   F  -0.1783853  -0.1034325  -0.1034325 SPIN=   0.00000
   F   0.0046638   0.2563542   0.2563542 SPIN=   0.00000
%ENDBLOCK POSITIONS_FRAC

# Note: total spin =  16.00

KPOINTS_MP_SPACING 0.07

%BLOCK SPECIES_POT
QC5
%ENDBLOCK SPECIES_POT

SNAP_TO_SYMMETRY
SYMMETRY_GENERATE

