#              Generated by Buildcell
#
# at 10:35:59 (GMT+1.0) 18th August 2020
# in /lustre/scratch/uccabz1/launch_tmp
# on node-c12m-026
# by uccabz1
#
# compiler GCC version 4.9.2
# options -cpp -iprefix /lustre/shared/ucl/apps/gcc/4.9.2/bin/../lib/gcc/x86_64-unknown-linux-gnu/4.9.2/ -mtune=corei7 -march=x86-64 -g -Og
#
# seed   845434656   677751597  1871261560 -1401671524   763393028  -595516877   402301669  -551499028  -625037230  1860312907  1979253129 -1479049302
#
#      Author: C. J. Pickard (cjp20@cam.ac.uk)
#                Space group: Pc
#

%BLOCK LATTICE_ABC
      4.42729      5.75606     15.69715
     90.00000     90.00000     90.60738
%ENDBLOCK LATTICE_ABC

%BLOCK POSITIONS_FRAC
  Li  -0.2859665   0.4004431  -0.0465886 SPIN=   0.00000
  Li   0.2140335  -0.0995569   0.0465886 SPIN=   0.00000
  Li  -0.2899226  -0.2119223   0.3811312 SPIN=   0.00000
  Li   0.2100774   0.2880777  -0.3811312 SPIN=   0.00000
  Fe   0.2007327   0.4006858   0.0819913 SPIN=   4.65514
  Fe  -0.2992673  -0.0993142  -0.0819913 SPIN=   4.65514
  Fe   0.2139092   0.4146968  -0.1686573 SPIN=   3.34486
  Fe  -0.2860908  -0.0853032   0.1686573 SPIN=   3.34486
   O   0.0964369  -0.0530639  -0.4754156 SPIN=   0.00000
   O   0.0958719  -0.4830253  -0.4759730 SPIN=   0.00000
   O   0.0373755  -0.2697847  -0.3401642 SPIN=   0.00000
   O   0.5296350  -0.2654333  -0.4148889 SPIN=   0.00000
   S   0.1898298  -0.2678268  -0.4266104 SPIN=   0.00000
   O  -0.4035631   0.4469361   0.4754156 SPIN=   0.00000
   O  -0.4041281   0.0169747   0.4759730 SPIN=   0.00000
   O  -0.4626245   0.2302153   0.3401642 SPIN=   0.00000
   O   0.0296350   0.2345667   0.4148889 SPIN=   0.00000
   S  -0.3101702   0.2321732   0.4266104 SPIN=   0.00000
   O  -0.5144369  -0.0128253  -0.2779753 SPIN=   0.00000
   O  -0.2349047   0.1833251  -0.3945462 SPIN=   0.00000
   O  -0.0006766   0.1455192  -0.2521313 SPIN=   0.00000
   O  -0.4286803   0.4125508  -0.2732691 SPIN=   0.00000
   S  -0.2946746   0.1821425  -0.2994805 SPIN=   0.00000
   O  -0.0144369  -0.5128253   0.2779753 SPIN=   0.00000
   O   0.2650953  -0.3166749   0.3945462 SPIN=   0.00000
   O   0.4993234  -0.3544808   0.2521313 SPIN=   0.00000
   O   0.0713197  -0.0874492   0.2732691 SPIN=   0.00000
   S   0.2053254  -0.3178575   0.2994805 SPIN=   0.00000
   F   0.4018202   0.1860800   0.1743457 SPIN=   0.00000
   F  -0.0981798  -0.3139200  -0.1743457 SPIN=   0.00000
   F  -0.1655993  -0.3118356   0.0687774 SPIN=   0.00000
   F   0.3344007   0.1881644  -0.0687774 SPIN=   0.00000
%ENDBLOCK POSITIONS_FRAC

# Note: total spin =  16.00

KPOINTS_MP_SPACING 0.07

%BLOCK SPECIES_POT
QC5
%ENDBLOCK SPECIES_POT

SNAP_TO_SYMMETRY
SYMMETRY_GENERATE

