#              Generated by Buildcell
#
# at 07:56:09 (GMT+1.0) 4th August 2020
# in /lustre/scratch/uccabz1/launch_tmp
# on node-c12l-013
# by uccabz1
#
# compiler GCC version 4.9.2
# options -cpp -iprefix /lustre/shared/ucl/apps/gcc/4.9.2/bin/../lib/gcc/x86_64-unknown-linux-gnu/4.9.2/ -mtune=corei7 -march=x86-64 -g -Og
#
# seed  1419802424  1881319229 -1732079098  -384804565 -1825624558 -1674337821  1890283541  -320840027  1493403732  1265740225  -338374382  1836710087
#
#      Author: C. J. Pickard (cjp20@cam.ac.uk)
#                Space group: Pc
#

%BLOCK LATTICE_ABC
      7.22778      7.24112      8.33139
    113.45920     90.00000     90.00000
%ENDBLOCK LATTICE_ABC

%BLOCK POSITIONS_FRAC
  Li  -0.1021231  -0.4314798  -0.2094967 SPIN=   0.00000
  Li   0.1021231   0.0685202  -0.2094967 SPIN=   0.00000
  Li   0.3408311  -0.0168374   0.3513996 SPIN=   0.00000
  Li  -0.3408311   0.4831626   0.3513996 SPIN=   0.00000
  Fe   0.0579603   0.3084772   0.3531145 SPIN=   3.92348
  Fe  -0.0579603   0.8084772   0.3531145 SPIN=   3.92348
  Fe  -0.4036326  -0.2017567   0.0302782 SPIN=   4.07652
  Fe   0.4036326   0.2982433   0.0302782 SPIN=   4.07652
   O   0.4323916  -0.4181657  -0.1819628 SPIN=   0.00000
   O   0.2988283  -0.5635301  -0.4800139 SPIN=   0.00000
   O   0.2011786  -0.6920574  -0.2588463 SPIN=   0.00000
   O   0.5163170  -0.7639954  -0.3847677 SPIN=   0.00000
   S   0.3621789  -0.6094371  -0.3263977 SPIN=   0.00000
   O  -0.4323916   0.0818343  -0.1819628 SPIN=   0.00000
   O  -0.2988283  -0.0635301  -0.4800139 SPIN=   0.00000
   O  -0.2011786  -0.1920574  -0.2588463 SPIN=   0.00000
   O  -0.5163170  -0.2639954  -0.3847677 SPIN=   0.00000
   S  -0.3621789  -0.1094371  -0.3263977 SPIN=   0.00000
   O   0.2050911  -0.1973427   0.1295278 SPIN=   0.00000
   O   0.1925034   0.0809428   0.0286019 SPIN=   0.00000
   O  -0.0952204  -0.0937604   0.0489870 SPIN=   0.00000
   O   0.1356751  -0.2695266  -0.1805835 SPIN=   0.00000
   S   0.1095123  -0.1199217   0.0066333 SPIN=   0.00000
   O  -0.2050911   0.3026573   0.1295278 SPIN=   0.00000
   O  -0.1925034   0.5809428   0.0286019 SPIN=   0.00000
   O   0.0952204   0.4062396   0.0489870 SPIN=   0.00000
   O  -0.1356751   0.2304734  -0.1805835 SPIN=   0.00000
   S  -0.1095123   0.3800783   0.0066333 SPIN=   0.00000
   F  -0.4482219   0.0607909   0.2401817 SPIN=   0.00000
   F   0.4482219   0.5607909   0.2401817 SPIN=   0.00000
   F  -0.1308722  -0.6147933  -0.4499509 SPIN=   0.00000
   F   0.1308722  -0.1147933  -0.4499509 SPIN=   0.00000
%ENDBLOCK POSITIONS_FRAC

# Note: total spin =  16.00

KPOINTS_MP_SPACING 0.07

%BLOCK SPECIES_POT
QC5
%ENDBLOCK SPECIES_POT

SNAP_TO_SYMMETRY
SYMMETRY_GENERATE

