#              Generated by Buildcell
#
# at 15:14:44 (GMT+1.0) 18th August 2020
# in /lustre/scratch/uccabz1/launch_tmp
# on node-c12h-020
# by uccabz1
#
# compiler GCC version 4.9.2
# options -cpp -iprefix /lustre/shared/ucl/apps/gcc/4.9.2/bin/../lib/gcc/x86_64-unknown-linux-gnu/4.9.2/ -mtune=corei7 -march=x86-64 -g -Og
#
# seed   647916586 -1158994186   652469479  1482323535 -1908575152 -1892779122   235391986 -1121810157 -1078553211  1188361115  1762720534 -2056500943
#
#      Author: C. J. Pickard (cjp20@cam.ac.uk)
#                Space group: C2
#

%BLOCK LATTICE_ABC
      4.13462     10.30648     10.30648
    110.37100     97.77483     97.77483
%ENDBLOCK LATTICE_ABC

%BLOCK POSITIONS_FRAC
  Li   1.1272708   0.4078334   0.2262376 SPIN=   0.00000
  Li  -1.1272708  -0.2262376  -0.4078334 SPIN=   0.00000
  Li   0.4330277  -0.0051743   0.4402947 SPIN=   0.00000
  Li  -0.4330277  -0.4402947   0.0051743 SPIN=   0.00000
  Fe   0.6688654   0.3269906   0.4009589 SPIN=   4.45877
  Fe  -0.6688654  -0.4009589  -0.3269906 SPIN=   4.45877
  Fe   0.0000000   0.0571522  -0.0571522 SPIN=   3.94787
  Fe   0.0000000  -0.2958249   0.2958249 SPIN=   3.13460
   O  -0.1344610  -0.0118365  -0.2772954 SPIN=   0.00000
   O  -0.1157981   0.1794325  -0.3708789 SPIN=   0.00000
   O  -0.0928289  -0.0625046  -0.5268162 SPIN=   0.00000
   O   0.3875435   0.0806337  -0.3357711 SPIN=   0.00000
   S   0.0111139   0.0464313  -0.3776904 SPIN=   0.00000
   O   0.1344610   0.2772954   0.0118365 SPIN=   0.00000
   O   0.1157981   0.3708789  -0.1794325 SPIN=   0.00000
   O   0.0928289   0.5268162   0.0625046 SPIN=   0.00000
   O  -0.3875435   0.3357711  -0.0806337 SPIN=   0.00000
   S  -0.0111139   0.3776904  -0.0464313 SPIN=   0.00000
   O   0.2012644  -0.1755739   0.0627770 SPIN=   0.00000
   O  -0.3964560  -0.2587450  -0.0477199 SPIN=   0.00000
   O   0.0070454  -0.4120771  -0.1263542 SPIN=   0.00000
   O   0.0090928  -0.1977994  -0.1834629 SPIN=   0.00000
   S  -0.0447634  -0.2610489  -0.0736900 SPIN=   0.00000
   O  -0.2012644  -0.0627770   0.1755739 SPIN=   0.00000
   O   0.3964560   0.0477199   0.2587450 SPIN=   0.00000
   O  -0.0070454   0.1263542   0.4120771 SPIN=   0.00000
   O  -0.0090928   0.1834629   0.1977994 SPIN=   0.00000
   S   0.0447634   0.0736900   0.2610489 SPIN=   0.00000
   F   0.6175188   0.4291612   0.2624255 SPIN=   0.00000
   F  -0.6175188  -0.2624255  -0.4291612 SPIN=   0.00000
   F  -0.5000000   0.3813049  -0.3813049 SPIN=   0.00000
   F   0.5000000   0.0541282  -0.0541282 SPIN=   0.00000
%ENDBLOCK POSITIONS_FRAC

# Note: total spin =  16.00

KPOINTS_MP_SPACING 0.07

%BLOCK SPECIES_POT
QC5
%ENDBLOCK SPECIES_POT

SNAP_TO_SYMMETRY
SYMMETRY_GENERATE

