#              Generated by Buildcell
#
# at 06:44:21 (GMT+1.0) 4th August 2020
# in /lustre/scratch/uccabz1/launch_tmp
# on node-c12m-030
# by uccabz1
#
# compiler GCC version 4.9.2
# options -cpp -iprefix /lustre/shared/ucl/apps/gcc/4.9.2/bin/../lib/gcc/x86_64-unknown-linux-gnu/4.9.2/ -mtune=corei7 -march=x86-64 -g -Og
#
# seed   964808061  -496044923 -1116257345  1804237661  -368599220   719805514  1846712419   153453056  1225634179  1580657850  1441945033  1497313807
#
#      Author: C. J. Pickard (cjp20@cam.ac.uk)
#                Space group: P-1
#

%BLOCK LATTICE_ABC
      7.22692      8.01499      8.04178
     71.07792     84.21012     65.30063
%ENDBLOCK LATTICE_ABC

%BLOCK POSITIONS_FRAC
  Li  -0.2072512  -0.1457175  -0.2806012 SPIN=   0.00000
  Li   0.2072512   0.1457175   0.2806012 SPIN=   0.00000
  Li   0.2444025  -0.2750466   0.1688731 SPIN=   0.00000
  Li  -0.2444025   0.2750466  -0.1688731 SPIN=   0.00000
  Fe   0.3467543   0.3695803  -0.0280688 SPIN=   3.26135
  Fe  -0.3467543  -0.3695803   0.0280688 SPIN=   3.26135
  Fe   0.4454673   0.2610780   0.4606965 SPIN=   4.73865
  Fe  -0.4454673  -0.2610780  -0.4606965 SPIN=   4.73865
   O   0.1702095  -0.2360397  -0.0784453 SPIN=   0.00000
   O  -0.0258623   0.0908201  -0.2813285 SPIN=   0.00000
   O   0.3421838  -0.0808979  -0.3210027 SPIN=   0.00000
   O   0.2288149   0.0431037  -0.0671334 SPIN=   0.00000
   S   0.1788365  -0.0457535  -0.1869775 SPIN=   0.00000
   O  -0.1702095   0.2360397   0.0784453 SPIN=   0.00000
   O   0.0258623  -0.0908201   0.2813285 SPIN=   0.00000
   O  -0.3421838   0.0808979   0.3210027 SPIN=   0.00000
   O  -0.2288149  -0.0431037   0.0671334 SPIN=   0.00000
   S  -0.1788365   0.0457535   0.1869775 SPIN=   0.00000
   O  -0.3170007   0.4081867   0.5260960 SPIN=   0.00000
   O   0.0509025   0.3363499   0.5285421 SPIN=   0.00000
   O  -0.1641100   0.5479896   0.2575158 SPIN=   0.00000
   O  -0.0819034   0.1975288   0.3601445 SPIN=   0.00000
   S  -0.1280279   0.3725138   0.4180746 SPIN=   0.00000
   O   0.3170007  -0.4081867  -0.5260960 SPIN=   0.00000
   O  -0.0509025  -0.3363499  -0.5285421 SPIN=   0.00000
   O   0.1641100  -0.5479896  -0.2575158 SPIN=   0.00000
   O   0.0819034  -0.1975288  -0.3601445 SPIN=   0.00000
   S   0.1280279  -0.3725138  -0.4180746 SPIN=   0.00000
   F   0.3188247   0.4531310   0.1907611 SPIN=   0.00000
   F  -0.3188247  -0.4531310  -0.1907611 SPIN=   0.00000
   F   0.3912045  -0.1093488   0.2462534 SPIN=   0.00000
   F  -0.3912045   0.1093488  -0.2462534 SPIN=   0.00000
%ENDBLOCK POSITIONS_FRAC

# Note: total spin =  16.00

KPOINTS_MP_SPACING 0.07

%BLOCK SPECIES_POT
QC5
%ENDBLOCK SPECIES_POT

SNAP_TO_SYMMETRY
SYMMETRY_GENERATE

