#              Generated by Buildcell
#
# at 08:58:43 (GMT+1.0) 18th August 2020
# in /scratch/scratch/uccabz1/launch_tmp
# on node-k10b-029
# by uccabz1
#
# compiler GCC version 4.9.2
# options -cpp -iprefix /scratch/UCL/applications/gcc/4.9.2/bin/../lib/gcc/x86_64-unknown-linux-gnu/4.9.2/ -mtune=corei7 -march=x86-64 -g -O2
#
# seed  1492606893 -1040334561   923281517   885571349   970716063  -454206324 -1075574505  1660251035   244998366  2116284151  1160916792  2052631968
#
#      Author: C. J. Pickard (cjp20@cam.ac.uk)
#                Space group: P41
#

%BLOCK LATTICE_ABC
      4.65220      4.65220     18.48173
     90.00000     90.00000     90.00000
%ENDBLOCK LATTICE_ABC

%BLOCK POSITIONS_FRAC
  Li  -0.0478042  -0.1033992   0.4309103 SPIN=   0.00000
  Li   0.0478042   0.1033992  -0.0690897 SPIN=   0.00000
  Li   0.1033992  -0.0478042  -0.3190897 SPIN=   0.00000
  Li  -0.1033992   0.0478042   0.1809103 SPIN=   0.00000
  Fe  -0.0577279  -0.3010089   0.0484501 SPIN=   4.00000
  Fe   0.0577279   0.3010089  -0.4515499 SPIN=   4.00000
  Fe   0.3010089  -0.0577279   0.2984501 SPIN=   4.00000
  Fe  -0.3010089   0.0577279  -0.2015499 SPIN=   4.00000
   O  -0.3721738  -0.3690544  -0.2528074 SPIN=   0.00000
   O  -0.7261860  -0.6284418  -0.3284887 SPIN=   0.00000
   O  -0.2165734  -0.6038394  -0.3664066 SPIN=   0.00000
   O  -0.5206683  -0.1677238  -0.3709859 SPIN=   0.00000
   S  -0.4589004  -0.4422648  -0.3296721 SPIN=   0.00000
   O   0.3721738   0.3690544   0.2471926 SPIN=   0.00000
   O   0.7261860   0.6284418   0.1715113 SPIN=   0.00000
   O   0.2165734   0.6038394   0.1335934 SPIN=   0.00000
   O   0.5206683   0.1677238   0.1290141 SPIN=   0.00000
   S   0.4589004   0.4422648   0.1703279 SPIN=   0.00000
   O   0.3690544  -0.3721738  -0.0028074 SPIN=   0.00000
   O   0.6284418  -0.7261860  -0.0784887 SPIN=   0.00000
   O   0.6038394  -0.2165734  -0.1164066 SPIN=   0.00000
   O   0.1677238  -0.5206683  -0.1209859 SPIN=   0.00000
   S   0.4422648  -0.4589004  -0.0796721 SPIN=   0.00000
   O  -0.3690544   0.3721738   0.4971926 SPIN=   0.00000
   O  -0.6284418   0.7261860   0.4215113 SPIN=   0.00000
   O  -0.6038394   0.2165734   0.3835934 SPIN=   0.00000
   O  -0.1677238   0.5206683   0.3790141 SPIN=   0.00000
   S  -0.4422648   0.4589004   0.4203279 SPIN=   0.00000
   F   0.0005502   0.1416713   0.0384571 SPIN=   0.00000
   F  -0.0005502  -0.1416713  -0.4615429 SPIN=   0.00000
   F  -0.1416713   0.0005502   0.2884571 SPIN=   0.00000
   F   0.1416713  -0.0005502  -0.2115429 SPIN=   0.00000
%ENDBLOCK POSITIONS_FRAC

# Note: total spin =  16.00

KPOINTS_MP_SPACING 0.07

%BLOCK SPECIES_POT
QC5
%ENDBLOCK SPECIES_POT

SNAP_TO_SYMMETRY
SYMMETRY_GENERATE

