#              Generated by Buildcell
#
# at 10:58:24 (GMT+1.0) 18th August 2020
# in /lustre/scratch/uccabz1/launch_tmp
# on node-c12i-018
# by uccabz1
#
# compiler GCC version 4.9.2
# options -cpp -iprefix /lustre/shared/ucl/apps/gcc/4.9.2/bin/../lib/gcc/x86_64-unknown-linux-gnu/4.9.2/ -mtune=corei7 -march=x86-64 -g -Og
#
# seed  -338926307 -1127878504  1178584277   453897039  -949559487 -1192202644   511764579   428652729   144062846   711659196   638601368  1192322856
#
#      Author: C. J. Pickard (cjp20@cam.ac.uk)
#                Space group: P2
#

%BLOCK LATTICE_ABC
      5.27456      5.68091     13.44636
     90.00000     96.89131     90.00000
%ENDBLOCK LATTICE_ABC

%BLOCK POSITIONS_FRAC
  Li   0.2416736  -0.3195117  -0.3818033 SPIN=   0.00000
  Li  -0.2416736  -0.3195117   0.3818033 SPIN=   0.00000
  Li  -0.2189566   0.1357828   0.1812093 SPIN=   0.00000
  Li   0.2189566   0.1357828  -0.1812093 SPIN=   0.00000
  Fe  -0.2745285  -0.1060104  -0.0918780 SPIN=   3.43718
  Fe   0.2745285  -0.1060104   0.0918780 SPIN=   3.43718
  Fe   0.2235007   0.4327398   0.2845453 SPIN=   4.56282
  Fe  -0.2235007   0.4327398  -0.2845453 SPIN=   4.56282
   O  -0.1068424  -0.6185209   0.0734474 SPIN=   0.00000
   O  -0.1537648  -0.1860941   0.0583878 SPIN=   0.00000
   O  -0.1179214  -0.3747104   0.2253967 SPIN=   0.00000
   O  -0.5099879  -0.4275609   0.1066166 SPIN=   0.00000
   S  -0.2221291  -0.4017216   0.1159621 SPIN=   0.00000
   O   0.1068424  -0.6185209  -0.0734474 SPIN=   0.00000
   O   0.1537648  -0.1860941  -0.0583878 SPIN=   0.00000
   O   0.1179214  -0.3747104  -0.2253967 SPIN=   0.00000
   O   0.5099879  -0.4275609  -0.1066166 SPIN=   0.00000
   S   0.2221291  -0.4017216  -0.1159621 SPIN=   0.00000
   O   0.2437437   0.3482374  -0.4843578 SPIN=   0.00000
   O   0.0021198   0.1024043  -0.3764194 SPIN=   0.00000
   O   0.3704503   0.3384126  -0.3011251 SPIN=   0.00000
   O   0.4410987  -0.0106019  -0.4044616 SPIN=   0.00000
   S   0.2643531   0.1946131  -0.3915910 SPIN=   0.00000
   O  -0.2437437   0.3482374   0.4843578 SPIN=   0.00000
   O  -0.0021198   0.1024043   0.3764194 SPIN=   0.00000
   O  -0.3704503   0.3384126   0.3011251 SPIN=   0.00000
   O  -0.4410987  -0.0106019   0.4044616 SPIN=   0.00000
   S  -0.2643531   0.1946131   0.3915910 SPIN=   0.00000
   F  -0.2111029  -0.3274298  -0.3808209 SPIN=   0.00000
   F   0.2111029  -0.3274298   0.3808209 SPIN=   0.00000
   F   0.2891358   0.1742543   0.1631461 SPIN=   0.00000
   F  -0.2891358   0.1742543  -0.1631461 SPIN=   0.00000
%ENDBLOCK POSITIONS_FRAC

# Note: total spin =  16.00

KPOINTS_MP_SPACING 0.07

%BLOCK SPECIES_POT
QC5
%ENDBLOCK SPECIES_POT

SNAP_TO_SYMMETRY
SYMMETRY_GENERATE

