#              Generated by Buildcell
#
# at 04:45:01 (GMT+1.0) 18th August 2020
# in /lustre/scratch/uccabz1/launch_tmp
# on node-c12f-023
# by uccabz1
#
# compiler GCC version 4.9.2
# options -cpp -iprefix /lustre/shared/ucl/apps/gcc/4.9.2/bin/../lib/gcc/x86_64-unknown-linux-gnu/4.9.2/ -mtune=corei7 -march=x86-64 -g -Og
#
# seed   -56852955  -428511620  -643464862  -170232339  -831308470  -499512827  -203661175 -2087761068 -1353281853   778801539 -1619041180  -293516368
#
#      Author: C. J. Pickard (cjp20@cam.ac.uk)
#                Space group: Cc
#

%BLOCK LATTICE_ABC
      7.64086      7.81565      8.73036
     67.83469     64.04899     60.73711
%ENDBLOCK LATTICE_ABC

%BLOCK POSITIONS_FRAC
  Li   0.0755015  -0.0622573  -0.3972693 SPIN=   0.00000
  Li   0.3840251   0.4377427   0.1027307 SPIN=   0.00000
  Li   0.1598399   0.0521941   0.1143969 SPIN=   0.00000
  Li  -0.3264308  -0.4478059  -0.3856031 SPIN=   0.00000
  Fe   0.4664138   0.2228385  -0.1486755 SPIN=   2.64827
  Fe   0.4594232  -0.2771615   0.3513245 SPIN=   2.64827
  Fe  -0.2697169   0.0801011   0.2054441 SPIN=   5.35173
  Fe  -0.0158283  -0.4198989  -0.2945559 SPIN=   5.35173
   O   0.7119074  -0.3134217  -0.0625146 SPIN=   0.00000
   O   0.4080063  -0.0205859  -0.1418030 SPIN=   0.00000
   O   0.3489850  -0.2583867   0.1406014 SPIN=   0.00000
   O   0.4618298  -0.3624680  -0.1338957 SPIN=   0.00000
   S   0.4826821  -0.2387156  -0.0494030 SPIN=   0.00000
   O  -0.3359711   0.1865783   0.4374854 SPIN=   0.00000
   O  -0.2456174   0.4794141   0.3581970 SPIN=   0.00000
   O  -0.2311997   0.2416133   0.6406014 SPIN=   0.00000
   O   0.0345339   0.1375320   0.3661043 SPIN=   0.00000
   S  -0.1945636   0.2612844   0.4505970 SPIN=   0.00000
   O   0.1101368  -0.2093090  -0.0212601 SPIN=   0.00000
   O  -0.2415277  -0.2285870   0.1287756 SPIN=   0.00000
   O   0.0649524  -0.4918036   0.2247539 SPIN=   0.00000
   O   0.0433492  -0.4692481  -0.0573779 SPIN=   0.00000
   S  -0.0057723  -0.3497369   0.0687228 SPIN=   0.00000
   O   0.1204323   0.2906910  -0.5212601 SPIN=   0.00000
   O   0.3413391   0.2714130  -0.3712244 SPIN=   0.00000
   O   0.2020974   0.0081964  -0.2752461 SPIN=   0.00000
   O   0.4832769   0.0307519  -0.5573779 SPIN=   0.00000
   S   0.2867864   0.1502631  -0.4312772 SPIN=   0.00000
   F   0.4202709   0.1597103   0.1100504 SPIN=   0.00000
   F   0.3099684  -0.3402897  -0.3899496 SPIN=   0.00000
   F  -0.0579778   0.1951216   0.0176426 SPIN=   0.00000
   F  -0.1547864  -0.3048784  -0.4823574 SPIN=   0.00000
%ENDBLOCK POSITIONS_FRAC

# Note: total spin =  16.00

KPOINTS_MP_SPACING 0.07

%BLOCK SPECIES_POT
QC5
%ENDBLOCK SPECIES_POT

SNAP_TO_SYMMETRY
SYMMETRY_GENERATE

