#              Generated by Buildcell
#
# at 10:51:08 (GMT+1.0) 18th August 2020
# in /lustre/scratch/uccabz1/launch_tmp
# on node-c12a-021
# by uccabz1
#
# compiler GCC version 4.9.2
# options -cpp -iprefix /lustre/shared/ucl/apps/gcc/4.9.2/bin/../lib/gcc/x86_64-unknown-linux-gnu/4.9.2/ -mtune=corei7 -march=x86-64 -g -Og
#
# seed  -313783362  -446836838 -1319759508 -1188160387  1928791282 -1300447312  -620328267 -1638883909   298266544    54614931 -1540560225  2065411821
#
#      Author: C. J. Pickard (cjp20@cam.ac.uk)
#                Space group: P21212
#

%BLOCK LATTICE_ABC
      5.80520      7.69888      8.94984
     90.00000     90.00000     90.00000
%ENDBLOCK LATTICE_ABC

%BLOCK POSITIONS_FRAC
  Li   0.2694221   0.2731072   0.0308982 SPIN=   0.00000
  Li   0.2694221  -0.2731072  -0.0308982 SPIN=   0.00000
  Li  -0.2694221  -0.2268928   0.4691018 SPIN=   0.00000
  Li  -0.2694221   0.2268928  -0.4691018 SPIN=   0.00000
  Fe   0.0350242   0.4123881   0.3043977 SPIN=   4.00000
  Fe   0.0350242  -0.4123881  -0.3043977 SPIN=   4.00000
  Fe  -0.0350242  -0.0876119   0.1956023 SPIN=   4.00000
  Fe  -0.0350242   0.0876119  -0.1956023 SPIN=   4.00000
   O   0.4176071  -0.0683521   0.3811850 SPIN=   0.00000
   O   0.3109166   0.2412438   0.3537884 SPIN=   0.00000
   O   0.4159170   0.0682721   0.1308786 SPIN=   0.00000
   O   0.7149553   0.1489240   0.3153521 SPIN=   0.00000
   S   0.4648490   0.0975220   0.2953010 SPIN=   0.00000
   O   0.4176071   0.0683521  -0.3811850 SPIN=   0.00000
   O   0.3109166  -0.2412438  -0.3537884 SPIN=   0.00000
   O   0.4159170  -0.0682721  -0.1308786 SPIN=   0.00000
   O   0.7149553  -0.1489240  -0.3153521 SPIN=   0.00000
   S   0.4648490  -0.0975220  -0.2953010 SPIN=   0.00000
   O  -0.4176071  -0.5683521   0.1188150 SPIN=   0.00000
   O  -0.3109166  -0.2587562   0.1462116 SPIN=   0.00000
   O  -0.4159170  -0.4317279   0.3691214 SPIN=   0.00000
   O  -0.7149553  -0.3510760   0.1846479 SPIN=   0.00000
   S  -0.4648490  -0.4024780   0.2046990 SPIN=   0.00000
   O  -0.4176071   0.5683521  -0.1188150 SPIN=   0.00000
   O  -0.3109166   0.2587562  -0.1462116 SPIN=   0.00000
   O  -0.4159170   0.4317279  -0.3691214 SPIN=   0.00000
   O  -0.7149553   0.3510760  -0.1846479 SPIN=   0.00000
   S  -0.4648490   0.4024780  -0.2046990 SPIN=   0.00000
   F   0.0360692  -0.2457827   0.4252840 SPIN=   0.00000
   F   0.0360692   0.2457827  -0.4252840 SPIN=   0.00000
   F  -0.0360692   0.2542173   0.0747160 SPIN=   0.00000
   F  -0.0360692  -0.2542173  -0.0747160 SPIN=   0.00000
%ENDBLOCK POSITIONS_FRAC

# Note: total spin =  16.00

KPOINTS_MP_SPACING 0.07

%BLOCK SPECIES_POT
QC5
%ENDBLOCK SPECIES_POT

SNAP_TO_SYMMETRY
SYMMETRY_GENERATE

