#              Generated by Buildcell
#
# at 16:50:30 (GMT+1.0) 18th August 2020
# in /lustre/scratch/uccabz1/launch_tmp
# on node-c12p-012
# by uccabz1
#
# compiler GCC version 4.9.2
# options -cpp -iprefix /lustre/shared/ucl/apps/gcc/4.9.2/bin/../lib/gcc/x86_64-unknown-linux-gnu/4.9.2/ -mtune=corei7 -march=x86-64 -g -Og
#
# seed -1245330176 -1768528949  -862201380  -899417218    46250210  1609727115    93972516  -730261333    91242236  1076328123   499513957  1340571087
#
#      Author: C. J. Pickard (cjp20@cam.ac.uk)
#                Space group: Cc
#

%BLOCK LATTICE_ABC
      6.05134      6.05134     11.31056
     79.34062     79.34062     87.71128
%ENDBLOCK LATTICE_ABC

%BLOCK POSITIONS_FRAC
  Li  -0.4854497  -0.0304181   0.3138752 SPIN=   0.00000
  Li  -0.0304181  -0.4854497  -0.1861248 SPIN=   0.00000
  Li   0.0851896  -0.4622731   0.3027254 SPIN=   0.00000
  Li  -0.4622731   0.0851896  -0.1972746 SPIN=   0.00000
  Fe   0.2690651   0.0333552  -0.4433846 SPIN=   5.32995
  Fe   0.0333552   0.2690651   0.0566154 SPIN=   5.32995
  Fe  -0.4271199   0.4587936   0.2919961 SPIN=   2.67005
  Fe   0.4587936  -0.4271199  -0.2080039 SPIN=   2.67005
   O  -0.2491442  -0.0640515  -0.0825866 SPIN=   0.00000
   O   0.1070957   0.1488682  -0.1352055 SPIN=   0.00000
   O   0.0352125  -0.1243272  -0.2615315 SPIN=   0.00000
   O   0.1087045  -0.2591967  -0.0520146 SPIN=   0.00000
   S   0.0004671  -0.0746768  -0.1328346 SPIN=   0.00000
   O  -0.0640515  -0.2491442   0.4174134 SPIN=   0.00000
   O   0.1488682   0.1070957   0.3647945 SPIN=   0.00000
   O  -0.1243272   0.0352125   0.2384685 SPIN=   0.00000
   O  -0.2591967   0.1087045   0.4479854 SPIN=   0.00000
   S  -0.0746768   0.0004671   0.3671654 SPIN=   0.00000
   O   0.3606534  -0.0048502  -0.0213716 SPIN=   0.00000
   O   0.2390565  -0.0666738   0.2034426 SPIN=   0.00000
   O   0.6424666  -0.0152606   0.1127127 SPIN=   0.00000
   O   0.4496482  -0.3644014   0.1056777 SPIN=   0.00000
   S   0.4229562  -0.1127965   0.1001153 SPIN=   0.00000
   O  -0.0048502   0.3606534  -0.5213716 SPIN=   0.00000
   O  -0.0666738   0.2390565  -0.2965574 SPIN=   0.00000
   O  -0.0152606   0.6424666  -0.3872873 SPIN=   0.00000
   O  -0.3644014   0.4496482  -0.3943223 SPIN=   0.00000
   S  -0.1127965   0.4229562  -0.3998847 SPIN=   0.00000
   F  -0.3494046   0.4219772  -0.0775383 SPIN=   0.00000
   F   0.4219772  -0.3494046   0.4224617 SPIN=   0.00000
   F  -0.4448058  -0.0901783  -0.3216826 SPIN=   0.00000
   F  -0.0901783  -0.4448058   0.1783174 SPIN=   0.00000
%ENDBLOCK POSITIONS_FRAC

# Note: total spin =  16.00

KPOINTS_MP_SPACING 0.07

%BLOCK SPECIES_POT
QC5
%ENDBLOCK SPECIES_POT

SNAP_TO_SYMMETRY
SYMMETRY_GENERATE

