#              Generated by Buildcell
#
# at 23:36:32 (GMT+1.0) 17th August 2020
# in /lustre/scratch/uccabz1/launch_tmp
# on node-c12g-036
# by uccabz1
#
# compiler GCC version 4.9.2
# options -cpp -iprefix /lustre/shared/ucl/apps/gcc/4.9.2/bin/../lib/gcc/x86_64-unknown-linux-gnu/4.9.2/ -mtune=corei7 -march=x86-64 -g -Og
#
# seed  -849697578  1230200302   -39309882   280144037  1851543324 -2017497605  -655756390 -1920152411  -831387804  1837925207  1741154005   752627013
#
#      Author: C. J. Pickard (cjp20@cam.ac.uk)
#                Space group: P-1
#

%BLOCK LATTICE_ABC
      6.22473      6.79792      9.77817
    103.10232     96.56101     90.84668
%ENDBLOCK LATTICE_ABC

%BLOCK POSITIONS_FRAC
  Li   0.0192060  -0.3350751  -0.3118227 SPIN=   0.00000
  Li  -0.0192060   0.3350751   0.3118227 SPIN=   0.00000
  Li  -0.3220491   0.1859807  -0.0629584 SPIN=   0.00000
  Li   0.3220491  -0.1859807   0.0629584 SPIN=   0.00000
  Fe   0.3447922   0.3881269  -0.2212925 SPIN=   3.99822
  Fe  -0.3447922  -0.3881269   0.2212925 SPIN=   3.99822
  Fe  -0.4262986   0.1761093   0.3883658 SPIN=   4.00178
  Fe   0.4262986  -0.1761093  -0.3883658 SPIN=   4.00178
   O   0.0306568  -0.3327970  -0.0173567 SPIN=   0.00000
   O  -0.2576513  -0.5410886  -0.1855476 SPIN=   0.00000
   O  -0.2198486  -0.1739304  -0.1716537 SPIN=   0.00000
   O  -0.3526601  -0.2954178   0.0249722 SPIN=   0.00000
   S  -0.1998758  -0.3358085  -0.0873965 SPIN=   0.00000
   O  -0.0306568   0.3327970   0.0173567 SPIN=   0.00000
   O   0.2576513   0.5410886   0.1855476 SPIN=   0.00000
   O   0.2198486   0.1739304   0.1716537 SPIN=   0.00000
   O   0.3526601   0.2954178  -0.0249722 SPIN=   0.00000
   S   0.1998758   0.3358085   0.0873965 SPIN=   0.00000
   O   0.0287503   0.0913918   0.3856494 SPIN=   0.00000
   O  -0.0433241  -0.2284181   0.2038316 SPIN=   0.00000
   O   0.1553718  -0.2302770   0.4376621 SPIN=   0.00000
   O   0.3297502  -0.0792185   0.2682762 SPIN=   0.00000
   S   0.1176371  -0.1116305   0.3238548 SPIN=   0.00000
   O  -0.0287503  -0.0913918  -0.3856494 SPIN=   0.00000
   O   0.0433241   0.2284181  -0.2038316 SPIN=   0.00000
   O  -0.1553718   0.2302770  -0.4376621 SPIN=   0.00000
   O  -0.3297502   0.0792185  -0.2682762 SPIN=   0.00000
   S  -0.1176371   0.1116305  -0.3238548 SPIN=   0.00000
   F  -0.3037211   0.1268276   0.1635099 SPIN=   0.00000
   F   0.3037211  -0.1268276  -0.1635099 SPIN=   0.00000
   F  -0.3922353  -0.3078762   0.4307390 SPIN=   0.00000
   F   0.3922353   0.3078762  -0.4307390 SPIN=   0.00000
%ENDBLOCK POSITIONS_FRAC

# Note: total spin =  16.00

KPOINTS_MP_SPACING 0.07

%BLOCK SPECIES_POT
QC5
%ENDBLOCK SPECIES_POT

SNAP_TO_SYMMETRY
SYMMETRY_GENERATE

