#              Generated by Buildcell
#
# at 07:47:09 (GMT+1.0) 4th August 2020
# in /lustre/scratch/uccabz1/launch_tmp
# on node-c12n-034
# by uccabz1
#
# compiler GCC version 4.9.2
# options -cpp -iprefix /lustre/shared/ucl/apps/gcc/4.9.2/bin/../lib/gcc/x86_64-unknown-linux-gnu/4.9.2/ -mtune=corei7 -march=x86-64 -g -Og
#
# seed   168424246   -20146330   -63969241 -1444980586  1172850388   530374553 -1392604107   989942135  1458714724   832336763   237983919  -655798115
#
#      Author: C. J. Pickard (cjp20@cam.ac.uk)
#                Space group: P21
#

%BLOCK LATTICE_ABC
      5.66727      5.72124     12.46371
     90.00000     90.00000     98.18960
%ENDBLOCK LATTICE_ABC

%BLOCK POSITIONS_FRAC
  Li   0.3719783   0.3199497   0.4674384 SPIN=   0.00000
  Li  -0.3719783  -0.3199497  -0.0325616 SPIN=   0.00000
  Li   0.0808142  -0.3216258   0.1716785 SPIN=   0.00000
  Li  -0.0808142   0.3216258  -0.3283215 SPIN=   0.00000
  Fe   0.3947872   0.1298962  -0.3122643 SPIN=   3.97710
  Fe  -0.3947872  -0.1298962   0.1877357 SPIN=   3.97710
  Fe  -0.1028310   0.4935694   0.3842614 SPIN=   4.02290
  Fe   0.1028310  -0.4935694  -0.1157386 SPIN=   4.02290
   O   0.3615524   0.5943091   0.2538094 SPIN=   0.00000
   O   0.2054198   0.2580600   0.1368191 SPIN=   0.00000
   O   0.1890808   0.2124579   0.3342515 SPIN=   0.00000
   O   0.5769716   0.2483931   0.2400317 SPIN=   0.00000
   S   0.3332561   0.3283050   0.2412279 SPIN=   0.00000
   O  -0.3615524  -0.5943091  -0.2461906 SPIN=   0.00000
   O  -0.2054198  -0.2580600  -0.3631809 SPIN=   0.00000
   O  -0.1890808  -0.2124579  -0.1657485 SPIN=   0.00000
   O  -0.5769716  -0.2483931  -0.2599683 SPIN=   0.00000
   S  -0.3332561  -0.3283050  -0.2587721 SPIN=   0.00000
   O  -0.4784339   0.1189091   0.0740114 SPIN=   0.00000
   O  -0.4987291  -0.0543284  -0.1082764 SPIN=   0.00000
   O  -0.1490426   0.2314101  -0.0545687 SPIN=   0.00000
   O  -0.5397707   0.3671430  -0.0833461 SPIN=   0.00000
   S  -0.4164941   0.1657835  -0.0430450 SPIN=   0.00000
   O   0.4784339  -0.1189091   0.5740114 SPIN=   0.00000
   O   0.4987291   0.0543284   0.3917236 SPIN=   0.00000
   O   0.1490426  -0.2314101   0.4454313 SPIN=   0.00000
   O   0.5397707  -0.3671430   0.4166539 SPIN=   0.00000
   S   0.4164941  -0.1657835   0.4569550 SPIN=   0.00000
   F   0.2057332  -0.3458008   0.0199473 SPIN=   0.00000
   F  -0.2057332   0.3458008  -0.4800527 SPIN=   0.00000
   F   0.1189480   0.1612418  -0.2236022 SPIN=   0.00000
   F  -0.1189480  -0.1612418   0.2763978 SPIN=   0.00000
%ENDBLOCK POSITIONS_FRAC

# Note: total spin =  16.00

KPOINTS_MP_SPACING 0.07

%BLOCK SPECIES_POT
QC5
%ENDBLOCK SPECIES_POT

SNAP_TO_SYMMETRY
SYMMETRY_GENERATE

