#              Generated by Buildcell
#
# at 07:06:55 (GMT+1.0) 4th August 2020
# in /lustre/scratch/uccabz1/launch_tmp
# on node-c12l-035
# by uccabz1
#
# compiler GCC version 4.9.2
# options -cpp -iprefix /lustre/shared/ucl/apps/gcc/4.9.2/bin/../lib/gcc/x86_64-unknown-linux-gnu/4.9.2/ -mtune=corei7 -march=x86-64 -g -Og
#
# seed -1472936288  -528934688   523677439 -1306634700  -394790024 -2132637882  -603921511 -1052290167  1586537268  1871708329  -620590795 -1827583959
#
#      Author: C. J. Pickard (cjp20@cam.ac.uk)
#                Space group: Pc
#

%BLOCK LATTICE_ABC
      4.73985      7.37513     11.56311
     98.27814     90.00000     90.00000
%ENDBLOCK LATTICE_ABC

%BLOCK POSITIONS_FRAC
  Li   0.3449641   0.4994499  -0.2034866 SPIN=   0.00000
  Li  -0.3449641   0.4994499   0.2965134 SPIN=   0.00000
  Li   0.4779600  -0.1787877  -0.4097253 SPIN=   0.00000
  Li  -0.4779600  -0.1787877   0.0902747 SPIN=   0.00000
  Fe  -0.1550373   0.4925355  -0.0369475 SPIN=   3.44723
  Fe   0.1550373   0.4925355   0.4630525 SPIN=   3.44723
  Fe  -0.1240094   0.1562586  -0.3506210 SPIN=   4.55277
  Fe   0.1240094   0.1562586   0.1493790 SPIN=   4.55277
   O   0.1165639  -0.1335764   0.1331703 SPIN=   0.00000
   O  -0.2764035  -0.2637547   0.2357203 SPIN=   0.00000
   O   0.1868833  -0.2082022   0.3331026 SPIN=   0.00000
   O   0.1336395  -0.4573486   0.1666802 SPIN=   0.00000
   S   0.0401708  -0.2657205   0.2171683 SPIN=   0.00000
   O  -0.1165639  -0.1335764  -0.3668297 SPIN=   0.00000
   O   0.2764035  -0.2637547  -0.2642797 SPIN=   0.00000
   O  -0.1868833  -0.2082022  -0.1668974 SPIN=   0.00000
   O  -0.1336395  -0.4573486  -0.3333198 SPIN=   0.00000
   S  -0.0401708  -0.2657205  -0.2828317 SPIN=   0.00000
   O  -0.6119448  -0.0071390   0.4762489 SPIN=   0.00000
   O  -0.4262639   0.2968869   0.4476530 SPIN=   0.00000
   O  -0.6273608   0.0903353   0.2802987 SPIN=   0.00000
   O  -0.1700242   0.0153587   0.3652074 SPIN=   0.00000
   S  -0.4588984   0.0988605   0.3923520 SPIN=   0.00000
   O   0.6119448  -0.0071390  -0.0237511 SPIN=   0.00000
   O   0.4262639   0.2968869  -0.0523470 SPIN=   0.00000
   O   0.6273608   0.0903353  -0.2197013 SPIN=   0.00000
   O   0.1700242   0.0153587  -0.1347926 SPIN=   0.00000
   S   0.4588984   0.0988605  -0.1076480 SPIN=   0.00000
   F  -0.3799854  -0.3408602   0.4523660 SPIN=   0.00000
   F   0.3799854  -0.3408602  -0.0476340 SPIN=   0.00000
   F  -0.3135108   0.3201018   0.1575168 SPIN=   0.00000
   F   0.3135108   0.3201018  -0.3424832 SPIN=   0.00000
%ENDBLOCK POSITIONS_FRAC

# Note: total spin =  16.00

KPOINTS_MP_SPACING 0.07

%BLOCK SPECIES_POT
QC5
%ENDBLOCK SPECIES_POT

SNAP_TO_SYMMETRY
SYMMETRY_GENERATE

