#              Generated by Buildcell
#
# at 17:35:44 (GMT+1.0) 18th August 2020
# in /scratch/scratch/uccabz1/launch_tmp
# on node-k10h-019
# by uccabz1
#
# compiler GCC version 4.9.2
# options -cpp -iprefix /scratch/UCL/applications/gcc/4.9.2/bin/../lib/gcc/x86_64-unknown-linux-gnu/4.9.2/ -mtune=corei7 -march=x86-64 -g -O2
#
# seed  1939991501  -318011726 -1614506016 -1065777780   -52059612   299107212  1648092692  1348069128    70235819 -1574124681  -652585125  1869142591
#
#      Author: C. J. Pickard (cjp20@cam.ac.uk)
#                Space group: P21
#

%BLOCK LATTICE_ABC
      6.50893      8.07800      8.33661
    114.13973     90.00000     90.00000
%ENDBLOCK LATTICE_ABC

%BLOCK POSITIONS_FRAC
  Li   0.2755218   0.2591754  -0.4588642 SPIN=   0.00000
  Li  -0.2244782  -0.2591754   0.4588642 SPIN=   0.00000
  Li  -0.3961588   0.1029575   0.1223438 SPIN=   0.00000
  Li   0.1038412  -0.1029575  -0.1223438 SPIN=   0.00000
  Fe   0.4195826  -0.1210885   0.2855927 SPIN=   0.92909
  Fe  -0.0804174   0.1210885  -0.2855927 SPIN=   0.92909
  Fe  -0.2081783  -0.3903888  -0.1159456 SPIN=   7.07091
  Fe   0.2918217   0.3903888   0.1159456 SPIN=   7.07091
   O   0.4745639  -0.1348109  -0.2573896 SPIN=   0.00000
   O   0.5920885   0.1842491  -0.1417063 SPIN=   0.00000
   O   0.2201663   0.1145664  -0.1659339 SPIN=   0.00000
   O   0.4277487   0.0445695  -0.4345705 SPIN=   0.00000
   S   0.4286418   0.0521435  -0.2499001 SPIN=   0.00000
   O  -0.0254361   0.1348109   0.2573896 SPIN=   0.00000
   O   0.0920885  -0.1842491   0.1417063 SPIN=   0.00000
   O  -0.2798337  -0.1145664   0.1659339 SPIN=   0.00000
   O  -0.0722513  -0.0445695   0.4345705 SPIN=   0.00000
   S  -0.0713582  -0.0521435   0.2499001 SPIN=   0.00000
   O   0.2393079  -0.4329144  -0.3470967 SPIN=   0.00000
   O   0.1040741  -0.4695098  -0.0860353 SPIN=   0.00000
   O   0.3599204  -0.2301292  -0.0496890 SPIN=   0.00000
   O   0.4639908  -0.5530290  -0.1800415 SPIN=   0.00000
   S   0.2918233  -0.4213956  -0.1657156 SPIN=   0.00000
   O  -0.2606921   0.4329144   0.3470967 SPIN=   0.00000
   O  -0.3959259   0.4695098   0.0860353 SPIN=   0.00000
   O  -0.1400796   0.2301292   0.0496890 SPIN=   0.00000
   O  -0.0360092   0.5530290   0.1800415 SPIN=   0.00000
   S  -0.2081767   0.4213956   0.1657156 SPIN=   0.00000
   F   0.3362752  -0.3330820   0.3624954 SPIN=   0.00000
   F  -0.1637248   0.3330820  -0.3624954 SPIN=   0.00000
   F   0.4019519   0.1761725   0.3020808 SPIN=   0.00000
   F  -0.0980481  -0.1761725  -0.3020808 SPIN=   0.00000
%ENDBLOCK POSITIONS_FRAC

# Note: total spin =  16.00

KPOINTS_MP_SPACING 0.07

%BLOCK SPECIES_POT
QC5
%ENDBLOCK SPECIES_POT

SNAP_TO_SYMMETRY
SYMMETRY_GENERATE

