#              Generated by Buildcell
#
# at 15:41:49 (GMT+1.0) 18th August 2020
# in /lustre/scratch/uccabz1/launch_tmp
# on node-c12f-023
# by uccabz1
#
# compiler GCC version 4.9.2
# options -cpp -iprefix /lustre/shared/ucl/apps/gcc/4.9.2/bin/../lib/gcc/x86_64-unknown-linux-gnu/4.9.2/ -mtune=corei7 -march=x86-64 -g -Og
#
# seed  1076203355   747268490   147173510 -2015670191  1011559659 -1671338113 -1434325519  1293261300  -741149340   537771112 -1711357286 -1549932921
#
#      Author: C. J. Pickard (cjp20@cam.ac.uk)
#                Space group: P2
#

%BLOCK LATTICE_ABC
      4.34089      9.81734     10.25184
    113.71504     90.00000     90.00000
%ENDBLOCK LATTICE_ABC

%BLOCK POSITIONS_FRAC
  Li  -0.1263902   0.3883901   0.2523888 SPIN=   0.00000
  Li  -0.1263902  -0.3883901  -0.2523888 SPIN=   0.00000
  Li  -0.1558878  -0.1714336   0.1591633 SPIN=   0.00000
  Li  -0.1558878   0.1714336  -0.1591633 SPIN=   0.00000
  Fe   0.3223729  -0.3917794   0.1900457 SPIN=   5.67737
  Fe   0.3223729   0.3917794  -0.1900457 SPIN=   5.67737
  Fe   0.2682657  -0.0946032  -0.2924426 SPIN=   2.32263
  Fe   0.2682657   0.0946032   0.2924426 SPIN=   2.32263
   O   0.6495024  -0.2756070  -0.0470246 SPIN=   0.00000
   O   0.2131036  -0.2529187  -0.1923561 SPIN=   0.00000
   O   0.2534373  -0.0813829   0.0617721 SPIN=   0.00000
   O   0.1237899  -0.3463773  -0.0044462 SPIN=   0.00000
   S   0.3099583  -0.2390715  -0.0455137 SPIN=   0.00000
   O   0.6495024   0.2756070   0.0470246 SPIN=   0.00000
   O   0.2131036   0.2529187   0.1923561 SPIN=   0.00000
   O   0.2534373   0.0813829  -0.0617721 SPIN=   0.00000
   O   0.1237899   0.3463773   0.0044462 SPIN=   0.00000
   S   0.3099583   0.2390715   0.0455137 SPIN=   0.00000
   O  -0.2690467  -0.1605261   0.5164735 SPIN=   0.00000
   O  -0.4957113  -0.4096721   0.4572660 SPIN=   0.00000
   O   0.0300847  -0.3538458   0.5582370 SPIN=   0.00000
   O  -0.0681866  -0.3784345   0.3119514 SPIN=   0.00000
   S  -0.2007150  -0.3256196   0.4609820 SPIN=   0.00000
   O  -0.2690467   0.1605261  -0.5164735 SPIN=   0.00000
   O  -0.4957113   0.4096721  -0.4572660 SPIN=   0.00000
   O   0.0300847   0.3538458  -0.5582370 SPIN=   0.00000
   O  -0.0681866   0.3784345  -0.3119514 SPIN=   0.00000
   S  -0.2007150   0.3256196  -0.4609820 SPIN=   0.00000
   F  -0.2003103   0.0729869   0.1956947 SPIN=   0.00000
   F  -0.2003103  -0.0729869  -0.1956947 SPIN=   0.00000
   F   0.2993639   0.1534936  -0.3207486 SPIN=   0.00000
   F   0.2993639  -0.1534936   0.3207486 SPIN=   0.00000
%ENDBLOCK POSITIONS_FRAC

# Note: total spin =  16.00

KPOINTS_MP_SPACING 0.07

%BLOCK SPECIES_POT
QC5
%ENDBLOCK SPECIES_POT

SNAP_TO_SYMMETRY
SYMMETRY_GENERATE

