#              Generated by Buildcell
#
# at 02:59:06 (GMT+1.0) 18th August 2020
# in /lustre/scratch/uccabz1/launch_tmp
# on node-c12l-029
# by uccabz1
#
# compiler GCC version 4.9.2
# options -cpp -iprefix /lustre/shared/ucl/apps/gcc/4.9.2/bin/../lib/gcc/x86_64-unknown-linux-gnu/4.9.2/ -mtune=corei7 -march=x86-64 -g -Og
#
# seed   621847680 -1947430965  1310025562  -253776419  1865858116   342436114   312243978   171113083   490924191  1982480971  1403771735  -663104046
#
#      Author: C. J. Pickard (cjp20@cam.ac.uk)
#                Space group: P212121
#

%BLOCK LATTICE_ABC
      4.31014      8.59134     10.80208
     90.00000     90.00000     90.00000
%ENDBLOCK LATTICE_ABC

%BLOCK POSITIONS_FRAC
  Li  -0.2105785   0.1823515  -0.1502287 SPIN=   0.00000
  Li  -0.2894215  -0.3176485   0.1502287 SPIN=   0.00000
  Li   0.2105785   0.3176485   0.3497713 SPIN=   0.00000
  Li   0.2894215  -0.1823515  -0.3497713 SPIN=   0.00000
  Fe   0.2871575   0.1864408  -0.3705963 SPIN=   4.00000
  Fe   0.2128425  -0.3135592   0.3705963 SPIN=   4.00000
  Fe  -0.2871575   0.3135592   0.1294037 SPIN=   4.00000
  Fe  -0.2128425  -0.1864408  -0.1294037 SPIN=   4.00000
   O   0.5472587  -0.4569984   0.0019142 SPIN=   0.00000
   O   0.0993019  -0.5358130   0.1308119 SPIN=   0.00000
   O   0.0244695  -0.4770635  -0.0914872 SPIN=   0.00000
   O   0.1420803  -0.2644639   0.0558166 SPIN=   0.00000
   S   0.2032776  -0.4335847   0.0242639 SPIN=   0.00000
   O  -0.0472587   0.0430016  -0.0019142 SPIN=   0.00000
   O   0.4006981  -0.0358130  -0.1308119 SPIN=   0.00000
   O   0.4755305   0.0229365   0.0914872 SPIN=   0.00000
   O   0.3579197   0.2355361  -0.0558166 SPIN=   0.00000
   S   0.2967224   0.0664153  -0.0242639 SPIN=   0.00000
   O  -0.5472587  -0.0430016  -0.4980858 SPIN=   0.00000
   O  -0.0993019   0.0358130  -0.3691881 SPIN=   0.00000
   O  -0.0244695  -0.0229365  -0.5914872 SPIN=   0.00000
   O  -0.1420803  -0.2355361  -0.4441834 SPIN=   0.00000
   S  -0.2032776  -0.0664153  -0.4757361 SPIN=   0.00000
   O   0.0472587   0.4569984   0.4980858 SPIN=   0.00000
   O  -0.4006981   0.5358130   0.3691881 SPIN=   0.00000
   O  -0.4755305   0.4770635   0.5914872 SPIN=   0.00000
   O  -0.3579197   0.2644639   0.4441834 SPIN=   0.00000
   S  -0.2967224   0.4335847   0.4757361 SPIN=   0.00000
   F   0.0771739   0.3128641  -0.2596053 SPIN=   0.00000
   F   0.4228261  -0.1871359   0.2596053 SPIN=   0.00000
   F  -0.0771739   0.1871359   0.2403947 SPIN=   0.00000
   F  -0.4228261  -0.3128641  -0.2403947 SPIN=   0.00000
%ENDBLOCK POSITIONS_FRAC

# Note: total spin =  16.00

KPOINTS_MP_SPACING 0.07

%BLOCK SPECIES_POT
QC5
%ENDBLOCK SPECIES_POT

SNAP_TO_SYMMETRY
SYMMETRY_GENERATE

