#              Generated by Buildcell
#
# at 06:00:32 (GMT+1.0) 18th August 2020
# in /lustre/scratch/uccabz1/launch_tmp
# on node-c12k-029
# by uccabz1
#
# compiler GCC version 4.9.2
# options -cpp -iprefix /lustre/shared/ucl/apps/gcc/4.9.2/bin/../lib/gcc/x86_64-unknown-linux-gnu/4.9.2/ -mtune=corei7 -march=x86-64 -g -Og
#
# seed  1569377443   796058588   -52593152  -349715168  1444376923   863205090  1110741598     8229865  1982287344 -1997041634  1008750751  1678541055
#
#      Author: C. J. Pickard (cjp20@cam.ac.uk)
#                Space group: P-1
#

%BLOCK LATTICE_ABC
      7.04278      7.87432      7.92266
     87.84282     65.65523     88.63772
%ENDBLOCK LATTICE_ABC

%BLOCK POSITIONS_FRAC
  Li  -0.4538402   0.1503830  -0.3278792 SPIN=   0.00000
  Li   0.4538402  -0.1503830   0.3278792 SPIN=   0.00000
  Li  -0.0194820  -0.3765332   0.3158495 SPIN=   0.00000
  Li   0.0194820   0.3765332  -0.3158495 SPIN=   0.00000
  Fe  -0.4109674   0.1762264   0.1035038 SPIN=   4.74785
  Fe   0.4109674  -0.1762264  -0.1035038 SPIN=   4.74785
  Fe   0.1308682   0.2946124   0.0065082 SPIN=   3.25215
  Fe  -0.1308682  -0.2946124  -0.0065082 SPIN=   3.25215
   O  -0.3026785   0.3432816  -0.4823264 SPIN=   0.00000
   O  -0.4671491   0.6263207  -0.3940188 SPIN=   0.00000
   O  -0.1315672   0.5591054  -0.3745298 SPIN=   0.00000
   O  -0.4557031   0.4221698  -0.1530538 SPIN=   0.00000
   S  -0.3392745   0.4877194  -0.3509822 SPIN=   0.00000
   O   0.3026785  -0.3432816   0.4823264 SPIN=   0.00000
   O   0.4671491  -0.6263207   0.3940188 SPIN=   0.00000
   O   0.1315672  -0.5591054   0.3745298 SPIN=   0.00000
   O   0.4557031  -0.4221698   0.1530538 SPIN=   0.00000
   S   0.3392745  -0.4877194   0.3509822 SPIN=   0.00000
   O  -0.3954628  -0.0723752   0.5698922 SPIN=   0.00000
   O  -0.0169812  -0.1328569   0.4148931 SPIN=   0.00000
   O  -0.1633401   0.1290214   0.3305126 SPIN=   0.00000
   O  -0.2372276  -0.1511850   0.2406073 SPIN=   0.00000
   S  -0.2032529  -0.0568489   0.3889763 SPIN=   0.00000
   O   0.3954628   0.0723752  -0.5698922 SPIN=   0.00000
   O   0.0169812   0.1328569  -0.4148931 SPIN=   0.00000
   O   0.1633401  -0.1290214  -0.3305126 SPIN=   0.00000
   O   0.2372276   0.1511850  -0.2406073 SPIN=   0.00000
   S   0.2032529   0.0568489  -0.3889763 SPIN=   0.00000
   F   0.1472807  -0.3090140   0.0423054 SPIN=   0.00000
   F  -0.1472807   0.3090140  -0.0423054 SPIN=   0.00000
   F   0.2679368   0.1507488   0.1433614 SPIN=   0.00000
   F  -0.2679368  -0.1507488  -0.1433614 SPIN=   0.00000
%ENDBLOCK POSITIONS_FRAC

# Note: total spin =  16.00

KPOINTS_MP_SPACING 0.07

%BLOCK SPECIES_POT
QC5
%ENDBLOCK SPECIES_POT

SNAP_TO_SYMMETRY
SYMMETRY_GENERATE

