#              Generated by Buildcell
#
# at 09:32:29 (GMT+1.0) 4th August 2020
# in /lustre/scratch/uccabz1/launch_tmp
# on node-c12p-020
# by uccabz1
#
# compiler GCC version 4.9.2
# options -cpp -iprefix /lustre/shared/ucl/apps/gcc/4.9.2/bin/../lib/gcc/x86_64-unknown-linux-gnu/4.9.2/ -mtune=corei7 -march=x86-64 -g -Og
#
# seed  1491142312   787727962    68210685   427832260  -600427879 -1093090964 -1873136039   929595049  1485535575  -275246525  2060397621   825758926
#
#      Author: C. J. Pickard (cjp20@cam.ac.uk)
#                Space group: Cc
#

%BLOCK LATTICE_ABC
      7.09495      7.27618      9.58801
     75.50827     68.28496     60.82058
%ENDBLOCK LATTICE_ABC

%BLOCK POSITIONS_FRAC
  Li   0.2151118  -0.4388302  -0.0047207 SPIN=   0.00000
  Li  -0.2715608   0.0611698   0.4952793 SPIN=   0.00000
  Li  -0.1529017   0.5734577  -0.2539146 SPIN=   0.00000
  Li   0.3333586   0.0734577   0.2460854 SPIN=   0.00000
  Fe  -0.1657746   0.0583101  -0.0739055 SPIN=   4.12403
  Fe  -0.3186300   0.5583101   0.4260945 SPIN=   4.12403
  Fe   0.2005446   0.1876865  -0.4476379 SPIN=   3.87597
  Fe  -0.4405932   0.6876865   0.0523621 SPIN=   3.87597
   O   0.0079227   0.0751492   0.0491511 SPIN=   0.00000
   O   0.0221774   0.0467515   0.3080805 SPIN=   0.00000
   O  -0.3202621   0.3119565   0.2351885 SPIN=   0.00000
   O   0.0311686   0.3576726   0.1318522 SPIN=   0.00000
   S  -0.0647484   0.1978825   0.1810680 SPIN=   0.00000
   O   0.3677771  -0.4248508  -0.4508489 SPIN=   0.00000
   O   0.1229906  -0.4532485  -0.1919195 SPIN=   0.00000
   O   0.2731172  -0.1880435  -0.2648115 SPIN=   0.00000
   O  -0.0206934  -0.1423274  -0.3681478 SPIN=   0.00000
   S   0.1857979  -0.3021175  -0.3189320 SPIN=   0.00000
   O  -0.0142002  -0.3392824   0.4772121 SPIN=   0.00000
   O   0.1874961  -0.5953383   0.2837607 SPIN=   0.00000
   O   0.3707254  -0.3983877   0.3137170 SPIN=   0.00000
   O   0.0487570  -0.2119555   0.2067852 SPIN=   0.00000
   S   0.1481946  -0.3862410   0.3203688 SPIN=   0.00000
   O   0.3762705  -0.8392824  -0.0227879 SPIN=   0.00000
   O   0.6240816  -1.0953383  -0.2162393 SPIN=   0.00000
   O   0.2139452  -0.8983877  -0.1862830 SPIN=   0.00000
   O   0.4564133  -0.7119555  -0.2932148 SPIN=   0.00000
   S   0.4176777  -0.8862410  -0.1796312 SPIN=   0.00000
   F  -0.4785386  -0.0096195   0.4350172 SPIN=   0.00000
   F  -0.4468591   0.4903805  -0.0649828 SPIN=   0.00000
   F  -0.2147317  -0.2255358   0.0697859 SPIN=   0.00000
   F  -0.1295184   0.2744642  -0.4302141 SPIN=   0.00000
%ENDBLOCK POSITIONS_FRAC

# Note: total spin =  16.00

KPOINTS_MP_SPACING 0.07

%BLOCK SPECIES_POT
QC5
%ENDBLOCK SPECIES_POT

SNAP_TO_SYMMETRY
SYMMETRY_GENERATE

