#              Generated by Buildcell
#
# at 01:01:33 (GMT+1.0) 18th August 2020
# in /scratch/scratch/uccabz1/launch_tmp
# on node-k10a-026
# by uccabz1
#
# compiler GCC version 4.9.2
# options -cpp -iprefix /scratch/UCL/applications/gcc/4.9.2/bin/../lib/gcc/x86_64-unknown-linux-gnu/4.9.2/ -mtune=corei7 -march=x86-64 -g -O2
#
# seed -1338657297  1803326058   900293073 -1241080879  -783009818 -2132295583   667263426   935465509  2114795920  1970728378  1571663037  -227861240
#
#      Author: C. J. Pickard (cjp20@cam.ac.uk)
#                Space group: P21212
#

%BLOCK LATTICE_ABC
      6.82143      7.64521      7.67000
     90.00000     90.00000     90.00000
%ENDBLOCK LATTICE_ABC

%BLOCK POSITIONS_FRAC
  Li  -0.2215219   0.0484165  -0.2694439 SPIN=   0.00000
  Li  -0.2215219  -0.0484165   0.2694439 SPIN=   0.00000
  Li   0.2215219  -0.4515835  -0.2305561 SPIN=   0.00000
  Li   0.2215219   0.4515835   0.2305561 SPIN=   0.00000
  Fe  -0.3856048  -0.4025945   0.2861603 SPIN=   4.00000
  Fe  -0.3856048   0.4025945  -0.2861603 SPIN=   4.00000
  Fe   0.3856048   0.0974055   0.2138397 SPIN=   4.00000
  Fe   0.3856048  -0.0974055  -0.2138397 SPIN=   4.00000
   O   0.0865159   0.1595565  -0.5929059 SPIN=   0.00000
   O   0.2663641   0.3593949  -0.3957926 SPIN=   0.00000
   O   0.0664174   0.1188500  -0.2732971 SPIN=   0.00000
   O  -0.0956698   0.3727856  -0.4121057 SPIN=   0.00000
   S   0.0809069   0.2526467  -0.4185253 SPIN=   0.00000
   O   0.0865159  -0.1595565   0.5929059 SPIN=   0.00000
   O   0.2663641  -0.3593949   0.3957926 SPIN=   0.00000
   O   0.0664174  -0.1188500   0.2732971 SPIN=   0.00000
   O  -0.0956698  -0.3727856   0.4121057 SPIN=   0.00000
   S   0.0809069  -0.2526467   0.4185253 SPIN=   0.00000
   O  -0.0865159  -0.3404435   0.0929059 SPIN=   0.00000
   O  -0.2663641  -0.1406051  -0.1042074 SPIN=   0.00000
   O  -0.0664174  -0.3811500  -0.2267029 SPIN=   0.00000
   O   0.0956698  -0.1272144  -0.0878943 SPIN=   0.00000
   S  -0.0809069  -0.2473533  -0.0814747 SPIN=   0.00000
   O  -0.0865159   0.3404435  -0.0929059 SPIN=   0.00000
   O  -0.2663641   0.1406051   0.1042074 SPIN=   0.00000
   O  -0.0664174   0.3811500   0.2267029 SPIN=   0.00000
   O   0.0956698   0.1272144   0.0878943 SPIN=   0.00000
   S  -0.0809069   0.2473533   0.0814747 SPIN=   0.00000
   F  -0.4172247   0.2480988   0.4165378 SPIN=   0.00000
   F  -0.4172247  -0.2480988  -0.4165378 SPIN=   0.00000
   F   0.4172247  -0.2519012   0.0834622 SPIN=   0.00000
   F   0.4172247   0.2519012  -0.0834622 SPIN=   0.00000
%ENDBLOCK POSITIONS_FRAC

# Note: total spin =  16.00

KPOINTS_MP_SPACING 0.07

%BLOCK SPECIES_POT
QC5
%ENDBLOCK SPECIES_POT

SNAP_TO_SYMMETRY
SYMMETRY_GENERATE

