#              Generated by Buildcell
#
# at 10:37:41 (GMT+1.0) 18th August 2020
# in /lustre/scratch/uccabz1/launch_tmp
# on node-c12c-006
# by uccabz1
#
# compiler GCC version 4.9.2
# options -cpp -iprefix /lustre/shared/ucl/apps/gcc/4.9.2/bin/../lib/gcc/x86_64-unknown-linux-gnu/4.9.2/ -mtune=corei7 -march=x86-64 -g -Og
#
# seed -1542799552  -139352916  1263802287  1697802482  -294946188   524270407  1352432952 -1478238331  1394511849  -318624892  1664242771 -1353920321
#
#      Author: C. J. Pickard (cjp20@cam.ac.uk)
#                Space group: Pc
#

%BLOCK LATTICE_ABC
      6.71585      6.93760      8.84241
     90.00000     90.00000    103.85356
%ENDBLOCK LATTICE_ABC

%BLOCK POSITIONS_FRAC
  Li  -0.1508433   0.0911511   0.3517401 SPIN=   0.00000
  Li   0.3491567  -0.4088489  -0.3517401 SPIN=   0.00000
  Li  -0.0273988  -0.2198860  -0.1319403 SPIN=   0.00000
  Li   0.4726012   0.2801140   0.1319403 SPIN=   0.00000
  Fe  -0.4614992  -0.3121159   0.2843440 SPIN=   0.53632
  Fe   0.0385008   0.1878841  -0.2843440 SPIN=   0.53632
  Fe   0.4958316   0.0379373  -0.4168138 SPIN=   7.46368
  Fe  -0.0041684  -0.4620627   0.4168138 SPIN=   7.46368
   O  -0.3910021   0.6458111  -0.2392392 SPIN=   0.00000
   O  -0.2064462   0.4569707  -0.0755575 SPIN=   0.00000
   O  -0.1571657   0.4593060  -0.3529834 SPIN=   0.00000
   O  -0.4871671   0.2784404  -0.2415700 SPIN=   0.00000
   S  -0.3104452   0.4601320  -0.2273375 SPIN=   0.00000
   O   0.1089979   0.1458111   0.2392392 SPIN=   0.00000
   O   0.2935538  -0.0430293   0.0755575 SPIN=   0.00000
   O   0.3428343  -0.0406940   0.3529834 SPIN=   0.00000
   O   0.0128329  -0.2215596   0.2415700 SPIN=   0.00000
   S   0.1895548  -0.0398680   0.2273375 SPIN=   0.00000
   O   0.2967343   0.4609861   0.1790290 SPIN=   0.00000
   O   0.1001498   0.6429115   0.0194513 SPIN=   0.00000
   O   0.0146312   0.2755407   0.0171982 SPIN=   0.00000
   O   0.3377823   0.4645080  -0.0991764 SPIN=   0.00000
   S   0.1873244   0.4609866   0.0291255 SPIN=   0.00000
   O  -0.2032657  -0.0390139  -0.1790290 SPIN=   0.00000
   O  -0.3998502   0.1429115  -0.0194513 SPIN=   0.00000
   O  -0.4853688  -0.2244593  -0.0171982 SPIN=   0.00000
   O  -0.1622177  -0.0354920   0.0991764 SPIN=   0.00000
   S  -0.3126756  -0.0390134  -0.0291255 SPIN=   0.00000
   F  -0.2703200   0.3516843   0.2655428 SPIN=   0.00000
   F   0.2296800  -0.1483157  -0.2655428 SPIN=   0.00000
   F   0.2294392   0.3514840  -0.4879628 SPIN=   0.00000
   F  -0.2705608  -0.1485160   0.4879628 SPIN=   0.00000
%ENDBLOCK POSITIONS_FRAC

# Note: total spin =  16.00

KPOINTS_MP_SPACING 0.07

%BLOCK SPECIES_POT
QC5
%ENDBLOCK SPECIES_POT

SNAP_TO_SYMMETRY
SYMMETRY_GENERATE

