#              Generated by Buildcell
#
# at 02:26:03 (GMT+1.0) 18th August 2020
# in /lustre/scratch/uccabz1/launch_tmp
# on node-c12c-010
# by uccabz1
#
# compiler GCC version 4.9.2
# options -cpp -iprefix /lustre/shared/ucl/apps/gcc/4.9.2/bin/../lib/gcc/x86_64-unknown-linux-gnu/4.9.2/ -mtune=corei7 -march=x86-64 -g -Og
#
# seed   190715312   525165290   773657728  1449901951   552942616  -698679339   -68786024  1347878747 -1125231709 -1997793546  -968443797 -1917262498
#
#      Author: C. J. Pickard (cjp20@cam.ac.uk)
#                Space group: C2
#

%BLOCK LATTICE_ABC
      6.38968      8.06133      8.06133
     74.64658     87.92840     87.92840
%ENDBLOCK LATTICE_ABC

%BLOCK POSITIONS_FRAC
  Li   0.5000000  -0.4197306   0.4197306 SPIN=   0.00000
  Li  -0.5000000   0.2067052  -0.2067052 SPIN=   0.00000
  Li  -0.0000000   0.3836849  -0.3836849 SPIN=   0.00000
  Li   0.0000000   0.0097636  -0.0097636 SPIN=   0.00000
  Fe  -0.1908136  -0.7309236   0.2628886 SPIN=   4.36355
  Fe   0.1908136   0.7371114  -0.2690764 SPIN=   4.36355
  Fe   0.5000000  -0.1052639   0.1052639 SPIN=   4.21781
  Fe  -0.0000000  -0.3043719   0.3043719 SPIN=   3.05509
   O   0.0537551   0.0688808  -0.2850337 SPIN=   0.00000
   O  -0.1519161  -0.0970057  -0.4369225 SPIN=   0.00000
   O  -0.2586556   0.2033325  -0.4457455 SPIN=   0.00000
   O  -0.3005378  -0.0268539  -0.1750930 SPIN=   0.00000
   S  -0.1643386   0.0370884  -0.3356987 SPIN=   0.00000
   O  -0.0537551   0.2850337  -0.0688808 SPIN=   0.00000
   O   0.1519161   0.4369225   0.0970057 SPIN=   0.00000
   O   0.2586556   0.4457455  -0.2033325 SPIN=   0.00000
   O   0.3005378   0.1750930   0.0268539 SPIN=   0.00000
   S   0.1643386   0.3356987  -0.0370884 SPIN=   0.00000
   O  -0.4455558   0.7259743  -0.3559424 SPIN=   0.00000
   O  -0.1113171   0.6087243  -0.2203506 SPIN=   0.00000
   O  -0.3422105   0.4207611  -0.3255853 SPIN=   0.00000
   O  -0.4484490   0.5187532  -0.0679871 SPIN=   0.00000
   S  -0.3368831   0.5685532  -0.2424663 SPIN=   0.00000
   O   0.4455558  -0.6440576   0.2740257 SPIN=   0.00000
   O   0.1113171  -0.7796494   0.3912757 SPIN=   0.00000
   O   0.3422105  -0.6744147   0.5792389 SPIN=   0.00000
   O   0.4484490  -0.9320129   0.4812468 SPIN=   0.00000
   S   0.3368831  -0.7575337   0.4314468 SPIN=   0.00000
   F   0.2054196  -0.2244230   0.4596480 SPIN=   0.00000
   F  -0.2054196  -0.4596480   0.2244230 SPIN=   0.00000
   F   0.2950021  -0.1811428  -0.0542724 SPIN=   0.00000
   F  -0.2950021   0.0542724   0.1811428 SPIN=   0.00000
%ENDBLOCK POSITIONS_FRAC

# Note: total spin =  16.00

KPOINTS_MP_SPACING 0.07

%BLOCK SPECIES_POT
QC5
%ENDBLOCK SPECIES_POT

SNAP_TO_SYMMETRY
SYMMETRY_GENERATE

