#              Generated by Buildcell
#
# at 09:53:08 (GMT+1.0) 18th August 2020
# in /lustre/scratch/uccabz1/launch_tmp
# on node-c12e-006
# by uccabz1
#
# compiler GCC version 4.9.2
# options -cpp -iprefix /lustre/shared/ucl/apps/gcc/4.9.2/bin/../lib/gcc/x86_64-unknown-linux-gnu/4.9.2/ -mtune=corei7 -march=x86-64 -g -Og
#
# seed -1166816734 -1038422023  1876486699   113495526   -55634332  -724474120   979868814  -183735869 -1976149154  2072631436  -211668233  1642134756
#
#      Author: C. J. Pickard (cjp20@cam.ac.uk)
#                Space group: Pnn2
#

%BLOCK LATTICE_ABC
      4.14354      7.04181     13.70893
     90.00000     90.00000     90.00000
%ENDBLOCK LATTICE_ABC

%BLOCK POSITIONS_FRAC
  Li  -0.0339530  -0.4445930   0.2930035 SPIN=   0.00000
  Li  -0.0339530   0.4445930  -0.2930035 SPIN=   0.00000
  Li   0.4660470   0.0554070   0.2069965 SPIN=   0.00000
  Li   0.4660470  -0.0554070  -0.2069965 SPIN=   0.00000
  Fe   0.3945115   0.3412991  -0.1197182 SPIN=   4.00000
  Fe   0.3945115  -0.3412991   0.1197182 SPIN=   4.00000
  Fe  -0.1054885  -0.1587009  -0.3802818 SPIN=   4.00000
  Fe  -0.1054885   0.1587009   0.3802818 SPIN=   4.00000
   O   0.7747768   0.2012303  -0.4424822 SPIN=   0.00000
   O   0.3784650   0.3261029  -0.3236203 SPIN=   0.00000
   O   0.2656573   0.0271574  -0.4122117 SPIN=   0.00000
   O   0.2557806   0.3339269  -0.5002552 SPIN=   0.00000
   S   0.4186699   0.2221044  -0.4196424 SPIN=   0.00000
   O   0.7747768  -0.2012303   0.4424822 SPIN=   0.00000
   O   0.3784650  -0.3261029   0.3236203 SPIN=   0.00000
   O   0.2656573  -0.0271574   0.4122117 SPIN=   0.00000
   O   0.2557806  -0.3339269   0.5002552 SPIN=   0.00000
   S   0.4186699  -0.2221044   0.4196424 SPIN=   0.00000
   O   0.2747768  -0.2987697  -0.0575178 SPIN=   0.00000
   O  -0.1215350  -0.1738971  -0.1763797 SPIN=   0.00000
   O  -0.2343427  -0.4728426  -0.0877883 SPIN=   0.00000
   O  -0.2442194  -0.1660731   0.0002552 SPIN=   0.00000
   S  -0.0813301  -0.2778956  -0.0803576 SPIN=   0.00000
   O   0.2747768   0.2987697   0.0575178 SPIN=   0.00000
   O  -0.1215350   0.1738971   0.1763797 SPIN=   0.00000
   O  -0.2343427   0.4728426   0.0877883 SPIN=   0.00000
   O  -0.2442194   0.1660731  -0.0002552 SPIN=   0.00000
   S  -0.0813301   0.2778956   0.0803576 SPIN=   0.00000
   F  -0.0812479   0.2103545  -0.1912250 SPIN=   0.00000
   F  -0.0812479  -0.2103545   0.1912250 SPIN=   0.00000
   F   0.4187521  -0.2896455  -0.3087750 SPIN=   0.00000
   F   0.4187521   0.2896455   0.3087750 SPIN=   0.00000
%ENDBLOCK POSITIONS_FRAC

# Note: total spin =  16.00

KPOINTS_MP_SPACING 0.07

%BLOCK SPECIES_POT
QC5
%ENDBLOCK SPECIES_POT

SNAP_TO_SYMMETRY
SYMMETRY_GENERATE

