#              Generated by Buildcell
#
# at 15:22:39 (GMT+1.0) 18th August 2020
# in /lustre/scratch/uccabz1/launch_tmp
# on node-c12f-003
# by uccabz1
#
# compiler GCC version 4.9.2
# options -cpp -iprefix /lustre/shared/ucl/apps/gcc/4.9.2/bin/../lib/gcc/x86_64-unknown-linux-gnu/4.9.2/ -mtune=corei7 -march=x86-64 -g -Og
#
# seed -1406233207  -918943373  1655144149  1545630366  1524801741    96401612   -60676349   144212768 -1024540924 -1220545724  1071296540 -1102861836
#
#      Author: C. J. Pickard (cjp20@cam.ac.uk)
#                Space group: C2
#

%BLOCK LATTICE_ABC
      6.34942      8.11528      8.11528
     99.41282     99.10042     99.10042
%ENDBLOCK LATTICE_ABC

%BLOCK POSITIONS_FRAC
  Li  -0.0928672   0.3924245   0.0627446 SPIN=   0.00000
  Li   0.0928672  -0.0627446  -0.3924245 SPIN=   0.00000
  Li  -0.3011380  -0.1301105  -0.0834143 SPIN=   0.00000
  Li   0.3011380   0.0834143   0.1301105 SPIN=   0.00000
  Fe  -0.2523137   0.3334161   0.3885657 SPIN=   2.31674
  Fe   0.2523137  -0.3885657  -0.3334161 SPIN=   2.31674
  Fe  -0.5000000   0.1690782  -0.1690782 SPIN=   2.90803
  Fe   0.0000000  -0.2133903   0.2133903 SPIN=   8.45848
   O  -0.3080728   0.0584592  -0.4239912 SPIN=   0.00000
   O  -0.3219800  -0.2339351  -0.3693620 SPIN=   0.00000
   O  -0.3291409  -0.1808979  -0.6617837 SPIN=   0.00000
   O  -0.6474861  -0.1555818  -0.5250707 SPIN=   0.00000
   S  -0.4016700  -0.1279889  -0.4950519 SPIN=   0.00000
   O   0.3080728   0.4239912  -0.0584592 SPIN=   0.00000
   O   0.3219800   0.3693620   0.2339351 SPIN=   0.00000
   O   0.3291409   0.6617837   0.1808979 SPIN=   0.00000
   O   0.6474861   0.5250707   0.1555818 SPIN=   0.00000
   S   0.4016700   0.4950519   0.1279889 SPIN=   0.00000
   O   0.3088284   0.2662628   0.6432817 SPIN=   0.00000
   O   0.0087578   0.1098009   0.4103907 SPIN=   0.00000
   O   0.3903982   0.1088217   0.3802216 SPIN=   0.00000
   S   0.2371194   0.2141683   0.4519862 SPIN=   0.00000
   O  -0.3088284  -0.6432817  -0.2662628 SPIN=   0.00000
   O  -0.0087578  -0.4103907  -0.1098009 SPIN=   0.00000
   O  -0.3903982  -0.3802216  -0.1088217 SPIN=   0.00000
   S  -0.2371194  -0.4519862  -0.2141683 SPIN=   0.00000
   O  -0.0000000   0.3975630  -0.3975630 SPIN=   0.00000
   O   0.0000000  -0.0434243   0.0434243 SPIN=   0.00000
   F  -0.3137968   0.1545057   0.2111337 SPIN=   0.00000
   F   0.3137968  -0.2111337  -0.1545057 SPIN=   0.00000
   F  -0.0000000   0.1755563  -0.1755563 SPIN=   0.00000
   F  -0.0000000  -0.3604072   0.3604072 SPIN=   0.00000
%ENDBLOCK POSITIONS_FRAC

# Note: total spin =  16.00

KPOINTS_MP_SPACING 0.07

%BLOCK SPECIES_POT
QC5
%ENDBLOCK SPECIES_POT

SNAP_TO_SYMMETRY
SYMMETRY_GENERATE

