#              Generated by Buildcell
#
# at 08:08:03 (GMT+1.0) 4th August 2020
# in /lustre/scratch/uccabz1/launch_tmp
# on node-c12c-001
# by uccabz1
#
# compiler GCC version 4.9.2
# options -cpp -iprefix /lustre/shared/ucl/apps/gcc/4.9.2/bin/../lib/gcc/x86_64-unknown-linux-gnu/4.9.2/ -mtune=corei7 -march=x86-64 -g -Og
#
# seed  -715057295  -217370416   814053592 -1925276576  -111661516   507644073 -1682265525  1762045076  1009213171  -836094271  1533100186   952792803
#
#      Author: C. J. Pickard (cjp20@cam.ac.uk)
#                Space group: Pnn2
#

%BLOCK LATTICE_ABC
      4.13982      7.17518     13.46624
     90.00000     90.00000     90.00000
%ENDBLOCK LATTICE_ABC

%BLOCK POSITIONS_FRAC
  Li  -0.4541003  -0.0115203  -0.1366915 SPIN=   0.00000
  Li  -0.4541003   0.0115203   0.1366915 SPIN=   0.00000
  Li   0.0458997  -0.4884797   0.3633085 SPIN=   0.00000
  Li   0.0458997   0.4884797  -0.3633085 SPIN=   0.00000
  Fe  -0.4725979   0.2502296  -0.4770597 SPIN=   4.00000
  Fe  -0.4725979  -0.2502296   0.4770597 SPIN=   4.00000
  Fe   0.0274021   0.2497704   0.0229403 SPIN=   4.00000
  Fe   0.0274021  -0.2497704  -0.0229403 SPIN=   4.00000
   O  -0.5174659  -0.4134016  -0.3196195 SPIN=   0.00000
   O  -0.1264045  -0.5507734  -0.2014426 SPIN=   0.00000
   O  -0.6048215  -0.3808145  -0.1386396 SPIN=   0.00000
   O  -0.1609364  -0.2082953  -0.2205252 SPIN=   0.00000
   S  -0.3524071  -0.3883212  -0.2200567 SPIN=   0.00000
   O  -0.5174659   0.4134016   0.3196195 SPIN=   0.00000
   O  -0.1264045   0.5507734   0.2014426 SPIN=   0.00000
   O  -0.6048215   0.3808145   0.1386396 SPIN=   0.00000
   O  -0.1609364   0.2082953   0.2205252 SPIN=   0.00000
   S  -0.3524071   0.3883212   0.2200567 SPIN=   0.00000
   O  -0.0174659  -0.0865984   0.1803805 SPIN=   0.00000
   O   0.3735955   0.0507734   0.2985574 SPIN=   0.00000
   O  -0.1048215  -0.1191855   0.3613604 SPIN=   0.00000
   O   0.3390636  -0.2917047   0.2794748 SPIN=   0.00000
   S   0.1475929  -0.1116788   0.2799433 SPIN=   0.00000
   O  -0.0174659   0.0865984  -0.1803805 SPIN=   0.00000
   O   0.3735955  -0.0507734  -0.2985574 SPIN=   0.00000
   O  -0.1048215   0.1191855  -0.3613604 SPIN=   0.00000
   O   0.3390636   0.2917047  -0.2794748 SPIN=   0.00000
   S   0.1475929   0.1116788  -0.2799433 SPIN=   0.00000
   F  -0.0174000  -0.2500413  -0.4389486 SPIN=   0.00000
   F  -0.0174000   0.2500413   0.4389486 SPIN=   0.00000
   F   0.4826000  -0.2499587   0.0610514 SPIN=   0.00000
   F   0.4826000   0.2499587  -0.0610514 SPIN=   0.00000
%ENDBLOCK POSITIONS_FRAC

# Note: total spin =  16.00

KPOINTS_MP_SPACING 0.07

%BLOCK SPECIES_POT
QC5
%ENDBLOCK SPECIES_POT

SNAP_TO_SYMMETRY
SYMMETRY_GENERATE

