#              Generated by Buildcell
#
# at 06:36:46 (GMT+1.0) 18th August 2020
# in /scratch/scratch/uccabz1/launch_tmp
# on node-k10i-008
# by uccabz1
#
# compiler GCC version 4.9.2
# options -cpp -iprefix /scratch/UCL/applications/gcc/4.9.2/bin/../lib/gcc/x86_64-unknown-linux-gnu/4.9.2/ -mtune=corei7 -march=x86-64 -g -O2
#
# seed   636970474 -1528277165  1787649372 -1147967356   223671519  1732254500  1394268007  1039483265  1000689430  -188474516  -226021107  -284983681
#
#      Author: C. J. Pickard (cjp20@cam.ac.uk)
#                Space group: P21
#

%BLOCK LATTICE_ABC
      4.30826      9.07112     10.24358
     90.00000     92.31525     90.00000
%ENDBLOCK LATTICE_ABC

%BLOCK POSITIONS_FRAC
  Li   0.4231700  -0.0344881   0.3228054 SPIN=   0.00000
  Li  -0.4231700   0.4655119  -0.3228054 SPIN=   0.00000
  Li  -0.2826703   0.4008220   0.3434070 SPIN=   0.00000
  Li   0.2826703  -0.0991780  -0.3434070 SPIN=   0.00000
  Fe   0.0171984  -0.3058672   0.1905136 SPIN=   3.41046
  Fe  -0.0171984   0.1941328  -0.1905136 SPIN=   3.41046
  Fe  -0.4979101  -0.0301908   0.0265256 SPIN=   4.58954
  Fe   0.4979101   0.4698092  -0.0265256 SPIN=   4.58954
   O  -0.1276325  -0.2274364  -0.3524789 SPIN=   0.00000
   O   0.0022755  -0.0893466  -0.1491797 SPIN=   0.00000
   O  -0.0788785  -0.3592337  -0.1411029 SPIN=   0.00000
   O  -0.5251008  -0.1928428  -0.1873780 SPIN=   0.00000
   S  -0.1823341  -0.2172149  -0.2075349 SPIN=   0.00000
   O   0.1276325   0.2725636   0.3524789 SPIN=   0.00000
   O  -0.0022755   0.4106534   0.1491797 SPIN=   0.00000
   O   0.0788785   0.1407663   0.1411029 SPIN=   0.00000
   O   0.5251008   0.3071572   0.1873780 SPIN=   0.00000
   S   0.1823341   0.2827851   0.2075349 SPIN=   0.00000
   O  -0.3150177   0.2693404  -0.3882461 SPIN=   0.00000
   O  -0.7727581   0.1066414  -0.4207460 SPIN=   0.00000
   O  -0.2430486   0.0007430  -0.4167286 SPIN=   0.00000
   O  -0.4287455   0.1540503  -0.6038706 SPIN=   0.00000
   S  -0.4398925   0.1326938  -0.4573978 SPIN=   0.00000
   O   0.3150177  -0.2306596   0.3882461 SPIN=   0.00000
   O   0.7727581  -0.3933586   0.4207460 SPIN=   0.00000
   O   0.2430486  -0.4992570   0.4167286 SPIN=   0.00000
   O   0.4287455  -0.3459497   0.6038706 SPIN=   0.00000
   S   0.4398925  -0.3673062   0.4573978 SPIN=   0.00000
   F   0.3427900  -0.3555296   0.0592179 SPIN=   0.00000
   F  -0.3427900   0.1444704  -0.0592179 SPIN=   0.00000
   F   0.1374916   0.4131382  -0.2715740 SPIN=   0.00000
   F  -0.1374916  -0.0868618   0.2715740 SPIN=   0.00000
%ENDBLOCK POSITIONS_FRAC

# Note: total spin =  16.00

KPOINTS_MP_SPACING 0.07

%BLOCK SPECIES_POT
QC5
%ENDBLOCK SPECIES_POT

SNAP_TO_SYMMETRY
SYMMETRY_GENERATE

