#              Generated by Buildcell
#
# at 09:17:01 (GMT+1.0) 18th August 2020
# in /lustre/scratch/uccabz1/launch_tmp
# on node-c12l-006
# by uccabz1
#
# compiler GCC version 4.9.2
# options -cpp -iprefix /lustre/shared/ucl/apps/gcc/4.9.2/bin/../lib/gcc/x86_64-unknown-linux-gnu/4.9.2/ -mtune=corei7 -march=x86-64 -g -Og
#
# seed  2120294729  -742391865  1829277679   679188600 -1874259817  -678933219  1896912166  -833776760  1586089257  -121165653   342695992 -1850235450
#
#      Author: C. J. Pickard (cjp20@cam.ac.uk)
#                Space group: P2
#

%BLOCK LATTICE_ABC
      6.48216      6.49709      9.49833
     90.00000     90.00000     90.62103
%ENDBLOCK LATTICE_ABC

%BLOCK POSITIONS_FRAC
  Li  -0.2078335   0.1747095  -0.0088228 SPIN=   0.00000
  Li   0.2078335  -0.1747095  -0.0088228 SPIN=   0.00000
  Li   0.2509970  -0.3584913   0.3690036 SPIN=   0.00000
  Li  -0.2509970   0.3584913   0.3690036 SPIN=   0.00000
  Fe   0.1879177   0.2476578  -0.3689199 SPIN=   2.69294
  Fe  -0.1879177  -0.2476578  -0.3689199 SPIN=   2.69294
  Fe  -0.2513964  -0.1076498   0.2709402 SPIN=   5.30706
  Fe   0.2513964   0.1076498   0.2709402 SPIN=   5.30706
   O  -0.2129021   0.1004078  -0.2076130 SPIN=   0.00000
   O  -0.3238293   0.1204918  -0.4565081 SPIN=   0.00000
   O  -0.1816973   0.4296482  -0.3373146 SPIN=   0.00000
   O  -0.5263755   0.2937206  -0.2710672 SPIN=   0.00000
   S  -0.3112011   0.2360671  -0.3181257 SPIN=   0.00000
   O   0.2129021  -0.1004078  -0.2076130 SPIN=   0.00000
   O   0.3238293  -0.1204918  -0.4565081 SPIN=   0.00000
   O   0.1816973  -0.4296482  -0.3373146 SPIN=   0.00000
   O   0.5263755  -0.2937206  -0.2710672 SPIN=   0.00000
   S   0.3112011  -0.2360671  -0.3181257 SPIN=   0.00000
   O  -0.1060464  -0.2050434  -0.1274329 SPIN=   0.00000
   O  -0.4629648  -0.2413841  -0.0375823 SPIN=   0.00000
   O  -0.1675708  -0.3259089   0.1162227 SPIN=   0.00000
   O  -0.2559943  -0.5515373  -0.0853509 SPIN=   0.00000
   S  -0.2481441  -0.3309684  -0.0335358 SPIN=   0.00000
   O   0.1060464   0.2050434  -0.1274329 SPIN=   0.00000
   O   0.4629648   0.2413841  -0.0375823 SPIN=   0.00000
   O   0.1675708   0.3259089   0.1162227 SPIN=   0.00000
   O   0.2559943   0.5515373  -0.0853509 SPIN=   0.00000
   S   0.2481441   0.3309684  -0.0335358 SPIN=   0.00000
   F   0.2415093   0.3360616   0.4233315 SPIN=   0.00000
   F  -0.2415093  -0.3360616   0.4233315 SPIN=   0.00000
   F  -0.2697449   0.1894460   0.1890779 SPIN=   0.00000
   F   0.2697449  -0.1894460   0.1890779 SPIN=   0.00000
%ENDBLOCK POSITIONS_FRAC

# Note: total spin =  16.00

KPOINTS_MP_SPACING 0.07

%BLOCK SPECIES_POT
QC5
%ENDBLOCK SPECIES_POT

SNAP_TO_SYMMETRY
SYMMETRY_GENERATE

