#              Generated by Buildcell
#
# at 08:32:43 (GMT+1.0) 4th August 2020
# in /lustre/scratch/uccabz1/launch_tmp
# on node-c12f-026
# by uccabz1
#
# compiler GCC version 4.9.2
# options -cpp -iprefix /lustre/shared/ucl/apps/gcc/4.9.2/bin/../lib/gcc/x86_64-unknown-linux-gnu/4.9.2/ -mtune=corei7 -march=x86-64 -g -Og
#
# seed  -636299510   638867063  1955817411  1929901034  1548168289   535706838  -338417818 -1361064866  -435415003  -374505513  -704479959 -1218228000
#
#      Author: C. J. Pickard (cjp20@cam.ac.uk)
#                Space group: P2
#

%BLOCK LATTICE_ABC
      6.49564      7.92552      8.23264
    109.30350     90.00000     90.00000
%ENDBLOCK LATTICE_ABC

%BLOCK POSITIONS_FRAC
  Li   0.3811857  -0.2177613  -0.4287908 SPIN=   0.00000
  Li   0.3811857   0.2177613   0.4287908 SPIN=   0.00000
  Li  -0.3130761   0.1973526  -0.0847140 SPIN=   0.00000
  Li  -0.3130761  -0.1973526   0.0847140 SPIN=   0.00000
  Fe   0.0111206   0.2264394   0.1872466 SPIN=   4.00545
  Fe   0.0111206  -0.2264394  -0.1872466 SPIN=   4.00545
  Fe   0.2534216  -0.1687056   0.2288770 SPIN=   3.99455
  Fe   0.2534216   0.1687056  -0.2288770 SPIN=   3.99455
   O   0.1035435   0.2055120  -0.4434761 SPIN=   0.00000
   O  -0.0566307   0.5053983  -0.3606882 SPIN=   0.00000
   O  -0.2320949   0.2596639  -0.2927543 SPIN=   0.00000
   O  -0.2087739   0.2537300  -0.5946479 SPIN=   0.00000
   S  -0.0984890   0.3060760  -0.4228917 SPIN=   0.00000
   O   0.1035435  -0.2055120   0.4434761 SPIN=   0.00000
   O  -0.0566307  -0.5053983   0.3606882 SPIN=   0.00000
   O  -0.2320949  -0.2596639   0.2927543 SPIN=   0.00000
   O  -0.2087739  -0.2537300   0.5946479 SPIN=   0.00000
   S  -0.0984890  -0.3060760   0.4228917 SPIN=   0.00000
   O   0.2231052  -0.4447431   0.2234037 SPIN=   0.00000
   O   0.5407448  -0.4192406   0.3959061 SPIN=   0.00000
   O   0.5447826  -0.5890584   0.0838815 SPIN=   0.00000
   S   0.4169467  -0.5405945   0.2468736 SPIN=   0.00000
   O   0.2231052   0.4447431  -0.2234037 SPIN=   0.00000
   O   0.5407448   0.4192406  -0.3959061 SPIN=   0.00000
   O   0.5447826   0.5890584  -0.0838815 SPIN=   0.00000
   S   0.4169467   0.5405945  -0.2468736 SPIN=   0.00000
   O   0.2465591  -0.5000000  -0.5000000 SPIN=   0.00000
   O  -0.1553168   0.0000000   0.5000000 SPIN=   0.00000
   F   0.0024875  -0.2493612   0.0257509 SPIN=   0.00000
   F   0.0024875   0.2493612  -0.0257509 SPIN=   0.00000
   F  -0.4975443   0.0000000   0.0000000 SPIN=   0.00000
   F   0.4396727   0.0000000   0.5000000 SPIN=   0.00000
%ENDBLOCK POSITIONS_FRAC

# Note: total spin =  16.00

KPOINTS_MP_SPACING 0.07

%BLOCK SPECIES_POT
QC5
%ENDBLOCK SPECIES_POT

SNAP_TO_SYMMETRY
SYMMETRY_GENERATE

