#              Generated by Buildcell
#
# at 09:16:31 (GMT+1.0) 18th August 2020
# in /lustre/scratch/uccabz1/launch_tmp
# on node-c12e-014
# by uccabz1
#
# compiler GCC version 4.9.2
# options -cpp -iprefix /lustre/shared/ucl/apps/gcc/4.9.2/bin/../lib/gcc/x86_64-unknown-linux-gnu/4.9.2/ -mtune=corei7 -march=x86-64 -g -Og
#
# seed -1121687980  -803965537 -1010496394   295490353  1369851287  -461115388  -594895394   596412458  -525106670  -711771375   196920807  -692939998
#
#      Author: C. J. Pickard (cjp20@cam.ac.uk)
#                Space group: P21
#

%BLOCK LATTICE_ABC
      7.19962      7.44030      8.03355
    111.64189     90.00000     90.00000
%ENDBLOCK LATTICE_ABC

%BLOCK POSITIONS_FRAC
  Li   0.4657247  -0.3417275   0.0102533 SPIN=   0.00000
  Li  -0.0342753   0.3417275  -0.0102533 SPIN=   0.00000
  Li   0.1253287  -0.4909395   0.4790656 SPIN=   0.00000
  Li  -0.3746713   0.4909395  -0.4790656 SPIN=   0.00000
  Fe   0.3950286   0.2863758   0.2063585 SPIN=   5.33656
  Fe  -0.1049714  -0.2863758  -0.2063585 SPIN=   5.33656
  Fe   0.3324585  -0.1303553  -0.4497794 SPIN=   2.66344
  Fe  -0.1675415   0.1303553   0.4497794 SPIN=   2.66344
   O   0.2221143   0.1433904  -0.2594658 SPIN=   0.00000
   O   0.2486645   0.4987904  -0.1110036 SPIN=   0.00000
   O  -0.0070200   0.3563240  -0.3250663 SPIN=   0.00000
   O   0.3160584   0.3408941  -0.4347162 SPIN=   0.00000
   S   0.1949543   0.3348498  -0.2825630 SPIN=   0.00000
   O  -0.2778857  -0.1433904   0.2594658 SPIN=   0.00000
   O  -0.2513355  -0.4987904   0.1110036 SPIN=   0.00000
   O  -0.5070200  -0.3563240   0.3250663 SPIN=   0.00000
   O  -0.1839416  -0.3408941   0.4347162 SPIN=   0.00000
   S  -0.3050457  -0.3348498   0.2825630 SPIN=   0.00000
   O   0.3244643  -0.1191800   0.2848015 SPIN=   0.00000
   O   0.0616440  -0.3129242   0.1108786 SPIN=   0.00000
   O   0.2365765  -0.0974125  -0.0050016 SPIN=   0.00000
   O   0.0313714   0.0422147   0.2586465 SPIN=   0.00000
   S   0.1635140  -0.1218255   0.1623313 SPIN=   0.00000
   O  -0.1755357   0.1191800  -0.2848015 SPIN=   0.00000
   O  -0.4383560   0.3129242  -0.1108786 SPIN=   0.00000
   O  -0.2634235   0.0974125   0.0050016 SPIN=   0.00000
   O  -0.4686286  -0.0422147  -0.2586465 SPIN=   0.00000
   S  -0.3364860   0.1218255  -0.1623313 SPIN=   0.00000
   F  -0.4151432   0.1988032   0.3407983 SPIN=   0.00000
   F   0.0848568  -0.1988032  -0.3407983 SPIN=   0.00000
   F   0.1446363   0.3944990   0.2033360 SPIN=   0.00000
   F  -0.3553637  -0.3944990  -0.2033360 SPIN=   0.00000
%ENDBLOCK POSITIONS_FRAC

# Note: total spin =  16.00

KPOINTS_MP_SPACING 0.07

%BLOCK SPECIES_POT
QC5
%ENDBLOCK SPECIES_POT

SNAP_TO_SYMMETRY
SYMMETRY_GENERATE

