#              Generated by Buildcell
#
# at 02:16:25 (GMT+1.0) 18th August 2020
# in /lustre/scratch/uccabz1/launch_tmp
# on node-c12e-036
# by uccabz1
#
# compiler GCC version 4.9.2
# options -cpp -iprefix /lustre/shared/ucl/apps/gcc/4.9.2/bin/../lib/gcc/x86_64-unknown-linux-gnu/4.9.2/ -mtune=corei7 -march=x86-64 -g -Og
#
# seed -1760755811  1939861354  1078689422  -529568575  2115868953 -1262092732  1230059932  1753682289  1181813359  -566456401  1237091097  1016161136
#
#      Author: C. J. Pickard (cjp20@cam.ac.uk)
#                Space group: P-1
#

%BLOCK LATTICE_ABC
      4.00951      8.87763     11.40424
     86.49215     80.92654     88.16434
%ENDBLOCK LATTICE_ABC

%BLOCK POSITIONS_FRAC
  Li   0.2317797   0.1482381  -0.0890844 SPIN=   0.00000
  Li  -0.2317797  -0.1482381   0.0890844 SPIN=   0.00000
  Li  -0.5000000  -0.5000000   0.0000000 SPIN=   0.00000
  Li   0.0000000   0.5000000  -0.5000000 SPIN=   0.00000
  Fe  -0.0787906   0.4773472   0.1886042 SPIN=   2.16475
  Fe   0.0787906  -0.4773472  -0.1886042 SPIN=   2.16475
  Fe   0.4250650   0.2206333   0.4362056 SPIN=   5.83525
  Fe  -0.4250650  -0.2206333  -0.4362056 SPIN=   5.83525
   O  -0.0498911  -0.2164100  -0.0979281 SPIN=   0.00000
   O  -0.2092900  -0.0637978  -0.2703405 SPIN=   0.00000
   O  -0.5891366  -0.0696008  -0.0767936 SPIN=   0.00000
   O  -0.5193203  -0.2957312  -0.1957103 SPIN=   0.00000
   S  -0.3419095  -0.1613849  -0.1601931 SPIN=   0.00000
   O   0.0498911   0.2164100   0.0979281 SPIN=   0.00000
   O   0.2092900   0.0637978   0.2703405 SPIN=   0.00000
   O   0.5891366   0.0696008   0.0767936 SPIN=   0.00000
   O   0.5193203   0.2957312   0.1957103 SPIN=   0.00000
   S   0.3419095   0.1613849   0.1601931 SPIN=   0.00000
   O  -0.4589587   0.4073406  -0.2323083 SPIN=   0.00000
   O  -0.1563623   0.1689674  -0.1863737 SPIN=   0.00000
   O  -0.0738368   0.2845018  -0.3916408 SPIN=   0.00000
   O  -0.6182673   0.1680279  -0.3069109 SPIN=   0.00000
   S  -0.3268563   0.2572094  -0.2793084 SPIN=   0.00000
   O   0.4589587  -0.4073406   0.2323083 SPIN=   0.00000
   O   0.1563623  -0.1689674   0.1863737 SPIN=   0.00000
   O   0.0738368  -0.2845018   0.3916408 SPIN=   0.00000
   O   0.6182673  -0.1680279   0.3069109 SPIN=   0.00000
   S   0.3268563  -0.2572094   0.2793084 SPIN=   0.00000
   F   0.1756158  -0.4070155  -0.3671653 SPIN=   0.00000
   F  -0.1756158   0.4070155   0.3671653 SPIN=   0.00000
   F   0.0000000  -0.5000000   0.0000000 SPIN=   0.00000
   F  -0.5000000  -0.0000000  -0.5000000 SPIN=   0.00000
%ENDBLOCK POSITIONS_FRAC

# Note: total spin =  16.00

KPOINTS_MP_SPACING 0.07

%BLOCK SPECIES_POT
QC5
%ENDBLOCK SPECIES_POT

SNAP_TO_SYMMETRY
SYMMETRY_GENERATE

