#              Generated by Buildcell
#
# at 00:31:19 (GMT+1.0) 18th August 2020
# in /lustre/scratch/uccabz1/launch_tmp
# on node-c12e-001
# by uccabz1
#
# compiler GCC version 4.9.2
# options -cpp -iprefix /lustre/shared/ucl/apps/gcc/4.9.2/bin/../lib/gcc/x86_64-unknown-linux-gnu/4.9.2/ -mtune=corei7 -march=x86-64 -g -Og
#
# seed -1337189606  -705862438 -2128197354   316428082  1065304770  1720862128 -1003543904  -253776419 -1901807876  1631628198  1707849581   313643322
#
#      Author: C. J. Pickard (cjp20@cam.ac.uk)
#                Space group: Cc
#

%BLOCK LATTICE_ABC
      5.16641      6.49837     13.04278
     94.98322     90.00000    113.42300
%ENDBLOCK LATTICE_ABC

%BLOCK POSITIONS_FRAC
  Li  -0.1586071   0.1286336   0.3351213 SPIN=   0.00000
  Li   0.2872407   0.1286336  -0.1648787 SPIN=   0.00000
  Li  -0.2004426   0.1545368  -0.3751644 SPIN=   0.00000
  Li   0.3549794   0.1545368   0.1248356 SPIN=   0.00000
  Fe   0.0680260  -0.3657907  -0.4376962 SPIN=   3.00696
  Fe  -0.4338167  -0.3657907   0.0623038 SPIN=   3.00696
  Fe   0.3747742   0.1965091   0.4589794 SPIN=   4.99304
  Fe  -0.1782651   0.1965091  -0.0410206 SPIN=   4.99304
   O   0.2502980  -0.5547871   0.1829466 SPIN=   0.00000
   O  -0.0485080  -0.3893941   0.1034886 SPIN=   0.00000
   O   0.0896429  -0.2962917   0.2888829 SPIN=   0.00000
   O  -0.2525914  -0.6783936   0.2256950 SPIN=   0.00000
   S   0.0097104  -0.4797166   0.2002533 SPIN=   0.00000
   O  -0.8050851  -0.5547871  -0.3170534 SPIN=   0.00000
   O  -0.3408860  -0.3893941  -0.3965114 SPIN=   0.00000
   O  -0.3859346  -0.2962917  -0.2111171 SPIN=   0.00000
   O  -0.4258022  -0.6783936  -0.2743050 SPIN=   0.00000
   S  -0.4894270  -0.4797166  -0.2997467 SPIN=   0.00000
   O   0.2298425  -0.4384441  -0.0476110 SPIN=   0.00000
   O   0.1879944  -0.2267592  -0.1910954 SPIN=   0.00000
   O   0.2402650  -0.0549850  -0.0112779 SPIN=   0.00000
   O  -0.2047907  -0.3723507  -0.0727028 SPIN=   0.00000
   S   0.1133278  -0.2731348  -0.0806718 SPIN=   0.00000
   O  -0.6682866  -0.4384441   0.4523890 SPIN=   0.00000
   O  -0.4147536  -0.2267592   0.3089046 SPIN=   0.00000
   O  -0.2952501  -0.0549850   0.4887221 SPIN=   0.00000
   O  -0.1675600  -0.3723507   0.4272972 SPIN=   0.00000
   S  -0.3864626  -0.2731348   0.4193282 SPIN=   0.00000
   F  -0.2827784  -0.0836930   0.1308019 SPIN=   0.00000
   F   0.1990853  -0.0836930  -0.3691981 SPIN=   0.00000
   F   0.2883239   0.1352795   0.3205404 SPIN=   0.00000
   F  -0.1530445   0.1352795  -0.1794596 SPIN=   0.00000
%ENDBLOCK POSITIONS_FRAC

# Note: total spin =  16.00

KPOINTS_MP_SPACING 0.07

%BLOCK SPECIES_POT
QC5
%ENDBLOCK SPECIES_POT

SNAP_TO_SYMMETRY
SYMMETRY_GENERATE

