#              Generated by Buildcell
#
# at 08:12:50 (GMT+1.0) 4th August 2020
# in /lustre/scratch/uccabz1/launch_tmp
# on node-c12m-020
# by uccabz1
#
# compiler GCC version 4.9.2
# options -cpp -iprefix /lustre/shared/ucl/apps/gcc/4.9.2/bin/../lib/gcc/x86_64-unknown-linux-gnu/4.9.2/ -mtune=corei7 -march=x86-64 -g -Og
#
# seed   -81928172   313788796   -40249511 -2108962840  -961442963 -1084005781 -1421552794   458154642   433395100 -1472814117 -1883982585   263932466
#
#      Author: C. J. Pickard (cjp20@cam.ac.uk)
#                Space group: P-1
#

%BLOCK LATTICE_ABC
      6.44773      7.88141      8.59316
     76.34980     70.77619     82.45405
%ENDBLOCK LATTICE_ABC

%BLOCK POSITIONS_FRAC
  Li  -0.0366118   0.0315837   0.3005485 SPIN=   0.00000
  Li   0.0366118  -0.0315837  -0.3005485 SPIN=   0.00000
  Li  -0.4670033   0.1530452  -0.3598694 SPIN=   0.00000
  Li   0.4670033  -0.1530452   0.3598694 SPIN=   0.00000
  Fe   0.3320411   0.2257818   0.2964248 SPIN=   6.76576
  Fe  -0.3320411  -0.2257818  -0.2964248 SPIN=   6.76576
  Fe   0.1533526   0.1977380  -0.0597554 SPIN=   1.23424
  Fe  -0.1533526  -0.1977380   0.0597554 SPIN=   1.23424
   O  -0.3224336   0.4619785  -0.0776641 SPIN=   0.00000
   O  -0.2044487   0.4352233  -0.3760193 SPIN=   0.00000
   O  -0.4965285   0.2536572  -0.1644431 SPIN=   0.00000
   O  -0.1109908   0.1949549  -0.1617321 SPIN=   0.00000
   S  -0.2836004   0.3364535  -0.1949646 SPIN=   0.00000
   O   0.3224336  -0.4619785   0.0776641 SPIN=   0.00000
   O   0.2044487  -0.4352233   0.3760193 SPIN=   0.00000
   O   0.4965285  -0.2536572   0.1644431 SPIN=   0.00000
   O   0.1109908  -0.1949549   0.1617321 SPIN=   0.00000
   S   0.2836004  -0.3364535   0.1949646 SPIN=   0.00000
   O  -0.0205312   0.5017641   0.2506607 SPIN=   0.00000
   O  -0.2362224   0.3328108   0.1555045 SPIN=   0.00000
   O  -0.4273044   0.5205298   0.3602584 SPIN=   0.00000
   O  -0.2182013   0.2483612   0.4472359 SPIN=   0.00000
   S  -0.2255648   0.4008665   0.3034149 SPIN=   0.00000
   O   0.0205312  -0.5017641  -0.2506607 SPIN=   0.00000
   O   0.2362224  -0.3328108  -0.1555045 SPIN=   0.00000
   O   0.4273044  -0.5205298  -0.3602584 SPIN=   0.00000
   O   0.2182013  -0.2483612  -0.4472359 SPIN=   0.00000
   S   0.2255648  -0.4008665  -0.3034149 SPIN=   0.00000
   F  -0.2430308  -0.1276127  -0.1392421 SPIN=   0.00000
   F   0.2430308   0.1276127   0.1392421 SPIN=   0.00000
   F   0.2561766   0.1863222  -0.4134699 SPIN=   0.00000
   F  -0.2561766  -0.1863222   0.4134699 SPIN=   0.00000
%ENDBLOCK POSITIONS_FRAC

# Note: total spin =  16.00

KPOINTS_MP_SPACING 0.07

%BLOCK SPECIES_POT
QC5
%ENDBLOCK SPECIES_POT

SNAP_TO_SYMMETRY
SYMMETRY_GENERATE

