#              Generated by Buildcell
#
# at 11:21:13 (GMT+1.0) 18th August 2020
# in /scratch/scratch/uccabz1/launch_tmp
# on node-k10h-025
# by uccabz1
#
# compiler GCC version 4.9.2
# options -cpp -iprefix /scratch/UCL/applications/gcc/4.9.2/bin/../lib/gcc/x86_64-unknown-linux-gnu/4.9.2/ -mtune=corei7 -march=x86-64 -g -O2
#
# seed  1662819497   460260406 -1781169717  1834221597  1937730261   425621602  1394264976  -918050533  -259847252  -339528469  1682896168   115716648
#
#      Author: C. J. Pickard (cjp20@cam.ac.uk)
#                Space group: Pc
#

%BLOCK LATTICE_ABC
      6.94852      7.78201      8.00956
     90.00000    112.54727     90.00000
%ENDBLOCK LATTICE_ABC

%BLOCK POSITIONS_FRAC
  Li  -0.0313865   0.3583193   0.3105567 SPIN=   0.00000
  Li   0.4686135  -0.3583193   0.3105567 SPIN=   0.00000
  Li   0.1331225   0.0743193  -0.2549633 SPIN=   0.00000
  Li  -0.3668775  -0.0743193  -0.2549633 SPIN=   0.00000
  Fe  -0.2169564  -0.4318884  -0.2420527 SPIN=   3.93918
  Fe  -0.7169564   0.4318884  -0.2420527 SPIN=   3.93918
  Fe   0.7940272  -0.0895912   0.4389003 SPIN=   4.06082
  Fe   0.2940272   0.0895912   0.4389003 SPIN=   4.06082
   O   0.6351069   0.1536099   0.2734623 SPIN=   0.00000
   O   0.6377493   0.4275116   0.1173371 SPIN=   0.00000
   O   0.4134134   0.3958208   0.2921503 SPIN=   0.00000
   O   0.3277039   0.2386808   0.0039294 SPIN=   0.00000
   S   0.5034934   0.3039058   0.1717198 SPIN=   0.00000
   O   0.1351069  -0.1536099   0.2734623 SPIN=   0.00000
   O   0.1377493  -0.4275116   0.1173371 SPIN=   0.00000
   O  -0.0865866  -0.3958208   0.2921503 SPIN=   0.00000
   O  -0.1722961  -0.2386808   0.0039294 SPIN=   0.00000
   S   0.0034934  -0.3039058   0.1717198 SPIN=   0.00000
   O   0.4782465  -0.3158823  -0.1463712 SPIN=   0.00000
   O   0.1810911  -0.2112714  -0.0765212 SPIN=   0.00000
   O   0.4351630  -0.0043996  -0.1087792 SPIN=   0.00000
   O   0.5391630  -0.1977200   0.1565804 SPIN=   0.00000
   S   0.4084159  -0.1823183  -0.0437728 SPIN=   0.00000
   O  -0.0217535   0.3158823  -0.1463712 SPIN=   0.00000
   O  -0.3189089   0.2112714  -0.0765212 SPIN=   0.00000
   O  -0.0648370   0.0043996  -0.1087792 SPIN=   0.00000
   O   0.0391630   0.1977200   0.1565804 SPIN=   0.00000
   S  -0.0915841   0.1823183  -0.0437728 SPIN=   0.00000
   F   0.5021275  -0.0906993   0.4863318 SPIN=   0.00000
   F   0.0021275   0.0906993   0.4863318 SPIN=   0.00000
   F  -0.5599038   0.4095031  -0.3862591 SPIN=   0.00000
   F  -0.0599038  -0.4095031  -0.3862591 SPIN=   0.00000
%ENDBLOCK POSITIONS_FRAC

# Note: total spin =  16.00

KPOINTS_MP_SPACING 0.07

%BLOCK SPECIES_POT
QC5
%ENDBLOCK SPECIES_POT

SNAP_TO_SYMMETRY
SYMMETRY_GENERATE

