#              Generated by Buildcell
#
# at 06:37:50 (GMT+1.0) 4th August 2020
# in /lustre/scratch/uccabz1/launch_tmp
# on node-c12g-001
# by uccabz1
#
# compiler GCC version 4.9.2
# options -cpp -iprefix /lustre/shared/ucl/apps/gcc/4.9.2/bin/../lib/gcc/x86_64-unknown-linux-gnu/4.9.2/ -mtune=corei7 -march=x86-64 -g -Og
#
# seed -1643446758  1616765269 -2071878914 -1452921055 -1443158862  1642416531  -875845322    52610660  1330210325   191840857  -393405473   296879258
#
#      Author: C. J. Pickard (cjp20@cam.ac.uk)
#                Space group: P21
#

%BLOCK LATTICE_ABC
      7.31696      7.59644      8.16588
     90.00000     90.00000    118.20218
%ENDBLOCK LATTICE_ABC

%BLOCK POSITIONS_FRAC
  Li  -0.3183375   0.3401761   0.1379095 SPIN=   0.00000
  Li   0.3183375  -0.3401761  -0.3620905 SPIN=   0.00000
  Li   0.2707020  -0.3138671   0.0859176 SPIN=   0.00000
  Li  -0.2707020   0.3138671  -0.4140824 SPIN=   0.00000
  Fe   0.4104821   0.4742490   0.3260541 SPIN=   2.59154
  Fe  -0.4104821  -0.4742490  -0.1739459 SPIN=   2.59154
  Fe  -0.2436550  -0.0645265  -0.4649878 SPIN=   5.40846
  Fe   0.2436550   0.0645265   0.0350122 SPIN=   5.40846
   O  -0.1517867  -0.3653356   0.0884736 SPIN=   0.00000
   O  -0.1883667  -0.2276729   0.3538275 SPIN=   0.00000
   O   0.1607475  -0.1371572   0.2451820 SPIN=   0.00000
   O  -0.0648768  -0.4798307   0.3465544 SPIN=   0.00000
   S  -0.0610707  -0.3024991   0.2585094 SPIN=   0.00000
   O   0.1517867   0.3653356  -0.4115264 SPIN=   0.00000
   O   0.1883667   0.2276729  -0.1461725 SPIN=   0.00000
   O  -0.1607475   0.1371572  -0.2548180 SPIN=   0.00000
   O   0.0648768   0.4798307  -0.1534456 SPIN=   0.00000
   S   0.0610707   0.3024991  -0.2414906 SPIN=   0.00000
   O  -0.2392224   0.1946407   0.3073468 SPIN=   0.00000
   O   0.0331028   0.0890433   0.3096898 SPIN=   0.00000
   O   0.1054052   0.4134996   0.1870614 SPIN=   0.00000
   O  -0.1342307   0.0979434   0.0486700 SPIN=   0.00000
   S  -0.0587363   0.1987818   0.2131920 SPIN=   0.00000
   O   0.2392224  -0.1946407  -0.1926532 SPIN=   0.00000
   O  -0.0331028  -0.0890433  -0.1903102 SPIN=   0.00000
   O  -0.1054052  -0.4134996  -0.3129386 SPIN=   0.00000
   O   0.1342307  -0.0979434  -0.4513300 SPIN=   0.00000
   S   0.0587363  -0.1987818  -0.2868080 SPIN=   0.00000
   F   0.4625154  -0.1953063   0.4220278 SPIN=   0.00000
   F  -0.4625154   0.1953063  -0.0779722 SPIN=   0.00000
   F   0.4543551   0.2725667   0.4770671 SPIN=   0.00000
   F  -0.4543551  -0.2725667  -0.0229329 SPIN=   0.00000
%ENDBLOCK POSITIONS_FRAC

# Note: total spin =  16.00

KPOINTS_MP_SPACING 0.07

%BLOCK SPECIES_POT
QC5
%ENDBLOCK SPECIES_POT

SNAP_TO_SYMMETRY
SYMMETRY_GENERATE

