#              Generated by Buildcell
#
# at 01:37:23 (GMT+1.0) 18th August 2020
# in /lustre/scratch/uccabz1/launch_tmp
# on node-c12p-001
# by uccabz1
#
# compiler GCC version 4.9.2
# options -cpp -iprefix /lustre/shared/ucl/apps/gcc/4.9.2/bin/../lib/gcc/x86_64-unknown-linux-gnu/4.9.2/ -mtune=corei7 -march=x86-64 -g -Og
#
# seed   -92240282   813237325   913511995  1235872666  1472037710 -1242216793  1753107328 -1953014440  1735184262  -584612289  1364541473   812507257
#
#      Author: C. J. Pickard (cjp20@cam.ac.uk)
#                Space group: P21
#

%BLOCK LATTICE_ABC
      4.86459      7.26091     11.35850
     90.00000     94.42845     90.00000
%ENDBLOCK LATTICE_ABC

%BLOCK POSITIONS_FRAC
  Li  -0.3853331  -0.4323622   0.3446226 SPIN=   0.00000
  Li   0.3853331   0.0676378  -0.3446226 SPIN=   0.00000
  Li  -0.0350954  -0.4545583  -0.2139799 SPIN=   0.00000
  Li   0.0350954   0.0454417   0.2139799 SPIN=   0.00000
  Fe  -0.2775286   0.0052448   0.4392285 SPIN=   5.24041
  Fe   0.2775286  -0.4947552  -0.4392285 SPIN=   5.24041
  Fe  -0.1756857   0.0750368  -0.0539365 SPIN=   2.75959
  Fe   0.1756857  -0.4249632   0.0539365 SPIN=   2.75959
   O  -0.3124646   0.1310697   0.1151412 SPIN=   0.00000
   O  -0.7139706   0.2709003   0.2023245 SPIN=   0.00000
   O  -0.3124045   0.4638836   0.1621740 SPIN=   0.00000
   O  -0.2722937   0.2340217   0.3234707 SPIN=   0.00000
   S  -0.4027833   0.2749688   0.2007776 SPIN=   0.00000
   O   0.3124646  -0.3689303  -0.1151412 SPIN=   0.00000
   O   0.7139706  -0.2290997  -0.2023245 SPIN=   0.00000
   O   0.3124045  -0.0361164  -0.1621740 SPIN=   0.00000
   O   0.2722937  -0.2659783  -0.3234707 SPIN=   0.00000
   S   0.4027833  -0.2250312  -0.2007776 SPIN=   0.00000
   O   0.1686227   0.3010480  -0.2816009 SPIN=   0.00000
   O  -0.1870661   0.2559275  -0.4469073 SPIN=   0.00000
   O  -0.3254195   0.2976456  -0.2434594 SPIN=   0.00000
   O  -0.0953133   0.0096129  -0.2984515 SPIN=   0.00000
   S  -0.1097940   0.2160585  -0.3176048 SPIN=   0.00000
   O  -0.1686227  -0.1989520   0.2816009 SPIN=   0.00000
   O   0.1870661  -0.2440725   0.4469073 SPIN=   0.00000
   O   0.3254195  -0.2023544   0.2434594 SPIN=   0.00000
   O   0.0953133  -0.4903871   0.2984515 SPIN=   0.00000
   S   0.1097940  -0.2839415   0.3176048 SPIN=   0.00000
   F   0.3406149   0.1197217   0.4635360 SPIN=   0.00000
   F  -0.3406149  -0.3802783  -0.4635360 SPIN=   0.00000
   F   0.0574049   0.3271025  -0.0200316 SPIN=   0.00000
   F  -0.0574049  -0.1728975   0.0200316 SPIN=   0.00000
%ENDBLOCK POSITIONS_FRAC

# Note: total spin =  16.00

KPOINTS_MP_SPACING 0.07

%BLOCK SPECIES_POT
QC5
%ENDBLOCK SPECIES_POT

SNAP_TO_SYMMETRY
SYMMETRY_GENERATE

