#              Generated by Buildcell
#
# at 03:40:01 (GMT+1.0) 18th August 2020
# in /lustre/scratch/uccabz1/launch_tmp
# on node-c12k-019
# by uccabz1
#
# compiler GCC version 4.9.2
# options -cpp -iprefix /lustre/shared/ucl/apps/gcc/4.9.2/bin/../lib/gcc/x86_64-unknown-linux-gnu/4.9.2/ -mtune=corei7 -march=x86-64 -g -Og
#
# seed  -896254597 -1103087519 -1959014671  1063829460   197234844  1559927189  -411856721   407358469   516720225  1767339477  -356745514  -642015699
#
#      Author: C. J. Pickard (cjp20@cam.ac.uk)
#                Space group: C2/c
#

%BLOCK LATTICE_ABC
      6.56235      8.54360      8.54360
     64.83381     71.00042     71.00042
%ENDBLOCK LATTICE_ABC

%BLOCK POSITIONS_FRAC
  Li   0.2952930  -0.4880296  -0.1507357 SPIN=   0.00000
  Li   0.2047070   0.1507357   0.4880296 SPIN=   0.00000
  Li  -0.2952930   0.4880296   0.1507357 SPIN=   0.00000
  Li  -0.2047070  -0.1507357  -0.4880296 SPIN=   0.00000
  Fe   0.1193740   0.0490601   0.2298594 SPIN=   4.00000
  Fe   0.3806260  -0.2298594  -0.0490601 SPIN=   4.00000
  Fe  -0.1193740  -0.0490601  -0.2298594 SPIN=   4.00000
  Fe  -0.3806260   0.2298594   0.0490601 SPIN=   4.00000
   O   0.4834097  -0.4145520  -0.4025934 SPIN=   0.00000
   O   0.5111173  -0.1248169  -0.6442358 SPIN=   0.00000
   O   0.4575497  -0.1545057  -0.3332253 SPIN=   0.00000
   O   0.1531598  -0.1683385  -0.4347343 SPIN=   0.00000
   S   0.4013091  -0.2155533  -0.4536972 SPIN=   0.00000
   O   0.0165903   0.4025934   0.4145520 SPIN=   0.00000
   O  -0.0111173   0.6442358   0.1248169 SPIN=   0.00000
   O   0.0424503   0.3332253   0.1545057 SPIN=   0.00000
   O   0.3468402   0.4347343   0.1683385 SPIN=   0.00000
   S   0.0986909   0.4536972   0.2155533 SPIN=   0.00000
   O  -0.4834097   0.4145520   0.4025934 SPIN=   0.00000
   O  -0.5111173   0.1248169   0.6442358 SPIN=   0.00000
   O  -0.4575497   0.1545057   0.3332253 SPIN=   0.00000
   O  -0.1531598   0.1683385   0.4347343 SPIN=   0.00000
   S  -0.4013091   0.2155533   0.4536972 SPIN=   0.00000
   O  -0.0165903  -0.4025934  -0.4145520 SPIN=   0.00000
   O   0.0111173  -0.6442358  -0.1248169 SPIN=   0.00000
   O  -0.0424503  -0.3332253  -0.1545057 SPIN=   0.00000
   O  -0.3468402  -0.4347343  -0.1683385 SPIN=   0.00000
   S  -0.0986909  -0.4536972  -0.2155533 SPIN=   0.00000
   F  -0.0645648  -0.1206821   0.2671027 SPIN=   0.00000
   F  -0.4354352  -0.2671027   0.1206821 SPIN=   0.00000
   F   0.0645648   0.1206821  -0.2671027 SPIN=   0.00000
   F   0.4354352   0.2671027  -0.1206821 SPIN=   0.00000
%ENDBLOCK POSITIONS_FRAC

# Note: total spin =  16.00

KPOINTS_MP_SPACING 0.07

%BLOCK SPECIES_POT
QC5
%ENDBLOCK SPECIES_POT

SNAP_TO_SYMMETRY
SYMMETRY_GENERATE

