#              Generated by Buildcell
#
# at 06:06:47 (GMT+1.0) 4th August 2020
# in /lustre/scratch/uccabz1/launch_tmp
# on node-c12g-014
# by uccabz1
#
# compiler GCC version 4.9.2
# options -cpp -iprefix /lustre/shared/ucl/apps/gcc/4.9.2/bin/../lib/gcc/x86_64-unknown-linux-gnu/4.9.2/ -mtune=corei7 -march=x86-64 -g -Og
#
# seed  1398128669   171983321  1824323427 -1577157624  2007856536   -92274420   -44400744 -1467462852  1085421720   963377911  -492929994  -175683283
#
#      Author: C. J. Pickard (cjp20@cam.ac.uk)
#                Space group: C2/m
#

%BLOCK LATTICE_ABC
      5.24388      7.57711     11.36052
    104.77539     96.74397    109.87260
%ENDBLOCK LATTICE_ABC

%BLOCK POSITIONS_FRAC
  Li   0.0347873   0.2402346  -0.0000000 SPIN=   0.00000
  Li  -0.0347873  -0.2402346   0.0000000 SPIN=   0.00000
  Li   0.3006438   0.3006438  -0.3987124 SPIN=   0.00000
  Li  -0.3006438  -0.3006438   0.3987124 SPIN=   0.00000
  Fe   0.2975144   0.6221175  -0.1797474 SPIN=   4.00000
  Fe  -0.4772618  -0.8018649  -0.1797474 SPIN=   4.00000
  Fe  -0.2975144  -0.6221175   0.1797474 SPIN=   4.00000
  Fe   0.4772618   0.8018649   0.1797474 SPIN=   4.00000
   O  -0.2494339   0.0229245  -0.2082977 SPIN=   0.00000
   O  -0.0738827   0.0971006  -0.3902715 SPIN=   0.00000
   O  -0.5521333   0.0669287  -0.3733167 SPIN=   0.00000
   O  -0.4357902  -0.2302791  -0.4171669 SPIN=   0.00000
   O   0.0411362  -0.2312222  -0.2082977 SPIN=   0.00000
   O  -0.3163888  -0.4873721  -0.3902715 SPIN=   0.00000
   O   0.1788166  -0.4402454  -0.3733167 SPIN=   0.00000
   O   0.0186234  -0.1868878  -0.4171669 SPIN=   0.00000
   O   0.2494339  -0.0229245   0.2082977 SPIN=   0.00000
   O   0.0738827  -0.0971006   0.3902715 SPIN=   0.00000
   O   0.5521333  -0.0669287   0.3733167 SPIN=   0.00000
   O   0.4357902   0.2302791   0.4171669 SPIN=   0.00000
   O  -0.0411362   0.2312222   0.2082977 SPIN=   0.00000
   O   0.3163888   0.4873721   0.3902715 SPIN=   0.00000
   O  -0.1788166   0.4402454   0.3733167 SPIN=   0.00000
   O  -0.0186234   0.1868878   0.4171669 SPIN=   0.00000
   S   0.1237877   0.1237877   0.2475753 SPIN=   0.00000
   S  -0.1237877  -0.1237877  -0.2475753 SPIN=   0.00000
   S   0.0000000  -0.5000000   0.5000000 SPIN=   0.00000
   S  -0.5000000  -1.0000000   0.5000000 SPIN=   0.00000
   F   0.4529204   0.2409191  -0.0000000 SPIN=   0.00000
   F  -0.4529204  -0.2409191   0.0000000 SPIN=   0.00000
   F  -0.1053208  -0.6053208  -0.2106416 SPIN=   0.00000
   F   0.1053208   0.6053208   0.2106416 SPIN=   0.00000
%ENDBLOCK POSITIONS_FRAC

# Note: total spin =  16.00

KPOINTS_MP_SPACING 0.07

%BLOCK SPECIES_POT
QC5
%ENDBLOCK SPECIES_POT

SNAP_TO_SYMMETRY
SYMMETRY_GENERATE

