#              Generated by Buildcell
#
# at 17:08:28 (GMT+1.0) 18th August 2020
# in /scratch/scratch/uccabz1/launch_tmp
# on node-k10i-025
# by uccabz1
#
# compiler GCC version 4.9.2
# options -cpp -iprefix /scratch/UCL/applications/gcc/4.9.2/bin/../lib/gcc/x86_64-unknown-linux-gnu/4.9.2/ -mtune=corei7 -march=x86-64 -g -O2
#
# seed  1725780223   313308057  -893169510  1011465652  -872465026 -1077645166  2035754503 -1868386319   252820520   895389146   410253942  -810990785
#
#      Author: C. J. Pickard (cjp20@cam.ac.uk)
#                Space group: Pnc2
#

%BLOCK LATTICE_ABC
      5.21560      6.15578     12.45870
     90.00000     90.00000     90.00000
%ENDBLOCK LATTICE_ABC

%BLOCK POSITIONS_FRAC
  Li   0.0272423  -0.4316256   0.1510237 SPIN=   0.00000
  Li  -0.0272423  -0.4316256  -0.1510237 SPIN=   0.00000
  Li   0.4727577   0.0683744   0.1510237 SPIN=   0.00000
  Li  -0.4727577   0.0683744  -0.1510237 SPIN=   0.00000
  Fe  -0.0543849   0.3058808  -0.3548606 SPIN=   4.00000
  Fe   0.0543849   0.3058808   0.3548606 SPIN=   4.00000
  Fe  -0.4456151  -0.1941192  -0.3548606 SPIN=   4.00000
  Fe   0.4456151  -0.1941192   0.3548606 SPIN=   4.00000
   O  -0.3194147   0.6018951   0.2426985 SPIN=   0.00000
   O  -0.2966770   0.3531638   0.0869227 SPIN=   0.00000
   O  -0.5854095   0.6720481   0.0818905 SPIN=   0.00000
   O  -0.6857749   0.3610416   0.2005560 SPIN=   0.00000
   S  -0.4718190   0.4970372   0.1530169 SPIN=   0.00000
   O   0.3194147   0.6018951  -0.2426985 SPIN=   0.00000
   O   0.2966770   0.3531638  -0.0869227 SPIN=   0.00000
   O   0.5854095   0.6720481  -0.0818905 SPIN=   0.00000
   O   0.6857749   0.3610416  -0.2005560 SPIN=   0.00000
   S   0.4718190   0.4970372  -0.1530169 SPIN=   0.00000
   O  -0.1805853   0.1018951   0.2426985 SPIN=   0.00000
   O  -0.2033230  -0.1468362   0.0869227 SPIN=   0.00000
   O   0.0854095   0.1720481   0.0818905 SPIN=   0.00000
   O   0.1857749  -0.1389584   0.2005560 SPIN=   0.00000
   S  -0.0281810  -0.0029628   0.1530169 SPIN=   0.00000
   O   0.1805853   0.1018951  -0.2426985 SPIN=   0.00000
   O   0.2033230  -0.1468362  -0.0869227 SPIN=   0.00000
   O  -0.0854095   0.1720481  -0.0818905 SPIN=   0.00000
   O  -0.1857749  -0.1389584  -0.2005560 SPIN=   0.00000
   S   0.0281810  -0.0029628  -0.1530169 SPIN=   0.00000
   F   0.4188520   0.1494695   0.3648972 SPIN=   0.00000
   F  -0.4188520   0.1494695  -0.3648972 SPIN=   0.00000
   F   0.0811480  -0.3505305   0.3648972 SPIN=   0.00000
   F  -0.0811480  -0.3505305  -0.3648972 SPIN=   0.00000
%ENDBLOCK POSITIONS_FRAC

# Note: total spin =  16.00

KPOINTS_MP_SPACING 0.07

%BLOCK SPECIES_POT
QC5
%ENDBLOCK SPECIES_POT

SNAP_TO_SYMMETRY
SYMMETRY_GENERATE

