#              Generated by Buildcell
#
# at 05:53:53 (GMT+1.0) 4th August 2020
# in /lustre/scratch/uccabz1/launch_tmp
# on node-c12l-009
# by uccabz1
#
# compiler GCC version 4.9.2
# options -cpp -iprefix /lustre/shared/ucl/apps/gcc/4.9.2/bin/../lib/gcc/x86_64-unknown-linux-gnu/4.9.2/ -mtune=corei7 -march=x86-64 -g -Og
#
# seed  2001406531  1833790314 -1362804263  -201340681   278428513   -25964106 -1545277041  -190408364  1124488041  1679536232 -1574634026  1638714924
#
#      Author: C. J. Pickard (cjp20@cam.ac.uk)
#                Space group: Aea2
#

%BLOCK LATTICE_ABC
      5.92904      5.92904     12.30661
     90.00000     90.00000    112.39203
%ENDBLOCK LATTICE_ABC

%BLOCK POSITIONS_FRAC
  Li   0.0770681   0.4016306  -0.3619518 SPIN=   0.00000
  Li   0.4016306   0.0770681   0.3619518 SPIN=   0.00000
  Li  -0.0983694  -0.4229319   0.1380482 SPIN=   0.00000
  Li  -0.4229319  -0.0983694  -0.1380482 SPIN=   0.00000
  Fe  -0.1393535  -0.2422929   0.3581285 SPIN=   4.00000
  Fe  -0.2422929  -0.1393535  -0.3581285 SPIN=   4.00000
  Fe   0.2577071   0.3606465  -0.1418715 SPIN=   4.00000
  Fe   0.3606465   0.2577071   0.1418715 SPIN=   4.00000
   O   0.1380308   0.3695257   0.4847129 SPIN=   0.00000
   O   0.0992190   0.3117374   0.2854304 SPIN=   0.00000
   O   0.5081492   0.4865049   0.3701444 SPIN=   0.00000
   O   0.2477505   0.7279802   0.3631443 SPIN=   0.00000
   S   0.2482874   0.4739370   0.3758580 SPIN=   0.00000
   O   0.3695257   0.1380308  -0.4847129 SPIN=   0.00000
   O   0.3117374   0.0992190  -0.2854304 SPIN=   0.00000
   O   0.4865049   0.5081492  -0.3701444 SPIN=   0.00000
   O   0.7279802   0.2477505  -0.3631443 SPIN=   0.00000
   S   0.4739370   0.2482874  -0.3758580 SPIN=   0.00000
   O  -0.1304743  -0.3619692  -0.0152871 SPIN=   0.00000
   O  -0.1882626  -0.4007810  -0.2145696 SPIN=   0.00000
   O  -0.0134951   0.0081492  -0.1298556 SPIN=   0.00000
   O   0.2279802  -0.2522495  -0.1368557 SPIN=   0.00000
   S  -0.0260630  -0.2517126  -0.1241420 SPIN=   0.00000
   O  -0.3619692  -0.1304743   0.0152871 SPIN=   0.00000
   O  -0.4007810  -0.1882626   0.2145696 SPIN=   0.00000
   O   0.0081492  -0.0134951   0.1298556 SPIN=   0.00000
   O  -0.2522495   0.2279802   0.1368557 SPIN=   0.00000
   S  -0.2517126  -0.0260630   0.1241420 SPIN=   0.00000
   F  -0.4817300   0.2042636  -0.0811995 SPIN=   0.00000
   F   0.2042636  -0.4817300   0.0811995 SPIN=   0.00000
   F  -0.2957364   0.0182700   0.4188005 SPIN=   0.00000
   F   0.0182700  -0.2957364  -0.4188005 SPIN=   0.00000
%ENDBLOCK POSITIONS_FRAC

# Note: total spin =  16.00

KPOINTS_MP_SPACING 0.07

%BLOCK SPECIES_POT
QC5
%ENDBLOCK SPECIES_POT

SNAP_TO_SYMMETRY
SYMMETRY_GENERATE

