#              Generated by Buildcell
#
# at 11:00:01 (GMT+1.0) 4th August 2020
# in /lustre/scratch/uccabz1/launch_tmp
# on node-c12m-012
# by uccabz1
#
# compiler GCC version 4.9.2
# options -cpp -iprefix /lustre/shared/ucl/apps/gcc/4.9.2/bin/../lib/gcc/x86_64-unknown-linux-gnu/4.9.2/ -mtune=corei7 -march=x86-64 -g -Og
#
# seed   245629900  1907801570   259130973 -2042287209   515182562  -849459269   445243615   477525589  -219178181  1577359134  -571742453  2093093650
#
#      Author: C. J. Pickard (cjp20@cam.ac.uk)
#                Space group: Pca21
#

%BLOCK LATTICE_ABC
      3.93876      9.35491     10.85577
     90.00000     90.00000     90.00000
%ENDBLOCK LATTICE_ABC

%BLOCK POSITIONS_FRAC
  Li   0.1381101   0.0690656  -0.0752713 SPIN=   0.00000
  Li  -0.1381101  -0.4309344   0.0752713 SPIN=   0.00000
  Li  -0.1381101   0.0690656   0.4247287 SPIN=   0.00000
  Li   0.1381101  -0.4309344  -0.4247287 SPIN=   0.00000
  Fe   0.3558271   0.2947954   0.4739135 SPIN=   4.00000
  Fe  -0.3558271  -0.2052046  -0.4739135 SPIN=   4.00000
  Fe  -0.3558271   0.2947954  -0.0260865 SPIN=   4.00000
  Fe   0.3558271  -0.2052046   0.0260865 SPIN=   4.00000
   O   0.4147501   0.1813336   0.1269455 SPIN=   0.00000
   O   0.4097978   0.1163305   0.3479270 SPIN=   0.00000
   O   0.4149284  -0.0732534   0.1889313 SPIN=   0.00000
   O  -0.0998549   0.0742005   0.2196227 SPIN=   0.00000
   S   0.2849054   0.0746528   0.2208566 SPIN=   0.00000
   O  -0.4147501  -0.3186664  -0.1269455 SPIN=   0.00000
   O  -0.4097978  -0.3836695  -0.3479270 SPIN=   0.00000
   O  -0.4149284  -0.5732534  -0.1889313 SPIN=   0.00000
   O   0.0998549  -0.4257995  -0.2196227 SPIN=   0.00000
   S  -0.2849054  -0.4253472  -0.2208566 SPIN=   0.00000
   O  -0.4147501   0.1813336  -0.3730545 SPIN=   0.00000
   O  -0.4097978   0.1163305  -0.1520730 SPIN=   0.00000
   O  -0.4149284  -0.0732534  -0.3110687 SPIN=   0.00000
   O   0.0998549   0.0742005  -0.2803773 SPIN=   0.00000
   S  -0.2849054   0.0746528  -0.2791434 SPIN=   0.00000
   O   0.4147501  -0.3186664   0.3730545 SPIN=   0.00000
   O   0.4097978  -0.3836695   0.1520730 SPIN=   0.00000
   O   0.4149284  -0.5732534   0.3110687 SPIN=   0.00000
   O  -0.0998549  -0.4257995   0.2803773 SPIN=   0.00000
   S   0.2849054  -0.4253472   0.2791434 SPIN=   0.00000
   F  -0.2071600   0.4048820  -0.4980566 SPIN=   0.00000
   F   0.2071600  -0.0951180   0.4980566 SPIN=   0.00000
   F   0.2071600   0.4048820   0.0019434 SPIN=   0.00000
   F  -0.2071600  -0.0951180  -0.0019434 SPIN=   0.00000
%ENDBLOCK POSITIONS_FRAC

# Note: total spin =  16.00

KPOINTS_MP_SPACING 0.07

%BLOCK SPECIES_POT
QC5
%ENDBLOCK SPECIES_POT

SNAP_TO_SYMMETRY
SYMMETRY_GENERATE

