#              Generated by Buildcell
#
# at 10:12:16 (GMT+1.0) 4th August 2020
# in /lustre/scratch/uccabz1/launch_tmp
# on node-c12n-014
# by uccabz1
#
# compiler GCC version 4.9.2
# options -cpp -iprefix /lustre/shared/ucl/apps/gcc/4.9.2/bin/../lib/gcc/x86_64-unknown-linux-gnu/4.9.2/ -mtune=corei7 -march=x86-64 -g -Og
#
# seed   448089394 -1356808230 -1307744950 -1634308662  1930343490   552732606  1335967433  1383046228 -1564047019    24976333   628951634   184778775
#
#      Author: C. J. Pickard (cjp20@cam.ac.uk)
#                Space group: P-1
#

%BLOCK LATTICE_ABC
      4.61249      7.96625     11.02850
     92.56170     92.47298     98.38080
%ENDBLOCK LATTICE_ABC

%BLOCK POSITIONS_FRAC
  Li   0.3156687  -0.1855829   0.3074938 SPIN=   0.00000
  Li  -0.3156687   0.1855829  -0.3074938 SPIN=   0.00000
  Li  -0.1609365   0.1702004   0.0960705 SPIN=   0.00000
  Li   0.1609365  -0.1702004  -0.0960705 SPIN=   0.00000
  Fe   0.2175619  -0.4990878   0.1480355 SPIN=   5.24477
  Fe  -0.2175619   0.4990878  -0.1480355 SPIN=   5.24477
  Fe   0.2206503   0.3691949  -0.4058282 SPIN=   2.75523
  Fe  -0.2206503  -0.3691949   0.4058282 SPIN=   2.75523
   O   0.5344730   0.2452649  -0.1366242 SPIN=   0.00000
   O   0.0473347   0.0687791  -0.1316447 SPIN=   0.00000
   O   0.1535626   0.3414912  -0.0102607 SPIN=   0.00000
   O   0.3921716   0.0964336   0.0488201 SPIN=   0.00000
   S   0.2818855   0.1879922  -0.0574274 SPIN=   0.00000
   O  -0.5344730  -0.2452649   0.1366242 SPIN=   0.00000
   O  -0.0473347  -0.0687791   0.1316447 SPIN=   0.00000
   O  -0.1535626  -0.3414912   0.0102607 SPIN=   0.00000
   O  -0.3921716  -0.0964336  -0.0488201 SPIN=   0.00000
   S  -0.2818855  -0.1879922   0.0574274 SPIN=   0.00000
   O   0.3357228   0.0600703   0.2446882 SPIN=   0.00000
   O   0.2087141   0.0517501   0.4603028 SPIN=   0.00000
   O  -0.1799651   0.0565783   0.2991630 SPIN=   0.00000
   O   0.1854213   0.3127830   0.3489775 SPIN=   0.00000
   S   0.1374733   0.1202954   0.3382829 SPIN=   0.00000
   O  -0.3357228  -0.0600703  -0.2446882 SPIN=   0.00000
   O  -0.2087141  -0.0517501  -0.4603028 SPIN=   0.00000
   O   0.1799651  -0.0565783  -0.2991630 SPIN=   0.00000
   O  -0.1854213  -0.3127830  -0.3489775 SPIN=   0.00000
   S  -0.1374733  -0.1202954  -0.3382829 SPIN=   0.00000
   F   0.3023863  -0.4110460  -0.2024593 SPIN=   0.00000
   F  -0.3023863   0.4110460   0.2024593 SPIN=   0.00000
   F  -0.2918408   0.3101039  -0.4400569 SPIN=   0.00000
   F   0.2918408  -0.3101039   0.4400569 SPIN=   0.00000
%ENDBLOCK POSITIONS_FRAC

# Note: total spin =  16.00

KPOINTS_MP_SPACING 0.07

%BLOCK SPECIES_POT
QC5
%ENDBLOCK SPECIES_POT

SNAP_TO_SYMMETRY
SYMMETRY_GENERATE

