#              Generated by Buildcell
#
# at 01:40:54 (GMT+1.0) 18th August 2020
# in /lustre/scratch/uccabz1/launch_tmp
# on node-c12n-031
# by uccabz1
#
# compiler GCC version 4.9.2
# options -cpp -iprefix /lustre/shared/ucl/apps/gcc/4.9.2/bin/../lib/gcc/x86_64-unknown-linux-gnu/4.9.2/ -mtune=corei7 -march=x86-64 -g -Og
#
# seed -1213099224   282537280   637997970 -1554383739 -1681467498  -448137293  -990117566   738523690 -1673942350 -1260346678 -1643388003   373150124
#
#      Author: C. J. Pickard (cjp20@cam.ac.uk)
#                Space group: P2
#

%BLOCK LATTICE_ABC
      4.46336      6.66370     13.44986
     90.00000     90.00000     90.72992
%ENDBLOCK LATTICE_ABC

%BLOCK POSITIONS_FRAC
  Li  -0.2460620  -0.2974660   0.3074356 SPIN=   0.00000
  Li   0.2460620   0.2974660   0.3074356 SPIN=   0.00000
  Li  -0.2680046   0.2136770  -0.1850853 SPIN=   0.00000
  Li   0.2680046  -0.2136770  -0.1850853 SPIN=   0.00000
  Fe   0.2544996  -0.2258359   0.1733597 SPIN=   4.16256
  Fe  -0.2544996   0.2258359   0.1733597 SPIN=   4.16256
  Fe   0.2448125   0.2769377  -0.0438960 SPIN=   3.83744
  Fe  -0.2448125  -0.2769377  -0.0438960 SPIN=   3.83744
   O  -0.3175532   0.1156389   0.5396814 SPIN=   0.00000
   O  -0.3874138   0.1948497   0.3614738 SPIN=   0.00000
   O   0.1197241   0.2095986   0.4357273 SPIN=   0.00000
   O  -0.2546242   0.4651889   0.4803335 SPIN=   0.00000
   S  -0.2099668   0.2463190   0.4543040 SPIN=   0.00000
   O   0.3175532  -0.1156389   0.5396814 SPIN=   0.00000
   O   0.3874138  -0.1948497   0.3614738 SPIN=   0.00000
   O  -0.1197241  -0.2095986   0.4357273 SPIN=   0.00000
   O   0.2546242  -0.4651889   0.4803335 SPIN=   0.00000
   S   0.2099668  -0.2463190   0.4543040 SPIN=   0.00000
   O  -0.2513153  -0.0264064  -0.2949177 SPIN=   0.00000
   O   0.0953127  -0.3122496  -0.3073930 SPIN=   0.00000
   O  -0.4166178  -0.3411622  -0.3770679 SPIN=   0.00000
   O  -0.3424711  -0.3326939  -0.1947542 SPIN=   0.00000
   S  -0.2287729  -0.2531280  -0.2935332 SPIN=   0.00000
   O   0.2513153   0.0264064  -0.2949177 SPIN=   0.00000
   O  -0.0953127   0.3122496  -0.3073930 SPIN=   0.00000
   O   0.4166178   0.3411622  -0.3770679 SPIN=   0.00000
   O   0.3424711   0.3326939  -0.1947542 SPIN=   0.00000
   S   0.2287729   0.2531280  -0.2935332 SPIN=   0.00000
   F  -0.3166410  -0.2479040   0.1704608 SPIN=   0.00000
   F   0.3166410   0.2479040   0.1704608 SPIN=   0.00000
   F   0.1833729  -0.2487950  -0.0477887 SPIN=   0.00000
   F  -0.1833729   0.2487950  -0.0477887 SPIN=   0.00000
%ENDBLOCK POSITIONS_FRAC

# Note: total spin =  16.00

KPOINTS_MP_SPACING 0.07

%BLOCK SPECIES_POT
QC5
%ENDBLOCK SPECIES_POT

SNAP_TO_SYMMETRY
SYMMETRY_GENERATE

