#              Generated by Buildcell
#
# at 23:04:03 (GMT+1.0) 17th August 2020
# in /lustre/scratch/uccabz1/launch_tmp
# on node-c12f-023
# by uccabz1
#
# compiler GCC version 4.9.2
# options -cpp -iprefix /lustre/shared/ucl/apps/gcc/4.9.2/bin/../lib/gcc/x86_64-unknown-linux-gnu/4.9.2/ -mtune=corei7 -march=x86-64 -g -Og
#
# seed  -784089499  -952263437    61680219    18702148  1959742444  -303243100  -125627435 -1047896478 -1068721067    47439573  -609786779  1975172673
#
#      Author: C. J. Pickard (cjp20@cam.ac.uk)
#                Space group: P2
#

%BLOCK LATTICE_ABC
      6.49138      7.92267      8.08014
    105.72561     90.00000     90.00000
%ENDBLOCK LATTICE_ABC

%BLOCK POSITIONS_FRAC
  Li   0.0963132   0.4471171   0.2698926 SPIN=   0.00000
  Li   0.0963132  -0.4471171  -0.2698926 SPIN=   0.00000
  Li   0.1298443   0.0499569  -0.2047043 SPIN=   0.00000
  Li   0.1298443  -0.0499569   0.2047043 SPIN=   0.00000
  Fe  -0.4892635  -0.4038034   0.2885901 SPIN=   3.01692
  Fe  -0.4892635   0.4038034  -0.2885901 SPIN=   3.01692
  Fe  -0.4635106  -0.1145319  -0.2539734 SPIN=   4.98308
  Fe  -0.4635106   0.1145319   0.2539734 SPIN=   4.98308
   O  -0.0367630   0.1933735   0.1509911 SPIN=   0.00000
   O  -0.2956354   0.4017538   0.0973623 SPIN=   0.00000
   O  -0.2720057   0.1021286  -0.0983822 SPIN=   0.00000
   O   0.0041434   0.3179289  -0.0968257 SPIN=   0.00000
   S  -0.1500652   0.2537962   0.0132864 SPIN=   0.00000
   O  -0.0367630  -0.1933735  -0.1509911 SPIN=   0.00000
   O  -0.2956354  -0.4017538  -0.0973623 SPIN=   0.00000
   O  -0.2720057  -0.1021286   0.0983822 SPIN=   0.00000
   O   0.0041434  -0.3179289   0.0968257 SPIN=   0.00000
   S  -0.1500652  -0.2537962  -0.0132864 SPIN=   0.00000
   O  -0.1710284  -0.3691299  -0.4025770 SPIN=   0.00000
   O  -0.1909601  -0.2679920  -0.6662958 SPIN=   0.00000
   O   0.1483496  -0.3011388  -0.5389846 SPIN=   0.00000
   O  -0.0861645  -0.0615122  -0.3906329 SPIN=   0.00000
   S  -0.0749509  -0.2499432  -0.4996226 SPIN=   0.00000
   O  -0.1710284   0.3691299   0.4025770 SPIN=   0.00000
   O  -0.1909601   0.2679920   0.6662958 SPIN=   0.00000
   O   0.1483496   0.3011388   0.5389846 SPIN=   0.00000
   O  -0.0861645   0.0615122   0.3906329 SPIN=   0.00000
   S  -0.0749509   0.2499432   0.4996226 SPIN=   0.00000
   F   0.3784914   0.1955405  -0.2302468 SPIN=   0.00000
   F   0.3784914  -0.1955405   0.2302468 SPIN=   0.00000
   F   0.3748455   0.3271980   0.2676258 SPIN=   0.00000
   F   0.3748455  -0.3271980  -0.2676258 SPIN=   0.00000
%ENDBLOCK POSITIONS_FRAC

# Note: total spin =  16.00

KPOINTS_MP_SPACING 0.07

%BLOCK SPECIES_POT
QC5
%ENDBLOCK SPECIES_POT

SNAP_TO_SYMMETRY
SYMMETRY_GENERATE

