#              Generated by Buildcell
#
# at 06:25:50 (GMT+1.0) 4th August 2020
# in /lustre/scratch/uccabz1/launch_tmp
# on node-c12c-022
# by uccabz1
#
# compiler GCC version 4.9.2
# options -cpp -iprefix /lustre/shared/ucl/apps/gcc/4.9.2/bin/../lib/gcc/x86_64-unknown-linux-gnu/4.9.2/ -mtune=corei7 -march=x86-64 -g -Og
#
# seed  1083348373   139447786 -1627483253   871805844  -373534774   556362462  -531900951  1142735786  1185131134  2127733100  -677205308 -1614360795
#
#      Author: C. J. Pickard (cjp20@cam.ac.uk)
#                Space group: C2/c
#

%BLOCK LATTICE_ABC
      3.88165      6.46373     16.91217
     98.37417     90.00000    107.47347
%ENDBLOCK LATTICE_ABC

%BLOCK POSITIONS_FRAC
  Li   0.1414458   0.2099718  -0.2868249 SPIN=   0.00000
  Li   0.4314740  -0.2099718  -0.2131751 SPIN=   0.00000
  Li  -0.1414458  -0.2099718   0.2868249 SPIN=   0.00000
  Li  -0.4314740   0.2099718   0.2131751 SPIN=   0.00000
  Fe   0.3732304   0.2464990  -0.4494503 SPIN=   4.00000
  Fe  -0.3732686  -0.2464990  -0.0505497 SPIN=   4.00000
  Fe  -0.3732304  -0.2464990   0.4494503 SPIN=   4.00000
  Fe   0.3732686   0.2464990   0.0505497 SPIN=   4.00000
   O   0.1411992   0.3417936  -0.1759649 SPIN=   0.00000
   O  -0.1678682   0.4794851  -0.0613894 SPIN=   0.00000
   O   0.0369807   0.1537495  -0.0567435 SPIN=   0.00000
   O  -0.4788193   0.1283265  -0.1475885 SPIN=   0.00000
   S  -0.1171269   0.2758387  -0.1104216 SPIN=   0.00000
   O   0.2994056  -0.3417936  -0.3240351 SPIN=   0.00000
   O  -0.1473533  -0.4794851  -0.4386106 SPIN=   0.00000
   O   0.3832312  -0.1537495  -0.4432565 SPIN=   0.00000
   O  -0.1071458  -0.1283265  -0.3524115 SPIN=   0.00000
   S   0.1070344  -0.2758387  -0.3895784 SPIN=   0.00000
   O  -0.1411992  -0.3417936   0.1759649 SPIN=   0.00000
   O   0.1678682  -0.4794851   0.0613894 SPIN=   0.00000
   O  -0.0369807  -0.1537495   0.0567435 SPIN=   0.00000
   O   0.4788193  -0.1283265   0.1475885 SPIN=   0.00000
   S   0.1171269  -0.2758387   0.1104216 SPIN=   0.00000
   O  -0.2994056   0.3417936   0.3240351 SPIN=   0.00000
   O   0.1473533   0.4794851   0.4386106 SPIN=   0.00000
   O  -0.3832312   0.1537495   0.4432565 SPIN=   0.00000
   O   0.1071458   0.1283265   0.3524115 SPIN=   0.00000
   S  -0.1070344   0.2758387   0.3895784 SPIN=   0.00000
   F  -0.0686770  -0.2417607  -0.1806910 SPIN=   0.00000
   F  -0.3269163   0.2417607  -0.3193090 SPIN=   0.00000
   F   0.0686770   0.2417607   0.1806910 SPIN=   0.00000
   F   0.3269163  -0.2417607   0.3193090 SPIN=   0.00000
%ENDBLOCK POSITIONS_FRAC

# Note: total spin =  16.00

KPOINTS_MP_SPACING 0.07

%BLOCK SPECIES_POT
QC5
%ENDBLOCK SPECIES_POT

SNAP_TO_SYMMETRY
SYMMETRY_GENERATE

