#              Generated by Buildcell
#
# at 23:31:02 (GMT+1.0) 17th August 2020
# in /scratch/scratch/uccabz1/launch_tmp
# on node-k10e-023
# by uccabz1
#
# compiler GCC version 4.9.2
# options -cpp -iprefix /scratch/UCL/applications/gcc/4.9.2/bin/../lib/gcc/x86_64-unknown-linux-gnu/4.9.2/ -mtune=corei7 -march=x86-64 -g -O2
#
# seed  2042848055   809594622   796058588   989631571  1246440327  1048701718 -1948146337   235681627 -1252395057  -836895201  -308092525 -2109695890
#
#      Author: C. J. Pickard (cjp20@cam.ac.uk)
#                Space group: P2/c
#

%BLOCK LATTICE_ABC
      3.94283      7.50205     13.52301
     90.00000     90.16733     90.00000
%ENDBLOCK LATTICE_ABC

%BLOCK POSITIONS_FRAC
  Li  -0.4337658   0.4244704   0.1216568 SPIN=   0.00000
  Li   0.4337658   0.4244704   0.3783432 SPIN=   0.00000
  Li   0.4337658  -0.4244704  -0.1216568 SPIN=   0.00000
  Li  -0.4337658  -0.4244704  -0.3783432 SPIN=   0.00000
  Fe   0.1001295   0.2721291  -0.3792258 SPIN=   4.00000
  Fe  -0.1001295   0.2721291  -0.1207742 SPIN=   4.00000
  Fe  -0.1001295  -0.2721291   0.3792258 SPIN=   4.00000
  Fe   0.1001295  -0.2721291   0.1207742 SPIN=   4.00000
   O   0.2397602   0.0686658   0.3448120 SPIN=   0.00000
   O   0.0610800   0.3107450   0.4575486 SPIN=   0.00000
   O  -0.2684398   0.0303009   0.4496661 SPIN=   0.00000
   O  -0.2814846   0.2409653   0.3088690 SPIN=   0.00000
   S  -0.0622711   0.1626692   0.3902240 SPIN=   0.00000
   O  -0.2397602   0.0686658   0.1551880 SPIN=   0.00000
   O  -0.0610800   0.3107450   0.0424514 SPIN=   0.00000
   O   0.2684398   0.0303009   0.0503339 SPIN=   0.00000
   O   0.2814846   0.2409653   0.1911310 SPIN=   0.00000
   S   0.0622711   0.1626692   0.1097760 SPIN=   0.00000
   O  -0.2397602  -0.0686658  -0.3448120 SPIN=   0.00000
   O  -0.0610800  -0.3107450  -0.4575486 SPIN=   0.00000
   O   0.2684398  -0.0303009  -0.4496661 SPIN=   0.00000
   O   0.2814846  -0.2409653  -0.3088690 SPIN=   0.00000
   S   0.0622711  -0.1626692  -0.3902240 SPIN=   0.00000
   O   0.2397602  -0.0686658  -0.1551880 SPIN=   0.00000
   O   0.0610800  -0.3107450  -0.0424514 SPIN=   0.00000
   O  -0.2684398  -0.0303009  -0.0503339 SPIN=   0.00000
   O  -0.2814846  -0.2409653  -0.1911310 SPIN=   0.00000
   S  -0.0622711  -0.1626692  -0.1097760 SPIN=   0.00000
   F  -0.4003139   0.3285378  -0.3913740 SPIN=   0.00000
   F   0.4003139   0.3285378  -0.1086260 SPIN=   0.00000
   F   0.4003139  -0.3285378   0.3913740 SPIN=   0.00000
   F  -0.4003139  -0.3285378   0.1086260 SPIN=   0.00000
%ENDBLOCK POSITIONS_FRAC

# Note: total spin =  16.00

KPOINTS_MP_SPACING 0.07

%BLOCK SPECIES_POT
QC5
%ENDBLOCK SPECIES_POT

SNAP_TO_SYMMETRY
SYMMETRY_GENERATE

