#              Generated by Buildcell
#
# at 07:08:43 (GMT+1.0) 4th August 2020
# in /lustre/scratch/uccabz1/launch_tmp
# on node-c12c-025
# by uccabz1
#
# compiler GCC version 4.9.2
# options -cpp -iprefix /lustre/shared/ucl/apps/gcc/4.9.2/bin/../lib/gcc/x86_64-unknown-linux-gnu/4.9.2/ -mtune=corei7 -march=x86-64 -g -Og
#
# seed  -563983691  1571563029  1800733090  1406045572 -1989775324 -1739162287  1338048024 -1150040589    63321783  1459539607 -2025094527   283025788
#
#      Author: C. J. Pickard (cjp20@cam.ac.uk)
#                Space group: Pma2
#

%BLOCK LATTICE_ABC
      5.10653      5.28555     14.81987
     90.00000     90.00000     90.00000
%ENDBLOCK LATTICE_ABC

%BLOCK POSITIONS_FRAC
  Li   0.4739814  -0.2055542  -0.3775097 SPIN=   0.00000
  Li  -0.4739814  -0.2055542   0.3775097 SPIN=   0.00000
  Li  -0.4739814  -0.2055542   0.1224903 SPIN=   0.00000
  Li   0.4739814  -0.2055542  -0.1224903 SPIN=   0.00000
  Fe   0.0000000  -0.0893992   0.0000000 SPIN=   5.36157
  Fe  -0.0000000  -0.0893992   0.5000000 SPIN=   5.36157
  Fe   0.0504499  -0.2916119   0.2500000 SPIN=   2.63843
  Fe  -0.0504499  -0.2916119  -0.2500000 SPIN=   2.63843
   O   0.6286739   0.2791980  -0.3871014 SPIN=   0.00000
   O   0.2087883   0.2902739  -0.4704065 SPIN=   0.00000
   O   0.2544430   0.5232403  -0.3264034 SPIN=   0.00000
   O   0.2412399   0.0551802  -0.3264181 SPIN=   0.00000
   S   0.3332863   0.2869731  -0.3775824 SPIN=   0.00000
   O  -0.6286739   0.2791980   0.3871014 SPIN=   0.00000
   O  -0.2087883   0.2902739   0.4704065 SPIN=   0.00000
   O  -0.2544430   0.5232403   0.3264034 SPIN=   0.00000
   O  -0.2412399   0.0551802   0.3264181 SPIN=   0.00000
   S  -0.3332863   0.2869731   0.3775824 SPIN=   0.00000
   O  -0.6286739   0.2791980   0.1128986 SPIN=   0.00000
   O  -0.2087883   0.2902739   0.0295935 SPIN=   0.00000
   O  -0.2544430   0.5232403   0.1735966 SPIN=   0.00000
   O  -0.2412399   0.0551802   0.1735819 SPIN=   0.00000
   S  -0.3332863   0.2869731   0.1224176 SPIN=   0.00000
   O   0.6286739   0.2791980  -0.1128986 SPIN=   0.00000
   O   0.2087883   0.2902739  -0.0295935 SPIN=   0.00000
   O   0.2544430   0.5232403  -0.1735966 SPIN=   0.00000
   O   0.2412399   0.0551802  -0.1735819 SPIN=   0.00000
   S   0.3332863   0.2869731  -0.1224176 SPIN=   0.00000
   F   0.1756041  -0.2197694   0.3974307 SPIN=   0.00000
   F  -0.1756041  -0.2197694  -0.3974307 SPIN=   0.00000
   F  -0.1756041  -0.2197694  -0.1025693 SPIN=   0.00000
   F   0.1756041  -0.2197694   0.1025693 SPIN=   0.00000
%ENDBLOCK POSITIONS_FRAC

# Note: total spin =  16.00

KPOINTS_MP_SPACING 0.07

%BLOCK SPECIES_POT
QC5
%ENDBLOCK SPECIES_POT

SNAP_TO_SYMMETRY
SYMMETRY_GENERATE

