#              Generated by Buildcell
#
# at 07:37:40 (GMT+1.0) 4th August 2020
# in /lustre/scratch/uccabz1/launch_tmp
# on node-c12f-035
# by uccabz1
#
# compiler GCC version 4.9.2
# options -cpp -iprefix /lustre/shared/ucl/apps/gcc/4.9.2/bin/../lib/gcc/x86_64-unknown-linux-gnu/4.9.2/ -mtune=corei7 -march=x86-64 -g -Og
#
# seed   -30665872  1663782457  -147354436  2083132602  -795366694  -251606089  -426378997 -1072056422 -1029340244   247689374  1259746388   402419907
#
#      Author: C. J. Pickard (cjp20@cam.ac.uk)
#                Space group: Pba2
#

%BLOCK LATTICE_ABC
      6.16118      7.92079      8.19649
     90.00000     90.00000     90.00000
%ENDBLOCK LATTICE_ABC

%BLOCK POSITIONS_FRAC
  Li  -0.4295587   0.2415139   0.4807919 SPIN=   0.00000
  Li  -0.4295587  -0.2415139  -0.4807919 SPIN=   0.00000
  Li  -0.4295587  -0.2584861   0.0192081 SPIN=   0.00000
  Li  -0.4295587   0.2584861  -0.0192081 SPIN=   0.00000
  Fe   0.3434323   0.4797003   0.2380564 SPIN=   4.00000
  Fe   0.3434323  -0.4797003  -0.2380564 SPIN=   4.00000
  Fe   0.3434323  -0.0202997   0.2619436 SPIN=   4.00000
  Fe   0.3434323   0.0202997  -0.2619436 SPIN=   4.00000
   O   0.2536341  -0.1899401   0.0582243 SPIN=   0.00000
   O  -0.0089416  -0.4188020   0.1156675 SPIN=   0.00000
   O   0.0148976  -0.2965968  -0.1616449 SPIN=   0.00000
   O  -0.1400593  -0.1282505   0.0644886 SPIN=   0.00000
   S   0.0298827  -0.2583974   0.0191839 SPIN=   0.00000
   O   0.2536341   0.1899401  -0.0582243 SPIN=   0.00000
   O  -0.0089416   0.4188020  -0.1156675 SPIN=   0.00000
   O   0.0148976   0.2965968   0.1616449 SPIN=   0.00000
   O  -0.1400593   0.1282505  -0.0644886 SPIN=   0.00000
   S   0.0298827   0.2583974  -0.0191839 SPIN=   0.00000
   O   0.2536341   0.3100599   0.4417757 SPIN=   0.00000
   O  -0.0089416   0.0811980   0.3843325 SPIN=   0.00000
   O   0.0148976   0.2034032   0.6616449 SPIN=   0.00000
   O  -0.1400593   0.3717495   0.4355114 SPIN=   0.00000
   S   0.0298827   0.2416026   0.4808161 SPIN=   0.00000
   O   0.2536341  -0.3100599  -0.4417757 SPIN=   0.00000
   O  -0.0089416  -0.0811980  -0.3843325 SPIN=   0.00000
   O   0.0148976  -0.2034032  -0.6616449 SPIN=   0.00000
   O  -0.1400593  -0.3717495  -0.4355114 SPIN=   0.00000
   S   0.0298827  -0.2416026  -0.4808161 SPIN=   0.00000
   F  -0.4701203   0.2112631   0.2295651 SPIN=   0.00000
   F  -0.4701203  -0.2112631  -0.2295651 SPIN=   0.00000
   F  -0.4701203  -0.2887369   0.2704349 SPIN=   0.00000
   F  -0.4701203   0.2887369  -0.2704349 SPIN=   0.00000
%ENDBLOCK POSITIONS_FRAC

# Note: total spin =  16.00

KPOINTS_MP_SPACING 0.07

%BLOCK SPECIES_POT
QC5
%ENDBLOCK SPECIES_POT

SNAP_TO_SYMMETRY
SYMMETRY_GENERATE

