#              Generated by Buildcell
#
# at 09:59:27 (GMT+1.0) 4th August 2020
# in /lustre/scratch/uccabz1/launch_tmp
# on node-c12c-003
# by uccabz1
#
# compiler GCC version 4.9.2
# options -cpp -iprefix /lustre/shared/ucl/apps/gcc/4.9.2/bin/../lib/gcc/x86_64-unknown-linux-gnu/4.9.2/ -mtune=corei7 -march=x86-64 -g -Og
#
# seed   936284235   408893248  1788222403  1647944218 -1846506868  -695873496 -1435967020  1917039822 -1688185861  1990938143  -143581178  1573819455
#
#      Author: C. J. Pickard (cjp20@cam.ac.uk)
#                Space group: Pba2
#

%BLOCK LATTICE_ABC
      5.86934      5.98536     11.38624
     90.00000     90.00000     90.00000
%ENDBLOCK LATTICE_ABC

%BLOCK POSITIONS_FRAC
  Li  -0.0481688  -0.1780370  -0.3580958 SPIN=   0.00000
  Li  -0.0481688   0.1780370   0.3580958 SPIN=   0.00000
  Li  -0.0481688  -0.3219630   0.1419042 SPIN=   0.00000
  Li  -0.0481688   0.3219630  -0.1419042 SPIN=   0.00000
  Fe   0.3236436  -0.4915996   0.3405116 SPIN=   4.00000
  Fe   0.3236436   0.4915996  -0.3405116 SPIN=   4.00000
  Fe   0.3236436  -0.0084004  -0.1594884 SPIN=   4.00000
  Fe   0.3236436   0.0084004   0.1594884 SPIN=   4.00000
   O   0.0381539  -0.1154107   0.4171988 SPIN=   0.00000
   O  -0.2987968  -0.2894519   0.5105025 SPIN=   0.00000
   O  -0.1136300  -0.4726079   0.3406093 SPIN=   0.00000
   O  -0.3311404  -0.1224809   0.3123556 SPIN=   0.00000
   S  -0.1763533  -0.2499878   0.3951666 SPIN=   0.00000
   O   0.0381539   0.1154107  -0.4171988 SPIN=   0.00000
   O  -0.2987968   0.2894519  -0.5105025 SPIN=   0.00000
   O  -0.1136300   0.4726079  -0.3406093 SPIN=   0.00000
   O  -0.3311404   0.1224809  -0.3123556 SPIN=   0.00000
   S  -0.1763533   0.2499878  -0.3951666 SPIN=   0.00000
   O   0.0381539  -0.3845893  -0.0828012 SPIN=   0.00000
   O  -0.2987968  -0.2105481   0.0105025 SPIN=   0.00000
   O  -0.1136300  -0.0273921  -0.1593907 SPIN=   0.00000
   O  -0.3311404  -0.3775191  -0.1876444 SPIN=   0.00000
   S  -0.1763533  -0.2500122  -0.1048334 SPIN=   0.00000
   O   0.0381539   0.3845893   0.0828012 SPIN=   0.00000
   O  -0.2987968   0.2105481  -0.0105025 SPIN=   0.00000
   O  -0.1136300   0.0273921   0.1593907 SPIN=   0.00000
   O  -0.3311404   0.3775191   0.1876444 SPIN=   0.00000
   S  -0.1763533   0.2500122   0.1048334 SPIN=   0.00000
   F   0.3384410   0.1811105   0.3351359 SPIN=   0.00000
   F   0.3384410  -0.1811105  -0.3351359 SPIN=   0.00000
   F   0.3384410   0.3188895  -0.1648641 SPIN=   0.00000
   F   0.3384410  -0.3188895   0.1648641 SPIN=   0.00000
%ENDBLOCK POSITIONS_FRAC

# Note: total spin =  16.00

KPOINTS_MP_SPACING 0.07

%BLOCK SPECIES_POT
QC5
%ENDBLOCK SPECIES_POT

SNAP_TO_SYMMETRY
SYMMETRY_GENERATE

