#              Generated by Buildcell
#
# at 00:51:42 (GMT+1.0) 18th August 2020
# in /lustre/scratch/uccabz1/launch_tmp
# on node-c12p-010
# by uccabz1
#
# compiler GCC version 4.9.2
# options -cpp -iprefix /lustre/shared/ucl/apps/gcc/4.9.2/bin/../lib/gcc/x86_64-unknown-linux-gnu/4.9.2/ -mtune=corei7 -march=x86-64 -g -Og
#
# seed   534954145   445526549 -1723412767  1170285755  1039015153  1250783782 -1390594423   843643423  -195057412 -2065712438  1961226790   968815703
#
#      Author: C. J. Pickard (cjp20@cam.ac.uk)
#                Space group: P21212
#

%BLOCK LATTICE_ABC
      5.95800      7.13664      9.40730
     90.00000     90.00000     90.00000
%ENDBLOCK LATTICE_ABC

%BLOCK POSITIONS_FRAC
  Li  -0.2548660   0.1815913   0.3795907 SPIN=   0.00000
  Li   0.2548660  -0.1815913   0.3795907 SPIN=   0.00000
  Li   0.2451340   0.3184087  -0.3795907 SPIN=   0.00000
  Li  -0.2451340  -0.3184087  -0.3795907 SPIN=   0.00000
  Fe  -0.2283779  -0.2066913   0.2646324 SPIN=   4.00000
  Fe   0.2283779   0.2066913   0.2646324 SPIN=   4.00000
  Fe   0.2716221  -0.2933087  -0.2646324 SPIN=   4.00000
  Fe  -0.2716221   0.2933087  -0.2646324 SPIN=   4.00000
   O   0.0813697  -0.2000465   0.1704440 SPIN=   0.00000
   O   0.1806718  -0.5352786   0.1463848 SPIN=   0.00000
   O   0.4798971  -0.2976743   0.1747666 SPIN=   0.00000
   O   0.2636162  -0.3143620  -0.0494823 SPIN=   0.00000
   S   0.2513887  -0.3368403   0.1105283 SPIN=   0.00000
   O  -0.0813697   0.2000465   0.1704440 SPIN=   0.00000
   O  -0.1806718   0.5352786   0.1463848 SPIN=   0.00000
   O  -0.4798971   0.2976743   0.1747666 SPIN=   0.00000
   O  -0.2636162   0.3143620  -0.0494823 SPIN=   0.00000
   S  -0.2513887   0.3368403   0.1105283 SPIN=   0.00000
   O  -0.4186303  -0.2999535  -0.1704440 SPIN=   0.00000
   O  -0.3193282   0.0352786  -0.1463848 SPIN=   0.00000
   O  -0.0201029  -0.2023257  -0.1747666 SPIN=   0.00000
   O  -0.2363838  -0.1856380   0.0494823 SPIN=   0.00000
   S  -0.2486113  -0.1631597  -0.1105283 SPIN=   0.00000
   O   0.4186303   0.2999535  -0.1704440 SPIN=   0.00000
   O   0.3193282  -0.0352786  -0.1463848 SPIN=   0.00000
   O   0.0201029   0.2023257  -0.1747666 SPIN=   0.00000
   O   0.2363838   0.1856380   0.0494823 SPIN=   0.00000
   S   0.2486113   0.1631597  -0.1105283 SPIN=   0.00000
   F   0.2497343  -0.1421402  -0.4159883 SPIN=   0.00000
   F  -0.2497343   0.1421402  -0.4159883 SPIN=   0.00000
   F  -0.2502657  -0.3578598   0.4159883 SPIN=   0.00000
   F   0.2502657   0.3578598   0.4159883 SPIN=   0.00000
%ENDBLOCK POSITIONS_FRAC

# Note: total spin =  16.00

KPOINTS_MP_SPACING 0.07

%BLOCK SPECIES_POT
QC5
%ENDBLOCK SPECIES_POT

SNAP_TO_SYMMETRY
SYMMETRY_GENERATE

