#              Generated by Buildcell
#
# at 00:57:13 (GMT+1.0) 18th August 2020
# in /lustre/scratch/uccabz1/launch_tmp
# on node-c12e-036
# by uccabz1
#
# compiler GCC version 4.9.2
# options -cpp -iprefix /lustre/shared/ucl/apps/gcc/4.9.2/bin/../lib/gcc/x86_64-unknown-linux-gnu/4.9.2/ -mtune=corei7 -march=x86-64 -g -Og
#
# seed   426156851    85636251   972416424 -1034409811   364842235   514494338   895786103  1097694918  1793592033 -1812968846  1765496653 -1245667909
#
#      Author: C. J. Pickard (cjp20@cam.ac.uk)
#                Space group: C2
#

%BLOCK LATTICE_ABC
      6.34914      7.26585      9.40787
     67.28433     89.09033     87.64375
%ENDBLOCK LATTICE_ABC

%BLOCK POSITIONS_FRAC
  Li  -0.1650876   0.3114413  -0.0266499 SPIN=   0.00000
  Li   0.1650876  -0.2847914  -0.0266499 SPIN=   0.00000
  Li  -0.2076274   0.0750544   0.3959183 SPIN=   0.00000
  Li   0.2076274  -0.4709727   0.3959183 SPIN=   0.00000
  Fe  -0.2418583  -0.3816581   0.4920842 SPIN=   2.84304
  Fe   0.2418583  -0.1104260   0.4920842 SPIN=   2.84304
  Fe   0.0000000   0.1230321  -0.2460643 SPIN=   6.98135
  Fe   0.5000000   0.4169615   0.1660769 SPIN=   3.33256
   O  -0.2915948   0.5111291  -0.2163220 SPIN=   0.00000
   O  -0.4612472   0.4036336  -0.4050828 SPIN=   0.00000
   O  -0.6474739   0.3729413  -0.1643152 SPIN=   0.00000
   O  -0.3364970   0.1517616  -0.1550495 SPIN=   0.00000
   O   0.2915948  -0.2948071  -0.2163220 SPIN=   0.00000
   O   0.4612472   0.0014492  -0.4050828 SPIN=   0.00000
   O   0.6474739  -0.2086261  -0.1643152 SPIN=   0.00000
   O   0.3364970   0.0032878  -0.1550495 SPIN=   0.00000
   O  -0.0774976  -0.2977152   0.2282896 SPIN=   0.00000
   O  -0.4164108  -0.2312649   0.0876785 SPIN=   0.00000
   O  -0.0862607  -0.1058861  -0.0536666 SPIN=   0.00000
   O  -0.2374112   0.0447541   0.1223734 SPIN=   0.00000
   O   0.0774976   0.0694256   0.2282896 SPIN=   0.00000
   O   0.4164108   0.1435864   0.0876785 SPIN=   0.00000
   O   0.0862607   0.1595526  -0.0536666 SPIN=   0.00000
   O   0.2374112  -0.1671275   0.1223734 SPIN=   0.00000
   S   0.5000000   0.2329662  -0.4659324 SPIN=   0.00000
   S  -0.0000000  -0.0949673   0.1899347 SPIN=   0.00000
   S  -0.5000000   0.0181647  -0.0363293 SPIN=   0.00000
   S  -0.5000000  -0.3977313  -0.2045374 SPIN=   0.00000
   F   0.0404407   0.4506241  -0.4035209 SPIN=   0.00000
   F  -0.0404407  -0.0471032  -0.4035209 SPIN=   0.00000
   F  -0.5000000  -0.1862679   0.3725358 SPIN=   0.00000
   F  -0.0000000   0.4794529   0.0410942 SPIN=   0.00000
%ENDBLOCK POSITIONS_FRAC

# Note: total spin =  16.00

KPOINTS_MP_SPACING 0.07

%BLOCK SPECIES_POT
QC5
%ENDBLOCK SPECIES_POT

SNAP_TO_SYMMETRY
SYMMETRY_GENERATE

