#              Generated by Buildcell
#
# at 05:58:26 (GMT+1.0) 4th August 2020
# in /lustre/scratch/uccabz1/launch_tmp
# on node-c12j-013
# by uccabz1
#
# compiler GCC version 4.9.2
# options -cpp -iprefix /lustre/shared/ucl/apps/gcc/4.9.2/bin/../lib/gcc/x86_64-unknown-linux-gnu/4.9.2/ -mtune=corei7 -march=x86-64 -g -Og
#
# seed -1716722286  1495126362 -1225089358   -85253288 -1611306212 -1376601033   605243776  -528665708 -1979466239 -1806388190  -843184840  1650292972
#
#      Author: C. J. Pickard (cjp20@cam.ac.uk)
#                Space group: P-1
#

%BLOCK LATTICE_ABC
      6.37389      7.69242      9.29122
     68.54948     84.69346     70.71486
%ENDBLOCK LATTICE_ABC

%BLOCK POSITIONS_FRAC
  Li  -0.2555464   0.3061706   0.1922746 SPIN=   0.00000
  Li   0.2555464  -0.3061706  -0.1922746 SPIN=   0.00000
  Li   0.0034000  -0.3215478   0.1961791 SPIN=   0.00000
  Li  -0.0034000   0.3215478  -0.1961791 SPIN=   0.00000
  Fe   0.4505913   0.0172880  -0.2875295 SPIN=   3.76553
  Fe  -0.4505913  -0.0172880   0.2875295 SPIN=   3.76553
  Fe   0.0000000   0.0000000  -0.5000000 SPIN=   4.21039
  Fe  -0.5000000  -0.5000000   0.5000000 SPIN=   4.25856
   O  -0.2964354   0.3341662  -0.0242805 SPIN=   0.00000
   O  -0.3697764   0.0663202  -0.0771947 SPIN=   0.00000
   O  -0.2981458   0.3434026  -0.2932479 SPIN=   0.00000
   O  -0.6504806   0.3986110  -0.1543063 SPIN=   0.00000
   S  -0.4037095   0.2856250  -0.1372574 SPIN=   0.00000
   O   0.2964354  -0.3341662   0.0242805 SPIN=   0.00000
   O   0.3697764  -0.0663202   0.0771947 SPIN=   0.00000
   O   0.2981458  -0.3434026   0.2932479 SPIN=   0.00000
   O   0.6504806  -0.3986110   0.1543063 SPIN=   0.00000
   S   0.4037095  -0.2856250   0.1372574 SPIN=   0.00000
   O  -0.2093379  -0.0542622  -0.2736900 SPIN=   0.00000
   O  -0.4023410  -0.2972237  -0.1356470 SPIN=   0.00000
   O  -0.0792491  -0.2923663  -0.0102986 SPIN=   0.00000
   O  -0.0242511  -0.4077406  -0.2313889 SPIN=   0.00000
   O   0.2093379   0.0542622   0.2736900 SPIN=   0.00000
   O   0.4023410   0.2972237   0.1356470 SPIN=   0.00000
   O   0.0792491   0.2923663   0.0102986 SPIN=   0.00000
   O   0.0242511   0.4077406   0.2313889 SPIN=   0.00000
   S  -0.0000000   0.5000000   0.0000000 SPIN=   0.00000
   S   0.0000000  -0.5000000   0.5000000 SPIN=   0.00000
   F  -0.1423095  -0.0512903   0.2055695 SPIN=   0.00000
   F   0.1423095   0.0512903  -0.2055695 SPIN=   0.00000
   F   0.4482924   0.7464411  -0.4652664 SPIN=   0.00000
   F  -0.4482924  -0.7464411   0.4652664 SPIN=   0.00000
%ENDBLOCK POSITIONS_FRAC

# Note: total spin =  16.00

KPOINTS_MP_SPACING 0.07

%BLOCK SPECIES_POT
QC5
%ENDBLOCK SPECIES_POT

SNAP_TO_SYMMETRY
SYMMETRY_GENERATE

