#              Generated by Buildcell
#
# at 14:15:13 (GMT+1.0) 18th August 2020
# in /lustre/scratch/uccabz1/launch_tmp
# on node-c12j-022
# by uccabz1
#
# compiler GCC version 4.9.2
# options -cpp -iprefix /lustre/shared/ucl/apps/gcc/4.9.2/bin/../lib/gcc/x86_64-unknown-linux-gnu/4.9.2/ -mtune=corei7 -march=x86-64 -g -Og
#
# seed   666142585 -2104251601   -69794465  -497877120 -1006443738   112293338  1815927736  1676097202  1444245478  -712331250   369833939 -2101356422
#
#      Author: C. J. Pickard (cjp20@cam.ac.uk)
#                Space group: P-1
#

%BLOCK LATTICE_ABC
      4.66378      9.37949      9.62572
     75.60572     78.74302     87.08299
%ENDBLOCK LATTICE_ABC

%BLOCK POSITIONS_FRAC
  Li   0.1930988   0.4759944   0.1465943 SPIN=   0.00000
  Li  -0.1930988  -0.4759944  -0.1465943 SPIN=   0.00000
  Li   0.3381901  -0.1927290  -0.3078903 SPIN=   0.00000
  Li  -0.3381901   0.1927290   0.3078903 SPIN=   0.00000
  Fe  -0.0946927  -0.2894004  -0.4482386 SPIN=   3.10165
  Fe   0.0946927   0.2894004   0.4482386 SPIN=   3.10165
  Fe  -0.3717078  -0.4247651   0.2845690 SPIN=   4.89835
  Fe   0.3717078   0.4247651  -0.2845690 SPIN=   4.89835
   O   0.1481919  -0.2213138   0.0234508 SPIN=   0.00000
   O  -0.2340809  -0.0307998  -0.0171677 SPIN=   0.00000
   O  -0.3690476  -0.2944268   0.0609593 SPIN=   0.00000
   O  -0.0948835  -0.1909424  -0.1888602 SPIN=   0.00000
   S  -0.1374550  -0.1843707  -0.0304044 SPIN=   0.00000
   O  -0.1481919   0.2213138  -0.0234508 SPIN=   0.00000
   O   0.2340809   0.0307998   0.0171677 SPIN=   0.00000
   O   0.3690476   0.2944268  -0.0609593 SPIN=   0.00000
   O   0.0948835   0.1909424   0.1888602 SPIN=   0.00000
   S   0.1374550   0.1843707   0.0304044 SPIN=   0.00000
   O  -0.4279723   0.1323563  -0.2024696 SPIN=   0.00000
   O  -0.7570912   0.0130314  -0.3123638 SPIN=   0.00000
   O  -0.2206135  -0.0060922  -0.3870030 SPIN=   0.00000
   O  -0.4706032   0.2320729  -0.4610188 SPIN=   0.00000
   S  -0.4690701   0.0928421  -0.3407138 SPIN=   0.00000
   O   0.4279723  -0.1323563   0.2024696 SPIN=   0.00000
   O   0.7570912  -0.0130314   0.3123638 SPIN=   0.00000
   O   0.2206135   0.0060922   0.3870030 SPIN=   0.00000
   O   0.4706032  -0.2320729   0.4610188 SPIN=   0.00000
   S   0.4690701  -0.0928421   0.3407138 SPIN=   0.00000
   F  -0.4183977   0.3963946   0.1927718 SPIN=   0.00000
   F   0.4183977  -0.3963946  -0.1927718 SPIN=   0.00000
   F  -0.0043817   0.3742127  -0.3250520 SPIN=   0.00000
   F   0.0043817  -0.3742127   0.3250520 SPIN=   0.00000
%ENDBLOCK POSITIONS_FRAC

# Note: total spin =  16.00

KPOINTS_MP_SPACING 0.07

%BLOCK SPECIES_POT
QC5
%ENDBLOCK SPECIES_POT

SNAP_TO_SYMMETRY
SYMMETRY_GENERATE

