#              Generated by Buildcell
#
# at 07:37:18 (GMT+1.0) 4th August 2020
# in /lustre/scratch/uccabz1/launch_tmp
# on node-c12n-031
# by uccabz1
#
# compiler GCC version 4.9.2
# options -cpp -iprefix /lustre/shared/ucl/apps/gcc/4.9.2/bin/../lib/gcc/x86_64-unknown-linux-gnu/4.9.2/ -mtune=corei7 -march=x86-64 -g -Og
#
# seed   238351456    76825710   484846409  1803264593  -979269118 -1514049727  -671360428 -1538198132   643450140 -2107436377  -467378489 -2053586998
#
#      Author: C. J. Pickard (cjp20@cam.ac.uk)
#                Space group: P2/c
#

%BLOCK LATTICE_ABC
      4.80750      7.33432     11.34440
     90.00000     90.06152     90.00000
%ENDBLOCK LATTICE_ABC

%BLOCK POSITIONS_FRAC
  Li   0.2494618  -0.2983149   0.0322954 SPIN=   0.00000
  Li   0.7505382  -0.2983149   0.4677046 SPIN=   0.00000
  Li  -0.2494618   0.2983149  -0.0322954 SPIN=   0.00000
  Li  -0.7505382   0.2983149  -0.4677046 SPIN=   0.00000
  Fe   0.2496814   0.0947564   0.1256543 SPIN=   4.00000
  Fe   0.7503186   0.0947564   0.3743457 SPIN=   4.00000
  Fe  -0.2496814  -0.0947564  -0.1256543 SPIN=   4.00000
  Fe  -0.7503186  -0.0947564  -0.3743457 SPIN=   4.00000
   O  -0.0012038   0.4925037  -0.1457313 SPIN=   0.00000
   O   0.5132852   0.4809783  -0.1464947 SPIN=   0.00000
   O   0.2407568   0.2027018  -0.1900614 SPIN=   0.00000
   O   0.2494751   0.3279764   0.0124757 SPIN=   0.00000
   S   0.2505783   0.3760400  -0.1174529 SPIN=   0.00000
   O   0.0012038   0.4925037  -0.3542687 SPIN=   0.00000
   O  -0.5132852   0.4809783  -0.3535053 SPIN=   0.00000
   O  -0.2407568   0.2027018  -0.3099386 SPIN=   0.00000
   O  -0.2494751   0.3279764  -0.5124757 SPIN=   0.00000
   S  -0.2505783   0.3760400  -0.3825471 SPIN=   0.00000
   O   0.0012038  -0.4925037   0.1457313 SPIN=   0.00000
   O  -0.5132852  -0.4809783   0.1464947 SPIN=   0.00000
   O  -0.2407568  -0.2027018   0.1900614 SPIN=   0.00000
   O  -0.2494751  -0.3279764  -0.0124757 SPIN=   0.00000
   S  -0.2505783  -0.3760400   0.1174529 SPIN=   0.00000
   O  -0.0012038  -0.4925037   0.3542687 SPIN=   0.00000
   O   0.5132852  -0.4809783   0.3535053 SPIN=   0.00000
   O   0.2407568  -0.2027018   0.3099386 SPIN=   0.00000
   O   0.2494751  -0.3279764   0.5124757 SPIN=   0.00000
   S   0.2505783  -0.3760400   0.3825471 SPIN=   0.00000
   F  -0.2500747   0.1596082   0.1037433 SPIN=   0.00000
   F   0.2500747   0.1596082   0.3962567 SPIN=   0.00000
   F   0.2500747  -0.1596082  -0.1037433 SPIN=   0.00000
   F  -0.2500747  -0.1596082  -0.3962567 SPIN=   0.00000
%ENDBLOCK POSITIONS_FRAC

# Note: total spin =  16.00

KPOINTS_MP_SPACING 0.07

%BLOCK SPECIES_POT
QC5
%ENDBLOCK SPECIES_POT

SNAP_TO_SYMMETRY
SYMMETRY_GENERATE

