#              Generated by Buildcell
#
# at 09:22:34 (GMT+1.0) 4th August 2020
# in /lustre/scratch/uccabz1/launch_tmp
# on node-c12p-022
# by uccabz1
#
# compiler GCC version 4.9.2
# options -cpp -iprefix /lustre/shared/ucl/apps/gcc/4.9.2/bin/../lib/gcc/x86_64-unknown-linux-gnu/4.9.2/ -mtune=corei7 -march=x86-64 -g -Og
#
# seed  -720683184  -623676647   575965513   976339479   902649689  1683507199  1838826716  1060903610  1130985185   935590732  2071472663 -1752965846
#
#      Author: C. J. Pickard (cjp20@cam.ac.uk)
#                Space group: Pc
#

%BLOCK LATTICE_ABC
      7.32866      7.42137      7.46323
     90.00000     99.79336     90.00000
%ENDBLOCK LATTICE_ABC

%BLOCK POSITIONS_FRAC
  Li  -0.4606647   0.3134937  -0.3733445 SPIN=   0.00000
  Li   0.0393353  -0.3134937  -0.3733445 SPIN=   0.00000
  Li   0.0012724   0.2824075  -0.1037248 SPIN=   0.00000
  Li  -0.4987276  -0.2824075  -0.1037248 SPIN=   0.00000
  Fe   0.2756078   0.0204274  -0.3012205 SPIN=   2.18860
  Fe  -0.2243922  -0.0204274  -0.3012205 SPIN=   2.18860
  Fe   0.2426754   0.2571895   0.2649778 SPIN=   5.81140
  Fe  -0.2573246  -0.2571895   0.2649778 SPIN=   5.81140
   O   0.3888312  -0.5222550   0.3826851 SPIN=   0.00000
   O   0.2334423  -0.2306081   0.4137302 SPIN=   0.00000
   O   0.5733079  -0.2564761   0.5043290 SPIN=   0.00000
   O   0.3653914  -0.4045882   0.6882203 SPIN=   0.00000
   S   0.3902432  -0.3534819   0.4972411 SPIN=   0.00000
   O  -0.1111688   0.5222550   0.3826851 SPIN=   0.00000
   O  -0.2665577   0.2306081   0.4137302 SPIN=   0.00000
   O   0.0733079   0.2564761   0.5043290 SPIN=   0.00000
   O  -0.1346086   0.4045882   0.6882203 SPIN=   0.00000
   S  -0.1097568   0.3534819   0.4972411 SPIN=   0.00000
   O  -0.1833548   0.2482618   0.0477833 SPIN=   0.00000
   O  -0.2788088   0.5436458  -0.0912750 SPIN=   0.00000
   O  -0.4106088   0.4359393   0.1734645 SPIN=   0.00000
   O  -0.4996550   0.2886585  -0.1261734 SPIN=   0.00000
   S  -0.3431069   0.3791264   0.0009498 SPIN=   0.00000
   O   0.3166452  -0.2482618   0.0477833 SPIN=   0.00000
   O   0.2211912  -0.5436458  -0.0912750 SPIN=   0.00000
   O   0.0893912  -0.4359393   0.1734645 SPIN=   0.00000
   O   0.0003450  -0.2886585  -0.1261734 SPIN=   0.00000
   S   0.1568931  -0.3791264   0.0009498 SPIN=   0.00000
   F   0.4034790   0.1383647   0.4439883 SPIN=   0.00000
   F  -0.0965210  -0.1383647   0.4439883 SPIN=   0.00000
   F   0.2133173   0.1058370  -0.0870823 SPIN=   0.00000
   F  -0.2866827  -0.1058370  -0.0870823 SPIN=   0.00000
%ENDBLOCK POSITIONS_FRAC

# Note: total spin =  16.00

KPOINTS_MP_SPACING 0.07

%BLOCK SPECIES_POT
QC5
%ENDBLOCK SPECIES_POT

SNAP_TO_SYMMETRY
SYMMETRY_GENERATE

