#              Generated by Buildcell
#
# at 06:26:42 (GMT+1.0) 4th August 2020
# in /lustre/scratch/uccabz1/launch_tmp
# on node-y12q-001
# by uccabz1
#
# compiler GCC version 4.9.2
# options -cpp -iprefix /lustre/shared/ucl/apps/gcc/4.9.2/bin/../lib/gcc/x86_64-unknown-linux-gnu/4.9.2/ -mtune=corei7 -march=x86-64 -g -Og
#
# seed  1592637261  1551931421  -607384703    -7603039 -1311627497  1349880032   205964856  1992302180  -122362133 -1121301536  1486296253  -421007384
#
#      Author: C. J. Pickard (cjp20@cam.ac.uk)
#                Space group: Pmn21
#

%BLOCK LATTICE_ABC
      4.02023      7.38905     13.46542
     90.00000     90.00000     90.00000
%ENDBLOCK LATTICE_ABC

%BLOCK POSITIONS_FRAC
  Li  -0.2171300   0.3775333  -0.1448340 SPIN=   0.00000
  Li   0.2828700  -0.3775333  -0.3551660 SPIN=   0.00000
  Li   0.2828700  -0.3775333   0.3551660 SPIN=   0.00000
  Li  -0.2171300   0.3775333   0.1448340 SPIN=   0.00000
  Fe   0.2552781   0.0089706   0.3652205 SPIN=   4.00000
  Fe  -0.2447219  -0.0089706   0.1347795 SPIN=   4.00000
  Fe  -0.2447219  -0.0089706  -0.1347795 SPIN=   4.00000
  Fe   0.2552781   0.0089706  -0.3652205 SPIN=   4.00000
   O   0.0597773  -0.2284074  -0.0852207 SPIN=   0.00000
   O   0.5525740  -0.2640330  -0.1936242 SPIN=   0.00000
   O   0.0355575  -0.4328887  -0.2306087 SPIN=   0.00000
   O   0.3761258  -0.5157335  -0.0844066 SPIN=   0.00000
   S   0.2560086  -0.3602657  -0.1484650 SPIN=   0.00000
   O  -0.4402227   0.2284074  -0.4147793 SPIN=   0.00000
   O   0.0525740   0.2640330  -0.3063758 SPIN=   0.00000
   O  -0.4644425   0.4328887  -0.2693913 SPIN=   0.00000
   O  -0.1238742   0.5157335  -0.4155934 SPIN=   0.00000
   S  -0.2439914   0.3602657  -0.3515350 SPIN=   0.00000
   O  -0.4402227   0.2284074   0.4147793 SPIN=   0.00000
   O   0.0525740   0.2640330   0.3063758 SPIN=   0.00000
   O  -0.4644425   0.4328887   0.2693913 SPIN=   0.00000
   O  -0.1238742   0.5157335   0.4155934 SPIN=   0.00000
   S  -0.2439914   0.3602657   0.3515350 SPIN=   0.00000
   O   0.0597773  -0.2284074   0.0852207 SPIN=   0.00000
   O   0.5525740  -0.2640330   0.1936242 SPIN=   0.00000
   O   0.0355575  -0.4328887   0.2306087 SPIN=   0.00000
   O   0.3761258  -0.5157335   0.0844066 SPIN=   0.00000
   S   0.2560086  -0.3602657   0.1484650 SPIN=   0.00000
   F   0.3740856   0.1522504  -0.1492180 SPIN=   0.00000
   F  -0.1259144  -0.1522504  -0.3507820 SPIN=   0.00000
   F  -0.1259144  -0.1522504   0.3507820 SPIN=   0.00000
   F   0.3740856   0.1522504   0.1492180 SPIN=   0.00000
%ENDBLOCK POSITIONS_FRAC

# Note: total spin =  16.00

KPOINTS_MP_SPACING 0.07

%BLOCK SPECIES_POT
QC5
%ENDBLOCK SPECIES_POT

SNAP_TO_SYMMETRY
SYMMETRY_GENERATE

