#              Generated by Buildcell
#
# at 09:17:37 (GMT+1.0) 18th August 2020
# in /lustre/scratch/uccabz1/launch_tmp
# on node-c12k-019
# by uccabz1
#
# compiler GCC version 4.9.2
# options -cpp -iprefix /lustre/shared/ucl/apps/gcc/4.9.2/bin/../lib/gcc/x86_64-unknown-linux-gnu/4.9.2/ -mtune=corei7 -march=x86-64 -g -Og
#
# seed -1995385821  1118121827 -1541688528   -12269164   215614471  1215003356   450073388  1724012261  1653437883  -239907128 -1674897924 -1847691493
#
#      Author: C. J. Pickard (cjp20@cam.ac.uk)
#                Space group: Pc
#

%BLOCK LATTICE_ABC
      4.12686      9.07414     10.85331
     90.00000    100.20660     90.00000
%ENDBLOCK LATTICE_ABC

%BLOCK POSITIONS_FRAC
  Li  -0.0526821  -0.1082573   0.0842495 SPIN=   0.00000
  Li  -0.0526821   0.1082573  -0.4157505 SPIN=   0.00000
  Li   0.1036996  -0.4717059   0.4628815 SPIN=   0.00000
  Li   0.1036996   0.4717059  -0.0371185 SPIN=   0.00000
  Fe  -0.3971106   0.4640922  -0.2969587 SPIN=   4.14906
  Fe  -0.3971106  -0.4640922   0.2030413 SPIN=   4.14906
  Fe   0.3591105   0.2256685   0.3950462 SPIN=   3.85094
  Fe   0.3591105  -0.2256685  -0.1049538 SPIN=   3.85094
   O   0.2070866  -0.1492384   0.4533022 SPIN=   0.00000
   O   0.3290437  -0.3670085   0.3320416 SPIN=   0.00000
   O   0.3076004  -0.1186919   0.2366237 SPIN=   0.00000
   O  -0.2047878  -0.2379939   0.2747731 SPIN=   0.00000
   S   0.1597357  -0.2182332   0.3241851 SPIN=   0.00000
   O   0.2070866   0.1492384  -0.0466978 SPIN=   0.00000
   O   0.3290437   0.3670085  -0.1679584 SPIN=   0.00000
   O   0.3076004   0.1186919  -0.2633763 SPIN=   0.00000
   O  -0.2047878   0.2379939  -0.2252269 SPIN=   0.00000
   S   0.1597357   0.2182332  -0.1758149 SPIN=   0.00000
   O  -0.2796763   0.2447517  -0.0054811 SPIN=   0.00000
   O   0.1963187   0.1955719   0.1628883 SPIN=   0.00000
   O  -0.3163659   0.0508727   0.1518391 SPIN=   0.00000
   O  -0.3047484   0.3137461   0.2132425 SPIN=   0.00000
   S  -0.1761180   0.2012356   0.1306222 SPIN=   0.00000
   O  -0.2796763  -0.2447517  -0.5054811 SPIN=   0.00000
   O   0.1963187  -0.1955719  -0.3371117 SPIN=   0.00000
   O  -0.3163659  -0.0508727  -0.3481609 SPIN=   0.00000
   O  -0.3047484  -0.3137461  -0.2867575 SPIN=   0.00000
   S  -0.1761180  -0.2012356  -0.3693778 SPIN=   0.00000
   F  -0.1897619   0.4272490  -0.4314749 SPIN=   0.00000
   F  -0.1897619  -0.4272490   0.0685251 SPIN=   0.00000
   F  -0.3309318   0.0765188   0.4128063 SPIN=   0.00000
   F  -0.3309318  -0.0765188  -0.0871937 SPIN=   0.00000
%ENDBLOCK POSITIONS_FRAC

# Note: total spin =  16.00

KPOINTS_MP_SPACING 0.07

%BLOCK SPECIES_POT
QC5
%ENDBLOCK SPECIES_POT

SNAP_TO_SYMMETRY
SYMMETRY_GENERATE

