#              Generated by Buildcell
#
# at 02:57:27 (GMT+1.0) 18th August 2020
# in /lustre/scratch/uccabz1/launch_tmp
# on node-c12f-002
# by uccabz1
#
# compiler GCC version 4.9.2
# options -cpp -iprefix /lustre/shared/ucl/apps/gcc/4.9.2/bin/../lib/gcc/x86_64-unknown-linux-gnu/4.9.2/ -mtune=corei7 -march=x86-64 -g -Og
#
# seed -1783360049   798860333 -1919862541  -636510457   167004123   359188573   144909034  1930516944  1902264289  1143212669   143209112 -1324959483
#
#      Author: C. J. Pickard (cjp20@cam.ac.uk)
#                Space group: P21
#

%BLOCK LATTICE_ABC
      5.37106      7.81854     10.08705
     90.00000     90.00000    109.21326
%ENDBLOCK LATTICE_ABC

%BLOCK POSITIONS_FRAC
  Li  -0.4432001   0.2706648   0.0344648 SPIN=   0.00000
  Li   0.4432001  -0.2706648  -0.4655352 SPIN=   0.00000
  Li  -0.2360337  -0.1212830  -0.1492008 SPIN=   0.00000
  Li   0.2360337   0.1212830   0.3507992 SPIN=   0.00000
  Fe   0.2941368   0.0392271  -0.3639095 SPIN=   2.09338
  Fe  -0.2941368  -0.0392271   0.1360905 SPIN=   2.09338
  Fe   0.0297877  -0.2820949   0.3384415 SPIN=   5.90662
  Fe  -0.0297877   0.2820949  -0.1615585 SPIN=   5.90662
   O   0.1570116  -0.1267037  -0.2022945 SPIN=   0.00000
   O   0.1702127  -0.4306676  -0.1427249 SPIN=   0.00000
   O  -0.0316786  -0.2671218   0.0109052 SPIN=   0.00000
   O   0.4516704  -0.1599585  -0.0226991 SPIN=   0.00000
   S   0.1868040  -0.2461129  -0.0892033 SPIN=   0.00000
   O  -0.1570116   0.1267037   0.2977055 SPIN=   0.00000
   O  -0.1702127   0.4306676   0.3572751 SPIN=   0.00000
   O   0.0316786   0.2671218   0.5109052 SPIN=   0.00000
   O  -0.4516704   0.1599585   0.4773009 SPIN=   0.00000
   S  -0.1868040   0.2461129   0.4107967 SPIN=   0.00000
   O  -0.2989724   0.4340449  -0.1780912 SPIN=   0.00000
   O  -0.3091531   0.4488322  -0.4230315 SPIN=   0.00000
   O  -0.4033088   0.6850009  -0.2883690 SPIN=   0.00000
   O  -0.7243284   0.3741887  -0.2949815 SPIN=   0.00000
   S  -0.4339407   0.4855167  -0.2961183 SPIN=   0.00000
   O   0.2989724  -0.4340449   0.3219088 SPIN=   0.00000
   O   0.3091531  -0.4488322   0.0769685 SPIN=   0.00000
   O   0.4033088  -0.6850009   0.2116310 SPIN=   0.00000
   O   0.7243284  -0.3741887   0.2050185 SPIN=   0.00000
   S   0.4339407  -0.4855167   0.2038817 SPIN=   0.00000
   F  -0.3565766   0.0648738  -0.2793760 SPIN=   0.00000
   F   0.3565766  -0.0648738   0.2206240 SPIN=   0.00000
   F   0.2007717   0.2023125  -0.0486745 SPIN=   0.00000
   F  -0.2007717  -0.2023125   0.4513255 SPIN=   0.00000
%ENDBLOCK POSITIONS_FRAC

# Note: total spin =  16.00

KPOINTS_MP_SPACING 0.07

%BLOCK SPECIES_POT
QC5
%ENDBLOCK SPECIES_POT

SNAP_TO_SYMMETRY
SYMMETRY_GENERATE

