#              Generated by Buildcell
#
# at 06:08:56 (GMT+1.0) 4th August 2020
# in /lustre/scratch/uccabz1/launch_tmp
# on node-c12k-004
# by uccabz1
#
# compiler GCC version 4.9.2
# options -cpp -iprefix /lustre/shared/ucl/apps/gcc/4.9.2/bin/../lib/gcc/x86_64-unknown-linux-gnu/4.9.2/ -mtune=corei7 -march=x86-64 -g -Og
#
# seed   634123183   481918934  -866293151  -409934173  -572747285   309781843  1751480323  1151794785   -17031735  -280012202  -488510221   283626938
#
#      Author: C. J. Pickard (cjp20@cam.ac.uk)
#                Space group: P2
#

%BLOCK LATTICE_ABC
      4.94682      7.91819     10.28590
     90.00000     96.87580     90.00000
%ENDBLOCK LATTICE_ABC

%BLOCK POSITIONS_FRAC
  Li   0.2338788   0.2555912   0.3496783 SPIN=   0.00000
  Li  -0.2338788   0.2555912  -0.3496783 SPIN=   0.00000
  Li  -0.2143308  -0.2443788   0.1437476 SPIN=   0.00000
  Li   0.2143308  -0.2443788  -0.1437476 SPIN=   0.00000
  Fe  -0.2800703   0.0037409  -0.1273368 SPIN=   2.19972
  Fe   0.2800703   0.0037409   0.1273368 SPIN=   2.19972
  Fe   0.2800198  -0.4925725   0.1273471 SPIN=   5.80028
  Fe  -0.2800198  -0.4925725  -0.1273471 SPIN=   5.80028
   O  -0.0997453   0.0442005  -0.4068024 SPIN=   0.00000
   O   0.3938139   0.1059635  -0.3881545 SPIN=   0.00000
   O   0.2340233  -0.1731260  -0.3204613 SPIN=   0.00000
   O   0.1632524   0.0807894  -0.1883620 SPIN=   0.00000
   S   0.1728361   0.0144569  -0.3259451 SPIN=   0.00000
   O   0.0997453   0.0442005   0.4068024 SPIN=   0.00000
   O  -0.3938139   0.1059635   0.3881545 SPIN=   0.00000
   O  -0.2340233  -0.1731260   0.3204613 SPIN=   0.00000
   O  -0.1632524   0.0807894   0.1883620 SPIN=   0.00000
   S  -0.1728361   0.0144569   0.3259451 SPIN=   0.00000
   O   0.0705459   0.6135538   0.3501107 SPIN=   0.00000
   O  -0.1088136   0.3310286   0.3968457 SPIN=   0.00000
   O  -0.2365170   0.4638432   0.1803973 SPIN=   0.00000
   O  -0.4169233   0.5783338   0.3766608 SPIN=   0.00000
   S  -0.1729270   0.4966898   0.3260036 SPIN=   0.00000
   O  -0.0705459   0.6135538  -0.3501107 SPIN=   0.00000
   O   0.1088136   0.3310286  -0.3968457 SPIN=   0.00000
   O   0.2365170   0.4638432  -0.1803973 SPIN=   0.00000
   O   0.4169233   0.5783338  -0.3766608 SPIN=   0.00000
   S   0.1729270   0.4966898  -0.3260036 SPIN=   0.00000
   F  -0.2831633   0.2555871  -0.1495793 SPIN=   0.00000
   F   0.2831633   0.2555871   0.1495793 SPIN=   0.00000
   F  -0.2873771  -0.2444214  -0.1664549 SPIN=   0.00000
   F   0.2873771  -0.2444214   0.1664549 SPIN=   0.00000
%ENDBLOCK POSITIONS_FRAC

# Note: total spin =  16.00

KPOINTS_MP_SPACING 0.07

%BLOCK SPECIES_POT
QC5
%ENDBLOCK SPECIES_POT

SNAP_TO_SYMMETRY
SYMMETRY_GENERATE

