#              Generated by Buildcell
#
# at 08:07:31 (GMT+1.0) 4th August 2020
# in /lustre/scratch/uccabz1/launch_tmp
# on node-c12l-016
# by uccabz1
#
# compiler GCC version 4.9.2
# options -cpp -iprefix /lustre/shared/ucl/apps/gcc/4.9.2/bin/../lib/gcc/x86_64-unknown-linux-gnu/4.9.2/ -mtune=corei7 -march=x86-64 -g -Og
#
# seed   496833386  -285854013 -1516923817  1323296289 -1527876791   647536859 -1010267389  -826144848  1183074660  1847488483  1570417478    95705997
#
#      Author: C. J. Pickard (cjp20@cam.ac.uk)
#                Space group: Pm
#

%BLOCK LATTICE_ABC
      3.89535      9.42483     10.94649
     90.00000     95.54283     90.00000
%ENDBLOCK LATTICE_ABC

%BLOCK POSITIONS_FRAC
  Li   0.3729469   0.3062295   0.1569647 SPIN=   0.00000
  Li   0.3729469  -0.3062295   0.1569647 SPIN=   0.00000
  Li   0.2699446   0.3108112  -0.2197264 SPIN=   0.00000
  Li   0.2699446  -0.3108112  -0.2197264 SPIN=   0.00000
  Fe  -0.1791571  -0.1968738  -0.0324386 SPIN=   4.89756
  Fe  -0.1791571   0.1968738  -0.0324386 SPIN=   4.89756
  Fe  -0.1387188  -0.0000000   0.3418137 SPIN=   2.03276
  Fe  -0.3020814   0.5000000  -0.3732946 SPIN=   4.17212
   O   0.1653016  -0.1522722   0.4546551 SPIN=   0.00000
   O   0.1201576  -0.3488394   0.3040491 SPIN=   0.00000
   O   0.5329083  -0.3653033   0.4901164 SPIN=   0.00000
   O   0.6401529  -0.1965762   0.3247790 SPIN=   0.00000
   S   0.3646301  -0.2657478   0.3933999 SPIN=   0.00000
   O   0.1653016   0.1522722   0.4546551 SPIN=   0.00000
   O   0.1201576   0.3488394   0.3040491 SPIN=   0.00000
   O   0.5329083   0.3653033   0.4901164 SPIN=   0.00000
   O   0.6401529   0.1965762   0.3247790 SPIN=   0.00000
   S   0.3646301   0.2657478   0.3933999 SPIN=   0.00000
   O   0.0663381  -0.3520777  -0.3861604 SPIN=   0.00000
   O  -0.3005136  -0.1387927  -0.4213611 SPIN=   0.00000
   O   0.2515043  -0.1236474  -0.2896128 SPIN=   0.00000
   O  -0.2415172  -0.2544176  -0.2174206 SPIN=   0.00000
   O   0.0663381   0.3520777  -0.3861604 SPIN=   0.00000
   O  -0.3005136   0.1387927  -0.4213611 SPIN=   0.00000
   O   0.2515043   0.1236474  -0.2896128 SPIN=   0.00000
   O  -0.2415172   0.2544176  -0.2174206 SPIN=   0.00000
   S  -0.1567596   0.0000000  -0.3429760 SPIN=   0.00000
   S  -0.1309478  -0.5000000   0.1180626 SPIN=   0.00000
   F   0.3429190   0.1867909  -0.0484143 SPIN=   0.00000
   F   0.3429190  -0.1867909  -0.0484143 SPIN=   0.00000
   F  -0.5455804   0.5000000  -0.2143266 SPIN=   0.00000
   F  -0.0753487  -0.0000000   0.1720760 SPIN=   0.00000
%ENDBLOCK POSITIONS_FRAC

# Note: total spin =  16.00

KPOINTS_MP_SPACING 0.07

%BLOCK SPECIES_POT
QC5
%ENDBLOCK SPECIES_POT

SNAP_TO_SYMMETRY
SYMMETRY_GENERATE

