#              Generated by Buildcell
#
# at 15:34:53 (GMT+1.0) 18th August 2020
# in /lustre/scratch/uccabz1/launch_tmp
# on node-c12d-004
# by uccabz1
#
# compiler GCC version 4.9.2
# options -cpp -iprefix /lustre/shared/ucl/apps/gcc/4.9.2/bin/../lib/gcc/x86_64-unknown-linux-gnu/4.9.2/ -mtune=corei7 -march=x86-64 -g -Og
#
# seed  1889293033  -524789120  1842134796  -391362730  2129862296  -206492622   142981424 -1806424061   312880258  -653797023   564171228  1343962030
#
#      Author: C. J. Pickard (cjp20@cam.ac.uk)
#                Space group: P21/m
#

%BLOCK LATTICE_ABC
      3.95346      7.08710     14.65022
     90.00000     90.00000    102.97391
%ENDBLOCK LATTICE_ABC

%BLOCK POSITIONS_FRAC
  Li  -0.2123463  -0.1125195   0.3847886 SPIN=   0.00000
  Li   0.2123463   0.1125195  -0.1152114 SPIN=   0.00000
  Li   0.2123463   0.1125195  -0.3847886 SPIN=   0.00000
  Li  -0.2123463  -0.1125195   0.1152114 SPIN=   0.00000
  Fe  -0.5361674  -0.2625643  -0.4107773 SPIN=   4.00000
  Fe   0.5361674   0.2625643   0.0892227 SPIN=   4.00000
  Fe   0.5361674   0.2625643   0.4107773 SPIN=   4.00000
  Fe  -0.5361674  -0.2625643  -0.0892227 SPIN=   4.00000
   O   0.1227599   0.5025601  -0.3364174 SPIN=   0.00000
   O  -0.3032534   0.1881724  -0.3299632 SPIN=   0.00000
   O  -0.0715765   0.3233025  -0.4789290 SPIN=   0.00000
   S  -0.1820723   0.3727310  -0.3844800 SPIN=   0.00000
   O  -0.1227599  -0.5025601   0.1635826 SPIN=   0.00000
   O   0.3032534  -0.1881724   0.1700368 SPIN=   0.00000
   O   0.0715765  -0.3233025   0.0210710 SPIN=   0.00000
   S   0.1820723  -0.3727310   0.1155200 SPIN=   0.00000
   O  -0.1227599  -0.5025601   0.3364174 SPIN=   0.00000
   O   0.3032534  -0.1881724   0.3299632 SPIN=   0.00000
   O   0.0715765  -0.3233025   0.4789290 SPIN=   0.00000
   S   0.1820723  -0.3727310   0.3844800 SPIN=   0.00000
   O   0.1227599   0.5025601  -0.1635826 SPIN=   0.00000
   O  -0.3032534   0.1881724  -0.1700368 SPIN=   0.00000
   O  -0.0715765   0.3233025  -0.0210710 SPIN=   0.00000
   S  -0.1820723   0.3727310  -0.1155200 SPIN=   0.00000
   O  -0.5000000   0.0000000  -0.0000000 SPIN=   0.00000
   O   0.5000000  -0.0000000  -0.5000000 SPIN=   0.00000
   O   0.5000000   0.5000000  -0.0000000 SPIN=   0.00000
   O   0.5000000   0.5000000  -0.5000000 SPIN=   0.00000
   F  -0.0708700  -0.1301353  -0.1174375 SPIN=   0.00000
   F   0.0708700   0.1301353   0.3825625 SPIN=   0.00000
   F   0.0708700   0.1301353   0.1174375 SPIN=   0.00000
   F  -0.0708700  -0.1301353  -0.3825625 SPIN=   0.00000
%ENDBLOCK POSITIONS_FRAC

# Note: total spin =  16.00

KPOINTS_MP_SPACING 0.07

%BLOCK SPECIES_POT
QC5
%ENDBLOCK SPECIES_POT

SNAP_TO_SYMMETRY
SYMMETRY_GENERATE

