#              Generated by Buildcell
#
# at 03:34:16 (GMT+1.0) 18th August 2020
# in /scratch/scratch/uccabz1/launch_tmp
# on node-k10a-026
# by uccabz1
#
# compiler GCC version 4.9.2
# options -cpp -iprefix /scratch/UCL/applications/gcc/4.9.2/bin/../lib/gcc/x86_64-unknown-linux-gnu/4.9.2/ -mtune=corei7 -march=x86-64 -g -O2
#
# seed  1974290795 -1780888883   627574953  -364006077   669510679  1347222489 -1199465771  1437277789 -1754515365  -980830417 -1272350591 -1133280648
#
#      Author: C. J. Pickard (cjp20@cam.ac.uk)
#                Space group: P42
#

%BLOCK LATTICE_ABC
      7.26158      7.26158      7.58574
     90.00000     90.00000     90.00000
%ENDBLOCK LATTICE_ABC

%BLOCK POSITIONS_FRAC
  Li  -0.1749806   0.1940398  -0.1875658 SPIN=   0.00000
  Li   0.1749806  -0.1940398  -0.1875658 SPIN=   0.00000
  Li  -0.1940398  -0.1749806   0.3124342 SPIN=   0.00000
  Li   0.1940398   0.1749806   0.3124342 SPIN=   0.00000
  Fe  -0.5000000   0.5000000  -0.1026966 SPIN=   3.73540
  Fe  -0.5000000  -0.5000000   0.3973034 SPIN=   3.73540
  Fe  -0.5000000   0.0000000  -0.0394154 SPIN=   4.26460
  Fe   0.0000000  -0.5000000   0.4605846 SPIN=   4.26460
   O   0.2257696  -0.0971815   0.3955049 SPIN=   0.00000
   O   0.2296876   0.0144415   0.0872686 SPIN=   0.00000
   O   0.0713213  -0.2772759   0.1612808 SPIN=   0.00000
   O   0.4115641  -0.2602311   0.1709001 SPIN=   0.00000
   O  -0.2257696   0.0971815   0.3955049 SPIN=   0.00000
   O  -0.2296876  -0.0144415   0.0872686 SPIN=   0.00000
   O  -0.0713213   0.2772759   0.1612808 SPIN=   0.00000
   O  -0.4115641   0.2602311   0.1709001 SPIN=   0.00000
   O   0.0971815   0.2257696  -0.1044951 SPIN=   0.00000
   O  -0.0144415   0.2296876  -0.4127314 SPIN=   0.00000
   O   0.2772759   0.0713213  -0.3387192 SPIN=   0.00000
   O   0.2602311   0.4115641  -0.3290999 SPIN=   0.00000
   O  -0.0971815  -0.2257696  -0.1044951 SPIN=   0.00000
   O   0.0144415  -0.2296876  -0.4127314 SPIN=   0.00000
   O  -0.2772759  -0.0713213  -0.3387192 SPIN=   0.00000
   O  -0.2602311  -0.4115641  -0.3290999 SPIN=   0.00000
   S   0.0000000   0.0000000   0.0663911 SPIN=   0.00000
   S   0.0000000  -0.0000000  -0.4336089 SPIN=   0.00000
   S   0.0000000   0.5000000  -0.1047493 SPIN=   0.00000
   S   0.5000000   0.0000000   0.3952507 SPIN=   0.00000
   F   0.4512260  -0.2492502  -0.1792438 SPIN=   0.00000
   F  -0.4512260   0.2492502  -0.1792438 SPIN=   0.00000
   F   0.2492502   0.4512260   0.3207562 SPIN=   0.00000
   F  -0.2492502  -0.4512260   0.3207562 SPIN=   0.00000
%ENDBLOCK POSITIONS_FRAC

# Note: total spin =  16.00

KPOINTS_MP_SPACING 0.07

%BLOCK SPECIES_POT
QC5
%ENDBLOCK SPECIES_POT

SNAP_TO_SYMMETRY
SYMMETRY_GENERATE

