#              Generated by Buildcell
#
# at 06:24:10 (GMT+1.0) 4th August 2020
# in /lustre/scratch/uccabz1/launch_tmp
# on node-c12h-036
# by uccabz1
#
# compiler GCC version 4.9.2
# options -cpp -iprefix /lustre/shared/ucl/apps/gcc/4.9.2/bin/../lib/gcc/x86_64-unknown-linux-gnu/4.9.2/ -mtune=corei7 -march=x86-64 -g -Og
#
# seed   640782521  1714059652  1472035377   727988526  -880170719  -104881424  1928299132   708955674  1381625264  1558409664   480442348 -1524605458
#
#      Author: C. J. Pickard (cjp20@cam.ac.uk)
#                Space group: Pc
#

%BLOCK LATTICE_ABC
      6.38484      7.73196      8.73041
     90.00000     90.00000    111.86241
%ENDBLOCK LATTICE_ABC

%BLOCK POSITIONS_FRAC
  Li   0.1375281  -0.0908148  -0.2286818 SPIN=   0.00000
  Li   0.1375281   0.4091852   0.2286818 SPIN=   0.00000
  Li  -0.1200007  -0.2904788   0.4014980 SPIN=   0.00000
  Li  -0.1200007   0.2095212  -0.4014980 SPIN=   0.00000
  Fe   0.2617905   0.3154501  -0.1419930 SPIN=   3.23683
  Fe   0.2617905  -0.1845499   0.1419930 SPIN=   3.23683
  Fe  -0.3647921   0.3175601   0.1895631 SPIN=   4.76317
  Fe  -0.3647921  -0.1824399  -0.1895631 SPIN=   4.76317
   O  -0.2165341   0.2917147  -0.0749473 SPIN=   0.00000
   O  -0.0108961   0.6333806  -0.0664536 SPIN=   0.00000
   O  -0.3818177   0.5012695  -0.1957661 SPIN=   0.00000
   O  -0.0474985   0.4635484  -0.3114403 SPIN=   0.00000
   S  -0.1641866   0.4724783  -0.1621518 SPIN=   0.00000
   O  -0.2165341  -0.2082853   0.0749473 SPIN=   0.00000
   O  -0.0108961   0.1333806   0.0664536 SPIN=   0.00000
   O  -0.3818177   0.0012695   0.1957661 SPIN=   0.00000
   O  -0.0474985  -0.0364516   0.3114403 SPIN=   0.00000
   S  -0.1641866  -0.0275217   0.1621518 SPIN=   0.00000
   O   0.2744654  -0.1074636  -0.6033510 SPIN=   0.00000
   O   0.6841456   0.0183394  -0.5482211 SPIN=   0.00000
   O   0.4094931  -0.1007503  -0.3368744 SPIN=   0.00000
   O   0.4479080   0.1934984  -0.4676867 SPIN=   0.00000
   S   0.4540030   0.0009060  -0.4890333 SPIN=   0.00000
   O   0.2744654  -0.6074636   0.6033510 SPIN=   0.00000
   O   0.6841456  -0.4816606   0.5482211 SPIN=   0.00000
   O   0.4094931  -0.6007503   0.3368744 SPIN=   0.00000
   O   0.4479080  -0.3065016   0.4676867 SPIN=   0.00000
   S   0.4540030  -0.4990940   0.4890333 SPIN=   0.00000
   F  -0.1003962   0.3802436   0.3615837 SPIN=   0.00000
   F  -0.1003962  -0.1197564  -0.3615837 SPIN=   0.00000
   F   0.3493402  -0.4529729   0.0819976 SPIN=   0.00000
   F   0.3493402   0.0470271  -0.0819976 SPIN=   0.00000
%ENDBLOCK POSITIONS_FRAC

# Note: total spin =  16.00

KPOINTS_MP_SPACING 0.07

%BLOCK SPECIES_POT
QC5
%ENDBLOCK SPECIES_POT

SNAP_TO_SYMMETRY
SYMMETRY_GENERATE

