#              Generated by Buildcell
#
# at 01:10:11 (GMT+1.0) 18th August 2020
# in /lustre/scratch/uccabz1/launch_tmp
# on node-c12a-026
# by uccabz1
#
# compiler GCC version 4.9.2
# options -cpp -iprefix /lustre/shared/ucl/apps/gcc/4.9.2/bin/../lib/gcc/x86_64-unknown-linux-gnu/4.9.2/ -mtune=corei7 -march=x86-64 -g -Og
#
# seed -2115861668   359695633  -726474870  1994956438   912694056 -1542294049   483369554 -2069686875 -1278423492 -1808190525 -1284956503  1199084515
#
#      Author: C. J. Pickard (cjp20@cam.ac.uk)
#                Space group: P-1
#

%BLOCK LATTICE_ABC
      4.64106      7.72068     11.56591
     99.33167     93.03603    100.94849
%ENDBLOCK LATTICE_ABC

%BLOCK POSITIONS_FRAC
  Li  -0.1913098   0.1946747  -0.4082384 SPIN=   0.00000
  Li   0.1913098  -0.1946747   0.4082384 SPIN=   0.00000
  Li  -0.2922951  -0.2554383   0.0568039 SPIN=   0.00000
  Li   0.2922951   0.2554383  -0.0568039 SPIN=   0.00000
  Fe  -0.2096586   0.1772686   0.0908305 SPIN=   3.44988
  Fe   0.2096586  -0.1772686  -0.0908305 SPIN=   3.44988
  Fe  -0.4126059   0.4506807  -0.2317460 SPIN=   4.55012
  Fe   0.4126059  -0.4506807   0.2317460 SPIN=   4.55012
   O   0.0438686  -0.2323971   0.2440281 SPIN=   0.00000
   O   0.0362839  -0.0365727   0.0948228 SPIN=   0.00000
   O   0.5097173  -0.0973742   0.1699476 SPIN=   0.00000
   O   0.2419671   0.0936139   0.2989965 SPIN=   0.00000
   S   0.2079592  -0.0681825   0.2019487 SPIN=   0.00000
   O  -0.0438686   0.2323971  -0.2440281 SPIN=   0.00000
   O  -0.0362839   0.0365727  -0.0948228 SPIN=   0.00000
   O  -0.5097173   0.0973742  -0.1699476 SPIN=   0.00000
   O  -0.2419671  -0.0936139  -0.2989965 SPIN=   0.00000
   S  -0.2079592   0.0681825  -0.2019487 SPIN=   0.00000
   O   0.2419894  -0.0955546  -0.3430042 SPIN=   0.00000
   O  -0.0342588  -0.3769537  -0.2930585 SPIN=   0.00000
   O   0.4487839  -0.3706167  -0.3750074 SPIN=   0.00000
   S   0.1678941  -0.2977938  -0.3781304 SPIN=   0.00000
   O  -0.2419894   0.0955546   0.3430042 SPIN=   0.00000
   O   0.0342588   0.3769537   0.2930585 SPIN=   0.00000
   O  -0.4487839   0.3706167   0.3750074 SPIN=   0.00000
   S  -0.1678941   0.2977938   0.3781304 SPIN=   0.00000
   O   0.5000000   0.0000000  -0.5000000 SPIN=   0.00000
   O   0.0000000   0.0000000  -0.5000000 SPIN=   0.00000
   F  -0.2476314   0.4547860   0.1117758 SPIN=   0.00000
   F   0.2476314  -0.4547860  -0.1117758 SPIN=   0.00000
   F  -0.3519578  -0.2851830   0.3935528 SPIN=   0.00000
   F   0.3519578   0.2851830  -0.3935528 SPIN=   0.00000
%ENDBLOCK POSITIONS_FRAC

# Note: total spin =  16.00

KPOINTS_MP_SPACING 0.07

%BLOCK SPECIES_POT
QC5
%ENDBLOCK SPECIES_POT

SNAP_TO_SYMMETRY
SYMMETRY_GENERATE

