#              Generated by Buildcell
#
# at 06:32:47 (GMT+1.0) 4th August 2020
# in /lustre/scratch/uccabz1/launch_tmp
# on node-c12m-030
# by uccabz1
#
# compiler GCC version 4.9.2
# options -cpp -iprefix /lustre/shared/ucl/apps/gcc/4.9.2/bin/../lib/gcc/x86_64-unknown-linux-gnu/4.9.2/ -mtune=corei7 -march=x86-64 -g -Og
#
# seed  -868681157  1788563488  1375004559 -1088001605  1082650058   855162707 -1358086212 -1013174150 -1617617192  -836426648 -2058313222   135282287
#
#      Author: C. J. Pickard (cjp20@cam.ac.uk)
#                Space group: P-1
#

%BLOCK LATTICE_ABC
      6.09514      8.77461      9.06549
     61.22577     88.87670     72.24123
%ENDBLOCK LATTICE_ABC

%BLOCK POSITIONS_FRAC
  Li   0.7375651  -0.5319291   0.3131267 SPIN=   0.00000
  Li  -0.7375651   0.5319291  -0.3131267 SPIN=   0.00000
  Li   0.2130674  -0.0803397   0.2196866 SPIN=   0.00000
  Li  -0.2130674   0.0803397  -0.2196866 SPIN=   0.00000
  Fe   0.7302755   0.1241516   0.3406187 SPIN=   3.22701
  Fe  -0.7302755  -0.1241516  -0.3406187 SPIN=   3.22701
  Fe   0.2657715  -0.5183625   0.3871402 SPIN=   4.77299
  Fe  -0.2657715   0.5183625  -0.3871402 SPIN=   4.77299
   O   0.1137499   0.3504792  -0.2076740 SPIN=   0.00000
   O   0.2233644   0.2328491  -0.4074933 SPIN=   0.00000
   O   0.1221355   0.0364919  -0.1289329 SPIN=   0.00000
   O   0.4909328   0.1027475  -0.1421101 SPIN=   0.00000
   S   0.2375457   0.1806419  -0.2215526 SPIN=   0.00000
   O  -0.1137499  -0.3504792   0.2076740 SPIN=   0.00000
   O  -0.2233644  -0.2328491   0.4074933 SPIN=   0.00000
   O  -0.1221355  -0.0364919   0.1289329 SPIN=   0.00000
   O  -0.4909328  -0.1027475   0.1421101 SPIN=   0.00000
   S  -0.2375457  -0.1806419   0.2215526 SPIN=   0.00000
   O  -0.3693444  -0.3363374  -0.1927495 SPIN=   0.00000
   O   0.0573246  -0.4193489  -0.1291681 SPIN=   0.00000
   O  -0.2111115  -0.1743544  -0.0846484 SPIN=   0.00000
   O  -0.1721597  -0.1189935  -0.3770520 SPIN=   0.00000
   S  -0.1738227  -0.2622586  -0.1959045 SPIN=   0.00000
   O   0.3693444   0.3363374   0.1927495 SPIN=   0.00000
   O  -0.0573246   0.4193489   0.1291681 SPIN=   0.00000
   O   0.2111115   0.1743544   0.0846484 SPIN=   0.00000
   O   0.1721597   0.1189935   0.3770520 SPIN=   0.00000
   S   0.1738227   0.2622586   0.1959045 SPIN=   0.00000
   F  -0.2752120   0.2381334  -0.4845048 SPIN=   0.00000
   F   0.2752120  -0.2381334   0.4845048 SPIN=   0.00000
   F   0.3271707  -0.3175923   0.0758123 SPIN=   0.00000
   F  -0.3271707   0.3175923  -0.0758123 SPIN=   0.00000
%ENDBLOCK POSITIONS_FRAC

# Note: total spin =  16.00

KPOINTS_MP_SPACING 0.07

%BLOCK SPECIES_POT
QC5
%ENDBLOCK SPECIES_POT

SNAP_TO_SYMMETRY
SYMMETRY_GENERATE

