#              Generated by Buildcell
#
# at 05:09:11 (GMT+1.0) 18th August 2020
# in /lustre/scratch/uccabz1/launch_tmp
# on node-c12k-019
# by uccabz1
#
# compiler GCC version 4.9.2
# options -cpp -iprefix /lustre/shared/ucl/apps/gcc/4.9.2/bin/../lib/gcc/x86_64-unknown-linux-gnu/4.9.2/ -mtune=corei7 -march=x86-64 -g -Og
#
# seed   861441346  -536621984  -313673693 -1129504678  -796408061 -2001838905   328113875 -1915772485 -2098780287 -1712935786   436024001  -265713704
#
#      Author: C. J. Pickard (cjp20@cam.ac.uk)
#                Space group: Cc
#

%BLOCK LATTICE_ABC
      4.38013      9.78177      9.78177
     83.04718     78.12528     78.12528
%ENDBLOCK LATTICE_ABC

%BLOCK POSITIONS_FRAC
  Li  -0.3979013  -0.3618505   0.3138373 SPIN=   0.00000
  Li   0.1020987   0.3138373  -0.3618505 SPIN=   0.00000
  Li  -0.4190823   0.1056366  -0.1193568 SPIN=   0.00000
  Li   0.0809177  -0.1193568   0.1056366 SPIN=   0.00000
  Fe  -0.0753766   0.2992230   0.0576700 SPIN=   3.77869
  Fe   0.4246234   0.0576700   0.2992230 SPIN=   3.77869
  Fe   0.1130370  -0.0822227  -0.3050344 SPIN=   4.22131
  Fe  -0.3869630  -0.3050344  -0.0822227 SPIN=   4.22131
   O  -0.3924121  -0.1424373  -0.5934060 SPIN=   0.00000
   O  -0.3356842  -0.1896575  -0.3446582 SPIN=   0.00000
   O   0.1296421  -0.2518569  -0.5326854 SPIN=   0.00000
   O  -0.3063999  -0.3865724  -0.4865398 SPIN=   0.00000
   S  -0.2262135  -0.2426310  -0.4893223 SPIN=   0.00000
   O   0.1075879  -0.5934060  -0.1424373 SPIN=   0.00000
   O   0.1643158  -0.3446582  -0.1896575 SPIN=   0.00000
   O   0.6296421  -0.5326854  -0.2518569 SPIN=   0.00000
   O   0.1936001  -0.4865398  -0.3865724 SPIN=   0.00000
   S   0.2737865  -0.4893223  -0.2426310 SPIN=   0.00000
   O  -0.0767213  -0.5280429   0.1801551 SPIN=   0.00000
   O   0.0952164  -0.3247206   0.2489710 SPIN=   0.00000
   O   0.4598663  -0.4791252   0.0787921 SPIN=   0.00000
   O   0.3327206  -0.5657532   0.3284381 SPIN=   0.00000
   S   0.2027705  -0.4744105   0.2090891 SPIN=   0.00000
   O  -0.5767213   0.1801551  -0.5280429 SPIN=   0.00000
   O  -0.4047836   0.2489710  -0.3247206 SPIN=   0.00000
   O  -0.0401337   0.0787921  -0.4791252 SPIN=   0.00000
   O  -0.1672794   0.3284381  -0.5657532 SPIN=   0.00000
   S  -0.2972295   0.2090891  -0.4744105 SPIN=   0.00000
   F  -0.4322637   0.2335371   0.0130001 SPIN=   0.00000
   F   0.0677363   0.0130001   0.2335371 SPIN=   0.00000
   F  -0.2458901  -0.1888510   0.0315250 SPIN=   0.00000
   F   0.2541099   0.0315250  -0.1888510 SPIN=   0.00000
%ENDBLOCK POSITIONS_FRAC

# Note: total spin =  16.00

KPOINTS_MP_SPACING 0.07

%BLOCK SPECIES_POT
QC5
%ENDBLOCK SPECIES_POT

SNAP_TO_SYMMETRY
SYMMETRY_GENERATE

