#              Generated by Buildcell
#
# at 06:10:14 (GMT+1.0) 4th August 2020
# in /lustre/scratch/uccabz1/launch_tmp
# on node-c12f-007
# by uccabz1
#
# compiler GCC version 4.9.2
# options -cpp -iprefix /lustre/shared/ucl/apps/gcc/4.9.2/bin/../lib/gcc/x86_64-unknown-linux-gnu/4.9.2/ -mtune=corei7 -march=x86-64 -g -Og
#
# seed   629845446 -1196940280  -818980286  1093744729  1189319378  1776414985    68328034  -301275533   890470210 -1456710545   798305111 -1829993025
#
#      Author: C. J. Pickard (cjp20@cam.ac.uk)
#                Space group: Cc
#

%BLOCK LATTICE_ABC
      6.53884      6.74167     10.47927
     86.09830     81.93414     60.99033
%ENDBLOCK LATTICE_ABC

%BLOCK POSITIONS_FRAC
  Li   0.4499988   0.2345607  -0.4002896 SPIN=   0.00000
  Li  -0.3154405  -0.2345607   0.0997104 SPIN=   0.00000
  Li   0.0547555   0.2082109  -0.0952322 SPIN=   0.00000
  Li   0.2629665  -0.2082109   0.4047678 SPIN=   0.00000
  Fe   0.0969708   0.0787179  -0.3645100 SPIN=   3.63108
  Fe   0.1756887  -0.0787179   0.1354900 SPIN=   3.63108
  Fe  -0.2263407  -0.2534453  -0.4352705 SPIN=   4.36892
  Fe  -0.4797860   0.2534453   0.0647295 SPIN=   4.36892
   O  -0.3841673   0.0627709   0.2754191 SPIN=   0.00000
   O  -0.4937024   0.4125489   0.3938676 SPIN=   0.00000
   O  -0.0879509   0.1879829   0.2848651 SPIN=   0.00000
   O  -0.2255724   0.0374920   0.4804530 SPIN=   0.00000
   S  -0.2978482   0.1751987   0.3586512 SPIN=   0.00000
   O  -0.3213965  -0.0627709  -0.2245809 SPIN=   0.00000
   O  -0.0811535  -0.4125489  -0.1061324 SPIN=   0.00000
   O   0.1000320  -0.1879829  -0.2151349 SPIN=   0.00000
   O  -0.1880804  -0.0374920  -0.0195470 SPIN=   0.00000
   S  -0.1226496  -0.1751987  -0.1413488 SPIN=   0.00000
   O  -0.2180309  -0.4366115   0.3261091 SPIN=   0.00000
   O   0.0203140  -0.4379248   0.1203357 SPIN=   0.00000
   O   0.2120127  -0.6967417   0.2967907 SPIN=   0.00000
   O   0.0596486  -0.2837135   0.3176812 SPIN=   0.00000
   S   0.0184861  -0.4637479   0.2652292 SPIN=   0.00000
   O  -0.6546424   0.4366115  -0.1738909 SPIN=   0.00000
   O  -0.4176108   0.4379248  -0.3796643 SPIN=   0.00000
   O  -0.4847290   0.6967417  -0.2032093 SPIN=   0.00000
   O  -0.2240649   0.2837135  -0.1823188 SPIN=   0.00000
   S  -0.4452618   0.4637479  -0.2347708 SPIN=   0.00000
   F   0.3171076   0.1231881   0.0131632 SPIN=   0.00000
   F   0.4402957  -0.1231881  -0.4868368 SPIN=   0.00000
   F   0.1106333  -0.4877276  -0.4191828 SPIN=   0.00000
   F  -0.3770943   0.4877276   0.0808172 SPIN=   0.00000
%ENDBLOCK POSITIONS_FRAC

# Note: total spin =  16.00

KPOINTS_MP_SPACING 0.07

%BLOCK SPECIES_POT
QC5
%ENDBLOCK SPECIES_POT

SNAP_TO_SYMMETRY
SYMMETRY_GENERATE

