#              Generated by Buildcell
#
# at 22:45:29 (GMT+1.0) 17th August 2020
# in /lustre/scratch/uccabz1/launch_tmp
# on node-c12k-006
# by uccabz1
#
# compiler GCC version 4.9.2
# options -cpp -iprefix /lustre/shared/ucl/apps/gcc/4.9.2/bin/../lib/gcc/x86_64-unknown-linux-gnu/4.9.2/ -mtune=corei7 -march=x86-64 -g -Og
#
# seed  -105403378   288543776  -372451119 -1837271305   -54698141  1367869678 -1297842001  2096396303   587377440   447470757  -391038518  -328106928
#
#      Author: C. J. Pickard (cjp20@cam.ac.uk)
#                Space group: P2
#

%BLOCK LATTICE_ABC
      4.96958      6.81003     11.81930
     90.00000     90.06899     90.00000
%ENDBLOCK LATTICE_ABC

%BLOCK POSITIONS_FRAC
  Li   0.2490019  -0.1998436   0.3700905 SPIN=   0.00000
  Li  -0.2490019  -0.1998436  -0.3700905 SPIN=   0.00000
  Li  -0.7630839   0.3336685  -0.3633070 SPIN=   0.00000
  Li   0.7630839   0.3336685   0.3633070 SPIN=   0.00000
  Fe  -0.2514984  -0.1423424   0.2421375 SPIN=   6.66291
  Fe   0.2514984  -0.1423424  -0.2421375 SPIN=   6.66291
  Fe   0.2503929   0.3454074  -0.1138693 SPIN=   1.33709
  Fe  -0.2503929   0.3454074   0.1138693 SPIN=   1.33709
   O  -0.2628372   0.3710758  -0.4431440 SPIN=   0.00000
   O  -0.4850735   0.0531179  -0.4038692 SPIN=   0.00000
   O  -0.3106869   0.2548467  -0.2457963 SPIN=   0.00000
   O   0.0060983   0.0884164  -0.3756682 SPIN=   0.00000
   S  -0.2631248   0.1918642  -0.3671194 SPIN=   0.00000
   O   0.2628372   0.3710758   0.4431440 SPIN=   0.00000
   O   0.4850735   0.0531179   0.4038692 SPIN=   0.00000
   O   0.3106869   0.2548467   0.2457963 SPIN=   0.00000
   O  -0.0060983   0.0884164   0.3756682 SPIN=   0.00000
   S   0.2631248   0.1918642   0.3671194 SPIN=   0.00000
   O   0.4252300  -0.1928373   0.0925997 SPIN=   0.00000
   O  -0.0443085  -0.3089971   0.1121047 SPIN=   0.00000
   O   0.3003362  -0.4110954   0.2515117 SPIN=   0.00000
   O   0.3144392  -0.5414718   0.0561548 SPIN=   0.00000
   S   0.2489242  -0.3636004   0.1280927 SPIN=   0.00000
   O  -0.4252300  -0.1928373  -0.0925997 SPIN=   0.00000
   O   0.0443085  -0.3089971  -0.1121047 SPIN=   0.00000
   O  -0.3003362  -0.4110954  -0.2515117 SPIN=   0.00000
   O  -0.3144392  -0.5414718  -0.0561548 SPIN=   0.00000
   S  -0.2489242  -0.3636004  -0.1280927 SPIN=   0.00000
   F  -0.7497077  -0.3814039  -0.3621609 SPIN=   0.00000
   F   0.7497077  -0.3814039   0.3621609 SPIN=   0.00000
   F   0.2356961   0.0820671  -0.1419441 SPIN=   0.00000
   F  -0.2356961   0.0820671   0.1419441 SPIN=   0.00000
%ENDBLOCK POSITIONS_FRAC

# Note: total spin =  16.00

KPOINTS_MP_SPACING 0.07

%BLOCK SPECIES_POT
QC5
%ENDBLOCK SPECIES_POT

SNAP_TO_SYMMETRY
SYMMETRY_GENERATE

