#              Generated by Buildcell
#
# at 13:35:19 (GMT+1.0) 18th August 2020
# in /lustre/scratch/uccabz1/launch_tmp
# on node-c12a-015
# by uccabz1
#
# compiler GCC version 4.9.2
# options -cpp -iprefix /lustre/shared/ucl/apps/gcc/4.9.2/bin/../lib/gcc/x86_64-unknown-linux-gnu/4.9.2/ -mtune=corei7 -march=x86-64 -g -Og
#
# seed  1417758579   944221188  -279863893  1277873704   758007394  -729468591  1247431278 -1719564285   901507286  1314078969  1730358401  1471847559
#
#      Author: C. J. Pickard (cjp20@cam.ac.uk)
#                Space group: Pca21
#

%BLOCK LATTICE_ABC
      4.24425      7.88898     11.94642
     90.00000     90.00000     90.00000
%ENDBLOCK LATTICE_ABC

%BLOCK POSITIONS_FRAC
  Li  -0.1956106  -0.1752832   0.1265632 SPIN=   0.00000
  Li   0.1956106   0.3247168  -0.1265632 SPIN=   0.00000
  Li   0.3043894  -0.1752832  -0.1265632 SPIN=   0.00000
  Li  -0.3043894   0.3247168   0.1265632 SPIN=   0.00000
  Fe   0.2403190  -0.2313665   0.3773616 SPIN=   4.00000
  Fe  -0.2403190   0.2686335  -0.3773616 SPIN=   4.00000
  Fe  -0.2596810  -0.2313665  -0.3773616 SPIN=   4.00000
  Fe   0.2596810   0.2686335   0.3773616 SPIN=   4.00000
   O  -0.3554976  -0.5507314  -0.0358134 SPIN=   0.00000
   O  -0.6293568  -0.4122855  -0.1942189 SPIN=   0.00000
   O  -0.1487856  -0.5822561  -0.2284020 SPIN=   0.00000
   O  -0.1100897  -0.3057825  -0.1314730 SPIN=   0.00000
   S  -0.3109324  -0.4627639  -0.1474768 SPIN=   0.00000
   O   0.3554976  -0.0507314   0.0358134 SPIN=   0.00000
   O   0.6293568   0.0877145   0.1942189 SPIN=   0.00000
   O   0.1487856  -0.0822561   0.2284020 SPIN=   0.00000
   O   0.1100897   0.1942175   0.1314730 SPIN=   0.00000
   S   0.3109324   0.0372361   0.1474768 SPIN=   0.00000
   O   0.1445024  -0.5507314   0.0358134 SPIN=   0.00000
   O  -0.1293568  -0.4122855   0.1942189 SPIN=   0.00000
   O   0.3512144  -0.5822561   0.2284020 SPIN=   0.00000
   O   0.3899103  -0.3057825   0.1314730 SPIN=   0.00000
   S   0.1890676  -0.4627639   0.1474768 SPIN=   0.00000
   O  -0.1445024  -0.0507314  -0.0358134 SPIN=   0.00000
   O   0.1293568   0.0877145  -0.1942189 SPIN=   0.00000
   O  -0.3512144  -0.0822561  -0.2284020 SPIN=   0.00000
   O  -0.3899103   0.1942175  -0.1314730 SPIN=   0.00000
   S  -0.1890676   0.0372361  -0.1474768 SPIN=   0.00000
   F   0.2399508  -0.2165346  -0.3581178 SPIN=   0.00000
   F  -0.2399508   0.2834654   0.3581178 SPIN=   0.00000
   F  -0.2600492  -0.2165346   0.3581178 SPIN=   0.00000
   F   0.2600492   0.2834654  -0.3581178 SPIN=   0.00000
%ENDBLOCK POSITIONS_FRAC

# Note: total spin =  16.00

KPOINTS_MP_SPACING 0.07

%BLOCK SPECIES_POT
QC5
%ENDBLOCK SPECIES_POT

SNAP_TO_SYMMETRY
SYMMETRY_GENERATE

