#              Generated by Buildcell
#
# at 07:48:35 (GMT+1.0) 4th August 2020
# in /lustre/scratch/uccabz1/launch_tmp
# on node-c12n-019
# by uccabz1
#
# compiler GCC version 4.9.2
# options -cpp -iprefix /lustre/shared/ucl/apps/gcc/4.9.2/bin/../lib/gcc/x86_64-unknown-linux-gnu/4.9.2/ -mtune=corei7 -march=x86-64 -g -Og
#
# seed   694590348  1253356045   773028845  -285433408  -291165498  -129964672 -1051035429  -186974487   735470650   414258174  -107534623   -90549698
#
#      Author: C. J. Pickard (cjp20@cam.ac.uk)
#                Space group: Pc
#

%BLOCK LATTICE_ABC
      6.37831      7.06020      8.88271
     90.00000     90.34318     90.00000
%ENDBLOCK LATTICE_ABC

%BLOCK POSITIONS_FRAC
  Li   0.2116845   0.1501056  -0.1429551 SPIN=   0.00000
  Li  -0.2883155  -0.1501056   0.3570449 SPIN=   0.00000
  Li  -0.3059089  -0.1603851  -0.2113160 SPIN=   0.00000
  Li   0.1940911   0.1603851   0.2886840 SPIN=   0.00000
  Fe   0.0189568  -0.4410073   0.2230343 SPIN=   3.01013
  Fe  -0.4810432   0.4410073  -0.2769657 SPIN=   3.01013
  Fe   0.2841172  -0.1560688  -0.4830844 SPIN=   4.98987
  Fe  -0.2158828   0.1560688   0.0169156 SPIN=   4.98987
   O  -0.0670822  -0.4802135  -0.2947655 SPIN=   0.00000
   O  -0.0773698  -0.4795327  -0.0162911 SPIN=   0.00000
   O  -0.0128983  -0.1810676  -0.1546047 SPIN=   0.00000
   O   0.2592779  -0.4308059  -0.1478650 SPIN=   0.00000
   S   0.0254819  -0.3929049  -0.1533816 SPIN=   0.00000
   O  -0.5670822   0.4802135   0.2052345 SPIN=   0.00000
   O  -0.5773698   0.4795327   0.4837089 SPIN=   0.00000
   O  -0.5128983   0.1810676   0.3453953 SPIN=   0.00000
   O  -0.2407221   0.4308059   0.3521350 SPIN=   0.00000
   S  -0.4745181   0.3929049   0.3466184 SPIN=   0.00000
   O   0.3468764   0.0816013   0.1114481 SPIN=   0.00000
   O   0.5997970  -0.1757461   0.0595585 SPIN=   0.00000
   O   0.2202010  -0.2461367   0.0722175 SPIN=   0.00000
   O   0.4167027  -0.1638536   0.3042374 SPIN=   0.00000
   S   0.3958943  -0.1260338   0.1368654 SPIN=   0.00000
   O  -0.1531236  -0.0816013  -0.3885519 SPIN=   0.00000
   O   0.0997970   0.1757461  -0.4404415 SPIN=   0.00000
   O  -0.2797990   0.2461367  -0.4277825 SPIN=   0.00000
   O  -0.0832973   0.1638536  -0.1957626 SPIN=   0.00000
   S  -0.1041057   0.1260338  -0.3631346 SPIN=   0.00000
   F  -0.0175375  -0.2659314   0.3806902 SPIN=   0.00000
   F   0.4824625   0.2659314  -0.1193098 SPIN=   0.00000
   F   0.4852638  -0.2342954  -0.3404989 SPIN=   0.00000
   F  -0.0147362   0.2342954   0.1595011 SPIN=   0.00000
%ENDBLOCK POSITIONS_FRAC

# Note: total spin =  16.00

KPOINTS_MP_SPACING 0.07

%BLOCK SPECIES_POT
QC5
%ENDBLOCK SPECIES_POT

SNAP_TO_SYMMETRY
SYMMETRY_GENERATE

