#              Generated by Buildcell
#
# at 23:53:34 (GMT+1.0) 17th August 2020
# in /lustre/scratch/uccabz1/launch_tmp
# on node-c12m-003
# by uccabz1
#
# compiler GCC version 4.9.2
# options -cpp -iprefix /lustre/shared/ucl/apps/gcc/4.9.2/bin/../lib/gcc/x86_64-unknown-linux-gnu/4.9.2/ -mtune=corei7 -march=x86-64 -g -Og
#
# seed  2108942621  -876550924  -838593621  -726158400   835257293  -946934903 -1999419153  -735222728  -637755795 -1019441901  1282781989   650069409
#
#      Author: C. J. Pickard (cjp20@cam.ac.uk)
#                Space group: P212121
#

%BLOCK LATTICE_ABC
      4.08653      8.98944     10.88862
     90.00000     90.00000     90.00000
%ENDBLOCK LATTICE_ABC

%BLOCK POSITIONS_FRAC
  Li   0.3120963  -0.1628271   0.1259647 SPIN=   0.00000
  Li  -0.1879037   0.1628271   0.3740353 SPIN=   0.00000
  Li   0.1879037   0.3371729  -0.1259647 SPIN=   0.00000
  Li  -0.3120963  -0.3371729  -0.3740353 SPIN=   0.00000
  Fe  -0.1860642   0.1774580   0.0920434 SPIN=   4.00000
  Fe   0.3139358  -0.1774580   0.4079566 SPIN=   4.00000
  Fe  -0.3139358  -0.3225420  -0.0920434 SPIN=   4.00000
  Fe   0.1860642   0.3225420  -0.4079566 SPIN=   4.00000
   O  -0.1180970  -0.6147432   0.3581199 SPIN=   0.00000
   O  -0.6306044  -0.4683912   0.3500477 SPIN=   0.00000
   O  -0.1183554  -0.3507607   0.4226440 SPIN=   0.00000
   O  -0.3946302  -0.5403263   0.5507728 SPIN=   0.00000
   S  -0.3154217  -0.4935554   0.4203961 SPIN=   0.00000
   O   0.3819030   0.6147432   0.1418801 SPIN=   0.00000
   O  -0.1306044   0.4683912   0.1499523 SPIN=   0.00000
   O   0.3816446   0.3507607   0.0773560 SPIN=   0.00000
   O   0.1053698   0.5403263  -0.0507728 SPIN=   0.00000
   S   0.1845783   0.4935554   0.0796039 SPIN=   0.00000
   O  -0.3819030  -0.1147432  -0.3581199 SPIN=   0.00000
   O   0.1306044   0.0316088  -0.3500477 SPIN=   0.00000
   O  -0.3816446   0.1492393  -0.4226440 SPIN=   0.00000
   O  -0.1053698  -0.0403263  -0.5507728 SPIN=   0.00000
   S  -0.1845783   0.0064446  -0.4203961 SPIN=   0.00000
   O   0.1180970   0.1147432  -0.1418801 SPIN=   0.00000
   O   0.6306044  -0.0316088  -0.1499523 SPIN=   0.00000
   O   0.1183554  -0.1492393  -0.0773560 SPIN=   0.00000
   O   0.3946302   0.0403263   0.0507728 SPIN=   0.00000
   S   0.3154217  -0.0064446  -0.0796039 SPIN=   0.00000
   F   0.1619873  -0.3392905  -0.3433141 SPIN=   0.00000
   F  -0.3380127   0.3392905  -0.1566859 SPIN=   0.00000
   F   0.3380127   0.1607095   0.3433141 SPIN=   0.00000
   F  -0.1619873  -0.1607095   0.1566859 SPIN=   0.00000
%ENDBLOCK POSITIONS_FRAC

# Note: total spin =  16.00

KPOINTS_MP_SPACING 0.07

%BLOCK SPECIES_POT
QC5
%ENDBLOCK SPECIES_POT

SNAP_TO_SYMMETRY
SYMMETRY_GENERATE

