#              Generated by Buildcell
#
# at 23:18:25 (GMT+1.0) 17th August 2020
# in /lustre/scratch/uccabz1/launch_tmp
# on node-c12e-033
# by uccabz1
#
# compiler GCC version 4.9.2
# options -cpp -iprefix /lustre/shared/ucl/apps/gcc/4.9.2/bin/../lib/gcc/x86_64-unknown-linux-gnu/4.9.2/ -mtune=corei7 -march=x86-64 -g -Og
#
# seed  1353471975  1495947097  1026336713 -1967192416   883498017   813162511  -961344950  1695515078 -1350823841 -1313327905   230506300   319565855
#
#      Author: C. J. Pickard (cjp20@cam.ac.uk)
#                Space group: Cm
#

%BLOCK LATTICE_ABC
      3.93568     10.25159     10.25159
     97.73767     98.24322     98.24322
%ENDBLOCK LATTICE_ABC

%BLOCK POSITIONS_FRAC
  Li  -0.0903955   0.1213097  -0.1176687 SPIN=   0.00000
  Li  -0.0903955  -0.1176687   0.1213097 SPIN=   0.00000
  Li   0.5253320   0.4650561  -0.2412320 SPIN=   0.00000
  Li   0.5253320  -0.2412320   0.4650561 SPIN=   0.00000
  Fe   0.0861439  -0.0316338  -0.3627000 SPIN=   6.27871
  Fe   0.0861439  -0.3627000  -0.0316338 SPIN=   6.27871
  Fe   0.7245108   0.2799621   0.2799621 SPIN=   1.26257
  Fe  -0.9774495  -0.3907678  -0.3907678 SPIN=   2.18002
   O   0.1294658   0.2855938  -0.5171602 SPIN=   0.00000
   O  -0.0663504   0.4209845  -0.3324092 SPIN=   0.00000
   O   0.1890355   0.2200544  -0.2923510 SPIN=   0.00000
   O  -0.3946569   0.1962220  -0.4290714 SPIN=   0.00000
   S  -0.0356265   0.2807137  -0.3927479 SPIN=   0.00000
   O   0.1294658  -0.5171602   0.2855938 SPIN=   0.00000
   O  -0.0663504  -0.3324092   0.4209845 SPIN=   0.00000
   O   0.1890355  -0.2923510   0.2200544 SPIN=   0.00000
   O  -0.3946569  -0.4290714   0.1962220 SPIN=   0.00000
   S  -0.0356265  -0.3927479   0.2807137 SPIN=   0.00000
   O   0.3416349   0.1263336   0.3462106 SPIN=   0.00000
   O   0.6512696  -0.0189971   0.4781548 SPIN=   0.00000
   O   0.5384408  -0.0704579   0.2314180 SPIN=   0.00000
   O   0.0507920  -0.1013502   0.3582048 SPIN=   0.00000
   S   0.3955343  -0.0161179   0.3534970 SPIN=   0.00000
   O   0.3416349   0.3462106   0.1263336 SPIN=   0.00000
   O   0.6512696   0.4781548  -0.0189971 SPIN=   0.00000
   O   0.5384408   0.2314180  -0.0704579 SPIN=   0.00000
   O   0.0507920   0.3582048  -0.1013502 SPIN=   0.00000
   S   0.3955343   0.3534970  -0.0161179 SPIN=   0.00000
   F  -0.4489555  -0.2543953  -0.0125527 SPIN=   0.00000
   F  -0.4489555  -0.0125527  -0.2543953 SPIN=   0.00000
   F  -0.1369288   0.1331323   0.1331323 SPIN=   0.00000
   F  -0.5267149  -0.4316108  -0.4316108 SPIN=   0.00000
%ENDBLOCK POSITIONS_FRAC

# Note: total spin =  16.00

KPOINTS_MP_SPACING 0.07

%BLOCK SPECIES_POT
QC5
%ENDBLOCK SPECIES_POT

SNAP_TO_SYMMETRY
SYMMETRY_GENERATE

