#              Generated by Buildcell
#
# at 06:02:00 (GMT+1.0) 4th August 2020
# in /lustre/scratch/uccabz1/launch_tmp
# on node-c12f-008
# by uccabz1
#
# compiler GCC version 4.9.2
# options -cpp -iprefix /lustre/shared/ucl/apps/gcc/4.9.2/bin/../lib/gcc/x86_64-unknown-linux-gnu/4.9.2/ -mtune=corei7 -march=x86-64 -g -Og
#
# seed -1881153313 -1494239032  2108942621   183912473  -960916804  1351568282  2088220986  1357344024   277537415  2005135812 -1850691580 -2142107473
#
#      Author: C. J. Pickard (cjp20@cam.ac.uk)
#                Space group: Pnn2
#

%BLOCK LATTICE_ABC
      5.46354      5.78136     12.66356
     90.00000     90.00000     90.00000
%ENDBLOCK LATTICE_ABC

%BLOCK POSITIONS_FRAC
  Li  -0.2477148  -0.3325074  -0.3918758 SPIN=   0.00000
  Li   0.2477148  -0.3325074   0.3918758 SPIN=   0.00000
  Li  -0.2522852   0.1674926   0.1081242 SPIN=   0.00000
  Li   0.2522852   0.1674926  -0.1081242 SPIN=   0.00000
  Fe   0.0594026  -0.2228165   0.1782136 SPIN=   4.00000
  Fe  -0.0594026  -0.2228165  -0.1782136 SPIN=   4.00000
  Fe   0.4405974   0.2771835  -0.3217864 SPIN=   4.00000
  Fe  -0.4405974   0.2771835   0.3217864 SPIN=   4.00000
   O  -0.0237255  -0.1205915   0.3431271 SPIN=   0.00000
   O  -0.4675891  -0.1956390   0.3244745 SPIN=   0.00000
   O  -0.2946880  -0.0965540   0.4993547 SPIN=   0.00000
   O  -0.2044381  -0.4767760   0.4184461 SPIN=   0.00000
   S  -0.2476101  -0.2223902   0.3963506 SPIN=   0.00000
   O   0.0237255  -0.1205915  -0.3431271 SPIN=   0.00000
   O   0.4675891  -0.1956390  -0.3244745 SPIN=   0.00000
   O   0.2946880  -0.0965540  -0.4993547 SPIN=   0.00000
   O   0.2044381  -0.4767760  -0.4184461 SPIN=   0.00000
   S   0.2476101  -0.2223902  -0.3963506 SPIN=   0.00000
   O  -0.4762745   0.3794085  -0.1568729 SPIN=   0.00000
   O  -0.0324109   0.3043610  -0.1755255 SPIN=   0.00000
   O  -0.2053120   0.4034460  -0.0006453 SPIN=   0.00000
   O  -0.2955619   0.0232240  -0.0815539 SPIN=   0.00000
   S  -0.2523899   0.2776098  -0.1036494 SPIN=   0.00000
   O   0.4762745   0.3794085   0.1568729 SPIN=   0.00000
   O   0.0324109   0.3043610   0.1755255 SPIN=   0.00000
   O   0.2053120   0.4034460   0.0006453 SPIN=   0.00000
   O   0.2955619   0.0232240   0.0815539 SPIN=   0.00000
   S   0.2523899   0.2776098   0.1036494 SPIN=   0.00000
   F   0.2472003   0.3390361   0.3920172 SPIN=   0.00000
   F  -0.2472003   0.3390361  -0.3920172 SPIN=   0.00000
   F   0.2527997  -0.1609639  -0.1079828 SPIN=   0.00000
   F  -0.2527997  -0.1609639   0.1079828 SPIN=   0.00000
%ENDBLOCK POSITIONS_FRAC

# Note: total spin =  16.00

KPOINTS_MP_SPACING 0.07

%BLOCK SPECIES_POT
QC5
%ENDBLOCK SPECIES_POT

SNAP_TO_SYMMETRY
SYMMETRY_GENERATE

