#              Generated by Buildcell
#
# at 07:18:50 (GMT+1.0) 18th August 2020
# in /lustre/scratch/uccabz1/launch_tmp
# on node-c12n-006
# by uccabz1
#
# compiler GCC version 4.9.2
# options -cpp -iprefix /lustre/shared/ucl/apps/gcc/4.9.2/bin/../lib/gcc/x86_64-unknown-linux-gnu/4.9.2/ -mtune=corei7 -march=x86-64 -g -Og
#
# seed  -340684931  -757140528 -1831284997  1431679786   -51498800 -2105502677  1440208444   948505477 -1047261130  1761457478   595963918   -25215114
#
#      Author: C. J. Pickard (cjp20@cam.ac.uk)
#                Space group: P-1
#

%BLOCK LATTICE_ABC
      5.86248      7.90587      9.53725
     69.13011     76.21177     89.03406
%ENDBLOCK LATTICE_ABC

%BLOCK POSITIONS_FRAC
  Li   0.2816480  -0.4264448   0.3389707 SPIN=   0.00000
  Li  -0.2816480   0.4264448  -0.3389707 SPIN=   0.00000
  Li  -0.2983048  -0.0882974  -0.3647626 SPIN=   0.00000
  Li   0.2983048   0.0882974   0.3647626 SPIN=   0.00000
  Fe   0.2629361   0.3305747   0.0462603 SPIN=   3.77561
  Fe  -0.2629361  -0.3305747  -0.0462603 SPIN=   3.77561
  Fe  -0.1869311   0.4214819   0.3369213 SPIN=   4.22439
  Fe   0.1869311  -0.4214819  -0.3369213 SPIN=   4.22439
   O   0.1745360   0.0681525  -0.2654598 SPIN=   0.00000
   O   0.5729855   0.1063781  -0.2305407 SPIN=   0.00000
   O   0.3828300   0.3738436  -0.3711422 SPIN=   0.00000
   O   0.5208771   0.1470993  -0.4903303 SPIN=   0.00000
   S   0.4128071   0.1738684  -0.3393683 SPIN=   0.00000
   O  -0.1745360  -0.0681525   0.2654598 SPIN=   0.00000
   O  -0.5729855  -0.1063781   0.2305407 SPIN=   0.00000
   O  -0.3828300  -0.3738436   0.3711422 SPIN=   0.00000
   O  -0.5208771  -0.1470993   0.4903303 SPIN=   0.00000
   S  -0.4128071  -0.1738684   0.3393683 SPIN=   0.00000
   O   0.1272168  -0.2279113  -0.0716558 SPIN=   0.00000
   O   0.2003325  -0.0117951   0.0500443 SPIN=   0.00000
   O   0.4266398  -0.2842600   0.0808728 SPIN=   0.00000
   O   0.0030159  -0.3163811   0.2133040 SPIN=   0.00000
   S   0.1893013  -0.2100869   0.0681413 SPIN=   0.00000
   O  -0.1272168   0.2279113   0.0716558 SPIN=   0.00000
   O  -0.2003325   0.0117951  -0.0500443 SPIN=   0.00000
   O  -0.4266398   0.2842600  -0.0808728 SPIN=   0.00000
   O  -0.0030159   0.3163811  -0.2133040 SPIN=   0.00000
   S  -0.1893013   0.2100869  -0.0681413 SPIN=   0.00000
   F   0.4117557  -0.4220645  -0.2252363 SPIN=   0.00000
   F  -0.4117557   0.4220645   0.2252363 SPIN=   0.00000
   F  -0.0000000  -0.0000000  -0.5000000 SPIN=   0.00000
   F  -0.0000000   0.5000000  -0.5000000 SPIN=   0.00000
%ENDBLOCK POSITIONS_FRAC

# Note: total spin =  16.00

KPOINTS_MP_SPACING 0.07

%BLOCK SPECIES_POT
QC5
%ENDBLOCK SPECIES_POT

SNAP_TO_SYMMETRY
SYMMETRY_GENERATE

