#              Generated by Buildcell
#
# at 05:03:03 (GMT+1.0) 18th August 2020
# in /lustre/scratch/uccabz1/launch_tmp
# on node-c12f-013
# by uccabz1
#
# compiler GCC version 4.9.2
# options -cpp -iprefix /lustre/shared/ucl/apps/gcc/4.9.2/bin/../lib/gcc/x86_64-unknown-linux-gnu/4.9.2/ -mtune=corei7 -march=x86-64 -g -Og
#
# seed -1351004416   974083776  -327366831  -384945597   387756514  1121980319 -1498933716  1644101715   378134931   627486473  1295496933  -676180193
#
#      Author: C. J. Pickard (cjp20@cam.ac.uk)
#                Space group: Pc
#

%BLOCK LATTICE_ABC
      6.23596      6.96802      9.91550
     90.00000     90.00000    111.81419
%ENDBLOCK LATTICE_ABC

%BLOCK POSITIONS_FRAC
  Li  -0.4904983  -0.2166371  -0.4574595 SPIN=   0.00000
  Li   0.0095017   0.2833629   0.4574595 SPIN=   0.00000
  Li   0.2074027   0.4522791   0.1109339 SPIN=   0.00000
  Li  -0.2925973  -0.0477209  -0.1109339 SPIN=   0.00000
  Fe   0.6019655   0.2573817   0.2587342 SPIN=   4.29814
  Fe   0.1019655  -0.2426183  -0.2587342 SPIN=   4.29814
  Fe   0.5763168   0.2056102  -0.3787689 SPIN=   3.70186
  Fe   0.0763168  -0.2943898   0.3787689 SPIN=   3.70186
   O  -0.3252855  -0.2456631   0.1168795 SPIN=   0.00000
   O  -0.2142855  -0.1315040   0.3517228 SPIN=   0.00000
   O  -0.4895585  -0.4869898   0.3063141 SPIN=   0.00000
   O  -0.6088991  -0.1893970   0.2707574 SPIN=   0.00000
   S  -0.4095071  -0.2633885   0.2614185 SPIN=   0.00000
   O   0.1747145   0.2543369  -0.1168795 SPIN=   0.00000
   O   0.2857145   0.3684960  -0.3517228 SPIN=   0.00000
   O   0.0104415   0.0130102  -0.3063141 SPIN=   0.00000
   O  -0.1088991   0.3106030  -0.2707574 SPIN=   0.00000
   S   0.0904929   0.2366115  -0.2614185 SPIN=   0.00000
   O   0.5552307   0.4041200   0.0697310 SPIN=   0.00000
   O   0.5496233   0.2866994  -0.1662634 SPIN=   0.00000
   O   0.9222481   0.4543180  -0.0478575 SPIN=   0.00000
   O   0.6910203   0.6607079  -0.1144869 SPIN=   0.00000
   S   0.6795306   0.4514613  -0.0647192 SPIN=   0.00000
   O   0.0552307  -0.0958800  -0.0697310 SPIN=   0.00000
   O   0.0496233  -0.2133006   0.1662634 SPIN=   0.00000
   O   0.4222481  -0.0456820   0.0478575 SPIN=   0.00000
   O   0.1910203   0.1607079   0.1144869 SPIN=   0.00000
   S   0.1795306  -0.0485387   0.0647192 SPIN=   0.00000
   F  -0.1864564  -0.3820331  -0.4272280 SPIN=   0.00000
   F   0.3135436   0.1179669   0.4272280 SPIN=   0.00000
   F  -0.0814900   0.3628475   0.2319139 SPIN=   0.00000
   F  -0.5814900  -0.1371525  -0.2319139 SPIN=   0.00000
%ENDBLOCK POSITIONS_FRAC

# Note: total spin =  16.00

KPOINTS_MP_SPACING 0.07

%BLOCK SPECIES_POT
QC5
%ENDBLOCK SPECIES_POT

SNAP_TO_SYMMETRY
SYMMETRY_GENERATE

