#              Generated by Buildcell
#
# at 11:41:07 (GMT+1.0) 18th August 2020
# in /lustre/scratch/uccabz1/launch_tmp
# on node-c12b-013
# by uccabz1
#
# compiler GCC version 4.9.2
# options -cpp -iprefix /lustre/shared/ucl/apps/gcc/4.9.2/bin/../lib/gcc/x86_64-unknown-linux-gnu/4.9.2/ -mtune=corei7 -march=x86-64 -g -Og
#
# seed   801462581   404858403   650243934 -1590721209   160016791   527828876 -1740409785  -346242170  1075426951 -1868660877 -1979059707 -2136184685
#
#      Author: C. J. Pickard (cjp20@cam.ac.uk)
#                Space group: Aea2
#

%BLOCK LATTICE_ABC
      6.27322      7.59184      9.21686
    114.32083     90.00000     90.00000
%ENDBLOCK LATTICE_ABC

%BLOCK POSITIONS_FRAC
  Li  -0.2506369  -0.0860356   0.1117890 SPIN=   0.00000
  Li   0.2506369  -0.1978245  -0.1117890 SPIN=   0.00000
  Li   0.2493631   0.3021755  -0.1117890 SPIN=   0.00000
  Li  -0.2493631   0.4139644   0.1117890 SPIN=   0.00000
  Fe  -0.1769952  -0.4366423  -0.2066528 SPIN=   4.00000
  Fe   0.1769952  -0.2299895   0.2066528 SPIN=   4.00000
  Fe   0.3230048   0.2700105   0.2066528 SPIN=   4.00000
  Fe  -0.3230048   0.0633577  -0.2066528 SPIN=   4.00000
   O  -0.0311446   0.4324733   0.4690659 SPIN=   0.00000
   O  -0.3535390   0.3804540   0.3016629 SPIN=   0.00000
   O  -0.2868372   0.1740974   0.4462502 SPIN=   0.00000
   O  -0.0609552   0.1405421   0.2161658 SPIN=   0.00000
   S  -0.1831190   0.2818917   0.3582862 SPIN=   0.00000
   O   0.0311446  -0.0365926  -0.4690659 SPIN=   0.00000
   O   0.3535390   0.0787911  -0.3016629 SPIN=   0.00000
   O   0.2868372  -0.2721528  -0.4462502 SPIN=   0.00000
   O   0.0609552  -0.0756237  -0.2161658 SPIN=   0.00000
   S   0.1831190  -0.0763945  -0.3582862 SPIN=   0.00000
   O   0.4688554   0.4634074  -0.4690659 SPIN=   0.00000
   O   0.1464610   0.5787911  -0.3016629 SPIN=   0.00000
   O   0.2131628   0.2278472  -0.4462502 SPIN=   0.00000
   O   0.4390448   0.4243763  -0.2161658 SPIN=   0.00000
   S   0.3168810   0.4236055  -0.3582862 SPIN=   0.00000
   O  -0.4688554  -0.0675267   0.4690659 SPIN=   0.00000
   O  -0.1464610  -0.1195460   0.3016629 SPIN=   0.00000
   O  -0.2131628  -0.3259026   0.4462502 SPIN=   0.00000
   O  -0.4390448  -0.3594579   0.2161658 SPIN=   0.00000
   S  -0.3168810  -0.2181083   0.3582862 SPIN=   0.00000
   F   0.3579135   0.0222392   0.1960015 SPIN=   0.00000
   F  -0.3579135  -0.1737624  -0.1960015 SPIN=   0.00000
   F  -0.1420865   0.3262376  -0.1960015 SPIN=   0.00000
   F   0.1420865  -0.4777608   0.1960015 SPIN=   0.00000
%ENDBLOCK POSITIONS_FRAC

# Note: total spin =  16.00

KPOINTS_MP_SPACING 0.07

%BLOCK SPECIES_POT
QC5
%ENDBLOCK SPECIES_POT

SNAP_TO_SYMMETRY
SYMMETRY_GENERATE

