#              Generated by Buildcell
#
# at 23:31:32 (GMT+1.0) 17th August 2020
# in /scratch/scratch/uccabz1/launch_tmp
# on node-k10b-013
# by uccabz1
#
# compiler GCC version 4.9.2
# options -cpp -iprefix /scratch/UCL/applications/gcc/4.9.2/bin/../lib/gcc/x86_64-unknown-linux-gnu/4.9.2/ -mtune=corei7 -march=x86-64 -g -O2
#
# seed   -50640821 -1468452223   554113701  2059857223  1333051400  -682624759  -266773227 -1133758548  -573061691 -1605123278  -302315125   569379197
#
#      Author: C. J. Pickard (cjp20@cam.ac.uk)
#                Space group: P-1
#

%BLOCK LATTICE_ABC
      5.11094      8.44199      9.34381
     88.97955     85.17302     84.72340
%ENDBLOCK LATTICE_ABC

%BLOCK POSITIONS_FRAC
  Li  -0.2143367   0.0771498  -0.1429639 SPIN=   0.00000
  Li   0.2143367  -0.0771498   0.1429639 SPIN=   0.00000
  Li  -0.1951580  -0.4001437   0.2886904 SPIN=   0.00000
  Li   0.1951580   0.4001437  -0.2886904 SPIN=   0.00000
  Fe  -0.3597477  -0.0030106   0.3086087 SPIN=   4.64233
  Fe   0.3597477   0.0030106  -0.3086087 SPIN=   4.64233
  Fe  -0.0972016  -0.2797450  -0.0083899 SPIN=   3.35767
  Fe   0.0972016   0.2797450   0.0083899 SPIN=   3.35767
   O   0.0196582  -0.2024116   0.2901884 SPIN=   0.00000
   O   0.3878730  -0.1592435   0.4366641 SPIN=   0.00000
   O   0.1312283  -0.3917767   0.4857970 SPIN=   0.00000
   O  -0.0727586  -0.1207856   0.5438378 SPIN=   0.00000
   S   0.1165002  -0.2185544   0.4391218 SPIN=   0.00000
   O  -0.0196582   0.2024116  -0.2901884 SPIN=   0.00000
   O  -0.3878730   0.1592435  -0.4366641 SPIN=   0.00000
   O  -0.1312283   0.3917767  -0.4857970 SPIN=   0.00000
   O   0.0727586   0.1207856  -0.5438378 SPIN=   0.00000
   S  -0.1165002   0.2185544  -0.4391218 SPIN=   0.00000
   O   0.6221436   0.4473481   0.1837456 SPIN=   0.00000
   O   0.4037142   0.2014901   0.2408085 SPIN=   0.00000
   O   0.1401064   0.4626518   0.2456226 SPIN=   0.00000
   O   0.4468188   0.3930403   0.4330327 SPIN=   0.00000
   S   0.4031957   0.3761326   0.2758023 SPIN=   0.00000
   O  -0.6221436  -0.4473481  -0.1837456 SPIN=   0.00000
   O  -0.4037142  -0.2014901  -0.2408085 SPIN=   0.00000
   O  -0.1401064  -0.4626518  -0.2456226 SPIN=   0.00000
   O  -0.4468188  -0.3930403  -0.4330327 SPIN=   0.00000
   S  -0.4031957  -0.3761326  -0.2758023 SPIN=   0.00000
   F   0.0422070  -0.0964814  -0.1923996 SPIN=   0.00000
   F  -0.0422070   0.0964814   0.1923996 SPIN=   0.00000
   F  -0.4753715  -0.2542946   0.1044448 SPIN=   0.00000
   F   0.4753715   0.2542946  -0.1044448 SPIN=   0.00000
%ENDBLOCK POSITIONS_FRAC

# Note: total spin =  16.00

KPOINTS_MP_SPACING 0.07

%BLOCK SPECIES_POT
QC5
%ENDBLOCK SPECIES_POT

SNAP_TO_SYMMETRY
SYMMETRY_GENERATE

