#              Generated by Buildcell
#
# at 23:34:04 (GMT+1.0) 17th August 2020
# in /lustre/scratch/uccabz1/launch_tmp
# on node-c12e-015
# by uccabz1
#
# compiler GCC version 4.9.2
# options -cpp -iprefix /lustre/shared/ucl/apps/gcc/4.9.2/bin/../lib/gcc/x86_64-unknown-linux-gnu/4.9.2/ -mtune=corei7 -march=x86-64 -g -Og
#
# seed  1586395223   738222996 -1425002668   965582404   601078768   279339528  -897933486  -736261435  -827840800   272378493 -1300714720  1924913612
#
#      Author: C. J. Pickard (cjp20@cam.ac.uk)
#                Space group: C2
#

%BLOCK LATTICE_ABC
      4.68005      6.27640     14.71513
     93.89427     90.00000    111.89024
%ENDBLOCK LATTICE_ABC

%BLOCK POSITIONS_FRAC
  Li  -0.4093169   0.1659788   0.2846618 SPIN=   0.00000
  Li   0.4247043  -0.1659788  -0.2846618 SPIN=   0.00000
  Li   0.2514197   0.2989823  -0.4572632 SPIN=   0.00000
  Li  -0.0475626  -0.2989823   0.4572632 SPIN=   0.00000
  Fe  -0.0494222  -0.2998225   0.1538741 SPIN=   2.75656
  Fe   0.2504004   0.2998225  -0.1538741 SPIN=   2.75656
  Fe  -0.2113187   0.3742390  -0.3374160 SPIN=   5.24344
  Fe   0.4144423  -0.3742390   0.3374160 SPIN=   5.24344
   O   0.0038693  -0.0720511  -0.2742993 SPIN=   0.00000
   O  -0.1617252   0.0672900  -0.4104868 SPIN=   0.00000
   O  -0.2125671  -0.3395540  -0.4102914 SPIN=   0.00000
   O   0.3037639  -0.0308625  -0.4149913 SPIN=   0.00000
   S  -0.0166648  -0.0937944  -0.3775172 SPIN=   0.00000
   O   0.0759204   0.0720511   0.2742993 SPIN=   0.00000
   O  -0.2290152  -0.0672900   0.4104868 SPIN=   0.00000
   O   0.1269869   0.3395540   0.4102914 SPIN=   0.00000
   O   0.3346264   0.0308625   0.4149913 SPIN=   0.00000
   S   0.0771296   0.0937944   0.3775172 SPIN=   0.00000
   O   0.2977879   0.2536322   0.1480615 SPIN=   0.00000
   O   0.2815169   0.5598510   0.0531282 SPIN=   0.00000
   O  -0.1879146   0.2126031   0.0685473 SPIN=   0.00000
   O   0.2478644   0.1838403  -0.0198056 SPIN=   0.00000
   S   0.1598136   0.3024817   0.0624829 SPIN=   0.00000
   O   0.0441556  -0.2536322  -0.1480615 SPIN=   0.00000
   O  -0.2783340  -0.5598510  -0.0531282 SPIN=   0.00000
   O  -0.4005177  -0.2126031  -0.0685473 SPIN=   0.00000
   O   0.0640241  -0.1838403   0.0198056 SPIN=   0.00000
   S  -0.1426680  -0.3024817  -0.0624829 SPIN=   0.00000
   F   0.2824622  -0.4969446  -0.2752342 SPIN=   0.00000
   F  -0.2205932   0.4969446   0.2752342 SPIN=   0.00000
   F   0.4828633  -0.0970211   0.1899061 SPIN=   0.00000
   F  -0.4201157   0.0970211  -0.1899061 SPIN=   0.00000
%ENDBLOCK POSITIONS_FRAC

# Note: total spin =  16.00

KPOINTS_MP_SPACING 0.07

%BLOCK SPECIES_POT
QC5
%ENDBLOCK SPECIES_POT

SNAP_TO_SYMMETRY
SYMMETRY_GENERATE

