#              Generated by Buildcell
#
# at 08:55:54 (GMT+1.0) 4th August 2020
# in /lustre/scratch/uccabz1/launch_tmp
# on node-c12f-036
# by uccabz1
#
# compiler GCC version 4.9.2
# options -cpp -iprefix /lustre/shared/ucl/apps/gcc/4.9.2/bin/../lib/gcc/x86_64-unknown-linux-gnu/4.9.2/ -mtune=corei7 -march=x86-64 -g -Og
#
# seed  -349712364 -1657184084  1288790574 -1258331094  -434313764  1530903621  -629325329 -1690506474 -1620278321 -1372381297   850340883 -1035462927
#
#      Author: C. J. Pickard (cjp20@cam.ac.uk)
#                Space group: Pcc2
#

%BLOCK LATTICE_ABC
      5.23073      6.09633     12.54379
     90.00000     90.00000     90.00000
%ENDBLOCK LATTICE_ABC

%BLOCK POSITIONS_FRAC
  Li   0.2298362  -0.1175422  -0.3792105 SPIN=   0.00000
  Li  -0.2298362  -0.1175422   0.3792105 SPIN=   0.00000
  Li  -0.2298362   0.3824578  -0.3792105 SPIN=   0.00000
  Li   0.2298362   0.3824578   0.3792105 SPIN=   0.00000
  Fe   0.2725869  -0.1873065   0.2686695 SPIN=   4.00000
  Fe  -0.2725869  -0.1873065  -0.2686695 SPIN=   4.00000
  Fe  -0.2725869   0.3126935   0.2686695 SPIN=   4.00000
  Fe   0.2725869   0.3126935  -0.2686695 SPIN=   4.00000
   O   0.2843632  -0.0055947  -0.0218396 SPIN=   0.00000
   O   0.2356398   0.0009537  -0.2180635 SPIN=   0.00000
   O  -0.0363081  -0.2441153  -0.1090637 SPIN=   0.00000
   O   0.4250781  -0.3234856  -0.1296107 SPIN=   0.00000
   S   0.2271933  -0.1430605  -0.1196444 SPIN=   0.00000
   O  -0.2843632  -0.0055947   0.0218396 SPIN=   0.00000
   O  -0.2356398   0.0009537   0.2180635 SPIN=   0.00000
   O   0.0363081  -0.2441153   0.1090637 SPIN=   0.00000
   O  -0.4250781  -0.3234856   0.1296107 SPIN=   0.00000
   S  -0.2271933  -0.1430605   0.1196444 SPIN=   0.00000
   O  -0.2843632   0.4944053  -0.0218396 SPIN=   0.00000
   O  -0.2356398   0.5009537  -0.2180635 SPIN=   0.00000
   O   0.0363081   0.2558847  -0.1090637 SPIN=   0.00000
   O  -0.4250781   0.1765144  -0.1296107 SPIN=   0.00000
   S  -0.2271933   0.3569395  -0.1196444 SPIN=   0.00000
   O   0.2843632   0.4944053   0.0218396 SPIN=   0.00000
   O   0.2356398   0.5009537   0.2180635 SPIN=   0.00000
   O  -0.0363081   0.2558847   0.1090637 SPIN=   0.00000
   O   0.4250781   0.1765144   0.1296107 SPIN=   0.00000
   S   0.2271933   0.3569395   0.1196444 SPIN=   0.00000
   F  -0.2499897   0.0682259  -0.3774455 SPIN=   0.00000
   F   0.2499897   0.0682259   0.3774455 SPIN=   0.00000
   F   0.2499897  -0.4317741  -0.3774455 SPIN=   0.00000
   F  -0.2499897  -0.4317741   0.3774455 SPIN=   0.00000
%ENDBLOCK POSITIONS_FRAC

# Note: total spin =  16.00

KPOINTS_MP_SPACING 0.07

%BLOCK SPECIES_POT
QC5
%ENDBLOCK SPECIES_POT

SNAP_TO_SYMMETRY
SYMMETRY_GENERATE

