#              Generated by Buildcell
#
# at 09:33:20 (GMT+1.0) 4th August 2020
# in /lustre/scratch/uccabz1/launch_tmp
# on node-c12p-032
# by uccabz1
#
# compiler GCC version 4.9.2
# options -cpp -iprefix /lustre/shared/ucl/apps/gcc/4.9.2/bin/../lib/gcc/x86_64-unknown-linux-gnu/4.9.2/ -mtune=corei7 -march=x86-64 -g -Og
#
# seed -1671707378  1168763436  1299311297  -369418244   833556475 -2065283865   770464514 -1255619751  1136046311  1824189823   236730105 -2062533737
#
#      Author: C. J. Pickard (cjp20@cam.ac.uk)
#                Space group: C2
#

%BLOCK LATTICE_ABC
      4.13222     10.38749     10.38749
    116.21409     90.20951     90.20951
%ENDBLOCK LATTICE_ABC

%BLOCK POSITIONS_FRAC
  Li  -0.0100051  -0.2001292  -0.4298614 SPIN=   0.00000
  Li   0.0100051   0.4298614   0.2001292 SPIN=   0.00000
  Li  -0.0000000   0.4112052  -0.4112052 SPIN=   0.00000
  Li   0.5000000   0.0803497  -0.0803497 SPIN=   0.00000
  Fe  -0.4999216   0.3809823  -0.0417369 SPIN=   4.73313
  Fe   0.4999216   0.0417369  -0.3809823 SPIN=   4.73313
  Fe   0.0000000  -0.0362578   0.0362578 SPIN=   2.55909
  Fe   0.0000000  -0.2671432   0.2671432 SPIN=   3.97466
   O  -0.3171205   0.2762923   0.0838598 SPIN=   0.00000
   O  -0.3046973   0.1642542   0.2503321 SPIN=   0.00000
   O  -0.8267874   0.1956673   0.1504560 SPIN=   0.00000
   O  -0.5327197   0.4072968   0.3297696 SPIN=   0.00000
   S  -0.4953312   0.2608777   0.2036044 SPIN=   0.00000
   O   0.3171205  -0.0838598  -0.2762923 SPIN=   0.00000
   O   0.3046973  -0.2503321  -0.1642542 SPIN=   0.00000
   O   0.8267874  -0.1504560  -0.1956673 SPIN=   0.00000
   O   0.5327197  -0.3297696  -0.4072968 SPIN=   0.00000
   S   0.4953312  -0.2036044  -0.2608777 SPIN=   0.00000
   O  -0.3378755  -0.4163631  -0.1516047 SPIN=   0.00000
   O   0.0650283  -0.5027752  -0.0313264 SPIN=   0.00000
   O   0.0283357  -0.2435696   0.0337744 SPIN=   0.00000
   S   0.0001961  -0.3935364  -0.0879882 SPIN=   0.00000
   O   0.3378755   0.1516047   0.4163631 SPIN=   0.00000
   O  -0.0650283   0.0313264   0.5027752 SPIN=   0.00000
   O  -0.0283357  -0.0337744   0.2435696 SPIN=   0.00000
   S  -0.0001961   0.0879882   0.3935364 SPIN=   0.00000
   O  -0.0000000   0.2876404  -0.2876404 SPIN=   0.00000
   O   0.5000000  -0.0740780   0.0740780 SPIN=   0.00000
   F   0.0000000  -0.4166428   0.4166428 SPIN=   0.00000
   F  -0.5000000   0.1824672  -0.1824672 SPIN=   0.00000
   F   0.5000000   0.4009014  -0.4009014 SPIN=   0.00000
   F  -0.5000000  -0.2345610   0.2345610 SPIN=   0.00000
%ENDBLOCK POSITIONS_FRAC

# Note: total spin =  16.00

KPOINTS_MP_SPACING 0.07

%BLOCK SPECIES_POT
QC5
%ENDBLOCK SPECIES_POT

SNAP_TO_SYMMETRY
SYMMETRY_GENERATE

