#              Generated by Buildcell
#
# at 07:20:01 (GMT+1.0) 18th August 2020
# in /lustre/scratch/uccabz1/launch_tmp
# on node-c12f-005
# by uccabz1
#
# compiler GCC version 4.9.2
# options -cpp -iprefix /lustre/shared/ucl/apps/gcc/4.9.2/bin/../lib/gcc/x86_64-unknown-linux-gnu/4.9.2/ -mtune=corei7 -march=x86-64 -g -Og
#
# seed -1735679424   469586061   490290689  -806246628   288827502  1690985913 -1286502416  -830198308  1520780144  -664933763  -641302081  -550874156
#
#      Author: C. J. Pickard (cjp20@cam.ac.uk)
#                Space group: C2/c
#

%BLOCK LATTICE_ABC
      7.79601      7.88241      8.70365
    116.28741     90.00000    119.63809
%ENDBLOCK LATTICE_ABC

%BLOCK POSITIONS_FRAC
  Li  -0.2069395   0.2972153   0.2656269 SPIN=   0.00000
  Li   0.4958452   0.7027847   0.2343731 SPIN=   0.00000
  Li   0.2069395  -0.2972153  -0.2656269 SPIN=   0.00000
  Li  -0.4958452  -0.7027847  -0.2343731 SPIN=   0.00000
  Fe  -0.1464698  -0.7637854  -0.3393840 SPIN=   4.00000
  Fe  -0.3826844  -0.2362146  -0.1606160 SPIN=   4.00000
  Fe   0.1464698   0.7637854   0.3393840 SPIN=   4.00000
  Fe   0.3826844   0.2362146   0.1606160 SPIN=   4.00000
   O   0.0339638  -0.4399898  -0.1063382 SPIN=   0.00000
   O   0.1133035  -0.0625491  -0.0317774 SPIN=   0.00000
   O  -0.0023903  -0.2017786   0.1774421 SPIN=   0.00000
   O  -0.2470481  -0.3774249  -0.1097257 SPIN=   0.00000
   S  -0.0255428  -0.2704356  -0.0175998 SPIN=   0.00000
   O   0.4739535  -0.5600102  -0.3936618 SPIN=   0.00000
   O   0.1758525  -0.9374509  -0.4682226 SPIN=   0.00000
   O   0.1993883  -0.7982214  -0.6774421 SPIN=   0.00000
   O   0.1303768  -0.6225751  -0.3902743 SPIN=   0.00000
   S   0.2448928  -0.7295644  -0.4824002 SPIN=   0.00000
   O  -0.0339638   0.4399898   0.1063382 SPIN=   0.00000
   O  -0.1133035   0.0625491   0.0317774 SPIN=   0.00000
   O   0.0023903   0.2017786  -0.1774421 SPIN=   0.00000
   O   0.2470481   0.3774249   0.1097257 SPIN=   0.00000
   S   0.0255428   0.2704356   0.0175998 SPIN=   0.00000
   O  -0.4739535   0.5600102   0.3936618 SPIN=   0.00000
   O  -0.1758525   0.9374509   0.4682226 SPIN=   0.00000
   O  -0.1993883   0.7982214   0.6774421 SPIN=   0.00000
   O  -0.1303768   0.6225751   0.3902743 SPIN=   0.00000
   S  -0.2448928   0.7295644   0.4824002 SPIN=   0.00000
   F  -0.2851849   0.2428115   0.4862811 SPIN=   0.00000
   F   0.4720035  -0.2428115   0.0137189 SPIN=   0.00000
   F   0.2851849  -0.2428115  -0.4862811 SPIN=   0.00000
   F  -0.4720035   0.2428115  -0.0137189 SPIN=   0.00000
%ENDBLOCK POSITIONS_FRAC

# Note: total spin =  16.00

KPOINTS_MP_SPACING 0.07

%BLOCK SPECIES_POT
QC5
%ENDBLOCK SPECIES_POT

SNAP_TO_SYMMETRY
SYMMETRY_GENERATE

