#              Generated by Buildcell
#
# at 07:53:01 (GMT+1.0) 4th August 2020
# in /lustre/scratch/uccabz1/launch_tmp
# on node-c12d-008
# by uccabz1
#
# compiler GCC version 4.9.2
# options -cpp -iprefix /lustre/shared/ucl/apps/gcc/4.9.2/bin/../lib/gcc/x86_64-unknown-linux-gnu/4.9.2/ -mtune=corei7 -march=x86-64 -g -Og
#
# seed   827232316   615490654   172575420   942289104 -1834070650   451378622  -541643197   412503952 -1424468436  -808263285   817760920    89876641
#
#      Author: C. J. Pickard (cjp20@cam.ac.uk)
#                Space group: C2
#

%BLOCK LATTICE_ABC
      5.90217      5.90217     11.83372
     80.84994     80.84994     83.23965
%ENDBLOCK LATTICE_ABC

%BLOCK POSITIONS_FRAC
  Li  -0.3789103  -0.3574356  -0.1708506 SPIN=   0.00000
  Li   0.3574356   0.3789103   0.1708506 SPIN=   0.00000
  Li   0.0733443   0.0613575  -0.1637827 SPIN=   0.00000
  Li  -0.0613575  -0.0733443   0.1637827 SPIN=   0.00000
  Fe  -0.4166824  -0.1270691  -0.4633510 SPIN=   3.34177
  Fe   0.1270691   0.4166824   0.4633510 SPIN=   3.34177
  Fe   0.4770380   0.1412359  -0.0481413 SPIN=   4.65823
  Fe  -0.1412359  -0.4770380   0.0481413 SPIN=   4.65823
   O  -0.3101781   0.0455285   0.2758302 SPIN=   0.00000
   O  -0.0661336   0.1572517   0.4057814 SPIN=   0.00000
   O  -0.4239488   0.4001789   0.3660795 SPIN=   0.00000
   O  -0.0872445   0.3844874   0.2124278 SPIN=   0.00000
   S  -0.2218763   0.2468616   0.3150297 SPIN=   0.00000
   O  -0.0455285   0.3101781  -0.2758302 SPIN=   0.00000
   O  -0.1572517   0.0661336  -0.4057814 SPIN=   0.00000
   O  -0.4001789   0.4239488  -0.3660795 SPIN=   0.00000
   O  -0.3844874   0.0872445  -0.2124278 SPIN=   0.00000
   S  -0.2468616   0.2218763  -0.3150297 SPIN=   0.00000
   O   0.2861559  -0.5906802  -0.2355172 SPIN=   0.00000
   O   0.1684064  -0.2982370  -0.3950552 SPIN=   0.00000
   O   0.3449148  -0.1809220  -0.2397675 SPIN=   0.00000
   O  -0.0494284  -0.3056296  -0.1979000 SPIN=   0.00000
   S   0.1875122  -0.3438672  -0.2670600 SPIN=   0.00000
   O   0.5906802  -0.2861559   0.2355172 SPIN=   0.00000
   O   0.2982370  -0.1684064   0.3950552 SPIN=   0.00000
   O   0.1809220  -0.3449148   0.2397675 SPIN=   0.00000
   O   0.3056296   0.0494284   0.1979000 SPIN=   0.00000
   S   0.3438672  -0.1875122   0.2670600 SPIN=   0.00000
   F   0.3072100   0.1465609  -0.4533536 SPIN=   0.00000
   F  -0.1465609  -0.3072100   0.4533536 SPIN=   0.00000
   F   0.2118058   0.3661639   0.0055043 SPIN=   0.00000
   F  -0.3661639  -0.2118058  -0.0055043 SPIN=   0.00000
%ENDBLOCK POSITIONS_FRAC

# Note: total spin =  16.00

KPOINTS_MP_SPACING 0.07

%BLOCK SPECIES_POT
QC5
%ENDBLOCK SPECIES_POT

SNAP_TO_SYMMETRY
SYMMETRY_GENERATE

