#              Generated by Buildcell
#
# at 08:59:58 (GMT+1.0) 4th August 2020
# in /lustre/scratch/uccabz1/launch_tmp
# on node-c12k-033
# by uccabz1
#
# compiler GCC version 4.9.2
# options -cpp -iprefix /lustre/shared/ucl/apps/gcc/4.9.2/bin/../lib/gcc/x86_64-unknown-linux-gnu/4.9.2/ -mtune=corei7 -march=x86-64 -g -Og
#
# seed  1318689043 -1655162922   320215403 -1891918959   888733923  1731659196 -1844273530  -314430354  -515794754 -1332552708  -477853758  -904944872
#
#      Author: C. J. Pickard (cjp20@cam.ac.uk)
#                Space group: Pc
#

%BLOCK LATTICE_ABC
      4.12668      9.91426     10.42013
    110.23770     90.00000     90.00000
%ENDBLOCK LATTICE_ABC

%BLOCK POSITIONS_FRAC
  Li   0.1131297  -0.4225736   0.0379210 SPIN=   0.00000
  Li  -0.1131297   0.0774264  -0.4620790 SPIN=   0.00000
  Li   0.2974101   0.1558214   0.2308505 SPIN=   0.00000
  Li  -0.2974101  -0.3441786  -0.2691495 SPIN=   0.00000
  Fe   0.3873173  -0.0012120  -0.2886724 SPIN=   4.04353
  Fe  -0.3873173   0.4987880   0.2113276 SPIN=   4.04353
  Fe   0.3636542  -0.0981723   0.3259173 SPIN=   3.95647
  Fe  -0.3636542   0.4018277  -0.1740827 SPIN=   3.95647
   O  -0.5658004  -0.0086095   0.0824560 SPIN=   0.00000
   O  -0.1169885  -0.0508048  -0.0843990 SPIN=   0.00000
   O  -0.6345991  -0.1822508  -0.1525677 SPIN=   0.00000
   O  -0.2686147  -0.2396718   0.0095726 SPIN=   0.00000
   S  -0.3965007  -0.1203342  -0.0362345 SPIN=   0.00000
   O   0.5658004   0.4913905   0.5824560 SPIN=   0.00000
   O   0.1169885   0.4491952   0.4156010 SPIN=   0.00000
   O   0.6345991   0.3177492   0.3474323 SPIN=   0.00000
   O   0.2686147   0.2603282   0.5095726 SPIN=   0.00000
   S   0.3965007   0.3796658   0.4637655 SPIN=   0.00000
   O   0.1055980   0.1466994  -0.1281403 SPIN=   0.00000
   O  -0.0587578   0.3806138   0.0414120 SPIN=   0.00000
   O   0.4605338   0.2689892   0.0693781 SPIN=   0.00000
   O  -0.0587636   0.1620582   0.1049181 SPIN=   0.00000
   S   0.1121526   0.2395902   0.0218919 SPIN=   0.00000
   O  -0.1055980  -0.3533006  -0.6281403 SPIN=   0.00000
   O   0.0587578  -0.1193862  -0.4585880 SPIN=   0.00000
   O  -0.4605338  -0.2310108  -0.4306219 SPIN=   0.00000
   O   0.0587636  -0.3379418  -0.3950819 SPIN=   0.00000
   S  -0.1121526  -0.2604098  -0.4781081 SPIN=   0.00000
   F   0.3934420  -0.3146471   0.2071321 SPIN=   0.00000
   F  -0.3934420   0.1853529  -0.2928679 SPIN=   0.00000
   F   0.1049993  -0.4512570  -0.1794525 SPIN=   0.00000
   F  -0.1049993   0.0487430   0.3205475 SPIN=   0.00000
%ENDBLOCK POSITIONS_FRAC

# Note: total spin =  16.00

KPOINTS_MP_SPACING 0.07

%BLOCK SPECIES_POT
QC5
%ENDBLOCK SPECIES_POT

SNAP_TO_SYMMETRY
SYMMETRY_GENERATE

