#              Generated by Buildcell
#
# at 09:32:14 (GMT+1.0) 18th August 2020
# in /lustre/scratch/uccabz1/launch_tmp
# on node-c12f-027
# by uccabz1
#
# compiler GCC version 4.9.2
# options -cpp -iprefix /lustre/shared/ucl/apps/gcc/4.9.2/bin/../lib/gcc/x86_64-unknown-linux-gnu/4.9.2/ -mtune=corei7 -march=x86-64 -g -Og
#
# seed  1965412925  1457167982  1046775455  1855544273 -1406187335  -137277745  2061397515   621240637 -1760706575  -144750928 -1483521742   155527435
#
#      Author: C. J. Pickard (cjp20@cam.ac.uk)
#                Space group: C2/c
#

%BLOCK LATTICE_ABC
      5.63772      8.49811      8.49811
     81.09970     85.40443     85.40443
%ENDBLOCK LATTICE_ABC

%BLOCK POSITIONS_FRAC
  Li  -0.4826948   0.2596666  -0.4536233 SPIN=   0.00000
  Li  -0.0173052   0.4536233  -0.2596666 SPIN=   0.00000
  Li   0.4826948  -0.2596666   0.4536233 SPIN=   0.00000
  Li   0.0173052  -0.4536233   0.2596666 SPIN=   0.00000
  Fe   0.2501007  -0.0507329  -0.2681062 SPIN=   4.00000
  Fe   0.2498993   0.2681062   0.0507329 SPIN=   4.00000
  Fe  -0.2501007   0.0507329   0.2681062 SPIN=   4.00000
  Fe  -0.2498993  -0.2681062  -0.0507329 SPIN=   4.00000
   O  -0.3659622   0.4644060   0.4054686 SPIN=   0.00000
   O  -0.5704754   0.6493585   0.1965873 SPIN=   0.00000
   O  -0.6466744   0.3625301   0.2421027 SPIN=   0.00000
   O  -0.2561815   0.4494020   0.1200489 SPIN=   0.00000
   S  -0.4598234   0.4814241   0.2410519 SPIN=   0.00000
   O  -0.1340378  -0.4054686  -0.4644060 SPIN=   0.00000
   O   0.0704754  -0.1965873  -0.6493585 SPIN=   0.00000
   O   0.1466744  -0.2421027  -0.3625301 SPIN=   0.00000
   O  -0.2438185  -0.1200489  -0.4494020 SPIN=   0.00000
   S  -0.0401766  -0.2410519  -0.4814241 SPIN=   0.00000
   O   0.3659622  -0.4644060  -0.4054686 SPIN=   0.00000
   O   0.5704754  -0.6493585  -0.1965873 SPIN=   0.00000
   O   0.6466744  -0.3625301  -0.2421027 SPIN=   0.00000
   O   0.2561815  -0.4494020  -0.1200489 SPIN=   0.00000
   S   0.4598234  -0.4814241  -0.2410519 SPIN=   0.00000
   O   0.1340378   0.4054686   0.4644060 SPIN=   0.00000
   O  -0.0704754   0.1965873   0.6493585 SPIN=   0.00000
   O  -0.1466744   0.2421027   0.3625301 SPIN=   0.00000
   O   0.2438185   0.1200489   0.4494020 SPIN=   0.00000
   S   0.0401766   0.2410519   0.4814241 SPIN=   0.00000
   F  -0.4678048   0.0615357  -0.2725920 SPIN=   0.00000
   F  -0.0321952   0.2725920  -0.0615357 SPIN=   0.00000
   F   0.4678048  -0.0615357   0.2725920 SPIN=   0.00000
   F   0.0321952  -0.2725920   0.0615357 SPIN=   0.00000
%ENDBLOCK POSITIONS_FRAC

# Note: total spin =  16.00

KPOINTS_MP_SPACING 0.07

%BLOCK SPECIES_POT
QC5
%ENDBLOCK SPECIES_POT

SNAP_TO_SYMMETRY
SYMMETRY_GENERATE

