#              Generated by Buildcell
#
# at 10:04:32 (GMT+1.0) 4th August 2020
# in /lustre/scratch/uccabz1/launch_tmp
# on node-c12g-015
# by uccabz1
#
# compiler GCC version 4.9.2
# options -cpp -iprefix /lustre/shared/ucl/apps/gcc/4.9.2/bin/../lib/gcc/x86_64-unknown-linux-gnu/4.9.2/ -mtune=corei7 -march=x86-64 -g -Og
#
# seed -1463976378   -11737762 -1613050190 -1593597030   -10975275   508912491  1292199242 -2028521462   191507290   581584190   -14138324 -2104232912
#
#      Author: C. J. Pickard (cjp20@cam.ac.uk)
#                Space group: P-1
#

%BLOCK LATTICE_ABC
      7.20126      7.67574      8.89628
     65.59530     80.38402     63.31368
%ENDBLOCK LATTICE_ABC

%BLOCK POSITIONS_FRAC
  Li  -0.1710167  -0.4805991   0.3656618 SPIN=   0.00000
  Li   0.1710167   0.4805991  -0.3656618 SPIN=   0.00000
  Li  -0.5000000  -1.0000000   0.5000000 SPIN=   0.00000
  Li   0.5000000  -0.0000000  -0.0000000 SPIN=   0.00000
  Fe   0.2504585  -0.4751118   0.2617945 SPIN=   1.24448
  Fe  -0.2504585   0.4751118  -0.2617945 SPIN=   1.24448
  Fe  -0.1468017   0.1499554   0.3013294 SPIN=   6.75552
  Fe   0.1468017  -0.1499554  -0.3013294 SPIN=   6.75552
   O  -0.2915618   0.1562881  -0.4693879 SPIN=   0.00000
   O  -0.2901870   0.0700492  -0.1689021 SPIN=   0.00000
   O  -0.5894793   0.1093243  -0.3025073 SPIN=   0.00000
   O  -0.5297900   0.4230942  -0.3561044 SPIN=   0.00000
   S  -0.4252545   0.1896890  -0.3242254 SPIN=   0.00000
   O   0.2915618  -0.1562881   0.4693879 SPIN=   0.00000
   O   0.2901870  -0.0700492   0.1689021 SPIN=   0.00000
   O   0.5894793  -0.1093243   0.3025073 SPIN=   0.00000
   O   0.5297900  -0.4230942   0.3561044 SPIN=   0.00000
   S   0.4252545  -0.1896890   0.3242254 SPIN=   0.00000
   O  -0.2021668  -0.2648820  -0.1530132 SPIN=   0.00000
   O  -0.1323538  -0.6177075   0.0658609 SPIN=   0.00000
   O  -0.4552464  -0.3079771   0.0687834 SPIN=   0.00000
   O  -0.1158931  -0.3417941   0.1320366 SPIN=   0.00000
   O   0.2021668   0.2648820   0.1530132 SPIN=   0.00000
   O   0.1323538   0.6177075  -0.0658609 SPIN=   0.00000
   O   0.4552464   0.3079771  -0.0687834 SPIN=   0.00000
   O   0.1158931   0.3417941  -0.1320366 SPIN=   0.00000
   S   0.0000000  -0.0000000  -0.0000000 SPIN=   0.00000
   S  -0.0000000  -0.5000000   0.0000000 SPIN=   0.00000
   F   0.0546814  -0.7591758   0.4729026 SPIN=   0.00000
   F  -0.0546814   0.7591758  -0.4729026 SPIN=   0.00000
   F   0.4609062   0.7023806  -0.2258862 SPIN=   0.00000
   F  -0.4609062  -0.7023806   0.2258862 SPIN=   0.00000
%ENDBLOCK POSITIONS_FRAC

# Note: total spin =  16.00

KPOINTS_MP_SPACING 0.07

%BLOCK SPECIES_POT
QC5
%ENDBLOCK SPECIES_POT

SNAP_TO_SYMMETRY
SYMMETRY_GENERATE

