#              Generated by Buildcell
#
# at 08:36:11 (GMT+1.0) 4th August 2020
# in /lustre/scratch/uccabz1/launch_tmp
# on node-c12n-033
# by uccabz1
#
# compiler GCC version 4.9.2
# options -cpp -iprefix /lustre/shared/ucl/apps/gcc/4.9.2/bin/../lib/gcc/x86_64-unknown-linux-gnu/4.9.2/ -mtune=corei7 -march=x86-64 -g -Og
#
# seed -1679254966  2128078562  1168812657 -1156247754   768909947 -1886149073  1323952383 -1874538554  1095950072  -596086643    42824831  1654107534
#
#      Author: C. J. Pickard (cjp20@cam.ac.uk)
#                Space group: P21
#

%BLOCK LATTICE_ABC
      6.51617      7.14514      8.59576
     90.00000     90.00000     91.85480
%ENDBLOCK LATTICE_ABC

%BLOCK POSITIONS_FRAC
  Li  -0.1462705   0.2732916  -0.0209174 SPIN=   0.00000
  Li   0.1462705  -0.2732916   0.4790826 SPIN=   0.00000
  Li  -0.3496031  -0.1576315  -0.2958873 SPIN=   0.00000
  Li   0.3496031   0.1576315   0.2041127 SPIN=   0.00000
  Fe  -0.1167710   0.0725434   0.4572463 SPIN=   4.57552
  Fe   0.1167710  -0.0725434  -0.0427537 SPIN=   4.57552
  Fe  -0.4326567   0.4760867   0.3830712 SPIN=   3.42448
  Fe   0.4326567  -0.4760867  -0.1169288 SPIN=   3.42448
   O   0.5621459   0.1437565  -0.4686640 SPIN=   0.00000
   O   0.4708667   0.0637375  -0.1966670 SPIN=   0.00000
   O   0.2083509   0.0336697  -0.4040101 SPIN=   0.00000
   O   0.3343804   0.3476558  -0.3187850 SPIN=   0.00000
   S   0.3939360   0.1472049  -0.3470316 SPIN=   0.00000
   O  -0.5621459  -0.1437565   0.0313360 SPIN=   0.00000
   O  -0.4708667  -0.0637375   0.3033330 SPIN=   0.00000
   O  -0.2083509  -0.0336697   0.0959899 SPIN=   0.00000
   O  -0.3343804  -0.3476558   0.1812150 SPIN=   0.00000
   S  -0.3939360  -0.1472049   0.1529684 SPIN=   0.00000
   O  -0.1961362   0.6204749  -0.4098393 SPIN=   0.00000
   O  -0.2551267   0.3518336  -0.2318560 SPIN=   0.00000
   O   0.0680757   0.5424877  -0.2155778 SPIN=   0.00000
   O   0.0036856   0.3342481  -0.4416274 SPIN=   0.00000
   S  -0.0948754   0.4622611  -0.3247251 SPIN=   0.00000
   O   0.1961362  -0.6204749   0.0901607 SPIN=   0.00000
   O   0.2551267  -0.3518336   0.2681440 SPIN=   0.00000
   O  -0.0680757  -0.5424877   0.2844222 SPIN=   0.00000
   O  -0.0036856  -0.3342481   0.0583726 SPIN=   0.00000
   S   0.0948754  -0.4622611   0.1752749 SPIN=   0.00000
   F  -0.4115595   0.3522006   0.0399865 SPIN=   0.00000
   F   0.4115595  -0.3522006  -0.4600135 SPIN=   0.00000
   F   0.1126534   0.0382682   0.2879756 SPIN=   0.00000
   F  -0.1126534  -0.0382682  -0.2120244 SPIN=   0.00000
%ENDBLOCK POSITIONS_FRAC

# Note: total spin =  16.00

KPOINTS_MP_SPACING 0.07

%BLOCK SPECIES_POT
QC5
%ENDBLOCK SPECIES_POT

SNAP_TO_SYMMETRY
SYMMETRY_GENERATE

