#              Generated by Buildcell
#
# at 08:38:04 (GMT+1.0) 4th August 2020
# in /lustre/scratch/uccabz1/launch_tmp
# on node-c12m-025
# by uccabz1
#
# compiler GCC version 4.9.2
# options -cpp -iprefix /lustre/shared/ucl/apps/gcc/4.9.2/bin/../lib/gcc/x86_64-unknown-linux-gnu/4.9.2/ -mtune=corei7 -march=x86-64 -g -Og
#
# seed  -514204598  2018884263  -104903784  1910749237  1089027593 -1225279915  1769734958  -130755836  1110041619  1210262016  1129544360   764472707
#
#      Author: C. J. Pickard (cjp20@cam.ac.uk)
#                Space group: Cc
#

%BLOCK LATTICE_ABC
      7.48414      7.70925      7.98939
     99.56953    117.92918     90.00000
%ENDBLOCK LATTICE_ABC

%BLOCK POSITIONS_FRAC
  Li   0.0761490  -0.1408487   0.3042461 SPIN=   0.00000
  Li   0.2280971   0.3591513   0.3042461 SPIN=   0.00000
  Li  -0.3940480  -0.2650051   0.3578048 SPIN=   0.00000
  Li  -0.2481472   0.2349949   0.3578048 SPIN=   0.00000
  Fe  -0.1678049  -0.0623389  -0.0796002 SPIN=   1.67341
  Fe   0.0882047   0.4376611  -0.0796002 SPIN=   1.67341
  Fe  -0.3484651   0.3711926   0.0060177 SPIN=   6.32659
  Fe   0.3544828  -0.1288074   0.0060177 SPIN=   6.32659
   O   0.2510648   0.0336153  -0.3268766 SPIN=   0.00000
   O   0.0007786   0.2444977  -0.3296952 SPIN=   0.00000
   O  -0.0054740  -0.0426435  -0.2317495 SPIN=   0.00000
   O  -0.1103123  -0.0321131  -0.5729979 SPIN=   0.00000
   S   0.0340143   0.0508391  -0.3653298 SPIN=   0.00000
   O  -0.5779414  -0.4663847  -0.3268766 SPIN=   0.00000
   O  -0.3304738  -0.2555023  -0.3296952 SPIN=   0.00000
   O  -0.2262755  -0.5426435  -0.2317495 SPIN=   0.00000
   O  -0.4626856  -0.5321131  -0.5729979 SPIN=   0.00000
   S  -0.3993441  -0.4491609  -0.3653298 SPIN=   0.00000
   O   0.3839623  -0.1180701   0.4666092 SPIN=   0.00000
   O   0.6903977   0.0902808   0.5981697 SPIN=   0.00000
   O   0.3542529   0.2041544   0.5067346 SPIN=   0.00000
   O   0.4338489   0.0538395   0.2539605 SPIN=   0.00000
   S   0.4656154   0.0575511   0.4563685 SPIN=   0.00000
   O   0.0826469  -0.6180701   0.4666092 SPIN=   0.00000
   O  -0.0922280  -0.4097192   0.5981697 SPIN=   0.00000
   O   0.1524817  -0.2958456   0.5067346 SPIN=   0.00000
   O  -0.1798885  -0.4461605   0.2539605 SPIN=   0.00000
   S  -0.0092470  -0.4424489   0.4563685 SPIN=   0.00000
   F  -0.0290183   0.2540449   0.0668150 SPIN=   0.00000
   F   0.0958333  -0.2459551   0.0668150 SPIN=   0.00000
   F   0.3960958   0.3917198  -0.0271760 SPIN=   0.00000
   F  -0.4232718  -0.1082802  -0.0271760 SPIN=   0.00000
%ENDBLOCK POSITIONS_FRAC

# Note: total spin =  16.00

KPOINTS_MP_SPACING 0.07

%BLOCK SPECIES_POT
QC5
%ENDBLOCK SPECIES_POT

SNAP_TO_SYMMETRY
SYMMETRY_GENERATE

