#              Generated by Buildcell
#
# at 10:15:11 (GMT+1.0) 4th August 2020
# in /lustre/scratch/uccabz1/launch_tmp
# on node-c12i-006
# by uccabz1
#
# compiler GCC version 4.9.2
# options -cpp -iprefix /lustre/shared/ucl/apps/gcc/4.9.2/bin/../lib/gcc/x86_64-unknown-linux-gnu/4.9.2/ -mtune=corei7 -march=x86-64 -g -Og
#
# seed -1571448884  1617194936   -16743637  -434650341   119493325 -1022020184   503941607  1981693570   230246041 -1850833129   736220672   646598275
#
#      Author: C. J. Pickard (cjp20@cam.ac.uk)
#                Space group: Cc
#

%BLOCK LATTICE_ABC
      4.57606      8.34473     11.33685
    105.46232     90.00000    105.91369
%ENDBLOCK LATTICE_ABC

%BLOCK POSITIONS_FRAC
  Li  -0.2927553  -0.1182872   0.2740329 SPIN=   0.00000
  Li   0.1744680  -0.1182872  -0.2259671 SPIN=   0.00000
  Li   0.0313849  -0.3365062   0.0143047 SPIN=   0.00000
  Li  -0.3678911  -0.3365062  -0.4856953 SPIN=   0.00000
  Fe  -0.4516934   0.3139952  -0.0664652 SPIN=   3.95560
  Fe  -0.2343115   0.3139952   0.4335348 SPIN=   3.95560
  Fe  -0.0885823   0.1070442  -0.3385360 SPIN=   4.04440
  Fe   0.1956266   0.1070442   0.1614640 SPIN=   4.04440
   O  -0.1878156  -0.6581539  -0.3290626 SPIN=   0.00000
   O  -0.2508703  -0.4404206  -0.1417253 SPIN=   0.00000
   O  -0.0536978  -0.3479164  -0.3235404 SPIN=   0.00000
   O   0.2661387  -0.4499847  -0.2006459 SPIN=   0.00000
   S  -0.0565613  -0.4741189  -0.2487435 SPIN=   0.00000
   O  -0.4703382  -0.6581539   0.1709374 SPIN=   0.00000
   O  -0.1895503  -0.4404206   0.3582747 SPIN=   0.00000
   O  -0.2942186  -0.3479164   0.1764596 SPIN=   0.00000
   O  -0.7161234  -0.4499847   0.2993541 SPIN=   0.00000
   S  -0.4175576  -0.4741189   0.2512565 SPIN=   0.00000
   O  -0.0471568  -0.0576777  -0.0115454 SPIN=   0.00000
   O  -0.5386836  -0.2727497  -0.0064585 SPIN=   0.00000
   O  -0.4089873  -0.1860806  -0.1967346 SPIN=   0.00000
   O  -0.5294200   0.0213790  -0.0161617 SPIN=   0.00000
   S  -0.3810619  -0.1237822  -0.0577251 SPIN=   0.00000
   O  -0.0105209  -0.0576777   0.4884546 SPIN=   0.00000
   O   0.2659339  -0.2727497   0.4935415 SPIN=   0.00000
   O   0.2229067  -0.1860806   0.3032654 SPIN=   0.00000
   O   0.5507991   0.0213790   0.4838383 SPIN=   0.00000
   S   0.2572797  -0.1237822   0.4422749 SPIN=   0.00000
   F   0.3493112   0.3378106  -0.4977040 SPIN=   0.00000
   F  -0.0115006   0.3378106   0.0022960 SPIN=   0.00000
   F   0.3813740   0.1263244  -0.2382472 SPIN=   0.00000
   F  -0.2550497   0.1263244   0.2617528 SPIN=   0.00000
%ENDBLOCK POSITIONS_FRAC

# Note: total spin =  16.00

KPOINTS_MP_SPACING 0.07

%BLOCK SPECIES_POT
QC5
%ENDBLOCK SPECIES_POT

SNAP_TO_SYMMETRY
SYMMETRY_GENERATE

