#              Generated by Buildcell
#
# at 00:24:53 (GMT+1.0) 18th August 2020
# in /lustre/scratch/uccabz1/launch_tmp
# on node-c12p-014
# by uccabz1
#
# compiler GCC version 4.9.2
# options -cpp -iprefix /lustre/shared/ucl/apps/gcc/4.9.2/bin/../lib/gcc/x86_64-unknown-linux-gnu/4.9.2/ -mtune=corei7 -march=x86-64 -g -Og
#
# seed -1508596573 -1454945199  -957718338   491940281   489326249  1475849156  2021090387 -1073887203   -74914335 -1001730713  -990316881  1004932573
#
#      Author: C. J. Pickard (cjp20@cam.ac.uk)
#                Space group: Pnc2
#

%BLOCK LATTICE_ABC
      4.55915      6.64369     13.20586
     90.00000     90.00000     90.00000
%ENDBLOCK LATTICE_ABC

%BLOCK POSITIONS_FRAC
  Li  -0.2974820   0.2238501   0.2043159 SPIN=   0.00000
  Li   0.2974820  -0.2238501   0.2043159 SPIN=   0.00000
  Li  -0.2974820   0.2761499  -0.2956841 SPIN=   0.00000
  Li   0.2974820  -0.2761499  -0.2956841 SPIN=   0.00000
  Fe   0.2073310   0.2308159  -0.4430063 SPIN=   4.00000
  Fe  -0.2073310  -0.2308159  -0.4430063 SPIN=   4.00000
  Fe   0.2073310   0.2691841   0.0569937 SPIN=   4.00000
  Fe  -0.2073310  -0.2691841   0.0569937 SPIN=   4.00000
   O   0.2502655   0.4635417  -0.2247875 SPIN=   0.00000
   O   0.2758392   0.1082104  -0.2803534 SPIN=   0.00000
   O  -0.1157727   0.2175803  -0.1628152 SPIN=   0.00000
   O   0.3984038   0.1983645  -0.1035091 SPIN=   0.00000
   S   0.2021839   0.2469242  -0.1928663 SPIN=   0.00000
   O  -0.2502655  -0.4635417  -0.2247875 SPIN=   0.00000
   O  -0.2758392  -0.1082104  -0.2803534 SPIN=   0.00000
   O   0.1157727  -0.2175803  -0.1628152 SPIN=   0.00000
   O  -0.3984038  -0.1983645  -0.1035091 SPIN=   0.00000
   S  -0.2021839  -0.2469242  -0.1928663 SPIN=   0.00000
   O   0.2502655   0.0364583   0.2752125 SPIN=   0.00000
   O   0.2758392   0.3917896   0.2196466 SPIN=   0.00000
   O  -0.1157727   0.2824197   0.3371848 SPIN=   0.00000
   O   0.3984038   0.3016355   0.3964909 SPIN=   0.00000
   S   0.2021839   0.2530758   0.3071337 SPIN=   0.00000
   O  -0.2502655  -0.0364583   0.2752125 SPIN=   0.00000
   O  -0.2758392  -0.3917896   0.2196466 SPIN=   0.00000
   O   0.1157727  -0.2824197   0.3371848 SPIN=   0.00000
   O  -0.3984038  -0.3016355   0.3964909 SPIN=   0.00000
   S  -0.2021839  -0.2530758   0.3071337 SPIN=   0.00000
   F   0.2473089  -0.2497321  -0.4307741 SPIN=   0.00000
   F  -0.2473089   0.2497321  -0.4307741 SPIN=   0.00000
   F   0.2473089  -0.2502679   0.0692259 SPIN=   0.00000
   F  -0.2473089   0.2502679   0.0692259 SPIN=   0.00000
%ENDBLOCK POSITIONS_FRAC

# Note: total spin =  16.00

KPOINTS_MP_SPACING 0.07

%BLOCK SPECIES_POT
QC5
%ENDBLOCK SPECIES_POT

SNAP_TO_SYMMETRY
SYMMETRY_GENERATE

