#              Generated by Buildcell
#
# at 10:49:32 (GMT+1.0) 4th August 2020
# in /lustre/scratch/uccabz1/launch_tmp
# on node-c12p-030
# by uccabz1
#
# compiler GCC version 4.9.2
# options -cpp -iprefix /lustre/shared/ucl/apps/gcc/4.9.2/bin/../lib/gcc/x86_64-unknown-linux-gnu/4.9.2/ -mtune=corei7 -march=x86-64 -g -Og
#
# seed  1977820734 -1307331988   360683009  1931338699 -1934830088    41058287 -1947143925 -2067949733  1796167671  -705294099 -2146396598   -19953959
#
#      Author: C. J. Pickard (cjp20@cam.ac.uk)
#                Space group: P21
#

%BLOCK LATTICE_ABC
      6.06865      7.57409      8.99496
     90.00000    104.65384     90.00000
%ENDBLOCK LATTICE_ABC

%BLOCK POSITIONS_FRAC
  Li   0.3231201   0.3681681  -0.3265383 SPIN=   0.00000
  Li  -0.3231201  -0.1318319   0.3265383 SPIN=   0.00000
  Li   0.1443751  -0.4565587   0.2386440 SPIN=   0.00000
  Li  -0.1443751   0.0434413  -0.2386440 SPIN=   0.00000
  Fe  -0.3062865   0.3977549   0.0809685 SPIN=   5.14691
  Fe   0.3062865  -0.1022451  -0.0809685 SPIN=   5.14691
  Fe  -0.0562383   0.1819253   0.4603048 SPIN=   2.85309
  Fe   0.0562383  -0.3180747  -0.4603048 SPIN=   2.85309
   O   0.3633516  -0.1869536  -0.5345364 SPIN=   0.00000
   O   0.3046927   0.1365564  -0.5390442 SPIN=   0.00000
   O   0.6953584   0.0143262  -0.4815958 SPIN=   0.00000
   O   0.4646925  -0.0162970  -0.2921241 SPIN=   0.00000
   S   0.4570238  -0.0130920  -0.4618251 SPIN=   0.00000
   O  -0.3633516   0.3130464   0.5345364 SPIN=   0.00000
   O  -0.3046927   0.6365564   0.5390442 SPIN=   0.00000
   O  -0.6953584   0.5143262   0.4815958 SPIN=   0.00000
   O  -0.4646925   0.4837030   0.2921241 SPIN=   0.00000
   S  -0.4570238   0.4869080   0.4618251 SPIN=   0.00000
   O  -0.0761739   0.5805433  -0.0688652 SPIN=   0.00000
   O   0.2146983   0.3759261   0.0806281 SPIN=   0.00000
   O   0.3238916   0.6031938  -0.0851273 SPIN=   0.00000
   O   0.0876652   0.3484602  -0.2023806 SPIN=   0.00000
   S   0.1375203   0.4770309  -0.0689363 SPIN=   0.00000
   O   0.0761739   0.0805433   0.0688652 SPIN=   0.00000
   O  -0.2146983  -0.1240739  -0.0806281 SPIN=   0.00000
   O  -0.3238916   0.1031938   0.0851273 SPIN=   0.00000
   O  -0.0876652  -0.1515398   0.2023806 SPIN=   0.00000
   S  -0.1375203  -0.0229691   0.0689363 SPIN=   0.00000
   F  -0.0506680   0.3564711   0.2818852 SPIN=   0.00000
   F   0.0506680  -0.1435289  -0.2818852 SPIN=   0.00000
   F   0.4009119  -0.1941764   0.1716116 SPIN=   0.00000
   F  -0.4009119   0.3058236  -0.1716116 SPIN=   0.00000
%ENDBLOCK POSITIONS_FRAC

# Note: total spin =  16.00

KPOINTS_MP_SPACING 0.07

%BLOCK SPECIES_POT
QC5
%ENDBLOCK SPECIES_POT

SNAP_TO_SYMMETRY
SYMMETRY_GENERATE

