#              Generated by Buildcell
#
# at 07:15:00 (GMT+1.0) 4th August 2020
# in /lustre/scratch/uccabz1/launch_tmp
# on node-c12f-020
# by uccabz1
#
# compiler GCC version 4.9.2
# options -cpp -iprefix /lustre/shared/ucl/apps/gcc/4.9.2/bin/../lib/gcc/x86_64-unknown-linux-gnu/4.9.2/ -mtune=corei7 -march=x86-64 -g -Og
#
# seed  -882931005  -184363374  1861622504  1799226005   905132658  -802466680 -1156132988  1379164074  -350236355 -1944418214 -1991594936   496346318
#
#      Author: C. J. Pickard (cjp20@cam.ac.uk)
#                Space group: P21
#

%BLOCK LATTICE_ABC
      5.28321      7.30909     10.86482
     90.00000     90.00000    107.55998
%ENDBLOCK LATTICE_ABC

%BLOCK POSITIONS_FRAC
  Li   0.2229954   0.3319293  -0.2256379 SPIN=   0.00000
  Li  -0.2229954  -0.3319293   0.2743621 SPIN=   0.00000
  Li  -0.2884091   0.1510181   0.4548511 SPIN=   0.00000
  Li   0.2884091  -0.1510181  -0.0451489 SPIN=   0.00000
  Fe  -0.3287044  -0.3455109  -0.1342392 SPIN=   4.73244
  Fe   0.3287044   0.3455109   0.3657608 SPIN=   4.73244
  Fe  -0.0477729   0.0190605   0.1210113 SPIN=   3.26756
  Fe   0.0477729  -0.0190605  -0.3789887 SPIN=   3.26756
   O  -0.3934742   0.0342405  -0.3143950 SPIN=   0.00000
   O  -0.3405246   0.3114152  -0.1752815 SPIN=   0.00000
   O  -0.5546103   0.3044227  -0.3785627 SPIN=   0.00000
   O  -0.0720661   0.3488976  -0.3655348 SPIN=   0.00000
   S  -0.3401688   0.2497440  -0.3084435 SPIN=   0.00000
   O   0.3934742  -0.0342405   0.1856050 SPIN=   0.00000
   O   0.3405246  -0.3114152   0.3247185 SPIN=   0.00000
   O   0.5546103  -0.3044227   0.1214373 SPIN=   0.00000
   O   0.0720661  -0.3488976   0.1344652 SPIN=   0.00000
   S   0.3401688  -0.2497440   0.1915565 SPIN=   0.00000
   O  -0.6253572   0.3398051   0.1722044 SPIN=   0.00000
   O  -0.3052320   0.4827481   0.0065523 SPIN=   0.00000
   O  -0.5732549   0.1410097  -0.0047578 SPIN=   0.00000
   O  -0.2144702   0.2467675   0.1497645 SPIN=   0.00000
   S  -0.4295786   0.3025826   0.0809409 SPIN=   0.00000
   O   0.6253572  -0.3398051  -0.3277956 SPIN=   0.00000
   O   0.3052320  -0.4827481  -0.4934477 SPIN=   0.00000
   O   0.5732549  -0.1410097  -0.5047578 SPIN=   0.00000
   O   0.2144702  -0.2467675  -0.3502355 SPIN=   0.00000
   S   0.4295786  -0.3025826  -0.4190591 SPIN=   0.00000
   F   0.1938999  -0.4676675  -0.1123626 SPIN=   0.00000
   F  -0.1938999   0.4676675   0.3876374 SPIN=   0.00000
   F   0.1259287   0.0375721   0.4487043 SPIN=   0.00000
   F  -0.1259287  -0.0375721  -0.0512957 SPIN=   0.00000
%ENDBLOCK POSITIONS_FRAC

# Note: total spin =  16.00

KPOINTS_MP_SPACING 0.07

%BLOCK SPECIES_POT
QC5
%ENDBLOCK SPECIES_POT

SNAP_TO_SYMMETRY
SYMMETRY_GENERATE

