#              Generated by Buildcell
#
# at 06:04:48 (GMT+1.0) 4th August 2020
# in /lustre/scratch/uccabz1/launch_tmp
# on node-c12m-013
# by uccabz1
#
# compiler GCC version 4.9.2
# options -cpp -iprefix /lustre/shared/ucl/apps/gcc/4.9.2/bin/../lib/gcc/x86_64-unknown-linux-gnu/4.9.2/ -mtune=corei7 -march=x86-64 -g -Og
#
# seed -1601111494  2079242061  1208130666   248976503  -514544351  -807157134   640806512 -1176158354 -1143292141 -1067279862  1211821280  1644799174
#
#      Author: C. J. Pickard (cjp20@cam.ac.uk)
#                Space group: Cc
#

%BLOCK LATTICE_ABC
      7.69560      8.02411      8.39965
    116.23587    117.26395     90.00000
%ENDBLOCK LATTICE_ABC

%BLOCK POSITIONS_FRAC
  Li  -0.2754416  -0.0705931  -0.2064345 SPIN=   0.00000
  Li   0.0690071   0.4294069  -0.2064345 SPIN=   0.00000
  Li   0.2724587   0.2344745   0.3253611 SPIN=   0.00000
  Li   0.0529025  -0.2655255   0.3253611 SPIN=   0.00000
  Fe   0.1560634  -0.1264716  -0.0899885 SPIN=   3.20333
  Fe  -0.2460518   0.3735284  -0.0899885 SPIN=   3.20333
  Fe  -0.3166247  -0.4972328  -0.4899809 SPIN=   4.79667
  Fe  -0.1733562   0.0027672  -0.4899809 SPIN=   4.79667
   O   0.4353372   0.1356349  -0.4318689 SPIN=   0.00000
   O   0.0821524   0.0146880  -0.5390798 SPIN=   0.00000
   O   0.2397036   0.3644522  -0.3329767 SPIN=   0.00000
   O   0.3513715   0.1608300  -0.1720029 SPIN=   0.00000
   S   0.2771412   0.1689013  -0.3689821 SPIN=   0.00000
   O   0.1327939  -0.3643651  -0.4318689 SPIN=   0.00000
   O   0.3787678  -0.4853120  -0.5390798 SPIN=   0.00000
   O   0.4273197  -0.1355478  -0.3329767 SPIN=   0.00000
   O   0.4766255  -0.3391700  -0.1720029 SPIN=   0.00000
   S   0.3538767  -0.3310987  -0.3689821 SPIN=   0.00000
   O  -0.3163950  -0.0179917   0.0260699 SPIN=   0.00000
   O  -0.0143951   0.2417977   0.1948602 SPIN=   0.00000
   O  -0.1469877   0.2103851   0.4014537 SPIN=   0.00000
   O  -0.3386303   0.3197832   0.1521988 SPIN=   0.00000
   S  -0.2041020   0.1884936   0.1936456 SPIN=   0.00000
   O   0.3424649  -0.5179917   0.0260699 SPIN=   0.00000
   O   0.2092553  -0.2582023   0.1948602 SPIN=   0.00000
   O   0.5484415  -0.2896149   0.4014537 SPIN=   0.00000
   O   0.4908290  -0.1802168   0.1521988 SPIN=   0.00000
   S   0.3977477  -0.3115064   0.1936456 SPIN=   0.00000
   F   0.2208649   0.1806187   0.0573815 SPIN=   0.00000
   F  -0.1634833  -0.3193813   0.0573815 SPIN=   0.00000
   F  -0.1999259   0.2279764  -0.3192769 SPIN=   0.00000
   F  -0.1193510  -0.2720236  -0.3192769 SPIN=   0.00000
%ENDBLOCK POSITIONS_FRAC

# Note: total spin =  16.00

KPOINTS_MP_SPACING 0.07

%BLOCK SPECIES_POT
QC5
%ENDBLOCK SPECIES_POT

SNAP_TO_SYMMETRY
SYMMETRY_GENERATE

