#              Generated by Buildcell
#
# at 07:39:08 (GMT+1.0) 4th August 2020
# in /lustre/scratch/uccabz1/launch_tmp
# on node-c12c-034
# by uccabz1
#
# compiler GCC version 4.9.2
# options -cpp -iprefix /lustre/shared/ucl/apps/gcc/4.9.2/bin/../lib/gcc/x86_64-unknown-linux-gnu/4.9.2/ -mtune=corei7 -march=x86-64 -g -Og
#
# seed   562066527   649124948  2107482262 -1702256010  -460162963 -1211486951   109134369  -849277255  -401301247   173100818 -2049570591  1797299363
#
#      Author: C. J. Pickard (cjp20@cam.ac.uk)
#                Space group: C2
#

%BLOCK LATTICE_ABC
      7.11587      7.52010      8.66224
    100.22276     90.00000    118.23725
%ENDBLOCK LATTICE_ABC

%BLOCK POSITIONS_FRAC
  Li  -0.4439573   0.4433629  -0.2489402 SPIN=   0.00000
  Li   0.1126798  -0.4433629   0.2489402 SPIN=   0.00000
  Li   0.2526442   0.1335452   0.2977215 SPIN=   0.00000
  Li   0.1190991  -0.1335452  -0.2977215 SPIN=   0.00000
  Fe  -0.4206821   0.0374883  -0.2401029 SPIN=   2.06207
  Fe  -0.4581704  -0.0374883   0.2401029 SPIN=   2.06207
  Fe  -0.1365576   0.4462328  -0.4698395 SPIN=   5.93793
  Fe   0.4172096  -0.4462328   0.4698395 SPIN=   5.93793
   O  -0.2371615  -0.4443322   0.2558061 SPIN=   0.00000
   O   0.0859083  -0.1222705   0.3809080 SPIN=   0.00000
   O  -0.2743545  -0.1755371   0.4428587 SPIN=   0.00000
   O  -0.1558363  -0.1151216   0.1795541 SPIN=   0.00000
   S  -0.1453610  -0.2143153   0.3147818 SPIN=   0.00000
   O   0.2071707   0.4443322  -0.2558061 SPIN=   0.00000
   O   0.2081787   0.1222705  -0.3809080 SPIN=   0.00000
   O  -0.0988174   0.1755371  -0.4428587 SPIN=   0.00000
   O  -0.0407147   0.1151216  -0.1795541 SPIN=   0.00000
   S   0.0689543   0.2143153  -0.3147818 SPIN=   0.00000
   O   0.5302003   0.1846976   0.1258313 SPIN=   0.00000
   O   0.6372979   0.4546379  -0.0331000 SPIN=   0.00000
   O   0.3486688   0.3975453   0.1429063 SPIN=   0.00000
   O   0.2860413   0.1382753  -0.0992106 SPIN=   0.00000
   S   0.4505521   0.2937890   0.0341068 SPIN=   0.00000
   O   0.3455027  -0.1846976  -0.1258313 SPIN=   0.00000
   O   0.1826601  -0.4546379   0.0331000 SPIN=   0.00000
   O  -0.0488765  -0.3975453  -0.1429063 SPIN=   0.00000
   O   0.1477660  -0.1382753   0.0992106 SPIN=   0.00000
   S   0.1567631  -0.2937890  -0.0341068 SPIN=   0.00000
   F  -0.4512714   0.2946911   0.4662789 SPIN=   0.00000
   F   0.2540376  -0.2946911  -0.4662789 SPIN=   0.00000
   F  -0.0708350   0.2500750   0.1626467 SPIN=   0.00000
   F  -0.3209100  -0.2500750  -0.1626467 SPIN=   0.00000
%ENDBLOCK POSITIONS_FRAC

# Note: total spin =  16.00

KPOINTS_MP_SPACING 0.07

%BLOCK SPECIES_POT
QC5
%ENDBLOCK SPECIES_POT

SNAP_TO_SYMMETRY
SYMMETRY_GENERATE

