#              Generated by Buildcell
#
# at 09:33:57 (GMT+1.0) 4th August 2020
# in /lustre/scratch/uccabz1/launch_tmp
# on node-c12h-035
# by uccabz1
#
# compiler GCC version 4.9.2
# options -cpp -iprefix /lustre/shared/ucl/apps/gcc/4.9.2/bin/../lib/gcc/x86_64-unknown-linux-gnu/4.9.2/ -mtune=corei7 -march=x86-64 -g -Og
#
# seed  -526965740  -314300555  2090092100  1934021236   840055544  1903646050  1208287718   989406955     1729863   316650648  -975965392  -359530127
#
#      Author: C. J. Pickard (cjp20@cam.ac.uk)
#                Space group: Iba2
#

%BLOCK LATTICE_ABC
      7.61679      8.33496      8.33496
     63.73920     62.81156     62.81156
%ENDBLOCK LATTICE_ABC

%BLOCK POSITIONS_FRAC
  Li  -0.0333673  -0.2754416  -0.1651892 SPIN=   0.00000
  Li   0.0333673   0.1651892   0.2754416 SPIN=   0.00000
  Li  -0.4739981  -0.3348108  -0.2245584 SPIN=   0.00000
  Li   0.4739981   0.2245584   0.3348108 SPIN=   0.00000
  Fe  -0.2370867   0.2509116  -0.2716043 SPIN=   4.00000
  Fe   0.2370867   0.2716043  -0.2509116 SPIN=   4.00000
  Fe  -0.2577794  -0.2283957   0.2490884 SPIN=   4.00000
  Fe   0.2577794  -0.2490884   0.2283957 SPIN=   4.00000
   O   0.2229426   0.2833808   0.2347864 SPIN=   0.00000
   O   0.1774078   0.6236719   0.0735387 SPIN=   0.00000
   O   0.2211001   0.4207743  -0.0956050 SPIN=   0.00000
   O   0.5190577   0.3857490  -0.0218246 SPIN=   0.00000
   S   0.2851271   0.4283940   0.0477239 SPIN=   0.00000
   O  -0.2229426  -0.2347864  -0.2833808 SPIN=   0.00000
   O  -0.1774078  -0.0735387  -0.6236719 SPIN=   0.00000
   O  -0.2211001   0.0956050  -0.4207743 SPIN=   0.00000
   O  -0.5190577   0.0218246  -0.3857490 SPIN=   0.00000
   S  -0.2851271  -0.0477239  -0.4283940 SPIN=   0.00000
   O  -0.2588902   0.2652136   0.2166192 SPIN=   0.00000
   O  -0.1253816   0.4264613  -0.1236719 SPIN=   0.00000
   O  -0.4537306   0.5956050   0.0792257 SPIN=   0.00000
   O  -0.1170179   0.5218246   0.1142510 SPIN=   0.00000
   S  -0.2387551   0.4522761   0.0716060 SPIN=   0.00000
   O   0.2588902  -0.2166192  -0.2652136 SPIN=   0.00000
   O   0.1253816   0.1236719  -0.4264613 SPIN=   0.00000
   O   0.4537306  -0.0792257  -0.5956050 SPIN=   0.00000
   O   0.1170179  -0.1142510  -0.5218246 SPIN=   0.00000
   S   0.2387551  -0.0716060  -0.4522761 SPIN=   0.00000
   F   0.3014985   0.4061863   0.4907642 SPIN=   0.00000
   F  -0.3014985  -0.4907642  -0.4061863 SPIN=   0.00000
   F   0.1984490   0.0092358   0.0938137 SPIN=   0.00000
   F  -0.1984490  -0.0938137  -0.0092358 SPIN=   0.00000
%ENDBLOCK POSITIONS_FRAC

# Note: total spin =  16.00

KPOINTS_MP_SPACING 0.07

%BLOCK SPECIES_POT
QC5
%ENDBLOCK SPECIES_POT

SNAP_TO_SYMMETRY
SYMMETRY_GENERATE

