#              Generated by Buildcell
#
# at 06:50:18 (GMT+1.0) 4th August 2020
# in /lustre/scratch/uccabz1/launch_tmp
# on node-c12c-021
# by uccabz1
#
# compiler GCC version 4.9.2
# options -cpp -iprefix /lustre/shared/ucl/apps/gcc/4.9.2/bin/../lib/gcc/x86_64-unknown-linux-gnu/4.9.2/ -mtune=corei7 -march=x86-64 -g -Og
#
# seed -1264327934 -2085877759   453897248 -1258496093  -401784022  1662990510 -1819675879 -1901969467    96006845  -352869979  2015982199  1583243958
#
#      Author: C. J. Pickard (cjp20@cam.ac.uk)
#                Space group: P41
#

%BLOCK LATTICE_ABC
      3.91822     10.10382     10.10382
     90.00000     90.00000     90.00000
%ENDBLOCK LATTICE_ABC

%BLOCK POSITIONS_FRAC
  Li  -0.2376780   0.0169829  -0.3264008 SPIN=   0.00000
  Li   0.2623220  -0.0169829   0.3264008 SPIN=   0.00000
  Li   0.0123220  -0.3264008  -0.0169829 SPIN=   0.00000
  Li  -0.4876780   0.3264008   0.0169829 SPIN=   0.00000
  Fe  -0.3443365   0.4968571   0.2600085 SPIN=   4.00000
  Fe   0.1556635  -0.4968571  -0.2600085 SPIN=   4.00000
  Fe  -0.0943365   0.2600085  -0.4968571 SPIN=   4.00000
  Fe   0.4056635  -0.2600085   0.4968571 SPIN=   4.00000
   O  -0.2028004   0.0641953   0.3139706 SPIN=   0.00000
   O  -0.5809798   0.0818402   0.1185779 SPIN=   0.00000
   O  -0.0431156   0.2099747   0.1271246 SPIN=   0.00000
   O  -0.5256292   0.2707157   0.2730546 SPIN=   0.00000
   S  -0.3381312   0.1566815   0.2081819 SPIN=   0.00000
   O   0.2971996  -0.0641953  -0.3139706 SPIN=   0.00000
   O  -0.0809798  -0.0818402  -0.1185779 SPIN=   0.00000
   O   0.4568844  -0.2099747  -0.1271246 SPIN=   0.00000
   O  -0.0256292  -0.2707157  -0.2730546 SPIN=   0.00000
   S   0.1618688  -0.1566815  -0.2081819 SPIN=   0.00000
   O   0.0471996   0.3139706  -0.0641953 SPIN=   0.00000
   O  -0.3309798   0.1185779  -0.0818402 SPIN=   0.00000
   O   0.2068844   0.1271246  -0.2099747 SPIN=   0.00000
   O  -0.2756292   0.2730546  -0.2707157 SPIN=   0.00000
   S  -0.0881312   0.2081819  -0.1566815 SPIN=   0.00000
   O   0.5471996  -0.3139706   0.0641953 SPIN=   0.00000
   O   0.1690202  -0.1185779   0.0818402 SPIN=   0.00000
   O   0.7068844  -0.1271246   0.2099747 SPIN=   0.00000
   O   0.2243708  -0.2730546   0.2707157 SPIN=   0.00000
   S   0.4118688  -0.2081819   0.1566815 SPIN=   0.00000
   F  -0.4099270  -0.4745915  -0.1737492 SPIN=   0.00000
   F   0.0900730   0.4745915   0.1737492 SPIN=   0.00000
   F  -0.1599270  -0.1737492   0.4745915 SPIN=   0.00000
   F   0.3400730   0.1737492  -0.4745915 SPIN=   0.00000
%ENDBLOCK POSITIONS_FRAC

# Note: total spin =  16.00

KPOINTS_MP_SPACING 0.07

%BLOCK SPECIES_POT
QC5
%ENDBLOCK SPECIES_POT

SNAP_TO_SYMMETRY
SYMMETRY_GENERATE

