#              Generated by Buildcell
#
# at 04:52:00 (GMT+1.0) 18th August 2020
# in /lustre/scratch/uccabz1/launch_tmp
# on node-c12h-022
# by uccabz1
#
# compiler GCC version 4.9.2
# options -cpp -iprefix /lustre/shared/ucl/apps/gcc/4.9.2/bin/../lib/gcc/x86_64-unknown-linux-gnu/4.9.2/ -mtune=corei7 -march=x86-64 -g -Og
#
# seed -1505181400   684424086 -1478150147 -1641283465  1847398786   739416080 -1311974564   866406559   226213177   875151557   632229427 -1534733774
#
#      Author: C. J. Pickard (cjp20@cam.ac.uk)
#                Space group: Pc
#

%BLOCK LATTICE_ABC
      4.13302      6.92190     13.98203
     90.00000     90.00000     90.20177
%ENDBLOCK LATTICE_ABC

%BLOCK POSITIONS_FRAC
  Li   0.4301034  -0.3591027   0.4466284 SPIN=   0.00000
  Li  -0.0698966   0.1408973  -0.4466284 SPIN=   0.00000
  Li   0.3196827   0.4126223   0.1386838 SPIN=   0.00000
  Li  -0.1803173  -0.0873777  -0.1386838 SPIN=   0.00000
  Fe  -0.1205154  -0.0484168   0.1724689 SPIN=   5.22709
  Fe   0.3794846   0.4515832  -0.1724689 SPIN=   5.22709
  Fe  -0.0491264  -0.4048041  -0.3943143 SPIN=   2.77291
  Fe   0.4508736   0.0951959   0.3943143 SPIN=   2.77291
   O   0.2117867  -0.3915319   0.0346373 SPIN=   0.00000
   O   0.7330880  -0.2252587   0.0046534 SPIN=   0.00000
   O   0.2562508  -0.0378025   0.0571800 SPIN=   0.00000
   O   0.2725682  -0.1768519  -0.1058115 SPIN=   0.00000
   S   0.3684234  -0.2078613  -0.0023352 SPIN=   0.00000
   O  -0.2882133   0.1084681  -0.0346373 SPIN=   0.00000
   O   0.2330880   0.2747413  -0.0046534 SPIN=   0.00000
   O  -0.2437492   0.4621975  -0.0571800 SPIN=   0.00000
   O  -0.2274318   0.3231481   0.1058115 SPIN=   0.00000
   S  -0.1315766   0.2921387   0.0023352 SPIN=   0.00000
   O   0.4519303   0.1125649  -0.3523821 SPIN=   0.00000
   O   0.4650334  -0.1944550  -0.2617755 SPIN=   0.00000
   O  -0.0431278  -0.0075401  -0.2721207 SPIN=   0.00000
   O   0.4148852   0.1164527  -0.1757282 SPIN=   0.00000
   S   0.3221803   0.0067556  -0.2655016 SPIN=   0.00000
   O  -0.0480697  -0.3874351   0.3523821 SPIN=   0.00000
   O  -0.0349666  -0.6944550   0.2617755 SPIN=   0.00000
   O  -0.5431278  -0.5075401   0.2721207 SPIN=   0.00000
   O  -0.0851148  -0.3835473   0.1757282 SPIN=   0.00000
   S  -0.1778197  -0.4932444   0.2655016 SPIN=   0.00000
   F  -0.1740779   0.4477128  -0.2538177 SPIN=   0.00000
   F   0.3259221  -0.0522872   0.2538177 SPIN=   0.00000
   F   0.3212702   0.3568178   0.4703015 SPIN=   0.00000
   F  -0.1787298  -0.1431822  -0.4703015 SPIN=   0.00000
%ENDBLOCK POSITIONS_FRAC

# Note: total spin =  16.00

KPOINTS_MP_SPACING 0.07

%BLOCK SPECIES_POT
QC5
%ENDBLOCK SPECIES_POT

SNAP_TO_SYMMETRY
SYMMETRY_GENERATE

