#              Generated by Buildcell
#
# at 05:56:44 (GMT+1.0) 4th August 2020
# in /lustre/scratch/uccabz1/launch_tmp
# on node-c12g-036
# by uccabz1
#
# compiler GCC version 4.9.2
# options -cpp -iprefix /lustre/shared/ucl/apps/gcc/4.9.2/bin/../lib/gcc/x86_64-unknown-linux-gnu/4.9.2/ -mtune=corei7 -march=x86-64 -g -Og
#
# seed   719205980  2044451920   677061795  1975472706   -20978275   196689354   646530654    30763738  1272918615  -487869665  -151388369   696568889
#
#      Author: C. J. Pickard (cjp20@cam.ac.uk)
#                Space group: Pc
#

%BLOCK LATTICE_ABC
      6.81568      7.71295      7.89946
     90.00000     90.00000    105.58434
%ENDBLOCK LATTICE_ABC

%BLOCK POSITIONS_FRAC
  Li   0.0960251   0.0808069  -0.1047911 SPIN=   0.00000
  Li  -0.4039749   0.0808069   0.1047911 SPIN=   0.00000
  Li  -0.0643699  -0.4219591  -0.1140308 SPIN=   0.00000
  Li   0.4356301  -0.4219591   0.1140308 SPIN=   0.00000
  Fe   0.2365810   0.2653688   0.3072815 SPIN=   2.70925
  Fe  -0.2634190   0.2653688  -0.3072815 SPIN=   2.70925
  Fe   0.1641223  -0.2317502   0.2639270 SPIN=   5.29075
  Fe  -0.3358777  -0.2317502  -0.2639270 SPIN=   5.29075
   O   0.0785474  -0.1115430  -0.3397164 SPIN=   0.00000
   O   0.3376218   0.0938590  -0.5187561 SPIN=   0.00000
   O   0.4087712  -0.1774464  -0.3943505 SPIN=   0.00000
   O   0.3941149   0.0784259  -0.2102805 SPIN=   0.00000
   S   0.3047638  -0.0291761  -0.3657759 SPIN=   0.00000
   O  -0.4214526  -0.1115430   0.3397164 SPIN=   0.00000
   O  -0.1623782   0.0938590   0.5187561 SPIN=   0.00000
   O  -0.0912288  -0.1774464   0.3943505 SPIN=   0.00000
   O  -0.1058851   0.0784259   0.2102805 SPIN=   0.00000
   S  -0.1952362  -0.0291761   0.3657759 SPIN=   0.00000
   O   0.4732741   0.5095959  -0.1134066 SPIN=   0.00000
   O   0.1780470   0.5939087  -0.2368042 SPIN=   0.00000
   O   0.1229957   0.3252763  -0.0529655 SPIN=   0.00000
   O   0.2692461   0.3224829  -0.3393911 SPIN=   0.00000
   S   0.2608907   0.4378160  -0.1856418 SPIN=   0.00000
   O  -0.0267259   0.5095959   0.1134066 SPIN=   0.00000
   O  -0.3219530   0.5939087   0.2368042 SPIN=   0.00000
   O  -0.3770043   0.3252763   0.0529655 SPIN=   0.00000
   O  -0.2307539   0.3224829   0.3393911 SPIN=   0.00000
   S  -0.2391093   0.4378160   0.1856418 SPIN=   0.00000
   F   0.2955382   0.0224989   0.1335387 SPIN=   0.00000
   F  -0.2044618   0.0224989  -0.1335387 SPIN=   0.00000
   F  -0.2155053  -0.4486181  -0.3580638 SPIN=   0.00000
   F   0.2844947  -0.4486181   0.3580638 SPIN=   0.00000
%ENDBLOCK POSITIONS_FRAC

# Note: total spin =  16.00

KPOINTS_MP_SPACING 0.07

%BLOCK SPECIES_POT
QC5
%ENDBLOCK SPECIES_POT

SNAP_TO_SYMMETRY
SYMMETRY_GENERATE

