#              Generated by Buildcell
#
# at 10:41:33 (GMT+1.0) 18th August 2020
# in /lustre/scratch/uccabz1/launch_tmp
# on node-c12g-023
# by uccabz1
#
# compiler GCC version 4.9.2
# options -cpp -iprefix /lustre/shared/ucl/apps/gcc/4.9.2/bin/../lib/gcc/x86_64-unknown-linux-gnu/4.9.2/ -mtune=corei7 -march=x86-64 -g -Og
#
# seed  -415287861  -770224015  -348236666  1067816446  -404325405  -476017892   485083012   878570490   815912251   330755815 -1329899313   363681320
#
#      Author: C. J. Pickard (cjp20@cam.ac.uk)
#                Space group: Cc
#

%BLOCK LATTICE_ABC
      7.34033      7.56766      7.56766
    105.88517     95.04257     95.04257
%ENDBLOCK LATTICE_ABC

%BLOCK POSITIONS_FRAC
  Li   0.0987053   0.3156322   0.4398240 SPIN=   0.00000
  Li  -0.4012947   0.4398240   0.3156322 SPIN=   0.00000
  Li   0.4614525  -0.1524692  -0.2829831 SPIN=   0.00000
  Li  -0.0385475  -0.2829831  -0.1524692 SPIN=   0.00000
  Fe  -0.3057559  -0.0712998   0.0948185 SPIN=   3.98082
  Fe   0.1942441   0.0948185  -0.0712998 SPIN=   3.98082
  Fe   0.1453983  -0.2268848   0.4013138 SPIN=   4.01918
  Fe  -0.3546017   0.4013138  -0.2268848 SPIN=   4.01918
   O   0.4407421  -0.3874069   0.1420254 SPIN=   0.00000
   O   0.1261117  -0.4000330  -0.0117495 SPIN=   0.00000
   O   0.3747134  -0.5140558  -0.1980328 SPIN=   0.00000
   O   0.3773392  -0.1785606  -0.0511099 SPIN=   0.00000
   S   0.3297266  -0.3700141  -0.0297167 SPIN=   0.00000
   O  -0.0592579   0.1420254  -0.3874069 SPIN=   0.00000
   O  -0.3738883  -0.0117495  -0.4000330 SPIN=   0.00000
   O  -0.1252866  -0.1980328  -0.5140558 SPIN=   0.00000
   O  -0.1226608  -0.0511099  -0.1785606 SPIN=   0.00000
   S  -0.1702734  -0.0297167  -0.3700141 SPIN=   0.00000
   O  -0.3148026   0.3384221   0.0653939 SPIN=   0.00000
   O  -0.0341609   0.5287315   0.2487360 SPIN=   0.00000
   O  -0.0101622   0.2915824  -0.0446718 SPIN=   0.00000
   O  -0.0892951   0.1963132   0.2296628 SPIN=   0.00000
   S  -0.1121052   0.3387623   0.1247802 SPIN=   0.00000
   O   0.1851974   0.0653939   0.3384221 SPIN=   0.00000
   O   0.4658391   0.2487360   0.5287315 SPIN=   0.00000
   O   0.4898378  -0.0446718   0.2915824 SPIN=   0.00000
   O   0.4107049   0.2296628   0.1963132 SPIN=   0.00000
   S   0.3878948   0.1247802   0.3387623 SPIN=   0.00000
   F   0.4126518   0.1340781  -0.1591051 SPIN=   0.00000
   F  -0.0873482  -0.1591051   0.1340781 SPIN=   0.00000
   F   0.3053897  -0.3791807   0.4582222 SPIN=   0.00000
   F  -0.1946103   0.4582222  -0.3791807 SPIN=   0.00000
%ENDBLOCK POSITIONS_FRAC

# Note: total spin =  16.00

KPOINTS_MP_SPACING 0.07

%BLOCK SPECIES_POT
QC5
%ENDBLOCK SPECIES_POT

SNAP_TO_SYMMETRY
SYMMETRY_GENERATE

