#              Generated by Buildcell
#
# at 06:34:02 (GMT+1.0) 4th August 2020
# in /lustre/scratch/uccabz1/launch_tmp
# on node-c12k-001
# by uccabz1
#
# compiler GCC version 4.9.2
# options -cpp -iprefix /lustre/shared/ucl/apps/gcc/4.9.2/bin/../lib/gcc/x86_64-unknown-linux-gnu/4.9.2/ -mtune=corei7 -march=x86-64 -g -Og
#
# seed  1696115614  -826112195  -963859863   770699911  -582306121 -1937967090   645992645 -2085047570   810711772 -1719701028  1588449384 -1257341684
#
#      Author: C. J. Pickard (cjp20@cam.ac.uk)
#                Space group: Fdd2
#

%BLOCK LATTICE_ABC
      7.31561      7.31561      9.05855
    113.25813    113.25813     91.26607
%ENDBLOCK LATTICE_ABC

%BLOCK POSITIONS_FRAC
  Li  -0.3331414   0.1246114   0.1352979 SPIN=   0.00000
  Li  -0.1246114   0.3331414  -0.1352979 SPIN=   0.00000
  Li   0.2815607   0.2393135   0.3647021 SPIN=   0.00000
  Li  -0.2393135  -0.2815607  -0.3647021 SPIN=   0.00000
  Fe  -0.3824392  -0.0638917   0.3564004 SPIN=   4.00000
  Fe   0.0638917   0.3824392  -0.3564004 SPIN=   4.00000
  Fe   0.0111604  -0.1702921   0.1435996 SPIN=   4.00000
  Fe   0.1702921  -0.0111604  -0.1435996 SPIN=   4.00000
   O   0.3601678   0.3228197  -0.2474119 SPIN=   0.00000
   O   0.6311604   0.1295112  -0.1841781 SPIN=   0.00000
   O   0.5409502   0.2172874  -0.4381002 SPIN=   0.00000
   O   0.3014281  -0.0406469  -0.4525828 SPIN=   0.00000
   S   0.4584266   0.1572429  -0.3305682 SPIN=   0.00000
   O  -0.3228197  -0.3601678   0.2474119 SPIN=   0.00000
   O  -0.1295112  -0.6311604   0.1841781 SPIN=   0.00000
   O  -0.2172874  -0.5409502   0.4381002 SPIN=   0.00000
   O   0.0406469  -0.3014281   0.4525828 SPIN=   0.00000
   S  -0.1572429  -0.4584266   0.3305682 SPIN=   0.00000
   O  -0.6424203  -0.1797685  -0.2525881 SPIN=   0.00000
   O  -0.4346615  -0.4363106  -0.3158219 SPIN=   0.00000
   O  -0.2709496  -0.0946124  -0.0618998 SPIN=   0.00000
   O  -0.4959891  -0.3380641  -0.0474172 SPIN=   0.00000
   S  -0.4610051  -0.2621889  -0.1694318 SPIN=   0.00000
   O   0.1797685   0.6424203   0.2525881 SPIN=   0.00000
   O   0.4363106   0.4346615   0.3158219 SPIN=   0.00000
   O   0.0946124   0.2709496   0.0618998 SPIN=   0.00000
   O   0.3380641   0.4959891   0.0474172 SPIN=   0.00000
   S   0.2621889   0.4610051   0.1694318 SPIN=   0.00000
   F  -0.0699688   0.0551378   0.2945516 SPIN=   0.00000
   F  -0.0551378   0.0699688  -0.2945516 SPIN=   0.00000
   F   0.3854795   0.0105861   0.2054484 SPIN=   0.00000
   F  -0.0105861  -0.3854795  -0.2054484 SPIN=   0.00000
%ENDBLOCK POSITIONS_FRAC

# Note: total spin =  16.00

KPOINTS_MP_SPACING 0.07

%BLOCK SPECIES_POT
QC5
%ENDBLOCK SPECIES_POT

SNAP_TO_SYMMETRY
SYMMETRY_GENERATE

