#              Generated by Buildcell
#
# at 07:37:17 (GMT+1.0) 4th August 2020
# in /lustre/scratch/uccabz1/launch_tmp
# on node-c12k-005
# by uccabz1
#
# compiler GCC version 4.9.2
# options -cpp -iprefix /lustre/shared/ucl/apps/gcc/4.9.2/bin/../lib/gcc/x86_64-unknown-linux-gnu/4.9.2/ -mtune=corei7 -march=x86-64 -g -Og
#
# seed  -502451351  -567611047  -522734865   333203991 -1684669915 -1260094205  2044568573  1671729410  -596868287  -938766831  1531310358  1336574295
#
#      Author: C. J. Pickard (cjp20@cam.ac.uk)
#                Space group: P-1
#

%BLOCK LATTICE_ABC
      4.02639      8.03974     13.13700
     74.40126     85.33322     77.65667
%ENDBLOCK LATTICE_ABC

%BLOCK POSITIONS_FRAC
  Li  -0.4827628   0.2283000   0.2917991 SPIN=   0.00000
  Li   0.4827628  -0.2283000  -0.2917991 SPIN=   0.00000
  Li  -0.7313652   0.3862388  -0.3760334 SPIN=   0.00000
  Li   0.7313652  -0.3862388   0.3760334 SPIN=   0.00000
  Fe   0.1626172  -0.2968022  -0.0682694 SPIN=   5.39709
  Fe  -0.1626172   0.2968022   0.0682694 SPIN=   5.39709
  Fe   0.1413826  -0.0718170   0.3068422 SPIN=   2.60291
  Fe  -0.1413826   0.0718170  -0.3068422 SPIN=   2.60291
   O   0.1790062  -0.4576551   0.0855909 SPIN=   0.00000
   O   0.1135629  -0.4773425   0.2771804 SPIN=   0.00000
   O   0.3634580  -0.2382326   0.1574598 SPIN=   0.00000
   O   0.6869981  -0.5458340   0.1966722 SPIN=   0.00000
   S   0.3357563  -0.4297661   0.1792258 SPIN=   0.00000
   O  -0.1790062   0.4576551  -0.0855909 SPIN=   0.00000
   O  -0.1135629   0.4773425  -0.2771804 SPIN=   0.00000
   O  -0.3634580   0.2382326  -0.1574598 SPIN=   0.00000
   O  -0.6869981   0.5458340  -0.1966722 SPIN=   0.00000
   S  -0.3357563   0.4297661  -0.1792258 SPIN=   0.00000
   O   0.3669635  -0.2536785  -0.4827838 SPIN=   0.00000
   O  -0.1132274  -0.4103667  -0.4502090 SPIN=   0.00000
   O  -0.2254438  -0.0843499  -0.4966615 SPIN=   0.00000
   O   0.0023176  -0.2555756  -0.3216168 SPIN=   0.00000
   S   0.0076525  -0.2509927  -0.4378177 SPIN=   0.00000
   O  -0.3669635   0.2536785   0.4827838 SPIN=   0.00000
   O   0.1132274   0.4103667   0.4502090 SPIN=   0.00000
   O   0.2254438   0.0843499   0.4966615 SPIN=   0.00000
   O  -0.0023176   0.2555756   0.3216168 SPIN=   0.00000
   S  -0.0076525   0.2509927   0.4378177 SPIN=   0.00000
   F   0.2829154   0.2005444   0.0542886 SPIN=   0.00000
   F  -0.2829154  -0.2005444  -0.0542886 SPIN=   0.00000
   F  -0.2560162  -0.1370477   0.2970407 SPIN=   0.00000
   F   0.2560162   0.1370477  -0.2970407 SPIN=   0.00000
%ENDBLOCK POSITIONS_FRAC

# Note: total spin =  16.00

KPOINTS_MP_SPACING 0.07

%BLOCK SPECIES_POT
QC5
%ENDBLOCK SPECIES_POT

SNAP_TO_SYMMETRY
SYMMETRY_GENERATE

