#              Generated by Buildcell
#
# at 09:37:40 (GMT+1.0) 4th August 2020
# in /lustre/scratch/uccabz1/launch_tmp
# on node-c12l-029
# by uccabz1
#
# compiler GCC version 4.9.2
# options -cpp -iprefix /lustre/shared/ucl/apps/gcc/4.9.2/bin/../lib/gcc/x86_64-unknown-linux-gnu/4.9.2/ -mtune=corei7 -march=x86-64 -g -Og
#
# seed -2051313670   596412458  -336748506 -1423986547  2113899389 -1966235957 -1096994752 -1214340109 -1665688688 -1407310580 -1707507493  1121674102
#
#      Author: C. J. Pickard (cjp20@cam.ac.uk)
#                Space group: P2
#

%BLOCK LATTICE_ABC
      4.07265      6.45452     15.41197
     99.13111     90.00000     90.00000
%ENDBLOCK LATTICE_ABC

%BLOCK POSITIONS_FRAC
  Li  -0.2502591  -0.4885888   0.3748899 SPIN=   0.00000
  Li  -0.2502591   0.4885888  -0.3748899 SPIN=   0.00000
  Li  -0.2631998   0.0427414  -0.2318525 SPIN=   0.00000
  Li  -0.2631998  -0.0427414   0.2318525 SPIN=   0.00000
  Fe   0.2829903   0.0795616  -0.3819787 SPIN=   5.87174
  Fe   0.2829903  -0.0795616   0.3819787 SPIN=   5.87174
  Fe  -0.3584939  -0.2998590  -0.0858562 SPIN=   2.12826
  Fe  -0.3584939   0.2998590   0.0858562 SPIN=   2.12826
   O  -0.0678082   0.4221450  -0.1147829 SPIN=   0.00000
   O  -0.0481962   0.0414401  -0.1087971 SPIN=   0.00000
   O   0.1997163   0.2941636   0.0108317 SPIN=   0.00000
   O   0.4602112   0.2310459  -0.1360754 SPIN=   0.00000
   S   0.1359808   0.2471986  -0.0872059 SPIN=   0.00000
   O  -0.0678082  -0.4221450   0.1147829 SPIN=   0.00000
   O  -0.0481962  -0.0414401   0.1087971 SPIN=   0.00000
   O   0.1997163  -0.2941636  -0.0108317 SPIN=   0.00000
   O   0.4602112  -0.2310459   0.1360754 SPIN=   0.00000
   S   0.1359808  -0.2471986   0.0872059 SPIN=   0.00000
   O   0.2514937  -0.3837717  -0.3471973 SPIN=   0.00000
   O  -0.2267682  -0.3005797  -0.2487667 SPIN=   0.00000
   O   0.2488388  -0.0591242  -0.2374977 SPIN=   0.00000
   O   0.3009209  -0.4050378  -0.1888032 SPIN=   0.00000
   S   0.1436213  -0.2871284  -0.2555662 SPIN=   0.00000
   O   0.2514937   0.3837717   0.3471973 SPIN=   0.00000
   O  -0.2267682   0.3005797   0.2487667 SPIN=   0.00000
   O   0.2488388   0.0591242   0.2374977 SPIN=   0.00000
   O   0.3009209   0.4050378   0.1888032 SPIN=   0.00000
   S   0.1436213   0.2871284   0.2555662 SPIN=   0.00000
   F  -0.3585355  -0.2556154   0.3089182 SPIN=   0.00000
   F  -0.3585355   0.2556154  -0.3089182 SPIN=   0.00000
   F  -0.2880728  -0.2320022  -0.4520649 SPIN=   0.00000
   F  -0.2880728   0.2320022   0.4520649 SPIN=   0.00000
%ENDBLOCK POSITIONS_FRAC

# Note: total spin =  16.00

KPOINTS_MP_SPACING 0.07

%BLOCK SPECIES_POT
QC5
%ENDBLOCK SPECIES_POT

SNAP_TO_SYMMETRY
SYMMETRY_GENERATE

