#              Generated by Buildcell
#
# at 07:04:40 (GMT+1.0) 4th August 2020
# in /lustre/scratch/uccabz1/launch_tmp
# on node-c12n-032
# by uccabz1
#
# compiler GCC version 4.9.2
# options -cpp -iprefix /lustre/shared/ucl/apps/gcc/4.9.2/bin/../lib/gcc/x86_64-unknown-linux-gnu/4.9.2/ -mtune=corei7 -march=x86-64 -g -Og
#
# seed  1268153833  1150072635  -777144607 -1643465788  -198011677  1354262429  -170127557   392644497  -704467762  -723206860 -2123712878  -605252071
#
#      Author: C. J. Pickard (cjp20@cam.ac.uk)
#                Space group: Pna21
#

%BLOCK LATTICE_ABC
      4.13794      5.98341     16.15575
     90.00000     90.00000     90.00000
%ENDBLOCK LATTICE_ABC

%BLOCK POSITIONS_FRAC
  Li   0.0626617   0.1065989  -0.1884742 SPIN=   0.00000
  Li  -0.4373383  -0.1065989   0.1884742 SPIN=   0.00000
  Li   0.0626617   0.3934011   0.3115258 SPIN=   0.00000
  Li  -0.4373383  -0.3934011  -0.3115258 SPIN=   0.00000
  Fe   0.2666053  -0.4335109  -0.1453285 SPIN=   4.00000
  Fe  -0.2333947   0.4335109   0.1453285 SPIN=   4.00000
  Fe   0.2666053  -0.0664891   0.3546715 SPIN=   4.00000
  Fe  -0.2333947   0.0664891  -0.3546715 SPIN=   4.00000
   O  -0.0968401   0.0258507  -0.0747706 SPIN=   0.00000
   O  -0.5925226   0.2270826  -0.0324159 SPIN=   0.00000
   O  -0.1780258   0.4196764  -0.1167253 SPIN=   0.00000
   O  -0.0655491   0.3273541   0.0297931 SPIN=   0.00000
   S  -0.2332344   0.2499909  -0.0485297 SPIN=   0.00000
   O   0.4031599  -0.0258507   0.0747706 SPIN=   0.00000
   O  -0.0925226  -0.2270826   0.0324159 SPIN=   0.00000
   O   0.3219742  -0.4196764   0.1167253 SPIN=   0.00000
   O   0.4344509  -0.3273541  -0.0297931 SPIN=   0.00000
   S   0.2667656  -0.2499909   0.0485297 SPIN=   0.00000
   O  -0.0968401   0.4741493   0.4252294 SPIN=   0.00000
   O  -0.5925226   0.2729174   0.4675841 SPIN=   0.00000
   O  -0.1780258   0.0803236   0.3832747 SPIN=   0.00000
   O  -0.0655491   0.1726459   0.5297931 SPIN=   0.00000
   S  -0.2332344   0.2500091   0.4514703 SPIN=   0.00000
   O   0.4031599  -0.4741493  -0.4252294 SPIN=   0.00000
   O  -0.0925226  -0.2729174  -0.4675841 SPIN=   0.00000
   O   0.3219742  -0.0803236  -0.3832747 SPIN=   0.00000
   O   0.4344509  -0.1726459  -0.5297931 SPIN=   0.00000
   S   0.2667656  -0.2500091  -0.4514703 SPIN=   0.00000
   F  -0.1312608   0.1316485   0.1995239 SPIN=   0.00000
   F   0.3687392  -0.1316485  -0.1995239 SPIN=   0.00000
   F  -0.1312608   0.3683515  -0.3004761 SPIN=   0.00000
   F   0.3687392  -0.3683515   0.3004761 SPIN=   0.00000
%ENDBLOCK POSITIONS_FRAC

# Note: total spin =  16.00

KPOINTS_MP_SPACING 0.07

%BLOCK SPECIES_POT
QC5
%ENDBLOCK SPECIES_POT

SNAP_TO_SYMMETRY
SYMMETRY_GENERATE

