#              Generated by Buildcell
#
# at 15:37:23 (GMT+1.0) 18th August 2020
# in /scratch/scratch/uccabz1/launch_tmp
# on node-k10h-017
# by uccabz1
#
# compiler GCC version 4.9.2
# options -cpp -iprefix /scratch/UCL/applications/gcc/4.9.2/bin/../lib/gcc/x86_64-unknown-linux-gnu/4.9.2/ -mtune=corei7 -march=x86-64 -g -O2
#
# seed    40766251  1995800829 -1316822817 -1736831733 -1314259417  1598258770 -1441918017 -1402558633  -836145700   200875375   133953566   -11533918
#
#      Author: C. J. Pickard (cjp20@cam.ac.uk)
#                Space group: P-1
#

%BLOCK LATTICE_ABC
      4.78188      8.95615     10.27756
     67.04360     89.98810     81.46022
%ENDBLOCK LATTICE_ABC

%BLOCK POSITIONS_FRAC
  Li  -0.1759414  -0.2825338  -0.1192844 SPIN=   0.00000
  Li   0.1759414   0.2825338   0.1192844 SPIN=   0.00000
  Li   0.1629485   0.3119731  -0.2865972 SPIN=   0.00000
  Li  -0.1629485  -0.3119731   0.2865972 SPIN=   0.00000
  Fe   0.2755431  -0.1072346  -0.0814768 SPIN=   3.19254
  Fe  -0.2755431   0.1072346   0.0814768 SPIN=   3.19254
  Fe   0.4119908  -0.4644933  -0.1875496 SPIN=   4.80746
  Fe  -0.4119908   0.4644933   0.1875496 SPIN=   4.80746
   O  -0.5887863   0.1128790  -0.2599476 SPIN=   0.00000
   O  -0.3010510   0.3141625  -0.2446793 SPIN=   0.00000
   O  -0.1238251   0.1315087  -0.3659237 SPIN=   0.00000
   O  -0.1468451   0.0169127  -0.1053898 SPIN=   0.00000
   S  -0.2901269   0.1438657  -0.2439851 SPIN=   0.00000
   O   0.5887863  -0.1128790   0.2599476 SPIN=   0.00000
   O   0.3010510  -0.3141625   0.2446793 SPIN=   0.00000
   O   0.1238251  -0.1315087   0.3659237 SPIN=   0.00000
   O   0.1468451  -0.0169127   0.1053898 SPIN=   0.00000
   S   0.2901269  -0.1438657   0.2439851 SPIN=   0.00000
   O   0.0877926   0.4929958   0.4016389 SPIN=   0.00000
   O   0.4626533   0.2503612   0.5087203 SPIN=   0.00000
   O   0.1493794   0.2756889   0.3070544 SPIN=   0.00000
   S   0.1645457   0.3098875   0.4399273 SPIN=   0.00000
   O  -0.0877926  -0.4929958  -0.4016389 SPIN=   0.00000
   O  -0.4626533  -0.2503612  -0.5087203 SPIN=   0.00000
   O  -0.1493794  -0.2756889  -0.3070544 SPIN=   0.00000
   S  -0.1645457  -0.3098875  -0.4399273 SPIN=   0.00000
   O  -0.5000000  -0.5000000   0.5000000 SPIN=   0.00000
   O   0.5000000   0.0000000   0.5000000 SPIN=   0.00000
   F  -0.2989631   0.1787308   0.2318793 SPIN=   0.00000
   F   0.2989631  -0.1787308  -0.2318793 SPIN=   0.00000
   F  -0.1553148  -0.3622591   0.1037911 SPIN=   0.00000
   F   0.1553148   0.3622591  -0.1037911 SPIN=   0.00000
%ENDBLOCK POSITIONS_FRAC

# Note: total spin =  16.00

KPOINTS_MP_SPACING 0.07

%BLOCK SPECIES_POT
QC5
%ENDBLOCK SPECIES_POT

SNAP_TO_SYMMETRY
SYMMETRY_GENERATE

