#              Generated by Buildcell
#
# at 13:44:06 (GMT+1.0) 18th August 2020
# in /scratch/scratch/uccabz1/launch_tmp
# on node-k10i-027
# by uccabz1
#
# compiler GCC version 4.9.2
# options -cpp -iprefix /scratch/UCL/applications/gcc/4.9.2/bin/../lib/gcc/x86_64-unknown-linux-gnu/4.9.2/ -mtune=corei7 -march=x86-64 -g -O2
#
# seed  -514317860   296912572  1997532213   437118279   810197222  -280452873   410786493  1647730625 -2097732721 -1759261006 -1607629162  1597114532
#
#      Author: C. J. Pickard (cjp20@cam.ac.uk)
#                Space group: Pc
#

%BLOCK LATTICE_ABC
      5.30863      6.05832     12.50213
     90.00000     95.83801     90.00000
%ENDBLOCK LATTICE_ABC

%BLOCK POSITIONS_FRAC
  Li   0.4950089   0.1961428  -0.4044257 SPIN=   0.00000
  Li  -0.0049911  -0.1961428   0.0955743 SPIN=   0.00000
  Li   0.0480402  -0.0283677  -0.2055852 SPIN=   0.00000
  Li  -0.4519598   0.0283677   0.2944148 SPIN=   0.00000
  Fe   0.1663986   0.4623265   0.3758448 SPIN=   3.27004
  Fe  -0.3336014  -0.4623265  -0.1241552 SPIN=   3.27004
  Fe  -0.4000255  -0.3048811  -0.4075480 SPIN=   4.72996
  Fe   0.0999745   0.3048811   0.0924520 SPIN=   4.72996
   O   0.1782541  -0.0159298   0.6169187 SPIN=   0.00000
   O   0.2139231   0.1482399   0.4378192 SPIN=   0.00000
   O  -0.2041516   0.0291277   0.4880785 SPIN=   0.00000
   O   0.1189563  -0.2496115   0.4539321 SPIN=   0.00000
   S   0.0767455  -0.0220434   0.4991871 SPIN=   0.00000
   O  -0.3217459   0.0159298   0.1169187 SPIN=   0.00000
   O  -0.2860769  -0.1482399  -0.0621808 SPIN=   0.00000
   O  -0.7041516  -0.0291277  -0.0119215 SPIN=   0.00000
   O  -0.3810437   0.2496115  -0.0460679 SPIN=   0.00000
   S  -0.4232545   0.0220434  -0.0008129 SPIN=   0.00000
   O  -0.0040520   0.6207509  -0.2219582 SPIN=   0.00000
   O   0.3414320   0.3455544  -0.2172892 SPIN=   0.00000
   O   0.2380232   0.5751428  -0.3795559 SPIN=   0.00000
   O  -0.0583250   0.2830737  -0.3333226 SPIN=   0.00000
   S   0.1292695   0.4561305  -0.2880315 SPIN=   0.00000
   O  -0.5040520  -0.6207509   0.2780418 SPIN=   0.00000
   O  -0.1585680  -0.3455544   0.2827108 SPIN=   0.00000
   O  -0.2619768  -0.5751428   0.1204441 SPIN=   0.00000
   O  -0.5583250  -0.2830737   0.1666774 SPIN=   0.00000
   S  -0.3707305  -0.4561305   0.2119685 SPIN=   0.00000
   F   0.0929730  -0.4396457  -0.0068470 SPIN=   0.00000
   F  -0.4070270   0.4396457   0.4931530 SPIN=   0.00000
   F   0.1508180   0.0603378   0.2196312 SPIN=   0.00000
   F  -0.3491820  -0.0603378  -0.2803688 SPIN=   0.00000
%ENDBLOCK POSITIONS_FRAC

# Note: total spin =  16.00

KPOINTS_MP_SPACING 0.07

%BLOCK SPECIES_POT
QC5
%ENDBLOCK SPECIES_POT

SNAP_TO_SYMMETRY
SYMMETRY_GENERATE

