#              Generated by Buildcell
#
# at 08:15:28 (GMT+1.0) 4th August 2020
# in /lustre/scratch/uccabz1/launch_tmp
# on node-c12p-005
# by uccabz1
#
# compiler GCC version 4.9.2
# options -cpp -iprefix /lustre/shared/ucl/apps/gcc/4.9.2/bin/../lib/gcc/x86_64-unknown-linux-gnu/4.9.2/ -mtune=corei7 -march=x86-64 -g -Og
#
# seed  -332244104 -1848973248  -202667105   396127495  1458237281  -571293441   204459845 -1014882098  1441263109 -1817523107   900363457 -1133297967
#
#      Author: C. J. Pickard (cjp20@cam.ac.uk)
#                Space group: Pc
#

%BLOCK LATTICE_ABC
      5.68230      5.82383     12.15697
     96.13943     90.00000     90.00000
%ENDBLOCK LATTICE_ABC

%BLOCK POSITIONS_FRAC
  Li   0.2018702  -0.0870950  -0.4008961 SPIN=   0.00000
  Li  -0.2018702   0.4129050  -0.4008961 SPIN=   0.00000
  Li  -0.1957140   0.0027212   0.2233405 SPIN=   0.00000
  Li   0.1957140  -0.4972788   0.2233405 SPIN=   0.00000
  Fe   0.2374205   0.0188036   0.0635857 SPIN=   4.16550
  Fe  -0.2374205  -0.4811964   0.0635857 SPIN=   4.16550
  Fe   0.3074720  -0.0362860   0.3570282 SPIN=   3.83450
  Fe  -0.3074720   0.4637140   0.3570282 SPIN=   3.83450
   O   0.1399819   0.2814247  -0.3983695 SPIN=   0.00000
   O   0.4211860   0.6056347  -0.3996773 SPIN=   0.00000
   O   0.0797530   0.5784651  -0.5267956 SPIN=   0.00000
   O   0.4083065   0.3000252  -0.5575267 SPIN=   0.00000
   S   0.2623068   0.4413874  -0.4705923 SPIN=   0.00000
   O  -0.1399819  -0.2185753  -0.3983695 SPIN=   0.00000
   O  -0.4211860   0.1056347  -0.3996773 SPIN=   0.00000
   O  -0.0797530   0.0784651  -0.5267956 SPIN=   0.00000
   O  -0.4083065  -0.1999748  -0.5575267 SPIN=   0.00000
   S  -0.2623068  -0.0586126  -0.4705923 SPIN=   0.00000
   O   0.4506555  -0.3346248  -0.0088332 SPIN=   0.00000
   O   0.1522014  -0.6254135   0.0291796 SPIN=   0.00000
   O   0.3720429  -0.6685785  -0.1475652 SPIN=   0.00000
   O   0.0746705  -0.3590002  -0.1121811 SPIN=   0.00000
   S   0.2623926  -0.4969043  -0.0598500 SPIN=   0.00000
   O  -0.4506555   0.1653752  -0.0088332 SPIN=   0.00000
   O  -0.1522014  -0.1254135   0.0291796 SPIN=   0.00000
   O  -0.3720429  -0.1685785  -0.1475652 SPIN=   0.00000
   O  -0.0746705   0.1409998  -0.1121811 SPIN=   0.00000
   S  -0.2623926   0.0030957  -0.0598500 SPIN=   0.00000
   F   0.3195314   0.2088905   0.2295892 SPIN=   0.00000
   F  -0.3195314  -0.2911095   0.2295892 SPIN=   0.00000
   F  -0.2364675   0.4306199  -0.2482678 SPIN=   0.00000
   F   0.2364675  -0.0693801  -0.2482678 SPIN=   0.00000
%ENDBLOCK POSITIONS_FRAC

# Note: total spin =  16.00

KPOINTS_MP_SPACING 0.07

%BLOCK SPECIES_POT
QC5
%ENDBLOCK SPECIES_POT

SNAP_TO_SYMMETRY
SYMMETRY_GENERATE

