#              Generated by Buildcell
#
# at 06:09:21 (GMT+1.0) 18th August 2020
# in /scratch/scratch/uccabz1/launch_tmp
# on node-k10h-017
# by uccabz1
#
# compiler GCC version 4.9.2
# options -cpp -iprefix /scratch/UCL/applications/gcc/4.9.2/bin/../lib/gcc/x86_64-unknown-linux-gnu/4.9.2/ -mtune=corei7 -march=x86-64 -g -O2
#
# seed  -869173374  -988871856  1454562213 -1135996913 -1446316562  1671743893   744549827 -2110271306  -581364496 -1732757844  -314693662  1032478527
#
#      Author: C. J. Pickard (cjp20@cam.ac.uk)
#                Space group: P21/m
#

%BLOCK LATTICE_ABC
      5.64032      6.37073     11.16484
     90.00000     90.00000     94.40595
%ENDBLOCK LATTICE_ABC

%BLOCK POSITIONS_FRAC
  Li  -0.1484011   0.1984786  -0.2500000 SPIN=   0.00000
  Li   0.1484011  -0.1984786   0.2500000 SPIN=   0.00000
  Li   0.3079915  -0.2370265  -0.2500000 SPIN=   0.00000
  Li  -0.3079915   0.2370265   0.2500000 SPIN=   0.00000
  Fe  -0.2012198  -0.3438137  -0.2500000 SPIN=   3.27546
  Fe   0.2012198   0.3438137   0.2500000 SPIN=   3.27546
  Fe   0.0000000  -0.0000000   0.0000000 SPIN=   4.72454
  Fe  -0.0000000   0.0000000  -0.5000000 SPIN=   4.72454
   O   0.2226265   0.3940337  -0.5050117 SPIN=   0.00000
   O   0.3474737   0.1074078  -0.3753025 SPIN=   0.00000
   O   0.5332839   0.4696354  -0.3511112 SPIN=   0.00000
   O   0.6206800   0.2617434  -0.5308619 SPIN=   0.00000
   O  -0.2226265  -0.3940337  -0.0050117 SPIN=   0.00000
   O  -0.3474737  -0.1074078   0.1246975 SPIN=   0.00000
   O  -0.5332839  -0.4696354   0.1488888 SPIN=   0.00000
   O  -0.6206800  -0.2617434  -0.0308619 SPIN=   0.00000
   O  -0.2226265  -0.3940337   0.5050117 SPIN=   0.00000
   O  -0.3474737  -0.1074078   0.3753025 SPIN=   0.00000
   O  -0.5332839  -0.4696354   0.3511112 SPIN=   0.00000
   O  -0.6206800  -0.2617434   0.5308619 SPIN=   0.00000
   O   0.2226265   0.3940337   0.0050117 SPIN=   0.00000
   O   0.3474737   0.1074078  -0.1246975 SPIN=   0.00000
   O   0.5332839   0.4696354  -0.1488888 SPIN=   0.00000
   O   0.6206800   0.2617434   0.0308619 SPIN=   0.00000
   S  -0.0000000  -0.5000000   0.0000000 SPIN=   0.00000
   S  -0.0000000  -0.5000000  -0.5000000 SPIN=   0.00000
   S  -0.3747971  -0.2896861   0.2500000 SPIN=   0.00000
   S   0.3747971   0.2896861  -0.2500000 SPIN=   0.00000
   F   0.2569390   0.0379908   0.4059872 SPIN=   0.00000
   F  -0.2569390  -0.0379908  -0.0940128 SPIN=   0.00000
   F  -0.2569390  -0.0379908  -0.4059872 SPIN=   0.00000
   F   0.2569390   0.0379908   0.0940128 SPIN=   0.00000
%ENDBLOCK POSITIONS_FRAC

# Note: total spin =  16.00

KPOINTS_MP_SPACING 0.07

%BLOCK SPECIES_POT
QC5
%ENDBLOCK SPECIES_POT

SNAP_TO_SYMMETRY
SYMMETRY_GENERATE

