#              Generated by Buildcell
#
# at 15:24:23 (GMT+1.0) 18th August 2020
# in /lustre/scratch/uccabz1/launch_tmp
# on node-c12o-024
# by uccabz1
#
# compiler GCC version 4.9.2
# options -cpp -iprefix /lustre/shared/ucl/apps/gcc/4.9.2/bin/../lib/gcc/x86_64-unknown-linux-gnu/4.9.2/ -mtune=corei7 -march=x86-64 -g -Og
#
# seed -1460274083   263624796   516504091   705071824 -1649125933  -222459294  1504593065 -1296921222 -1739568513  2017408128   -77122596 -1766680643
#
#      Author: C. J. Pickard (cjp20@cam.ac.uk)
#                Space group: Cc
#

%BLOCK LATTICE_ABC
      6.33073      7.95673      7.95673
     93.57447     90.35401     90.35401
%ENDBLOCK LATTICE_ABC

%BLOCK POSITIONS_FRAC
  Li  -0.3774994  -0.0122481   0.3817348 SPIN=   0.00000
  Li   0.1225006   0.3817348  -0.0122481 SPIN=   0.00000
  Li   0.2033180  -0.2804023  -0.4413220 SPIN=   0.00000
  Li  -0.2966820  -0.4413220  -0.2804023 SPIN=   0.00000
  Fe   0.0437792   0.0494142   0.2198741 SPIN=   1.65500
  Fe  -0.4562208   0.2198741   0.0494142 SPIN=   1.65500
  Fe   0.3086308   0.3393380  -0.3865574 SPIN=   6.34500
  Fe  -0.1913692  -0.3865574   0.3393380 SPIN=   6.34500
   O   0.0913186  -0.1643952  -0.1806056 SPIN=   0.00000
   O   0.3667458   0.0252856  -0.0515290 SPIN=   0.00000
   O   0.0970348   0.1370599  -0.2406634 SPIN=   0.00000
   O   0.3743261  -0.0537878  -0.3572136 SPIN=   0.00000
   S   0.2323563  -0.0139594  -0.2075029 SPIN=   0.00000
   O  -0.4086814  -0.1806056  -0.1643952 SPIN=   0.00000
   O  -0.1332542  -0.0515290   0.0252856 SPIN=   0.00000
   O  -0.4029652  -0.2406634   0.1370599 SPIN=   0.00000
   O  -0.1256739  -0.3572136  -0.0537878 SPIN=   0.00000
   S  -0.2676437  -0.2075029  -0.0139594 SPIN=   0.00000
   O   0.1115806  -0.4577185   0.3759303 SPIN=   0.00000
   O   0.2667941  -0.3635287   0.1127289 SPIN=   0.00000
   O   0.3610142  -0.6416244   0.2133992 SPIN=   0.00000
   O   0.4905692  -0.3808272   0.3671308 SPIN=   0.00000
   S   0.3074895  -0.4609247   0.2672973 SPIN=   0.00000
   O  -0.3884194   0.3759303  -0.4577185 SPIN=   0.00000
   O  -0.2332059   0.1127289  -0.3635287 SPIN=   0.00000
   O  -0.1389858   0.2133992  -0.6416244 SPIN=   0.00000
   O  -0.0094308   0.3671308  -0.3808272 SPIN=   0.00000
   S  -0.1925105   0.2672973  -0.4609247 SPIN=   0.00000
   F  -0.1737780  -0.2229115  -0.4533629 SPIN=   0.00000
   F   0.3262220  -0.4533629  -0.2229115 SPIN=   0.00000
   F  -0.1630074   0.3035770  -0.0111281 SPIN=   0.00000
   F   0.3369926  -0.0111281   0.3035770 SPIN=   0.00000
%ENDBLOCK POSITIONS_FRAC

# Note: total spin =  16.00

KPOINTS_MP_SPACING 0.07

%BLOCK SPECIES_POT
QC5
%ENDBLOCK SPECIES_POT

SNAP_TO_SYMMETRY
SYMMETRY_GENERATE

