#              Generated by Buildcell
#
# at 14:50:11 (GMT+1.0) 18th August 2020
# in /lustre/scratch/uccabz1/launch_tmp
# on node-c12d-020
# by uccabz1
#
# compiler GCC version 4.9.2
# options -cpp -iprefix /lustre/shared/ucl/apps/gcc/4.9.2/bin/../lib/gcc/x86_64-unknown-linux-gnu/4.9.2/ -mtune=corei7 -march=x86-64 -g -Og
#
# seed   319865020   250711108  1584993688  -838218096  -831671692  1347997443   905755474   133113263 -2003074023 -1990637725   634240215 -1038537181
#
#      Author: C. J. Pickard (cjp20@cam.ac.uk)
#                Space group: P21
#

%BLOCK LATTICE_ABC
      6.21813      6.39107     11.43686
     90.00000     90.00000    118.34864
%ENDBLOCK LATTICE_ABC

%BLOCK POSITIONS_FRAC
  Li  -0.4690652   0.1454907   0.0290248 SPIN=   0.00000
  Li   0.4690652  -0.1454907  -0.4709752 SPIN=   0.00000
  Li   0.2106781   0.3328396  -0.2051974 SPIN=   0.00000
  Li  -0.2106781  -0.3328396   0.2948026 SPIN=   0.00000
  Fe  -0.1806562   0.2207904   0.3493655 SPIN=   2.29388
  Fe   0.1806562  -0.2207904  -0.1506345 SPIN=   2.29388
  Fe  -0.3820318  -0.3491712   0.0225594 SPIN=   5.70612
  Fe   0.3820318   0.3491712  -0.4774406 SPIN=   5.70612
   O   0.1815333  -0.0078337   0.1383289 SPIN=   0.00000
   O   0.4563429   0.0346885   0.3035852 SPIN=   0.00000
   O   0.4395505  -0.2063997   0.1310716 SPIN=   0.00000
   O   0.0888234  -0.3512433   0.2673470 SPIN=   0.00000
   S   0.2915625  -0.1326971   0.2100832 SPIN=   0.00000
   O  -0.1815333   0.0078337  -0.3616711 SPIN=   0.00000
   O  -0.4563429  -0.0346885  -0.1964148 SPIN=   0.00000
   O  -0.4395505   0.2063997  -0.3689284 SPIN=   0.00000
   O  -0.0888234   0.3512433  -0.2326530 SPIN=   0.00000
   S  -0.2915625   0.1326971  -0.2899168 SPIN=   0.00000
   O   0.1254433   0.4329402   0.1263651 SPIN=   0.00000
   O  -0.1622186   0.0033935   0.1063535 SPIN=   0.00000
   O   0.1911953   0.1970818  -0.0275912 SPIN=   0.00000
   O  -0.1538057   0.2864315  -0.0435679 SPIN=   0.00000
   S   0.0001536   0.2299618   0.0403899 SPIN=   0.00000
   O  -0.1254433  -0.4329402  -0.3736349 SPIN=   0.00000
   O   0.1622186  -0.0033935  -0.3936465 SPIN=   0.00000
   O  -0.1911953  -0.1970818  -0.5275912 SPIN=   0.00000
   O   0.1538057  -0.2864315  -0.5435679 SPIN=   0.00000
   S  -0.0001536  -0.2299618  -0.4596101 SPIN=   0.00000
   F  -0.1254238  -0.2436726  -0.1444327 SPIN=   0.00000
   F   0.1254238   0.2436726   0.3555673 SPIN=   0.00000
   F  -0.3666673   0.4635721   0.1410164 SPIN=   0.00000
   F   0.3666673  -0.4635721  -0.3589836 SPIN=   0.00000
%ENDBLOCK POSITIONS_FRAC

# Note: total spin =  16.00

KPOINTS_MP_SPACING 0.07

%BLOCK SPECIES_POT
QC5
%ENDBLOCK SPECIES_POT

SNAP_TO_SYMMETRY
SYMMETRY_GENERATE

