#              Generated by Buildcell
#
# at 01:12:17 (GMT+1.0) 18th August 2020
# in /scratch/scratch/uccabz1/launch_tmp
# on node-k10b-023
# by uccabz1
#
# compiler GCC version 4.9.2
# options -cpp -iprefix /scratch/UCL/applications/gcc/4.9.2/bin/../lib/gcc/x86_64-unknown-linux-gnu/4.9.2/ -mtune=corei7 -march=x86-64 -g -O2
#
# seed   681458051    81008104  -215827630  1942587870  -138133908  2034990622  1215017436   708613744 -1912126874  1079710514 -1437258405   118787547
#
#      Author: C. J. Pickard (cjp20@cam.ac.uk)
#                Space group: P-1
#

%BLOCK LATTICE_ABC
      5.68613      7.54844     10.03385
     69.69565     82.38369     89.56930
%ENDBLOCK LATTICE_ABC

%BLOCK POSITIONS_FRAC
  Li  -0.4457680   0.6926024  -0.3199514 SPIN=   0.00000
  Li   0.4457680  -0.6926024   0.3199514 SPIN=   0.00000
  Li  -0.0838200   0.2388607  -0.1388073 SPIN=   0.00000
  Li   0.0838200  -0.2388607   0.1388073 SPIN=   0.00000
  Fe  -0.2589889   0.3342856  -0.4526062 SPIN=   3.80132
  Fe   0.2589889  -0.3342856   0.4526062 SPIN=   3.80132
  Fe   0.3872873  -0.0476343  -0.1520505 SPIN=   4.19868
  Fe  -0.3872873   0.0476343   0.1520505 SPIN=   4.19868
   O   0.0045514   0.1014570  -0.2776768 SPIN=   0.00000
   O  -0.1852275  -0.0328449  -0.4316646 SPIN=   0.00000
   O  -0.2658862  -0.1820886  -0.1673476 SPIN=   0.00000
   O   0.1292982  -0.2050561  -0.2959384 SPIN=   0.00000
   S  -0.0793160  -0.0796332  -0.2931569 SPIN=   0.00000
   O  -0.0045514  -0.1014570   0.2776768 SPIN=   0.00000
   O   0.1852275   0.0328449   0.4316646 SPIN=   0.00000
   O   0.2658862   0.1820886   0.1673476 SPIN=   0.00000
   O  -0.1292982   0.2050561   0.2959384 SPIN=   0.00000
   S   0.0793160   0.0796332   0.2931569 SPIN=   0.00000
   O   0.2425152   0.1561860  -0.0531490 SPIN=   0.00000
   O   0.5743648   0.3382556  -0.0180240 SPIN=   0.00000
   O   0.1914860   0.4879790  -0.0676743 SPIN=   0.00000
   O   0.4523854   0.4168652  -0.2590622 SPIN=   0.00000
   S   0.3651878   0.3498215  -0.0994774 SPIN=   0.00000
   O  -0.2425152  -0.1561860   0.0531490 SPIN=   0.00000
   O  -0.5743648  -0.3382556   0.0180240 SPIN=   0.00000
   O  -0.1914860  -0.4879790   0.0676743 SPIN=   0.00000
   O  -0.4523854  -0.4168652   0.2590622 SPIN=   0.00000
   S  -0.3651878  -0.3498215   0.0994774 SPIN=   0.00000
   F   0.4415382   0.1863552  -0.4043114 SPIN=   0.00000
   F  -0.4415382  -0.1863552   0.4043114 SPIN=   0.00000
   F   0.0879160  -0.4738503   0.2983911 SPIN=   0.00000
   F  -0.0879160   0.4738503  -0.2983911 SPIN=   0.00000
%ENDBLOCK POSITIONS_FRAC

# Note: total spin =  16.00

KPOINTS_MP_SPACING 0.07

%BLOCK SPECIES_POT
QC5
%ENDBLOCK SPECIES_POT

SNAP_TO_SYMMETRY
SYMMETRY_GENERATE

