#              Generated by Buildcell
#
# at 07:30:11 (GMT+1.0) 4th August 2020
# in /lustre/scratch/uccabz1/launch_tmp
# on node-c12g-005
# by uccabz1
#
# compiler GCC version 4.9.2
# options -cpp -iprefix /lustre/shared/ucl/apps/gcc/4.9.2/bin/../lib/gcc/x86_64-unknown-linux-gnu/4.9.2/ -mtune=corei7 -march=x86-64 -g -Og
#
# seed  1261448438  1699732637  -273660205    97136285  1167123632  2102549421   549574605 -1464728766  -153431161 -1287824105  -227178769  1419648970
#
#      Author: C. J. Pickard (cjp20@cam.ac.uk)
#                Space group: Cm
#

%BLOCK LATTICE_ABC
      4.13670     10.02415     10.02415
     81.41607     79.96105     79.96105
%ENDBLOCK LATTICE_ABC

%BLOCK POSITIONS_FRAC
  Li  -0.1273215  -0.3403466   0.2652745 SPIN=   0.00000
  Li  -0.1273215   0.2652745  -0.3403466 SPIN=   0.00000
  Li  -0.1419241   0.0195653   0.0195653 SPIN=   0.00000
  Li  -0.4666156   0.3327121   0.3327121 SPIN=   0.00000
  Fe   0.1033620   0.1121436   0.3880039 SPIN=   4.18418
  Fe   0.1033620   0.3880039   0.1121436 SPIN=   4.18418
  Fe   0.3371857  -0.4594947  -0.4594947 SPIN=   2.60338
  Fe   0.3802090  -0.1544120  -0.1544120 SPIN=   5.02826
   O   0.0892291  -0.2499109  -0.4441332 SPIN=   0.00000
   O  -0.4993590  -0.1739138  -0.3533179 SPIN=   0.00000
   O  -0.3472665  -0.2383684  -0.5876054 SPIN=   0.00000
   O  -0.1975976  -0.0255970  -0.5347603 SPIN=   0.00000
   S  -0.2387485  -0.1719475  -0.4799542 SPIN=   0.00000
   O   0.0892291  -0.4441332  -0.2499109 SPIN=   0.00000
   O  -0.4993590  -0.3533179  -0.1739138 SPIN=   0.00000
   O  -0.3472665  -0.5876054  -0.2383684 SPIN=   0.00000
   O  -0.1975976  -0.5347603  -0.0255970 SPIN=   0.00000
   S  -0.2387485  -0.4799542  -0.1719475 SPIN=   0.00000
   O   0.3332755   0.2333285   0.0088292 SPIN=   0.00000
   O   0.7860980   0.1511577  -0.1697504 SPIN=   0.00000
   O   0.2500747   0.2726005  -0.2333367 SPIN=   0.00000
   S   0.4131562   0.1740924  -0.1257455 SPIN=   0.00000
   O   0.3332755   0.0088292   0.2333285 SPIN=   0.00000
   O   0.7860980  -0.1697504   0.1511577 SPIN=   0.00000
   O   0.2500747  -0.2333367   0.2726005 SPIN=   0.00000
   S   0.4131562  -0.1257455   0.1740924 SPIN=   0.00000
   O  -0.2165098  -0.4293972  -0.4293972 SPIN=   0.00000
   O   0.1243044   0.4240012   0.4240012 SPIN=   0.00000
   F   0.2966822   0.1823220  -0.4621558 SPIN=   0.00000
   F   0.2966822  -0.4621558   0.1823220 SPIN=   0.00000
   F  -0.1244094  -0.1488166  -0.1488166 SPIN=   0.00000
   F  -0.2000449   0.1589579   0.1589579 SPIN=   0.00000
%ENDBLOCK POSITIONS_FRAC

# Note: total spin =  16.00

KPOINTS_MP_SPACING 0.07

%BLOCK SPECIES_POT
QC5
%ENDBLOCK SPECIES_POT

SNAP_TO_SYMMETRY
SYMMETRY_GENERATE

