#              Generated by Buildcell
#
# at 10:36:25 (GMT+1.0) 18th August 2020
# in /scratch/scratch/uccabz1/launch_tmp
# on node-k10h-025
# by uccabz1
#
# compiler GCC version 4.9.2
# options -cpp -iprefix /scratch/UCL/applications/gcc/4.9.2/bin/../lib/gcc/x86_64-unknown-linux-gnu/4.9.2/ -mtune=corei7 -march=x86-64 -g -O2
#
# seed  -487726945  1852539839   394312642 -1577075672  -932544096 -1892676106  -133192789  1668757398 -1184566153 -1737062805 -1452183890   766575001
#
#      Author: C. J. Pickard (cjp20@cam.ac.uk)
#                Space group: Iba2
#

%BLOCK LATTICE_ABC
      8.08760      8.08760      8.08760
    100.71325    112.71473    115.33835
%ENDBLOCK LATTICE_ABC

%BLOCK POSITIONS_FRAC
  Li  -0.0502445   0.1829470  -0.2979614 SPIN=   0.00000
  Li   0.4809084   0.2477169   0.2979614 SPIN=   0.00000
  Li   0.4497555  -0.2522831  -0.2331915 SPIN=   0.00000
  Li  -0.0190916  -0.3170530   0.2331915 SPIN=   0.00000
  Fe   0.4656019  -0.0343981   0.5000000 SPIN=   2.80228
  Fe  -0.0343981   0.4656019  -0.5000000 SPIN=   2.80228
  Fe  -0.0062739  -0.0062739  -0.0000000 SPIN=   5.19772
  Fe   0.4937261   0.4937261  -0.0000000 SPIN=   5.19772
   O   0.1731327   0.3668670  -0.3951223 SPIN=   0.00000
   O   0.4518720   0.3432953  -0.4347941 SPIN=   0.00000
   O   0.0738519   0.1344342  -0.7136487 SPIN=   0.00000
   O   0.1782570   0.0595840  -0.4205148 SPIN=   0.00000
   S   0.2192784   0.2260451  -0.4910200 SPIN=   0.00000
   O  -0.2380107  -0.4317450   0.3951223 SPIN=   0.00000
   O  -0.2219107  -0.1133339   0.4347941 SPIN=   0.00000
   O  -0.1519171  -0.2124994   0.7136487 SPIN=   0.00000
   O  -0.5199012  -0.4012282   0.4205148 SPIN=   0.00000
   S  -0.2829349  -0.2897016   0.4910200 SPIN=   0.00000
   O  -0.3268673   0.0682550  -0.1937343 SPIN=   0.00000
   O  -0.0481280   0.3866661   0.1085767 SPIN=   0.00000
   O  -0.4261481   0.2875006  -0.0605823 SPIN=   0.00000
   O  -0.3217430   0.0987718   0.1186730 SPIN=   0.00000
   S  -0.2807216   0.2102984  -0.0067667 SPIN=   0.00000
   O   0.2619893  -0.1331330   0.1937343 SPIN=   0.00000
   O   0.2780893  -0.1567047  -0.1085767 SPIN=   0.00000
   O   0.3480829  -0.3655658   0.0605823 SPIN=   0.00000
   O  -0.0199012  -0.4404160  -0.1186730 SPIN=   0.00000
   S   0.2170651  -0.2739549   0.0067667 SPIN=   0.00000
   F  -0.2540609  -0.2540609   0.0000000 SPIN=   0.00000
   F   0.2459391   0.2459391   0.0000000 SPIN=   0.00000
   F   0.2051579  -0.2948421   0.5000000 SPIN=   0.00000
   F  -0.2948421   0.2051579   0.5000000 SPIN=   0.00000
%ENDBLOCK POSITIONS_FRAC

# Note: total spin =  16.00

KPOINTS_MP_SPACING 0.07

%BLOCK SPECIES_POT
QC5
%ENDBLOCK SPECIES_POT

SNAP_TO_SYMMETRY
SYMMETRY_GENERATE

