#              Generated by Buildcell
#
# at 06:43:04 (GMT+1.0) 4th August 2020
# in /lustre/scratch/uccabz1/launch_tmp
# on node-c12l-029
# by uccabz1
#
# compiler GCC version 4.9.2
# options -cpp -iprefix /lustre/shared/ucl/apps/gcc/4.9.2/bin/../lib/gcc/x86_64-unknown-linux-gnu/4.9.2/ -mtune=corei7 -march=x86-64 -g -Og
#
# seed  1017916417  1422468693  -813322642 -1242216793   -12647421  1268394952  -196630040  1243200427  2065897002 -1866747631   117333505  1664800164
#
#      Author: C. J. Pickard (cjp20@cam.ac.uk)
#                Space group: Pba2
#

%BLOCK LATTICE_ABC
      6.56270      7.73438      7.88046
     90.00000     90.00000     90.00000
%ENDBLOCK LATTICE_ABC

%BLOCK POSITIONS_FRAC
  Li   0.3348336   0.4756643  -0.2556736 SPIN=   0.00000
  Li   0.3348336  -0.4756643   0.2556736 SPIN=   0.00000
  Li   0.3348336  -0.0243357  -0.2443264 SPIN=   0.00000
  Li   0.3348336   0.0243357   0.2443264 SPIN=   0.00000
  Fe   0.1327471   0.2492883  -0.0063096 SPIN=   4.00000
  Fe   0.1327471  -0.2492883   0.0063096 SPIN=   4.00000
  Fe   0.1327471  -0.2507117  -0.4936904 SPIN=   4.00000
  Fe   0.1327471   0.2507117   0.4936904 SPIN=   4.00000
   O  -0.1914337  -0.3084819   0.0782592 SPIN=   0.00000
   O  -0.5506127  -0.2109812   0.0780529 SPIN=   0.00000
   O  -0.4206729  -0.3919329  -0.1572724 SPIN=   0.00000
   O  -0.3062625  -0.0884229  -0.1287112 SPIN=   0.00000
   S  -0.3672454  -0.2499547  -0.0324179 SPIN=   0.00000
   O  -0.1914337   0.3084819  -0.0782592 SPIN=   0.00000
   O  -0.5506127   0.2109812  -0.0780529 SPIN=   0.00000
   O  -0.4206729   0.3919329   0.1572724 SPIN=   0.00000
   O  -0.3062625   0.0884229   0.1287112 SPIN=   0.00000
   S  -0.3672454   0.2499547   0.0324179 SPIN=   0.00000
   O  -0.1914337   0.1915181  -0.5782592 SPIN=   0.00000
   O  -0.5506127   0.2890188  -0.5780529 SPIN=   0.00000
   O  -0.4206729   0.1080671  -0.3427276 SPIN=   0.00000
   O  -0.3062625   0.4115771  -0.3712888 SPIN=   0.00000
   S  -0.3672454   0.2500453  -0.4675821 SPIN=   0.00000
   O  -0.1914337  -0.1915181   0.5782592 SPIN=   0.00000
   O  -0.5506127  -0.2890188   0.5780529 SPIN=   0.00000
   O  -0.4206729  -0.1080671   0.3427276 SPIN=   0.00000
   O  -0.3062625  -0.4115771   0.3712888 SPIN=   0.00000
   S  -0.3672454  -0.2500453   0.4675821 SPIN=   0.00000
   F   0.0784650  -0.1206040   0.2282896 SPIN=   0.00000
   F   0.0784650   0.1206040  -0.2282896 SPIN=   0.00000
   F   0.0784650   0.3793960   0.2717104 SPIN=   0.00000
   F   0.0784650  -0.3793960  -0.2717104 SPIN=   0.00000
%ENDBLOCK POSITIONS_FRAC

# Note: total spin =  16.00

KPOINTS_MP_SPACING 0.07

%BLOCK SPECIES_POT
QC5
%ENDBLOCK SPECIES_POT

SNAP_TO_SYMMETRY
SYMMETRY_GENERATE

