#              Generated by Buildcell
#
# at 08:53:01 (GMT+1.0) 4th August 2020
# in /lustre/scratch/uccabz1/launch_tmp
# on node-c12g-026
# by uccabz1
#
# compiler GCC version 4.9.2
# options -cpp -iprefix /lustre/shared/ucl/apps/gcc/4.9.2/bin/../lib/gcc/x86_64-unknown-linux-gnu/4.9.2/ -mtune=corei7 -march=x86-64 -g -Og
#
# seed  -257057251 -1413768604  2112126796  1568594593  1271470316  1594029735 -1879784569 -2105557086   449496390 -1559786198   -33361607  -398844147
#
#      Author: C. J. Pickard (cjp20@cam.ac.uk)
#                Space group: P21
#

%BLOCK LATTICE_ABC
      6.29357      6.80685      9.48306
     90.00000     90.00000    100.06205
%ENDBLOCK LATTICE_ABC

%BLOCK POSITIONS_FRAC
  Li  -0.4688859   0.0676880  -0.1173852 SPIN=   0.00000
  Li   0.4688859  -0.0676880   0.3826148 SPIN=   0.00000
  Li   0.3237524   0.3853474   0.1370074 SPIN=   0.00000
  Li  -0.3237524  -0.3853474  -0.3629926 SPIN=   0.00000
  Fe   0.2730367   0.4151881   0.4439588 SPIN=   5.46280
  Fe  -0.2730367  -0.4151881  -0.0560412 SPIN=   5.46280
  Fe  -0.0628554   0.1055540   0.0481135 SPIN=   2.53720
  Fe   0.0628554  -0.1055540  -0.4518865 SPIN=   2.53720
   O   0.4802099   0.0167174   0.1863384 SPIN=   0.00000
   O   0.3198292  -0.3418181   0.1973617 SPIN=   0.00000
   O   0.4658153  -0.1923636  -0.0281296 SPIN=   0.00000
   O   0.1298199  -0.1060336   0.0704488 SPIN=   0.00000
   S   0.3489186  -0.1558745   0.1065048 SPIN=   0.00000
   O  -0.4802099  -0.0167174  -0.3136616 SPIN=   0.00000
   O  -0.3198292   0.3418181  -0.3026383 SPIN=   0.00000
   O  -0.4658153   0.1923636  -0.5281296 SPIN=   0.00000
   O  -0.1298199   0.1060336  -0.4295512 SPIN=   0.00000
   S  -0.3489186   0.1558745  -0.3934952 SPIN=   0.00000
   O   0.1277763   0.4954209  -0.0558353 SPIN=   0.00000
   O   0.3116255   0.2303120  -0.1501636 SPIN=   0.00000
   O   0.4097167   0.5761931  -0.2389404 SPIN=   0.00000
   O   0.0556434   0.3739939  -0.3001287 SPIN=   0.00000
   S   0.2261905   0.4189800  -0.1862670 SPIN=   0.00000
   O  -0.1277763  -0.4954209   0.4441647 SPIN=   0.00000
   O  -0.3116255  -0.2303120   0.3498364 SPIN=   0.00000
   O  -0.4097167  -0.5761931   0.2610596 SPIN=   0.00000
   O  -0.0556434  -0.3739939   0.1998713 SPIN=   0.00000
   S  -0.2261905  -0.4189800   0.3137330 SPIN=   0.00000
   F   0.0200037  -0.1165437  -0.2153245 SPIN=   0.00000
   F  -0.0200037   0.1165437   0.2846755 SPIN=   0.00000
   F   0.2917847  -0.2912868   0.4901259 SPIN=   0.00000
   F  -0.2917847   0.2912868  -0.0098741 SPIN=   0.00000
%ENDBLOCK POSITIONS_FRAC

# Note: total spin =  16.00

KPOINTS_MP_SPACING 0.07

%BLOCK SPECIES_POT
QC5
%ENDBLOCK SPECIES_POT

SNAP_TO_SYMMETRY
SYMMETRY_GENERATE

