#              Generated by Buildcell
#
# at 22:50:18 (GMT+1.0) 17th August 2020
# in /lustre/scratch/uccabz1/launch_tmp
# on node-c12k-019
# by uccabz1
#
# compiler GCC version 4.9.2
# options -cpp -iprefix /lustre/shared/ucl/apps/gcc/4.9.2/bin/../lib/gcc/x86_64-unknown-linux-gnu/4.9.2/ -mtune=corei7 -march=x86-64 -g -Og
#
# seed -1917144069  2147439471 -1822235228 -1126758990  1229516538  1785971356  1791753704 -1422910969 -1815937290 -1492544930  1090818664  -794144049
#
#      Author: C. J. Pickard (cjp20@cam.ac.uk)
#                Space group: Pca21
#

%BLOCK LATTICE_ABC
      6.01853      7.22619      9.19728
     90.00000     90.00000     90.00000
%ENDBLOCK LATTICE_ABC

%BLOCK POSITIONS_FRAC
  Li  -0.1831513   0.2096274   0.0866410 SPIN=   0.00000
  Li   0.3168487  -0.2096274  -0.0866410 SPIN=   0.00000
  Li  -0.1831513  -0.2096274  -0.4133590 SPIN=   0.00000
  Li   0.3168487   0.2096274   0.4133590 SPIN=   0.00000
  Fe  -0.3471438  -0.3877870   0.1258855 SPIN=   4.00000
  Fe   0.1528562   0.3877870  -0.1258855 SPIN=   4.00000
  Fe  -0.3471438   0.3877870  -0.3741145 SPIN=   4.00000
  Fe   0.1528562  -0.3877870   0.3741145 SPIN=   4.00000
   O   0.0454551  -0.0485033   0.3783506 SPIN=   0.00000
   O  -0.1042267   0.1938783   0.5412864 SPIN=   0.00000
   O  -0.3507486   0.0409392   0.3625546 SPIN=   0.00000
   O  -0.0590934   0.2573894   0.2785208 SPIN=   0.00000
   S  -0.1171534   0.1109259   0.3901781 SPIN=   0.00000
   O   0.5454551   0.0485033  -0.3783506 SPIN=   0.00000
   O   0.3957733  -0.1938783  -0.5412864 SPIN=   0.00000
   O   0.1492514  -0.0409392  -0.3625546 SPIN=   0.00000
   O   0.4409066  -0.2573894  -0.2785208 SPIN=   0.00000
   S   0.3828466  -0.1109259  -0.3901781 SPIN=   0.00000
   O   0.0454551   0.0485033  -0.1216494 SPIN=   0.00000
   O  -0.1042267  -0.1938783   0.0412864 SPIN=   0.00000
   O  -0.3507486  -0.0409392  -0.1374454 SPIN=   0.00000
   O  -0.0590934  -0.2573894  -0.2214792 SPIN=   0.00000
   S  -0.1171534  -0.1109259  -0.1098219 SPIN=   0.00000
   O   0.5454551  -0.0485033   0.1216494 SPIN=   0.00000
   O   0.3957733   0.1938783  -0.0412864 SPIN=   0.00000
   O   0.1492514   0.0409392   0.1374454 SPIN=   0.00000
   O   0.4409066   0.2573894   0.2214792 SPIN=   0.00000
   S   0.3828466   0.1109259   0.1098219 SPIN=   0.00000
   F  -0.2331599   0.3891516  -0.1121079 SPIN=   0.00000
   F   0.2668401  -0.3891516   0.1121079 SPIN=   0.00000
   F  -0.2331599  -0.3891516   0.3878921 SPIN=   0.00000
   F   0.2668401   0.3891516  -0.3878921 SPIN=   0.00000
%ENDBLOCK POSITIONS_FRAC

# Note: total spin =  16.00

KPOINTS_MP_SPACING 0.07

%BLOCK SPECIES_POT
QC5
%ENDBLOCK SPECIES_POT

SNAP_TO_SYMMETRY
SYMMETRY_GENERATE

