#              Generated by Buildcell
#
# at 09:20:15 (GMT+1.0) 4th August 2020
# in /lustre/scratch/uccabz1/launch_tmp
# on node-c12l-015
# by uccabz1
#
# compiler GCC version 4.9.2
# options -cpp -iprefix /lustre/shared/ucl/apps/gcc/4.9.2/bin/../lib/gcc/x86_64-unknown-linux-gnu/4.9.2/ -mtune=corei7 -march=x86-64 -g -Og
#
# seed  1854857132  1834440095  1465050783 -1894608743  -554994734   162139167  -518012277   128764462   862804696  -947424165  -326708826  1605516894
#
#      Author: C. J. Pickard (cjp20@cam.ac.uk)
#                Space group: Pca21
#

%BLOCK LATTICE_ABC
      4.98790      6.46467     12.40498
     90.00000     90.00000     90.00000
%ENDBLOCK LATTICE_ABC

%BLOCK POSITIONS_FRAC
  Li  -0.1739270   0.3087178  -0.4776861 SPIN=   0.00000
  Li   0.1739270  -0.3087178   0.0223139 SPIN=   0.00000
  Li   0.3260730  -0.3087178  -0.4776861 SPIN=   0.00000
  Li  -0.3260730   0.3087178   0.0223139 SPIN=   0.00000
  Fe   0.4932155   0.2111193  -0.2860937 SPIN=   4.00000
  Fe  -0.4932155  -0.2111193   0.2139063 SPIN=   4.00000
  Fe  -0.0067845  -0.2111193  -0.2860937 SPIN=   4.00000
  Fe   0.0067845   0.2111193   0.2139063 SPIN=   4.00000
   O  -0.0931949  -0.3295283  -0.1085365 SPIN=   0.00000
   O  -0.3096703   0.0051545  -0.0660407 SPIN=   0.00000
   O  -0.3137381  -0.2781064   0.0681580 SPIN=   0.00000
   O  -0.5876869  -0.3061204  -0.0975415 SPIN=   0.00000
   S  -0.3260726  -0.2271502  -0.0509902 SPIN=   0.00000
   O   0.0931949   0.3295283   0.3914635 SPIN=   0.00000
   O   0.3096703  -0.0051545   0.4339593 SPIN=   0.00000
   O   0.3137381   0.2781064   0.5681580 SPIN=   0.00000
   O   0.5876869   0.3061204   0.4024585 SPIN=   0.00000
   S   0.3260726   0.2271502   0.4490098 SPIN=   0.00000
   O   0.4068051   0.3295283  -0.1085365 SPIN=   0.00000
   O   0.1903297  -0.0051545  -0.0660407 SPIN=   0.00000
   O   0.1862619   0.2781064   0.0681580 SPIN=   0.00000
   O  -0.0876869   0.3061204  -0.0975415 SPIN=   0.00000
   S   0.1739274   0.2271502  -0.0509902 SPIN=   0.00000
   O  -0.4068051  -0.3295283   0.3914635 SPIN=   0.00000
   O  -0.1903297   0.0051545   0.4339593 SPIN=   0.00000
   O  -0.1862619  -0.2781064   0.5681580 SPIN=   0.00000
   O   0.0876869  -0.3061204   0.4024585 SPIN=   0.00000
   S  -0.1739274  -0.2271502   0.4490098 SPIN=   0.00000
   F  -0.1695269   0.2891831  -0.3216244 SPIN=   0.00000
   F   0.1695269  -0.2891831   0.1783756 SPIN=   0.00000
   F   0.3304731  -0.2891831  -0.3216244 SPIN=   0.00000
   F  -0.3304731   0.2891831   0.1783756 SPIN=   0.00000
%ENDBLOCK POSITIONS_FRAC

# Note: total spin =  16.00

KPOINTS_MP_SPACING 0.07

%BLOCK SPECIES_POT
QC5
%ENDBLOCK SPECIES_POT

SNAP_TO_SYMMETRY
SYMMETRY_GENERATE

