#              Generated by Buildcell
#
# at 07:32:17 (GMT+1.0) 4th August 2020
# in /lustre/scratch/uccabz1/launch_tmp
# on node-c12m-020
# by uccabz1
#
# compiler GCC version 4.9.2
# options -cpp -iprefix /lustre/shared/ucl/apps/gcc/4.9.2/bin/../lib/gcc/x86_64-unknown-linux-gnu/4.9.2/ -mtune=corei7 -march=x86-64 -g -Og
#
# seed -2117851032 -1689663225  1433952018   475003173 -1182631553   483367506  1854455558   159810633 -1781058085  1982405627 -1540336691  2054345150
#
#      Author: C. J. Pickard (cjp20@cam.ac.uk)
#                Space group: P-1
#

%BLOCK LATTICE_ABC
      3.96163      7.05518     14.55424
     92.72130     97.07504     96.86516
%ENDBLOCK LATTICE_ABC

%BLOCK POSITIONS_FRAC
  Li   0.3745950   0.3371329  -0.1110971 SPIN=   0.00000
  Li  -0.3745950  -0.3371329   0.1110971 SPIN=   0.00000
  Li  -0.0655593   0.1825814   0.0925611 SPIN=   0.00000
  Li   0.0655593  -0.1825814  -0.0925611 SPIN=   0.00000
  Fe  -0.1338764  -0.1474004   0.3670622 SPIN=   3.61202
  Fe   0.1338764   0.1474004  -0.3670622 SPIN=   3.61202
  Fe   0.3802977  -0.3804435  -0.2564951 SPIN=   4.38798
  Fe  -0.3802977   0.3804435   0.2564951 SPIN=   4.38798
   O   0.2270652  -0.1906274   0.2731179 SPIN=   0.00000
   O   0.2068054   0.1358262   0.2192865 SPIN=   0.00000
   O   0.1092832  -0.1432281   0.1053614 SPIN=   0.00000
   O   0.6888933  -0.0418480   0.1898682 SPIN=   0.00000
   S   0.3080118  -0.0599693   0.1969085 SPIN=   0.00000
   O  -0.2270652   0.1906274  -0.2731179 SPIN=   0.00000
   O  -0.2068054  -0.1358262  -0.2192865 SPIN=   0.00000
   O  -0.1092832   0.1432281  -0.1053614 SPIN=   0.00000
   O  -0.6888933   0.0418480  -0.1898682 SPIN=   0.00000
   S  -0.3080118   0.0599693  -0.1969085 SPIN=   0.00000
   O   0.2800464   0.1022533   0.3968954 SPIN=   0.00000
   O   0.3425071   0.4485959   0.3719902 SPIN=   0.00000
   O   0.2992952   0.3380572   0.5294667 SPIN=   0.00000
   O  -0.2082265   0.2862346   0.4094698 SPIN=   0.00000
   S   0.1784055   0.2937853   0.4269555 SPIN=   0.00000
   O  -0.2800464  -0.1022533  -0.3968954 SPIN=   0.00000
   O  -0.3425071  -0.4485959  -0.3719902 SPIN=   0.00000
   O  -0.2992952  -0.3380572  -0.5294667 SPIN=   0.00000
   O   0.2082265  -0.2862346  -0.4094698 SPIN=   0.00000
   S  -0.1784055  -0.2937853  -0.4269555 SPIN=   0.00000
   F  -0.0152051  -0.4694103  -0.2137030 SPIN=   0.00000
   F   0.0152051   0.4694103   0.2137030 SPIN=   0.00000
   F   0.3806947   0.2417014   0.0215805 SPIN=   0.00000
   F  -0.3806947  -0.2417014  -0.0215805 SPIN=   0.00000
%ENDBLOCK POSITIONS_FRAC

# Note: total spin =  16.00

KPOINTS_MP_SPACING 0.07

%BLOCK SPECIES_POT
QC5
%ENDBLOCK SPECIES_POT

SNAP_TO_SYMMETRY
SYMMETRY_GENERATE

