#              Generated by Buildcell
#
# at 09:47:18 (GMT+1.0) 4th August 2020
# in /lustre/scratch/uccabz1/launch_tmp
# on node-c12h-022
# by uccabz1
#
# compiler GCC version 4.9.2
# options -cpp -iprefix /lustre/shared/ucl/apps/gcc/4.9.2/bin/../lib/gcc/x86_64-unknown-linux-gnu/4.9.2/ -mtune=corei7 -march=x86-64 -g -Og
#
# seed  1494401772 -1612368734 -1846097445   773602929 -1250696323   766340902  1385642439  1420989888  -126126407   952618534   760355272  1257237133
#
#      Author: C. J. Pickard (cjp20@cam.ac.uk)
#                Space group: P2
#

%BLOCK LATTICE_ABC
      5.72490      7.41330      9.46742
     90.00000     95.42742     90.00000
%ENDBLOCK LATTICE_ABC

%BLOCK POSITIONS_FRAC
  Li  -0.2466989   0.4503108  -0.3696774 SPIN=   0.00000
  Li   0.2466989   0.4503108   0.3696774 SPIN=   0.00000
  Li  -0.2156279  -0.1209443   0.2707480 SPIN=   0.00000
  Li   0.2156279  -0.1209443  -0.2707480 SPIN=   0.00000
  Fe   0.2122189   0.4869790  -0.1632586 SPIN=   3.88806
  Fe  -0.2122189   0.4869790   0.1632586 SPIN=   3.88806
  Fe   0.0000000  -0.0065727   0.0000000 SPIN=   0.38268
  Fe   0.0000000   0.1357051   0.5000000 SPIN=   7.84120
   O   0.4903133  -0.2883873   0.2557501 SPIN=   0.00000
   O   0.2850273  -0.1915921   0.0264806 SPIN=   0.00000
   O   0.0577308  -0.3102982   0.2158982 SPIN=   0.00000
   O   0.3069121  -0.5157356   0.0888821 SPIN=   0.00000
   S   0.2849959  -0.3265033   0.1467528 SPIN=   0.00000
   O  -0.4903133  -0.2883873  -0.2557501 SPIN=   0.00000
   O  -0.2850273  -0.1915921  -0.0264806 SPIN=   0.00000
   O  -0.0577308  -0.3102982  -0.2158982 SPIN=   0.00000
   O  -0.3069121  -0.5157356  -0.0888821 SPIN=   0.00000
   S  -0.2849959  -0.3265033  -0.1467528 SPIN=   0.00000
   O   0.2436324   0.2039728   0.0075397 SPIN=   0.00000
   O   0.1673498   0.0052022   0.2081186 SPIN=   0.00000
   O   0.4276278   0.2703499   0.2490725 SPIN=   0.00000
   O   0.5587714   0.0064256   0.1173127 SPIN=   0.00000
   O  -0.2436324   0.2039728  -0.0075397 SPIN=   0.00000
   O  -0.1673498   0.0052022  -0.2081186 SPIN=   0.00000
   O  -0.4276278   0.2703499  -0.2490725 SPIN=   0.00000
   O  -0.5587714   0.0064256  -0.1173127 SPIN=   0.00000
   S   0.0000000  -0.2932403   0.5000000 SPIN=   0.00000
   S   0.5000000   0.1714345   0.0000000 SPIN=   0.00000
   F   0.0293507   0.3054888  -0.3132683 SPIN=   0.00000
   F  -0.0293507   0.3054888   0.3132683 SPIN=   0.00000
   F   0.5000000   0.4509847   0.5000000 SPIN=   0.00000
   F   0.5000000  -0.0276085   0.5000000 SPIN=   0.00000
%ENDBLOCK POSITIONS_FRAC

# Note: total spin =  16.00

KPOINTS_MP_SPACING 0.07

%BLOCK SPECIES_POT
QC5
%ENDBLOCK SPECIES_POT

SNAP_TO_SYMMETRY
SYMMETRY_GENERATE

