#              Generated by Buildcell
#
# at 07:42:22 (GMT+1.0) 18th August 2020
# in /lustre/scratch/uccabz1/launch_tmp
# on node-c12o-035
# by uccabz1
#
# compiler GCC version 4.9.2
# options -cpp -iprefix /lustre/shared/ucl/apps/gcc/4.9.2/bin/../lib/gcc/x86_64-unknown-linux-gnu/4.9.2/ -mtune=corei7 -march=x86-64 -g -Og
#
# seed  -510176283 -1558747476  -463886556   357201169 -1002250100 -1142510061   819357264 -1374443414   606138332   952420258 -1279420857  -709297079
#
#      Author: C. J. Pickard (cjp20@cam.ac.uk)
#                Space group: I-4
#

%BLOCK LATTICE_ABC
      8.05175      8.05175      8.05175
    107.29116    107.29116    113.92527
%ENDBLOCK LATTICE_ABC

%BLOCK POSITIONS_FRAC
  Li  -0.1111870  -0.4683072   0.2284768 SPIN=   0.00000
  Li   0.3032160  -0.3396638  -0.2284768 SPIN=   0.00000
  Li   0.4683072  -0.3032160   0.3571202 SPIN=   0.00000
  Li   0.3396638   0.1111870  -0.3571202 SPIN=   0.00000
  Fe  -0.2923309   0.0952910  -0.1119247 SPIN=   4.00000
  Fe   0.2072158  -0.1804062   0.1119247 SPIN=   4.00000
  Fe  -0.0952910  -0.2072158  -0.3876220 SPIN=   4.00000
  Fe   0.1804062   0.2923309   0.3876220 SPIN=   4.00000
   O  -0.3257615   0.4875884  -0.0005865 SPIN=   0.00000
   O  -0.4895504   0.4390059  -0.3388970 SPIN=   0.00000
   O  -0.2623461   0.3084646  -0.2593429 SPIN=   0.00000
   O  -0.1119647   0.6853746  -0.1209701 SPIN=   0.00000
   S  -0.2974057   0.4801084  -0.1799491 SPIN=   0.00000
   O  -0.5118251  -0.3251750   0.0005865 SPIN=   0.00000
   O  -0.2220971  -0.1506534   0.3388970 SPIN=   0.00000
   O  -0.4321925  -0.0030032   0.2593429 SPIN=   0.00000
   O  -0.1936553   0.0090055   0.1209701 SPIN=   0.00000
   S  -0.3399425  -0.1174565   0.1799491 SPIN=   0.00000
   O  -0.4875884   0.5118251   0.1866501 SPIN=   0.00000
   O  -0.4390059   0.2220971   0.0714437 SPIN=   0.00000
   O  -0.3084646   0.4321925   0.4291893 SPIN=   0.00000
   O  -0.6853746   0.1936553   0.2026607 SPIN=   0.00000
   S  -0.4801084   0.3399425   0.2224860 SPIN=   0.00000
   O   0.3251750   0.3257615  -0.1866501 SPIN=   0.00000
   O   0.1506534   0.4895504  -0.0714437 SPIN=   0.00000
   O   0.0030032   0.2623461  -0.4291893 SPIN=   0.00000
   O  -0.0090055   0.1119647  -0.2026607 SPIN=   0.00000
   S   0.1174565   0.2974057  -0.2224860 SPIN=   0.00000
   F   0.2042874  -0.1725931  -0.2290724 SPIN=   0.00000
   F   0.0564792   0.4333598   0.2290724 SPIN=   0.00000
   F   0.1725931  -0.0564792   0.3768806 SPIN=   0.00000
   F  -0.4333598  -0.2042874  -0.3768806 SPIN=   0.00000
%ENDBLOCK POSITIONS_FRAC

# Note: total spin =  16.00

KPOINTS_MP_SPACING 0.07

%BLOCK SPECIES_POT
QC5
%ENDBLOCK SPECIES_POT

SNAP_TO_SYMMETRY
SYMMETRY_GENERATE

