#              Generated by Buildcell
#
# at 00:39:29 (GMT+1.0) 18th August 2020
# in /scratch/scratch/uccabz1/launch_tmp
# on node-k10h-009
# by uccabz1
#
# compiler GCC version 4.9.2
# options -cpp -iprefix /scratch/UCL/applications/gcc/4.9.2/bin/../lib/gcc/x86_64-unknown-linux-gnu/4.9.2/ -mtune=corei7 -march=x86-64 -g -O2
#
# seed   771550138  -701861982   140618769 -1681066965 -1070931951  1584020343 -1347235131  -955618649  1669039086  2060810548  1809116031  1602931902
#
#      Author: C. J. Pickard (cjp20@cam.ac.uk)
#                Space group: Pm
#

%BLOCK LATTICE_ABC
      3.97787      7.09979     14.67975
     90.00000     90.00000    105.24355
%ENDBLOCK LATTICE_ABC

%BLOCK POSITIONS_FRAC
  Li  -0.0708159  -0.3217142   0.3779798 SPIN=   0.00000
  Li  -0.0708159  -0.3217142  -0.3779798 SPIN=   0.00000
  Li  -0.1434003  -0.2645341   0.0000000 SPIN=   0.00000
  Li   0.3742163   0.2268573   0.0000000 SPIN=   0.00000
  Fe   0.3830356  -0.3823243  -0.1634684 SPIN=   3.73377
  Fe   0.3830356  -0.3823243   0.1634684 SPIN=   3.73377
  Fe  -0.4237607  -0.0078900  -0.3545588 SPIN=   4.26623
  Fe  -0.4237607  -0.0078900   0.3545588 SPIN=   4.26623
   O  -0.5041432   0.0594137   0.0923559 SPIN=   0.00000
   O   0.0784016   0.2947117   0.0926982 SPIN=   0.00000
   O  -0.1591760   0.1224349   0.2346724 SPIN=   0.00000
   O  -0.4150127   0.3767070   0.1713456 SPIN=   0.00000
   S  -0.2499825   0.2133168   0.1477680 SPIN=   0.00000
   O  -0.5041432   0.0594137  -0.0923559 SPIN=   0.00000
   O   0.0784016   0.2947117  -0.0926982 SPIN=   0.00000
   O  -0.1591760   0.1224349  -0.2346724 SPIN=   0.00000
   O  -0.4150127   0.3767070  -0.1713456 SPIN=   0.00000
   S  -0.2499825   0.2133168  -0.1477680 SPIN=   0.00000
   O   0.1590563   0.4401909  -0.2798555 SPIN=   0.00000
   O   0.0652128   0.2501906  -0.4232457 SPIN=   0.00000
   O   0.6179045   0.2946858  -0.3382482 SPIN=   0.00000
   S   0.3331458   0.3899435  -0.3649423 SPIN=   0.00000
   O   0.1590563   0.4401909   0.2798555 SPIN=   0.00000
   O   0.0652128   0.2501906   0.4232457 SPIN=   0.00000
   O   0.6179045   0.2946858   0.3382482 SPIN=   0.00000
   S   0.3331458   0.3899435   0.3649423 SPIN=   0.00000
   O  -0.0517099   0.0188534   0.0000000 SPIN=   0.00000
   O  -0.2323384   0.4525878   0.0000000 SPIN=   0.00000
   F  -0.0045626  -0.2239415   0.2413633 SPIN=   0.00000
   F  -0.0045626  -0.2239415  -0.2413633 SPIN=   0.00000
   F   0.1340681  -0.0828910   0.5000000 SPIN=   0.00000
   F   0.3769186  -0.2800214   0.0000000 SPIN=   0.00000
%ENDBLOCK POSITIONS_FRAC

# Note: total spin =  16.00

KPOINTS_MP_SPACING 0.07

%BLOCK SPECIES_POT
QC5
%ENDBLOCK SPECIES_POT

SNAP_TO_SYMMETRY
SYMMETRY_GENERATE

