#              Generated by Buildcell
#
# at 06:19:28 (GMT+1.0) 4th August 2020
# in /lustre/scratch/uccabz1/launch_tmp
# on node-c12e-006
# by uccabz1
#
# compiler GCC version 4.9.2
# options -cpp -iprefix /lustre/shared/ucl/apps/gcc/4.9.2/bin/../lib/gcc/x86_64-unknown-linux-gnu/4.9.2/ -mtune=corei7 -march=x86-64 -g -Og
#
# seed   -87344740  -709314137  2045480990    94056231 -1222356448 -1297236679 -1263314995 -1830688080   800696331  -615435846   686961881  -221536191
#
#      Author: C. J. Pickard (cjp20@cam.ac.uk)
#                Space group: Aea2
#

%BLOCK LATTICE_ABC
      7.40290      7.40290      8.00141
     90.00000     90.00000    114.18892
%ENDBLOCK LATTICE_ABC

%BLOCK POSITIONS_FRAC
  Li   0.6040970   0.3027984   0.2346756 SPIN=   0.00000
  Li   0.6972016   0.3959030  -0.2346756 SPIN=   0.00000
  Li   0.1972016  -0.1040970  -0.2653244 SPIN=   0.00000
  Li   0.1040970  -0.1972016   0.2653244 SPIN=   0.00000
  Fe   0.2768730   0.2242991   0.4853050 SPIN=   4.00000
  Fe  -0.2242991  -0.2768730  -0.4853050 SPIN=   4.00000
  Fe   0.2757009   0.2231270  -0.0146950 SPIN=   4.00000
  Fe  -0.2231270  -0.2757009   0.0146950 SPIN=   4.00000
   O  -0.7891078  -0.5505084   0.3757129 SPIN=   0.00000
   O  -0.8251069  -0.3835962   0.1178421 SPIN=   0.00000
   O  -0.5579257  -0.5017489   0.1395078 SPIN=   0.00000
   O  -0.5410534  -0.2142322   0.3070405 SPIN=   0.00000
   S  -0.6782985  -0.4125214   0.2350258 SPIN=   0.00000
   O  -0.4494916  -0.2108922  -0.3757129 SPIN=   0.00000
   O  -0.6164038  -0.1748931  -0.1178421 SPIN=   0.00000
   O  -0.4982511  -0.4420743  -0.1395078 SPIN=   0.00000
   O  -0.7857678  -0.4589466  -0.3070405 SPIN=   0.00000
   S  -0.5874786  -0.3217015  -0.2350258 SPIN=   0.00000
   O   0.0505084   0.2891078  -0.1242871 SPIN=   0.00000
   O  -0.1164038   0.3251069  -0.3821579 SPIN=   0.00000
   O   0.0017489   0.0579257  -0.3604922 SPIN=   0.00000
   O  -0.2857678   0.0410534  -0.1929595 SPIN=   0.00000
   S  -0.0874786   0.1782985  -0.2649742 SPIN=   0.00000
   O  -0.2891078  -0.0505084   0.1242871 SPIN=   0.00000
   O  -0.3251069   0.1164038   0.3821579 SPIN=   0.00000
   O  -0.0579257  -0.0017489   0.3604922 SPIN=   0.00000
   O  -0.0410534   0.2857678   0.1929595 SPIN=   0.00000
   S  -0.1782985   0.0874786   0.2649742 SPIN=   0.00000
   F   0.4322219   0.2013813  -0.3166470 SPIN=   0.00000
   F  -0.2013813  -0.4322219   0.3166470 SPIN=   0.00000
   F   0.2986187   0.0677781   0.1833530 SPIN=   0.00000
   F  -0.0677781  -0.2986187  -0.1833530 SPIN=   0.00000
%ENDBLOCK POSITIONS_FRAC

# Note: total spin =  16.00

KPOINTS_MP_SPACING 0.07

%BLOCK SPECIES_POT
QC5
%ENDBLOCK SPECIES_POT

SNAP_TO_SYMMETRY
SYMMETRY_GENERATE

