#              Generated by Buildcell
#
# at 07:08:49 (GMT+1.0) 4th August 2020
# in /lustre/scratch/uccabz1/launch_tmp
# on node-c12i-006
# by uccabz1
#
# compiler GCC version 4.9.2
# options -cpp -iprefix /lustre/shared/ucl/apps/gcc/4.9.2/bin/../lib/gcc/x86_64-unknown-linux-gnu/4.9.2/ -mtune=corei7 -march=x86-64 -g -Og
#
# seed   -56071673  1838057200   996683278  1671073779  1976076853  -830025781  1077262471   812693947   611762656   440870303   -72992820 -1359592524
#
#      Author: C. J. Pickard (cjp20@cam.ac.uk)
#                Space group: C2
#

%BLOCK LATTICE_ABC
      7.59327      7.99016      8.47857
    116.04038    114.45108     94.12266
%ENDBLOCK LATTICE_ABC

%BLOCK POSITIONS_FRAC
  Li  -0.2463915  -0.4274893  -0.3596637 SPIN=   0.00000
  Li  -0.1132722   0.0678256  -0.3596637 SPIN=   0.00000
  Li   0.1684465  -0.3315535  -0.6631070 SPIN=   0.00000
  Li  -0.4049200  -0.4049200  -0.8098400 SPIN=   0.00000
  Fe   0.7583158   0.3358983  -0.0686617 SPIN=   4.94400
  Fe  -0.8269775  -0.4045600  -0.0686617 SPIN=   4.94400
  Fe   0.5261355   0.0261355   0.0522710 SPIN=   2.09404
  Fe   0.2640248   0.2640248   0.5280496 SPIN=   4.01796
   O  -0.2450175  -0.1098444  -0.1857521 SPIN=   0.00000
   O  -0.5873864  -0.3439567  -0.4576126 SPIN=   0.00000
   O  -0.3768551  -0.1743354  -0.5339023 SPIN=   0.00000
   O  -0.5256916   0.0112130  -0.3279873 SPIN=   0.00000
   S  -0.4337376  -0.1542309  -0.3763136 SPIN=   0.00000
   O   0.0592654  -0.0759077  -0.1857521 SPIN=   0.00000
   O   0.1297738  -0.1136559  -0.4576126 SPIN=   0.00000
   O  -0.1570473  -0.3595669  -0.5339023 SPIN=   0.00000
   O   0.1977043  -0.3392003  -0.3279873 SPIN=   0.00000
   S   0.0574241  -0.2220827  -0.3763136 SPIN=   0.00000
   O   0.0219468   0.2270496   0.0546708 SPIN=   0.00000
   O   0.2765263   0.5235461   0.1648775 SPIN=   0.00000
   O   0.3382545   0.2023847   0.0395351 SPIN=   0.00000
   S   0.2472312   0.3300906   0.1575013 SPIN=   0.00000
   O   0.0327240  -0.1723788   0.0546708 SPIN=   0.00000
   O  -0.1116488  -0.3586686   0.1648775 SPIN=   0.00000
   O  -0.2987193  -0.1628495   0.0395351 SPIN=   0.00000
   S  -0.0897299  -0.1725893   0.1575013 SPIN=   0.00000
   O   0.4456434   0.4456434   0.8912869 SPIN=   0.00000
   O   0.7017288   0.2017288   0.4034575 SPIN=   0.00000
   F   0.5846068   0.4051948   0.6548094 SPIN=   0.00000
   F   0.0702026   0.2496147   0.6548094 SPIN=   0.00000
   F   0.7511721   0.2968858   0.1683706 SPIN=   0.00000
   F  -0.5828015  -0.1285151   0.1683706 SPIN=   0.00000
%ENDBLOCK POSITIONS_FRAC

# Note: total spin =  16.00

KPOINTS_MP_SPACING 0.07

%BLOCK SPECIES_POT
QC5
%ENDBLOCK SPECIES_POT

SNAP_TO_SYMMETRY
SYMMETRY_GENERATE

