#              Generated by Buildcell
#
# at 09:07:04 (GMT+1.0) 4th August 2020
# in /lustre/scratch/uccabz1/launch_tmp
# on node-c12m-016
# by uccabz1
#
# compiler GCC version 4.9.2
# options -cpp -iprefix /lustre/shared/ucl/apps/gcc/4.9.2/bin/../lib/gcc/x86_64-unknown-linux-gnu/4.9.2/ -mtune=corei7 -march=x86-64 -g -Og
#
# seed -1245500231  2044850300  -137666553 -1027295725 -1700776135  -637570076 -1061716550  -681241062 -1585044883   618961457   299883136   507462143
#
#      Author: C. J. Pickard (cjp20@cam.ac.uk)
#                Space group: P2/c
#

%BLOCK LATTICE_ABC
      5.32889      6.75062     11.55804
    105.83646     90.00000     90.00000
%ENDBLOCK LATTICE_ABC

%BLOCK POSITIONS_FRAC
  Li   0.2666256  -0.3372795  -0.4101487 SPIN=   0.00000
  Li   0.2666256  -0.1627205  -0.0898513 SPIN=   0.00000
  Li  -0.2666256   0.3372795   0.4101487 SPIN=   0.00000
  Li  -0.2666256   0.1627205   0.0898513 SPIN=   0.00000
  Fe  -0.2493520  -0.1970824   0.4817043 SPIN=   4.00000
  Fe  -0.2493520  -0.3029176   0.0182957 SPIN=   4.00000
  Fe   0.2493520   0.1970824  -0.4817043 SPIN=   4.00000
  Fe   0.2493520   0.3029176  -0.0182957 SPIN=   4.00000
   O  -0.2750214   0.5962395  -0.2183431 SPIN=   0.00000
   O  -0.1123671   0.2748095  -0.3567875 SPIN=   0.00000
   O  -0.1019673   0.6000550  -0.4164286 SPIN=   0.00000
   O  -0.5076146   0.4281332  -0.4045968 SPIN=   0.00000
   S  -0.2492426   0.4748093  -0.3490390 SPIN=   0.00000
   O  -0.2750214  -0.0962395  -0.2816569 SPIN=   0.00000
   O  -0.1123671   0.2251905  -0.1432125 SPIN=   0.00000
   O  -0.1019673  -0.1000550  -0.0835714 SPIN=   0.00000
   O  -0.5076146   0.0718668  -0.0954032 SPIN=   0.00000
   S  -0.2492426   0.0251907  -0.1509610 SPIN=   0.00000
   O   0.2750214  -0.5962395   0.2183431 SPIN=   0.00000
   O   0.1123671  -0.2748095   0.3567875 SPIN=   0.00000
   O   0.1019673  -0.6000550   0.4164286 SPIN=   0.00000
   O   0.5076146  -0.4281332   0.4045968 SPIN=   0.00000
   S   0.2492426  -0.4748093   0.3490390 SPIN=   0.00000
   O   0.2750214   0.0962395   0.2816569 SPIN=   0.00000
   O   0.1123671  -0.2251905   0.1432125 SPIN=   0.00000
   O   0.1019673   0.1000550   0.0835714 SPIN=   0.00000
   O   0.5076146  -0.0718668   0.0954032 SPIN=   0.00000
   S   0.2492426  -0.0251907   0.1509610 SPIN=   0.00000
   F  -0.2508950   0.0267043   0.3788125 SPIN=   0.00000
   F  -0.2508950   0.4732957   0.1211875 SPIN=   0.00000
   F   0.2508950  -0.0267043  -0.3788125 SPIN=   0.00000
   F   0.2508950  -0.4732957  -0.1211875 SPIN=   0.00000
%ENDBLOCK POSITIONS_FRAC

# Note: total spin =  16.00

KPOINTS_MP_SPACING 0.07

%BLOCK SPECIES_POT
QC5
%ENDBLOCK SPECIES_POT

SNAP_TO_SYMMETRY
SYMMETRY_GENERATE

