#              Generated by Buildcell
#
# at 08:58:02 (GMT+1.0) 4th August 2020
# in /lustre/scratch/uccabz1/launch_tmp
# on node-c12l-009
# by uccabz1
#
# compiler GCC version 4.9.2
# options -cpp -iprefix /lustre/shared/ucl/apps/gcc/4.9.2/bin/../lib/gcc/x86_64-unknown-linux-gnu/4.9.2/ -mtune=corei7 -march=x86-64 -g -Og
#
# seed -1193770712  -807985393  1586276570 -2019703248  2089465307 -1876538959   352425882 -2051785736  -100094576 -1104128476   188308628  1840844782
#
#      Author: C. J. Pickard (cjp20@cam.ac.uk)
#                Space group: Pcc2
#

%BLOCK LATTICE_ABC
      4.07170      7.40206     13.27185
     90.00000     90.00000     90.00000
%ENDBLOCK LATTICE_ABC

%BLOCK POSITIONS_FRAC
  Li  -0.2994565   0.4726779  -0.2265827 SPIN=   0.00000
  Li   0.2994565   0.4726779   0.2265827 SPIN=   0.00000
  Li   0.2994565  -0.0273221  -0.2265827 SPIN=   0.00000
  Li  -0.2994565  -0.0273221   0.2265827 SPIN=   0.00000
  Fe  -0.2426037   0.0709551  -0.3838771 SPIN=   4.00000
  Fe   0.2426037   0.0709551   0.3838771 SPIN=   4.00000
  Fe   0.2426037  -0.4290449  -0.3838771 SPIN=   4.00000
  Fe  -0.2426037  -0.4290449   0.3838771 SPIN=   4.00000
   O   0.3232630   0.1532772   0.2350330 SPIN=   0.00000
   O   0.2111292  -0.0130392   0.0769654 SPIN=   0.00000
   O   0.3165033   0.3161361   0.0721877 SPIN=   0.00000
   O  -0.2019146   0.1999383   0.1448331 SPIN=   0.00000
   S   0.1622452   0.1640781   0.1322548 SPIN=   0.00000
   O  -0.3232630   0.1532772  -0.2350330 SPIN=   0.00000
   O  -0.2111292  -0.0130392  -0.0769654 SPIN=   0.00000
   O  -0.3165033   0.3161361  -0.0721877 SPIN=   0.00000
   O   0.2019146   0.1999383  -0.1448331 SPIN=   0.00000
   S  -0.1622452   0.1640781  -0.1322548 SPIN=   0.00000
   O  -0.3232630  -0.3467228   0.2350330 SPIN=   0.00000
   O  -0.2111292  -0.5130392   0.0769654 SPIN=   0.00000
   O  -0.3165033  -0.1838639   0.0721877 SPIN=   0.00000
   O   0.2019146  -0.3000617   0.1448331 SPIN=   0.00000
   S  -0.1622452  -0.3359219   0.1322548 SPIN=   0.00000
   O   0.3232630  -0.3467228  -0.2350330 SPIN=   0.00000
   O   0.2111292  -0.5130392  -0.0769654 SPIN=   0.00000
   O   0.3165033  -0.1838639  -0.0721877 SPIN=   0.00000
   O  -0.2019146  -0.3000617  -0.1448331 SPIN=   0.00000
   S   0.1622452  -0.3359219  -0.1322548 SPIN=   0.00000
   F   0.2551667  -0.0295031  -0.3650929 SPIN=   0.00000
   F  -0.2551667  -0.0295031   0.3650929 SPIN=   0.00000
   F  -0.2551667   0.4704969  -0.3650929 SPIN=   0.00000
   F   0.2551667   0.4704969   0.3650929 SPIN=   0.00000
%ENDBLOCK POSITIONS_FRAC

# Note: total spin =  16.00

KPOINTS_MP_SPACING 0.07

%BLOCK SPECIES_POT
QC5
%ENDBLOCK SPECIES_POT

SNAP_TO_SYMMETRY
SYMMETRY_GENERATE

