#              Generated by Buildcell
#
# at 03:02:58 (GMT+1.0) 18th August 2020
# in /lustre/scratch/uccabz1/launch_tmp
# on node-c12n-023
# by uccabz1
#
# compiler GCC version 4.9.2
# options -cpp -iprefix /lustre/shared/ucl/apps/gcc/4.9.2/bin/../lib/gcc/x86_64-unknown-linux-gnu/4.9.2/ -mtune=corei7 -march=x86-64 -g -Og
#
# seed -1512536340 -2024487226  -517862186   623063676    21743571   640927161 -1326035164   281058998   358254833  1834776919  1071752258  1794299647
#
#      Author: C. J. Pickard (cjp20@cam.ac.uk)
#                Space group: P21
#

%BLOCK LATTICE_ABC
      6.14247      6.60734     10.78292
     90.00000     90.00000    113.93367
%ENDBLOCK LATTICE_ABC

%BLOCK POSITIONS_FRAC
  Li   0.0741962   0.1590343   0.4518348 SPIN=   0.00000
  Li  -0.0741962  -0.1590343  -0.0481652 SPIN=   0.00000
  Li   0.3547026   0.3939358   0.0433952 SPIN=   0.00000
  Li  -0.3547026  -0.3939358  -0.4566048 SPIN=   0.00000
  Fe  -0.5591560  -0.2693307  -0.1562818 SPIN=   5.06883
  Fe   0.5591560   0.2693307   0.3437182 SPIN=   5.06883
  Fe   0.1570635  -0.3069252   0.4619872 SPIN=   2.93117
  Fe  -0.1570635   0.3069252  -0.0380128 SPIN=   2.93117
   O  -0.0452949   0.1005461   0.2091113 SPIN=   0.00000
   O  -0.0682342   0.4086877   0.3309887 SPIN=   0.00000
   O   0.0954890   0.4758801   0.1179146 SPIN=   0.00000
   O   0.3235147   0.4000605   0.2874760 SPIN=   0.00000
   S   0.0763686   0.3462936   0.2363726 SPIN=   0.00000
   O   0.0452949  -0.1005461  -0.2908887 SPIN=   0.00000
   O   0.0682342  -0.4086877  -0.1690113 SPIN=   0.00000
   O  -0.0954890  -0.4758801  -0.3820854 SPIN=   0.00000
   O  -0.3235147  -0.4000605  -0.2125240 SPIN=   0.00000
   S  -0.0763686  -0.3462936  -0.2636274 SPIN=   0.00000
   O  -0.2283396   0.1909162  -0.4926659 SPIN=   0.00000
   O  -0.3310339  -0.1290731  -0.3508319 SPIN=   0.00000
   O  -0.6491114  -0.0299086  -0.4358173 SPIN=   0.00000
   O  -0.3681362   0.2116587  -0.2797011 SPIN=   0.00000
   S  -0.3941553   0.0608983  -0.3897540 SPIN=   0.00000
   O   0.2283396  -0.1909162   0.0073341 SPIN=   0.00000
   O   0.3310339   0.1290731   0.1491681 SPIN=   0.00000
   O   0.6491114   0.0299086   0.0641827 SPIN=   0.00000
   O   0.3681362  -0.2116587   0.2202989 SPIN=   0.00000
   S   0.3941553  -0.0608983   0.1102460 SPIN=   0.00000
   F   0.2952219   0.4289883  -0.4392056 SPIN=   0.00000
   F  -0.2952219  -0.4289883   0.0607944 SPIN=   0.00000
   F  -0.0619176  -0.1832937   0.4058499 SPIN=   0.00000
   F   0.0619176   0.1832937  -0.0941501 SPIN=   0.00000
%ENDBLOCK POSITIONS_FRAC

# Note: total spin =  16.00

KPOINTS_MP_SPACING 0.07

%BLOCK SPECIES_POT
QC5
%ENDBLOCK SPECIES_POT

SNAP_TO_SYMMETRY
SYMMETRY_GENERATE

