#              Generated by Buildcell
#
# at 07:36:04 (GMT+1.0) 4th August 2020
# in /lustre/scratch/uccabz1/launch_tmp
# on node-c12a-005
# by uccabz1
#
# compiler GCC version 4.9.2
# options -cpp -iprefix /lustre/shared/ucl/apps/gcc/4.9.2/bin/../lib/gcc/x86_64-unknown-linux-gnu/4.9.2/ -mtune=corei7 -march=x86-64 -g -Og
#
# seed -1444481208  -657014857 -1981698899  -112084235 -1543382634  -676809266   180513181 -1096536818  1615176665 -1773453233  -305965305  1984003700
#
#      Author: C. J. Pickard (cjp20@cam.ac.uk)
#                Space group: C2
#

%BLOCK LATTICE_ABC
      6.93275      6.93275      8.55974
     84.45794     84.45794     78.49995
%ENDBLOCK LATTICE_ABC

%BLOCK POSITIONS_FRAC
  Li  -0.1311065   0.4787225   0.4407399 SPIN=   0.00000
  Li  -0.4787225   0.1311065  -0.4407399 SPIN=   0.00000
  Li   0.0425756  -0.0425756  -0.0000000 SPIN=   0.00000
  Li   0.3250450  -0.3250450  -0.5000000 SPIN=   0.00000
  Fe  -0.2538361  -0.1073048   0.2950811 SPIN=   3.25133
  Fe   0.1073048   0.2538361  -0.2950811 SPIN=   3.25133
  Fe   0.2292156   0.1622945   0.2851679 SPIN=   4.74867
  Fe  -0.1622945  -0.2292156  -0.2851679 SPIN=   4.74867
   O  -0.0794692  -0.4988602  -0.0721324 SPIN=   0.00000
   O   0.2314587  -0.6712981   0.0387488 SPIN=   0.00000
   O   0.0297332  -0.3811850   0.1623976 SPIN=   0.00000
   O   0.2111767  -0.3375110  -0.0980815 SPIN=   0.00000
   S   0.0982248  -0.4722136   0.0077331 SPIN=   0.00000
   O   0.4988602   0.0794692   0.0721324 SPIN=   0.00000
   O   0.6712981  -0.2314587  -0.0387488 SPIN=   0.00000
   O   0.3811850  -0.0297332  -0.1623976 SPIN=   0.00000
   O   0.3375110  -0.2111767   0.0980815 SPIN=   0.00000
   S   0.4722136  -0.0982248  -0.0077331 SPIN=   0.00000
   O  -0.1871329   0.4057737  -0.3278406 SPIN=   0.00000
   O  -0.4597546   0.5286361  -0.1321753 SPIN=   0.00000
   O  -0.3751503   0.1726545  -0.1749890 SPIN=   0.00000
   O  -0.5333171   0.4120426  -0.3801826 SPIN=   0.00000
   S  -0.3888387   0.3797767  -0.2537969 SPIN=   0.00000
   O  -0.4057737   0.1871329   0.3278406 SPIN=   0.00000
   O  -0.5286361   0.4597546   0.1321753 SPIN=   0.00000
   O  -0.1726545   0.3751503   0.1749890 SPIN=   0.00000
   O  -0.4120426   0.5333171   0.3801826 SPIN=   0.00000
   S  -0.3797767   0.3888387   0.2537969 SPIN=   0.00000
   F   0.0186505  -0.0183834  -0.2948119 SPIN=   0.00000
   F   0.0183834  -0.0186505   0.2948119 SPIN=   0.00000
   F  -0.3895160  -0.1432671  -0.4469550 SPIN=   0.00000
   F   0.1432671   0.3895160   0.4469550 SPIN=   0.00000
%ENDBLOCK POSITIONS_FRAC

# Note: total spin =  16.00

KPOINTS_MP_SPACING 0.07

%BLOCK SPECIES_POT
QC5
%ENDBLOCK SPECIES_POT

SNAP_TO_SYMMETRY
SYMMETRY_GENERATE

