#              Generated by Buildcell
#
# at 22:43:41 (GMT+1.0) 17th August 2020
# in /lustre/scratch/uccabz1/launch_tmp
# on node-c12f-010
# by uccabz1
#
# compiler GCC version 4.9.2
# options -cpp -iprefix /lustre/shared/ucl/apps/gcc/4.9.2/bin/../lib/gcc/x86_64-unknown-linux-gnu/4.9.2/ -mtune=corei7 -march=x86-64 -g -Og
#
# seed  1762210138 -1470511557  -211149281  -954221611 -2142653590     9614545  -755111766  1522689223  -411653595 -1866689527  1443289965 -1910233483
#
#      Author: C. J. Pickard (cjp20@cam.ac.uk)
#                Space group: Cc
#

%BLOCK LATTICE_ABC
      5.76844      5.76844     12.18456
     83.44442     83.44442     87.67498
%ENDBLOCK LATTICE_ABC

%BLOCK POSITIONS_FRAC
  Li  -0.3154979  -0.1230242   0.3150775 SPIN=   0.00000
  Li   0.3769758   0.1845021  -0.1849225 SPIN=   0.00000
  Li   0.4722139  -0.4638862   0.1010506 SPIN=   0.00000
  Li   0.0361138  -0.0277861  -0.3989494 SPIN=   0.00000
  Fe  -0.1252216   0.0348836  -0.1506238 SPIN=   5.49350
  Fe  -0.4651164   0.3747784   0.3493762 SPIN=   5.49350
  Fe  -0.0091095   0.4832376   0.0325225 SPIN=   2.50650
  Fe  -0.0167624   0.4908905  -0.4674775 SPIN=   2.50650
   O  -0.6770770   0.2091289   0.0859452 SPIN=   0.00000
   O  -0.3017004   0.0098324   0.0292760 SPIN=   0.00000
   O  -0.5476453  -0.1456519   0.1994841 SPIN=   0.00000
   O  -0.3430446   0.2246688   0.1953346 SPIN=   0.00000
   S  -0.4673668   0.0744945   0.1275100 SPIN=   0.00000
   O  -0.2908711  -0.1770770  -0.4140548 SPIN=   0.00000
   O  -0.4901676   0.1982996  -0.4707240 SPIN=   0.00000
   O  -0.6456519  -0.0476453  -0.3005159 SPIN=   0.00000
   O  -0.2753312   0.1569554  -0.3046654 SPIN=   0.00000
   S  -0.4255055   0.0326332  -0.3724900 SPIN=   0.00000
   O   0.1377464  -0.1876346   0.4298403 SPIN=   0.00000
   O  -0.1902847   0.0973036   0.4067352 SPIN=   0.00000
   O   0.1335052   0.0789357   0.2558275 SPIN=   0.00000
   O   0.2002080   0.2341430   0.4304218 SPIN=   0.00000
   S   0.0702937   0.0556869   0.3807062 SPIN=   0.00000
   O  -0.6876346  -0.3622536  -0.0701597 SPIN=   0.00000
   O  -0.4026964  -0.6902847  -0.0932648 SPIN=   0.00000
   O  -0.4210643  -0.3664948  -0.2441725 SPIN=   0.00000
   O  -0.2658570  -0.2997920  -0.0695782 SPIN=   0.00000
   S  -0.4443131  -0.4297063  -0.1192938 SPIN=   0.00000
   F   0.2108997  -0.4383872  -0.3743028 SPIN=   0.00000
   F   0.0616128  -0.2891003   0.1256972 SPIN=   0.00000
   F   0.0639697   0.2383975  -0.0888063 SPIN=   0.00000
   F  -0.2616025  -0.4360303   0.4111937 SPIN=   0.00000
%ENDBLOCK POSITIONS_FRAC

# Note: total spin =  16.00

KPOINTS_MP_SPACING 0.07

%BLOCK SPECIES_POT
QC5
%ENDBLOCK SPECIES_POT

SNAP_TO_SYMMETRY
SYMMETRY_GENERATE

