#              Generated by Buildcell
#
# at 03:16:52 (GMT+1.0) 18th August 2020
# in /scratch/scratch/uccabz1/launch_tmp
# on node-k10a-026
# by uccabz1
#
# compiler GCC version 4.9.2
# options -cpp -iprefix /scratch/UCL/applications/gcc/4.9.2/bin/../lib/gcc/x86_64-unknown-linux-gnu/4.9.2/ -mtune=corei7 -march=x86-64 -g -O2
#
# seed -2012446554 -1705754914 -1573143900   845385836   350634201  1209069832  1407873399  1286234855 -1139949658  2077652434   336880627 -1573549873
#
#      Author: C. J. Pickard (cjp20@cam.ac.uk)
#                Space group: P2
#

%BLOCK LATTICE_ABC
      6.59211      7.54256      8.04487
     90.16092     90.00000     90.00000
%ENDBLOCK LATTICE_ABC

%BLOCK POSITIONS_FRAC
  Li  -0.0121928   0.0339829   0.2546507 SPIN=   0.00000
  Li  -0.0121928  -0.0339829  -0.2546507 SPIN=   0.00000
  Li  -0.4785514   0.2507564  -0.0873992 SPIN=   0.00000
  Li  -0.4785514  -0.2507564   0.0873992 SPIN=   0.00000
  Fe  -0.1638660   0.3955784   0.2143182 SPIN=   4.32899
  Fe  -0.1638660  -0.3955784  -0.2143182 SPIN=   4.32899
  Fe   0.2385232   0.2869869  -0.3739493 SPIN=   3.67101
  Fe   0.2385232  -0.2869869   0.3739493 SPIN=   3.67101
   O  -0.1498216   0.3509523  -0.2991828 SPIN=   0.00000
   O  -0.4773332   0.3516755  -0.4495682 SPIN=   0.00000
   O  -0.3284466   0.0682958  -0.3545744 SPIN=   0.00000
   O  -0.1693382   0.2329607  -0.5861033 SPIN=   0.00000
   S  -0.2812349   0.2509711  -0.4223572 SPIN=   0.00000
   O  -0.1498216  -0.3509523   0.2991828 SPIN=   0.00000
   O  -0.4773332  -0.3516755   0.4495682 SPIN=   0.00000
   O  -0.3284466  -0.0682958   0.3545744 SPIN=   0.00000
   O  -0.1693382  -0.2329607   0.5861033 SPIN=   0.00000
   S  -0.2812349  -0.2509711   0.4223572 SPIN=   0.00000
   O   0.3387227   0.1083268   0.2295334 SPIN=   0.00000
   O   0.2024390   0.3651666   0.0747041 SPIN=   0.00000
   O   0.5281989   0.3915525   0.2256813 SPIN=   0.00000
   O   0.2061540   0.3689490   0.3823123 SPIN=   0.00000
   S   0.3188787   0.3084987   0.2280578 SPIN=   0.00000
   O   0.3387227  -0.1083268  -0.2295334 SPIN=   0.00000
   O   0.2024390  -0.3651666  -0.0747041 SPIN=   0.00000
   O   0.5281989  -0.3915525  -0.2256813 SPIN=   0.00000
   O   0.2061540  -0.3689490  -0.3823123 SPIN=   0.00000
   S   0.3188787  -0.3084987  -0.2280578 SPIN=   0.00000
   F   0.1554039  -0.1767329   0.1784276 SPIN=   0.00000
   F   0.1554039   0.1767329  -0.1784276 SPIN=   0.00000
   F  -0.2370579  -0.5000000   0.0000000 SPIN=   0.00000
   F  -0.3461735  -0.0000000   0.0000000 SPIN=   0.00000
%ENDBLOCK POSITIONS_FRAC

# Note: total spin =  16.00

KPOINTS_MP_SPACING 0.07

%BLOCK SPECIES_POT
QC5
%ENDBLOCK SPECIES_POT

SNAP_TO_SYMMETRY
SYMMETRY_GENERATE

