#              Generated by Buildcell
#
# at 07:50:38 (GMT+1.0) 4th August 2020
# in /lustre/scratch/uccabz1/launch_tmp
# on node-c12m-018
# by uccabz1
#
# compiler GCC version 4.9.2
# options -cpp -iprefix /lustre/shared/ucl/apps/gcc/4.9.2/bin/../lib/gcc/x86_64-unknown-linux-gnu/4.9.2/ -mtune=corei7 -march=x86-64 -g -Og
#
# seed    55574594 -1240050138 -1538853034   226187941   329687418    35767269   207192064  -276358124 -1688297413  1809367686    -6707629  -281100517
#
#      Author: C. J. Pickard (cjp20@cam.ac.uk)
#                Space group: Cmc21
#

%BLOCK LATTICE_ABC
      6.80970      7.99673      8.11809
     90.00000     90.00000    115.20007
%ENDBLOCK LATTICE_ABC

%BLOCK POSITIONS_FRAC
  Li  -0.0780535   0.3928599  -0.2747149 SPIN=   0.00000
  Li   0.0780535  -0.3928599   0.2252851 SPIN=   0.00000
  Li   0.4709134   0.3928599   0.2252851 SPIN=   0.00000
  Li  -0.4709134  -0.3928599  -0.2747149 SPIN=   0.00000
  Fe  -0.1747020  -0.2562702   0.4384733 SPIN=   4.00000
  Fe   0.1747020   0.2562702  -0.0615267 SPIN=   4.00000
  Fe  -0.0815682  -0.2562702  -0.0615267 SPIN=   4.00000
  Fe   0.0815682   0.2562702   0.4384733 SPIN=   4.00000
   O   0.3637434  -0.2319804   0.6677641 SPIN=   0.00000
   O   0.2766187  -0.4632152   0.4444017 SPIN=   0.00000
   O   0.5858275  -0.1560332   0.4137839 SPIN=   0.00000
   O   0.2093140  -0.1851138   0.4052103 SPIN=   0.00000
   S   0.3588759  -0.2590857   0.4827900 SPIN=   0.00000
   O  -0.3637434   0.2319804   0.1677641 SPIN=   0.00000
   O  -0.2766187   0.4632152  -0.0555983 SPIN=   0.00000
   O  -0.5858275   0.1560332  -0.0862161 SPIN=   0.00000
   O  -0.2093140   0.1851138  -0.0947897 SPIN=   0.00000
   S  -0.3588759   0.2590857  -0.0172100 SPIN=   0.00000
   O   0.4042763  -0.2319804   0.1677641 SPIN=   0.00000
   O   0.2601661  -0.4632152  -0.0555983 SPIN=   0.00000
   O   0.2581393  -0.1560332  -0.0862161 SPIN=   0.00000
   O   0.6055722  -0.1851138  -0.0947897 SPIN=   0.00000
   S   0.3820385  -0.2590857  -0.0172100 SPIN=   0.00000
   O  -0.4042763   0.2319804   0.6677641 SPIN=   0.00000
   O  -0.2601661   0.4632152   0.4444017 SPIN=   0.00000
   O  -0.2581393   0.1560332   0.4137839 SPIN=   0.00000
   O  -0.6055722   0.1851138   0.4052103 SPIN=   0.00000
   S  -0.3820385   0.2590857   0.4827900 SPIN=   0.00000
   F   0.1439181   0.2798253  -0.3049609 SPIN=   0.00000
   F  -0.1439181  -0.2798253   0.1950391 SPIN=   0.00000
   F   0.1359072   0.2798253   0.1950391 SPIN=   0.00000
   F  -0.1359072  -0.2798253  -0.3049609 SPIN=   0.00000
%ENDBLOCK POSITIONS_FRAC

# Note: total spin =  16.00

KPOINTS_MP_SPACING 0.07

%BLOCK SPECIES_POT
QC5
%ENDBLOCK SPECIES_POT

SNAP_TO_SYMMETRY
SYMMETRY_GENERATE

