#              Generated by Buildcell
#
# at 07:21:32 (GMT+1.0) 4th August 2020
# in /lustre/scratch/uccabz1/launch_tmp
# on node-c12k-007
# by uccabz1
#
# compiler GCC version 4.9.2
# options -cpp -iprefix /lustre/shared/ucl/apps/gcc/4.9.2/bin/../lib/gcc/x86_64-unknown-linux-gnu/4.9.2/ -mtune=corei7 -march=x86-64 -g -Og
#
# seed -1271558295 -1530805402  1218595143 -1299507255 -1199169535   -87265785  -320501847 -1117665741   557286855 -1753591819 -1770007072 -2117740973
#
#      Author: C. J. Pickard (cjp20@cam.ac.uk)
#                Space group: C2
#

%BLOCK LATTICE_ABC
      3.88183     10.37315     10.37315
     74.07740     85.83225     85.83225
%ENDBLOCK LATTICE_ABC

%BLOCK POSITIONS_FRAC
  Li   0.3941379   0.1001388   0.3979374 SPIN=   0.00000
  Li  -0.3941379  -0.3979374  -0.1001388 SPIN=   0.00000
  Li  -0.2514627  -0.2501478   0.4504374 SPIN=   0.00000
  Li   0.2514627  -0.4504374   0.2501478 SPIN=   0.00000
  Fe   0.1433529  -0.4461114  -0.3373918 SPIN=   1.48689
  Fe  -0.1433529   0.3373918   0.4461114 SPIN=   1.48689
  Fe  -0.2174569   0.0113006  -0.2049106 SPIN=   6.51311
  Fe   0.2174569   0.2049106  -0.0113006 SPIN=   6.51311
   O   0.6402210  -0.0753540  -0.4856961 SPIN=   0.00000
   O   0.1686853  -0.2330629  -0.4333805 SPIN=   0.00000
   O   0.0823306  -0.0140149  -0.3804022 SPIN=   0.00000
   O   0.4781416  -0.1917952  -0.2493933 SPIN=   0.00000
   S   0.3423446  -0.1285567  -0.3872180 SPIN=   0.00000
   O  -0.6402210   0.4856961   0.0753540 SPIN=   0.00000
   O  -0.1686853   0.4333805   0.2330629 SPIN=   0.00000
   O  -0.0823306   0.3804022   0.0140149 SPIN=   0.00000
   O  -0.4781416   0.2493933   0.1917952 SPIN=   0.00000
   S  -0.3423446   0.3872180   0.1285567 SPIN=   0.00000
   O  -0.2162922  -0.3279959   0.1106425 SPIN=   0.00000
   O   0.0275547  -0.1165669  -0.0265646 SPIN=   0.00000
   O   0.0908149  -0.3200625  -0.1087646 SPIN=   0.00000
   S   0.0800325  -0.2682473   0.0146784 SPIN=   0.00000
   O   0.2162922  -0.1106425   0.3279959 SPIN=   0.00000
   O  -0.0275547   0.0265646   0.1165669 SPIN=   0.00000
   O  -0.0908149   0.1087646   0.3200625 SPIN=   0.00000
   S  -0.0800325  -0.0146784   0.2682473 SPIN=   0.00000
   O  -0.5000000   0.2684611  -0.2684611 SPIN=   0.00000
   O   0.0000000   0.3546504  -0.3546504 SPIN=   0.00000
   F   0.4154548   0.2437798   0.4918517 SPIN=   0.00000
   F  -0.4154548  -0.4918517  -0.2437798 SPIN=   0.00000
   F   0.5000000   0.0620198  -0.0620198 SPIN=   0.00000
   F   0.5000000  -0.3692158   0.3692158 SPIN=   0.00000
%ENDBLOCK POSITIONS_FRAC

# Note: total spin =  16.00

KPOINTS_MP_SPACING 0.07

%BLOCK SPECIES_POT
QC5
%ENDBLOCK SPECIES_POT

SNAP_TO_SYMMETRY
SYMMETRY_GENERATE

