#              Generated by Buildcell
#
# at 13:46:35 (GMT+1.0) 18th August 2020
# in /lustre/scratch/uccabz1/launch_tmp
# on node-c12k-019
# by uccabz1
#
# compiler GCC version 4.9.2
# options -cpp -iprefix /lustre/shared/ucl/apps/gcc/4.9.2/bin/../lib/gcc/x86_64-unknown-linux-gnu/4.9.2/ -mtune=corei7 -march=x86-64 -g -Og
#
# seed  1493617566  1615731000  1633253127 -2018251503  -794430322   -66295352 -1202012396 -1115593553  1793494339   257444895    22727432  1479901954
#
#      Author: C. J. Pickard (cjp20@cam.ac.uk)
#                Space group: C2
#

%BLOCK LATTICE_ABC
      6.73365      6.87550      9.81128
    108.48142    108.00289     95.58389
%ENDBLOCK LATTICE_ABC

%BLOCK POSITIONS_FRAC
  Li  -0.2028023  -0.2122603   0.0964856 SPIN=   0.00000
  Li   0.2992879   0.3087458   0.0964856 SPIN=   0.00000
  Li   0.4231941   0.0453657   0.5606639 SPIN=   0.00000
  Li   0.1374699   0.5152982   0.5606639 SPIN=   0.00000
  Fe   0.3379715   0.6972189  -0.1019028 SPIN=   4.12373
  Fe  -0.4398743  -0.7991217  -0.1019028 SPIN=   4.12373
  Fe  -0.2136728  -0.2136728  -0.4273455 SPIN=   6.84558
  Fe   0.1529700   0.1529700   0.3059400 SPIN=   0.90697
   O   0.5981634   0.9564206   0.3549450 SPIN=   0.00000
   O   0.4641610   0.5822722   0.3030611 SPIN=   0.00000
   O   0.3072096   0.7370457   0.1092425 SPIN=   0.00000
   O   0.2376281   0.8391910   0.3530177 SPIN=   0.00000
   S   0.4017905   0.7787324   0.2800666 SPIN=   0.00000
   O  -0.2432183  -0.6014756   0.3549450 SPIN=   0.00000
   O  -0.1610999  -0.2792111   0.3030611 SPIN=   0.00000
   O  -0.1979671  -0.6278032   0.1092425 SPIN=   0.00000
   O   0.1153897  -0.4861733   0.3530177 SPIN=   0.00000
   S  -0.1217239  -0.4986658   0.2800666 SPIN=   0.00000
   O  -0.2701654  -0.5573603  -0.2181757 SPIN=   0.00000
   O  -0.0142148  -0.3738367  -0.2953481 SPIN=   0.00000
   O  -0.2881337  -0.1996213  -0.2183568 SPIN=   0.00000
   O  -0.3954259  -0.5010882  -0.4651002 SPIN=   0.00000
   O   0.0519897   0.3391846  -0.2181757 SPIN=   0.00000
   O  -0.2811333   0.0784886  -0.2953481 SPIN=   0.00000
   O   0.0697769  -0.0187356  -0.2183568 SPIN=   0.00000
   O  -0.0696743   0.0359880  -0.4651002 SPIN=   0.00000
   S  -0.0313207  -0.0313207  -0.0626413 SPIN=   0.00000
   S  -0.1639357  -0.6639357  -0.3278714 SPIN=   0.00000
   F   0.4682952   0.4682952   0.9365904 SPIN=   0.00000
   F  -0.4785119  -0.9785119  -0.9570239 SPIN=   0.00000
   F   0.2635470   0.2635470   0.5270941 SPIN=   0.00000
   F   0.3151978   0.8151978   0.6303955 SPIN=   0.00000
%ENDBLOCK POSITIONS_FRAC

# Note: total spin =  16.00

KPOINTS_MP_SPACING 0.07

%BLOCK SPECIES_POT
QC5
%ENDBLOCK SPECIES_POT

SNAP_TO_SYMMETRY
SYMMETRY_GENERATE

