#              Generated by Buildcell
#
# at 10:02:44 (GMT+1.0) 4th August 2020
# in /lustre/scratch/uccabz1/launch_tmp
# on node-c12c-030
# by uccabz1
#
# compiler GCC version 4.9.2
# options -cpp -iprefix /lustre/shared/ucl/apps/gcc/4.9.2/bin/../lib/gcc/x86_64-unknown-linux-gnu/4.9.2/ -mtune=corei7 -march=x86-64 -g -Og
#
# seed -1837490847   827140446    51408057 -1504705231 -1088879253   -27124139  2015408717   272676531  -351419538   -81676180 -1849386520  -494369566
#
#      Author: C. J. Pickard (cjp20@cam.ac.uk)
#                Space group: P21
#

%BLOCK LATTICE_ABC
      7.13551      7.25068      7.74679
     90.00000     93.61659     90.00000
%ENDBLOCK LATTICE_ABC

%BLOCK POSITIONS_FRAC
  Li   0.1234600  -0.0264743  -0.3092095 SPIN=   0.00000
  Li  -0.1234600   0.4735257   0.3092095 SPIN=   0.00000
  Li   0.2001905   0.0549632   0.1760413 SPIN=   0.00000
  Li  -0.2001905  -0.4450368  -0.1760413 SPIN=   0.00000
  Fe  -0.1943440  -0.1529768   0.4542390 SPIN=   3.77905
  Fe   0.1943440   0.3470232  -0.4542390 SPIN=   3.77905
  Fe  -0.4658393   0.0520867  -0.2172030 SPIN=   4.22095
  Fe   0.4658393  -0.4479133   0.2172030 SPIN=   4.22095
   O   0.2490661  -0.2747497  -0.2442439 SPIN=   0.00000
   O   0.5678899  -0.3534428  -0.3293536 SPIN=   0.00000
   O   0.3805416  -0.5850386  -0.1808192 SPIN=   0.00000
   O   0.5089797  -0.3133651  -0.0201715 SPIN=   0.00000
   S   0.4266193  -0.3816491  -0.1936471 SPIN=   0.00000
   O  -0.2490661   0.2252503   0.2442439 SPIN=   0.00000
   O  -0.5678899   0.1465572   0.3293536 SPIN=   0.00000
   O  -0.3805416  -0.0850386   0.1808192 SPIN=   0.00000
   O  -0.5089797   0.1866349   0.0201715 SPIN=   0.00000
   S  -0.4266193   0.1183509   0.1936471 SPIN=   0.00000
   O  -0.1805188  -0.3755071   0.0857717 SPIN=   0.00000
   O  -0.0121761  -0.1224195   0.2438834 SPIN=   0.00000
   O   0.0124489  -0.1562452  -0.0717770 SPIN=   0.00000
   O   0.1659805  -0.3833664   0.1293774 SPIN=   0.00000
   S  -0.0035664  -0.2593845   0.0968139 SPIN=   0.00000
   O   0.1805188   0.1244929  -0.0857717 SPIN=   0.00000
   O   0.0121761   0.3775805  -0.2438834 SPIN=   0.00000
   O  -0.0124489   0.3437548   0.0717770 SPIN=   0.00000
   O  -0.1659805   0.1166336  -0.1293774 SPIN=   0.00000
   S   0.0035664   0.2406155  -0.0968139 SPIN=   0.00000
   F   0.3962063  -0.2716726   0.3748713 SPIN=   0.00000
   F  -0.3962063   0.2283274  -0.3748713 SPIN=   0.00000
   F  -0.0857343  -0.2975725  -0.3685496 SPIN=   0.00000
   F   0.0857343   0.2024275   0.3685496 SPIN=   0.00000
%ENDBLOCK POSITIONS_FRAC

# Note: total spin =  16.00

KPOINTS_MP_SPACING 0.07

%BLOCK SPECIES_POT
QC5
%ENDBLOCK SPECIES_POT

SNAP_TO_SYMMETRY
SYMMETRY_GENERATE

