#              Generated by Buildcell
#
# at 08:41:43 (GMT+1.0) 18th August 2020
# in /lustre/scratch/uccabz1/launch_tmp
# on node-c12a-022
# by uccabz1
#
# compiler GCC version 4.9.2
# options -cpp -iprefix /lustre/shared/ucl/apps/gcc/4.9.2/bin/../lib/gcc/x86_64-unknown-linux-gnu/4.9.2/ -mtune=corei7 -march=x86-64 -g -Og
#
# seed -1276609460  1034685608   361495547   252788273  1728917779   568902481  -603481726  1146149712   754359860 -1045511561  1174237507  -226047952
#
#      Author: C. J. Pickard (cjp20@cam.ac.uk)
#                Space group: C2
#

%BLOCK LATTICE_ABC
      6.29161      6.29161     10.79222
    101.36897    101.36897    100.26184
%ENDBLOCK LATTICE_ABC

%BLOCK POSITIONS_FRAC
  Li  -0.4377565  -0.0507106  -0.4551484 SPIN=   0.00000
  Li   0.0507106   0.4377565   0.4551484 SPIN=   0.00000
  Li   0.1620493  -0.0772037   0.1894843 SPIN=   0.00000
  Li   0.0772037  -0.1620493  -0.1894843 SPIN=   0.00000
  Fe  -0.1778908   0.3582225  -0.1447490 SPIN=   4.11981
  Fe  -0.3582225   0.1778908   0.1447490 SPIN=   4.11981
  Fe   0.4046990  -0.4046990  -0.0000000 SPIN=   3.20601
  Fe  -0.4120661   0.4120661   0.5000000 SPIN=   4.55437
   O  -0.3582876  -0.4050797  -0.2144664 SPIN=   0.00000
   O  -0.6105636  -0.1449173  -0.2107577 SPIN=   0.00000
   O  -0.2575714  -0.0493630  -0.2770161 SPIN=   0.00000
   O  -0.2509558  -0.0490776  -0.0469335 SPIN=   0.00000
   S  -0.3693446  -0.1621094  -0.1872934 SPIN=   0.00000
   O   0.4050797   0.3582876   0.2144664 SPIN=   0.00000
   O   0.1449173   0.6105636   0.2107577 SPIN=   0.00000
   O   0.0493630   0.2575714   0.2770161 SPIN=   0.00000
   O   0.0490776   0.2509558   0.0469335 SPIN=   0.00000
   S   0.1621094   0.3693446   0.1872934 SPIN=   0.00000
   O   0.0927260   0.0521382  -0.3852432 SPIN=   0.00000
   O   0.4930263   0.1753436  -0.2744782 SPIN=   0.00000
   O   0.2206880   0.3646889  -0.1889207 SPIN=   0.00000
   O   0.3092080   0.4141697  -0.3963875 SPIN=   0.00000
   S   0.2789121   0.2515851  -0.3112574 SPIN=   0.00000
   O  -0.0521382  -0.0927260   0.3852432 SPIN=   0.00000
   O  -0.1753436  -0.4930263   0.2744782 SPIN=   0.00000
   O  -0.3646889  -0.2206880   0.1889207 SPIN=   0.00000
   O  -0.4141697  -0.3092080   0.3963875 SPIN=   0.00000
   S  -0.2515851  -0.2789121   0.3112574 SPIN=   0.00000
   F  -0.0759289  -0.4066670  -0.3939792 SPIN=   0.00000
   F   0.4066670   0.0759289   0.3939792 SPIN=   0.00000
   F   0.1806160  -0.1806160  -0.0000000 SPIN=   0.00000
   F  -0.3724676   0.3724676   0.0000000 SPIN=   0.00000
%ENDBLOCK POSITIONS_FRAC

# Note: total spin =  16.00

KPOINTS_MP_SPACING 0.07

%BLOCK SPECIES_POT
QC5
%ENDBLOCK SPECIES_POT

SNAP_TO_SYMMETRY
SYMMETRY_GENERATE

