#              Generated by Buildcell
#
# at 06:03:26 (GMT+1.0) 4th August 2020
# in /lustre/scratch/uccabz1/launch_tmp
# on node-c12f-026
# by uccabz1
#
# compiler GCC version 4.9.2
# options -cpp -iprefix /lustre/shared/ucl/apps/gcc/4.9.2/bin/../lib/gcc/x86_64-unknown-linux-gnu/4.9.2/ -mtune=corei7 -march=x86-64 -g -Og
#
# seed  1805017883 -1640465181  -617635591 -1416567362   837977587   231059195  -475628572  1054686550 -1928662843 -1675521416   255505703  -967402851
#
#      Author: C. J. Pickard (cjp20@cam.ac.uk)
#                Space group: Fdd2
#

%BLOCK LATTICE_ABC
      8.15213      8.15213      8.29703
    118.81489    118.81489     91.08318
%ENDBLOCK LATTICE_ABC

%BLOCK POSITIONS_FRAC
  Li   0.1285394   0.3129228  -0.1990721 SPIN=   0.00000
  Li  -0.3276116   0.4880051  -0.1990721 SPIN=   0.00000
  Li   0.0629228   0.3785394   0.3009279 SPIN=   0.00000
  Li   0.2380051  -0.0776116   0.3009279 SPIN=   0.00000
  Fe   0.2400176   0.1266866   0.0624326 SPIN=   4.00000
  Fe  -0.1775850  -0.0642540   0.0624326 SPIN=   4.00000
  Fe  -0.1233134   0.4900176  -0.4375674 SPIN=   4.00000
  Fe  -0.3142540   0.0724150  -0.4375674 SPIN=   4.00000
   O   0.1146190  -0.3285960   0.4801786 SPIN=   0.00000
   O  -0.0882524  -0.3775405   0.1129109 SPIN=   0.00000
   O  -0.0733247  -0.1016084   0.4360671 SPIN=   0.00000
   O  -0.2513294  -0.4476585   0.2692489 SPIN=   0.00000
   S  -0.0745719  -0.3138509   0.3246014 SPIN=   0.00000
   O   0.3655596  -0.1912253   0.4801786 SPIN=   0.00000
   O   0.2011633  -0.5095486   0.1129109 SPIN=   0.00000
   O   0.5093918  -0.4623245   0.4360671 SPIN=   0.00000
   O   0.5205783  -0.2830926   0.2692489 SPIN=   0.00000
   S   0.3991732  -0.3615478   0.3246014 SPIN=   0.00000
   O   0.4214040   0.3646190  -0.0198214 SPIN=   0.00000
   O   0.3724595   0.1617476  -0.3870891 SPIN=   0.00000
   O   0.6483916   0.1766753  -0.0639329 SPIN=   0.00000
   O   0.3023415  -0.0013294  -0.2307511 SPIN=   0.00000
   S   0.4361491   0.1754281  -0.1753986 SPIN=   0.00000
   O   0.5587747  -0.3844404  -0.0198214 SPIN=   0.00000
   O   0.2404514  -0.5488367  -0.3870891 SPIN=   0.00000
   O   0.2876755  -0.2406082  -0.0639329 SPIN=   0.00000
   O   0.4669074  -0.2294217  -0.2307511 SPIN=   0.00000
   S   0.3884522  -0.3508268  -0.1753986 SPIN=   0.00000
   F   0.4429106   0.1144355   0.3138719 SPIN=   0.00000
   F  -0.1290387   0.1994364   0.3138719 SPIN=   0.00000
   F  -0.1355645  -0.3070894  -0.1861281 SPIN=   0.00000
   F  -0.0505636   0.1209613  -0.1861281 SPIN=   0.00000
%ENDBLOCK POSITIONS_FRAC

# Note: total spin =  16.00

KPOINTS_MP_SPACING 0.07

%BLOCK SPECIES_POT
QC5
%ENDBLOCK SPECIES_POT

SNAP_TO_SYMMETRY
SYMMETRY_GENERATE

