#              Generated by Buildcell
#
# at 05:50:17 (GMT+1.0) 4th August 2020
# in /lustre/scratch/uccabz1/launch_tmp
# on node-c12k-005
# by uccabz1
#
# compiler GCC version 4.9.2
# options -cpp -iprefix /lustre/shared/ucl/apps/gcc/4.9.2/bin/../lib/gcc/x86_64-unknown-linux-gnu/4.9.2/ -mtune=corei7 -march=x86-64 -g -Og
#
# seed   334857367  -309392543 -1801207386 -1422741687   262291246 -1236905455  -618288625  -745364578  1791480480  -149130888  -390795273 -1462428401
#
#      Author: C. J. Pickard (cjp20@cam.ac.uk)
#                Space group: Pcc2
#

%BLOCK LATTICE_ABC
      7.21132      7.40348      7.49220
     90.00000     90.00000     90.00000
%ENDBLOCK LATTICE_ABC

%BLOCK POSITIONS_FRAC
  Li  -0.1130273   0.1343030  -0.2957965 SPIN=   0.00000
  Li  -0.1130273  -0.1343030   0.2957965 SPIN=   0.00000
  Li   0.3869727   0.1343030   0.2957965 SPIN=   0.00000
  Li   0.3869727  -0.1343030  -0.2957965 SPIN=   0.00000
  Fe   0.0512444   0.2660555   0.0769743 SPIN=   4.00000
  Fe   0.0512444  -0.2660555  -0.0769743 SPIN=   4.00000
  Fe  -0.4487556   0.2660555  -0.0769743 SPIN=   4.00000
  Fe  -0.4487556  -0.2660555   0.0769743 SPIN=   4.00000
   O  -0.1387674   0.3544315   0.5413822 SPIN=   0.00000
   O  -0.3327009   0.4041510   0.2733171 SPIN=   0.00000
   O  -0.4016577   0.1496698   0.4769702 SPIN=   0.00000
   O  -0.1208194   0.1415610   0.2872753 SPIN=   0.00000
   S  -0.2484864   0.2624533   0.3947362 SPIN=   0.00000
   O  -0.1387674  -0.3544315  -0.5413822 SPIN=   0.00000
   O  -0.3327009  -0.4041510  -0.2733171 SPIN=   0.00000
   O  -0.4016577  -0.1496698  -0.4769702 SPIN=   0.00000
   O  -0.1208194  -0.1415610  -0.2872753 SPIN=   0.00000
   S  -0.2484864  -0.2624533  -0.3947362 SPIN=   0.00000
   O   0.3612326   0.3544315  -0.5413822 SPIN=   0.00000
   O   0.1672991   0.4041510  -0.2733171 SPIN=   0.00000
   O   0.0983423   0.1496698  -0.4769702 SPIN=   0.00000
   O   0.3791806   0.1415610  -0.2872753 SPIN=   0.00000
   S   0.2515136   0.2624533  -0.3947362 SPIN=   0.00000
   O   0.3612326  -0.3544315   0.5413822 SPIN=   0.00000
   O   0.1672991  -0.4041510   0.2733171 SPIN=   0.00000
   O   0.0983423  -0.1496698   0.4769702 SPIN=   0.00000
   O   0.3791806  -0.1415610   0.2872753 SPIN=   0.00000
   S   0.2515136  -0.2624533   0.3947362 SPIN=   0.00000
   F  -0.1482603   0.2655819  -0.0875011 SPIN=   0.00000
   F  -0.1482603  -0.2655819   0.0875011 SPIN=   0.00000
   F   0.3517397   0.2655819   0.0875011 SPIN=   0.00000
   F   0.3517397  -0.2655819  -0.0875011 SPIN=   0.00000
%ENDBLOCK POSITIONS_FRAC

# Note: total spin =  16.00

KPOINTS_MP_SPACING 0.07

%BLOCK SPECIES_POT
QC5
%ENDBLOCK SPECIES_POT

SNAP_TO_SYMMETRY
SYMMETRY_GENERATE

