#              Generated by Buildcell
#
# at 03:12:54 (GMT+1.0) 18th August 2020
# in /lustre/scratch/uccabz1/launch_tmp
# on node-c12l-020
# by uccabz1
#
# compiler GCC version 4.9.2
# options -cpp -iprefix /lustre/shared/ucl/apps/gcc/4.9.2/bin/../lib/gcc/x86_64-unknown-linux-gnu/4.9.2/ -mtune=corei7 -march=x86-64 -g -Og
#
# seed  -740363730  -534010755  1036992443 -2023979659  -481982807  -963378535   437873743  1169643027   518043566 -1453554772  -671458174  1906238814
#
#      Author: C. J. Pickard (cjp20@cam.ac.uk)
#                Space group: Pc
#

%BLOCK LATTICE_ABC
      4.40857      9.03016     10.06536
     93.39490     90.00000     90.00000
%ENDBLOCK LATTICE_ABC

%BLOCK POSITIONS_FRAC
  Li   0.0395383  -0.4810784   0.2488591 SPIN=   0.00000
  Li  -0.0395383   0.0189216  -0.2511409 SPIN=   0.00000
  Li  -0.4712219  -0.4912861  -0.4754834 SPIN=   0.00000
  Li   0.4712219   0.0087139   0.0245166 SPIN=   0.00000
  Fe  -0.0343565   0.2423583  -0.0050520 SPIN=   4.04513
  Fe   0.0343565  -0.2576417   0.4949480 SPIN=   4.04513
  Fe   0.0752833  -0.2461583  -0.0823033 SPIN=   3.95487
  Fe  -0.0752833   0.2538417   0.4176967 SPIN=   3.95487
   O   0.0756684   0.0477329  -0.4628520 SPIN=   0.00000
   O   0.5182228  -0.1115148  -0.4208696 SPIN=   0.00000
   O   0.5046123   0.1478574  -0.3266912 SPIN=   0.00000
   O   0.5691286   0.0960365  -0.5692458 SPIN=   0.00000
   S   0.4169080   0.0450280  -0.4449146 SPIN=   0.00000
   O  -0.0756684  -0.4522671   0.0371480 SPIN=   0.00000
   O  -0.5182228  -0.6115148   0.0791304 SPIN=   0.00000
   O  -0.5046123  -0.3521426   0.1733088 SPIN=   0.00000
   O  -0.5691286  -0.4039635  -0.0692458 SPIN=   0.00000
   S  -0.4169080  -0.4549720   0.0550854 SPIN=   0.00000
   O  -0.3528648  -0.1109689   0.2666022 SPIN=   0.00000
   O   0.0784382  -0.2034872   0.1278759 SPIN=   0.00000
   O   0.1641761  -0.0137448   0.3116545 SPIN=   0.00000
   O  -0.1098172   0.0526035   0.1089645 SPIN=   0.00000
   S  -0.0550169  -0.0688994   0.2037743 SPIN=   0.00000
   O   0.3528648   0.3890311  -0.2333978 SPIN=   0.00000
   O  -0.0784382   0.2965128  -0.3721241 SPIN=   0.00000
   O  -0.1641761   0.4862552  -0.1883455 SPIN=   0.00000
   O   0.1098172   0.5526035  -0.3910355 SPIN=   0.00000
   S   0.0550169   0.4311006  -0.2962257 SPIN=   0.00000
   F  -0.2937119  -0.3564411   0.4249530 SPIN=   0.00000
   F   0.2937119   0.1435589  -0.0750470 SPIN=   0.00000
   F  -0.2291225  -0.2088197  -0.1976828 SPIN=   0.00000
   F   0.2291225   0.2911803   0.3023172 SPIN=   0.00000
%ENDBLOCK POSITIONS_FRAC

# Note: total spin =  16.00

KPOINTS_MP_SPACING 0.07

%BLOCK SPECIES_POT
QC5
%ENDBLOCK SPECIES_POT

SNAP_TO_SYMMETRY
SYMMETRY_GENERATE

