#              Generated by Buildcell
#
# at 23:29:11 (GMT+1.0) 17th August 2020
# in /scratch/scratch/uccabz1/launch_tmp
# on node-k10h-025
# by uccabz1
#
# compiler GCC version 4.9.2
# options -cpp -iprefix /scratch/UCL/applications/gcc/4.9.2/bin/../lib/gcc/x86_64-unknown-linux-gnu/4.9.2/ -mtune=corei7 -march=x86-64 -g -O2
#
# seed  1783282585  1688540392 -2127676621  1782709222 -1265379995 -1703601505  -728898469  -179839215  -640979288  1881621077  1238863290   633527816
#
#      Author: C. J. Pickard (cjp20@cam.ac.uk)
#                Space group: Pc
#

%BLOCK LATTICE_ABC
      5.86187      7.96377      9.00730
     90.00000    107.95769     90.00000
%ENDBLOCK LATTICE_ABC

%BLOCK POSITIONS_FRAC
  Li   0.3667262  -0.2377719  -0.3958761 SPIN=   0.00000
  Li  -0.1332738   0.2377719   0.1041239 SPIN=   0.00000
  Li   0.0373887  -0.2399463  -0.0025980 SPIN=   0.00000
  Li  -0.4626113   0.2399463   0.4974020 SPIN=   0.00000
  Fe   0.1301661   0.3708219  -0.3991794 SPIN=   3.09595
  Fe  -0.3698339  -0.3708219   0.1008206 SPIN=   3.09595
  Fe   0.1934148  -0.0171963   0.3092988 SPIN=   4.90405
  Fe  -0.3065852   0.0171963  -0.1907012 SPIN=   4.90405
   O  -0.0229738  -0.3464330   0.2831133 SPIN=   0.00000
   O   0.1537618  -0.6093858   0.2212501 SPIN=   0.00000
   O   0.3647476  -0.4488747   0.4592714 SPIN=   0.00000
   O   0.3407861  -0.3357984   0.1989651 SPIN=   0.00000
   S   0.2090804  -0.4351230   0.2906500 SPIN=   0.00000
   O  -0.5229738   0.3464330  -0.2168867 SPIN=   0.00000
   O  -0.3462382   0.6093858  -0.2787499 SPIN=   0.00000
   O  -0.1352524   0.4488747  -0.0407286 SPIN=   0.00000
   O  -0.1592139   0.3357984  -0.3010349 SPIN=   0.00000
   S  -0.2909196   0.4351230  -0.2093500 SPIN=   0.00000
   O   0.0431809   0.1846154  -0.0619191 SPIN=   0.00000
   O   0.3740002   0.1361929   0.1825500 SPIN=   0.00000
   O   0.3815631   0.3851086   0.0196334 SPIN=   0.00000
   O   0.4444647   0.1013694  -0.0728364 SPIN=   0.00000
   S   0.3108022   0.2018216   0.0168569 SPIN=   0.00000
   O  -0.4568191  -0.1846154  -0.5619191 SPIN=   0.00000
   O  -0.1259998  -0.1361929  -0.3174500 SPIN=   0.00000
   O  -0.1184369  -0.3851086  -0.4803666 SPIN=   0.00000
   O  -0.0555353  -0.1013694  -0.5728364 SPIN=   0.00000
   S  -0.1891978  -0.2018216  -0.4831431 SPIN=   0.00000
   F   0.2568287  -0.3085790  -0.1084853 SPIN=   0.00000
   F  -0.2431713   0.3085790   0.3915147 SPIN=   0.00000
   F  -0.1369777  -0.0609549   0.1157704 SPIN=   0.00000
   F   0.3630223   0.0609549  -0.3842296 SPIN=   0.00000
%ENDBLOCK POSITIONS_FRAC

# Note: total spin =  16.00

KPOINTS_MP_SPACING 0.07

%BLOCK SPECIES_POT
QC5
%ENDBLOCK SPECIES_POT

SNAP_TO_SYMMETRY
SYMMETRY_GENERATE

