#              Generated by Buildcell
#
# at 07:48:12 (GMT+1.0) 4th August 2020
# in /lustre/scratch/uccabz1/launch_tmp
# on node-c12g-001
# by uccabz1
#
# compiler GCC version 4.9.2
# options -cpp -iprefix /lustre/shared/ucl/apps/gcc/4.9.2/bin/../lib/gcc/x86_64-unknown-linux-gnu/4.9.2/ -mtune=corei7 -march=x86-64 -g -Og
#
# seed -1539986848  1765146142 -1119180430 -1922321296  -291712157 -1661874124 -1520724845   693803735  -119725015  1692229420  2021270598 -1365134213
#
#      Author: C. J. Pickard (cjp20@cam.ac.uk)
#                Space group: P-1
#

%BLOCK LATTICE_ABC
      4.18652      9.52301     10.55091
    107.19774     94.98799     90.69747
%ENDBLOCK LATTICE_ABC

%BLOCK POSITIONS_FRAC
  Li   0.0826360   0.1143537  -0.1676814 SPIN=   0.00000
  Li  -0.0826360  -0.1143537   0.1676814 SPIN=   0.00000
  Li   0.5000000   0.5000000   0.0000000 SPIN=   0.00000
  Li  -0.5000000   0.0000000   0.5000000 SPIN=   0.00000
  Fe  -0.4524128   0.3441557  -0.3148833 SPIN=   5.58683
  Fe   0.4524128  -0.3441557   0.3148833 SPIN=   5.58683
  Fe   0.4299527   0.1133513   0.1929801 SPIN=   2.41317
  Fe  -0.4299527  -0.1133513  -0.1929801 SPIN=   2.41317
   O  -0.4468686   0.3696206   0.1229328 SPIN=   0.00000
   O   0.0484261   0.2340926   0.1386747 SPIN=   0.00000
   O  -0.0454052   0.4605141   0.3181542 SPIN=   0.00000
   O   0.0768771   0.4763872   0.0973719 SPIN=   0.00000
   S  -0.0917426   0.3851536   0.1692834 SPIN=   0.00000
   O   0.4468686  -0.3696206  -0.1229328 SPIN=   0.00000
   O  -0.0484261  -0.2340926  -0.1386747 SPIN=   0.00000
   O   0.0454052  -0.4605141  -0.3181542 SPIN=   0.00000
   O  -0.0768771  -0.4763872  -0.0973719 SPIN=   0.00000
   S   0.0917426  -0.3851536  -0.1692834 SPIN=   0.00000
   O   0.1361865   0.2516206   0.3601590 SPIN=   0.00000
   O   0.0981505   0.2407820   0.5898742 SPIN=   0.00000
   O   0.0839405   0.0106904   0.4026042 SPIN=   0.00000
   O  -0.3767906   0.1737867   0.4240758 SPIN=   0.00000
   S  -0.0146283   0.1692199   0.4441783 SPIN=   0.00000
   O  -0.1361865  -0.2516206  -0.3601590 SPIN=   0.00000
   O  -0.0981505  -0.2407820  -0.5898742 SPIN=   0.00000
   O  -0.0839405  -0.0106904  -0.4026042 SPIN=   0.00000
   O   0.3767906  -0.1737867  -0.4240758 SPIN=   0.00000
   S   0.0146283  -0.1692199  -0.4441783 SPIN=   0.00000
   F  -0.2541497   0.2226847  -0.1959348 SPIN=   0.00000
   F   0.2541497  -0.2226847   0.1959348 SPIN=   0.00000
   F  -0.5000000  -0.5000000   0.5000000 SPIN=   0.00000
   F   0.5000000   0.0000000   0.0000000 SPIN=   0.00000
%ENDBLOCK POSITIONS_FRAC

# Note: total spin =  16.00

KPOINTS_MP_SPACING 0.07

%BLOCK SPECIES_POT
QC5
%ENDBLOCK SPECIES_POT

SNAP_TO_SYMMETRY
SYMMETRY_GENERATE

