#              Generated by Buildcell
#
# at 08:41:44 (GMT+1.0) 4th August 2020
# in /lustre/scratch/uccabz1/launch_tmp
# on node-c12k-035
# by uccabz1
#
# compiler GCC version 4.9.2
# options -cpp -iprefix /lustre/shared/ucl/apps/gcc/4.9.2/bin/../lib/gcc/x86_64-unknown-linux-gnu/4.9.2/ -mtune=corei7 -march=x86-64 -g -Og
#
# seed  1364541473  2054648626   803975164  1191554597   -40568934   239918871 -1211489738   418588662  -860352544  1571942069  -276068041   822798548
#
#      Author: C. J. Pickard (cjp20@cam.ac.uk)
#                Space group: Iba2
#

%BLOCK LATTICE_ABC
      6.29000      8.34489      9.23979
    116.84468    109.89978     90.00000
%ENDBLOCK LATTICE_ABC

%BLOCK POSITIONS_FRAC
  Li   0.3512778  -0.1852447   0.3958037 SPIN=   0.00000
  Li  -0.0445259   0.1852447  -0.3958037 SPIN=   0.00000
  Li   0.4554741   0.4189516  -0.3958037 SPIN=   0.00000
  Li  -0.1487222  -0.4189516   0.3958037 SPIN=   0.00000
  Fe   0.2428989  -0.2660368  -0.2781866 SPIN=   4.00000
  Fe  -0.4789145   0.2660368   0.2781866 SPIN=   4.00000
  Fe   0.0210855   0.0121498   0.2781866 SPIN=   4.00000
  Fe  -0.2571011  -0.0121498  -0.2781866 SPIN=   4.00000
   O   0.4379595   0.3572371  -0.1037420 SPIN=   0.00000
   O   0.0817200   0.1557542  -0.1850860 SPIN=   0.00000
   O   0.4554412   0.1329616   0.0043288 SPIN=   0.00000
   O   0.3716560   0.0266724  -0.3098585 SPIN=   0.00000
   S   0.3366942   0.1681563  -0.1485894 SPIN=   0.00000
   O   0.5417014  -0.3572371   0.1037420 SPIN=   0.00000
   O   0.2668060  -0.1557542   0.1850860 SPIN=   0.00000
   O   0.4511124  -0.1329616  -0.0043288 SPIN=   0.00000
   O   0.6815146  -0.0266724   0.3098585 SPIN=   0.00000
   S   0.4852836  -0.1681563   0.1485894 SPIN=   0.00000
   O   0.0417014   0.4609791   0.1037420 SPIN=   0.00000
   O  -0.2331940   0.3408402   0.1850860 SPIN=   0.00000
   O  -0.0488876   0.1286328  -0.0043288 SPIN=   0.00000
   O   0.1815146   0.3365310   0.3098585 SPIN=   0.00000
   S  -0.0147164   0.3167458   0.1485894 SPIN=   0.00000
   O  -0.0620405  -0.4609791  -0.1037420 SPIN=   0.00000
   O  -0.4182800  -0.3408402  -0.1850860 SPIN=   0.00000
   O  -0.0445588  -0.1286328   0.0043288 SPIN=   0.00000
   O  -0.1283440  -0.3365310  -0.3098585 SPIN=   0.00000
   S  -0.1633058  -0.3167458  -0.1485894 SPIN=   0.00000
   F   0.1658469   0.4189560  -0.3720643 SPIN=   0.00000
   F  -0.4620889  -0.4189560   0.3720643 SPIN=   0.00000
   F   0.0379111  -0.2089797   0.3720643 SPIN=   0.00000
   F  -0.3341531   0.2089797  -0.3720643 SPIN=   0.00000
%ENDBLOCK POSITIONS_FRAC

# Note: total spin =  16.00

KPOINTS_MP_SPACING 0.07

%BLOCK SPECIES_POT
QC5
%ENDBLOCK SPECIES_POT

SNAP_TO_SYMMETRY
SYMMETRY_GENERATE

