#              Generated by Buildcell
#
# at 07:41:25 (GMT+1.0) 4th August 2020
# in /lustre/scratch/uccabz1/launch_tmp
# on node-c12l-013
# by uccabz1
#
# compiler GCC version 4.9.2
# options -cpp -iprefix /lustre/shared/ucl/apps/gcc/4.9.2/bin/../lib/gcc/x86_64-unknown-linux-gnu/4.9.2/ -mtune=corei7 -march=x86-64 -g -Og
#
# seed  2112117798  -753201135  -637127423   366409789  2072623248   763562094 -1595129731 -1855977519   166275030  2107687963  1967582201  1034209023
#
#      Author: C. J. Pickard (cjp20@cam.ac.uk)
#                Space group: P21
#

%BLOCK LATTICE_ABC
      5.30639      6.55844     11.74041
     90.00000     90.00000    101.76634
%ENDBLOCK LATTICE_ABC

%BLOCK POSITIONS_FRAC
  Li   0.2968953  -0.2836660   0.4584769 SPIN=   0.00000
  Li  -0.2968953   0.2836660  -0.0415231 SPIN=   0.00000
  Li  -0.4355584   0.1985269  -0.3499319 SPIN=   0.00000
  Li   0.4355584  -0.1985269   0.1500681 SPIN=   0.00000
  Fe  -0.2341544  -0.2437898  -0.3949692 SPIN=   2.82063
  Fe   0.2341544   0.2437898   0.1050308 SPIN=   2.82063
  Fe   0.4841296  -0.2571265  -0.1011634 SPIN=   5.17937
  Fe  -0.4841296   0.2571265   0.3988366 SPIN=   5.17937
   O   0.1408553  -0.1605278  -0.1068642 SPIN=   0.00000
   O  -0.2233698  -0.0531619  -0.2054153 SPIN=   0.00000
   O   0.2245304   0.1170711  -0.2529825 SPIN=   0.00000
   O   0.0387098   0.1841239  -0.0667120 SPIN=   0.00000
   S   0.0451814   0.0218763  -0.1579935 SPIN=   0.00000
   O  -0.1408553   0.1605278   0.3931358 SPIN=   0.00000
   O   0.2233698   0.0531619   0.2945847 SPIN=   0.00000
   O  -0.2245304  -0.1170711   0.2470175 SPIN=   0.00000
   O  -0.0387098  -0.1841239   0.4332880 SPIN=   0.00000
   S  -0.0451814  -0.0218763   0.3420065 SPIN=   0.00000
   O  -0.0626356  -0.4904034   0.1946325 SPIN=   0.00000
   O   0.0823310  -0.4712879  -0.0061528 SPIN=   0.00000
   O   0.0717941  -0.1477287   0.1005863 SPIN=   0.00000
   O  -0.3354094  -0.3828553   0.0442782 SPIN=   0.00000
   S  -0.0609800  -0.3730688   0.0833360 SPIN=   0.00000
   O   0.0626356   0.4904034  -0.3053675 SPIN=   0.00000
   O  -0.0823310   0.4712879  -0.5061528 SPIN=   0.00000
   O  -0.0717941   0.1477287  -0.3994137 SPIN=   0.00000
   O   0.3354094   0.3828553  -0.4557218 SPIN=   0.00000
   S   0.0609800   0.3730688  -0.4166640 SPIN=   0.00000
   F   0.4350403  -0.0704946  -0.4264875 SPIN=   0.00000
   F  -0.4350403   0.0704946   0.0735125 SPIN=   0.00000
   F  -0.4098966   0.4884321  -0.1958161 SPIN=   0.00000
   F   0.4098966  -0.4884321   0.3041839 SPIN=   0.00000
%ENDBLOCK POSITIONS_FRAC

# Note: total spin =  16.00

KPOINTS_MP_SPACING 0.07

%BLOCK SPECIES_POT
QC5
%ENDBLOCK SPECIES_POT

SNAP_TO_SYMMETRY
SYMMETRY_GENERATE

