#              Generated by Buildcell
#
# at 06:56:33 (GMT+1.0) 4th August 2020
# in /lustre/scratch/uccabz1/launch_tmp
# on node-c12g-010
# by uccabz1
#
# compiler GCC version 4.9.2
# options -cpp -iprefix /lustre/shared/ucl/apps/gcc/4.9.2/bin/../lib/gcc/x86_64-unknown-linux-gnu/4.9.2/ -mtune=corei7 -march=x86-64 -g -Og
#
# seed  -338590805  1092576531 -1222463516   -73020170   777942678   330403867  -767853718   299148900  1627599909  -448515941  -443000263  -620987223
#
#      Author: C. J. Pickard (cjp20@cam.ac.uk)
#                Space group: P2
#

%BLOCK LATTICE_ABC
      4.17516      9.42455     10.36199
    101.17741     90.00000     90.00000
%ENDBLOCK LATTICE_ABC

%BLOCK POSITIONS_FRAC
  Li  -0.4908125  -0.2929795   0.3848976 SPIN=   0.00000
  Li  -0.4908125   0.2929795  -0.3848976 SPIN=   0.00000
  Li   0.3969638   0.2996943   0.2119566 SPIN=   0.00000
  Li   0.3969638  -0.2996943  -0.2119566 SPIN=   0.00000
  Fe  -0.4886862  -0.1710917   0.0636208 SPIN=   3.99664
  Fe  -0.4886862   0.1710917  -0.0636208 SPIN=   3.99664
  Fe  -0.0842928  -0.4725413   0.1823920 SPIN=   4.00336
  Fe  -0.0842928   0.4725413  -0.1823920 SPIN=   4.00336
   O  -0.0976317  -0.4622312  -0.3731679 SPIN=   0.00000
   O   0.0268373  -0.2056337  -0.2820037 SPIN=   0.00000
   O  -0.4708045  -0.2698531  -0.4097545 SPIN=   0.00000
   O   0.0548401  -0.2976675  -0.5222264 SPIN=   0.00000
   S  -0.1216897  -0.3088464  -0.3967881 SPIN=   0.00000
   O  -0.0976317   0.4622312   0.3731679 SPIN=   0.00000
   O   0.0268373   0.2056337   0.2820037 SPIN=   0.00000
   O  -0.4708045   0.2698531   0.4097545 SPIN=   0.00000
   O   0.0548401   0.2976675   0.5222264 SPIN=   0.00000
   S  -0.1216897   0.3088464   0.3967881 SPIN=   0.00000
   O   0.1572526  -0.0499222   0.2000667 SPIN=   0.00000
   O  -0.2318192   0.0060962   0.3830630 SPIN=   0.00000
   O   0.2938673  -0.1013123   0.4188495 SPIN=   0.00000
   O  -0.1162404  -0.2485572   0.2811846 SPIN=   0.00000
   S   0.0257651  -0.0984239   0.3207909 SPIN=   0.00000
   O   0.1572526   0.0499222  -0.2000667 SPIN=   0.00000
   O  -0.2318192  -0.0060962  -0.3830630 SPIN=   0.00000
   O   0.2938673   0.1013123  -0.4188495 SPIN=   0.00000
   O  -0.1162404   0.2485572  -0.2811846 SPIN=   0.00000
   S   0.0257651   0.0984239  -0.3207909 SPIN=   0.00000
   F  -0.0492593  -0.2812906  -0.0054118 SPIN=   0.00000
   F  -0.0492593   0.2812906   0.0054118 SPIN=   0.00000
   F   0.4022474  -0.4402706   0.2531772 SPIN=   0.00000
   F   0.4022474   0.4402706  -0.2531772 SPIN=   0.00000
%ENDBLOCK POSITIONS_FRAC

# Note: total spin =  16.00

KPOINTS_MP_SPACING 0.07

%BLOCK SPECIES_POT
QC5
%ENDBLOCK SPECIES_POT

SNAP_TO_SYMMETRY
SYMMETRY_GENERATE

