#              Generated by Buildcell
#
# at 06:10:21 (GMT+1.0) 4th August 2020
# in /lustre/scratch/uccabz1/launch_tmp
# on node-c12p-022
# by uccabz1
#
# compiler GCC version 4.9.2
# options -cpp -iprefix /lustre/shared/ucl/apps/gcc/4.9.2/bin/../lib/gcc/x86_64-unknown-linux-gnu/4.9.2/ -mtune=corei7 -march=x86-64 -g -Og
#
# seed  -125134624  1896687512  -585391062    20485756  -912463213  1887726055  1257170394  -849216272  -362933921  1741957449   357299498  -124203518
#
#      Author: C. J. Pickard (cjp20@cam.ac.uk)
#                Space group: P2
#

%BLOCK LATTICE_ABC
      4.09458      9.26903     10.73103
    100.84431     90.00000     90.00000
%ENDBLOCK LATTICE_ABC

%BLOCK POSITIONS_FRAC
  Li   0.4083148   0.1975727  -0.3973755 SPIN=   0.00000
  Li   0.4083148  -0.1975727   0.3973755 SPIN=   0.00000
  Li  -0.1072467  -0.4747175  -0.2027410 SPIN=   0.00000
  Li  -0.1072467   0.4747175   0.2027410 SPIN=   0.00000
  Fe   0.3860651   0.3222400  -0.1140668 SPIN=   4.22900
  Fe   0.3860651  -0.3222400   0.1140668 SPIN=   4.22900
  Fe  -0.1282492  -0.2836060  -0.4056840 SPIN=   3.77100
  Fe  -0.1282492   0.2836060   0.4056840 SPIN=   3.77100
   O  -0.2506555   0.3248069   0.0244766 SPIN=   0.00000
   O  -0.3829114   0.0901098   0.0912222 SPIN=   0.00000
   O   0.0420482   0.2535278   0.2054005 SPIN=   0.00000
   O   0.1455217   0.1195516  -0.0131267 SPIN=   0.00000
   S  -0.1114993   0.1969990   0.0769932 SPIN=   0.00000
   O  -0.2506555  -0.3248069  -0.0244766 SPIN=   0.00000
   O  -0.3829114  -0.0901098  -0.0912222 SPIN=   0.00000
   O   0.0420482  -0.2535278  -0.2054005 SPIN=   0.00000
   O   0.1455217  -0.1195516   0.0131267 SPIN=   0.00000
   S  -0.1114993  -0.1969990  -0.0769932 SPIN=   0.00000
   O  -0.2508880  -0.0732827  -0.3041673 SPIN=   0.00000
   O  -0.2281849   0.1794603  -0.1785831 SPIN=   0.00000
   O  -0.1475853   0.1366327  -0.4112049 SPIN=   0.00000
   O   0.2765982   0.0589922  -0.2733084 SPIN=   0.00000
   S  -0.0875150   0.0754506  -0.2918160 SPIN=   0.00000
   O  -0.2508880   0.0732827   0.3041673 SPIN=   0.00000
   O  -0.2281849  -0.1794603   0.1785831 SPIN=   0.00000
   O  -0.1475853  -0.1366327   0.4112049 SPIN=   0.00000
   O   0.2765982  -0.0589922   0.2733084 SPIN=   0.00000
   S  -0.0875150  -0.0754506   0.2918160 SPIN=   0.00000
   F   0.3000001   0.2613679   0.4440009 SPIN=   0.00000
   F   0.3000001  -0.2613679  -0.4440009 SPIN=   0.00000
   F   0.3797457  -0.4783402   0.1917225 SPIN=   0.00000
   F   0.3797457   0.4783402  -0.1917225 SPIN=   0.00000
%ENDBLOCK POSITIONS_FRAC

# Note: total spin =  16.00

KPOINTS_MP_SPACING 0.07

%BLOCK SPECIES_POT
QC5
%ENDBLOCK SPECIES_POT

SNAP_TO_SYMMETRY
SYMMETRY_GENERATE

