#              Generated by Buildcell
#
# at 06:33:25 (GMT+1.0) 4th August 2020
# in /lustre/scratch/uccabz1/launch_tmp
# on node-c12g-008
# by uccabz1
#
# compiler GCC version 4.9.2
# options -cpp -iprefix /lustre/shared/ucl/apps/gcc/4.9.2/bin/../lib/gcc/x86_64-unknown-linux-gnu/4.9.2/ -mtune=corei7 -march=x86-64 -g -Og
#
# seed   760747806 -1092142493  1915152915  2065123660  -918188793  2019722172   139095625 -1127179126  2075178291  1404025189  -132684344 -1708932559
#
#      Author: C. J. Pickard (cjp20@cam.ac.uk)
#                Space group: Pna21
#

%BLOCK LATTICE_ABC
      4.42076      7.23340     12.50894
     90.00000     90.00000     90.00000
%ENDBLOCK LATTICE_ABC

%BLOCK POSITIONS_FRAC
  Li  -0.1499025   0.3296557  -0.0167851 SPIN=   0.00000
  Li   0.1499025  -0.1703443   0.0167851 SPIN=   0.00000
  Li   0.3500975   0.3296557  -0.4832149 SPIN=   0.00000
  Li  -0.3500975  -0.1703443   0.4832149 SPIN=   0.00000
  Fe   0.1445286  -0.3188644  -0.3710587 SPIN=   4.00000
  Fe  -0.1445286   0.1811356   0.3710587 SPIN=   4.00000
  Fe  -0.3554714  -0.3188644  -0.1289413 SPIN=   4.00000
  Fe   0.3554714   0.1811356   0.1289413 SPIN=   4.00000
   O   0.1810621  -0.0190823  -0.1707986 SPIN=   0.00000
   O   0.5373241   0.2353260  -0.2114093 SPIN=   0.00000
   O   0.6816099  -0.0086254  -0.0823980 SPIN=   0.00000
   O   0.2879970   0.2201288  -0.0344838 SPIN=   0.00000
   S   0.4219983   0.1069368  -0.1247724 SPIN=   0.00000
   O  -0.1810621  -0.5190823   0.1707986 SPIN=   0.00000
   O  -0.5373241  -0.2646740   0.2114093 SPIN=   0.00000
   O  -0.6816099  -0.5086254   0.0823980 SPIN=   0.00000
   O  -0.2879970  -0.2798712   0.0344838 SPIN=   0.00000
   S  -0.4219983  -0.3930632   0.1247724 SPIN=   0.00000
   O  -0.3189379  -0.0190823  -0.3292014 SPIN=   0.00000
   O   0.0373241   0.2353260  -0.2885907 SPIN=   0.00000
   O   0.1816099  -0.0086254  -0.4176020 SPIN=   0.00000
   O  -0.2120030   0.2201288  -0.4655162 SPIN=   0.00000
   S  -0.0780017   0.1069368  -0.3752276 SPIN=   0.00000
   O   0.3189379  -0.5190823   0.3292014 SPIN=   0.00000
   O  -0.0373241  -0.2646740   0.2885907 SPIN=   0.00000
   O  -0.1816099  -0.5086254   0.4176020 SPIN=   0.00000
   O   0.2120030  -0.2798712   0.4655162 SPIN=   0.00000
   S   0.0780017  -0.3930632   0.3752276 SPIN=   0.00000
   F  -0.0654200   0.0465231   0.1184445 SPIN=   0.00000
   F   0.0654200  -0.4534769  -0.1184445 SPIN=   0.00000
   F   0.4345800   0.0465231   0.3815555 SPIN=   0.00000
   F  -0.4345800  -0.4534769  -0.3815555 SPIN=   0.00000
%ENDBLOCK POSITIONS_FRAC

# Note: total spin =  16.00

KPOINTS_MP_SPACING 0.07

%BLOCK SPECIES_POT
QC5
%ENDBLOCK SPECIES_POT

SNAP_TO_SYMMETRY
SYMMETRY_GENERATE

