#              Generated by Buildcell
#
# at 06:16:24 (GMT+1.0) 4th August 2020
# in /lustre/scratch/uccabz1/launch_tmp
# on node-c12c-002
# by uccabz1
#
# compiler GCC version 4.9.2
# options -cpp -iprefix /lustre/shared/ucl/apps/gcc/4.9.2/bin/../lib/gcc/x86_64-unknown-linux-gnu/4.9.2/ -mtune=corei7 -march=x86-64 -g -Og
#
# seed  -856934581  1991441243  -359662380  -662053021  -867024317  -953805186  -177977339   512471030   847866148   226914876   488864813  1334065378
#
#      Author: C. J. Pickard (cjp20@cam.ac.uk)
#                Space group: P2221
#

%BLOCK LATTICE_ABC
      4.10654      8.02732     12.13427
     90.00000     90.00000     90.00000
%ENDBLOCK LATTICE_ABC

%BLOCK POSITIONS_FRAC
  Li  -0.2514615  -0.1225623  -0.1242671 SPIN=   0.00000
  Li   0.2514615   0.1225623   0.3757329 SPIN=   0.00000
  Li  -0.2514615   0.1225623  -0.3757329 SPIN=   0.00000
  Li   0.2514615  -0.1225623   0.1242671 SPIN=   0.00000
  Fe   0.2473424   0.3767004  -0.3757543 SPIN=   4.00000
  Fe  -0.2473424  -0.3767004   0.1242457 SPIN=   4.00000
  Fe   0.2473424  -0.3767004  -0.1242457 SPIN=   4.00000
  Fe  -0.2473424   0.3767004   0.3757543 SPIN=   4.00000
   O   0.1190587   0.1391472   0.1065666 SPIN=   0.00000
   O   0.2482123   0.3170683   0.2672973 SPIN=   0.00000
   O   0.1188074   0.4460756   0.0873052 SPIN=   0.00000
   O   0.6387670   0.2949764   0.1126519 SPIN=   0.00000
   S   0.2812114   0.2993169   0.1434553 SPIN=   0.00000
   O  -0.1190587  -0.1391472  -0.3934334 SPIN=   0.00000
   O  -0.2482123  -0.3170683  -0.2327027 SPIN=   0.00000
   O  -0.1188074  -0.4460756  -0.4126948 SPIN=   0.00000
   O  -0.6387670  -0.2949764  -0.3873481 SPIN=   0.00000
   S  -0.2812114  -0.2993169  -0.3565447 SPIN=   0.00000
   O   0.1190587  -0.1391472   0.3934334 SPIN=   0.00000
   O   0.2482123  -0.3170683   0.2327027 SPIN=   0.00000
   O   0.1188074  -0.4460756   0.4126948 SPIN=   0.00000
   O   0.6387670  -0.2949764   0.3873481 SPIN=   0.00000
   S   0.2812114  -0.2993169   0.3565447 SPIN=   0.00000
   O  -0.1190587   0.1391472  -0.1065666 SPIN=   0.00000
   O  -0.2482123   0.3170683  -0.2672973 SPIN=   0.00000
   O  -0.1188074   0.4460756  -0.0873052 SPIN=   0.00000
   O  -0.6387670   0.2949764  -0.1126519 SPIN=   0.00000
   S  -0.2812114   0.2993169  -0.1434553 SPIN=   0.00000
   F   0.2515049  -0.1466162  -0.1295679 SPIN=   0.00000
   F  -0.2515049   0.1466162   0.3704321 SPIN=   0.00000
   F   0.2515049   0.1466162  -0.3704321 SPIN=   0.00000
   F  -0.2515049  -0.1466162   0.1295679 SPIN=   0.00000
%ENDBLOCK POSITIONS_FRAC

# Note: total spin =  16.00

KPOINTS_MP_SPACING 0.07

%BLOCK SPECIES_POT
QC5
%ENDBLOCK SPECIES_POT

SNAP_TO_SYMMETRY
SYMMETRY_GENERATE

