#              Generated by Buildcell
#
# at 06:53:04 (GMT+1.0) 4th August 2020
# in /lustre/scratch/uccabz1/launch_tmp
# on node-c12g-024
# by uccabz1
#
# compiler GCC version 4.9.2
# options -cpp -iprefix /lustre/shared/ucl/apps/gcc/4.9.2/bin/../lib/gcc/x86_64-unknown-linux-gnu/4.9.2/ -mtune=corei7 -march=x86-64 -g -Og
#
# seed   833326188  -613744257  1477695153  1178592709  1783280834   613767450   -45879172   475702845   153703128  -566081684 -1038727878 -1983847201
#
#      Author: C. J. Pickard (cjp20@cam.ac.uk)
#                Space group: Cc
#

%BLOCK LATTICE_ABC
      5.76200      5.76200     13.38127
     94.28628    101.45070    111.43151
%ENDBLOCK LATTICE_ABC

%BLOCK POSITIONS_FRAC
  Li   0.1443310   0.3681293   0.2010781 SPIN=   0.00000
  Li  -0.1670512  -0.4432529  -0.2989219 SPIN=   0.00000
  Li  -0.0455226  -0.2145290   0.3871857 SPIN=   0.00000
  Li  -0.3982854  -0.0672918  -0.1128143 SPIN=   0.00000
  Fe  -0.3128214  -0.1256008   0.1088177 SPIN=   4.98786
  Fe   0.2344185  -0.0783609  -0.3911823 SPIN=   4.98786
  Fe   0.0822787  -0.1684136  -0.0789063 SPIN=   3.01214
  Fe   0.0895072   0.3388149   0.4210937 SPIN=   3.01214
   O   0.3964790   0.1353374  -0.1147130 SPIN=   0.00000
   O   0.7138508   0.5406616  -0.1386714 SPIN=   0.00000
   O   0.5637183   0.5087015   0.0226241 SPIN=   0.00000
   O   0.2687843   0.4964446  -0.1415311 SPIN=   0.00000
   S   0.4857081   0.4202863  -0.0930729 SPIN=   0.00000
   O   0.7499496  -0.0111920   0.3852870 SPIN=   0.00000
   O   0.3206669  -0.3525222   0.3613286 SPIN=   0.00000
   O   0.5139226  -0.0410942   0.5226241 SPIN=   0.00000
   O   0.3620242   0.0896846   0.3584689 SPIN=   0.00000
   S   0.4866409  -0.0787810   0.4069271 SPIN=   0.00000
   O  -0.4319305  -0.1557032  -0.3154042 SPIN=   0.00000
   O  -0.1006824   0.2052895  -0.3620511 SPIN=   0.00000
   O   0.0291923  -0.0678041  -0.2481573 SPIN=   0.00000
   O  -0.1576889   0.2202883  -0.1835048 SPIN=   0.00000
   S  -0.1652774   0.0505176  -0.2772793 SPIN=   0.00000
   O  -0.1597010   0.6165263   0.1845958 SPIN=   0.00000
   O  -0.5673406   0.2386313   0.1379489 SPIN=   0.00000
   O  -0.1803532   0.2226504   0.2518427 SPIN=   0.00000
   O  -0.4037931   0.4741841   0.3164952 SPIN=   0.00000
   S  -0.3277969   0.3879980   0.2227207 SPIN=   0.00000
   F   0.3983931   0.3394276  -0.3674335 SPIN=   0.00000
   F   0.2931388  -0.2658266   0.1325665 SPIN=   0.00000
   F  -0.1025663   0.0673433   0.0016958 SPIN=   0.00000
   F  -0.0656474  -0.3957379  -0.4983042 SPIN=   0.00000
%ENDBLOCK POSITIONS_FRAC

# Note: total spin =  16.00

KPOINTS_MP_SPACING 0.07

%BLOCK SPECIES_POT
QC5
%ENDBLOCK SPECIES_POT

SNAP_TO_SYMMETRY
SYMMETRY_GENERATE

