#              Generated by Buildcell
#
# at 08:09:16 (GMT+1.0) 4th August 2020
# in /lustre/scratch/uccabz1/launch_tmp
# on node-c12n-017
# by uccabz1
#
# compiler GCC version 4.9.2
# options -cpp -iprefix /lustre/shared/ucl/apps/gcc/4.9.2/bin/../lib/gcc/x86_64-unknown-linux-gnu/4.9.2/ -mtune=corei7 -march=x86-64 -g -Og
#
# seed  -663305072 -1560840774 -1728678104   594025864  -160663927 -1120237050  -824892784 -1869866147   656096498   269019995  -488221351    88843863
#
#      Author: C. J. Pickard (cjp20@cam.ac.uk)
#                Space group: C2
#

%BLOCK LATTICE_ABC
      7.10612      7.10612      8.05657
     86.76863     86.76863     80.36496
%ENDBLOCK LATTICE_ABC

%BLOCK POSITIONS_FRAC
  Li  -0.3982797  -0.1249710  -0.0132232 SPIN=   0.00000
  Li   0.1249710   0.3982797   0.0132232 SPIN=   0.00000
  Li   0.2547114   0.1796051   0.4517876 SPIN=   0.00000
  Li  -0.1796051  -0.2547114  -0.4517876 SPIN=   0.00000
  Fe   0.1505284  -0.2162852  -0.2460714 SPIN=   4.22233
  Fe   0.2162852  -0.1505284   0.2460714 SPIN=   4.22233
  Fe  -0.4698792   0.4698792  -0.5000000 SPIN=   4.14433
  Fe  -0.4686071   0.4686071   0.0000000 SPIN=   3.41101
   O   0.0002706  -0.5550482   0.3222115 SPIN=   0.00000
   O  -0.3091502  -0.3359884   0.3415014 SPIN=   0.00000
   O  -0.1995268  -0.4894093   0.0770565 SPIN=   0.00000
   O  -0.0362449  -0.2372602   0.1741481 SPIN=   0.00000
   S  -0.1361628  -0.4044265   0.2287294 SPIN=   0.00000
   O   0.5550482  -0.0002706  -0.3222115 SPIN=   0.00000
   O   0.3359884   0.3091502  -0.3415014 SPIN=   0.00000
   O   0.4894093   0.1995268  -0.0770565 SPIN=   0.00000
   O   0.2372602   0.0362449  -0.1741481 SPIN=   0.00000
   S   0.4044265   0.1361628  -0.2287294 SPIN=   0.00000
   O  -0.0809872   0.2779768  -0.1052899 SPIN=   0.00000
   O   0.0047840   0.3981724  -0.3890651 SPIN=   0.00000
   O  -0.3117006   0.3017665  -0.3274849 SPIN=   0.00000
   O  -0.0200329   0.0565652  -0.3358768 SPIN=   0.00000
   O  -0.2779768   0.0809872   0.1052899 SPIN=   0.00000
   O  -0.3981724  -0.0047840   0.3890651 SPIN=   0.00000
   O  -0.3017665   0.3117006   0.3274849 SPIN=   0.00000
   O  -0.0565652   0.0200329   0.3358768 SPIN=   0.00000
   S  -0.1053180   0.1053180  -0.0000000 SPIN=   0.00000
   S  -0.1058702   0.1058702  -0.5000000 SPIN=   0.00000
   F  -0.2170595  -0.3224864  -0.2199869 SPIN=   0.00000
   F   0.3224864   0.2170595   0.2199869 SPIN=   0.00000
   F   0.2966044  -0.2966044   0.5000000 SPIN=   0.00000
   F   0.2982826  -0.2982826  -0.0000000 SPIN=   0.00000
%ENDBLOCK POSITIONS_FRAC

# Note: total spin =  16.00

KPOINTS_MP_SPACING 0.07

%BLOCK SPECIES_POT
QC5
%ENDBLOCK SPECIES_POT

SNAP_TO_SYMMETRY
SYMMETRY_GENERATE

