#              Generated by Buildcell
#
# at 08:50:57 (GMT+1.0) 18th August 2020
# in /lustre/scratch/uccabz1/launch_tmp
# on node-c12n-011
# by uccabz1
#
# compiler GCC version 4.9.2
# options -cpp -iprefix /lustre/shared/ucl/apps/gcc/4.9.2/bin/../lib/gcc/x86_64-unknown-linux-gnu/4.9.2/ -mtune=corei7 -march=x86-64 -g -Og
#
# seed   625492860   -53571938   -64151731     4209196  -266590525  1469178052    16985432 -1717681789   531407001 -1320142331    25412879  1827689573
#
#      Author: C. J. Pickard (cjp20@cam.ac.uk)
#                Space group: P43
#

%BLOCK LATTICE_ABC
      7.12709      7.49159      7.49159
     90.00000     90.00000     90.00000
%ENDBLOCK LATTICE_ABC

%BLOCK POSITIONS_FRAC
  Li  -0.1169740  -0.0168762   0.2816228 SPIN=   0.00000
  Li   0.3830260   0.0168762  -0.2816228 SPIN=   0.00000
  Li  -0.3669740  -0.2816228  -0.0168762 SPIN=   0.00000
  Li   0.1330260   0.2816228   0.0168762 SPIN=   0.00000
  Fe  -0.1906197   0.4383159   0.2016196 SPIN=   4.00000
  Fe   0.3093803  -0.4383159  -0.2016196 SPIN=   4.00000
  Fe  -0.4406197  -0.2016196   0.4383159 SPIN=   4.00000
  Fe   0.0593803   0.2016196  -0.4383159 SPIN=   4.00000
   O  -0.1928430  -0.1214196  -0.4562922 SPIN=   0.00000
   O   0.0811477  -0.0649475  -0.2613539 SPIN=   0.00000
   O   0.0662002  -0.3409765  -0.4422939 SPIN=   0.00000
   O  -0.1459323  -0.3024723  -0.1835987 SPIN=   0.00000
   S  -0.0478568  -0.2074540  -0.3358847 SPIN=   0.00000
   O   0.3071570   0.1214196   0.4562922 SPIN=   0.00000
   O   0.5811477   0.0649475   0.2613539 SPIN=   0.00000
   O   0.5662002   0.3409765   0.4422939 SPIN=   0.00000
   O   0.3540677   0.3024723   0.1835987 SPIN=   0.00000
   S   0.4521432   0.2074540   0.3358847 SPIN=   0.00000
   O  -0.4428430   0.4562922  -0.1214196 SPIN=   0.00000
   O  -0.1688523   0.2613539  -0.0649475 SPIN=   0.00000
   O  -0.1837998   0.4422939  -0.3409765 SPIN=   0.00000
   O  -0.3959323   0.1835987  -0.3024723 SPIN=   0.00000
   S  -0.2978568   0.3358847  -0.2074540 SPIN=   0.00000
   O   0.0571570  -0.4562922   0.1214196 SPIN=   0.00000
   O   0.3311477  -0.2613539   0.0649475 SPIN=   0.00000
   O   0.3162002  -0.4422939   0.3409765 SPIN=   0.00000
   O   0.1040677  -0.1835987   0.3024723 SPIN=   0.00000
   S   0.2021432  -0.3358847   0.2074540 SPIN=   0.00000
   F  -0.0513222   0.2229995   0.3084888 SPIN=   0.00000
   F   0.4486778  -0.2229995  -0.3084888 SPIN=   0.00000
   F  -0.3013222  -0.3084888   0.2229995 SPIN=   0.00000
   F   0.1986778   0.3084888  -0.2229995 SPIN=   0.00000
%ENDBLOCK POSITIONS_FRAC

# Note: total spin =  16.00

KPOINTS_MP_SPACING 0.07

%BLOCK SPECIES_POT
QC5
%ENDBLOCK SPECIES_POT

SNAP_TO_SYMMETRY
SYMMETRY_GENERATE

