#              Generated by Buildcell
#
# at 06:40:15 (GMT+1.0) 4th August 2020
# in /lustre/scratch/uccabz1/launch_tmp
# on node-c12c-010
# by uccabz1
#
# compiler GCC version 4.9.2
# options -cpp -iprefix /lustre/shared/ucl/apps/gcc/4.9.2/bin/../lib/gcc/x86_64-unknown-linux-gnu/4.9.2/ -mtune=corei7 -march=x86-64 -g -Og
#
# seed -1708465869  -249788929   561515335  1121889741   314927560  -352237687  -887395033 -1951869895 -1791105128  -454904650  1134122103  -635268804
#
#      Author: C. J. Pickard (cjp20@cam.ac.uk)
#                Space group: P2
#

%BLOCK LATTICE_ABC
      5.83492      7.00104     10.28966
     90.00000     90.00000    107.89590
%ENDBLOCK LATTICE_ABC

%BLOCK POSITIONS_FRAC
  Li  -0.3603809  -0.2053974   0.0092217 SPIN=   0.00000
  Li   0.3603809   0.2053974   0.0092217 SPIN=   0.00000
  Li  -0.2414787   0.2355812   0.4224343 SPIN=   0.00000
  Li   0.2414787  -0.2355812   0.4224343 SPIN=   0.00000
  Fe   0.1322048  -0.2214900   0.1123996 SPIN=   6.39883
  Fe  -0.1322048   0.2214900   0.1123996 SPIN=   6.39883
  Fe  -0.1824199  -0.2723246  -0.3914814 SPIN=   1.60117
  Fe   0.1824199   0.2723246  -0.3914814 SPIN=   1.60117
   O  -0.5524996   0.2268779  -0.1784007 SPIN=   0.00000
   O  -0.1499057   0.1790414  -0.1886202 SPIN=   0.00000
   O  -0.1957970   0.5114199  -0.2377395 SPIN=   0.00000
   O  -0.3534264   0.2290068  -0.3910151 SPIN=   0.00000
   S  -0.3129072   0.2865865  -0.2489439 SPIN=   0.00000
   O   0.5524996  -0.2268779  -0.1784007 SPIN=   0.00000
   O   0.1499057  -0.1790414  -0.1886202 SPIN=   0.00000
   O   0.1957970  -0.5114199  -0.2377395 SPIN=   0.00000
   O   0.3534264  -0.2290068  -0.3910151 SPIN=   0.00000
   S   0.3129072  -0.2865865  -0.2489439 SPIN=   0.00000
   O   0.4100905   0.2899034   0.4394964 SPIN=   0.00000
   O   0.5498963   0.2310161   0.2203904 SPIN=   0.00000
   O   0.1722168   0.3183736   0.2453993 SPIN=   0.00000
   O   0.1897603  -0.0146881   0.3161938 SPIN=   0.00000
   S   0.3304910   0.2061513   0.3053700 SPIN=   0.00000
   O  -0.4100905  -0.2899034   0.4394964 SPIN=   0.00000
   O  -0.5498963  -0.2310161   0.2203904 SPIN=   0.00000
   O  -0.1722168  -0.3183736   0.2453993 SPIN=   0.00000
   O  -0.1897603   0.0146881   0.3161938 SPIN=   0.00000
   S  -0.3304910  -0.2061513   0.3053700 SPIN=   0.00000
   F  -0.0000000  -0.0000000   0.0223419 SPIN=   0.00000
   F  -0.0000000  -0.5000000   0.4568917 SPIN=   0.00000
   F   0.0000000   0.0000000  -0.4119429 SPIN=   0.00000
   F   0.5000000  -0.5000000   0.0245077 SPIN=   0.00000
%ENDBLOCK POSITIONS_FRAC

# Note: total spin =  16.00

KPOINTS_MP_SPACING 0.07

%BLOCK SPECIES_POT
QC5
%ENDBLOCK SPECIES_POT

SNAP_TO_SYMMETRY
SYMMETRY_GENERATE

