#              Generated by Buildcell
#
# at 06:42:43 (GMT+1.0) 4th August 2020
# in /lustre/scratch/uccabz1/launch_tmp
# on node-c12f-012
# by uccabz1
#
# compiler GCC version 4.9.2
# options -cpp -iprefix /lustre/shared/ucl/apps/gcc/4.9.2/bin/../lib/gcc/x86_64-unknown-linux-gnu/4.9.2/ -mtune=corei7 -march=x86-64 -g -Og
#
# seed   148581428 -1078559523   242517120  1278297498 -1479503525 -1802908763  -643508487 -1001166189  1484131022  1909219375   -82836366   688096953
#
#      Author: C. J. Pickard (cjp20@cam.ac.uk)
#                Space group: P21
#

%BLOCK LATTICE_ABC
      4.11656      7.35725     13.24501
     90.00000     94.33190     90.00000
%ENDBLOCK LATTICE_ABC

%BLOCK POSITIONS_FRAC
  Li  -0.3669900   0.0219938  -0.0467278 SPIN=   0.00000
  Li   0.3669900  -0.4780062   0.0467278 SPIN=   0.00000
  Li   0.1050102   0.3603605  -0.3572664 SPIN=   0.00000
  Li  -0.1050102  -0.1396395   0.3572664 SPIN=   0.00000
  Fe   0.1775351   0.1190204   0.1801085 SPIN=   4.19966
  Fe  -0.1775351  -0.3809796  -0.1801085 SPIN=   4.19966
  Fe  -0.4175804   0.0041170  -0.3459909 SPIN=   3.80034
  Fe   0.4175804  -0.4958830   0.3459909 SPIN=   3.80034
   O   0.0800429   0.1956159   0.3452601 SPIN=   0.00000
   O  -0.2469422   0.3734080   0.4596152 SPIN=   0.00000
   O   0.1978292   0.1744634   0.5309011 SPIN=   0.00000
   O  -0.3070808   0.0390269   0.4499899 SPIN=   0.00000
   S  -0.0690377   0.1956285   0.4464416 SPIN=   0.00000
   O  -0.0800429  -0.3043841  -0.3452601 SPIN=   0.00000
   O   0.2469422  -0.1265920  -0.4596152 SPIN=   0.00000
   O  -0.1978292  -0.3255366  -0.5309011 SPIN=   0.00000
   O   0.3070808  -0.4609731  -0.4499899 SPIN=   0.00000
   S   0.0690377  -0.3043715  -0.4464416 SPIN=   0.00000
   O   0.3320437   0.1902677   0.0273149 SPIN=   0.00000
   O   0.3349945   0.3668555  -0.1316495 SPIN=   0.00000
   O  -0.1631792   0.3557269  -0.0382754 SPIN=   0.00000
   O   0.0161622   0.0821233  -0.1274846 SPIN=   0.00000
   S   0.1300053   0.2487434  -0.0675237 SPIN=   0.00000
   O  -0.3320437  -0.3097323  -0.0273149 SPIN=   0.00000
   O  -0.3349945  -0.1331445   0.1316495 SPIN=   0.00000
   O   0.1631792  -0.1442731   0.0382754 SPIN=   0.00000
   O  -0.0161622  -0.4178767   0.1274846 SPIN=   0.00000
   S  -0.1300053  -0.2512566   0.0675237 SPIN=   0.00000
   F   0.3613519  -0.1567923   0.3105926 SPIN=   0.00000
   F  -0.3613519   0.3432077  -0.3105926 SPIN=   0.00000
   F  -0.4235419   0.3432000   0.1959684 SPIN=   0.00000
   F   0.4235419  -0.1568000  -0.1959684 SPIN=   0.00000
%ENDBLOCK POSITIONS_FRAC

# Note: total spin =  16.00

KPOINTS_MP_SPACING 0.07

%BLOCK SPECIES_POT
QC5
%ENDBLOCK SPECIES_POT

SNAP_TO_SYMMETRY
SYMMETRY_GENERATE

