#              Generated by Buildcell
#
# at 08:11:55 (GMT+1.0) 18th August 2020
# in /lustre/scratch/uccabz1/launch_tmp
# on node-c12f-001
# by uccabz1
#
# compiler GCC version 4.9.2
# options -cpp -iprefix /lustre/shared/ucl/apps/gcc/4.9.2/bin/../lib/gcc/x86_64-unknown-linux-gnu/4.9.2/ -mtune=corei7 -march=x86-64 -g -Og
#
# seed -1017631012 -1995024653 -1040613385 -1018155747  1402994072   -83491358 -1065439763  -467342122 -1302414901  1695737403 -1694229297 -1556838596
#
#      Author: C. J. Pickard (cjp20@cam.ac.uk)
#                Space group: Cm
#

%BLOCK LATTICE_ABC
      7.70530      7.70530      8.35508
     64.98200     64.98200     70.48813
%ENDBLOCK LATTICE_ABC

%BLOCK POSITIONS_FRAC
  Li  -0.3708335  -0.3708335   0.2234007 SPIN=   0.00000
  Li  -0.4588346  -0.4588346  -0.1260936 SPIN=   0.00000
  Li   0.3041222   0.3041222   0.3674880 SPIN=   0.00000
  Li  -0.0657721  -0.0657721   0.1665833 SPIN=   0.00000
  Fe   0.1656806   0.1656806   0.1723615 SPIN=   4.02519
  Fe  -0.1886838  -0.1886838  -0.2846639 SPIN=   4.97630
  Fe   0.4405956   0.4405956  -0.3748486 SPIN=   2.36690
  Fe   0.0948438   0.0948438  -0.2433890 SPIN=   4.63161
   O   0.2611509  -0.3429310   0.1841390 SPIN=   0.00000
   O  -0.0647022  -0.3120928   0.4239923 SPIN=   0.00000
   O   0.1881605  -0.1583730   0.3931878 SPIN=   0.00000
   O   0.2224335  -0.5176940   0.5195465 SPIN=   0.00000
   S   0.1517607  -0.3327727   0.3802164 SPIN=   0.00000
   O  -0.3429310   0.2611509   0.1841390 SPIN=   0.00000
   O  -0.3120928  -0.0647022   0.4239923 SPIN=   0.00000
   O  -0.1583730   0.1881605   0.3931878 SPIN=   0.00000
   O  -0.5176940   0.2224335   0.5195465 SPIN=   0.00000
   S  -0.3327727   0.1517607   0.3802164 SPIN=   0.00000
   O   0.1458690  -0.1813045  -0.0501333 SPIN=   0.00000
   O   0.0904133  -0.3356993  -0.2265246 SPIN=   0.00000
   O  -0.0208869  -0.4640772   0.1195569 SPIN=   0.00000
   S   0.1368103  -0.3727152  -0.0544109 SPIN=   0.00000
   O  -0.1813045   0.1458690  -0.0501333 SPIN=   0.00000
   O  -0.3356993   0.0904133  -0.2265246 SPIN=   0.00000
   O  -0.4640772  -0.0208869   0.1195569 SPIN=   0.00000
   S  -0.3727152   0.1368103  -0.0544109 SPIN=   0.00000
   O   0.3601285   0.3601285   0.0625796 SPIN=   0.00000
   O  -0.1361570  -0.1361570  -0.0832174 SPIN=   0.00000
   F  -0.3748366  -0.3748366   0.4422651 SPIN=   0.00000
   F   0.1374527   0.1374527   0.4772327 SPIN=   0.00000
   F   0.1474257   0.1474257  -0.0531923 SPIN=   0.00000
   F  -0.3534639  -0.3534639  -0.0349475 SPIN=   0.00000
%ENDBLOCK POSITIONS_FRAC

# Note: total spin =  16.00

KPOINTS_MP_SPACING 0.07

%BLOCK SPECIES_POT
QC5
%ENDBLOCK SPECIES_POT

SNAP_TO_SYMMETRY
SYMMETRY_GENERATE

