#              Generated by Buildcell
#
# at 09:55:34 (GMT+1.0) 4th August 2020
# in /lustre/scratch/uccabz1/launch_tmp
# on node-c12e-014
# by uccabz1
#
# compiler GCC version 4.9.2
# options -cpp -iprefix /lustre/shared/ucl/apps/gcc/4.9.2/bin/../lib/gcc/x86_64-unknown-linux-gnu/4.9.2/ -mtune=corei7 -march=x86-64 -g -Og
#
# seed  1961782066  -564423282 -1253293827    44555913   335105759  1735198650  -881651227   147780625    47680177 -1328924768    22557396  -359717553
#
#      Author: C. J. Pickard (cjp20@cam.ac.uk)
#                Space group: P-1
#

%BLOCK LATTICE_ABC
      4.30979      6.62466     14.27621
     87.11458     87.49313     79.48660
%ENDBLOCK LATTICE_ABC

%BLOCK POSITIONS_FRAC
  Li   0.2278272  -0.0988784   0.1442197 SPIN=   0.00000
  Li  -0.2278272   0.0988784  -0.1442197 SPIN=   0.00000
  Li  -0.1386099   0.4452090   0.2558738 SPIN=   0.00000
  Li   0.1386099  -0.4452090  -0.2558738 SPIN=   0.00000
  Fe  -0.2555665  -0.2527762   0.0080290 SPIN=   4.06877
  Fe   0.2555665   0.2527762  -0.0080290 SPIN=   4.06877
  Fe  -0.2582470  -0.2546505   0.4769208 SPIN=   3.93123
  Fe   0.2582470   0.2546505  -0.4769208 SPIN=   3.93123
   O  -0.3699278   0.4418642  -0.2115041 SPIN=   0.00000
   O  -0.3945739   0.1266698  -0.2947379 SPIN=   0.00000
   O   0.0595778   0.3048677  -0.3244884 SPIN=   0.00000
   O  -0.4668443   0.4638152  -0.3816232 SPIN=   0.00000
   S  -0.2929421   0.3343042  -0.3030884 SPIN=   0.00000
   O   0.3699278  -0.4418642   0.2115041 SPIN=   0.00000
   O   0.3945739  -0.1266698   0.2947379 SPIN=   0.00000
   O  -0.0595778  -0.3048677   0.3244884 SPIN=   0.00000
   O   0.4668443  -0.4638152   0.3816232 SPIN=   0.00000
   S   0.2929421  -0.3343042   0.3030884 SPIN=   0.00000
   O   0.6846755  -0.2075083  -0.2086659 SPIN=   0.00000
   O   0.1767267  -0.0518766  -0.2788996 SPIN=   0.00000
   O   0.3120895   0.0589887  -0.1252009 SPIN=   0.00000
   O   0.1833726  -0.2873328  -0.1385058 SPIN=   0.00000
   S   0.3392161  -0.1219323  -0.1878180 SPIN=   0.00000
   O  -0.6846755   0.2075083   0.2086659 SPIN=   0.00000
   O  -0.1767267   0.0518766   0.2788996 SPIN=   0.00000
   O  -0.3120895  -0.0589887   0.1252009 SPIN=   0.00000
   O  -0.1833726   0.2873328   0.1385058 SPIN=   0.00000
   S  -0.3392161   0.1219323   0.1878180 SPIN=   0.00000
   F  -0.1533966  -0.1743228  -0.3980353 SPIN=   0.00000
   F   0.1533966   0.1743228   0.3980353 SPIN=   0.00000
   F   0.1799457  -0.2771051   0.0539952 SPIN=   0.00000
   F  -0.1799457   0.2771051  -0.0539952 SPIN=   0.00000
%ENDBLOCK POSITIONS_FRAC

# Note: total spin =  16.00

KPOINTS_MP_SPACING 0.07

%BLOCK SPECIES_POT
QC5
%ENDBLOCK SPECIES_POT

SNAP_TO_SYMMETRY
SYMMETRY_GENERATE

