#              Generated by Buildcell
#
# at 09:31:00 (GMT+1.0) 4th August 2020
# in /lustre/scratch/uccabz1/launch_tmp
# on node-c12g-008
# by uccabz1
#
# compiler GCC version 4.9.2
# options -cpp -iprefix /lustre/shared/ucl/apps/gcc/4.9.2/bin/../lib/gcc/x86_64-unknown-linux-gnu/4.9.2/ -mtune=corei7 -march=x86-64 -g -Og
#
# seed  1838804011  1109079114  1261117385 -1484523756   508555780  1671448428 -1364736854   -55289573 -1833869212   750433935   746278182 -1356926865
#
#      Author: C. J. Pickard (cjp20@cam.ac.uk)
#                Space group: C2
#

%BLOCK LATTICE_ABC
      5.25631      8.73298      8.73298
     87.21406     88.14875     88.14875
%ENDBLOCK LATTICE_ABC

%BLOCK POSITIONS_FRAC
  Li   0.2963107  -0.4337946   0.0703225 SPIN=   0.00000
  Li  -0.2963107  -0.0703225   0.4337946 SPIN=   0.00000
  Li  -0.2386494   0.4806785  -0.2720416 SPIN=   0.00000
  Li   0.2386494   0.2720416  -0.4806785 SPIN=   0.00000
  Fe  -0.2615520   0.1049013   0.1058138 SPIN=   4.14091
  Fe   0.2615520  -0.1058138  -0.1049013 SPIN=   4.14091
  Fe  -0.2385466   0.4455210   0.3448621 SPIN=   3.85909
  Fe   0.2385466  -0.3448621  -0.4455210 SPIN=   3.85909
   O  -0.2450266  -0.4142830  -0.0583180 SPIN=   0.00000
   O  -0.3683843  -0.1461956  -0.0031656 SPIN=   0.00000
   O   0.0488219  -0.2559462   0.0777072 SPIN=   0.00000
   O  -0.3481562  -0.3448095   0.2084765 SPIN=   0.00000
   S  -0.2281863  -0.2903086   0.0561750 SPIN=   0.00000
   O   0.2450266   0.0583180   0.4142830 SPIN=   0.00000
   O   0.3683843   0.0031656   0.1461956 SPIN=   0.00000
   O  -0.0488219  -0.0777072   0.2559462 SPIN=   0.00000
   O   0.3481562  -0.2084765   0.3448095 SPIN=   0.00000
   S   0.2281863  -0.0561750   0.2903086 SPIN=   0.00000
   O  -0.1457088  -0.1002068  -0.2306991 SPIN=   0.00000
   O  -0.2826585   0.1546455  -0.1403246 SPIN=   0.00000
   O  -0.4811739   0.0530069  -0.3660408 SPIN=   0.00000
   O  -0.0344419   0.1349526  -0.3846290 SPIN=   0.00000
   S  -0.2359958   0.0605995  -0.2804234 SPIN=   0.00000
   O   0.1457088   0.2306991   0.1002068 SPIN=   0.00000
   O   0.2826585   0.1403246  -0.1546455 SPIN=   0.00000
   O   0.4811739   0.3660408  -0.0530069 SPIN=   0.00000
   O   0.0344419   0.3846290  -0.1349526 SPIN=   0.00000
   S   0.2359958   0.2804234  -0.0605995 SPIN=   0.00000
   F   0.2849419  -0.3425061  -0.1935553 SPIN=   0.00000
   F  -0.2849419   0.1935553   0.3425061 SPIN=   0.00000
   F  -0.2106070  -0.2631055  -0.4923521 SPIN=   0.00000
   F   0.2106070   0.4923521   0.2631055 SPIN=   0.00000
%ENDBLOCK POSITIONS_FRAC

# Note: total spin =  16.00

KPOINTS_MP_SPACING 0.07

%BLOCK SPECIES_POT
QC5
%ENDBLOCK SPECIES_POT

SNAP_TO_SYMMETRY
SYMMETRY_GENERATE

