#              Generated by Buildcell
#
# at 05:51:00 (GMT+1.0) 4th August 2020
# in /lustre/scratch/uccabz1/launch_tmp
# on node-c12m-018
# by uccabz1
#
# compiler GCC version 4.9.2
# options -cpp -iprefix /lustre/shared/ucl/apps/gcc/4.9.2/bin/../lib/gcc/x86_64-unknown-linux-gnu/4.9.2/ -mtune=corei7 -march=x86-64 -g -Og
#
# seed  1394380408  -977111414  1969476060  1234233250   928514716   893563817  -920319236  1813318993  -249639453  -484953798  1969106205   946910534
#
#      Author: C. J. Pickard (cjp20@cam.ac.uk)
#                Space group: Pca21
#

%BLOCK LATTICE_ABC
      7.02831      7.32875      7.76567
     90.00000     90.00000     90.00000
%ENDBLOCK LATTICE_ABC

%BLOCK POSITIONS_FRAC
  Li  -0.3425732   0.2840882   0.4120554 SPIN=   0.00000
  Li   0.3425732  -0.2159118  -0.4120554 SPIN=   0.00000
  Li   0.1574268   0.2840882  -0.4120554 SPIN=   0.00000
  Li  -0.1574268  -0.2159118   0.4120554 SPIN=   0.00000
  Fe   0.3164932   0.0156266   0.2791680 SPIN=   4.00000
  Fe  -0.3164932  -0.4843734  -0.2791680 SPIN=   4.00000
  Fe  -0.1835068   0.0156266  -0.2791680 SPIN=   4.00000
  Fe   0.1835068  -0.4843734   0.2791680 SPIN=   4.00000
   O  -0.4881649  -0.4382428   0.0176183 SPIN=   0.00000
   O  -0.2579997  -0.1835177  -0.0019628 SPIN=   0.00000
   O  -0.2148230  -0.4242483   0.2180947 SPIN=   0.00000
   O  -0.4787046  -0.2025744   0.2457124 SPIN=   0.00000
   S  -0.3599230  -0.3121458   0.1198657 SPIN=   0.00000
   O   0.4881649   0.0617572  -0.0176183 SPIN=   0.00000
   O   0.2579997   0.3164823   0.0019628 SPIN=   0.00000
   O   0.2148230   0.0757517  -0.2180947 SPIN=   0.00000
   O   0.4787046   0.2974256  -0.2457124 SPIN=   0.00000
   S   0.3599230   0.1878542  -0.1198657 SPIN=   0.00000
   O   0.0118351  -0.4382428  -0.0176183 SPIN=   0.00000
   O   0.2420003  -0.1835177   0.0019628 SPIN=   0.00000
   O   0.2851770  -0.4242483  -0.2180947 SPIN=   0.00000
   O   0.0212954  -0.2025744  -0.2457124 SPIN=   0.00000
   S   0.1400770  -0.3121458  -0.1198657 SPIN=   0.00000
   O  -0.0118351   0.0617572   0.0176183 SPIN=   0.00000
   O  -0.2420003   0.3164823  -0.0019628 SPIN=   0.00000
   O  -0.2851770   0.0757517   0.2180947 SPIN=   0.00000
   O  -0.0212954   0.2974256   0.2457124 SPIN=   0.00000
   S  -0.1400770   0.1878542   0.1198657 SPIN=   0.00000
   F   0.4187489   0.3873440   0.3942547 SPIN=   0.00000
   F  -0.4187489  -0.1126560  -0.3942547 SPIN=   0.00000
   F  -0.0812511   0.3873440  -0.3942547 SPIN=   0.00000
   F   0.0812511  -0.1126560   0.3942547 SPIN=   0.00000
%ENDBLOCK POSITIONS_FRAC

# Note: total spin =  16.00

KPOINTS_MP_SPACING 0.07

%BLOCK SPECIES_POT
QC5
%ENDBLOCK SPECIES_POT

SNAP_TO_SYMMETRY
SYMMETRY_GENERATE

