#              Generated by Buildcell
#
# at 05:51:27 (GMT+1.0) 4th August 2020
# in /lustre/scratch/uccabz1/launch_tmp
# on node-c12c-010
# by uccabz1
#
# compiler GCC version 4.9.2
# options -cpp -iprefix /lustre/shared/ucl/apps/gcc/4.9.2/bin/../lib/gcc/x86_64-unknown-linux-gnu/4.9.2/ -mtune=corei7 -march=x86-64 -g -Og
#
# seed  1589635494  -932544096  -695569776  1343319025 -1100290354  -590074640 -1278662391 -1129830317  1578478068 -1793873617  -194173233  1826314892
#
#      Author: C. J. Pickard (cjp20@cam.ac.uk)
#                Space group: P-1
#

%BLOCK LATTICE_ABC
      7.16044      7.51083      8.54184
     66.09608     75.98936     74.49112
%ENDBLOCK LATTICE_ABC

%BLOCK POSITIONS_FRAC
  Li  -0.3669399  -0.3638682   0.2467784 SPIN=   0.00000
  Li   0.3669399   0.3638682  -0.2467784 SPIN=   0.00000
  Li  -0.0463701   0.1318550  -0.2863405 SPIN=   0.00000
  Li   0.0463701  -0.1318550   0.2863405 SPIN=   0.00000
  Fe  -0.2378621  -0.3581211  -0.4298250 SPIN=   7.07812
  Fe   0.2378621   0.3581211   0.4298250 SPIN=   7.07812
  Fe   0.2947717  -0.1133249  -0.0626032 SPIN=   0.92188
  Fe  -0.2947717   0.1133249   0.0626032 SPIN=   0.92188
   O  -0.1421258  -0.0938011  -0.0857420 SPIN=   0.00000
   O  -0.0678673  -0.3177886  -0.2491047 SPIN=   0.00000
   O  -0.4098665  -0.2180945  -0.1221637 SPIN=   0.00000
   O  -0.1678549  -0.4471600   0.0688553 SPIN=   0.00000
   S  -0.1969286  -0.2692111  -0.0970388 SPIN=   0.00000
   O   0.1421258   0.0938011   0.0857420 SPIN=   0.00000
   O   0.0678673   0.3177886   0.2491047 SPIN=   0.00000
   O   0.4098665   0.2180945   0.1221637 SPIN=   0.00000
   O   0.1678549   0.4471600  -0.0688553 SPIN=   0.00000
   S   0.1969286   0.2692111   0.0970388 SPIN=   0.00000
   O   0.2962388  -0.3831201  -0.4421939 SPIN=   0.00000
   O   0.1262554  -0.0886419  -0.3667199 SPIN=   0.00000
   O   0.2979840  -0.0461056  -0.6646099 SPIN=   0.00000
   O   0.4888500  -0.1654399  -0.4234901 SPIN=   0.00000
   S   0.3023321  -0.1708269  -0.4742534 SPIN=   0.00000
   O  -0.2962388   0.3831201   0.4421939 SPIN=   0.00000
   O  -0.1262554   0.0886419   0.3667199 SPIN=   0.00000
   O  -0.2979840   0.0461056   0.6646099 SPIN=   0.00000
   O  -0.4888500   0.1654399   0.4234901 SPIN=   0.00000
   S  -0.3023321   0.1708269   0.4742534 SPIN=   0.00000
   F  -0.1979916  -0.2347023   0.3119755 SPIN=   0.00000
   F   0.1979916   0.2347023  -0.3119755 SPIN=   0.00000
   F  -0.3777698   0.4062514  -0.2162400 SPIN=   0.00000
   F   0.3777698  -0.4062514   0.2162400 SPIN=   0.00000
%ENDBLOCK POSITIONS_FRAC

# Note: total spin =  16.00

KPOINTS_MP_SPACING 0.07

%BLOCK SPECIES_POT
QC5
%ENDBLOCK SPECIES_POT

SNAP_TO_SYMMETRY
SYMMETRY_GENERATE

