#              Generated by Buildcell
#
# at 06:03:20 (GMT+1.0) 4th August 2020
# in /lustre/scratch/uccabz1/launch_tmp
# on node-c12d-012
# by uccabz1
#
# compiler GCC version 4.9.2
# options -cpp -iprefix /lustre/shared/ucl/apps/gcc/4.9.2/bin/../lib/gcc/x86_64-unknown-linux-gnu/4.9.2/ -mtune=corei7 -march=x86-64 -g -Og
#
# seed  -902579428 -1429035131 -1774614141 -1163395050  1858695376 -1398027240  1072980789  1360802242  1549888055  1757009677  -180240116  1438796738
#
#      Author: C. J. Pickard (cjp20@cam.ac.uk)
#                Space group: Pmn21
#

%BLOCK LATTICE_ABC
      3.88892      7.88334     13.04729
     90.00000     90.00000     90.00000
%ENDBLOCK LATTICE_ABC

%BLOCK POSITIONS_FRAC
  Li   0.1654670  -0.3237179  -0.1434463 SPIN=   0.00000
  Li  -0.3345330   0.3237179  -0.3565537 SPIN=   0.00000
  Li  -0.3345330   0.3237179   0.3565537 SPIN=   0.00000
  Li   0.1654670  -0.3237179   0.1434463 SPIN=   0.00000
  Fe   0.4595457  -0.0352906   0.3638862 SPIN=   4.00000
  Fe  -0.0404543   0.0352906   0.1361138 SPIN=   4.00000
  Fe  -0.0404543   0.0352906  -0.1361138 SPIN=   4.00000
  Fe   0.4595457  -0.0352906  -0.3638862 SPIN=   4.00000
   O  -0.2425195  -0.4153259  -0.2578523 SPIN=   0.00000
   O   0.0671088  -0.5103407  -0.4133107 SPIN=   0.00000
   O   0.2907943  -0.2691647  -0.3118202 SPIN=   0.00000
   O  -0.2421422  -0.2359633  -0.4135302 SPIN=   0.00000
   S  -0.0316896  -0.3576987  -0.3491283 SPIN=   0.00000
   O   0.2574805   0.4153259  -0.2421477 SPIN=   0.00000
   O   0.5671088   0.5103407  -0.0866893 SPIN=   0.00000
   O   0.7907943   0.2691647  -0.1881798 SPIN=   0.00000
   O   0.2578578   0.2359633  -0.0864698 SPIN=   0.00000
   S   0.4683104   0.3576987  -0.1508717 SPIN=   0.00000
   O   0.2574805   0.4153259   0.2421477 SPIN=   0.00000
   O   0.5671088   0.5103407   0.0866893 SPIN=   0.00000
   O   0.7907943   0.2691647   0.1881798 SPIN=   0.00000
   O   0.2578578   0.2359633   0.0864698 SPIN=   0.00000
   S   0.4683104   0.3576987   0.1508717 SPIN=   0.00000
   O  -0.2425195  -0.4153259   0.2578523 SPIN=   0.00000
   O   0.0671088  -0.5103407   0.4133107 SPIN=   0.00000
   O   0.2907943  -0.2691647   0.3118202 SPIN=   0.00000
   O  -0.2421422  -0.2359633   0.4135302 SPIN=   0.00000
   S  -0.0316896  -0.3576987   0.3491283 SPIN=   0.00000
   F  -0.0005636   0.1031638   0.3620945 SPIN=   0.00000
   F   0.4994364  -0.1031638   0.1379055 SPIN=   0.00000
   F   0.4994364  -0.1031638  -0.1379055 SPIN=   0.00000
   F  -0.0005636   0.1031638  -0.3620945 SPIN=   0.00000
%ENDBLOCK POSITIONS_FRAC

# Note: total spin =  16.00

KPOINTS_MP_SPACING 0.07

%BLOCK SPECIES_POT
QC5
%ENDBLOCK SPECIES_POT

SNAP_TO_SYMMETRY
SYMMETRY_GENERATE

