#              Generated by Buildcell
#
# at 23:36:44 (GMT+1.0) 17th August 2020
# in /lustre/scratch/uccabz1/launch_tmp
# on node-c12l-029
# by uccabz1
#
# compiler GCC version 4.9.2
# options -cpp -iprefix /lustre/shared/ucl/apps/gcc/4.9.2/bin/../lib/gcc/x86_64-unknown-linux-gnu/4.9.2/ -mtune=corei7 -march=x86-64 -g -Og
#
# seed -1803826510  2086862697  1756282031 -2012822260  -354125772   191540943  -265608949  1444761309  -401389196   -69786444   368794097  -602124071
#
#      Author: C. J. Pickard (cjp20@cam.ac.uk)
#                Space group: Ccc2
#

%BLOCK LATTICE_ABC
      6.35182      7.53711      9.21304
     90.00000     90.00000    114.92106
%ENDBLOCK LATTICE_ABC

%BLOCK POSITIONS_FRAC
  Li   0.1022952   0.3103090  -0.0150346 SPIN=   0.00000
  Li  -0.1022952  -0.3103090  -0.0150346 SPIN=   0.00000
  Li  -0.2080138  -0.3103090   0.4849654 SPIN=   0.00000
  Li   0.2080138   0.3103090   0.4849654 SPIN=   0.00000
  Fe  -0.4222141  -0.2347933  -0.2083187 SPIN=   4.00000
  Fe   0.4222141   0.2347933  -0.2083187 SPIN=   4.00000
  Fe  -0.1874208   0.2347933   0.2916813 SPIN=   4.00000
  Fe   0.1874208  -0.2347933   0.2916813 SPIN=   4.00000
   O  -0.3020867  -0.1455527   0.0616862 SPIN=   0.00000
   O  -0.5550590  -0.3427474   0.2602523 SPIN=   0.00000
   O  -0.1956458  -0.0493937   0.3175220 SPIN=   0.00000
   O  -0.1715754  -0.3458372   0.2191424 SPIN=   0.00000
   S  -0.3060917  -0.2208827   0.2146507 SPIN=   0.00000
   O   0.3020867   0.1455527   0.0616862 SPIN=   0.00000
   O   0.5550590   0.3427474   0.2602523 SPIN=   0.00000
   O   0.1956458   0.0493937   0.3175220 SPIN=   0.00000
   O   0.1715754   0.3458372   0.2191424 SPIN=   0.00000
   S   0.3060917   0.2208827   0.2146507 SPIN=   0.00000
   O  -0.1565340   0.1455527  -0.4383138 SPIN=   0.00000
   O  -0.2123116   0.3427474  -0.2397477 SPIN=   0.00000
   O  -0.1462521   0.0493937  -0.1824780 SPIN=   0.00000
   O   0.1742617   0.3458372  -0.2808576 SPIN=   0.00000
   S  -0.0852090   0.2208827  -0.2853493 SPIN=   0.00000
   O   0.1565340  -0.1455527  -0.4383138 SPIN=   0.00000
   O   0.2123116  -0.3427474  -0.2397477 SPIN=   0.00000
   O   0.1462521  -0.0493937  -0.1824780 SPIN=   0.00000
   O  -0.1742617  -0.3458372  -0.2808576 SPIN=   0.00000
   S   0.0852090  -0.2208827  -0.2853493 SPIN=   0.00000
   F   0.1975970  -0.2238221   0.0747665 SPIN=   0.00000
   F  -0.1975970   0.2238221   0.0747665 SPIN=   0.00000
   F   0.4214190   0.2238221  -0.4252335 SPIN=   0.00000
   F  -0.4214190  -0.2238221  -0.4252335 SPIN=   0.00000
%ENDBLOCK POSITIONS_FRAC

# Note: total spin =  16.00

KPOINTS_MP_SPACING 0.07

%BLOCK SPECIES_POT
QC5
%ENDBLOCK SPECIES_POT

SNAP_TO_SYMMETRY
SYMMETRY_GENERATE

