#              Generated by Buildcell
#
# at 00:55:45 (GMT+1.0) 18th August 2020
# in /lustre/scratch/uccabz1/launch_tmp
# on node-c12j-016
# by uccabz1
#
# compiler GCC version 4.9.2
# options -cpp -iprefix /lustre/shared/ucl/apps/gcc/4.9.2/bin/../lib/gcc/x86_64-unknown-linux-gnu/4.9.2/ -mtune=corei7 -march=x86-64 -g -Og
#
# seed  1948473655 -1028458825  -401067505 -1639416984   556826815  1339377847   -59044574  -781530379   223711787  1301157618   536035780  1091001002
#
#      Author: C. J. Pickard (cjp20@cam.ac.uk)
#                Space group: P2
#

%BLOCK LATTICE_ABC
      4.01652      9.44489     10.75761
    101.43188     90.00000     90.00000
%ENDBLOCK LATTICE_ABC

%BLOCK POSITIONS_FRAC
  Li   0.0397980   0.1024825  -0.1284939 SPIN=   0.00000
  Li   0.0397980  -0.1024825   0.1284939 SPIN=   0.00000
  Li   0.1780239   0.1875855   0.4063339 SPIN=   0.00000
  Li   0.1780239  -0.1875855  -0.4063339 SPIN=   0.00000
  Fe  -0.4604610  -0.1399518  -0.1553881 SPIN=   3.97634
  Fe  -0.4604610   0.1399518   0.1553881 SPIN=   3.97634
  Fe  -0.2798535   0.1609219  -0.3772453 SPIN=   4.02366
  Fe  -0.2798535  -0.1609219   0.3772453 SPIN=   4.02366
   O  -0.0795410   0.3401083   0.3556050 SPIN=   0.00000
   O  -0.0720381   0.5728030   0.2828717 SPIN=   0.00000
   O  -0.1199648   0.3430959   0.1265768 SPIN=   0.00000
   O   0.4108248   0.4074687   0.2406535 SPIN=   0.00000
   S   0.0348202   0.4158690   0.2514267 SPIN=   0.00000
   O  -0.0795410  -0.3401083  -0.3556050 SPIN=   0.00000
   O  -0.0720381  -0.5728030  -0.2828717 SPIN=   0.00000
   O  -0.1199648  -0.3430959  -0.1265768 SPIN=   0.00000
   O   0.4108248  -0.4074687  -0.2406535 SPIN=   0.00000
   S   0.0348202  -0.4158690  -0.2514267 SPIN=   0.00000
   O  -0.4326332  -0.1482049   0.0717069 SPIN=   0.00000
   O  -0.1137554  -0.3673795   0.0899360 SPIN=   0.00000
   O  -0.6462387  -0.3898101  -0.0281090 SPIN=   0.00000
   O  -0.6457862  -0.3131449   0.2056272 SPIN=   0.00000
   S  -0.4596034  -0.3046348   0.0847903 SPIN=   0.00000
   O  -0.4326332   0.1482049  -0.0717069 SPIN=   0.00000
   O  -0.1137554   0.3673795  -0.0899360 SPIN=   0.00000
   O  -0.6462387   0.3898101   0.0281090 SPIN=   0.00000
   O  -0.6457862   0.3131449  -0.2056272 SPIN=   0.00000
   S  -0.4596034   0.3046348  -0.0847903 SPIN=   0.00000
   F  -0.0164440  -0.0084210   0.3148609 SPIN=   0.00000
   F  -0.0164440   0.0084210  -0.3148609 SPIN=   0.00000
   F   0.4847615  -0.3029537   0.4608741 SPIN=   0.00000
   F   0.4847615   0.3029537  -0.4608741 SPIN=   0.00000
%ENDBLOCK POSITIONS_FRAC

# Note: total spin =  16.00

KPOINTS_MP_SPACING 0.07

%BLOCK SPECIES_POT
QC5
%ENDBLOCK SPECIES_POT

SNAP_TO_SYMMETRY
SYMMETRY_GENERATE

