#              Generated by Buildcell
#
# at 06:27:11 (GMT+1.0) 4th August 2020
# in /lustre/scratch/uccabz1/launch_tmp
# on node-c12o-004
# by uccabz1
#
# compiler GCC version 4.9.2
# options -cpp -iprefix /lustre/shared/ucl/apps/gcc/4.9.2/bin/../lib/gcc/x86_64-unknown-linux-gnu/4.9.2/ -mtune=corei7 -march=x86-64 -g -Og
#
# seed  1415254109   732966589  -745028130  -156078643  -125646548  2085012392 -1956732566 -1146226610 -1223462044 -1554668828  -247949483 -1919321727
#
#      Author: C. J. Pickard (cjp20@cam.ac.uk)
#                Space group: C2/c
#

%BLOCK LATTICE_ABC
      5.65513      5.65513     13.05323
     97.95272     97.95272    100.97912
%ENDBLOCK LATTICE_ABC

%BLOCK POSITIONS_FRAC
  Li   0.1626752  -0.3041885  -0.0717491 SPIN=   0.00000
  Li  -0.6958115  -0.1626752  -0.4282509 SPIN=   0.00000
  Li  -0.1626752   0.3041885   0.0717491 SPIN=   0.00000
  Li   0.6958115   0.1626752   0.4282509 SPIN=   0.00000
  Fe  -0.3207818  -0.1967819   0.1618045 SPIN=   4.00000
  Fe   0.1967819   0.3207818   0.3381955 SPIN=   4.00000
  Fe   0.3207818   0.1967819  -0.1618045 SPIN=   4.00000
  Fe  -0.1967819  -0.3207818  -0.3381955 SPIN=   4.00000
   O   0.5392174   0.1159630   0.1622680 SPIN=   0.00000
   O   0.4236012   0.4819533   0.1031309 SPIN=   0.00000
   O   0.1069898   0.1537668   0.1408972 SPIN=   0.00000
   O   0.3029603   0.0821429  -0.0154437 SPIN=   0.00000
   S   0.3431922   0.2084565   0.0977131 SPIN=   0.00000
   O   0.8840370   0.4607826   0.3377320 SPIN=   0.00000
   O   0.5180467   0.5763988   0.3968691 SPIN=   0.00000
   O   0.8462332   0.8930102   0.3591028 SPIN=   0.00000
   O   0.9178571   0.6970397   0.5154437 SPIN=   0.00000
   S   0.7915435   0.6568078   0.4022869 SPIN=   0.00000
   O  -0.5392174  -0.1159630  -0.1622680 SPIN=   0.00000
   O  -0.4236012  -0.4819533  -0.1031309 SPIN=   0.00000
   O  -0.1069898  -0.1537668  -0.1408972 SPIN=   0.00000
   O  -0.3029603  -0.0821429   0.0154437 SPIN=   0.00000
   S  -0.3431922  -0.2084565  -0.0977131 SPIN=   0.00000
   O  -0.8840370  -0.4607826  -0.3377320 SPIN=   0.00000
   O  -0.5180467  -0.5763988  -0.3968691 SPIN=   0.00000
   O  -0.8462332  -0.8930102  -0.3591028 SPIN=   0.00000
   O  -0.9178571  -0.6970397  -0.5154437 SPIN=   0.00000
   S  -0.7915435  -0.6568078  -0.4022869 SPIN=   0.00000
   F   0.3588127   0.0321431   0.3678875 SPIN=   0.00000
   F  -0.0321431  -0.3588127   0.1321125 SPIN=   0.00000
   F  -0.3588127  -0.0321431  -0.3678875 SPIN=   0.00000
   F   0.0321431   0.3588127  -0.1321125 SPIN=   0.00000
%ENDBLOCK POSITIONS_FRAC

# Note: total spin =  16.00

KPOINTS_MP_SPACING 0.07

%BLOCK SPECIES_POT
QC5
%ENDBLOCK SPECIES_POT

SNAP_TO_SYMMETRY
SYMMETRY_GENERATE

