#              Generated by Buildcell
#
# at 09:21:11 (GMT+1.0) 4th August 2020
# in /lustre/scratch/uccabz1/launch_tmp
# on node-c12e-010
# by uccabz1
#
# compiler GCC version 4.9.2
# options -cpp -iprefix /lustre/shared/ucl/apps/gcc/4.9.2/bin/../lib/gcc/x86_64-unknown-linux-gnu/4.9.2/ -mtune=corei7 -march=x86-64 -g -Og
#
# seed  1365312321 -1690189977 -1730993048   508663079   -36645846 -1687865396   805763678 -1296987741  -679718959 -2052393586    64413594 -1581073578
#
#      Author: C. J. Pickard (cjp20@cam.ac.uk)
#                Space group: P2
#

%BLOCK LATTICE_ABC
      4.08534      7.54201     13.31840
    102.90283     90.00000     90.00000
%ENDBLOCK LATTICE_ABC

%BLOCK POSITIONS_FRAC
  Li  -0.2140242  -0.0897650  -0.1490145 SPIN=   0.00000
  Li  -0.2140242   0.0897650   0.1490145 SPIN=   0.00000
  Li  -0.1336011  -0.0000000   0.5000000 SPIN=   0.00000
  Li  -0.1440422  -0.5000000  -0.0000000 SPIN=   0.00000
  Fe  -0.0973056   0.2544327  -0.2190714 SPIN=   1.95737
  Fe  -0.0973056  -0.2544327   0.2190714 SPIN=   1.95737
  Fe   0.2902443   0.2016280   0.3366498 SPIN=   6.04263
  Fe   0.2902443  -0.2016280  -0.3366498 SPIN=   6.04263
   O   0.5751788  -0.4902820  -0.2395636 SPIN=   0.00000
   O   0.6440563  -0.2797675  -0.0694819 SPIN=   0.00000
   O   0.2647715  -0.5411019  -0.0888989 SPIN=   0.00000
   O   0.1261728  -0.2809870  -0.1660427 SPIN=   0.00000
   S   0.4025449  -0.3980346  -0.1409968 SPIN=   0.00000
   O   0.5751788   0.4902820   0.2395636 SPIN=   0.00000
   O   0.6440563   0.2797675   0.0694819 SPIN=   0.00000
   O   0.2647715   0.5411019   0.0888989 SPIN=   0.00000
   O   0.1261728   0.2809870   0.1660427 SPIN=   0.00000
   S   0.4025449   0.3980346   0.1409968 SPIN=   0.00000
   O   0.5699364   0.1523007  -0.3491882 SPIN=   0.00000
   O   0.1260169   0.3753792  -0.3497157 SPIN=   0.00000
   O   0.2671800   0.1522155  -0.5101519 SPIN=   0.00000
   O   0.6488838   0.4035552  -0.4386990 SPIN=   0.00000
   S   0.4030042   0.2708626  -0.4119387 SPIN=   0.00000
   O   0.5699364  -0.1523007   0.3491882 SPIN=   0.00000
   O   0.1260169  -0.3753792   0.3497157 SPIN=   0.00000
   O   0.2671800  -0.1522155   0.5101519 SPIN=   0.00000
   O   0.6488838  -0.4035552   0.4386990 SPIN=   0.00000
   S   0.4030042  -0.2708626   0.4119387 SPIN=   0.00000
   F  -0.1330082  -0.2655549  -0.3626566 SPIN=   0.00000
   F  -0.1330082   0.2655549   0.3626566 SPIN=   0.00000
   F  -0.0661513  -0.1544589   0.1084987 SPIN=   0.00000
   F  -0.0661513   0.1544589  -0.1084987 SPIN=   0.00000
%ENDBLOCK POSITIONS_FRAC

# Note: total spin =  16.00

KPOINTS_MP_SPACING 0.07

%BLOCK SPECIES_POT
QC5
%ENDBLOCK SPECIES_POT

SNAP_TO_SYMMETRY
SYMMETRY_GENERATE

