#              Generated by Buildcell
#
# at 08:11:55 (GMT+1.0) 4th August 2020
# in /lustre/scratch/uccabz1/launch_tmp
# on node-c12l-020
# by uccabz1
#
# compiler GCC version 4.9.2
# options -cpp -iprefix /lustre/shared/ucl/apps/gcc/4.9.2/bin/../lib/gcc/x86_64-unknown-linux-gnu/4.9.2/ -mtune=corei7 -march=x86-64 -g -Og
#
# seed  -653020471 -2010190487  -263728069 -1243976675   629790312 -1107928759 -1596767239  1807171863   469175717  1302164049 -1976339026  -147050975
#
#      Author: C. J. Pickard (cjp20@cam.ac.uk)
#                Space group: P21212
#

%BLOCK LATTICE_ABC
      6.34867      7.93549      7.93969
     90.00000     90.00000     90.00000
%ENDBLOCK LATTICE_ABC

%BLOCK POSITIONS_FRAC
  Li  -0.0024317   0.2499664  -0.0118045 SPIN=   0.00000
  Li  -0.0024317  -0.2499664   0.0118045 SPIN=   0.00000
  Li   0.0024317   0.2500336   0.4881955 SPIN=   0.00000
  Li   0.0024317  -0.2500336  -0.4881955 SPIN=   0.00000
  Fe   0.1982990  -0.0113171   0.2606040 SPIN=   4.00000
  Fe   0.1982990   0.0113171  -0.2606040 SPIN=   4.00000
  Fe  -0.1982990  -0.4886829  -0.2393960 SPIN=   4.00000
  Fe  -0.1982990   0.4886829   0.2393960 SPIN=   4.00000
   O  -0.2838531  -0.1438548   0.4391488 SPIN=   0.00000
   O  -0.4917036  -0.3985018   0.3701294 SPIN=   0.00000
   O  -0.6703615  -0.1439211   0.4797268 SPIN=   0.00000
   O  -0.4428898  -0.3137209   0.6675498 SPIN=   0.00000
   S  -0.4722020  -0.2499997   0.4891387 SPIN=   0.00000
   O  -0.2838531   0.1438548  -0.4391488 SPIN=   0.00000
   O  -0.4917036   0.3985018  -0.3701294 SPIN=   0.00000
   O  -0.6703615   0.1439211  -0.4797268 SPIN=   0.00000
   O  -0.4428898   0.3137209  -0.6675498 SPIN=   0.00000
   S  -0.4722020   0.2499997  -0.4891387 SPIN=   0.00000
   O   0.2838531  -0.3561452  -0.0608512 SPIN=   0.00000
   O   0.4917036  -0.1014982  -0.1298706 SPIN=   0.00000
   O   0.6703615  -0.3560789  -0.0202732 SPIN=   0.00000
   O   0.4428898  -0.1862791   0.1675498 SPIN=   0.00000
   S   0.4722020  -0.2500003  -0.0108613 SPIN=   0.00000
   O   0.2838531   0.3561452   0.0608512 SPIN=   0.00000
   O   0.4917036   0.1014982   0.1298706 SPIN=   0.00000
   O   0.6703615   0.3560789   0.0202732 SPIN=   0.00000
   O   0.4428898   0.1862791  -0.1675498 SPIN=   0.00000
   S   0.4722020   0.2500003   0.0108613 SPIN=   0.00000
   F   0.0445998  -0.3175767   0.2662522 SPIN=   0.00000
   F   0.0445998   0.3175767  -0.2662522 SPIN=   0.00000
   F  -0.0445998  -0.1824233  -0.2337478 SPIN=   0.00000
   F  -0.0445998   0.1824233   0.2337478 SPIN=   0.00000
%ENDBLOCK POSITIONS_FRAC

# Note: total spin =  16.00

KPOINTS_MP_SPACING 0.07

%BLOCK SPECIES_POT
QC5
%ENDBLOCK SPECIES_POT

SNAP_TO_SYMMETRY
SYMMETRY_GENERATE

