#              Generated by Buildcell
#
# at 08:16:22 (GMT+1.0) 4th August 2020
# in /lustre/scratch/uccabz1/launch_tmp
# on node-c12p-004
# by uccabz1
#
# compiler GCC version 4.9.2
# options -cpp -iprefix /lustre/shared/ucl/apps/gcc/4.9.2/bin/../lib/gcc/x86_64-unknown-linux-gnu/4.9.2/ -mtune=corei7 -march=x86-64 -g -Og
#
# seed   720795865  -225393939  2110291957   308964438  1047992989   983131239   253606550 -1037710033  1981074482  1698526844 -1852589217   119682180
#
#      Author: C. J. Pickard (cjp20@cam.ac.uk)
#                Space group: Pc
#

%BLOCK LATTICE_ABC
      5.19817      7.67475     10.03030
     90.00000     90.00000     91.59611
%ENDBLOCK LATTICE_ABC

%BLOCK POSITIONS_FRAC
  Li  -0.4244958  -0.0255076  -0.0074536 SPIN=   0.00000
  Li  -0.4244958   0.4744924   0.0074536 SPIN=   0.00000
  Li   0.0928913   0.2072729   0.4987131 SPIN=   0.00000
  Li   0.0928913  -0.2927271  -0.4987131 SPIN=   0.00000
  Fe   0.3383965  -0.0453409  -0.3129230 SPIN=   5.79978
  Fe   0.3383965   0.4546591   0.3129230 SPIN=   5.79978
  Fe  -0.1489501  -0.2340757   0.1881354 SPIN=   2.20022
  Fe  -0.1489501   0.2659243  -0.1881354 SPIN=   2.20022
   O   0.3480087   0.0298495   0.2141138 SPIN=   0.00000
   O   0.0510274  -0.0951709   0.3840010 SPIN=   0.00000
   O   0.4139027   0.1002762   0.4526782 SPIN=   0.00000
   O   0.4980964  -0.1963136   0.3694657 SPIN=   0.00000
   S   0.3277588  -0.0403397   0.3550647 SPIN=   0.00000
   O   0.3480087   0.5298495  -0.2141138 SPIN=   0.00000
   O   0.0510274   0.4048291  -0.3840010 SPIN=   0.00000
   O   0.4139027   0.6002762  -0.4526782 SPIN=   0.00000
   O   0.4980964   0.3036864  -0.3694657 SPIN=   0.00000
   S   0.3277588   0.4596603  -0.3550647 SPIN=   0.00000
   O  -0.4198822   0.3210299   0.1605809 SPIN=   0.00000
   O  -0.0306030   0.3025557   0.0197911 SPIN=   0.00000
   O  -0.1991203   0.0408896   0.1387077 SPIN=   0.00000
   O   0.0061812   0.2840729   0.2653560 SPIN=   0.00000
   S  -0.1608561   0.2371370   0.1461089 SPIN=   0.00000
   O  -0.4198822  -0.1789701  -0.1605809 SPIN=   0.00000
   O  -0.0306030  -0.1974443  -0.0197911 SPIN=   0.00000
   O  -0.1991203  -0.4591104  -0.1387077 SPIN=   0.00000
   O   0.0061812  -0.2159271  -0.2653560 SPIN=   0.00000
   S  -0.1608561  -0.2628630  -0.1461089 SPIN=   0.00000
   F   0.3427025  -0.3671990   0.1002408 SPIN=   0.00000
   F   0.3427025   0.1328010  -0.1002408 SPIN=   0.00000
   F  -0.1604265   0.0571411  -0.4061475 SPIN=   0.00000
   F  -0.1604265  -0.4428589   0.4061475 SPIN=   0.00000
%ENDBLOCK POSITIONS_FRAC

# Note: total spin =  16.00

KPOINTS_MP_SPACING 0.07

%BLOCK SPECIES_POT
QC5
%ENDBLOCK SPECIES_POT

SNAP_TO_SYMMETRY
SYMMETRY_GENERATE

