#              Generated by Buildcell
#
# at 06:12:39 (GMT+1.0) 4th August 2020
# in /lustre/scratch/uccabz1/launch_tmp
# on node-c12p-027
# by uccabz1
#
# compiler GCC version 4.9.2
# options -cpp -iprefix /lustre/shared/ucl/apps/gcc/4.9.2/bin/../lib/gcc/x86_64-unknown-linux-gnu/4.9.2/ -mtune=corei7 -march=x86-64 -g -Og
#
# seed  1847619638  -487876468  1326091138   608286263   856860284  1281045415   192232617   231690778 -1962036177  2055598300  1882865377  1983086656
#
#      Author: C. J. Pickard (cjp20@cam.ac.uk)
#                Space group: Pcc2
#

%BLOCK LATTICE_ABC
      6.94560      7.52846      7.64970
     90.00000     90.00000     90.00000
%ENDBLOCK LATTICE_ABC

%BLOCK POSITIONS_FRAC
  Li   0.2469407  -0.1467982  -0.0798134 SPIN=   0.00000
  Li  -0.2469407  -0.1467982   0.0798134 SPIN=   0.00000
  Li   0.2469407   0.3532018   0.0798134 SPIN=   0.00000
  Li  -0.2469407   0.3532018  -0.0798134 SPIN=   0.00000
  Fe  -0.3942965  -0.1732780  -0.2858097 SPIN=   4.00000
  Fe   0.3942965  -0.1732780   0.2858097 SPIN=   4.00000
  Fe  -0.3942965   0.3267220   0.2858097 SPIN=   4.00000
  Fe   0.3942965   0.3267220  -0.2858097 SPIN=   4.00000
   O  -0.1312794  -0.0611117  -0.1875468 SPIN=   0.00000
   O   0.1174764   0.0328728  -0.3999166 SPIN=   0.00000
   O   0.1182040   0.1560785  -0.0999729 SPIN=   0.00000
   O  -0.1368924   0.2436291  -0.3087754 SPIN=   0.00000
   S  -0.0081228   0.0928672  -0.2490529 SPIN=   0.00000
   O   0.1312794  -0.0611117   0.1875468 SPIN=   0.00000
   O  -0.1174764   0.0328728   0.3999166 SPIN=   0.00000
   O  -0.1182040   0.1560785   0.0999729 SPIN=   0.00000
   O   0.1368924   0.2436291   0.3087754 SPIN=   0.00000
   S   0.0081228   0.0928672   0.2490529 SPIN=   0.00000
   O  -0.1312794  -0.5611117   0.1875468 SPIN=   0.00000
   O   0.1174764  -0.4671272   0.3999166 SPIN=   0.00000
   O   0.1182040  -0.3439215   0.0999729 SPIN=   0.00000
   O  -0.1368924  -0.2563709   0.3087754 SPIN=   0.00000
   S  -0.0081228  -0.4071328   0.2490529 SPIN=   0.00000
   O   0.1312794  -0.5611117  -0.1875468 SPIN=   0.00000
   O  -0.1174764  -0.4671272  -0.3999166 SPIN=   0.00000
   O  -0.1182040  -0.3439215  -0.0999729 SPIN=   0.00000
   O   0.1368924  -0.2563709  -0.3087754 SPIN=   0.00000
   S   0.0081228  -0.4071328  -0.2490529 SPIN=   0.00000
   F   0.4820213  -0.4559712   0.2336549 SPIN=   0.00000
   F  -0.4820213  -0.4559712  -0.2336549 SPIN=   0.00000
   F   0.4820213   0.0440288  -0.2336549 SPIN=   0.00000
   F  -0.4820213   0.0440288   0.2336549 SPIN=   0.00000
%ENDBLOCK POSITIONS_FRAC

# Note: total spin =  16.00

KPOINTS_MP_SPACING 0.07

%BLOCK SPECIES_POT
QC5
%ENDBLOCK SPECIES_POT

SNAP_TO_SYMMETRY
SYMMETRY_GENERATE

