#              Generated by Buildcell
#
# at 15:02:01 (GMT+1.0) 18th August 2020
# in /lustre/scratch/uccabz1/launch_tmp
# on node-c12f-006
# by uccabz1
#
# compiler GCC version 4.9.2
# options -cpp -iprefix /lustre/shared/ucl/apps/gcc/4.9.2/bin/../lib/gcc/x86_64-unknown-linux-gnu/4.9.2/ -mtune=corei7 -march=x86-64 -g -Og
#
# seed  -389666115  1408193330  -544985644 -1579760658  -178318916  -351301165   385746624   836912830 -1572758482    89937525  1331386196   673027054
#
#      Author: C. J. Pickard (cjp20@cam.ac.uk)
#                Space group: Pc
#

%BLOCK LATTICE_ABC
      4.64463      5.69911     15.17370
     90.00000     95.19822     90.00000
%ENDBLOCK LATTICE_ABC

%BLOCK POSITIONS_FRAC
  Li   0.2765065   0.3525796  -0.0632072 SPIN=   0.00000
  Li   0.7765065  -0.3525796   0.4367928 SPIN=   0.00000
  Li   0.3022281  -0.0495277   0.1441169 SPIN=   0.00000
  Li  -0.1977719   0.0495277  -0.3558831 SPIN=   0.00000
  Fe   0.2882809  -0.0497507   0.3422875 SPIN=   3.53498
  Fe  -0.2117191   0.0497507  -0.1577125 SPIN=   3.53498
  Fe  -0.2192466   0.2281690   0.0715678 SPIN=   4.46502
  Fe  -0.7192466  -0.2281690  -0.4284322 SPIN=   4.46502
   O  -0.2055808  -0.0584495   0.1799265 SPIN=   0.00000
   O  -0.1674261  -0.3246592   0.3093203 SPIN=   0.00000
   O  -0.0629775  -0.4730244   0.1622719 SPIN=   0.00000
   O  -0.5652284  -0.3751064   0.1908720 SPIN=   0.00000
   S  -0.2503032  -0.3078099   0.2105977 SPIN=   0.00000
   O  -0.7055808   0.0584495  -0.3200735 SPIN=   0.00000
   O  -0.6674261   0.3246592  -0.1906797 SPIN=   0.00000
   O  -0.5629775   0.4730244  -0.3377281 SPIN=   0.00000
   O  -1.0652284   0.3751064  -0.3091280 SPIN=   0.00000
   S  -0.7503032   0.3078099  -0.2894023 SPIN=   0.00000
   O   0.0514820  -0.2432946   0.0201911 SPIN=   0.00000
   O   0.4183903   0.0590553  -0.0042271 SPIN=   0.00000
   O   0.2780863  -0.2323751  -0.1212201 SPIN=   0.00000
   O   0.5646719  -0.3563326   0.0163533 SPIN=   0.00000
   S   0.3281577  -0.1932367  -0.0222257 SPIN=   0.00000
   O   0.5514820   0.2432946   0.5201911 SPIN=   0.00000
   O   0.9183903  -0.0590553   0.4957729 SPIN=   0.00000
   O   0.7780863   0.2323751   0.3787799 SPIN=   0.00000
   O   1.0646719   0.3563326   0.5163533 SPIN=   0.00000
   S   0.8281577   0.1932367   0.4777743 SPIN=   0.00000
   F   0.3468846  -0.3120814   0.4197124 SPIN=   0.00000
   F  -0.1531154   0.3120814  -0.0802876 SPIN=   0.00000
   F  -0.2211400  -0.1863606  -0.2468975 SPIN=   0.00000
   F   0.2788600   0.1863606   0.2531025 SPIN=   0.00000
%ENDBLOCK POSITIONS_FRAC

# Note: total spin =  16.00

KPOINTS_MP_SPACING 0.07

%BLOCK SPECIES_POT
QC5
%ENDBLOCK SPECIES_POT

SNAP_TO_SYMMETRY
SYMMETRY_GENERATE

