#              Generated by Buildcell
#
# at 00:34:33 (GMT+1.0) 18th August 2020
# in /lustre/scratch/uccabz1/launch_tmp
# on node-c12p-024
# by uccabz1
#
# compiler GCC version 4.9.2
# options -cpp -iprefix /lustre/shared/ucl/apps/gcc/4.9.2/bin/../lib/gcc/x86_64-unknown-linux-gnu/4.9.2/ -mtune=corei7 -march=x86-64 -g -Og
#
# seed  1335912575  -617562928  -837170037  1078016592  -527388165  -841655147   757534075 -1508872287  1749409894  1536868303  1663619016  -554585123
#
#      Author: C. J. Pickard (cjp20@cam.ac.uk)
#                Space group: P212121
#

%BLOCK LATTICE_ABC
      3.88984      8.06818     12.74537
     90.00000     90.00000     90.00000
%ENDBLOCK LATTICE_ABC

%BLOCK POSITIONS_FRAC
  Li  -0.0901128   0.3322293   0.3216603 SPIN=   0.00000
  Li   0.4098872  -0.3322293   0.1783397 SPIN=   0.00000
  Li  -0.4098872  -0.1677707  -0.3216603 SPIN=   0.00000
  Li   0.0901128   0.1677707  -0.1783397 SPIN=   0.00000
  Fe  -0.2595648  -0.4463809  -0.0272284 SPIN=   4.00000
  Fe   0.2404352   0.4463809  -0.4727716 SPIN=   4.00000
  Fe  -0.2404352   0.0536191   0.0272284 SPIN=   4.00000
  Fe   0.2595648  -0.0536191   0.4727716 SPIN=   4.00000
   O   0.0230633   0.1860690   0.1407586 SPIN=   0.00000
   O   0.4202189   0.3268478   0.0179931 SPIN=   0.00000
   O   0.5401363   0.3290076   0.2086863 SPIN=   0.00000
   O   0.0547780   0.4923898   0.1375107 SPIN=   0.00000
   S   0.2595491   0.3335785   0.1262372 SPIN=   0.00000
   O  -0.4769367  -0.1860690   0.3592414 SPIN=   0.00000
   O  -0.0797811  -0.3268478   0.4820069 SPIN=   0.00000
   O   0.0401363  -0.3290076   0.2913137 SPIN=   0.00000
   O  -0.4452220  -0.4923898   0.3624893 SPIN=   0.00000
   S  -0.2404509  -0.3335785   0.3737628 SPIN=   0.00000
   O   0.4769367  -0.3139310  -0.1407586 SPIN=   0.00000
   O   0.0797811  -0.1731522  -0.0179931 SPIN=   0.00000
   O  -0.0401363  -0.1709924  -0.2086863 SPIN=   0.00000
   O   0.4452220  -0.0076102  -0.1375107 SPIN=   0.00000
   S   0.2404509  -0.1664215  -0.1262372 SPIN=   0.00000
   O  -0.0230633   0.3139310  -0.3592414 SPIN=   0.00000
   O  -0.4202189   0.1731522  -0.4820069 SPIN=   0.00000
   O  -0.5401363   0.1709924  -0.2913137 SPIN=   0.00000
   O  -0.0547780   0.0076102  -0.3624893 SPIN=   0.00000
   S  -0.2595491   0.1664215  -0.3737628 SPIN=   0.00000
   F   0.0237065   0.0900822   0.3524805 SPIN=   0.00000
   F  -0.4762935  -0.0900822   0.1475195 SPIN=   0.00000
   F   0.4762935  -0.4099178  -0.3524805 SPIN=   0.00000
   F  -0.0237065   0.4099178  -0.1475195 SPIN=   0.00000
%ENDBLOCK POSITIONS_FRAC

# Note: total spin =  16.00

KPOINTS_MP_SPACING 0.07

%BLOCK SPECIES_POT
QC5
%ENDBLOCK SPECIES_POT

SNAP_TO_SYMMETRY
SYMMETRY_GENERATE

