#              Generated by Buildcell
#
# at 05:59:30 (GMT+1.0) 4th August 2020
# in /lustre/scratch/uccabz1/launch_tmp
# on node-c12p-012
# by uccabz1
#
# compiler GCC version 4.9.2
# options -cpp -iprefix /lustre/shared/ucl/apps/gcc/4.9.2/bin/../lib/gcc/x86_64-unknown-linux-gnu/4.9.2/ -mtune=corei7 -march=x86-64 -g -Og
#
# seed  -867299917 -1687895439  -650203157 -1128445139   149758664  -249715367   879284790  -600494165  -675624332  -833223738 -1154327958 -1623936252
#
#      Author: C. J. Pickard (cjp20@cam.ac.uk)
#                Space group: Pca21
#

%BLOCK LATTICE_ABC
      5.06098      6.20987     12.72747
     90.00000     90.00000     90.00000
%ENDBLOCK LATTICE_ABC

%BLOCK POSITIONS_FRAC
  Li  -0.1750819   0.3001032  -0.3371320 SPIN=   0.00000
  Li   0.1750819  -0.1998968   0.3371320 SPIN=   0.00000
  Li   0.1750819   0.3001032   0.1628680 SPIN=   0.00000
  Li  -0.1750819  -0.1998968  -0.1628680 SPIN=   0.00000
  Fe  -0.3365386  -0.4262394   0.1700549 SPIN=   4.00000
  Fe   0.3365386   0.0737606  -0.1700549 SPIN=   4.00000
  Fe   0.3365386  -0.4262394  -0.3299451 SPIN=   4.00000
  Fe  -0.3365386   0.0737606   0.3299451 SPIN=   4.00000
   O  -0.2117258  -0.2398871   0.3916421 SPIN=   0.00000
   O  -0.4478837  -0.5595651   0.3233423 SPIN=   0.00000
   O  -0.5898303  -0.3913745   0.4903489 SPIN=   0.00000
   O  -0.1672017  -0.5911001   0.4818274 SPIN=   0.00000
   S  -0.3541604  -0.4454817   0.4217902 SPIN=   0.00000
   O   0.2117258   0.2601129  -0.3916421 SPIN=   0.00000
   O   0.4478837  -0.0595651  -0.3233423 SPIN=   0.00000
   O   0.5898303   0.1086255  -0.4903489 SPIN=   0.00000
   O   0.1672017  -0.0911001  -0.4818274 SPIN=   0.00000
   S   0.3541604   0.0545183  -0.4217902 SPIN=   0.00000
   O   0.2117258  -0.2398871  -0.1083579 SPIN=   0.00000
   O   0.4478837  -0.5595651  -0.1766577 SPIN=   0.00000
   O   0.5898303  -0.3913745  -0.0096511 SPIN=   0.00000
   O   0.1672017  -0.5911001  -0.0181726 SPIN=   0.00000
   S   0.3541604  -0.4454817  -0.0782098 SPIN=   0.00000
   O  -0.2117258   0.2601129   0.1083579 SPIN=   0.00000
   O  -0.4478837  -0.0595651   0.1766577 SPIN=   0.00000
   O  -0.5898303   0.1086255   0.0096511 SPIN=   0.00000
   O  -0.1672017  -0.0911001   0.0181726 SPIN=   0.00000
   S  -0.3541604   0.0545183   0.0782098 SPIN=   0.00000
   F   0.0490942  -0.3675633   0.1580787 SPIN=   0.00000
   F  -0.0490942   0.1324367  -0.1580787 SPIN=   0.00000
   F  -0.0490942  -0.3675633  -0.3419213 SPIN=   0.00000
   F   0.0490942   0.1324367   0.3419213 SPIN=   0.00000
%ENDBLOCK POSITIONS_FRAC

# Note: total spin =  16.00

KPOINTS_MP_SPACING 0.07

%BLOCK SPECIES_POT
QC5
%ENDBLOCK SPECIES_POT

SNAP_TO_SYMMETRY
SYMMETRY_GENERATE

