#              Generated by Buildcell
#
# at 22:48:51 (GMT+1.0) 17th August 2020
# in /scratch/scratch/uccabz1/launch_tmp
# on node-k10d-022
# by uccabz1
#
# compiler GCC version 4.9.2
# options -cpp -iprefix /scratch/UCL/applications/gcc/4.9.2/bin/../lib/gcc/x86_64-unknown-linux-gnu/4.9.2/ -mtune=corei7 -march=x86-64 -g -O2
#
# seed  1290858793 -1831008451  1027714377 -1017429330   366479435   322095954 -1459082418 -2077040212  -396146567  1450660560  -159077895 -1172153107
#
#      Author: C. J. Pickard (cjp20@cam.ac.uk)
#                Space group: Pm
#

%BLOCK LATTICE_ABC
      4.87754      6.29398     13.05928
     90.00000     90.00000     93.85692
%ENDBLOCK LATTICE_ABC

%BLOCK POSITIONS_FRAC
  Li  -0.3277871   0.1668786  -0.0000000 SPIN=   0.00000
  Li  -0.2168983   0.3671474  -0.5000000 SPIN=   0.00000
  Li   0.1395066  -0.3139755   0.0000000 SPIN=   0.00000
  Li   0.3171424  -0.1523512  -0.5000000 SPIN=   0.00000
  Fe  -0.4346106  -0.4691325  -0.1450786 SPIN=   5.20464
  Fe  -0.4346106  -0.4691325   0.1450786 SPIN=   5.20464
  Fe  -0.1288069  -0.0043182   0.3548420 SPIN=   2.79536
  Fe  -0.1288069  -0.0043182  -0.3548420 SPIN=   2.79536
   O   0.1004582   0.1203277   0.1693544 SPIN=   0.00000
   O   0.3985959  -0.0468772   0.2951077 SPIN=   0.00000
   O   0.6053776   0.1898261   0.1604947 SPIN=   0.00000
   O   0.3926632  -0.1653665   0.1143723 SPIN=   0.00000
   S   0.3742737   0.0244775   0.1848323 SPIN=   0.00000
   O   0.1004582   0.1203277  -0.1693544 SPIN=   0.00000
   O   0.3985959  -0.0468772  -0.2951077 SPIN=   0.00000
   O   0.6053776   0.1898261  -0.1604947 SPIN=   0.00000
   O   0.3926632  -0.1653665  -0.1143723 SPIN=   0.00000
   S   0.3742737   0.0244775  -0.1848323 SPIN=   0.00000
   O   0.0568134  -0.3256665   0.3977085 SPIN=   0.00000
   O   0.3513074  -0.5687653   0.3062998 SPIN=   0.00000
   O  -0.0194964  -0.4001966   0.2134546 SPIN=   0.00000
   O  -0.1353658  -0.6809080   0.3420071 SPIN=   0.00000
   S   0.0633146  -0.4938841   0.3148675 SPIN=   0.00000
   O   0.0568134  -0.3256665  -0.3977085 SPIN=   0.00000
   O   0.3513074  -0.5687653  -0.3062998 SPIN=   0.00000
   O  -0.0194964  -0.4001966  -0.2134546 SPIN=   0.00000
   O  -0.1353658  -0.6809080  -0.3420071 SPIN=   0.00000
   S   0.0633146  -0.4938841  -0.3148675 SPIN=   0.00000
   F  -0.1422929  -0.1084568   0.0000000 SPIN=   0.00000
   F  -0.4236583  -0.3758304   0.5000000 SPIN=   0.00000
   F   0.0843876   0.0916862   0.5000000 SPIN=   0.00000
   F   0.3440969   0.4288412   0.0000000 SPIN=   0.00000
%ENDBLOCK POSITIONS_FRAC

# Note: total spin =  16.00

KPOINTS_MP_SPACING 0.07

%BLOCK SPECIES_POT
QC5
%ENDBLOCK SPECIES_POT

SNAP_TO_SYMMETRY
SYMMETRY_GENERATE

