#              Generated by Buildcell
#
# at 08:24:52 (GMT+1.0) 4th August 2020
# in /lustre/scratch/uccabz1/launch_tmp
# on node-c12e-008
# by uccabz1
#
# compiler GCC version 4.9.2
# options -cpp -iprefix /lustre/shared/ucl/apps/gcc/4.9.2/bin/../lib/gcc/x86_64-unknown-linux-gnu/4.9.2/ -mtune=corei7 -march=x86-64 -g -Og
#
# seed   173296236  1100465849  -730600477    83451200  1482085400  -795427526 -2105975264  1035264729   478924042  1031987318 -1429677524  1180392578
#
#      Author: C. J. Pickard (cjp20@cam.ac.uk)
#                Space group: P2
#

%BLOCK LATTICE_ABC
      4.67110      7.38981     11.84412
    101.93730     90.00000     90.00000
%ENDBLOCK LATTICE_ABC

%BLOCK POSITIONS_FRAC
  Li  -0.2670236   0.4205910   0.1616209 SPIN=   0.00000
  Li  -0.2670236  -0.4205910  -0.1616209 SPIN=   0.00000
  Li   0.4179599   0.2318242   0.4678210 SPIN=   0.00000
  Li   0.4179599  -0.2318242  -0.4678210 SPIN=   0.00000
  Fe  -0.0820743   0.2115268  -0.3858542 SPIN=   3.79380
  Fe  -0.0820743  -0.2115268   0.3858542 SPIN=   3.79380
  Fe   0.4167812  -0.0379093  -0.2232950 SPIN=   4.20620
  Fe   0.4167812   0.0379093   0.2232950 SPIN=   4.20620
   O   0.0265304  -0.3822253   0.1782228 SPIN=   0.00000
   O  -0.0172047  -0.3511919  -0.0251495 SPIN=   0.00000
   O   0.0617359  -0.0735225   0.1288497 SPIN=   0.00000
   O  -0.4040674  -0.2363234   0.1140409 SPIN=   0.00000
   S  -0.0832515  -0.2608158   0.0989910 SPIN=   0.00000
   O   0.0265304   0.3822253  -0.1782228 SPIN=   0.00000
   O  -0.0172047   0.3511919   0.0251495 SPIN=   0.00000
   O   0.0617359   0.0735225  -0.1288497 SPIN=   0.00000
   O  -0.4040674   0.2363234  -0.1140409 SPIN=   0.00000
   S  -0.0832515   0.2608158  -0.0989910 SPIN=   0.00000
   O  -0.0838207  -0.2265977  -0.2312020 SPIN=   0.00000
   O  -0.2948093  -0.4874954  -0.3715213 SPIN=   0.00000
   O   0.2140288  -0.4039126  -0.3887990 SPIN=   0.00000
   O  -0.1682563  -0.1972123  -0.4329117 SPIN=   0.00000
   S  -0.0832144  -0.3288045  -0.3561085 SPIN=   0.00000
   O  -0.0838207   0.2265977   0.2312020 SPIN=   0.00000
   O  -0.2948093   0.4874954   0.3715213 SPIN=   0.00000
   O   0.2140288   0.4039126   0.3887990 SPIN=   0.00000
   O  -0.1682563   0.1972123   0.4329117 SPIN=   0.00000
   S  -0.0832144   0.3288045   0.3561085 SPIN=   0.00000
   F   0.4024214  -0.2211310   0.3431492 SPIN=   0.00000
   F   0.4024214   0.2211310  -0.3431492 SPIN=   0.00000
   F   0.4168649   0.2090529   0.1224612 SPIN=   0.00000
   F   0.4168649  -0.2090529  -0.1224612 SPIN=   0.00000
%ENDBLOCK POSITIONS_FRAC

# Note: total spin =  16.00

KPOINTS_MP_SPACING 0.07

%BLOCK SPECIES_POT
QC5
%ENDBLOCK SPECIES_POT

SNAP_TO_SYMMETRY
SYMMETRY_GENERATE

