#              Generated by Buildcell
#
# at 01:08:01 (GMT+1.0) 18th August 2020
# in /lustre/scratch/uccabz1/launch_tmp
# on node-c12o-035
# by uccabz1
#
# compiler GCC version 4.9.2
# options -cpp -iprefix /lustre/shared/ucl/apps/gcc/4.9.2/bin/../lib/gcc/x86_64-unknown-linux-gnu/4.9.2/ -mtune=corei7 -march=x86-64 -g -Og
#
# seed  1570316608   834569102  1479363783   862563078  2097974079   956920466  1523751600   828315507  -942583716 -1442737203  -833363329  1260716688
#
#      Author: C. J. Pickard (cjp20@cam.ac.uk)
#                Space group: C2
#

%BLOCK LATTICE_ABC
      5.62639      5.80229     14.01385
     91.25970     90.00000    119.00216
%ENDBLOCK LATTICE_ABC

%BLOCK POSITIONS_FRAC
  Li  -0.0105066   0.2422936   0.2303753 SPIN=   0.00000
  Li  -0.2528002  -0.2422936  -0.2303753 SPIN=   0.00000
  Li  -0.1239737  -0.3223966   0.0619305 SPIN=   0.00000
  Li   0.1984229   0.3223966  -0.0619305 SPIN=   0.00000
  Fe   0.4536496   0.5937051  -0.4197572 SPIN=   1.45176
  Fe  -0.1400554  -0.5937051   0.4197572 SPIN=   1.45176
  Fe   0.3712302  -0.0731819  -0.1294625 SPIN=   6.54824
  Fe   0.4444122   0.0731819   0.1294625 SPIN=   6.54824
   O   0.0122705   0.5794582  -0.1260608 SPIN=   0.00000
   O  -0.3274312   0.3852875  -0.2572856 SPIN=   0.00000
   O  -0.1717260   0.1100108  -0.1738430 SPIN=   0.00000
   O   0.1402692   0.4596355  -0.2808232 SPIN=   0.00000
   S  -0.0866544   0.3835980  -0.2095032 SPIN=   0.00000
   O  -0.5671877  -0.5794582   0.1260608 SPIN=   0.00000
   O  -0.7127187  -0.3852875   0.2572856 SPIN=   0.00000
   O  -0.2817368  -0.1100108   0.1738430 SPIN=   0.00000
   O  -0.3193663  -0.4596355   0.2808232 SPIN=   0.00000
   S  -0.4702523  -0.3835980   0.2095032 SPIN=   0.00000
   O   0.2888036  -0.1794387  -0.3790486 SPIN=   0.00000
   O  -0.1557275  -0.1893352  -0.3738794 SPIN=   0.00000
   O   0.2449946   0.1962834  -0.4391679 SPIN=   0.00000
   O   0.2188029   0.1150919  -0.2658640 SPIN=   0.00000
   S   0.1492184  -0.0143497  -0.3644900 SPIN=   0.00000
   O   0.4682424   0.1794387   0.3790486 SPIN=   0.00000
   O   0.0336077   0.1893352   0.3738794 SPIN=   0.00000
   O   0.0487112  -0.1962834   0.4391679 SPIN=   0.00000
   O   0.1037109  -0.1150919   0.2658640 SPIN=   0.00000
   S   0.1635680   0.0143497   0.3644900 SPIN=   0.00000
   F  -0.1905127  -0.6714167  -0.4512537 SPIN=   0.00000
   F   0.4809040   0.6714167   0.4512537 SPIN=   0.00000
   F  -0.4516173  -0.3677274  -0.0661306 SPIN=   0.00000
   F  -0.0838899   0.3677274   0.0661306 SPIN=   0.00000
%ENDBLOCK POSITIONS_FRAC

# Note: total spin =  16.00

KPOINTS_MP_SPACING 0.07

%BLOCK SPECIES_POT
QC5
%ENDBLOCK SPECIES_POT

SNAP_TO_SYMMETRY
SYMMETRY_GENERATE

