#              Generated by Buildcell
#
# at 06:39:38 (GMT+1.0) 4th August 2020
# in /lustre/scratch/uccabz1/launch_tmp
# on node-c12p-015
# by uccabz1
#
# compiler GCC version 4.9.2
# options -cpp -iprefix /lustre/shared/ucl/apps/gcc/4.9.2/bin/../lib/gcc/x86_64-unknown-linux-gnu/4.9.2/ -mtune=corei7 -march=x86-64 -g -Og
#
# seed -1175413597 -1744327499   846554081   499931933 -1108458157  1209105427  1650011058    55987267  1975905784  -884059049 -1300141372  -634728169
#
#      Author: C. J. Pickard (cjp20@cam.ac.uk)
#                Space group: P-4
#

%BLOCK LATTICE_ABC
      6.04863      8.13207      8.13207
     90.00000     90.00000     90.00000
%ENDBLOCK LATTICE_ABC

%BLOCK POSITIONS_FRAC
  Li  -0.4244616   0.4138503  -0.2024790 SPIN=   0.00000
  Li  -0.4244616  -0.4138503   0.2024790 SPIN=   0.00000
  Li   0.4244616  -0.2024790  -0.4138503 SPIN=   0.00000
  Li   0.4244616   0.2024790   0.4138503 SPIN=   0.00000
  Fe  -0.0950742   0.2091505   0.3976017 SPIN=   4.00000
  Fe  -0.0950742  -0.2091505  -0.3976017 SPIN=   4.00000
  Fe   0.0950742   0.3976017  -0.2091505 SPIN=   4.00000
  Fe   0.0950742  -0.3976017   0.2091505 SPIN=   4.00000
   O   0.1759071  -0.1355091  -0.2665646 SPIN=   0.00000
   O   0.2330492  -0.3949000  -0.1131709 SPIN=   0.00000
   O   0.1522747  -0.1372539   0.0372572 SPIN=   0.00000
   O   0.5142009  -0.1741973  -0.0998046 SPIN=   0.00000
   S   0.2688580  -0.2104651  -0.1105707 SPIN=   0.00000
   O   0.1759071   0.1355091   0.2665646 SPIN=   0.00000
   O   0.2330492   0.3949000   0.1131709 SPIN=   0.00000
   O   0.1522747   0.1372539  -0.0372572 SPIN=   0.00000
   O   0.5142009   0.1741973   0.0998046 SPIN=   0.00000
   S   0.2688580   0.2104651   0.1105707 SPIN=   0.00000
   O  -0.1759071  -0.2665646   0.1355091 SPIN=   0.00000
   O  -0.2330492  -0.1131709   0.3949000 SPIN=   0.00000
   O  -0.1522747   0.0372572   0.1372539 SPIN=   0.00000
   O  -0.5142009  -0.0998046   0.1741973 SPIN=   0.00000
   S  -0.2688580  -0.1105707   0.2104651 SPIN=   0.00000
   O  -0.1759071   0.2665646  -0.1355091 SPIN=   0.00000
   O  -0.2330492   0.1131709  -0.3949000 SPIN=   0.00000
   O  -0.1522747  -0.0372572  -0.1372539 SPIN=   0.00000
   O  -0.5142009   0.0998046  -0.1741973 SPIN=   0.00000
   S  -0.2688580   0.1105707  -0.2104651 SPIN=   0.00000
   F   0.2336327   0.2652693  -0.4138574 SPIN=   0.00000
   F   0.2336327  -0.2652693   0.4138574 SPIN=   0.00000
   F  -0.2336327  -0.4138574  -0.2652693 SPIN=   0.00000
   F  -0.2336327   0.4138574   0.2652693 SPIN=   0.00000
%ENDBLOCK POSITIONS_FRAC

# Note: total spin =  16.00

KPOINTS_MP_SPACING 0.07

%BLOCK SPECIES_POT
QC5
%ENDBLOCK SPECIES_POT

SNAP_TO_SYMMETRY
SYMMETRY_GENERATE

