#              Generated by Buildcell
#
# at 01:32:23 (GMT+1.0) 18th August 2020
# in /lustre/scratch/uccabz1/launch_tmp
# on node-c12a-021
# by uccabz1
#
# compiler GCC version 4.9.2
# options -cpp -iprefix /lustre/shared/ucl/apps/gcc/4.9.2/bin/../lib/gcc/x86_64-unknown-linux-gnu/4.9.2/ -mtune=corei7 -march=x86-64 -g -Og
#
# seed  1488087410   -26789182  -186786581  -805387925  1832885760  1539907507  2008500127  -900154584  -937199750   163110549 -2121986932 -2005081686
#
#      Author: C. J. Pickard (cjp20@cam.ac.uk)
#                Space group: P2
#

%BLOCK LATTICE_ABC
      7.07639      7.26217      7.95642
    101.96329     90.00000     90.00000
%ENDBLOCK LATTICE_ABC

%BLOCK POSITIONS_FRAC
  Li  -0.1155405   0.0467527   0.2363243 SPIN=   0.00000
  Li  -0.1155405  -0.0467527  -0.2363243 SPIN=   0.00000
  Li   0.2762920  -0.2571736  -0.0306453 SPIN=   0.00000
  Li   0.2762920   0.2571736   0.0306453 SPIN=   0.00000
  Fe   0.3587222  -0.3822152   0.3055554 SPIN=   2.36836
  Fe   0.3587222   0.3822152  -0.3055554 SPIN=   2.36836
  Fe  -0.1414862  -0.2921488   0.4038541 SPIN=   5.63164
  Fe  -0.1414862   0.2921488  -0.4038541 SPIN=   5.63164
   O  -0.4885825   0.4277872   0.1137066 SPIN=   0.00000
   O  -0.1658383   0.3333292   0.0107195 SPIN=   0.00000
   O  -0.3692862   0.1100175   0.1242031 SPIN=   0.00000
   O  -0.2386317   0.3898422   0.3214390 SPIN=   0.00000
   S  -0.3155847   0.3152440   0.1425171 SPIN=   0.00000
   O  -0.4885825  -0.4277872  -0.1137066 SPIN=   0.00000
   O  -0.1658383  -0.3333292  -0.0107195 SPIN=   0.00000
   O  -0.3692862  -0.1100175  -0.1242031 SPIN=   0.00000
   O  -0.2386317  -0.3898422  -0.3214390 SPIN=   0.00000
   S  -0.3155847  -0.3152440  -0.1425171 SPIN=   0.00000
   O   0.4223848   0.2293415   0.3868677 SPIN=   0.00000
   O   0.0732930   0.2458517   0.4017874 SPIN=   0.00000
   O   0.2343717  -0.0629458   0.3575927 SPIN=   0.00000
   S   0.2404000   0.1322326   0.3178317 SPIN=   0.00000
   O   0.4223848  -0.2293415  -0.3868677 SPIN=   0.00000
   O   0.0732930  -0.2458517  -0.4017874 SPIN=   0.00000
   O   0.2343717   0.0629458  -0.3575927 SPIN=   0.00000
   S   0.2404000  -0.1322326  -0.3178317 SPIN=   0.00000
   O   0.0300399  -0.0000000  -0.0000000 SPIN=   0.00000
   O  -0.0593958   0.0000000  -0.5000000 SPIN=   0.00000
   F  -0.3916625   0.2041612  -0.3005522 SPIN=   0.00000
   F  -0.3916625  -0.2041612   0.3005522 SPIN=   0.00000
   F   0.1017909  -0.4340797   0.2468092 SPIN=   0.00000
   F   0.1017909   0.4340797  -0.2468092 SPIN=   0.00000
%ENDBLOCK POSITIONS_FRAC

# Note: total spin =  16.00

KPOINTS_MP_SPACING 0.07

%BLOCK SPECIES_POT
QC5
%ENDBLOCK SPECIES_POT

SNAP_TO_SYMMETRY
SYMMETRY_GENERATE

