#              Generated by Buildcell
#
# at 07:44:32 (GMT+1.0) 4th August 2020
# in /lustre/scratch/uccabz1/launch_tmp
# on node-c12l-033
# by uccabz1
#
# compiler GCC version 4.9.2
# options -cpp -iprefix /lustre/shared/ucl/apps/gcc/4.9.2/bin/../lib/gcc/x86_64-unknown-linux-gnu/4.9.2/ -mtune=corei7 -march=x86-64 -g -Og
#
# seed -1366379866 -1163065018  1540418395  1536771729 -1182575450  -181457102  -719720871  -713072864 -1971103492 -1743625194  -125628641 -1724336026
#
#      Author: C. J. Pickard (cjp20@cam.ac.uk)
#                Space group: I41
#

%BLOCK LATTICE_ABC
      8.05021      8.05021      8.05021
    107.42847    107.42847    113.63884
%ENDBLOCK LATTICE_ABC

%BLOCK POSITIONS_FRAC
  Li  -0.2375990  -0.0744015  -0.2074123 SPIN=   0.00000
  Li   0.1330108  -0.0301867   0.2074123 SPIN=   0.00000
  Li  -0.2801867   0.0124010   0.3368025 SPIN=   0.00000
  Li  -0.3244015   0.3830108  -0.3368025 SPIN=   0.00000
  Fe   0.4008406  -0.3311816   0.3675167 SPIN=   4.00000
  Fe   0.3013017   0.0333239  -0.3675167 SPIN=   4.00000
  Fe  -0.2166761  -0.3491594   0.2320223 SPIN=   4.00000
  Fe   0.4188184  -0.4486983  -0.2320223 SPIN=   4.00000
   O  -0.3958697   0.1263028   0.1769319 SPIN=   0.00000
   O  -0.3320767   0.4627926   0.3906631 SPIN=   0.00000
   O  -0.5561410   0.1471324   0.3948964 SPIN=   0.00000
   O  -0.6770852   0.1928070   0.1005477 SPIN=   0.00000
   S  -0.4902932   0.2322587   0.2657598 SPIN=   0.00000
   O  -0.0506291   0.4271984  -0.1769319 SPIN=   0.00000
   O   0.0721295   0.2772602  -0.3906631 SPIN=   0.00000
   O  -0.2477640   0.0489626  -0.3948964 SPIN=   0.00000
   O   0.0922593   0.2223671  -0.1005477 SPIN=   0.00000
   S  -0.0335011   0.2439471  -0.2657598 SPIN=   0.00000
   O   0.1771984  -0.1458697  -0.0221725 SPIN=   0.00000
   O   0.0272602  -0.0820767  -0.2948693 SPIN=   0.00000
   O  -0.2010374  -0.3061410  -0.2032734 SPIN=   0.00000
   O  -0.0276329  -0.4270852  -0.3698922 SPIN=   0.00000
   S  -0.0060529  -0.2402932  -0.2225519 SPIN=   0.00000
   O  -0.1236972   0.1993709   0.0221725 SPIN=   0.00000
   O   0.2127926   0.3221295   0.2948693 SPIN=   0.00000
   O  -0.1028676   0.0022360   0.2032734 SPIN=   0.00000
   O  -0.0571930   0.3422593   0.3698922 SPIN=   0.00000
   S  -0.0177413   0.2164989   0.2225519 SPIN=   0.00000
   F  -0.4330480   0.3460028  -0.1484622 SPIN=   0.00000
   F   0.4944650  -0.2845857   0.1484622 SPIN=   0.00000
   F   0.4654143  -0.1830480  -0.2790507 SPIN=   0.00000
   F   0.0960028  -0.2555350   0.2790507 SPIN=   0.00000
%ENDBLOCK POSITIONS_FRAC

# Note: total spin =  16.00

KPOINTS_MP_SPACING 0.07

%BLOCK SPECIES_POT
QC5
%ENDBLOCK SPECIES_POT

SNAP_TO_SYMMETRY
SYMMETRY_GENERATE

