#              Generated by Buildcell
#
# at 08:29:31 (GMT+1.0) 4th August 2020
# in /lustre/scratch/uccabz1/launch_tmp
# on node-c12k-001
# by uccabz1
#
# compiler GCC version 4.9.2
# options -cpp -iprefix /lustre/shared/ucl/apps/gcc/4.9.2/bin/../lib/gcc/x86_64-unknown-linux-gnu/4.9.2/ -mtune=corei7 -march=x86-64 -g -Og
#
# seed  -165768858  1759700803 -1774971368  1040993903   -83180246  -734184728 -1534082196  -841596351 -1102744739   795273291  1731711298 -1651405679
#
#      Author: C. J. Pickard (cjp20@cam.ac.uk)
#                Space group: P-1
#

%BLOCK LATTICE_ABC
      4.59172      9.36400      9.87426
    107.35741     91.70079     98.12505
%ENDBLOCK LATTICE_ABC

%BLOCK POSITIONS_FRAC
  Li  -0.2030839  -0.3366535   0.0590868 SPIN=   0.00000
  Li   0.2030839   0.3366535  -0.0590868 SPIN=   0.00000
  Li  -0.2649017  -0.4212609  -0.3442815 SPIN=   0.00000
  Li   0.2649017   0.4212609   0.3442815 SPIN=   0.00000
  Fe   0.4885625  -0.2095179  -0.4921041 SPIN=   5.51548
  Fe  -0.4885625   0.2095179   0.4921041 SPIN=   5.51548
  Fe  -0.3084572  -0.1413403  -0.1152342 SPIN=   2.48452
  Fe   0.3084572   0.1413403   0.1152342 SPIN=   2.48452
   O  -0.2325784   0.3330089  -0.3202161 SPIN=   0.00000
   O  -0.0328038   0.5382499  -0.1009086 SPIN=   0.00000
   O  -0.2930316   0.2943884  -0.0847570 SPIN=   0.00000
   O  -0.5725418   0.4698019  -0.1583058 SPIN=   0.00000
   S  -0.2827389   0.4088623  -0.1660469 SPIN=   0.00000
   O   0.2325784  -0.3330089   0.3202161 SPIN=   0.00000
   O   0.0328038  -0.5382499   0.1009086 SPIN=   0.00000
   O   0.2930316  -0.2943884   0.0847570 SPIN=   0.00000
   O   0.5725418  -0.4698019   0.1583058 SPIN=   0.00000
   S   0.2827389  -0.4088623   0.1660469 SPIN=   0.00000
   O  -0.2220465   0.0101036  -0.2920817 SPIN=   0.00000
   O   0.2056411  -0.0460086  -0.4344991 SPIN=   0.00000
   O   0.2652895   0.0214445  -0.1719888 SPIN=   0.00000
   O   0.1846249   0.2163999  -0.2858514 SPIN=   0.00000
   S   0.1083772   0.0504849  -0.2961052 SPIN=   0.00000
   O   0.2220465  -0.0101036   0.2920817 SPIN=   0.00000
   O  -0.2056411   0.0460086   0.4344991 SPIN=   0.00000
   O  -0.2652895  -0.0214445   0.1719888 SPIN=   0.00000
   O  -0.1846249  -0.2163999   0.2858514 SPIN=   0.00000
   S  -0.1083772  -0.0504849   0.2961052 SPIN=   0.00000
   F  -0.1879870  -0.3482070   0.4811110 SPIN=   0.00000
   F   0.1879870   0.3482070  -0.4811110 SPIN=   0.00000
   F  -0.3035546   0.2868799   0.2053448 SPIN=   0.00000
   F   0.3035546  -0.2868799  -0.2053448 SPIN=   0.00000
%ENDBLOCK POSITIONS_FRAC

# Note: total spin =  16.00

KPOINTS_MP_SPACING 0.07

%BLOCK SPECIES_POT
QC5
%ENDBLOCK SPECIES_POT

SNAP_TO_SYMMETRY
SYMMETRY_GENERATE

