#              Generated by Buildcell
#
# at 10:29:56 (GMT+1.0) 18th August 2020
# in /lustre/scratch/uccabz1/launch_tmp
# on node-c12f-010
# by uccabz1
#
# compiler GCC version 4.9.2
# options -cpp -iprefix /lustre/shared/ucl/apps/gcc/4.9.2/bin/../lib/gcc/x86_64-unknown-linux-gnu/4.9.2/ -mtune=corei7 -march=x86-64 -g -Og
#
# seed   369326340  1465292885 -1162697423 -2088330345   446449948  1660737582   272692075  -931572269  1481080755  2097078885   487686624 -1820433102
#
#      Author: C. J. Pickard (cjp20@cam.ac.uk)
#                Space group: P-1
#

%BLOCK LATTICE_ABC
      6.65470      7.62144      8.60767
     83.25624     75.17217     71.54061
%ENDBLOCK LATTICE_ABC

%BLOCK POSITIONS_FRAC
  Li   0.0186103  -0.0059579  -0.2143505 SPIN=   0.00000
  Li  -0.0186103   0.0059579   0.2143505 SPIN=   0.00000
  Li   0.4013130   0.2154773   0.2206856 SPIN=   0.00000
  Li  -0.4013130  -0.2154773  -0.2206856 SPIN=   0.00000
  Fe   0.2362998   0.1766700  -0.0551836 SPIN=   3.22956
  Fe  -0.2362998  -0.1766700   0.0551836 SPIN=   3.22956
  Fe  -0.2963750   0.3600362  -0.1586639 SPIN=   4.77044
  Fe   0.2963750  -0.3600362   0.1586639 SPIN=   4.77044
   O  -0.3965434   0.2276170   0.4467718 SPIN=   0.00000
   O  -0.3818531   0.3535196   0.1670219 SPIN=   0.00000
   O  -0.0581281   0.2846163   0.2810535 SPIN=   0.00000
   O  -0.3825124   0.5486899   0.3776555 SPIN=   0.00000
   S  -0.3047593   0.3536107   0.3181257 SPIN=   0.00000
   O   0.3965434  -0.2276170  -0.4467718 SPIN=   0.00000
   O   0.3818531  -0.3535196  -0.1670219 SPIN=   0.00000
   O   0.0581281  -0.2846163  -0.2810535 SPIN=   0.00000
   O   0.3825124  -0.5486899  -0.3776555 SPIN=   0.00000
   S   0.3047593  -0.3536107  -0.3181257 SPIN=   0.00000
   O  -0.0608127   0.2220814  -0.4513582 SPIN=   0.00000
   O   0.1801469   0.4213191  -0.5463849 SPIN=   0.00000
   O   0.3386047   0.0806907  -0.5317768 SPIN=   0.00000
   O   0.1738978   0.2539564  -0.2816195 SPIN=   0.00000
   S   0.1579592   0.2445119  -0.4527849 SPIN=   0.00000
   O   0.0608127  -0.2220814   0.4513582 SPIN=   0.00000
   O  -0.1801469  -0.4213191   0.5463849 SPIN=   0.00000
   O  -0.3386047  -0.0806907   0.5317768 SPIN=   0.00000
   O  -0.1738978  -0.2539564   0.2816195 SPIN=   0.00000
   S  -0.1579592  -0.2445119   0.4527849 SPIN=   0.00000
   F  -0.2320827  -0.4268961  -0.1289343 SPIN=   0.00000
   F   0.2320827   0.4268961   0.1289343 SPIN=   0.00000
   F  -0.3633009   0.1271825  -0.2547921 SPIN=   0.00000
   F   0.3633009  -0.1271825   0.2547921 SPIN=   0.00000
%ENDBLOCK POSITIONS_FRAC

# Note: total spin =  16.00

KPOINTS_MP_SPACING 0.07

%BLOCK SPECIES_POT
QC5
%ENDBLOCK SPECIES_POT

SNAP_TO_SYMMETRY
SYMMETRY_GENERATE

