#              Generated by Buildcell
#
# at 07:04:26 (GMT+1.0) 4th August 2020
# in /lustre/scratch/uccabz1/launch_tmp
# on node-c12f-014
# by uccabz1
#
# compiler GCC version 4.9.2
# options -cpp -iprefix /lustre/shared/ucl/apps/gcc/4.9.2/bin/../lib/gcc/x86_64-unknown-linux-gnu/4.9.2/ -mtune=corei7 -march=x86-64 -g -Og
#
# seed   255883727  1190451163 -1275319331 -1277813389   767247142  1393724218   674343905  1359841951  1415117628   847797939  -187807146  1275819496
#
#      Author: C. J. Pickard (cjp20@cam.ac.uk)
#                Space group: P21
#

%BLOCK LATTICE_ABC
      4.86352      7.34469     11.30189
     90.00000     97.77913     90.00000
%ENDBLOCK LATTICE_ABC

%BLOCK POSITIONS_FRAC
  Li   0.0481271   0.1957142   0.2051185 SPIN=   0.00000
  Li  -0.0481271  -0.3042858  -0.2051185 SPIN=   0.00000
  Li  -0.1945809   0.1995309  -0.1308804 SPIN=   0.00000
  Li   0.1945809  -0.3004691   0.1308804 SPIN=   0.00000
  Fe  -0.2097079  -0.4018665  -0.4718348 SPIN=   5.19391
  Fe   0.2097079   0.0981335   0.4718348 SPIN=   5.19391
  Fe   0.4134612   0.0481895   0.0298027 SPIN=   2.80609
  Fe  -0.4134612  -0.4518105  -0.0298027 SPIN=   2.80609
   O  -0.6105615   0.2468048   0.3324439 SPIN=   0.00000
   O  -0.1343906   0.3595164   0.3231942 SPIN=   0.00000
   O  -0.5381895   0.5573486   0.2574651 SPIN=   0.00000
   O  -0.4445096   0.2889289   0.1367145 SPIN=   0.00000
   S  -0.4319128   0.3631497   0.2624544 SPIN=   0.00000
   O   0.6105615  -0.2531952  -0.3324439 SPIN=   0.00000
   O   0.1343906  -0.1404836  -0.3231942 SPIN=   0.00000
   O   0.5381895   0.0573486  -0.2574651 SPIN=   0.00000
   O   0.4445096  -0.2110711  -0.1367145 SPIN=   0.00000
   S   0.4319128  -0.1368503  -0.2624544 SPIN=   0.00000
   O   0.2988947   0.2624024  -0.1446163 SPIN=   0.00000
   O   0.3070249   0.5537773  -0.2540731 SPIN=   0.00000
   O  -0.1251245   0.3722283  -0.2701777 SPIN=   0.00000
   O   0.2738985   0.2621497  -0.3647913 SPIN=   0.00000
   S   0.1886734   0.3626394  -0.2584146 SPIN=   0.00000
   O  -0.2988947  -0.2375976   0.1446163 SPIN=   0.00000
   O  -0.3070249   0.0537773   0.2540731 SPIN=   0.00000
   O   0.1251245  -0.1277717   0.2701777 SPIN=   0.00000
   O  -0.2738985  -0.2378503   0.3647913 SPIN=   0.00000
   S  -0.1886734  -0.1373606   0.2584146 SPIN=   0.00000
   F   0.0064233   0.4749750   0.0438838 SPIN=   0.00000
   F  -0.0064233  -0.0250250  -0.0438838 SPIN=   0.00000
   F   0.2330586  -0.3972934   0.4748297 SPIN=   0.00000
   F  -0.2330586   0.1027066  -0.4748297 SPIN=   0.00000
%ENDBLOCK POSITIONS_FRAC

# Note: total spin =  16.00

KPOINTS_MP_SPACING 0.07

%BLOCK SPECIES_POT
QC5
%ENDBLOCK SPECIES_POT

SNAP_TO_SYMMETRY
SYMMETRY_GENERATE

