#              Generated by Buildcell
#
# at 05:55:22 (GMT+1.0) 4th August 2020
# in /lustre/scratch/uccabz1/launch_tmp
# on node-c12n-009
# by uccabz1
#
# compiler GCC version 4.9.2
# options -cpp -iprefix /lustre/shared/ucl/apps/gcc/4.9.2/bin/../lib/gcc/x86_64-unknown-linux-gnu/4.9.2/ -mtune=corei7 -march=x86-64 -g -Og
#
# seed  1278706807  1299077635   837155231  -268888376  -676502103   109134369  1833385381  -700566588  -699105560   662459457  -617205880 -2138639885
#
#      Author: C. J. Pickard (cjp20@cam.ac.uk)
#                Space group: Cm
#

%BLOCK LATTICE_ABC
      7.36127      7.92403      7.92605
    119.99156     92.29129     90.00000
%ENDBLOCK LATTICE_ABC

%BLOCK POSITIONS_FRAC
  Li   0.4347706   0.4518951  -0.0962097 SPIN=   0.00000
  Li  -0.0642843   0.4447935  -0.1104130 SPIN=   0.00000
  Li   0.3651470  -0.2666421   0.4667158 SPIN=   0.00000
  Li  -0.3036469   0.1949501   0.3899003 SPIN=   0.00000
  Fe   0.0130474  -0.0877371  -0.1754742 SPIN=   4.90730
  Fe  -0.4957701  -0.0010501  -0.0021002 SPIN=   5.26379
  Fe  -0.3074480  -0.3785517   0.2428966 SPIN=   3.71056
  Fe   0.3068602   0.2452270   0.4904539 SPIN=   2.11836
   O  -0.1067853  -0.2972278   0.1253712 SPIN=   0.00000
   O   0.1184468  -0.1137901   0.0518708 SPIN=   0.00000
   O   0.1965457  -0.2122467   0.2965852 SPIN=   0.00000
   O  -0.0273707   0.0457538   0.3695772 SPIN=   0.00000
   S   0.0452091  -0.1443777   0.2108511 SPIN=   0.00000
   O  -0.1067853   0.4225990   0.1253712 SPIN=   0.00000
   O   0.1184468   0.1656609   0.0518708 SPIN=   0.00000
   O   0.1965457   0.5088319   0.2965852 SPIN=   0.00000
   O  -0.0273707   0.3238234   0.3695772 SPIN=   0.00000
   S   0.0452091   0.3552288   0.2108511 SPIN=   0.00000
   O  -0.2983697  -0.2144283  -0.1485585 SPIN=   0.00000
   O  -0.1488333  -0.5306812  -0.3397639 SPIN=   0.00000
   O  -0.3327821  -0.3934565  -0.5088893 SPIN=   0.00000
   O  -0.4836291  -0.5197872  -0.3194709 SPIN=   0.00000
   S  -0.3159035  -0.4145883  -0.3291706 SPIN=   0.00000
   O  -0.2983697   0.0658698  -0.1485585 SPIN=   0.00000
   O  -0.1488333   0.1909174  -0.3397639 SPIN=   0.00000
   O  -0.3327821  -0.1154329  -0.5088893 SPIN=   0.00000
   O  -0.4836291   0.2003163  -0.3194709 SPIN=   0.00000
   S  -0.3159035   0.0854177  -0.3291706 SPIN=   0.00000
   F  -0.4757390   0.3278025   0.1558578 SPIN=   0.00000
   F  -0.4757390  -0.1719447   0.1558578 SPIN=   0.00000
   F   0.2832232  -0.1347237  -0.2694475 SPIN=   0.00000
   F   0.1842953   0.3954599  -0.2090801 SPIN=   0.00000
%ENDBLOCK POSITIONS_FRAC

# Note: total spin =  16.00

KPOINTS_MP_SPACING 0.07

%BLOCK SPECIES_POT
QC5
%ENDBLOCK SPECIES_POT

SNAP_TO_SYMMETRY
SYMMETRY_GENERATE

