#              Generated by Buildcell
#
# at 10:02:02 (GMT+1.0) 18th August 2020
# in /lustre/scratch/uccabz1/launch_tmp
# on node-c12b-010
# by uccabz1
#
# compiler GCC version 4.9.2
# options -cpp -iprefix /lustre/shared/ucl/apps/gcc/4.9.2/bin/../lib/gcc/x86_64-unknown-linux-gnu/4.9.2/ -mtune=corei7 -march=x86-64 -g -Og
#
# seed   260955885  2008829657  -474389678 -1229674902 -1840986006 -1922601883 -1357424092   -87862884 -2001781175  1768152369   134991722  1516176190
#
#      Author: C. J. Pickard (cjp20@cam.ac.uk)
#                Space group: P-1
#

%BLOCK LATTICE_ABC
      4.28149     10.11530     10.38222
     64.63928     80.58798     82.66798
%ENDBLOCK LATTICE_ABC

%BLOCK POSITIONS_FRAC
  Li   0.1403099  -0.3277204  -0.3521272 SPIN=   0.00000
  Li  -0.1403099   0.3277204   0.3521272 SPIN=   0.00000
  Li   0.2574062  -0.0909856   0.1694022 SPIN=   0.00000
  Li  -0.2574062   0.0909856  -0.1694022 SPIN=   0.00000
  Fe   0.3192334  -0.4285806   0.2699227 SPIN=   5.57463
  Fe  -0.3192334   0.4285806  -0.2699227 SPIN=   5.57463
  Fe   0.6989759  -0.2098651   0.4086805 SPIN=   2.42537
  Fe  -0.6989759   0.2098651  -0.4086805 SPIN=   2.42537
   O  -0.1620601   0.0122347  -0.3149589 SPIN=   0.00000
   O  -0.6549541  -0.0734542  -0.3406546 SPIN=   0.00000
   O  -0.2598771  -0.2517962  -0.1949172 SPIN=   0.00000
   O  -0.1393415  -0.1307212  -0.4594375 SPIN=   0.00000
   S  -0.3040582  -0.1109342  -0.3274921 SPIN=   0.00000
   O   0.1620601  -0.0122347   0.3149589 SPIN=   0.00000
   O   0.6549541   0.0734542   0.3406546 SPIN=   0.00000
   O   0.2598771   0.2517962   0.1949172 SPIN=   0.00000
   O   0.1393415   0.1307212   0.4594375 SPIN=   0.00000
   S   0.3040582   0.1109342   0.3274921 SPIN=   0.00000
   O   0.0427527  -0.0737026  -0.0581245 SPIN=   0.00000
   O  -0.4543175  -0.1976683  -0.0070147 SPIN=   0.00000
   O  -0.2792025  -0.1423648   0.1792964 SPIN=   0.00000
   O   0.0153506  -0.3348737   0.1118551 SPIN=   0.00000
   S  -0.1688542  -0.1871524   0.0565031 SPIN=   0.00000
   O  -0.0427527   0.0737026   0.0581245 SPIN=   0.00000
   O   0.4543175   0.1976683   0.0070147 SPIN=   0.00000
   O   0.2792025   0.1423648  -0.1792964 SPIN=   0.00000
   O  -0.0153506   0.3348737  -0.1118551 SPIN=   0.00000
   S   0.1688542   0.1871524  -0.0565031 SPIN=   0.00000
   F  -0.2624010   0.2982691  -0.3978764 SPIN=   0.00000
   F   0.2624010  -0.2982691   0.3978764 SPIN=   0.00000
   F  -0.3891820   0.4538887   0.1927568 SPIN=   0.00000
   F   0.3891820  -0.4538887  -0.1927568 SPIN=   0.00000
%ENDBLOCK POSITIONS_FRAC

# Note: total spin =  16.00

KPOINTS_MP_SPACING 0.07

%BLOCK SPECIES_POT
QC5
%ENDBLOCK SPECIES_POT

SNAP_TO_SYMMETRY
SYMMETRY_GENERATE

