#              Generated by Buildcell
#
# at 23:16:27 (GMT+1.0) 17th August 2020
# in /lustre/scratch/uccabz1/launch_tmp
# on node-c12o-031
# by uccabz1
#
# compiler GCC version 4.9.2
# options -cpp -iprefix /lustre/shared/ucl/apps/gcc/4.9.2/bin/../lib/gcc/x86_64-unknown-linux-gnu/4.9.2/ -mtune=corei7 -march=x86-64 -g -Og
#
# seed   379901764 -1459494666   115724748  1633904135   310964469 -1500894122  -623914050  1571308132  1153201794 -1529982909     9215948 -1910529988
#
#      Author: C. J. Pickard (cjp20@cam.ac.uk)
#                Space group: Aea2
#

%BLOCK LATTICE_ABC
      5.75181      5.75181     12.70481
     90.00000     90.00000    107.88743
%ENDBLOCK LATTICE_ABC

%BLOCK POSITIONS_FRAC
  Li   0.1141404   0.4960607   0.0639111 SPIN=   0.00000
  Li   0.4960607   0.1141404  -0.0639111 SPIN=   0.00000
  Li  -0.0039393  -0.3858596  -0.4360889 SPIN=   0.00000
  Li  -0.3858596  -0.0039393   0.4360889 SPIN=   0.00000
  Fe  -0.0925683  -0.0308014   0.1454890 SPIN=   4.00000
  Fe  -0.0308014  -0.0925683  -0.1454890 SPIN=   4.00000
  Fe   0.4691986   0.4074317  -0.3545110 SPIN=   4.00000
  Fe   0.4074317   0.4691986   0.3545110 SPIN=   4.00000
   O   0.3170346  -0.6510104  -0.0955567 SPIN=   0.00000
   O   0.4714241  -0.2272759  -0.0285000 SPIN=   0.00000
   O   0.1683787  -0.3280966  -0.1730227 SPIN=   0.00000
   O   0.5928999  -0.3271563  -0.2055578 SPIN=   0.00000
   S   0.3874343  -0.3833848  -0.1256593 SPIN=   0.00000
   O  -0.6510104   0.3170346   0.0955567 SPIN=   0.00000
   O  -0.2272759   0.4714241   0.0285000 SPIN=   0.00000
   O  -0.3280966   0.1683787   0.1730227 SPIN=   0.00000
   O  -0.3271563   0.5928999   0.2055578 SPIN=   0.00000
   S  -0.3833848   0.3874343   0.1256593 SPIN=   0.00000
   O  -0.1510104  -0.1829654   0.4044433 SPIN=   0.00000
   O   0.2727241  -0.0285759   0.4715000 SPIN=   0.00000
   O   0.1719034  -0.3316213   0.3269773 SPIN=   0.00000
   O   0.1728437   0.0928999   0.2944422 SPIN=   0.00000
   S   0.1166152  -0.1125657   0.3743407 SPIN=   0.00000
   O  -0.1829654  -0.1510104  -0.4044433 SPIN=   0.00000
   O  -0.0285759   0.2727241  -0.4715000 SPIN=   0.00000
   O  -0.3316213   0.1719034  -0.3269773 SPIN=   0.00000
   O   0.0928999   0.1728437  -0.2944422 SPIN=   0.00000
   S  -0.1125657   0.1166152  -0.3743407 SPIN=   0.00000
   F   0.3441507  -0.3384119  -0.3929220 SPIN=   0.00000
   F  -0.3384119   0.3441507   0.3929220 SPIN=   0.00000
   F   0.1615881  -0.1558493   0.1070780 SPIN=   0.00000
   F  -0.1558493   0.1615881  -0.1070780 SPIN=   0.00000
%ENDBLOCK POSITIONS_FRAC

# Note: total spin =  16.00

KPOINTS_MP_SPACING 0.07

%BLOCK SPECIES_POT
QC5
%ENDBLOCK SPECIES_POT

SNAP_TO_SYMMETRY
SYMMETRY_GENERATE

