#              Generated by Buildcell
#
# at 05:29:15 (GMT+1.0) 18th August 2020
# in /lustre/scratch/uccabz1/launch_tmp
# on node-c12n-005
# by uccabz1
#
# compiler GCC version 4.9.2
# options -cpp -iprefix /lustre/shared/ucl/apps/gcc/4.9.2/bin/../lib/gcc/x86_64-unknown-linux-gnu/4.9.2/ -mtune=corei7 -march=x86-64 -g -Og
#
# seed   553160724  -347563066  -809897078  -456724867   282757174   -62240646 -1338580574   212827504  1655239453 -1182791802   886527221 -2130982179
#
#      Author: C. J. Pickard (cjp20@cam.ac.uk)
#                Space group: Cc
#

%BLOCK LATTICE_ABC
      5.81748      8.54202      8.54202
     70.45685     89.48116     89.48116
%ENDBLOCK LATTICE_ABC

%BLOCK POSITIONS_FRAC
  Li   0.0022651  -0.0456143  -0.3784620 SPIN=   0.00000
  Li  -0.4977349  -0.3784620  -0.0456143 SPIN=   0.00000
  Li   0.1141483   0.1969388  -0.0741678 SPIN=   0.00000
  Li  -0.3858517  -0.0741678   0.1969388 SPIN=   0.00000
  Fe   0.4177388   0.4590830  -0.3044236 SPIN=   3.95572
  Fe  -0.0822612  -0.3044236   0.4590830 SPIN=   3.95572
  Fe  -0.4987284  -0.0346694  -0.3009376 SPIN=   4.04428
  Fe   0.0012716  -0.3009376  -0.0346694 SPIN=   4.04428
   O   0.3282268  -0.2744552   0.1509088 SPIN=   0.00000
   O   0.3017997  -0.4274008   0.4528564 SPIN=   0.00000
   O   0.6168290  -0.4909268   0.2864326 SPIN=   0.00000
   O   0.2175456  -0.5707967   0.2517643 SPIN=   0.00000
   S   0.3661003  -0.4408949   0.2854905 SPIN=   0.00000
   O  -0.1717732   0.1509088  -0.2744552 SPIN=   0.00000
   O  -0.1982003   0.4528564  -0.4274008 SPIN=   0.00000
   O   0.1168290   0.2864326  -0.4909268 SPIN=   0.00000
   O  -0.2824544   0.2517643  -0.5707967 SPIN=   0.00000
   S  -0.1338997   0.2854905  -0.4408949 SPIN=   0.00000
   O   0.4405222   0.1076704   0.3709223 SPIN=   0.00000
   O   0.0221888   0.1529644   0.3249793 SPIN=   0.00000
   O   0.1803271  -0.1330131   0.4288712 SPIN=   0.00000
   O   0.2554147   0.0457074   0.1387290 SPIN=   0.00000
   S   0.2246132   0.0433322   0.3158755 SPIN=   0.00000
   O  -0.0594778   0.3709223   0.1076704 SPIN=   0.00000
   O  -0.4778112   0.3249793   0.1529644 SPIN=   0.00000
   O  -0.3196729   0.4288712  -0.1330131 SPIN=   0.00000
   O  -0.2445853   0.1387290   0.0457074 SPIN=   0.00000
   S  -0.2753868   0.3158755   0.0433322 SPIN=   0.00000
   F   0.2225558  -0.4455810  -0.1545374 SPIN=   0.00000
   F  -0.2774442  -0.1545374  -0.4455810 SPIN=   0.00000
   F  -0.1378434  -0.1936455   0.1009497 SPIN=   0.00000
   F   0.3621566   0.1009497  -0.1936455 SPIN=   0.00000
%ENDBLOCK POSITIONS_FRAC

# Note: total spin =  16.00

KPOINTS_MP_SPACING 0.07

%BLOCK SPECIES_POT
QC5
%ENDBLOCK SPECIES_POT

SNAP_TO_SYMMETRY
SYMMETRY_GENERATE

