#              Generated by Buildcell
#
# at 16:19:33 (GMT+1.0) 18th August 2020
# in /lustre/scratch/uccabz1/launch_tmp
# on node-c12a-021
# by uccabz1
#
# compiler GCC version 4.9.2
# options -cpp -iprefix /lustre/shared/ucl/apps/gcc/4.9.2/bin/../lib/gcc/x86_64-unknown-linux-gnu/4.9.2/ -mtune=corei7 -march=x86-64 -g -Og
#
# seed  -345974690   -32973466   587871100 -2023421078 -1921580476 -1218002263  1762789220  -954177783  1278791236  1163537361  -899097652   643097048
#
#      Author: C. J. Pickard (cjp20@cam.ac.uk)
#                Space group: Pna21
#

%BLOCK LATTICE_ABC
      4.38155      5.79827     15.74466
     90.00000     90.00000     90.00000
%ENDBLOCK LATTICE_ABC

%BLOCK POSITIONS_FRAC
  Li   0.2492246  -0.0715876   0.0829496 SPIN=   0.00000
  Li  -0.2492246   0.4284124  -0.0829496 SPIN=   0.00000
  Li  -0.2507754  -0.0715876   0.4170504 SPIN=   0.00000
  Li   0.2507754   0.4284124  -0.4170504 SPIN=   0.00000
  Fe  -0.2440237  -0.0724855  -0.0463859 SPIN=   4.00000
  Fe   0.2440237   0.4275145   0.0463859 SPIN=   4.00000
  Fe   0.2559763  -0.0724855  -0.4536141 SPIN=   4.00000
  Fe  -0.2559763   0.4275145   0.4536141 SPIN=   4.00000
   O   0.0838088  -0.2982441   0.1626201 SPIN=   0.00000
   O  -0.3438955  -0.2849709   0.0600664 SPIN=   0.00000
   O  -0.3330285  -0.0149357   0.1817609 SPIN=   0.00000
   O  -0.4303352  -0.4302431   0.2058995 SPIN=   0.00000
   S  -0.2558626  -0.2570984   0.1525867 SPIN=   0.00000
   O  -0.0838088   0.2017559  -0.1626201 SPIN=   0.00000
   O   0.3438955   0.2150291  -0.0600664 SPIN=   0.00000
   O   0.3330285   0.4850643  -0.1817609 SPIN=   0.00000
   O   0.4303352   0.0697569  -0.2058995 SPIN=   0.00000
   S   0.2558626   0.2429016  -0.1525867 SPIN=   0.00000
   O   0.5838088  -0.2982441   0.3373799 SPIN=   0.00000
   O   0.1561045  -0.2849709   0.4399336 SPIN=   0.00000
   O   0.1669715  -0.0149357   0.3182391 SPIN=   0.00000
   O   0.0696648  -0.4302431   0.2941005 SPIN=   0.00000
   S   0.2441374  -0.2570984   0.3474133 SPIN=   0.00000
   O  -0.5838088   0.2017559  -0.3373799 SPIN=   0.00000
   O  -0.1561045   0.2150291  -0.4399336 SPIN=   0.00000
   O  -0.1669715   0.4850643  -0.3182391 SPIN=   0.00000
   O  -0.0696648   0.0697569  -0.2941005 SPIN=   0.00000
   S  -0.2441374   0.2429016  -0.3474133 SPIN=   0.00000
   F   0.2172101   0.2435406   0.1476252 SPIN=   0.00000
   F  -0.2172101  -0.2564594  -0.1476252 SPIN=   0.00000
   F  -0.2827899   0.2435406   0.3523748 SPIN=   0.00000
   F   0.2827899  -0.2564594  -0.3523748 SPIN=   0.00000
%ENDBLOCK POSITIONS_FRAC

# Note: total spin =  16.00

KPOINTS_MP_SPACING 0.07

%BLOCK SPECIES_POT
QC5
%ENDBLOCK SPECIES_POT

SNAP_TO_SYMMETRY
SYMMETRY_GENERATE

