#              Generated by Buildcell
#
# at 11:16:55 (GMT+1.0) 18th August 2020
# in /lustre/scratch/uccabz1/launch_tmp
# on node-c12f-029
# by uccabz1
#
# compiler GCC version 4.9.2
# options -cpp -iprefix /lustre/shared/ucl/apps/gcc/4.9.2/bin/../lib/gcc/x86_64-unknown-linux-gnu/4.9.2/ -mtune=corei7 -march=x86-64 -g -Og
#
# seed  -980341282  -871964097  1061171175 -2057204039  -630178426  1579265987   188286375  1698867541  -700662588   914318113 -1618660413  -767683646
#
#      Author: C. J. Pickard (cjp20@cam.ac.uk)
#                Space group: I-4
#

%BLOCK LATTICE_ABC
      7.78255      8.15715      8.15715
     76.84617     61.50781     61.50781
%ENDBLOCK LATTICE_ABC

%BLOCK POSITIONS_FRAC
  Li   0.0109867  -0.3006326  -0.0468868 SPIN=   0.00000
  Li  -0.3365327   0.3006326   0.0468868 SPIN=   0.00000
  Li   0.0359002  -0.0468868   0.3006326 SPIN=   0.00000
  Li   0.2896459   0.0468868  -0.3006326 SPIN=   0.00000
  Fe   0.4920878   0.4385265  -0.2505999 SPIN=   4.00000
  Fe  -0.3199855  -0.4385265   0.2505999 SPIN=   4.00000
  Fe  -0.2414879  -0.2505999  -0.4385265 SPIN=   4.00000
  Fe   0.0693857   0.2505999   0.4385265 SPIN=   4.00000
   O   0.0170219   0.2299411  -0.1038172 SPIN=   0.00000
   O   0.1904853   0.4460160  -0.2483820 SPIN=   0.00000
   O  -0.2028325   0.5690723  -0.0430422 SPIN=   0.00000
   O  -0.0578537   0.4441781  -0.3548550 SPIN=   0.00000
   S  -0.0132948   0.4223019  -0.1875241 SPIN=   0.00000
   O   0.1431457  -0.2299411   0.1038172 SPIN=   0.00000
   O   0.3881193  -0.4460160   0.2483820 SPIN=   0.00000
   O   0.3231977  -0.5690723   0.0430422 SPIN=   0.00000
   O   0.0314693  -0.4441781   0.3548550 SPIN=   0.00000
   S   0.2214830  -0.4223019   0.1875241 SPIN=   0.00000
   O   0.0867954  -0.1038172  -0.2299411 SPIN=   0.00000
   O   0.0578967  -0.2483820  -0.4460160 SPIN=   0.00000
   O   0.2458747  -0.0430422  -0.5690723 SPIN=   0.00000
   O   0.4127088  -0.3548550  -0.4441781 SPIN=   0.00000
   S   0.2008189  -0.1875241  -0.4223019 SPIN=   0.00000
   O  -0.2469629   0.1038172   0.2299411 SPIN=   0.00000
   O  -0.6365013   0.2483820   0.4460160 SPIN=   0.00000
   O  -0.3662399   0.0430422   0.5690723 SPIN=   0.00000
   O  -0.3863244   0.3548550   0.4441781 SPIN=   0.00000
   S  -0.4090071   0.1875241   0.4223019 SPIN=   0.00000
   F   0.1182994   0.1885217   0.1913622 SPIN=   0.00000
   F   0.4981833  -0.1885217  -0.1913622 SPIN=   0.00000
   F  -0.3096616   0.1913622  -0.1885217 SPIN=   0.00000
   F  -0.3068211  -0.1913622   0.1885217 SPIN=   0.00000
%ENDBLOCK POSITIONS_FRAC

# Note: total spin =  16.00

KPOINTS_MP_SPACING 0.07

%BLOCK SPECIES_POT
QC5
%ENDBLOCK SPECIES_POT

SNAP_TO_SYMMETRY
SYMMETRY_GENERATE

