#              Generated by Buildcell
#
# at 08:26:00 (GMT+1.0) 4th August 2020
# in /lustre/scratch/uccabz1/launch_tmp
# on node-c12d-004
# by uccabz1
#
# compiler GCC version 4.9.2
# options -cpp -iprefix /lustre/shared/ucl/apps/gcc/4.9.2/bin/../lib/gcc/x86_64-unknown-linux-gnu/4.9.2/ -mtune=corei7 -march=x86-64 -g -Og
#
# seed   515759463  1953901220  1807477332  -393236882  -545240548 -1146961272    13182379   928847478   378357494 -1479233370 -1768055806  1674138779
#
#      Author: C. J. Pickard (cjp20@cam.ac.uk)
#                Space group: C2/c
#

%BLOCK LATTICE_ABC
      4.80249      9.19931      9.19931
     79.90589     88.87704     88.87704
%ENDBLOCK LATTICE_ABC

%BLOCK POSITIONS_FRAC
  Li   0.4932592  -0.1868269   0.3997770 SPIN=   0.00000
  Li   0.0067408  -0.3997770   0.1868269 SPIN=   0.00000
  Li  -0.4932592   0.1868269  -0.3997770 SPIN=   0.00000
  Li  -0.0067408   0.3997770  -0.1868269 SPIN=   0.00000
  Fe   0.4924652   0.2149087  -0.0175807 SPIN=   4.00000
  Fe   0.0075348   0.0175807  -0.2149087 SPIN=   4.00000
  Fe  -0.4924652  -0.2149087   0.0175807 SPIN=   4.00000
  Fe  -0.0075348  -0.0175807   0.2149087 SPIN=   4.00000
   O  -0.2682940  -0.1186466  -0.4524106 SPIN=   0.00000
   O  -0.0338229  -0.3573376  -0.3571180 SPIN=   0.00000
   O   0.2438843  -0.1311056  -0.4260101 SPIN=   0.00000
   O   0.0237216  -0.2430541  -0.6200248 SPIN=   0.00000
   S  -0.0086277  -0.2125360  -0.4638909 SPIN=   0.00000
   O  -0.2317060   0.4524106   0.1186466 SPIN=   0.00000
   O  -0.4661771   0.3571180   0.3573376 SPIN=   0.00000
   O  -0.7438843   0.4260101   0.1311056 SPIN=   0.00000
   O  -0.5237216   0.6200248   0.2430541 SPIN=   0.00000
   S  -0.4913723   0.4638909   0.2125360 SPIN=   0.00000
   O   0.2682940   0.1186466   0.4524106 SPIN=   0.00000
   O   0.0338229   0.3573376   0.3571180 SPIN=   0.00000
   O  -0.2438843   0.1311056   0.4260101 SPIN=   0.00000
   O  -0.0237216   0.2430541   0.6200248 SPIN=   0.00000
   S   0.0086277   0.2125360   0.4638909 SPIN=   0.00000
   O   0.2317060  -0.4524106  -0.1186466 SPIN=   0.00000
   O   0.4661771  -0.3571180  -0.3573376 SPIN=   0.00000
   O   0.7438843  -0.4260101  -0.1311056 SPIN=   0.00000
   O   0.5237216  -0.6200248  -0.2430541 SPIN=   0.00000
   S   0.4913723  -0.4638909  -0.2125360 SPIN=   0.00000
   F  -0.0065752   0.2440697  -0.0213394 SPIN=   0.00000
   F  -0.4934248   0.0213394  -0.2440697 SPIN=   0.00000
   F   0.0065752  -0.2440697   0.0213394 SPIN=   0.00000
   F   0.4934248  -0.0213394   0.2440697 SPIN=   0.00000
%ENDBLOCK POSITIONS_FRAC

# Note: total spin =  16.00

KPOINTS_MP_SPACING 0.07

%BLOCK SPECIES_POT
QC5
%ENDBLOCK SPECIES_POT

SNAP_TO_SYMMETRY
SYMMETRY_GENERATE

