#              Generated by Buildcell
#
# at 05:52:29 (GMT+1.0) 4th August 2020
# in /lustre/scratch/uccabz1/launch_tmp
# on node-c12g-022
# by uccabz1
#
# compiler GCC version 4.9.2
# options -cpp -iprefix /lustre/shared/ucl/apps/gcc/4.9.2/bin/../lib/gcc/x86_64-unknown-linux-gnu/4.9.2/ -mtune=corei7 -march=x86-64 -g -Og
#
# seed  1871286110  1106808074   396049022  1413018084  -308814381 -2144143004 -1890203852  1274482566   276634443  1239680108   178926229  1438120507
#
#      Author: C. J. Pickard (cjp20@cam.ac.uk)
#                Space group: C2
#

%BLOCK LATTICE_ABC
      6.31659      8.47540      8.47540
     61.83235     89.98390     89.98390
%ENDBLOCK LATTICE_ABC

%BLOCK POSITIONS_FRAC
  Li  -0.0651215   0.0385209   0.4329277 SPIN=   0.00000
  Li   0.0651215  -0.4329277  -0.0385209 SPIN=   0.00000
  Li  -0.3314925   0.4083379  -0.2167938 SPIN=   0.00000
  Li   0.3314925   0.2167938  -0.4083379 SPIN=   0.00000
  Fe  -0.2289194   0.3759051   0.4440495 SPIN=   6.31312
  Fe   0.2289194  -0.4440495  -0.3759051 SPIN=   6.31312
  Fe  -0.5000000  -0.1188878   0.1188878 SPIN=   1.54044
  Fe  -0.0000000   0.1045579  -0.1045579 SPIN=   1.83333
   O  -0.0481901   0.1903484   0.1666178 SPIN=   0.00000
   O  -0.3836343   0.1993567   0.3131164 SPIN=   0.00000
   O  -0.3894316   0.1410669   0.0532163 SPIN=   0.00000
   O  -0.2974607   0.4424778   0.0107104 SPIN=   0.00000
   S  -0.2796792   0.2433124   0.1359152 SPIN=   0.00000
   O   0.0481901  -0.1666178  -0.1903484 SPIN=   0.00000
   O   0.3836343  -0.3131164  -0.1993567 SPIN=   0.00000
   O   0.3894316  -0.0532163  -0.1410669 SPIN=   0.00000
   O   0.2974607  -0.0107104  -0.4424778 SPIN=   0.00000
   S   0.2796792  -0.1359152  -0.2433124 SPIN=   0.00000
   O   0.4507026   0.4481163   0.3947447 SPIN=   0.00000
   O   0.2546714   0.3322957   0.2181742 SPIN=   0.00000
   O   0.3119550   0.6581286   0.0948771 SPIN=   0.00000
   O   0.0647973   0.4993828   0.3480331 SPIN=   0.00000
   S   0.2705316   0.4844808   0.2639573 SPIN=   0.00000
   O  -0.4507026  -0.3947447  -0.4481163 SPIN=   0.00000
   O  -0.2546714  -0.2181742  -0.3322957 SPIN=   0.00000
   O  -0.3119550  -0.0948771  -0.6581286 SPIN=   0.00000
   O  -0.0647973  -0.3480331  -0.4993828 SPIN=   0.00000
   S  -0.2705316  -0.2639573  -0.4844808 SPIN=   0.00000
   F   0.2335152  -0.0972126   0.2809488 SPIN=   0.00000
   F  -0.2335152  -0.2809488   0.0972126 SPIN=   0.00000
   F  -0.2278383   0.1273168  -0.3187995 SPIN=   0.00000
   F   0.2278383   0.3187995  -0.1273168 SPIN=   0.00000
%ENDBLOCK POSITIONS_FRAC

# Note: total spin =  16.00

KPOINTS_MP_SPACING 0.07

%BLOCK SPECIES_POT
QC5
%ENDBLOCK SPECIES_POT

SNAP_TO_SYMMETRY
SYMMETRY_GENERATE

