#              Generated by Buildcell
#
# at 08:40:37 (GMT+1.0) 4th August 2020
# in /lustre/scratch/uccabz1/launch_tmp
# on node-c12d-001
# by uccabz1
#
# compiler GCC version 4.9.2
# options -cpp -iprefix /lustre/shared/ucl/apps/gcc/4.9.2/bin/../lib/gcc/x86_64-unknown-linux-gnu/4.9.2/ -mtune=corei7 -march=x86-64 -g -Og
#
# seed   530573338 -1470100493 -1778969002     1415742   819663411  1815509251  1557220066    35130333   698047246  1264123874  1814649218  -806675195
#
#      Author: C. J. Pickard (cjp20@cam.ac.uk)
#                Space group: P21
#

%BLOCK LATTICE_ABC
      4.48373      6.07915     14.70135
     93.43161     90.00000     90.00000
%ENDBLOCK LATTICE_ABC

%BLOCK POSITIONS_FRAC
  Li  -0.1075806   0.2941959  -0.0733704 SPIN=   0.00000
  Li   0.3924194  -0.2941959   0.0733704 SPIN=   0.00000
  Li   0.4518368  -0.2380803  -0.1903714 SPIN=   0.00000
  Li  -0.0481632   0.2380803   0.1903714 SPIN=   0.00000
  Fe   0.4653949  -0.1350907   0.3430002 SPIN=   2.91025
  Fe  -0.0346051   0.1350907  -0.3430002 SPIN=   2.91025
  Fe   0.4562526  -0.3276778  -0.4246605 SPIN=   5.08975
  Fe  -0.0437474   0.3276778   0.4246605 SPIN=   5.08975
   O   0.1274340   0.1406402  -0.1733846 SPIN=   0.00000
   O   0.5067486   0.4362953  -0.1581218 SPIN=   0.00000
   O   0.5252925   0.1616164  -0.2892296 SPIN=   0.00000
   O   0.6485242   0.0504521  -0.1344328 SPIN=   0.00000
   S   0.4519998   0.1972510  -0.1887922 SPIN=   0.00000
   O  -0.3725660  -0.1406402   0.1733846 SPIN=   0.00000
   O   0.0067486  -0.4362953   0.1581218 SPIN=   0.00000
   O   0.0252925  -0.1616164   0.2892296 SPIN=   0.00000
   O   0.1485242  -0.0504521   0.1344328 SPIN=   0.00000
   S  -0.0480002  -0.1972510   0.1887922 SPIN=   0.00000
   O   0.6592592   0.5484348   0.2654706 SPIN=   0.00000
   O   0.1363951   0.4372090   0.2910360 SPIN=   0.00000
   O   0.5502871   0.2272047   0.3557738 SPIN=   0.00000
   O   0.4625306   0.2044625   0.1892741 SPIN=   0.00000
   S   0.4521180   0.3543277   0.2753886 SPIN=   0.00000
   O   0.1592592  -0.5484348  -0.2654706 SPIN=   0.00000
   O  -0.3636049  -0.4372090  -0.2910360 SPIN=   0.00000
   O   0.0502871  -0.2272047  -0.3557738 SPIN=   0.00000
   O  -0.0374694  -0.2044625  -0.1892741 SPIN=   0.00000
   S  -0.0478820  -0.3543277  -0.2753886 SPIN=   0.00000
   F  -0.1940796  -0.2582739   0.4408723 SPIN=   0.00000
   F   0.3059204   0.2582739  -0.4408723 SPIN=   0.00000
   F  -0.2066684   0.2592261   0.0529758 SPIN=   0.00000
   F   0.2933316  -0.2592261  -0.0529758 SPIN=   0.00000
%ENDBLOCK POSITIONS_FRAC

# Note: total spin =  16.00

KPOINTS_MP_SPACING 0.07

%BLOCK SPECIES_POT
QC5
%ENDBLOCK SPECIES_POT

SNAP_TO_SYMMETRY
SYMMETRY_GENERATE

