#              Generated by Buildcell
#
# at 11:41:19 (GMT+1.0) 18th August 2020
# in /lustre/scratch/uccabz1/launch_tmp
# on node-c12b-013
# by uccabz1
#
# compiler GCC version 4.9.2
# options -cpp -iprefix /lustre/shared/ucl/apps/gcc/4.9.2/bin/../lib/gcc/x86_64-unknown-linux-gnu/4.9.2/ -mtune=corei7 -march=x86-64 -g -Og
#
# seed -1600163108  1934590013 -1157532835   -66602275   514435741  -912272825  -109308068   382593950  1567407130  -395934499  1710112132   446288812
#
#      Author: C. J. Pickard (cjp20@cam.ac.uk)
#                Space group: Pcc2
#

%BLOCK LATTICE_ABC
      7.20535      7.32169      7.58217
     90.00000     90.00000     90.00000
%ENDBLOCK LATTICE_ABC

%BLOCK POSITIONS_FRAC
  Li   0.2494084   0.0732197  -0.4043773 SPIN=   0.00000
  Li  -0.2494084   0.0732197   0.4043773 SPIN=   0.00000
  Li  -0.2494084  -0.4267803  -0.4043773 SPIN=   0.00000
  Li   0.2494084  -0.4267803   0.4043773 SPIN=   0.00000
  Fe  -0.1759407  -0.2464318   0.1668678 SPIN=   4.00000
  Fe   0.1759407  -0.2464318  -0.1668678 SPIN=   4.00000
  Fe   0.1759407   0.2535682   0.1668678 SPIN=   4.00000
  Fe  -0.1759407   0.2535682  -0.1668678 SPIN=   4.00000
   O   0.2697911  -0.1918528   0.0983540 SPIN=   0.00000
   O   0.4642993  -0.2750754   0.3550969 SPIN=   0.00000
   O   0.2997491   0.0215801   0.3498567 SPIN=   0.00000
   O   0.5668815  -0.0312573   0.1511226 SPIN=   0.00000
   S   0.4001803  -0.1191514   0.2386076 SPIN=   0.00000
   O  -0.2697911  -0.1918528  -0.0983540 SPIN=   0.00000
   O  -0.4642993  -0.2750754  -0.3550969 SPIN=   0.00000
   O  -0.2997491   0.0215801  -0.3498567 SPIN=   0.00000
   O  -0.5668815  -0.0312573  -0.1511226 SPIN=   0.00000
   S  -0.4001803  -0.1191514  -0.2386076 SPIN=   0.00000
   O  -0.2697911   0.3081472   0.0983540 SPIN=   0.00000
   O  -0.4642993   0.2249246   0.3550969 SPIN=   0.00000
   O  -0.2997491   0.5215801   0.3498567 SPIN=   0.00000
   O  -0.5668815   0.4687427   0.1511226 SPIN=   0.00000
   S  -0.4001803   0.3808486   0.2386076 SPIN=   0.00000
   O   0.2697911   0.3081472  -0.0983540 SPIN=   0.00000
   O   0.4642993   0.2249246  -0.3550969 SPIN=   0.00000
   O   0.2997491   0.5215801  -0.3498567 SPIN=   0.00000
   O   0.5668815   0.4687427  -0.1511226 SPIN=   0.00000
   S   0.4001803   0.3808486  -0.2386076 SPIN=   0.00000
   F   0.0639965   0.0230973  -0.2357215 SPIN=   0.00000
   F  -0.0639965   0.0230973   0.2357215 SPIN=   0.00000
   F  -0.0639965  -0.4769027  -0.2357215 SPIN=   0.00000
   F   0.0639965  -0.4769027   0.2357215 SPIN=   0.00000
%ENDBLOCK POSITIONS_FRAC

# Note: total spin =  16.00

KPOINTS_MP_SPACING 0.07

%BLOCK SPECIES_POT
QC5
%ENDBLOCK SPECIES_POT

SNAP_TO_SYMMETRY
SYMMETRY_GENERATE

