#              Generated by Buildcell
#
# at 00:38:17 (GMT+1.0) 18th August 2020
# in /scratch/scratch/uccabz1/launch_tmp
# on node-k10g-031
# by uccabz1
#
# compiler GCC version 4.9.2
# options -cpp -iprefix /scratch/UCL/applications/gcc/4.9.2/bin/../lib/gcc/x86_64-unknown-linux-gnu/4.9.2/ -mtune=corei7 -march=x86-64 -g -O2
#
# seed -1801991359   191922484  -929564641 -2031349725 -1008221758  1245282146  1548394319  1642722244 -1179509265  1970274440  1799807432 -1797951441
#
#      Author: C. J. Pickard (cjp20@cam.ac.uk)
#                Space group: Pmn21
#

%BLOCK LATTICE_ABC
      6.10089      7.91285      8.28579
     90.00000     90.00000     90.00000
%ENDBLOCK LATTICE_ABC

%BLOCK POSITIONS_FRAC
  Li   0.3135436   0.1587182   0.0000000 SPIN=   0.00000
  Li  -0.3135436  -0.3412818  -0.5000000 SPIN=   0.00000
  Li   0.3483701  -0.3399063  -0.0000000 SPIN=   0.00000
  Li  -0.3483701   0.1600937  -0.5000000 SPIN=   0.00000
  Fe  -0.1357045  -0.4146899  -0.0000000 SPIN=   4.37825
  Fe   0.1357045   0.0853101  -0.5000000 SPIN=   4.37825
  Fe  -0.1677621   0.0711314   0.0000000 SPIN=   3.62175
  Fe   0.1677621  -0.4288686  -0.5000000 SPIN=   3.62175
   O  -0.3435828  -0.0473659   0.3569011 SPIN=   0.00000
   O  -0.6236901  -0.2735995   0.3570261 SPIN=   0.00000
   O  -0.3370957  -0.2684672   0.1456948 SPIN=   0.00000
   O  -0.6305202  -0.0525014   0.1458224 SPIN=   0.00000
   S  -0.4837222  -0.1604835   0.2513611 SPIN=   0.00000
   O   0.3435828   0.4526341   0.1430989 SPIN=   0.00000
   O   0.6236901   0.2264005   0.1429739 SPIN=   0.00000
   O   0.3370957   0.2315328   0.3543052 SPIN=   0.00000
   O   0.6305202   0.4474986   0.3541776 SPIN=   0.00000
   S   0.4837222   0.3395165   0.2486389 SPIN=   0.00000
   O   0.3435828   0.4526341  -0.1430989 SPIN=   0.00000
   O   0.6236901   0.2264005  -0.1429739 SPIN=   0.00000
   O   0.3370957   0.2315328  -0.3543052 SPIN=   0.00000
   O   0.6305202   0.4474986  -0.3541776 SPIN=   0.00000
   S   0.4837222   0.3395165  -0.2486389 SPIN=   0.00000
   O  -0.3435828  -0.0473659  -0.3569011 SPIN=   0.00000
   O  -0.6236901  -0.2735995  -0.3570261 SPIN=   0.00000
   O  -0.3370957  -0.2684672  -0.1456948 SPIN=   0.00000
   O  -0.6305202  -0.0525014  -0.1458224 SPIN=   0.00000
   S  -0.4837222  -0.1604835  -0.2513611 SPIN=   0.00000
   F   0.0198021  -0.1650529  -0.0000000 SPIN=   0.00000
   F  -0.0198021   0.3349471  -0.5000000 SPIN=   0.00000
   F  -0.0160703   0.3221625  -0.0000000 SPIN=   0.00000
   F   0.0160703  -0.1778375  -0.5000000 SPIN=   0.00000
%ENDBLOCK POSITIONS_FRAC

# Note: total spin =  16.00

KPOINTS_MP_SPACING 0.07

%BLOCK SPECIES_POT
QC5
%ENDBLOCK SPECIES_POT

SNAP_TO_SYMMETRY
SYMMETRY_GENERATE

