#              Generated by Buildcell
#
# at 00:23:55 (GMT+1.0) 18th August 2020
# in /lustre/scratch/uccabz1/launch_tmp
# on node-c12d-004
# by uccabz1
#
# compiler GCC version 4.9.2
# options -cpp -iprefix /lustre/shared/ucl/apps/gcc/4.9.2/bin/../lib/gcc/x86_64-unknown-linux-gnu/4.9.2/ -mtune=corei7 -march=x86-64 -g -Og
#
# seed -2104094014  -321342345 -1829349602 -1305288488   439215734   796671756  -372915768 -1676716984   -39943528  1743461993  -830118913  -777168673
#
#      Author: C. J. Pickard (cjp20@cam.ac.uk)
#                Space group: Iba2
#

%BLOCK LATTICE_ABC
      6.19324      8.69632      8.69632
     72.01341     69.14012     69.14012
%ENDBLOCK LATTICE_ABC

%BLOCK POSITIONS_FRAC
  Li  -0.0096747   0.2273167   0.0258369 SPIN=   0.00000
  Li   0.2434790  -0.2273167  -0.0258369 SPIN=   0.00000
  Li   0.4903253   0.0258369   0.2273167 SPIN=   0.00000
  Li  -0.2565210  -0.0258369  -0.2273167 SPIN=   0.00000
  Fe   0.1550683  -0.2175507   0.3802213 SPIN=   4.00000
  Fe   0.3177389   0.2175507  -0.3802213 SPIN=   4.00000
  Fe  -0.3449317   0.3802213  -0.2175507 SPIN=   4.00000
  Fe  -0.1822611  -0.3802213   0.2175507 SPIN=   4.00000
   O  -0.0498201  -0.5826398  -0.1783213 SPIN=   0.00000
   O   0.0971978  -0.4252847  -0.0619351 SPIN=   0.00000
   O  -0.1388360  -0.2727455  -0.2680198 SPIN=   0.00000
   O   0.2763591  -0.4516718  -0.3596098 SPIN=   0.00000
   S   0.0462252  -0.4330854  -0.2169715 SPIN=   0.00000
   O   0.1892188   0.5826398   0.1783213 SPIN=   0.00000
   O   0.6099779   0.4252847   0.0619351 SPIN=   0.00000
   O   0.3203988   0.2727455   0.2680198 SPIN=   0.00000
   O   0.4650776   0.4516718   0.3596098 SPIN=   0.00000
   S   0.3961683   0.4330854   0.2169715 SPIN=   0.00000
   O  -0.5498201  -0.1783213  -0.5826398 SPIN=   0.00000
   O  -0.4028022  -0.0619351  -0.4252847 SPIN=   0.00000
   O  -0.6388360  -0.2680198  -0.2727455 SPIN=   0.00000
   O  -0.2236409  -0.3596098  -0.4516718 SPIN=   0.00000
   S  -0.4537748  -0.2169715  -0.4330854 SPIN=   0.00000
   O  -0.3107812   0.1783213   0.5826398 SPIN=   0.00000
   O   0.1099779   0.0619351   0.4252847 SPIN=   0.00000
   O  -0.1796012   0.2680198   0.2727455 SPIN=   0.00000
   O  -0.0349224   0.3596098   0.4516718 SPIN=   0.00000
   S  -0.1038317   0.2169715   0.4330854 SPIN=   0.00000
   F  -0.3992025  -0.2288679   0.0652751 SPIN=   0.00000
   F   0.4372047   0.2288679  -0.0652751 SPIN=   0.00000
   F   0.1007975   0.0652751  -0.2288679 SPIN=   0.00000
   F  -0.0627953  -0.0652751   0.2288679 SPIN=   0.00000
%ENDBLOCK POSITIONS_FRAC

# Note: total spin =  16.00

KPOINTS_MP_SPACING 0.07

%BLOCK SPECIES_POT
QC5
%ENDBLOCK SPECIES_POT

SNAP_TO_SYMMETRY
SYMMETRY_GENERATE

