#              Generated by Buildcell
#
# at 17:00:37 (GMT+1.0) 18th August 2020
# in /lustre/scratch/uccabz1/launch_tmp
# on node-c12a-015
# by uccabz1
#
# compiler GCC version 4.9.2
# options -cpp -iprefix /lustre/shared/ucl/apps/gcc/4.9.2/bin/../lib/gcc/x86_64-unknown-linux-gnu/4.9.2/ -mtune=corei7 -march=x86-64 -g -Og
#
# seed  -338355671  1973167155  -254307984   895279500  1868181991 -1702895151   708075373 -1269227718  -524447090   969906306   162145862  2114120217
#
#      Author: C. J. Pickard (cjp20@cam.ac.uk)
#                Space group: P21
#

%BLOCK LATTICE_ABC
      6.83609      6.97192      9.31557
     90.00000     90.00000    115.71963
%ENDBLOCK LATTICE_ABC

%BLOCK POSITIONS_FRAC
  Li   0.9456909   0.4771661  -0.1180753 SPIN=   0.00000
  Li  -0.9456909  -0.4771661   0.3819247 SPIN=   0.00000
  Li  -0.4126705  -0.1496933  -0.0706515 SPIN=   0.00000
  Li   0.4126705   0.1496933   0.4293485 SPIN=   0.00000
  Fe   0.2012888  -0.1932900   0.0934083 SPIN=   4.54479
  Fe  -0.2012888   0.1932900  -0.4065917 SPIN=   4.54479
  Fe   0.2085026  -0.1600052  -0.3159029 SPIN=   3.45521
  Fe  -0.2085026   0.1600052   0.1840971 SPIN=   3.45521
   O   0.0052955  -0.0580237   0.2278369 SPIN=   0.00000
   O   0.1431431  -0.1845476   0.4353642 SPIN=   0.00000
   O  -0.2516550  -0.2982110   0.4070900 SPIN=   0.00000
   O  -0.0101458   0.0746916   0.4719883 SPIN=   0.00000
   S  -0.0283405  -0.1165227   0.3855698 SPIN=   0.00000
   O  -0.0052955   0.0580237  -0.2721631 SPIN=   0.00000
   O  -0.1431431   0.1845476  -0.0646358 SPIN=   0.00000
   O   0.2516550   0.2982110  -0.0929100 SPIN=   0.00000
   O   0.0101458  -0.0746916  -0.0280117 SPIN=   0.00000
   S   0.0283405   0.1165227  -0.1144302 SPIN=   0.00000
   O  -0.1281697  -0.4371028   0.0848323 SPIN=   0.00000
   O  -0.5037074  -0.7230373   0.0797576 SPIN=   0.00000
   O  -0.3954860  -0.4169948  -0.0863725 SPIN=   0.00000
   O  -0.4319389  -0.3664853   0.1735479 SPIN=   0.00000
   S  -0.3648255  -0.4859050   0.0629413 SPIN=   0.00000
   O   0.1281697   0.4371028  -0.4151677 SPIN=   0.00000
   O   0.5037074   0.7230373  -0.4202424 SPIN=   0.00000
   O   0.3954860   0.4169948  -0.5863725 SPIN=   0.00000
   O   0.4319389   0.3664853  -0.3264521 SPIN=   0.00000
   S   0.3648255   0.4859050  -0.4370587 SPIN=   0.00000
   F  -0.4859211  -0.0209335   0.3105661 SPIN=   0.00000
   F   0.4859211   0.0209335  -0.1894339 SPIN=   0.00000
   F  -0.1193501  -0.3830170  -0.2821013 SPIN=   0.00000
   F   0.1193501   0.3830170   0.2178987 SPIN=   0.00000
%ENDBLOCK POSITIONS_FRAC

# Note: total spin =  16.00

KPOINTS_MP_SPACING 0.07

%BLOCK SPECIES_POT
QC5
%ENDBLOCK SPECIES_POT

SNAP_TO_SYMMETRY
SYMMETRY_GENERATE

