#              Generated by Buildcell
#
# at 00:55:55 (GMT+1.0) 18th August 2020
# in /lustre/scratch/uccabz1/launch_tmp
# on node-c12o-031
# by uccabz1
#
# compiler GCC version 4.9.2
# options -cpp -iprefix /lustre/shared/ucl/apps/gcc/4.9.2/bin/../lib/gcc/x86_64-unknown-linux-gnu/4.9.2/ -mtune=corei7 -march=x86-64 -g -Og
#
# seed -1712837444  -582304185  2140850615 -1158343483  -637428138   453753199  -494965529  -597208311    51731250 -1430168459   293381334  2005972436
#
#      Author: C. J. Pickard (cjp20@cam.ac.uk)
#                Space group: P21
#

%BLOCK LATTICE_ABC
      3.94131      7.75925     13.58265
    105.63990     90.00000     90.00000
%ENDBLOCK LATTICE_ABC

%BLOCK POSITIONS_FRAC
  Li   0.0484951   0.0600787   0.2529300 SPIN=   0.00000
  Li  -0.4515049  -0.0600787  -0.2529300 SPIN=   0.00000
  Li  -0.3375188   0.4778839   0.3864653 SPIN=   0.00000
  Li   0.1624812  -0.4778839  -0.3864653 SPIN=   0.00000
  Fe  -0.3375267  -0.6843772  -0.2981871 SPIN=   3.31706
  Fe   0.1624733   0.6843772   0.2981871 SPIN=   3.31706
  Fe   0.1157009   0.1738041  -0.0902341 SPIN=   4.68294
  Fe  -0.3842991  -0.1738041   0.0902341 SPIN=   4.68294
   O   0.0794057  -0.2895116  -0.5244174 SPIN=   0.00000
   O  -0.0485838  -0.1625405  -0.3407232 SPIN=   0.00000
   O  -0.4248783  -0.3933450  -0.4480775 SPIN=   0.00000
   O  -0.4135394  -0.0881356  -0.4717767 SPIN=   0.00000
   S  -0.2018989  -0.2333832  -0.4462487 SPIN=   0.00000
   O   0.5794057   0.2895116   0.5244174 SPIN=   0.00000
   O   0.4514162   0.1625405   0.3407232 SPIN=   0.00000
   O   0.0751217   0.3933450   0.4480775 SPIN=   0.00000
   O   0.0864606   0.0881356   0.4717767 SPIN=   0.00000
   S   0.2981011   0.2333832   0.4462487 SPIN=   0.00000
   O   0.3444727  -0.3142792  -0.1815529 SPIN=   0.00000
   O  -0.0733537  -0.5474099  -0.1721478 SPIN=   0.00000
   O  -0.0163958  -0.2748730  -0.0279546 SPIN=   0.00000
   O   0.4398090  -0.5024701  -0.0631686 SPIN=   0.00000
   S   0.1736331  -0.4097581  -0.1112060 SPIN=   0.00000
   O  -0.1555273   0.3142792   0.1815529 SPIN=   0.00000
   O  -0.5733537   0.5474099   0.1721478 SPIN=   0.00000
   O  -0.5163958   0.2748730   0.0279546 SPIN=   0.00000
   O  -0.0601910   0.5024701   0.0631686 SPIN=   0.00000
   S  -0.3263669   0.4097581   0.1112060 SPIN=   0.00000
   F  -0.2302230  -0.1723210   0.3131099 SPIN=   0.00000
   F   0.2697770   0.1723210  -0.3131099 SPIN=   0.00000
   F  -0.2302271  -0.0117018  -0.1223824 SPIN=   0.00000
   F   0.2697729   0.0117018   0.1223824 SPIN=   0.00000
%ENDBLOCK POSITIONS_FRAC

# Note: total spin =  16.00

KPOINTS_MP_SPACING 0.07

%BLOCK SPECIES_POT
QC5
%ENDBLOCK SPECIES_POT

SNAP_TO_SYMMETRY
SYMMETRY_GENERATE

