#              Generated by Buildcell
#
# at 03:45:34 (GMT+1.0) 18th August 2020
# in /lustre/scratch/uccabz1/launch_tmp
# on node-c12p-030
# by uccabz1
#
# compiler GCC version 4.9.2
# options -cpp -iprefix /lustre/shared/ucl/apps/gcc/4.9.2/bin/../lib/gcc/x86_64-unknown-linux-gnu/4.9.2/ -mtune=corei7 -march=x86-64 -g -Og
#
# seed   895666699  1111033648   824897903   993098586 -1207722588 -1992608720 -1249199853  -735216775  -317330782   627172133 -2038358890 -1379613990
#
#      Author: C. J. Pickard (cjp20@cam.ac.uk)
#                Space group: P2
#

%BLOCK LATTICE_ABC
      5.37494      7.92240     10.00997
    110.21235     90.00000     90.00000
%ENDBLOCK LATTICE_ABC

%BLOCK POSITIONS_FRAC
  Li  -0.2171805   0.5106502   0.2805345 SPIN=   0.00000
  Li  -0.2171805  -0.5106502  -0.2805345 SPIN=   0.00000
  Li  -0.2345034   0.0267650   0.3016985 SPIN=   0.00000
  Li  -0.2345034  -0.0267650  -0.3016985 SPIN=   0.00000
  Fe  -0.2225268   0.2583085  -0.0226728 SPIN=   3.29433
  Fe  -0.2225268  -0.2583085   0.0226728 SPIN=   3.29433
  Fe   0.1178177  -0.7590130  -0.4856135 SPIN=   4.70567
  Fe   0.1178177   0.7590130   0.4856135 SPIN=   4.70567
   O   0.0264699  -0.3954789  -0.1334874 SPIN=   0.00000
   O   0.4680126  -0.3025190  -0.1202891 SPIN=   0.00000
   O   0.3080717  -0.5377925  -0.3369989 SPIN=   0.00000
   O   0.3573965  -0.6028047  -0.1137469 SPIN=   0.00000
   S   0.2899877  -0.4596488  -0.1761306 SPIN=   0.00000
   O   0.0264699   0.3954789   0.1334874 SPIN=   0.00000
   O   0.4680126   0.3025190   0.1202891 SPIN=   0.00000
   O   0.3080717   0.5377925   0.3369989 SPIN=   0.00000
   O   0.3573965   0.6028047   0.1137469 SPIN=   0.00000
   S   0.2899877   0.4596488   0.1761306 SPIN=   0.00000
   O   0.0463416  -0.0630395   0.0961979 SPIN=   0.00000
   O   0.2813161   0.1819938   0.2731500 SPIN=   0.00000
   O   0.5067138  -0.0641194   0.0915388 SPIN=   0.00000
   O   0.2831376  -0.1240962   0.2866364 SPIN=   0.00000
   S   0.2793773  -0.0173153   0.1868808 SPIN=   0.00000
   O   0.0463416   0.0630395  -0.0961979 SPIN=   0.00000
   O   0.2813161  -0.1819938  -0.2731500 SPIN=   0.00000
   O   0.5067138   0.0641194  -0.0915388 SPIN=   0.00000
   O   0.2831376   0.1240962  -0.2866364 SPIN=   0.00000
   S   0.2793773   0.0173153  -0.1868808 SPIN=   0.00000
   F  -0.2169590  -0.7821775  -0.3269646 SPIN=   0.00000
   F  -0.2169590   0.7821775   0.3269646 SPIN=   0.00000
   F  -0.2183596   0.2992895   0.3521897 SPIN=   0.00000
   F  -0.2183596  -0.2992895  -0.3521897 SPIN=   0.00000
%ENDBLOCK POSITIONS_FRAC

# Note: total spin =  16.00

KPOINTS_MP_SPACING 0.07

%BLOCK SPECIES_POT
QC5
%ENDBLOCK SPECIES_POT

SNAP_TO_SYMMETRY
SYMMETRY_GENERATE

