#              Generated by Buildcell
#
# at 08:35:01 (GMT+1.0) 4th August 2020
# in /lustre/scratch/uccabz1/launch_tmp
# on node-c12g-006
# by uccabz1
#
# compiler GCC version 4.9.2
# options -cpp -iprefix /lustre/shared/ucl/apps/gcc/4.9.2/bin/../lib/gcc/x86_64-unknown-linux-gnu/4.9.2/ -mtune=corei7 -march=x86-64 -g -Og
#
# seed  -928890481 -1684516050 -1038393004  1401353037 -1105926143   -19877630  -114592905 -1462746457  1940789864   237850275   102785279 -1747694495
#
#      Author: C. J. Pickard (cjp20@cam.ac.uk)
#                Space group: P212121
#

%BLOCK LATTICE_ABC
      4.35560      6.91708     13.27667
     90.00000     90.00000     90.00000
%ENDBLOCK LATTICE_ABC

%BLOCK POSITIONS_FRAC
  Li  -0.0381565  -0.2645355   0.1904509 SPIN=   0.00000
  Li  -0.4618435   0.2645355  -0.3095491 SPIN=   0.00000
  Li   0.0381565   0.2354645   0.3095491 SPIN=   0.00000
  Li   0.4618435  -0.2354645  -0.1904509 SPIN=   0.00000
  Fe  -0.2854296  -0.1036732   0.4166588 SPIN=   4.00000
  Fe  -0.2145704   0.1036732  -0.0833412 SPIN=   4.00000
  Fe   0.2854296   0.3963268   0.0833412 SPIN=   4.00000
  Fe   0.2145704  -0.3963268  -0.4166588 SPIN=   4.00000
   O  -0.7085124   0.5989546   0.3844284 SPIN=   0.00000
   O  -0.6135637   0.4026285   0.2317347 SPIN=   0.00000
   O  -0.3870516   0.3046108   0.3948849 SPIN=   0.00000
   O  -0.1922173   0.5948870   0.3066180 SPIN=   0.00000
   S  -0.4753363   0.4752702   0.3294165 SPIN=   0.00000
   O   0.2085124  -0.5989546  -0.1155716 SPIN=   0.00000
   O   0.1135637  -0.4026285  -0.2682653 SPIN=   0.00000
   O  -0.1129484  -0.3046108  -0.1051151 SPIN=   0.00000
   O  -0.3077827  -0.5948870  -0.1933820 SPIN=   0.00000
   S  -0.0246637  -0.4752702  -0.1705835 SPIN=   0.00000
   O   0.7085124   0.0989546   0.1155716 SPIN=   0.00000
   O   0.6135637  -0.0973715   0.2682653 SPIN=   0.00000
   O   0.3870516  -0.1953892   0.1051151 SPIN=   0.00000
   O   0.1922173   0.0948870   0.1933820 SPIN=   0.00000
   S   0.4753363  -0.0247298   0.1705835 SPIN=   0.00000
   O  -0.2085124  -0.0989546  -0.3844284 SPIN=   0.00000
   O  -0.1135637   0.0973715  -0.2317347 SPIN=   0.00000
   O   0.1129484   0.1953892  -0.3948849 SPIN=   0.00000
   O   0.3077827  -0.0948870  -0.3066180 SPIN=   0.00000
   S   0.0246637   0.0247298  -0.3294165 SPIN=   0.00000
   F   0.1129512   0.0524353   0.4058808 SPIN=   0.00000
   F   0.3870488  -0.0524353  -0.0941192 SPIN=   0.00000
   F  -0.1129512  -0.4475647   0.0941192 SPIN=   0.00000
   F  -0.3870488   0.4475647  -0.4058808 SPIN=   0.00000
%ENDBLOCK POSITIONS_FRAC

# Note: total spin =  16.00

KPOINTS_MP_SPACING 0.07

%BLOCK SPECIES_POT
QC5
%ENDBLOCK SPECIES_POT

SNAP_TO_SYMMETRY
SYMMETRY_GENERATE

