#              Generated by Buildcell
#
# at 23:18:16 (GMT+1.0) 17th August 2020
# in /scratch/scratch/uccabz1/launch_tmp
# on node-k10b-010
# by uccabz1
#
# compiler GCC version 4.9.2
# options -cpp -iprefix /scratch/UCL/applications/gcc/4.9.2/bin/../lib/gcc/x86_64-unknown-linux-gnu/4.9.2/ -mtune=corei7 -march=x86-64 -g -O2
#
# seed  2044693956  -260222509   633028705  1333285454 -1825454344  -136748400  1121367315  1801887989    -9741045  1387623486 -1904075924  1782718667
#
#      Author: C. J. Pickard (cjp20@cam.ac.uk)
#                Space group: Pc
#

%BLOCK LATTICE_ABC
      4.74154      6.95757     12.13847
     92.69505     90.00000     90.00000
%ENDBLOCK LATTICE_ABC

%BLOCK POSITIONS_FRAC
  Li  -0.1963199  -0.4446613  -0.2150475 SPIN=   0.00000
  Li   0.1963199   0.0553387   0.2849525 SPIN=   0.00000
  Li  -0.2166155   0.1160146  -0.4233369 SPIN=   0.00000
  Li   0.2166155  -0.3839854   0.0766631 SPIN=   0.00000
  Fe  -0.3032737  -0.1765723   0.2164199 SPIN=   3.58102
  Fe   0.3032737   0.3234277  -0.2835801 SPIN=   3.58102
  Fe   0.2796990   0.4590918   0.3651187 SPIN=   4.41898
  Fe  -0.2796990  -0.0409082  -0.1348813 SPIN=   4.41898
   O  -0.0173929   0.1011878  -0.0111938 SPIN=   0.00000
   O   0.3965836  -0.1155783  -0.0211938 SPIN=   0.00000
   O   0.0933352  -0.1023426   0.1449362 SPIN=   0.00000
   O   0.4006913   0.1736157   0.1055592 SPIN=   0.00000
   S   0.2183043   0.0142207   0.0545270 SPIN=   0.00000
   O   0.0173929  -0.3988122  -0.5111938 SPIN=   0.00000
   O  -0.3965836  -0.6155783  -0.5211938 SPIN=   0.00000
   O  -0.0933352  -0.6023426  -0.3550638 SPIN=   0.00000
   O  -0.4006913  -0.3263843  -0.3944408 SPIN=   0.00000
   S  -0.2183043  -0.4857793  -0.4454730 SPIN=   0.00000
   O  -0.5728689   0.3748953  -0.0370991 SPIN=   0.00000
   O  -0.2846007   0.6597318   0.0184756 SPIN=   0.00000
   O  -0.0671117   0.3849342  -0.0868999 SPIN=   0.00000
   O  -0.2082679   0.3512250   0.1075300 SPIN=   0.00000
   S  -0.2832123   0.4426966   0.0005017 SPIN=   0.00000
   O   0.5728689  -0.1251047  -0.5370991 SPIN=   0.00000
   O   0.2846007   0.1597318  -0.4815244 SPIN=   0.00000
   O   0.0671117  -0.1150658  -0.5868999 SPIN=   0.00000
   O   0.2082679  -0.1487750  -0.3924700 SPIN=   0.00000
   S   0.2832123  -0.0573034  -0.4994983 SPIN=   0.00000
   F  -0.2613129   0.0407150  -0.2792329 SPIN=   0.00000
   F   0.2613129  -0.4592850   0.2207671 SPIN=   0.00000
   F   0.2809308  -0.3682532  -0.2023904 SPIN=   0.00000
   F  -0.2809308   0.1317468   0.2976096 SPIN=   0.00000
%ENDBLOCK POSITIONS_FRAC

# Note: total spin =  16.00

KPOINTS_MP_SPACING 0.07

%BLOCK SPECIES_POT
QC5
%ENDBLOCK SPECIES_POT

SNAP_TO_SYMMETRY
SYMMETRY_GENERATE

