#              Generated by Buildcell
#
# at 07:28:28 (GMT+1.0) 4th August 2020
# in /lustre/scratch/uccabz1/launch_tmp
# on node-c12p-016
# by uccabz1
#
# compiler GCC version 4.9.2
# options -cpp -iprefix /lustre/shared/ucl/apps/gcc/4.9.2/bin/../lib/gcc/x86_64-unknown-linux-gnu/4.9.2/ -mtune=corei7 -march=x86-64 -g -Og
#
# seed -1178660273 -1329616112    84824842  -935737834  1205414713 -1529045048  2144012847 -1152314872   139023436  1656859508 -1162074645 -1675134698
#
#      Author: C. J. Pickard (cjp20@cam.ac.uk)
#                Space group: C2
#

%BLOCK LATTICE_ABC
      6.47635      6.47635     10.12188
     96.26130     96.26130    106.60772
%ENDBLOCK LATTICE_ABC

%BLOCK POSITIONS_FRAC
  Li   0.0918254   0.4261508  -0.0036089 SPIN=   0.00000
  Li  -0.4261508  -0.0918254   0.0036089 SPIN=   0.00000
  Li   0.3928477   0.1090331  -0.2970136 SPIN=   0.00000
  Li  -0.1090331  -0.3928477   0.2970136 SPIN=   0.00000
  Fe  -0.7902645  -0.3877104  -0.2780232 SPIN=   4.40726
  Fe  -0.6122896  -0.2097355   0.2780232 SPIN=   4.40726
  Fe   0.0545605  -0.0545605  -0.0000000 SPIN=   1.88714
  Fe   0.6153031   0.3846969   0.5000000 SPIN=   5.29833
   O  -0.2817394   0.0151054  -0.3674646 SPIN=   0.00000
   O   0.0000097   0.2840488  -0.1990993 SPIN=   0.00000
   O   0.1022990   0.1276143  -0.4072092 SPIN=   0.00000
   O  -0.0061206  -0.1021082  -0.2314255 SPIN=   0.00000
   S  -0.0463878   0.0811651  -0.3012997 SPIN=   0.00000
   O  -0.0151054   0.2817394   0.3674646 SPIN=   0.00000
   O  -0.2840488  -0.0000097   0.1990993 SPIN=   0.00000
   O  -0.1276143  -0.1022990   0.4072092 SPIN=   0.00000
   O   0.1021082   0.0061206   0.2314255 SPIN=   0.00000
   S  -0.0811651   0.0463878   0.3012997 SPIN=   0.00000
   O   0.8643461   0.5675569  -0.0667449 SPIN=   0.00000
   O   0.4620512   0.4256773  -0.1139862 SPIN=   0.00000
   O   0.6834414   0.3540565  -0.2879710 SPIN=   0.00000
   S   0.6673882   0.5184141  -0.1739685 SPIN=   0.00000
   O   0.4324431   0.1356539   0.0667449 SPIN=   0.00000
   O   0.5743227   0.5379488   0.1139862 SPIN=   0.00000
   O   0.6459435   0.3165586   0.2879710 SPIN=   0.00000
   S   0.4815859   0.3326118   0.1739685 SPIN=   0.00000
   O  -0.7410024  -0.2589976  -0.0000000 SPIN=   0.00000
   O  -0.1507377   0.1507377   0.0000000 SPIN=   0.00000
   F  -0.0486881  -0.4233208  -0.4383612 SPIN=   0.00000
   F   0.4233208   0.0486881   0.4383612 SPIN=   0.00000
   F  -0.9603309  -0.4793952   0.1668646 SPIN=   0.00000
   F  -0.5206048  -0.0396691  -0.1668646 SPIN=   0.00000
%ENDBLOCK POSITIONS_FRAC

# Note: total spin =  16.00

KPOINTS_MP_SPACING 0.07

%BLOCK SPECIES_POT
QC5
%ENDBLOCK SPECIES_POT

SNAP_TO_SYMMETRY
SYMMETRY_GENERATE

