#              Generated by Buildcell
#
# at 07:31:09 (GMT+1.0) 4th August 2020
# in /lustre/scratch/uccabz1/launch_tmp
# on node-c12j-011
# by uccabz1
#
# compiler GCC version 4.9.2
# options -cpp -iprefix /lustre/shared/ucl/apps/gcc/4.9.2/bin/../lib/gcc/x86_64-unknown-linux-gnu/4.9.2/ -mtune=corei7 -march=x86-64 -g -Og
#
# seed  1615378822 -1167084975   887248170  -327930551   916585673   439195719 -1204662822 -1738723116  -954382638  1063869835 -2001253675   136989680
#
#      Author: C. J. Pickard (cjp20@cam.ac.uk)
#                Space group: C2
#

%BLOCK LATTICE_ABC
      4.07635      8.63431     12.31433
    110.52278     99.16455     90.00000
%ENDBLOCK LATTICE_ABC

%BLOCK POSITIONS_FRAC
  Li  -0.4171479   0.4699534  -0.2108124 SPIN=   0.00000
  Li   0.4171479  -0.3192342   0.2108124 SPIN=   0.00000
  Li   0.3940094  -0.1185458  -0.3440144 SPIN=   0.00000
  Li  -0.3940094   0.2254686   0.3440144 SPIN=   0.00000
  Fe   0.0849868   0.3113761   0.1645974 SPIN=   5.10327
  Fe  -0.0849868   0.1467787  -0.1645974 SPIN=   5.10327
  Fe  -0.0877634  -0.4073558   0.4525168 SPIN=   2.89673
  Fe   0.0877634   0.1401274  -0.4525168 SPIN=   2.89673
   O   0.0209768  -0.2779543  -0.3652964 SPIN=   0.00000
   O  -0.0710649  -0.1166071  -0.1635272 SPIN=   0.00000
   O   0.0922801  -0.4060955  -0.2126729 SPIN=   0.00000
   O  -0.4708828  -0.3478905  -0.2929363 SPIN=   0.00000
   S  -0.1071727  -0.2871368  -0.2586082 SPIN=   0.00000
   O  -0.0209768   0.0873421   0.3652964 SPIN=   0.00000
   O   0.0710649   0.0469201   0.1635272 SPIN=   0.00000
   O  -0.0922801  -0.1934226   0.2126729 SPIN=   0.00000
   O   0.4708828  -0.0549542   0.2929363 SPIN=   0.00000
   S   0.1071727  -0.0285287   0.2586082 SPIN=   0.00000
   O   0.7321211  -0.2415795   0.3703360 SPIN=   0.00000
   O   0.2419335  -0.0984410   0.4435196 SPIN=   0.00000
   O   0.4740443  -0.3164884   0.5154017 SPIN=   0.00000
   O   0.1782041  -0.3918822   0.3104764 SPIN=   0.00000
   O  -0.7321211   0.3880845  -0.3703360 SPIN=   0.00000
   O  -0.2419335   0.4580394  -0.4435196 SPIN=   0.00000
   O  -0.4740443   0.1681099  -0.5154017 SPIN=   0.00000
   O  -0.1782041   0.2976413  -0.3104764 SPIN=   0.00000
   S  -0.5000000   0.0066184   0.0000000 SPIN=   0.00000
   S   0.0000000  -0.4448881   0.0000000 SPIN=   0.00000
   F   0.1916171   0.3885129   0.4166487 SPIN=   0.00000
   F  -0.1916171  -0.0281358  -0.4166487 SPIN=   0.00000
   F  -0.4280283   0.4175460   0.1718615 SPIN=   0.00000
   F   0.4280283   0.2456845  -0.1718615 SPIN=   0.00000
%ENDBLOCK POSITIONS_FRAC

# Note: total spin =  16.00

KPOINTS_MP_SPACING 0.07

%BLOCK SPECIES_POT
QC5
%ENDBLOCK SPECIES_POT

SNAP_TO_SYMMETRY
SYMMETRY_GENERATE

