#              Generated by Buildcell
#
# at 08:42:07 (GMT+1.0) 4th August 2020
# in /lustre/scratch/uccabz1/launch_tmp
# on node-c12p-029
# by uccabz1
#
# compiler GCC version 4.9.2
# options -cpp -iprefix /lustre/shared/ucl/apps/gcc/4.9.2/bin/../lib/gcc/x86_64-unknown-linux-gnu/4.9.2/ -mtune=corei7 -march=x86-64 -g -Og
#
# seed  -107218816 -1404545617  1066243556  1742029131  -897087889  -623410343 -1004857763   228484862 -1131375858  1364001753  1790771349   370953702
#
#      Author: C. J. Pickard (cjp20@cam.ac.uk)
#                Space group: I-4
#

%BLOCK LATTICE_ABC
      4.98219      9.30008      9.30008
     85.88563     74.46318     74.46318
%ENDBLOCK LATTICE_ABC

%BLOCK POSITIONS_FRAC
  Li  -0.1670732  -0.0964565  -0.3821774 SPIN=   0.00000
  Li   0.3542929   0.0964565   0.3821774 SPIN=   0.00000
  Li  -0.4507494  -0.3821774   0.0964565 SPIN=   0.00000
  Li   0.2635297   0.3821774  -0.0964565 SPIN=   0.00000
  Fe   0.0488201   0.4525762   0.2398535 SPIN=   4.00000
  Fe  -0.2587502  -0.4525762  -0.2398535 SPIN=   4.00000
  Fe  -0.2886736   0.2398535  -0.4525762 SPIN=   4.00000
  Fe   0.4986037  -0.2398535   0.4525762 SPIN=   4.00000
   O  -0.2307327   0.1216225   0.3300660 SPIN=   0.00000
   O  -0.2187981  -0.1365044   0.2739868 SPIN=   0.00000
   O   0.1114541  -0.0922707   0.4129564 SPIN=   0.00000
   O   0.1862305  -0.0291065   0.1445163 SPIN=   0.00000
   S  -0.0379616  -0.0340648   0.2903814 SPIN=   0.00000
   O   0.2209558  -0.1216225  -0.3300660 SPIN=   0.00000
   O  -0.0813157   0.1365044  -0.2739868 SPIN=   0.00000
   O   0.4321398   0.0922707  -0.4129564 SPIN=   0.00000
   O   0.3016403   0.0291065  -0.1445163 SPIN=   0.00000
   S   0.2183550   0.0340648  -0.2903814 SPIN=   0.00000
   O  -0.0993333   0.3300660  -0.1216225 SPIN=   0.00000
   O  -0.0551887   0.2739868   0.1365044 SPIN=   0.00000
   O  -0.5244105   0.4129564   0.0922707 SPIN=   0.00000
   O  -0.3307468   0.1445163   0.0291065 SPIN=   0.00000
   S  -0.2524198   0.2903814   0.0340648 SPIN=   0.00000
   O   0.1091102  -0.3300660   0.1216225 SPIN=   0.00000
   O   0.3553025  -0.2739868  -0.1365044 SPIN=   0.00000
   O  -0.0191834  -0.4129564  -0.0922707 SPIN=   0.00000
   O  -0.1571240  -0.1445163  -0.0291065 SPIN=   0.00000
   S   0.0720263  -0.2903814  -0.0340648 SPIN=   0.00000
   F   0.1595290   0.2960447   0.3890142 SPIN=   0.00000
   F  -0.1554121  -0.2960447  -0.3890142 SPIN=   0.00000
   F   0.4514568   0.3890142  -0.2960447 SPIN=   0.00000
   F  -0.4555737  -0.3890142   0.2960447 SPIN=   0.00000
%ENDBLOCK POSITIONS_FRAC

# Note: total spin =  16.00

KPOINTS_MP_SPACING 0.07

%BLOCK SPECIES_POT
QC5
%ENDBLOCK SPECIES_POT

SNAP_TO_SYMMETRY
SYMMETRY_GENERATE

