#              Generated by Buildcell
#
# at 02:40:20 (GMT+1.0) 18th August 2020
# in /scratch/scratch/uccabz1/launch_tmp
# on node-k10e-030
# by uccabz1
#
# compiler GCC version 4.9.2
# options -cpp -iprefix /scratch/UCL/applications/gcc/4.9.2/bin/../lib/gcc/x86_64-unknown-linux-gnu/4.9.2/ -mtune=corei7 -march=x86-64 -g -O2
#
# seed -1953051333   912040368   640782521   988819861 -1740100929  -400937782  -719755330  1167064182  1858830109 -1217444254   909126312  -485287847
#
#      Author: C. J. Pickard (cjp20@cam.ac.uk)
#                Space group: P-1
#

%BLOCK LATTICE_ABC
      5.06819      8.26979      9.98268
     89.27001     89.27836     72.96680
%ENDBLOCK LATTICE_ABC

%BLOCK POSITIONS_FRAC
  Li   0.7127846  -0.3823733  -0.3796200 SPIN=   0.00000
  Li  -0.7127846   0.3823733   0.3796200 SPIN=   0.00000
  Li  -0.1067061   0.1719890   0.1448053 SPIN=   0.00000
  Li   0.1067061  -0.1719890  -0.1448053 SPIN=   0.00000
  Fe  -0.1204450   0.2288305  -0.4644949 SPIN=   4.82349
  Fe   0.1204450  -0.2288305   0.4644949 SPIN=   4.82349
  Fe  -0.5155381   0.0252040   0.2853187 SPIN=   3.17651
  Fe   0.5155381  -0.0252040  -0.2853187 SPIN=   3.17651
   O   0.1906980  -0.3464580   0.0621394 SPIN=   0.00000
   O  -0.1554208  -0.0646101   0.0511138 SPIN=   0.00000
   O   0.2953065  -0.0980496   0.1583605 SPIN=   0.00000
   O  -0.0495084  -0.2154100   0.2685953 SPIN=   0.00000
   S   0.0702688  -0.1811319   0.1350523 SPIN=   0.00000
   O  -0.1906980   0.3464580  -0.0621394 SPIN=   0.00000
   O   0.1554208   0.0646101  -0.0511138 SPIN=   0.00000
   O  -0.2953065   0.0980496  -0.1583605 SPIN=   0.00000
   O   0.0495084   0.2154100  -0.2685953 SPIN=   0.00000
   S  -0.0702688   0.1811319  -0.1350523 SPIN=   0.00000
   O   0.5466774  -0.6226865  -0.2598139 SPIN=   0.00000
   O   0.1059927  -0.4799169  -0.1448304 SPIN=   0.00000
   O   0.1157952  -0.5230498  -0.3899282 SPIN=   0.00000
   O   0.3270985  -0.3160113  -0.2946202 SPIN=   0.00000
   S   0.2738910  -0.4854161  -0.2722982 SPIN=   0.00000
   O  -0.5466774   0.6226865   0.2598139 SPIN=   0.00000
   O  -0.1059927   0.4799169   0.1448304 SPIN=   0.00000
   O  -0.1157952   0.5230498   0.3899282 SPIN=   0.00000
   O  -0.3270985   0.3160113   0.2946202 SPIN=   0.00000
   S  -0.2738910   0.4854161   0.2722982 SPIN=   0.00000
   F   0.2586570   0.2009610   0.4764754 SPIN=   0.00000
   F  -0.2586570  -0.2009610  -0.4764754 SPIN=   0.00000
   F  -0.5742038   0.1753639   0.1290581 SPIN=   0.00000
   F   0.5742038  -0.1753639  -0.1290581 SPIN=   0.00000
%ENDBLOCK POSITIONS_FRAC

# Note: total spin =  16.00

KPOINTS_MP_SPACING 0.07

%BLOCK SPECIES_POT
QC5
%ENDBLOCK SPECIES_POT

SNAP_TO_SYMMETRY
SYMMETRY_GENERATE

