#              Generated by Buildcell
#
# at 10:30:55 (GMT+1.0) 18th August 2020
# in /lustre/scratch/uccabz1/launch_tmp
# on node-c12l-029
# by uccabz1
#
# compiler GCC version 4.9.2
# options -cpp -iprefix /lustre/shared/ucl/apps/gcc/4.9.2/bin/../lib/gcc/x86_64-unknown-linux-gnu/4.9.2/ -mtune=corei7 -march=x86-64 -g -Og
#
# seed   -64237721    43025360 -1231501381 -1204659977  -428850011   358478137 -1625506078 -1177432716 -1928477482    57201893 -1806539955  -628612378
#
#      Author: C. J. Pickard (cjp20@cam.ac.uk)
#                Space group: P42
#

%BLOCK LATTICE_ABC
      5.80020      8.30441      8.30441
     90.00000     90.00000     90.00000
%ENDBLOCK LATTICE_ABC

%BLOCK POSITIONS_FRAC
  Li   0.4068950   0.2899808  -0.4154924 SPIN=   0.00000
  Li   0.4068950  -0.2899808   0.4154924 SPIN=   0.00000
  Li  -0.0931050   0.4154924   0.2899808 SPIN=   0.00000
  Li  -0.0931050  -0.4154924  -0.2899808 SPIN=   0.00000
  Fe   0.2304638  -0.2491585   0.0745973 SPIN=   4.00000
  Fe   0.2304638   0.2491585  -0.0745973 SPIN=   4.00000
  Fe  -0.2695362  -0.0745973  -0.2491585 SPIN=   4.00000
  Fe  -0.2695362   0.0745973   0.2491585 SPIN=   4.00000
   O   0.5517631   0.3884265   0.0858385 SPIN=   0.00000
   O   0.5891889   0.5040106   0.3592841 SPIN=   0.00000
   O   0.3625536   0.2550271   0.3172595 SPIN=   0.00000
   O   0.2147892   0.5159470   0.2168359 SPIN=   0.00000
   S   0.4295737   0.4158528   0.2448045 SPIN=   0.00000
   O   0.5517631  -0.3884265  -0.0858385 SPIN=   0.00000
   O   0.5891889  -0.5040106  -0.3592841 SPIN=   0.00000
   O   0.3625536  -0.2550271  -0.3172595 SPIN=   0.00000
   O   0.2147892  -0.5159470  -0.2168359 SPIN=   0.00000
   S   0.4295737  -0.4158528  -0.2448045 SPIN=   0.00000
   O   0.0517631  -0.0858385   0.3884265 SPIN=   0.00000
   O   0.0891889  -0.3592841   0.5040106 SPIN=   0.00000
   O  -0.1374464  -0.3172595   0.2550271 SPIN=   0.00000
   O  -0.2852108  -0.2168359   0.5159470 SPIN=   0.00000
   S  -0.0704263  -0.2448045   0.4158528 SPIN=   0.00000
   O   0.0517631   0.0858385  -0.3884265 SPIN=   0.00000
   O   0.0891889   0.3592841  -0.5040106 SPIN=   0.00000
   O  -0.1374464   0.3172595  -0.2550271 SPIN=   0.00000
   O  -0.2852108   0.2168359  -0.5159470 SPIN=   0.00000
   S  -0.0704263   0.2448045  -0.4158528 SPIN=   0.00000
   F  -0.0561908  -0.1875237  -0.1272251 SPIN=   0.00000
   F  -0.0561908   0.1875237   0.1272251 SPIN=   0.00000
   F   0.4438092   0.1272251  -0.1875237 SPIN=   0.00000
   F   0.4438092  -0.1272251   0.1875237 SPIN=   0.00000
%ENDBLOCK POSITIONS_FRAC

# Note: total spin =  16.00

KPOINTS_MP_SPACING 0.07

%BLOCK SPECIES_POT
QC5
%ENDBLOCK SPECIES_POT

SNAP_TO_SYMMETRY
SYMMETRY_GENERATE

