#              Generated by Buildcell
#
# at 06:25:01 (GMT+1.0) 4th August 2020
# in /lustre/scratch/uccabz1/launch_tmp
# on node-c12k-034
# by uccabz1
#
# compiler GCC version 4.9.2
# options -cpp -iprefix /lustre/shared/ucl/apps/gcc/4.9.2/bin/../lib/gcc/x86_64-unknown-linux-gnu/4.9.2/ -mtune=corei7 -march=x86-64 -g -Og
#
# seed   679188600 -1481361828  1758003727  2087315273   119697553   560713332  1781996893  1795612024   661518614  1004419303   476062449  -151652651
#
#      Author: C. J. Pickard (cjp20@cam.ac.uk)
#                Space group: P2/c
#

%BLOCK LATTICE_ABC
      4.04626      9.68137     10.22018
     92.42394     90.00000     90.00000
%ENDBLOCK LATTICE_ABC

%BLOCK POSITIONS_FRAC
  Li  -0.2667294  -0.3490519  -0.4010453 SPIN=   0.00000
  Li  -0.2667294   0.3490519  -0.0989547 SPIN=   0.00000
  Li   0.2667294   0.3490519   0.4010453 SPIN=   0.00000
  Li   0.2667294  -0.3490519   0.0989547 SPIN=   0.00000
  Fe  -0.2522569   0.1170880   0.3978445 SPIN=   4.00000
  Fe  -0.2522569  -0.1170880   0.1021555 SPIN=   4.00000
  Fe   0.2522569  -0.1170880  -0.3978445 SPIN=   4.00000
  Fe   0.2522569   0.1170880  -0.1021555 SPIN=   4.00000
   O  -0.2597193  -0.3326606   0.0150362 SPIN=   0.00000
   O  -0.4243911  -0.3709142  -0.2168834 SPIN=   0.00000
   O   0.0898979  -0.4760865  -0.1358102 SPIN=   0.00000
   O   0.0578135  -0.2231196  -0.1597043 SPIN=   0.00000
   S  -0.1340998  -0.3506952  -0.1243404 SPIN=   0.00000
   O  -0.2597193   0.3326606  -0.5150362 SPIN=   0.00000
   O  -0.4243911   0.3709142  -0.2831166 SPIN=   0.00000
   O   0.0898979   0.4760865  -0.3641898 SPIN=   0.00000
   O   0.0578135   0.2231196  -0.3402957 SPIN=   0.00000
   S  -0.1340998   0.3506952  -0.3756596 SPIN=   0.00000
   O   0.2597193   0.3326606  -0.0150362 SPIN=   0.00000
   O   0.4243911   0.3709142   0.2168834 SPIN=   0.00000
   O  -0.0898979   0.4760865   0.1358102 SPIN=   0.00000
   O  -0.0578135   0.2231196   0.1597043 SPIN=   0.00000
   S   0.1340998   0.3506952   0.1243404 SPIN=   0.00000
   O   0.2597193  -0.3326606   0.5150362 SPIN=   0.00000
   O   0.4243911  -0.3709142   0.2831166 SPIN=   0.00000
   O  -0.0898979  -0.4760865   0.3641898 SPIN=   0.00000
   O  -0.0578135  -0.2231196   0.3402957 SPIN=   0.00000
   S   0.1340998  -0.3506952   0.3756596 SPIN=   0.00000
   F  -0.2467183  -0.1452592  -0.3972270 SPIN=   0.00000
   F  -0.2467183   0.1452592  -0.1027730 SPIN=   0.00000
   F   0.2467183   0.1452592   0.3972270 SPIN=   0.00000
   F   0.2467183  -0.1452592   0.1027730 SPIN=   0.00000
%ENDBLOCK POSITIONS_FRAC

# Note: total spin =  16.00

KPOINTS_MP_SPACING 0.07

%BLOCK SPECIES_POT
QC5
%ENDBLOCK SPECIES_POT

SNAP_TO_SYMMETRY
SYMMETRY_GENERATE

