#              Generated by Buildcell
#
# at 06:40:50 (GMT+1.0) 4th August 2020
# in /lustre/scratch/uccabz1/launch_tmp
# on node-c12e-013
# by uccabz1
#
# compiler GCC version 4.9.2
# options -cpp -iprefix /lustre/shared/ucl/apps/gcc/4.9.2/bin/../lib/gcc/x86_64-unknown-linux-gnu/4.9.2/ -mtune=corei7 -march=x86-64 -g -Og
#
# seed   -28823029  -339396533  -882446269 -1808399009 -1549715571  2057432039   611358037  -641685211   111714000   840498811  1634352605 -2011683434
#
#      Author: C. J. Pickard (cjp20@cam.ac.uk)
#                Space group: Pc
#

%BLOCK LATTICE_ABC
      4.31013      9.37373      9.90969
     90.00000     92.46869     90.00000
%ENDBLOCK LATTICE_ABC

%BLOCK POSITIONS_FRAC
  Li   0.3169059  -0.2559529   0.1257517 SPIN=   0.00000
  Li  -0.1830941   0.2559529  -0.3742483 SPIN=   0.00000
  Li  -0.1814898   0.0356666   0.2987322 SPIN=   0.00000
  Li   0.3185102  -0.0356666  -0.2012678 SPIN=   0.00000
  Fe  -0.1305171  -0.4863472   0.0540191 SPIN=   4.78058
  Fe   0.3694829   0.4863472  -0.4459809 SPIN=   4.78058
  Fe  -0.1924013  -0.0669084   0.0159049 SPIN=   3.21942
  Fe   0.3075987   0.0669084  -0.4840951 SPIN=   3.21942
   O  -0.7610887  -0.2344276  -0.1644550 SPIN=   0.00000
   O  -0.2207416  -0.2755019  -0.0786326 SPIN=   0.00000
   O  -0.3376596  -0.2533316  -0.3244426 SPIN=   0.00000
   O  -0.5082697  -0.4673633  -0.2015961 SPIN=   0.00000
   S  -0.4569399  -0.3076561  -0.1922816 SPIN=   0.00000
   O  -0.2610887   0.2344276   0.3355450 SPIN=   0.00000
   O   0.2792584   0.2755019   0.4213674 SPIN=   0.00000
   O   0.1623404   0.2533316   0.1755574 SPIN=   0.00000
   O  -0.0082697   0.4673633   0.2984039 SPIN=   0.00000
   S   0.0430601   0.3076561   0.3077184 SPIN=   0.00000
   O   0.2797347   0.3743702  -0.0674342 SPIN=   0.00000
   O  -0.1598846   0.2229785  -0.0023813 SPIN=   0.00000
   O   0.3735849   0.1247877   0.0048411 SPIN=   0.00000
   O   0.1018921   0.1750217  -0.2151332 SPIN=   0.00000
   S   0.1488318   0.2242895  -0.0700269 SPIN=   0.00000
   O  -0.2202653  -0.3743702   0.4325658 SPIN=   0.00000
   O  -0.6598846  -0.2229785   0.4976187 SPIN=   0.00000
   O  -0.1264151  -0.1247877   0.5048411 SPIN=   0.00000
   O  -0.3981079  -0.1750217   0.2848668 SPIN=   0.00000
   S  -0.3511682  -0.2242895   0.4299731 SPIN=   0.00000
   F  -0.4107786   0.0690112  -0.3430129 SPIN=   0.00000
   F   0.0892214  -0.0690112   0.1569871 SPIN=   0.00000
   F  -0.4934359  -0.4551217   0.1348560 SPIN=   0.00000
   F   0.0065641   0.4551217  -0.3651440 SPIN=   0.00000
%ENDBLOCK POSITIONS_FRAC

# Note: total spin =  16.00

KPOINTS_MP_SPACING 0.07

%BLOCK SPECIES_POT
QC5
%ENDBLOCK SPECIES_POT

SNAP_TO_SYMMETRY
SYMMETRY_GENERATE

