#              Generated by Buildcell
#
# at 02:16:08 (GMT+1.0) 18th August 2020
# in /lustre/scratch/uccabz1/launch_tmp
# on node-c12a-021
# by uccabz1
#
# compiler GCC version 4.9.2
# options -cpp -iprefix /lustre/shared/ucl/apps/gcc/4.9.2/bin/../lib/gcc/x86_64-unknown-linux-gnu/4.9.2/ -mtune=corei7 -march=x86-64 -g -Og
#
# seed  1497591894   403994235 -1940200746 -1538689211 -1813397048   194882870   191506427  1058765702  1634729865 -1491061853   756503476 -1841715289
#
#      Author: C. J. Pickard (cjp20@cam.ac.uk)
#                Space group: P21
#

%BLOCK LATTICE_ABC
      6.52697      7.91207      8.11298
    107.30701     90.00000     90.00000
%ENDBLOCK LATTICE_ABC

%BLOCK POSITIONS_FRAC
  Li  -0.0604878   0.3167409  -0.0857604 SPIN=   0.00000
  Li   0.4395122  -0.3167409   0.0857604 SPIN=   0.00000
  Li   0.0658226   0.1093092   0.2960192 SPIN=   0.00000
  Li  -0.4341774  -0.1093092  -0.2960192 SPIN=   0.00000
  Fe   0.3229543   0.4352225   0.2987299 SPIN=   4.06478
  Fe  -0.1770457  -0.4352225  -0.2987299 SPIN=   4.06478
  Fe   0.1297449  -0.1117329  -0.4545732 SPIN=   3.93522
  Fe  -0.3702551   0.1117329   0.4545732 SPIN=   3.93522
   O  -0.2804688   0.4851439   0.1479626 SPIN=   0.00000
   O   0.0259106   0.3190057   0.1912654 SPIN=   0.00000
   O  -0.3206720   0.2088652   0.2285514 SPIN=   0.00000
   O  -0.1866455   0.4790147   0.4416943 SPIN=   0.00000
   S  -0.1904689   0.3730074   0.2523684 SPIN=   0.00000
   O   0.2195312  -0.4851439  -0.1479626 SPIN=   0.00000
   O   0.5259106  -0.3190057  -0.1912654 SPIN=   0.00000
   O   0.1793280  -0.2088652  -0.2285514 SPIN=   0.00000
   O   0.3133545  -0.4790147  -0.4416943 SPIN=   0.00000
   S   0.3095311  -0.3730074  -0.2523684 SPIN=   0.00000
   O   0.1731279   0.1108683  -0.0576159 SPIN=   0.00000
   O   0.3571734   0.2103998  -0.2788283 SPIN=   0.00000
   O   0.5503575   0.0825890  -0.0819440 SPIN=   0.00000
   O   0.3912570   0.3786328   0.0303043 SPIN=   0.00000
   S   0.3679789   0.1956225  -0.0970210 SPIN=   0.00000
   O  -0.3268721  -0.1108683   0.0576159 SPIN=   0.00000
   O  -0.1428266  -0.2103998   0.2788283 SPIN=   0.00000
   O   0.0503575  -0.0825890   0.0819440 SPIN=   0.00000
   O  -0.1087430  -0.3786328  -0.0303043 SPIN=   0.00000
   S  -0.1320211  -0.1956225   0.0970210 SPIN=   0.00000
   F   0.3217783   0.1737566   0.3973968 SPIN=   0.00000
   F  -0.1782217  -0.1737566  -0.3973968 SPIN=   0.00000
   F   0.3243996  -0.3364885   0.2897468 SPIN=   0.00000
   F  -0.1756004   0.3364885  -0.2897468 SPIN=   0.00000
%ENDBLOCK POSITIONS_FRAC

# Note: total spin =  16.00

KPOINTS_MP_SPACING 0.07

%BLOCK SPECIES_POT
QC5
%ENDBLOCK SPECIES_POT

SNAP_TO_SYMMETRY
SYMMETRY_GENERATE

