#              Generated by Buildcell
#
# at 11:20:02 (GMT+1.0) 18th August 2020
# in /lustre/scratch/uccabz1/launch_tmp
# on node-c12f-008
# by uccabz1
#
# compiler GCC version 4.9.2
# options -cpp -iprefix /lustre/shared/ucl/apps/gcc/4.9.2/bin/../lib/gcc/x86_64-unknown-linux-gnu/4.9.2/ -mtune=corei7 -march=x86-64 -g -Og
#
# seed  2084031396 -1496158611  1291436166 -2098703225 -1128140269 -1246329737 -1442638771 -1661620222  -288468422  1983934091  1542841777   126000350
#
#      Author: C. J. Pickard (cjp20@cam.ac.uk)
#                Space group: P212121
#

%BLOCK LATTICE_ABC
      4.27891      7.34709     12.72365
     90.00000     90.00000     90.00000
%ENDBLOCK LATTICE_ABC

%BLOCK POSITIONS_FRAC
  Li   0.0317848   0.3878811   0.0834345 SPIN=   0.00000
  Li   0.4682152  -0.3878811  -0.4165655 SPIN=   0.00000
  Li  -0.0317848  -0.1121189   0.4165655 SPIN=   0.00000
  Li  -0.4682152   0.1121189  -0.0834345 SPIN=   0.00000
  Fe   0.4480749   0.0351880  -0.3119482 SPIN=   4.00000
  Fe   0.0519251  -0.0351880   0.1880518 SPIN=   4.00000
  Fe  -0.4480749  -0.4648120  -0.1880518 SPIN=   4.00000
  Fe  -0.0519251   0.4648120   0.3119482 SPIN=   4.00000
   O   0.3396393   0.0251361   0.4852896 SPIN=   0.00000
   O   0.3024102   0.3182685   0.3902813 SPIN=   0.00000
   O   0.4155614   0.0345884   0.2925402 SPIN=   0.00000
   O   0.8153053   0.1666171   0.4106494 SPIN=   0.00000
   S   0.4682291   0.1361525   0.3946901 SPIN=   0.00000
   O   0.1603607  -0.0251361  -0.0147104 SPIN=   0.00000
   O   0.1975898  -0.3182685  -0.1097187 SPIN=   0.00000
   O   0.0844386  -0.0345884  -0.2074598 SPIN=   0.00000
   O  -0.3153053  -0.1666171  -0.0893506 SPIN=   0.00000
   S   0.0317709  -0.1361525  -0.1053099 SPIN=   0.00000
   O  -0.3396393  -0.4748639   0.0147104 SPIN=   0.00000
   O  -0.3024102  -0.1817315   0.1097187 SPIN=   0.00000
   O  -0.4155614  -0.4654116   0.2074598 SPIN=   0.00000
   O  -0.8153053  -0.3333829   0.0893506 SPIN=   0.00000
   S  -0.4682291  -0.3638475   0.1053099 SPIN=   0.00000
   O  -0.1603607   0.4748639  -0.4852896 SPIN=   0.00000
   O  -0.1975898   0.1817315  -0.3902813 SPIN=   0.00000
   O  -0.0844386   0.4654116  -0.2925402 SPIN=   0.00000
   O   0.3153053   0.3333829  -0.4106494 SPIN=   0.00000
   S  -0.0317709   0.3638475  -0.3946901 SPIN=   0.00000
   F   0.3352818   0.3167491  -0.1317513 SPIN=   0.00000
   F   0.1647182  -0.3167491   0.3682487 SPIN=   0.00000
   F  -0.3352818  -0.1832509  -0.3682487 SPIN=   0.00000
   F  -0.1647182   0.1832509   0.1317513 SPIN=   0.00000
%ENDBLOCK POSITIONS_FRAC

# Note: total spin =  16.00

KPOINTS_MP_SPACING 0.07

%BLOCK SPECIES_POT
QC5
%ENDBLOCK SPECIES_POT

SNAP_TO_SYMMETRY
SYMMETRY_GENERATE

