#              Generated by Buildcell
#
# at 07:16:05 (GMT+1.0) 4th August 2020
# in /lustre/scratch/uccabz1/launch_tmp
# on node-c12d-026
# by uccabz1
#
# compiler GCC version 4.9.2
# options -cpp -iprefix /lustre/shared/ucl/apps/gcc/4.9.2/bin/../lib/gcc/x86_64-unknown-linux-gnu/4.9.2/ -mtune=corei7 -march=x86-64 -g -Og
#
# seed   543586551  -764245215  -305723838  -264906707  -656892085  1393457750  -312235346  -440202194 -1506124416 -1932483950  1081782710  1068957291
#
#      Author: C. J. Pickard (cjp20@cam.ac.uk)
#                Space group: P-1
#

%BLOCK LATTICE_ABC
      5.23495      8.12984     10.49641
    108.37318     95.87167    105.47613
%ENDBLOCK LATTICE_ABC

%BLOCK POSITIONS_FRAC
  Li  -0.2422691   0.3091395   0.0449650 SPIN=   0.00000
  Li   0.2422691  -0.3091395  -0.0449650 SPIN=   0.00000
  Li  -0.3357046  -0.2878939  -0.3333200 SPIN=   0.00000
  Li   0.3357046   0.2878939   0.3333200 SPIN=   0.00000
  Fe   0.2919588  -0.0672749  -0.2202046 SPIN=   6.96866
  Fe  -0.2919588   0.0672749   0.2202046 SPIN=   6.96866
  Fe  -0.0705786   0.2700057  -0.2314749 SPIN=   1.03134
  Fe   0.0705786  -0.2700057   0.2314749 SPIN=   1.03134
   O  -0.0985017  -0.3476568   0.0186882 SPIN=   0.00000
   O  -0.5773716  -0.4927597  -0.1030591 SPIN=   0.00000
   O  -0.2108622  -0.4877337  -0.2345999 SPIN=   0.00000
   O  -0.3076296  -0.2015549  -0.1182878 SPIN=   0.00000
   S  -0.2985912  -0.3824263  -0.1093146 SPIN=   0.00000
   O   0.0985017   0.3476568  -0.0186882 SPIN=   0.00000
   O   0.5773716   0.4927597   0.1030591 SPIN=   0.00000
   O   0.2108622   0.4877337   0.2345999 SPIN=   0.00000
   O   0.3076296   0.2015549   0.1182878 SPIN=   0.00000
   S   0.2985912   0.3824263   0.1093146 SPIN=   0.00000
   O   0.6223995   0.3108719  -0.4644676 SPIN=   0.00000
   O   0.4166933   0.0578920  -0.3863115 SPIN=   0.00000
   O   0.1522960   0.1091503  -0.5712333 SPIN=   0.00000
   O   0.2582789   0.3282776  -0.3327417 SPIN=   0.00000
   S   0.3624169   0.2015480  -0.4386885 SPIN=   0.00000
   O  -0.6223995  -0.3108719   0.4644676 SPIN=   0.00000
   O  -0.4166933  -0.0578920   0.3863115 SPIN=   0.00000
   O  -0.1522960  -0.1091503   0.5712333 SPIN=   0.00000
   O  -0.2582789  -0.3282776   0.3327417 SPIN=   0.00000
   S  -0.3624169  -0.2015480   0.4386885 SPIN=   0.00000
   F   0.3893547  -0.1461006   0.1316888 SPIN=   0.00000
   F  -0.3893547   0.1461006  -0.1316888 SPIN=   0.00000
   F  -0.1892724   0.3389501   0.3252127 SPIN=   0.00000
   F   0.1892724  -0.3389501  -0.3252127 SPIN=   0.00000
%ENDBLOCK POSITIONS_FRAC

# Note: total spin =  16.00

KPOINTS_MP_SPACING 0.07

%BLOCK SPECIES_POT
QC5
%ENDBLOCK SPECIES_POT

SNAP_TO_SYMMETRY
SYMMETRY_GENERATE

