#              Generated by Buildcell
#
# at 02:33:36 (GMT+1.0) 18th August 2020
# in /lustre/scratch/uccabz1/launch_tmp
# on node-c12m-009
# by uccabz1
#
# compiler GCC version 4.9.2
# options -cpp -iprefix /lustre/shared/ucl/apps/gcc/4.9.2/bin/../lib/gcc/x86_64-unknown-linux-gnu/4.9.2/ -mtune=corei7 -march=x86-64 -g -Og
#
# seed   830706778  -441435727   290255596 -1967817769 -1507900095  -909529056   847443955   400707433  1043157941 -2055126525 -1731996477  -348513187
#
#      Author: C. J. Pickard (cjp20@cam.ac.uk)
#                Space group: P212121
#

%BLOCK LATTICE_ABC
      7.27330      7.40922      7.42260
     90.00000     90.00000     90.00000
%ENDBLOCK LATTICE_ABC

%BLOCK POSITIONS_FRAC
  Li  -0.1646260   0.4626343   0.3842785 SPIN=   0.00000
  Li   0.1646260  -0.0373657   0.1157215 SPIN=   0.00000
  Li   0.3353740   0.0373657  -0.3842785 SPIN=   0.00000
  Li  -0.3353740  -0.4626343  -0.1157215 SPIN=   0.00000
  Fe   0.0807903   0.3535782   0.0837477 SPIN=   4.00000
  Fe  -0.0807903  -0.1464218   0.4162523 SPIN=   4.00000
  Fe  -0.4192097   0.1464218  -0.0837477 SPIN=   4.00000
  Fe   0.4192097  -0.3535782  -0.4162523 SPIN=   4.00000
   O  -0.4378807  -0.1996451   0.3827843 SPIN=   0.00000
   O  -0.3835041  -0.4447368   0.1626046 SPIN=   0.00000
   O  -0.3089992  -0.1288762   0.0823970 SPIN=   0.00000
   O  -0.6337472  -0.2243237   0.1112536 SPIN=   0.00000
   S  -0.4410328  -0.2493955   0.1847598 SPIN=   0.00000
   O   0.4378807   0.3003549   0.1172157 SPIN=   0.00000
   O   0.3835041   0.0552632   0.3373954 SPIN=   0.00000
   O   0.3089992   0.3711238   0.4176030 SPIN=   0.00000
   O   0.6337472   0.2756763   0.3887464 SPIN=   0.00000
   S   0.4410328   0.2506045   0.3152402 SPIN=   0.00000
   O   0.0621193  -0.3003549  -0.3827843 SPIN=   0.00000
   O   0.1164959  -0.0552632  -0.1626046 SPIN=   0.00000
   O   0.1910008  -0.3711238  -0.0823970 SPIN=   0.00000
   O  -0.1337472  -0.2756763  -0.1112536 SPIN=   0.00000
   S   0.0589672  -0.2506045  -0.1847598 SPIN=   0.00000
   O  -0.0621193   0.1996451  -0.1172157 SPIN=   0.00000
   O  -0.1164959   0.4447368  -0.3373954 SPIN=   0.00000
   O  -0.1910008   0.1288762  -0.4176030 SPIN=   0.00000
   O   0.1337472   0.2243237  -0.3887464 SPIN=   0.00000
   S  -0.0589672   0.2493955  -0.3152402 SPIN=   0.00000
   F  -0.0555447   0.0972185   0.2383924 SPIN=   0.00000
   F   0.0555447  -0.4027815   0.2616076 SPIN=   0.00000
   F   0.4444553   0.4027815  -0.2383924 SPIN=   0.00000
   F  -0.4444553  -0.0972185  -0.2616076 SPIN=   0.00000
%ENDBLOCK POSITIONS_FRAC

# Note: total spin =  16.00

KPOINTS_MP_SPACING 0.07

%BLOCK SPECIES_POT
QC5
%ENDBLOCK SPECIES_POT

SNAP_TO_SYMMETRY
SYMMETRY_GENERATE

