#              Generated by Buildcell
#
# at 07:19:30 (GMT+1.0) 4th August 2020
# in /lustre/scratch/uccabz1/launch_tmp
# on node-c12d-004
# by uccabz1
#
# compiler GCC version 4.9.2
# options -cpp -iprefix /lustre/shared/ucl/apps/gcc/4.9.2/bin/../lib/gcc/x86_64-unknown-linux-gnu/4.9.2/ -mtune=corei7 -march=x86-64 -g -Og
#
# seed  2139522790 -2122187056 -2034177990  1629455795  2126868541  -146994852 -1755758217 -1741749658 -2000352800   182898624 -1048521971   463932427
#
#      Author: C. J. Pickard (cjp20@cam.ac.uk)
#                Space group: Pc
#

%BLOCK LATTICE_ABC
      3.91049      7.74560     13.20688
     90.63213     90.00000     90.00000
%ENDBLOCK LATTICE_ABC

%BLOCK POSITIONS_FRAC
  Li  -0.3454939   0.2353200  -0.2752604 SPIN=   0.00000
  Li   0.3454939  -0.2646800  -0.2752604 SPIN=   0.00000
  Li  -0.1333993  -0.2694121   0.2617916 SPIN=   0.00000
  Li   0.1333993   0.2305879   0.2617916 SPIN=   0.00000
  Fe  -0.3717589  -0.4634244  -0.1032164 SPIN=   3.53958
  Fe   0.3717589   0.0365756  -0.1032164 SPIN=   3.53958
  Fe   0.4977259   0.4843928   0.3893535 SPIN=   4.46042
  Fe  -0.4977259  -0.0156072   0.3893535 SPIN=   4.46042
   O   0.2605380  -0.0287903   0.2475396 SPIN=   0.00000
   O   0.2206033  -0.2789082   0.1298998 SPIN=   0.00000
   O   0.7523313  -0.1060408   0.1381396 SPIN=   0.00000
   O   0.2290490   0.0180759   0.0627112 SPIN=   0.00000
   S   0.3656304  -0.0989158   0.1445726 SPIN=   0.00000
   O  -0.2605380   0.4712097   0.2475396 SPIN=   0.00000
   O  -0.2206033   0.2210918   0.1298998 SPIN=   0.00000
   O  -0.7523313   0.3939592   0.1381396 SPIN=   0.00000
   O  -0.2290490   0.5180759   0.0627112 SPIN=   0.00000
   S  -0.3656304   0.4010842   0.1445726 SPIN=   0.00000
   O   0.3171024   0.2683390  -0.4010759 SPIN=   0.00000
   O   0.1049669   0.1940509  -0.5726491 SPIN=   0.00000
   O  -0.2210082   0.3972252  -0.4636169 SPIN=   0.00000
   O  -0.1996328   0.0868188  -0.4215961 SPIN=   0.00000
   S   0.0003571   0.2366085  -0.4647345 SPIN=   0.00000
   O  -0.3171024  -0.2316610  -0.4010759 SPIN=   0.00000
   O  -0.1049669  -0.3059491  -0.5726491 SPIN=   0.00000
   O   0.2210082  -0.1027748  -0.4636169 SPIN=   0.00000
   O   0.1996328  -0.4131812  -0.4215961 SPIN=   0.00000
   S  -0.0003571  -0.2633915  -0.4647345 SPIN=   0.00000
   F  -0.1339495  -0.2039284  -0.0748199 SPIN=   0.00000
   F   0.1339495   0.2960716  -0.0748199 SPIN=   0.00000
   F   0.3618196  -0.0059647  -0.2586786 SPIN=   0.00000
   F  -0.3618196   0.4940353  -0.2586786 SPIN=   0.00000
%ENDBLOCK POSITIONS_FRAC

# Note: total spin =  16.00

KPOINTS_MP_SPACING 0.07

%BLOCK SPECIES_POT
QC5
%ENDBLOCK SPECIES_POT

SNAP_TO_SYMMETRY
SYMMETRY_GENERATE

