#              Generated by Buildcell
#
# at 06:54:22 (GMT+1.0) 18th August 2020
# in /lustre/scratch/uccabz1/launch_tmp
# on node-c12f-001
# by uccabz1
#
# compiler GCC version 4.9.2
# options -cpp -iprefix /lustre/shared/ucl/apps/gcc/4.9.2/bin/../lib/gcc/x86_64-unknown-linux-gnu/4.9.2/ -mtune=corei7 -march=x86-64 -g -Og
#
# seed  1724649349 -2053473563  1169558907  -302269895   604290302  -552977780  1260928474 -1585873196  1610177221 -1690973744   885875640  -548103778
#
#      Author: C. J. Pickard (cjp20@cam.ac.uk)
#                Space group: C2/c
#

%BLOCK LATTICE_ABC
      6.08734      7.34700      9.44831
     89.74960     71.20767     89.22266
%ENDBLOCK LATTICE_ABC

%BLOCK POSITIONS_FRAC
  Li   0.0000000   0.0000000   0.5000000 SPIN=   0.00000
  Li  -0.5000000   0.5000000  -0.5000000 SPIN=   0.00000
  Li   0.0011811   0.2500000  -0.0023623 SPIN=   0.00000
  Li  -0.0011811  -0.2500000   0.0023623 SPIN=   0.00000
  Fe  -0.4230527   0.2500000  -0.1538946 SPIN=   7.48350
  Fe   0.4230527  -0.2500000   0.1538946 SPIN=   7.48350
  Fe  -0.5000000  -0.0000000   0.5000000 SPIN=   0.51650
  Fe  -0.0000000  -0.5000000   0.5000000 SPIN=   0.51650
   O   0.1873486  -0.5164826  -0.0598916 SPIN=   0.00000
   O   0.3070962  -0.3245166  -0.2871773 SPIN=   0.00000
   O  -0.0640590  -0.4898149  -0.2193444 SPIN=   0.00000
   S   0.1847571  -0.4977015  -0.2191492 SPIN=   0.00000
   O  -0.1274571   0.0164826  -0.0598916 SPIN=   0.00000
   O  -0.0199189  -0.1754834  -0.2871773 SPIN=   0.00000
   O   0.2834034  -0.0101851  -0.2193444 SPIN=   0.00000
   S   0.0343920  -0.0022985  -0.2191492 SPIN=   0.00000
   O  -0.1873486   0.5164826   0.0598916 SPIN=   0.00000
   O  -0.3070962   0.3245166   0.2871773 SPIN=   0.00000
   O   0.0640590   0.4898149   0.2193444 SPIN=   0.00000
   S  -0.1847571   0.4977015   0.2191492 SPIN=   0.00000
   O   0.1274571  -0.0164826   0.0598916 SPIN=   0.00000
   O   0.0199189   0.1754834   0.2871773 SPIN=   0.00000
   O  -0.2834034   0.0101851   0.2193444 SPIN=   0.00000
   S  -0.0343920   0.0022985   0.2191492 SPIN=   0.00000
   O  -0.7247335   0.2500000   0.4494670 SPIN=   0.00000
   O   0.7247335  -0.2500000  -0.4494670 SPIN=   0.00000
   O  -0.1466058  -0.2500000   0.2932115 SPIN=   0.00000
   O   0.1466058   0.2500000  -0.2932115 SPIN=   0.00000
   F  -0.5349097   0.2500000   0.0698194 SPIN=   0.00000
   F   0.5349097  -0.2500000  -0.0698194 SPIN=   0.00000
   F   0.2988929  -0.2500000   0.4022142 SPIN=   0.00000
   F  -0.2988929   0.2500000  -0.4022142 SPIN=   0.00000
%ENDBLOCK POSITIONS_FRAC

# Note: total spin =  16.00

KPOINTS_MP_SPACING 0.07

%BLOCK SPECIES_POT
QC5
%ENDBLOCK SPECIES_POT

SNAP_TO_SYMMETRY
SYMMETRY_GENERATE

