#              Generated by Buildcell
#
# at 11:58:38 (GMT+1.0) 18th August 2020
# in /lustre/scratch/uccabz1/launch_tmp
# on node-c12h-012
# by uccabz1
#
# compiler GCC version 4.9.2
# options -cpp -iprefix /lustre/shared/ucl/apps/gcc/4.9.2/bin/../lib/gcc/x86_64-unknown-linux-gnu/4.9.2/ -mtune=corei7 -march=x86-64 -g -Og
#
# seed  1841054177 -1050576972  1628447314  1058886242 -2022955385   806998939 -1797601335   930261352  2117307881   989456034  1210165294 -1534441663
#
#      Author: C. J. Pickard (cjp20@cam.ac.uk)
#                Space group: Pc
#

%BLOCK LATTICE_ABC
      6.31273      6.83097      9.33601
     90.00000     90.00000     96.50073
%ENDBLOCK LATTICE_ABC

%BLOCK POSITIONS_FRAC
  Li  -0.1751221  -0.4446249  -0.4872769 SPIN=   0.00000
  Li   0.3248779   0.0553751   0.4872769 SPIN=   0.00000
  Li  -0.0474185  -0.0700975   0.2017927 SPIN=   0.00000
  Li   0.4525815   0.4299025  -0.2017927 SPIN=   0.00000
  Fe   0.2128067  -0.3106555   0.0078509 SPIN=   2.56549
  Fe  -0.2871933   0.1893445  -0.0078509 SPIN=   2.56549
  Fe   0.4605381   0.4213463   0.3092793 SPIN=   5.43451
  Fe  -0.0394619  -0.0786537  -0.3092793 SPIN=   5.43451
   O  -0.3772582  -0.0765199   0.1102659 SPIN=   0.00000
   O  -0.4389035   0.0750773   0.3451795 SPIN=   0.00000
   O  -0.3961085  -0.2800271   0.3301923 SPIN=   0.00000
   O  -0.7221083  -0.1569090   0.2349508 SPIN=   0.00000
   S  -0.4835946  -0.1095947   0.2551471 SPIN=   0.00000
   O   0.1227418   0.4234801  -0.1102659 SPIN=   0.00000
   O   0.0610965   0.5750773  -0.3451795 SPIN=   0.00000
   O   0.1038915   0.2199729  -0.3301923 SPIN=   0.00000
   O  -0.2221083   0.3430910  -0.2349508 SPIN=   0.00000
   S   0.0164054   0.3904053  -0.2551471 SPIN=   0.00000
   O   0.4475409   0.1437359  -0.2626897 SPIN=   0.00000
   O   0.6326883  -0.1117752  -0.1429041 SPIN=   0.00000
   O   0.5161072  -0.1566375  -0.3950283 SPIN=   0.00000
   O   0.2485084  -0.1780676  -0.2002757 SPIN=   0.00000
   S   0.4612112  -0.0756861  -0.2502245 SPIN=   0.00000
   O  -0.0524591   0.6437359   0.2626897 SPIN=   0.00000
   O   0.1326883   0.3882248   0.1429041 SPIN=   0.00000
   O   0.0161072   0.3433625   0.3950283 SPIN=   0.00000
   O  -0.2514916   0.3219324   0.2002757 SPIN=   0.00000
   S  -0.0387888   0.4243139   0.2502245 SPIN=   0.00000
   F   0.4914730   0.4005749  -0.4925793 SPIN=   0.00000
   F  -0.0085270  -0.0994251   0.4925793 SPIN=   0.00000
   F  -0.4584052   0.4981911  -0.0175219 SPIN=   0.00000
   F   0.0415948  -0.0018089   0.0175219 SPIN=   0.00000
%ENDBLOCK POSITIONS_FRAC

# Note: total spin =  16.00

KPOINTS_MP_SPACING 0.07

%BLOCK SPECIES_POT
QC5
%ENDBLOCK SPECIES_POT

SNAP_TO_SYMMETRY
SYMMETRY_GENERATE

