#              Generated by Buildcell
#
# at 06:35:57 (GMT+1.0) 4th August 2020
# in /lustre/scratch/uccabz1/launch_tmp
# on node-c12p-011
# by uccabz1
#
# compiler GCC version 4.9.2
# options -cpp -iprefix /lustre/shared/ucl/apps/gcc/4.9.2/bin/../lib/gcc/x86_64-unknown-linux-gnu/4.9.2/ -mtune=corei7 -march=x86-64 -g -Og
#
# seed   -42209171  1569766215   697410231  1867049164   617431612  -188716267  2087917006  1357533998   117538932  -333370229  1242283964   223686533
#
#      Author: C. J. Pickard (cjp20@cam.ac.uk)
#                Space group: Pc
#

%BLOCK LATTICE_ABC
      5.71992      8.18136      8.56485
     93.63614     90.00000     90.00000
%ENDBLOCK LATTICE_ABC

%BLOCK POSITIONS_FRAC
  Li  -0.0366050   0.0868414  -0.0134263 SPIN=   0.00000
  Li   0.0366050  -0.4131586  -0.0134263 SPIN=   0.00000
  Li  -0.4951329  -0.2152316  -0.2341933 SPIN=   0.00000
  Li   0.4951329   0.2847684  -0.2341933 SPIN=   0.00000
  Fe   0.0003000  -0.2995795  -0.3454334 SPIN=   3.56746
  Fe  -0.0003000   0.2004205  -0.3454334 SPIN=   3.56746
  Fe   0.4593933  -0.0154575   0.0780396 SPIN=   4.43254
  Fe  -0.4593933   0.4845425   0.0780396 SPIN=   4.43254
   O  -0.0152432   0.3568384   0.4312399 SPIN=   0.00000
   O  -0.0072824   0.4350275   0.1568494 SPIN=   0.00000
   O  -0.2047073   0.1793843   0.2233389 SPIN=   0.00000
   O   0.2267468   0.1992814   0.2350976 SPIN=   0.00000
   S  -0.0001215   0.2926329   0.2616315 SPIN=   0.00000
   O   0.0152432  -0.1431616   0.4312399 SPIN=   0.00000
   O   0.0072824  -0.0649725   0.1568494 SPIN=   0.00000
   O   0.2047073  -0.3206157   0.2233389 SPIN=   0.00000
   O  -0.2267468  -0.3007186   0.2350976 SPIN=   0.00000
   S   0.0001215  -0.2073671   0.2616315 SPIN=   0.00000
   O  -0.3728576  -0.2800662   0.4952748 SPIN=   0.00000
   O  -0.7613616  -0.4132629   0.4797821 SPIN=   0.00000
   O  -0.4375309  -0.5409991   0.6200202 SPIN=   0.00000
   O  -0.4277013  -0.5373546   0.3313794 SPIN=   0.00000
   S  -0.4998629  -0.4429207   0.4816141 SPIN=   0.00000
   O   0.3728576   0.2199338   0.4952748 SPIN=   0.00000
   O   0.7613616   0.0867371   0.4797821 SPIN=   0.00000
   O   0.4375309  -0.0409991   0.6200202 SPIN=   0.00000
   O   0.4277013  -0.0373546   0.3313794 SPIN=   0.00000
   S   0.4998629   0.0570793   0.4816141 SPIN=   0.00000
   F   0.4999673   0.1929681  -0.0159464 SPIN=   0.00000
   F  -0.4999673  -0.3070319  -0.0159464 SPIN=   0.00000
   F  -0.0001060  -0.0725822  -0.2631322 SPIN=   0.00000
   F   0.0001060   0.4274178  -0.2631322 SPIN=   0.00000
%ENDBLOCK POSITIONS_FRAC

# Note: total spin =  16.00

KPOINTS_MP_SPACING 0.07

%BLOCK SPECIES_POT
QC5
%ENDBLOCK SPECIES_POT

SNAP_TO_SYMMETRY
SYMMETRY_GENERATE

