#              Generated by Buildcell
#
# at 10:36:52 (GMT+1.0) 4th August 2020
# in /lustre/scratch/uccabz1/launch_tmp
# on node-c12n-034
# by uccabz1
#
# compiler GCC version 4.9.2
# options -cpp -iprefix /lustre/shared/ucl/apps/gcc/4.9.2/bin/../lib/gcc/x86_64-unknown-linux-gnu/4.9.2/ -mtune=corei7 -march=x86-64 -g -Og
#
# seed  1711677186 -1278962777  1900658998  1184980934  1940870190   213041766  -137045408  1122669270  1580604480   -15854889   -98143878 -1823710727
#
#      Author: C. J. Pickard (cjp20@cam.ac.uk)
#                Space group: P-1
#

%BLOCK LATTICE_ABC
      5.68135      7.80099      9.27577
     76.77273     89.05040     88.29644
%ENDBLOCK LATTICE_ABC

%BLOCK POSITIONS_FRAC
  Li   0.2937206  -0.2055730  -0.0953817 SPIN=   0.00000
  Li  -0.2937206   0.2055730   0.0953817 SPIN=   0.00000
  Li   0.0074935   0.2469874  -0.2655280 SPIN=   0.00000
  Li  -0.0074935  -0.2469874   0.2655280 SPIN=   0.00000
  Fe   0.2592415   0.4173304   0.3919773 SPIN=   1.28855
  Fe  -0.2592415  -0.4173304  -0.3919773 SPIN=   1.28855
  Fe   0.4877524  -0.1264392   0.2614624 SPIN=   6.71145
  Fe  -0.4877524   0.1264392  -0.2614624 SPIN=   6.71145
   O   0.3114585  -0.3482030  -0.3079619 SPIN=   0.00000
   O   0.3721207  -0.1015844  -0.5252754 SPIN=   0.00000
   O   0.2117765  -0.0423147  -0.2912405 SPIN=   0.00000
   O  -0.0319303  -0.1900719  -0.4428635 SPIN=   0.00000
   S   0.2158564  -0.1705435  -0.3918353 SPIN=   0.00000
   O  -0.3114585   0.3482030   0.3079619 SPIN=   0.00000
   O  -0.3721207   0.1015844   0.5252754 SPIN=   0.00000
   O  -0.2117765   0.0423147   0.2912405 SPIN=   0.00000
   O   0.0319303   0.1900719   0.4428635 SPIN=   0.00000
   S  -0.2158564   0.1705435   0.3918353 SPIN=   0.00000
   O   0.3531132   0.4967228   0.0954902 SPIN=   0.00000
   O   0.3227954   0.1724385   0.1679735 SPIN=   0.00000
   O   0.3515053   0.3232489  -0.0969632 SPIN=   0.00000
   O  -0.0122890   0.3560090   0.0458597 SPIN=   0.00000
   S   0.2537812   0.3371048   0.0530900 SPIN=   0.00000
   O  -0.3531132  -0.4967228  -0.0954902 SPIN=   0.00000
   O  -0.3227954  -0.1724385  -0.1679735 SPIN=   0.00000
   O  -0.3515053  -0.3232489   0.0969632 SPIN=   0.00000
   O   0.0122890  -0.3560090  -0.0458597 SPIN=   0.00000
   S  -0.2537812  -0.3371048  -0.0530900 SPIN=   0.00000
   F  -0.2619699  -0.3514644   0.3856572 SPIN=   0.00000
   F   0.2619699   0.3514644  -0.3856572 SPIN=   0.00000
   F  -0.2366874   0.1497904  -0.1168554 SPIN=   0.00000
   F   0.2366874  -0.1497904   0.1168554 SPIN=   0.00000
%ENDBLOCK POSITIONS_FRAC

# Note: total spin =  16.00

KPOINTS_MP_SPACING 0.07

%BLOCK SPECIES_POT
QC5
%ENDBLOCK SPECIES_POT

SNAP_TO_SYMMETRY
SYMMETRY_GENERATE

