#              Generated by Buildcell
#
# at 07:44:00 (GMT+1.0) 4th August 2020
# in /lustre/scratch/uccabz1/launch_tmp
# on node-c12c-034
# by uccabz1
#
# compiler GCC version 4.9.2
# options -cpp -iprefix /lustre/shared/ucl/apps/gcc/4.9.2/bin/../lib/gcc/x86_64-unknown-linux-gnu/4.9.2/ -mtune=corei7 -march=x86-64 -g -Og
#
# seed  -690122865   -31880709  -433683748  1043819508  1640555606 -1863504181  -674890435 -1875488891   698272790  -618692837 -1179496737   640070697
#
#      Author: C. J. Pickard (cjp20@cam.ac.uk)
#                Space group: Cm
#

%BLOCK LATTICE_ABC
      5.02884      9.29018      9.29018
     80.05213     74.32303     74.32303
%ENDBLOCK LATTICE_ABC

%BLOCK POSITIONS_FRAC
  Li   0.4374688  -0.3860682   0.2347511 SPIN=   0.00000
  Li   0.4374688   0.2347511  -0.3860682 SPIN=   0.00000
  Li   0.0964162  -0.1236137  -0.4467512 SPIN=   0.00000
  Li   0.0964162  -0.4467512  -0.1236137 SPIN=   0.00000
  Fe  -0.1611265   0.3541352   0.3541352 SPIN=   1.89480
  Fe  -0.4654571   0.1575562   0.1575562 SPIN=   4.88987
  Fe   0.1364011  -0.4476803  -0.4476803 SPIN=   1.11741
  Fe   0.4219410  -0.0931604  -0.0931604 SPIN=   8.09791
   O  -0.2457307   0.0477307  -0.5933808 SPIN=   0.00000
   O  -0.3910519  -0.1938990  -0.5208409 SPIN=   0.00000
   O  -0.7406032   0.0442533  -0.4569933 SPIN=   0.00000
   O  -0.3500613  -0.0557491  -0.3257030 SPIN=   0.00000
   S  -0.4318618  -0.0394160  -0.4742295 SPIN=   0.00000
   O  -0.2457307  -0.5933808   0.0477307 SPIN=   0.00000
   O  -0.3910519  -0.5208409  -0.1938990 SPIN=   0.00000
   O  -0.7406032  -0.4569933   0.0442533 SPIN=   0.00000
   O  -0.3500613  -0.3257030  -0.0557491 SPIN=   0.00000
   S  -0.4318618  -0.4742295  -0.0394160 SPIN=   0.00000
   O   0.1430913  -0.1822018   0.1039566 SPIN=   0.00000
   O  -0.3598301  -0.0819025   0.2288504 SPIN=   0.00000
   O  -0.1648706  -0.3567908   0.2303828 SPIN=   0.00000
   S  -0.1556776  -0.2055135   0.1392542 SPIN=   0.00000
   O   0.1430913   0.1039566  -0.1822018 SPIN=   0.00000
   O  -0.3598301   0.2288504  -0.0819025 SPIN=   0.00000
   O  -0.1648706   0.2303828  -0.3567908 SPIN=   0.00000
   S  -0.1556776   0.1392542  -0.2055135 SPIN=   0.00000
   O  -0.1072677  -0.0606311  -0.0606311 SPIN=   0.00000
   O  -0.4099654  -0.2855404  -0.2855404 SPIN=   0.00000
   F  -0.4938429   0.3035946   0.3035946 SPIN=   0.00000
   F  -0.2137323  -0.4751268  -0.4751268 SPIN=   0.00000
   F   0.2336746   0.0773866   0.0773866 SPIN=   0.00000
   F   0.0622456  -0.2507674  -0.2507674 SPIN=   0.00000
%ENDBLOCK POSITIONS_FRAC

# Note: total spin =  16.00

KPOINTS_MP_SPACING 0.07

%BLOCK SPECIES_POT
QC5
%ENDBLOCK SPECIES_POT

SNAP_TO_SYMMETRY
SYMMETRY_GENERATE

