#              Generated by Buildcell
#
# at 14:49:58 (GMT+1.0) 18th August 2020
# in /lustre/scratch/uccabz1/launch_tmp
# on node-c12f-002
# by uccabz1
#
# compiler GCC version 4.9.2
# options -cpp -iprefix /lustre/shared/ucl/apps/gcc/4.9.2/bin/../lib/gcc/x86_64-unknown-linux-gnu/4.9.2/ -mtune=corei7 -march=x86-64 -g -Og
#
# seed -1723566626  1947019988 -1504469484   413202227   438860602 -1488307780  -216082228  -412055425 -1632386168  2062332639  -544202322  1814281342
#
#      Author: C. J. Pickard (cjp20@cam.ac.uk)
#                Space group: P-1
#

%BLOCK LATTICE_ABC
      6.75497      7.94238      8.15531
     84.23555     66.82248     89.34713
%ENDBLOCK LATTICE_ABC

%BLOCK POSITIONS_FRAC
  Li   0.4210926   0.2727175   0.0017024 SPIN=   0.00000
  Li  -0.4210926  -0.2727175  -0.0017024 SPIN=   0.00000
  Li   0.3910588  -0.2735022  -0.4475238 SPIN=   0.00000
  Li  -0.3910588   0.2735022   0.4475238 SPIN=   0.00000
  Fe  -0.0497988   0.2675906   0.0783866 SPIN=   4.03064
  Fe   0.0497988  -0.2675906  -0.0783866 SPIN=   4.03064
  Fe   0.1032337   0.1581443  -0.3933671 SPIN=   3.96936
  Fe  -0.1032337  -0.1581443   0.3933671 SPIN=   3.96936
   O   0.5253364   0.5503167  -0.1382493 SPIN=   0.00000
   O   0.9008726   0.5166549  -0.3505944 SPIN=   0.00000
   O   0.6140266   0.5716520  -0.4645297 SPIN=   0.00000
   O   0.6230846   0.2944093  -0.2997782 SPIN=   0.00000
   S   0.6658300   0.4832582  -0.3132879 SPIN=   0.00000
   O  -0.5253364  -0.5503167   0.1382493 SPIN=   0.00000
   O  -0.9008726  -0.5166549   0.3505944 SPIN=   0.00000
   O  -0.6140266  -0.5716520   0.4645297 SPIN=   0.00000
   O  -0.6230846  -0.2944093   0.2997782 SPIN=   0.00000
   S  -0.6658300  -0.4832582   0.3132879 SPIN=   0.00000
   O  -0.4689192   0.2017102   0.2586287 SPIN=   0.00000
   O  -0.3671121  -0.0212194   0.0513066 SPIN=   0.00000
   O  -0.7425808  -0.0101702   0.2728925 SPIN=   0.00000
   O  -0.4524154  -0.0960599   0.3743677 SPIN=   0.00000
   S  -0.5077569   0.0185652   0.2392989 SPIN=   0.00000
   O   0.4689192  -0.2017102  -0.2586287 SPIN=   0.00000
   O   0.3671121   0.0212194  -0.0513066 SPIN=   0.00000
   O   0.7425808   0.0101702  -0.2728925 SPIN=   0.00000
   O   0.4524154   0.0960599  -0.3743677 SPIN=   0.00000
   S   0.5077569  -0.0185652  -0.2392989 SPIN=   0.00000
   F  -0.1069335  -0.3157369   0.1880353 SPIN=   0.00000
   F   0.1069335   0.3157369  -0.1880353 SPIN=   0.00000
   F  -0.0685188   0.1885608   0.3454608 SPIN=   0.00000
   F   0.0685188  -0.1885608  -0.3454608 SPIN=   0.00000
%ENDBLOCK POSITIONS_FRAC

# Note: total spin =  16.00

KPOINTS_MP_SPACING 0.07

%BLOCK SPECIES_POT
QC5
%ENDBLOCK SPECIES_POT

SNAP_TO_SYMMETRY
SYMMETRY_GENERATE

