#              Generated by Buildcell
#
# at 07:18:14 (GMT+1.0) 4th August 2020
# in /lustre/scratch/uccabz1/launch_tmp
# on node-c12e-019
# by uccabz1
#
# compiler GCC version 4.9.2
# options -cpp -iprefix /lustre/shared/ucl/apps/gcc/4.9.2/bin/../lib/gcc/x86_64-unknown-linux-gnu/4.9.2/ -mtune=corei7 -march=x86-64 -g -Og
#
# seed      740843   662926690  -443520146 -2090257341  1480596420   468193273 -1400409250  1379311728   454204554 -2097890559  -853392605  2007261890
#
#      Author: C. J. Pickard (cjp20@cam.ac.uk)
#                Space group: I41
#

%BLOCK LATTICE_ABC
      8.04655      8.04655      8.04655
    107.80498    107.80498    112.85771
%ENDBLOCK LATTICE_ABC

%BLOCK POSITIONS_FRAC
  Li   0.1278616  -0.1463741  -0.3246066 SPIN=   0.00000
  Li   0.1782325   0.4524681   0.3246066 SPIN=   0.00000
  Li  -0.2975319  -0.1221384  -0.2257644 SPIN=   0.00000
  Li   0.1036259  -0.0717675   0.2257644 SPIN=   0.00000
  Fe   0.4598573  -0.1934972   0.2709610 SPIN=   4.00000
  Fe  -0.4644582   0.1888963  -0.2709610 SPIN=   4.00000
  Fe   0.4388963   0.2098573   0.1533546 SPIN=   4.00000
  Fe   0.0565028   0.2855418  -0.1533546 SPIN=   4.00000
   O  -0.1983628  -0.0892476   0.2758810 SPIN=   0.00000
   O   0.0457250   0.1573500   0.2173933 SPIN=   0.00000
   O  -0.1594351   0.2506866   0.3566629 SPIN=   0.00000
   O  -0.3301308  -0.0150939   0.0043803 SPIN=   0.00000
   S  -0.1605509   0.0759238   0.2135793 SPIN=   0.00000
   O  -0.3651286  -0.4742438  -0.2758810 SPIN=   0.00000
   O  -0.0600433  -0.1716683  -0.2173933 SPIN=   0.00000
   O  -0.1059763  -0.5160979  -0.3566629 SPIN=   0.00000
   O  -0.0194741  -0.3345110  -0.0043803 SPIN=   0.00000
   S  -0.1376556  -0.3741303  -0.2135793 SPIN=   0.00000
   O  -0.2242438  -0.4483628   0.3908848 SPIN=   0.00000
   O   0.0783317  -0.2042750   0.3883750 SPIN=   0.00000
   O  -0.2660979  -0.4094351   0.0898783 SPIN=   0.00000
   O  -0.0845110  -0.5801308   0.1849631 SPIN=   0.00000
   S  -0.1241303  -0.4105509   0.2635253 SPIN=   0.00000
   O   0.1607524  -0.6151286  -0.3908848 SPIN=   0.00000
   O   0.4073500  -0.3100433  -0.3883750 SPIN=   0.00000
   O   0.5006866  -0.3559763  -0.0898783 SPIN=   0.00000
   O   0.2349061  -0.2694741  -0.1849631 SPIN=   0.00000
   S   0.3259238  -0.3876556  -0.2635253 SPIN=   0.00000
   F   0.3138140   0.1464058  -0.2259188 SPIN=   0.00000
   F   0.3723246  -0.4602673   0.2259188 SPIN=   0.00000
   F  -0.2102673   0.0638140  -0.3325918 SPIN=   0.00000
   F   0.3964058   0.1223246   0.3325918 SPIN=   0.00000
%ENDBLOCK POSITIONS_FRAC

# Note: total spin =  16.00

KPOINTS_MP_SPACING 0.07

%BLOCK SPECIES_POT
QC5
%ENDBLOCK SPECIES_POT

SNAP_TO_SYMMETRY
SYMMETRY_GENERATE

