#              Generated by Buildcell
#
# at 06:57:34 (GMT+1.0) 4th August 2020
# in /lustre/scratch/uccabz1/launch_tmp
# on node-c12f-027
# by uccabz1
#
# compiler GCC version 4.9.2
# options -cpp -iprefix /lustre/shared/ucl/apps/gcc/4.9.2/bin/../lib/gcc/x86_64-unknown-linux-gnu/4.9.2/ -mtune=corei7 -march=x86-64 -g -Og
#
# seed   398707695 -1357817834  1994439932  -329795888  -929417357   699604772  1262412823   -77538960   433763437  -980469716 -1959766660   -52416687
#
#      Author: C. J. Pickard (cjp20@cam.ac.uk)
#                Space group: P21
#

%BLOCK LATTICE_ABC
      5.21513      5.93194     13.16052
     90.00000     90.00000    100.73990
%ENDBLOCK LATTICE_ABC

%BLOCK POSITIONS_FRAC
  Li   0.4830806  -0.3147607  -0.1295665 SPIN=   0.00000
  Li  -0.4830806   0.3147607   0.3704335 SPIN=   0.00000
  Li   0.1267928  -0.2779232  -0.4780916 SPIN=   0.00000
  Li  -0.1267928   0.2779232   0.0219084 SPIN=   0.00000
  Fe  -0.3412388  -0.2025066  -0.3651167 SPIN=   5.91637
  Fe   0.3412388   0.2025066   0.1348833 SPIN=   5.91637
  Fe   0.2138003   0.0564728  -0.1955617 SPIN=   2.08363
  Fe  -0.2138003  -0.0564728   0.3044383 SPIN=   2.08363
   O   0.0673905  -0.4917427   0.4078208 SPIN=   0.00000
   O   0.5080317  -0.3678361   0.3344074 SPIN=   0.00000
   O   0.1709496  -0.1289152   0.3106826 SPIN=   0.00000
   O   0.1305726  -0.5013014   0.2215998 SPIN=   0.00000
   S   0.2192361  -0.3724489   0.3186277 SPIN=   0.00000
   O  -0.0673905   0.4917427  -0.0921792 SPIN=   0.00000
   O  -0.5080317   0.3678361  -0.1655926 SPIN=   0.00000
   O  -0.1709496   0.1289152  -0.1893174 SPIN=   0.00000
   O  -0.1305726   0.5013014  -0.2784002 SPIN=   0.00000
   S  -0.2192361   0.3724489  -0.1813723 SPIN=   0.00000
   O   0.5733895   0.4475463  -0.4934907 SPIN=   0.00000
   O   0.1440078   0.4317310  -0.4109462 SPIN=   0.00000
   O   0.4712881   0.2317770  -0.3330698 SPIN=   0.00000
   O   0.2500891   0.0846137  -0.4925928 SPIN=   0.00000
   S   0.3596936   0.2989170  -0.4325249 SPIN=   0.00000
   O  -0.5733895  -0.4475463   0.0065093 SPIN=   0.00000
   O  -0.1440078  -0.4317310   0.0890538 SPIN=   0.00000
   O  -0.4712881  -0.2317770   0.1669302 SPIN=   0.00000
   O  -0.2500891  -0.0846137   0.0074072 SPIN=   0.00000
   S  -0.3596936  -0.2989170   0.0674751 SPIN=   0.00000
   F  -0.2309317  -0.1341961   0.4945512 SPIN=   0.00000
   F   0.2309317   0.1341961  -0.0054488 SPIN=   0.00000
   F  -0.3720495   0.1960927   0.2435838 SPIN=   0.00000
   F   0.3720495  -0.1960927  -0.2564162 SPIN=   0.00000
%ENDBLOCK POSITIONS_FRAC

# Note: total spin =  16.00

KPOINTS_MP_SPACING 0.07

%BLOCK SPECIES_POT
QC5
%ENDBLOCK SPECIES_POT

SNAP_TO_SYMMETRY
SYMMETRY_GENERATE

