#              Generated by Buildcell
#
# at 06:24:00 (GMT+1.0) 4th August 2020
# in /lustre/scratch/uccabz1/launch_tmp
# on node-c12n-033
# by uccabz1
#
# compiler GCC version 4.9.2
# options -cpp -iprefix /lustre/shared/ucl/apps/gcc/4.9.2/bin/../lib/gcc/x86_64-unknown-linux-gnu/4.9.2/ -mtune=corei7 -march=x86-64 -g -Og
#
# seed -1571952812  -687015647   -94862336  -709192926  1243492606  -249143215  -855497023  1448709848   310189930 -1384309104    -7036404  -423945001
#
#      Author: C. J. Pickard (cjp20@cam.ac.uk)
#                Space group: P21/c
#

%BLOCK LATTICE_ABC
      4.31955      6.92955     13.37657
     90.00000     90.00000     92.54476
%ENDBLOCK LATTICE_ABC

%BLOCK POSITIONS_FRAC
  Li  -0.2658323   0.3519877  -0.1122624 SPIN=   0.00000
  Li  -0.2341677   0.1480123   0.3877376 SPIN=   0.00000
  Li   0.2658323  -0.3519877   0.1122624 SPIN=   0.00000
  Li   0.2341677  -0.1480123  -0.3877376 SPIN=   0.00000
  Fe  -0.2251227  -0.2249767  -0.0390881 SPIN=   4.00000
  Fe  -0.2748773  -0.2750233   0.4609119 SPIN=   4.00000
  Fe   0.2251227   0.2249767   0.0390881 SPIN=   4.00000
  Fe   0.2748773   0.2750233  -0.4609119 SPIN=   4.00000
   O   0.4191087   0.3893170   0.1941797 SPIN=   0.00000
   O   0.3003922   0.4056207   0.3749034 SPIN=   0.00000
   O  -0.0414667   0.2091911   0.2622665 SPIN=   0.00000
   O  -0.0324313   0.5660479   0.2525109 SPIN=   0.00000
   S   0.1614007   0.3925442   0.2709651 SPIN=   0.00000
   O   0.0808913   0.1106830  -0.3058203 SPIN=   0.00000
   O   0.1996078   0.0943793  -0.1250966 SPIN=   0.00000
   O   0.5414667   0.2908089  -0.2377335 SPIN=   0.00000
   O   0.5324313  -0.0660479  -0.2474891 SPIN=   0.00000
   S   0.3385993   0.1074558  -0.2290349 SPIN=   0.00000
   O  -0.4191087  -0.3893170  -0.1941797 SPIN=   0.00000
   O  -0.3003922  -0.4056207  -0.3749034 SPIN=   0.00000
   O   0.0414667  -0.2091911  -0.2622665 SPIN=   0.00000
   O   0.0324313  -0.5660479  -0.2525109 SPIN=   0.00000
   S  -0.1614007  -0.3925442  -0.2709651 SPIN=   0.00000
   O  -0.0808913  -0.1106830   0.3058203 SPIN=   0.00000
   O  -0.1996078  -0.0943793   0.1250966 SPIN=   0.00000
   O  -0.5414667  -0.2908089   0.2377335 SPIN=   0.00000
   O  -0.5324313   0.0660479   0.2474891 SPIN=   0.00000
   S  -0.3385993  -0.1074558   0.2290349 SPIN=   0.00000
   F   0.2672018  -0.2563916  -0.0409942 SPIN=   0.00000
   F   0.2327982  -0.2436084   0.4590058 SPIN=   0.00000
   F  -0.2672018   0.2563916   0.0409942 SPIN=   0.00000
   F  -0.2327982   0.2436084  -0.4590058 SPIN=   0.00000
%ENDBLOCK POSITIONS_FRAC

# Note: total spin =  16.00

KPOINTS_MP_SPACING 0.07

%BLOCK SPECIES_POT
QC5
%ENDBLOCK SPECIES_POT

SNAP_TO_SYMMETRY
SYMMETRY_GENERATE

