#              Generated by Buildcell
#
# at 00:13:01 (GMT+1.0) 18th August 2020
# in /lustre/scratch/uccabz1/launch_tmp
# on node-c12a-022
# by uccabz1
#
# compiler GCC version 4.9.2
# options -cpp -iprefix /lustre/shared/ucl/apps/gcc/4.9.2/bin/../lib/gcc/x86_64-unknown-linux-gnu/4.9.2/ -mtune=corei7 -march=x86-64 -g -Og
#
# seed -1677323205 -2144638845  1370102085   533381999  1054799610  1533568050  1001593443   751507683 -1754823551   708919538  1397547626  2143677121
#
#      Author: C. J. Pickard (cjp20@cam.ac.uk)
#                Space group: P21
#

%BLOCK LATTICE_ABC
      5.46587      6.10796     12.03714
     95.51982     90.00000     90.00000
%ENDBLOCK LATTICE_ABC

%BLOCK POSITIONS_FRAC
  Li  -0.2109315   0.3981967  -0.0994327 SPIN=   0.00000
  Li   0.2890685  -0.3981967   0.0994327 SPIN=   0.00000
  Li   0.2304073   0.1117431   0.4091612 SPIN=   0.00000
  Li  -0.2695927  -0.1117431  -0.4091612 SPIN=   0.00000
  Fe   0.2115717  -0.4364439  -0.4026024 SPIN=   4.04810
  Fe  -0.2884283   0.4364439   0.4026024 SPIN=   4.04810
  Fe   0.2076718   0.1176338  -0.2081130 SPIN=   3.95190
  Fe  -0.2923282  -0.1176338   0.2081130 SPIN=   3.95190
   O  -0.4170118  -0.2898296  -0.0624538 SPIN=   0.00000
   O  -0.3433092   0.1044144  -0.0819795 SPIN=   0.00000
   O  -0.3790579  -0.1602409  -0.2502722 SPIN=   0.00000
   O  -0.0150261  -0.1681429  -0.1284599 SPIN=   0.00000
   S  -0.2886012  -0.1284497  -0.1307914 SPIN=   0.00000
   O   0.0829882   0.2898296   0.0624538 SPIN=   0.00000
   O   0.1566908  -0.1044144   0.0819795 SPIN=   0.00000
   O   0.1209421   0.1602409   0.2502722 SPIN=   0.00000
   O   0.4849739   0.1681429   0.1284599 SPIN=   0.00000
   S   0.2113988   0.1284497   0.1307914 SPIN=   0.00000
   O  -0.4197208   0.4655557  -0.4187445 SPIN=   0.00000
   O  -0.4733977   0.1886542  -0.2835352 SPIN=   0.00000
   O  -0.1532539   0.4744434  -0.2521423 SPIN=   0.00000
   O  -0.1073635   0.1760652  -0.4050067 SPIN=   0.00000
   S  -0.2884340   0.3261796  -0.3398572 SPIN=   0.00000
   O   0.0802792  -0.4655557   0.4187445 SPIN=   0.00000
   O   0.0266023  -0.1886542   0.2835352 SPIN=   0.00000
   O   0.3467461  -0.4744434   0.2521423 SPIN=   0.00000
   O   0.3926365  -0.1760652   0.4050067 SPIN=   0.00000
   S   0.2115660  -0.3261796   0.3398572 SPIN=   0.00000
   F   0.2114912   0.4419921  -0.1258716 SPIN=   0.00000
   F  -0.2885088  -0.4419921   0.1258716 SPIN=   0.00000
   F   0.2115776  -0.1012245  -0.3552515 SPIN=   0.00000
   F  -0.2884224   0.1012245   0.3552515 SPIN=   0.00000
%ENDBLOCK POSITIONS_FRAC

# Note: total spin =  16.00

KPOINTS_MP_SPACING 0.07

%BLOCK SPECIES_POT
QC5
%ENDBLOCK SPECIES_POT

SNAP_TO_SYMMETRY
SYMMETRY_GENERATE

