#              Generated by Buildcell
#
# at 09:30:13 (GMT+1.0) 4th August 2020
# in /lustre/scratch/uccabz1/launch_tmp
# on node-c12n-014
# by uccabz1
#
# compiler GCC version 4.9.2
# options -cpp -iprefix /lustre/shared/ucl/apps/gcc/4.9.2/bin/../lib/gcc/x86_64-unknown-linux-gnu/4.9.2/ -mtune=corei7 -march=x86-64 -g -Og
#
# seed -1337796747  1965364495  1353930459  1363315105  -576068332  -433644484    37645890 -1263740331   371075143  1592644395  2098580684 -1885321325
#
#      Author: C. J. Pickard (cjp20@cam.ac.uk)
#                Space group: Pma2
#

%BLOCK LATTICE_ABC
      4.10232      9.08126     10.73703
     90.00000     90.00000     90.00000
%ENDBLOCK LATTICE_ABC

%BLOCK POSITIONS_FRAC
  Li   0.4301370  -0.2500000   0.2745974 SPIN=   0.00000
  Li   0.4301370   0.2500000  -0.2745974 SPIN=   0.00000
  Li   0.4355123  -0.2500000  -0.3934940 SPIN=   0.00000
  Li   0.4355123   0.2500000   0.3934940 SPIN=   0.00000
  Fe  -0.0195968  -0.2500000   0.0262941 SPIN=   5.20004
  Fe  -0.0195968   0.2500000  -0.0262941 SPIN=   5.20004
  Fe  -0.0177726  -0.0000000  -0.5000000 SPIN=   2.79996
  Fe  -0.0177726   0.5000000  -0.5000000 SPIN=   2.79996
   O   0.2095264   0.4857590   0.2844176 SPIN=   0.00000
   O   0.5781111   0.6173728   0.1398278 SPIN=   0.00000
   O   0.3030139   0.3884291   0.0721037 SPIN=   0.00000
   O   0.7439939   0.3775681   0.2291316 SPIN=   0.00000
   S   0.4586613   0.4672823   0.1813702 SPIN=   0.00000
   O   0.2095264  -0.4857590  -0.2844176 SPIN=   0.00000
   O   0.5781111  -0.6173728  -0.1398278 SPIN=   0.00000
   O   0.3030139  -0.3884291  -0.0721037 SPIN=   0.00000
   O   0.7439939  -0.3775681  -0.2291316 SPIN=   0.00000
   S   0.4586613  -0.4672823  -0.1813702 SPIN=   0.00000
   O   0.2095264  -0.0142410  -0.2844176 SPIN=   0.00000
   O   0.5781111   0.1173728  -0.1398278 SPIN=   0.00000
   O   0.3030139  -0.1115709  -0.0721037 SPIN=   0.00000
   O   0.7439939  -0.1224319  -0.2291316 SPIN=   0.00000
   S   0.4586613  -0.0327177  -0.1813702 SPIN=   0.00000
   O   0.2095264   0.0142410   0.2844176 SPIN=   0.00000
   O   0.5781111  -0.1173728   0.1398278 SPIN=   0.00000
   O   0.3030139   0.1115709   0.0721037 SPIN=   0.00000
   O   0.7439939   0.1224319   0.2291316 SPIN=   0.00000
   S   0.4586613   0.0327177   0.1813702 SPIN=   0.00000
   F   0.4821382  -0.0000000  -0.5000000 SPIN=   0.00000
   F   0.4821382   0.5000000  -0.5000000 SPIN=   0.00000
   F  -0.0210051  -0.2500000   0.2866940 SPIN=   0.00000
   F  -0.0210051   0.2500000  -0.2866940 SPIN=   0.00000
%ENDBLOCK POSITIONS_FRAC

# Note: total spin =  16.00

KPOINTS_MP_SPACING 0.07

%BLOCK SPECIES_POT
QC5
%ENDBLOCK SPECIES_POT

SNAP_TO_SYMMETRY
SYMMETRY_GENERATE

