#              Generated by Buildcell
#
# at 14:43:55 (GMT+1.0) 18th August 2020
# in /lustre/scratch/uccabz1/launch_tmp
# on node-c12i-032
# by uccabz1
#
# compiler GCC version 4.9.2
# options -cpp -iprefix /lustre/shared/ucl/apps/gcc/4.9.2/bin/../lib/gcc/x86_64-unknown-linux-gnu/4.9.2/ -mtune=corei7 -march=x86-64 -g -Og
#
# seed -2091541935  1477920484 -1072535994   746311024 -1399554340   393831931  -744090225 -1626861249 -1017495621 -2023163075  -659505334  1725716523
#
#      Author: C. J. Pickard (cjp20@cam.ac.uk)
#                Space group: P4
#

%BLOCK LATTICE_ABC
      4.48102      9.44804      9.44804
     90.00000     90.00000     90.00000
%ENDBLOCK LATTICE_ABC

%BLOCK POSITIONS_FRAC
  Li  -0.3702111   0.2778526  -0.0068430 SPIN=   0.00000
  Li  -0.3702111  -0.2778526   0.0068430 SPIN=   0.00000
  Li  -0.3702111  -0.0068430  -0.2778526 SPIN=   0.00000
  Li  -0.3702111   0.0068430   0.2778526 SPIN=   0.00000
  Fe   0.4741331  -0.2186751  -0.4928775 SPIN=   4.00000
  Fe   0.4741331   0.2186751   0.4928775 SPIN=   4.00000
  Fe   0.4741331  -0.4928775   0.2186751 SPIN=   4.00000
  Fe   0.4741331   0.4928775  -0.2186751 SPIN=   4.00000
   O   0.0629668   0.3682571  -0.1660835 SPIN=   0.00000
   O   0.1946014   0.1141491  -0.1782074 SPIN=   0.00000
   O   0.0739428   0.2455627  -0.3974589 SPIN=   0.00000
   O  -0.3243906   0.1908917  -0.2244407 SPIN=   0.00000
   S   0.0017801   0.2297151  -0.2415476 SPIN=   0.00000
   O   0.0629668  -0.3682571   0.1660835 SPIN=   0.00000
   O   0.1946014  -0.1141491   0.1782074 SPIN=   0.00000
   O   0.0739428  -0.2455627   0.3974589 SPIN=   0.00000
   O  -0.3243906  -0.1908917   0.2244407 SPIN=   0.00000
   S   0.0017801  -0.2297151   0.2415476 SPIN=   0.00000
   O   0.0629668  -0.1660835  -0.3682571 SPIN=   0.00000
   O   0.1946014  -0.1782074  -0.1141491 SPIN=   0.00000
   O   0.0739428  -0.3974589  -0.2455627 SPIN=   0.00000
   O  -0.3243906  -0.2244407  -0.1908917 SPIN=   0.00000
   S   0.0017801  -0.2415476  -0.2297151 SPIN=   0.00000
   O   0.0629668   0.1660835   0.3682571 SPIN=   0.00000
   O   0.1946014   0.1782074   0.1141491 SPIN=   0.00000
   O   0.0739428   0.3974589   0.2455627 SPIN=   0.00000
   O  -0.3243906   0.2244407   0.1908917 SPIN=   0.00000
   S   0.0017801   0.2415476   0.2297151 SPIN=   0.00000
   F  -0.3355518  -0.0000000  -0.5000000 SPIN=   0.00000
   F  -0.3355518   0.5000000  -0.0000000 SPIN=   0.00000
   F  -0.3496111  -0.0000000  -0.0000000 SPIN=   0.00000
   F   0.0337929  -0.5000000   0.5000000 SPIN=   0.00000
%ENDBLOCK POSITIONS_FRAC

# Note: total spin =  16.00

KPOINTS_MP_SPACING 0.07

%BLOCK SPECIES_POT
QC5
%ENDBLOCK SPECIES_POT

SNAP_TO_SYMMETRY
SYMMETRY_GENERATE

