#              Generated by Buildcell
#
# at 08:21:56 (GMT+1.0) 4th August 2020
# in /lustre/scratch/uccabz1/launch_tmp
# on node-c12c-022
# by uccabz1
#
# compiler GCC version 4.9.2
# options -cpp -iprefix /lustre/shared/ucl/apps/gcc/4.9.2/bin/../lib/gcc/x86_64-unknown-linux-gnu/4.9.2/ -mtune=corei7 -march=x86-64 -g -Og
#
# seed  1367880203  1359431428 -1567546435   722359215  -749435330 -1608304587   516320482   207883209    45315415  -171488559 -1707032273  1167424851
#
#      Author: C. J. Pickard (cjp20@cam.ac.uk)
#                Space group: P43
#

%BLOCK LATTICE_ABC
      6.73877      6.73877      8.80844
     90.00000     90.00000     90.00000
%ENDBLOCK LATTICE_ABC

%BLOCK POSITIONS_FRAC
  Li  -0.4279867  -0.0746214  -0.3691903 SPIN=   0.00000
  Li   0.4279867   0.0746214   0.1308097 SPIN=   0.00000
  Li   0.0746214  -0.4279867   0.3808097 SPIN=   0.00000
  Li  -0.0746214   0.4279867  -0.1191903 SPIN=   0.00000
  Fe  -0.3125400  -0.2603475   0.2537442 SPIN=   4.00000
  Fe   0.3125400   0.2603475  -0.2462558 SPIN=   4.00000
  Fe   0.2603475  -0.3125400   0.0037442 SPIN=   4.00000
  Fe  -0.2603475   0.3125400  -0.4962558 SPIN=   4.00000
   O   0.3843109   0.4336996   0.3571819 SPIN=   0.00000
   O   0.1945750   0.2296132   0.5401969 SPIN=   0.00000
   O   0.4289428   0.0692182   0.3620497 SPIN=   0.00000
   O   0.1154397   0.2136682   0.2661021 SPIN=   0.00000
   S   0.2808171   0.2365498   0.3813827 SPIN=   0.00000
   O  -0.3843109  -0.4336996  -0.1428181 SPIN=   0.00000
   O  -0.1945750  -0.2296132   0.0401969 SPIN=   0.00000
   O  -0.4289428  -0.0692182  -0.1379503 SPIN=   0.00000
   O  -0.1154397  -0.2136682  -0.2338979 SPIN=   0.00000
   S  -0.2808171  -0.2365498  -0.1186173 SPIN=   0.00000
   O  -0.4336996   0.3843109   0.1071819 SPIN=   0.00000
   O  -0.2296132   0.1945750   0.2901969 SPIN=   0.00000
   O  -0.0692182   0.4289428   0.1120497 SPIN=   0.00000
   O  -0.2136682   0.1154397   0.0161021 SPIN=   0.00000
   S  -0.2365498   0.2808171   0.1313827 SPIN=   0.00000
   O   0.4336996  -0.3843109  -0.3928181 SPIN=   0.00000
   O   0.2296132  -0.1945750  -0.2098031 SPIN=   0.00000
   O   0.0692182  -0.4289428  -0.3879503 SPIN=   0.00000
   O   0.2136682  -0.1154397  -0.4838979 SPIN=   0.00000
   S   0.2365498  -0.2808171  -0.3686173 SPIN=   0.00000
   F  -0.2473407  -0.1524890   0.4666762 SPIN=   0.00000
   F   0.2473407   0.1524890  -0.0333238 SPIN=   0.00000
   F   0.1524890  -0.2473407   0.2166762 SPIN=   0.00000
   F  -0.1524890   0.2473407  -0.2833238 SPIN=   0.00000
%ENDBLOCK POSITIONS_FRAC

# Note: total spin =  16.00

KPOINTS_MP_SPACING 0.07

%BLOCK SPECIES_POT
QC5
%ENDBLOCK SPECIES_POT

SNAP_TO_SYMMETRY
SYMMETRY_GENERATE

