#              Generated by Buildcell
#
# at 07:46:17 (GMT+1.0) 4th August 2020
# in /lustre/scratch/uccabz1/launch_tmp
# on node-c12f-009
# by uccabz1
#
# compiler GCC version 4.9.2
# options -cpp -iprefix /lustre/shared/ucl/apps/gcc/4.9.2/bin/../lib/gcc/x86_64-unknown-linux-gnu/4.9.2/ -mtune=corei7 -march=x86-64 -g -Og
#
# seed -1178868331  -387085992  1644101715 -1959648765  1042600377  -470560169 -1573752172  1646417906  -393609701  1668423727  1243481968  -766415606
#
#      Author: C. J. Pickard (cjp20@cam.ac.uk)
#                Space group: Pc
#

%BLOCK LATTICE_ABC
      5.50697      5.92014     12.28202
     92.61996     90.00000     90.00000
%ENDBLOCK LATTICE_ABC

%BLOCK POSITIONS_FRAC
  Li   0.1895062   0.3519240   0.1489591 SPIN=   0.00000
  Li  -0.1895062  -0.1480760   0.1489591 SPIN=   0.00000
  Li  -0.1819348  -0.1507541  -0.3350821 SPIN=   0.00000
  Li   0.1819348   0.3492459  -0.3350821 SPIN=   0.00000
  Fe   0.2210396  -0.3345036  -0.0325948 SPIN=   4.83170
  Fe  -0.2210396   0.1654964  -0.0325948 SPIN=   4.83170
  Fe   0.2326113   0.2972722   0.4254687 SPIN=   3.16830
  Fe  -0.2326113  -0.2027278   0.4254687 SPIN=   3.16830
   O   0.1482462  -0.3002786   0.1597003 SPIN=   0.00000
   O   0.1934597  -0.4149367   0.3499037 SPIN=   0.00000
   O   0.1917968  -0.0091727   0.3095526 SPIN=   0.00000
   O   0.5423779  -0.2497762   0.2545292 SPIN=   0.00000
   S   0.2689702  -0.2435411   0.2684215 SPIN=   0.00000
   O  -0.1482462   0.1997214   0.1597003 SPIN=   0.00000
   O  -0.1934597   0.0850633   0.3499037 SPIN=   0.00000
   O  -0.1917968   0.4908273   0.3095526 SPIN=   0.00000
   O  -0.5423779   0.2502238   0.2545292 SPIN=   0.00000
   S  -0.2689702   0.2564589   0.2684215 SPIN=   0.00000
   O  -0.1591217   0.5014869  -0.3240900 SPIN=   0.00000
   O  -0.0734172   0.1900136  -0.4599241 SPIN=   0.00000
   O  -0.3552478   0.4973357  -0.5054731 SPIN=   0.00000
   O  -0.4769680   0.2183782  -0.3716806 SPIN=   0.00000
   S  -0.2661887   0.3518036  -0.4152920 SPIN=   0.00000
   O   0.1591217   0.0014869  -0.3240900 SPIN=   0.00000
   O   0.0734172  -0.3099864  -0.4599241 SPIN=   0.00000
   O   0.3552478  -0.0026643  -0.5054731 SPIN=   0.00000
   O   0.4769680  -0.2816218  -0.3716806 SPIN=   0.00000
   S   0.2661887  -0.1481964  -0.4152920 SPIN=   0.00000
   F  -0.2509210  -0.4171569   0.0497347 SPIN=   0.00000
   F   0.2509210   0.0828431   0.0497347 SPIN=   0.00000
   F  -0.2500390   0.0238115  -0.1966664 SPIN=   0.00000
   F   0.2500390  -0.4761885  -0.1966664 SPIN=   0.00000
%ENDBLOCK POSITIONS_FRAC

# Note: total spin =  16.00

KPOINTS_MP_SPACING 0.07

%BLOCK SPECIES_POT
QC5
%ENDBLOCK SPECIES_POT

SNAP_TO_SYMMETRY
SYMMETRY_GENERATE

