#              Generated by Buildcell
#
# at 08:34:39 (GMT+1.0) 4th August 2020
# in /lustre/scratch/uccabz1/launch_tmp
# on node-c12c-017
# by uccabz1
#
# compiler GCC version 4.9.2
# options -cpp -iprefix /lustre/shared/ucl/apps/gcc/4.9.2/bin/../lib/gcc/x86_64-unknown-linux-gnu/4.9.2/ -mtune=corei7 -march=x86-64 -g -Og
#
# seed  1267773221 -1543511779 -1794319865  1843294899  -369567039 -1934743794  -669742203  -833001676 -1488125845   566238405 -1186694899 -1165937920
#
#      Author: C. J. Pickard (cjp20@cam.ac.uk)
#                Space group: P2
#

%BLOCK LATTICE_ABC
      6.56511      7.14401      8.61019
     90.00000     97.89512     90.00000
%ENDBLOCK LATTICE_ABC

%BLOCK POSITIONS_FRAC
  Li  -0.4138417  -0.4111078  -0.2842409 SPIN=   0.00000
  Li   0.4138417  -0.4111078   0.2842409 SPIN=   0.00000
  Li   0.2923634   0.0026691  -0.1635917 SPIN=   0.00000
  Li  -0.2923634   0.0026691   0.1635917 SPIN=   0.00000
  Fe   0.2513149   0.2375104   0.1212971 SPIN=   3.62151
  Fe  -0.2513149   0.2375104  -0.1212971 SPIN=   3.62151
  Fe   0.2662811   0.2962487  -0.4155984 SPIN=   4.37849
  Fe  -0.2662811   0.2962487   0.4155984 SPIN=   4.37849
   O  -0.3451474  -0.2671828   0.2319281 SPIN=   0.00000
   O  -0.1911328  -0.5792375   0.2027714 SPIN=   0.00000
   O   0.0162015  -0.2932409   0.1821851 SPIN=   0.00000
   O  -0.2675986  -0.3713044  -0.0277658 SPIN=   0.00000
   S  -0.1969193  -0.3777414   0.1472797 SPIN=   0.00000
   O   0.3451474  -0.2671828  -0.2319281 SPIN=   0.00000
   O   0.1911328  -0.5792375  -0.2027714 SPIN=   0.00000
   O  -0.0162015  -0.2932409  -0.1821851 SPIN=   0.00000
   O   0.2675986  -0.3713044   0.0277658 SPIN=   0.00000
   S   0.1969193  -0.3777414  -0.1472797 SPIN=   0.00000
   O  -0.3331504  -0.1477655  -0.2462276 SPIN=   0.00000
   O  -0.2099500  -0.2452987  -0.4929634 SPIN=   0.00000
   O  -0.0160148  -0.0086782  -0.3222488 SPIN=   0.00000
   S  -0.2285022  -0.0824981  -0.3829255 SPIN=   0.00000
   O   0.3331504  -0.1477655   0.2462276 SPIN=   0.00000
   O   0.2099500  -0.2452987   0.4929634 SPIN=   0.00000
   O   0.0160148  -0.0086782   0.3222488 SPIN=   0.00000
   S   0.2285022  -0.0824981   0.3829255 SPIN=   0.00000
   O  -0.0000000   0.4201417   0.0000000 SPIN=   0.00000
   O   0.5000000  -0.1401240   0.0000000 SPIN=   0.00000
   F   0.0000000   0.3231166   0.5000000 SPIN=   0.00000
   F  -0.5000000   0.2458302   0.0000000 SPIN=   0.00000
   F   0.0000000   0.0314264   0.0000000 SPIN=   0.00000
   F   0.5000000   0.4701989  -0.5000000 SPIN=   0.00000
%ENDBLOCK POSITIONS_FRAC

# Note: total spin =  16.00

KPOINTS_MP_SPACING 0.07

%BLOCK SPECIES_POT
QC5
%ENDBLOCK SPECIES_POT

SNAP_TO_SYMMETRY
SYMMETRY_GENERATE

