#              Generated by Buildcell
#
# at 04:59:01 (GMT+1.0) 18th August 2020
# in /lustre/scratch/uccabz1/launch_tmp
# on node-c12k-032
# by uccabz1
#
# compiler GCC version 4.9.2
# options -cpp -iprefix /lustre/shared/ucl/apps/gcc/4.9.2/bin/../lib/gcc/x86_64-unknown-linux-gnu/4.9.2/ -mtune=corei7 -march=x86-64 -g -Og
#
# seed  1167471937   490708014  1354515971   366052683 -2012188836  -622900477   237135805  -311700859  1435620942   -44701110    85570987  1986240998
#
#      Author: C. J. Pickard (cjp20@cam.ac.uk)
#                Space group: P-1
#

%BLOCK LATTICE_ABC
      7.13437      7.17193      8.77106
    107.33201     90.88964    109.68846
%ENDBLOCK LATTICE_ABC

%BLOCK POSITIONS_FRAC
  Li   0.2304750  -0.0308205  -0.0931106 SPIN=   0.00000
  Li  -0.2304750   0.0308205   0.0931106 SPIN=   0.00000
  Li  -0.2095469   0.2038203  -0.4519236 SPIN=   0.00000
  Li   0.2095469  -0.2038203   0.4519236 SPIN=   0.00000
  Fe   0.1952602   0.3198029   0.2337205 SPIN=   2.68995
  Fe  -0.1952602  -0.3198029  -0.2337205 SPIN=   2.68995
  Fe   0.3787783  -0.3094570   0.0127634 SPIN=   5.31005
  Fe  -0.3787783   0.3094570  -0.0127634 SPIN=   5.31005
   O   0.2659758   0.3448826  -0.4644687 SPIN=   0.00000
   O   0.6258179   0.3964496  -0.4194977 SPIN=   0.00000
   O   0.3956392   0.0805666  -0.6290030 SPIN=   0.00000
   O   0.3703541   0.1212263  -0.3406364 SPIN=   0.00000
   S   0.4144467   0.2357813  -0.4634015 SPIN=   0.00000
   O  -0.2659758  -0.3448826   0.4644687 SPIN=   0.00000
   O  -0.6258179  -0.3964496   0.4194977 SPIN=   0.00000
   O  -0.3956392  -0.0805666   0.6290030 SPIN=   0.00000
   O  -0.3703541  -0.1212263   0.3406364 SPIN=   0.00000
   S  -0.4144467  -0.2357813   0.4634015 SPIN=   0.00000
   O  -0.0027376  -0.1428579   0.0329114 SPIN=   0.00000
   O   0.1465815  -0.3022701   0.1923618 SPIN=   0.00000
   O  -0.2099580  -0.3366271   0.1989151 SPIN=   0.00000
   O   0.0587934   0.0066281   0.3302486 SPIN=   0.00000
   S  -0.0018302  -0.1937818   0.1886092 SPIN=   0.00000
   O   0.0027376   0.1428579  -0.0329114 SPIN=   0.00000
   O  -0.1465815   0.3022701  -0.1923618 SPIN=   0.00000
   O   0.2099580   0.3366271  -0.1989151 SPIN=   0.00000
   O  -0.0587934  -0.0066281  -0.3302486 SPIN=   0.00000
   S   0.0018302   0.1937818  -0.1886092 SPIN=   0.00000
   F  -0.3877403  -0.2140944  -0.0943242 SPIN=   0.00000
   F   0.3877403   0.2140944   0.0943242 SPIN=   0.00000
   F   0.0646969  -0.3445997  -0.2717289 SPIN=   0.00000
   F  -0.0646969   0.3445997   0.2717289 SPIN=   0.00000
%ENDBLOCK POSITIONS_FRAC

# Note: total spin =  16.00

KPOINTS_MP_SPACING 0.07

%BLOCK SPECIES_POT
QC5
%ENDBLOCK SPECIES_POT

SNAP_TO_SYMMETRY
SYMMETRY_GENERATE

