#              Generated by Buildcell
#
# at 06:49:07 (GMT+1.0) 4th August 2020
# in /lustre/scratch/uccabz1/launch_tmp
# on node-c12m-029
# by uccabz1
#
# compiler GCC version 4.9.2
# options -cpp -iprefix /lustre/shared/ucl/apps/gcc/4.9.2/bin/../lib/gcc/x86_64-unknown-linux-gnu/4.9.2/ -mtune=corei7 -march=x86-64 -g -Og
#
# seed -1099063016  1658786561  -376358257    36509056  1799226005  1512626699  -260800272  1908570191    79681643 -1337479541   709575322 -2039268828
#
#      Author: C. J. Pickard (cjp20@cam.ac.uk)
#                Space group: C2
#

%BLOCK LATTICE_ABC
      6.55052      8.41193      8.41193
    104.58825    106.07024    106.07024
%ENDBLOCK LATTICE_ABC

%BLOCK POSITIONS_FRAC
  Li   0.5000000   0.3879903  -0.3879903 SPIN=   0.00000
  Li  -0.0000000  -0.1615187   0.1615187 SPIN=   0.00000
  Li   0.5000000  -0.3389139   0.3389139 SPIN=   0.00000
  Li  -0.0000000  -0.4292185   0.4292185 SPIN=   0.00000
  Fe   0.0305720  -0.2622848  -0.1997538 SPIN=   3.69256
  Fe  -0.0305720   0.1997538   0.2622848 SPIN=   3.69256
  Fe   0.2652862   0.0044714  -0.4417319 SPIN=   4.30744
  Fe  -0.2652862   0.4417319  -0.0044714 SPIN=   4.30744
   O  -0.6846776   0.2867360   0.2977342 SPIN=   0.00000
   O  -0.2758208   0.4546028   0.4882254 SPIN=   0.00000
   O  -0.4254540   0.4641602   0.1878871 SPIN=   0.00000
   O  -0.3873755   0.1897120   0.2247643 SPIN=   0.00000
   S  -0.4433320   0.3488027   0.2996527 SPIN=   0.00000
   O   0.6846776  -0.2977342  -0.2867360 SPIN=   0.00000
   O   0.2758208  -0.4882254  -0.4546028 SPIN=   0.00000
   O   0.4254540  -0.1878871  -0.4641602 SPIN=   0.00000
   O   0.3873755  -0.2247643  -0.1897120 SPIN=   0.00000
   S   0.4433320  -0.2996527  -0.3488027 SPIN=   0.00000
   O  -0.2313463   0.0567770   0.6552731 SPIN=   0.00000
   O  -0.5044251   0.1497050   0.4680896 SPIN=   0.00000
   O  -0.3546604  -0.0644232   0.3291783 SPIN=   0.00000
   O  -0.0992656   0.2493578   0.4960620 SPIN=   0.00000
   O   0.2313463  -0.6552731  -0.0567770 SPIN=   0.00000
   O   0.5044251  -0.4680896  -0.1497050 SPIN=   0.00000
   O   0.3546604  -0.3291783   0.0644232 SPIN=   0.00000
   O   0.0992656  -0.4960620  -0.2493578 SPIN=   0.00000
   S   0.5000000  -0.1391048   0.1391048 SPIN=   0.00000
   S   0.0000000   0.2983259  -0.2983259 SPIN=   0.00000
   F  -0.0653724  -0.1925546  -0.4828616 SPIN=   0.00000
   F   0.0653724   0.4828616   0.1925546 SPIN=   0.00000
   F  -0.0000000  -0.0074648   0.0074648 SPIN=   0.00000
   F   0.5000000   0.1783977  -0.1783977 SPIN=   0.00000
%ENDBLOCK POSITIONS_FRAC

# Note: total spin =  16.00

KPOINTS_MP_SPACING 0.07

%BLOCK SPECIES_POT
QC5
%ENDBLOCK SPECIES_POT

SNAP_TO_SYMMETRY
SYMMETRY_GENERATE

