#              Generated by Buildcell
#
# at 08:49:21 (GMT+1.0) 4th August 2020
# in /lustre/scratch/uccabz1/launch_tmp
# on node-c12c-018
# by uccabz1
#
# compiler GCC version 4.9.2
# options -cpp -iprefix /lustre/shared/ucl/apps/gcc/4.9.2/bin/../lib/gcc/x86_64-unknown-linux-gnu/4.9.2/ -mtune=corei7 -march=x86-64 -g -Og
#
# seed   -29907054   946689036   446035516  2104839846  -425156612  -168647687    20547579   615248090 -1481142997  -919516772  1701634632   359760623
#
#      Author: C. J. Pickard (cjp20@cam.ac.uk)
#                Space group: P2
#

%BLOCK LATTICE_ABC
      4.11133      9.32625     10.69855
    102.81449     90.00000     90.00000
%ENDBLOCK LATTICE_ABC

%BLOCK POSITIONS_FRAC
  Li  -0.2121107  -0.3513337   0.1616298 SPIN=   0.00000
  Li  -0.2121107   0.3513337  -0.1616298 SPIN=   0.00000
  Li   0.2879635   0.0018505   0.3179455 SPIN=   0.00000
  Li   0.2879635  -0.0018505  -0.3179455 SPIN=   0.00000
  Fe   0.2257470  -0.4933010  -0.3252402 SPIN=   4.82096
  Fe   0.2257470   0.4933010   0.3252402 SPIN=   4.82096
  Fe  -0.2129667   0.1494806   0.1823349 SPIN=   3.17904
  Fe  -0.2129667  -0.1494806  -0.1823349 SPIN=   3.17904
   O  -0.3216212   0.1076581  -0.5502571 SPIN=   0.00000
   O  -0.1129440   0.1288672  -0.3299231 SPIN=   0.00000
   O  -0.6418669   0.2406662  -0.3645880 SPIN=   0.00000
   O  -0.1301150   0.3481602  -0.4243559 SPIN=   0.00000
   S  -0.3016368   0.2063379  -0.4172810 SPIN=   0.00000
   O  -0.3216212  -0.1076581   0.5502571 SPIN=   0.00000
   O  -0.1129440  -0.1288672   0.3299231 SPIN=   0.00000
   O  -0.6418669  -0.2406662   0.3645880 SPIN=   0.00000
   O  -0.1301150  -0.3481602   0.4243559 SPIN=   0.00000
   S  -0.3016368  -0.2063379   0.4172810 SPIN=   0.00000
   O   0.4111663   0.1237145   0.0357827 SPIN=   0.00000
   O   0.1346244   0.3347480  -0.0236193 SPIN=   0.00000
   O  -0.0433519   0.0807174  -0.1197332 SPIN=   0.00000
   O   0.4863693   0.1708141  -0.1811078 SPIN=   0.00000
   S   0.2472020   0.1774985  -0.0721694 SPIN=   0.00000
   O   0.4111663  -0.1237145  -0.0357827 SPIN=   0.00000
   O   0.1346244  -0.3347480   0.0236193 SPIN=   0.00000
   O  -0.0433519  -0.0807174   0.1197332 SPIN=   0.00000
   O   0.4863693  -0.1708141   0.1811078 SPIN=   0.00000
   S   0.2472020  -0.1774985   0.0721694 SPIN=   0.00000
   F  -0.3208390   0.4502309   0.1590910 SPIN=   0.00000
   F  -0.3208390  -0.4502309  -0.1590910 SPIN=   0.00000
   F   0.1806022  -0.1945442  -0.3009174 SPIN=   0.00000
   F   0.1806022   0.1945442   0.3009174 SPIN=   0.00000
%ENDBLOCK POSITIONS_FRAC

# Note: total spin =  16.00

KPOINTS_MP_SPACING 0.07

%BLOCK SPECIES_POT
QC5
%ENDBLOCK SPECIES_POT

SNAP_TO_SYMMETRY
SYMMETRY_GENERATE

