#              Generated by Buildcell
#
# at 17:19:01 (GMT+1.0) 18th August 2020
# in /lustre/scratch/uccabz1/launch_tmp
# on node-c12c-003
# by uccabz1
#
# compiler GCC version 4.9.2
# options -cpp -iprefix /lustre/shared/ucl/apps/gcc/4.9.2/bin/../lib/gcc/x86_64-unknown-linux-gnu/4.9.2/ -mtune=corei7 -march=x86-64 -g -Og
#
# seed  1505002646  1523396513   111618381  -180320624   474031250 -2128516811   229636267    81822982 -1991635142  1667779632   319530525  1415360720
#
#      Author: C. J. Pickard (cjp20@cam.ac.uk)
#                Space group: Pcc2
#

%BLOCK LATTICE_ABC
      5.96165      5.96591     11.24649
     90.00000     90.00000     90.00000
%ENDBLOCK LATTICE_ABC

%BLOCK POSITIONS_FRAC
  Li   0.2782621   0.1692851   0.1944651 SPIN=   0.00000
  Li  -0.2782621   0.1692851  -0.1944651 SPIN=   0.00000
  Li   0.2782621  -0.3307149  -0.1944651 SPIN=   0.00000
  Li  -0.2782621  -0.3307149   0.1944651 SPIN=   0.00000
  Fe   0.2500148  -0.1729655   0.3970405 SPIN=   4.00000
  Fe  -0.2500148  -0.1729655  -0.3970405 SPIN=   4.00000
  Fe   0.2500148   0.3270345  -0.3970405 SPIN=   4.00000
  Fe  -0.2500148   0.3270345   0.3970405 SPIN=   4.00000
   O   0.0439965   0.3159781  -0.1459452 SPIN=   0.00000
   O   0.1973644   0.0458770  -0.0000460 SPIN=   0.00000
   O   0.4499793   0.3158081  -0.0999980 SPIN=   0.00000
   O   0.2835492   0.0024640  -0.2140733 SPIN=   0.00000
   S   0.2437223   0.1700318  -0.1150156 SPIN=   0.00000
   O  -0.0439965   0.3159781   0.1459452 SPIN=   0.00000
   O  -0.1973644   0.0458770   0.0000460 SPIN=   0.00000
   O  -0.4499793   0.3158081   0.0999980 SPIN=   0.00000
   O  -0.2835492   0.0024640   0.2140733 SPIN=   0.00000
   S  -0.2437223   0.1700318   0.1150156 SPIN=   0.00000
   O   0.0439965  -0.1840219   0.1459452 SPIN=   0.00000
   O   0.1973644  -0.4541230   0.0000460 SPIN=   0.00000
   O   0.4499793  -0.1841919   0.0999980 SPIN=   0.00000
   O   0.2835492  -0.4975360   0.2140733 SPIN=   0.00000
   S   0.2437223  -0.3299682   0.1150156 SPIN=   0.00000
   O  -0.0439965  -0.1840219  -0.1459452 SPIN=   0.00000
   O  -0.1973644  -0.4541230  -0.0000460 SPIN=   0.00000
   O  -0.4499793  -0.1841919  -0.0999980 SPIN=   0.00000
   O  -0.2835492  -0.4975360  -0.2140733 SPIN=   0.00000
   S  -0.2437223  -0.3299682  -0.1150156 SPIN=   0.00000
   F  -0.2499640   0.1868406  -0.4022195 SPIN=   0.00000
   F   0.2499640   0.1868406   0.4022195 SPIN=   0.00000
   F  -0.2499640  -0.3131594   0.4022195 SPIN=   0.00000
   F   0.2499640  -0.3131594  -0.4022195 SPIN=   0.00000
%ENDBLOCK POSITIONS_FRAC

# Note: total spin =  16.00

KPOINTS_MP_SPACING 0.07

%BLOCK SPECIES_POT
QC5
%ENDBLOCK SPECIES_POT

SNAP_TO_SYMMETRY
SYMMETRY_GENERATE

