#              Generated by Buildcell
#
# at 06:04:17 (GMT+1.0) 4th August 2020
# in /lustre/scratch/uccabz1/launch_tmp
# on node-c12k-007
# by uccabz1
#
# compiler GCC version 4.9.2
# options -cpp -iprefix /lustre/shared/ucl/apps/gcc/4.9.2/bin/../lib/gcc/x86_64-unknown-linux-gnu/4.9.2/ -mtune=corei7 -march=x86-64 -g -Og
#
# seed  1487217162   109888285   856709919  -615238640   -88806972 -1426305109  -594572978 -1442959998 -1000940233  -725879032  -766679687   716233591
#
#      Author: C. J. Pickard (cjp20@cam.ac.uk)
#                Space group: Cc
#

%BLOCK LATTICE_ABC
      5.65435      5.65435     12.72370
     84.19666     84.19666     82.91431
%ENDBLOCK LATTICE_ABC

%BLOCK POSITIONS_FRAC
  Li  -0.2375431   0.4458084   0.3183645 SPIN=   0.00000
  Li  -0.0541916   0.2624569  -0.1816355 SPIN=   0.00000
  Li  -0.3332141  -0.2652102   0.0236168 SPIN=   0.00000
  Li   0.2347898   0.1667859  -0.4763832 SPIN=   0.00000
  Fe  -0.4255920   0.0884249   0.1909893 SPIN=   5.42167
  Fe  -0.4115751   0.0744080  -0.3090107 SPIN=   5.42167
  Fe   0.1175635  -0.2654925  -0.1425280 SPIN=   2.57833
  Fe   0.2345075  -0.3824365   0.3574720 SPIN=   2.57833
   O  -0.2051213  -0.0397117   0.3078335 SPIN=   0.00000
   O  -0.4484409   0.1553440   0.4547260 SPIN=   0.00000
   O  -0.0155700   0.0338861   0.4666797 SPIN=   0.00000
   O  -0.2950446  -0.2739986   0.4791898 SPIN=   0.00000
   S  -0.2410442  -0.0311201   0.4271073 SPIN=   0.00000
   O   0.4602883   0.2948787  -0.1921665 SPIN=   0.00000
   O   0.6553440   0.0515591  -0.0452740 SPIN=   0.00000
   O   0.5338861   0.4844300  -0.0333203 SPIN=   0.00000
   O   0.2260014   0.2049554  -0.0208102 SPIN=   0.00000
   S   0.4688799   0.2589558  -0.0728927 SPIN=   0.00000
   O   0.2828396  -0.1907065  -0.0062371 SPIN=   0.00000
   O   0.2083956  -0.5120353   0.1360423 SPIN=   0.00000
   O  -0.0853109  -0.1512905   0.1166353 SPIN=   0.00000
   O   0.3076583  -0.1224255   0.1812205 SPIN=   0.00000
   S   0.1783956  -0.2441144   0.1069152 SPIN=   0.00000
   O   0.3092935  -0.2171604  -0.5062371 SPIN=   0.00000
   O  -0.0120353  -0.2916044  -0.3639577 SPIN=   0.00000
   O   0.3487095  -0.5853109  -0.3833647 SPIN=   0.00000
   O   0.3775745  -0.1923417  -0.3187795 SPIN=   0.00000
   S   0.2558856  -0.3216044  -0.3930848 SPIN=   0.00000
   F  -0.2155925  -0.2713635  -0.1745524 SPIN=   0.00000
   F   0.2286365   0.2844075   0.3254476 SPIN=   0.00000
   F  -0.1267184   0.2403443  -0.3551266 SPIN=   0.00000
   F  -0.2596557   0.3732816   0.1448734 SPIN=   0.00000
%ENDBLOCK POSITIONS_FRAC

# Note: total spin =  16.00

KPOINTS_MP_SPACING 0.07

%BLOCK SPECIES_POT
QC5
%ENDBLOCK SPECIES_POT

SNAP_TO_SYMMETRY
SYMMETRY_GENERATE

