#              Generated by Buildcell
#
# at 07:15:34 (GMT+1.0) 4th August 2020
# in /lustre/scratch/uccabz1/launch_tmp
# on node-c12c-023
# by uccabz1
#
# compiler GCC version 4.9.2
# options -cpp -iprefix /lustre/shared/ucl/apps/gcc/4.9.2/bin/../lib/gcc/x86_64-unknown-linux-gnu/4.9.2/ -mtune=corei7 -march=x86-64 -g -Og
#
# seed  1043765042 -1256997655 -1369719205   -91598286  1403509845  1669947039  2083132602  2078720091  2111313226  -446061928  1477518827  -573594943
#
#      Author: C. J. Pickard (cjp20@cam.ac.uk)
#                Space group: Cm
#

%BLOCK LATTICE_ABC
      6.74858      8.24011      8.24011
    113.23285     99.89649     99.89649
%ENDBLOCK LATTICE_ABC

%BLOCK POSITIONS_FRAC
  Li   0.4108777   0.0088435   0.4860453 SPIN=   0.00000
  Li   0.4108777   0.4860453   0.0088435 SPIN=   0.00000
  Li  -0.0891294   0.4090661   0.0865445 SPIN=   0.00000
  Li  -0.0891294   0.0865445   0.4090661 SPIN=   0.00000
  Fe   0.2349603  -0.1909973   0.0671976 SPIN=   1.93991
  Fe   0.2349603   0.0671976  -0.1909973 SPIN=   1.93991
  Fe  -0.1480666   0.4245718  -0.3139245 SPIN=   6.06009
  Fe  -0.1480666  -0.3139245   0.4245718 SPIN=   6.06009
   O  -0.1729388  -0.0264916   0.1458634 SPIN=   0.00000
   O  -0.2309528  -0.3103552  -0.1368844 SPIN=   0.00000
   O  -0.5046777  -0.2684108   0.0293945 SPIN=   0.00000
   O  -0.1777814  -0.3200022   0.1635884 SPIN=   0.00000
   S  -0.2715877  -0.2313149   0.0504905 SPIN=   0.00000
   O  -0.1729388   0.1458634  -0.0264916 SPIN=   0.00000
   O  -0.2309528  -0.1368844  -0.3103552 SPIN=   0.00000
   O  -0.5046777   0.0293945  -0.2684108 SPIN=   0.00000
   O  -0.1777814   0.1635884  -0.3200022 SPIN=   0.00000
   S  -0.2715877   0.0504905  -0.2313149 SPIN=   0.00000
   O   0.5511271  -0.3902872   0.4184927 SPIN=   0.00000
   O   0.1795607  -0.5409919   0.2506842 SPIN=   0.00000
   O   0.3424511  -0.2325902   0.2841605 SPIN=   0.00000
   O   0.2749834  -0.2731954   0.5534805 SPIN=   0.00000
   S   0.3370306  -0.3592662   0.3767045 SPIN=   0.00000
   O   0.5511271   0.4184927  -0.3902872 SPIN=   0.00000
   O   0.1795607   0.2506842  -0.5409919 SPIN=   0.00000
   O   0.3424511   0.2841605  -0.2325902 SPIN=   0.00000
   O   0.2749834   0.5534805  -0.2731954 SPIN=   0.00000
   S   0.3370306   0.3767045  -0.3592662 SPIN=   0.00000
   F  -0.4265365   0.3570784   0.1003385 SPIN=   0.00000
   F  -0.4265365   0.1003385   0.3570784 SPIN=   0.00000
   F   0.0489909  -0.0560000   0.4931342 SPIN=   0.00000
   F   0.0489909   0.4931342  -0.0560000 SPIN=   0.00000
%ENDBLOCK POSITIONS_FRAC

# Note: total spin =  16.00

KPOINTS_MP_SPACING 0.07

%BLOCK SPECIES_POT
QC5
%ENDBLOCK SPECIES_POT

SNAP_TO_SYMMETRY
SYMMETRY_GENERATE

