#              Generated by Buildcell
#
# at 07:30:45 (GMT+1.0) 18th August 2020
# in /lustre/scratch/uccabz1/launch_tmp
# on node-c12l-029
# by uccabz1
#
# compiler GCC version 4.9.2
# options -cpp -iprefix /lustre/shared/ucl/apps/gcc/4.9.2/bin/../lib/gcc/x86_64-unknown-linux-gnu/4.9.2/ -mtune=corei7 -march=x86-64 -g -Og
#
# seed  -621559820   825289639  2044789815 -1830509798  1000681314  -190830879  2144927728  1618493204  1171872896 -1321192515   349088370  1756365021
#
#      Author: C. J. Pickard (cjp20@cam.ac.uk)
#                Space group: Cc
#

%BLOCK LATTICE_ABC
      7.50342      7.54808      7.54808
     84.42771     75.37820     75.37820
%ENDBLOCK LATTICE_ABC

%BLOCK POSITIONS_FRAC
  Li   0.4127249  -0.0891108  -0.0169586 SPIN=   0.00000
  Li  -0.0872751  -0.0169586  -0.0891108 SPIN=   0.00000
  Li   0.3341254  -0.0303550  -0.4826486 SPIN=   0.00000
  Li  -0.1658746  -0.4826486  -0.0303550 SPIN=   0.00000
  Fe  -0.4918267   0.2506223   0.0336070 SPIN=   6.47691
  Fe   0.0081733   0.0336070   0.2506223 SPIN=   6.47691
  Fe  -0.3830660  -0.3457587  -0.3058216 SPIN=   1.52309
  Fe   0.1169340  -0.3058216  -0.3457587 SPIN=   1.52309
   O   0.2440339   0.0511112  -0.2099859 SPIN=   0.00000
   O   0.0138562   0.2319789   0.0422196 SPIN=   0.00000
   O   0.0491489   0.3553633  -0.2774489 SPIN=   0.00000
   O   0.3050238   0.3319771  -0.1178043 SPIN=   0.00000
   S   0.1530157   0.2426076  -0.1407549 SPIN=   0.00000
   O  -0.2559661  -0.2099859   0.0511112 SPIN=   0.00000
   O  -0.4861438   0.0422196   0.2319789 SPIN=   0.00000
   O  -0.4508511  -0.2774489   0.3553633 SPIN=   0.00000
   O  -0.1949762  -0.1178043   0.3319771 SPIN=   0.00000
   S  -0.3469843  -0.1407549   0.2426076 SPIN=   0.00000
   O  -0.5009741   0.4855634   0.5810365 SPIN=   0.00000
   O  -0.4651130   0.4398363   0.2524591 SPIN=   0.00000
   O  -0.6127605   0.2349422   0.4884077 SPIN=   0.00000
   O  -0.2689014   0.2160695   0.4303322 SPIN=   0.00000
   S  -0.4619372   0.3441028   0.4380589 SPIN=   0.00000
   O  -0.0009741   0.5810365   0.4855634 SPIN=   0.00000
   O   0.0348870   0.2524591   0.4398363 SPIN=   0.00000
   O  -0.1127605   0.4884077   0.2349422 SPIN=   0.00000
   O   0.2310986   0.4303322   0.2160695 SPIN=   0.00000
   S   0.0380628   0.4380589   0.3441028 SPIN=   0.00000
   F  -0.3620397   0.4087585  -0.1146513 SPIN=   0.00000
   F   0.1379603  -0.1146513   0.4087585 SPIN=   0.00000
   F   0.1326488  -0.2607060  -0.0773694 SPIN=   0.00000
   F  -0.3673512  -0.0773694  -0.2607060 SPIN=   0.00000
%ENDBLOCK POSITIONS_FRAC

# Note: total spin =  16.00

KPOINTS_MP_SPACING 0.07

%BLOCK SPECIES_POT
QC5
%ENDBLOCK SPECIES_POT

SNAP_TO_SYMMETRY
SYMMETRY_GENERATE

