#              Generated by Buildcell
#
# at 06:41:16 (GMT+1.0) 4th August 2020
# in /lustre/scratch/uccabz1/launch_tmp
# on node-c12d-029
# by uccabz1
#
# compiler GCC version 4.9.2
# options -cpp -iprefix /lustre/shared/ucl/apps/gcc/4.9.2/bin/../lib/gcc/x86_64-unknown-linux-gnu/4.9.2/ -mtune=corei7 -march=x86-64 -g -Og
#
# seed   996683278  -351066851   703330007   108032893 -1678937503  1988041783  1459028054  1991263058  -355640188   141125833  1195032243   450796111
#
#      Author: C. J. Pickard (cjp20@cam.ac.uk)
#                Space group: C2
#

%BLOCK LATTICE_ABC
      5.31993      5.31993     14.34295
     96.89444     96.89444     90.29831
%ENDBLOCK LATTICE_ABC

%BLOCK POSITIONS_FRAC
  Li  -0.1383821   0.3722687   0.3232245 SPIN=   0.00000
  Li  -0.3722687   0.1383821  -0.3232245 SPIN=   0.00000
  Li   0.2783836   0.2525726   0.0490761 SPIN=   0.00000
  Li  -0.2525726  -0.2783836  -0.0490761 SPIN=   0.00000
  Fe   0.3490689   0.1129684   0.2884644 SPIN=   3.68414
  Fe  -0.1129684  -0.3490689  -0.2884644 SPIN=   3.68414
  Fe  -0.0504260   0.0504260   0.5000000 SPIN=   5.50250
  Fe   0.4363565  -0.4363565  -0.5000000 SPIN=   3.12921
   O  -0.0348324  -0.3060851   0.2741957 SPIN=   0.00000
   O   0.0142772  -0.1290600   0.1253798 SPIN=   0.00000
   O  -0.3033749   0.0466182   0.2267898 SPIN=   0.00000
   O  -0.3696596  -0.3815272   0.1378734 SPIN=   0.00000
   S  -0.1733974  -0.1925135   0.1910597 SPIN=   0.00000
   O   0.3060851   0.0348324  -0.2741957 SPIN=   0.00000
   O   0.1290600  -0.0142772  -0.1253798 SPIN=   0.00000
   O  -0.0466182   0.3033749  -0.2267898 SPIN=   0.00000
   O   0.3815272   0.3696596  -0.1378734 SPIN=   0.00000
   S   0.1925135   0.1733974  -0.1910597 SPIN=   0.00000
   O  -0.2965290  -0.3711650   0.4137680 SPIN=   0.00000
   O  -0.7048745  -0.1550186   0.4240020 SPIN=   0.00000
   O  -0.5473406  -0.2571871   0.2686499 SPIN=   0.00000
   O  -0.3336305   0.0783900   0.3863730 SPIN=   0.00000
   O   0.3711650   0.2965290  -0.4137680 SPIN=   0.00000
   O   0.1550186   0.7048745  -0.4240020 SPIN=   0.00000
   O   0.2571871   0.5473406  -0.2686499 SPIN=   0.00000
   O  -0.0783900   0.3336305  -0.3863730 SPIN=   0.00000
   S  -0.2462178   0.2462178  -0.0000000 SPIN=   0.00000
   S   0.2552109  -0.2552109   0.0000000 SPIN=   0.00000
   F  -0.3363272  -0.0813000  -0.4338283 SPIN=   0.00000
   F   0.0813000   0.3363272   0.4338283 SPIN=   0.00000
   F  -0.3077573  -0.3106089  -0.1830075 SPIN=   0.00000
   F   0.3106089   0.3077573   0.1830075 SPIN=   0.00000
%ENDBLOCK POSITIONS_FRAC

# Note: total spin =  16.00

KPOINTS_MP_SPACING 0.07

%BLOCK SPECIES_POT
QC5
%ENDBLOCK SPECIES_POT

SNAP_TO_SYMMETRY
SYMMETRY_GENERATE

