#              Generated by Buildcell
#
# at 04:42:52 (GMT+1.0) 18th August 2020
# in /lustre/scratch/uccabz1/launch_tmp
# on node-c12e-025
# by uccabz1
#
# compiler GCC version 4.9.2
# options -cpp -iprefix /lustre/shared/ucl/apps/gcc/4.9.2/bin/../lib/gcc/x86_64-unknown-linux-gnu/4.9.2/ -mtune=corei7 -march=x86-64 -g -Og
#
# seed  -837674246  1502702798  -446507952 -1605218649   653563527  -860946770 -1167395953   161583462   514235192 -1193422992 -1010119622 -1882889601
#
#      Author: C. J. Pickard (cjp20@cam.ac.uk)
#                Space group: Cc
#

%BLOCK LATTICE_ABC
      6.39263      6.39263     10.92912
     94.72570     94.72570    114.99818
%ENDBLOCK LATTICE_ABC

%BLOCK POSITIONS_FRAC
  Li  -0.2554697   0.3068445  -0.4627783 SPIN=   0.00000
  Li   0.3068445  -0.2554697   0.0372217 SPIN=   0.00000
  Li   0.1680076   0.2380367  -0.2485927 SPIN=   0.00000
  Li   0.2380367   0.1680076   0.2514073 SPIN=   0.00000
  Fe   0.0637115  -0.2608457  -0.2986122 SPIN=   4.51263
  Fe  -0.2608457   0.0637115   0.2013878 SPIN=   4.51263
  Fe  -0.1169437  -0.3556302   0.3552175 SPIN=   3.48737
  Fe  -0.3556302  -0.1169437  -0.1447825 SPIN=   3.48737
   O   0.1820795   0.0499981  -0.0015002 SPIN=   0.00000
   O   0.2396666   0.4000414   0.1382998 SPIN=   0.00000
   O  -0.1375147   0.1705199   0.0067415 SPIN=   0.00000
   O   0.2114859   0.4053486  -0.0885349 SPIN=   0.00000
   S   0.1239293   0.2564770   0.0137515 SPIN=   0.00000
   O   0.0499981   0.1820795  -0.5015002 SPIN=   0.00000
   O   0.4000414   0.2396666  -0.3617002 SPIN=   0.00000
   O   0.1705199  -0.1375147  -0.4932585 SPIN=   0.00000
   O   0.4053486   0.2114859  -0.5885349 SPIN=   0.00000
   S   0.2564770   0.1239293  -0.4862485 SPIN=   0.00000
   O  -0.2655794  -0.3147123  -0.3529582 SPIN=   0.00000
   O  -0.3674230   0.0128860  -0.3805953 SPIN=   0.00000
   O  -0.6428969  -0.3881442  -0.4706432 SPIN=   0.00000
   O  -0.2765860  -0.1835679  -0.5592278 SPIN=   0.00000
   S  -0.3881213  -0.2183846  -0.4408561 SPIN=   0.00000
   O  -0.3147123  -0.2655794   0.1470418 SPIN=   0.00000
   O   0.0128860  -0.3674230   0.1194047 SPIN=   0.00000
   O  -0.3881442  -0.6428969   0.0293568 SPIN=   0.00000
   O  -0.1835679  -0.2765860  -0.0592278 SPIN=   0.00000
   S  -0.2183846  -0.3881213   0.0591439 SPIN=   0.00000
   F   0.4210338  -0.0124400   0.1972514 SPIN=   0.00000
   F  -0.0124400   0.4210338  -0.3027486 SPIN=   0.00000
   F   0.4463301   0.0272218  -0.1710037 SPIN=   0.00000
   F   0.0272218   0.4463301   0.3289963 SPIN=   0.00000
%ENDBLOCK POSITIONS_FRAC

# Note: total spin =  16.00

KPOINTS_MP_SPACING 0.07

%BLOCK SPECIES_POT
QC5
%ENDBLOCK SPECIES_POT

SNAP_TO_SYMMETRY
SYMMETRY_GENERATE

