#              Generated by Buildcell
#
# at 05:57:25 (GMT+1.0) 4th August 2020
# in /lustre/scratch/uccabz1/launch_tmp
# on node-c12m-015
# by uccabz1
#
# compiler GCC version 4.9.2
# options -cpp -iprefix /lustre/shared/ucl/apps/gcc/4.9.2/bin/../lib/gcc/x86_64-unknown-linux-gnu/4.9.2/ -mtune=corei7 -march=x86-64 -g -Og
#
# seed -1072535994  1248806111  -524989294  -165164107 -1855223535  2071067127  1122462937   -22187181  -330114636   565026437    58833490   406511814
#
#      Author: C. J. Pickard (cjp20@cam.ac.uk)
#                Space group: Pc
#

%BLOCK LATTICE_ABC
      4.08767      8.51010     11.61881
     90.00000     98.24426     90.00000
%ENDBLOCK LATTICE_ABC

%BLOCK POSITIONS_FRAC
  Li  -0.0157049  -0.3364548   0.2599818 SPIN=   0.00000
  Li  -0.0157049   0.3364548  -0.2400182 SPIN=   0.00000
  Li  -0.2033568  -0.1497213  -0.0664066 SPIN=   0.00000
  Li  -0.2033568   0.1497213   0.4335934 SPIN=   0.00000
  Fe  -0.1672075  -0.4716709  -0.4783072 SPIN=   3.62409
  Fe  -0.1672075   0.4716709   0.0216928 SPIN=   3.62409
  Fe   0.3217305  -0.1235240   0.4510212 SPIN=   4.37591
  Fe   0.3217305   0.1235240  -0.0489788 SPIN=   4.37591
   O   0.1833155  -0.0852111   0.1123382 SPIN=   0.00000
   O   0.1813421  -0.3759525   0.1074566 SPIN=   0.00000
   O   0.7115801  -0.2311344   0.1281410 SPIN=   0.00000
   O   0.3358790  -0.2254056  -0.0588668 SPIN=   0.00000
   S   0.3530292  -0.2294259   0.0722673 SPIN=   0.00000
   O   0.1833155   0.0852111  -0.3876618 SPIN=   0.00000
   O   0.1813421   0.3759525  -0.3925434 SPIN=   0.00000
   O   0.7115801   0.2311344  -0.3718590 SPIN=   0.00000
   O   0.3358790   0.2254056  -0.5588668 SPIN=   0.00000
   S   0.3530292   0.2294259  -0.4277327 SPIN=   0.00000
   O  -0.7995584   0.4567653   0.2884436 SPIN=   0.00000
   O  -0.3215728   0.4973030   0.1829699 SPIN=   0.00000
   O  -0.5389827   0.2291965   0.2048543 SPIN=   0.00000
   O  -0.2422733   0.3681825   0.3758223 SPIN=   0.00000
   S  -0.4755968   0.3878618   0.2630225 SPIN=   0.00000
   O  -0.7995584  -0.4567653  -0.2115564 SPIN=   0.00000
   O  -0.3215728  -0.4973030  -0.3170301 SPIN=   0.00000
   O  -0.5389827  -0.2291965  -0.2951457 SPIN=   0.00000
   O  -0.2422733  -0.3681825  -0.1241777 SPIN=   0.00000
   S  -0.4755968  -0.3878618  -0.2369775 SPIN=   0.00000
   F  -0.4245236  -0.0404737   0.3406826 SPIN=   0.00000
   F  -0.4245236   0.0404737  -0.1593174 SPIN=   0.00000
   F   0.1300463   0.3221124  -0.0261357 SPIN=   0.00000
   F   0.1300463  -0.3221124   0.4738643 SPIN=   0.00000
%ENDBLOCK POSITIONS_FRAC

# Note: total spin =  16.00

KPOINTS_MP_SPACING 0.07

%BLOCK SPECIES_POT
QC5
%ENDBLOCK SPECIES_POT

SNAP_TO_SYMMETRY
SYMMETRY_GENERATE

