#              Generated by Buildcell
#
# at 06:55:12 (GMT+1.0) 4th August 2020
# in /lustre/scratch/uccabz1/launch_tmp
# on node-c12f-019
# by uccabz1
#
# compiler GCC version 4.9.2
# options -cpp -iprefix /lustre/shared/ucl/apps/gcc/4.9.2/bin/../lib/gcc/x86_64-unknown-linux-gnu/4.9.2/ -mtune=corei7 -march=x86-64 -g -Og
#
# seed  1966034573 -1439306917 -1482477196  1578343267  1038223992  1433604186  1540358643  1344202436  1007304692 -1423446894  -314268976  -577074404
#
#      Author: C. J. Pickard (cjp20@cam.ac.uk)
#                Space group: Pm
#

%BLOCK LATTICE_ABC
      5.73774      7.00321     10.18295
     90.00000     90.00000    102.15790
%ENDBLOCK LATTICE_ABC

%BLOCK POSITIONS_FRAC
  Li  -0.2431980  -0.1657286  -0.3054092 SPIN=   0.00000
  Li  -0.2431980  -0.1657286   0.3054092 SPIN=   0.00000
  Li  -0.0966764   0.3787362   0.5000000 SPIN=   0.00000
  Li  -0.0920608  -0.4706669   0.0000000 SPIN=   0.00000
  Fe   0.1888810   0.1539421   0.3200787 SPIN=   5.85551
  Fe   0.1888810   0.1539421  -0.3200787 SPIN=   5.85551
  Fe   0.3610327   0.3880440  -0.0000000 SPIN=   0.21521
  Fe  -0.1825074  -0.0413334   0.0000000 SPIN=   4.07377
   O   0.4821403  -0.1095247   0.1163073 SPIN=   0.00000
   O   0.1166239  -0.1508708   0.2516193 SPIN=   0.00000
   O   0.4373387  -0.3210356   0.3133315 SPIN=   0.00000
   O   0.1910850  -0.4253466   0.1161965 SPIN=   0.00000
   S   0.3067970  -0.2516944   0.1993637 SPIN=   0.00000
   O   0.4821403  -0.1095247  -0.1163073 SPIN=   0.00000
   O   0.1166239  -0.1508708  -0.2516193 SPIN=   0.00000
   O   0.4373387  -0.3210356  -0.3133315 SPIN=   0.00000
   O   0.1910850  -0.4253466  -0.1161965 SPIN=   0.00000
   S   0.3067970  -0.2516944  -0.1993637 SPIN=   0.00000
   O  -0.1748088   0.2117585   0.1510199 SPIN=   0.00000
   O  -0.3284939   0.2739324   0.3705237 SPIN=   0.00000
   O  -0.4668282   0.4243053   0.1732861 SPIN=   0.00000
   S  -0.2558834   0.3621087   0.2369404 SPIN=   0.00000
   O  -0.1748088   0.2117585  -0.1510199 SPIN=   0.00000
   O  -0.3284939   0.2739324  -0.3705237 SPIN=   0.00000
   O  -0.4668282   0.4243053  -0.1732861 SPIN=   0.00000
   S  -0.2558834   0.3621087  -0.2369404 SPIN=   0.00000
   O  -0.3572951  -0.3464675   0.0000000 SPIN=   0.00000
   O  -0.4752257  -0.4956655  -0.5000000 SPIN=   0.00000
   F   0.1418212   0.2176930   0.5000000 SPIN=   0.00000
   F  -0.0080100  -0.3335713   0.5000000 SPIN=   0.00000
   F  -0.4332888  -0.0590369  -0.5000000 SPIN=   0.00000
   F   0.1952474   0.1349316  -0.0000000 SPIN=   0.00000
%ENDBLOCK POSITIONS_FRAC

# Note: total spin =  16.00

KPOINTS_MP_SPACING 0.07

%BLOCK SPECIES_POT
QC5
%ENDBLOCK SPECIES_POT

SNAP_TO_SYMMETRY
SYMMETRY_GENERATE

