#              Generated by Buildcell
#
# at 10:04:59 (GMT+1.0) 4th August 2020
# in /lustre/scratch/uccabz1/launch_tmp
# on node-c12p-012
# by uccabz1
#
# compiler GCC version 4.9.2
# options -cpp -iprefix /lustre/shared/ucl/apps/gcc/4.9.2/bin/../lib/gcc/x86_64-unknown-linux-gnu/4.9.2/ -mtune=corei7 -march=x86-64 -g -Og
#
# seed -1604048159  -270022161  -959475313  1669587297 -1494859291  1703823658   138694960  1553127968  1611326293   158832035 -1661594082 -1344700434
#
#      Author: C. J. Pickard (cjp20@cam.ac.uk)
#                Space group: P-1
#

%BLOCK LATTICE_ABC
      4.34306      9.36471     10.06554
     81.61523     82.08365     84.60231
%ENDBLOCK LATTICE_ABC

%BLOCK POSITIONS_FRAC
  Li   0.0382511  -0.2322997  -0.3113260 SPIN=   0.00000
  Li  -0.0382511   0.2322997   0.3113260 SPIN=   0.00000
  Li  -0.2158181  -0.2935227   0.2244660 SPIN=   0.00000
  Li   0.2158181   0.2935227  -0.2244660 SPIN=   0.00000
  Fe   0.3409287   0.4867564   0.1863100 SPIN=   5.80202
  Fe  -0.3409287  -0.4867564  -0.1863100 SPIN=   5.80202
  Fe   0.3097516  -0.0662143   0.3357769 SPIN=   2.19798
  Fe  -0.3097516   0.0662143  -0.3357769 SPIN=   2.19798
   O   0.1971860   0.4484756   0.3943656 SPIN=   0.00000
   O   0.4902257   0.3707185   0.5899908 SPIN=   0.00000
   O   0.4659682   0.2030370   0.4236939 SPIN=   0.00000
   O  -0.0046392   0.2640058   0.5796247 SPIN=   0.00000
   S   0.2871852   0.3215592   0.4969187 SPIN=   0.00000
   O  -0.1971860  -0.4484756  -0.3943656 SPIN=   0.00000
   O  -0.4902257  -0.3707185  -0.5899908 SPIN=   0.00000
   O  -0.4659682  -0.2030370  -0.4236939 SPIN=   0.00000
   O   0.0046392  -0.2640058  -0.5796247 SPIN=   0.00000
   S  -0.2871852  -0.3215592  -0.4969187 SPIN=   0.00000
   O  -0.6005900  -0.3488871   0.0060292 SPIN=   0.00000
   O  -0.3949854  -0.1603757  -0.1743320 SPIN=   0.00000
   O  -0.1218225  -0.2347498   0.0277250 SPIN=   0.00000
   O  -0.6334393  -0.0937208   0.0481664 SPIN=   0.00000
   S  -0.4377093  -0.2094334  -0.0231028 SPIN=   0.00000
   O   0.6005900   0.3488871  -0.0060292 SPIN=   0.00000
   O   0.3949854   0.1603757   0.1743320 SPIN=   0.00000
   O   0.1218225   0.2347498  -0.0277250 SPIN=   0.00000
   O   0.6334393   0.0937208  -0.0481664 SPIN=   0.00000
   S   0.4377093   0.2094334   0.0231028 SPIN=   0.00000
   F  -0.1144761   0.0212081   0.2923800 SPIN=   0.00000
   F   0.1144761  -0.0212081  -0.2923800 SPIN=   0.00000
   F  -0.1917245   0.4693487   0.2019033 SPIN=   0.00000
   F   0.1917245  -0.4693487  -0.2019033 SPIN=   0.00000
%ENDBLOCK POSITIONS_FRAC

# Note: total spin =  16.00

KPOINTS_MP_SPACING 0.07

%BLOCK SPECIES_POT
QC5
%ENDBLOCK SPECIES_POT

SNAP_TO_SYMMETRY
SYMMETRY_GENERATE

