#              Generated by Buildcell
#
# at 01:58:51 (GMT+1.0) 18th August 2020
# in /lustre/scratch/uccabz1/launch_tmp
# on node-c12f-027
# by uccabz1
#
# compiler GCC version 4.9.2
# options -cpp -iprefix /lustre/shared/ucl/apps/gcc/4.9.2/bin/../lib/gcc/x86_64-unknown-linux-gnu/4.9.2/ -mtune=corei7 -march=x86-64 -g -Og
#
# seed  2079986544 -1592293273  -397925215 -1347362964  -140890293   912859090   581599993 -1825772652 -1569516957   619993198   816879530   617581514
#
#      Author: C. J. Pickard (cjp20@cam.ac.uk)
#                Space group: Pc
#

%BLOCK LATTICE_ABC
      4.60129      4.92201     18.07864
     90.00000     90.00000    102.32556
%ENDBLOCK LATTICE_ABC

%BLOCK POSITIONS_FRAC
  Li   0.4205162   0.1068938  -0.3463403 SPIN=   0.00000
  Li  -0.0794838  -0.3931062   0.3463403 SPIN=   0.00000
  Li   0.3974773  -0.1292326   0.0702172 SPIN=   0.00000
  Li  -0.1025227   0.3707674  -0.0702172 SPIN=   0.00000
  Fe  -0.4230126   0.4660169   0.2051812 SPIN=   6.23164
  Fe   0.0769874  -0.0339831  -0.2051812 SPIN=   6.23164
  Fe   0.3718046   0.3936396   0.4368871 SPIN=   1.76836
  Fe  -0.1281954  -0.1063604  -0.4368871 SPIN=   1.76836
   O  -0.2656225   0.5464786  -0.3603718 SPIN=   0.00000
   O   0.1740173   0.3457914  -0.3853567 SPIN=   0.00000
   O  -0.1799497   0.1477658  -0.2864073 SPIN=   0.00000
   O   0.1486947   0.6124133  -0.2703361 SPIN=   0.00000
   S  -0.0307151   0.4131123  -0.3256179 SPIN=   0.00000
   O   0.2343775   0.0464786   0.3603718 SPIN=   0.00000
   O   0.6740173  -0.1542086   0.3853567 SPIN=   0.00000
   O   0.3200503  -0.3522342   0.2864073 SPIN=   0.00000
   O   0.6486947   0.1124133   0.2703361 SPIN=   0.00000
   S   0.4692849  -0.0868877   0.3256179 SPIN=   0.00000
   O   0.5706483  -0.3838255  -0.0721216 SPIN=   0.00000
   O   0.1542076  -0.5923049  -0.1549044 SPIN=   0.00000
   O   0.6646613  -0.6487583  -0.1827028 SPIN=   0.00000
   O   0.5357222  -0.1885448  -0.1971527 SPIN=   0.00000
   S   0.4813098  -0.4533584  -0.1517204 SPIN=   0.00000
   O   0.0706483   0.1161745   0.0721216 SPIN=   0.00000
   O  -0.3457924  -0.0923049   0.1549044 SPIN=   0.00000
   O   0.1646613  -0.1487583   0.1827028 SPIN=   0.00000
   O   0.0357222   0.3114552   0.1971527 SPIN=   0.00000
   S  -0.0186902   0.0466416   0.1517204 SPIN=   0.00000
   F   0.0770695  -0.0340042  -0.0649504 SPIN=   0.00000
   F  -0.4229305   0.4659958   0.0649504 SPIN=   0.00000
   F   0.4039286  -0.1028364  -0.4403715 SPIN=   0.00000
   F  -0.0960714   0.3971636   0.4403715 SPIN=   0.00000
%ENDBLOCK POSITIONS_FRAC

# Note: total spin =  16.00

KPOINTS_MP_SPACING 0.07

%BLOCK SPECIES_POT
QC5
%ENDBLOCK SPECIES_POT

SNAP_TO_SYMMETRY
SYMMETRY_GENERATE

