#              Generated by Buildcell
#
# at 03:03:06 (GMT+1.0) 18th August 2020
# in /lustre/scratch/uccabz1/launch_tmp
# on node-c12i-005
# by uccabz1
#
# compiler GCC version 4.9.2
# options -cpp -iprefix /lustre/shared/ucl/apps/gcc/4.9.2/bin/../lib/gcc/x86_64-unknown-linux-gnu/4.9.2/ -mtune=corei7 -march=x86-64 -g -Og
#
# seed -1623422615   655824433 -2139546839  1015058318   425561061  2001709893  -371966874 -1153114781  -339528469  1042672974   459101442  1526500697
#
#      Author: C. J. Pickard (cjp20@cam.ac.uk)
#                Space group: Pba2
#

%BLOCK LATTICE_ABC
      4.36249      6.73456     13.61495
     90.00000     90.00000     90.00000
%ENDBLOCK LATTICE_ABC

%BLOCK POSITIONS_FRAC
  Li  -0.4606223   0.4877741   0.2127525 SPIN=   0.00000
  Li  -0.4606223  -0.4877741  -0.2127525 SPIN=   0.00000
  Li  -0.4606223   0.0122259  -0.2872475 SPIN=   0.00000
  Li  -0.4606223  -0.0122259   0.2872475 SPIN=   0.00000
  Fe   0.0147136   0.2452058   0.4393551 SPIN=   4.00000
  Fe   0.0147136  -0.2452058  -0.4393551 SPIN=   4.00000
  Fe   0.0147136   0.2547942  -0.0606449 SPIN=   4.00000
  Fe   0.0147136  -0.2547942   0.0606449 SPIN=   4.00000
   O   0.0445480   0.1977911   0.2842621 SPIN=   0.00000
   O   0.1630204   0.3917070   0.1345923 SPIN=   0.00000
   O  -0.3416547   0.2275577   0.1519272 SPIN=   0.00000
   O   0.1251031   0.0254716   0.1257975 SPIN=   0.00000
   S  -0.0022458   0.2106319   0.1741448 SPIN=   0.00000
   O   0.0445480  -0.1977911  -0.2842621 SPIN=   0.00000
   O   0.1630204  -0.3917070  -0.1345923 SPIN=   0.00000
   O  -0.3416547  -0.2275577  -0.1519272 SPIN=   0.00000
   O   0.1251031  -0.0254716  -0.1257975 SPIN=   0.00000
   S  -0.0022458  -0.2106319  -0.1741448 SPIN=   0.00000
   O   0.0445480   0.3022089  -0.2157379 SPIN=   0.00000
   O   0.1630204   0.1082930  -0.3654077 SPIN=   0.00000
   O  -0.3416547   0.2724423  -0.3480728 SPIN=   0.00000
   O   0.1251031   0.4745284  -0.3742025 SPIN=   0.00000
   S  -0.0022458   0.2893681  -0.3258552 SPIN=   0.00000
   O   0.0445480  -0.3022089   0.2157379 SPIN=   0.00000
   O   0.1630204  -0.1082930   0.3654077 SPIN=   0.00000
   O  -0.3416547  -0.2724423   0.3480728 SPIN=   0.00000
   O   0.1251031  -0.4745284   0.3742025 SPIN=   0.00000
   S  -0.0022458  -0.2893681   0.3258552 SPIN=   0.00000
   F  -0.4599539   0.2258681   0.4083851 SPIN=   0.00000
   F  -0.4599539  -0.2258681  -0.4083851 SPIN=   0.00000
   F  -0.4599539   0.2741319  -0.0916149 SPIN=   0.00000
   F  -0.4599539  -0.2741319   0.0916149 SPIN=   0.00000
%ENDBLOCK POSITIONS_FRAC

# Note: total spin =  16.00

KPOINTS_MP_SPACING 0.07

%BLOCK SPECIES_POT
QC5
%ENDBLOCK SPECIES_POT

SNAP_TO_SYMMETRY
SYMMETRY_GENERATE

