#              Generated by Buildcell
#
# at 09:38:21 (GMT+1.0) 4th August 2020
# in /lustre/scratch/uccabz1/launch_tmp
# on node-c12j-011
# by uccabz1
#
# compiler GCC version 4.9.2
# options -cpp -iprefix /lustre/shared/ucl/apps/gcc/4.9.2/bin/../lib/gcc/x86_64-unknown-linux-gnu/4.9.2/ -mtune=corei7 -march=x86-64 -g -Og
#
# seed  2085465334 -1658751120  1787566908   236298961 -1979755584  1136403763  1973300896  -671530331  1337073834 -1010806725 -1638994980   152027098
#
#      Author: C. J. Pickard (cjp20@cam.ac.uk)
#                Space group: Pm
#

%BLOCK LATTICE_ABC
      5.65175      8.12748      8.82921
     90.00000     90.00000     99.50274
%ENDBLOCK LATTICE_ABC

%BLOCK POSITIONS_FRAC
  Li  -0.1769025   0.4279284  -0.5000000 SPIN=   0.00000
  Li  -0.4823542   0.4881289  -0.0000000 SPIN=   0.00000
  Li   0.0858726  -0.2199048   0.0000000 SPIN=   0.00000
  Li  -0.3533383   0.0605333  -0.0000000 SPIN=   0.00000
  Fe  -0.1077785   0.0502825   0.2912131 SPIN=   4.76462
  Fe  -0.1077785   0.0502825  -0.2912131 SPIN=   4.76462
  Fe   0.4134284  -0.4006622   0.5000000 SPIN=   2.31388
  Fe  -0.0256425   0.3761134  -0.0000000 SPIN=   4.15688
   O   0.3214836   0.1159811  -0.3102948 SPIN=   0.00000
   O   0.2809325   0.3488039  -0.1367208 SPIN=   0.00000
   O   0.5310150   0.4012612  -0.3672966 SPIN=   0.00000
   O   0.6665611   0.2432661  -0.1534652 SPIN=   0.00000
   S   0.4499981   0.2773281  -0.2419444 SPIN=   0.00000
   O   0.3214836   0.1159811   0.3102948 SPIN=   0.00000
   O   0.2809325   0.3488039   0.1367208 SPIN=   0.00000
   O   0.5310150   0.4012612   0.3672966 SPIN=   0.00000
   O   0.6665611   0.2432661   0.1534652 SPIN=   0.00000
   S   0.4499981   0.2773281   0.2419444 SPIN=   0.00000
   O   0.0865160  -0.4577638  -0.3659883 SPIN=   0.00000
   O  -0.1490618  -0.4339276  -0.1330568 SPIN=   0.00000
   O  -0.2457694  -0.2939733  -0.3686585 SPIN=   0.00000
   O   0.1285764  -0.1886612  -0.2292927 SPIN=   0.00000
   S  -0.0449347  -0.3435815  -0.2742491 SPIN=   0.00000
   O   0.0865160  -0.4577638   0.3659883 SPIN=   0.00000
   O  -0.1490618  -0.4339276   0.1330568 SPIN=   0.00000
   O  -0.2457694  -0.2939733   0.3686585 SPIN=   0.00000
   O   0.1285764  -0.1886612   0.2292927 SPIN=   0.00000
   S  -0.0449347  -0.3435815   0.2742491 SPIN=   0.00000
   F   0.4106583  -0.2908383   0.0000000 SPIN=   0.00000
   F   0.0021038   0.0763645  -0.0000000 SPIN=   0.00000
   F   0.4028264  -0.1405547   0.5000000 SPIN=   0.00000
   F  -0.0146066   0.2275113  -0.5000000 SPIN=   0.00000
%ENDBLOCK POSITIONS_FRAC

# Note: total spin =  16.00

KPOINTS_MP_SPACING 0.07

%BLOCK SPECIES_POT
QC5
%ENDBLOCK SPECIES_POT

SNAP_TO_SYMMETRY
SYMMETRY_GENERATE

