#              Generated by Buildcell
#
# at 03:01:12 (GMT+1.0) 18th August 2020
# in /lustre/scratch/uccabz1/launch_tmp
# on node-c12a-022
# by uccabz1
#
# compiler GCC version 4.9.2
# options -cpp -iprefix /lustre/shared/ucl/apps/gcc/4.9.2/bin/../lib/gcc/x86_64-unknown-linux-gnu/4.9.2/ -mtune=corei7 -march=x86-64 -g -Og
#
# seed -1517677385   133880517  2077072435 -2062028590 -1870161912 -1151266302  -542944864 -1180398879  1397236520  1156392994  -230450190  -530709662
#
#      Author: C. J. Pickard (cjp20@cam.ac.uk)
#                Space group: P-1
#

%BLOCK LATTICE_ABC
      4.56834      8.33462     11.26665
    109.90048     90.50871     96.77094
%ENDBLOCK LATTICE_ABC

%BLOCK POSITIONS_FRAC
  Li   0.2314315  -0.2017323  -0.4953329 SPIN=   0.00000
  Li  -0.2314315   0.2017323   0.4953329 SPIN=   0.00000
  Li  -0.2851924   0.1217847  -0.1016802 SPIN=   0.00000
  Li   0.2851924  -0.1217847   0.1016802 SPIN=   0.00000
  Fe   0.3177077   0.2876139  -0.2270141 SPIN=   5.81994
  Fe  -0.3177077  -0.2876139   0.2270141 SPIN=   5.81994
  Fe   0.2457085   0.2849144   0.0973185 SPIN=   2.18006
  Fe  -0.2457085  -0.2849144  -0.0973185 SPIN=   2.18006
   O   0.3237987  -0.1699224   0.3407473 SPIN=   0.00000
   O  -0.0781720   0.0004328   0.3304293 SPIN=   0.00000
   O   0.4238352   0.0824830   0.2719467 SPIN=   0.00000
   O   0.3265856   0.1239621   0.4955178 SPIN=   0.00000
   S   0.2490119   0.0092389   0.3596603 SPIN=   0.00000
   O  -0.3237987   0.1699224  -0.3407473 SPIN=   0.00000
   O   0.0781720  -0.0004328  -0.3304293 SPIN=   0.00000
   O  -0.4238352  -0.0824830  -0.2719467 SPIN=   0.00000
   O  -0.3265856  -0.1239621  -0.4955178 SPIN=   0.00000
   S  -0.2490119  -0.0092389  -0.3596603 SPIN=   0.00000
   O  -0.0689312   0.5801862   0.3531623 SPIN=   0.00000
   O   0.0019985   0.3082965   0.3862398 SPIN=   0.00000
   O  -0.2602136   0.3007124   0.1908623 SPIN=   0.00000
   O  -0.4962293   0.3993855   0.3956749 SPIN=   0.00000
   S  -0.2058439   0.3971451   0.3314848 SPIN=   0.00000
   O   0.0689312  -0.5801862  -0.3531623 SPIN=   0.00000
   O  -0.0019985  -0.3082965  -0.3862398 SPIN=   0.00000
   O   0.2602136  -0.3007124  -0.1908623 SPIN=   0.00000
   O   0.4962293  -0.3993855  -0.3956749 SPIN=   0.00000
   S   0.2058439  -0.3971451  -0.3314848 SPIN=   0.00000
   F   0.2665028   0.0848483  -0.0842231 SPIN=   0.00000
   F  -0.2665028  -0.0848483   0.0842231 SPIN=   0.00000
   F   0.2678282  -0.4305260   0.1284418 SPIN=   0.00000
   F  -0.2678282   0.4305260  -0.1284418 SPIN=   0.00000
%ENDBLOCK POSITIONS_FRAC

# Note: total spin =  16.00

KPOINTS_MP_SPACING 0.07

%BLOCK SPECIES_POT
QC5
%ENDBLOCK SPECIES_POT

SNAP_TO_SYMMETRY
SYMMETRY_GENERATE

