#              Generated by Buildcell
#
# at 06:55:20 (GMT+1.0) 4th August 2020
# in /lustre/scratch/uccabz1/launch_tmp
# on node-c12c-005
# by uccabz1
#
# compiler GCC version 4.9.2
# options -cpp -iprefix /lustre/shared/ucl/apps/gcc/4.9.2/bin/../lib/gcc/x86_64-unknown-linux-gnu/4.9.2/ -mtune=corei7 -march=x86-64 -g -Og
#
# seed   695908618 -1644686542 -1089012206   931046963  -749289588  2143419524  -408887447  1233013006  1364725195 -1152823128 -1350594757   671590226
#
#      Author: C. J. Pickard (cjp20@cam.ac.uk)
#                Space group: P-1
#

%BLOCK LATTICE_ABC
      4.63794      6.87203     12.77861
     81.29538     83.54441     88.26060
%ENDBLOCK LATTICE_ABC

%BLOCK POSITIONS_FRAC
  Li   0.3302636  -0.2754820  -0.4404330 SPIN=   0.00000
  Li  -0.3302636   0.2754820   0.4404330 SPIN=   0.00000
  Li   0.4128411  -0.1827277   0.2519220 SPIN=   0.00000
  Li  -0.4128411   0.1827277  -0.2519220 SPIN=   0.00000
  Fe  -0.1232530  -0.3160084   0.3870346 SPIN=   3.18470
  Fe   0.1232530   0.3160084  -0.3870346 SPIN=   3.18470
  Fe   0.2539541   0.1443225   0.0904567 SPIN=   4.81530
  Fe  -0.2539541  -0.1443225  -0.0904567 SPIN=   4.81530
   O   0.0739915  -0.3325458  -0.0117365 SPIN=   0.00000
   O   0.4368189  -0.1942054   0.0835153 SPIN=   0.00000
   O   0.3675335  -0.5544996   0.1071341 SPIN=   0.00000
   O  -0.0127634  -0.3400669   0.1834943 SPIN=   0.00000
   S   0.2163951  -0.3553294   0.0906018 SPIN=   0.00000
   O  -0.0739915   0.3325458   0.0117365 SPIN=   0.00000
   O  -0.4368189   0.1942054  -0.0835153 SPIN=   0.00000
   O  -0.3675335   0.5544996  -0.1071341 SPIN=   0.00000
   O   0.0127634   0.3400669  -0.1834943 SPIN=   0.00000
   S  -0.2163951   0.3553294  -0.0906018 SPIN=   0.00000
   O  -0.1354582  -0.2216775  -0.2511093 SPIN=   0.00000
   O  -0.4879203  -0.0171589  -0.3529061 SPIN=   0.00000
   O  -0.2182499  -0.2870670  -0.4305082 SPIN=   0.00000
   O   0.0383857   0.0134859  -0.4105287 SPIN=   0.00000
   S  -0.2008107  -0.1281044  -0.3612631 SPIN=   0.00000
   O   0.1354582   0.2216775   0.2511093 SPIN=   0.00000
   O   0.4879203   0.0171589   0.3529061 SPIN=   0.00000
   O   0.2182499   0.2870670   0.4305082 SPIN=   0.00000
   O  -0.0383857  -0.0134859   0.4105287 SPIN=   0.00000
   S   0.2008107   0.1281044   0.3612631 SPIN=   0.00000
   F  -0.4308766  -0.4197168   0.3388307 SPIN=   0.00000
   F   0.4308766   0.4197168  -0.3388307 SPIN=   0.00000
   F  -0.2362721   0.0403855   0.1611613 SPIN=   0.00000
   F   0.2362721  -0.0403855  -0.1611613 SPIN=   0.00000
%ENDBLOCK POSITIONS_FRAC

# Note: total spin =  16.00

KPOINTS_MP_SPACING 0.07

%BLOCK SPECIES_POT
QC5
%ENDBLOCK SPECIES_POT

SNAP_TO_SYMMETRY
SYMMETRY_GENERATE

