#              Generated by Buildcell
#
# at 06:41:07 (GMT+1.0) 4th August 2020
# in /lustre/scratch/uccabz1/launch_tmp
# on node-c12e-012
# by uccabz1
#
# compiler GCC version 4.9.2
# options -cpp -iprefix /lustre/shared/ucl/apps/gcc/4.9.2/bin/../lib/gcc/x86_64-unknown-linux-gnu/4.9.2/ -mtune=corei7 -march=x86-64 -g -Og
#
# seed  1540882774  -214752260 -1491871548 -1853319735  -843917260 -2008002487 -1965673391  1044411293 -1644892623   986360102 -2055791313  2062811526
#
#      Author: C. J. Pickard (cjp20@cam.ac.uk)
#                Space group: Fdd2
#

%BLOCK LATTICE_ABC
      7.72504      7.72504      8.38226
    109.90564    109.90564    105.13676
%ENDBLOCK LATTICE_ABC

%BLOCK POSITIONS_FRAC
  Li  -0.2918799   0.4813847  -0.3759266 SPIN=   0.00000
  Li  -0.1426887   0.0840467   0.3759266 SPIN=   0.00000
  Li  -0.1659533   0.1073113  -0.1240734 SPIN=   0.00000
  Li   0.2313847  -0.0418799   0.1240734 SPIN=   0.00000
  Fe  -0.2141509   0.4878389  -0.0057064 SPIN=   4.00000
  Fe   0.4935453  -0.2084445   0.0057064 SPIN=   4.00000
  Fe  -0.4584445  -0.2564547  -0.4942936 SPIN=   4.00000
  Fe   0.2378389   0.0358491   0.4942936 SPIN=   4.00000
   O  -0.0772240   0.3832774  -0.1910503 SPIN=   0.00000
   O   0.2985543   0.5250790  -0.0155287 SPIN=   0.00000
   O   0.1163180   0.3315975  -0.3715592 SPIN=   0.00000
   O   0.0916676   0.1528522  -0.1793555 SPIN=   0.00000
   S   0.1073289   0.3482015  -0.1893734 SPIN=   0.00000
   O  -0.4256723   0.1138263   0.1910503 SPIN=   0.00000
   O  -0.4593923   0.3140829   0.0155287 SPIN=   0.00000
   O  -0.2968432   0.4878772   0.3715592 SPIN=   0.00000
   O  -0.6677923   0.2710230   0.1793555 SPIN=   0.00000
   S  -0.4624250   0.2967024   0.1893734 SPIN=   0.00000
   O  -0.1361737  -0.1756723  -0.3089497 SPIN=   0.00000
   O   0.0640829  -0.2093923  -0.4844713 SPIN=   0.00000
   O   0.2378772  -0.0468432  -0.1284408 SPIN=   0.00000
   O   0.0210230  -0.4177923  -0.3206445 SPIN=   0.00000
   S   0.0467024  -0.2124250  -0.3106266 SPIN=   0.00000
   O   0.1332774   0.1727760   0.3089497 SPIN=   0.00000
   O   0.2750790   0.5485543   0.4844713 SPIN=   0.00000
   O   0.0815975   0.3663180   0.1284408 SPIN=   0.00000
   O  -0.0971478   0.3416676   0.3206445 SPIN=   0.00000
   S   0.0982015   0.3573289   0.3106266 SPIN=   0.00000
   F   0.4890575   0.3153541  -0.3416023 SPIN=   0.00000
   F  -0.3430436  -0.1693402   0.3416023 SPIN=   0.00000
   F  -0.4193402  -0.0930436  -0.1583977 SPIN=   0.00000
   F   0.0653541  -0.2609425   0.1583977 SPIN=   0.00000
%ENDBLOCK POSITIONS_FRAC

# Note: total spin =  16.00

KPOINTS_MP_SPACING 0.07

%BLOCK SPECIES_POT
QC5
%ENDBLOCK SPECIES_POT

SNAP_TO_SYMMETRY
SYMMETRY_GENERATE

