#              Generated by Buildcell
#
# at 06:45:11 (GMT+1.0) 4th August 2020
# in /lustre/scratch/uccabz1/launch_tmp
# on node-c12n-035
# by uccabz1
#
# compiler GCC version 4.9.2
# options -cpp -iprefix /lustre/shared/ucl/apps/gcc/4.9.2/bin/../lib/gcc/x86_64-unknown-linux-gnu/4.9.2/ -mtune=corei7 -march=x86-64 -g -Og
#
# seed  1620985541  1241624791   -18132145  -948301197  1107321553   890737578  1605819274  1009332130   829659899  1858177650   635146038  1879132763
#
#      Author: C. J. Pickard (cjp20@cam.ac.uk)
#                Space group: P21
#

%BLOCK LATTICE_ABC
      5.16238      5.38232     14.40592
     90.00000     90.00000     92.12907
%ENDBLOCK LATTICE_ABC

%BLOCK POSITIONS_FRAC
  Li   0.3200922  -0.0056277   0.0991163 SPIN=   0.00000
  Li  -0.3200922   0.0056277  -0.4008837 SPIN=   0.00000
  Li   0.4519074   0.4992794  -0.0851510 SPIN=   0.00000
  Li  -0.4519074  -0.4992794   0.4148490 SPIN=   0.00000
  Fe  -0.4350394  -0.4496097  -0.2875409 SPIN=   2.78170
  Fe   0.4350394   0.4496097   0.2124591 SPIN=   2.78170
  Fe   0.0470439   0.4718332  -0.4815143 SPIN=   5.21830
  Fe  -0.0470439  -0.4718332   0.0184857 SPIN=   5.21830
   O   0.5609140   0.0205542   0.4327146 SPIN=   0.00000
   O   0.3434142  -0.2888789   0.3290673 SPIN=   0.00000
   O   0.2790733   0.1600713   0.3054163 SPIN=   0.00000
   O   0.0858204  -0.0551022   0.4420491 SPIN=   0.00000
   S   0.3173055  -0.0408389   0.3773118 SPIN=   0.00000
   O  -0.5609140  -0.0205542  -0.0672854 SPIN=   0.00000
   O  -0.3434142   0.2888789  -0.1709327 SPIN=   0.00000
   O  -0.2790733  -0.1600713  -0.1945837 SPIN=   0.00000
   O  -0.0858204   0.0551022  -0.0579509 SPIN=   0.00000
   S  -0.3173055   0.0408389  -0.1226882 SPIN=   0.00000
   O  -0.1484082   0.2250969   0.1434000 SPIN=   0.00000
   O   0.0829372  -0.1415303   0.1984811 SPIN=   0.00000
   O  -0.3182194  -0.1989643   0.1056533 SPIN=   0.00000
   O  -0.3407486  -0.0427846   0.2669252 SPIN=   0.00000
   S  -0.1811098  -0.0395456   0.1786149 SPIN=   0.00000
   O   0.1484082  -0.2250969  -0.3566000 SPIN=   0.00000
   O  -0.0829372   0.1415303  -0.3015189 SPIN=   0.00000
   O   0.3182194   0.1989643  -0.3943467 SPIN=   0.00000
   O   0.3407486   0.0427846  -0.2330748 SPIN=   0.00000
   S   0.1811098   0.0395456  -0.3213851 SPIN=   0.00000
   F   0.1466963  -0.4615100  -0.1597082 SPIN=   0.00000
   F  -0.1466963   0.4615100   0.3402918 SPIN=   0.00000
   F  -0.3569894  -0.3655275  -0.4166807 SPIN=   0.00000
   F   0.3569894   0.3655275   0.0833193 SPIN=   0.00000
%ENDBLOCK POSITIONS_FRAC

# Note: total spin =  16.00

KPOINTS_MP_SPACING 0.07

%BLOCK SPECIES_POT
QC5
%ENDBLOCK SPECIES_POT

SNAP_TO_SYMMETRY
SYMMETRY_GENERATE

