#              Generated by Buildcell
#
# at 07:36:49 (GMT+1.0) 4th August 2020
# in /lustre/scratch/uccabz1/launch_tmp
# on node-c12o-001
# by uccabz1
#
# compiler GCC version 4.9.2
# options -cpp -iprefix /lustre/shared/ucl/apps/gcc/4.9.2/bin/../lib/gcc/x86_64-unknown-linux-gnu/4.9.2/ -mtune=corei7 -march=x86-64 -g -Og
#
# seed    77820467 -1357630895  1685867598 -1406830851  1983104205   338049707   851490810 -1171859604   234968884 -1129188682 -1933416763   -55941680
#
#      Author: C. J. Pickard (cjp20@cam.ac.uk)
#                Space group: Cc
#

%BLOCK LATTICE_ABC
      7.02648      7.08721      8.77894
     92.97073    113.59004     90.00000
%ENDBLOCK LATTICE_ABC

%BLOCK POSITIONS_FRAC
  Li  -0.4117700  -0.1029881  -0.1631640 SPIN=   0.00000
  Li   0.2486060   0.3970119  -0.1631640 SPIN=   0.00000
  Li  -0.4754492   0.4109950  -0.4763421 SPIN=   0.00000
  Li  -0.0008929  -0.0890050  -0.4763421 SPIN=   0.00000
  Fe  -0.1597669   0.2778125  -0.1501386 SPIN=   4.03914
  Fe   0.0096283  -0.2221875  -0.1501386 SPIN=   4.03914
  Fe   0.2416482  -0.2363382   0.3137392 SPIN=   3.96086
  Fe   0.0720910   0.2636618   0.3137392 SPIN=   3.96086
   O  -0.0878517  -0.3259198   0.3693495 SPIN=   0.00000
   O   0.0355013  -0.5331823   0.6067804 SPIN=   0.00000
   O  -0.3113930  -0.5910309   0.3788192 SPIN=   0.00000
   O  -0.2480311  -0.3109278   0.5745203 SPIN=   0.00000
   S  -0.1529436  -0.4402652   0.4823673 SPIN=   0.00000
   O  -0.5427988   0.1740802   0.3693495 SPIN=   0.00000
   O  -0.4287210  -0.0331823   0.6067804 SPIN=   0.00000
   O  -0.3097878  -0.0910309   0.3788192 SPIN=   0.00000
   O  -0.1774487   0.1890722   0.5745203 SPIN=   0.00000
   S  -0.3646891   0.0597348   0.4823673 SPIN=   0.00000
   O  -0.3361788  -0.6169297  -0.0126882 SPIN=   0.00000
   O  -0.4205411  -0.3751998   0.1630629 SPIN=   0.00000
   O  -0.5794064  -0.3629566  -0.1437188 SPIN=   0.00000
   O  -0.2048445  -0.2878321   0.0122308 SPIN=   0.00000
   S  -0.3852427  -0.4107295   0.0047217 SPIN=   0.00000
   O   0.3234906  -0.1169297  -0.0126882 SPIN=   0.00000
   O   0.5836040   0.1248002   0.1630629 SPIN=   0.00000
   O   0.4356876   0.1370434  -0.1437188 SPIN=   0.00000
   O   0.2170753   0.2121679   0.0122308 SPIN=   0.00000
   S   0.3899644   0.0892705   0.0047217 SPIN=   0.00000
   F   0.3846138  -0.3507549  -0.4406299 SPIN=   0.00000
   F   0.1747563   0.1492451  -0.4406299 SPIN=   0.00000
   F   0.1713285  -0.4620189   0.1189389 SPIN=   0.00000
   F  -0.0523895   0.0379811   0.1189389 SPIN=   0.00000
%ENDBLOCK POSITIONS_FRAC

# Note: total spin =  16.00

KPOINTS_MP_SPACING 0.07

%BLOCK SPECIES_POT
QC5
%ENDBLOCK SPECIES_POT

SNAP_TO_SYMMETRY
SYMMETRY_GENERATE

