#              Generated by Buildcell
#
# at 08:12:17 (GMT+1.0) 4th August 2020
# in /lustre/scratch/uccabz1/launch_tmp
# on node-c12d-005
# by uccabz1
#
# compiler GCC version 4.9.2
# options -cpp -iprefix /lustre/shared/ucl/apps/gcc/4.9.2/bin/../lib/gcc/x86_64-unknown-linux-gnu/4.9.2/ -mtune=corei7 -march=x86-64 -g -Og
#
# seed    90216809  1481802012 -1959220568  2140086536  -672201684 -1086564412   961914563  -304468348  1324878130 -1382316964   343962139 -1949665715
#
#      Author: C. J. Pickard (cjp20@cam.ac.uk)
#                Space group: Pm
#

%BLOCK LATTICE_ABC
      6.67011      7.50725      8.31479
     90.00000     90.00000    106.11288
%ENDBLOCK LATTICE_ABC

%BLOCK POSITIONS_FRAC
  Li   0.0674027  -0.3024707   0.2643795 SPIN=   0.00000
  Li   0.0674027  -0.3024707  -0.2643795 SPIN=   0.00000
  Li  -0.0942748   0.1553620  -0.2694509 SPIN=   0.00000
  Li  -0.0942748   0.1553620   0.2694509 SPIN=   0.00000
  Fe  -0.1749716   0.4372337  -0.5000000 SPIN=   5.97347
  Fe   0.3252917  -0.0298867   0.5000000 SPIN=   4.62964
  Fe   0.3086896  -0.0908446   0.0000000 SPIN=   1.64697
  Fe  -0.2236941   0.3419984   0.0000000 SPIN=   3.74992
   O  -0.3924287  -0.0157771  -0.3490054 SPIN=   0.00000
   O  -0.1621010  -0.0946284  -0.1438599 SPIN=   0.00000
   O  -0.3260106  -0.3241308  -0.3524044 SPIN=   0.00000
   O  -0.5424312  -0.2451808  -0.1367602 SPIN=   0.00000
   O  -0.3924287  -0.0157771   0.3490054 SPIN=   0.00000
   O  -0.1621010  -0.0946284   0.1438599 SPIN=   0.00000
   O  -0.3260106  -0.3241308   0.3524044 SPIN=   0.00000
   O  -0.5424312  -0.2451808   0.1367602 SPIN=   0.00000
   O   0.5562427   0.4891093  -0.1362958 SPIN=   0.00000
   O   0.3238185   0.5417938  -0.3522696 SPIN=   0.00000
   O   0.1967309   0.2830028  -0.1603664 SPIN=   0.00000
   O   0.4628916   0.2687959  -0.3636425 SPIN=   0.00000
   O   0.5562427   0.4891093   0.1362958 SPIN=   0.00000
   O   0.3238185   0.5417938   0.3522696 SPIN=   0.00000
   O   0.1967309   0.2830028   0.1603664 SPIN=   0.00000
   O   0.4628916   0.2687959   0.3636425 SPIN=   0.00000
   S   0.3179315   0.4136967   0.5000000 SPIN=   0.00000
   S  -0.2137270  -0.2137070   0.0000000 SPIN=   0.00000
   S  -0.2151208  -0.1272131  -0.5000000 SPIN=   0.00000
   S   0.2798347   0.3504088   0.0000000 SPIN=   0.00000
   F   0.2210093  -0.0465562   0.2524650 SPIN=   0.00000
   F   0.2210093  -0.0465562  -0.2524650 SPIN=   0.00000
   F  -0.1074857   0.4192335  -0.2551141 SPIN=   0.00000
   F  -0.1074857   0.4192335   0.2551141 SPIN=   0.00000
%ENDBLOCK POSITIONS_FRAC

# Note: total spin =  16.00

KPOINTS_MP_SPACING 0.07

%BLOCK SPECIES_POT
QC5
%ENDBLOCK SPECIES_POT

SNAP_TO_SYMMETRY
SYMMETRY_GENERATE

