#              Generated by Buildcell
#
# at 07:36:59 (GMT+1.0) 4th August 2020
# in /lustre/scratch/uccabz1/launch_tmp
# on node-c12g-015
# by uccabz1
#
# compiler GCC version 4.9.2
# options -cpp -iprefix /lustre/shared/ucl/apps/gcc/4.9.2/bin/../lib/gcc/x86_64-unknown-linux-gnu/4.9.2/ -mtune=corei7 -march=x86-64 -g -Og
#
# seed  -640948471  -213441584  1315755317 -1549740934  1086341062 -1553220082   240794333 -1128882675  2010307869   151839664  1745393757   426010339
#
#      Author: C. J. Pickard (cjp20@cam.ac.uk)
#                Space group: P2
#

%BLOCK LATTICE_ABC
      4.11215      9.68531     10.12103
     97.10455     90.00000     90.00000
%ENDBLOCK LATTICE_ABC

%BLOCK POSITIONS_FRAC
  Li  -0.1730458  -0.2975244   0.2339051 SPIN=   0.00000
  Li  -0.1730458   0.2975244  -0.2339051 SPIN=   0.00000
  Li   0.1089577   0.2052068   0.2095767 SPIN=   0.00000
  Li   0.1089577  -0.2052068  -0.2095767 SPIN=   0.00000
  Fe   0.4226743  -0.4704085  -0.3155049 SPIN=   4.42912
  Fe   0.4226743   0.4704085   0.3155049 SPIN=   4.42912
  Fe   0.4377780  -0.0294981   0.3154875 SPIN=   3.57088
  Fe   0.4377780   0.0294981  -0.3154875 SPIN=   3.57088
   O  -0.0963543   0.2601401  -0.0464098 SPIN=   0.00000
   O   0.3653932   0.1276604   0.0315647 SPIN=   0.00000
   O   0.4161953   0.3812561   0.0244845 SPIN=   0.00000
   O   0.3981505   0.2202471  -0.1852637 SPIN=   0.00000
   S   0.2708462   0.2473259  -0.0439061 SPIN=   0.00000
   O  -0.0963543  -0.2601401   0.0464098 SPIN=   0.00000
   O   0.3653932  -0.1276604  -0.0315647 SPIN=   0.00000
   O   0.4161953  -0.3812561  -0.0244845 SPIN=   0.00000
   O   0.3981505  -0.2202471   0.1852637 SPIN=   0.00000
   S   0.2708462  -0.2473259   0.0439061 SPIN=   0.00000
   O   0.2194684   0.3347467  -0.3645846 SPIN=   0.00000
   O   0.2195582   0.1169764  -0.5208569 SPIN=   0.00000
   O   0.1069961   0.3420618  -0.6038383 SPIN=   0.00000
   O  -0.2978091   0.2403464  -0.4628620 SPIN=   0.00000
   S   0.0620534   0.2585328  -0.4880355 SPIN=   0.00000
   O   0.2194684  -0.3347467   0.3645846 SPIN=   0.00000
   O   0.2195582  -0.1169764   0.5208569 SPIN=   0.00000
   O   0.1069961  -0.3420618   0.6038383 SPIN=   0.00000
   O  -0.2978091  -0.2403464   0.4628620 SPIN=   0.00000
   S   0.0620534  -0.2585328   0.4880355 SPIN=   0.00000
   F  -0.2507420  -0.0546345  -0.2023704 SPIN=   0.00000
   F  -0.2507420   0.0546345   0.2023704 SPIN=   0.00000
   F  -0.1994515  -0.4871256  -0.2009452 SPIN=   0.00000
   F  -0.1994515   0.4871256   0.2009452 SPIN=   0.00000
%ENDBLOCK POSITIONS_FRAC

# Note: total spin =  16.00

KPOINTS_MP_SPACING 0.07

%BLOCK SPECIES_POT
QC5
%ENDBLOCK SPECIES_POT

SNAP_TO_SYMMETRY
SYMMETRY_GENERATE

