#              Generated by Buildcell
#
# at 07:47:17 (GMT+1.0) 4th August 2020
# in /lustre/scratch/uccabz1/launch_tmp
# on node-c12f-004
# by uccabz1
#
# compiler GCC version 4.9.2
# options -cpp -iprefix /lustre/shared/ucl/apps/gcc/4.9.2/bin/../lib/gcc/x86_64-unknown-linux-gnu/4.9.2/ -mtune=corei7 -march=x86-64 -g -Og
#
# seed  -781321040   936563560  1595379232  -723254344  -249272443 -1746445650   583998809 -1510445097  -346171300   767543177 -1635743330   605126600
#
#      Author: C. J. Pickard (cjp20@cam.ac.uk)
#                Space group: P-1
#

%BLOCK LATTICE_ABC
      4.05929      9.84966     10.09312
     87.53218     87.55923     83.13615
%ENDBLOCK LATTICE_ABC

%BLOCK POSITIONS_FRAC
  Li  -0.4330848   0.4394292  -0.1726506 SPIN=   0.00000
  Li   0.4330848  -0.4394292   0.1726506 SPIN=   0.00000
  Li   0.1265765   0.2853880   0.3714320 SPIN=   0.00000
  Li  -0.1265765  -0.2853880  -0.3714320 SPIN=   0.00000
  Fe  -0.0344546   0.3291290   0.0733242 SPIN=   5.40945
  Fe   0.0344546  -0.3291290  -0.0733242 SPIN=   5.40945
  Fe   0.0000000   0.0000000   0.5000000 SPIN=   2.09860
  Fe  -0.5000000   0.5000000   0.5000000 SPIN=   3.08250
   O   0.2332306   0.2178968  -0.4344444 SPIN=   0.00000
   O   0.1680201   0.4113581  -0.2832593 SPIN=   0.00000
   O   0.0486316   0.1815979  -0.2000803 SPIN=   0.00000
   O  -0.3279379   0.3158898  -0.3566197 SPIN=   0.00000
   S   0.0304861   0.2816856  -0.3186009 SPIN=   0.00000
   O  -0.2332306  -0.2178968   0.4344444 SPIN=   0.00000
   O  -0.1680201  -0.4113581   0.2832593 SPIN=   0.00000
   O  -0.0486316  -0.1815979   0.2000803 SPIN=   0.00000
   O   0.3279379  -0.3158898   0.3566197 SPIN=   0.00000
   S  -0.0304861  -0.2816856   0.3186009 SPIN=   0.00000
   O  -0.7519999  -0.0525564  -0.2178047 SPIN=   0.00000
   O  -0.2659554   0.0532989  -0.3116832 SPIN=   0.00000
   O  -0.1864789  -0.1751642  -0.1977711 SPIN=   0.00000
   S  -0.3908269  -0.0359164  -0.1988646 SPIN=   0.00000
   O   0.7519999   0.0525564   0.2178047 SPIN=   0.00000
   O   0.2659554  -0.0532989   0.3116832 SPIN=   0.00000
   O   0.1864789   0.1751642   0.1977711 SPIN=   0.00000
   S   0.3908269   0.0359164   0.1988646 SPIN=   0.00000
   O  -0.5000000   0.0000000  -0.5000000 SPIN=   0.00000
   O   0.0000000   0.0000000   0.0000000 SPIN=   0.00000
   F  -0.3470146   0.3205694   0.3566008 SPIN=   0.00000
   F   0.3470146  -0.3205694  -0.3566008 SPIN=   0.00000
   F   0.5069062  -0.2983638   0.0369457 SPIN=   0.00000
   F  -0.5069062   0.2983638  -0.0369457 SPIN=   0.00000
%ENDBLOCK POSITIONS_FRAC

# Note: total spin =  16.00

KPOINTS_MP_SPACING 0.07

%BLOCK SPECIES_POT
QC5
%ENDBLOCK SPECIES_POT

SNAP_TO_SYMMETRY
SYMMETRY_GENERATE

