#              Generated by Buildcell
#
# at 09:04:10 (GMT+1.0) 4th August 2020
# in /lustre/scratch/uccabz1/launch_tmp
# on node-c12l-021
# by uccabz1
#
# compiler GCC version 4.9.2
# options -cpp -iprefix /lustre/shared/ucl/apps/gcc/4.9.2/bin/../lib/gcc/x86_64-unknown-linux-gnu/4.9.2/ -mtune=corei7 -march=x86-64 -g -Og
#
# seed  -700209006   490092312 -2078033702   558044665  1326683174  -215429216   257239948 -2073348100   739222148  1522421997 -1781650915 -1342576680
#
#      Author: C. J. Pickard (cjp20@cam.ac.uk)
#                Space group: Pna21
#

%BLOCK LATTICE_ABC
      6.50219      6.74487      9.12067
     90.00000     90.00000     90.00000
%ENDBLOCK LATTICE_ABC

%BLOCK POSITIONS_FRAC
  Li  -0.3664315  -0.0531102   0.4388913 SPIN=   0.00000
  Li   0.3664315   0.0531102  -0.0611087 SPIN=   0.00000
  Li  -0.1335685   0.4468898   0.4388913 SPIN=   0.00000
  Li   0.1335685  -0.4468898  -0.0611087 SPIN=   0.00000
  Fe   0.0225509  -0.1368028   0.2614154 SPIN=   4.00000
  Fe  -0.0225509   0.1368028  -0.2385846 SPIN=   4.00000
  Fe   0.4774491   0.3631972   0.2614154 SPIN=   4.00000
  Fe  -0.4774491  -0.3631972  -0.2385846 SPIN=   4.00000
   O  -0.4766251   0.0728494   0.1794195 SPIN=   0.00000
   O  -0.4591471  -0.2076750   0.0049545 SPIN=   0.00000
   O  -0.6766418  -0.2326642   0.2268701 SPIN=   0.00000
   O  -0.2973851  -0.2366035   0.2496440 SPIN=   0.00000
   S  -0.4774498  -0.1510233   0.1652220 SPIN=   0.00000
   O   0.4766251  -0.0728494  -0.3205805 SPIN=   0.00000
   O   0.4591471   0.2076750  -0.4950455 SPIN=   0.00000
   O   0.6766418   0.2326642  -0.2731299 SPIN=   0.00000
   O   0.2973851   0.2366035  -0.2503560 SPIN=   0.00000
   S   0.4774498   0.1510233  -0.3347780 SPIN=   0.00000
   O  -0.0233749   0.5728494   0.1794195 SPIN=   0.00000
   O  -0.0408529   0.2923250   0.0049545 SPIN=   0.00000
   O   0.1766418   0.2673358   0.2268701 SPIN=   0.00000
   O  -0.2026149   0.2633965   0.2496440 SPIN=   0.00000
   S  -0.0225502   0.3489767   0.1652220 SPIN=   0.00000
   O   0.0233749  -0.5728494  -0.3205805 SPIN=   0.00000
   O   0.0408529  -0.2923250  -0.4950455 SPIN=   0.00000
   O  -0.1766418  -0.2673358  -0.2731299 SPIN=   0.00000
   O   0.2026149  -0.2633965  -0.2503560 SPIN=   0.00000
   S   0.0225502  -0.3489767  -0.3347780 SPIN=   0.00000
   F  -0.0018219  -0.1108586  -0.0002342 SPIN=   0.00000
   F   0.0018219   0.1108586   0.4997658 SPIN=   0.00000
   F  -0.4981781   0.3891414  -0.0002342 SPIN=   0.00000
   F   0.4981781  -0.3891414   0.4997658 SPIN=   0.00000
%ENDBLOCK POSITIONS_FRAC

# Note: total spin =  16.00

KPOINTS_MP_SPACING 0.07

%BLOCK SPECIES_POT
QC5
%ENDBLOCK SPECIES_POT

SNAP_TO_SYMMETRY
SYMMETRY_GENERATE

