#              Generated by Buildcell
#
# at 16:22:49 (GMT+1.0) 18th August 2020
# in /lustre/scratch/uccabz1/launch_tmp
# on node-c12o-008
# by uccabz1
#
# compiler GCC version 4.9.2
# options -cpp -iprefix /lustre/shared/ucl/apps/gcc/4.9.2/bin/../lib/gcc/x86_64-unknown-linux-gnu/4.9.2/ -mtune=corei7 -march=x86-64 -g -Og
#
# seed   922148755   -78278906  1599871333 -1554816070 -2112389628   354716903 -1377323797 -1879041216 -1743672919  1471910559   311876934  1941676973
#
#      Author: C. J. Pickard (cjp20@cam.ac.uk)
#                Space group: Cc
#

%BLOCK LATTICE_ABC
      5.92966      5.92966     12.13395
     95.80386     95.80386    107.87898
%ENDBLOCK LATTICE_ABC

%BLOCK POSITIONS_FRAC
  Li  -0.1583297  -0.4711714  -0.4574784 SPIN=   0.00000
  Li  -0.4711714  -0.1583297   0.0425216 SPIN=   0.00000
  Li   0.3976944   0.0325655  -0.2132494 SPIN=   0.00000
  Li   0.0325655   0.3976944   0.2867506 SPIN=   0.00000
  Fe   0.2954890  -0.0892719   0.3011485 SPIN=   3.78288
  Fe  -0.0892719   0.2954890  -0.1988515 SPIN=   3.78288
  Fe   0.3183122   0.2352803   0.0483717 SPIN=   4.21712
  Fe   0.2352803   0.3183122  -0.4516283 SPIN=   4.21712
   O  -0.3252676   0.4163642   0.2084854 SPIN=   0.00000
   O  -0.5400606   0.2827913   0.3668421 SPIN=   0.00000
   O  -0.6316996   0.5920853   0.2648613 SPIN=   0.00000
   O  -0.2444602   0.6884757   0.3868204 SPIN=   0.00000
   S  -0.4353720   0.4949291   0.3067523 SPIN=   0.00000
   O   0.4163642  -0.3252676  -0.2915146 SPIN=   0.00000
   O   0.2827913  -0.5400606  -0.1331579 SPIN=   0.00000
   O   0.5920853  -0.6316996  -0.2351387 SPIN=   0.00000
   O   0.6884757  -0.2444602  -0.1131796 SPIN=   0.00000
   S   0.4949291  -0.4353720  -0.1932477 SPIN=   0.00000
   O  -0.5740528   0.0838054  -0.4283812 SPIN=   0.00000
   O  -0.3549813  -0.2105839  -0.4316748 SPIN=   0.00000
   O  -0.1323114   0.2222579  -0.3851275 SPIN=   0.00000
   O  -0.3278434   0.0532989  -0.5787009 SPIN=   0.00000
   S  -0.3472972   0.0371946  -0.4559711 SPIN=   0.00000
   O   0.0838054  -0.5740528   0.0716188 SPIN=   0.00000
   O  -0.2105839  -0.3549813   0.0683252 SPIN=   0.00000
   O   0.2222579  -0.1323114   0.1148725 SPIN=   0.00000
   O   0.0532989  -0.3278434  -0.0787009 SPIN=   0.00000
   S   0.0371946  -0.3472972   0.0440289 SPIN=   0.00000
   F   0.1265857  -0.4491476   0.4704043 SPIN=   0.00000
   F  -0.4491476   0.1265857  -0.0295957 SPIN=   0.00000
   F   0.0480264  -0.1142889  -0.2659179 SPIN=   0.00000
   F  -0.1142889   0.0480264   0.2340821 SPIN=   0.00000
%ENDBLOCK POSITIONS_FRAC

# Note: total spin =  16.00

KPOINTS_MP_SPACING 0.07

%BLOCK SPECIES_POT
QC5
%ENDBLOCK SPECIES_POT

SNAP_TO_SYMMETRY
SYMMETRY_GENERATE

