#              Generated by Buildcell
#
# at 09:53:07 (GMT+1.0) 18th August 2020
# in /lustre/scratch/uccabz1/launch_tmp
# on node-c12e-006
# by uccabz1
#
# compiler GCC version 4.9.2
# options -cpp -iprefix /lustre/shared/ucl/apps/gcc/4.9.2/bin/../lib/gcc/x86_64-unknown-linux-gnu/4.9.2/ -mtune=corei7 -march=x86-64 -g -Og
#
# seed  1291968617  2095611444  -103703413  1791475400   670512299  1901811959 -1626499679   478886390  1226929393   315399523 -1602492589   437398925
#
#      Author: C. J. Pickard (cjp20@cam.ac.uk)
#                Space group: C2
#

%BLOCK LATTICE_ABC
      7.42616      7.62829      7.62829
    109.79673     95.92047     95.92047
%ENDBLOCK LATTICE_ABC

%BLOCK POSITIONS_FRAC
  Li  -0.2362628   0.4483399  -0.3412950 SPIN=   0.00000
  Li   0.2362628   0.3412950  -0.4483399 SPIN=   0.00000
  Li   0.4829978   0.4934082   0.0506791 SPIN=   0.00000
  Li  -0.4829978  -0.0506791  -0.4934082 SPIN=   0.00000
  Fe  -0.1794014   0.2942769  -0.0471555 SPIN=   2.70173
  Fe   0.1794014   0.0471555  -0.2942769 SPIN=   2.70173
  Fe   0.4015766   0.1993726   0.2061960 SPIN=   5.29827
  Fe  -0.4015766  -0.2061960  -0.1993726 SPIN=   5.29827
   O   0.1325852  -0.5579029   0.3470046 SPIN=   0.00000
   O   0.4043709  -0.3613892   0.5680071 SPIN=   0.00000
   O   0.1417829  -0.2127947   0.4891651 SPIN=   0.00000
   O   0.3402289  -0.3439355   0.2499418 SPIN=   0.00000
   S   0.2547420  -0.3690056   0.4135296 SPIN=   0.00000
   O  -0.1325852  -0.3470046   0.5579029 SPIN=   0.00000
   O  -0.4043709  -0.5680071   0.3613892 SPIN=   0.00000
   O  -0.1417829  -0.4891651   0.2127947 SPIN=   0.00000
   O  -0.3402289  -0.2499418   0.3439355 SPIN=   0.00000
   S  -0.2547420  -0.4135296   0.3690056 SPIN=   0.00000
   O  -0.3842947  -0.0021168   0.2279485 SPIN=   0.00000
   O  -0.1410764   0.2464210   0.4431210 SPIN=   0.00000
   O  -0.1237995   0.1179971   0.1017277 SPIN=   0.00000
   O  -0.0752437  -0.0788110   0.2972161 SPIN=   0.00000
   S  -0.1811036   0.0708726   0.2675033 SPIN=   0.00000
   O   0.3842947  -0.2279485   0.0021168 SPIN=   0.00000
   O   0.1410764  -0.4431210  -0.2464210 SPIN=   0.00000
   O   0.1237995  -0.1017277  -0.1179971 SPIN=   0.00000
   O   0.0752437  -0.2972161   0.0788110 SPIN=   0.00000
   S   0.1811036  -0.2675033  -0.0708726 SPIN=   0.00000
   F   0.2574443   0.2832638  -0.0282070 SPIN=   0.00000
   F  -0.2574443   0.0282070  -0.2832638 SPIN=   0.00000
   F  -0.2903820  -0.4114389  -0.0957003 SPIN=   0.00000
   F   0.2903820   0.0957003   0.4114389 SPIN=   0.00000
%ENDBLOCK POSITIONS_FRAC

# Note: total spin =  16.00

KPOINTS_MP_SPACING 0.07

%BLOCK SPECIES_POT
QC5
%ENDBLOCK SPECIES_POT

SNAP_TO_SYMMETRY
SYMMETRY_GENERATE

