#              Generated by Buildcell
#
# at 06:22:17 (GMT+1.0) 4th August 2020
# in /lustre/scratch/uccabz1/launch_tmp
# on node-c12c-026
# by uccabz1
#
# compiler GCC version 4.9.2
# options -cpp -iprefix /lustre/shared/ucl/apps/gcc/4.9.2/bin/../lib/gcc/x86_64-unknown-linux-gnu/4.9.2/ -mtune=corei7 -march=x86-64 -g -Og
#
# seed -1498748380   725931198 -2014180994  1302803832   493724933 -1821301334   507892696 -1456260060  -920510720  -834376953  1279068648  -797721755
#
#      Author: C. J. Pickard (cjp20@cam.ac.uk)
#                Space group: C2
#

%BLOCK LATTICE_ABC
      5.60746      6.70335     11.88026
     86.01896     80.44528     65.27537
%ENDBLOCK LATTICE_ABC

%BLOCK POSITIONS_FRAC
  Li  -0.0582077   0.4664908  -0.3875455 SPIN=   0.00000
  Li  -0.4082832   0.4664908   0.3875455 SPIN=   0.00000
  Li   0.2540109  -0.1800973  -0.3557424 SPIN=   0.00000
  Li  -0.0739136  -0.1800973   0.3557424 SPIN=   0.00000
  Fe   0.4850061  -0.4069141  -0.1485233 SPIN=   4.62896
  Fe  -0.0780921  -0.4069141   0.1485233 SPIN=   4.62896
  Fe   0.1847277   0.2072257   0.3912071 SPIN=   3.37104
  Fe  -0.3919534   0.2072257  -0.3912071 SPIN=   3.37104
   O  -0.6667171   0.4822207   0.0950702 SPIN=   0.00000
   O  -0.4790141   0.1469211   0.2108784 SPIN=   0.00000
   O  -0.2007715   0.3425844   0.1294541 SPIN=   0.00000
   O  -0.3283430   0.1381891   0.0025933 SPIN=   0.00000
   S  -0.4187114   0.2774789   0.1094990 SPIN=   0.00000
   O   0.1844963   0.4822207  -0.0950702 SPIN=   0.00000
   O   0.3320929   0.1469211  -0.2108784 SPIN=   0.00000
   O  -0.1418129   0.3425844  -0.1294541 SPIN=   0.00000
   O   0.1901539   0.1381891  -0.0025933 SPIN=   0.00000
   S   0.1412326   0.2774789  -0.1094990 SPIN=   0.00000
   O  -0.3937605  -0.1217988  -0.0974908 SPIN=   0.00000
   O   0.0599284  -0.1452400  -0.1015596 SPIN=   0.00000
   O  -0.2275829   0.1019901  -0.2354213 SPIN=   0.00000
   O  -0.0436716  -0.3009260  -0.2602530 SPIN=   0.00000
   S  -0.1512717  -0.1164937  -0.1736812 SPIN=   0.00000
   O   0.5155593  -0.1217988   0.0974908 SPIN=   0.00000
   O   0.0853116  -0.1452400   0.1015596 SPIN=   0.00000
   O   0.1255928   0.1019901   0.2354213 SPIN=   0.00000
   O   0.3445976  -0.3009260   0.2602530 SPIN=   0.00000
   S   0.2677653  -0.1164937   0.1736812 SPIN=   0.00000
   F   0.1606794   0.1166874  -0.3950985 SPIN=   0.00000
   F  -0.2773668   0.1166874   0.3950985 SPIN=   0.00000
   F   0.4516676  -0.4897901  -0.3402279 SPIN=   0.00000
   F   0.0381226  -0.4897901   0.3402279 SPIN=   0.00000
%ENDBLOCK POSITIONS_FRAC

# Note: total spin =  16.00

KPOINTS_MP_SPACING 0.07

%BLOCK SPECIES_POT
QC5
%ENDBLOCK SPECIES_POT

SNAP_TO_SYMMETRY
SYMMETRY_GENERATE

