#              Generated by Buildcell
#
# at 06:27:30 (GMT+1.0) 4th August 2020
# in /lustre/scratch/uccabz1/launch_tmp
# on node-c12e-007
# by uccabz1
#
# compiler GCC version 4.9.2
# options -cpp -iprefix /lustre/shared/ucl/apps/gcc/4.9.2/bin/../lib/gcc/x86_64-unknown-linux-gnu/4.9.2/ -mtune=corei7 -march=x86-64 -g -Og
#
# seed   195831247   -97280559  -582024775  -756093420 -1351820291  -920183613  1173340758  -131467344  1409488286  1260323590   126158251 -1350665340
#
#      Author: C. J. Pickard (cjp20@cam.ac.uk)
#                Space group: C2
#

%BLOCK LATTICE_ABC
      7.66726      8.05526      8.06141
    110.96850     90.00000    118.41901
%ENDBLOCK LATTICE_ABC

%BLOCK POSITIONS_FRAC
  Li  -0.0079539   0.2817867   0.1235904 SPIN=   0.00000
  Li  -0.2897406  -0.2817867  -0.1235904 SPIN=   0.00000
  Li  -0.4796489  -0.2647870   0.3089302 SPIN=   0.00000
  Li  -0.2148620   0.2647870  -0.3089302 SPIN=   0.00000
  Fe  -0.4445473   0.4674071   0.4744007 SPIN=   3.75649
  Fe   0.0880455  -0.4674071  -0.4744007 SPIN=   3.75649
  Fe  -0.1544666  -0.4335366   0.1141022 SPIN=   4.24351
  Fe   0.2790700   0.4335366  -0.1141022 SPIN=   4.24351
   O   0.1916917   0.2316821   0.4459480 SPIN=   0.00000
   O   0.2294750  -0.0516080   0.2288586 SPIN=   0.00000
   O   0.1577026   0.1647850   0.1197585 SPIN=   0.00000
   O  -0.1077049  -0.0826063   0.2227159 SPIN=   0.00000
   S   0.1177911   0.0655632   0.2543202 SPIN=   0.00000
   O  -0.0399904  -0.2316821  -0.4459480 SPIN=   0.00000
   O   0.2810830   0.0516080  -0.2288586 SPIN=   0.00000
   O  -0.0070824  -0.1647850  -0.1197585 SPIN=   0.00000
   O  -0.0250986   0.0826063  -0.2227159 SPIN=   0.00000
   S   0.0522279  -0.0655632  -0.2543202 SPIN=   0.00000
   O  -0.2990652   0.1272679  -0.1438179 SPIN=   0.00000
   O  -0.6114082  -0.1762198  -0.1448166 SPIN=   0.00000
   O  -0.3589596  -0.2249852  -0.3152027 SPIN=   0.00000
   O  -0.5665197  -0.1102406  -0.4234106 SPIN=   0.00000
   S  -0.4589882  -0.0960444  -0.2568120 SPIN=   0.00000
   O  -0.4263331  -0.1272679   0.1438179 SPIN=   0.00000
   O  -0.4351884   0.1762198   0.1448166 SPIN=   0.00000
   O  -0.1339744   0.2249852   0.3152027 SPIN=   0.00000
   O  -0.4562791   0.1102406   0.4234106 SPIN=   0.00000
   S  -0.3629438   0.0960444   0.2568120 SPIN=   0.00000
   F   0.1266143  -0.3777362   0.3032409 SPIN=   0.00000
   F  -0.4956495   0.3777362  -0.3032409 SPIN=   0.00000
   F  -0.4220441  -0.4739067   0.2249934 SPIN=   0.00000
   F   0.0518626   0.4739067  -0.2249934 SPIN=   0.00000
%ENDBLOCK POSITIONS_FRAC

# Note: total spin =  16.00

KPOINTS_MP_SPACING 0.07

%BLOCK SPECIES_POT
QC5
%ENDBLOCK SPECIES_POT

SNAP_TO_SYMMETRY
SYMMETRY_GENERATE

