#              Generated by Buildcell
#
# at 12:27:48 (GMT+1.0) 18th August 2020
# in /lustre/scratch/uccabz1/launch_tmp
# on node-c12p-008
# by uccabz1
#
# compiler GCC version 4.9.2
# options -cpp -iprefix /lustre/shared/ucl/apps/gcc/4.9.2/bin/../lib/gcc/x86_64-unknown-linux-gnu/4.9.2/ -mtune=corei7 -march=x86-64 -g -Og
#
# seed  -320968710  1489704447 -1838234885   928822512  1956192887  -313467220 -1094099215  1954124805   899111424    -2567468  -469001373  1425916832
#
#      Author: C. J. Pickard (cjp20@cam.ac.uk)
#                Space group: P-1
#

%BLOCK LATTICE_ABC
      4.45191      9.49946      9.72664
     98.07195     90.77294    100.59584
%ENDBLOCK LATTICE_ABC

%BLOCK POSITIONS_FRAC
  Li  -0.7357972  -0.4385089  -0.3333925 SPIN=   0.00000
  Li   0.7357972   0.4385089   0.3333925 SPIN=   0.00000
  Li  -0.2716010  -0.1043432   0.1253938 SPIN=   0.00000
  Li   0.2716010   0.1043432  -0.1253938 SPIN=   0.00000
  Fe  -0.7317131  -0.4655088   0.1582741 SPIN=   5.02666
  Fe   0.7317131   0.4655088  -0.1582741 SPIN=   5.02666
  Fe   0.3066975   0.1496092   0.2784366 SPIN=   2.97334
  Fe  -0.3066975  -0.1496092  -0.2784366 SPIN=   2.97334
   O   0.7604878   0.2332388  -0.2160586 SPIN=   0.00000
   O   0.6286062   0.2663521  -0.4559456 SPIN=   0.00000
   O   0.2920686   0.0859735  -0.3389591 SPIN=   0.00000
   O   0.8012181   0.0426824  -0.4126795 SPIN=   0.00000
   S   0.6205952   0.1570617  -0.3559107 SPIN=   0.00000
   O  -0.7604878  -0.2332388   0.2160586 SPIN=   0.00000
   O  -0.6286062  -0.2663521   0.4559456 SPIN=   0.00000
   O  -0.2920686  -0.0859735   0.3389591 SPIN=   0.00000
   O  -0.8012181  -0.0426824   0.4126795 SPIN=   0.00000
   S  -0.6205952  -0.1570617   0.3559107 SPIN=   0.00000
   O  -0.1019594  -0.2590068  -0.0002831 SPIN=   0.00000
   O   0.1270131  -0.1127073  -0.1770754 SPIN=   0.00000
   O   0.4193773  -0.2750496  -0.0779002 SPIN=   0.00000
   O   0.3256173  -0.0527867   0.0670998 SPIN=   0.00000
   S   0.1925121  -0.1748876  -0.0470397 SPIN=   0.00000
   O   0.1019594   0.2590068   0.0002831 SPIN=   0.00000
   O  -0.1270131   0.1127073   0.1770754 SPIN=   0.00000
   O  -0.4193773   0.2750496   0.0779002 SPIN=   0.00000
   O  -0.3256173   0.0527867  -0.0670998 SPIN=   0.00000
   S  -0.1925121   0.1748876   0.0470397 SPIN=   0.00000
   F   0.2307439   0.4389747  -0.1712494 SPIN=   0.00000
   F  -0.2307439  -0.4389747   0.1712494 SPIN=   0.00000
   F   0.1794421   0.3294137   0.4075993 SPIN=   0.00000
   F  -0.1794421  -0.3294137  -0.4075993 SPIN=   0.00000
%ENDBLOCK POSITIONS_FRAC

# Note: total spin =  16.00

KPOINTS_MP_SPACING 0.07

%BLOCK SPECIES_POT
QC5
%ENDBLOCK SPECIES_POT

SNAP_TO_SYMMETRY
SYMMETRY_GENERATE

