#              Generated by Buildcell
#
# at 09:32:29 (GMT+1.0) 18th August 2020
# in /lustre/scratch/uccabz1/launch_tmp
# on node-c12n-031
# by uccabz1
#
# compiler GCC version 4.9.2
# options -cpp -iprefix /lustre/shared/ucl/apps/gcc/4.9.2/bin/../lib/gcc/x86_64-unknown-linux-gnu/4.9.2/ -mtune=corei7 -march=x86-64 -g -Og
#
# seed  -596096963   313292133 -1060124452 -1838076757 -1877562145  -862272016   978531242 -1128513036  1977059783 -1729227529 -1796484587   377351757
#
#      Author: C. J. Pickard (cjp20@cam.ac.uk)
#                Space group: I-4
#

%BLOCK LATTICE_ABC
      8.26387      8.26387      8.26387
     90.27234    119.84289    119.84289
%ENDBLOCK LATTICE_ABC

%BLOCK POSITIONS_FRAC
  Li   0.3817718   0.2227970   0.0328449 SPIN=   0.00000
  Li  -0.3817718  -0.3489269  -0.1589748 SPIN=   0.00000
  Li   0.1899520  -0.0328449   0.3489269 SPIN=   0.00000
  Li  -0.1899520   0.1589748  -0.2227970 SPIN=   0.00000
  Fe   0.1355261  -0.3838257  -0.0949218 SPIN=   4.00000
  Fe  -0.1355261  -0.2304479   0.4806482 SPIN=   4.00000
  Fe  -0.2889039   0.0949218   0.2304479 SPIN=   4.00000
  Fe   0.2889039  -0.4806482   0.3838257 SPIN=   4.00000
   O   0.3433511   0.4929539  -0.1219267 SPIN=   0.00000
   O   0.3079847   0.3180087  -0.3939907 SPIN=   0.00000
   O  -0.0233702   0.3056928  -0.4540067 SPIN=   0.00000
   O   0.1098502   0.1266707  -0.2455986 SPIN=   0.00000
   S   0.1844540   0.3108315  -0.3038807 SPIN=   0.00000
   O  -0.3433511  -0.4652777   0.1496028 SPIN=   0.00000
   O  -0.3079847  -0.7019754   0.0100240 SPIN=   0.00000
   O   0.0233702  -0.4306366   0.3290630 SPIN=   0.00000
   O  -0.1098502  -0.3554489   0.0168204 SPIN=   0.00000
   S  -0.1844540  -0.4883347   0.1263776 SPIN=   0.00000
   O  -0.3851194   0.1219267   0.4652777 SPIN=   0.00000
   O  -0.2880005   0.3939907   0.7019754 SPIN=   0.00000
   O  -0.2403005   0.4540067   0.4306366 SPIN=   0.00000
   O  -0.6277307   0.2455986   0.3554489 SPIN=   0.00000
   S  -0.3852878   0.3038807   0.4883347 SPIN=   0.00000
   O   0.3851194  -0.1496028  -0.4929539 SPIN=   0.00000
   O   0.2880005  -0.0100240  -0.3180087 SPIN=   0.00000
   O   0.2403005  -0.3290630  -0.3056928 SPIN=   0.00000
   O   0.6277307  -0.0168204  -0.1266707 SPIN=   0.00000
   S   0.3852878  -0.1263776  -0.3108315 SPIN=   0.00000
   F   0.1250685   0.3575148   0.0841520 SPIN=   0.00000
   F  -0.1250685  -0.0409165   0.2324462 SPIN=   0.00000
   F   0.2733628  -0.0841520   0.0409165 SPIN=   0.00000
   F  -0.2733628  -0.2324462  -0.3575148 SPIN=   0.00000
%ENDBLOCK POSITIONS_FRAC

# Note: total spin =  16.00

KPOINTS_MP_SPACING 0.07

%BLOCK SPECIES_POT
QC5
%ENDBLOCK SPECIES_POT

SNAP_TO_SYMMETRY
SYMMETRY_GENERATE

