#              Generated by Buildcell
#
# at 17:33:14 (GMT+1.0) 18th August 2020
# in /lustre/scratch/uccabz1/launch_tmp
# on node-c12a-010
# by uccabz1
#
# compiler GCC version 4.9.2
# options -cpp -iprefix /lustre/shared/ucl/apps/gcc/4.9.2/bin/../lib/gcc/x86_64-unknown-linux-gnu/4.9.2/ -mtune=corei7 -march=x86-64 -g -Og
#
# seed  2065386652  -990841759 -1896327954 -1682369153   244026046  -985121022   291056811   179329170  1478004197 -1418677008  -958304619  1511165449
#
#      Author: C. J. Pickard (cjp20@cam.ac.uk)
#                Space group: P-1
#

%BLOCK LATTICE_ABC
      7.46202      7.62688      8.60900
     66.83211     73.17108     63.74788
%ENDBLOCK LATTICE_ABC

%BLOCK POSITIONS_FRAC
  Li   0.0764989   0.4887888  -0.2881868 SPIN=   0.00000
  Li  -0.0764989  -0.4887888   0.2881868 SPIN=   0.00000
  Li   0.3864024   0.2252916   0.0879331 SPIN=   0.00000
  Li  -0.3864024  -0.2252916  -0.0879331 SPIN=   0.00000
  Fe  -0.3943385   0.2515146  -0.2940490 SPIN=   3.56577
  Fe   0.3943385  -0.2515146   0.2940490 SPIN=   3.56577
  Fe  -0.1518342  -0.1651963   0.4406173 SPIN=   4.43423
  Fe   0.1518342   0.1651963  -0.4406173 SPIN=   4.43423
   O   0.3326253   0.2208848  -0.2241870 SPIN=   0.00000
   O   0.0619369   0.2681162   0.0200889 SPIN=   0.00000
   O   0.3580819  -0.0592421   0.0507387 SPIN=   0.00000
   O   0.1054050   0.0292482  -0.1283070 SPIN=   0.00000
   S   0.2145123   0.1147518  -0.0704166 SPIN=   0.00000
   O  -0.3326253  -0.2208848   0.2241870 SPIN=   0.00000
   O  -0.0619369  -0.2681162  -0.0200889 SPIN=   0.00000
   O  -0.3580819   0.0592421  -0.0507387 SPIN=   0.00000
   O  -0.1054050  -0.0292482   0.1283070 SPIN=   0.00000
   S  -0.2145123  -0.1147518   0.0704166 SPIN=   0.00000
   O   0.4188834  -0.3716893  -0.3973713 SPIN=   0.00000
   O   0.3848918  -0.2653429  -0.1499233 SPIN=   0.00000
   O   0.2282799  -0.5047136  -0.1212185 SPIN=   0.00000
   O   0.0882169  -0.1394684  -0.2936569 SPIN=   0.00000
   S   0.2800680  -0.3203036  -0.2405425 SPIN=   0.00000
   O  -0.4188834   0.3716893   0.3973713 SPIN=   0.00000
   O  -0.3848918   0.2653429   0.1499233 SPIN=   0.00000
   O  -0.2282799   0.5047136   0.1212185 SPIN=   0.00000
   O  -0.0882169   0.1394684   0.2936569 SPIN=   0.00000
   S  -0.2800680   0.3203036   0.2405425 SPIN=   0.00000
   F   0.1730004  -0.3546047   0.3707376 SPIN=   0.00000
   F  -0.1730004   0.3546047  -0.3707376 SPIN=   0.00000
   F   0.3009849   0.1183928   0.3401544 SPIN=   0.00000
   F  -0.3009849  -0.1183928  -0.3401544 SPIN=   0.00000
%ENDBLOCK POSITIONS_FRAC

# Note: total spin =  16.00

KPOINTS_MP_SPACING 0.07

%BLOCK SPECIES_POT
QC5
%ENDBLOCK SPECIES_POT

SNAP_TO_SYMMETRY
SYMMETRY_GENERATE

