#              Generated by Buildcell
#
# at 06:00:26 (GMT+1.0) 4th August 2020
# in /lustre/scratch/uccabz1/launch_tmp
# on node-c12c-019
# by uccabz1
#
# compiler GCC version 4.9.2
# options -cpp -iprefix /lustre/shared/ucl/apps/gcc/4.9.2/bin/../lib/gcc/x86_64-unknown-linux-gnu/4.9.2/ -mtune=corei7 -march=x86-64 -g -Og
#
# seed  -250433514  -948301197  1856083500   731294825 -1981941863 -1266008771  2113125380 -1331882618  -611375691   297216860 -1283175687  1683817276
#
#      Author: C. J. Pickard (cjp20@cam.ac.uk)
#                Space group: P21212
#

%BLOCK LATTICE_ABC
      3.88343      7.73575     13.31502
     90.00000     90.00000     90.00000
%ENDBLOCK LATTICE_ABC

%BLOCK POSITIONS_FRAC
  Li   0.1862800  -0.2536858  -0.0340468 SPIN=   0.00000
  Li   0.1862800   0.2536858   0.0340468 SPIN=   0.00000
  Li  -0.1862800  -0.2463142   0.4659532 SPIN=   0.00000
  Li  -0.1862800   0.2463142  -0.4659532 SPIN=   0.00000
  Fe   0.3151600  -0.0567862   0.1483904 SPIN=   4.00000
  Fe   0.3151600   0.0567862  -0.1483904 SPIN=   4.00000
  Fe  -0.3151600  -0.4432138  -0.3516096 SPIN=   4.00000
  Fe  -0.3151600   0.4432138   0.3516096 SPIN=   4.00000
   O   0.3157598  -0.1801432  -0.2743133 SPIN=   0.00000
   O  -0.2024792  -0.1036710  -0.3729448 SPIN=   0.00000
   O   0.3187030  -0.2124873  -0.4592298 SPIN=   0.00000
   O   0.3191108   0.0793286  -0.3830428 SPIN=   0.00000
   S   0.1877736  -0.1042432  -0.3723827 SPIN=   0.00000
   O   0.3157598   0.1801432   0.2743133 SPIN=   0.00000
   O  -0.2024792   0.1036710   0.3729448 SPIN=   0.00000
   O   0.3187030   0.2124873   0.4592298 SPIN=   0.00000
   O   0.3191108  -0.0793286   0.3830428 SPIN=   0.00000
   S   0.1877736   0.1042432   0.3723827 SPIN=   0.00000
   O  -0.3157598  -0.3198568   0.2256867 SPIN=   0.00000
   O   0.2024792  -0.3963290   0.1270552 SPIN=   0.00000
   O  -0.3187030  -0.2875127   0.0407702 SPIN=   0.00000
   O  -0.3191108  -0.5793286   0.1169572 SPIN=   0.00000
   S  -0.1877736  -0.3957568   0.1276173 SPIN=   0.00000
   O  -0.3157598   0.3198568  -0.2256867 SPIN=   0.00000
   O   0.2024792   0.3963290  -0.1270552 SPIN=   0.00000
   O  -0.3187030   0.2875127  -0.0407702 SPIN=   0.00000
   O  -0.3191108   0.5793286  -0.1169572 SPIN=   0.00000
   S  -0.1877736   0.3957568  -0.1276173 SPIN=   0.00000
   F  -0.1855743  -0.0602140  -0.1336845 SPIN=   0.00000
   F  -0.1855743   0.0602140   0.1336845 SPIN=   0.00000
   F   0.1855743  -0.4397860   0.3663155 SPIN=   0.00000
   F   0.1855743   0.4397860  -0.3663155 SPIN=   0.00000
%ENDBLOCK POSITIONS_FRAC

# Note: total spin =  16.00

KPOINTS_MP_SPACING 0.07

%BLOCK SPECIES_POT
QC5
%ENDBLOCK SPECIES_POT

SNAP_TO_SYMMETRY
SYMMETRY_GENERATE

