#              Generated by Buildcell
#
# at 06:23:31 (GMT+1.0) 4th August 2020
# in /lustre/scratch/uccabz1/launch_tmp
# on node-c12m-016
# by uccabz1
#
# compiler GCC version 4.9.2
# options -cpp -iprefix /lustre/shared/ucl/apps/gcc/4.9.2/bin/../lib/gcc/x86_64-unknown-linux-gnu/4.9.2/ -mtune=corei7 -march=x86-64 -g -Og
#
# seed -1346883978  1573661779  -923985654  -238318798 -1907250510  -657369283 -1601275812 -1707760620  2021488857  -299296567  -910229389   -99875509
#
#      Author: C. J. Pickard (cjp20@cam.ac.uk)
#                Space group: Pc
#

%BLOCK LATTICE_ABC
      3.94979      7.80538     12.97476
     90.35057     90.00000     90.00000
%ENDBLOCK LATTICE_ABC

%BLOCK POSITIONS_FRAC
  Li   0.0153560  -0.4471887   0.3868066 SPIN=   0.00000
  Li  -0.0153560   0.0528113   0.3868066 SPIN=   0.00000
  Li   0.2428649   0.1181688   0.1024211 SPIN=   0.00000
  Li  -0.2428649  -0.3818312   0.1024211 SPIN=   0.00000
  Fe   0.2571088  -0.1946749   0.2324846 SPIN=   4.10798
  Fe  -0.2571088   0.3053251   0.2324846 SPIN=   4.10798
  Fe   0.3122895  -0.2355408  -0.2224496 SPIN=   3.89202
  Fe  -0.3122895   0.2644592  -0.2224496 SPIN=   3.89202
   O   0.2073709   0.2915506  -0.3821028 SPIN=   0.00000
   O  -0.2390424   0.4727045  -0.4591506 SPIN=   0.00000
   O  -0.2950421   0.1569218  -0.4628000 SPIN=   0.00000
   O   0.1351988   0.2989506  -0.5714989 SPIN=   0.00000
   S  -0.0478787   0.3050319  -0.4688881 SPIN=   0.00000
   O  -0.2073709  -0.2084494  -0.3821028 SPIN=   0.00000
   O   0.2390424  -0.0272955  -0.4591506 SPIN=   0.00000
   O   0.2950421  -0.3430782  -0.4628000 SPIN=   0.00000
   O  -0.1351988  -0.2010494  -0.5714989 SPIN=   0.00000
   S   0.0478787  -0.1949681  -0.4688881 SPIN=   0.00000
   O  -0.3578026  -0.2109434  -0.0814622 SPIN=   0.00000
   O  -0.3313323  -0.0324626   0.0766455 SPIN=   0.00000
   O   0.0031170   0.0481798  -0.0768897 SPIN=   0.00000
   O   0.1635229  -0.2069750   0.0243424 SPIN=   0.00000
   S  -0.1306238  -0.1005503  -0.0143410 SPIN=   0.00000
   O   0.3578026   0.2890566  -0.0814622 SPIN=   0.00000
   O   0.3313323   0.4675374   0.0766455 SPIN=   0.00000
   O  -0.0031170   0.5481798  -0.0768897 SPIN=   0.00000
   O  -0.1635229   0.2930250   0.0243424 SPIN=   0.00000
   S   0.1306238   0.3994497  -0.0143410 SPIN=   0.00000
   F   0.4333290   0.0293768  -0.2501134 SPIN=   0.00000
   F  -0.4333290  -0.4706232  -0.2501134 SPIN=   0.00000
   F  -0.4906756   0.0796588   0.2977283 SPIN=   0.00000
   F   0.4906756  -0.4203412   0.2977283 SPIN=   0.00000
%ENDBLOCK POSITIONS_FRAC

# Note: total spin =  16.00

KPOINTS_MP_SPACING 0.07

%BLOCK SPECIES_POT
QC5
%ENDBLOCK SPECIES_POT

SNAP_TO_SYMMETRY
SYMMETRY_GENERATE

