#              Generated by Buildcell
#
# at 06:50:10 (GMT+1.0) 4th August 2020
# in /lustre/scratch/uccabz1/launch_tmp
# on node-c12f-007
# by uccabz1
#
# compiler GCC version 4.9.2
# options -cpp -iprefix /lustre/shared/ucl/apps/gcc/4.9.2/bin/../lib/gcc/x86_64-unknown-linux-gnu/4.9.2/ -mtune=corei7 -march=x86-64 -g -Og
#
# seed  1364359041  1949912158   479003298 -1571331144 -1975731762 -2115543430  1005448512  -767683646  1935335174  -819517325   695062715   398044684
#
#      Author: C. J. Pickard (cjp20@cam.ac.uk)
#                Space group: Cc
#

%BLOCK LATTICE_ABC
      6.33194      7.39595      9.64944
     83.42083     70.84659     69.56087
%ENDBLOCK LATTICE_ABC

%BLOCK POSITIONS_FRAC
  Li  -0.3519466  -0.0781292   0.2452040 SPIN=   0.00000
  Li   0.3932574   0.4218708  -0.2452040 SPIN=   0.00000
  Li  -0.2796221  -0.3317379  -0.1004005 SPIN=   0.00000
  Li   0.1199774   0.1682621   0.1004005 SPIN=   0.00000
  Fe  -0.3443113  -0.4978833   0.2363669 SPIN=   1.19084
  Fe   0.3920556   0.0021167  -0.2363669 SPIN=   1.19084
  Fe   0.2024238   0.2620357   0.4406926 SPIN=   6.80916
  Fe   0.1431164  -0.2379643  -0.4406926 SPIN=   6.80916
   O   0.2829030  -0.1292318   0.0903275 SPIN=   0.00000
   O   0.4309427  -0.4841770   0.0615142 SPIN=   0.00000
   O   0.3109849  -0.2731619  -0.1370340 SPIN=   0.00000
   O   0.0072597  -0.3006748   0.0959312 SPIN=   0.00000
   S   0.2580226  -0.2968114   0.0276847 SPIN=   0.00000
   O  -0.1267695   0.3707682  -0.0903275 SPIN=   0.00000
   O  -0.0075431   0.0158230  -0.0615142 SPIN=   0.00000
   O  -0.3260490   0.2268381   0.1370340 SPIN=   0.00000
   O  -0.3968091   0.1993252  -0.0959312 SPIN=   0.00000
   S  -0.2142927   0.2031886  -0.0276847 SPIN=   0.00000
   O  -0.3569474  -0.1862158  -0.4083380 SPIN=   0.00000
   O  -0.2621291  -0.5009322  -0.2817075 SPIN=   0.00000
   O  -0.0882806  -0.4819638  -0.5508587 SPIN=   0.00000
   O  -0.5164410  -0.4340057  -0.4418032 SPIN=   0.00000
   S  -0.3059495  -0.4007793  -0.4206768 SPIN=   0.00000
   O  -0.2652854   0.3137842   0.4083380 SPIN=   0.00000
   O  -0.0438366  -0.0009322   0.2817075 SPIN=   0.00000
   O  -0.1391394   0.0180362   0.5508587 SPIN=   0.00000
   O  -0.4582442   0.0659943   0.4418032 SPIN=   0.00000
   S  -0.2266264   0.0992207   0.4206768 SPIN=   0.00000
   F  -0.0521134  -0.2119074  -0.2311838 SPIN=   0.00000
   F   0.2167027   0.2880926   0.2311838 SPIN=   0.00000
   F   0.3475669  -0.2182708   0.3475371 SPIN=   0.00000
   F   0.1951040   0.2817292  -0.3475371 SPIN=   0.00000
%ENDBLOCK POSITIONS_FRAC

# Note: total spin =  16.00

KPOINTS_MP_SPACING 0.07

%BLOCK SPECIES_POT
QC5
%ENDBLOCK SPECIES_POT

SNAP_TO_SYMMETRY
SYMMETRY_GENERATE

