#              Generated by Buildcell
#
# at 07:22:05 (GMT+1.0) 4th August 2020
# in /lustre/scratch/uccabz1/launch_tmp
# on node-c12c-022
# by uccabz1
#
# compiler GCC version 4.9.2
# options -cpp -iprefix /lustre/shared/ucl/apps/gcc/4.9.2/bin/../lib/gcc/x86_64-unknown-linux-gnu/4.9.2/ -mtune=corei7 -march=x86-64 -g -Og
#
# seed  1440154501  1221686730  1206459238   240091725 -1061993676 -1668063776   375285487   924274155 -2146233146   310335052  1114428934     1464276
#
#      Author: C. J. Pickard (cjp20@cam.ac.uk)
#                Space group: P-1
#

%BLOCK LATTICE_ABC
      7.19799      7.38081      7.95688
     76.82473     76.39632     87.79527
%ENDBLOCK LATTICE_ABC

%BLOCK POSITIONS_FRAC
  Li  -0.1474105  -0.1804523  -0.3243839 SPIN=   0.00000
  Li   0.1474105   0.1804523   0.3243839 SPIN=   0.00000
  Li   0.3011806  -0.1002380  -0.2418045 SPIN=   0.00000
  Li  -0.3011806   0.1002380   0.2418045 SPIN=   0.00000
  Fe  -0.6555596  -0.1515448   0.1930853 SPIN=   3.31556
  Fe   0.6555596   0.1515448  -0.1930853 SPIN=   3.31556
  Fe  -0.0000000   0.5000000   0.0000000 SPIN=   5.35777
  Fe  -0.0000000   0.5000000   0.5000000 SPIN=   4.01112
   O   0.6596576  -0.4234336  -0.3933769 SPIN=   0.00000
   O   0.6040260  -0.0858699  -0.4225733 SPIN=   0.00000
   O   0.3689215  -0.2847156  -0.4819871 SPIN=   0.00000
   O   0.6854072  -0.2165660  -0.6904985 SPIN=   0.00000
   S   0.5795031  -0.2526463  -0.4971089 SPIN=   0.00000
   O  -0.6596576   0.4234336   0.3933769 SPIN=   0.00000
   O  -0.6040260   0.0858699   0.4225733 SPIN=   0.00000
   O  -0.3689215   0.2847156   0.4819871 SPIN=   0.00000
   O  -0.6854072   0.2165660   0.6904985 SPIN=   0.00000
   S  -0.5795031   0.2526463   0.4971089 SPIN=   0.00000
   O  -0.1641101  -0.2506438  -0.0669054 SPIN=   0.00000
   O  -0.4525591  -0.3778426   0.1633307 SPIN=   0.00000
   O  -0.2966153  -0.5585197  -0.0565896 SPIN=   0.00000
   O  -0.4713351  -0.2721512  -0.1504995 SPIN=   0.00000
   O   0.1641101   0.2506438   0.0669054 SPIN=   0.00000
   O   0.4525591   0.3778426  -0.1633307 SPIN=   0.00000
   O   0.2966153   0.5585197   0.0565896 SPIN=   0.00000
   O   0.4713351   0.2721512   0.1504995 SPIN=   0.00000
   S   0.5000000   0.5000000   0.0000000 SPIN=   0.00000
   S  -0.0000000   0.0000000   0.0000000 SPIN=   0.00000
   F   0.0349753   0.4796332  -0.2579537 SPIN=   0.00000
   F  -0.0349753  -0.4796332   0.2579537 SPIN=   0.00000
   F  -0.0000000   0.0000000  -0.5000000 SPIN=   0.00000
   F   0.5000000  -0.0000000   0.0000000 SPIN=   0.00000
%ENDBLOCK POSITIONS_FRAC

# Note: total spin =  16.00

KPOINTS_MP_SPACING 0.07

%BLOCK SPECIES_POT
QC5
%ENDBLOCK SPECIES_POT

SNAP_TO_SYMMETRY
SYMMETRY_GENERATE

