#              Generated by Buildcell
#
# at 01:31:19 (GMT+1.0) 18th August 2020
# in /lustre/scratch/uccabz1/launch_tmp
# on node-c12k-020
# by uccabz1
#
# compiler GCC version 4.9.2
# options -cpp -iprefix /lustre/shared/ucl/apps/gcc/4.9.2/bin/../lib/gcc/x86_64-unknown-linux-gnu/4.9.2/ -mtune=corei7 -march=x86-64 -g -Og
#
# seed   747732602  -563488886  1004476117  1798487279  -333847582  -194026144 -1910178867  -972742898 -1191210492  2111313226 -1919034590  1876917792
#
#      Author: C. J. Pickard (cjp20@cam.ac.uk)
#                Space group: Cm
#

%BLOCK LATTICE_ABC
      4.60720      9.50058      9.50058
     75.64895     84.59612     84.59612
%ENDBLOCK LATTICE_ABC

%BLOCK POSITIONS_FRAC
  Li  -0.2882559  -0.4449670  -0.4449670 SPIN=   0.00000
  Li   0.1325442   0.0041723   0.0041723 SPIN=   0.00000
  Li  -0.3047027  -0.1735593  -0.1735593 SPIN=   0.00000
  Li   0.1452549   0.3072391   0.3072391 SPIN=   0.00000
  Fe   0.4457271   0.2651283  -0.4216113 SPIN=   5.57772
  Fe   0.4457271  -0.4216113   0.2651283 SPIN=   5.57772
  Fe   0.1626642  -0.3237837  -0.3237837 SPIN=   0.17311
  Fe  -0.4117025   0.1262261   0.1262261 SPIN=   4.67145
   O  -0.2985907  -0.0212547  -0.4243904 SPIN=   0.00000
   O  -0.0625274   0.1454266  -0.3149574 SPIN=   0.00000
   O   0.1638071   0.0819228  -0.5400341 SPIN=   0.00000
   O   0.1635406  -0.1033199  -0.3052987 SPIN=   0.00000
   S  -0.0084426   0.0256937  -0.3961701 SPIN=   0.00000
   O  -0.2985907  -0.4243904  -0.0212547 SPIN=   0.00000
   O  -0.0625274  -0.3149574   0.1454266 SPIN=   0.00000
   O   0.1638071  -0.5400341   0.0819228 SPIN=   0.00000
   O   0.1635406  -0.3052987  -0.1033199 SPIN=   0.00000
   S  -0.0084426  -0.3961701   0.0256937 SPIN=   0.00000
   O   0.1312429  -0.2355291   0.4232813 SPIN=   0.00000
   O  -0.2275377  -0.0312790   0.3279248 SPIN=   0.00000
   O  -0.3601605  -0.2857726   0.3715178 SPIN=   0.00000
   S  -0.1144070  -0.1850987   0.3227722 SPIN=   0.00000
   O   0.1312429   0.4232813  -0.2355291 SPIN=   0.00000
   O  -0.2275377   0.3279248  -0.0312790 SPIN=   0.00000
   O  -0.3601605   0.3715178  -0.2857726 SPIN=   0.00000
   S  -0.1144070   0.3227722  -0.1850987 SPIN=   0.00000
   O  -0.4148570   0.2682459   0.2682459 SPIN=   0.00000
   O   0.2988441  -0.4824600  -0.4824600 SPIN=   0.00000
   F  -0.3501069  -0.0350576  -0.0350576 SPIN=   0.00000
   F  -0.1583858   0.4196127   0.4196127 SPIN=   0.00000
   F   0.1208961   0.1710773   0.1710773 SPIN=   0.00000
   F  -0.3764633  -0.3063498  -0.3063498 SPIN=   0.00000
%ENDBLOCK POSITIONS_FRAC

# Note: total spin =  16.00

KPOINTS_MP_SPACING 0.07

%BLOCK SPECIES_POT
QC5
%ENDBLOCK SPECIES_POT

SNAP_TO_SYMMETRY
SYMMETRY_GENERATE

