#              Generated by Buildcell
#
# at 07:43:38 (GMT+1.0) 18th August 2020
# in /lustre/scratch/uccabz1/launch_tmp
# on node-c12n-023
# by uccabz1
#
# compiler GCC version 4.9.2
# options -cpp -iprefix /lustre/shared/ucl/apps/gcc/4.9.2/bin/../lib/gcc/x86_64-unknown-linux-gnu/4.9.2/ -mtune=corei7 -march=x86-64 -g -Og
#
# seed  -523001554  -841594331 -1311748210  -657568050  1658025734  -915269116  -824833218  -547209883  -721191522  1145322166  1507474675 -2089127491
#
#      Author: C. J. Pickard (cjp20@cam.ac.uk)
#                Space group: P-1
#

%BLOCK LATTICE_ABC
      4.70750      5.29142     16.15676
     84.07672     87.76173     89.69194
%ENDBLOCK LATTICE_ABC

%BLOCK POSITIONS_FRAC
  Li   0.1389839  -0.2001532   0.2436615 SPIN=   0.00000
  Li  -0.1389839   0.2001532  -0.2436615 SPIN=   0.00000
  Li   0.2529884  -0.2453459  -0.0152144 SPIN=   0.00000
  Li  -0.2529884   0.2453459   0.0152144 SPIN=   0.00000
  Fe   0.2604284   0.2789495  -0.0926793 SPIN=   5.13099
  Fe  -0.2604284  -0.2789495   0.0926793 SPIN=   5.13099
  Fe  -0.3463672   0.2331378  -0.4372415 SPIN=   2.86901
  Fe   0.3463672  -0.2331378   0.4372415 SPIN=   2.86901
   O  -0.2097462  -0.0199643  -0.3354422 SPIN=   0.00000
   O  -0.0587395  -0.4236624  -0.2583063 SPIN=   0.00000
   O   0.1199128  -0.3082830  -0.4033086 SPIN=   0.00000
   O  -0.3840741  -0.4298392  -0.3747599 SPIN=   0.00000
   S  -0.1331618  -0.2954372  -0.3429543 SPIN=   0.00000
   O   0.2097462   0.0199643   0.3354422 SPIN=   0.00000
   O   0.0587395   0.4236624   0.2583063 SPIN=   0.00000
   O  -0.1199128   0.3082830   0.4033086 SPIN=   0.00000
   O   0.3840741   0.4298392   0.3747599 SPIN=   0.00000
   S   0.1331618   0.2954372   0.3429543 SPIN=   0.00000
   O   0.3443249   0.3786773   0.0403258 SPIN=   0.00000
   O  -0.0647684   0.2801476   0.1390713 SPIN=   0.00000
   O   0.4261701   0.2116232   0.1862426 SPIN=   0.00000
   O   0.2271824  -0.0684634   0.0894910 SPIN=   0.00000
   S   0.2332273   0.2004962   0.1137827 SPIN=   0.00000
   O  -0.3443249  -0.3786773  -0.0403258 SPIN=   0.00000
   O   0.0647684  -0.2801476  -0.1390713 SPIN=   0.00000
   O  -0.4261701  -0.2116232  -0.1862426 SPIN=   0.00000
   O  -0.2271824   0.0684634  -0.0894910 SPIN=   0.00000
   S  -0.2332273  -0.2004962  -0.1137827 SPIN=   0.00000
   F  -0.3974130  -0.3297825   0.2067924 SPIN=   0.00000
   F   0.3974130   0.3297825  -0.2067924 SPIN=   0.00000
   F   0.2440621   0.2325833  -0.4417843 SPIN=   0.00000
   F  -0.2440621  -0.2325833   0.4417843 SPIN=   0.00000
%ENDBLOCK POSITIONS_FRAC

# Note: total spin =  16.00

KPOINTS_MP_SPACING 0.07

%BLOCK SPECIES_POT
QC5
%ENDBLOCK SPECIES_POT

SNAP_TO_SYMMETRY
SYMMETRY_GENERATE

