#              Generated by Buildcell
#
# at 05:54:34 (GMT+1.0) 4th August 2020
# in /lustre/scratch/uccabz1/launch_tmp
# on node-c12e-010
# by uccabz1
#
# compiler GCC version 4.9.2
# options -cpp -iprefix /lustre/shared/ucl/apps/gcc/4.9.2/bin/../lib/gcc/x86_64-unknown-linux-gnu/4.9.2/ -mtune=corei7 -march=x86-64 -g -Og
#
# seed  1391759975   699329989  -617978141 -1475456931    16140967  -987501384 -1192511288    90629803  -875889406 -2033520455   631693938   630147555
#
#      Author: C. J. Pickard (cjp20@cam.ac.uk)
#                Space group: P21
#

%BLOCK LATTICE_ABC
      6.89429      7.64486      7.78923
     90.00000     90.00000    103.00981
%ENDBLOCK LATTICE_ABC

%BLOCK POSITIONS_FRAC
  Li   0.0189580  -0.4023154   0.0542249 SPIN=   0.00000
  Li  -0.0189580   0.4023154  -0.4457751 SPIN=   0.00000
  Li  -0.0966290   0.0731888  -0.0449374 SPIN=   0.00000
  Li   0.0966290  -0.0731888   0.4550626 SPIN=   0.00000
  Fe   0.4210169  -0.4295793  -0.4466816 SPIN=   4.16228
  Fe  -0.4210169   0.4295793   0.0533184 SPIN=   4.16228
  Fe   0.4659372  -0.1040342  -0.0373022 SPIN=   3.83772
  Fe  -0.4659372   0.1040342   0.4626978 SPIN=   3.83772
   O  -0.0410190  -0.2379663   0.2548760 SPIN=   0.00000
   O  -0.2301719   0.0011430   0.2422328 SPIN=   0.00000
   O  -0.3117396  -0.2367141   0.4632087 SPIN=   0.00000
   O  -0.3919531  -0.3096400   0.1581236 SPIN=   0.00000
   S  -0.2437209  -0.1957943   0.2796103 SPIN=   0.00000
   O   0.0410190   0.2379663  -0.2451240 SPIN=   0.00000
   O   0.2301719  -0.0011430  -0.2577672 SPIN=   0.00000
   O   0.3117396   0.2367141  -0.0367913 SPIN=   0.00000
   O   0.3919531   0.3096400  -0.3418764 SPIN=   0.00000
   S   0.2437209   0.1957943  -0.2203897 SPIN=   0.00000
   O  -0.0458375  -0.4051489  -0.2617211 SPIN=   0.00000
   O  -0.3833408  -0.3441295  -0.2531250 SPIN=   0.00000
   O  -0.0938883  -0.1021606  -0.3325666 SPIN=   0.00000
   O  -0.1342849  -0.2122588  -0.0330050 SPIN=   0.00000
   S  -0.1643379  -0.2659244  -0.2201044 SPIN=   0.00000
   O   0.0458375   0.4051489   0.2382789 SPIN=   0.00000
   O   0.3833408   0.3441295   0.2468750 SPIN=   0.00000
   O   0.0938883   0.1021606   0.1674334 SPIN=   0.00000
   O   0.1342849   0.2122588   0.4669950 SPIN=   0.00000
   S   0.1643379   0.2659244   0.2798956 SPIN=   0.00000
   F   0.2152133  -0.2947550   0.4686011 SPIN=   0.00000
   F  -0.2152133   0.2947550  -0.0313989 SPIN=   0.00000
   F  -0.3042060   0.3629066   0.4653487 SPIN=   0.00000
   F   0.3042060  -0.3629066  -0.0346513 SPIN=   0.00000
%ENDBLOCK POSITIONS_FRAC

# Note: total spin =  16.00

KPOINTS_MP_SPACING 0.07

%BLOCK SPECIES_POT
QC5
%ENDBLOCK SPECIES_POT

SNAP_TO_SYMMETRY
SYMMETRY_GENERATE

