#              Generated by Buildcell
#
# at 08:55:00 (GMT+1.0) 4th August 2020
# in /lustre/scratch/uccabz1/launch_tmp
# on node-c12j-010
# by uccabz1
#
# compiler GCC version 4.9.2
# options -cpp -iprefix /lustre/shared/ucl/apps/gcc/4.9.2/bin/../lib/gcc/x86_64-unknown-linux-gnu/4.9.2/ -mtune=corei7 -march=x86-64 -g -Og
#
# seed   483235014 -1771569614    74673913 -1894608743 -1593217349 -2005019962 -1458099959 -1849450286 -1064960028 -1636074396  -999097460  1002086429
#
#      Author: C. J. Pickard (cjp20@cam.ac.uk)
#                Space group: Pba2
#

%BLOCK LATTICE_ABC
      6.10839      8.07152      8.11294
     90.00000     90.00000     90.00000
%ENDBLOCK LATTICE_ABC

%BLOCK POSITIONS_FRAC
  Li   0.2858212   0.0074677   0.2733426 SPIN=   0.00000
  Li   0.2858212  -0.0074677  -0.2733426 SPIN=   0.00000
  Li   0.2858212  -0.4925323   0.2266574 SPIN=   0.00000
  Li   0.2858212   0.4925323  -0.2266574 SPIN=   0.00000
  Fe  -0.4966989   0.2766888   0.4629304 SPIN=   4.00000
  Fe  -0.4966989  -0.2766888  -0.4629304 SPIN=   4.00000
  Fe  -0.4966989  -0.2233112   0.0370696 SPIN=   4.00000
  Fe  -0.4966989   0.2233112  -0.0370696 SPIN=   4.00000
   O  -0.3726202  -0.4490837   0.3645407 SPIN=   0.00000
   O  -0.2084471  -0.5759211   0.1158359 SPIN=   0.00000
   O   0.0163340  -0.5349154   0.3663353 SPIN=   0.00000
   O  -0.1001363  -0.2930267   0.2006461 SPIN=   0.00000
   S  -0.1662174  -0.4632367   0.2618395 SPIN=   0.00000
   O  -0.3726202   0.4490837  -0.3645407 SPIN=   0.00000
   O  -0.2084471   0.5759211  -0.1158359 SPIN=   0.00000
   O   0.0163340   0.5349154  -0.3663353 SPIN=   0.00000
   O  -0.1001363   0.2930267  -0.2006461 SPIN=   0.00000
   S  -0.1662174   0.4632367  -0.2618395 SPIN=   0.00000
   O  -0.3726202   0.0509163   0.1354593 SPIN=   0.00000
   O  -0.2084471  -0.0759211   0.3841641 SPIN=   0.00000
   O   0.0163340  -0.0349154   0.1336647 SPIN=   0.00000
   O  -0.1001363   0.2069733   0.2993539 SPIN=   0.00000
   S  -0.1662174   0.0367633   0.2381605 SPIN=   0.00000
   O  -0.3726202  -0.0509163  -0.1354593 SPIN=   0.00000
   O  -0.2084471   0.0759211  -0.3841641 SPIN=   0.00000
   O   0.0163340   0.0349154  -0.1336647 SPIN=   0.00000
   O  -0.1001363  -0.2069733  -0.2993539 SPIN=   0.00000
   S  -0.1662174  -0.0367633  -0.2381605 SPIN=   0.00000
   F   0.3329630   0.2074075  -0.3230474 SPIN=   0.00000
   F   0.3329630  -0.2074075   0.3230474 SPIN=   0.00000
   F   0.3329630  -0.2925925  -0.1769526 SPIN=   0.00000
   F   0.3329630   0.2925925   0.1769526 SPIN=   0.00000
%ENDBLOCK POSITIONS_FRAC

# Note: total spin =  16.00

KPOINTS_MP_SPACING 0.07

%BLOCK SPECIES_POT
QC5
%ENDBLOCK SPECIES_POT

SNAP_TO_SYMMETRY
SYMMETRY_GENERATE

