#              Generated by Buildcell
#
# at 10:25:09 (GMT+1.0) 4th August 2020
# in /lustre/scratch/uccabz1/launch_tmp
# on node-c12a-007
# by uccabz1
#
# compiler GCC version 4.9.2
# options -cpp -iprefix /lustre/shared/ucl/apps/gcc/4.9.2/bin/../lib/gcc/x86_64-unknown-linux-gnu/4.9.2/ -mtune=corei7 -march=x86-64 -g -Og
#
# seed  1458601896    25062427  1205215984  -764721211  -422346491  1863889782 -1542454654 -1000040004 -1134027915  1291502860   540395811  1006034564
#
#      Author: C. J. Pickard (cjp20@cam.ac.uk)
#                Space group: Cm
#

%BLOCK LATTICE_ABC
      3.93972     10.20937     10.20937
     76.96544     89.21313     89.21313
%ENDBLOCK LATTICE_ABC

%BLOCK POSITIONS_FRAC
  Li   0.2187536  -0.3617647  -0.0293413 SPIN=   0.00000
  Li   0.2187536  -0.0293413  -0.3617647 SPIN=   0.00000
  Li  -0.3066264  -0.0293051   0.2673052 SPIN=   0.00000
  Li  -0.3066264   0.2673052  -0.0293051 SPIN=   0.00000
  Fe  -0.2615805   0.4546023   0.1624933 SPIN=   4.50728
  Fe  -0.2615805   0.1624933   0.4546023 SPIN=   4.50728
  Fe   0.2200511  -0.3484672   0.3595500 SPIN=   3.49272
  Fe   0.2200511   0.3595500  -0.3484672 SPIN=   3.49272
   O  -0.0860682  -0.1918134  -0.3648947 SPIN=   0.00000
   O  -0.1407983  -0.2080170  -0.6019089 SPIN=   0.00000
   O  -0.4585694  -0.0318377  -0.5185984 SPIN=   0.00000
   O  -0.6225318  -0.2703570  -0.4428982 SPIN=   0.00000
   S  -0.3269919  -0.1755063  -0.4820751 SPIN=   0.00000
   O  -0.0860682  -0.3648947  -0.1918134 SPIN=   0.00000
   O  -0.1407983  -0.6019089  -0.2080170 SPIN=   0.00000
   O  -0.4585694  -0.5185984  -0.0318377 SPIN=   0.00000
   O  -0.6225318  -0.4428982  -0.2703570 SPIN=   0.00000
   S  -0.3269919  -0.4820751  -0.1755063 SPIN=   0.00000
   O  -0.2130770  -0.0827363   0.0902403 SPIN=   0.00000
   O  -0.1945651  -0.3244145   0.2022004 SPIN=   0.00000
   O  -0.2749769  -0.2548152  -0.0438286 SPIN=   0.00000
   O  -0.7358991  -0.2179087   0.1114729 SPIN=   0.00000
   S  -0.3546295  -0.2199687   0.0900213 SPIN=   0.00000
   O  -0.2130770   0.0902403  -0.0827363 SPIN=   0.00000
   O  -0.1945651   0.2022004  -0.3244145 SPIN=   0.00000
   O  -0.2749769  -0.0438286  -0.2548152 SPIN=   0.00000
   O  -0.7358991   0.1114729  -0.2179087 SPIN=   0.00000
   S  -0.3546295   0.0900213  -0.2199687 SPIN=   0.00000
   F   0.1934938  -0.0179865   0.2550308 SPIN=   0.00000
   F   0.1934938   0.2550308  -0.0179865 SPIN=   0.00000
   F   0.2002257   0.4773429   0.2002029 SPIN=   0.00000
   F   0.2002257   0.2002029   0.4773429 SPIN=   0.00000
%ENDBLOCK POSITIONS_FRAC

# Note: total spin =  16.00

KPOINTS_MP_SPACING 0.07

%BLOCK SPECIES_POT
QC5
%ENDBLOCK SPECIES_POT

SNAP_TO_SYMMETRY
SYMMETRY_GENERATE

