#              Generated by Buildcell
#
# at 08:36:58 (GMT+1.0) 4th August 2020
# in /lustre/scratch/uccabz1/launch_tmp
# on node-y12q-003
# by uccabz1
#
# compiler GCC version 4.9.2
# options -cpp -iprefix /lustre/shared/ucl/apps/gcc/4.9.2/bin/../lib/gcc/x86_64-unknown-linux-gnu/4.9.2/ -mtune=corei7 -march=x86-64 -g -Og
#
# seed -1692656603  -109788488   165504645  2036714609  -255132296 -1862550697   -38610628   883875516 -1679500205 -1774681177  1020943057  -285089557
#
#      Author: C. J. Pickard (cjp20@cam.ac.uk)
#                Space group: P2
#

%BLOCK LATTICE_ABC
      7.26028      7.52996      7.59485
     90.00000     90.00000    105.55509
%ENDBLOCK LATTICE_ABC

%BLOCK POSITIONS_FRAC
  Li  -0.0014111   0.2671263   0.2740784 SPIN=   0.00000
  Li   0.0014111  -0.2671263   0.2740784 SPIN=   0.00000
  Li  -0.1848243   0.1091814  -0.2200719 SPIN=   0.00000
  Li   0.1848243  -0.1091814  -0.2200719 SPIN=   0.00000
  Fe   0.2760060  -0.4302147   0.0745500 SPIN=   7.50661
  Fe  -0.2760060   0.4302147   0.0745500 SPIN=   7.50661
  Fe  -0.2815219  -0.0716425   0.1327420 SPIN=   0.49339
  Fe   0.2815219   0.0716425   0.1327420 SPIN=   0.49339
   O  -0.3511101  -0.2205128  -0.1175154 SPIN=   0.00000
   O  -0.3383933  -0.4266207  -0.3684104 SPIN=   0.00000
   O  -0.0563201  -0.3165297  -0.1751543 SPIN=   0.00000
   O  -0.1515986  -0.0993386  -0.3776436 SPIN=   0.00000
   S  -0.2243555  -0.2657505  -0.2596810 SPIN=   0.00000
   O   0.3511101   0.2205128  -0.1175154 SPIN=   0.00000
   O   0.3383933   0.4266207  -0.3684104 SPIN=   0.00000
   O   0.0563201   0.3165297  -0.1751543 SPIN=   0.00000
   O   0.1515986   0.0993386  -0.3776436 SPIN=   0.00000
   S   0.2243555   0.2657505  -0.2596810 SPIN=   0.00000
   O  -0.1033197   0.3520273   0.5119306 SPIN=   0.00000
   O  -0.3963482   0.3570326   0.3477702 SPIN=   0.00000
   O  -0.4187097   0.2559478   0.6589517 SPIN=   0.00000
   O  -0.3356839   0.0591034   0.4276711 SPIN=   0.00000
   S  -0.3135154   0.2560278   0.4865809 SPIN=   0.00000
   O   0.1033197  -0.3520273   0.5119306 SPIN=   0.00000
   O   0.3963482  -0.3570326   0.3477702 SPIN=   0.00000
   O   0.4187097  -0.2559478   0.6589517 SPIN=   0.00000
   O   0.3356839  -0.0591034   0.4276711 SPIN=   0.00000
   S   0.3135154  -0.2560278   0.4865809 SPIN=   0.00000
   F   0.2562373   0.2983960   0.2699850 SPIN=   0.00000
   F  -0.2562373  -0.2983960   0.2699850 SPIN=   0.00000
   F   0.2393936  -0.1793792  -0.0001401 SPIN=   0.00000
   F  -0.2393936   0.1793792  -0.0001401 SPIN=   0.00000
%ENDBLOCK POSITIONS_FRAC

# Note: total spin =  16.00

KPOINTS_MP_SPACING 0.07

%BLOCK SPECIES_POT
QC5
%ENDBLOCK SPECIES_POT

SNAP_TO_SYMMETRY
SYMMETRY_GENERATE

