#              Generated by Buildcell
#
# at 16:39:28 (GMT+1.0) 18th August 2020
# in /lustre/scratch/uccabz1/launch_tmp
# on node-c12a-026
# by uccabz1
#
# compiler GCC version 4.9.2
# options -cpp -iprefix /lustre/shared/ucl/apps/gcc/4.9.2/bin/../lib/gcc/x86_64-unknown-linux-gnu/4.9.2/ -mtune=corei7 -march=x86-64 -g -Og
#
# seed  1106627140    95951073   440255226  -345109686   280423807 -1439773733 -1340833471 -1730850576   907360495  2109756934 -1240462103  -323670646
#
#      Author: C. J. Pickard (cjp20@cam.ac.uk)
#                Space group: C2
#

%BLOCK LATTICE_ABC
      5.09992      5.09992     16.07788
     96.84542     97.40403    102.59061
%ENDBLOCK LATTICE_ABC

%BLOCK POSITIONS_FRAC
  Li  -0.7381302  -0.3174519  -0.3105711 SPIN=   0.00000
  Li  -0.0068808  -0.4275591   0.3105711 SPIN=   0.00000
  Li   0.0519149   0.2731226  -0.1144606 SPIN=   0.00000
  Li   0.3875832   0.1663755   0.1144606 SPIN=   0.00000
  Fe  -0.4644541   0.3604998  -0.2010808 SPIN=   4.84484
  Fe   0.5615806  -0.2633733   0.2010808 SPIN=   4.84484
  Fe  -0.0852861   0.3889195   0.0578003 SPIN=   3.15516
  Fe   0.3311193  -0.1430864  -0.0578003 SPIN=   3.15516
   O  -0.3648614   0.4234052  -0.4882719 SPIN=   0.00000
   O  -0.7838365   0.5236197  -0.4436615 SPIN=   0.00000
   O  -0.4108365   0.4752077  -0.3361814 SPIN=   0.00000
   O  -0.6882342   0.0715384  -0.4347289 SPIN=   0.00000
   S  -0.5619422   0.3734428  -0.4257109 SPIN=   0.00000
   O   0.9116771   0.1234105   0.4882719 SPIN=   0.00000
   O   0.9672812  -0.3401750   0.4436615 SPIN=   0.00000
   O   0.8113892  -0.0746551   0.3361814 SPIN=   0.00000
   O   0.5062673  -0.2535053   0.4347289 SPIN=   0.00000
   S   0.7991537  -0.1362312   0.4257109 SPIN=   0.00000
   O  -0.0621379  -0.2004347  -0.3721693 SPIN=   0.00000
   O   0.1246535   0.0299616  -0.2254471 SPIN=   0.00000
   O  -0.3666092  -0.0434617  -0.2795148 SPIN=   0.00000
   O  -0.0294118   0.2917257  -0.3343466 SPIN=   0.00000
   S  -0.0833763   0.0194477  -0.3028694 SPIN=   0.00000
   O   0.1717346   0.3100314   0.3721693 SPIN=   0.00000
   O   0.2554086   0.3501006   0.2254471 SPIN=   0.00000
   O   0.2360531  -0.0870944   0.2795148 SPIN=   0.00000
   O   0.6260723   0.3049348   0.3343466 SPIN=   0.00000
   S   0.3223171   0.2194931   0.3028694 SPIN=   0.00000
   F   0.3401641  -0.2233240   0.0664605 SPIN=   0.00000
   F  -0.2897845   0.2737037  -0.0664605 SPIN=   0.00000
   F  -0.1784836   0.4822173   0.1785472 SPIN=   0.00000
   F   0.3036701  -0.3570308  -0.1785472 SPIN=   0.00000
%ENDBLOCK POSITIONS_FRAC

# Note: total spin =  16.00

KPOINTS_MP_SPACING 0.07

%BLOCK SPECIES_POT
QC5
%ENDBLOCK SPECIES_POT

SNAP_TO_SYMMETRY
SYMMETRY_GENERATE

