#              Generated by Buildcell
#
# at 07:06:12 (GMT+1.0) 4th August 2020
# in /lustre/scratch/uccabz1/launch_tmp
# on node-c12c-001
# by uccabz1
#
# compiler GCC version 4.9.2
# options -cpp -iprefix /lustre/shared/ucl/apps/gcc/4.9.2/bin/../lib/gcc/x86_64-unknown-linux-gnu/4.9.2/ -mtune=corei7 -march=x86-64 -g -Og
#
# seed -2133944602  1401026037 -1305387657  -643133095 -1326602965  -133910884  1562124917 -2147089405  1174390648   135916547   148312054 -1582965730
#
#      Author: C. J. Pickard (cjp20@cam.ac.uk)
#                Space group: Pmn21
#

%BLOCK LATTICE_ABC
      4.53685      6.48483     13.59587
     90.00000     90.00000     90.00000
%ENDBLOCK LATTICE_ABC

%BLOCK POSITIONS_FRAC
  Li  -0.2524235  -0.3937204   0.1367445 SPIN=   0.00000
  Li   0.2524235   0.1062796   0.3632555 SPIN=   0.00000
  Li   0.2524235   0.1062796  -0.3632555 SPIN=   0.00000
  Li  -0.2524235  -0.3937204  -0.1367445 SPIN=   0.00000
  Fe  -0.2563120   0.4014809  -0.3643224 SPIN=   4.00000
  Fe   0.2563120  -0.0985191  -0.1356776 SPIN=   4.00000
  Fe   0.2563120  -0.0985191   0.1356776 SPIN=   4.00000
  Fe  -0.2563120   0.4014809   0.3643224 SPIN=   4.00000
   O   0.1877265   0.5728122  -0.1221636 SPIN=   0.00000
   O  -0.0391397   0.2612397  -0.1950961 SPIN=   0.00000
   O   0.4871189   0.2581326  -0.1471929 SPIN=   0.00000
   O   0.3240752   0.4637588  -0.2905669 SPIN=   0.00000
   S   0.2399452   0.3889858  -0.1887549 SPIN=   0.00000
   O  -0.1877265   0.0728122  -0.3778364 SPIN=   0.00000
   O   0.0391397  -0.2387603  -0.3049039 SPIN=   0.00000
   O  -0.4871189  -0.2418674  -0.3528071 SPIN=   0.00000
   O  -0.3240752  -0.0362412  -0.2094331 SPIN=   0.00000
   S  -0.2399452  -0.1110142  -0.3112451 SPIN=   0.00000
   O  -0.1877265   0.0728122   0.3778364 SPIN=   0.00000
   O   0.0391397  -0.2387603   0.3049039 SPIN=   0.00000
   O  -0.4871189  -0.2418674   0.3528071 SPIN=   0.00000
   O  -0.3240752  -0.0362412   0.2094331 SPIN=   0.00000
   S  -0.2399452  -0.1110142   0.3112451 SPIN=   0.00000
   O   0.1877265   0.5728122   0.1221636 SPIN=   0.00000
   O  -0.0391397   0.2612397   0.1950961 SPIN=   0.00000
   O   0.4871189   0.2581326   0.1471929 SPIN=   0.00000
   O   0.3240752   0.4637588   0.2905669 SPIN=   0.00000
   S   0.2399452   0.3889858   0.1887549 SPIN=   0.00000
   F   0.2151052   0.0133382  -0.0000000 SPIN=   0.00000
   F  -0.2151052  -0.4866618   0.5000000 SPIN=   0.00000
   F  -0.2698294  -0.4789673  -0.0000000 SPIN=   0.00000
   F   0.2698294   0.0210327   0.5000000 SPIN=   0.00000
%ENDBLOCK POSITIONS_FRAC

# Note: total spin =  16.00

KPOINTS_MP_SPACING 0.07

%BLOCK SPECIES_POT
QC5
%ENDBLOCK SPECIES_POT

SNAP_TO_SYMMETRY
SYMMETRY_GENERATE

