#              Generated by Buildcell
#
# at 02:45:04 (GMT+1.0) 18th August 2020
# in /lustre/scratch/uccabz1/launch_tmp
# on node-c12l-001
# by uccabz1
#
# compiler GCC version 4.9.2
# options -cpp -iprefix /lustre/shared/ucl/apps/gcc/4.9.2/bin/../lib/gcc/x86_64-unknown-linux-gnu/4.9.2/ -mtune=corei7 -march=x86-64 -g -Og
#
# seed  -857280474  1842715464   190639911 -1866108804  1697508031 -1372743630   -77339237  1088003275  1738035775  1427555197  -308293821   646786458
#
#      Author: C. J. Pickard (cjp20@cam.ac.uk)
#                Space group: P21/c
#

%BLOCK LATTICE_ABC
      6.84881      7.57646      8.32341
    112.15880     90.00000     90.00000
%ENDBLOCK LATTICE_ABC

%BLOCK POSITIONS_FRAC
  Li  -0.2069024  -0.1952756  -0.0523690 SPIN=   0.00000
  Li   0.2930976   0.1952756  -0.4476310 SPIN=   0.00000
  Li   0.2069024   0.1952756   0.0523690 SPIN=   0.00000
  Li  -0.2930976  -0.1952756   0.4476310 SPIN=   0.00000
  Fe   0.2501326  -0.4755089   0.4151357 SPIN=   4.00000
  Fe  -0.2498674   0.4755089   0.0848643 SPIN=   4.00000
  Fe  -0.2501326   0.4755089  -0.4151357 SPIN=   4.00000
  Fe   0.2498674  -0.4755089  -0.0848643 SPIN=   4.00000
   O   0.2302631  -0.1147726   0.3870952 SPIN=   0.00000
   O   0.1189646  -0.2109261   0.0830616 SPIN=   0.00000
   O  -0.0965436  -0.0174445   0.3237306 SPIN=   0.00000
   O  -0.0316954  -0.3551630   0.2749054 SPIN=   0.00000
   S   0.0552472  -0.1745765   0.2671982 SPIN=   0.00000
   O  -0.2697369   0.1147726   0.1129048 SPIN=   0.00000
   O  -0.3810354   0.2109261   0.4169384 SPIN=   0.00000
   O  -0.5965436   0.0174445   0.1762694 SPIN=   0.00000
   O  -0.5316954   0.3551630   0.2250946 SPIN=   0.00000
   S  -0.4447528   0.1745765   0.2328018 SPIN=   0.00000
   O  -0.2302631   0.1147726  -0.3870952 SPIN=   0.00000
   O  -0.1189646   0.2109261  -0.0830616 SPIN=   0.00000
   O   0.0965436   0.0174445  -0.3237306 SPIN=   0.00000
   O   0.0316954   0.3551630  -0.2749054 SPIN=   0.00000
   S  -0.0552472   0.1745765  -0.2671982 SPIN=   0.00000
   O   0.2697369  -0.1147726  -0.1129048 SPIN=   0.00000
   O   0.3810354  -0.2109261  -0.4169384 SPIN=   0.00000
   O   0.5965436  -0.0174445  -0.1762694 SPIN=   0.00000
   O   0.5316954  -0.3551630  -0.2250946 SPIN=   0.00000
   S   0.4447528  -0.1745765  -0.2328018 SPIN=   0.00000
   F   0.0552709   0.2892534   0.2660244 SPIN=   0.00000
   F  -0.4447291  -0.2892534   0.2339756 SPIN=   0.00000
   F  -0.0552709  -0.2892534  -0.2660244 SPIN=   0.00000
   F   0.4447291   0.2892534  -0.2339756 SPIN=   0.00000
%ENDBLOCK POSITIONS_FRAC

# Note: total spin =  16.00

KPOINTS_MP_SPACING 0.07

%BLOCK SPECIES_POT
QC5
%ENDBLOCK SPECIES_POT

SNAP_TO_SYMMETRY
SYMMETRY_GENERATE

