#              Generated by Buildcell
#
# at 03:57:41 (GMT+1.0) 18th August 2020
# in /lustre/scratch/uccabz1/launch_tmp
# on node-c12f-018
# by uccabz1
#
# compiler GCC version 4.9.2
# options -cpp -iprefix /lustre/shared/ucl/apps/gcc/4.9.2/bin/../lib/gcc/x86_64-unknown-linux-gnu/4.9.2/ -mtune=corei7 -march=x86-64 -g -Og
#
# seed  -129682508  1672652714   287736874 -1957427190   692822537  -665567831  1082603799  1423542663   470323047  -325943044  -638493507   630263704
#
#      Author: C. J. Pickard (cjp20@cam.ac.uk)
#                Space group: P-1
#

%BLOCK LATTICE_ABC
      6.96034      7.31013      9.00465
     84.50806     70.15551     68.23580
%ENDBLOCK LATTICE_ABC

%BLOCK POSITIONS_FRAC
  Li   0.1953598   0.2040583   0.3169110 SPIN=   0.00000
  Li  -0.1953598  -0.2040583  -0.3169110 SPIN=   0.00000
  Li  -0.3009844   0.1405371   0.3765006 SPIN=   0.00000
  Li   0.3009844  -0.1405371  -0.3765006 SPIN=   0.00000
  Fe  -0.2516177   0.4549059   0.0436252 SPIN=   2.71379
  Fe   0.2516177  -0.4549059  -0.0436252 SPIN=   2.71379
  Fe  -0.2875540  -0.0424677   0.0856892 SPIN=   5.28621
  Fe   0.2875540   0.0424677  -0.0856892 SPIN=   5.28621
   O   0.4593944  -0.3822984   0.2456177 SPIN=   0.00000
   O   0.0554673  -0.2799579   0.3427689 SPIN=   0.00000
   O   0.2369811  -0.1159425   0.1153168 SPIN=   0.00000
   O   0.2300125  -0.0580140   0.3837416 SPIN=   0.00000
   S   0.2454638  -0.2090532   0.2718612 SPIN=   0.00000
   O  -0.4593944   0.3822984  -0.2456177 SPIN=   0.00000
   O  -0.0554673   0.2799579  -0.3427689 SPIN=   0.00000
   O  -0.2369811   0.1159425  -0.1153168 SPIN=   0.00000
   O  -0.2300125   0.0580140  -0.3837416 SPIN=   0.00000
   S  -0.2454638   0.2090532  -0.2718612 SPIN=   0.00000
   O   0.0024401  -0.5341761   0.2543063 SPIN=   0.00000
   O  -0.3475288  -0.5815876   0.3975783 SPIN=   0.00000
   O  -0.3437901  -0.2454269   0.3357586 SPIN=   0.00000
   O  -0.1866298  -0.4332519   0.5371000 SPIN=   0.00000
   S  -0.2188772  -0.4486106   0.3811858 SPIN=   0.00000
   O  -0.0024401   0.5341761  -0.2543063 SPIN=   0.00000
   O   0.3475288   0.5815876  -0.3975783 SPIN=   0.00000
   O   0.3437901   0.2454269  -0.3357586 SPIN=   0.00000
   O   0.1866298   0.4332519  -0.5371000 SPIN=   0.00000
   S   0.2188772   0.4486106  -0.3811858 SPIN=   0.00000
   F   0.0165934   0.2424223   0.0147190 SPIN=   0.00000
   F  -0.0165934  -0.2424223  -0.0147190 SPIN=   0.00000
   F  -0.4871080   0.1519457   0.2440618 SPIN=   0.00000
   F   0.4871080  -0.1519457  -0.2440618 SPIN=   0.00000
%ENDBLOCK POSITIONS_FRAC

# Note: total spin =  16.00

KPOINTS_MP_SPACING 0.07

%BLOCK SPECIES_POT
QC5
%ENDBLOCK SPECIES_POT

SNAP_TO_SYMMETRY
SYMMETRY_GENERATE

