#              Generated by Buildcell
#
# at 08:57:12 (GMT+1.0) 4th August 2020
# in /lustre/scratch/uccabz1/launch_tmp
# on node-c12m-022
# by uccabz1
#
# compiler GCC version 4.9.2
# options -cpp -iprefix /lustre/shared/ucl/apps/gcc/4.9.2/bin/../lib/gcc/x86_64-unknown-linux-gnu/4.9.2/ -mtune=corei7 -march=x86-64 -g -Og
#
# seed   183912473 -1922817342 -1723679857  1345505819   387305081  1054503791  1342503554 -1459483073 -1037767672  2073223237   229650744  -493521134
#
#      Author: C. J. Pickard (cjp20@cam.ac.uk)
#                Space group: P21
#

%BLOCK LATTICE_ABC
      4.83437      8.95477      9.29325
     90.00000     96.14435     90.00000
%ENDBLOCK LATTICE_ABC

%BLOCK POSITIONS_FRAC
  Li  -0.2412326  -0.1845605   0.1915975 SPIN=   0.00000
  Li   0.2412326   0.3154395  -0.1915975 SPIN=   0.00000
  Li  -0.1436959   0.3109542   0.1750894 SPIN=   0.00000
  Li   0.1436959  -0.1890458  -0.1750894 SPIN=   0.00000
  Fe   0.0337365   0.1710407   0.4531466 SPIN=   4.15633
  Fe  -0.0337365  -0.3289593  -0.4531466 SPIN=   4.15633
  Fe  -0.0638852   0.0647796  -0.0218160 SPIN=   3.84367
  Fe   0.0638852  -0.4352204   0.0218160 SPIN=   3.84367
   O   0.3689699  -0.0627718   0.2604536 SPIN=   0.00000
   O   0.7972124   0.0895342   0.2663244 SPIN=   0.00000
   O   0.3484790   0.2099218   0.3013170 SPIN=   0.00000
   O   0.4303650   0.1123775   0.0603315 SPIN=   0.00000
   S   0.4862566   0.0872654   0.2221066 SPIN=   0.00000
   O  -0.3689699  -0.5627718  -0.2604536 SPIN=   0.00000
   O  -0.7972124  -0.4104658  -0.2663244 SPIN=   0.00000
   O  -0.3484790  -0.2900782  -0.3013170 SPIN=   0.00000
   O  -0.4303650  -0.3876225  -0.0603315 SPIN=   0.00000
   S  -0.4862566  -0.4127346  -0.2221066 SPIN=   0.00000
   O   0.1769267  -0.5133954   0.2464148 SPIN=   0.00000
   O   0.4585940  -0.3315820   0.3999565 SPIN=   0.00000
   O   0.6841595  -0.4952179   0.2323831 SPIN=   0.00000
   O   0.5071151  -0.6022400   0.4503428 SPIN=   0.00000
   S   0.4566988  -0.4856088   0.3322743 SPIN=   0.00000
   O  -0.1769267  -0.0133954  -0.2464148 SPIN=   0.00000
   O  -0.4585940   0.1684180  -0.3999565 SPIN=   0.00000
   O  -0.6841595   0.0047821  -0.2323831 SPIN=   0.00000
   O  -0.5071151  -0.1022400  -0.4503428 SPIN=   0.00000
   S  -0.4566988   0.0143912  -0.3322743 SPIN=   0.00000
   F  -0.0111561  -0.1756721   0.4202607 SPIN=   0.00000
   F   0.0111561   0.3243279  -0.4202607 SPIN=   0.00000
   F   0.0568257   0.3560413  -0.0123853 SPIN=   0.00000
   F  -0.0568257  -0.1439587   0.0123853 SPIN=   0.00000
%ENDBLOCK POSITIONS_FRAC

# Note: total spin =  16.00

KPOINTS_MP_SPACING 0.07

%BLOCK SPECIES_POT
QC5
%ENDBLOCK SPECIES_POT

SNAP_TO_SYMMETRY
SYMMETRY_GENERATE

