#              Generated by Buildcell
#
# at 10:17:10 (GMT+1.0) 4th August 2020
# in /lustre/scratch/uccabz1/launch_tmp
# on node-c12l-021
# by uccabz1
#
# compiler GCC version 4.9.2
# options -cpp -iprefix /lustre/shared/ucl/apps/gcc/4.9.2/bin/../lib/gcc/x86_64-unknown-linux-gnu/4.9.2/ -mtune=corei7 -march=x86-64 -g -Og
#
# seed   305785331  1477477536  -807044113  -917937229 -1637855572 -1524985669   348144636  -756768791  1150102809 -1329153973 -1777912285  1845997972
#
#      Author: C. J. Pickard (cjp20@cam.ac.uk)
#                Space group: Cc
#

%BLOCK LATTICE_ABC
      6.86444      6.86444     10.10641
     98.90278    103.38527    115.55141
%ENDBLOCK LATTICE_ABC

%BLOCK POSITIONS_FRAC
  Li   0.1333208  -0.2717094   0.0301508 SPIN=   0.00000
  Li   0.3018602   0.3968300  -0.4698492 SPIN=   0.00000
  Li   0.3096784   0.1802129  -0.1519608 SPIN=   0.00000
  Li  -0.3321737   0.0383608   0.3480392 SPIN=   0.00000
  Fe  -0.3286209  -0.3591521   0.0638948 SPIN=   4.39025
  Fe   0.4230469  -0.1074843  -0.4361052 SPIN=   4.39025
  Fe  -0.0579715   0.2137427  -0.0390164 SPIN=   3.60975
  Fe  -0.2527592  -0.4810449   0.4609836 SPIN=   3.60975
   O   0.1787059  -0.2124075  -0.2308998 SPIN=   0.00000
   O   0.3965844  -0.3558489  -0.0832466 SPIN=   0.00000
   O   0.4564760   0.0286963   0.0083263 SPIN=   0.00000
   O   0.5947256  -0.0551824  -0.1872133 SPIN=   0.00000
   S   0.4066230  -0.1486856  -0.1232584 SPIN=   0.00000
   O  -0.0184923   0.0903943   0.2691002 SPIN=   0.00000
   O   0.2726023   0.0201690   0.4167534 SPIN=   0.00000
   O  -0.0203701   0.0518503   0.5083263 SPIN=   0.00000
   O  -0.1320309  -0.2819388   0.3127867 SPIN=   0.00000
   S   0.0254272  -0.0298813   0.3767416 SPIN=   0.00000
   O  -0.2022180   0.4573121  -0.3367275 SPIN=   0.00000
   O  -0.4189947   0.6094148  -0.2330854 SPIN=   0.00000
   O  -0.2790445   0.3797586  -0.1176900 SPIN=   0.00000
   O  -0.5961819   0.1995855  -0.3479427 SPIN=   0.00000
   S  -0.3741098   0.4115177  -0.2588614 SPIN=   0.00000
   O   0.2059604  -0.6345095   0.1632725 SPIN=   0.00000
   O   0.1574999  -0.3140906   0.2669146 SPIN=   0.00000
   O   0.5025514  -0.3386455   0.3823100 SPIN=   0.00000
   O   0.4524718  -0.2517608   0.1520573 SPIN=   0.00000
   S   0.3296209  -0.3847516   0.2411386 SPIN=   0.00000
   F  -0.4530203   0.2362304   0.2788516 SPIN=   0.00000
   F   0.0426212   0.2318719  -0.2211484 SPIN=   0.00000
   F   0.0043785  -0.0856859   0.0197212 SPIN=   0.00000
   F   0.1054071  -0.4846573  -0.4802788 SPIN=   0.00000
%ENDBLOCK POSITIONS_FRAC

# Note: total spin =  16.00

KPOINTS_MP_SPACING 0.07

%BLOCK SPECIES_POT
QC5
%ENDBLOCK SPECIES_POT

SNAP_TO_SYMMETRY
SYMMETRY_GENERATE

