#              Generated by Buildcell
#
# at 05:54:13 (GMT+1.0) 4th August 2020
# in /lustre/scratch/uccabz1/launch_tmp
# on node-c12n-011
# by uccabz1
#
# compiler GCC version 4.9.2
# options -cpp -iprefix /lustre/shared/ucl/apps/gcc/4.9.2/bin/../lib/gcc/x86_64-unknown-linux-gnu/4.9.2/ -mtune=corei7 -march=x86-64 -g -Og
#
# seed -1781486984   950317801   230255765   165612245   762885539  1958914159 -1693570909 -1976980596  -742736458 -1335212581  -819077452 -1462335145
#
#      Author: C. J. Pickard (cjp20@cam.ac.uk)
#                Space group: Pcc2
#

%BLOCK LATTICE_ABC
      7.12765      7.15628      7.84200
     90.00000     90.00000     90.00000
%ENDBLOCK LATTICE_ABC

%BLOCK POSITIONS_FRAC
  Li  -0.2305294   0.2459274  -0.4464609 SPIN=   0.00000
  Li  -0.2305294  -0.2459274   0.4464609 SPIN=   0.00000
  Li   0.2694706  -0.2459274  -0.4464609 SPIN=   0.00000
  Li   0.2694706   0.2459274   0.4464609 SPIN=   0.00000
  Fe  -0.3815862  -0.1935259  -0.1481838 SPIN=   4.00000
  Fe  -0.3815862   0.1935259   0.1481838 SPIN=   4.00000
  Fe   0.1184138   0.1935259  -0.1481838 SPIN=   4.00000
  Fe   0.1184138  -0.1935259   0.1481838 SPIN=   4.00000
   O   0.1268643  -0.5110529  -0.3377492 SPIN=   0.00000
   O  -0.0871080  -0.2386962  -0.3394488 SPIN=   0.00000
   O   0.1240378  -0.2918614  -0.0936552 SPIN=   0.00000
   O  -0.1459232  -0.5026251  -0.1426446 SPIN=   0.00000
   S   0.0044677  -0.3860589  -0.2283745 SPIN=   0.00000
   O   0.1268643   0.5110529   0.3377492 SPIN=   0.00000
   O  -0.0871080   0.2386962   0.3394488 SPIN=   0.00000
   O   0.1240378   0.2918614   0.0936552 SPIN=   0.00000
   O  -0.1459232   0.5026251   0.1426446 SPIN=   0.00000
   S   0.0044677   0.3860589   0.2283745 SPIN=   0.00000
   O  -0.3731357   0.5110529  -0.3377492 SPIN=   0.00000
   O  -0.5871080   0.2386962  -0.3394488 SPIN=   0.00000
   O  -0.3759622   0.2918614  -0.0936552 SPIN=   0.00000
   O  -0.6459232   0.5026251  -0.1426446 SPIN=   0.00000
   S  -0.4955323   0.3860589  -0.2283745 SPIN=   0.00000
   O  -0.3731357  -0.5110529   0.3377492 SPIN=   0.00000
   O  -0.5871080  -0.2386962   0.3394488 SPIN=   0.00000
   O  -0.3759622  -0.2918614   0.0936552 SPIN=   0.00000
   O  -0.6459232  -0.5026251   0.1426446 SPIN=   0.00000
   S  -0.4955323  -0.3860589   0.2283745 SPIN=   0.00000
   F   0.4155843  -0.1460786  -0.2830632 SPIN=   0.00000
   F   0.4155843   0.1460786   0.2830632 SPIN=   0.00000
   F  -0.0844157   0.1460786  -0.2830632 SPIN=   0.00000
   F  -0.0844157  -0.1460786   0.2830632 SPIN=   0.00000
%ENDBLOCK POSITIONS_FRAC

# Note: total spin =  16.00

KPOINTS_MP_SPACING 0.07

%BLOCK SPECIES_POT
QC5
%ENDBLOCK SPECIES_POT

SNAP_TO_SYMMETRY
SYMMETRY_GENERATE

