#              Generated by Buildcell
#
# at 00:18:15 (GMT+1.0) 18th August 2020
# in /lustre/scratch/uccabz1/launch_tmp
# on node-c12l-001
# by uccabz1
#
# compiler GCC version 4.9.2
# options -cpp -iprefix /lustre/shared/ucl/apps/gcc/4.9.2/bin/../lib/gcc/x86_64-unknown-linux-gnu/4.9.2/ -mtune=corei7 -march=x86-64 -g -Og
#
# seed -1230463779 -1616009866  1781581727  1392170859   994929321 -1177338212 -1632007337 -1624215807 -1320147261 -1716524602    18656576   715923048
#
#      Author: C. J. Pickard (cjp20@cam.ac.uk)
#                Space group: P21
#

%BLOCK LATTICE_ABC
      4.24480      7.06165     13.45179
     90.00000     97.24714     90.00000
%ENDBLOCK LATTICE_ABC

%BLOCK POSITIONS_FRAC
  Li  -0.3320489   0.3855355   0.2705334 SPIN=   0.00000
  Li   0.3320489  -0.1144645  -0.2705334 SPIN=   0.00000
  Li  -0.2288224  -0.4628614  -0.4228624 SPIN=   0.00000
  Li   0.2288224   0.0371386   0.4228624 SPIN=   0.00000
  Fe   0.3036575   0.2828493  -0.3412179 SPIN=   4.45720
  Fe  -0.3036575  -0.2171507   0.3412179 SPIN=   4.45720
  Fe   0.4977201   0.1095653  -0.0853423 SPIN=   3.54280
  Fe  -0.4977201  -0.3904347   0.0853423 SPIN=   3.54280
   O   0.2605407   0.3577911   0.3374056 SPIN=   0.00000
   O   0.3912700   0.3953988   0.5208917 SPIN=   0.00000
   O  -0.1671665   0.3499451   0.4464994 SPIN=   0.00000
   O   0.1087663   0.6511028   0.4201494 SPIN=   0.00000
   S   0.1483526   0.4385595   0.4312365 SPIN=   0.00000
   O  -0.2605407  -0.1422089  -0.3374056 SPIN=   0.00000
   O  -0.3912700  -0.1046012  -0.5208917 SPIN=   0.00000
   O   0.1671665  -0.1500549  -0.4464994 SPIN=   0.00000
   O  -0.1087663   0.1511028  -0.4201494 SPIN=   0.00000
   S  -0.1483526  -0.0614405  -0.4312365 SPIN=   0.00000
   O   0.2455049  -0.1518553  -0.0909914 SPIN=   0.00000
   O  -0.3105908  -0.1934067  -0.1685371 SPIN=   0.00000
   O  -0.1723366  -0.2327932   0.0145852 SPIN=   0.00000
   O   0.0030385  -0.4711027  -0.1016586 SPIN=   0.00000
   S  -0.0585960  -0.2622895  -0.0866505 SPIN=   0.00000
   O  -0.2455049   0.3481447   0.0909914 SPIN=   0.00000
   O   0.3105908   0.3065933   0.1685371 SPIN=   0.00000
   O   0.1723366   0.2672068  -0.0145852 SPIN=   0.00000
   O  -0.0030385   0.0288973   0.1016586 SPIN=   0.00000
   S   0.0585960   0.2377105   0.0866505 SPIN=   0.00000
   F  -0.1706660   0.1887136  -0.2029799 SPIN=   0.00000
   F   0.1706660  -0.3112864   0.2029799 SPIN=   0.00000
   F  -0.2914591   0.0702461   0.2977180 SPIN=   0.00000
   F   0.2914591  -0.4297539  -0.2977180 SPIN=   0.00000
%ENDBLOCK POSITIONS_FRAC

# Note: total spin =  16.00

KPOINTS_MP_SPACING 0.07

%BLOCK SPECIES_POT
QC5
%ENDBLOCK SPECIES_POT

SNAP_TO_SYMMETRY
SYMMETRY_GENERATE

