#              Generated by Buildcell
#
# at 06:43:58 (GMT+1.0) 4th August 2020
# in /lustre/scratch/uccabz1/launch_tmp
# on node-c12l-024
# by uccabz1
#
# compiler GCC version 4.9.2
# options -cpp -iprefix /lustre/shared/ucl/apps/gcc/4.9.2/bin/../lib/gcc/x86_64-unknown-linux-gnu/4.9.2/ -mtune=corei7 -march=x86-64 -g -Og
#
# seed  1740452151 -1287273490  -543202287 -1761131407   910690013   884423642  -851878908   642024947  -310961997 -1097052386 -2062773920  1774182171
#
#      Author: C. J. Pickard (cjp20@cam.ac.uk)
#                Space group: C2
#

%BLOCK LATTICE_ABC
      7.39572      7.39572      8.42015
    106.24184    106.24184    103.32904
%ENDBLOCK LATTICE_ABC

%BLOCK POSITIONS_FRAC
  Li  -0.1444896  -0.3116232   0.3286950 SPIN=   0.00000
  Li   0.3116232   0.1444896  -0.3286950 SPIN=   0.00000
  Li   0.2935639   0.4406473   0.2449571 SPIN=   0.00000
  Li  -0.4406473  -0.2935639  -0.2449571 SPIN=   0.00000
  Fe   0.0306540   0.2116472  -0.1369186 SPIN=   5.02736
  Fe  -0.2116472  -0.0306540   0.1369186 SPIN=   5.02736
  Fe  -0.4156822  -0.1249200   0.4717708 SPIN=   2.97264
  Fe   0.1249200   0.4156822  -0.4717708 SPIN=   2.97264
   O   0.1523891  -0.3947040   0.0104094 SPIN=   0.00000
   O  -0.0143392  -0.1732056   0.1427746 SPIN=   0.00000
   O   0.3434042  -0.1142438   0.2995290 SPIN=   0.00000
   O   0.0844924  -0.4088143   0.2791010 SPIN=   0.00000
   S   0.1414866  -0.2727419   0.1829535 SPIN=   0.00000
   O   0.3947040  -0.1523891  -0.0104094 SPIN=   0.00000
   O   0.1732056   0.0143392  -0.1427746 SPIN=   0.00000
   O   0.1142438  -0.3434042  -0.2995290 SPIN=   0.00000
   O   0.4088143  -0.0844924  -0.2791010 SPIN=   0.00000
   S   0.2727419  -0.1414866  -0.1829535 SPIN=   0.00000
   O  -0.5787971   0.2602885   0.1075486 SPIN=   0.00000
   O  -0.3487243   0.5136718   0.4020022 SPIN=   0.00000
   O  -0.2134348   0.3348243   0.1935620 SPIN=   0.00000
   O  -0.3957012   0.1551046   0.3400148 SPIN=   0.00000
   S  -0.3841644   0.3159723   0.2607819 SPIN=   0.00000
   O  -0.2602885   0.5787971  -0.1075486 SPIN=   0.00000
   O  -0.5136718   0.3487243  -0.4020022 SPIN=   0.00000
   O  -0.3348243   0.2134348  -0.1935620 SPIN=   0.00000
   O  -0.1551046   0.3957012  -0.3400148 SPIN=   0.00000
   S  -0.3159723   0.3841644  -0.2607819 SPIN=   0.00000
   F  -0.3330137  -0.2088038   0.2433256 SPIN=   0.00000
   F   0.2088038   0.3330137  -0.2433256 SPIN=   0.00000
   F  -0.2283732  -0.1184958  -0.2490583 SPIN=   0.00000
   F   0.1184958   0.2283732   0.2490583 SPIN=   0.00000
%ENDBLOCK POSITIONS_FRAC

# Note: total spin =  16.00

KPOINTS_MP_SPACING 0.07

%BLOCK SPECIES_POT
QC5
%ENDBLOCK SPECIES_POT

SNAP_TO_SYMMETRY
SYMMETRY_GENERATE

