#              Generated by Buildcell
#
# at 12:53:12 (GMT+1.0) 18th August 2020
# in /lustre/scratch/uccabz1/launch_tmp
# on node-c12e-001
# by uccabz1
#
# compiler GCC version 4.9.2
# options -cpp -iprefix /lustre/shared/ucl/apps/gcc/4.9.2/bin/../lib/gcc/x86_64-unknown-linux-gnu/4.9.2/ -mtune=corei7 -march=x86-64 -g -Og
#
# seed  -842179432  1353691548  1660018842  1481535782 -1643218793 -1232581510  -644994551  2071418011   822066289   -70292902  -110398033 -1200654617
#
#      Author: C. J. Pickard (cjp20@cam.ac.uk)
#                Space group: Aea2
#

%BLOCK LATTICE_ABC
      5.90630      5.90630     11.99278
     90.00000     90.00000    107.03759
%ENDBLOCK LATTICE_ABC

%BLOCK POSITIONS_FRAC
  Li   0.4139532  -0.1581735   0.3674929 SPIN=   0.00000
  Li   0.1581735  -0.4139532  -0.3674929 SPIN=   0.00000
  Li  -0.3418265   0.0860468  -0.1325071 SPIN=   0.00000
  Li  -0.0860468   0.3418265   0.1325071 SPIN=   0.00000
  Fe  -0.2738142  -0.2911104  -0.3118658 SPIN=   4.00000
  Fe   0.2911104   0.2738142   0.3118658 SPIN=   4.00000
  Fe  -0.2088896  -0.2261858   0.1881342 SPIN=   4.00000
  Fe   0.2261858   0.2088896  -0.1881342 SPIN=   4.00000
   O  -0.3315686  -0.5878115  -0.0916711 SPIN=   0.00000
   O   0.0573092  -0.4661060   0.0034139 SPIN=   0.00000
   O  -0.2026130  -0.2050481   0.0084957 SPIN=   0.00000
   O  -0.0059316  -0.2582284  -0.1676602 SPIN=   0.00000
   S  -0.1207010  -0.3792985  -0.0618555 SPIN=   0.00000
   O   0.5878115   0.3315686   0.0916711 SPIN=   0.00000
   O   0.4661060  -0.0573092  -0.0034139 SPIN=   0.00000
   O   0.2050481   0.2026130  -0.0084957 SPIN=   0.00000
   O   0.2582284   0.0059316   0.1676602 SPIN=   0.00000
   S   0.3792985   0.1207010   0.0618555 SPIN=   0.00000
   O   0.0878115  -0.1684314   0.4083289 SPIN=   0.00000
   O  -0.0338940  -0.5573092   0.5034139 SPIN=   0.00000
   O  -0.2949519  -0.2973870   0.5084957 SPIN=   0.00000
   O  -0.2417716  -0.4940684   0.3323398 SPIN=   0.00000
   S  -0.1207015  -0.3792990   0.4381445 SPIN=   0.00000
   O   0.1684314  -0.0878115  -0.4083289 SPIN=   0.00000
   O   0.5573092   0.0338940  -0.5034139 SPIN=   0.00000
   O   0.2973870   0.2949519  -0.5084957 SPIN=   0.00000
   O   0.4940684   0.2417716  -0.3323398 SPIN=   0.00000
   S   0.3792990   0.1207015  -0.4381445 SPIN=   0.00000
   F   0.3873717  -0.3515585  -0.2416364 SPIN=   0.00000
   F   0.3515585  -0.3873717   0.2416364 SPIN=   0.00000
   F  -0.1484415   0.1126283   0.2583636 SPIN=   0.00000
   F  -0.1126283   0.1484415  -0.2583636 SPIN=   0.00000
%ENDBLOCK POSITIONS_FRAC

# Note: total spin =  16.00

KPOINTS_MP_SPACING 0.07

%BLOCK SPECIES_POT
QC5
%ENDBLOCK SPECIES_POT

SNAP_TO_SYMMETRY
SYMMETRY_GENERATE

