#              Generated by Buildcell
#
# at 09:24:26 (GMT+1.0) 4th August 2020
# in /lustre/scratch/uccabz1/launch_tmp
# on node-c12h-035
# by uccabz1
#
# compiler GCC version 4.9.2
# options -cpp -iprefix /lustre/shared/ucl/apps/gcc/4.9.2/bin/../lib/gcc/x86_64-unknown-linux-gnu/4.9.2/ -mtune=corei7 -march=x86-64 -g -Og
#
# seed -1005539750 -1287760866   227363265 -1162869709    40127135  -931523048  1407187985  1182846099  1159668192  1048682570  1494952569  -691508550
#
#      Author: C. J. Pickard (cjp20@cam.ac.uk)
#                Space group: Cc
#

%BLOCK LATTICE_ABC
      7.21978      7.21978      9.11311
    103.33836    109.85165    106.26974
%ENDBLOCK LATTICE_ABC

%BLOCK POSITIONS_FRAC
  Li   0.1353786   0.1624637  -0.0356816 SPIN=   0.00000
  Li   0.3018547  -0.1710602   0.4643184 SPIN=   0.00000
  Li  -0.3058569  -0.4243792   0.4194881 SPIN=   0.00000
  Li   0.3438673  -0.2746550  -0.0805119 SPIN=   0.00000
  Fe  -0.2835668  -0.1934393  -0.1705731 SPIN=   5.66494
  Fe  -0.4771338   0.1129937   0.3294269 SPIN=   5.66494
  Fe  -0.1157770   0.3735958  -0.2178973 SPIN=   2.33506
  Fe  -0.0914931  -0.1021203   0.2821027 SPIN=   2.33506
   O  -0.4149713   0.0294532   0.0574751 SPIN=   0.00000
   O  -0.2717444   0.4086710   0.2020385 SPIN=   0.00000
   O  -0.3324205   0.2636918  -0.0921319 SPIN=   0.00000
   O  -0.0383554   0.2437721   0.1345480 SPIN=   0.00000
   S  -0.2643729   0.2363970   0.0754824 SPIN=   0.00000
   O   0.5280220   0.4724464  -0.4425249 SPIN=   0.00000
   O   0.2933675   0.4737829  -0.2979615 SPIN=   0.00000
   O   0.1441763   0.2402886  -0.5921319 SPIN=   0.00000
   O   0.3907760   0.1729034  -0.3654520 SPIN=   0.00000
   S   0.3390854   0.3398553  -0.4245176 SPIN=   0.00000
   O  -0.0359048  -0.2260452  -0.2419233 SPIN=   0.00000
   O   0.1680535  -0.2942884  -0.4035392 SPIN=   0.00000
   O   0.3158528   0.0397925  -0.1703533 SPIN=   0.00000
   O   0.0030178  -0.0391229  -0.4327067 SPIN=   0.00000
   S   0.1127548  -0.1299160  -0.3121306 SPIN=   0.00000
   O   0.4841219  -0.2060185   0.2580767 SPIN=   0.00000
   O   0.3907492  -0.5715927   0.0964608 SPIN=   0.00000
   O   0.2898542  -0.4862061   0.3296467 SPIN=   0.00000
   O   0.1064162  -0.4357245   0.0672933 SPIN=   0.00000
   S   0.3177854  -0.4248854   0.1878694 SPIN=   0.00000
   F  -0.3372108  -0.3277923   0.0001180 SPIN=   0.00000
   F  -0.1720897   0.3373288  -0.4998820 SPIN=   0.00000
   F   0.2397633   0.0469866   0.1199126 SPIN=   0.00000
   F  -0.4270740  -0.1198507  -0.3800874 SPIN=   0.00000
%ENDBLOCK POSITIONS_FRAC

# Note: total spin =  16.00

KPOINTS_MP_SPACING 0.07

%BLOCK SPECIES_POT
QC5
%ENDBLOCK SPECIES_POT

SNAP_TO_SYMMETRY
SYMMETRY_GENERATE

