#              Generated by Buildcell
#
# at 06:20:40 (GMT+1.0) 4th August 2020
# in /lustre/scratch/uccabz1/launch_tmp
# on node-c12k-007
# by uccabz1
#
# compiler GCC version 4.9.2
# options -cpp -iprefix /lustre/shared/ucl/apps/gcc/4.9.2/bin/../lib/gcc/x86_64-unknown-linux-gnu/4.9.2/ -mtune=corei7 -march=x86-64 -g -Og
#
# seed   509872903  1434340726  -251726449 -1734122287  1443690316   507278054  1683497683 -1618013896   884305993   731027441  1974504061   -11511944
#
#      Author: C. J. Pickard (cjp20@cam.ac.uk)
#                Space group: P21212
#

%BLOCK LATTICE_ABC
      4.04134      6.79855     14.55858
     90.00000     90.00000     90.00000
%ENDBLOCK LATTICE_ABC

%BLOCK POSITIONS_FRAC
  Li  -0.0546425  -0.2615237   0.2064216 SPIN=   0.00000
  Li   0.0546425  -0.2615237  -0.2064216 SPIN=   0.00000
  Li  -0.4453575   0.2615237  -0.2935784 SPIN=   0.00000
  Li   0.4453575   0.2615237   0.2935784 SPIN=   0.00000
  Fe   0.4435844   0.0119175   0.1228520 SPIN=   4.00000
  Fe  -0.4435844   0.0119175  -0.1228520 SPIN=   4.00000
  Fe   0.0564156  -0.0119175  -0.3771480 SPIN=   4.00000
  Fe  -0.0564156  -0.0119175   0.3771480 SPIN=   4.00000
   O   0.2243743  -0.3510109   0.3574872 SPIN=   0.00000
   O   0.0451271  -0.6964425   0.3775260 SPIN=   0.00000
   O  -0.2961920  -0.4663957   0.2859812 SPIN=   0.00000
   O  -0.2609240  -0.4279689   0.4547419 SPIN=   0.00000
   S  -0.0719037  -0.4854545   0.3689341 SPIN=   0.00000
   O  -0.2243743  -0.3510109  -0.3574872 SPIN=   0.00000
   O  -0.0451271  -0.6964425  -0.3775260 SPIN=   0.00000
   O   0.2961920  -0.4663957  -0.2859812 SPIN=   0.00000
   O   0.2609240  -0.4279689  -0.4547419 SPIN=   0.00000
   S   0.0719037  -0.4854545  -0.3689341 SPIN=   0.00000
   O  -0.7243743   0.3510109  -0.1425128 SPIN=   0.00000
   O  -0.5451271   0.6964425  -0.1224740 SPIN=   0.00000
   O  -0.2038080   0.4663957  -0.2140188 SPIN=   0.00000
   O  -0.2390760   0.4279689  -0.0452581 SPIN=   0.00000
   S  -0.4280963   0.4854545  -0.1310659 SPIN=   0.00000
   O   0.7243743   0.3510109   0.1425128 SPIN=   0.00000
   O   0.5451271   0.6964425   0.1224740 SPIN=   0.00000
   O   0.2038080   0.4663957   0.2140188 SPIN=   0.00000
   O   0.2390760   0.4279689   0.0452581 SPIN=   0.00000
   S   0.4280963   0.4854545   0.1310659 SPIN=   0.00000
   F   0.0388483  -0.0303555  -0.1350149 SPIN=   0.00000
   F  -0.0388483  -0.0303555   0.1350149 SPIN=   0.00000
   F   0.4611517   0.0303555   0.3649851 SPIN=   0.00000
   F  -0.4611517   0.0303555  -0.3649851 SPIN=   0.00000
%ENDBLOCK POSITIONS_FRAC

# Note: total spin =  16.00

KPOINTS_MP_SPACING 0.07

%BLOCK SPECIES_POT
QC5
%ENDBLOCK SPECIES_POT

SNAP_TO_SYMMETRY
SYMMETRY_GENERATE

