#              Generated by Buildcell
#
# at 23:00:26 (GMT+1.0) 17th August 2020
# in /lustre/scratch/uccabz1/launch_tmp
# on node-c12k-020
# by uccabz1
#
# compiler GCC version 4.9.2
# options -cpp -iprefix /lustre/shared/ucl/apps/gcc/4.9.2/bin/../lib/gcc/x86_64-unknown-linux-gnu/4.9.2/ -mtune=corei7 -march=x86-64 -g -Og
#
# seed -1240581290   559204150  1877144518   872033057   789154897 -1111261232  1019367631   376461396  -879080505  -854857608  -737301768  1579790265
#
#      Author: C. J. Pickard (cjp20@cam.ac.uk)
#                Space group: C2
#

%BLOCK LATTICE_ABC
      6.05962      6.05962     12.87824
     93.07342    100.84434    119.09143
%ENDBLOCK LATTICE_ABC

%BLOCK POSITIONS_FRAC
  Li  -0.2088676   0.0348863  -0.1175530 SPIN=   0.00000
  Li   0.1524392  -0.0913147   0.1175530 SPIN=   0.00000
  Li  -0.0298773  -0.3950702  -0.2602984 SPIN=   0.00000
  Li  -0.1347718   0.2304211   0.2602984 SPIN=   0.00000
  Fe   0.6599024  -0.3922141   0.2581264 SPIN=   1.52532
  Fe  -0.6503405   0.4017760  -0.2581264 SPIN=   1.52532
  Fe  -0.3704069   0.0284647  -0.3565031 SPIN=   6.47468
  Fe   0.3849678  -0.0139038   0.3565031 SPIN=   6.47468
   O   0.7737683  -0.1782278   0.0865003 SPIN=   0.00000
   O   0.4613903  -0.1613446  -0.0626689 SPIN=   0.00000
   O   0.6477083   0.1509776   0.1058259 SPIN=   0.00000
   O   0.3291089  -0.3042540   0.1032330 SPIN=   0.00000
   S   0.5529939  -0.1232122   0.0582225 SPIN=   0.00000
   O  -0.2647282   0.6872680  -0.0865003 SPIN=   0.00000
   O  -0.0986756   0.5240592   0.0626689 SPIN=   0.00000
   O   0.0451517   0.5418824  -0.1058259 SPIN=   0.00000
   O  -0.4074870   0.2258759  -0.1032330 SPIN=   0.00000
   S  -0.1814347   0.4947714  -0.0582225 SPIN=   0.00000
   O   0.2444257   0.1060500  -0.3959275 SPIN=   0.00000
   O  -0.2090604  -0.2048447  -0.3923715 SPIN=   0.00000
   O   0.0933155  -0.3573928  -0.4156109 SPIN=   0.00000
   O  -0.0701819  -0.1860904  -0.5621055 SPIN=   0.00000
   S   0.0146247  -0.1605695  -0.4415038 SPIN=   0.00000
   O   0.5019774   0.6403532   0.3959275 SPIN=   0.00000
   O   0.1875268   0.1833111   0.3923715 SPIN=   0.00000
   O   0.0582181   0.5089264   0.4156109 SPIN=   0.00000
   O   0.3760150   0.4919236   0.5621055 SPIN=   0.00000
   S   0.2809343   0.4561286   0.4415038 SPIN=   0.00000
   F   0.3461034   0.2950609   0.1500209 SPIN=   0.00000
   F   0.1450400   0.1960825  -0.1500209 SPIN=   0.00000
   F   0.0281179  -0.2767698   0.2560526 SPIN=   0.00000
   F  -0.5328224  -0.2279347  -0.2560526 SPIN=   0.00000
%ENDBLOCK POSITIONS_FRAC

# Note: total spin =  16.00

KPOINTS_MP_SPACING 0.07

%BLOCK SPECIES_POT
QC5
%ENDBLOCK SPECIES_POT

SNAP_TO_SYMMETRY
SYMMETRY_GENERATE

