#              Generated by Buildcell
#
# at 04:45:07 (GMT+1.0) 18th August 2020
# in /lustre/scratch/uccabz1/launch_tmp
# on node-c12p-003
# by uccabz1
#
# compiler GCC version 4.9.2
# options -cpp -iprefix /lustre/shared/ucl/apps/gcc/4.9.2/bin/../lib/gcc/x86_64-unknown-linux-gnu/4.9.2/ -mtune=corei7 -march=x86-64 -g -Og
#
# seed   451961839  2078173961  -893756062   320349451  1533694676 -1868241561 -2025953558 -1507180789   135110302   637312072 -1855809967  1246125712
#
#      Author: C. J. Pickard (cjp20@cam.ac.uk)
#                Space group: Pc
#

%BLOCK LATTICE_ABC
      5.53581      6.03341     12.08855
     90.00000     90.00000     97.82037
%ENDBLOCK LATTICE_ABC

%BLOCK POSITIONS_FRAC
  Li   0.0326113   0.3533860   0.2813696 SPIN=   0.00000
  Li   0.0326113  -0.1466140  -0.2813696 SPIN=   0.00000
  Li   0.3701872  -0.1669667   0.1019082 SPIN=   0.00000
  Li   0.3701872   0.3330333  -0.1019082 SPIN=   0.00000
  Fe  -0.3527036   0.2999286   0.1064450 SPIN=   6.30931
  Fe  -0.3527036  -0.2000714  -0.1064450 SPIN=   6.30931
  Fe   0.0359382   0.3754413  -0.4129487 SPIN=   1.69069
  Fe   0.0359382  -0.1245587   0.4129487 SPIN=   1.69069
   O  -0.4520703   0.3746635   0.3135170 SPIN=   0.00000
   O  -0.1810977   0.0834748   0.3355752 SPIN=   0.00000
   O  -0.6290656  -0.0207099   0.3410355 SPIN=   0.00000
   O  -0.4171464   0.1938164   0.4955010 SPIN=   0.00000
   S  -0.4198450   0.1578112   0.3714072 SPIN=   0.00000
   O  -0.4520703  -0.1253365  -0.3135170 SPIN=   0.00000
   O  -0.1810977  -0.4165252  -0.3355752 SPIN=   0.00000
   O  -0.6290656  -0.5207099  -0.3410355 SPIN=   0.00000
   O  -0.4171464  -0.3061836  -0.4955010 SPIN=   0.00000
   S  -0.4198450  -0.3421888  -0.3714072 SPIN=   0.00000
   O  -0.2009617  -0.3914296   0.2065093 SPIN=   0.00000
   O   0.1157114  -0.0604032   0.1961203 SPIN=   0.00000
   O  -0.3177056  -0.0184934   0.1652506 SPIN=   0.00000
   O  -0.0937852  -0.2114852   0.0258477 SPIN=   0.00000
   S  -0.1241853  -0.1704528   0.1484320 SPIN=   0.00000
   O  -0.2009617   0.1085704  -0.2065093 SPIN=   0.00000
   O   0.1157114   0.4395968  -0.1961203 SPIN=   0.00000
   O  -0.3177056   0.4815066  -0.1652506 SPIN=   0.00000
   O  -0.0937852   0.2885148  -0.0258477 SPIN=   0.00000
   S  -0.1241853   0.3295472  -0.1484320 SPIN=   0.00000
   F   0.1378588   0.0594946  -0.3972185 SPIN=   0.00000
   F   0.1378588  -0.4405054   0.3972185 SPIN=   0.00000
   F   0.3014573  -0.0995610  -0.1135309 SPIN=   0.00000
   F   0.3014573   0.4004390   0.1135309 SPIN=   0.00000
%ENDBLOCK POSITIONS_FRAC

# Note: total spin =  16.00

KPOINTS_MP_SPACING 0.07

%BLOCK SPECIES_POT
QC5
%ENDBLOCK SPECIES_POT

SNAP_TO_SYMMETRY
SYMMETRY_GENERATE

