#              Generated by Buildcell
#
# at 06:43:05 (GMT+1.0) 4th August 2020
# in /lustre/scratch/uccabz1/launch_tmp
# on node-c12c-007
# by uccabz1
#
# compiler GCC version 4.9.2
# options -cpp -iprefix /lustre/shared/ucl/apps/gcc/4.9.2/bin/../lib/gcc/x86_64-unknown-linux-gnu/4.9.2/ -mtune=corei7 -march=x86-64 -g -Og
#
# seed   252943671  1201990244 -1599977649  1558133408  1090962133 -1252396488   879311621  -482125988  1249068644   166495433 -1668020577  1171211089
#
#      Author: C. J. Pickard (cjp20@cam.ac.uk)
#                Space group: Cc
#

%BLOCK LATTICE_ABC
      7.34608      7.34608      7.48450
     91.26832     91.26832     97.73376
%ENDBLOCK LATTICE_ABC

%BLOCK POSITIONS_FRAC
  Li  -0.0268694  -0.1155450  -0.3280982 SPIN=   0.00000
  Li  -0.1155450  -0.0268694   0.1719018 SPIN=   0.00000
  Li   0.4908496  -0.0097134  -0.1857579 SPIN=   0.00000
  Li  -0.0097134   0.4908496   0.3142421 SPIN=   0.00000
  Fe  -0.3553019  -0.4347653  -0.4165338 SPIN=   7.06822
  Fe  -0.4347653  -0.3553019   0.0834662 SPIN=   7.06822
  Fe   0.0908288  -0.4918623  -0.0927098 SPIN=   0.93178
  Fe  -0.4918623   0.0908288   0.4072902 SPIN=   0.93178
   O   0.1806782  -0.0173762  -0.1366907 SPIN=   0.00000
   O   0.1045263  -0.2267126   0.1134460 SPIN=   0.00000
   O   0.1981282   0.1055422   0.1746723 SPIN=   0.00000
   O   0.4266384  -0.0892686   0.0708343 SPIN=   0.00000
   S   0.2274928  -0.0569538   0.0555655 SPIN=   0.00000
   O  -0.0173762   0.1806782  -0.6366907 SPIN=   0.00000
   O  -0.2267126   0.1045263  -0.3865540 SPIN=   0.00000
   O   0.1055422   0.1981282  -0.3253277 SPIN=   0.00000
   O  -0.0892686   0.4266384  -0.4291657 SPIN=   0.00000
   S  -0.0569538   0.2274928  -0.4444345 SPIN=   0.00000
   O  -0.4813205   0.2371373  -0.0499438 SPIN=   0.00000
   O  -0.2006361   0.0888513  -0.0855058 SPIN=   0.00000
   O  -0.2970479   0.1732417   0.2165830 SPIN=   0.00000
   O  -0.1750947   0.4161280   0.0102109 SPIN=   0.00000
   S  -0.2885248   0.2288396   0.0228361 SPIN=   0.00000
   O   0.2371373  -0.4813205  -0.5499438 SPIN=   0.00000
   O   0.0888513  -0.2006361  -0.5855058 SPIN=   0.00000
   O   0.1732417  -0.2970479  -0.2834170 SPIN=   0.00000
   O   0.4161280  -0.1750947  -0.4897891 SPIN=   0.00000
   S   0.2288396  -0.2885248  -0.4771639 SPIN=   0.00000
   F  -0.2904570  -0.1792718   0.3034328 SPIN=   0.00000
   F  -0.1792718  -0.2904570  -0.1965672 SPIN=   0.00000
   F   0.3031400   0.4601562   0.1032669 SPIN=   0.00000
   F   0.4601562   0.3031400  -0.3967331 SPIN=   0.00000
%ENDBLOCK POSITIONS_FRAC

# Note: total spin =  16.00

KPOINTS_MP_SPACING 0.07

%BLOCK SPECIES_POT
QC5
%ENDBLOCK SPECIES_POT

SNAP_TO_SYMMETRY
SYMMETRY_GENERATE

