#              Generated by Buildcell
#
# at 10:45:00 (GMT+1.0) 4th August 2020
# in /lustre/scratch/uccabz1/launch_tmp
# on node-c12c-008
# by uccabz1
#
# compiler GCC version 4.9.2
# options -cpp -iprefix /lustre/shared/ucl/apps/gcc/4.9.2/bin/../lib/gcc/x86_64-unknown-linux-gnu/4.9.2/ -mtune=corei7 -march=x86-64 -g -Og
#
# seed -1079900141  1635143669   473044753 -1038256819   356062904  1367282014   268930060 -2057475675  1428581604  -520796948   927944312 -1480914633
#
#      Author: C. J. Pickard (cjp20@cam.ac.uk)
#                Space group: C2
#

%BLOCK LATTICE_ABC
      5.56346      8.48573      8.48573
     87.12967     89.03241     89.03241
%ENDBLOCK LATTICE_ABC

%BLOCK POSITIONS_FRAC
  Li  -0.3163633   0.4165707  -0.1421456 SPIN=   0.00000
  Li   0.3163633   0.1421456  -0.4165707 SPIN=   0.00000
  Li  -0.2572118   0.4319659   0.3244075 SPIN=   0.00000
  Li   0.2572118  -0.3244075  -0.4319659 SPIN=   0.00000
  Fe   0.2331100  -0.4059301   0.1874841 SPIN=   3.92634
  Fe  -0.2331100  -0.1874841   0.4059301 SPIN=   3.92634
  Fe   0.2648385   0.0551931   0.2425664 SPIN=   4.07366
  Fe  -0.2648385  -0.2425664  -0.0551931 SPIN=   4.07366
   O   0.2392251   0.3430559  -0.0517450 SPIN=   0.00000
   O   0.4188109   0.5762336  -0.1922370 SPIN=   0.00000
   O  -0.0235538   0.5533834  -0.1708255 SPIN=   0.00000
   O   0.2108862   0.3777288  -0.3421949 SPIN=   0.00000
   S   0.2113421   0.4626004  -0.1892506 SPIN=   0.00000
   O  -0.2392251   0.0517450  -0.3430559 SPIN=   0.00000
   O  -0.4188109   0.1922370  -0.5762336 SPIN=   0.00000
   O   0.0235538   0.1708255  -0.5533834 SPIN=   0.00000
   O  -0.2108862   0.3421949  -0.3777288 SPIN=   0.00000
   S  -0.2113421   0.1892506  -0.4626004 SPIN=   0.00000
   O  -0.0001312   0.2118451   0.1506701 SPIN=   0.00000
   O  -0.4249845   0.2967981   0.1186274 SPIN=   0.00000
   O  -0.3141481   0.0130614   0.1198500 SPIN=   0.00000
   O  -0.1965350   0.1916141  -0.1068958 SPIN=   0.00000
   S  -0.2339497   0.1783297   0.0705629 SPIN=   0.00000
   O   0.0001312  -0.1506701  -0.2118451 SPIN=   0.00000
   O   0.4249845  -0.1186274  -0.2967981 SPIN=   0.00000
   O   0.3141481  -0.1198500  -0.0130614 SPIN=   0.00000
   O   0.1965350   0.1068958  -0.1916141 SPIN=   0.00000
   S   0.2339497  -0.0705629  -0.1783297 SPIN=   0.00000
   F   0.2871474   0.4348967   0.3504061 SPIN=   0.00000
   F  -0.2871474  -0.3504061  -0.4348967 SPIN=   0.00000
   F   0.2050765  -0.1396864   0.3605626 SPIN=   0.00000
   F  -0.2050765  -0.3605626   0.1396864 SPIN=   0.00000
%ENDBLOCK POSITIONS_FRAC

# Note: total spin =  16.00

KPOINTS_MP_SPACING 0.07

%BLOCK SPECIES_POT
QC5
%ENDBLOCK SPECIES_POT

SNAP_TO_SYMMETRY
SYMMETRY_GENERATE

