#              Generated by Buildcell
#
# at 07:41:25 (GMT+1.0) 4th August 2020
# in /lustre/scratch/uccabz1/launch_tmp
# on node-c12l-024
# by uccabz1
#
# compiler GCC version 4.9.2
# options -cpp -iprefix /lustre/shared/ucl/apps/gcc/4.9.2/bin/../lib/gcc/x86_64-unknown-linux-gnu/4.9.2/ -mtune=corei7 -march=x86-64 -g -Og
#
# seed -1278627935 -1781244666  -146801555  -392192881 -1161349272  1852713665  1435660042 -1651465095  -183989293  -670971507 -1657201197 -1920979383
#
#      Author: C. J. Pickard (cjp20@cam.ac.uk)
#                Space group: I41
#

%BLOCK LATTICE_ABC
      8.22595      8.22595      8.22595
     91.95082    118.88016    118.88016
%ENDBLOCK LATTICE_ABC

%BLOCK POSITIONS_FRAC
  Li   0.3376126   0.3582204  -0.4151915 SPIN=   0.00000
  Li  -0.3376126   0.2471959   0.0206078 SPIN=   0.00000
  Li   0.2734119   0.2706078   0.1082204 SPIN=   0.00000
  Li  -0.2734119  -0.1651915  -0.0028041 SPIN=   0.00000
  Fe  -0.2079507   0.1515016   0.3872265 SPIN=   4.00000
  Fe   0.2079507  -0.4048228   0.3594523 SPIN=   4.00000
  Fe   0.2642751  -0.3905477  -0.0984984 SPIN=   4.00000
  Fe  -0.2642751  -0.3627735   0.3451772 SPIN=   4.00000
   O   0.0338467  -0.1073896   0.0910899 SPIN=   0.00000
   O   0.2652145  -0.1174206   0.4194164 SPIN=   0.00000
   O   0.3331012   0.2024186   0.3825106 SPIN=   0.00000
   O   0.4367206   0.0303010   0.2399321 SPIN=   0.00000
   S   0.2672207   0.0019774   0.2832373 SPIN=   0.00000
   O  -0.0338467   0.0572432  -0.1412362 SPIN=   0.00000
   O  -0.2652145   0.1542020  -0.3826351 SPIN=   0.00000
   O  -0.3331012   0.0494094  -0.1306826 SPIN=   0.00000
   O  -0.4367206  -0.1967885  -0.4064196 SPIN=   0.00000
   S  -0.2672207   0.0160165  -0.2652434 SPIN=   0.00000
   O   0.3015206   0.1087638  -0.3573896 SPIN=   0.00000
   O  -0.0368371  -0.1326351  -0.3674206 SPIN=   0.00000
   O   0.3199080   0.1193174  -0.0475814 SPIN=   0.00000
   O   0.2903689  -0.1564196  -0.2196990 SPIN=   0.00000
   S   0.2187401  -0.0152434  -0.2480226 SPIN=   0.00000
   O  -0.3015206  -0.6589101  -0.1927568 SPIN=   0.00000
   O   0.0368371  -0.3305836  -0.0957980 SPIN=   0.00000
   O  -0.3199080  -0.3674894  -0.2005906 SPIN=   0.00000
   O  -0.2903689  -0.5100679  -0.4467885 SPIN=   0.00000
   S  -0.2187401  -0.4667627  -0.2339835 SPIN=   0.00000
   F   0.1801081   0.4104769  -0.3246968 SPIN=   0.00000
   F  -0.1801081   0.4951951   0.2303688 SPIN=   0.00000
   F   0.2351737   0.4803688   0.1604769 SPIN=   0.00000
   F  -0.2351737  -0.0746968   0.2451951 SPIN=   0.00000
%ENDBLOCK POSITIONS_FRAC

# Note: total spin =  16.00

KPOINTS_MP_SPACING 0.07

%BLOCK SPECIES_POT
QC5
%ENDBLOCK SPECIES_POT

SNAP_TO_SYMMETRY
SYMMETRY_GENERATE

