#              Generated by Buildcell
#
# at 09:11:24 (GMT+1.0) 4th August 2020
# in /lustre/scratch/uccabz1/launch_tmp
# on node-c12f-011
# by uccabz1
#
# compiler GCC version 4.9.2
# options -cpp -iprefix /lustre/shared/ucl/apps/gcc/4.9.2/bin/../lib/gcc/x86_64-unknown-linux-gnu/4.9.2/ -mtune=corei7 -march=x86-64 -g -Og
#
# seed -1389006562 -2068299811  1364578643  1926879505  -118375397 -2112646517   196595895 -1528654313  -595522451   434893707 -1011192837  1722107025
#
#      Author: C. J. Pickard (cjp20@cam.ac.uk)
#                Space group: C2
#

%BLOCK LATTICE_ABC
      5.77407      8.69629      8.69629
     70.08553     79.37045     79.37045
%ENDBLOCK LATTICE_ABC

%BLOCK POSITIONS_FRAC
  Li  -0.4617529   0.1550775   0.2388489 SPIN=   0.00000
  Li   0.4617529  -0.2388489  -0.1550775 SPIN=   0.00000
  Li  -0.2500428   0.1912335  -0.4225850 SPIN=   0.00000
  Li   0.2500428   0.4225850  -0.1912335 SPIN=   0.00000
  Fe   0.1465985   0.0779881   0.1278397 SPIN=   5.15967
  Fe  -0.1465985  -0.1278397  -0.0779881 SPIN=   5.15967
  Fe   0.2954397  -0.3695931   0.2043656 SPIN=   2.84033
  Fe  -0.2954397  -0.2043656   0.3695931 SPIN=   2.84033
   O   0.4058581   0.1370027  -0.5355611 SPIN=   0.00000
   O   0.3942149   0.4382808  -0.6012238 SPIN=   0.00000
   O   0.3214877   0.2613620  -0.3107142 SPIN=   0.00000
   O   0.0224986   0.3109965  -0.4987066 SPIN=   0.00000
   S   0.2860148   0.2869105  -0.4865514 SPIN=   0.00000
   O  -0.4058581   0.5355611  -0.1370027 SPIN=   0.00000
   O  -0.3942149   0.6012238  -0.4382808 SPIN=   0.00000
   O  -0.3214877   0.3107142  -0.2613620 SPIN=   0.00000
   O  -0.0224986   0.4987066  -0.3109965 SPIN=   0.00000
   S  -0.2860148   0.4865514  -0.2869105 SPIN=   0.00000
   O   0.4046779  -0.1638699  -0.3825037 SPIN=   0.00000
   O   0.0041080  -0.2503403  -0.2826388 SPIN=   0.00000
   O   0.2011762  -0.2495786  -0.5608607 SPIN=   0.00000
   O   0.0548449   0.0144684  -0.5044982 SPIN=   0.00000
   S   0.1662018  -0.1623301  -0.4326253 SPIN=   0.00000
   O  -0.4046779   0.3825037   0.1638699 SPIN=   0.00000
   O  -0.0041080   0.2826388   0.2503403 SPIN=   0.00000
   O  -0.2011762   0.5608607   0.2495786 SPIN=   0.00000
   O  -0.0548449   0.5044982  -0.0144684 SPIN=   0.00000
   S  -0.1662018   0.4326253   0.1623301 SPIN=   0.00000
   F   0.3454956   0.2602219   0.0039190 SPIN=   0.00000
   F  -0.3454956  -0.0039190  -0.2602219 SPIN=   0.00000
   F   0.1701482  -0.2531053  -0.0133086 SPIN=   0.00000
   F  -0.1701482   0.0133086   0.2531053 SPIN=   0.00000
%ENDBLOCK POSITIONS_FRAC

# Note: total spin =  16.00

KPOINTS_MP_SPACING 0.07

%BLOCK SPECIES_POT
QC5
%ENDBLOCK SPECIES_POT

SNAP_TO_SYMMETRY
SYMMETRY_GENERATE

