#              Generated by Buildcell
#
# at 07:33:50 (GMT+1.0) 4th August 2020
# in /lustre/scratch/uccabz1/launch_tmp
# on node-c12p-022
# by uccabz1
#
# compiler GCC version 4.9.2
# options -cpp -iprefix /lustre/shared/ucl/apps/gcc/4.9.2/bin/../lib/gcc/x86_64-unknown-linux-gnu/4.9.2/ -mtune=corei7 -march=x86-64 -g -Og
#
# seed   960250966  1644931751 -2085936213  1299752657  -914167652  1525994831  1394454209  -782308389  1001421652  -623724435   354060917  1944811900
#
#      Author: C. J. Pickard (cjp20@cam.ac.uk)
#                Space group: P-1
#

%BLOCK LATTICE_ABC
      6.53349      7.25963      9.12856
     88.79031     86.49013     67.75620
%ENDBLOCK LATTICE_ABC

%BLOCK POSITIONS_FRAC
  Li   0.3814483   0.0567949  -0.2421038 SPIN=   0.00000
  Li  -0.3814483  -0.0567949   0.2421038 SPIN=   0.00000
  Li   0.2034802  -0.4651884   0.1362481 SPIN=   0.00000
  Li  -0.2034802   0.4651884  -0.1362481 SPIN=   0.00000
  Fe  -0.2905423  -0.2510912  -0.4470153 SPIN=   4.81071
  Fe   0.2905423   0.2510912   0.4470153 SPIN=   4.81071
  Fe   0.3326113  -0.4976506  -0.1941797 SPIN=   3.18929
  Fe  -0.3326113   0.4976506   0.1941797 SPIN=   3.18929
   O   0.3133162  -0.2775756   0.3013831 SPIN=   0.00000
   O   0.3146511  -0.1465396   0.5492681 SPIN=   0.00000
   O   0.2994983  -0.4793581   0.5209411 SPIN=   0.00000
   O  -0.0252733  -0.1767309   0.4669435 SPIN=   0.00000
   S   0.2255481  -0.2700511   0.4596339 SPIN=   0.00000
   O  -0.3133162   0.2775756  -0.3013831 SPIN=   0.00000
   O  -0.3146511   0.1465396  -0.5492681 SPIN=   0.00000
   O  -0.2994983   0.4793581  -0.5209411 SPIN=   0.00000
   O   0.0252733   0.1767309  -0.4669435 SPIN=   0.00000
   S  -0.2255481   0.2700511  -0.4596339 SPIN=   0.00000
   O   0.1404789   0.2703140   0.2444648 SPIN=   0.00000
   O   0.3882385  -0.0233752   0.1010677 SPIN=   0.00000
   O   0.0533601   0.2176040  -0.0075441 SPIN=   0.00000
   O   0.0164499  -0.0034584   0.1937692 SPIN=   0.00000
   S   0.1496318   0.1152711   0.1329394 SPIN=   0.00000
   O  -0.1404789  -0.2703140  -0.2444648 SPIN=   0.00000
   O  -0.3882385   0.0233752  -0.1010677 SPIN=   0.00000
   O  -0.0533601  -0.2176040   0.0075441 SPIN=   0.00000
   O  -0.0164499   0.0034584  -0.1937692 SPIN=   0.00000
   S  -0.1496318  -0.1152711  -0.1329394 SPIN=   0.00000
   F   0.1651968   0.3421468  -0.2615104 SPIN=   0.00000
   F  -0.1651968  -0.3421468   0.2615104 SPIN=   0.00000
   F  -0.4129799   0.2638448   0.1337327 SPIN=   0.00000
   F   0.4129799  -0.2638448  -0.1337327 SPIN=   0.00000
%ENDBLOCK POSITIONS_FRAC

# Note: total spin =  16.00

KPOINTS_MP_SPACING 0.07

%BLOCK SPECIES_POT
QC5
%ENDBLOCK SPECIES_POT

SNAP_TO_SYMMETRY
SYMMETRY_GENERATE

