#              Generated by Buildcell
#
# at 10:44:33 (GMT+1.0) 4th August 2020
# in /lustre/scratch/uccabz1/launch_tmp
# on node-c12f-005
# by uccabz1
#
# compiler GCC version 4.9.2
# options -cpp -iprefix /lustre/shared/ucl/apps/gcc/4.9.2/bin/../lib/gcc/x86_64-unknown-linux-gnu/4.9.2/ -mtune=corei7 -march=x86-64 -g -Og
#
# seed -1021948874  1938435028   114323638  1177360051    42144620 -1273036623  1930861751  1473572786  1172397350   702576349  1230911494  1526950777
#
#      Author: C. J. Pickard (cjp20@cam.ac.uk)
#                Space group: Cc
#

%BLOCK LATTICE_ABC
      6.26311      6.26311     10.46659
     94.60800     94.60800    100.85685
%ENDBLOCK LATTICE_ABC

%BLOCK POSITIONS_FRAC
  Li   0.0473380  -0.3168548   0.4366271 SPIN=   0.00000
  Li   0.1831452  -0.4526620  -0.0633729 SPIN=   0.00000
  Li  -0.3714437   0.0009141   0.2605314 SPIN=   0.00000
  Li  -0.4990859   0.1285563  -0.2394686 SPIN=   0.00000
  Fe   0.3180689   0.4864662  -0.3588122 SPIN=   2.18378
  Fe  -0.0135338  -0.1819311   0.1411878 SPIN=   2.18378
  Fe   0.4966154   0.4313939   0.2199288 SPIN=   5.81622
  Fe  -0.0686061  -0.0033846  -0.2800712 SPIN=   5.81622
   O   0.2930723  -0.1475516  -0.1003217 SPIN=   0.00000
   O   0.4671060   0.2361620  -0.0279968 SPIN=   0.00000
   O   0.6521117  -0.0639114   0.0293605 SPIN=   0.00000
   O   0.3191214  -0.0116285   0.1301544 SPIN=   0.00000
   S   0.4328529   0.0032676   0.0077991 SPIN=   0.00000
   O  -0.6475516  -0.2069277  -0.6003217 SPIN=   0.00000
   O  -0.2638380  -0.0328940  -0.5279968 SPIN=   0.00000
   O  -0.5639114   0.1521117  -0.4706395 SPIN=   0.00000
   O  -0.5116285  -0.1808786  -0.3698456 SPIN=   0.00000
   S  -0.4967324  -0.0671471  -0.4922009 SPIN=   0.00000
   O  -0.4921555  -0.4234420  -0.1150077 SPIN=   0.00000
   O  -0.2606965  -0.6153617  -0.2455850 SPIN=   0.00000
   O  -0.1774889  -0.5500740  -0.0089052 SPIN=   0.00000
   O  -0.1150050  -0.2405414  -0.1431216 SPIN=   0.00000
   S  -0.2613365  -0.4573548  -0.1281549 SPIN=   0.00000
   O   0.0765580   0.0078445   0.3849923 SPIN=   0.00000
   O  -0.1153617   0.2393035   0.2544150 SPIN=   0.00000
   O  -0.0500740   0.3225111   0.4910948 SPIN=   0.00000
   O   0.2594586   0.3849950   0.3568784 SPIN=   0.00000
   S   0.0426452   0.2386635   0.3718451 SPIN=   0.00000
   F  -0.0135179  -0.2700188  -0.3957345 SPIN=   0.00000
   F   0.2299812   0.4864821   0.1042655 SPIN=   0.00000
   F   0.1714937   0.2762188  -0.2330876 SPIN=   0.00000
   F  -0.2237812  -0.3285063   0.2669124 SPIN=   0.00000
%ENDBLOCK POSITIONS_FRAC

# Note: total spin =  16.00

KPOINTS_MP_SPACING 0.07

%BLOCK SPECIES_POT
QC5
%ENDBLOCK SPECIES_POT

SNAP_TO_SYMMETRY
SYMMETRY_GENERATE

