#              Generated by Buildcell
#
# at 08:19:25 (GMT+1.0) 4th August 2020
# in /lustre/scratch/uccabz1/launch_tmp
# on node-c12k-003
# by uccabz1
#
# compiler GCC version 4.9.2
# options -cpp -iprefix /lustre/shared/ucl/apps/gcc/4.9.2/bin/../lib/gcc/x86_64-unknown-linux-gnu/4.9.2/ -mtune=corei7 -march=x86-64 -g -Og
#
# seed  -433129147 -1249555861  -183194420   330560419  -482816959  1827214856 -1545917953 -1771160424 -1448086873  -933313156  -203425399   175849129
#
#      Author: C. J. Pickard (cjp20@cam.ac.uk)
#                Space group: C2
#

%BLOCK LATTICE_ABC
      3.98285     10.20954     10.20954
     81.03588     80.35626     80.35626
%ENDBLOCK LATTICE_ABC

%BLOCK POSITIONS_FRAC
  Li   0.1495916   0.3404880  -0.1245048 SPIN=   0.00000
  Li  -0.1495916   0.1245048  -0.3404880 SPIN=   0.00000
  Li   0.0404861   0.0807064   0.2897059 SPIN=   0.00000
  Li  -0.0404861  -0.2897059  -0.0807064 SPIN=   0.00000
  Fe  -0.5155856  -0.0520827   0.4886814 SPIN=   4.72323
  Fe   0.5155856  -0.4886814   0.0520827 SPIN=   4.72323
  Fe   0.0000000  -0.1420031   0.1420031 SPIN=   0.30922
  Fe  -0.5000000  -0.3739263   0.3739263 SPIN=   6.24432
   O   0.5004474  -0.1688744  -0.0983292 SPIN=   0.00000
   O  -0.0766942  -0.0348867  -0.1040202 SPIN=   0.00000
   O   0.2626122  -0.1094902  -0.3122941 SPIN=   0.00000
   O   0.4437276   0.0658596  -0.2086088 SPIN=   0.00000
   S   0.2825232  -0.0618479  -0.1808131 SPIN=   0.00000
   O  -0.5004474   0.0983292   0.1688744 SPIN=   0.00000
   O   0.0766942   0.1040202   0.0348867 SPIN=   0.00000
   O  -0.2626122   0.3122941   0.1094902 SPIN=   0.00000
   O  -0.4437276   0.2086088  -0.0658596 SPIN=   0.00000
   S  -0.2825232   0.1808131   0.0618479 SPIN=   0.00000
   O   1.1425505  -0.2844718  -0.4848873 SPIN=   0.00000
   O   1.1436965  -0.4717142  -0.2990177 SPIN=   0.00000
   O   0.5914519  -0.3459578  -0.3592246 SPIN=   0.00000
   S   0.9604007  -0.3350519  -0.3484181 SPIN=   0.00000
   O  -1.1425505   0.4848873   0.2844718 SPIN=   0.00000
   O  -1.1436965   0.2990177   0.4717142 SPIN=   0.00000
   O  -0.5914519   0.3592246   0.3459578 SPIN=   0.00000
   S  -0.9604007   0.3484181   0.3350519 SPIN=   0.00000
   O   0.0000000  -0.4916201   0.4916201 SPIN=   0.00000
   O   0.0000000  -0.3109635   0.3109635 SPIN=   0.00000
   F   0.0402355  -0.4853682  -0.0079550 SPIN=   0.00000
   F  -0.0402355   0.0079550   0.4853682 SPIN=   0.00000
   F   0.0000000   0.2924433  -0.2924433 SPIN=   0.00000
   F  -0.5000000  -0.1892364   0.1892364 SPIN=   0.00000
%ENDBLOCK POSITIONS_FRAC

# Note: total spin =  16.00

KPOINTS_MP_SPACING 0.07

%BLOCK SPECIES_POT
QC5
%ENDBLOCK SPECIES_POT

SNAP_TO_SYMMETRY
SYMMETRY_GENERATE

