#              Generated by Buildcell
#
# at 10:43:19 (GMT+1.0) 18th August 2020
# in /lustre/scratch/uccabz1/launch_tmp
# on node-c12e-036
# by uccabz1
#
# compiler GCC version 4.9.2
# options -cpp -iprefix /lustre/shared/ucl/apps/gcc/4.9.2/bin/../lib/gcc/x86_64-unknown-linux-gnu/4.9.2/ -mtune=corei7 -march=x86-64 -g -Og
#
# seed  1974731217   261164797   367745581 -1746067978 -1016794330   750156066  -828667688 -1822546267  -250174407  1832166220  -557889352  1419200062
#
#      Author: C. J. Pickard (cjp20@cam.ac.uk)
#                Space group: Pc
#

%BLOCK LATTICE_ABC
      4.06162      6.49295     15.66538
     90.00000     90.00000    104.48146
%ENDBLOCK LATTICE_ABC

%BLOCK POSITIONS_FRAC
  Li   0.0794591   0.1368765   0.4329697 SPIN=   0.00000
  Li  -0.4205409  -0.3631235  -0.4329697 SPIN=   0.00000
  Li   0.4096052   0.4510381  -0.1171279 SPIN=   0.00000
  Li  -0.0903948  -0.0489619   0.1171279 SPIN=   0.00000
  Fe  -0.1554314   0.4552251   0.0489208 SPIN=   4.70265
  Fe   0.3445686  -0.0447749  -0.0489208 SPIN=   4.70265
  Fe   0.0908978   0.1346223  -0.2508873 SPIN=   3.29735
  Fe  -0.4091022  -0.3653777   0.2508873 SPIN=   3.29735
   O  -0.4186043   0.2899453  -0.5064947 SPIN=   0.00000
   O  -0.3402078  -0.0604459  -0.4620227 SPIN=   0.00000
   O  -0.8226147   0.0667592  -0.4051271 SPIN=   0.00000
   O  -0.2350305   0.2381130  -0.3591158 SPIN=   0.00000
   S  -0.4541143   0.1335929  -0.4331901 SPIN=   0.00000
   O   0.0813957  -0.2100547   0.5064947 SPIN=   0.00000
   O   0.1597922  -0.5604459   0.4620227 SPIN=   0.00000
   O  -0.3226147  -0.4332408   0.4051271 SPIN=   0.00000
   O   0.2649695  -0.2618870   0.3591158 SPIN=   0.00000
   S   0.0458857  -0.3664071   0.4331901 SPIN=   0.00000
   O   0.1076015  -0.4476693  -0.3922562 SPIN=   0.00000
   O   0.1688846  -0.5134236  -0.2381555 SPIN=   0.00000
   O  -0.3116105  -0.3754455  -0.2891940 SPIN=   0.00000
   O   0.2740329  -0.1444872  -0.2921674 SPIN=   0.00000
   S   0.0597271  -0.3702564  -0.3029433 SPIN=   0.00000
   O  -0.3923985   0.0523307   0.3922562 SPIN=   0.00000
   O  -0.3311154  -0.0134236   0.2381555 SPIN=   0.00000
   O  -0.8116105   0.1245545   0.2891940 SPIN=   0.00000
   O  -0.2259671   0.3555128   0.2921674 SPIN=   0.00000
   S  -0.4402729   0.1297436   0.3029433 SPIN=   0.00000
   F  -0.3103860   0.0459663  -0.1579721 SPIN=   0.00000
   F   0.1896140  -0.4540337   0.1579721 SPIN=   0.00000
   F   0.0098938  -0.4029558  -0.0729979 SPIN=   0.00000
   F  -0.4901062   0.0970442   0.0729979 SPIN=   0.00000
%ENDBLOCK POSITIONS_FRAC

# Note: total spin =  16.00

KPOINTS_MP_SPACING 0.07

%BLOCK SPECIES_POT
QC5
%ENDBLOCK SPECIES_POT

SNAP_TO_SYMMETRY
SYMMETRY_GENERATE

