#              Generated by Buildcell
#
# at 09:41:00 (GMT+1.0) 4th August 2020
# in /lustre/scratch/uccabz1/launch_tmp
# on node-c12p-011
# by uccabz1
#
# compiler GCC version 4.9.2
# options -cpp -iprefix /lustre/shared/ucl/apps/gcc/4.9.2/bin/../lib/gcc/x86_64-unknown-linux-gnu/4.9.2/ -mtune=corei7 -march=x86-64 -g -Og
#
# seed  1076194817  -276943604 -2077067384  1410323584  -586969379  1957206448  1225116836  1212818483  1323005228  1555853330   153561432  1807143540
#
#      Author: C. J. Pickard (cjp20@cam.ac.uk)
#                Space group: Cc
#

%BLOCK LATTICE_ABC
      7.80245      8.06872      8.06872
     98.55061    113.24463    113.24463
%ENDBLOCK LATTICE_ABC

%BLOCK POSITIONS_FRAC
  Li  -0.0337476   0.1754148   0.0674231 SPIN=   0.00000
  Li   0.4662524   0.0674231   0.1754148 SPIN=   0.00000
  Li   0.4626617  -0.2472616  -0.1794558 SPIN=   0.00000
  Li  -0.0373383  -0.1794558  -0.2472616 SPIN=   0.00000
  Fe  -0.1111086  -0.2225608   0.0969715 SPIN=   3.28694
  Fe   0.3888914   0.0969715  -0.2225608 SPIN=   3.28694
  Fe   0.4627715   0.4504303   0.1860898 SPIN=   4.71306
  Fe  -0.0372285   0.1860898   0.4504303 SPIN=   4.71306
   O  -0.2060607  -0.5147981  -0.5767285 SPIN=   0.00000
   O   0.0958283  -0.1771108  -0.4108182 SPIN=   0.00000
   O   0.0940198  -0.4135090  -0.6461649 SPIN=   0.00000
   O   0.1535046  -0.4413914  -0.3291595 SPIN=   0.00000
   S   0.0343230  -0.3867023  -0.4907178 SPIN=   0.00000
   O  -0.7060607  -0.5767285  -0.5147981 SPIN=   0.00000
   O  -0.4041717  -0.4108182  -0.1771108 SPIN=   0.00000
   O  -0.4059802  -0.6461649  -0.4135090 SPIN=   0.00000
   O  -0.3464954  -0.3291595  -0.4413914 SPIN=   0.00000
   S  -0.4656770  -0.4907178  -0.3867023 SPIN=   0.00000
   O  -0.3079486  -0.0270527   0.6904411 SPIN=   0.00000
   O  -0.5422202  -0.2239446   0.3409262 SPIN=   0.00000
   O  -0.3323028   0.1325822   0.4493761 SPIN=   0.00000
   O  -0.6422289  -0.0208663   0.5004306 SPIN=   0.00000
   S  -0.4561751  -0.0348204   0.4952935 SPIN=   0.00000
   O   0.1920514   0.6904411  -0.0270527 SPIN=   0.00000
   O  -0.0422202   0.3409262  -0.2239446 SPIN=   0.00000
   O   0.1676972   0.4493761   0.1325822 SPIN=   0.00000
   O  -0.1422289   0.5004306  -0.0208663 SPIN=   0.00000
   S   0.0438249   0.4952935  -0.0348204 SPIN=   0.00000
   F  -0.3565807   0.1639045   0.0714821 SPIN=   0.00000
   F   0.1434193   0.0714821   0.1639045 SPIN=   0.00000
   F   0.1315251   0.1510373  -0.3034253 SPIN=   0.00000
   F  -0.3684749  -0.3034253   0.1510373 SPIN=   0.00000
%ENDBLOCK POSITIONS_FRAC

# Note: total spin =  16.00

KPOINTS_MP_SPACING 0.07

%BLOCK SPECIES_POT
QC5
%ENDBLOCK SPECIES_POT

SNAP_TO_SYMMETRY
SYMMETRY_GENERATE

