#              Generated by Buildcell
#
# at 04:55:52 (GMT+1.0) 18th August 2020
# in /lustre/scratch/uccabz1/launch_tmp
# on node-c12o-011
# by uccabz1
#
# compiler GCC version 4.9.2
# options -cpp -iprefix /lustre/shared/ucl/apps/gcc/4.9.2/bin/../lib/gcc/x86_64-unknown-linux-gnu/4.9.2/ -mtune=corei7 -march=x86-64 -g -Og
#
# seed   147978152  1031249824   961620036   223112127  1375920104  -188798898 -1650932191  -963234784   552328133  1796566397  1442057830 -1580601442
#
#      Author: C. J. Pickard (cjp20@cam.ac.uk)
#                Space group: C2
#

%BLOCK LATTICE_ABC
      7.22387      7.22387      9.17013
    104.49045    104.49045    111.20194
%ENDBLOCK LATTICE_ABC

%BLOCK POSITIONS_FRAC
  Li  -0.0233063  -0.6824544  -0.2845055 SPIN=   0.00000
  Li   0.6824544   0.0233063   0.2845055 SPIN=   0.00000
  Li   0.2937798   0.1195955   0.4432376 SPIN=   0.00000
  Li  -0.1195955  -0.2937798  -0.4432376 SPIN=   0.00000
  Fe  -0.6032402  -0.2799412  -0.1771008 SPIN=   3.12340
  Fe   0.2799412   0.6032402   0.1771008 SPIN=   3.12340
  Fe   0.3290390   0.1979388  -0.1495276 SPIN=   4.87660
  Fe  -0.1979388  -0.3290390   0.1495276 SPIN=   4.87660
   O  -0.5390850  -0.6242468  -0.3384372 SPIN=   0.00000
   O  -0.2277692  -0.5858790  -0.1215487 SPIN=   0.00000
   O  -0.2263765  -0.2680588  -0.1782557 SPIN=   0.00000
   O  -0.1952694  -0.5479156  -0.3760519 SPIN=   0.00000
   S  -0.2971250  -0.5065251  -0.2535734 SPIN=   0.00000
   O   0.6242468   0.5390850   0.3384372 SPIN=   0.00000
   O   0.5858790   0.2277692   0.1215487 SPIN=   0.00000
   O   0.2680588   0.2263765   0.1782557 SPIN=   0.00000
   O   0.5479156   0.1952694   0.3760519 SPIN=   0.00000
   S   0.5065251   0.2971250   0.2535734 SPIN=   0.00000
   O  -0.4979750  -0.2619069  -0.3708492 SPIN=   0.00000
   O  -0.4303295  -0.1594595  -0.5975515 SPIN=   0.00000
   O  -0.1305984  -0.0185889  -0.3338791 SPIN=   0.00000
   O  -0.4080400   0.1086569  -0.3562487 SPIN=   0.00000
   S  -0.3667357  -0.0828246  -0.4146321 SPIN=   0.00000
   O   0.2619069   0.4979750   0.3708492 SPIN=   0.00000
   O   0.1594595   0.4303295   0.5975515 SPIN=   0.00000
   O   0.0185889   0.1305984   0.3338791 SPIN=   0.00000
   O  -0.1086569   0.4080400   0.3562487 SPIN=   0.00000
   S   0.0828246   0.3667357   0.4146321 SPIN=   0.00000
   F  -0.3608060  -0.1302273   0.0568502 SPIN=   0.00000
   F   0.1302273   0.3608060  -0.0568502 SPIN=   0.00000
   F   0.1359600  -0.1926322   0.2725761 SPIN=   0.00000
   F   0.1926322  -0.1359600  -0.2725761 SPIN=   0.00000
%ENDBLOCK POSITIONS_FRAC

# Note: total spin =  16.00

KPOINTS_MP_SPACING 0.07

%BLOCK SPECIES_POT
QC5
%ENDBLOCK SPECIES_POT

SNAP_TO_SYMMETRY
SYMMETRY_GENERATE

