#              Generated by Buildcell
#
# at 01:42:17 (GMT+1.0) 18th August 2020
# in /lustre/scratch/uccabz1/launch_tmp
# on node-c12a-035
# by uccabz1
#
# compiler GCC version 4.9.2
# options -cpp -iprefix /lustre/shared/ucl/apps/gcc/4.9.2/bin/../lib/gcc/x86_64-unknown-linux-gnu/4.9.2/ -mtune=corei7 -march=x86-64 -g -Og
#
# seed  1431943243 -1387142539 -1782440293  1355221458   113028347   923960666   909472139   145609030 -1762245697  -933837666  1379142627   523741882
#
#      Author: C. J. Pickard (cjp20@cam.ac.uk)
#                Space group: Pc
#

%BLOCK LATTICE_ABC
      6.81100      7.33766      8.08378
     90.00000     98.07068     90.00000
%ENDBLOCK LATTICE_ABC

%BLOCK POSITIONS_FRAC
  Li   0.0695043   0.1035593   0.3354590 SPIN=   0.00000
  Li  -0.4304957  -0.1035593   0.3354590 SPIN=   0.00000
  Li   0.1193092  -0.3972144   0.2601039 SPIN=   0.00000
  Li  -0.3806908   0.3972144   0.2601039 SPIN=   0.00000
  Fe   0.0788896   0.1007939  -0.2778665 SPIN=   5.70063
  Fe  -0.4211104  -0.1007939  -0.2778665 SPIN=   5.70063
  Fe   0.2822797  -0.4181816  -0.0773210 SPIN=   2.29937
  Fe  -0.2177203   0.4181816  -0.0773210 SPIN=   2.29937
   O   0.2794680   0.2165873   0.1215455 SPIN=   0.00000
   O   0.6022951   0.0563722   0.1522698 SPIN=   0.00000
   O   0.5214688   0.2859342  -0.0712160 SPIN=   0.00000
   O   0.3471565  -0.0108641  -0.0893457 SPIN=   0.00000
   S   0.4375971   0.1370074   0.0283134 SPIN=   0.00000
   O  -0.2205320  -0.2165873   0.1215455 SPIN=   0.00000
   O   0.1022951  -0.0563722   0.1522698 SPIN=   0.00000
   O   0.0214688  -0.2859342  -0.0712160 SPIN=   0.00000
   O  -0.1528435   0.0108641  -0.0893457 SPIN=   0.00000
   S  -0.0624029  -0.1370074   0.0283134 SPIN=   0.00000
   O  -0.2303720  -0.4036906  -0.5550014 SPIN=   0.00000
   O  -0.1492832  -0.1781315  -0.3280726 SPIN=   0.00000
   O  -0.0754201  -0.1096435  -0.6127095 SPIN=   0.00000
   O   0.1199218  -0.3432504  -0.4405657 SPIN=   0.00000
   S  -0.0837884  -0.2586790  -0.4840873 SPIN=   0.00000
   O   0.2696280   0.4036906  -0.5550014 SPIN=   0.00000
   O   0.3507168   0.1781315  -0.3280726 SPIN=   0.00000
   O   0.4245799   0.1096435  -0.6127095 SPIN=   0.00000
   O   0.6199218   0.3432504  -0.4405657 SPIN=   0.00000
   S   0.4162116   0.2586790  -0.4840873 SPIN=   0.00000
   F   0.0045689   0.3617751  -0.2367585 SPIN=   0.00000
   F  -0.4954311  -0.3617751  -0.2367585 SPIN=   0.00000
   F   0.4070473  -0.3317146   0.2217621 SPIN=   0.00000
   F  -0.0929527   0.3317146   0.2217621 SPIN=   0.00000
%ENDBLOCK POSITIONS_FRAC

# Note: total spin =  16.00

KPOINTS_MP_SPACING 0.07

%BLOCK SPECIES_POT
QC5
%ENDBLOCK SPECIES_POT

SNAP_TO_SYMMETRY
SYMMETRY_GENERATE

