#              Generated by Buildcell
#
# at 10:13:10 (GMT+1.0) 4th August 2020
# in /lustre/scratch/uccabz1/launch_tmp
# on node-c12f-017
# by uccabz1
#
# compiler GCC version 4.9.2
# options -cpp -iprefix /lustre/shared/ucl/apps/gcc/4.9.2/bin/../lib/gcc/x86_64-unknown-linux-gnu/4.9.2/ -mtune=corei7 -march=x86-64 -g -Og
#
# seed  1995619156  -480304181 -1093058414   858182804 -2095034314   259777826   851643396  1019704674  -128709361  1383145574 -1562078600 -1132455747
#
#      Author: C. J. Pickard (cjp20@cam.ac.uk)
#                Space group: I-4
#

%BLOCK LATTICE_ABC
      8.14858      8.14858      8.14858
     96.04841    116.57159    116.57159
%ENDBLOCK LATTICE_ABC

%BLOCK POSITIONS_FRAC
  Li  -0.1482064   0.1701313   0.4706996 SPIN=   0.00000
  Li   0.1482064  -0.3810941   0.3183377 SPIN=   0.00000
  Li  -0.3005683  -0.4706996   0.3810941 SPIN=   0.00000
  Li   0.3005683  -0.3183377  -0.1701313 SPIN=   0.00000
  Fe   0.1502668  -0.0872401  -0.3952444 SPIN=   4.00000
  Fe  -0.1502668   0.4544887  -0.2375070 SPIN=   4.00000
  Fe   0.3080043   0.3952444  -0.4544887 SPIN=   4.00000
  Fe  -0.3080043   0.2375070   0.0872401 SPIN=   4.00000
   O  -0.1030175  -0.2060307   0.2929061 SPIN=   0.00000
   O  -0.4417870  -0.2061565   0.1193181 SPIN=   0.00000
   O  -0.2272279  -0.1672560  -0.0299625 SPIN=   0.00000
   O  -0.0758363   0.1046164   0.2701680 SPIN=   0.00000
   S  -0.2119672  -0.1187067   0.1631074 SPIN=   0.00000
   O   0.1030175   0.3959236  -0.1030132 SPIN=   0.00000
   O   0.4417870   0.5611050   0.2356305 SPIN=   0.00000
   O   0.2272279   0.1972654   0.0599719 SPIN=   0.00000
   O   0.0758363   0.3460043   0.1804527 SPIN=   0.00000
   S   0.2119672   0.3750746   0.0932605 SPIN=   0.00000
   O  -0.4989368  -0.2929061  -0.3959236 SPIN=   0.00000
   O  -0.3254745  -0.1193181  -0.5611050 SPIN=   0.00000
   O  -0.1372935   0.0299625  -0.1972654 SPIN=   0.00000
   O  -0.1655516  -0.2701680  -0.3460043 SPIN=   0.00000
   S  -0.2818141  -0.1631074  -0.3750746 SPIN=   0.00000
   O   0.4989368   0.1030132   0.2060307 SPIN=   0.00000
   O   0.3254745  -0.2356305   0.2061565 SPIN=   0.00000
   O   0.1372935  -0.0599719   0.1672560 SPIN=   0.00000
   O   0.1655516  -0.1804527  -0.1046164 SPIN=   0.00000
   S   0.2818141  -0.0932605   0.1187067 SPIN=   0.00000
   F   0.4232609  -0.0692068  -0.2301997 SPIN=   0.00000
   F  -0.4232609   0.3465394  -0.4924677 SPIN=   0.00000
   F   0.1609929   0.2301997  -0.3465394 SPIN=   0.00000
   F  -0.1609929   0.4924677   0.0692068 SPIN=   0.00000
%ENDBLOCK POSITIONS_FRAC

# Note: total spin =  16.00

KPOINTS_MP_SPACING 0.07

%BLOCK SPECIES_POT
QC5
%ENDBLOCK SPECIES_POT

SNAP_TO_SYMMETRY
SYMMETRY_GENERATE

