#              Generated by Buildcell
#
# at 01:11:14 (GMT+1.0) 18th August 2020
# in /lustre/scratch/uccabz1/launch_tmp
# on node-c12e-013
# by uccabz1
#
# compiler GCC version 4.9.2
# options -cpp -iprefix /lustre/shared/ucl/apps/gcc/4.9.2/bin/../lib/gcc/x86_64-unknown-linux-gnu/4.9.2/ -mtune=corei7 -march=x86-64 -g -Og
#
# seed   -99409461  -692681388 -1641227909   692215141   679787049  1112260931 -1733545631 -1401525648  -699507993  -226092503  -702841298 -1821818025
#
#      Author: C. J. Pickard (cjp20@cam.ac.uk)
#                Space group: P-1
#

%BLOCK LATTICE_ABC
      4.11349      8.64261     11.63119
    100.30572     96.43745     96.98601
%ENDBLOCK LATTICE_ABC

%BLOCK POSITIONS_FRAC
  Li  -0.3090784   0.2427291  -0.1665511 SPIN=   0.00000
  Li   0.3090784  -0.2427291   0.1665511 SPIN=   0.00000
  Li  -0.0350755  -0.1510645  -0.3705544 SPIN=   0.00000
  Li   0.0350755   0.1510645   0.3705544 SPIN=   0.00000
  Fe   0.1786547   0.3011931   0.0529812 SPIN=   4.20798
  Fe  -0.1786547  -0.3011931  -0.0529812 SPIN=   4.20798
  Fe   0.7343526   0.4565366   0.3468733 SPIN=   3.79202
  Fe  -0.7343526  -0.4565366  -0.3468733 SPIN=   3.79202
   O  -0.3409819   0.0195602  -0.0679059 SPIN=   0.00000
   O  -0.8986216   0.0501813  -0.1573425 SPIN=   0.00000
   O  -0.7495702  -0.2184773  -0.1559476 SPIN=   0.00000
   O  -0.4976544  -0.0522935  -0.2844741 SPIN=   0.00000
   S  -0.6217070  -0.0502573  -0.1664176 SPIN=   0.00000
   O   0.3409819  -0.0195602   0.0679059 SPIN=   0.00000
   O   0.8986216  -0.0501813   0.1573425 SPIN=   0.00000
   O   0.7495702   0.2184773   0.1559476 SPIN=   0.00000
   O   0.4976544   0.0522935   0.2844741 SPIN=   0.00000
   S   0.6217070   0.0502573   0.1664176 SPIN=   0.00000
   O   0.4023330  -0.2871666   0.3277031 SPIN=   0.00000
   O   0.0618539  -0.3277317   0.4851810 SPIN=   0.00000
   O   0.0423427  -0.0895557   0.3953906 SPIN=   0.00000
   O   0.5434715  -0.1148732   0.5257911 SPIN=   0.00000
   S   0.2625003  -0.2048318   0.4335164 SPIN=   0.00000
   O  -0.4023330   0.2871666  -0.3277031 SPIN=   0.00000
   O  -0.0618539   0.3277317  -0.4851810 SPIN=   0.00000
   O  -0.0423427   0.0895557  -0.3953906 SPIN=   0.00000
   O  -0.5434715   0.1148732  -0.5257911 SPIN=   0.00000
   S  -0.2625003   0.2048318  -0.4335164 SPIN=   0.00000
   F  -0.2584247  -0.3656944  -0.3410471 SPIN=   0.00000
   F   0.2584247   0.3656944   0.3410471 SPIN=   0.00000
   F   0.1713440   0.3555734  -0.1334071 SPIN=   0.00000
   F  -0.1713440  -0.3555734   0.1334071 SPIN=   0.00000
%ENDBLOCK POSITIONS_FRAC

# Note: total spin =  16.00

KPOINTS_MP_SPACING 0.07

%BLOCK SPECIES_POT
QC5
%ENDBLOCK SPECIES_POT

SNAP_TO_SYMMETRY
SYMMETRY_GENERATE

