#              Generated by Buildcell
#
# at 05:53:35 (GMT+1.0) 4th August 2020
# in /lustre/scratch/uccabz1/launch_tmp
# on node-c12n-017
# by uccabz1
#
# compiler GCC version 4.9.2
# options -cpp -iprefix /lustre/shared/ucl/apps/gcc/4.9.2/bin/../lib/gcc/x86_64-unknown-linux-gnu/4.9.2/ -mtune=corei7 -march=x86-64 -g -Og
#
# seed   357346088   671048180   689261911  1948962509  1755380629  1407249425   830808206   -86098727    83178943 -1195851393  -607847767  1518534225
#
#      Author: C. J. Pickard (cjp20@cam.ac.uk)
#                Space group: Pba2
#

%BLOCK LATTICE_ABC
      6.42078      7.74799      8.04050
     90.00000     90.00000     90.00000
%ENDBLOCK LATTICE_ABC

%BLOCK POSITIONS_FRAC
  Li  -0.4825687  -0.0318707  -0.2632669 SPIN=   0.00000
  Li  -0.4825687   0.0318707   0.2632669 SPIN=   0.00000
  Li  -0.4825687  -0.4681293   0.2367331 SPIN=   0.00000
  Li  -0.4825687   0.4681293  -0.2367331 SPIN=   0.00000
  Fe  -0.2454962  -0.2696949  -0.0588256 SPIN=   4.00000
  Fe  -0.2454962   0.2696949   0.0588256 SPIN=   4.00000
  Fe  -0.2454962  -0.2303051   0.4411744 SPIN=   4.00000
  Fe  -0.2454962   0.2303051  -0.4411744 SPIN=   4.00000
   O   0.4453530  -0.3393965  -0.0701751 SPIN=   0.00000
   O   0.0664075  -0.3855775  -0.1046557 SPIN=   0.00000
   O   0.2808851  -0.2959665  -0.3453855 SPIN=   0.00000
   O   0.2117035  -0.0899838  -0.1167120 SPIN=   0.00000
   S   0.2510873  -0.2777311  -0.1592321 SPIN=   0.00000
   O   0.4453530   0.3393965   0.0701751 SPIN=   0.00000
   O   0.0664075   0.3855775   0.1046557 SPIN=   0.00000
   O   0.2808851   0.2959665   0.3453855 SPIN=   0.00000
   O   0.2117035   0.0899838   0.1167120 SPIN=   0.00000
   S   0.2510873   0.2777311   0.1592321 SPIN=   0.00000
   O   0.4453530  -0.1606035   0.4298249 SPIN=   0.00000
   O   0.0664075  -0.1144225   0.3953443 SPIN=   0.00000
   O   0.2808851  -0.2040335   0.1546145 SPIN=   0.00000
   O   0.2117035  -0.4100162   0.3832880 SPIN=   0.00000
   S   0.2510873  -0.2222689   0.3407679 SPIN=   0.00000
   O   0.4453530   0.1606035  -0.4298249 SPIN=   0.00000
   O   0.0664075   0.1144225  -0.3953443 SPIN=   0.00000
   O   0.2808851   0.2040335  -0.1546145 SPIN=   0.00000
   O   0.2117035   0.4100162  -0.3832880 SPIN=   0.00000
   S   0.2510873   0.2222689  -0.3407679 SPIN=   0.00000
   F  -0.2485476   0.3005206  -0.1678722 SPIN=   0.00000
   F  -0.2485476  -0.3005206   0.1678722 SPIN=   0.00000
   F  -0.2485476   0.1994794   0.3321278 SPIN=   0.00000
   F  -0.2485476  -0.1994794  -0.3321278 SPIN=   0.00000
%ENDBLOCK POSITIONS_FRAC

# Note: total spin =  16.00

KPOINTS_MP_SPACING 0.07

%BLOCK SPECIES_POT
QC5
%ENDBLOCK SPECIES_POT

SNAP_TO_SYMMETRY
SYMMETRY_GENERATE

