#              Generated by Buildcell
#
# at 08:02:33 (GMT+1.0) 18th August 2020
# in /lustre/scratch/uccabz1/launch_tmp
# on node-c12i-024
# by uccabz1
#
# compiler GCC version 4.9.2
# options -cpp -iprefix /lustre/shared/ucl/apps/gcc/4.9.2/bin/../lib/gcc/x86_64-unknown-linux-gnu/4.9.2/ -mtune=corei7 -march=x86-64 -g -Og
#
# seed   527475149  1419122891  1221686730   780911635  -904314018  1701830829 -1694458849  -750755522  2064486897  2045540996  -824304938  -752800918
#
#      Author: C. J. Pickard (cjp20@cam.ac.uk)
#                Space group: P-1
#

%BLOCK LATTICE_ABC
      7.32954      7.40248      8.13918
     99.80483     96.50949    110.62656
%ENDBLOCK LATTICE_ABC

%BLOCK POSITIONS_FRAC
  Li   0.2846077  -0.1021366  -0.1785920 SPIN=   0.00000
  Li  -0.2846077   0.1021366   0.1785920 SPIN=   0.00000
  Li   0.1156180  -0.3391298   0.3699175 SPIN=   0.00000
  Li  -0.1156180   0.3391298  -0.3699175 SPIN=   0.00000
  Fe   0.0000000  -0.0000000  -0.5000000 SPIN=   5.76134
  Fe   0.0000000   0.5000000   0.0000000 SPIN=   0.63265
  Fe  -0.5000000   0.0000000   0.5000000 SPIN=   7.82120
  Fe  -0.5000000   0.5000000   0.5000000 SPIN=   1.78480
   O   0.1810898   0.1902188  -0.2720350 SPIN=   0.00000
   O   0.5017525   0.4649804  -0.2527447 SPIN=   0.00000
   O   0.4919468   0.1272727  -0.2531644 SPIN=   0.00000
   O   0.4271760   0.3212994  -0.0034219 SPIN=   0.00000
   S   0.4004913   0.2759428  -0.1953415 SPIN=   0.00000
   O  -0.1810898  -0.1902188   0.2720350 SPIN=   0.00000
   O  -0.5017525  -0.4649804   0.2527447 SPIN=   0.00000
   O  -0.4919468  -0.1272727   0.2531644 SPIN=   0.00000
   O  -0.4271760  -0.3212994   0.0034219 SPIN=   0.00000
   S  -0.4004913  -0.2759428   0.1953415 SPIN=   0.00000
   O   0.1629280   0.0416811  -0.0076823 SPIN=   0.00000
   O   0.4382380   0.1464918   0.2379580 SPIN=   0.00000
   O   0.1782693  -0.1911738   0.1735644 SPIN=   0.00000
   O   0.0981725   0.0990148   0.2847612 SPIN=   0.00000
   S   0.2194020   0.0240035   0.1721503 SPIN=   0.00000
   O  -0.1629280  -0.0416811   0.0076823 SPIN=   0.00000
   O  -0.4382380  -0.1464918  -0.2379580 SPIN=   0.00000
   O  -0.1782693   0.1911738  -0.1735644 SPIN=   0.00000
   O  -0.0981725  -0.0990148  -0.2847612 SPIN=   0.00000
   S  -0.2194020  -0.0240035  -0.1721503 SPIN=   0.00000
   F  -0.2115440  -0.4574394  -0.4359649 SPIN=   0.00000
   F   0.2115440   0.4574394   0.4359649 SPIN=   0.00000
   F   0.2173062  -0.3654326  -0.1210727 SPIN=   0.00000
   F  -0.2173062   0.3654326   0.1210727 SPIN=   0.00000
%ENDBLOCK POSITIONS_FRAC

# Note: total spin =  16.00

KPOINTS_MP_SPACING 0.07

%BLOCK SPECIES_POT
QC5
%ENDBLOCK SPECIES_POT

SNAP_TO_SYMMETRY
SYMMETRY_GENERATE

