#              Generated by Buildcell
#
# at 05:50:41 (GMT+1.0) 4th August 2020
# in /lustre/scratch/uccabz1/launch_tmp
# on node-c12h-010
# by uccabz1
#
# compiler GCC version 4.9.2
# options -cpp -iprefix /lustre/shared/ucl/apps/gcc/4.9.2/bin/../lib/gcc/x86_64-unknown-linux-gnu/4.9.2/ -mtune=corei7 -march=x86-64 -g -Og
#
# seed   260878448  1100249808 -1122949813  1227638834 -1188161479 -1924918711   392742464 -1685106788 -1732705266  -851841308 -1715896629  2009052583
#
#      Author: C. J. Pickard (cjp20@cam.ac.uk)
#                Space group: P2
#

%BLOCK LATTICE_ABC
      7.27004      7.53297      7.85274
     90.00000    111.54767     90.00000
%ENDBLOCK LATTICE_ABC

%BLOCK POSITIONS_FRAC
  Li   0.4482880  -0.3724424   0.2265186 SPIN=   0.00000
  Li  -0.4482880  -0.3724424  -0.2265186 SPIN=   0.00000
  Li   0.2045121   0.2381262  -0.1059604 SPIN=   0.00000
  Li  -0.2045121   0.2381262   0.1059604 SPIN=   0.00000
  Fe  -0.2738256  -0.1033138   0.4245527 SPIN=   5.72311
  Fe   0.2738256  -0.1033138  -0.4245527 SPIN=   5.72311
  Fe  -0.2405273   0.3657001  -0.4631233 SPIN=   2.27689
  Fe   0.2405273   0.3657001   0.4631233 SPIN=   2.27689
   O   0.0240388  -0.4421216   0.1490346 SPIN=   0.00000
   O  -0.0987056  -0.2643290   0.3503349 SPIN=   0.00000
   O  -0.1542258  -0.5889936   0.3248793 SPIN=   0.00000
   O  -0.3353613  -0.3934124   0.0637953 SPIN=   0.00000
   S  -0.1410635  -0.4222141   0.2220110 SPIN=   0.00000
   O  -0.0240388  -0.4421216  -0.1490346 SPIN=   0.00000
   O   0.0987056  -0.2643290  -0.3503349 SPIN=   0.00000
   O   0.1542258  -0.5889936  -0.3248793 SPIN=   0.00000
   O   0.3353613  -0.3934124  -0.0637953 SPIN=   0.00000
   S   0.1410635  -0.4222141  -0.2220110 SPIN=   0.00000
   O   0.3684552   0.0801975   0.0956811 SPIN=   0.00000
   O   0.1644056  -0.1925021   0.0309460 SPIN=   0.00000
   O   0.1176658   0.0376811   0.2362982 SPIN=   0.00000
   O   0.4214746  -0.1455205   0.3381148 SPIN=   0.00000
   S   0.2680003  -0.0550360   0.1752601 SPIN=   0.00000
   O  -0.3684552   0.0801975  -0.0956811 SPIN=   0.00000
   O  -0.1644056  -0.1925021  -0.0309460 SPIN=   0.00000
   O  -0.1176658   0.0376811  -0.2362982 SPIN=   0.00000
   O  -0.4214746  -0.1455205  -0.3381148 SPIN=   0.00000
   S  -0.2680003  -0.0550360  -0.1752601 SPIN=   0.00000
   F   0.2236692   0.0748567  -0.2685676 SPIN=   0.00000
   F  -0.2236692   0.0748567   0.2685676 SPIN=   0.00000
   F   0.3527710   0.4076174   0.2346893 SPIN=   0.00000
   F  -0.3527710   0.4076174  -0.2346893 SPIN=   0.00000
%ENDBLOCK POSITIONS_FRAC

# Note: total spin =  16.00

KPOINTS_MP_SPACING 0.07

%BLOCK SPECIES_POT
QC5
%ENDBLOCK SPECIES_POT

SNAP_TO_SYMMETRY
SYMMETRY_GENERATE

