#              Generated by Buildcell
#
# at 10:37:01 (GMT+1.0) 4th August 2020
# in /lustre/scratch/uccabz1/launch_tmp
# on node-c12d-003
# by uccabz1
#
# compiler GCC version 4.9.2
# options -cpp -iprefix /lustre/shared/ucl/apps/gcc/4.9.2/bin/../lib/gcc/x86_64-unknown-linux-gnu/4.9.2/ -mtune=corei7 -march=x86-64 -g -Og
#
# seed  1649156822  1321813370  -758770606   838681556 -1529068815  -861589978 -1339697733 -2049409407 -1288297394   145408942 -1318075263  1860440048
#
#      Author: C. J. Pickard (cjp20@cam.ac.uk)
#                Space group: P-1
#

%BLOCK LATTICE_ABC
      6.07037      6.29002     10.94512
     74.73440     88.92656     82.86041
%ENDBLOCK LATTICE_ABC

%BLOCK POSITIONS_FRAC
  Li  -0.2669436   0.4261322  -0.2188408 SPIN=   0.00000
  Li   0.2669436  -0.4261322   0.2188408 SPIN=   0.00000
  Li   0.3278746   0.2659736  -0.4173842 SPIN=   0.00000
  Li  -0.3278746  -0.2659736   0.4173842 SPIN=   0.00000
  Fe  -0.2190138  -0.3333217   0.1494540 SPIN=   4.77147
  Fe   0.2190138   0.3333217  -0.1494540 SPIN=   4.77147
  Fe   0.1211716  -0.0449483   0.3320366 SPIN=   3.22853
  Fe  -0.1211716   0.0449483  -0.3320366 SPIN=   3.22853
   O  -0.2651649   0.0391869  -0.0401742 SPIN=   0.00000
   O  -0.1552671   0.3830729  -0.0028473 SPIN=   0.00000
   O  -0.2994250   0.1028614   0.1734542 SPIN=   0.00000
   O  -0.5521194   0.3278853  -0.0002935 SPIN=   0.00000
   S  -0.3179941   0.2132516   0.0325348 SPIN=   0.00000
   O   0.2651649  -0.0391869   0.0401742 SPIN=   0.00000
   O   0.1552671  -0.3830729   0.0028473 SPIN=   0.00000
   O   0.2994250  -0.1028614  -0.1734542 SPIN=   0.00000
   O   0.5521194  -0.3278853   0.0002935 SPIN=   0.00000
   S   0.3179941  -0.2132516  -0.0325348 SPIN=   0.00000
   O  -0.3268580   0.4209052   0.4748661 SPIN=   0.00000
   O  -0.1837272   0.0952535   0.3970379 SPIN=   0.00000
   O  -0.4115146   0.4159639   0.2553923 SPIN=   0.00000
   O  -0.5852564   0.1701287   0.4358910 SPIN=   0.00000
   S  -0.3768391   0.2755628   0.3907968 SPIN=   0.00000
   O   0.3268580  -0.4209052  -0.4748661 SPIN=   0.00000
   O   0.1837272  -0.0952535  -0.3970379 SPIN=   0.00000
   O   0.4115146  -0.4159639  -0.2553923 SPIN=   0.00000
   O   0.5852564  -0.1701287  -0.4358910 SPIN=   0.00000
   S   0.3768391  -0.2755628  -0.3907968 SPIN=   0.00000
   F   0.1592910   0.2313048   0.2103009 SPIN=   0.00000
   F  -0.1592910  -0.2313048  -0.2103009 SPIN=   0.00000
   F  -0.0155074  -0.3074409   0.3360294 SPIN=   0.00000
   F   0.0155074   0.3074409  -0.3360294 SPIN=   0.00000
%ENDBLOCK POSITIONS_FRAC

# Note: total spin =  16.00

KPOINTS_MP_SPACING 0.07

%BLOCK SPECIES_POT
QC5
%ENDBLOCK SPECIES_POT

SNAP_TO_SYMMETRY
SYMMETRY_GENERATE

