#              Generated by Buildcell
#
# at 06:09:28 (GMT+1.0) 4th August 2020
# in /lustre/scratch/uccabz1/launch_tmp
# on node-c12m-022
# by uccabz1
#
# compiler GCC version 4.9.2
# options -cpp -iprefix /lustre/shared/ucl/apps/gcc/4.9.2/bin/../lib/gcc/x86_64-unknown-linux-gnu/4.9.2/ -mtune=corei7 -march=x86-64 -g -Og
#
# seed   709536227  1035514967 -1320757065  -219485128  1273481922 -1107199016  -404045390  1363401310 -2054701154  -154051031  -395922592  -345086465
#
#      Author: C. J. Pickard (cjp20@cam.ac.uk)
#                Space group: Pm
#

%BLOCK LATTICE_ABC
      3.87395      7.06816     15.18608
     90.00000     90.00000    105.85593
%ENDBLOCK LATTICE_ABC

%BLOCK POSITIONS_FRAC
  Li   0.6882854   0.3160256   0.3797083 SPIN=   0.00000
  Li   0.6882854   0.3160256  -0.3797083 SPIN=   0.00000
  Li   0.0028263  -0.0893963  -0.5000000 SPIN=   0.00000
  Li   0.0857463   0.0181941  -0.0000000 SPIN=   0.00000
  Fe   0.7758431   0.4910089   0.1211865 SPIN=   3.05532
  Fe   0.7758431   0.4910089  -0.1211865 SPIN=   3.05532
  Fe   0.0991254   0.1372837  -0.2537123 SPIN=   4.94468
  Fe   0.0991254   0.1372837   0.2537123 SPIN=   4.94468
   O  -0.9213871  -0.1190865  -0.1241589 SPIN=   0.00000
   O  -0.3088438   0.0629103  -0.0772580 SPIN=   0.00000
   O  -0.4001695  -0.1190829  -0.2183948 SPIN=   0.00000
   O  -0.4902908  -0.3010828  -0.0772597 SPIN=   0.00000
   S  -0.5301728  -0.1190855  -0.1242679 SPIN=   0.00000
   O  -0.9213871  -0.1190865   0.1241589 SPIN=   0.00000
   O  -0.3088438   0.0629103   0.0772580 SPIN=   0.00000
   O  -0.4001695  -0.1190829   0.2183948 SPIN=   0.00000
   O  -0.4902908  -0.3010828   0.0772597 SPIN=   0.00000
   S  -0.5301728  -0.1190855   0.1242679 SPIN=   0.00000
   O  -0.2853938  -0.2892615   0.4227150 SPIN=   0.00000
   O  -0.3923508  -0.5043762   0.2912502 SPIN=   0.00000
   O   0.2242582  -0.3092409   0.3283274 SPIN=   0.00000
   S  -0.1679849  -0.3113567   0.3289677 SPIN=   0.00000
   O  -0.2853938  -0.2892615  -0.4227150 SPIN=   0.00000
   O  -0.3923508  -0.5043762  -0.2912502 SPIN=   0.00000
   O   0.2242582  -0.3092409  -0.3283274 SPIN=   0.00000
   S  -0.1679849  -0.3113567  -0.3289677 SPIN=   0.00000
   O   0.0281165   0.4802564   0.0000000 SPIN=   0.00000
   O  -0.9673860  -0.4840915  -0.5000000 SPIN=   0.00000
   F   0.1422389   0.2348146   0.3840540 SPIN=   0.00000
   F   0.1422389   0.2348146  -0.3840540 SPIN=   0.00000
   F   0.2495218   0.3330978   0.1520040 SPIN=   0.00000
   F   0.2495218   0.3330978  -0.1520040 SPIN=   0.00000
%ENDBLOCK POSITIONS_FRAC

# Note: total spin =  16.00

KPOINTS_MP_SPACING 0.07

%BLOCK SPECIES_POT
QC5
%ENDBLOCK SPECIES_POT

SNAP_TO_SYMMETRY
SYMMETRY_GENERATE

