#              Generated by Buildcell
#
# at 23:10:58 (GMT+1.0) 17th August 2020
# in /lustre/scratch/uccabz1/launch_tmp
# on node-c12b-010
# by uccabz1
#
# compiler GCC version 4.9.2
# options -cpp -iprefix /lustre/shared/ucl/apps/gcc/4.9.2/bin/../lib/gcc/x86_64-unknown-linux-gnu/4.9.2/ -mtune=corei7 -march=x86-64 -g -Og
#
# seed -1206367177  2136671630  1150540894   847969159  -361312057   902477532  1362676678 -2115634728  -806804986  -837029967  1625993805  -852340225
#
#      Author: C. J. Pickard (cjp20@cam.ac.uk)
#                Space group: P21
#

%BLOCK LATTICE_ABC
      3.96359      7.85032     12.88960
     90.00000     90.00000     94.17789
%ENDBLOCK LATTICE_ABC

%BLOCK POSITIONS_FRAC
  Li  -0.3479522  -0.4768459  -0.4518853 SPIN=   0.00000
  Li   0.3479522   0.4768459   0.0481147 SPIN=   0.00000
  Li   0.2125820  -0.1953059  -0.2460246 SPIN=   0.00000
  Li  -0.2125820   0.1953059   0.2539754 SPIN=   0.00000
  Fe   0.1482247  -0.1885971   0.4871928 SPIN=   5.85924
  Fe  -0.1482247   0.1885971  -0.0128072 SPIN=   5.85924
  Fe   0.1172787   0.2816446   0.4569506 SPIN=   2.14076
  Fe  -0.1172787  -0.2816446  -0.0430494 SPIN=   2.14076
   O  -0.7346978  -0.0101349  -0.3573733 SPIN=   0.00000
   O  -0.1946078   0.0001385  -0.4543064 SPIN=   0.00000
   O  -0.2151990   0.1302446  -0.2797386 SPIN=   0.00000
   O  -0.4888675   0.2643218  -0.4284490 SPIN=   0.00000
   S  -0.4083431   0.0961425  -0.3799668 SPIN=   0.00000
   O   0.7346978   0.0101349   0.1426267 SPIN=   0.00000
   O   0.1946078  -0.0001385   0.0456936 SPIN=   0.00000
   O   0.2151990  -0.1302446   0.2202614 SPIN=   0.00000
   O   0.4888675  -0.2643218   0.0715510 SPIN=   0.00000
   S   0.4083431  -0.0961425   0.1200332 SPIN=   0.00000
   O  -0.1585994  -0.5624733   0.3445724 SPIN=   0.00000
   O  -0.5710282  -0.4176804   0.2379149 SPIN=   0.00000
   O  -0.2165419  -0.2527375   0.3663196 SPIN=   0.00000
   O  -0.6736706  -0.4616005   0.4257377 SPIN=   0.00000
   S  -0.4049600  -0.4236229   0.3436362 SPIN=   0.00000
   O   0.1585994   0.5624733  -0.1554276 SPIN=   0.00000
   O   0.5710282   0.4176804  -0.2620851 SPIN=   0.00000
   O   0.2165419   0.2527375  -0.1336804 SPIN=   0.00000
   O   0.6736706   0.4616005  -0.0742623 SPIN=   0.00000
   S   0.4049600   0.4236229  -0.1563638 SPIN=   0.00000
   F   0.0239140  -0.0650255  -0.1434649 SPIN=   0.00000
   F  -0.0239140   0.0650255   0.3565351 SPIN=   0.00000
   F  -0.0674549   0.3919947   0.1011953 SPIN=   0.00000
   F   0.0674549  -0.3919947  -0.3988047 SPIN=   0.00000
%ENDBLOCK POSITIONS_FRAC

# Note: total spin =  16.00

KPOINTS_MP_SPACING 0.07

%BLOCK SPECIES_POT
QC5
%ENDBLOCK SPECIES_POT

SNAP_TO_SYMMETRY
SYMMETRY_GENERATE

