#              Generated by Buildcell
#
# at 06:11:30 (GMT+1.0) 4th August 2020
# in /lustre/scratch/uccabz1/launch_tmp
# on node-z12r-003
# by uccabz1
#
# compiler GCC version 4.9.2
# options -cpp -iprefix /lustre/shared/ucl/apps/gcc/4.9.2/bin/../lib/gcc/x86_64-unknown-linux-gnu/4.9.2/ -mtune=corei7 -march=x86-64 -g -Og
#
# seed   141904751   295167077 -1589554390 -1747455723   156025385  1852647163   433675576  -987045206  1324637723   279630448  -145543640  2064482542
#
#      Author: C. J. Pickard (cjp20@cam.ac.uk)
#                Space group: P2
#

%BLOCK LATTICE_ABC
      3.96395      8.85018     11.52277
     98.30396     90.00000     90.00000
%ENDBLOCK LATTICE_ABC

%BLOCK POSITIONS_FRAC
  Li   0.2189379   0.0902533  -0.1421593 SPIN=   0.00000
  Li   0.2189379  -0.0902533   0.1421593 SPIN=   0.00000
  Li  -0.3452975  -0.4346098   0.3501881 SPIN=   0.00000
  Li  -0.3452975   0.4346098  -0.3501881 SPIN=   0.00000
  Fe   0.1560302  -0.4952751  -0.1623516 SPIN=   2.89021
  Fe   0.1560302   0.4952751   0.1623516 SPIN=   2.89021
  Fe  -0.4985060  -0.2614467  -0.4164350 SPIN=   5.10979
  Fe  -0.4985060   0.2614467   0.4164350 SPIN=   5.10979
   O   0.1474173   0.2375866  -0.3543483 SPIN=   0.00000
   O  -0.3698038   0.1278013  -0.4531882 SPIN=   0.00000
   O  -0.3504862   0.1857430  -0.2366476 SPIN=   0.00000
   O  -0.0159503  -0.0288921  -0.3396845 SPIN=   0.00000
   S  -0.1472058   0.1305597  -0.3459672 SPIN=   0.00000
   O   0.1474173  -0.2375866   0.3543483 SPIN=   0.00000
   O  -0.3698038  -0.1278013   0.4531882 SPIN=   0.00000
   O  -0.3504862  -0.1857430   0.2366476 SPIN=   0.00000
   O  -0.0159503   0.0288921   0.3396845 SPIN=   0.00000
   S  -0.1472058  -0.1305597   0.3459672 SPIN=   0.00000
   O   0.0675383   0.1835586   0.1379840 SPIN=   0.00000
   O  -0.4507009   0.0687914   0.2073468 SPIN=   0.00000
   O  -0.4244005   0.1337960   0.0057314 SPIN=   0.00000
   O  -0.4498575   0.3394536   0.1755957 SPIN=   0.00000
   S  -0.3143551   0.1813999   0.1316645 SPIN=   0.00000
   O   0.0675383  -0.1835586  -0.1379840 SPIN=   0.00000
   O  -0.4507009  -0.0687914  -0.2073468 SPIN=   0.00000
   O  -0.4244005  -0.1337960  -0.0057314 SPIN=   0.00000
   O  -0.4498575  -0.3394536  -0.1755957 SPIN=   0.00000
   S  -0.3143551  -0.1813999  -0.1316645 SPIN=   0.00000
   F   0.1394018  -0.3881658  -0.3588333 SPIN=   0.00000
   F   0.1394018   0.3881658   0.3588333 SPIN=   0.00000
   F   0.1584384  -0.3175704   0.0847927 SPIN=   0.00000
   F   0.1584384   0.3175704  -0.0847927 SPIN=   0.00000
%ENDBLOCK POSITIONS_FRAC

# Note: total spin =  16.00

KPOINTS_MP_SPACING 0.07

%BLOCK SPECIES_POT
QC5
%ENDBLOCK SPECIES_POT

SNAP_TO_SYMMETRY
SYMMETRY_GENERATE

