#              Generated by Buildcell
#
# at 06:33:32 (GMT+1.0) 4th August 2020
# in /lustre/scratch/uccabz1/launch_tmp
# on node-c12c-025
# by uccabz1
#
# compiler GCC version 4.9.2
# options -cpp -iprefix /lustre/shared/ucl/apps/gcc/4.9.2/bin/../lib/gcc/x86_64-unknown-linux-gnu/4.9.2/ -mtune=corei7 -march=x86-64 -g -Og
#
# seed   861218409 -1176297297  1805488282   868655350  -866205350   466447587 -1553795350   257004492  -470560169   -33361607  -712169208   514588141
#
#      Author: C. J. Pickard (cjp20@cam.ac.uk)
#                Space group: C2
#

%BLOCK LATTICE_ABC
      5.89784      5.90738     13.59571
     80.95142     77.47293     60.05338
%ENDBLOCK LATTICE_ABC

%BLOCK POSITIONS_FRAC
  Li  -0.1006540  -0.2962263   0.3719536 SPIN=   0.00000
  Li  -0.0249266   0.2962263  -0.3719536 SPIN=   0.00000
  Li   0.2407570   0.1225124   0.1966216 SPIN=   0.00000
  Li  -0.4401091   0.8774876  -0.1966216 SPIN=   0.00000
  Fe   0.3776880  -0.8102934   0.4286769 SPIN=   4.86484
  Fe  -0.0039285  -0.1897066  -0.4286769 SPIN=   4.86484
  Fe   0.3009930  -0.6577664  -0.0609135 SPIN=   3.13516
  Fe  -0.4176869   0.6577664   0.0609135 SPIN=   3.13516
   O   0.2233549  -0.2894646   0.2869172 SPIN=   0.00000
   O   0.4797010  -0.0720381   0.3015631 SPIN=   0.00000
   O   0.7089724  -0.5076488   0.2305042 SPIN=   0.00000
   O   0.5269889  -0.4625373   0.4126569 SPIN=   0.00000
   S   0.4847543  -0.3329222   0.3079104 SPIN=   0.00000
   O   0.2208075  -0.7105354  -0.2869172 SPIN=   0.00000
   O   0.7092260  -0.9279619  -0.3015631 SPIN=   0.00000
   O   0.4318278  -0.4923512  -0.2305042 SPIN=   0.00000
   O   0.4771085  -0.5374627  -0.4126569 SPIN=   0.00000
   S   0.4597425  -0.6670778  -0.3079104 SPIN=   0.00000
   O   0.1999244   0.1114717  -0.1213675 SPIN=   0.00000
   O  -0.2508695   0.1903907  -0.1265829 SPIN=   0.00000
   O   0.0997531  -0.2561281  -0.0863015 SPIN=   0.00000
   O   0.1217895  -0.0549890  -0.2596727 SPIN=   0.00000
   S   0.0426494  -0.0023137  -0.1484811 SPIN=   0.00000
   O   0.1900286  -0.1114717   0.1213675 SPIN=   0.00000
   O  -0.1870616  -0.1903907   0.1265829 SPIN=   0.00000
   O  -0.2426764   0.2561281   0.0863015 SPIN=   0.00000
   O  -0.1928722   0.0549890   0.2596727 SPIN=   0.00000
   S  -0.1081454   0.0023137   0.1484811 SPIN=   0.00000
   F   0.2615552  -0.6447074   0.0840413 SPIN=   0.00000
   F  -0.2991109   0.6447074  -0.0840413 SPIN=   0.00000
   F  -0.3905602   0.8252835  -0.4505421 SPIN=   0.00000
   F  -0.0158188   0.1747165   0.4505421 SPIN=   0.00000
%ENDBLOCK POSITIONS_FRAC

# Note: total spin =  16.00

KPOINTS_MP_SPACING 0.07

%BLOCK SPECIES_POT
QC5
%ENDBLOCK SPECIES_POT

SNAP_TO_SYMMETRY
SYMMETRY_GENERATE

