#              Generated by Buildcell
#
# at 08:26:36 (GMT+1.0) 4th August 2020
# in /lustre/scratch/uccabz1/launch_tmp
# on node-c12g-007
# by uccabz1
#
# compiler GCC version 4.9.2
# options -cpp -iprefix /lustre/shared/ucl/apps/gcc/4.9.2/bin/../lib/gcc/x86_64-unknown-linux-gnu/4.9.2/ -mtune=corei7 -march=x86-64 -g -Og
#
# seed -1098477235   398710697   631693938 -1685205766 -1719317167  2076459153   796274329 -2044699411 -1877679153  -226503597  -399063255   302916942
#
#      Author: C. J. Pickard (cjp20@cam.ac.uk)
#                Space group: Pna21
#

%BLOCK LATTICE_ABC
      4.19065      8.91598     10.70556
     90.00000     90.00000     90.00000
%ENDBLOCK LATTICE_ABC

%BLOCK POSITIONS_FRAC
  Li   0.2735782  -0.4042442   0.3167264 SPIN=   0.00000
  Li  -0.2264218   0.4042442  -0.3167264 SPIN=   0.00000
  Li   0.2735782  -0.0957558  -0.1832736 SPIN=   0.00000
  Li  -0.2264218   0.0957558   0.1832736 SPIN=   0.00000
  Fe  -0.1306061   0.0525439  -0.3676085 SPIN=   4.00000
  Fe   0.3693939  -0.0525439   0.3676085 SPIN=   4.00000
  Fe  -0.1306061   0.4474561   0.1323915 SPIN=   4.00000
  Fe   0.3693939  -0.4474561  -0.1323915 SPIN=   4.00000
   O   0.3297018   0.0008294   0.0591401 SPIN=   0.00000
   O   0.2102517  -0.2474484  -0.0330578 SPIN=   0.00000
   O   0.2507231  -0.2194256   0.1963913 SPIN=   0.00000
   O   0.7354419  -0.2007327   0.0652486 SPIN=   0.00000
   S   0.3815297  -0.1666943   0.0719306 SPIN=   0.00000
   O  -0.1702982  -0.0008294  -0.0591401 SPIN=   0.00000
   O  -0.2897483   0.2474484   0.0330578 SPIN=   0.00000
   O  -0.2492769   0.2194256  -0.1963913 SPIN=   0.00000
   O   0.2354419   0.2007327  -0.0652486 SPIN=   0.00000
   S  -0.1184703   0.1666943  -0.0719306 SPIN=   0.00000
   O   0.3297018  -0.5008294  -0.4408599 SPIN=   0.00000
   O   0.2102517  -0.2525516  -0.5330578 SPIN=   0.00000
   O   0.2507231  -0.2805744  -0.3036087 SPIN=   0.00000
   O   0.7354419  -0.2992673  -0.4347514 SPIN=   0.00000
   S   0.3815297  -0.3333057  -0.4280694 SPIN=   0.00000
   O  -0.1702982   0.5008294   0.4408599 SPIN=   0.00000
   O  -0.2897483   0.2525516   0.5330578 SPIN=   0.00000
   O  -0.2492769   0.2805744   0.3036087 SPIN=   0.00000
   O   0.2354419   0.2992673   0.4347514 SPIN=   0.00000
   S  -0.1184703   0.3333057   0.4280694 SPIN=   0.00000
   F   0.3806129   0.4374321   0.1616314 SPIN=   0.00000
   F  -0.1193871  -0.4374321  -0.1616314 SPIN=   0.00000
   F   0.3806129   0.0625679  -0.3383686 SPIN=   0.00000
   F  -0.1193871  -0.0625679   0.3383686 SPIN=   0.00000
%ENDBLOCK POSITIONS_FRAC

# Note: total spin =  16.00

KPOINTS_MP_SPACING 0.07

%BLOCK SPECIES_POT
QC5
%ENDBLOCK SPECIES_POT

SNAP_TO_SYMMETRY
SYMMETRY_GENERATE

