#              Generated by Buildcell
#
# at 23:52:44 (GMT+1.0) 17th August 2020
# in /lustre/scratch/uccabz1/launch_tmp
# on node-c12c-029
# by uccabz1
#
# compiler GCC version 4.9.2
# options -cpp -iprefix /lustre/shared/ucl/apps/gcc/4.9.2/bin/../lib/gcc/x86_64-unknown-linux-gnu/4.9.2/ -mtune=corei7 -march=x86-64 -g -Og
#
# seed  1681604261  -189458542 -1656260771 -1333530890  -270211735   945435577  -385146813   121931274  -967298856  -432662860   434026212  1132339626
#
#      Author: C. J. Pickard (cjp20@cam.ac.uk)
#                Space group: P2
#

%BLOCK LATTICE_ABC
      4.53884      7.44361     11.99468
     99.22821     90.00000     90.00000
%ENDBLOCK LATTICE_ABC

%BLOCK POSITIONS_FRAC
  Li   0.4236910   0.2457473   0.4208088 SPIN=   0.00000
  Li   0.4236910  -0.2457473  -0.4208088 SPIN=   0.00000
  Li   0.4859698   0.1294851  -0.1483878 SPIN=   0.00000
  Li   0.4859698  -0.1294851   0.1483878 SPIN=   0.00000
  Fe  -0.0070481  -0.3673923   0.1895606 SPIN=   2.37266
  Fe  -0.0070481   0.3673923  -0.1895606 SPIN=   2.37266
  Fe  -0.0934658  -0.1434913  -0.2590216 SPIN=   5.62734
  Fe  -0.0934658   0.1434913   0.2590216 SPIN=   5.62734
   O   0.1762307   0.2248524  -0.4086739 SPIN=   0.00000
   O   0.6994930   0.1796613  -0.4641643 SPIN=   0.00000
   O   0.4783012  -0.0012676  -0.3295789 SPIN=   0.00000
   O   0.5705910   0.3279630  -0.2706846 SPIN=   0.00000
   S   0.4811540   0.1828023  -0.3682754 SPIN=   0.00000
   O   0.1762307  -0.2248524   0.4086739 SPIN=   0.00000
   O   0.6994930  -0.1796613   0.4641643 SPIN=   0.00000
   O   0.4783012   0.0012676   0.3295789 SPIN=   0.00000
   O   0.5705910  -0.3279630   0.2706846 SPIN=   0.00000
   S   0.4811540  -0.1828023   0.3682754 SPIN=   0.00000
   O   0.6882281  -0.3945220  -0.1722526 SPIN=   0.00000
   O   0.4815723  -0.0986241  -0.0827590 SPIN=   0.00000
   O   0.5594495  -0.3442676   0.0308653 SPIN=   0.00000
   O   0.1651225  -0.3728808  -0.1134040 SPIN=   0.00000
   S   0.4735931  -0.3025736  -0.0843876 SPIN=   0.00000
   O   0.6882281   0.3945220   0.1722526 SPIN=   0.00000
   O   0.4815723   0.0986241   0.0827590 SPIN=   0.00000
   O   0.5594495   0.3442676  -0.0308653 SPIN=   0.00000
   O   0.1651225   0.3728808   0.1134040 SPIN=   0.00000
   S   0.4735931   0.3025736   0.0843876 SPIN=   0.00000
   F   0.1000696  -0.3654230  -0.3521297 SPIN=   0.00000
   F   0.1000696   0.3654230   0.3521297 SPIN=   0.00000
   F  -0.0183815   0.0962951  -0.1524121 SPIN=   0.00000
   F  -0.0183815  -0.0962951   0.1524121 SPIN=   0.00000
%ENDBLOCK POSITIONS_FRAC

# Note: total spin =  16.00

KPOINTS_MP_SPACING 0.07

%BLOCK SPECIES_POT
QC5
%ENDBLOCK SPECIES_POT

SNAP_TO_SYMMETRY
SYMMETRY_GENERATE

