#              Generated by Buildcell
#
# at 13:42:30 (GMT+1.0) 18th August 2020
# in /lustre/scratch/uccabz1/launch_tmp
# on node-c12o-031
# by uccabz1
#
# compiler GCC version 4.9.2
# options -cpp -iprefix /lustre/shared/ucl/apps/gcc/4.9.2/bin/../lib/gcc/x86_64-unknown-linux-gnu/4.9.2/ -mtune=corei7 -march=x86-64 -g -Og
#
# seed  -426594952 -1032298204  2099150994 -1636986394    47664741  -235681112 -1258774760  -799446999    51353197   521932811  1285097465   780078411
#
#      Author: C. J. Pickard (cjp20@cam.ac.uk)
#                Space group: Iba2
#

%BLOCK LATTICE_ABC
      7.37835      7.75404      8.80471
    116.12525    114.77148     90.00000
%ENDBLOCK LATTICE_ABC

%BLOCK POSITIONS_FRAC
  Li  -0.1660164  -0.4558977  -0.4572203 SPIN=   0.00000
  Li  -0.2912038  -0.0013225  -0.4572203 SPIN=   0.00000
  Li   0.3339836   0.4986775  -0.4572203 SPIN=   0.00000
  Li   0.2087962   0.0441023  -0.4572203 SPIN=   0.00000
  Fe  -0.1007526   0.1695733   0.2836424 SPIN=   4.00000
  Fe   0.3843950   0.1140691   0.2836424 SPIN=   4.00000
  Fe   0.3992474  -0.3859309   0.2836424 SPIN=   4.00000
  Fe  -0.1156050  -0.3304267   0.2836424 SPIN=   4.00000
   O   0.3663129  -0.3523428   0.0037078 SPIN=   0.00000
   O   0.0807683  -0.6295876  -0.1312227 SPIN=   0.00000
   O   0.1849732  -0.5806315  -0.3451175 SPIN=   0.00000
   O   0.0101592  -0.3464755  -0.1896406 SPIN=   0.00000
   S   0.1605534  -0.4772594  -0.1655683 SPIN=   0.00000
   O  -0.3626052   0.3560506   0.0037078 SPIN=   0.00000
   O  -0.2119910   0.4983649  -0.1312227 SPIN=   0.00000
   O  -0.5300906   0.2355140  -0.3451175 SPIN=   0.00000
   O  -0.1997998   0.1568348  -0.1896406 SPIN=   0.00000
   S  -0.3261217   0.3116911  -0.1655683 SPIN=   0.00000
   O  -0.1336871  -0.1439494   0.0037078 SPIN=   0.00000
   O  -0.4192317  -0.0016351  -0.1312227 SPIN=   0.00000
   O  -0.3150268  -0.2644860  -0.3451175 SPIN=   0.00000
   O  -0.4898408  -0.3431652  -0.1896406 SPIN=   0.00000
   S  -0.3394466  -0.1883089  -0.1655683 SPIN=   0.00000
   O   0.1373948   0.1476572   0.0037078 SPIN=   0.00000
   O   0.2880090  -0.1295876  -0.1312227 SPIN=   0.00000
   O  -0.0300906  -0.0806315  -0.3451175 SPIN=   0.00000
   O   0.3002002   0.1535245  -0.1896406 SPIN=   0.00000
   S   0.1738783   0.0227406  -0.1655683 SPIN=   0.00000
   F  -0.2759296  -0.0870027   0.3127837 SPIN=   0.00000
   F  -0.4112867   0.3997864   0.3127837 SPIN=   0.00000
   F   0.2240704  -0.1002136   0.3127837 SPIN=   0.00000
   F   0.0887133   0.4129973   0.3127837 SPIN=   0.00000
%ENDBLOCK POSITIONS_FRAC

# Note: total spin =  16.00

KPOINTS_MP_SPACING 0.07

%BLOCK SPECIES_POT
QC5
%ENDBLOCK SPECIES_POT

SNAP_TO_SYMMETRY
SYMMETRY_GENERATE

