#              Generated by Buildcell
#
# at 07:43:26 (GMT+1.0) 4th August 2020
# in /lustre/scratch/uccabz1/launch_tmp
# on node-c12f-023
# by uccabz1
#
# compiler GCC version 4.9.2
# options -cpp -iprefix /lustre/shared/ucl/apps/gcc/4.9.2/bin/../lib/gcc/x86_64-unknown-linux-gnu/4.9.2/ -mtune=corei7 -march=x86-64 -g -Og
#
# seed  1663968080 -1239609322   763888236 -1486086160   924811989  1403984142  1057680190  1385816436 -1518038676 -1734841862  -569845357  1860518939
#
#      Author: C. J. Pickard (cjp20@cam.ac.uk)
#                Space group: P-1
#

%BLOCK LATTICE_ABC
      4.20334      6.69148     14.75834
     85.39341     84.97906     75.72558
%ENDBLOCK LATTICE_ABC

%BLOCK POSITIONS_FRAC
  Li   0.2650625  -0.0872690  -0.2258549 SPIN=   0.00000
  Li  -0.2650625   0.0872690   0.2258549 SPIN=   0.00000
  Li  -0.1975853   0.3078006  -0.0676519 SPIN=   0.00000
  Li   0.1975853  -0.3078006   0.0676519 SPIN=   0.00000
  Fe  -0.0089977   0.4697778   0.2485502 SPIN=   4.94461
  Fe   0.0089977  -0.4697778  -0.2485502 SPIN=   4.94461
  Fe  -0.3011171   0.1322864  -0.3546289 SPIN=   3.05539
  Fe   0.3011171  -0.1322864   0.3546289 SPIN=   3.05539
   O   0.3067384   0.3312652   0.0368395 SPIN=   0.00000
   O   0.3038947   0.0906192   0.1731485 SPIN=   0.00000
   O   0.2531111  -0.0241317   0.0209116 SPIN=   0.00000
   O  -0.2069193   0.2312346   0.0940303 SPIN=   0.00000
   S   0.1642062   0.1572468   0.0812325 SPIN=   0.00000
   O  -0.3067384  -0.3312652  -0.0368395 SPIN=   0.00000
   O  -0.3038947  -0.0906192  -0.1731485 SPIN=   0.00000
   O  -0.2531111   0.0241317  -0.0209116 SPIN=   0.00000
   O   0.2069193  -0.2312346  -0.0940303 SPIN=   0.00000
   S  -0.1642062  -0.1572468  -0.0812325 SPIN=   0.00000
   O  -0.4632783   0.0250466   0.4253980 SPIN=   0.00000
   O  -0.4454413   0.3298438   0.5075780 SPIN=   0.00000
   O  -0.5123584   0.3656711   0.3416684 SPIN=   0.00000
   O   0.0203584   0.1766890   0.4001623 SPIN=   0.00000
   S  -0.3501799   0.2243127   0.4187017 SPIN=   0.00000
   O   0.4632783  -0.0250466  -0.4253980 SPIN=   0.00000
   O   0.4454413  -0.3298438  -0.5075780 SPIN=   0.00000
   O   0.5123584  -0.3656711  -0.3416684 SPIN=   0.00000
   O  -0.0203584  -0.1766890  -0.4001623 SPIN=   0.00000
   S   0.3501799  -0.2243127  -0.4187017 SPIN=   0.00000
   F  -0.5687889   0.3742131  -0.1431831 SPIN=   0.00000
   F   0.5687889  -0.3742131   0.1431831 SPIN=   0.00000
   F  -0.0241560  -0.3199583   0.3802967 SPIN=   0.00000
   F   0.0241560   0.3199583  -0.3802967 SPIN=   0.00000
%ENDBLOCK POSITIONS_FRAC

# Note: total spin =  16.00

KPOINTS_MP_SPACING 0.07

%BLOCK SPECIES_POT
QC5
%ENDBLOCK SPECIES_POT

SNAP_TO_SYMMETRY
SYMMETRY_GENERATE

