#              Generated by Buildcell
#
# at 09:09:39 (GMT+1.0) 4th August 2020
# in /lustre/scratch/uccabz1/launch_tmp
# on node-c12n-017
# by uccabz1
#
# compiler GCC version 4.9.2
# options -cpp -iprefix /lustre/shared/ucl/apps/gcc/4.9.2/bin/../lib/gcc/x86_64-unknown-linux-gnu/4.9.2/ -mtune=corei7 -march=x86-64 -g -Og
#
# seed -1471360510 -1764304293  1525315393  1722874617  -508570196 -1307624843  1271488880  -901235196 -1857830953 -1508021472  -753533884  1509786594
#
#      Author: C. J. Pickard (cjp20@cam.ac.uk)
#                Space group: Cc
#

%BLOCK LATTICE_ABC
      4.56617      6.26343     15.04464
     93.08963     90.00000    111.37745
%ENDBLOCK LATTICE_ABC

%BLOCK POSITIONS_FRAC
  Li  -0.4378053  -0.0841841   0.1104103 SPIN=   0.00000
  Li  -0.1463788  -0.0841841  -0.3895897 SPIN=   0.00000
  Li   0.3355897   0.2411735   0.3714627 SPIN=   0.00000
  Li   0.4055838   0.2411735  -0.1285373 SPIN=   0.00000
  Fe  -0.2726367  -0.0810281   0.2993280 SPIN=   0.91599
  Fe  -0.3083914  -0.0810281  -0.2006720 SPIN=   0.91599
  Fe  -0.0579034   0.4813346   0.1422319 SPIN=   7.08401
  Fe   0.0392380   0.4813346  -0.3577681 SPIN=   7.08401
   O   0.1341362   0.0664784  -0.5192013 SPIN=   0.00000
   O   0.3277178  -0.0973115  -0.3961805 SPIN=   0.00000
   O   0.6586157   0.2800149  -0.4499281 SPIN=   0.00000
   O   0.5693921  -0.0749614  -0.5443124 SPIN=   0.00000
   S   0.4224655   0.0435551  -0.4774056 SPIN=   0.00000
   O   0.4323422   0.0664784  -0.0192013 SPIN=   0.00000
   O   0.0749707  -0.0973115   0.1038195 SPIN=   0.00000
   O   0.1213992   0.2800149   0.0500719 SPIN=   0.00000
   O  -0.1443535  -0.0749614  -0.0443124 SPIN=   0.00000
   S   0.1210896   0.0435551   0.0225944 SPIN=   0.00000
   O  -0.2926695  -0.4117587   0.3923957 SPIN=   0.00000
   O   0.2570683  -0.2995510   0.3426798 SPIN=   0.00000
   O  -0.1443826  -0.6681805   0.2857988 SPIN=   0.00000
   O   0.0411814  -0.6186513   0.4428320 SPIN=   0.00000
   S  -0.0347006  -0.4995354   0.3659266 SPIN=   0.00000
   O   0.3809109  -0.4117587  -0.1076043 SPIN=   0.00000
   O  -0.0566192  -0.2995510  -0.1573202 SPIN=   0.00000
   O  -0.0237978  -0.6681805  -0.2142012 SPIN=   0.00000
   O  -0.1598327  -0.6186513  -0.0571680 SPIN=   0.00000
   S   0.0351653  -0.4995354  -0.1340734 SPIN=   0.00000
   F  -0.4935196  -0.3828302   0.1476669 SPIN=   0.00000
   F  -0.3893106  -0.3828302  -0.3523331 SPIN=   0.00000
   F   0.2461023   0.0618037   0.2653204 SPIN=   0.00000
   F   0.3157015   0.0618037  -0.2346796 SPIN=   0.00000
%ENDBLOCK POSITIONS_FRAC

# Note: total spin =  16.00

KPOINTS_MP_SPACING 0.07

%BLOCK SPECIES_POT
QC5
%ENDBLOCK SPECIES_POT

SNAP_TO_SYMMETRY
SYMMETRY_GENERATE

