#              Generated by Buildcell
#
# at 23:54:56 (GMT+1.0) 17th August 2020
# in /lustre/scratch/uccabz1/launch_tmp
# on node-c12a-035
# by uccabz1
#
# compiler GCC version 4.9.2
# options -cpp -iprefix /lustre/shared/ucl/apps/gcc/4.9.2/bin/../lib/gcc/x86_64-unknown-linux-gnu/4.9.2/ -mtune=corei7 -march=x86-64 -g -Og
#
# seed   297876346  2065591252  -268044964 -1897770094  -251294745   219582766   296845901 -1019359700  1729347298   -36233331 -1938680183   -70533410
#
#      Author: C. J. Pickard (cjp20@cam.ac.uk)
#                Space group: Pc
#

%BLOCK LATTICE_ABC
      4.95366      6.61106     12.21803
     90.00000     91.44994     90.00000
%ENDBLOCK LATTICE_ABC

%BLOCK POSITIONS_FRAC
  Li   0.3269867   0.1680322   0.4106132 SPIN=   0.00000
  Li  -0.1730133  -0.1680322  -0.0893868 SPIN=   0.00000
  Li  -0.2284227  -0.3952004   0.3775352 SPIN=   0.00000
  Li   0.2715773   0.3952004  -0.1224648 SPIN=   0.00000
  Fe  -0.1870397   0.1618919   0.2785805 SPIN=   2.88685
  Fe   0.3129603  -0.1618919  -0.2214195 SPIN=   2.88685
  Fe  -0.2221764  -0.3392619   0.1305296 SPIN=   5.11315
  Fe   0.2778236   0.3392619  -0.3694704 SPIN=   5.11315
   O  -0.2213472   0.0427385  -0.3076015 SPIN=   0.00000
   O   0.0347383   0.1426605  -0.1396449 SPIN=   0.00000
   O  -0.4644015   0.1613658  -0.1451543 SPIN=   0.00000
   O  -0.1975458   0.4029547  -0.2530679 SPIN=   0.00000
   S  -0.2121391   0.1874299  -0.2113671 SPIN=   0.00000
   O   0.2786528  -0.0427385   0.1923985 SPIN=   0.00000
   O   0.5347383  -0.1426605   0.3603551 SPIN=   0.00000
   O   0.0355985  -0.1613658   0.3548457 SPIN=   0.00000
   O   0.3024542  -0.4029547   0.2469321 SPIN=   0.00000
   S   0.2878609  -0.1874299   0.2886329 SPIN=   0.00000
   O  -0.1956886  -0.1821830  -0.4884099 SPIN=   0.00000
   O  -0.5082855  -0.3220667  -0.3528768 SPIN=   0.00000
   O  -0.0217806  -0.2874957  -0.3054775 SPIN=   0.00000
   O  -0.1752530  -0.5454642  -0.4400072 SPIN=   0.00000
   S  -0.2252519  -0.3343024  -0.3966929 SPIN=   0.00000
   O   0.3043114   0.1821830   0.0115901 SPIN=   0.00000
   O  -0.0082855   0.3220667   0.1471232 SPIN=   0.00000
   O   0.4782194   0.2874957   0.1945225 SPIN=   0.00000
   O   0.3247470   0.5454642   0.0599928 SPIN=   0.00000
   S   0.2747481   0.3343024   0.1033071 SPIN=   0.00000
   F  -0.4963963  -0.3476424  -0.1353208 SPIN=   0.00000
   F   0.0036037   0.3476424   0.3646792 SPIN=   0.00000
   F   0.2761560   0.0401264  -0.3971284 SPIN=   0.00000
   F  -0.2238440  -0.0401264   0.1028716 SPIN=   0.00000
%ENDBLOCK POSITIONS_FRAC

# Note: total spin =  16.00

KPOINTS_MP_SPACING 0.07

%BLOCK SPECIES_POT
QC5
%ENDBLOCK SPECIES_POT

SNAP_TO_SYMMETRY
SYMMETRY_GENERATE

