#              Generated by Buildcell
#
# at 06:51:58 (GMT+1.0) 4th August 2020
# in /lustre/scratch/uccabz1/launch_tmp
# on node-c12e-016
# by uccabz1
#
# compiler GCC version 4.9.2
# options -cpp -iprefix /lustre/shared/ucl/apps/gcc/4.9.2/bin/../lib/gcc/x86_64-unknown-linux-gnu/4.9.2/ -mtune=corei7 -march=x86-64 -g -Og
#
# seed    63174206     1725637  -291405894  -442618243 -1294280875  1880939701 -1536756448 -2102266376 -1230258975  -293216340  -429628675 -1314735317
#
#      Author: C. J. Pickard (cjp20@cam.ac.uk)
#                Space group: P21212
#

%BLOCK LATTICE_ABC
      7.26301      7.36549      7.47725
     90.00000     90.00000     90.00000
%ENDBLOCK LATTICE_ABC

%BLOCK POSITIONS_FRAC
  Li  -0.3000787   0.0719817  -0.2727700 SPIN=   0.00000
  Li  -0.3000787  -0.0719817   0.2727700 SPIN=   0.00000
  Li   0.3000787   0.4280183   0.2272300 SPIN=   0.00000
  Li   0.3000787  -0.4280183  -0.2272300 SPIN=   0.00000
  Fe  -0.3844581  -0.2504071  -0.0641277 SPIN=   4.00000
  Fe  -0.3844581   0.2504071   0.0641277 SPIN=   4.00000
  Fe   0.3844581  -0.2495929   0.4358723 SPIN=   4.00000
  Fe   0.3844581   0.2495929  -0.4358723 SPIN=   4.00000
   O  -0.1509250  -0.5797081   0.1518615 SPIN=   0.00000
   O  -0.0872352  -0.2515691   0.1165812 SPIN=   0.00000
   O   0.0748194  -0.4283308   0.3499405 SPIN=   0.00000
   O  -0.2576302  -0.3620635   0.3817440 SPIN=   0.00000
   S  -0.1052428  -0.4054179   0.2500318 SPIN=   0.00000
   O  -0.1509250   0.5797081  -0.1518615 SPIN=   0.00000
   O  -0.0872352   0.2515691  -0.1165812 SPIN=   0.00000
   O   0.0748194   0.4283308  -0.3499405 SPIN=   0.00000
   O  -0.2576302   0.3620635  -0.3817440 SPIN=   0.00000
   S  -0.1052428   0.4054179  -0.2500318 SPIN=   0.00000
   O   0.1509250   0.0797081  -0.3481385 SPIN=   0.00000
   O   0.0872352  -0.2484309  -0.3834188 SPIN=   0.00000
   O  -0.0748194  -0.0716692  -0.1500595 SPIN=   0.00000
   O   0.2576302  -0.1379365  -0.1182560 SPIN=   0.00000
   S   0.1052428  -0.0945821  -0.2499682 SPIN=   0.00000
   O   0.1509250  -0.0797081   0.3481385 SPIN=   0.00000
   O   0.0872352   0.2484309   0.3834188 SPIN=   0.00000
   O  -0.0748194   0.0716692   0.1500595 SPIN=   0.00000
   O   0.2576302   0.1379365   0.1182560 SPIN=   0.00000
   S   0.1052428   0.0945821   0.2499682 SPIN=   0.00000
   F  -0.4029638  -0.1955993  -0.3583825 SPIN=   0.00000
   F  -0.4029638   0.1955993   0.3583825 SPIN=   0.00000
   F   0.4029638  -0.3044007   0.1416175 SPIN=   0.00000
   F   0.4029638   0.3044007  -0.1416175 SPIN=   0.00000
%ENDBLOCK POSITIONS_FRAC

# Note: total spin =  16.00

KPOINTS_MP_SPACING 0.07

%BLOCK SPECIES_POT
QC5
%ENDBLOCK SPECIES_POT

SNAP_TO_SYMMETRY
SYMMETRY_GENERATE

