#              Generated by Buildcell
#
# at 07:03:20 (GMT+1.0) 18th August 2020
# in /scratch/scratch/uccabz1/launch_tmp
# on node-k10i-003
# by uccabz1
#
# compiler GCC version 4.9.2
# options -cpp -iprefix /scratch/UCL/applications/gcc/4.9.2/bin/../lib/gcc/x86_64-unknown-linux-gnu/4.9.2/ -mtune=corei7 -march=x86-64 -g -O2
#
# seed  1337789299 -1063948104 -1062560138 -1211908143 -1916262063 -2020130522  1654793952 -1751110099   218146544 -1126633821 -1041053067  -313033136
#
#      Author: C. J. Pickard (cjp20@cam.ac.uk)
#                Space group: P2
#

%BLOCK LATTICE_ABC
      7.21045      7.49515      7.80891
     90.00000     90.00000    108.59037
%ENDBLOCK LATTICE_ABC

%BLOCK POSITIONS_FRAC
  Li   0.2818762   0.1317162   0.2324329 SPIN=   0.00000
  Li  -0.2818762  -0.1317162   0.2324329 SPIN=   0.00000
  Li  -0.4147704  -0.2237597  -0.2538306 SPIN=   0.00000
  Li   0.4147704   0.2237597  -0.2538306 SPIN=   0.00000
  Fe   0.0425493   0.2610764  -0.4407756 SPIN=   2.56002
  Fe  -0.0425493  -0.2610764  -0.4407756 SPIN=   2.56002
  Fe  -0.2256644  -0.4266501  -0.0001571 SPIN=   5.43998
  Fe   0.2256644   0.4266501  -0.0001571 SPIN=   5.43998
   O  -0.0003882   0.1557927  -0.0118529 SPIN=   0.00000
   O  -0.2917997   0.2570079   0.0321480 SPIN=   0.00000
   O  -0.3318373  -0.0783498  -0.0231353 SPIN=   0.00000
   O  -0.2200125   0.1562796  -0.2552840 SPIN=   0.00000
   S  -0.2110094   0.1226826  -0.0645310 SPIN=   0.00000
   O   0.0003882  -0.1557927  -0.0118529 SPIN=   0.00000
   O   0.2917997  -0.2570079   0.0321480 SPIN=   0.00000
   O   0.3318373   0.0783498  -0.0231353 SPIN=   0.00000
   O   0.2200125  -0.1562796  -0.2552840 SPIN=   0.00000
   S   0.2110094  -0.1226826  -0.0645310 SPIN=   0.00000
   O  -0.3378892   0.1120485   0.3129954 SPIN=   0.00000
   O  -0.5781339   0.2148512   0.4789533 SPIN=   0.00000
   O  -0.3766695   0.4230851   0.2562464 SPIN=   0.00000
   O  -0.2233755   0.3680787   0.5261663 SPIN=   0.00000
   S  -0.3790170   0.2795159   0.3935904 SPIN=   0.00000
   O   0.3378892  -0.1120485   0.3129954 SPIN=   0.00000
   O   0.5781339  -0.2148512   0.4789533 SPIN=   0.00000
   O   0.3766695  -0.4230851   0.2562464 SPIN=   0.00000
   O   0.2233755  -0.3680787   0.5261663 SPIN=   0.00000
   S   0.3790170  -0.2795159   0.3935904 SPIN=   0.00000
   F  -0.2408199  -0.3775967  -0.2533912 SPIN=   0.00000
   F   0.2408199   0.3775967  -0.2533912 SPIN=   0.00000
   F  -0.0916273  -0.2529205   0.3047268 SPIN=   0.00000
   F   0.0916273   0.2529205   0.3047268 SPIN=   0.00000
%ENDBLOCK POSITIONS_FRAC

# Note: total spin =  16.00

KPOINTS_MP_SPACING 0.07

%BLOCK SPECIES_POT
QC5
%ENDBLOCK SPECIES_POT

SNAP_TO_SYMMETRY
SYMMETRY_GENERATE

