#              Generated by Buildcell
#
# at 09:40:48 (GMT+1.0) 4th August 2020
# in /lustre/scratch/uccabz1/launch_tmp
# on node-c12f-003
# by uccabz1
#
# compiler GCC version 4.9.2
# options -cpp -iprefix /lustre/shared/ucl/apps/gcc/4.9.2/bin/../lib/gcc/x86_64-unknown-linux-gnu/4.9.2/ -mtune=corei7 -march=x86-64 -g -Og
#
# seed  -955370087  1579802540  1104651381  1971594427 -1841807275  1013362643  -974452642 -1733751616  1728028044  -112208731 -1176000911   321912111
#
#      Author: C. J. Pickard (cjp20@cam.ac.uk)
#                Space group: Pc
#

%BLOCK LATTICE_ABC
      5.18897      7.86667      9.81173
     92.90264     90.00000     90.00000
%ENDBLOCK LATTICE_ABC

%BLOCK POSITIONS_FRAC
  Li  -0.0951263  -0.2719112   0.0077177 SPIN=   0.00000
  Li   0.0951263   0.2280888  -0.4922823 SPIN=   0.00000
  Li   0.0941211  -0.2741501  -0.4847421 SPIN=   0.00000
  Li  -0.0941211   0.2258499   0.0152579 SPIN=   0.00000
  Fe  -0.4636134  -0.0183446  -0.4459702 SPIN=   5.66397
  Fe   0.4636134   0.4816554   0.0540298 SPIN=   5.66397
  Fe  -0.4225279   0.4491795  -0.4713384 SPIN=   2.33603
  Fe   0.4225279  -0.0508205   0.0286616 SPIN=   2.33603
   O   0.0874199   0.2418218  -0.1621115 SPIN=   0.00000
   O  -0.2223336   0.4170133  -0.2858004 SPIN=   0.00000
   O   0.2455634   0.4432503  -0.3289013 SPIN=   0.00000
   O   0.0612507   0.5522221  -0.1088198 SPIN=   0.00000
   S   0.0429751   0.4135769  -0.2214083 SPIN=   0.00000
   O  -0.0874199  -0.2581782   0.3378885 SPIN=   0.00000
   O   0.2223336  -0.0829867   0.2141996 SPIN=   0.00000
   O  -0.2455634  -0.0567497   0.1710987 SPIN=   0.00000
   O  -0.0612507   0.0522221   0.3911802 SPIN=   0.00000
   S  -0.0429751  -0.0864231   0.2785917 SPIN=   0.00000
   O   0.0505582   0.2305193   0.2279663 SPIN=   0.00000
   O   0.0951199   0.4859911   0.3840130 SPIN=   0.00000
   O  -0.3275761   0.4145440   0.2792397 SPIN=   0.00000
   O   0.0277528   0.5178226   0.1369021 SPIN=   0.00000
   S  -0.0385363   0.4122193   0.2570303 SPIN=   0.00000
   O  -0.0505582  -0.2694807  -0.2720337 SPIN=   0.00000
   O  -0.0951199  -0.0140089  -0.1159870 SPIN=   0.00000
   O   0.3275761  -0.0854560  -0.2207603 SPIN=   0.00000
   O  -0.0277528   0.0178226  -0.3630979 SPIN=   0.00000
   S   0.0385363  -0.0877807  -0.2429697 SPIN=   0.00000
   F  -0.4488032  -0.3151188  -0.0375441 SPIN=   0.00000
   F   0.4488032   0.1848812   0.4624559 SPIN=   0.00000
   F   0.4614650   0.1898034   0.0404612 SPIN=   0.00000
   F  -0.4614650  -0.3101966  -0.4595388 SPIN=   0.00000
%ENDBLOCK POSITIONS_FRAC

# Note: total spin =  16.00

KPOINTS_MP_SPACING 0.07

%BLOCK SPECIES_POT
QC5
%ENDBLOCK SPECIES_POT

SNAP_TO_SYMMETRY
SYMMETRY_GENERATE

