#              Generated by Buildcell
#
# at 01:56:10 (GMT+1.0) 18th August 2020
# in /lustre/scratch/uccabz1/launch_tmp
# on node-c12l-016
# by uccabz1
#
# compiler GCC version 4.9.2
# options -cpp -iprefix /lustre/shared/ucl/apps/gcc/4.9.2/bin/../lib/gcc/x86_64-unknown-linux-gnu/4.9.2/ -mtune=corei7 -march=x86-64 -g -Og
#
# seed  -627649826  1879168566   170487805  1065639245  -248971588 -1116528578  1676522494  -326810526  -272284617    67243635 -1758612568  1676864284
#
#      Author: C. J. Pickard (cjp20@cam.ac.uk)
#                Space group: Iba2
#

%BLOCK LATTICE_ABC
      7.93992      8.27031      8.27031
     63.03413     61.31291     61.31291
%ENDBLOCK LATTICE_ABC

%BLOCK POSITIONS_FRAC
  Li  -0.4352265   0.1603376   0.2208762 SPIN=   0.00000
  Li   0.0540126   0.2208762   0.1603376 SPIN=   0.00000
  Li  -0.4459874  -0.3396624  -0.2791238 SPIN=   0.00000
  Li   0.0647735  -0.2791238  -0.3396624 SPIN=   0.00000
  Fe   0.2672050   0.3019388  -0.2680424 SPIN=   4.00000
  Fe  -0.3011015  -0.2680424   0.3019388 SPIN=   4.00000
  Fe   0.1988985  -0.1980612   0.2319576 SPIN=   4.00000
  Fe  -0.2327950   0.2319576  -0.1980612 SPIN=   4.00000
   O   0.3938120  -0.1928712  -0.4756549 SPIN=   0.00000
   O   0.3253549   0.1534619  -0.5474328 SPIN=   0.00000
   O   0.0819462  -0.0032181  -0.2703394 SPIN=   0.00000
   O   0.1147179   0.0527380  -0.6030088 SPIN=   0.00000
   S   0.2289578   0.0025276  -0.4741090 SPIN=   0.00000
   O   0.2747141  -0.4756549  -0.1928712 SPIN=   0.00000
   O   0.0686159  -0.5474328   0.1534619 SPIN=   0.00000
   O   0.1916113  -0.2703394  -0.0032181 SPIN=   0.00000
   O   0.4355530  -0.6030088   0.0527380 SPIN=   0.00000
   S   0.2426236  -0.4741090   0.0025276 SPIN=   0.00000
   O  -0.2252859  -0.6928712   0.0243451 SPIN=   0.00000
   O  -0.4313841  -0.3465381  -0.0474328 SPIN=   0.00000
   O  -0.3083887  -0.5032181   0.2296606 SPIN=   0.00000
   O  -0.0644470  -0.4472620  -0.1030088 SPIN=   0.00000
   S  -0.2573764  -0.4974724   0.0258910 SPIN=   0.00000
   O  -0.1061880   0.0243451  -0.6928712 SPIN=   0.00000
   O  -0.1746451  -0.0474328  -0.3465381 SPIN=   0.00000
   O  -0.4180538   0.2296606  -0.5032181 SPIN=   0.00000
   O  -0.3852821  -0.1030088  -0.4472620 SPIN=   0.00000
   S  -0.2710422   0.0258910  -0.4974724 SPIN=   0.00000
   F  -0.2420740   0.4570818  -0.4729346 SPIN=   0.00000
   F   0.2579267  -0.4729346   0.4570818 SPIN=   0.00000
   F  -0.2420733  -0.0429182   0.0270654 SPIN=   0.00000
   F   0.2579260   0.0270654  -0.0429182 SPIN=   0.00000
%ENDBLOCK POSITIONS_FRAC

# Note: total spin =  16.00

KPOINTS_MP_SPACING 0.07

%BLOCK SPECIES_POT
QC5
%ENDBLOCK SPECIES_POT

SNAP_TO_SYMMETRY
SYMMETRY_GENERATE

