#              Generated by Buildcell
#
# at 09:01:15 (GMT+1.0) 4th August 2020
# in /lustre/scratch/uccabz1/launch_tmp
# on node-c12d-028
# by uccabz1
#
# compiler GCC version 4.9.2
# options -cpp -iprefix /lustre/shared/ucl/apps/gcc/4.9.2/bin/../lib/gcc/x86_64-unknown-linux-gnu/4.9.2/ -mtune=corei7 -march=x86-64 -g -Og
#
# seed -1940819203   184212232  -686602939  -625349265 -1858837013  -554645709  -186697754   485838996  -916419635  -360466669  -462298653  2040577795
#
#      Author: C. J. Pickard (cjp20@cam.ac.uk)
#                Space group: P-1
#

%BLOCK LATTICE_ABC
      5.28839      6.04576     12.74363
     94.52183     99.63897     91.88780
%ENDBLOCK LATTICE_ABC

%BLOCK POSITIONS_FRAC
  Li  -0.2894080  -0.0488864  -0.0926083 SPIN=   0.00000
  Li   0.2894080   0.0488864   0.0926083 SPIN=   0.00000
  Li   0.2258455  -0.4688646  -0.0970384 SPIN=   0.00000
  Li  -0.2258455   0.4688646   0.0970384 SPIN=   0.00000
  Fe  -0.1636524   0.0359570   0.2125123 SPIN=   6.24106
  Fe   0.1636524  -0.0359570  -0.2125123 SPIN=   6.24106
  Fe  -0.3209685   0.3841753  -0.1991479 SPIN=   1.75894
  Fe   0.3209685  -0.3841753   0.1991479 SPIN=   1.75894
   O  -0.6088772  -0.0625079  -0.4382373 SPIN=   0.00000
   O  -0.2080869  -0.2663363  -0.4251835 SPIN=   0.00000
   O  -0.4811085  -0.2887374  -0.2861290 SPIN=   0.00000
   O  -0.2357870   0.0610249  -0.2988788 SPIN=   0.00000
   S  -0.3834649  -0.1391392  -0.3621071 SPIN=   0.00000
   O   0.6088772   0.0625079   0.4382373 SPIN=   0.00000
   O   0.2080869   0.2663363   0.4251835 SPIN=   0.00000
   O   0.4811085   0.2887374   0.2861290 SPIN=   0.00000
   O   0.2357870  -0.0610249   0.2988788 SPIN=   0.00000
   S   0.3834649   0.1391392   0.3621071 SPIN=   0.00000
   O  -0.9912605   0.3957725  -0.2776769 SPIN=   0.00000
   O  -0.5964631   0.2643047  -0.3377298 SPIN=   0.00000
   O  -0.8411727   0.5545243  -0.4308418 SPIN=   0.00000
   O  -1.0209344   0.1674956  -0.4496325 SPIN=   0.00000
   S  -0.8624577   0.3455243  -0.3739702 SPIN=   0.00000
   O   0.9912605  -0.3957725   0.2776769 SPIN=   0.00000
   O   0.5964631  -0.2643047   0.3377298 SPIN=   0.00000
   O   0.8411727  -0.5545243   0.4308418 SPIN=   0.00000
   O   1.0209344  -0.1674956   0.4496325 SPIN=   0.00000
   S   0.8624577  -0.3455243   0.3739702 SPIN=   0.00000
   F   0.0903148   0.3086871   0.1159051 SPIN=   0.00000
   F  -0.0903148  -0.3086871  -0.1159051 SPIN=   0.00000
   F   0.5636427  -0.1749548   0.1278557 SPIN=   0.00000
   F  -0.5636427   0.1749548  -0.1278557 SPIN=   0.00000
%ENDBLOCK POSITIONS_FRAC

# Note: total spin =  16.00

KPOINTS_MP_SPACING 0.07

%BLOCK SPECIES_POT
QC5
%ENDBLOCK SPECIES_POT

SNAP_TO_SYMMETRY
SYMMETRY_GENERATE

