#              Generated by Buildcell
#
# at 01:43:46 (GMT+1.0) 18th August 2020
# in /lustre/scratch/uccabz1/launch_tmp
# on node-c12o-008
# by uccabz1
#
# compiler GCC version 4.9.2
# options -cpp -iprefix /lustre/shared/ucl/apps/gcc/4.9.2/bin/../lib/gcc/x86_64-unknown-linux-gnu/4.9.2/ -mtune=corei7 -march=x86-64 -g -Og
#
# seed  -640662469  1528643121  1039234561 -1619016042   509658071  1680987518  1146753932  1970334774   263642118   868394454 -1063821445  1957092090
#
#      Author: C. J. Pickard (cjp20@cam.ac.uk)
#                Space group: Cc
#

%BLOCK LATTICE_ABC
      6.66341      8.13624      8.79162
     62.43681     81.42438     71.20084
%ENDBLOCK LATTICE_ABC

%BLOCK POSITIONS_FRAC
  Li   0.2557520   0.2754982   0.1331856 SPIN=   0.00000
  Li  -0.2442480   0.4086838  -0.1331856 SPIN=   0.00000
  Li   0.2431255  -0.0386045  -0.3683208 SPIN=   0.00000
  Li  -0.2568745  -0.4069253   0.3683208 SPIN=   0.00000
  Fe   0.0171530  -0.3234280  -0.2903896 SPIN=   4.90534
  Fe  -0.4828470   0.3861825   0.2903896 SPIN=   4.90534
  Fe  -0.1489355  -0.0479855   0.2683867 SPIN=   3.09466
  Fe   0.3510645   0.2204012  -0.2683867 SPIN=   3.09466
   O   0.0683442  -0.4122385  -0.0395418 SPIN=   0.00000
   O  -0.1473555  -0.1942906   0.0860317 SPIN=   0.00000
   O   0.2338567  -0.3531307   0.1573350 SPIN=   0.00000
   O  -0.0203572  -0.5473928   0.2697541 SPIN=   0.00000
   S   0.0336221  -0.3767631   0.1183948 SPIN=   0.00000
   O  -0.4316558  -0.4517802   0.0395418 SPIN=   0.00000
   O  -0.6473555  -0.1082588  -0.0860317 SPIN=   0.00000
   O  -0.2661433  -0.1957958  -0.1573350 SPIN=   0.00000
   O  -0.5203572  -0.2776387  -0.2697541 SPIN=   0.00000
   S  -0.4663779  -0.2583684  -0.1183948 SPIN=   0.00000
   O  -0.2503562   0.1532006  -0.0988748 SPIN=   0.00000
   O   0.0249845   0.2670929  -0.3083411 SPIN=   0.00000
   O  -0.2551505   0.1861997  -0.3927403 SPIN=   0.00000
   O   0.0243221  -0.0743850  -0.1880656 SPIN=   0.00000
   S  -0.1140500   0.1330270  -0.2470055 SPIN=   0.00000
   O   0.2496438   0.0543257   0.0988748 SPIN=   0.00000
   O   0.5249845  -0.0412483   0.3083411 SPIN=   0.00000
   O   0.2448495  -0.2065405   0.3927403 SPIN=   0.00000
   O   0.5243221  -0.2624506   0.1880656 SPIN=   0.00000
   S   0.3859500  -0.1139784   0.2470055 SPIN=   0.00000
   F   0.3408329   0.2026874   0.4769257 SPIN=   0.00000
   F  -0.1591671  -0.3203869  -0.4769257 SPIN=   0.00000
   F  -0.1340207   0.2271819   0.1575675 SPIN=   0.00000
   F   0.3659793   0.3847494  -0.1575675 SPIN=   0.00000
%ENDBLOCK POSITIONS_FRAC

# Note: total spin =  16.00

KPOINTS_MP_SPACING 0.07

%BLOCK SPECIES_POT
QC5
%ENDBLOCK SPECIES_POT

SNAP_TO_SYMMETRY
SYMMETRY_GENERATE

