#              Generated by Buildcell
#
# at 00:58:00 (GMT+1.0) 18th August 2020
# in /lustre/scratch/uccabz1/launch_tmp
# on node-c12a-026
# by uccabz1
#
# compiler GCC version 4.9.2
# options -cpp -iprefix /lustre/shared/ucl/apps/gcc/4.9.2/bin/../lib/gcc/x86_64-unknown-linux-gnu/4.9.2/ -mtune=corei7 -march=x86-64 -g -Og
#
# seed -1750611373  1541289803  1115073429  1230908558  1413565135 -1030177774 -1938493716  1715553652 -1634504762   614316274 -1229488980  1229627921
#
#      Author: C. J. Pickard (cjp20@cam.ac.uk)
#                Space group: P-1
#

%BLOCK LATTICE_ABC
      4.22488      7.36040     13.63959
    101.98270     90.92336    104.83422
%ENDBLOCK LATTICE_ABC

%BLOCK POSITIONS_FRAC
  Li  -0.5542847   0.0001297  -0.1795691 SPIN=   0.00000
  Li   0.5542847  -0.0001297   0.1795691 SPIN=   0.00000
  Li   0.2441476   0.4441725   0.1508267 SPIN=   0.00000
  Li  -0.2441476  -0.4441725  -0.1508267 SPIN=   0.00000
  Fe   0.0917888   0.2875271  -0.4183583 SPIN=   2.57861
  Fe  -0.0917888  -0.2875271   0.4183583 SPIN=   2.57861
  Fe   0.6625083   0.2727206   0.0124153 SPIN=   5.42139
  Fe  -0.6625083  -0.2727206  -0.0124153 SPIN=   5.42139
   O  -0.3916769  -0.2000990  -0.4813799 SPIN=   0.00000
   O  -0.8201135  -0.1055405  -0.3764260 SPIN=   0.00000
   O  -0.2547507   0.1079744  -0.3548806 SPIN=   0.00000
   O  -0.3698666  -0.2011958  -0.3000786 SPIN=   0.00000
   S  -0.4591019  -0.0997152  -0.3781913 SPIN=   0.00000
   O   0.3916769   0.2000990   0.4813799 SPIN=   0.00000
   O   0.8201135   0.1055405   0.3764260 SPIN=   0.00000
   O   0.2547507  -0.1079744   0.3548806 SPIN=   0.00000
   O   0.3698666   0.2011958   0.3000786 SPIN=   0.00000
   S   0.4591019   0.0997152   0.3781913 SPIN=   0.00000
   O   0.4954380   0.2776726  -0.1396853 SPIN=   0.00000
   O   0.0523277   0.4357353  -0.0917122 SPIN=   0.00000
   O  -0.0844833   0.0999245  -0.1907477 SPIN=   0.00000
   O   0.1872296   0.3683737  -0.2692473 SPIN=   0.00000
   S   0.1626280   0.2954265  -0.1728481 SPIN=   0.00000
   O  -0.4954380  -0.2776726   0.1396853 SPIN=   0.00000
   O  -0.0523277  -0.4357353   0.0917122 SPIN=   0.00000
   O   0.0844833  -0.0999245   0.1907477 SPIN=   0.00000
   O  -0.1872296  -0.3683737   0.2692473 SPIN=   0.00000
   S  -0.1626280  -0.2954265   0.1728481 SPIN=   0.00000
   F   0.3360673   0.1815130   0.1136602 SPIN=   0.00000
   F  -0.3360673  -0.1815130  -0.1136602 SPIN=   0.00000
   F  -0.2489153   0.4402416  -0.3757685 SPIN=   0.00000
   F   0.2489153  -0.4402416   0.3757685 SPIN=   0.00000
%ENDBLOCK POSITIONS_FRAC

# Note: total spin =  16.00

KPOINTS_MP_SPACING 0.07

%BLOCK SPECIES_POT
QC5
%ENDBLOCK SPECIES_POT

SNAP_TO_SYMMETRY
SYMMETRY_GENERATE

