#              Generated by Buildcell
#
# at 09:12:21 (GMT+1.0) 4th August 2020
# in /lustre/scratch/uccabz1/launch_tmp
# on node-c12c-005
# by uccabz1
#
# compiler GCC version 4.9.2
# options -cpp -iprefix /lustre/shared/ucl/apps/gcc/4.9.2/bin/../lib/gcc/x86_64-unknown-linux-gnu/4.9.2/ -mtune=corei7 -march=x86-64 -g -Og
#
# seed -1875968440 -1242796593  2046733143  2080841467  1041495582   721872851  1726853363  1289826572 -2098908779  -829842159  -734358850  -522017860
#
#      Author: C. J. Pickard (cjp20@cam.ac.uk)
#                Space group: P21
#

%BLOCK LATTICE_ABC
      4.16115      8.14887     12.07100
     90.00000     90.00000    102.24477
%ENDBLOCK LATTICE_ABC

%BLOCK POSITIONS_FRAC
  Li   0.2244753  -0.2013616  -0.1695431 SPIN=   0.00000
  Li  -0.2244753   0.2013616   0.3304569 SPIN=   0.00000
  Li   0.2974029   0.2731937   0.0617667 SPIN=   0.00000
  Li  -0.2974029  -0.2731937  -0.4382333 SPIN=   0.00000
  Fe  -0.3813679  -0.4563983  -0.0992975 SPIN=   5.55133
  Fe   0.3813679   0.4563983   0.4007025 SPIN=   5.55133
  Fe  -0.2321191   0.1035722  -0.4261717 SPIN=   2.44867
  Fe   0.2321191  -0.1035722   0.0738283 SPIN=   2.44867
   O   0.4481135   0.0111710   0.2748964 SPIN=   0.00000
   O   0.5591984  -0.1584339   0.4348970 SPIN=   0.00000
   O   0.0094658  -0.2178242   0.3469261 SPIN=   0.00000
   O   0.1918998   0.0417971   0.4566459 SPIN=   0.00000
   S   0.3021694  -0.0808225   0.3783414 SPIN=   0.00000
   O  -0.4481135  -0.0111710  -0.2251036 SPIN=   0.00000
   O  -0.5591984   0.1584339  -0.0651030 SPIN=   0.00000
   O  -0.0094658   0.2178242  -0.1530739 SPIN=   0.00000
   O  -0.1918998  -0.0417971  -0.0433541 SPIN=   0.00000
   S  -0.3021694   0.0808225  -0.1216586 SPIN=   0.00000
   O   0.6964627   0.5024070  -0.3804438 SPIN=   0.00000
   O   0.4879642   0.2672233  -0.2519789 SPIN=   0.00000
   O   0.2152793   0.2813445  -0.4328896 SPIN=   0.00000
   O   0.1638192   0.4844803  -0.2849575 SPIN=   0.00000
   S   0.3908813   0.3838637  -0.3375674 SPIN=   0.00000
   O  -0.6964627  -0.5024070   0.1195562 SPIN=   0.00000
   O  -0.4879642  -0.2672233   0.2480211 SPIN=   0.00000
   O  -0.2152793  -0.2813445   0.0671104 SPIN=   0.00000
   O  -0.1638192  -0.4844803   0.2150425 SPIN=   0.00000
   S  -0.3908813  -0.3838637   0.1624326 SPIN=   0.00000
   F   0.0336649  -0.1471820  -0.3358173 SPIN=   0.00000
   F  -0.0336649   0.1471820   0.1641827 SPIN=   0.00000
   F  -0.9306665  -0.4789726  -0.0761874 SPIN=   0.00000
   F   0.9306665   0.4789726   0.4238126 SPIN=   0.00000
%ENDBLOCK POSITIONS_FRAC

# Note: total spin =  16.00

KPOINTS_MP_SPACING 0.07

%BLOCK SPECIES_POT
QC5
%ENDBLOCK SPECIES_POT

SNAP_TO_SYMMETRY
SYMMETRY_GENERATE

