#              Generated by Buildcell
#
# at 23:12:16 (GMT+1.0) 17th August 2020
# in /lustre/scratch/uccabz1/launch_tmp
# on node-c12e-025
# by uccabz1
#
# compiler GCC version 4.9.2
# options -cpp -iprefix /lustre/shared/ucl/apps/gcc/4.9.2/bin/../lib/gcc/x86_64-unknown-linux-gnu/4.9.2/ -mtune=corei7 -march=x86-64 -g -Og
#
# seed   156956325 -1984963315  -338160784   882411758  -436832539  -231834800 -1249859893  -168085971  -448732516  -849018103 -2040471239   -31236003
#
#      Author: C. J. Pickard (cjp20@cam.ac.uk)
#                Space group: Pc
#

%BLOCK LATTICE_ABC
      4.79051      6.69141     12.55300
     90.00000     90.00000     96.24803
%ENDBLOCK LATTICE_ABC

%BLOCK POSITIONS_FRAC
  Li  -0.1202209   0.3524221   0.2471806 SPIN=   0.00000
  Li   0.3797791   0.3524221  -0.2471806 SPIN=   0.00000
  Li  -0.1717207  -0.1254120   0.3895043 SPIN=   0.00000
  Li   0.3282793  -0.1254120  -0.3895043 SPIN=   0.00000
  Fe  -0.1491133   0.1623186  -0.3537914 SPIN=   4.59470
  Fe   0.3508867   0.1623186   0.3537914 SPIN=   4.59470
  Fe  -0.2086796  -0.3792360  -0.1142007 SPIN=   3.40530
  Fe   0.2913204  -0.3792360   0.1142007 SPIN=   3.40530
   O   0.3241440  -0.3202002   0.4919127 SPIN=   0.00000
   O   0.0052989  -0.3596731   0.3364182 SPIN=   0.00000
   O   0.4591893  -0.5042900   0.3322772 SPIN=   0.00000
   O   0.4505255  -0.1354134   0.3249542 SPIN=   0.00000
   S   0.3097894  -0.3298942   0.3713906 SPIN=   0.00000
   O  -0.1758560  -0.3202002  -0.4919127 SPIN=   0.00000
   O  -0.4947011  -0.3596731  -0.3364182 SPIN=   0.00000
   O  -0.0408107  -0.5042900  -0.3322772 SPIN=   0.00000
   O  -0.0494745  -0.1354134  -0.3249542 SPIN=   0.00000
   S  -0.1902106  -0.3298942  -0.3713906 SPIN=   0.00000
   O   0.2661664   0.2359485   0.1226884 SPIN=   0.00000
   O   0.0306908  -0.0302667   0.2385872 SPIN=   0.00000
   O   0.1300397  -0.1045902   0.0500782 SPIN=   0.00000
   O  -0.2355858   0.1161358   0.0946178 SPIN=   0.00000
   S   0.0478278   0.0543069   0.1264929 SPIN=   0.00000
   O  -0.2338336   0.2359485  -0.1226884 SPIN=   0.00000
   O  -0.4693092  -0.0302667  -0.2385872 SPIN=   0.00000
   O  -0.3699603  -0.1045902  -0.0500782 SPIN=   0.00000
   O  -0.7355858   0.1161358  -0.0946178 SPIN=   0.00000
   S  -0.4521722   0.0543069  -0.1264929 SPIN=   0.00000
   F   0.3003345   0.2132304  -0.3897274 SPIN=   0.00000
   F  -0.1996655   0.2132304   0.3897274 SPIN=   0.00000
   F  -0.2840289  -0.4715514   0.1102862 SPIN=   0.00000
   F   0.2159711  -0.4715514  -0.1102862 SPIN=   0.00000
%ENDBLOCK POSITIONS_FRAC

# Note: total spin =  16.00

KPOINTS_MP_SPACING 0.07

%BLOCK SPECIES_POT
QC5
%ENDBLOCK SPECIES_POT

SNAP_TO_SYMMETRY
SYMMETRY_GENERATE

