#              Generated by Buildcell
#
# at 22:45:23 (GMT+1.0) 17th August 2020
# in /lustre/scratch/uccabz1/launch_tmp
# on node-c12j-020
# by uccabz1
#
# compiler GCC version 4.9.2
# options -cpp -iprefix /lustre/shared/ucl/apps/gcc/4.9.2/bin/../lib/gcc/x86_64-unknown-linux-gnu/4.9.2/ -mtune=corei7 -march=x86-64 -g -Og
#
# seed  1404733150  -473345616   753070635  1930367707   653181446 -1671399655 -2110705290  -873295577 -1618861418 -1227451524 -1576455863 -1116603322
#
#      Author: C. J. Pickard (cjp20@cam.ac.uk)
#                Space group: P21212
#

%BLOCK LATTICE_ABC
      4.26942      7.38193     12.69175
     90.00000     90.00000     90.00000
%ENDBLOCK LATTICE_ABC

%BLOCK POSITIONS_FRAC
  Li  -0.4804764   0.3103956   0.2928145 SPIN=   0.00000
  Li   0.4804764   0.3103956  -0.2928145 SPIN=   0.00000
  Li   0.0195236  -0.3103956   0.2071855 SPIN=   0.00000
  Li  -0.0195236  -0.3103956  -0.2071855 SPIN=   0.00000
  Fe   0.5000000   0.0692866   0.0000000 SPIN=   3.30721
  Fe   0.0000000  -0.0692866   0.5000000 SPIN=   3.30721
  Fe  -0.5000000  -0.4307168   0.0000000 SPIN=   4.69279
  Fe   0.0000000   0.4307168   0.5000000 SPIN=   4.69279
   O  -0.6129222  -0.4845941   0.4090918 SPIN=   0.00000
   O  -0.4310644  -0.4007085   0.2304819 SPIN=   0.00000
   O  -0.1228181  -0.3096732   0.3869071 SPIN=   0.00000
   O  -0.6345578  -0.1648219   0.3509598 SPIN=   0.00000
   S  -0.4503406  -0.3399494   0.3443602 SPIN=   0.00000
   O   0.6129222  -0.4845941  -0.4090918 SPIN=   0.00000
   O   0.4310644  -0.4007085  -0.2304819 SPIN=   0.00000
   O   0.1228181  -0.3096732  -0.3869071 SPIN=   0.00000
   O   0.6345578  -0.1648219  -0.3509598 SPIN=   0.00000
   S   0.4503406  -0.3399494  -0.3443602 SPIN=   0.00000
   O  -0.1129222   0.4845941   0.0909082 SPIN=   0.00000
   O   0.0689356   0.4007085   0.2695181 SPIN=   0.00000
   O   0.3771819   0.3096732   0.1130929 SPIN=   0.00000
   O  -0.1345578   0.1648219   0.1490402 SPIN=   0.00000
   S   0.0496594   0.3399494   0.1556398 SPIN=   0.00000
   O   0.1129222   0.4845941  -0.0909082 SPIN=   0.00000
   O  -0.0689356   0.4007085  -0.2695181 SPIN=   0.00000
   O  -0.3771819   0.3096732  -0.1130929 SPIN=   0.00000
   O   0.1345578   0.1648219  -0.1490402 SPIN=   0.00000
   S  -0.0496594   0.3399494  -0.1556398 SPIN=   0.00000
   F   0.2494361   0.1084512  -0.3671850 SPIN=   0.00000
   F  -0.2494361   0.1084512   0.3671850 SPIN=   0.00000
   F  -0.2505639  -0.1084512  -0.1328150 SPIN=   0.00000
   F   0.2505639  -0.1084512   0.1328150 SPIN=   0.00000
%ENDBLOCK POSITIONS_FRAC

# Note: total spin =  16.00

KPOINTS_MP_SPACING 0.07

%BLOCK SPECIES_POT
QC5
%ENDBLOCK SPECIES_POT

SNAP_TO_SYMMETRY
SYMMETRY_GENERATE

