#              Generated by Buildcell
#
# at 07:00:20 (GMT+1.0) 4th August 2020
# in /lustre/scratch/uccabz1/launch_tmp
# on node-c12m-018
# by uccabz1
#
# compiler GCC version 4.9.2
# options -cpp -iprefix /lustre/shared/ucl/apps/gcc/4.9.2/bin/../lib/gcc/x86_64-unknown-linux-gnu/4.9.2/ -mtune=corei7 -march=x86-64 -g -Og
#
# seed   808492980   621063928 -1698408765  -342545770  -604718071  -119888656  1677848444   588883534  1041878508  -474039866   583294941  -119086030
#
#      Author: C. J. Pickard (cjp20@cam.ac.uk)
#                Space group: Pm
#

%BLOCK LATTICE_ABC
      3.86417      7.95747     13.00886
     90.00000     90.00000     90.38923
%ENDBLOCK LATTICE_ABC

%BLOCK POSITIONS_FRAC
  Li   0.4011425   0.3963965  -0.1833513 SPIN=   0.00000
  Li   0.4011425   0.3963965   0.1833513 SPIN=   0.00000
  Li   0.2595031  -0.0979618  -0.1936134 SPIN=   0.00000
  Li   0.2595031  -0.0979618   0.1936134 SPIN=   0.00000
  Fe  -0.1209906   0.3733948  -0.3616773 SPIN=   4.61737
  Fe  -0.1209906   0.3733948   0.3616773 SPIN=   4.61737
  Fe  -0.2415464  -0.1504071  -0.3634686 SPIN=   3.38263
  Fe  -0.2415464  -0.1504071   0.3634686 SPIN=   3.38263
   O   0.1713858  -0.2890030  -0.0853428 SPIN=   0.00000
   O  -0.2822990  -0.5100313  -0.0856531 SPIN=   0.00000
   O   0.0670081  -0.4581990  -0.2420720 SPIN=   0.00000
   O  -0.3652450  -0.2491986  -0.1860348 SPIN=   0.00000
   S  -0.1022875  -0.3766079  -0.1497757 SPIN=   0.00000
   O   0.1713858  -0.2890030   0.0853428 SPIN=   0.00000
   O  -0.2822990  -0.5100313   0.0856531 SPIN=   0.00000
   O   0.0670081  -0.4581990   0.2420720 SPIN=   0.00000
   O  -0.3652450  -0.2491986   0.1860348 SPIN=   0.00000
   S  -0.1022875  -0.3766079   0.1497757 SPIN=   0.00000
   O  -0.3371677   0.0432610  -0.2490853 SPIN=   0.00000
   O  -0.0190099   0.2764007  -0.1647811 SPIN=   0.00000
   O  -0.0227415  -0.0069467  -0.0863340 SPIN=   0.00000
   O  -0.5558924   0.1636403  -0.0863434 SPIN=   0.00000
   S  -0.2337029   0.1190888  -0.1466360 SPIN=   0.00000
   O  -0.3371677   0.0432610   0.2490853 SPIN=   0.00000
   O  -0.0190099   0.2764007   0.1647811 SPIN=   0.00000
   O  -0.0227415  -0.0069467   0.0863340 SPIN=   0.00000
   O  -0.5558924   0.1636403   0.0863434 SPIN=   0.00000
   S  -0.2337029   0.1190888   0.1466360 SPIN=   0.00000
   F   0.2647839  -0.1738422   0.3602649 SPIN=   0.00000
   F   0.2647839  -0.1738422  -0.3602649 SPIN=   0.00000
   F   0.3386409   0.2909965  -0.3592226 SPIN=   0.00000
   F   0.3386409   0.2909965   0.3592226 SPIN=   0.00000
%ENDBLOCK POSITIONS_FRAC

# Note: total spin =  16.00

KPOINTS_MP_SPACING 0.07

%BLOCK SPECIES_POT
QC5
%ENDBLOCK SPECIES_POT

SNAP_TO_SYMMETRY
SYMMETRY_GENERATE

