#              Generated by Buildcell
#
# at 07:03:45 (GMT+1.0) 4th August 2020
# in /lustre/scratch/uccabz1/launch_tmp
# on node-c12l-013
# by uccabz1
#
# compiler GCC version 4.9.2
# options -cpp -iprefix /lustre/shared/ucl/apps/gcc/4.9.2/bin/../lib/gcc/x86_64-unknown-linux-gnu/4.9.2/ -mtune=corei7 -march=x86-64 -g -Og
#
# seed  -752071261   763834447  -183780015   789924762 -1388945076   919418443 -1841013752 -1834453648  1132098943  1509327573 -1230589771  1386148185
#
#      Author: C. J. Pickard (cjp20@cam.ac.uk)
#                Space group: Cmm2
#

%BLOCK LATTICE_ABC
      6.09112      8.14441      9.03309
    116.79562     90.00000     90.00000
%ENDBLOCK LATTICE_ABC

%BLOCK POSITIONS_FRAC
  Li  -0.3600256   0.2205628   0.0000000 SPIN=   0.00000
  Li  -0.3600256  -0.2205628   0.0000000 SPIN=   0.00000
  Li   0.1869606  -0.2137301  -0.4274603 SPIN=   0.00000
  Li   0.1869606   0.2137301   0.4274603 SPIN=   0.00000
  Fe  -0.4842577  -0.5000000  -0.5000000 SPIN=   4.66644
  Fe  -0.4842577   0.0000000   0.5000000 SPIN=   4.66644
  Fe   0.2729393   0.0000000   0.0000000 SPIN=   1.73768
  Fe   0.3066089  -0.5000000   0.0000000 SPIN=   4.92944
   O  -0.1797373  -0.4369492  -0.1572721 SPIN=   0.00000
   O  -0.1808172  -0.3297146  -0.3737156 SPIN=   0.00000
   O   0.1072242  -0.5444554  -0.3745646 SPIN=   0.00000
   O   0.1068258  -0.2213572  -0.1569350 SPIN=   0.00000
   S  -0.0366261  -0.3831191  -0.2656218 SPIN=   0.00000
   O  -0.1797373   0.4369492   0.1572721 SPIN=   0.00000
   O  -0.1808172   0.3297146   0.3737156 SPIN=   0.00000
   O   0.1072242   0.5444554   0.3745646 SPIN=   0.00000
   O   0.1068258   0.2213572   0.1569350 SPIN=   0.00000
   S  -0.0366261   0.3831191   0.2656218 SPIN=   0.00000
   O  -0.1797373   0.2796771  -0.1572721 SPIN=   0.00000
   O  -0.1808172  -0.0440010  -0.3737156 SPIN=   0.00000
   O   0.1072242   0.1698909  -0.3745646 SPIN=   0.00000
   O   0.1068258   0.0644222  -0.1569350 SPIN=   0.00000
   S  -0.0366261   0.1174973  -0.2656218 SPIN=   0.00000
   O  -0.1797373  -0.2796771   0.1572721 SPIN=   0.00000
   O  -0.1808172   0.0440010   0.3737156 SPIN=   0.00000
   O   0.1072242  -0.1698909   0.3745646 SPIN=   0.00000
   O   0.1068258  -0.0644222   0.1569350 SPIN=   0.00000
   S  -0.0366261  -0.1174973   0.2656218 SPIN=   0.00000
   F   0.4544454  -0.3752109   0.2495782 SPIN=   0.00000
   F   0.4544454   0.3752109  -0.2495782 SPIN=   0.00000
   F   0.4715356  -0.1247996  -0.2495993 SPIN=   0.00000
   F   0.4715356   0.1247996   0.2495993 SPIN=   0.00000
%ENDBLOCK POSITIONS_FRAC

# Note: total spin =  16.00

KPOINTS_MP_SPACING 0.07

%BLOCK SPECIES_POT
QC5
%ENDBLOCK SPECIES_POT

SNAP_TO_SYMMETRY
SYMMETRY_GENERATE

