#              Generated by Buildcell
#
# at 23:18:17 (GMT+1.0) 17th August 2020
# in /lustre/scratch/uccabz1/launch_tmp
# on node-c12m-026
# by uccabz1
#
# compiler GCC version 4.9.2
# options -cpp -iprefix /lustre/shared/ucl/apps/gcc/4.9.2/bin/../lib/gcc/x86_64-unknown-linux-gnu/4.9.2/ -mtune=corei7 -march=x86-64 -g -Og
#
# seed -1442484855  -995465951  1586512656   489472235  -126906999  1405455897  1216334954  1141877367  2057568218   683221440  1611684991  1049335235
#
#      Author: C. J. Pickard (cjp20@cam.ac.uk)
#                Space group: Cc
#

%BLOCK LATTICE_ABC
      5.55285      8.21506      9.49666
    100.50149     90.00000    109.75310
%ENDBLOCK LATTICE_ABC

%BLOCK POSITIONS_FRAC
  Li   0.1020940   0.0796640  -0.0944384 SPIN=   0.00000
  Li  -0.0224300   0.0796640   0.4055616 SPIN=   0.00000
  Li  -0.4741059  -0.1302108   0.0644805 SPIN=   0.00000
  Li   0.3438951  -0.1302108  -0.4355195 SPIN=   0.00000
  Fe   0.0404847  -0.4190077   0.1090440 SPIN=   4.38862
  Fe  -0.4594923  -0.4190077  -0.3909560 SPIN=   4.38862
  Fe   0.3809644   0.2235032   0.2126047 SPIN=   3.61138
  Fe  -0.1574612   0.2235032  -0.2873953 SPIN=   3.61138
   O   0.2145518   0.3167281  -0.1589808 SPIN=   0.00000
   O   0.4532791   0.6169783  -0.0237947 SPIN=   0.00000
   O   0.6801921   0.4519901  -0.1832916 SPIN=   0.00000
   O   0.5241262   0.3585909   0.0433539 SPIN=   0.00000
   S   0.4680373   0.4360719  -0.0806783 SPIN=   0.00000
   O   0.1021764   0.3167281   0.3410192 SPIN=   0.00000
   O   0.1636992   0.6169783   0.4762053 SPIN=   0.00000
   O  -0.2282019   0.4519901   0.3167084 SPIN=   0.00000
   O  -0.1655353   0.3585909   0.5433539 SPIN=   0.00000
   S  -0.0319654   0.4360719   0.4193217 SPIN=   0.00000
   O  -0.6230218  -0.4395328   0.2742486 SPIN=   0.00000
   O  -0.4680962  -0.1134244   0.3324145 SPIN=   0.00000
   O  -0.2387856  -0.2678950   0.1646579 SPIN=   0.00000
   O  -0.2185423  -0.2760104   0.4235147 SPIN=   0.00000
   S  -0.3871115  -0.2742156   0.2987089 SPIN=   0.00000
   O   0.1834890  -0.4395328  -0.2257514 SPIN=   0.00000
   O   0.3546718  -0.1134244  -0.1675855 SPIN=   0.00000
   O  -0.0291093  -0.2678950  -0.3353421 SPIN=   0.00000
   O  -0.0574681  -0.2760104  -0.0764853 SPIN=   0.00000
   S   0.1128958  -0.2742156  -0.2012911 SPIN=   0.00000
   F   0.3459531   0.1919008  -0.4554035 SPIN=   0.00000
   F  -0.1540523   0.1919008   0.0445965 SPIN=   0.00000
   F   0.2349627  -0.0300655   0.1734349 SPIN=   0.00000
   F  -0.2650281  -0.0300655  -0.3265651 SPIN=   0.00000
%ENDBLOCK POSITIONS_FRAC

# Note: total spin =  16.00

KPOINTS_MP_SPACING 0.07

%BLOCK SPECIES_POT
QC5
%ENDBLOCK SPECIES_POT

SNAP_TO_SYMMETRY
SYMMETRY_GENERATE

