#              Generated by Buildcell
#
# at 05:56:56 (GMT+1.0) 4th August 2020
# in /lustre/scratch/uccabz1/launch_tmp
# on node-c12l-011
# by uccabz1
#
# compiler GCC version 4.9.2
# options -cpp -iprefix /lustre/shared/ucl/apps/gcc/4.9.2/bin/../lib/gcc/x86_64-unknown-linux-gnu/4.9.2/ -mtune=corei7 -march=x86-64 -g -Og
#
# seed   -65698622  -377716837  -973408515   538209888  1083114995  1828333679 -2084885519  -891556927 -1809534005 -1660405666   664989959  2079126520
#
#      Author: C. J. Pickard (cjp20@cam.ac.uk)
#                Space group: Pna21
#

%BLOCK LATTICE_ABC
      4.84562      6.61183     12.48503
     90.00000     90.00000     90.00000
%ENDBLOCK LATTICE_ABC

%BLOCK POSITIONS_FRAC
  Li   0.3905382   0.4903992  -0.0836888 SPIN=   0.00000
  Li  -0.3905382  -0.4903992   0.4163112 SPIN=   0.00000
  Li  -0.1094618   0.0096008  -0.0836888 SPIN=   0.00000
  Li   0.1094618  -0.0096008   0.4163112 SPIN=   0.00000
  Fe   0.3877842   0.0361941   0.0689203 SPIN=   4.00000
  Fe  -0.3877842  -0.0361941  -0.4310797 SPIN=   4.00000
  Fe  -0.1122158   0.4638059   0.0689203 SPIN=   4.00000
  Fe   0.1122158  -0.4638059  -0.4310797 SPIN=   4.00000
   O  -0.1044473   0.0765837   0.2742330 SPIN=   0.00000
   O  -0.4069650  -0.2096714   0.3245077 SPIN=   0.00000
   O  -0.6026738   0.0875874   0.2310052 SPIN=   0.00000
   O  -0.4480780   0.1177262   0.4192583 SPIN=   0.00000
   S  -0.3905410   0.0180565   0.3122511 SPIN=   0.00000
   O   0.1044473  -0.0765837  -0.2257670 SPIN=   0.00000
   O   0.4069650   0.2096714  -0.1754923 SPIN=   0.00000
   O   0.6026738  -0.0875874  -0.2689948 SPIN=   0.00000
   O   0.4480780  -0.1177262  -0.0807417 SPIN=   0.00000
   S   0.3905410  -0.0180565  -0.1877489 SPIN=   0.00000
   O   0.3955527   0.4234163   0.2742330 SPIN=   0.00000
   O   0.0930350   0.7096714   0.3245077 SPIN=   0.00000
   O  -0.1026738   0.4124126   0.2310052 SPIN=   0.00000
   O   0.0519220   0.3822738   0.4192583 SPIN=   0.00000
   S   0.1094590   0.4819435   0.3122511 SPIN=   0.00000
   O  -0.3955527  -0.4234163  -0.2257670 SPIN=   0.00000
   O  -0.0930350  -0.7096714  -0.1754923 SPIN=   0.00000
   O   0.1026738  -0.4124126  -0.2689948 SPIN=   0.00000
   O  -0.0519220  -0.3822738  -0.0807417 SPIN=   0.00000
   S  -0.1094590  -0.4819435  -0.1877489 SPIN=   0.00000
   F  -0.0240872  -0.0223098   0.0570453 SPIN=   0.00000
   F   0.0240872   0.0223098  -0.4429547 SPIN=   0.00000
   F   0.4759128  -0.4776902   0.0570453 SPIN=   0.00000
   F  -0.4759128   0.4776902  -0.4429547 SPIN=   0.00000
%ENDBLOCK POSITIONS_FRAC

# Note: total spin =  16.00

KPOINTS_MP_SPACING 0.07

%BLOCK SPECIES_POT
QC5
%ENDBLOCK SPECIES_POT

SNAP_TO_SYMMETRY
SYMMETRY_GENERATE

