#              Generated by Buildcell
#
# at 07:23:53 (GMT+1.0) 4th August 2020
# in /lustre/scratch/uccabz1/launch_tmp
# on node-c12m-012
# by uccabz1
#
# compiler GCC version 4.9.2
# options -cpp -iprefix /lustre/shared/ucl/apps/gcc/4.9.2/bin/../lib/gcc/x86_64-unknown-linux-gnu/4.9.2/ -mtune=corei7 -march=x86-64 -g -Og
#
# seed  1718127535  -210189577  1281566735  1722164913  2048029559 -1361209789  -978757570   139518742   717523782 -1093368184 -1058241485  -178616310
#
#      Author: C. J. Pickard (cjp20@cam.ac.uk)
#                Space group: P-1
#

%BLOCK LATTICE_ABC
      7.49288      7.51508      8.61954
     64.98062     73.02919     66.93584
%ENDBLOCK LATTICE_ABC

%BLOCK POSITIONS_FRAC
  Li   0.3560725  -0.1551658  -0.1419939 SPIN=   0.00000
  Li  -0.3560725   0.1551658   0.1419939 SPIN=   0.00000
  Li   0.0024156  -0.2414168   0.3946490 SPIN=   0.00000
  Li  -0.0024156   0.2414168  -0.3946490 SPIN=   0.00000
  Fe   0.3766992  -0.1559999   0.2200522 SPIN=   3.23062
  Fe  -0.3766992   0.1559999  -0.2200522 SPIN=   3.23062
  Fe  -0.2530873  -0.4297858  -0.0649119 SPIN=   4.76938
  Fe   0.2530873   0.4297858   0.0649119 SPIN=   4.76938
   O   0.2686716  -0.6644597   0.3264199 SPIN=   0.00000
   O   0.4507426  -0.8537456   0.5762415 SPIN=   0.00000
   O   0.2209315  -0.5006151   0.5375203 SPIN=   0.00000
   O   0.5341583  -0.5541698   0.3376150 SPIN=   0.00000
   S   0.3686260  -0.6432475   0.4444492 SPIN=   0.00000
   O  -0.2686716   0.6644597  -0.3264199 SPIN=   0.00000
   O  -0.4507426   0.8537456  -0.5762415 SPIN=   0.00000
   O  -0.2209315   0.5006151  -0.5375203 SPIN=   0.00000
   O  -0.5341583   0.5541698  -0.3376150 SPIN=   0.00000
   S  -0.3686260   0.6432475  -0.4444492 SPIN=   0.00000
   O   0.2400494  -0.0813184  -0.3692746 SPIN=   0.00000
   O  -0.0683431  -0.0533325  -0.1609312 SPIN=   0.00000
   O   0.1545090  -0.3967794  -0.1657470 SPIN=   0.00000
   O  -0.0338717  -0.1575906  -0.4074507 SPIN=   0.00000
   S   0.0730859  -0.1722552  -0.2758509 SPIN=   0.00000
   O  -0.2400494   0.0813184   0.3692746 SPIN=   0.00000
   O   0.0683431   0.0533325   0.1609312 SPIN=   0.00000
   O  -0.1545090   0.3967794   0.1657470 SPIN=   0.00000
   O   0.0338717   0.1575906   0.4074507 SPIN=   0.00000
   S  -0.0730859   0.1722552   0.2758509 SPIN=   0.00000
   F   0.0222108   0.2694783  -0.1749686 SPIN=   0.00000
   F  -0.0222108  -0.2694783   0.1749686 SPIN=   0.00000
   F   0.5000000  -0.5000000   0.0000000 SPIN=   0.00000
   F   0.5000000  -0.0000000  -0.0000000 SPIN=   0.00000
%ENDBLOCK POSITIONS_FRAC

# Note: total spin =  16.00

KPOINTS_MP_SPACING 0.07

%BLOCK SPECIES_POT
QC5
%ENDBLOCK SPECIES_POT

SNAP_TO_SYMMETRY
SYMMETRY_GENERATE

