#              Generated by Buildcell
#
# at 07:42:07 (GMT+1.0) 4th August 2020
# in /lustre/scratch/uccabz1/launch_tmp
# on node-c12k-002
# by uccabz1
#
# compiler GCC version 4.9.2
# options -cpp -iprefix /lustre/shared/ucl/apps/gcc/4.9.2/bin/../lib/gcc/x86_64-unknown-linux-gnu/4.9.2/ -mtune=corei7 -march=x86-64 -g -Og
#
# seed  -141692303    -1946509 -1054894550 -1247012077 -1892540757   -35634570   883604647 -1432623406   249505577  -205662782  2083940229 -1505139735
#
#      Author: C. J. Pickard (cjp20@cam.ac.uk)
#                Space group: Cc
#

%BLOCK LATTICE_ABC
      7.03714      7.03714      8.91661
     72.49378     72.49378     89.47257
%ENDBLOCK LATTICE_ABC

%BLOCK POSITIONS_FRAC
  Li  -0.0116376  -0.3848241  -0.4261328 SPIN=   0.00000
  Li  -0.3848241  -0.0116376   0.0738672 SPIN=   0.00000
  Li  -0.4497692   0.2361732  -0.3567718 SPIN=   0.00000
  Li   0.2361732  -0.4497692   0.1432282 SPIN=   0.00000
  Fe  -0.1150611   0.3540761  -0.0844749 SPIN=   2.90721
  Fe   0.3540761  -0.1150611   0.4155251 SPIN=   2.90721
  Fe  -0.1210285  -0.2455562   0.2412450 SPIN=   5.09279
  Fe  -0.2455562  -0.1210285  -0.2587550 SPIN=   5.09279
   O  -0.1362998   0.4241022   0.2637468 SPIN=   0.00000
   O  -0.1467423   0.1188662   0.1821054 SPIN=   0.00000
   O  -0.3080900   0.1064733   0.4731639 SPIN=   0.00000
   O   0.0611309   0.1452520   0.3560998 SPIN=   0.00000
   S  -0.1325003   0.1986734   0.3187790 SPIN=   0.00000
   O   0.4241022  -0.1362998  -0.2362532 SPIN=   0.00000
   O   0.1188662  -0.1467423  -0.3178946 SPIN=   0.00000
   O   0.1064733  -0.3080900  -0.0268361 SPIN=   0.00000
   O   0.1452520   0.0611309  -0.1439002 SPIN=   0.00000
   S   0.1986734  -0.1325003  -0.1812210 SPIN=   0.00000
   O   0.4305546   0.5222435   0.4869173 SPIN=   0.00000
   O   0.2994369   0.1683288   0.5698165 SPIN=   0.00000
   O   0.4419520   0.3617126   0.2729618 SPIN=   0.00000
   O   0.1174009   0.4382018   0.4392707 SPIN=   0.00000
   S   0.3223361   0.3726216   0.4422416 SPIN=   0.00000
   O   0.5222435   0.4305546  -0.0130827 SPIN=   0.00000
   O   0.1683288   0.2994369   0.0698165 SPIN=   0.00000
   O   0.3617126   0.4419520  -0.2270382 SPIN=   0.00000
   O   0.4382018   0.1174009  -0.0607293 SPIN=   0.00000
   S   0.3726216   0.3223361  -0.0577584 SPIN=   0.00000
   F   0.1954806  -0.1630130   0.2243165 SPIN=   0.00000
   F  -0.1630130   0.1954806  -0.2756835 SPIN=   0.00000
   F  -0.2825640  -0.3081701  -0.4256098 SPIN=   0.00000
   F  -0.3081701  -0.2825640   0.0743902 SPIN=   0.00000
%ENDBLOCK POSITIONS_FRAC

# Note: total spin =  16.00

KPOINTS_MP_SPACING 0.07

%BLOCK SPECIES_POT
QC5
%ENDBLOCK SPECIES_POT

SNAP_TO_SYMMETRY
SYMMETRY_GENERATE

