#              Generated by Buildcell
#
# at 03:25:19 (GMT+1.0) 18th August 2020
# in /lustre/scratch/uccabz1/launch_tmp
# on node-c12i-032
# by uccabz1
#
# compiler GCC version 4.9.2
# options -cpp -iprefix /lustre/shared/ucl/apps/gcc/4.9.2/bin/../lib/gcc/x86_64-unknown-linux-gnu/4.9.2/ -mtune=corei7 -march=x86-64 -g -Og
#
# seed   300122398 -1393287096   636261964   432635177   514974132   829449927   489809194   776521882  -384085779 -1408433115  -640890802   342669039
#
#      Author: C. J. Pickard (cjp20@cam.ac.uk)
#                Space group: Aea2
#

%BLOCK LATTICE_ABC
      7.44141      7.44141      8.12086
     90.00000     90.00000    117.18900
%ENDBLOCK LATTICE_ABC

%BLOCK POSITIONS_FRAC
  Li  -0.2677378  -0.3336798   0.2666645 SPIN=   0.00000
  Li   0.3336798   0.2677378  -0.2666645 SPIN=   0.00000
  Li  -0.1663202  -0.2322622  -0.2333355 SPIN=   0.00000
  Li   0.2322622   0.1663202   0.2333355 SPIN=   0.00000
  Fe   0.1625549  -0.1625549  -0.0000000 SPIN=   2.57738
  Fe  -0.3374451   0.3374451   0.5000000 SPIN=   2.57738
  Fe  -0.3386471   0.3386471   0.0000000 SPIN=   5.42262
  Fe   0.1613529  -0.1613529   0.5000000 SPIN=   5.42262
   O  -0.4297724  -0.3444142  -0.3728087 SPIN=   0.00000
   O  -0.3258112  -0.1145015  -0.6131354 SPIN=   0.00000
   O  -0.1840596   0.0155691  -0.3375523 SPIN=   0.00000
   O  -0.5426294  -0.0800232  -0.3971063 SPIN=   0.00000
   O   0.3444142   0.4297724   0.3728087 SPIN=   0.00000
   O   0.1145015   0.3258112   0.6131354 SPIN=   0.00000
   O  -0.0155691   0.1840596   0.3375523 SPIN=   0.00000
   O   0.0800232   0.5426294   0.3971063 SPIN=   0.00000
   O  -0.1555858  -0.0702276   0.1271913 SPIN=   0.00000
   O  -0.3854985  -0.1741888  -0.1131354 SPIN=   0.00000
   O  -0.5155691  -0.3159404   0.1624477 SPIN=   0.00000
   O  -0.4199768   0.0426294   0.1028937 SPIN=   0.00000
   O   0.0702276   0.1555858  -0.1271913 SPIN=   0.00000
   O   0.1741888   0.3854985   0.1131354 SPIN=   0.00000
   O   0.3159404   0.5155691  -0.1624477 SPIN=   0.00000
   O  -0.0426294   0.4199768  -0.1028937 SPIN=   0.00000
   S  -0.0887122   0.0887122  -0.5000000 SPIN=   0.00000
   S   0.4112878  -0.4112878   0.0000000 SPIN=   0.00000
   S  -0.0886195   0.0886195   0.0000000 SPIN=   0.00000
   S   0.4113805  -0.4113805  -0.5000000 SPIN=   0.00000
   F   0.3718173   0.0530615   0.3441121 SPIN=   0.00000
   F  -0.0530615  -0.3718173  -0.3441121 SPIN=   0.00000
   F   0.4469385   0.1281827  -0.1558879 SPIN=   0.00000
   F  -0.1281827  -0.4469385   0.1558879 SPIN=   0.00000
%ENDBLOCK POSITIONS_FRAC

# Note: total spin =  16.00

KPOINTS_MP_SPACING 0.07

%BLOCK SPECIES_POT
QC5
%ENDBLOCK SPECIES_POT

SNAP_TO_SYMMETRY
SYMMETRY_GENERATE

