#              Generated by Buildcell
#
# at 07:09:53 (GMT+1.0) 4th August 2020
# in /lustre/scratch/uccabz1/launch_tmp
# on node-c12c-007
# by uccabz1
#
# compiler GCC version 4.9.2
# options -cpp -iprefix /lustre/shared/ucl/apps/gcc/4.9.2/bin/../lib/gcc/x86_64-unknown-linux-gnu/4.9.2/ -mtune=corei7 -march=x86-64 -g -Og
#
# seed  1646160893   495631957 -1230307429   527658079   652035173      935758   386930000  1977466051 -1732158365   844113317   646576576   336183865
#
#      Author: C. J. Pickard (cjp20@cam.ac.uk)
#                Space group: P-1
#

%BLOCK LATTICE_ABC
      7.47830      7.49828      8.20235
    102.91394     98.11642    112.73778
%ENDBLOCK LATTICE_ABC

%BLOCK POSITIONS_FRAC
  Li   0.0442695   0.0738185  -0.2665753 SPIN=   0.00000
  Li  -0.0442695  -0.0738185   0.2665753 SPIN=   0.00000
  Li   0.4886108   0.2508584   0.4073433 SPIN=   0.00000
  Li  -0.4886108  -0.2508584  -0.4073433 SPIN=   0.00000
  Fe  -0.4375122  -0.4160135   0.2402313 SPIN=   4.52389
  Fe   0.4375122   0.4160135  -0.2402313 SPIN=   4.52389
  Fe  -0.1350327   0.2886346   0.2983710 SPIN=   3.47611
  Fe   0.1350327  -0.2886346  -0.2983710 SPIN=   3.47611
   O   0.4543373   0.0601753   0.1281026 SPIN=   0.00000
   O   0.1023495  -0.0678952  -0.0355541 SPIN=   0.00000
   O   0.3773414   0.1668897  -0.1272930 SPIN=   0.00000
   O   0.2911703   0.2923444   0.1421190 SPIN=   0.00000
   S   0.3062996   0.1128785   0.0268436 SPIN=   0.00000
   O  -0.4543373  -0.0601753  -0.1281026 SPIN=   0.00000
   O  -0.1023495   0.0678952   0.0355541 SPIN=   0.00000
   O  -0.3773414  -0.1668897   0.1272930 SPIN=   0.00000
   O  -0.2911703  -0.2923444  -0.1421190 SPIN=   0.00000
   S  -0.3062996  -0.1128785  -0.0268436 SPIN=   0.00000
   O  -0.2606544   0.0294958  -0.4873626 SPIN=   0.00000
   O  -0.0922866   0.4044786  -0.3716463 SPIN=   0.00000
   O  -0.1661637   0.1977234  -0.1718058 SPIN=   0.00000
   O  -0.4427063   0.2167292  -0.3609586 SPIN=   0.00000
   S  -0.2404527   0.2121067  -0.3479433 SPIN=   0.00000
   O   0.2606544  -0.0294958   0.4873626 SPIN=   0.00000
   O   0.0922866  -0.4044786   0.3716463 SPIN=   0.00000
   O   0.1661637  -0.1977234   0.1718058 SPIN=   0.00000
   O   0.4427063  -0.2167292   0.3609586 SPIN=   0.00000
   S   0.2404527  -0.2121067   0.3479433 SPIN=   0.00000
   F   0.2333695   0.5041469  -0.0894194 SPIN=   0.00000
   F  -0.2333695  -0.5041469   0.0894194 SPIN=   0.00000
   F  -0.0957860  -0.2314111  -0.4073245 SPIN=   0.00000
   F   0.0957860   0.2314111   0.4073245 SPIN=   0.00000
%ENDBLOCK POSITIONS_FRAC

# Note: total spin =  16.00

KPOINTS_MP_SPACING 0.07

%BLOCK SPECIES_POT
QC5
%ENDBLOCK SPECIES_POT

SNAP_TO_SYMMETRY
SYMMETRY_GENERATE

