#              Generated by Buildcell
#
# at 06:57:34 (GMT+1.0) 4th August 2020
# in /lustre/scratch/uccabz1/launch_tmp
# on node-c12d-013
# by uccabz1
#
# compiler GCC version 4.9.2
# options -cpp -iprefix /lustre/shared/ucl/apps/gcc/4.9.2/bin/../lib/gcc/x86_64-unknown-linux-gnu/4.9.2/ -mtune=corei7 -march=x86-64 -g -Og
#
# seed  1738039942  2088194236    17353353  -491066732  -903309100   544903445  1999614211   606468729   -46287819   898558689  -183719937 -1284329196
#
#      Author: C. J. Pickard (cjp20@cam.ac.uk)
#                Space group: P21
#

%BLOCK LATTICE_ABC
      4.36521      8.14838     11.24677
     90.00000     90.00000     90.82088
%ENDBLOCK LATTICE_ABC

%BLOCK POSITIONS_FRAC
  Li   0.4600335  -0.3979016   0.4363283 SPIN=   0.00000
  Li  -0.4600335   0.3979016  -0.0636717 SPIN=   0.00000
  Li  -0.1565816   0.3120248   0.2189390 SPIN=   0.00000
  Li   0.1565816  -0.3120248  -0.2810610 SPIN=   0.00000
  Fe   0.1734576   0.1222301   0.0360841 SPIN=   4.06247
  Fe  -0.1734576  -0.1222301  -0.4639159 SPIN=   4.06247
  Fe  -0.3395327  -0.1666139  -0.1378781 SPIN=   3.93753
  Fe   0.3395327   0.1666139   0.3621219 SPIN=   3.93753
   O  -0.5476649   0.5355186  -0.2058216 SPIN=   0.00000
   O  -0.3073748   0.6260708  -0.3944903 SPIN=   0.00000
   O  -0.5017066   0.3407240  -0.3734963 SPIN=   0.00000
   O  -0.0387879   0.4313764  -0.2632012 SPIN=   0.00000
   S  -0.3488835   0.4834224  -0.3092524 SPIN=   0.00000
   O   0.5476649  -0.5355186   0.2941784 SPIN=   0.00000
   O   0.3073748  -0.6260708   0.1055097 SPIN=   0.00000
   O   0.5017066  -0.3407240   0.1265037 SPIN=   0.00000
   O   0.0387879  -0.4313764   0.2367988 SPIN=   0.00000
   S   0.3488835  -0.4834224   0.1907476 SPIN=   0.00000
   O  -0.1238039   0.1591194  -0.3176263 SPIN=   0.00000
   O   0.3956672   0.0487433  -0.3478636 SPIN=   0.00000
   O   0.0798304  -0.0474571  -0.1782093 SPIN=   0.00000
   O   0.2950997   0.2351781  -0.1790343 SPIN=   0.00000
   S   0.1616983   0.0988959  -0.2556834 SPIN=   0.00000
   O   0.1238039  -0.1591194   0.1823737 SPIN=   0.00000
   O  -0.3956672  -0.0487433   0.1521364 SPIN=   0.00000
   O  -0.0798304   0.0474571   0.3217907 SPIN=   0.00000
   O  -0.2950997  -0.2351781   0.3209657 SPIN=   0.00000
   S  -0.1616983  -0.0988959   0.2443166 SPIN=   0.00000
   F   0.0792526   0.2954556   0.4578967 SPIN=   0.00000
   F  -0.0792526  -0.2954556  -0.0421033 SPIN=   0.00000
   F   0.2050531  -0.2305047  -0.4811183 SPIN=   0.00000
   F  -0.2050531   0.2305047   0.0188817 SPIN=   0.00000
%ENDBLOCK POSITIONS_FRAC

# Note: total spin =  16.00

KPOINTS_MP_SPACING 0.07

%BLOCK SPECIES_POT
QC5
%ENDBLOCK SPECIES_POT

SNAP_TO_SYMMETRY
SYMMETRY_GENERATE

