#              Generated by Buildcell
#
# at 12:52:42 (GMT+1.0) 18th August 2020
# in /lustre/scratch/uccabz1/launch_tmp
# on node-c12o-027
# by uccabz1
#
# compiler GCC version 4.9.2
# options -cpp -iprefix /lustre/shared/ucl/apps/gcc/4.9.2/bin/../lib/gcc/x86_64-unknown-linux-gnu/4.9.2/ -mtune=corei7 -march=x86-64 -g -Og
#
# seed   319865020   677110653   870347903  2142762780 -1580161696  -704466281 -1909425689  -716816880   194788432  -141625958   935240554 -1498365716
#
#      Author: C. J. Pickard (cjp20@cam.ac.uk)
#                Space group: Pm
#

%BLOCK LATTICE_ABC
      3.80943      7.94053     13.52439
     90.00000     90.00000    102.10581
%ENDBLOCK LATTICE_ABC

%BLOCK POSITIONS_FRAC
  Li  -0.2491736  -0.1398279   0.1383355 SPIN=   0.00000
  Li  -0.2491736  -0.1398279  -0.1383355 SPIN=   0.00000
  Li   0.2397091   0.1418503  -0.3616645 SPIN=   0.00000
  Li   0.2397091   0.1418503   0.3616645 SPIN=   0.00000
  Fe  -0.7617068  -0.4840727   0.1343172 SPIN=   4.64401
  Fe  -0.7617068  -0.4840727  -0.1343172 SPIN=   4.64401
  Fe   0.7522423   0.4860953  -0.3656828 SPIN=   3.35599
  Fe   0.7522423   0.4860953   0.3656828 SPIN=   3.35599
   O  -0.2098100   0.0024324  -0.3274124 SPIN=   0.00000
   O  -0.7822920  -0.0951893  -0.4172786 SPIN=   0.00000
   O  -0.6617917  -0.2446965  -0.2643746 SPIN=   0.00000
   O  -0.3245419  -0.2750492  -0.4174602 SPIN=   0.00000
   S  -0.4946089  -0.1531257  -0.3566314 SPIN=   0.00000
   O  -0.2098100   0.0024324   0.3274124 SPIN=   0.00000
   O  -0.7822920  -0.0951893   0.4172786 SPIN=   0.00000
   O  -0.6617917  -0.2446965   0.2643746 SPIN=   0.00000
   O  -0.3245419  -0.2750492   0.4174602 SPIN=   0.00000
   S  -0.4946089  -0.1531257   0.3566314 SPIN=   0.00000
   O   0.6523268   0.2467182  -0.2356257 SPIN=   0.00000
   O   0.3150802   0.2770725  -0.0825398 SPIN=   0.00000
   O   0.7728303   0.0972126  -0.0827215 SPIN=   0.00000
   O   0.2003465  -0.0004100  -0.1725866 SPIN=   0.00000
   S   0.4851460   0.1551483  -0.1433684 SPIN=   0.00000
   O   0.6523268   0.2467182   0.2356257 SPIN=   0.00000
   O   0.3150802   0.2770725   0.0825398 SPIN=   0.00000
   O   0.7728303   0.0972126   0.0827215 SPIN=   0.00000
   O   0.2003465  -0.0004100   0.1725866 SPIN=   0.00000
   S   0.4851460   0.1551483   0.1433684 SPIN=   0.00000
   F   0.2051847   0.3768507  -0.3708912 SPIN=   0.00000
   F   0.2051847   0.3768507   0.3708912 SPIN=   0.00000
   F  -0.2146492  -0.3748281   0.1291088 SPIN=   0.00000
   F  -0.2146492  -0.3748281  -0.1291088 SPIN=   0.00000
%ENDBLOCK POSITIONS_FRAC

# Note: total spin =  16.00

KPOINTS_MP_SPACING 0.07

%BLOCK SPECIES_POT
QC5
%ENDBLOCK SPECIES_POT

SNAP_TO_SYMMETRY
SYMMETRY_GENERATE

