#              Generated by Buildcell
#
# at 03:32:11 (GMT+1.0) 18th August 2020
# in /lustre/scratch/uccabz1/launch_tmp
# on node-c12i-005
# by uccabz1
#
# compiler GCC version 4.9.2
# options -cpp -iprefix /lustre/shared/ucl/apps/gcc/4.9.2/bin/../lib/gcc/x86_64-unknown-linux-gnu/4.9.2/ -mtune=corei7 -march=x86-64 -g -Og
#
# seed  1349846956 -1008579823  -124080685 -1671463352  -919006193  1723798546  1558396259 -1848976233  -571321285  -977433579   421218782  -401516678
#
#      Author: C. J. Pickard (cjp20@cam.ac.uk)
#                Space group: C2
#

%BLOCK LATTICE_ABC
      6.89133      6.89133      9.23899
     97.87863     97.87863    110.12467
%ENDBLOCK LATTICE_ABC

%BLOCK POSITIONS_FRAC
  Li   0.1195559   0.4106291   0.4707226 SPIN=   0.00000
  Li  -0.4106291  -0.1195559  -0.4707226 SPIN=   0.00000
  Li   0.1549807  -0.5661409  -0.1331899 SPIN=   0.00000
  Li   0.5661409  -0.1549807   0.1331899 SPIN=   0.00000
  Fe   0.2307213  -0.0936696   0.3269116 SPIN=   4.22736
  Fe   0.0936696  -0.2307213  -0.3269116 SPIN=   4.22736
  Fe   0.5333254   0.5063653   0.3062110 SPIN=   3.77264
  Fe  -0.5063653  -0.5333254  -0.3062110 SPIN=   3.77264
   O   0.4509102   0.3114529  -0.1051425 SPIN=   0.00000
   O   0.0815912   0.1473055  -0.0756409 SPIN=   0.00000
   O   0.3737838   0.2516356   0.1424238 SPIN=   0.00000
   O   0.3194517  -0.0514858  -0.0573242 SPIN=   0.00000
   S   0.3064342   0.1647271  -0.0239209 SPIN=   0.00000
   O  -0.3114529  -0.4509102   0.1051425 SPIN=   0.00000
   O  -0.1473055  -0.0815912   0.0756409 SPIN=   0.00000
   O  -0.2516356  -0.3737838  -0.1424238 SPIN=   0.00000
   O   0.0514858  -0.3194517   0.0573242 SPIN=   0.00000
   S  -0.1647271  -0.3064342   0.0239209 SPIN=   0.00000
   O  -0.0727049   0.1830401  -0.3146629 SPIN=   0.00000
   O  -0.4374007   0.1593810  -0.3061342 SPIN=   0.00000
   O  -0.1531346   0.3392120  -0.0836738 SPIN=   0.00000
   O  -0.2811545  -0.0485591  -0.1640895 SPIN=   0.00000
   S  -0.2360987   0.1582685  -0.2171401 SPIN=   0.00000
   O  -0.1830401   0.0727049   0.3146629 SPIN=   0.00000
   O  -0.1593810   0.4374007   0.3061342 SPIN=   0.00000
   O  -0.3392120   0.1531346   0.0836738 SPIN=   0.00000
   O   0.0485591   0.2811545   0.1640895 SPIN=   0.00000
   S  -0.1582685   0.2360987   0.2171401 SPIN=   0.00000
   F  -0.1635433  -0.3083878  -0.4503637 SPIN=   0.00000
   F   0.3083878   0.1635433   0.4503637 SPIN=   0.00000
   F   0.3507953   0.6373355   0.2264926 SPIN=   0.00000
   F  -0.6373355  -0.3507953  -0.2264926 SPIN=   0.00000
%ENDBLOCK POSITIONS_FRAC

# Note: total spin =  16.00

KPOINTS_MP_SPACING 0.07

%BLOCK SPECIES_POT
QC5
%ENDBLOCK SPECIES_POT

SNAP_TO_SYMMETRY
SYMMETRY_GENERATE

