#              Generated by Buildcell
#
# at 14:05:09 (GMT+1.0) 18th August 2020
# in /scratch/scratch/uccabz1/launch_tmp
# on node-k10a-007
# by uccabz1
#
# compiler GCC version 4.9.2
# options -cpp -iprefix /scratch/UCL/applications/gcc/4.9.2/bin/../lib/gcc/x86_64-unknown-linux-gnu/4.9.2/ -mtune=corei7 -march=x86-64 -g -O2
#
# seed  -302041819   819074373  1587299806  -231315756  -268842239  1729155314  1060942862 -1708625590  1283430988  1254817345  -684660205 -2053426046
#
#      Author: C. J. Pickard (cjp20@cam.ac.uk)
#                Space group: Pc
#

%BLOCK LATTICE_ABC
      4.03504      8.89303     11.38495
     90.00000     90.00000    101.73214
%ENDBLOCK LATTICE_ABC

%BLOCK POSITIONS_FRAC
  Li   0.3234824   0.0084278  -0.1636985 SPIN=   0.00000
  Li  -0.1765176   0.0084278   0.1636985 SPIN=   0.00000
  Li   0.7744462   0.4384396   0.1452563 SPIN=   0.00000
  Li   0.2744462   0.4384396  -0.1452563 SPIN=   0.00000
  Fe  -0.1333494  -0.0005539  -0.3671640 SPIN=   4.10939
  Fe   0.3666506  -0.0005539   0.3671640 SPIN=   4.10939
  Fe  -0.2610814  -0.3547622   0.3714637 SPIN=   3.89061
  Fe  -0.7610814  -0.3547622  -0.3714637 SPIN=   3.89061
   O   0.3012064   0.3606622  -0.4353501 SPIN=   0.00000
   O   0.8115127   0.4780456  -0.3218588 SPIN=   0.00000
   O   0.7603973   0.2175756  -0.4057032 SPIN=   0.00000
   O   0.3985460   0.2599977  -0.2384279 SPIN=   0.00000
   S   0.5679156   0.3290703  -0.3503350 SPIN=   0.00000
   O  -0.1987936   0.3606622   0.4353501 SPIN=   0.00000
   O   0.3115127   0.4780456   0.3218588 SPIN=   0.00000
   O   0.2603973   0.2175756   0.4057032 SPIN=   0.00000
   O  -0.1014540   0.2599977   0.2384279 SPIN=   0.00000
   S   0.0679156   0.3290703   0.3503350 SPIN=   0.00000
   O  -0.2572861  -0.2566935  -0.2737154 SPIN=   0.00000
   O   0.0196356  -0.1769044  -0.0833865 SPIN=   0.00000
   O  -0.1272994  -0.4523930  -0.1362366 SPIN=   0.00000
   O  -0.5803699  -0.3119666  -0.0885421 SPIN=   0.00000
   S  -0.2363300  -0.2994894  -0.1454702 SPIN=   0.00000
   O  -0.7572861  -0.2566935   0.2737154 SPIN=   0.00000
   O  -0.4803644  -0.1769044   0.0833865 SPIN=   0.00000
   O  -0.6272994  -0.4523930   0.1362366 SPIN=   0.00000
   O  -1.0803699  -0.3119666   0.0885421 SPIN=   0.00000
   S  -0.7363300  -0.2994894   0.1454702 SPIN=   0.00000
   F  -0.1769941  -0.0773729   0.3698991 SPIN=   0.00000
   F   0.3230059  -0.0773729  -0.3698991 SPIN=   0.00000
   F  -0.1728463   0.0990087  -0.1290232 SPIN=   0.00000
   F   0.3271537   0.0990087   0.1290232 SPIN=   0.00000
%ENDBLOCK POSITIONS_FRAC

# Note: total spin =  16.00

KPOINTS_MP_SPACING 0.07

%BLOCK SPECIES_POT
QC5
%ENDBLOCK SPECIES_POT

SNAP_TO_SYMMETRY
SYMMETRY_GENERATE

