#              Generated by Buildcell
#
# at 08:00:01 (GMT+1.0) 4th August 2020
# in /lustre/scratch/uccabz1/launch_tmp
# on node-c12l-009
# by uccabz1
#
# compiler GCC version 4.9.2
# options -cpp -iprefix /lustre/shared/ucl/apps/gcc/4.9.2/bin/../lib/gcc/x86_64-unknown-linux-gnu/4.9.2/ -mtune=corei7 -march=x86-64 -g -Og
#
# seed  1925895324  -441331587  1578576625  -186921695  1135571193  1834207181  1261472577  1279294117 -1509853199   493054529 -1329052080  -868368340
#
#      Author: C. J. Pickard (cjp20@cam.ac.uk)
#                Space group: Pc
#

%BLOCK LATTICE_ABC
      5.93492      7.09572     10.11609
     90.00000     90.00000    110.12651
%ENDBLOCK LATTICE_ABC

%BLOCK POSITIONS_FRAC
  Li   0.4324641   0.1513079  -0.3199855 SPIN=   0.00000
  Li  -0.0675359   0.1513079   0.3199855 SPIN=   0.00000
  Li   0.3693529  -0.3556959  -0.1844372 SPIN=   0.00000
  Li  -0.1306471  -0.3556959   0.1844372 SPIN=   0.00000
  Fe   0.3119845  -0.2883203   0.3887595 SPIN=   0.85169
  Fe  -0.1880155  -0.2883203  -0.3887595 SPIN=   0.85169
  Fe  -0.4944861   0.0422825   0.1092067 SPIN=   7.14831
  Fe   0.0055139   0.0422825  -0.1092067 SPIN=   7.14831
   O  -0.5853283   0.2539745  -0.0763403 SPIN=   0.00000
   O  -0.3564383   0.5123719  -0.2367111 SPIN=   0.00000
   O  -0.1873959   0.2606477  -0.1543082 SPIN=   0.00000
   O  -0.2178521   0.5270877  -0.0049513 SPIN=   0.00000
   S  -0.3367536   0.3885204  -0.1180777 SPIN=   0.00000
   O  -0.0853283   0.2539745   0.0763403 SPIN=   0.00000
   O   0.1435617   0.5123719   0.2367111 SPIN=   0.00000
   O   0.3126041   0.2606477   0.1543082 SPIN=   0.00000
   O   0.2821479   0.5270877   0.0049513 SPIN=   0.00000
   S   0.1632464   0.3885204   0.1180777 SPIN=   0.00000
   O   0.4083787   0.4911384  -0.4240540 SPIN=   0.00000
   O   0.1667146   0.2581645  -0.2537867 SPIN=   0.00000
   O   0.0188673   0.2349721  -0.4840800 SPIN=   0.00000
   O   0.0294809   0.5242169  -0.3443634 SPIN=   0.00000
   S   0.1558604   0.3771230  -0.3765710 SPIN=   0.00000
   O  -0.0916213   0.4911384   0.4240540 SPIN=   0.00000
   O  -0.3332854   0.2581645   0.2537867 SPIN=   0.00000
   O  -0.4811327   0.2349721   0.4840800 SPIN=   0.00000
   O  -0.4705191   0.5242169   0.3443634 SPIN=   0.00000
   S  -0.3441396   0.3771230   0.3765710 SPIN=   0.00000
   F   0.1630820  -0.1571749  -0.1186319 SPIN=   0.00000
   F  -0.3369180  -0.1571749   0.1186319 SPIN=   0.00000
   F   0.1447346  -0.0954992   0.3813625 SPIN=   0.00000
   F  -0.3552654  -0.0954992  -0.3813625 SPIN=   0.00000
%ENDBLOCK POSITIONS_FRAC

# Note: total spin =  16.00

KPOINTS_MP_SPACING 0.07

%BLOCK SPECIES_POT
QC5
%ENDBLOCK SPECIES_POT

SNAP_TO_SYMMETRY
SYMMETRY_GENERATE

