#              Generated by Buildcell
#
# at 16:51:50 (GMT+1.0) 18th August 2020
# in /lustre/scratch/uccabz1/launch_tmp
# on node-c12j-021
# by uccabz1
#
# compiler GCC version 4.9.2
# options -cpp -iprefix /lustre/shared/ucl/apps/gcc/4.9.2/bin/../lib/gcc/x86_64-unknown-linux-gnu/4.9.2/ -mtune=corei7 -march=x86-64 -g -Og
#
# seed -1360472300   420511161   553733811     6751358 -1554684075  1333079965  -438050477  1600781585 -1359958697 -1930511039   736574916  1490962463
#
#      Author: C. J. Pickard (cjp20@cam.ac.uk)
#                Space group: Pba2
#

%BLOCK LATTICE_ABC
      6.76030      7.64329      7.74130
     90.00000     90.00000     90.00000
%ENDBLOCK LATTICE_ABC

%BLOCK POSITIONS_FRAC
  Li  -0.4235272  -0.2518823   0.0695285 SPIN=   0.00000
  Li  -0.4235272   0.2518823  -0.0695285 SPIN=   0.00000
  Li  -0.4235272   0.2481177   0.4304715 SPIN=   0.00000
  Li  -0.4235272  -0.2481177  -0.4304715 SPIN=   0.00000
  Fe   0.3114504  -0.4978068   0.2555029 SPIN=   4.00000
  Fe   0.3114504   0.4978068  -0.2555029 SPIN=   4.00000
  Fe   0.3114504   0.0021932   0.2444971 SPIN=   4.00000
  Fe   0.3114504  -0.0021932  -0.2444971 SPIN=   4.00000
   O   0.0392901   0.1392958  -0.4320911 SPIN=   0.00000
   O  -0.3083094   0.0647113  -0.3639691 SPIN=   0.00000
   O  -0.1961840   0.3725854  -0.3492273 SPIN=   0.00000
   O  -0.0814724   0.1589082  -0.1309103 SPIN=   0.00000
   S  -0.1366689   0.1838752  -0.3190494 SPIN=   0.00000
   O   0.0392901  -0.1392958   0.4320911 SPIN=   0.00000
   O  -0.3083094  -0.0647113   0.3639691 SPIN=   0.00000
   O  -0.1961840  -0.3725854   0.3492273 SPIN=   0.00000
   O  -0.0814724  -0.1589082   0.1309103 SPIN=   0.00000
   S  -0.1366689  -0.1838752   0.3190494 SPIN=   0.00000
   O   0.0392901  -0.3607042  -0.0679089 SPIN=   0.00000
   O  -0.3083094  -0.4352887  -0.1360309 SPIN=   0.00000
   O  -0.1961840  -0.1274146  -0.1507727 SPIN=   0.00000
   O  -0.0814724  -0.3410918  -0.3690897 SPIN=   0.00000
   S  -0.1366689  -0.3161248  -0.1809506 SPIN=   0.00000
   O   0.0392901   0.3607042   0.0679089 SPIN=   0.00000
   O  -0.3083094   0.4352887   0.1360309 SPIN=   0.00000
   O  -0.1961840   0.1274146   0.1507727 SPIN=   0.00000
   O  -0.0814724   0.3410918   0.3690897 SPIN=   0.00000
   S  -0.1366689   0.3161248   0.1809506 SPIN=   0.00000
   F   0.3539967   0.2575211  -0.2045772 SPIN=   0.00000
   F   0.3539967  -0.2575211   0.2045772 SPIN=   0.00000
   F   0.3539967  -0.2424789  -0.2954228 SPIN=   0.00000
   F   0.3539967   0.2424789   0.2954228 SPIN=   0.00000
%ENDBLOCK POSITIONS_FRAC

# Note: total spin =  16.00

KPOINTS_MP_SPACING 0.07

%BLOCK SPECIES_POT
QC5
%ENDBLOCK SPECIES_POT

SNAP_TO_SYMMETRY
SYMMETRY_GENERATE

