#              Generated by Buildcell
#
# at 12:27:53 (GMT+1.0) 18th August 2020
# in /lustre/scratch/uccabz1/launch_tmp
# on node-c12m-030
# by uccabz1
#
# compiler GCC version 4.9.2
# options -cpp -iprefix /lustre/shared/ucl/apps/gcc/4.9.2/bin/../lib/gcc/x86_64-unknown-linux-gnu/4.9.2/ -mtune=corei7 -march=x86-64 -g -Og
#
# seed -2083727908   389528539 -2049904938  1489585136 -2103002938 -2024487226  1311146076 -1366379866  -128309080  -812617603   431826161  -970223994
#
#      Author: C. J. Pickard (cjp20@cam.ac.uk)
#                Space group: Cc
#

%BLOCK LATTICE_ABC
      6.76235      8.24573      8.24573
     60.61843     87.19467     87.19467
%ENDBLOCK LATTICE_ABC

%BLOCK POSITIONS_FRAC
  Li  -0.2516920  -0.9091379   0.4115840 SPIN=   0.00000
  Li   0.2483080  -0.5884160   0.0908621 SPIN=   0.00000
  Li   0.1963349  -0.0726324  -0.2806813 SPIN=   0.00000
  Li  -0.3036651  -0.2806813  -0.0726324 SPIN=   0.00000
  Fe   0.4288208   0.2570683  -0.1590108 SPIN=   4.79718
  Fe  -0.0711792  -0.1590108   0.2570683 SPIN=   4.79718
  Fe  -0.0250617   0.5379854  -0.2442686 SPIN=   3.20282
  Fe   0.4749383   0.7557314  -0.4620146 SPIN=   3.20282
   O   0.1765998  -0.7579740   0.4769018 SPIN=   0.00000
   O   0.4620545  -0.7245730   0.2641935 SPIN=   0.00000
   O   0.4519693  -0.9927177   0.5840694 SPIN=   0.00000
   O   0.5036100  -0.6760341   0.5337606 SPIN=   0.00000
   S   0.3985584  -0.7878247   0.4647313 SPIN=   0.00000
   O  -0.3234002  -0.5230982   0.2420260 SPIN=   0.00000
   O  -0.0379455  -0.7358065   0.2754270 SPIN=   0.00000
   O  -0.0480307  -0.4159306   0.0072823 SPIN=   0.00000
   O   0.0036100  -0.4662394   0.3239659 SPIN=   0.00000
   S  -0.1014416  -0.5352687   0.2121753 SPIN=   0.00000
   O   0.1056225   0.1262653  -0.2260956 SPIN=   0.00000
   O  -0.2101055  -0.0392667  -0.1161511 SPIN=   0.00000
   O  -0.1675193   0.2072402  -0.4444706 SPIN=   0.00000
   O  -0.1970288   0.2905916  -0.1937921 SPIN=   0.00000
   S  -0.1172578   0.1462076  -0.2451273 SPIN=   0.00000
   O   0.6056225  -0.2260956   0.1262653 SPIN=   0.00000
   O   0.2898945  -0.1161511  -0.0392667 SPIN=   0.00000
   O   0.3324807  -0.4444706   0.2072402 SPIN=   0.00000
   O   0.3029712  -0.1937921   0.2905916 SPIN=   0.00000
   S   0.3827422  -0.2451273   0.1462076 SPIN=   0.00000
   F  -0.2757654   0.0387381   0.2071774 SPIN=   0.00000
   F   0.2242346   0.2071774   0.0387381 SPIN=   0.00000
   F  -0.4085358   0.5920206  -0.1992673 SPIN=   0.00000
   F   0.0914642   0.8007327  -0.4079794 SPIN=   0.00000
%ENDBLOCK POSITIONS_FRAC

# Note: total spin =  16.00

KPOINTS_MP_SPACING 0.07

%BLOCK SPECIES_POT
QC5
%ENDBLOCK SPECIES_POT

SNAP_TO_SYMMETRY
SYMMETRY_GENERATE

