#              Generated by Buildcell
#
# at 07:12:50 (GMT+1.0) 4th August 2020
# in /lustre/scratch/uccabz1/launch_tmp
# on node-c12h-031
# by uccabz1
#
# compiler GCC version 4.9.2
# options -cpp -iprefix /lustre/shared/ucl/apps/gcc/4.9.2/bin/../lib/gcc/x86_64-unknown-linux-gnu/4.9.2/ -mtune=corei7 -march=x86-64 -g -Og
#
# seed -1305387657  -102774613   -21680868 -1037874712   331498961   312927374 -1336103421  -913749860 -1296127582  1236891535  -316980687   -20898381
#
#      Author: C. J. Pickard (cjp20@cam.ac.uk)
#                Space group: P21
#

%BLOCK LATTICE_ABC
      6.01554      8.10365      8.42377
    103.07153     90.00000     90.00000
%ENDBLOCK LATTICE_ABC

%BLOCK POSITIONS_FRAC
  Li   0.2743618   0.0262091  -0.1383929 SPIN=   0.00000
  Li  -0.2256382  -0.0262091   0.1383929 SPIN=   0.00000
  Li  -0.2098757   0.2221514  -0.3953352 SPIN=   0.00000
  Li   0.2901243  -0.2221514   0.3953352 SPIN=   0.00000
  Fe   0.3850359   0.4186561   0.1500450 SPIN=   5.25878
  Fe  -0.1149641  -0.4186561  -0.1500450 SPIN=   5.25878
  Fe  -0.1146621  -0.4435608   0.3976175 SPIN=   2.74122
  Fe   0.3853379   0.4435608  -0.3976175 SPIN=   2.74122
   O   0.1803191  -0.2921062  -0.1581067 SPIN=   0.00000
   O   0.4919198  -0.1109501  -0.0293351 SPIN=   0.00000
   O   0.5487678  -0.4191625  -0.1317913 SPIN=   0.00000
   O   0.3180310  -0.3134695   0.1133692 SPIN=   0.00000
   S   0.3847594  -0.2839221  -0.0514660 SPIN=   0.00000
   O  -0.3196809   0.2921062   0.1581067 SPIN=   0.00000
   O  -0.0080802   0.1109501   0.0293351 SPIN=   0.00000
   O   0.0487678   0.4191625   0.1317913 SPIN=   0.00000
   O  -0.1819690   0.3134695  -0.1133692 SPIN=   0.00000
   S  -0.1152406   0.2839221   0.0514660 SPIN=   0.00000
   O  -0.2988669  -0.2696661  -0.3348617 SPIN=   0.00000
   O  -0.2601971  -0.0367007  -0.4788453 SPIN=   0.00000
   O   0.0570327  -0.1141873  -0.3232964 SPIN=   0.00000
   O  -0.2729579   0.0271436  -0.1774583 SPIN=   0.00000
   S  -0.1937473  -0.0983526  -0.3286154 SPIN=   0.00000
   O   0.2011331   0.2696661   0.3348617 SPIN=   0.00000
   O   0.2398029   0.0367007   0.4788453 SPIN=   0.00000
   O   0.5570327   0.1141873   0.3232964 SPIN=   0.00000
   O   0.2270421  -0.0271436   0.1774583 SPIN=   0.00000
   S   0.3062527   0.0983526   0.3286154 SPIN=   0.00000
   F  -0.1175194  -0.2471479   0.2206635 SPIN=   0.00000
   F   0.3824806   0.2471479  -0.2206635 SPIN=   0.00000
   F   0.4261588  -0.4221073   0.4076358 SPIN=   0.00000
   F  -0.0738412   0.4221073  -0.4076358 SPIN=   0.00000
%ENDBLOCK POSITIONS_FRAC

# Note: total spin =  16.00

KPOINTS_MP_SPACING 0.07

%BLOCK SPECIES_POT
QC5
%ENDBLOCK SPECIES_POT

SNAP_TO_SYMMETRY
SYMMETRY_GENERATE

