#              Generated by Buildcell
#
# at 02:00:21 (GMT+1.0) 18th August 2020
# in /lustre/scratch/uccabz1/launch_tmp
# on node-c12j-010
# by uccabz1
#
# compiler GCC version 4.9.2
# options -cpp -iprefix /lustre/shared/ucl/apps/gcc/4.9.2/bin/../lib/gcc/x86_64-unknown-linux-gnu/4.9.2/ -mtune=corei7 -march=x86-64 -g -Og
#
# seed   847963552 -1728211939   783192280  -148213761    37065219 -1667766646  1851498673 -1918108713  1523497722 -1770994520  1105405537  -810495980
#
#      Author: C. J. Pickard (cjp20@cam.ac.uk)
#                Space group: Pc
#

%BLOCK LATTICE_ABC
      5.75775      5.76487     12.09424
     94.85418     90.00000     90.00000
%ENDBLOCK LATTICE_ABC

%BLOCK POSITIONS_FRAC
  Li  -0.2727648  -0.2458578  -0.2549433 SPIN=   0.00000
  Li   0.2727648   0.2541422  -0.2549433 SPIN=   0.00000
  Li  -0.2320882  -0.0033437   0.1437476 SPIN=   0.00000
  Li   0.2320882   0.4966563   0.1437476 SPIN=   0.00000
  Fe  -0.2993886   0.2229613  -0.0732546 SPIN=   6.19703
  Fe   0.2993886  -0.2770387  -0.0732546 SPIN=   6.19703
  Fe   0.2025062  -0.2387851  -0.3681958 SPIN=   1.80297
  Fe  -0.2025062   0.2612149  -0.3681958 SPIN=   1.80297
   O  -0.1223046  -0.2806586   0.2337886 SPIN=   0.00000
   O  -0.0781277  -0.5264076   0.0571165 SPIN=   0.00000
   O  -0.4676239  -0.3873817   0.1186750 SPIN=   0.00000
   O  -0.2660489  -0.6866973   0.2182066 SPIN=   0.00000
   S  -0.2335263  -0.4702863   0.1569467 SPIN=   0.00000
   O   0.1223046   0.2193414   0.2337886 SPIN=   0.00000
   O   0.0781277  -0.0264076   0.0571165 SPIN=   0.00000
   O   0.4676239   0.1126183   0.1186750 SPIN=   0.00000
   O   0.2660489  -0.1866973   0.2182066 SPIN=   0.00000
   S   0.2335263   0.0297137   0.1569467 SPIN=   0.00000
   O   0.0148515  -0.4865920   0.3646756 SPIN=   0.00000
   O   0.3070079  -0.1741668   0.3998654 SPIN=   0.00000
   O   0.4022220  -0.5256708   0.2763795 SPIN=   0.00000
   O   0.3618376  -0.5528912   0.4785983 SPIN=   0.00000
   S   0.2714798  -0.4348302   0.3798797 SPIN=   0.00000
   O  -0.0148515   0.0134080   0.3646756 SPIN=   0.00000
   O  -0.3070079   0.3258332   0.3998654 SPIN=   0.00000
   O  -0.4022220  -0.0256708   0.2763795 SPIN=   0.00000
   O  -0.3618376  -0.0528912   0.4785983 SPIN=   0.00000
   S  -0.2714798   0.0651698   0.3798797 SPIN=   0.00000
   F  -0.2511928  -0.1261229  -0.0883469 SPIN=   0.00000
   F   0.2511928   0.3738771  -0.0883469 SPIN=   0.00000
   F   0.2487025   0.0875499  -0.4139155 SPIN=   0.00000
   F  -0.2487025  -0.4124501  -0.4139155 SPIN=   0.00000
%ENDBLOCK POSITIONS_FRAC

# Note: total spin =  16.00

KPOINTS_MP_SPACING 0.07

%BLOCK SPECIES_POT
QC5
%ENDBLOCK SPECIES_POT

SNAP_TO_SYMMETRY
SYMMETRY_GENERATE

