#              Generated by Buildcell
#
# at 06:12:10 (GMT+1.0) 4th August 2020
# in /lustre/scratch/uccabz1/launch_tmp
# on node-c12m-027
# by uccabz1
#
# compiler GCC version 4.9.2
# options -cpp -iprefix /lustre/shared/ucl/apps/gcc/4.9.2/bin/../lib/gcc/x86_64-unknown-linux-gnu/4.9.2/ -mtune=corei7 -march=x86-64 -g -Og
#
# seed  -969103111  1847423055 -1183741870   -45586672   649739561   984106324   730095918  -401758451    46748065  1322860511  -446734329 -1848717184
#
#      Author: C. J. Pickard (cjp20@cam.ac.uk)
#                Space group: Pca21
#

%BLOCK LATTICE_ABC
      5.53671      5.67446     12.73163
     90.00000     90.00000     90.00000
%ENDBLOCK LATTICE_ABC

%BLOCK POSITIONS_FRAC
  Li  -0.2360795  -0.2706860   0.0697001 SPIN=   0.00000
  Li   0.2360795   0.2706860  -0.4302999 SPIN=   0.00000
  Li   0.2360795   0.2293140   0.0697001 SPIN=   0.00000
  Li  -0.2360795  -0.2293140  -0.4302999 SPIN=   0.00000
  Fe   0.2358419  -0.1949568  -0.3069666 SPIN=   4.00000
  Fe  -0.2358419   0.1949568   0.1930334 SPIN=   4.00000
  Fe  -0.2358419   0.3050432  -0.3069666 SPIN=   4.00000
  Fe   0.2358419  -0.3050432   0.1930334 SPIN=   4.00000
   O   0.1515100   0.0488261  -0.1638588 SPIN=   0.00000
   O   0.1860336   0.4262684  -0.0676220 SPIN=   0.00000
   O   0.1821162   0.4241156  -0.2619999 SPIN=   0.00000
   O   0.5368811   0.2697635  -0.1658137 SPIN=   0.00000
   S   0.2641352   0.2922434  -0.1648236 SPIN=   0.00000
   O  -0.1515100  -0.0488261   0.3361412 SPIN=   0.00000
   O  -0.1860336  -0.4262684   0.4323780 SPIN=   0.00000
   O  -0.1821162  -0.4241156   0.2380001 SPIN=   0.00000
   O  -0.5368811  -0.2697635   0.3341863 SPIN=   0.00000
   S  -0.2641352  -0.2922434   0.3351764 SPIN=   0.00000
   O  -0.1515100  -0.4511739  -0.1638588 SPIN=   0.00000
   O  -0.1860336  -0.0737316  -0.0676220 SPIN=   0.00000
   O  -0.1821162  -0.0758844  -0.2619999 SPIN=   0.00000
   O  -0.5368811  -0.2302365  -0.1658137 SPIN=   0.00000
   S  -0.2641352  -0.2077566  -0.1648236 SPIN=   0.00000
   O   0.1515100   0.4511739   0.3361412 SPIN=   0.00000
   O   0.1860336   0.0737316   0.4323780 SPIN=   0.00000
   O   0.1821162   0.0758844   0.2380001 SPIN=   0.00000
   O   0.5368811   0.2302365   0.3341863 SPIN=   0.00000
   S   0.2641352   0.2077566   0.3351764 SPIN=   0.00000
   F   0.2702176  -0.3628389  -0.4617510 SPIN=   0.00000
   F  -0.2702176   0.3628389   0.0382490 SPIN=   0.00000
   F  -0.2702176   0.1371611  -0.4617510 SPIN=   0.00000
   F   0.2702176  -0.1371611   0.0382490 SPIN=   0.00000
%ENDBLOCK POSITIONS_FRAC

# Note: total spin =  16.00

KPOINTS_MP_SPACING 0.07

%BLOCK SPECIES_POT
QC5
%ENDBLOCK SPECIES_POT

SNAP_TO_SYMMETRY
SYMMETRY_GENERATE

