#              Generated by Buildcell
#
# at 09:53:07 (GMT+1.0) 18th August 2020
# in /lustre/scratch/uccabz1/launch_tmp
# on node-c12e-006
# by uccabz1
#
# compiler GCC version 4.9.2
# options -cpp -iprefix /lustre/shared/ucl/apps/gcc/4.9.2/bin/../lib/gcc/x86_64-unknown-linux-gnu/4.9.2/ -mtune=corei7 -march=x86-64 -g -Og
#
# seed   707928815   954957948  -581566099  2108420031   639081669  -571322886 -1280698230   -60465145 -1925540478 -1871296552 -1950822360  1617771741
#
#      Author: C. J. Pickard (cjp20@cam.ac.uk)
#                Space group: P21
#

%BLOCK LATTICE_ABC
      7.07069      7.70064      7.87382
     90.00000     90.00000    111.09122
%ENDBLOCK LATTICE_ABC

%BLOCK POSITIONS_FRAC
  Li  -0.1609170  -0.4036805  -0.3355788 SPIN=   0.00000
  Li   0.1609170   0.4036805   0.1644212 SPIN=   0.00000
  Li   0.0622374  -0.0398011   0.3549758 SPIN=   0.00000
  Li  -0.0622374   0.0398011  -0.1450242 SPIN=   0.00000
  Fe   0.1380228   0.3916950  -0.4490774 SPIN=   3.48795
  Fe  -0.1380228  -0.3916950   0.0509226 SPIN=   3.48795
  Fe  -0.4271815   0.2377335   0.4913347 SPIN=   4.51205
  Fe   0.4271815  -0.2377335  -0.0086653 SPIN=   4.51205
   O   0.4330236   0.2723073  -0.2845473 SPIN=   0.00000
   O   0.2485956   0.1126513  -0.0284285 SPIN=   0.00000
   O   0.2071512   0.4006602  -0.1310190 SPIN=   0.00000
   O   0.5313520   0.4154482  -0.0011803 SPIN=   0.00000
   S   0.3550306   0.3002668  -0.1112938 SPIN=   0.00000
   O  -0.4330236  -0.2723073   0.2154527 SPIN=   0.00000
   O  -0.2485956  -0.1126513   0.4715715 SPIN=   0.00000
   O  -0.2071512  -0.4006602   0.3689810 SPIN=   0.00000
   O  -0.5313520  -0.4154482   0.4988197 SPIN=   0.00000
   S  -0.3550306  -0.3002668   0.3887062 SPIN=   0.00000
   O  -0.0738644   0.0868225   0.0946380 SPIN=   0.00000
   O  -0.3581672   0.0611184   0.2885504 SPIN=   0.00000
   O  -0.3897688   0.1110457  -0.0190339 SPIN=   0.00000
   O  -0.1594603   0.3646097   0.1582695 SPIN=   0.00000
   S  -0.2453152   0.1558991   0.1306060 SPIN=   0.00000
   O   0.0738644  -0.0868225  -0.4053620 SPIN=   0.00000
   O   0.3581672  -0.0611184  -0.2114496 SPIN=   0.00000
   O   0.3897688  -0.1110457  -0.5190339 SPIN=   0.00000
   O   0.1594603  -0.3646097  -0.3417305 SPIN=   0.00000
   S   0.2453152  -0.1558991  -0.3693940 SPIN=   0.00000
   F   0.1710020  -0.2950496   0.1298294 SPIN=   0.00000
   F  -0.1710020   0.2950496  -0.3701706 SPIN=   0.00000
   F  -0.2888909  -0.2255664  -0.1564597 SPIN=   0.00000
   F   0.2888909   0.2255664   0.3435403 SPIN=   0.00000
%ENDBLOCK POSITIONS_FRAC

# Note: total spin =  16.00

KPOINTS_MP_SPACING 0.07

%BLOCK SPECIES_POT
QC5
%ENDBLOCK SPECIES_POT

SNAP_TO_SYMMETRY
SYMMETRY_GENERATE

