#              Generated by Buildcell
#
# at 04:54:20 (GMT+1.0) 18th August 2020
# in /lustre/scratch/uccabz1/launch_tmp
# on node-c12d-017
# by uccabz1
#
# compiler GCC version 4.9.2
# options -cpp -iprefix /lustre/shared/ucl/apps/gcc/4.9.2/bin/../lib/gcc/x86_64-unknown-linux-gnu/4.9.2/ -mtune=corei7 -march=x86-64 -g -Og
#
# seed  -388926719   626609963  1588844698  1785274415  1078774552  1554174137   876654473   994423734  1649299196  -909516527  1392534539  -643950224
#
#      Author: C. J. Pickard (cjp20@cam.ac.uk)
#                Space group: C2
#

%BLOCK LATTICE_ABC
      7.51481      7.74750      7.74750
     90.86359    108.91742    108.91742
%ENDBLOCK LATTICE_ABC

%BLOCK POSITIONS_FRAC
  Li  -0.2202738  -0.2207404   0.2888749 SPIN=   0.00000
  Li   0.2202738  -0.2888749   0.2207404 SPIN=   0.00000
  Li  -0.4593335   0.1289538  -0.4404425 SPIN=   0.00000
  Li   0.4593335   0.4404425  -0.1289538 SPIN=   0.00000
  Fe   0.2627420  -0.2962151  -0.3167234 SPIN=   3.89405
  Fe  -0.2627420   0.3167234   0.2962151 SPIN=   3.89405
  Fe   0.0396571   0.0725660  -0.3848919 SPIN=   4.10595
  Fe  -0.0396571   0.3848919  -0.0725660 SPIN=   4.10595
   O  -0.3273276  -0.2314919  -0.3846448 SPIN=   0.00000
   O  -0.1168582  -0.3895639  -0.1847303 SPIN=   0.00000
   O  -0.0622795  -0.2926740  -0.4719258 SPIN=   0.00000
   O  -0.3680528  -0.5504909  -0.4871301 SPIN=   0.00000
   S  -0.2186295  -0.3660552  -0.3821078 SPIN=   0.00000
   O   0.3273276   0.3846448   0.2314919 SPIN=   0.00000
   O   0.1168582   0.1847303   0.3895639 SPIN=   0.00000
   O   0.0622795   0.4719258   0.2926740 SPIN=   0.00000
   O   0.3680528   0.4871301   0.5504909 SPIN=   0.00000
   S   0.2186295   0.3821078   0.3660552 SPIN=   0.00000
   O  -0.3862069  -0.0022077  -0.2145475 SPIN=   0.00000
   O  -0.1374122  -0.1449181  -0.0554027 SPIN=   0.00000
   O  -0.4287026  -0.1789379   0.0416211 SPIN=   0.00000
   O  -0.1564972   0.1236209   0.1050234 SPIN=   0.00000
   S  -0.2772047  -0.0506107  -0.0308264 SPIN=   0.00000
   O   0.3862069   0.2145475   0.0022077 SPIN=   0.00000
   O   0.1374122   0.0554027   0.1449181 SPIN=   0.00000
   O   0.4287026  -0.0416211   0.1789379 SPIN=   0.00000
   O   0.1564972  -0.1050234  -0.1236209 SPIN=   0.00000
   S   0.2772047   0.0308264   0.0506107 SPIN=   0.00000
   F  -0.2392171   0.0881216   0.4410151 SPIN=   0.00000
   F   0.2392171  -0.4410151  -0.0881216 SPIN=   0.00000
   F  -0.2634903   0.4258803   0.0394437 SPIN=   0.00000
   F   0.2634903  -0.0394437  -0.4258803 SPIN=   0.00000
%ENDBLOCK POSITIONS_FRAC

# Note: total spin =  16.00

KPOINTS_MP_SPACING 0.07

%BLOCK SPECIES_POT
QC5
%ENDBLOCK SPECIES_POT

SNAP_TO_SYMMETRY
SYMMETRY_GENERATE

