#              Generated by Buildcell
#
# at 05:51:41 (GMT+1.0) 4th August 2020
# in /lustre/scratch/uccabz1/launch_tmp
# on node-c12c-001
# by uccabz1
#
# compiler GCC version 4.9.2
# options -cpp -iprefix /lustre/shared/ucl/apps/gcc/4.9.2/bin/../lib/gcc/x86_64-unknown-linux-gnu/4.9.2/ -mtune=corei7 -march=x86-64 -g -Og
#
# seed  1584219124 -1596022280  -990595980  -576673752 -1586633147  2053664911   899425277    28541352  2051613882  -632720540  1043192708  1033694112
#
#      Author: C. J. Pickard (cjp20@cam.ac.uk)
#                Space group: Pna21
#

%BLOCK LATTICE_ABC
      7.01131      7.51623      7.59033
     90.00000     90.00000     90.00000
%ENDBLOCK LATTICE_ABC

%BLOCK POSITIONS_FRAC
  Li   0.0455403   0.3564218   0.1716111 SPIN=   0.00000
  Li  -0.0455403  -0.3564218  -0.3283889 SPIN=   0.00000
  Li  -0.4544597   0.1435782   0.1716111 SPIN=   0.00000
  Li   0.4544597  -0.1435782  -0.3283889 SPIN=   0.00000
  Fe  -0.0068367  -0.1842899   0.0362311 SPIN=   4.00000
  Fe   0.0068367   0.1842899  -0.4637689 SPIN=   4.00000
  Fe   0.4931633  -0.3157101   0.0362311 SPIN=   4.00000
  Fe  -0.4931633   0.3157101  -0.4637689 SPIN=   4.00000
   O  -0.1538667   0.5238467   0.0138916 SPIN=   0.00000
   O  -0.3518978   0.4456416  -0.2446699 SPIN=   0.00000
   O  -0.2852175   0.2196814  -0.0156441 SPIN=   0.00000
   O  -0.0270364   0.3205598  -0.2142852 SPIN=   0.00000
   S  -0.2045046   0.3774324  -0.1151769 SPIN=   0.00000
   O   0.1538667  -0.5238467   0.5138916 SPIN=   0.00000
   O   0.3518978  -0.4456416   0.2553301 SPIN=   0.00000
   O   0.2852175  -0.2196814   0.4843559 SPIN=   0.00000
   O   0.0270364  -0.3205598   0.2857148 SPIN=   0.00000
   S   0.2045046  -0.3774324   0.3848231 SPIN=   0.00000
   O   0.3461333  -0.0238467   0.0138916 SPIN=   0.00000
   O   0.1481022   0.0543584  -0.2446699 SPIN=   0.00000
   O   0.2147825   0.2803186  -0.0156441 SPIN=   0.00000
   O   0.4729636   0.1794402  -0.2142852 SPIN=   0.00000
   S   0.2954954   0.1225676  -0.1151769 SPIN=   0.00000
   O  -0.3461333   0.0238467   0.5138916 SPIN=   0.00000
   O  -0.1481022  -0.0543584   0.2553301 SPIN=   0.00000
   O  -0.2147825  -0.2803186   0.4843559 SPIN=   0.00000
   O  -0.4729636  -0.1794402   0.2857148 SPIN=   0.00000
   S  -0.2954954  -0.1225676   0.3848231 SPIN=   0.00000
   F  -0.2350957  -0.1224831  -0.1221264 SPIN=   0.00000
   F   0.2350957   0.1224831   0.3778736 SPIN=   0.00000
   F   0.2649043  -0.3775169  -0.1221264 SPIN=   0.00000
   F  -0.2649043   0.3775169   0.3778736 SPIN=   0.00000
%ENDBLOCK POSITIONS_FRAC

# Note: total spin =  16.00

KPOINTS_MP_SPACING 0.07

%BLOCK SPECIES_POT
QC5
%ENDBLOCK SPECIES_POT

SNAP_TO_SYMMETRY
SYMMETRY_GENERATE

