#              Generated by Buildcell
#
# at 08:21:13 (GMT+1.0) 4th August 2020
# in /lustre/scratch/uccabz1/launch_tmp
# on node-c12l-031
# by uccabz1
#
# compiler GCC version 4.9.2
# options -cpp -iprefix /lustre/shared/ucl/apps/gcc/4.9.2/bin/../lib/gcc/x86_64-unknown-linux-gnu/4.9.2/ -mtune=corei7 -march=x86-64 -g -Og
#
# seed -1454722100  -925405831  1607606180  2117944901  -248649711  -563412647  -369156556   618597912   356676691  1686602657  -819755002  1087637932
#
#      Author: C. J. Pickard (cjp20@cam.ac.uk)
#                Space group: C2
#

%BLOCK LATTICE_ABC
      5.61955      9.04190      9.08163
     60.14460     89.07878     88.14922
%ENDBLOCK LATTICE_ABC

%BLOCK POSITIONS_FRAC
  Li  -0.4878464  -0.4094148   0.3328569 SPIN=   0.00000
  Li   0.4878464   0.0765579   0.3328569 SPIN=   0.00000
  Li   0.5000000  -0.3566408   0.7132817 SPIN=   0.00000
  Li  -0.0000000  -0.1590181   0.3180362 SPIN=   0.00000
  Fe  -0.2743959  -0.3673808   0.0123850 SPIN=   4.25537
  Fe   0.2743959   0.3549959   0.0123850 SPIN=   4.25537
  Fe   0.0064839   0.0645885  -0.5282976 SPIN=   3.74463
  Fe  -0.0064839   0.4637090  -0.5282976 SPIN=   3.74463
   O   0.3765013  -0.3058060   0.0217223 SPIN=   0.00000
   O   0.1593099  -0.3408691   0.2759151 SPIN=   0.00000
   O  -0.0362809  -0.1910985  -0.0055877 SPIN=   0.00000
   O   0.2919795  -0.0554521   0.0579460 SPIN=   0.00000
   S   0.1978775  -0.2233064   0.0874989 SPIN=   0.00000
   O  -0.3765013   0.2840837   0.0217223 SPIN=   0.00000
   O  -0.1593099   0.0649540   0.2759151 SPIN=   0.00000
   O   0.0362809   0.1966863  -0.0055877 SPIN=   0.00000
   O  -0.2919795  -0.0024939   0.0579460 SPIN=   0.00000
   S  -0.1978775   0.1358075   0.0874989 SPIN=   0.00000
   O  -0.2728196  -0.1126538  -0.3801277 SPIN=   0.00000
   O  -0.4429140  -0.0421749  -0.1687366 SPIN=   0.00000
   O  -0.7009520  -0.1537644  -0.3074066 SPIN=   0.00000
   S  -0.4908062  -0.0426774  -0.3322368 SPIN=   0.00000
   O   0.2728196   0.4927815  -0.3801277 SPIN=   0.00000
   O   0.4429140   0.2109114  -0.1687366 SPIN=   0.00000
   O   0.7009520   0.4611710  -0.3074066 SPIN=   0.00000
   S   0.4908062   0.3749142  -0.3322368 SPIN=   0.00000
   O   0.0000000   0.3338769  -0.6677537 SPIN=   0.00000
   O  -0.0000000  -0.2880920   0.5761839 SPIN=   0.00000
   F   0.0000000   0.1408403  -0.2816806 SPIN=   0.00000
   F  -0.0000000  -0.4636583   0.9273166 SPIN=   0.00000
   F   0.5000000   0.3479629  -0.6959259 SPIN=   0.00000
   F   0.5000000  -0.1976764   0.3953529 SPIN=   0.00000
%ENDBLOCK POSITIONS_FRAC

# Note: total spin =  16.00

KPOINTS_MP_SPACING 0.07

%BLOCK SPECIES_POT
QC5
%ENDBLOCK SPECIES_POT

SNAP_TO_SYMMETRY
SYMMETRY_GENERATE

