#              Generated by Buildcell
#
# at 10:37:06 (GMT+1.0) 4th August 2020
# in /lustre/scratch/uccabz1/launch_tmp
# on node-c12l-020
# by uccabz1
#
# compiler GCC version 4.9.2
# options -cpp -iprefix /lustre/shared/ucl/apps/gcc/4.9.2/bin/../lib/gcc/x86_64-unknown-linux-gnu/4.9.2/ -mtune=corei7 -march=x86-64 -g -Og
#
# seed -1800148499   682028735 -1705754914  1678046693  2054371311  1927683692   780787336   611762656   607468055  1170614813 -1890803008   310657090
#
#      Author: C. J. Pickard (cjp20@cam.ac.uk)
#                Space group: P2
#

%BLOCK LATTICE_ABC
      3.91946      8.71599     12.29935
    107.82520     90.00000     90.00000
%ENDBLOCK LATTICE_ABC

%BLOCK POSITIONS_FRAC
  Li  -0.4062853  -0.1453314   0.1585213 SPIN=   0.00000
  Li  -0.4062853   0.1453314  -0.1585213 SPIN=   0.00000
  Li  -0.0530099  -0.2674703  -0.4512316 SPIN=   0.00000
  Li  -0.0530099   0.2674703   0.4512316 SPIN=   0.00000
  Fe   0.0386495  -0.1544964  -0.1913951 SPIN=   4.57211
  Fe   0.0386495   0.1544964   0.1913951 SPIN=   4.57211
  Fe   0.0966097  -0.1260716   0.3538775 SPIN=   3.42789
  Fe   0.0966097   0.1260716  -0.3538775 SPIN=   3.42789
   O  -0.3250413   0.4635688   0.1666384 SPIN=   0.00000
   O  -0.8508266   0.3294035   0.0725508 SPIN=   0.00000
   O  -0.3251220   0.1700168   0.0673307 SPIN=   0.00000
   O  -0.3585248   0.3624444  -0.0442992 SPIN=   0.00000
   S  -0.4648787   0.3313584   0.0655552 SPIN=   0.00000
   O  -0.3250413  -0.4635688  -0.1666384 SPIN=   0.00000
   O  -0.8508266  -0.3294035  -0.0725508 SPIN=   0.00000
   O  -0.3251220  -0.1700168  -0.0673307 SPIN=   0.00000
   O  -0.3585248  -0.3624444   0.0442992 SPIN=   0.00000
   S  -0.4648787  -0.3313584  -0.0655552 SPIN=   0.00000
   O  -0.7861277   0.4817828  -0.2946571 SPIN=   0.00000
   O  -0.2605208   0.5735472  -0.3674971 SPIN=   0.00000
   O  -0.6076033   0.3544987  -0.4951245 SPIN=   0.00000
   O  -0.2769803   0.3055067  -0.3375376 SPIN=   0.00000
   S  -0.4828080   0.4288338  -0.3737041 SPIN=   0.00000
   O  -0.7861277  -0.4817828   0.2946571 SPIN=   0.00000
   O  -0.2605208  -0.5735472   0.3674971 SPIN=   0.00000
   O  -0.6076033  -0.3544987   0.4951245 SPIN=   0.00000
   O  -0.2769803  -0.3055067   0.3375376 SPIN=   0.00000
   S  -0.4828080  -0.4288338   0.3737041 SPIN=   0.00000
   F   0.1333449   0.2791187  -0.1836021 SPIN=   0.00000
   F   0.1333449  -0.2791187   0.1836021 SPIN=   0.00000
   F  -0.3740646   0.1275785   0.3356430 SPIN=   0.00000
   F  -0.3740646  -0.1275785  -0.3356430 SPIN=   0.00000
%ENDBLOCK POSITIONS_FRAC

# Note: total spin =  16.00

KPOINTS_MP_SPACING 0.07

%BLOCK SPECIES_POT
QC5
%ENDBLOCK SPECIES_POT

SNAP_TO_SYMMETRY
SYMMETRY_GENERATE

