#              Generated by Buildcell
#
# at 16:21:33 (GMT+1.0) 18th August 2020
# in /lustre/scratch/uccabz1/launch_tmp
# on node-c12o-016
# by uccabz1
#
# compiler GCC version 4.9.2
# options -cpp -iprefix /lustre/shared/ucl/apps/gcc/4.9.2/bin/../lib/gcc/x86_64-unknown-linux-gnu/4.9.2/ -mtune=corei7 -march=x86-64 -g -Og
#
# seed  -949545932  1870971002 -1230643709 -1729329618   873351311  -311988576   747910239  1000628702  1884282430   564518568  1603431779  1687966214
#
#      Author: C. J. Pickard (cjp20@cam.ac.uk)
#                Space group: P41
#

%BLOCK LATTICE_ABC
      4.64489      4.64489     18.53999
     90.00000     90.00000     90.00000
%ENDBLOCK LATTICE_ABC

%BLOCK POSITIONS_FRAC
  Li   0.1146292  -0.4941955   0.1256075 SPIN=   0.00000
  Li  -0.1146292   0.4941955  -0.3743925 SPIN=   0.00000
  Li  -0.4941955  -0.1146292  -0.1243925 SPIN=   0.00000
  Li   0.4941955   0.1146292   0.3756075 SPIN=   0.00000
  Fe  -0.0899208   0.3804183  -0.1617901 SPIN=   4.00000
  Fe   0.0899208  -0.3804183   0.3382099 SPIN=   4.00000
  Fe   0.3804183   0.0899208  -0.4117901 SPIN=   4.00000
  Fe  -0.3804183  -0.0899208   0.0882099 SPIN=   4.00000
   O  -0.3273588   0.3079070   0.1439072 SPIN=   0.00000
   O  -0.7295662   0.4765933   0.2205834 SPIN=   0.00000
   O  -0.2416813   0.6806821   0.2368385 SPIN=   0.00000
   O  -0.3417102   0.1780024   0.2733175 SPIN=   0.00000
   S  -0.4100791   0.4107962   0.2186616 SPIN=   0.00000
   O   0.3273588  -0.3079070  -0.3560928 SPIN=   0.00000
   O   0.7295662  -0.4765933  -0.2794166 SPIN=   0.00000
   O   0.2416813  -0.6806821  -0.2631615 SPIN=   0.00000
   O   0.3417102  -0.1780024  -0.2266825 SPIN=   0.00000
   S   0.4100791  -0.4107962  -0.2813384 SPIN=   0.00000
   O   0.3079070   0.3273588  -0.1060928 SPIN=   0.00000
   O   0.4765933   0.7295662  -0.0294166 SPIN=   0.00000
   O   0.6806821   0.2416813  -0.0131615 SPIN=   0.00000
   O   0.1780024   0.3417102   0.0233175 SPIN=   0.00000
   S   0.4107962   0.4100791  -0.0313384 SPIN=   0.00000
   O  -0.3079070  -0.3273588   0.3939072 SPIN=   0.00000
   O  -0.4765933  -0.7295662   0.4705834 SPIN=   0.00000
   O  -0.6806821  -0.2416813   0.4868385 SPIN=   0.00000
   O  -0.1780024  -0.3417102   0.5233175 SPIN=   0.00000
   S  -0.4107962  -0.4100791   0.4686616 SPIN=   0.00000
   F   0.1298816  -0.0520244   0.1307899 SPIN=   0.00000
   F  -0.1298816   0.0520244  -0.3692101 SPIN=   0.00000
   F  -0.0520244  -0.1298816  -0.1192101 SPIN=   0.00000
   F   0.0520244   0.1298816   0.3807899 SPIN=   0.00000
%ENDBLOCK POSITIONS_FRAC

# Note: total spin =  16.00

KPOINTS_MP_SPACING 0.07

%BLOCK SPECIES_POT
QC5
%ENDBLOCK SPECIES_POT

SNAP_TO_SYMMETRY
SYMMETRY_GENERATE

