#              Generated by Buildcell
#
# at 06:44:02 (GMT+1.0) 4th August 2020
# in /lustre/scratch/uccabz1/launch_tmp
# on node-c12f-008
# by uccabz1
#
# compiler GCC version 4.9.2
# options -cpp -iprefix /lustre/shared/ucl/apps/gcc/4.9.2/bin/../lib/gcc/x86_64-unknown-linux-gnu/4.9.2/ -mtune=corei7 -march=x86-64 -g -Og
#
# seed    40992253  -195546229  1428602408   781490986 -1041130144 -1145857072  -602880296 -1413682104 -1141362068 -1070039992   162601486   977054562
#
#      Author: C. J. Pickard (cjp20@cam.ac.uk)
#                Space group: P21
#

%BLOCK LATTICE_ABC
      5.84406      7.97372      8.83180
    103.60742     90.00000     90.00000
%ENDBLOCK LATTICE_ABC

%BLOCK POSITIONS_FRAC
  Li  -0.3521966   0.2548872   0.3426608 SPIN=   0.00000
  Li   0.1478034  -0.2548872  -0.3426608 SPIN=   0.00000
  Li   0.2312814   0.3076832   0.0126948 SPIN=   0.00000
  Li  -0.2687186  -0.3076832  -0.0126948 SPIN=   0.00000
  Fe  -0.1830330  -0.0958232   0.2974925 SPIN=   5.64442
  Fe   0.3169670   0.0958232  -0.2974925 SPIN=   5.64442
  Fe   0.2745149  -0.3928333   0.3340750 SPIN=   2.35558
  Fe  -0.2254851   0.3928333  -0.3340750 SPIN=   2.35558
   O   0.0776361  -0.3567843  -0.1490568 SPIN=   0.00000
   O   0.1814731  -0.6663738  -0.2163078 SPIN=   0.00000
   O   0.4301258  -0.4550660  -0.0407655 SPIN=   0.00000
   O   0.4088176  -0.4573794  -0.3211176 SPIN=   0.00000
   S   0.2745132  -0.4839009  -0.1818119 SPIN=   0.00000
   O  -0.4223639   0.3567843   0.1490568 SPIN=   0.00000
   O  -0.3185269   0.6663738   0.2163078 SPIN=   0.00000
   O  -0.0698742   0.4550660   0.0407655 SPIN=   0.00000
   O  -0.0911824   0.4573794   0.3211176 SPIN=   0.00000
   S  -0.2254868   0.4839009   0.1818119 SPIN=   0.00000
   O  -0.5070338  -0.2007264  -0.4930247 SPIN=   0.00000
   O  -0.4032125  -0.2003702  -0.2212778 SPIN=   0.00000
   O  -0.1351545  -0.0800169  -0.3852111 SPIN=   0.00000
   O  -0.2022831  -0.3950469  -0.4405759 SPIN=   0.00000
   S  -0.3119210  -0.2190401  -0.3850224 SPIN=   0.00000
   O  -0.0070338   0.2007264   0.4930247 SPIN=   0.00000
   O   0.0967875   0.2003702   0.2212778 SPIN=   0.00000
   O   0.3648455   0.0800169   0.3852111 SPIN=   0.00000
   O   0.2977169   0.3950469   0.4405759 SPIN=   0.00000
   S   0.1880790   0.2190401   0.3850224 SPIN=   0.00000
   F  -0.2753500   0.0272815   0.1250444 SPIN=   0.00000
   F   0.2246500  -0.0272815  -0.1250444 SPIN=   0.00000
   F   0.2498070  -0.2296225   0.2086371 SPIN=   0.00000
   F  -0.2501930   0.2296225  -0.2086371 SPIN=   0.00000
%ENDBLOCK POSITIONS_FRAC

# Note: total spin =  16.00

KPOINTS_MP_SPACING 0.07

%BLOCK SPECIES_POT
QC5
%ENDBLOCK SPECIES_POT

SNAP_TO_SYMMETRY
SYMMETRY_GENERATE

