#              Generated by Buildcell
#
# at 08:16:11 (GMT+1.0) 4th August 2020
# in /lustre/scratch/uccabz1/launch_tmp
# on node-c12c-014
# by uccabz1
#
# compiler GCC version 4.9.2
# options -cpp -iprefix /lustre/shared/ucl/apps/gcc/4.9.2/bin/../lib/gcc/x86_64-unknown-linux-gnu/4.9.2/ -mtune=corei7 -march=x86-64 -g -Og
#
# seed  -922689092   270889202  1036244953   660211678    80595896 -1598695296   287429711   498883118 -1469957017  1180326547   956820074   813559617
#
#      Author: C. J. Pickard (cjp20@cam.ac.uk)
#                Space group: P-1
#

%BLOCK LATTICE_ABC
      6.18880      8.17588      8.73546
     76.73883     81.91008     68.68985
%ENDBLOCK LATTICE_ABC

%BLOCK POSITIONS_FRAC
  Li   0.2965748  -0.0770513  -0.3614781 SPIN=   0.00000
  Li  -0.2965748   0.0770513   0.3614781 SPIN=   0.00000
  Li  -0.4305578  -0.4521576   0.2031830 SPIN=   0.00000
  Li   0.4305578   0.4521576  -0.2031830 SPIN=   0.00000
  Fe  -0.1543850   0.1226310  -0.2098058 SPIN=   1.34532
  Fe   0.1543850  -0.1226310   0.2098058 SPIN=   1.34532
  Fe  -0.0502215  -0.4277906  -0.3067181 SPIN=   6.65468
  Fe   0.0502215   0.4277906   0.3067181 SPIN=   6.65468
   O  -0.3021311  -0.1690001   0.2409968 SPIN=   0.00000
   O  -0.3559692  -0.4382719   0.4150855 SPIN=   0.00000
   O  -0.6436448  -0.1382692   0.4318811 SPIN=   0.00000
   O  -0.2510984  -0.2269141   0.5267303 SPIN=   0.00000
   S  -0.3882109  -0.2431138   0.4036734 SPIN=   0.00000
   O   0.3021311   0.1690001  -0.2409968 SPIN=   0.00000
   O   0.3559692   0.4382719  -0.4150855 SPIN=   0.00000
   O   0.6436448   0.1382692  -0.4318811 SPIN=   0.00000
   O   0.2510984   0.2269141  -0.5267303 SPIN=   0.00000
   S   0.3882109   0.2431138  -0.4036734 SPIN=   0.00000
   O  -0.6549444  -0.0763612   0.0002403 SPIN=   0.00000
   O  -0.2555809  -0.2971248   0.0161653 SPIN=   0.00000
   O  -0.3924423  -0.1091567  -0.2408204 SPIN=   0.00000
   O  -0.5504780  -0.3486857  -0.1124719 SPIN=   0.00000
   S  -0.4633614  -0.2078321  -0.0842217 SPIN=   0.00000
   O   0.6549444   0.0763612  -0.0002403 SPIN=   0.00000
   O   0.2555809   0.2971248  -0.0161653 SPIN=   0.00000
   O   0.3924423   0.1091567   0.2408204 SPIN=   0.00000
   O   0.5504780   0.3486857   0.1124719 SPIN=   0.00000
   S   0.4633614   0.2078321   0.0842217 SPIN=   0.00000
   F   0.2125119  -0.3888978   0.2487425 SPIN=   0.00000
   F  -0.2125119   0.3888978  -0.2487425 SPIN=   0.00000
   F   0.0817569  -0.2116319  -0.3036724 SPIN=   0.00000
   F  -0.0817569   0.2116319   0.3036724 SPIN=   0.00000
%ENDBLOCK POSITIONS_FRAC

# Note: total spin =  16.00

KPOINTS_MP_SPACING 0.07

%BLOCK SPECIES_POT
QC5
%ENDBLOCK SPECIES_POT

SNAP_TO_SYMMETRY
SYMMETRY_GENERATE

