#              Generated by Buildcell
#
# at 23:48:54 (GMT+1.0) 17th August 2020
# in /scratch/scratch/uccabz1/launch_tmp
# on node-k10c-005
# by uccabz1
#
# compiler GCC version 4.9.2
# options -cpp -iprefix /scratch/UCL/applications/gcc/4.9.2/bin/../lib/gcc/x86_64-unknown-linux-gnu/4.9.2/ -mtune=corei7 -march=x86-64 -g -O2
#
# seed   548077775   111215922 -1617737237   535700373  1349673488  1225586754  1280452335   -76965501   314159765  -515768488   471615835   802507138
#
#      Author: C. J. Pickard (cjp20@cam.ac.uk)
#                Space group: P21
#

%BLOCK LATTICE_ABC
      6.52311      7.28891      8.68704
     90.00000     90.00000    104.43422
%ENDBLOCK LATTICE_ABC

%BLOCK POSITIONS_FRAC
  Li  -0.1734774  -0.3878196  -0.1347457 SPIN=   0.00000
  Li   0.1734774   0.3878196   0.3652543 SPIN=   0.00000
  Li  -0.4059925   0.2476199  -0.4277888 SPIN=   0.00000
  Li   0.4059925  -0.2476199   0.0722112 SPIN=   0.00000
  Fe   0.2036567   0.4664302  -0.2911531 SPIN=   4.93623
  Fe  -0.2036567  -0.4664302   0.2088469 SPIN=   4.93623
  Fe   0.2994752  -0.0070641  -0.1726228 SPIN=   3.06377
  Fe  -0.2994752   0.0070641   0.3273772 SPIN=   3.06377
   O  -0.4138175  -0.4014054  -0.2912015 SPIN=   0.00000
   O  -0.2479848  -0.5094942  -0.5188025 SPIN=   0.00000
   O  -0.1979041  -0.1666163  -0.4700629 SPIN=   0.00000
   O  -0.5478434  -0.3615820  -0.5524338 SPIN=   0.00000
   S  -0.3518874  -0.3597745  -0.4581252 SPIN=   0.00000
   O   0.4138175   0.4014054   0.2087985 SPIN=   0.00000
   O   0.2479848   0.5094942  -0.0188025 SPIN=   0.00000
   O   0.1979041   0.1666163   0.0299371 SPIN=   0.00000
   O   0.5478434   0.3615820  -0.0524338 SPIN=   0.00000
   S   0.3518874   0.3597745   0.0418748 SPIN=   0.00000
   O  -0.3517690   0.0424579  -0.2948562 SPIN=   0.00000
   O  -0.0074491   0.0547559  -0.1702004 SPIN=   0.00000
   O  -0.3008456   0.1231333  -0.0184328 SPIN=   0.00000
   O  -0.1189355   0.3507793  -0.2159891 SPIN=   0.00000
   S  -0.1947498   0.1427816  -0.1748696 SPIN=   0.00000
   O   0.3517690  -0.0424579   0.2051438 SPIN=   0.00000
   O   0.0074491  -0.0547559   0.3297996 SPIN=   0.00000
   O   0.3008456  -0.1231333   0.4815672 SPIN=   0.00000
   O   0.1189355  -0.3507793   0.2840109 SPIN=   0.00000
   S   0.1947498  -0.1427816   0.3251304 SPIN=   0.00000
   F  -0.2522522  -0.2245161   0.0906350 SPIN=   0.00000
   F   0.2522522   0.2245161  -0.4093650 SPIN=   0.00000
   F   0.1140623  -0.2771412  -0.2446487 SPIN=   0.00000
   F  -0.1140623   0.2771412   0.2553513 SPIN=   0.00000
%ENDBLOCK POSITIONS_FRAC

# Note: total spin =  16.00

KPOINTS_MP_SPACING 0.07

%BLOCK SPECIES_POT
QC5
%ENDBLOCK SPECIES_POT

SNAP_TO_SYMMETRY
SYMMETRY_GENERATE

