#              Generated by Buildcell
#
# at 02:25:27 (GMT+1.0) 18th August 2020
# in /lustre/scratch/uccabz1/launch_tmp
# on node-c12a-021
# by uccabz1
#
# compiler GCC version 4.9.2
# options -cpp -iprefix /lustre/shared/ucl/apps/gcc/4.9.2/bin/../lib/gcc/x86_64-unknown-linux-gnu/4.9.2/ -mtune=corei7 -march=x86-64 -g -Og
#
# seed -1312984831 -1786609380   353239438 -1011662683  -328079806  -883121267  1433160683 -1690229812 -1415929172    35717531 -1518802651  -143816812
#
#      Author: C. J. Pickard (cjp20@cam.ac.uk)
#                Space group: P21
#

%BLOCK LATTICE_ABC
      6.57125      7.13586      8.71719
     90.00000    101.88492     90.00000
%ENDBLOCK LATTICE_ABC

%BLOCK POSITIONS_FRAC
  Li   0.2574198  -0.0971770   0.4312837 SPIN=   0.00000
  Li  -0.2574198   0.4028230  -0.4312837 SPIN=   0.00000
  Li   0.1954851   0.4035295   0.3947365 SPIN=   0.00000
  Li  -0.1954851  -0.0964705  -0.3947365 SPIN=   0.00000
  Fe   0.4338752   0.0050968   0.1493625 SPIN=   4.00895
  Fe  -0.4338752  -0.4949032  -0.1493625 SPIN=   4.00895
  Fe   0.0338274   0.2145377  -0.1635152 SPIN=   3.99105
  Fe  -0.0338274  -0.2854623   0.1635152 SPIN=   3.99105
   O  -0.1335584   0.2925396   0.3281239 SPIN=   0.00000
   O  -0.2815443   0.0944978   0.0992251 SPIN=   0.00000
   O   0.0722139   0.0303332   0.2528699 SPIN=   0.00000
   O   0.0064467   0.3134008   0.0859549 SPIN=   0.00000
   S  -0.0841105   0.1826928   0.1915434 SPIN=   0.00000
   O   0.1335584  -0.2074604  -0.3281239 SPIN=   0.00000
   O   0.2815443  -0.4055022  -0.0992251 SPIN=   0.00000
   O  -0.0722139  -0.4696668  -0.2528699 SPIN=   0.00000
   O  -0.0064467  -0.1865992  -0.0859549 SPIN=   0.00000
   S   0.0841105  -0.3173072  -0.1915434 SPIN=   0.00000
   O  -0.4281933  -0.1441833  -0.1271338 SPIN=   0.00000
   O  -0.6298526   0.0170674  -0.3610510 SPIN=   0.00000
   O  -0.2634225   0.1056866  -0.2564476 SPIN=   0.00000
   O  -0.5350114   0.1862339  -0.1085617 SPIN=   0.00000
   S  -0.4641199   0.0412011  -0.2132985 SPIN=   0.00000
   O   0.4281933  -0.6441833   0.1271338 SPIN=   0.00000
   O   0.6298526  -0.4829326   0.3610510 SPIN=   0.00000
   O   0.2634225  -0.3943134   0.2564476 SPIN=   0.00000
   O   0.5350114  -0.3137661   0.1085617 SPIN=   0.00000
   S   0.4641199  -0.4587989   0.2132985 SPIN=   0.00000
   F  -0.4642492  -0.4249386  -0.3647625 SPIN=   0.00000
   F   0.4642492   0.0750614   0.3647625 SPIN=   0.00000
   F  -0.0339726  -0.2701799   0.3818007 SPIN=   0.00000
   F   0.0339726   0.2298201  -0.3818007 SPIN=   0.00000
%ENDBLOCK POSITIONS_FRAC

# Note: total spin =  16.00

KPOINTS_MP_SPACING 0.07

%BLOCK SPECIES_POT
QC5
%ENDBLOCK SPECIES_POT

SNAP_TO_SYMMETRY
SYMMETRY_GENERATE

