#              Generated by Buildcell
#
# at 09:18:23 (GMT+1.0) 4th August 2020
# in /lustre/scratch/uccabz1/launch_tmp
# on node-c12f-017
# by uccabz1
#
# compiler GCC version 4.9.2
# options -cpp -iprefix /lustre/shared/ucl/apps/gcc/4.9.2/bin/../lib/gcc/x86_64-unknown-linux-gnu/4.9.2/ -mtune=corei7 -march=x86-64 -g -Og
#
# seed   426883019    72874610  -806156533    63456427   481047837  -829118778  1197557640  -684906710  -921733573   -90974264  -533246037 -2090606522
#
#      Author: C. J. Pickard (cjp20@cam.ac.uk)
#                Space group: P21
#

%BLOCK LATTICE_ABC
      4.31337      8.63324     10.95439
    101.31166     90.00000     90.00000
%ENDBLOCK LATTICE_ABC

%BLOCK POSITIONS_FRAC
  Li   0.1986577   0.1930971   0.4779777 SPIN=   0.00000
  Li  -0.3013423  -0.1930971  -0.4779777 SPIN=   0.00000
  Li  -0.2547787   0.1217002  -0.0967576 SPIN=   0.00000
  Li   0.2452213  -0.1217002   0.0967576 SPIN=   0.00000
  Fe  -0.3150773  -0.0338894   0.3062336 SPIN=   3.34235
  Fe   0.1849227   0.0338894  -0.3062336 SPIN=   3.34235
  Fe   0.1843997  -0.3787808   0.3155518 SPIN=   4.65765
  Fe  -0.3156003   0.3787808  -0.3155518 SPIN=   4.65765
   O  -0.2512720   0.2357945   0.4726669 SPIN=   0.00000
   O  -0.2237406   0.5117877   0.4416202 SPIN=   0.00000
   O  -0.6824430   0.3474393   0.3683771 SPIN=   0.00000
   O  -0.1784657   0.2903143   0.2609920 SPIN=   0.00000
   S  -0.3339803   0.3463340   0.3859140 SPIN=   0.00000
   O   0.2487280  -0.2357945  -0.4726669 SPIN=   0.00000
   O   0.2762594  -0.5117877  -0.4416202 SPIN=   0.00000
   O  -0.1824430  -0.3474393  -0.3683771 SPIN=   0.00000
   O   0.3215343  -0.2903143  -0.2609920 SPIN=   0.00000
   S   0.1660197  -0.3463340  -0.3859140 SPIN=   0.00000
   O  -0.4703164  -0.2976339  -0.0052201 SPIN=   0.00000
   O   0.0531637  -0.3581366   0.0652322 SPIN=   0.00000
   O  -0.0057448  -0.1947356  -0.0954079 SPIN=   0.00000
   O  -0.1262823  -0.4804244  -0.1463337 SPIN=   0.00000
   S  -0.1372949  -0.3327326  -0.0454324 SPIN=   0.00000
   O   0.0296836   0.2976339   0.0052201 SPIN=   0.00000
   O   0.5531637   0.3581366  -0.0652322 SPIN=   0.00000
   O   0.4942552   0.1947356   0.0954079 SPIN=   0.00000
   O   0.3737177   0.4804244   0.1463337 SPIN=   0.00000
   S   0.3627051   0.3327326   0.0454324 SPIN=   0.00000
   F   0.1660183   0.2914363  -0.2759441 SPIN=   0.00000
   F  -0.3339817  -0.2914363   0.2759441 SPIN=   0.00000
   F  -0.3339872  -0.0450289  -0.2256225 SPIN=   0.00000
   F   0.1660128   0.0450289   0.2256225 SPIN=   0.00000
%ENDBLOCK POSITIONS_FRAC

# Note: total spin =  16.00

KPOINTS_MP_SPACING 0.07

%BLOCK SPECIES_POT
QC5
%ENDBLOCK SPECIES_POT

SNAP_TO_SYMMETRY
SYMMETRY_GENERATE

