#              Generated by Buildcell
#
# at 23:21:34 (GMT+1.0) 17th August 2020
# in /scratch/scratch/uccabz1/launch_tmp
# on node-k10b-035
# by uccabz1
#
# compiler GCC version 4.9.2
# options -cpp -iprefix /scratch/UCL/applications/gcc/4.9.2/bin/../lib/gcc/x86_64-unknown-linux-gnu/4.9.2/ -mtune=corei7 -march=x86-64 -g -O2
#
# seed  1742922870 -1155080448  2041963098   589190089 -1850641808  1834719562  -528022906   547730891  -146974864 -1196095787 -2009884573   416286172
#
#      Author: C. J. Pickard (cjp20@cam.ac.uk)
#                Space group: P-1
#

%BLOCK LATTICE_ABC
      4.24826      8.71800     11.27302
     73.36094     89.36395     89.57583
%ENDBLOCK LATTICE_ABC

%BLOCK POSITIONS_FRAC
  Li  -0.4982529   0.3000562  -0.2045058 SPIN=   0.00000
  Li   0.4982529  -0.3000562   0.2045058 SPIN=   0.00000
  Li   0.0000000  -0.0000000   0.5000000 SPIN=   0.00000
  Li  -0.0000000  -0.0000000  -0.0000000 SPIN=   0.00000
  Fe  -0.0053651  -0.1752276  -0.1973136 SPIN=   3.02134
  Fe   0.0053651   0.1752276   0.1973136 SPIN=   3.02134
  Fe  -0.5000000  -0.5000000   0.0000000 SPIN=   3.80558
  Fe   0.0000000   0.5000000   0.5000000 SPIN=   6.15174
   O   0.3596185   0.2252800  -0.4477894 SPIN=   0.00000
   O   0.3418099   0.0484413  -0.2325569 SPIN=   0.00000
   O   0.8451628   0.0906520  -0.3497900 SPIN=   0.00000
   O   0.4219442  -0.0676965  -0.4069324 SPIN=   0.00000
   S   0.4921339   0.0741692  -0.3592672 SPIN=   0.00000
   O  -0.3596185  -0.2252800   0.4477894 SPIN=   0.00000
   O  -0.3418099  -0.0484413   0.2325569 SPIN=   0.00000
   O  -0.8451628  -0.0906520   0.3497900 SPIN=   0.00000
   O  -0.4219442   0.0676965   0.4069324 SPIN=   0.00000
   S  -0.4921339  -0.0741692   0.3592672 SPIN=   0.00000
   O   0.7576598  -0.2654372  -0.3353761 SPIN=   0.00000
   O   0.3686817  -0.4391136  -0.1953627 SPIN=   0.00000
   O   0.6069881  -0.5239958  -0.3678983 SPIN=   0.00000
   O   0.2260537  -0.2990403  -0.4117568 SPIN=   0.00000
   S   0.4898458  -0.3818967  -0.3275985 SPIN=   0.00000
   O  -0.7576598   0.2654372   0.3353761 SPIN=   0.00000
   O  -0.3686817   0.4391136   0.1953627 SPIN=   0.00000
   O  -0.6069881   0.5239958   0.3678983 SPIN=   0.00000
   O  -0.2260537   0.2990403   0.4117568 SPIN=   0.00000
   S  -0.4898458   0.3818967   0.3275985 SPIN=   0.00000
   F  -0.0183520   0.2805160  -0.2073265 SPIN=   0.00000
   F   0.0183520  -0.2805160   0.2073265 SPIN=   0.00000
   F  -0.5000000  -0.0000000  -0.0000000 SPIN=   0.00000
   F   0.0000000   0.5000000   0.0000000 SPIN=   0.00000
%ENDBLOCK POSITIONS_FRAC

# Note: total spin =  16.00

KPOINTS_MP_SPACING 0.07

%BLOCK SPECIES_POT
QC5
%ENDBLOCK SPECIES_POT

SNAP_TO_SYMMETRY
SYMMETRY_GENERATE

