#              Generated by Buildcell
#
# at 06:23:50 (GMT+1.0) 4th August 2020
# in /lustre/scratch/uccabz1/launch_tmp
# on node-c12e-018
# by uccabz1
#
# compiler GCC version 4.9.2
# options -cpp -iprefix /lustre/shared/ucl/apps/gcc/4.9.2/bin/../lib/gcc/x86_64-unknown-linux-gnu/4.9.2/ -mtune=corei7 -march=x86-64 -g -Og
#
# seed  -735278242  1928227645 -1424833173  1414850163  1164953859 -1825239283 -1443540131  1510217502  1829121959  -585977104  -374619113  1772247332
#
#      Author: C. J. Pickard (cjp20@cam.ac.uk)
#                Space group: P21/c
#

%BLOCK LATTICE_ABC
      7.10131      7.28957      7.92088
    102.69776     90.00000     90.00000
%ENDBLOCK LATTICE_ABC

%BLOCK POSITIONS_FRAC
  Li  -0.1986555  -0.0735058   0.3181827 SPIN=   0.00000
  Li   0.3013445   0.0735058   0.1818173 SPIN=   0.00000
  Li   0.1986555   0.0735058  -0.3181827 SPIN=   0.00000
  Li  -0.3013445  -0.0735058  -0.1818173 SPIN=   0.00000
  Fe  -0.1225454   0.2618235   0.0636698 SPIN=   4.00000
  Fe   0.3774546  -0.2618235   0.4363302 SPIN=   4.00000
  Fe   0.1225454  -0.2618235  -0.0636698 SPIN=   4.00000
  Fe  -0.3774546   0.2618235  -0.4363302 SPIN=   4.00000
   O   0.6358084   0.2394531  -0.1206636 SPIN=   0.00000
   O   0.3700423   0.0346211  -0.0782211 SPIN=   0.00000
   O   0.3089970   0.3302402  -0.1739523 SPIN=   0.00000
   O   0.4169431   0.3414195   0.1252234 SPIN=   0.00000
   S   0.4329477   0.2364335  -0.0619034 SPIN=   0.00000
   O   0.1358084  -0.2394531  -0.3793364 SPIN=   0.00000
   O  -0.1299577  -0.0346211  -0.4217789 SPIN=   0.00000
   O  -0.1910030  -0.3302402  -0.3260477 SPIN=   0.00000
   O  -0.0830569  -0.3414195  -0.6252234 SPIN=   0.00000
   S  -0.0670523  -0.2364335  -0.4380966 SPIN=   0.00000
   O  -0.6358084  -0.2394531   0.1206636 SPIN=   0.00000
   O  -0.3700423  -0.0346211   0.0782211 SPIN=   0.00000
   O  -0.3089970  -0.3302402   0.1739523 SPIN=   0.00000
   O  -0.4169431  -0.3414195  -0.1252234 SPIN=   0.00000
   S  -0.4329477  -0.2364335   0.0619034 SPIN=   0.00000
   O  -0.1358084   0.2394531   0.3793364 SPIN=   0.00000
   O   0.1299577   0.0346211   0.4217789 SPIN=   0.00000
   O   0.1910030   0.3302402   0.3260477 SPIN=   0.00000
   O   0.0830569   0.3414195   0.6252234 SPIN=   0.00000
   S   0.0670523   0.2364335   0.4380966 SPIN=   0.00000
   F   0.0000000  -0.0000000   0.0000000 SPIN=   0.00000
   F   0.5000000   0.0000000  -0.5000000 SPIN=   0.00000
   F   0.0000000  -0.5000000   0.0000000 SPIN=   0.00000
   F  -0.5000000   0.5000000   0.5000000 SPIN=   0.00000
%ENDBLOCK POSITIONS_FRAC

# Note: total spin =  16.00

KPOINTS_MP_SPACING 0.07

%BLOCK SPECIES_POT
QC5
%ENDBLOCK SPECIES_POT

SNAP_TO_SYMMETRY
SYMMETRY_GENERATE

