#              Generated by Buildcell
#
# at 03:05:21 (GMT+1.0) 18th August 2020
# in /scratch/scratch/uccabz1/launch_tmp
# on node-k10b-033
# by uccabz1
#
# compiler GCC version 4.9.2
# options -cpp -iprefix /scratch/UCL/applications/gcc/4.9.2/bin/../lib/gcc/x86_64-unknown-linux-gnu/4.9.2/ -mtune=corei7 -march=x86-64 -g -O2
#
# seed -1143827862  2039377992  -557451594 -1786267044  -683692539  -371996916  1023753337 -1329971631   566264437    72088857  1663814407  1929514589
#
#      Author: C. J. Pickard (cjp20@cam.ac.uk)
#                Space group: P2/c
#

%BLOCK LATTICE_ABC
      7.26443      7.29676      8.65837
     90.00000     90.00000    119.36075
%ENDBLOCK LATTICE_ABC

%BLOCK POSITIONS_FRAC
  Li  -0.2264731  -0.4920045   0.4105964 SPIN=   0.00000
  Li  -0.2735269  -0.0079955   0.4105964 SPIN=   0.00000
  Li   0.2264731   0.4920045  -0.4105964 SPIN=   0.00000
  Li   0.2735269   0.0079955  -0.4105964 SPIN=   0.00000
  Fe   0.2500000  -0.2500000  -0.0081698 SPIN=   4.00350
  Fe  -0.2500000   0.2500000   0.0081698 SPIN=   4.00350
  Fe  -0.2500000  -0.2500000   0.1292332 SPIN=   3.99650
  Fe   0.2500000   0.2500000  -0.1292332 SPIN=   3.99650
   O   0.1288027   0.3614588   0.1190853 SPIN=   0.00000
   O   0.0353504   0.5847200   0.2793576 SPIN=   0.00000
   O   0.3195521   0.5131505   0.3636451 SPIN=   0.00000
   S   0.1076657   0.4220673   0.2828738 SPIN=   0.00000
   O   0.3711973   0.1385412   0.1190853 SPIN=   0.00000
   O   0.4646496  -0.0847200   0.2793576 SPIN=   0.00000
   O   0.1804479  -0.0131505   0.3636451 SPIN=   0.00000
   S   0.3923343   0.0779327   0.2828738 SPIN=   0.00000
   O  -0.1288027  -0.3614588  -0.1190853 SPIN=   0.00000
   O  -0.0353504  -0.5847200  -0.2793576 SPIN=   0.00000
   O  -0.3195521  -0.5131505  -0.3636451 SPIN=   0.00000
   S  -0.1076657  -0.4220673  -0.2828738 SPIN=   0.00000
   O  -0.3711973  -0.1385412  -0.1190853 SPIN=   0.00000
   O  -0.4646496   0.0847200  -0.2793576 SPIN=   0.00000
   O  -0.1804479   0.0131505  -0.3636451 SPIN=   0.00000
   S  -0.3923343  -0.0779327  -0.2828738 SPIN=   0.00000
   O   0.2500000  -0.2500000   0.4815095 SPIN=   0.00000
   O  -0.2500000   0.2500000  -0.4815095 SPIN=   0.00000
   O   0.2500000  -0.2500000  -0.2570338 SPIN=   0.00000
   O  -0.2500000   0.2500000   0.2570338 SPIN=   0.00000
   F  -0.0000000  -0.0000000   0.0000000 SPIN=   0.00000
   F   0.5000000   0.5000000   0.0000000 SPIN=   0.00000
   F   0.2500000   0.2500000  -0.3786431 SPIN=   0.00000
   F  -0.2500000  -0.2500000   0.3786431 SPIN=   0.00000
%ENDBLOCK POSITIONS_FRAC

# Note: total spin =  16.00

KPOINTS_MP_SPACING 0.07

%BLOCK SPECIES_POT
QC5
%ENDBLOCK SPECIES_POT

SNAP_TO_SYMMETRY
SYMMETRY_GENERATE

