#              Generated by Buildcell
#
# at 08:03:06 (GMT+1.0) 18th August 2020
# in /lustre/scratch/uccabz1/launch_tmp
# on node-c12f-008
# by uccabz1
#
# compiler GCC version 4.9.2
# options -cpp -iprefix /lustre/shared/ucl/apps/gcc/4.9.2/bin/../lib/gcc/x86_64-unknown-linux-gnu/4.9.2/ -mtune=corei7 -march=x86-64 -g -Og
#
# seed -1046371891   155939022  -535283383  1011649079  1835034748  1651450798 -1696254329   -30724818   902593620  1062913308 -1053747511  -776225427
#
#      Author: C. J. Pickard (cjp20@cam.ac.uk)
#                Space group: Pcc2
#

%BLOCK LATTICE_ABC
      6.52593      6.99529      8.76217
     90.00000     90.00000     90.00000
%ENDBLOCK LATTICE_ABC

%BLOCK POSITIONS_FRAC
  Li   0.0000000   0.5000000  -0.2927350 SPIN=   0.00000
  Li   0.0000000   0.5000000   0.2072650 SPIN=   0.00000
  Li  -0.0000000   0.0000000  -0.0782919 SPIN=   0.00000
  Li   0.0000000  -0.0000000   0.4217081 SPIN=   0.00000
  Fe   0.3015784   0.1903319   0.1115517 SPIN=   4.00000
  Fe  -0.3015784  -0.1903319   0.1115517 SPIN=   4.00000
  Fe   0.3015784  -0.1903319  -0.3884483 SPIN=   4.00000
  Fe  -0.3015784   0.1903319  -0.3884483 SPIN=   4.00000
   O  -0.2373661  -0.3919684   0.3042507 SPIN=   0.00000
   O  -0.3960402  -0.1805257   0.4974256 SPIN=   0.00000
   O  -0.0361187  -0.2852239   0.5279687 SPIN=   0.00000
   O  -0.3186485  -0.5175076   0.5612880 SPIN=   0.00000
   S  -0.2470434  -0.3438064   0.4727333 SPIN=   0.00000
   O   0.2373661   0.3919684   0.3042507 SPIN=   0.00000
   O   0.3960402   0.1805257   0.4974256 SPIN=   0.00000
   O   0.0361187   0.2852239   0.5279687 SPIN=   0.00000
   O   0.3186485   0.5175076   0.5612880 SPIN=   0.00000
   S   0.2470434   0.3438064   0.4727333 SPIN=   0.00000
   O  -0.2373661   0.3919684  -0.1957493 SPIN=   0.00000
   O  -0.3960402   0.1805257  -0.0025744 SPIN=   0.00000
   O  -0.0361187   0.2852239   0.0279687 SPIN=   0.00000
   O  -0.3186485   0.5175076   0.0612880 SPIN=   0.00000
   S  -0.2470434   0.3438064  -0.0272667 SPIN=   0.00000
   O   0.2373661  -0.3919684  -0.1957493 SPIN=   0.00000
   O   0.3960402  -0.1805257  -0.0025744 SPIN=   0.00000
   O   0.0361187  -0.2852239   0.0279687 SPIN=   0.00000
   O   0.3186485  -0.5175076   0.0612880 SPIN=   0.00000
   S   0.2470434  -0.3438064  -0.0272667 SPIN=   0.00000
   F  -0.2573542   0.1558319   0.3585883 SPIN=   0.00000
   F   0.2573542  -0.1558319   0.3585883 SPIN=   0.00000
   F  -0.2573542  -0.1558319  -0.1414117 SPIN=   0.00000
   F   0.2573542   0.1558319  -0.1414117 SPIN=   0.00000
%ENDBLOCK POSITIONS_FRAC

# Note: total spin =  16.00

KPOINTS_MP_SPACING 0.07

%BLOCK SPECIES_POT
QC5
%ENDBLOCK SPECIES_POT

SNAP_TO_SYMMETRY
SYMMETRY_GENERATE

