#              Generated by Buildcell
#
# at 00:07:56 (GMT+1.0) 18th August 2020
# in /scratch/scratch/uccabz1/launch_tmp
# on node-k10b-023
# by uccabz1
#
# compiler GCC version 4.9.2
# options -cpp -iprefix /scratch/UCL/applications/gcc/4.9.2/bin/../lib/gcc/x86_64-unknown-linux-gnu/4.9.2/ -mtune=corei7 -march=x86-64 -g -O2
#
# seed  2126126284  -725301989   441645605   471684879  1485661048 -1852143150   909733130  1888568094 -1781560570 -1106989578  1720737672 -1480979504
#
#      Author: C. J. Pickard (cjp20@cam.ac.uk)
#                Space group: Cc
#

%BLOCK LATTICE_ABC
      6.76965      6.76965      9.38541
    103.85197    103.85197     95.56061
%ENDBLOCK LATTICE_ABC

%BLOCK POSITIONS_FRAC
  Li   0.4982757  -0.0356576  -0.1863528 SPIN=   0.00000
  Li   0.4643424  -0.0017243   0.3136472 SPIN=   0.00000
  Li  -0.1229183  -0.3037394  -0.4574756 SPIN=   0.00000
  Li   0.1962606   0.3770817   0.0425244 SPIN=   0.00000
  Fe  -0.1368193  -0.4781561  -0.1675838 SPIN=   4.37362
  Fe   0.0218439   0.3631807   0.3324162 SPIN=   4.37362
  Fe   0.3020680   0.3076930  -0.2892239 SPIN=   3.62638
  Fe  -0.1923070  -0.1979320   0.2107761 SPIN=   3.62638
   O  -0.0419535  -0.1975952  -0.2299658 SPIN=   0.00000
   O  -0.1794058   0.0618758  -0.0621777 SPIN=   0.00000
   O  -0.2448771   0.0442632  -0.3362657 SPIN=   0.00000
   O   0.1063404   0.1721462  -0.1628515 SPIN=   0.00000
   S  -0.0899740   0.0201725  -0.1978152 SPIN=   0.00000
   O  -0.6975952   0.4580465   0.2700342 SPIN=   0.00000
   O  -0.4381242   0.3205942   0.4378223 SPIN=   0.00000
   O  -0.4557368   0.2551229   0.1637343 SPIN=   0.00000
   O  -0.3278538   0.6063404   0.3371485 SPIN=   0.00000
   S  -0.4798275   0.4100260   0.3021848 SPIN=   0.00000
   O   0.5540202  -0.1938801  -0.0204886 SPIN=   0.00000
   O   0.3553712  -0.2864513   0.1504195 SPIN=   0.00000
   O   0.2243726  -0.4371245  -0.1287672 SPIN=   0.00000
   O   0.2241173  -0.0672346  -0.0157716 SPIN=   0.00000
   S   0.3394703  -0.2461726  -0.0036520 SPIN=   0.00000
   O   0.3061199   0.0540202   0.4795114 SPIN=   0.00000
   O   0.2135487  -0.1446288   0.6504195 SPIN=   0.00000
   O   0.0628755  -0.2756274   0.3712328 SPIN=   0.00000
   O   0.4327654  -0.2758827   0.4842284 SPIN=   0.00000
   S   0.2538274  -0.1605297   0.4963480 SPIN=   0.00000
   F  -0.4394494  -0.4475070  -0.2999501 SPIN=   0.00000
   F   0.0524930   0.0605506   0.2000499 SPIN=   0.00000
   F  -0.0006337   0.3475415  -0.4242819 SPIN=   0.00000
   F  -0.1524585   0.4993663   0.0757181 SPIN=   0.00000
%ENDBLOCK POSITIONS_FRAC

# Note: total spin =  16.00

KPOINTS_MP_SPACING 0.07

%BLOCK SPECIES_POT
QC5
%ENDBLOCK SPECIES_POT

SNAP_TO_SYMMETRY
SYMMETRY_GENERATE

