#              Generated by Buildcell
#
# at 02:27:45 (GMT+1.0) 18th August 2020
# in /scratch/scratch/uccabz1/launch_tmp
# on node-k10e-023
# by uccabz1
#
# compiler GCC version 4.9.2
# options -cpp -iprefix /scratch/UCL/applications/gcc/4.9.2/bin/../lib/gcc/x86_64-unknown-linux-gnu/4.9.2/ -mtune=corei7 -march=x86-64 -g -O2
#
# seed  -643962451   210275094  -463945268   774378676 -1830792906   827745489  1824575678 -1703505222   805687708  1996475135  1099312644    72506806
#
#      Author: C. J. Pickard (cjp20@cam.ac.uk)
#                Space group: Cm
#

%BLOCK LATTICE_ABC
      5.95677      5.95677     11.97845
    103.41949    103.41949     92.49941
%ENDBLOCK LATTICE_ABC

%BLOCK POSITIONS_FRAC
  Li   0.1718438  -0.3995805   0.3762205 SPIN=   0.00000
  Li  -0.3995805   0.1718438   0.3762205 SPIN=   0.00000
  Li   0.0884959  -0.3434696   0.0287266 SPIN=   0.00000
  Li  -0.3434696   0.0884959   0.0287266 SPIN=   0.00000
  Fe  -0.0511523   0.3810124  -0.2198051 SPIN=   3.25122
  Fe   0.3810124  -0.0511523  -0.2198051 SPIN=   3.25122
  Fe   0.0821356   0.0821356   0.3722489 SPIN=   6.81146
  Fe  -0.4442040  -0.4442040  -0.0259305 SPIN=   2.68609
   O  -0.2765375  -0.5306210  -0.4978923 SPIN=   0.00000
   O   0.0419946  -0.7049647  -0.3855501 SPIN=   0.00000
   O  -0.0657711  -0.3215345  -0.2939068 SPIN=   0.00000
   O   0.1299707  -0.3620262  -0.4575309 SPIN=   0.00000
   O  -0.5306210  -0.2765375  -0.4978923 SPIN=   0.00000
   O  -0.7049647   0.0419946  -0.3855501 SPIN=   0.00000
   O  -0.3215345  -0.0657711  -0.2939068 SPIN=   0.00000
   O  -0.3620262   0.1299707  -0.4575309 SPIN=   0.00000
   O   0.3983129  -0.1277396   0.3459116 SPIN=   0.00000
   O   0.2998744  -0.4442166   0.1620562 SPIN=   0.00000
   O   0.2165560  -0.0440264   0.1540829 SPIN=   0.00000
   O  -0.0126695  -0.2695627   0.2464582 SPIN=   0.00000
   O  -0.1277396   0.3983129   0.3459116 SPIN=   0.00000
   O  -0.4442166   0.2998744   0.1620562 SPIN=   0.00000
   O  -0.0440264   0.2165560   0.1540829 SPIN=   0.00000
   O  -0.2695627  -0.0126695   0.2464582 SPIN=   0.00000
   S   0.2071227   0.2071227   0.0405025 SPIN=   0.00000
   S  -0.3327168  -0.3327168   0.2865737 SPIN=   0.00000
   S   0.3631300   0.3631300  -0.3623368 SPIN=   0.00000
   S  -0.1623284  -0.1623284  -0.3665389 SPIN=   0.00000
   F  -0.3646231   0.2194693  -0.1085428 SPIN=   0.00000
   F   0.2194693  -0.3646231  -0.1085428 SPIN=   0.00000
   F  -0.2022209  -0.2022209   0.0453503 SPIN=   0.00000
   F   0.2899219   0.2899219   0.3408000 SPIN=   0.00000
%ENDBLOCK POSITIONS_FRAC

# Note: total spin =  16.00

KPOINTS_MP_SPACING 0.07

%BLOCK SPECIES_POT
QC5
%ENDBLOCK SPECIES_POT

SNAP_TO_SYMMETRY
SYMMETRY_GENERATE

