#              Generated by Buildcell
#
# at 17:09:27 (GMT+1.0) 18th August 2020
# in /lustre/scratch/uccabz1/launch_tmp
# on node-c12h-012
# by uccabz1
#
# compiler GCC version 4.9.2
# options -cpp -iprefix /lustre/shared/ucl/apps/gcc/4.9.2/bin/../lib/gcc/x86_64-unknown-linux-gnu/4.9.2/ -mtune=corei7 -march=x86-64 -g -Og
#
# seed  2029871535 -1803222085   445752381 -1364670610  1292171389   497934422 -1698954940  -559831480  1596079231  1492824175 -2010781690 -1963799293
#
#      Author: C. J. Pickard (cjp20@cam.ac.uk)
#                Space group: C2
#

%BLOCK LATTICE_ABC
      7.64438      7.64438      7.82743
     69.58972     69.58972     87.76072
%ENDBLOCK LATTICE_ABC

%BLOCK POSITIONS_FRAC
  Li   0.3544729   0.0976266   0.0211282 SPIN=   0.00000
  Li  -0.0976266  -0.3544729  -0.0211282 SPIN=   0.00000
  Li  -0.3721374  -0.2569684   0.4882466 SPIN=   0.00000
  Li   0.2569684   0.3721374  -0.4882466 SPIN=   0.00000
  Fe  -0.2367747   0.0270460  -0.2042899 SPIN=   6.21321
  Fe  -0.0270460   0.2367747   0.2042899 SPIN=   6.21321
  Fe   0.3006095  -0.0456720  -0.2835209 SPIN=   1.78679
  Fe   0.0456720  -0.3006095   0.2835209 SPIN=   1.78679
   O  -0.0132100   0.3481072  -0.3906959 SPIN=   0.00000
   O  -0.3274704   0.4160043  -0.2067436 SPIN=   0.00000
   O  -0.0551273   0.6511801  -0.3398396 SPIN=   0.00000
   O  -0.0807372   0.3585981  -0.0615193 SPIN=   0.00000
   S  -0.1191362   0.4434724  -0.2496996 SPIN=   0.00000
   O  -0.3481072   0.0132100   0.3906959 SPIN=   0.00000
   O  -0.4160043   0.3274704   0.2067436 SPIN=   0.00000
   O  -0.6511801   0.0551273   0.3398396 SPIN=   0.00000
   O  -0.3585981   0.0807372   0.0615193 SPIN=   0.00000
   S  -0.4434724   0.1191362   0.2496996 SPIN=   0.00000
   O   0.3877797  -0.5660197  -0.3392957 SPIN=   0.00000
   O   0.4923366  -0.3305355  -0.2354936 SPIN=   0.00000
   O   0.3387277  -0.6397959   0.0090728 SPIN=   0.00000
   O   0.1536055  -0.4087350  -0.1472682 SPIN=   0.00000
   S   0.3431124  -0.4862715  -0.1782462 SPIN=   0.00000
   O   0.5660197  -0.3877797   0.3392957 SPIN=   0.00000
   O   0.3305355  -0.4923366   0.2354936 SPIN=   0.00000
   O   0.6397959  -0.3387277  -0.0090728 SPIN=   0.00000
   O   0.4087350  -0.1536055   0.1472682 SPIN=   0.00000
   S   0.4862715  -0.3431124   0.1782462 SPIN=   0.00000
   F  -0.0833642   0.4805009   0.2580803 SPIN=   0.00000
   F  -0.4805009   0.0833642  -0.2580803 SPIN=   0.00000
   F   0.0758687  -0.0188424   0.2306744 SPIN=   0.00000
   F   0.0188424  -0.0758687  -0.2306744 SPIN=   0.00000
%ENDBLOCK POSITIONS_FRAC

# Note: total spin =  16.00

KPOINTS_MP_SPACING 0.07

%BLOCK SPECIES_POT
QC5
%ENDBLOCK SPECIES_POT

SNAP_TO_SYMMETRY
SYMMETRY_GENERATE

