#              Generated by Buildcell
#
# at 10:52:46 (GMT+1.0) 4th August 2020
# in /lustre/scratch/uccabz1/launch_tmp
# on node-c12c-004
# by uccabz1
#
# compiler GCC version 4.9.2
# options -cpp -iprefix /lustre/shared/ucl/apps/gcc/4.9.2/bin/../lib/gcc/x86_64-unknown-linux-gnu/4.9.2/ -mtune=corei7 -march=x86-64 -g -Og
#
# seed  -109788488   284578174 -1344787617 -1136663501   -52265553   659095080   813162511    38216441   -62567210 -1796138140  -892896128  -520599608
#
#      Author: C. J. Pickard (cjp20@cam.ac.uk)
#                Space group: P2
#

%BLOCK LATTICE_ABC
      4.08942      9.02691     10.83928
     91.46058     90.00000     90.00000
%ENDBLOCK LATTICE_ABC

%BLOCK POSITIONS_FRAC
  Li   0.2474702  -0.3140352  -0.0754404 SPIN=   0.00000
  Li   0.2474702   0.3140352   0.0754404 SPIN=   0.00000
  Li  -0.4970263   0.0741347   0.3388838 SPIN=   0.00000
  Li  -0.4970263  -0.0741347  -0.3388838 SPIN=   0.00000
  Fe   0.3877843   0.4111513   0.3362214 SPIN=   5.53043
  Fe   0.3877843  -0.4111513  -0.3362214 SPIN=   5.53043
  Fe  -0.1165534  -0.3179056   0.1641098 SPIN=   2.46957
  Fe  -0.1165534   0.3179056  -0.1641098 SPIN=   2.46957
   O  -0.7936303   0.1161037  -0.4600153 SPIN=   0.00000
   O  -0.3041876   0.1203042  -0.3256798 SPIN=   0.00000
   O  -0.5656998   0.3555555  -0.3842429 SPIN=   0.00000
   O  -0.2643062   0.2048055  -0.5405811 SPIN=   0.00000
   S  -0.4819560   0.1991922  -0.4276298 SPIN=   0.00000
   O  -0.7936303  -0.1161037   0.4600153 SPIN=   0.00000
   O  -0.3041876  -0.1203042   0.3256798 SPIN=   0.00000
   O  -0.5656998  -0.3555555   0.3842429 SPIN=   0.00000
   O  -0.2643062  -0.2048055   0.5405811 SPIN=   0.00000
   S  -0.4819560  -0.1991922   0.4276298 SPIN=   0.00000
   O  -0.1536237  -0.1681960  -0.2522510 SPIN=   0.00000
   O   0.2150656  -0.1040154  -0.0778892 SPIN=   0.00000
   O  -0.2738528   0.0495983  -0.1164869 SPIN=   0.00000
   O   0.1958238   0.0551932  -0.2602816 SPIN=   0.00000
   S  -0.0041468  -0.0418550  -0.1767272 SPIN=   0.00000
   O  -0.1536237   0.1681960   0.2522510 SPIN=   0.00000
   O   0.2150656   0.1040154   0.0778892 SPIN=   0.00000
   O  -0.2738528  -0.0495983   0.1164869 SPIN=   0.00000
   O   0.1958238  -0.0551932   0.2602816 SPIN=   0.00000
   S  -0.0041468   0.0418550   0.1767272 SPIN=   0.00000
   F  -0.1121805  -0.4428742  -0.3145485 SPIN=   0.00000
   F  -0.1121805   0.4428742   0.3145485 SPIN=   0.00000
   F   0.4044414   0.3193963  -0.0964666 SPIN=   0.00000
   F   0.4044414  -0.3193963   0.0964666 SPIN=   0.00000
%ENDBLOCK POSITIONS_FRAC

# Note: total spin =  16.00

KPOINTS_MP_SPACING 0.07

%BLOCK SPECIES_POT
QC5
%ENDBLOCK SPECIES_POT

SNAP_TO_SYMMETRY
SYMMETRY_GENERATE

