#              Generated by Buildcell
#
# at 06:42:12 (GMT+1.0) 4th August 2020
# in /lustre/scratch/uccabz1/launch_tmp
# on node-c12p-013
# by uccabz1
#
# compiler GCC version 4.9.2
# options -cpp -iprefix /lustre/shared/ucl/apps/gcc/4.9.2/bin/../lib/gcc/x86_64-unknown-linux-gnu/4.9.2/ -mtune=corei7 -march=x86-64 -g -Og
#
# seed   275237053  -712444813 -1798172640   -90841391  -424102596  1347863261   253816530  -732785892  2035669352 -1657358935 -1209576520  -521160726
#
#      Author: C. J. Pickard (cjp20@cam.ac.uk)
#                Space group: P-1
#

%BLOCK LATTICE_ABC
      5.76716      7.64885      9.14575
     90.99162     94.02323     96.15364
%ENDBLOCK LATTICE_ABC

%BLOCK POSITIONS_FRAC
  Li   0.3440212  -0.3596991  -0.1365656 SPIN=   0.00000
  Li  -0.3440212   0.3596991   0.1365656 SPIN=   0.00000
  Li   0.3153581  -0.0697152   0.2819791 SPIN=   0.00000
  Li  -0.3153581   0.0697152  -0.2819791 SPIN=   0.00000
  Fe   0.1652261  -0.4745430   0.1832413 SPIN=   3.30231
  Fe  -0.1652261   0.4745430  -0.1832413 SPIN=   3.30231
  Fe   0.2642443   0.1410228  -0.0522642 SPIN=   4.69769
  Fe  -0.2642443  -0.1410228   0.0522642 SPIN=   4.69769
   O  -0.3071124  -0.3408847   0.1982095 SPIN=   0.00000
   O  -0.3899295  -0.2254458   0.4413718 SPIN=   0.00000
   O  -0.0524617  -0.3958765   0.4180885 SPIN=   0.00000
   O  -0.4556682  -0.5453998   0.3854552 SPIN=   0.00000
   S  -0.3012930  -0.3769017   0.3607812 SPIN=   0.00000
   O   0.3071124   0.3408847  -0.1982095 SPIN=   0.00000
   O   0.3899295   0.2254458  -0.4413718 SPIN=   0.00000
   O   0.0524617   0.3958765  -0.4180885 SPIN=   0.00000
   O   0.4556682   0.5453998  -0.3854552 SPIN=   0.00000
   S   0.3012930   0.3769017  -0.3607812 SPIN=   0.00000
   O   0.3595422  -0.0367213  -0.2539142 SPIN=   0.00000
   O  -0.0398276  -0.0200801  -0.3670692 SPIN=   0.00000
   O   0.0743317  -0.3033577  -0.2752285 SPIN=   0.00000
   O   0.2409813  -0.1771890  -0.4973536 SPIN=   0.00000
   S   0.1587569  -0.1343370  -0.3483914 SPIN=   0.00000
   O  -0.3595422   0.0367213   0.2539142 SPIN=   0.00000
   O   0.0398276   0.0200801   0.3670692 SPIN=   0.00000
   O  -0.0743317   0.3033577   0.2752285 SPIN=   0.00000
   O  -0.2409813   0.1771890   0.4973536 SPIN=   0.00000
   S  -0.1587569   0.1343370   0.3483914 SPIN=   0.00000
   F  -0.3319386  -0.2516652  -0.1318553 SPIN=   0.00000
   F   0.3319386   0.2516652   0.1318553 SPIN=   0.00000
   F  -0.1982116   0.2406984  -0.1251231 SPIN=   0.00000
   F   0.1982116  -0.2406984   0.1251231 SPIN=   0.00000
%ENDBLOCK POSITIONS_FRAC

# Note: total spin =  16.00

KPOINTS_MP_SPACING 0.07

%BLOCK SPECIES_POT
QC5
%ENDBLOCK SPECIES_POT

SNAP_TO_SYMMETRY
SYMMETRY_GENERATE

