#              Generated by Buildcell
#
# at 03:49:21 (GMT+1.0) 18th August 2020
# in /scratch/scratch/uccabz1/launch_tmp
# on node-k10f-029
# by uccabz1
#
# compiler GCC version 4.9.2
# options -cpp -iprefix /scratch/UCL/applications/gcc/4.9.2/bin/../lib/gcc/x86_64-unknown-linux-gnu/4.9.2/ -mtune=corei7 -march=x86-64 -g -O2
#
# seed  1830573513  -270103175   717380407   460185993 -1231483023   427439166  2089030589 -1111575612  2003496115  -645710211 -1403245477   343174506
#
#      Author: C. J. Pickard (cjp20@cam.ac.uk)
#                Space group: Cc
#

%BLOCK LATTICE_ABC
      6.52328      7.70275      8.81873
    102.70192    111.70660     90.00000
%ENDBLOCK LATTICE_ABC

%BLOCK POSITIONS_FRAC
  Li   0.3567630   0.4190051  -0.1216334 SPIN=   0.00000
  Li  -0.4783964  -0.0809949  -0.1216334 SPIN=   0.00000
  Li   0.0741327  -0.3918773   0.2617056 SPIN=   0.00000
  Li   0.1875730   0.1081227   0.2617056 SPIN=   0.00000
  Fe  -0.2334436  -0.1735559  -0.4830983 SPIN=   4.31954
  Fe  -0.2496547   0.3264441  -0.4830983 SPIN=   4.31954
  Fe  -0.1390382   0.2002482  -0.0900367 SPIN=   3.68046
  Fe   0.0490015  -0.2997518  -0.0900367 SPIN=   3.68046
   O   0.3125704   0.1136367  -0.2355336 SPIN=   0.00000
   O   0.4775514   0.0918538  -0.4498843 SPIN=   0.00000
   O   0.2633514   0.3471446  -0.3960334 SPIN=   0.00000
   O   0.0709770   0.0445907  -0.5373345 SPIN=   0.00000
   S   0.2811126   0.1493064  -0.4046965 SPIN=   0.00000
   O   0.4518961  -0.3863633  -0.2355336 SPIN=   0.00000
   O   0.0725644  -0.4081462  -0.4498843 SPIN=   0.00000
   O   0.3406151  -0.1528554  -0.3960334 SPIN=   0.00000
   O   0.3916884  -0.4554093  -0.5373345 SPIN=   0.00000
   S   0.3141910  -0.3506936  -0.4046965 SPIN=   0.00000
   O   0.5648855   0.2727155   0.0099556 SPIN=   0.00000
   O   0.4362551   0.3535745   0.2454467 SPIN=   0.00000
   O   0.5576828   0.0524773   0.1746941 SPIN=   0.00000
   O   0.2063395   0.1359901  -0.0163246 SPIN=   0.00000
   S   0.4412907   0.2036893   0.1034429 SPIN=   0.00000
   O  -0.5549299  -0.2272845   0.0099556 SPIN=   0.00000
   O  -0.1908084  -0.1464255   0.2454467 SPIN=   0.00000
   O  -0.3829887  -0.4475227   0.1746941 SPIN=   0.00000
   O  -0.2226641  -0.3640099  -0.0163246 SPIN=   0.00000
   S  -0.3378478  -0.2963107   0.1034429 SPIN=   0.00000
   F   0.0351237   0.4242984  -0.1653522 SPIN=   0.00000
   F  -0.2004759  -0.0757016  -0.1653522 SPIN=   0.00000
   F   0.2379068  -0.1833620   0.2451431 SPIN=   0.00000
   F   0.0072363   0.3166380   0.2451431 SPIN=   0.00000
%ENDBLOCK POSITIONS_FRAC

# Note: total spin =  16.00

KPOINTS_MP_SPACING 0.07

%BLOCK SPECIES_POT
QC5
%ENDBLOCK SPECIES_POT

SNAP_TO_SYMMETRY
SYMMETRY_GENERATE

