#              Generated by Buildcell
#
# at 07:16:12 (GMT+1.0) 4th August 2020
# in /lustre/scratch/uccabz1/launch_tmp
# on node-c12c-015
# by uccabz1
#
# compiler GCC version 4.9.2
# options -cpp -iprefix /lustre/shared/ucl/apps/gcc/4.9.2/bin/../lib/gcc/x86_64-unknown-linux-gnu/4.9.2/ -mtune=corei7 -march=x86-64 -g -Og
#
# seed   724705362 -1107921157 -1140976683  -260635599  -343100707 -1169295980  1488962902 -1423360404  -289113030  1597370767  -962831232  -229331307
#
#      Author: C. J. Pickard (cjp20@cam.ac.uk)
#                Space group: Pba2
#

%BLOCK LATTICE_ABC
      5.92853      6.26877     10.76294
     90.00000     90.00000     90.00000
%ENDBLOCK LATTICE_ABC

%BLOCK POSITIONS_FRAC
  Li   0.4152265   0.3050903   0.3790723 SPIN=   0.00000
  Li   0.4152265  -0.3050903  -0.3790723 SPIN=   0.00000
  Li   0.4152265  -0.1949097   0.1209277 SPIN=   0.00000
  Li   0.4152265   0.1949097  -0.1209277 SPIN=   0.00000
  Fe  -0.2967102   0.0806977  -0.3392219 SPIN=   4.00000
  Fe  -0.2967102  -0.0806977   0.3392219 SPIN=   4.00000
  Fe  -0.2967102  -0.4193023  -0.1607781 SPIN=   4.00000
  Fe  -0.2967102   0.4193023   0.1607781 SPIN=   4.00000
   O   0.4234371   0.3210340  -0.2921152 SPIN=   0.00000
   O   0.0256065   0.2025774  -0.2824479 SPIN=   0.00000
   O   0.2360880   0.1805544  -0.4806091 SPIN=   0.00000
   O   0.1256852   0.5325227  -0.3960467 SPIN=   0.00000
   S   0.2027042   0.3091721  -0.3628047 SPIN=   0.00000
   O   0.4234371  -0.3210340   0.2921152 SPIN=   0.00000
   O   0.0256065  -0.2025774   0.2824479 SPIN=   0.00000
   O   0.2360880  -0.1805544   0.4806091 SPIN=   0.00000
   O   0.1256852  -0.5325227   0.3960467 SPIN=   0.00000
   S   0.2027042  -0.3091721   0.3628047 SPIN=   0.00000
   O   0.4234371  -0.1789660  -0.2078848 SPIN=   0.00000
   O   0.0256065  -0.2974226  -0.2175521 SPIN=   0.00000
   O   0.2360880  -0.3194456  -0.0193909 SPIN=   0.00000
   O   0.1256852   0.0325227  -0.1039533 SPIN=   0.00000
   S   0.2027042  -0.1908279  -0.1371953 SPIN=   0.00000
   O   0.4234371   0.1789660   0.2078848 SPIN=   0.00000
   O   0.0256065   0.2974226   0.2175521 SPIN=   0.00000
   O   0.2360880   0.3194456   0.0193909 SPIN=   0.00000
   O   0.1256852  -0.0325227   0.1039533 SPIN=   0.00000
   S   0.2027042   0.1908279   0.1371953 SPIN=   0.00000
   F  -0.2853290  -0.2500337   0.1249661 SPIN=   0.00000
   F  -0.2853290   0.2500337  -0.1249661 SPIN=   0.00000
   F  -0.2853290   0.2499663   0.3750339 SPIN=   0.00000
   F  -0.2853290  -0.2499663  -0.3750339 SPIN=   0.00000
%ENDBLOCK POSITIONS_FRAC

# Note: total spin =  16.00

KPOINTS_MP_SPACING 0.07

%BLOCK SPECIES_POT
QC5
%ENDBLOCK SPECIES_POT

SNAP_TO_SYMMETRY
SYMMETRY_GENERATE

