#              Generated by Buildcell
#
# at 08:37:28 (GMT+1.0) 4th August 2020
# in /lustre/scratch/uccabz1/launch_tmp
# on node-c12h-012
# by uccabz1
#
# compiler GCC version 4.9.2
# options -cpp -iprefix /lustre/shared/ucl/apps/gcc/4.9.2/bin/../lib/gcc/x86_64-unknown-linux-gnu/4.9.2/ -mtune=corei7 -march=x86-64 -g -Og
#
# seed  1558133408 -1516180928    98343135  -209402825 -1780717565   234599964  1001703045  -117026348  2033261586   744999788 -1289210280   765501389
#
#      Author: C. J. Pickard (cjp20@cam.ac.uk)
#                Space group: Pna21
#

%BLOCK LATTICE_ABC
      4.12751      7.94517     12.19744
     90.00000     90.00000     90.00000
%ENDBLOCK LATTICE_ABC

%BLOCK POSITIONS_FRAC
  Li  -0.0668345  -0.4459160  -0.4065693 SPIN=   0.00000
  Li   0.0668345   0.4459160   0.0934307 SPIN=   0.00000
  Li  -0.4331655   0.0540840  -0.4065693 SPIN=   0.00000
  Li   0.4331655  -0.0540840   0.0934307 SPIN=   0.00000
  Fe   0.4601617  -0.0522117  -0.1770949 SPIN=   4.00000
  Fe  -0.4601617   0.0522117   0.3229051 SPIN=   4.00000
  Fe   0.0398383   0.4477883  -0.1770949 SPIN=   4.00000
  Fe  -0.0398383  -0.4477883   0.3229051 SPIN=   4.00000
   O   0.2879981  -0.1682132   0.4012780 SPIN=   0.00000
   O   0.3329310  -0.4353109   0.5045633 SPIN=   0.00000
   O   0.3613657  -0.1630126   0.6026259 SPIN=   0.00000
   O   0.8132656  -0.2519653   0.4825121 SPIN=   0.00000
   S   0.4488901  -0.2546255   0.4977448 SPIN=   0.00000
   O  -0.2879981   0.1682132  -0.0987220 SPIN=   0.00000
   O  -0.3329310   0.4353109   0.0045633 SPIN=   0.00000
   O  -0.3613657   0.1630126   0.1026259 SPIN=   0.00000
   O  -0.8132656   0.2519653  -0.0174879 SPIN=   0.00000
   S  -0.4488901   0.2546255  -0.0022552 SPIN=   0.00000
   O   0.2120019   0.3317868   0.4012780 SPIN=   0.00000
   O   0.1670690   0.0646891   0.5045633 SPIN=   0.00000
   O   0.1386343   0.3369874   0.6026259 SPIN=   0.00000
   O  -0.3132656   0.2480347   0.4825121 SPIN=   0.00000
   S   0.0511099   0.2453745   0.4977448 SPIN=   0.00000
   O  -0.2120019  -0.3317868  -0.0987220 SPIN=   0.00000
   O  -0.1670690  -0.0646891   0.0045633 SPIN=   0.00000
   O  -0.1386343  -0.3369874   0.1026259 SPIN=   0.00000
   O   0.3132656  -0.2480347  -0.0174879 SPIN=   0.00000
   S  -0.0511099  -0.2453745  -0.0022552 SPIN=   0.00000
   F   0.3857730  -0.4532196   0.2261857 SPIN=   0.00000
   F  -0.3857730   0.4532196  -0.2738143 SPIN=   0.00000
   F   0.1142270   0.0467804   0.2261857 SPIN=   0.00000
   F  -0.1142270  -0.0467804  -0.2738143 SPIN=   0.00000
%ENDBLOCK POSITIONS_FRAC

# Note: total spin =  16.00

KPOINTS_MP_SPACING 0.07

%BLOCK SPECIES_POT
QC5
%ENDBLOCK SPECIES_POT

SNAP_TO_SYMMETRY
SYMMETRY_GENERATE

