#              Generated by Buildcell
#
# at 07:06:34 (GMT+1.0) 4th August 2020
# in /lustre/scratch/uccabz1/launch_tmp
# on node-c12l-016
# by uccabz1
#
# compiler GCC version 4.9.2
# options -cpp -iprefix /lustre/shared/ucl/apps/gcc/4.9.2/bin/../lib/gcc/x86_64-unknown-linux-gnu/4.9.2/ -mtune=corei7 -march=x86-64 -g -Og
#
# seed   560069296 -1643024162   848863400  -161802192  1041171376  1652692970  1371451067 -1053986288  1118324387  -218683036 -1051970236  1338602008
#
#      Author: C. J. Pickard (cjp20@cam.ac.uk)
#                Space group: Cc
#

%BLOCK LATTICE_ABC
      5.12291      5.12291     15.70907
     96.99251     96.99251     98.98311
%ENDBLOCK LATTICE_ABC

%BLOCK POSITIONS_FRAC
  Li   0.4130350   0.1455319   0.2511896 SPIN=   0.00000
  Li  -0.3544681  -0.0869650  -0.2488104 SPIN=   0.00000
  Li   0.1190341  -0.4848275   0.0851372 SPIN=   0.00000
  Li   0.0151725  -0.3809659  -0.4148628 SPIN=   0.00000
  Fe  -0.1462950  -0.1306584   0.1966183 SPIN=   3.49051
  Fe   0.3693416   0.3537050  -0.3033817 SPIN=   3.49051
  Fe  -0.3195527   0.2749405   0.4331461 SPIN=   4.50949
  Fe  -0.2250595   0.1804473  -0.0668539 SPIN=   4.50949
   O  -0.5803594  -0.1537803  -0.5295938 SPIN=   0.00000
   O  -0.5601710  -0.4777686  -0.4252856 SPIN=   0.00000
   O  -0.6243885  -0.0175328  -0.3760860 SPIN=   0.00000
   O  -0.1883583  -0.0989295  -0.4160049 SPIN=   0.00000
   S  -0.4883193  -0.1870028  -0.4367426 SPIN=   0.00000
   O   0.3462197  -0.0803594  -0.0295938 SPIN=   0.00000
   O   0.0222314  -0.0601710   0.0747144 SPIN=   0.00000
   O   0.4824672  -0.1243885   0.1239140 SPIN=   0.00000
   O   0.4010705   0.3116417   0.0839951 SPIN=   0.00000
   S   0.3129972   0.0116807   0.0632574 SPIN=   0.00000
   O   0.2510993  -0.0640015   0.3295497 SPIN=   0.00000
   O   0.3393831  -0.4208042   0.2213203 SPIN=   0.00000
   O   0.2247882  -0.5259923   0.3633376 SPIN=   0.00000
   O   0.6631976  -0.2564666   0.3544529 SPIN=   0.00000
   S   0.3696171  -0.3168162   0.3171651 SPIN=   0.00000
   O   0.4359985  -0.2489007  -0.1704503 SPIN=   0.00000
   O   0.0791958  -0.1606169  -0.2786797 SPIN=   0.00000
   O  -0.0259923  -0.2752118  -0.1366624 SPIN=   0.00000
   O   0.2435334   0.1631976  -0.1455471 SPIN=   0.00000
   S   0.1831838  -0.1303829  -0.1828349 SPIN=   0.00000
   F   0.0535575   0.1719006   0.4757562 SPIN=   0.00000
   F  -0.3280994  -0.4464425  -0.0242438 SPIN=   0.00000
   F  -0.2248234   0.2468325   0.2465849 SPIN=   0.00000
   F  -0.2531675   0.2751766  -0.2534151 SPIN=   0.00000
%ENDBLOCK POSITIONS_FRAC

# Note: total spin =  16.00

KPOINTS_MP_SPACING 0.07

%BLOCK SPECIES_POT
QC5
%ENDBLOCK SPECIES_POT

SNAP_TO_SYMMETRY
SYMMETRY_GENERATE

