#              Generated by Buildcell
#
# at 08:57:59 (GMT+1.0) 4th August 2020
# in /lustre/scratch/uccabz1/launch_tmp
# on node-c12d-005
# by uccabz1
#
# compiler GCC version 4.9.2
# options -cpp -iprefix /lustre/shared/ucl/apps/gcc/4.9.2/bin/../lib/gcc/x86_64-unknown-linux-gnu/4.9.2/ -mtune=corei7 -march=x86-64 -g -Og
#
# seed -2080434753 -1956342306   -23060706 -1135541221  1630615226 -1697444832 -1676187212 -1920262282  -835165245 -1853697609 -1523276580   146570458
#
#      Author: C. J. Pickard (cjp20@cam.ac.uk)
#                Space group: Pm
#

%BLOCK LATTICE_ABC
      6.70885      7.08055      8.42646
     90.00000     90.00000     92.13099
%ENDBLOCK LATTICE_ABC

%BLOCK POSITIONS_FRAC
  Li   0.2875324   0.2943528   0.2295281 SPIN=   0.00000
  Li   0.2875324   0.2943528  -0.2295281 SPIN=   0.00000
  Li   0.1414032  -0.3156355   0.5000000 SPIN=   0.00000
  Li  -0.3465522  -0.0837618   0.5000000 SPIN=   0.00000
  Fe  -0.0963890   0.0488477  -0.2193676 SPIN=   4.41765
  Fe  -0.0963890   0.0488477   0.2193676 SPIN=   4.41765
  Fe   0.4491259  -0.3074766   0.2427586 SPIN=   3.58235
  Fe   0.4491259  -0.3074766  -0.2427586 SPIN=   3.58235
   O   0.1084104  -0.3507651  -0.1315976 SPIN=   0.00000
   O  -0.1944265  -0.3636244  -0.2995414 SPIN=   0.00000
   O  -0.1143365  -0.6373423  -0.1315970 SPIN=   0.00000
   O   0.0919174  -0.5586894  -0.3676793 SPIN=   0.00000
   S  -0.0271088  -0.4776053  -0.2326039 SPIN=   0.00000
   O   0.1084104  -0.3507651   0.1315976 SPIN=   0.00000
   O  -0.1944265  -0.3636244   0.2995414 SPIN=   0.00000
   O  -0.1143365  -0.6373423   0.1315970 SPIN=   0.00000
   O   0.0919174  -0.5586894   0.3676793 SPIN=   0.00000
   S  -0.0271088  -0.4776053   0.2326039 SPIN=   0.00000
   O   0.5435949   0.2818963  -0.1308238 SPIN=   0.00000
   O   0.2547874   0.0540211  -0.1307694 SPIN=   0.00000
   O   0.5983081  -0.0618468  -0.1308286 SPIN=   0.00000
   O   0.4654962   0.0913497  -0.3706146 SPIN=   0.00000
   O   0.5435949   0.2818963   0.1308238 SPIN=   0.00000
   O   0.2547874   0.0540211   0.1307694 SPIN=   0.00000
   O   0.5983081  -0.0618468   0.1308286 SPIN=   0.00000
   O   0.4654962   0.0913497   0.3706146 SPIN=   0.00000
   S   0.4477337   0.0791347   0.0000000 SPIN=   0.00000
   S   0.2948275   0.0781369   0.5000000 SPIN=   0.00000
   F  -0.2003219   0.1818375   0.5000000 SPIN=   0.00000
   F   0.4414252  -0.3850748   0.5000000 SPIN=   0.00000
   F  -0.0621431  -0.0755578   0.0000000 SPIN=   0.00000
   F   0.4405459  -0.4121916   0.0000000 SPIN=   0.00000
%ENDBLOCK POSITIONS_FRAC

# Note: total spin =  16.00

KPOINTS_MP_SPACING 0.07

%BLOCK SPECIES_POT
QC5
%ENDBLOCK SPECIES_POT

SNAP_TO_SYMMETRY
SYMMETRY_GENERATE

