#              Generated by Buildcell
#
# at 09:12:14 (GMT+1.0) 4th August 2020
# in /lustre/scratch/uccabz1/launch_tmp
# on node-c12l-019
# by uccabz1
#
# compiler GCC version 4.9.2
# options -cpp -iprefix /lustre/shared/ucl/apps/gcc/4.9.2/bin/../lib/gcc/x86_64-unknown-linux-gnu/4.9.2/ -mtune=corei7 -march=x86-64 -g -Og
#
# seed -1663189359  -577512523   398576597 -1194892942 -1972499340   355838612 -2097071137  -983549685 -1961325426 -1864104919 -1895810887   848762213
#
#      Author: C. J. Pickard (cjp20@cam.ac.uk)
#                Space group: P42
#

%BLOCK LATTICE_ABC
      7.17071      7.46877      7.46877
     90.00000     90.00000     90.00000
%ENDBLOCK LATTICE_ABC

%BLOCK POSITIONS_FRAC
  Li   0.1157566   0.3430945  -0.1882644 SPIN=   0.00000
  Li   0.1157566  -0.3430945   0.1882644 SPIN=   0.00000
  Li  -0.3842434   0.1882644   0.3430945 SPIN=   0.00000
  Li  -0.3842434  -0.1882644  -0.3430945 SPIN=   0.00000
  Fe   0.0117950  -0.2646156  -0.4052807 SPIN=   4.00000
  Fe   0.0117950   0.2646156   0.4052807 SPIN=   4.00000
  Fe  -0.4882050   0.4052807  -0.2646156 SPIN=   4.00000
  Fe  -0.4882050  -0.4052807   0.2646156 SPIN=   4.00000
   O   0.1676508   0.3616382   0.0686756 SPIN=   0.00000
   O   0.4946541   0.3435367   0.1731129 SPIN=   0.00000
   O   0.3827731   0.1396580  -0.0649977 SPIN=   0.00000
   O   0.2724854   0.1008316   0.2465821 SPIN=   0.00000
   S   0.3293908   0.2364161   0.1058432 SPIN=   0.00000
   O   0.1676508  -0.3616382  -0.0686756 SPIN=   0.00000
   O   0.4946541  -0.3435367  -0.1731129 SPIN=   0.00000
   O   0.3827731  -0.1396580   0.0649977 SPIN=   0.00000
   O   0.2724854  -0.1008316  -0.2465821 SPIN=   0.00000
   S   0.3293908  -0.2364161  -0.1058432 SPIN=   0.00000
   O  -0.3323492  -0.0686756   0.3616382 SPIN=   0.00000
   O  -0.0053459  -0.1731129   0.3435367 SPIN=   0.00000
   O  -0.1172269   0.0649977   0.1396580 SPIN=   0.00000
   O  -0.2275146  -0.2465821   0.1008316 SPIN=   0.00000
   S  -0.1706092  -0.1058432   0.2364161 SPIN=   0.00000
   O  -0.3323492   0.0686756  -0.3616382 SPIN=   0.00000
   O  -0.0053459   0.1731129  -0.3435367 SPIN=   0.00000
   O  -0.1172269  -0.0649977  -0.1396580 SPIN=   0.00000
   O  -0.2275146   0.2465821  -0.1008316 SPIN=   0.00000
   S  -0.1706092   0.1058432  -0.2364161 SPIN=   0.00000
   F  -0.1545440  -0.3932858  -0.2500987 SPIN=   0.00000
   F  -0.1545440   0.3932858   0.2500987 SPIN=   0.00000
   F   0.3454560   0.2500987  -0.3932858 SPIN=   0.00000
   F   0.3454560  -0.2500987   0.3932858 SPIN=   0.00000
%ENDBLOCK POSITIONS_FRAC

# Note: total spin =  16.00

KPOINTS_MP_SPACING 0.07

%BLOCK SPECIES_POT
QC5
%ENDBLOCK SPECIES_POT

SNAP_TO_SYMMETRY
SYMMETRY_GENERATE

