#              Generated by Buildcell
#
# at 23:22:49 (GMT+1.0) 17th August 2020
# in /lustre/scratch/uccabz1/launch_tmp
# on node-c12n-029
# by uccabz1
#
# compiler GCC version 4.9.2
# options -cpp -iprefix /lustre/shared/ucl/apps/gcc/4.9.2/bin/../lib/gcc/x86_64-unknown-linux-gnu/4.9.2/ -mtune=corei7 -march=x86-64 -g -Og
#
# seed   887270542  -677885017  -569960608 -1442859468  1573096566   563349301 -2020407685  1553262108    -6753730  1853804593  1970226550 -1446472612
#
#      Author: C. J. Pickard (cjp20@cam.ac.uk)
#                Space group: C2
#

%BLOCK LATTICE_ABC
      5.63840      8.72423      8.72423
    103.87388     99.93049     99.93049
%ENDBLOCK LATTICE_ABC

%BLOCK POSITIONS_FRAC
  Li  -0.1170440  -0.2170176  -0.2433892 SPIN=   0.00000
  Li   0.1170440   0.2433892   0.2170176 SPIN=   0.00000
  Li   0.0000000   0.3631715  -0.3631715 SPIN=   0.00000
  Li   0.5000000   0.1898542  -0.1898542 SPIN=   0.00000
  Fe   0.0000000  -0.1182637   0.1182637 SPIN=   3.40924
  Fe   0.0000000   0.1428830  -0.1428830 SPIN=   4.07360
  Fe   0.0000000  -0.3773269   0.3773269 SPIN=   3.58049
  Fe  -0.5000000   0.4544011  -0.4544011 SPIN=   4.93667
   O  -0.0345390   0.1871610   0.4036645 SPIN=   0.00000
   O  -0.4233649   0.0814999   0.4765326 SPIN=   0.00000
   O  -0.0290943   0.0307566   0.6058706 SPIN=   0.00000
   O  -0.2175408  -0.1074100   0.3166103 SPIN=   0.00000
   S  -0.1761348   0.0480019   0.4506695 SPIN=   0.00000
   O   0.0345390  -0.4036645  -0.1871610 SPIN=   0.00000
   O   0.4233649  -0.4765326  -0.0814999 SPIN=   0.00000
   O   0.0290943  -0.6058706  -0.0307566 SPIN=   0.00000
   O   0.2175408  -0.3166103   0.1074100 SPIN=   0.00000
   S   0.1761348  -0.4506695  -0.0480019 SPIN=   0.00000
   O  -0.6140605   0.2882983   0.0081603 SPIN=   0.00000
   O  -0.5170071   0.2858122   0.2951184 SPIN=   0.00000
   O  -0.1904318   0.4070228   0.1752631 SPIN=   0.00000
   O  -0.3510816   0.1099738   0.0922522 SPIN=   0.00000
   S  -0.4181452   0.2727768   0.1426985 SPIN=   0.00000
   O   0.6140605  -0.0081603  -0.2882983 SPIN=   0.00000
   O   0.5170071  -0.2951184  -0.2858122 SPIN=   0.00000
   O   0.1904318  -0.1752631  -0.4070228 SPIN=   0.00000
   O   0.3510816  -0.0922522  -0.1099738 SPIN=   0.00000
   S   0.4181452  -0.1426985  -0.2727768 SPIN=   0.00000
   F  -0.0000000   0.0120083  -0.0120083 SPIN=   0.00000
   F   0.5000000  -0.3561781   0.3561781 SPIN=   0.00000
   F   0.5000000   0.3221810  -0.3221810 SPIN=   0.00000
   F   0.0000000   0.4928888  -0.4928888 SPIN=   0.00000
%ENDBLOCK POSITIONS_FRAC

# Note: total spin =  16.00

KPOINTS_MP_SPACING 0.07

%BLOCK SPECIES_POT
QC5
%ENDBLOCK SPECIES_POT

SNAP_TO_SYMMETRY
SYMMETRY_GENERATE

