#              Generated by Buildcell
#
# at 07:15:58 (GMT+1.0) 4th August 2020
# in /lustre/scratch/uccabz1/launch_tmp
# on node-c12f-036
# by uccabz1
#
# compiler GCC version 4.9.2
# options -cpp -iprefix /lustre/shared/ucl/apps/gcc/4.9.2/bin/../lib/gcc/x86_64-unknown-linux-gnu/4.9.2/ -mtune=corei7 -march=x86-64 -g -Og
#
# seed -1229385771 -1313300782  2044871016 -1615204123   955922268   760796764 -1624329719  1652452564  1796558126 -1482762441  -350236355 -1872972180
#
#      Author: C. J. Pickard (cjp20@cam.ac.uk)
#                Space group: Pcc2
#

%BLOCK LATTICE_ABC
      6.02676      6.98823      9.49749
     90.00000     90.00000     90.00000
%ENDBLOCK LATTICE_ABC

%BLOCK POSITIONS_FRAC
  Li  -0.5000000   0.5000000  -0.3236875 SPIN=   0.00000
  Li  -0.5000000  -0.5000000   0.1763125 SPIN=   0.00000
  Li  -0.5000000   0.0000000  -0.3225406 SPIN=   0.00000
  Li  -0.5000000   0.0000000   0.1774594 SPIN=   0.00000
  Fe   0.3614295   0.2505025   0.4263328 SPIN=   4.00000
  Fe  -0.3614295  -0.2505025   0.4263328 SPIN=   4.00000
  Fe  -0.3614295   0.2505025  -0.0736672 SPIN=   4.00000
  Fe   0.3614295  -0.2505025  -0.0736672 SPIN=   4.00000
   O   0.1886648   0.4511353   0.0627619 SPIN=   0.00000
   O   0.1322096   0.2388298   0.2682291 SPIN=   0.00000
   O   0.2942630   0.1094423   0.0485370 SPIN=   0.00000
   O  -0.1021619   0.2012738   0.0560486 SPIN=   0.00000
   S   0.1282439   0.2501703   0.1088941 SPIN=   0.00000
   O  -0.1886648  -0.4511353   0.0627619 SPIN=   0.00000
   O  -0.1322096  -0.2388298   0.2682291 SPIN=   0.00000
   O  -0.2942630  -0.1094423   0.0485370 SPIN=   0.00000
   O   0.1021619  -0.2012738   0.0560486 SPIN=   0.00000
   S  -0.1282439  -0.2501703   0.1088941 SPIN=   0.00000
   O  -0.1886648   0.4511353  -0.4372381 SPIN=   0.00000
   O  -0.1322096   0.2388298  -0.2317709 SPIN=   0.00000
   O  -0.2942630   0.1094423  -0.4514630 SPIN=   0.00000
   O   0.1021619   0.2012738  -0.4439514 SPIN=   0.00000
   S  -0.1282439   0.2501703  -0.3911059 SPIN=   0.00000
   O   0.1886648  -0.4511353  -0.4372381 SPIN=   0.00000
   O   0.1322096  -0.2388298  -0.2317709 SPIN=   0.00000
   O   0.2942630  -0.1094423  -0.4514630 SPIN=   0.00000
   O  -0.1021619  -0.2012738  -0.4439514 SPIN=   0.00000
   S   0.1282439  -0.2501703  -0.3911059 SPIN=   0.00000
   F   0.3744215   0.2514978  -0.2171846 SPIN=   0.00000
   F  -0.3744215  -0.2514978  -0.2171846 SPIN=   0.00000
   F  -0.3744215   0.2514978   0.2828154 SPIN=   0.00000
   F   0.3744215  -0.2514978   0.2828154 SPIN=   0.00000
%ENDBLOCK POSITIONS_FRAC

# Note: total spin =  16.00

KPOINTS_MP_SPACING 0.07

%BLOCK SPECIES_POT
QC5
%ENDBLOCK SPECIES_POT

SNAP_TO_SYMMETRY
SYMMETRY_GENERATE

