#              Generated by Buildcell
#
# at 12:27:49 (GMT+1.0) 18th August 2020
# in /lustre/scratch/uccabz1/launch_tmp
# on node-c12h-012
# by uccabz1
#
# compiler GCC version 4.9.2
# options -cpp -iprefix /lustre/shared/ucl/apps/gcc/4.9.2/bin/../lib/gcc/x86_64-unknown-linux-gnu/4.9.2/ -mtune=corei7 -march=x86-64 -g -Og
#
# seed  1258062260  1182389793  1968807164   566755722 -1421726415  1535837445  -226771338  -535320058   112853125 -1169702748  1716458684  -360273642
#
#      Author: C. J. Pickard (cjp20@cam.ac.uk)
#                Space group: Pc
#

%BLOCK LATTICE_ABC
      6.35158      6.73083      9.36092
     90.00000     90.00000     91.77771
%ENDBLOCK LATTICE_ABC

%BLOCK POSITIONS_FRAC
  Li   0.2678188   0.4912337  -0.0871303 SPIN=   0.00000
  Li   0.2678188  -0.0087663   0.0871303 SPIN=   0.00000
  Li   0.2762816   0.0583144  -0.3863701 SPIN=   0.00000
  Li   0.2762816  -0.4416856   0.3863701 SPIN=   0.00000
  Fe  -0.4321795  -0.1137661  -0.1579648 SPIN=   3.69034
  Fe  -0.4321795   0.3862339   0.1579648 SPIN=   3.69034
  Fe  -0.2680818   0.3019466  -0.4297870 SPIN=   4.30966
  Fe  -0.2680818  -0.1980534   0.4297870 SPIN=   4.30966
   O  -0.1090438  -0.0285520  -0.1614344 SPIN=   0.00000
   O   0.2464456   0.1165968  -0.1125749 SPIN=   0.00000
   O  -0.0698555   0.3001388  -0.0442812 SPIN=   0.00000
   O   0.0233402   0.2630579  -0.2993977 SPIN=   0.00000
   S   0.0227216   0.1628104  -0.1544220 SPIN=   0.00000
   O  -0.1090438  -0.5285520   0.1614344 SPIN=   0.00000
   O   0.2464456  -0.3834032   0.1125749 SPIN=   0.00000
   O  -0.0698555  -0.1998612   0.0442812 SPIN=   0.00000
   O   0.0233402  -0.2369421   0.2993977 SPIN=   0.00000
   S   0.0227216  -0.3371896   0.1544220 SPIN=   0.00000
   O   0.3054355  -0.5113784  -0.3505339 SPIN=   0.00000
   O   0.1723574  -0.2213318  -0.4812330 SPIN=   0.00000
   O   0.2455553  -0.1967787  -0.2220523 SPIN=   0.00000
   O  -0.0579960  -0.4024194  -0.3086711 SPIN=   0.00000
   S   0.1663380  -0.3329771  -0.3406226 SPIN=   0.00000
   O   0.3054355  -0.0113784   0.3505339 SPIN=   0.00000
   O   0.1723574   0.2786682   0.4812330 SPIN=   0.00000
   O   0.2455553   0.3032213   0.2220523 SPIN=   0.00000
   O  -0.0579960   0.0975806   0.3086711 SPIN=   0.00000
   S   0.1663380   0.1670229   0.3406226 SPIN=   0.00000
   F  -0.3728578  -0.0023939  -0.4161331 SPIN=   0.00000
   F  -0.3728578   0.4976061   0.4161331 SPIN=   0.00000
   F  -0.4115565   0.0550429   0.0916136 SPIN=   0.00000
   F  -0.4115565  -0.4449571  -0.0916136 SPIN=   0.00000
%ENDBLOCK POSITIONS_FRAC

# Note: total spin =  16.00

KPOINTS_MP_SPACING 0.07

%BLOCK SPECIES_POT
QC5
%ENDBLOCK SPECIES_POT

SNAP_TO_SYMMETRY
SYMMETRY_GENERATE

