#              Generated by Buildcell
#
# at 10:25:13 (GMT+1.0) 4th August 2020
# in /lustre/scratch/uccabz1/launch_tmp
# on node-c12h-011
# by uccabz1
#
# compiler GCC version 4.9.2
# options -cpp -iprefix /lustre/shared/ucl/apps/gcc/4.9.2/bin/../lib/gcc/x86_64-unknown-linux-gnu/4.9.2/ -mtune=corei7 -march=x86-64 -g -Og
#
# seed  1537225447  -747850948 -1891088275  -205232841  2015856230  -273500922 -1328548822 -1728978571    71353834 -2091571824  2055896010   869683453
#
#      Author: C. J. Pickard (cjp20@cam.ac.uk)
#                Space group: P2
#

%BLOCK LATTICE_ABC
      6.80171      7.21484      8.46606
    105.67808     90.00000     90.00000
%ENDBLOCK LATTICE_ABC

%BLOCK POSITIONS_FRAC
  Li   0.4452362  -0.2554654  -0.0146411 SPIN=   0.00000
  Li   0.4452362   0.2554654   0.0146411 SPIN=   0.00000
  Li   0.0789048  -0.0038023  -0.2670279 SPIN=   0.00000
  Li   0.0789048   0.0038023   0.2670279 SPIN=   0.00000
  Fe  -0.3120848  -0.1903756   0.2990759 SPIN=   4.25876
  Fe  -0.3120848   0.1903756  -0.2990759 SPIN=   4.25876
  Fe   0.1881739   0.4169403  -0.2302077 SPIN=   3.74124
  Fe   0.1881739  -0.4169403   0.2302077 SPIN=   3.74124
   O  -0.2621750   0.4566450   0.1796178 SPIN=   0.00000
   O  -0.1236328   0.1451318   0.1958405 SPIN=   0.00000
   O   0.0444203   0.3331157   0.0307173 SPIN=   0.00000
   O  -0.2731765   0.1737640  -0.0630266 SPIN=   0.00000
   S  -0.1536410   0.2771641   0.0857873 SPIN=   0.00000
   O  -0.2621750  -0.4566450  -0.1796178 SPIN=   0.00000
   O  -0.1236328  -0.1451318  -0.1958405 SPIN=   0.00000
   O   0.0444203  -0.3331157  -0.0307173 SPIN=   0.00000
   O  -0.2731765  -0.1737640   0.0630266 SPIN=   0.00000
   S  -0.1536410  -0.2771641  -0.0857873 SPIN=   0.00000
   O   0.2304902   0.3642745   0.3388807 SPIN=   0.00000
   O   0.5168044   0.3400761   0.5126100 SPIN=   0.00000
   O   0.5351277   0.2035028   0.2115614 SPIN=   0.00000
   O   0.3253285   0.0484797   0.3780153 SPIN=   0.00000
   S   0.4019377   0.2390833   0.3602669 SPIN=   0.00000
   O   0.2304902  -0.3642745  -0.3388807 SPIN=   0.00000
   O   0.5168044  -0.3400761  -0.5126100 SPIN=   0.00000
   O   0.5351277  -0.2035028  -0.2115614 SPIN=   0.00000
   O   0.3253285  -0.0484797  -0.3780153 SPIN=   0.00000
   S   0.4019377  -0.2390833  -0.3602669 SPIN=   0.00000
   F  -0.0750572  -0.2762669   0.4171987 SPIN=   0.00000
   F  -0.0750572   0.2762669  -0.4171987 SPIN=   0.00000
   F   0.4249631  -0.2947893   0.1997539 SPIN=   0.00000
   F   0.4249631   0.2947893  -0.1997539 SPIN=   0.00000
%ENDBLOCK POSITIONS_FRAC

# Note: total spin =  16.00

KPOINTS_MP_SPACING 0.07

%BLOCK SPECIES_POT
QC5
%ENDBLOCK SPECIES_POT

SNAP_TO_SYMMETRY
SYMMETRY_GENERATE

