#              Generated by Buildcell
#
# at 07:57:01 (GMT+1.0) 4th August 2020
# in /lustre/scratch/uccabz1/launch_tmp
# on node-c12p-031
# by uccabz1
#
# compiler GCC version 4.9.2
# options -cpp -iprefix /lustre/shared/ucl/apps/gcc/4.9.2/bin/../lib/gcc/x86_64-unknown-linux-gnu/4.9.2/ -mtune=corei7 -march=x86-64 -g -Og
#
# seed  1845645000 -1651465095 -1703537108   744549827 -1036246173 -1351765443 -1407757838   992454337  -945370074  1932302775 -1013766937  1202802753
#
#      Author: C. J. Pickard (cjp20@cam.ac.uk)
#                Space group: Cc
#

%BLOCK LATTICE_ABC
      7.64836      7.75133      8.57389
    115.11789    114.71507     93.54117
%ENDBLOCK LATTICE_ABC

%BLOCK POSITIONS_FRAC
  Li   0.2770368  -0.0833972   0.0166498 SPIN=   0.00000
  Li  -0.2396129  -0.1000469  -0.0166498 SPIN=   0.00000
  Li  -0.3448916   0.1975777  -0.4612078 SPIN=   0.00000
  Li  -0.3836838  -0.3412144   0.4612078 SPIN=   0.00000
  Fe   0.3546857  -0.1535048  -0.3075655 SPIN=   3.67634
  Fe   0.1622512   0.1540607   0.3075655 SPIN=   3.67634
  Fe   0.0794993   0.4888055  -0.2340858 SPIN=   4.32366
  Fe  -0.1864150  -0.2771088   0.2340858 SPIN=   4.32366
   O   0.6880640   0.2860235  -0.1261727 SPIN=   0.00000
   O   0.4967381   0.5309224  -0.0716882 SPIN=   0.00000
   O   0.3297000   0.1727191  -0.2254888 SPIN=   0.00000
   O   0.4232102   0.2956442  -0.4115599 SPIN=   0.00000
   S   0.4844281   0.3213273  -0.2087274 SPIN=   0.00000
   O   0.3142367  -0.5878038   0.1261727 SPIN=   0.00000
   O   0.0684263  -0.3973894   0.0716882 SPIN=   0.00000
   O   0.0551888  -0.6017921   0.2254888 SPIN=   0.00000
   O   0.3347701  -0.2927959   0.4115599 SPIN=   0.00000
   S   0.1931555  -0.4699453   0.2087274 SPIN=   0.00000
   O  -0.1800042   0.4948294   0.3009589 SPIN=   0.00000
   O  -0.4492825   0.3412314   0.3309439 SPIN=   0.00000
   O  -0.1214140   0.2696521   0.4413362 SPIN=   0.00000
   O  -0.3545434   0.1334911   0.0842832 SPIN=   0.00000
   S  -0.2763110   0.3098010   0.2893805 SPIN=   0.00000
   O   0.0190370   0.1938705  -0.3009589 SPIN=   0.00000
   O  -0.2802265   0.0102875  -0.3309439 SPIN=   0.00000
   O  -0.0627502  -0.1716841  -0.4413362 SPIN=   0.00000
   O   0.0611735   0.0492079  -0.0842832 SPIN=   0.00000
   S  -0.0656916   0.0204204  -0.2893805 SPIN=   0.00000
   F   0.0713095  -0.0329658   0.3581630 SPIN=   0.00000
   F   0.2131466  -0.3911288  -0.3581630 SPIN=   0.00000
   F  -0.2217431  -0.3790306  -0.2579698 SPIN=   0.00000
   F  -0.4637733  -0.1210608   0.2579698 SPIN=   0.00000
%ENDBLOCK POSITIONS_FRAC

# Note: total spin =  16.00

KPOINTS_MP_SPACING 0.07

%BLOCK SPECIES_POT
QC5
%ENDBLOCK SPECIES_POT

SNAP_TO_SYMMETRY
SYMMETRY_GENERATE

