#              Generated by Buildcell
#
# at 02:24:02 (GMT+1.0) 18th August 2020
# in /lustre/scratch/uccabz1/launch_tmp
# on node-c12p-003
# by uccabz1
#
# compiler GCC version 4.9.2
# options -cpp -iprefix /lustre/shared/ucl/apps/gcc/4.9.2/bin/../lib/gcc/x86_64-unknown-linux-gnu/4.9.2/ -mtune=corei7 -march=x86-64 -g -Og
#
# seed  -558045764  1641009512 -1662839996 -1886346681  1997997077    36493797  -455408686  1020315601  -870830853  1367471909   894868223   -67226139
#
#      Author: C. J. Pickard (cjp20@cam.ac.uk)
#                Space group: P41
#

%BLOCK LATTICE_ABC
      6.43112      6.43112      9.67135
     90.00000     90.00000     90.00000
%ENDBLOCK LATTICE_ABC

%BLOCK POSITIONS_FRAC
  Li  -0.2692104  -0.2402753   0.4746933 SPIN=   0.00000
  Li   0.2692104   0.2402753  -0.0253067 SPIN=   0.00000
  Li  -0.2402753   0.2692104  -0.2753067 SPIN=   0.00000
  Li   0.2402753  -0.2692104   0.2246933 SPIN=   0.00000
  Fe  -0.2440042  -0.2320170  -0.1651556 SPIN=   4.00000
  Fe   0.2440042   0.2320170   0.3348444 SPIN=   4.00000
  Fe  -0.2320170   0.2440042   0.0848444 SPIN=   4.00000
  Fe   0.2320170  -0.2440042  -0.4151556 SPIN=   4.00000
   O  -0.4531583  -0.3444819   0.2497142 SPIN=   0.00000
   O  -0.1450670  -0.1218089   0.2895511 SPIN=   0.00000
   O  -0.3231668  -0.1161561   0.0627392 SPIN=   0.00000
   O  -0.1202246  -0.4254649   0.1332227 SPIN=   0.00000
   S  -0.2604042  -0.2519780   0.1838068 SPIN=   0.00000
   O   0.4531583   0.3444819  -0.2502858 SPIN=   0.00000
   O   0.1450670   0.1218089  -0.2104489 SPIN=   0.00000
   O   0.3231668   0.1161561  -0.4372608 SPIN=   0.00000
   O   0.1202246   0.4254649  -0.3667773 SPIN=   0.00000
   S   0.2604042   0.2519780  -0.3161932 SPIN=   0.00000
   O  -0.3444819   0.4531583   0.4997142 SPIN=   0.00000
   O  -0.1218089   0.1450670   0.5395511 SPIN=   0.00000
   O  -0.1161561   0.3231668   0.3127392 SPIN=   0.00000
   O  -0.4254649   0.1202246   0.3832227 SPIN=   0.00000
   S  -0.2519780   0.2604042   0.4338068 SPIN=   0.00000
   O   0.3444819  -0.4531583  -0.0002858 SPIN=   0.00000
   O   0.1218089  -0.1450670   0.0395511 SPIN=   0.00000
   O   0.1161561  -0.3231668  -0.1872608 SPIN=   0.00000
   O   0.4254649  -0.1202246  -0.1167773 SPIN=   0.00000
   S   0.2519780  -0.2604042  -0.0661932 SPIN=   0.00000
   F   0.1599563  -0.3705927   0.4105760 SPIN=   0.00000
   F  -0.1599563   0.3705927  -0.0894240 SPIN=   0.00000
   F  -0.3705927  -0.1599563  -0.3394240 SPIN=   0.00000
   F   0.3705927   0.1599563   0.1605760 SPIN=   0.00000
%ENDBLOCK POSITIONS_FRAC

# Note: total spin =  16.00

KPOINTS_MP_SPACING 0.07

%BLOCK SPECIES_POT
QC5
%ENDBLOCK SPECIES_POT

SNAP_TO_SYMMETRY
SYMMETRY_GENERATE

