#              Generated by Buildcell
#
# at 03:00:52 (GMT+1.0) 18th August 2020
# in /lustre/scratch/uccabz1/launch_tmp
# on node-c12h-012
# by uccabz1
#
# compiler GCC version 4.9.2
# options -cpp -iprefix /lustre/shared/ucl/apps/gcc/4.9.2/bin/../lib/gcc/x86_64-unknown-linux-gnu/4.9.2/ -mtune=corei7 -march=x86-64 -g -Og
#
# seed   449989234  -602462947  -945342867  -883418580  1134372208  1986101834   157886336   862045670  1686952255  -852180644   328526551  -597791588
#
#      Author: C. J. Pickard (cjp20@cam.ac.uk)
#                Space group: Pc
#

%BLOCK LATTICE_ABC
      4.97765      7.42890     11.46867
     90.00000     90.00000    109.40615
%ENDBLOCK LATTICE_ABC

%BLOCK POSITIONS_FRAC
  Li   0.0028575   0.3245346   0.2198056 SPIN=   0.00000
  Li   0.0028575  -0.1754654  -0.2198056 SPIN=   0.00000
  Li  -0.4843758  -0.1294254   0.0255423 SPIN=   0.00000
  Li  -0.4843758   0.3705746  -0.0255423 SPIN=   0.00000
  Fe  -0.0761018   0.1853923  -0.1068386 SPIN=   3.89806
  Fe  -0.0761018  -0.3146077   0.1068386 SPIN=   3.89806
  Fe  -0.2191612  -0.4946699  -0.3856529 SPIN=   4.10194
  Fe  -0.2191612   0.0053301   0.3856529 SPIN=   4.10194
   O   0.2483989   0.0402904  -0.3223868 SPIN=   0.00000
   O   0.2521059   0.0860705  -0.5362019 SPIN=   0.00000
   O  -0.0124172  -0.2289478  -0.4506698 SPIN=   0.00000
   O   0.5147138  -0.1111159  -0.4490962 SPIN=   0.00000
   S   0.2507004  -0.0534257  -0.4395887 SPIN=   0.00000
   O   0.2483989   0.5402904   0.3223868 SPIN=   0.00000
   O   0.2521059   0.5860705   0.5362019 SPIN=   0.00000
   O  -0.0124172   0.2710522   0.4506698 SPIN=   0.00000
   O   0.5147138   0.3888841   0.4490962 SPIN=   0.00000
   S   0.2507004   0.4465743   0.4395887 SPIN=   0.00000
   O   0.4964766   0.3461914   0.2299630 SPIN=   0.00000
   O   0.1097031   0.0737853   0.1466823 SPIN=   0.00000
   O   0.4249132   0.0179823   0.2991879 SPIN=   0.00000
   O   0.6126471   0.1154799   0.1007965 SPIN=   0.00000
   S   0.4109350   0.1383597   0.1941574 SPIN=   0.00000
   O   0.4964766  -0.1538086  -0.2299630 SPIN=   0.00000
   O   0.1097031  -0.4262147  -0.1466823 SPIN=   0.00000
   O   0.4249132  -0.4820177  -0.2991879 SPIN=   0.00000
   O   0.6126471  -0.3845201  -0.1007965 SPIN=   0.00000
   S   0.4109350  -0.3616403  -0.1941574 SPIN=   0.00000
   F   0.0621614  -0.0584563  -0.0702388 SPIN=   0.00000
   F   0.0621614   0.4415437   0.0702388 SPIN=   0.00000
   F  -0.2636736   0.2863752  -0.2542424 SPIN=   0.00000
   F  -0.2636736  -0.2136248   0.2542424 SPIN=   0.00000
%ENDBLOCK POSITIONS_FRAC

# Note: total spin =  16.00

KPOINTS_MP_SPACING 0.07

%BLOCK SPECIES_POT
QC5
%ENDBLOCK SPECIES_POT

SNAP_TO_SYMMETRY
SYMMETRY_GENERATE

