#              Generated by Buildcell
#
# at 06:19:38 (GMT+1.0) 4th August 2020
# in /lustre/scratch/uccabz1/launch_tmp
# on node-c12n-015
# by uccabz1
#
# compiler GCC version 4.9.2
# options -cpp -iprefix /lustre/shared/ucl/apps/gcc/4.9.2/bin/../lib/gcc/x86_64-unknown-linux-gnu/4.9.2/ -mtune=corei7 -march=x86-64 -g -Og
#
# seed  -442796548  -205423109  1105752661  -778720088 -1461566828   323970763  -788113859  2102324363   511908679   736555876   416615314  1332423298
#
#      Author: C. J. Pickard (cjp20@cam.ac.uk)
#                Space group: C2
#

%BLOCK LATTICE_ABC
      6.39446      7.05205     10.06359
    110.45588    108.46486     90.16020
%ENDBLOCK LATTICE_ABC

%BLOCK POSITIONS_FRAC
  Li  -0.2016307  -0.3122661   0.0861458 SPIN=   0.00000
  Li   0.2877764   0.3984119   0.0861458 SPIN=   0.00000
  Li   0.2263868  -0.1800425  -0.0616478 SPIN=   0.00000
  Li  -0.2880346   0.1183946  -0.0616478 SPIN=   0.00000
  Fe   0.1180852   0.0821578  -0.2347706 SPIN=   3.63276
  Fe  -0.3528558  -0.3169284  -0.2347706 SPIN=   3.63276
  Fe  -0.0764462   0.0454884   0.3625697 SPIN=   4.36724
  Fe   0.4390158   0.3170813   0.3625697 SPIN=   4.36724
   O  -0.0675643   0.3800977   0.0789741 SPIN=   0.00000
   O  -0.1823789   0.6318082   0.2770662 SPIN=   0.00000
   O   0.0904062   0.4029242   0.3434098 SPIN=   0.00000
   O  -0.3038115   0.2632641   0.1954575 SPIN=   0.00000
   S  -0.1158371   0.4195236   0.2237269 SPIN=   0.00000
   O   0.1465384  -0.3011236   0.0789741 SPIN=   0.00000
   O   0.4594450  -0.3547420   0.2770662 SPIN=   0.00000
   O   0.2530037  -0.0595144   0.3434098 SPIN=   0.00000
   O   0.4992690  -0.0678065   0.1954575 SPIN=   0.00000
   S   0.3395640  -0.1957966   0.2237269 SPIN=   0.00000
   O   0.0674124  -0.6849868  -0.4623156 SPIN=   0.00000
   O   0.0725797  -0.5528860  -0.1986737 SPIN=   0.00000
   O  -0.0937823  -0.3677428  -0.3671895 SPIN=   0.00000
   O   0.3136942  -0.3697930  -0.2766919 SPIN=   0.00000
   S   0.0899760  -0.4938522  -0.3262177 SPIN=   0.00000
   O  -0.5297280   0.2226713  -0.4623156 SPIN=   0.00000
   O  -0.2712533   0.3542124  -0.1986737 SPIN=   0.00000
   O  -0.2734072   0.0005532  -0.3671895 SPIN=   0.00000
   O  -0.5903861   0.0931011  -0.2766919 SPIN=   0.00000
   S  -0.4161937   0.1676345  -0.3262177 SPIN=   0.00000
   F   0.2512103   0.1087453  -0.0019078 SPIN=   0.00000
   F  -0.2531181  -0.1106530  -0.0019078 SPIN=   0.00000
   F   0.0358458  -0.0964704  -0.4726264 SPIN=   0.00000
   F   0.4915279  -0.3761560  -0.4726264 SPIN=   0.00000
%ENDBLOCK POSITIONS_FRAC

# Note: total spin =  16.00

KPOINTS_MP_SPACING 0.07

%BLOCK SPECIES_POT
QC5
%ENDBLOCK SPECIES_POT

SNAP_TO_SYMMETRY
SYMMETRY_GENERATE

