#              Generated by Buildcell
#
# at 08:40:46 (GMT+1.0) 4th August 2020
# in /lustre/scratch/uccabz1/launch_tmp
# on node-c12c-004
# by uccabz1
#
# compiler GCC version 4.9.2
# options -cpp -iprefix /lustre/shared/ucl/apps/gcc/4.9.2/bin/../lib/gcc/x86_64-unknown-linux-gnu/4.9.2/ -mtune=corei7 -march=x86-64 -g -Og
#
# seed   151649548 -1448750221   435705674  1492843631  2059729764  2060681459  -114994850 -1307645888  -257899292 -1199617944  -299795534    57846691
#
#      Author: C. J. Pickard (cjp20@cam.ac.uk)
#                Space group: P43
#

%BLOCK LATTICE_ABC
      5.10781      5.10781     15.33169
     90.00000     90.00000     90.00000
%ENDBLOCK LATTICE_ABC

%BLOCK POSITIONS_FRAC
  Li   0.2874046   0.2753257  -0.4236431 SPIN=   0.00000
  Li  -0.2874046  -0.2753257   0.0763569 SPIN=   0.00000
  Li  -0.2753257   0.2874046  -0.1736431 SPIN=   0.00000
  Li   0.2753257  -0.2874046   0.3263569 SPIN=   0.00000
  Fe  -0.2472237   0.0196176  -0.3451065 SPIN=   4.00000
  Fe   0.2472237  -0.0196176   0.1548935 SPIN=   4.00000
  Fe  -0.0196176  -0.2472237  -0.0951065 SPIN=   4.00000
  Fe   0.0196176   0.2472237   0.4048935 SPIN=   4.00000
   O   0.4932878   0.4419417  -0.3225462 SPIN=   0.00000
   O   0.2759133   0.1585050  -0.2134779 SPIN=   0.00000
   O   0.0153919   0.4771425  -0.2986541 SPIN=   0.00000
   O   0.3235072   0.6332965  -0.1854566 SPIN=   0.00000
   S   0.2770251   0.4277214  -0.2550337 SPIN=   0.00000
   O  -0.4932878  -0.4419417   0.1774538 SPIN=   0.00000
   O  -0.2759133  -0.1585050   0.2865221 SPIN=   0.00000
   O  -0.0153919  -0.4771425   0.2013459 SPIN=   0.00000
   O  -0.3235072  -0.6332965   0.3145434 SPIN=   0.00000
   S  -0.2770251  -0.4277214   0.2449663 SPIN=   0.00000
   O  -0.4419417   0.4932878  -0.0725462 SPIN=   0.00000
   O  -0.1585050   0.2759133   0.0365221 SPIN=   0.00000
   O  -0.4771425   0.0153919  -0.0486541 SPIN=   0.00000
   O  -0.6332965   0.3235072   0.0645434 SPIN=   0.00000
   S  -0.4277214   0.2770251  -0.0050337 SPIN=   0.00000
   O   0.4419417  -0.4932878   0.4274538 SPIN=   0.00000
   O   0.1585050  -0.2759133   0.5365221 SPIN=   0.00000
   O   0.4771425  -0.0153919   0.4513459 SPIN=   0.00000
   O   0.6332965  -0.3235072   0.5645434 SPIN=   0.00000
   S   0.4277214  -0.2770251   0.4949663 SPIN=   0.00000
   F   0.2212697   0.0714384   0.2936866 SPIN=   0.00000
   F  -0.2212697  -0.0714384  -0.2063134 SPIN=   0.00000
   F  -0.0714384   0.2212697  -0.4563134 SPIN=   0.00000
   F   0.0714384  -0.2212697   0.0436866 SPIN=   0.00000
%ENDBLOCK POSITIONS_FRAC

# Note: total spin =  16.00

KPOINTS_MP_SPACING 0.07

%BLOCK SPECIES_POT
QC5
%ENDBLOCK SPECIES_POT

SNAP_TO_SYMMETRY
SYMMETRY_GENERATE

