#              Generated by Buildcell
#
# at 01:26:51 (GMT+1.0) 18th August 2020
# in /lustre/scratch/uccabz1/launch_tmp
# on node-c12o-016
# by uccabz1
#
# compiler GCC version 4.9.2
# options -cpp -iprefix /lustre/shared/ucl/apps/gcc/4.9.2/bin/../lib/gcc/x86_64-unknown-linux-gnu/4.9.2/ -mtune=corei7 -march=x86-64 -g -Og
#
# seed  1472037710   632779691  -370772156 -1640726397  -652186375   464419066  1912441748  1652793849 -1228203337  2054782557   -86480793  -966854114
#
#      Author: C. J. Pickard (cjp20@cam.ac.uk)
#                Space group: P21/c
#

%BLOCK LATTICE_ABC
      4.46870      7.24828     12.41335
     95.82052     90.00000     90.00000
%ENDBLOCK LATTICE_ABC

%BLOCK POSITIONS_FRAC
  Li  -0.3705069   0.2824394   0.0607463 SPIN=   0.00000
  Li   0.1294931   0.2175606   0.4392537 SPIN=   0.00000
  Li   0.3705069  -0.2824394  -0.0607463 SPIN=   0.00000
  Li  -0.1294931  -0.2175606  -0.4392537 SPIN=   0.00000
  Fe   0.1577693  -0.0490961   0.1370591 SPIN=   4.00000
  Fe  -0.3422307  -0.4509039   0.3629409 SPIN=   4.00000
  Fe  -0.1577693   0.0490961  -0.1370591 SPIN=   4.00000
  Fe   0.3422307   0.4509039  -0.3629409 SPIN=   4.00000
   O  -0.0205944  -0.5716384  -0.1101476 SPIN=   0.00000
   O  -0.4343008  -0.4522412  -0.2160302 SPIN=   0.00000
   O   0.0897130  -0.3702094  -0.2546838 SPIN=   0.00000
   O  -0.1527893  -0.2384872  -0.0847937 SPIN=   0.00000
   S  -0.1294929  -0.4081440  -0.1664138 SPIN=   0.00000
   O   0.4794056   0.0716384  -0.3898524 SPIN=   0.00000
   O   0.0656992  -0.0477588  -0.2839698 SPIN=   0.00000
   O   0.5897130  -0.1297906  -0.2453162 SPIN=   0.00000
   O   0.3472107  -0.2615128  -0.4152063 SPIN=   0.00000
   S   0.3705071  -0.0918560  -0.3335862 SPIN=   0.00000
   O   0.0205944   0.5716384   0.1101476 SPIN=   0.00000
   O   0.4343008   0.4522412   0.2160302 SPIN=   0.00000
   O  -0.0897130   0.3702094   0.2546838 SPIN=   0.00000
   O   0.1527893   0.2384872   0.0847937 SPIN=   0.00000
   S   0.1294929   0.4081440   0.1664138 SPIN=   0.00000
   O  -0.4794056  -0.0716384   0.3898524 SPIN=   0.00000
   O  -0.0656992   0.0477588   0.2839698 SPIN=   0.00000
   O  -0.5897130   0.1297906   0.2453162 SPIN=   0.00000
   O  -0.3472107   0.2615128   0.4152063 SPIN=   0.00000
   S  -0.3705071   0.0918560   0.3335862 SPIN=   0.00000
   F   0.4735601   0.2090419  -0.1026749 SPIN=   0.00000
   F  -0.0264399   0.2909581  -0.3973251 SPIN=   0.00000
   F  -0.4735601  -0.2090419   0.1026749 SPIN=   0.00000
   F   0.0264399  -0.2909581   0.3973251 SPIN=   0.00000
%ENDBLOCK POSITIONS_FRAC

# Note: total spin =  16.00

KPOINTS_MP_SPACING 0.07

%BLOCK SPECIES_POT
QC5
%ENDBLOCK SPECIES_POT

SNAP_TO_SYMMETRY
SYMMETRY_GENERATE

