#              Generated by Buildcell
#
# at 10:24:28 (GMT+1.0) 4th August 2020
# in /lustre/scratch/uccabz1/launch_tmp
# on node-c12p-031
# by uccabz1
#
# compiler GCC version 4.9.2
# options -cpp -iprefix /lustre/shared/ucl/apps/gcc/4.9.2/bin/../lib/gcc/x86_64-unknown-linux-gnu/4.9.2/ -mtune=corei7 -march=x86-64 -g -Og
#
# seed   930505975  -369715676 -1690546841  -725019925  1911162762   608292119  1263644731 -1559612113  1066863530   267815536   280614044 -1337869343
#
#      Author: C. J. Pickard (cjp20@cam.ac.uk)
#                Space group: P-1
#

%BLOCK LATTICE_ABC
      7.48953      7.87721      7.95890
     72.09902     72.09417     66.33083
%ENDBLOCK LATTICE_ABC

%BLOCK POSITIONS_FRAC
  Li  -0.2754458  -0.0830427  -0.2794773 SPIN=   0.00000
  Li   0.2754458   0.0830427   0.2794773 SPIN=   0.00000
  Li  -0.1791865   0.4290974  -0.3029847 SPIN=   0.00000
  Li   0.1791865  -0.4290974   0.3029847 SPIN=   0.00000
  Fe  -0.0929946  -0.0100849   0.3196191 SPIN=   6.99847
  Fe   0.0929946   0.0100849  -0.3196191 SPIN=   6.99847
  Fe  -0.3891640   0.1735479  -0.0204274 SPIN=   1.00153
  Fe   0.3891640  -0.1735479   0.0204274 SPIN=   1.00153
   O   0.5523469   0.3402118  -0.5051200 SPIN=   0.00000
   O   0.1996768   0.3741090  -0.3606478 SPIN=   0.00000
   O   0.4536179   0.0548001  -0.3671510 SPIN=   0.00000
   O   0.3512629   0.2652175  -0.6492084 SPIN=   0.00000
   S   0.3892261   0.2585846  -0.4705318 SPIN=   0.00000
   O  -0.5523469  -0.3402118   0.5051200 SPIN=   0.00000
   O  -0.1996768  -0.3741090   0.3606478 SPIN=   0.00000
   O  -0.4536179  -0.0548001   0.3671510 SPIN=   0.00000
   O  -0.3512629  -0.2652175   0.6492084 SPIN=   0.00000
   S  -0.3892261  -0.2585846   0.4705318 SPIN=   0.00000
   O   0.3219778  -0.2727684  -0.1613498 SPIN=   0.00000
   O   0.2123058  -0.5182368   0.0799995 SPIN=   0.00000
   O   0.4092731  -0.5915516  -0.2175058 SPIN=   0.00000
   O   0.0598470  -0.3726846  -0.1884105 SPIN=   0.00000
   S   0.2508509  -0.4388104  -0.1218167 SPIN=   0.00000
   O  -0.3219778   0.2727684   0.1613498 SPIN=   0.00000
   O  -0.2123058   0.5182368  -0.0799995 SPIN=   0.00000
   O  -0.4092731   0.5915516   0.2175058 SPIN=   0.00000
   O  -0.0598470   0.3726846   0.1884105 SPIN=   0.00000
   S  -0.2508509   0.4388104   0.1218167 SPIN=   0.00000
   F  -0.2069658  -0.1162664   0.0156197 SPIN=   0.00000
   F   0.2069658   0.1162664  -0.0156197 SPIN=   0.00000
   F  -0.0849288   0.2678488  -0.4540401 SPIN=   0.00000
   F   0.0849288  -0.2678488   0.4540401 SPIN=   0.00000
%ENDBLOCK POSITIONS_FRAC

# Note: total spin =  16.00

KPOINTS_MP_SPACING 0.07

%BLOCK SPECIES_POT
QC5
%ENDBLOCK SPECIES_POT

SNAP_TO_SYMMETRY
SYMMETRY_GENERATE

