#              Generated by Buildcell
#
# at 06:19:26 (GMT+1.0) 4th August 2020
# in /lustre/scratch/uccabz1/launch_tmp
# on node-c12l-028
# by uccabz1
#
# compiler GCC version 4.9.2
# options -cpp -iprefix /lustre/shared/ucl/apps/gcc/4.9.2/bin/../lib/gcc/x86_64-unknown-linux-gnu/4.9.2/ -mtune=corei7 -march=x86-64 -g -Og
#
# seed  1498669203 -1659695532  1154780826  1736187501   808527331   883285687   456062455  1960029939  1748355966  -116172159 -2110092158  -989615464
#
#      Author: C. J. Pickard (cjp20@cam.ac.uk)
#                Space group: Pnc2
#

%BLOCK LATTICE_ABC
      4.44182      6.77575     13.29052
     90.00000     90.00000     90.00000
%ENDBLOCK LATTICE_ABC

%BLOCK POSITIONS_FRAC
  Li  -0.2564317   0.3612920  -0.3760275 SPIN=   0.00000
  Li   0.2564317   0.3612920   0.3760275 SPIN=   0.00000
  Li  -0.2564317  -0.1387080  -0.1239725 SPIN=   0.00000
  Li   0.2564317  -0.1387080   0.1239725 SPIN=   0.00000
  Fe  -0.2390336   0.1216598   0.3005852 SPIN=   4.00000
  Fe   0.2390336   0.1216598  -0.3005852 SPIN=   4.00000
  Fe  -0.2390336  -0.3783402   0.1994148 SPIN=   4.00000
  Fe   0.2390336  -0.3783402  -0.1994148 SPIN=   4.00000
   O   0.5997961  -0.1598271   0.3799918 SPIN=   0.00000
   O   0.1570204  -0.2104085   0.2699353 SPIN=   0.00000
   O   0.1118109  -0.0053475   0.4232903 SPIN=   0.00000
   O   0.1751480  -0.3670796   0.4380392 SPIN=   0.00000
   S   0.2609438  -0.1856657   0.3778142 SPIN=   0.00000
   O  -0.5997961  -0.1598271  -0.3799918 SPIN=   0.00000
   O  -0.1570204  -0.2104085  -0.2699353 SPIN=   0.00000
   O  -0.1118109  -0.0053475  -0.4232903 SPIN=   0.00000
   O  -0.1751480  -0.3670796  -0.4380392 SPIN=   0.00000
   S  -0.2609438  -0.1856657  -0.3778142 SPIN=   0.00000
   O   0.5997961   0.3401729   0.1200082 SPIN=   0.00000
   O   0.1570204   0.2895915   0.2300647 SPIN=   0.00000
   O   0.1118109   0.4946525   0.0767097 SPIN=   0.00000
   O   0.1751480   0.1329204   0.0619608 SPIN=   0.00000
   S   0.2609438   0.3143343   0.1221858 SPIN=   0.00000
   O  -0.5997961   0.3401729  -0.1200082 SPIN=   0.00000
   O  -0.1570204   0.2895915  -0.2300647 SPIN=   0.00000
   O  -0.1118109   0.4946525  -0.0767097 SPIN=   0.00000
   O  -0.1751480   0.1329204  -0.0619608 SPIN=   0.00000
   S  -0.2609438   0.3143343  -0.1221858 SPIN=   0.00000
   F  -0.2995393   0.3893975   0.3646337 SPIN=   0.00000
   F   0.2995393   0.3893975  -0.3646337 SPIN=   0.00000
   F  -0.2995393  -0.1106025   0.1353663 SPIN=   0.00000
   F   0.2995393  -0.1106025  -0.1353663 SPIN=   0.00000
%ENDBLOCK POSITIONS_FRAC

# Note: total spin =  16.00

KPOINTS_MP_SPACING 0.07

%BLOCK SPECIES_POT
QC5
%ENDBLOCK SPECIES_POT

SNAP_TO_SYMMETRY
SYMMETRY_GENERATE

