#              Generated by Buildcell
#
# at 09:43:28 (GMT+1.0) 4th August 2020
# in /lustre/scratch/uccabz1/launch_tmp
# on node-c12k-036
# by uccabz1
#
# compiler GCC version 4.9.2
# options -cpp -iprefix /lustre/shared/ucl/apps/gcc/4.9.2/bin/../lib/gcc/x86_64-unknown-linux-gnu/4.9.2/ -mtune=corei7 -march=x86-64 -g -Og
#
# seed   960198566  -656821905 -1321374024  -501612560   376611108  -691991920 -1195596586   964605511  -268119640   120026081  1971477248 -1610642238
#
#      Author: C. J. Pickard (cjp20@cam.ac.uk)
#                Space group: Pm
#

%BLOCK LATTICE_ABC
      6.17373      6.56316     10.09089
     90.00000     90.00000    101.95965
%ENDBLOCK LATTICE_ABC

%BLOCK POSITIONS_FRAC
  Li   0.2650514   0.2964247  -0.5000000 SPIN=   0.00000
  Li  -0.3404035  -0.3354202   0.0000000 SPIN=   0.00000
  Li  -0.2972659  -0.2466905  -0.5000000 SPIN=   0.00000
  Li   0.1852086   0.0451002  -0.0000000 SPIN=   0.00000
  Fe   0.0865714  -0.4697792   0.1889908 SPIN=   1.60351
  Fe   0.0865714  -0.4697792  -0.1889908 SPIN=   1.60351
  Fe   0.2280668  -0.1742629  -0.5000000 SPIN=   9.60922
  Fe  -0.2392583   0.2997995  -0.5000000 SPIN=   3.18376
   O   0.0787496   0.2133430   0.2557003 SPIN=   0.00000
   O  -0.0443904  -0.1072439   0.3880229 SPIN=   0.00000
   O   0.1138162  -0.1282582   0.1643096 SPIN=   0.00000
   O  -0.2564328  -0.0436033   0.1895718 SPIN=   0.00000
   S  -0.0270643  -0.0164406   0.2494011 SPIN=   0.00000
   O   0.0787496   0.2133430  -0.2557003 SPIN=   0.00000
   O  -0.0443904  -0.1072439  -0.3880229 SPIN=   0.00000
   O   0.1138162  -0.1282582  -0.1643096 SPIN=   0.00000
   O  -0.2564328  -0.0436033  -0.1895718 SPIN=   0.00000
   S  -0.0270643  -0.0164406  -0.2494011 SPIN=   0.00000
   O  -0.2273032   0.3175039  -0.1831806 SPIN=   0.00000
   O  -0.4356976   0.6008591  -0.1970560 SPIN=   0.00000
   O  -0.6197649   0.2537575  -0.1131503 SPIN=   0.00000
   O  -0.5231033   0.3011974  -0.3507600 SPIN=   0.00000
   S  -0.4514673   0.3683295  -0.2110367 SPIN=   0.00000
   O  -0.2273032   0.3175039   0.1831806 SPIN=   0.00000
   O  -0.4356976   0.6008591   0.1970560 SPIN=   0.00000
   O  -0.6197649   0.2537575   0.1131503 SPIN=   0.00000
   O  -0.5231033   0.3011974   0.3507600 SPIN=   0.00000
   S  -0.4514673   0.3683295   0.2110367 SPIN=   0.00000
   F   0.4485862  -0.1097326  -0.0000000 SPIN=   0.00000
   F   0.0618552  -0.4856221  -0.5000000 SPIN=   0.00000
   F  -0.4536104   0.0086945  -0.5000000 SPIN=   0.00000
   F   0.0620343   0.3997609   0.0000000 SPIN=   0.00000
%ENDBLOCK POSITIONS_FRAC

# Note: total spin =  16.00

KPOINTS_MP_SPACING 0.07

%BLOCK SPECIES_POT
QC5
%ENDBLOCK SPECIES_POT

SNAP_TO_SYMMETRY
SYMMETRY_GENERATE

