#              Generated by Buildcell
#
# at 06:31:29 (GMT+1.0) 4th August 2020
# in /lustre/scratch/uccabz1/launch_tmp
# on node-c12k-032
# by uccabz1
#
# compiler GCC version 4.9.2
# options -cpp -iprefix /lustre/shared/ucl/apps/gcc/4.9.2/bin/../lib/gcc/x86_64-unknown-linux-gnu/4.9.2/ -mtune=corei7 -march=x86-64 -g -Og
#
# seed   484914339  1700400500 -1930689659  1202131852  -724343927  1798851454  -379464594   -77205245 -2096927173  -897637191 -1103173901  2134674531
#
#      Author: C. J. Pickard (cjp20@cam.ac.uk)
#                Space group: Fdd2
#

%BLOCK LATTICE_ABC
      7.66513      7.66513      8.68506
    115.89749    115.89749     90.58690
%ENDBLOCK LATTICE_ABC

%BLOCK POSITIONS_FRAC
  Li   0.4310338   0.2514749  -0.0164752 SPIN=   0.00000
  Li  -0.4475090  -0.2679502  -0.0164752 SPIN=   0.00000
  Li  -0.0179502   0.3024910   0.4835248 SPIN=   0.00000
  Li  -0.4985251   0.1810338   0.4835248 SPIN=   0.00000
  Fe   0.1770261  -0.0215465   0.4818676 SPIN=   4.00000
  Fe   0.3048416  -0.4965859   0.4818676 SPIN=   4.00000
  Fe  -0.2465859   0.0548416  -0.0181324 SPIN=   4.00000
  Fe   0.2284535  -0.0729739  -0.0181324 SPIN=   4.00000
   O  -0.2254331  -0.6164472   0.2500081 SPIN=   0.00000
   O   0.0583305  -0.3296758   0.4059846 SPIN=   0.00000
   O  -0.2836458  -0.3329369   0.1844335 SPIN=   0.00000
   O  -0.1027309  -0.5650974   0.0487318 SPIN=   0.00000
   S  -0.1383698  -0.4610393   0.2222895 SPIN=   0.00000
   O   0.4754413  -0.1335447   0.2500081 SPIN=   0.00000
   O   0.3476541  -0.2643397   0.4059846 SPIN=   0.00000
   O   0.4680793  -0.4826296   0.1844335 SPIN=   0.00000
   O   0.1514627  -0.3861707   0.0487318 SPIN=   0.00000
   S   0.3606593  -0.3166712   0.2222895 SPIN=   0.00000
   O   0.1164553   0.2254413  -0.2499919 SPIN=   0.00000
   O  -0.0143397   0.0976541  -0.0940154 SPIN=   0.00000
   O  -0.2326296   0.2180793  -0.3155665 SPIN=   0.00000
   O  -0.1361707  -0.0985373  -0.4512682 SPIN=   0.00000
   S  -0.0666712   0.1106593  -0.2777105 SPIN=   0.00000
   O  -0.3664472  -0.4754331  -0.2499919 SPIN=   0.00000
   O  -0.0796758  -0.1916695  -0.0940154 SPIN=   0.00000
   O  -0.0829369  -0.5336458  -0.3155665 SPIN=   0.00000
   O  -0.3150974  -0.3527309  -0.4512682 SPIN=   0.00000
   S  -0.2110393  -0.3883698  -0.2777105 SPIN=   0.00000
   F  -0.1039771   0.0283091   0.2475998 SPIN=   0.00000
   F   0.3515769   0.2192907   0.2475998 SPIN=   0.00000
   F   0.4692907   0.1015769  -0.2524002 SPIN=   0.00000
   F   0.2783091  -0.3539771  -0.2524002 SPIN=   0.00000
%ENDBLOCK POSITIONS_FRAC

# Note: total spin =  16.00

KPOINTS_MP_SPACING 0.07

%BLOCK SPECIES_POT
QC5
%ENDBLOCK SPECIES_POT

SNAP_TO_SYMMETRY
SYMMETRY_GENERATE

