#              Generated by Buildcell
#
# at 05:53:55 (GMT+1.0) 4th August 2020
# in /lustre/scratch/uccabz1/launch_tmp
# on node-c12j-016
# by uccabz1
#
# compiler GCC version 4.9.2
# options -cpp -iprefix /lustre/shared/ucl/apps/gcc/4.9.2/bin/../lib/gcc/x86_64-unknown-linux-gnu/4.9.2/ -mtune=corei7 -march=x86-64 -g -Og
#
# seed -2105100582  1462706951 -1781653164  1242654028   424728238  1202417075 -1228491894   721563289  1543361810  1524746216   758327175  1599505912
#
#      Author: C. J. Pickard (cjp20@cam.ac.uk)
#                Space group: P21
#

%BLOCK LATTICE_ABC
      4.77825      6.71268     13.00404
     90.00000     90.00000    106.46437
%ENDBLOCK LATTICE_ABC

%BLOCK POSITIONS_FRAC
  Li  -0.4821299   0.0272062  -0.0969888 SPIN=   0.00000
  Li   0.4821299  -0.0272062   0.4030112 SPIN=   0.00000
  Li  -0.1631335  -0.3585433   0.0203224 SPIN=   0.00000
  Li   0.1631335   0.3585433  -0.4796776 SPIN=   0.00000
  Fe   0.2182618   0.3441874  -0.0116460 SPIN=   4.28364
  Fe  -0.2182618  -0.3441874   0.4883540 SPIN=   4.28364
  Fe   0.0308918  -0.1249769   0.2242136 SPIN=   3.71636
  Fe  -0.0308918   0.1249769  -0.2757864 SPIN=   3.71636
   O   0.5271949  -0.2167890   0.2815538 SPIN=   0.00000
   O   0.1390430  -0.4934680   0.1977274 SPIN=   0.00000
   O   0.3078160  -0.5480591   0.3726262 SPIN=   0.00000
   O   0.6303894  -0.5394975   0.2227973 SPIN=   0.00000
   S   0.4011108  -0.4494534   0.2686762 SPIN=   0.00000
   O  -0.5271949   0.2167890  -0.2184462 SPIN=   0.00000
   O  -0.1390430   0.4934680  -0.3022726 SPIN=   0.00000
   O  -0.3078160   0.5480591  -0.1273738 SPIN=   0.00000
   O  -0.6303894   0.5394975  -0.2772027 SPIN=   0.00000
   S  -0.4011108   0.4494534  -0.2313238 SPIN=   0.00000
   O   0.3047905   0.0420042  -0.4377006 SPIN=   0.00000
   O   0.2011511  -0.3404759  -0.4305760 SPIN=   0.00000
   O   0.2619375  -0.1364460  -0.2694478 SPIN=   0.00000
   O   0.6886647  -0.1156135  -0.3811374 SPIN=   0.00000
   S   0.3641359  -0.1376328  -0.3797155 SPIN=   0.00000
   O  -0.3047905  -0.0420042   0.0622994 SPIN=   0.00000
   O  -0.2011511   0.3404759   0.0694240 SPIN=   0.00000
   O  -0.2619375   0.1364460   0.2305522 SPIN=   0.00000
   O  -0.6886647   0.1156135   0.1188626 SPIN=   0.00000
   S  -0.3641359   0.1376328   0.1202845 SPIN=   0.00000
   F  -0.0709136   0.0374983  -0.1340535 SPIN=   0.00000
   F   0.0709136  -0.0374983   0.3659465 SPIN=   0.00000
   F   0.2559872  -0.3622601  -0.0079011 SPIN=   0.00000
   F  -0.2559872   0.3622601   0.4920989 SPIN=   0.00000
%ENDBLOCK POSITIONS_FRAC

# Note: total spin =  16.00

KPOINTS_MP_SPACING 0.07

%BLOCK SPECIES_POT
QC5
%ENDBLOCK SPECIES_POT

SNAP_TO_SYMMETRY
SYMMETRY_GENERATE

