#              Generated by Buildcell
#
# at 23:26:36 (GMT+1.0) 17th August 2020
# in /lustre/scratch/uccabz1/launch_tmp
# on node-c12e-007
# by uccabz1
#
# compiler GCC version 4.9.2
# options -cpp -iprefix /lustre/shared/ucl/apps/gcc/4.9.2/bin/../lib/gcc/x86_64-unknown-linux-gnu/4.9.2/ -mtune=corei7 -march=x86-64 -g -Og
#
# seed -2068352209 -2059644424 -1383186817 -1418639310   -54928405   408109549   252820520 -2010529648   362942257    60675181   705764547 -1833715120
#
#      Author: C. J. Pickard (cjp20@cam.ac.uk)
#                Space group: P212121
#

%BLOCK LATTICE_ABC
      5.01122      6.92726     11.52273
     90.00000     90.00000     90.00000
%ENDBLOCK LATTICE_ABC

%BLOCK POSITIONS_FRAC
  Li  -0.1201851   0.1528423  -0.0598312 SPIN=   0.00000
  Li   0.3798149  -0.1528423  -0.4401688 SPIN=   0.00000
  Li  -0.3798149  -0.3471577   0.0598312 SPIN=   0.00000
  Li   0.1201851   0.3471577   0.4401688 SPIN=   0.00000
  Fe   0.0263412   0.3761193   0.1648915 SPIN=   4.00000
  Fe  -0.4736588  -0.3761193   0.3351085 SPIN=   4.00000
  Fe   0.4736588  -0.1238807  -0.1648915 SPIN=   4.00000
  Fe  -0.0263412   0.1238807  -0.3351085 SPIN=   4.00000
   O  -0.1595057  -0.0194985   0.2506990 SPIN=   0.00000
   O  -0.3210135   0.2769359   0.3478511 SPIN=   0.00000
   O   0.0275004   0.0766366   0.4409008 SPIN=   0.00000
   O  -0.4364597  -0.0438815   0.4279247 SPIN=   0.00000
   S  -0.2223696   0.0725481   0.3668439 SPIN=   0.00000
   O   0.3404943   0.0194985   0.2493010 SPIN=   0.00000
   O   0.1789865  -0.2769359   0.1521489 SPIN=   0.00000
   O   0.5275004  -0.0766366   0.0590992 SPIN=   0.00000
   O   0.0635403   0.0438815   0.0720753 SPIN=   0.00000
   S   0.2776304  -0.0725481   0.1331561 SPIN=   0.00000
   O  -0.3404943  -0.5194985  -0.2506990 SPIN=   0.00000
   O  -0.1789865  -0.2230641  -0.3478511 SPIN=   0.00000
   O  -0.5275004  -0.4233634  -0.4409008 SPIN=   0.00000
   O  -0.0635403  -0.5438815  -0.4279247 SPIN=   0.00000
   S  -0.2776304  -0.4274519  -0.3668439 SPIN=   0.00000
   O   0.1595057   0.5194985  -0.2493010 SPIN=   0.00000
   O   0.3210135   0.2230641  -0.1521489 SPIN=   0.00000
   O  -0.0275004   0.4233634  -0.0590992 SPIN=   0.00000
   O   0.4364597   0.5438815  -0.0720753 SPIN=   0.00000
   S   0.2223696   0.4274519  -0.1331561 SPIN=   0.00000
   F   0.0134208  -0.0866058  -0.1508150 SPIN=   0.00000
   F  -0.4865792   0.0866058  -0.3491850 SPIN=   0.00000
   F   0.4865792   0.4133942   0.1508150 SPIN=   0.00000
   F  -0.0134208  -0.4133942   0.3491850 SPIN=   0.00000
%ENDBLOCK POSITIONS_FRAC

# Note: total spin =  16.00

KPOINTS_MP_SPACING 0.07

%BLOCK SPECIES_POT
QC5
%ENDBLOCK SPECIES_POT

SNAP_TO_SYMMETRY
SYMMETRY_GENERATE

