#              Generated by Buildcell
#
# at 17:21:21 (GMT+1.0) 18th August 2020
# in /lustre/scratch/uccabz1/launch_tmp
# on node-c12g-001
# by uccabz1
#
# compiler GCC version 4.9.2
# options -cpp -iprefix /lustre/shared/ucl/apps/gcc/4.9.2/bin/../lib/gcc/x86_64-unknown-linux-gnu/4.9.2/ -mtune=corei7 -march=x86-64 -g -Og
#
# seed  -421586182  1621823227  -280158488 -1788848940 -1171308262  1306520409  -477177204   207230482  1101651422   592997972   384971453 -1927174587
#
#      Author: C. J. Pickard (cjp20@cam.ac.uk)
#                Space group: Pcc2
#

%BLOCK LATTICE_ABC
      6.50887      6.59945      9.31207
     90.00000     90.00000     90.00000
%ENDBLOCK LATTICE_ABC

%BLOCK POSITIONS_FRAC
  Li  -0.3234247  -0.4451722   0.1547525 SPIN=   0.00000
  Li   0.3234247  -0.4451722  -0.1547525 SPIN=   0.00000
  Li   0.3234247   0.0548278   0.1547525 SPIN=   0.00000
  Li  -0.3234247   0.0548278  -0.1547525 SPIN=   0.00000
  Fe   0.2498932  -0.1890298  -0.4134453 SPIN=   4.00000
  Fe  -0.2498932  -0.1890298   0.4134453 SPIN=   4.00000
  Fe  -0.2498932   0.3109702  -0.4134453 SPIN=   4.00000
  Fe   0.2498932   0.3109702   0.4134453 SPIN=   4.00000
   O   0.3910730  -0.0646567  -0.0932007 SPIN=   0.00000
   O   0.0798410   0.0327122  -0.2293902 SPIN=   0.00000
   O   0.3821958   0.2600559  -0.2260115 SPIN=   0.00000
   O   0.1718224   0.2164286  -0.0067953 SPIN=   0.00000
   S   0.2562331   0.1111350  -0.1388494 SPIN=   0.00000
   O  -0.3910730  -0.0646567   0.0932007 SPIN=   0.00000
   O  -0.0798410   0.0327122   0.2293902 SPIN=   0.00000
   O  -0.3821958   0.2600559   0.2260115 SPIN=   0.00000
   O  -0.1718224   0.2164286   0.0067953 SPIN=   0.00000
   S  -0.2562331   0.1111350   0.1388494 SPIN=   0.00000
   O  -0.3910730  -0.5646567  -0.0932007 SPIN=   0.00000
   O  -0.0798410  -0.4672878  -0.2293902 SPIN=   0.00000
   O  -0.3821958  -0.2399441  -0.2260115 SPIN=   0.00000
   O  -0.1718224  -0.2835714  -0.0067953 SPIN=   0.00000
   S  -0.2562331  -0.3888650  -0.1388494 SPIN=   0.00000
   O   0.3910730  -0.5646567   0.0932007 SPIN=   0.00000
   O   0.0798410  -0.4672878   0.2293902 SPIN=   0.00000
   O   0.3821958  -0.2399441   0.2260115 SPIN=   0.00000
   O   0.1718224  -0.2835714   0.0067953 SPIN=   0.00000
   S   0.2562331  -0.3888650   0.1388494 SPIN=   0.00000
   F  -0.2486240  -0.4596460   0.3768592 SPIN=   0.00000
   F   0.2486240  -0.4596460  -0.3768592 SPIN=   0.00000
   F   0.2486240   0.0403540   0.3768592 SPIN=   0.00000
   F  -0.2486240   0.0403540  -0.3768592 SPIN=   0.00000
%ENDBLOCK POSITIONS_FRAC

# Note: total spin =  16.00

KPOINTS_MP_SPACING 0.07

%BLOCK SPECIES_POT
QC5
%ENDBLOCK SPECIES_POT

SNAP_TO_SYMMETRY
SYMMETRY_GENERATE

