#              Generated by Buildcell
#
# at 16:13:26 (GMT+1.0) 18th August 2020
# in /lustre/scratch/uccabz1/launch_tmp
# on node-c12p-018
# by uccabz1
#
# compiler GCC version 4.9.2
# options -cpp -iprefix /lustre/shared/ucl/apps/gcc/4.9.2/bin/../lib/gcc/x86_64-unknown-linux-gnu/4.9.2/ -mtune=corei7 -march=x86-64 -g -Og
#
# seed  1071540694  2031123380  -305145988   378148525  1416597547  -476691864  2019338437  -242315020    82771323   507301944  -724950022  1403391882
#
#      Author: C. J. Pickard (cjp20@cam.ac.uk)
#                Space group: P21/c
#

%BLOCK LATTICE_ABC
      5.83598      8.28785      8.87643
    111.30202     90.00000     90.00000
%ENDBLOCK LATTICE_ABC

%BLOCK POSITIONS_FRAC
  Li  -0.0078474  -0.4152262  -0.2227039 SPIN=   0.00000
  Li   0.4921526  -0.0847738  -0.2772961 SPIN=   0.00000
  Li   0.0078474   0.4152262   0.2227039 SPIN=   0.00000
  Li  -0.4921526   0.0847738   0.2772961 SPIN=   0.00000
  Fe  -0.2565658   0.3113452  -0.1199747 SPIN=   4.00000
  Fe   0.2434342   0.1886548  -0.3800253 SPIN=   4.00000
  Fe   0.2565658  -0.3113452   0.1199747 SPIN=   4.00000
  Fe  -0.2434342  -0.1886548   0.3800253 SPIN=   4.00000
   O   0.3946015   0.2338446  -0.1077402 SPIN=   0.00000
   O   0.3151878  -0.0395540  -0.0646514 SPIN=   0.00000
   O  -0.0011047   0.1639762  -0.0517040 SPIN=   0.00000
   O   0.2913026   0.2406007   0.1649034 SPIN=   0.00000
   S   0.2499968   0.1497169  -0.0147981 SPIN=   0.00000
   O  -0.1053985   0.2661554  -0.3922598 SPIN=   0.00000
   O  -0.1848122   0.5395540  -0.4353486 SPIN=   0.00000
   O  -0.5011047   0.3360238  -0.4482960 SPIN=   0.00000
   O  -0.2086974   0.2593993  -0.6649034 SPIN=   0.00000
   S  -0.2500032   0.3502831  -0.4852019 SPIN=   0.00000
   O  -0.3946015  -0.2338446   0.1077402 SPIN=   0.00000
   O  -0.3151878   0.0395540   0.0646514 SPIN=   0.00000
   O   0.0011047  -0.1639762   0.0517040 SPIN=   0.00000
   O  -0.2913026  -0.2406007  -0.1649034 SPIN=   0.00000
   S  -0.2499968  -0.1497169   0.0147981 SPIN=   0.00000
   O   0.1053985  -0.2661554   0.3922598 SPIN=   0.00000
   O   0.1848122  -0.5395540   0.4353486 SPIN=   0.00000
   O   0.5011047  -0.3360238   0.4482960 SPIN=   0.00000
   O   0.2086974  -0.2593993   0.6649034 SPIN=   0.00000
   S   0.2500032  -0.3502831   0.4852019 SPIN=   0.00000
   F   0.1816609   0.0161788   0.3326477 SPIN=   0.00000
   F  -0.3183391   0.4838212   0.1673523 SPIN=   0.00000
   F  -0.1816609  -0.0161788  -0.3326477 SPIN=   0.00000
   F   0.3183391  -0.4838212  -0.1673523 SPIN=   0.00000
%ENDBLOCK POSITIONS_FRAC

# Note: total spin =  16.00

KPOINTS_MP_SPACING 0.07

%BLOCK SPECIES_POT
QC5
%ENDBLOCK SPECIES_POT

SNAP_TO_SYMMETRY
SYMMETRY_GENERATE

