#              Generated by Buildcell
#
# at 06:04:02 (GMT+1.0) 4th August 2020
# in /lustre/scratch/uccabz1/launch_tmp
# on node-c12p-017
# by uccabz1
#
# compiler GCC version 4.9.2
# options -cpp -iprefix /lustre/shared/ucl/apps/gcc/4.9.2/bin/../lib/gcc/x86_64-unknown-linux-gnu/4.9.2/ -mtune=corei7 -march=x86-64 -g -Og
#
# seed   149385055  -312810857  1403278151   376365427   281203337  1528333546 -2123517522   418123818  1389837533   438322305  2012596819 -1388945076
#
#      Author: C. J. Pickard (cjp20@cam.ac.uk)
#                Space group: P2
#

%BLOCK LATTICE_ABC
      4.38970      6.98925     13.05419
     92.89684     90.00000     90.00000
%ENDBLOCK LATTICE_ABC

%BLOCK POSITIONS_FRAC
  Li   0.1864178  -0.4593386   0.2684390 SPIN=   0.00000
  Li   0.1864178   0.4593386  -0.2684390 SPIN=   0.00000
  Li   0.2326141   0.5000000  -0.0000000 SPIN=   0.00000
  Li   0.2175112   0.0000000   0.5000000 SPIN=   0.00000
  Fe  -0.3361835  -0.2283916  -0.3637235 SPIN=   5.11804
  Fe  -0.3361835   0.2283916   0.3637235 SPIN=   5.11804
  Fe  -0.4994131   0.1455808  -0.1333865 SPIN=   2.88196
  Fe  -0.4994131  -0.1455808   0.1333865 SPIN=   2.88196
   O  -0.6352802  -0.3495404   0.4396763 SPIN=   0.00000
   O  -0.2685182  -0.3891355   0.2961839 SPIN=   0.00000
   O  -0.1348568  -0.1866981   0.4506742 SPIN=   0.00000
   O  -0.5275557  -0.0780067   0.3306242 SPIN=   0.00000
   S  -0.3915527  -0.2508452   0.3792896 SPIN=   0.00000
   O  -0.6352802   0.3495404  -0.4396763 SPIN=   0.00000
   O  -0.2685182   0.3891355  -0.2961839 SPIN=   0.00000
   O  -0.1348568   0.1866981  -0.4506742 SPIN=   0.00000
   O  -0.5275557   0.0780067  -0.3306242 SPIN=   0.00000
   S  -0.3915527   0.2508452  -0.3792896 SPIN=   0.00000
   O  -0.5021674  -0.2256422  -0.0207052 SPIN=   0.00000
   O  -0.4552770  -0.5255951  -0.1286644 SPIN=   0.00000
   O  -0.0028055  -0.3206504  -0.0951408 SPIN=   0.00000
   O  -0.4155330  -0.2119104  -0.2075227 SPIN=   0.00000
   S  -0.3439457  -0.3209495  -0.1130083 SPIN=   0.00000
   O  -0.5021674   0.2256422   0.0207052 SPIN=   0.00000
   O  -0.4552770   0.5255951   0.1286644 SPIN=   0.00000
   O  -0.0028055   0.3206504   0.0951408 SPIN=   0.00000
   O  -0.4155330   0.2119104   0.2075227 SPIN=   0.00000
   S  -0.3439457   0.3209495   0.1130083 SPIN=   0.00000
   F   0.0396167   0.1579274  -0.1349329 SPIN=   0.00000
   F   0.0396167  -0.1579274   0.1349329 SPIN=   0.00000
   F   0.1130230   0.2952910   0.3564929 SPIN=   0.00000
   F   0.1130230  -0.2952910  -0.3564929 SPIN=   0.00000
%ENDBLOCK POSITIONS_FRAC

# Note: total spin =  16.00

KPOINTS_MP_SPACING 0.07

%BLOCK SPECIES_POT
QC5
%ENDBLOCK SPECIES_POT

SNAP_TO_SYMMETRY
SYMMETRY_GENERATE

