#              Generated by Buildcell
#
# at 01:27:02 (GMT+1.0) 18th August 2020
# in /lustre/scratch/uccabz1/launch_tmp
# on node-c12e-015
# by uccabz1
#
# compiler GCC version 4.9.2
# options -cpp -iprefix /lustre/shared/ucl/apps/gcc/4.9.2/bin/../lib/gcc/x86_64-unknown-linux-gnu/4.9.2/ -mtune=corei7 -march=x86-64 -g -Og
#
# seed  -288890728  -752071261 -1993907369 -1890825354  -438326950  -823498568   291480483  1268009805  1516113841  -919403173 -1757220293 -1776205750
#
#      Author: C. J. Pickard (cjp20@cam.ac.uk)
#                Space group: Pc
#

%BLOCK LATTICE_ABC
      4.05429      8.85975     11.13594
     90.00000     90.21242     90.00000
%ENDBLOCK LATTICE_ABC

%BLOCK POSITIONS_FRAC
  Li  -0.0226891   0.2440529   0.3278950 SPIN=   0.00000
  Li  -0.0226891  -0.2440529  -0.1721050 SPIN=   0.00000
  Li  -0.4390116  -0.1005180  -0.4774507 SPIN=   0.00000
  Li  -0.4390116   0.1005180   0.0225493 SPIN=   0.00000
  Fe   0.3320263  -0.0500301   0.2574791 SPIN=   4.69849
  Fe   0.3320263   0.0500301  -0.2425209 SPIN=   4.69849
  Fe  -0.0184180  -0.4129679   0.3791928 SPIN=   3.30151
  Fe  -0.0184180   0.4129679  -0.1208072 SPIN=   3.30151
   O   0.6446895  -0.2267796   0.1188742 SPIN=   0.00000
   O   0.6427327  -0.3671484  -0.0732721 SPIN=   0.00000
   O   0.5116437  -0.0943454  -0.0708934 SPIN=   0.00000
   O   0.1170744  -0.2783309   0.0141848 SPIN=   0.00000
   S   0.4790351  -0.2416511  -0.0027766 SPIN=   0.00000
   O   0.6446895   0.2267796   0.6188742 SPIN=   0.00000
   O   0.6427327   0.3671484   0.4267279 SPIN=   0.00000
   O   0.5116437   0.0943454   0.4291066 SPIN=   0.00000
   O   0.1170744   0.2783309   0.5141848 SPIN=   0.00000
   S   0.4790351   0.2416511   0.4972234 SPIN=   0.00000
   O  -0.6056926   0.3927578   0.0480258 SPIN=   0.00000
   O  -0.0860127   0.3957454   0.1653004 SPIN=   0.00000
   O  -0.5564478   0.2400487   0.2333191 SPIN=   0.00000
   O  -0.5862144   0.5185712   0.2463494 SPIN=   0.00000
   S  -0.4585919   0.3867808   0.1732487 SPIN=   0.00000
   O  -0.6056926  -0.3927578  -0.4519742 SPIN=   0.00000
   O  -0.0860127  -0.3957454  -0.3346996 SPIN=   0.00000
   O  -0.5564478  -0.2400487  -0.2666809 SPIN=   0.00000
   O  -0.5862144  -0.5185712  -0.2536506 SPIN=   0.00000
   S  -0.4585919  -0.3867808  -0.3267513 SPIN=   0.00000
   F  -0.0084478  -0.0410027  -0.3642918 SPIN=   0.00000
   F  -0.0084478   0.0410027   0.1357082 SPIN=   0.00000
   F  -0.3622094   0.2070462  -0.1335177 SPIN=   0.00000
   F  -0.3622094  -0.2070462   0.3664823 SPIN=   0.00000
%ENDBLOCK POSITIONS_FRAC

# Note: total spin =  16.00

KPOINTS_MP_SPACING 0.07

%BLOCK SPECIES_POT
QC5
%ENDBLOCK SPECIES_POT

SNAP_TO_SYMMETRY
SYMMETRY_GENERATE

