#              Generated by Buildcell
#
# at 05:56:52 (GMT+1.0) 4th August 2020
# in /lustre/scratch/uccabz1/launch_tmp
# on node-c12k-001
# by uccabz1
#
# compiler GCC version 4.9.2
# options -cpp -iprefix /lustre/shared/ucl/apps/gcc/4.9.2/bin/../lib/gcc/x86_64-unknown-linux-gnu/4.9.2/ -mtune=corei7 -march=x86-64 -g -Og
#
# seed  -864419371  -989980493  1772777095   488286568   977949624   362260573 -1494035751   303749850 -1490398100  -312088737  -109596838 -1224014330
#
#      Author: C. J. Pickard (cjp20@cam.ac.uk)
#                Space group: P21212
#

%BLOCK LATTICE_ABC
      3.82270      8.31616     12.58250
     90.00000     90.00000     90.00000
%ENDBLOCK LATTICE_ABC

%BLOCK POSITIONS_FRAC
  Li  -0.0345335   0.3910705  -0.1549000 SPIN=   0.00000
  Li   0.0345335   0.3910705   0.1549000 SPIN=   0.00000
  Li  -0.4654665  -0.3910705   0.3451000 SPIN=   0.00000
  Li   0.4654665  -0.3910705  -0.3451000 SPIN=   0.00000
  Fe   0.2500557   0.2726064   0.3769586 SPIN=   4.00000
  Fe  -0.2500557   0.2726064  -0.3769586 SPIN=   4.00000
  Fe   0.2499443  -0.2726064  -0.1230414 SPIN=   4.00000
  Fe  -0.2499443  -0.2726064   0.1230414 SPIN=   4.00000
   O   0.2438294  -0.2376041   0.4408812 SPIN=   0.00000
   O  -0.1363958  -0.0056007   0.3980913 SPIN=   0.00000
   O  -0.1366853  -0.2456546   0.2818374 SPIN=   0.00000
   O   0.3786115  -0.0655861   0.2856877 SPIN=   0.00000
   S   0.0873399  -0.1386114   0.3516244 SPIN=   0.00000
   O  -0.2438294  -0.2376041  -0.4408812 SPIN=   0.00000
   O   0.1363958  -0.0056007  -0.3980913 SPIN=   0.00000
   O   0.1366853  -0.2456546  -0.2818374 SPIN=   0.00000
   O  -0.3786115  -0.0655861  -0.2856877 SPIN=   0.00000
   S  -0.0873399  -0.1386114  -0.3516244 SPIN=   0.00000
   O   0.2561706   0.2376041  -0.0591188 SPIN=   0.00000
   O   0.6363958   0.0056007  -0.1019087 SPIN=   0.00000
   O   0.6366853   0.2456546  -0.2181626 SPIN=   0.00000
   O   0.1213885   0.0655861  -0.2143123 SPIN=   0.00000
   S   0.4126601   0.1386114  -0.1483756 SPIN=   0.00000
   O  -0.2561706   0.2376041   0.0591188 SPIN=   0.00000
   O  -0.6363958   0.0056007   0.1019087 SPIN=   0.00000
   O  -0.6366853   0.2456546   0.2181626 SPIN=   0.00000
   O  -0.1213885   0.0655861   0.2143123 SPIN=   0.00000
   S  -0.4126601   0.1386114   0.1483756 SPIN=   0.00000
   F  -0.2733704  -0.4226556  -0.1318017 SPIN=   0.00000
   F   0.2733704  -0.4226556   0.1318017 SPIN=   0.00000
   F  -0.2266296   0.4226556   0.3681983 SPIN=   0.00000
   F   0.2266296   0.4226556  -0.3681983 SPIN=   0.00000
%ENDBLOCK POSITIONS_FRAC

# Note: total spin =  16.00

KPOINTS_MP_SPACING 0.07

%BLOCK SPECIES_POT
QC5
%ENDBLOCK SPECIES_POT

SNAP_TO_SYMMETRY
SYMMETRY_GENERATE

