#              Generated by Buildcell
#
# at 15:35:26 (GMT+1.0) 18th August 2020
# in /lustre/scratch/uccabz1/launch_tmp
# on node-c12j-023
# by uccabz1
#
# compiler GCC version 4.9.2
# options -cpp -iprefix /lustre/shared/ucl/apps/gcc/4.9.2/bin/../lib/gcc/x86_64-unknown-linux-gnu/4.9.2/ -mtune=corei7 -march=x86-64 -g -Og
#
# seed -1010625899  1794014838  1445030272 -1588879910  -691944275 -1255852969 -1682053778  2055428983 -1453912873   863885294   -98623495   747448289
#
#      Author: C. J. Pickard (cjp20@cam.ac.uk)
#                Space group: Pm
#

%BLOCK LATTICE_ABC
      7.03961      7.18963      7.91614
     90.00000     90.00000     93.27102
%ENDBLOCK LATTICE_ABC

%BLOCK POSITIONS_FRAC
  Li   0.4752754   0.0373369  -0.0000000 SPIN=   0.00000
  Li  -0.1471792  -0.3103672   0.0000000 SPIN=   0.00000
  Li   0.3413867  -0.4727904   0.0000000 SPIN=   0.00000
  Li   0.0581023   0.4373568  -0.5000000 SPIN=   0.00000
  Fe   0.2977777   0.2459618  -0.2648427 SPIN=   3.66206
  Fe   0.2977777   0.2459618   0.2648427 SPIN=   3.66206
  Fe   0.1456519  -0.2594301  -0.2640793 SPIN=   4.33794
  Fe   0.1456519  -0.2594301   0.2640793 SPIN=   4.33794
   O  -0.5322549  -0.2603632   0.1392338 SPIN=   0.00000
   O  -0.2963934  -0.3243730   0.3605421 SPIN=   0.00000
   O  -0.4542018  -0.0254628   0.3608162 SPIN=   0.00000
   O  -0.2174577  -0.0885133   0.1399911 SPIN=   0.00000
   S  -0.3750769  -0.1746781   0.2501458 SPIN=   0.00000
   O  -0.5322549  -0.2603632  -0.1392338 SPIN=   0.00000
   O  -0.2963934  -0.3243730  -0.3605421 SPIN=   0.00000
   O  -0.4542018  -0.0254628  -0.3608162 SPIN=   0.00000
   O  -0.2174577  -0.0885133  -0.1399911 SPIN=   0.00000
   S  -0.3750769  -0.1746781  -0.2501458 SPIN=   0.00000
   O  -0.0970186   0.4591272  -0.1411934 SPIN=   0.00000
   O  -0.3822786   0.2429654  -0.1642479 SPIN=   0.00000
   O  -0.0930563   0.1842883  -0.3291321 SPIN=   0.00000
   S  -0.2149156   0.3336902  -0.2597062 SPIN=   0.00000
   O  -0.0970186   0.4591272   0.1411934 SPIN=   0.00000
   O  -0.3822786   0.2429654   0.1642479 SPIN=   0.00000
   O  -0.0930563   0.1842883   0.3291321 SPIN=   0.00000
   S  -0.2149156   0.3336902   0.2597062 SPIN=   0.00000
   O  -0.3729998  -0.4996322   0.0000000 SPIN=   0.00000
   O   0.3026063  -0.2469107   0.5000000 SPIN=   0.00000
   F   0.1817861   0.0052064   0.2231280 SPIN=   0.00000
   F   0.1817861   0.0052064  -0.2231280 SPIN=   0.00000
   F   0.2464632  -0.4983905   0.2776514 SPIN=   0.00000
   F   0.2464632  -0.4983905  -0.2776514 SPIN=   0.00000
%ENDBLOCK POSITIONS_FRAC

# Note: total spin =  16.00

KPOINTS_MP_SPACING 0.07

%BLOCK SPECIES_POT
QC5
%ENDBLOCK SPECIES_POT

SNAP_TO_SYMMETRY
SYMMETRY_GENERATE

