#              Generated by Buildcell
#
# at 22:47:31 (GMT+1.0) 17th August 2020
# in /lustre/scratch/uccabz1/launch_tmp
# on node-c12l-029
# by uccabz1
#
# compiler GCC version 4.9.2
# options -cpp -iprefix /lustre/shared/ucl/apps/gcc/4.9.2/bin/../lib/gcc/x86_64-unknown-linux-gnu/4.9.2/ -mtune=corei7 -march=x86-64 -g -Og
#
# seed   795256750   770967526  1285382043  1470087857  1246971121   548063021 -1807562645  -160095603  1446932036 -1561054008  1035321558 -1391800813
#
#      Author: C. J. Pickard (cjp20@cam.ac.uk)
#                Space group: P21
#

%BLOCK LATTICE_ABC
      4.84530      8.75372      9.47227
     90.00000     90.00000     95.36626
%ENDBLOCK LATTICE_ABC

%BLOCK POSITIONS_FRAC
  Li   0.2991474   0.0145913   0.0520926 SPIN=   0.00000
  Li  -0.2991474  -0.0145913  -0.4479074 SPIN=   0.00000
  Li   0.4198452   0.4444846   0.0124453 SPIN=   0.00000
  Li  -0.4198452  -0.4444846  -0.4875547 SPIN=   0.00000
  Fe   0.1818143  -0.1272231  -0.2979031 SPIN=   3.33567
  Fe  -0.1818143   0.1272231   0.2020969 SPIN=   3.33567
  Fe   0.3358641   0.2318350   0.4888388 SPIN=   4.66433
  Fe  -0.3358641  -0.2318350  -0.0111612 SPIN=   4.66433
   O   0.0307583   0.3523942  -0.3470033 SPIN=   0.00000
   O   0.2538779   0.6176413  -0.3666278 SPIN=   0.00000
   O   0.4231266   0.4396207  -0.1904458 SPIN=   0.00000
   O  -0.0327496   0.5407532  -0.1576585 SPIN=   0.00000
   S   0.1687533   0.4876024  -0.2654339 SPIN=   0.00000
   O  -0.0307583  -0.3523942   0.1529967 SPIN=   0.00000
   O  -0.2538779  -0.6176413   0.1333722 SPIN=   0.00000
   O  -0.4231266  -0.4396207   0.3095542 SPIN=   0.00000
   O   0.0327496  -0.5407532   0.3423415 SPIN=   0.00000
   S  -0.1687533  -0.4876024   0.2345661 SPIN=   0.00000
   O  -0.0685925   0.0571111  -0.2597076 SPIN=   0.00000
   O  -0.2867535   0.0384153  -0.0233313 SPIN=   0.00000
   O  -0.5690241   0.0866992  -0.2336189 SPIN=   0.00000
   O  -0.2209678   0.2891660  -0.1453671 SPIN=   0.00000
   S  -0.2863345   0.1178479  -0.1655062 SPIN=   0.00000
   O   0.0685925  -0.0571111   0.2402924 SPIN=   0.00000
   O   0.2867535  -0.0384153   0.4766687 SPIN=   0.00000
   O   0.5690241  -0.0866992   0.2663811 SPIN=   0.00000
   O   0.2209678  -0.2891660   0.3546329 SPIN=   0.00000
   S   0.2863345  -0.1178479   0.3344938 SPIN=   0.00000
   F  -0.2212581  -0.2381120  -0.4135046 SPIN=   0.00000
   F   0.2212581   0.2381120   0.0864954 SPIN=   0.00000
   F   0.2752801  -0.1921919  -0.0513560 SPIN=   0.00000
   F  -0.2752801   0.1921919   0.4486440 SPIN=   0.00000
%ENDBLOCK POSITIONS_FRAC

# Note: total spin =  16.00

KPOINTS_MP_SPACING 0.07

%BLOCK SPECIES_POT
QC5
%ENDBLOCK SPECIES_POT

SNAP_TO_SYMMETRY
SYMMETRY_GENERATE

