#              Generated by Buildcell
#
# at 07:45:22 (GMT+1.0) 4th August 2020
# in /lustre/scratch/uccabz1/launch_tmp
# on node-c12l-034
# by uccabz1
#
# compiler GCC version 4.9.2
# options -cpp -iprefix /lustre/shared/ucl/apps/gcc/4.9.2/bin/../lib/gcc/x86_64-unknown-linux-gnu/4.9.2/ -mtune=corei7 -march=x86-64 -g -Og
#
# seed  -153328278  -280899124  1004732729  1785438581 -1036609416    58903289  2035738018  -465221568 -1379373773   374313561   -70234460  1364075847
#
#      Author: C. J. Pickard (cjp20@cam.ac.uk)
#                Space group: P21212
#

%BLOCK LATTICE_ABC
      5.60085      6.11028     11.68812
     90.00000     90.00000     90.00000
%ENDBLOCK LATTICE_ABC

%BLOCK POSITIONS_FRAC
  Li   0.2051402   0.4034361  -0.1527905 SPIN=   0.00000
  Li  -0.2051402   0.4034361   0.1527905 SPIN=   0.00000
  Li  -0.2948598  -0.4034361  -0.3472095 SPIN=   0.00000
  Li   0.2948598  -0.4034361   0.3472095 SPIN=   0.00000
  Fe  -0.0759109  -0.0303451   0.3485542 SPIN=   4.00000
  Fe   0.0759109  -0.0303451  -0.3485542 SPIN=   4.00000
  Fe   0.4240891   0.0303451   0.1514458 SPIN=   4.00000
  Fe  -0.4240891   0.0303451  -0.1514458 SPIN=   4.00000
   O   0.2653915  -0.4317428  -0.0066479 SPIN=   0.00000
   O   0.1838157  -0.7067523   0.1438097 SPIN=   0.00000
   O   0.0594345  -0.3217601   0.1716463 SPIN=   0.00000
   O   0.4881105  -0.4196402   0.1761216 SPIN=   0.00000
   S   0.2491881  -0.4699738   0.1212324 SPIN=   0.00000
   O  -0.2653915  -0.4317428   0.0066479 SPIN=   0.00000
   O  -0.1838157  -0.7067523  -0.1438097 SPIN=   0.00000
   O  -0.0594345  -0.3217601  -0.1716463 SPIN=   0.00000
   O  -0.4881105  -0.4196402  -0.1761216 SPIN=   0.00000
   S  -0.2491881  -0.4699738  -0.1212324 SPIN=   0.00000
   O  -0.2346085   0.4317428   0.5066479 SPIN=   0.00000
   O  -0.3161843   0.7067523   0.3561903 SPIN=   0.00000
   O  -0.4405655   0.3217601   0.3283537 SPIN=   0.00000
   O  -0.0118895   0.4196402   0.3238784 SPIN=   0.00000
   S  -0.2508119   0.4699738   0.3787676 SPIN=   0.00000
   O   0.2346085   0.4317428  -0.5066479 SPIN=   0.00000
   O   0.3161843   0.7067523  -0.3561903 SPIN=   0.00000
   O   0.4405655   0.3217601  -0.3283537 SPIN=   0.00000
   O   0.0118895   0.4196402  -0.3238784 SPIN=   0.00000
   S   0.2508119   0.4699738  -0.3787676 SPIN=   0.00000
   F   0.2499990   0.0922556  -0.1295370 SPIN=   0.00000
   F  -0.2499990   0.0922556   0.1295370 SPIN=   0.00000
   F  -0.2500010  -0.0922556  -0.3704630 SPIN=   0.00000
   F   0.2500010  -0.0922556   0.3704630 SPIN=   0.00000
%ENDBLOCK POSITIONS_FRAC

# Note: total spin =  16.00

KPOINTS_MP_SPACING 0.07

%BLOCK SPECIES_POT
QC5
%ENDBLOCK SPECIES_POT

SNAP_TO_SYMMETRY
SYMMETRY_GENERATE

