#              Generated by Buildcell
#
# at 14:34:03 (GMT+1.0) 18th August 2020
# in /lustre/scratch/uccabz1/launch_tmp
# on node-c12l-001
# by uccabz1
#
# compiler GCC version 4.9.2
# options -cpp -iprefix /lustre/shared/ucl/apps/gcc/4.9.2/bin/../lib/gcc/x86_64-unknown-linux-gnu/4.9.2/ -mtune=corei7 -march=x86-64 -g -Og
#
# seed  1155996781   270853882 -1565995295  -370812841  1567662936  1381024533  -674824239  1373084929  -626396144   549736209  -400157333 -1652439618
#
#      Author: C. J. Pickard (cjp20@cam.ac.uk)
#                Space group: P2
#

%BLOCK LATTICE_ABC
      4.81641      6.22475     13.37885
     94.26419     90.00000     90.00000
%ENDBLOCK LATTICE_ABC

%BLOCK POSITIONS_FRAC
  Li  -0.3783072   0.2642175   0.0858635 SPIN=   0.00000
  Li  -0.3783072  -0.2642175  -0.0858635 SPIN=   0.00000
  Li   0.1217604   0.1337841  -0.2131962 SPIN=   0.00000
  Li   0.1217604  -0.1337841   0.2131962 SPIN=   0.00000
  Fe  -0.2382099   0.1476440   0.3826888 SPIN=   3.83422
  Fe  -0.2382099  -0.1476440  -0.3826888 SPIN=   3.83422
  Fe   0.3180180   0.3147549  -0.4032523 SPIN=   4.16578
  Fe   0.3180180  -0.3147549   0.4032523 SPIN=   4.16578
   O   0.1216553   0.3491618   0.0578965 SPIN=   0.00000
   O   0.1216735   0.5525850   0.2240273 SPIN=   0.00000
   O   0.3785957   0.2084158   0.1993097 SPIN=   0.00000
   O  -0.1352468   0.2084135   0.1993179 SPIN=   0.00000
   S   0.1216694   0.3296440   0.1701379 SPIN=   0.00000
   O   0.1216553  -0.3491618  -0.0578965 SPIN=   0.00000
   O   0.1216735  -0.5525850  -0.2240273 SPIN=   0.00000
   O   0.3785957  -0.2084158  -0.1993097 SPIN=   0.00000
   O  -0.1352468  -0.2084135  -0.1993179 SPIN=   0.00000
   S   0.1216694  -0.3296440  -0.1701379 SPIN=   0.00000
   O  -0.1158259  -0.1070301   0.0688972 SPIN=   0.00000
   O  -0.3595601  -0.1194249   0.2312163 SPIN=   0.00000
   O  -0.4133220  -0.4190754   0.1003730 SPIN=   0.00000
   O  -0.6263878  -0.0644541   0.0771009 SPIN=   0.00000
   S  -0.3787739  -0.1774961   0.1193968 SPIN=   0.00000
   O  -0.1158259   0.1070301  -0.0688972 SPIN=   0.00000
   O  -0.3595601   0.1194249  -0.2312163 SPIN=   0.00000
   O  -0.4133220   0.4190754  -0.1003730 SPIN=   0.00000
   O  -0.6263878   0.0644541  -0.0771009 SPIN=   0.00000
   S  -0.3787739   0.1774961  -0.1193968 SPIN=   0.00000
   F   0.1194686   0.0421139  -0.3535139 SPIN=   0.00000
   F   0.1194686  -0.0421139   0.3535139 SPIN=   0.00000
   F  -0.3784192   0.4582927   0.3544848 SPIN=   0.00000
   F  -0.3784192  -0.4582927  -0.3544848 SPIN=   0.00000
%ENDBLOCK POSITIONS_FRAC

# Note: total spin =  16.00

KPOINTS_MP_SPACING 0.07

%BLOCK SPECIES_POT
QC5
%ENDBLOCK SPECIES_POT

SNAP_TO_SYMMETRY
SYMMETRY_GENERATE

