#              Generated by Buildcell
#
# at 07:57:41 (GMT+1.0) 18th August 2020
# in /lustre/scratch/uccabz1/launch_tmp
# on node-c12o-011
# by uccabz1
#
# compiler GCC version 4.9.2
# options -cpp -iprefix /lustre/shared/ucl/apps/gcc/4.9.2/bin/../lib/gcc/x86_64-unknown-linux-gnu/4.9.2/ -mtune=corei7 -march=x86-64 -g -Og
#
# seed  -764132831 -1142183334   -94792537   253751914 -1051215949  1487735253  1827843877 -2070123234 -1196945018   503587084  1460364790  1749086271
#
#      Author: C. J. Pickard (cjp20@cam.ac.uk)
#                Space group: Cc
#

%BLOCK LATTICE_ABC
      7.03274      7.90407      8.82878
    114.88442    113.47099     90.00000
%ENDBLOCK LATTICE_ABC

%BLOCK POSITIONS_FRAC
  Li   0.3654009  -0.0084336   0.2951480 SPIN=   0.00000
  Li  -0.0702529   0.4915664   0.2951480 SPIN=   0.00000
  Li   0.0631870  -0.0721815  -0.2176834 SPIN=   0.00000
  Li  -0.2808704  -0.5721815  -0.2176834 SPIN=   0.00000
  Fe  -0.2488247  -0.0387981   0.2333014 SPIN=   5.00110
  Fe   0.4821261   0.4612019   0.2333014 SPIN=   5.00110
  Fe   0.4636220   0.0870774  -0.1911395 SPIN=   2.99890
  Fe   0.3452384  -0.4129226  -0.1911395 SPIN=   2.99890
   O  -0.1063529  -0.6471946  -0.3815676 SPIN=   0.00000
   O  -0.0130964  -0.9654969  -0.4681350 SPIN=   0.00000
   O  -0.1179544  -0.8254169  -0.2114504 SPIN=   0.00000
   O   0.2265810  -0.6905815  -0.1710101 SPIN=   0.00000
   S  -0.0027057  -0.7821725  -0.3080408 SPIN=   0.00000
   O  -0.2752146  -0.1471946  -0.3815676 SPIN=   0.00000
   O  -0.4550386  -0.4654969  -0.4681350 SPIN=   0.00000
   O  -0.0934960  -0.3254169  -0.2114504 SPIN=   0.00000
   O  -0.3975911  -0.1905815  -0.1710101 SPIN=   0.00000
   S  -0.3053351  -0.2821725  -0.3080408 SPIN=   0.00000
   O   0.0014058  -0.0249321   0.1130820 SPIN=   0.00000
   O   0.1793475   0.1566233   0.0196290 SPIN=   0.00000
   O   0.1985089   0.3058464   0.3356531 SPIN=   0.00000
   O  -0.1396085   0.2438557   0.0635343 SPIN=   0.00000
   S   0.0599134   0.1703483   0.1329746 SPIN=   0.00000
   O   0.1116761  -0.5249321   0.1130820 SPIN=   0.00000
   O  -0.1597185  -0.3433767   0.0196290 SPIN=   0.00000
   O   0.1371441  -0.1941536   0.3356531 SPIN=   0.00000
   O   0.2031429  -0.2561443   0.0635343 SPIN=   0.00000
   S   0.0730612  -0.3296517   0.1329746 SPIN=   0.00000
   F  -0.3722331   0.7289566   0.2430423 SPIN=   0.00000
   F  -0.3847246   0.2289566   0.2430423 SPIN=   0.00000
   F   0.4460126  -0.8603737  -0.4075248 SPIN=   0.00000
   F   0.1464626  -0.3603737  -0.4075248 SPIN=   0.00000
%ENDBLOCK POSITIONS_FRAC

# Note: total spin =  16.00

KPOINTS_MP_SPACING 0.07

%BLOCK SPECIES_POT
QC5
%ENDBLOCK SPECIES_POT

SNAP_TO_SYMMETRY
SYMMETRY_GENERATE

