#              Generated by Buildcell
#
# at 09:37:31 (GMT+1.0) 4th August 2020
# in /lustre/scratch/uccabz1/launch_tmp
# on node-c12d-001
# by uccabz1
#
# compiler GCC version 4.9.2
# options -cpp -iprefix /lustre/shared/ucl/apps/gcc/4.9.2/bin/../lib/gcc/x86_64-unknown-linux-gnu/4.9.2/ -mtune=corei7 -march=x86-64 -g -Og
#
# seed   231473538  1896015552   518317963 -1085023942 -1899691226  -780895872 -1304185845  1445576642  1241237253 -1098666957  1976389087  1674257311
#
#      Author: C. J. Pickard (cjp20@cam.ac.uk)
#                Space group: Cm
#

%BLOCK LATTICE_ABC
      5.38922      8.82805      8.82805
    107.66546     91.06882     91.06882
%ENDBLOCK LATTICE_ABC

%BLOCK POSITIONS_FRAC
  Li   0.0515634  -0.1483459   0.1165017 SPIN=   0.00000
  Li   0.0515634   0.1165017  -0.1483459 SPIN=   0.00000
  Li   0.4804133   0.4094291   0.1100619 SPIN=   0.00000
  Li   0.4804133   0.1100619   0.4094291 SPIN=   0.00000
  Fe   0.0401481  -0.4142325   0.3364100 SPIN=   3.10452
  Fe   0.0401481   0.3364100  -0.4142325 SPIN=   3.10452
  Fe  -0.4452266  -0.1848362  -0.4360662 SPIN=   4.89548
  Fe  -0.4452266  -0.4360662  -0.1848362 SPIN=   4.89548
   O  -0.3100746  -0.1128243   0.0834250 SPIN=   0.00000
   O  -0.6540943  -0.1007214   0.2682355 SPIN=   0.00000
   O  -0.2835802  -0.2575526   0.2831161 SPIN=   0.00000
   O  -0.5796485  -0.3505275   0.0542866 SPIN=   0.00000
   S  -0.4568494  -0.2054065   0.1722658 SPIN=   0.00000
   O  -0.3100746   0.0834250  -0.1128243 SPIN=   0.00000
   O  -0.6540943   0.2682355  -0.1007214 SPIN=   0.00000
   O  -0.2835802   0.2831161  -0.2575526 SPIN=   0.00000
   O  -0.5796485   0.0542866  -0.3505275 SPIN=   0.00000
   S  -0.4568494   0.1722658  -0.2054065 SPIN=   0.00000
   O   0.0097579   0.1052603   0.6213898 SPIN=   0.00000
   O  -0.0747215  -0.0181982   0.3331550 SPIN=   0.00000
   O  -0.0404617  -0.1871327   0.5104730 SPIN=   0.00000
   S   0.0570263  -0.0376212   0.4790512 SPIN=   0.00000
   O   0.0097579   0.6213898   0.1052603 SPIN=   0.00000
   O  -0.0747215   0.3331550  -0.0181982 SPIN=   0.00000
   O  -0.0404617   0.5104730  -0.1871327 SPIN=   0.00000
   S   0.0570263   0.4790512  -0.0376212 SPIN=   0.00000
   O  -0.2983779  -0.4933649  -0.4933649 SPIN=   0.00000
   O   0.1599353  -0.2358250  -0.2358250 SPIN=   0.00000
   F  -0.3714003   0.2493108   0.2493108 SPIN=   0.00000
   F   0.2015657  -0.4934042  -0.4934042 SPIN=   0.00000
   F   0.1147135   0.0223122   0.0223122 SPIN=   0.00000
   F  -0.3400658  -0.2360471  -0.2360471 SPIN=   0.00000
%ENDBLOCK POSITIONS_FRAC

# Note: total spin =  16.00

KPOINTS_MP_SPACING 0.07

%BLOCK SPECIES_POT
QC5
%ENDBLOCK SPECIES_POT

SNAP_TO_SYMMETRY
SYMMETRY_GENERATE

