#              Generated by Buildcell
#
# at 06:16:45 (GMT+1.0) 4th August 2020
# in /lustre/scratch/uccabz1/launch_tmp
# on node-c12c-010
# by uccabz1
#
# compiler GCC version 4.9.2
# options -cpp -iprefix /lustre/shared/ucl/apps/gcc/4.9.2/bin/../lib/gcc/x86_64-unknown-linux-gnu/4.9.2/ -mtune=corei7 -march=x86-64 -g -Og
#
# seed    91899604   243886114 -1586165277  -510058356  1954912894  1580613528 -1098527600   747812171   897229883  1685818629   715233470 -1993696226
#
#      Author: C. J. Pickard (cjp20@cam.ac.uk)
#                Space group: P-1
#

%BLOCK LATTICE_ABC
      5.97985      6.25160     11.14458
     79.76100     88.89508     77.37896
%ENDBLOCK LATTICE_ABC

%BLOCK POSITIONS_FRAC
  Li  -0.2791251  -0.0296051   0.2246949 SPIN=   0.00000
  Li   0.2791251   0.0296051  -0.2246949 SPIN=   0.00000
  Li   0.0000000   0.5000000   0.0000000 SPIN=   0.00000
  Li  -0.0000000   0.0000000   0.5000000 SPIN=   0.00000
  Fe  -0.2508037   0.4213172   0.2927723 SPIN=   5.64919
  Fe   0.2508037  -0.4213172  -0.2927723 SPIN=   5.64919
  Fe  -0.5000000   0.0000000  -0.5000000 SPIN=   0.84152
  Fe   0.0000000  -0.0000000  -0.0000000 SPIN=   3.86011
   O  -0.3341917  -0.0989411  -0.0854043 SPIN=   0.00000
   O  -0.0228942  -0.2682983  -0.2114199 SPIN=   0.00000
   O  -0.3811353  -0.0306007  -0.3100742 SPIN=   0.00000
   O  -0.3834760  -0.4034794  -0.1902160 SPIN=   0.00000
   S  -0.2804243  -0.2003299  -0.1992786 SPIN=   0.00000
   O   0.3341917   0.0989411   0.0854043 SPIN=   0.00000
   O   0.0228942   0.2682983   0.2114199 SPIN=   0.00000
   O   0.3811353   0.0306007   0.3100742 SPIN=   0.00000
   O   0.3834760   0.4034794   0.1902160 SPIN=   0.00000
   S   0.2804243   0.2003299   0.1992786 SPIN=   0.00000
   O   0.0341089   0.2661517  -0.4193644 SPIN=   0.00000
   O  -0.2880285   0.2864129  -0.2760334 SPIN=   0.00000
   O  -0.3520042   0.2545357  -0.4902830 SPIN=   0.00000
   O  -0.2779175   0.6046058  -0.4420908 SPIN=   0.00000
   S  -0.2209603   0.3529265  -0.4069429 SPIN=   0.00000
   O  -0.0341089  -0.2661517   0.4193644 SPIN=   0.00000
   O   0.2880285  -0.2864129   0.2760334 SPIN=   0.00000
   O   0.3520042  -0.2545357   0.4902830 SPIN=   0.00000
   O   0.2779175  -0.6046058   0.4420908 SPIN=   0.00000
   S   0.2209603  -0.3529265   0.4069429 SPIN=   0.00000
   F  -0.2655493  -0.3087644   0.1983630 SPIN=   0.00000
   F   0.2655493   0.3087644  -0.1983630 SPIN=   0.00000
   F   0.2280553  -0.2537352  -0.0044542 SPIN=   0.00000
   F  -0.2280553   0.2537352   0.0044542 SPIN=   0.00000
%ENDBLOCK POSITIONS_FRAC

# Note: total spin =  16.00

KPOINTS_MP_SPACING 0.07

%BLOCK SPECIES_POT
QC5
%ENDBLOCK SPECIES_POT

SNAP_TO_SYMMETRY
SYMMETRY_GENERATE

