#              Generated by Buildcell
#
# at 07:28:42 (GMT+1.0) 4th August 2020
# in /lustre/scratch/uccabz1/launch_tmp
# on node-c12o-004
# by uccabz1
#
# compiler GCC version 4.9.2
# options -cpp -iprefix /lustre/shared/ucl/apps/gcc/4.9.2/bin/../lib/gcc/x86_64-unknown-linux-gnu/4.9.2/ -mtune=corei7 -march=x86-64 -g -Og
#
# seed -1047180800 -1117077859  -141692303    40433962  1139725514   691105280  1085772659  -664673828  -746995505 -1485980755  1310642553 -1533031926
#
#      Author: C. J. Pickard (cjp20@cam.ac.uk)
#                Space group: Aea2
#

%BLOCK LATTICE_ABC
      6.42184      6.42184      9.79300
     90.00000     90.00000     97.93168
%ENDBLOCK LATTICE_ABC

%BLOCK POSITIONS_FRAC
  Li   0.4512814   0.1725160  -0.3866218 SPIN=   0.00000
  Li  -0.1725160  -0.4512814   0.3866218 SPIN=   0.00000
  Li   0.3274840   0.0487186   0.1133782 SPIN=   0.00000
  Li  -0.0487186  -0.3274840  -0.1133782 SPIN=   0.00000
  Fe  -0.3711850   0.0383155  -0.1204702 SPIN=   4.00000
  Fe  -0.0383155   0.3711850   0.1204702 SPIN=   4.00000
  Fe   0.4616845  -0.1288150   0.3795298 SPIN=   4.00000
  Fe   0.1288150  -0.4616845  -0.3795298 SPIN=   4.00000
   O   0.6506800   0.6331632   0.2282189 SPIN=   0.00000
   O   0.5516953   0.3016546   0.1005883 SPIN=   0.00000
   O   0.2764558   0.5094286   0.1776532 SPIN=   0.00000
   O   0.4670634   0.3198573   0.3464773 SPIN=   0.00000
   S   0.4864736   0.4410259   0.2132344 SPIN=   0.00000
   O  -0.6331632  -0.6506800  -0.2282189 SPIN=   0.00000
   O  -0.3016546  -0.5516953  -0.1005883 SPIN=   0.00000
   O  -0.5094286  -0.2764558  -0.1776532 SPIN=   0.00000
   O  -0.3198573  -0.4670634  -0.3464773 SPIN=   0.00000
   S  -0.4410259  -0.4864736  -0.2132344 SPIN=   0.00000
   O  -0.1331632  -0.1506800  -0.2717811 SPIN=   0.00000
   O   0.1983454  -0.0516953  -0.3994117 SPIN=   0.00000
   O  -0.0094286   0.2235442  -0.3223468 SPIN=   0.00000
   O   0.1801427   0.0329366  -0.1535227 SPIN=   0.00000
   S   0.0589741   0.0135264  -0.2867656 SPIN=   0.00000
   O   0.1506800   0.1331632   0.2717811 SPIN=   0.00000
   O   0.0516953  -0.1983454   0.3994117 SPIN=   0.00000
   O  -0.2235442   0.0094286   0.3223468 SPIN=   0.00000
   O  -0.0329366  -0.1801427   0.1535227 SPIN=   0.00000
   S  -0.0135264  -0.0589741   0.2867656 SPIN=   0.00000
   F  -0.4128609  -0.0846171   0.0527493 SPIN=   0.00000
   F   0.0846171   0.4128609  -0.0527493 SPIN=   0.00000
   F  -0.4153829  -0.0871391  -0.4472507 SPIN=   0.00000
   F   0.0871391   0.4153829   0.4472507 SPIN=   0.00000
%ENDBLOCK POSITIONS_FRAC

# Note: total spin =  16.00

KPOINTS_MP_SPACING 0.07

%BLOCK SPECIES_POT
QC5
%ENDBLOCK SPECIES_POT

SNAP_TO_SYMMETRY
SYMMETRY_GENERATE

