#              Generated by Buildcell
#
# at 05:29:24 (GMT+1.0) 18th August 2020
# in /lustre/scratch/uccabz1/launch_tmp
# on node-c12n-005
# by uccabz1
#
# compiler GCC version 4.9.2
# options -cpp -iprefix /lustre/shared/ucl/apps/gcc/4.9.2/bin/../lib/gcc/x86_64-unknown-linux-gnu/4.9.2/ -mtune=corei7 -march=x86-64 -g -Og
#
# seed  1088005011   623166289   509385531 -1593843176  -426512532   627230604  1816460045  1219346617  1276679306  1920217451  -601583050 -1413364592
#
#      Author: C. J. Pickard (cjp20@cam.ac.uk)
#                Space group: P2
#

%BLOCK LATTICE_ABC
      4.33784      9.18594     10.04905
     92.64326     90.00000     90.00000
%ENDBLOCK LATTICE_ABC

%BLOCK POSITIONS_FRAC
  Li  -0.2930318  -0.1593297  -0.3599904 SPIN=   0.00000
  Li  -0.2930318   0.1593297   0.3599904 SPIN=   0.00000
  Li   0.1674413   0.3792625   0.1344953 SPIN=   0.00000
  Li   0.1674413  -0.3792625  -0.1344953 SPIN=   0.00000
  Fe   0.2070989   0.0409447   0.1821774 SPIN=   5.34419
  Fe   0.2070989  -0.0409447  -0.1821774 SPIN=   5.34419
  Fe  -0.2841030  -0.2774740   0.0889701 SPIN=   2.65581
  Fe  -0.2841030   0.2774740  -0.0889701 SPIN=   2.65581
   O  -0.2949416   0.3352987   0.1792278 SPIN=   0.00000
   O  -0.2208591   0.3816194   0.4216838 SPIN=   0.00000
   O  -0.6694286   0.4876878   0.3087710 SPIN=   0.00000
   O  -0.1444635   0.5810335   0.2675838 SPIN=   0.00000
   S  -0.3324232   0.4464099   0.2943166 SPIN=   0.00000
   O  -0.2949416  -0.3352987  -0.1792278 SPIN=   0.00000
   O  -0.2208591  -0.3816194  -0.4216838 SPIN=   0.00000
   O  -0.6694286  -0.4876878  -0.3087710 SPIN=   0.00000
   O  -0.1444635  -0.5810335  -0.2675838 SPIN=   0.00000
   S  -0.3324232  -0.4464099  -0.2943166 SPIN=   0.00000
   O   0.5890618  -0.1610205   0.4157739 SPIN=   0.00000
   O   0.0637896  -0.1970658   0.3239329 SPIN=   0.00000
   O   0.1335627  -0.1053896   0.5574463 SPIN=   0.00000
   O   0.2621172  -0.3613887   0.4925317 SPIN=   0.00000
   S   0.2621328  -0.2062162   0.4474212 SPIN=   0.00000
   O   0.5890618   0.1610205  -0.4157739 SPIN=   0.00000
   O   0.0637896   0.1970658  -0.3239329 SPIN=   0.00000
   O   0.1335627   0.1053896  -0.5574463 SPIN=   0.00000
   O   0.2621172   0.3613887  -0.4925317 SPIN=   0.00000
   S   0.2621328   0.2062162  -0.4474212 SPIN=   0.00000
   F  -0.3388661  -0.0243073  -0.1879647 SPIN=   0.00000
   F  -0.3388661   0.0243073   0.1879647 SPIN=   0.00000
   F   0.1616400   0.2896399  -0.0602261 SPIN=   0.00000
   F   0.1616400  -0.2896399   0.0602261 SPIN=   0.00000
%ENDBLOCK POSITIONS_FRAC

# Note: total spin =  16.00

KPOINTS_MP_SPACING 0.07

%BLOCK SPECIES_POT
QC5
%ENDBLOCK SPECIES_POT

SNAP_TO_SYMMETRY
SYMMETRY_GENERATE

