#              Generated by Buildcell
#
# at 14:47:47 (GMT+1.0) 18th August 2020
# in /lustre/scratch/uccabz1/launch_tmp
# on node-c12f-002
# by uccabz1
#
# compiler GCC version 4.9.2
# options -cpp -iprefix /lustre/shared/ucl/apps/gcc/4.9.2/bin/../lib/gcc/x86_64-unknown-linux-gnu/4.9.2/ -mtune=corei7 -march=x86-64 -g -Og
#
# seed  1010134178   -88516340 -2044167389   913849459 -1049996896  1408628581  1966376289 -2108359746  -630972085  1231254523  1996380103 -1489261010
#
#      Author: C. J. Pickard (cjp20@cam.ac.uk)
#                Space group: P21
#

%BLOCK LATTICE_ABC
      4.73696      6.07354     14.05448
     90.00000     98.41066     90.00000
%ENDBLOCK LATTICE_ABC

%BLOCK POSITIONS_FRAC
  Li  -0.0055131  -0.1723310  -0.3943373 SPIN=   0.00000
  Li   0.0055131   0.3276690   0.3943373 SPIN=   0.00000
  Li   0.4510216   0.4045917  -0.1859583 SPIN=   0.00000
  Li  -0.4510216  -0.0954083   0.1859583 SPIN=   0.00000
  Fe  -0.2285232  -0.0194330  -0.1906458 SPIN=   2.51615
  Fe   0.2285232   0.4805670   0.1906458 SPIN=   2.51615
  Fe   0.3572646   0.2682297  -0.4120627 SPIN=   5.48385
  Fe  -0.3572646  -0.2317703   0.4120627 SPIN=   5.48385
   O   0.1779494   0.0948744  -0.0871080 SPIN=   0.00000
   O   0.0993297  -0.0989354   0.0616806 SPIN=   0.00000
   O   0.2260243   0.2966489   0.0674075 SPIN=   0.00000
   O   0.5861538   0.0177986   0.0396690 SPIN=   0.00000
   S   0.2723643   0.0775966   0.0204123 SPIN=   0.00000
   O  -0.1779494  -0.4051256   0.0871080 SPIN=   0.00000
   O  -0.0993297  -0.5989354  -0.0616806 SPIN=   0.00000
   O  -0.2260243  -0.2033511  -0.0674075 SPIN=   0.00000
   O  -0.5861538  -0.4822014  -0.0396690 SPIN=   0.00000
   S  -0.2723643  -0.4224034  -0.0204123 SPIN=   0.00000
   O   0.1239729   0.5149223  -0.3437970 SPIN=   0.00000
   O  -0.0382170   0.6778661  -0.1997216 SPIN=   0.00000
   O  -0.0422898   0.2734459  -0.2214340 SPIN=   0.00000
   O  -0.3879670   0.5057158  -0.3259374 SPIN=   0.00000
   S  -0.0861252   0.4929875  -0.2727225 SPIN=   0.00000
   O  -0.1239729   0.0149223   0.3437970 SPIN=   0.00000
   O   0.0382170   0.1778661   0.1997216 SPIN=   0.00000
   O   0.0422898  -0.2265541   0.2214340 SPIN=   0.00000
   O   0.3879670   0.0057158   0.3259374 SPIN=   0.00000
   S   0.0861252  -0.0070125   0.2727225 SPIN=   0.00000
   F   0.3620743  -0.0390969  -0.2749111 SPIN=   0.00000
   F  -0.3620743   0.4609031   0.2749111 SPIN=   0.00000
   F   0.2525787  -0.3170704   0.4765225 SPIN=   0.00000
   F  -0.2525787   0.1829296  -0.4765225 SPIN=   0.00000
%ENDBLOCK POSITIONS_FRAC

# Note: total spin =  16.00

KPOINTS_MP_SPACING 0.07

%BLOCK SPECIES_POT
QC5
%ENDBLOCK SPECIES_POT

SNAP_TO_SYMMETRY
SYMMETRY_GENERATE

