#              Generated by Buildcell
#
# at 09:31:18 (GMT+1.0) 4th August 2020
# in /lustre/scratch/uccabz1/launch_tmp
# on node-c12m-015
# by uccabz1
#
# compiler GCC version 4.9.2
# options -cpp -iprefix /lustre/shared/ucl/apps/gcc/4.9.2/bin/../lib/gcc/x86_64-unknown-linux-gnu/4.9.2/ -mtune=corei7 -march=x86-64 -g -Og
#
# seed -1279912111   821612510  -765703767  1717437593  -614166156  1140753416  -263189343 -1084673042 -1868170926 -1886495320  -736138971   538215953
#
#      Author: C. J. Pickard (cjp20@cam.ac.uk)
#                Space group: P2
#

%BLOCK LATTICE_ABC
      6.08322      6.18346     10.63629
     90.00000     90.00000     91.19953
%ENDBLOCK LATTICE_ABC

%BLOCK POSITIONS_FRAC
  Li   0.1872570  -0.2360841  -0.3089965 SPIN=   0.00000
  Li  -0.1872570   0.2360841  -0.3089965 SPIN=   0.00000
  Li   0.1851328   0.2617340   0.4077616 SPIN=   0.00000
  Li  -0.1851328  -0.2617340   0.4077616 SPIN=   0.00000
  Fe   0.2420126   0.1979978   0.0553875 SPIN=   4.19368
  Fe  -0.2420126  -0.1979978   0.0553875 SPIN=   4.19368
  Fe  -0.2512307   0.3013922   0.2651693 SPIN=   3.80632
  Fe   0.2512307  -0.3013922   0.2651693 SPIN=   3.80632
   O  -0.0425068   0.1825510  -0.0770844 SPIN=   0.00000
   O  -0.4142063   0.2447904  -0.1626219 SPIN=   0.00000
   O  -0.2097084   0.5421495  -0.0557401 SPIN=   0.00000
   O  -0.3562149   0.2317852   0.0675372 SPIN=   0.00000
   S  -0.2556591   0.3003190  -0.0569773 SPIN=   0.00000
   O   0.0425068  -0.1825510  -0.0770844 SPIN=   0.00000
   O   0.4142063  -0.2447904  -0.1626219 SPIN=   0.00000
   O   0.2097084  -0.5421495  -0.0557401 SPIN=   0.00000
   O   0.3562149  -0.2317852   0.0675372 SPIN=   0.00000
   S   0.2556591  -0.3003190  -0.0569773 SPIN=   0.00000
   O  -0.2224993  -0.0549979  -0.2016445 SPIN=   0.00000
   O  -0.2343009  -0.4396439  -0.2661003 SPIN=   0.00000
   O  -0.0912017  -0.1597843  -0.4128302 SPIN=   0.00000
   O  -0.4885551  -0.1807811  -0.3632157 SPIN=   0.00000
   S  -0.2591393  -0.2088018  -0.3109477 SPIN=   0.00000
   O   0.2224993   0.0549979  -0.2016445 SPIN=   0.00000
   O   0.2343009   0.4396439  -0.2661003 SPIN=   0.00000
   O   0.0912017   0.1597843  -0.4128302 SPIN=   0.00000
   O   0.4885551   0.1807811  -0.3632157 SPIN=   0.00000
   S   0.2591393   0.2088018  -0.3109477 SPIN=   0.00000
   F  -0.2514706  -0.1941887   0.2328876 SPIN=   0.00000
   F   0.2514706   0.1941887   0.2328876 SPIN=   0.00000
   F  -0.2475748   0.3058927   0.4442152 SPIN=   0.00000
   F   0.2475748  -0.3058927   0.4442152 SPIN=   0.00000
%ENDBLOCK POSITIONS_FRAC

# Note: total spin =  16.00

KPOINTS_MP_SPACING 0.07

%BLOCK SPECIES_POT
QC5
%ENDBLOCK SPECIES_POT

SNAP_TO_SYMMETRY
SYMMETRY_GENERATE

