#              Generated by Buildcell
#
# at 16:31:42 (GMT+1.0) 18th August 2020
# in /lustre/scratch/uccabz1/launch_tmp
# on node-c12c-029
# by uccabz1
#
# compiler GCC version 4.9.2
# options -cpp -iprefix /lustre/shared/ucl/apps/gcc/4.9.2/bin/../lib/gcc/x86_64-unknown-linux-gnu/4.9.2/ -mtune=corei7 -march=x86-64 -g -Og
#
# seed -1833272600  1282633855  1478896799 -1016485789 -1429743625  1929242622  1347052200  -308408645   338713340  1188891644  -387287221  2009893338
#
#      Author: C. J. Pickard (cjp20@cam.ac.uk)
#                Space group: P2
#

%BLOCK LATTICE_ABC
      4.90189      6.22246     13.33071
    100.34556     90.00000     90.00000
%ENDBLOCK LATTICE_ABC

%BLOCK POSITIONS_FRAC
  Li   0.3881060   0.2072856   0.2405610 SPIN=   0.00000
  Li   0.3881060  -0.2072856  -0.2405610 SPIN=   0.00000
  Li  -0.1226836  -0.3458470   0.2914738 SPIN=   0.00000
  Li  -0.1226836   0.3458470  -0.2914738 SPIN=   0.00000
  Fe   0.4736712   0.2631976  -0.1275988 SPIN=   1.94017
  Fe   0.4736712  -0.2631976   0.1275988 SPIN=   1.94017
  Fe  -0.0381093  -0.2772951  -0.0819758 SPIN=   6.05983
  Fe  -0.0381093   0.2772951   0.0819758 SPIN=   6.05983
   O  -0.1062197  -0.3030946  -0.2358902 SPIN=   0.00000
   O   0.1401579  -0.3077767  -0.3983146 SPIN=   0.00000
   O  -0.1594741   0.0039611  -0.3293286 SPIN=   0.00000
   O  -0.3609002  -0.3568045  -0.3987850 SPIN=   0.00000
   S  -0.1216090  -0.2409287  -0.3405796 SPIN=   0.00000
   O  -0.1062197   0.3030946   0.2358902 SPIN=   0.00000
   O   0.1401579   0.3077767   0.3983146 SPIN=   0.00000
   O  -0.1594741  -0.0039611   0.3293286 SPIN=   0.00000
   O  -0.3609002   0.3568045   0.3987850 SPIN=   0.00000
   S  -0.1216090   0.2409287   0.3405796 SPIN=   0.00000
   O   0.3924314   0.0681029  -0.3147348 SPIN=   0.00000
   O   0.6353565   0.2374148  -0.4435210 SPIN=   0.00000
   O   0.3530520   0.4657417  -0.3116947 SPIN=   0.00000
   O   0.1322561   0.2042632  -0.4496248 SPIN=   0.00000
   S   0.3782740   0.2438806  -0.3798938 SPIN=   0.00000
   O   0.3924314  -0.0681029   0.3147348 SPIN=   0.00000
   O   0.6353565  -0.2374148   0.4435210 SPIN=   0.00000
   O   0.3530520  -0.4657417   0.3116947 SPIN=   0.00000
   O   0.1322561  -0.2042632   0.4496248 SPIN=   0.00000
   S   0.3782740  -0.2438806   0.3798938 SPIN=   0.00000
   F   0.4377333   0.3295337   0.1030571 SPIN=   0.00000
   F   0.4377333  -0.3295337  -0.1030571 SPIN=   0.00000
   F  -0.0787137   0.1401009  -0.1137739 SPIN=   0.00000
   F  -0.0787137  -0.1401009   0.1137739 SPIN=   0.00000
%ENDBLOCK POSITIONS_FRAC

# Note: total spin =  16.00

KPOINTS_MP_SPACING 0.07

%BLOCK SPECIES_POT
QC5
%ENDBLOCK SPECIES_POT

SNAP_TO_SYMMETRY
SYMMETRY_GENERATE

