#              Generated by Buildcell
#
# at 13:52:51 (GMT+1.0) 18th August 2020
# in /scratch/scratch/uccabz1/launch_tmp
# on node-k10b-024
# by uccabz1
#
# compiler GCC version 4.9.2
# options -cpp -iprefix /scratch/UCL/applications/gcc/4.9.2/bin/../lib/gcc/x86_64-unknown-linux-gnu/4.9.2/ -mtune=corei7 -march=x86-64 -g -O2
#
# seed  -889289818  1458601896  -936566276 -1805735929  1985300995  1971823600   226858604 -1827441355  -666985440   543384887  1345552191  1392268785
#
#      Author: C. J. Pickard (cjp20@cam.ac.uk)
#                Space group: C2
#

%BLOCK LATTICE_ABC
      7.59942      7.66568      7.66568
     86.52188     71.25633     71.25633
%ENDBLOCK LATTICE_ABC

%BLOCK POSITIONS_FRAC
  Li   0.2060258  -0.0026901   0.1209803 SPIN=   0.00000
  Li  -0.2060258  -0.1209803   0.0026901 SPIN=   0.00000
  Li  -0.2355110   0.3851838   0.0386023 SPIN=   0.00000
  Li   0.2355110  -0.0386023  -0.3851838 SPIN=   0.00000
  Fe   0.4954715   0.2763203   0.3634575 SPIN=   4.86156
  Fe  -0.4954715  -0.3634575  -0.2763203 SPIN=   4.86156
  Fe   0.0360631  -0.4526995  -0.2368728 SPIN=   3.13844
  Fe  -0.0360631   0.2368728   0.4526995 SPIN=   3.13844
   O   0.1660839  -0.4573947   0.3450732 SPIN=   0.00000
   O   0.0486496  -0.1218428   0.4211246 SPIN=   0.00000
   O   0.3711704  -0.2649820   0.1864462 SPIN=   0.00000
   O   0.3247098  -0.3268175   0.5161276 SPIN=   0.00000
   S   0.2276534  -0.2927592   0.3671929 SPIN=   0.00000
   O  -0.1660839  -0.3450732   0.4573947 SPIN=   0.00000
   O  -0.0486496  -0.4211246   0.1218428 SPIN=   0.00000
   O  -0.3711704  -0.1864462   0.2649820 SPIN=   0.00000
   O  -0.3247098  -0.5161276   0.3268175 SPIN=   0.00000
   S  -0.2276534  -0.3671929   0.2927592 SPIN=   0.00000
   O  -0.5051848   0.0099919  -0.2098276 SPIN=   0.00000
   O  -0.2791475  -0.0307890  -0.5304848 SPIN=   0.00000
   O  -0.1670731  -0.2071780  -0.2834651 SPIN=   0.00000
   O  -0.2238549   0.1292804  -0.2918890 SPIN=   0.00000
   S  -0.2938151  -0.0246737  -0.3289166 SPIN=   0.00000
   O   0.5051848   0.2098276  -0.0099919 SPIN=   0.00000
   O   0.2791475   0.5304848   0.0307890 SPIN=   0.00000
   O   0.1670731   0.2834651   0.2071780 SPIN=   0.00000
   O   0.2238549   0.2918890  -0.1292804 SPIN=   0.00000
   S   0.2938151   0.3289166   0.0246737 SPIN=   0.00000
   F   0.0990096  -0.2328645  -0.1463873 SPIN=   0.00000
   F  -0.0990096   0.1463873   0.2328645 SPIN=   0.00000
   F   0.3514666   0.1130233   0.4358827 SPIN=   0.00000
   F  -0.3514666  -0.4358827  -0.1130233 SPIN=   0.00000
%ENDBLOCK POSITIONS_FRAC

# Note: total spin =  16.00

KPOINTS_MP_SPACING 0.07

%BLOCK SPECIES_POT
QC5
%ENDBLOCK SPECIES_POT

SNAP_TO_SYMMETRY
SYMMETRY_GENERATE

