#              Generated by Buildcell
#
# at 23:15:56 (GMT+1.0) 17th August 2020
# in /lustre/scratch/uccabz1/launch_tmp
# on node-c12f-018
# by uccabz1
#
# compiler GCC version 4.9.2
# options -cpp -iprefix /lustre/shared/ucl/apps/gcc/4.9.2/bin/../lib/gcc/x86_64-unknown-linux-gnu/4.9.2/ -mtune=corei7 -march=x86-64 -g -Og
#
# seed  -748491622 -1741107821  -630873038  1723269896   291037025   534482917  1471847559  -175819091 -1681971399  -607554251  1636276202 -1463548047
#
#      Author: C. J. Pickard (cjp20@cam.ac.uk)
#                Space group: C2
#

%BLOCK LATTICE_ABC
      7.55831      7.55831      8.02923
     71.76401     71.76401     70.80646
%ENDBLOCK LATTICE_ABC

%BLOCK POSITIONS_FRAC
  Li   0.4099303  -0.3412620   0.2289538 SPIN=   0.00000
  Li   0.3412620  -0.4099303  -0.2289538 SPIN=   0.00000
  Li  -0.1625688  -0.1326462   0.4507703 SPIN=   0.00000
  Li   0.1326462   0.1625688  -0.4507703 SPIN=   0.00000
  Fe  -0.2576234   0.3759010  -0.3132332 SPIN=   5.13061
  Fe  -0.3759010   0.2576234   0.3132332 SPIN=   5.13061
  Fe   0.4820989  -0.1120234  -0.1409733 SPIN=   2.86939
  Fe   0.1120234  -0.4820989   0.1409733 SPIN=   2.86939
   O  -0.0056320  -0.5426909  -0.4857131 SPIN=   0.00000
   O   0.3431073  -0.5930152  -0.5193506 SPIN=   0.00000
   O   0.1072215  -0.4786916  -0.2574567 SPIN=   0.00000
   O   0.1296598  -0.2623912  -0.5627746 SPIN=   0.00000
   S   0.1435891  -0.4691972  -0.4563237 SPIN=   0.00000
   O   0.5426909   0.0056320   0.4857131 SPIN=   0.00000
   O   0.5930152  -0.3431073   0.5193506 SPIN=   0.00000
   O   0.4786916  -0.1072215   0.2574567 SPIN=   0.00000
   O   0.2623912  -0.1296598   0.5627746 SPIN=   0.00000
   S   0.4691972  -0.1435891   0.4563237 SPIN=   0.00000
   O   0.1484149  -0.1684541  -0.1400611 SPIN=   0.00000
   O  -0.1342506   0.1139408  -0.1468992 SPIN=   0.00000
   O  -0.1812223  -0.2156492  -0.0272558 SPIN=   0.00000
   O  -0.0540023  -0.0987314  -0.3542375 SPIN=   0.00000
   S  -0.0552651  -0.0922235  -0.1671134 SPIN=   0.00000
   O   0.1684541  -0.1484149   0.1400611 SPIN=   0.00000
   O  -0.1139408   0.1342506   0.1468992 SPIN=   0.00000
   O   0.2156492   0.1812223   0.0272558 SPIN=   0.00000
   O   0.0987314   0.0540023   0.3542375 SPIN=   0.00000
   S   0.0922235   0.0552651   0.1671134 SPIN=   0.00000
   F  -0.4894429   0.1798706  -0.2725598 SPIN=   0.00000
   F  -0.1798706   0.4894429   0.2725598 SPIN=   0.00000
   F   0.3817427   0.3130367   0.1889923 SPIN=   0.00000
   F  -0.3130367  -0.3817427  -0.1889923 SPIN=   0.00000
%ENDBLOCK POSITIONS_FRAC

# Note: total spin =  16.00

KPOINTS_MP_SPACING 0.07

%BLOCK SPECIES_POT
QC5
%ENDBLOCK SPECIES_POT

SNAP_TO_SYMMETRY
SYMMETRY_GENERATE

