#              Generated by Buildcell
#
# at 05:54:43 (GMT+1.0) 4th August 2020
# in /lustre/scratch/uccabz1/launch_tmp
# on node-c12g-019
# by uccabz1
#
# compiler GCC version 4.9.2
# options -cpp -iprefix /lustre/shared/ucl/apps/gcc/4.9.2/bin/../lib/gcc/x86_64-unknown-linux-gnu/4.9.2/ -mtune=corei7 -march=x86-64 -g -Og
#
# seed  1261720540   906259546  -511268275  1034678533 -2021768795 -1361810753   959954722  1274450534  -387876981 -1500037791 -1673350606  1554081628
#
#      Author: C. J. Pickard (cjp20@cam.ac.uk)
#                Space group: Pc
#

%BLOCK LATTICE_ABC
      4.12116     10.10570     10.43079
    112.95913     90.00000     90.00000
%ENDBLOCK LATTICE_ABC

%BLOCK POSITIONS_FRAC
  Li  -0.0055179  -0.2924479  -0.0708667 SPIN=   0.00000
  Li   0.0055179   0.2075521  -0.0708667 SPIN=   0.00000
  Li  -0.0063256   0.0737061   0.2178486 SPIN=   0.00000
  Li   0.0063256  -0.4262939   0.2178486 SPIN=   0.00000
  Fe   0.0056573  -0.0836823  -0.2880275 SPIN=   4.47738
  Fe  -0.0056573   0.4163177  -0.2880275 SPIN=   4.47738
  Fe   0.4937607   0.1731926   0.4338823 SPIN=   3.52262
  Fe  -0.4937607  -0.3268074   0.4338823 SPIN=   3.52262
   O   0.5804512   0.4772856   0.2094718 SPIN=   0.00000
   O   0.4794087   0.3356549   0.3527669 SPIN=   0.00000
   O   0.5954037   0.2115502   0.1010784 SPIN=   0.00000
   O   0.0723733   0.3377345   0.1791124 SPIN=   0.00000
   S   0.4319092   0.3405563   0.2106074 SPIN=   0.00000
   O  -0.5804512  -0.0227144   0.2094718 SPIN=   0.00000
   O  -0.4794087  -0.1643451   0.3527669 SPIN=   0.00000
   O  -0.5954037  -0.2884498   0.1010784 SPIN=   0.00000
   O  -0.0723733  -0.1622655   0.1791124 SPIN=   0.00000
   S  -0.4319092  -0.1594437   0.2106074 SPIN=   0.00000
   O  -0.5642518   0.1281572  -0.1350848 SPIN=   0.00000
   O  -0.6543516   0.0792817  -0.3840487 SPIN=   0.00000
   O  -0.1310824   0.1809032  -0.2726034 SPIN=   0.00000
   O  -0.6280189   0.3301245  -0.2110684 SPIN=   0.00000
   S  -0.4944262   0.1796167  -0.2507013 SPIN=   0.00000
   O   0.5642518  -0.3718428  -0.1350848 SPIN=   0.00000
   O   0.6543516  -0.4207183  -0.3840487 SPIN=   0.00000
   O   0.1310824  -0.3190968  -0.2726034 SPIN=   0.00000
   O   0.6280189  -0.1698755  -0.2110684 SPIN=   0.00000
   S   0.4944262  -0.3203833  -0.2507013 SPIN=   0.00000
   F  -0.0128996   0.2557122   0.4868712 SPIN=   0.00000
   F   0.0128996  -0.2442878   0.4868712 SPIN=   0.00000
   F   0.0460372  -0.0062141  -0.0032120 SPIN=   0.00000
   F  -0.0460372   0.4937859  -0.0032120 SPIN=   0.00000
%ENDBLOCK POSITIONS_FRAC

# Note: total spin =  16.00

KPOINTS_MP_SPACING 0.07

%BLOCK SPECIES_POT
QC5
%ENDBLOCK SPECIES_POT

SNAP_TO_SYMMETRY
SYMMETRY_GENERATE

