#              Generated by Buildcell
#
# at 08:07:11 (GMT+1.0) 4th August 2020
# in /lustre/scratch/uccabz1/launch_tmp
# on node-c12c-020
# by uccabz1
#
# compiler GCC version 4.9.2
# options -cpp -iprefix /lustre/shared/ucl/apps/gcc/4.9.2/bin/../lib/gcc/x86_64-unknown-linux-gnu/4.9.2/ -mtune=corei7 -march=x86-64 -g -Og
#
# seed  1677810840   553837406  -632421818  1757510347  1603667970   650069409  -364315117 -1143296967  -210950473   466877000 -1686393373 -1962052908
#
#      Author: C. J. Pickard (cjp20@cam.ac.uk)
#                Space group: P41
#

%BLOCK LATTICE_ABC
      7.11225      7.49940      7.49940
     90.00000     90.00000     90.00000
%ENDBLOCK LATTICE_ABC

%BLOCK POSITIONS_FRAC
  Li   0.4993949  -0.1247435   0.3042755 SPIN=   0.00000
  Li  -0.0006051   0.1247435  -0.3042755 SPIN=   0.00000
  Li  -0.2506051  -0.3042755  -0.1247435 SPIN=   0.00000
  Li   0.2493949   0.3042755   0.1247435 SPIN=   0.00000
  Fe   0.3779096   0.1881195  -0.4840338 SPIN=   4.00000
  Fe  -0.1220904  -0.1881195   0.4840338 SPIN=   4.00000
  Fe  -0.3720904   0.4840338   0.1881195 SPIN=   4.00000
  Fe   0.1279096  -0.4840338  -0.1881195 SPIN=   4.00000
   O  -0.1236572   0.3770475  -0.1018074 SPIN=   0.00000
   O  -0.4599299   0.4495237  -0.1459449 SPIN=   0.00000
   O  -0.3419288   0.1473217  -0.2170545 SPIN=   0.00000
   O  -0.2527989   0.4035308  -0.4071021 SPIN=   0.00000
   S  -0.2945787   0.3443559  -0.2179772 SPIN=   0.00000
   O   0.3763428  -0.3770475   0.1018074 SPIN=   0.00000
   O   0.0400701  -0.4495237   0.1459449 SPIN=   0.00000
   O   0.1580712  -0.1473217   0.2170545 SPIN=   0.00000
   O   0.2472011  -0.4035308   0.4071021 SPIN=   0.00000
   S   0.2054213  -0.3443559   0.2179772 SPIN=   0.00000
   O   0.1263428   0.1018074   0.3770475 SPIN=   0.00000
   O  -0.2099299   0.1459449   0.4495237 SPIN=   0.00000
   O  -0.0919288   0.2170545   0.1473217 SPIN=   0.00000
   O  -0.0027989   0.4071021   0.4035308 SPIN=   0.00000
   S  -0.0445787   0.2179772   0.3443559 SPIN=   0.00000
   O   0.6263428  -0.1018074  -0.3770475 SPIN=   0.00000
   O   0.2900701  -0.1459449  -0.4495237 SPIN=   0.00000
   O   0.4080712  -0.2170545  -0.1473217 SPIN=   0.00000
   O   0.4972011  -0.4071021  -0.4035308 SPIN=   0.00000
   S   0.4554213  -0.2179772  -0.3443559 SPIN=   0.00000
   F  -0.0286054  -0.2395084  -0.2332697 SPIN=   0.00000
   F   0.4713946   0.2395084   0.2332697 SPIN=   0.00000
   F   0.2213946   0.2332697  -0.2395084 SPIN=   0.00000
   F  -0.2786054  -0.2332697   0.2395084 SPIN=   0.00000
%ENDBLOCK POSITIONS_FRAC

# Note: total spin =  16.00

KPOINTS_MP_SPACING 0.07

%BLOCK SPECIES_POT
QC5
%ENDBLOCK SPECIES_POT

SNAP_TO_SYMMETRY
SYMMETRY_GENERATE

