#              Generated by Buildcell
#
# at 15:51:35 (GMT+1.0) 18th August 2020
# in /lustre/scratch/uccabz1/launch_tmp
# on node-c12f-018
# by uccabz1
#
# compiler GCC version 4.9.2
# options -cpp -iprefix /lustre/shared/ucl/apps/gcc/4.9.2/bin/../lib/gcc/x86_64-unknown-linux-gnu/4.9.2/ -mtune=corei7 -march=x86-64 -g -Og
#
# seed  -769499479   174036826   157455101   859164587 -1626653928   674624134  -423205242  1293773780 -1641665401  1291374728   866781794 -2013773836
#
#      Author: C. J. Pickard (cjp20@cam.ac.uk)
#                Space group: P43
#

%BLOCK LATTICE_ABC
      6.03195      6.03195     10.99372
     90.00000     90.00000     90.00000
%ENDBLOCK LATTICE_ABC

%BLOCK POSITIONS_FRAC
  Li   0.2204615  -0.3454431  -0.0596037 SPIN=   0.00000
  Li  -0.2204615   0.3454431   0.4403963 SPIN=   0.00000
  Li  -0.3454431  -0.2204615  -0.3096037 SPIN=   0.00000
  Li   0.3454431   0.2204615   0.1903963 SPIN=   0.00000
  Fe  -0.2022146  -0.2605546   0.0716456 SPIN=   4.00000
  Fe   0.2022146   0.2605546  -0.4283544 SPIN=   4.00000
  Fe  -0.2605546   0.2022146  -0.1783544 SPIN=   4.00000
  Fe   0.2605546  -0.2022146   0.3216456 SPIN=   4.00000
   O   0.3395760  -0.3458840  -0.3989772 SPIN=   0.00000
   O   0.3626484  -0.1148575  -0.2133704 SPIN=   0.00000
   O   0.0864690  -0.4173800  -0.2261964 SPIN=   0.00000
   O   0.0401458  -0.0792621  -0.3511586 SPIN=   0.00000
   S   0.2072098  -0.2393459  -0.2974256 SPIN=   0.00000
   O  -0.3395760   0.3458840   0.1010228 SPIN=   0.00000
   O  -0.3626484   0.1148575   0.2866296 SPIN=   0.00000
   O  -0.0864690   0.4173800   0.2738036 SPIN=   0.00000
   O  -0.0401458   0.0792621   0.1488414 SPIN=   0.00000
   S  -0.2072098   0.2393459   0.2025744 SPIN=   0.00000
   O  -0.3458840  -0.3395760   0.3510228 SPIN=   0.00000
   O  -0.1148575  -0.3626484   0.5366296 SPIN=   0.00000
   O  -0.4173800  -0.0864690   0.5238036 SPIN=   0.00000
   O  -0.0792621  -0.0401458   0.3988414 SPIN=   0.00000
   S  -0.2393459  -0.2072098   0.4525744 SPIN=   0.00000
   O   0.3458840   0.3395760  -0.1489772 SPIN=   0.00000
   O   0.1148575   0.3626484   0.0366296 SPIN=   0.00000
   O   0.4173800   0.0864690   0.0238036 SPIN=   0.00000
   O   0.0792621   0.0401458  -0.1011586 SPIN=   0.00000
   S   0.2393459   0.2072098  -0.0474256 SPIN=   0.00000
   F   0.2927689   0.2703886   0.3911208 SPIN=   0.00000
   F  -0.2927689  -0.2703886  -0.1088792 SPIN=   0.00000
   F   0.2703886  -0.2927689   0.1411208 SPIN=   0.00000
   F  -0.2703886   0.2927689  -0.3588792 SPIN=   0.00000
%ENDBLOCK POSITIONS_FRAC

# Note: total spin =  16.00

KPOINTS_MP_SPACING 0.07

%BLOCK SPECIES_POT
QC5
%ENDBLOCK SPECIES_POT

SNAP_TO_SYMMETRY
SYMMETRY_GENERATE

