#              Generated by Buildcell
#
# at 06:02:59 (GMT+1.0) 4th August 2020
# in /lustre/scratch/uccabz1/launch_tmp
# on node-c12c-004
# by uccabz1
#
# compiler GCC version 4.9.2
# options -cpp -iprefix /lustre/shared/ucl/apps/gcc/4.9.2/bin/../lib/gcc/x86_64-unknown-linux-gnu/4.9.2/ -mtune=corei7 -march=x86-64 -g -Og
#
# seed -1550032746  1008954012  2106566466  1503543799  1280429302  1352735780 -1023256366    -4962796  1950710776  1889419918   980807120 -1903597213
#
#      Author: C. J. Pickard (cjp20@cam.ac.uk)
#                Space group: Pmn21
#

%BLOCK LATTICE_ABC
      5.50887      8.28404      8.76506
     90.00000     90.00000     90.00000
%ENDBLOCK LATTICE_ABC

%BLOCK POSITIONS_FRAC
  Li   0.0008572   0.4104631  -0.2928350 SPIN=   0.00000
  Li  -0.0008572  -0.0895369  -0.2071650 SPIN=   0.00000
  Li  -0.0008572  -0.0895369   0.2071650 SPIN=   0.00000
  Li   0.0008572   0.4104631   0.2928350 SPIN=   0.00000
  Fe   0.2022920  -0.3240902  -0.5000000 SPIN=   4.37677
  Fe  -0.2022920   0.1759098   0.0000000 SPIN=   4.37677
  Fe   0.1847719  -0.3374088   0.0000000 SPIN=   3.62323
  Fe  -0.1847719   0.1625912  -0.5000000 SPIN=   3.62323
   O  -0.5164830   0.6027168   0.2954048 SPIN=   0.00000
   O  -0.4697007   0.3160839   0.3693811 SPIN=   0.00000
   O  -0.2826531   0.4163394   0.1307880 SPIN=   0.00000
   S  -0.4994834   0.4311693   0.2362805 SPIN=   0.00000
   O   0.5164830   0.1027168   0.2045952 SPIN=   0.00000
   O   0.4697007  -0.1839161   0.1306189 SPIN=   0.00000
   O   0.2826531  -0.0836606   0.3692120 SPIN=   0.00000
   S   0.4994834  -0.0688307   0.2637195 SPIN=   0.00000
   O   0.5164830   0.1027168  -0.2045952 SPIN=   0.00000
   O   0.4697007  -0.1839161  -0.1306189 SPIN=   0.00000
   O   0.2826531  -0.0836606  -0.3692120 SPIN=   0.00000
   S   0.4994834  -0.0688307  -0.2637195 SPIN=   0.00000
   O  -0.5164830   0.6027168  -0.2954048 SPIN=   0.00000
   O  -0.4697007   0.3160839  -0.3693811 SPIN=   0.00000
   O  -0.2826531   0.4163394  -0.1307880 SPIN=   0.00000
   S  -0.4994834   0.4311693  -0.2362805 SPIN=   0.00000
   O   0.0766884   0.4117173   0.0000000 SPIN=   0.00000
   O  -0.0766884  -0.0882827  -0.5000000 SPIN=   0.00000
   O   0.4251550   0.2623497   0.0000000 SPIN=   0.00000
   O  -0.4251550  -0.2376503  -0.5000000 SPIN=   0.00000
   F  -0.0045958  -0.3200144   0.2369662 SPIN=   0.00000
   F   0.0045958   0.1799856   0.2630338 SPIN=   0.00000
   F   0.0045958   0.1799856  -0.2630338 SPIN=   0.00000
   F  -0.0045958  -0.3200144  -0.2369662 SPIN=   0.00000
%ENDBLOCK POSITIONS_FRAC

# Note: total spin =  16.00

KPOINTS_MP_SPACING 0.07

%BLOCK SPECIES_POT
QC5
%ENDBLOCK SPECIES_POT

SNAP_TO_SYMMETRY
SYMMETRY_GENERATE

