#              Generated by Buildcell
#
# at 16:27:20 (GMT+1.0) 18th August 2020
# in /lustre/scratch/uccabz1/launch_tmp
# on node-c12f-029
# by uccabz1
#
# compiler GCC version 4.9.2
# options -cpp -iprefix /lustre/shared/ucl/apps/gcc/4.9.2/bin/../lib/gcc/x86_64-unknown-linux-gnu/4.9.2/ -mtune=corei7 -march=x86-64 -g -Og
#
# seed  2022822407 -2093356557 -1561249414   206000576 -1292386543 -2004608515  -121697716   771952846 -1928349265 -1341403147   699452426 -1013505405
#
#      Author: C. J. Pickard (cjp20@cam.ac.uk)
#                Space group: Cc
#

%BLOCK LATTICE_ABC
      7.44444      7.44444      7.70992
     75.40534     75.40534     84.87971
%ENDBLOCK LATTICE_ABC

%BLOCK POSITIONS_FRAC
  Li   0.2023915  -0.1351474  -0.1373109 SPIN=   0.00000
  Li  -0.1351474   0.2023915   0.3626891 SPIN=   0.00000
  Li  -0.2623627  -0.2539413  -0.2352118 SPIN=   0.00000
  Li  -0.2539413  -0.2623627   0.2647882 SPIN=   0.00000
  Fe   0.3689928  -0.4530501  -0.4652433 SPIN=   4.62511
  Fe  -0.4530501   0.3689928   0.0347567 SPIN=   4.62511
  Fe  -0.4851667   0.0507401  -0.4088469 SPIN=   3.37489
  Fe   0.0507401  -0.4851667   0.0911531 SPIN=   3.37489
   O  -0.2006196   0.2366757  -0.3863319 SPIN=   0.00000
   O  -0.0041716   0.5131432  -0.5018660 SPIN=   0.00000
   O  -0.2442801   0.4780563  -0.2085844 SPIN=   0.00000
   O  -0.3370747   0.5446500  -0.5054365 SPIN=   0.00000
   S  -0.1965365   0.4431313  -0.4005547 SPIN=   0.00000
   O   0.2366757  -0.2006196   0.1136681 SPIN=   0.00000
   O   0.5131432  -0.0041716  -0.0018660 SPIN=   0.00000
   O   0.4780563  -0.2442801   0.2914156 SPIN=   0.00000
   O   0.5446500  -0.3370747  -0.0054365 SPIN=   0.00000
   S   0.4431313  -0.1965365   0.0994453 SPIN=   0.00000
   O   0.1281384   0.1963891   0.0338402 SPIN=   0.00000
   O  -0.2151896   0.2175703   0.1033225 SPIN=   0.00000
   O  -0.0534353  -0.0899413   0.1344691 SPIN=   0.00000
   O  -0.0387575   0.1163605  -0.1753158 SPIN=   0.00000
   S  -0.0448110   0.1100946   0.0240790 SPIN=   0.00000
   O   0.1963891   0.1281384  -0.4661598 SPIN=   0.00000
   O   0.2175703  -0.2151896  -0.3966775 SPIN=   0.00000
   O  -0.0899413  -0.0534353  -0.3655309 SPIN=   0.00000
   O   0.1163605  -0.0387575  -0.6753158 SPIN=   0.00000
   S   0.1100946  -0.0448110  -0.4759210 SPIN=   0.00000
   F   0.2558556   0.3746197   0.2234913 SPIN=   0.00000
   F   0.3746197   0.2558556  -0.2765087 SPIN=   0.00000
   F  -0.3149902  -0.0997348   0.4426792 SPIN=   0.00000
   F  -0.0997348  -0.3149902  -0.0573208 SPIN=   0.00000
%ENDBLOCK POSITIONS_FRAC

# Note: total spin =  16.00

KPOINTS_MP_SPACING 0.07

%BLOCK SPECIES_POT
QC5
%ENDBLOCK SPECIES_POT

SNAP_TO_SYMMETRY
SYMMETRY_GENERATE

