#              Generated by Buildcell
#
# at 09:57:48 (GMT+1.0) 4th August 2020
# in /lustre/scratch/uccabz1/launch_tmp
# on node-c12m-025
# by uccabz1
#
# compiler GCC version 4.9.2
# options -cpp -iprefix /lustre/shared/ucl/apps/gcc/4.9.2/bin/../lib/gcc/x86_64-unknown-linux-gnu/4.9.2/ -mtune=corei7 -march=x86-64 -g -Og
#
# seed   -23905629  1790265061 -1442207437  -958912712  1953180706   201149707   -68123622  1295641733  1301740308 -1490359766 -1260344887   217639554
#
#      Author: C. J. Pickard (cjp20@cam.ac.uk)
#                Space group: P-4
#

%BLOCK LATTICE_ABC
      4.63997      9.28479      9.28479
     90.00000     90.00000     90.00000
%ENDBLOCK LATTICE_ABC

%BLOCK POSITIONS_FRAC
  Li   0.0611140  -0.2614524   0.2192811 SPIN=   0.00000
  Li   0.0611140   0.2614524  -0.2192811 SPIN=   0.00000
  Li  -0.0611140  -0.2192811  -0.2614524 SPIN=   0.00000
  Li  -0.0611140   0.2192811   0.2614524 SPIN=   0.00000
  Fe   0.4369111  -0.0041207  -0.2820216 SPIN=   4.00000
  Fe   0.4369111   0.0041207   0.2820216 SPIN=   4.00000
  Fe  -0.4369111   0.2820216  -0.0041207 SPIN=   4.00000
  Fe  -0.4369111  -0.2820216   0.0041207 SPIN=   4.00000
   O   0.2314778  -0.3796103   0.3735131 SPIN=   0.00000
   O  -0.0297019  -0.1865328   0.5028759 SPIN=   0.00000
   O   0.4976720  -0.1685171   0.4672834 SPIN=   0.00000
   O   0.2982843  -0.3490458   0.6361930 SPIN=   0.00000
   S   0.2494331  -0.2709265   0.4949663 SPIN=   0.00000
   O   0.2314778   0.3796103  -0.3735131 SPIN=   0.00000
   O  -0.0297019   0.1865328  -0.5028759 SPIN=   0.00000
   O   0.4976720   0.1685171  -0.4672834 SPIN=   0.00000
   O   0.2982843   0.3490458  -0.6361930 SPIN=   0.00000
   S   0.2494331   0.2709265  -0.4949663 SPIN=   0.00000
   O  -0.2314778  -0.3735131  -0.3796103 SPIN=   0.00000
   O   0.0297019  -0.5028759  -0.1865328 SPIN=   0.00000
   O  -0.4976720  -0.4672834  -0.1685171 SPIN=   0.00000
   O  -0.2982843  -0.6361930  -0.3490458 SPIN=   0.00000
   S  -0.2494331  -0.4949663  -0.2709265 SPIN=   0.00000
   O  -0.2314778   0.3735131   0.3796103 SPIN=   0.00000
   O   0.0297019   0.5028759   0.1865328 SPIN=   0.00000
   O  -0.4976720   0.4672834   0.1685171 SPIN=   0.00000
   O  -0.2982843   0.6361930   0.3490458 SPIN=   0.00000
   S  -0.2494331   0.4949663   0.2709265 SPIN=   0.00000
   F   0.2479427   0.1999059   0.1040139 SPIN=   0.00000
   F   0.2479427  -0.1999059  -0.1040139 SPIN=   0.00000
   F  -0.2479427  -0.1040139   0.1999059 SPIN=   0.00000
   F  -0.2479427   0.1040139  -0.1999059 SPIN=   0.00000
%ENDBLOCK POSITIONS_FRAC

# Note: total spin =  16.00

KPOINTS_MP_SPACING 0.07

%BLOCK SPECIES_POT
QC5
%ENDBLOCK SPECIES_POT

SNAP_TO_SYMMETRY
SYMMETRY_GENERATE

