#              Generated by Buildcell
#
# at 05:17:57 (GMT+1.0) 18th August 2020
# in /lustre/scratch/uccabz1/launch_tmp
# on node-c12o-016
# by uccabz1
#
# compiler GCC version 4.9.2
# options -cpp -iprefix /lustre/shared/ucl/apps/gcc/4.9.2/bin/../lib/gcc/x86_64-unknown-linux-gnu/4.9.2/ -mtune=corei7 -march=x86-64 -g -Og
#
# seed  -597801567  -212905096    51881193 -1407602137 -1886756484   565925519  1750896391  1132302304   483483924  -794882394    16688603  1878826236
#
#      Author: C. J. Pickard (cjp20@cam.ac.uk)
#                Space group: I41
#

%BLOCK LATTICE_ABC
      7.67322      7.67322      8.69443
    116.18509    116.18509     90.00000
%ENDBLOCK LATTICE_ABC

%BLOCK POSITIONS_FRAC
  Li   0.4923951  -0.3272324  -0.2283843 SPIN=   0.00000
  Li   0.2792206   0.0988482   0.7716157 SPIN=   0.00000
  Li   0.4227676  -0.4707794   0.2716157 SPIN=   0.00000
  Li  -0.1511518  -0.2576049  -0.7283843 SPIN=   0.00000
  Fe  -0.3266247   0.3858688  -0.1153247 SPIN=   4.00000
  Fe   0.2113000   0.4988065   0.8846753 SPIN=   4.00000
  Fe   0.1358688   0.4613000   0.3846753 SPIN=   4.00000
  Fe   0.2488065  -0.0766247   0.3846753 SPIN=   4.00000
   O  -0.0270508  -0.1072872  -0.3875398 SPIN=   0.00000
   O  -0.1593608   0.1604377  -0.2150368 SPIN=   0.00000
   O  -0.3517141  -0.0506851  -0.5775459 SPIN=   0.00000
   O  -0.0365534   0.1967293  -0.4215768 SPIN=   0.00000
   S  -0.1436698   0.0497987  -0.4004248 SPIN=   0.00000
   O  -0.3604890  -0.2802526  -0.3875398 SPIN=   0.00000
   O  -0.0556760  -0.3754745  -0.2150368 SPIN=   0.00000
   O  -0.2258318  -0.5268608  -0.5775459 SPIN=   0.00000
   O  -0.3850234  -0.6183061  -0.4215768 SPIN=   0.00000
   S  -0.2567550  -0.4502235  -0.4004248 SPIN=   0.00000
   O  -0.3572872  -0.1104890   0.1124602 SPIN=   0.00000
   O  -0.0895623   0.1943240   0.2849632 SPIN=   0.00000
   O  -0.3006851   0.0241682  -0.0775459 SPIN=   0.00000
   O  -0.0532707  -0.1350234   0.0784232 SPIN=   0.00000
   S  -0.2002013  -0.0067550   0.0995752 SPIN=   0.00000
   O   0.4697474   0.2229492   0.1124602 SPIN=   0.00000
   O   0.3745255   0.0906392   0.2849632 SPIN=   0.00000
   O   0.2231392  -0.1017141  -0.0775459 SPIN=   0.00000
   O   0.1316939   0.2134466   0.0784232 SPIN=   0.00000
   S   0.2997765   0.1063302   0.0995752 SPIN=   0.00000
   F   0.2887090   0.2887090   0.5774179 SPIN=   0.00000
   F   0.0387090  -0.4612910  -0.9225821 SPIN=   0.00000
   F   0.3118546  -0.1881454   0.6237092 SPIN=   0.00000
   F  -0.4381454  -0.4381454  -0.8762908 SPIN=   0.00000
%ENDBLOCK POSITIONS_FRAC

# Note: total spin =  16.00

KPOINTS_MP_SPACING 0.07

%BLOCK SPECIES_POT
QC5
%ENDBLOCK SPECIES_POT

SNAP_TO_SYMMETRY
SYMMETRY_GENERATE

