#              Generated by Buildcell
#
# at 03:43:48 (GMT+1.0) 18th August 2020
# in /lustre/scratch/uccabz1/launch_tmp
# on node-c12i-030
# by uccabz1
#
# compiler GCC version 4.9.2
# options -cpp -iprefix /lustre/shared/ucl/apps/gcc/4.9.2/bin/../lib/gcc/x86_64-unknown-linux-gnu/4.9.2/ -mtune=corei7 -march=x86-64 -g -Og
#
# seed  1465533600  -882931005   212280815  1445773865  -424625078  -863659144   888393193 -1347613718 -1621558509  -866531347  1345183554   570077022
#
#      Author: C. J. Pickard (cjp20@cam.ac.uk)
#                Space group: Cc
#

%BLOCK LATTICE_ABC
      7.19997      7.19997      8.75459
     94.60592     94.60592    116.88207
%ENDBLOCK LATTICE_ABC

%BLOCK POSITIONS_FRAC
  Li   0.0397316   0.1042673   0.1836748 SPIN=   0.00000
  Li   0.1042673   0.0397316  -0.3163252 SPIN=   0.00000
  Li  -0.4139624  -0.0865080  -0.4812539 SPIN=   0.00000
  Li  -0.0865080  -0.4139624   0.0187461 SPIN=   0.00000
  Fe   0.1753321  -0.4394063  -0.4386654 SPIN=   2.77144
  Fe  -0.4394063   0.1753321   0.0613346 SPIN=   2.77144
  Fe   0.3787729   0.1785427   0.4355846 SPIN=   5.22856
  Fe   0.1785427   0.3787729  -0.0644154 SPIN=   5.22856
   O  -0.3330632   0.3699354  -0.4176369 SPIN=   0.00000
   O  -0.4140545   0.2404473  -0.1655557 SPIN=   0.00000
   O  -0.0524744   0.5004812  -0.1948325 SPIN=   0.00000
   O  -0.1977509   0.1343531  -0.3215965 SPIN=   0.00000
   S  -0.2493358   0.3113042  -0.2749054 SPIN=   0.00000
   O   0.3699354  -0.3330632   0.0823631 SPIN=   0.00000
   O   0.2404473  -0.4140545   0.3344443 SPIN=   0.00000
   O   0.5004812  -0.0524744   0.3051675 SPIN=   0.00000
   O   0.1343531  -0.1977509   0.1784035 SPIN=   0.00000
   S   0.3113042  -0.2493358   0.2250946 SPIN=   0.00000
   O  -0.2322705  -0.3257673   0.2238350 SPIN=   0.00000
   O  -0.3935484  -0.3597218   0.4660081 SPIN=   0.00000
   O  -0.0531789  -0.0523049   0.4499122 SPIN=   0.00000
   O  -0.0732341  -0.4040230   0.4551848 SPIN=   0.00000
   S  -0.1880580  -0.2854543   0.3987350 SPIN=   0.00000
   O  -0.3257673  -0.2322705  -0.2761650 SPIN=   0.00000
   O  -0.3597218  -0.3935484  -0.0339919 SPIN=   0.00000
   O  -0.0523049  -0.0531789  -0.0500878 SPIN=   0.00000
   O  -0.4040230  -0.0732341  -0.0448152 SPIN=   0.00000
   S  -0.2854543  -0.1880580  -0.1012650 SPIN=   0.00000
   F   0.2576845  -0.1599619  -0.2815466 SPIN=   0.00000
   F  -0.1599619   0.2576845   0.2184534 SPIN=   0.00000
   F   0.2671767   0.3280080  -0.4487501 SPIN=   0.00000
   F   0.3280080   0.2671767   0.0512499 SPIN=   0.00000
%ENDBLOCK POSITIONS_FRAC

# Note: total spin =  16.00

KPOINTS_MP_SPACING 0.07

%BLOCK SPECIES_POT
QC5
%ENDBLOCK SPECIES_POT

SNAP_TO_SYMMETRY
SYMMETRY_GENERATE

