#              Generated by Buildcell
#
# at 00:51:52 (GMT+1.0) 18th August 2020
# in /lustre/scratch/uccabz1/launch_tmp
# on node-c12c-028
# by uccabz1
#
# compiler GCC version 4.9.2
# options -cpp -iprefix /lustre/shared/ucl/apps/gcc/4.9.2/bin/../lib/gcc/x86_64-unknown-linux-gnu/4.9.2/ -mtune=corei7 -march=x86-64 -g -Og
#
# seed   681488871 -1766621043  1944134694  1852498207  1865475666 -1445931348 -1255034203  -516269705  -882813484 -2076575640  -837874986    31539259
#
#      Author: C. J. Pickard (cjp20@cam.ac.uk)
#                Space group: Cm
#

%BLOCK LATTICE_ABC
      5.95289      8.93467      8.93467
    100.08494    109.45893    109.45893
%ENDBLOCK LATTICE_ABC

%BLOCK POSITIONS_FRAC
  Li   0.4815335  -0.0988847  -0.4006652 SPIN=   0.00000
  Li   0.4815335  -0.4006652  -0.0988847 SPIN=   0.00000
  Li   0.1576987  -0.3509161   0.1678462 SPIN=   0.00000
  Li   0.1576987   0.1678462  -0.3509161 SPIN=   0.00000
  Fe  -0.1913059  -0.2455271   0.4800252 SPIN=   4.10031
  Fe  -0.1913059   0.4800252  -0.2455271 SPIN=   4.10031
  Fe   0.2412664   0.3330613   0.3330613 SPIN=   0.59444
  Fe   0.4275378  -0.0845430  -0.0845430 SPIN=   7.20493
   O  -0.2356554   0.5861163   0.1002799 SPIN=   0.00000
   O  -0.5412213   0.2860533   0.0006604 SPIN=   0.00000
   O  -0.4038023   0.4625300   0.2895193 SPIN=   0.00000
   O  -0.0850322   0.3854341   0.2124446 SPIN=   0.00000
   S  -0.3164278   0.4300334   0.1507261 SPIN=   0.00000
   O  -0.2356554   0.1002799   0.5861163 SPIN=   0.00000
   O  -0.5412213   0.0006604   0.2860533 SPIN=   0.00000
   O  -0.4038023   0.2895193   0.4625300 SPIN=   0.00000
   O  -0.0850322   0.2124446   0.3854341 SPIN=   0.00000
   S  -0.3164278   0.1507261   0.4300334 SPIN=   0.00000
   O  -0.2958848   0.2316088  -0.1440285 SPIN=   0.00000
   O  -0.1661572  -0.0039456  -0.1754752 SPIN=   0.00000
   O   0.1042041   0.2478089   0.0767678 SPIN=   0.00000
   S  -0.0653483   0.1849919  -0.1102781 SPIN=   0.00000
   O  -0.2958848  -0.1440285   0.2316088 SPIN=   0.00000
   O  -0.1661572  -0.1754752  -0.0039456 SPIN=   0.00000
   O   0.1042041   0.0767678   0.2478089 SPIN=   0.00000
   S  -0.0653483  -0.1102781   0.1849919 SPIN=   0.00000
   O   0.4567929  -0.2569780  -0.2569780 SPIN=   0.00000
   O   0.2385543   0.0200635   0.0200635 SPIN=   0.00000
   F   0.1649731  -0.3403325  -0.0586039 SPIN=   0.00000
   F   0.1649731  -0.0586039  -0.3403325 SPIN=   0.00000
   F   0.4119912   0.4087729  -0.3086842 SPIN=   0.00000
   F   0.4119912  -0.3086842   0.4087729 SPIN=   0.00000
%ENDBLOCK POSITIONS_FRAC

# Note: total spin =  16.00

KPOINTS_MP_SPACING 0.07

%BLOCK SPECIES_POT
QC5
%ENDBLOCK SPECIES_POT

SNAP_TO_SYMMETRY
SYMMETRY_GENERATE

