#              Generated by Buildcell
#
# at 06:11:10 (GMT+1.0) 4th August 2020
# in /lustre/scratch/uccabz1/launch_tmp
# on node-c12l-018
# by uccabz1
#
# compiler GCC version 4.9.2
# options -cpp -iprefix /lustre/shared/ucl/apps/gcc/4.9.2/bin/../lib/gcc/x86_64-unknown-linux-gnu/4.9.2/ -mtune=corei7 -march=x86-64 -g -Og
#
# seed -1665826410   823310915  2004589233  2033456233  1685818629   463435048  1998547464   285679089   163048861  -690385312 -1600767019  1018965228
#
#      Author: C. J. Pickard (cjp20@cam.ac.uk)
#                Space group: Cc
#

%BLOCK LATTICE_ABC
      7.68370      7.68370      8.25722
    110.09502    110.09502    101.85142
%ENDBLOCK LATTICE_ABC

%BLOCK POSITIONS_FRAC
  Li  -0.1036517  -0.4516315  -0.3751009 SPIN=   0.00000
  Li   0.0483685   0.3963483   0.1248991 SPIN=   0.00000
  Li  -0.3446859  -0.3912451  -0.0403283 SPIN=   0.00000
  Li   0.1087549   0.1553141   0.4596717 SPIN=   0.00000
  Fe  -0.2802555  -0.0642337  -0.4824798 SPIN=   1.61339
  Fe   0.4357663   0.2197445   0.0175202 SPIN=   1.61339
  Fe   0.3692280  -0.3507020  -0.3737723 SPIN=   6.38661
  Fe   0.1492980  -0.1307720   0.1262277 SPIN=   6.38661
   O   0.2458088   0.3975797  -0.0011017 SPIN=   0.00000
   O  -0.0635989   0.4361827  -0.1819941 SPIN=   0.00000
   O   0.0010129   0.1313913  -0.3271183 SPIN=   0.00000
   O   0.2009582   0.4527235  -0.2886539 SPIN=   0.00000
   S   0.0960452   0.3544693  -0.1997170 SPIN=   0.00000
   O  -0.1024203  -0.2541912   0.4988983 SPIN=   0.00000
   O  -0.0638173  -0.5635989   0.3180059 SPIN=   0.00000
   O  -0.3686087  -0.4989871   0.1728817 SPIN=   0.00000
   O  -0.0472765  -0.2990418   0.2113461 SPIN=   0.00000
   S  -0.1455307  -0.4039548   0.3002830 SPIN=   0.00000
   O  -0.3752334   0.3150819  -0.1290292 SPIN=   0.00000
   O  -0.6788623   0.0619514  -0.4234077 SPIN=   0.00000
   O  -0.3629733   0.1731210  -0.4413344 SPIN=   0.00000
   O  -0.5445693   0.4017353  -0.3878036 SPIN=   0.00000
   S  -0.4904096   0.2379724  -0.3453937 SPIN=   0.00000
   O  -0.1849181   0.1247666   0.3709708 SPIN=   0.00000
   O  -0.4380486  -0.1788623   0.0765923 SPIN=   0.00000
   O  -0.3268790   0.1370267   0.0586656 SPIN=   0.00000
   O  -0.0982647  -0.0445693   0.1121964 SPIN=   0.00000
   S  -0.2620276   0.0095904   0.1546063 SPIN=   0.00000
   F   0.2170509   0.2291818   0.2100154 SPIN=   0.00000
   F  -0.2708182  -0.2829491  -0.2899846 SPIN=   0.00000
   F   0.3708561  -0.2225524   0.2588706 SPIN=   0.00000
   F   0.2774476  -0.1291439  -0.2411294 SPIN=   0.00000
%ENDBLOCK POSITIONS_FRAC

# Note: total spin =  16.00

KPOINTS_MP_SPACING 0.07

%BLOCK SPECIES_POT
QC5
%ENDBLOCK SPECIES_POT

SNAP_TO_SYMMETRY
SYMMETRY_GENERATE

