#              Generated by Buildcell
#
# at 09:43:59 (GMT+1.0) 4th August 2020
# in /lustre/scratch/uccabz1/launch_tmp
# on node-c12j-010
# by uccabz1
#
# compiler GCC version 4.9.2
# options -cpp -iprefix /lustre/shared/ucl/apps/gcc/4.9.2/bin/../lib/gcc/x86_64-unknown-linux-gnu/4.9.2/ -mtune=corei7 -march=x86-64 -g -Og
#
# seed  1691085113 -1582647207  1066328016 -1108457286  1831906761 -1934773386  1200856583  1763155746  -642375212  1362090905  -232278656  2125775084
#
#      Author: C. J. Pickard (cjp20@cam.ac.uk)
#                Space group: Pc
#

%BLOCK LATTICE_ABC
      5.51319      7.34497     10.09079
     90.00000     90.00000    101.78866
%ENDBLOCK LATTICE_ABC

%BLOCK POSITIONS_FRAC
  Li   0.4474963   0.2205271   0.2959734 SPIN=   0.00000
  Li   0.4474963  -0.2794729  -0.2959734 SPIN=   0.00000
  Li  -0.2962637   0.1354272  -0.0184020 SPIN=   0.00000
  Li  -0.2962637  -0.3645728   0.0184020 SPIN=   0.00000
  Fe  -0.0863320   0.1002283   0.3544421 SPIN=   2.24780
  Fe  -0.0863320  -0.3997717  -0.3544421 SPIN=   2.24780
  Fe   0.3992249  -0.4269022   0.4214300 SPIN=   5.75220
  Fe   0.3992249   0.0730978  -0.4214300 SPIN=   5.75220
   O   0.7397927   0.4192440  -0.2138690 SPIN=   0.00000
   O   0.3134604   0.4601913  -0.2604646 SPIN=   0.00000
   O   0.4460308   0.4249069  -0.0291925 SPIN=   0.00000
   O   0.3846707   0.1560811  -0.1822302 SPIN=   0.00000
   S   0.4709886   0.3651058  -0.1714391 SPIN=   0.00000
   O   0.7397927  -0.0807560   0.2138690 SPIN=   0.00000
   O   0.3134604  -0.0398087   0.2604646 SPIN=   0.00000
   O   0.4460308  -0.0750931   0.0291925 SPIN=   0.00000
   O   0.3846707  -0.3439189   0.1822302 SPIN=   0.00000
   S   0.4709886  -0.1348942   0.1714391 SPIN=   0.00000
   O  -0.0206190   0.1976170  -0.1853561 SPIN=   0.00000
   O  -0.3309606  -0.0975420  -0.1739417 SPIN=   0.00000
   O   0.0830750  -0.0933380  -0.2701416 SPIN=   0.00000
   O  -0.2176397   0.0535735  -0.3907439 SPIN=   0.00000
   S  -0.1215361   0.0150776  -0.2550459 SPIN=   0.00000
   O  -0.0206190  -0.3023830   0.1853561 SPIN=   0.00000
   O  -0.3309606  -0.5975420   0.1739417 SPIN=   0.00000
   O   0.0830750  -0.5933380   0.2701416 SPIN=   0.00000
   O  -0.2176397  -0.4464265   0.3907439 SPIN=   0.00000
   S  -0.1215361  -0.4849224   0.2550459 SPIN=   0.00000
   F   0.0538768  -0.3499947  -0.0750411 SPIN=   0.00000
   F   0.0538768   0.1500053   0.0750411 SPIN=   0.00000
   F   0.3475910   0.3013556   0.4701234 SPIN=   0.00000
   F   0.3475910  -0.1986444  -0.4701234 SPIN=   0.00000
%ENDBLOCK POSITIONS_FRAC

# Note: total spin =  16.00

KPOINTS_MP_SPACING 0.07

%BLOCK SPECIES_POT
QC5
%ENDBLOCK SPECIES_POT

SNAP_TO_SYMMETRY
SYMMETRY_GENERATE

