#              Generated by Buildcell
#
# at 22:59:48 (GMT+1.0) 17th August 2020
# in /scratch/scratch/uccabz1/launch_tmp
# on node-k10h-031
# by uccabz1
#
# compiler GCC version 4.9.2
# options -cpp -iprefix /scratch/UCL/applications/gcc/4.9.2/bin/../lib/gcc/x86_64-unknown-linux-gnu/4.9.2/ -mtune=corei7 -march=x86-64 -g -O2
#
# seed -1150749466  1399465238  1453042403  -300752959  -616756471  -845541033   510860361 -1861904594  1960604914  1925296617 -1297806272    65590333
#
#      Author: C. J. Pickard (cjp20@cam.ac.uk)
#                Space group: Cc
#

%BLOCK LATTICE_ABC
      5.72707      7.07311     11.07447
     84.85267     77.19660     66.11837
%ENDBLOCK LATTICE_ABC

%BLOCK POSITIONS_FRAC
  Li   0.2751140  -0.1806559   0.3351151 SPIN=   0.00000
  Li   0.0944581   0.1806559  -0.1648849 SPIN=   0.00000
  Li   0.3464880  -0.3854739  -0.2905186 SPIN=   0.00000
  Li  -0.0389860   0.3854739   0.2094814 SPIN=   0.00000
  Fe   0.2953506  -0.0357669   0.0606173 SPIN=   2.52894
  Fe   0.2595837   0.0357669  -0.4393827 SPIN=   2.52894
  Fe  -0.2207867  -0.2624144  -0.2788660 SPIN=   5.47106
  Fe  -0.4832012   0.2624144   0.2211340 SPIN=   5.47106
   O  -0.2963402   0.4280274  -0.2996082 SPIN=   0.00000
   O  -0.2477976   0.1842352  -0.1229692 SPIN=   0.00000
   O  -0.1642506   0.0551017  -0.3352929 SPIN=   0.00000
   O  -0.6148439   0.2669790  -0.2292916 SPIN=   0.00000
   S  -0.3308081   0.2335859  -0.2467905 SPIN=   0.00000
   O   0.1316872  -0.4280274   0.2003918 SPIN=   0.00000
   O  -0.0635623  -0.1842352   0.3770308 SPIN=   0.00000
   O  -0.1091489  -0.0551017   0.1647071 SPIN=   0.00000
   O  -0.3478649  -0.2669790   0.2707084 SPIN=   0.00000
   S  -0.0972222  -0.2335859   0.2532095 SPIN=   0.00000
   O   0.0644008   0.4464885   0.5343863 SPIN=   0.00000
   O   0.2324138   0.7172897   0.5385916 SPIN=   0.00000
   O   0.3920128   0.4849975   0.3573800 SPIN=   0.00000
   O   0.5190222   0.3486295   0.5573240 SPIN=   0.00000
   S   0.3019624   0.4993513   0.4969204 SPIN=   0.00000
   O  -0.4891106  -0.4464885   0.0343863 SPIN=   0.00000
   O  -0.0502965  -0.7172897   0.0385916 SPIN=   0.00000
   O  -0.1229898  -0.4849975  -0.1426200 SPIN=   0.00000
   O  -0.1323483  -0.3486295   0.0573240 SPIN=   0.00000
   S  -0.1986863  -0.4993513  -0.0030796 SPIN=   0.00000
   F  -0.4061790  -0.1668951  -0.4120957 SPIN=   0.00000
   F   0.4269260   0.1668951   0.0879043 SPIN=   0.00000
   F   0.1593587  -0.1536928  -0.0794482 SPIN=   0.00000
   F   0.0056659   0.1536928   0.4205518 SPIN=   0.00000
%ENDBLOCK POSITIONS_FRAC

# Note: total spin =  16.00

KPOINTS_MP_SPACING 0.07

%BLOCK SPECIES_POT
QC5
%ENDBLOCK SPECIES_POT

SNAP_TO_SYMMETRY
SYMMETRY_GENERATE

