#              Generated by Buildcell
#
# at 07:59:12 (GMT+1.0) 4th August 2020
# in /lustre/scratch/uccabz1/launch_tmp
# on node-c12c-018
# by uccabz1
#
# compiler GCC version 4.9.2
# options -cpp -iprefix /lustre/shared/ucl/apps/gcc/4.9.2/bin/../lib/gcc/x86_64-unknown-linux-gnu/4.9.2/ -mtune=corei7 -march=x86-64 -g -Og
#
# seed   -56504931 -2000037829   297030685  -354777818   192051803 -1040068124  1132431392  1304375228 -1872232563  -385072918  -870857306  -747856807
#
#      Author: C. J. Pickard (cjp20@cam.ac.uk)
#                Space group: P21
#

%BLOCK LATTICE_ABC
      4.06336      8.91651     11.29619
     90.00000     90.00000    102.21917
%ENDBLOCK LATTICE_ABC

%BLOCK POSITIONS_FRAC
  Li  -0.1670051  -0.2482422   0.2056098 SPIN=   0.00000
  Li   0.1670051   0.2482422  -0.2943902 SPIN=   0.00000
  Li   0.1743264   0.4759233   0.3946914 SPIN=   0.00000
  Li  -0.1743264  -0.4759233  -0.1053086 SPIN=   0.00000
  Fe  -0.3260931   0.1781216   0.2065893 SPIN=   3.82602
  Fe   0.3260931  -0.1781216  -0.2934107 SPIN=   3.82602
  Fe   0.3710298  -0.1663218   0.0295571 SPIN=   4.17398
  Fe  -0.3710298   0.1663218  -0.4704429 SPIN=   4.17398
   O   0.5329031   0.4956927   0.0440564 SPIN=   0.00000
   O   0.0632664   0.5862870   0.1401522 SPIN=   0.00000
   O   0.5476791   0.5460070   0.2596577 SPIN=   0.00000
   O   0.1435949   0.3229472   0.1777715 SPIN=   0.00000
   S   0.3218609   0.4877335   0.1554095 SPIN=   0.00000
   O  -0.5329031  -0.4956927  -0.4559436 SPIN=   0.00000
   O  -0.0632664  -0.5862870  -0.3598478 SPIN=   0.00000
   O  -0.5476791  -0.5460070  -0.2403423 SPIN=   0.00000
   O  -0.1435949  -0.3229472  -0.3222285 SPIN=   0.00000
   S  -0.3218609  -0.4877335  -0.3445905 SPIN=   0.00000
   O   0.8048933  -0.1658677   0.3943748 SPIN=   0.00000
   O   0.2323259  -0.2969218   0.4568159 SPIN=   0.00000
   O   0.3296483  -0.1942655   0.2533230 SPIN=   0.00000
   O   0.3628024  -0.0163040   0.4231308 SPIN=   0.00000
   S   0.4324175  -0.1683397   0.3819111 SPIN=   0.00000
   O  -0.8048933   0.1658677  -0.1056252 SPIN=   0.00000
   O  -0.2323259   0.2969218  -0.0431841 SPIN=   0.00000
   O  -0.3296483   0.1942655  -0.2466770 SPIN=   0.00000
   O  -0.3628024   0.0163040  -0.0768692 SPIN=   0.00000
   S  -0.4324175   0.1683397  -0.1180889 SPIN=   0.00000
   F   0.0150563   0.0081388   0.1292602 SPIN=   0.00000
   F  -0.0150563  -0.0081388  -0.3707398 SPIN=   0.00000
   F   0.2499655  -0.3082634  -0.1175456 SPIN=   0.00000
   F  -0.2499655   0.3082634   0.3824544 SPIN=   0.00000
%ENDBLOCK POSITIONS_FRAC

# Note: total spin =  16.00

KPOINTS_MP_SPACING 0.07

%BLOCK SPECIES_POT
QC5
%ENDBLOCK SPECIES_POT

SNAP_TO_SYMMETRY
SYMMETRY_GENERATE

