#              Generated by Buildcell
#
# at 07:29:20 (GMT+1.0) 4th August 2020
# in /lustre/scratch/uccabz1/launch_tmp
# on node-c12p-032
# by uccabz1
#
# compiler GCC version 4.9.2
# options -cpp -iprefix /lustre/shared/ucl/apps/gcc/4.9.2/bin/../lib/gcc/x86_64-unknown-linux-gnu/4.9.2/ -mtune=corei7 -march=x86-64 -g -Og
#
# seed -1515759035 -1850871245 -1408518226  1260801089   220610600   530286946  -645482042  -795876569  2127015494 -1814797300  1952524165   109600333
#
#      Author: C. J. Pickard (cjp20@cam.ac.uk)
#                Space group: Pcc2
#

%BLOCK LATTICE_ABC
      5.54229      8.12255      8.88542
     90.00000     90.00000     90.00000
%ENDBLOCK LATTICE_ABC

%BLOCK POSITIONS_FRAC
  Li   0.2462751  -0.1644648  -0.1577120 SPIN=   0.00000
  Li  -0.2462751  -0.1644648   0.1577120 SPIN=   0.00000
  Li  -0.2462751   0.3355352  -0.1577120 SPIN=   0.00000
  Li   0.2462751   0.3355352   0.1577120 SPIN=   0.00000
  Fe   0.3171215  -0.0369377   0.2923106 SPIN=   4.00000
  Fe  -0.3171215  -0.0369377  -0.2923106 SPIN=   4.00000
  Fe  -0.3171215   0.4630623   0.2923106 SPIN=   4.00000
  Fe   0.3171215   0.4630623  -0.2923106 SPIN=   4.00000
   O   0.2390801   0.2076607   0.3560954 SPIN=   0.00000
   O   0.2143196   0.0928219   0.0985669 SPIN=   0.00000
   O  -0.1119207   0.2725027   0.1944383 SPIN=   0.00000
   O  -0.0611072  -0.0085353   0.2972641 SPIN=   0.00000
   O  -0.2390801   0.2076607  -0.3560954 SPIN=   0.00000
   O  -0.2143196   0.0928219  -0.0985669 SPIN=   0.00000
   O   0.1119207   0.2725027  -0.1944383 SPIN=   0.00000
   O   0.0611072  -0.0085353  -0.2972641 SPIN=   0.00000
   O  -0.2390801  -0.2923393   0.3560954 SPIN=   0.00000
   O  -0.2143196  -0.4071781   0.0985669 SPIN=   0.00000
   O   0.1119207  -0.2274973   0.1944383 SPIN=   0.00000
   O   0.0611072  -0.5085353   0.2972641 SPIN=   0.00000
   O   0.2390801  -0.2923393  -0.3560954 SPIN=   0.00000
   O   0.2143196  -0.4071781  -0.0985669 SPIN=   0.00000
   O  -0.1119207  -0.2274973  -0.1944383 SPIN=   0.00000
   O  -0.0611072  -0.5085353  -0.2972641 SPIN=   0.00000
   S   0.0000000   0.2132964   0.5000000 SPIN=   0.00000
   S   0.0000000  -0.2867036  -0.5000000 SPIN=   0.00000
   S   0.0000000   0.0965474   0.0000000 SPIN=   0.00000
   S   0.0000000  -0.4034526  -0.0000000 SPIN=   0.00000
   F  -0.5000000  -0.0364930   0.5000000 SPIN=   0.00000
   F   0.5000000   0.4635070  -0.5000000 SPIN=   0.00000
   F   0.5000000  -0.1534410   0.0000000 SPIN=   0.00000
   F   0.5000000   0.3465590   0.0000000 SPIN=   0.00000
%ENDBLOCK POSITIONS_FRAC

# Note: total spin =  16.00

KPOINTS_MP_SPACING 0.07

%BLOCK SPECIES_POT
QC5
%ENDBLOCK SPECIES_POT

SNAP_TO_SYMMETRY
SYMMETRY_GENERATE

