#              Generated by Buildcell
#
# at 04:29:47 (GMT+1.0) 18th August 2020
# in /scratch/scratch/uccabz1/launch_tmp
# on node-k10c-033
# by uccabz1
#
# compiler GCC version 4.9.2
# options -cpp -iprefix /scratch/UCL/applications/gcc/4.9.2/bin/../lib/gcc/x86_64-unknown-linux-gnu/4.9.2/ -mtune=corei7 -march=x86-64 -g -O2
#
# seed  1397872343   671768416 -1308784375 -1414947690   259109961 -1212510165 -1192589507 -1860144029 -1205200297  1290489977   391782392 -1932380983
#
#      Author: C. J. Pickard (cjp20@cam.ac.uk)
#                Space group: P21212
#

%BLOCK LATTICE_ABC
      6.30209      7.06809      8.97994
     90.00000     90.00000     90.00000
%ENDBLOCK LATTICE_ABC

%BLOCK POSITIONS_FRAC
  Li   0.2655670  -0.2391103  -0.1785288 SPIN=   0.00000
  Li  -0.2655670   0.2391103  -0.1785288 SPIN=   0.00000
  Li   0.2344330   0.2608897   0.1785288 SPIN=   0.00000
  Li  -0.2344330  -0.2608897   0.1785288 SPIN=   0.00000
  Fe  -0.2500001   0.1363418   0.4400381 SPIN=   4.00000
  Fe   0.2500001  -0.1363418   0.4400381 SPIN=   4.00000
  Fe  -0.2499999  -0.3636582  -0.4400381 SPIN=   4.00000
  Fe   0.2499999   0.3636582  -0.4400381 SPIN=   4.00000
   O  -0.2228927   0.4630433  -0.0201691 SPIN=   0.00000
   O  -0.2445913   0.4794028   0.2547087 SPIN=   0.00000
   O  -0.0712922   0.2056036   0.1333794 SPIN=   0.00000
   O  -0.4607339   0.2454143   0.1167704 SPIN=   0.00000
   S  -0.2498775   0.3483660   0.1211723 SPIN=   0.00000
   O   0.2228927  -0.4630433  -0.0201691 SPIN=   0.00000
   O   0.2445913  -0.4794028   0.2547087 SPIN=   0.00000
   O   0.0712922  -0.2056036   0.1333794 SPIN=   0.00000
   O   0.4607339  -0.2454143   0.1167704 SPIN=   0.00000
   S   0.2498775  -0.3483660   0.1211723 SPIN=   0.00000
   O  -0.2771073  -0.0369567   0.0201691 SPIN=   0.00000
   O  -0.2554087  -0.0205972  -0.2547087 SPIN=   0.00000
   O  -0.4287078  -0.2943964  -0.1333794 SPIN=   0.00000
   O  -0.0392661  -0.2545857  -0.1167704 SPIN=   0.00000
   S  -0.2501225  -0.1516340  -0.1211723 SPIN=   0.00000
   O   0.2771073   0.0369567   0.0201691 SPIN=   0.00000
   O   0.2554087   0.0205972  -0.2547087 SPIN=   0.00000
   O   0.4287078   0.2943964  -0.1333794 SPIN=   0.00000
   O   0.0392661   0.2545857  -0.1167704 SPIN=   0.00000
   S   0.2501225   0.1516340  -0.1211723 SPIN=   0.00000
   F  -0.2500065  -0.1755438   0.3746176 SPIN=   0.00000
   F   0.2500065   0.1755438   0.3746176 SPIN=   0.00000
   F  -0.2499935   0.3244562  -0.3746176 SPIN=   0.00000
   F   0.2499935  -0.3244562  -0.3746176 SPIN=   0.00000
%ENDBLOCK POSITIONS_FRAC

# Note: total spin =  16.00

KPOINTS_MP_SPACING 0.07

%BLOCK SPECIES_POT
QC5
%ENDBLOCK SPECIES_POT

SNAP_TO_SYMMETRY
SYMMETRY_GENERATE

