#              Generated by Buildcell
#
# at 06:29:33 (GMT+1.0) 4th August 2020
# in /lustre/scratch/uccabz1/launch_tmp
# on node-c12p-029
# by uccabz1
#
# compiler GCC version 4.9.2
# options -cpp -iprefix /lustre/shared/ucl/apps/gcc/4.9.2/bin/../lib/gcc/x86_64-unknown-linux-gnu/4.9.2/ -mtune=corei7 -march=x86-64 -g -Og
#
# seed   392644497  1701254669   963986060   842799012  1020223322 -1216080615   590338383  2108597129 -1828004992  -396682356  -364396347   378896930
#
#      Author: C. J. Pickard (cjp20@cam.ac.uk)
#                Space group: P21
#

%BLOCK LATTICE_ABC
      5.75920      8.26484      9.05846
    111.92058     90.00000     90.00000
%ENDBLOCK LATTICE_ABC

%BLOCK POSITIONS_FRAC
  Li   0.2237110  -0.3543843   0.1452554 SPIN=   0.00000
  Li  -0.2762890   0.3543843  -0.1452554 SPIN=   0.00000
  Li   0.0711584   0.2854041   0.3308335 SPIN=   0.00000
  Li  -0.4288416  -0.2854041  -0.3308335 SPIN=   0.00000
  Fe  -0.1001589  -0.1570253  -0.0408609 SPIN=   2.94879
  Fe   0.3998411   0.1570253   0.0408609 SPIN=   2.94879
  Fe   0.2325007   0.4460644  -0.2531027 SPIN=   5.05121
  Fe  -0.2674993  -0.4460644   0.2531027 SPIN=   5.05121
   O  -0.2069213   0.5455352  -0.3028552 SPIN=   0.00000
   O  -0.3328427   0.4182832  -0.5841775 SPIN=   0.00000
   O  -0.4710128   0.2909232  -0.3923847 SPIN=   0.00000
   O  -0.0601957   0.2562569  -0.4787793 SPIN=   0.00000
   S  -0.2677431   0.3777496  -0.4395492 SPIN=   0.00000
   O   0.2930787  -0.5455352   0.3028552 SPIN=   0.00000
   O   0.1671573  -0.4182832   0.5841775 SPIN=   0.00000
   O   0.0289872  -0.2909232   0.3923847 SPIN=   0.00000
   O   0.4398043  -0.2562569   0.4787793 SPIN=   0.00000
   S   0.2322569  -0.3777496   0.4395492 SPIN=   0.00000
   O  -0.1615515   0.0530524  -0.3735936 SPIN=   0.00000
   O   0.2525889   0.1297403  -0.3142675 SPIN=   0.00000
   O   0.0732969  -0.0979133  -0.2352194 SPIN=   0.00000
   O  -0.0351196   0.2118203  -0.0956321 SPIN=   0.00000
   S   0.0323037   0.0741749  -0.2546781 SPIN=   0.00000
   O  -0.6615515  -0.0530524   0.3735936 SPIN=   0.00000
   O  -0.2474111  -0.1297403   0.3142675 SPIN=   0.00000
   O  -0.4267031   0.0979133   0.2352194 SPIN=   0.00000
   O  -0.5351196  -0.2118203   0.0956321 SPIN=   0.00000
   S  -0.4676963  -0.0741749   0.2546781 SPIN=   0.00000
   F  -0.4153153   0.3925835   0.0557746 SPIN=   0.00000
   F   0.0846847  -0.3925835  -0.0557746 SPIN=   0.00000
   F  -0.4677205  -0.0891189  -0.1375050 SPIN=   0.00000
   F   0.0322795   0.0891189   0.1375050 SPIN=   0.00000
%ENDBLOCK POSITIONS_FRAC

# Note: total spin =  16.00

KPOINTS_MP_SPACING 0.07

%BLOCK SPECIES_POT
QC5
%ENDBLOCK SPECIES_POT

SNAP_TO_SYMMETRY
SYMMETRY_GENERATE

