#              Generated by Buildcell
#
# at 08:55:33 (GMT+1.0) 4th August 2020
# in /lustre/scratch/uccabz1/launch_tmp
# on node-c12k-031
# by uccabz1
#
# compiler GCC version 4.9.2
# options -cpp -iprefix /lustre/shared/ucl/apps/gcc/4.9.2/bin/../lib/gcc/x86_64-unknown-linux-gnu/4.9.2/ -mtune=corei7 -march=x86-64 -g -Og
#
# seed -1084475495  2128316280  -155452843   697299770 -2009590076 -1294528717   246909345  1723137954 -1407099151    62371903 -1477253462   205214448
#
#      Author: C. J. Pickard (cjp20@cam.ac.uk)
#                Space group: P-1
#

%BLOCK LATTICE_ABC
      5.61472      5.99383     12.76581
     76.58023     81.52642     73.94778
%ENDBLOCK LATTICE_ABC

%BLOCK POSITIONS_FRAC
  Li   0.2431875   0.2639656   0.4276758 SPIN=   0.00000
  Li  -0.2431875  -0.2639656  -0.4276758 SPIN=   0.00000
  Li   0.2706198  -0.3634668   0.1298297 SPIN=   0.00000
  Li  -0.2706198   0.3634668  -0.1298297 SPIN=   0.00000
  Fe  -0.4273499   0.1894477  -0.3502243 SPIN=   3.76737
  Fe   0.4273499  -0.1894477   0.3502243 SPIN=   3.76737
  Fe  -0.0170317   0.1933612   0.1442127 SPIN=   4.23263
  Fe   0.0170317  -0.1933612  -0.1442127 SPIN=   4.23263
   O  -0.0029656   0.2348591   0.3276028 SPIN=   0.00000
   O  -0.2452560   0.0595132   0.4881511 SPIN=   0.00000
   O  -0.4583753   0.3033432   0.3277822 SPIN=   0.00000
   O  -0.2895205   0.4926561   0.4428872 SPIN=   0.00000
   S  -0.2490293   0.2725929   0.3966059 SPIN=   0.00000
   O   0.0029656  -0.2348591  -0.3276028 SPIN=   0.00000
   O   0.2452560  -0.0595132  -0.4881511 SPIN=   0.00000
   O   0.4583753  -0.3033432  -0.3277822 SPIN=   0.00000
   O   0.2895205  -0.4926561  -0.4428872 SPIN=   0.00000
   S   0.2490293  -0.2725929  -0.3966059 SPIN=   0.00000
   O  -0.2326054  -0.4792133   0.1973652 SPIN=   0.00000
   O  -0.4944956  -0.1617427   0.0706396 SPIN=   0.00000
   O  -0.0355927  -0.2518096   0.0374675 SPIN=   0.00000
   O  -0.2479663  -0.0590854   0.1895986 SPIN=   0.00000
   S  -0.2526650  -0.2379628   0.1237677 SPIN=   0.00000
   O   0.2326054   0.4792133  -0.1973652 SPIN=   0.00000
   O   0.4944956   0.1617427  -0.0706396 SPIN=   0.00000
   O   0.0355927   0.2518096  -0.0374675 SPIN=   0.00000
   O   0.2479663   0.0590854  -0.1895986 SPIN=   0.00000
   S   0.2526650   0.2379628  -0.1237677 SPIN=   0.00000
   F   0.1091715  -0.2963305   0.3436907 SPIN=   0.00000
   F  -0.1091715   0.2963305  -0.3436907 SPIN=   0.00000
   F  -0.3225117  -0.3213060  -0.1361578 SPIN=   0.00000
   F   0.3225117   0.3213060   0.1361578 SPIN=   0.00000
%ENDBLOCK POSITIONS_FRAC

# Note: total spin =  16.00

KPOINTS_MP_SPACING 0.07

%BLOCK SPECIES_POT
QC5
%ENDBLOCK SPECIES_POT

SNAP_TO_SYMMETRY
SYMMETRY_GENERATE

