#              Generated by Buildcell
#
# at 12:17:52 (GMT+1.0) 18th August 2020
# in /scratch/scratch/uccabz1/launch_tmp
# on node-k10b-024
# by uccabz1
#
# compiler GCC version 4.9.2
# options -cpp -iprefix /scratch/UCL/applications/gcc/4.9.2/bin/../lib/gcc/x86_64-unknown-linux-gnu/4.9.2/ -mtune=corei7 -march=x86-64 -g -O2
#
# seed  1125521403   324776119   300964367   507105588  -400514914  1149240311 -1388039227   383440609  1088149646 -1731404383    56587023  -758755445
#
#      Author: C. J. Pickard (cjp20@cam.ac.uk)
#                Space group: P43
#

%BLOCK LATTICE_ABC
      6.70278      6.70278      8.90328
     90.00000     90.00000     90.00000
%ENDBLOCK LATTICE_ABC

%BLOCK POSITIONS_FRAC
  Li  -0.1207338   0.2986340   0.3073603 SPIN=   0.00000
  Li   0.1207338  -0.2986340  -0.1926397 SPIN=   0.00000
  Li   0.2986340   0.1207338   0.0573603 SPIN=   0.00000
  Li  -0.2986340  -0.1207338  -0.4426397 SPIN=   0.00000
  Fe   0.3578344   0.0982621  -0.2842212 SPIN=   4.00000
  Fe  -0.3578344  -0.0982621   0.2157788 SPIN=   4.00000
  Fe   0.0982621  -0.3578344   0.4657788 SPIN=   4.00000
  Fe  -0.0982621   0.3578344  -0.0342212 SPIN=   4.00000
   O   0.2504055   0.2787730   0.5094558 SPIN=   0.00000
   O   0.4439824   0.0432383   0.3526493 SPIN=   0.00000
   O   0.3326790   0.3658359   0.2465174 SPIN=   0.00000
   O   0.0859984   0.1004045   0.2998912 SPIN=   0.00000
   S   0.2782663   0.1970629   0.3521284 SPIN=   0.00000
   O  -0.2504055  -0.2787730   0.0094558 SPIN=   0.00000
   O  -0.4439824  -0.0432383  -0.1473507 SPIN=   0.00000
   O  -0.3326790  -0.3658359  -0.2534826 SPIN=   0.00000
   O  -0.0859984  -0.1004045  -0.2001088 SPIN=   0.00000
   S  -0.2782663  -0.1970629  -0.1478716 SPIN=   0.00000
   O   0.2787730  -0.2504055   0.2594558 SPIN=   0.00000
   O   0.0432383  -0.4439824   0.1026493 SPIN=   0.00000
   O   0.3658359  -0.3326790  -0.0034826 SPIN=   0.00000
   O   0.1004045  -0.0859984   0.0498912 SPIN=   0.00000
   S   0.1970629  -0.2782663   0.1021284 SPIN=   0.00000
   O  -0.2787730   0.2504055  -0.2405442 SPIN=   0.00000
   O  -0.0432383   0.4439824  -0.3973507 SPIN=   0.00000
   O  -0.3658359   0.3326790  -0.5034826 SPIN=   0.00000
   O  -0.1004045   0.0859984  -0.4501088 SPIN=   0.00000
   S  -0.1970629   0.2782663  -0.3978716 SPIN=   0.00000
   F   0.2030600   0.2721637  -0.1165101 SPIN=   0.00000
   F  -0.2030600  -0.2721637   0.3834899 SPIN=   0.00000
   F   0.2721637  -0.2030600  -0.3665101 SPIN=   0.00000
   F  -0.2721637   0.2030600   0.1334899 SPIN=   0.00000
%ENDBLOCK POSITIONS_FRAC

# Note: total spin =  16.00

KPOINTS_MP_SPACING 0.07

%BLOCK SPECIES_POT
QC5
%ENDBLOCK SPECIES_POT

SNAP_TO_SYMMETRY
SYMMETRY_GENERATE

