#              Generated by Buildcell
#
# at 09:43:44 (GMT+1.0) 4th August 2020
# in /lustre/scratch/uccabz1/launch_tmp
# on node-c12e-007
# by uccabz1
#
# compiler GCC version 4.9.2
# options -cpp -iprefix /lustre/shared/ucl/apps/gcc/4.9.2/bin/../lib/gcc/x86_64-unknown-linux-gnu/4.9.2/ -mtune=corei7 -march=x86-64 -g -Og
#
# seed  1930981493   293277874  1067178156 -1931936438  -692659470   -95109481   494059014 -1970288635  1162199646    86318421   555538968  1322162161
#
#      Author: C. J. Pickard (cjp20@cam.ac.uk)
#                Space group: Pc
#

%BLOCK LATTICE_ABC
      5.64411      5.76564     12.29227
     90.48031     90.00000     90.00000
%ENDBLOCK LATTICE_ABC

%BLOCK POSITIONS_FRAC
  Li   0.2234981   0.0200960  -0.1136938 SPIN=   0.00000
  Li  -0.2234981  -0.4799040  -0.1136938 SPIN=   0.00000
  Li   0.2765144  -0.4856840   0.0970211 SPIN=   0.00000
  Li  -0.2765144   0.0143160   0.0970211 SPIN=   0.00000
  Fe  -0.2765076   0.0312233  -0.1855254 SPIN=   3.98417
  Fe   0.2765076  -0.4687767  -0.1855254 SPIN=   3.98417
  Fe  -0.2296531  -0.4389931  -0.3968364 SPIN=   4.01583
  Fe   0.2296531   0.0610069  -0.3968364 SPIN=   4.01583
   O  -0.3477968   0.5629759   0.1142214 SPIN=   0.00000
   O  -0.2531047   0.6036873   0.3100369 SPIN=   0.00000
   O   0.0045904   0.3665837   0.1900736 SPIN=   0.00000
   O  -0.3974966   0.2282780   0.2368876 SPIN=   0.00000
   S  -0.2484519   0.4403812   0.2128049 SPIN=   0.00000
   O   0.3477968   0.0629759   0.1142214 SPIN=   0.00000
   O   0.2531047   0.1036873   0.3100369 SPIN=   0.00000
   O  -0.0045904  -0.1334163   0.1900736 SPIN=   0.00000
   O   0.3974966  -0.2717220   0.2368876 SPIN=   0.00000
   S   0.2484519  -0.0596188   0.2128049 SPIN=   0.00000
   O  -0.4084941   0.2116622   0.5351250 SPIN=   0.00000
   O  -0.1303718  -0.1201848   0.5322466 SPIN=   0.00000
   O  -0.1017565   0.1834881   0.3917483 SPIN=   0.00000
   O  -0.4407445  -0.0887927   0.3909131 SPIN=   0.00000
   S  -0.2703417   0.0465432   0.4625083 SPIN=   0.00000
   O   0.4084941  -0.2883378   0.5351250 SPIN=   0.00000
   O   0.1303718  -0.6201848   0.5322466 SPIN=   0.00000
   O   0.1017565  -0.3165119   0.3917483 SPIN=   0.00000
   O   0.4407445  -0.5887927   0.3909131 SPIN=   0.00000
   S   0.2703417  -0.4534568   0.4625083 SPIN=   0.00000
   F   0.2035602   0.3410768  -0.0440281 SPIN=   0.00000
   F  -0.2035602  -0.1589232  -0.0440281 SPIN=   0.00000
   F   0.2964324  -0.1400454  -0.2580719 SPIN=   0.00000
   F  -0.2964324   0.3599546  -0.2580719 SPIN=   0.00000
%ENDBLOCK POSITIONS_FRAC

# Note: total spin =  16.00

KPOINTS_MP_SPACING 0.07

%BLOCK SPECIES_POT
QC5
%ENDBLOCK SPECIES_POT

SNAP_TO_SYMMETRY
SYMMETRY_GENERATE

