#              Generated by Buildcell
#
# at 04:54:57 (GMT+1.0) 18th August 2020
# in /lustre/scratch/uccabz1/launch_tmp
# on node-c12e-033
# by uccabz1
#
# compiler GCC version 4.9.2
# options -cpp -iprefix /lustre/shared/ucl/apps/gcc/4.9.2/bin/../lib/gcc/x86_64-unknown-linux-gnu/4.9.2/ -mtune=corei7 -march=x86-64 -g -Og
#
# seed   484914339  1628743220 -1536195521 -1273119721  -859624999  -276968451  -478921314  1533097355  -258268606   258543875  1810766697 -1739355503
#
#      Author: C. J. Pickard (cjp20@cam.ac.uk)
#                Space group: C2
#

%BLOCK LATTICE_ABC
      7.68875      8.00524      8.28332
     77.55852     62.34731     62.34125
%ENDBLOCK LATTICE_ABC

%BLOCK POSITIONS_FRAC
  Li   0.0667306  -0.3125641   0.0142415 SPIN=   0.00000
  Li  -0.0809721   0.3125641   0.0142415 SPIN=   0.00000
  Li  -0.3409407   0.0000000  -0.3181186 SPIN=   0.00000
  Li   0.4044204   0.0000000   0.1911592 SPIN=   0.00000
  Fe   0.4756425  -0.2242523  -0.4813899 SPIN=   3.18132
  Fe   0.0057474   0.2242523  -0.4813899 SPIN=   3.18132
  Fe  -0.1398170  -0.0000000   0.2796341 SPIN=   1.80296
  Fe  -0.4733650  -0.5000000  -0.0532700 SPIN=   7.83441
   O   0.2315721   0.1625209  -0.0410998 SPIN=   0.00000
   O   0.3098873  -0.0475677  -0.2689258 SPIN=   0.00000
   O   0.1458608  -0.1152185   0.0602672 SPIN=   0.00000
   O   0.5275333  -0.1591034  -0.0904083 SPIN=   0.00000
   S   0.3037134  -0.0398422  -0.0850417 SPIN=   0.00000
   O  -0.1904723  -0.1625209  -0.0410998 SPIN=   0.00000
   O  -0.0409615   0.0475677  -0.2689258 SPIN=   0.00000
   O  -0.2061280   0.1152185   0.0602672 SPIN=   0.00000
   O  -0.4371250   0.1591034  -0.0904083 SPIN=   0.00000
   S  -0.2186717   0.0398422  -0.0850417 SPIN=   0.00000
   O   0.3391047   0.4595854  -0.1737798 SPIN=   0.00000
   O   0.3588953   0.2398243  -0.3575296 SPIN=   0.00000
   O   0.6939279   0.2517841  -0.4011873 SPIN=   0.00000
   O   0.4325092   0.5183126  -0.5032196 SPIN=   0.00000
   S   0.4561093   0.3673766  -0.3589291 SPIN=   0.00000
   O  -0.1653250  -0.4595854  -0.1737798 SPIN=   0.00000
   O  -0.0013656  -0.2398243  -0.3575296 SPIN=   0.00000
   O  -0.2927406  -0.2517841  -0.4011873 SPIN=   0.00000
   O   0.0707104  -0.5183126  -0.5032196 SPIN=   0.00000
   S  -0.0971802  -0.3673766  -0.3589291 SPIN=   0.00000
   F  -0.4568838  -0.0064809   0.3999025 SPIN=   0.00000
   F   0.0569814   0.0064809   0.3999025 SPIN=   0.00000
   F  -0.0742456  -0.5000000   0.1484911 SPIN=   0.00000
   F   0.3920422  -0.5000000   0.2159156 SPIN=   0.00000
%ENDBLOCK POSITIONS_FRAC

# Note: total spin =  16.00

KPOINTS_MP_SPACING 0.07

%BLOCK SPECIES_POT
QC5
%ENDBLOCK SPECIES_POT

SNAP_TO_SYMMETRY
SYMMETRY_GENERATE

