#              Generated by Buildcell
#
# at 08:55:53 (GMT+1.0) 4th August 2020
# in /lustre/scratch/uccabz1/launch_tmp
# on node-c12e-013
# by uccabz1
#
# compiler GCC version 4.9.2
# options -cpp -iprefix /lustre/shared/ucl/apps/gcc/4.9.2/bin/../lib/gcc/x86_64-unknown-linux-gnu/4.9.2/ -mtune=corei7 -march=x86-64 -g -Og
#
# seed -2119531309   649679728  -660494177  -323853101  1509728407    25875477    84933039    13459234  -813588109  -832632067 -1144102584   633350200
#
#      Author: C. J. Pickard (cjp20@cam.ac.uk)
#                Space group: Fdd2
#

%BLOCK LATTICE_ABC
      7.86560      7.86560      8.31169
    105.44994    105.44994    115.91204
%ENDBLOCK LATTICE_ABC

%BLOCK POSITIONS_FRAC
  Li   0.0609261  -0.2824640   0.2386846 SPIN=   0.00000
  Li   0.2824640  -0.0609261  -0.2386846 SPIN=   0.00000
  Li  -0.2288514  -0.0722415  -0.2613154 SPIN=   0.00000
  Li   0.0722415   0.2288514   0.2613154 SPIN=   0.00000
  Fe  -0.2761945  -0.2162030   0.1016087 SPIN=   4.00000
  Fe   0.2162030   0.2761945  -0.1016087 SPIN=   4.00000
  Fe  -0.4321883   0.1278031  -0.3983913 SPIN=   4.00000
  Fe  -0.1278031   0.4321883   0.3983913 SPIN=   4.00000
   O   0.1512135  -0.5055857   0.2277770 SPIN=   0.00000
   O   0.4458019  -0.4077007   0.1403830 SPIN=   0.00000
   O   0.5194745  -0.2844249   0.4724577 SPIN=   0.00000
   O   0.3811630  -0.1373483   0.2843006 SPIN=   0.00000
   S   0.3744132  -0.3337649   0.2812296 SPIN=   0.00000
   O   0.5055857  -0.1512135  -0.2277770 SPIN=   0.00000
   O   0.4077007  -0.4458019  -0.1403830 SPIN=   0.00000
   O   0.2844249  -0.5194745  -0.4724577 SPIN=   0.00000
   O   0.1373483  -0.3811630  -0.2843006 SPIN=   0.00000
   S   0.3337649  -0.3744132  -0.2812296 SPIN=   0.00000
   O  -0.0166373  -0.1734365  -0.2722230 SPIN=   0.00000
   O  -0.2019162  -0.5554189  -0.3596170 SPIN=   0.00000
   O   0.0068826  -0.2970168  -0.0275423 SPIN=   0.00000
   O  -0.3283510  -0.3468624  -0.2156994 SPIN=   0.00000
   S  -0.1350055  -0.3431836  -0.2187704 SPIN=   0.00000
   O   0.1734365   0.0166373   0.2722230 SPIN=   0.00000
   O   0.5554189   0.2019162   0.3596170 SPIN=   0.00000
   O   0.2970168  -0.0068826   0.0275423 SPIN=   0.00000
   O   0.3468624   0.3283510   0.2156994 SPIN=   0.00000
   S   0.3431836   0.1350055   0.2187704 SPIN=   0.00000
   F  -0.1831679  -0.3707325   0.3110667 SPIN=   0.00000
   F   0.3707325   0.1831679  -0.3110667 SPIN=   0.00000
   F  -0.0682008   0.2442346  -0.1889333 SPIN=   0.00000
   F  -0.2442346   0.0682008   0.1889333 SPIN=   0.00000
%ENDBLOCK POSITIONS_FRAC

# Note: total spin =  16.00

KPOINTS_MP_SPACING 0.07

%BLOCK SPECIES_POT
QC5
%ENDBLOCK SPECIES_POT

SNAP_TO_SYMMETRY
SYMMETRY_GENERATE

