#              Generated by Buildcell
#
# at 07:03:02 (GMT+1.0) 4th August 2020
# in /lustre/scratch/uccabz1/launch_tmp
# on node-c12f-014
# by uccabz1
#
# compiler GCC version 4.9.2
# options -cpp -iprefix /lustre/shared/ucl/apps/gcc/4.9.2/bin/../lib/gcc/x86_64-unknown-linux-gnu/4.9.2/ -mtune=corei7 -march=x86-64 -g -Og
#
# seed -1584943396  1855106294  -108700556   805497403   400503055 -1605294039   907038891   106848291   226649395  1122083641 -1814591525  1135770848
#
#      Author: C. J. Pickard (cjp20@cam.ac.uk)
#                Space group: Pc
#

%BLOCK LATTICE_ABC
      4.11272     10.21709     10.27030
    112.04767     90.00000     90.00000
%ENDBLOCK LATTICE_ABC

%BLOCK POSITIONS_FRAC
  Li  -0.3204582  -0.1471100  -0.0137978 SPIN=   0.00000
  Li   0.3204582   0.3528900   0.4862022 SPIN=   0.00000
  Li  -0.2032619   0.1014683  -0.2481040 SPIN=   0.00000
  Li   0.2032619  -0.3985317   0.2518960 SPIN=   0.00000
  Fe  -0.2300714   0.3997738  -0.2290260 SPIN=   5.81042
  Fe   0.2300714  -0.1002262   0.2709740 SPIN=   5.81042
  Fe   0.2418325   0.0792872  -0.0284566 SPIN=   2.18958
  Fe  -0.2418325  -0.4207128   0.4715434 SPIN=   2.18958
   O  -0.0994635  -0.4755315  -0.0249209 SPIN=   0.00000
   O  -0.6204689  -0.3464488   0.0425954 SPIN=   0.00000
   O  -0.0997596  -0.2203679   0.1224449 SPIN=   0.00000
   O  -0.2893988  -0.3935442   0.2214927 SPIN=   0.00000
   S  -0.2772727  -0.3589731   0.0904030 SPIN=   0.00000
   O   0.0994635   0.0244685  -0.5249209 SPIN=   0.00000
   O   0.6204689   0.1535512  -0.4574046 SPIN=   0.00000
   O   0.0997596   0.2796321  -0.3775551 SPIN=   0.00000
   O   0.2893988   0.1064558  -0.2785073 SPIN=   0.00000
   S   0.2772727   0.1410269  -0.4095970 SPIN=   0.00000
   O  -0.0875488   0.2444636   0.3965058 SPIN=   0.00000
   O  -0.6069257   0.2117008   0.2663788 SPIN=   0.00000
   O  -0.2992507   0.0036728   0.2667626 SPIN=   0.00000
   O  -0.0872573   0.1460162   0.1365200 SPIN=   0.00000
   S  -0.2702456   0.1514633   0.2665418 SPIN=   0.00000
   O   0.0875488  -0.2555364  -0.1034942 SPIN=   0.00000
   O   0.6069257  -0.2882992  -0.2336212 SPIN=   0.00000
   O   0.2992507  -0.4963272  -0.2332374 SPIN=   0.00000
   O   0.0872573  -0.3539838  -0.3634800 SPIN=   0.00000
   S   0.2702456  -0.3485367  -0.2334582 SPIN=   0.00000
   F  -0.1606919  -0.0219554  -0.1361871 SPIN=   0.00000
   F   0.1606919   0.4780446   0.3638129 SPIN=   0.00000
   F   0.3381646   0.3043990  -0.0168815 SPIN=   0.00000
   F  -0.3381646  -0.1956010   0.4831185 SPIN=   0.00000
%ENDBLOCK POSITIONS_FRAC

# Note: total spin =  16.00

KPOINTS_MP_SPACING 0.07

%BLOCK SPECIES_POT
QC5
%ENDBLOCK SPECIES_POT

SNAP_TO_SYMMETRY
SYMMETRY_GENERATE

