#              Generated by Buildcell
#
# at 08:19:48 (GMT+1.0) 18th August 2020
# in /lustre/scratch/uccabz1/launch_tmp
# on node-c12i-018
# by uccabz1
#
# compiler GCC version 4.9.2
# options -cpp -iprefix /lustre/shared/ucl/apps/gcc/4.9.2/bin/../lib/gcc/x86_64-unknown-linux-gnu/4.9.2/ -mtune=corei7 -march=x86-64 -g -Og
#
# seed -2023331440 -1896439711    -6711694  -858035756   388198532 -2015693355 -1465948980  -511876403 -1503476674  -770280030 -1661080299  1153442496
#
#      Author: C. J. Pickard (cjp20@cam.ac.uk)
#                Space group: P21
#

%BLOCK LATTICE_ABC
      4.06753      5.93847     16.92438
     90.00000     90.00000    101.91491
%ENDBLOCK LATTICE_ABC

%BLOCK POSITIONS_FRAC
  Li  -0.1737321  -0.1959739   0.1073143 SPIN=   0.00000
  Li   0.1737321   0.1959739  -0.3926857 SPIN=   0.00000
  Li   0.4025955   0.0573288   0.2825441 SPIN=   0.00000
  Li  -0.4025955  -0.0573288  -0.2174559 SPIN=   0.00000
  Fe   0.4040101   0.3171674   0.1042597 SPIN=   4.95911
  Fe  -0.4040101  -0.3171674  -0.3957403 SPIN=   4.95911
  Fe  -0.0926144   0.2545732  -0.0826899 SPIN=   3.04089
  Fe   0.0926144  -0.2545732   0.4173101 SPIN=   3.04089
   O  -0.2056179  -0.0884967  -0.0070166 SPIN=   0.00000
   O  -0.7992722  -0.2905217  -0.0203684 SPIN=   0.00000
   O  -0.3518367  -0.5142410  -0.0072486 SPIN=   0.00000
   O  -0.4004761  -0.2982734  -0.1302878 SPIN=   0.00000
   S  -0.4393007  -0.2978832  -0.0412304 SPIN=   0.00000
   O   0.2056179   0.0884967   0.4929834 SPIN=   0.00000
   O   0.7992722   0.2905217   0.4796316 SPIN=   0.00000
   O   0.3518367   0.5142410   0.4927514 SPIN=   0.00000
   O   0.4004761   0.2982734   0.3697122 SPIN=   0.00000
   S   0.4393007   0.2978832   0.4587696 SPIN=   0.00000
   O   0.4184038  -0.4154049  -0.2732565 SPIN=   0.00000
   O  -0.1759804  -0.6198533  -0.2811429 SPIN=   0.00000
   O  -0.0363975  -0.1961812  -0.2663828 SPIN=   0.00000
   O   0.0551248  -0.4455482  -0.1548075 SPIN=   0.00000
   S   0.0652877  -0.4192469  -0.2438974 SPIN=   0.00000
   O  -0.4184038   0.4154049   0.2267435 SPIN=   0.00000
   O   0.1759804   0.6198533   0.2188571 SPIN=   0.00000
   O   0.0363975   0.1961812   0.2336172 SPIN=   0.00000
   O  -0.0551248   0.4455482   0.3451925 SPIN=   0.00000
   S  -0.0652877   0.4192469   0.2561026 SPIN=   0.00000
   F   0.4589516   0.0143031   0.1300372 SPIN=   0.00000
   F  -0.4589516  -0.0143031  -0.3699628 SPIN=   0.00000
   F  -0.4461841  -0.1857446   0.3541238 SPIN=   0.00000
   F   0.4461841   0.1857446  -0.1458762 SPIN=   0.00000
%ENDBLOCK POSITIONS_FRAC

# Note: total spin =  16.00

KPOINTS_MP_SPACING 0.07

%BLOCK SPECIES_POT
QC5
%ENDBLOCK SPECIES_POT

SNAP_TO_SYMMETRY
SYMMETRY_GENERATE

