#              Generated by Buildcell
#
# at 07:09:09 (GMT+1.0) 4th August 2020
# in /lustre/scratch/uccabz1/launch_tmp
# on node-c12n-019
# by uccabz1
#
# compiler GCC version 4.9.2
# options -cpp -iprefix /lustre/shared/ucl/apps/gcc/4.9.2/bin/../lib/gcc/x86_64-unknown-linux-gnu/4.9.2/ -mtune=corei7 -march=x86-64 -g -Og
#
# seed  1628516882 -2097294647  -990084757 -1372919385  1995786913   702123481 -1925300642 -1546105265 -1317247196   -94397071   737116897   126638711
#
#      Author: C. J. Pickard (cjp20@cam.ac.uk)
#                Space group: Cc
#

%BLOCK LATTICE_ABC
      7.55174      7.55174      8.03543
     76.94513     76.94513     64.95349
%ENDBLOCK LATTICE_ABC

%BLOCK POSITIONS_FRAC
  Li  -0.3074567   0.2870887   0.2785803 SPIN=   0.00000
  Li   0.2870887  -0.3074567  -0.2214197 SPIN=   0.00000
  Li  -0.2285653  -0.1657347   0.0219046 SPIN=   0.00000
  Li  -0.1657347  -0.2285653  -0.4780954 SPIN=   0.00000
  Fe   0.4079846   0.1751120   0.1623938 SPIN=   3.53820
  Fe   0.1751120   0.4079846  -0.3376062 SPIN=   3.53820
  Fe  -0.3240994   0.4854376  -0.0892594 SPIN=   4.46180
  Fe   0.4854376  -0.3240994   0.4107406 SPIN=   4.46180
   O  -0.1568295   0.5821839   0.1882894 SPIN=   0.00000
   O  -0.1629703   0.4517699   0.5002045 SPIN=   0.00000
   O   0.1074851   0.5538794   0.3395671 SPIN=   0.00000
   O   0.0892380   0.2524564   0.2857244 SPIN=   0.00000
   S  -0.0307692   0.4600724   0.3284463 SPIN=   0.00000
   O   0.5821839  -0.1568295  -0.3117106 SPIN=   0.00000
   O   0.4517699  -0.1629703   0.0002045 SPIN=   0.00000
   O   0.5538794   0.1074851  -0.1604329 SPIN=   0.00000
   O   0.2524564   0.0892380  -0.2142756 SPIN=   0.00000
   S   0.4600724  -0.0307692  -0.1715537 SPIN=   0.00000
   O   0.0324974   0.1283731   0.0769157 SPIN=   0.00000
   O   0.2537541  -0.1647442   0.2486013 SPIN=   0.00000
   O  -0.0367039  -0.1747130   0.1635140 SPIN=   0.00000
   O  -0.0835424   0.0302469   0.3831778 SPIN=   0.00000
   S   0.0415013  -0.0452093   0.2180522 SPIN=   0.00000
   O   0.1283731   0.0324974  -0.4230843 SPIN=   0.00000
   O  -0.1647442   0.2537541  -0.2513987 SPIN=   0.00000
   O  -0.1747130  -0.0367039  -0.3364860 SPIN=   0.00000
   O   0.0302469  -0.0835424  -0.1168222 SPIN=   0.00000
   S  -0.0452093   0.0415013  -0.2819478 SPIN=   0.00000
   F   0.4810009   0.4035788  -0.4576766 SPIN=   0.00000
   F   0.4035788   0.4810009   0.0423234 SPIN=   0.00000
   F  -0.0752358  -0.4446381  -0.1700616 SPIN=   0.00000
   F  -0.4446381  -0.0752358   0.3299384 SPIN=   0.00000
%ENDBLOCK POSITIONS_FRAC

# Note: total spin =  16.00

KPOINTS_MP_SPACING 0.07

%BLOCK SPECIES_POT
QC5
%ENDBLOCK SPECIES_POT

SNAP_TO_SYMMETRY
SYMMETRY_GENERATE

