#              Generated by Buildcell
#
# at 08:24:12 (GMT+1.0) 4th August 2020
# in /lustre/scratch/uccabz1/launch_tmp
# on node-c12p-013
# by uccabz1
#
# compiler GCC version 4.9.2
# options -cpp -iprefix /lustre/shared/ucl/apps/gcc/4.9.2/bin/../lib/gcc/x86_64-unknown-linux-gnu/4.9.2/ -mtune=corei7 -march=x86-64 -g -Og
#
# seed  2135712770  1827020694   159386229 -1286803035  1429562582   250359903  1910061143    33773142  -401910049  -797018664  -794468074  -673172235
#
#      Author: C. J. Pickard (cjp20@cam.ac.uk)
#                Space group: Ima2
#

%BLOCK LATTICE_ABC
      5.98173      8.86137      8.86137
     68.97764     70.27430     70.27430
%ENDBLOCK LATTICE_ABC

%BLOCK POSITIONS_FRAC
  Li  -0.1130704  -0.3518691  -0.1481309 SPIN=   0.00000
  Li   0.3869296  -0.6481309   0.1481309 SPIN=   0.00000
  Li   0.4201175  -0.1210098  -0.3789902 SPIN=   0.00000
  Li  -0.0798825   0.1210098   0.3789902 SPIN=   0.00000
  Fe  -0.1126364   0.0310037  -0.2552784 SPIN=   4.00000
  Fe  -0.3369112  -0.0310037   0.2552784 SPIN=   4.00000
  Fe   0.3873636  -0.7552784  -0.4689963 SPIN=   4.00000
  Fe   0.1630888  -0.2447216   0.4689963 SPIN=   4.00000
   O  -0.4377768   0.5471569   0.1271973 SPIN=   0.00000
   O  -0.3026070   0.7062675   0.2449483 SPIN=   0.00000
   O  -0.0929856   0.4093300   0.2634220 SPIN=   0.00000
   S  -0.3372799   0.5371949   0.2671816 SPIN=   0.00000
   O   0.2365774  -0.5471569  -0.1271973 SPIN=   0.00000
   O   0.6486087  -0.7062675  -0.2449483 SPIN=   0.00000
   O   0.5797664  -0.4093300  -0.2634220 SPIN=   0.00000
   S   0.4670967  -0.5371949  -0.2671816 SPIN=   0.00000
   O   0.0622232  -0.3728027   0.0471569 SPIN=   0.00000
   O   0.1973930  -0.2550517   0.2062675 SPIN=   0.00000
   O   0.4070144  -0.2365780  -0.0906700 SPIN=   0.00000
   S   0.1627201  -0.2328184   0.0371949 SPIN=   0.00000
   O  -0.2634226   0.3728027  -0.0471569 SPIN=   0.00000
   O   0.1486087   0.2550517  -0.2062675 SPIN=   0.00000
   O   0.0797664   0.2365780   0.0906700 SPIN=   0.00000
   S  -0.0329033   0.2328184  -0.0371949 SPIN=   0.00000
   O   0.1187361  -0.0000000   0.0000000 SPIN=   0.00000
   O  -0.3812639   0.5000000   0.5000000 SPIN=   0.00000
   O  -0.2869829  -0.0000000   0.0000000 SPIN=   0.00000
   O   0.2130171  -0.5000000   0.5000000 SPIN=   0.00000
   F  -0.1631046  -0.2449883   0.4689204 SPIN=   0.00000
   F   0.0608275   0.2449883  -0.4689204 SPIN=   0.00000
   F   0.3368954  -0.0310796   0.2550117 SPIN=   0.00000
   F  -0.4391725   0.0310796  -0.2550117 SPIN=   0.00000
%ENDBLOCK POSITIONS_FRAC

# Note: total spin =  16.00

KPOINTS_MP_SPACING 0.07

%BLOCK SPECIES_POT
QC5
%ENDBLOCK SPECIES_POT

SNAP_TO_SYMMETRY
SYMMETRY_GENERATE

