#              Generated by Buildcell
#
# at 06:36:23 (GMT+1.0) 4th August 2020
# in /lustre/scratch/uccabz1/launch_tmp
# on node-c12k-036
# by uccabz1
#
# compiler GCC version 4.9.2
# options -cpp -iprefix /lustre/shared/ucl/apps/gcc/4.9.2/bin/../lib/gcc/x86_64-unknown-linux-gnu/4.9.2/ -mtune=corei7 -march=x86-64 -g -Og
#
# seed  1172126636 -2071847339  1239248232   254473799  1759749385  -914430004   713119152 -1581718725  1773072104 -2092004157  -973117822  1126271000
#
#      Author: C. J. Pickard (cjp20@cam.ac.uk)
#                Space group: Cc
#

%BLOCK LATTICE_ABC
      7.47889      7.72927      7.72927
     65.22206     81.93402     81.93402
%ENDBLOCK LATTICE_ABC

%BLOCK POSITIONS_FRAC
  Li  -0.3996344   0.0958263   0.1553242 SPIN=   0.00000
  Li   0.1003656   0.1553242   0.0958263 SPIN=   0.00000
  Li   0.3125273   0.4753886   0.2822290 SPIN=   0.00000
  Li  -0.1874727   0.2822290   0.4753886 SPIN=   0.00000
  Fe   0.2960345  -0.3936576  -0.1304132 SPIN=   5.12945
  Fe  -0.2039655  -0.1304132  -0.3936576 SPIN=   5.12945
  Fe  -0.3858325  -0.3194024   0.2804334 SPIN=   2.87055
  Fe   0.1141675   0.2804334  -0.3194024 SPIN=   2.87055
   O  -0.4497084   0.3627481  -0.3237065 SPIN=   0.00000
   O  -0.1575540   0.5075977  -0.4094762 SPIN=   0.00000
   O  -0.2311287   0.2696436  -0.0804010 SPIN=   0.00000
   O  -0.3957010   0.5927348  -0.1944349 SPIN=   0.00000
   S  -0.3085230   0.4331811  -0.2520047 SPIN=   0.00000
   O   0.0502916  -0.3237065   0.3627481 SPIN=   0.00000
   O   0.3424460  -0.4094762   0.5075977 SPIN=   0.00000
   O   0.2688713  -0.0804010   0.2696436 SPIN=   0.00000
   O   0.1042990  -0.1944349   0.5927348 SPIN=   0.00000
   S   0.1914770  -0.2520047   0.4331811 SPIN=   0.00000
   O   0.1338549  -0.2543153   0.0329866 SPIN=   0.00000
   O  -0.0211107   0.0101803  -0.2279359 SPIN=   0.00000
   O  -0.0997811  -0.0288979   0.1075067 SPIN=   0.00000
   O  -0.1890758  -0.2620256   0.0002618 SPIN=   0.00000
   S  -0.0440282  -0.1337646  -0.0217952 SPIN=   0.00000
   O   0.6338549   0.0329866  -0.2543153 SPIN=   0.00000
   O   0.4788893  -0.2279359   0.0101803 SPIN=   0.00000
   O   0.4002189   0.1075067  -0.0288979 SPIN=   0.00000
   O   0.3109242   0.0002618  -0.2620256 SPIN=   0.00000
   S   0.4559718  -0.0217952  -0.1337646 SPIN=   0.00000
   F  -0.3396201   0.4023747   0.2683398 SPIN=   0.00000
   F   0.1603799   0.2683398   0.4023747 SPIN=   0.00000
   F  -0.3849859  -0.1128017   0.4023844 SPIN=   0.00000
   F   0.1150141   0.4023844  -0.1128017 SPIN=   0.00000
%ENDBLOCK POSITIONS_FRAC

# Note: total spin =  16.00

KPOINTS_MP_SPACING 0.07

%BLOCK SPECIES_POT
QC5
%ENDBLOCK SPECIES_POT

SNAP_TO_SYMMETRY
SYMMETRY_GENERATE

