#              Generated by Buildcell
#
# at 06:13:16 (GMT+1.0) 4th August 2020
# in /lustre/scratch/uccabz1/launch_tmp
# on node-c12f-003
# by uccabz1
#
# compiler GCC version 4.9.2
# options -cpp -iprefix /lustre/shared/ucl/apps/gcc/4.9.2/bin/../lib/gcc/x86_64-unknown-linux-gnu/4.9.2/ -mtune=corei7 -march=x86-64 -g -Og
#
# seed   484739232 -1764262085 -2008480709  1755349984   194075217 -2096258595  -875707319  1532783098 -1379444626  -911891554  -100935422   958528576
#
#      Author: C. J. Pickard (cjp20@cam.ac.uk)
#                Space group: P212121
#

%BLOCK LATTICE_ABC
      4.15237      8.92766     10.79013
     90.00000     90.00000     90.00000
%ENDBLOCK LATTICE_ABC

%BLOCK POSITIONS_FRAC
  Li   0.3394348  -0.4515140   0.3183541 SPIN=   0.00000
  Li  -0.1605652  -0.0484860  -0.3183541 SPIN=   0.00000
  Li   0.1605652   0.4515140  -0.1816459 SPIN=   0.00000
  Li  -0.3394348   0.0484860   0.1816459 SPIN=   0.00000
  Fe   0.3106523  -0.0876015  -0.0605054 SPIN=   4.00000
  Fe  -0.1893477  -0.4123985   0.0605054 SPIN=   4.00000
  Fe   0.1893477   0.0876015   0.4394946 SPIN=   4.00000
  Fe  -0.3106523   0.4123985  -0.4394946 SPIN=   4.00000
   O   0.1587148   0.2705831   0.2724073 SPIN=   0.00000
   O  -0.3369375   0.3058278   0.1484103 SPIN=   0.00000
   O  -0.1670117   0.5006887   0.2978695 SPIN=   0.00000
   O  -0.3751698   0.2576865   0.3738101 SPIN=   0.00000
   S  -0.1801011   0.3336965   0.2731243 SPIN=   0.00000
   O   0.6587148   0.2294169  -0.2724073 SPIN=   0.00000
   O   0.1630625   0.1941722  -0.1484103 SPIN=   0.00000
   O   0.3329883  -0.0006887  -0.2978695 SPIN=   0.00000
   O   0.1248302   0.2423135  -0.3738101 SPIN=   0.00000
   S   0.3198989   0.1663035  -0.2731243 SPIN=   0.00000
   O  -0.6587148  -0.2705831  -0.2275927 SPIN=   0.00000
   O  -0.1630625  -0.3058278  -0.3515897 SPIN=   0.00000
   O  -0.3329883  -0.5006887  -0.2021305 SPIN=   0.00000
   O  -0.1248302  -0.2576865  -0.1261899 SPIN=   0.00000
   S  -0.3198989  -0.3336965  -0.2268757 SPIN=   0.00000
   O  -0.1587148  -0.2294169   0.2275927 SPIN=   0.00000
   O   0.3369375  -0.1941722   0.3515897 SPIN=   0.00000
   O   0.1670117   0.0006887   0.2021305 SPIN=   0.00000
   O   0.3751698  -0.2423135   0.1261899 SPIN=   0.00000
   S   0.1801011  -0.1663035   0.2268757 SPIN=   0.00000
   F  -0.2070489  -0.0353390  -0.4960892 SPIN=   0.00000
   F   0.2929511  -0.4646610   0.4960892 SPIN=   0.00000
   F  -0.2929511   0.0353390   0.0039108 SPIN=   0.00000
   F   0.2070489   0.4646610  -0.0039108 SPIN=   0.00000
%ENDBLOCK POSITIONS_FRAC

# Note: total spin =  16.00

KPOINTS_MP_SPACING 0.07

%BLOCK SPECIES_POT
QC5
%ENDBLOCK SPECIES_POT

SNAP_TO_SYMMETRY
SYMMETRY_GENERATE

