#              Generated by Buildcell
#
# at 01:00:10 (GMT+1.0) 18th August 2020
# in /lustre/scratch/uccabz1/launch_tmp
# on node-c12i-026
# by uccabz1
#
# compiler GCC version 4.9.2
# options -cpp -iprefix /lustre/shared/ucl/apps/gcc/4.9.2/bin/../lib/gcc/x86_64-unknown-linux-gnu/4.9.2/ -mtune=corei7 -march=x86-64 -g -Og
#
# seed  1783835696   183178684 -2014829233 -1710424844 -1225913659 -1718621958 -2136185636  -513003362  1131553695 -1069349791 -2013696617 -2063319865
#
#      Author: C. J. Pickard (cjp20@cam.ac.uk)
#                Space group: I41
#

%BLOCK LATTICE_ABC
      8.10228      8.10228      8.10228
     99.28478    114.79224    114.79224
%ENDBLOCK LATTICE_ABC

%BLOCK POSITIONS_FRAC
  Li  -0.1988142   0.1532172   0.3987448 SPIN=   0.00000
  Li   0.1988142  -0.4024410   0.3520315 SPIN=   0.00000
  Li   0.2544724  -0.3979685  -0.0967828 SPIN=   0.00000
  Li  -0.2544724  -0.3512552   0.3475590 SPIN=   0.00000
  Fe  -0.1913012   0.2215596  -0.0121511 SPIN=   4.00000
  Fe   0.1913012   0.1791501   0.4128608 SPIN=   4.00000
  Fe  -0.2662893  -0.3371392  -0.0284404 SPIN=   4.00000
  Fe   0.2662893   0.2378489  -0.0708499 SPIN=   4.00000
   O   0.4728634  -0.0743540   0.1782125 SPIN=   0.00000
   O   0.3381828  -0.0134723   0.3899324 SPIN=   0.00000
   O   0.1193366  -0.3380938   0.1030066 SPIN=   0.00000
   O   0.1610476  -0.0359248   0.0459023 SPIN=   0.00000
   S   0.2728576  -0.1154612   0.1792635 SPIN=   0.00000
   O  -0.4728634  -0.2946509  -0.5472174 SPIN=   0.00000
   O  -0.3381828   0.0517496  -0.3516552 SPIN=   0.00000
   O  -0.1193366  -0.0163300  -0.4574304 SPIN=   0.00000
   O  -0.1610476  -0.1151453  -0.1969724 SPIN=   0.00000
   S  -0.2728576  -0.0935941  -0.3883188 SPIN=   0.00000
   O   0.2474335  -0.2972174  -0.3243540 SPIN=   0.00000
   O   0.0965952  -0.1016552  -0.2634723 SPIN=   0.00000
   O   0.0588996  -0.2074304  -0.5880938 SPIN=   0.00000
   O   0.4181728   0.0530276  -0.2859248 SPIN=   0.00000
   S   0.2052753  -0.1383188  -0.3654612 SPIN=   0.00000
   O  -0.2474335   0.4282125  -0.5446509 SPIN=   0.00000
   O  -0.0965952   0.6399324  -0.1982504 SPIN=   0.00000
   O  -0.0588996   0.3530066  -0.2663300 SPIN=   0.00000
   O  -0.4181728   0.2959023  -0.3651453 SPIN=   0.00000
   S  -0.2052753   0.4292635  -0.3435941 SPIN=   0.00000
   F  -0.2037956  -0.1034701   0.1382571 SPIN=   0.00000
   F   0.2037956   0.3420527   0.1003256 SPIN=   0.00000
   F   0.2582729   0.3503256  -0.3534701 SPIN=   0.00000
   F  -0.2582729   0.3882571   0.0920527 SPIN=   0.00000
%ENDBLOCK POSITIONS_FRAC

# Note: total spin =  16.00

KPOINTS_MP_SPACING 0.07

%BLOCK SPECIES_POT
QC5
%ENDBLOCK SPECIES_POT

SNAP_TO_SYMMETRY
SYMMETRY_GENERATE

