#              Generated by Buildcell
#
# at 06:27:55 (GMT+1.0) 4th August 2020
# in /lustre/scratch/uccabz1/launch_tmp
# on node-c12l-023
# by uccabz1
#
# compiler GCC version 4.9.2
# options -cpp -iprefix /lustre/shared/ucl/apps/gcc/4.9.2/bin/../lib/gcc/x86_64-unknown-linux-gnu/4.9.2/ -mtune=corei7 -march=x86-64 -g -Og
#
# seed  1485858948 -1100510940  1043203227 -1289991429   647504109   804614113   186731401  1415601418    83428522 -1671547275 -1710186791  -430286960
#
#      Author: C. J. Pickard (cjp20@cam.ac.uk)
#                Space group: I-4
#

%BLOCK LATTICE_ABC
      8.13199      8.13199      8.13199
     97.10895    115.98410    115.98410
%ENDBLOCK LATTICE_ABC

%BLOCK POSITIONS_FRAC
  Li  -0.3523527   0.3554167   0.1697085 SPIN=   0.00000
  Li   0.3523527  -0.4779388  -0.2922305 SPIN=   0.00000
  Li  -0.1857082   0.2922305  -0.3554167 SPIN=   0.00000
  Li   0.1857082  -0.1697085   0.4779388 SPIN=   0.00000
  Fe  -0.2036804  -0.3076064   0.0530364 SPIN=   4.00000
  Fe   0.2036804   0.2567169  -0.1039259 SPIN=   4.00000
  Fe   0.3606428   0.1039259   0.3076064 SPIN=   4.00000
  Fe  -0.3606428  -0.0530364  -0.2567169 SPIN=   4.00000
   O   0.1375421   0.2842101   0.4318539 SPIN=   0.00000
   O  -0.0327446   0.0980164   0.5916418 SPIN=   0.00000
   O  -0.0211644  -0.0771822   0.3294909 SPIN=   0.00000
   O  -0.2649590   0.0461337   0.2421085 SPIN=   0.00000
   S  -0.0453315   0.0877945   0.3987738 SPIN=   0.00000
   O  -0.1375421   0.2943118   0.1466680 SPIN=   0.00000
   O   0.0327446   0.6243864   0.1307610 SPIN=   0.00000
   O   0.0211644   0.3506554  -0.0560178 SPIN=   0.00000
   O   0.2649590   0.5070675   0.3110927 SPIN=   0.00000
   S   0.0453315   0.4441053   0.1331260 SPIN=   0.00000
   O   0.1476438  -0.1466680  -0.2842101 SPIN=   0.00000
   O   0.4936254  -0.1307610  -0.0980164 SPIN=   0.00000
   O   0.4066731   0.0560178   0.0771822 SPIN=   0.00000
   O   0.1959748  -0.3110927  -0.0461337 SPIN=   0.00000
   S   0.3109793  -0.1331260  -0.0877945 SPIN=   0.00000
   O  -0.1476438  -0.4318539  -0.2943118 SPIN=   0.00000
   O  -0.4936254  -0.5916418  -0.6243864 SPIN=   0.00000
   O  -0.4066731  -0.3294909  -0.3506554 SPIN=   0.00000
   O  -0.1959748  -0.2421085  -0.5070675 SPIN=   0.00000
   S  -0.3109793  -0.3987738  -0.4441053 SPIN=   0.00000
   F  -0.5000000  -0.0817951   0.4182049 SPIN=   0.00000
   F   0.5000000  -0.4182049   0.0817951 SPIN=   0.00000
   F  -0.5000000   0.2500000  -0.2500000 SPIN=   0.00000
   F   0.0000000   0.0000000   0.0000000 SPIN=   0.00000
%ENDBLOCK POSITIONS_FRAC

# Note: total spin =  16.00

KPOINTS_MP_SPACING 0.07

%BLOCK SPECIES_POT
QC5
%ENDBLOCK SPECIES_POT

SNAP_TO_SYMMETRY
SYMMETRY_GENERATE

