#              Generated by Buildcell
#
# at 12:33:21 (GMT+1.0) 18th August 2020
# in /scratch/scratch/uccabz1/launch_tmp
# on node-k10d-001
# by uccabz1
#
# compiler GCC version 4.9.2
# options -cpp -iprefix /scratch/UCL/applications/gcc/4.9.2/bin/../lib/gcc/x86_64-unknown-linux-gnu/4.9.2/ -mtune=corei7 -march=x86-64 -g -O2
#
# seed  -913912295   563609025  -642730136 -1925314097  -394622111   959386535 -1410104734   237719353 -1877562145  1094719270 -1622236091  -206731003
#
#      Author: C. J. Pickard (cjp20@cam.ac.uk)
#                Space group: P-1
#

%BLOCK LATTICE_ABC
      5.20207      9.15894      9.25295
     66.91557     84.47052     80.73376
%ENDBLOCK LATTICE_ABC

%BLOCK POSITIONS_FRAC
  Li   0.0226738  -0.3725649   0.2590813 SPIN=   0.00000
  Li  -0.0226738   0.3725649  -0.2590813 SPIN=   0.00000
  Li   0.4516285   0.1630662   0.0707635 SPIN=   0.00000
  Li  -0.4516285  -0.1630662  -0.0707635 SPIN=   0.00000
  Fe   0.2567395  -0.4297190  -0.1530460 SPIN=   4.89807
  Fe  -0.2567395   0.4297190   0.1530460 SPIN=   4.89807
  Fe  -0.4760610   0.2157701  -0.2685262 SPIN=   3.10193
  Fe   0.4760610  -0.2157701   0.2685262 SPIN=   3.10193
   O  -0.1638962   0.1721636   0.2606141 SPIN=   0.00000
   O  -0.1954828  -0.0976117   0.2684707 SPIN=   0.00000
   O   0.2245646   0.0117338   0.1946257 SPIN=   0.00000
   O  -0.1407822   0.1261372   0.0131007 SPIN=   0.00000
   S  -0.0688992   0.0531057   0.1842028 SPIN=   0.00000
   O   0.1638962  -0.1721636  -0.2606141 SPIN=   0.00000
   O   0.1954828   0.0976117  -0.2684707 SPIN=   0.00000
   O  -0.2245646  -0.0117338  -0.1946257 SPIN=   0.00000
   O   0.1407822  -0.1261372  -0.0131007 SPIN=   0.00000
   S   0.0688992  -0.0531057  -0.1842028 SPIN=   0.00000
   O  -0.5727880  -0.1238944  -0.4952987 SPIN=   0.00000
   O  -0.2794171  -0.3811257  -0.4200714 SPIN=   0.00000
   O  -0.3773112  -0.2441249  -0.2338115 SPIN=   0.00000
   O  -0.1006124  -0.1296878  -0.4731111 SPIN=   0.00000
   S  -0.3325322  -0.2197082  -0.4055732 SPIN=   0.00000
   O   0.5727880   0.1238944   0.4952987 SPIN=   0.00000
   O   0.2794171   0.3811257   0.4200714 SPIN=   0.00000
   O   0.3773112   0.2441249   0.2338115 SPIN=   0.00000
   O   0.1006124   0.1296878   0.4731111 SPIN=   0.00000
   S   0.3325322   0.2197082   0.4055732 SPIN=   0.00000
   F   0.2550322   0.3509453  -0.0725245 SPIN=   0.00000
   F  -0.2550322  -0.3509453   0.0725245 SPIN=   0.00000
   F  -0.2201715   0.3181825  -0.4072705 SPIN=   0.00000
   F   0.2201715  -0.3181825   0.4072705 SPIN=   0.00000
%ENDBLOCK POSITIONS_FRAC

# Note: total spin =  16.00

KPOINTS_MP_SPACING 0.07

%BLOCK SPECIES_POT
QC5
%ENDBLOCK SPECIES_POT

SNAP_TO_SYMMETRY
SYMMETRY_GENERATE

