#              Generated by Buildcell
#
# at 07:36:08 (GMT+1.0) 4th August 2020
# in /lustre/scratch/uccabz1/launch_tmp
# on node-c12o-004
# by uccabz1
#
# compiler GCC version 4.9.2
# options -cpp -iprefix /lustre/shared/ucl/apps/gcc/4.9.2/bin/../lib/gcc/x86_64-unknown-linux-gnu/4.9.2/ -mtune=corei7 -march=x86-64 -g -Og
#
# seed  -671871872  2069182352   757596506   345579418   424718459  1012496095  2049131893 -1058062163  -175597873   166540854  -988978264  2055472357
#
#      Author: C. J. Pickard (cjp20@cam.ac.uk)
#                Space group: C2
#

%BLOCK LATTICE_ABC
      5.72808      5.72808     12.36020
     83.37053     83.37053     87.72165
%ENDBLOCK LATTICE_ABC

%BLOCK POSITIONS_FRAC
  Li  -0.1307767   0.4623487  -0.1490357 SPIN=   0.00000
  Li   0.5376513   0.1307767   0.1490357 SPIN=   0.00000
  Li  -0.4688199  -0.0942879  -0.3529711 SPIN=   0.00000
  Li   0.0942879   0.4688199   0.3529711 SPIN=   0.00000
  Fe   0.0024409   0.4839802  -0.4047390 SPIN=   4.71748
  Fe   0.5160198  -0.0024409   0.4047390 SPIN=   4.71748
  Fe  -0.4963500  -0.0563783  -0.0644088 SPIN=   3.28252
  Fe   0.0563783   0.4963500   0.0644088 SPIN=   3.28252
   O  -0.1353643  -0.0937460  -0.3458449 SPIN=   0.00000
   O   0.2304831  -0.1668150  -0.2570982 SPIN=   0.00000
   O  -0.1552960  -0.1710491  -0.1438591 SPIN=   0.00000
   O   0.0003064   0.2042472  -0.2389877 SPIN=   0.00000
   S  -0.0149677  -0.0568407  -0.2464475 SPIN=   0.00000
   O   0.0937460   0.1353643   0.3458449 SPIN=   0.00000
   O   0.1668150  -0.2304831   0.2570982 SPIN=   0.00000
   O   0.1710491   0.1552960   0.1438591 SPIN=   0.00000
   O  -0.2042472  -0.0003064   0.2389877 SPIN=   0.00000
   S   0.0568407   0.0149677   0.2464475 SPIN=   0.00000
   O   0.7976570  -0.5974222   0.2039868 SPIN=   0.00000
   O   0.5969404  -0.4084111   0.3608662 SPIN=   0.00000
   O   0.3655811  -0.6174984   0.2468224 SPIN=   0.00000
   O   0.5473055  -0.2398874   0.1710756 SPIN=   0.00000
   S   0.5768710  -0.4658048   0.2456878 SPIN=   0.00000
   O  -0.4025778   0.2023430  -0.2039868 SPIN=   0.00000
   O  -0.5915889   0.4030596  -0.3608662 SPIN=   0.00000
   O  -0.3825016   0.6344189  -0.2468224 SPIN=   0.00000
   O  -0.7601126   0.4526945  -0.1710756 SPIN=   0.00000
   S  -0.5341952   0.4231290  -0.2456878 SPIN=   0.00000
   F   0.2663983  -0.2663983  -0.0000000 SPIN=   0.00000
   F  -0.2285926   0.2285926  -0.5000000 SPIN=   0.00000
   F  -0.2312742   0.2312742   0.0000000 SPIN=   0.00000
   F  -0.7292448  -0.2707552  -0.5000000 SPIN=   0.00000
%ENDBLOCK POSITIONS_FRAC

# Note: total spin =  16.00

KPOINTS_MP_SPACING 0.07

%BLOCK SPECIES_POT
QC5
%ENDBLOCK SPECIES_POT

SNAP_TO_SYMMETRY
SYMMETRY_GENERATE

