#              Generated by Buildcell
#
# at 15:58:07 (GMT+1.0) 18th August 2020
# in /scratch/scratch/uccabz1/launch_tmp
# on node-k10d-004
# by uccabz1
#
# compiler GCC version 4.9.2
# options -cpp -iprefix /scratch/UCL/applications/gcc/4.9.2/bin/../lib/gcc/x86_64-unknown-linux-gnu/4.9.2/ -mtune=corei7 -march=x86-64 -g -O2
#
# seed   281840472 -1405733631 -1122934170  -412338569  1739014390 -1555946819   312308325  -405076022 -1998099870   814287552  1419104057 -1828039517
#
#      Author: C. J. Pickard (cjp20@cam.ac.uk)
#                Space group: P21
#

%BLOCK LATTICE_ABC
      4.08280      6.99049     14.30222
     90.00000     90.00000    101.50073
%ENDBLOCK LATTICE_ABC

%BLOCK POSITIONS_FRAC
  Li   0.1178692  -0.1159213  -0.0665549 SPIN=   0.00000
  Li  -0.1178692   0.1159213   0.4334451 SPIN=   0.00000
  Li  -0.1101968  -0.3504262   0.1480467 SPIN=   0.00000
  Li   0.1101968   0.3504262  -0.3519533 SPIN=   0.00000
  Fe   0.2342358  -0.1764258  -0.4658301 SPIN=   3.35639
  Fe  -0.2342358   0.1764258   0.0341699 SPIN=   3.35639
  Fe   0.2556187   0.2835791   0.2551343 SPIN=   4.64361
  Fe  -0.2556187  -0.2835791  -0.2448657 SPIN=   4.64361
   O   0.4356797  -0.1633408   0.1947716 SPIN=   0.00000
   O  -0.0634763  -0.1899812   0.2958143 SPIN=   0.00000
   O   0.4830908  -0.0025235   0.3497102 SPIN=   0.00000
   O   0.3880390  -0.3627297   0.3389566 SPIN=   0.00000
   S   0.3108333  -0.1796438   0.2948132 SPIN=   0.00000
   O  -0.4356797   0.1633408  -0.3052284 SPIN=   0.00000
   O   0.0634763   0.1899812  -0.2041857 SPIN=   0.00000
   O  -0.4830908   0.0025235  -0.1502898 SPIN=   0.00000
   O  -0.3880390   0.3627297  -0.1610434 SPIN=   0.00000
   S  -0.3108333   0.1796438  -0.2051868 SPIN=   0.00000
   O  -0.5626603   0.3016491   0.3977433 SPIN=   0.00000
   O  -0.7090259   0.5302171   0.5154526 SPIN=   0.00000
   O  -0.1588228   0.6048445   0.4365340 SPIN=   0.00000
   O  -0.2804785   0.3358356   0.5517302 SPIN=   0.00000
   S  -0.4277468   0.4431366   0.4753650 SPIN=   0.00000
   O   0.5626603  -0.3016491  -0.1022567 SPIN=   0.00000
   O   0.7090259  -0.5302171   0.0154526 SPIN=   0.00000
   O   0.1588228  -0.6048445  -0.0634660 SPIN=   0.00000
   O   0.2804785  -0.3358356   0.0517302 SPIN=   0.00000
   S   0.4277468  -0.4431366  -0.0246350 SPIN=   0.00000
   F   0.3310276  -0.4043184  -0.2819825 SPIN=   0.00000
   F  -0.3310276   0.4043184   0.2180175 SPIN=   0.00000
   F   0.0326440   0.0056926   0.0606837 SPIN=   0.00000
   F  -0.0326440  -0.0056926  -0.4393163 SPIN=   0.00000
%ENDBLOCK POSITIONS_FRAC

# Note: total spin =  16.00

KPOINTS_MP_SPACING 0.07

%BLOCK SPECIES_POT
QC5
%ENDBLOCK SPECIES_POT

SNAP_TO_SYMMETRY
SYMMETRY_GENERATE

