#              Generated by Buildcell
#
# at 07:27:39 (GMT+1.0) 4th August 2020
# in /lustre/scratch/uccabz1/launch_tmp
# on node-c12f-016
# by uccabz1
#
# compiler GCC version 4.9.2
# options -cpp -iprefix /lustre/shared/ucl/apps/gcc/4.9.2/bin/../lib/gcc/x86_64-unknown-linux-gnu/4.9.2/ -mtune=corei7 -march=x86-64 -g -Og
#
# seed -1242308639 -1153196001 -2002329760  1857168843  -215520889  -356192339 -1829816489  -428545046   458296078  -632264313  1929309409  -549254082
#
#      Author: C. J. Pickard (cjp20@cam.ac.uk)
#                Space group: Cm
#

%BLOCK LATTICE_ABC
      7.46540      7.54643      8.83810
    114.81298    114.51900     90.98609
%ENDBLOCK LATTICE_ABC

%BLOCK POSITIONS_FRAC
  Li  -0.2773171  -0.2387882  -0.2467537 SPIN=   0.00000
  Li  -0.0305633   0.0079656   0.2467537 SPIN=   0.00000
  Li   0.4464936   0.2863958   0.3683065 SPIN=   0.00000
  Li   0.0781872  -0.0819106  -0.3683065 SPIN=   0.00000
  Fe  -0.1248881   0.4208510   0.3558672 SPIN=   3.38647
  Fe  -0.4807554   0.0649838  -0.3558672 SPIN=   3.38647
  Fe   0.2060409  -0.1009565   0.0000000 SPIN=   4.99829
  Fe   0.2991416   0.3788871   0.0000000 SPIN=   4.22878
   O  -0.0135706  -0.5042034   0.1611478 SPIN=   0.00000
   O   0.0600071  -0.1445987   0.3853935 SPIN=   0.00000
   O   0.2018318  -0.2511211   0.1612542 SPIN=   0.00000
   O   0.3308801  -0.3313380   0.4264530 SPIN=   0.00000
   S   0.1447871  -0.3078153   0.2835621 SPIN=   0.00000
   O  -0.1747185   0.3346488  -0.1611478 SPIN=   0.00000
   O  -0.3253864   0.4700077  -0.3853935 SPIN=   0.00000
   O   0.0405775   0.5876247  -0.1612542 SPIN=   0.00000
   O  -0.0955729   0.2422090  -0.4264530 SPIN=   0.00000
   S  -0.1387751   0.4086226  -0.2835621 SPIN=   0.00000
   O   0.5169583  -0.2144161  -0.1613062 SPIN=   0.00000
   O   0.1521601  -0.3793735  -0.3573387 SPIN=   0.00000
   O   0.3825962  -0.5165064  -0.1612848 SPIN=   0.00000
   S   0.3637127  -0.4140846  -0.2807342 SPIN=   0.00000
   O  -0.3217355  -0.0531099   0.1613062 SPIN=   0.00000
   O  -0.4905013  -0.0220348   0.3573387 SPIN=   0.00000
   O  -0.4561190  -0.3552215   0.1612848 SPIN=   0.00000
   S  -0.3555532  -0.1333504   0.2807342 SPIN=   0.00000
   O  -0.2529758  -0.3695883  -0.0000000 SPIN=   0.00000
   O  -0.2704763   0.1069464  -0.0000000 SPIN=   0.00000
   F  -0.4090578   0.3338106   0.2469846 SPIN=   0.00000
   F   0.3439575   0.0868260  -0.2469846 SPIN=   0.00000
   F   0.1399973   0.2074674   0.2527509 SPIN=   0.00000
   F  -0.1127537  -0.0452835  -0.2527509 SPIN=   0.00000
%ENDBLOCK POSITIONS_FRAC

# Note: total spin =  16.00

KPOINTS_MP_SPACING 0.07

%BLOCK SPECIES_POT
QC5
%ENDBLOCK SPECIES_POT

SNAP_TO_SYMMETRY
SYMMETRY_GENERATE

