#              Generated by Buildcell
#
# at 07:11:55 (GMT+1.0) 4th August 2020
# in /lustre/scratch/uccabz1/launch_tmp
# on node-c12l-032
# by uccabz1
#
# compiler GCC version 4.9.2
# options -cpp -iprefix /lustre/shared/ucl/apps/gcc/4.9.2/bin/../lib/gcc/x86_64-unknown-linux-gnu/4.9.2/ -mtune=corei7 -march=x86-64 -g -Og
#
# seed -1133020469  -340919729 -1763934711   667660949   829855380  -577317820   395063265 -1558997949   904568399 -1479055726 -1647850001 -2115085226
#
#      Author: C. J. Pickard (cjp20@cam.ac.uk)
#                Space group: Pna21
#

%BLOCK LATTICE_ABC
      5.66789      6.43986     10.95877
     90.00000     90.00000     90.00000
%ENDBLOCK LATTICE_ABC

%BLOCK POSITIONS_FRAC
  Li  -0.4745505  -0.2860088  -0.0864405 SPIN=   0.00000
  Li   0.4745505   0.2139912   0.0864405 SPIN=   0.00000
  Li   0.0254495  -0.2860088  -0.4135595 SPIN=   0.00000
  Li  -0.0254495   0.2139912   0.4135595 SPIN=   0.00000
  Fe  -0.3035504  -0.4022218   0.3534822 SPIN=   4.00000
  Fe   0.3035504   0.0977782  -0.3534822 SPIN=   4.00000
  Fe   0.1964496  -0.4022218   0.1465178 SPIN=   4.00000
  Fe  -0.1964496   0.0977782  -0.1465178 SPIN=   4.00000
   O  -0.0756766  -0.2069158  -0.1044210 SPIN=   0.00000
   O   0.2331434  -0.4734712  -0.0735302 SPIN=   0.00000
   O  -0.0055628  -0.4741220  -0.2626310 SPIN=   0.00000
   O  -0.1885547  -0.5723162  -0.0658715 SPIN=   0.00000
   S  -0.0091627  -0.4317063  -0.1266134 SPIN=   0.00000
   O   0.0756766   0.2930842   0.1044210 SPIN=   0.00000
   O  -0.2331434   0.0265288   0.0735302 SPIN=   0.00000
   O   0.0055628   0.0258780   0.2626310 SPIN=   0.00000
   O   0.1885547  -0.0723162   0.0658715 SPIN=   0.00000
   S   0.0091627   0.0682937   0.1266134 SPIN=   0.00000
   O   0.4243234  -0.2069158  -0.3955790 SPIN=   0.00000
   O   0.7331434  -0.4734712  -0.4264698 SPIN=   0.00000
   O   0.4944372  -0.4741220  -0.2373690 SPIN=   0.00000
   O   0.3114453  -0.5723162  -0.4341285 SPIN=   0.00000
   S   0.4908373  -0.4317063  -0.3733866 SPIN=   0.00000
   O  -0.4243234   0.2930842   0.3955790 SPIN=   0.00000
   O  -0.7331434   0.0265288   0.4264698 SPIN=   0.00000
   O  -0.4944372   0.0258780   0.2373690 SPIN=   0.00000
   O  -0.3114453  -0.0723162   0.4341285 SPIN=   0.00000
   S  -0.4908373   0.0682937   0.3733866 SPIN=   0.00000
   F   0.4483686   0.1369717  -0.1180135 SPIN=   0.00000
   F  -0.4483686  -0.3630283   0.1180135 SPIN=   0.00000
   F  -0.0516314   0.1369717  -0.3819865 SPIN=   0.00000
   F   0.0516314  -0.3630283   0.3819865 SPIN=   0.00000
%ENDBLOCK POSITIONS_FRAC

# Note: total spin =  16.00

KPOINTS_MP_SPACING 0.07

%BLOCK SPECIES_POT
QC5
%ENDBLOCK SPECIES_POT

SNAP_TO_SYMMETRY
SYMMETRY_GENERATE

