#              Generated by Buildcell
#
# at 07:13:46 (GMT+1.0) 4th August 2020
# in /lustre/scratch/uccabz1/launch_tmp
# on node-c12d-007
# by uccabz1
#
# compiler GCC version 4.9.2
# options -cpp -iprefix /lustre/shared/ucl/apps/gcc/4.9.2/bin/../lib/gcc/x86_64-unknown-linux-gnu/4.9.2/ -mtune=corei7 -march=x86-64 -g -Og
#
# seed -1201041522 -1976908008   165553757  -347803876  1798155201   491139239   191481155  -140925447   887270542 -1137867977    31669674   284051608
#
#      Author: C. J. Pickard (cjp20@cam.ac.uk)
#                Space group: P-1
#

%BLOCK LATTICE_ABC
      4.22425      7.75500     12.30448
     96.07501     92.61945     92.27078
%ENDBLOCK LATTICE_ABC

%BLOCK POSITIONS_FRAC
  Li   0.2847783   0.0841154   0.3050724 SPIN=   0.00000
  Li  -0.2847783  -0.0841154  -0.3050724 SPIN=   0.00000
  Li  -0.2824375   0.2788159  -0.0528175 SPIN=   0.00000
  Li   0.2824375  -0.2788159   0.0528175 SPIN=   0.00000
  Fe  -0.2304382   0.0388997   0.1256906 SPIN=   3.71171
  Fe   0.2304382  -0.0388997  -0.1256906 SPIN=   3.71171
  Fe   0.1518552  -0.3707554  -0.3699487 SPIN=   4.28829
  Fe  -0.1518552   0.3707554   0.3699487 SPIN=   4.28829
   O   0.5776185   0.4730723  -0.1565300 SPIN=   0.00000
   O   0.1258674   0.6593199  -0.1164201 SPIN=   0.00000
   O   0.1865936   0.3926513  -0.0247223 SPIN=   0.00000
   O   0.0331146   0.3708447  -0.2223961 SPIN=   0.00000
   S   0.2307985   0.4739721  -0.1300171 SPIN=   0.00000
   O  -0.5776185  -0.4730723   0.1565300 SPIN=   0.00000
   O  -0.1258674  -0.6593199   0.1164201 SPIN=   0.00000
   O  -0.1865936  -0.3926513   0.0247223 SPIN=   0.00000
   O  -0.0331146  -0.3708447   0.2223961 SPIN=   0.00000
   S  -0.2307985  -0.4739721   0.1300171 SPIN=   0.00000
   O   0.5509560   0.2129261  -0.3466758 SPIN=   0.00000
   O   0.0130372   0.2351494  -0.4310854 SPIN=   0.00000
   O   0.0851654   0.0828714  -0.2653980 SPIN=   0.00000
   O   0.2656605  -0.0483196  -0.4428049 SPIN=   0.00000
   S   0.2287048   0.1206568  -0.3714910 SPIN=   0.00000
   O  -0.5509560  -0.2129261   0.3466758 SPIN=   0.00000
   O  -0.0130372  -0.2351494   0.4310854 SPIN=   0.00000
   O  -0.0851654  -0.0828714   0.2653980 SPIN=   0.00000
   O  -0.2656605   0.0483196   0.4428049 SPIN=   0.00000
   S  -0.2287048  -0.1206568   0.3714910 SPIN=   0.00000
   F  -0.2786667  -0.0681623  -0.1165380 SPIN=   0.00000
   F   0.2786667   0.0681623   0.1165380 SPIN=   0.00000
   F  -0.3511603  -0.3297473  -0.3942610 SPIN=   0.00000
   F   0.3511603   0.3297473   0.3942610 SPIN=   0.00000
%ENDBLOCK POSITIONS_FRAC

# Note: total spin =  16.00

KPOINTS_MP_SPACING 0.07

%BLOCK SPECIES_POT
QC5
%ENDBLOCK SPECIES_POT

SNAP_TO_SYMMETRY
SYMMETRY_GENERATE

