#              Generated by Buildcell
#
# at 06:21:57 (GMT+1.0) 4th August 2020
# in /lustre/scratch/uccabz1/launch_tmp
# on node-c12j-007
# by uccabz1
#
# compiler GCC version 4.9.2
# options -cpp -iprefix /lustre/shared/ucl/apps/gcc/4.9.2/bin/../lib/gcc/x86_64-unknown-linux-gnu/4.9.2/ -mtune=corei7 -march=x86-64 -g -Og
#
# seed -2041999148  -707399931  1620160451   -41381942  1512399477  -381290030  2024512245   487639632  -405825608  1003206038 -1002352044 -1844307500
#
#      Author: C. J. Pickard (cjp20@cam.ac.uk)
#                Space group: Fdd2
#

%BLOCK LATTICE_ABC
      7.96363      7.96363      8.13820
    107.44302    107.44302    112.78932
%ENDBLOCK LATTICE_ABC

%BLOCK POSITIONS_FRAC
  Li  -0.4217348   0.2733082  -0.0073553 SPIN=   0.00000
  Li   0.4143795  -0.2806635  -0.0073553 SPIN=   0.00000
  Li  -0.0306635   0.1643795   0.4926447 SPIN=   0.00000
  Li  -0.4766918   0.3282652   0.4926447 SPIN=   0.00000
  Fe  -0.0999820  -0.2993513   0.1498106 SPIN=   4.00000
  Fe   0.2497926   0.4491620   0.1498106 SPIN=   4.00000
  Fe  -0.3008380  -0.0002074  -0.3501894 SPIN=   4.00000
  Fe  -0.0493513  -0.3499820  -0.3501894 SPIN=   4.00000
   O   0.2560159   0.1928849  -0.2446824 SPIN=   0.00000
   O   0.5101493   0.1288468  -0.3221423 SPIN=   0.00000
   O   0.1881361   0.0410650  -0.5880437 SPIN=   0.00000
   O   0.1741369  -0.1655487  -0.4124463 SPIN=   0.00000
   S   0.2821095   0.0493120  -0.3918287 SPIN=   0.00000
   O   0.4993017  -0.4375674  -0.2446824 SPIN=   0.00000
   O   0.1677084  -0.4509891  -0.3221423 SPIN=   0.00000
   O   0.2238201  -0.6291087  -0.5880437 SPIN=   0.00000
   O   0.4134168  -0.2468976  -0.4124463 SPIN=   0.00000
   S   0.3260618  -0.4411407  -0.3918287 SPIN=   0.00000
   O  -0.1875674   0.2493017   0.2553176 SPIN=   0.00000
   O  -0.2009891  -0.0822916   0.1778577 SPIN=   0.00000
   O  -0.3791087  -0.0261799  -0.0880437 SPIN=   0.00000
   O   0.0031024   0.1634168   0.0875537 SPIN=   0.00000
   S  -0.1911407   0.0760618   0.1081713 SPIN=   0.00000
   O   0.4428849   0.0060159   0.2553176 SPIN=   0.00000
   O   0.3788468   0.2601493   0.1778577 SPIN=   0.00000
   O   0.2910650  -0.0618639  -0.0880437 SPIN=   0.00000
   O   0.0844513  -0.0758631   0.0875537 SPIN=   0.00000
   S   0.2993120   0.0321095   0.1081713 SPIN=   0.00000
   F  -0.1609383  -0.1609383  -0.3218765 SPIN=   0.00000
   F   0.0890617  -0.4109383   0.1781235 SPIN=   0.00000
   F  -0.4693162  -0.4693162   0.0613675 SPIN=   0.00000
   F  -0.2193162   0.2806838  -0.4386325 SPIN=   0.00000
%ENDBLOCK POSITIONS_FRAC

# Note: total spin =  16.00

KPOINTS_MP_SPACING 0.07

%BLOCK SPECIES_POT
QC5
%ENDBLOCK SPECIES_POT

SNAP_TO_SYMMETRY
SYMMETRY_GENERATE

