#              Generated by Buildcell
#
# at 16:14:47 (GMT+1.0) 18th August 2020
# in /lustre/scratch/uccabz1/launch_tmp
# on node-c12d-017
# by uccabz1
#
# compiler GCC version 4.9.2
# options -cpp -iprefix /lustre/shared/ucl/apps/gcc/4.9.2/bin/../lib/gcc/x86_64-unknown-linux-gnu/4.9.2/ -mtune=corei7 -march=x86-64 -g -Og
#
# seed -1993898941   577672633   577628819   861805683 -1692125335  -688248171  -338817176 -1750574333   146020618  1215759062   138929492 -1746591726
#
#      Author: C. J. Pickard (cjp20@cam.ac.uk)
#                Space group: P-1
#

%BLOCK LATTICE_ABC
      4.83732      8.04813     10.42254
     87.31600     84.30228     82.42282
%ENDBLOCK LATTICE_ABC

%BLOCK POSITIONS_FRAC
  Li   0.3394280  -0.2314297   0.3059013 SPIN=   0.00000
  Li  -0.3394280   0.2314297  -0.3059013 SPIN=   0.00000
  Li  -0.2263939  -0.1524830  -0.4593902 SPIN=   0.00000
  Li   0.2263939   0.1524830   0.4593902 SPIN=   0.00000
  Fe  -0.2984906  -0.1360100  -0.1239419 SPIN=   3.84719
  Fe   0.2984906   0.1360100   0.1239419 SPIN=   3.84719
  Fe   0.2859926   0.4671989  -0.1246547 SPIN=   4.15281
  Fe  -0.2859926  -0.4671989   0.1246547 SPIN=   4.15281
   O   0.1697482   0.5524714   0.1970757 SPIN=   0.00000
   O   0.2705631   0.2652189   0.2909335 SPIN=   0.00000
   O  -0.0956551   0.4689253   0.3999057 SPIN=   0.00000
   O   0.4042731   0.5064216   0.3985914 SPIN=   0.00000
   S   0.1872323   0.4482593   0.3216266 SPIN=   0.00000
   O  -0.1697482  -0.5524714  -0.1970757 SPIN=   0.00000
   O  -0.2705631  -0.2652189  -0.2909335 SPIN=   0.00000
   O   0.0956551  -0.4689253  -0.3999057 SPIN=   0.00000
   O  -0.4042731  -0.5064216  -0.3985914 SPIN=   0.00000
   S  -0.1872323  -0.4482593  -0.3216266 SPIN=   0.00000
   O  -0.2413245   0.0739443   0.2586920 SPIN=   0.00000
   O  -0.1950992  -0.2173905   0.3486967 SPIN=   0.00000
   O   0.1279382  -0.1392116   0.1630914 SPIN=   0.00000
   O  -0.3697453  -0.1542133   0.1342091 SPIN=   0.00000
   S  -0.1695577  -0.1092178   0.2261723 SPIN=   0.00000
   O   0.2413245  -0.0739443  -0.2586920 SPIN=   0.00000
   O   0.1950992   0.2173905  -0.3486967 SPIN=   0.00000
   O  -0.1279382   0.1392116  -0.1630914 SPIN=   0.00000
   O   0.3697453   0.1542133  -0.1342091 SPIN=   0.00000
   S   0.1695577   0.1092178  -0.2261723 SPIN=   0.00000
   F   0.2572600  -0.3104722  -0.0562194 SPIN=   0.00000
   F  -0.2572600   0.3104722   0.0562194 SPIN=   0.00000
   F  -0.2917226   0.1799246  -0.4968946 SPIN=   0.00000
   F   0.2917226  -0.1799246   0.4968946 SPIN=   0.00000
%ENDBLOCK POSITIONS_FRAC

# Note: total spin =  16.00

KPOINTS_MP_SPACING 0.07

%BLOCK SPECIES_POT
QC5
%ENDBLOCK SPECIES_POT

SNAP_TO_SYMMETRY
SYMMETRY_GENERATE

