#              Generated by Buildcell
#
# at 12:53:48 (GMT+1.0) 18th August 2020
# in /lustre/scratch/uccabz1/launch_tmp
# on node-c12n-006
# by uccabz1
#
# compiler GCC version 4.9.2
# options -cpp -iprefix /lustre/shared/ucl/apps/gcc/4.9.2/bin/../lib/gcc/x86_64-unknown-linux-gnu/4.9.2/ -mtune=corei7 -march=x86-64 -g -Og
#
# seed  1577281707 -1525813999 -1250274560  -698855919 -1880497551 -1072914410  2002657693 -1831848576 -1648213344  1381048765    -5732277   602244831
#
#      Author: C. J. Pickard (cjp20@cam.ac.uk)
#                Space group: P212121
#

%BLOCK LATTICE_ABC
      4.17477      9.48546     10.10110
     90.00000     90.00000     90.00000
%ENDBLOCK LATTICE_ABC

%BLOCK POSITIONS_FRAC
  Li  -0.3348518   0.2717982  -0.4417862 SPIN=   0.00000
  Li   0.3348518   0.2282018   0.0582138 SPIN=   0.00000
  Li   0.1651482  -0.2717982  -0.0582138 SPIN=   0.00000
  Li  -0.1651482  -0.2282018   0.4417862 SPIN=   0.00000
  Fe   0.1097097   0.1501312   0.3317751 SPIN=   4.00000
  Fe  -0.1097097   0.3498688  -0.1682249 SPIN=   4.00000
  Fe  -0.3902903  -0.1501312   0.1682249 SPIN=   4.00000
  Fe   0.3902903  -0.3498688  -0.3317751 SPIN=   4.00000
   O  -0.1649908  -0.1276988  -0.0685296 SPIN=   0.00000
   O  -0.1336346   0.1032219   0.0447825 SPIN=   0.00000
   O  -0.1240654   0.0917596  -0.1999593 SPIN=   0.00000
   O   0.3418715   0.0075941  -0.0707319 SPIN=   0.00000
   S  -0.0202048   0.0187192  -0.0736096 SPIN=   0.00000
   O   0.1649908   0.6276988   0.4314704 SPIN=   0.00000
   O   0.1336346   0.3967781   0.5447825 SPIN=   0.00000
   O   0.1240654   0.4082404   0.3000407 SPIN=   0.00000
   O  -0.3418715   0.4924059   0.4292681 SPIN=   0.00000
   S   0.0202048   0.4812808   0.4263904 SPIN=   0.00000
   O   0.3350092   0.1276988  -0.4314704 SPIN=   0.00000
   O   0.3663654  -0.1032219  -0.5447825 SPIN=   0.00000
   O   0.3759346  -0.0917596  -0.3000407 SPIN=   0.00000
   O   0.8418715  -0.0075941  -0.4292681 SPIN=   0.00000
   S   0.4797952  -0.0187192  -0.4263904 SPIN=   0.00000
   O  -0.3350092  -0.6276988   0.0685296 SPIN=   0.00000
   O  -0.3663654  -0.3967781  -0.0447825 SPIN=   0.00000
   O  -0.3759346  -0.4082404   0.1999593 SPIN=   0.00000
   O  -0.8418715  -0.4924059   0.0707319 SPIN=   0.00000
   S  -0.4797952  -0.4812808   0.0736096 SPIN=   0.00000
   F  -0.4224026   0.1897791   0.2675977 SPIN=   0.00000
   F   0.4224026   0.3102209  -0.2324023 SPIN=   0.00000
   F   0.0775974  -0.1897791   0.2324023 SPIN=   0.00000
   F  -0.0775974  -0.3102209  -0.2675977 SPIN=   0.00000
%ENDBLOCK POSITIONS_FRAC

# Note: total spin =  16.00

KPOINTS_MP_SPACING 0.07

%BLOCK SPECIES_POT
QC5
%ENDBLOCK SPECIES_POT

SNAP_TO_SYMMETRY
SYMMETRY_GENERATE

