#              Generated by Buildcell
#
# at 15:09:40 (GMT+1.0) 18th August 2020
# in /scratch/scratch/uccabz1/launch_tmp
# on node-k10g-006
# by uccabz1
#
# compiler GCC version 4.9.2
# options -cpp -iprefix /scratch/UCL/applications/gcc/4.9.2/bin/../lib/gcc/x86_64-unknown-linux-gnu/4.9.2/ -mtune=corei7 -march=x86-64 -g -O2
#
# seed -1761986111 -1705073311  1156416044 -2043813658  -454206324 -1661080299  1413754501  -948712130    25875477  1691391684  -550590966   799143016
#
#      Author: C. J. Pickard (cjp20@cam.ac.uk)
#                Space group: P-1
#

%BLOCK LATTICE_ABC
      5.76050      8.11281      9.62185
     71.58505     79.11542     70.31775
%ENDBLOCK LATTICE_ABC

%BLOCK POSITIONS_FRAC
  Li   0.0911767   0.0397396   0.2819418 SPIN=   0.00000
  Li  -0.0911767  -0.0397396  -0.2819418 SPIN=   0.00000
  Li  -0.6609698   0.3521961  -0.3447982 SPIN=   0.00000
  Li   0.6609698  -0.3521961   0.3447982 SPIN=   0.00000
  Fe   0.4570132  -0.2029624  -0.3001419 SPIN=   4.35760
  Fe  -0.4570132   0.2029624   0.3001419 SPIN=   4.35760
  Fe  -0.2062500   0.2745552  -0.1573043 SPIN=   3.64240
  Fe   0.2062500  -0.2745552   0.1573043 SPIN=   3.64240
   O  -0.9606662   0.3423326   0.1203723 SPIN=   0.00000
   O  -0.5224661   0.3049509   0.0218246 SPIN=   0.00000
   O  -0.8305189   0.3296108  -0.1372532 SPIN=   0.00000
   O  -0.7009034   0.0524207   0.0676373 SPIN=   0.00000
   S  -0.7536386   0.2573288   0.0181453 SPIN=   0.00000
   O   0.9606662  -0.3423326  -0.1203723 SPIN=   0.00000
   O   0.5224661  -0.3049509  -0.0218246 SPIN=   0.00000
   O   0.8305189  -0.3296108   0.1372532 SPIN=   0.00000
   O   0.7009034  -0.0524207  -0.0676373 SPIN=   0.00000
   S   0.7536386  -0.2573288  -0.0181453 SPIN=   0.00000
   O   0.1518394   0.3728367   0.4884221 SPIN=   0.00000
   O   0.1402068   0.0774821   0.4718536 SPIN=   0.00000
   O  -0.1546269   0.3640652   0.3440387 SPIN=   0.00000
   O  -0.1982285   0.2541342   0.6157912 SPIN=   0.00000
   S  -0.0152023   0.2671296   0.4800264 SPIN=   0.00000
   O  -0.1518394  -0.3728367  -0.4884221 SPIN=   0.00000
   O  -0.1402068  -0.0774821  -0.4718536 SPIN=   0.00000
   O   0.1546269  -0.3640652  -0.3440387 SPIN=   0.00000
   O   0.1982285  -0.2541342  -0.6157912 SPIN=   0.00000
   S   0.0152023  -0.2671296  -0.4800264 SPIN=   0.00000
   F   0.5881416  -0.4718379  -0.2357057 SPIN=   0.00000
   F  -0.5881416   0.4718379   0.2357057 SPIN=   0.00000
   F  -0.1944612   0.0232903   0.1817438 SPIN=   0.00000
   F   0.1944612  -0.0232903  -0.1817438 SPIN=   0.00000
%ENDBLOCK POSITIONS_FRAC

# Note: total spin =  16.00

KPOINTS_MP_SPACING 0.07

%BLOCK SPECIES_POT
QC5
%ENDBLOCK SPECIES_POT

SNAP_TO_SYMMETRY
SYMMETRY_GENERATE

