#              Generated by Buildcell
#
# at 10:55:45 (GMT+1.0) 18th August 2020
# in /lustre/scratch/uccabz1/launch_tmp
# on node-c12m-009
# by uccabz1
#
# compiler GCC version 4.9.2
# options -cpp -iprefix /lustre/shared/ucl/apps/gcc/4.9.2/bin/../lib/gcc/x86_64-unknown-linux-gnu/4.9.2/ -mtune=corei7 -march=x86-64 -g -Og
#
# seed  1817464178  1491889145  -242598219  -919405716   466994443  1468957582   447611146   566963499  -639648777 -1599024860 -1216068335 -2062636883
#
#      Author: C. J. Pickard (cjp20@cam.ac.uk)
#                Space group: Cc
#

%BLOCK LATTICE_ABC
      6.30270      6.30270     11.11522
    100.74398    103.48662    105.06651
%ENDBLOCK LATTICE_ABC

%BLOCK POSITIONS_FRAC
  Li   0.2485361   0.4269523  -0.1214715 SPIN=   0.00000
  Li  -0.0484238  -0.3700076   0.3785285 SPIN=   0.00000
  Li  -0.1182753   0.1450996   0.0717007 SPIN=   0.00000
  Li   0.4266011   0.1899760  -0.4282993 SPIN=   0.00000
  Fe  -0.2887514  -0.4221379   0.0849301 SPIN=   5.06089
  Fe   0.0070680   0.3736815  -0.4150699 SPIN=   5.06089
  Fe  -0.4026463  -0.2674994  -0.2193678 SPIN=   2.93911
  Fe  -0.4518684   0.1832786   0.2806322 SPIN=   2.93911
   O   0.4332411  -0.3975853   0.2945298 SPIN=   0.00000
   O   0.2159750  -0.6674912   0.0821652 SPIN=   0.00000
   O   0.3332129  -0.2524029   0.1038827 SPIN=   0.00000
   O   0.0285389  -0.4283435   0.1940071 SPIN=   0.00000
   S   0.2527420  -0.4364557   0.1686462 SPIN=   0.00000
   O   0.1921150  -0.1387113  -0.2054702 SPIN=   0.00000
   O   0.2496564  -0.1338098  -0.4178348 SPIN=   0.00000
   O  -0.1437143  -0.2293302  -0.3961173 SPIN=   0.00000
   O   0.1223506   0.1654682  -0.3059929 SPIN=   0.00000
   S   0.1051019  -0.0840958  -0.3313538 SPIN=   0.00000
   O  -0.1964802   0.4193431  -0.2815150 SPIN=   0.00000
   O  -0.1933388   0.0603193  -0.2223616 SPIN=   0.00000
   O  -0.4881969   0.2369360  -0.1852360 SPIN=   0.00000
   O  -0.0818817   0.4191433  -0.0528901 SPIN=   0.00000
   S  -0.2399744   0.2839354  -0.1855007 SPIN=   0.00000
   O  -0.2008582  -0.0850349   0.2184850 SPIN=   0.00000
   O   0.2173191  -0.0290229   0.2776384 SPIN=   0.00000
   O   0.0778280   0.3029609   0.3147640 SPIN=   0.00000
   O   0.0279666   0.0289916   0.4471099 SPIN=   0.00000
   S   0.0305639   0.0544737   0.3144993 SPIN=   0.00000
   F  -0.4095387   0.0131727   0.4744765 SPIN=   0.00000
   F  -0.0386962  -0.1159848  -0.0255235 SPIN=   0.00000
   F  -0.4226326   0.1690142   0.0917520 SPIN=   0.00000
   F   0.4227378  -0.4856153  -0.4082480 SPIN=   0.00000
%ENDBLOCK POSITIONS_FRAC

# Note: total spin =  16.00

KPOINTS_MP_SPACING 0.07

%BLOCK SPECIES_POT
QC5
%ENDBLOCK SPECIES_POT

SNAP_TO_SYMMETRY
SYMMETRY_GENERATE

