#              Generated by Buildcell
#
# at 06:10:20 (GMT+1.0) 4th August 2020
# in /lustre/scratch/uccabz1/launch_tmp
# on node-c12p-010
# by uccabz1
#
# compiler GCC version 4.9.2
# options -cpp -iprefix /lustre/shared/ucl/apps/gcc/4.9.2/bin/../lib/gcc/x86_64-unknown-linux-gnu/4.9.2/ -mtune=corei7 -march=x86-64 -g -Og
#
# seed -2141990158 -1410418731   810266450 -2108515683  -295819679  1579129490   118602557  1982821216 -1056813924  -585908807  1642601444  1642650932
#
#      Author: C. J. Pickard (cjp20@cam.ac.uk)
#                Space group: P43
#

%BLOCK LATTICE_ABC
      6.83299      6.83299      8.56720
     90.00000     90.00000     90.00000
%ENDBLOCK LATTICE_ABC

%BLOCK POSITIONS_FRAC
  Li  -0.1051470   0.3992554   0.4609833 SPIN=   0.00000
  Li   0.1051470  -0.3992554  -0.0390167 SPIN=   0.00000
  Li  -0.3992554  -0.1051470  -0.2890167 SPIN=   0.00000
  Li   0.3992554   0.1051470   0.2109833 SPIN=   0.00000
  Fe  -0.2441199   0.3235022   0.1454024 SPIN=   4.00000
  Fe   0.2441199  -0.3235022  -0.3545976 SPIN=   4.00000
  Fe  -0.3235022  -0.2441199   0.3954024 SPIN=   4.00000
  Fe   0.3235022   0.2441199  -0.1045976 SPIN=   4.00000
   O   0.3271650  -0.3456231   0.1196663 SPIN=   0.00000
   O   0.1333578  -0.4276077   0.3547854 SPIN=   0.00000
   O   0.0547011  -0.1304601   0.2019885 SPIN=   0.00000
   O   0.3588753  -0.1442244   0.3584309 SPIN=   0.00000
   S   0.2185248  -0.2619788   0.2587178 SPIN=   0.00000
   O  -0.3271650   0.3456231  -0.3803337 SPIN=   0.00000
   O  -0.1333578   0.4276077  -0.1452146 SPIN=   0.00000
   O  -0.0547011   0.1304601  -0.2980115 SPIN=   0.00000
   O  -0.3588753   0.1442244  -0.1415691 SPIN=   0.00000
   S  -0.2185248   0.2619788  -0.2412822 SPIN=   0.00000
   O   0.3456231   0.3271650  -0.6303337 SPIN=   0.00000
   O   0.4276077   0.1333578  -0.3952146 SPIN=   0.00000
   O   0.1304601   0.0547011  -0.5480115 SPIN=   0.00000
   O   0.1442244   0.3588753  -0.3915691 SPIN=   0.00000
   S   0.2619788   0.2185248  -0.4912822 SPIN=   0.00000
   O  -0.3456231  -0.3271650  -0.1303337 SPIN=   0.00000
   O  -0.4276077  -0.1333578   0.1047854 SPIN=   0.00000
   O  -0.1304601  -0.0547011  -0.0480115 SPIN=   0.00000
   O  -0.1442244  -0.3588753   0.1084309 SPIN=   0.00000
   S  -0.2619788  -0.2185248   0.0087178 SPIN=   0.00000
   F  -0.2526722   0.1456879   0.3277638 SPIN=   0.00000
   F   0.2526722  -0.1456879  -0.1722362 SPIN=   0.00000
   F  -0.1456879  -0.2526722  -0.4222362 SPIN=   0.00000
   F   0.1456879   0.2526722   0.0777638 SPIN=   0.00000
%ENDBLOCK POSITIONS_FRAC

# Note: total spin =  16.00

KPOINTS_MP_SPACING 0.07

%BLOCK SPECIES_POT
QC5
%ENDBLOCK SPECIES_POT

SNAP_TO_SYMMETRY
SYMMETRY_GENERATE

