#              Generated by Buildcell
#
# at 08:38:13 (GMT+1.0) 4th August 2020
# in /lustre/scratch/uccabz1/launch_tmp
# on node-c12g-012
# by uccabz1
#
# compiler GCC version 4.9.2
# options -cpp -iprefix /lustre/shared/ucl/apps/gcc/4.9.2/bin/../lib/gcc/x86_64-unknown-linux-gnu/4.9.2/ -mtune=corei7 -march=x86-64 -g -Og
#
# seed  -704328490 -1076104965  -863423343   817177492  -567423576  -165147630  2027178067  -868543973   125135272  -161848292  1982538120  1060898069
#
#      Author: C. J. Pickard (cjp20@cam.ac.uk)
#                Space group: C2
#

%BLOCK LATTICE_ABC
      7.09206      7.09206      8.21368
     97.58876     97.58876     98.61348
%ENDBLOCK LATTICE_ABC

%BLOCK POSITIONS_FRAC
  Li  -0.0453525  -0.0693935   0.2708842 SPIN=   0.00000
  Li   0.0693935   0.0453525  -0.2708842 SPIN=   0.00000
  Li  -0.3609656  -0.2935916  -0.1394774 SPIN=   0.00000
  Li   0.2935916   0.3609656   0.1394774 SPIN=   0.00000
  Fe  -0.0590980   0.3873924  -0.1002515 SPIN=   6.63980
  Fe  -0.3873924   0.0590980   0.1002515 SPIN=   6.63980
  Fe  -0.3262172  -0.4289229   0.3219450 SPIN=   1.36020
  Fe   0.4289229   0.3262172  -0.3219450 SPIN=   1.36020
   O  -0.1867345   0.1033450  -0.2565198 SPIN=   0.00000
   O  -0.5255100  -0.0004422  -0.3941156 SPIN=   0.00000
   O  -0.3060544  -0.2397706  -0.3750258 SPIN=   0.00000
   O  -0.2597568   0.0045872  -0.5616526 SPIN=   0.00000
   S  -0.3195139  -0.0330701  -0.3968285 SPIN=   0.00000
   O  -0.1033450   0.1867345   0.2565198 SPIN=   0.00000
   O   0.0004422   0.5255100   0.3941156 SPIN=   0.00000
   O   0.2397706   0.3060544   0.3750258 SPIN=   0.00000
   O  -0.0045872   0.2597568   0.5616526 SPIN=   0.00000
   S   0.0330701   0.3195139   0.3968285 SPIN=   0.00000
   O   0.2403881  -0.0493328   0.3334618 SPIN=   0.00000
   O   0.0816865  -0.3526070   0.1505398 SPIN=   0.00000
   O   0.3692237  -0.3517579   0.3574485 SPIN=   0.00000
   O   0.4029797  -0.1915535   0.1103050 SPIN=   0.00000
   S   0.2735695  -0.2363128   0.2379388 SPIN=   0.00000
   O   0.0493328  -0.2403881  -0.3334618 SPIN=   0.00000
   O   0.3526070  -0.0816865  -0.1505398 SPIN=   0.00000
   O   0.3517579  -0.3692237  -0.3574485 SPIN=   0.00000
   O   0.1915535  -0.4029797  -0.1103050 SPIN=   0.00000
   S   0.2363128  -0.2735695  -0.2379388 SPIN=   0.00000
   F  -0.2155167   0.4574225  -0.2710577 SPIN=   0.00000
   F  -0.4574225   0.2155167   0.2710577 SPIN=   0.00000
   F  -0.2545833  -0.2689580   0.1726794 SPIN=   0.00000
   F   0.2689580   0.2545833  -0.1726794 SPIN=   0.00000
%ENDBLOCK POSITIONS_FRAC

# Note: total spin =  16.00

KPOINTS_MP_SPACING 0.07

%BLOCK SPECIES_POT
QC5
%ENDBLOCK SPECIES_POT

SNAP_TO_SYMMETRY
SYMMETRY_GENERATE

