#              Generated by Buildcell
#
# at 05:58:29 (GMT+1.0) 4th August 2020
# in /lustre/scratch/uccabz1/launch_tmp
# on node-c12f-016
# by uccabz1
#
# compiler GCC version 4.9.2
# options -cpp -iprefix /lustre/shared/ucl/apps/gcc/4.9.2/bin/../lib/gcc/x86_64-unknown-linux-gnu/4.9.2/ -mtune=corei7 -march=x86-64 -g -Og
#
# seed -1166705093  -151325611  -255093012  1767329572  1621031859 -1205569856    -6016242 -1981083423  -268395007  1924191162  2089134666  1966492581
#
#      Author: C. J. Pickard (cjp20@cam.ac.uk)
#                Space group: Cc
#

%BLOCK LATTICE_ABC
      7.44056      7.44056      7.46786
     94.31584     94.31584    102.93100
%ENDBLOCK LATTICE_ABC

%BLOCK POSITIONS_FRAC
  Li   0.1436625   0.4489382   0.2183715 SPIN=   0.00000
  Li   0.4489382   0.1436625  -0.2816285 SPIN=   0.00000
  Li  -0.3857513  -0.0095554   0.2590084 SPIN=   0.00000
  Li  -0.0095554  -0.3857513  -0.2409916 SPIN=   0.00000
  Fe   0.3287484  -0.1497475  -0.0441906 SPIN=   4.72667
  Fe  -0.1497475   0.3287484   0.4558094 SPIN=   4.72667
  Fe   0.2267523   0.0984412   0.3680977 SPIN=   3.27333
  Fe   0.0984412   0.2267523  -0.1319023 SPIN=   3.27333
   O  -0.4583472  -0.0858192  -0.4561017 SPIN=   0.00000
   O  -0.1286211  -0.0978580  -0.4559941 SPIN=   0.00000
   O  -0.3024425  -0.1985297  -0.1973406 SPIN=   0.00000
   O  -0.2203260   0.1336225  -0.2481155 SPIN=   0.00000
   S  -0.2774342  -0.0621461  -0.3393880 SPIN=   0.00000
   O  -0.0858192  -0.4583472   0.0438983 SPIN=   0.00000
   O  -0.0978580  -0.1286211   0.0440059 SPIN=   0.00000
   O  -0.1985297  -0.3024425   0.3026594 SPIN=   0.00000
   O   0.1336225  -0.2203260   0.2518845 SPIN=   0.00000
   S  -0.0621461  -0.2774342   0.1606120 SPIN=   0.00000
   O   0.4476106  -0.4355335  -0.5370692 SPIN=   0.00000
   O   0.3355426  -0.3484054  -0.2465526 SPIN=   0.00000
   O   0.2770947  -0.6784093  -0.3636951 SPIN=   0.00000
   O   0.1119080  -0.4685668  -0.5140962 SPIN=   0.00000
   S   0.2930390  -0.4827288  -0.4153533 SPIN=   0.00000
   O  -0.4355335   0.4476106  -0.0370692 SPIN=   0.00000
   O  -0.3484054   0.3355426   0.2534474 SPIN=   0.00000
   O  -0.6784093   0.2770947   0.1363049 SPIN=   0.00000
   O  -0.4685668   0.1119080  -0.0140962 SPIN=   0.00000
   S  -0.4827288   0.2930390   0.0846467 SPIN=   0.00000
   F   0.4667222  -0.2516813   0.1722749 SPIN=   0.00000
   F  -0.2516813   0.4667222  -0.3277251 SPIN=   0.00000
   F  -0.0101291   0.2008642   0.2615880 SPIN=   0.00000
   F   0.2008642  -0.0101291  -0.2384120 SPIN=   0.00000
%ENDBLOCK POSITIONS_FRAC

# Note: total spin =  16.00

KPOINTS_MP_SPACING 0.07

%BLOCK SPECIES_POT
QC5
%ENDBLOCK SPECIES_POT

SNAP_TO_SYMMETRY
SYMMETRY_GENERATE

