#              Generated by Buildcell
#
# at 01:08:56 (GMT+1.0) 18th August 2020
# in /lustre/scratch/uccabz1/launch_tmp
# on node-c12p-001
# by uccabz1
#
# compiler GCC version 4.9.2
# options -cpp -iprefix /lustre/shared/ucl/apps/gcc/4.9.2/bin/../lib/gcc/x86_64-unknown-linux-gnu/4.9.2/ -mtune=corei7 -march=x86-64 -g -Og
#
# seed  -537556896  -659514554 -1940732483 -2106246564 -1141925914 -2100594823 -2146408944 -1036443732  -803829741   550227330 -1229186747  1131823454
#
#      Author: C. J. Pickard (cjp20@cam.ac.uk)
#                Space group: P-1
#

%BLOCK LATTICE_ABC
      4.04769      8.82563     11.92346
     74.50519     89.91272     77.48944
%ENDBLOCK LATTICE_ABC

%BLOCK POSITIONS_FRAC
  Li   0.4798810   0.1752502  -0.1902490 SPIN=   0.00000
  Li  -0.4798810  -0.1752502   0.1902490 SPIN=   0.00000
  Li  -0.3047792   0.2721604   0.4153164 SPIN=   0.00000
  Li   0.3047792  -0.2721604  -0.4153164 SPIN=   0.00000
  Fe  -0.2815218  -0.0254729  -0.3599434 SPIN=   3.95220
  Fe   0.2815218   0.0254729   0.3599434 SPIN=   3.95220
  Fe   0.4303010   0.3946599   0.1600405 SPIN=   4.04780
  Fe  -0.4303010  -0.3946599  -0.1600405 SPIN=   4.04780
   O  -0.5618863   0.3582544  -0.3947839 SPIN=   0.00000
   O   0.0150332   0.2405809  -0.4429296 SPIN=   0.00000
   O  -0.0862241   0.2732172  -0.2450806 SPIN=   0.00000
   O  -0.1140673   0.5134016  -0.4124320 SPIN=   0.00000
   S  -0.1867862   0.3463635  -0.3738065 SPIN=   0.00000
   O   0.5618863  -0.3582544   0.3947839 SPIN=   0.00000
   O  -0.0150332  -0.2405809   0.4429296 SPIN=   0.00000
   O   0.0862241  -0.2732172   0.2450806 SPIN=   0.00000
   O   0.1140673  -0.5134016   0.4124320 SPIN=   0.00000
   S   0.1867862  -0.3463635   0.3738065 SPIN=   0.00000
   O  -0.1749889   0.1138199  -0.0623869 SPIN=   0.00000
   O  -0.3231859   0.3715557  -0.0088500 SPIN=   0.00000
   O   0.2325299   0.2911839  -0.0884299 SPIN=   0.00000
   O   0.1154581   0.1445340   0.1100275 SPIN=   0.00000
   S  -0.0375467   0.2302734  -0.0124098 SPIN=   0.00000
   O   0.1749889  -0.1138199   0.0623869 SPIN=   0.00000
   O   0.3231859  -0.3715557   0.0088500 SPIN=   0.00000
   O  -0.2325299  -0.2911839   0.0884299 SPIN=   0.00000
   O  -0.1154581  -0.1445340  -0.1100275 SPIN=   0.00000
   S   0.0375467  -0.2302734   0.0124098 SPIN=   0.00000
   F  -0.0287403   0.4001081   0.2200346 SPIN=   0.00000
   F   0.0287403  -0.4001081  -0.2200346 SPIN=   0.00000
   F   0.3414727  -0.0356530  -0.2647419 SPIN=   0.00000
   F  -0.3414727   0.0356530   0.2647419 SPIN=   0.00000
%ENDBLOCK POSITIONS_FRAC

# Note: total spin =  16.00

KPOINTS_MP_SPACING 0.07

%BLOCK SPECIES_POT
QC5
%ENDBLOCK SPECIES_POT

SNAP_TO_SYMMETRY
SYMMETRY_GENERATE

