#              Generated by Buildcell
#
# at 12:20:57 (GMT+1.0) 18th August 2020
# in /lustre/scratch/uccabz1/launch_tmp
# on node-c12d-004
# by uccabz1
#
# compiler GCC version 4.9.2
# options -cpp -iprefix /lustre/shared/ucl/apps/gcc/4.9.2/bin/../lib/gcc/x86_64-unknown-linux-gnu/4.9.2/ -mtune=corei7 -march=x86-64 -g -Og
#
# seed  1889952996   577445484  -171877081  -135392631   -18972781   232231113 -1010135657 -1223451856  1210825337 -1217716322    24029177 -1878671149
#
#      Author: C. J. Pickard (cjp20@cam.ac.uk)
#                Space group: Pc
#

%BLOCK LATTICE_ABC
      5.83399      6.14034     11.25493
     97.20265     90.00000     90.00000
%ENDBLOCK LATTICE_ABC

%BLOCK POSITIONS_FRAC
  Li  -0.3071875  -0.2449782  -0.4142796 SPIN=   0.00000
  Li   0.3071875   0.2550218  -0.4142796 SPIN=   0.00000
  Li   0.1837228  -0.1291153  -0.1874045 SPIN=   0.00000
  Li  -0.1837228   0.3708847  -0.1874045 SPIN=   0.00000
  Fe   0.1963223  -0.2196185  -0.4696052 SPIN=   1.63440
  Fe  -0.1963223   0.2803815  -0.4696052 SPIN=   1.63440
  Fe   0.3185404   0.4188034  -0.1579082 SPIN=   6.36560
  Fe  -0.3185404  -0.0811966  -0.1579082 SPIN=   6.36560
   O   0.4438115   0.0454168   0.3523817 SPIN=   0.00000
   O   0.2464211   0.2768061   0.2192189 SPIN=   0.00000
   O   0.2579614   0.3923425   0.4378497 SPIN=   0.00000
   O   0.0206906   0.0744535   0.3559298 SPIN=   0.00000
   S   0.2422211   0.1972547   0.3413450 SPIN=   0.00000
   O  -0.4438115  -0.4545832   0.3523817 SPIN=   0.00000
   O  -0.2464211  -0.2231939   0.2192189 SPIN=   0.00000
   O  -0.2579614  -0.1076575   0.4378497 SPIN=   0.00000
   O  -0.0206906  -0.4255465   0.3559298 SPIN=   0.00000
   S  -0.2422211  -0.3027453   0.3413450 SPIN=   0.00000
   O  -0.0577591   0.0068897   0.1108087 SPIN=   0.00000
   O  -0.4727412   0.0359547   0.1556300 SPIN=   0.00000
   O  -0.3056377   0.2386694  -0.0002419 SPIN=   0.00000
   O  -0.2177505   0.3536736   0.2135435 SPIN=   0.00000
   S  -0.2634721   0.1587969   0.1199351 SPIN=   0.00000
   O   0.0577591  -0.4931103   0.1108087 SPIN=   0.00000
   O   0.4727412  -0.4640453   0.1556300 SPIN=   0.00000
   O   0.3056377  -0.2613306  -0.0002419 SPIN=   0.00000
   O   0.2177505  -0.1463264   0.2135435 SPIN=   0.00000
   S   0.2634721  -0.3412031   0.1199351 SPIN=   0.00000
   F   0.2664651  -0.3922078  -0.3251751 SPIN=   0.00000
   F  -0.2664651   0.1077922  -0.3251751 SPIN=   0.00000
   F   0.2326349   0.1516329  -0.0710378 SPIN=   0.00000
   F  -0.2326349  -0.3483671  -0.0710378 SPIN=   0.00000
%ENDBLOCK POSITIONS_FRAC

# Note: total spin =  16.00

KPOINTS_MP_SPACING 0.07

%BLOCK SPECIES_POT
QC5
%ENDBLOCK SPECIES_POT

SNAP_TO_SYMMETRY
SYMMETRY_GENERATE

