#              Generated by Buildcell
#
# at 11:40:25 (GMT+1.0) 18th August 2020
# in /lustre/scratch/uccabz1/launch_tmp
# on node-c12o-016
# by uccabz1
#
# compiler GCC version 4.9.2
# options -cpp -iprefix /lustre/shared/ucl/apps/gcc/4.9.2/bin/../lib/gcc/x86_64-unknown-linux-gnu/4.9.2/ -mtune=corei7 -march=x86-64 -g -Og
#
# seed  -861941951   262352503  1226097260   152473087   471327168   621992111  1783863163 -1774039004   157190413  1260379185  -143806533 -1821007412
#
#      Author: C. J. Pickard (cjp20@cam.ac.uk)
#                Space group: Cc
#

%BLOCK LATTICE_ABC
      6.67900      8.01860      8.01860
     87.53796     74.85877     74.85877
%ENDBLOCK LATTICE_ABC

%BLOCK POSITIONS_FRAC
  Li   0.1151135  -0.4096493   0.1309898 SPIN=   0.00000
  Li  -0.3848865   0.1309898  -0.4096493 SPIN=   0.00000
  Li   0.2700342  -0.1624546   0.4340914 SPIN=   0.00000
  Li  -0.2299658   0.4340914  -0.1624546 SPIN=   0.00000
  Fe  -0.2705549  -0.3577927  -0.4800004 SPIN=   7.55943
  Fe   0.2294451  -0.4800004  -0.3577927 SPIN=   7.55943
  Fe  -0.3954171   0.3786632   0.2169845 SPIN=   0.44057
  Fe   0.1045829   0.2169845   0.3786632 SPIN=   0.44057
   O  -0.0539468  -0.1330042   0.0893792 SPIN=   0.00000
   O  -0.1074022  -0.1524814   0.4061485 SPIN=   0.00000
   O  -0.4079019   0.0040640   0.2858781 SPIN=   0.00000
   O  -0.0990359   0.1270911   0.2649461 SPIN=   0.00000
   S  -0.1670717  -0.0385827   0.2615880 SPIN=   0.00000
   O   0.4460532   0.0893792  -0.1330042 SPIN=   0.00000
   O   0.3925978   0.4061485  -0.1524814 SPIN=   0.00000
   O   0.0920981   0.2858781   0.0040640 SPIN=   0.00000
   O   0.4009641   0.2649461   0.1270911 SPIN=   0.00000
   S   0.3329283   0.2615880  -0.0385827 SPIN=   0.00000
   O   0.4000480  -0.3159867  -0.0630155 SPIN=   0.00000
   O   0.6377270  -0.1498757  -0.0003809 SPIN=   0.00000
   O   0.4944208  -0.3463320   0.2173818 SPIN=   0.00000
   O   0.2516540  -0.0748223   0.1535230 SPIN=   0.00000
   S   0.4459625  -0.2217542   0.0768771 SPIN=   0.00000
   O  -0.0999520  -0.0630155  -0.3159867 SPIN=   0.00000
   O   0.1377270  -0.0003809  -0.1498757 SPIN=   0.00000
   O  -0.0055792   0.2173818  -0.3463320 SPIN=   0.00000
   O  -0.2483460   0.1535230  -0.0748223 SPIN=   0.00000
   S  -0.0540375   0.0768771  -0.2217542 SPIN=   0.00000
   F  -0.1095610   0.4682870   0.3145027 SPIN=   0.00000
   F   0.3904390   0.3145027   0.4682870 SPIN=   0.00000
   F   0.4698164  -0.2032353  -0.3983110 SPIN=   0.00000
   F  -0.0301836  -0.3983110  -0.2032353 SPIN=   0.00000
%ENDBLOCK POSITIONS_FRAC

# Note: total spin =  16.00

KPOINTS_MP_SPACING 0.07

%BLOCK SPECIES_POT
QC5
%ENDBLOCK SPECIES_POT

SNAP_TO_SYMMETRY
SYMMETRY_GENERATE

