#              Generated by Buildcell
#
# at 08:31:30 (GMT+1.0) 4th August 2020
# in /lustre/scratch/uccabz1/launch_tmp
# on node-c12p-004
# by uccabz1
#
# compiler GCC version 4.9.2
# options -cpp -iprefix /lustre/shared/ucl/apps/gcc/4.9.2/bin/../lib/gcc/x86_64-unknown-linux-gnu/4.9.2/ -mtune=corei7 -march=x86-64 -g -Og
#
# seed  -162694031  -706032110   661274975 -2128341821  -757064179   921714427  1892901945 -2055349798  1860112160 -1996702834  -852068765   178579962
#
#      Author: C. J. Pickard (cjp20@cam.ac.uk)
#                Space group: P2/c
#

%BLOCK LATTICE_ABC
      6.62562      7.16717      8.45020
     90.00000     90.00000     94.56707
%ENDBLOCK LATTICE_ABC

%BLOCK POSITIONS_FRAC
  Li  -0.2007233   0.4104444   0.3424123 SPIN=   0.00000
  Li   0.2007233   0.0895556   0.3424123 SPIN=   0.00000
  Li   0.2007233  -0.4104444  -0.3424123 SPIN=   0.00000
  Li  -0.2007233  -0.0895556  -0.3424123 SPIN=   0.00000
  Fe  -0.2596667  -0.3666224   0.0570517 SPIN=   4.00000
  Fe   0.2596667  -0.1333776   0.0570517 SPIN=   4.00000
  Fe   0.2596667   0.3666224  -0.0570517 SPIN=   4.00000
  Fe  -0.2596667   0.1333776  -0.0570517 SPIN=   4.00000
   O   0.1422126  -0.3268115   0.2661028 SPIN=   0.00000
   O   0.4002989  -0.3851646   0.4680511 SPIN=   0.00000
   O   0.4118657  -0.5356391   0.2049506 SPIN=   0.00000
   O   0.1402765  -0.6373216   0.3944696 SPIN=   0.00000
   S   0.2736634  -0.4712342   0.3333935 SPIN=   0.00000
   O  -0.1422126  -0.1731885   0.2661028 SPIN=   0.00000
   O  -0.4002989  -0.1148354   0.4680511 SPIN=   0.00000
   O  -0.4118657   0.0356391   0.2049506 SPIN=   0.00000
   O  -0.1402765   0.1373216   0.3944696 SPIN=   0.00000
   S  -0.2736634  -0.0287658   0.3333935 SPIN=   0.00000
   O  -0.1422126   0.3268115  -0.2661028 SPIN=   0.00000
   O  -0.4002989   0.3851646  -0.4680511 SPIN=   0.00000
   O  -0.4118657   0.5356391  -0.2049506 SPIN=   0.00000
   O  -0.1402765   0.6373216  -0.3944696 SPIN=   0.00000
   S  -0.2736634   0.4712342  -0.3333935 SPIN=   0.00000
   O   0.1422126   0.1731885  -0.2661028 SPIN=   0.00000
   O   0.4002989   0.1148354  -0.4680511 SPIN=   0.00000
   O   0.4118657  -0.0356391  -0.2049506 SPIN=   0.00000
   O   0.1402765  -0.1373216  -0.3944696 SPIN=   0.00000
   S   0.2736634   0.0287658  -0.3333935 SPIN=   0.00000
   F  -0.2235746  -0.1359756  -0.0725161 SPIN=   0.00000
   F   0.2235746  -0.3640244  -0.0725161 SPIN=   0.00000
   F   0.2235746   0.1359756   0.0725161 SPIN=   0.00000
   F  -0.2235746   0.3640244   0.0725161 SPIN=   0.00000
%ENDBLOCK POSITIONS_FRAC

# Note: total spin =  16.00

KPOINTS_MP_SPACING 0.07

%BLOCK SPECIES_POT
QC5
%ENDBLOCK SPECIES_POT

SNAP_TO_SYMMETRY
SYMMETRY_GENERATE

