#              Generated by Buildcell
#
# at 22:59:14 (GMT+1.0) 17th August 2020
# in /lustre/scratch/uccabz1/launch_tmp
# on node-c12f-008
# by uccabz1
#
# compiler GCC version 4.9.2
# options -cpp -iprefix /lustre/shared/ucl/apps/gcc/4.9.2/bin/../lib/gcc/x86_64-unknown-linux-gnu/4.9.2/ -mtune=corei7 -march=x86-64 -g -Og
#
# seed -1232492918   714070228   903630894 -1899727345  -317511878  1544652156  1854965600  -682804759   984666111   -38357038   569442054 -1497547291
#
#      Author: C. J. Pickard (cjp20@cam.ac.uk)
#                Space group: Pc
#

%BLOCK LATTICE_ABC
      6.95908      7.57545      7.62576
     95.74026     90.00000     90.00000
%ENDBLOCK LATTICE_ABC

%BLOCK POSITIONS_FRAC
  Li  -0.2163386  -0.0793002   0.3745779 SPIN=   0.00000
  Li   0.2163386  -0.0793002  -0.1254221 SPIN=   0.00000
  Li  -0.2290681   0.4760810  -0.2828586 SPIN=   0.00000
  Li   0.2290681   0.4760810   0.2171414 SPIN=   0.00000
  Fe   0.4510137   0.2683394  -0.1109840 SPIN=   3.46645
  Fe  -0.4510137   0.2683394   0.3890160 SPIN=   3.46645
  Fe   0.2154695  -0.0888890   0.2787973 SPIN=   4.53355
  Fe  -0.2154695  -0.0888890  -0.2212027 SPIN=   4.53355
   O   0.1554966   0.3389214  -0.2420108 SPIN=   0.00000
   O  -0.1209190   0.2696286  -0.4412650 SPIN=   0.00000
   O   0.0657399   0.0263671  -0.3294296 SPIN=   0.00000
   O   0.2103358   0.2071152  -0.5481081 SPIN=   0.00000
   S   0.0776633   0.2105081  -0.3902034 SPIN=   0.00000
   O  -0.1554966   0.3389214   0.2579892 SPIN=   0.00000
   O   0.1209190   0.2696286   0.0587350 SPIN=   0.00000
   O  -0.0657399   0.0263671   0.1705704 SPIN=   0.00000
   O  -0.2103358   0.2071152  -0.0481081 SPIN=   0.00000
   S  -0.0776633   0.2105081   0.1097966 SPIN=   0.00000
   O   0.3794117  -0.5304382  -0.4600228 SPIN=   0.00000
   O   0.2746251  -0.2257281  -0.3557721 SPIN=   0.00000
   O   0.6205944  -0.3017200  -0.3612941 SPIN=   0.00000
   O   0.4052442  -0.4218429  -0.1438644 SPIN=   0.00000
   S   0.4199689  -0.3699323  -0.3302384 SPIN=   0.00000
   O  -0.3794117  -0.5304382   0.0399772 SPIN=   0.00000
   O  -0.2746251  -0.2257281   0.1442279 SPIN=   0.00000
   O  -0.6205944  -0.3017200   0.1387059 SPIN=   0.00000
   O  -0.4052442  -0.4218429   0.3561356 SPIN=   0.00000
   S  -0.4199689  -0.3699323   0.1697616 SPIN=   0.00000
   F   0.4083493   0.0478551   0.0397260 SPIN=   0.00000
   F  -0.4083493   0.0478551  -0.4602740 SPIN=   0.00000
   F  -0.0699737  -0.3288845  -0.1738549 SPIN=   0.00000
   F   0.0699737  -0.3288845   0.3261451 SPIN=   0.00000
%ENDBLOCK POSITIONS_FRAC

# Note: total spin =  16.00

KPOINTS_MP_SPACING 0.07

%BLOCK SPECIES_POT
QC5
%ENDBLOCK SPECIES_POT

SNAP_TO_SYMMETRY
SYMMETRY_GENERATE

