#              Generated by Buildcell
#
# at 06:36:08 (GMT+1.0) 4th August 2020
# in /lustre/scratch/uccabz1/launch_tmp
# on node-c12m-027
# by uccabz1
#
# compiler GCC version 4.9.2
# options -cpp -iprefix /lustre/shared/ucl/apps/gcc/4.9.2/bin/../lib/gcc/x86_64-unknown-linux-gnu/4.9.2/ -mtune=corei7 -march=x86-64 -g -Og
#
# seed    80171467  2015408717 -1661359591 -2010367251  -974311669  -562210506  1297626279 -1747235528   997518512  1712465231   336758484 -1397383908
#
#      Author: C. J. Pickard (cjp20@cam.ac.uk)
#                Space group: Pnn2
#

%BLOCK LATTICE_ABC
      4.42795      6.34565     14.23578
     90.00000     90.00000     90.00000
%ENDBLOCK LATTICE_ABC

%BLOCK POSITIONS_FRAC
  Li  -0.3755739  -0.2500003  -0.4384089 SPIN=   0.00000
  Li  -0.3755739   0.2500003   0.4384089 SPIN=   0.00000
  Li   0.1244261   0.2499997  -0.0615911 SPIN=   0.00000
  Li   0.1244261  -0.2499997   0.0615911 SPIN=   0.00000
  Fe   0.1783268  -0.3150577   0.3900957 SPIN=   4.00000
  Fe   0.1783268   0.3150577  -0.3900957 SPIN=   4.00000
  Fe  -0.3216732   0.1849423   0.1099043 SPIN=   4.00000
  Fe  -0.3216732  -0.1849423  -0.1099043 SPIN=   4.00000
   O  -0.0578869  -0.0545122  -0.2547888 SPIN=   0.00000
   O   0.1675756  -0.0387949  -0.4137111 SPIN=   0.00000
   O   0.0143531  -0.3821236  -0.3463999 SPIN=   0.00000
   O   0.4571786  -0.1931947  -0.2819068 SPIN=   0.00000
   S   0.1453051  -0.1671563  -0.3242016 SPIN=   0.00000
   O  -0.0578869   0.0545122   0.2547888 SPIN=   0.00000
   O   0.1675756   0.0387949   0.4137111 SPIN=   0.00000
   O   0.0143531   0.3821236   0.3463999 SPIN=   0.00000
   O   0.4571786   0.1931947   0.2819068 SPIN=   0.00000
   S   0.1453051   0.1671563   0.3242016 SPIN=   0.00000
   O  -0.5578869   0.4454878  -0.2452112 SPIN=   0.00000
   O  -0.3324244   0.4612051  -0.0862889 SPIN=   0.00000
   O  -0.4856469   0.1178764  -0.1536001 SPIN=   0.00000
   O  -0.0428214   0.3068053  -0.2180932 SPIN=   0.00000
   S  -0.3546949   0.3328437  -0.1757984 SPIN=   0.00000
   O  -0.5578869  -0.4454878   0.2452112 SPIN=   0.00000
   O  -0.3324244  -0.4612051   0.0862889 SPIN=   0.00000
   O  -0.4856469  -0.1178764   0.1536001 SPIN=   0.00000
   O  -0.0428214  -0.3068053   0.2180932 SPIN=   0.00000
   S  -0.3546949  -0.3328437   0.1757984 SPIN=   0.00000
   F  -0.3309322   0.2513407  -0.4214629 SPIN=   0.00000
   F  -0.3309322  -0.2513407   0.4214629 SPIN=   0.00000
   F   0.1690678  -0.2486593  -0.0785371 SPIN=   0.00000
   F   0.1690678   0.2486593   0.0785371 SPIN=   0.00000
%ENDBLOCK POSITIONS_FRAC

# Note: total spin =  16.00

KPOINTS_MP_SPACING 0.07

%BLOCK SPECIES_POT
QC5
%ENDBLOCK SPECIES_POT

SNAP_TO_SYMMETRY
SYMMETRY_GENERATE

