#              Generated by Buildcell
#
# at 09:25:49 (GMT+1.0) 4th August 2020
# in /lustre/scratch/uccabz1/launch_tmp
# on node-c12j-006
# by uccabz1
#
# compiler GCC version 4.9.2
# options -cpp -iprefix /lustre/shared/ucl/apps/gcc/4.9.2/bin/../lib/gcc/x86_64-unknown-linux-gnu/4.9.2/ -mtune=corei7 -march=x86-64 -g -Og
#
# seed  1980121274 -2071483103   523456544  1087767922  -651403857  1737005269  1667236862   986740355 -2021857439 -1030094621 -1027137692   -87161488
#
#      Author: C. J. Pickard (cjp20@cam.ac.uk)
#                Space group: Cc
#

%BLOCK LATTICE_ABC
      7.54859      7.54859      8.21933
     80.85376     80.85376     60.32851
%ENDBLOCK LATTICE_ABC

%BLOCK POSITIONS_FRAC
  Li  -0.0174398  -0.3311367  -0.0244256 SPIN=   0.00000
  Li  -0.3311367  -0.0174398   0.4755744 SPIN=   0.00000
  Li  -0.3308193   0.4736781   0.2757372 SPIN=   0.00000
  Li   0.4736781  -0.3308193  -0.2242628 SPIN=   0.00000
  Fe  -0.1379726  -0.4756818  -0.4535695 SPIN=   3.61323
  Fe  -0.4756818  -0.1379726   0.0464305 SPIN=   3.61323
  Fe   0.0025441  -0.0147240  -0.3106992 SPIN=   4.38677
  Fe  -0.0147240   0.0025441   0.1893008 SPIN=   4.38677
   O   0.1072947  -0.3776367   0.5323526 SPIN=   0.00000
   O   0.3864384  -0.5048115   0.3066081 SPIN=   0.00000
   O   0.4407486  -0.4006832   0.5570534 SPIN=   0.00000
   O   0.2095176  -0.1387175   0.3568953 SPIN=   0.00000
   S   0.2859998  -0.3554622   0.4382273 SPIN=   0.00000
   O  -0.3776367   0.1072947   0.0323526 SPIN=   0.00000
   O  -0.5048115   0.3864384  -0.1933919 SPIN=   0.00000
   O  -0.4006832   0.4407486   0.0570534 SPIN=   0.00000
   O  -0.1387175   0.2095176  -0.1431047 SPIN=   0.00000
   S  -0.3554622   0.2859998  -0.0617727 SPIN=   0.00000
   O   0.2873124   0.4100318   0.0986661 SPIN=   0.00000
   O   0.1183284   0.3526013   0.3700148 SPIN=   0.00000
   O   0.2925616   0.0776455   0.1809676 SPIN=   0.00000
   O  -0.0310166   0.3877566   0.1119644 SPIN=   0.00000
   S   0.1667965   0.3070088   0.1904032 SPIN=   0.00000
   O   0.4100318   0.2873124  -0.4013339 SPIN=   0.00000
   O   0.3526013   0.1183284  -0.1299852 SPIN=   0.00000
   O   0.0776455   0.2925616  -0.3190324 SPIN=   0.00000
   O   0.3877566  -0.0310166  -0.3880356 SPIN=   0.00000
   S   0.3070088   0.1667965  -0.3095968 SPIN=   0.00000
   F  -0.3129756  -0.2438581   0.2601400 SPIN=   0.00000
   F  -0.2438581  -0.3129756  -0.2398600 SPIN=   0.00000
   F   0.1756509  -0.2093536  -0.0980497 SPIN=   0.00000
   F  -0.2093536   0.1756509   0.4019503 SPIN=   0.00000
%ENDBLOCK POSITIONS_FRAC

# Note: total spin =  16.00

KPOINTS_MP_SPACING 0.07

%BLOCK SPECIES_POT
QC5
%ENDBLOCK SPECIES_POT

SNAP_TO_SYMMETRY
SYMMETRY_GENERATE

