#              Generated by Buildcell
#
# at 09:11:49 (GMT+1.0) 18th August 2020
# in /lustre/scratch/uccabz1/launch_tmp
# on node-c12j-028
# by uccabz1
#
# compiler GCC version 4.9.2
# options -cpp -iprefix /lustre/shared/ucl/apps/gcc/4.9.2/bin/../lib/gcc/x86_64-unknown-linux-gnu/4.9.2/ -mtune=corei7 -march=x86-64 -g -Og
#
# seed -1022439219   -69165029  -569618626  2027497578  -895000764  -494298915   450438203   950325827  -853878052  1987091585  1551787802   -70981811
#
#      Author: C. J. Pickard (cjp20@cam.ac.uk)
#                Space group: P2/c
#

%BLOCK LATTICE_ABC
      4.10016      6.90919     14.15518
     94.04652     90.00000     90.00000
%ENDBLOCK LATTICE_ABC

%BLOCK POSITIONS_FRAC
  Li  -0.0000000   0.5000000   0.0000000 SPIN=   0.00000
  Li   0.0000000  -0.5000000   0.5000000 SPIN=   0.00000
  Li   0.2594120  -0.0000000   0.2500000 SPIN=   0.00000
  Li  -0.2594120  -0.0000000  -0.2500000 SPIN=   0.00000
  Fe  -0.2506099  -0.1066581   0.0879634 SPIN=   4.00000
  Fe  -0.2506099   0.1066581   0.4120366 SPIN=   4.00000
  Fe   0.2506099   0.1066581  -0.0879634 SPIN=   4.00000
  Fe   0.2506099  -0.1066581  -0.4120366 SPIN=   4.00000
   O   0.6152235   0.3419924  -0.4839781 SPIN=   0.00000
   O   0.1487702   0.2756007  -0.3801121 SPIN=   0.00000
   O   0.5126307   0.5546955  -0.3389552 SPIN=   0.00000
   S   0.4974224   0.3479844  -0.3823301 SPIN=   0.00000
   O   0.6152235  -0.3419924  -0.0160219 SPIN=   0.00000
   O   0.1487702  -0.2756007  -0.1198879 SPIN=   0.00000
   O   0.5126307  -0.5546955  -0.1610448 SPIN=   0.00000
   S   0.4974224  -0.3479844  -0.1176699 SPIN=   0.00000
   O  -0.6152235  -0.3419924   0.4839781 SPIN=   0.00000
   O  -0.1487702  -0.2756007   0.3801121 SPIN=   0.00000
   O  -0.5126307  -0.5546955   0.3389552 SPIN=   0.00000
   S  -0.4974224  -0.3479844   0.3823301 SPIN=   0.00000
   O  -0.6152235   0.3419924   0.0160219 SPIN=   0.00000
   O  -0.1487702   0.2756007   0.1198879 SPIN=   0.00000
   O  -0.5126307   0.5546955   0.1610448 SPIN=   0.00000
   S  -0.4974224   0.3479844   0.1176699 SPIN=   0.00000
   O  -0.2623451  -0.0000000   0.2500000 SPIN=   0.00000
   O   0.2623451  -0.0000000  -0.2500000 SPIN=   0.00000
   O  -0.0032182   0.5000000   0.2500000 SPIN=   0.00000
   O   0.0032182  -0.5000000  -0.2500000 SPIN=   0.00000
   F   0.2033125  -0.1417408   0.1100835 SPIN=   0.00000
   F   0.2033125   0.1417408   0.3899165 SPIN=   0.00000
   F  -0.2033125   0.1417408  -0.1100835 SPIN=   0.00000
   F  -0.2033125  -0.1417408  -0.3899165 SPIN=   0.00000
%ENDBLOCK POSITIONS_FRAC

# Note: total spin =  16.00

KPOINTS_MP_SPACING 0.07

%BLOCK SPECIES_POT
QC5
%ENDBLOCK SPECIES_POT

SNAP_TO_SYMMETRY
SYMMETRY_GENERATE

