#              Generated by Buildcell
#
# at 10:00:17 (GMT+1.0) 4th August 2020
# in /lustre/scratch/uccabz1/launch_tmp
# on node-c12l-027
# by uccabz1
#
# compiler GCC version 4.9.2
# options -cpp -iprefix /lustre/shared/ucl/apps/gcc/4.9.2/bin/../lib/gcc/x86_64-unknown-linux-gnu/4.9.2/ -mtune=corei7 -march=x86-64 -g -Og
#
# seed  -602562903   127990008  -221412023  -977803617   -32247877  1841312260  1055068412 -1256431105  1871951068   524839028   -43027765  1490689711
#
#      Author: C. J. Pickard (cjp20@cam.ac.uk)
#                Space group: P-1
#

%BLOCK LATTICE_ABC
      5.72516      8.42648      8.99704
     71.66813     76.54913     88.96552
%ENDBLOCK LATTICE_ABC

%BLOCK POSITIONS_FRAC
  Li   0.4416178   0.2019198  -0.2287353 SPIN=   0.00000
  Li  -0.4416178  -0.2019198   0.2287353 SPIN=   0.00000
  Li   0.3059533  -0.2782768  -0.1170686 SPIN=   0.00000
  Li  -0.3059533   0.2782768   0.1170686 SPIN=   0.00000
  Fe   0.0416956  -0.0678972   0.2903329 SPIN=   4.53425
  Fe  -0.0416956   0.0678972  -0.2903329 SPIN=   4.53425
  Fe   0.0354727  -0.4837733  -0.3111458 SPIN=   3.46575
  Fe  -0.0354727   0.4837733   0.3111458 SPIN=   3.46575
   O   0.2144306   0.1782656   0.1648911 SPIN=   0.00000
   O   0.5148576   0.3766009  -0.0559807 SPIN=   0.00000
   O   0.1407833   0.4800119   0.0741766 SPIN=   0.00000
   O   0.1243188   0.3082729  -0.1017861 SPIN=   0.00000
   S   0.2485976   0.3357878   0.0203252 SPIN=   0.00000
   O  -0.2144306  -0.1782656  -0.1648911 SPIN=   0.00000
   O  -0.5148576  -0.3766009   0.0559807 SPIN=   0.00000
   O  -0.1407833  -0.4800119  -0.0741766 SPIN=   0.00000
   O  -0.1243188  -0.3082729   0.1017861 SPIN=   0.00000
   S  -0.2485976  -0.3357878  -0.0203252 SPIN=   0.00000
   O  -0.2992565   0.2785956   0.3536311 SPIN=   0.00000
   O  -0.6917195   0.3705237   0.2973362 SPIN=   0.00000
   O  -0.6075044   0.3543111   0.5591891 SPIN=   0.00000
   O  -0.6682381   0.0944182   0.4967400 SPIN=   0.00000
   S  -0.5666796   0.2744622   0.4267241 SPIN=   0.00000
   O   0.2992565  -0.2785956  -0.3536311 SPIN=   0.00000
   O   0.6917195  -0.3705237  -0.2973362 SPIN=   0.00000
   O   0.6075044  -0.3543111  -0.5591891 SPIN=   0.00000
   O   0.6682381  -0.0944182  -0.4967400 SPIN=   0.00000
   S   0.5666796  -0.2744622  -0.4267241 SPIN=   0.00000
   F   0.2921951  -0.0330190  -0.1541140 SPIN=   0.00000
   F  -0.2921951   0.0330190   0.1541140 SPIN=   0.00000
   F  -0.1636151   0.3105951  -0.3087974 SPIN=   0.00000
   F   0.1636151  -0.3105951   0.3087974 SPIN=   0.00000
%ENDBLOCK POSITIONS_FRAC

# Note: total spin =  16.00

KPOINTS_MP_SPACING 0.07

%BLOCK SPECIES_POT
QC5
%ENDBLOCK SPECIES_POT

SNAP_TO_SYMMETRY
SYMMETRY_GENERATE

