#              Generated by Buildcell
#
# at 09:52:17 (GMT+1.0) 18th August 2020
# in /scratch/scratch/uccabz1/launch_tmp
# on node-k10e-028
# by uccabz1
#
# compiler GCC version 4.9.2
# options -cpp -iprefix /scratch/UCL/applications/gcc/4.9.2/bin/../lib/gcc/x86_64-unknown-linux-gnu/4.9.2/ -mtune=corei7 -march=x86-64 -g -O2
#
# seed -1223528966  1189396618  1431904407  1579776973 -1914815780   -94857474 -1047807177 -1468326658  1401851145  1578576625 -1679407915   515606457
#
#      Author: C. J. Pickard (cjp20@cam.ac.uk)
#                Space group: C2/c
#

%BLOCK LATTICE_ABC
      6.18734      6.18734     10.51137
     91.71742     91.71742     95.72742
%ENDBLOCK LATTICE_ABC

%BLOCK POSITIONS_FRAC
  Li  -0.2568063  -0.2149121  -0.4942567 SPIN=   0.00000
  Li   0.2149121   0.2568063  -0.0057433 SPIN=   0.00000
  Li   0.2568063   0.2149121   0.4942567 SPIN=   0.00000
  Li  -0.2149121  -0.2568063   0.0057433 SPIN=   0.00000
  Fe   0.1088453   0.4555027  -0.2556964 SPIN=   4.00000
  Fe  -0.4555027  -0.1088453  -0.2443036 SPIN=   4.00000
  Fe  -0.1088453  -0.4555027   0.2556964 SPIN=   4.00000
  Fe   0.4555027   0.1088453   0.2443036 SPIN=   4.00000
   O   0.2652301  -0.0488206  -0.0539945 SPIN=   0.00000
   O   0.4852664  -0.2439402   0.0964435 SPIN=   0.00000
   O   0.3052021  -0.4390103  -0.0931755 SPIN=   0.00000
   O   0.0850398  -0.3236363   0.0846290 SPIN=   0.00000
   S   0.2851846  -0.2638518   0.0084756 SPIN=   0.00000
   O   0.0488206  -0.2652301   0.5539945 SPIN=   0.00000
   O   0.2439402  -0.4852664   0.4035565 SPIN=   0.00000
   O   0.4390103  -0.3052021   0.5931755 SPIN=   0.00000
   O   0.3236363  -0.0850398   0.4153710 SPIN=   0.00000
   S   0.2638518  -0.2851846   0.4915244 SPIN=   0.00000
   O  -0.2652301   0.0488206   0.0539945 SPIN=   0.00000
   O  -0.4852664   0.2439402  -0.0964435 SPIN=   0.00000
   O  -0.3052021   0.4390103   0.0931755 SPIN=   0.00000
   O  -0.0850398   0.3236363  -0.0846290 SPIN=   0.00000
   S  -0.2851846   0.2638518  -0.0084756 SPIN=   0.00000
   O  -0.0488206   0.2652301  -0.5539945 SPIN=   0.00000
   O  -0.2439402   0.4852664  -0.4035565 SPIN=   0.00000
   O  -0.4390103   0.3052021  -0.5931755 SPIN=   0.00000
   O  -0.3236363   0.0850398  -0.4153710 SPIN=   0.00000
   S  -0.2638518   0.2851846  -0.4915244 SPIN=   0.00000
   F   0.2366891   0.2102918  -0.3342245 SPIN=   0.00000
   F  -0.2102918  -0.2366891  -0.1657755 SPIN=   0.00000
   F  -0.2366891  -0.2102918   0.3342245 SPIN=   0.00000
   F   0.2102918   0.2366891   0.1657755 SPIN=   0.00000
%ENDBLOCK POSITIONS_FRAC

# Note: total spin =  16.00

KPOINTS_MP_SPACING 0.07

%BLOCK SPECIES_POT
QC5
%ENDBLOCK SPECIES_POT

SNAP_TO_SYMMETRY
SYMMETRY_GENERATE

