#              Generated by Buildcell
#
# at 04:51:51 (GMT+1.0) 18th August 2020
# in /scratch/scratch/uccabz1/launch_tmp
# on node-k10d-001
# by uccabz1
#
# compiler GCC version 4.9.2
# options -cpp -iprefix /scratch/UCL/applications/gcc/4.9.2/bin/../lib/gcc/x86_64-unknown-linux-gnu/4.9.2/ -mtune=corei7 -march=x86-64 -g -O2
#
# seed  2130230435 -1216662456 -1627236966 -1139002749  1061268843  1952526624   602421903  1898975015 -1481993370 -1674863668  -403634898    19541094
#
#      Author: C. J. Pickard (cjp20@cam.ac.uk)
#                Space group: Cc
#

%BLOCK LATTICE_ABC
      6.74604      8.04897      8.04897
     95.61512    105.29465    105.29465
%ENDBLOCK LATTICE_ABC

%BLOCK POSITIONS_FRAC
  Li   0.2419472   0.4317992   0.2540068 SPIN=   0.00000
  Li  -0.2580528   0.2540068   0.4317992 SPIN=   0.00000
  Li   0.0736161  -0.4109821  -0.1678356 SPIN=   0.00000
  Li  -0.4263839  -0.1678356  -0.4109821 SPIN=   0.00000
  Fe   0.3131591  -0.0182185  -0.2100796 SPIN=   2.42640
  Fe  -0.1868409  -0.2100796  -0.0182185 SPIN=   2.42640
  Fe   0.2567696   0.0741421   0.3480352 SPIN=   5.57360
  Fe  -0.2432304   0.3480352   0.0741421 SPIN=   5.57360
   O   0.2995301  -0.1887262  -0.0274229 SPIN=   0.00000
   O   0.4770691  -0.3987636   0.1014876 SPIN=   0.00000
   O   0.2129310  -0.3103503   0.2245553 SPIN=   0.00000
   O   0.5701361  -0.0983994   0.2658900 SPIN=   0.00000
   S   0.3899166  -0.2490599   0.1411275 SPIN=   0.00000
   O  -0.2004699  -0.0274229  -0.1887262 SPIN=   0.00000
   O  -0.0229309   0.1014876  -0.3987636 SPIN=   0.00000
   O  -0.2870690   0.2245553  -0.3103503 SPIN=   0.00000
   O   0.0701361   0.2658900  -0.0983994 SPIN=   0.00000
   S  -0.1100834   0.1411275  -0.2490599 SPIN=   0.00000
   O   0.4798571   0.6208455  -0.1876961 SPIN=   0.00000
   O   0.1192594   0.4081671  -0.3327988 SPIN=   0.00000
   O   0.4406278   0.3587733  -0.3966618 SPIN=   0.00000
   O   0.3051758   0.5978575  -0.5042909 SPIN=   0.00000
   S   0.3362300   0.4964109  -0.3553619 SPIN=   0.00000
   O  -0.0201429  -0.1876961   0.6208455 SPIN=   0.00000
   O  -0.3807406  -0.3327988   0.4081671 SPIN=   0.00000
   O  -0.0593722  -0.3966618   0.3587733 SPIN=   0.00000
   O  -0.1948242  -0.5042909   0.5978575 SPIN=   0.00000
   S  -0.1637700  -0.3553619   0.4964109 SPIN=   0.00000
   F   0.4198458   0.1617054   0.0156413 SPIN=   0.00000
   F  -0.0801542   0.0156413   0.1617054 SPIN=   0.00000
   F  -0.1626317  -0.4674304  -0.0539090 SPIN=   0.00000
   F   0.3373683  -0.0539090  -0.4674304 SPIN=   0.00000
%ENDBLOCK POSITIONS_FRAC

# Note: total spin =  16.00

KPOINTS_MP_SPACING 0.07

%BLOCK SPECIES_POT
QC5
%ENDBLOCK SPECIES_POT

SNAP_TO_SYMMETRY
SYMMETRY_GENERATE

