#              Generated by Buildcell
#
# at 07:22:35 (GMT+1.0) 4th August 2020
# in /lustre/scratch/uccabz1/launch_tmp
# on node-c12n-014
# by uccabz1
#
# compiler GCC version 4.9.2
# options -cpp -iprefix /lustre/shared/ucl/apps/gcc/4.9.2/bin/../lib/gcc/x86_64-unknown-linux-gnu/4.9.2/ -mtune=corei7 -march=x86-64 -g -Og
#
# seed    57972432  -393259431 -1000107211  -833541972  -369410269  -767782394  2033417135  -618406412 -1409284914   846647346  -266337829 -1698154437
#
#      Author: C. J. Pickard (cjp20@cam.ac.uk)
#                Space group: Pcc2
#

%BLOCK LATTICE_ABC
      4.81061      8.25617     10.07121
     90.00000     90.00000     90.00000
%ENDBLOCK LATTICE_ABC

%BLOCK POSITIONS_FRAC
  Li   0.2087247  -0.4126635  -0.3290191 SPIN=   0.00000
  Li  -0.2087247  -0.4126635   0.3290191 SPIN=   0.00000
  Li  -0.2087247   0.0873365  -0.3290191 SPIN=   0.00000
  Li   0.2087247   0.0873365   0.3290191 SPIN=   0.00000
  Fe   0.2499083  -0.0675079  -0.1428519 SPIN=   4.00000
  Fe  -0.2499083  -0.0675079   0.1428519 SPIN=   4.00000
  Fe  -0.2499083   0.4324921  -0.1428519 SPIN=   4.00000
  Fe   0.2499083   0.4324921   0.1428519 SPIN=   4.00000
   O   0.0344065   0.3720634  -0.3909203 SPIN=   0.00000
   O   0.2655145   0.2510342  -0.1950716 SPIN=   0.00000
   O   0.5435733   0.3291750  -0.3916499 SPIN=   0.00000
   O   0.2252749   0.0941247  -0.4035698 SPIN=   0.00000
   S   0.2671923   0.2615993  -0.3453029 SPIN=   0.00000
   O  -0.0344065   0.3720634   0.3909203 SPIN=   0.00000
   O  -0.2655145   0.2510342   0.1950716 SPIN=   0.00000
   O  -0.5435733   0.3291750   0.3916499 SPIN=   0.00000
   O  -0.2252749   0.0941247   0.4035698 SPIN=   0.00000
   S  -0.2671923   0.2615993   0.3453029 SPIN=   0.00000
   O  -0.0344065  -0.1279366  -0.3909203 SPIN=   0.00000
   O  -0.2655145  -0.2489658  -0.1950716 SPIN=   0.00000
   O  -0.5435733  -0.1708250  -0.3916499 SPIN=   0.00000
   O  -0.2252749  -0.4058753  -0.4035698 SPIN=   0.00000
   S  -0.2671923  -0.2384007  -0.3453029 SPIN=   0.00000
   O   0.0344065  -0.1279366   0.3909203 SPIN=   0.00000
   O   0.2655145  -0.2489658   0.1950716 SPIN=   0.00000
   O   0.5435733  -0.1708250   0.3916499 SPIN=   0.00000
   O   0.2252749  -0.4058753   0.4035698 SPIN=   0.00000
   S   0.2671923  -0.2384007   0.3453029 SPIN=   0.00000
   F  -0.2345258   0.0952465  -0.1418042 SPIN=   0.00000
   F   0.2345258   0.0952465   0.1418042 SPIN=   0.00000
   F   0.2345258  -0.4047535  -0.1418042 SPIN=   0.00000
   F  -0.2345258  -0.4047535   0.1418042 SPIN=   0.00000
%ENDBLOCK POSITIONS_FRAC

# Note: total spin =  16.00

KPOINTS_MP_SPACING 0.07

%BLOCK SPECIES_POT
QC5
%ENDBLOCK SPECIES_POT

SNAP_TO_SYMMETRY
SYMMETRY_GENERATE

