#              Generated by Buildcell
#
# at 07:45:09 (GMT+1.0) 4th August 2020
# in /lustre/scratch/uccabz1/launch_tmp
# on node-c12f-013
# by uccabz1
#
# compiler GCC version 4.9.2
# options -cpp -iprefix /lustre/shared/ucl/apps/gcc/4.9.2/bin/../lib/gcc/x86_64-unknown-linux-gnu/4.9.2/ -mtune=corei7 -march=x86-64 -g -Og
#
# seed   454052860    56971014 -1875514120 -2028381489   678578514   615841787  1807849351   683127953   -48049565 -1039317970  -656338309  -302055225
#
#      Author: C. J. Pickard (cjp20@cam.ac.uk)
#                Space group: C2
#

%BLOCK LATTICE_ABC
      3.94943     10.07998     10.07998
     85.77267     88.69240     88.69240
%ENDBLOCK LATTICE_ABC

%BLOCK POSITIONS_FRAC
  Li  -0.5000000   0.2041230  -0.2041230 SPIN=   0.00000
  Li   0.0000000  -0.0139283   0.0139283 SPIN=   0.00000
  Li  -0.0000000  -0.2752721   0.2752721 SPIN=   0.00000
  Li   0.5000000   0.4651270  -0.4651270 SPIN=   0.00000
  Fe  -0.3409486  -0.0721678  -0.3433413 SPIN=   2.85342
  Fe   0.3409486   0.3433413   0.0721678 SPIN=   2.85342
  Fe  -0.2756923  -0.2944499  -0.0119084 SPIN=   5.14658
  Fe   0.2756923   0.0119084   0.2944499 SPIN=   5.14658
   O  -0.2733350   0.5831207  -0.1716204 SPIN=   0.00000
   O  -0.2485925   0.3550098  -0.0626712 SPIN=   0.00000
   O   0.2526954   0.4463354  -0.1864554 SPIN=   0.00000
   O  -0.2543728   0.3888480  -0.3083034 SPIN=   0.00000
   S  -0.1309012   0.4433285  -0.1822626 SPIN=   0.00000
   O   0.2733350   0.1716204  -0.5831207 SPIN=   0.00000
   O   0.2485925   0.0626712  -0.3550098 SPIN=   0.00000
   O  -0.2526954   0.1864554  -0.4463354 SPIN=   0.00000
   O   0.2543728   0.3083034  -0.3888480 SPIN=   0.00000
   S   0.1309012   0.1822626  -0.4433285 SPIN=   0.00000
   O   0.2876903  -0.1493277  -0.4657746 SPIN=   0.00000
   O  -0.2089986  -0.2951835  -0.4590272 SPIN=   0.00000
   O   0.3090137  -0.3687476  -0.3384083 SPIN=   0.00000
   S   0.1746037  -0.2922516  -0.4619429 SPIN=   0.00000
   O  -0.2876903   0.4657746   0.1493277 SPIN=   0.00000
   O   0.2089986   0.4590272   0.2951835 SPIN=   0.00000
   O  -0.3090137   0.3384083   0.3687476 SPIN=   0.00000
   S  -0.1746037   0.4619429   0.2922516 SPIN=   0.00000
   O  -0.0000000   0.4944246  -0.4944246 SPIN=   0.00000
   O  -0.0000000   0.1836856  -0.1836856 SPIN=   0.00000
   F  -0.2083766  -0.0692014  -0.1696057 SPIN=   0.00000
   F   0.2083766   0.1696057   0.0692014 SPIN=   0.00000
   F   0.2930075  -0.3533511   0.0376593 SPIN=   0.00000
   F  -0.2930075  -0.0376593   0.3533511 SPIN=   0.00000
%ENDBLOCK POSITIONS_FRAC

# Note: total spin =  16.00

KPOINTS_MP_SPACING 0.07

%BLOCK SPECIES_POT
QC5
%ENDBLOCK SPECIES_POT

SNAP_TO_SYMMETRY
SYMMETRY_GENERATE

