#              Generated by Buildcell
#
# at 00:36:49 (GMT+1.0) 18th August 2020
# in /lustre/scratch/uccabz1/launch_tmp
# on node-c12n-029
# by uccabz1
#
# compiler GCC version 4.9.2
# options -cpp -iprefix /lustre/shared/ucl/apps/gcc/4.9.2/bin/../lib/gcc/x86_64-unknown-linux-gnu/4.9.2/ -mtune=corei7 -march=x86-64 -g -Og
#
# seed  1889239080  -184821502 -1334810401 -1691650104 -1057959273  1841230455  1367675461 -2008211767    95873444  1870496012   320994422  -784024752
#
#      Author: C. J. Pickard (cjp20@cam.ac.uk)
#                Space group: P-1
#

%BLOCK LATTICE_ABC
      7.77241      7.96420      8.08654
     60.59996     66.56340     77.58773
%ENDBLOCK LATTICE_ABC

%BLOCK POSITIONS_FRAC
  Li  -0.0000000   0.0000000  -0.5000000 SPIN=   0.00000
  Li   0.5000000  -0.0000000  -0.0000000 SPIN=   0.00000
  Li   0.5000000   0.5000000  -1.0000000 SPIN=   0.00000
  Li  -0.5000000   0.0000000   0.5000000 SPIN=   0.00000
  Fe  -0.1632204   0.2411489  -0.1070747 SPIN=   1.47239
  Fe   0.1632204  -0.2411489   0.1070747 SPIN=   1.47239
  Fe   0.1911886   0.2823740   0.0681904 SPIN=   6.52761
  Fe  -0.1911886  -0.2823740  -0.0681904 SPIN=   6.52761
   O   0.8263324   0.2929951  -0.4169243 SPIN=   0.00000
   O   0.6990707   0.0072834  -0.3701978 SPIN=   0.00000
   O   0.7022472   0.3213285  -0.6681989 SPIN=   0.00000
   O   0.4850654   0.2735188  -0.3277209 SPIN=   0.00000
   S   0.6781789   0.2237815  -0.4457605 SPIN=   0.00000
   O  -0.8263324  -0.2929951   0.4169243 SPIN=   0.00000
   O  -0.6990707  -0.0072834   0.3701978 SPIN=   0.00000
   O  -0.7022472  -0.3213285   0.6681989 SPIN=   0.00000
   O  -0.4850654  -0.2735188   0.3277209 SPIN=   0.00000
   S  -0.6781789  -0.2237815   0.4457605 SPIN=   0.00000
   O   0.2571260   0.1155607  -0.4207298 SPIN=   0.00000
   O   0.3810518   0.4419546  -0.6681279 SPIN=   0.00000
   O   0.0754879   0.4022261  -0.3926810 SPIN=   0.00000
   O   0.1061399   0.3371071  -0.6727277 SPIN=   0.00000
   S   0.2049514   0.3242121  -0.5385666 SPIN=   0.00000
   O  -0.2571260  -0.1155607   0.4207298 SPIN=   0.00000
   O  -0.3810518  -0.4419546   0.6681279 SPIN=   0.00000
   O  -0.0754879  -0.4022261   0.3926810 SPIN=   0.00000
   O  -0.1061399  -0.3371071   0.6727277 SPIN=   0.00000
   S  -0.2049514  -0.3242121   0.5385666 SPIN=   0.00000
   F  -0.5555929  -0.2407926   0.9627399 SPIN=   0.00000
   F   0.5555929   0.2407926  -0.9627399 SPIN=   0.00000
   F  -0.0000000  -0.0000000   0.0000000 SPIN=   0.00000
   F   0.0000000  -0.5000000  -0.0000000 SPIN=   0.00000
%ENDBLOCK POSITIONS_FRAC

# Note: total spin =  16.00

KPOINTS_MP_SPACING 0.07

%BLOCK SPECIES_POT
QC5
%ENDBLOCK SPECIES_POT

SNAP_TO_SYMMETRY
SYMMETRY_GENERATE

