#              Generated by Buildcell
#
# at 14:33:58 (GMT+1.0) 18th August 2020
# in /lustre/scratch/uccabz1/launch_tmp
# on node-c12e-025
# by uccabz1
#
# compiler GCC version 4.9.2
# options -cpp -iprefix /lustre/shared/ucl/apps/gcc/4.9.2/bin/../lib/gcc/x86_64-unknown-linux-gnu/4.9.2/ -mtune=corei7 -march=x86-64 -g -Og
#
# seed   -72852331   659168296   140163029   781274973  1757510347   370188706 -1303158345  -116856220 -1310996989  1202218848  1905564959  1749393451
#
#      Author: C. J. Pickard (cjp20@cam.ac.uk)
#                Space group: P-1
#

%BLOCK LATTICE_ABC
      6.70301      8.13031      8.29915
     70.49816     74.44724     72.80146
%ENDBLOCK LATTICE_ABC

%BLOCK POSITIONS_FRAC
  Li  -0.3412068   0.1488554   0.0200158 SPIN=   0.00000
  Li   0.3412068  -0.1488554  -0.0200158 SPIN=   0.00000
  Li  -0.0527093  -0.4745075  -0.2220878 SPIN=   0.00000
  Li   0.0527093   0.4745075   0.2220878 SPIN=   0.00000
  Fe  -0.3295029  -0.2414154   0.3207734 SPIN=   1.28508
  Fe   0.3295029   0.2414154  -0.3207734 SPIN=   1.28508
  Fe   0.1494874  -0.1598437  -0.3075546 SPIN=   6.71492
  Fe  -0.1494874   0.1598437   0.3075546 SPIN=   6.71492
   O   0.1837659  -0.5387296   0.4462205 SPIN=   0.00000
   O   0.3825632  -0.3408387   0.2014447 SPIN=   0.00000
   O   0.2899021  -0.2949732   0.4951673 SPIN=   0.00000
   O   0.0081822  -0.2225402   0.3249774 SPIN=   0.00000
   S   0.2161033  -0.3492704   0.3669525 SPIN=   0.00000
   O  -0.1837659   0.5387296  -0.4462205 SPIN=   0.00000
   O  -0.3825632   0.3408387  -0.2014447 SPIN=   0.00000
   O  -0.2899021   0.2949732  -0.4951673 SPIN=   0.00000
   O  -0.0081822   0.2225402  -0.3249774 SPIN=   0.00000
   S  -0.2161033   0.3492704  -0.3669525 SPIN=   0.00000
   O   0.1116013   0.2098721   0.3802403 SPIN=   0.00000
   O   0.4707494   0.1565048   0.4409904 SPIN=   0.00000
   O   0.4039977   0.3005350   0.1406164 SPIN=   0.00000
   O   0.4058321  -0.0209255   0.2769151 SPIN=   0.00000
   S   0.3480451   0.1614966   0.3096906 SPIN=   0.00000
   O  -0.1116013  -0.2098721  -0.3802403 SPIN=   0.00000
   O  -0.4707494  -0.1565048  -0.4409904 SPIN=   0.00000
   O  -0.4039977  -0.3005350  -0.1406164 SPIN=   0.00000
   O  -0.4058321   0.0209255  -0.2769151 SPIN=   0.00000
   S  -0.3480451  -0.1614966  -0.3096906 SPIN=   0.00000
   F   0.2318492   0.1088034  -0.0670165 SPIN=   0.00000
   F  -0.2318492  -0.1088034   0.0670165 SPIN=   0.00000
   F  -0.2536573   0.4214300   0.1110050 SPIN=   0.00000
   F   0.2536573  -0.4214300  -0.1110050 SPIN=   0.00000
%ENDBLOCK POSITIONS_FRAC

# Note: total spin =  16.00

KPOINTS_MP_SPACING 0.07

%BLOCK SPECIES_POT
QC5
%ENDBLOCK SPECIES_POT

SNAP_TO_SYMMETRY
SYMMETRY_GENERATE

