#              Generated by Buildcell
#
# at 23:05:16 (GMT+1.0) 17th August 2020
# in /lustre/scratch/uccabz1/launch_tmp
# on node-c12l-020
# by uccabz1
#
# compiler GCC version 4.9.2
# options -cpp -iprefix /lustre/shared/ucl/apps/gcc/4.9.2/bin/../lib/gcc/x86_64-unknown-linux-gnu/4.9.2/ -mtune=corei7 -march=x86-64 -g -Og
#
# seed  -334217828 -1808484196  -878510917   612551598  1868415594  1985968289 -1004304161  -565563319 -1809474951   110394836 -1416579936   -42095080
#
#      Author: C. J. Pickard (cjp20@cam.ac.uk)
#                Space group: Pc
#

%BLOCK LATTICE_ABC
      5.83903      8.29702      8.37413
     90.00000     99.61396     90.00000
%ENDBLOCK LATTICE_ABC

%BLOCK POSITIONS_FRAC
  Li   0.0098851   0.1586657   0.2832432 SPIN=   0.00000
  Li   0.0098851  -0.1586657  -0.2167568 SPIN=   0.00000
  Li  -0.4931796   0.4405056  -0.0995948 SPIN=   0.00000
  Li  -0.4931796  -0.4405056   0.4004052 SPIN=   0.00000
  Fe  -0.0596227  -0.1832001   0.3717454 SPIN=   4.66984
  Fe  -0.0596227   0.1832001  -0.1282546 SPIN=   4.66984
  Fe   0.3499504  -0.1307273   0.0891544 SPIN=   3.33016
  Fe   0.3499504   0.1307273  -0.4108456 SPIN=   3.33016
   O   0.0396713  -0.4644231   0.2766537 SPIN=   0.00000
   O  -0.1347637  -0.3273078   0.0228755 SPIN=   0.00000
   O  -0.1224456  -0.6252660   0.0352329 SPIN=   0.00000
   O   0.2404258  -0.4701840   0.0387611 SPIN=   0.00000
   S   0.0057220  -0.4717952   0.0933808 SPIN=   0.00000
   O   0.0396713   0.4644231  -0.2233463 SPIN=   0.00000
   O  -0.1347637   0.3273078  -0.4771245 SPIN=   0.00000
   O  -0.1224456   0.6252660  -0.4647671 SPIN=   0.00000
   O   0.2404258   0.4701840  -0.4612389 SPIN=   0.00000
   S   0.0057220   0.4717952  -0.4066192 SPIN=   0.00000
   O  -0.7243480   0.2508498   0.1740349 SPIN=   0.00000
   O  -0.3560903   0.1303694   0.1220567 SPIN=   0.00000
   O  -0.4348359   0.1512973   0.4026835 SPIN=   0.00000
   O  -0.3536935   0.3971986   0.2544242 SPIN=   0.00000
   S  -0.4672419   0.2324288   0.2382998 SPIN=   0.00000
   O  -0.7243480  -0.2508498  -0.3259651 SPIN=   0.00000
   O  -0.3560903  -0.1303694  -0.3779433 SPIN=   0.00000
   O  -0.4348359  -0.1512973  -0.0973165 SPIN=   0.00000
   O  -0.3536935  -0.3971986  -0.2455758 SPIN=   0.00000
   S  -0.4672419  -0.2324288  -0.2617002 SPIN=   0.00000
   F   0.0156773  -0.0193016   0.0303745 SPIN=   0.00000
   F   0.0156773   0.0193016  -0.4696255 SPIN=   0.00000
   F  -0.4212740   0.2299827  -0.2081799 SPIN=   0.00000
   F  -0.4212740  -0.2299827   0.2918201 SPIN=   0.00000
%ENDBLOCK POSITIONS_FRAC

# Note: total spin =  16.00

KPOINTS_MP_SPACING 0.07

%BLOCK SPECIES_POT
QC5
%ENDBLOCK SPECIES_POT

SNAP_TO_SYMMETRY
SYMMETRY_GENERATE

