#              Generated by Buildcell
#
# at 06:03:16 (GMT+1.0) 4th August 2020
# in /lustre/scratch/uccabz1/launch_tmp
# on node-c12f-032
# by uccabz1
#
# compiler GCC version 4.9.2
# options -cpp -iprefix /lustre/shared/ucl/apps/gcc/4.9.2/bin/../lib/gcc/x86_64-unknown-linux-gnu/4.9.2/ -mtune=corei7 -march=x86-64 -g -Og
#
# seed -1335592471  1397909365  -486977093  1885127249  -480847966 -1291158925  -945476580 -2008985885  -967178290  1386533054  1540172593 -1915212367
#
#      Author: C. J. Pickard (cjp20@cam.ac.uk)
#                Space group: P21
#

%BLOCK LATTICE_ABC
      4.95261      7.84326     10.33682
     90.00000     95.00304     90.00000
%ENDBLOCK LATTICE_ABC

%BLOCK POSITIONS_FRAC
  Li   0.4048443   0.1150733   0.2700859 SPIN=   0.00000
  Li  -0.4048443  -0.3849267  -0.2700859 SPIN=   0.00000
  Li   0.0529821   0.4747173  -0.4931814 SPIN=   0.00000
  Li  -0.0529821  -0.0252827   0.4931814 SPIN=   0.00000
  Fe   0.4420384  -0.2399471   0.4637118 SPIN=   5.03478
  Fe  -0.4420384   0.2600529  -0.4637118 SPIN=   5.03478
  Fe   0.1188280   0.4522447   0.2209226 SPIN=   2.96522
  Fe  -0.1188280  -0.0477553  -0.2209226 SPIN=   2.96522
   O   0.2354007  -0.2997883  -0.1744961 SPIN=   0.00000
   O   0.3917877  -0.0477950  -0.0447036 SPIN=   0.00000
   O   0.7033827  -0.2901221  -0.0690529 SPIN=   0.00000
   O   0.3154926  -0.3221801   0.0645905 SPIN=   0.00000
   S   0.4115159  -0.2399714  -0.0559155 SPIN=   0.00000
   O  -0.2354007   0.2002117   0.1744961 SPIN=   0.00000
   O  -0.3917877   0.4522050   0.0447036 SPIN=   0.00000
   O  -0.7033827   0.2098779   0.0690529 SPIN=   0.00000
   O  -0.3154926   0.1778199  -0.0645905 SPIN=   0.00000
   S  -0.4115159   0.2600286   0.0559155 SPIN=   0.00000
   O   0.0699371   0.1825893  -0.1926030 SPIN=   0.00000
   O   0.2872087   0.4331036  -0.2856896 SPIN=   0.00000
   O  -0.0014046   0.4706638  -0.1040097 SPIN=   0.00000
   O  -0.2092699   0.3933494  -0.3225488 SPIN=   0.00000
   S   0.0366178   0.3699265  -0.2262128 SPIN=   0.00000
   O  -0.0699371  -0.3174107   0.1926030 SPIN=   0.00000
   O  -0.2872087  -0.0668964   0.2856896 SPIN=   0.00000
   O   0.0014046  -0.0293362   0.1040097 SPIN=   0.00000
   O   0.2092699  -0.1066506   0.3225488 SPIN=   0.00000
   S  -0.0366178  -0.1300735   0.2262128 SPIN=   0.00000
   F   0.4794520  -0.4443073   0.3213806 SPIN=   0.00000
   F  -0.4794520   0.0556927  -0.3213806 SPIN=   0.00000
   F  -0.0002031   0.2381833   0.4372043 SPIN=   0.00000
   F   0.0002031  -0.2618167  -0.4372043 SPIN=   0.00000
%ENDBLOCK POSITIONS_FRAC

# Note: total spin =  16.00

KPOINTS_MP_SPACING 0.07

%BLOCK SPECIES_POT
QC5
%ENDBLOCK SPECIES_POT

SNAP_TO_SYMMETRY
SYMMETRY_GENERATE

