#              Generated by Buildcell
#
# at 08:31:34 (GMT+1.0) 4th August 2020
# in /lustre/scratch/uccabz1/launch_tmp
# on node-c12c-021
# by uccabz1
#
# compiler GCC version 4.9.2
# options -cpp -iprefix /lustre/shared/ucl/apps/gcc/4.9.2/bin/../lib/gcc/x86_64-unknown-linux-gnu/4.9.2/ -mtune=corei7 -march=x86-64 -g -Og
#
# seed  -518644388   745009141  1027744087  2093493208   738955350  1498695214 -1699386787 -1505772929   648182253  1721836273  1812303331  1002913719
#
#      Author: C. J. Pickard (cjp20@cam.ac.uk)
#                Space group: Fdd2
#

%BLOCK LATTICE_ABC
      8.10431      8.10431      8.13595
    115.53186    115.53186     97.73599
%ENDBLOCK LATTICE_ABC

%BLOCK POSITIONS_FRAC
  Li   0.2504935  -0.0150524   0.3854519 SPIN=   0.00000
  Li   0.0150524  -0.2504935  -0.3854519 SPIN=   0.00000
  Li   0.1150416   0.3494957   0.1145481 SPIN=   0.00000
  Li  -0.3494957  -0.1150416  -0.1145481 SPIN=   0.00000
  Fe  -0.4758422  -0.3094368   0.3934717 SPIN=   4.00000
  Fe   0.3094368   0.4758422  -0.3934717 SPIN=   4.00000
  Fe   0.3806861   0.0470914   0.1065283 SPIN=   4.00000
  Fe  -0.0470914  -0.3806861  -0.1065283 SPIN=   4.00000
   O   0.0312190   0.0952481  -0.2050877 SPIN=   0.00000
   O   0.1644778   0.1254171  -0.4177744 SPIN=   0.00000
   O   0.3932914   0.2655964  -0.0253645 SPIN=   0.00000
   O   0.1660744   0.4234432  -0.1439667 SPIN=   0.00000
   S   0.1887657   0.2274262  -0.1980483 SPIN=   0.00000
   O  -0.0952481  -0.0312190   0.2050877 SPIN=   0.00000
   O  -0.1254171  -0.1644778   0.4177744 SPIN=   0.00000
   O  -0.2655964  -0.3932914   0.0253645 SPIN=   0.00000
   O  -0.4234432  -0.1660744   0.1439667 SPIN=   0.00000
   S  -0.2274262  -0.1887657   0.1980483 SPIN=   0.00000
   O  -0.5136933   0.0503358  -0.2949123 SPIN=   0.00000
   O  -0.1677478   0.2931915  -0.0822256 SPIN=   0.00000
   O  -0.3313441   0.0409609  -0.4746355 SPIN=   0.00000
   O  -0.4399589   0.3174099  -0.3560333 SPIN=   0.00000
   S  -0.3631860   0.1754745  -0.3019517 SPIN=   0.00000
   O  -0.0503358   0.5136933   0.2949123 SPIN=   0.00000
   O  -0.2931915   0.1677478   0.0822256 SPIN=   0.00000
   O  -0.0409609   0.3313441   0.4746355 SPIN=   0.00000
   O  -0.3174099   0.4399589   0.3560333 SPIN=   0.00000
   S  -0.1754745   0.3631860   0.3019517 SPIN=   0.00000
   F   0.2262166   0.2275684   0.3066438 SPIN=   0.00000
   F  -0.2275684  -0.2262166  -0.3066438 SPIN=   0.00000
   F   0.1695728  -0.3290753   0.1933562 SPIN=   0.00000
   F   0.3290753  -0.1695728  -0.1933562 SPIN=   0.00000
%ENDBLOCK POSITIONS_FRAC

# Note: total spin =  16.00

KPOINTS_MP_SPACING 0.07

%BLOCK SPECIES_POT
QC5
%ENDBLOCK SPECIES_POT

SNAP_TO_SYMMETRY
SYMMETRY_GENERATE

