#              Generated by Buildcell
#
# at 09:52:32 (GMT+1.0) 4th August 2020
# in /lustre/scratch/uccabz1/launch_tmp
# on node-c12d-008
# by uccabz1
#
# compiler GCC version 4.9.2
# options -cpp -iprefix /lustre/shared/ucl/apps/gcc/4.9.2/bin/../lib/gcc/x86_64-unknown-linux-gnu/4.9.2/ -mtune=corei7 -march=x86-64 -g -Og
#
# seed  -237262892  -156000533   604253454 -1250755298  1142012121  1088918436  1721296453  -143433856   410060779 -1940683227 -1351154974   141033671
#
#      Author: C. J. Pickard (cjp20@cam.ac.uk)
#                Space group: P2
#

%BLOCK LATTICE_ABC
      3.86579      9.99369     10.93916
    108.82993     90.00000     90.00000
%ENDBLOCK LATTICE_ABC

%BLOCK POSITIONS_FRAC
  Li  -0.3544380   0.3183551   0.2118643 SPIN=   0.00000
  Li  -0.3544380  -0.3183551  -0.2118643 SPIN=   0.00000
  Li  -0.1584781   0.3319477  -0.4489349 SPIN=   0.00000
  Li  -0.1584781  -0.3319477   0.4489349 SPIN=   0.00000
  Fe   0.0377861  -0.4483726   0.1770294 SPIN=   4.43794
  Fe   0.0377861   0.4483726  -0.1770294 SPIN=   4.43794
  Fe  -0.4628623   0.1252790  -0.3352645 SPIN=   3.56206
  Fe  -0.4628623  -0.1252790   0.3352645 SPIN=   3.56206
   O   0.2389504   0.1755057   0.1806425 SPIN=   0.00000
   O  -0.2689174   0.1842591   0.3207581 SPIN=   0.00000
   O   0.2599779   0.3191693   0.4119428 SPIN=   0.00000
   O   0.2612776   0.0579573   0.3479501 SPIN=   0.00000
   S   0.1228221   0.1842228   0.3153234 SPIN=   0.00000
   O   0.2389504  -0.1755057  -0.1806425 SPIN=   0.00000
   O  -0.2689174  -0.1842591  -0.3207581 SPIN=   0.00000
   O   0.2599779  -0.3191693  -0.4119428 SPIN=   0.00000
   O   0.2612776  -0.0579573  -0.3479501 SPIN=   0.00000
   S   0.1228221  -0.1842228  -0.3153234 SPIN=   0.00000
   O  -0.3993351  -0.2020303   0.1297994 SPIN=   0.00000
   O   0.1279935  -0.0616924   0.1295616 SPIN=   0.00000
   O  -0.2611862  -0.1287729  -0.0602327 SPIN=   0.00000
   O   0.0942426  -0.3111124  -0.0112863 SPIN=   0.00000
   S  -0.1095713  -0.1759020   0.0469605 SPIN=   0.00000
   O  -0.3993351   0.2020303  -0.1297994 SPIN=   0.00000
   O   0.1279935   0.0616924  -0.1295616 SPIN=   0.00000
   O  -0.2611862   0.1287729   0.0602327 SPIN=   0.00000
   O   0.0942426   0.3111124   0.0112863 SPIN=   0.00000
   S  -0.1095713   0.1759020  -0.0469605 SPIN=   0.00000
   F   0.0200670  -0.1805264   0.3657112 SPIN=   0.00000
   F   0.0200670   0.1805264  -0.3657112 SPIN=   0.00000
   F  -0.4738199  -0.4853448  -0.1714862 SPIN=   0.00000
   F  -0.4738199   0.4853448   0.1714862 SPIN=   0.00000
%ENDBLOCK POSITIONS_FRAC

# Note: total spin =  16.00

KPOINTS_MP_SPACING 0.07

%BLOCK SPECIES_POT
QC5
%ENDBLOCK SPECIES_POT

SNAP_TO_SYMMETRY
SYMMETRY_GENERATE

