#              Generated by Buildcell
#
# at 10:04:11 (GMT+1.0) 4th August 2020
# in /lustre/scratch/uccabz1/launch_tmp
# on node-c12m-020
# by uccabz1
#
# compiler GCC version 4.9.2
# options -cpp -iprefix /lustre/shared/ucl/apps/gcc/4.9.2/bin/../lib/gcc/x86_64-unknown-linux-gnu/4.9.2/ -mtune=corei7 -march=x86-64 -g -Og
#
# seed  -278518652  1750408299  1975544971   953851272  -551269961 -1410538898 -1992972742 -2033029529  1580220341  1039862668  1146587415  -303213498
#
#      Author: C. J. Pickard (cjp20@cam.ac.uk)
#                Space group: P21
#

%BLOCK LATTICE_ABC
      7.35239      7.38970      7.46306
     90.00000     99.43292     90.00000
%ENDBLOCK LATTICE_ABC

%BLOCK POSITIONS_FRAC
  Li   0.1606010   0.1952504  -0.4178286 SPIN=   0.00000
  Li  -0.1606010  -0.3047496   0.4178286 SPIN=   0.00000
  Li   0.4223881  -0.1594784   0.0543581 SPIN=   0.00000
  Li  -0.4223881   0.3405216  -0.0543581 SPIN=   0.00000
  Fe  -0.2402398   0.3203574  -0.4363429 SPIN=   2.90945
  Fe   0.2402398  -0.1796426   0.4363429 SPIN=   2.90945
  Fe  -0.0349146   0.4667493   0.1169876 SPIN=   5.09055
  Fe   0.0349146  -0.0332507  -0.1169876 SPIN=   5.09055
   O  -0.0086431  -0.5278009  -0.1590065 SPIN=   0.00000
   O   0.3257396  -0.5595574  -0.1631141 SPIN=   0.00000
   O   0.1676438  -0.2707633  -0.2564061 SPIN=   0.00000
   O   0.1067453  -0.5415686  -0.4521579 SPIN=   0.00000
   S   0.1478714  -0.4749225  -0.2576711 SPIN=   0.00000
   O   0.0086431  -0.0278009   0.1590065 SPIN=   0.00000
   O  -0.3257396  -0.0595574   0.1631141 SPIN=   0.00000
   O  -0.1676438   0.2292367   0.2564061 SPIN=   0.00000
   O  -0.1067453  -0.0415686   0.4521579 SPIN=   0.00000
   S  -0.1478714   0.0250775   0.2576711 SPIN=   0.00000
   O  -0.3643450  -0.4793707  -0.2968225 SPIN=   0.00000
   O  -0.4746655  -0.1960788  -0.1739578 SPIN=   0.00000
   O  -0.4390586  -0.2138814  -0.4975431 SPIN=   0.00000
   O  -0.1630250  -0.2090370  -0.2580862 SPIN=   0.00000
   S  -0.3602735  -0.2745920  -0.3066024 SPIN=   0.00000
   O   0.3643450   0.0206293   0.2968225 SPIN=   0.00000
   O   0.4746655   0.3039212   0.1739578 SPIN=   0.00000
   O   0.4390586   0.2861186   0.4975431 SPIN=   0.00000
   O   0.1630250   0.2909630   0.2580862 SPIN=   0.00000
   S   0.3602735   0.2254080   0.3066024 SPIN=   0.00000
   F   0.2810396   0.0470702  -0.1656727 SPIN=   0.00000
   F  -0.2810396  -0.4529298   0.1656727 SPIN=   0.00000
   F   0.2267854  -0.2972983   0.2119590 SPIN=   0.00000
   F  -0.2267854   0.2027017  -0.2119590 SPIN=   0.00000
%ENDBLOCK POSITIONS_FRAC

# Note: total spin =  16.00

KPOINTS_MP_SPACING 0.07

%BLOCK SPECIES_POT
QC5
%ENDBLOCK SPECIES_POT

SNAP_TO_SYMMETRY
SYMMETRY_GENERATE

