#              Generated by Buildcell
#
# at 01:01:11 (GMT+1.0) 18th August 2020
# in /lustre/scratch/uccabz1/launch_tmp
# on node-c12p-001
# by uccabz1
#
# compiler GCC version 4.9.2
# options -cpp -iprefix /lustre/shared/ucl/apps/gcc/4.9.2/bin/../lib/gcc/x86_64-unknown-linux-gnu/4.9.2/ -mtune=corei7 -march=x86-64 -g -Og
#
# seed  1246440327  1157228329  1168261073 -1097892737  1645641646  1739479957 -1799086981   263642118 -1551541011  1927614146  -115369655  -111780944
#
#      Author: C. J. Pickard (cjp20@cam.ac.uk)
#                Space group: P41
#

%BLOCK LATTICE_ABC
      7.00907      7.00907      8.14216
     90.00000     90.00000     90.00000
%ENDBLOCK LATTICE_ABC

%BLOCK POSITIONS_FRAC
  Li  -0.2203624  -0.3937581  -0.2806945 SPIN=   0.00000
  Li   0.2203624   0.3937581   0.2193055 SPIN=   0.00000
  Li  -0.3937581   0.2203624   0.4693055 SPIN=   0.00000
  Li   0.3937581  -0.2203624  -0.0306945 SPIN=   0.00000
  Fe  -0.3099361   0.0450176  -0.2069695 SPIN=   4.00000
  Fe   0.3099361  -0.0450176   0.2930305 SPIN=   4.00000
  Fe   0.0450176   0.3099361  -0.4569695 SPIN=   4.00000
  Fe  -0.0450176  -0.3099361   0.0430305 SPIN=   4.00000
   O   0.3920684   0.3853419   0.0085000 SPIN=   0.00000
   O   0.1196603   0.1641267   0.0422215 SPIN=   0.00000
   O   0.4015708   0.0654305  -0.1198865 SPIN=   0.00000
   O   0.1828780   0.3124524  -0.2281960 SPIN=   0.00000
   S   0.2740444   0.2318379  -0.0743403 SPIN=   0.00000
   O  -0.3920684  -0.3853419   0.5085000 SPIN=   0.00000
   O  -0.1196603  -0.1641267   0.5422215 SPIN=   0.00000
   O  -0.4015708  -0.0654305   0.3801135 SPIN=   0.00000
   O  -0.1828780  -0.3124524   0.2718040 SPIN=   0.00000
   S  -0.2740444  -0.2318379   0.4256597 SPIN=   0.00000
   O   0.3853419  -0.3920684  -0.2415000 SPIN=   0.00000
   O   0.1641267  -0.1196603  -0.2077785 SPIN=   0.00000
   O   0.0654305  -0.4015708  -0.3698865 SPIN=   0.00000
   O   0.3124524  -0.1828780  -0.4781960 SPIN=   0.00000
   S   0.2318379  -0.2740444  -0.3243403 SPIN=   0.00000
   O  -0.3853419   0.3920684   0.2585000 SPIN=   0.00000
   O  -0.1641267   0.1196603   0.2922215 SPIN=   0.00000
   O  -0.0654305   0.4015708   0.1301135 SPIN=   0.00000
   O  -0.3124524   0.1828780   0.0218040 SPIN=   0.00000
   S  -0.2318379   0.2740444   0.1756597 SPIN=   0.00000
   F  -0.2533312   0.3179874  -0.2965755 SPIN=   0.00000
   F   0.2533312  -0.3179874   0.2034245 SPIN=   0.00000
   F   0.3179874   0.2533312   0.4534245 SPIN=   0.00000
   F  -0.3179874  -0.2533312  -0.0465755 SPIN=   0.00000
%ENDBLOCK POSITIONS_FRAC

# Note: total spin =  16.00

KPOINTS_MP_SPACING 0.07

%BLOCK SPECIES_POT
QC5
%ENDBLOCK SPECIES_POT

SNAP_TO_SYMMETRY
SYMMETRY_GENERATE

