#              Generated by Buildcell
#
# at 07:11:54 (GMT+1.0) 4th August 2020
# in /lustre/scratch/uccabz1/launch_tmp
# on node-c12d-006
# by uccabz1
#
# compiler GCC version 4.9.2
# options -cpp -iprefix /lustre/shared/ucl/apps/gcc/4.9.2/bin/../lib/gcc/x86_64-unknown-linux-gnu/4.9.2/ -mtune=corei7 -march=x86-64 -g -Og
#
# seed   717647111   832703226  2007799084 -1723709664 -1290319328   -35273092 -1423411082   -36019593  -938411051 -1207126076  -366735692 -2130333335
#
#      Author: C. J. Pickard (cjp20@cam.ac.uk)
#                Space group: Cc
#

%BLOCK LATTICE_ABC
      5.47374      6.86560     11.82722
     85.59711     78.89658     66.50711
%ENDBLOCK LATTICE_ABC

%BLOCK POSITIONS_FRAC
  Li   0.8155795   0.3568089  -0.4055721 SPIN=   0.00000
  Li  -0.3276116  -0.3568089   0.0944279 SPIN=   0.00000
  Li  -0.7756315   0.4801988   0.3275443 SPIN=   0.00000
  Li   0.2045673  -0.4801988  -0.1724557 SPIN=   0.00000
  Fe  -0.1718153   0.2610746   0.3428919 SPIN=   3.25650
  Fe   0.5892593  -0.2610746  -0.1571081 SPIN=   3.25650
  Fe   0.4160507   0.1411969  -0.3910799 SPIN=   4.74350
  Fe   0.0572476  -0.1411969   0.1089201 SPIN=   4.74350
   O  -0.1592892  -0.3922268   0.3036953 SPIN=   0.00000
   O  -0.2565093  -0.0264722   0.3620763 SPIN=   0.00000
   O  -0.2236719  -0.3072507   0.5097083 SPIN=   0.00000
   O  -0.6141057  -0.1692453   0.4076683 SPIN=   0.00000
   S  -0.3133940  -0.2237988   0.3957871 SPIN=   0.00000
   O  -0.0515161   0.3922268  -0.1963047 SPIN=   0.00000
   O   0.2170185   0.0264722  -0.1379237 SPIN=   0.00000
   O  -0.0309226   0.3072507   0.0097083 SPIN=   0.00000
   O  -0.2833510   0.1692453  -0.0923317 SPIN=   0.00000
   S  -0.0371928   0.2237988  -0.1042129 SPIN=   0.00000
   O  -0.0381470  -0.0682997  -0.4801737 SPIN=   0.00000
   O   0.3669058  -0.2954396  -0.3982606 SPIN=   0.00000
   O  -0.0741520  -0.3200170  -0.3228318 SPIN=   0.00000
   O  -0.0007374  -0.0006840  -0.2829414 SPIN=   0.00000
   S   0.0634673  -0.1711101  -0.3710519 SPIN=   0.00000
   O  -0.6064467   0.0682997   0.0198263 SPIN=   0.00000
   O  -0.4285338   0.2954396   0.1017394 SPIN=   0.00000
   O  -0.8941690   0.3200170   0.1771682 SPIN=   0.00000
   O  -0.5014215   0.0006840   0.2170586 SPIN=   0.00000
   S  -0.6076427   0.1711101   0.1289481 SPIN=   0.00000
   F  -0.6890366  -0.3193790   0.2113389 SPIN=   0.00000
   F   0.4915844   0.3193790  -0.2886611 SPIN=   0.00000
   F  -0.8715014   0.2583226   0.4471101 SPIN=   0.00000
   F  -0.1131788  -0.2583226  -0.0528899 SPIN=   0.00000
%ENDBLOCK POSITIONS_FRAC

# Note: total spin =  16.00

KPOINTS_MP_SPACING 0.07

%BLOCK SPECIES_POT
QC5
%ENDBLOCK SPECIES_POT

SNAP_TO_SYMMETRY
SYMMETRY_GENERATE

