#              Generated by Buildcell
#
# at 06:44:30 (GMT+1.0) 4th August 2020
# in /lustre/scratch/uccabz1/launch_tmp
# on node-c12f-008
# by uccabz1
#
# compiler GCC version 4.9.2
# options -cpp -iprefix /lustre/shared/ucl/apps/gcc/4.9.2/bin/../lib/gcc/x86_64-unknown-linux-gnu/4.9.2/ -mtune=corei7 -march=x86-64 -g -Og
#
# seed  -256667958  1359814242   906225706  -369515559  1059415778 -1518301591  1772056962 -1167988199 -1031469275   774666931  -720871282  2017944847
#
#      Author: C. J. Pickard (cjp20@cam.ac.uk)
#                Space group: P2
#

%BLOCK LATTICE_ABC
      4.13832      8.02993     12.03729
     90.28086     90.00000     90.00000
%ENDBLOCK LATTICE_ABC

%BLOCK POSITIONS_FRAC
  Li   0.2243842   0.2422378   0.2280890 SPIN=   0.00000
  Li   0.2243842  -0.2422378  -0.2280890 SPIN=   0.00000
  Li  -0.2775522  -0.1430668   0.1318833 SPIN=   0.00000
  Li  -0.2775522   0.1430668  -0.1318833 SPIN=   0.00000
  Fe   0.2320651   0.2220442   0.4733836 SPIN=   2.50499
  Fe   0.2320651  -0.2220442  -0.4733836 SPIN=   2.50499
  Fe   0.2140076   0.4122323  -0.1397122 SPIN=   5.49501
  Fe   0.2140076  -0.4122323   0.1397122 SPIN=   5.49501
   O  -0.0856095  -0.5188425   0.3150704 SPIN=   0.00000
   O  -0.0864797  -0.2107204   0.3111867 SPIN=   0.00000
   O  -0.3004122  -0.3591617   0.4751910 SPIN=   0.00000
   O  -0.6020057  -0.3657194   0.2976821 SPIN=   0.00000
   S  -0.2686268  -0.3636110   0.3497825 SPIN=   0.00000
   O  -0.0856095   0.5188425  -0.3150704 SPIN=   0.00000
   O  -0.0864797   0.2107204  -0.3111867 SPIN=   0.00000
   O  -0.3004122   0.3591617  -0.4751910 SPIN=   0.00000
   O  -0.6020057   0.3657194  -0.2976821 SPIN=   0.00000
   S  -0.2686268   0.3636110  -0.3497825 SPIN=   0.00000
   O  -0.3372383  -0.1072875  -0.1026118 SPIN=   0.00000
   O  -0.4200296  -0.3336794   0.0332273 SPIN=   0.00000
   O   0.0857923  -0.3212944  -0.0761077 SPIN=   0.00000
   O  -0.4290989  -0.3959543  -0.1683121 SPIN=   0.00000
   S  -0.2751436  -0.2895539  -0.0784511 SPIN=   0.00000
   O  -0.3372383   0.1072875   0.1026118 SPIN=   0.00000
   O  -0.4200296   0.3336794  -0.0332273 SPIN=   0.00000
   O   0.0857923   0.3212944   0.0761077 SPIN=   0.00000
   O  -0.4290989   0.3959543   0.1683121 SPIN=   0.00000
   S  -0.2751436   0.2895539   0.0784511 SPIN=   0.00000
   F  -0.2758799  -0.1537024  -0.3646545 SPIN=   0.00000
   F  -0.2758799   0.1537024   0.3646545 SPIN=   0.00000
   F   0.2242596  -0.1298496   0.1418984 SPIN=   0.00000
   F   0.2242596   0.1298496  -0.1418984 SPIN=   0.00000
%ENDBLOCK POSITIONS_FRAC

# Note: total spin =  16.00

KPOINTS_MP_SPACING 0.07

%BLOCK SPECIES_POT
QC5
%ENDBLOCK SPECIES_POT

SNAP_TO_SYMMETRY
SYMMETRY_GENERATE

