#              Generated by Buildcell
#
# at 06:46:39 (GMT+1.0) 4th August 2020
# in /lustre/scratch/uccabz1/launch_tmp
# on node-c12j-007
# by uccabz1
#
# compiler GCC version 4.9.2
# options -cpp -iprefix /lustre/shared/ucl/apps/gcc/4.9.2/bin/../lib/gcc/x86_64-unknown-linux-gnu/4.9.2/ -mtune=corei7 -march=x86-64 -g -Og
#
# seed  2002702468   246394408 -1779165741  1707253948   872574795   516985809   113996132   176599973 -1171859604   437162567 -1406232002  1459610926
#
#      Author: C. J. Pickard (cjp20@cam.ac.uk)
#                Space group: C2
#

%BLOCK LATTICE_ABC
      7.56082      8.24407      8.33490
     66.81759     63.02746     62.70572
%ENDBLOCK LATTICE_ABC

%BLOCK POSITIONS_FRAC
  Li  -0.2423310  -0.0427599   0.3602180 SPIN=   0.00000
  Li   0.0751272   0.0427599  -0.3602180 SPIN=   0.00000
  Li   0.4639865   0.5730402  -0.1523562 SPIN=   0.00000
  Li  -0.1153294  -0.5730402   0.1523562 SPIN=   0.00000
  Fe   0.0092394  -0.2429155  -0.0155958 SPIN=   3.13491
  Fe  -0.2492719   0.2429155   0.0155958 SPIN=   3.13491
  Fe   0.4676018  -0.2369834   0.4699388 SPIN=   4.86509
  Fe  -0.2994428   0.2369834  -0.4699388 SPIN=   4.86509
   O   0.4468363  -0.9363725   0.3142266 SPIN=   0.00000
   O   0.3317577  -0.7137067   0.5015866 SPIN=   0.00000
   O   0.0773282  -0.7188693   0.3957360 SPIN=   0.00000
   O   0.3658381  -0.5961836   0.1698179 SPIN=   0.00000
   S   0.3054401  -0.7412830   0.3453417 SPIN=   0.00000
   O  -0.1753096   0.9363725  -0.3142266 SPIN=   0.00000
   O   0.1196375   0.7137067  -0.5015866 SPIN=   0.00000
   O  -0.2458051   0.7188693  -0.3957360 SPIN=   0.00000
   O  -0.0605276   0.5961836  -0.1698179 SPIN=   0.00000
   S  -0.0905012   0.7412830  -0.3453417 SPIN=   0.00000
   O   0.0929342   0.2206913  -0.1289609 SPIN=   0.00000
   O   0.4687165   0.0939691  -0.1534665 SPIN=   0.00000
   O   0.2044670   0.3091149   0.0526690 SPIN=   0.00000
   O   0.3053757   0.4300009  -0.2875149 SPIN=   0.00000
   S   0.2678733   0.2634441  -0.1293183 SPIN=   0.00000
   O   0.1846646  -0.2206913   0.1289609 SPIN=   0.00000
   O   0.4092191  -0.0939691   0.1534665 SPIN=   0.00000
   O   0.5662509  -0.3091149  -0.0526690 SPIN=   0.00000
   O   0.4478618  -0.4300009   0.2875149 SPIN=   0.00000
   S   0.4019991  -0.2634441   0.1293183 SPIN=   0.00000
   F   0.2984594  -0.1648869  -0.2878315 SPIN=   0.00000
   F  -0.1542591   0.1648869   0.2878315 SPIN=   0.00000
   F  -0.1522050  -0.3476241   0.2466540 SPIN=   0.00000
   F  -0.2531750   0.3476241  -0.2466540 SPIN=   0.00000
%ENDBLOCK POSITIONS_FRAC

# Note: total spin =  16.00

KPOINTS_MP_SPACING 0.07

%BLOCK SPECIES_POT
QC5
%ENDBLOCK SPECIES_POT

SNAP_TO_SYMMETRY
SYMMETRY_GENERATE

