#              Generated by Buildcell
#
# at 04:53:04 (GMT+1.0) 18th August 2020
# in /scratch/scratch/uccabz1/launch_tmp
# on node-k10d-022
# by uccabz1
#
# compiler GCC version 4.9.2
# options -cpp -iprefix /scratch/UCL/applications/gcc/4.9.2/bin/../lib/gcc/x86_64-unknown-linux-gnu/4.9.2/ -mtune=corei7 -march=x86-64 -g -O2
#
# seed -1084314764  2141094266   -66192046  1284750709 -1705585279  -999068811  -711588408  -343012976  1070836290  1653630705  1402472271  1891868410
#
#      Author: C. J. Pickard (cjp20@cam.ac.uk)
#                Space group: Cm
#

%BLOCK LATTICE_ABC
      4.71741      9.16683     10.41891
    116.09833     97.77255     90.00000
%ENDBLOCK LATTICE_ABC

%BLOCK POSITIONS_FRAC
  Li  -0.3023336  -0.2342458   0.1111057 SPIN=   0.00000
  Li  -0.3023336   0.3453515   0.1111057 SPIN=   0.00000
  Li   0.0497489  -0.1226941  -0.2453882 SPIN=   0.00000
  Li   0.4083066  -0.2934879   0.4130242 SPIN=   0.00000
  Fe   0.2381528  -0.0522866   0.2940158 SPIN=   1.77563
  Fe   0.2381528   0.3463024   0.2940158 SPIN=   1.77563
  Fe   0.3594242   0.3183150  -0.3633699 SPIN=   6.78467
  Fe  -0.3412602  -0.0137738  -0.0275477 SPIN=   5.66406
   O  -0.1052905  -0.5251780  -0.3480821 SPIN=   0.00000
   O   0.0278918  -0.3515147  -0.4601205 SPIN=   0.00000
   O  -0.4831947  -0.4086703  -0.4569760 SPIN=   0.00000
   O  -0.2041104  -0.6275413  -0.6137443 SPIN=   0.00000
   S  -0.1911759  -0.4782261  -0.4697307 SPIN=   0.00000
   O  -0.1052905   0.1770959  -0.3480821 SPIN=   0.00000
   O   0.0278918  -0.1086059  -0.4601205 SPIN=   0.00000
   O  -0.4831947  -0.0483057  -0.4569760 SPIN=   0.00000
   O  -0.2041104   0.0137970  -0.6137443 SPIN=   0.00000
   S  -0.1911759   0.0084953  -0.4697307 SPIN=   0.00000
   O  -0.1661140   0.1592344  -0.0902403 SPIN=   0.00000
   O   0.2665340   0.1789942  -0.1936259 SPIN=   0.00000
   O   0.3127597   0.1325092   0.0247567 SPIN=   0.00000
   O   0.1787509   0.3999621   0.0397275 SPIN=   0.00000
   S   0.1479826   0.2176750  -0.0548455 SPIN=   0.00000
   O  -0.1661140  -0.2494747  -0.0902403 SPIN=   0.00000
   O   0.2665340  -0.3726201  -0.1936259 SPIN=   0.00000
   O   0.3127597  -0.1077524   0.0247567 SPIN=   0.00000
   O   0.1787509  -0.3602346   0.0397275 SPIN=   0.00000
   S   0.1479826  -0.2725204  -0.0548455 SPIN=   0.00000
   F   0.0501830  -0.3618187   0.2763625 SPIN=   0.00000
   F  -0.3860251   0.4122678  -0.1754645 SPIN=   0.00000
   F  -0.4681255  -0.1192292  -0.2384583 SPIN=   0.00000
   F   0.0765798   0.1166944   0.2333888 SPIN=   0.00000
%ENDBLOCK POSITIONS_FRAC

# Note: total spin =  16.00

KPOINTS_MP_SPACING 0.07

%BLOCK SPECIES_POT
QC5
%ENDBLOCK SPECIES_POT

SNAP_TO_SYMMETRY
SYMMETRY_GENERATE

