#              Generated by Buildcell
#
# at 10:04:50 (GMT+1.0) 18th August 2020
# in /lustre/scratch/uccabz1/launch_tmp
# on node-c12j-020
# by uccabz1
#
# compiler GCC version 4.9.2
# options -cpp -iprefix /lustre/shared/ucl/apps/gcc/4.9.2/bin/../lib/gcc/x86_64-unknown-linux-gnu/4.9.2/ -mtune=corei7 -march=x86-64 -g -Og
#
# seed  -268842239  1924466814 -1259120861   389982094  1839888665 -1798904218   223883911  2010468886   678782757  1754991262   742349838   113134325
#
#      Author: C. J. Pickard (cjp20@cam.ac.uk)
#                Space group: C2
#

%BLOCK LATTICE_ABC
      3.95885     10.57031     10.92761
     61.07585     89.04214     88.01923
%ENDBLOCK LATTICE_ABC

%BLOCK POSITIONS_FRAC
  Li  -0.2326049  -0.3788814   0.0724644 SPIN=   0.00000
  Li   0.2326049   0.3064171   0.0724644 SPIN=   0.00000
  Li  -0.2477789   0.0729485  -0.4431131 SPIN=   0.00000
  Li   0.2477789   0.3701646  -0.4431131 SPIN=   0.00000
  Fe   0.2543960  -0.1357176  -0.0093941 SPIN=   0.89880
  Fe  -0.2543960   0.1451117  -0.0093941 SPIN=   0.89880
  Fe   0.2374917  -0.1118650  -0.4987224 SPIN=   7.10120
  Fe  -0.2374917  -0.3894126  -0.4987224 SPIN=   7.10120
   O   0.1671317   0.5607451  -0.3549261 SPIN=   0.00000
   O  -0.0178009   0.3343555  -0.1515048 SPIN=   0.00000
   O   0.4878839   0.4553725  -0.1330381 SPIN=   0.00000
   O   0.5061314   0.3338552  -0.2780544 SPIN=   0.00000
   S   0.2858365   0.4210821  -0.2293808 SPIN=   0.00000
   O  -0.1671317  -0.2058190  -0.3549261 SPIN=   0.00000
   O   0.0178009  -0.1828507  -0.1515048 SPIN=   0.00000
   O  -0.4878839  -0.3223344  -0.1330381 SPIN=   0.00000
   O  -0.5061314  -0.0558008  -0.2780544 SPIN=   0.00000
   S  -0.2858365  -0.1917012  -0.2293808 SPIN=   0.00000
   O  -0.8030339  -0.3510903   0.1405147 SPIN=   0.00000
   O  -0.8106860  -0.3997591   0.3859964 SPIN=   0.00000
   O  -0.2829760  -0.4406098   0.2837700 SPIN=   0.00000
   O  -0.7620554  -0.6030480   0.3340326 SPIN=   0.00000
   S  -0.6646878  -0.4486268   0.2860784 SPIN=   0.00000
   O  -0.1969661   0.2105756   0.1405147 SPIN=   0.00000
   O  -0.1893140   0.0137627   0.3859964 SPIN=   0.00000
   O  -0.7170240   0.1568398   0.2837700 SPIN=   0.00000
   O  -0.2379446   0.2690154   0.3340326 SPIN=   0.00000
   S  -0.3353122   0.1625484   0.2860784 SPIN=   0.00000
   F  -0.0000000   0.2040944  -0.4081888 SPIN=   0.00000
   F  -0.5000000  -0.2117799   0.4235597 SPIN=   0.00000
   F   0.0000000  -0.0351882   0.0703763 SPIN=   0.00000
   F   0.0000000   0.4810242   0.0379516 SPIN=   0.00000
%ENDBLOCK POSITIONS_FRAC

# Note: total spin =  16.00

KPOINTS_MP_SPACING 0.07

%BLOCK SPECIES_POT
QC5
%ENDBLOCK SPECIES_POT

SNAP_TO_SYMMETRY
SYMMETRY_GENERATE

