#              Generated by Buildcell
#
# at 23:45:11 (GMT+1.0) 17th August 2020
# in /lustre/scratch/uccabz1/launch_tmp
# on node-c12p-030
# by uccabz1
#
# compiler GCC version 4.9.2
# options -cpp -iprefix /lustre/shared/ucl/apps/gcc/4.9.2/bin/../lib/gcc/x86_64-unknown-linux-gnu/4.9.2/ -mtune=corei7 -march=x86-64 -g -Og
#
# seed  -311496247  -114282421  1798727983  -289894244   267741566 -1288495183   994366774  1277355421  -466812904   -21078873   875508672   496962088
#
#      Author: C. J. Pickard (cjp20@cam.ac.uk)
#                Space group: Cm
#

%BLOCK LATTICE_ABC
      4.07069      7.38389     14.31104
    102.67853     94.15123    105.70542
%ENDBLOCK LATTICE_ABC

%BLOCK POSITIONS_FRAC
  Li   0.2140484  -0.2781383  -0.4511646 SPIN=   0.00000
  Li  -0.3347870   0.1730263   0.4511646 SPIN=   0.00000
  Li   0.0730143   0.3636883  -0.2629695 SPIN=   0.00000
  Li   0.3359838  -0.3733422   0.2629695 SPIN=   0.00000
  Fe  -0.4036758   0.4753692  -0.3875225 SPIN=   3.72831
  Fe  -0.0161534  -0.1371083   0.3875225 SPIN=   3.72831
  Fe   0.0413833   0.0940570  -0.1373968 SPIN=   4.27169
  Fe   0.1787801   0.2314538   0.1373968 SPIN=   4.27169
   O  -0.1768329  -0.1653025  -0.4729710 SPIN=   0.00000
   O  -0.4853619   0.0165073  -0.3630748 SPIN=   0.00000
   O   0.1122584   0.1764674  -0.3848004 SPIN=   0.00000
   O  -0.0014774  -0.0812183  -0.2958862 SPIN=   0.00000
   S  -0.1378534  -0.0133865  -0.3791831 SPIN=   0.00000
   O   0.2961381   0.3076685   0.4729710 SPIN=   0.00000
   O  -0.1222871   0.3795821   0.3630748 SPIN=   0.00000
   O   0.4970588   0.5612678   0.3848004 SPIN=   0.00000
   O   0.2944088   0.2146680   0.2958862 SPIN=   0.00000
   S   0.2413297   0.3657966   0.3791831 SPIN=   0.00000
   O  -0.1690478  -0.5832196  -0.0816298 SPIN=   0.00000
   O  -0.0402099  -0.2703313  -0.1281308 SPIN=   0.00000
   O  -0.6298039  -0.4277092  -0.0992912 SPIN=   0.00000
   O  -0.4022366  -0.5716210  -0.2440779 SPIN=   0.00000
   S  -0.3103245  -0.4632203  -0.1382824 SPIN=   0.00000
   O  -0.0874180  -0.5015898   0.0816298 SPIN=   0.00000
   O   0.0879209  -0.1422004   0.1281308 SPIN=   0.00000
   O  -0.5305127  -0.3284180   0.0992912 SPIN=   0.00000
   O  -0.1581587  -0.3275432   0.2440779 SPIN=   0.00000
   S  -0.1720421  -0.3249379   0.1382824 SPIN=   0.00000
   F   0.1380490  -0.4544442  -0.3593096 SPIN=   0.00000
   F   0.4973586  -0.0951346   0.3593096 SPIN=   0.00000
   F  -0.3605318   0.1490347   0.1419843 SPIN=   0.00000
   F   0.4974839   0.0070504  -0.1419843 SPIN=   0.00000
%ENDBLOCK POSITIONS_FRAC

# Note: total spin =  16.00

KPOINTS_MP_SPACING 0.07

%BLOCK SPECIES_POT
QC5
%ENDBLOCK SPECIES_POT

SNAP_TO_SYMMETRY
SYMMETRY_GENERATE

