#              Generated by Buildcell
#
# at 05:57:06 (GMT+1.0) 4th August 2020
# in /lustre/scratch/uccabz1/launch_tmp
# on node-c12c-002
# by uccabz1
#
# compiler GCC version 4.9.2
# options -cpp -iprefix /lustre/shared/ucl/apps/gcc/4.9.2/bin/../lib/gcc/x86_64-unknown-linux-gnu/4.9.2/ -mtune=corei7 -march=x86-64 -g -Og
#
# seed   653500825  1961216812    95926884  -608470620    -4587472  1671409803  1996209716  1602168314 -1351866573   261239331 -1815183647   472049150
#
#      Author: C. J. Pickard (cjp20@cam.ac.uk)
#                Space group: P212121
#

%BLOCK LATTICE_ABC
      7.06371      7.08073      7.99741
     90.00000     90.00000     90.00000
%ENDBLOCK LATTICE_ABC

%BLOCK POSITIONS_FRAC
  Li   0.1717961   0.2836769  -0.0740679 SPIN=   0.00000
  Li   0.3282039  -0.2836769   0.4259321 SPIN=   0.00000
  Li  -0.1717961  -0.2163231  -0.4259321 SPIN=   0.00000
  Li  -0.3282039   0.2163231   0.0740679 SPIN=   0.00000
  Fe  -0.3936658  -0.4524105  -0.1686620 SPIN=   4.00000
  Fe  -0.1063342   0.4524105   0.3313380 SPIN=   4.00000
  Fe   0.3936658   0.0475895  -0.3313380 SPIN=   4.00000
  Fe   0.1063342  -0.0475895   0.1686620 SPIN=   4.00000
   O   0.6021616   0.2555828   0.4270533 SPIN=   0.00000
   O   0.4762452   0.4998341   0.2356633 SPIN=   0.00000
   O   0.3370280   0.4599955   0.5174450 SPIN=   0.00000
   O   0.2849057   0.2163183   0.3004215 SPIN=   0.00000
   S   0.4250851   0.3579327   0.3701458 SPIN=   0.00000
   O  -0.1021616  -0.2555828  -0.0729467 SPIN=   0.00000
   O   0.0237548  -0.4998341  -0.2643367 SPIN=   0.00000
   O   0.1629720  -0.4599955   0.0174450 SPIN=   0.00000
   O   0.2150943  -0.2163183  -0.1995785 SPIN=   0.00000
   S   0.0749149  -0.3579327  -0.1298542 SPIN=   0.00000
   O  -0.6021616  -0.2444172   0.0729467 SPIN=   0.00000
   O  -0.4762452  -0.0001659   0.2643367 SPIN=   0.00000
   O  -0.3370280  -0.0400045  -0.0174450 SPIN=   0.00000
   O  -0.2849057  -0.2836817   0.1995785 SPIN=   0.00000
   S  -0.4250851  -0.1420673   0.1298542 SPIN=   0.00000
   O   0.1021616   0.2444172  -0.4270533 SPIN=   0.00000
   O  -0.0237548   0.0001659  -0.2356633 SPIN=   0.00000
   O  -0.1629720   0.0400045  -0.5174450 SPIN=   0.00000
   O  -0.2150943   0.2836817  -0.3004215 SPIN=   0.00000
   S  -0.0749149   0.1420673  -0.3701458 SPIN=   0.00000
   F  -0.4474546  -0.2516621  -0.3643128 SPIN=   0.00000
   F  -0.0525454   0.2516621   0.1356872 SPIN=   0.00000
   F   0.4474546   0.2483379  -0.1356872 SPIN=   0.00000
   F   0.0525454  -0.2483379   0.3643128 SPIN=   0.00000
%ENDBLOCK POSITIONS_FRAC

# Note: total spin =  16.00

KPOINTS_MP_SPACING 0.07

%BLOCK SPECIES_POT
QC5
%ENDBLOCK SPECIES_POT

SNAP_TO_SYMMETRY
SYMMETRY_GENERATE

