#              Generated by Buildcell
#
# at 09:50:18 (GMT+1.0) 18th August 2020
# in /lustre/scratch/uccabz1/launch_tmp
# on node-c12g-023
# by uccabz1
#
# compiler GCC version 4.9.2
# options -cpp -iprefix /lustre/shared/ucl/apps/gcc/4.9.2/bin/../lib/gcc/x86_64-unknown-linux-gnu/4.9.2/ -mtune=corei7 -march=x86-64 -g -Og
#
# seed  -598640597   887361430  1415741094  1431057820  1480268246 -1984332048  -570202135  1298207037  1701438004 -2040807873   653445825  1154751307
#
#      Author: C. J. Pickard (cjp20@cam.ac.uk)
#                Space group: P212121
#

%BLOCK LATTICE_ABC
      6.22478      6.69450      9.59882
     90.00000     90.00000     90.00000
%ENDBLOCK LATTICE_ABC

%BLOCK POSITIONS_FRAC
  Li   0.2034940   0.4541103   0.3691773 SPIN=   0.00000
  Li   0.2965060  -0.0458897  -0.3691773 SPIN=   0.00000
  Li  -0.2034940   0.0458897  -0.1308227 SPIN=   0.00000
  Li  -0.2965060  -0.4541103   0.1308227 SPIN=   0.00000
  Fe   0.4379545  -0.2663170  -0.1043802 SPIN=   4.00000
  Fe   0.0620455   0.2336830   0.1043802 SPIN=   4.00000
  Fe  -0.4379545  -0.2336830   0.3956198 SPIN=   4.00000
  Fe  -0.0620455   0.2663170  -0.3956198 SPIN=   4.00000
   O  -0.3077851  -0.0924287   0.0911357 SPIN=   0.00000
   O  -0.6484570   0.0433231   0.1844403 SPIN=   0.00000
   O  -0.4835848   0.1940539  -0.0253077 SPIN=   0.00000
   O  -0.3126580   0.2389672   0.2053633 SPIN=   0.00000
   S  -0.4381212   0.0959789   0.1139079 SPIN=   0.00000
   O  -0.1922149  -0.5924287  -0.0911357 SPIN=   0.00000
   O   0.1484570  -0.4566769  -0.1844403 SPIN=   0.00000
   O  -0.0164152  -0.3059461   0.0253077 SPIN=   0.00000
   O  -0.1873420  -0.2610328  -0.2053633 SPIN=   0.00000
   S  -0.0618788  -0.4040211  -0.1139079 SPIN=   0.00000
   O   0.3077851   0.5924287  -0.4088643 SPIN=   0.00000
   O   0.6484570   0.4566769  -0.3155597 SPIN=   0.00000
   O   0.4835848   0.3059461  -0.5253077 SPIN=   0.00000
   O   0.3126580   0.2610328  -0.2946367 SPIN=   0.00000
   S   0.4381212   0.4040211  -0.3860921 SPIN=   0.00000
   O   0.1922149   0.0924287   0.4088643 SPIN=   0.00000
   O  -0.1484570  -0.0433231   0.3155597 SPIN=   0.00000
   O   0.0164152  -0.1940539   0.5253077 SPIN=   0.00000
   O   0.1873420  -0.2389672   0.2946367 SPIN=   0.00000
   S   0.0618788  -0.0959789   0.3860921 SPIN=   0.00000
   F  -0.4092065  -0.0959781  -0.4161802 SPIN=   0.00000
   F  -0.0907935   0.4040219   0.4161802 SPIN=   0.00000
   F   0.4092065  -0.4040219   0.0838198 SPIN=   0.00000
   F   0.0907935   0.0959781  -0.0838198 SPIN=   0.00000
%ENDBLOCK POSITIONS_FRAC

# Note: total spin =  16.00

KPOINTS_MP_SPACING 0.07

%BLOCK SPECIES_POT
QC5
%ENDBLOCK SPECIES_POT

SNAP_TO_SYMMETRY
SYMMETRY_GENERATE

