#              Generated by Buildcell
#
# at 03:53:25 (GMT+1.0) 18th August 2020
# in /scratch/scratch/uccabz1/launch_tmp
# on node-k10g-006
# by uccabz1
#
# compiler GCC version 4.9.2
# options -cpp -iprefix /scratch/UCL/applications/gcc/4.9.2/bin/../lib/gcc/x86_64-unknown-linux-gnu/4.9.2/ -mtune=corei7 -march=x86-64 -g -O2
#
# seed  -735740105 -1346818179 -1315186304  1886366729 -1831822644 -1701136516   275927596  1703860648 -1789559064  1526802508   748116457  1874642247
#
#      Author: C. J. Pickard (cjp20@cam.ac.uk)
#                Space group: P43
#

%BLOCK LATTICE_ABC
      7.09359      7.09359      7.94929
     90.00000     90.00000     90.00000
%ENDBLOCK LATTICE_ABC

%BLOCK POSITIONS_FRAC
  Li   0.1936675  -0.3690302  -0.3470550 SPIN=   0.00000
  Li  -0.1936675   0.3690302   0.1529450 SPIN=   0.00000
  Li   0.3690302   0.1936675   0.4029450 SPIN=   0.00000
  Li  -0.3690302  -0.1936675  -0.0970550 SPIN=   0.00000
  Fe  -0.2642296   0.1324747  -0.4242291 SPIN=   4.00000
  Fe   0.2642296  -0.1324747   0.0757709 SPIN=   4.00000
  Fe  -0.1324747  -0.2642296   0.3257709 SPIN=   4.00000
  Fe   0.1324747   0.2642296  -0.1742291 SPIN=   4.00000
   O  -0.3899981  -0.4524749  -0.3431014 SPIN=   0.00000
   O  -0.1311801  -0.5874323  -0.1725631 SPIN=   0.00000
   O  -0.1357140  -0.2459044  -0.2360496 SPIN=   0.00000
   O  -0.0685314  -0.4760217  -0.4622505 SPIN=   0.00000
   S  -0.1813559  -0.4404583  -0.3034911 SPIN=   0.00000
   O   0.3899981   0.4524749   0.1568986 SPIN=   0.00000
   O   0.1311801   0.5874323   0.3274369 SPIN=   0.00000
   O   0.1357140   0.2459044   0.2639504 SPIN=   0.00000
   O   0.0685314   0.4760217   0.0377495 SPIN=   0.00000
   S   0.1813559   0.4404583   0.1965089 SPIN=   0.00000
   O   0.4524749  -0.3899981   0.4068986 SPIN=   0.00000
   O   0.5874323  -0.1311801   0.5774369 SPIN=   0.00000
   O   0.2459044  -0.1357140   0.5139504 SPIN=   0.00000
   O   0.4760217  -0.0685314   0.2877495 SPIN=   0.00000
   S   0.4404583  -0.1813559   0.4465089 SPIN=   0.00000
   O  -0.4524749   0.3899981  -0.0931014 SPIN=   0.00000
   O  -0.5874323   0.1311801   0.0774369 SPIN=   0.00000
   O  -0.2459044   0.1357140   0.0139504 SPIN=   0.00000
   O  -0.4760217   0.0685314  -0.2122505 SPIN=   0.00000
   S  -0.4404583   0.1813559  -0.0534911 SPIN=   0.00000
   F  -0.2287593  -0.2653727   0.1145559 SPIN=   0.00000
   F   0.2287593   0.2653727  -0.3854441 SPIN=   0.00000
   F   0.2653727  -0.2287593  -0.1354441 SPIN=   0.00000
   F  -0.2653727   0.2287593   0.3645559 SPIN=   0.00000
%ENDBLOCK POSITIONS_FRAC

# Note: total spin =  16.00

KPOINTS_MP_SPACING 0.07

%BLOCK SPECIES_POT
QC5
%ENDBLOCK SPECIES_POT

SNAP_TO_SYMMETRY
SYMMETRY_GENERATE

