#              Generated by Buildcell
#
# at 07:15:26 (GMT+1.0) 4th August 2020
# in /lustre/scratch/uccabz1/launch_tmp
# on node-c12f-003
# by uccabz1
#
# compiler GCC version 4.9.2
# options -cpp -iprefix /lustre/shared/ucl/apps/gcc/4.9.2/bin/../lib/gcc/x86_64-unknown-linux-gnu/4.9.2/ -mtune=corei7 -march=x86-64 -g -Og
#
# seed  1283627645 -1552796682   377293403 -1677314856  -690089812   832118379   642082140  -615148866   727014538   344252395  -615235178   279889486
#
#      Author: C. J. Pickard (cjp20@cam.ac.uk)
#                Space group: P-1
#

%BLOCK LATTICE_ABC
      4.23907      7.97958     12.00656
     90.74431     91.39653     99.82353
%ENDBLOCK LATTICE_ABC

%BLOCK POSITIONS_FRAC
  Li   0.2484366  -0.0950202  -0.3038724 SPIN=   0.00000
  Li  -0.2484366   0.0950202   0.3038724 SPIN=   0.00000
  Li   0.3773551  -0.3978844   0.1901947 SPIN=   0.00000
  Li  -0.3773551   0.3978844  -0.1901947 SPIN=   0.00000
  Fe   0.3394995   0.3527311   0.3885142 SPIN=   3.60737
  Fe  -0.3394995  -0.3527311  -0.3885142 SPIN=   3.60737
  Fe  -0.1989257   0.1628233  -0.4007190 SPIN=   4.39263
  Fe   0.1989257  -0.1628233   0.4007190 SPIN=   4.39263
   O   0.3060344  -0.5197288  -0.0679995 SPIN=   0.00000
   O  -0.1062045  -0.3666762  -0.1471075 SPIN=   0.00000
   O   0.4309492  -0.3313108  -0.2288652 SPIN=   0.00000
   O   0.3636073  -0.2075966  -0.0426458 SPIN=   0.00000
   S   0.2485966  -0.3563281  -0.1216545 SPIN=   0.00000
   O  -0.3060344   0.5197288   0.0679995 SPIN=   0.00000
   O   0.1062045   0.3666762   0.1471075 SPIN=   0.00000
   O  -0.4309492   0.3313108   0.2288652 SPIN=   0.00000
   O  -0.3636073   0.2075966   0.0426458 SPIN=   0.00000
   S  -0.2485966   0.3563281   0.1216545 SPIN=   0.00000
   O  -0.4316861  -0.1039876   0.1718744 SPIN=   0.00000
   O  -0.1297178  -0.1994704   0.0162019 SPIN=   0.00000
   O   0.0012544  -0.2694409   0.2102553 SPIN=   0.00000
   O   0.1338472   0.0273849   0.1465359 SPIN=   0.00000
   S  -0.1065756  -0.1363785   0.1362169 SPIN=   0.00000
   O   0.4316861   0.1039876  -0.1718744 SPIN=   0.00000
   O   0.1297178   0.1994704  -0.0162019 SPIN=   0.00000
   O  -0.0012544   0.2694409  -0.2102553 SPIN=   0.00000
   O  -0.1338472  -0.0273849  -0.1465359 SPIN=   0.00000
   S   0.1065756   0.1363785  -0.1362169 SPIN=   0.00000
   F   0.4843513   0.3845908  -0.3467626 SPIN=   0.00000
   F  -0.4843513  -0.3845908   0.3467626 SPIN=   0.00000
   F  -0.2671002  -0.0932616  -0.3657508 SPIN=   0.00000
   F   0.2671002   0.0932616   0.3657508 SPIN=   0.00000
%ENDBLOCK POSITIONS_FRAC

# Note: total spin =  16.00

KPOINTS_MP_SPACING 0.07

%BLOCK SPECIES_POT
QC5
%ENDBLOCK SPECIES_POT

SNAP_TO_SYMMETRY
SYMMETRY_GENERATE

