#              Generated by Buildcell
#
# at 06:13:38 (GMT+1.0) 4th August 2020
# in /lustre/scratch/uccabz1/launch_tmp
# on node-c12c-016
# by uccabz1
#
# compiler GCC version 4.9.2
# options -cpp -iprefix /lustre/shared/ucl/apps/gcc/4.9.2/bin/../lib/gcc/x86_64-unknown-linux-gnu/4.9.2/ -mtune=corei7 -march=x86-64 -g -Og
#
# seed   185065815  -558472682  -870959734   -21060253  -928522563  -288339541   237400140  1626174317  -861699476 -1509809774  -846401407 -1167422006
#
#      Author: C. J. Pickard (cjp20@cam.ac.uk)
#                Space group: Pcc2
#

%BLOCK LATTICE_ABC
      5.04880      7.76395     10.20445
     90.00000     90.00000     90.00000
%ENDBLOCK LATTICE_ABC

%BLOCK POSITIONS_FRAC
  Li   0.2788622  -0.4635872   0.1565177 SPIN=   0.00000
  Li  -0.2788622  -0.4635872  -0.1565177 SPIN=   0.00000
  Li  -0.2788622   0.0364128   0.1565177 SPIN=   0.00000
  Li   0.2788622   0.0364128  -0.1565177 SPIN=   0.00000
  Fe   0.1997783   0.3547105  -0.3472540 SPIN=   4.00000
  Fe  -0.1997783   0.3547105   0.3472540 SPIN=   4.00000
  Fe  -0.1997783  -0.1452895  -0.3472540 SPIN=   4.00000
  Fe   0.1997783  -0.1452895   0.3472540 SPIN=   4.00000
   O   0.0165792   0.3141048   0.1325078 SPIN=   0.00000
   O   0.2500664   0.1166844   0.2838799 SPIN=   0.00000
   O   0.5053034   0.2914399   0.1251522 SPIN=   0.00000
   O   0.2281260   0.0493870   0.0470662 SPIN=   0.00000
   S   0.2500188   0.1929040   0.1471516 SPIN=   0.00000
   O  -0.0165792   0.3141048  -0.1325078 SPIN=   0.00000
   O  -0.2500664   0.1166844  -0.2838799 SPIN=   0.00000
   O  -0.5053034   0.2914399  -0.1251522 SPIN=   0.00000
   O  -0.2281260   0.0493870  -0.0470662 SPIN=   0.00000
   S  -0.2500188   0.1929040  -0.1471516 SPIN=   0.00000
   O  -0.0165792  -0.1858952   0.1325078 SPIN=   0.00000
   O  -0.2500664  -0.3833156   0.2838799 SPIN=   0.00000
   O  -0.5053034  -0.2085601   0.1251522 SPIN=   0.00000
   O  -0.2281260  -0.4506130   0.0470662 SPIN=   0.00000
   S  -0.2500188  -0.3070960   0.1471516 SPIN=   0.00000
   O   0.0165792  -0.1858952  -0.1325078 SPIN=   0.00000
   O   0.2500664  -0.3833156  -0.2838799 SPIN=   0.00000
   O   0.5053034  -0.2085601  -0.1251522 SPIN=   0.00000
   O   0.2281260  -0.4506130  -0.0470662 SPIN=   0.00000
   S   0.2500188  -0.3070960  -0.1471516 SPIN=   0.00000
   F   0.2499506   0.0472547  -0.3516183 SPIN=   0.00000
   F  -0.2499506   0.0472547   0.3516183 SPIN=   0.00000
   F  -0.2499506  -0.4527453  -0.3516183 SPIN=   0.00000
   F   0.2499506  -0.4527453   0.3516183 SPIN=   0.00000
%ENDBLOCK POSITIONS_FRAC

# Note: total spin =  16.00

KPOINTS_MP_SPACING 0.07

%BLOCK SPECIES_POT
QC5
%ENDBLOCK SPECIES_POT

SNAP_TO_SYMMETRY
SYMMETRY_GENERATE

