#              Generated by Buildcell
#
# at 07:35:20 (GMT+1.0) 4th August 2020
# in /lustre/scratch/uccabz1/launch_tmp
# on node-c12h-034
# by uccabz1
#
# compiler GCC version 4.9.2
# options -cpp -iprefix /lustre/shared/ucl/apps/gcc/4.9.2/bin/../lib/gcc/x86_64-unknown-linux-gnu/4.9.2/ -mtune=corei7 -march=x86-64 -g -Og
#
# seed -1750128366 -1487947033   864308152 -1914072652  -484821052  1566183371  -175555432  -731860440 -1470646029  1457881204  1144686194   710786899
#
#      Author: C. J. Pickard (cjp20@cam.ac.uk)
#                Space group: Cm
#

%BLOCK LATTICE_ABC
      6.15603      7.86607      9.20630
    115.29070     96.39890     90.00000
%ENDBLOCK LATTICE_ABC

%BLOCK POSITIONS_FRAC
  Li  -0.1975626   0.4848028   0.4943389 SPIN=   0.00000
  Li  -0.1975626   0.0095361   0.4943389 SPIN=   0.00000
  Li   0.3185737  -0.2284112  -0.4568224 SPIN=   0.00000
  Li   0.4356563   0.4816336   0.9632673 SPIN=   0.00000
  Fe   0.1248347  -0.1140485   0.2450243 SPIN=   2.53212
  Fe   0.1248347   0.3590728   0.2450243 SPIN=   2.53212
  Fe  -0.2264867  -0.3354837  -0.1498165 SPIN=   5.46788
  Fe  -0.2264867   0.1856672  -0.1498165 SPIN=   5.46788
   O  -0.5583202   0.5092794   0.2961780 SPIN=   0.00000
   O  -0.3255088   0.3987724   0.0740806 SPIN=   0.00000
   O  -0.6094448   0.1819097   0.0830765 SPIN=   0.00000
   O  -0.2779180   0.2796969   0.2841542 SPIN=   0.00000
   O  -0.5583202  -0.2131015   0.2961780 SPIN=   0.00000
   O  -0.3255088  -0.3246918   0.0740806 SPIN=   0.00000
   O  -0.6094448  -0.0988331   0.0830765 SPIN=   0.00000
   O  -0.2779180   0.0044573   0.2841542 SPIN=   0.00000
   O   0.3461282  -0.5907301  -0.4583297 SPIN=   0.00000
   O   0.2838780  -0.2681914  -0.2593461 SPIN=   0.00000
   O   0.0038146  -0.5259243  -0.3305313 SPIN=   0.00000
   O   0.0672259  -0.4039226  -0.5303282 SPIN=   0.00000
   O   0.3461282   0.1324005  -0.4583297 SPIN=   0.00000
   O   0.2838780   0.0088453  -0.2593461 SPIN=   0.00000
   O   0.0038146   0.1953931  -0.3305313 SPIN=   0.00000
   O   0.0672259  -0.1264055  -0.5303282 SPIN=   0.00000
   S   0.1059111   0.2934966   0.5869932 SPIN=   0.00000
   S  -0.4401342   0.1601619   0.3203239 SPIN=   0.00000
   S  -0.3130511  -0.3685564  -0.7371129 SPIN=   0.00000
   S   0.3753770  -0.0673481  -0.1346963 SPIN=   0.00000
   F  -0.3687755   0.3808560   0.7617120 SPIN=   0.00000
   F   0.0297407   0.0731613   0.1463226 SPIN=   0.00000
   F   0.1565494  -0.4603673  -0.9207347 SPIN=   0.00000
   F  -0.1665291  -0.1628407  -0.3256813 SPIN=   0.00000
%ENDBLOCK POSITIONS_FRAC

# Note: total spin =  16.00

KPOINTS_MP_SPACING 0.07

%BLOCK SPECIES_POT
QC5
%ENDBLOCK SPECIES_POT

SNAP_TO_SYMMETRY
SYMMETRY_GENERATE

