#              Generated by Buildcell
#
# at 07:53:40 (GMT+1.0) 4th August 2020
# in /lustre/scratch/uccabz1/launch_tmp
# on node-c12g-030
# by uccabz1
#
# compiler GCC version 4.9.2
# options -cpp -iprefix /lustre/shared/ucl/apps/gcc/4.9.2/bin/../lib/gcc/x86_64-unknown-linux-gnu/4.9.2/ -mtune=corei7 -march=x86-64 -g -Og
#
# seed  -480620348  -237069829  -326014207 -1722464007 -1168895290  1847314724  1849312480 -2034395059 -1558085692   834519453  1390163331   -12972792
#
#      Author: C. J. Pickard (cjp20@cam.ac.uk)
#                Space group: Pc
#

%BLOCK LATTICE_ABC
      6.58404      8.08995      8.16945
     90.00000     90.00000    113.18477
%ENDBLOCK LATTICE_ABC

%BLOCK POSITIONS_FRAC
  Li   0.0565747  -0.0399511  -0.1867520 SPIN=   0.00000
  Li   0.0565747   0.4600489   0.1867520 SPIN=   0.00000
  Li   0.4591430  -0.2569533  -0.2166226 SPIN=   0.00000
  Li   0.4591430   0.2430467   0.2166226 SPIN=   0.00000
  Fe  -0.4654305  -0.3184501   0.1658715 SPIN=   3.99164
  Fe  -0.4654305   0.1815499  -0.1658715 SPIN=   3.99164
  Fe  -0.2263465   0.4642367   0.4654356 SPIN=   4.00836
  Fe  -0.2263465  -0.0357633  -0.4654356 SPIN=   4.00836
   O  -0.4742387   0.0230573   0.1422863 SPIN=   0.00000
   O  -0.1230272   0.2203391   0.0117877 SPIN=   0.00000
   O  -0.1289385  -0.0177499   0.2042650 SPIN=   0.00000
   O  -0.1817038   0.2501546   0.3077045 SPIN=   0.00000
   S  -0.2269771   0.1189503   0.1665109 SPIN=   0.00000
   O  -0.4742387  -0.4769427  -0.1422863 SPIN=   0.00000
   O  -0.1230272  -0.2796609  -0.0117877 SPIN=   0.00000
   O  -0.1289385  -0.5177499  -0.2042650 SPIN=   0.00000
   O  -0.1817038  -0.2498454  -0.3077045 SPIN=   0.00000
   S  -0.2269771  -0.3810497  -0.1665109 SPIN=   0.00000
   O   0.4528950   0.3641236  -0.3973512 SPIN=   0.00000
   O   0.2258713   0.5247538  -0.2969573 SPIN=   0.00000
   O   0.0452915   0.2213168  -0.4183517 SPIN=   0.00000
   O   0.2566427   0.4813406  -0.5943988 SPIN=   0.00000
   S   0.2451752   0.3978837  -0.4267647 SPIN=   0.00000
   O   0.4528950  -0.1358764   0.3973512 SPIN=   0.00000
   O   0.2258713   0.0247538   0.2969573 SPIN=   0.00000
   O   0.0452915  -0.2786832   0.4183517 SPIN=   0.00000
   O   0.2566427  -0.0186594   0.5943988 SPIN=   0.00000
   S   0.2451752  -0.1021163   0.4267647 SPIN=   0.00000
   F   0.3098750   0.1925156  -0.0305463 SPIN=   0.00000
   F   0.3098750  -0.3074844   0.0305463 SPIN=   0.00000
   F  -0.3090243   0.0273430  -0.2718860 SPIN=   0.00000
   F  -0.3090243  -0.4726570   0.2718860 SPIN=   0.00000
%ENDBLOCK POSITIONS_FRAC

# Note: total spin =  16.00

KPOINTS_MP_SPACING 0.07

%BLOCK SPECIES_POT
QC5
%ENDBLOCK SPECIES_POT

SNAP_TO_SYMMETRY
SYMMETRY_GENERATE

