#              Generated by Buildcell
#
# at 08:17:53 (GMT+1.0) 4th August 2020
# in /lustre/scratch/uccabz1/launch_tmp
# on node-c12g-035
# by uccabz1
#
# compiler GCC version 4.9.2
# options -cpp -iprefix /lustre/shared/ucl/apps/gcc/4.9.2/bin/../lib/gcc/x86_64-unknown-linux-gnu/4.9.2/ -mtune=corei7 -march=x86-64 -g -Og
#
# seed   -37188617  -538895650 -1339520107   754629084 -1220387746  -110939637  1124892240  -836002335  1165857585  1114630521 -1256447633  1489573526
#
#      Author: C. J. Pickard (cjp20@cam.ac.uk)
#                Space group: C2
#

%BLOCK LATTICE_ABC
      4.42303      9.28514     11.04718
    111.90836     95.81163    103.61567
%ENDBLOCK LATTICE_ABC

%BLOCK POSITIONS_FRAC
  Li   0.4322269   0.4322269  -0.1355462 SPIN=   0.00000
  Li   0.1107405  -0.3892595   0.2214810 SPIN=   0.00000
  Li   0.4522966  -0.0477034  -0.0954067 SPIN=   0.00000
  Li   0.1867525   0.1867525   0.3735049 SPIN=   0.00000
  Fe   0.4794949   0.1292466  -0.3907085 SPIN=   0.63471
  Fe   0.1297966   0.4800449  -0.3907085 SPIN=   0.63471
  Fe  -0.1023471   0.2500287   0.1461901 SPIN=   7.36529
  Fe   0.2485372  -0.1038386   0.1461901 SPIN=   7.36529
   O  -0.2751991   0.0448400   0.3510832 SPIN=   0.00000
   O  -0.1078816  -0.0411157   0.5274032 SPIN=   0.00000
   O   0.0957124  -0.1221082   0.3189691 SPIN=   0.00000
   O  -0.4687854  -0.2437151   0.3150439 SPIN=   0.00000
   S  -0.1890384  -0.0905247   0.3781248 SPIN=   0.00000
   O   0.6262823   0.3062432   0.3510832 SPIN=   0.00000
   O   0.6352848   0.5685189   0.5274032 SPIN=   0.00000
   O   0.2232567   0.4410773   0.3189691 SPIN=   0.00000
   O   0.7838293   0.5587590   0.3150439 SPIN=   0.00000
   S   0.5671632   0.4686496   0.3781248 SPIN=   0.00000
   O   0.1564331   0.2034969  -0.0109996 SPIN=   0.00000
   O   0.3021151   0.0852016  -0.2296567 SPIN=   0.00000
   O  -0.0395005   0.2671328  -0.1973356 SPIN=   0.00000
   O  -0.2511797  -0.0085691  -0.2052704 SPIN=   0.00000
   S   0.0419670   0.1368155  -0.1608156 SPIN=   0.00000
   O  -0.1674327  -0.2144964  -0.0109996 SPIN=   0.00000
   O  -0.5317719  -0.3148583  -0.2296567 SPIN=   0.00000
   O  -0.1578351  -0.4644684  -0.1973356 SPIN=   0.00000
   O   0.0459094  -0.1967013  -0.2052704 SPIN=   0.00000
   S  -0.2027826  -0.2976311  -0.1608156 SPIN=   0.00000
   F   0.2921365  -0.2078635  -0.4157269 SPIN=   0.00000
   F  -0.4658436  -0.4658436   0.0683129 SPIN=   0.00000
   F  -0.4490670   0.0509330   0.1018659 SPIN=   0.00000
   F   0.3050675   0.3050675  -0.3898651 SPIN=   0.00000
%ENDBLOCK POSITIONS_FRAC

# Note: total spin =  16.00

KPOINTS_MP_SPACING 0.07

%BLOCK SPECIES_POT
QC5
%ENDBLOCK SPECIES_POT

SNAP_TO_SYMMETRY
SYMMETRY_GENERATE

