#              Generated by Buildcell
#
# at 02:03:58 (GMT+1.0) 18th August 2020
# in /lustre/scratch/uccabz1/launch_tmp
# on node-c12f-029
# by uccabz1
#
# compiler GCC version 4.9.2
# options -cpp -iprefix /lustre/shared/ucl/apps/gcc/4.9.2/bin/../lib/gcc/x86_64-unknown-linux-gnu/4.9.2/ -mtune=corei7 -march=x86-64 -g -Og
#
# seed -1021621434   917432122 -1384382175  -617978141 -2006711854  -888195971 -1349567532  -907582794  1807811527  -440407437 -1227710830 -1979466239
#
#      Author: C. J. Pickard (cjp20@cam.ac.uk)
#                Space group: P21
#

%BLOCK LATTICE_ABC
      5.88346      8.22818      8.42035
     90.00000     90.00000    101.10351
%ENDBLOCK LATTICE_ABC

%BLOCK POSITIONS_FRAC
  Li  -0.1889664   0.2859352  -0.4432916 SPIN=   0.00000
  Li   0.1889664  -0.2859352   0.0567084 SPIN=   0.00000
  Li  -0.2822645  -0.1771318   0.3204079 SPIN=   0.00000
  Li   0.2822645   0.1771318  -0.1795921 SPIN=   0.00000
  Fe   0.2406123   0.2055619   0.3978223 SPIN=   6.59826
  Fe  -0.2406123  -0.2055619  -0.1021777 SPIN=   6.59826
  Fe   0.1008470  -0.3826227   0.4568726 SPIN=   1.40174
  Fe  -0.1008470   0.3826227  -0.0431274 SPIN=   1.40174
   O  -0.5400028   0.5863591  -0.2008141 SPIN=   0.00000
   O  -0.6970914   0.4170225  -0.4330932 SPIN=   0.00000
   O  -0.4112274   0.3230360  -0.2570520 SPIN=   0.00000
   O  -0.2889593   0.5652155  -0.4327526 SPIN=   0.00000
   S  -0.4843202   0.4729083  -0.3309280 SPIN=   0.00000
   O   0.5400028  -0.5863591   0.2991859 SPIN=   0.00000
   O   0.6970914  -0.4170225   0.0669068 SPIN=   0.00000
   O   0.4112274  -0.3230360   0.2429480 SPIN=   0.00000
   O   0.2889593  -0.5652155   0.0672474 SPIN=   0.00000
   S   0.4843202  -0.4729083   0.1690720 SPIN=   0.00000
   O   0.3053124   0.0797435   0.2032769 SPIN=   0.00000
   O   0.3692879  -0.0399886  -0.0588014 SPIN=   0.00000
   O   0.6741394  -0.0116911   0.1474002 SPIN=   0.00000
   O   0.5871479   0.2378113   0.0149554 SPIN=   0.00000
   S   0.4839719   0.0664688   0.0767078 SPIN=   0.00000
   O  -0.3053124  -0.0797435  -0.2967231 SPIN=   0.00000
   O  -0.3692879   0.0399886  -0.5588014 SPIN=   0.00000
   O  -0.6741394   0.0116911  -0.3525998 SPIN=   0.00000
   O  -0.5871479  -0.2378113  -0.4850446 SPIN=   0.00000
   S  -0.4839719  -0.0664688  -0.4232922 SPIN=   0.00000
   F   0.0168141  -0.2046237   0.2903162 SPIN=   0.00000
   F  -0.0168141   0.2046237  -0.2096838 SPIN=   0.00000
   F  -0.0595553   0.2973944   0.3198561 SPIN=   0.00000
   F   0.0595553  -0.2973944  -0.1801439 SPIN=   0.00000
%ENDBLOCK POSITIONS_FRAC

# Note: total spin =  16.00

KPOINTS_MP_SPACING 0.07

%BLOCK SPECIES_POT
QC5
%ENDBLOCK SPECIES_POT

SNAP_TO_SYMMETRY
SYMMETRY_GENERATE

