#              Generated by Buildcell
#
# at 06:57:14 (GMT+1.0) 4th August 2020
# in /lustre/scratch/uccabz1/launch_tmp
# on node-c12k-005
# by uccabz1
#
# compiler GCC version 4.9.2
# options -cpp -iprefix /lustre/shared/ucl/apps/gcc/4.9.2/bin/../lib/gcc/x86_64-unknown-linux-gnu/4.9.2/ -mtune=corei7 -march=x86-64 -g -Og
#
# seed  1811725751   -97280559   -34734702   214252367    86236034 -1590470760  -808975365   774085567   184143063  1152471618   690178770  1642795831
#
#      Author: C. J. Pickard (cjp20@cam.ac.uk)
#                Space group: P2
#

%BLOCK LATTICE_ABC
      3.92422      8.23399     12.51278
     90.00000     98.37550     90.00000
%ENDBLOCK LATTICE_ABC

%BLOCK POSITIONS_FRAC
  Li  -0.1075107  -0.1389457   0.2689464 SPIN=   0.00000
  Li   0.1075107  -0.1389457  -0.2689464 SPIN=   0.00000
  Li   0.5000000  -0.2020413  -0.5000000 SPIN=   0.00000
  Li  -0.5000000  -0.1545061  -0.0000000 SPIN=   0.00000
  Fe  -0.3195992  -0.4593684  -0.1307341 SPIN=   6.20826
  Fe   0.3195992  -0.4593684   0.1307341 SPIN=   6.20826
  Fe   0.4096561   0.1286304   0.3488962 SPIN=   1.79174
  Fe  -0.4096561   0.1286304  -0.3488962 SPIN=   1.79174
   O   0.1771732  -0.5775033   0.2926420 SPIN=   0.00000
   O  -0.2915244  -0.5623892   0.4049212 SPIN=   0.00000
   O  -0.2811535  -0.3705028   0.2531929 SPIN=   0.00000
   O   0.1507687  -0.3462481   0.4175117 SPIN=   0.00000
   S  -0.0611840  -0.4641608   0.3420669 SPIN=   0.00000
   O  -0.1771732  -0.5775033  -0.2926420 SPIN=   0.00000
   O   0.2915244  -0.5623892  -0.4049212 SPIN=   0.00000
   O   0.2811535  -0.3705028  -0.2531929 SPIN=   0.00000
   O  -0.1507687  -0.3462481  -0.4175117 SPIN=   0.00000
   S   0.0611840  -0.4641608  -0.3420669 SPIN=   0.00000
   O   0.1975863   0.1867252   0.1372050 SPIN=   0.00000
   O  -0.2751184   0.2392840   0.2437228 SPIN=   0.00000
   O  -0.3062745   0.0028589   0.1205546 SPIN=   0.00000
   S  -0.1883158   0.1775351   0.1368118 SPIN=   0.00000
   O  -0.1975863   0.1867252  -0.1372050 SPIN=   0.00000
   O   0.2751184   0.2392840  -0.2437228 SPIN=   0.00000
   O   0.3062745   0.0028589  -0.1205546 SPIN=   0.00000
   S   0.1883158   0.1775351  -0.1368118 SPIN=   0.00000
   O   0.0000000   0.4249716   0.0000000 SPIN=   0.00000
   O  -0.5000000   0.2700629  -0.0000000 SPIN=   0.00000
   F  -0.4120635  -0.0905089  -0.3125802 SPIN=   0.00000
   F   0.4120635  -0.0905089   0.3125802 SPIN=   0.00000
   F  -0.0000000   0.1586332  -0.5000000 SPIN=   0.00000
   F   0.0000000  -0.2369489  -0.0000000 SPIN=   0.00000
%ENDBLOCK POSITIONS_FRAC

# Note: total spin =  16.00

KPOINTS_MP_SPACING 0.07

%BLOCK SPECIES_POT
QC5
%ENDBLOCK SPECIES_POT

SNAP_TO_SYMMETRY
SYMMETRY_GENERATE

