#              Generated by Buildcell
#
# at 06:45:25 (GMT+1.0) 4th August 2020
# in /lustre/scratch/uccabz1/launch_tmp
# on node-c12c-001
# by uccabz1
#
# compiler GCC version 4.9.2
# options -cpp -iprefix /lustre/shared/ucl/apps/gcc/4.9.2/bin/../lib/gcc/x86_64-unknown-linux-gnu/4.9.2/ -mtune=corei7 -march=x86-64 -g -Og
#
# seed   642534720  -492349990  -364060023  1361010262   464927829  -905784778 -1219356500 -1031566936 -1632283465 -1345606409  2046200893   755681894
#
#      Author: C. J. Pickard (cjp20@cam.ac.uk)
#                Space group: P2221
#

%BLOCK LATTICE_ABC
      4.47053      6.42793     13.91971
     90.00000     90.00000     90.00000
%ENDBLOCK LATTICE_ABC

%BLOCK POSITIONS_FRAC
  Li  -0.2500002  -0.0068726   0.3878626 SPIN=   0.00000
  Li   0.2500002   0.0068726  -0.1121374 SPIN=   0.00000
  Li  -0.2500002   0.0068726   0.1121374 SPIN=   0.00000
  Li   0.2500002  -0.0068726  -0.3878626 SPIN=   0.00000
  Fe   0.2499997  -0.2500449   0.1950278 SPIN=   4.00000
  Fe  -0.2499997   0.2500449  -0.3049722 SPIN=   4.00000
  Fe   0.2499997   0.2500449   0.3049722 SPIN=   4.00000
  Fe  -0.2499997  -0.2500449  -0.1950278 SPIN=   4.00000
   O  -0.2500000   0.2806007   0.0307381 SPIN=   0.00000
   O   0.0694557   0.4813998   0.1424835 SPIN=   0.00000
   O  -0.4185844   0.3441985   0.1975239 SPIN=   0.00000
   O  -0.4008728   0.6347072   0.0809813 SPIN=   0.00000
   S  -0.2500004   0.4352265   0.1129317 SPIN=   0.00000
   O   0.2500000  -0.2806007  -0.4692619 SPIN=   0.00000
   O  -0.0694557  -0.4813998  -0.3575165 SPIN=   0.00000
   O   0.4185844  -0.3441985  -0.3024761 SPIN=   0.00000
   O   0.4008728  -0.6347072  -0.4190187 SPIN=   0.00000
   S   0.2500004  -0.4352265  -0.3870683 SPIN=   0.00000
   O  -0.2500000  -0.2806007   0.4692619 SPIN=   0.00000
   O   0.0694557  -0.4813998   0.3575165 SPIN=   0.00000
   O  -0.4185844  -0.3441985   0.3024761 SPIN=   0.00000
   O  -0.4008728  -0.6347072   0.4190187 SPIN=   0.00000
   S  -0.2500004  -0.4352265   0.3870683 SPIN=   0.00000
   O   0.2500000   0.2806007  -0.0307381 SPIN=   0.00000
   O  -0.0694557   0.4813998  -0.1424835 SPIN=   0.00000
   O   0.4185844   0.3441985  -0.1975239 SPIN=   0.00000
   O   0.4008728   0.6347072  -0.0809813 SPIN=   0.00000
   S   0.2500004   0.4352265  -0.1129317 SPIN=   0.00000
   F   0.2500000  -0.0146545   0.1125876 SPIN=   0.00000
   F  -0.2500000   0.0146545  -0.3874124 SPIN=   0.00000
   F   0.2500000   0.0146545   0.3874124 SPIN=   0.00000
   F  -0.2500000  -0.0146545  -0.1125876 SPIN=   0.00000
%ENDBLOCK POSITIONS_FRAC

# Note: total spin =  16.00

KPOINTS_MP_SPACING 0.07

%BLOCK SPECIES_POT
QC5
%ENDBLOCK SPECIES_POT

SNAP_TO_SYMMETRY
SYMMETRY_GENERATE

