#              Generated by Buildcell
#
# at 06:46:10 (GMT+1.0) 4th August 2020
# in /lustre/scratch/uccabz1/launch_tmp
# on node-c12g-033
# by uccabz1
#
# compiler GCC version 4.9.2
# options -cpp -iprefix /lustre/shared/ucl/apps/gcc/4.9.2/bin/../lib/gcc/x86_64-unknown-linux-gnu/4.9.2/ -mtune=corei7 -march=x86-64 -g -Og
#
# seed   611762656  1293631609  1702206069    94874877   208998503  -594774041  -684956312 -1148379458   579773139 -1260564871   955461947  1019942810
#
#      Author: C. J. Pickard (cjp20@cam.ac.uk)
#                Space group: Cc
#

%BLOCK LATTICE_ABC
      5.00851      7.47427     11.69763
     79.38187     77.63832     70.42443
%ENDBLOCK LATTICE_ABC

%BLOCK POSITIONS_FRAC
  Li  -0.3598269  -0.3511245   0.1333881 SPIN=   0.00000
  Li  -0.4224367   0.1488755  -0.3666119 SPIN=   0.00000
  Li  -0.2327355   0.0527473  -0.0724075 SPIN=   0.00000
  Li   0.2523957  -0.4472527   0.4275925 SPIN=   0.00000
  Fe  -0.1194450   0.3665578   0.3381804 SPIN=   4.35915
  Fe   0.4147068  -0.1334422  -0.1618196 SPIN=   4.35915
  Fe   0.4312736  -0.0944151   0.3265590 SPIN=   3.64085
  Fe   0.3365825   0.4055849  -0.1734410 SPIN=   3.64085
   O   0.0121757   0.4286451   0.1165460 SPIN=   0.00000
   O   0.5110623   0.2186825   0.0675918 SPIN=   0.00000
   O   0.3931167   0.4427876   0.2157118 SPIN=   0.00000
   O   0.3901141   0.5672896   0.0045867 SPIN=   0.00000
   S   0.3266172   0.4143512   0.1011090 SPIN=   0.00000
   O   0.4426333  -0.0713549  -0.3834540 SPIN=   0.00000
   O   0.2026635  -0.2813175  -0.4324082 SPIN=   0.00000
   O  -0.0516161  -0.0572124  -0.2842882 SPIN=   0.00000
   O   0.0380096   0.0672896  -0.4954133 SPIN=   0.00000
   S   0.1579225  -0.0856488  -0.3988910 SPIN=   0.00000
   O  -0.2445292   0.4311624  -0.2645698 SPIN=   0.00000
   O   0.1123048   0.3342512  -0.4420032 SPIN=   0.00000
   O  -0.2059215   0.6687040  -0.4401711 SPIN=   0.00000
   O  -0.4063163   0.4100797  -0.4458944 SPIN=   0.00000
   S  -0.1861155   0.4610493  -0.3981596 SPIN=   0.00000
   O   0.0779366  -0.0688376   0.2354302 SPIN=   0.00000
   O  -0.0045528  -0.1657488   0.0579968 SPIN=   0.00000
   O  -0.0226114   0.1687040   0.0598289 SPIN=   0.00000
   O   0.4421310  -0.0899203   0.0541056 SPIN=   0.00000
   S   0.1232258  -0.0389507   0.1018404 SPIN=   0.00000
   F   0.3018268   0.1738194  -0.1978441 SPIN=   0.00000
   F  -0.2778020  -0.3261806   0.3021559 SPIN=   0.00000
   F  -0.1434834  -0.3175882  -0.1098857 SPIN=   0.00000
   F  -0.4290428   0.1824118   0.3901143 SPIN=   0.00000
%ENDBLOCK POSITIONS_FRAC

# Note: total spin =  16.00

KPOINTS_MP_SPACING 0.07

%BLOCK SPECIES_POT
QC5
%ENDBLOCK SPECIES_POT

SNAP_TO_SYMMETRY
SYMMETRY_GENERATE

