#              Generated by Buildcell
#
# at 07:17:09 (GMT+1.0) 4th August 2020
# in /lustre/scratch/uccabz1/launch_tmp
# on node-c12f-019
# by uccabz1
#
# compiler GCC version 4.9.2
# options -cpp -iprefix /lustre/shared/ucl/apps/gcc/4.9.2/bin/../lib/gcc/x86_64-unknown-linux-gnu/4.9.2/ -mtune=corei7 -march=x86-64 -g -Og
#
# seed  1192866330  -413358340  1014655387   234408713  1699765423 -1294707743  1611978279    52788659  -199442562  1973988379 -1875423935  -182130990
#
#      Author: C. J. Pickard (cjp20@cam.ac.uk)
#                Space group: P21
#

%BLOCK LATTICE_ABC
      5.12920      5.46412     14.46259
     90.00000     90.00000     99.30779
%ENDBLOCK LATTICE_ABC

%BLOCK POSITIONS_FRAC
  Li   0.1345366   0.2691289  -0.2176092 SPIN=   0.00000
  Li  -0.1345366  -0.2691289   0.2823908 SPIN=   0.00000
  Li   0.4220056  -0.1872254  -0.3506750 SPIN=   0.00000
  Li  -0.4220056   0.1872254   0.1493250 SPIN=   0.00000
  Fe   0.4460912  -0.2659920  -0.1219745 SPIN=   4.30904
  Fe  -0.4460912   0.2659920   0.3780255 SPIN=   4.30904
  Fe   0.0404820  -0.1550302   0.0852336 SPIN=   3.69096
  Fe  -0.0404820   0.1550302  -0.4147664 SPIN=   3.69096
   O  -0.0152815  -0.2871561  -0.1949459 SPIN=   0.00000
   O  -0.4169700  -0.5312761  -0.2637332 SPIN=   0.00000
   O   0.0187152  -0.5317265  -0.3372102 SPIN=   0.00000
   O  -0.1906309  -0.1544728  -0.3429126 SPIN=   0.00000
   S  -0.1510418  -0.3761579  -0.2847005 SPIN=   0.00000
   O   0.0152815   0.2871561   0.3050541 SPIN=   0.00000
   O   0.4169700   0.5312761   0.2362668 SPIN=   0.00000
   O  -0.0187152   0.5317265   0.1627898 SPIN=   0.00000
   O   0.1906309   0.1544728   0.1570874 SPIN=   0.00000
   S   0.1510418   0.3761579   0.2152995 SPIN=   0.00000
   O   0.3102414  -0.3776810   0.4068433 SPIN=   0.00000
   O   0.1522303  -0.2090000   0.5515009 SPIN=   0.00000
   O  -0.1461858  -0.5220378   0.4612602 SPIN=   0.00000
   O  -0.0215090  -0.0957509   0.4004953 SPIN=   0.00000
   S   0.0736942  -0.3011174   0.4550249 SPIN=   0.00000
   O  -0.3102414   0.3776810  -0.0931567 SPIN=   0.00000
   O  -0.1522303   0.2090000   0.0515009 SPIN=   0.00000
   O   0.1461858   0.5220378  -0.0387398 SPIN=   0.00000
   O   0.0215090   0.0957509  -0.0995047 SPIN=   0.00000
   S  -0.0736942   0.3011174  -0.0449751 SPIN=   0.00000
   F  -0.4289842  -0.0209884   0.3025108 SPIN=   0.00000
   F   0.4289842   0.0209884  -0.1974892 SPIN=   0.00000
   F  -0.3775381  -0.2508966   0.0706739 SPIN=   0.00000
   F   0.3775381   0.2508966  -0.4293261 SPIN=   0.00000
%ENDBLOCK POSITIONS_FRAC

# Note: total spin =  16.00

KPOINTS_MP_SPACING 0.07

%BLOCK SPECIES_POT
QC5
%ENDBLOCK SPECIES_POT

SNAP_TO_SYMMETRY
SYMMETRY_GENERATE

