#              Generated by Buildcell
#
# at 06:12:56 (GMT+1.0) 4th August 2020
# in /lustre/scratch/uccabz1/launch_tmp
# on node-c12k-029
# by uccabz1
#
# compiler GCC version 4.9.2
# options -cpp -iprefix /lustre/shared/ucl/apps/gcc/4.9.2/bin/../lib/gcc/x86_64-unknown-linux-gnu/4.9.2/ -mtune=corei7 -march=x86-64 -g -Og
#
# seed  -708386031  1615317671 -1518709662 -1294707743  -532339161  1281926802  1648609205  1317745359 -1784720549  -580568530 -1957950224  1736151156
#
#      Author: C. J. Pickard (cjp20@cam.ac.uk)
#                Space group: C2
#

%BLOCK LATTICE_ABC
      6.76502      8.20791      8.64635
     75.17080     66.97040     65.66293
%ENDBLOCK LATTICE_ABC

%BLOCK POSITIONS_FRAC
  Li   0.3330985  -0.4373605  -0.2601580 SPIN=   0.00000
  Li  -0.3644201   0.4373605   0.2601580 SPIN=   0.00000
  Li   0.0378307   0.2600537   0.4862905 SPIN=   0.00000
  Li  -0.2158252  -0.2600537  -0.4862905 SPIN=   0.00000
  Fe  -0.0246424   0.3959420  -0.0875571 SPIN=   3.47605
  Fe   0.2837425  -0.3959420   0.0875571 SPIN=   3.47605
  Fe   0.0794450  -0.0295903  -0.2272136 SPIN=   4.52395
  Fe  -0.1773590   0.0295903   0.2272136 SPIN=   4.52395
   O   0.3045864   0.1059874  -0.4144827 SPIN=   0.00000
   O   0.3515613   0.3894827  -0.5810010 SPIN=   0.00000
   O   0.6719410   0.1529197  -0.4923307 SPIN=   0.00000
   O   0.3263390   0.3274088  -0.2795791 SPIN=   0.00000
   S   0.4136069   0.2439497  -0.4418484 SPIN=   0.00000
   O  -0.0039090  -0.1059874   0.4144827 SPIN=   0.00000
   O   0.1600430  -0.3894827   0.5810010 SPIN=   0.00000
   O   0.3325300  -0.1529197   0.4923307 SPIN=   0.00000
   O   0.3741686  -0.3274088   0.2795791 SPIN=   0.00000
   S   0.2157082  -0.2439497   0.4418484 SPIN=   0.00000
   O   0.2185959   0.0327202   0.1643186 SPIN=   0.00000
   O   0.5123456   0.1712748  -0.0057502 SPIN=   0.00000
   O   0.4007328   0.1283341   0.3066080 SPIN=   0.00000
   O   0.1292625   0.3568230   0.1653664 SPIN=   0.00000
   S   0.3152342   0.1722880   0.1576357 SPIN=   0.00000
   O  -0.5843653  -0.0327202  -0.1643186 SPIN=   0.00000
   O  -0.3221298  -0.1712748   0.0057502 SPIN=   0.00000
   O  -0.1643251  -0.1283341  -0.3066080 SPIN=   0.00000
   O  -0.3485480  -0.3568230  -0.1653664 SPIN=   0.00000
   S  -0.3548421  -0.1722880  -0.1576357 SPIN=   0.00000
   F  -0.2071786  -0.3362562   0.3170595 SPIN=   0.00000
   F  -0.2263753   0.3362562  -0.3170595 SPIN=   0.00000
   F  -0.1923410   0.2632081   0.0990823 SPIN=   0.00000
   F   0.1699493  -0.2632081  -0.0990823 SPIN=   0.00000
%ENDBLOCK POSITIONS_FRAC

# Note: total spin =  16.00

KPOINTS_MP_SPACING 0.07

%BLOCK SPECIES_POT
QC5
%ENDBLOCK SPECIES_POT

SNAP_TO_SYMMETRY
SYMMETRY_GENERATE

