#              Generated by Buildcell
#
# at 09:12:21 (GMT+1.0) 18th August 2020
# in /lustre/scratch/uccabz1/launch_tmp
# on node-c12p-003
# by uccabz1
#
# compiler GCC version 4.9.2
# options -cpp -iprefix /lustre/shared/ucl/apps/gcc/4.9.2/bin/../lib/gcc/x86_64-unknown-linux-gnu/4.9.2/ -mtune=corei7 -march=x86-64 -g -Og
#
# seed   124179064 -2067115970  -311677231 -1143489794  1863689105 -2054422988  -104231388  -649010192   759498641   392491149  1921071107  1169422194
#
#      Author: C. J. Pickard (cjp20@cam.ac.uk)
#                Space group: P-1
#

%BLOCK LATTICE_ABC
      5.29991      7.36136     11.09602
     77.37813     85.70407     71.24135
%ENDBLOCK LATTICE_ABC

%BLOCK POSITIONS_FRAC
  Li   0.2266398  -0.4631161   0.3666803 SPIN=   0.00000
  Li  -0.2266398   0.4631161  -0.3666803 SPIN=   0.00000
  Li  -0.7579850   0.3760233  -0.1103635 SPIN=   0.00000
  Li   0.7579850  -0.3760233   0.1103635 SPIN=   0.00000
  Fe   0.2027108   0.1910612   0.2744384 SPIN=   4.38171
  Fe  -0.2027108  -0.1910612  -0.2744384 SPIN=   4.38171
  Fe   0.2402309  -0.2333453  -0.0234554 SPIN=   3.61829
  Fe  -0.2402309   0.2333453   0.0234554 SPIN=   3.61829
   O  -0.3324108   0.2277234   0.6177472 SPIN=   0.00000
   O  -0.0148483   0.1547038   0.4463241 SPIN=   0.00000
   O  -0.4041162   0.4560331   0.4142952 SPIN=   0.00000
   O  -0.4688400   0.1315896   0.4387905 SPIN=   0.00000
   S  -0.3050538   0.2425125   0.4792892 SPIN=   0.00000
   O   0.3324108  -0.2277234  -0.6177472 SPIN=   0.00000
   O   0.0148483  -0.1547038  -0.4463241 SPIN=   0.00000
   O   0.4041162  -0.4560331  -0.4142952 SPIN=   0.00000
   O   0.4688400  -0.1315896  -0.4387905 SPIN=   0.00000
   S   0.3050538  -0.2425125  -0.4792892 SPIN=   0.00000
   O  -0.1120358  -0.0555724   0.3576230 SPIN=   0.00000
   O  -0.1477250  -0.3683474   0.3248816 SPIN=   0.00000
   O  -0.0218846  -0.1390313   0.1509974 SPIN=   0.00000
   O  -0.4823740  -0.0541626   0.2337980 SPIN=   0.00000
   S  -0.1910049  -0.1542784   0.2668250 SPIN=   0.00000
   O   0.1120358   0.0555724  -0.3576230 SPIN=   0.00000
   O   0.1477250   0.3683474  -0.3248816 SPIN=   0.00000
   O   0.0218846   0.1390313  -0.1509974 SPIN=   0.00000
   O   0.4823740   0.0541626  -0.2337980 SPIN=   0.00000
   S   0.1910049   0.1542784  -0.2668250 SPIN=   0.00000
   F  -0.1348448  -0.1828558  -0.0714158 SPIN=   0.00000
   F   0.1348448   0.1828558   0.0714158 SPIN=   0.00000
   F   0.4562259  -0.4590411   0.1724739 SPIN=   0.00000
   F  -0.4562259   0.4590411  -0.1724739 SPIN=   0.00000
%ENDBLOCK POSITIONS_FRAC

# Note: total spin =  16.00

KPOINTS_MP_SPACING 0.07

%BLOCK SPECIES_POT
QC5
%ENDBLOCK SPECIES_POT

SNAP_TO_SYMMETRY
SYMMETRY_GENERATE

