#              Generated by Buildcell
#
# at 08:20:23 (GMT+1.0) 18th August 2020
# in /lustre/scratch/uccabz1/launch_tmp
# on node-c12g-036
# by uccabz1
#
# compiler GCC version 4.9.2
# options -cpp -iprefix /lustre/shared/ucl/apps/gcc/4.9.2/bin/../lib/gcc/x86_64-unknown-linux-gnu/4.9.2/ -mtune=corei7 -march=x86-64 -g -Og
#
# seed   -39463400  1635134302   185147221   361246259  1257010556  1727500199   576287366  -969856869 -1785420130  -934917919 -1326844849  -341784446
#
#      Author: C. J. Pickard (cjp20@cam.ac.uk)
#                Space group: Iba2
#

%BLOCK LATTICE_ABC
      7.20812      8.50719      8.50719
     61.86361     64.93485     64.93485
%ENDBLOCK LATTICE_ABC

%BLOCK POSITIONS_FRAC
  Li  -0.4316759   0.3276907   0.3185843 SPIN=   0.00000
  Li   0.4316759  -0.3185843  -0.3276907 SPIN=   0.00000
  Li   0.2145991   0.1814157   0.1723093 SPIN=   0.00000
  Li  -0.2145991  -0.1723093  -0.1814157 SPIN=   0.00000
  Fe   0.1757738  -0.3448214   0.4786127 SPIN=   4.00000
  Fe  -0.1757738  -0.4786127   0.3448214 SPIN=   4.00000
  Fe   0.3095651   0.0213873  -0.1551786 SPIN=   4.00000
  Fe  -0.3095651   0.1551786  -0.0213873 SPIN=   4.00000
   O  -0.1496109  -0.2736645   0.4450994 SPIN=   0.00000
   O  -0.4232617  -0.0924990   0.6417572 SPIN=   0.00000
   O  -0.4919355  -0.0739953   0.3712044 SPIN=   0.00000
   O  -0.2265422   0.0684148   0.3229473 SPIN=   0.00000
   S  -0.3228376  -0.0929360   0.4452521 SPIN=   0.00000
   O   0.1496109  -0.4450994   0.2736645 SPIN=   0.00000
   O   0.4232617  -0.6417572   0.0924990 SPIN=   0.00000
   O   0.4919355  -0.3712044   0.0739953 SPIN=   0.00000
   O   0.2265422  -0.3229473  -0.0684148 SPIN=   0.00000
   S   0.3228376  -0.4452521   0.0929360 SPIN=   0.00000
   O   0.0218240   0.0549006  -0.2263355 SPIN=   0.00000
   O   0.1259965  -0.1417572  -0.4075010 SPIN=   0.00000
   O  -0.1947263   0.1287956  -0.4260047 SPIN=   0.00000
   O   0.1648199   0.1770527  -0.5684148 SPIN=   0.00000
   S   0.0294785   0.0547479  -0.4070640 SPIN=   0.00000
   O  -0.0218240   0.2263355  -0.0549006 SPIN=   0.00000
   O  -0.1259965   0.4075010   0.1417572 SPIN=   0.00000
   O   0.1947263   0.4260047  -0.1287956 SPIN=   0.00000
   O  -0.1648199   0.5684148  -0.1770527 SPIN=   0.00000
   S  -0.0294785   0.4070640  -0.0547479 SPIN=   0.00000
   F   0.3382529   0.3030170  -0.4462664 SPIN=   0.00000
   F  -0.3382529   0.4462664  -0.3030170 SPIN=   0.00000
   F   0.1950034  -0.0537336   0.1969830 SPIN=   0.00000
   F  -0.1950034  -0.1969830   0.0537336 SPIN=   0.00000
%ENDBLOCK POSITIONS_FRAC

# Note: total spin =  16.00

KPOINTS_MP_SPACING 0.07

%BLOCK SPECIES_POT
QC5
%ENDBLOCK SPECIES_POT

SNAP_TO_SYMMETRY
SYMMETRY_GENERATE

