#              Generated by Buildcell
#
# at 07:13:22 (GMT+1.0) 4th August 2020
# in /lustre/scratch/uccabz1/launch_tmp
# on node-c12k-030
# by uccabz1
#
# compiler GCC version 4.9.2
# options -cpp -iprefix /lustre/shared/ucl/apps/gcc/4.9.2/bin/../lib/gcc/x86_64-unknown-linux-gnu/4.9.2/ -mtune=corei7 -march=x86-64 -g -Og
#
# seed -1545161413 -1192212149  -337441961  2112906512  -961109641   244320368  1261603163  -723506395   825556685  2113553745   589673656  1933154251
#
#      Author: C. J. Pickard (cjp20@cam.ac.uk)
#                Space group: P2/c
#

%BLOCK LATTICE_ABC
      4.69774      8.03603     10.73193
     99.13872     90.00000     90.00000
%ENDBLOCK LATTICE_ABC

%BLOCK POSITIONS_FRAC
  Li  -0.2448255  -0.4577192   0.3095452 SPIN=   0.00000
  Li  -0.2448255  -0.0422808  -0.3095452 SPIN=   0.00000
  Li   0.2448255   0.4577192  -0.3095452 SPIN=   0.00000
  Li   0.2448255   0.0422808   0.3095452 SPIN=   0.00000
  Fe   0.2907552  -0.3189885   0.1603077 SPIN=   4.00000
  Fe   0.2907552  -0.1810115  -0.1603077 SPIN=   4.00000
  Fe  -0.2907552   0.3189885  -0.1603077 SPIN=   4.00000
  Fe  -0.2907552   0.1810115   0.1603077 SPIN=   4.00000
   O   0.2331355  -0.0665555  -0.3400767 SPIN=   0.00000
   O   0.5615202   0.1687321  -0.3596371 SPIN=   0.00000
   O   0.0667586   0.2283785  -0.2867302 SPIN=   0.00000
   O   0.1606359   0.1055611  -0.5092965 SPIN=   0.00000
   S   0.2555126   0.1090290  -0.3739351 SPIN=   0.00000
   O   0.2331355   0.5665555   0.3400767 SPIN=   0.00000
   O   0.5615202   0.3312679   0.3596371 SPIN=   0.00000
   O   0.0667586   0.2716215   0.2867302 SPIN=   0.00000
   O   0.1606359   0.3944389   0.5092965 SPIN=   0.00000
   S   0.2555126   0.3909710   0.3739351 SPIN=   0.00000
   O  -0.2331355   0.0665555   0.3400767 SPIN=   0.00000
   O  -0.5615202  -0.1687321   0.3596371 SPIN=   0.00000
   O  -0.0667586  -0.2283785   0.2867302 SPIN=   0.00000
   O  -0.1606359  -0.1055611   0.5092965 SPIN=   0.00000
   S  -0.2555126  -0.1090290   0.3739351 SPIN=   0.00000
   O  -0.2331355  -0.5665555  -0.3400767 SPIN=   0.00000
   O  -0.5615202  -0.3312679  -0.3596371 SPIN=   0.00000
   O  -0.0667586  -0.2716215  -0.2867302 SPIN=   0.00000
   O  -0.1606359  -0.3944389  -0.5092965 SPIN=   0.00000
   S  -0.2555126  -0.3909710  -0.3739351 SPIN=   0.00000
   F   0.2479203  -0.0530735   0.1291840 SPIN=   0.00000
   F   0.2479203  -0.4469265  -0.1291840 SPIN=   0.00000
   F  -0.2479203   0.0530735  -0.1291840 SPIN=   0.00000
   F  -0.2479203   0.4469265   0.1291840 SPIN=   0.00000
%ENDBLOCK POSITIONS_FRAC

# Note: total spin =  16.00

KPOINTS_MP_SPACING 0.07

%BLOCK SPECIES_POT
QC5
%ENDBLOCK SPECIES_POT

SNAP_TO_SYMMETRY
SYMMETRY_GENERATE

