#              Generated by Buildcell
#
# at 09:55:06 (GMT+1.0) 18th August 2020
# in /scratch/scratch/uccabz1/launch_tmp
# on node-k10b-026
# by uccabz1
#
# compiler GCC version 4.9.2
# options -cpp -iprefix /scratch/UCL/applications/gcc/4.9.2/bin/../lib/gcc/x86_64-unknown-linux-gnu/4.9.2/ -mtune=corei7 -march=x86-64 -g -O2
#
# seed  -670876197 -1696519255  1377667568  1235872666  1788731319  1978784040 -1262681252 -1324756452  -559800304 -1146485680  1323026796  -394275672
#
#      Author: C. J. Pickard (cjp20@cam.ac.uk)
#                Space group: P2
#

%BLOCK LATTICE_ABC
      3.91177      8.70520     12.01948
    102.23457     90.00000     90.00000
%ENDBLOCK LATTICE_ABC

%BLOCK POSITIONS_FRAC
  Li  -0.4535014   0.4994447  -0.3400630 SPIN=   0.00000
  Li  -0.4535014  -0.4994447   0.3400630 SPIN=   0.00000
  Li   0.4633453  -0.0799918  -0.1616367 SPIN=   0.00000
  Li   0.4633453   0.0799918   0.1616367 SPIN=   0.00000
  Fe  -0.1185859   0.1947364  -0.3860847 SPIN=   7.61295
  Fe  -0.1185859  -0.1947364   0.3860847 SPIN=   7.61295
  Fe   0.0690630   0.3536340   0.1368247 SPIN=   0.38705
  Fe   0.0690630  -0.3536340  -0.1368247 SPIN=   0.38705
   O   0.0264165  -0.1620819  -0.2191031 SPIN=   0.00000
   O  -0.2837125  -0.3083811  -0.3881406 SPIN=   0.00000
   O   0.2447549  -0.1626639  -0.4124473 SPIN=   0.00000
   O  -0.2848817  -0.0174773  -0.3440713 SPIN=   0.00000
   S  -0.0743557  -0.1626511  -0.3409406 SPIN=   0.00000
   O   0.0264165   0.1620819   0.2191031 SPIN=   0.00000
   O  -0.2837125   0.3083811   0.3881406 SPIN=   0.00000
   O   0.2447549   0.1626639   0.4124473 SPIN=   0.00000
   O  -0.2848817   0.0174773   0.3440713 SPIN=   0.00000
   S  -0.0743557   0.1626511   0.3409406 SPIN=   0.00000
   O  -0.1165266  -0.1189454   0.1670051 SPIN=   0.00000
   O   0.4037354  -0.2285334   0.2379969 SPIN=   0.00000
   O   0.4092072  -0.1557775   0.0498099 SPIN=   0.00000
   O   0.0782040  -0.3871243   0.0773766 SPIN=   0.00000
   S   0.1936550  -0.2225952   0.1330471 SPIN=   0.00000
   O  -0.1165266   0.1189454  -0.1670051 SPIN=   0.00000
   O   0.4037354   0.2285334  -0.2379969 SPIN=   0.00000
   O   0.4092072   0.1557775  -0.0498099 SPIN=   0.00000
   O   0.0782040   0.3871243  -0.0773766 SPIN=   0.00000
   S   0.1936550   0.2225952  -0.1330471 SPIN=   0.00000
   F  -0.4309127   0.3954417   0.1445853 SPIN=   0.00000
   F  -0.4309127  -0.3954417  -0.1445853 SPIN=   0.00000
   F   0.0686989  -0.4100403   0.3760719 SPIN=   0.00000
   F   0.0686989   0.4100403  -0.3760719 SPIN=   0.00000
%ENDBLOCK POSITIONS_FRAC

# Note: total spin =  16.00

KPOINTS_MP_SPACING 0.07

%BLOCK SPECIES_POT
QC5
%ENDBLOCK SPECIES_POT

SNAP_TO_SYMMETRY
SYMMETRY_GENERATE

