#              Generated by Buildcell
#
# at 13:34:20 (GMT+1.0) 18th August 2020
# in /lustre/scratch/uccabz1/launch_tmp
# on node-c12l-020
# by uccabz1
#
# compiler GCC version 4.9.2
# options -cpp -iprefix /lustre/shared/ucl/apps/gcc/4.9.2/bin/../lib/gcc/x86_64-unknown-linux-gnu/4.9.2/ -mtune=corei7 -march=x86-64 -g -Og
#
# seed  -234987846     1150050   568485056 -1095161072 -1979189490  -170790760 -1867097600 -1465288707  -721342451 -1866501045   937294936  -509577201
#
#      Author: C. J. Pickard (cjp20@cam.ac.uk)
#                Space group: C2
#

%BLOCK LATTICE_ABC
      4.53821     10.03900     10.03900
     61.13258     87.44978     87.44978
%ENDBLOCK LATTICE_ABC

%BLOCK POSITIONS_FRAC
  Li   0.2386656  -0.1825086   0.3661647 SPIN=   0.00000
  Li  -0.2386656  -0.3661647   0.1825086 SPIN=   0.00000
  Li   0.2615359   0.2320002   0.0276817 SPIN=   0.00000
  Li  -0.2615359  -0.0276817  -0.2320002 SPIN=   0.00000
  Fe  -0.2519038   0.0034903   0.1690724 SPIN=   2.80367
  Fe   0.2519038  -0.1690724  -0.0034903 SPIN=   2.80367
  Fe  -0.2551550   0.1766557   0.4327454 SPIN=   5.19633
  Fe   0.2551550  -0.4327454  -0.1766557 SPIN=   5.19633
   O   0.2820944   0.0987585  -0.4524359 SPIN=   0.00000
   O   0.0507950  -0.1028424  -0.4835838 SPIN=   0.00000
   O   0.1345638  -0.1403713  -0.2256363 SPIN=   0.00000
   O   0.5585905  -0.1417617  -0.3887858 SPIN=   0.00000
   S   0.2565109  -0.0715542  -0.3876105 SPIN=   0.00000
   O  -0.2820944   0.4524359  -0.0987585 SPIN=   0.00000
   O  -0.0507950   0.4835838   0.1028424 SPIN=   0.00000
   O  -0.1345638   0.2256363   0.1403713 SPIN=   0.00000
   O  -0.5585905   0.3887858   0.1417617 SPIN=   0.00000
   S  -0.2565109   0.3876105   0.0715542 SPIN=   0.00000
   O  -0.5985406  -0.3347408  -0.4239583 SPIN=   0.00000
   O  -0.2431940  -0.5197127  -0.4425492 SPIN=   0.00000
   O  -0.0823866  -0.3495890  -0.3469871 SPIN=   0.00000
   O  -0.1950111  -0.2441872  -0.6190245 SPIN=   0.00000
   S  -0.2797831  -0.3620574  -0.4581298 SPIN=   0.00000
   O   0.5985406   0.4239583   0.3347408 SPIN=   0.00000
   O   0.2431940   0.4425492   0.5197127 SPIN=   0.00000
   O   0.0823866   0.3469871   0.3495890 SPIN=   0.00000
   O   0.1950111   0.6190245   0.2441872 SPIN=   0.00000
   S   0.2797831   0.4581298   0.3620574 SPIN=   0.00000
   F   0.3230344   0.0227766   0.2379709 SPIN=   0.00000
   F  -0.3230344  -0.2379709  -0.0227766 SPIN=   0.00000
   F  -0.2345543   0.1817536  -0.3667040 SPIN=   0.00000
   F   0.2345543   0.3667040  -0.1817536 SPIN=   0.00000
%ENDBLOCK POSITIONS_FRAC

# Note: total spin =  16.00

KPOINTS_MP_SPACING 0.07

%BLOCK SPECIES_POT
QC5
%ENDBLOCK SPECIES_POT

SNAP_TO_SYMMETRY
SYMMETRY_GENERATE

