#              Generated by Buildcell
#
# at 10:09:11 (GMT+1.0) 4th August 2020
# in /lustre/scratch/uccabz1/launch_tmp
# on node-c12e-017
# by uccabz1
#
# compiler GCC version 4.9.2
# options -cpp -iprefix /lustre/shared/ucl/apps/gcc/4.9.2/bin/../lib/gcc/x86_64-unknown-linux-gnu/4.9.2/ -mtune=corei7 -march=x86-64 -g -Og
#
# seed  -348042565  1115942379 -2051008706  -726221077   488075487   383022794 -1451775543   584798690  1754832218  -653805111  -344229528 -2002148654
#
#      Author: C. J. Pickard (cjp20@cam.ac.uk)
#                Space group: Pma2
#

%BLOCK LATTICE_ABC
      4.07065      5.97205     16.45404
     90.00000     90.00000     90.00000
%ENDBLOCK LATTICE_ABC

%BLOCK POSITIONS_FRAC
  Li   0.0652446  -0.0724690   0.1399269 SPIN=   0.00000
  Li  -0.0652446  -0.0724690  -0.1399269 SPIN=   0.00000
  Li  -0.0652446  -0.0724690  -0.3600731 SPIN=   0.00000
  Li   0.0652446  -0.0724690   0.3600731 SPIN=   0.00000
  Fe  -0.4826747  -0.4780559   0.3882112 SPIN=   4.00000
  Fe   0.4826747  -0.4780559  -0.3882112 SPIN=   4.00000
  Fe   0.4826747  -0.4780559  -0.1117888 SPIN=   4.00000
  Fe  -0.4826747  -0.4780559   0.1117888 SPIN=   4.00000
   O  -0.4884544  -0.1253662   0.3191044 SPIN=   0.00000
   O  -0.7235669   0.1992846   0.3922867 SPIN=   0.00000
   O  -0.1947366   0.2374742   0.3193831 SPIN=   0.00000
   O  -0.2255628   0.0116802   0.4452764 SPIN=   0.00000
   O   0.4884544  -0.1253662  -0.3191044 SPIN=   0.00000
   O   0.7235669   0.1992846  -0.3922867 SPIN=   0.00000
   O   0.1947366   0.2374742  -0.3193831 SPIN=   0.00000
   O   0.2255628   0.0116802  -0.4452764 SPIN=   0.00000
   O   0.4884544  -0.1253662  -0.1808956 SPIN=   0.00000
   O   0.7235669   0.1992846  -0.1077133 SPIN=   0.00000
   O   0.1947366   0.2374742  -0.1806169 SPIN=   0.00000
   O   0.2255628   0.0116802  -0.0547236 SPIN=   0.00000
   O  -0.4884544  -0.1253662   0.1808956 SPIN=   0.00000
   O  -0.7235669   0.1992846   0.1077133 SPIN=   0.00000
   O  -0.1947366   0.2374742   0.1806169 SPIN=   0.00000
   O  -0.2255628   0.0116802   0.0547236 SPIN=   0.00000
   S   0.4649996   0.0791398  -0.2500000 SPIN=   0.00000
   S  -0.4649996   0.0791398   0.2500000 SPIN=   0.00000
   S   0.0000000   0.1339791   0.0000000 SPIN=   0.00000
   S   0.0000000   0.1339791  -0.5000000 SPIN=   0.00000
   F  -0.0145227  -0.3689660  -0.1246816 SPIN=   0.00000
   F   0.0145227  -0.3689660   0.1246816 SPIN=   0.00000
   F   0.0145227  -0.3689660   0.3753184 SPIN=   0.00000
   F  -0.0145227  -0.3689660  -0.3753184 SPIN=   0.00000
%ENDBLOCK POSITIONS_FRAC

# Note: total spin =  16.00

KPOINTS_MP_SPACING 0.07

%BLOCK SPECIES_POT
QC5
%ENDBLOCK SPECIES_POT

SNAP_TO_SYMMETRY
SYMMETRY_GENERATE

