#              Generated by Buildcell
#
# at 14:12:47 (GMT+1.0) 18th August 2020
# in /lustre/scratch/uccabz1/launch_tmp
# on node-c12g-036
# by uccabz1
#
# compiler GCC version 4.9.2
# options -cpp -iprefix /lustre/shared/ucl/apps/gcc/4.9.2/bin/../lib/gcc/x86_64-unknown-linux-gnu/4.9.2/ -mtune=corei7 -march=x86-64 -g -Og
#
# seed  1493744554   562135337  2040706718  -395518267  1060222589  1832523795  1846581891   323809266 -1732446937 -1244438934   192196270  -392088672
#
#      Author: C. J. Pickard (cjp20@cam.ac.uk)
#                Space group: C2
#

%BLOCK LATTICE_ABC
      6.38912      7.98523      7.98523
     97.22842     95.42712     95.42712
%ENDBLOCK LATTICE_ABC

%BLOCK POSITIONS_FRAC
  Li   0.2206451  -0.0352072  -0.1659638 SPIN=   0.00000
  Li  -0.2206451   0.1659638   0.0352072 SPIN=   0.00000
  Li  -0.0000000   0.3256503  -0.3256503 SPIN=   0.00000
  Li  -0.5000000   0.4723756  -0.4723756 SPIN=   0.00000
  Fe  -0.3293720   0.4956215  -0.0966611 SPIN=   6.03625
  Fe   0.3293720   0.0966611  -0.4956215 SPIN=   6.03625
  Fe   0.0000000  -0.2722402   0.2722402 SPIN=   1.34077
  Fe  -0.5000000  -0.1333814   0.1333814 SPIN=   2.58673
   O  -0.2022799   0.5026659   0.4717236 SPIN=   0.00000
   O   0.0108292   0.2809972   0.3558686 SPIN=   0.00000
   O  -0.2650528   0.3837937   0.1675482 SPIN=   0.00000
   O  -0.3674760   0.2074427   0.3863490 SPIN=   0.00000
   S  -0.2059949   0.3437248   0.3453723 SPIN=   0.00000
   O   0.2022799  -0.4717236  -0.5026659 SPIN=   0.00000
   O  -0.0108292  -0.3558686  -0.2809972 SPIN=   0.00000
   O   0.2650528  -0.1675482  -0.3837937 SPIN=   0.00000
   O   0.3674760  -0.3863490  -0.2074427 SPIN=   0.00000
   S   0.2059949  -0.3453723  -0.3437248 SPIN=   0.00000
   O   0.1993962   0.2762564  -0.1191532 SPIN=   0.00000
   O   0.0707637   0.1189763   0.1056088 SPIN=   0.00000
   O   0.2535531   0.4099225   0.1807733 SPIN=   0.00000
   O   0.4549518   0.1720692   0.0855753 SPIN=   0.00000
   S   0.2446662   0.2443061   0.0632010 SPIN=   0.00000
   O  -0.1993962   0.1191532  -0.2762564 SPIN=   0.00000
   O  -0.0707637  -0.1056088  -0.1189763 SPIN=   0.00000
   O  -0.2535531  -0.1807733  -0.4099225 SPIN=   0.00000
   O  -0.4549518  -0.0855753  -0.1720692 SPIN=   0.00000
   S  -0.2446662  -0.0632010  -0.2443061 SPIN=   0.00000
   F  -0.0138659  -0.4044109   0.0318200 SPIN=   0.00000
   F   0.0138659  -0.0318200   0.4044109 SPIN=   0.00000
   F  -0.5000000  -0.3143511   0.3143511 SPIN=   0.00000
   F  -0.5000000   0.3127040  -0.3127040 SPIN=   0.00000
%ENDBLOCK POSITIONS_FRAC

# Note: total spin =  16.00

KPOINTS_MP_SPACING 0.07

%BLOCK SPECIES_POT
QC5
%ENDBLOCK SPECIES_POT

SNAP_TO_SYMMETRY
SYMMETRY_GENERATE

