#              Generated by Buildcell
#
# at 06:50:43 (GMT+1.0) 4th August 2020
# in /lustre/scratch/uccabz1/launch_tmp
# on node-c12l-027
# by uccabz1
#
# compiler GCC version 4.9.2
# options -cpp -iprefix /lustre/shared/ucl/apps/gcc/4.9.2/bin/../lib/gcc/x86_64-unknown-linux-gnu/4.9.2/ -mtune=corei7 -march=x86-64 -g -Og
#
# seed -1464183661  -696933618  1882104268 -1712774653  1303909116 -1454375994   115470188   710880267  1482319164   717915559   806775741 -1775800623
#
#      Author: C. J. Pickard (cjp20@cam.ac.uk)
#                Space group: P43
#

%BLOCK LATTICE_ABC
      6.65296      6.65296      9.03711
     90.00000     90.00000     90.00000
%ENDBLOCK LATTICE_ABC

%BLOCK POSITIONS_FRAC
  Li  -0.4063885  -0.2031708   0.1480539 SPIN=   0.00000
  Li   0.4063885   0.2031708  -0.3519461 SPIN=   0.00000
  Li   0.2031708  -0.4063885  -0.1019461 SPIN=   0.00000
  Li  -0.2031708   0.4063885   0.3980539 SPIN=   0.00000
  Fe  -0.0374212   0.3100858  -0.2928158 SPIN=   4.00000
  Fe   0.0374212  -0.3100858   0.2071842 SPIN=   4.00000
  Fe  -0.3100858  -0.0374212   0.4571842 SPIN=   4.00000
  Fe   0.3100858   0.0374212  -0.0428158 SPIN=   4.00000
   O  -0.4835017  -0.3698456  -0.1947330 SPIN=   0.00000
   O  -0.3543498  -0.0642962  -0.0708003 SPIN=   0.00000
   O  -0.2312120  -0.1561263  -0.3202186 SPIN=   0.00000
   O  -0.1331676  -0.3601940  -0.1029207 SPIN=   0.00000
   S  -0.3005578  -0.2376155  -0.1721681 SPIN=   0.00000
   O   0.4835017   0.3698456   0.3052670 SPIN=   0.00000
   O   0.3543498   0.0642962   0.4291997 SPIN=   0.00000
   O   0.2312120   0.1561263   0.1797814 SPIN=   0.00000
   O   0.1331676   0.3601940   0.3970793 SPIN=   0.00000
   S   0.3005578   0.2376155   0.3278319 SPIN=   0.00000
   O   0.3698456  -0.4835017  -0.4447330 SPIN=   0.00000
   O   0.0642962  -0.3543498  -0.3208003 SPIN=   0.00000
   O   0.1561263  -0.2312120  -0.5702186 SPIN=   0.00000
   O   0.3601940  -0.1331676  -0.3529207 SPIN=   0.00000
   S   0.2376155  -0.3005578  -0.4221681 SPIN=   0.00000
   O  -0.3698456   0.4835017   0.0552670 SPIN=   0.00000
   O  -0.0642962   0.3543498   0.1791997 SPIN=   0.00000
   O  -0.1561263   0.2312120  -0.0702186 SPIN=   0.00000
   O  -0.3601940   0.1331676   0.1470793 SPIN=   0.00000
   S  -0.2376155   0.3005578   0.0778319 SPIN=   0.00000
   F   0.2578088  -0.2311299   0.0761780 SPIN=   0.00000
   F  -0.2578088   0.2311299  -0.4238220 SPIN=   0.00000
   F   0.2311299   0.2578088  -0.1738220 SPIN=   0.00000
   F  -0.2311299  -0.2578088   0.3261780 SPIN=   0.00000
%ENDBLOCK POSITIONS_FRAC

# Note: total spin =  16.00

KPOINTS_MP_SPACING 0.07

%BLOCK SPECIES_POT
QC5
%ENDBLOCK SPECIES_POT

SNAP_TO_SYMMETRY
SYMMETRY_GENERATE

