#              Generated by Buildcell
#
# at 05:51:01 (GMT+1.0) 4th August 2020
# in /lustre/scratch/uccabz1/launch_tmp
# on node-c12n-011
# by uccabz1
#
# compiler GCC version 4.9.2
# options -cpp -iprefix /lustre/shared/ucl/apps/gcc/4.9.2/bin/../lib/gcc/x86_64-unknown-linux-gnu/4.9.2/ -mtune=corei7 -march=x86-64 -g -Og
#
# seed  -190510725   281328534  -781912918   762450251 -1674778333 -1302252962 -1691933465   623727526  1082963760  1747235154  1625612083  1020542171
#
#      Author: C. J. Pickard (cjp20@cam.ac.uk)
#                Space group: Cc
#

%BLOCK LATTICE_ABC
      6.42600      6.42600     11.07550
     81.89458     81.89458     62.46756
%ENDBLOCK LATTICE_ABC

%BLOCK POSITIONS_FRAC
  Li   0.1504169  -0.2434186   0.1349771 SPIN=   0.00000
  Li   0.2565814  -0.3495831  -0.3650229 SPIN=   0.00000
  Li  -0.1680667   0.1709902   0.3698951 SPIN=   0.00000
  Li  -0.3290098   0.3319333  -0.1301049 SPIN=   0.00000
  Fe  -0.3121459   0.1696075   0.1307134 SPIN=   2.60364
  Fe  -0.3303925   0.1878541  -0.3692866 SPIN=   2.60364
  Fe   0.0487067  -0.2397329  -0.1151290 SPIN=   5.39636
  Fe   0.2602671  -0.4512933   0.3848710 SPIN=   5.39636
   O   0.0458140   0.2273607  -0.0757179 SPIN=   0.00000
   O   0.3712943  -0.1224584  -0.1659994 SPIN=   0.00000
   O   0.4597128   0.1383144  -0.0602194 SPIN=   0.00000
   O   0.2899868   0.2774552  -0.2603830 SPIN=   0.00000
   S   0.2917020   0.1301680  -0.1405799 SPIN=   0.00000
   O  -0.2726393  -0.4541860   0.4242821 SPIN=   0.00000
   O  -0.6224584  -0.1287057   0.3340006 SPIN=   0.00000
   O  -0.3616856  -0.0402872   0.4397806 SPIN=   0.00000
   O  -0.2225448  -0.2100132   0.2396170 SPIN=   0.00000
   S  -0.3698320  -0.2082980   0.3594201 SPIN=   0.00000
   O   0.1520526   0.4278361   0.0702542 SPIN=   0.00000
   O   0.2725064   0.2870927   0.2808599 SPIN=   0.00000
   O   0.1829831   0.0422338   0.1633788 SPIN=   0.00000
   O  -0.1384643   0.4110283   0.2387044 SPIN=   0.00000
   S   0.1172694   0.2920477   0.1882993 SPIN=   0.00000
   O  -0.0721639  -0.3479474  -0.4297458 SPIN=   0.00000
   O  -0.2129073  -0.2274936  -0.2191401 SPIN=   0.00000
   O  -0.4577662  -0.3170169  -0.3366212 SPIN=   0.00000
   O  -0.0889717  -0.6384643  -0.2612956 SPIN=   0.00000
   S  -0.2079523  -0.3827306  -0.3117007 SPIN=   0.00000
   F  -0.4974226  -0.4060454   0.0859536 SPIN=   0.00000
   F   0.0939546   0.0025774  -0.4140464 SPIN=   0.00000
   F  -0.1425255  -0.0797566   0.0212215 SPIN=   0.00000
   F   0.4202434   0.3574745  -0.4787785 SPIN=   0.00000
%ENDBLOCK POSITIONS_FRAC

# Note: total spin =  16.00

KPOINTS_MP_SPACING 0.07

%BLOCK SPECIES_POT
QC5
%ENDBLOCK SPECIES_POT

SNAP_TO_SYMMETRY
SYMMETRY_GENERATE

