#              Generated by Buildcell
#
# at 13:35:36 (GMT+1.0) 18th August 2020
# in /lustre/scratch/uccabz1/launch_tmp
# on node-c12a-015
# by uccabz1
#
# compiler GCC version 4.9.2
# options -cpp -iprefix /lustre/shared/ucl/apps/gcc/4.9.2/bin/../lib/gcc/x86_64-unknown-linux-gnu/4.9.2/ -mtune=corei7 -march=x86-64 -g -Og
#
# seed -1707279151  1633417009   659320937   755481837    22768339  1834776919  -694017966  1216527826  1424350186   739506420  -525181703  -585645135
#
#      Author: C. J. Pickard (cjp20@cam.ac.uk)
#                Space group: Pc
#

%BLOCK LATTICE_ABC
      5.95530      6.93820      9.68596
     90.00000     90.00000     91.87836
%ENDBLOCK LATTICE_ABC

%BLOCK POSITIONS_FRAC
  Li  -0.1878819  -0.1091195   0.3792140 SPIN=   0.00000
  Li   0.3121181  -0.1091195  -0.3792140 SPIN=   0.00000
  Li   0.3646272   0.0208282   0.1207072 SPIN=   0.00000
  Li  -0.1353728   0.0208282  -0.1207072 SPIN=   0.00000
  Fe   0.4878673  -0.2651509  -0.1193026 SPIN=   3.25151
  Fe  -0.0121327  -0.2651509   0.1193026 SPIN=   3.25151
  Fe  -0.0705534  -0.3893854  -0.3806215 SPIN=   4.74849
  Fe   0.4294466  -0.3893854   0.3806215 SPIN=   4.74849
   O  -0.1417914   0.4693793   0.0814878 SPIN=   0.00000
   O  -0.5153412   0.3035123   0.0959386 SPIN=   0.00000
   O  -0.2579646   0.3011662   0.2964987 SPIN=   0.00000
   O  -0.1716092   0.1128462   0.0872131 SPIN=   0.00000
   S  -0.2716766   0.2967260   0.1402846 SPIN=   0.00000
   O   0.3582086   0.4693793  -0.0814878 SPIN=   0.00000
   O  -0.0153412   0.3035123  -0.0959386 SPIN=   0.00000
   O   0.2420354   0.3011662  -0.2964987 SPIN=   0.00000
   O   0.3283908   0.1128462  -0.0872131 SPIN=   0.00000
   S   0.2283234   0.2967260  -0.1402846 SPIN=   0.00000
   O  -0.3784521  -0.0119241  -0.4561028 SPIN=   0.00000
   O  -0.4132308   0.2056854  -0.2553226 SPIN=   0.00000
   O  -0.2297260   0.3248323  -0.4695739 SPIN=   0.00000
   O  -0.0405962   0.0882597  -0.3220769 SPIN=   0.00000
   S  -0.2655013   0.1517133  -0.3757690 SPIN=   0.00000
   O   0.1215479  -0.0119241   0.4561028 SPIN=   0.00000
   O   0.0867692   0.2056854   0.2553226 SPIN=   0.00000
   O   0.2702740   0.3248323   0.4695739 SPIN=   0.00000
   O   0.4594038   0.0882597   0.3220769 SPIN=   0.00000
   S   0.2344987   0.1517133   0.3757690 SPIN=   0.00000
   F  -0.4776857  -0.3809660  -0.3598300 SPIN=   0.00000
   F   0.0223143  -0.3809660   0.3598300 SPIN=   0.00000
   F  -0.4719891  -0.2330953   0.1276102 SPIN=   0.00000
   F   0.0280109  -0.2330953  -0.1276102 SPIN=   0.00000
%ENDBLOCK POSITIONS_FRAC

# Note: total spin =  16.00

KPOINTS_MP_SPACING 0.07

%BLOCK SPECIES_POT
QC5
%ENDBLOCK SPECIES_POT

SNAP_TO_SYMMETRY
SYMMETRY_GENERATE

