#              Generated by Buildcell
#
# at 07:55:48 (GMT+1.0) 4th August 2020
# in /lustre/scratch/uccabz1/launch_tmp
# on node-c12p-024
# by uccabz1
#
# compiler GCC version 4.9.2
# options -cpp -iprefix /lustre/shared/ucl/apps/gcc/4.9.2/bin/../lib/gcc/x86_64-unknown-linux-gnu/4.9.2/ -mtune=corei7 -march=x86-64 -g -Og
#
# seed -1064509848     4717482 -2012861756   801276612 -1169486953 -1318255961  1910718790 -1714197401   303671506  -147616049 -1332269772 -2109553037
#
#      Author: C. J. Pickard (cjp20@cam.ac.uk)
#                Space group: P21
#

%BLOCK LATTICE_ABC
      6.23634      7.07505      9.08628
     90.00000     93.85835     90.00000
%ENDBLOCK LATTICE_ABC

%BLOCK POSITIONS_FRAC
  Li   0.3341519   0.1819601  -0.4371250 SPIN=   0.00000
  Li  -0.3341519  -0.3180399   0.4371250 SPIN=   0.00000
  Li  -0.0666088  -0.0904334  -0.2055130 SPIN=   0.00000
  Li   0.0666088   0.4095666   0.2055130 SPIN=   0.00000
  Fe  -0.1358372   0.2896221   0.4883827 SPIN=   4.88713
  Fe   0.1358372  -0.2103779  -0.4883827 SPIN=   4.88713
  Fe   0.1070451   0.3196469  -0.1207707 SPIN=   3.11287
  Fe  -0.1070451  -0.1803531   0.1207707 SPIN=   3.11287
   O  -0.5487905  -0.6149941  -0.1863212 SPIN=   0.00000
   O  -0.5366812  -0.2817355  -0.2681211 SPIN=   0.00000
   O  -0.6231021  -0.5354247  -0.4500603 SPIN=   0.00000
   O  -0.2538818  -0.5056117  -0.3344099 SPIN=   0.00000
   S  -0.4906139  -0.4844415  -0.3097281 SPIN=   0.00000
   O   0.5487905  -0.1149941   0.1863212 SPIN=   0.00000
   O   0.5366812   0.2182645   0.2681211 SPIN=   0.00000
   O   0.6231021  -0.0354247   0.4500603 SPIN=   0.00000
   O   0.2538818  -0.0056117   0.3344099 SPIN=   0.00000
   S   0.4906139   0.0155585   0.3097281 SPIN=   0.00000
   O  -0.3225541  -0.1468890  -0.0874763 SPIN=   0.00000
   O  -0.4252584   0.1755236  -0.0133721 SPIN=   0.00000
   O  -0.7050931  -0.0510863  -0.1058693 SPIN=   0.00000
   O  -0.4536502   0.0845627  -0.2769686 SPIN=   0.00000
   S  -0.4766390   0.0155277  -0.1209216 SPIN=   0.00000
   O   0.3225541  -0.6468890   0.0874763 SPIN=   0.00000
   O   0.4252584  -0.3244764   0.0133721 SPIN=   0.00000
   O   0.7050931  -0.5510863   0.1058693 SPIN=   0.00000
   O   0.4536502  -0.4154373   0.2769686 SPIN=   0.00000
   S   0.4766390  -0.4844723   0.1209216 SPIN=   0.00000
   F  -0.0269965   0.1464473   0.1319025 SPIN=   0.00000
   F   0.0269965  -0.3535527  -0.1319025 SPIN=   0.00000
   F  -0.0241538   0.1737239  -0.3209398 SPIN=   0.00000
   F   0.0241538  -0.3262761   0.3209398 SPIN=   0.00000
%ENDBLOCK POSITIONS_FRAC

# Note: total spin =  16.00

KPOINTS_MP_SPACING 0.07

%BLOCK SPECIES_POT
QC5
%ENDBLOCK SPECIES_POT

SNAP_TO_SYMMETRY
SYMMETRY_GENERATE

