#              Generated by Buildcell
#
# at 06:29:10 (GMT+1.0) 4th August 2020
# in /lustre/scratch/uccabz1/launch_tmp
# on node-c12h-015
# by uccabz1
#
# compiler GCC version 4.9.2
# options -cpp -iprefix /lustre/shared/ucl/apps/gcc/4.9.2/bin/../lib/gcc/x86_64-unknown-linux-gnu/4.9.2/ -mtune=corei7 -march=x86-64 -g -Og
#
# seed  1154712311  1641470816   138668338 -1397988109  -353757131 -1336357802  1861282615   553052608  1182027454 -1469261659  1847475660   736150004
#
#      Author: C. J. Pickard (cjp20@cam.ac.uk)
#                Space group: Pna21
#

%BLOCK LATTICE_ABC
      4.04110      8.73522     11.33147
     90.00000     90.00000     90.00000
%ENDBLOCK LATTICE_ABC

%BLOCK POSITIONS_FRAC
  Li   0.3334345  -0.1405058   0.1176203 SPIN=   0.00000
  Li  -0.3334345   0.3594942  -0.1176203 SPIN=   0.00000
  Li   0.1665655  -0.1405058  -0.3823797 SPIN=   0.00000
  Li  -0.1665655   0.3594942   0.3823797 SPIN=   0.00000
  Fe  -0.3041442  -0.1763895  -0.1713065 SPIN=   4.00000
  Fe   0.3041442   0.3236105   0.1713065 SPIN=   4.00000
  Fe  -0.1958558  -0.1763895   0.3286935 SPIN=   4.00000
  Fe   0.1958558   0.3236105  -0.3286935 SPIN=   4.00000
   O  -0.1172708  -0.5710242   0.0915355 SPIN=   0.00000
   O  -0.4514561  -0.3432223   0.1431074 SPIN=   0.00000
   O  -0.3961080  -0.4225050  -0.0656430 SPIN=   0.00000
   O   0.0839627  -0.3119693   0.0398533 SPIN=   0.00000
   S  -0.2202180  -0.4121802   0.0522133 SPIN=   0.00000
   O   0.1172708  -0.0710242  -0.0915355 SPIN=   0.00000
   O   0.4514561   0.1567777  -0.1431074 SPIN=   0.00000
   O   0.3961080   0.0774950   0.0656430 SPIN=   0.00000
   O  -0.0839627   0.1880307  -0.0398533 SPIN=   0.00000
   S   0.2202180   0.0878198  -0.0522133 SPIN=   0.00000
   O  -0.3827292  -0.5710242  -0.4084645 SPIN=   0.00000
   O  -0.0485439  -0.3432223  -0.3568926 SPIN=   0.00000
   O  -0.1038920  -0.4225050  -0.5656430 SPIN=   0.00000
   O  -0.5839627  -0.3119693  -0.4601467 SPIN=   0.00000
   S  -0.2797820  -0.4121802  -0.4477867 SPIN=   0.00000
   O   0.3827292  -0.0710242   0.4084645 SPIN=   0.00000
   O   0.0485439   0.1567777   0.3568926 SPIN=   0.00000
   O   0.1038920   0.0774950   0.5656430 SPIN=   0.00000
   O   0.5839627   0.1880307   0.4601467 SPIN=   0.00000
   S   0.2797820   0.0878198   0.4477867 SPIN=   0.00000
   F   0.3961838   0.4263395   0.3058563 SPIN=   0.00000
   F  -0.3961838  -0.0736605  -0.3058563 SPIN=   0.00000
   F   0.1038162   0.4263395  -0.1941437 SPIN=   0.00000
   F  -0.1038162  -0.0736605   0.1941437 SPIN=   0.00000
%ENDBLOCK POSITIONS_FRAC

# Note: total spin =  16.00

KPOINTS_MP_SPACING 0.07

%BLOCK SPECIES_POT
QC5
%ENDBLOCK SPECIES_POT

SNAP_TO_SYMMETRY
SYMMETRY_GENERATE

