#              Generated by Buildcell
#
# at 07:15:17 (GMT+1.0) 4th August 2020
# in /lustre/scratch/uccabz1/launch_tmp
# on node-c12k-036
# by uccabz1
#
# compiler GCC version 4.9.2
# options -cpp -iprefix /lustre/shared/ucl/apps/gcc/4.9.2/bin/../lib/gcc/x86_64-unknown-linux-gnu/4.9.2/ -mtune=corei7 -march=x86-64 -g -Og
#
# seed  -146801555   961976434  -754360904 -1090595693   345080658  -354823942  -718793597  -848535073 -2045684624  -367491454  -444994872  2001177641
#
#      Author: C. J. Pickard (cjp20@cam.ac.uk)
#                Space group: Pnc2
#

%BLOCK LATTICE_ABC
      4.20167      7.70471     12.35610
     90.00000     90.00000     90.00000
%ENDBLOCK LATTICE_ABC

%BLOCK POSITIONS_FRAC
  Li  -0.2847752  -0.2733993   0.3727223 SPIN=   0.00000
  Li   0.2847752  -0.2733993  -0.3727223 SPIN=   0.00000
  Li  -0.2847752   0.2266007   0.1272777 SPIN=   0.00000
  Li   0.2847752   0.2266007  -0.1272777 SPIN=   0.00000
  Fe   0.2774423  -0.4585077   0.1840730 SPIN=   4.00000
  Fe  -0.2774423  -0.4585077  -0.1840730 SPIN=   4.00000
  Fe   0.2774423   0.0414923   0.3159270 SPIN=   4.00000
  Fe  -0.2774423   0.0414923  -0.3159270 SPIN=   4.00000
   O  -0.5780663   0.3818788   0.4140924 SPIN=   0.00000
   O  -0.0437297   0.5169800   0.4115531 SPIN=   0.00000
   O  -0.2785008   0.4030725   0.2421422 SPIN=   0.00000
   O  -0.1000479   0.2000798   0.3850205 SPIN=   0.00000
   S  -0.2500862   0.3755028   0.3632021 SPIN=   0.00000
   O   0.5780663   0.3818788  -0.4140924 SPIN=   0.00000
   O   0.0437297   0.5169800  -0.4115531 SPIN=   0.00000
   O   0.2785008   0.4030725  -0.2421422 SPIN=   0.00000
   O   0.1000479   0.2000798  -0.3850205 SPIN=   0.00000
   S   0.2500862   0.3755028  -0.3632021 SPIN=   0.00000
   O  -0.5780663  -0.1181212   0.0859076 SPIN=   0.00000
   O  -0.0437297   0.0169800   0.0884469 SPIN=   0.00000
   O  -0.2785008  -0.0969275   0.2578578 SPIN=   0.00000
   O  -0.1000479  -0.2999202   0.1149795 SPIN=   0.00000
   S  -0.2500862  -0.1244972   0.1367979 SPIN=   0.00000
   O   0.5780663  -0.1181212  -0.0859076 SPIN=   0.00000
   O   0.0437297   0.0169800  -0.0884469 SPIN=   0.00000
   O   0.2785008  -0.0969275  -0.2578578 SPIN=   0.00000
   O   0.1000479  -0.2999202  -0.1149795 SPIN=   0.00000
   S   0.2500862  -0.1244972  -0.1367979 SPIN=   0.00000
   F   0.2501736   0.3124680   0.1162835 SPIN=   0.00000
   F  -0.2501736   0.3124680  -0.1162835 SPIN=   0.00000
   F   0.2501736  -0.1875320   0.3837165 SPIN=   0.00000
   F  -0.2501736  -0.1875320  -0.3837165 SPIN=   0.00000
%ENDBLOCK POSITIONS_FRAC

# Note: total spin =  16.00

KPOINTS_MP_SPACING 0.07

%BLOCK SPECIES_POT
QC5
%ENDBLOCK SPECIES_POT

SNAP_TO_SYMMETRY
SYMMETRY_GENERATE

