#              Generated by Buildcell
#
# at 09:20:03 (GMT+1.0) 4th August 2020
# in /lustre/scratch/uccabz1/launch_tmp
# on node-c12c-002
# by uccabz1
#
# compiler GCC version 4.9.2
# options -cpp -iprefix /lustre/shared/ucl/apps/gcc/4.9.2/bin/../lib/gcc/x86_64-unknown-linux-gnu/4.9.2/ -mtune=corei7 -march=x86-64 -g -Og
#
# seed -1041130144  1490825003 -1713476149 -1709557434 -1948815967   876813458 -1325388362  1973297075  -311248998 -1565794792    32228088   -41427021
#
#      Author: C. J. Pickard (cjp20@cam.ac.uk)
#                Space group: P-1
#

%BLOCK LATTICE_ABC
      5.43184      8.55948      9.46963
     68.87673     77.08326     87.40897
%ENDBLOCK LATTICE_ABC

%BLOCK POSITIONS_FRAC
  Li   0.2144026   0.3677765  -0.0847355 SPIN=   0.00000
  Li  -0.2144026  -0.3677765   0.0847355 SPIN=   0.00000
  Li  -0.2895998   0.0576349   0.1383802 SPIN=   0.00000
  Li   0.2895998  -0.0576349  -0.1383802 SPIN=   0.00000
  Fe   0.2233571   0.3474017  -0.4037937 SPIN=   4.66925
  Fe  -0.2233571  -0.3474017   0.4037937 SPIN=   4.66925
  Fe   0.1931569  -0.1809510  -0.4126037 SPIN=   3.33075
  Fe  -0.1931569   0.1809510   0.4126037 SPIN=   3.33075
   O  -0.7037211   0.1599119   0.1563676 SPIN=   0.00000
   O  -0.7024838   0.4682148   0.0830667 SPIN=   0.00000
   O  -0.3286615   0.3123649   0.1581412 SPIN=   0.00000
   O  -0.7241170   0.2855716   0.3564905 SPIN=   0.00000
   S  -0.6147459   0.3065158   0.1885165 SPIN=   0.00000
   O   0.7037211  -0.1599119  -0.1563676 SPIN=   0.00000
   O   0.7024838  -0.4682148  -0.0830667 SPIN=   0.00000
   O   0.3286615  -0.3123649  -0.1581412 SPIN=   0.00000
   O   0.7241170  -0.2855716  -0.3564905 SPIN=   0.00000
   S   0.6147459  -0.3065158  -0.1885165 SPIN=   0.00000
   O  -0.3981435  -0.1194175   0.0825950 SPIN=   0.00000
   O  -0.7449800  -0.1284452   0.3053855 SPIN=   0.00000
   O  -0.6089729  -0.3907690   0.2625221 SPIN=   0.00000
   O  -0.8379089  -0.1845186   0.0834562 SPIN=   0.00000
   S  -0.6475013  -0.2057876   0.1834897 SPIN=   0.00000
   O   0.3981435   0.1194175  -0.0825950 SPIN=   0.00000
   O   0.7449800   0.1284452  -0.3053855 SPIN=   0.00000
   O   0.6089729   0.3907690  -0.2625221 SPIN=   0.00000
   O   0.8379089   0.1845186  -0.0834562 SPIN=   0.00000
   S   0.6475013   0.2057876  -0.1834897 SPIN=   0.00000
   F  -0.2037976   0.3985488   0.4001314 SPIN=   0.00000
   F   0.2037976  -0.3985488  -0.4001314 SPIN=   0.00000
   F   0.2203252   0.0415728  -0.3407112 SPIN=   0.00000
   F  -0.2203252  -0.0415728   0.3407112 SPIN=   0.00000
%ENDBLOCK POSITIONS_FRAC

# Note: total spin =  16.00

KPOINTS_MP_SPACING 0.07

%BLOCK SPECIES_POT
QC5
%ENDBLOCK SPECIES_POT

SNAP_TO_SYMMETRY
SYMMETRY_GENERATE

