#              Generated by Buildcell
#
# at 10:58:04 (GMT+1.0) 4th August 2020
# in /lustre/scratch/uccabz1/launch_tmp
# on node-c12h-031
# by uccabz1
#
# compiler GCC version 4.9.2
# options -cpp -iprefix /lustre/shared/ucl/apps/gcc/4.9.2/bin/../lib/gcc/x86_64-unknown-linux-gnu/4.9.2/ -mtune=corei7 -march=x86-64 -g -Og
#
# seed  -335762760    52410203 -2063031816  1694869933 -1970688927  -609745251   418336609 -1818340784   626924945 -1288748960 -1849945086  -163220218
#
#      Author: C. J. Pickard (cjp20@cam.ac.uk)
#                Space group: P21
#

%BLOCK LATTICE_ABC
      4.51088      6.35330     14.37399
     90.00000     90.00000    103.83091
%ENDBLOCK LATTICE_ABC

%BLOCK POSITIONS_FRAC
  Li   0.4353899   0.4383873  -0.2631628 SPIN=   0.00000
  Li  -0.4353899  -0.4383873   0.2368372 SPIN=   0.00000
  Li   0.3080989   0.1579714  -0.0183184 SPIN=   0.00000
  Li  -0.3080989  -0.1579714   0.4816816 SPIN=   0.00000
  Fe  -0.0783238   0.3787919   0.3733437 SPIN=   5.59021
  Fe   0.0783238  -0.3787919  -0.1266563 SPIN=   5.59021
  Fe   0.0742892  -0.3639736  -0.3992760 SPIN=   2.40979
  Fe  -0.0742892   0.3639736   0.1007240 SPIN=   2.40979
   O   0.3577049   0.0115060   0.4965848 SPIN=   0.00000
   O  -0.0477178   0.0597013   0.3883826 SPIN=   0.00000
   O   0.1554363  -0.2685567   0.3780555 SPIN=   0.00000
   O   0.4764808   0.0875481   0.3300767 SPIN=   0.00000
   S   0.2354761  -0.0274503   0.3982749 SPIN=   0.00000
   O  -0.3577049  -0.0115060  -0.0034152 SPIN=   0.00000
   O   0.0477178  -0.0597013  -0.1116174 SPIN=   0.00000
   O  -0.1554363   0.2685567  -0.1219445 SPIN=   0.00000
   O  -0.4764808  -0.0875481  -0.1699233 SPIN=   0.00000
   S  -0.2354761   0.0274503  -0.1017251 SPIN=   0.00000
   O  -0.0542404   0.1481679  -0.4533070 SPIN=   0.00000
   O  -0.4373903  -0.1350796  -0.3713890 SPIN=   0.00000
   O  -0.4851770   0.2449544  -0.3710902 SPIN=   0.00000
   O  -0.0725403   0.1433129  -0.2812218 SPIN=   0.00000
   S  -0.2623370   0.1003389  -0.3692520 SPIN=   0.00000
   O   0.0542404  -0.1481679   0.0466930 SPIN=   0.00000
   O   0.4373903   0.1350796   0.1286110 SPIN=   0.00000
   O   0.4851770  -0.2449544   0.1289098 SPIN=   0.00000
   O   0.0725403  -0.1433129   0.2187782 SPIN=   0.00000
   S   0.2623370  -0.1003389   0.1307480 SPIN=   0.00000
   F  -0.4140924  -0.4692304   0.4772080 SPIN=   0.00000
   F   0.4140924   0.4692304  -0.0227920 SPIN=   0.00000
   F   0.0171658  -0.3542865  -0.2625957 SPIN=   0.00000
   F  -0.0171658   0.3542865   0.2374043 SPIN=   0.00000
%ENDBLOCK POSITIONS_FRAC

# Note: total spin =  16.00

KPOINTS_MP_SPACING 0.07

%BLOCK SPECIES_POT
QC5
%ENDBLOCK SPECIES_POT

SNAP_TO_SYMMETRY
SYMMETRY_GENERATE

