#              Generated by Buildcell
#
# at 08:13:59 (GMT+1.0) 4th August 2020
# in /lustre/scratch/uccabz1/launch_tmp
# on node-c12m-027
# by uccabz1
#
# compiler GCC version 4.9.2
# options -cpp -iprefix /lustre/shared/ucl/apps/gcc/4.9.2/bin/../lib/gcc/x86_64-unknown-linux-gnu/4.9.2/ -mtune=corei7 -march=x86-64 -g -Og
#
# seed   669510679  2138464441  1580255785 -1168062367  -149805494 -1046117218  2046922842 -1510340567   309446262  -606210782 -1557136481   879687251
#
#      Author: C. J. Pickard (cjp20@cam.ac.uk)
#                Space group: P21
#

%BLOCK LATTICE_ABC
      4.55898      9.32521     10.29289
    113.92088     90.00000     90.00000
%ENDBLOCK LATTICE_ABC

%BLOCK POSITIONS_FRAC
  Li   0.4386498   0.1605456  -0.3448451 SPIN=   0.00000
  Li  -0.0613502  -0.1605456   0.3448451 SPIN=   0.00000
  Li  -0.4548739   0.3271539   0.3364263 SPIN=   0.00000
  Li   0.0451261  -0.3271539  -0.3364263 SPIN=   0.00000
  Fe   0.4385634  -0.3305374   0.4100045 SPIN=   1.29565
  Fe  -0.0614366   0.3305374  -0.4100045 SPIN=   1.29565
  Fe  -0.4338190  -0.1263603   0.0817403 SPIN=   6.70435
  Fe   0.0661810   0.1263603  -0.0817403 SPIN=   6.70435
   O  -0.1649964   0.3862482   0.1730203 SPIN=   0.00000
   O  -0.4979852   0.2319073  -0.0241154 SPIN=   0.00000
   O  -0.3764779   0.5062357   0.0191958 SPIN=   0.00000
   O  -0.6939668   0.4507107   0.1883354 SPIN=   0.00000
   S  -0.4333566   0.3937755   0.0891090 SPIN=   0.00000
   O   0.3350036  -0.3862482  -0.1730203 SPIN=   0.00000
   O   0.0020148  -0.2319073   0.0241154 SPIN=   0.00000
   O   0.1235221  -0.5062357  -0.0191958 SPIN=   0.00000
   O  -0.1939668  -0.4507107  -0.1883354 SPIN=   0.00000
   S   0.0666434  -0.3937755  -0.0891090 SPIN=   0.00000
   O  -0.1285586  -0.1257366  -0.1825970 SPIN=   0.00000
   O  -0.6578006  -0.0872210  -0.1254808 SPIN=   0.00000
   O  -0.4910171  -0.3146656  -0.3389426 SPIN=   0.00000
   O  -0.4607575  -0.0467198  -0.3321240 SPIN=   0.00000
   S  -0.4345334  -0.1435858  -0.2447861 SPIN=   0.00000
   O   0.3714414   0.1257366   0.1825970 SPIN=   0.00000
   O  -0.1578006   0.0872210   0.1254808 SPIN=   0.00000
   O   0.0089829   0.3146656   0.3389426 SPIN=   0.00000
   O   0.0392425   0.0467198   0.3321240 SPIN=   0.00000
   S   0.0654666   0.1435858   0.2447861 SPIN=   0.00000
   F  -0.4506370  -0.1689496   0.2428582 SPIN=   0.00000
   F   0.0493630   0.1689496  -0.2428582 SPIN=   0.00000
   F   0.0497310  -0.3477528   0.4577819 SPIN=   0.00000
   F  -0.4502690   0.3477528  -0.4577819 SPIN=   0.00000
%ENDBLOCK POSITIONS_FRAC

# Note: total spin =  16.00

KPOINTS_MP_SPACING 0.07

%BLOCK SPECIES_POT
QC5
%ENDBLOCK SPECIES_POT

SNAP_TO_SYMMETRY
SYMMETRY_GENERATE

