#              Generated by Buildcell
#
# at 06:07:55 (GMT+1.0) 4th August 2020
# in /lustre/scratch/uccabz1/launch_tmp
# on node-c12k-031
# by uccabz1
#
# compiler GCC version 4.9.2
# options -cpp -iprefix /lustre/shared/ucl/apps/gcc/4.9.2/bin/../lib/gcc/x86_64-unknown-linux-gnu/4.9.2/ -mtune=corei7 -march=x86-64 -g -Og
#
# seed  1335661659  1422367799 -1049810038  1216838685  1645400233 -2047996385   366818422 -1259622598   309704023   -83284657   669589888 -1652046943
#
#      Author: C. J. Pickard (cjp20@cam.ac.uk)
#                Space group: I41
#

%BLOCK LATTICE_ABC
      7.25233      7.25233      9.17254
    113.28646    113.28646     90.00000
%ENDBLOCK LATTICE_ABC

%BLOCK POSITIONS_FRAC
  Li  -0.4513716  -0.3365167  -0.4599035 SPIN=   0.00000
  Li  -0.0085318  -0.1233868  -0.4599035 SPIN=   0.00000
  Li   0.1266132   0.2986284   0.0400965 SPIN=   0.00000
  Li  -0.0865167  -0.2585318   0.0400965 SPIN=   0.00000
  Fe   0.3334854  -0.0074144   0.4667081 SPIN=   4.00000
  Fe   0.1332227   0.4741224   0.4667081 SPIN=   4.00000
  Fe  -0.2758776   0.0834854  -0.0332919 SPIN=   4.00000
  Fe   0.2425856  -0.1167773  -0.0332919 SPIN=   4.00000
   O  -0.4689125   0.2723910   0.0601445 SPIN=   0.00000
   O  -0.5719185   0.2115448   0.2667566 SPIN=   0.00000
   O  -0.5859258   0.5445159   0.2510973 SPIN=   0.00000
   O  -0.2517405   0.4498335   0.3805831 SPIN=   0.00000
   S  -0.4696243   0.3695713   0.2396454 SPIN=   0.00000
   O  -0.4709430  -0.2122465   0.0601445 SPIN=   0.00000
   O  -0.1613249   0.0552118   0.2667566 SPIN=   0.00000
   O  -0.1629769  -0.2934185   0.2510973 SPIN=   0.00000
   O  -0.3676764  -0.0692504   0.3805831 SPIN=   0.00000
   S  -0.2907303  -0.1299259   0.2396454 SPIN=   0.00000
   O   0.0377535   0.2810875  -0.4398555 SPIN=   0.00000
   O   0.3052118   0.1780815  -0.2332434 SPIN=   0.00000
   O  -0.0434185   0.1640742  -0.2489027 SPIN=   0.00000
   O   0.1807496   0.4982595  -0.1194169 SPIN=   0.00000
   S   0.1200741   0.2803757  -0.2603546 SPIN=   0.00000
   O  -0.4776090   0.2790570  -0.4398555 SPIN=   0.00000
   O  -0.5384552   0.5886751  -0.2332434 SPIN=   0.00000
   O  -0.2054841   0.5870231  -0.2489027 SPIN=   0.00000
   O  -0.3001665   0.3823236  -0.1194169 SPIN=   0.00000
   S  -0.3804287   0.4592697  -0.2603546 SPIN=   0.00000
   F   0.1274596  -0.2665374  -0.3054561 SPIN=   0.00000
   F  -0.4329157  -0.0389187  -0.3054561 SPIN=   0.00000
   F   0.2110813  -0.1225404   0.1945439 SPIN=   0.00000
   F  -0.0165374   0.3170843   0.1945439 SPIN=   0.00000
%ENDBLOCK POSITIONS_FRAC

# Note: total spin =  16.00

KPOINTS_MP_SPACING 0.07

%BLOCK SPECIES_POT
QC5
%ENDBLOCK SPECIES_POT

SNAP_TO_SYMMETRY
SYMMETRY_GENERATE

