#              Generated by Buildcell
#
# at 07:30:54 (GMT+1.0) 4th August 2020
# in /lustre/scratch/uccabz1/launch_tmp
# on node-c12d-014
# by uccabz1
#
# compiler GCC version 4.9.2
# options -cpp -iprefix /lustre/shared/ucl/apps/gcc/4.9.2/bin/../lib/gcc/x86_64-unknown-linux-gnu/4.9.2/ -mtune=corei7 -march=x86-64 -g -Og
#
# seed   231950290   700009857  2086418373  -190510725 -2136073706  -670275580    21477049  1293351487 -1854453481  -679952350  1352432952   -26219766
#
#      Author: C. J. Pickard (cjp20@cam.ac.uk)
#                Space group: P-1
#

%BLOCK LATTICE_ABC
      6.98845      7.22158      8.86222
     87.99796     76.92259     66.89930
%ENDBLOCK LATTICE_ABC

%BLOCK POSITIONS_FRAC
  Li   0.4690368  -0.3163421  -0.3557869 SPIN=   0.00000
  Li  -0.4690368   0.3163421   0.3557869 SPIN=   0.00000
  Li   0.0719921   0.2066059  -0.4676311 SPIN=   0.00000
  Li  -0.0719921  -0.2066059   0.4676311 SPIN=   0.00000
  Fe   0.2576462   0.1759816   0.2002198 SPIN=   2.31663
  Fe  -0.2576462  -0.1759816  -0.2002198 SPIN=   2.31663
  Fe  -0.2232717   0.4070624   0.0518051 SPIN=   5.68337
  Fe   0.2232717  -0.4070624  -0.0518051 SPIN=   5.68337
   O   0.2061141  -0.4210038   0.2965446 SPIN=   0.00000
   O   0.3062643  -0.1661485   0.1434269 SPIN=   0.00000
   O   0.5658007  -0.4203717   0.2716312 SPIN=   0.00000
   O   0.2475516  -0.1479913   0.4295397 SPIN=   0.00000
   S   0.3314327  -0.2888788   0.2852856 SPIN=   0.00000
   O  -0.2061141   0.4210038  -0.2965446 SPIN=   0.00000
   O  -0.3062643   0.1661485  -0.1434269 SPIN=   0.00000
   O  -0.5658007   0.4203717  -0.2716312 SPIN=   0.00000
   O  -0.2475516   0.1479913  -0.4295397 SPIN=   0.00000
   S  -0.3314327   0.2888788  -0.2852856 SPIN=   0.00000
   O   0.3936492   0.1065741  -0.2400285 SPIN=   0.00000
   O   0.1096891   0.0109037  -0.2911402 SPIN=   0.00000
   O   0.0628216   0.1736833  -0.0366391 SPIN=   0.00000
   O   0.3263686  -0.1768680  -0.1076506 SPIN=   0.00000
   S   0.2231321   0.0285733  -0.1688646 SPIN=   0.00000
   O  -0.3936492  -0.1065741   0.2400285 SPIN=   0.00000
   O  -0.1096891  -0.0109037   0.2911402 SPIN=   0.00000
   O  -0.0628216  -0.1736833   0.0366391 SPIN=   0.00000
   O  -0.3263686   0.1768680   0.1076506 SPIN=   0.00000
   S  -0.2231321  -0.0285733   0.1688646 SPIN=   0.00000
   F  -0.2912577  -0.3601679  -0.0564941 SPIN=   0.00000
   F   0.2912577   0.3601679   0.0564941 SPIN=   0.00000
   F   0.2985111   0.3019983  -0.4836890 SPIN=   0.00000
   F  -0.2985111  -0.3019983   0.4836890 SPIN=   0.00000
%ENDBLOCK POSITIONS_FRAC

# Note: total spin =  16.00

KPOINTS_MP_SPACING 0.07

%BLOCK SPECIES_POT
QC5
%ENDBLOCK SPECIES_POT

SNAP_TO_SYMMETRY
SYMMETRY_GENERATE

