#              Generated by Buildcell
#
# at 05:17:02 (GMT+1.0) 18th August 2020
# in /lustre/scratch/uccabz1/launch_tmp
# on node-c12l-020
# by uccabz1
#
# compiler GCC version 4.9.2
# options -cpp -iprefix /lustre/shared/ucl/apps/gcc/4.9.2/bin/../lib/gcc/x86_64-unknown-linux-gnu/4.9.2/ -mtune=corei7 -march=x86-64 -g -Og
#
# seed   611385739  -748205014  -910330268  1082681941 -1372441088  1131783971 -1527485910  -864701310   226926769  1436559662  -885188313  1465356439
#
#      Author: C. J. Pickard (cjp20@cam.ac.uk)
#                Space group: P2
#

%BLOCK LATTICE_ABC
      5.78032      8.02803      8.88613
    104.06222     90.00000     90.00000
%ENDBLOCK LATTICE_ABC

%BLOCK POSITIONS_FRAC
  Li  -0.2423678  -0.3096653  -0.0776280 SPIN=   0.00000
  Li  -0.2423678   0.3096653   0.0776280 SPIN=   0.00000
  Li   0.3171185  -0.0897860   0.2771939 SPIN=   0.00000
  Li   0.3171185   0.0897860  -0.2771939 SPIN=   0.00000
  Fe  -0.4950089  -0.2817116  -0.3833310 SPIN=   6.86334
  Fe  -0.4950089   0.2817116   0.3833310 SPIN=   6.86334
  Fe   0.0629145  -0.4193082   0.3256131 SPIN=   1.13666
  Fe   0.0629145   0.4193082  -0.3256131 SPIN=   1.13666
   O   0.3388926   0.4486039   0.1362017 SPIN=   0.00000
   O   0.4743551   0.1505357   0.0311509 SPIN=   0.00000
   O   0.1994681   0.2822236  -0.1195968 SPIN=   0.00000
   O   0.0695563   0.2052707   0.1201791 SPIN=   0.00000
   S   0.2705680   0.2716585   0.0419837 SPIN=   0.00000
   O   0.3388926  -0.4486039  -0.1362017 SPIN=   0.00000
   O   0.4743551  -0.1505357  -0.0311509 SPIN=   0.00000
   O   0.1994681  -0.2822236   0.1195968 SPIN=   0.00000
   O   0.0695563  -0.2052707  -0.1201791 SPIN=   0.00000
   S   0.2705680  -0.2716585  -0.0419837 SPIN=   0.00000
   O  -0.1567949  -0.2189223   0.3423420 SPIN=   0.00000
   O   0.0333228   0.0532410   0.3287017 SPIN=   0.00000
   O  -0.3939570   0.0332675   0.3275361 SPIN=   0.00000
   O  -0.1697870  -0.1213866   0.0988183 SPIN=   0.00000
   S  -0.1718040  -0.0634501   0.2743495 SPIN=   0.00000
   O  -0.1567949   0.2189223  -0.3423420 SPIN=   0.00000
   O   0.0333228  -0.0532410  -0.3287017 SPIN=   0.00000
   O  -0.3939570  -0.0332675  -0.3275361 SPIN=   0.00000
   O  -0.1697870   0.1213866  -0.0988183 SPIN=   0.00000
   S  -0.1718040   0.0634501  -0.2743495 SPIN=   0.00000
   F   0.3285233  -0.2265912   0.4162657 SPIN=   0.00000
   F   0.3285233   0.2265912  -0.4162657 SPIN=   0.00000
   F  -0.2592855   0.4358944   0.2805402 SPIN=   0.00000
   F  -0.2592855  -0.4358944  -0.2805402 SPIN=   0.00000
%ENDBLOCK POSITIONS_FRAC

# Note: total spin =  16.00

KPOINTS_MP_SPACING 0.07

%BLOCK SPECIES_POT
QC5
%ENDBLOCK SPECIES_POT

SNAP_TO_SYMMETRY
SYMMETRY_GENERATE

