#              Generated by Buildcell
#
# at 07:45:17 (GMT+1.0) 18th August 2020
# in /lustre/scratch/uccabz1/launch_tmp
# on node-c12b-010
# by uccabz1
#
# compiler GCC version 4.9.2
# options -cpp -iprefix /lustre/shared/ucl/apps/gcc/4.9.2/bin/../lib/gcc/x86_64-unknown-linux-gnu/4.9.2/ -mtune=corei7 -march=x86-64 -g -Og
#
# seed -1082425353  1715907359 -1335811243  -318010206  -524790520  1771724890  -857945744    58387250  1500699920  1647407635  -170043291 -2096322504
#
#      Author: C. J. Pickard (cjp20@cam.ac.uk)
#                Space group: P21
#

%BLOCK LATTICE_ABC
      4.25512      8.49176     11.29304
     90.00000     90.00000    101.40414
%ENDBLOCK LATTICE_ABC

%BLOCK POSITIONS_FRAC
  Li  -0.1759651   0.0986234  -0.1206586 SPIN=   0.00000
  Li   0.1759651  -0.0986234   0.3793414 SPIN=   0.00000
  Li   0.1712892  -0.2853380  -0.1428709 SPIN=   0.00000
  Li  -0.1712892   0.2853380   0.3571291 SPIN=   0.00000
  Fe   0.2742126   0.1183395  -0.4055847 SPIN=   3.66087
  Fe  -0.2742126  -0.1183395   0.0944153 SPIN=   3.66087
  Fe  -0.3635596  -0.2307691  -0.3485317 SPIN=   4.33913
  Fe   0.3635596   0.2307691   0.1514683 SPIN=   4.33913
   O  -0.6211102  -0.3200487   0.4601087 SPIN=   0.00000
   O  -0.5927911  -0.4316050   0.2588067 SPIN=   0.00000
   O  -0.1091522  -0.3784555   0.3856989 SPIN=   0.00000
   O  -0.3231407  -0.1516969   0.3019413 SPIN=   0.00000
   S  -0.4115486  -0.3204515   0.3516389 SPIN=   0.00000
   O   0.6211102   0.3200487  -0.0398913 SPIN=   0.00000
   O   0.5927911   0.4316050  -0.2411933 SPIN=   0.00000
   O   0.1091522   0.3784555  -0.1143011 SPIN=   0.00000
   O   0.3231407   0.1516969  -0.1980587 SPIN=   0.00000
   S   0.4115486   0.3204515  -0.1483611 SPIN=   0.00000
   O  -0.2358352  -0.5974586   0.1449772 SPIN=   0.00000
   O   0.0632164  -0.3170783   0.1615614 SPIN=   0.00000
   O  -0.1490999  -0.4236685  -0.0327031 SPIN=   0.00000
   O   0.3069746  -0.5203528   0.0582372 SPIN=   0.00000
   S  -0.0036860  -0.4646396   0.0830182 SPIN=   0.00000
   O   0.2358352   0.5974586  -0.3550228 SPIN=   0.00000
   O  -0.0632164   0.3170783  -0.3384386 SPIN=   0.00000
   O   0.1490999   0.4236685  -0.5327031 SPIN=   0.00000
   O  -0.3069746   0.5203528  -0.4417628 SPIN=   0.00000
   S   0.0036860   0.4646396  -0.4169818 SPIN=   0.00000
   F   0.3870809  -0.0224510   0.0694163 SPIN=   0.00000
   F  -0.3870809   0.0224510  -0.4305837 SPIN=   0.00000
   F  -0.1970131  -0.1903074  -0.1752999 SPIN=   0.00000
   F   0.1970131   0.1903074   0.3247001 SPIN=   0.00000
%ENDBLOCK POSITIONS_FRAC

# Note: total spin =  16.00

KPOINTS_MP_SPACING 0.07

%BLOCK SPECIES_POT
QC5
%ENDBLOCK SPECIES_POT

SNAP_TO_SYMMETRY
SYMMETRY_GENERATE

