#              Generated by Buildcell
#
# at 09:39:42 (GMT+1.0) 18th August 2020
# in /lustre/scratch/uccabz1/launch_tmp
# on node-c12i-026
# by uccabz1
#
# compiler GCC version 4.9.2
# options -cpp -iprefix /lustre/shared/ucl/apps/gcc/4.9.2/bin/../lib/gcc/x86_64-unknown-linux-gnu/4.9.2/ -mtune=corei7 -march=x86-64 -g -Og
#
# seed  1500017926  -759574386   -98364800  -767876014 -1714300532 -1024846951 -2132795551 -1317814210 -1849148516  -805595423   381291654  -563156683
#
#      Author: C. J. Pickard (cjp20@cam.ac.uk)
#                Space group: P21
#

%BLOCK LATTICE_ABC
      4.07856      8.72238     11.24577
     90.00000     91.04003     90.00000
%ENDBLOCK LATTICE_ABC

%BLOCK POSITIONS_FRAC
  Li   0.2082123  -0.2032448   0.1544022 SPIN=   0.00000
  Li  -0.2082123   0.2967552  -0.1544022 SPIN=   0.00000
  Li  -0.2825033   0.4810832   0.2827970 SPIN=   0.00000
  Li   0.2825033  -0.0189168  -0.2827970 SPIN=   0.00000
  Fe  -0.0178737   0.4829021  -0.3850512 SPIN=   3.71712
  Fe   0.0178737  -0.0170979   0.3850512 SPIN=   3.71712
  Fe   0.2809689  -0.4951207  -0.0499743 SPIN=   4.28288
  Fe  -0.2809689   0.0048793   0.0499743 SPIN=   4.28288
   O  -0.3687496  -0.3422322  -0.3005474 SPIN=   0.00000
   O   0.1452998  -0.2504591  -0.2043249 SPIN=   0.00000
   O  -0.3870807  -0.2045731  -0.1083471 SPIN=   0.00000
   O  -0.2481345  -0.0643341  -0.2919905 SPIN=   0.00000
   S  -0.2146662  -0.2153996  -0.2263025 SPIN=   0.00000
   O   0.3687496   0.1577678   0.3005474 SPIN=   0.00000
   O  -0.1452998   0.2495409   0.2043249 SPIN=   0.00000
   O   0.3870807   0.2954269   0.1083471 SPIN=   0.00000
   O   0.2481345   0.4356659   0.2919905 SPIN=   0.00000
   S   0.2146662   0.2846004   0.2263025 SPIN=   0.00000
   O  -0.7653626   0.2879831  -0.4624826 SPIN=   0.00000
   O  -0.3030912   0.2159372  -0.3282519 SPIN=   0.00000
   O  -0.2361340   0.2068503  -0.5464256 SPIN=   0.00000
   O  -0.5901134   0.0169181  -0.4474932 SPIN=   0.00000
   S  -0.4736753   0.1819222  -0.4461633 SPIN=   0.00000
   O   0.7653626  -0.2120169   0.4624826 SPIN=   0.00000
   O   0.3030912  -0.2840628   0.3282519 SPIN=   0.00000
   O   0.2361340  -0.2931497   0.5464256 SPIN=   0.00000
   O   0.5901134  -0.4830819   0.4474932 SPIN=   0.00000
   S   0.4736753  -0.3180778   0.4461633 SPIN=   0.00000
   F  -0.1801078  -0.0737637   0.2335546 SPIN=   0.00000
   F   0.1801078   0.4262363  -0.2335546 SPIN=   0.00000
   F   0.2219993   0.0550447  -0.0537880 SPIN=   0.00000
   F  -0.2219993  -0.4449553   0.0537880 SPIN=   0.00000
%ENDBLOCK POSITIONS_FRAC

# Note: total spin =  16.00

KPOINTS_MP_SPACING 0.07

%BLOCK SPECIES_POT
QC5
%ENDBLOCK SPECIES_POT

SNAP_TO_SYMMETRY
SYMMETRY_GENERATE

