#              Generated by Buildcell
#
# at 08:18:04 (GMT+1.0) 4th August 2020
# in /lustre/scratch/uccabz1/launch_tmp
# on node-c12l-033
# by uccabz1
#
# compiler GCC version 4.9.2
# options -cpp -iprefix /lustre/shared/ucl/apps/gcc/4.9.2/bin/../lib/gcc/x86_64-unknown-linux-gnu/4.9.2/ -mtune=corei7 -march=x86-64 -g -Og
#
# seed -1878331859 -1846097445   337768853  1759732578  2007563532  -228303199  -198666634  2073036405  1905268440  1037865823  1560822112  1464333062
#
#      Author: C. J. Pickard (cjp20@cam.ac.uk)
#                Space group: P21/c
#

%BLOCK LATTICE_ABC
      3.98748      9.96784     10.13698
     96.89103     90.00000     90.00000
%ENDBLOCK LATTICE_ABC

%BLOCK POSITIONS_FRAC
  Li   0.2524511   0.3657863   0.4118911 SPIN=   0.00000
  Li  -0.2475489  -0.3657863   0.0881089 SPIN=   0.00000
  Li  -0.2524511  -0.3657863  -0.4118911 SPIN=   0.00000
  Li   0.2475489   0.3657863  -0.0881089 SPIN=   0.00000
  Fe   0.2670430  -0.3554552   0.3201023 SPIN=   4.00000
  Fe  -0.2329570   0.3554552   0.1798977 SPIN=   4.00000
  Fe  -0.2670430   0.3554552  -0.3201023 SPIN=   4.00000
  Fe   0.2329570  -0.3554552  -0.1798977 SPIN=   4.00000
   O   0.3653337  -0.2498517   0.1460412 SPIN=   0.00000
   O   0.0513434  -0.1820674  -0.0458919 SPIN=   0.00000
   O   0.3655864  -0.0108527   0.1023310 SPIN=   0.00000
   O  -0.1504718  -0.1123791   0.1829552 SPIN=   0.00000
   S   0.1579479  -0.1387877   0.0963589 SPIN=   0.00000
   O  -0.1346663   0.2498517   0.3539588 SPIN=   0.00000
   O  -0.4486566   0.1820674   0.5458919 SPIN=   0.00000
   O  -0.1344136   0.0108527   0.3976690 SPIN=   0.00000
   O  -0.6504718   0.1123791   0.3170448 SPIN=   0.00000
   S  -0.3420521   0.1387877   0.4036411 SPIN=   0.00000
   O  -0.3653337   0.2498517  -0.1460412 SPIN=   0.00000
   O  -0.0513434   0.1820674   0.0458919 SPIN=   0.00000
   O  -0.3655864   0.0108527  -0.1023310 SPIN=   0.00000
   O   0.1504718   0.1123791  -0.1829552 SPIN=   0.00000
   S  -0.1579479   0.1387877  -0.0963589 SPIN=   0.00000
   O   0.1346663  -0.2498517  -0.3539588 SPIN=   0.00000
   O   0.4486566  -0.1820674  -0.5458919 SPIN=   0.00000
   O   0.1344136  -0.0108527  -0.3976690 SPIN=   0.00000
   O   0.6504718  -0.1123791  -0.3170448 SPIN=   0.00000
   S   0.3420521  -0.1387877  -0.4036411 SPIN=   0.00000
   F  -0.2833124  -0.3492160  -0.2023706 SPIN=   0.00000
   F   0.2166876   0.3492160  -0.2976294 SPIN=   0.00000
   F   0.2833124   0.3492160   0.2023706 SPIN=   0.00000
   F  -0.2166876  -0.3492160   0.2976294 SPIN=   0.00000
%ENDBLOCK POSITIONS_FRAC

# Note: total spin =  16.00

KPOINTS_MP_SPACING 0.07

%BLOCK SPECIES_POT
QC5
%ENDBLOCK SPECIES_POT

SNAP_TO_SYMMETRY
SYMMETRY_GENERATE

