#              Generated by Buildcell
#
# at 09:38:57 (GMT+1.0) 4th August 2020
# in /lustre/scratch/uccabz1/launch_tmp
# on node-c12p-027
# by uccabz1
#
# compiler GCC version 4.9.2
# options -cpp -iprefix /lustre/shared/ucl/apps/gcc/4.9.2/bin/../lib/gcc/x86_64-unknown-linux-gnu/4.9.2/ -mtune=corei7 -march=x86-64 -g -Og
#
# seed -1355252060  1832377042  -292748072 -1482233699 -1007950451  -816645783  1559787994 -1983006549 -2097522423  2069039605  -214448138  2017386064
#
#      Author: C. J. Pickard (cjp20@cam.ac.uk)
#                Space group: P2
#

%BLOCK LATTICE_ABC
      7.38616      7.66334      7.95768
     90.00000    117.37098     90.00000
%ENDBLOCK LATTICE_ABC

%BLOCK POSITIONS_FRAC
  Li   0.0181914  -0.2943331  -0.2530754 SPIN=   0.00000
  Li  -0.0181914  -0.2943331   0.2530754 SPIN=   0.00000
  Li  -0.5000000  -0.0624026  -0.5000000 SPIN=   0.00000
  Li  -0.5000000   0.4374604  -0.5000000 SPIN=   0.00000
  Fe  -0.1856106   0.1184234   0.2313395 SPIN=   2.87337
  Fe   0.1856106   0.1184234  -0.2313395 SPIN=   2.87337
  Fe   0.3465450  -0.2343224   0.1319138 SPIN=   5.12663
  Fe  -0.3465450  -0.2343224  -0.1319138 SPIN=   5.12663
   O  -0.4695659   0.2032985  -0.3422985 SPIN=   0.00000
   O  -0.1811597   0.0510305  -0.3560071 SPIN=   0.00000
   O  -0.2208562   0.0390599  -0.0638834 SPIN=   0.00000
   O  -0.1180507   0.3149920  -0.1576091 SPIN=   0.00000
   S  -0.2474082   0.1520952  -0.2299495 SPIN=   0.00000
   O   0.4695659   0.2032985   0.3422985 SPIN=   0.00000
   O   0.1811597   0.0510305   0.3560071 SPIN=   0.00000
   O   0.2208562   0.0390599   0.0638834 SPIN=   0.00000
   O   0.1180507   0.3149920   0.1576091 SPIN=   0.00000
   S   0.2474082   0.1520952   0.2299495 SPIN=   0.00000
   O  -0.8305775   0.4041724  -0.1763513 SPIN=   0.00000
   O  -0.8294628   0.6017732  -0.4218672 SPIN=   0.00000
   O  -0.8008215   0.2825944  -0.4507322 SPIN=   0.00000
   O  -0.5134490   0.4476758  -0.2042380 SPIN=   0.00000
   O   0.8305775   0.4041724   0.1763513 SPIN=   0.00000
   O   0.8294628   0.6017732   0.4218672 SPIN=   0.00000
   O   0.8008215   0.2825944   0.4507322 SPIN=   0.00000
   O   0.5134490   0.4476758   0.2042380 SPIN=   0.00000
   S  -0.5000000   0.4254869   0.0000000 SPIN=   0.00000
   S   1.0000000   0.4558220   0.5000000 SPIN=   0.00000
   F  -0.6900139  -0.0669520  -0.2719871 SPIN=   0.00000
   F   0.6900139  -0.0669520   0.2719871 SPIN=   0.00000
   F   0.2417875  -0.3418607   0.2675926 SPIN=   0.00000
   F  -0.2417875  -0.3418607  -0.2675926 SPIN=   0.00000
%ENDBLOCK POSITIONS_FRAC

# Note: total spin =  16.00

KPOINTS_MP_SPACING 0.07

%BLOCK SPECIES_POT
QC5
%ENDBLOCK SPECIES_POT

SNAP_TO_SYMMETRY
SYMMETRY_GENERATE

