#              Generated by Buildcell
#
# at 05:57:03 (GMT+1.0) 4th August 2020
# in /lustre/scratch/uccabz1/launch_tmp
# on node-c12g-019
# by uccabz1
#
# compiler GCC version 4.9.2
# options -cpp -iprefix /lustre/shared/ucl/apps/gcc/4.9.2/bin/../lib/gcc/x86_64-unknown-linux-gnu/4.9.2/ -mtune=corei7 -march=x86-64 -g -Og
#
# seed -2043095475 -1232621248  -754878967  1944004761   896526114 -1323790449    17353353   791347427   650183501   817525790 -1488868852 -1684104389
#
#      Author: C. J. Pickard (cjp20@cam.ac.uk)
#                Space group: P2
#

%BLOCK LATTICE_ABC
      6.45706      7.72798      8.11915
     99.14183     90.00000     90.00000
%ENDBLOCK LATTICE_ABC

%BLOCK POSITIONS_FRAC
  Li  -0.1202046   0.3871548   0.2576369 SPIN=   0.00000
  Li  -0.1202046  -0.3871548  -0.2576369 SPIN=   0.00000
  Li   0.3319190  -0.2389842   0.0579930 SPIN=   0.00000
  Li   0.3319190   0.2389842  -0.0579930 SPIN=   0.00000
  Fe  -0.0347524   0.2437286  -0.4256309 SPIN=   3.64845
  Fe  -0.0347524  -0.2437286   0.4256309 SPIN=   3.64845
  Fe   0.4264155  -0.4789303  -0.2642756 SPIN=   4.35155
  Fe   0.4264155   0.4789303   0.2642756 SPIN=   4.35155
   O   0.1052799   0.1294177   0.1079973 SPIN=   0.00000
   O   0.1197710  -0.0337791   0.3464953 SPIN=   0.00000
   O   0.3046388   0.2487714   0.3609878 SPIN=   0.00000
   O   0.4314946  -0.0136213   0.1732011 SPIN=   0.00000
   S   0.2402961   0.0826972   0.2471704 SPIN=   0.00000
   O   0.1052799  -0.1294177  -0.1079973 SPIN=   0.00000
   O   0.1197710   0.0337791  -0.3464953 SPIN=   0.00000
   O   0.3046388  -0.2487714  -0.3609878 SPIN=   0.00000
   O   0.4314946   0.0136213  -0.1732011 SPIN=   0.00000
   S   0.2402961  -0.0826972  -0.2471704 SPIN=   0.00000
   O  -0.4002860  -0.2896189   0.1761281 SPIN=   0.00000
   O  -0.0540981  -0.3549862   0.0507401 SPIN=   0.00000
   O  -0.1706339  -0.0473696   0.1248224 SPIN=   0.00000
   O  -0.3316109  -0.2409144  -0.1128797 SPIN=   0.00000
   S  -0.2391572  -0.2332223   0.0597027 SPIN=   0.00000
   O  -0.4002860   0.2896189  -0.1761281 SPIN=   0.00000
   O  -0.0540981   0.3549862  -0.0507401 SPIN=   0.00000
   O  -0.1706339   0.0473696  -0.1248224 SPIN=   0.00000
   O  -0.3316109   0.2409144   0.1128797 SPIN=   0.00000
   S  -0.2391572   0.2332223  -0.0597027 SPIN=   0.00000
   F  -0.2834315  -0.2334345  -0.4209369 SPIN=   0.00000
   F  -0.2834315   0.2334345   0.4209369 SPIN=   0.00000
   F   0.2144573  -0.3576702   0.2875156 SPIN=   0.00000
   F   0.2144573   0.3576702  -0.2875156 SPIN=   0.00000
%ENDBLOCK POSITIONS_FRAC

# Note: total spin =  16.00

KPOINTS_MP_SPACING 0.07

%BLOCK SPECIES_POT
QC5
%ENDBLOCK SPECIES_POT

SNAP_TO_SYMMETRY
SYMMETRY_GENERATE

