#              Generated by Buildcell
#
# at 05:50:02 (GMT+1.0) 4th August 2020
# in /lustre/scratch/uccabz1/launch_tmp
# on node-c12c-034
# by uccabz1
#
# compiler GCC version 4.9.2
# options -cpp -iprefix /lustre/shared/ucl/apps/gcc/4.9.2/bin/../lib/gcc/x86_64-unknown-linux-gnu/4.9.2/ -mtune=corei7 -march=x86-64 -g -Og
#
# seed -2075610023 -1304743090  1063015718  1787746437  1109052279   338760821  1155824983  1274425417 -1304878023  -605551427  -792782673 -1876917161
#
#      Author: C. J. Pickard (cjp20@cam.ac.uk)
#                Space group: P212121
#

%BLOCK LATTICE_ABC
      6.98297      7.37852      7.76338
     90.00000     90.00000     90.00000
%ENDBLOCK LATTICE_ABC

%BLOCK POSITIONS_FRAC
  Li  -0.3125753  -0.4977425  -0.3465627 SPIN=   0.00000
  Li  -0.1874247   0.0022575   0.3465627 SPIN=   0.00000
  Li   0.3125753  -0.0022575   0.1534373 SPIN=   0.00000
  Li   0.1874247   0.4977425  -0.1534373 SPIN=   0.00000
  Fe   0.3523175  -0.2689884  -0.4277501 SPIN=   4.00000
  Fe   0.1476825   0.2310116   0.4277501 SPIN=   4.00000
  Fe  -0.3523175  -0.2310116   0.0722499 SPIN=   4.00000
  Fe  -0.1476825   0.2689884  -0.0722499 SPIN=   4.00000
   O  -0.4993744   0.5191783   0.4594804 SPIN=   0.00000
   O  -0.2918142   0.4859678   0.2030149 SPIN=   0.00000
   O  -0.5779938   0.2912707   0.2365331 SPIN=   0.00000
   O  -0.2968744   0.2461831   0.4258778 SPIN=   0.00000
   S  -0.4165142   0.3856500   0.3312266 SPIN=   0.00000
   O  -0.0006256   0.0191783  -0.4594804 SPIN=   0.00000
   O  -0.2081858  -0.0140322  -0.2030149 SPIN=   0.00000
   O   0.0779938  -0.2087293  -0.2365331 SPIN=   0.00000
   O  -0.2031256  -0.2538169  -0.4258778 SPIN=   0.00000
   S  -0.0834858  -0.1143500  -0.3312266 SPIN=   0.00000
   O   0.4993744  -0.0191783  -0.0405196 SPIN=   0.00000
   O   0.2918142   0.0140322  -0.2969851 SPIN=   0.00000
   O   0.5779938   0.2087293  -0.2634669 SPIN=   0.00000
   O   0.2968744   0.2538169  -0.0741222 SPIN=   0.00000
   S   0.4165142   0.1143500  -0.1687734 SPIN=   0.00000
   O   0.0006256  -0.5191783   0.0405196 SPIN=   0.00000
   O   0.2081858  -0.4859678   0.2969851 SPIN=   0.00000
   O  -0.0779938  -0.2912707   0.2634669 SPIN=   0.00000
   O   0.2031256  -0.2461831   0.0741222 SPIN=   0.00000
   S   0.0834858  -0.3856500   0.1687734 SPIN=   0.00000
   F   0.0328846   0.3885716  -0.3951683 SPIN=   0.00000
   F   0.4671154  -0.1114284   0.3951683 SPIN=   0.00000
   F  -0.0328846   0.1114284   0.1048317 SPIN=   0.00000
   F  -0.4671154  -0.3885716  -0.1048317 SPIN=   0.00000
%ENDBLOCK POSITIONS_FRAC

# Note: total spin =  16.00

KPOINTS_MP_SPACING 0.07

%BLOCK SPECIES_POT
QC5
%ENDBLOCK SPECIES_POT

SNAP_TO_SYMMETRY
SYMMETRY_GENERATE

