#              Generated by Buildcell
#
# at 10:48:44 (GMT+1.0) 18th August 2020
# in /lustre/scratch/uccabz1/launch_tmp
# on node-c12p-010
# by uccabz1
#
# compiler GCC version 4.9.2
# options -cpp -iprefix /lustre/shared/ucl/apps/gcc/4.9.2/bin/../lib/gcc/x86_64-unknown-linux-gnu/4.9.2/ -mtune=corei7 -march=x86-64 -g -Og
#
# seed  2119203214  -594176931 -1372687533   931005053  -504941657   820060620   473118916  1578618124    31252616   857091448  1471268408    46098858
#
#      Author: C. J. Pickard (cjp20@cam.ac.uk)
#                Space group: C2
#

%BLOCK LATTICE_ABC
      5.22969      6.23204     13.52083
     90.02530     90.00000    114.80811
%ENDBLOCK LATTICE_ABC

%BLOCK POSITIONS_FRAC
  Li   0.2999701  -0.3020525   0.4966524 SPIN=   0.00000
  Li  -0.3979774   0.3020525  -0.4966524 SPIN=   0.00000
  Li   0.2787240  -0.3132556  -0.0396139 SPIN=   0.00000
  Li  -0.4080204   0.3132556   0.0396139 SPIN=   0.00000
  Fe   0.0622214   0.2232048   0.4048571 SPIN=   0.59545
  Fe  -0.1609834  -0.2232048  -0.4048571 SPIN=   0.59545
  Fe  -0.2652558  -0.3936261   0.2521133 SPIN=   7.40455
  Fe   0.1283703   0.3936261  -0.2521133 SPIN=   7.40455
   O   0.1881782  -0.2495416   0.2624204 SPIN=   0.00000
   O   0.3835122  -0.0206422   0.4152867 SPIN=   0.00000
   O   0.4516429   0.1854559   0.2544361 SPIN=   0.00000
   O   0.7035059  -0.0648010   0.2901496 SPIN=   0.00000
   S   0.4317098  -0.0373822   0.3055732 SPIN=   0.00000
   O   0.4377198   0.2495416  -0.2624204 SPIN=   0.00000
   O   0.4041544   0.0206422  -0.4152867 SPIN=   0.00000
   O   0.2661870  -0.1854559  -0.2544361 SPIN=   0.00000
   O   0.7683069   0.0648010  -0.2901496 SPIN=   0.00000
   S   0.4690920   0.0373822  -0.3055732 SPIN=   0.00000
   O   0.1830875   0.3878440   0.2616503 SPIN=   0.00000
   O   0.2156685   0.5725124   0.0973695 SPIN=   0.00000
   O  -0.2134959   0.2194816   0.1435411 SPIN=   0.00000
   O   0.2319576   0.1824373   0.1110045 SPIN=   0.00000
   S   0.1043044   0.3405688   0.1533913 SPIN=   0.00000
   O  -0.2047565  -0.3878440  -0.2616503 SPIN=   0.00000
   O  -0.3568439  -0.5725124  -0.0973695 SPIN=   0.00000
   O  -0.4329775  -0.2194816  -0.1435411 SPIN=   0.00000
   O   0.0495203  -0.1824373  -0.1110045 SPIN=   0.00000
   S  -0.2362644  -0.3405688  -0.1533913 SPIN=   0.00000
   F   0.0640989   0.2657344  -0.1011690 SPIN=   0.00000
   F  -0.2016355  -0.2657344   0.1011690 SPIN=   0.00000
   F  -0.2726415  -0.4482996   0.3884172 SPIN=   0.00000
   F   0.1756580   0.4482996  -0.3884172 SPIN=   0.00000
%ENDBLOCK POSITIONS_FRAC

# Note: total spin =  16.00

KPOINTS_MP_SPACING 0.07

%BLOCK SPECIES_POT
QC5
%ENDBLOCK SPECIES_POT

SNAP_TO_SYMMETRY
SYMMETRY_GENERATE

