#              Generated by Buildcell
#
# at 09:59:32 (GMT+1.0) 4th August 2020
# in /lustre/scratch/uccabz1/launch_tmp
# on node-c12m-027
# by uccabz1
#
# compiler GCC version 4.9.2
# options -cpp -iprefix /lustre/shared/ucl/apps/gcc/4.9.2/bin/../lib/gcc/x86_64-unknown-linux-gnu/4.9.2/ -mtune=corei7 -march=x86-64 -g -Og
#
# seed  -117918897 -2084011817    31434004  -457230045 -1081480100   344618005  -783745658  -595544063 -1142369375 -2145307945   776271424   127846879
#
#      Author: C. J. Pickard (cjp20@cam.ac.uk)
#                Space group: Cc
#

%BLOCK LATTICE_ABC
      6.82096      7.02472      9.23570
     85.07815     68.32932     76.56505
%ENDBLOCK LATTICE_ABC

%BLOCK POSITIONS_FRAC
  Li  -0.4064215  -0.3117688  -0.0218754 SPIN=   0.00000
  Li   0.0717031   0.1882312   0.0218754 SPIN=   0.00000
  Li  -0.3681927   0.0414068   0.4075887 SPIN=   0.00000
  Li  -0.4606040  -0.4585932  -0.4075887 SPIN=   0.00000
  Fe   0.1543697   0.3501702  -0.3281669 SPIN=   4.19901
  Fe   0.3262028  -0.1498298   0.3281669 SPIN=   4.19901
  Fe   0.1641610   0.3873978   0.2628500 SPIN=   3.80099
  Fe  -0.0729890  -0.1126022  -0.2628500 SPIN=   3.80099
   O   0.1137125  -0.3630696   0.1269921 SPIN=   0.00000
   O  -0.2589565  -0.1753720   0.2602151 SPIN=   0.00000
   O  -0.0290791  -0.0600269   0.0075226 SPIN=   0.00000
   O   0.0530574  -0.0411128   0.2447963 SPIN=   0.00000
   S  -0.0303164  -0.1598953   0.1598815 SPIN=   0.00000
   O  -0.2592954   0.1369304  -0.1269921 SPIN=   0.00000
   O  -0.4987413   0.3246280  -0.2602151 SPIN=   0.00000
   O  -0.5215565   0.4399731  -0.0075226 SPIN=   0.00000
   O  -0.2021463   0.4588872  -0.2447963 SPIN=   0.00000
   S  -0.3704349   0.3401047  -0.1598815 SPIN=   0.00000
   O  -0.3324622   0.5731030   0.1512555 SPIN=   0.00000
   O  -0.5803751   0.3839711   0.3395725 SPIN=   0.00000
   O  -0.2683141   0.4429297   0.3912938 SPIN=   0.00000
   O  -0.2087702   0.2166770   0.1805895 SPIN=   0.00000
   S  -0.3474804   0.4041702   0.2656778 SPIN=   0.00000
   O   0.3187933   0.0731030  -0.1512555 SPIN=   0.00000
   O   0.2591974  -0.1160289  -0.3395725 SPIN=   0.00000
   O   0.6229798  -0.0570703  -0.3912938 SPIN=   0.00000
   O   0.4718193  -0.2833230  -0.1805895 SPIN=   0.00000
   S   0.4181974  -0.0958298  -0.2656778 SPIN=   0.00000
   F   0.0705198   0.4498750  -0.0941414 SPIN=   0.00000
   F   0.4763784  -0.0501250   0.0941414 SPIN=   0.00000
   F   0.0664259   0.2066695   0.4413290 SPIN=   0.00000
   F   0.0077549  -0.2933305  -0.4413290 SPIN=   0.00000
%ENDBLOCK POSITIONS_FRAC

# Note: total spin =  16.00

KPOINTS_MP_SPACING 0.07

%BLOCK SPECIES_POT
QC5
%ENDBLOCK SPECIES_POT

SNAP_TO_SYMMETRY
SYMMETRY_GENERATE

