#              Generated by Buildcell
#
# at 03:05:02 (GMT+1.0) 18th August 2020
# in /lustre/scratch/uccabz1/launch_tmp
# on node-c12p-003
# by uccabz1
#
# compiler GCC version 4.9.2
# options -cpp -iprefix /lustre/shared/ucl/apps/gcc/4.9.2/bin/../lib/gcc/x86_64-unknown-linux-gnu/4.9.2/ -mtune=corei7 -march=x86-64 -g -Og
#
# seed   935148834 -1690727368  1145988693   372547677   737483707   911445862  1606105566   -42179103   218576163  1286993248  1162413853  1470833012
#
#      Author: C. J. Pickard (cjp20@cam.ac.uk)
#                Space group: C2
#

%BLOCK LATTICE_ABC
      6.94026      7.40184      9.41328
    108.04653     90.00000    117.95774
%ENDBLOCK LATTICE_ABC

%BLOCK POSITIONS_FRAC
  Li  -0.0581411   0.2745852  -0.0201432 SPIN=   0.00000
  Li  -0.3327263  -0.2745852   0.0201432 SPIN=   0.00000
  Li   0.4009353  -0.3384828   0.3601648 SPIN=   0.00000
  Li  -0.2605818   0.3384828  -0.3601648 SPIN=   0.00000
  Fe   0.2480683  -0.0860476   0.2501852 SPIN=   2.86537
  Fe   0.3341159   0.0860476  -0.2501852 SPIN=   2.86537
  Fe  -0.2798534  -0.1472151  -0.2756129 SPIN=   5.13463
  Fe  -0.1326382   0.1472151   0.2756129 SPIN=   5.13463
   O  -0.2141869   0.4436770  -0.0118375 SPIN=   0.00000
   O  -0.4065741   0.5607129   0.1872814 SPIN=   0.00000
   O  -0.3091151   0.2793924   0.1881776 SPIN=   0.00000
   O  -0.6054731   0.1919862  -0.0097250 SPIN=   0.00000
   S  -0.3838373   0.3689421   0.0884741 SPIN=   0.00000
   O   0.3421361  -0.4436770   0.0118375 SPIN=   0.00000
   O   0.0327130  -0.5607129  -0.1872814 SPIN=   0.00000
   O   0.4114925  -0.2793924  -0.1881776 SPIN=   0.00000
   O   0.2025407  -0.1919862   0.0097250 SPIN=   0.00000
   S   0.2472206  -0.3689421  -0.0884741 SPIN=   0.00000
   O   0.1027344   0.2328651  -0.5160714 SPIN=   0.00000
   O   0.4419278   0.3437081  -0.3471123 SPIN=   0.00000
   O   0.4265275   0.6022411  -0.4558025 SPIN=   0.00000
   O   0.4427644   0.2784004  -0.6213020 SPIN=   0.00000
   S   0.3534885   0.3643037  -0.4850721 SPIN=   0.00000
   O  -0.1301307  -0.2328651   0.5160714 SPIN=   0.00000
   O   0.0982197  -0.3437081   0.3471123 SPIN=   0.00000
   O  -0.1757136  -0.6022411   0.4558025 SPIN=   0.00000
   O   0.1643640  -0.2784004   0.6213020 SPIN=   0.00000
   S  -0.0108151  -0.3643037   0.4850721 SPIN=   0.00000
   F  -0.4820478  -0.0809672   0.2866691 SPIN=   0.00000
   F  -0.4010807   0.0809672  -0.2866691 SPIN=   0.00000
   F  -0.1786940  -0.2699928  -0.1634676 SPIN=   0.00000
   F   0.0912988   0.2699928   0.1634676 SPIN=   0.00000
%ENDBLOCK POSITIONS_FRAC

# Note: total spin =  16.00

KPOINTS_MP_SPACING 0.07

%BLOCK SPECIES_POT
QC5
%ENDBLOCK SPECIES_POT

SNAP_TO_SYMMETRY
SYMMETRY_GENERATE

