#              Generated by Buildcell
#
# at 06:50:50 (GMT+1.0) 4th August 2020
# in /lustre/scratch/uccabz1/launch_tmp
# on node-c12n-011
# by uccabz1
#
# compiler GCC version 4.9.2
# options -cpp -iprefix /lustre/shared/ucl/apps/gcc/4.9.2/bin/../lib/gcc/x86_64-unknown-linux-gnu/4.9.2/ -mtune=corei7 -march=x86-64 -g -Og
#
# seed  1619743719   189344966 -1425920886  -357907017 -1856140926   488185490  -380994314   740317404   672443933   580932589 -1567742344   192051803
#
#      Author: C. J. Pickard (cjp20@cam.ac.uk)
#                Space group: C2
#

%BLOCK LATTICE_ABC
      7.43061      7.43061      8.48803
     68.27307     68.27307     89.45085
%ENDBLOCK LATTICE_ABC

%BLOCK POSITIONS_FRAC
  Li  -0.0305660   0.1544326   0.1764891 SPIN=   0.00000
  Li  -0.1544326   0.0305660  -0.1764891 SPIN=   0.00000
  Li   0.4878881  -0.4369896   0.2090678 SPIN=   0.00000
  Li   0.4369896  -0.4878881  -0.2090678 SPIN=   0.00000
  Fe   0.1164387   0.2779721   0.4095194 SPIN=   4.63203
  Fe  -0.2779721  -0.1164387  -0.4095194 SPIN=   4.63203
  Fe  -0.0757008  -0.4202858   0.0837370 SPIN=   3.36797
  Fe   0.4202858   0.0757008  -0.0837370 SPIN=   3.36797
   O  -0.0085187   0.2983856  -0.3225050 SPIN=   0.00000
   O   0.1105437   0.1553844  -0.0722825 SPIN=   0.00000
   O  -0.0191240   0.4707018  -0.1200656 SPIN=   0.00000
   O   0.2992699   0.4535362  -0.3469437 SPIN=   0.00000
   S   0.0955427   0.3445020  -0.2154492 SPIN=   0.00000
   O  -0.2983856   0.0085187   0.3225050 SPIN=   0.00000
   O  -0.1553844  -0.1105437   0.0722825 SPIN=   0.00000
   O  -0.4707018   0.0191240   0.1200656 SPIN=   0.00000
   O  -0.4535362  -0.2992699   0.3469437 SPIN=   0.00000
   S  -0.3445020  -0.0955427   0.2154492 SPIN=   0.00000
   O   0.1042467  -0.0354967   0.3098172 SPIN=   0.00000
   O   0.1057344  -0.3747699   0.5130335 SPIN=   0.00000
   O   0.2967763  -0.2551141   0.1759698 SPIN=   0.00000
   O  -0.0654161  -0.3148060   0.3015596 SPIN=   0.00000
   S   0.1103353  -0.2450467   0.3250950 SPIN=   0.00000
   O   0.0354967  -0.1042467  -0.3098172 SPIN=   0.00000
   O   0.3747699  -0.1057344  -0.5130335 SPIN=   0.00000
   O   0.2551141  -0.2967763  -0.1759698 SPIN=   0.00000
   O   0.3148060   0.0654161  -0.3015596 SPIN=   0.00000
   S   0.2450467  -0.1103353  -0.3250950 SPIN=   0.00000
   F  -0.3953648   0.3017717  -0.2603916 SPIN=   0.00000
   F  -0.3017717   0.3953648   0.2603916 SPIN=   0.00000
   F   0.2379425   0.3578383   0.1489446 SPIN=   0.00000
   F  -0.3578383  -0.2379425  -0.1489446 SPIN=   0.00000
%ENDBLOCK POSITIONS_FRAC

# Note: total spin =  16.00

KPOINTS_MP_SPACING 0.07

%BLOCK SPECIES_POT
QC5
%ENDBLOCK SPECIES_POT

SNAP_TO_SYMMETRY
SYMMETRY_GENERATE

