#              Generated by Buildcell
#
# at 07:57:16 (GMT+1.0) 4th August 2020
# in /lustre/scratch/uccabz1/launch_tmp
# on node-c12p-010
# by uccabz1
#
# compiler GCC version 4.9.2
# options -cpp -iprefix /lustre/shared/ucl/apps/gcc/4.9.2/bin/../lib/gcc/x86_64-unknown-linux-gnu/4.9.2/ -mtune=corei7 -march=x86-64 -g -Og
#
# seed   812756126 -1479055726   289837404   -35909624 -1293836705    47995022  2123748036 -1207703815   162194231   149722511 -1223746184  1887425626
#
#      Author: C. J. Pickard (cjp20@cam.ac.uk)
#                Space group: Cc
#

%BLOCK LATTICE_ABC
      5.27094      8.96210      8.96210
     73.18121     82.59942     82.59942
%ENDBLOCK LATTICE_ABC

%BLOCK POSITIONS_FRAC
  Li  -0.0465027  -0.4208357   0.0145760 SPIN=   0.00000
  Li   0.4534973   0.0145760  -0.4208357 SPIN=   0.00000
  Li  -0.0321751   0.1684063  -0.1088514 SPIN=   0.00000
  Li   0.4678249  -0.1088514   0.1684063 SPIN=   0.00000
  Fe   0.3889279   0.3122672   0.0799465 SPIN=   3.24979
  Fe  -0.1110721   0.0799465   0.3122672 SPIN=   3.24979
  Fe  -0.3192037   0.3439020  -0.4222795 SPIN=   4.75021
  Fe   0.1807963  -0.4222795   0.3439020 SPIN=   4.75021
   O  -0.0875053  -0.2035250  -0.2676501 SPIN=   0.00000
   O   0.0342081   0.0364269  -0.4700646 SPIN=   0.00000
   O   0.1248169  -0.0068655  -0.1957566 SPIN=   0.00000
   O  -0.3234165   0.0533365  -0.2658168 SPIN=   0.00000
   S  -0.0629742  -0.0301568  -0.2998220 SPIN=   0.00000
   O   0.4124947  -0.2676501  -0.2035250 SPIN=   0.00000
   O   0.5342081  -0.4700646   0.0364269 SPIN=   0.00000
   O   0.6248169  -0.1957566  -0.0068655 SPIN=   0.00000
   O   0.1765835  -0.2658168   0.0533365 SPIN=   0.00000
   S   0.4370258  -0.2998220  -0.0301568 SPIN=   0.00000
   O  -0.3516523  -0.4109377   0.5991227 SPIN=   0.00000
   O  -0.1804554  -0.1541246   0.4783300 SPIN=   0.00000
   O  -0.6485305  -0.1745571   0.5018820 SPIN=   0.00000
   O  -0.3577305  -0.2874430   0.3141461 SPIN=   0.00000
   S  -0.3845922  -0.2567656   0.4733702 SPIN=   0.00000
   O   0.1483477   0.5991227  -0.4109377 SPIN=   0.00000
   O   0.3195446   0.4783300  -0.1541246 SPIN=   0.00000
   O  -0.1485305   0.5018820  -0.1745571 SPIN=   0.00000
   O   0.1422695   0.3141461  -0.2874430 SPIN=   0.00000
   S   0.1154078   0.4733702  -0.2567656 SPIN=   0.00000
   F  -0.3698637   0.2102986  -0.0480366 SPIN=   0.00000
   F   0.1301363  -0.0480366   0.2102986 SPIN=   0.00000
   F   0.4293330   0.2234464   0.4816558 SPIN=   0.00000
   F  -0.0706670   0.4816558   0.2234464 SPIN=   0.00000
%ENDBLOCK POSITIONS_FRAC

# Note: total spin =  16.00

KPOINTS_MP_SPACING 0.07

%BLOCK SPECIES_POT
QC5
%ENDBLOCK SPECIES_POT

SNAP_TO_SYMMETRY
SYMMETRY_GENERATE

