#              Generated by Buildcell
#
# at 06:33:01 (GMT+1.0) 4th August 2020
# in /lustre/scratch/uccabz1/launch_tmp
# on node-c12l-027
# by uccabz1
#
# compiler GCC version 4.9.2
# options -cpp -iprefix /lustre/shared/ucl/apps/gcc/4.9.2/bin/../lib/gcc/x86_64-unknown-linux-gnu/4.9.2/ -mtune=corei7 -march=x86-64 -g -Og
#
# seed  1939991501 -1275770136  1645235721 -1429231324 -1298186546 -1179327151 -2106341915  -358651034  1167328513 -1329741066 -1468608095  1242763649
#
#      Author: C. J. Pickard (cjp20@cam.ac.uk)
#                Space group: P-1
#

%BLOCK LATTICE_ABC
      6.41898      7.43413      9.55149
     72.07535     72.78550     70.89190
%ENDBLOCK LATTICE_ABC

%BLOCK POSITIONS_FRAC
  Li  -0.7222671  -0.2162991   0.4503972 SPIN=   0.00000
  Li   0.7222671   0.2162991  -0.4503972 SPIN=   0.00000
  Li  -0.6495798   0.3715350   0.2403602 SPIN=   0.00000
  Li   0.6495798  -0.3715350  -0.2403602 SPIN=   0.00000
  Fe  -0.1320580   0.2298654   0.2100194 SPIN=   2.53573
  Fe   0.1320580  -0.2298654  -0.2100194 SPIN=   2.53573
  Fe  -0.2714692  -0.2348402   0.2067159 SPIN=   5.46427
  Fe   0.2714692   0.2348402  -0.2067159 SPIN=   5.46427
   O   0.0017884   0.1063790  -0.1211998 SPIN=   0.00000
   O  -0.3485558   0.3556843  -0.0475108 SPIN=   0.00000
   O  -0.3412917   0.0042158   0.0366750 SPIN=   0.00000
   O  -0.3273326   0.1745602  -0.2317526 SPIN=   0.00000
   S  -0.2538479   0.1602098  -0.0909471 SPIN=   0.00000
   O  -0.0017884  -0.1063790   0.1211998 SPIN=   0.00000
   O   0.3485558  -0.3556843   0.0475108 SPIN=   0.00000
   O   0.3412917  -0.0042158  -0.0366750 SPIN=   0.00000
   O   0.3273326  -0.1745602   0.2317526 SPIN=   0.00000
   S   0.2538479  -0.1602098   0.0909471 SPIN=   0.00000
   O   0.2783054  -0.0075079  -0.3292643 SPIN=   0.00000
   O   0.3208114   0.1375824  -0.6033929 SPIN=   0.00000
   O   0.3424904   0.3232494  -0.4352832 SPIN=   0.00000
   O  -0.0232437   0.2704029  -0.4254359 SPIN=   0.00000
   O  -0.2783054   0.0075079   0.3292643 SPIN=   0.00000
   O  -0.3208114  -0.1375824   0.6033929 SPIN=   0.00000
   O  -0.3424904  -0.3232494   0.4352832 SPIN=   0.00000
   O   0.0232437  -0.2704029   0.4254359 SPIN=   0.00000
   S  -0.5000000   0.0000000   0.5000000 SPIN=   0.00000
   S  -0.0000000   0.5000000  -0.5000000 SPIN=   0.00000
   F  -0.2088976  -0.3016534  -0.1129516 SPIN=   0.00000
   F   0.2088976   0.3016534   0.1129516 SPIN=   0.00000
   F   0.3978950  -0.4402595  -0.2766504 SPIN=   0.00000
   F  -0.3978950   0.4402595   0.2766504 SPIN=   0.00000
%ENDBLOCK POSITIONS_FRAC

# Note: total spin =  16.00

KPOINTS_MP_SPACING 0.07

%BLOCK SPECIES_POT
QC5
%ENDBLOCK SPECIES_POT

SNAP_TO_SYMMETRY
SYMMETRY_GENERATE

