#              Generated by Buildcell
#
# at 10:27:01 (GMT+1.0) 4th August 2020
# in /lustre/scratch/uccabz1/launch_tmp
# on node-c12g-031
# by uccabz1
#
# compiler GCC version 4.9.2
# options -cpp -iprefix /lustre/shared/ucl/apps/gcc/4.9.2/bin/../lib/gcc/x86_64-unknown-linux-gnu/4.9.2/ -mtune=corei7 -march=x86-64 -g -Og
#
# seed   171945325   659663508  1291073628   298172542 -1585565170 -1628947034   891589181   -98092688  -371352535  -834407202  -896430130  -147360520
#
#      Author: C. J. Pickard (cjp20@cam.ac.uk)
#                Space group: Pca21
#

%BLOCK LATTICE_ABC
      3.86981      8.44329     12.24217
     90.00000     90.00000     90.00000
%ENDBLOCK LATTICE_ABC

%BLOCK POSITIONS_FRAC
  Li   0.3611060  -0.4550876   0.3454879 SPIN=   0.00000
  Li  -0.3611060   0.4550876  -0.1545121 SPIN=   0.00000
  Li  -0.3611060   0.0449124   0.3454879 SPIN=   0.00000
  Li   0.3611060  -0.0449124  -0.1545121 SPIN=   0.00000
  Fe   0.1733278  -0.0144468  -0.4717129 SPIN=   4.00000
  Fe  -0.1733278   0.0144468   0.0282871 SPIN=   4.00000
  Fe  -0.1733278   0.4855532  -0.4717129 SPIN=   4.00000
  Fe   0.1733278  -0.4855532   0.0282871 SPIN=   4.00000
   O  -0.0859837   0.2008922  -0.3574665 SPIN=   0.00000
   O   0.4335838   0.1305367  -0.2500423 SPIN=   0.00000
   O   0.0642764   0.3545530  -0.1919941 SPIN=   0.00000
   O   0.4237172   0.3779279  -0.3584240 SPIN=   0.00000
   S   0.2088984   0.2659774  -0.2894817 SPIN=   0.00000
   O   0.0859837  -0.2008922   0.1425335 SPIN=   0.00000
   O  -0.4335838  -0.1305367   0.2499577 SPIN=   0.00000
   O  -0.0642764  -0.3545530   0.3080059 SPIN=   0.00000
   O  -0.4237172  -0.3779279   0.1415760 SPIN=   0.00000
   S  -0.2088984  -0.2659774   0.2105183 SPIN=   0.00000
   O   0.0859837  -0.2991078  -0.3574665 SPIN=   0.00000
   O  -0.4335838  -0.3694633  -0.2500423 SPIN=   0.00000
   O  -0.0642764  -0.1454470  -0.1919941 SPIN=   0.00000
   O  -0.4237172  -0.1220721  -0.3584240 SPIN=   0.00000
   S  -0.2088984  -0.2340226  -0.2894817 SPIN=   0.00000
   O  -0.0859837   0.2991078   0.1425335 SPIN=   0.00000
   O   0.4335838   0.3694633   0.2499577 SPIN=   0.00000
   O   0.0642764   0.1454470   0.3080059 SPIN=   0.00000
   O   0.4237172   0.1220721   0.1415760 SPIN=   0.00000
   S   0.2088984   0.2340226   0.2105183 SPIN=   0.00000
   F   0.2933437  -0.1881966   0.4509239 SPIN=   0.00000
   F  -0.2933437   0.1881966  -0.0490761 SPIN=   0.00000
   F  -0.2933437   0.3118034   0.4509239 SPIN=   0.00000
   F   0.2933437  -0.3118034  -0.0490761 SPIN=   0.00000
%ENDBLOCK POSITIONS_FRAC

# Note: total spin =  16.00

KPOINTS_MP_SPACING 0.07

%BLOCK SPECIES_POT
QC5
%ENDBLOCK SPECIES_POT

SNAP_TO_SYMMETRY
SYMMETRY_GENERATE

