#              Generated by Buildcell
#
# at 17:28:34 (GMT+1.0) 18th August 2020
# in /scratch/scratch/uccabz1/launch_tmp
# on node-k10c-026
# by uccabz1
#
# compiler GCC version 4.9.2
# options -cpp -iprefix /scratch/UCL/applications/gcc/4.9.2/bin/../lib/gcc/x86_64-unknown-linux-gnu/4.9.2/ -mtune=corei7 -march=x86-64 -g -O2
#
# seed  -437460237  2038272287  -515776702 -1300644951  -217645410 -1084060734   239906139 -1479765392   283818694  -360273642 -1452053968  1882687177
#
#      Author: C. J. Pickard (cjp20@cam.ac.uk)
#                Space group: Aea2
#

%BLOCK LATTICE_ABC
      6.25133      6.25133     11.38743
     90.00000     90.00000    115.99227
%ENDBLOCK LATTICE_ABC

%BLOCK POSITIONS_FRAC
  Li   0.0455696   0.0061925   0.3331838 SPIN=   0.00000
  Li  -0.0061925  -0.0455696  -0.3331838 SPIN=   0.00000
  Li   0.4938075   0.4544304  -0.1668162 SPIN=   0.00000
  Li  -0.4544304  -0.4938075   0.1668162 SPIN=   0.00000
  Fe   0.8586680   0.4908191   0.3525738 SPIN=   4.00000
  Fe   0.5091809   0.1413320  -0.3525738 SPIN=   4.00000
  Fe   0.0091809  -0.3586680  -0.1474262 SPIN=   4.00000
  Fe   0.3586680  -0.0091809   0.1474262 SPIN=   4.00000
   O  -0.4403594   0.0630815  -0.0025330 SPIN=   0.00000
   O  -0.6578655  -0.3220322  -0.1045453 SPIN=   0.00000
   O  -0.2282625  -0.1736442  -0.0619151 SPIN=   0.00000
   O  -0.3629028   0.0252672  -0.2128217 SPIN=   0.00000
   S  -0.4223476  -0.1018319  -0.0954537 SPIN=   0.00000
   O  -0.0630815   0.4403594   0.0025330 SPIN=   0.00000
   O   0.3220322   0.6578655   0.1045453 SPIN=   0.00000
   O   0.1736442   0.2282625   0.0619151 SPIN=   0.00000
   O  -0.0252672   0.3629028   0.2128217 SPIN=   0.00000
   S   0.1018319   0.4223476   0.0954537 SPIN=   0.00000
   O  -0.5630815  -0.0596406   0.4974670 SPIN=   0.00000
   O  -0.1779678   0.1578655   0.3954547 SPIN=   0.00000
   O  -0.3263558  -0.2717375   0.4380849 SPIN=   0.00000
   O  -0.5252672  -0.1370972   0.2871783 SPIN=   0.00000
   S  -0.3981681  -0.0776524   0.4045463 SPIN=   0.00000
   O   0.0596406   0.5630815  -0.4974670 SPIN=   0.00000
   O  -0.1578655   0.1779678  -0.3954547 SPIN=   0.00000
   O   0.2717375   0.3263558  -0.4380849 SPIN=   0.00000
   O   0.1370972   0.5252672  -0.2871783 SPIN=   0.00000
   S   0.0776524   0.3981681  -0.4045463 SPIN=   0.00000
   F   0.3600698   0.3152616   0.3472930 SPIN=   0.00000
   F  -0.3152616  -0.3600698  -0.3472930 SPIN=   0.00000
   F   0.1847384   0.1399302  -0.1527070 SPIN=   0.00000
   F  -0.1399302  -0.1847384   0.1527070 SPIN=   0.00000
%ENDBLOCK POSITIONS_FRAC

# Note: total spin =  16.00

KPOINTS_MP_SPACING 0.07

%BLOCK SPECIES_POT
QC5
%ENDBLOCK SPECIES_POT

SNAP_TO_SYMMETRY
SYMMETRY_GENERATE

