#              Generated by Buildcell
#
# at 09:54:58 (GMT+1.0) 4th August 2020
# in /lustre/scratch/uccabz1/launch_tmp
# on node-c12a-017
# by uccabz1
#
# compiler GCC version 4.9.2
# options -cpp -iprefix /lustre/shared/ucl/apps/gcc/4.9.2/bin/../lib/gcc/x86_64-unknown-linux-gnu/4.9.2/ -mtune=corei7 -march=x86-64 -g -Og
#
# seed -1785593740  -154839085   871550005   185286055  1394815922 -1351925484 -2075959565  -313092722  -767934830  1384728606  1758261002 -2061086112
#
#      Author: C. J. Pickard (cjp20@cam.ac.uk)
#                Space group: Pc
#

%BLOCK LATTICE_ABC
      4.59203      7.64214     11.45954
     95.92527     90.00000     90.00000
%ENDBLOCK LATTICE_ABC

%BLOCK POSITIONS_FRAC
  Li   0.2892014   0.0430238  -0.2579710 SPIN=   0.00000
  Li  -0.2892014   0.0430238   0.2420290 SPIN=   0.00000
  Li   0.2108555  -0.3380455   0.1975807 SPIN=   0.00000
  Li  -0.2108555  -0.3380455  -0.3024193 SPIN=   0.00000
  Fe   0.1783765  -0.0256684   0.4265807 SPIN=   1.99673
  Fe  -0.1783765  -0.0256684  -0.0734193 SPIN=   1.99673
  Fe  -0.2626133   0.4394759   0.0588794 SPIN=   6.00327
  Fe   0.2626133   0.4394759  -0.4411206 SPIN=   6.00327
   O  -0.4175112  -0.2458341   0.3308638 SPIN=   0.00000
   O  -0.2511519  -0.3151299   0.5263049 SPIN=   0.00000
   O   0.0601377  -0.3892632   0.3518982 SPIN=   0.00000
   O  -0.3948784  -0.5553859   0.3758736 SPIN=   0.00000
   S  -0.2508509  -0.3764033   0.3962351 SPIN=   0.00000
   O   0.4175112  -0.2458341  -0.1691362 SPIN=   0.00000
   O   0.2511519  -0.3151299   0.0263049 SPIN=   0.00000
   O  -0.0601377  -0.3892632  -0.1481018 SPIN=   0.00000
   O   0.3948784  -0.5553859  -0.1241264 SPIN=   0.00000
   S   0.2508509  -0.3764033  -0.1037649 SPIN=   0.00000
   O  -0.5625569   0.2697156  -0.3021653 SPIN=   0.00000
   O  -0.1780511   0.2811415  -0.1502365 SPIN=   0.00000
   O  -0.0886171   0.4098488  -0.3364872 SPIN=   0.00000
   O  -0.1197226   0.0867351  -0.3352773 SPIN=   0.00000
   S  -0.2372369   0.2618602  -0.2810416 SPIN=   0.00000
   O   0.5625569   0.2697156   0.1978347 SPIN=   0.00000
   O   0.1780511   0.2811415   0.3497635 SPIN=   0.00000
   O   0.0886171   0.4098488   0.1635128 SPIN=   0.00000
   O   0.1197226   0.0867351   0.1647227 SPIN=   0.00000
   S   0.2372369   0.2618602   0.2189584 SPIN=   0.00000
   F   0.2488851  -0.1827791  -0.3892930 SPIN=   0.00000
   F  -0.2488851  -0.1827791   0.1107070 SPIN=   0.00000
   F   0.2634995   0.0925116  -0.0824298 SPIN=   0.00000
   F  -0.2634995   0.0925116   0.4175702 SPIN=   0.00000
%ENDBLOCK POSITIONS_FRAC

# Note: total spin =  16.00

KPOINTS_MP_SPACING 0.07

%BLOCK SPECIES_POT
QC5
%ENDBLOCK SPECIES_POT

SNAP_TO_SYMMETRY
SYMMETRY_GENERATE

