#              Generated by Buildcell
#
# at 06:57:28 (GMT+1.0) 4th August 2020
# in /lustre/scratch/uccabz1/launch_tmp
# on node-c12g-029
# by uccabz1
#
# compiler GCC version 4.9.2
# options -cpp -iprefix /lustre/shared/ucl/apps/gcc/4.9.2/bin/../lib/gcc/x86_64-unknown-linux-gnu/4.9.2/ -mtune=corei7 -march=x86-64 -g -Og
#
# seed  1073950959  1681535353   356901306 -1529377901  -310040366  -467599271  1096041657   820163099   391132982   251578300 -1469382344  2126832156
#
#      Author: C. J. Pickard (cjp20@cam.ac.uk)
#                Space group: P-1
#

%BLOCK LATTICE_ABC
      6.63155      6.89284     10.03416
    107.01806     94.56905    111.18441
%ENDBLOCK LATTICE_ABC

%BLOCK POSITIONS_FRAC
  Li   0.0751509   0.1521639  -0.3121983 SPIN=   0.00000
  Li  -0.0751509  -0.1521639   0.3121983 SPIN=   0.00000
  Li   0.5000000   0.5000000  -0.0000000 SPIN=   0.00000
  Li  -0.5000000  -0.0000000  -0.5000000 SPIN=   0.00000
  Fe   0.5058617   0.4722963   0.2965908 SPIN=   3.82273
  Fe  -0.5058617  -0.4722963  -0.2965908 SPIN=   3.82273
  Fe   1.0000000   0.5000000   0.5000000 SPIN=   5.85863
  Fe   0.5000000   0.0000000  -0.0000000 SPIN=   2.49592
   O  -0.1584980  -0.1603416  -0.2917785 SPIN=   0.00000
   O   0.0702239  -0.3653324  -0.2607708 SPIN=   0.00000
   O  -0.0619000  -0.1850175  -0.0556698 SPIN=   0.00000
   O   0.2264722   0.0439727  -0.1531399 SPIN=   0.00000
   S   0.0190745  -0.1666797  -0.1903397 SPIN=   0.00000
   O   0.1584980   0.1603416   0.2917785 SPIN=   0.00000
   O  -0.0702239   0.3653324   0.2607708 SPIN=   0.00000
   O   0.0619000   0.1850175   0.0556698 SPIN=   0.00000
   O  -0.2264722  -0.0439727   0.1531399 SPIN=   0.00000
   S  -0.0190745   0.1666797   0.1903397 SPIN=   0.00000
   O  -0.3074330   0.4137333  -0.1361032 SPIN=   0.00000
   O  -0.4919150   0.0092519  -0.2663405 SPIN=   0.00000
   O  -0.0954779   0.1800110  -0.1504130 SPIN=   0.00000
   O  -0.2165285   0.2493092  -0.3652765 SPIN=   0.00000
   S  -0.2778386   0.2130763  -0.2295333 SPIN=   0.00000
   O   0.3074330  -0.4137333   0.1361032 SPIN=   0.00000
   O   0.4919150  -0.0092519   0.2663405 SPIN=   0.00000
   O   0.0954779  -0.1800110   0.1504130 SPIN=   0.00000
   O   0.2165285  -0.2493092   0.3652765 SPIN=   0.00000
   S   0.2778386  -0.2130763   0.2295333 SPIN=   0.00000
   F  -0.5242936  -0.3069811  -0.1006338 SPIN=   0.00000
   F   0.5242936   0.3069811   0.1006338 SPIN=   0.00000
   F   0.0000000  -0.0000000   0.5000000 SPIN=   0.00000
   F   0.5000000   0.5000000   0.5000000 SPIN=   0.00000
%ENDBLOCK POSITIONS_FRAC

# Note: total spin =  16.00

KPOINTS_MP_SPACING 0.07

%BLOCK SPECIES_POT
QC5
%ENDBLOCK SPECIES_POT

SNAP_TO_SYMMETRY
SYMMETRY_GENERATE

