#              Generated by Buildcell
#
# at 06:30:29 (GMT+1.0) 4th August 2020
# in /lustre/scratch/uccabz1/launch_tmp
# on node-c12p-016
# by uccabz1
#
# compiler GCC version 4.9.2
# options -cpp -iprefix /lustre/shared/ucl/apps/gcc/4.9.2/bin/../lib/gcc/x86_64-unknown-linux-gnu/4.9.2/ -mtune=corei7 -march=x86-64 -g -Og
#
# seed   351440318  1478746134  1129256779 -1588056216 -1708397704 -1038128388 -2059010259   183383299   -56255239   676738146 -1643215759   535407305
#
#      Author: C. J. Pickard (cjp20@cam.ac.uk)
#                Space group: P-1
#

%BLOCK LATTICE_ABC
      6.05879      6.34617     10.93511
     97.51175     96.26841    104.05662
%ENDBLOCK LATTICE_ABC

%BLOCK POSITIONS_FRAC
  Li   0.3027423   0.2865704   0.2321852 SPIN=   0.00000
  Li  -0.3027423  -0.2865704  -0.2321852 SPIN=   0.00000
  Li  -0.5000000   0.0000000  -0.5000000 SPIN=   0.00000
  Li  -0.0000000   0.5000000   0.5000000 SPIN=   0.00000
  Fe  -0.1304061   0.0552833   0.3266648 SPIN=   4.85917
  Fe   0.1304061  -0.0552833  -0.3266648 SPIN=   4.85917
  Fe   0.5000000   0.5000000  -0.5000000 SPIN=   4.84016
  Fe  -0.0000000   0.0000000  -0.0000000 SPIN=   1.44151
   O  -0.4888944  -0.2352768   0.3746254 SPIN=   0.00000
   O  -0.5900011  -0.3513074   0.1461531 SPIN=   0.00000
   O  -0.7110919  -0.0365377   0.2502929 SPIN=   0.00000
   O  -0.8929730  -0.4153499   0.2818054 SPIN=   0.00000
   S  -0.6707401  -0.2596180   0.2632192 SPIN=   0.00000
   O   0.4888944   0.2352768  -0.3746254 SPIN=   0.00000
   O   0.5900011   0.3513074  -0.1461531 SPIN=   0.00000
   O   0.7110919   0.0365377  -0.2502929 SPIN=   0.00000
   O   0.8929730   0.4153499  -0.2818054 SPIN=   0.00000
   S   0.6707401   0.2596180  -0.2632192 SPIN=   0.00000
   O   0.4426977   0.3374295   0.0335378 SPIN=   0.00000
   O   0.8264567   0.2813802   0.0083040 SPIN=   0.00000
   O   0.6557172   0.1986293   0.1977290 SPIN=   0.00000
   S   0.6788942   0.3506169   0.1012057 SPIN=   0.00000
   O  -0.4426977  -0.3374295  -0.0335378 SPIN=   0.00000
   O  -0.8264567  -0.2813802  -0.0083040 SPIN=   0.00000
   O  -0.6557172  -0.1986293  -0.1977290 SPIN=   0.00000
   S  -0.6788942  -0.3506169  -0.1012057 SPIN=   0.00000
   O   0.5000000   0.0000000  -0.0000000 SPIN=   0.00000
   O   0.0000000   0.0000000   0.5000000 SPIN=   0.00000
   F   0.6855778   0.2964807   0.4320971 SPIN=   0.00000
   F  -0.6855778  -0.2964807  -0.4320971 SPIN=   0.00000
   F  -0.1312175  -0.0947638   0.1525033 SPIN=   0.00000
   F   0.1312175   0.0947638  -0.1525033 SPIN=   0.00000
%ENDBLOCK POSITIONS_FRAC

# Note: total spin =  16.00

KPOINTS_MP_SPACING 0.07

%BLOCK SPECIES_POT
QC5
%ENDBLOCK SPECIES_POT

SNAP_TO_SYMMETRY
SYMMETRY_GENERATE

