#              Generated by Buildcell
#
# at 14:33:55 (GMT+1.0) 18th August 2020
# in /lustre/scratch/uccabz1/launch_tmp
# on node-c12m-003
# by uccabz1
#
# compiler GCC version 4.9.2
# options -cpp -iprefix /lustre/shared/ucl/apps/gcc/4.9.2/bin/../lib/gcc/x86_64-unknown-linux-gnu/4.9.2/ -mtune=corei7 -march=x86-64 -g -Og
#
# seed   895682553  -371996314   765745863   575269338  1697990645   853728499   809645942    14842312    40647247    83202853  2146253425 -1116675970
#
#      Author: C. J. Pickard (cjp20@cam.ac.uk)
#                Space group: Pc
#

%BLOCK LATTICE_ABC
      6.08823      7.63514      8.60508
     90.21974     90.00000     90.00000
%ENDBLOCK LATTICE_ABC

%BLOCK POSITIONS_FRAC
  Li   0.0884805  -0.0667948  -0.0462624 SPIN=   0.00000
  Li  -0.0884805   0.4332052  -0.0462624 SPIN=   0.00000
  Li  -0.4570483  -0.2180136  -0.2637076 SPIN=   0.00000
  Li   0.4570483   0.2819864  -0.2637076 SPIN=   0.00000
  Fe   0.0099625  -0.2094687  -0.3640745 SPIN=   3.18043
  Fe  -0.0099625   0.2905313  -0.3640745 SPIN=   3.18043
  Fe   0.1055046  -0.3495078   0.2060577 SPIN=   4.81957
  Fe  -0.1055046   0.1504922   0.2060577 SPIN=   4.81957
   O  -0.6443904   0.0944640   0.5617778 SPIN=   0.00000
   O  -0.4493682  -0.0772387   0.3600254 SPIN=   0.00000
   O  -0.2851608  -0.0413458   0.6213092 SPIN=   0.00000
   O  -0.3049768   0.2114445   0.4426910 SPIN=   0.00000
   S  -0.4209740   0.0468310   0.4964508 SPIN=   0.00000
   O   0.6443904  -0.4055360   0.5617778 SPIN=   0.00000
   O   0.4493682  -0.5772387   0.3600254 SPIN=   0.00000
   O   0.2851608  -0.5413458   0.6213092 SPIN=   0.00000
   O   0.3049768  -0.2885555   0.4426910 SPIN=   0.00000
   S   0.4209740  -0.4531690   0.4964508 SPIN=   0.00000
   O  -0.2056168  -0.1411608   0.0494102 SPIN=   0.00000
   O  -0.6101207  -0.1154873   0.0665858 SPIN=   0.00000
   O  -0.4167904  -0.3483605   0.2117877 SPIN=   0.00000
   O  -0.4426108  -0.3646747  -0.0749279 SPIN=   0.00000
   S  -0.4187846  -0.2424208   0.0632140 SPIN=   0.00000
   O   0.2056168   0.3588392   0.0494102 SPIN=   0.00000
   O   0.6101207   0.3845127   0.0665858 SPIN=   0.00000
   O   0.4167904   0.1516395   0.2117877 SPIN=   0.00000
   O   0.4426108   0.1353253  -0.0749279 SPIN=   0.00000
   S   0.4187846   0.2575792   0.0632140 SPIN=   0.00000
   F   0.0815564  -0.4034348  -0.1455184 SPIN=   0.00000
   F  -0.0815564   0.0965652  -0.1455184 SPIN=   0.00000
   F   0.0808253  -0.0798460   0.2709289 SPIN=   0.00000
   F  -0.0808253   0.4201540   0.2709289 SPIN=   0.00000
%ENDBLOCK POSITIONS_FRAC

# Note: total spin =  16.00

KPOINTS_MP_SPACING 0.07

%BLOCK SPECIES_POT
QC5
%ENDBLOCK SPECIES_POT

SNAP_TO_SYMMETRY
SYMMETRY_GENERATE

