#              Generated by Buildcell
#
# at 06:28:50 (GMT+1.0) 4th August 2020
# in /lustre/scratch/uccabz1/launch_tmp
# on node-c12d-027
# by uccabz1
#
# compiler GCC version 4.9.2
# options -cpp -iprefix /lustre/shared/ucl/apps/gcc/4.9.2/bin/../lib/gcc/x86_64-unknown-linux-gnu/4.9.2/ -mtune=corei7 -march=x86-64 -g -Og
#
# seed   430829609 -1490331108  -998564690  -473148524 -1407691871  1589642216  2032719523  1582808080 -1887753778 -1410260826  1273270889  2124491007
#
#      Author: C. J. Pickard (cjp20@cam.ac.uk)
#                Space group: P21
#

%BLOCK LATTICE_ABC
      4.28895      7.10112     13.74885
     90.00000     90.00000    107.20615
%ENDBLOCK LATTICE_ABC

%BLOCK POSITIONS_FRAC
  Li   0.5058122   0.2643655   0.3323199 SPIN=   0.00000
  Li  -0.5058122  -0.2643655  -0.1676801 SPIN=   0.00000
  Li  -0.4752578  -0.2313243   0.4531922 SPIN=   0.00000
  Li   0.4752578   0.2313243  -0.0468078 SPIN=   0.00000
  Fe  -0.0951734  -0.1080430   0.0057002 SPIN=   4.01038
  Fe   0.0951734   0.1080430  -0.4942998 SPIN=   4.01038
  Fe   0.0242012   0.3019109   0.1840825 SPIN=   3.98962
  Fe  -0.0242012  -0.3019109  -0.3159175 SPIN=   3.98962
   O   0.5249202   0.2982633  -0.2018153 SPIN=   0.00000
   O  -0.0162318   0.1871025  -0.2814539 SPIN=   0.00000
   O   0.4864406   0.2758559  -0.3812764 SPIN=   0.00000
   O   0.3193547   0.5357442  -0.2945085 SPIN=   0.00000
   S   0.3286209   0.3242415  -0.2897635 SPIN=   0.00000
   O  -0.5249202  -0.2982633   0.2981847 SPIN=   0.00000
   O   0.0162318  -0.1871025   0.2185461 SPIN=   0.00000
   O  -0.4864406  -0.2758559   0.1187236 SPIN=   0.00000
   O  -0.3193547  -0.5357442   0.2054915 SPIN=   0.00000
   S  -0.3286209  -0.3242415   0.2102365 SPIN=   0.00000
   O  -0.0347269   0.5456206  -0.1242293 SPIN=   0.00000
   O  -0.0169451   0.2700913  -0.0162810 SPIN=   0.00000
   O  -0.0183413   0.5903596   0.0544098 SPIN=   0.00000
   O   0.4696181   0.5610180  -0.0329808 SPIN=   0.00000
   S   0.0999012   0.4917724  -0.0297703 SPIN=   0.00000
   O   0.0347269  -0.5456206   0.3757707 SPIN=   0.00000
   O   0.0169451  -0.2700913   0.4837190 SPIN=   0.00000
   O   0.0183413  -0.5903596   0.5544098 SPIN=   0.00000
   O  -0.4696181  -0.5610180   0.4670192 SPIN=   0.00000
   S  -0.0999012  -0.4917724   0.4702297 SPIN=   0.00000
   F  -0.1327071  -0.0747267  -0.1244745 SPIN=   0.00000
   F   0.1327071   0.0747267   0.3755255 SPIN=   0.00000
   F  -0.4453925  -0.1108239  -0.3971694 SPIN=   0.00000
   F   0.4453925   0.1108239   0.1028306 SPIN=   0.00000
%ENDBLOCK POSITIONS_FRAC

# Note: total spin =  16.00

KPOINTS_MP_SPACING 0.07

%BLOCK SPECIES_POT
QC5
%ENDBLOCK SPECIES_POT

SNAP_TO_SYMMETRY
SYMMETRY_GENERATE

