#              Generated by Buildcell
#
# at 16:48:42 (GMT+1.0) 18th August 2020
# in /lustre/scratch/uccabz1/launch_tmp
# on node-c12i-032
# by uccabz1
#
# compiler GCC version 4.9.2
# options -cpp -iprefix /lustre/shared/ucl/apps/gcc/4.9.2/bin/../lib/gcc/x86_64-unknown-linux-gnu/4.9.2/ -mtune=corei7 -march=x86-64 -g -Og
#
# seed  1105684567  2005504613   -57376101 -1233234812   -33308512  -405002949   703841901  1325533353   554380199  -444547482  1930030779  1284815514
#
#      Author: C. J. Pickard (cjp20@cam.ac.uk)
#                Space group: P-1
#

%BLOCK LATTICE_ABC
      5.13473      6.53803     12.02880
     96.64025     90.62728     94.11663
%ENDBLOCK LATTICE_ABC

%BLOCK POSITIONS_FRAC
  Li   0.2554273   0.0848992   0.1683442 SPIN=   0.00000
  Li  -0.2554273  -0.0848992  -0.1683442 SPIN=   0.00000
  Li  -0.2191350  -0.3410089   0.0763152 SPIN=   0.00000
  Li   0.2191350   0.3410089  -0.0763152 SPIN=   0.00000
  Fe  -0.2384693   0.1831012   0.0525844 SPIN=   3.48947
  Fe   0.2384693  -0.1831012  -0.0525844 SPIN=   3.48947
  Fe   0.2716074   0.2054674  -0.3220873 SPIN=   4.51053
  Fe  -0.2716074  -0.2054674   0.3220873 SPIN=   4.51053
   O   0.1479802   0.1500326   0.5128395 SPIN=   0.00000
   O   0.0944253  -0.0655029   0.3297518 SPIN=   0.00000
   O   0.5371836   0.0437715   0.4077839 SPIN=   0.00000
   O   0.2629826   0.3004001   0.3386608 SPIN=   0.00000
   S   0.2606429   0.1071753   0.3972590 SPIN=   0.00000
   O  -0.1479802  -0.1500326  -0.5128395 SPIN=   0.00000
   O  -0.0944253   0.0655029  -0.3297518 SPIN=   0.00000
   O  -0.5371836  -0.0437715  -0.4077839 SPIN=   0.00000
   O  -0.2629826  -0.3004001  -0.3386608 SPIN=   0.00000
   S  -0.2606429  -0.1071753  -0.3972590 SPIN=   0.00000
   O   0.1082261   0.3377756   0.0864670 SPIN=   0.00000
   O   0.1933849   0.6006071   0.2504675 SPIN=   0.00000
   O   0.3771002   0.6606932   0.0666780 SPIN=   0.00000
   O   0.5508618   0.3962943   0.1729241 SPIN=   0.00000
   S   0.3073932   0.4988426   0.1441341 SPIN=   0.00000
   O  -0.1082261  -0.3377756  -0.0864670 SPIN=   0.00000
   O  -0.1933849  -0.6006071  -0.2504675 SPIN=   0.00000
   O  -0.3771002  -0.6606932  -0.0666780 SPIN=   0.00000
   O  -0.5508618  -0.3962943  -0.1729241 SPIN=   0.00000
   S  -0.3073932  -0.4988426  -0.1441341 SPIN=   0.00000
   F  -0.2050119   0.4904870   0.3670489 SPIN=   0.00000
   F   0.2050119  -0.4904870  -0.3670489 SPIN=   0.00000
   F   0.2616627   0.0263711  -0.1798865 SPIN=   0.00000
   F  -0.2616627  -0.0263711   0.1798865 SPIN=   0.00000
%ENDBLOCK POSITIONS_FRAC

# Note: total spin =  16.00

KPOINTS_MP_SPACING 0.07

%BLOCK SPECIES_POT
QC5
%ENDBLOCK SPECIES_POT

SNAP_TO_SYMMETRY
SYMMETRY_GENERATE

