#              Generated by Buildcell
#
# at 07:37:08 (GMT+1.0) 18th August 2020
# in /lustre/scratch/uccabz1/launch_tmp
# on node-c12p-008
# by uccabz1
#
# compiler GCC version 4.9.2
# options -cpp -iprefix /lustre/shared/ucl/apps/gcc/4.9.2/bin/../lib/gcc/x86_64-unknown-linux-gnu/4.9.2/ -mtune=corei7 -march=x86-64 -g -Og
#
# seed   143350708 -2135097019   141442443  -680990134  -688538545  1719162801   807276174 -1240525038  1792885783  2124539244  1185739933 -2044175627
#
#      Author: C. J. Pickard (cjp20@cam.ac.uk)
#                Space group: C2
#

%BLOCK LATTICE_ABC
      7.90068      7.90068      7.91139
     65.31093     65.31093     70.49334
%ENDBLOCK LATTICE_ABC

%BLOCK POSITIONS_FRAC
  Li   0.2563526   0.4243103  -0.2198612 SPIN=   0.00000
  Li  -0.4243103  -0.2563526   0.2198612 SPIN=   0.00000
  Li  -0.0313703  -0.1066665   0.2752835 SPIN=   0.00000
  Li   0.1066665   0.0313703  -0.2752835 SPIN=   0.00000
  Fe  -0.3526185   0.2526993  -0.1776665 SPIN=   3.01710
  Fe  -0.2526993   0.3526185   0.1776665 SPIN=   3.01710
  Fe   0.1933318   0.1364122   0.2867759 SPIN=   4.98290
  Fe  -0.1364122  -0.1933318  -0.2867759 SPIN=   4.98290
   O   0.2812622  -0.1026498   0.1583895 SPIN=   0.00000
   O   0.4191531   0.1329058  -0.1592277 SPIN=   0.00000
   O   0.3125193  -0.1309599  -0.1537677 SPIN=   0.00000
   O   0.5991281  -0.1958970  -0.0654662 SPIN=   0.00000
   S   0.4030157  -0.0741502  -0.0550180 SPIN=   0.00000
   O   0.1026498  -0.2812622  -0.1583895 SPIN=   0.00000
   O  -0.1329058  -0.4191531   0.1592277 SPIN=   0.00000
   O   0.1309599  -0.3125193   0.1537677 SPIN=   0.00000
   O   0.1958970  -0.5991281   0.0654662 SPIN=   0.00000
   S   0.0741502  -0.4030157   0.0550180 SPIN=   0.00000
   O   0.1682147   0.5546200  -0.4599048 SPIN=   0.00000
   O   0.1667531   0.2721161  -0.5203951 SPIN=   0.00000
   O  -0.1255163   0.5170537  -0.4705579 SPIN=   0.00000
   O  -0.0076444   0.3081080  -0.1910954 SPIN=   0.00000
   S   0.0504518   0.4129745  -0.4104883 SPIN=   0.00000
   O  -0.5546200  -0.1682147   0.4599048 SPIN=   0.00000
   O  -0.2721161  -0.1667531   0.5203951 SPIN=   0.00000
   O  -0.5170537   0.1255163   0.4705579 SPIN=   0.00000
   O  -0.3081080   0.0076444   0.1910954 SPIN=   0.00000
   S  -0.4129745  -0.0504518   0.4104883 SPIN=   0.00000
   F   0.4934510   0.4854942   0.2699098 SPIN=   0.00000
   F  -0.4854942  -0.4934510  -0.2699098 SPIN=   0.00000
   F  -0.1624483   0.0255325  -0.1803615 SPIN=   0.00000
   F  -0.0255325   0.1624483   0.1803615 SPIN=   0.00000
%ENDBLOCK POSITIONS_FRAC

# Note: total spin =  16.00

KPOINTS_MP_SPACING 0.07

%BLOCK SPECIES_POT
QC5
%ENDBLOCK SPECIES_POT

SNAP_TO_SYMMETRY
SYMMETRY_GENERATE

