#              Generated by Buildcell
#
# at 16:23:29 (GMT+1.0) 18th August 2020
# in /lustre/scratch/uccabz1/launch_tmp
# on node-c12g-023
# by uccabz1
#
# compiler GCC version 4.9.2
# options -cpp -iprefix /lustre/shared/ucl/apps/gcc/4.9.2/bin/../lib/gcc/x86_64-unknown-linux-gnu/4.9.2/ -mtune=corei7 -march=x86-64 -g -Og
#
# seed    60953298   930765551     9476583  1104169761  -778963095  -903825682  2143451378 -1920220521 -1755451560 -1723030970  2037385095  2013210068
#
#      Author: C. J. Pickard (cjp20@cam.ac.uk)
#                Space group: Cc
#

%BLOCK LATTICE_ABC
      6.25770      6.25770     10.71749
    102.02580    102.02580     92.19235
%ENDBLOCK LATTICE_ABC

%BLOCK POSITIONS_FRAC
  Li   0.3271929  -0.3808450   0.0544718 SPIN=   0.00000
  Li   0.1191550  -0.1728071  -0.4455282 SPIN=   0.00000
  Li   0.4871676   0.4735018  -0.2679802 SPIN=   0.00000
  Li  -0.0264982  -0.0128324   0.2320198 SPIN=   0.00000
  Fe  -0.3832037  -0.1421600  -0.3757681 SPIN=   4.74016
  Fe   0.3578400   0.1167963   0.1242319 SPIN=   4.74016
  Fe  -0.2760493   0.2995579   0.4559040 SPIN=   3.25984
  Fe  -0.2004421   0.2239507  -0.0440960 SPIN=   3.25984
   O   0.1200798  -0.4303140  -0.1135441 SPIN=   0.00000
   O   0.0281456  -0.4758427  -0.3541517 SPIN=   0.00000
   O  -0.2140953  -0.2831743  -0.2206021 SPIN=   0.00000
   O  -0.1961389  -0.6841359  -0.2474915 SPIN=   0.00000
   S  -0.0655022  -0.4683667  -0.2339474 SPIN=   0.00000
   O   0.0696860   0.6200798   0.3864559 SPIN=   0.00000
   O   0.0241573   0.5281456   0.1458483 SPIN=   0.00000
   O   0.2168257   0.2859047   0.2793979 SPIN=   0.00000
   O  -0.1841359   0.3038611   0.2525085 SPIN=   0.00000
   S   0.0316333   0.4344978   0.2660526 SPIN=   0.00000
   O   0.3579930   0.1772522  -0.2882169 SPIN=   0.00000
   O   0.2177875   0.2250268  -0.0854619 SPIN=   0.00000
   O   0.4633839  -0.0665552  -0.1350973 SPIN=   0.00000
   O   0.0830870  -0.0992527  -0.2659796 SPIN=   0.00000
   S   0.2805628   0.0591178  -0.1936889 SPIN=   0.00000
   O  -0.3227478  -0.1420070   0.2117831 SPIN=   0.00000
   O  -0.2749732  -0.2822125   0.4145381 SPIN=   0.00000
   O  -0.5665552  -0.0366161   0.3649027 SPIN=   0.00000
   O  -0.5992527  -0.4169130   0.2340204 SPIN=   0.00000
   S  -0.4408822  -0.2194372   0.3063111 SPIN=   0.00000
   F   0.0610378  -0.0529499   0.0561756 SPIN=   0.00000
   F   0.4470501  -0.4389622  -0.4438244 SPIN=   0.00000
   F  -0.4393589  -0.4540127  -0.0184979 SPIN=   0.00000
   F   0.0459873   0.0606411   0.4815021 SPIN=   0.00000
%ENDBLOCK POSITIONS_FRAC

# Note: total spin =  16.00

KPOINTS_MP_SPACING 0.07

%BLOCK SPECIES_POT
QC5
%ENDBLOCK SPECIES_POT

SNAP_TO_SYMMETRY
SYMMETRY_GENERATE

