#              Generated by Buildcell
#
# at 07:31:00 (GMT+1.0) 4th August 2020
# in /lustre/scratch/uccabz1/launch_tmp
# on node-c12c-016
# by uccabz1
#
# compiler GCC version 4.9.2
# options -cpp -iprefix /lustre/shared/ucl/apps/gcc/4.9.2/bin/../lib/gcc/x86_64-unknown-linux-gnu/4.9.2/ -mtune=corei7 -march=x86-64 -g -Og
#
# seed   542848473  1486571362  -148465944  -488674218  1605348634  -559460008   -11636060  1689576954    22333877 -2129926635  2129111731  -255988344
#
#      Author: C. J. Pickard (cjp20@cam.ac.uk)
#                Space group: Pc
#

%BLOCK LATTICE_ABC
      5.50517      7.47033     10.44412
     90.00000     90.00000    111.36566
%ENDBLOCK LATTICE_ABC

%BLOCK POSITIONS_FRAC
  Li  -0.0486886   0.4459675  -0.1735809 SPIN=   0.00000
  Li   0.4513114   0.4459675   0.1735809 SPIN=   0.00000
  Li   0.1631555  -0.1281949   0.1291444 SPIN=   0.00000
  Li  -0.3368445  -0.1281949  -0.1291444 SPIN=   0.00000
  Fe   0.1295897  -0.0890537  -0.3436433 SPIN=   4.01017
  Fe  -0.3704103  -0.0890537   0.3436433 SPIN=   4.01017
  Fe  -0.5459759  -0.4441000  -0.3804087 SPIN=   3.98983
  Fe  -0.0459759  -0.4441000   0.3804087 SPIN=   3.98983
   O   0.4869500   0.3638753  -0.2345897 SPIN=   0.00000
   O   0.0475884   0.1309225  -0.1810077 SPIN=   0.00000
   O   0.2582443   0.4127719  -0.0413969 SPIN=   0.00000
   O   0.4273179   0.1479886  -0.0478927 SPIN=   0.00000
   S   0.3050252   0.2638896  -0.1262218 SPIN=   0.00000
   O  -0.0130500   0.3638753   0.2345897 SPIN=   0.00000
   O  -0.4524116   0.1309225   0.1810077 SPIN=   0.00000
   O  -0.2417557   0.4127719   0.0413969 SPIN=   0.00000
   O  -0.0726821   0.1479886   0.0478927 SPIN=   0.00000
   S  -0.1949748   0.2638896   0.1262218 SPIN=   0.00000
   O   0.1163884   0.3022191   0.4250093 SPIN=   0.00000
   O   0.1468673   0.0933902   0.2465881 SPIN=   0.00000
   O   0.2462267   0.0237039   0.4679974 SPIN=   0.00000
   O   0.5480594   0.3081525   0.3538461 SPIN=   0.00000
   S   0.2643854   0.1818664   0.3733602 SPIN=   0.00000
   O  -0.3836116   0.3022191  -0.4250093 SPIN=   0.00000
   O  -0.3531327   0.0933902  -0.2465881 SPIN=   0.00000
   O  -0.2537733   0.0237039  -0.4679974 SPIN=   0.00000
   O   0.0480594   0.3081525  -0.3538461 SPIN=   0.00000
   S  -0.2356146   0.1818664  -0.3733602 SPIN=   0.00000
   F  -0.6892503  -0.2963536   0.3800785 SPIN=   0.00000
   F  -0.1892503  -0.2963536  -0.3800785 SPIN=   0.00000
   F  -0.2112979  -0.2489038   0.1200550 SPIN=   0.00000
   F  -0.7112979  -0.2489038  -0.1200550 SPIN=   0.00000
%ENDBLOCK POSITIONS_FRAC

# Note: total spin =  16.00

KPOINTS_MP_SPACING 0.07

%BLOCK SPECIES_POT
QC5
%ENDBLOCK SPECIES_POT

SNAP_TO_SYMMETRY
SYMMETRY_GENERATE

