#              Generated by Buildcell
#
# at 16:10:34 (GMT+1.0) 18th August 2020
# in /lustre/scratch/uccabz1/launch_tmp
# on node-c12k-019
# by uccabz1
#
# compiler GCC version 4.9.2
# options -cpp -iprefix /lustre/shared/ucl/apps/gcc/4.9.2/bin/../lib/gcc/x86_64-unknown-linux-gnu/4.9.2/ -mtune=corei7 -march=x86-64 -g -Og
#
# seed -1326065241  -107218816  1581346297  1013214313  1229028086  -281062940  -119402903   274857304  -990465871   799480200  1193029638   519043727
#
#      Author: C. J. Pickard (cjp20@cam.ac.uk)
#                Space group: Aea2
#

%BLOCK LATTICE_ABC
      5.24261      6.73419     12.30004
     90.00000     90.00000    112.90803
%ENDBLOCK LATTICE_ABC

%BLOCK POSITIONS_FRAC
  Li   0.3188233  -0.3128239   0.1206692 SPIN=   0.00000
  Li  -0.3683528   0.3128239  -0.1206692 SPIN=   0.00000
  Li   0.1316472   0.3128239  -0.3793308 SPIN=   0.00000
  Li  -0.1811767  -0.3128239   0.3793308 SPIN=   0.00000
  Fe  -0.2638738  -0.2627944  -0.3722711 SPIN=   4.00000
  Fe  -0.0010793   0.2627944   0.3722711 SPIN=   4.00000
  Fe   0.4989207   0.2627944   0.1277289 SPIN=   4.00000
  Fe   0.2361262  -0.2627944  -0.1277289 SPIN=   4.00000
   O   0.5401745  -0.0270516   0.2692529 SPIN=   0.00000
   O   0.6013462  -0.1618286   0.4505329 SPIN=   0.00000
   O   0.2351680  -0.3954665   0.3268171 SPIN=   0.00000
   O   0.1896503  -0.0787525   0.4129706 SPIN=   0.00000
   S   0.3915847  -0.1657748   0.3648934 SPIN=   0.00000
   O  -0.4327739   0.0270516  -0.2692529 SPIN=   0.00000
   O  -0.2368252   0.1618286  -0.4505329 SPIN=   0.00000
   O  -0.3693656   0.3954665  -0.3268171 SPIN=   0.00000
   O  -0.7315972   0.0787525  -0.4129706 SPIN=   0.00000
   S  -0.4426405   0.1657748  -0.3648934 SPIN=   0.00000
   O   0.0672261   0.0270516  -0.2307471 SPIN=   0.00000
   O   0.2631748   0.1618286  -0.0494671 SPIN=   0.00000
   O   0.1306344   0.3954665  -0.1731829 SPIN=   0.00000
   O  -0.2315972   0.0787525  -0.0870294 SPIN=   0.00000
   S   0.0573595   0.1657748  -0.1351066 SPIN=   0.00000
   O   0.0401745  -0.0270516   0.2307471 SPIN=   0.00000
   O   0.1013462  -0.1618286   0.0494671 SPIN=   0.00000
   O  -0.2648320  -0.3954665   0.1731829 SPIN=   0.00000
   O  -0.3103497  -0.0787525   0.0870294 SPIN=   0.00000
   S  -0.1084153  -0.1657748   0.1351066 SPIN=   0.00000
   F   0.1073616   0.3986815   0.1240544 SPIN=   0.00000
   F  -0.2913199  -0.3986815  -0.1240544 SPIN=   0.00000
   F   0.2086801  -0.3986815  -0.3759456 SPIN=   0.00000
   F  -0.3926384   0.3986815   0.3759456 SPIN=   0.00000
%ENDBLOCK POSITIONS_FRAC

# Note: total spin =  16.00

KPOINTS_MP_SPACING 0.07

%BLOCK SPECIES_POT
QC5
%ENDBLOCK SPECIES_POT

SNAP_TO_SYMMETRY
SYMMETRY_GENERATE

