#              Generated by Buildcell
#
# at 16:12:48 (GMT+1.0) 18th August 2020
# in /lustre/scratch/uccabz1/launch_tmp
# on node-c12m-034
# by uccabz1
#
# compiler GCC version 4.9.2
# options -cpp -iprefix /lustre/shared/ucl/apps/gcc/4.9.2/bin/../lib/gcc/x86_64-unknown-linux-gnu/4.9.2/ -mtune=corei7 -march=x86-64 -g -Og
#
# seed   394599980  2090092100  1062148297   464859943 -1053943105  -210099601   917930800 -1220121409 -1292618312   175809593 -1886442778   480736220
#
#      Author: C. J. Pickard (cjp20@cam.ac.uk)
#                Space group: P-1
#

%BLOCK LATTICE_ABC
      5.23937      7.87057     10.45766
     79.59112     89.48856     70.81610
%ENDBLOCK LATTICE_ABC

%BLOCK POSITIONS_FRAC
  Li   0.1149320  -0.3211941   0.3609610 SPIN=   0.00000
  Li  -0.1149320   0.3211941  -0.3609610 SPIN=   0.00000
  Li  -0.2956685  -0.4110335   0.1007547 SPIN=   0.00000
  Li   0.2956685   0.4110335  -0.1007547 SPIN=   0.00000
  Fe  -0.0409314   0.0861647   0.2389177 SPIN=   2.63103
  Fe   0.0409314  -0.0861647  -0.2389177 SPIN=   2.63103
  Fe  -0.5000000   0.0000000   0.0000000 SPIN=   6.02514
  Fe   0.5000000   0.0000000   0.5000000 SPIN=   4.71281
   O   0.3626828  -0.3669517  -0.4821745 SPIN=   0.00000
   O   0.4061456  -0.6655081  -0.3423183 SPIN=   0.00000
   O  -0.0476376  -0.4385341  -0.4097898 SPIN=   0.00000
   O   0.2482645  -0.3816089  -0.2512202 SPIN=   0.00000
   S   0.2423638  -0.4631507  -0.3713757 SPIN=   0.00000
   O  -0.3626828   0.3669517   0.4821745 SPIN=   0.00000
   O  -0.4061456   0.6655081   0.3423183 SPIN=   0.00000
   O   0.0476376   0.4385341   0.4097898 SPIN=   0.00000
   O  -0.2482645   0.3816089   0.2512202 SPIN=   0.00000
   S  -0.2423638   0.4631507   0.3713757 SPIN=   0.00000
   O   0.2639864  -0.4614136   0.0510415 SPIN=   0.00000
   O   0.0202773  -0.1324712  -0.0323322 SPIN=   0.00000
   O   0.3533690  -0.2266020   0.1551472 SPIN=   0.00000
   O  -0.0840863  -0.2822690   0.1811745 SPIN=   0.00000
   S   0.1383866  -0.2756890   0.0887578 SPIN=   0.00000
   O  -0.2639864   0.4614136  -0.0510415 SPIN=   0.00000
   O  -0.0202773   0.1324712   0.0323322 SPIN=   0.00000
   O  -0.3533690   0.2266020  -0.1551472 SPIN=   0.00000
   O   0.0840863   0.2822690  -0.1811745 SPIN=   0.00000
   S  -0.1383866   0.2756890  -0.0887578 SPIN=   0.00000
   F   0.1468319   0.1071405  -0.4044879 SPIN=   0.00000
   F  -0.1468319  -0.1071405   0.4044879 SPIN=   0.00000
   F  -0.4261413  -0.1691614  -0.1403140 SPIN=   0.00000
   F   0.4261413   0.1691614   0.1403140 SPIN=   0.00000
%ENDBLOCK POSITIONS_FRAC

# Note: total spin =  16.00

KPOINTS_MP_SPACING 0.07

%BLOCK SPECIES_POT
QC5
%ENDBLOCK SPECIES_POT

SNAP_TO_SYMMETRY
SYMMETRY_GENERATE

