#              Generated by Buildcell
#
# at 17:27:15 (GMT+1.0) 18th August 2020
# in /lustre/scratch/uccabz1/launch_tmp
# on node-c12p-014
# by uccabz1
#
# compiler GCC version 4.9.2
# options -cpp -iprefix /lustre/shared/ucl/apps/gcc/4.9.2/bin/../lib/gcc/x86_64-unknown-linux-gnu/4.9.2/ -mtune=corei7 -march=x86-64 -g -Og
#
# seed    81598705  2109162784  -476108694 -1411006654  1052831220 -1123074661    94738503  1018065366  -508173466   695339807   479765474 -1208780156
#
#      Author: C. J. Pickard (cjp20@cam.ac.uk)
#                Space group: Pnc2
#

%BLOCK LATTICE_ABC
      3.90307      7.77068     13.18848
     90.00000     90.00000     90.00000
%ENDBLOCK LATTICE_ABC

%BLOCK POSITIONS_FRAC
  Li   0.3125672  -0.3726772  -0.1239163 SPIN=   0.00000
  Li   0.3125672   0.3726772   0.1239163 SPIN=   0.00000
  Li  -0.1874328  -0.3726772  -0.3760837 SPIN=   0.00000
  Li  -0.1874328   0.3726772   0.3760837 SPIN=   0.00000
  Fe  -0.1867237  -0.0760793  -0.1312687 SPIN=   4.00000
  Fe  -0.1867237   0.0760793   0.1312687 SPIN=   4.00000
  Fe   0.3132763  -0.0760793  -0.3687313 SPIN=   4.00000
  Fe   0.3132763   0.0760793   0.3687313 SPIN=   4.00000
   O   0.1039880   0.3850156  -0.0563502 SPIN=   0.00000
   O   0.4972553   0.1357521  -0.0464159 SPIN=   0.00000
   O   0.5757132   0.3550578  -0.1804993 SPIN=   0.00000
   O   0.0797997   0.1569062  -0.1871128 SPIN=   0.00000
   S   0.3141891   0.2581829  -0.1175946 SPIN=   0.00000
   O   0.1039880  -0.3850156   0.0563502 SPIN=   0.00000
   O   0.4972553  -0.1357521   0.0464159 SPIN=   0.00000
   O   0.5757132  -0.3550578   0.1804993 SPIN=   0.00000
   O   0.0797997  -0.1569062   0.1871128 SPIN=   0.00000
   S   0.3141891  -0.2581829   0.1175946 SPIN=   0.00000
   O  -0.3960120   0.3850156  -0.4436498 SPIN=   0.00000
   O  -0.0027447   0.1357521  -0.4535841 SPIN=   0.00000
   O   0.0757132   0.3550578  -0.3195007 SPIN=   0.00000
   O  -0.4202003   0.1569062  -0.3128872 SPIN=   0.00000
   S  -0.1858109   0.2581829  -0.3824054 SPIN=   0.00000
   O  -0.3960120  -0.3850156   0.4436498 SPIN=   0.00000
   O  -0.0027447  -0.1357521   0.4535841 SPIN=   0.00000
   O   0.0757132  -0.3550578   0.3195007 SPIN=   0.00000
   O  -0.4202003  -0.1569062   0.3128872 SPIN=   0.00000
   S  -0.1858109  -0.2581829   0.3824054 SPIN=   0.00000
   F  -0.1879578  -0.3115964  -0.1346369 SPIN=   0.00000
   F  -0.1879578   0.3115964   0.1346369 SPIN=   0.00000
   F   0.3120422  -0.3115964  -0.3653631 SPIN=   0.00000
   F   0.3120422   0.3115964   0.3653631 SPIN=   0.00000
%ENDBLOCK POSITIONS_FRAC

# Note: total spin =  16.00

KPOINTS_MP_SPACING 0.07

%BLOCK SPECIES_POT
QC5
%ENDBLOCK SPECIES_POT

SNAP_TO_SYMMETRY
SYMMETRY_GENERATE

