#              Generated by Buildcell
#
# at 16:27:14 (GMT+1.0) 18th August 2020
# in /scratch/scratch/uccabz1/launch_tmp
# on node-k10h-031
# by uccabz1
#
# compiler GCC version 4.9.2
# options -cpp -iprefix /scratch/UCL/applications/gcc/4.9.2/bin/../lib/gcc/x86_64-unknown-linux-gnu/4.9.2/ -mtune=corei7 -march=x86-64 -g -O2
#
# seed  1563902843   394829468   935917966 -1748624710   389646562   580731395   634788395   -62497891  -254349035   305309651 -2041424023   969380808
#
#      Author: C. J. Pickard (cjp20@cam.ac.uk)
#                Space group: P-1
#

%BLOCK LATTICE_ABC
      4.87381      8.95249     10.37043
     64.50028     85.40568     78.35941
%ENDBLOCK LATTICE_ABC

%BLOCK POSITIONS_FRAC
  Li  -0.4419253   0.0797231  -0.3781546 SPIN=   0.00000
  Li   0.4419253  -0.0797231   0.3781546 SPIN=   0.00000
  Li   0.0418199  -0.2986191  -0.2129189 SPIN=   0.00000
  Li  -0.0418199   0.2986191   0.2129189 SPIN=   0.00000
  Fe   0.2937934  -0.0766769  -0.0900421 SPIN=   5.14989
  Fe  -0.2937934   0.0766769   0.0900421 SPIN=   5.14989
  Fe   0.3853938  -0.3917116   0.3134953 SPIN=   2.85011
  Fe  -0.3853938   0.3917116  -0.3134953 SPIN=   2.85011
   O   0.1933076  -0.4625541   0.1160758 SPIN=   0.00000
   O  -0.1654342  -0.2602235  -0.0626965 SPIN=   0.00000
   O  -0.0887990  -0.2216207   0.1532188 SPIN=   0.00000
   O  -0.3101841  -0.4566513   0.1740884 SPIN=   0.00000
   S  -0.0927774  -0.3502624   0.0951716 SPIN=   0.00000
   O  -0.1933076   0.4625541  -0.1160758 SPIN=   0.00000
   O   0.1654342   0.2602235   0.0626965 SPIN=   0.00000
   O   0.0887990   0.2216207  -0.1532188 SPIN=   0.00000
   O   0.3101841   0.4566513  -0.1740884 SPIN=   0.00000
   S   0.0927774   0.3502624  -0.0951716 SPIN=   0.00000
   O   0.2799047   0.2774491   0.5821567 SPIN=   0.00000
   O  -0.0004592   0.4700757   0.3645782 SPIN=   0.00000
   O  -0.1993478   0.2399368   0.5571089 SPIN=   0.00000
   O   0.1835740   0.1738406   0.4073923 SPIN=   0.00000
   S   0.0659179   0.2903255   0.4778090 SPIN=   0.00000
   O  -0.2799047  -0.2774491  -0.5821567 SPIN=   0.00000
   O   0.0004592  -0.4700757  -0.3645782 SPIN=   0.00000
   O   0.1993478  -0.2399368  -0.5571089 SPIN=   0.00000
   O  -0.1835740  -0.1738406  -0.4073923 SPIN=   0.00000
   S  -0.0659179  -0.2903255  -0.4778090 SPIN=   0.00000
   F   0.4277056  -0.2714205  -0.1965379 SPIN=   0.00000
   F  -0.4277056   0.2714205   0.1965379 SPIN=   0.00000
   F  -0.2954969   0.0873802  -0.1800545 SPIN=   0.00000
   F   0.2954969  -0.0873802   0.1800545 SPIN=   0.00000
%ENDBLOCK POSITIONS_FRAC

# Note: total spin =  16.00

KPOINTS_MP_SPACING 0.07

%BLOCK SPECIES_POT
QC5
%ENDBLOCK SPECIES_POT

SNAP_TO_SYMMETRY
SYMMETRY_GENERATE

