#              Generated by Buildcell
#
# at 13:39:34 (GMT+1.0) 18th August 2020
# in /lustre/scratch/uccabz1/launch_tmp
# on node-c12k-010
# by uccabz1
#
# compiler GCC version 4.9.2
# options -cpp -iprefix /lustre/shared/ucl/apps/gcc/4.9.2/bin/../lib/gcc/x86_64-unknown-linux-gnu/4.9.2/ -mtune=corei7 -march=x86-64 -g -Og
#
# seed  1786428247  -982519716  -209368507  1618824499   214761004  -761111951  -162793933 -1372823399 -1012837074 -1906115436   241521014  1156284289
#
#      Author: C. J. Pickard (cjp20@cam.ac.uk)
#                Space group: P21/c
#

%BLOCK LATTICE_ABC
      4.72898      5.80265     15.12283
     90.00000     90.00000    105.44185
%ENDBLOCK LATTICE_ABC

%BLOCK POSITIONS_FRAC
  Li   0.3421111  -0.2173448   0.1641849 SPIN=   0.00000
  Li   0.1578889   0.2173448  -0.3358151 SPIN=   0.00000
  Li  -0.3421111   0.2173448  -0.1641849 SPIN=   0.00000
  Li  -0.1578889  -0.2173448   0.3358151 SPIN=   0.00000
  Fe  -0.3602547   0.2405381   0.3424907 SPIN=   4.00000
  Fe  -0.1397453  -0.2405381  -0.1575093 SPIN=   4.00000
  Fe   0.3602547  -0.2405381  -0.3424907 SPIN=   4.00000
  Fe   0.1397453   0.2405381   0.1575093 SPIN=   4.00000
   O  -0.1748214  -0.1750585  -0.0166939 SPIN=   0.00000
   O  -0.4787566  -0.4853387   0.0812873 SPIN=   0.00000
   O  -0.1490732  -0.1193336   0.1456375 SPIN=   0.00000
   O   0.0593524  -0.4236774   0.0760387 SPIN=   0.00000
   S  -0.1858247  -0.3008521   0.0715674 SPIN=   0.00000
   O  -0.3251786   0.1750585  -0.5166939 SPIN=   0.00000
   O  -0.0212434   0.4853387  -0.4187127 SPIN=   0.00000
   O  -0.3509268   0.1193336  -0.3543625 SPIN=   0.00000
   O  -0.5593524   0.4236774  -0.4239613 SPIN=   0.00000
   S  -0.3141753   0.3008521  -0.4284326 SPIN=   0.00000
   O   0.1748214   0.1750585   0.0166939 SPIN=   0.00000
   O   0.4787566   0.4853387  -0.0812873 SPIN=   0.00000
   O   0.1490732   0.1193336  -0.1456375 SPIN=   0.00000
   O  -0.0593524   0.4236774  -0.0760387 SPIN=   0.00000
   S   0.1858247   0.3008521  -0.0715674 SPIN=   0.00000
   O   0.3251786  -0.1750585   0.5166939 SPIN=   0.00000
   O   0.0212434  -0.4853387   0.4187127 SPIN=   0.00000
   O   0.3509268  -0.1193336   0.3543625 SPIN=   0.00000
   O   0.5593524  -0.4236774   0.4239613 SPIN=   0.00000
   S   0.3141753  -0.3008521   0.4284326 SPIN=   0.00000
   F  -0.4558709  -0.1140618  -0.1535730 SPIN=   0.00000
   F  -0.0441291   0.1140618   0.3464270 SPIN=   0.00000
   F   0.4558709   0.1140618   0.1535730 SPIN=   0.00000
   F   0.0441291  -0.1140618  -0.3464270 SPIN=   0.00000
%ENDBLOCK POSITIONS_FRAC

# Note: total spin =  16.00

KPOINTS_MP_SPACING 0.07

%BLOCK SPECIES_POT
QC5
%ENDBLOCK SPECIES_POT

SNAP_TO_SYMMETRY
SYMMETRY_GENERATE

