#              Generated by Buildcell
#
# at 11:17:14 (GMT+1.0) 18th August 2020
# in /scratch/scratch/uccabz1/launch_tmp
# on node-k10e-018
# by uccabz1
#
# compiler GCC version 4.9.2
# options -cpp -iprefix /scratch/UCL/applications/gcc/4.9.2/bin/../lib/gcc/x86_64-unknown-linux-gnu/4.9.2/ -mtune=corei7 -march=x86-64 -g -O2
#
# seed  1693783129   262117044  -221806409  -787355480  -501352755 -1676828213 -1122456545  -726604079    17939650  -680685742  -446319101 -1167666991
#
#      Author: C. J. Pickard (cjp20@cam.ac.uk)
#                Space group: P2
#

%BLOCK LATTICE_ABC
      6.48066      7.15509      8.62633
     90.00000     90.00000     90.01259
%ENDBLOCK LATTICE_ABC

%BLOCK POSITIONS_FRAC
  Li   0.2505414  -0.1401959   0.4847877 SPIN=   0.00000
  Li  -0.2505414   0.1401959   0.4847877 SPIN=   0.00000
  Li   0.2494421   0.3598157  -0.3635044 SPIN=   0.00000
  Li  -0.2494421  -0.3598157  -0.3635044 SPIN=   0.00000
  Fe   0.3228715   0.2920559   0.3006027 SPIN=   3.97117
  Fe  -0.3228715  -0.2920559   0.3006027 SPIN=   3.97117
  Fe   0.1771036  -0.2077947  -0.1792355 SPIN=   4.02883
  Fe  -0.1771036   0.2077947  -0.1792355 SPIN=   4.02883
   O  -0.4465725  -0.2843637   0.0583340 SPIN=   0.00000
   O  -0.1799472  -0.0496952  -0.0073781 SPIN=   0.00000
   O  -0.4340992  -0.1483402  -0.2052825 SPIN=   0.00000
   O  -0.1615702  -0.3675282  -0.1197149 SPIN=   0.00000
   S  -0.3055473  -0.2124818  -0.0685104 SPIN=   0.00000
   O   0.4465725   0.2843637   0.0583340 SPIN=   0.00000
   O   0.1799472   0.0496952  -0.0073781 SPIN=   0.00000
   O   0.4340992   0.1483402  -0.2052825 SPIN=   0.00000
   O   0.1615702   0.3675282  -0.1197149 SPIN=   0.00000
   S   0.3055473   0.2124818  -0.0685104 SPIN=   0.00000
   O  -0.2379890   0.4333556   0.3130028 SPIN=   0.00000
   O  -0.2268022   0.3726327   0.0306861 SPIN=   0.00000
   O  -0.3397921   0.1235745   0.2107886 SPIN=   0.00000
   O   0.0265746   0.2209637   0.2045810 SPIN=   0.00000
   S  -0.1945022   0.2876316   0.1897646 SPIN=   0.00000
   O   0.2379890  -0.4333556   0.3130028 SPIN=   0.00000
   O   0.2268022  -0.3726327   0.0306861 SPIN=   0.00000
   O   0.3397921  -0.1235745   0.2107886 SPIN=   0.00000
   O  -0.0265746  -0.2209637   0.2045810 SPIN=   0.00000
   S   0.1945022  -0.2876316   0.1897646 SPIN=   0.00000
   F   0.2493543   0.1479997   0.4697198 SPIN=   0.00000
   F  -0.2493543  -0.1479997   0.4697198 SPIN=   0.00000
   F   0.2507077  -0.3520334  -0.3481309 SPIN=   0.00000
   F  -0.2507077   0.3520334  -0.3481309 SPIN=   0.00000
%ENDBLOCK POSITIONS_FRAC

# Note: total spin =  16.00

KPOINTS_MP_SPACING 0.07

%BLOCK SPECIES_POT
QC5
%ENDBLOCK SPECIES_POT

SNAP_TO_SYMMETRY
SYMMETRY_GENERATE

