#              Generated by Buildcell
#
# at 10:50:55 (GMT+1.0) 4th August 2020
# in /lustre/scratch/uccabz1/launch_tmp
# on node-c12d-010
# by uccabz1
#
# compiler GCC version 4.9.2
# options -cpp -iprefix /lustre/shared/ucl/apps/gcc/4.9.2/bin/../lib/gcc/x86_64-unknown-linux-gnu/4.9.2/ -mtune=corei7 -march=x86-64 -g -Og
#
# seed -1852622810 -1755271621  1257443396  -434941840  1377735956 -1316127582  -636088190   900164127  1572000085  -444464708   659908194  1049708478
#
#      Author: C. J. Pickard (cjp20@cam.ac.uk)
#                Space group: Pc
#

%BLOCK LATTICE_ABC
      5.52513      8.39936      8.74078
     90.00000     99.56409     90.00000
%ENDBLOCK LATTICE_ABC

%BLOCK POSITIONS_FRAC
  Li   0.2543140  -0.2509784   0.2109045 SPIN=   0.00000
  Li  -0.2456860   0.2509784  -0.2890955 SPIN=   0.00000
  Li   0.0693036  -0.3545847  -0.2868024 SPIN=   0.00000
  Li  -0.4306964   0.3545847   0.2131976 SPIN=   0.00000
  Fe   0.4469379   0.1463752  -0.0614905 SPIN=   6.69692
  Fe  -0.0530621  -0.1463752   0.4385095 SPIN=   6.69692
  Fe   0.4990605  -0.4477573  -0.4478060 SPIN=   1.30308
  Fe  -0.0009395   0.4477573   0.0521940 SPIN=   1.30308
   O   0.1300407   0.4545814   0.5764093 SPIN=   0.00000
   O  -0.2858217   0.3444725   0.4905409 SPIN=   0.00000
   O   0.0803187   0.1850637   0.4610397 SPIN=   0.00000
   O  -0.0290384   0.4224459   0.2962954 SPIN=   0.00000
   S  -0.0261252   0.3516409   0.4560713 SPIN=   0.00000
   O   0.6300407  -0.4545814   0.0764093 SPIN=   0.00000
   O   0.2141783  -0.3444725  -0.0094591 SPIN=   0.00000
   O   0.5803187  -0.1850637  -0.0389603 SPIN=   0.00000
   O   0.4709616  -0.4224459  -0.2037046 SPIN=   0.00000
   S   0.4738748  -0.3516409  -0.0439287 SPIN=   0.00000
   O   0.1888954  -0.0921242  -0.1122376 SPIN=   0.00000
   O  -0.0559961   0.0492399  -0.3339542 SPIN=   0.00000
   O  -0.2016634   0.0383580  -0.0812693 SPIN=   0.00000
   O  -0.2064420  -0.2049246  -0.2414804 SPIN=   0.00000
   S  -0.0688015  -0.0523627  -0.1922354 SPIN=   0.00000
   O   0.6888954   0.0921242   0.3877624 SPIN=   0.00000
   O   0.4440039  -0.0492399   0.1660458 SPIN=   0.00000
   O   0.2983366  -0.0383580   0.4187307 SPIN=   0.00000
   O   0.2935580   0.2049246   0.2585196 SPIN=   0.00000
   S   0.4311985   0.0523627   0.3077646 SPIN=   0.00000
   F   0.4317971  -0.4416149   0.3302170 SPIN=   0.00000
   F  -0.0682029   0.4416149  -0.1697830 SPIN=   0.00000
   F  -0.0943585  -0.1645113   0.2173200 SPIN=   0.00000
   F   0.4056415   0.1645113  -0.2826800 SPIN=   0.00000
%ENDBLOCK POSITIONS_FRAC

# Note: total spin =  16.00

KPOINTS_MP_SPACING 0.07

%BLOCK SPECIES_POT
QC5
%ENDBLOCK SPECIES_POT

SNAP_TO_SYMMETRY
SYMMETRY_GENERATE

