#              Generated by Buildcell
#
# at 01:39:49 (GMT+1.0) 18th August 2020
# in /scratch/scratch/uccabz1/launch_tmp
# on node-k10a-007
# by uccabz1
#
# compiler GCC version 4.9.2
# options -cpp -iprefix /scratch/UCL/applications/gcc/4.9.2/bin/../lib/gcc/x86_64-unknown-linux-gnu/4.9.2/ -mtune=corei7 -march=x86-64 -g -O2
#
# seed  -202861065  1132509416  -957025602   247506868 -1197375889  1365772858  -657488677  1854873682 -1526598292  1569563497   999401659    94231435
#
#      Author: C. J. Pickard (cjp20@cam.ac.uk)
#                Space group: Pnn2
#

%BLOCK LATTICE_ABC
      5.19279      6.12269     12.58106
     90.00000     90.00000     90.00000
%ENDBLOCK LATTICE_ABC

%BLOCK POSITIONS_FRAC
  Li  -0.4366234  -0.2474514   0.4333634 SPIN=   0.00000
  Li  -0.4366234   0.2474514  -0.4333634 SPIN=   0.00000
  Li   0.0633766   0.2525486   0.0666366 SPIN=   0.00000
  Li   0.0633766  -0.2525486  -0.0666366 SPIN=   0.00000
  Fe  -0.2706674  -0.2589010   0.1753251 SPIN=   4.00000
  Fe  -0.2706674   0.2589010  -0.1753251 SPIN=   4.00000
  Fe   0.2293326   0.2410990   0.3246749 SPIN=   4.00000
  Fe   0.2293326  -0.2410990  -0.3246749 SPIN=   4.00000
   O   0.0883071  -0.2327347   0.5110926 SPIN=   0.00000
   O   0.0286552  -0.0552624   0.3360761 SPIN=   0.00000
   O  -0.1692405  -0.4156819   0.3715593 SPIN=   0.00000
   O   0.3034527  -0.3839502   0.3517333 SPIN=   0.00000
   S   0.0627936  -0.2719073   0.3926153 SPIN=   0.00000
   O   0.0883071   0.2327347  -0.5110926 SPIN=   0.00000
   O   0.0286552   0.0552624  -0.3360761 SPIN=   0.00000
   O  -0.1692405   0.4156819  -0.3715593 SPIN=   0.00000
   O   0.3034527   0.3839502  -0.3517333 SPIN=   0.00000
   S   0.0627936   0.2719073  -0.3926153 SPIN=   0.00000
   O  -0.4116929   0.2672653  -0.0110926 SPIN=   0.00000
   O  -0.4713448   0.4447376   0.1639239 SPIN=   0.00000
   O  -0.6692405   0.0843181   0.1284407 SPIN=   0.00000
   O  -0.1965473   0.1160498   0.1482667 SPIN=   0.00000
   S  -0.4372064   0.2280927   0.1073847 SPIN=   0.00000
   O  -0.4116929  -0.2672653   0.0110926 SPIN=   0.00000
   O  -0.4713448  -0.4447376  -0.1639239 SPIN=   0.00000
   O  -0.6692405  -0.0843181  -0.1284407 SPIN=   0.00000
   O  -0.1965473  -0.1160498  -0.1482667 SPIN=   0.00000
   S  -0.4372064  -0.2280927  -0.1073847 SPIN=   0.00000
   F  -0.4196196  -0.1801094  -0.3959764 SPIN=   0.00000
   F  -0.4196196   0.1801094   0.3959764 SPIN=   0.00000
   F   0.0803804   0.3198906  -0.1040236 SPIN=   0.00000
   F   0.0803804  -0.3198906   0.1040236 SPIN=   0.00000
%ENDBLOCK POSITIONS_FRAC

# Note: total spin =  16.00

KPOINTS_MP_SPACING 0.07

%BLOCK SPECIES_POT
QC5
%ENDBLOCK SPECIES_POT

SNAP_TO_SYMMETRY
SYMMETRY_GENERATE

