#              Generated by Buildcell
#
# at 00:38:21 (GMT+1.0) 18th August 2020
# in /lustre/scratch/uccabz1/launch_tmp
# on node-c12a-010
# by uccabz1
#
# compiler GCC version 4.9.2
# options -cpp -iprefix /lustre/shared/ucl/apps/gcc/4.9.2/bin/../lib/gcc/x86_64-unknown-linux-gnu/4.9.2/ -mtune=corei7 -march=x86-64 -g -Og
#
# seed -2027513955  -626228546   389970347 -1684103674 -2100282615  1419398302  1832729994   228567730 -1762359121 -1475723788  -121135704   486755923
#
#      Author: C. J. Pickard (cjp20@cam.ac.uk)
#                Space group: I-4
#

%BLOCK LATTICE_ABC
      8.08489      8.08489      8.08489
    105.39256    105.39256    117.97837
%ENDBLOCK LATTICE_ABC

%BLOCK POSITIONS_FRAC
  Li  -0.0773409   0.2184553   0.2641474 SPIN=   0.00000
  Li  -0.0456922  -0.3414883  -0.2641474 SPIN=   0.00000
  Li  -0.2184553   0.0456922  -0.2957961 SPIN=   0.00000
  Li   0.3414883   0.0773409   0.2957961 SPIN=   0.00000
  Fe   0.0245009  -0.0948493   0.4996909 SPIN=   4.00000
  Fe   0.4054597  -0.4751900  -0.4996909 SPIN=   4.00000
  Fe   0.0948493  -0.4054597   0.1193502 SPIN=   4.00000
  Fe   0.4751900  -0.0245009  -0.1193502 SPIN=   4.00000
   O  -0.4776453  -0.3447917   0.2403206 SPIN=   0.00000
   O  -0.2867312  -0.1115268   0.1135269 SPIN=   0.00000
   O  -0.2620570   0.0424292   0.4351764 SPIN=   0.00000
   O  -0.5955848  -0.1389666   0.1403683 SPIN=   0.00000
   S  -0.4055046  -0.1382140   0.2323480 SPIN=   0.00000
   O  -0.5851123   0.2820341  -0.2403206 SPIN=   0.00000
   O  -0.2250537   0.5997419  -0.1135269 SPIN=   0.00000
   O  -0.3927472   0.3027666  -0.4351764 SPIN=   0.00000
   O  -0.2793348   0.2640469  -0.1403683 SPIN=   0.00000
   S  -0.3705620   0.3621474  -0.2323480 SPIN=   0.00000
   O   0.3447917   0.5851123  -0.1328536 SPIN=   0.00000
   O   0.1115268   0.2250537  -0.1752044 SPIN=   0.00000
   O  -0.0424292   0.3927472  -0.3044862 SPIN=   0.00000
   O   0.1389666   0.2793348  -0.4566182 SPIN=   0.00000
   S   0.1382140   0.3705620  -0.2672906 SPIN=   0.00000
   O  -0.2820341   0.4776453   0.1328536 SPIN=   0.00000
   O  -0.5997419   0.2867312   0.1752044 SPIN=   0.00000
   O  -0.3027666   0.2620570   0.3044862 SPIN=   0.00000
   O  -0.2640469   0.5955848   0.4566182 SPIN=   0.00000
   S  -0.3621474   0.4055046   0.2672906 SPIN=   0.00000
   F  -0.3827573  -0.2026161  -0.2794213 SPIN=   0.00000
   F   0.0768052  -0.1033360   0.2794213 SPIN=   0.00000
   F   0.2026161  -0.0768052  -0.1801412 SPIN=   0.00000
   F   0.1033360   0.3827573   0.1801412 SPIN=   0.00000
%ENDBLOCK POSITIONS_FRAC

# Note: total spin =  16.00

KPOINTS_MP_SPACING 0.07

%BLOCK SPECIES_POT
QC5
%ENDBLOCK SPECIES_POT

SNAP_TO_SYMMETRY
SYMMETRY_GENERATE

