#              Generated by Buildcell
#
# at 03:03:47 (GMT+1.0) 18th August 2020
# in /scratch/scratch/uccabz1/launch_tmp
# on node-k10g-031
# by uccabz1
#
# compiler GCC version 4.9.2
# options -cpp -iprefix /scratch/UCL/applications/gcc/4.9.2/bin/../lib/gcc/x86_64-unknown-linux-gnu/4.9.2/ -mtune=corei7 -march=x86-64 -g -O2
#
# seed    66389832 -1879282501   640439430  -437911466 -1480783030  1728402489  1977458593   895786103   729117209   703857310  -325931213  -232516199
#
#      Author: C. J. Pickard (cjp20@cam.ac.uk)
#                Space group: Iba2
#

%BLOCK LATTICE_ABC
      8.05109      8.05109      8.05109
    106.03398    108.98018    113.48766
%ENDBLOCK LATTICE_ABC

%BLOCK POSITIONS_FRAC
  Li  -0.1956330   0.2490195   0.0136738 SPIN=   0.00000
  Li   0.1956330   0.2093068   0.4446525 SPIN=   0.00000
  Li  -0.2353458  -0.2906932  -0.4863262 SPIN=   0.00000
  Li   0.2353458  -0.2509805  -0.0553475 SPIN=   0.00000
  Fe   0.4919479  -0.2610701  -0.2544234 SPIN=   4.00000
  Fe  -0.4919479   0.2536287   0.2469820 SPIN=   4.00000
  Fe   0.0066467  -0.2463713   0.2455766 SPIN=   4.00000
  Fe  -0.0066467   0.2389299  -0.2530180 SPIN=   4.00000
   O   0.0781912  -0.5860205   0.2531648 SPIN=   0.00000
   O   0.2877929  -0.3030587   0.2015543 SPIN=   0.00000
   O   0.2781397  -0.6269333   0.0850729 SPIN=   0.00000
   O   0.4631291  -0.3915957   0.4453078 SPIN=   0.00000
   S   0.2768132  -0.4769021   0.2462750 SPIN=   0.00000
   O  -0.0781912   0.1749736   0.3357883 SPIN=   0.00000
   O  -0.2877929  -0.0862386   0.4091484 SPIN=   0.00000
   O  -0.2781397  -0.1930667   0.0949270 SPIN=   0.00000
   O  -0.4631291  -0.0178213   0.1452752 SPIN=   0.00000
   S  -0.2768132  -0.0305382   0.2462847 SPIN=   0.00000
   O  -0.1608147   0.6749736  -0.2468352 SPIN=   0.00000
   O  -0.4953870   0.4137614  -0.2984457 SPIN=   0.00000
   O  -0.2879937   0.3069333  -0.4149271 SPIN=   0.00000
   O  -0.1630965   0.4821787  -0.0546922 SPIN=   0.00000
   S  -0.2768230   0.4694618  -0.2537250 SPIN=   0.00000
   O   0.1608147  -0.0860205  -0.1642117 SPIN=   0.00000
   O   0.4953870   0.1969413  -0.0908516 SPIN=   0.00000
   O   0.2879937  -0.1269333  -0.4050730 SPIN=   0.00000
   O   0.1630965   0.1084043  -0.3547248 SPIN=   0.00000
   S   0.2768230   0.0230979  -0.2537153 SPIN=   0.00000
   F  -0.2307684  -0.0088988  -0.1777661 SPIN=   0.00000
   F   0.2307684   0.0530023   0.2218696 SPIN=   0.00000
   F  -0.1688673  -0.4469977   0.3222339 SPIN=   0.00000
   F   0.1688673   0.4911012  -0.2781304 SPIN=   0.00000
%ENDBLOCK POSITIONS_FRAC

# Note: total spin =  16.00

KPOINTS_MP_SPACING 0.07

%BLOCK SPECIES_POT
QC5
%ENDBLOCK SPECIES_POT

SNAP_TO_SYMMETRY
SYMMETRY_GENERATE

