#              Generated by Buildcell
#
# at 15:42:48 (GMT+1.0) 18th August 2020
# in /lustre/scratch/uccabz1/launch_tmp
# on node-c12a-021
# by uccabz1
#
# compiler GCC version 4.9.2
# options -cpp -iprefix /lustre/shared/ucl/apps/gcc/4.9.2/bin/../lib/gcc/x86_64-unknown-linux-gnu/4.9.2/ -mtune=corei7 -march=x86-64 -g -Og
#
# seed   919486809 -1196044658   917843864  -677931733 -1891725512 -1519085056   -58416941 -1725892084  1184721621  2054074103  1031115314 -2140095707
#
#      Author: C. J. Pickard (cjp20@cam.ac.uk)
#                Space group: P21
#

%BLOCK LATTICE_ABC
      5.62753      7.35185     10.28526
     90.00000     90.00000    109.94740
%ENDBLOCK LATTICE_ABC

%BLOCK POSITIONS_FRAC
  Li  -0.1175975   0.0463356   0.3055244 SPIN=   0.00000
  Li   0.1175975  -0.0463356  -0.1944756 SPIN=   0.00000
  Li   0.4205581  -0.4704570   0.3437437 SPIN=   0.00000
  Li  -0.4205581   0.4704570  -0.1562563 SPIN=   0.00000
  Fe   0.3119761   0.1768243  -0.4481452 SPIN=   5.39064
  Fe  -0.3119761  -0.1768243   0.0518548 SPIN=   5.39064
  Fe  -0.4153120  -0.2705303  -0.3920760 SPIN=   2.60936
  Fe   0.4153120   0.2705303   0.1079240 SPIN=   2.60936
   O   0.1381759  -0.3436342  -0.2017358 SPIN=   0.00000
   O   0.3109522  -0.4401438  -0.0023505 SPIN=   0.00000
   O  -0.1515783  -0.5505519  -0.0377569 SPIN=   0.00000
   O   0.0831443  -0.2062128   0.0111636 SPIN=   0.00000
   S   0.0951735  -0.3851356  -0.0576699 SPIN=   0.00000
   O  -0.1381759   0.3436342   0.2982642 SPIN=   0.00000
   O  -0.3109522   0.4401438   0.4976495 SPIN=   0.00000
   O   0.1515783   0.5505519   0.4622431 SPIN=   0.00000
   O  -0.0831443   0.2062128   0.5111636 SPIN=   0.00000
   S  -0.0951735   0.3851356   0.4423301 SPIN=   0.00000
   O   0.5249894  -0.1884103   0.3773120 SPIN=   0.00000
   O   0.0769955  -0.2292131   0.3343679 SPIN=   0.00000
   O   0.3946054  -0.1165646   0.1589699 SPIN=   0.00000
   O   0.3980177   0.0991106   0.3442431 SPIN=   0.00000
   S   0.3486520  -0.1087693   0.3037232 SPIN=   0.00000
   O  -0.5249894   0.1884103  -0.1226880 SPIN=   0.00000
   O  -0.0769955   0.2292131  -0.1656321 SPIN=   0.00000
   O  -0.3946054   0.1165646  -0.3410301 SPIN=   0.00000
   O  -0.3980177  -0.0991106  -0.1557569 SPIN=   0.00000
   S  -0.3486520   0.1087693  -0.1962768 SPIN=   0.00000
   F  -0.0156398  -0.1430863  -0.4177833 SPIN=   0.00000
   F   0.0156398   0.1430863   0.0822167 SPIN=   0.00000
   F   0.3393546   0.4060952  -0.3129040 SPIN=   0.00000
   F  -0.3393546  -0.4060952   0.1870960 SPIN=   0.00000
%ENDBLOCK POSITIONS_FRAC

# Note: total spin =  16.00

KPOINTS_MP_SPACING 0.07

%BLOCK SPECIES_POT
QC5
%ENDBLOCK SPECIES_POT

SNAP_TO_SYMMETRY
SYMMETRY_GENERATE

