#              Generated by Buildcell
#
# at 07:04:41 (GMT+1.0) 4th August 2020
# in /lustre/scratch/uccabz1/launch_tmp
# on node-c12h-031
# by uccabz1
#
# compiler GCC version 4.9.2
# options -cpp -iprefix /lustre/shared/ucl/apps/gcc/4.9.2/bin/../lib/gcc/x86_64-unknown-linux-gnu/4.9.2/ -mtune=corei7 -march=x86-64 -g -Og
#
# seed    54963635  1306273541  1701384613 -1246234794  -916123919 -1025282552   988866452  1372318621 -1201653985   406766708  2077818721  -329339378
#
#      Author: C. J. Pickard (cjp20@cam.ac.uk)
#                Space group: P21
#

%BLOCK LATTICE_ABC
      6.96090      7.07052      8.20964
     90.00000     98.12448     90.00000
%ENDBLOCK LATTICE_ABC

%BLOCK POSITIONS_FRAC
  Li   0.1447317   0.3438435   0.0360543 SPIN=   0.00000
  Li  -0.1447317  -0.1561565  -0.0360543 SPIN=   0.00000
  Li  -0.3526314  -0.1142724   0.3916312 SPIN=   0.00000
  Li   0.3526314   0.3857276  -0.3916312 SPIN=   0.00000
  Fe   0.4200532  -0.4554662   0.2832950 SPIN=   4.14847
  Fe  -0.4200532   0.0445338  -0.2832950 SPIN=   4.14847
  Fe   0.2310508   0.0641685   0.3030215 SPIN=   3.85153
  Fe  -0.2310508  -0.4358315  -0.3030215 SPIN=   3.85153
   O  -0.4089534   0.3896209   0.1581740 SPIN=   0.00000
   O  -0.6507714   0.1506815   0.0435819 SPIN=   0.00000
   O  -0.3411246   0.0489633   0.2057814 SPIN=   0.00000
   O  -0.3430884   0.1850230  -0.0722014 SPIN=   0.00000
   S  -0.4359844   0.1935722   0.0838340 SPIN=   0.00000
   O   0.4089534  -0.1103791  -0.1581740 SPIN=   0.00000
   O   0.6507714  -0.3493185  -0.0435819 SPIN=   0.00000
   O   0.3411246  -0.4510367  -0.2057814 SPIN=   0.00000
   O   0.3430884  -0.3149770   0.0722014 SPIN=   0.00000
   S   0.4359844  -0.3064278  -0.0838340 SPIN=   0.00000
   O   0.0263385   0.1190278  -0.4522430 SPIN=   0.00000
   O   0.1698628  -0.1953053  -0.3795825 SPIN=   0.00000
   O  -0.1855493  -0.1500523  -0.4032017 SPIN=   0.00000
   O   0.0307382  -0.0070608  -0.1705191 SPIN=   0.00000
   S   0.0103475  -0.0583477  -0.3513866 SPIN=   0.00000
   O  -0.0263385   0.6190278   0.4522430 SPIN=   0.00000
   O  -0.1698628   0.3046947   0.3795825 SPIN=   0.00000
   O   0.1855493   0.3499477   0.4032017 SPIN=   0.00000
   O  -0.0307382   0.4929392   0.1705191 SPIN=   0.00000
   S  -0.0103475   0.4416523   0.3513866 SPIN=   0.00000
   F  -0.4537996  -0.4531013  -0.4834049 SPIN=   0.00000
   F   0.4537996   0.0468987   0.4834049 SPIN=   0.00000
   F   0.0331832  -0.0964924   0.1692631 SPIN=   0.00000
   F  -0.0331832   0.4035076  -0.1692631 SPIN=   0.00000
%ENDBLOCK POSITIONS_FRAC

# Note: total spin =  16.00

KPOINTS_MP_SPACING 0.07

%BLOCK SPECIES_POT
QC5
%ENDBLOCK SPECIES_POT

SNAP_TO_SYMMETRY
SYMMETRY_GENERATE

