#              Generated by Buildcell
#
# at 06:45:15 (GMT+1.0) 4th August 2020
# in /lustre/scratch/uccabz1/launch_tmp
# on node-c12c-004
# by uccabz1
#
# compiler GCC version 4.9.2
# options -cpp -iprefix /lustre/shared/ucl/apps/gcc/4.9.2/bin/../lib/gcc/x86_64-unknown-linux-gnu/4.9.2/ -mtune=corei7 -march=x86-64 -g -Og
#
# seed -1592450934  -286257430 -2040301823   165633522 -1142977294  -388351976  1331396144    36574569 -1320522811  -697579704   691685377 -1817519016
#
#      Author: C. J. Pickard (cjp20@cam.ac.uk)
#                Space group: C2
#

%BLOCK LATTICE_ABC
      5.91581      8.39710      9.08751
    117.51710     92.15364     90.00000
%ENDBLOCK LATTICE_ABC

%BLOCK POSITIONS_FRAC
  Li  -0.2588610   0.4458624  -0.1536975 SPIN=   0.00000
  Li   0.2588610  -0.4004401   0.1536975 SPIN=   0.00000
  Li   0.1075390  -0.0586446  -0.4020070 SPIN=   0.00000
  Li  -0.1075390   0.3433623   0.4020070 SPIN=   0.00000
  Fe   0.2585443   0.2326749   0.1400341 SPIN=   4.25035
  Fe  -0.2585443   0.0926408  -0.1400341 SPIN=   4.25035
  Fe   0.4470864   0.1114345   0.4691695 SPIN=   3.74965
  Fe  -0.4470864  -0.3577350  -0.4691695 SPIN=   3.74965
   O   0.3827825  -0.0047728  -0.1318826 SPIN=   0.00000
   O   0.2769643  -0.3188695  -0.3307615 SPIN=   0.00000
   O  -0.0071177  -0.1180870  -0.1435909 SPIN=   0.00000
   O   0.3096142  -0.2258770  -0.0295472 SPIN=   0.00000
   S   0.2405608  -0.1669016  -0.1589456 SPIN=   0.00000
   O  -0.3827825   0.1271098   0.1318826 SPIN=   0.00000
   O  -0.2769643   0.0118920   0.3307615 SPIN=   0.00000
   O   0.0071177   0.0255038   0.1435909 SPIN=   0.00000
   O  -0.3096142  -0.1963298   0.0295472 SPIN=   0.00000
   S  -0.2405608  -0.0079561   0.1589456 SPIN=   0.00000
   O   0.1806511   0.2421663  -0.3654742 SPIN=   0.00000
   O   0.1446877   0.5041293  -0.0891780 SPIN=   0.00000
   O   0.4688620   0.3014325  -0.1407315 SPIN=   0.00000
   O   0.0839355   0.1964906  -0.1248502 SPIN=   0.00000
   S   0.2195341   0.3110547  -0.1800585 SPIN=   0.00000
   O  -0.1806511   0.6076405   0.3654742 SPIN=   0.00000
   O  -0.1446877   0.5933074   0.0891780 SPIN=   0.00000
   O  -0.4688620   0.4421640   0.1407315 SPIN=   0.00000
   O  -0.0839355   0.3213408   0.1248502 SPIN=   0.00000
   S  -0.2195341   0.4911132   0.1800585 SPIN=   0.00000
   F  -0.2216647  -0.0346846  -0.3814667 SPIN=   0.00000
   F   0.2216647   0.3467821   0.3814667 SPIN=   0.00000
   F  -0.2629844  -0.4557248  -0.3120836 SPIN=   0.00000
   F   0.2629844  -0.1436412   0.3120836 SPIN=   0.00000
%ENDBLOCK POSITIONS_FRAC

# Note: total spin =  16.00

KPOINTS_MP_SPACING 0.07

%BLOCK SPECIES_POT
QC5
%ENDBLOCK SPECIES_POT

SNAP_TO_SYMMETRY
SYMMETRY_GENERATE

