#              Generated by Buildcell
#
# at 16:08:18 (GMT+1.0) 18th August 2020
# in /lustre/scratch/uccabz1/launch_tmp
# on node-c12o-011
# by uccabz1
#
# compiler GCC version 4.9.2
# options -cpp -iprefix /lustre/shared/ucl/apps/gcc/4.9.2/bin/../lib/gcc/x86_64-unknown-linux-gnu/4.9.2/ -mtune=corei7 -march=x86-64 -g -Og
#
# seed   538184775  1995899724    69176968  -265723836   466992127  2066573170  1459924273 -1900449292  1926431418 -1930890988  1993480009  1940718145
#
#      Author: C. J. Pickard (cjp20@cam.ac.uk)
#                Space group: P-1
#

%BLOCK LATTICE_ABC
      4.30024      9.59222      9.96758
     96.77190     98.33865     96.90634
%ENDBLOCK LATTICE_ABC

%BLOCK POSITIONS_FRAC
  Li   0.2234653   0.2919433   0.1416427 SPIN=   0.00000
  Li  -0.2234653  -0.2919433  -0.1416427 SPIN=   0.00000
  Li   0.2896686   0.0246958  -0.1618597 SPIN=   0.00000
  Li  -0.2896686  -0.0246958   0.1618597 SPIN=   0.00000
  Fe  -0.2386957   0.1225787  -0.3245498 SPIN=   6.03170
  Fe   0.2386957  -0.1225787   0.3245498 SPIN=   6.03170
  Fe   0.6614042  -0.4399997   0.3524950 SPIN=   1.96830
  Fe  -0.6614042   0.4399997  -0.3524950 SPIN=   1.96830
   O  -0.7429701  -0.1835028  -0.2222343 SPIN=   0.00000
   O  -0.7360098  -0.1003331  -0.4477102 SPIN=   0.00000
   O  -0.7548699  -0.3560524  -0.4287516 SPIN=   0.00000
   O  -0.2652290  -0.1902424  -0.3332983 SPIN=   0.00000
   S  -0.6247697  -0.2075327  -0.3579986 SPIN=   0.00000
   O   0.7429701   0.1835028   0.2222343 SPIN=   0.00000
   O   0.7360098   0.1003331   0.4477102 SPIN=   0.00000
   O   0.7548699   0.3560524   0.4287516 SPIN=   0.00000
   O   0.2652290   0.1902424   0.3332983 SPIN=   0.00000
   S   0.6247697   0.2075327   0.3579986 SPIN=   0.00000
   O  -0.3662306   0.1660398  -0.0215829 SPIN=   0.00000
   O   0.0110811   0.3707435  -0.0538040 SPIN=   0.00000
   O  -0.4058188   0.4068810   0.0887394 SPIN=   0.00000
   O  -0.5517141   0.3448479  -0.1625633 SPIN=   0.00000
   S  -0.3281706   0.3221281  -0.0373027 SPIN=   0.00000
   O   0.3662306  -0.1660398   0.0215829 SPIN=   0.00000
   O  -0.0110811  -0.3707435   0.0538040 SPIN=   0.00000
   O   0.4058188  -0.4068810  -0.0887394 SPIN=   0.00000
   O   0.5517141  -0.3448479   0.1625633 SPIN=   0.00000
   S   0.3281706  -0.3221281   0.0373027 SPIN=   0.00000
   F  -0.7957470   0.1521966  -0.3587727 SPIN=   0.00000
   F   0.7957470  -0.1521966   0.3587727 SPIN=   0.00000
   F  -0.1965322   0.4919804  -0.3333350 SPIN=   0.00000
   F   0.1965322  -0.4919804   0.3333350 SPIN=   0.00000
%ENDBLOCK POSITIONS_FRAC

# Note: total spin =  16.00

KPOINTS_MP_SPACING 0.07

%BLOCK SPECIES_POT
QC5
%ENDBLOCK SPECIES_POT

SNAP_TO_SYMMETRY
SYMMETRY_GENERATE

