#              Generated by Buildcell
#
# at 05:52:13 (GMT+1.0) 4th August 2020
# in /lustre/scratch/uccabz1/launch_tmp
# on node-c12l-010
# by uccabz1
#
# compiler GCC version 4.9.2
# options -cpp -iprefix /lustre/shared/ucl/apps/gcc/4.9.2/bin/../lib/gcc/x86_64-unknown-linux-gnu/4.9.2/ -mtune=corei7 -march=x86-64 -g -Og
#
# seed  -955497616 -1890357206  1458706881  -192870580  1094478515  -398941399   329476066  -929163021  1222807125  -355722448 -1147509613  -758995516
#
#      Author: C. J. Pickard (cjp20@cam.ac.uk)
#                Space group: Pm
#

%BLOCK LATTICE_ABC
      6.25998      6.47791     10.73157
     90.00000     90.00000    113.19703
%ENDBLOCK LATTICE_ABC

%BLOCK POSITIONS_FRAC
  Li   0.0985323   0.1189399   0.1735504 SPIN=   0.00000
  Li   0.0985323   0.1189399  -0.1735504 SPIN=   0.00000
  Li   0.4429147   0.4263443   0.5000000 SPIN=   0.00000
  Li  -0.1657444   0.1593412  -0.5000000 SPIN=   0.00000
  Fe  -0.2591197  -0.2251978  -0.3267122 SPIN=   2.89552
  Fe  -0.2591197  -0.2251978   0.3267122 SPIN=   2.89552
  Fe   0.3033724  -0.0660102   0.5000000 SPIN=   3.73499
  Fe  -0.3342735  -0.0834125   0.0000000 SPIN=   6.47397
   O   0.5985654   0.4170184  -0.3283610 SPIN=   0.00000
   O   0.6136440   0.2981137  -0.1105136 SPIN=   0.00000
   O   0.7494479   0.1249640  -0.2821574 SPIN=   0.00000
   O   0.3299713   0.0399080  -0.2582551 SPIN=   0.00000
   S   0.5729072   0.2200010  -0.2448218 SPIN=   0.00000
   O   0.5985654   0.4170184   0.3283610 SPIN=   0.00000
   O   0.6136440   0.2981137   0.1105136 SPIN=   0.00000
   O   0.7494479   0.1249640   0.2821574 SPIN=   0.00000
   O   0.3299713   0.0399080   0.2582551 SPIN=   0.00000
   S   0.5729072   0.2200010   0.2448218 SPIN=   0.00000
   O  -0.8086264  -0.2204186   0.1126919 SPIN=   0.00000
   O  -0.7503106  -0.3598571   0.3192992 SPIN=   0.00000
   O  -0.5647711  -0.4406158   0.1323838 SPIN=   0.00000
   O  -0.9909149  -0.6268064   0.1601250 SPIN=   0.00000
   S  -0.7786557  -0.4119245   0.1811250 SPIN=   0.00000
   O  -0.8086264  -0.2204186  -0.1126919 SPIN=   0.00000
   O  -0.7503106  -0.3598571  -0.3192992 SPIN=   0.00000
   O  -0.5647711  -0.4406158  -0.1323838 SPIN=   0.00000
   O  -0.9909149  -0.6268064  -0.1601250 SPIN=   0.00000
   S  -0.7786557  -0.4119245  -0.1811250 SPIN=   0.00000
   F   0.1603555   0.1445670   0.5000000 SPIN=   0.00000
   F  -0.0695838  -0.4438045  -0.5000000 SPIN=   0.00000
   F  -0.0031505   0.0264823   0.0000000 SPIN=   0.00000
   F  -0.4481597  -0.1640028  -0.5000000 SPIN=   0.00000
%ENDBLOCK POSITIONS_FRAC

# Note: total spin =  16.00

KPOINTS_MP_SPACING 0.07

%BLOCK SPECIES_POT
QC5
%ENDBLOCK SPECIES_POT

SNAP_TO_SYMMETRY
SYMMETRY_GENERATE

