#              Generated by Buildcell
#
# at 06:50:42 (GMT+1.0) 4th August 2020
# in /lustre/scratch/uccabz1/launch_tmp
# on node-c12e-009
# by uccabz1
#
# compiler GCC version 4.9.2
# options -cpp -iprefix /lustre/shared/ucl/apps/gcc/4.9.2/bin/../lib/gcc/x86_64-unknown-linux-gnu/4.9.2/ -mtune=corei7 -march=x86-64 -g -Og
#
# seed  -212763818 -1043146469 -1868446959   -58851722 -1487075963  1031840488   214864124  2123841317  -922245951 -1508592971  -470999424  -984544683
#
#      Author: C. J. Pickard (cjp20@cam.ac.uk)
#                Space group: C2
#

%BLOCK LATTICE_ABC
      6.68830      7.81495      7.81495
     79.25072     86.43513     86.43513
%ENDBLOCK LATTICE_ABC

%BLOCK POSITIONS_FRAC
  Li  -0.3134887  -0.2174927  -0.4906653 SPIN=   0.00000
  Li   0.3134887   0.4906653   0.2174927 SPIN=   0.00000
  Li  -0.2406009  -0.2206283   0.0058954 SPIN=   0.00000
  Li   0.2406009  -0.0058954   0.2206283 SPIN=   0.00000
  Fe  -0.1890886   0.0991121   0.1358554 SPIN=   4.87822
  Fe   0.1890886  -0.1358554  -0.0991121 SPIN=   4.87822
  Fe  -0.1124443  -0.4898081  -0.1956880 SPIN=   3.12178
  Fe   0.1124443   0.1956880   0.4898081 SPIN=   3.12178
   O   0.3332500   0.0714961  -0.0142419 SPIN=   0.00000
   O   0.4688086   0.3649938  -0.0590940 SPIN=   0.00000
   O   0.1418711   0.3098788   0.1020349 SPIN=   0.00000
   O   0.1734723   0.3163379  -0.2162916 SPIN=   0.00000
   S   0.2793505   0.2656766  -0.0468982 SPIN=   0.00000
   O  -0.3332500   0.0142419  -0.0714961 SPIN=   0.00000
   O  -0.4688086   0.0590940  -0.3649938 SPIN=   0.00000
   O  -0.1418711  -0.1020349  -0.3098788 SPIN=   0.00000
   O  -0.1734723   0.2162916  -0.3163379 SPIN=   0.00000
   S  -0.2793505   0.0468982  -0.2656766 SPIN=   0.00000
   O  -0.1597348   0.3339575   0.3932848 SPIN=   0.00000
   O   0.0158787   0.5856821   0.2238563 SPIN=   0.00000
   O  -0.3530698   0.6060486   0.2746370 SPIN=   0.00000
   O  -0.1982292   0.4179902   0.0752392 SPIN=   0.00000
   S  -0.1737888   0.4859196   0.2417543 SPIN=   0.00000
   O   0.1597348  -0.3932848  -0.3339575 SPIN=   0.00000
   O  -0.0158787  -0.2238563  -0.5856821 SPIN=   0.00000
   O   0.3530698  -0.2746370  -0.6060486 SPIN=   0.00000
   O   0.1982292  -0.0752392  -0.4179902 SPIN=   0.00000
   S   0.1737888  -0.2417543  -0.4859196 SPIN=   0.00000
   F  -0.3503399  -0.0493101   0.2983927 SPIN=   0.00000
   F   0.3503399  -0.2983927   0.0493101 SPIN=   0.00000
   F  -0.3431394  -0.4312739  -0.3250036 SPIN=   0.00000
   F   0.3431394   0.3250036   0.4312739 SPIN=   0.00000
%ENDBLOCK POSITIONS_FRAC

# Note: total spin =  16.00

KPOINTS_MP_SPACING 0.07

%BLOCK SPECIES_POT
QC5
%ENDBLOCK SPECIES_POT

SNAP_TO_SYMMETRY
SYMMETRY_GENERATE

