#              Generated by Buildcell
#
# at 08:17:36 (GMT+1.0) 18th August 2020
# in /lustre/scratch/uccabz1/launch_tmp
# on node-c12f-029
# by uccabz1
#
# compiler GCC version 4.9.2
# options -cpp -iprefix /lustre/shared/ucl/apps/gcc/4.9.2/bin/../lib/gcc/x86_64-unknown-linux-gnu/4.9.2/ -mtune=corei7 -march=x86-64 -g -Og
#
# seed -1660460679    18266750  -733113880  -570996639   731433195  1539179313 -1336836547   187909503  -331052028 -1213188105   -44418179 -2081287056
#
#      Author: C. J. Pickard (cjp20@cam.ac.uk)
#                Space group: Cc
#

%BLOCK LATTICE_ABC
      6.56958      7.76696      9.43359
    105.72825    100.48552    113.81351
%ENDBLOCK LATTICE_ABC

%BLOCK POSITIONS_FRAC
  Li   0.4912036   0.1919213   0.2816532 SPIN=   0.00000
  Li   0.2095504   0.4102682  -0.2816532 SPIN=   0.00000
  Li  -0.1902124  -0.0906737   0.1032438 SPIN=   0.00000
  Li   0.7065438   0.3060826  -0.1032438 SPIN=   0.00000
  Fe  -0.3835097  -0.1902693  -0.2439607 SPIN=   2.37432
  Fe  -0.1395490  -0.4463085   0.2439607 SPIN=   2.37432
  Fe   0.2828199   0.0416651  -0.4007642 SPIN=   5.62568
  Fe  -0.3164159  -0.0575708   0.4007642 SPIN=   5.62568
   O  -0.1412242  -0.5164595  -0.2737242 SPIN=   0.00000
   O   0.2079867  -0.2645233  -0.3054894 SPIN=   0.00000
   O  -0.1849223  -0.2964752  -0.4105593 SPIN=   0.00000
   O  -0.0966743  -0.5703496  -0.5347109 SPIN=   0.00000
   S  -0.0537085  -0.4119519  -0.3811210 SPIN=   0.00000
   O   0.1325000   0.2572647   0.2737242 SPIN=   0.00000
   O   0.5134761   0.5409661   0.3054894 SPIN=   0.00000
   O   0.2256370   0.6140841   0.4105593 SPIN=   0.00000
   O   0.4380366   0.4643613   0.5347109 SPIN=   0.00000
   S   0.3274125   0.4691691   0.3811210 SPIN=   0.00000
   O   0.3759769  -0.2296759   0.2051578 SPIN=   0.00000
   O  -0.0112843  -0.4043095  -0.0032589 SPIN=   0.00000
   O   0.3537496  -0.2192401  -0.0568742 SPIN=   0.00000
   O   0.2103876  -0.0276000   0.1155365 SPIN=   0.00000
   S   0.2322075  -0.2202064   0.0651403 SPIN=   0.00000
   O   0.1708191   0.0651663  -0.2051578 SPIN=   0.00000
   O  -0.0080254   0.0989494   0.0032589 SPIN=   0.00000
   O   0.4106238   0.3376341   0.0568742 SPIN=   0.00000
   O   0.0948511   0.3568635  -0.1155365 SPIN=   0.00000
   S   0.1670672   0.2146533  -0.0651403 SPIN=   0.00000
   F  -0.3947028  -0.3916784  -0.1312601 SPIN=   0.00000
   F   0.7365573   0.2395817   0.1312601 SPIN=   0.00000
   F  -0.0418270  -0.1362628   0.3493749 SPIN=   0.00000
   F  -0.3912019   0.0143623  -0.3493749 SPIN=   0.00000
%ENDBLOCK POSITIONS_FRAC

# Note: total spin =  16.00

KPOINTS_MP_SPACING 0.07

%BLOCK SPECIES_POT
QC5
%ENDBLOCK SPECIES_POT

SNAP_TO_SYMMETRY
SYMMETRY_GENERATE

