#              Generated by Buildcell
#
# at 10:18:19 (GMT+1.0) 4th August 2020
# in /lustre/scratch/uccabz1/launch_tmp
# on node-c12c-028
# by uccabz1
#
# compiler GCC version 4.9.2
# options -cpp -iprefix /lustre/shared/ucl/apps/gcc/4.9.2/bin/../lib/gcc/x86_64-unknown-linux-gnu/4.9.2/ -mtune=corei7 -march=x86-64 -g -Og
#
# seed -1163640258 -1485980755  2046928673 -1771370886  -337936599  -672742026   830781610  -967550355   -54814459  1304163017  -988814036   584974991
#
#      Author: C. J. Pickard (cjp20@cam.ac.uk)
#                Space group: C2
#

%BLOCK LATTICE_ABC
      7.42743      8.14710      8.14710
    112.25569    105.55297    105.55297
%ENDBLOCK LATTICE_ABC

%BLOCK POSITIONS_FRAC
  Li   0.2221113  -0.0612598  -0.2314102 SPIN=   0.00000
  Li  -0.2221113   0.2314102   0.0612598 SPIN=   0.00000
  Li   0.2352513   0.1303813   0.4277166 SPIN=   0.00000
  Li  -0.2352513  -0.4277166  -0.1303813 SPIN=   0.00000
  Fe  -0.2994140  -0.8672273  -0.4514670 SPIN=   3.69885
  Fe   0.2994140  -0.5485330  -0.1327727 SPIN=   3.69885
  Fe   0.2605150   0.5780980   0.4718854 SPIN=   4.30115
  Fe   0.7394850   0.5281146   0.4219020 SPIN=   4.30115
   O  -0.4312420  -0.0570678  -0.3086456 SPIN=   0.00000
   O  -0.3732054  -0.3339139  -0.2844184 SPIN=   0.00000
   O  -0.1719531   0.0003376  -0.0052834 SPIN=   0.00000
   O  -0.1088346  -0.0908754  -0.3040400 SPIN=   0.00000
   S  -0.2713088  -0.1203799  -0.2255968 SPIN=   0.00000
   O   0.4312420   0.3086456   0.0570678 SPIN=   0.00000
   O   0.3732054   0.2844184   0.3339139 SPIN=   0.00000
   O   0.1719531   0.0052834  -0.0003376 SPIN=   0.00000
   O   0.1088346   0.3040400   0.0908754 SPIN=   0.00000
   S   0.2713088   0.2255968   0.1203799 SPIN=   0.00000
   O   0.3270330  -0.3650008   0.1409885 SPIN=   0.00000
   O   0.2216926  -0.1838296   0.3905920 SPIN=   0.00000
   O   0.0468816  -0.2640462   0.0479496 SPIN=   0.00000
   O   0.4056884  -0.0164914   0.2480838 SPIN=   0.00000
   S   0.2503239  -0.2073420   0.2069035 SPIN=   0.00000
   O  -0.3270330  -0.1409885   0.3650008 SPIN=   0.00000
   O  -0.2216926  -0.3905920   0.1838296 SPIN=   0.00000
   O  -0.0468816  -0.0479496   0.2640462 SPIN=   0.00000
   O  -0.4056884  -0.2480838   0.0164914 SPIN=   0.00000
   S  -0.2503239  -0.2069035   0.2073420 SPIN=   0.00000
   F   0.2220451  -0.2966751  -0.2622987 SPIN=   0.00000
   F   0.7779549   0.2622987   0.2966751 SPIN=   0.00000
   F  -0.7889493  -0.8385618  -0.3454098 SPIN=   0.00000
   F  -0.2110507  -0.6545902  -0.1614382 SPIN=   0.00000
%ENDBLOCK POSITIONS_FRAC

# Note: total spin =  16.00

KPOINTS_MP_SPACING 0.07

%BLOCK SPECIES_POT
QC5
%ENDBLOCK SPECIES_POT

SNAP_TO_SYMMETRY
SYMMETRY_GENERATE

