#              Generated by Buildcell
#
# at 12:28:13 (GMT+1.0) 18th August 2020
# in /scratch/scratch/uccabz1/launch_tmp
# on node-k10i-003
# by uccabz1
#
# compiler GCC version 4.9.2
# options -cpp -iprefix /scratch/UCL/applications/gcc/4.9.2/bin/../lib/gcc/x86_64-unknown-linux-gnu/4.9.2/ -mtune=corei7 -march=x86-64 -g -O2
#
# seed   -11544431 -1569868131  1625203283  -895538300  1277903327   331008057  1268405848  -858967442 -2082364149   523650699  1025250003   398447507
#
#      Author: C. J. Pickard (cjp20@cam.ac.uk)
#                Space group: Cc
#

%BLOCK LATTICE_ABC
      7.54871      7.81002      7.81002
     63.36630     78.43391     78.43391
%ENDBLOCK LATTICE_ABC

%BLOCK POSITIONS_FRAC
  Li   0.0720312  -0.0510985   0.0479490 SPIN=   0.00000
  Li  -0.4279688   0.0479490  -0.0510985 SPIN=   0.00000
  Li   0.3483284  -0.3216413   0.4972681 SPIN=   0.00000
  Li  -0.1516716   0.4972681  -0.3216413 SPIN=   0.00000
  Fe  -0.4878474   0.4292830  -0.0164262 SPIN=   1.61655
  Fe   0.0121526  -0.0164262   0.4292830 SPIN=   1.61655
  Fe  -0.1362340  -0.2863277  -0.0500536 SPIN=   6.38345
  Fe   0.3637660  -0.0500536  -0.2863277 SPIN=   6.38345
   O  -0.4522574   0.1481710   0.3786159 SPIN=   0.00000
   O  -0.4292907   0.2491563   0.6310507 SPIN=   0.00000
   O  -0.4305415   0.4903151   0.2907881 SPIN=   0.00000
   O  -0.1627255   0.2436268   0.3895355 SPIN=   0.00000
   S  -0.3687037   0.2828173   0.4224976 SPIN=   0.00000
   O   0.0477426   0.3786159   0.1481710 SPIN=   0.00000
   O   0.0707093   0.6310507   0.2491563 SPIN=   0.00000
   O   0.0694585   0.2907881   0.4903151 SPIN=   0.00000
   O   0.3372745   0.3895355   0.2436268 SPIN=   0.00000
   S   0.1312963   0.4224976   0.2828173 SPIN=   0.00000
   O   0.0669729   0.5811085  -0.2603240 SPIN=   0.00000
   O   0.0588809   0.2326438  -0.1547782 SPIN=   0.00000
   O   0.3092774   0.3405940  -0.0810907 SPIN=   0.00000
   O   0.2929677   0.4015646  -0.4173830 SPIN=   0.00000
   S   0.1820247   0.3889777  -0.2283940 SPIN=   0.00000
   O  -0.4330271  -0.2603240   0.5811085 SPIN=   0.00000
   O  -0.4411191  -0.1547782   0.2326438 SPIN=   0.00000
   O  -0.1907226  -0.0810907   0.3405940 SPIN=   0.00000
   O  -0.2070323  -0.4173830   0.4015646 SPIN=   0.00000
   S  -0.3179753  -0.2283940   0.3889777 SPIN=   0.00000
   F  -0.3798027  -0.2308911  -0.0912474 SPIN=   0.00000
   F   0.1201973  -0.0912474  -0.2308911 SPIN=   0.00000
   F  -0.3144845   0.2367362  -0.0454721 SPIN=   0.00000
   F   0.1855155  -0.0454721   0.2367362 SPIN=   0.00000
%ENDBLOCK POSITIONS_FRAC

# Note: total spin =  16.00

KPOINTS_MP_SPACING 0.07

%BLOCK SPECIES_POT
QC5
%ENDBLOCK SPECIES_POT

SNAP_TO_SYMMETRY
SYMMETRY_GENERATE

