#              Generated by Buildcell
#
# at 08:50:38 (GMT+1.0) 4th August 2020
# in /lustre/scratch/uccabz1/launch_tmp
# on node-c12l-012
# by uccabz1
#
# compiler GCC version 4.9.2
# options -cpp -iprefix /lustre/shared/ucl/apps/gcc/4.9.2/bin/../lib/gcc/x86_64-unknown-linux-gnu/4.9.2/ -mtune=corei7 -march=x86-64 -g -Og
#
# seed  1707670373  1359814242  -542967495  1120083269   818385260   500860535   943516388  2106768175   422187351 -1285344117   147864028  1396532477
#
#      Author: C. J. Pickard (cjp20@cam.ac.uk)
#                Space group: Pc
#

%BLOCK LATTICE_ABC
      7.07880      7.64025      7.69886
     90.00000    106.12615     90.00000
%ENDBLOCK LATTICE_ABC

%BLOCK POSITIONS_FRAC
  Li   0.1615288   0.0502155  -0.3447553 SPIN=   0.00000
  Li   0.1615288  -0.0502155   0.1552447 SPIN=   0.00000
  Li   0.4642823   0.4668145  -0.2349608 SPIN=   0.00000
  Li   0.4642823  -0.4668145   0.2650392 SPIN=   0.00000
  Fe  -0.1840440  -0.1053193   0.3068735 SPIN=   3.08690
  Fe  -0.1840440   0.1053193  -0.1931265 SPIN=   3.08690
  Fe   0.4393630   0.2008658   0.0477842 SPIN=   4.91310
  Fe   0.4393630  -0.2008658  -0.4522158 SPIN=   4.91310
   O  -0.3747534  -0.4383963  -0.4557544 SPIN=   0.00000
   O  -0.1698722  -0.4173968  -0.6682949 SPIN=   0.00000
   O  -0.1843129  -0.6953033  -0.5073224 SPIN=   0.00000
   O  -0.0118241  -0.4389510  -0.3391582 SPIN=   0.00000
   S  -0.1851906  -0.4975119  -0.4926325 SPIN=   0.00000
   O  -0.3747534   0.4383963   0.0442456 SPIN=   0.00000
   O  -0.1698722   0.4173968  -0.1682949 SPIN=   0.00000
   O  -0.1843129   0.6953033  -0.0073224 SPIN=   0.00000
   O  -0.0118241   0.4389510   0.1608418 SPIN=   0.00000
   S  -0.1851906   0.4975119   0.0073675 SPIN=   0.00000
   O   0.4808529   0.2481995   0.3297493 SPIN=   0.00000
   O   0.4772369   0.2230145   0.6492966 SPIN=   0.00000
   O   0.2315624   0.0626061   0.4107520 SPIN=   0.00000
   O   0.2125682   0.3851239   0.4306955 SPIN=   0.00000
   S   0.3505551   0.2297360   0.4551234 SPIN=   0.00000
   O   0.4808529  -0.2481995  -0.1702507 SPIN=   0.00000
   O   0.4772369  -0.2230145   0.1492966 SPIN=   0.00000
   O   0.2315624  -0.0626061  -0.0892480 SPIN=   0.00000
   O   0.2125682  -0.3851239  -0.0693045 SPIN=   0.00000
   S   0.3505551  -0.2297360  -0.0448766 SPIN=   0.00000
   F   0.1797023   0.2775396  -0.1533983 SPIN=   0.00000
   F   0.1797023  -0.2775396   0.3466017 SPIN=   0.00000
   F  -0.1395001  -0.0373675  -0.4162482 SPIN=   0.00000
   F  -0.1395001   0.0373675   0.0837518 SPIN=   0.00000
%ENDBLOCK POSITIONS_FRAC

# Note: total spin =  16.00

KPOINTS_MP_SPACING 0.07

%BLOCK SPECIES_POT
QC5
%ENDBLOCK SPECIES_POT

SNAP_TO_SYMMETRY
SYMMETRY_GENERATE

