#              Generated by Buildcell
#
# at 09:12:47 (GMT+1.0) 4th August 2020
# in /lustre/scratch/uccabz1/launch_tmp
# on node-c12d-008
# by uccabz1
#
# compiler GCC version 4.9.2
# options -cpp -iprefix /lustre/shared/ucl/apps/gcc/4.9.2/bin/../lib/gcc/x86_64-unknown-linux-gnu/4.9.2/ -mtune=corei7 -march=x86-64 -g -Og
#
# seed  1821470194   445655694  1364733546   969234966  2089722052 -1829712030   254738424  -501670999  -154140593  -525262911  1175264658  1102805233
#
#      Author: C. J. Pickard (cjp20@cam.ac.uk)
#                Space group: Pba2
#

%BLOCK LATTICE_ABC
      5.98055      7.84315      8.52763
     90.00000     90.00000     90.00000
%ENDBLOCK LATTICE_ABC

%BLOCK POSITIONS_FRAC
  Li  -0.2804535  -0.0024103   0.2305922 SPIN=   0.00000
  Li  -0.2804535   0.0024103  -0.2305922 SPIN=   0.00000
  Li  -0.2804535  -0.4975897  -0.2694078 SPIN=   0.00000
  Li  -0.2804535   0.4975897   0.2694078 SPIN=   0.00000
  Fe  -0.0361795  -0.2616325   0.4879710 SPIN=   4.00000
  Fe  -0.0361795   0.2616325  -0.4879710 SPIN=   4.00000
  Fe  -0.0361795  -0.2383675  -0.0120290 SPIN=   4.00000
  Fe  -0.0361795   0.2383675   0.0120290 SPIN=   4.00000
   O   0.4314657   0.1238934  -0.3194439 SPIN=   0.00000
   O   0.3415253  -0.0881955  -0.1140236 SPIN=   0.00000
   O   0.2068324  -0.1311748  -0.3855764 SPIN=   0.00000
   O   0.0436242   0.0972139  -0.2212547 SPIN=   0.00000
   S   0.2558619   0.0004343  -0.2600747 SPIN=   0.00000
   O   0.4314657  -0.1238934   0.3194439 SPIN=   0.00000
   O   0.3415253   0.0881955   0.1140236 SPIN=   0.00000
   O   0.2068324   0.1311748   0.3855764 SPIN=   0.00000
   O   0.0436242  -0.0972139   0.2212547 SPIN=   0.00000
   S   0.2558619  -0.0004343   0.2600747 SPIN=   0.00000
   O   0.4314657   0.3761066   0.1805561 SPIN=   0.00000
   O   0.3415253   0.5881955   0.3859764 SPIN=   0.00000
   O   0.2068324   0.6311748   0.1144236 SPIN=   0.00000
   O   0.0436242   0.4027861   0.2787453 SPIN=   0.00000
   S   0.2558619   0.4995657   0.2399253 SPIN=   0.00000
   O   0.4314657  -0.3761066  -0.1805561 SPIN=   0.00000
   O   0.3415253  -0.5881955  -0.3859764 SPIN=   0.00000
   O   0.2068324  -0.6311748  -0.1144236 SPIN=   0.00000
   O   0.0436242  -0.4027861  -0.2787453 SPIN=   0.00000
   S   0.2558619  -0.4995657  -0.2399253 SPIN=   0.00000
   F  -0.3301394  -0.2592222  -0.4528518 SPIN=   0.00000
   F  -0.3301394   0.2592222   0.4528518 SPIN=   0.00000
   F  -0.3301394  -0.2407778   0.0471482 SPIN=   0.00000
   F  -0.3301394   0.2407778  -0.0471482 SPIN=   0.00000
%ENDBLOCK POSITIONS_FRAC

# Note: total spin =  16.00

KPOINTS_MP_SPACING 0.07

%BLOCK SPECIES_POT
QC5
%ENDBLOCK SPECIES_POT

SNAP_TO_SYMMETRY
SYMMETRY_GENERATE

