#              Generated by Buildcell
#
# at 04:50:25 (GMT+1.0) 18th August 2020
# in /lustre/scratch/uccabz1/launch_tmp
# on node-c12e-033
# by uccabz1
#
# compiler GCC version 4.9.2
# options -cpp -iprefix /lustre/shared/ucl/apps/gcc/4.9.2/bin/../lib/gcc/x86_64-unknown-linux-gnu/4.9.2/ -mtune=corei7 -march=x86-64 -g -Og
#
# seed   441790673   333669297  -229822872  -411340598 -1553548425   186480874  1220458663  1948901570   658838652  2115466524  2002047528  1362749132
#
#      Author: C. J. Pickard (cjp20@cam.ac.uk)
#                Space group: Pc
#

%BLOCK LATTICE_ABC
      6.31497      8.14696      8.74088
    117.19155     90.00000     90.00000
%ENDBLOCK LATTICE_ABC

%BLOCK POSITIONS_FRAC
  Li   0.0831493  -0.0970657  -0.4720196 SPIN=   0.00000
  Li  -0.0831493   0.4029343   0.0279804 SPIN=   0.00000
  Li   0.4765312   0.0537314  -0.0261784 SPIN=   0.00000
  Li  -0.4765312  -0.4462686   0.4738216 SPIN=   0.00000
  Fe  -0.4082659  -0.4358816  -0.1755485 SPIN=   2.09669
  Fe   0.4082659   0.0641184   0.3244515 SPIN=   2.09669
  Fe   0.0970966  -0.2031592  -0.1787470 SPIN=   5.90331
  Fe  -0.0970966   0.2968408   0.3212530 SPIN=   5.90331
   O   0.0537174   0.1600917  -0.2848948 SPIN=   0.00000
   O   0.1134621   0.3079915  -0.4734357 SPIN=   0.00000
   O   0.2859442   0.4341585  -0.1879706 SPIN=   0.00000
   O  -0.1011815   0.4668146  -0.2088582 SPIN=   0.00000
   S   0.0879855   0.3422641  -0.2887898 SPIN=   0.00000
   O  -0.0537174  -0.3399083   0.2151052 SPIN=   0.00000
   O  -0.1134621  -0.1920085   0.0265643 SPIN=   0.00000
   O  -0.2859442  -0.0658415   0.3120294 SPIN=   0.00000
   O   0.1011815  -0.0331854   0.2911418 SPIN=   0.00000
   S  -0.0879855  -0.1577359   0.2112102 SPIN=   0.00000
   O   0.2792108   0.5974883   0.1189320 SPIN=   0.00000
   O   0.6374372   0.5115957   0.1724377 SPIN=   0.00000
   O   0.4100247   0.2784367  -0.0526015 SPIN=   0.00000
   O   0.3206958   0.3912583   0.2547836 SPIN=   0.00000
   S   0.4118421   0.4446947   0.1233879 SPIN=   0.00000
   O  -0.2792108   0.0974883  -0.3810680 SPIN=   0.00000
   O  -0.6374372   0.0115957  -0.3275623 SPIN=   0.00000
   O  -0.4100247  -0.2215633  -0.5526015 SPIN=   0.00000
   O  -0.3206958  -0.1087417  -0.2452164 SPIN=   0.00000
   S  -0.4118421  -0.0553053  -0.3766121 SPIN=   0.00000
   F   0.4119894  -0.1725182  -0.0221372 SPIN=   0.00000
   F  -0.4119894   0.3274818   0.4778628 SPIN=   0.00000
   F  -0.0880851   0.1714707   0.0234390 SPIN=   0.00000
   F   0.0880851  -0.3285293  -0.4765610 SPIN=   0.00000
%ENDBLOCK POSITIONS_FRAC

# Note: total spin =  16.00

KPOINTS_MP_SPACING 0.07

%BLOCK SPECIES_POT
QC5
%ENDBLOCK SPECIES_POT

SNAP_TO_SYMMETRY
SYMMETRY_GENERATE

