#              Generated by Buildcell
#
# at 10:12:28 (GMT+1.0) 4th August 2020
# in /lustre/scratch/uccabz1/launch_tmp
# on node-c12l-018
# by uccabz1
#
# compiler GCC version 4.9.2
# options -cpp -iprefix /lustre/shared/ucl/apps/gcc/4.9.2/bin/../lib/gcc/x86_64-unknown-linux-gnu/4.9.2/ -mtune=corei7 -march=x86-64 -g -Og
#
# seed  1696203641  -594774041   978410841 -1885121971 -1683277850  -114643633  1174450766   283477468 -1689720045   606912985  2117304088  -789855882
#
#      Author: C. J. Pickard (cjp20@cam.ac.uk)
#                Space group: P4
#

%BLOCK LATTICE_ABC
      4.40351      9.53082      9.53082
     90.00000     90.00000     90.00000
%ENDBLOCK LATTICE_ABC

%BLOCK POSITIONS_FRAC
  Li  -0.2994007  -0.1413221  -0.2752889 SPIN=   0.00000
  Li  -0.2994007   0.1413221   0.2752889 SPIN=   0.00000
  Li  -0.2994007   0.2752889  -0.1413221 SPIN=   0.00000
  Li  -0.2994007  -0.2752889   0.1413221 SPIN=   0.00000
  Fe   0.2358621  -0.0838636   0.2608908 SPIN=   4.00000
  Fe   0.2358621   0.0838636  -0.2608908 SPIN=   4.00000
  Fe   0.2358621  -0.2608908  -0.0838636 SPIN=   4.00000
  Fe   0.2358621   0.2608908   0.0838636 SPIN=   4.00000
   O   0.1742266  -0.1484092  -0.2809825 SPIN=   0.00000
   O  -0.1140208  -0.2504823  -0.4791576 SPIN=   0.00000
   O   0.3811440  -0.3522458  -0.4103646 SPIN=   0.00000
   O   0.3607767  -0.1190287  -0.5241627 SPIN=   0.00000
   S   0.2005316  -0.2175415  -0.4236669 SPIN=   0.00000
   O   0.1742266   0.1484092   0.2809825 SPIN=   0.00000
   O  -0.1140208   0.2504823   0.4791576 SPIN=   0.00000
   O   0.3811440   0.3522458   0.4103646 SPIN=   0.00000
   O   0.3607767   0.1190287   0.5241627 SPIN=   0.00000
   S   0.2005316   0.2175415   0.4236669 SPIN=   0.00000
   O   0.1742266   0.2809825  -0.1484092 SPIN=   0.00000
   O  -0.1140208   0.4791576  -0.2504823 SPIN=   0.00000
   O   0.3811440   0.4103646  -0.3522458 SPIN=   0.00000
   O   0.3607767   0.5241627  -0.1190287 SPIN=   0.00000
   S   0.2005316   0.4236669  -0.2175415 SPIN=   0.00000
   O   0.1742266  -0.2809825   0.1484092 SPIN=   0.00000
   O  -0.1140208  -0.4791576   0.2504823 SPIN=   0.00000
   O   0.3811440  -0.4103646   0.3522458 SPIN=   0.00000
   O   0.3607767  -0.5241627   0.1190287 SPIN=   0.00000
   S   0.2005316  -0.4236669   0.2175415 SPIN=   0.00000
   F  -0.2324415   0.1117438  -0.2774711 SPIN=   0.00000
   F  -0.2324415  -0.1117438   0.2774711 SPIN=   0.00000
   F  -0.2324415   0.2774711   0.1117438 SPIN=   0.00000
   F  -0.2324415  -0.2774711  -0.1117438 SPIN=   0.00000
%ENDBLOCK POSITIONS_FRAC

# Note: total spin =  16.00

KPOINTS_MP_SPACING 0.07

%BLOCK SPECIES_POT
QC5
%ENDBLOCK SPECIES_POT

SNAP_TO_SYMMETRY
SYMMETRY_GENERATE

