#              Generated by Buildcell
#
# at 02:26:44 (GMT+1.0) 18th August 2020
# in /scratch/scratch/uccabz1/launch_tmp
# on node-k10b-003
# by uccabz1
#
# compiler GCC version 4.9.2
# options -cpp -iprefix /scratch/UCL/applications/gcc/4.9.2/bin/../lib/gcc/x86_64-unknown-linux-gnu/4.9.2/ -mtune=corei7 -march=x86-64 -g -O2
#
# seed   364384012  -832614168  -367341235  -402908224 -1578702936 -1120209972   800208728   671020910   140163029  -170114609  -629240975  -603233372
#
#      Author: C. J. Pickard (cjp20@cam.ac.uk)
#                Space group: Pc
#

%BLOCK LATTICE_ABC
      6.13225      7.20205      9.98568
     90.00000     90.00000    114.90626
%ENDBLOCK LATTICE_ABC

%BLOCK POSITIONS_FRAC
  Li  -0.2861294   0.4046077   0.3624543 SPIN=   0.00000
  Li   0.2138706  -0.0953923  -0.3624543 SPIN=   0.00000
  Li   0.1513471  -0.2294016   0.0853357 SPIN=   0.00000
  Li  -0.3486529   0.2705984  -0.0853357 SPIN=   0.00000
  Fe   0.0405081   0.1531381  -0.1620279 SPIN=   1.31860
  Fe  -0.4594919  -0.3468619   0.1620279 SPIN=   1.31860
  Fe   0.2923663   0.3974454  -0.4795783 SPIN=   6.68140
  Fe  -0.2076337  -0.1025546   0.4795783 SPIN=   6.68140
   O  -0.1696289   0.1785613   0.0842125 SPIN=   0.00000
   O   0.2065452   0.2156709   0.1962460 SPIN=   0.00000
   O  -0.1436851   0.1885360   0.3316328 SPIN=   0.00000
   O   0.0839483   0.5020084   0.1997676 SPIN=   0.00000
   S  -0.0057051   0.2711942   0.2029647 SPIN=   0.00000
   O   0.3303711  -0.3214387  -0.0842125 SPIN=   0.00000
   O   0.7065452  -0.2843291  -0.1962460 SPIN=   0.00000
   O   0.3563149  -0.3114640  -0.3316328 SPIN=   0.00000
   O   0.5839483   0.0020084  -0.1997676 SPIN=   0.00000
   S   0.4942949  -0.2288058  -0.2029647 SPIN=   0.00000
   O  -0.2020468   0.2949481  -0.4496705 SPIN=   0.00000
   O  -0.0109425   0.4446173  -0.2336367 SPIN=   0.00000
   O  -0.4379033   0.3704128  -0.2740438 SPIN=   0.00000
   O  -0.1168584   0.6541771  -0.3951015 SPIN=   0.00000
   S  -0.1919377   0.4410388  -0.3381131 SPIN=   0.00000
   O   0.2979532  -0.2050519   0.4496705 SPIN=   0.00000
   O   0.4890575  -0.0553827   0.2336367 SPIN=   0.00000
   O   0.0620967  -0.1295872   0.2740438 SPIN=   0.00000
   O   0.3831416   0.1541771   0.3951015 SPIN=   0.00000
   S   0.3080623  -0.0589612   0.3381131 SPIN=   0.00000
   F   0.0977375   0.1004386  -0.3700082 SPIN=   0.00000
   F  -0.4022625  -0.3995614   0.3700082 SPIN=   0.00000
   F   0.1089998  -0.0510682  -0.0310101 SPIN=   0.00000
   F  -0.3910002   0.4489318   0.0310101 SPIN=   0.00000
%ENDBLOCK POSITIONS_FRAC

# Note: total spin =  16.00

KPOINTS_MP_SPACING 0.07

%BLOCK SPECIES_POT
QC5
%ENDBLOCK SPECIES_POT

SNAP_TO_SYMMETRY
SYMMETRY_GENERATE

