#              Generated by Buildcell
#
# at 23:47:06 (GMT+1.0) 17th August 2020
# in /lustre/scratch/uccabz1/launch_tmp
# on node-c12k-019
# by uccabz1
#
# compiler GCC version 4.9.2
# options -cpp -iprefix /lustre/shared/ucl/apps/gcc/4.9.2/bin/../lib/gcc/x86_64-unknown-linux-gnu/4.9.2/ -mtune=corei7 -march=x86-64 -g -Og
#
# seed -1271830279 -1305565765  1646505529  1867506330   999062829   -48682258   747944054   -23882546  -714013837  1039532787 -1878305081  1143062871
#
#      Author: C. J. Pickard (cjp20@cam.ac.uk)
#                Space group: P21212
#

%BLOCK LATTICE_ABC
      3.89380      7.07637     14.51697
     90.00000     90.00000     90.00000
%ENDBLOCK LATTICE_ABC

%BLOCK POSITIONS_FRAC
  Li  -0.0397748   0.0345473   0.3434308 SPIN=   0.00000
  Li  -0.0397748  -0.0345473  -0.3434308 SPIN=   0.00000
  Li   0.0397748   0.4654527  -0.1565692 SPIN=   0.00000
  Li   0.0397748  -0.4654527   0.1565692 SPIN=   0.00000
  Fe  -0.3370778   0.2556234  -0.4626752 SPIN=   4.00000
  Fe  -0.3370778  -0.2556234   0.4626752 SPIN=   4.00000
  Fe   0.3370778   0.2443766   0.0373248 SPIN=   4.00000
  Fe   0.3370778  -0.2443766  -0.0373248 SPIN=   4.00000
   O  -0.3583003  -0.2202464   0.1993484 SPIN=   0.00000
   O  -0.3228948   0.0201099   0.0758713 SPIN=   0.00000
   O   0.1443687  -0.2136824   0.0950646 SPIN=   0.00000
   O   0.0648279   0.0397015   0.2106208 SPIN=   0.00000
   S  -0.1179996  -0.0935293   0.1452263 SPIN=   0.00000
   O  -0.3583003   0.2202464  -0.1993484 SPIN=   0.00000
   O  -0.3228948  -0.0201099  -0.0758713 SPIN=   0.00000
   O   0.1443687   0.2136824  -0.0950646 SPIN=   0.00000
   O   0.0648279  -0.0397015  -0.2106208 SPIN=   0.00000
   S  -0.1179996   0.0935293  -0.1452263 SPIN=   0.00000
   O   0.3583003  -0.2797536  -0.3006516 SPIN=   0.00000
   O   0.3228948  -0.5201099  -0.4241287 SPIN=   0.00000
   O  -0.1443687  -0.2863176  -0.4049354 SPIN=   0.00000
   O  -0.0648279  -0.5397015  -0.2893792 SPIN=   0.00000
   S   0.1179996  -0.4064707  -0.3547737 SPIN=   0.00000
   O   0.3583003   0.2797536   0.3006516 SPIN=   0.00000
   O   0.3228948   0.5201099   0.4241287 SPIN=   0.00000
   O  -0.1443687   0.2863176   0.4049354 SPIN=   0.00000
   O  -0.0648279   0.5397015   0.2893792 SPIN=   0.00000
   S   0.1179996   0.4064707   0.3547737 SPIN=   0.00000
   F  -0.4465604  -0.4101515  -0.1205832 SPIN=   0.00000
   F  -0.4465604   0.4101515   0.1205832 SPIN=   0.00000
   F   0.4465604  -0.0898485   0.3794168 SPIN=   0.00000
   F   0.4465604   0.0898485  -0.3794168 SPIN=   0.00000
%ENDBLOCK POSITIONS_FRAC

# Note: total spin =  16.00

KPOINTS_MP_SPACING 0.07

%BLOCK SPECIES_POT
QC5
%ENDBLOCK SPECIES_POT

SNAP_TO_SYMMETRY
SYMMETRY_GENERATE

