#              Generated by Buildcell
#
# at 15:24:21 (GMT+1.0) 18th August 2020
# in /lustre/scratch/uccabz1/launch_tmp
# on node-c12o-024
# by uccabz1
#
# compiler GCC version 4.9.2
# options -cpp -iprefix /lustre/shared/ucl/apps/gcc/4.9.2/bin/../lib/gcc/x86_64-unknown-linux-gnu/4.9.2/ -mtune=corei7 -march=x86-64 -g -Og
#
# seed  1532194485  -950437738  -772706483 -1007665263 -1449225443   323534284 -1153530948  -703042774   223298468  -741174400  1291288681   348127155
#
#      Author: C. J. Pickard (cjp20@cam.ac.uk)
#                Space group: P21
#

%BLOCK LATTICE_ABC
      6.69349      6.71470      8.94289
     90.00000     95.62541     90.00000
%ENDBLOCK LATTICE_ABC

%BLOCK POSITIONS_FRAC
  Li   0.4179670   0.1914352  -0.3072223 SPIN=   0.00000
  Li  -0.4179670  -0.3085648   0.3072223 SPIN=   0.00000
  Li   0.0884879  -0.0316487   0.3565119 SPIN=   0.00000
  Li  -0.0884879   0.4683513  -0.3565119 SPIN=   0.00000
  Fe   0.2815753  -0.2016673   0.0609259 SPIN=   4.50253
  Fe  -0.2815753   0.2983327  -0.0609259 SPIN=   4.50253
  Fe  -0.2119379  -0.0205196  -0.4162727 SPIN=   3.49747
  Fe   0.2119379   0.4794804   0.4162727 SPIN=   3.49747
   O  -0.1840584   0.2524238   0.3299722 SPIN=   0.00000
   O  -0.5220416   0.4044456   0.3185195 SPIN=   0.00000
   O  -0.4796824   0.0432731   0.3669066 SPIN=   0.00000
   O  -0.4354511   0.1797487   0.1152001 SPIN=   0.00000
   S  -0.4053084   0.2199728   0.2826496 SPIN=   0.00000
   O   0.1840584  -0.2475762  -0.3299722 SPIN=   0.00000
   O   0.5220416  -0.0955544  -0.3185195 SPIN=   0.00000
   O   0.4796824  -0.4567269  -0.3669066 SPIN=   0.00000
   O   0.4354511  -0.3202513  -0.1152001 SPIN=   0.00000
   S   0.4053084  -0.2800272  -0.2826496 SPIN=   0.00000
   O   0.2029040   0.0474671  -0.1467672 SPIN=   0.00000
   O   0.4050479   0.3521500  -0.0921906 SPIN=   0.00000
   O   0.1804769   0.2294977   0.0916432 SPIN=   0.00000
   O   0.0364789   0.3767202  -0.1488400 SPIN=   0.00000
   S   0.2062269   0.2514587  -0.0740387 SPIN=   0.00000
   O  -0.2029040  -0.4525329   0.1467672 SPIN=   0.00000
   O  -0.4050479  -0.1478500   0.0921906 SPIN=   0.00000
   O  -0.1804769  -0.2705023  -0.0916432 SPIN=   0.00000
   O  -0.0364789  -0.1232798   0.1488400 SPIN=   0.00000
   S  -0.2062269  -0.2485413   0.0740387 SPIN=   0.00000
   F  -0.2753253   0.2284762  -0.3147643 SPIN=   0.00000
   F   0.2753253  -0.2715238   0.3147643 SPIN=   0.00000
   F   0.1568412   0.2247625   0.4856916 SPIN=   0.00000
   F  -0.1568412  -0.2752375  -0.4856916 SPIN=   0.00000
%ENDBLOCK POSITIONS_FRAC

# Note: total spin =  16.00

KPOINTS_MP_SPACING 0.07

%BLOCK SPECIES_POT
QC5
%ENDBLOCK SPECIES_POT

SNAP_TO_SYMMETRY
SYMMETRY_GENERATE

