#              Generated by Buildcell
#
# at 07:52:50 (GMT+1.0) 4th August 2020
# in /lustre/scratch/uccabz1/launch_tmp
# on node-c12l-018
# by uccabz1
#
# compiler GCC version 4.9.2
# options -cpp -iprefix /lustre/shared/ucl/apps/gcc/4.9.2/bin/../lib/gcc/x86_64-unknown-linux-gnu/4.9.2/ -mtune=corei7 -march=x86-64 -g -Og
#
# seed -1487979652 -2127125377 -1396738100  2038813318   521948614  1576541640   -37505369 -1780711803 -1382779519  1523881829  -837161839 -1715424142
#
#      Author: C. J. Pickard (cjp20@cam.ac.uk)
#                Space group: Pc
#

%BLOCK LATTICE_ABC
      6.54749      6.86775      8.98359
     90.00000     98.03044     90.00000
%ENDBLOCK LATTICE_ABC

%BLOCK POSITIONS_FRAC
  Li   0.2753220  -0.3453182   0.1858349 SPIN=   0.00000
  Li  -0.2246780   0.3453182   0.1858349 SPIN=   0.00000
  Li  -0.1846034  -0.1550079   0.3882690 SPIN=   0.00000
  Li   0.3153966   0.1550079   0.3882690 SPIN=   0.00000
  Fe   0.0906649   0.3391153  -0.0399475 SPIN=   4.85108
  Fe  -0.4093351  -0.3391153  -0.0399475 SPIN=   4.85108
  Fe  -0.3015417   0.1655191  -0.3699136 SPIN=   3.14892
  Fe   0.1984583  -0.1655191  -0.3699136 SPIN=   3.14892
   O   0.2902061   0.4638563  -0.2440292 SPIN=   0.00000
   O  -0.0333590   0.3396398  -0.3880993 SPIN=   0.00000
   O   0.2827724   0.1378126  -0.3619948 SPIN=   0.00000
   O   0.2584422   0.4336253  -0.5208216 SPIN=   0.00000
   S   0.1995154   0.3437335  -0.3787362 SPIN=   0.00000
   O  -0.2097939  -0.4638563  -0.2440292 SPIN=   0.00000
   O  -0.5333590  -0.3396398  -0.3880993 SPIN=   0.00000
   O  -0.2172276  -0.1378126  -0.3619948 SPIN=   0.00000
   O  -0.2415578  -0.4336253  -0.5208216 SPIN=   0.00000
   S  -0.3004846  -0.3437335  -0.3787362 SPIN=   0.00000
   O  -0.5807008   0.2928969   0.0167127 SPIN=   0.00000
   O  -0.2996591   0.0571827   0.0931335 SPIN=   0.00000
   O  -0.3002061   0.2515605  -0.1388972 SPIN=   0.00000
   O  -0.5580634  -0.0099953  -0.1293383 SPIN=   0.00000
   S  -0.4346574   0.1479112  -0.0395973 SPIN=   0.00000
   O  -0.0807008  -0.2928969   0.0167127 SPIN=   0.00000
   O   0.2003409  -0.0571827   0.0931335 SPIN=   0.00000
   O   0.1997939  -0.2515605  -0.1388972 SPIN=   0.00000
   O  -0.0580634   0.0099953  -0.1293383 SPIN=   0.00000
   S   0.0653426  -0.1479112  -0.0395973 SPIN=   0.00000
   F   0.1181704  -0.1777429   0.4194794 SPIN=   0.00000
   F  -0.3818296   0.1777429   0.4194794 SPIN=   0.00000
   F   0.0692600   0.3220531   0.1684244 SPIN=   0.00000
   F  -0.4307400  -0.3220531   0.1684244 SPIN=   0.00000
%ENDBLOCK POSITIONS_FRAC

# Note: total spin =  16.00

KPOINTS_MP_SPACING 0.07

%BLOCK SPECIES_POT
QC5
%ENDBLOCK SPECIES_POT

SNAP_TO_SYMMETRY
SYMMETRY_GENERATE

