#              Generated by Buildcell
#
# at 06:01:53 (GMT+1.0) 4th August 2020
# in /lustre/scratch/uccabz1/launch_tmp
# on node-c12m-025
# by uccabz1
#
# compiler GCC version 4.9.2
# options -cpp -iprefix /lustre/shared/ucl/apps/gcc/4.9.2/bin/../lib/gcc/x86_64-unknown-linux-gnu/4.9.2/ -mtune=corei7 -march=x86-64 -g -Og
#
# seed  -261044588   740067239   185893204   172912699 -1326927615  -510823030  -688278157  -943666556  1852612581  1237172242  2079684776 -1857451362
#
#      Author: C. J. Pickard (cjp20@cam.ac.uk)
#                Space group: Pnc2
#

%BLOCK LATTICE_ABC
      4.87853      6.16705     13.29514
     90.00000     90.00000     90.00000
%ENDBLOCK LATTICE_ABC

%BLOCK POSITIONS_FRAC
  Li  -0.2480114  -0.2580345  -0.2857200 SPIN=   0.00000
  Li   0.2480114   0.2580345  -0.2857200 SPIN=   0.00000
  Li  -0.2519886  -0.2580345   0.2142800 SPIN=   0.00000
  Li   0.2519886   0.2580345   0.2142800 SPIN=   0.00000
  Fe  -0.3029470   0.2481426  -0.4329520 SPIN=   4.00000
  Fe   0.3029470  -0.2481426  -0.4329520 SPIN=   4.00000
  Fe  -0.1970530   0.2481426   0.0670480 SPIN=   4.00000
  Fe   0.1970530  -0.2481426   0.0670480 SPIN=   4.00000
   O  -0.4862245   0.3125475   0.3836682 SPIN=   0.00000
   O  -0.2516903   0.0052233   0.3004628 SPIN=   0.00000
   O   0.0192611   0.3117162   0.3679486 SPIN=   0.00000
   O  -0.2700393   0.3635714   0.2169398 SPIN=   0.00000
   S  -0.2471733   0.2482646   0.3172548 SPIN=   0.00000
   O   0.4862245  -0.3125475   0.3836682 SPIN=   0.00000
   O   0.2516903  -0.0052233   0.3004628 SPIN=   0.00000
   O  -0.0192611  -0.3117162   0.3679486 SPIN=   0.00000
   O   0.2700393  -0.3635714   0.2169398 SPIN=   0.00000
   S   0.2471733  -0.2482646   0.3172548 SPIN=   0.00000
   O  -0.0137755   0.3125475  -0.1163318 SPIN=   0.00000
   O  -0.2483097   0.0052233  -0.1995372 SPIN=   0.00000
   O  -0.5192611   0.3117162  -0.1320514 SPIN=   0.00000
   O  -0.2299607   0.3635714  -0.2830602 SPIN=   0.00000
   S  -0.2528267   0.2482646  -0.1827452 SPIN=   0.00000
   O   0.0137755  -0.3125475  -0.1163318 SPIN=   0.00000
   O   0.2483097  -0.0052233  -0.1995372 SPIN=   0.00000
   O   0.5192611  -0.3117162  -0.1320514 SPIN=   0.00000
   O   0.2299607  -0.3635714  -0.2830602 SPIN=   0.00000
   S   0.2528267  -0.2482646  -0.1827452 SPIN=   0.00000
   F  -0.2340669  -0.2489560  -0.4335810 SPIN=   0.00000
   F   0.2340669   0.2489560  -0.4335810 SPIN=   0.00000
   F  -0.2659331  -0.2489560   0.0664190 SPIN=   0.00000
   F   0.2659331   0.2489560   0.0664190 SPIN=   0.00000
%ENDBLOCK POSITIONS_FRAC

# Note: total spin =  16.00

KPOINTS_MP_SPACING 0.07

%BLOCK SPECIES_POT
QC5
%ENDBLOCK SPECIES_POT

SNAP_TO_SYMMETRY
SYMMETRY_GENERATE

