#              Generated by Buildcell
#
# at 01:09:00 (GMT+1.0) 18th August 2020
# in /lustre/scratch/uccabz1/launch_tmp
# on node-c12i-005
# by uccabz1
#
# compiler GCC version 4.9.2
# options -cpp -iprefix /lustre/shared/ucl/apps/gcc/4.9.2/bin/../lib/gcc/x86_64-unknown-linux-gnu/4.9.2/ -mtune=corei7 -march=x86-64 -g -Og
#
# seed -1513370594  1535837445  1941331773 -1428956616  1710746669   688407349  -354614734   840867033 -1265982327  1692383678 -1055722005  1944527306
#
#      Author: C. J. Pickard (cjp20@cam.ac.uk)
#                Space group: P42
#

%BLOCK LATTICE_ABC
      5.18722      8.78138      8.78138
     90.00000     90.00000     90.00000
%ENDBLOCK LATTICE_ABC

%BLOCK POSITIONS_FRAC
  Li  -0.4986650   0.2169188   0.1541523 SPIN=   0.00000
  Li  -0.4986650  -0.2169188  -0.1541523 SPIN=   0.00000
  Li   0.0013350  -0.1541523   0.2169188 SPIN=   0.00000
  Li   0.0013350   0.1541523  -0.2169188 SPIN=   0.00000
  Fe   0.3882043   0.4776619  -0.2652130 SPIN=   4.00000
  Fe   0.3882043  -0.4776619   0.2652130 SPIN=   4.00000
  Fe  -0.1117957   0.2652130   0.4776619 SPIN=   4.00000
  Fe  -0.1117957  -0.2652130  -0.4776619 SPIN=   4.00000
   O   0.7265556  -0.0202522  -0.3348771 SPIN=   0.00000
   O   0.2586413   0.0190005  -0.3734982 SPIN=   0.00000
   O   0.5421643   0.2392510  -0.3199277 SPIN=   0.00000
   O   0.4490388   0.0514379  -0.1171239 SPIN=   0.00000
   S   0.4941000   0.0723593  -0.2863567 SPIN=   0.00000
   O   0.7265556   0.0202522   0.3348771 SPIN=   0.00000
   O   0.2586413  -0.0190005   0.3734982 SPIN=   0.00000
   O   0.5421643  -0.2392510   0.3199277 SPIN=   0.00000
   O   0.4490388  -0.0514379   0.1171239 SPIN=   0.00000
   S   0.4941000  -0.0723593   0.2863567 SPIN=   0.00000
   O   0.2265556   0.3348771  -0.0202522 SPIN=   0.00000
   O  -0.2413587   0.3734982   0.0190005 SPIN=   0.00000
   O   0.0421643   0.3199277   0.2392510 SPIN=   0.00000
   O  -0.0509612   0.1171239   0.0514379 SPIN=   0.00000
   S  -0.0059000   0.2863567   0.0723593 SPIN=   0.00000
   O   0.2265556  -0.3348771   0.0202522 SPIN=   0.00000
   O  -0.2413587  -0.3734982  -0.0190005 SPIN=   0.00000
   O   0.0421643  -0.3199277  -0.2392510 SPIN=   0.00000
   O  -0.0509612  -0.1171239  -0.0514379 SPIN=   0.00000
   S  -0.0059000  -0.2863567  -0.0723593 SPIN=   0.00000
   F   0.0421658  -0.3646672   0.3404768 SPIN=   0.00000
   F   0.0421658   0.3646672  -0.3404768 SPIN=   0.00000
   F  -0.4578342  -0.3404768  -0.3646672 SPIN=   0.00000
   F  -0.4578342   0.3404768   0.3646672 SPIN=   0.00000
%ENDBLOCK POSITIONS_FRAC

# Note: total spin =  16.00

KPOINTS_MP_SPACING 0.07

%BLOCK SPECIES_POT
QC5
%ENDBLOCK SPECIES_POT

SNAP_TO_SYMMETRY
SYMMETRY_GENERATE

