#              Generated by Buildcell
#
# at 08:00:38 (GMT+1.0) 4th August 2020
# in /lustre/scratch/uccabz1/launch_tmp
# on node-c12f-012
# by uccabz1
#
# compiler GCC version 4.9.2
# options -cpp -iprefix /lustre/shared/ucl/apps/gcc/4.9.2/bin/../lib/gcc/x86_64-unknown-linux-gnu/4.9.2/ -mtune=corei7 -march=x86-64 -g -Og
#
# seed  1047892797 -1323952210 -2099231657  -207097700  1390405558 -1449815912 -1956746241 -1049010117    66515223   -36703495   330015495 -1430476558
#
#      Author: C. J. Pickard (cjp20@cam.ac.uk)
#                Space group: P21/c
#

%BLOCK LATTICE_ABC
      6.65717      7.68243      8.08513
    104.68093     90.00000     90.00000
%ENDBLOCK LATTICE_ABC

%BLOCK POSITIONS_FRAC
  Li  -0.1850227   0.3331117   0.0009884 SPIN=   0.00000
  Li   0.3149773   0.1668883  -0.0009884 SPIN=   0.00000
  Li   0.1850227  -0.3331117  -0.0009884 SPIN=   0.00000
  Li  -0.3149773  -0.1668883   0.0009884 SPIN=   0.00000
  Fe   0.1308717   0.3174626   0.3477018 SPIN=   4.00000
  Fe  -0.3691283   0.1825374  -0.3477018 SPIN=   4.00000
  Fe  -0.1308717  -0.3174626  -0.3477018 SPIN=   4.00000
  Fe   0.3691283  -0.1825374   0.3477018 SPIN=   4.00000
   O  -0.4193929   0.4284676   0.1613798 SPIN=   0.00000
   O  -0.2015257   0.2103574   0.2548893 SPIN=   0.00000
   O  -0.5521913   0.2566659   0.3583457 SPIN=   0.00000
   O  -0.2985612   0.4952717   0.4603617 SPIN=   0.00000
   S  -0.3679178   0.3476906   0.3087441 SPIN=   0.00000
   O   0.0806071   0.0715324  -0.1613798 SPIN=   0.00000
   O   0.2984743   0.2896426  -0.2548893 SPIN=   0.00000
   O  -0.0521913   0.2433341  -0.3583457 SPIN=   0.00000
   O   0.2014388   0.0047283  -0.4603617 SPIN=   0.00000
   S   0.1320822   0.1523094  -0.3087441 SPIN=   0.00000
   O   0.4193929  -0.4284676  -0.1613798 SPIN=   0.00000
   O   0.2015257  -0.2103574  -0.2548893 SPIN=   0.00000
   O   0.5521913  -0.2566659  -0.3583457 SPIN=   0.00000
   O   0.2985612  -0.4952717  -0.4603617 SPIN=   0.00000
   S   0.3679178  -0.3476906  -0.3087441 SPIN=   0.00000
   O  -0.0806071  -0.0715324   0.1613798 SPIN=   0.00000
   O  -0.2984743  -0.2896426   0.2548893 SPIN=   0.00000
   O   0.0521913  -0.2433341   0.3583457 SPIN=   0.00000
   O  -0.2014388  -0.0047283   0.4603617 SPIN=   0.00000
   S  -0.1320822  -0.1523094   0.3087441 SPIN=   0.00000
   F   0.3466445  -0.1387260   0.1392109 SPIN=   0.00000
   F  -0.1533555  -0.3612740  -0.1392109 SPIN=   0.00000
   F  -0.3466445   0.1387260  -0.1392109 SPIN=   0.00000
   F   0.1533555   0.3612740   0.1392109 SPIN=   0.00000
%ENDBLOCK POSITIONS_FRAC

# Note: total spin =  16.00

KPOINTS_MP_SPACING 0.07

%BLOCK SPECIES_POT
QC5
%ENDBLOCK SPECIES_POT

SNAP_TO_SYMMETRY
SYMMETRY_GENERATE

