#              Generated by Buildcell
#
# at 06:19:16 (GMT+1.0) 4th August 2020
# in /lustre/scratch/uccabz1/launch_tmp
# on node-c12c-013
# by uccabz1
#
# compiler GCC version 4.9.2
# options -cpp -iprefix /lustre/shared/ucl/apps/gcc/4.9.2/bin/../lib/gcc/x86_64-unknown-linux-gnu/4.9.2/ -mtune=corei7 -march=x86-64 -g -Og
#
# seed -1528417298 -2087002179  -859270354  -797191869  1341713682  -142311352   415434984 -1059308165 -1614113956  2145563001  -224591111  2139010005
#
#      Author: C. J. Pickard (cjp20@cam.ac.uk)
#                Space group: I-4
#

%BLOCK LATTICE_ABC
      7.11094      8.30016      8.30016
     79.42667     64.63636     64.63636
%ENDBLOCK LATTICE_ABC

%BLOCK POSITIONS_FRAC
  Li   0.1955869  -0.0219510   0.2877420 SPIN=   0.00000
  Li   0.4613779   0.0219510  -0.2877420 SPIN=   0.00000
  Li  -0.1736359  -0.2877420  -0.0219510 SPIN=   0.00000
  Li  -0.4833289   0.2877420   0.0219510 SPIN=   0.00000
  Fe   0.0183608  -0.4402247   0.2528818 SPIN=   4.00000
  Fe  -0.1689821   0.4402247  -0.2528818 SPIN=   4.00000
  Fe   0.4218639  -0.2528818  -0.4402247 SPIN=   4.00000
  Fe  -0.2712426   0.2528818   0.4402247 SPIN=   4.00000
   O   0.3942258   0.2389424   0.5476391 SPIN=   0.00000
   O   0.5171475   0.1423042   0.2410733 SPIN=   0.00000
   O   0.1133166   0.3229334   0.4140964 SPIN=   0.00000
   O   0.2888138   0.0093290   0.4988621 SPIN=   0.00000
   S   0.3283759   0.1783773   0.4254177 SPIN=   0.00000
   O   0.1808072  -0.2389424  -0.5476391 SPIN=   0.00000
   O  -0.0994750  -0.1423042  -0.2410733 SPIN=   0.00000
   O  -0.1496536  -0.3229334  -0.4140964 SPIN=   0.00000
   O  -0.2029950  -0.0093290  -0.4988621 SPIN=   0.00000
   S  -0.0678291  -0.1783773  -0.4254177 SPIN=   0.00000
   O   0.3668319  -0.5476391   0.2389424 SPIN=   0.00000
   O   0.3405483  -0.2410733   0.1423042 SPIN=   0.00000
   O   0.5637500  -0.4140964   0.3229334 SPIN=   0.00000
   O   0.7018571  -0.4988621   0.0093290 SPIN=   0.00000
   S   0.4932468  -0.4254177   0.1783773 SPIN=   0.00000
   O   0.0581352   0.5476391  -0.2389424 SPIN=   0.00000
   O   0.2417792   0.2410733  -0.1423042 SPIN=   0.00000
   O   0.4725869   0.4140964  -0.3229334 SPIN=   0.00000
   O   0.2123240   0.4988621  -0.0093290 SPIN=   0.00000
   S   0.2462063   0.4254177  -0.1783773 SPIN=   0.00000
   F  -0.0142262   0.1535325   0.1966486 SPIN=   0.00000
   F   0.3359549  -0.1535325  -0.1966486 SPIN=   0.00000
   F  -0.1393063  -0.1966486   0.1535325 SPIN=   0.00000
   F  -0.1824224   0.1966486  -0.1535325 SPIN=   0.00000
%ENDBLOCK POSITIONS_FRAC

# Note: total spin =  16.00

KPOINTS_MP_SPACING 0.07

%BLOCK SPECIES_POT
QC5
%ENDBLOCK SPECIES_POT

SNAP_TO_SYMMETRY
SYMMETRY_GENERATE

