#              Generated by Buildcell
#
# at 14:08:51 (GMT+1.0) 18th August 2020
# in /lustre/scratch/uccabz1/launch_tmp
# on node-c12m-030
# by uccabz1
#
# compiler GCC version 4.9.2
# options -cpp -iprefix /lustre/shared/ucl/apps/gcc/4.9.2/bin/../lib/gcc/x86_64-unknown-linux-gnu/4.9.2/ -mtune=corei7 -march=x86-64 -g -Og
#
# seed   603406030  1949422225 -1860659302   813942689   100637784 -1574586509 -1128513036   318620181 -2117584832  -412183478  -302588614  -960232738
#
#      Author: C. J. Pickard (cjp20@cam.ac.uk)
#                Space group: P2/c
#

%BLOCK LATTICE_ABC
      7.11373      7.23393      7.88065
     90.00000     90.00000     99.48140
%ENDBLOCK LATTICE_ABC

%BLOCK POSITIONS_FRAC
  Li  -0.4089548   0.0077864   0.2779171 SPIN=   0.00000
  Li   0.4089548   0.4922136   0.2779171 SPIN=   0.00000
  Li   0.4089548  -0.0077864  -0.2779171 SPIN=   0.00000
  Li  -0.4089548  -0.4922136  -0.2779171 SPIN=   0.00000
  Fe  -0.2353967  -0.1760352  -0.0423182 SPIN=   4.00000
  Fe   0.2353967  -0.3239648  -0.0423182 SPIN=   4.00000
  Fe   0.2353967   0.1760352   0.0423182 SPIN=   4.00000
  Fe  -0.2353967   0.3239648   0.0423182 SPIN=   4.00000
   O   0.0600865   0.0132940   0.3484767 SPIN=   0.00000
   O   0.3918231   0.0942542   0.4522097 SPIN=   0.00000
   O   0.3027974  -0.1757100   0.2590335 SPIN=   0.00000
   O   0.1857981  -0.1930911   0.5552939 SPIN=   0.00000
   S   0.2351263  -0.0653132   0.4037535 SPIN=   0.00000
   O  -0.0600865  -0.5132940   0.3484767 SPIN=   0.00000
   O  -0.3918231  -0.5942542   0.4522097 SPIN=   0.00000
   O  -0.3027974  -0.3242900   0.2590335 SPIN=   0.00000
   O  -0.1857981  -0.3069089   0.5552939 SPIN=   0.00000
   S  -0.2351263  -0.4346868   0.4037535 SPIN=   0.00000
   O  -0.0600865  -0.0132940  -0.3484767 SPIN=   0.00000
   O  -0.3918231  -0.0942542  -0.4522097 SPIN=   0.00000
   O  -0.3027974   0.1757100  -0.2590335 SPIN=   0.00000
   O  -0.1857981   0.1930911  -0.5552939 SPIN=   0.00000
   S  -0.2351263   0.0653132  -0.4037535 SPIN=   0.00000
   O   0.0600865   0.5132940  -0.3484767 SPIN=   0.00000
   O   0.3918231   0.5942542  -0.4522097 SPIN=   0.00000
   O   0.3027974   0.3242900  -0.2590335 SPIN=   0.00000
   O   0.1857981   0.3069089  -0.5552939 SPIN=   0.00000
   S   0.2351263   0.4346868  -0.4037535 SPIN=   0.00000
   F   0.2150989  -0.0516154  -0.1270628 SPIN=   0.00000
   F  -0.2150989  -0.4483846  -0.1270628 SPIN=   0.00000
   F  -0.2150989   0.0516154   0.1270628 SPIN=   0.00000
   F   0.2150989   0.4483846   0.1270628 SPIN=   0.00000
%ENDBLOCK POSITIONS_FRAC

# Note: total spin =  16.00

KPOINTS_MP_SPACING 0.07

%BLOCK SPECIES_POT
QC5
%ENDBLOCK SPECIES_POT

SNAP_TO_SYMMETRY
SYMMETRY_GENERATE

