#              Generated by Buildcell
#
# at 06:06:08 (GMT+1.0) 4th August 2020
# in /lustre/scratch/uccabz1/launch_tmp
# on node-c12n-012
# by uccabz1
#
# compiler GCC version 4.9.2
# options -cpp -iprefix /lustre/shared/ucl/apps/gcc/4.9.2/bin/../lib/gcc/x86_64-unknown-linux-gnu/4.9.2/ -mtune=corei7 -march=x86-64 -g -Og
#
# seed  1617595811  2041160545  1313603694  2128962759    60321687 -1953084470  1019203068 -1280290899    28463572  1559219725  -272182422   889558398
#
#      Author: C. J. Pickard (cjp20@cam.ac.uk)
#                Space group: Pm
#

%BLOCK LATTICE_ABC
      4.00085      6.29351     15.90320
     90.00000     90.00000     92.66571
%ENDBLOCK LATTICE_ABC

%BLOCK POSITIONS_FRAC
  Li  -0.0882531   0.4408111  -0.2329375 SPIN=   0.00000
  Li  -0.0882531   0.4408111   0.2329375 SPIN=   0.00000
  Li  -0.0682601  -0.0338287   0.3736877 SPIN=   0.00000
  Li  -0.0682601  -0.0338287  -0.3736877 SPIN=   0.00000
  Fe  -0.0645749  -0.1605449   0.1161064 SPIN=   4.78370
  Fe  -0.0645749  -0.1605449  -0.1161064 SPIN=   4.78370
  Fe   0.4422856   0.1239851   0.5000000 SPIN=   3.90105
  Fe  -0.0379769  -0.3859963   0.5000000 SPIN=   2.53156
   O   0.8065776  -0.2718909  -0.2743547 SPIN=   0.00000
   O   0.2939986  -0.3983158  -0.3497618 SPIN=   0.00000
   O   0.3418337  -0.0306984  -0.2943416 SPIN=   0.00000
   O   0.2761839  -0.3350959  -0.1962642 SPIN=   0.00000
   S   0.4296484  -0.2590002  -0.2786806 SPIN=   0.00000
   O   0.8065776  -0.2718909   0.2743547 SPIN=   0.00000
   O   0.2939986  -0.3983158   0.3497618 SPIN=   0.00000
   O   0.3418337  -0.0306984   0.2943416 SPIN=   0.00000
   O   0.2761839  -0.3350959   0.1962642 SPIN=   0.00000
   S   0.4296484  -0.2590002   0.2786806 SPIN=   0.00000
   O   0.3352488   0.2631054  -0.2123077 SPIN=   0.00000
   O   0.0825931   0.3088571  -0.0717980 SPIN=   0.00000
   O   0.6290069   0.4890826  -0.1056598 SPIN=   0.00000
   O   0.5860817   0.0982329  -0.0874244 SPIN=   0.00000
   S   0.4082326   0.2898195  -0.1192975 SPIN=   0.00000
   O   0.3352488   0.2631054   0.2123077 SPIN=   0.00000
   O   0.0825931   0.3088571   0.0717980 SPIN=   0.00000
   O   0.6290069   0.4890826   0.1056598 SPIN=   0.00000
   O   0.5860817   0.0982329   0.0874244 SPIN=   0.00000
   S   0.4082326   0.2898195   0.1192975 SPIN=   0.00000
   F  -0.1715966   0.2813038  -0.3635054 SPIN=   0.00000
   F  -0.1715966   0.2813038   0.3635054 SPIN=   0.00000
   F   0.0729598  -0.2026577   0.0000000 SPIN=   0.00000
   F   0.3163914  -0.1720620   0.5000000 SPIN=   0.00000
%ENDBLOCK POSITIONS_FRAC

# Note: total spin =  16.00

KPOINTS_MP_SPACING 0.07

%BLOCK SPECIES_POT
QC5
%ENDBLOCK SPECIES_POT

SNAP_TO_SYMMETRY
SYMMETRY_GENERATE

