#              Generated by Buildcell
#
# at 14:35:59 (GMT+1.0) 18th August 2020
# in /lustre/scratch/uccabz1/launch_tmp
# on node-c12b-010
# by uccabz1
#
# compiler GCC version 4.9.2
# options -cpp -iprefix /lustre/shared/ucl/apps/gcc/4.9.2/bin/../lib/gcc/x86_64-unknown-linux-gnu/4.9.2/ -mtune=corei7 -march=x86-64 -g -Og
#
# seed   363619298 -1594332766 -1251687483  1171791944   419634794   -31440970   748565809  1681604261  -782327903 -2046307057  -291668955   -58634979
#
#      Author: C. J. Pickard (cjp20@cam.ac.uk)
#                Space group: I-4
#

%BLOCK LATTICE_ABC
      7.78644      8.15650      8.15650
     76.83066     61.48980     61.48980
%ENDBLOCK LATTICE_ABC

%BLOCK POSITIONS_FRAC
  Li   0.4221361  -0.7382200  -0.2238916 SPIN=   0.00000
  Li   0.4600245  -0.2617800   0.2238916 SPIN=   0.00000
  Li  -0.1982445  -0.2238916  -0.2617800 SPIN=   0.00000
  Li   0.3160840  -0.7761084   0.2617800 SPIN=   0.00000
  Fe  -0.0001188   0.3183486  -0.3184179 SPIN=   4.00000
  Fe  -0.0001881  -0.3183486   0.3184179 SPIN=   4.00000
  Fe   0.3185367  -0.3184179  -0.3183486 SPIN=   4.00000
  Fe  -0.3182298   0.3184179   0.3183486 SPIN=   4.00000
   O   0.6636296  -0.4294703  -0.0562138 SPIN=   0.00000
   O   0.5527917  -0.6078293  -0.1634397 SPIN=   0.00000
   O   0.2747905  -0.3456601   0.0577885 SPIN=   0.00000
   O   0.5063583  -0.6389705   0.1624901 SPIN=   0.00000
   S   0.4993925  -0.5054826   0.0001563 SPIN=   0.00000
   O   0.1779455   0.4294703   0.0562138 SPIN=   0.00000
   O  -0.2184772   0.6078293   0.1634397 SPIN=   0.00000
   O  -0.0130810   0.3456601  -0.0577885 SPIN=   0.00000
   O   0.0298779   0.6389705  -0.1624901 SPIN=   0.00000
   S  -0.0059337   0.5054826  -0.0001563 SPIN=   0.00000
   O  -0.6074158  -0.0562138  -0.5705297 SPIN=   0.00000
   O  -0.3893521  -0.1634397  -0.3921707 SPIN=   0.00000
   O  -0.3325791   0.0577885  -0.6543399 SPIN=   0.00000
   O  -0.6688484   0.1624901  -0.3610295 SPIN=   0.00000
   S  -0.4995488   0.0001563  -0.4945174 SPIN=   0.00000
   O  -0.2341593   0.0562138   0.5705297 SPIN=   0.00000
   O   0.0550375   0.1634397   0.3921707 SPIN=   0.00000
   O   0.0708696  -0.0577885   0.6543399 SPIN=   0.00000
   O   0.1326123  -0.1624901   0.3610295 SPIN=   0.00000
   S   0.0060900  -0.0001563   0.4945174 SPIN=   0.00000
   F   0.5000000   0.0000000   0.0000000 SPIN=   0.00000
   F  -0.2500000   0.5000000   0.5000000 SPIN=   0.00000
   F   0.2500000  -0.5000000  -0.5000000 SPIN=   0.00000
   F   0.0000000  -0.0000000  -0.0000000 SPIN=   0.00000
%ENDBLOCK POSITIONS_FRAC

# Note: total spin =  16.00

KPOINTS_MP_SPACING 0.07

%BLOCK SPECIES_POT
QC5
%ENDBLOCK SPECIES_POT

SNAP_TO_SYMMETRY
SYMMETRY_GENERATE

