#              Generated by Buildcell
#
# at 17:21:24 (GMT+1.0) 18th August 2020
# in /lustre/scratch/uccabz1/launch_tmp
# on node-c12g-001
# by uccabz1
#
# compiler GCC version 4.9.2
# options -cpp -iprefix /lustre/shared/ucl/apps/gcc/4.9.2/bin/../lib/gcc/x86_64-unknown-linux-gnu/4.9.2/ -mtune=corei7 -march=x86-64 -g -Og
#
# seed  -205366255   413778288  1953044553  1474675718 -2061777642 -1264689134  -500768541  -216267528   500758700    32058895 -1113627841  1159172853
#
#      Author: C. J. Pickard (cjp20@cam.ac.uk)
#                Space group: I41
#

%BLOCK LATTICE_ABC
      7.17795      7.17795      9.27544
    112.76379    112.76379     90.00000
%ENDBLOCK LATTICE_ABC

%BLOCK POSITIONS_FRAC
  Li   0.0616084   0.2424277  -0.0166365 SPIN=   0.00000
  Li  -0.0782449  -0.2590642  -0.0166365 SPIN=   0.00000
  Li   0.4909358   0.3116084   0.4833635 SPIN=   0.00000
  Li  -0.0075723   0.1717551   0.4833635 SPIN=   0.00000
  Fe  -0.3407501  -0.1612560   0.1895506 SPIN=   4.00000
  Fe  -0.4696993   0.3508065   0.1895506 SPIN=   4.00000
  Fe   0.1008065  -0.0907501  -0.3104494 SPIN=   4.00000
  Fe  -0.4112560  -0.2196993  -0.3104494 SPIN=   4.00000
   O   0.1402064  -0.5311265  -0.3484865 SPIN=   0.00000
   O   0.4424049  -0.3723037  -0.0674297 SPIN=   0.00000
   O   0.1332800  -0.5588716  -0.0927651 SPIN=   0.00000
   O   0.1241330  -0.2244386  -0.1121930 SPIN=   0.00000
   S   0.2100061  -0.4216851  -0.1552186 SPIN=   0.00000
   O  -0.4886929   0.1826400  -0.3484865 SPIN=   0.00000
   O  -0.5098345   0.3048741  -0.0674297 SPIN=   0.00000
   O  -0.2260450   0.4661065  -0.0927651 SPIN=   0.00000
   O  -0.2363260   0.1122456  -0.1121930 SPIN=   0.00000
   S  -0.3652246   0.2664665  -0.1552186 SPIN=   0.00000
   O  -0.0673600   0.3902064   0.1515135 SPIN=   0.00000
   O   0.0548741   0.6924049   0.4325703 SPIN=   0.00000
   O   0.2161065   0.3832800   0.4072349 SPIN=   0.00000
   O  -0.1377544   0.3741330   0.3878070 SPIN=   0.00000
   S   0.0164665   0.4600061   0.3447814 SPIN=   0.00000
   O   0.2188735  -0.2386929   0.1515135 SPIN=   0.00000
   O   0.3776963  -0.2598345   0.4325703 SPIN=   0.00000
   O   0.1911284   0.0239550   0.4072349 SPIN=   0.00000
   O   0.5255614   0.0136740   0.3878070 SPIN=   0.00000
   S   0.3283149  -0.1152246   0.3447814 SPIN=   0.00000
   F   0.3068209   0.1542539   0.0812567 SPIN=   0.00000
   F  -0.2255642  -0.0729972   0.0812567 SPIN=   0.00000
   F  -0.3229972  -0.4431791  -0.4187433 SPIN=   0.00000
   F  -0.0957461   0.0244358  -0.4187433 SPIN=   0.00000
%ENDBLOCK POSITIONS_FRAC

# Note: total spin =  16.00

KPOINTS_MP_SPACING 0.07

%BLOCK SPECIES_POT
QC5
%ENDBLOCK SPECIES_POT

SNAP_TO_SYMMETRY
SYMMETRY_GENERATE

