#              Generated by Buildcell
#
# at 16:50:43 (GMT+1.0) 18th August 2020
# in /lustre/scratch/uccabz1/launch_tmp
# on node-c12p-012
# by uccabz1
#
# compiler GCC version 4.9.2
# options -cpp -iprefix /lustre/shared/ucl/apps/gcc/4.9.2/bin/../lib/gcc/x86_64-unknown-linux-gnu/4.9.2/ -mtune=corei7 -march=x86-64 -g -Og
#
# seed -1467909774  1036158989  1009963162  1650263320  -922734237  2090358882  -209333456   730194441   461907124  1856356493  1094622742   474973566
#
#      Author: C. J. Pickard (cjp20@cam.ac.uk)
#                Space group: Pm
#

%BLOCK LATTICE_ABC
      6.01957      7.07892     10.24473
     90.00000     90.00000    113.61208
%ENDBLOCK LATTICE_ABC

%BLOCK POSITIONS_FRAC
  Li  -0.3407707   0.0872451  -0.5000000 SPIN=   0.00000
  Li   0.3108551  -0.3004160   0.0000000 SPIN=   0.00000
  Li   0.3176181   0.4134142   0.5000000 SPIN=   0.00000
  Li   0.0032795  -0.2373466   0.5000000 SPIN=   0.00000
  Fe  -0.1187203   0.1836099   0.1823786 SPIN=   2.29225
  Fe  -0.1187203   0.1836099  -0.1823786 SPIN=   2.29225
  Fe   0.3769531  -0.3083494  -0.2833793 SPIN=   5.70775
  Fe   0.3769531  -0.3083494   0.2833793 SPIN=   5.70775
   O   0.4767628   0.3534610   0.3495304 SPIN=   0.00000
   O   0.2715440   0.1233771   0.1654107 SPIN=   0.00000
   O   0.1166551   0.0308237   0.3904630 SPIN=   0.00000
   O   0.5055973   0.0160635   0.3259660 SPIN=   0.00000
   S   0.3426398   0.1309313   0.3078425 SPIN=   0.00000
   O   0.4767628   0.3534610  -0.3495304 SPIN=   0.00000
   O   0.2715440   0.1233771  -0.1654107 SPIN=   0.00000
   O   0.1166551   0.0308237  -0.3904630 SPIN=   0.00000
   O   0.5055973   0.0160635  -0.3259660 SPIN=   0.00000
   S   0.3426398   0.1309313  -0.3078425 SPIN=   0.00000
   O  -0.2641617  -0.5771835  -0.1160199 SPIN=   0.00000
   O  -0.1389284  -0.4089292  -0.3311494 SPIN=   0.00000
   O   0.1001688  -0.2506382  -0.1337460 SPIN=   0.00000
   O  -0.3079798  -0.2511696  -0.1640117 SPIN=   0.00000
   S  -0.1527253  -0.3719801  -0.1862318 SPIN=   0.00000
   O  -0.2641617  -0.5771835   0.1160199 SPIN=   0.00000
   O  -0.1389284  -0.4089292   0.3311494 SPIN=   0.00000
   O   0.1001688  -0.2506382   0.1337460 SPIN=   0.00000
   O  -0.3079798  -0.2511696   0.1640117 SPIN=   0.00000
   S  -0.1527253  -0.3719801   0.1862318 SPIN=   0.00000
   F  -0.0447996   0.3698608  -0.5000000 SPIN=   0.00000
   F  -0.3831175  -0.2267975  -0.5000000 SPIN=   0.00000
   F  -0.3970903  -0.0165740   0.0000000 SPIN=   0.00000
   F   0.2566815   0.3910828   0.0000000 SPIN=   0.00000
%ENDBLOCK POSITIONS_FRAC

# Note: total spin =  16.00

KPOINTS_MP_SPACING 0.07

%BLOCK SPECIES_POT
QC5
%ENDBLOCK SPECIES_POT

SNAP_TO_SYMMETRY
SYMMETRY_GENERATE

