#              Generated by Buildcell
#
# at 08:02:40 (GMT+1.0) 4th August 2020
# in /lustre/scratch/uccabz1/launch_tmp
# on node-c12g-015
# by uccabz1
#
# compiler GCC version 4.9.2
# options -cpp -iprefix /lustre/shared/ucl/apps/gcc/4.9.2/bin/../lib/gcc/x86_64-unknown-linux-gnu/4.9.2/ -mtune=corei7 -march=x86-64 -g -Og
#
# seed   437206169  2101629817   502409103  -373964193  1210592214  1285681470 -1732604385 -1793579633  -181277530    26810427  1737852827 -1717478921
#
#      Author: C. J. Pickard (cjp20@cam.ac.uk)
#                Space group: P212121
#

%BLOCK LATTICE_ABC
      5.04194      6.68562     11.86645
     90.00000     90.00000     90.00000
%ENDBLOCK LATTICE_ABC

%BLOCK POSITIONS_FRAC
  Li  -0.4797361  -0.3971205   0.1494325 SPIN=   0.00000
  Li  -0.0202639   0.1028795  -0.1494325 SPIN=   0.00000
  Li   0.4797361  -0.1028795  -0.3505675 SPIN=   0.00000
  Li   0.0202639   0.3971205   0.3505675 SPIN=   0.00000
  Fe   0.4371373   0.0801866   0.3518372 SPIN=   4.00000
  Fe   0.0628627  -0.4198134  -0.3518372 SPIN=   4.00000
  Fe  -0.4371373   0.4198134  -0.1481628 SPIN=   4.00000
  Fe  -0.0628627  -0.0801866   0.1481628 SPIN=   4.00000
   O   0.1398478  -0.1110952  -0.0419729 SPIN=   0.00000
   O   0.5404501  -0.3236033  -0.0557773 SPIN=   0.00000
   O   0.4982599  -0.0781594   0.0993149 SPIN=   0.00000
   O   0.5701040   0.0388737  -0.0961794 SPIN=   0.00000
   S   0.4371655  -0.1184960  -0.0236537 SPIN=   0.00000
   O   0.3601522   0.3889048   0.0419729 SPIN=   0.00000
   O  -0.0404501   0.1763967   0.0557773 SPIN=   0.00000
   O   0.0017401   0.4218406  -0.0993149 SPIN=   0.00000
   O  -0.0701040   0.5388737   0.0961794 SPIN=   0.00000
   S   0.0628345   0.3815040   0.0236537 SPIN=   0.00000
   O  -0.1398478  -0.3889048   0.4580271 SPIN=   0.00000
   O  -0.5404501  -0.1763967   0.4442227 SPIN=   0.00000
   O  -0.4982599  -0.4218406   0.5993149 SPIN=   0.00000
   O  -0.5701040  -0.5388737   0.4038206 SPIN=   0.00000
   S  -0.4371655  -0.3815040   0.4763463 SPIN=   0.00000
   O  -0.3601522   0.1110952  -0.4580271 SPIN=   0.00000
   O   0.0404501   0.3236033  -0.4442227 SPIN=   0.00000
   O  -0.0017401   0.0781594  -0.5993149 SPIN=   0.00000
   O   0.0701040  -0.0388737  -0.4038206 SPIN=   0.00000
   S  -0.0628345   0.1184960  -0.4763463 SPIN=   0.00000
   F   0.4370672   0.2719714  -0.2644237 SPIN=   0.00000
   F   0.0629328  -0.2280286   0.2644237 SPIN=   0.00000
   F  -0.4370672   0.2280286   0.2355763 SPIN=   0.00000
   F  -0.0629328  -0.2719714  -0.2355763 SPIN=   0.00000
%ENDBLOCK POSITIONS_FRAC

# Note: total spin =  16.00

KPOINTS_MP_SPACING 0.07

%BLOCK SPECIES_POT
QC5
%ENDBLOCK SPECIES_POT

SNAP_TO_SYMMETRY
SYMMETRY_GENERATE

