#              Generated by Buildcell
#
# at 10:18:49 (GMT+1.0) 4th August 2020
# in /lustre/scratch/uccabz1/launch_tmp
# on node-c12p-030
# by uccabz1
#
# compiler GCC version 4.9.2
# options -cpp -iprefix /lustre/shared/ucl/apps/gcc/4.9.2/bin/../lib/gcc/x86_64-unknown-linux-gnu/4.9.2/ -mtune=corei7 -march=x86-64 -g -Og
#
# seed  1966227080  -909299882  1206754712   181781761  1081583990   684117956   793690763  -188785789 -1982573645  1362065566   390730017  1334879585
#
#      Author: C. J. Pickard (cjp20@cam.ac.uk)
#                Space group: P-1
#

%BLOCK LATTICE_ABC
      5.17433      7.42408     11.21733
     86.44687     79.80364     70.59100
%ENDBLOCK LATTICE_ABC

%BLOCK POSITIONS_FRAC
  Li   0.8480434  -0.4346687  -0.3040659 SPIN=   0.00000
  Li  -0.8480434   0.4346687   0.3040659 SPIN=   0.00000
  Li  -0.5130977   0.2594250  -0.0505110 SPIN=   0.00000
  Li   0.5130977  -0.2594250   0.0505110 SPIN=   0.00000
  Fe  -0.3903363  -0.0119903  -0.2552215 SPIN=   6.24531
  Fe   0.3903363   0.0119903   0.2552215 SPIN=   6.24531
  Fe   0.0810560   0.1975179  -0.4441762 SPIN=   1.75469
  Fe  -0.0810560  -0.1975179   0.4441762 SPIN=   1.75469
   O  -0.2930340   0.4551204   0.4135232 SPIN=   0.00000
   O  -0.0236860   0.1388873   0.3220378 SPIN=   0.00000
   O  -0.3305724   0.3870106   0.2052302 SPIN=   0.00000
   O  -0.5344911   0.2299871   0.3801950 SPIN=   0.00000
   S  -0.2954459   0.3027513   0.3302465 SPIN=   0.00000
   O   0.2930340  -0.4551204  -0.4135232 SPIN=   0.00000
   O   0.0236860  -0.1388873  -0.3220378 SPIN=   0.00000
   O   0.3305724  -0.3870106  -0.2052302 SPIN=   0.00000
   O   0.5344911  -0.2299871  -0.3801950 SPIN=   0.00000
   S   0.2954459  -0.3027513  -0.3302465 SPIN=   0.00000
   O  -0.1212437  -0.4306480   0.0884843 SPIN=   0.00000
   O   0.0337455  -0.1519656   0.0274787 SPIN=   0.00000
   O   0.2761930  -0.3945172   0.1673932 SPIN=   0.00000
   O  -0.2003709  -0.1772582   0.2372100 SPIN=   0.00000
   S  -0.0029190  -0.2885972   0.1301416 SPIN=   0.00000
   O   0.1212437   0.4306480  -0.0884843 SPIN=   0.00000
   O  -0.0337455   0.1519656  -0.0274787 SPIN=   0.00000
   O  -0.2761930   0.3945172  -0.1673932 SPIN=   0.00000
   O   0.2003709   0.1772582  -0.2372100 SPIN=   0.00000
   S   0.0029190   0.2885972  -0.1301416 SPIN=   0.00000
   F  -0.3189955   0.2148146  -0.3622875 SPIN=   0.00000
   F   0.3189955  -0.2148146   0.3622875 SPIN=   0.00000
   F  -0.6768349   0.2178579   0.1262509 SPIN=   0.00000
   F   0.6768349  -0.2178579  -0.1262509 SPIN=   0.00000
%ENDBLOCK POSITIONS_FRAC

# Note: total spin =  16.00

KPOINTS_MP_SPACING 0.07

%BLOCK SPECIES_POT
QC5
%ENDBLOCK SPECIES_POT

SNAP_TO_SYMMETRY
SYMMETRY_GENERATE

