#              Generated by Buildcell
#
# at 22:57:56 (GMT+1.0) 17th August 2020
# in /lustre/scratch/uccabz1/launch_tmp
# on node-c12m-009
# by uccabz1
#
# compiler GCC version 4.9.2
# options -cpp -iprefix /lustre/shared/ucl/apps/gcc/4.9.2/bin/../lib/gcc/x86_64-unknown-linux-gnu/4.9.2/ -mtune=corei7 -march=x86-64 -g -Og
#
# seed -1953430887 -1719582338  -204624867 -1802194988 -2070301294  -977799108   733558182  1282793751  1931212304  -876499190  -654514156 -1940545402
#
#      Author: C. J. Pickard (cjp20@cam.ac.uk)
#                Space group: P21
#

%BLOCK LATTICE_ABC
      6.74033      6.89713      8.60477
     90.65688     90.00000     90.00000
%ENDBLOCK LATTICE_ABC

%BLOCK POSITIONS_FRAC
  Li  -0.3648715  -0.2489695   0.4617131 SPIN=   0.00000
  Li   0.1351285   0.2489695  -0.4617131 SPIN=   0.00000
  Li   0.2356367  -0.4242892  -0.1031475 SPIN=   0.00000
  Li  -0.2643633   0.4242892   0.1031475 SPIN=   0.00000
  Fe  -0.4288006   0.1372868  -0.2333269 SPIN=   4.47574
  Fe   0.0711994  -0.1372868   0.2333269 SPIN=   4.47574
  Fe   0.3116398   0.3691491   0.1945466 SPIN=   3.52426
  Fe  -0.1883602  -0.3691491  -0.1945466 SPIN=   3.52426
   O   0.0952320  -0.4821034  -0.3974661 SPIN=   0.00000
   O   0.2757756  -0.2132325  -0.2673914 SPIN=   0.00000
   O   0.0294739  -0.1427650  -0.4724373 SPIN=   0.00000
   O   0.3491486  -0.2976522  -0.5417395 SPIN=   0.00000
   S   0.1874075  -0.2839383  -0.4197586 SPIN=   0.00000
   O  -0.4047680   0.4821034   0.3974661 SPIN=   0.00000
   O  -0.2242244   0.2132325   0.2673914 SPIN=   0.00000
   O  -0.4705261   0.1427650   0.4724373 SPIN=   0.00000
   O  -0.1508514   0.2976522   0.5417395 SPIN=   0.00000
   S  -0.3125925   0.2839383   0.4197586 SPIN=   0.00000
   O  -0.1541831   0.1922425   0.0050312 SPIN=   0.00000
   O   0.2129790   0.1893497   0.0052780 SPIN=   0.00000
   O   0.0297301   0.1944249  -0.2438782 SPIN=   0.00000
   O   0.0270954  -0.1009646  -0.0832926 SPIN=   0.00000
   S   0.0289053   0.1187631  -0.0792154 SPIN=   0.00000
   O  -0.6541831  -0.1922425  -0.0050312 SPIN=   0.00000
   O  -0.2870210  -0.1893497  -0.0052780 SPIN=   0.00000
   O  -0.4702699  -0.1944249   0.2438782 SPIN=   0.00000
   O  -0.4729046   0.1009646   0.0832926 SPIN=   0.00000
   S  -0.4710947  -0.1187631   0.0792154 SPIN=   0.00000
   F  -0.0316603  -0.4122156   0.1324774 SPIN=   0.00000
   F   0.4683397   0.4122156  -0.1324774 SPIN=   0.00000
   F   0.1874018   0.1335353   0.3323178 SPIN=   0.00000
   F  -0.3125982  -0.1335353  -0.3323178 SPIN=   0.00000
%ENDBLOCK POSITIONS_FRAC

# Note: total spin =  16.00

KPOINTS_MP_SPACING 0.07

%BLOCK SPECIES_POT
QC5
%ENDBLOCK SPECIES_POT

SNAP_TO_SYMMETRY
SYMMETRY_GENERATE

