#              Generated by Buildcell
#
# at 14:15:13 (GMT+1.0) 18th August 2020
# in /lustre/scratch/uccabz1/launch_tmp
# on node-c12j-022
# by uccabz1
#
# compiler GCC version 4.9.2
# options -cpp -iprefix /lustre/shared/ucl/apps/gcc/4.9.2/bin/../lib/gcc/x86_64-unknown-linux-gnu/4.9.2/ -mtune=corei7 -march=x86-64 -g -Og
#
# seed   -47712160  1706611458   811560963  1747812342     7206662   671768416  1239174843   892312860 -1758958047 -1771979800   -32049890 -2090969706
#
#      Author: C. J. Pickard (cjp20@cam.ac.uk)
#                Space group: P21/c
#

%BLOCK LATTICE_ABC
      4.42920      9.17892     10.03930
    101.46961     90.00000     90.00000
%ENDBLOCK LATTICE_ABC

%BLOCK POSITIONS_FRAC
  Li   0.1411957   0.0123740  -0.2128228 SPIN=   0.00000
  Li  -0.3588043   0.4876260  -0.2871772 SPIN=   0.00000
  Li  -0.1411957  -0.0123740   0.2128228 SPIN=   0.00000
  Li   0.3588043  -0.4876260   0.2871772 SPIN=   0.00000
  Fe   0.2706267  -0.1542623   0.3966357 SPIN=   4.00000
  Fe  -0.2293733  -0.3457377   0.1033643 SPIN=   4.00000
  Fe  -0.2706267   0.1542623  -0.3966357 SPIN=   4.00000
  Fe   0.2293733   0.3457377  -0.1033643 SPIN=   4.00000
   O   0.1016831   0.1449081   0.3841989 SPIN=   0.00000
   O   0.3117214   0.3309325   0.5742257 SPIN=   0.00000
   O  -0.0049116   0.4123998   0.3994896 SPIN=   0.00000
   O   0.5088954   0.3142478   0.3410173 SPIN=   0.00000
   S   0.2293471   0.3006221   0.4247329 SPIN=   0.00000
   O  -0.3983169   0.3550919   0.1158011 SPIN=   0.00000
   O  -0.1882786   0.1690675  -0.0742257 SPIN=   0.00000
   O  -0.5049116   0.0876002   0.1005104 SPIN=   0.00000
   O   0.0088954   0.1857522   0.1589827 SPIN=   0.00000
   S  -0.2706529   0.1993779   0.0752671 SPIN=   0.00000
   O  -0.1016831  -0.1449081  -0.3841989 SPIN=   0.00000
   O  -0.3117214  -0.3309325  -0.5742257 SPIN=   0.00000
   O   0.0049116  -0.4123998  -0.3994896 SPIN=   0.00000
   O  -0.5088954  -0.3142478  -0.3410173 SPIN=   0.00000
   S  -0.2293471  -0.3006221  -0.4247329 SPIN=   0.00000
   O   0.3983169  -0.3550919  -0.1158011 SPIN=   0.00000
   O   0.1882786  -0.1690675   0.0742257 SPIN=   0.00000
   O   0.5049116  -0.0876002  -0.1005104 SPIN=   0.00000
   O  -0.0088954  -0.1857522  -0.1589827 SPIN=   0.00000
   S   0.2706529  -0.1993779  -0.0752671 SPIN=   0.00000
   F   0.4660931   0.0831526  -0.2872824 SPIN=   0.00000
   F  -0.0339069   0.4168474  -0.2127176 SPIN=   0.00000
   F  -0.4660931  -0.0831526   0.2872824 SPIN=   0.00000
   F   0.0339069  -0.4168474   0.2127176 SPIN=   0.00000
%ENDBLOCK POSITIONS_FRAC

# Note: total spin =  16.00

KPOINTS_MP_SPACING 0.07

%BLOCK SPECIES_POT
QC5
%ENDBLOCK SPECIES_POT

SNAP_TO_SYMMETRY
SYMMETRY_GENERATE

