#              Generated by Buildcell
#
# at 02:12:21 (GMT+1.0) 18th August 2020
# in /lustre/scratch/uccabz1/launch_tmp
# on node-c12l-016
# by uccabz1
#
# compiler GCC version 4.9.2
# options -cpp -iprefix /lustre/shared/ucl/apps/gcc/4.9.2/bin/../lib/gcc/x86_64-unknown-linux-gnu/4.9.2/ -mtune=corei7 -march=x86-64 -g -Og
#
# seed   849733387 -1829800454  -427554263 -1984813692  1550371316 -1135543252  -941514960  -304047326   541420453   -46749096 -1900449292   375893465
#
#      Author: C. J. Pickard (cjp20@cam.ac.uk)
#                Space group: P43
#

%BLOCK LATTICE_ABC
      7.32827      7.32827      7.44831
     90.00000     90.00000     90.00000
%ENDBLOCK LATTICE_ABC

%BLOCK POSITIONS_FRAC
  Li  -0.3190110  -0.0674213  -0.2567064 SPIN=   0.00000
  Li   0.3190110   0.0674213   0.2432936 SPIN=   0.00000
  Li  -0.0674213   0.3190110   0.4932936 SPIN=   0.00000
  Li   0.0674213  -0.3190110  -0.0067064 SPIN=   0.00000
  Fe  -0.2181490   0.4064844  -0.1344519 SPIN=   4.00000
  Fe   0.2181490  -0.4064844   0.3655481 SPIN=   4.00000
  Fe   0.4064844   0.2181490  -0.3844519 SPIN=   4.00000
  Fe  -0.4064844  -0.2181490   0.1155481 SPIN=   4.00000
   O  -0.1647344  -0.4064056   0.3056984 SPIN=   0.00000
   O  -0.2011966  -0.1356173   0.5009847 SPIN=   0.00000
   O  -0.0596311  -0.4167866   0.6213054 SPIN=   0.00000
   O  -0.3901024  -0.4104951   0.5531304 SPIN=   0.00000
   S  -0.2039161  -0.3423262   0.4952798 SPIN=   0.00000
   O   0.1647344   0.4064056  -0.1943016 SPIN=   0.00000
   O   0.2011966   0.1356173   0.0009847 SPIN=   0.00000
   O   0.0596311   0.4167866   0.1213054 SPIN=   0.00000
   O   0.3901024   0.4104951   0.0531304 SPIN=   0.00000
   S   0.2039161   0.3423262  -0.0047202 SPIN=   0.00000
   O  -0.4064056   0.1647344   0.0556984 SPIN=   0.00000
   O  -0.1356173   0.2011966   0.2509847 SPIN=   0.00000
   O  -0.4167866   0.0596311   0.3713054 SPIN=   0.00000
   O  -0.4104951   0.3901024   0.3031304 SPIN=   0.00000
   S  -0.3423262   0.2039161   0.2452798 SPIN=   0.00000
   O   0.4064056  -0.1647344  -0.4443016 SPIN=   0.00000
   O   0.1356173  -0.2011966  -0.2490153 SPIN=   0.00000
   O   0.4167866  -0.0596311  -0.1286946 SPIN=   0.00000
   O   0.4104951  -0.3901024  -0.1968696 SPIN=   0.00000
   S   0.3423262  -0.2039161  -0.2547202 SPIN=   0.00000
   F  -0.1867000  -0.2932685  -0.0485516 SPIN=   0.00000
   F   0.1867000   0.2932685   0.4514484 SPIN=   0.00000
   F  -0.2932685   0.1867000  -0.2985516 SPIN=   0.00000
   F   0.2932685  -0.1867000   0.2014484 SPIN=   0.00000
%ENDBLOCK POSITIONS_FRAC

# Note: total spin =  16.00

KPOINTS_MP_SPACING 0.07

%BLOCK SPECIES_POT
QC5
%ENDBLOCK SPECIES_POT

SNAP_TO_SYMMETRY
SYMMETRY_GENERATE

