#              Generated by Buildcell
#
# at 03:08:47 (GMT+1.0) 18th August 2020
# in /lustre/scratch/uccabz1/launch_tmp
# on node-c12f-008
# by uccabz1
#
# compiler GCC version 4.9.2
# options -cpp -iprefix /lustre/shared/ucl/apps/gcc/4.9.2/bin/../lib/gcc/x86_64-unknown-linux-gnu/4.9.2/ -mtune=corei7 -march=x86-64 -g -Og
#
# seed   520323603 -1316118528  1122424852   853423075  1726842755 -1926791871 -2142333080   596829210   288694840  -956047922   826471790  1689011525
#
#      Author: C. J. Pickard (cjp20@cam.ac.uk)
#                Space group: P2
#

%BLOCK LATTICE_ABC
      6.96258      7.03179      8.32097
     90.00000    100.92964     90.00000
%ENDBLOCK LATTICE_ABC

%BLOCK POSITIONS_FRAC
  Li  -0.3512838  -0.1378996   0.2821693 SPIN=   0.00000
  Li   0.3512838  -0.1378996  -0.2821693 SPIN=   0.00000
  Li   0.2700550   0.2739926   0.1279749 SPIN=   0.00000
  Li  -0.2700550   0.2739926  -0.1279749 SPIN=   0.00000
  Fe  -0.2687206  -0.2519740  -0.0776339 SPIN=   5.23256
  Fe   0.2687206  -0.2519740   0.0776339 SPIN=   5.23256
  Fe  -0.3116262   0.3715035   0.2292692 SPIN=   2.76744
  Fe   0.3116262   0.3715035  -0.2292692 SPIN=   2.76744
   O   0.2650564  -0.2738876   0.4925367 SPIN=   0.00000
   O   0.3061803  -0.4584558   0.2480765 SPIN=   0.00000
   O   0.0121228  -0.5061241   0.3701664 SPIN=   0.00000
   O   0.3350103  -0.6188831   0.5163196 SPIN=   0.00000
   S   0.2295924  -0.4643377   0.4067748 SPIN=   0.00000
   O  -0.2650564  -0.2738876  -0.4925367 SPIN=   0.00000
   O  -0.3061803  -0.4584558  -0.2480765 SPIN=   0.00000
   O  -0.0121228  -0.5061241  -0.3701664 SPIN=   0.00000
   O  -0.3350103  -0.6188831  -0.5163196 SPIN=   0.00000
   S  -0.2295924  -0.4643377  -0.4067748 SPIN=   0.00000
   O  -0.0722786  -0.0966433   0.3695437 SPIN=   0.00000
   O  -0.0642842   0.2215593   0.2438854 SPIN=   0.00000
   O   0.0806322  -0.0549189   0.1265266 SPIN=   0.00000
   O   0.2413921   0.0765597   0.3942566 SPIN=   0.00000
   S   0.0463653   0.0366392   0.2835531 SPIN=   0.00000
   O   0.0722786  -0.0966433  -0.3695437 SPIN=   0.00000
   O   0.0642842   0.2215593  -0.2438854 SPIN=   0.00000
   O  -0.0806322  -0.0549189  -0.1265266 SPIN=   0.00000
   O  -0.2413921   0.0765597  -0.3942566 SPIN=   0.00000
   S  -0.0463653   0.0366392  -0.2835531 SPIN=   0.00000
   F  -0.4703001   0.1171919   0.2179250 SPIN=   0.00000
   F   0.4703001   0.1171919  -0.2179250 SPIN=   0.00000
   F   0.2882706  -0.3450975  -0.1586202 SPIN=   0.00000
   F  -0.2882706  -0.3450975   0.1586202 SPIN=   0.00000
%ENDBLOCK POSITIONS_FRAC

# Note: total spin =  16.00

KPOINTS_MP_SPACING 0.07

%BLOCK SPECIES_POT
QC5
%ENDBLOCK SPECIES_POT

SNAP_TO_SYMMETRY
SYMMETRY_GENERATE

