#              Generated by Buildcell
#
# at 07:12:46 (GMT+1.0) 4th August 2020
# in /lustre/scratch/uccabz1/launch_tmp
# on node-c12p-014
# by uccabz1
#
# compiler GCC version 4.9.2
# options -cpp -iprefix /lustre/shared/ucl/apps/gcc/4.9.2/bin/../lib/gcc/x86_64-unknown-linux-gnu/4.9.2/ -mtune=corei7 -march=x86-64 -g -Og
#
# seed  -663526390   468522933 -1428250198  1449578971 -1027322255  1781942417  -658122500 -1544997223  -601448823  -126074518  2108176418  -453496100
#
#      Author: C. J. Pickard (cjp20@cam.ac.uk)
#                Space group: Cm
#

%BLOCK LATTICE_ABC
      4.26205      9.89148     10.86542
    116.28510     99.64142     93.60839
%ENDBLOCK LATTICE_ABC

%BLOCK POSITIONS_FRAC
  Li   0.3467982   0.0595785  -0.2075087 SPIN=   0.00000
  Li   0.5543069   0.2670872   0.2075087 SPIN=   0.00000
  Li  -0.1214634   0.3047334   0.6347101 SPIN=   0.00000
  Li  -0.7561734  -0.3299767  -0.6347101 SPIN=   0.00000
  Fe  -0.2357999  -0.1922669  -0.3123259 SPIN=   5.43942
  Fe   0.0765260   0.1200590   0.3123259 SPIN=   5.43942
  Fe  -0.5946439  -0.1232412   0.0000000 SPIN=   1.57452
  Fe  -0.0203508   0.2913089  -0.0000000 SPIN=   3.54665
   O  -0.5803304  -0.2949381   0.1182067 SPIN=   0.00000
   O  -0.2383986  -0.2599493   0.3411956 SPIN=   0.00000
   O  -0.0646286  -0.1170801   0.2199514 SPIN=   0.00000
   O  -0.0633772  -0.3958017   0.1171601 SPIN=   0.00000
   S  -0.2366837  -0.2669423   0.1991284 SPIN=   0.00000
   O  -0.6985371  -0.4131448  -0.1182067 SPIN=   0.00000
   O  -0.5795942  -0.6011449  -0.3411956 SPIN=   0.00000
   O  -0.2845800  -0.3370315  -0.2199514 SPIN=   0.00000
   O  -0.1805373  -0.5129618  -0.1171601 SPIN=   0.00000
   S  -0.4358122  -0.4660707  -0.1991284 SPIN=   0.00000
   O   0.6009408  -0.0158326  -0.3498485 SPIN=   0.00000
   O   0.5835967   0.1107310  -0.5023248 SPIN=   0.00000
   O   0.0763389   0.0005488  -0.4762171 SPIN=   0.00000
   S   0.4235575  -0.0185335  -0.4842133 SPIN=   0.00000
   O   0.9507893   0.3340159   0.3498485 SPIN=   0.00000
   O   1.0859215   0.6130558   0.5023248 SPIN=   0.00000
   O   0.5525560   0.4767658   0.4762171 SPIN=   0.00000
   S   0.9077708   0.4656799   0.4842133 SPIN=   0.00000
   O   0.4824486   0.1676216  -0.0000000 SPIN=   0.00000
   O  -0.0064926  -0.2505240   0.0000000 SPIN=   0.00000
   F   0.4010638   0.0580725   0.1891116 SPIN=   0.00000
   F   0.2119521  -0.1310391  -0.1891116 SPIN=   0.00000
   F   0.2629954   0.4109874   0.1864577 SPIN=   0.00000
   F   0.0765377   0.2245297  -0.1864577 SPIN=   0.00000
%ENDBLOCK POSITIONS_FRAC

# Note: total spin =  16.00

KPOINTS_MP_SPACING 0.07

%BLOCK SPECIES_POT
QC5
%ENDBLOCK SPECIES_POT

SNAP_TO_SYMMETRY
SYMMETRY_GENERATE

