#              Generated by Buildcell
#
# at 06:01:03 (GMT+1.0) 4th August 2020
# in /lustre/scratch/uccabz1/launch_tmp
# on node-c12c-016
# by uccabz1
#
# compiler GCC version 4.9.2
# options -cpp -iprefix /lustre/shared/ucl/apps/gcc/4.9.2/bin/../lib/gcc/x86_64-unknown-linux-gnu/4.9.2/ -mtune=corei7 -march=x86-64 -g -Og
#
# seed -1447334836   493547827  1187155241  -849314426  1909838001  1593803248    78119889   726268598   664450525 -2101705949  -491112435 -1147263328
#
#      Author: C. J. Pickard (cjp20@cam.ac.uk)
#                Space group: P21
#

%BLOCK LATTICE_ABC
      4.06014      9.31980     10.91097
    104.34196     90.00000     90.00000
%ENDBLOCK LATTICE_ABC

%BLOCK POSITIONS_FRAC
  Li  -0.3233324  -0.1840561  -0.0692341 SPIN=   0.00000
  Li   0.1766676   0.1840561   0.0692341 SPIN=   0.00000
  Li   0.2591232  -0.1103838   0.2730693 SPIN=   0.00000
  Li  -0.2408768   0.1103838  -0.2730693 SPIN=   0.00000
  Fe  -0.2449748   0.1254566   0.2753597 SPIN=   3.71105
  Fe   0.2550252  -0.1254566  -0.2753597 SPIN=   3.71105
  Fe   0.4221500   0.4727287   0.2316614 SPIN=   4.28895
  Fe  -0.0778500  -0.4727287  -0.2316614 SPIN=   4.28895
   O  -0.3116709  -0.1932571   0.5966973 SPIN=   0.00000
   O  -0.5559309  -0.0518797   0.4548560 SPIN=   0.00000
   O  -0.5559391  -0.3259132   0.3921759 SPIN=   0.00000
   O  -0.0333006  -0.1882075   0.3960187 SPIN=   0.00000
   S  -0.3642104  -0.1898144   0.4599370 SPIN=   0.00000
   O   0.1883291   0.1932571  -0.5966973 SPIN=   0.00000
   O  -0.0559309   0.0518797  -0.4548560 SPIN=   0.00000
   O  -0.0559391   0.3259132  -0.3921759 SPIN=   0.00000
   O   0.4666994   0.1882075  -0.3960187 SPIN=   0.00000
   S   0.1357896   0.1898144  -0.4599370 SPIN=   0.00000
   O   0.6593631   0.3379606  -0.2069917 SPIN=   0.00000
   O   0.5738611   0.2760921  -0.0014142 SPIN=   0.00000
   O   0.1351753   0.2240421  -0.1639070 SPIN=   0.00000
   O   0.2642925   0.4828627  -0.0520039 SPIN=   0.00000
   S   0.4081730   0.3302394  -0.1060792 SPIN=   0.00000
   O   0.1593631  -0.3379606   0.2069917 SPIN=   0.00000
   O   0.0738611  -0.2760921   0.0014142 SPIN=   0.00000
   O  -0.3648247  -0.2240421   0.1639070 SPIN=   0.00000
   O  -0.2357075  -0.4828627   0.0520039 SPIN=   0.00000
   S  -0.0918270  -0.3302394   0.1060792 SPIN=   0.00000
   F   0.3456139  -0.4163973  -0.3235350 SPIN=   0.00000
   F  -0.1543861   0.4163973   0.3235350 SPIN=   0.00000
   F  -0.1631256  -0.0364942  -0.1655941 SPIN=   0.00000
   F   0.3368744   0.0364942   0.1655941 SPIN=   0.00000
%ENDBLOCK POSITIONS_FRAC

# Note: total spin =  16.00

KPOINTS_MP_SPACING 0.07

%BLOCK SPECIES_POT
QC5
%ENDBLOCK SPECIES_POT

SNAP_TO_SYMMETRY
SYMMETRY_GENERATE

