#              Generated by Buildcell
#
# at 12:03:19 (GMT+1.0) 18th August 2020
# in /lustre/scratch/uccabz1/launch_tmp
# on node-c12e-007
# by uccabz1
#
# compiler GCC version 4.9.2
# options -cpp -iprefix /lustre/shared/ucl/apps/gcc/4.9.2/bin/../lib/gcc/x86_64-unknown-linux-gnu/4.9.2/ -mtune=corei7 -march=x86-64 -g -Og
#
# seed -1724401954 -1440266699 -1654929934  -438857366  1511424151 -1910631505  1987369946  -790555916    79031068   897959989  -351816253  1393006357
#
#      Author: C. J. Pickard (cjp20@cam.ac.uk)
#                Space group: P-1
#

%BLOCK LATTICE_ABC
      4.98925      5.92138     14.23003
     82.39019     87.70839     73.72563
%ENDBLOCK LATTICE_ABC

%BLOCK POSITIONS_FRAC
  Li  -0.2364537   0.0139361  -0.1059372 SPIN=   0.00000
  Li   0.2364537  -0.0139361   0.1059372 SPIN=   0.00000
  Li  -0.4061634   0.5479995  -0.3039894 SPIN=   0.00000
  Li   0.4061634  -0.5479995   0.3039894 SPIN=   0.00000
  Fe  -0.0042268   0.2039462   0.2750657 SPIN=   4.05691
  Fe   0.0042268  -0.2039462  -0.2750657 SPIN=   4.05691
  Fe  -0.1837911   0.2809974  -0.4685318 SPIN=   3.94309
  Fe   0.1837911  -0.2809974   0.4685318 SPIN=   3.94309
   O  -0.3528723   0.1849644   0.1896648 SPIN=   0.00000
   O  -0.1518465   0.3415456   0.0418662 SPIN=   0.00000
   O  -0.6359678   0.3092744   0.0432354 SPIN=   0.00000
   O  -0.2378411  -0.0533796   0.0557236 SPIN=   0.00000
   S  -0.3446319   0.1956012   0.0826225 SPIN=   0.00000
   O   0.3528723  -0.1849644  -0.1896648 SPIN=   0.00000
   O   0.1518465  -0.3415456  -0.0418662 SPIN=   0.00000
   O   0.6359678  -0.3092744  -0.0432354 SPIN=   0.00000
   O   0.2378411   0.0533796  -0.0557236 SPIN=   0.00000
   S   0.3446319  -0.1956012  -0.0826225 SPIN=   0.00000
   O   0.0486523   0.1566340  -0.2962082 SPIN=   0.00000
   O   0.2574000   0.4895107  -0.3392649 SPIN=   0.00000
   O   0.4540552   0.1107474  -0.4052432 SPIN=   0.00000
   O   0.5149409   0.1319208  -0.2351788 SPIN=   0.00000
   S   0.3187621   0.2222032  -0.3189738 SPIN=   0.00000
   O  -0.0486523  -0.1566340   0.2962082 SPIN=   0.00000
   O  -0.2574000  -0.4895107   0.3392649 SPIN=   0.00000
   O  -0.4540552  -0.1107474   0.4052432 SPIN=   0.00000
   O  -0.5149409  -0.1319208   0.2351788 SPIN=   0.00000
   S  -0.3187621  -0.2222032   0.3189738 SPIN=   0.00000
   F   0.1824634  -0.3097164   0.1483628 SPIN=   0.00000
   F  -0.1824634   0.3097164  -0.1483628 SPIN=   0.00000
   F   0.3170462  -0.6819727   0.4179177 SPIN=   0.00000
   F  -0.3170462   0.6819727  -0.4179177 SPIN=   0.00000
%ENDBLOCK POSITIONS_FRAC

# Note: total spin =  16.00

KPOINTS_MP_SPACING 0.07

%BLOCK SPECIES_POT
QC5
%ENDBLOCK SPECIES_POT

SNAP_TO_SYMMETRY
SYMMETRY_GENERATE

