#              Generated by Buildcell
#
# at 09:23:42 (GMT+1.0) 4th August 2020
# in /lustre/scratch/uccabz1/launch_tmp
# on node-c12c-020
# by uccabz1
#
# compiler GCC version 4.9.2
# options -cpp -iprefix /lustre/shared/ucl/apps/gcc/4.9.2/bin/../lib/gcc/x86_64-unknown-linux-gnu/4.9.2/ -mtune=corei7 -march=x86-64 -g -Og
#
# seed   571592884  -603906331  -125646548  1585010457   107307028  1800682483   211036380   939976627   648468837    23151495  1298543983   374356215
#
#      Author: C. J. Pickard (cjp20@cam.ac.uk)
#                Space group: P-1
#

%BLOCK LATTICE_ABC
      4.31194      9.75819     10.17386
    110.03737     95.52537     90.18991
%ENDBLOCK LATTICE_ABC

%BLOCK POSITIONS_FRAC
  Li   0.0960938   0.0770675   0.3580739 SPIN=   0.00000
  Li  -0.0960938  -0.0770675  -0.3580739 SPIN=   0.00000
  Li   0.1706141   0.4784779  -0.3286790 SPIN=   0.00000
  Li  -0.1706141  -0.4784779   0.3286790 SPIN=   0.00000
  Fe   0.4385270   0.1472695  -0.2132407 SPIN=   3.38832
  Fe  -0.4385270  -0.1472695   0.2132407 SPIN=   3.38832
  Fe   0.3785275  -0.3090698  -0.4664454 SPIN=   4.61168
  Fe  -0.3785275   0.3090698   0.4664454 SPIN=   4.61168
   O   0.4107539  -0.3813198   0.3102441 SPIN=   0.00000
   O   0.5646110  -0.5473987   0.0835844 SPIN=   0.00000
   O   0.0947735  -0.4016223   0.0875497 SPIN=   0.00000
   O   0.0940280  -0.6070702   0.1778223 SPIN=   0.00000
   S   0.2910416  -0.4843528   0.1648001 SPIN=   0.00000
   O  -0.4107539   0.3813198  -0.3102441 SPIN=   0.00000
   O  -0.5646110   0.5473987  -0.0835844 SPIN=   0.00000
   O  -0.0947735   0.4016223  -0.0875497 SPIN=   0.00000
   O  -0.0940280   0.6070702  -0.1778223 SPIN=   0.00000
   S  -0.2910416   0.4843528  -0.1648001 SPIN=   0.00000
   O  -0.1168839  -0.1296117  -0.1093857 SPIN=   0.00000
   O   0.3451566  -0.2155312  -0.0003727 SPIN=   0.00000
   O   0.4099485  -0.0299755  -0.1123217 SPIN=   0.00000
   O   0.2563981  -0.2852379  -0.2593029 SPIN=   0.00000
   S   0.2236548  -0.1650891  -0.1203458 SPIN=   0.00000
   O   0.1168839   0.1296117   0.1093857 SPIN=   0.00000
   O  -0.3451566   0.2155312   0.0003727 SPIN=   0.00000
   O  -0.4099485   0.0299755   0.1123217 SPIN=   0.00000
   O  -0.2563981   0.2852379   0.2593029 SPIN=   0.00000
   S  -0.2236548   0.1650891   0.1203458 SPIN=   0.00000
   F   0.1661418   0.3028861   0.4711103 SPIN=   0.00000
   F  -0.1661418  -0.3028861  -0.4711103 SPIN=   0.00000
   F  -0.0182042   0.1227890  -0.2469958 SPIN=   0.00000
   F   0.0182042  -0.1227890   0.2469958 SPIN=   0.00000
%ENDBLOCK POSITIONS_FRAC

# Note: total spin =  16.00

KPOINTS_MP_SPACING 0.07

%BLOCK SPECIES_POT
QC5
%ENDBLOCK SPECIES_POT

SNAP_TO_SYMMETRY
SYMMETRY_GENERATE

