#              Generated by Buildcell
#
# at 06:09:21 (GMT+1.0) 4th August 2020
# in /lustre/scratch/uccabz1/launch_tmp
# on node-c12n-013
# by uccabz1
#
# compiler GCC version 4.9.2
# options -cpp -iprefix /lustre/shared/ucl/apps/gcc/4.9.2/bin/../lib/gcc/x86_64-unknown-linux-gnu/4.9.2/ -mtune=corei7 -march=x86-64 -g -Og
#
# seed   823079887  -756879295    54423552 -1992172653 -2010460402 -1604382345    17436911   559443764  -676050077  -503301128  -897812615  1314973191
#
#      Author: C. J. Pickard (cjp20@cam.ac.uk)
#                Space group: P-1
#

%BLOCK LATTICE_ABC
      4.84611      7.63791     11.41294
     83.69642     77.94216     75.96035
%ENDBLOCK LATTICE_ABC

%BLOCK POSITIONS_FRAC
  Li  -0.1082356   0.4891260  -0.1432202 SPIN=   0.00000
  Li   0.1082356  -0.4891260   0.1432202 SPIN=   0.00000
  Li   0.0000000   0.0000000   0.0000000 SPIN=   0.00000
  Li  -0.5000000  -0.0000000  -0.5000000 SPIN=   0.00000
  Fe   0.0958223   0.1290545  -0.2660533 SPIN=   0.43868
  Fe  -0.0958223  -0.1290545   0.2660533 SPIN=   0.43868
  Fe  -0.0148506   0.2670980   0.4162691 SPIN=   7.56132
  Fe   0.0148506  -0.2670980  -0.4162691 SPIN=   7.56132
   O   0.6455501  -0.4097034   0.1273722 SPIN=   0.00000
   O   0.6450031  -0.6415002   0.2968777 SPIN=   0.00000
   O   0.2052768  -0.4000265   0.2844137 SPIN=   0.00000
   O   0.6382533  -0.3261843   0.3316528 SPIN=   0.00000
   S   0.5335208  -0.4443536   0.2600791 SPIN=   0.00000
   O  -0.6455501   0.4097034  -0.1273722 SPIN=   0.00000
   O  -0.6450031   0.6415002  -0.2968777 SPIN=   0.00000
   O  -0.2052768   0.4000265  -0.2844137 SPIN=   0.00000
   O  -0.6382533   0.3261843  -0.3316528 SPIN=   0.00000
   S  -0.5335208   0.4443536  -0.2600791 SPIN=   0.00000
   O   0.6192419  -0.1487596  -0.2728721 SPIN=   0.00000
   O   0.5727476  -0.3118542  -0.0725520 SPIN=   0.00000
   O   0.4154543   0.0217942  -0.0903244 SPIN=   0.00000
   O   0.9372804  -0.1254129  -0.1342338 SPIN=   0.00000
   S   0.6361811  -0.1410581  -0.1424956 SPIN=   0.00000
   O  -0.6192419   0.1487596   0.2728721 SPIN=   0.00000
   O  -0.5727476   0.3118542   0.0725520 SPIN=   0.00000
   O  -0.4154543  -0.0217942   0.0903244 SPIN=   0.00000
   O  -0.9372804   0.1254129   0.1342338 SPIN=   0.00000
   S  -0.6361811   0.1410581   0.1424956 SPIN=   0.00000
   F  -0.0688984   0.2514446  -0.0695299 SPIN=   0.00000
   F   0.0688984  -0.2514446   0.0695299 SPIN=   0.00000
   F  -0.0000000  -0.0000000   0.5000000 SPIN=   0.00000
   F  -1.0000000   0.5000000  -0.5000000 SPIN=   0.00000
%ENDBLOCK POSITIONS_FRAC

# Note: total spin =  16.00

KPOINTS_MP_SPACING 0.07

%BLOCK SPECIES_POT
QC5
%ENDBLOCK SPECIES_POT

SNAP_TO_SYMMETRY
SYMMETRY_GENERATE

