#              Generated by Buildcell
#
# at 13:43:49 (GMT+1.0) 18th August 2020
# in /lustre/scratch/uccabz1/launch_tmp
# on node-c12d-017
# by uccabz1
#
# compiler GCC version 4.9.2
# options -cpp -iprefix /lustre/shared/ucl/apps/gcc/4.9.2/bin/../lib/gcc/x86_64-unknown-linux-gnu/4.9.2/ -mtune=corei7 -march=x86-64 -g -Og
#
# seed  1643959613    83255127 -2051038713  -947111094  -989919028  -976411662  2035625478 -2143513235  1774377863 -1487266859  1008959976 -2046952797
#
#      Author: C. J. Pickard (cjp20@cam.ac.uk)
#                Space group: P42
#

%BLOCK LATTICE_ABC
      6.51069      7.83820      7.83820
     90.00000     90.00000     90.00000
%ENDBLOCK LATTICE_ABC

%BLOCK POSITIONS_FRAC
  Li  -0.2572489   0.1137590  -0.2616748 SPIN=   0.00000
  Li  -0.2572489  -0.1137590   0.2616748 SPIN=   0.00000
  Li   0.2427511  -0.2616748  -0.1137590 SPIN=   0.00000
  Li   0.2427511   0.2616748   0.1137590 SPIN=   0.00000
  Fe   0.0683859   0.4342620  -0.2748456 SPIN=   4.00000
  Fe   0.0683859  -0.4342620   0.2748456 SPIN=   4.00000
  Fe  -0.4316141  -0.2748456  -0.4342620 SPIN=   4.00000
  Fe  -0.4316141   0.2748456   0.4342620 SPIN=   4.00000
   O  -0.0024035   0.2853557  -0.0628644 SPIN=   0.00000
   O  -0.1655727   0.3807624   0.2058790 SPIN=   0.00000
   O  -0.1732831   0.0754749   0.1255458 SPIN=   0.00000
   O  -0.3811344   0.2848481  -0.0358550 SPIN=   0.00000
   S  -0.1805984   0.2566103   0.0581764 SPIN=   0.00000
   O  -0.0024035  -0.2853557   0.0628644 SPIN=   0.00000
   O  -0.1655727  -0.3807624  -0.2058790 SPIN=   0.00000
   O  -0.1732831  -0.0754749  -0.1255458 SPIN=   0.00000
   O  -0.3811344  -0.2848481   0.0358550 SPIN=   0.00000
   S  -0.1805984  -0.2566103  -0.0581764 SPIN=   0.00000
   O   0.4975965  -0.0628644  -0.2853557 SPIN=   0.00000
   O   0.3344273   0.2058790  -0.3807624 SPIN=   0.00000
   O   0.3267169   0.1255458  -0.0754749 SPIN=   0.00000
   O   0.1188656  -0.0358550  -0.2848481 SPIN=   0.00000
   S   0.3194016   0.0581764  -0.2566103 SPIN=   0.00000
   O   0.4975965   0.0628644   0.2853557 SPIN=   0.00000
   O   0.3344273  -0.2058790   0.3807624 SPIN=   0.00000
   O   0.3267169  -0.1255458   0.0754749 SPIN=   0.00000
   O   0.1188656   0.0358550   0.2848481 SPIN=   0.00000
   S   0.3194016  -0.0581764   0.2566103 SPIN=   0.00000
   F  -0.1362320   0.2500113  -0.4308134 SPIN=   0.00000
   F  -0.1362320  -0.2500113   0.4308134 SPIN=   0.00000
   F   0.3637680  -0.4308134  -0.2500113 SPIN=   0.00000
   F   0.3637680   0.4308134   0.2500113 SPIN=   0.00000
%ENDBLOCK POSITIONS_FRAC

# Note: total spin =  16.00

KPOINTS_MP_SPACING 0.07

%BLOCK SPECIES_POT
QC5
%ENDBLOCK SPECIES_POT

SNAP_TO_SYMMETRY
SYMMETRY_GENERATE

