#              Generated by Buildcell
#
# at 07:23:02 (GMT+1.0) 18th August 2020
# in /lustre/scratch/uccabz1/launch_tmp
# on node-c12j-016
# by uccabz1
#
# compiler GCC version 4.9.2
# options -cpp -iprefix /lustre/shared/ucl/apps/gcc/4.9.2/bin/../lib/gcc/x86_64-unknown-linux-gnu/4.9.2/ -mtune=corei7 -march=x86-64 -g -Og
#
# seed   460745680 -1728347888   711271923  -692502634   537818940  -376625726  -540560794  1427473951 -1703512174  1615838097  1865730662  1302719493
#
#      Author: C. J. Pickard (cjp20@cam.ac.uk)
#                Space group: C2
#

%BLOCK LATTICE_ABC
      4.36201      9.50053     10.04326
     98.84868     90.00000    103.27157
%ENDBLOCK LATTICE_ABC

%BLOCK POSITIONS_FRAC
  Li   0.2827520  -0.3740136  -0.3789175 SPIN=   0.00000
  Li  -0.3432344   0.3740136   0.3789175 SPIN=   0.00000
  Li  -0.4940069  -0.0757110   0.3183272 SPIN=   0.00000
  Li  -0.4182959   0.0757110  -0.3183272 SPIN=   0.00000
  Fe   0.0582030   0.0883140   0.1744174 SPIN=   3.29283
  Fe  -0.0301110  -0.0883140  -0.1744174 SPIN=   3.29283
  Fe   0.1107591  -0.3933932   0.2542088 SPIN=   4.70717
  Fe  -0.4958477   0.3933932  -0.2542088 SPIN=   4.70717
   O  -0.5811663  -0.2210389   0.4889624 SPIN=   0.00000
   O  -0.1762663  -0.3671058   0.4688016 SPIN=   0.00000
   O  -0.0757460  -0.1285588   0.6202392 SPIN=   0.00000
   O  -0.0880883  -0.1368946   0.3727470 SPIN=   0.00000
   S  -0.2303167  -0.2133995   0.4876875 SPIN=   0.00000
   O  -0.3601274   0.2210389  -0.4889624 SPIN=   0.00000
   O   0.1908395   0.3671058  -0.4688016 SPIN=   0.00000
   O   0.0528128   0.1285588  -0.6202392 SPIN=   0.00000
   O   0.0488063   0.1368946  -0.3727470 SPIN=   0.00000
   S  -0.0169172   0.2133995  -0.4876875 SPIN=   0.00000
   O  -0.0967389  -0.3793564   0.0579364 SPIN=   0.00000
   O  -0.4919525  -0.2675872   0.1838041 SPIN=   0.00000
   O  -0.5845455  -0.3647954  -0.0595754 SPIN=   0.00000
   O  -0.1723032  -0.1394238   0.0158345 SPIN=   0.00000
   S  -0.3363850  -0.2877907   0.0494999 SPIN=   0.00000
   O   0.2826175   0.3793564  -0.0579364 SPIN=   0.00000
   O  -0.2243653   0.2675872  -0.1838041 SPIN=   0.00000
   O  -0.2197500   0.3647954   0.0595754 SPIN=   0.00000
   O  -0.0328794   0.1394238  -0.0158345 SPIN=   0.00000
   S  -0.0485943   0.2877907  -0.0494999 SPIN=   0.00000
   F   0.3631012   0.4479179   0.2745378 SPIN=   0.00000
   F  -0.0848167  -0.4479179  -0.2745378 SPIN=   0.00000
   F  -0.4778911   0.0671657   0.1963740 SPIN=   0.00000
   F   0.4549431  -0.0671657  -0.1963740 SPIN=   0.00000
%ENDBLOCK POSITIONS_FRAC

# Note: total spin =  16.00

KPOINTS_MP_SPACING 0.07

%BLOCK SPECIES_POT
QC5
%ENDBLOCK SPECIES_POT

SNAP_TO_SYMMETRY
SYMMETRY_GENERATE

