#              Generated by Buildcell
#
# at 08:59:17 (GMT+1.0) 4th August 2020
# in /lustre/scratch/uccabz1/launch_tmp
# on node-c12f-018
# by uccabz1
#
# compiler GCC version 4.9.2
# options -cpp -iprefix /lustre/shared/ucl/apps/gcc/4.9.2/bin/../lib/gcc/x86_64-unknown-linux-gnu/4.9.2/ -mtune=corei7 -march=x86-64 -g -Og
#
# seed  -529508708  1143654243  1314282631  2115878498   -96918348  2108513865  -741196931 -2026319686  1125224512  -309886199 -1074182714 -1842255396
#
#      Author: C. J. Pickard (cjp20@cam.ac.uk)
#                Space group: Fdd2
#

%BLOCK LATTICE_ABC
      7.56012      7.56012      8.58725
    109.96648    109.96648    102.96020
%ENDBLOCK LATTICE_ABC

%BLOCK POSITIONS_FRAC
  Li  -0.4536852   0.2503146   0.1060441 SPIN=   0.00000
  Li   0.1442705   0.4402707  -0.1060441 SPIN=   0.00000
  Li  -0.3097293  -0.1057295   0.3939559 SPIN=   0.00000
  Li  -0.4996854   0.2963148  -0.3939559 SPIN=   0.00000
  Fe  -0.1820455  -0.4954767   0.0023751 SPIN=   4.00000
  Fe  -0.4978518  -0.1844206  -0.0023751 SPIN=   4.00000
  Fe   0.0655794   0.2521482   0.4976249 SPIN=   4.00000
  Fe  -0.2454767  -0.4320455  -0.4976249 SPIN=   4.00000
   O  -0.0112256   0.1801532  -0.0222476 SPIN=   0.00000
   O  -0.1730159  -0.0880706  -0.3485202 SPIN=   0.00000
   O  -0.3484945   0.1338449  -0.2469227 SPIN=   0.00000
   O  -0.3159454  -0.1252027  -0.1363178 SPIN=   0.00000
   S  -0.2121703   0.0251812  -0.1885021 SPIN=   0.00000
   O   0.2024009   0.0110221   0.0222476 SPIN=   0.00000
   O   0.2604496   0.1755043   0.3485202 SPIN=   0.00000
   O   0.3807676  -0.1015718   0.2469227 SPIN=   0.00000
   O   0.0111151  -0.1796276   0.1363178 SPIN=   0.00000
   S   0.2136833  -0.0236682   0.1885021 SPIN=   0.00000
   O   0.2610221  -0.0475991  -0.4777524 SPIN=   0.00000
   O   0.4255043   0.0104496  -0.1514798 SPIN=   0.00000
   O   0.1484282   0.1307676  -0.2530773 SPIN=   0.00000
   O   0.0703724  -0.2388849  -0.3636822 SPIN=   0.00000
   S   0.2263318  -0.0363167  -0.3114979 SPIN=   0.00000
   O   0.4301532  -0.2612256   0.4777524 SPIN=   0.00000
   O   0.1619294  -0.4230159   0.1514798 SPIN=   0.00000
   O   0.3838449  -0.5984945   0.2530773 SPIN=   0.00000
   O   0.1247973  -0.5659454   0.3636822 SPIN=   0.00000
   S   0.2751812  -0.4621703   0.3114979 SPIN=   0.00000
   F   0.3036711  -0.4806894  -0.2104005 SPIN=   0.00000
   F  -0.2702889  -0.4859284   0.2104005 SPIN=   0.00000
   F  -0.2359284   0.4797111  -0.2895995 SPIN=   0.00000
   F  -0.2306894   0.0536711   0.2895995 SPIN=   0.00000
%ENDBLOCK POSITIONS_FRAC

# Note: total spin =  16.00

KPOINTS_MP_SPACING 0.07

%BLOCK SPECIES_POT
QC5
%ENDBLOCK SPECIES_POT

SNAP_TO_SYMMETRY
SYMMETRY_GENERATE

