#              Generated by Buildcell
#
# at 06:09:55 (GMT+1.0) 18th August 2020
# in /lustre/scratch/uccabz1/launch_tmp
# on node-c12m-026
# by uccabz1
#
# compiler GCC version 4.9.2
# options -cpp -iprefix /lustre/shared/ucl/apps/gcc/4.9.2/bin/../lib/gcc/x86_64-unknown-linux-gnu/4.9.2/ -mtune=corei7 -march=x86-64 -g -Og
#
# seed  -613399019 -1633589723   320492073 -1258668720   537991128   175653146 -1923233000  1828223258  1583276110  2120449905 -1135704500 -1422117993
#
#      Author: C. J. Pickard (cjp20@cam.ac.uk)
#                Space group: P-1
#

%BLOCK LATTICE_ABC
      5.99706      6.43678     12.12767
     74.64820     84.28364     62.41972
%ENDBLOCK LATTICE_ABC

%BLOCK POSITIONS_FRAC
  Li   0.0577252   0.0518758  -0.2132828 SPIN=   0.00000
  Li  -0.0577252  -0.0518758   0.2132828 SPIN=   0.00000
  Li   0.5000000   0.5000000  -0.5000000 SPIN=   0.00000
  Li  -0.5000000   0.0000000  -0.0000000 SPIN=   0.00000
  Fe  -0.3970743   0.0143768  -0.2509578 SPIN=   5.81466
  Fe   0.3970743  -0.0143768   0.2509578 SPIN=   5.81466
  Fe   0.0000000  -0.5000000   0.5000000 SPIN=   2.45834
  Fe  -0.5000000   0.5000000   0.0000000 SPIN=   1.91234
   O  -0.0563920   0.7403966  -0.1780456 SPIN=   0.00000
   O  -0.0344887   0.3331415  -0.1330992 SPIN=   0.00000
   O   0.3463117   0.3767256  -0.1106923 SPIN=   0.00000
   O   0.1739274   0.4655465  -0.3041347 SPIN=   0.00000
   S   0.1073396   0.4789525  -0.1814930 SPIN=   0.00000
   O   0.0563920  -0.7403966   0.1780456 SPIN=   0.00000
   O   0.0344887  -0.3331415   0.1330992 SPIN=   0.00000
   O  -0.3463117  -0.3767256   0.1106923 SPIN=   0.00000
   O  -0.1739274  -0.4655465   0.3041347 SPIN=   0.00000
   S  -0.1073396  -0.4789525   0.1814930 SPIN=   0.00000
   O   0.5594210   0.8245853  -0.4332115 SPIN=   0.00000
   O   0.2599307   0.7674724  -0.2873323 SPIN=   0.00000
   O   0.1756474   0.8245054  -0.4916288 SPIN=   0.00000
   S   0.2841402   0.8959240  -0.4087487 SPIN=   0.00000
   O  -0.5594210  -0.8245853   0.4332115 SPIN=   0.00000
   O  -0.2599307  -0.7674724   0.2873323 SPIN=   0.00000
   O  -0.1756474  -0.8245054   0.4916288 SPIN=   0.00000
   S  -0.2841402  -0.8959240   0.4087487 SPIN=   0.00000
   O   0.0000000  -0.0000000  -0.0000000 SPIN=   0.00000
   O  -0.0000000   0.5000000  -0.0000000 SPIN=   0.00000
   F   0.4551576  -0.1640899  -0.1113210 SPIN=   0.00000
   F  -0.4551576   0.1640899   0.1113210 SPIN=   0.00000
   F   0.2772905  -0.2899180   0.2989144 SPIN=   0.00000
   F  -0.2772905   0.2899180  -0.2989144 SPIN=   0.00000
%ENDBLOCK POSITIONS_FRAC

# Note: total spin =  16.00

KPOINTS_MP_SPACING 0.07

%BLOCK SPECIES_POT
QC5
%ENDBLOCK SPECIES_POT

SNAP_TO_SYMMETRY
SYMMETRY_GENERATE

