#              Generated by Buildcell
#
# at 06:51:18 (GMT+1.0) 4th August 2020
# in /lustre/scratch/uccabz1/launch_tmp
# on node-c12c-028
# by uccabz1
#
# compiler GCC version 4.9.2
# options -cpp -iprefix /lustre/shared/ucl/apps/gcc/4.9.2/bin/../lib/gcc/x86_64-unknown-linux-gnu/4.9.2/ -mtune=corei7 -march=x86-64 -g -Og
#
# seed    49064220  1230924395  1629190543 -1912416599  2106867763  2109679398  1883601967  -615834416  -248404400     7151876  2060468005   510051801
#
#      Author: C. J. Pickard (cjp20@cam.ac.uk)
#                Space group: Cc
#

%BLOCK LATTICE_ABC
      4.45107      9.71978      9.71978
     87.58840     77.24382     77.24382
%ENDBLOCK LATTICE_ABC

%BLOCK POSITIONS_FRAC
  Li  -0.4001106  -0.1381449   0.3601395 SPIN=   0.00000
  Li   0.0998894   0.3601395  -0.1381449 SPIN=   0.00000
  Li  -0.2389426   0.0514008  -0.1671957 SPIN=   0.00000
  Li   0.2610574  -0.1671957   0.0514008 SPIN=   0.00000
  Fe   0.4089818  -0.1019918  -0.3223071 SPIN=   3.49501
  Fe   0.9089818  -0.3223071  -0.1019918 SPIN=   3.49501
  Fe  -0.3502564   0.4517854  -0.3306037 SPIN=   4.50499
  Fe   0.1497436  -0.3306037   0.4517854 SPIN=   4.50499
   O  -0.4532921  -0.3745924   0.2801279 SPIN=   0.00000
   O  -0.0350781  -0.5041270   0.3971968 SPIN=   0.00000
   O   0.0823343  -0.4705955   0.1385620 SPIN=   0.00000
   O  -0.2618704  -0.6324893   0.2452942 SPIN=   0.00000
   S  -0.1669766  -0.4954510   0.2652952 SPIN=   0.00000
   O   0.0467079   0.2801279  -0.3745924 SPIN=   0.00000
   O   0.4649219   0.3971968  -0.5041270 SPIN=   0.00000
   O   0.5823343   0.1385620  -0.4705955 SPIN=   0.00000
   O   0.2381296   0.2452942  -0.6324893 SPIN=   0.00000
   S   0.3330234   0.2652952  -0.4954510 SPIN=   0.00000
   O  -0.2777714   0.0694171   0.2928227 SPIN=   0.00000
   O   0.1387381   0.0232755   0.4310408 SPIN=   0.00000
   O   0.2739680   0.0725402   0.1755625 SPIN=   0.00000
   O   0.1277627  -0.1532729   0.2570444 SPIN=   0.00000
   S   0.0656743   0.0029899   0.2891176 SPIN=   0.00000
   O  -0.7777714   0.2928227   0.0694171 SPIN=   0.00000
   O  -0.3612619   0.4310408   0.0232755 SPIN=   0.00000
   O  -0.2260320   0.1755625   0.0725402 SPIN=   0.00000
   O  -0.3722373   0.2570444  -0.1532729 SPIN=   0.00000
   S  -0.4343257   0.2891176   0.0029899 SPIN=   0.00000
   F   0.7058322  -0.2314048  -0.4690722 SPIN=   0.00000
   F   0.2058322  -0.4690722  -0.2314048 SPIN=   0.00000
   F  -0.2410057  -0.1825244   0.0549862 SPIN=   0.00000
   F   0.2589943   0.0549862  -0.1825244 SPIN=   0.00000
%ENDBLOCK POSITIONS_FRAC

# Note: total spin =  16.00

KPOINTS_MP_SPACING 0.07

%BLOCK SPECIES_POT
QC5
%ENDBLOCK SPECIES_POT

SNAP_TO_SYMMETRY
SYMMETRY_GENERATE

