#              Generated by Buildcell
#
# at 06:22:26 (GMT+1.0) 4th August 2020
# in /lustre/scratch/uccabz1/launch_tmp
# on node-c12p-014
# by uccabz1
#
# compiler GCC version 4.9.2
# options -cpp -iprefix /lustre/shared/ucl/apps/gcc/4.9.2/bin/../lib/gcc/x86_64-unknown-linux-gnu/4.9.2/ -mtune=corei7 -march=x86-64 -g -Og
#
# seed  1333051400 -1593085675  1901126979  -659242627  -952950529 -1402406624   516229318  1050910203 -1497936880  -824215847   267421105   751767269
#
#      Author: C. J. Pickard (cjp20@cam.ac.uk)
#                Space group: Cc
#

%BLOCK LATTICE_ABC
      6.73745      7.91129      8.87415
     81.14392     67.69043     66.07408
%ENDBLOCK LATTICE_ABC

%BLOCK POSITIONS_FRAC
  Li   0.0716835  -0.3166194  -0.3844519 SPIN=   0.00000
  Li   0.1872315   0.1833806   0.3844519 SPIN=   0.00000
  Li  -0.4775622   0.3579466  -0.1922974 SPIN=   0.00000
  Li  -0.1698596  -0.1420534   0.1922974 SPIN=   0.00000
  Fe  -0.0285717   0.3558243  -0.2204330 SPIN=   4.19729
  Fe   0.2509953  -0.1441757   0.2204330 SPIN=   4.19729
  Fe  -0.3277120  -0.4055674   0.4270318 SPIN=   3.80271
  Fe  -0.4006802   0.0944326  -0.4270318 SPIN=   3.80271
   O  -0.0039869   0.1116658   0.2362829 SPIN=   0.00000
   O  -0.3432756   0.1415996   0.1716540 SPIN=   0.00000
   O  -0.1158744   0.3343109   0.0262110 SPIN=   0.00000
   O  -0.3619800   0.3937183   0.3170820 SPIN=   0.00000
   S  -0.2062792   0.2453237   0.1878075 SPIN=   0.00000
   O   0.7322960  -0.3883342  -0.2362829 SPIN=   0.00000
   O   0.3283784  -0.3584004  -0.1716540 SPIN=   0.00000
   O   0.4103366  -0.1656891  -0.0262110 SPIN=   0.00000
   O   0.4551020  -0.1062817  -0.3170820 SPIN=   0.00000
   S   0.4815282  -0.2546763  -0.1878075 SPIN=   0.00000
   O  -0.0214688   0.0044081  -0.0480282 SPIN=   0.00000
   O  -0.4058309   0.0792306  -0.0661019 SPIN=   0.00000
   O  -0.1058434  -0.2367223  -0.1305779 SPIN=   0.00000
   O  -0.0594454   0.0223656  -0.3172811 SPIN=   0.00000
   S  -0.1481471  -0.0326795  -0.1404973 SPIN=   0.00000
   O   0.4305030   0.5044081   0.0480282 SPIN=   0.00000
   O   0.0280672   0.5792306   0.0661019 SPIN=   0.00000
   O   0.2635786   0.2632777   0.1305779 SPIN=   0.00000
   O   0.1232735   0.5223656   0.3172811 SPIN=   0.00000
   S   0.2113556   0.4673205   0.1404973 SPIN=   0.00000
   F  -0.1129306   0.3359701  -0.4517090 SPIN=   0.00000
   F  -0.0646396  -0.1640299   0.4517090 SPIN=   0.00000
   F   0.3198133   0.2539677  -0.2417692 SPIN=   0.00000
   F  -0.4219559  -0.2460323   0.2417692 SPIN=   0.00000
%ENDBLOCK POSITIONS_FRAC

# Note: total spin =  16.00

KPOINTS_MP_SPACING 0.07

%BLOCK SPECIES_POT
QC5
%ENDBLOCK SPECIES_POT

SNAP_TO_SYMMETRY
SYMMETRY_GENERATE

