#              Generated by Buildcell
#
# at 07:29:34 (GMT+1.0) 4th August 2020
# in /lustre/scratch/uccabz1/launch_tmp
# on node-c12m-023
# by uccabz1
#
# compiler GCC version 4.9.2
# options -cpp -iprefix /lustre/shared/ucl/apps/gcc/4.9.2/bin/../lib/gcc/x86_64-unknown-linux-gnu/4.9.2/ -mtune=corei7 -march=x86-64 -g -Og
#
# seed -1223410975  1959459285  -867905738   524579720  2145937844    76776697 -1466402914   333776042  1645704478  -920331381   399467507  -648383975
#
#      Author: C. J. Pickard (cjp20@cam.ac.uk)
#                Space group: Pca21
#

%BLOCK LATTICE_ABC
      5.98271      6.97247      9.58904
     90.00000     90.00000     90.00000
%ENDBLOCK LATTICE_ABC

%BLOCK POSITIONS_FRAC
  Li  -0.3828272  -0.3282571   0.1477893 SPIN=   0.00000
  Li   0.1171728   0.3282571  -0.1477893 SPIN=   0.00000
  Li  -0.3828272   0.3282571  -0.3522107 SPIN=   0.00000
  Li   0.1171728  -0.3282571   0.3522107 SPIN=   0.00000
  Fe   0.4818552   0.0260152  -0.1037679 SPIN=   4.00000
  Fe  -0.0181448  -0.0260152   0.1037679 SPIN=   4.00000
  Fe   0.4818552  -0.0260152   0.3962321 SPIN=   4.00000
  Fe  -0.0181448   0.0260152  -0.3962321 SPIN=   4.00000
   O   0.3657713   0.3071176   0.0138603 SPIN=   0.00000
   O   0.2784986   0.6036427   0.1448528 SPIN=   0.00000
   O   0.2140861   0.2864594   0.2535069 SPIN=   0.00000
   O  -0.0279314   0.3957978   0.0598796 SPIN=   0.00000
   S   0.2076062   0.3982544   0.1180249 SPIN=   0.00000
   O  -0.1342287  -0.3071176  -0.0138603 SPIN=   0.00000
   O  -0.2215014  -0.6036427  -0.1448528 SPIN=   0.00000
   O  -0.2859139  -0.2864594  -0.2535069 SPIN=   0.00000
   O  -0.5279314  -0.3957978  -0.0598796 SPIN=   0.00000
   S  -0.2923938  -0.3982544  -0.1180249 SPIN=   0.00000
   O   0.3657713  -0.3071176  -0.4861397 SPIN=   0.00000
   O   0.2784986  -0.6036427  -0.3551472 SPIN=   0.00000
   O   0.2140861  -0.2864594  -0.2464931 SPIN=   0.00000
   O  -0.0279314  -0.3957978  -0.4401204 SPIN=   0.00000
   S   0.2076062  -0.3982544  -0.3819751 SPIN=   0.00000
   O  -0.1342287   0.3071176   0.4861397 SPIN=   0.00000
   O  -0.2215014   0.6036427   0.3551472 SPIN=   0.00000
   O  -0.2859139   0.2864594   0.2464931 SPIN=   0.00000
   O  -0.5279314   0.3957978   0.4401204 SPIN=   0.00000
   S  -0.2923938   0.3982544   0.3819751 SPIN=   0.00000
   F  -0.4550017  -0.0461835   0.1399731 SPIN=   0.00000
   F   0.0449983   0.0461835  -0.1399731 SPIN=   0.00000
   F  -0.4550017   0.0461835  -0.3600269 SPIN=   0.00000
   F   0.0449983  -0.0461835   0.3600269 SPIN=   0.00000
%ENDBLOCK POSITIONS_FRAC

# Note: total spin =  16.00

KPOINTS_MP_SPACING 0.07

%BLOCK SPECIES_POT
QC5
%ENDBLOCK SPECIES_POT

SNAP_TO_SYMMETRY
SYMMETRY_GENERATE

