#              Generated by Buildcell
#
# at 10:59:46 (GMT+1.0) 4th August 2020
# in /lustre/scratch/uccabz1/launch_tmp
# on node-c12p-016
# by uccabz1
#
# compiler GCC version 4.9.2
# options -cpp -iprefix /lustre/shared/ucl/apps/gcc/4.9.2/bin/../lib/gcc/x86_64-unknown-linux-gnu/4.9.2/ -mtune=corei7 -march=x86-64 -g -Og
#
# seed   164194902  -226019966  1256598871 -1162934619    55709960  -576966999  1310812720  1392335378 -1626143765  1681274091 -1922768332 -1676802330
#
#      Author: C. J. Pickard (cjp20@cam.ac.uk)
#                Space group: P-1
#

%BLOCK LATTICE_ABC
      5.17375      8.30946      9.77791
    100.65719    100.56900     97.63958
%ENDBLOCK LATTICE_ABC

%BLOCK POSITIONS_FRAC
  Li  -0.1567843   0.1591166  -0.4165647 SPIN=   0.00000
  Li   0.1567843  -0.1591166   0.4165647 SPIN=   0.00000
  Li  -0.2108348  -0.1540773   0.0700721 SPIN=   0.00000
  Li   0.2108348   0.1540773  -0.0700721 SPIN=   0.00000
  Fe  -0.3787822  -0.3257050   0.4287568 SPIN=   4.39647
  Fe   0.3787822   0.3257050  -0.4287568 SPIN=   4.39647
  Fe  -0.4550731   0.0397082   0.2845661 SPIN=   3.60353
  Fe   0.4550731  -0.0397082  -0.2845661 SPIN=   3.60353
   O  -0.1486599   0.5301378   0.2402103 SPIN=   0.00000
   O   0.2479615   0.4239167   0.3475169 SPIN=   0.00000
   O  -0.1470982   0.2272940   0.1974730 SPIN=   0.00000
   O  -0.1690033   0.3812764   0.4360878 SPIN=   0.00000
   S  -0.0542000   0.3906562   0.3053220 SPIN=   0.00000
   O   0.1486599  -0.5301378  -0.2402103 SPIN=   0.00000
   O  -0.2479615  -0.4239167  -0.3475169 SPIN=   0.00000
   O   0.1470982  -0.2272940  -0.1974730 SPIN=   0.00000
   O   0.1690033  -0.3812764  -0.4360878 SPIN=   0.00000
   S   0.0542000  -0.3906562  -0.3053220 SPIN=   0.00000
   O   0.5226838  -0.3618869   0.0253423 SPIN=   0.00000
   O   0.1459550  -0.5112162   0.1015246 SPIN=   0.00000
   O   0.1039583  -0.2478554   0.0224354 SPIN=   0.00000
   O   0.4021898  -0.2448147   0.2521816 SPIN=   0.00000
   S   0.2936967  -0.3414433   0.1003710 SPIN=   0.00000
   O  -0.5226838   0.3618869  -0.0253423 SPIN=   0.00000
   O  -0.1459550   0.5112162  -0.1015246 SPIN=   0.00000
   O  -0.1039583   0.2478554  -0.0224354 SPIN=   0.00000
   O  -0.4021898   0.2448147  -0.2521816 SPIN=   0.00000
   S  -0.2936967   0.3414433  -0.1003710 SPIN=   0.00000
   F   0.0866747   0.0640563  -0.3135753 SPIN=   0.00000
   F  -0.0866747  -0.0640563   0.3135753 SPIN=   0.00000
   F   0.3108260   0.1105392   0.1046836 SPIN=   0.00000
   F  -0.3108260  -0.1105392  -0.1046836 SPIN=   0.00000
%ENDBLOCK POSITIONS_FRAC

# Note: total spin =  16.00

KPOINTS_MP_SPACING 0.07

%BLOCK SPECIES_POT
QC5
%ENDBLOCK SPECIES_POT

SNAP_TO_SYMMETRY
SYMMETRY_GENERATE

