#              Generated by Buildcell
#
# at 06:33:18 (GMT+1.0) 18th August 2020
# in /lustre/scratch/uccabz1/launch_tmp
# on node-c12f-029
# by uccabz1
#
# compiler GCC version 4.9.2
# options -cpp -iprefix /lustre/shared/ucl/apps/gcc/4.9.2/bin/../lib/gcc/x86_64-unknown-linux-gnu/4.9.2/ -mtune=corei7 -march=x86-64 -g -Og
#
# seed  -986762326  1790597893   593338551  1433473075  1230640745  2040507768 -1037874712 -1910549831  -581364496  1175625382   376528700  1034686823
#
#      Author: C. J. Pickard (cjp20@cam.ac.uk)
#                Space group: P42
#

%BLOCK LATTICE_ABC
      5.83136      5.83136     11.76307
     90.00000     90.00000     90.00000
%ENDBLOCK LATTICE_ABC

%BLOCK POSITIONS_FRAC
  Li   0.2497807  -0.1724014   0.1344545 SPIN=   0.00000
  Li  -0.2497807   0.1724014   0.1344545 SPIN=   0.00000
  Li   0.1724014   0.2497807  -0.3655455 SPIN=   0.00000
  Li  -0.1724014  -0.2497807  -0.3655455 SPIN=   0.00000
  Fe  -0.2049362   0.2522944  -0.1247494 SPIN=   4.00000
  Fe   0.2049362  -0.2522944  -0.1247494 SPIN=   4.00000
  Fe  -0.2522944  -0.2049362   0.3752506 SPIN=   4.00000
  Fe   0.2522944   0.2049362   0.3752506 SPIN=   4.00000
   O  -0.2187052   0.2035494  -0.3019562 SPIN=   0.00000
   O  -0.1882732   0.4837837  -0.4592413 SPIN=   0.00000
   O  -0.5388812   0.2484022  -0.4382585 SPIN=   0.00000
   O  -0.1757345   0.0676573  -0.5001315 SPIN=   0.00000
   S  -0.2803985   0.2508481  -0.4248969 SPIN=   0.00000
   O   0.2187052  -0.2035494  -0.3019562 SPIN=   0.00000
   O   0.1882732  -0.4837837  -0.4592413 SPIN=   0.00000
   O   0.5388812  -0.2484022  -0.4382585 SPIN=   0.00000
   O   0.1757345  -0.0676573  -0.5001315 SPIN=   0.00000
   S   0.2803985  -0.2508481  -0.4248969 SPIN=   0.00000
   O  -0.2035494  -0.2187052   0.1980438 SPIN=   0.00000
   O  -0.4837837  -0.1882732   0.0407587 SPIN=   0.00000
   O  -0.2484022  -0.5388812   0.0617415 SPIN=   0.00000
   O  -0.0676573  -0.1757345  -0.0001315 SPIN=   0.00000
   S  -0.2508481  -0.2803985   0.0751031 SPIN=   0.00000
   O   0.2035494   0.2187052   0.1980438 SPIN=   0.00000
   O   0.4837837   0.1882732   0.0407587 SPIN=   0.00000
   O   0.2484022   0.5388812   0.0617415 SPIN=   0.00000
   O   0.0676573   0.1757345  -0.0001315 SPIN=   0.00000
   S   0.2508481   0.2803985   0.0751031 SPIN=   0.00000
   F   0.2708993   0.2497488  -0.2213265 SPIN=   0.00000
   F  -0.2708993  -0.2497488  -0.2213265 SPIN=   0.00000
   F  -0.2497488   0.2708993   0.2786735 SPIN=   0.00000
   F   0.2497488  -0.2708993   0.2786735 SPIN=   0.00000
%ENDBLOCK POSITIONS_FRAC

# Note: total spin =  16.00

KPOINTS_MP_SPACING 0.07

%BLOCK SPECIES_POT
QC5
%ENDBLOCK SPECIES_POT

SNAP_TO_SYMMETRY
SYMMETRY_GENERATE

