#              Generated by Buildcell
#
# at 02:52:47 (GMT+1.0) 18th August 2020
# in /lustre/scratch/uccabz1/launch_tmp
# on node-c12l-016
# by uccabz1
#
# compiler GCC version 4.9.2
# options -cpp -iprefix /lustre/shared/ucl/apps/gcc/4.9.2/bin/../lib/gcc/x86_64-unknown-linux-gnu/4.9.2/ -mtune=corei7 -march=x86-64 -g -Og
#
# seed   211529760 -1041920065  1752832166 -1003507838  1762025581   618564209   512996244  1847448034   -50437057 -2035741332  -422855152 -1782655886
#
#      Author: C. J. Pickard (cjp20@cam.ac.uk)
#                Space group: P-1
#

%BLOCK LATTICE_ABC
      3.88872      9.78221     10.69746
     99.30740     94.46402     91.66486
%ENDBLOCK LATTICE_ABC

%BLOCK POSITIONS_FRAC
  Li   0.2323262  -0.1552706  -0.2142140 SPIN=   0.00000
  Li  -0.2323262   0.1552706   0.2142140 SPIN=   0.00000
  Li   0.4742247   0.2595543  -0.3137839 SPIN=   0.00000
  Li  -0.4742247  -0.2595543   0.3137839 SPIN=   0.00000
  Fe  -0.2323059   0.0730811  -0.1442815 SPIN=   6.08403
  Fe   0.2323059  -0.0730811   0.1442815 SPIN=   6.08403
  Fe  -0.2844988   0.4576726   0.3510622 SPIN=   1.91597
  Fe   0.2844988  -0.4576726  -0.3510622 SPIN=   1.91597
   O  -0.2287735  -0.2060135  -0.0796376 SPIN=   0.00000
   O  -0.2701406  -0.4566118  -0.0684116 SPIN=   0.00000
   O  -0.7754736  -0.3413433  -0.1525561 SPIN=   0.00000
   O  -0.5831183  -0.2906014   0.0768098 SPIN=   0.00000
   S  -0.4643765  -0.3236425  -0.0559489 SPIN=   0.00000
   O   0.2287735   0.2060135   0.0796376 SPIN=   0.00000
   O   0.2701406   0.4566118   0.0684116 SPIN=   0.00000
   O   0.7754736   0.3413433   0.1525561 SPIN=   0.00000
   O   0.5831183   0.2906014  -0.0768098 SPIN=   0.00000
   S   0.4643765   0.3236425   0.0559489 SPIN=   0.00000
   O  -0.2742274  -0.2956379  -0.5075324 SPIN=   0.00000
   O  -0.2718910  -0.1688706  -0.2876094 SPIN=   0.00000
   O  -0.7852187  -0.1675356  -0.4393877 SPIN=   0.00000
   O  -0.2463183  -0.0390417  -0.4671932 SPIN=   0.00000
   S  -0.3944139  -0.1677715  -0.4254307 SPIN=   0.00000
   O   0.2742274   0.2956379   0.5075324 SPIN=   0.00000
   O   0.2718910   0.1688706   0.2876094 SPIN=   0.00000
   O   0.7852187   0.1675356   0.4393877 SPIN=   0.00000
   O   0.2463183   0.0390417   0.4671932 SPIN=   0.00000
   S   0.3944139   0.1677715   0.4254307 SPIN=   0.00000
   F   0.1829485  -0.4787266   0.3584925 SPIN=   0.00000
   F  -0.1829485   0.4787266  -0.3584925 SPIN=   0.00000
   F   0.0308715   0.1656911  -0.2589575 SPIN=   0.00000
   F  -0.0308715  -0.1656911   0.2589575 SPIN=   0.00000
%ENDBLOCK POSITIONS_FRAC

# Note: total spin =  16.00

KPOINTS_MP_SPACING 0.07

%BLOCK SPECIES_POT
QC5
%ENDBLOCK SPECIES_POT

SNAP_TO_SYMMETRY
SYMMETRY_GENERATE

