#              Generated by Buildcell
#
# at 09:37:58 (GMT+1.0) 4th August 2020
# in /lustre/scratch/uccabz1/launch_tmp
# on node-c12p-010
# by uccabz1
#
# compiler GCC version 4.9.2
# options -cpp -iprefix /lustre/shared/ucl/apps/gcc/4.9.2/bin/../lib/gcc/x86_64-unknown-linux-gnu/4.9.2/ -mtune=corei7 -march=x86-64 -g -Og
#
# seed   142370462  1992590980  1606668270   823531928   943101102  1672057678  -865122208 -1278198006   318917056 -1183127846   992301172 -1767643813
#
#      Author: C. J. Pickard (cjp20@cam.ac.uk)
#                Space group: P43
#

%BLOCK LATTICE_ABC
      5.39764      5.39764     13.72939
     90.00000     90.00000     90.00000
%ENDBLOCK LATTICE_ABC

%BLOCK POSITIONS_FRAC
  Li   0.4244869   0.1437664  -0.2939407 SPIN=   0.00000
  Li  -0.4244869  -0.1437664   0.2060593 SPIN=   0.00000
  Li  -0.1437664   0.4244869   0.4560593 SPIN=   0.00000
  Li   0.1437664  -0.4244869  -0.0439407 SPIN=   0.00000
  Fe   0.0755117  -0.3369927   0.2553166 SPIN=   4.00000
  Fe  -0.0755117   0.3369927  -0.2446834 SPIN=   4.00000
  Fe   0.3369927   0.0755117   0.0053166 SPIN=   4.00000
  Fe  -0.3369927  -0.0755117  -0.4946834 SPIN=   4.00000
   O  -0.5783443  -0.2826119  -0.2064305 SPIN=   0.00000
   O  -0.3970138   0.0490599  -0.1044062 SPIN=   0.00000
   O  -0.1990493  -0.0650757  -0.2606855 SPIN=   0.00000
   O  -0.1812717  -0.3533946  -0.1206973 SPIN=   0.00000
   S  -0.3389198  -0.1630055  -0.1730549 SPIN=   0.00000
   O   0.5783443   0.2826119   0.2935695 SPIN=   0.00000
   O   0.3970138  -0.0490599   0.3955938 SPIN=   0.00000
   O   0.1990493   0.0650757   0.2393145 SPIN=   0.00000
   O   0.1812717   0.3533946   0.3793027 SPIN=   0.00000
   S   0.3389198   0.1630055   0.3269451 SPIN=   0.00000
   O   0.2826119  -0.5783443  -0.4564305 SPIN=   0.00000
   O  -0.0490599  -0.3970138  -0.3544062 SPIN=   0.00000
   O   0.0650757  -0.1990493  -0.5106855 SPIN=   0.00000
   O   0.3533946  -0.1812717  -0.3706973 SPIN=   0.00000
   S   0.1630055  -0.3389198  -0.4230549 SPIN=   0.00000
   O  -0.2826119   0.5783443   0.0435695 SPIN=   0.00000
   O   0.0490599   0.3970138   0.1455938 SPIN=   0.00000
   O  -0.0650757   0.1990493  -0.0106855 SPIN=   0.00000
   O  -0.3533946   0.1812717   0.1293027 SPIN=   0.00000
   S  -0.1630055   0.3389198   0.0769451 SPIN=   0.00000
   F   0.2302088   0.3226284  -0.1440998 SPIN=   0.00000
   F  -0.2302088  -0.3226284   0.3559002 SPIN=   0.00000
   F  -0.3226284   0.2302088  -0.3940998 SPIN=   0.00000
   F   0.3226284  -0.2302088   0.1059002 SPIN=   0.00000
%ENDBLOCK POSITIONS_FRAC

# Note: total spin =  16.00

KPOINTS_MP_SPACING 0.07

%BLOCK SPECIES_POT
QC5
%ENDBLOCK SPECIES_POT

SNAP_TO_SYMMETRY
SYMMETRY_GENERATE

