#              Generated by Buildcell
#
# at 12:46:39 (GMT+1.0) 18th August 2020
# in /lustre/scratch/uccabz1/launch_tmp
# on node-c12n-006
# by uccabz1
#
# compiler GCC version 4.9.2
# options -cpp -iprefix /lustre/shared/ucl/apps/gcc/4.9.2/bin/../lib/gcc/x86_64-unknown-linux-gnu/4.9.2/ -mtune=corei7 -march=x86-64 -g -Og
#
# seed  1657292765  -597386686  -993464885   -62567210  1650677352  -232050704   -10830923   720618438 -1736501662 -1654007887  1451437685 -1070299424
#
#      Author: C. J. Pickard (cjp20@cam.ac.uk)
#                Space group: Cc
#

%BLOCK LATTICE_ABC
      7.03495      7.03843      9.41707
    110.44694    110.43492     93.74024
%ENDBLOCK LATTICE_ABC

%BLOCK POSITIONS_FRAC
  Li  -0.1621362  -0.3607106  -0.2521579 SPIN=   0.00000
  Li  -0.4099783  -0.1085527   0.2521579 SPIN=   0.00000
  Li  -0.2784985   0.4485712   0.0157754 SPIN=   0.00000
  Li   0.2057261   0.4327958  -0.0157754 SPIN=   0.00000
  Fe  -0.0337461  -0.4029481   0.3909432 SPIN=   3.30775
  Fe   0.0753107   0.2061087  -0.3909432 SPIN=   3.30775
  Fe   0.4579963  -0.2957477  -0.1950274 SPIN=   4.69225
  Fe   0.1530237  -0.1007203   0.1950274 SPIN=   4.69225
   O   0.3104752  -0.5694282   0.3498456 SPIN=   0.00000
   O   0.6260523  -0.3112235   0.5674010 SPIN=   0.00000
   O   0.3822219  -0.2197438   0.3511514 SPIN=   0.00000
   O   0.5991535  -0.4700337   0.2796781 SPIN=   0.00000
   S   0.4794757  -0.3926073   0.3870190 SPIN=   0.00000
   O  -0.5393704   0.0807262  -0.3498456 SPIN=   0.00000
   O  -0.4413488   0.1213755  -0.5674010 SPIN=   0.00000
   O  -0.4689295   0.4291047  -0.3511514 SPIN=   0.00000
   O  -0.1805246   0.2502882  -0.2796781 SPIN=   0.00000
   S  -0.4075433   0.2203737  -0.3870190 SPIN=   0.00000
   O  -0.3582221   0.1400749  -0.0423820 SPIN=   0.00000
   O  -0.0194591   0.2429383   0.1950025 SPIN=   0.00000
   O  -0.2418927  -0.1043151   0.0890734 SPIN=   0.00000
   O  -0.3459061   0.2091451   0.2373821 SPIN=   0.00000
   S  -0.2413700   0.1219608   0.1197690 SPIN=   0.00000
   O   0.1841599   0.1824569   0.0423820 SPIN=   0.00000
   O   0.2855385   0.0479358  -0.1950025 SPIN=   0.00000
   O   0.1690339  -0.1933885  -0.0890734 SPIN=   0.00000
   O  -0.0832882  -0.0282370  -0.2373821 SPIN=   0.00000
   S   0.1388610   0.0021918  -0.1197690 SPIN=   0.00000
   F   0.0017508  -0.4320497   0.0684191 SPIN=   0.00000
   F   0.4333317   0.4995312  -0.0684191 SPIN=   0.00000
   F  -0.0024617   0.4919818  -0.4315222 SPIN=   0.00000
   F  -0.0709394  -0.0764960   0.4315222 SPIN=   0.00000
%ENDBLOCK POSITIONS_FRAC

# Note: total spin =  16.00

KPOINTS_MP_SPACING 0.07

%BLOCK SPECIES_POT
QC5
%ENDBLOCK SPECIES_POT

SNAP_TO_SYMMETRY
SYMMETRY_GENERATE

