#              Generated by Buildcell
#
# at 08:56:37 (GMT+1.0) 4th August 2020
# in /lustre/scratch/uccabz1/launch_tmp
# on node-c12c-002
# by uccabz1
#
# compiler GCC version 4.9.2
# options -cpp -iprefix /lustre/shared/ucl/apps/gcc/4.9.2/bin/../lib/gcc/x86_64-unknown-linux-gnu/4.9.2/ -mtune=corei7 -march=x86-64 -g -Og
#
# seed   478811781   -58973248  1779685332 -1050740628 -1220121409  -189638026 -1034081654 -1835458310  1192478572  1201957724 -1201676206 -1135031033
#
#      Author: C. J. Pickard (cjp20@cam.ac.uk)
#                Space group: P41
#

%BLOCK LATTICE_ABC
      3.99684     10.00395     10.00395
     90.00000     90.00000     90.00000
%ENDBLOCK LATTICE_ABC

%BLOCK POSITIONS_FRAC
  Li   0.2558828   0.4679264  -0.1611251 SPIN=   0.00000
  Li  -0.2441172  -0.4679264   0.1611251 SPIN=   0.00000
  Li  -0.4941172   0.1611251   0.4679264 SPIN=   0.00000
  Li   0.0058828  -0.1611251  -0.4679264 SPIN=   0.00000
  Fe   0.2518811   0.3646282   0.2892267 SPIN=   4.00000
  Fe  -0.2481189  -0.3646282  -0.2892267 SPIN=   4.00000
  Fe  -0.4981189  -0.2892267   0.3646282 SPIN=   4.00000
  Fe   0.0018811   0.2892267  -0.3646282 SPIN=   4.00000
   O  -0.0097460   0.2091290  -0.1383871 SPIN=   0.00000
   O   0.2346265   0.3178795   0.0612193 SPIN=   0.00000
   O  -0.2912624   0.1887867   0.0810157 SPIN=   0.00000
   O  -0.2884583   0.4057936  -0.0377630 SPIN=   0.00000
   S  -0.0887101   0.2803972  -0.0084788 SPIN=   0.00000
   O   0.4902540  -0.2091290   0.1383871 SPIN=   0.00000
   O   0.7346265  -0.3178795  -0.0612193 SPIN=   0.00000
   O   0.2087376  -0.1887867  -0.0810157 SPIN=   0.00000
   O   0.2115417  -0.4057936   0.0377630 SPIN=   0.00000
   S   0.4112899  -0.2803972   0.0084788 SPIN=   0.00000
   O   0.2402540   0.1383871   0.2091290 SPIN=   0.00000
   O   0.4846265  -0.0612193   0.3178795 SPIN=   0.00000
   O  -0.0412624  -0.0810157   0.1887867 SPIN=   0.00000
   O  -0.0384583   0.0377630   0.4057936 SPIN=   0.00000
   S   0.1612899   0.0084788   0.2803972 SPIN=   0.00000
   O  -0.2597460  -0.1383871  -0.2091290 SPIN=   0.00000
   O  -0.0153735   0.0612193  -0.3178795 SPIN=   0.00000
   O  -0.5412624   0.0810157  -0.1887867 SPIN=   0.00000
   O  -0.5384583  -0.0377630  -0.4057936 SPIN=   0.00000
   S  -0.3387101  -0.0084788  -0.2803972 SPIN=   0.00000
   F  -0.0910062  -0.3302620   0.2993530 SPIN=   0.00000
   F   0.4089938   0.3302620  -0.2993530 SPIN=   0.00000
   F   0.1589938  -0.2993530  -0.3302620 SPIN=   0.00000
   F  -0.3410062   0.2993530   0.3302620 SPIN=   0.00000
%ENDBLOCK POSITIONS_FRAC

# Note: total spin =  16.00

KPOINTS_MP_SPACING 0.07

%BLOCK SPECIES_POT
QC5
%ENDBLOCK SPECIES_POT

SNAP_TO_SYMMETRY
SYMMETRY_GENERATE

