#              Generated by Buildcell
#
# at 10:13:21 (GMT+1.0) 4th August 2020
# in /lustre/scratch/uccabz1/launch_tmp
# on node-c12k-007
# by uccabz1
#
# compiler GCC version 4.9.2
# options -cpp -iprefix /lustre/shared/ucl/apps/gcc/4.9.2/bin/../lib/gcc/x86_64-unknown-linux-gnu/4.9.2/ -mtune=corei7 -march=x86-64 -g -Og
#
# seed  -892203004 -1777049912  1848886841   321658029   272461762  -591624479   876620307    95403620 -1905271808   449847779 -1266777092 -1746324331
#
#      Author: C. J. Pickard (cjp20@cam.ac.uk)
#                Space group: Pc
#

%BLOCK LATTICE_ABC
      7.36565      7.82540      7.82986
    117.58613     90.00000     90.00000
%ENDBLOCK LATTICE_ABC

%BLOCK POSITIONS_FRAC
  Li  -0.2640405   0.2140550  -0.0253540 SPIN=   0.00000
  Li   0.2640405  -0.2859450  -0.0253540 SPIN=   0.00000
  Li  -0.4394031  -0.3963116   0.4221204 SPIN=   0.00000
  Li   0.4394031   0.1036884   0.4221204 SPIN=   0.00000
  Fe  -0.0592201   0.1363304   0.3511194 SPIN=   2.56832
  Fe   0.0592201  -0.3636696   0.3511194 SPIN=   2.56832
  Fe   0.3900478  -0.0302896  -0.2765262 SPIN=   5.43168
  Fe  -0.3900478   0.4697104  -0.2765262 SPIN=   5.43168
   O   0.5092143   0.1626167   0.1707381 SPIN=   0.00000
   O   0.2139445   0.2074109   0.3370040 SPIN=   0.00000
   O   0.2237872   0.1512155  -0.0010039 SPIN=   0.00000
   O   0.3319320   0.4610293   0.2617253 SPIN=   0.00000
   S   0.3197195   0.2455681   0.1921159 SPIN=   0.00000
   O  -0.5092143  -0.3373833   0.1707381 SPIN=   0.00000
   O  -0.2139445  -0.2925891   0.3370040 SPIN=   0.00000
   O  -0.2237872  -0.3487845  -0.0010039 SPIN=   0.00000
   O  -0.3319320  -0.0389707   0.2617253 SPIN=   0.00000
   S  -0.3197195  -0.2544319   0.1921159 SPIN=   0.00000
   O   0.2636271   0.4159315  -0.0686371 SPIN=   0.00000
   O   0.0818811   0.5275069  -0.2637938 SPIN=   0.00000
   O  -0.0685060   0.3622330  -0.0985004 SPIN=   0.00000
   O   0.1311271   0.1784572  -0.3788468 SPIN=   0.00000
   S   0.1020323   0.3710321  -0.2024445 SPIN=   0.00000
   O  -0.2636271  -0.0840685  -0.0686371 SPIN=   0.00000
   O  -0.0818811   0.0275069  -0.2637938 SPIN=   0.00000
   O   0.0685060  -0.1377670  -0.0985004 SPIN=   0.00000
   O  -0.1311271  -0.3215428  -0.3788468 SPIN=   0.00000
   S  -0.1020323  -0.1289679  -0.2024445 SPIN=   0.00000
   F   0.1802821  -0.1630020   0.2907256 SPIN=   0.00000
   F  -0.1802821   0.3369980   0.2907256 SPIN=   0.00000
   F  -0.4078467   0.1965644  -0.3068433 SPIN=   0.00000
   F   0.4078467  -0.3034356  -0.3068433 SPIN=   0.00000
%ENDBLOCK POSITIONS_FRAC

# Note: total spin =  16.00

KPOINTS_MP_SPACING 0.07

%BLOCK SPECIES_POT
QC5
%ENDBLOCK SPECIES_POT

SNAP_TO_SYMMETRY
SYMMETRY_GENERATE

