#              Generated by Buildcell
#
# at 09:16:06 (GMT+1.0) 4th August 2020
# in /lustre/scratch/uccabz1/launch_tmp
# on node-c12l-012
# by uccabz1
#
# compiler GCC version 4.9.2
# options -cpp -iprefix /lustre/shared/ucl/apps/gcc/4.9.2/bin/../lib/gcc/x86_64-unknown-linux-gnu/4.9.2/ -mtune=corei7 -march=x86-64 -g -Og
#
# seed  1445861448    34658641  1462378612  -372824461  1565103337   483348408  1562366889  -342748372  1795710087 -2091803913 -1751231547  -136080903
#
#      Author: C. J. Pickard (cjp20@cam.ac.uk)
#                Space group: Cc
#

%BLOCK LATTICE_ABC
      6.72831      6.72831     10.41501
     94.23436    108.50210    113.23381
%ENDBLOCK LATTICE_ABC

%BLOCK POSITIONS_FRAC
  Li   0.1900281  -0.4757286   0.1010921 SPIN=   0.00000
  Li  -0.4231793   0.4110640  -0.3989079 SPIN=   0.00000
  Li   0.7341764  -0.0173779   0.4179254 SPIN=   0.00000
  Li  -0.5646967   0.1837489  -0.0820746 SPIN=   0.00000
  Fe   0.0573906   0.2558019  -0.2921340 SPIN=   4.96638
  Fe   0.4520642   0.1504754   0.2078660 SPIN=   4.96638
  Fe  -0.2389207  -0.0233942   0.0255835 SPIN=   3.03362
  Fe  -0.9510223  -0.2354959  -0.4744165 SPIN=   3.03362
   O  -0.1245562  -0.4509115   0.3251362 SPIN=   0.00000
   O  -0.3650990  -0.3777132   0.1168828 SPIN=   0.00000
   O  -0.1394563  -0.5830518   0.0925703 SPIN=   0.00000
   O   0.0663312  -0.1810418   0.2024118 SPIN=   0.00000
   S  -0.1406951  -0.3981796   0.1842503 SPIN=   0.00000
   O  -0.2239523  -0.0503076  -0.1748638 SPIN=   0.00000
   O  -0.5054040  -0.0180182  -0.3831172 SPIN=   0.00000
   O  -0.3243779  -0.2679734  -0.4074297 SPIN=   0.00000
   O  -0.6165464  -0.3639195  -0.2975882 SPIN=   0.00000
   S  -0.4175702  -0.1750547  -0.3157497 SPIN=   0.00000
   O   0.3426304  -0.3090663  -0.0635933 SPIN=   0.00000
   O   0.0952271  -0.1455800  -0.0154618 SPIN=   0.00000
   O  -0.0850064  -0.4935841  -0.1950499 SPIN=   0.00000
   O   0.1590962  -0.1375684  -0.2366917 SPIN=   0.00000
   S   0.1279868  -0.2714497  -0.1276992 SPIN=   0.00000
   O   0.2454730   0.0937763   0.4364067 SPIN=   0.00000
   O   0.1301182   0.3893111   0.4845382 SPIN=   0.00000
   O   0.2985342   0.3899566   0.3049501 SPIN=   0.00000
   O  -0.0991233   0.1042121   0.2633083 SPIN=   0.00000
   S   0.1437505   0.2443140   0.3723008 SPIN=   0.00000
   F   0.4900021  -0.1514710   0.2391976 SPIN=   0.00000
   F  -0.6093314   0.2491955  -0.2608024 SPIN=   0.00000
   F   0.2186676   0.2678966   0.0414627 SPIN=   0.00000
   F  -0.2264340   0.3227951  -0.4585373 SPIN=   0.00000
%ENDBLOCK POSITIONS_FRAC

# Note: total spin =  16.00

KPOINTS_MP_SPACING 0.07

%BLOCK SPECIES_POT
QC5
%ENDBLOCK SPECIES_POT

SNAP_TO_SYMMETRY
SYMMETRY_GENERATE

