#              Generated by Buildcell
#
# at 09:58:43 (GMT+1.0) 4th August 2020
# in /lustre/scratch/uccabz1/launch_tmp
# on node-c12l-021
# by uccabz1
#
# compiler GCC version 4.9.2
# options -cpp -iprefix /lustre/shared/ucl/apps/gcc/4.9.2/bin/../lib/gcc/x86_64-unknown-linux-gnu/4.9.2/ -mtune=corei7 -march=x86-64 -g -Og
#
# seed -2013003278   444642155   891016350 -1489432242  1786782354   105138689  1427613810  -606417058  2021161874  -555436337   -68351442  -899689968
#
#      Author: C. J. Pickard (cjp20@cam.ac.uk)
#                Space group: P42
#

%BLOCK LATTICE_ABC
      6.33917      7.94353      7.94353
     90.00000     90.00000     90.00000
%ENDBLOCK LATTICE_ABC

%BLOCK POSITIONS_FRAC
  Li   0.3274296   0.0876902  -0.2905548 SPIN=   0.00000
  Li   0.3274296  -0.0876902   0.2905548 SPIN=   0.00000
  Li  -0.1725704   0.2905548   0.0876902 SPIN=   0.00000
  Li  -0.1725704  -0.2905548  -0.0876902 SPIN=   0.00000
  Fe  -0.4884236   0.4837029  -0.2757765 SPIN=   4.00000
  Fe  -0.4884236  -0.4837029   0.2757765 SPIN=   4.00000
  Fe   0.0115764   0.2757765   0.4837029 SPIN=   4.00000
  Fe   0.0115764  -0.2757765  -0.4837029 SPIN=   4.00000
   O  -0.2353481  -0.1199382   0.1010098 SPIN=   0.00000
   O  -0.3322347  -0.1134164   0.4027513 SPIN=   0.00000
   O  -0.3883036   0.1385135   0.2249935 SPIN=   0.00000
   O  -0.0259756   0.0508334   0.3009801 SPIN=   0.00000
   S  -0.2454655  -0.0110019   0.2574337 SPIN=   0.00000
   O  -0.2353481   0.1199382  -0.1010098 SPIN=   0.00000
   O  -0.3322347   0.1134164  -0.4027513 SPIN=   0.00000
   O  -0.3883036  -0.1385135  -0.2249935 SPIN=   0.00000
   O  -0.0259756  -0.0508334  -0.3009801 SPIN=   0.00000
   S  -0.2454655   0.0110019  -0.2574337 SPIN=   0.00000
   O   0.2646519  -0.1010098  -0.1199382 SPIN=   0.00000
   O   0.1677653  -0.4027513  -0.1134164 SPIN=   0.00000
   O   0.1116964  -0.2249935   0.1385135 SPIN=   0.00000
   O   0.4740244  -0.3009801   0.0508334 SPIN=   0.00000
   S   0.2545345  -0.2574337  -0.0110019 SPIN=   0.00000
   O   0.2646519   0.1010098   0.1199382 SPIN=   0.00000
   O   0.1677653   0.4027513   0.1134164 SPIN=   0.00000
   O   0.1116964   0.2249935  -0.1385135 SPIN=   0.00000
   O   0.4740244   0.3009801  -0.0508334 SPIN=   0.00000
   S   0.2545345   0.2574337   0.0110019 SPIN=   0.00000
   F   0.3548290  -0.2500902  -0.4467856 SPIN=   0.00000
   F   0.3548290   0.2500902   0.4467856 SPIN=   0.00000
   F  -0.1451710   0.4467856  -0.2500902 SPIN=   0.00000
   F  -0.1451710  -0.4467856   0.2500902 SPIN=   0.00000
%ENDBLOCK POSITIONS_FRAC

# Note: total spin =  16.00

KPOINTS_MP_SPACING 0.07

%BLOCK SPECIES_POT
QC5
%ENDBLOCK SPECIES_POT

SNAP_TO_SYMMETRY
SYMMETRY_GENERATE

