#              Generated by Buildcell
#
# at 07:41:02 (GMT+1.0) 4th August 2020
# in /lustre/scratch/uccabz1/launch_tmp
# on node-c12c-023
# by uccabz1
#
# compiler GCC version 4.9.2
# options -cpp -iprefix /lustre/shared/ucl/apps/gcc/4.9.2/bin/../lib/gcc/x86_64-unknown-linux-gnu/4.9.2/ -mtune=corei7 -march=x86-64 -g -Og
#
# seed -1011138582 -1806345099   559247267  1970387115  2009607430   915554548 -1906581597   980345644 -1578474635 -1591453763  1671004293   636107068
#
#      Author: C. J. Pickard (cjp20@cam.ac.uk)
#                Space group: P21
#

%BLOCK LATTICE_ABC
      6.59932      7.25924      8.57361
     90.00000     90.00000    103.12395
%ENDBLOCK LATTICE_ABC

%BLOCK POSITIONS_FRAC
  Li  -0.4953756   0.3646387  -0.3524295 SPIN=   0.00000
  Li   0.4953756  -0.3646387   0.1475705 SPIN=   0.00000
  Li   0.0362007  -0.2349257   0.4174968 SPIN=   0.00000
  Li  -0.0362007   0.2349257  -0.0825032 SPIN=   0.00000
  Fe   0.1685028   0.0163977  -0.3044027 SPIN=   3.79657
  Fe  -0.1685028  -0.0163977   0.1955973 SPIN=   3.79657
  Fe  -0.4663790   0.2794625  -0.0131575 SPIN=   4.20343
  Fe   0.4663790  -0.2794625   0.4868425 SPIN=   4.20343
   O  -0.1608343  -0.0279600  -0.4054324 SPIN=   0.00000
   O  -0.1990357   0.2892916  -0.3234575 SPIN=   0.00000
   O  -0.4684559   0.0883293  -0.4889605 SPIN=   0.00000
   O  -0.1215496   0.2306043  -0.5990538 SPIN=   0.00000
   S  -0.2374689   0.1450663  -0.4542261 SPIN=   0.00000
   O   0.1608343   0.0279600   0.0945676 SPIN=   0.00000
   O   0.1990357  -0.2892916   0.1765425 SPIN=   0.00000
   O   0.4684559  -0.0883293   0.0110395 SPIN=   0.00000
   O   0.1215496  -0.2306043  -0.0990538 SPIN=   0.00000
   S   0.2374689  -0.1450663   0.0457739 SPIN=   0.00000
   O  -0.2607215  -0.0966097  -0.1528837 SPIN=   0.00000
   O  -0.2568280  -0.4048421  -0.0310173 SPIN=   0.00000
   O  -0.1336823  -0.3394415  -0.3024174 SPIN=   0.00000
   O  -0.5085164  -0.3869078  -0.2413205 SPIN=   0.00000
   S  -0.2899370  -0.3069503  -0.1819097 SPIN=   0.00000
   O   0.2607215   0.0966097   0.3471163 SPIN=   0.00000
   O   0.2568280   0.4048421   0.4689827 SPIN=   0.00000
   O   0.1336823   0.3394415   0.1975826 SPIN=   0.00000
   O   0.5085164   0.3869078   0.2586795 SPIN=   0.00000
   S   0.2899370   0.3069503   0.3180903 SPIN=   0.00000
   F  -0.2659347  -0.3341778   0.4070619 SPIN=   0.00000
   F   0.2659347   0.3341778  -0.0929381 SPIN=   0.00000
   F  -0.2527308   0.2041654   0.1206998 SPIN=   0.00000
   F   0.2527308  -0.2041654  -0.3793002 SPIN=   0.00000
%ENDBLOCK POSITIONS_FRAC

# Note: total spin =  16.00

KPOINTS_MP_SPACING 0.07

%BLOCK SPECIES_POT
QC5
%ENDBLOCK SPECIES_POT

SNAP_TO_SYMMETRY
SYMMETRY_GENERATE

