#              Generated by Buildcell
#
# at 15:06:07 (GMT+1.0) 18th August 2020
# in /lustre/scratch/uccabz1/launch_tmp
# on node-c12f-027
# by uccabz1
#
# compiler GCC version 4.9.2
# options -cpp -iprefix /lustre/shared/ucl/apps/gcc/4.9.2/bin/../lib/gcc/x86_64-unknown-linux-gnu/4.9.2/ -mtune=corei7 -march=x86-64 -g -Og
#
# seed      695905   931005053   930106320   455446069     4778262  1809875810   621162285  -362851026   767308148 -1681937919  -880969449  1003966666
#
#      Author: C. J. Pickard (cjp20@cam.ac.uk)
#                Space group: Cc
#

%BLOCK LATTICE_ABC
      6.14232      6.14232     12.41522
     93.27895    102.09016    117.45396
%ENDBLOCK LATTICE_ABC

%BLOCK POSITIONS_FRAC
  Li  -0.2713738   0.3350183  -0.2545659 SPIN=   0.00000
  Li  -0.5895842  -0.4831921   0.2454341 SPIN=   0.00000
  Li   0.1529704  -0.0277589  -0.0565322 SPIN=   0.00000
  Li   0.9712268   0.2904975   0.4434678 SPIN=   0.00000
  Fe   0.7952324   0.4934859   0.1494515 SPIN=   3.28695
  Fe  -0.3440344  -0.1457809  -0.3505485 SPIN=   3.28695
  Fe   0.1177581   0.4302827  -0.0472221 SPIN=   4.71305
  Fe   0.5224952   0.3350198   0.4527779 SPIN=   4.71305
   O   0.6183464  -0.1422401   0.1948212 SPIN=   0.00000
   O   0.2015825  -0.2527152   0.2307989 SPIN=   0.00000
   O   0.3693710   0.0550522   0.1085799 SPIN=   0.00000
   O   0.5715525   0.1643297   0.3125489 SPIN=   0.00000
   S   0.4402131  -0.0438934   0.2116872 SPIN=   0.00000
   O   0.3370613   0.0764748  -0.3051788 SPIN=   0.00000
   O   0.4835141   0.5292164  -0.2692011 SPIN=   0.00000
   O   0.0535276   0.2392089  -0.3914201 SPIN=   0.00000
   O   0.1482192   0.2409964  -0.1874511 SPIN=   0.00000
   S   0.2555806   0.2714741  -0.2883128 SPIN=   0.00000
   O   0.1285972   0.0445448   0.3258592 SPIN=   0.00000
   O  -0.1422867  -0.4044421   0.3244044 SPIN=   0.00000
   O  -0.2559398  -0.0964885   0.3953206 SPIN=   0.00000
   O   0.1195357  -0.1158439   0.5041711 SPIN=   0.00000
   S  -0.0375234  -0.1430574   0.3874388 SPIN=   0.00000
   O  -0.7186856  -0.3027379  -0.1741408 SPIN=   0.00000
   O  -0.2711535  -0.0333089  -0.1755956 SPIN=   0.00000
   O  -0.5081909   0.1512604  -0.1046794 SPIN=   0.00000
   O  -0.3799850  -0.1153646   0.0041711 SPIN=   0.00000
   S  -0.4695037  -0.0750378  -0.1125612 SPIN=   0.00000
   F  -1.1242014  -0.4135631  -0.3563046 SPIN=   0.00000
   F   0.0572586   0.2678968   0.1436954 SPIN=   0.00000
   F  -0.0872716  -0.3884840  -0.0450039 SPIN=   0.00000
   F   0.3434802  -0.4577322   0.4549961 SPIN=   0.00000
%ENDBLOCK POSITIONS_FRAC

# Note: total spin =  16.00

KPOINTS_MP_SPACING 0.07

%BLOCK SPECIES_POT
QC5
%ENDBLOCK SPECIES_POT

SNAP_TO_SYMMETRY
SYMMETRY_GENERATE

