#              Generated by Buildcell
#
# at 06:12:36 (GMT+1.0) 4th August 2020
# in /lustre/scratch/uccabz1/launch_tmp
# on node-c12g-036
# by uccabz1
#
# compiler GCC version 4.9.2
# options -cpp -iprefix /lustre/shared/ucl/apps/gcc/4.9.2/bin/../lib/gcc/x86_64-unknown-linux-gnu/4.9.2/ -mtune=corei7 -march=x86-64 -g -Og
#
# seed  1882634909    50699761   715649091 -1123425632 -1229699465  -984059006 -1038066039   259976535  -333321882  -726221077  -368639070   951386474
#
#      Author: C. J. Pickard (cjp20@cam.ac.uk)
#                Space group: C2
#

%BLOCK LATTICE_ABC
      7.44458      8.21439      8.21439
     95.73146    113.71987    113.71987
%ENDBLOCK LATTICE_ABC

%BLOCK POSITIONS_FRAC
  Li  -0.2021323   0.1371765   0.1959130 SPIN=   0.00000
  Li   0.2021323  -0.1959130  -0.1371765 SPIN=   0.00000
  Li   0.3552334   0.3010523  -0.0129877 SPIN=   0.00000
  Li  -0.3552334   0.0129877  -0.3010523 SPIN=   0.00000
  Fe  -0.3065919   0.3444884   0.4359225 SPIN=   2.16224
  Fe   0.3065919  -0.4359225  -0.3444884 SPIN=   2.16224
  Fe  -0.2002222   0.3978278  -0.0710462 SPIN=   5.83776
  Fe   0.2002222   0.0710462  -0.3978278 SPIN=   5.83776
   O  -0.5518175  -0.4564326  -0.0405690 SPIN=   0.00000
   O  -0.2257096  -0.3587333   0.2715422 SPIN=   0.00000
   O  -0.3277427  -0.1246004   0.1568500 SPIN=   0.00000
   O  -0.1663565  -0.2637536   0.0129465 SPIN=   0.00000
   S  -0.3179066  -0.3008800   0.1001924 SPIN=   0.00000
   O   0.5518175   0.0405690   0.4564326 SPIN=   0.00000
   O   0.2257096  -0.2715422   0.3587333 SPIN=   0.00000
   O   0.3277427  -0.1568500   0.1246004 SPIN=   0.00000
   O   0.1663565  -0.0129465   0.2637536 SPIN=   0.00000
   S   0.3179066  -0.1001924   0.3008800 SPIN=   0.00000
   O   0.3719581   0.3185511   0.4001340 SPIN=   0.00000
   O   0.3597449   0.5291984   0.2053482 SPIN=   0.00000
   O   0.0669158   0.4005306   0.2992018 SPIN=   0.00000
   O   0.0777770   0.1926445   0.0677028 SPIN=   0.00000
   S   0.2190989   0.3602311   0.2430967 SPIN=   0.00000
   O  -0.3719581  -0.4001340  -0.3185511 SPIN=   0.00000
   O  -0.3597449  -0.2053482  -0.5291984 SPIN=   0.00000
   O  -0.0669158  -0.2992018  -0.4005306 SPIN=   0.00000
   O  -0.0777770  -0.0677028  -0.1926445 SPIN=   0.00000
   S  -0.2190989  -0.2430967  -0.3602311 SPIN=   0.00000
   F   0.0076465   0.4881346  -0.1528247 SPIN=   0.00000
   F  -0.0076465   0.1528247  -0.4881346 SPIN=   0.00000
   F  -0.4058322   0.2466218   0.1443904 SPIN=   0.00000
   F   0.4058322  -0.1443904  -0.2466218 SPIN=   0.00000
%ENDBLOCK POSITIONS_FRAC

# Note: total spin =  16.00

KPOINTS_MP_SPACING 0.07

%BLOCK SPECIES_POT
QC5
%ENDBLOCK SPECIES_POT

SNAP_TO_SYMMETRY
SYMMETRY_GENERATE

