#              Generated by Buildcell
#
# at 05:09:30 (GMT+1.0) 18th August 2020
# in /lustre/scratch/uccabz1/launch_tmp
# on node-c12b-013
# by uccabz1
#
# compiler GCC version 4.9.2
# options -cpp -iprefix /lustre/shared/ucl/apps/gcc/4.9.2/bin/../lib/gcc/x86_64-unknown-linux-gnu/4.9.2/ -mtune=corei7 -march=x86-64 -g -Og
#
# seed  -210135906  -583946956   809209075  1066890707 -1276802795   310292309  1808710476  -970099608  -307223741  1212777552  -380220544    53705104
#
#      Author: C. J. Pickard (cjp20@cam.ac.uk)
#                Space group: Cc
#

%BLOCK LATTICE_ABC
      7.33099      7.48779      7.48779
     78.89941     84.31158     84.31158
%ENDBLOCK LATTICE_ABC

%BLOCK POSITIONS_FRAC
  Li  -0.0803498   0.4307132  -0.0846505 SPIN=   0.00000
  Li   0.4196502  -0.0846505   0.4307132 SPIN=   0.00000
  Li  -0.3439822   0.4693569  -0.4709297 SPIN=   0.00000
  Li   0.1560178  -0.4709297   0.4693569 SPIN=   0.00000
  Fe   0.1541383   0.1415500  -0.3768847 SPIN=   4.84155
  Fe  -0.3458617  -0.3768847   0.1415500 SPIN=   4.84155
  Fe   0.2265286   0.3665688   0.1442559 SPIN=   3.15845
  Fe  -0.2734714   0.1442559   0.3665688 SPIN=   3.15845
   O  -0.3183144   0.2733964  -0.1143261 SPIN=   0.00000
   O  -0.0976301   0.0913441   0.0927037 SPIN=   0.00000
   O  -0.0857592   0.0502828  -0.2285113 SPIN=   0.00000
   O  -0.3447365  -0.0579771  -0.0096007 SPIN=   0.00000
   S  -0.2116101   0.0892615  -0.0649336 SPIN=   0.00000
   O   0.1816856  -0.1143261   0.2733964 SPIN=   0.00000
   O   0.4023699   0.0927037   0.0913441 SPIN=   0.00000
   O   0.4142408  -0.2285113   0.0502828 SPIN=   0.00000
   O   0.1552635  -0.0096007  -0.0579771 SPIN=   0.00000
   S   0.2883899  -0.0649336   0.0892615 SPIN=   0.00000
   O  -0.1021586  -0.4608411  -0.4070207 SPIN=   0.00000
   O   0.0344810  -0.1661463  -0.4371800 SPIN=   0.00000
   O  -0.2227875  -0.2443162  -0.2038045 SPIN=   0.00000
   O  -0.2786718  -0.1721374  -0.5314889 SPIN=   0.00000
   S  -0.1422842  -0.2608602  -0.3948736 SPIN=   0.00000
   O   0.3978414  -0.4070207  -0.4608411 SPIN=   0.00000
   O   0.5344810  -0.4371800  -0.1661463 SPIN=   0.00000
   O   0.2772125  -0.2038045  -0.2443162 SPIN=   0.00000
   O   0.2213282  -0.5314889  -0.1721374 SPIN=   0.00000
   S   0.3577158  -0.3948736  -0.2608602 SPIN=   0.00000
   F   0.4281782   0.1629690  -0.3412456 SPIN=   0.00000
   F  -0.0718218  -0.3412456   0.1629690 SPIN=   0.00000
   F  -0.4920237   0.3919282   0.1561868 SPIN=   0.00000
   F   0.0079763   0.1561868   0.3919282 SPIN=   0.00000
%ENDBLOCK POSITIONS_FRAC

# Note: total spin =  16.00

KPOINTS_MP_SPACING 0.07

%BLOCK SPECIES_POT
QC5
%ENDBLOCK SPECIES_POT

SNAP_TO_SYMMETRY
SYMMETRY_GENERATE

