#              Generated by Buildcell
#
# at 06:54:07 (GMT+1.0) 4th August 2020
# in /lustre/scratch/uccabz1/launch_tmp
# on node-c12h-035
# by uccabz1
#
# compiler GCC version 4.9.2
# options -cpp -iprefix /lustre/shared/ucl/apps/gcc/4.9.2/bin/../lib/gcc/x86_64-unknown-linux-gnu/4.9.2/ -mtune=corei7 -march=x86-64 -g -Og
#
# seed   371906885 -1935294853  1443031637   851806582   324319446  1793592033  -698980685  2109372010 -2052871292 -1026500367  -110896979 -1991104529
#
#      Author: C. J. Pickard (cjp20@cam.ac.uk)
#                Space group: P2
#

%BLOCK LATTICE_ABC
      6.95985      7.51970      7.64419
     91.04310     90.00000     90.00000
%ENDBLOCK LATTICE_ABC

%BLOCK POSITIONS_FRAC
  Li   0.1091293  -0.1746423   0.1832332 SPIN=   0.00000
  Li   0.1091293   0.1746423  -0.1832332 SPIN=   0.00000
  Li   0.1001931   0.3257929   0.3111910 SPIN=   0.00000
  Li   0.1001931  -0.3257929  -0.3111910 SPIN=   0.00000
  Fe  -0.2562591  -0.0834058  -0.2687653 SPIN=   4.66612
  Fe  -0.2562591   0.0834058   0.2687653 SPIN=   4.66612
  Fe  -0.2364780  -0.4197972   0.2330549 SPIN=   3.33388
  Fe  -0.2364780   0.4197972  -0.2330549 SPIN=   3.33388
   O   0.4550305   0.3827234   0.2068042 SPIN=   0.00000
   O   0.5454460   0.1541865  -0.0152746 SPIN=   0.00000
   O   0.2785680   0.3622723  -0.0739225 SPIN=   0.00000
   O   0.2388125   0.1276999   0.1461100 SPIN=   0.00000
   S   0.3794642   0.2567205   0.0659292 SPIN=   0.00000
   O   0.4550305  -0.3827234  -0.2068042 SPIN=   0.00000
   O   0.5454460  -0.1541865   0.0152746 SPIN=   0.00000
   O   0.2785680  -0.3622723   0.0739225 SPIN=   0.00000
   O   0.2388125  -0.1276999  -0.1461100 SPIN=   0.00000
   S   0.3794642  -0.2567205  -0.0659292 SPIN=   0.00000
   O   0.4194421   0.1503587  -0.5969061 SPIN=   0.00000
   O   0.3720483   0.1304917  -0.2769870 SPIN=   0.00000
   O   0.1950184   0.3562929  -0.4447501 SPIN=   0.00000
   O   0.5455980   0.3871731  -0.3993388 SPIN=   0.00000
   S   0.3830267   0.2560791  -0.4294955 SPIN=   0.00000
   O   0.4194421  -0.1503587   0.5969061 SPIN=   0.00000
   O   0.3720483  -0.1304917   0.2769870 SPIN=   0.00000
   O   0.1950184  -0.3562929   0.4447501 SPIN=   0.00000
   O   0.5455980  -0.3871731   0.3993388 SPIN=   0.00000
   S   0.3830267  -0.2560791   0.4294955 SPIN=   0.00000
   F  -0.1330686  -0.1618680   0.3242400 SPIN=   0.00000
   F  -0.1330686   0.1618680  -0.3242400 SPIN=   0.00000
   F  -0.1258961  -0.3191969  -0.1495538 SPIN=   0.00000
   F  -0.1258961   0.3191969   0.1495538 SPIN=   0.00000
%ENDBLOCK POSITIONS_FRAC

# Note: total spin =  16.00

KPOINTS_MP_SPACING 0.07

%BLOCK SPECIES_POT
QC5
%ENDBLOCK SPECIES_POT

SNAP_TO_SYMMETRY
SYMMETRY_GENERATE

