#              Generated by Buildcell
#
# at 04:35:01 (GMT+1.0) 18th August 2020
# in /lustre/scratch/uccabz1/launch_tmp
# on node-c12n-005
# by uccabz1
#
# compiler GCC version 4.9.2
# options -cpp -iprefix /lustre/shared/ucl/apps/gcc/4.9.2/bin/../lib/gcc/x86_64-unknown-linux-gnu/4.9.2/ -mtune=corei7 -march=x86-64 -g -Og
#
# seed -2041693210  2116647625  -531104432   818442689  1376479693   892881307  1412045586  -299246963  -341582101  -756507570 -1706970393 -1232647787
#
#      Author: C. J. Pickard (cjp20@cam.ac.uk)
#                Space group: C2
#

%BLOCK LATTICE_ABC
      6.74981      6.74981      9.67752
     73.31372     73.31372     77.30391
%ENDBLOCK LATTICE_ABC

%BLOCK POSITIONS_FRAC
  Li  -0.1720005  -0.3724471   0.4927686 SPIN=   0.00000
  Li   0.3724471   0.1720005  -0.4927686 SPIN=   0.00000
  Li  -0.1558264  -0.3815687   0.0137465 SPIN=   0.00000
  Li   0.3815687   0.1558264  -0.0137465 SPIN=   0.00000
  Fe   0.4070393  -0.1289286   0.3098372 SPIN=   3.99478
  Fe   0.1289286  -0.4070393  -0.3098372 SPIN=   3.99478
  Fe   0.2289899   0.4496491   0.2005497 SPIN=   4.00522
  Fe  -0.4496491  -0.2289899  -0.2005497 SPIN=   4.00522
   O  -0.3251475   0.3883811   0.1428153 SPIN=   0.00000
   O  -0.1479004   0.4968711   0.2942870 SPIN=   0.00000
   O  -0.3339331   0.1893075   0.4022553 SPIN=   0.00000
   O  -0.5345841   0.5453493   0.3513525 SPIN=   0.00000
   S  -0.3353913   0.4049772   0.2976776 SPIN=   0.00000
   O  -0.3883811   0.3251475  -0.1428153 SPIN=   0.00000
   O  -0.4968711   0.1479004  -0.2942870 SPIN=   0.00000
   O  -0.1893075   0.3339331  -0.4022553 SPIN=   0.00000
   O  -0.5453493   0.5345841  -0.3513525 SPIN=   0.00000
   S  -0.4049772   0.3353913  -0.2976776 SPIN=   0.00000
   O   0.2647281  -0.1040948  -0.2500806 SPIN=   0.00000
   O   0.1377632   0.1182143  -0.0693844 SPIN=   0.00000
   O  -0.1104464   0.0422502  -0.1855858 SPIN=   0.00000
   O   0.1503848   0.2754386  -0.3358421 SPIN=   0.00000
   S   0.1106074   0.0829521  -0.2102232 SPIN=   0.00000
   O   0.1040948  -0.2647281   0.2500806 SPIN=   0.00000
   O  -0.1182143  -0.1377632   0.0693844 SPIN=   0.00000
   O  -0.0422502   0.1104464   0.1855858 SPIN=   0.00000
   O  -0.2754386  -0.1503848   0.3358421 SPIN=   0.00000
   S  -0.0829521  -0.1106074   0.2102232 SPIN=   0.00000
   F   0.4933328  -0.1167928   0.0298819 SPIN=   0.00000
   F   0.1167928  -0.4933328  -0.0298819 SPIN=   0.00000
   F   0.1912616   0.1565735   0.3759745 SPIN=   0.00000
   F  -0.1565735  -0.1912616  -0.3759745 SPIN=   0.00000
%ENDBLOCK POSITIONS_FRAC

# Note: total spin =  16.00

KPOINTS_MP_SPACING 0.07

%BLOCK SPECIES_POT
QC5
%ENDBLOCK SPECIES_POT

SNAP_TO_SYMMETRY
SYMMETRY_GENERATE

