#              Generated by Buildcell
#
# at 08:42:59 (GMT+1.0) 4th August 2020
# in /lustre/scratch/uccabz1/launch_tmp
# on node-c12c-006
# by uccabz1
#
# compiler GCC version 4.9.2
# options -cpp -iprefix /lustre/shared/ucl/apps/gcc/4.9.2/bin/../lib/gcc/x86_64-unknown-linux-gnu/4.9.2/ -mtune=corei7 -march=x86-64 -g -Og
#
# seed -1785896460  -878741234  1676697170 -1810441890   471778059   692892250 -1099077688 -1405583247  1623023766 -1156668820    44169883 -1725664550
#
#      Author: C. J. Pickard (cjp20@cam.ac.uk)
#                Space group: P43
#

%BLOCK LATTICE_ABC
      4.82922      4.82922     17.15169
     90.00000     90.00000     90.00000
%ENDBLOCK LATTICE_ABC

%BLOCK POSITIONS_FRAC
  Li  -0.3249570   0.3959626   0.1586590 SPIN=   0.00000
  Li   0.3249570  -0.3959626  -0.3413410 SPIN=   0.00000
  Li  -0.3959626  -0.3249570   0.4086590 SPIN=   0.00000
  Li   0.3959626   0.3249570  -0.0913410 SPIN=   0.00000
  Fe  -0.1588951   0.3877558  -0.2104758 SPIN=   4.00000
  Fe   0.1588951  -0.3877558   0.2895242 SPIN=   4.00000
  Fe  -0.3877558  -0.1588951   0.0395242 SPIN=   4.00000
  Fe   0.3877558   0.1588951  -0.4604758 SPIN=   4.00000
   O  -0.0878147   0.4510389   0.4366585 SPIN=   0.00000
   O  -0.2522912   0.1469998   0.3301328 SPIN=   0.00000
   O  -0.2828976  -0.0102829   0.4671919 SPIN=   0.00000
   O   0.1740861   0.0273200   0.4027480 SPIN=   0.00000
   S  -0.1122293   0.1537689   0.4091828 SPIN=   0.00000
   O   0.0878147  -0.4510389  -0.0633415 SPIN=   0.00000
   O   0.2522912  -0.1469998  -0.1698672 SPIN=   0.00000
   O   0.2828976   0.0102829  -0.0328081 SPIN=   0.00000
   O  -0.1740861  -0.0273200  -0.0972520 SPIN=   0.00000
   S   0.1122293  -0.1537689  -0.0908172 SPIN=   0.00000
   O  -0.4510389  -0.0878147  -0.3133415 SPIN=   0.00000
   O  -0.1469998  -0.2522912  -0.4198672 SPIN=   0.00000
   O   0.0102829  -0.2828976  -0.2828081 SPIN=   0.00000
   O  -0.0273200   0.1740861  -0.3472520 SPIN=   0.00000
   S  -0.1537689  -0.1122293  -0.3408172 SPIN=   0.00000
   O   0.4510389   0.0878147   0.1866585 SPIN=   0.00000
   O   0.1469998   0.2522912   0.0801328 SPIN=   0.00000
   O  -0.0102829   0.2828976   0.2171919 SPIN=   0.00000
   O   0.0273200  -0.1740861   0.1527480 SPIN=   0.00000
   S   0.1537689   0.1122293   0.1591828 SPIN=   0.00000
   F  -0.4129584  -0.3527746   0.2757939 SPIN=   0.00000
   F   0.4129584   0.3527746  -0.2242061 SPIN=   0.00000
   F   0.3527746  -0.4129584  -0.4742061 SPIN=   0.00000
   F  -0.3527746   0.4129584   0.0257939 SPIN=   0.00000
%ENDBLOCK POSITIONS_FRAC

# Note: total spin =  16.00

KPOINTS_MP_SPACING 0.07

%BLOCK SPECIES_POT
QC5
%ENDBLOCK SPECIES_POT

SNAP_TO_SYMMETRY
SYMMETRY_GENERATE

