#              Generated by Buildcell
#
# at 08:09:15 (GMT+1.0) 4th August 2020
# in /lustre/scratch/uccabz1/launch_tmp
# on node-c12g-035
# by uccabz1
#
# compiler GCC version 4.9.2
# options -cpp -iprefix /lustre/shared/ucl/apps/gcc/4.9.2/bin/../lib/gcc/x86_64-unknown-linux-gnu/4.9.2/ -mtune=corei7 -march=x86-64 -g -Og
#
# seed -1675212095  1417614270   913032289   702998647  -255346212  -472305262  1609836422 -1412180899   881150027  -746342564  1637334448 -1614012051
#
#      Author: C. J. Pickard (cjp20@cam.ac.uk)
#                Space group: P-1
#

%BLOCK LATTICE_ABC
      6.13992      6.46666     11.32811
     95.05422     90.93076    116.55076
%ENDBLOCK LATTICE_ABC

%BLOCK POSITIONS_FRAC
  Li  -0.2801353  -0.1809718  -0.3815083 SPIN=   0.00000
  Li   0.2801353   0.1809718   0.3815083 SPIN=   0.00000
  Li   0.2987832  -0.3090706  -0.0608387 SPIN=   0.00000
  Li  -0.2987832   0.3090706   0.0608387 SPIN=   0.00000
  Fe  -0.0846816  -0.2910389   0.2567253 SPIN=   4.07367
  Fe   0.0846816   0.2910389  -0.2567253 SPIN=   4.07367
  Fe   0.1970586   0.2815553   0.0790807 SPIN=   3.92633
  Fe  -0.1970586  -0.2815553  -0.0790807 SPIN=   3.92633
   O  -0.1537533   0.2543772  -0.4658054 SPIN=   0.00000
   O  -0.2318576   0.4847326  -0.3006741 SPIN=   0.00000
   O  -0.5747552   0.1962871  -0.4354215 SPIN=   0.00000
   O  -0.2737898   0.5595252  -0.5083140 SPIN=   0.00000
   S  -0.3085390   0.3737305  -0.4275537 SPIN=   0.00000
   O   0.1537533  -0.2543772   0.4658054 SPIN=   0.00000
   O   0.2318576  -0.4847326   0.3006741 SPIN=   0.00000
   O   0.5747552  -0.1962871   0.4354215 SPIN=   0.00000
   O   0.2737898  -0.5595252   0.5083140 SPIN=   0.00000
   S   0.3085390  -0.3737305   0.4275537 SPIN=   0.00000
   O  -0.1097107   0.0777902   0.3502905 SPIN=   0.00000
   O  -0.5244271  -0.0498988   0.2587320 SPIN=   0.00000
   O  -0.1660163   0.1112837   0.1372063 SPIN=   0.00000
   O  -0.2359255   0.3690966   0.2902746 SPIN=   0.00000
   S  -0.2590199   0.1270679   0.2591259 SPIN=   0.00000
   O   0.1097107  -0.0777902  -0.3502905 SPIN=   0.00000
   O   0.5244271   0.0498988  -0.2587320 SPIN=   0.00000
   O   0.1660163  -0.1112837  -0.1372063 SPIN=   0.00000
   O   0.2359255  -0.3690966  -0.2902746 SPIN=   0.00000
   S   0.2590199  -0.1270679  -0.2591259 SPIN=   0.00000
   F   0.4473875   0.4692211  -0.1561962 SPIN=   0.00000
   F  -0.4473875  -0.4692211   0.1561962 SPIN=   0.00000
   F  -0.1722031   0.1972160  -0.0781039 SPIN=   0.00000
   F   0.1722031  -0.1972160   0.0781039 SPIN=   0.00000
%ENDBLOCK POSITIONS_FRAC

# Note: total spin =  16.00

KPOINTS_MP_SPACING 0.07

%BLOCK SPECIES_POT
QC5
%ENDBLOCK SPECIES_POT

SNAP_TO_SYMMETRY
SYMMETRY_GENERATE

