#              Generated by Buildcell
#
# at 13:39:33 (GMT+1.0) 18th August 2020
# in /lustre/scratch/uccabz1/launch_tmp
# on node-c12k-010
# by uccabz1
#
# compiler GCC version 4.9.2
# options -cpp -iprefix /lustre/shared/ucl/apps/gcc/4.9.2/bin/../lib/gcc/x86_64-unknown-linux-gnu/4.9.2/ -mtune=corei7 -march=x86-64 -g -Og
#
# seed   778673175   356048225  -212784332   636242673  1455934262  2079724826  1634772422  -592839816   779216281   990047618 -1507724611  1229117816
#
#      Author: C. J. Pickard (cjp20@cam.ac.uk)
#                Space group: I4
#

%BLOCK LATTICE_ABC
      5.10092      9.21532      9.21532
     85.60697     73.93290     73.93290
%ENDBLOCK LATTICE_ABC

%BLOCK POSITIONS_FRAC
  Li  -0.2797072   0.2567241   0.4988305 SPIN=   0.00000
  Li   0.4758474  -0.2567241  -0.4988305 SPIN=   0.00000
  Li   0.2191233  -0.4988305   0.2567241 SPIN=   0.00000
  Li  -0.0229831   0.4988305  -0.2567241 SPIN=   0.00000
  Fe   0.2454760  -0.1810341   0.2338048 SPIN=   4.00000
  Fe   0.2982466   0.1810341  -0.2338048 SPIN=   4.00000
  Fe   0.4792808  -0.2338048  -0.1810341 SPIN=   4.00000
  Fe   0.0644419   0.2338048   0.1810341 SPIN=   4.00000
   O  -0.2749713  -0.3102878   0.2018532 SPIN=   0.00000
   O  -0.2565625  -0.1830740  -0.0458242 SPIN=   0.00000
   O  -0.0532628  -0.4592804  -0.0339950 SPIN=   0.00000
   O   0.1826972  -0.2842838   0.0358093 SPIN=   0.00000
   S  -0.1005249  -0.3092315   0.0394608 SPIN=   0.00000
   O  -0.3834059   0.3102878  -0.2018532 SPIN=   0.00000
   O  -0.4854607   0.1830740   0.0458242 SPIN=   0.00000
   O  -0.5465383   0.4592804   0.0339950 SPIN=   0.00000
   O  -0.0657773   0.2842838  -0.0358093 SPIN=   0.00000
   S  -0.3702956   0.3092315  -0.0394608 SPIN=   0.00000
   O  -0.0731181  -0.2018532  -0.3102878 SPIN=   0.00000
   O  -0.3023867   0.0458242  -0.1830740 SPIN=   0.00000
   O  -0.0872579   0.0339950  -0.4592804 SPIN=   0.00000
   O   0.2185065  -0.0358093  -0.2842838 SPIN=   0.00000
   S  -0.0610641  -0.0394608  -0.3092315 SPIN=   0.00000
   O  -0.5852590   0.2018532   0.3102878 SPIN=   0.00000
   O  -0.4396365  -0.0458242   0.1830740 SPIN=   0.00000
   O  -0.5125433  -0.0339950   0.4592804 SPIN=   0.00000
   O  -0.1015866   0.0358093   0.2842838 SPIN=   0.00000
   S  -0.4097564   0.0394608   0.3092315 SPIN=   0.00000
   F   0.4427201  -0.4012496  -0.3078223 SPIN=   0.00000
   F  -0.2663519   0.4012496   0.3078223 SPIN=   0.00000
   F   0.1348978   0.3078223  -0.4012496 SPIN=   0.00000
   F   0.0414705  -0.3078223   0.4012496 SPIN=   0.00000
%ENDBLOCK POSITIONS_FRAC

# Note: total spin =  16.00

KPOINTS_MP_SPACING 0.07

%BLOCK SPECIES_POT
QC5
%ENDBLOCK SPECIES_POT

SNAP_TO_SYMMETRY
SYMMETRY_GENERATE

