#              Generated by Buildcell
#
# at 08:37:16 (GMT+1.0) 4th August 2020
# in /lustre/scratch/uccabz1/launch_tmp
# on node-c12d-036
# by uccabz1
#
# compiler GCC version 4.9.2
# options -cpp -iprefix /lustre/shared/ucl/apps/gcc/4.9.2/bin/../lib/gcc/x86_64-unknown-linux-gnu/4.9.2/ -mtune=corei7 -march=x86-64 -g -Og
#
# seed   510645071   -28244901 -1173460369   780656571  1165715031  1794521598  2057805911  1248557223  -507493302  1858913395  1798007583  1416878068
#
#      Author: C. J. Pickard (cjp20@cam.ac.uk)
#                Space group: Cc
#

%BLOCK LATTICE_ABC
      7.62026      8.08121      8.08121
     64.47529     67.38793     67.38793
%ENDBLOCK LATTICE_ABC

%BLOCK POSITIONS_FRAC
  Li   0.2252912   0.0470161   0.1383215 SPIN=   0.00000
  Li  -0.2747088   0.1383215   0.0470161 SPIN=   0.00000
  Li   0.1395809  -0.1147083  -0.3093442 SPIN=   0.00000
  Li  -0.3604191  -0.3093442  -0.1147083 SPIN=   0.00000
  Fe  -0.2490728  -0.3000615   0.1864579 SPIN=   4.59174
  Fe   0.2509272   0.1864579  -0.3000615 SPIN=   4.59174
  Fe  -0.0947814  -0.1081504   0.4305516 SPIN=   3.40826
  Fe   0.4052186   0.4305516  -0.1081504 SPIN=   3.40826
   O  -0.0001996  -0.0318654   0.0434101 SPIN=   0.00000
   O   0.1505181  -0.3169995  -0.0560157 SPIN=   0.00000
   O   0.1849585  -0.3284810   0.2413160 SPIN=   0.00000
   O   0.3623051  -0.1410588  -0.0699841 SPIN=   0.00000
   S   0.1743955  -0.2046012   0.0396816 SPIN=   0.00000
   O  -0.5001996   0.0434101  -0.0318654 SPIN=   0.00000
   O  -0.3494819  -0.0560157  -0.3169995 SPIN=   0.00000
   O  -0.3150415   0.2413160  -0.3284810 SPIN=   0.00000
   O  -0.1376949  -0.0699841  -0.1410588 SPIN=   0.00000
   S  -0.3256045   0.0396816  -0.2046012 SPIN=   0.00000
   O  -0.4717178   0.1784279   0.4369427 SPIN=   0.00000
   O  -0.2485136   0.3762002   0.1935229 SPIN=   0.00000
   O  -0.5549172   0.5183667   0.3988156 SPIN=   0.00000
   O  -0.5723212   0.4265642   0.1513618 SPIN=   0.00000
   S  -0.4618674   0.3748898   0.2951607 SPIN=   0.00000
   O   0.0282822   0.4369427   0.1784279 SPIN=   0.00000
   O   0.2514864   0.1935229   0.3762002 SPIN=   0.00000
   O  -0.0549172   0.3988156   0.5183667 SPIN=   0.00000
   O  -0.0723212   0.1513618   0.4265642 SPIN=   0.00000
   S   0.0381326   0.2951607   0.3748898 SPIN=   0.00000
   F  -0.3389054  -0.0927440   0.2845383 SPIN=   0.00000
   F   0.1610946   0.2845383  -0.0927440 SPIN=   0.00000
   F  -0.3549144  -0.4860811  -0.2111545 SPIN=   0.00000
   F   0.1450856  -0.2111545  -0.4860811 SPIN=   0.00000
%ENDBLOCK POSITIONS_FRAC

# Note: total spin =  16.00

KPOINTS_MP_SPACING 0.07

%BLOCK SPECIES_POT
QC5
%ENDBLOCK SPECIES_POT

SNAP_TO_SYMMETRY
SYMMETRY_GENERATE

