#              Generated by Buildcell
#
# at 23:25:21 (GMT+1.0) 17th August 2020
# in /lustre/scratch/uccabz1/launch_tmp
# on node-c12o-035
# by uccabz1
#
# compiler GCC version 4.9.2
# options -cpp -iprefix /lustre/shared/ucl/apps/gcc/4.9.2/bin/../lib/gcc/x86_64-unknown-linux-gnu/4.9.2/ -mtune=corei7 -march=x86-64 -g -Og
#
# seed  1914711814  1261448438 -1995818849  1339353209  1721887778  -419088692   326711875  -757886398  1047631075  1152290597  -767270622    34091458
#
#      Author: C. J. Pickard (cjp20@cam.ac.uk)
#                Space group: Cc
#

%BLOCK LATTICE_ABC
      6.22514      6.53065     11.21215
     88.36428     86.56642     61.53577
%ENDBLOCK LATTICE_ABC

%BLOCK POSITIONS_FRAC
  Li  -0.0992496  -0.3232046   0.0185193 SPIN=   0.00000
  Li   0.0775459   0.3232046  -0.4814807 SPIN=   0.00000
  Li   0.4571621   0.4314477  -0.2583552 SPIN=   0.00000
  Li   0.3886098  -0.4314477   0.2416448 SPIN=   0.00000
  Fe  -0.2433356  -0.2371131   0.2869272 SPIN=   4.28113
  Fe   0.0195513   0.2371131  -0.2130728 SPIN=   4.28113
  Fe   0.3677216   0.2016810   0.0496010 SPIN=   3.71887
  Fe   0.0694026  -0.2016810  -0.4503990 SPIN=   3.71887
   O  -0.2022052   0.2399989   0.4922696 SPIN=   0.00000
   O  -0.6175136   0.5101952   0.4276740 SPIN=   0.00000
   O  -0.5654391   0.2554297   0.6032747 SPIN=   0.00000
   O  -0.4469945   0.0852420   0.4002090 SPIN=   0.00000
   S  -0.4580381   0.2727164   0.4808568 SPIN=   0.00000
   O   0.5377936  -0.2399989  -0.0077304 SPIN=   0.00000
   O   0.3926816  -0.5101952  -0.0723260 SPIN=   0.00000
   O   0.1899905  -0.2554297   0.1032747 SPIN=   0.00000
   O   0.1382475  -0.0852420  -0.0997910 SPIN=   0.00000
   S   0.3146783  -0.2727164  -0.0191432 SPIN=   0.00000
   O  -0.2600507  -0.0343427  -0.0793088 SPIN=   0.00000
   O  -0.2056210  -0.2887462  -0.2504576 SPIN=   0.00000
   O  -0.2161672   0.0917554  -0.2854505 SPIN=   0.00000
   O  -0.5940190   0.0768485  -0.2172890 SPIN=   0.00000
   S  -0.3189645  -0.0386212  -0.2081265 SPIN=   0.00000
   O   0.2056067   0.0343427   0.4206912 SPIN=   0.00000
   O   0.0056328   0.2887462   0.2495424 SPIN=   0.00000
   O   0.3755882  -0.0917554   0.2145495 SPIN=   0.00000
   O  -0.0171705  -0.0768485   0.2827110 SPIN=   0.00000
   S   0.1424143   0.0386212   0.2918735 SPIN=   0.00000
   F  -0.1088057  -0.3822799   0.4281643 SPIN=   0.00000
   F   0.0089144   0.3822799  -0.0718357 SPIN=   0.00000
   F  -0.4339225   0.2172835   0.1627350 SPIN=   0.00000
   F   0.2833611  -0.2172835  -0.3372650 SPIN=   0.00000
%ENDBLOCK POSITIONS_FRAC

# Note: total spin =  16.00

KPOINTS_MP_SPACING 0.07

%BLOCK SPECIES_POT
QC5
%ENDBLOCK SPECIES_POT

SNAP_TO_SYMMETRY
SYMMETRY_GENERATE

