#              Generated by Buildcell
#
# at 09:34:16 (GMT+1.0) 4th August 2020
# in /lustre/scratch/uccabz1/launch_tmp
# on node-c12e-016
# by uccabz1
#
# compiler GCC version 4.9.2
# options -cpp -iprefix /lustre/shared/ucl/apps/gcc/4.9.2/bin/../lib/gcc/x86_64-unknown-linux-gnu/4.9.2/ -mtune=corei7 -march=x86-64 -g -Og
#
# seed  -457151325  -482136392  -906218299  -268178728   695078275  -674830234  -356387134  -396402161   -22400418 -1814835747 -1398926144  -577162950
#
#      Author: C. J. Pickard (cjp20@cam.ac.uk)
#                Space group: P-1
#

%BLOCK LATTICE_ABC
      5.76024      7.31963     10.01253
    106.94816     97.41235     90.41372
%ENDBLOCK LATTICE_ABC

%BLOCK POSITIONS_FRAC
  Li   0.3838037  -0.2608038  -0.0229083 SPIN=   0.00000
  Li  -0.3838037   0.2608038   0.0229083 SPIN=   0.00000
  Li   0.1483644  -0.1299738   0.3375325 SPIN=   0.00000
  Li  -0.1483644   0.1299738  -0.3375325 SPIN=   0.00000
  Fe   0.4216353   0.4644071   0.2992752 SPIN=   4.13019
  Fe  -0.4216353  -0.4644071  -0.2992752 SPIN=   4.13019
  Fe  -0.1802473  -0.0504808   0.1165517 SPIN=   3.86981
  Fe   0.1802473   0.0504808  -0.1165517 SPIN=   3.86981
   O   0.1885744  -0.0344383  -0.4420215 SPIN=   0.00000
   O   0.3595780  -0.2517854  -0.3110966 SPIN=   0.00000
   O   0.2136611  -0.3783223  -0.5657638 SPIN=   0.00000
   O  -0.0665126  -0.2745109  -0.3936084 SPIN=   0.00000
   S   0.1738252  -0.2347642  -0.4281226 SPIN=   0.00000
   O  -0.1885744   0.0344383   0.4420215 SPIN=   0.00000
   O  -0.3595780   0.2517854   0.3110966 SPIN=   0.00000
   O  -0.2136611   0.3783223   0.5657638 SPIN=   0.00000
   O   0.0665126   0.2745109   0.3936084 SPIN=   0.00000
   S  -0.1738252   0.2347642   0.4281226 SPIN=   0.00000
   O   0.3207435   0.4424462  -0.0823624 SPIN=   0.00000
   O  -0.1094658   0.3814895  -0.1328918 SPIN=   0.00000
   O   0.1279906   0.3216388  -0.3291633 SPIN=   0.00000
   O   0.0731273   0.6534252  -0.1877049 SPIN=   0.00000
   S   0.1030989   0.4497499  -0.1830306 SPIN=   0.00000
   O  -0.3207435  -0.4424462   0.0823624 SPIN=   0.00000
   O   0.1094658  -0.3814895   0.1328918 SPIN=   0.00000
   O  -0.1279906  -0.3216388   0.3291633 SPIN=   0.00000
   O  -0.0731273  -0.6534252   0.1877049 SPIN=   0.00000
   S  -0.1030989  -0.4497499   0.1830306 SPIN=   0.00000
   F  -0.4438868   0.1645277  -0.2953856 SPIN=   0.00000
   F   0.4438868  -0.1645277   0.2953856 SPIN=   0.00000
   F  -0.3457154  -0.2445271  -0.0943376 SPIN=   0.00000
   F   0.3457154   0.2445271   0.0943376 SPIN=   0.00000
%ENDBLOCK POSITIONS_FRAC

# Note: total spin =  16.00

KPOINTS_MP_SPACING 0.07

%BLOCK SPECIES_POT
QC5
%ENDBLOCK SPECIES_POT

SNAP_TO_SYMMETRY
SYMMETRY_GENERATE

