#              Generated by Buildcell
#
# at 03:27:04 (GMT+1.0) 18th August 2020
# in /lustre/scratch/uccabz1/launch_tmp
# on node-c12p-014
# by uccabz1
#
# compiler GCC version 4.9.2
# options -cpp -iprefix /lustre/shared/ucl/apps/gcc/4.9.2/bin/../lib/gcc/x86_64-unknown-linux-gnu/4.9.2/ -mtune=corei7 -march=x86-64 -g -Og
#
# seed -1614012051  1902037328 -1353868247 -1995114332 -2110344155 -1103117165   402506290   374488861   255438474  1600510922  1279068648 -1664618766
#
#      Author: C. J. Pickard (cjp20@cam.ac.uk)
#                Space group: C2
#

%BLOCK LATTICE_ABC
      6.93914      7.61108      7.61108
     85.26558     87.68713     87.68713
%ENDBLOCK LATTICE_ABC

%BLOCK POSITIONS_FRAC
  Li  -0.3652468  -0.4990307  -0.2322089 SPIN=   0.00000
  Li   0.3652468   0.2322089   0.4990307 SPIN=   0.00000
  Li  -0.0415422  -0.4434867   0.1242170 SPIN=   0.00000
  Li   0.0415422  -0.1242170   0.4434867 SPIN=   0.00000
  Fe   0.4857198  -0.4581997   0.1246964 SPIN=   4.32359
  Fe  -0.4857198  -0.1246964   0.4581997 SPIN=   4.32359
  Fe   0.2232255  -0.0817998  -0.1222657 SPIN=   3.67641
  Fe  -0.2232255   0.1222657   0.0817998 SPIN=   3.67641
   O  -0.1078821   0.3337191   0.2868952 SPIN=   0.00000
   O  -0.2514574   0.1849968   0.5598302 SPIN=   0.00000
   O  -0.4427996   0.4122568   0.3838235 SPIN=   0.00000
   O  -0.1685333   0.4988574   0.5516710 SPIN=   0.00000
   S  -0.2426681   0.3574575   0.4455550 SPIN=   0.00000
   O   0.1078821  -0.2868952  -0.3337191 SPIN=   0.00000
   O   0.2514574  -0.5598302  -0.1849968 SPIN=   0.00000
   O   0.4427996  -0.3838235  -0.4122568 SPIN=   0.00000
   O   0.1685333  -0.5516710  -0.4988574 SPIN=   0.00000
   S   0.2426681  -0.4455550  -0.3574575 SPIN=   0.00000
   O   0.1439874   0.1174056   0.3410701 SPIN=   0.00000
   O   0.2067290   0.4041642   0.1751585 SPIN=   0.00000
   O   0.0857156   0.1589225   0.0214055 SPIN=   0.00000
   O   0.4198679   0.1430012   0.1252272 SPIN=   0.00000
   S   0.2140750   0.2058734   0.1657153 SPIN=   0.00000
   O  -0.1439874  -0.3410701  -0.1174056 SPIN=   0.00000
   O  -0.2067290  -0.1751585  -0.4041642 SPIN=   0.00000
   O  -0.0857156  -0.0214055  -0.1589225 SPIN=   0.00000
   O  -0.4198679  -0.1252272  -0.1430012 SPIN=   0.00000
   S  -0.2140750  -0.1657153  -0.2058734 SPIN=   0.00000
   F  -0.2597615  -0.0899855   0.2313732 SPIN=   0.00000
   F   0.2597615  -0.2313732   0.0899855 SPIN=   0.00000
   F   0.2706792   0.0983470  -0.3078542 SPIN=   0.00000
   F  -0.2706792   0.3078542  -0.0983470 SPIN=   0.00000
%ENDBLOCK POSITIONS_FRAC

# Note: total spin =  16.00

KPOINTS_MP_SPACING 0.07

%BLOCK SPECIES_POT
QC5
%ENDBLOCK SPECIES_POT

SNAP_TO_SYMMETRY
SYMMETRY_GENERATE

