#              Generated by Buildcell
#
# at 10:56:30 (GMT+1.0) 4th August 2020
# in /lustre/scratch/uccabz1/launch_tmp
# on node-c12l-017
# by uccabz1
#
# compiler GCC version 4.9.2
# options -cpp -iprefix /lustre/shared/ucl/apps/gcc/4.9.2/bin/../lib/gcc/x86_64-unknown-linux-gnu/4.9.2/ -mtune=corei7 -march=x86-64 -g -Og
#
# seed  -489456341 -1797098937 -1571107856 -1921580476  2051286569   492749006 -1870522360   528229021  -268018371 -1656505023  1658203513  -333994504
#
#      Author: C. J. Pickard (cjp20@cam.ac.uk)
#                Space group: C2
#

%BLOCK LATTICE_ABC
      7.51500      8.12953      8.15505
     78.68155     64.87326     62.47060
%ENDBLOCK LATTICE_ABC

%BLOCK POSITIONS_FRAC
  Li  -0.1398784   0.2744894   0.2342965 SPIN=   0.00000
  Li  -0.1346109   0.2744894  -0.2342965 SPIN=   0.00000
  Li   0.2478541  -0.4957082   0.0000000 SPIN=   0.00000
  Li  -0.4875811   0.9751622  -0.0000000 SPIN=   0.00000
  Fe  -0.0283965  -0.1216539  -0.2585266 SPIN=   2.14432
  Fe   0.1500504  -0.1216539   0.2585266 SPIN=   2.14432
  Fe  -0.2170518  -0.2630927   0.2104624 SPIN=   5.85568
  Fe   0.4801445  -0.2630927  -0.2104624 SPIN=   5.85568
   O   0.1873092   0.3018007  -0.4665017 SPIN=   0.00000
   O  -0.0710143   0.4423862  -0.6210566 SPIN=   0.00000
   O   0.1009288   0.6222013  -0.5852988 SPIN=   0.00000
   O  -0.1760586   0.5544106  -0.3179370 SPIN=   0.00000
   S   0.0102913   0.4801997  -0.4976985 SPIN=   0.00000
   O  -0.4891099   0.3018007   0.4665017 SPIN=   0.00000
   O  -0.3713719   0.4423862   0.6210566 SPIN=   0.00000
   O  -0.7231301   0.6222013   0.5852988 SPIN=   0.00000
   O  -0.3783519   0.5544106   0.3179370 SPIN=   0.00000
   S  -0.4904910   0.4801997   0.4976985 SPIN=   0.00000
   O  -0.2889941   0.1048084  -0.0717761 SPIN=   0.00000
   O  -0.3044638   0.0292835   0.2417455 SPIN=   0.00000
   O  -0.6237644   0.2775564   0.1861376 SPIN=   0.00000
   S  -0.3776542   0.1842380   0.1145261 SPIN=   0.00000
   O   0.1841857   0.1048084   0.0717761 SPIN=   0.00000
   O   0.2751803   0.0292835  -0.2417455 SPIN=   0.00000
   O   0.3462080   0.2775564  -0.1861376 SPIN=   0.00000
   S   0.1934162   0.1842380  -0.1145261 SPIN=   0.00000
   O  -0.3608117   0.7216234  -0.5000000 SPIN=   0.00000
   O   0.0251666  -0.0503332  -0.0000000 SPIN=   0.00000
   F  -0.2416648  -0.0359637  -0.3994937 SPIN=   0.00000
   F   0.2776285  -0.0359637   0.3994937 SPIN=   0.00000
   F   0.4073063  -0.3323850   0.0665001 SPIN=   0.00000
   F  -0.0749213  -0.3323850  -0.0665001 SPIN=   0.00000
%ENDBLOCK POSITIONS_FRAC

# Note: total spin =  16.00

KPOINTS_MP_SPACING 0.07

%BLOCK SPECIES_POT
QC5
%ENDBLOCK SPECIES_POT

SNAP_TO_SYMMETRY
SYMMETRY_GENERATE

