#              Generated by Buildcell
#
# at 07:17:06 (GMT+1.0) 4th August 2020
# in /lustre/scratch/uccabz1/launch_tmp
# on node-c12l-012
# by uccabz1
#
# compiler GCC version 4.9.2
# options -cpp -iprefix /lustre/shared/ucl/apps/gcc/4.9.2/bin/../lib/gcc/x86_64-unknown-linux-gnu/4.9.2/ -mtune=corei7 -march=x86-64 -g -Og
#
# seed  -394131842  -661962174 -1568021859 -2083672696  -300510500 -1554319061  1441970183  1671966776 -2090187857 -1214411505  1828419720  -554695180
#
#      Author: C. J. Pickard (cjp20@cam.ac.uk)
#                Space group: P41
#

%BLOCK LATTICE_ABC
      4.15089      9.81656      9.81656
     90.00000     90.00000     90.00000
%ENDBLOCK LATTICE_ABC

%BLOCK POSITIONS_FRAC
  Li  -0.4241235  -0.1203609  -0.2391917 SPIN=   0.00000
  Li   0.0758765   0.1203609   0.2391917 SPIN=   0.00000
  Li  -0.1741235   0.2391917  -0.1203609 SPIN=   0.00000
  Li   0.3258765  -0.2391917   0.1203609 SPIN=   0.00000
  Fe  -0.2049986  -0.3677413  -0.0793505 SPIN=   4.00000
  Fe   0.2950014   0.3677413   0.0793505 SPIN=   4.00000
  Fe   0.0450014   0.0793505  -0.3677413 SPIN=   4.00000
  Fe  -0.4549986  -0.0793505   0.3677413 SPIN=   4.00000
   O   0.3444883   0.1998475   0.5202340 SPIN=   0.00000
   O   0.7475302   0.3629167   0.4312150 SPIN=   0.00000
   O   0.2318634   0.3293076   0.3092063 SPIN=   0.00000
   O   0.6437123   0.1470099   0.3086684 SPIN=   0.00000
   S   0.4918985   0.2597704   0.3923309 SPIN=   0.00000
   O  -0.1555117  -0.1998475  -0.5202340 SPIN=   0.00000
   O   0.2475302  -0.3629167  -0.4312150 SPIN=   0.00000
   O  -0.2681366  -0.3293076  -0.3092063 SPIN=   0.00000
   O   0.1437123  -0.1470099  -0.3086684 SPIN=   0.00000
   S  -0.0081015  -0.2597704  -0.3923309 SPIN=   0.00000
   O  -0.4055117  -0.5202340   0.1998475 SPIN=   0.00000
   O  -0.0024698  -0.4312150   0.3629167 SPIN=   0.00000
   O  -0.5181366  -0.3092063   0.3293076 SPIN=   0.00000
   O  -0.1062877  -0.3086684   0.1470099 SPIN=   0.00000
   S  -0.2581015  -0.3923309   0.2597704 SPIN=   0.00000
   O   0.0944883   0.5202340  -0.1998475 SPIN=   0.00000
   O   0.4975302   0.4312150  -0.3629167 SPIN=   0.00000
   O  -0.0181366   0.3092063  -0.3293076 SPIN=   0.00000
   O   0.3937123   0.3086684  -0.1470099 SPIN=   0.00000
   S   0.2418985   0.3923309  -0.2597704 SPIN=   0.00000
   F   0.1588755  -0.0587625   0.2616149 SPIN=   0.00000
   F  -0.3411245   0.0587625  -0.2616149 SPIN=   0.00000
   F   0.4088755  -0.2616149  -0.0587625 SPIN=   0.00000
   F  -0.0911245   0.2616149   0.0587625 SPIN=   0.00000
%ENDBLOCK POSITIONS_FRAC

# Note: total spin =  16.00

KPOINTS_MP_SPACING 0.07

%BLOCK SPECIES_POT
QC5
%ENDBLOCK SPECIES_POT

SNAP_TO_SYMMETRY
SYMMETRY_GENERATE

