#              Generated by Buildcell
#
# at 06:22:58 (GMT+1.0) 4th August 2020
# in /lustre/scratch/uccabz1/launch_tmp
# on node-y12q-003
# by uccabz1
#
# compiler GCC version 4.9.2
# options -cpp -iprefix /lustre/shared/ucl/apps/gcc/4.9.2/bin/../lib/gcc/x86_64-unknown-linux-gnu/4.9.2/ -mtune=corei7 -march=x86-64 -g -Og
#
# seed  -643306517  1420900677  -139321448  -864725704  -329268973  -773068762    27807022   697078985 -1747589450  -547249313  -453734566  1929353083
#
#      Author: C. J. Pickard (cjp20@cam.ac.uk)
#                Space group: Aea2
#

%BLOCK LATTICE_ABC
      7.07268      7.62984      7.62984
    103.71025     90.00000     90.00000
%ENDBLOCK LATTICE_ABC

%BLOCK POSITIONS_FRAC
  Li  -0.1065387   0.3693140   0.0949498 SPIN=   0.00000
  Li   0.1065387   0.0949498   0.3693140 SPIN=   0.00000
  Li   0.3934613  -0.4050502  -0.1306860 SPIN=   0.00000
  Li  -0.3934613  -0.1306860  -0.4050502 SPIN=   0.00000
  Fe   0.4013972  -0.1844256   0.2465231 SPIN=   4.00000
  Fe  -0.4013972   0.2465231  -0.1844256 SPIN=   4.00000
  Fe  -0.0986028  -0.2534769   0.3155744 SPIN=   4.00000
  Fe   0.0986028   0.3155744  -0.2534769 SPIN=   4.00000
   O  -0.2180908   0.0172334   0.1983899 SPIN=   0.00000
   O  -0.2317657   0.0907841   0.5319679 SPIN=   0.00000
   O  -0.5056551   0.1574259   0.3565476 SPIN=   0.00000
   O  -0.2114821   0.3358767   0.3705924 SPIN=   0.00000
   S  -0.2917484   0.1503300   0.3643744 SPIN=   0.00000
   O   0.2180908   0.1983899   0.0172334 SPIN=   0.00000
   O   0.2317657   0.5319679   0.0907841 SPIN=   0.00000
   O   0.5056551   0.3565476   0.1574259 SPIN=   0.00000
   O   0.2114821   0.3705924   0.3358767 SPIN=   0.00000
   S   0.2917484   0.3643744   0.1503300 SPIN=   0.00000
   O   0.2819092  -0.3016101  -0.4827666 SPIN=   0.00000
   O   0.2682343   0.0319679  -0.4092159 SPIN=   0.00000
   O  -0.0056551  -0.1434524  -0.3425741 SPIN=   0.00000
   O   0.2885179  -0.1294076  -0.1641233 SPIN=   0.00000
   S   0.2082516  -0.1356256  -0.3496700 SPIN=   0.00000
   O  -0.2819092  -0.4827666  -0.3016101 SPIN=   0.00000
   O  -0.2682343  -0.4092159   0.0319679 SPIN=   0.00000
   O   0.0056551  -0.3425741  -0.1434524 SPIN=   0.00000
   O  -0.2885179  -0.1641233  -0.1294076 SPIN=   0.00000
   S  -0.2082516  -0.3496700  -0.1356256 SPIN=   0.00000
   F  -0.3507255  -0.3223597   0.3948334 SPIN=   0.00000
   F   0.3507255   0.3948334  -0.3223597 SPIN=   0.00000
   F   0.1492745  -0.1051666   0.1776403 SPIN=   0.00000
   F  -0.1492745   0.1776403  -0.1051666 SPIN=   0.00000
%ENDBLOCK POSITIONS_FRAC

# Note: total spin =  16.00

KPOINTS_MP_SPACING 0.07

%BLOCK SPECIES_POT
QC5
%ENDBLOCK SPECIES_POT

SNAP_TO_SYMMETRY
SYMMETRY_GENERATE

