#              Generated by Buildcell
#
# at 23:24:56 (GMT+1.0) 17th August 2020
# in /lustre/scratch/uccabz1/launch_tmp
# on node-c12f-002
# by uccabz1
#
# compiler GCC version 4.9.2
# options -cpp -iprefix /lustre/shared/ucl/apps/gcc/4.9.2/bin/../lib/gcc/x86_64-unknown-linux-gnu/4.9.2/ -mtune=corei7 -march=x86-64 -g -Og
#
# seed  -365507758  1200484451  -934113801 -2042753359  1423309018 -1827754683  -380481862  1377368678   249150179  -144146504  1059362944   585628332
#
#      Author: C. J. Pickard (cjp20@cam.ac.uk)
#                Space group: Cc
#

%BLOCK LATTICE_ABC
      6.77755      8.16912      8.16912
     83.26283     70.12111     70.12111
%ENDBLOCK LATTICE_ABC

%BLOCK POSITIONS_FRAC
  Li  -0.0875957  -0.0781706  -0.2379576 SPIN=   0.00000
  Li  -0.5875957   0.2620424   0.4218294 SPIN=   0.00000
  Li  -0.0663823   0.3052764   0.1443525 SPIN=   0.00000
  Li   0.4336177  -0.3556475  -0.1947236 SPIN=   0.00000
  Fe  -0.0917911  -0.0575931   0.1398756 SPIN=   4.44826
  Fe   0.4082089  -0.3601244   0.4424069 SPIN=   4.44826
  Fe   0.0547698   0.4060733  -0.2379226 SPIN=   3.55174
  Fe  -0.4452302   0.2620774  -0.0939267 SPIN=   3.55174
   O   0.6520683  -0.0871466  -0.2757008 SPIN=   0.00000
   O   0.5745870  -0.2897382  -0.4296528 SPIN=   0.00000
   O   0.9429149  -0.2487589  -0.5335677 SPIN=   0.00000
   O   0.6158017  -0.0121005  -0.5688616 SPIN=   0.00000
   S   0.6963430  -0.1594360  -0.4519457 SPIN=   0.00000
   O  -0.8479317   0.2242992   0.4128534 SPIN=   0.00000
   O  -0.9254130   0.0703472   0.2102618 SPIN=   0.00000
   O  -0.5570851  -0.0335677   0.2512411 SPIN=   0.00000
   O  -0.8841983  -0.0688616   0.4878995 SPIN=   0.00000
   S  -0.8036570   0.0480543   0.3405640 SPIN=   0.00000
   O   0.7021270  -0.3527455  -0.1603965 SPIN=   0.00000
   O   0.7103515  -0.4653563   0.1327974 SPIN=   0.00000
   O   0.3918721  -0.2169408   0.1008821 SPIN=   0.00000
   O   0.7570185  -0.1778977   0.0381619 SPIN=   0.00000
   S   0.6403423  -0.3032351   0.0278612 SPIN=   0.00000
   O   0.2021270  -0.6603965   0.1472545 SPIN=   0.00000
   O   0.2103515  -0.3672026   0.0346437 SPIN=   0.00000
   O  -0.1081279  -0.3991179   0.2830592 SPIN=   0.00000
   O   0.2570185  -0.4618381   0.3221023 SPIN=   0.00000
   S   0.1403423  -0.4721388   0.1967649 SPIN=   0.00000
   F  -0.1928002   0.3785873  -0.3327902 SPIN=   0.00000
   F   0.3071998   0.1672098  -0.1214127 SPIN=   0.00000
   F  -0.3235923   0.2114547   0.1999699 SPIN=   0.00000
   F   0.1764077  -0.3000301  -0.2885453 SPIN=   0.00000
%ENDBLOCK POSITIONS_FRAC

# Note: total spin =  16.00

KPOINTS_MP_SPACING 0.07

%BLOCK SPECIES_POT
QC5
%ENDBLOCK SPECIES_POT

SNAP_TO_SYMMETRY
SYMMETRY_GENERATE

