#              Generated by Buildcell
#
# at 13:35:38 (GMT+1.0) 18th August 2020
# in /lustre/scratch/uccabz1/launch_tmp
# on node-c12a-015
# by uccabz1
#
# compiler GCC version 4.9.2
# options -cpp -iprefix /lustre/shared/ucl/apps/gcc/4.9.2/bin/../lib/gcc/x86_64-unknown-linux-gnu/4.9.2/ -mtune=corei7 -march=x86-64 -g -Og
#
# seed -1313955046   106848291  -183981171 -1302835197 -1025395157  -594202045 -1885980404   829207637  -112264522 -1522418843  1081623476  -258833570
#
#      Author: C. J. Pickard (cjp20@cam.ac.uk)
#                Space group: P2
#

%BLOCK LATTICE_ABC
      7.41783      7.54965      7.88099
     90.00000    115.00017     90.00000
%ENDBLOCK LATTICE_ABC

%BLOCK POSITIONS_FRAC
  Li   0.2362855  -0.2508265  -0.0846186 SPIN=   0.00000
  Li  -0.2362855  -0.2508265   0.0846186 SPIN=   0.00000
  Li  -0.2923385   0.1641387   0.4079104 SPIN=   0.00000
  Li   0.2923385   0.1641387  -0.4079104 SPIN=   0.00000
  Fe   0.2458012   0.1607171  -0.0100245 SPIN=   4.26043
  Fe  -0.2458012   0.1607171   0.0100245 SPIN=   4.26043
  Fe  -0.5000000   0.4625169  -0.5000000 SPIN=   4.38300
  Fe   0.0000000  -0.1851954   0.5000000 SPIN=   3.09613
   O  -0.1888528   0.4405064   0.2175664 SPIN=   0.00000
   O   0.1444520   0.5043304   0.4686286 SPIN=   0.00000
   O   0.0373748   0.6470680   0.1584996 SPIN=   0.00000
   O   0.1122445   0.3261554   0.1936577 SPIN=   0.00000
   S   0.0263046   0.4795151   0.2595881 SPIN=   0.00000
   O   0.1888528   0.4405064  -0.2175664 SPIN=   0.00000
   O  -0.1444520   0.5043304  -0.4686286 SPIN=   0.00000
   O  -0.0373748   0.6470680  -0.1584996 SPIN=   0.00000
   O  -0.1122445   0.3261554  -0.1936577 SPIN=   0.00000
   S  -0.0263046   0.4795151  -0.2595881 SPIN=   0.00000
   O  -0.3080726  -0.1453724   0.4562685 SPIN=   0.00000
   O  -0.6241309  -0.0132011   0.2310786 SPIN=   0.00000
   O  -0.5773529  -0.3382274   0.2409026 SPIN=   0.00000
   S  -0.4749571  -0.1606350   0.2614297 SPIN=   0.00000
   O   0.3080726  -0.1453724  -0.4562685 SPIN=   0.00000
   O   0.6241309  -0.0132011  -0.2310786 SPIN=   0.00000
   O   0.5773529  -0.3382274  -0.2409026 SPIN=   0.00000
   S   0.4749571  -0.1606350  -0.2614297 SPIN=   0.00000
   O  -0.5000000  -0.3990744  -0.0000000 SPIN=   0.00000
   O   0.5000000   0.1355579   0.5000000 SPIN=   0.00000
   F   0.4761709   0.3255323   0.2185503 SPIN=   0.00000
   F  -0.4761709   0.3255323  -0.2185503 SPIN=   0.00000
   F  -0.0000000   0.0738164   0.5000000 SPIN=   0.00000
   F   0.0000000   0.0217833   0.0000000 SPIN=   0.00000
%ENDBLOCK POSITIONS_FRAC

# Note: total spin =  16.00

KPOINTS_MP_SPACING 0.07

%BLOCK SPECIES_POT
QC5
%ENDBLOCK SPECIES_POT

SNAP_TO_SYMMETRY
SYMMETRY_GENERATE

