#              Generated by Buildcell
#
# at 10:55:07 (GMT+1.0) 4th August 2020
# in /lustre/scratch/uccabz1/launch_tmp
# on node-c12g-004
# by uccabz1
#
# compiler GCC version 4.9.2
# options -cpp -iprefix /lustre/shared/ucl/apps/gcc/4.9.2/bin/../lib/gcc/x86_64-unknown-linux-gnu/4.9.2/ -mtune=corei7 -march=x86-64 -g -Og
#
# seed -1620952985  1439889738 -1419915607 -1113913588   586345486   785801520   127023416  -452659181  1453631361  1938319545  1364532152  -597018903
#
#      Author: C. J. Pickard (cjp20@cam.ac.uk)
#                Space group: P-1
#

%BLOCK LATTICE_ABC
      4.17314      9.69530     10.10556
     98.90719     94.47083     95.85373
%ENDBLOCK LATTICE_ABC

%BLOCK POSITIONS_FRAC
  Li  -0.2770817  -0.2793568   0.3428307 SPIN=   0.00000
  Li   0.2770817   0.2793568  -0.3428307 SPIN=   0.00000
  Li   0.4664014  -0.1327077  -0.3318645 SPIN=   0.00000
  Li  -0.4664014   0.1327077   0.3318645 SPIN=   0.00000
  Fe  -0.0000000   0.0000000  -0.5000000 SPIN=   2.47906
  Fe  -0.5000000   0.5000000   0.0000000 SPIN=   3.91597
  Fe  -0.5000000  -0.5000000  -0.5000000 SPIN=   5.61164
  Fe  -0.0000000   0.0000000   0.0000000 SPIN=   3.99333
   O  -0.5350683   0.2619404  -0.1477234 SPIN=   0.00000
   O  -0.2247795   0.1301515  -0.3133857 SPIN=   0.00000
   O  -0.0061236   0.1902229  -0.0742226 SPIN=   0.00000
   O  -0.0301046   0.3771437  -0.2148147 SPIN=   0.00000
   S  -0.1990190   0.2398646  -0.1875366 SPIN=   0.00000
   O   0.5350683  -0.2619404   0.1477234 SPIN=   0.00000
   O   0.2247795  -0.1301515   0.3133857 SPIN=   0.00000
   O   0.0061236  -0.1902229   0.0742226 SPIN=   0.00000
   O   0.0301046  -0.3771437   0.2148147 SPIN=   0.00000
   S   0.1990190  -0.2398646   0.1875366 SPIN=   0.00000
   O   0.3208227  -0.4643737  -0.3080409 SPIN=   0.00000
   O   0.0328637  -0.2547247  -0.3174687 SPIN=   0.00000
   O   0.1929145  -0.3223819  -0.0975466 SPIN=   0.00000
   S   0.0750785  -0.3773496  -0.2437023 SPIN=   0.00000
   O  -0.3208227   0.4643737   0.3080409 SPIN=   0.00000
   O  -0.0328637   0.2547247   0.3174687 SPIN=   0.00000
   O  -0.1929145   0.3223819   0.0975466 SPIN=   0.00000
   S  -0.0750785   0.3773496   0.2437023 SPIN=   0.00000
   O   0.0000000   0.5000000  -0.5000000 SPIN=   0.00000
   O   0.0000000   0.5000000   0.0000000 SPIN=   0.00000
   F   0.3463777   0.1015168   0.1482065 SPIN=   0.00000
   F  -0.3463777  -0.1015168  -0.1482065 SPIN=   0.00000
   F  -0.4924328   0.2867850  -0.4985199 SPIN=   0.00000
   F   0.4924328  -0.2867850   0.4985199 SPIN=   0.00000
%ENDBLOCK POSITIONS_FRAC

# Note: total spin =  16.00

KPOINTS_MP_SPACING 0.07

%BLOCK SPECIES_POT
QC5
%ENDBLOCK SPECIES_POT

SNAP_TO_SYMMETRY
SYMMETRY_GENERATE

