#              Generated by Buildcell
#
# at 09:09:01 (GMT+1.0) 18th August 2020
# in /lustre/scratch/uccabz1/launch_tmp
# on node-c12a-010
# by uccabz1
#
# compiler GCC version 4.9.2
# options -cpp -iprefix /lustre/shared/ucl/apps/gcc/4.9.2/bin/../lib/gcc/x86_64-unknown-linux-gnu/4.9.2/ -mtune=corei7 -march=x86-64 -g -Og
#
# seed  1521532704 -1161517347 -1803002746  1394930072 -1960260537  -426378997  1216527688 -1164809866  -171165408    95789757 -1243911185  1308938249
#
#      Author: C. J. Pickard (cjp20@cam.ac.uk)
#                Space group: P-1
#

%BLOCK LATTICE_ABC
      4.06824     10.27928     10.37697
     68.06569     84.47258     84.88378
%ENDBLOCK LATTICE_ABC

%BLOCK POSITIONS_FRAC
  Li  -0.3483261   0.0804329   0.1792036 SPIN=   0.00000
  Li   0.3483261  -0.0804329  -0.1792036 SPIN=   0.00000
  Li  -0.4224863  -0.4245255  -0.3406034 SPIN=   0.00000
  Li   0.4224863   0.4245255   0.3406034 SPIN=   0.00000
  Fe  -0.1266313  -0.3577280   0.3445236 SPIN=   4.18282
  Fe   0.1266313   0.3577280  -0.3445236 SPIN=   4.18282
  Fe  -0.2913660   0.1149168  -0.4420947 SPIN=   3.81718
  Fe   0.2913660  -0.1149168   0.4420947 SPIN=   3.81718
   O  -0.2582458   0.3807194  -0.0317655 SPIN=   0.00000
   O  -0.2145373   0.1421087  -0.0397182 SPIN=   0.00000
   O  -0.4439684   0.3429209  -0.2346674 SPIN=   0.00000
   O  -0.7641521   0.2539566  -0.0068720 SPIN=   0.00000
   S  -0.4202259   0.2799264  -0.0782558 SPIN=   0.00000
   O   0.2582458  -0.3807194   0.0317655 SPIN=   0.00000
   O   0.2145373  -0.1421087   0.0397182 SPIN=   0.00000
   O   0.4439684  -0.3429209   0.2346674 SPIN=   0.00000
   O   0.7641521  -0.2539566   0.0068720 SPIN=   0.00000
   S   0.4202259  -0.2799264   0.0782558 SPIN=   0.00000
   O  -0.1949080   0.2479064   0.1964208 SPIN=   0.00000
   O  -0.2219382   0.5078489   0.1040049 SPIN=   0.00000
   O   0.3212324   0.3748563   0.1303066 SPIN=   0.00000
   O  -0.0291432   0.3744098   0.3391014 SPIN=   0.00000
   S  -0.0311892   0.3762553   0.1924584 SPIN=   0.00000
   O   0.1949080  -0.2479064  -0.1964208 SPIN=   0.00000
   O   0.2219382  -0.5078489  -0.1040049 SPIN=   0.00000
   O  -0.3212324  -0.3748563  -0.1303066 SPIN=   0.00000
   O   0.0291432  -0.3744098  -0.3391014 SPIN=   0.00000
   S   0.0311892  -0.3762553  -0.1924584 SPIN=   0.00000
   F  -0.4261526  -0.3004868   0.4829675 SPIN=   0.00000
   F   0.4261526   0.3004868  -0.4829675 SPIN=   0.00000
   F  -0.0776528  -0.0120922  -0.1904301 SPIN=   0.00000
   F   0.0776528   0.0120922   0.1904301 SPIN=   0.00000
%ENDBLOCK POSITIONS_FRAC

# Note: total spin =  16.00

KPOINTS_MP_SPACING 0.07

%BLOCK SPECIES_POT
QC5
%ENDBLOCK SPECIES_POT

SNAP_TO_SYMMETRY
SYMMETRY_GENERATE

