#              Generated by Buildcell
#
# at 23:31:21 (GMT+1.0) 17th August 2020
# in /scratch/scratch/uccabz1/launch_tmp
# on node-k10b-035
# by uccabz1
#
# compiler GCC version 4.9.2
# options -cpp -iprefix /scratch/UCL/applications/gcc/4.9.2/bin/../lib/gcc/x86_64-unknown-linux-gnu/4.9.2/ -mtune=corei7 -march=x86-64 -g -O2
#
# seed  1010936698 -1430725687 -1262892360  2140860424  1462029795    61516729 -1907858623   -87811005 -2144638845  1692061095  2093204554  1588838102
#
#      Author: C. J. Pickard (cjp20@cam.ac.uk)
#                Space group: Cm
#

%BLOCK LATTICE_ABC
      5.10309      9.68229      9.73144
    119.22825    104.16821     92.00746
%ENDBLOCK LATTICE_ABC

%BLOCK POSITIONS_FRAC
  Li  -0.1036779  -0.4641826  -0.7861120 SPIN=   0.00000
  Li   0.6824341   0.3219294   0.7861120 SPIN=   0.00000
  Li  -0.1907212   0.2478942   0.3752279 SPIN=   0.00000
  Li  -0.5659490  -0.1273337  -0.3752279 SPIN=   0.00000
  Fe   0.2369173   0.2367020   0.2218828 SPIN=   2.50542
  Fe   0.0150345   0.0148192  -0.2218828 SPIN=   2.50542
  Fe   0.5162521   0.0389190   0.4508694 SPIN=   5.49458
  Fe   0.0653827  -0.4119504  -0.4508694 SPIN=   5.49458
   O  -0.2433972  -0.3177877  -0.5585925 SPIN=   0.00000
   O  -0.7116603  -0.2620990  -0.6297198 SPIN=   0.00000
   O  -0.6477605  -0.5065123  -0.6135050 SPIN=   0.00000
   O  -0.5589998  -0.4862671  -0.8425193 SPIN=   0.00000
   S  -0.5404545  -0.3931665  -0.6610841 SPIN=   0.00000
   O   0.3151952   0.2408047   0.5585925 SPIN=   0.00000
   O  -0.0819406   0.3676207   0.6297198 SPIN=   0.00000
   O  -0.0342555   0.1069927   0.6135050 SPIN=   0.00000
   O   0.2835195   0.3562522   0.8425193 SPIN=   0.00000
   S   0.1206297   0.2679176   0.6610841 SPIN=   0.00000
   O  -0.1359869  -0.0689778   0.1377373 SPIN=   0.00000
   O   0.0002588  -0.3126134   0.1357307 SPIN=   0.00000
   O  -0.3835703  -0.2023671   0.2430044 SPIN=   0.00000
   O   0.0944438  -0.0550953   0.4006009 SPIN=   0.00000
   S  -0.1062137  -0.1597634   0.2292683 SPIN=   0.00000
   O  -0.2737242  -0.2067151  -0.1377373 SPIN=   0.00000
   O  -0.1354719  -0.4483441  -0.1357307 SPIN=   0.00000
   O  -0.6265747  -0.4453715  -0.2430044 SPIN=   0.00000
   O  -0.3061571  -0.4556962  -0.4006009 SPIN=   0.00000
   S  -0.3354820  -0.3890317  -0.2292683 SPIN=   0.00000
   F  -0.3332659   0.1050921  -0.2152956 SPIN=   0.00000
   F  -0.1179703   0.3203877   0.2152956 SPIN=   0.00000
   F   0.1384414  -0.1810446  -0.2854267 SPIN=   0.00000
   F   0.4238681   0.1043821   0.2854267 SPIN=   0.00000
%ENDBLOCK POSITIONS_FRAC

# Note: total spin =  16.00

KPOINTS_MP_SPACING 0.07

%BLOCK SPECIES_POT
QC5
%ENDBLOCK SPECIES_POT

SNAP_TO_SYMMETRY
SYMMETRY_GENERATE

