#              Generated by Buildcell
#
# at 10:19:13 (GMT+1.0) 4th August 2020
# in /lustre/scratch/uccabz1/launch_tmp
# on node-c12g-005
# by uccabz1
#
# compiler GCC version 4.9.2
# options -cpp -iprefix /lustre/shared/ucl/apps/gcc/4.9.2/bin/../lib/gcc/x86_64-unknown-linux-gnu/4.9.2/ -mtune=corei7 -march=x86-64 -g -Og
#
# seed  1650626568   405411278   442951199  -494505299  1628751204   113026136  -702648311   136513578  -671420343  1864587921 -1554258572   223067695
#
#      Author: C. J. Pickard (cjp20@cam.ac.uk)
#                Space group: P-1
#

%BLOCK LATTICE_ABC
      7.34258      7.49930      8.42811
     73.65389     65.64958     74.79762
%ENDBLOCK LATTICE_ABC

%BLOCK POSITIONS_FRAC
  Li  -0.2233590  -0.1239502   0.3031292 SPIN=   0.00000
  Li   0.2233590   0.1239502  -0.3031292 SPIN=   0.00000
  Li   0.6381259   0.2475513  -0.1946824 SPIN=   0.00000
  Li  -0.6381259  -0.2475513   0.1946824 SPIN=   0.00000
  Fe  -0.0917568  -0.1509676  -0.0904511 SPIN=   2.07095
  Fe   0.0917568   0.1509676   0.0904511 SPIN=   2.07095
  Fe   0.4972179  -0.2492041  -0.2030465 SPIN=   5.92905
  Fe  -0.4972179   0.2492041   0.2030465 SPIN=   5.92905
   O   0.5062310   0.2145907  -0.4167536 SPIN=   0.00000
   O   0.7332312  -0.0945045  -0.4251063 SPIN=   0.00000
   O   0.8543620   0.1846387  -0.4266544 SPIN=   0.00000
   O   0.8008463   0.1618053  -0.6911370 SPIN=   0.00000
   S   0.7236676   0.1166326  -0.4899128 SPIN=   0.00000
   O  -0.5062310  -0.2145907   0.4167536 SPIN=   0.00000
   O  -0.7332312   0.0945045   0.4251063 SPIN=   0.00000
   O  -0.8543620  -0.1846387   0.4266544 SPIN=   0.00000
   O  -0.8008463  -0.1618053   0.6911370 SPIN=   0.00000
   S  -0.7236676  -0.1166326   0.4899128 SPIN=   0.00000
   O   0.0842447   0.4885029  -0.1419855 SPIN=   0.00000
   O  -0.1125374   0.2804154  -0.1640534 SPIN=   0.00000
   O   0.1334292   0.4396014  -0.4363797 SPIN=   0.00000
   O  -0.1856415   0.6254390  -0.2665427 SPIN=   0.00000
   S  -0.0201263   0.4584897  -0.2522403 SPIN=   0.00000
   O  -0.0842447  -0.4885029   0.1419855 SPIN=   0.00000
   O   0.1125374  -0.2804154   0.1640534 SPIN=   0.00000
   O  -0.1334292  -0.4396014   0.4363797 SPIN=   0.00000
   O   0.1856415  -0.6254390   0.2665427 SPIN=   0.00000
   S   0.0201263  -0.4584897   0.2522403 SPIN=   0.00000
   F   0.3013517  -0.0070174  -0.1042615 SPIN=   0.00000
   F  -0.3013517   0.0070174   0.1042615 SPIN=   0.00000
   F  -0.4918820  -0.4920028   0.2559757 SPIN=   0.00000
   F   0.4918820   0.4920028  -0.2559757 SPIN=   0.00000
%ENDBLOCK POSITIONS_FRAC

# Note: total spin =  16.00

KPOINTS_MP_SPACING 0.07

%BLOCK SPECIES_POT
QC5
%ENDBLOCK SPECIES_POT

SNAP_TO_SYMMETRY
SYMMETRY_GENERATE

