#              Generated by Buildcell
#
# at 07:09:30 (GMT+1.0) 18th August 2020
# in /lustre/scratch/uccabz1/launch_tmp
# on node-c12c-029
# by uccabz1
#
# compiler GCC version 4.9.2
# options -cpp -iprefix /lustre/shared/ucl/apps/gcc/4.9.2/bin/../lib/gcc/x86_64-unknown-linux-gnu/4.9.2/ -mtune=corei7 -march=x86-64 -g -Og
#
# seed -1748292495  -572527859  1366863133 -1620809677  2068997953  1155837302   252955557 -2142120799 -1753465716  -702236527 -1947990934  1251698710
#
#      Author: C. J. Pickard (cjp20@cam.ac.uk)
#                Space group: P21
#

%BLOCK LATTICE_ABC
      6.86367      7.77675      8.12454
     90.00000    112.72434     90.00000
%ENDBLOCK LATTICE_ABC

%BLOCK POSITIONS_FRAC
  Li   0.3284382   0.2536331   0.0769672 SPIN=   0.00000
  Li  -0.3284382  -0.2463669  -0.0769672 SPIN=   0.00000
  Li  -0.2828698   0.2624379  -0.1818137 SPIN=   0.00000
  Li   0.2828698  -0.2375621   0.1818137 SPIN=   0.00000
  Fe   0.0331449  -0.0115263  -0.1926241 SPIN=   2.38608
  Fe  -0.0331449   0.4884737   0.1926241 SPIN=   2.38608
  Fe   0.6795213   0.2667008   0.4385303 SPIN=   5.61392
  Fe  -0.6795213  -0.2332992  -0.4385303 SPIN=   5.61392
   O  -0.9005602   0.3235790  -0.4200989 SPIN=   0.00000
   O  -0.7877812   0.0406272  -0.4915279 SPIN=   0.00000
   O  -0.5911878   0.1757809  -0.1980494 SPIN=   0.00000
   O  -0.5687639   0.2987721  -0.4711362 SPIN=   0.00000
   S  -0.7120733   0.2096898  -0.3952031 SPIN=   0.00000
   O   0.9005602  -0.1764210   0.4200989 SPIN=   0.00000
   O   0.7877812  -0.4593728   0.4915279 SPIN=   0.00000
   O   0.5911878  -0.3242191   0.1980494 SPIN=   0.00000
   O   0.5687639  -0.2012279   0.4711362 SPIN=   0.00000
   S   0.7120733  -0.2903102   0.3952031 SPIN=   0.00000
   O  -0.0036738   0.2246424   0.1110448 SPIN=   0.00000
   O  -0.2911593   0.0184147  -0.0431199 SPIN=   0.00000
   O  -0.2302752   0.1164031   0.2626579 SPIN=   0.00000
   O   0.0266531  -0.0780213   0.2120608 SPIN=   0.00000
   S  -0.1246138   0.0703597   0.1356609 SPIN=   0.00000
   O   0.0036738  -0.2753576  -0.1110448 SPIN=   0.00000
   O   0.2911593  -0.4815853   0.0431199 SPIN=   0.00000
   O   0.2302752  -0.3835969  -0.2626579 SPIN=   0.00000
   O  -0.0266531  -0.5780213  -0.2120608 SPIN=   0.00000
   S   0.1246138  -0.4296403  -0.1356609 SPIN=   0.00000
   F  -0.3515037   0.4868556  -0.0824874 SPIN=   0.00000
   F   0.3515037  -0.0131444   0.0824874 SPIN=   0.00000
   F   0.1942539  -0.4036675   0.3625147 SPIN=   0.00000
   F  -0.1942539   0.0963325  -0.3625147 SPIN=   0.00000
%ENDBLOCK POSITIONS_FRAC

# Note: total spin =  16.00

KPOINTS_MP_SPACING 0.07

%BLOCK SPECIES_POT
QC5
%ENDBLOCK SPECIES_POT

SNAP_TO_SYMMETRY
SYMMETRY_GENERATE

