#              Generated by Buildcell
#
# at 06:17:36 (GMT+1.0) 4th August 2020
# in /lustre/scratch/uccabz1/launch_tmp
# on node-c12h-009
# by uccabz1
#
# compiler GCC version 4.9.2
# options -cpp -iprefix /lustre/shared/ucl/apps/gcc/4.9.2/bin/../lib/gcc/x86_64-unknown-linux-gnu/4.9.2/ -mtune=corei7 -march=x86-64 -g -Og
#
# seed   149128256 -1319898902 -2086869980 -1869119773 -1383395028  -216744497  1897028224  1181658566 -1409886098  2019497398  1866840515  -539247073
#
#      Author: C. J. Pickard (cjp20@cam.ac.uk)
#                Space group: C2
#

%BLOCK LATTICE_ABC
      5.71653      5.71653     12.99256
     78.32795     78.32795     77.26067
%ENDBLOCK LATTICE_ABC

%BLOCK POSITIONS_FRAC
  Li  -0.4122011  -0.1807537  -0.1505480 SPIN=   0.00000
  Li   0.1807537   0.4122011   0.1505480 SPIN=   0.00000
  Li   0.1898352  -0.2265117  -0.3490796 SPIN=   0.00000
  Li   0.2265117  -0.1898352   0.3490796 SPIN=   0.00000
  Fe  -0.0676890   0.0220666   0.1469213 SPIN=   5.98175
  Fe  -0.0220666   0.0676890  -0.1469213 SPIN=   5.98175
  Fe   0.4953788   0.2863353  -0.3387446 SPIN=   2.01825
  Fe  -0.2863353  -0.4953788   0.3387446 SPIN=   2.01825
   O   0.3824159   0.4173404   0.4092534 SPIN=   0.00000
   O   0.0208269   0.2782092   0.3837006 SPIN=   0.00000
   O   0.1357914   0.2016813   0.5629118 SPIN=   0.00000
   O   0.3894497  -0.0220831   0.4224525 SPIN=   0.00000
   S   0.2321210   0.2187869   0.4445796 SPIN=   0.00000
   O  -0.4173404  -0.3824159  -0.4092534 SPIN=   0.00000
   O  -0.2782092  -0.0208269  -0.3837006 SPIN=   0.00000
   O  -0.2016813  -0.1357914  -0.5629118 SPIN=   0.00000
   O   0.0220831  -0.3894497  -0.4224525 SPIN=   0.00000
   S  -0.2187869  -0.2321210  -0.4445796 SPIN=   0.00000
   O   0.2363203   0.0332738  -0.0246663 SPIN=   0.00000
   O   0.3135011   0.4269738  -0.0011011 SPIN=   0.00000
   O   0.4262119   0.3003227  -0.1785777 SPIN=   0.00000
   O   0.6580618   0.0882747  -0.0341416 SPIN=   0.00000
   S   0.4085238   0.2122112  -0.0596217 SPIN=   0.00000
   O  -0.0332738  -0.2363203   0.0246663 SPIN=   0.00000
   O  -0.4269738  -0.3135011   0.0011011 SPIN=   0.00000
   O  -0.3003227  -0.4262119   0.1785777 SPIN=   0.00000
   O  -0.0882747  -0.6580618   0.0341416 SPIN=   0.00000
   S  -0.2122112  -0.4085238   0.0596217 SPIN=   0.00000
   F   0.2934802  -0.1192101  -0.2373541 SPIN=   0.00000
   F   0.1192101  -0.2934802   0.2373541 SPIN=   0.00000
   F  -0.4457784   0.0801224   0.1981408 SPIN=   0.00000
   F  -0.0801224   0.4457784  -0.1981408 SPIN=   0.00000
%ENDBLOCK POSITIONS_FRAC

# Note: total spin =  16.00

KPOINTS_MP_SPACING 0.07

%BLOCK SPECIES_POT
QC5
%ENDBLOCK SPECIES_POT

SNAP_TO_SYMMETRY
SYMMETRY_GENERATE

