#              Generated by Buildcell
#
# at 06:47:55 (GMT+1.0) 4th August 2020
# in /lustre/scratch/uccabz1/launch_tmp
# on node-c12n-018
# by uccabz1
#
# compiler GCC version 4.9.2
# options -cpp -iprefix /lustre/shared/ucl/apps/gcc/4.9.2/bin/../lib/gcc/x86_64-unknown-linux-gnu/4.9.2/ -mtune=corei7 -march=x86-64 -g -Og
#
# seed  -898539192  -219951448  -545821449   888406764  -740013853   847273672  2146610840   -10113225   274541980   476960747 -1861604808 -1904109373
#
#      Author: C. J. Pickard (cjp20@cam.ac.uk)
#                Space group: P2
#

%BLOCK LATTICE_ABC
      6.41470      6.77231      9.43529
    102.61253     90.00000     90.00000
%ENDBLOCK LATTICE_ABC

%BLOCK POSITIONS_FRAC
  Li  -0.1134375  -0.0126096   0.3113157 SPIN=   0.00000
  Li  -0.1134375   0.0126096  -0.3113157 SPIN=   0.00000
  Li   0.4457121  -0.3512036   0.3683942 SPIN=   0.00000
  Li   0.4457121   0.3512036  -0.3683942 SPIN=   0.00000
  Fe   0.0095039   0.4807022   0.3070052 SPIN=   2.75662
  Fe   0.0095039  -0.4807022  -0.3070052 SPIN=   2.75662
  Fe   0.3760129   0.0857512   0.3342032 SPIN=   5.24338
  Fe   0.3760129  -0.0857512  -0.3342032 SPIN=   5.24338
   O  -0.2164668  -0.4507534  -0.1043565 SPIN=   0.00000
   O  -0.4696109  -0.2064797   0.0334592 SPIN=   0.00000
   O  -0.5483151  -0.3836647  -0.2191113 SPIN=   0.00000
   O  -0.2734184  -0.1211006  -0.1709517 SPIN=   0.00000
   S  -0.3769528  -0.2904996  -0.1152401 SPIN=   0.00000
   O  -0.2164668   0.4507534   0.1043565 SPIN=   0.00000
   O  -0.4696109   0.2064797  -0.0334592 SPIN=   0.00000
   O  -0.5483151   0.3836647   0.2191113 SPIN=   0.00000
   O  -0.2734184   0.1211006   0.1709517 SPIN=   0.00000
   S  -0.3769528   0.2904996   0.1152401 SPIN=   0.00000
   O   0.2149927   0.3322691  -0.2070543 SPIN=   0.00000
   O   0.2042514   0.3178550   0.0526903 SPIN=   0.00000
   O   0.1846501   0.0019293  -0.1370212 SPIN=   0.00000
   O  -0.1127131   0.2405219  -0.0988218 SPIN=   0.00000
   S   0.1227953   0.2231438  -0.0975517 SPIN=   0.00000
   O   0.2149927  -0.3322691   0.2070543 SPIN=   0.00000
   O   0.2042514  -0.3178550  -0.0526903 SPIN=   0.00000
   O   0.1846501  -0.0019293   0.1370212 SPIN=   0.00000
   O  -0.1127131  -0.2405219   0.0988218 SPIN=   0.00000
   S   0.1227953  -0.2231438   0.0975517 SPIN=   0.00000
   F   0.0866432   0.2207245   0.3995422 SPIN=   0.00000
   F   0.0866432  -0.2207245  -0.3995422 SPIN=   0.00000
   F  -0.3797740   0.1545557  -0.3029332 SPIN=   0.00000
   F  -0.3797740  -0.1545557   0.3029332 SPIN=   0.00000
%ENDBLOCK POSITIONS_FRAC

# Note: total spin =  16.00

KPOINTS_MP_SPACING 0.07

%BLOCK SPECIES_POT
QC5
%ENDBLOCK SPECIES_POT

SNAP_TO_SYMMETRY
SYMMETRY_GENERATE

