#              Generated by Buildcell
#
# at 16:17:27 (GMT+1.0) 18th August 2020
# in /lustre/scratch/uccabz1/launch_tmp
# on node-c12b-025
# by uccabz1
#
# compiler GCC version 4.9.2
# options -cpp -iprefix /lustre/shared/ucl/apps/gcc/4.9.2/bin/../lib/gcc/x86_64-unknown-linux-gnu/4.9.2/ -mtune=corei7 -march=x86-64 -g -Og
#
# seed  1776226179  -332354424   545713019  -550689463  -495612912 -1218085005  -910680706  -865560806   553035518  -163851628  1073010402  1506557563
#
#      Author: C. J. Pickard (cjp20@cam.ac.uk)
#                Space group: P21212
#

%BLOCK LATTICE_ABC
      6.49728      7.73856      7.95551
     90.00000     90.00000     90.00000
%ENDBLOCK LATTICE_ABC

%BLOCK POSITIONS_FRAC
  Li  -0.1938392   0.2630092  -0.2450862 SPIN=   0.00000
  Li  -0.1938392  -0.2630092   0.2450862 SPIN=   0.00000
  Li   0.1938392  -0.2369908  -0.2549138 SPIN=   0.00000
  Li   0.1938392   0.2369908   0.2549138 SPIN=   0.00000
  Fe  -0.0112529   0.0000000  -0.0000000 SPIN=   3.45209
  Fe   0.0112529  -0.5000000   0.5000000 SPIN=   3.45209
  Fe   0.0330004  -0.5000000  -0.0000000 SPIN=   4.54791
  Fe  -0.0330004  -0.0000000   0.5000000 SPIN=   4.54791
   O   0.3259463  -0.3614418  -0.0496682 SPIN=   0.00000
   O   0.6949351  -0.2976921  -0.0036576 SPIN=   0.00000
   O   0.4479294  -0.2716590   0.2317999 SPIN=   0.00000
   S   0.4771389  -0.2477664   0.0442313 SPIN=   0.00000
   O   0.3259463   0.3614418   0.0496682 SPIN=   0.00000
   O   0.6949351   0.2976921   0.0036576 SPIN=   0.00000
   O   0.4479294   0.2716590  -0.2317999 SPIN=   0.00000
   S   0.4771389   0.2477664  -0.0442313 SPIN=   0.00000
   O  -0.3259463   0.1385582   0.5496682 SPIN=   0.00000
   O  -0.6949351   0.2023079   0.5036576 SPIN=   0.00000
   O  -0.4479294   0.2283410   0.2682001 SPIN=   0.00000
   S  -0.4771389   0.2522336   0.4557687 SPIN=   0.00000
   O  -0.3259463  -0.1385582  -0.5496682 SPIN=   0.00000
   O  -0.6949351  -0.2023079  -0.5036576 SPIN=   0.00000
   O  -0.4479294  -0.2283410  -0.2682001 SPIN=   0.00000
   S  -0.4771389  -0.2522336  -0.4557687 SPIN=   0.00000
   O   0.3281647   0.0000000  -0.0000000 SPIN=   0.00000
   O  -0.3281647  -0.5000000   0.5000000 SPIN=   0.00000
   O  -0.3203012  -0.0000000   0.0000000 SPIN=   0.00000
   O   0.3203012  -0.5000000  -0.5000000 SPIN=   0.00000
   F  -0.0283386  -0.4313466  -0.2485048 SPIN=   0.00000
   F  -0.0283386   0.4313466   0.2485048 SPIN=   0.00000
   F   0.0283386   0.0686534  -0.2514952 SPIN=   0.00000
   F   0.0283386  -0.0686534   0.2514952 SPIN=   0.00000
%ENDBLOCK POSITIONS_FRAC

# Note: total spin =  16.00

KPOINTS_MP_SPACING 0.07

%BLOCK SPECIES_POT
QC5
%ENDBLOCK SPECIES_POT

SNAP_TO_SYMMETRY
SYMMETRY_GENERATE

