#              Generated by Buildcell
#
# at 22:58:39 (GMT+1.0) 17th August 2020
# in /lustre/scratch/uccabz1/launch_tmp
# on node-c12b-010
# by uccabz1
#
# compiler GCC version 4.9.2
# options -cpp -iprefix /lustre/shared/ucl/apps/gcc/4.9.2/bin/../lib/gcc/x86_64-unknown-linux-gnu/4.9.2/ -mtune=corei7 -march=x86-64 -g -Og
#
# seed  -437400348   977815965  -484967038  -401162563   699329989  1746671943   377204039   700941753  2102778260 -1643435796   496710603  1842134796
#
#      Author: C. J. Pickard (cjp20@cam.ac.uk)
#                Space group: Cc
#

%BLOCK LATTICE_ABC
      6.08001      8.39407      8.39407
     69.67210     85.64973     85.64973
%ENDBLOCK LATTICE_ABC

%BLOCK POSITIONS_FRAC
  Li  -0.2678098  -0.4470029   0.3417946 SPIN=   0.00000
  Li   0.2321902   0.3417946  -0.4470029 SPIN=   0.00000
  Li   0.1748832   0.0365760   0.3419037 SPIN=   0.00000
  Li  -0.3251168   0.3419037   0.0365760 SPIN=   0.00000
  Fe  -0.0192077  -0.4589673  -0.2522250 SPIN=   3.33313
  Fe   0.4807923  -0.2522250  -0.4589673 SPIN=   3.33313
  Fe   0.0752994  -0.1986764   0.1614507 SPIN=   4.66687
  Fe  -0.4247006   0.1614507  -0.1986764 SPIN=   4.66687
   O  -0.3418342  -0.4105248  -0.1219491 SPIN=   0.00000
   O  -0.3711152  -0.1046530  -0.1569106 SPIN=   0.00000
   O  -0.1902457  -0.3123761   0.0913687 SPIN=   0.00000
   O  -0.5947972  -0.3082724   0.0713940 SPIN=   0.00000
   S  -0.3744981  -0.2839566  -0.0290242 SPIN=   0.00000
   O   0.1581658  -0.1219491  -0.4105248 SPIN=   0.00000
   O   0.1288848  -0.1569106  -0.1046530 SPIN=   0.00000
   O   0.3097543   0.0913687  -0.3123761 SPIN=   0.00000
   O  -0.0947972   0.0713940  -0.3082724 SPIN=   0.00000
   S   0.1255019  -0.0290242  -0.2839566 SPIN=   0.00000
   O  -0.4715094   0.2954888   0.4390049 SPIN=   0.00000
   O  -0.4119759   0.1349974   0.2402594 SPIN=   0.00000
   O  -0.4032808  -0.0172147   0.5507504 SPIN=   0.00000
   O  -0.1006931   0.1675354   0.3982059 SPIN=   0.00000
   S  -0.3468648   0.1452017   0.4070551 SPIN=   0.00000
   O   0.0284906   0.4390049   0.2954888 SPIN=   0.00000
   O   0.0880241   0.2402594   0.1349974 SPIN=   0.00000
   O   0.0967192   0.5507504  -0.0172147 SPIN=   0.00000
   O   0.3993069   0.3982059   0.1675354 SPIN=   0.00000
   S   0.1531352   0.4070551   0.1452017 SPIN=   0.00000
   F   0.3043872   0.4729824  -0.2754532 SPIN=   0.00000
   F  -0.1956128  -0.2754532   0.4729824 SPIN=   0.00000
   F   0.3111220  -0.0616534   0.1906642 SPIN=   0.00000
   F  -0.1888780   0.1906642  -0.0616534 SPIN=   0.00000
%ENDBLOCK POSITIONS_FRAC

# Note: total spin =  16.00

KPOINTS_MP_SPACING 0.07

%BLOCK SPECIES_POT
QC5
%ENDBLOCK SPECIES_POT

SNAP_TO_SYMMETRY
SYMMETRY_GENERATE

