#              Generated by Buildcell
#
# at 08:50:58 (GMT+1.0) 18th August 2020
# in /lustre/scratch/uccabz1/launch_tmp
# on node-c12n-011
# by uccabz1
#
# compiler GCC version 4.9.2
# options -cpp -iprefix /lustre/shared/ucl/apps/gcc/4.9.2/bin/../lib/gcc/x86_64-unknown-linux-gnu/4.9.2/ -mtune=corei7 -march=x86-64 -g -Og
#
# seed  -833692039   288543776  -519384554   412617090  1466771782 -1340902441 -1543501686  1888242290  -592038066 -1330882688   683531046   564407237
#
#      Author: C. J. Pickard (cjp20@cam.ac.uk)
#                Space group: P-1
#

%BLOCK LATTICE_ABC
      5.02077      9.03519      9.27194
    103.57962    100.34524     93.31402
%ENDBLOCK LATTICE_ABC

%BLOCK POSITIONS_FRAC
  Li   0.0124419   0.3483427   0.0925440 SPIN=   0.00000
  Li  -0.0124419  -0.3483427  -0.0925440 SPIN=   0.00000
  Li  -0.4264947   0.0413119   0.2022679 SPIN=   0.00000
  Li   0.4264947  -0.0413119  -0.2022679 SPIN=   0.00000
  Fe   0.2268174   0.3102417  -0.3928096 SPIN=   3.96936
  Fe  -0.2268174  -0.3102417   0.3928096 SPIN=   3.96936
  Fe   0.0000000  -0.0000000  -0.0000000 SPIN=   5.89297
  Fe  -0.5000000  -0.5000000   0.0000000 SPIN=   2.16831
   O   0.3056698  -0.4932742  -0.4588063 SPIN=   0.00000
   O   0.6290445  -0.3070328  -0.2551119 SPIN=   0.00000
   O   0.1362436  -0.2774151  -0.2938486 SPIN=   0.00000
   O   0.4024124  -0.2288249  -0.4813233 SPIN=   0.00000
   S   0.3683426  -0.3266367  -0.3722725 SPIN=   0.00000
   O  -0.3056698   0.4932742   0.4588063 SPIN=   0.00000
   O  -0.6290445   0.3070328   0.2551119 SPIN=   0.00000
   O  -0.1362436   0.2774151   0.2938486 SPIN=   0.00000
   O  -0.4024124   0.2288249   0.4813233 SPIN=   0.00000
   S  -0.3683426   0.3266367   0.3722725 SPIN=   0.00000
   O   0.0364425  -0.1207901   0.4346030 SPIN=   0.00000
   O   0.0817264  -0.1310474   0.1711009 SPIN=   0.00000
   O   0.4905229  -0.0703520   0.3768502 SPIN=   0.00000
   O   0.1538259   0.1177886   0.3619645 SPIN=   0.00000
   S   0.1906294  -0.0511002   0.3361296 SPIN=   0.00000
   O  -0.0364425   0.1207901  -0.4346030 SPIN=   0.00000
   O  -0.0817264   0.1310474  -0.1711009 SPIN=   0.00000
   O  -0.4905229   0.0703520  -0.3768502 SPIN=   0.00000
   O  -0.1538259  -0.1177886  -0.3619645 SPIN=   0.00000
   S  -0.1906294   0.0511002  -0.3361296 SPIN=   0.00000
   F  -0.4281101  -0.2055542   0.0417254 SPIN=   0.00000
   F   0.4281101   0.2055542  -0.0417254 SPIN=   0.00000
   F  -0.1055336   0.4621987  -0.2277108 SPIN=   0.00000
   F   0.1055336  -0.4621987   0.2277108 SPIN=   0.00000
%ENDBLOCK POSITIONS_FRAC

# Note: total spin =  16.00

KPOINTS_MP_SPACING 0.07

%BLOCK SPECIES_POT
QC5
%ENDBLOCK SPECIES_POT

SNAP_TO_SYMMETRY
SYMMETRY_GENERATE

