#              Generated by Buildcell
#
# at 07:06:57 (GMT+1.0) 4th August 2020
# in /lustre/scratch/uccabz1/launch_tmp
# on node-c12f-021
# by uccabz1
#
# compiler GCC version 4.9.2
# options -cpp -iprefix /lustre/shared/ucl/apps/gcc/4.9.2/bin/../lib/gcc/x86_64-unknown-linux-gnu/4.9.2/ -mtune=corei7 -march=x86-64 -g -Og
#
# seed  -624319673   463173839  -233716214   100223010  -838422671  -132101185   803430093   263486436    49601394  -824200887  -391333244    15258688
#
#      Author: C. J. Pickard (cjp20@cam.ac.uk)
#                Space group: Pm
#

%BLOCK LATTICE_ABC
      4.04574      7.24939     13.77674
     90.00000     90.00000     98.12991
%ENDBLOCK LATTICE_ABC

%BLOCK POSITIONS_FRAC
  Li  -0.2265781  -0.2979961  -0.1333282 SPIN=   0.00000
  Li  -0.2265781  -0.2979961   0.1333282 SPIN=   0.00000
  Li   0.0007670  -0.4858569   0.3666718 SPIN=   0.00000
  Li   0.0007670  -0.4858569  -0.3666718 SPIN=   0.00000
  Fe   0.1591346   0.1278713   0.3653888 SPIN=   4.90533
  Fe   0.1591346   0.1278713  -0.3653888 SPIN=   4.90533
  Fe  -0.3849458   0.0882757  -0.1346112 SPIN=   3.09467
  Fe  -0.3849458   0.0882757   0.1346112 SPIN=   3.09467
   O  -0.5532187  -0.4100323  -0.4089874 SPIN=   0.00000
   O  -0.0518348  -0.1983603  -0.3558451 SPIN=   0.00000
   O  -0.5616411  -0.2370755  -0.2543320 SPIN=   0.00000
   O  -0.5540948  -0.0687282  -0.4107747 SPIN=   0.00000
   S  -0.4301973  -0.2285491  -0.3574848 SPIN=   0.00000
   O  -0.5532187  -0.4100323   0.4089874 SPIN=   0.00000
   O  -0.0518348  -0.1983603   0.3558451 SPIN=   0.00000
   O  -0.5616411  -0.2370755   0.2543320 SPIN=   0.00000
   O  -0.5540948  -0.0687282   0.4107747 SPIN=   0.00000
   S  -0.4301973  -0.2285491   0.3574848 SPIN=   0.00000
   O  -0.1739764   0.4145073   0.1441549 SPIN=   0.00000
   O   0.3274076   0.6261793   0.0910126 SPIN=   0.00000
   O   0.3282836   0.2848752   0.0892253 SPIN=   0.00000
   O   0.3358300   0.4532224   0.2456680 SPIN=   0.00000
   S   0.2043862   0.4446961   0.1425152 SPIN=   0.00000
   O  -0.1739764   0.4145073  -0.1441549 SPIN=   0.00000
   O   0.3274076   0.6261793  -0.0910126 SPIN=   0.00000
   O   0.3282836   0.2848752  -0.0892253 SPIN=   0.00000
   O   0.3358300   0.4532224  -0.2456680 SPIN=   0.00000
   S   0.2043862   0.4446961  -0.1425152 SPIN=   0.00000
   F   0.0545149  -0.0598736   0.1468608 SPIN=   0.00000
   F   0.0545149  -0.0598736  -0.1468608 SPIN=   0.00000
   F  -0.2803261   0.2760206  -0.3531392 SPIN=   0.00000
   F  -0.2803261   0.2760206   0.3531392 SPIN=   0.00000
%ENDBLOCK POSITIONS_FRAC

# Note: total spin =  16.00

KPOINTS_MP_SPACING 0.07

%BLOCK SPECIES_POT
QC5
%ENDBLOCK SPECIES_POT

SNAP_TO_SYMMETRY
SYMMETRY_GENERATE

