#              Generated by Buildcell
#
# at 01:16:47 (GMT+1.0) 18th August 2020
# in /lustre/scratch/uccabz1/launch_tmp
# on node-c12b-022
# by uccabz1
#
# compiler GCC version 4.9.2
# options -cpp -iprefix /lustre/shared/ucl/apps/gcc/4.9.2/bin/../lib/gcc/x86_64-unknown-linux-gnu/4.9.2/ -mtune=corei7 -march=x86-64 -g -Og
#
# seed -2002231969 -1503063465  -860657808  1461143525  -572910305   370783724   974799688   409824210  1651684746   738531542 -1907996845  -741195895
#
#      Author: C. J. Pickard (cjp20@cam.ac.uk)
#                Space group: Cc
#

%BLOCK LATTICE_ABC
      6.84625      8.17100      8.72416
    113.08960    107.54861    101.18738
%ENDBLOCK LATTICE_ABC

%BLOCK POSITIONS_FRAC
  Li  -0.1975522   0.1038241  -0.1080037 SPIN=   0.00000
  Li   0.4104515   0.2118278   0.1080037 SPIN=   0.00000
  Li  -0.2305498  -0.0285991   0.3023756 SPIN=   0.00000
  Li  -0.0329254  -0.3309747  -0.3023756 SPIN=   0.00000
  Fe   0.0594296  -0.0791217   0.1001243 SPIN=   2.24983
  Fe  -0.5406947  -0.1792460  -0.1001243 SPIN=   2.24983
  Fe   0.3933512   0.0398225  -0.4152079 SPIN=   5.75017
  Fe   0.3085590   0.4550303   0.4152079 SPIN=   5.75017
   O  -0.2425043   0.0079124  -0.3606309 SPIN=   0.00000
   O   0.1165376  -0.0009720  -0.3612943 SPIN=   0.00000
   O   0.0948199   0.2895575  -0.1386459 SPIN=   0.00000
   O  -0.0511832   0.1986406  -0.4683075 SPIN=   0.00000
   S  -0.0205825   0.1237846  -0.3322197 SPIN=   0.00000
   O   0.6181265   0.3685432   0.3606309 SPIN=   0.00000
   O   0.9778319   0.3603223   0.3612943 SPIN=   0.00000
   O   0.7334659   0.4282034   0.1386459 SPIN=   0.00000
   O   0.9171243   0.6669481   0.4683075 SPIN=   0.00000
   S   0.8116372   0.4560043   0.3322197 SPIN=   0.00000
   O  -0.6201882  -0.0889938  -0.7053562 SPIN=   0.00000
   O  -0.8274208  -0.4352117  -0.8618386 SPIN=   0.00000
   O  -0.4494804  -0.2994655  -0.6206764 SPIN=   0.00000
   O  -0.5131238  -0.3147329  -0.9214859 SPIN=   0.00000
   S  -0.6025533  -0.2846010  -0.7773393 SPIN=   0.00000
   O   0.5851680   0.6163625   0.7053562 SPIN=   0.00000
   O   0.5344178   0.4266269   0.8618386 SPIN=   0.00000
   O   0.6711960   0.3212109   0.6206764 SPIN=   0.00000
   O   0.9083622   0.6067530   0.9214859 SPIN=   0.00000
   S   0.6747860   0.4927383   0.7773393 SPIN=   0.00000
   F   0.5224747   0.1047324  -0.1523310 SPIN=   0.00000
   F   0.1748057   0.2570634   0.1523310 SPIN=   0.00000
   F  -0.0655066  -0.1755931   0.2396178 SPIN=   0.00000
   F  -0.8051243  -0.4152109  -0.2396178 SPIN=   0.00000
%ENDBLOCK POSITIONS_FRAC

# Note: total spin =  16.00

KPOINTS_MP_SPACING 0.07

%BLOCK SPECIES_POT
QC5
%ENDBLOCK SPECIES_POT

SNAP_TO_SYMMETRY
SYMMETRY_GENERATE

