#              Generated by Buildcell
#
# at 03:23:23 (GMT+1.0) 18th August 2020
# in /lustre/scratch/uccabz1/launch_tmp
# on node-c12e-014
# by uccabz1
#
# compiler GCC version 4.9.2
# options -cpp -iprefix /lustre/shared/ucl/apps/gcc/4.9.2/bin/../lib/gcc/x86_64-unknown-linux-gnu/4.9.2/ -mtune=corei7 -march=x86-64 -g -Og
#
# seed  1414174172 -1175239278 -1006822781 -1014891470   -23690073 -1408429812  1473409699  1389902420  1335728356  -112129006   322868804  -422652864
#
#      Author: C. J. Pickard (cjp20@cam.ac.uk)
#                Space group: Cc
#

%BLOCK LATTICE_ABC
      3.95598      6.19041     17.42874
     98.04913     90.00000    108.63421
%ENDBLOCK LATTICE_ABC

%BLOCK POSITIONS_FRAC
  Li   0.3431775  -0.8280694  -0.4826798 SPIN=   0.00000
  Li  -0.1712470   0.1719306   0.0173202 SPIN=   0.00000
  Li  -0.4183194   0.6108884   0.3721095 SPIN=   0.00000
  Li   0.0292077  -0.3891116  -0.1278905 SPIN=   0.00000
  Fe   0.2898764   0.1117007  -0.1509313 SPIN=   5.61834
  Fe  -0.1781757   0.1117007   0.3490687 SPIN=   5.61834
  Fe  -0.0874587   0.4651668   0.1856942 SPIN=   2.38166
  Fe  -0.4473745  -0.5348332  -0.3143058 SPIN=   2.38166
   O  -0.2328735  -0.1849538   0.0063374 SPIN=   0.00000
   O  -0.8730898  -0.4179078  -0.0009087 SPIN=   0.00000
   O  -0.4226716  -0.5648363   0.0520506 SPIN=   0.00000
   O  -0.4556510  -0.5424288  -0.0882835 SPIN=   0.00000
   S  -0.4960715  -0.4275317  -0.0077010 SPIN=   0.00000
   O   0.0479197   0.8150462   0.5063374 SPIN=   0.00000
   O   0.4551820   0.5820922   0.4990913 SPIN=   0.00000
   O  -0.1421647   0.4351637   0.5520506 SPIN=   0.00000
   O  -0.0867777   0.4575712   0.4117165 SPIN=   0.00000
   S   0.0685398   0.5724683   0.4922990 SPIN=   0.00000
   O   0.1099056   0.1913211   0.1755742 SPIN=   0.00000
   O   0.5216976  -0.0337851   0.1839855 SPIN=   0.00000
   O   0.3371224   0.0317647   0.0558914 SPIN=   0.00000
   O  -0.0987516  -0.2294318   0.1312371 SPIN=   0.00000
   S   0.2174935  -0.0100328   0.1366720 SPIN=   0.00000
   O   0.0814155   0.1913211  -0.3244258 SPIN=   0.00000
   O  -0.5554827  -0.0337851  -0.3160145 SPIN=   0.00000
   O  -0.3053576   0.0317647  -0.4441086 SPIN=   0.00000
   O  -0.1306803  -0.2294318  -0.3687629 SPIN=   0.00000
   S  -0.2275263  -0.0100328  -0.3633280 SPIN=   0.00000
   F  -0.2384623   0.0831189  -0.1145607 SPIN=   0.00000
   F   0.3215812   0.0831189   0.3854393 SPIN=   0.00000
   F   0.0147780  -0.4169931  -0.2475341 SPIN=   0.00000
   F  -0.4317711   0.5830069   0.2524659 SPIN=   0.00000
%ENDBLOCK POSITIONS_FRAC

# Note: total spin =  16.00

KPOINTS_MP_SPACING 0.07

%BLOCK SPECIES_POT
QC5
%ENDBLOCK SPECIES_POT

SNAP_TO_SYMMETRY
SYMMETRY_GENERATE

