#              Generated by Buildcell
#
# at 05:49:32 (GMT+1.0) 18th August 2020
# in /scratch/scratch/uccabz1/launch_tmp
# on node-k10b-027
# by uccabz1
#
# compiler GCC version 4.9.2
# options -cpp -iprefix /scratch/UCL/applications/gcc/4.9.2/bin/../lib/gcc/x86_64-unknown-linux-gnu/4.9.2/ -mtune=corei7 -march=x86-64 -g -O2
#
# seed  1862651527 -1947588075  1281057625  1938676251  -513370230   622566433   889405134 -1384281865  -467678578    18432662   844380659  -753909507
#
#      Author: C. J. Pickard (cjp20@cam.ac.uk)
#                Space group: C2
#

%BLOCK LATTICE_ABC
      7.51378      7.51921      8.35764
     84.00865     77.94166     60.02392
%ENDBLOCK LATTICE_ABC

%BLOCK POSITIONS_FRAC
  Li   0.2320131   0.0568904  -0.0539660 SPIN=   0.00000
  Li  -0.2889034   0.0568904   0.0539660 SPIN=   0.00000
  Li  -0.3834916   0.2234326  -0.4143826 SPIN=   0.00000
  Li   0.1600590   0.2234326   0.4143826 SPIN=   0.00000
  Fe  -0.4641174  -0.1846102   0.2827243 SPIN=   6.78199
  Fe  -0.3512724  -0.1846102  -0.2827243 SPIN=   6.78199
  Fe   0.2686936  -0.3403900  -0.3218846 SPIN=   1.21801
  Fe   0.0716964  -0.3403900   0.3218846 SPIN=   1.21801
   O   0.4935080  -0.6484782  -0.0086803 SPIN=   0.00000
   O   0.6199388  -0.4587703   0.1170275 SPIN=   0.00000
   O   0.2452094  -0.2990546   0.1018095 SPIN=   0.00000
   O   0.5055588  -0.3477226  -0.1503430 SPIN=   0.00000
   S   0.4660538  -0.4385064   0.0149534 SPIN=   0.00000
   O   0.1549702  -0.6484782   0.0086803 SPIN=   0.00000
   O  -0.1611685  -0.4587703  -0.1170275 SPIN=   0.00000
   O   0.0538452  -0.2990546  -0.1018095 SPIN=   0.00000
   O  -0.1578362  -0.3477226   0.1503430 SPIN=   0.00000
   S  -0.0275473  -0.4385064  -0.0149534 SPIN=   0.00000
   O   0.1007698   0.0191126  -0.4249388 SPIN=   0.00000
   O   0.1147095   0.2588202  -0.2527048 SPIN=   0.00000
   O  -0.0519877   0.0517763  -0.1297741 SPIN=   0.00000
   O  -0.2227789   0.3361458  -0.3191836 SPIN=   0.00000
   S  -0.0148218   0.1664637  -0.2816503 SPIN=   0.00000
   O  -0.1198824   0.0191126   0.4249388 SPIN=   0.00000
   O  -0.3735297   0.2588202   0.2527048 SPIN=   0.00000
   O   0.0002113   0.0517763   0.1297741 SPIN=   0.00000
   O  -0.1133669   0.3361458   0.3191836 SPIN=   0.00000
   S  -0.1516419   0.1664637   0.2816503 SPIN=   0.00000
   F  -0.0846289  -0.3370742  -0.4485374 SPIN=   0.00000
   F   0.4217031  -0.3370742   0.4485374 SPIN=   0.00000
   F   0.3655388   0.1418565   0.2306690 SPIN=   0.00000
   F   0.4926046   0.1418565  -0.2306690 SPIN=   0.00000
%ENDBLOCK POSITIONS_FRAC

# Note: total spin =  16.00

KPOINTS_MP_SPACING 0.07

%BLOCK SPECIES_POT
QC5
%ENDBLOCK SPECIES_POT

SNAP_TO_SYMMETRY
SYMMETRY_GENERATE

