#              Generated by Buildcell
#
# at 03:14:19 (GMT+1.0) 18th August 2020
# in /scratch/scratch/uccabz1/launch_tmp
# on node-k10e-030
# by uccabz1
#
# compiler GCC version 4.9.2
# options -cpp -iprefix /scratch/UCL/applications/gcc/4.9.2/bin/../lib/gcc/x86_64-unknown-linux-gnu/4.9.2/ -mtune=corei7 -march=x86-64 -g -O2
#
# seed -1573147210  1423412984  2001406531  -631058603 -1358072018  1872943507  1331591230  -305242093   697736115  1238911565  1337719137  -870430594
#
#      Author: C. J. Pickard (cjp20@cam.ac.uk)
#                Space group: P21212
#

%BLOCK LATTICE_ABC
      3.93925     10.04319     10.11054
     90.00000     90.00000     90.00000
%ENDBLOCK LATTICE_ABC

%BLOCK POSITIONS_FRAC
  Li   0.3603901   0.2273739   0.1878933 SPIN=   0.00000
  Li   0.3603901  -0.2273739  -0.1878933 SPIN=   0.00000
  Li  -0.3603901  -0.2726261   0.3121067 SPIN=   0.00000
  Li  -0.3603901   0.2726261  -0.3121067 SPIN=   0.00000
  Fe  -0.1396259  -0.3210403   0.0252139 SPIN=   4.00000
  Fe  -0.1396259   0.3210403  -0.0252139 SPIN=   4.00000
  Fe   0.1396259   0.1789597   0.4747861 SPIN=   4.00000
  Fe   0.1396259  -0.1789597  -0.4747861 SPIN=   4.00000
   O   0.0906535  -0.3743980   0.2892180 SPIN=   0.00000
   O   0.0864512  -0.6206049   0.2791005 SPIN=   0.00000
   O   0.6064884  -0.5015605   0.3489673 SPIN=   0.00000
   O   0.4182876  -0.4913494   0.1156470 SPIN=   0.00000
   S   0.3004702  -0.4969782   0.2582332 SPIN=   0.00000
   O   0.0906535   0.3743980  -0.2892180 SPIN=   0.00000
   O   0.0864512   0.6206049  -0.2791005 SPIN=   0.00000
   O   0.6064884   0.5015605  -0.3489673 SPIN=   0.00000
   O   0.4182876   0.4913494  -0.1156470 SPIN=   0.00000
   S   0.3004702   0.4969782  -0.2582332 SPIN=   0.00000
   O  -0.0906535   0.1256020   0.2107820 SPIN=   0.00000
   O  -0.0864512  -0.1206049   0.2208995 SPIN=   0.00000
   O  -0.6064884  -0.0015605   0.1510327 SPIN=   0.00000
   O  -0.4182876   0.0086506   0.3843530 SPIN=   0.00000
   S  -0.3004702   0.0030218   0.2417668 SPIN=   0.00000
   O  -0.0906535  -0.1256020  -0.2107820 SPIN=   0.00000
   O  -0.0864512   0.1206049  -0.2208995 SPIN=   0.00000
   O  -0.6064884   0.0015605  -0.1510327 SPIN=   0.00000
   O  -0.4182876  -0.0086506  -0.3843530 SPIN=   0.00000
   S  -0.3004702  -0.0030218  -0.2417668 SPIN=   0.00000
   F   0.3603717   0.2374129  -0.0029258 SPIN=   0.00000
   F   0.3603717  -0.2374129   0.0029258 SPIN=   0.00000
   F  -0.3603717  -0.2625871  -0.4970742 SPIN=   0.00000
   F  -0.3603717   0.2625871   0.4970742 SPIN=   0.00000
%ENDBLOCK POSITIONS_FRAC

# Note: total spin =  16.00

KPOINTS_MP_SPACING 0.07

%BLOCK SPECIES_POT
QC5
%ENDBLOCK SPECIES_POT

SNAP_TO_SYMMETRY
SYMMETRY_GENERATE

