#              Generated by Buildcell
#
# at 09:26:29 (GMT+1.0) 4th August 2020
# in /lustre/scratch/uccabz1/launch_tmp
# on node-c12l-026
# by uccabz1
#
# compiler GCC version 4.9.2
# options -cpp -iprefix /lustre/shared/ucl/apps/gcc/4.9.2/bin/../lib/gcc/x86_64-unknown-linux-gnu/4.9.2/ -mtune=corei7 -march=x86-64 -g -Og
#
# seed  -723849226   192251053   829749240 -1082549545   793574387  1391604294  2023745726   317496109 -1224483542 -1608276744  1945939368   552055352
#
#      Author: C. J. Pickard (cjp20@cam.ac.uk)
#                Space group: I-4
#

%BLOCK LATTICE_ABC
      8.01748      8.12164      8.12164
     75.89919     60.42334     60.42334
%ENDBLOCK LATTICE_ABC

%BLOCK POSITIONS_FRAC
  Li   0.0111112   0.4332475   0.0420366 SPIN=   0.00000
  Li   0.4863953  -0.4332475  -0.0420366 SPIN=   0.00000
  Li  -0.0531478   0.0420366  -0.4332475 SPIN=   0.00000
  Li  -0.4443586  -0.0420366   0.4332475 SPIN=   0.00000
  Fe   0.0483395  -0.2160063   0.2768580 SPIN=   4.00000
  Fe   0.1091912   0.2160063  -0.2768580 SPIN=   4.00000
  Fe  -0.3251975   0.2768580   0.2160063 SPIN=   4.00000
  Fe   0.1676668  -0.2768580  -0.2160063 SPIN=   4.00000
   O   0.2585807   0.4941681   0.2824680 SPIN=   0.00000
   O   0.3506082   0.2429717   0.0883487 SPIN=   0.00000
   O  -0.0173204   0.4014236   0.3405174 SPIN=   0.00000
   O   0.2790567   0.1824951   0.4250953 SPIN=   0.00000
   S   0.2177313   0.3302646   0.2841074 SPIN=   0.00000
   O   0.0352168  -0.4941681  -0.2824680 SPIN=   0.00000
   O  -0.3180713  -0.2429717  -0.0883487 SPIN=   0.00000
   O  -0.2753793  -0.4014236  -0.3405174 SPIN=   0.00000
   O  -0.1133528  -0.1824951  -0.4250953 SPIN=   0.00000
   S  -0.1678967  -0.3302646  -0.2841074 SPIN=   0.00000
   O   0.4589513   0.2824680  -0.4941681 SPIN=   0.00000
   O   0.5610430   0.0883487  -0.2429717 SPIN=   0.00000
   O   0.6768029   0.3405174  -0.4014236 SPIN=   0.00000
   O   0.2958480   0.4250953  -0.1824951 SPIN=   0.00000
   S   0.4981613   0.2841074  -0.3302646 SPIN=   0.00000
   O   0.2472511  -0.2824680   0.4941681 SPIN=   0.00000
   O   0.4064200  -0.0883487   0.2429717 SPIN=   0.00000
   O   0.6158967  -0.3405174   0.4014236 SPIN=   0.00000
   O   0.5384481  -0.4250953   0.1824951 SPIN=   0.00000
   S   0.4520040  -0.2841074   0.3302646 SPIN=   0.00000
   F  -0.2747787   0.2831685  -0.0631030 SPIN=   0.00000
   F  -0.0547132  -0.2831685   0.0631030 SPIN=   0.00000
   F   0.3378817  -0.0631030  -0.2831685 SPIN=   0.00000
   F  -0.0083898   0.0631030   0.2831685 SPIN=   0.00000
%ENDBLOCK POSITIONS_FRAC

# Note: total spin =  16.00

KPOINTS_MP_SPACING 0.07

%BLOCK SPECIES_POT
QC5
%ENDBLOCK SPECIES_POT

SNAP_TO_SYMMETRY
SYMMETRY_GENERATE

