#              Generated by Buildcell
#
# at 22:57:17 (GMT+1.0) 17th August 2020
# in /scratch/scratch/uccabz1/launch_tmp
# on node-k10b-010
# by uccabz1
#
# compiler GCC version 4.9.2
# options -cpp -iprefix /scratch/UCL/applications/gcc/4.9.2/bin/../lib/gcc/x86_64-unknown-linux-gnu/4.9.2/ -mtune=corei7 -march=x86-64 -g -O2
#
# seed  -502423929 -1486098752  -482857027  1409633026  1326362103   376943302  -149391772  -710310831  1151241129   753585157   779357148  1284840827
#
#      Author: C. J. Pickard (cjp20@cam.ac.uk)
#                Space group: I222
#

%BLOCK LATTICE_ABC
      7.66960      7.90953      8.59210
    117.40514    116.50763     90.00000
%ENDBLOCK LATTICE_ABC

%BLOCK POSITIONS_FRAC
  Li  -0.0841730   0.1537076   0.3010208 SPIN=   0.00000
  Li  -0.3851938  -0.1537076  -0.3010208 SPIN=   0.00000
  Li   0.3851938   0.1473133   0.3010208 SPIN=   0.00000
  Li   0.0841730  -0.1473133  -0.3010208 SPIN=   0.00000
  Fe  -0.2870564  -0.0435513   0.4361866 SPIN=   4.00000
  Fe   0.2767570   0.0435513  -0.4361866 SPIN=   4.00000
  Fe  -0.2767570   0.4797380   0.4361866 SPIN=   4.00000
  Fe   0.2870564  -0.4797380  -0.4361866 SPIN=   4.00000
   O   0.0526660  -0.4457712  -0.1872052 SPIN=   0.00000
   O   0.1767865  -0.1009662   0.0987859 SPIN=   0.00000
   O   0.3144262  -0.2087909  -0.1331128 SPIN=   0.00000
   O   0.3984959  -0.3278810   0.1060552 SPIN=   0.00000
   S   0.2355936  -0.2708523  -0.0288692 SPIN=   0.00000
   O   0.2398711   0.4457712   0.1872052 SPIN=   0.00000
   O   0.0780007   0.1009662  -0.0987859 SPIN=   0.00000
   O   0.4475389   0.2087909   0.1331128 SPIN=   0.00000
   O   0.2924407   0.3278810  -0.1060552 SPIN=   0.00000
   S   0.2644628   0.2708523   0.0288692 SPIN=   0.00000
   O  -0.2398711   0.2585661  -0.1872052 SPIN=   0.00000
   O  -0.0780007   0.1997521   0.0987859 SPIN=   0.00000
   O  -0.4475389   0.0756781  -0.1331128 SPIN=   0.00000
   O  -0.2924407   0.4339362   0.1060552 SPIN=   0.00000
   S  -0.2644628   0.2419831  -0.0288692 SPIN=   0.00000
   O  -0.0526660  -0.2585661   0.1872052 SPIN=   0.00000
   O  -0.1767865  -0.1997521  -0.0987859 SPIN=   0.00000
   O  -0.3144262  -0.0756781   0.1331128 SPIN=   0.00000
   O  -0.3984959  -0.4339362  -0.1060552 SPIN=   0.00000
   S  -0.2355936  -0.2419831   0.0288692 SPIN=   0.00000
   F   0.4476947  -0.1329551   0.4734744 SPIN=   0.00000
   F  -0.0257797   0.1329551  -0.4734744 SPIN=   0.00000
   F   0.0257797  -0.3935705   0.4734744 SPIN=   0.00000
   F  -0.4476947   0.3935705  -0.4734744 SPIN=   0.00000
%ENDBLOCK POSITIONS_FRAC

# Note: total spin =  16.00

KPOINTS_MP_SPACING 0.07

%BLOCK SPECIES_POT
QC5
%ENDBLOCK SPECIES_POT

SNAP_TO_SYMMETRY
SYMMETRY_GENERATE

