#              Generated by Buildcell
#
# at 06:12:08 (GMT+1.0) 4th August 2020
# in /lustre/scratch/uccabz1/launch_tmp
# on node-c12f-022
# by uccabz1
#
# compiler GCC version 4.9.2
# options -cpp -iprefix /lustre/shared/ucl/apps/gcc/4.9.2/bin/../lib/gcc/x86_64-unknown-linux-gnu/4.9.2/ -mtune=corei7 -march=x86-64 -g -Og
#
# seed   159753991  2104062236 -1192836066  -613819939 -1336464016 -1600784330   613315888 -2084993463   902815990  1441142007  -629492689  -348474307
#
#      Author: C. J. Pickard (cjp20@cam.ac.uk)
#                Space group: P4
#

%BLOCK LATTICE_ABC
      4.21049      9.74683      9.74683
     90.00000     90.00000     90.00000
%ENDBLOCK LATTICE_ABC

%BLOCK POSITIONS_FRAC
  Li  -0.3252811  -0.1303187  -0.2283232 SPIN=   0.00000
  Li  -0.3252811   0.1303187   0.2283232 SPIN=   0.00000
  Li  -0.3252811   0.2283232  -0.1303187 SPIN=   0.00000
  Li  -0.3252811  -0.2283232   0.1303187 SPIN=   0.00000
  Fe   0.1744025   0.3029771   0.0827698 SPIN=   4.00000
  Fe   0.1744025  -0.3029771  -0.0827698 SPIN=   4.00000
  Fe   0.1744025  -0.0827698   0.3029771 SPIN=   4.00000
  Fe   0.1744025   0.0827698  -0.3029771 SPIN=   4.00000
   O   0.1275513   0.1846509   0.2590478 SPIN=   0.00000
   O  -0.0897919   0.2471906   0.4865270 SPIN=   0.00000
   O   0.3878020   0.3654108   0.3974665 SPIN=   0.00000
   O   0.4208806   0.1225362   0.4701366 SPIN=   0.00000
   S   0.2116105   0.2299471   0.4032945 SPIN=   0.00000
   O   0.1275513  -0.1846509  -0.2590478 SPIN=   0.00000
   O  -0.0897919  -0.2471906  -0.4865270 SPIN=   0.00000
   O   0.3878020  -0.3654108  -0.3974665 SPIN=   0.00000
   O   0.4208806  -0.1225362  -0.4701366 SPIN=   0.00000
   S   0.2116105  -0.2299471  -0.4032945 SPIN=   0.00000
   O   0.1275513  -0.2590478   0.1846509 SPIN=   0.00000
   O  -0.0897919  -0.4865270   0.2471906 SPIN=   0.00000
   O   0.3878020  -0.3974665   0.3654108 SPIN=   0.00000
   O   0.4208806  -0.4701366   0.1225362 SPIN=   0.00000
   S   0.2116105  -0.4032945   0.2299471 SPIN=   0.00000
   O   0.1275513   0.2590478  -0.1846509 SPIN=   0.00000
   O  -0.0897919   0.4865270  -0.2471906 SPIN=   0.00000
   O   0.3878020   0.3974665  -0.3654108 SPIN=   0.00000
   O   0.4208806   0.4701366  -0.1225362 SPIN=   0.00000
   S   0.2116105   0.4032945  -0.2299471 SPIN=   0.00000
   F  -0.2847680   0.2817069   0.0566265 SPIN=   0.00000
   F  -0.2847680  -0.2817069  -0.0566265 SPIN=   0.00000
   F  -0.2847680  -0.0566265   0.2817069 SPIN=   0.00000
   F  -0.2847680   0.0566265  -0.2817069 SPIN=   0.00000
%ENDBLOCK POSITIONS_FRAC

# Note: total spin =  16.00

KPOINTS_MP_SPACING 0.07

%BLOCK SPECIES_POT
QC5
%ENDBLOCK SPECIES_POT

SNAP_TO_SYMMETRY
SYMMETRY_GENERATE

