#              Generated by Buildcell
#
# at 01:09:05 (GMT+1.0) 18th August 2020
# in /lustre/scratch/uccabz1/launch_tmp
# on node-c12j-026
# by uccabz1
#
# compiler GCC version 4.9.2
# options -cpp -iprefix /lustre/shared/ucl/apps/gcc/4.9.2/bin/../lib/gcc/x86_64-unknown-linux-gnu/4.9.2/ -mtune=corei7 -march=x86-64 -g -Og
#
# seed  -397443546 -2092418194 -1443858381   802664444 -2004768882  -749436621 -1579207337 -1729378434 -1442477635 -1104982409  -508651668   162923335
#
#      Author: C. J. Pickard (cjp20@cam.ac.uk)
#                Space group: Cm
#

%BLOCK LATTICE_ABC
      7.77700      8.02975      8.02975
     88.65877     64.45803     64.45803
%ENDBLOCK LATTICE_ABC

%BLOCK POSITIONS_FRAC
  Li  -0.1408135  -0.4246020  -0.0817052 SPIN=   0.00000
  Li  -0.1408135  -0.0817052  -0.4246020 SPIN=   0.00000
  Li   0.3696933  -0.4510316  -0.1086342 SPIN=   0.00000
  Li   0.3696933  -0.1086342  -0.4510316 SPIN=   0.00000
  Fe  -0.4814018   0.1739209   0.4926828 SPIN=   4.50060
  Fe  -0.4814018   0.4926828   0.1739209 SPIN=   4.50060
  Fe  -0.2926801  -0.3630574  -0.3630574 SPIN=   5.53400
  Fe  -0.3588477  -0.0113785  -0.0113785 SPIN=   1.46480
   O   0.2456868  -0.2214858   0.3824562 SPIN=   0.00000
   O   0.4329176  -0.1333381   0.0854151 SPIN=   0.00000
   O   0.2034537   0.1021959   0.3841094 SPIN=   0.00000
   O   0.0366004  -0.0045418   0.2376029 SPIN=   0.00000
   S   0.2296646  -0.0642925   0.2723959 SPIN=   0.00000
   O   0.2456868   0.3824562  -0.2214858 SPIN=   0.00000
   O   0.4329176   0.0854151  -0.1333381 SPIN=   0.00000
   O   0.2034537   0.3841094   0.1021959 SPIN=   0.00000
   O   0.0366004   0.2376029  -0.0045418 SPIN=   0.00000
   S   0.2296646   0.2723959  -0.0642925 SPIN=   0.00000
   O  -0.1533379  -0.4055422   0.1719690 SPIN=   0.00000
   O   0.0639398  -0.3078677   0.2581083 SPIN=   0.00000
   O  -0.3343091  -0.1314154   0.4291280 SPIN=   0.00000
   O  -0.1378666  -0.1097228   0.0984322 SPIN=   0.00000
   S  -0.1403934  -0.2386370   0.2394094 SPIN=   0.00000
   O  -0.1533379   0.1719690  -0.4055422 SPIN=   0.00000
   O   0.0639398   0.2581083  -0.3078677 SPIN=   0.00000
   O  -0.3343091   0.4291280  -0.1314154 SPIN=   0.00000
   O  -0.1378666   0.0984322  -0.1097228 SPIN=   0.00000
   S  -0.1403934   0.2394094  -0.2386370 SPIN=   0.00000
   F   0.2523827  -0.1716690  -0.1716690 SPIN=   0.00000
   F   0.0324381  -0.4071834  -0.4071834 SPIN=   0.00000
   F  -0.3563636   0.4522001   0.4522001 SPIN=   0.00000
   F   0.4991914   0.2205221   0.2205221 SPIN=   0.00000
%ENDBLOCK POSITIONS_FRAC

# Note: total spin =  16.00

KPOINTS_MP_SPACING 0.07

%BLOCK SPECIES_POT
QC5
%ENDBLOCK SPECIES_POT

SNAP_TO_SYMMETRY
SYMMETRY_GENERATE

