#              Generated by Buildcell
#
# at 13:35:20 (GMT+1.0) 18th August 2020
# in /lustre/scratch/uccabz1/launch_tmp
# on node-c12a-015
# by uccabz1
#
# compiler GCC version 4.9.2
# options -cpp -iprefix /lustre/shared/ucl/apps/gcc/4.9.2/bin/../lib/gcc/x86_64-unknown-linux-gnu/4.9.2/ -mtune=corei7 -march=x86-64 -g -Og
#
# seed -2093468476  1209306065  -796131665  -244392241  -470592067  -705932337  1192102335 -1075165537  -746137245 -1046733077  -370607347  -559799504
#
#      Author: C. J. Pickard (cjp20@cam.ac.uk)
#                Space group: Amm2
#

%BLOCK LATTICE_ABC
      6.10635      6.10635     10.99562
     90.00000     90.00000    102.67962
%ENDBLOCK LATTICE_ABC

%BLOCK POSITIONS_FRAC
  Li  -0.0086743  -0.4154148   0.5000000 SPIN=   0.00000
  Li  -0.4154148  -0.0086743   0.5000000 SPIN=   0.00000
  Li   0.3989029   0.3989029   0.2799831 SPIN=   0.00000
  Li   0.3989029   0.3989029  -0.2799831 SPIN=   0.00000
  Fe  -0.1650260  -0.1650260   0.1641526 SPIN=   3.64966
  Fe  -0.1650260  -0.1650260  -0.1641526 SPIN=   3.64966
  Fe   0.0940950   0.0940950  -0.5000000 SPIN=   3.23675
  Fe   0.3237474   0.3237474   0.0000000 SPIN=   5.46394
   O   0.4382716  -0.2815127   0.3896356 SPIN=   0.00000
   O   0.3434195  -0.3096187   0.1705402 SPIN=   0.00000
   O   0.4551998   0.0632503   0.2683743 SPIN=   0.00000
   O   0.0876841  -0.1850514   0.3167991 SPIN=   0.00000
   S   0.3311437  -0.1782331   0.2863373 SPIN=   0.00000
   O  -0.2815127   0.4382716  -0.3896356 SPIN=   0.00000
   O  -0.3096187   0.3434195  -0.1705402 SPIN=   0.00000
   O   0.0632503   0.4551998  -0.2683743 SPIN=   0.00000
   O  -0.1850514   0.0876841  -0.3167991 SPIN=   0.00000
   S  -0.1782331   0.3311437  -0.2863373 SPIN=   0.00000
   O  -0.2815127   0.4382716   0.3896356 SPIN=   0.00000
   O  -0.3096187   0.3434195   0.1705402 SPIN=   0.00000
   O   0.0632503   0.4551998   0.2683743 SPIN=   0.00000
   O  -0.1850514   0.0876841   0.3167991 SPIN=   0.00000
   S  -0.1782331   0.3311437   0.2863373 SPIN=   0.00000
   O   0.4382716  -0.2815127  -0.3896356 SPIN=   0.00000
   O   0.3434195  -0.3096187  -0.1705402 SPIN=   0.00000
   O   0.4551998   0.0632503  -0.2683743 SPIN=   0.00000
   O   0.0876841  -0.1850514  -0.3167991 SPIN=   0.00000
   S   0.3311437  -0.1782331  -0.2863373 SPIN=   0.00000
   F  -0.1796461  -0.1796461  -0.5000000 SPIN=   0.00000
   F   0.3399585   0.3399585  -0.5000000 SPIN=   0.00000
   F   0.0771386   0.0771386   0.0000000 SPIN=   0.00000
   F  -0.3894341  -0.3894341   0.0000000 SPIN=   0.00000
%ENDBLOCK POSITIONS_FRAC

# Note: total spin =  16.00

KPOINTS_MP_SPACING 0.07

%BLOCK SPECIES_POT
QC5
%ENDBLOCK SPECIES_POT

SNAP_TO_SYMMETRY
SYMMETRY_GENERATE

