#              Generated by Buildcell
#
# at 16:00:40 (GMT+1.0) 18th August 2020
# in /scratch/scratch/uccabz1/launch_tmp
# on node-k10h-012
# by uccabz1
#
# compiler GCC version 4.9.2
# options -cpp -iprefix /scratch/UCL/applications/gcc/4.9.2/bin/../lib/gcc/x86_64-unknown-linux-gnu/4.9.2/ -mtune=corei7 -march=x86-64 -g -O2
#
# seed  -112104809  2051406139   542217122    65590333  -322187151 -1847616974  -416681624  1118051963 -1840987931 -1284077870  1089909357  1542860082
#
#      Author: C. J. Pickard (cjp20@cam.ac.uk)
#                Space group: P-1
#

%BLOCK LATTICE_ABC
      5.54483      6.15048     12.71896
     98.86989     96.75799    108.48065
%ENDBLOCK LATTICE_ABC

%BLOCK POSITIONS_FRAC
  Li  -0.4584051   0.4170164  -0.1627447 SPIN=   0.00000
  Li   0.4584051  -0.4170164   0.1627447 SPIN=   0.00000
  Li   0.1119036  -0.1660691  -0.3588997 SPIN=   0.00000
  Li  -0.1119036   0.1660691   0.3588997 SPIN=   0.00000
  Fe  -0.2571658   0.0381679  -0.0971805 SPIN=   3.91177
  Fe   0.2571658  -0.0381679   0.0971805 SPIN=   3.91177
  Fe  -0.0595426  -0.3006304   0.3931041 SPIN=   4.08823
  Fe   0.0595426   0.3006304  -0.3931041 SPIN=   4.08823
   O  -0.6653114  -0.2259665  -0.4759989 SPIN=   0.00000
   O  -0.2967329   0.0526166  -0.3404394 SPIN=   0.00000
   O  -0.2253177  -0.2419136  -0.4776115 SPIN=   0.00000
   O  -0.4572466  -0.3664893  -0.3305123 SPIN=   0.00000
   S  -0.4111521  -0.1954382  -0.4061405 SPIN=   0.00000
   O   0.6653114   0.2259665   0.4759989 SPIN=   0.00000
   O   0.2967329  -0.0526166   0.3404394 SPIN=   0.00000
   O   0.2253177   0.2419136   0.4776115 SPIN=   0.00000
   O   0.4572466   0.3664893   0.3305123 SPIN=   0.00000
   S   0.4111521   0.1954382   0.4061405 SPIN=   0.00000
   O   0.0648559   0.1773422   0.1817976 SPIN=   0.00000
   O  -0.3415602   0.2569061   0.1967258 SPIN=   0.00000
   O  -0.1039553   0.3743237   0.0501119 SPIN=   0.00000
   O   0.0763278   0.5841496   0.2395201 SPIN=   0.00000
   S  -0.0760830   0.3481804   0.1670389 SPIN=   0.00000
   O  -0.0648559  -0.1773422  -0.1817976 SPIN=   0.00000
   O   0.3415602  -0.2569061  -0.1967258 SPIN=   0.00000
   O   0.1039553  -0.3743237  -0.0501119 SPIN=   0.00000
   O  -0.0763278  -0.5841496  -0.2395201 SPIN=   0.00000
   S   0.0760830  -0.3481804  -0.1670389 SPIN=   0.00000
   F   0.2692698   0.1723465  -0.2884724 SPIN=   0.00000
   F  -0.2692698  -0.1723465   0.2884724 SPIN=   0.00000
   F  -0.3198974  -0.1990507   0.0000559 SPIN=   0.00000
   F   0.3198974   0.1990507  -0.0000559 SPIN=   0.00000
%ENDBLOCK POSITIONS_FRAC

# Note: total spin =  16.00

KPOINTS_MP_SPACING 0.07

%BLOCK SPECIES_POT
QC5
%ENDBLOCK SPECIES_POT

SNAP_TO_SYMMETRY
SYMMETRY_GENERATE

