#              Generated by Buildcell
#
# at 00:44:51 (GMT+1.0) 18th August 2020
# in /lustre/scratch/uccabz1/launch_tmp
# on node-c12e-036
# by uccabz1
#
# compiler GCC version 4.9.2
# options -cpp -iprefix /lustre/shared/ucl/apps/gcc/4.9.2/bin/../lib/gcc/x86_64-unknown-linux-gnu/4.9.2/ -mtune=corei7 -march=x86-64 -g -Og
#
# seed  -441868717  -797191869  -247312180 -1263759955   972048124  -318886603 -1413558689  -644630330   683512129 -2070566811   942496564 -1610345446
#
#      Author: C. J. Pickard (cjp20@cam.ac.uk)
#                Space group: P43
#

%BLOCK LATTICE_ABC
      7.11825      7.11825      7.89431
     90.00000     90.00000     90.00000
%ENDBLOCK LATTICE_ABC

%BLOCK POSITIONS_FRAC
  Li  -0.3737963  -0.2090018  -0.3964684 SPIN=   0.00000
  Li   0.3737963   0.2090018   0.1035316 SPIN=   0.00000
  Li  -0.2090018   0.3737963  -0.1464684 SPIN=   0.00000
  Li   0.2090018  -0.3737963   0.3535316 SPIN=   0.00000
  Fe   0.0247261  -0.3172233  -0.3046294 SPIN=   4.00000
  Fe  -0.0247261   0.3172233   0.1953706 SPIN=   4.00000
  Fe  -0.3172233  -0.0247261  -0.0546294 SPIN=   4.00000
  Fe   0.3172233   0.0247261   0.4453706 SPIN=   4.00000
   O   0.3896085  -0.0381625  -0.0658008 SPIN=   0.00000
   O   0.0643635  -0.1478008  -0.0157853 SPIN=   0.00000
   O   0.3024406  -0.1753589   0.2113295 SPIN=   0.00000
   O   0.3228770  -0.3783981  -0.0424920 SPIN=   0.00000
   S   0.2698224  -0.1849301   0.0218128 SPIN=   0.00000
   O  -0.3896085   0.0381625  -0.5658008 SPIN=   0.00000
   O  -0.0643635   0.1478008  -0.5157853 SPIN=   0.00000
   O  -0.3024406   0.1753589  -0.2886705 SPIN=   0.00000
   O  -0.3228770   0.3783981  -0.5424920 SPIN=   0.00000
   S  -0.2698224   0.1849301  -0.4781872 SPIN=   0.00000
   O  -0.0381625  -0.3896085   0.1841992 SPIN=   0.00000
   O  -0.1478008  -0.0643635   0.2342147 SPIN=   0.00000
   O  -0.1753589  -0.3024406   0.4613295 SPIN=   0.00000
   O  -0.3783981  -0.3228770   0.2075080 SPIN=   0.00000
   S  -0.1849301  -0.2698224   0.2718128 SPIN=   0.00000
   O   0.0381625   0.3896085  -0.3158008 SPIN=   0.00000
   O   0.1478008   0.0643635  -0.2657853 SPIN=   0.00000
   O   0.1753589   0.3024406  -0.0386705 SPIN=   0.00000
   O   0.3783981   0.3228770  -0.2924920 SPIN=   0.00000
   S   0.1849301   0.2698224  -0.2281872 SPIN=   0.00000
   F   0.2567187   0.3204767   0.3206234 SPIN=   0.00000
   F  -0.2567187  -0.3204767  -0.1793766 SPIN=   0.00000
   F   0.3204767  -0.2567187  -0.4293766 SPIN=   0.00000
   F  -0.3204767   0.2567187   0.0706234 SPIN=   0.00000
%ENDBLOCK POSITIONS_FRAC

# Note: total spin =  16.00

KPOINTS_MP_SPACING 0.07

%BLOCK SPECIES_POT
QC5
%ENDBLOCK SPECIES_POT

SNAP_TO_SYMMETRY
SYMMETRY_GENERATE

