#              Generated by Buildcell
#
# at 08:48:28 (GMT+1.0) 4th August 2020
# in /lustre/scratch/uccabz1/launch_tmp
# on node-c12p-030
# by uccabz1
#
# compiler GCC version 4.9.2
# options -cpp -iprefix /lustre/shared/ucl/apps/gcc/4.9.2/bin/../lib/gcc/x86_64-unknown-linux-gnu/4.9.2/ -mtune=corei7 -march=x86-64 -g -Og
#
# seed  1012301243  -191278110 -1435787746  -350868405 -1610334804 -1532609912  -807697196 -1419696169 -1828092092 -1728312790  1034178797 -2055041839
#
#      Author: C. J. Pickard (cjp20@cam.ac.uk)
#                Space group: P41
#

%BLOCK LATTICE_ABC
      6.57068      6.57068      9.26486
     90.00000     90.00000     90.00000
%ENDBLOCK LATTICE_ABC

%BLOCK POSITIONS_FRAC
  Li   0.3385389  -0.0913671  -0.3551203 SPIN=   0.00000
  Li  -0.3385389   0.0913671   0.1448797 SPIN=   0.00000
  Li   0.0913671   0.3385389  -0.1051203 SPIN=   0.00000
  Li  -0.0913671  -0.3385389   0.3948797 SPIN=   0.00000
  Fe   0.1300198   0.2822726  -0.4892291 SPIN=   4.00000
  Fe  -0.1300198  -0.2822726   0.0107709 SPIN=   4.00000
  Fe  -0.2822726   0.1300198  -0.2392291 SPIN=   4.00000
  Fe   0.2822726  -0.1300198   0.2607709 SPIN=   4.00000
   O   0.3281272   0.4345860   0.2981463 SPIN=   0.00000
   O   0.1031864   0.5389955   0.0970914 SPIN=   0.00000
   O   0.0394613   0.2151758   0.2258236 SPIN=   0.00000
   O   0.3392740   0.2488287   0.0659014 SPIN=   0.00000
   S   0.2025122   0.3593965   0.1717407 SPIN=   0.00000
   O  -0.3281272  -0.4345860  -0.2018537 SPIN=   0.00000
   O  -0.1031864  -0.5389955  -0.4029086 SPIN=   0.00000
   O  -0.0394613  -0.2151758  -0.2741764 SPIN=   0.00000
   O  -0.3392740  -0.2488287  -0.4340986 SPIN=   0.00000
   S  -0.2025122  -0.3593965  -0.3282593 SPIN=   0.00000
   O  -0.4345860   0.3281272   0.5481463 SPIN=   0.00000
   O  -0.5389955   0.1031864   0.3470914 SPIN=   0.00000
   O  -0.2151758   0.0394613   0.4758236 SPIN=   0.00000
   O  -0.2488287   0.3392740   0.3159014 SPIN=   0.00000
   S  -0.3593965   0.2025122   0.4217407 SPIN=   0.00000
   O   0.4345860  -0.3281272   0.0481463 SPIN=   0.00000
   O   0.5389955  -0.1031864  -0.1529086 SPIN=   0.00000
   O   0.2151758  -0.0394613  -0.0241764 SPIN=   0.00000
   O   0.2488287  -0.3392740  -0.1840986 SPIN=   0.00000
   S   0.3593965  -0.2025122  -0.0782593 SPIN=   0.00000
   F   0.2234056   0.2468575  -0.2743255 SPIN=   0.00000
   F  -0.2234056  -0.2468575   0.2256745 SPIN=   0.00000
   F  -0.2468575   0.2234056  -0.0243255 SPIN=   0.00000
   F   0.2468575  -0.2234056   0.4756745 SPIN=   0.00000
%ENDBLOCK POSITIONS_FRAC

# Note: total spin =  16.00

KPOINTS_MP_SPACING 0.07

%BLOCK SPECIES_POT
QC5
%ENDBLOCK SPECIES_POT

SNAP_TO_SYMMETRY
SYMMETRY_GENERATE

