#              Generated by Buildcell
#
# at 15:18:23 (GMT+1.0) 18th August 2020
# in /lustre/scratch/uccabz1/launch_tmp
# on node-c12j-023
# by uccabz1
#
# compiler GCC version 4.9.2
# options -cpp -iprefix /lustre/shared/ucl/apps/gcc/4.9.2/bin/../lib/gcc/x86_64-unknown-linux-gnu/4.9.2/ -mtune=corei7 -march=x86-64 -g -Og
#
# seed -2083727908 -1814130494  1704245146  1565402918 -1380030233  -176925205  1889689813  -804344107  2077850932  2146399581  1405569812  -535309214
#
#      Author: C. J. Pickard (cjp20@cam.ac.uk)
#                Space group: P2
#

%BLOCK LATTICE_ABC
      3.92131      7.54750     13.51883
     91.30937     90.00000     90.00000
%ENDBLOCK LATTICE_ABC

%BLOCK POSITIONS_FRAC
  Li   0.4904837  -0.4510579  -0.3552657 SPIN=   0.00000
  Li   0.4904837   0.4510579   0.3552657 SPIN=   0.00000
  Li  -0.0099144   0.3339696   0.1101660 SPIN=   0.00000
  Li  -0.0099144  -0.3339696  -0.1101660 SPIN=   0.00000
  Fe   0.4899534   0.2717104  -0.0546352 SPIN=   5.49706
  Fe   0.4899534  -0.2717104   0.0546352 SPIN=   5.49706
  Fe  -0.0093463  -0.1571494  -0.3856964 SPIN=   2.50294
  Fe  -0.0093463   0.1571494   0.3856964 SPIN=   2.50294
   O  -0.0814769  -0.0855215  -0.1941831 SPIN=   0.00000
   O  -0.5437531  -0.2268990  -0.0995114 SPIN=   0.00000
   O  -0.6164488  -0.1756030  -0.2784391 SPIN=   0.00000
   O  -0.6164517   0.0782815  -0.1592966 SPIN=   0.00000
   S  -0.4645326  -0.1024355  -0.1828575 SPIN=   0.00000
   O  -0.0814769   0.0855215   0.1941831 SPIN=   0.00000
   O  -0.5437531   0.2268990   0.0995114 SPIN=   0.00000
   O  -0.6164488   0.1756030   0.2784391 SPIN=   0.00000
   O  -0.6164517  -0.0782815   0.1592966 SPIN=   0.00000
   S  -0.4645326   0.1024355   0.1828575 SPIN=   0.00000
   O  -0.6677346  -0.3571868   0.4529583 SPIN=   0.00000
   O  -0.6675161  -0.0363704   0.4189678 SPIN=   0.00000
   O  -0.3832910  -0.2472939   0.3028855 SPIN=   0.00000
   O  -0.1327440  -0.1847134   0.4680386 SPIN=   0.00000
   S  -0.4628214  -0.2063911   0.4107126 SPIN=   0.00000
   O  -0.6677346   0.3571868  -0.4529583 SPIN=   0.00000
   O  -0.6675161   0.0363704  -0.4189678 SPIN=   0.00000
   O  -0.3832910   0.2472939  -0.3028855 SPIN=   0.00000
   O  -0.1327440   0.1847134  -0.4680386 SPIN=   0.00000
   S  -0.4628214   0.2063911  -0.4107126 SPIN=   0.00000
   F  -0.0098997   0.2429873  -0.0347268 SPIN=   0.00000
   F  -0.0098997  -0.2429873   0.0347268 SPIN=   0.00000
   F   0.0363576   0.4798427   0.2659019 SPIN=   0.00000
   F   0.0363576  -0.4798427  -0.2659019 SPIN=   0.00000
%ENDBLOCK POSITIONS_FRAC

# Note: total spin =  16.00

KPOINTS_MP_SPACING 0.07

%BLOCK SPECIES_POT
QC5
%ENDBLOCK SPECIES_POT

SNAP_TO_SYMMETRY
SYMMETRY_GENERATE

