#              Generated by Buildcell
#
# at 12:16:47 (GMT+1.0) 18th August 2020
# in /lustre/scratch/uccabz1/launch_tmp
# on node-c12p-003
# by uccabz1
#
# compiler GCC version 4.9.2
# options -cpp -iprefix /lustre/shared/ucl/apps/gcc/4.9.2/bin/../lib/gcc/x86_64-unknown-linux-gnu/4.9.2/ -mtune=corei7 -march=x86-64 -g -Og
#
# seed  1627858894  1763160259   671141605   417114618   996322139 -1198847717   136970751  1038189642 -1909307479 -1591651674   566285535   837392886
#
#      Author: C. J. Pickard (cjp20@cam.ac.uk)
#                Space group: P42
#

%BLOCK LATTICE_ABC
      6.36330      7.92846      7.92846
     90.00000     90.00000     90.00000
%ENDBLOCK LATTICE_ABC

%BLOCK POSITIONS_FRAC
  Li   0.3783933   0.2831383  -0.4019775 SPIN=   0.00000
  Li   0.3783933  -0.2831383   0.4019775 SPIN=   0.00000
  Li  -0.1216067   0.4019775   0.2831383 SPIN=   0.00000
  Li  -0.1216067  -0.4019775  -0.2831383 SPIN=   0.00000
  Fe  -0.3365575  -0.0709683  -0.2875362 SPIN=   4.00000
  Fe  -0.3365575   0.0709683   0.2875362 SPIN=   4.00000
  Fe   0.1634425   0.2875362  -0.0709683 SPIN=   4.00000
  Fe   0.1634425  -0.2875362   0.0709683 SPIN=   4.00000
   O  -0.1847629  -0.4072074   0.1094724 SPIN=   0.00000
   O  -0.2231358  -0.1369130  -0.0435979 SPIN=   0.00000
   O  -0.4143459  -0.1829298   0.2243004 SPIN=   0.00000
   O  -0.5200776  -0.3382205  -0.0328411 SPIN=   0.00000
   S  -0.3355806  -0.2663177   0.0643335 SPIN=   0.00000
   O  -0.1847629   0.4072074  -0.1094724 SPIN=   0.00000
   O  -0.2231358   0.1369130   0.0435979 SPIN=   0.00000
   O  -0.4143459   0.1829298  -0.2243004 SPIN=   0.00000
   O  -0.5200776   0.3382205   0.0328411 SPIN=   0.00000
   S  -0.3355806   0.2663177  -0.0643335 SPIN=   0.00000
   O   0.3152371  -0.1094724  -0.4072074 SPIN=   0.00000
   O   0.2768642   0.0435979  -0.1369130 SPIN=   0.00000
   O   0.0856541  -0.2243004  -0.1829298 SPIN=   0.00000
   O  -0.0200776   0.0328411  -0.3382205 SPIN=   0.00000
   S   0.1644194  -0.0643335  -0.2663177 SPIN=   0.00000
   O   0.3152371   0.1094724   0.4072074 SPIN=   0.00000
   O   0.2768642  -0.0435979   0.1369130 SPIN=   0.00000
   O   0.0856541   0.2243004   0.1829298 SPIN=   0.00000
   O  -0.0200776  -0.0328411   0.3382205 SPIN=   0.00000
   S   0.1644194   0.0643335   0.2663177 SPIN=   0.00000
   F   0.2113874   0.4730220  -0.2684477 SPIN=   0.00000
   F   0.2113874  -0.4730220   0.2684477 SPIN=   0.00000
   F  -0.2886126   0.2684477   0.4730220 SPIN=   0.00000
   F  -0.2886126  -0.2684477  -0.4730220 SPIN=   0.00000
%ENDBLOCK POSITIONS_FRAC

# Note: total spin =  16.00

KPOINTS_MP_SPACING 0.07

%BLOCK SPECIES_POT
QC5
%ENDBLOCK SPECIES_POT

SNAP_TO_SYMMETRY
SYMMETRY_GENERATE

