#              Generated by Buildcell
#
# at 14:10:59 (GMT+1.0) 18th August 2020
# in /lustre/scratch/uccabz1/launch_tmp
# on node-c12l-014
# by uccabz1
#
# compiler GCC version 4.9.2
# options -cpp -iprefix /lustre/shared/ucl/apps/gcc/4.9.2/bin/../lib/gcc/x86_64-unknown-linux-gnu/4.9.2/ -mtune=corei7 -march=x86-64 -g -Og
#
# seed -1558863203  -186342309   777772191  -771770316 -2017638503 -1810663526 -1885552694  1751017523 -1133619824   215979328  1437211244  -435345835
#
#      Author: C. J. Pickard (cjp20@cam.ac.uk)
#                Space group: Pm
#

%BLOCK LATTICE_ABC
      3.90102      7.72855     13.68285
     90.00000     90.00000    104.15654
%ENDBLOCK LATTICE_ABC

%BLOCK POSITIONS_FRAC
  Li  -0.4366577  -0.4399947  -0.3182809 SPIN=   0.00000
  Li  -0.4366577  -0.4399947   0.3182809 SPIN=   0.00000
  Li   0.1041911  -0.0684117  -0.1368406 SPIN=   0.00000
  Li   0.1041911  -0.0684117   0.1368406 SPIN=   0.00000
  Fe  -0.2868062   0.2432849   0.2229136 SPIN=   3.70486
  Fe  -0.2868062   0.2432849  -0.2229136 SPIN=   3.70486
  Fe   0.3093827  -0.3055377  -0.5000000 SPIN=   3.69896
  Fe   0.2116747   0.2413196  -0.0000000 SPIN=   4.89131
   O   0.3183587  -0.0850389  -0.3288458 SPIN=   0.00000
   O  -0.2508673  -0.1628883  -0.2397668 SPIN=   0.00000
   O  -0.2345061  -0.2233666  -0.4171049 SPIN=   0.00000
   O  -0.1292792   0.0876232  -0.3576288 SPIN=   0.00000
   S  -0.0740735  -0.0959177  -0.3358366 SPIN=   0.00000
   O   0.3183587  -0.0850389   0.3288458 SPIN=   0.00000
   O  -0.2508673  -0.1628883   0.2397668 SPIN=   0.00000
   O  -0.2345061  -0.2233666   0.4171049 SPIN=   0.00000
   O  -0.1292792   0.0876232   0.3576288 SPIN=   0.00000
   S  -0.0740735  -0.0959177   0.3358366 SPIN=   0.00000
   O   0.0338435  -0.5255356   0.0830024 SPIN=   0.00000
   O   0.4099007  -0.2170647   0.0830331 SPIN=   0.00000
   O   0.5997273  -0.4545771   0.1737930 SPIN=   0.00000
   S   0.2844777  -0.3851147   0.1433653 SPIN=   0.00000
   O   0.0338435  -0.5255356  -0.0830024 SPIN=   0.00000
   O   0.4099007  -0.2170647  -0.0830331 SPIN=   0.00000
   O   0.5997273  -0.4545771  -0.1737930 SPIN=   0.00000
   S   0.2844777  -0.3851147  -0.1433653 SPIN=   0.00000
   O  -0.4424497  -0.4708398   0.0000000 SPIN=   0.00000
   O  -0.0368050  -0.0331548   0.0000000 SPIN=   0.00000
   F   0.3767829   0.1673445   0.1301186 SPIN=   0.00000
   F   0.3767829   0.1673445  -0.1301186 SPIN=   0.00000
   F  -0.1390247   0.4219776   0.3692005 SPIN=   0.00000
   F  -0.1390247   0.4219776  -0.3692005 SPIN=   0.00000
%ENDBLOCK POSITIONS_FRAC

# Note: total spin =  16.00

KPOINTS_MP_SPACING 0.07

%BLOCK SPECIES_POT
QC5
%ENDBLOCK SPECIES_POT

SNAP_TO_SYMMETRY
SYMMETRY_GENERATE

