#              Generated by Buildcell
#
# at 16:21:48 (GMT+1.0) 18th August 2020
# in /scratch/scratch/uccabz1/launch_tmp
# on node-k10h-001
# by uccabz1
#
# compiler GCC version 4.9.2
# options -cpp -iprefix /scratch/UCL/applications/gcc/4.9.2/bin/../lib/gcc/x86_64-unknown-linux-gnu/4.9.2/ -mtune=corei7 -march=x86-64 -g -O2
#
# seed   512989732 -2027312381   320492073   639039157   918107646  -656405858   469636410 -1917751325 -1197153562 -1344366834 -2014271746 -1544005501
#
#      Author: C. J. Pickard (cjp20@cam.ac.uk)
#                Space group: P2
#

%BLOCK LATTICE_ABC
      3.95480      8.43881     12.41879
    105.18045     90.00000     90.00000
%ENDBLOCK LATTICE_ABC

%BLOCK POSITIONS_FRAC
  Li  -0.2988834  -0.3962467  -0.1219063 SPIN=   0.00000
  Li  -0.2988834   0.3962467   0.1219063 SPIN=   0.00000
  Li   0.2037518  -0.3138575  -0.3700553 SPIN=   0.00000
  Li   0.2037518   0.3138575   0.3700553 SPIN=   0.00000
  Fe   0.3377964   0.0448358  -0.3451218 SPIN=   5.88191
  Fe   0.3377964  -0.0448358   0.3451218 SPIN=   5.88191
  Fe  -0.1658134   0.3633221  -0.4104299 SPIN=   2.11809
  Fe  -0.1658134  -0.3633221   0.4104299 SPIN=   2.11809
   O   0.0992621   0.4820404  -0.1112192 SPIN=   0.00000
   O   0.3583602   0.2086983  -0.1320691 SPIN=   0.00000
   O  -0.1739530   0.2341825  -0.2309711 SPIN=   0.00000
   O  -0.1740068   0.2807208  -0.0257564 SPIN=   0.00000
   S   0.0274156   0.3014105  -0.1250039 SPIN=   0.00000
   O   0.0992621  -0.4820404   0.1112192 SPIN=   0.00000
   O   0.3583602  -0.2086983   0.1320691 SPIN=   0.00000
   O  -0.1739530  -0.2341825   0.2309711 SPIN=   0.00000
   O  -0.1740068  -0.2807208   0.0257564 SPIN=   0.00000
   S   0.0274156  -0.3014105   0.1250039 SPIN=   0.00000
   O   0.3210615   0.2211625   0.0515374 SPIN=   0.00000
   O  -0.0634039   0.0133093   0.0929317 SPIN=   0.00000
   O  -0.0500876   0.2950263   0.2176453 SPIN=   0.00000
   O   0.4353575   0.1082255   0.2128359 SPIN=   0.00000
   S   0.1607319   0.1594309   0.1437376 SPIN=   0.00000
   O   0.3210615  -0.2211625  -0.0515374 SPIN=   0.00000
   O  -0.0634039  -0.0133093  -0.0929317 SPIN=   0.00000
   O  -0.0500876  -0.2950263  -0.2176453 SPIN=   0.00000
   O   0.4353575  -0.1082255  -0.2128359 SPIN=   0.00000
   S   0.1607319  -0.1594309  -0.1437376 SPIN=   0.00000
   F   0.4448156  -0.4609690   0.3225038 SPIN=   0.00000
   F   0.4448156   0.4609690  -0.3225038 SPIN=   0.00000
   F  -0.1402342   0.1611427   0.4089255 SPIN=   0.00000
   F  -0.1402342  -0.1611427  -0.4089255 SPIN=   0.00000
%ENDBLOCK POSITIONS_FRAC

# Note: total spin =  16.00

KPOINTS_MP_SPACING 0.07

%BLOCK SPECIES_POT
QC5
%ENDBLOCK SPECIES_POT

SNAP_TO_SYMMETRY
SYMMETRY_GENERATE

