#              Generated by Buildcell
#
# at 14:33:49 (GMT+1.0) 18th August 2020
# in /lustre/scratch/uccabz1/launch_tmp
# on node-c12p-001
# by uccabz1
#
# compiler GCC version 4.9.2
# options -cpp -iprefix /lustre/shared/ucl/apps/gcc/4.9.2/bin/../lib/gcc/x86_64-unknown-linux-gnu/4.9.2/ -mtune=corei7 -march=x86-64 -g -Og
#
# seed -1613784609  1099132628 -1221318112 -1836166942  -205002063  1883080609  -827625276   562682978   540739363  1434051960    38219923   899159905
#
#      Author: C. J. Pickard (cjp20@cam.ac.uk)
#                Space group: C2
#

%BLOCK LATTICE_ABC
      7.23880      7.67373      8.16157
     61.95831     89.28398     88.47678
%ENDBLOCK LATTICE_ABC

%BLOCK POSITIONS_FRAC
  Li  -0.2558800   0.2471006   0.3379555 SPIN=   0.00000
  Li   0.2558800   0.4149440   0.3379555 SPIN=   0.00000
  Li  -0.2500639  -0.2447622   0.3461784 SPIN=   0.00000
  Li   0.2500639  -0.1014162   0.3461784 SPIN=   0.00000
  Fe  -0.0127228  -0.0677384  -0.3865003 SPIN=   5.33581
  Fe   0.0127228   0.4542388  -0.3865003 SPIN=   5.33581
  Fe   0.4865737  -0.0451529  -0.3843847 SPIN=   2.66419
  Fe  -0.4865737   0.4295376  -0.3843847 SPIN=   2.66419
   O   0.3486942   0.1798600  -0.2251853 SPIN=   0.00000
   O   0.3635920   0.1187983   0.1003717 SPIN=   0.00000
   O   0.2224460  -0.1267371   0.0272505 SPIN=   0.00000
   O   0.0626915   0.1945473  -0.0623405 SPIN=   0.00000
   S   0.2493559   0.0916171  -0.0399759 SPIN=   0.00000
   O  -0.3486942   0.0453253  -0.2251853 SPIN=   0.00000
   O  -0.3635920  -0.2191700   0.1003717 SPIN=   0.00000
   O  -0.2224460   0.0994865   0.0272505 SPIN=   0.00000
   O  -0.0626915  -0.1322068  -0.0623405 SPIN=   0.00000
   S  -0.2493559  -0.0516412  -0.0399759 SPIN=   0.00000
   O   0.0854678  -0.4233959   0.0800620 SPIN=   0.00000
   O   0.2573128  -0.5796893  -0.0826067 SPIN=   0.00000
   O   0.4254653  -0.3973153   0.0488059 SPIN=   0.00000
   O   0.2258761  -0.2155559  -0.2271137 SPIN=   0.00000
   S   0.2485305  -0.4039891  -0.0452131 SPIN=   0.00000
   O  -0.0854678   0.3433339   0.0800620 SPIN=   0.00000
   O  -0.2573128   0.6622960  -0.0826067 SPIN=   0.00000
   O  -0.4254653   0.3485093   0.0488059 SPIN=   0.00000
   O  -0.2258761   0.4426696  -0.2271137 SPIN=   0.00000
   S  -0.2485305   0.4492022  -0.0452131 SPIN=   0.00000
   F  -0.2817811  -0.0812409   0.4944708 SPIN=   0.00000
   F   0.2817811  -0.4132299   0.4944708 SPIN=   0.00000
   F  -0.2121900   0.4546513   0.4271863 SPIN=   0.00000
   F   0.2121900   0.1181624   0.4271863 SPIN=   0.00000
%ENDBLOCK POSITIONS_FRAC

# Note: total spin =  16.00

KPOINTS_MP_SPACING 0.07

%BLOCK SPECIES_POT
QC5
%ENDBLOCK SPECIES_POT

SNAP_TO_SYMMETRY
SYMMETRY_GENERATE

