#              Generated by Buildcell
#
# at 06:36:55 (GMT+1.0) 4th August 2020
# in /lustre/scratch/uccabz1/launch_tmp
# on node-c12f-027
# by uccabz1
#
# compiler GCC version 4.9.2
# options -cpp -iprefix /lustre/shared/ucl/apps/gcc/4.9.2/bin/../lib/gcc/x86_64-unknown-linux-gnu/4.9.2/ -mtune=corei7 -march=x86-64 -g -Og
#
# seed   283590367  2011410403 -1242468091  -282220130   213449713 -1494821941 -1107571508  -506984790 -1535233340 -1856054487  1806437755  -712248257
#
#      Author: C. J. Pickard (cjp20@cam.ac.uk)
#                Space group: Pc
#

%BLOCK LATTICE_ABC
      7.22016      7.40320      7.59477
     99.82832     90.00000     90.00000
%ENDBLOCK LATTICE_ABC

%BLOCK POSITIONS_FRAC
  Li  -0.2633547   0.3267272   0.4809832 SPIN=   0.00000
  Li   0.2633547  -0.1732728   0.4809832 SPIN=   0.00000
  Li   0.1800780   0.4634712   0.0597097 SPIN=   0.00000
  Li  -0.1800780  -0.0365288   0.0597097 SPIN=   0.00000
  Fe   0.1302572   0.1870470  -0.2889036 SPIN=   5.20722
  Fe  -0.1302572  -0.3129530  -0.2889036 SPIN=   5.20722
  Fe   0.4481565   0.1615652   0.1727174 SPIN=   2.79278
  Fe  -0.4481565  -0.3384348   0.1727174 SPIN=   2.79278
   O  -0.1630962  -0.2142447   0.2919542 SPIN=   0.00000
   O  -0.3644317   0.0031792   0.4891997 SPIN=   0.00000
   O  -0.1195640   0.1200206   0.3101383 SPIN=   0.00000
   O  -0.0345304  -0.0288441   0.5668114 SPIN=   0.00000
   S  -0.1704055  -0.0299722   0.4145259 SPIN=   0.00000
   O   0.1630962   0.2857553   0.2919542 SPIN=   0.00000
   O   0.3644317   0.5031792   0.4891997 SPIN=   0.00000
   O   0.1195640   0.6200206   0.3101383 SPIN=   0.00000
   O   0.0345304   0.4711559   0.5668114 SPIN=   0.00000
   S   0.1704055   0.4700278   0.4145259 SPIN=   0.00000
   O   0.5547295  -0.2374982  -0.3499063 SPIN=   0.00000
   O   0.2739864  -0.0583056  -0.2470593 SPIN=   0.00000
   O   0.5119045  -0.1151042  -0.0283575 SPIN=   0.00000
   O   0.3152447  -0.3701571  -0.1767384 SPIN=   0.00000
   S   0.4139663  -0.1952663  -0.2005154 SPIN=   0.00000
   O  -0.5547295   0.2625018  -0.3499063 SPIN=   0.00000
   O  -0.2739864   0.4416944  -0.2470593 SPIN=   0.00000
   O  -0.5119045   0.3848958  -0.0283575 SPIN=   0.00000
   O  -0.3152447   0.1298429  -0.1767384 SPIN=   0.00000
   S  -0.4139663   0.3047337  -0.2005154 SPIN=   0.00000
   F   0.3296709  -0.0194967   0.2862086 SPIN=   0.00000
   F  -0.3296709   0.4805033   0.2862086 SPIN=   0.00000
   F   0.0756049   0.1914790  -0.0414875 SPIN=   0.00000
   F  -0.0756049  -0.3085210  -0.0414875 SPIN=   0.00000
%ENDBLOCK POSITIONS_FRAC

# Note: total spin =  16.00

KPOINTS_MP_SPACING 0.07

%BLOCK SPECIES_POT
QC5
%ENDBLOCK SPECIES_POT

SNAP_TO_SYMMETRY
SYMMETRY_GENERATE

