#              Generated by Buildcell
#
# at 09:11:46 (GMT+1.0) 18th August 2020
# in /lustre/scratch/uccabz1/launch_tmp
# on node-c12k-032
# by uccabz1
#
# compiler GCC version 4.9.2
# options -cpp -iprefix /lustre/shared/ucl/apps/gcc/4.9.2/bin/../lib/gcc/x86_64-unknown-linux-gnu/4.9.2/ -mtune=corei7 -march=x86-64 -g -Og
#
# seed   840697066 -1658123090  -174762558   485377501 -1169497072 -1697339150 -1646951927 -1044171750  -866007528  1266819250  -626762067 -1502021266
#
#      Author: C. J. Pickard (cjp20@cam.ac.uk)
#                Space group: P21
#

%BLOCK LATTICE_ABC
      4.82480      6.80038     12.78036
     90.00000     90.00000    107.46453
%ENDBLOCK LATTICE_ABC

%BLOCK POSITIONS_FRAC
  Li  -0.0829795   0.3943692   0.1760743 SPIN=   0.00000
  Li   0.0829795  -0.3943692  -0.3239257 SPIN=   0.00000
  Li   0.3501394   0.3677936  -0.0794523 SPIN=   0.00000
  Li  -0.3501394  -0.3677936   0.4205477 SPIN=   0.00000
  Fe  -0.0414316   0.2347199   0.4552007 SPIN=   2.56518
  Fe   0.0414316  -0.2347199  -0.0447993 SPIN=   2.56518
  Fe   0.4896646  -0.0093700   0.2052101 SPIN=   5.43482
  Fe  -0.4896646   0.0093700  -0.2947899 SPIN=   5.43482
   O  -0.1383202   0.2096161   0.0430593 SPIN=   0.00000
   O  -0.2833996  -0.1004890  -0.0696211 SPIN=   0.00000
   O  -0.2283606   0.2437944  -0.1457310 SPIN=   0.00000
   O  -0.6391498   0.0845068  -0.0267560 SPIN=   0.00000
   S  -0.3223075   0.1093571  -0.0497622 SPIN=   0.00000
   O   0.1383202  -0.2096161   0.5430593 SPIN=   0.00000
   O   0.2833996   0.1004890   0.4303789 SPIN=   0.00000
   O   0.2283606  -0.2437944   0.3542690 SPIN=   0.00000
   O   0.6391498  -0.0845068   0.4732440 SPIN=   0.00000
   S   0.3223075  -0.1093571   0.4502378 SPIN=   0.00000
   O   0.5666229  -0.3480599   0.2165037 SPIN=   0.00000
   O   0.7502044  -0.4531049   0.0514385 SPIN=   0.00000
   O   0.3004497  -0.3493875   0.0508417 SPIN=   0.00000
   O   0.3015953  -0.6790704   0.1325733 SPIN=   0.00000
   S   0.4797181  -0.4574057   0.1128393 SPIN=   0.00000
   O  -0.5666229   0.3480599  -0.2834963 SPIN=   0.00000
   O  -0.7502044   0.4531049  -0.4485615 SPIN=   0.00000
   O  -0.3004497   0.3493875  -0.4491583 SPIN=   0.00000
   O  -0.3015953   0.6790704  -0.3674267 SPIN=   0.00000
   S  -0.4797181   0.4574057  -0.3871607 SPIN=   0.00000
   F   0.0137004  -0.0289969   0.2117642 SPIN=   0.00000
   F  -0.0137004   0.0289969  -0.2882358 SPIN=   0.00000
   F  -0.2990113   0.3891806   0.3517318 SPIN=   0.00000
   F   0.2990113  -0.3891806  -0.1482682 SPIN=   0.00000
%ENDBLOCK POSITIONS_FRAC

# Note: total spin =  16.00

KPOINTS_MP_SPACING 0.07

%BLOCK SPECIES_POT
QC5
%ENDBLOCK SPECIES_POT

SNAP_TO_SYMMETRY
SYMMETRY_GENERATE

