#              Generated by Buildcell
#
# at 06:25:56 (GMT+1.0) 4th August 2020
# in /lustre/scratch/uccabz1/launch_tmp
# on node-c12k-006
# by uccabz1
#
# compiler GCC version 4.9.2
# options -cpp -iprefix /lustre/shared/ucl/apps/gcc/4.9.2/bin/../lib/gcc/x86_64-unknown-linux-gnu/4.9.2/ -mtune=corei7 -march=x86-64 -g -Og
#
# seed  1802991265  1773298450  1431481619  -611576230  -820215372  -414327626  1666634822 -1450304032  1636367368  -905213540    55455499  -791314225
#
#      Author: C. J. Pickard (cjp20@cam.ac.uk)
#                Space group: C2
#

%BLOCK LATTICE_ABC
      7.14591      7.77301      7.77301
     83.22803     74.38758     74.38758
%ENDBLOCK LATTICE_ABC

%BLOCK POSITIONS_FRAC
  Li   0.4735541   0.0627716   0.4220155 SPIN=   0.00000
  Li  -0.4735541  -0.4220155  -0.0627716 SPIN=   0.00000
  Li  -0.2115128  -0.0196214  -0.1024774 SPIN=   0.00000
  Li   0.2115128   0.1024774   0.0196214 SPIN=   0.00000
  Fe   0.0412188   0.2230066   0.4518039 SPIN=   4.62232
  Fe  -0.0412188  -0.4518039  -0.2230066 SPIN=   4.62232
  Fe  -0.2350275  -0.2760619   0.2217883 SPIN=   3.37768
  Fe   0.2350275  -0.2217883   0.2760619 SPIN=   3.37768
   O  -0.5491373   0.4587505   0.2726451 SPIN=   0.00000
   O  -0.3569602   0.2469006   0.4644046 SPIN=   0.00000
   O  -0.1913125   0.4464828   0.2381640 SPIN=   0.00000
   O  -0.2860915   0.1961127   0.1422720 SPIN=   0.00000
   S  -0.3458754   0.3370616   0.2793714 SPIN=   0.00000
   O   0.5491373  -0.2726451  -0.4587505 SPIN=   0.00000
   O   0.3569602  -0.4644046  -0.2469006 SPIN=   0.00000
   O   0.1913125  -0.2381640  -0.4464828 SPIN=   0.00000
   O   0.2860915  -0.1422720  -0.1961127 SPIN=   0.00000
   S   0.3458754  -0.2793714  -0.3370616 SPIN=   0.00000
   O   0.1051407   0.4353782   0.2873836 SPIN=   0.00000
   O   0.3949642   0.3039504   0.0437765 SPIN=   0.00000
   O   0.2346769   0.6282744   0.0310394 SPIN=   0.00000
   O   0.0560865   0.4103482  -0.0111107 SPIN=   0.00000
   S   0.1977171   0.4444878   0.0877722 SPIN=   0.00000
   O  -0.1051407  -0.2873836  -0.4353782 SPIN=   0.00000
   O  -0.3949642  -0.0437765  -0.3039504 SPIN=   0.00000
   O  -0.2346769  -0.0310394  -0.6282744 SPIN=   0.00000
   O  -0.0560865   0.0111107  -0.4103482 SPIN=   0.00000
   S  -0.1977171  -0.0877722  -0.4444878 SPIN=   0.00000
   F   0.2659514   0.2295156  -0.3226321 SPIN=   0.00000
   F  -0.2659514   0.3226321  -0.2295156 SPIN=   0.00000
   F   0.3028107   0.0114392   0.2836535 SPIN=   0.00000
   F  -0.3028107  -0.2836535  -0.0114392 SPIN=   0.00000
%ENDBLOCK POSITIONS_FRAC

# Note: total spin =  16.00

KPOINTS_MP_SPACING 0.07

%BLOCK SPECIES_POT
QC5
%ENDBLOCK SPECIES_POT

SNAP_TO_SYMMETRY
SYMMETRY_GENERATE

