#              Generated by Buildcell
#
# at 08:04:24 (GMT+1.0) 4th August 2020
# in /lustre/scratch/uccabz1/launch_tmp
# on node-c12p-023
# by uccabz1
#
# compiler GCC version 4.9.2
# options -cpp -iprefix /lustre/shared/ucl/apps/gcc/4.9.2/bin/../lib/gcc/x86_64-unknown-linux-gnu/4.9.2/ -mtune=corei7 -march=x86-64 -g -Og
#
# seed  -719290736  -193869027  -323207627 -2132176490  -463596652 -1469613382   732345790  1617421990 -1951313421 -1811501408 -1244066276 -1776884178
#
#      Author: C. J. Pickard (cjp20@cam.ac.uk)
#                Space group: Iba2
#

%BLOCK LATTICE_ABC
      8.09143      8.09143      8.09143
    104.98820    105.26698    118.55896
%ENDBLOCK LATTICE_ABC

%BLOCK POSITIONS_FRAC
  Li   0.3296656  -0.2720316  -0.4022040 SPIN=   0.00000
  Li  -0.1301724   0.2720316  -0.3983028 SPIN=   0.00000
  Li  -0.1703344  -0.2681304   0.1016972 SPIN=   0.00000
  Li   0.3698276   0.2681304   0.0977960 SPIN=   0.00000
  Fe   0.1018966   0.0760934  -0.3512476 SPIN=   4.00000
  Fe  -0.4273410  -0.0760934   0.0258032 SPIN=   4.00000
  Fe  -0.3981034   0.4531442  -0.4741968 SPIN=   4.00000
  Fe   0.0726590  -0.4531442   0.1487524 SPIN=   4.00000
   O  -0.6224120  -0.3764851   0.3619235 SPIN=   0.00000
   O  -0.4079121  -0.0188931   0.3876045 SPIN=   0.00000
   O  -0.3949083  -0.3028504   0.1987512 SPIN=   0.00000
   O  -0.2331064  -0.1506985   0.5536116 SPIN=   0.00000
   S  -0.4145847  -0.2122318   0.3754727 SPIN=   0.00000
   O  -0.2615914   0.3764851  -0.2459269 SPIN=   0.00000
   O  -0.5935024   0.0188931  -0.3890190 SPIN=   0.00000
   O  -0.4983984   0.3028504  -0.0920579 SPIN=   0.00000
   O  -0.2956900   0.1506985  -0.0824079 SPIN=   0.00000
   S  -0.4122955   0.2122318  -0.2023529 SPIN=   0.00000
   O  -0.1224120   0.0156645   0.2540731 SPIN=   0.00000
   O   0.0920879   0.2044834   0.1109810 SPIN=   0.00000
   O   0.1050917   0.4063406   0.4079421 SPIN=   0.00000
   O   0.2668936   0.2132820   0.4175921 SPIN=   0.00000
   S   0.0854153   0.2099426   0.2976471 SPIN=   0.00000
   O   0.2384086  -0.0156645  -0.1380765 SPIN=   0.00000
   O  -0.0935024  -0.2044834  -0.1123955 SPIN=   0.00000
   O   0.0016016  -0.4063406  -0.3012488 SPIN=   0.00000
   O   0.2043100  -0.2132820   0.0536116 SPIN=   0.00000
   S   0.0877045  -0.2099426  -0.1245273 SPIN=   0.00000
   F  -0.4680447  -0.2683732  -0.2008443 SPIN=   0.00000
   F   0.0675289   0.2683732  -0.1996715 SPIN=   0.00000
   F   0.0319553  -0.2672003   0.3003285 SPIN=   0.00000
   F  -0.4324711   0.2672003   0.2991557 SPIN=   0.00000
%ENDBLOCK POSITIONS_FRAC

# Note: total spin =  16.00

KPOINTS_MP_SPACING 0.07

%BLOCK SPECIES_POT
QC5
%ENDBLOCK SPECIES_POT

SNAP_TO_SYMMETRY
SYMMETRY_GENERATE

