#              Generated by Buildcell
#
# at 07:05:18 (GMT+1.0) 4th August 2020
# in /lustre/scratch/uccabz1/launch_tmp
# on node-c12d-028
# by uccabz1
#
# compiler GCC version 4.9.2
# options -cpp -iprefix /lustre/shared/ucl/apps/gcc/4.9.2/bin/../lib/gcc/x86_64-unknown-linux-gnu/4.9.2/ -mtune=corei7 -march=x86-64 -g -Og
#
# seed  -313961520   -31862882  -322647598   534831747   599999332  2093488296   168834805 -1282522303   782476488  -532602039  -886625156 -1221716174
#
#      Author: C. J. Pickard (cjp20@cam.ac.uk)
#                Space group: Iba2
#

%BLOCK LATTICE_ABC
      6.98744      8.35444      8.35444
     74.62903     65.27980     65.27980
%ENDBLOCK LATTICE_ABC

%BLOCK POSITIONS_FRAC
  Li   0.3022057  -0.3058800   0.0537660 SPIN=   0.00000
  Li  -0.3022057  -0.0537660   0.3058800 SPIN=   0.00000
  Li  -0.0500917   0.1941200  -0.4462340 SPIN=   0.00000
  Li   0.0500917   0.4462340  -0.1941200 SPIN=   0.00000
  Fe  -0.0544225  -0.1845062  -0.1449953 SPIN=   4.00000
  Fe   0.0544225   0.1449953   0.1845062 SPIN=   4.00000
  Fe   0.3839240   0.3154938   0.3550047 SPIN=   4.00000
  Fe  -0.3839240  -0.3550047  -0.3154938 SPIN=   4.00000
   O  -0.3157334   0.1384686  -0.2776891 SPIN=   0.00000
   O  -0.6139316   0.0918033  -0.3261012 SPIN=   0.00000
   O  -0.2518799  -0.1540422  -0.3467975 SPIN=   0.00000
   O  -0.2673576   0.1022358  -0.5784069 SPIN=   0.00000
   S  -0.3622256   0.0446164  -0.3822487 SPIN=   0.00000
   O   0.3157334   0.2776891  -0.1384686 SPIN=   0.00000
   O   0.6139316   0.3261012  -0.0918033 SPIN=   0.00000
   O   0.2518799   0.3467975   0.1540422 SPIN=   0.00000
   O   0.2673576   0.5784069  -0.1022358 SPIN=   0.00000
   S   0.3622256   0.3822487  -0.0446164 SPIN=   0.00000
   O  -0.5450460  -0.3615314   0.2223109 SPIN=   0.00000
   O  -0.1517705  -0.4081967   0.1738988 SPIN=   0.00000
   O  -0.2472805  -0.6540422   0.1532025 SPIN=   0.00000
   O  -0.2564713  -0.3977642  -0.0784069 SPIN=   0.00000
   S  -0.3001421  -0.4553836   0.1177513 SPIN=   0.00000
   O   0.5450460  -0.2223109   0.3615314 SPIN=   0.00000
   O   0.1517705  -0.1738988   0.4081967 SPIN=   0.00000
   O   0.2472805  -0.1532025   0.6540422 SPIN=   0.00000
   O   0.2564713   0.0784069   0.3977642 SPIN=   0.00000
   S   0.3001421  -0.1177513   0.4553836 SPIN=   0.00000
   F  -0.2437877   0.4560449  -0.4690188 SPIN=   0.00000
   F   0.2437877   0.4690188  -0.4560449 SPIN=   0.00000
   F   0.2567615  -0.0439551   0.0309812 SPIN=   0.00000
   F  -0.2567615  -0.0309812   0.0439551 SPIN=   0.00000
%ENDBLOCK POSITIONS_FRAC

# Note: total spin =  16.00

KPOINTS_MP_SPACING 0.07

%BLOCK SPECIES_POT
QC5
%ENDBLOCK SPECIES_POT

SNAP_TO_SYMMETRY
SYMMETRY_GENERATE

