#              Generated by Buildcell
#
# at 06:55:03 (GMT+1.0) 4th August 2020
# in /lustre/scratch/uccabz1/launch_tmp
# on node-c12p-019
# by uccabz1
#
# compiler GCC version 4.9.2
# options -cpp -iprefix /lustre/shared/ucl/apps/gcc/4.9.2/bin/../lib/gcc/x86_64-unknown-linux-gnu/4.9.2/ -mtune=corei7 -march=x86-64 -g -Og
#
# seed  -920466802 -1715194282 -1666265657 -1957091525 -1557147409  1795389938  -567011054   307307071  -283746673 -1978381220 -1196675927 -1895037417
#
#      Author: C. J. Pickard (cjp20@cam.ac.uk)
#                Space group: P21
#

%BLOCK LATTICE_ABC
      5.65168      7.37632      9.88237
     90.00000     90.00000    103.85243
%ENDBLOCK LATTICE_ABC

%BLOCK POSITIONS_FRAC
  Li  -0.3870378  -0.0568944   0.3407360 SPIN=   0.00000
  Li   0.3870378   0.0568944  -0.1592640 SPIN=   0.00000
  Li   0.1541247   0.3497199  -0.4814097 SPIN=   0.00000
  Li  -0.1541247  -0.3497199   0.0185903 SPIN=   0.00000
  Fe   0.0194658  -0.4010473  -0.2800418 SPIN=   2.53522
  Fe  -0.0194658   0.4010473   0.2199582 SPIN=   2.53522
  Fe  -0.0875953   0.1393416  -0.1100898 SPIN=   5.46478
  Fe   0.0875953  -0.1393416   0.3899102 SPIN=   5.46478
   O  -0.4410677  -0.3801395  -0.3075499 SPIN=   0.00000
   O  -0.6537481  -0.1657777  -0.4215810 SPIN=   0.00000
   O  -0.2210164  -0.1498218  -0.4739390 SPIN=   0.00000
   O  -0.3348719  -0.0435015  -0.2509931 SPIN=   0.00000
   S  -0.4126760  -0.1848101  -0.3635157 SPIN=   0.00000
   O   0.4410677   0.3801395   0.1924501 SPIN=   0.00000
   O   0.6537481   0.1657777   0.0784190 SPIN=   0.00000
   O   0.2210164   0.1498218   0.0260610 SPIN=   0.00000
   O   0.3348719   0.0435015   0.2490069 SPIN=   0.00000
   S   0.4126760   0.1848101   0.1364843 SPIN=   0.00000
   O   0.6010908  -0.2373163  -0.0579921 SPIN=   0.00000
   O   0.2849564  -0.5259743  -0.0104481 SPIN=   0.00000
   O   0.1644437  -0.2362199  -0.0741171 SPIN=   0.00000
   O   0.3508768  -0.2606225   0.1496846 SPIN=   0.00000
   S   0.3503419  -0.3150333   0.0017818 SPIN=   0.00000
   O  -0.6010908   0.2373163  -0.5579921 SPIN=   0.00000
   O  -0.2849564   0.5259743  -0.5104481 SPIN=   0.00000
   O  -0.1644437   0.2362199  -0.5741171 SPIN=   0.00000
   O  -0.3508768   0.2606225  -0.3503154 SPIN=   0.00000
   S  -0.3503419   0.3150333  -0.4982182 SPIN=   0.00000
   F  -0.2208407   0.4504245  -0.1100584 SPIN=   0.00000
   F   0.2208407  -0.4504245   0.3899416 SPIN=   0.00000
   F  -0.1609771  -0.1029570   0.2086208 SPIN=   0.00000
   F   0.1609771   0.1029570  -0.2913792 SPIN=   0.00000
%ENDBLOCK POSITIONS_FRAC

# Note: total spin =  16.00

KPOINTS_MP_SPACING 0.07

%BLOCK SPECIES_POT
QC5
%ENDBLOCK SPECIES_POT

SNAP_TO_SYMMETRY
SYMMETRY_GENERATE

