#              Generated by Buildcell
#
# at 08:53:13 (GMT+1.0) 4th August 2020
# in /lustre/scratch/uccabz1/launch_tmp
# on node-c12k-002
# by uccabz1
#
# compiler GCC version 4.9.2
# options -cpp -iprefix /lustre/shared/ucl/apps/gcc/4.9.2/bin/../lib/gcc/x86_64-unknown-linux-gnu/4.9.2/ -mtune=corei7 -march=x86-64 -g -Og
#
# seed   993443366  -934618265 -1573499260  1072679847   438237443 -1399234956   125529351   126442183    99951796 -1480502746   709604128   628644406
#
#      Author: C. J. Pickard (cjp20@cam.ac.uk)
#                Space group: Pca21
#

%BLOCK LATTICE_ABC
      4.30206      8.60918     10.79996
     90.00000     90.00000     90.00000
%ENDBLOCK LATTICE_ABC

%BLOCK POSITIONS_FRAC
  Li  -0.4536918   0.1469407   0.1390195 SPIN=   0.00000
  Li   0.4536918  -0.3530593  -0.1390195 SPIN=   0.00000
  Li   0.4536918   0.1469407  -0.3609805 SPIN=   0.00000
  Li  -0.4536918  -0.3530593   0.3609805 SPIN=   0.00000
  Fe  -0.0647802   0.4300875   0.2025559 SPIN=   4.00000
  Fe   0.0647802  -0.0699125  -0.2025559 SPIN=   4.00000
  Fe   0.0647802   0.4300875  -0.2974441 SPIN=   4.00000
  Fe  -0.0647802  -0.0699125   0.2974441 SPIN=   4.00000
   O   0.0187146   0.1835923   0.5719457 SPIN=   0.00000
   O  -0.4471950   0.1435133   0.4413783 SPIN=   0.00000
   O   0.0449742   0.2327146   0.3464027 SPIN=   0.00000
   O  -0.2550684   0.4096978   0.4817670 SPIN=   0.00000
   S  -0.1596436   0.2423795   0.4603734 SPIN=   0.00000
   O  -0.0187146  -0.3164077  -0.5719457 SPIN=   0.00000
   O   0.4471950  -0.3564867  -0.4413783 SPIN=   0.00000
   O  -0.0449742  -0.2672854  -0.3464027 SPIN=   0.00000
   O   0.2550684  -0.0903022  -0.4817670 SPIN=   0.00000
   S   0.1596436  -0.2576205  -0.4603734 SPIN=   0.00000
   O  -0.0187146   0.1835923   0.0719457 SPIN=   0.00000
   O   0.4471950   0.1435133  -0.0586217 SPIN=   0.00000
   O  -0.0449742   0.2327146  -0.1535973 SPIN=   0.00000
   O   0.2550684   0.4096978  -0.0182330 SPIN=   0.00000
   S   0.1596436   0.2423795  -0.0396266 SPIN=   0.00000
   O   0.0187146  -0.3164077  -0.0719457 SPIN=   0.00000
   O  -0.4471950  -0.3564867   0.0586217 SPIN=   0.00000
   O   0.0449742  -0.2672854   0.1535973 SPIN=   0.00000
   O  -0.2550684  -0.0903022   0.0182330 SPIN=   0.00000
   S  -0.1596436  -0.2576205   0.0396266 SPIN=   0.00000
   F  -0.3403549  -0.0047999  -0.2521298 SPIN=   0.00000
   F   0.3403549   0.4952001   0.2521298 SPIN=   0.00000
   F   0.3403549  -0.0047999   0.2478702 SPIN=   0.00000
   F  -0.3403549   0.4952001  -0.2478702 SPIN=   0.00000
%ENDBLOCK POSITIONS_FRAC

# Note: total spin =  16.00

KPOINTS_MP_SPACING 0.07

%BLOCK SPECIES_POT
QC5
%ENDBLOCK SPECIES_POT

SNAP_TO_SYMMETRY
SYMMETRY_GENERATE

