#              Generated by Buildcell
#
# at 16:21:34 (GMT+1.0) 18th August 2020
# in /scratch/scratch/uccabz1/launch_tmp
# on node-k10b-019
# by uccabz1
#
# compiler GCC version 4.9.2
# options -cpp -iprefix /scratch/UCL/applications/gcc/4.9.2/bin/../lib/gcc/x86_64-unknown-linux-gnu/4.9.2/ -mtune=corei7 -march=x86-64 -g -O2
#
# seed -1512536340  -775672027 -1953520261  1021308086 -1681326873   119147721 -1229580721 -1086081256 -1364025560  1070842258  -471574346  -291101051
#
#      Author: C. J. Pickard (cjp20@cam.ac.uk)
#                Space group: P212121
#

%BLOCK LATTICE_ABC
      4.26554      6.68940     14.01840
     90.00000     90.00000     90.00000
%ENDBLOCK LATTICE_ABC

%BLOCK POSITIONS_FRAC
  Li   0.4623648  -0.2598884  -0.2405927 SPIN=   0.00000
  Li   0.0376352   0.2401116   0.2405927 SPIN=   0.00000
  Li  -0.4623648  -0.2401116   0.2594073 SPIN=   0.00000
  Li  -0.0376352   0.2598884  -0.2594073 SPIN=   0.00000
  Fe   0.2506715   0.3762180  -0.0480575 SPIN=   4.00000
  Fe   0.2493285  -0.1237820   0.0480575 SPIN=   4.00000
  Fe  -0.2506715   0.1237820   0.4519425 SPIN=   4.00000
  Fe  -0.2493285  -0.3762180  -0.4519425 SPIN=   4.00000
   O   0.5916665  -0.1000797  -0.3958751 SPIN=   0.00000
   O   0.2229906   0.1833718  -0.3788975 SPIN=   0.00000
   O   0.0754560  -0.1518159  -0.3191516 SPIN=   0.00000
   O   0.1072150  -0.0893199  -0.4928907 SPIN=   0.00000
   S   0.2493320  -0.0394609  -0.3967037 SPIN=   0.00000
   O  -0.0916665   0.3999203   0.3958751 SPIN=   0.00000
   O   0.2770094   0.6833718   0.3788975 SPIN=   0.00000
   O   0.4245440   0.3481841   0.3191516 SPIN=   0.00000
   O   0.3927850   0.4106801   0.4928907 SPIN=   0.00000
   S   0.2506680   0.4605391   0.3967037 SPIN=   0.00000
   O  -0.5916665  -0.3999203   0.1041249 SPIN=   0.00000
   O  -0.2229906  -0.6833718   0.1211025 SPIN=   0.00000
   O  -0.0754560  -0.3481841   0.1808484 SPIN=   0.00000
   O  -0.1072150  -0.4106801   0.0071093 SPIN=   0.00000
   S  -0.2493320  -0.4605391   0.1032963 SPIN=   0.00000
   O   0.0916665   0.1000797  -0.1041249 SPIN=   0.00000
   O  -0.2770094  -0.1833718  -0.1211025 SPIN=   0.00000
   O  -0.4245440   0.1518159  -0.1808484 SPIN=   0.00000
   O  -0.3927850   0.0893199  -0.0071093 SPIN=   0.00000
   S  -0.2506680   0.0394609  -0.1032963 SPIN=   0.00000
   F   0.2760770   0.1023715   0.1486531 SPIN=   0.00000
   F   0.2239230  -0.3976285  -0.1486531 SPIN=   0.00000
   F  -0.2760770   0.3976285  -0.3513469 SPIN=   0.00000
   F  -0.2239230  -0.1023715   0.3513469 SPIN=   0.00000
%ENDBLOCK POSITIONS_FRAC

# Note: total spin =  16.00

KPOINTS_MP_SPACING 0.07

%BLOCK SPECIES_POT
QC5
%ENDBLOCK SPECIES_POT

SNAP_TO_SYMMETRY
SYMMETRY_GENERATE

