#              Generated by Buildcell
#
# at 06:11:08 (GMT+1.0) 4th August 2020
# in /lustre/scratch/uccabz1/launch_tmp
# on node-c12k-033
# by uccabz1
#
# compiler GCC version 4.9.2
# options -cpp -iprefix /lustre/shared/ucl/apps/gcc/4.9.2/bin/../lib/gcc/x86_64-unknown-linux-gnu/4.9.2/ -mtune=corei7 -march=x86-64 -g -Og
#
# seed  -134306472   377903611   440131593    89327370  1464258867   858850270  -350021373 -2127062587  -952993649   908682307   347320260   161019047
#
#      Author: C. J. Pickard (cjp20@cam.ac.uk)
#                Space group: I-4
#

%BLOCK LATTICE_ABC
      7.79116      8.15572      8.15572
     76.81185     61.46797     61.46797
%ENDBLOCK LATTICE_ABC

%BLOCK POSITIONS_FRAC
  Li  -0.2462568   0.0126117   0.4445723 SPIN=   0.00000
  Li   0.2109271  -0.0126117  -0.4445723 SPIN=   0.00000
  Li   0.2336451  -0.4445723   0.0126117 SPIN=   0.00000
  Li  -0.1983155   0.4445723  -0.0126117 SPIN=   0.00000
  Fe  -0.0516500  -0.2617657  -0.2294898 SPIN=   4.00000
  Fe   0.4570945   0.2617657   0.2294898 SPIN=   4.00000
  Fe   0.3134156   0.2294898  -0.2617657 SPIN=   4.00000
  Fe   0.2811398  -0.2294898   0.2617657 SPIN=   4.00000
   O  -0.0798165  -0.3248588   0.1887107 SPIN=   0.00000
   O  -0.3623025  -0.0018795   0.2793473 SPIN=   0.00000
   O  -0.4662889  -0.2630257   0.3600887 SPIN=   0.00000
   O  -0.3223294  -0.1624842   0.0312373 SPIN=   0.00000
   S  -0.3076843  -0.1880620   0.2148460 SPIN=   0.00000
   O  -0.2159646   0.3248588  -0.1887107 SPIN=   0.00000
   O  -0.0848347   0.0018795  -0.2793473 SPIN=   0.00000
   O  -0.3692259   0.2630257  -0.3600887 SPIN=   0.00000
   O  -0.4535763   0.1624842  -0.0312373 SPIN=   0.00000
   S  -0.2809004   0.1880620  -0.2148460 SPIN=   0.00000
   O   0.4046753  -0.1887107  -0.3248588 SPIN=   0.00000
   O   0.3641820  -0.2793473  -0.0018795 SPIN=   0.00000
   O   0.7293146  -0.3600887  -0.2630257 SPIN=   0.00000
   O   0.4848136  -0.0312373  -0.1624842 SPIN=   0.00000
   S   0.4957464  -0.2148460  -0.1880620 SPIN=   0.00000
   O  -0.1088942   0.1887107   0.3248588 SPIN=   0.00000
   O   0.0829552   0.2793473   0.0018795 SPIN=   0.00000
   O   0.1062002   0.3600887   0.2630257 SPIN=   0.00000
   O   0.2910921   0.0312373   0.1624842 SPIN=   0.00000
   S   0.0928383   0.2148460   0.1880620 SPIN=   0.00000
   F   0.1925573  -0.4456866  -0.1930037 SPIN=   0.00000
   F  -0.4461331   0.4456866   0.1930037 SPIN=   0.00000
   F   0.2531294   0.1930037  -0.4456866 SPIN=   0.00000
   F   0.0004464  -0.1930037   0.4456866 SPIN=   0.00000
%ENDBLOCK POSITIONS_FRAC

# Note: total spin =  16.00

KPOINTS_MP_SPACING 0.07

%BLOCK SPECIES_POT
QC5
%ENDBLOCK SPECIES_POT

SNAP_TO_SYMMETRY
SYMMETRY_GENERATE

