#              Generated by Buildcell
#
# at 06:31:45 (GMT+1.0) 4th August 2020
# in /lustre/scratch/uccabz1/launch_tmp
# on node-c12m-019
# by uccabz1
#
# compiler GCC version 4.9.2
# options -cpp -iprefix /lustre/shared/ucl/apps/gcc/4.9.2/bin/../lib/gcc/x86_64-unknown-linux-gnu/4.9.2/ -mtune=corei7 -march=x86-64 -g -Og
#
# seed  1486227061  1687849433   199209581   922478686 -1995792579   597143152   505731554  -522067986  -433830141  1879794636   466843077  1410318201
#
#      Author: C. J. Pickard (cjp20@cam.ac.uk)
#                Space group: C2
#

%BLOCK LATTICE_ABC
      4.08676      9.90919      9.90919
     92.67033     92.57815     92.57815
%ENDBLOCK LATTICE_ABC

%BLOCK POSITIONS_FRAC
  Li   0.2237943  -0.1890140  -0.0529278 SPIN=   0.00000
  Li  -0.2237943   0.0529278   0.1890140 SPIN=   0.00000
  Li  -0.1848965   0.4308234   0.1034367 SPIN=   0.00000
  Li   0.1848965  -0.1034367  -0.4308234 SPIN=   0.00000
  Fe  -0.2804140  -0.0123464  -0.2152695 SPIN=   4.00657
  Fe   0.2804140   0.2152695   0.0123464 SPIN=   4.00657
  Fe  -0.2614785   0.4441885  -0.2045330 SPIN=   3.99343
  Fe   0.2614785   0.2045330  -0.4441885 SPIN=   3.99343
   O   0.5724640  -0.3965103  -0.4327037 SPIN=   0.00000
   O   0.2848603  -0.2618951  -0.2622044 SPIN=   0.00000
   O   0.0648082  -0.4908268  -0.3387453 SPIN=   0.00000
   O   0.0377375  -0.3026542  -0.4939539 SPIN=   0.00000
   S   0.2399675  -0.3629716  -0.3819018 SPIN=   0.00000
   O  -0.5724640   0.4327037   0.3965103 SPIN=   0.00000
   O  -0.2848603   0.2622044   0.2618951 SPIN=   0.00000
   O  -0.0648082   0.3387453   0.4908268 SPIN=   0.00000
   O  -0.0377375   0.4939539   0.3026542 SPIN=   0.00000
   S  -0.2399675   0.3819018   0.3629716 SPIN=   0.00000
   O   0.1962583  -0.3033984   0.2013310 SPIN=   0.00000
   O   0.1308895  -0.3967116  -0.0348821 SPIN=   0.00000
   O   0.3209361  -0.5413942   0.1470827 SPIN=   0.00000
   O   0.6857824  -0.3553466   0.0737524 SPIN=   0.00000
   S   0.3334666  -0.3992127   0.0968210 SPIN=   0.00000
   O  -0.1962583  -0.2013310   0.3033984 SPIN=   0.00000
   O  -0.1308895   0.0348821   0.3967116 SPIN=   0.00000
   O  -0.3209361  -0.1470827   0.5413942 SPIN=   0.00000
   O  -0.6857824  -0.0737524   0.3553466 SPIN=   0.00000
   S  -0.3334666  -0.0968210   0.3992127 SPIN=   0.00000
   F   0.2678259   0.0875472   0.1497270 SPIN=   0.00000
   F  -0.2678259  -0.1497270  -0.0875472 SPIN=   0.00000
   F  -0.2296244   0.3100495  -0.0741509 SPIN=   0.00000
   F   0.2296244   0.0741509  -0.3100495 SPIN=   0.00000
%ENDBLOCK POSITIONS_FRAC

# Note: total spin =  16.00

KPOINTS_MP_SPACING 0.07

%BLOCK SPECIES_POT
QC5
%ENDBLOCK SPECIES_POT

SNAP_TO_SYMMETRY
SYMMETRY_GENERATE

