#              Generated by Buildcell
#
# at 10:08:12 (GMT+1.0) 4th August 2020
# in /lustre/scratch/uccabz1/launch_tmp
# on node-c12m-027
# by uccabz1
#
# compiler GCC version 4.9.2
# options -cpp -iprefix /lustre/shared/ucl/apps/gcc/4.9.2/bin/../lib/gcc/x86_64-unknown-linux-gnu/4.9.2/ -mtune=corei7 -march=x86-64 -g -Og
#
# seed  1154712311  -520120286  -207328456 -1219787717   211047795   -84356431    64555182 -1866076833 -1069936719 -2072081802  2127407379  -782553708
#
#      Author: C. J. Pickard (cjp20@cam.ac.uk)
#                Space group: Cc
#

%BLOCK LATTICE_ABC
      6.77687      8.08360      8.08360
    102.95400    103.52123    103.52123
%ENDBLOCK LATTICE_ABC

%BLOCK POSITIONS_FRAC
  Li  -0.4406893  -0.2046706  -0.3666515 SPIN=   0.00000
  Li   0.0593107   0.1333485   0.2953294 SPIN=   0.00000
  Li   0.1997628  -0.4123135  -0.0782413 SPIN=   0.00000
  Li  -0.3002372   0.4217587   0.0876865 SPIN=   0.00000
  Fe   0.4810174   0.0937721   0.4830369 SPIN=   4.23619
  Fe  -0.0189826  -0.0169631  -0.4062279 SPIN=   4.23619
  Fe   0.3967654   0.4770355   0.3027963 SPIN=   3.76381
  Fe  -0.1032346  -0.1972037  -0.0229645 SPIN=   3.76381
   O   0.3598201   0.2604453  -0.3346892 SPIN=   0.00000
   O   0.7121118   0.4897005  -0.2250518 SPIN=   0.00000
   O   0.4578333   0.4977562  -0.0500844 SPIN=   0.00000
   O   0.3861079   0.5708356  -0.3353860 SPIN=   0.00000
   S   0.4789683   0.4546844  -0.2363029 SPIN=   0.00000
   O  -0.1401799   0.1653108  -0.2395547 SPIN=   0.00000
   O   0.2121118   0.2749482  -0.0102995 SPIN=   0.00000
   O  -0.0421667   0.4499156  -0.0022438 SPIN=   0.00000
   O  -0.1138921   0.1646140   0.0708356 SPIN=   0.00000
   S  -0.0210317   0.2636971  -0.0453156 SPIN=   0.00000
   O  -0.2748207   0.4906156   0.4099440 SPIN=   0.00000
   O   0.0338684   0.5201656   0.6613878 SPIN=   0.00000
   O   0.0194392   0.3775886   0.3522333 SPIN=   0.00000
   O  -0.2240666   0.2234137   0.4930545 SPIN=   0.00000
   S  -0.1113949   0.4029459   0.4791549 SPIN=   0.00000
   O   0.2251793  -0.0900560  -0.0093844 SPIN=   0.00000
   O   0.5338684   0.1613878   0.0201656 SPIN=   0.00000
   O   0.5194392  -0.1477667  -0.1224114 SPIN=   0.00000
   O   0.2759334  -0.0069455  -0.2765863 SPIN=   0.00000
   S   0.3886051  -0.0208451  -0.0970541 SPIN=   0.00000
   F   0.3531125   0.2116047   0.2965181 SPIN=   0.00000
   F  -0.1468875  -0.2034819  -0.2883953 SPIN=   0.00000
   F   0.2557142  -0.3001877   0.3801823 SPIN=   0.00000
   F  -0.2442858  -0.1198177   0.1998123 SPIN=   0.00000
%ENDBLOCK POSITIONS_FRAC

# Note: total spin =  16.00

KPOINTS_MP_SPACING 0.07

%BLOCK SPECIES_POT
QC5
%ENDBLOCK SPECIES_POT

SNAP_TO_SYMMETRY
SYMMETRY_GENERATE

