#              Generated by Buildcell
#
# at 09:47:44 (GMT+1.0) 4th August 2020
# in /lustre/scratch/uccabz1/launch_tmp
# on node-c12p-032
# by uccabz1
#
# compiler GCC version 4.9.2
# options -cpp -iprefix /lustre/shared/ucl/apps/gcc/4.9.2/bin/../lib/gcc/x86_64-unknown-linux-gnu/4.9.2/ -mtune=corei7 -march=x86-64 -g -Og
#
# seed  -388242821  -569766200  1306402024  1228707012 -1224402664  1844697328  -304585591  1169938015 -2121676412    98398872  1228146923  1361384885
#
#      Author: C. J. Pickard (cjp20@cam.ac.uk)
#                Space group: Cc
#

%BLOCK LATTICE_ABC
      5.90341      8.77490      8.77490
     71.07289     72.63075     72.63075
%ENDBLOCK LATTICE_ABC

%BLOCK POSITIONS_FRAC
  Li  -0.1940212  -0.0705465   0.2599771 SPIN=   0.00000
  Li   0.3059788   0.2599771  -0.0705465 SPIN=   0.00000
  Li  -0.2504129  -0.3312887  -0.0525384 SPIN=   0.00000
  Li   0.2495871  -0.0525384  -0.3312887 SPIN=   0.00000
  Fe   0.4191900  -0.0866269   0.1226297 SPIN=   3.72911
  Fe  -0.0808100   0.1226297  -0.0866269 SPIN=   3.72911
  Fe  -0.4520742   0.3902275   0.1811656 SPIN=   4.27089
  Fe   0.0479258   0.1811656   0.3902275 SPIN=   4.27089
   O  -0.0497430  -0.1763854  -0.2558047 SPIN=   0.00000
   O  -0.3724123  -0.0806537  -0.4139000 SPIN=   0.00000
   O  -0.1963141   0.1227279  -0.3737099 SPIN=   0.00000
   O  -0.4626428  -0.0321550  -0.1371503 SPIN=   0.00000
   S  -0.2702780  -0.0416166  -0.2951412 SPIN=   0.00000
   O   0.4502570  -0.2558047  -0.1763854 SPIN=   0.00000
   O   0.1275877  -0.4139000  -0.0806537 SPIN=   0.00000
   O   0.3036859  -0.3737099   0.1227279 SPIN=   0.00000
   O   0.0373572  -0.1371503  -0.0321550 SPIN=   0.00000
   S   0.2297220  -0.2951412  -0.0416166 SPIN=   0.00000
   O  -0.2860930  -0.2723075   0.1939275 SPIN=   0.00000
   O  -0.0411438  -0.3801585   0.4068096 SPIN=   0.00000
   O  -0.2617552  -0.5595493   0.3680744 SPIN=   0.00000
   O  -0.4909974  -0.3250263   0.4905467 SPIN=   0.00000
   S  -0.2699974  -0.3842604   0.3648395 SPIN=   0.00000
   O   0.2139070   0.1939275  -0.2723075 SPIN=   0.00000
   O   0.4588562   0.4068096  -0.3801585 SPIN=   0.00000
   O   0.2382448   0.3680744  -0.5595493 SPIN=   0.00000
   O   0.0090026   0.4905467  -0.3250263 SPIN=   0.00000
   S   0.2300026   0.3648395  -0.3842604 SPIN=   0.00000
   F   0.0291036   0.3138821   0.1193792 SPIN=   0.00000
   F  -0.4708964   0.1193792   0.3138821 SPIN=   0.00000
   F  -0.3664331   0.3150576  -0.1172906 SPIN=   0.00000
   F   0.1335669  -0.1172906   0.3150576 SPIN=   0.00000
%ENDBLOCK POSITIONS_FRAC

# Note: total spin =  16.00

KPOINTS_MP_SPACING 0.07

%BLOCK SPECIES_POT
QC5
%ENDBLOCK SPECIES_POT

SNAP_TO_SYMMETRY
SYMMETRY_GENERATE

