#              Generated by Buildcell
#
# at 10:57:07 (GMT+1.0) 4th August 2020
# in /lustre/scratch/uccabz1/launch_tmp
# on node-c12n-011
# by uccabz1
#
# compiler GCC version 4.9.2
# options -cpp -iprefix /lustre/shared/ucl/apps/gcc/4.9.2/bin/../lib/gcc/x86_64-unknown-linux-gnu/4.9.2/ -mtune=corei7 -march=x86-64 -g -Og
#
# seed  2130710501 -1940017184  -416608445   717380407   615944208 -1272123654   774626926    -5522331  -815921599  -498642774   914535687  -621744473
#
#      Author: C. J. Pickard (cjp20@cam.ac.uk)
#                Space group: P21
#

%BLOCK LATTICE_ABC
      4.05297      6.35425     15.58993
     90.00000     90.00000     94.94847
%ENDBLOCK LATTICE_ABC

%BLOCK POSITIONS_FRAC
  Li  -0.4902232  -0.1592052  -0.2858415 SPIN=   0.00000
  Li   0.4902232   0.1592052   0.2141585 SPIN=   0.00000
  Li   0.4853051   0.3316175  -0.1805571 SPIN=   0.00000
  Li  -0.4853051  -0.3316175   0.3194429 SPIN=   0.00000
  Fe   0.4283122   0.2113678  -0.4078123 SPIN=   3.35771
  Fe  -0.4283122  -0.2113678   0.0921877 SPIN=   3.35771
  Fe   0.0251882  -0.3764849  -0.0923135 SPIN=   4.64229
  Fe  -0.0251882   0.3764849   0.4076865 SPIN=   4.64229
   O   0.3780242   0.5318352   0.2022545 SPIN=   0.00000
   O  -0.1598175   0.4494189   0.2752751 SPIN=   0.00000
   O   0.0275869   0.2064563   0.1648742 SPIN=   0.00000
   O  -0.1454216   0.5558430   0.1225223 SPIN=   0.00000
   S   0.0250930   0.4358883   0.1912315 SPIN=   0.00000
   O  -0.3780242  -0.5318352  -0.2977455 SPIN=   0.00000
   O   0.1598175  -0.4494189  -0.2247249 SPIN=   0.00000
   O  -0.0275869  -0.2064563  -0.3351258 SPIN=   0.00000
   O   0.1454216  -0.5558430  -0.3774777 SPIN=   0.00000
   S  -0.0250930  -0.4358883  -0.3087685 SPIN=   0.00000
   O  -0.1897062   0.0104801   0.4031895 SPIN=   0.00000
   O   0.0860522  -0.0036001   0.5444610 SPIN=   0.00000
   O   0.0300221  -0.3209125   0.4517952 SPIN=   0.00000
   O  -0.4647655  -0.1954637   0.5218368 SPIN=   0.00000
   S  -0.1345994  -0.1273741   0.4803207 SPIN=   0.00000
   O   0.1897062  -0.0104801  -0.0968105 SPIN=   0.00000
   O  -0.0860522   0.0036001   0.0444610 SPIN=   0.00000
   O  -0.0300221   0.3209125  -0.0482048 SPIN=   0.00000
   O   0.4647655   0.1954637   0.0218368 SPIN=   0.00000
   S   0.1345994   0.1273741  -0.0196793 SPIN=   0.00000
   F  -0.4614953  -0.3590800  -0.0316733 SPIN=   0.00000
   F   0.4614953   0.3590800   0.4683267 SPIN=   0.00000
   F  -0.2989546   0.0777922  -0.2153390 SPIN=   0.00000
   F   0.2989546  -0.0777922   0.2846610 SPIN=   0.00000
%ENDBLOCK POSITIONS_FRAC

# Note: total spin =  16.00

KPOINTS_MP_SPACING 0.07

%BLOCK SPECIES_POT
QC5
%ENDBLOCK SPECIES_POT

SNAP_TO_SYMMETRY
SYMMETRY_GENERATE

