#              Generated by Buildcell
#
# at 09:55:06 (GMT+1.0) 18th August 2020
# in /lustre/scratch/uccabz1/launch_tmp
# on node-c12f-027
# by uccabz1
#
# compiler GCC version 4.9.2
# options -cpp -iprefix /lustre/shared/ucl/apps/gcc/4.9.2/bin/../lib/gcc/x86_64-unknown-linux-gnu/4.9.2/ -mtune=corei7 -march=x86-64 -g -Og
#
# seed -1366102859 -1214614451  -651853572 -2059129074 -1052398216   136234992  -929174560  -857292950   852097737   939789648  1703050172 -1481541132
#
#      Author: C. J. Pickard (cjp20@cam.ac.uk)
#                Space group: Pm
#

%BLOCK LATTICE_ABC
      3.96016      7.67721     13.46310
     90.00000     90.00000    102.24917
%ENDBLOCK LATTICE_ABC

%BLOCK POSITIONS_FRAC
  Li  -0.3180816  -0.2925198  -0.2172798 SPIN=   0.00000
  Li  -0.3180816  -0.2925198   0.2172798 SPIN=   0.00000
  Li   0.1808108   0.2148704   0.2213412 SPIN=   0.00000
  Li   0.1808108   0.2148704  -0.2213412 SPIN=   0.00000
  Fe   0.7966471   0.4128903  -0.3617726 SPIN=   3.77249
  Fe   0.7966471   0.4128903   0.3617726 SPIN=   3.77249
  Fe   0.2151097  -0.0977451  -0.3624636 SPIN=   4.22751
  Fe   0.2151097  -0.0977451   0.3624636 SPIN=   4.22751
   O  -0.8042063  -0.4724913   0.2470230 SPIN=   0.00000
   O  -0.7172742  -0.3245822   0.0828902 SPIN=   0.00000
   O  -1.2952845  -0.4977672   0.1303954 SPIN=   0.00000
   O  -0.8222406  -0.6534427   0.0942193 SPIN=   0.00000
   S  -0.9097514  -0.4870708   0.1386320 SPIN=   0.00000
   O  -0.8042063  -0.4724913  -0.2470230 SPIN=   0.00000
   O  -0.7172742  -0.3245822  -0.0828902 SPIN=   0.00000
   O  -1.2952845  -0.4977672  -0.1303954 SPIN=   0.00000
   O  -0.8222406  -0.6534427  -0.0942193 SPIN=   0.00000
   S  -0.9097514  -0.4870708  -0.1386320 SPIN=   0.00000
   O  -0.7882873  -0.0700171   0.1703649 SPIN=   0.00000
   O  -0.3874937   0.1974660   0.1051088 SPIN=   0.00000
   O  -0.2584272  -0.1012741   0.0809000 SPIN=   0.00000
   O  -0.2152658   0.0341762   0.2484744 SPIN=   0.00000
   S  -0.4123685   0.0150877   0.1512120 SPIN=   0.00000
   O  -0.7882873  -0.0700171  -0.1703649 SPIN=   0.00000
   O  -0.3874937   0.1974660  -0.1051088 SPIN=   0.00000
   O  -0.2584272  -0.1012741  -0.0809000 SPIN=   0.00000
   O  -0.2152658   0.0341762  -0.2484744 SPIN=   0.00000
   S  -0.4123685   0.0150877  -0.1512120 SPIN=   0.00000
   F  -0.2871280  -0.2702689  -0.3597250 SPIN=   0.00000
   F  -0.2871280  -0.2702689   0.3597250 SPIN=   0.00000
   F   0.3109563   0.2271221   0.3597433 SPIN=   0.00000
   F   0.3109563   0.2271221  -0.3597433 SPIN=   0.00000
%ENDBLOCK POSITIONS_FRAC

# Note: total spin =  16.00

KPOINTS_MP_SPACING 0.07

%BLOCK SPECIES_POT
QC5
%ENDBLOCK SPECIES_POT

SNAP_TO_SYMMETRY
SYMMETRY_GENERATE

