#              Generated by Buildcell
#
# at 06:05:49 (GMT+1.0) 4th August 2020
# in /lustre/scratch/uccabz1/launch_tmp
# on node-c12c-007
# by uccabz1
#
# compiler GCC version 4.9.2
# options -cpp -iprefix /lustre/shared/ucl/apps/gcc/4.9.2/bin/../lib/gcc/x86_64-unknown-linux-gnu/4.9.2/ -mtune=corei7 -march=x86-64 -g -Og
#
# seed  -349058905  2113104315  1919934111 -1871019628  -506536491    87920041   685980954  1666306389   257456757  1016853085  -595465528 -1339697987
#
#      Author: C. J. Pickard (cjp20@cam.ac.uk)
#                Space group: P212121
#

%BLOCK LATTICE_ABC
      6.33917      7.40193      8.52477
     90.00000     90.00000     90.00000
%ENDBLOCK LATTICE_ABC

%BLOCK POSITIONS_FRAC
  Li   0.3208918  -0.3458854  -0.3977411 SPIN=   0.00000
  Li  -0.1791082  -0.1541146   0.3977411 SPIN=   0.00000
  Li   0.1791082   0.3458854   0.1022589 SPIN=   0.00000
  Li  -0.3208918   0.1541146  -0.1022589 SPIN=   0.00000
  Fe   0.4518967  -0.3648283   0.2576450 SPIN=   4.00000
  Fe  -0.0481033  -0.1351717  -0.2576450 SPIN=   4.00000
  Fe   0.0481033   0.3648283  -0.2423550 SPIN=   4.00000
  Fe  -0.4518967   0.1351717   0.2423550 SPIN=   4.00000
   O   0.0116035   0.0345426   0.5097889 SPIN=   0.00000
   O   0.2043053   0.0989938   0.2635826 SPIN=   0.00000
   O   0.1581952   0.3395618   0.4622681 SPIN=   0.00000
   O  -0.1484536   0.2326110   0.3084434 SPIN=   0.00000
   S   0.0564126   0.1764273   0.3860207 SPIN=   0.00000
   O  -0.4883965   0.4654574  -0.5097889 SPIN=   0.00000
   O  -0.2956947   0.4010062  -0.2635826 SPIN=   0.00000
   O  -0.3418048   0.1604382  -0.4622681 SPIN=   0.00000
   O  -0.6484536   0.2673890  -0.3084434 SPIN=   0.00000
   S  -0.4435874   0.3235727  -0.3860207 SPIN=   0.00000
   O   0.4883965  -0.0345426   0.0097889 SPIN=   0.00000
   O   0.2956947  -0.0989938  -0.2364174 SPIN=   0.00000
   O   0.3418048  -0.3395618  -0.0377319 SPIN=   0.00000
   O   0.6484536  -0.2326110  -0.1915566 SPIN=   0.00000
   S   0.4435874  -0.1764273  -0.1139793 SPIN=   0.00000
   O  -0.0116035  -0.4654574  -0.0097889 SPIN=   0.00000
   O  -0.2043053  -0.4010062   0.2364174 SPIN=   0.00000
   O  -0.1581952  -0.1604382   0.0377319 SPIN=   0.00000
   O   0.1484536  -0.2673890   0.1915566 SPIN=   0.00000
   S  -0.0564126  -0.3235727   0.1139793 SPIN=   0.00000
   F  -0.0005837  -0.3536699  -0.3848985 SPIN=   0.00000
   F   0.4994163  -0.1463301   0.3848985 SPIN=   0.00000
   F  -0.4994163   0.3536699   0.1151015 SPIN=   0.00000
   F   0.0005837   0.1463301  -0.1151015 SPIN=   0.00000
%ENDBLOCK POSITIONS_FRAC

# Note: total spin =  16.00

KPOINTS_MP_SPACING 0.07

%BLOCK SPECIES_POT
QC5
%ENDBLOCK SPECIES_POT

SNAP_TO_SYMMETRY
SYMMETRY_GENERATE

