#              Generated by Buildcell
#
# at 03:07:24 (GMT+1.0) 18th August 2020
# in /lustre/scratch/uccabz1/launch_tmp
# on node-c12j-021
# by uccabz1
#
# compiler GCC version 4.9.2
# options -cpp -iprefix /lustre/shared/ucl/apps/gcc/4.9.2/bin/../lib/gcc/x86_64-unknown-linux-gnu/4.9.2/ -mtune=corei7 -march=x86-64 -g -Og
#
# seed -1032583032  1449981419   753862701  -402725097  -225164835 -1807080395  1626961523  1070342559  -478204490 -1311968439  -362915307  1457772152
#
#      Author: C. J. Pickard (cjp20@cam.ac.uk)
#                Space group: Cc
#

%BLOCK LATTICE_ABC
      6.90008      6.90008      8.48634
     93.45070     93.45070     96.25787
%ENDBLOCK LATTICE_ABC

%BLOCK POSITIONS_FRAC
  Li   0.1882127  -0.4772688  -0.1579577 SPIN=   0.00000
  Li  -0.4772688   0.1882127   0.3420423 SPIN=   0.00000
  Li   0.4931832  -0.0406633  -0.2792420 SPIN=   0.00000
  Li  -0.0406633   0.4931832   0.2207580 SPIN=   0.00000
  Fe   0.3653722  -0.3252499   0.1564448 SPIN=   6.31694
  Fe  -0.3252499   0.3653722  -0.3435552 SPIN=   6.31694
  Fe   0.0987505   0.0651521   0.3558107 SPIN=   1.68306
  Fe   0.0651521   0.0987505  -0.1441893 SPIN=   1.68306
   O   0.2896027   0.2841340  -0.4704110 SPIN=   0.00000
   O   0.2546714   0.5682277  -0.6302726 SPIN=   0.00000
   O   0.4038092   0.6184815  -0.3562236 SPIN=   0.00000
   O   0.0496340   0.5129385  -0.4042021 SPIN=   0.00000
   S   0.2494293   0.4959454  -0.4652773 SPIN=   0.00000
   O   0.2841340   0.2896027   0.0295890 SPIN=   0.00000
   O   0.5682277   0.2546714  -0.1302726 SPIN=   0.00000
   O   0.6184815   0.4038092   0.1437764 SPIN=   0.00000
   O   0.5129385   0.0496340   0.0957979 SPIN=   0.00000
   S   0.4959454   0.2494293   0.0347227 SPIN=   0.00000
   O  -0.2698157   0.0222395  -0.4057178 SPIN=   0.00000
   O  -0.2059546  -0.2938237  -0.3016380 SPIN=   0.00000
   O  -0.0469352  -0.1821789  -0.5390405 SPIN=   0.00000
   O  -0.4024036  -0.2879301  -0.5547504 SPIN=   0.00000
   S  -0.2312773  -0.1854233  -0.4502867 SPIN=   0.00000
   O   0.0222395  -0.2698157   0.0942822 SPIN=   0.00000
   O  -0.2938237  -0.2059546   0.1983620 SPIN=   0.00000
   O  -0.1821789  -0.0469352  -0.0390405 SPIN=   0.00000
   O  -0.2879301  -0.4024036  -0.0547504 SPIN=   0.00000
   S  -0.1854233  -0.2312773   0.0497133 SPIN=   0.00000
   F   0.1930077  -0.1127479  -0.1964933 SPIN=   0.00000
   F  -0.1127479   0.1930077   0.3035067 SPIN=   0.00000
   F  -0.0446450   0.3380920  -0.1406273 SPIN=   0.00000
   F   0.3380920  -0.0446450   0.3593727 SPIN=   0.00000
%ENDBLOCK POSITIONS_FRAC

# Note: total spin =  16.00

KPOINTS_MP_SPACING 0.07

%BLOCK SPECIES_POT
QC5
%ENDBLOCK SPECIES_POT

SNAP_TO_SYMMETRY
SYMMETRY_GENERATE

