#              Generated by Buildcell
#
# at 00:17:42 (GMT+1.0) 18th August 2020
# in /lustre/scratch/uccabz1/launch_tmp
# on node-c12b-013
# by uccabz1
#
# compiler GCC version 4.9.2
# options -cpp -iprefix /lustre/shared/ucl/apps/gcc/4.9.2/bin/../lib/gcc/x86_64-unknown-linux-gnu/4.9.2/ -mtune=corei7 -march=x86-64 -g -Og
#
# seed  1858959802 -2040301823  1453788650  1888242290  2014831602  1952553650 -1092136884   342379479  1639086705  1807077214   764704852   775968944
#
#      Author: C. J. Pickard (cjp20@cam.ac.uk)
#                Space group: P-1
#

%BLOCK LATTICE_ABC
      3.88301      8.63482     12.30891
     76.49613     88.36792     85.42802
%ENDBLOCK LATTICE_ABC

%BLOCK POSITIONS_FRAC
  Li  -0.2219028   0.3094882  -0.4307124 SPIN=   0.00000
  Li   0.2219028  -0.3094882   0.4307124 SPIN=   0.00000
  Li  -0.4762013   0.2722982   0.0535634 SPIN=   0.00000
  Li   0.4762013  -0.2722982  -0.0535634 SPIN=   0.00000
  Fe   0.2437224   0.1111775  -0.1227095 SPIN=   2.61491
  Fe  -0.2437224  -0.1111775   0.1227095 SPIN=   2.61491
  Fe   0.3044227   0.2707796   0.3836125 SPIN=   5.38509
  Fe  -0.3044227  -0.2707796  -0.3836125 SPIN=   5.38509
   O  -0.3578164  -0.5053776   0.2173235 SPIN=   0.00000
   O  -0.3643225  -0.5318246   0.4219424 SPIN=   0.00000
   O  -0.4106217  -0.2636520   0.2938512 SPIN=   0.00000
   O   0.1423812  -0.4304585   0.3088360 SPIN=   0.00000
   S  -0.2475948  -0.4328282   0.3104883 SPIN=   0.00000
   O   0.3578164   0.5053776  -0.2173235 SPIN=   0.00000
   O   0.3643225   0.5318246  -0.4219424 SPIN=   0.00000
   O   0.4106217   0.2636520  -0.2938512 SPIN=   0.00000
   O  -0.1423812   0.4304585  -0.3088360 SPIN=   0.00000
   S   0.2475948   0.4328282  -0.3104883 SPIN=   0.00000
   O  -0.3457487  -0.1299722   0.4341492 SPIN=   0.00000
   O  -0.3630188   0.1322460   0.2988771 SPIN=   0.00000
   O   0.0278503  -0.0928723   0.2651565 SPIN=   0.00000
   O   0.1505320   0.0373174   0.4174482 SPIN=   0.00000
   S  -0.1325963  -0.0133203   0.3539078 SPIN=   0.00000
   O   0.3457487   0.1299722  -0.4341492 SPIN=   0.00000
   O   0.3630188  -0.1322460  -0.2988771 SPIN=   0.00000
   O  -0.0278503   0.0928723  -0.2651565 SPIN=   0.00000
   O  -0.1505320  -0.0373174  -0.4174482 SPIN=   0.00000
   S   0.1325963   0.0133203  -0.3539078 SPIN=   0.00000
   F  -0.2668790   0.1857069  -0.0856353 SPIN=   0.00000
   F   0.2668790  -0.1857069   0.0856353 SPIN=   0.00000
   F  -0.1960809  -0.3160812  -0.1523423 SPIN=   0.00000
   F   0.1960809   0.3160812   0.1523423 SPIN=   0.00000
%ENDBLOCK POSITIONS_FRAC

# Note: total spin =  16.00

KPOINTS_MP_SPACING 0.07

%BLOCK SPECIES_POT
QC5
%ENDBLOCK SPECIES_POT

SNAP_TO_SYMMETRY
SYMMETRY_GENERATE

