#              Generated by Buildcell
#
# at 08:59:53 (GMT+1.0) 4th August 2020
# in /lustre/scratch/uccabz1/launch_tmp
# on node-c12o-002
# by uccabz1
#
# compiler GCC version 4.9.2
# options -cpp -iprefix /lustre/shared/ucl/apps/gcc/4.9.2/bin/../lib/gcc/x86_64-unknown-linux-gnu/4.9.2/ -mtune=corei7 -march=x86-64 -g -Og
#
# seed -1032785928  -584626620   400613746 -1550140618   647566220  1921071702  1917184282 -1886684215   792449339   194803897    81294225  1883743297
#
#      Author: C. J. Pickard (cjp20@cam.ac.uk)
#                Space group: Pc
#

%BLOCK LATTICE_ABC
      4.76916      8.11495     10.63215
    103.56589     90.00000     90.00000
%ENDBLOCK LATTICE_ABC

%BLOCK POSITIONS_FRAC
  Li   0.4614680   0.2580394   0.2936631 SPIN=   0.00000
  Li  -0.4614680  -0.2419606  -0.2063369 SPIN=   0.00000
  Li   0.4928642   0.3222526  -0.1270184 SPIN=   0.00000
  Li  -0.4928642  -0.1777474   0.3729816 SPIN=   0.00000
  Fe  -0.0166903  -0.0776112  -0.4276094 SPIN=   3.49164
  Fe   0.0166903   0.4223888   0.0723906 SPIN=   3.49164
  Fe  -0.0385764   0.0308946   0.2070292 SPIN=   4.50836
  Fe   0.0385764  -0.4691054  -0.2929708 SPIN=   4.50836
   O  -0.7737101  -0.2891059   0.1482934 SPIN=   0.00000
   O  -0.4922299  -0.3771284  -0.0517913 SPIN=   0.00000
   O  -0.2811578  -0.3801940   0.1602954 SPIN=   0.00000
   O  -0.3865195  -0.1069782   0.1050128 SPIN=   0.00000
   S  -0.4834043  -0.2883516   0.0904526 SPIN=   0.00000
   O   0.7737101   0.2108941  -0.3517066 SPIN=   0.00000
   O   0.4922299   0.1228716  -0.5517913 SPIN=   0.00000
   O   0.2811578   0.1198060  -0.3397046 SPIN=   0.00000
   O   0.3865195   0.3930218  -0.3949872 SPIN=   0.00000
   S   0.4834043   0.2116484  -0.4095474 SPIN=   0.00000
   O   0.2048895   0.0971466  -0.1227793 SPIN=   0.00000
   O  -0.2802005  -0.0050712  -0.1081402 SPIN=   0.00000
   O   0.1031933  -0.1085545   0.0101269 SPIN=   0.00000
   O   0.0801361  -0.1989063  -0.2287194 SPIN=   0.00000
   S   0.0270046  -0.0538464  -0.1123780 SPIN=   0.00000
   O  -0.2048895   0.5971466   0.3772207 SPIN=   0.00000
   O   0.2802005   0.4949288   0.3918598 SPIN=   0.00000
   O  -0.1031933   0.3914455   0.5101269 SPIN=   0.00000
   O  -0.0801361   0.3010937   0.2712806 SPIN=   0.00000
   S  -0.0270046   0.4461536   0.3876220 SPIN=   0.00000
   F  -0.0267658   0.3995202  -0.1367025 SPIN=   0.00000
   F   0.0267658  -0.1004798   0.3632975 SPIN=   0.00000
   F   0.4983175  -0.2454920  -0.3921442 SPIN=   0.00000
   F  -0.4983175   0.2545080   0.1078558 SPIN=   0.00000
%ENDBLOCK POSITIONS_FRAC

# Note: total spin =  16.00

KPOINTS_MP_SPACING 0.07

%BLOCK SPECIES_POT
QC5
%ENDBLOCK SPECIES_POT

SNAP_TO_SYMMETRY
SYMMETRY_GENERATE

