#              Generated by Buildcell
#
# at 06:21:36 (GMT+1.0) 4th August 2020
# in /lustre/scratch/uccabz1/launch_tmp
# on node-c12k-032
# by uccabz1
#
# compiler GCC version 4.9.2
# options -cpp -iprefix /lustre/shared/ucl/apps/gcc/4.9.2/bin/../lib/gcc/x86_64-unknown-linux-gnu/4.9.2/ -mtune=corei7 -march=x86-64 -g -Og
#
# seed  1993123989 -1595995554  -205867039 -1818425282   121007962  1976037704  1721381906   919575814   612230777   702080198  1728668775  1630971304
#
#      Author: C. J. Pickard (cjp20@cam.ac.uk)
#                Space group: P-1
#

%BLOCK LATTICE_ABC
      6.12002      8.17218      8.63446
     75.46591     85.73453     73.11413
%ENDBLOCK LATTICE_ABC

%BLOCK POSITIONS_FRAC
  Li  -0.2693473  -0.4790216   0.1072953 SPIN=   0.00000
  Li   0.2693473   0.4790216  -0.1072953 SPIN=   0.00000
  Li  -0.4594315   0.1161910  -0.2911047 SPIN=   0.00000
  Li   0.4594315  -0.1161910   0.2911047 SPIN=   0.00000
  Fe   0.1485459   0.2291849   0.1643563 SPIN=   3.15878
  Fe  -0.1485459  -0.2291849  -0.1643563 SPIN=   3.15878
  Fe   0.0277586   0.3281290  -0.2871623 SPIN=   4.84122
  Fe  -0.0277586  -0.3281290   0.2871623 SPIN=   4.84122
   O  -0.4758670   0.1641989   0.1357820 SPIN=   0.00000
   O  -0.0884090   0.1708231   0.0351696 SPIN=   0.00000
   O  -0.4240564   0.3292444  -0.1403119 SPIN=   0.00000
   O  -0.2965626   0.0032722  -0.0697077 SPIN=   0.00000
   S  -0.3212238   0.1668846  -0.0097670 SPIN=   0.00000
   O   0.4758670  -0.1641989  -0.1357820 SPIN=   0.00000
   O   0.0884090  -0.1708231  -0.0351696 SPIN=   0.00000
   O   0.4240564  -0.3292444   0.1403119 SPIN=   0.00000
   O   0.2965626  -0.0032722   0.0697077 SPIN=   0.00000
   S   0.3212238  -0.1668846   0.0097670 SPIN=   0.00000
   O   0.2376477  -0.1109778  -0.5322686 SPIN=   0.00000
   O   0.2508067  -0.2906641  -0.2539992 SPIN=   0.00000
   O   0.5427586  -0.3909250  -0.4500462 SPIN=   0.00000
   O   0.1444074  -0.3954182  -0.4749529 SPIN=   0.00000
   S   0.2939051  -0.2969963  -0.4278167 SPIN=   0.00000
   O  -0.2376477   0.1109778   0.5322686 SPIN=   0.00000
   O  -0.2508067   0.2906641   0.2539992 SPIN=   0.00000
   O  -0.5427586   0.3909250   0.4500462 SPIN=   0.00000
   O  -0.1444074   0.3954182   0.4749529 SPIN=   0.00000
   S  -0.2939051   0.2969963   0.4278167 SPIN=   0.00000
   F   0.2411524   0.1321803  -0.3729368 SPIN=   0.00000
   F  -0.2411524  -0.1321803   0.3729368 SPIN=   0.00000
   F  -0.1538826  -0.4544809  -0.2168199 SPIN=   0.00000
   F   0.1538826   0.4544809   0.2168199 SPIN=   0.00000
%ENDBLOCK POSITIONS_FRAC

# Note: total spin =  16.00

KPOINTS_MP_SPACING 0.07

%BLOCK SPECIES_POT
QC5
%ENDBLOCK SPECIES_POT

SNAP_TO_SYMMETRY
SYMMETRY_GENERATE

