#              Generated by Buildcell
#
# at 10:13:57 (GMT+1.0) 18th August 2020
# in /scratch/scratch/uccabz1/launch_tmp
# on node-k10h-022
# by uccabz1
#
# compiler GCC version 4.9.2
# options -cpp -iprefix /scratch/UCL/applications/gcc/4.9.2/bin/../lib/gcc/x86_64-unknown-linux-gnu/4.9.2/ -mtune=corei7 -march=x86-64 -g -O2
#
# seed  -489456341  -404654390  -837625769  2046090314  -389237993  -612144749  -571181540  -752804970  1732774260 -1504794574 -2069624790 -1518431245
#
#      Author: C. J. Pickard (cjp20@cam.ac.uk)
#                Space group: Cm
#

%BLOCK LATTICE_ABC
      6.85541      8.34844      8.34844
     81.96917     66.22587     66.22587
%ENDBLOCK LATTICE_ABC

%BLOCK POSITIONS_FRAC
  Li  -0.4606064   0.1327028   0.4898015 SPIN=   0.00000
  Li  -0.4606064   0.4898015   0.1327028 SPIN=   0.00000
  Li   0.1579047  -0.3733343  -0.3733343 SPIN=   0.00000
  Li   0.2442807   0.0864247   0.0864247 SPIN=   0.00000
  Fe  -0.3294993   0.1345046  -0.2001216 SPIN=   5.83410
  Fe  -0.3294993  -0.2001216   0.1345046 SPIN=   5.83410
  Fe   0.2274043  -0.1520806  -0.1520806 SPIN=   0.68338
  Fe  -0.2661270   0.4206542   0.4206542 SPIN=   3.64843
   O   0.1987975  -0.0125752   0.6078565 SPIN=   0.00000
   O   0.0492118   0.2690038   0.4714198 SPIN=   0.00000
   O   0.0932316  -0.0060664   0.3556459 SPIN=   0.00000
   O   0.4390027   0.0499475   0.3124561 SPIN=   0.00000
   S   0.1950609   0.0750774   0.4368446 SPIN=   0.00000
   O   0.1987975   0.6078565  -0.0125752 SPIN=   0.00000
   O   0.0492118   0.4714198   0.2690038 SPIN=   0.00000
   O   0.0932316   0.3556459  -0.0060664 SPIN=   0.00000
   O   0.4390027   0.3124561   0.0499475 SPIN=   0.00000
   S   0.1950609   0.4368446   0.0750774 SPIN=   0.00000
   O  -0.1822475   0.2889113  -0.1069884 SPIN=   0.00000
   O   0.1192290   0.3758369  -0.3381789 SPIN=   0.00000
   O  -0.1661639   0.5752652  -0.0836620 SPIN=   0.00000
   S  -0.1293333   0.4413221  -0.2090834 SPIN=   0.00000
   O  -0.1822475  -0.1069884   0.2889113 SPIN=   0.00000
   O   0.1192290  -0.3381789   0.3758369 SPIN=   0.00000
   O  -0.1661639  -0.0836620   0.5752652 SPIN=   0.00000
   S  -0.1293333  -0.2090834   0.4413221 SPIN=   0.00000
   O  -0.0414461   0.0835262   0.0835262 SPIN=   0.00000
   O  -0.1486657  -0.1349635  -0.1349635 SPIN=   0.00000
   F   0.3960153   0.0957888  -0.2342168 SPIN=   0.00000
   F   0.3960153  -0.2342168   0.0957888 SPIN=   0.00000
   F  -0.4235405   0.3096745   0.3096745 SPIN=   0.00000
   F   0.4176221  -0.3658681  -0.3658681 SPIN=   0.00000
%ENDBLOCK POSITIONS_FRAC

# Note: total spin =  16.00

KPOINTS_MP_SPACING 0.07

%BLOCK SPECIES_POT
QC5
%ENDBLOCK SPECIES_POT

SNAP_TO_SYMMETRY
SYMMETRY_GENERATE

