#              Generated by Buildcell
#
# at 06:57:01 (GMT+1.0) 4th August 2020
# in /lustre/scratch/uccabz1/launch_tmp
# on node-c12g-014
# by uccabz1
#
# compiler GCC version 4.9.2
# options -cpp -iprefix /lustre/shared/ucl/apps/gcc/4.9.2/bin/../lib/gcc/x86_64-unknown-linux-gnu/4.9.2/ -mtune=corei7 -march=x86-64 -g -Og
#
# seed  -312859688 -1122838800   320988521  -760141815  2124040935  1299411955   605308805  1572532374 -1123449176  2107431261   579488009  1633121532
#
#      Author: C. J. Pickard (cjp20@cam.ac.uk)
#                Space group: Cc
#

%BLOCK LATTICE_ABC
      6.67582      7.99047      7.99047
     69.89372     88.30929     88.30929
%ENDBLOCK LATTICE_ABC

%BLOCK POSITIONS_FRAC
  Li  -0.0389555   0.1998341   0.4282168 SPIN=   0.00000
  Li   0.4610445   0.4282168   0.1998341 SPIN=   0.00000
  Li  -0.0972413  -0.2319011   0.0525290 SPIN=   0.00000
  Li   0.4027587   0.0525290  -0.2319011 SPIN=   0.00000
  Fe   0.1889981  -0.3936320   0.4103304 SPIN=   3.71705
  Fe  -0.3110019   0.4103304  -0.3936320 SPIN=   3.71705
  Fe  -0.2385320  -0.1435173  -0.3299978 SPIN=   4.28295
  Fe   0.2614680  -0.3299978  -0.1435173 SPIN=   4.28295
   O  -0.3024748  -0.1344203   0.1937784 SPIN=   0.00000
   O  -0.2915751   0.1324244   0.2833358 SPIN=   0.00000
   O  -0.0148601   0.0678240   0.1001561 SPIN=   0.00000
   O  -0.0584291  -0.1225382   0.4164371 SPIN=   0.00000
   S  -0.1668348  -0.0141775   0.2484268 SPIN=   0.00000
   O   0.1975252   0.1937784  -0.1344203 SPIN=   0.00000
   O   0.2084249   0.2833358   0.1324244 SPIN=   0.00000
   O   0.4851399   0.1001561   0.0678240 SPIN=   0.00000
   O   0.4415709   0.4164371  -0.1225382 SPIN=   0.00000
   S   0.3331652   0.2484268  -0.0141775 SPIN=   0.00000
   O  -0.0838600   0.4519095   0.1508818 SPIN=   0.00000
   O  -0.0096029   0.5276788  -0.1716838 SPIN=   0.00000
   O  -0.3402739   0.6080250  -0.0693268 SPIN=   0.00000
   O  -0.2516905   0.2919220  -0.0198695 SPIN=   0.00000
   S  -0.1713568   0.4698838  -0.0274996 SPIN=   0.00000
   O   0.4161400   0.1508818   0.4519095 SPIN=   0.00000
   O   0.4903971  -0.1716838   0.5276788 SPIN=   0.00000
   O   0.1597261  -0.0693268   0.6080250 SPIN=   0.00000
   O   0.2483095  -0.0198695   0.2919220 SPIN=   0.00000
   S   0.3286432  -0.0274996   0.4698838 SPIN=   0.00000
   F  -0.4216295  -0.4508761   0.3665540 SPIN=   0.00000
   F   0.0783705   0.3665540  -0.4508761 SPIN=   0.00000
   F  -0.2902477   0.0058215  -0.2074419 SPIN=   0.00000
   F   0.2097523  -0.2074419   0.0058215 SPIN=   0.00000
%ENDBLOCK POSITIONS_FRAC

# Note: total spin =  16.00

KPOINTS_MP_SPACING 0.07

%BLOCK SPECIES_POT
QC5
%ENDBLOCK SPECIES_POT

SNAP_TO_SYMMETRY
SYMMETRY_GENERATE

