#              Generated by Buildcell
#
# at 10:06:05 (GMT+1.0) 4th August 2020
# in /lustre/scratch/uccabz1/launch_tmp
# on node-c12c-022
# by uccabz1
#
# compiler GCC version 4.9.2
# options -cpp -iprefix /lustre/shared/ucl/apps/gcc/4.9.2/bin/../lib/gcc/x86_64-unknown-linux-gnu/4.9.2/ -mtune=corei7 -march=x86-64 -g -Og
#
# seed  1094600809  1176468636  1900298297  1772051025  -235607801  1940779799  1810478227 -1761208901  -745275852 -1726006280 -1442442336  -242376301
#
#      Author: C. J. Pickard (cjp20@cam.ac.uk)
#                Space group: Aea2
#

%BLOCK LATTICE_ABC
      6.60516      7.20693      9.45391
     90.00000     90.00000    117.27429
%ENDBLOCK LATTICE_ABC

%BLOCK POSITIONS_FRAC
  Li   0.3650856   0.4609938  -0.3944419 SPIN=   0.00000
  Li  -0.0959083  -0.4609938   0.3944419 SPIN=   0.00000
  Li   0.4040917  -0.4609938   0.1055581 SPIN=   0.00000
  Li  -0.1349144   0.4609938  -0.1055581 SPIN=   0.00000
  Fe  -0.0065060  -0.2169110  -0.3352801 SPIN=   4.00000
  Fe   0.2104050   0.2169110   0.3352801 SPIN=   4.00000
  Fe  -0.2895950   0.2169110   0.1647199 SPIN=   4.00000
  Fe   0.4934940  -0.2169110  -0.1647199 SPIN=   4.00000
   O   0.5930484   0.2275604  -0.0361774 SPIN=   0.00000
   O   0.1985584   0.0102885  -0.1196668 SPIN=   0.00000
   O   0.5094938   0.1880147  -0.2927445 SPIN=   0.00000
   O   0.3768236   0.3945401  -0.1451757 SPIN=   0.00000
   S   0.4194811   0.2051009  -0.1484411 SPIN=   0.00000
   O   0.3654881  -0.2275604   0.0361774 SPIN=   0.00000
   O   0.1882699  -0.0102885   0.1196668 SPIN=   0.00000
   O   0.3214791  -0.1880147   0.2927445 SPIN=   0.00000
   O  -0.0177165  -0.3945401   0.1451757 SPIN=   0.00000
   S   0.2143802  -0.2051009   0.1484411 SPIN=   0.00000
   O  -0.1345119  -0.2275604   0.4638226 SPIN=   0.00000
   O  -0.3117301  -0.0102885   0.3803332 SPIN=   0.00000
   O  -0.1785209  -0.1880147   0.2072555 SPIN=   0.00000
   O  -0.5177165  -0.3945401   0.3548243 SPIN=   0.00000
   S  -0.2856198  -0.2051009   0.3515589 SPIN=   0.00000
   O   0.0930484   0.2275604  -0.4638226 SPIN=   0.00000
   O  -0.3014416   0.0102885  -0.3803332 SPIN=   0.00000
   O   0.0094938   0.1880147  -0.2072555 SPIN=   0.00000
   O  -0.1231764   0.3945401  -0.3548243 SPIN=   0.00000
   S  -0.0805189   0.2051009  -0.3515589 SPIN=   0.00000
   F  -0.4641896   0.2709669   0.4280963 SPIN=   0.00000
   F   0.2648435  -0.2709669  -0.4280963 SPIN=   0.00000
   F  -0.2351565  -0.2709669  -0.0719037 SPIN=   0.00000
   F   0.0358104   0.2709669   0.0719037 SPIN=   0.00000
%ENDBLOCK POSITIONS_FRAC

# Note: total spin =  16.00

KPOINTS_MP_SPACING 0.07

%BLOCK SPECIES_POT
QC5
%ENDBLOCK SPECIES_POT

SNAP_TO_SYMMETRY
SYMMETRY_GENERATE

