#              Generated by Buildcell
#
# at 01:17:34 (GMT+1.0) 18th August 2020
# in /lustre/scratch/uccabz1/launch_tmp
# on node-c12h-021
# by uccabz1
#
# compiler GCC version 4.9.2
# options -cpp -iprefix /lustre/shared/ucl/apps/gcc/4.9.2/bin/../lib/gcc/x86_64-unknown-linux-gnu/4.9.2/ -mtune=corei7 -march=x86-64 -g -Og
#
# seed -1831898952  1946406861   366127137   489629521  2043027299  1381543425 -1174947514 -1057659646   488787036   -33737173 -1917825779   136146908
#
#      Author: C. J. Pickard (cjp20@cam.ac.uk)
#                Space group: Pna21
#

%BLOCK LATTICE_ABC
      5.94203      7.31262      9.20561
     90.00000     90.00000     90.00000
%ENDBLOCK LATTICE_ABC

%BLOCK POSITIONS_FRAC
  Li   0.4137529  -0.4859124  -0.2461943 SPIN=   0.00000
  Li  -0.4137529   0.0140876   0.2461943 SPIN=   0.00000
  Li   0.0862471  -0.4859124   0.2538057 SPIN=   0.00000
  Li  -0.0862471   0.0140876  -0.2538057 SPIN=   0.00000
  Fe  -0.0408162   0.1873534   0.0660700 SPIN=   4.00000
  Fe   0.0408162  -0.3126466  -0.0660700 SPIN=   4.00000
  Fe  -0.4591838   0.1873534  -0.4339300 SPIN=   4.00000
  Fe   0.4591838  -0.3126466   0.4339300 SPIN=   4.00000
   O  -0.5982811  -0.5901953   0.0904644 SPIN=   0.00000
   O  -0.6557347  -0.2569344   0.0618395 SPIN=   0.00000
   O  -0.3139023  -0.4035086  -0.0383399 SPIN=   0.00000
   O  -0.3604450  -0.3725949   0.2276894 SPIN=   0.00000
   S  -0.4820908  -0.4058083   0.0854134 SPIN=   0.00000
   O   0.5982811  -0.0901953  -0.0904644 SPIN=   0.00000
   O   0.6557347   0.2430656  -0.0618395 SPIN=   0.00000
   O   0.3139023   0.0964914   0.0383399 SPIN=   0.00000
   O   0.3604450   0.1274051  -0.2276894 SPIN=   0.00000
   S   0.4820908   0.0941917  -0.0854134 SPIN=   0.00000
   O   0.0982811  -0.5901953  -0.4095356 SPIN=   0.00000
   O   0.1557347  -0.2569344  -0.4381605 SPIN=   0.00000
   O  -0.1860977  -0.4035086  -0.5383399 SPIN=   0.00000
   O  -0.1395550  -0.3725949  -0.2723106 SPIN=   0.00000
   S  -0.0179092  -0.4058083  -0.4145866 SPIN=   0.00000
   O  -0.0982811  -0.0901953   0.4095356 SPIN=   0.00000
   O  -0.1557347   0.2430656   0.4381605 SPIN=   0.00000
   O   0.1860977   0.0964914   0.5383399 SPIN=   0.00000
   O   0.1395550   0.1274051   0.2723106 SPIN=   0.00000
   S   0.0179092   0.0941917   0.4145866 SPIN=   0.00000
   F   0.0412968   0.4019570  -0.0738860 SPIN=   0.00000
   F  -0.0412968  -0.0980430   0.0738860 SPIN=   0.00000
   F   0.4587032   0.4019570   0.4261140 SPIN=   0.00000
   F  -0.4587032  -0.0980430  -0.4261140 SPIN=   0.00000
%ENDBLOCK POSITIONS_FRAC

# Note: total spin =  16.00

KPOINTS_MP_SPACING 0.07

%BLOCK SPECIES_POT
QC5
%ENDBLOCK SPECIES_POT

SNAP_TO_SYMMETRY
SYMMETRY_GENERATE

