#              Generated by Buildcell
#
# at 14:20:43 (GMT+1.0) 18th August 2020
# in /scratch/scratch/uccabz1/launch_tmp
# on node-k10e-031
# by uccabz1
#
# compiler GCC version 4.9.2
# options -cpp -iprefix /scratch/UCL/applications/gcc/4.9.2/bin/../lib/gcc/x86_64-unknown-linux-gnu/4.9.2/ -mtune=corei7 -march=x86-64 -g -O2
#
# seed  1767719731  1744858247  -743891325  1288047207  -392743247 -1102670797   680522628   685798229  1479866192  -127649743  1860197903 -2037038334
#
#      Author: C. J. Pickard (cjp20@cam.ac.uk)
#                Space group: Aea2
#

%BLOCK LATTICE_ABC
      7.29495      7.79840      8.04004
    119.01069     90.00000     90.00000
%ENDBLOCK LATTICE_ABC

%BLOCK POSITIONS_FRAC
  Li  -0.2279049   0.3101216  -0.1051882 SPIN=   0.00000
  Li   0.2279049  -0.4153098  -0.1051882 SPIN=   0.00000
  Li   0.2720951   0.0846902  -0.1051882 SPIN=   0.00000
  Li  -0.2720951  -0.1898784  -0.1051882 SPIN=   0.00000
  Fe  -0.0521073  -0.4908766  -0.4468509 SPIN=   4.00000
  Fe   0.0521073   0.0440257  -0.4468509 SPIN=   4.00000
  Fe   0.4478927  -0.4559743  -0.4468509 SPIN=   4.00000
  Fe  -0.4478927   0.0091234  -0.4468509 SPIN=   4.00000
   O  -0.1240781  -0.4061988  -0.0024278 SPIN=   0.00000
   O  -0.1142670  -0.1573747   0.3385048 SPIN=   0.00000
   O  -0.3217705  -0.4430355   0.2284413 SPIN=   0.00000
   O  -0.3871582  -0.1825514   0.1450313 SPIN=   0.00000
   S  -0.2368185  -0.2972901   0.1773874 SPIN=   0.00000
   O   0.1240781   0.4037710  -0.0024278 SPIN=   0.00000
   O   0.1142670   0.4958795   0.3385048 SPIN=   0.00000
   O   0.3217705   0.6714768   0.2284413 SPIN=   0.00000
   O   0.3871582   0.3275827   0.1450313 SPIN=   0.00000
   S   0.2368185   0.4746775   0.1773874 SPIN=   0.00000
   O   0.3759219  -0.0962290  -0.0024278 SPIN=   0.00000
   O   0.3857330  -0.0041205   0.3385048 SPIN=   0.00000
   O   0.1782295   0.1714768   0.2284413 SPIN=   0.00000
   O   0.1128418  -0.1724173   0.1450313 SPIN=   0.00000
   S   0.2631815  -0.0253225   0.1773874 SPIN=   0.00000
   O  -0.3759219   0.0938012  -0.0024278 SPIN=   0.00000
   O  -0.3857330   0.3426253   0.3385048 SPIN=   0.00000
   O  -0.1782295   0.0569645   0.2284413 SPIN=   0.00000
   O  -0.1128418   0.3174486   0.1450313 SPIN=   0.00000
   S  -0.2631815   0.2027099   0.1773874 SPIN=   0.00000
   F  -0.1214411   0.0668543  -0.2779056 SPIN=   0.00000
   F   0.1214411  -0.3447599  -0.2779056 SPIN=   0.00000
   F   0.3785589   0.1552401  -0.2779056 SPIN=   0.00000
   F  -0.3785589  -0.4331457  -0.2779056 SPIN=   0.00000
%ENDBLOCK POSITIONS_FRAC

# Note: total spin =  16.00

KPOINTS_MP_SPACING 0.07

%BLOCK SPECIES_POT
QC5
%ENDBLOCK SPECIES_POT

SNAP_TO_SYMMETRY
SYMMETRY_GENERATE

