#              Generated by Buildcell
#
# at 07:48:31 (GMT+1.0) 4th August 2020
# in /lustre/scratch/uccabz1/launch_tmp
# on node-c12d-005
# by uccabz1
#
# compiler GCC version 4.9.2
# options -cpp -iprefix /lustre/shared/ucl/apps/gcc/4.9.2/bin/../lib/gcc/x86_64-unknown-linux-gnu/4.9.2/ -mtune=corei7 -march=x86-64 -g -Og
#
# seed  1632293478  1707670030 -1645567031   964327882  -868566488 -1747857655 -1149040821 -1457166638  -641503222 -1275041524   173209465   836429565
#
#      Author: C. J. Pickard (cjp20@cam.ac.uk)
#                Space group: P2
#

%BLOCK LATTICE_ABC
      6.02118      7.48020      8.88145
     90.00000     90.00000     90.52770
%ENDBLOCK LATTICE_ABC

%BLOCK POSITIONS_FRAC
  Li  -0.2518227   0.3371929  -0.0949627 SPIN=   0.00000
  Li   0.2518227  -0.3371929  -0.0949627 SPIN=   0.00000
  Li  -0.2460505  -0.2227509  -0.3602605 SPIN=   0.00000
  Li   0.2460505   0.2227509  -0.3602605 SPIN=   0.00000
  Fe   0.2713661  -0.3381165   0.2489979 SPIN=   4.98366
  Fe  -0.2713661   0.3381165   0.2489979 SPIN=   4.98366
  Fe  -0.2517505  -0.1405170  -0.0223786 SPIN=   3.01634
  Fe   0.2517505   0.1405170  -0.0223786 SPIN=   3.01634
   O   0.2820817  -0.3996813  -0.4118198 SPIN=   0.00000
   O   0.4664044  -0.1489426  -0.2779408 SPIN=   0.00000
   O   0.0613095  -0.1422207  -0.3244695 SPIN=   0.00000
   O   0.3241771  -0.1055379  -0.5366891 SPIN=   0.00000
   S   0.2834932  -0.1990956  -0.3877298 SPIN=   0.00000
   O  -0.2820817   0.3996813  -0.4118198 SPIN=   0.00000
   O  -0.4664044   0.1489426  -0.2779408 SPIN=   0.00000
   O  -0.0613095   0.1422207  -0.3244695 SPIN=   0.00000
   O  -0.3241771   0.1055379  -0.5366891 SPIN=   0.00000
   S  -0.2834932   0.1990956  -0.3877298 SPIN=   0.00000
   O   0.3388312   0.4081171   0.3961130 SPIN=   0.00000
   O   0.1071058   0.1400826   0.4477042 SPIN=   0.00000
   O   0.4019932   0.1286263   0.2539176 SPIN=   0.00000
   O   0.0627513   0.3048395   0.2080936 SPIN=   0.00000
   S   0.2276704   0.2454164   0.3264571 SPIN=   0.00000
   O  -0.3388312  -0.4081171   0.3961130 SPIN=   0.00000
   O  -0.1071058  -0.1400826   0.4477042 SPIN=   0.00000
   O  -0.4019932  -0.1286263   0.2539176 SPIN=   0.00000
   O  -0.0627513  -0.3048395   0.2080936 SPIN=   0.00000
   S  -0.2276704  -0.2454164   0.3264571 SPIN=   0.00000
   F   0.2483838   0.3586000  -0.1174048 SPIN=   0.00000
   F  -0.2483838  -0.3586000  -0.1174048 SPIN=   0.00000
   F  -0.2529272   0.1438333   0.0659553 SPIN=   0.00000
   F   0.2529272  -0.1438333   0.0659553 SPIN=   0.00000
%ENDBLOCK POSITIONS_FRAC

# Note: total spin =  16.00

KPOINTS_MP_SPACING 0.07

%BLOCK SPECIES_POT
QC5
%ENDBLOCK SPECIES_POT

SNAP_TO_SYMMETRY
SYMMETRY_GENERATE

