#              Generated by Buildcell
#
# at 17:35:12 (GMT+1.0) 18th August 2020
# in /lustre/scratch/uccabz1/launch_tmp
# on node-c12k-019
# by uccabz1
#
# compiler GCC version 4.9.2
# options -cpp -iprefix /lustre/shared/ucl/apps/gcc/4.9.2/bin/../lib/gcc/x86_64-unknown-linux-gnu/4.9.2/ -mtune=corei7 -march=x86-64 -g -Og
#
# seed  -667938957  -653392595   442659373   807089147   165815911  -739134029  1974578607   342551668  -196901854 -1776816480  -850852886  1211838515
#
#      Author: C. J. Pickard (cjp20@cam.ac.uk)
#                Space group: P-1
#

%BLOCK LATTICE_ABC
      5.52954      8.41382      9.16000
    106.49788     90.42941    101.16544
%ENDBLOCK LATTICE_ABC

%BLOCK POSITIONS_FRAC
  Li   0.2151939  -0.3728844  -0.3452252 SPIN=   0.00000
  Li  -0.2151939   0.3728844   0.3452252 SPIN=   0.00000
  Li   0.1093497  -0.0891528   0.2866447 SPIN=   0.00000
  Li  -0.1093497   0.0891528  -0.2866447 SPIN=   0.00000
  Fe  -0.2965765   0.3389016  -0.0362009 SPIN=   1.90580
  Fe   0.2965765  -0.3389016   0.0362009 SPIN=   1.90580
  Fe   0.2488521   0.2565556   0.2493364 SPIN=   6.09420
  Fe  -0.2488521  -0.2565556  -0.2493364 SPIN=   6.09420
   O   0.2324357  -0.1763745  -0.1749719 SPIN=   0.00000
   O   0.5545544   0.0792788  -0.1555269 SPIN=   0.00000
   O   0.1439707   0.1083170  -0.0585507 SPIN=   0.00000
   O   0.1884696   0.0086997  -0.3365589 SPIN=   0.00000
   S   0.2798576   0.0049803  -0.1814021 SPIN=   0.00000
   O  -0.2324357   0.1763745   0.1749719 SPIN=   0.00000
   O  -0.5545544  -0.0792788   0.1555269 SPIN=   0.00000
   O  -0.1439707  -0.1083170   0.0585507 SPIN=   0.00000
   O  -0.1884696  -0.0086997   0.3365589 SPIN=   0.00000
   S  -0.2798576  -0.0049803   0.1814021 SPIN=   0.00000
   O   0.0852162   0.3943670  -0.4485358 SPIN=   0.00000
   O  -0.1023397   0.4076456  -0.2019880 SPIN=   0.00000
   O  -0.2646776   0.1688306  -0.4310708 SPIN=   0.00000
   O  -0.3339486   0.4556595  -0.4124340 SPIN=   0.00000
   S  -0.1539374   0.3566257  -0.3735072 SPIN=   0.00000
   O  -0.0852162  -0.3943670   0.4485358 SPIN=   0.00000
   O   0.1023397  -0.4076456   0.2019880 SPIN=   0.00000
   O   0.2646776  -0.1688306   0.4310708 SPIN=   0.00000
   O   0.3339486  -0.4556595   0.4124340 SPIN=   0.00000
   S   0.1539374  -0.3566257   0.3735072 SPIN=   0.00000
   F   0.2899727   0.1410698   0.4346156 SPIN=   0.00000
   F  -0.2899727  -0.1410698  -0.4346156 SPIN=   0.00000
   F   0.4085369  -0.4402832  -0.1848689 SPIN=   0.00000
   F  -0.4085369   0.4402832   0.1848689 SPIN=   0.00000
%ENDBLOCK POSITIONS_FRAC

# Note: total spin =  16.00

KPOINTS_MP_SPACING 0.07

%BLOCK SPECIES_POT
QC5
%ENDBLOCK SPECIES_POT

SNAP_TO_SYMMETRY
SYMMETRY_GENERATE

