#              Generated by Buildcell
#
# at 07:45:24 (GMT+1.0) 4th August 2020
# in /lustre/scratch/uccabz1/launch_tmp
# on node-c12g-020
# by uccabz1
#
# compiler GCC version 4.9.2
# options -cpp -iprefix /lustre/shared/ucl/apps/gcc/4.9.2/bin/../lib/gcc/x86_64-unknown-linux-gnu/4.9.2/ -mtune=corei7 -march=x86-64 -g -Og
#
# seed  1944527306 -2008138985  1021680306  -706724397  1193535773  -497346158   355288652   382635458   666965422 -1953360589  -718051900 -1659482964
#
#      Author: C. J. Pickard (cjp20@cam.ac.uk)
#                Space group: P2
#

%BLOCK LATTICE_ABC
      5.12299      8.81210      9.49575
    111.07682     90.00000     90.00000
%ENDBLOCK LATTICE_ABC

%BLOCK POSITIONS_FRAC
  Li   0.0959783   0.0733138  -0.2863382 SPIN=   0.00000
  Li   0.0959783  -0.0733138   0.2863382 SPIN=   0.00000
  Li   0.0876898   0.4969710  -0.3013780 SPIN=   0.00000
  Li   0.0876898  -0.4969710   0.3013780 SPIN=   0.00000
  Fe  -0.3999180  -0.2316912   0.3143041 SPIN=   3.72211
  Fe  -0.3999180   0.2316912  -0.3143041 SPIN=   3.72211
  Fe   0.4671206  -0.1790244  -0.1840570 SPIN=   4.27789
  Fe   0.4671206   0.1790244   0.1840570 SPIN=   4.27789
   O   0.2116801  -0.3625752  -0.4339487 SPIN=   0.00000
   O  -0.0310814  -0.1824857  -0.5365015 SPIN=   0.00000
   O  -0.0296496  -0.1250828  -0.2614998 SPIN=   0.00000
   O  -0.2714089  -0.3628385  -0.4332053 SPIN=   0.00000
   S  -0.0301149  -0.2582456  -0.4162888 SPIN=   0.00000
   O   0.2116801   0.3625752   0.4339487 SPIN=   0.00000
   O  -0.0310814   0.1824857   0.5365015 SPIN=   0.00000
   O  -0.0296496   0.1250828   0.2614998 SPIN=   0.00000
   O  -0.2714089   0.3628385   0.4332053 SPIN=   0.00000
   S  -0.0301149   0.2582456   0.4162888 SPIN=   0.00000
   O   0.1426249  -0.2947864   0.1132354 SPIN=   0.00000
   O  -0.2325547  -0.4053854  -0.0570382 SPIN=   0.00000
   O   0.1457027  -0.2893352  -0.1455270 SPIN=   0.00000
   O  -0.1529619  -0.1085675   0.0469479 SPIN=   0.00000
   S  -0.0242972  -0.2745186  -0.0105955 SPIN=   0.00000
   O   0.1426249   0.2947864  -0.1132354 SPIN=   0.00000
   O  -0.2325547   0.4053854   0.0570382 SPIN=   0.00000
   O   0.1457027   0.2893352   0.1455270 SPIN=   0.00000
   O  -0.1529619   0.1085675  -0.0469479 SPIN=   0.00000
   S  -0.0242972   0.2745186   0.0105955 SPIN=   0.00000
   F   0.4737987  -0.0549567   0.2639095 SPIN=   0.00000
   F   0.4737987   0.0549567  -0.2639095 SPIN=   0.00000
   F   0.4679740  -0.4589356   0.3012877 SPIN=   0.00000
   F   0.4679740   0.4589356  -0.3012877 SPIN=   0.00000
%ENDBLOCK POSITIONS_FRAC

# Note: total spin =  16.00

KPOINTS_MP_SPACING 0.07

%BLOCK SPECIES_POT
QC5
%ENDBLOCK SPECIES_POT

SNAP_TO_SYMMETRY
SYMMETRY_GENERATE

