#              Generated by Buildcell
#
# at 16:50:35 (GMT+1.0) 18th August 2020
# in /lustre/scratch/uccabz1/launch_tmp
# on node-c12p-012
# by uccabz1
#
# compiler GCC version 4.9.2
# options -cpp -iprefix /lustre/shared/ucl/apps/gcc/4.9.2/bin/../lib/gcc/x86_64-unknown-linux-gnu/4.9.2/ -mtune=corei7 -march=x86-64 -g -Og
#
# seed  1029004495  -530220059  1712676506  -955146522    65012900  -342726079 -1126176746  -338926307 -1831385659  -611222241   417598173   396127495
#
#      Author: C. J. Pickard (cjp20@cam.ac.uk)
#                Space group: Cm
#

%BLOCK LATTICE_ABC
      4.06312      9.93602      9.93602
     85.89947     89.05095     89.05095
%ENDBLOCK LATTICE_ABC

%BLOCK POSITIONS_FRAC
  Li  -0.0742115  -0.4203606   0.2889031 SPIN=   0.00000
  Li  -0.0742115   0.2889031  -0.4203606 SPIN=   0.00000
  Li  -0.3644083  -0.1672854  -0.1672854 SPIN=   0.00000
  Li  -0.4256944   0.1065625   0.1065625 SPIN=   0.00000
  Fe   0.4307827  -0.3950167   0.0728054 SPIN=   3.21465
  Fe   0.4307827   0.0728054  -0.3950167 SPIN=   3.21465
  Fe   0.3517679   0.3023990   0.3023990 SPIN=   1.56164
  Fe   0.4493139  -0.4472771  -0.4472771 SPIN=   8.00906
   O   0.1260146   0.0497202  -0.2220375 SPIN=   0.00000
   O   0.1124943   0.1610596  -0.0069800 SPIN=   0.00000
   O  -0.4069332   0.0928977  -0.1075313 SPIN=   0.00000
   O  -0.0912963   0.2833805  -0.2156573 SPIN=   0.00000
   S  -0.0649302   0.1467645  -0.1380515 SPIN=   0.00000
   O   0.1260146  -0.2220375   0.0497202 SPIN=   0.00000
   O   0.1124943  -0.0069800   0.1610596 SPIN=   0.00000
   O  -0.4069332  -0.1075313   0.0928977 SPIN=   0.00000
   O  -0.0912963  -0.2156573   0.2833805 SPIN=   0.00000
   S  -0.0649302  -0.1380515   0.1467645 SPIN=   0.00000
   O   0.0899476  -0.3266491  -0.1471196 SPIN=   0.00000
   O  -0.4289223  -0.4308840  -0.2106063 SPIN=   0.00000
   O  -0.0406679  -0.5591915  -0.0588411 SPIN=   0.00000
   S  -0.0688669  -0.4572860  -0.1792380 SPIN=   0.00000
   O   0.0899476  -0.1471196  -0.3266491 SPIN=   0.00000
   O  -0.4289223  -0.2106063  -0.4308840 SPIN=   0.00000
   O  -0.0406679  -0.0588411  -0.5591915 SPIN=   0.00000
   S  -0.0688669  -0.1792380  -0.4572860 SPIN=   0.00000
   O  -0.0655721   0.2185873   0.2185873 SPIN=   0.00000
   O  -0.0538841  -0.4078329  -0.4078329 SPIN=   0.00000
   F   0.4552893   0.0876720   0.3552095 SPIN=   0.00000
   F   0.4552893   0.3552095   0.0876720 SPIN=   0.00000
   F   0.4366750  -0.3924647   0.3373582 SPIN=   0.00000
   F   0.4366750   0.3373582  -0.3924647 SPIN=   0.00000
%ENDBLOCK POSITIONS_FRAC

# Note: total spin =  16.00

KPOINTS_MP_SPACING 0.07

%BLOCK SPECIES_POT
QC5
%ENDBLOCK SPECIES_POT

SNAP_TO_SYMMETRY
SYMMETRY_GENERATE

