#              Generated by Buildcell
#
# at 08:43:39 (GMT+1.0) 4th August 2020
# in /lustre/scratch/uccabz1/launch_tmp
# on node-c12g-017
# by uccabz1
#
# compiler GCC version 4.9.2
# options -cpp -iprefix /lustre/shared/ucl/apps/gcc/4.9.2/bin/../lib/gcc/x86_64-unknown-linux-gnu/4.9.2/ -mtune=corei7 -march=x86-64 -g -Og
#
# seed  1227412505 -1516974120  1683310994   507646224  1164931741  1075038083   137450284  1208684478   280215715  -114577178   -96186484   765499936
#
#      Author: C. J. Pickard (cjp20@cam.ac.uk)
#                Space group: Pc
#

%BLOCK LATTICE_ABC
      5.08783      7.84618     10.35620
    104.63831     90.00000     90.00000
%ENDBLOCK LATTICE_ABC

%BLOCK POSITIONS_FRAC
  Li  -0.4828121   0.0084107  -0.2300174 SPIN=   0.00000
  Li   0.4828121   0.0084107   0.2699826 SPIN=   0.00000
  Li   0.0039144  -0.3992143  -0.3118963 SPIN=   0.00000
  Li  -0.0039144  -0.3992143   0.1881037 SPIN=   0.00000
  Fe   0.4976380   0.3829932   0.1491844 SPIN=   2.72068
  Fe  -0.4976380   0.3829932  -0.3508156 SPIN=   2.72068
  Fe   0.0001695   0.3852506   0.3996059 SPIN=   5.27932
  Fe  -0.0001695   0.3852506  -0.1003941 SPIN=   5.27932
   O  -0.4638811  -0.1159989  -0.5254607 SPIN=   0.00000
   O  -0.6432923  -0.4190111  -0.5817372 SPIN=   0.00000
   O  -0.5568142  -0.2644353  -0.3460711 SPIN=   0.00000
   O  -0.1855081  -0.3646350  -0.5010440 SPIN=   0.00000
   S  -0.4623739  -0.2910201  -0.4885782 SPIN=   0.00000
   O   0.4638811  -0.1159989  -0.0254607 SPIN=   0.00000
   O   0.6432923  -0.4190111  -0.0817372 SPIN=   0.00000
   O   0.5568142  -0.2644353   0.1539289 SPIN=   0.00000
   O   0.1855081  -0.3646350  -0.0010440 SPIN=   0.00000
   S   0.4623739  -0.2910201   0.0114218 SPIN=   0.00000
   O  -0.2775028   0.0941041  -0.3610870 SPIN=   0.00000
   O   0.1788652  -0.0187231  -0.3820319 SPIN=   0.00000
   O   0.0954410   0.3009435  -0.2980288 SPIN=   0.00000
   O   0.0153137   0.1530963  -0.5356537 SPIN=   0.00000
   S   0.0030293   0.1323552  -0.3942003 SPIN=   0.00000
   O   0.2775028   0.0941041   0.1389130 SPIN=   0.00000
   O  -0.1788652  -0.0187231   0.1179681 SPIN=   0.00000
   O  -0.0954410   0.3009435   0.2019712 SPIN=   0.00000
   O  -0.0153137   0.1530963  -0.0356537 SPIN=   0.00000
   S  -0.0030293   0.1323552   0.1057997 SPIN=   0.00000
   F  -0.0402348  -0.1830470  -0.2009832 SPIN=   0.00000
   F   0.0402348  -0.1830470   0.2990168 SPIN=   0.00000
   F  -0.4695215   0.2377948   0.3777441 SPIN=   0.00000
   F   0.4695215   0.2377948  -0.1222559 SPIN=   0.00000
%ENDBLOCK POSITIONS_FRAC

# Note: total spin =  16.00

KPOINTS_MP_SPACING 0.07

%BLOCK SPECIES_POT
QC5
%ENDBLOCK SPECIES_POT

SNAP_TO_SYMMETRY
SYMMETRY_GENERATE

