#              Generated by Buildcell
#
# at 15:41:21 (GMT+1.0) 18th August 2020
# in /lustre/scratch/uccabz1/launch_tmp
# on node-c12f-029
# by uccabz1
#
# compiler GCC version 4.9.2
# options -cpp -iprefix /lustre/shared/ucl/apps/gcc/4.9.2/bin/../lib/gcc/x86_64-unknown-linux-gnu/4.9.2/ -mtune=corei7 -march=x86-64 -g -Og
#
# seed  1337491442  -829466661  -869753853  -438635388  2024323094 -1053789413  1612402252  1486221251  1269820829   767639240  1694453598  1314211566
#
#      Author: C. J. Pickard (cjp20@cam.ac.uk)
#                Space group: C2
#

%BLOCK LATTICE_ABC
      6.22232      7.46432      9.82007
    110.83393    106.71151     94.41604
%ENDBLOCK LATTICE_ABC

%BLOCK POSITIONS_FRAC
  Li   0.3616282  -0.0725881   0.2187637 SPIN=   0.00000
  Li  -0.1428646   0.2913518   0.2187637 SPIN=   0.00000
  Li  -0.4417827   0.4321276  -0.4087972 SPIN=   0.00000
  Li   0.0329855   0.1590752  -0.4087972 SPIN=   0.00000
  Fe   0.1754384  -0.3245616   0.3508767 SPIN=   2.35149
  Fe  -0.0110041  -0.0110041  -0.0220083 SPIN=   3.26037
  Fe   0.3833656  -0.1166344  -0.2332689 SPIN=   4.68888
  Fe  -0.2205939  -0.2205939  -0.4411878 SPIN=   5.69926
   O   0.5114749   0.2332414   0.3623226 SPIN=   0.00000
   O   0.2050401   0.3911421   0.2597722 SPIN=   0.00000
   O   0.3582935   0.1544776   0.0811154 SPIN=   0.00000
   O   0.5973817   0.4802448   0.2612553 SPIN=   0.00000
   S   0.4180475   0.3147765   0.2411164 SPIN=   0.00000
   O  -0.1491523   0.1290812   0.3623226 SPIN=   0.00000
   O   0.0547321  -0.1313698   0.2597722 SPIN=   0.00000
   O  -0.2771781  -0.0733622   0.0811154 SPIN=   0.00000
   O  -0.3361264  -0.2189895   0.2612553 SPIN=   0.00000
   S  -0.1769312  -0.0736601   0.2411164 SPIN=   0.00000
   O  -0.0242269  -0.3936736  -0.0901104 SPIN=   0.00000
   O   0.2456020  -0.5080987  -0.2292373 SPIN=   0.00000
   O   0.3442126  -0.4568424   0.0464733 SPIN=   0.00000
   O   0.3394039  -0.1724316  -0.0273380 SPIN=   0.00000
   S   0.2262479  -0.3827616  -0.0750531 SPIN=   0.00000
   O  -0.0658835   0.3035632  -0.0901104 SPIN=   0.00000
   O  -0.4748393   0.2788614  -0.2292373 SPIN=   0.00000
   O  -0.2977393   0.5033157   0.0464733 SPIN=   0.00000
   O  -0.3667419   0.1450935  -0.0273380 SPIN=   0.00000
   S  -0.3013010   0.3077085  -0.0750531 SPIN=   0.00000
   F   0.0058477  -0.4792691   0.4782582 SPIN=   0.00000
   F   0.4724106  -0.0424726   0.4782582 SPIN=   0.00000
   F   0.1255456   0.0388917  -0.2633453 SPIN=   0.00000
   F  -0.3888909  -0.3022370  -0.2633453 SPIN=   0.00000
%ENDBLOCK POSITIONS_FRAC

# Note: total spin =  16.00

KPOINTS_MP_SPACING 0.07

%BLOCK SPECIES_POT
QC5
%ENDBLOCK SPECIES_POT

SNAP_TO_SYMMETRY
SYMMETRY_GENERATE

