#              Generated by Buildcell
#
# at 14:51:22 (GMT+1.0) 18th August 2020
# in /scratch/scratch/uccabz1/launch_tmp
# on node-k10e-018
# by uccabz1
#
# compiler GCC version 4.9.2
# options -cpp -iprefix /scratch/UCL/applications/gcc/4.9.2/bin/../lib/gcc/x86_64-unknown-linux-gnu/4.9.2/ -mtune=corei7 -march=x86-64 -g -O2
#
# seed -1737961072   287466649 -1127256030 -1127250464  1932726096 -1182394324  -986611859 -1231454306   410110221 -1249633234  -642375212   427824469
#
#      Author: C. J. Pickard (cjp20@cam.ac.uk)
#                Space group: Pnc2
#

%BLOCK LATTICE_ABC
      4.48093      7.03257     12.69338
     90.00000     90.00000     90.00000
%ENDBLOCK LATTICE_ABC

%BLOCK POSITIONS_FRAC
  Li   0.1845350  -0.4641106   0.1877483 SPIN=   0.00000
  Li  -0.1845350  -0.4641106  -0.1877483 SPIN=   0.00000
  Li   0.1845350   0.0358894   0.3122517 SPIN=   0.00000
  Li  -0.1845350   0.0358894  -0.3122517 SPIN=   0.00000
  Fe  -0.2499771   0.2117423   0.1130416 SPIN=   4.00000
  Fe   0.2499771   0.2117423  -0.1130416 SPIN=   4.00000
  Fe  -0.2499771  -0.2882577   0.3869584 SPIN=   4.00000
  Fe   0.2499771  -0.2882577  -0.3869584 SPIN=   4.00000
   O   0.0197752  -0.1237649  -0.1473524 SPIN=   0.00000
   O   0.3736053  -0.3447396  -0.2335177 SPIN=   0.00000
   O   0.2059936  -0.4055608  -0.0508207 SPIN=   0.00000
   O   0.5459487  -0.1366807  -0.0885155 SPIN=   0.00000
   S   0.2863307  -0.2526865  -0.1300516 SPIN=   0.00000
   O  -0.0197752  -0.1237649   0.1473524 SPIN=   0.00000
   O  -0.3736053  -0.3447396   0.2335177 SPIN=   0.00000
   O  -0.2059936  -0.4055608   0.0508207 SPIN=   0.00000
   O  -0.5459487  -0.1366807   0.0885155 SPIN=   0.00000
   S  -0.2863307  -0.2526865   0.1300516 SPIN=   0.00000
   O   0.0197752   0.3762351  -0.3526476 SPIN=   0.00000
   O   0.3736053   0.1552604  -0.2664823 SPIN=   0.00000
   O   0.2059936   0.0944392  -0.4491793 SPIN=   0.00000
   O   0.5459487   0.3633193  -0.4114845 SPIN=   0.00000
   S   0.2863307   0.2473135  -0.3699484 SPIN=   0.00000
   O  -0.0197752   0.3762351   0.3526476 SPIN=   0.00000
   O  -0.3736053   0.1552604   0.2664823 SPIN=   0.00000
   O  -0.2059936   0.0944392   0.4491793 SPIN=   0.00000
   O  -0.5459487   0.3633193   0.4114845 SPIN=   0.00000
   S  -0.2863307   0.2473135   0.3699484 SPIN=   0.00000
   F  -0.1691737   0.2932587  -0.1289600 SPIN=   0.00000
   F   0.1691737   0.2932587   0.1289600 SPIN=   0.00000
   F  -0.1691737  -0.2067413  -0.3710400 SPIN=   0.00000
   F   0.1691737  -0.2067413   0.3710400 SPIN=   0.00000
%ENDBLOCK POSITIONS_FRAC

# Note: total spin =  16.00

KPOINTS_MP_SPACING 0.07

%BLOCK SPECIES_POT
QC5
%ENDBLOCK SPECIES_POT

SNAP_TO_SYMMETRY
SYMMETRY_GENERATE

