#              Generated by Buildcell
#
# at 09:51:46 (GMT+1.0) 4th August 2020
# in /lustre/scratch/uccabz1/launch_tmp
# on node-c12g-006
# by uccabz1
#
# compiler GCC version 4.9.2
# options -cpp -iprefix /lustre/shared/ucl/apps/gcc/4.9.2/bin/../lib/gcc/x86_64-unknown-linux-gnu/4.9.2/ -mtune=corei7 -march=x86-64 -g -Og
#
# seed -1640949693 -1347900728  1786581619   -56706999   675413744  1009901058  1536597314  1603827218  1430261285  -708856049 -1919924005  -668541921
#
#      Author: C. J. Pickard (cjp20@cam.ac.uk)
#                Space group: P-1
#

%BLOCK LATTICE_ABC
      5.79698      6.28298     11.64390
     86.58852     82.80485     71.97025
%ENDBLOCK LATTICE_ABC

%BLOCK POSITIONS_FRAC
  Li   0.0820123   0.0059857   0.2708572 SPIN=   0.00000
  Li  -0.0820123  -0.0059857  -0.2708572 SPIN=   0.00000
  Li   0.3247631   0.4257559   0.3642443 SPIN=   0.00000
  Li  -0.3247631  -0.4257559  -0.3642443 SPIN=   0.00000
  Fe  -0.2209851  -0.2270079  -0.0352805 SPIN=   3.00402
  Fe   0.2209851   0.2270079   0.0352805 SPIN=   3.00402
  Fe   0.3137180  -0.1793607   0.4845318 SPIN=   4.99598
  Fe  -0.3137180   0.1793607  -0.4845318 SPIN=   4.99598
   O  -0.2323723   0.4363190  -0.0072993 SPIN=   0.00000
   O  -0.0901579   0.0520770  -0.0830423 SPIN=   0.00000
   O  -0.1596032   0.3783530  -0.2187671 SPIN=   0.00000
   O  -0.5108851   0.2941575  -0.1035297 SPIN=   0.00000
   S  -0.2482547   0.2902266  -0.1031596 SPIN=   0.00000
   O   0.2323723  -0.4363190   0.0072993 SPIN=   0.00000
   O   0.0901579  -0.0520770   0.0830423 SPIN=   0.00000
   O   0.1596032  -0.3783530   0.2187671 SPIN=   0.00000
   O   0.5108851  -0.2941575   0.1035297 SPIN=   0.00000
   S   0.2482547  -0.2902266   0.1031596 SPIN=   0.00000
   O   0.3613810  -0.0888049  -0.3479986 SPIN=   0.00000
   O   0.2301895  -0.2856721  -0.1736809 SPIN=   0.00000
   O   0.2666762   0.0933819  -0.1577903 SPIN=   0.00000
   O   0.6380484  -0.2301439  -0.1962383 SPIN=   0.00000
   S   0.3740738  -0.1278097  -0.2189270 SPIN=   0.00000
   O  -0.3613810   0.0888049   0.3479986 SPIN=   0.00000
   O  -0.2301895   0.2856721   0.1736809 SPIN=   0.00000
   O  -0.2666762  -0.0933819   0.1577903 SPIN=   0.00000
   O  -0.6380484   0.2301439   0.1962383 SPIN=   0.00000
   S  -0.3740738   0.1278097   0.2189270 SPIN=   0.00000
   F  -0.4694024  -0.3565398   0.3570179 SPIN=   0.00000
   F   0.4694024   0.3565398  -0.3570179 SPIN=   0.00000
   F  -0.1123253  -0.2247589  -0.4261146 SPIN=   0.00000
   F   0.1123253   0.2247589   0.4261146 SPIN=   0.00000
%ENDBLOCK POSITIONS_FRAC

# Note: total spin =  16.00

KPOINTS_MP_SPACING 0.07

%BLOCK SPECIES_POT
QC5
%ENDBLOCK SPECIES_POT

SNAP_TO_SYMMETRY
SYMMETRY_GENERATE

