#              Generated by Buildcell
#
# at 06:08:38 (GMT+1.0) 4th August 2020
# in /lustre/scratch/uccabz1/launch_tmp
# on node-c12j-012
# by uccabz1
#
# compiler GCC version 4.9.2
# options -cpp -iprefix /lustre/shared/ucl/apps/gcc/4.9.2/bin/../lib/gcc/x86_64-unknown-linux-gnu/4.9.2/ -mtune=corei7 -march=x86-64 -g -Og
#
# seed -1934333380  -178238338  -490776728  1381046407   289858057 -1437656179   632093882  1957731997 -1568502117 -1407130380 -1506729229  -221868754
#
#      Author: C. J. Pickard (cjp20@cam.ac.uk)
#                Space group: Pca21
#

%BLOCK LATTICE_ABC
      6.89283      7.18264      8.07939
     90.00000     90.00000     90.00000
%ENDBLOCK LATTICE_ABC

%BLOCK POSITIONS_FRAC
  Li  -0.3947601  -0.3547531  -0.3658655 SPIN=   0.00000
  Li   0.3947601   0.1452469   0.3658655 SPIN=   0.00000
  Li   0.3947601  -0.3547531   0.1341345 SPIN=   0.00000
  Li  -0.3947601   0.1452469  -0.1341345 SPIN=   0.00000
  Fe  -0.1931517   0.2972738   0.1703706 SPIN=   4.00000
  Fe   0.1931517  -0.2027262  -0.1703706 SPIN=   4.00000
  Fe   0.1931517   0.2972738  -0.3296294 SPIN=   4.00000
  Fe  -0.1931517  -0.2027262   0.3296294 SPIN=   4.00000
   O   0.0820266   0.2803429   0.0507304 SPIN=   0.00000
   O   0.3733540   0.3830999   0.2047212 SPIN=   0.00000
   O   0.3814022   0.3642008  -0.1010600 SPIN=   0.00000
   O   0.3703697   0.0757666   0.0662472 SPIN=   0.00000
   S   0.3017881   0.2758526   0.0551597 SPIN=   0.00000
   O  -0.0820266  -0.2196571  -0.0507304 SPIN=   0.00000
   O  -0.3733540  -0.1169001  -0.2047212 SPIN=   0.00000
   O  -0.3814022  -0.1357992   0.1010600 SPIN=   0.00000
   O  -0.3703697  -0.4242334  -0.0662472 SPIN=   0.00000
   S  -0.3017881  -0.2241474  -0.0551597 SPIN=   0.00000
   O  -0.0820266   0.2803429  -0.4492696 SPIN=   0.00000
   O  -0.3733540   0.3830999  -0.2952788 SPIN=   0.00000
   O  -0.3814022   0.3642008  -0.6010600 SPIN=   0.00000
   O  -0.3703697   0.0757666  -0.4337528 SPIN=   0.00000
   S  -0.3017881   0.2758526  -0.4448403 SPIN=   0.00000
   O   0.0820266  -0.2196571   0.4492696 SPIN=   0.00000
   O   0.3733540  -0.1169001   0.2952788 SPIN=   0.00000
   O   0.3814022  -0.1357992   0.6010600 SPIN=   0.00000
   O   0.3703697  -0.4242334   0.4337528 SPIN=   0.00000
   S   0.3017881  -0.2241474   0.4448403 SPIN=   0.00000
   F   0.0647551   0.0283230  -0.2515434 SPIN=   0.00000
   F  -0.0647551  -0.4716770   0.2515434 SPIN=   0.00000
   F  -0.0647551   0.0283230   0.2484566 SPIN=   0.00000
   F   0.0647551  -0.4716770  -0.2484566 SPIN=   0.00000
%ENDBLOCK POSITIONS_FRAC

# Note: total spin =  16.00

KPOINTS_MP_SPACING 0.07

%BLOCK SPECIES_POT
QC5
%ENDBLOCK SPECIES_POT

SNAP_TO_SYMMETRY
SYMMETRY_GENERATE

