#              Generated by Buildcell
#
# at 15:46:04 (GMT+1.0) 18th August 2020
# in /scratch/scratch/uccabz1/launch_tmp
# on node-k10h-001
# by uccabz1
#
# compiler GCC version 4.9.2
# options -cpp -iprefix /scratch/UCL/applications/gcc/4.9.2/bin/../lib/gcc/x86_64-unknown-linux-gnu/4.9.2/ -mtune=corei7 -march=x86-64 -g -O2
#
# seed -1945979122   150192360  1716605947 -1750356638   115351176  1938217467 -2096004119 -1046911882  1223306332  -668196916  1285578122  -825152477
#
#      Author: C. J. Pickard (cjp20@cam.ac.uk)
#                Space group: Pm
#

%BLOCK LATTICE_ABC
      6.46316      6.51670     10.16815
     90.00000     90.00000    110.93345
%ENDBLOCK LATTICE_ABC

%BLOCK POSITIONS_FRAC
  Li  -0.2932488  -0.3210252  -0.1914994 SPIN=   0.00000
  Li  -0.2932488  -0.3210252   0.1914994 SPIN=   0.00000
  Li  -0.0538461   0.1384338  -0.5000000 SPIN=   0.00000
  Li   0.0670400   0.3376807  -0.0000000 SPIN=   0.00000
  Fe   0.2079988   0.4983329   0.3205483 SPIN=   3.54348
  Fe   0.2079988   0.4983329  -0.3205483 SPIN=   3.54348
  Fe  -0.2007890  -0.3429220  -0.5000000 SPIN=   2.30650
  Fe   0.4717439   0.0730779  -0.5000000 SPIN=   6.60653
   O  -0.0609491   0.4427361  -0.1770721 SPIN=   0.00000
   O  -0.3505555   0.2122429  -0.3286116 SPIN=   0.00000
   O  -0.4568764   0.3376866  -0.1180697 SPIN=   0.00000
   O  -0.2802461   0.0575541  -0.1182567 SPIN=   0.00000
   S  -0.2871568   0.2625549  -0.1855025 SPIN=   0.00000
   O  -0.0609491   0.4427361   0.1770721 SPIN=   0.00000
   O  -0.3505555   0.2122429   0.3286116 SPIN=   0.00000
   O  -0.4568764   0.3376866   0.1180697 SPIN=   0.00000
   O  -0.2802461   0.0575541   0.1182567 SPIN=   0.00000
   S  -0.2871568   0.2625549   0.1855025 SPIN=   0.00000
   O  -0.1168388  -0.0233903   0.3044075 SPIN=   0.00000
   O   0.1010335  -0.0812393   0.1172733 SPIN=   0.00000
   O   0.1630809  -0.1955976   0.3414348 SPIN=   0.00000
   O   0.2823797   0.1994946   0.2858029 SPIN=   0.00000
   S   0.1074138  -0.0251832   0.2622296 SPIN=   0.00000
   O  -0.1168388  -0.0233903  -0.3044075 SPIN=   0.00000
   O   0.1010335  -0.0812393  -0.1172733 SPIN=   0.00000
   O   0.1630809  -0.1955976  -0.3414348 SPIN=   0.00000
   O   0.2823797   0.1994946  -0.2858029 SPIN=   0.00000
   S   0.1074138  -0.0251832  -0.2622296 SPIN=   0.00000
   F   0.4109120  -0.3431850   0.1748275 SPIN=   0.00000
   F   0.4109120  -0.3431850  -0.1748275 SPIN=   0.00000
   F  -0.3868185  -0.1543380  -0.5000000 SPIN=   0.00000
   F   0.0014851   0.4565117  -0.5000000 SPIN=   0.00000
%ENDBLOCK POSITIONS_FRAC

# Note: total spin =  16.00

KPOINTS_MP_SPACING 0.07

%BLOCK SPECIES_POT
QC5
%ENDBLOCK SPECIES_POT

SNAP_TO_SYMMETRY
SYMMETRY_GENERATE

