#              Generated by Buildcell
#
# at 10:50:23 (GMT+1.0) 18th August 2020
# in /lustre/scratch/uccabz1/launch_tmp
# on node-c12c-028
# by uccabz1
#
# compiler GCC version 4.9.2
# options -cpp -iprefix /lustre/shared/ucl/apps/gcc/4.9.2/bin/../lib/gcc/x86_64-unknown-linux-gnu/4.9.2/ -mtune=corei7 -march=x86-64 -g -Og
#
# seed  1741317964  1531525580  -247829366   205140131   993767849 -1175065044  -234692388 -2033172404  1271057587 -1618039196 -1066027799   198762379
#
#      Author: C. J. Pickard (cjp20@cam.ac.uk)
#                Space group: C2
#

%BLOCK LATTICE_ABC
      6.55769      8.45693      8.45693
     93.01251    110.97931    110.97931
%ENDBLOCK LATTICE_ABC

%BLOCK POSITIONS_FRAC
  Li  -0.6531544  -0.3255777  -0.4624197 SPIN=   0.00000
  Li   0.6531544   0.4624197   0.3255777 SPIN=   0.00000
  Li  -0.1524134  -0.0582833   0.2772654 SPIN=   0.00000
  Li   0.1524134  -0.2772654   0.0582833 SPIN=   0.00000
  Fe   0.3767290   0.0805858   0.2654159 SPIN=   3.47621
  Fe  -0.3767290  -0.2654159  -0.0805858 SPIN=   3.47621
  Fe   0.7953694   0.3582433  -0.0465654 SPIN=   4.52379
  Fe  -0.7953694   0.0465654  -0.3582433 SPIN=   4.52379
   O   0.1954689   0.1907149  -0.1402363 SPIN=   0.00000
   O   0.5539154   0.4645122   0.0034696 SPIN=   0.00000
   O   0.3380297   0.3064810   0.1723862 SPIN=   0.00000
   O   0.1543149   0.4549424  -0.0441024 SPIN=   0.00000
   S   0.3104322   0.3541626  -0.0021207 SPIN=   0.00000
   O  -0.1954689   0.1402363  -0.1907149 SPIN=   0.00000
   O  -0.5539154  -0.0034696  -0.4645122 SPIN=   0.00000
   O  -0.3380297  -0.1723862  -0.3064810 SPIN=   0.00000
   O  -0.1543149   0.0441024  -0.4549424 SPIN=   0.00000
   S  -0.3104322   0.0021207  -0.3541626 SPIN=   0.00000
   O  -0.8189512  -0.2155854  -0.3575410 SPIN=   0.00000
   O  -1.1610937  -0.4981809  -0.4335485 SPIN=   0.00000
   O  -1.0599574  -0.2772045  -0.1825647 SPIN=   0.00000
   S  -0.9586810  -0.3547499  -0.2856140 SPIN=   0.00000
   O   0.8189512   0.3575410   0.2155854 SPIN=   0.00000
   O   1.1610937   0.4335485   0.4981809 SPIN=   0.00000
   O   1.0599574   0.1825647   0.2772045 SPIN=   0.00000
   S   0.9586810   0.2856140   0.3547499 SPIN=   0.00000
   O   0.5000000  -0.4602969   0.4602969 SPIN=   0.00000
   O  -0.0000000   0.3210051  -0.3210051 SPIN=   0.00000
   F   0.5000000   0.3305888  -0.3305888 SPIN=   0.00000
   F  -0.5000000   0.0353605  -0.0353605 SPIN=   0.00000
   F   0.0000000  -0.1165832   0.1165832 SPIN=   0.00000
   F   0.5000000  -0.2530339   0.2530339 SPIN=   0.00000
%ENDBLOCK POSITIONS_FRAC

# Note: total spin =  16.00

KPOINTS_MP_SPACING 0.07

%BLOCK SPECIES_POT
QC5
%ENDBLOCK SPECIES_POT

SNAP_TO_SYMMETRY
SYMMETRY_GENERATE

