#              Generated by Buildcell
#
# at 06:45:04 (GMT+1.0) 18th August 2020
# in /lustre/scratch/uccabz1/launch_tmp
# on node-c12j-021
# by uccabz1
#
# compiler GCC version 4.9.2
# options -cpp -iprefix /lustre/shared/ucl/apps/gcc/4.9.2/bin/../lib/gcc/x86_64-unknown-linux-gnu/4.9.2/ -mtune=corei7 -march=x86-64 -g -Og
#
# seed -1387767283  -320390264   449723075 -2055366876   598274741   157418886  1093796493   711718264   355478257  1025118383   813713063  -621145029
#
#      Author: C. J. Pickard (cjp20@cam.ac.uk)
#                Space group: P43
#

%BLOCK LATTICE_ABC
      7.02389      7.54642      7.54642
     90.00000     90.00000     90.00000
%ENDBLOCK LATTICE_ABC

%BLOCK POSITIONS_FRAC
  Li  -0.0482829  -0.0226999  -0.3293226 SPIN=   0.00000
  Li   0.4517171   0.0226999   0.3293226 SPIN=   0.00000
  Li  -0.2982829  -0.3293226   0.0226999 SPIN=   0.00000
  Li   0.2017171   0.3293226  -0.0226999 SPIN=   0.00000
  Fe   0.3621015  -0.2254078  -0.3837292 SPIN=   4.00000
  Fe  -0.1378985   0.2254078   0.3837292 SPIN=   4.00000
  Fe   0.1121015  -0.3837292   0.2254078 SPIN=   4.00000
  Fe  -0.3878985   0.3837292  -0.2254078 SPIN=   4.00000
   O   0.2158572  -0.4345953  -0.1988012 SPIN=   0.00000
   O  -0.0303867  -0.2090820  -0.1342453 SPIN=   0.00000
   O  -0.0834218  -0.5220009  -0.0494020 SPIN=   0.00000
   O  -0.0874748  -0.4353008  -0.3656648 SPIN=   0.00000
   S   0.0036435  -0.4002448  -0.1870283 SPIN=   0.00000
   O  -0.2841428   0.4345953   0.1988012 SPIN=   0.00000
   O  -0.5303867   0.2090820   0.1342453 SPIN=   0.00000
   O  -0.5834218   0.5220009   0.0494020 SPIN=   0.00000
   O  -0.5874748   0.4353008   0.3656648 SPIN=   0.00000
   S  -0.4963565   0.4002448   0.1870283 SPIN=   0.00000
   O  -0.0341428  -0.1988012   0.4345953 SPIN=   0.00000
   O  -0.2803867  -0.1342453   0.2090820 SPIN=   0.00000
   O  -0.3334218  -0.0494020   0.5220009 SPIN=   0.00000
   O  -0.3374748  -0.3656648   0.4353008 SPIN=   0.00000
   S  -0.2463565  -0.1870283   0.4002448 SPIN=   0.00000
   O   0.4658572   0.1988012  -0.4345953 SPIN=   0.00000
   O   0.2196133   0.1342453  -0.2090820 SPIN=   0.00000
   O   0.1665782   0.0494020  -0.5220009 SPIN=   0.00000
   O   0.1625252   0.3656648  -0.4353008 SPIN=   0.00000
   S   0.2536435   0.1870283  -0.4002448 SPIN=   0.00000
   F   0.0057305   0.2406867   0.1696290 SPIN=   0.00000
   F  -0.4942695  -0.2406867  -0.1696290 SPIN=   0.00000
   F  -0.2442695   0.1696290  -0.2406867 SPIN=   0.00000
   F   0.2557305  -0.1696290   0.2406867 SPIN=   0.00000
%ENDBLOCK POSITIONS_FRAC

# Note: total spin =  16.00

KPOINTS_MP_SPACING 0.07

%BLOCK SPECIES_POT
QC5
%ENDBLOCK SPECIES_POT

SNAP_TO_SYMMETRY
SYMMETRY_GENERATE

