#              Generated by Buildcell
#
# at 06:28:32 (GMT+1.0) 4th August 2020
# in /lustre/scratch/uccabz1/launch_tmp
# on node-c12g-019
# by uccabz1
#
# compiler GCC version 4.9.2
# options -cpp -iprefix /lustre/shared/ucl/apps/gcc/4.9.2/bin/../lib/gcc/x86_64-unknown-linux-gnu/4.9.2/ -mtune=corei7 -march=x86-64 -g -Og
#
# seed  1880217342   729973225  2069252194  2103553960  -638347448  1313448079  -563402770  -789756309   992346305  1608953902 -1408389959  -970613134
#
#      Author: C. J. Pickard (cjp20@cam.ac.uk)
#                Space group: Cc
#

%BLOCK LATTICE_ABC
      5.94609      5.94609     11.79927
     98.72000     98.72000     99.47597
%ENDBLOCK LATTICE_ABC

%BLOCK POSITIONS_FRAC
  Li  -0.4910236   0.4946122   0.2537722 SPIN=   0.00000
  Li   0.4946122  -0.4910236  -0.2462278 SPIN=   0.00000
  Li  -0.2678884   0.1249904   0.0434577 SPIN=   0.00000
  Li   0.1249904  -0.2678884  -0.4565423 SPIN=   0.00000
  Fe   0.0963329   0.1687720  -0.1100328 SPIN=   3.03537
  Fe   0.1687720   0.0963329   0.3899672 SPIN=   3.03537
  Fe  -0.3685193  -0.1915630   0.4905195 SPIN=   4.96463
  Fe  -0.1915630  -0.3685193  -0.0094805 SPIN=   4.96463
   O   0.1582349  -0.3310758   0.3711005 SPIN=   0.00000
   O   0.1603852  -0.6435113   0.2070058 SPIN=   0.00000
   O  -0.0688901  -0.3393157   0.1760409 SPIN=   0.00000
   O  -0.1932397  -0.6333990   0.2930163 SPIN=   0.00000
   S   0.0141226  -0.4868254   0.2617908 SPIN=   0.00000
   O  -0.3310758   0.1582349  -0.1288995 SPIN=   0.00000
   O  -0.6435113   0.1603852  -0.2929942 SPIN=   0.00000
   O  -0.3393157  -0.0688901  -0.3239591 SPIN=   0.00000
   O  -0.6333990  -0.1932397  -0.2069837 SPIN=   0.00000
   S  -0.4868254   0.0141226  -0.2382092 SPIN=   0.00000
   O  -0.0110683  -0.2078563  -0.2849907 SPIN=   0.00000
   O  -0.2717622  -0.5915250  -0.3460579 SPIN=   0.00000
   O  -0.0215508  -0.4901100  -0.1508875 SPIN=   0.00000
   O   0.1528160  -0.5614870  -0.3274115 SPIN=   0.00000
   S  -0.0378913  -0.4627446  -0.2773369 SPIN=   0.00000
   O  -0.2078563  -0.0110683   0.2150093 SPIN=   0.00000
   O  -0.5915250  -0.2717622   0.1539421 SPIN=   0.00000
   O  -0.4901100  -0.0215508   0.3491125 SPIN=   0.00000
   O  -0.5614870   0.1528160   0.1725885 SPIN=   0.00000
   S  -0.4627446  -0.0378913   0.2226631 SPIN=   0.00000
   F   0.4257351  -0.4902045  -0.0599463 SPIN=   0.00000
   F  -0.4902045   0.4257351   0.4400537 SPIN=   0.00000
   F  -0.0192898   0.0236137  -0.4641653 SPIN=   0.00000
   F   0.0236137  -0.0192898   0.0358347 SPIN=   0.00000
%ENDBLOCK POSITIONS_FRAC

# Note: total spin =  16.00

KPOINTS_MP_SPACING 0.07

%BLOCK SPECIES_POT
QC5
%ENDBLOCK SPECIES_POT

SNAP_TO_SYMMETRY
SYMMETRY_GENERATE

