#              Generated by Buildcell
#
# at 07:30:56 (GMT+1.0) 4th August 2020
# in /lustre/scratch/uccabz1/launch_tmp
# on node-c12g-021
# by uccabz1
#
# compiler GCC version 4.9.2
# options -cpp -iprefix /lustre/shared/ucl/apps/gcc/4.9.2/bin/../lib/gcc/x86_64-unknown-linux-gnu/4.9.2/ -mtune=corei7 -march=x86-64 -g -Og
#
# seed   885520736 -2123022440  1379884005 -1439734892  1816064409   594978592  1239902631 -1231932993  1871805687   912679171  -665980379   -79642391
#
#      Author: C. J. Pickard (cjp20@cam.ac.uk)
#                Space group: P-1
#

%BLOCK LATTICE_ABC
      3.93221      9.79752     11.32458
    111.98640     97.88355     90.24625
%ENDBLOCK LATTICE_ABC

%BLOCK POSITIONS_FRAC
  Li  -0.4157504  -0.2103719   0.3831011 SPIN=   0.00000
  Li   0.4157504   0.2103719  -0.3831011 SPIN=   0.00000
  Li  -0.0920235   0.0792715  -0.1317836 SPIN=   0.00000
  Li   0.0920235  -0.0792715   0.1317836 SPIN=   0.00000
  Fe   0.1794110   0.4817071   0.3552259 SPIN=   2.18492
  Fe  -0.1794110  -0.4817071  -0.3552259 SPIN=   2.18492
  Fe  -0.1685733   0.1062306   0.4058218 SPIN=   5.81508
  Fe   0.1685733  -0.1062306  -0.4058218 SPIN=   5.81508
   O   0.2494179  -0.3337956  -0.2614205 SPIN=   0.00000
   O   0.8083203  -0.1987965  -0.1510754 SPIN=   0.00000
   O   0.3441979  -0.2015822  -0.0246991 SPIN=   0.00000
   O   0.2896142  -0.0609239  -0.1672586 SPIN=   0.00000
   S   0.4228876  -0.1987746  -0.1511134 SPIN=   0.00000
   O  -0.2494179   0.3337956   0.2614205 SPIN=   0.00000
   O  -0.8083203   0.1987965   0.1510754 SPIN=   0.00000
   O  -0.3441979   0.2015822   0.0246991 SPIN=   0.00000
   O  -0.2896142   0.0609239   0.1672586 SPIN=   0.00000
   S  -0.4228876   0.1987746   0.1511134 SPIN=   0.00000
   O  -0.3221500  -0.2092309   0.1660729 SPIN=   0.00000
   O   0.1028222  -0.3731736   0.0509451 SPIN=   0.00000
   O  -0.3516814  -0.4739538   0.1319969 SPIN=   0.00000
   O   0.1221908  -0.3068447   0.2853113 SPIN=   0.00000
   S  -0.1122046  -0.3408007   0.1585816 SPIN=   0.00000
   O   0.3221500   0.2092309  -0.1660729 SPIN=   0.00000
   O  -0.1028222   0.3731736  -0.0509451 SPIN=   0.00000
   O   0.3516814   0.4739538  -0.1319969 SPIN=   0.00000
   O  -0.1221908   0.3068447  -0.2853113 SPIN=   0.00000
   S   0.1122046   0.3408007  -0.1585816 SPIN=   0.00000
   F   0.3296343  -0.0002264   0.3397533 SPIN=   0.00000
   F  -0.3296343   0.0002264  -0.3397533 SPIN=   0.00000
   F  -0.2731751  -0.3816398   0.4395121 SPIN=   0.00000
   F   0.2731751   0.3816398  -0.4395121 SPIN=   0.00000
%ENDBLOCK POSITIONS_FRAC

# Note: total spin =  16.00

KPOINTS_MP_SPACING 0.07

%BLOCK SPECIES_POT
QC5
%ENDBLOCK SPECIES_POT

SNAP_TO_SYMMETRY
SYMMETRY_GENERATE

