#              Generated by Buildcell
#
# at 14:39:12 (GMT+1.0) 18th August 2020
# in /lustre/scratch/uccabz1/launch_tmp
# on node-c12e-033
# by uccabz1
#
# compiler GCC version 4.9.2
# options -cpp -iprefix /lustre/shared/ucl/apps/gcc/4.9.2/bin/../lib/gcc/x86_64-unknown-linux-gnu/4.9.2/ -mtune=corei7 -march=x86-64 -g -Og
#
# seed    21322452   233892920  -599049149  -289690217    22308854  -354994657 -1731478422  1048722903  1636255806  -815328183 -1532628587    96315943
#
#      Author: C. J. Pickard (cjp20@cam.ac.uk)
#                Space group: Cc
#

%BLOCK LATTICE_ABC
      5.70785      8.47783      8.47783
     77.18265     89.53721     89.53721
%ENDBLOCK LATTICE_ABC

%BLOCK POSITIONS_FRAC
  Li   0.2157913  -0.0322404  -0.2636220 SPIN=   0.00000
  Li  -0.2842087  -0.2636220  -0.0322404 SPIN=   0.00000
  Li   0.1277001   0.2487800   0.0175362 SPIN=   0.00000
  Li  -0.3722999   0.0175362   0.2487800 SPIN=   0.00000
  Fe  -0.0161326   0.4845644   0.2224933 SPIN=   4.01303
  Fe   0.4838674   0.2224933   0.4845644 SPIN=   4.01303
  Fe   0.1279539  -0.0922253   0.2352736 SPIN=   3.98697
  Fe  -0.3720461   0.2352736  -0.0922253 SPIN=   3.98697
   O   0.3392506  -0.3949818   0.0175663 SPIN=   0.00000
   O   0.1624481  -0.5135834  -0.1949507 SPIN=   0.00000
   O   0.5937347  -0.5011784  -0.1732631 SPIN=   0.00000
   O   0.3640356  -0.2498612  -0.2694911 SPIN=   0.00000
   S   0.3648673  -0.4149012  -0.1550346 SPIN=   0.00000
   O  -0.1607494   0.0175663  -0.3949818 SPIN=   0.00000
   O  -0.3375519  -0.1949507  -0.5135834 SPIN=   0.00000
   O   0.0937347  -0.1732631  -0.5011784 SPIN=   0.00000
   O  -0.1359644  -0.2694911  -0.2498612 SPIN=   0.00000
   S  -0.1351327  -0.1550346  -0.4149012 SPIN=   0.00000
   O   0.4001441  -0.5420607   0.2803058 SPIN=   0.00000
   O   0.4139097  -0.2429533   0.2078726 SPIN=   0.00000
   O   0.7469440  -0.3992105   0.3510571 SPIN=   0.00000
   O   0.3702796  -0.3862289   0.4944250 SPIN=   0.00000
   S   0.4828194  -0.3926134   0.3334151 SPIN=   0.00000
   O  -0.0998559   0.2803058  -0.5420607 SPIN=   0.00000
   O  -0.0860903   0.2078726  -0.2429533 SPIN=   0.00000
   O   0.2469440   0.3510571  -0.3992105 SPIN=   0.00000
   O  -0.1297204   0.4944250  -0.3862289 SPIN=   0.00000
   S  -0.0171806   0.3334151  -0.3926134 SPIN=   0.00000
   F   0.0130310  -0.1597469   0.0316357 SPIN=   0.00000
   F  -0.4869690   0.0316357  -0.1597469 SPIN=   0.00000
   F   0.3164697   0.1143376   0.3074299 SPIN=   0.00000
   F  -0.1835303   0.3074299   0.1143376 SPIN=   0.00000
%ENDBLOCK POSITIONS_FRAC

# Note: total spin =  16.00

KPOINTS_MP_SPACING 0.07

%BLOCK SPECIES_POT
QC5
%ENDBLOCK SPECIES_POT

SNAP_TO_SYMMETRY
SYMMETRY_GENERATE

