#              Generated by Buildcell
#
# at 06:19:24 (GMT+1.0) 4th August 2020
# in /lustre/scratch/uccabz1/launch_tmp
# on node-c12f-001
# by uccabz1
#
# compiler GCC version 4.9.2
# options -cpp -iprefix /lustre/shared/ucl/apps/gcc/4.9.2/bin/../lib/gcc/x86_64-unknown-linux-gnu/4.9.2/ -mtune=corei7 -march=x86-64 -g -Og
#
# seed   172339625  -719337176   515174450  -306673109 -2007653400 -1812940127  -323023513 -1777974079   650521953 -1585754190   106432069  -789731742
#
#      Author: C. J. Pickard (cjp20@cam.ac.uk)
#                Space group: P2
#

%BLOCK LATTICE_ABC
      5.81180      8.20533      9.21711
    114.48971     90.00000     90.00000
%ENDBLOCK LATTICE_ABC

%BLOCK POSITIONS_FRAC
  Li  -0.3592939  -0.2611807  -0.1255670 SPIN=   0.00000
  Li  -0.3592939   0.2611807   0.1255670 SPIN=   0.00000
  Li  -0.1513048   0.2825237  -0.4625679 SPIN=   0.00000
  Li  -0.1513048  -0.2825237   0.4625679 SPIN=   0.00000
  Fe  -0.2016664  -0.0689226   0.2814547 SPIN=   4.35142
  Fe  -0.2016664   0.0689226  -0.2814547 SPIN=   4.35142
  Fe   0.0853499  -0.3898329  -0.2643838 SPIN=   3.64858
  Fe   0.0853499   0.3898329   0.2643838 SPIN=   3.64858
   O   0.1434513  -0.1500289   0.4991003 SPIN=   0.00000
   O   0.3528938  -0.3103820   0.6342968 SPIN=   0.00000
   O   0.5680227  -0.1310620   0.5199386 SPIN=   0.00000
   O   0.3814324  -0.4147660   0.3415683 SPIN=   0.00000
   S   0.3614500  -0.2515597   0.4987260 SPIN=   0.00000
   O   0.1434513   0.1500289  -0.4991003 SPIN=   0.00000
   O   0.3528938   0.3103820  -0.6342968 SPIN=   0.00000
   O   0.5680227   0.1310620  -0.5199386 SPIN=   0.00000
   O   0.3814324   0.4147660  -0.3415683 SPIN=   0.00000
   S   0.3614500   0.2515597  -0.4987260 SPIN=   0.00000
   O   0.1669434   0.1080945  -0.2633188 SPIN=   0.00000
   O   0.4699981   0.0396056  -0.1083070 SPIN=   0.00000
   O   0.1319664   0.2210089   0.0298303 SPIN=   0.00000
   O   0.4258427   0.3484159  -0.0877927 SPIN=   0.00000
   S   0.2986877   0.1792812  -0.1073971 SPIN=   0.00000
   O   0.1669434  -0.1080945   0.2633188 SPIN=   0.00000
   O   0.4699981  -0.0396056   0.1083070 SPIN=   0.00000
   O   0.1319664  -0.2210089  -0.0298303 SPIN=   0.00000
   O   0.4258427  -0.3484159   0.0877927 SPIN=   0.00000
   S   0.2986877  -0.1792812   0.1073971 SPIN=   0.00000
   F  -0.1342601   0.1541252   0.2521581 SPIN=   0.00000
   F  -0.1342601  -0.1541252  -0.2521581 SPIN=   0.00000
   F  -0.1615264  -0.3692474   0.2356861 SPIN=   0.00000
   F  -0.1615264   0.3692474  -0.2356861 SPIN=   0.00000
%ENDBLOCK POSITIONS_FRAC

# Note: total spin =  16.00

KPOINTS_MP_SPACING 0.07

%BLOCK SPECIES_POT
QC5
%ENDBLOCK SPECIES_POT

SNAP_TO_SYMMETRY
SYMMETRY_GENERATE

