#              Generated by Buildcell
#
# at 10:05:24 (GMT+1.0) 4th August 2020
# in /lustre/scratch/uccabz1/launch_tmp
# on node-c12c-030
# by uccabz1
#
# compiler GCC version 4.9.2
# options -cpp -iprefix /lustre/shared/ucl/apps/gcc/4.9.2/bin/../lib/gcc/x86_64-unknown-linux-gnu/4.9.2/ -mtune=corei7 -march=x86-64 -g -Og
#
# seed   568735598   349860962   -81736611   875786203  -570969158   716086937 -1617316773  -555752687  1424769612 -1216634441  1829215012   427194085
#
#      Author: C. J. Pickard (cjp20@cam.ac.uk)
#                Space group: Pc
#

%BLOCK LATTICE_ABC
      4.74298      6.87345     12.40005
     90.00000     90.00000     98.31532
%ENDBLOCK LATTICE_ABC

%BLOCK POSITIONS_FRAC
  Li  -0.0653967   0.2609783  -0.3916972 SPIN=   0.00000
  Li   0.4346033   0.2609783   0.3916972 SPIN=   0.00000
  Li  -0.4392280  -0.2205303  -0.2440332 SPIN=   0.00000
  Li   0.0607720  -0.2205303   0.2440332 SPIN=   0.00000
  Fe  -0.1875808   0.1319157  -0.1181804 SPIN=   3.83642
  Fe   0.3124192   0.1319157   0.1181804 SPIN=   3.83642
  Fe   0.0453949  -0.3453087  -0.1094987 SPIN=   4.16358
  Fe  -0.4546051  -0.3453087   0.1094987 SPIN=   4.16358
   O  -0.2461157   0.5748915   0.3973636 SPIN=   0.00000
   O   0.2554631   0.5217451   0.4202652 SPIN=   0.00000
   O   0.0143185   0.4524936   0.2445457 SPIN=   0.00000
   O  -0.1247328   0.2366779   0.4011823 SPIN=   0.00000
   S  -0.0252667   0.4464520   0.3658392 SPIN=   0.00000
   O   0.2538843   0.5748915  -0.3973636 SPIN=   0.00000
   O   0.7554631   0.5217451  -0.4202652 SPIN=   0.00000
   O   0.5143185   0.4524936  -0.2445457 SPIN=   0.00000
   O   0.3752672   0.2366779  -0.4011823 SPIN=   0.00000
   S   0.4747333   0.4464520  -0.3658392 SPIN=   0.00000
   O  -0.1196048  -0.0923923   0.3733716 SPIN=   0.00000
   O  -0.6114463  -0.0839076   0.4379030 SPIN=   0.00000
   O  -0.5273146  -0.2834662   0.2781118 SPIN=   0.00000
   O  -0.4486562   0.0798086   0.2665661 SPIN=   0.00000
   S  -0.4267555  -0.0949894   0.3389881 SPIN=   0.00000
   O   0.3803952  -0.0923923  -0.3733716 SPIN=   0.00000
   O  -0.1114463  -0.0839076  -0.4379030 SPIN=   0.00000
   O  -0.0273146  -0.2834662  -0.2781118 SPIN=   0.00000
   O   0.0513438   0.0798086  -0.2665661 SPIN=   0.00000
   S   0.0732445  -0.0949894  -0.3389881 SPIN=   0.00000
   F  -0.4343124  -0.1109046  -0.1033721 SPIN=   0.00000
   F   0.0656876  -0.1109046   0.1033721 SPIN=   0.00000
   F  -0.4462607   0.3786074   0.1039022 SPIN=   0.00000
   F   0.0537393   0.3786074  -0.1039022 SPIN=   0.00000
%ENDBLOCK POSITIONS_FRAC

# Note: total spin =  16.00

KPOINTS_MP_SPACING 0.07

%BLOCK SPECIES_POT
QC5
%ENDBLOCK SPECIES_POT

SNAP_TO_SYMMETRY
SYMMETRY_GENERATE

