#              Generated by Buildcell
#
# at 08:01:24 (GMT+1.0) 4th August 2020
# in /lustre/scratch/uccabz1/launch_tmp
# on node-c12f-010
# by uccabz1
#
# compiler GCC version 4.9.2
# options -cpp -iprefix /lustre/shared/ucl/apps/gcc/4.9.2/bin/../lib/gcc/x86_64-unknown-linux-gnu/4.9.2/ -mtune=corei7 -march=x86-64 -g -Og
#
# seed  1629268848 -1289039164  2048416439 -1432623406  -921875985  -285008036  -451846860   211004786   711548815 -1599768960   608521690  1857568887
#
#      Author: C. J. Pickard (cjp20@cam.ac.uk)
#                Space group: P41
#

%BLOCK LATTICE_ABC
      7.12939      7.49038      7.49038
     90.00000     90.00000     90.00000
%ENDBLOCK LATTICE_ABC

%BLOCK POSITIONS_FRAC
  Li   0.1668599   0.4119417   0.1997826 SPIN=   0.00000
  Li  -0.3331401  -0.4119417  -0.1997826 SPIN=   0.00000
  Li   0.4168599   0.1997826  -0.4119417 SPIN=   0.00000
  Li  -0.0831401  -0.1997826   0.4119417 SPIN=   0.00000
  Fe  -0.2018642   0.0407548  -0.3063907 SPIN=   4.00000
  Fe   0.2981358  -0.0407548   0.3063907 SPIN=   4.00000
  Fe   0.0481358  -0.3063907  -0.0407548 SPIN=   4.00000
  Fe  -0.4518642   0.3063907   0.0407548 SPIN=   4.00000
   O  -0.0975234   0.1007933   0.1023825 SPIN=   0.00000
   O  -0.0992627   0.3688808   0.2955018 SPIN=   0.00000
   O   0.0438517   0.0880459   0.4038778 SPIN=   0.00000
   O  -0.3006752   0.1103307   0.3701310 SPIN=   0.00000
   S  -0.1134024   0.1670127   0.2929733 SPIN=   0.00000
   O   0.4024766  -0.1007933  -0.1023825 SPIN=   0.00000
   O   0.4007373  -0.3688808  -0.2955018 SPIN=   0.00000
   O   0.5438517  -0.0880459  -0.4038778 SPIN=   0.00000
   O   0.1993248  -0.1103307  -0.3701310 SPIN=   0.00000
   S   0.3865976  -0.1670127  -0.2929733 SPIN=   0.00000
   O   0.1524766   0.1023825  -0.1007933 SPIN=   0.00000
   O   0.1507373   0.2955018  -0.3688808 SPIN=   0.00000
   O   0.2938517   0.4038778  -0.0880459 SPIN=   0.00000
   O  -0.0506752   0.3701310  -0.1103307 SPIN=   0.00000
   S   0.1365976   0.2929733  -0.1670127 SPIN=   0.00000
   O  -0.3475234  -0.1023825   0.1007933 SPIN=   0.00000
   O  -0.3492627  -0.2955018   0.3688808 SPIN=   0.00000
   O  -0.2061483  -0.4038778   0.0880459 SPIN=   0.00000
   O  -0.5506752  -0.3701310   0.1103307 SPIN=   0.00000
   S  -0.3634024  -0.2929733   0.1670127 SPIN=   0.00000
   F  -0.1134056  -0.2461578  -0.2538546 SPIN=   0.00000
   F   0.3865944   0.2461578   0.2538546 SPIN=   0.00000
   F   0.1365944  -0.2538546   0.2461578 SPIN=   0.00000
   F  -0.3634056   0.2538546  -0.2461578 SPIN=   0.00000
%ENDBLOCK POSITIONS_FRAC

# Note: total spin =  16.00

KPOINTS_MP_SPACING 0.07

%BLOCK SPECIES_POT
QC5
%ENDBLOCK SPECIES_POT

SNAP_TO_SYMMETRY
SYMMETRY_GENERATE

