#              Generated by Buildcell
#
# at 04:48:54 (GMT+1.0) 18th August 2020
# in /scratch/scratch/uccabz1/launch_tmp
# on node-k10e-015
# by uccabz1
#
# compiler GCC version 4.9.2
# options -cpp -iprefix /scratch/UCL/applications/gcc/4.9.2/bin/../lib/gcc/x86_64-unknown-linux-gnu/4.9.2/ -mtune=corei7 -march=x86-64 -g -O2
#
# seed  -697243523   344281410  1873778151  2093517739   655601748 -1413480146   558289341 -1792048581  -223071822   265790127 -1227825755   741738064
#
#      Author: C. J. Pickard (cjp20@cam.ac.uk)
#                Space group: Pc
#

%BLOCK LATTICE_ABC
      4.89946      5.78309     14.40660
     90.00000     90.00000    101.50184
%ENDBLOCK LATTICE_ABC

%BLOCK POSITIONS_FRAC
  Li  -0.2428501  -0.3014750   0.1004667 SPIN=   0.00000
  Li  -0.2428501   0.1985250  -0.1004667 SPIN=   0.00000
  Li   0.2448659   0.3660722   0.2471575 SPIN=   0.00000
  Li   0.2448659  -0.1339278  -0.2471575 SPIN=   0.00000
  Fe   0.4602275  -0.3134695   0.4175907 SPIN=   4.35020
  Fe   0.4602275   0.1865305  -0.4175907 SPIN=   4.35020
  Fe   0.3046330  -0.0984534   0.1784606 SPIN=   3.64980
  Fe   0.3046330   0.4015466  -0.1784606 SPIN=   3.64980
   O  -0.3883707   0.2063411   0.0446685 SPIN=   0.00000
   O  -0.0775839   0.4480754   0.1587464 SPIN=   0.00000
   O   0.1196470   0.3075350   0.0161980 SPIN=   0.00000
   O  -0.0682260   0.0242581   0.1402765 SPIN=   0.00000
   S  -0.1036334   0.2465524   0.0899723 SPIN=   0.00000
   O  -0.3883707  -0.2936589  -0.0446685 SPIN=   0.00000
   O  -0.0775839  -0.0519246  -0.1587464 SPIN=   0.00000
   O   0.1196470  -0.1924650  -0.0161980 SPIN=   0.00000
   O  -0.0682260  -0.4757419  -0.1402765 SPIN=   0.00000
   S  -0.1036334  -0.2534476  -0.0899723 SPIN=   0.00000
   O  -0.3943281  -0.3551701  -0.4432872 SPIN=   0.00000
   O  -0.3927464  -0.4028914  -0.2725840 SPIN=   0.00000
   O  -0.2601338  -0.0050066  -0.3421507 SPIN=   0.00000
   O   0.0525874  -0.2901470  -0.3577823 SPIN=   0.00000
   S  -0.2486552  -0.2633038  -0.3539511 SPIN=   0.00000
   O  -0.3943281   0.1448299   0.4432872 SPIN=   0.00000
   O  -0.3927464   0.0971086   0.2725840 SPIN=   0.00000
   O  -0.2601338   0.4949934   0.3421507 SPIN=   0.00000
   O   0.0525874   0.2098530   0.3577823 SPIN=   0.00000
   S  -0.2486552   0.2366962   0.3539511 SPIN=   0.00000
   F   0.4766637   0.1591789  -0.1997641 SPIN=   0.00000
   F   0.4766637  -0.3408211   0.1997641 SPIN=   0.00000
   F   0.1471152   0.3020218  -0.4288803 SPIN=   0.00000
   F   0.1471152  -0.1979782   0.4288803 SPIN=   0.00000
%ENDBLOCK POSITIONS_FRAC

# Note: total spin =  16.00

KPOINTS_MP_SPACING 0.07

%BLOCK SPECIES_POT
QC5
%ENDBLOCK SPECIES_POT

SNAP_TO_SYMMETRY
SYMMETRY_GENERATE

