#              Generated by Buildcell
#
# at 06:29:13 (GMT+1.0) 4th August 2020
# in /lustre/scratch/uccabz1/launch_tmp
# on node-c12e-015
# by uccabz1
#
# compiler GCC version 4.9.2
# options -cpp -iprefix /lustre/shared/ucl/apps/gcc/4.9.2/bin/../lib/gcc/x86_64-unknown-linux-gnu/4.9.2/ -mtune=corei7 -march=x86-64 -g -Og
#
# seed  1368330067  1098365775  -394622111  -954920324  1098785521    53076981   171976646 -2137110963 -1328630485   770265992  1494302120  1611855653
#
#      Author: C. J. Pickard (cjp20@cam.ac.uk)
#                Space group: P-1
#

%BLOCK LATTICE_ABC
      4.52146      8.64902     10.48294
     81.92540     85.37146     80.84589
%ENDBLOCK LATTICE_ABC

%BLOCK POSITIONS_FRAC
  Li  -0.0423093  -0.0313445   0.1844022 SPIN=   0.00000
  Li   0.0423093   0.0313445  -0.1844022 SPIN=   0.00000
  Li  -0.0000000   0.5000000   0.5000000 SPIN=   0.00000
  Li   0.5000000   0.0000000  -0.5000000 SPIN=   0.00000
  Fe   0.0239017   0.2704693   0.0007851 SPIN=   1.57324
  Fe  -0.0239017  -0.2704693  -0.0007851 SPIN=   1.57324
  Fe   0.6275972  -0.4393728  -0.2391784 SPIN=   6.42676
  Fe  -0.6275972   0.4393728   0.2391784 SPIN=   6.42676
   O   0.2580092   0.3126090  -0.1865230 SPIN=   0.00000
   O   0.4348640   0.1672368  -0.3721921 SPIN=   0.00000
   O   0.5185922   0.0374424  -0.1494888 SPIN=   0.00000
   O   0.8018913   0.2526158  -0.2442634 SPIN=   0.00000
   S   0.5033392   0.1924760  -0.2381168 SPIN=   0.00000
   O  -0.2580092  -0.3126090   0.1865230 SPIN=   0.00000
   O  -0.4348640  -0.1672368   0.3721921 SPIN=   0.00000
   O  -0.5185922  -0.0374424   0.1494888 SPIN=   0.00000
   O  -0.8018913  -0.2526158   0.2442634 SPIN=   0.00000
   S  -0.5033392  -0.1924760   0.2381168 SPIN=   0.00000
   O  -0.1431805  -0.2881870  -0.3836045 SPIN=   0.00000
   O   0.0992159  -0.2036386  -0.2070271 SPIN=   0.00000
   O  -0.0814277  -0.0078760  -0.3903149 SPIN=   0.00000
   O   0.3623607  -0.2093473  -0.4230687 SPIN=   0.00000
   S   0.0592421  -0.1772622  -0.3510038 SPIN=   0.00000
   O   0.1431805   0.2881870   0.3836045 SPIN=   0.00000
   O  -0.0992159   0.2036386   0.2070271 SPIN=   0.00000
   O   0.0814277   0.0078760   0.3903149 SPIN=   0.00000
   O  -0.3623607   0.2093473   0.4230687 SPIN=   0.00000
   S  -0.0592421   0.1772622   0.3510038 SPIN=   0.00000
   F  -0.3920852  -0.3086671  -0.0802016 SPIN=   0.00000
   F   0.3920852   0.3086671   0.0802016 SPIN=   0.00000
   F   0.5000000   0.5000000  -0.5000000 SPIN=   0.00000
   F  -0.0000000  -0.0000000   0.0000000 SPIN=   0.00000
%ENDBLOCK POSITIONS_FRAC

# Note: total spin =  16.00

KPOINTS_MP_SPACING 0.07

%BLOCK SPECIES_POT
QC5
%ENDBLOCK SPECIES_POT

SNAP_TO_SYMMETRY
SYMMETRY_GENERATE

