#              Generated by Buildcell
#
# at 06:51:16 (GMT+1.0) 4th August 2020
# in /lustre/scratch/uccabz1/launch_tmp
# on node-c12g-005
# by uccabz1
#
# compiler GCC version 4.9.2
# options -cpp -iprefix /lustre/shared/ucl/apps/gcc/4.9.2/bin/../lib/gcc/x86_64-unknown-linux-gnu/4.9.2/ -mtune=corei7 -march=x86-64 -g -Og
#
# seed -1871452457   775149636    36066151   901191923  -811781753   -85923850 -1400067237  1176468636  1741359591 -1175806511  1767612854   890062284
#
#      Author: C. J. Pickard (cjp20@cam.ac.uk)
#                Space group: Cc
#

%BLOCK LATTICE_ABC
      4.86130      9.27820      9.27820
     95.87399    100.69422    100.69422
%ENDBLOCK LATTICE_ABC

%BLOCK POSITIONS_FRAC
  Li   0.2823451  -0.2104616   0.3552284 SPIN=   0.00000
  Li  -0.2176549   0.3552284  -0.2104616 SPIN=   0.00000
  Li   0.3833425   0.3210351   0.1062815 SPIN=   0.00000
  Li  -0.1166575   0.1062815   0.3210351 SPIN=   0.00000
  Fe   0.4121558  -0.3921741  -0.1896970 SPIN=   4.80630
  Fe  -0.0878442  -0.1896970  -0.3921741 SPIN=   4.80630
  Fe  -0.0100508  -0.4497000   0.1020670 SPIN=   3.19370
  Fe   0.4899492   0.1020670  -0.4497000 SPIN=   3.19370
   O  -0.0443470   0.1725466  -0.4514404 SPIN=   0.00000
   O  -0.1310340   0.4234563  -0.3872866 SPIN=   0.00000
   O   0.0986658   0.3712995  -0.5981180 SPIN=   0.00000
   O   0.3633563   0.3806164  -0.3411635 SPIN=   0.00000
   S   0.0716603   0.3369797  -0.4445021 SPIN=   0.00000
   O  -0.5443470  -0.4514404   0.1725466 SPIN=   0.00000
   O  -0.6310340  -0.3872866   0.4234563 SPIN=   0.00000
   O  -0.4013342  -0.5981180   0.3712995 SPIN=   0.00000
   O  -0.1366437  -0.3411635   0.3806164 SPIN=   0.00000
   S  -0.4283397  -0.4445021   0.3369797 SPIN=   0.00000
   O  -0.0716005  -0.1690348   0.2094948 SPIN=   0.00000
   O  -0.2296093  -0.1672436  -0.0595919 SPIN=   0.00000
   O  -0.2999527   0.0316482   0.1203457 SPIN=   0.00000
   O  -0.5885546  -0.2225771   0.0953615 SPIN=   0.00000
   S  -0.2974293  -0.1318018   0.0914025 SPIN=   0.00000
   O   0.4283995   0.2094948  -0.1690348 SPIN=   0.00000
   O   0.2703907  -0.0595919  -0.1672436 SPIN=   0.00000
   O   0.2000473   0.1203457   0.0316482 SPIN=   0.00000
   O  -0.0885546   0.0953615  -0.2225771 SPIN=   0.00000
   S   0.2025707   0.0914025  -0.1318018 SPIN=   0.00000
   F   0.0137658  -0.3964584  -0.1265992 SPIN=   0.00000
   F  -0.4862342  -0.1265992  -0.3964584 SPIN=   0.00000
   F  -0.1331943   0.3187126   0.0964104 SPIN=   0.00000
   F   0.3668057   0.0964104   0.3187126 SPIN=   0.00000
%ENDBLOCK POSITIONS_FRAC

# Note: total spin =  16.00

KPOINTS_MP_SPACING 0.07

%BLOCK SPECIES_POT
QC5
%ENDBLOCK SPECIES_POT

SNAP_TO_SYMMETRY
SYMMETRY_GENERATE

