#              Generated by Buildcell
#
# at 07:57:47 (GMT+1.0) 18th August 2020
# in /lustre/scratch/uccabz1/launch_tmp
# on node-c12i-018
# by uccabz1
#
# compiler GCC version 4.9.2
# options -cpp -iprefix /lustre/shared/ucl/apps/gcc/4.9.2/bin/../lib/gcc/x86_64-unknown-linux-gnu/4.9.2/ -mtune=corei7 -march=x86-64 -g -Og
#
# seed   354019306 -1890226050  -163450049 -1564138511 -1559862165 -1352655345  -701104137 -1253432959  -808319834  1174511659 -1350615570  -477674706
#
#      Author: C. J. Pickard (cjp20@cam.ac.uk)
#                Space group: Fdd2
#

%BLOCK LATTICE_ABC
      7.93809      7.93809      8.43345
    117.39951    117.39951     91.27104
%ENDBLOCK LATTICE_ABC

%BLOCK POSITIONS_FRAC
  Li   0.4286840   0.1218198  -0.0189940 SPIN=   0.00000
  Li  -0.1218198  -0.4286840   0.0189940 SPIN=   0.00000
  Li  -0.3908138  -0.1976780   0.4810060 SPIN=   0.00000
  Li   0.1976780   0.3908138  -0.4810060 SPIN=   0.00000
  Fe  -0.2037641   0.4817305   0.2888519 SPIN=   4.00000
  Fe  -0.4817305   0.2037641  -0.2888519 SPIN=   4.00000
  Fe  -0.4428786  -0.2573840  -0.2111481 SPIN=   4.00000
  Fe   0.2573840   0.4428786   0.2111481 SPIN=   4.00000
   O  -0.3823344   0.0960750   0.4554024 SPIN=   0.00000
   O  -0.6355265  -0.0917155   0.0735089 SPIN=   0.00000
   O  -0.3617571  -0.2233580   0.2171370 SPIN=   0.00000
   O  -0.2920529   0.0733862   0.2032247 SPIN=   0.00000
   S  -0.4179177  -0.0364031   0.2373182 SPIN=   0.00000
   O  -0.0960750   0.3823344  -0.4554024 SPIN=   0.00000
   O   0.0917155   0.6355265  -0.0735089 SPIN=   0.00000
   O   0.2233580   0.3617571  -0.2171370 SPIN=   0.00000
   O  -0.0733862   0.2920529  -0.2032247 SPIN=   0.00000
   S   0.0364031   0.4179177  -0.2373182 SPIN=   0.00000
   O   0.1093275   0.0877369  -0.0445976 SPIN=   0.00000
   O  -0.0847756  -0.0409646  -0.4264911 SPIN=   0.00000
   O   0.1904950  -0.1711060  -0.2828630 SPIN=   0.00000
   O  -0.1201615  -0.2547224  -0.2967753 SPIN=   0.00000
   S   0.0237213  -0.0947640  -0.2626818 SPIN=   0.00000
   O  -0.0877369  -0.1093275   0.0445976 SPIN=   0.00000
   O   0.0409646   0.0847756   0.4264911 SPIN=   0.00000
   O   0.1711060  -0.1904950   0.2828630 SPIN=   0.00000
   O   0.2547224   0.1201615   0.2967753 SPIN=   0.00000
   S   0.0947640  -0.0237213   0.2626818 SPIN=   0.00000
   F  -0.4651825  -0.0508941  -0.3299639 SPIN=   0.00000
   F   0.0508941   0.4651825   0.3299639 SPIN=   0.00000
   F   0.4709301   0.3852186   0.1700361 SPIN=   0.00000
   F  -0.3852186  -0.4709301  -0.1700361 SPIN=   0.00000
%ENDBLOCK POSITIONS_FRAC

# Note: total spin =  16.00

KPOINTS_MP_SPACING 0.07

%BLOCK SPECIES_POT
QC5
%ENDBLOCK SPECIES_POT

SNAP_TO_SYMMETRY
SYMMETRY_GENERATE

