#              Generated by Buildcell
#
# at 05:51:03 (GMT+1.0) 4th August 2020
# in /lustre/scratch/uccabz1/launch_tmp
# on node-c12l-029
# by uccabz1
#
# compiler GCC version 4.9.2
# options -cpp -iprefix /lustre/shared/ucl/apps/gcc/4.9.2/bin/../lib/gcc/x86_64-unknown-linux-gnu/4.9.2/ -mtune=corei7 -march=x86-64 -g -Og
#
# seed   606014284  -151592657   468677355  1494107133 -1112972929  1302241006   452791307 -1736919960 -1352749512  -794417156  1247885317  1491161265
#
#      Author: C. J. Pickard (cjp20@cam.ac.uk)
#                Space group: Cc
#

%BLOCK LATTICE_ABC
      6.59731      6.59731      9.24060
     91.00703     91.00703     95.79382
%ENDBLOCK LATTICE_ABC

%BLOCK POSITIONS_FRAC
  Li   0.1832838   0.2683224  -0.0312518 SPIN=   0.00000
  Li   0.2683224   0.1832838   0.4687482 SPIN=   0.00000
  Li  -0.1126240  -0.1536274   0.2148333 SPIN=   0.00000
  Li  -0.1536274  -0.1126240  -0.2851667 SPIN=   0.00000
  Fe   0.3995264  -0.2489043  -0.2650709 SPIN=   4.92968
  Fe  -0.2489043   0.3995264   0.2349291 SPIN=   4.92968
  Fe   0.3446153  -0.2699865   0.2855000 SPIN=   3.07032
  Fe  -0.2699865   0.3446153  -0.2145000 SPIN=   3.07032
   O   0.1108201  -0.3926409   0.1498756 SPIN=   0.00000
   O   0.0449857  -0.1279535  -0.0265809 SPIN=   0.00000
   O  -0.1668741  -0.4598072  -0.0335124 SPIN=   0.00000
   O   0.1929595  -0.4396319  -0.1080808 SPIN=   0.00000
   S   0.0454728  -0.3550084  -0.0045746 SPIN=   0.00000
   O  -0.3926409   0.1108201   0.6498756 SPIN=   0.00000
   O  -0.1279535   0.0449857   0.4734191 SPIN=   0.00000
   O  -0.4598072  -0.1668741   0.4664876 SPIN=   0.00000
   O  -0.4396319   0.1929595   0.3919192 SPIN=   0.00000
   S  -0.3550084   0.0454728   0.4954254 SPIN=   0.00000
   O   0.2447300  -0.5242757  -0.5154551 SPIN=   0.00000
   O   0.0032599  -0.5212082  -0.3136588 SPIN=   0.00000
   O  -0.1243943  -0.6130275  -0.5620569 SPIN=   0.00000
   O   0.0079585  -0.2569204  -0.5006929 SPIN=   0.00000
   S   0.0328885  -0.4788579  -0.4729659 SPIN=   0.00000
   O  -0.5242757   0.2447300  -0.0154551 SPIN=   0.00000
   O  -0.5212082   0.0032599   0.1863412 SPIN=   0.00000
   O  -0.6130275  -0.1243943  -0.0620569 SPIN=   0.00000
   O  -0.2569204   0.0079585  -0.0006929 SPIN=   0.00000
   S  -0.4788579   0.0328885   0.0270341 SPIN=   0.00000
   F   0.0385916   0.1575131   0.2066821 SPIN=   0.00000
   F   0.1575131   0.0385916  -0.2933179 SPIN=   0.00000
   F  -0.4822147  -0.4619733   0.2271733 SPIN=   0.00000
   F  -0.4619733  -0.4822147  -0.2728267 SPIN=   0.00000
%ENDBLOCK POSITIONS_FRAC

# Note: total spin =  16.00

KPOINTS_MP_SPACING 0.07

%BLOCK SPECIES_POT
QC5
%ENDBLOCK SPECIES_POT

SNAP_TO_SYMMETRY
SYMMETRY_GENERATE

