#              Generated by Buildcell
#
# at 07:47:18 (GMT+1.0) 18th August 2020
# in /lustre/scratch/uccabz1/launch_tmp
# on node-c12m-014
# by uccabz1
#
# compiler GCC version 4.9.2
# options -cpp -iprefix /lustre/shared/ucl/apps/gcc/4.9.2/bin/../lib/gcc/x86_64-unknown-linux-gnu/4.9.2/ -mtune=corei7 -march=x86-64 -g -Og
#
# seed  -170084470   475912044   800480382  -157865694  1373758604  1835954930   786100019 -1414769532  -215061033  -593426734   558155876  -988362269
#
#      Author: C. J. Pickard (cjp20@cam.ac.uk)
#                Space group: P-1
#

%BLOCK LATTICE_ABC
      6.88400      7.47362      8.75236
     69.57658     76.17881     73.68638
%ENDBLOCK LATTICE_ABC

%BLOCK POSITIONS_FRAC
  Li  -0.4272113  -0.2637165   0.4787523 SPIN=   0.00000
  Li   0.4272113   0.2637165  -0.4787523 SPIN=   0.00000
  Li  -0.0027782   0.2381925   0.1619448 SPIN=   0.00000
  Li   0.0027782  -0.2381925  -0.1619448 SPIN=   0.00000
  Fe   0.2136396  -0.2122040   0.0787839 SPIN=   1.92090
  Fe  -0.2136396   0.2122040  -0.0787839 SPIN=   1.92090
  Fe  -0.1627447   0.3628828   0.4568750 SPIN=   6.07910
  Fe   0.1627447  -0.3628828  -0.4568750 SPIN=   6.07910
   O  -0.4083172  -0.4222403   0.2658578 SPIN=   0.00000
   O  -0.0656086  -0.4066891   0.0974476 SPIN=   0.00000
   O  -0.3716918  -0.1627438  -0.0014648 SPIN=   0.00000
   O  -0.3201446  -0.5062688   0.0043909 SPIN=   0.00000
   S  -0.2914406  -0.3744855   0.0915579 SPIN=   0.00000
   O   0.4083172   0.4222403  -0.2658578 SPIN=   0.00000
   O   0.0656086   0.4066891  -0.0974476 SPIN=   0.00000
   O   0.3716918   0.1627438   0.0014648 SPIN=   0.00000
   O   0.3201446   0.5062688  -0.0043909 SPIN=   0.00000
   S   0.2914406   0.3744855  -0.0915579 SPIN=   0.00000
   O   0.3207804   0.0188881   0.5448260 SPIN=   0.00000
   O   0.4661552  -0.0373007   0.2739177 SPIN=   0.00000
   O   0.2554450   0.2867691   0.2871266 SPIN=   0.00000
   O   0.0927518   0.0035110   0.3719267 SPIN=   0.00000
   S   0.2837831   0.0679669   0.3694493 SPIN=   0.00000
   O  -0.3207804  -0.0188881  -0.5448260 SPIN=   0.00000
   O  -0.4661552   0.0373007  -0.2739177 SPIN=   0.00000
   O  -0.2554450  -0.2867691  -0.2871266 SPIN=   0.00000
   O  -0.0927518  -0.0035110  -0.3719267 SPIN=   0.00000
   S  -0.2837831  -0.0679669  -0.3694493 SPIN=   0.00000
   F  -0.1871876   0.3789047  -0.3299943 SPIN=   0.00000
   F   0.1871876  -0.3789047   0.3299943 SPIN=   0.00000
   F   0.1918810  -0.0960742  -0.1458061 SPIN=   0.00000
   F  -0.1918810   0.0960742   0.1458061 SPIN=   0.00000
%ENDBLOCK POSITIONS_FRAC

# Note: total spin =  16.00

KPOINTS_MP_SPACING 0.07

%BLOCK SPECIES_POT
QC5
%ENDBLOCK SPECIES_POT

SNAP_TO_SYMMETRY
SYMMETRY_GENERATE

