#              Generated by Buildcell
#
# at 09:29:07 (GMT+1.0) 4th August 2020
# in /lustre/scratch/uccabz1/launch_tmp
# on node-c12n-031
# by uccabz1
#
# compiler GCC version 4.9.2
# options -cpp -iprefix /lustre/shared/ucl/apps/gcc/4.9.2/bin/../lib/gcc/x86_64-unknown-linux-gnu/4.9.2/ -mtune=corei7 -march=x86-64 -g -Og
#
# seed  2121446917  1992927676 -1057351571  -717015838   358717440 -1718090372  -815447389 -1691760696   800070593  -738295818  -704448378 -1352633633
#
#      Author: C. J. Pickard (cjp20@cam.ac.uk)
#                Space group: Pc
#

%BLOCK LATTICE_ABC
      7.05003      7.38545      8.51138
     90.00000     90.00000    115.49885
%ENDBLOCK LATTICE_ABC

%BLOCK POSITIONS_FRAC
  Li   0.4706524   0.1858236  -0.3920872 SPIN=   0.00000
  Li  -0.0293476   0.1858236   0.3920872 SPIN=   0.00000
  Li  -0.1306150  -0.3612981   0.3678458 SPIN=   0.00000
  Li   0.3693850  -0.3612981  -0.3678458 SPIN=   0.00000
  Fe   0.4408053   0.3595117   0.2824693 SPIN=   5.00219
  Fe  -0.0591947   0.3595117  -0.2824693 SPIN=   5.00219
  Fe  -0.1737472  -0.1861047  -0.3340336 SPIN=   2.99781
  Fe   0.3262528  -0.1861047   0.3340336 SPIN=   2.99781
   O  -0.3642700  -0.1736172   0.3128548 SPIN=   0.00000
   O  -0.3261333  -0.0524676   0.0383391 SPIN=   0.00000
   O  -0.2783110  -0.3571210   0.1022271 SPIN=   0.00000
   O  -0.0132326  -0.0236627   0.1877657 SPIN=   0.00000
   S  -0.2454867  -0.1517171   0.1602967 SPIN=   0.00000
   O   0.1357300  -0.1736172  -0.3128548 SPIN=   0.00000
   O   0.1738667  -0.0524676  -0.0383391 SPIN=   0.00000
   O   0.2216890  -0.3571210  -0.1022271 SPIN=   0.00000
   O   0.4867674  -0.0236627  -0.1877657 SPIN=   0.00000
   S   0.2545133  -0.1517171  -0.1602967 SPIN=   0.00000
   O   0.2657139   0.3782241  -0.2548561 SPIN=   0.00000
   O   0.3546047   0.3653212   0.0249514 SPIN=   0.00000
   O   0.5854028   0.6492298  -0.1419658 SPIN=   0.00000
   O   0.5699388   0.3114453  -0.1833051 SPIN=   0.00000
   S   0.4439151   0.4260551  -0.1387939 SPIN=   0.00000
   O  -0.2342861   0.3782241   0.2548561 SPIN=   0.00000
   O  -0.1453953   0.3653212  -0.0249514 SPIN=   0.00000
   O   0.0854028   0.6492298   0.1419658 SPIN=   0.00000
   O   0.0699388   0.3114453   0.1833051 SPIN=   0.00000
   S  -0.0560849   0.4260551   0.1387939 SPIN=   0.00000
   F   0.3927066   0.0569854   0.2309654 SPIN=   0.00000
   F  -0.1072934   0.0569854  -0.2309654 SPIN=   0.00000
   F  -0.1678034   0.4824985  -0.4253186 SPIN=   0.00000
   F   0.3321966   0.4824985   0.4253186 SPIN=   0.00000
%ENDBLOCK POSITIONS_FRAC

# Note: total spin =  16.00

KPOINTS_MP_SPACING 0.07

%BLOCK SPECIES_POT
QC5
%ENDBLOCK SPECIES_POT

SNAP_TO_SYMMETRY
SYMMETRY_GENERATE

