#              Generated by Buildcell
#
# at 07:05:44 (GMT+1.0) 4th August 2020
# in /lustre/scratch/uccabz1/launch_tmp
# on node-c12n-012
# by uccabz1
#
# compiler GCC version 4.9.2
# options -cpp -iprefix /lustre/shared/ucl/apps/gcc/4.9.2/bin/../lib/gcc/x86_64-unknown-linux-gnu/4.9.2/ -mtune=corei7 -march=x86-64 -g -Og
#
# seed   698103583 -1766884916  1701885139  1751596215   262814415  1407423025 -1995541561 -1775519522    41424513    77780930  1710287233  -651735644
#
#      Author: C. J. Pickard (cjp20@cam.ac.uk)
#                Space group: P2
#

%BLOCK LATTICE_ABC
      4.67167      8.76033      9.83368
     96.32149     90.00000     90.00000
%ENDBLOCK LATTICE_ABC

%BLOCK POSITIONS_FRAC
  Li   0.4547004  -0.0906413   0.2589579 SPIN=   0.00000
  Li   0.4547004   0.0906413  -0.2589579 SPIN=   0.00000
  Li   0.4041795   0.4902147  -0.3172786 SPIN=   0.00000
  Li   0.4041795  -0.4902147   0.3172786 SPIN=   0.00000
  Fe  -0.0922009  -0.3267442   0.2311109 SPIN=   4.81926
  Fe  -0.0922009   0.3267442  -0.2311109 SPIN=   4.81926
  Fe   0.4545096   0.2903001   0.0753137 SPIN=   3.18074
  Fe   0.4545096  -0.2903001  -0.0753137 SPIN=   3.18074
   O   0.0238874   0.1068169  -0.2002058 SPIN=   0.00000
   O   0.0833685  -0.1157788  -0.0681080 SPIN=   0.00000
   O   0.0787315  -0.1545677  -0.3212218 SPIN=   0.00000
   O  -0.3671657  -0.0828813  -0.1940326 SPIN=   0.00000
   S  -0.0452946  -0.0616027  -0.1958920 SPIN=   0.00000
   O   0.0238874  -0.1068169   0.2002058 SPIN=   0.00000
   O   0.0833685   0.1157788   0.0681080 SPIN=   0.00000
   O   0.0787315   0.1545677   0.3212218 SPIN=   0.00000
   O  -0.3671657   0.0828813   0.1940326 SPIN=   0.00000
   S  -0.0452946   0.0616027   0.1958920 SPIN=   0.00000
   O   0.5499256  -0.3464953  -0.4097916 SPIN=   0.00000
   O   0.1474241  -0.2491899  -0.5393615 SPIN=   0.00000
   O   0.6453829  -0.2214536  -0.6189421 SPIN=   0.00000
   O   0.4765521  -0.0665605  -0.4085644 SPIN=   0.00000
   S   0.4548212  -0.2209248  -0.4941649 SPIN=   0.00000
   O   0.5499256   0.3464953   0.4097916 SPIN=   0.00000
   O   0.1474241   0.2491899   0.5393615 SPIN=   0.00000
   O   0.6453829   0.2214536   0.6189421 SPIN=   0.00000
   O   0.4765521   0.0665605   0.4085644 SPIN=   0.00000
   S   0.4548212   0.2209248   0.4941649 SPIN=   0.00000
   F  -0.0052613   0.4816866   0.3117073 SPIN=   0.00000
   F  -0.0052613  -0.4816866  -0.3117073 SPIN=   0.00000
   F   0.4737221  -0.2969944   0.1246294 SPIN=   0.00000
   F   0.4737221   0.2969944  -0.1246294 SPIN=   0.00000
%ENDBLOCK POSITIONS_FRAC

# Note: total spin =  16.00

KPOINTS_MP_SPACING 0.07

%BLOCK SPECIES_POT
QC5
%ENDBLOCK SPECIES_POT

SNAP_TO_SYMMETRY
SYMMETRY_GENERATE

