#              Generated by Buildcell
#
# at 23:42:43 (GMT+1.0) 17th August 2020
# in /lustre/scratch/uccabz1/launch_tmp
# on node-c12f-027
# by uccabz1
#
# compiler GCC version 4.9.2
# options -cpp -iprefix /lustre/shared/ucl/apps/gcc/4.9.2/bin/../lib/gcc/x86_64-unknown-linux-gnu/4.9.2/ -mtune=corei7 -march=x86-64 -g -Og
#
# seed   891140811  1169280942 -1612540363  -193808792   -36322462 -1533050764  1347906633   633341096  -296743931  -453021303 -1539515756 -2091967231
#
#      Author: C. J. Pickard (cjp20@cam.ac.uk)
#                Space group: Pc
#

%BLOCK LATTICE_ABC
      6.03023      6.16149     12.18944
     90.00000     90.00000    117.96980
%ENDBLOCK LATTICE_ABC

%BLOCK POSITIONS_FRAC
  Li   0.2656354  -0.1116656  -0.1685950 SPIN=   0.00000
  Li  -0.2343646  -0.1116656   0.1685950 SPIN=   0.00000
  Li   0.3143093   0.3849739  -0.3997395 SPIN=   0.00000
  Li  -0.1856907   0.3849739   0.3997395 SPIN=   0.00000
  Fe   0.3438403  -0.1222016   0.2943786 SPIN=   2.91024
  Fe  -0.1561597  -0.1222016  -0.2943786 SPIN=   2.91024
  Fe  -0.1508851   0.4281805  -0.0896316 SPIN=   5.08976
  Fe   0.3491149   0.4281805   0.0896316 SPIN=   5.08976
   O   0.0082128   0.3387726   0.2271161 SPIN=   0.00000
   O  -0.1785480   0.6164114   0.2559009 SPIN=   0.00000
   O  -0.3929689   0.2505506   0.1368584 SPIN=   0.00000
   O   0.0032540   0.6036046   0.0754963 SPIN=   0.00000
   S  -0.1400125   0.4523348   0.1738429 SPIN=   0.00000
   O   0.5082128   0.3387726  -0.2271161 SPIN=   0.00000
   O   0.3214520   0.6164114  -0.2559009 SPIN=   0.00000
   O   0.1070311   0.2505506  -0.1368584 SPIN=   0.00000
   O   0.5032540   0.6036046  -0.0754963 SPIN=   0.00000
   S   0.3599875   0.4523348  -0.1738429 SPIN=   0.00000
   O   0.4123267   0.3675753   0.2585636 SPIN=   0.00000
   O   0.1038996   0.0954777   0.3953472 SPIN=   0.00000
   O   0.1963735   0.5304110   0.3801616 SPIN=   0.00000
   O   0.5152936   0.4266797   0.4564603 SPIN=   0.00000
   S   0.3069733   0.3550359   0.3726332 SPIN=   0.00000
   O  -0.0876733   0.3675753  -0.2585636 SPIN=   0.00000
   O  -0.3961004   0.0954777  -0.3953472 SPIN=   0.00000
   O  -0.3036265   0.5304110  -0.3801616 SPIN=   0.00000
   O   0.0152936   0.4266797  -0.4564603 SPIN=   0.00000
   S  -0.1930267   0.3550359  -0.3726332 SPIN=   0.00000
   F   0.1374906   0.0775611   0.0944717 SPIN=   0.00000
   F  -0.3625094   0.0775611  -0.0944717 SPIN=   0.00000
   F  -0.3583840   0.0017662   0.3841001 SPIN=   0.00000
   F   0.1416160   0.0017662  -0.3841001 SPIN=   0.00000
%ENDBLOCK POSITIONS_FRAC

# Note: total spin =  16.00

KPOINTS_MP_SPACING 0.07

%BLOCK SPECIES_POT
QC5
%ENDBLOCK SPECIES_POT

SNAP_TO_SYMMETRY
SYMMETRY_GENERATE

