#              Generated by Buildcell
#
# at 06:37:36 (GMT+1.0) 4th August 2020
# in /lustre/scratch/uccabz1/launch_tmp
# on node-c12k-002
# by uccabz1
#
# compiler GCC version 4.9.2
# options -cpp -iprefix /lustre/shared/ucl/apps/gcc/4.9.2/bin/../lib/gcc/x86_64-unknown-linux-gnu/4.9.2/ -mtune=corei7 -march=x86-64 -g -Og
#
# seed    23060930  1661792560 -1103925449 -1638989882 -1742474127  1083816936 -1579319095  -956157194  1575516200  1676701528 -2034585363    58439498
#
#      Author: C. J. Pickard (cjp20@cam.ac.uk)
#                Space group: P-4
#

%BLOCK LATTICE_ABC
      4.13948      9.83008      9.83008
     90.00000     90.00000     90.00000
%ENDBLOCK LATTICE_ABC

%BLOCK POSITIONS_FRAC
  Li   0.1639359   0.1162274  -0.2365084 SPIN=   0.00000
  Li   0.1639359  -0.1162274   0.2365084 SPIN=   0.00000
  Li  -0.1639359  -0.2365084  -0.1162274 SPIN=   0.00000
  Li  -0.1639359   0.2365084   0.1162274 SPIN=   0.00000
  Fe   0.2608556  -0.4339711  -0.2889579 SPIN=   4.00000
  Fe   0.2608556   0.4339711   0.2889579 SPIN=   4.00000
  Fe  -0.2608556  -0.2889579   0.4339711 SPIN=   4.00000
  Fe  -0.2608556   0.2889579  -0.4339711 SPIN=   4.00000
   O  -0.3433700  -0.0139218  -0.1448843 SPIN=   0.00000
   O  -0.1712880  -0.1813060  -0.3184276 SPIN=   0.00000
   O  -0.1523116   0.0649869  -0.3700202 SPIN=   0.00000
   O  -0.6792196  -0.0522207  -0.3496213 SPIN=   0.00000
   S  -0.3365473  -0.0456154  -0.2957384 SPIN=   0.00000
   O  -0.3433700   0.0139218   0.1448843 SPIN=   0.00000
   O  -0.1712880   0.1813060   0.3184276 SPIN=   0.00000
   O  -0.1523116  -0.0649869   0.3700202 SPIN=   0.00000
   O  -0.6792196   0.0522207   0.3496213 SPIN=   0.00000
   S  -0.3365473   0.0456154   0.2957384 SPIN=   0.00000
   O   0.3433700  -0.1448843   0.0139218 SPIN=   0.00000
   O   0.1712880  -0.3184276   0.1813060 SPIN=   0.00000
   O   0.1523116  -0.3700202  -0.0649869 SPIN=   0.00000
   O   0.6792196  -0.3496213   0.0522207 SPIN=   0.00000
   S   0.3365473  -0.2957384   0.0456154 SPIN=   0.00000
   O   0.3433700   0.1448843  -0.0139218 SPIN=   0.00000
   O   0.1712880   0.3184276  -0.1813060 SPIN=   0.00000
   O   0.1523116   0.3700202   0.0649869 SPIN=   0.00000
   O   0.6792196   0.3496213  -0.0522207 SPIN=   0.00000
   S   0.3365473   0.2957384  -0.0456154 SPIN=   0.00000
   F  -0.2501251  -0.4707529  -0.2824865 SPIN=   0.00000
   F  -0.2501251   0.4707529   0.2824865 SPIN=   0.00000
   F   0.2501251  -0.2824865   0.4707529 SPIN=   0.00000
   F   0.2501251   0.2824865  -0.4707529 SPIN=   0.00000
%ENDBLOCK POSITIONS_FRAC

# Note: total spin =  16.00

KPOINTS_MP_SPACING 0.07

%BLOCK SPECIES_POT
QC5
%ENDBLOCK SPECIES_POT

SNAP_TO_SYMMETRY
SYMMETRY_GENERATE

