#              Generated by Buildcell
#
# at 06:28:12 (GMT+1.0) 4th August 2020
# in /lustre/scratch/uccabz1/launch_tmp
# on node-c12n-033
# by uccabz1
#
# compiler GCC version 4.9.2
# options -cpp -iprefix /lustre/shared/ucl/apps/gcc/4.9.2/bin/../lib/gcc/x86_64-unknown-linux-gnu/4.9.2/ -mtune=corei7 -march=x86-64 -g -Og
#
# seed   616156458  1616186139  1974504061   715515168  1007556707   288993192  2097873489 -1414864593  1666256312  -761758604   468802512   285111011
#
#      Author: C. J. Pickard (cjp20@cam.ac.uk)
#                Space group: C2
#

%BLOCK LATTICE_ABC
      7.36173      7.40391      8.97754
    113.84858    113.69861     91.12310
%ENDBLOCK LATTICE_ABC

%BLOCK POSITIONS_FRAC
  Li  -0.2871715  -0.1566032  -0.0898364 SPIN=   0.00000
  Li   0.1973352   0.0667669  -0.0898364 SPIN=   0.00000
  Li   0.0457745   0.4862408  -0.4113137 SPIN=   0.00000
  Li  -0.4570882   0.1024455  -0.4113137 SPIN=   0.00000
  Fe   0.1398579   0.1398579   0.2797157 SPIN=   8.31301
  Fe   0.1657413  -0.3342587   0.3314826 SPIN=   4.25342
  Fe  -0.3296259  -0.3296259   0.3407482 SPIN=   3.17631
  Fe   0.4233605   0.4233605  -0.1532790 SPIN=   0.25726
   O   0.0259288  -0.1910650  -0.1635485 SPIN=   0.00000
   O  -0.0206289  -0.3276464   0.0319355 SPIN=   0.00000
   O   0.3207754  -0.1513719   0.1170660 SPIN=   0.00000
   O   0.1627057  -0.4891879  -0.1483309 SPIN=   0.00000
   S   0.1221952  -0.2898178  -0.0407195 SPIN=   0.00000
   O  -0.1894773   0.0275165  -0.1635485 SPIN=   0.00000
   O   0.0525645   0.3595819   0.0319355 SPIN=   0.00000
   O  -0.2037093   0.2684380   0.1170660 SPIN=   0.00000
   O  -0.3110366   0.3408570  -0.1483309 SPIN=   0.00000
   S  -0.1629147   0.2490984  -0.0407195 SPIN=   0.00000
   O  -0.4369852  -0.4381570  -0.2629844 SPIN=   0.00000
   O  -0.2166878  -0.4593539  -0.4147670 SPIN=   0.00000
   O  -0.5905695  -0.5342237  -0.5927814 SPIN=   0.00000
   S  -0.4177138  -0.5508453  -0.4374887 SPIN=   0.00000
   O   0.1740007   0.1751726  -0.2629844 SPIN=   0.00000
   O  -0.1980792   0.0445869  -0.4147670 SPIN=   0.00000
   O  -0.0022118  -0.0585577  -0.5927814 SPIN=   0.00000
   S  -0.0197749   0.1133566  -0.4374887 SPIN=   0.00000
   O   0.4151097  -0.0848903  -0.1697807 SPIN=   0.00000
   O  -0.3368222   0.1631778   0.3263556 SPIN=   0.00000
   F   0.4441712  -0.1823763   0.4159543 SPIN=   0.00000
   F  -0.0282169  -0.4016694   0.4159543 SPIN=   0.00000
   F  -0.3580516  -0.2197402   0.0726104 SPIN=   0.00000
   F   0.4306620   0.2923506   0.0726104 SPIN=   0.00000
%ENDBLOCK POSITIONS_FRAC

# Note: total spin =  16.00

KPOINTS_MP_SPACING 0.07

%BLOCK SPECIES_POT
QC5
%ENDBLOCK SPECIES_POT

SNAP_TO_SYMMETRY
SYMMETRY_GENERATE

