#              Generated by Buildcell
#
# at 10:07:14 (GMT+1.0) 4th August 2020
# in /lustre/scratch/uccabz1/launch_tmp
# on node-c12g-021
# by uccabz1
#
# compiler GCC version 4.9.2
# options -cpp -iprefix /lustre/shared/ucl/apps/gcc/4.9.2/bin/../lib/gcc/x86_64-unknown-linux-gnu/4.9.2/ -mtune=corei7 -march=x86-64 -g -Og
#
# seed  1976226701  1996706198 -1657636172 -1531256564   270338382  1916295392  -392495594 -1945635975  -729668715  -725536008  -107843618   171438504
#
#      Author: C. J. Pickard (cjp20@cam.ac.uk)
#                Space group: C2
#

%BLOCK LATTICE_ABC
      5.14415      8.81068      9.36758
     99.48849     90.00000    106.97336
%ENDBLOCK LATTICE_ABC

%BLOCK POSITIONS_FRAC
  Li   0.3757316   0.4021916  -0.3975647 SPIN=   0.00000
  Li  -0.0264601  -0.4021916   0.3975647 SPIN=   0.00000
  Li  -0.0931160  -0.1658911  -0.2388319 SPIN=   0.00000
  Li   0.0727751   0.1658911   0.2388319 SPIN=   0.00000
  Fe   0.4072741  -0.1656629  -0.4001964 SPIN=   3.06965
  Fe  -0.4270629   0.1656629   0.4001964 SPIN=   3.06965
  Fe  -0.3508830   0.2150613   0.0067415 SPIN=   4.93035
  Fe   0.4340557  -0.2150613  -0.0067415 SPIN=   4.93035
   O  -0.3841042  -0.6532693  -0.1679880 SPIN=   0.00000
   O  -0.4737186  -0.3934556  -0.1752802 SPIN=   0.00000
   O  -0.0558516  -0.4428280  -0.2768709 SPIN=   0.00000
   O  -0.1044098  -0.4043503  -0.0115775 SPIN=   0.00000
   S  -0.2545211  -0.4734758  -0.1579291 SPIN=   0.00000
   O   0.2691651   0.6532693   0.1679880 SPIN=   0.00000
   O  -0.0802630   0.3934556   0.1752802 SPIN=   0.00000
   O   0.3869764   0.4428280   0.2768709 SPIN=   0.00000
   O   0.2999404   0.4043503   0.0115775 SPIN=   0.00000
   S   0.2189547   0.4734758   0.1579291 SPIN=   0.00000
   O  -0.0309092  -0.1291049   0.0988408 SPIN=   0.00000
   O  -0.3000440  -0.0761672   0.3101453 SPIN=   0.00000
   O   0.1555805  -0.1089521   0.3471092 SPIN=   0.00000
   O  -0.2293655  -0.3442375   0.2414599 SPIN=   0.00000
   S  -0.1011846  -0.1646154   0.2493888 SPIN=   0.00000
   O   0.0981957   0.1291049  -0.0988408 SPIN=   0.00000
   O  -0.2238768   0.0761672  -0.3101453 SPIN=   0.00000
   O   0.2645325   0.1089521  -0.3471092 SPIN=   0.00000
   O   0.1148720   0.3442375  -0.2414599 SPIN=   0.00000
   S   0.0634308   0.1646154  -0.2493888 SPIN=   0.00000
   F   0.3091627  -0.1340550  -0.1773497 SPIN=   0.00000
   F   0.4432177   0.1340550   0.1773497 SPIN=   0.00000
   F  -0.3740323  -0.3419071  -0.4669791 SPIN=   0.00000
   F  -0.0321252   0.3419071   0.4669791 SPIN=   0.00000
%ENDBLOCK POSITIONS_FRAC

# Note: total spin =  16.00

KPOINTS_MP_SPACING 0.07

%BLOCK SPECIES_POT
QC5
%ENDBLOCK SPECIES_POT

SNAP_TO_SYMMETRY
SYMMETRY_GENERATE

