#              Generated by Buildcell
#
# at 11:14:39 (GMT+1.0) 18th August 2020
# in /scratch/scratch/uccabz1/launch_tmp
# on node-k10h-022
# by uccabz1
#
# compiler GCC version 4.9.2
# options -cpp -iprefix /scratch/UCL/applications/gcc/4.9.2/bin/../lib/gcc/x86_64-unknown-linux-gnu/4.9.2/ -mtune=corei7 -march=x86-64 -g -O2
#
# seed  1108489774 -1366461434  -295300653   -95398879  -523556955   142663678  1186902403 -1540043879   534600966  1643513836   283818694   574188881
#
#      Author: C. J. Pickard (cjp20@cam.ac.uk)
#                Space group: P-1
#

%BLOCK LATTICE_ABC
      5.70822      8.50793      8.81553
    106.52271     92.26515    101.55663
%ENDBLOCK LATTICE_ABC

%BLOCK POSITIONS_FRAC
  Li  -0.4345550  -0.4822716  -0.2238642 SPIN=   0.00000
  Li   0.4345550   0.4822716   0.2238642 SPIN=   0.00000
  Li   0.2809470  -0.1210516  -0.3443169 SPIN=   0.00000
  Li  -0.2809470   0.1210516   0.3443169 SPIN=   0.00000
  Fe  -0.1688906  -0.3444918   0.4778355 SPIN=   2.00464
  Fe   0.1688906   0.3444918  -0.4778355 SPIN=   2.00464
  Fe   0.4524222   0.2368930  -0.0860581 SPIN=   5.99536
  Fe  -0.4524222  -0.2368930   0.0860581 SPIN=   5.99536
   O  -0.0540150  -0.4315478  -0.0877950 SPIN=   0.00000
   O  -0.0941843  -0.2803723  -0.2860103 SPIN=   0.00000
   O   0.2782656  -0.2013921  -0.1025427 SPIN=   0.00000
   O  -0.0998559  -0.1369555   0.0001456 SPIN=   0.00000
   S   0.0075526  -0.2625669  -0.1190506 SPIN=   0.00000
   O   0.0540150   0.4315478   0.0877950 SPIN=   0.00000
   O   0.0941843   0.2803723   0.2860103 SPIN=   0.00000
   O  -0.2782656   0.2013921   0.1025427 SPIN=   0.00000
   O   0.0998559   0.1369555  -0.0001456 SPIN=   0.00000
   S  -0.0075526   0.2625669   0.1190506 SPIN=   0.00000
   O   0.0357373   0.0355787  -0.3183207 SPIN=   0.00000
   O  -0.2687865   0.2096811  -0.2734135 SPIN=   0.00000
   O  -0.3637640  -0.0768250  -0.2451150 SPIN=   0.00000
   O  -0.3246049  -0.0384760  -0.5116360 SPIN=   0.00000
   S  -0.2303545   0.0324897  -0.3371213 SPIN=   0.00000
   O  -0.0357373  -0.0355787   0.3183207 SPIN=   0.00000
   O   0.2687865  -0.2096811   0.2734135 SPIN=   0.00000
   O   0.3637640   0.0768250   0.2451150 SPIN=   0.00000
   O   0.3246049   0.0384760   0.5116360 SPIN=   0.00000
   S   0.2303545  -0.0324897   0.3371213 SPIN=   0.00000
   F   0.2810624   0.3719992  -0.1925455 SPIN=   0.00000
   F  -0.2810624  -0.3719992   0.1925455 SPIN=   0.00000
   F   0.3015517  -0.3342152  -0.4663636 SPIN=   0.00000
   F  -0.3015517   0.3342152   0.4663636 SPIN=   0.00000
%ENDBLOCK POSITIONS_FRAC

# Note: total spin =  16.00

KPOINTS_MP_SPACING 0.07

%BLOCK SPECIES_POT
QC5
%ENDBLOCK SPECIES_POT

SNAP_TO_SYMMETRY
SYMMETRY_GENERATE

