#              Generated by Buildcell
#
# at 03:07:19 (GMT+1.0) 18th August 2020
# in /lustre/scratch/uccabz1/launch_tmp
# on node-c12n-031
# by uccabz1
#
# compiler GCC version 4.9.2
# options -cpp -iprefix /lustre/shared/ucl/apps/gcc/4.9.2/bin/../lib/gcc/x86_64-unknown-linux-gnu/4.9.2/ -mtune=corei7 -march=x86-64 -g -Og
#
# seed  1122424852 -1278956703 -2124076446     8455089  -637845353  1224469730  1991603810 -1880476988 -1045719220 -1018199723   111061095  1732664682
#
#      Author: C. J. Pickard (cjp20@cam.ac.uk)
#                Space group: Pc
#

%BLOCK LATTICE_ABC
      5.55338      6.23971     11.61378
     90.00000     90.00000     96.30525
%ENDBLOCK LATTICE_ABC

%BLOCK POSITIONS_FRAC
  Li  -0.1931435  -0.4656707  -0.3815173 SPIN=   0.00000
  Li   0.3068565  -0.4656707   0.3815173 SPIN=   0.00000
  Li   0.4827732  -0.2882132  -0.1443108 SPIN=   0.00000
  Li  -0.0172268  -0.2882132   0.1443108 SPIN=   0.00000
  Fe  -0.4358511   0.2678006  -0.0987966 SPIN=   4.18911
  Fe   0.0641489   0.2678006   0.0987966 SPIN=   4.18911
  Fe   0.4967977  -0.1812553   0.0985994 SPIN=   3.81089
  Fe  -0.0032023  -0.1812553  -0.0985994 SPIN=   3.81089
   O  -0.4479615   0.3042493   0.3315409 SPIN=   0.00000
   O  -0.1688509   0.3123366   0.4979951 SPIN=   0.00000
   O  -0.2347166   0.6513062   0.3980342 SPIN=   0.00000
   O  -0.0058891   0.3835127   0.3017022 SPIN=   0.00000
   S  -0.2143545   0.4128512   0.3823181 SPIN=   0.00000
   O   0.0520385   0.3042493  -0.3315409 SPIN=   0.00000
   O   0.3311491   0.3123366  -0.4979951 SPIN=   0.00000
   O   0.2652834   0.6513062  -0.3980342 SPIN=   0.00000
   O   0.4941109   0.3835127  -0.3017022 SPIN=   0.00000
   S   0.2856455   0.4128512  -0.3823181 SPIN=   0.00000
   O  -0.3821224  -0.2572196  -0.3024539 SPIN=   0.00000
   O  -0.4513672   0.0613076  -0.4198543 SPIN=   0.00000
   O  -0.0358495  -0.0398591  -0.3952131 SPIN=   0.00000
   O  -0.2466204   0.1098743  -0.2308943 SPIN=   0.00000
   S  -0.2789899  -0.0314742  -0.3371039 SPIN=   0.00000
   O   0.1178776  -0.2572196   0.3024539 SPIN=   0.00000
   O   0.0486328   0.0613076   0.4198543 SPIN=   0.00000
   O   0.4641505  -0.0398591   0.3952131 SPIN=   0.00000
   O   0.2533796   0.1098743   0.2308943 SPIN=   0.00000
   S   0.2210101  -0.0314742   0.3371039 SPIN=   0.00000
   F   0.2892015   0.0602125  -0.1254658 SPIN=   0.00000
   F  -0.2107985   0.0602125   0.1254658 SPIN=   0.00000
   F  -0.1595423  -0.4785769  -0.1251007 SPIN=   0.00000
   F   0.3404577  -0.4785769   0.1251007 SPIN=   0.00000
%ENDBLOCK POSITIONS_FRAC

# Note: total spin =  16.00

KPOINTS_MP_SPACING 0.07

%BLOCK SPECIES_POT
QC5
%ENDBLOCK SPECIES_POT

SNAP_TO_SYMMETRY
SYMMETRY_GENERATE

