#              Generated by Buildcell
#
# at 01:49:06 (GMT+1.0) 18th August 2020
# in /lustre/scratch/uccabz1/launch_tmp
# on node-c12p-030
# by uccabz1
#
# compiler GCC version 4.9.2
# options -cpp -iprefix /lustre/shared/ucl/apps/gcc/4.9.2/bin/../lib/gcc/x86_64-unknown-linux-gnu/4.9.2/ -mtune=corei7 -march=x86-64 -g -Og
#
# seed   364384012  1472450500  -117305448   220704774   -24486496 -1656734601  1619005654 -1663918546 -1565290335 -1898612369  1187722351    38736966
#
#      Author: C. J. Pickard (cjp20@cam.ac.uk)
#                Space group: Cc
#

%BLOCK LATTICE_ABC
      7.76462      7.76462      8.43283
    111.29502    115.80205     97.63457
%ENDBLOCK LATTICE_ABC

%BLOCK POSITIONS_FRAC
  Li  -0.1541162   0.3555454   0.1696149 SPIN=   0.00000
  Li   0.3140695   0.3237310  -0.3303851 SPIN=   0.00000
  Li  -0.1845537  -0.1196829  -0.2203028 SPIN=   0.00000
  Li   0.3993801  -0.0357491   0.2796972 SPIN=   0.00000
  Fe  -0.2520476  -0.4295592  -0.0655134 SPIN=   4.81301
  Fe  -0.1359542   0.1865342   0.4344866 SPIN=   4.81301
  Fe   0.3440225   0.3455367   0.3412970 SPIN=   3.18699
  Fe   0.4957603  -0.0027255  -0.1587030 SPIN=   3.18699
   O   0.1422571   0.1029000  -0.0166914 SPIN=   0.00000
   O   0.0983674   0.3720842  -0.1044233 SPIN=   0.00000
   O   0.0011641   0.0355787  -0.3674130 SPIN=   0.00000
   O   0.3653454   0.2345396  -0.1149192 SPIN=   0.00000
   S   0.1517835   0.1862756  -0.1508617 SPIN=   0.00000
   O   0.3804086  -0.1589485   0.4833086 SPIN=   0.00000
   O   0.0234924  -0.2027908   0.3955767 SPIN=   0.00000
   O   0.0970083  -0.3685771   0.1325870 SPIN=   0.00000
   O   0.1505412  -0.4802646   0.3850808 SPIN=   0.00000
   S   0.1628626  -0.3026452   0.3491383 SPIN=   0.00000
   O   0.1522471  -0.4914574  -0.2828683 SPIN=   0.00000
   O   0.1668285  -0.2023505  -0.0174107 SPIN=   0.00000
   O  -0.1598970  -0.4790520  -0.2728509 SPIN=   0.00000
   O  -0.0113029  -0.2588834  -0.3664359 SPIN=   0.00000
   S   0.0369689  -0.3579358  -0.2348915 SPIN=   0.00000
   O  -0.2914110  -0.4351155   0.2171317 SPIN=   0.00000
   O  -0.3150602  -0.1842392   0.4825893 SPIN=   0.00000
   O  -0.2937988  -0.1129539   0.2271491 SPIN=   0.00000
   O  -0.6075526  -0.3551330   0.1335641 SPIN=   0.00000
   S  -0.3769557  -0.2718604   0.2651085 SPIN=   0.00000
   F   0.1037482   0.1578293   0.3993954 SPIN=   0.00000
   F  -0.2584339   0.2956472  -0.1006046 SPIN=   0.00000
   F  -0.4200511   0.2882650   0.3121928 SPIN=   0.00000
   F  -0.4760723  -0.2677562  -0.1878072 SPIN=   0.00000
%ENDBLOCK POSITIONS_FRAC

# Note: total spin =  16.00

KPOINTS_MP_SPACING 0.07

%BLOCK SPECIES_POT
QC5
%ENDBLOCK SPECIES_POT

SNAP_TO_SYMMETRY
SYMMETRY_GENERATE

