#              Generated by Buildcell
#
# at 22:59:04 (GMT+1.0) 17th August 2020
# in /lustre/scratch/uccabz1/launch_tmp
# on node-c12f-005
# by uccabz1
#
# compiler GCC version 4.9.2
# options -cpp -iprefix /lustre/shared/ucl/apps/gcc/4.9.2/bin/../lib/gcc/x86_64-unknown-linux-gnu/4.9.2/ -mtune=corei7 -march=x86-64 -g -Og
#
# seed -1571938843  1200459048  -559049781   173435630  1027745740  1577434066   769478634  1853303402  1859110187  1192394765 -2054253873 -1123934425
#
#      Author: C. J. Pickard (cjp20@cam.ac.uk)
#                Space group: C2/c
#

%BLOCK LATTICE_ABC
      7.32343      7.32343      7.60036
     97.71494     97.71494     91.07363
%ENDBLOCK LATTICE_ABC

%BLOCK POSITIONS_FRAC
  Li   0.0421623   0.1197092   0.3066387 SPIN=   0.00000
  Li   0.3802908   0.4578377   0.1933613 SPIN=   0.00000
  Li  -0.0421623  -0.1197092  -0.3066387 SPIN=   0.00000
  Li  -0.3802908  -0.4578377  -0.1933613 SPIN=   0.00000
  Fe  -0.4242377  -0.2467119   0.4825370 SPIN=   4.00000
  Fe  -0.2532881  -0.0757623   0.0174630 SPIN=   4.00000
  Fe   0.4242377   0.2467119  -0.4825370 SPIN=   4.00000
  Fe   0.2532881   0.0757623  -0.0174630 SPIN=   4.00000
   O   0.0914840  -0.2036266  -0.0149118 SPIN=   0.00000
   O   0.1286004  -0.4916235   0.1212373 SPIN=   0.00000
   O  -0.0331264  -0.2320170   0.2675915 SPIN=   0.00000
   O   0.3041937  -0.2067837   0.2666078 SPIN=   0.00000
   S   0.1227879  -0.2835127   0.1601312 SPIN=   0.00000
   O  -0.2963734   0.4085160   0.5149118 SPIN=   0.00000
   O  -0.0083765   0.3713996   0.3787627 SPIN=   0.00000
   O  -0.2679830   0.5331264   0.2324085 SPIN=   0.00000
   O  -0.2932163   0.1958063   0.2333922 SPIN=   0.00000
   S  -0.2164873   0.3772121   0.3398688 SPIN=   0.00000
   O  -0.0914840   0.2036266   0.0149118 SPIN=   0.00000
   O  -0.1286004   0.4916235  -0.1212373 SPIN=   0.00000
   O   0.0331264   0.2320170  -0.2675915 SPIN=   0.00000
   O  -0.3041937   0.2067837  -0.2666078 SPIN=   0.00000
   S  -0.1227879   0.2835127  -0.1601312 SPIN=   0.00000
   O   0.2963734  -0.4085160  -0.5149118 SPIN=   0.00000
   O   0.0083765  -0.3713996  -0.3787627 SPIN=   0.00000
   O   0.2679830  -0.5331264  -0.2324085 SPIN=   0.00000
   O   0.2932163  -0.1958063  -0.2333922 SPIN=   0.00000
   S   0.2164873  -0.3772121  -0.3398688 SPIN=   0.00000
   F  -0.4426133  -0.2522471   0.0214786 SPIN=   0.00000
   F  -0.2477529  -0.0573867   0.4785214 SPIN=   0.00000
   F   0.4426133   0.2522471  -0.0214786 SPIN=   0.00000
   F   0.2477529   0.0573867  -0.4785214 SPIN=   0.00000
%ENDBLOCK POSITIONS_FRAC

# Note: total spin =  16.00

KPOINTS_MP_SPACING 0.07

%BLOCK SPECIES_POT
QC5
%ENDBLOCK SPECIES_POT

SNAP_TO_SYMMETRY
SYMMETRY_GENERATE

