#              Generated by Buildcell
#
# at 09:15:14 (GMT+1.0) 18th August 2020
# in /lustre/scratch/uccabz1/launch_tmp
# on node-c12j-023
# by uccabz1
#
# compiler GCC version 4.9.2
# options -cpp -iprefix /lustre/shared/ucl/apps/gcc/4.9.2/bin/../lib/gcc/x86_64-unknown-linux-gnu/4.9.2/ -mtune=corei7 -march=x86-64 -g -Og
#
# seed -1403243410  -755918842  -301599857  2017581731  -903072268   739709182 -1328471298 -1120953014  1510626316   548176986  -129960745  1429201479
#
#      Author: C. J. Pickard (cjp20@cam.ac.uk)
#                Space group: P2221
#

%BLOCK LATTICE_ABC
      4.93430      6.96108     11.64550
     90.00000     90.00000     90.00000
%ENDBLOCK LATTICE_ABC

%BLOCK POSITIONS_FRAC
  Li   0.2500000   0.3993235   0.1098344 SPIN=   0.00000
  Li  -0.2500000  -0.3993235  -0.3901656 SPIN=   0.00000
  Li   0.2500000  -0.3993235   0.3901656 SPIN=   0.00000
  Li  -0.2500000   0.3993235  -0.1098344 SPIN=   0.00000
  Fe   0.2499998  -0.1468863  -0.3820252 SPIN=   4.00000
  Fe  -0.2499998   0.1468863   0.1179748 SPIN=   4.00000
  Fe   0.2499998   0.1468863  -0.1179748 SPIN=   4.00000
  Fe  -0.2499998  -0.1468863   0.3820252 SPIN=   4.00000
   O  -0.5313066  -0.3143090   0.1773083 SPIN=   0.00000
   O  -0.0639775  -0.1886275   0.1949533 SPIN=   0.00000
   O  -0.2597083  -0.2503002   0.0027896 SPIN=   0.00000
   O  -0.1406533  -0.5226227   0.1297606 SPIN=   0.00000
   S  -0.2489114  -0.3189648   0.1262030 SPIN=   0.00000
   O   0.5313066   0.3143090  -0.3226917 SPIN=   0.00000
   O   0.0639775   0.1886275  -0.3050467 SPIN=   0.00000
   O   0.2597083   0.2503002  -0.4972104 SPIN=   0.00000
   O   0.1406533   0.5226227  -0.3702394 SPIN=   0.00000
   S   0.2489114   0.3189648  -0.3737970 SPIN=   0.00000
   O  -0.5313066   0.3143090   0.3226917 SPIN=   0.00000
   O  -0.0639775   0.1886275   0.3050467 SPIN=   0.00000
   O  -0.2597083   0.2503002   0.4972104 SPIN=   0.00000
   O  -0.1406533   0.5226227   0.3702394 SPIN=   0.00000
   S  -0.2489114   0.3189648   0.3737970 SPIN=   0.00000
   O   0.5313066  -0.3143090  -0.1773083 SPIN=   0.00000
   O   0.0639775  -0.1886275  -0.1949533 SPIN=   0.00000
   O   0.2597083  -0.2503002  -0.0027896 SPIN=   0.00000
   O   0.1406533  -0.5226227  -0.1297606 SPIN=   0.00000
   S   0.2489114  -0.3189648  -0.1262030 SPIN=   0.00000
   F  -0.2500000  -0.1369943  -0.3839964 SPIN=   0.00000
   F   0.2500000   0.1369943   0.1160036 SPIN=   0.00000
   F  -0.2500000   0.1369943  -0.1160036 SPIN=   0.00000
   F   0.2500000  -0.1369943   0.3839964 SPIN=   0.00000
%ENDBLOCK POSITIONS_FRAC

# Note: total spin =  16.00

KPOINTS_MP_SPACING 0.07

%BLOCK SPECIES_POT
QC5
%ENDBLOCK SPECIES_POT

SNAP_TO_SYMMETRY
SYMMETRY_GENERATE

