#              Generated by Buildcell
#
# at 11:06:41 (GMT+1.0) 18th August 2020
# in /lustre/scratch/uccabz1/launch_tmp
# on node-c12j-021
# by uccabz1
#
# compiler GCC version 4.9.2
# options -cpp -iprefix /lustre/shared/ucl/apps/gcc/4.9.2/bin/../lib/gcc/x86_64-unknown-linux-gnu/4.9.2/ -mtune=corei7 -march=x86-64 -g -Og
#
# seed   427520751 -2001792228   919635229 -1857945828  -860608209  1059922167  1368970751   364330181  1869068060  1851105407   316553784  1858785442
#
#      Author: C. J. Pickard (cjp20@cam.ac.uk)
#                Space group: Iba2
#

%BLOCK LATTICE_ABC
      6.76246      8.60752      8.78511
    119.33354    112.63642     90.00000
%ENDBLOCK LATTICE_ABC

%BLOCK POSITIONS_FRAC
  Li   0.1625759   0.1685629   0.3919901 SPIN=   0.00000
  Li  -0.1625759  -0.2234272  -0.3919901 SPIN=   0.00000
  Li   0.2294141  -0.3314371   0.3919901 SPIN=   0.00000
  Li  -0.2294141   0.2765728  -0.3919901 SPIN=   0.00000
  Fe  -0.4559549  -0.3319988  -0.2656062 SPIN=   4.00000
  Fe   0.4559549  -0.0663927   0.2656062 SPIN=   4.00000
  Fe   0.1903487   0.1680012  -0.2656062 SPIN=   4.00000
  Fe  -0.1903487   0.4336073   0.2656062 SPIN=   4.00000
   O   0.0617233  -0.3015792   0.1673259 SPIN=   0.00000
   O  -0.2125734  -0.1563707   0.0346299 SPIN=   0.00000
   O  -0.0695607  -0.0584259   0.3809618 SPIN=   0.00000
   O  -0.3198806  -0.3640074   0.1232468 SPIN=   0.00000
   S  -0.1350729  -0.2200958   0.1765411 SPIN=   0.00000
   O  -0.0617233  -0.4689051  -0.1673259 SPIN=   0.00000
   O   0.2125734  -0.1910005  -0.0346299 SPIN=   0.00000
   O   0.0695607  -0.4393877  -0.3809618 SPIN=   0.00000
   O   0.3198806  -0.4872542  -0.1232468 SPIN=   0.00000
   S   0.1350729  -0.3966369  -0.1765411 SPIN=   0.00000
   O   0.1056026   0.1984208   0.1673259 SPIN=   0.00000
   O   0.2472033   0.3436293   0.0346299 SPIN=   0.00000
   O   0.4505225   0.4415741   0.3809618 SPIN=   0.00000
   O   0.4431274   0.1359926   0.1232468 SPIN=   0.00000
   S   0.3116140   0.2799042   0.1765411 SPIN=   0.00000
   O  -0.1056026   0.0310949  -0.1673259 SPIN=   0.00000
   O  -0.2472033   0.3089995  -0.0346299 SPIN=   0.00000
   O  -0.4505225   0.0606123  -0.3809618 SPIN=   0.00000
   O  -0.4431274   0.0127458  -0.1232468 SPIN=   0.00000
   S  -0.3116140   0.1033631  -0.1765411 SPIN=   0.00000
   F   0.1395910  -0.0920764  -0.3326528 SPIN=   0.00000
   F  -0.1395910   0.2405763   0.3326528 SPIN=   0.00000
   F  -0.4722437   0.4079236  -0.3326528 SPIN=   0.00000
   F   0.4722437  -0.2594237   0.3326528 SPIN=   0.00000
%ENDBLOCK POSITIONS_FRAC

# Note: total spin =  16.00

KPOINTS_MP_SPACING 0.07

%BLOCK SPECIES_POT
QC5
%ENDBLOCK SPECIES_POT

SNAP_TO_SYMMETRY
SYMMETRY_GENERATE

