#              Generated by Buildcell
#
# at 15:56:38 (GMT+1.0) 18th August 2020
# in /lustre/scratch/uccabz1/launch_tmp
# on node-c12b-025
# by uccabz1
#
# compiler GCC version 4.9.2
# options -cpp -iprefix /lustre/shared/ucl/apps/gcc/4.9.2/bin/../lib/gcc/x86_64-unknown-linux-gnu/4.9.2/ -mtune=corei7 -march=x86-64 -g -Og
#
# seed  -761947711  1529752655  1378377913  1267125585   637448017  1624153985 -1546509831   -17799963  -980173681  1477565327 -1206960767   956063646
#
#      Author: C. J. Pickard (cjp20@cam.ac.uk)
#                Space group: C2
#

%BLOCK LATTICE_ABC
      7.25220      7.25220      9.27798
    102.42107    102.42107    116.18322
%ENDBLOCK LATTICE_ABC

%BLOCK POSITIONS_FRAC
  Li   0.2919740  -0.2919740  -0.5000000 SPIN=   0.00000
  Li  -0.0238939   0.0238939   0.0000000 SPIN=   0.00000
  Li  -0.3745136   0.3745136  -0.5000000 SPIN=   0.00000
  Li  -0.0641375   0.0641375  -0.5000000 SPIN=   0.00000
  Fe   0.0378328  -0.1823461  -0.2980565 SPIN=   4.18259
  Fe   0.1823461  -0.0378328   0.2980565 SPIN=   4.18259
  Fe  -0.3393215   0.3393215  -0.0000000 SPIN=   2.81573
  Fe   0.3129443  -0.3129443  -0.0000000 SPIN=   4.81908
   O  -0.2794028   0.0360125   0.0434059 SPIN=   0.00000
   O  -0.2302019  -0.0997308   0.2634347 SPIN=   0.00000
   O  -0.3081341   0.2032460   0.2936585 SPIN=   0.00000
   O   0.0530808   0.2673706   0.2843918 SPIN=   0.00000
   S  -0.1911645   0.1017246   0.2212227 SPIN=   0.00000
   O  -0.0360125   0.2794028  -0.0434059 SPIN=   0.00000
   O   0.0997308   0.2302019  -0.2634347 SPIN=   0.00000
   O  -0.2032460   0.3081341  -0.2936585 SPIN=   0.00000
   O  -0.2673706  -0.0530808  -0.2843918 SPIN=   0.00000
   S  -0.1017246   0.1911645  -0.2212227 SPIN=   0.00000
   O  -0.4537160  -0.3301061   0.4448322 SPIN=   0.00000
   O  -0.6352483  -0.7084128   0.2534145 SPIN=   0.00000
   O  -0.2664101  -0.4280398   0.2749435 SPIN=   0.00000
   S  -0.4866975  -0.4673621   0.2829147 SPIN=   0.00000
   O   0.3301061   0.4537160  -0.4448322 SPIN=   0.00000
   O   0.7084128   0.6352483  -0.2534145 SPIN=   0.00000
   O   0.4280398   0.2664101  -0.2749435 SPIN=   0.00000
   S   0.4673621   0.4866975  -0.2829147 SPIN=   0.00000
   O   0.0959473  -0.0959473  -0.5000000 SPIN=   0.00000
   O   0.4860717  -0.4860717   0.0000000 SPIN=   0.00000
   F  -0.1062387  -0.3269320   0.0666953 SPIN=   0.00000
   F   0.3269320   0.1062387  -0.0666953 SPIN=   0.00000
   F   0.0226916  -0.4594436  -0.4339205 SPIN=   0.00000
   F   0.4594436  -0.0226916   0.4339205 SPIN=   0.00000
%ENDBLOCK POSITIONS_FRAC

# Note: total spin =  16.00

KPOINTS_MP_SPACING 0.07

%BLOCK SPECIES_POT
QC5
%ENDBLOCK SPECIES_POT

SNAP_TO_SYMMETRY
SYMMETRY_GENERATE

