#              Generated by Buildcell
#
# at 10:10:18 (GMT+1.0) 4th August 2020
# in /lustre/scratch/uccabz1/launch_tmp
# on node-c12k-030
# by uccabz1
#
# compiler GCC version 4.9.2
# options -cpp -iprefix /lustre/shared/ucl/apps/gcc/4.9.2/bin/../lib/gcc/x86_64-unknown-linux-gnu/4.9.2/ -mtune=corei7 -march=x86-64 -g -Og
#
# seed  1159722055  -581155158  -957974650   887735801  -545240548  1812945771  -212146520 -2121071866  1027769672 -1770181134 -1447912528   683123095
#
#      Author: C. J. Pickard (cjp20@cam.ac.uk)
#                Space group: P2
#

%BLOCK LATTICE_ABC
      3.94162      6.50829     15.66538
     90.00000     95.52602     90.00000
%ENDBLOCK LATTICE_ABC

%BLOCK POSITIONS_FRAC
  Li  -0.6191873  -0.3402921  -0.3491834 SPIN=   0.00000
  Li   0.6191873  -0.3402921   0.3491834 SPIN=   0.00000
  Li   0.5000000   0.4757020  -0.0000000 SPIN=   0.00000
  Li   0.0000000   0.3050742  -0.5000000 SPIN=   0.00000
  Fe  -0.0577763   0.4101243   0.2177402 SPIN=   4.43539
  Fe   0.0577763   0.4101243  -0.2177402 SPIN=   4.43539
  Fe   0.5617203  -0.0898631   0.1418283 SPIN=   3.56461
  Fe  -0.5617203  -0.0898631  -0.1418283 SPIN=   3.56461
   O  -0.4182813   0.0062494  -0.4154479 SPIN=   0.00000
   O  -0.0983024   0.1407767  -0.2835451 SPIN=   0.00000
   O  -0.6305533  -0.0561080  -0.2740940 SPIN=   0.00000
   O  -0.6541243   0.2937466  -0.3362888 SPIN=   0.00000
   S  -0.4503153   0.0961662  -0.3273440 SPIN=   0.00000
   O   0.4182813   0.0062494   0.4154479 SPIN=   0.00000
   O   0.0983024   0.1407767   0.2835451 SPIN=   0.00000
   O   0.6305533  -0.0561080   0.2740940 SPIN=   0.00000
   O   0.6541243   0.2937466   0.3362888 SPIN=   0.00000
   S   0.4503153   0.0961662   0.3273440 SPIN=   0.00000
   O   0.2465400   0.1734922  -0.0908857 SPIN=   0.00000
   O  -0.3224359   0.2485469  -0.1653449 SPIN=   0.00000
   O  -0.2695716   0.0222402  -0.0377959 SPIN=   0.00000
   O  -0.0730451  -0.0988227  -0.1744787 SPIN=   0.00000
   O  -0.2465400   0.1734922   0.0908857 SPIN=   0.00000
   O   0.3224359   0.2485469   0.1653449 SPIN=   0.00000
   O   0.2695716   0.0222402   0.0377959 SPIN=   0.00000
   O   0.0730451  -0.0988227   0.1744787 SPIN=   0.00000
   S   0.0000000   0.1620749   0.0000000 SPIN=   0.00000
   S  -1.0000000  -0.1724392  -0.5000000 SPIN=   0.00000
   F  -0.1264150  -0.4054439  -0.3058625 SPIN=   0.00000
   F   0.1264150  -0.4054439   0.3058625 SPIN=   0.00000
   F  -0.5573973  -0.3757051  -0.1139735 SPIN=   0.00000
   F   0.5573973  -0.3757051   0.1139735 SPIN=   0.00000
%ENDBLOCK POSITIONS_FRAC

# Note: total spin =  16.00

KPOINTS_MP_SPACING 0.07

%BLOCK SPECIES_POT
QC5
%ENDBLOCK SPECIES_POT

SNAP_TO_SYMMETRY
SYMMETRY_GENERATE

