#              Generated by Buildcell
#
# at 06:58:20 (GMT+1.0) 18th August 2020
# in /lustre/scratch/uccabz1/launch_tmp
# on node-c12m-009
# by uccabz1
#
# compiler GCC version 4.9.2
# options -cpp -iprefix /lustre/shared/ucl/apps/gcc/4.9.2/bin/../lib/gcc/x86_64-unknown-linux-gnu/4.9.2/ -mtune=corei7 -march=x86-64 -g -Og
#
# seed  1059415778  1324486687   189609294  1858134443    49643860  2049599025   145553278   688423102   302150265  -424302983  1360229792 -1566443478
#
#      Author: C. J. Pickard (cjp20@cam.ac.uk)
#                Space group: Ccc2
#

%BLOCK LATTICE_ABC
      6.96465      7.59110      7.59110
     94.67799     90.00000     90.00000
%ENDBLOCK LATTICE_ABC

%BLOCK POSITIONS_FRAC
  Li  -0.2350784   0.0825272   0.2497727 SPIN=   0.00000
  Li  -0.2350784  -0.0825272  -0.2497727 SPIN=   0.00000
  Li   0.2649216   0.2497727   0.0825272 SPIN=   0.00000
  Li   0.2649216  -0.2497727  -0.0825272 SPIN=   0.00000
  Fe  -0.0051421   0.2602118  -0.4803393 SPIN=   4.00000
  Fe  -0.0051421  -0.2602118   0.4803393 SPIN=   4.00000
  Fe   0.4948579  -0.4803393   0.2602118 SPIN=   4.00000
  Fe   0.4948579   0.4803393  -0.2602118 SPIN=   4.00000
   O   0.1721445  -0.0045924  -0.1547460 SPIN=   0.00000
   O   0.4976760  -0.0426147  -0.2829579 SPIN=   0.00000
   O   0.3991494   0.2470471  -0.1377873 SPIN=   0.00000
   O   0.2569954   0.1391298  -0.4253576 SPIN=   0.00000
   S   0.3314913   0.0847425  -0.2502122 SPIN=   0.00000
   O   0.1721445   0.0045924   0.1547460 SPIN=   0.00000
   O   0.4976760   0.0426147   0.2829579 SPIN=   0.00000
   O   0.3991494  -0.2470471   0.1377873 SPIN=   0.00000
   O   0.2569954  -0.1391298   0.4253576 SPIN=   0.00000
   S   0.3314913  -0.0847425   0.2502122 SPIN=   0.00000
   O  -0.3278555  -0.1547460  -0.0045924 SPIN=   0.00000
   O  -0.0023240  -0.2829579  -0.0426147 SPIN=   0.00000
   O  -0.1008506  -0.1377873   0.2470471 SPIN=   0.00000
   O  -0.2430046  -0.4253576   0.1391298 SPIN=   0.00000
   S  -0.1685087  -0.2502122   0.0847425 SPIN=   0.00000
   O  -0.3278555   0.1547460   0.0045924 SPIN=   0.00000
   O  -0.0023240   0.2829579   0.0426147 SPIN=   0.00000
   O  -0.1008506   0.1377873  -0.2470471 SPIN=   0.00000
   O  -0.2430046   0.4253576  -0.1391298 SPIN=   0.00000
   S  -0.1685087   0.2502122  -0.0847425 SPIN=   0.00000
   F  -0.2377167   0.3019379   0.3643745 SPIN=   0.00000
   F  -0.2377167  -0.3019379  -0.3643745 SPIN=   0.00000
   F   0.2622833   0.3643745   0.3019379 SPIN=   0.00000
   F   0.2622833  -0.3643745  -0.3019379 SPIN=   0.00000
%ENDBLOCK POSITIONS_FRAC

# Note: total spin =  16.00

KPOINTS_MP_SPACING 0.07

%BLOCK SPECIES_POT
QC5
%ENDBLOCK SPECIES_POT

SNAP_TO_SYMMETRY
SYMMETRY_GENERATE

