#              Generated by Buildcell
#
# at 11:25:16 (GMT+1.0) 18th August 2020
# in /lustre/scratch/uccabz1/launch_tmp
# on node-c12e-006
# by uccabz1
#
# compiler GCC version 4.9.2
# options -cpp -iprefix /lustre/shared/ucl/apps/gcc/4.9.2/bin/../lib/gcc/x86_64-unknown-linux-gnu/4.9.2/ -mtune=corei7 -march=x86-64 -g -Og
#
# seed -1781244666  -244649409   760156375 -1336450469  1284543005    32528327  1542872587  1757778978  1540230071 -1728432347  1501720954   -50835139
#
#      Author: C. J. Pickard (cjp20@cam.ac.uk)
#                Space group: P-1
#

%BLOCK LATTICE_ABC
      3.99724     10.18377     10.88980
    111.80307     99.52419     95.40503
%ENDBLOCK LATTICE_ABC

%BLOCK POSITIONS_FRAC
  Li  -0.0864989   0.0018060  -0.2218018 SPIN=   0.00000
  Li   0.0864989  -0.0018060   0.2218018 SPIN=   0.00000
  Li   0.3363584   0.4256291  -0.3774983 SPIN=   0.00000
  Li  -0.3363584  -0.4256291   0.3774983 SPIN=   0.00000
  Fe   0.7132474   0.2811419   0.3864026 SPIN=   6.22483
  Fe  -0.7132474  -0.2811419  -0.3864026 SPIN=   6.22483
  Fe  -0.5000000  -0.0000000  -0.0000000 SPIN=   2.07846
  Fe   1.0000000   0.0000000   0.5000000 SPIN=   1.47188
   O  -0.2201367  -0.1759993  -0.0209951 SPIN=   0.00000
   O   0.2449240  -0.3050299  -0.1034665 SPIN=   0.00000
   O  -0.1081207  -0.2058170  -0.2458583 SPIN=   0.00000
   O  -0.3646387  -0.4156658  -0.2095068 SPIN=   0.00000
   S  -0.1119930  -0.2756280  -0.1449567 SPIN=   0.00000
   O   0.2201367   0.1759993   0.0209951 SPIN=   0.00000
   O  -0.2449240   0.3050299   0.1034665 SPIN=   0.00000
   O   0.1081207   0.2058170   0.2458583 SPIN=   0.00000
   O   0.3646387   0.4156658   0.2095068 SPIN=   0.00000
   S   0.1119930   0.2756280   0.1449567 SPIN=   0.00000
   O  -0.5441956   0.3063941  -0.2715689 SPIN=   0.00000
   O  -0.0185455   0.2090959  -0.2201656 SPIN=   0.00000
   O   0.0290804   0.4407883  -0.2466222 SPIN=   0.00000
   O  -0.2042811   0.2141685  -0.4464993 SPIN=   0.00000
   S  -0.1844854   0.2926117  -0.2962140 SPIN=   0.00000
   O   0.5441956  -0.3063941   0.2715689 SPIN=   0.00000
   O   0.0185455  -0.2090959   0.2201656 SPIN=   0.00000
   O  -0.0290804  -0.4407883   0.2466222 SPIN=   0.00000
   O   0.2042811  -0.2141685   0.4464993 SPIN=   0.00000
   S   0.1844854  -0.2926117   0.2962140 SPIN=   0.00000
   F  -0.5564655   0.0051450  -0.2097217 SPIN=   0.00000
   F   0.5564655  -0.0051450   0.2097217 SPIN=   0.00000
   F   1.5000000   0.5000000   0.5000000 SPIN=   0.00000
   F   0.5000000   0.5000000   0.0000000 SPIN=   0.00000
%ENDBLOCK POSITIONS_FRAC

# Note: total spin =  16.00

KPOINTS_MP_SPACING 0.07

%BLOCK SPECIES_POT
QC5
%ENDBLOCK SPECIES_POT

SNAP_TO_SYMMETRY
SYMMETRY_GENERATE

