#              Generated by Buildcell
#
# at 13:23:19 (GMT+1.0) 18th August 2020
# in /lustre/scratch/uccabz1/launch_tmp
# on node-c12g-036
# by uccabz1
#
# compiler GCC version 4.9.2
# options -cpp -iprefix /lustre/shared/ucl/apps/gcc/4.9.2/bin/../lib/gcc/x86_64-unknown-linux-gnu/4.9.2/ -mtune=corei7 -march=x86-64 -g -Og
#
# seed -1450122075  -814733626   338765119  -387855752 -1904239133   211286818 -1045208328  2014959693   524636796    21674451  -184327077  1806284243
#
#      Author: C. J. Pickard (cjp20@cam.ac.uk)
#                Space group: P2
#

%BLOCK LATTICE_ABC
      4.15614      6.57197     14.79486
     98.17529     90.00000     90.00000
%ENDBLOCK LATTICE_ABC

%BLOCK POSITIONS_FRAC
  Li  -0.4087086   0.2379775   0.4636864 SPIN=   0.00000
  Li  -0.4087086  -0.2379775  -0.4636864 SPIN=   0.00000
  Li  -0.4097926  -0.4087214   0.2622865 SPIN=   0.00000
  Li  -0.4097926   0.4087214  -0.2622865 SPIN=   0.00000
  Fe   0.0923256   0.4416750   0.3723991 SPIN=   3.80164
  Fe   0.0923256  -0.4416750  -0.3723991 SPIN=   3.80164
  Fe   0.0932294  -0.1843466   0.0902577 SPIN=   4.19836
  Fe   0.0932294   0.1843466  -0.0902577 SPIN=   4.19836
   O  -0.5349167   0.0616481   0.1928708 SPIN=   0.00000
   O  -0.1710322  -0.1486446   0.2743687 SPIN=   0.00000
   O  -0.7014361  -0.0406737   0.3405829 SPIN=   0.00000
   O  -0.2686668   0.2162945   0.3359233 SPIN=   0.00000
   S  -0.4190130   0.0221561   0.2859364 SPIN=   0.00000
   O  -0.5349167  -0.0616481  -0.1928708 SPIN=   0.00000
   O  -0.1710322   0.1486446  -0.2743687 SPIN=   0.00000
   O  -0.7014361   0.0406737  -0.3405829 SPIN=   0.00000
   O  -0.2686668  -0.2162945  -0.3359233 SPIN=   0.00000
   S  -0.4190130  -0.0221561  -0.2859364 SPIN=   0.00000
   O  -0.0087466  -0.1311886  -0.1307326 SPIN=   0.00000
   O   0.2253486  -0.4208217  -0.0627728 SPIN=   0.00000
   O   0.1883698  -0.4400091  -0.2307279 SPIN=   0.00000
   O  -0.3056464  -0.4597447  -0.1389812 SPIN=   0.00000
   S   0.0248313  -0.3629410  -0.1408036 SPIN=   0.00000
   O  -0.0087466   0.1311886   0.1307326 SPIN=   0.00000
   O   0.2253486   0.4208217   0.0627728 SPIN=   0.00000
   O   0.1883698   0.4400091   0.2307279 SPIN=   0.00000
   O  -0.3056464   0.4597447   0.1389812 SPIN=   0.00000
   S   0.0248313   0.3629410   0.1408036 SPIN=   0.00000
   F  -0.4072595   0.2232801  -0.0595494 SPIN=   0.00000
   F  -0.4072595  -0.2232801   0.0595494 SPIN=   0.00000
   F  -0.0543034  -0.2628036   0.4412807 SPIN=   0.00000
   F  -0.0543034   0.2628036  -0.4412807 SPIN=   0.00000
%ENDBLOCK POSITIONS_FRAC

# Note: total spin =  16.00

KPOINTS_MP_SPACING 0.07

%BLOCK SPECIES_POT
QC5
%ENDBLOCK SPECIES_POT

SNAP_TO_SYMMETRY
SYMMETRY_GENERATE

