#              Generated by Buildcell
#
# at 09:15:17 (GMT+1.0) 4th August 2020
# in /lustre/scratch/uccabz1/launch_tmp
# on node-c12k-036
# by uccabz1
#
# compiler GCC version 4.9.2
# options -cpp -iprefix /lustre/shared/ucl/apps/gcc/4.9.2/bin/../lib/gcc/x86_64-unknown-linux-gnu/4.9.2/ -mtune=corei7 -march=x86-64 -g -Og
#
# seed -1510854267   124719919   620220084   813295610  -984546184   638518619   943419777 -1791588762  -904434664  -754618233  1455451029   290877828
#
#      Author: C. J. Pickard (cjp20@cam.ac.uk)
#                Space group: C2
#

%BLOCK LATTICE_ABC
      7.44476      8.06000      8.44624
     72.03517     63.85053     62.49451
%ENDBLOCK LATTICE_ABC

%BLOCK POSITIONS_FRAC
  Li   0.0072460   0.1657687   0.3485866 SPIN=   0.00000
  Li  -0.4783987  -0.1657687  -0.3485866 SPIN=   0.00000
  Li   0.0084949   0.4519487  -0.2619335 SPIN=   0.00000
  Li   0.1985102  -0.4519487   0.2619335 SPIN=   0.00000
  Fe  -0.3263355   0.4471573   0.1809907 SPIN=   3.89918
  Fe   0.3018125  -0.4471573  -0.1809907 SPIN=   3.89918
  Fe   0.0447185   0.0706620  -0.2881548 SPIN=   4.10082
  Fe  -0.1727743  -0.0706620   0.2881548 SPIN=   4.10082
   O   0.4983234   0.3114137  -0.3130988 SPIN=   0.00000
   O   0.2377795   0.1864835  -0.2876154 SPIN=   0.00000
   O   0.6250541   0.0419460  -0.4692763 SPIN=   0.00000
   O   0.3984351   0.3610949  -0.5722887 SPIN=   0.00000
   S   0.4398981   0.2252345  -0.4105698 SPIN=   0.00000
   O   0.4966383  -0.3114137   0.3130988 SPIN=   0.00000
   O   0.1366477  -0.1864835   0.2876154 SPIN=   0.00000
   O   0.1977239  -0.0419460   0.4692763 SPIN=   0.00000
   O   0.1872413  -0.3610949   0.5722887 SPIN=   0.00000
   S   0.2545628  -0.2252345   0.4105698 SPIN=   0.00000
   O   0.2167433   0.2669444   0.3080694 SPIN=   0.00000
   O   0.3396387   0.2081753  -0.0007907 SPIN=   0.00000
   O   0.5765570   0.0231559   0.1773733 SPIN=   0.00000
   O   0.5111508   0.3613976   0.0710336 SPIN=   0.00000
   S   0.4110224   0.2149183   0.1389214 SPIN=   0.00000
   O  -0.2082429  -0.2669444  -0.3080694 SPIN=   0.00000
   O  -0.4529768  -0.2081753   0.0007907 SPIN=   0.00000
   O  -0.2229139  -0.0231559  -0.1773733 SPIN=   0.00000
   O  -0.0564180  -0.3613976  -0.0710336 SPIN=   0.00000
   S  -0.2351379  -0.2149183  -0.1389214 SPIN=   0.00000
   F  -0.0996151  -0.3532159   0.2761588 SPIN=   0.00000
   F  -0.1766723   0.3532159  -0.2761588 SPIN=   0.00000
   F  -0.0799777   0.1770422   0.1593714 SPIN=   0.00000
   F   0.2564358  -0.1770422  -0.1593714 SPIN=   0.00000
%ENDBLOCK POSITIONS_FRAC

# Note: total spin =  16.00

KPOINTS_MP_SPACING 0.07

%BLOCK SPECIES_POT
QC5
%ENDBLOCK SPECIES_POT

SNAP_TO_SYMMETRY
SYMMETRY_GENERATE

