#              Generated by Buildcell
#
# at 07:41:05 (GMT+1.0) 4th August 2020
# in /lustre/scratch/uccabz1/launch_tmp
# on node-c12g-012
# by uccabz1
#
# compiler GCC version 4.9.2
# options -cpp -iprefix /lustre/shared/ucl/apps/gcc/4.9.2/bin/../lib/gcc/x86_64-unknown-linux-gnu/4.9.2/ -mtune=corei7 -march=x86-64 -g -Og
#
# seed -1096592008 -2078885002  -648898406 -1116425215 -1951454270   923376019  1690315934  -601989728 -1790864432   460944319  -515150399   -45866651
#
#      Author: C. J. Pickard (cjp20@cam.ac.uk)
#                Space group: P42
#

%BLOCK LATTICE_ABC
      3.90720     10.11805     10.11805
     90.00000     90.00000     90.00000
%ENDBLOCK LATTICE_ABC

%BLOCK POSITIONS_FRAC
  Li   0.3848044   0.1724432   0.2668731 SPIN=   0.00000
  Li   0.3848044  -0.1724432  -0.2668731 SPIN=   0.00000
  Li  -0.1151956   0.2668731  -0.1724432 SPIN=   0.00000
  Li  -0.1151956  -0.2668731   0.1724432 SPIN=   0.00000
  Fe  -0.1073467  -0.3374286  -0.1136279 SPIN=   4.00000
  Fe  -0.1073467   0.3374286   0.1136279 SPIN=   4.00000
  Fe   0.3926533  -0.1136279   0.3374286 SPIN=   4.00000
  Fe   0.3926533   0.1136279  -0.3374286 SPIN=   4.00000
   O  -0.2319340   0.1160891   0.3721586 SPIN=   0.00000
   O   0.2804869   0.2436205   0.4385618 SPIN=   0.00000
   O  -0.2390079   0.2474786   0.5784555 SPIN=   0.00000
   O  -0.2390074   0.3604414   0.3615028 SPIN=   0.00000
   S  -0.1073656   0.2419074   0.4376697 SPIN=   0.00000
   O  -0.2319340  -0.1160891  -0.3721586 SPIN=   0.00000
   O   0.2804869  -0.2436205  -0.4385618 SPIN=   0.00000
   O  -0.2390079  -0.2474786  -0.5784555 SPIN=   0.00000
   O  -0.2390074  -0.3604414  -0.3615028 SPIN=   0.00000
   S  -0.1073656  -0.2419074  -0.4376697 SPIN=   0.00000
   O   0.2680660   0.3721586  -0.1160891 SPIN=   0.00000
   O   0.7804869   0.4385618  -0.2436205 SPIN=   0.00000
   O   0.2609921   0.5784555  -0.2474786 SPIN=   0.00000
   O   0.2609926   0.3615028  -0.3604414 SPIN=   0.00000
   S   0.3926344   0.4376697  -0.2419074 SPIN=   0.00000
   O   0.2680660  -0.3721586   0.1160891 SPIN=   0.00000
   O   0.7804869  -0.4385618   0.2436205 SPIN=   0.00000
   O   0.2609921  -0.5784555   0.2474786 SPIN=   0.00000
   O   0.2609926  -0.3615028   0.3604414 SPIN=   0.00000
   S   0.3926344  -0.4376697   0.2419074 SPIN=   0.00000
   F   0.4678731  -0.2155100  -0.0909200 SPIN=   0.00000
   F   0.4678731   0.2155100   0.0909200 SPIN=   0.00000
   F  -0.0321269  -0.0909200   0.2155100 SPIN=   0.00000
   F  -0.0321269   0.0909200  -0.2155100 SPIN=   0.00000
%ENDBLOCK POSITIONS_FRAC

# Note: total spin =  16.00

KPOINTS_MP_SPACING 0.07

%BLOCK SPECIES_POT
QC5
%ENDBLOCK SPECIES_POT

SNAP_TO_SYMMETRY
SYMMETRY_GENERATE

