#              Generated by Buildcell
#
# at 02:01:04 (GMT+1.0) 18th August 2020
# in /lustre/scratch/uccabz1/launch_tmp
# on node-c12a-010
# by uccabz1
#
# compiler GCC version 4.9.2
# options -cpp -iprefix /lustre/shared/ucl/apps/gcc/4.9.2/bin/../lib/gcc/x86_64-unknown-linux-gnu/4.9.2/ -mtune=corei7 -march=x86-64 -g -Og
#
# seed -2100462027  -806661468  1506397000   693418001  2054056186  1888888074 -1795851389  -632658049   583253751  -575255218  -316309348  1501176613
#
#      Author: C. J. Pickard (cjp20@cam.ac.uk)
#                Space group: Pba2
#

%BLOCK LATTICE_ABC
      6.38206      7.91669      7.91690
     90.00000     90.00000     90.00000
%ENDBLOCK LATTICE_ABC

%BLOCK POSITIONS_FRAC
  Li  -0.2404119   0.0000000  -0.5000000 SPIN=   0.00000
  Li  -0.2404119  -0.5000000   0.0000000 SPIN=   0.00000
  Li  -0.1782997   0.0000000  -0.0000000 SPIN=   0.00000
  Li  -0.1782997  -0.5000000   0.5000000 SPIN=   0.00000
  Fe  -0.4238701  -0.2499735   0.2459929 SPIN=   4.00000
  Fe  -0.4238701   0.2499735  -0.2459929 SPIN=   4.00000
  Fe  -0.4238701  -0.2500265  -0.2540071 SPIN=   4.00000
  Fe  -0.4238701   0.2500265   0.2540071 SPIN=   4.00000
   O   0.2997337  -0.2671567  -0.1286824 SPIN=   0.00000
   O   0.1669792  -0.1046309   0.1159740 SPIN=   0.00000
   O   0.1379791  -0.4163568   0.1131032 SPIN=   0.00000
   S   0.1306694  -0.2581705   0.0054476 SPIN=   0.00000
   O   0.2997337   0.2671567   0.1286824 SPIN=   0.00000
   O   0.1669792   0.1046309  -0.1159740 SPIN=   0.00000
   O   0.1379791   0.4163568  -0.1131032 SPIN=   0.00000
   S   0.1306694   0.2581705  -0.0054476 SPIN=   0.00000
   O   0.2997337  -0.2328433  -0.6286824 SPIN=   0.00000
   O   0.1669792  -0.3953691  -0.3840260 SPIN=   0.00000
   O   0.1379791  -0.0836432  -0.3868968 SPIN=   0.00000
   S   0.1306694  -0.2418295  -0.4945524 SPIN=   0.00000
   O   0.2997337   0.2328433   0.6286824 SPIN=   0.00000
   O   0.1669792   0.3953691   0.3840260 SPIN=   0.00000
   O   0.1379791   0.0836432   0.3868968 SPIN=   0.00000
   S   0.1306694   0.2418295   0.4945524 SPIN=   0.00000
   O   0.4380740   0.0000000  -0.5000000 SPIN=   0.00000
   O   0.4380740  -0.5000000   0.0000000 SPIN=   0.00000
   O   0.4549349   0.0000000  -0.0000000 SPIN=   0.00000
   O   0.4549349  -0.5000000   0.5000000 SPIN=   0.00000
   F  -0.2618407  -0.0209119  -0.2510889 SPIN=   0.00000
   F  -0.2618407   0.0209119   0.2510889 SPIN=   0.00000
   F  -0.2618407  -0.4790881   0.2489111 SPIN=   0.00000
   F  -0.2618407   0.4790881  -0.2489111 SPIN=   0.00000
%ENDBLOCK POSITIONS_FRAC

# Note: total spin =  16.00

KPOINTS_MP_SPACING 0.07

%BLOCK SPECIES_POT
QC5
%ENDBLOCK SPECIES_POT

SNAP_TO_SYMMETRY
SYMMETRY_GENERATE

