#              Generated by Buildcell
#
# at 11:23:30 (GMT+1.0) 18th August 2020
# in /lustre/scratch/uccabz1/launch_tmp
# on node-c12f-010
# by uccabz1
#
# compiler GCC version 4.9.2
# options -cpp -iprefix /lustre/shared/ucl/apps/gcc/4.9.2/bin/../lib/gcc/x86_64-unknown-linux-gnu/4.9.2/ -mtune=corei7 -march=x86-64 -g -Og
#
# seed   821244201  -274005273 -1681012745   816357163 -1753066497  1421303612   -23464817  -265253043  1851293452 -1077191299 -1522964782 -1036114557
#
#      Author: C. J. Pickard (cjp20@cam.ac.uk)
#                Space group: P-1
#

%BLOCK LATTICE_ABC
      4.41284      7.69704     12.75335
     74.48553     84.73323     73.42788
%ENDBLOCK LATTICE_ABC

%BLOCK POSITIONS_FRAC
  Li   0.4478773  -0.2262542  -0.3008648 SPIN=   0.00000
  Li  -0.4478773   0.2262542   0.3008648 SPIN=   0.00000
  Li   0.1493705   0.3129172  -0.3676444 SPIN=   0.00000
  Li  -0.1493705  -0.3129172   0.3676444 SPIN=   0.00000
  Fe  -0.2568203  -0.0525682   0.1213268 SPIN=   3.23420
  Fe   0.2568203   0.0525682  -0.1213268 SPIN=   3.23420
  Fe   0.0393774   0.3421892   0.1390026 SPIN=   4.76580
  Fe  -0.0393774  -0.3421892  -0.1390026 SPIN=   4.76580
   O  -0.2246128  -0.0701500  -0.4886803 SPIN=   0.00000
   O   0.0005663  -0.2589268  -0.3097476 SPIN=   0.00000
   O   0.3197776  -0.2797919  -0.4781940 SPIN=   0.00000
   O  -0.1377519  -0.4141080  -0.4381190 SPIN=   0.00000
   S  -0.0105052  -0.2557442  -0.4286852 SPIN=   0.00000
   O   0.2246128   0.0701500   0.4886803 SPIN=   0.00000
   O  -0.0005663   0.2589268   0.3097476 SPIN=   0.00000
   O  -0.3197776   0.2797919   0.4781940 SPIN=   0.00000
   O   0.1377519   0.4141080   0.4381190 SPIN=   0.00000
   S   0.0105052   0.2557442   0.4286852 SPIN=   0.00000
   O  -0.5846876   0.5438022  -0.1732331 SPIN=   0.00000
   O  -0.4202480   0.2012654  -0.1531593 SPIN=   0.00000
   O  -0.0403801   0.3888240  -0.2250583 SPIN=   0.00000
   O  -0.4916066   0.4191150  -0.3367130 SPIN=   0.00000
   S  -0.3842306   0.3882516  -0.2220410 SPIN=   0.00000
   O   0.5846876  -0.5438022   0.1732331 SPIN=   0.00000
   O   0.4202480  -0.2012654   0.1531593 SPIN=   0.00000
   O   0.0403801  -0.3888240   0.2250583 SPIN=   0.00000
   O   0.4916066  -0.4191150   0.3367130 SPIN=   0.00000
   S   0.3842306  -0.3882516   0.2220410 SPIN=   0.00000
   F  -0.3156549  -0.0225137   0.2880852 SPIN=   0.00000
   F   0.3156549   0.0225137  -0.2880852 SPIN=   0.00000
   F   0.1355368   0.2183844   0.0215274 SPIN=   0.00000
   F  -0.1355368  -0.2183844  -0.0215274 SPIN=   0.00000
%ENDBLOCK POSITIONS_FRAC

# Note: total spin =  16.00

KPOINTS_MP_SPACING 0.07

%BLOCK SPECIES_POT
QC5
%ENDBLOCK SPECIES_POT

SNAP_TO_SYMMETRY
SYMMETRY_GENERATE

