#              Generated by Buildcell
#
# at 10:52:34 (GMT+1.0) 18th August 2020
# in /lustre/scratch/uccabz1/launch_tmp
# on node-c12l-020
# by uccabz1
#
# compiler GCC version 4.9.2
# options -cpp -iprefix /lustre/shared/ucl/apps/gcc/4.9.2/bin/../lib/gcc/x86_64-unknown-linux-gnu/4.9.2/ -mtune=corei7 -march=x86-64 -g -Og
#
# seed -1184546298 -1569851068 -1439117455  1675184702   515639501  1027647468  1750802597   948504007   785540111  1846336239 -1908135732  1323888068
#
#      Author: C. J. Pickard (cjp20@cam.ac.uk)
#                Space group: I4
#

%BLOCK LATTICE_ABC
      7.22895      8.27028      8.27028
     78.98841     64.08457     64.08457
%ENDBLOCK LATTICE_ABC

%BLOCK POSITIONS_FRAC
  Li   0.0066293  -0.2507099   0.3490079 SPIN=   0.00000
  Li   0.1049273   0.2507099  -0.3490079 SPIN=   0.00000
  Li  -0.2440805   0.3490079   0.2507099 SPIN=   0.00000
  Li   0.3556372  -0.3490079  -0.2507099 SPIN=   0.00000
  Fe  -0.0627832  -0.0042863  -0.3900801 SPIN=   4.00000
  Fe  -0.4571496   0.0042863   0.3900801 SPIN=   4.00000
  Fe  -0.0670695  -0.3900801   0.0042863 SPIN=   4.00000
  Fe  -0.4528633   0.3900801  -0.0042863 SPIN=   4.00000
   O   0.5584016   0.3623091  -0.2583665 SPIN=   0.00000
   O   0.4255715   0.1274673  -0.2416663 SPIN=   0.00000
   O   0.5080071   0.3093250  -0.5181747 SPIN=   0.00000
   O   0.1763199   0.4489533  -0.2409616 SPIN=   0.00000
   S   0.4170750   0.3120137  -0.3147923 SPIN=   0.00000
   O   0.6623442  -0.3623091   0.2583665 SPIN=   0.00000
   O   0.3113726  -0.1274673   0.2416663 SPIN=   0.00000
   O   0.2991574  -0.3093250   0.5181747 SPIN=   0.00000
   O   0.3843116  -0.4489533   0.2409616 SPIN=   0.00000
   S   0.4142964  -0.3120137   0.3147923 SPIN=   0.00000
   O  -0.0792893  -0.2583665  -0.3623091 SPIN=   0.00000
   O  -0.4469611  -0.2416663  -0.1274673 SPIN=   0.00000
   O  -0.1826679  -0.5181747  -0.3093250 SPIN=   0.00000
   O  -0.3747268  -0.2409616  -0.4489533 SPIN=   0.00000
   S  -0.2709113  -0.3147923  -0.3120137 SPIN=   0.00000
   O   0.3000351   0.2583665   0.3623091 SPIN=   0.00000
   O   0.1839052   0.2416663   0.1274673 SPIN=   0.00000
   O  -0.0101676   0.5181747   0.3093250 SPIN=   0.00000
   O  -0.0646417   0.2409616   0.4489533 SPIN=   0.00000
   S   0.1022828   0.3147923   0.3120137 SPIN=   0.00000
   F   0.1909937   0.0043346  -0.3340304 SPIN=   0.00000
   F  -0.1387021  -0.0043346   0.3340304 SPIN=   0.00000
   F   0.1953283  -0.3340304  -0.0043346 SPIN=   0.00000
   F  -0.1430366   0.3340304   0.0043346 SPIN=   0.00000
%ENDBLOCK POSITIONS_FRAC

# Note: total spin =  16.00

KPOINTS_MP_SPACING 0.07

%BLOCK SPECIES_POT
QC5
%ENDBLOCK SPECIES_POT

SNAP_TO_SYMMETRY
SYMMETRY_GENERATE

