#              Generated by Buildcell
#
# at 02:00:04 (GMT+1.0) 18th August 2020
# in /lustre/scratch/uccabz1/launch_tmp
# on node-c12b-025
# by uccabz1
#
# compiler GCC version 4.9.2
# options -cpp -iprefix /lustre/shared/ucl/apps/gcc/4.9.2/bin/../lib/gcc/x86_64-unknown-linux-gnu/4.9.2/ -mtune=corei7 -march=x86-64 -g -Og
#
# seed   329203314  1914473426  1279716348  -742134610   569166127 -1869064653 -1360307260  -593799986 -1290385233  1697582114  2020479006  1502086694
#
#      Author: C. J. Pickard (cjp20@cam.ac.uk)
#                Space group: Cm
#

%BLOCK LATTICE_ABC
      6.37108      8.49178      8.49178
    109.28754    102.91187    102.91187
%ENDBLOCK LATTICE_ABC

%BLOCK POSITIONS_FRAC
  Li  -0.1715625  -0.0637006  -0.4561288 SPIN=   0.00000
  Li  -0.1715625  -0.4561288  -0.0637006 SPIN=   0.00000
  Li   0.3109670   0.2426174  -0.4968425 SPIN=   0.00000
  Li   0.3109670  -0.4968425   0.2426174 SPIN=   0.00000
  Fe   0.2297407  -0.1500290   0.4277353 SPIN=   4.39152
  Fe   0.2297407   0.4277353  -0.1500290 SPIN=   4.39152
  Fe  -0.4149543  -0.2883473  -0.2883473 SPIN=   3.34335
  Fe   0.1293632   0.0968158   0.0968158 SPIN=   3.87361
   O   0.2075699  -0.2992190   0.0390367 SPIN=   0.00000
   O   0.5573134  -0.1861400  -0.0255153 SPIN=   0.00000
   O   0.5838045  -0.1900540   0.2683287 SPIN=   0.00000
   O   0.4242946   0.0197781   0.1798347 SPIN=   0.00000
   S   0.4432456  -0.1639087   0.1154212 SPIN=   0.00000
   O   0.2075699   0.0390367  -0.2992190 SPIN=   0.00000
   O   0.5573134  -0.0255153  -0.1861400 SPIN=   0.00000
   O   0.5838045   0.2683287  -0.1900540 SPIN=   0.00000
   O   0.4242946   0.1798347   0.0197781 SPIN=   0.00000
   S   0.4432456   0.1154212  -0.1639087 SPIN=   0.00000
   O  -0.1281430  -0.3467983   0.1854121 SPIN=   0.00000
   O  -0.1553959  -0.3661651   0.4650374 SPIN=   0.00000
   O  -0.2348622  -0.6379014   0.2025540 SPIN=   0.00000
   S  -0.2557269  -0.4547783   0.2658497 SPIN=   0.00000
   O  -0.1281430   0.1854121  -0.3467983 SPIN=   0.00000
   O  -0.1553959   0.4650374  -0.3661651 SPIN=   0.00000
   O  -0.2348622   0.2025540  -0.6379014 SPIN=   0.00000
   S  -0.2557269   0.2658497  -0.4547783 SPIN=   0.00000
   O  -0.4753904   0.3570807   0.3570807 SPIN=   0.00000
   O  -0.2138894   0.0916548   0.0916548 SPIN=   0.00000
   F   0.0884548   0.3510122   0.0233237 SPIN=   0.00000
   F   0.0884548   0.0233237   0.3510122 SPIN=   0.00000
   F   0.2615164  -0.4540508  -0.4540508 SPIN=   0.00000
   F  -0.0676369  -0.1706688  -0.1706688 SPIN=   0.00000
%ENDBLOCK POSITIONS_FRAC

# Note: total spin =  16.00

KPOINTS_MP_SPACING 0.07

%BLOCK SPECIES_POT
QC5
%ENDBLOCK SPECIES_POT

SNAP_TO_SYMMETRY
SYMMETRY_GENERATE

