#              Generated by Buildcell
#
# at 10:08:13 (GMT+1.0) 4th August 2020
# in /lustre/scratch/uccabz1/launch_tmp
# on node-c12m-018
# by uccabz1
#
# compiler GCC version 4.9.2
# options -cpp -iprefix /lustre/shared/ucl/apps/gcc/4.9.2/bin/../lib/gcc/x86_64-unknown-linux-gnu/4.9.2/ -mtune=corei7 -march=x86-64 -g -Og
#
# seed   394990894   430010763  -334125423  1783234816  -619635873   677092137  -508074871 -2083032065    28847154   455437564  -700981643  1395606524
#
#      Author: C. J. Pickard (cjp20@cam.ac.uk)
#                Space group: Pc
#

%BLOCK LATTICE_ABC
      5.45129      5.76693     12.93130
    100.27801     90.00000     90.00000
%ENDBLOCK LATTICE_ABC

%BLOCK POSITIONS_FRAC
  Li   0.4998705   0.3625584  -0.1283766 SPIN=   0.00000
  Li  -0.4998705  -0.1374416   0.3716234 SPIN=   0.00000
  Li   0.0090076  -0.0486714  -0.0559323 SPIN=   0.00000
  Li  -0.0090076   0.4513286   0.4440677 SPIN=   0.00000
  Fe   0.0330878   0.4682718  -0.0137811 SPIN=   3.96653
  Fe  -0.0330878  -0.0317282   0.4862189 SPIN=   3.96653
  Fe  -0.4820750  -0.0529016   0.0363730 SPIN=   4.03347
  Fe   0.4820750   0.4470984  -0.4636270 SPIN=   4.03347
   O   0.3806147  -0.1481761  -0.2608371 SPIN=   0.00000
   O   0.5393119   0.2412834  -0.2841308 SPIN=   0.00000
   O   0.3082535  -0.0058204  -0.4278242 SPIN=   0.00000
   O   0.7258758  -0.1234148  -0.3826676 SPIN=   0.00000
   S   0.4885140  -0.0090320  -0.3388649 SPIN=   0.00000
   O  -0.3806147   0.3518239   0.2391629 SPIN=   0.00000
   O  -0.5393119   0.7412834   0.2158692 SPIN=   0.00000
   O  -0.3082535   0.4941796   0.0721758 SPIN=   0.00000
   O  -0.7258758   0.3765852   0.1173324 SPIN=   0.00000
   S  -0.4885140   0.4909680   0.1611351 SPIN=   0.00000
   O   0.0993826  -0.2396073   0.1164083 SPIN=   0.00000
   O  -0.1820382  -0.0389956   0.2540475 SPIN=   0.00000
   O  -0.0800078   0.1471010   0.1011945 SPIN=   0.00000
   O   0.2343637   0.1207092   0.2366865 SPIN=   0.00000
   S   0.0179251  -0.0026982   0.1770842 SPIN=   0.00000
   O  -0.0993826   0.2603927  -0.3835917 SPIN=   0.00000
   O   0.1820382   0.4610044  -0.2459525 SPIN=   0.00000
   O   0.0800078   0.6471010  -0.3988055 SPIN=   0.00000
   O  -0.2343637   0.6207092  -0.2633135 SPIN=   0.00000
   S  -0.0179251   0.4973018  -0.3229158 SPIN=   0.00000
   F  -0.2976897   0.2388175   0.4293630 SPIN=   0.00000
   F   0.2976897  -0.2611825  -0.0706370 SPIN=   0.00000
   F   0.1710061  -0.2899057   0.3949189 SPIN=   0.00000
   F  -0.1710061   0.2100943  -0.1050811 SPIN=   0.00000
%ENDBLOCK POSITIONS_FRAC

# Note: total spin =  16.00

KPOINTS_MP_SPACING 0.07

%BLOCK SPECIES_POT
QC5
%ENDBLOCK SPECIES_POT

SNAP_TO_SYMMETRY
SYMMETRY_GENERATE

