#              Generated by Buildcell
#
# at 01:12:13 (GMT+1.0) 18th August 2020
# in /lustre/scratch/uccabz1/launch_tmp
# on node-c12k-032
# by uccabz1
#
# compiler GCC version 4.9.2
# options -cpp -iprefix /lustre/shared/ucl/apps/gcc/4.9.2/bin/../lib/gcc/x86_64-unknown-linux-gnu/4.9.2/ -mtune=corei7 -march=x86-64 -g -Og
#
# seed   943756795  -496992182  1124123721  -277536419  -381780382 -1824378847   352982671 -1065028150   362982455   630787918 -1901955339  -211547540
#
#      Author: C. J. Pickard (cjp20@cam.ac.uk)
#                Space group: Pc
#

%BLOCK LATTICE_ABC
      5.31842      7.44489     10.17808
     90.00000     90.00000     96.99704
%ENDBLOCK LATTICE_ABC

%BLOCK POSITIONS_FRAC
  Li   0.0943135   0.4006385   0.4630114 SPIN=   0.00000
  Li   0.0943135  -0.0993615  -0.4630114 SPIN=   0.00000
  Li  -0.2526144  -0.0070032   0.2345261 SPIN=   0.00000
  Li  -0.2526144   0.4929968  -0.2345261 SPIN=   0.00000
  Fe  -0.3524386   0.2096878  -0.0161390 SPIN=   5.13012
  Fe  -0.3524386  -0.2903122   0.0161390 SPIN=   5.13012
  Fe  -0.3863050  -0.3719298   0.4829237 SPIN=   2.86988
  Fe  -0.3863050   0.1280702  -0.4829237 SPIN=   2.86988
   O  -0.3676483   0.5380392   0.2582376 SPIN=   0.00000
   O  -0.0811595   0.4478366   0.0851616 SPIN=   0.00000
   O  -0.1620285   0.2593563   0.2845407 SPIN=   0.00000
   O   0.0936418   0.5595025   0.2994712 SPIN=   0.00000
   S  -0.1292986   0.4511836   0.2318528 SPIN=   0.00000
   O  -0.3676483   0.0380392  -0.2582376 SPIN=   0.00000
   O  -0.0811595  -0.0521634  -0.0851616 SPIN=   0.00000
   O  -0.1620285  -0.2406437  -0.2845407 SPIN=   0.00000
   O   0.0936418   0.0595025  -0.2994712 SPIN=   0.00000
   S  -0.1292986  -0.0488164  -0.2318528 SPIN=   0.00000
   O   0.3441706   0.4409322   0.0203300 SPIN=   0.00000
   O  -0.0073156   0.2666437  -0.1015096 SPIN=   0.00000
   O   0.3616027   0.4207494  -0.2221401 SPIN=   0.00000
   O   0.0567412   0.6009293  -0.1160106 SPIN=   0.00000
   S   0.1887997   0.4323137  -0.1048326 SPIN=   0.00000
   O   0.3441706  -0.0590678  -0.0203300 SPIN=   0.00000
   O  -0.0073156  -0.2333563   0.1015096 SPIN=   0.00000
   O   0.3616027  -0.0792506   0.2221401 SPIN=   0.00000
   O   0.0567412   0.1009293   0.1160106 SPIN=   0.00000
   S   0.1887997  -0.0676863   0.1048326 SPIN=   0.00000
   F  -0.1669484  -0.1395459   0.3892172 SPIN=   0.00000
   F  -0.1669484   0.3604541  -0.3892172 SPIN=   0.00000
   F   0.3329060  -0.2683744  -0.3802441 SPIN=   0.00000
   F   0.3329060   0.2316256   0.3802441 SPIN=   0.00000
%ENDBLOCK POSITIONS_FRAC

# Note: total spin =  16.00

KPOINTS_MP_SPACING 0.07

%BLOCK SPECIES_POT
QC5
%ENDBLOCK SPECIES_POT

SNAP_TO_SYMMETRY
SYMMETRY_GENERATE

