#              Generated by Buildcell
#
# at 07:41:10 (GMT+1.0) 18th August 2020
# in /lustre/scratch/uccabz1/launch_tmp
# on node-c12n-031
# by uccabz1
#
# compiler GCC version 4.9.2
# options -cpp -iprefix /lustre/shared/ucl/apps/gcc/4.9.2/bin/../lib/gcc/x86_64-unknown-linux-gnu/4.9.2/ -mtune=corei7 -march=x86-64 -g -Og
#
# seed  1828302941 -1693774785  1286660889  -632200949  2051103462   550340262 -1149949332 -1024393822  -931423357 -1307917785  -425444753   917119991
#
#      Author: C. J. Pickard (cjp20@cam.ac.uk)
#                Space group: P21
#

%BLOCK LATTICE_ABC
      6.32971      6.92565      9.15055
     90.00000     94.31235     90.00000
%ENDBLOCK LATTICE_ABC

%BLOCK POSITIONS_FRAC
  Li  -0.3723920   0.4472903   0.3942432 SPIN=   0.00000
  Li   0.3723920  -0.0527097  -0.3942432 SPIN=   0.00000
  Li   0.0488410   0.1177738   0.0597174 SPIN=   0.00000
  Li  -0.0488410  -0.3822262  -0.0597174 SPIN=   0.00000
  Fe   0.2275760  -0.3133227   0.2489268 SPIN=   5.32751
  Fe  -0.2275760   0.1866773  -0.2489268 SPIN=   5.32751
  Fe  -0.0342915  -0.2875313  -0.3893269 SPIN=   2.67249
  Fe   0.0342915   0.2124687   0.3893269 SPIN=   2.67249
   O  -0.2781433   0.1138899   0.2686229 SPIN=   0.00000
   O  -0.6579930   0.1842086   0.2897084 SPIN=   0.00000
   O  -0.4234078   0.1154126   0.5122808 SPIN=   0.00000
   O  -0.5205113  -0.1464692   0.3358317 SPIN=   0.00000
   S  -0.4700138   0.0667605   0.3516109 SPIN=   0.00000
   O   0.2781433  -0.3861101  -0.2686229 SPIN=   0.00000
   O   0.6579930  -0.3157914  -0.2897084 SPIN=   0.00000
   O   0.4234078  -0.3845874  -0.5122808 SPIN=   0.00000
   O   0.5205113  -0.6464692  -0.3358317 SPIN=   0.00000
   S   0.4700138  -0.4332395  -0.3516109 SPIN=   0.00000
   O  -0.2543841   0.4174981   0.2010557 SPIN=   0.00000
   O  -0.3749491   0.3252554  -0.0529238 SPIN=   0.00000
   O  -0.3313950   0.6701827   0.0133305 SPIN=   0.00000
   O  -0.6244752   0.4807444   0.1063659 SPIN=   0.00000
   S  -0.3963008   0.4734201   0.0669571 SPIN=   0.00000
   O   0.2543841  -0.0825019  -0.2010557 SPIN=   0.00000
   O   0.3749491  -0.1747446   0.0529238 SPIN=   0.00000
   O   0.3313950   0.1701827  -0.0133305 SPIN=   0.00000
   O   0.6244752  -0.0192556  -0.1063659 SPIN=   0.00000
   S   0.3963008  -0.0265799  -0.0669571 SPIN=   0.00000
   F   0.0509993  -0.0046340  -0.4480520 SPIN=   0.00000
   F  -0.0509993   0.4953660   0.4480520 SPIN=   0.00000
   F   0.0269116   0.3636450  -0.1681888 SPIN=   0.00000
   F  -0.0269116  -0.1363550   0.1681888 SPIN=   0.00000
%ENDBLOCK POSITIONS_FRAC

# Note: total spin =  16.00

KPOINTS_MP_SPACING 0.07

%BLOCK SPECIES_POT
QC5
%ENDBLOCK SPECIES_POT

SNAP_TO_SYMMETRY
SYMMETRY_GENERATE

