#              Generated by Buildcell
#
# at 15:07:34 (GMT+1.0) 18th August 2020
# in /lustre/scratch/uccabz1/launch_tmp
# on node-c12o-016
# by uccabz1
#
# compiler GCC version 4.9.2
# options -cpp -iprefix /lustre/shared/ucl/apps/gcc/4.9.2/bin/../lib/gcc/x86_64-unknown-linux-gnu/4.9.2/ -mtune=corei7 -march=x86-64 -g -Og
#
# seed  1722362860 -1812582761   822717677 -2031991127  -814294361   272926550  -191323643  1409266291 -1971717595  -422802697  -411203570  -347925634
#
#      Author: C. J. Pickard (cjp20@cam.ac.uk)
#                Space group: P-1
#

%BLOCK LATTICE_ABC
      6.57665      8.14549      8.45806
    113.41074     95.58360    101.27127
%ENDBLOCK LATTICE_ABC

%BLOCK POSITIONS_FRAC
  Li  -0.3339517   0.4981609   0.3257935 SPIN=   0.00000
  Li   0.3339517  -0.4981609  -0.3257935 SPIN=   0.00000
  Li   0.2204054  -0.0586290   0.3733941 SPIN=   0.00000
  Li  -0.2204054   0.0586290  -0.3733941 SPIN=   0.00000
  Fe  -0.2114082  -0.3554433   0.0653659 SPIN=   4.08126
  Fe   0.2114082   0.3554433  -0.0653659 SPIN=   4.08126
  Fe   0.1463694  -0.1480396  -0.2455720 SPIN=   3.91874
  Fe  -0.1463694   0.1480396   0.2455720 SPIN=   3.91874
   O   0.4326107   0.3201792   0.3333857 SPIN=   0.00000
   O   0.5068470   0.0243522   0.1466523 SPIN=   0.00000
   O   0.2907499   0.1705348   0.0133644 SPIN=   0.00000
   O   0.1457509   0.0307126   0.2035807 SPIN=   0.00000
   S   0.3439896   0.1364447   0.1742457 SPIN=   0.00000
   O  -0.4326107  -0.3201792  -0.3333857 SPIN=   0.00000
   O  -0.5068470  -0.0243522  -0.1466523 SPIN=   0.00000
   O  -0.2907499  -0.1705348  -0.0133644 SPIN=   0.00000
   O  -0.1457509  -0.0307126  -0.2035807 SPIN=   0.00000
   S  -0.3439896  -0.1364447  -0.1742457 SPIN=   0.00000
   O  -0.0460384   0.3069432  -0.2571387 SPIN=   0.00000
   O  -0.2487272   0.5419586  -0.2168103 SPIN=   0.00000
   O  -0.2653035   0.3022293  -0.5146349 SPIN=   0.00000
   O   0.0628371   0.5513991  -0.3582842 SPIN=   0.00000
   S  -0.1243080   0.4256326  -0.3367170 SPIN=   0.00000
   O   0.0460384  -0.3069432   0.2571387 SPIN=   0.00000
   O   0.2487272  -0.5419586   0.2168103 SPIN=   0.00000
   O   0.2653035  -0.3022293   0.5146349 SPIN=   0.00000
   O  -0.0628371  -0.5513991   0.3582842 SPIN=   0.00000
   S   0.1243080  -0.4256326   0.3367170 SPIN=   0.00000
   F  -0.3056995   0.3566939   0.0027478 SPIN=   0.00000
   F   0.3056995  -0.3566939  -0.0027478 SPIN=   0.00000
   F  -0.2937609  -0.1915552   0.4099749 SPIN=   0.00000
   F   0.2937609   0.1915552  -0.4099749 SPIN=   0.00000
%ENDBLOCK POSITIONS_FRAC

# Note: total spin =  16.00

KPOINTS_MP_SPACING 0.07

%BLOCK SPECIES_POT
QC5
%ENDBLOCK SPECIES_POT

SNAP_TO_SYMMETRY
SYMMETRY_GENERATE

