#              Generated by Buildcell
#
# at 08:03:32 (GMT+1.0) 4th August 2020
# in /lustre/scratch/uccabz1/launch_tmp
# on node-c12d-014
# by uccabz1
#
# compiler GCC version 4.9.2
# options -cpp -iprefix /lustre/shared/ucl/apps/gcc/4.9.2/bin/../lib/gcc/x86_64-unknown-linux-gnu/4.9.2/ -mtune=corei7 -march=x86-64 -g -Og
#
# seed -1302472180  1243378468 -2106246564   273575471 -1361720490   683452162  -814677390   812445888  1131132162  -862792546 -1527534329 -1933538365
#
#      Author: C. J. Pickard (cjp20@cam.ac.uk)
#                Space group: Pc
#

%BLOCK LATTICE_ABC
      5.15506      9.13637      9.28950
    113.90205     90.00000     90.00000
%ENDBLOCK LATTICE_ABC

%BLOCK POSITIONS_FRAC
  Li  -0.3040115  -0.3831587  -0.1448170 SPIN=   0.00000
  Li   0.3040115  -0.3831587   0.3551830 SPIN=   0.00000
  Li  -0.1527561  -0.0917473  -0.2902589 SPIN=   0.00000
  Li   0.1527561  -0.0917473   0.2097411 SPIN=   0.00000
  Fe  -0.0829913   0.2219767  -0.3565119 SPIN=   2.08511
  Fe   0.0829913   0.2219767   0.1434881 SPIN=   2.08511
  Fe  -0.1978385  -0.2251815   0.3684533 SPIN=   5.91489
  Fe   0.1978385  -0.2251815  -0.1315467 SPIN=   5.91489
   O   0.4694869  -0.2213630  -0.4496497 SPIN=   0.00000
   O   0.0820747  -0.0565522  -0.4368557 SPIN=   0.00000
   O   0.5196136   0.0648831  -0.3984910 SPIN=   0.00000
   O   0.3297111  -0.0119920  -0.1944046 SPIN=   0.00000
   S   0.3502216  -0.0562560  -0.3698502 SPIN=   0.00000
   O  -0.4694869  -0.2213630   0.0503503 SPIN=   0.00000
   O  -0.0820747  -0.0565522   0.0631443 SPIN=   0.00000
   O  -0.5196136   0.0648831   0.1015090 SPIN=   0.00000
   O  -0.3297111  -0.0119920   0.3055954 SPIN=   0.00000
   S  -0.3502216  -0.0562560   0.1301498 SPIN=   0.00000
   O  -0.2378391  -0.5025896   0.0625671 SPIN=   0.00000
   O   0.1965638  -0.6268702  -0.0063838 SPIN=   0.00000
   O   0.1557925  -0.3402849   0.1715554 SPIN=   0.00000
   O   0.0516708  -0.4311741  -0.1115643 SPIN=   0.00000
   S   0.0415470  -0.4752297   0.0290436 SPIN=   0.00000
   O   0.2378391  -0.5025896  -0.4374329 SPIN=   0.00000
   O  -0.1965638  -0.6268702  -0.5063838 SPIN=   0.00000
   O  -0.1557925  -0.3402849  -0.3284446 SPIN=   0.00000
   O  -0.0516708  -0.4311741  -0.6115643 SPIN=   0.00000
   S  -0.0415470  -0.4752297  -0.4709564 SPIN=   0.00000
   F  -0.4748098   0.3954766  -0.2538612 SPIN=   0.00000
   F   0.4748098   0.3954766   0.2461388 SPIN=   0.00000
   F  -0.1421953   0.1271726  -0.1044958 SPIN=   0.00000
   F   0.1421953   0.1271726   0.3955042 SPIN=   0.00000
%ENDBLOCK POSITIONS_FRAC

# Note: total spin =  16.00

KPOINTS_MP_SPACING 0.07

%BLOCK SPECIES_POT
QC5
%ENDBLOCK SPECIES_POT

SNAP_TO_SYMMETRY
SYMMETRY_GENERATE

