#              Generated by Buildcell
#
# at 07:56:14 (GMT+1.0) 4th August 2020
# in /lustre/scratch/uccabz1/launch_tmp
# on node-c12d-029
# by uccabz1
#
# compiler GCC version 4.9.2
# options -cpp -iprefix /lustre/shared/ucl/apps/gcc/4.9.2/bin/../lib/gcc/x86_64-unknown-linux-gnu/4.9.2/ -mtune=corei7 -march=x86-64 -g -Og
#
# seed  -855108003    90895967   780790731  1269700909 -2111122588   972724212  1781810174  1976040118   761100486  1179613497   374013397 -1079010526
#
#      Author: C. J. Pickard (cjp20@cam.ac.uk)
#                Space group: P21
#

%BLOCK LATTICE_ABC
      5.06775      8.98946      9.38931
    110.74886     90.00000     90.00000
%ENDBLOCK LATTICE_ABC

%BLOCK POSITIONS_FRAC
  Li  -0.0360316   0.4772846   0.1916489 SPIN=   0.00000
  Li   0.4639684  -0.4772846  -0.1916489 SPIN=   0.00000
  Li  -0.0498521   0.1685118  -0.2849117 SPIN=   0.00000
  Li   0.4501479  -0.1685118   0.2849117 SPIN=   0.00000
  Fe  -0.0832319   0.3581354   0.4826960 SPIN=   5.35543
  Fe   0.4167681  -0.3581354  -0.4826960 SPIN=   5.35543
  Fe  -0.0358633  -0.3073099  -0.0899942 SPIN=   2.64457
  Fe   0.4641367   0.3073099   0.0899942 SPIN=   2.64457
   O   0.5630287   0.0585345  -0.5039685 SPIN=   0.00000
   O   0.5680066   0.3519425  -0.3829663 SPIN=   0.00000
   O   0.4102291   0.1868604  -0.2380130 SPIN=   0.00000
   O   0.1428857   0.2085780  -0.4503682 SPIN=   0.00000
   S   0.4210375   0.2014788  -0.3938290 SPIN=   0.00000
   O   0.0630287  -0.0585345   0.5039685 SPIN=   0.00000
   O   0.0680066  -0.3519425   0.3829663 SPIN=   0.00000
   O  -0.0897709  -0.1868604   0.2380130 SPIN=   0.00000
   O  -0.3571143  -0.2085780   0.4503682 SPIN=   0.00000
   S  -0.0789625  -0.2014788   0.3938290 SPIN=   0.00000
   O   0.2461127  -0.0176592   0.2187384 SPIN=   0.00000
   O   0.1108309   0.2319355   0.1842006 SPIN=   0.00000
   O  -0.2227258   0.0647167   0.2485222 SPIN=   0.00000
   O  -0.0162494  -0.0280423  -0.0069046 SPIN=   0.00000
   S   0.0294921   0.0627377   0.1611391 SPIN=   0.00000
   O  -0.2538873   0.0176592  -0.2187384 SPIN=   0.00000
   O  -0.3891691  -0.2319355  -0.1842006 SPIN=   0.00000
   O  -0.7227258  -0.0647167  -0.2485222 SPIN=   0.00000
   O  -0.5162494   0.0280423   0.0069046 SPIN=   0.00000
   S  -0.4705079  -0.0627377  -0.1611391 SPIN=   0.00000
   F   0.0410988  -0.4021098  -0.3222811 SPIN=   0.00000
   F  -0.4589012   0.4021098   0.3222811 SPIN=   0.00000
   F  -0.0765613   0.3144568  -0.0770729 SPIN=   0.00000
   F   0.4234387  -0.3144568   0.0770729 SPIN=   0.00000
%ENDBLOCK POSITIONS_FRAC

# Note: total spin =  16.00

KPOINTS_MP_SPACING 0.07

%BLOCK SPECIES_POT
QC5
%ENDBLOCK SPECIES_POT

SNAP_TO_SYMMETRY
SYMMETRY_GENERATE

