#              Generated by Buildcell
#
# at 09:04:36 (GMT+1.0) 18th August 2020
# in /lustre/scratch/uccabz1/launch_tmp
# on node-c12l-008
# by uccabz1
#
# compiler GCC version 4.9.2
# options -cpp -iprefix /lustre/shared/ucl/apps/gcc/4.9.2/bin/../lib/gcc/x86_64-unknown-linux-gnu/4.9.2/ -mtune=corei7 -march=x86-64 -g -Og
#
# seed  1817537373  1093796646  1639967628  -276231927   210275094  1084982553  1870494360 -1844260611   145316061   134611380 -1153155638   758651384
#
#      Author: C. J. Pickard (cjp20@cam.ac.uk)
#                Space group: P-1
#

%BLOCK LATTICE_ABC
      4.07585      9.65267     11.17677
     67.44375     86.57357     80.07416
%ENDBLOCK LATTICE_ABC

%BLOCK POSITIONS_FRAC
  Li  -0.4044537   0.3996502   0.1907809 SPIN=   0.00000
  Li   0.4044537  -0.3996502  -0.1907809 SPIN=   0.00000
  Li   0.0846510  -0.2137873   0.4423832 SPIN=   0.00000
  Li  -0.0846510   0.2137873  -0.4423832 SPIN=   0.00000
  Fe   0.1612117  -0.2947780   0.0329448 SPIN=   2.70851
  Fe  -0.1612117   0.2947780  -0.0329448 SPIN=   2.70851
  Fe   0.3460155   0.3894456  -0.3358634 SPIN=   5.29149
  Fe  -0.3460155  -0.3894456   0.3358634 SPIN=   5.29149
   O   0.1496636   0.0283569   0.3929515 SPIN=   0.00000
   O   0.5596063   0.1858617   0.2618115 SPIN=   0.00000
   O   0.3977365   0.1894767   0.4776978 SPIN=   0.00000
   O  -0.0046964   0.3083571   0.2951499 SPIN=   0.00000
   S   0.2755775   0.1780131   0.3569027 SPIN=   0.00000
   O  -0.1496636  -0.0283569  -0.3929515 SPIN=   0.00000
   O  -0.5596063  -0.1858617  -0.2618115 SPIN=   0.00000
   O  -0.3977365  -0.1894767  -0.4776978 SPIN=   0.00000
   O   0.0046964  -0.3083571  -0.2951499 SPIN=   0.00000
   S  -0.2755775  -0.1780131  -0.3569027 SPIN=   0.00000
   O   0.2395962  -0.1694402   0.1852359 SPIN=   0.00000
   O  -0.2897559  -0.0264923   0.0717979 SPIN=   0.00000
   O   0.0246762   0.0874665   0.1830646 SPIN=   0.00000
   O  -0.2621234  -0.1288122   0.3113363 SPIN=   0.00000
   S  -0.0719017  -0.0593196   0.1878587 SPIN=   0.00000
   O  -0.2395962   0.1694402  -0.1852359 SPIN=   0.00000
   O   0.2897559   0.0264923  -0.0717979 SPIN=   0.00000
   O  -0.0246762  -0.0874665  -0.1830646 SPIN=   0.00000
   O   0.2621234   0.1288122  -0.3113363 SPIN=   0.00000
   S   0.0719017   0.0593196  -0.1878587 SPIN=   0.00000
   F   0.3251709   0.3034939   0.0274755 SPIN=   0.00000
   F  -0.3251709  -0.3034939  -0.0274755 SPIN=   0.00000
   F  -0.1819444   0.4503661  -0.3164074 SPIN=   0.00000
   F   0.1819444  -0.4503661   0.3164074 SPIN=   0.00000
%ENDBLOCK POSITIONS_FRAC

# Note: total spin =  16.00

KPOINTS_MP_SPACING 0.07

%BLOCK SPECIES_POT
QC5
%ENDBLOCK SPECIES_POT

SNAP_TO_SYMMETRY
SYMMETRY_GENERATE

