#              Generated by Buildcell
#
# at 10:19:54 (GMT+1.0) 18th August 2020
# in /lustre/scratch/uccabz1/launch_tmp
# on node-c12m-012
# by uccabz1
#
# compiler GCC version 4.9.2
# options -cpp -iprefix /lustre/shared/ucl/apps/gcc/4.9.2/bin/../lib/gcc/x86_64-unknown-linux-gnu/4.9.2/ -mtune=corei7 -march=x86-64 -g -Og
#
# seed  -131902035  1205059559  -519583926 -1140854088   338180550 -1700078487  -810007541  -157865694  -636282367  1307312795  1811778834  1918753540
#
#      Author: C. J. Pickard (cjp20@cam.ac.uk)
#                Space group: P212121
#

%BLOCK LATTICE_ABC
      3.97093      9.91567     10.15888
     90.00000     90.00000     90.00000
%ENDBLOCK LATTICE_ABC

%BLOCK POSITIONS_FRAC
  Li  -0.1741663   0.2678873  -0.4449359 SPIN=   0.00000
  Li   0.1741663   0.2321127   0.0550641 SPIN=   0.00000
  Li   0.3258337  -0.2678873  -0.0550641 SPIN=   0.00000
  Li  -0.3258337  -0.2321127   0.4449359 SPIN=   0.00000
  Fe  -0.3292466   0.4111285  -0.0740832 SPIN=   4.00000
  Fe   0.3292466   0.0888715   0.4259168 SPIN=   4.00000
  Fe   0.1707534  -0.4111285  -0.4259168 SPIN=   4.00000
  Fe  -0.1707534  -0.0888715   0.0740832 SPIN=   4.00000
   O  -0.0021023   0.4234370   0.1725056 SPIN=   0.00000
   O   0.0305845   0.3826311   0.4125046 SPIN=   0.00000
   O  -0.0305902   0.1903817   0.2589922 SPIN=   0.00000
   O  -0.5071215   0.3471276   0.2942984 SPIN=   0.00000
   S  -0.1273074   0.3358943   0.2845752 SPIN=   0.00000
   O   0.0021023   0.0765630  -0.3274944 SPIN=   0.00000
   O  -0.0305845   0.1173689  -0.0874954 SPIN=   0.00000
   O   0.0305902   0.3096183  -0.2410078 SPIN=   0.00000
   O   0.5071215   0.1528724  -0.2057016 SPIN=   0.00000
   S   0.1273074   0.1641057  -0.2154248 SPIN=   0.00000
   O   0.4978977  -0.4234370   0.3274944 SPIN=   0.00000
   O   0.5305845  -0.3826311   0.0874954 SPIN=   0.00000
   O   0.4694098  -0.1903817   0.2410078 SPIN=   0.00000
   O  -0.0071215  -0.3471276   0.2057016 SPIN=   0.00000
   S   0.3726926  -0.3358943   0.2154248 SPIN=   0.00000
   O  -0.4978977  -0.0765630  -0.1725056 SPIN=   0.00000
   O  -0.5305845  -0.1173689  -0.4125046 SPIN=   0.00000
   O  -0.4694098  -0.3096183  -0.2589922 SPIN=   0.00000
   O   0.0071215  -0.1528724  -0.2942984 SPIN=   0.00000
   S  -0.3726926  -0.1641057  -0.2845752 SPIN=   0.00000
   F   0.4694086   0.0711607   0.1023524 SPIN=   0.00000
   F  -0.4694086   0.4288393  -0.3976476 SPIN=   0.00000
   F  -0.0305914  -0.0711607   0.3976476 SPIN=   0.00000
   F   0.0305914  -0.4288393  -0.1023524 SPIN=   0.00000
%ENDBLOCK POSITIONS_FRAC

# Note: total spin =  16.00

KPOINTS_MP_SPACING 0.07

%BLOCK SPECIES_POT
QC5
%ENDBLOCK SPECIES_POT

SNAP_TO_SYMMETRY
SYMMETRY_GENERATE

