#              Generated by Buildcell
#
# at 06:55:49 (GMT+1.0) 4th August 2020
# in /lustre/scratch/uccabz1/launch_tmp
# on node-c12p-019
# by uccabz1
#
# compiler GCC version 4.9.2
# options -cpp -iprefix /lustre/shared/ucl/apps/gcc/4.9.2/bin/../lib/gcc/x86_64-unknown-linux-gnu/4.9.2/ -mtune=corei7 -march=x86-64 -g -Og
#
# seed   913032289   942875853   355091987   783475967 -1371675769  1496927457   -14651516  1673942901 -1359650540  1221888021   117528822  -833876452
#
#      Author: C. J. Pickard (cjp20@cam.ac.uk)
#                Space group: C2
#

%BLOCK LATTICE_ABC
      7.55790      7.55790      8.61944
    107.57730    113.84488    101.21840
%ENDBLOCK LATTICE_ABC

%BLOCK POSITIONS_FRAC
  Li   0.1988946   0.3084778   0.4408045 SPIN=   0.00000
  Li  -0.1323266  -0.2419099  -0.4408045 SPIN=   0.00000
  Li   0.4716778  -0.2208936   0.1519669 SPIN=   0.00000
  Li  -0.3728605   0.3197109  -0.1519669 SPIN=   0.00000
  Fe  -0.0653261   0.1553305  -0.1902912 SPIN=   2.14957
  Fe   0.3456217   0.1249651   0.1902912 SPIN=   2.14957
  Fe   0.1843661  -0.3949908   0.2606864 SPIN=   5.85043
  Fe   0.3443228  -0.0763203  -0.2606864 SPIN=   5.85043
   O  -0.2178512   0.6143054   0.1607064 SPIN=   0.00000
   O  -0.2339203   0.2680077   0.0978271 SPIN=   0.00000
   O  -0.5141549   0.3692619   0.1299509 SPIN=   0.00000
   O  -0.1657989   0.4950614   0.4078542 SPIN=   0.00000
   S  -0.2829313   0.4366591   0.1990847 SPIN=   0.00000
   O   0.4535990  -0.3785576  -0.1607064 SPIN=   0.00000
   O   0.1701806  -0.3317474  -0.0978271 SPIN=   0.00000
   O   0.2393110  -0.6441058  -0.1299509 SPIN=   0.00000
   O   0.0872072  -0.5736531  -0.4078542 SPIN=   0.00000
   S   0.2375744  -0.4820160  -0.1990847 SPIN=   0.00000
   O  -0.2275631   0.1763863   0.3620848 SPIN=   0.00000
   O  -0.2593111  -0.1549403   0.3641398 SPIN=   0.00000
   O   0.0881398   0.1014206   0.5078550 SPIN=   0.00000
   O  -0.1383726  -0.0595901   0.1633784 SPIN=   0.00000
   S  -0.1342768   0.0158191   0.3493645 SPIN=   0.00000
   O  -0.1856985  -0.5896479  -0.3620848 SPIN=   0.00000
   O  -0.5190800  -0.6234509  -0.3641398 SPIN=   0.00000
   O  -0.4064344  -0.4197152  -0.5078550 SPIN=   0.00000
   O  -0.2229686  -0.3017510  -0.1633784 SPIN=   0.00000
   S  -0.3335454  -0.4836413  -0.3493645 SPIN=   0.00000
   F   0.1042990  -0.0361926  -0.2053265 SPIN=   0.00000
   F   0.1691339   0.3096255   0.2053265 SPIN=   0.00000
   F   0.2781388  -0.1113250   0.2640953 SPIN=   0.00000
   F  -0.3754203   0.0140436  -0.2640953 SPIN=   0.00000
%ENDBLOCK POSITIONS_FRAC

# Note: total spin =  16.00

KPOINTS_MP_SPACING 0.07

%BLOCK SPECIES_POT
QC5
%ENDBLOCK SPECIES_POT

SNAP_TO_SYMMETRY
SYMMETRY_GENERATE

