#              Generated by Buildcell
#
# at 02:47:19 (GMT+1.0) 18th August 2020
# in /lustre/scratch/uccabz1/launch_tmp
# on node-c12h-022
# by uccabz1
#
# compiler GCC version 4.9.2
# options -cpp -iprefix /lustre/shared/ucl/apps/gcc/4.9.2/bin/../lib/gcc/x86_64-unknown-linux-gnu/4.9.2/ -mtune=corei7 -march=x86-64 -g -Og
#
# seed -1801901447  1339672085    67514865 -1181881361 -1645717834   914318113 -2004640200   661091869  -788999290  -786850910 -1740451954  -963766319
#
#      Author: C. J. Pickard (cjp20@cam.ac.uk)
#                Space group: Pnc2
#

%BLOCK LATTICE_ABC
      6.28507      7.58510      8.39052
     90.00000     90.00000     90.00000
%ENDBLOCK LATTICE_ABC

%BLOCK POSITIONS_FRAC
  Li   0.2499927  -0.1535592   0.4073357 SPIN=   0.00000
  Li  -0.2499927  -0.1535592  -0.4073357 SPIN=   0.00000
  Li   0.2500073   0.3464408   0.4073357 SPIN=   0.00000
  Li  -0.2500073   0.3464408  -0.4073357 SPIN=   0.00000
  Fe  -0.2094593   0.4962583   0.2129250 SPIN=   4.00000
  Fe   0.2094593   0.4962583  -0.2129250 SPIN=   4.00000
  Fe  -0.2905407  -0.0037417   0.2129250 SPIN=   4.00000
  Fe   0.2905407  -0.0037417  -0.2129250 SPIN=   4.00000
   O   0.3788826   0.0594927   0.2904700 SPIN=   0.00000
   O   0.0550937  -0.0591687   0.1613606 SPIN=   0.00000
   O   0.3134967   0.1148808   0.0039463 SPIN=   0.00000
   O   0.0904179   0.2617569   0.2075372 SPIN=   0.00000
   S   0.2094727   0.0942404   0.1658285 SPIN=   0.00000
   O  -0.3788826   0.0594927  -0.2904700 SPIN=   0.00000
   O  -0.0550937  -0.0591687  -0.1613606 SPIN=   0.00000
   O  -0.3134967   0.1148808  -0.0039463 SPIN=   0.00000
   O  -0.0904179   0.2617569  -0.2075372 SPIN=   0.00000
   S  -0.2094727   0.0942404  -0.1658285 SPIN=   0.00000
   O   0.1211174  -0.4405073   0.2904700 SPIN=   0.00000
   O   0.4449063  -0.5591687   0.1613606 SPIN=   0.00000
   O   0.1865033  -0.3851192   0.0039463 SPIN=   0.00000
   O   0.4095821  -0.2382431   0.2075372 SPIN=   0.00000
   S   0.2905273  -0.4057596   0.1658285 SPIN=   0.00000
   O  -0.1211174  -0.4405073  -0.2904700 SPIN=   0.00000
   O  -0.4449063  -0.5591687  -0.1613606 SPIN=   0.00000
   O  -0.1865033  -0.3851192  -0.0039463 SPIN=   0.00000
   O  -0.4095821  -0.2382431  -0.2075372 SPIN=   0.00000
   S  -0.2905273  -0.4057596  -0.1658285 SPIN=   0.00000
   F  -0.2285786  -0.1930965   0.3602305 SPIN=   0.00000
   F   0.2285786  -0.1930965  -0.3602305 SPIN=   0.00000
   F  -0.2714214   0.3069035   0.3602305 SPIN=   0.00000
   F   0.2714214   0.3069035  -0.3602305 SPIN=   0.00000
%ENDBLOCK POSITIONS_FRAC

# Note: total spin =  16.00

KPOINTS_MP_SPACING 0.07

%BLOCK SPECIES_POT
QC5
%ENDBLOCK SPECIES_POT

SNAP_TO_SYMMETRY
SYMMETRY_GENERATE

