#              Generated by Buildcell
#
# at 08:47:22 (GMT+1.0) 18th August 2020
# in /lustre/scratch/uccabz1/launch_tmp
# on node-c12p-014
# by uccabz1
#
# compiler GCC version 4.9.2
# options -cpp -iprefix /lustre/shared/ucl/apps/gcc/4.9.2/bin/../lib/gcc/x86_64-unknown-linux-gnu/4.9.2/ -mtune=corei7 -march=x86-64 -g -Og
#
# seed  -888253435  1127088514  -734489756   -49143107  2139774262   744528810  1314552806  -564332487 -1787979640  -305080571   -91106563  -140459711
#
#      Author: C. J. Pickard (cjp20@cam.ac.uk)
#                Space group: C2
#

%BLOCK LATTICE_ABC
      4.13071     10.11293     10.11293
    101.67557     99.27913     99.27913
%ENDBLOCK LATTICE_ABC

%BLOCK POSITIONS_FRAC
  Li   0.0595065   0.2841551   0.4375005 SPIN=   0.00000
  Li  -0.0595065  -0.4375005  -0.2841551 SPIN=   0.00000
  Li  -0.5000000  -0.0025363   0.0025363 SPIN=   0.00000
  Li  -0.5000000   0.2333138  -0.2333138 SPIN=   0.00000
  Fe   0.0972979  -0.2818770   0.0163699 SPIN=   4.15130
  Fe  -0.0972979  -0.0163699   0.2818770 SPIN=   4.15130
  Fe  -0.0934354  -0.2513462  -0.4845254 SPIN=   3.84870
  Fe   0.0934354   0.4845254   0.2513462 SPIN=   3.84870
   O   0.5809726   0.2087134   0.1126429 SPIN=   0.00000
   O   0.5067472   0.1056963   0.3105751 SPIN=   0.00000
   O   0.1095637   0.2450056   0.2296696 SPIN=   0.00000
   O   0.6900799   0.3580801   0.3478936 SPIN=   0.00000
   S   0.4718409   0.2293739   0.2501953 SPIN=   0.00000
   O  -0.5809726  -0.1126429  -0.2087134 SPIN=   0.00000
   O  -0.5067472  -0.3105751  -0.1056963 SPIN=   0.00000
   O  -0.1095637  -0.2296696  -0.2450056 SPIN=   0.00000
   O  -0.6900799  -0.3478936  -0.3580801 SPIN=   0.00000
   S  -0.4718409  -0.2501953  -0.2293739 SPIN=   0.00000
   O  -0.2333343   0.1255705  -0.4710111 SPIN=   0.00000
   O  -0.3016237  -0.0880365  -0.3857595 SPIN=   0.00000
   O  -0.6454298  -0.0817773  -0.6078932 SPIN=   0.00000
   O  -0.7483114   0.0482784  -0.3887785 SPIN=   0.00000
   S  -0.4821748   0.0010088  -0.4633606 SPIN=   0.00000
   O   0.2333343   0.4710111  -0.1255705 SPIN=   0.00000
   O   0.3016237   0.3857595   0.0880365 SPIN=   0.00000
   O   0.6454298   0.6078932   0.0817773 SPIN=   0.00000
   O   0.7483114   0.3887785  -0.0482784 SPIN=   0.00000
   S   0.4821748   0.4633606  -0.0010088 SPIN=   0.00000
   F   0.5000000  -0.1191521   0.1191521 SPIN=   0.00000
   F  -0.0000000   0.1160023  -0.1160023 SPIN=   0.00000
   F   0.5000000  -0.3843670   0.3843670 SPIN=   0.00000
   F  -0.5000000   0.3528459  -0.3528459 SPIN=   0.00000
%ENDBLOCK POSITIONS_FRAC

# Note: total spin =  16.00

KPOINTS_MP_SPACING 0.07

%BLOCK SPECIES_POT
QC5
%ENDBLOCK SPECIES_POT

SNAP_TO_SYMMETRY
SYMMETRY_GENERATE

