#              Generated by Buildcell
#
# at 00:07:16 (GMT+1.0) 18th August 2020
# in /lustre/scratch/uccabz1/launch_tmp
# on node-c12f-013
# by uccabz1
#
# compiler GCC version 4.9.2
# options -cpp -iprefix /lustre/shared/ucl/apps/gcc/4.9.2/bin/../lib/gcc/x86_64-unknown-linux-gnu/4.9.2/ -mtune=corei7 -march=x86-64 -g -Og
#
# seed  1875419237  -803074214  -989274346   648873683 -1099580095   -18152816   306847946   273724823 -1723091538   797463337  1976010633   500886426
#
#      Author: C. J. Pickard (cjp20@cam.ac.uk)
#                Space group: P21/c
#

%BLOCK LATTICE_ABC
      5.82934      7.79607      9.03589
    103.07409     90.00000     90.00000
%ENDBLOCK LATTICE_ABC

%BLOCK POSITIONS_FRAC
  Li  -0.1776147   0.4546962   0.1599906 SPIN=   0.00000
  Li   0.3223853   0.0453038  -0.1599906 SPIN=   0.00000
  Li   0.1776147  -0.4546962  -0.1599906 SPIN=   0.00000
  Li  -0.3223853  -0.0453038   0.1599906 SPIN=   0.00000
  Fe  -0.0463618   0.2280345   0.3730649 SPIN=   4.00000
  Fe   0.4536382   0.2719655  -0.3730649 SPIN=   4.00000
  Fe   0.0463618  -0.2280345  -0.3730649 SPIN=   4.00000
  Fe  -0.4536382  -0.2719655   0.3730649 SPIN=   4.00000
   O  -0.1755924  -0.2533289  -0.2023196 SPIN=   0.00000
   O  -0.4365646  -0.2754632   0.0085955 SPIN=   0.00000
   O  -0.1445078  -0.5062262  -0.0800917 SPIN=   0.00000
   O  -0.4792801  -0.4810077  -0.2422761 SPIN=   0.00000
   S  -0.3089862  -0.3790065  -0.1290230 SPIN=   0.00000
   O   0.3244076  -0.2466711   0.2023196 SPIN=   0.00000
   O   0.0634354  -0.2245368  -0.0085955 SPIN=   0.00000
   O   0.3554922   0.0062262   0.0800917 SPIN=   0.00000
   O   0.0207199  -0.0189923   0.2422761 SPIN=   0.00000
   S   0.1910138  -0.1209935   0.1290230 SPIN=   0.00000
   O   0.1755924   0.2533289   0.2023196 SPIN=   0.00000
   O   0.4365646   0.2754632  -0.0085955 SPIN=   0.00000
   O   0.1445078   0.5062262   0.0800917 SPIN=   0.00000
   O   0.4792801   0.4810077   0.2422761 SPIN=   0.00000
   S   0.3089862   0.3790065   0.1290230 SPIN=   0.00000
   O  -0.3244076   0.2466711  -0.2023196 SPIN=   0.00000
   O  -0.0634354   0.2245368   0.0085955 SPIN=   0.00000
   O  -0.3554922  -0.0062262  -0.0800917 SPIN=   0.00000
   O  -0.0207199   0.0189923  -0.2422761 SPIN=   0.00000
   S  -0.1910138   0.1209935  -0.1290230 SPIN=   0.00000
   F  -0.1358836  -0.3643437   0.3493552 SPIN=   0.00000
   F   0.3641164  -0.1356563  -0.3493552 SPIN=   0.00000
   F   0.1358836   0.3643437  -0.3493552 SPIN=   0.00000
   F  -0.3641164   0.1356563   0.3493552 SPIN=   0.00000
%ENDBLOCK POSITIONS_FRAC

# Note: total spin =  16.00

KPOINTS_MP_SPACING 0.07

%BLOCK SPECIES_POT
QC5
%ENDBLOCK SPECIES_POT

SNAP_TO_SYMMETRY
SYMMETRY_GENERATE

