#              Generated by Buildcell
#
# at 07:42:33 (GMT+1.0) 4th August 2020
# in /lustre/scratch/uccabz1/launch_tmp
# on node-c12k-031
# by uccabz1
#
# compiler GCC version 4.9.2
# options -cpp -iprefix /lustre/shared/ucl/apps/gcc/4.9.2/bin/../lib/gcc/x86_64-unknown-linux-gnu/4.9.2/ -mtune=corei7 -march=x86-64 -g -Og
#
# seed   619831608  1827107083  1790217340  2133987563   304102786  1750144924  -653908040   752366938  -494605269  1641580305   677089987 -1645771928
#
#      Author: C. J. Pickard (cjp20@cam.ac.uk)
#                Space group: P21212
#

%BLOCK LATTICE_ABC
      4.70237      9.14107      9.30564
     90.00000     90.00000     90.00000
%ENDBLOCK LATTICE_ABC

%BLOCK POSITIONS_FRAC
  Li   0.4563737  -0.2087006   0.2297157 SPIN=   0.00000
  Li   0.4563737   0.2087006  -0.2297157 SPIN=   0.00000
  Li  -0.4563737  -0.2912994  -0.2702843 SPIN=   0.00000
  Li  -0.4563737   0.2912994   0.2702843 SPIN=   0.00000
  Fe   0.1069015   0.2074528   0.4959849 SPIN=   4.00000
  Fe   0.1069015  -0.2074528  -0.4959849 SPIN=   4.00000
  Fe  -0.1069015   0.2925472  -0.0040151 SPIN=   4.00000
  Fe  -0.1069015  -0.2925472   0.0040151 SPIN=   4.00000
   O  -0.1094327  -0.0269834  -0.3592702 SPIN=   0.00000
   O   0.3593904  -0.0389274  -0.2389847 SPIN=   0.00000
   O  -0.0807996  -0.0796516  -0.0987983 SPIN=   0.00000
   O   0.0341677   0.1678914  -0.1895022 SPIN=   0.00000
   S   0.0508314   0.0055823  -0.2216388 SPIN=   0.00000
   O  -0.1094327   0.0269834   0.3592702 SPIN=   0.00000
   O   0.3593904   0.0389274   0.2389847 SPIN=   0.00000
   O  -0.0807996   0.0796516   0.0987983 SPIN=   0.00000
   O   0.0341677  -0.1678914   0.1895022 SPIN=   0.00000
   S   0.0508314  -0.0055823   0.2216388 SPIN=   0.00000
   O   0.1094327   0.5269834   0.1407298 SPIN=   0.00000
   O  -0.3593904   0.5389274   0.2610153 SPIN=   0.00000
   O   0.0807996   0.5796516   0.4012017 SPIN=   0.00000
   O  -0.0341677   0.3321086   0.3104978 SPIN=   0.00000
   S  -0.0508314   0.4944177   0.2783612 SPIN=   0.00000
   O   0.1094327  -0.5269834  -0.1407298 SPIN=   0.00000
   O  -0.3593904  -0.5389274  -0.2610153 SPIN=   0.00000
   O   0.0807996  -0.5796516  -0.4012017 SPIN=   0.00000
   O  -0.0341677  -0.3321086  -0.3104978 SPIN=   0.00000
   S  -0.0508314  -0.4944177  -0.2783612 SPIN=   0.00000
   F  -0.4340470  -0.2105654   0.4668172 SPIN=   0.00000
   F  -0.4340470   0.2105654  -0.4668172 SPIN=   0.00000
   F   0.4340470  -0.2894346  -0.0331828 SPIN=   0.00000
   F   0.4340470   0.2894346   0.0331828 SPIN=   0.00000
%ENDBLOCK POSITIONS_FRAC

# Note: total spin =  16.00

KPOINTS_MP_SPACING 0.07

%BLOCK SPECIES_POT
QC5
%ENDBLOCK SPECIES_POT

SNAP_TO_SYMMETRY
SYMMETRY_GENERATE

