#              Generated by Buildcell
#
# at 05:01:44 (GMT+1.0) 18th August 2020
# in /lustre/scratch/uccabz1/launch_tmp
# on node-c12j-020
# by uccabz1
#
# compiler GCC version 4.9.2
# options -cpp -iprefix /lustre/shared/ucl/apps/gcc/4.9.2/bin/../lib/gcc/x86_64-unknown-linux-gnu/4.9.2/ -mtune=corei7 -march=x86-64 -g -Og
#
# seed -1653049328  -709768047 -1212424479 -1545346374   463324174  -815689177 -1103758266  1569313636   109024269  -466730057  1144292737 -1933699490
#
#      Author: C. J. Pickard (cjp20@cam.ac.uk)
#                Space group: Cc
#

%BLOCK LATTICE_ABC
      3.98193      6.21091     17.19363
     86.84051     83.35042     71.30325
%ENDBLOCK LATTICE_ABC

%BLOCK POSITIONS_FRAC
  Li   0.0716903   0.3625673   0.1578953 SPIN=   0.00000
  Li   0.4078471  -0.1374327  -0.3421047 SPIN=   0.00000
  Li  -0.0522189   0.0937925  -0.1463878 SPIN=   0.00000
  Li   0.1048142  -0.4062075   0.3536122 SPIN=   0.00000
  Fe   0.5909275  -0.3902583  -0.1877325 SPIN=   3.66127
  Fe  -0.0129368   0.1097417   0.3122675 SPIN=   3.66127
  Fe  -0.0796503  -0.3438586   0.0003615 SPIN=   4.33873
  Fe   0.4231474   0.1561414  -0.4996385 SPIN=   4.33873
   O   0.6706889  -0.3547678   0.1745923 SPIN=   0.00000
   O   0.2061824   0.0059911   0.1455251 SPIN=   0.00000
   O   0.0598298  -0.2700674   0.2418236 SPIN=   0.00000
   O   0.1748007  -0.3583260   0.1007131 SPIN=   0.00000
   S   0.2778755  -0.2442925   0.1656635 SPIN=   0.00000
   O   0.5094866   0.1452322  -0.3254077 SPIN=   0.00000
   O   0.6423014   0.5059911  -0.3544749 SPIN=   0.00000
   O   0.9684140   0.2299326  -0.2581764 SPIN=   0.00000
   O   1.0828121   0.1416740  -0.3992869 SPIN=   0.00000
   S   0.8007535   0.2557075  -0.3343365 SPIN=   0.00000
   O  -0.7493973   0.2777604   0.0266499 SPIN=   0.00000
   O  -0.1350489   0.1901892  -0.0388530 SPIN=   0.00000
   O  -0.2577119  -0.0299629   0.0792649 SPIN=   0.00000
   O  -0.2897809   0.3717926   0.0906728 SPIN=   0.00000
   S  -0.3579848   0.2024448   0.0394337 SPIN=   0.00000
   O   0.4449870  -0.2222396  -0.4733501 SPIN=   0.00000
   O  -0.0162873  -0.3098108  -0.5388530 SPIN=   0.00000
   O   0.2084099  -0.5299629  -0.4207351 SPIN=   0.00000
   O  -0.1726845  -0.1282074  -0.4093272 SPIN=   0.00000
   S   0.1161063  -0.2975552  -0.4605663 SPIN=   0.00000
   F   0.0352901  -0.3053469  -0.2403572 SPIN=   0.00000
   F  -0.4895860   0.1946531   0.2596428 SPIN=   0.00000
   F   0.4085195  -0.2365471  -0.0545263 SPIN=   0.00000
   F  -0.1174461   0.2634529   0.4454737 SPIN=   0.00000
%ENDBLOCK POSITIONS_FRAC

# Note: total spin =  16.00

KPOINTS_MP_SPACING 0.07

%BLOCK SPECIES_POT
QC5
%ENDBLOCK SPECIES_POT

SNAP_TO_SYMMETRY
SYMMETRY_GENERATE

