#              Generated by Buildcell
#
# at 07:54:58 (GMT+1.0) 4th August 2020
# in /lustre/scratch/uccabz1/launch_tmp
# on node-c12d-003
# by uccabz1
#
# compiler GCC version 4.9.2
# options -cpp -iprefix /lustre/shared/ucl/apps/gcc/4.9.2/bin/../lib/gcc/x86_64-unknown-linux-gnu/4.9.2/ -mtune=corei7 -march=x86-64 -g -Og
#
# seed  -737825287   165594358  -603712148   -76277229   155290820    85560027 -1331193448 -1107770219  -107704500 -1979471698 -1888870572  1667548335
#
#      Author: C. J. Pickard (cjp20@cam.ac.uk)
#                Space group: P21
#

%BLOCK LATTICE_ABC
      5.71016      6.19529     11.51985
     90.00000    101.02935     90.00000
%ENDBLOCK LATTICE_ABC

%BLOCK POSITIONS_FRAC
  Li   0.3702881   0.3038894   0.0758885 SPIN=   0.00000
  Li  -0.3702881  -0.1961106  -0.0758885 SPIN=   0.00000
  Li  -0.3719790   0.4636189   0.4253874 SPIN=   0.00000
  Li   0.3719790  -0.0363811  -0.4253874 SPIN=   0.00000
  Fe  -0.1728016  -0.0957920   0.4866167 SPIN=   4.04199
  Fe   0.1728016   0.4042080  -0.4866167 SPIN=   4.04199
  Fe   0.1680872  -0.1304899   0.0041331 SPIN=   3.95801
  Fe  -0.1680872   0.3695101  -0.0041331 SPIN=   3.95801
   O   0.0404315   0.1893486   0.2315031 SPIN=   0.00000
   O   0.2375496  -0.1671194   0.2358467 SPIN=   0.00000
   O   0.3289113   0.0751080   0.4094613 SPIN=   0.00000
   O   0.4706716   0.1667393   0.2254985 SPIN=   0.00000
   S   0.2693910   0.0660191   0.2755774 SPIN=   0.00000
   O  -0.0404315  -0.3106514  -0.2315031 SPIN=   0.00000
   O  -0.2375496  -0.6671194  -0.2358467 SPIN=   0.00000
   O  -0.3289113  -0.4248920  -0.4094613 SPIN=   0.00000
   O  -0.4706716  -0.3332607  -0.2254985 SPIN=   0.00000
   S  -0.2693910  -0.4339809  -0.2755774 SPIN=   0.00000
   O  -0.4782350  -0.4610958   0.2442518 SPIN=   0.00000
   O  -0.2312884  -0.3521243   0.0994885 SPIN=   0.00000
   O  -0.0377444  -0.4718522   0.2998904 SPIN=   0.00000
   O  -0.2476442  -0.1206437   0.2728478 SPIN=   0.00000
   S  -0.2487280  -0.3514290   0.2291196 SPIN=   0.00000
   O   0.4782350   0.0389042  -0.2442518 SPIN=   0.00000
   O   0.2312884   0.1478757  -0.0994885 SPIN=   0.00000
   O   0.0377444   0.0281478  -0.2998904 SPIN=   0.00000
   O   0.2476442   0.3793563  -0.2728478 SPIN=   0.00000
   S   0.2487280   0.1485710  -0.2291196 SPIN=   0.00000
   F   0.1879727  -0.4391082   0.0056597 SPIN=   0.00000
   F  -0.1879727   0.0608918  -0.0056597 SPIN=   0.00000
   F  -0.1578626   0.2131463   0.4744740 SPIN=   0.00000
   F   0.1578626  -0.2868537  -0.4744740 SPIN=   0.00000
%ENDBLOCK POSITIONS_FRAC

# Note: total spin =  16.00

KPOINTS_MP_SPACING 0.07

%BLOCK SPECIES_POT
QC5
%ENDBLOCK SPECIES_POT

SNAP_TO_SYMMETRY
SYMMETRY_GENERATE

