#              Generated by Buildcell
#
# at 10:08:01 (GMT+1.0) 18th August 2020
# in /lustre/scratch/uccabz1/launch_tmp
# on node-c12g-030
# by uccabz1
#
# compiler GCC version 4.9.2
# options -cpp -iprefix /lustre/shared/ucl/apps/gcc/4.9.2/bin/../lib/gcc/x86_64-unknown-linux-gnu/4.9.2/ -mtune=corei7 -march=x86-64 -g -Og
#
# seed  1372173186  -253943603  1978785919  1423318310 -1144286739   479900445  -198577976   497990836 -1110404456  -236973260   -16950493  -303401454
#
#      Author: C. J. Pickard (cjp20@cam.ac.uk)
#                Space group: P21
#

%BLOCK LATTICE_ABC
      6.77501      7.11130      8.30520
     90.00000     90.00000     91.50020
%ENDBLOCK LATTICE_ABC

%BLOCK POSITIONS_FRAC
  Li  -0.4263385  -0.1684495   0.3897765 SPIN=   0.00000
  Li   0.4263385   0.1684495  -0.1102235 SPIN=   0.00000
  Li   0.0504378   0.4057276  -0.3481057 SPIN=   0.00000
  Li  -0.0504378  -0.4057276   0.1518943 SPIN=   0.00000
  Fe  -0.3889285   0.4788312  -0.3180989 SPIN=   3.37512
  Fe   0.3889285  -0.4788312   0.1819011 SPIN=   3.37512
  Fe  -0.0807268   0.2243429  -0.0322834 SPIN=   4.62488
  Fe   0.0807268  -0.2243429   0.4677166 SPIN=   4.62488
   O   0.1208578  -0.1409794  -0.2367742 SPIN=   0.00000
   O   0.3334598  -0.4123326  -0.2880181 SPIN=   0.00000
   O   0.0755966  -0.4328621  -0.0772227 SPIN=   0.00000
   O   0.3727741  -0.2286096  -0.0364490 SPIN=   0.00000
   S   0.2256721  -0.3036959  -0.1596160 SPIN=   0.00000
   O  -0.1208578   0.1409794   0.2632258 SPIN=   0.00000
   O  -0.3334598   0.4123326   0.2119819 SPIN=   0.00000
   O  -0.0755966   0.4328621   0.4227773 SPIN=   0.00000
   O  -0.3727741   0.2286096   0.4635510 SPIN=   0.00000
   S  -0.2256721   0.3036959   0.3403840 SPIN=   0.00000
   O   0.2845482  -0.0530054   0.3490077 SPIN=   0.00000
   O   0.1433678  -0.0293943   0.0751390 SPIN=   0.00000
   O   0.4812712   0.0950982   0.1298515 SPIN=   0.00000
   O   0.1925341   0.2570488   0.2411197 SPIN=   0.00000
   S   0.2754303   0.0674369   0.1987795 SPIN=   0.00000
   O  -0.2845482   0.0530054  -0.1509923 SPIN=   0.00000
   O  -0.1433678   0.0293943  -0.4248610 SPIN=   0.00000
   O  -0.4812712  -0.0950982  -0.3701485 SPIN=   0.00000
   O  -0.1925341  -0.2570488  -0.2588803 SPIN=   0.00000
   S  -0.2754303  -0.0674369  -0.3012205 SPIN=   0.00000
   F  -0.2703688   0.4332103  -0.0942158 SPIN=   0.00000
   F   0.2703688  -0.4332103   0.4057842 SPIN=   0.00000
   F   0.2503006   0.1893129  -0.3162473 SPIN=   0.00000
   F  -0.2503006  -0.1893129   0.1837527 SPIN=   0.00000
%ENDBLOCK POSITIONS_FRAC

# Note: total spin =  16.00

KPOINTS_MP_SPACING 0.07

%BLOCK SPECIES_POT
QC5
%ENDBLOCK SPECIES_POT

SNAP_TO_SYMMETRY
SYMMETRY_GENERATE

