#              Generated by Buildcell
#
# at 10:06:17 (GMT+1.0) 4th August 2020
# in /lustre/scratch/uccabz1/launch_tmp
# on node-c12c-017
# by uccabz1
#
# compiler GCC version 4.9.2
# options -cpp -iprefix /lustre/shared/ucl/apps/gcc/4.9.2/bin/../lib/gcc/x86_64-unknown-linux-gnu/4.9.2/ -mtune=corei7 -march=x86-64 -g -Og
#
# seed    99471239   822378320  -749227345 -2067437546  1244396161  1615339595   231752798 -1853393040 -2145142853  1584596419   -14578812 -1931561430
#
#      Author: C. J. Pickard (cjp20@cam.ac.uk)
#                Space group: Pc
#

%BLOCK LATTICE_ABC
      5.29345      6.61520     11.42865
     90.00000     90.00000     91.81181
%ENDBLOCK LATTICE_ABC

%BLOCK POSITIONS_FRAC
  Li   0.3414234  -0.1339091   0.3594145 SPIN=   0.00000
  Li   0.3414234   0.3660909  -0.3594145 SPIN=   0.00000
  Li  -0.2076782  -0.1515846   0.0826908 SPIN=   0.00000
  Li  -0.2076782   0.3484154  -0.0826908 SPIN=   0.00000
  Fe  -0.0258350   0.1713505   0.4190953 SPIN=   3.76003
  Fe  -0.0258350  -0.3286495  -0.4190953 SPIN=   3.76003
  Fe   0.4477108   0.1653239   0.1759024 SPIN=   4.23997
  Fe   0.4477108  -0.3346761  -0.1759024 SPIN=   4.23997
   O   0.4549042   0.0454943  -0.0450341 SPIN=   0.00000
   O   0.1453748   0.3100380  -0.0062437 SPIN=   0.00000
   O   0.0984440   0.0922895  -0.1814833 SPIN=   0.00000
   O   0.4470067   0.3499064  -0.1707031 SPIN=   0.00000
   S   0.2864324   0.1994320  -0.1008661 SPIN=   0.00000
   O   0.4549042  -0.4545057   0.0450341 SPIN=   0.00000
   O   0.1453748  -0.1899620   0.0062437 SPIN=   0.00000
   O   0.0984440  -0.4077105   0.1814833 SPIN=   0.00000
   O   0.4470067  -0.1500936   0.1707031 SPIN=   0.00000
   S   0.2864324  -0.3005680   0.1008661 SPIN=   0.00000
   O   0.7078231   0.0574520  -0.4719468 SPIN=   0.00000
   O   0.2457695  -0.0122592  -0.4752551 SPIN=   0.00000
   O   0.4607236   0.0725613  -0.2884929 SPIN=   0.00000
   O   0.5289971  -0.2573031  -0.3836573 SPIN=   0.00000
   S   0.4858283  -0.0348872  -0.4048380 SPIN=   0.00000
   O   0.7078231   0.5574520   0.4719468 SPIN=   0.00000
   O   0.2457695   0.4877408   0.4752551 SPIN=   0.00000
   O   0.4607236   0.5725613   0.2884929 SPIN=   0.00000
   O   0.5289971   0.2426969   0.3836573 SPIN=   0.00000
   S   0.4858283   0.4651128   0.4048380 SPIN=   0.00000
   F  -0.0565629  -0.1432936   0.3464367 SPIN=   0.00000
   F  -0.0565629   0.3567064  -0.3464367 SPIN=   0.00000
   F  -0.2404963  -0.2234696  -0.1497794 SPIN=   0.00000
   F  -0.2404963   0.2765304   0.1497794 SPIN=   0.00000
%ENDBLOCK POSITIONS_FRAC

# Note: total spin =  16.00

KPOINTS_MP_SPACING 0.07

%BLOCK SPECIES_POT
QC5
%ENDBLOCK SPECIES_POT

SNAP_TO_SYMMETRY
SYMMETRY_GENERATE

