#              Generated by Buildcell
#
# at 07:20:32 (GMT+1.0) 4th August 2020
# in /lustre/scratch/uccabz1/launch_tmp
# on node-c12f-023
# by uccabz1
#
# compiler GCC version 4.9.2
# options -cpp -iprefix /lustre/shared/ucl/apps/gcc/4.9.2/bin/../lib/gcc/x86_64-unknown-linux-gnu/4.9.2/ -mtune=corei7 -march=x86-64 -g -Og
#
# seed   426198626  -651270701  1400127161  1637659863 -1705986961  -611648480  2078155739   333776042   848235587 -1435783340  1953405718 -2113538683
#
#      Author: C. J. Pickard (cjp20@cam.ac.uk)
#                Space group: I-4
#

%BLOCK LATTICE_ABC
      8.08252      8.11303      8.11303
     75.63352     60.12433     60.12433
%ENDBLOCK LATTICE_ABC

%BLOCK POSITIONS_FRAC
  Li   0.4723839   0.1341795   0.4704202 SPIN=   0.00000
  Li   0.0769836  -0.1341795  -0.4704202 SPIN=   0.00000
  Li   0.0571959   0.4704202  -0.1341795 SPIN=   0.00000
  Li   0.3934366  -0.4704202   0.1341795 SPIN=   0.00000
  Fe  -0.4383327   0.2441156  -0.2681689 SPIN=   4.00000
  Fe  -0.4623859  -0.2441156   0.2681689 SPIN=   4.00000
  Fe  -0.2934985  -0.2681689  -0.2441156 SPIN=   4.00000
  Fe   0.1942171   0.2681689   0.2441156 SPIN=   4.00000
   O  -0.0780249   0.3711636   0.1457531 SPIN=   0.00000
   O  -0.2128924   0.1690515   0.1185862 SPIN=   0.00000
   O  -0.4564025   0.4375650   0.3458281 SPIN=   0.00000
   O  -0.1736674   0.1517142   0.4069556 SPIN=   0.00000
   S  -0.2302468   0.2823736   0.2542808 SPIN=   0.00000
   O   0.4388919  -0.3711636  -0.1457531 SPIN=   0.00000
   O   0.0747453  -0.1690515  -0.1185862 SPIN=   0.00000
   O   0.3269906  -0.4375650  -0.3458281 SPIN=   0.00000
   O   0.3850024  -0.1517142  -0.4069556 SPIN=   0.00000
   S   0.3064075  -0.2823736  -0.2542808 SPIN=   0.00000
   O  -0.0677283   0.1457531  -0.3711636 SPIN=   0.00000
   O   0.0943062   0.1185862  -0.1690515 SPIN=   0.00000
   O   0.1105744   0.3458281  -0.4375650 SPIN=   0.00000
   O  -0.2332882   0.4069556  -0.1517142 SPIN=   0.00000
   S  -0.0240340   0.2542808  -0.2823736 SPIN=   0.00000
   O  -0.2931387  -0.1457531   0.3711636 SPIN=   0.00000
   O   0.0438409  -0.1185862   0.1690515 SPIN=   0.00000
   O   0.0188376  -0.3458281   0.4375650 SPIN=   0.00000
   O   0.0219532  -0.4069556   0.1517142 SPIN=   0.00000
   S  -0.0521268  -0.2542808   0.2823736 SPIN=   0.00000
   F  -0.4898228   0.0576475  -0.2954504 SPIN=   0.00000
   F   0.2723743  -0.0576475   0.2954504 SPIN=   0.00000
   F  -0.2147268  -0.2954504  -0.0576475 SPIN=   0.00000
   F   0.4321753   0.2954504   0.0576475 SPIN=   0.00000
%ENDBLOCK POSITIONS_FRAC

# Note: total spin =  16.00

KPOINTS_MP_SPACING 0.07

%BLOCK SPECIES_POT
QC5
%ENDBLOCK SPECIES_POT

SNAP_TO_SYMMETRY
SYMMETRY_GENERATE

