#              Generated by Buildcell
#
# at 13:37:31 (GMT+1.0) 18th August 2020
# in /lustre/scratch/uccabz1/launch_tmp
# on node-c12e-006
# by uccabz1
#
# compiler GCC version 4.9.2
# options -cpp -iprefix /lustre/shared/ucl/apps/gcc/4.9.2/bin/../lib/gcc/x86_64-unknown-linux-gnu/4.9.2/ -mtune=corei7 -march=x86-64 -g -Og
#
# seed  -959531991   778599961 -1988023559 -1851693897  2065256755  -846179492  1809002894  1954682357   113450437  1706999787    86235291  -778092774
#
#      Author: C. J. Pickard (cjp20@cam.ac.uk)
#                Space group: P21
#

%BLOCK LATTICE_ABC
      5.37356      5.51228     13.67307
     90.00000     99.01584     90.00000
%ENDBLOCK LATTICE_ABC

%BLOCK POSITIONS_FRAC
  Li  -0.3767022  -0.2438087  -0.3116031 SPIN=   0.00000
  Li   0.3767022   0.2561913   0.3116031 SPIN=   0.00000
  Li  -0.0020988  -0.1638331   0.1205409 SPIN=   0.00000
  Li   0.0020988   0.3361669  -0.1205409 SPIN=   0.00000
  Fe   0.4869491  -0.3710082   0.0929962 SPIN=   5.49369
  Fe  -0.4869491   0.1289918  -0.0929962 SPIN=   5.49369
  Fe   0.1949721  -0.2426842   0.3315714 SPIN=   2.50631
  Fe  -0.1949721   0.2573158  -0.3315714 SPIN=   2.50631
   O  -0.1697954   0.5018285   0.2548803 SPIN=   0.00000
   O  -0.0187663   0.2013584   0.1431349 SPIN=   0.00000
   O  -0.4037677   0.1182657   0.2159049 SPIN=   0.00000
   O   0.0138090   0.1131792   0.3221683 SPIN=   0.00000
   S  -0.1446301   0.2336579   0.2340221 SPIN=   0.00000
   O   0.1697954   0.0018285  -0.2548803 SPIN=   0.00000
   O   0.0187663  -0.2986416  -0.1431349 SPIN=   0.00000
   O   0.4037677  -0.3817343  -0.2159049 SPIN=   0.00000
   O  -0.0138090  -0.3868208  -0.3221683 SPIN=   0.00000
   S   0.1446301  -0.2663421  -0.2340221 SPIN=   0.00000
   O  -0.3064244  -0.6256929   0.4007985 SPIN=   0.00000
   O  -0.3084371  -0.1767239   0.4001819 SPIN=   0.00000
   O   0.0251518  -0.3992260   0.5098916 SPIN=   0.00000
   O  -0.4125557  -0.4006234   0.5453654 SPIN=   0.00000
   S  -0.2505663  -0.4005666   0.4640593 SPIN=   0.00000
   O   0.3064244  -0.1256929  -0.4007985 SPIN=   0.00000
   O   0.3084371   0.3232761  -0.4001819 SPIN=   0.00000
   O  -0.0251518   0.1007740  -0.5098916 SPIN=   0.00000
   O   0.4125557   0.0993766  -0.5453654 SPIN=   0.00000
   S   0.2505663   0.0994334  -0.4640593 SPIN=   0.00000
   F  -0.2485159  -0.2570365   0.0034458 SPIN=   0.00000
   F   0.2485159   0.2429635  -0.0034458 SPIN=   0.00000
   F   0.3464789  -0.2969886   0.2128155 SPIN=   0.00000
   F  -0.3464789   0.2030114  -0.2128155 SPIN=   0.00000
%ENDBLOCK POSITIONS_FRAC

# Note: total spin =  16.00

KPOINTS_MP_SPACING 0.07

%BLOCK SPECIES_POT
QC5
%ENDBLOCK SPECIES_POT

SNAP_TO_SYMMETRY
SYMMETRY_GENERATE

