#              Generated by Buildcell
#
# at 02:33:54 (GMT+1.0) 18th August 2020
# in /lustre/scratch/uccabz1/launch_tmp
# on node-c12c-009
# by uccabz1
#
# compiler GCC version 4.9.2
# options -cpp -iprefix /lustre/shared/ucl/apps/gcc/4.9.2/bin/../lib/gcc/x86_64-unknown-linux-gnu/4.9.2/ -mtune=corei7 -march=x86-64 -g -Og
#
# seed -1582077643 -1676211742  1526321891 -1362873656   499594502 -1585091632  1182479821  1987082914 -2025769882  -582799791   565911149   789313410
#
#      Author: C. J. Pickard (cjp20@cam.ac.uk)
#                Space group: P21
#

%BLOCK LATTICE_ABC
      4.21943      7.36908     12.86452
     90.00000     90.00000     90.03676
%ENDBLOCK LATTICE_ABC

%BLOCK POSITIONS_FRAC
  Li   0.2066143  -0.0856585  -0.0238277 SPIN=   0.00000
  Li  -0.2066143   0.0856585   0.4761723 SPIN=   0.00000
  Li  -0.2056640  -0.4143299  -0.4531418 SPIN=   0.00000
  Li   0.2056640   0.4143299   0.0468582 SPIN=   0.00000
  Fe   0.2835826   0.3548470   0.3488912 SPIN=   3.48085
  Fe  -0.2835826  -0.3548470  -0.1511088 SPIN=   3.48085
  Fe   0.2671818  -0.1092636  -0.3538347 SPIN=   4.51915
  Fe  -0.2671818   0.1092636   0.1461653 SPIN=   4.51915
   O   0.2919723   0.5728847  -0.4451896 SPIN=   0.00000
   O   0.1152272   0.2531270  -0.4558630 SPIN=   0.00000
   O   0.1360118   0.4084326  -0.2854224 SPIN=   0.00000
   O   0.6332522   0.3277373  -0.3763368 SPIN=   0.00000
   S   0.2941159   0.3905454  -0.3907029 SPIN=   0.00000
   O  -0.2919723  -0.5728847   0.0548104 SPIN=   0.00000
   O  -0.1152272  -0.2531270   0.0441370 SPIN=   0.00000
   O  -0.1360118  -0.4084326   0.2145776 SPIN=   0.00000
   O  -0.6332522  -0.3277373   0.1236632 SPIN=   0.00000
   S  -0.2941159  -0.3905454   0.1092971 SPIN=   0.00000
   O   0.2357815  -0.1406656   0.4781098 SPIN=   0.00000
   O  -0.0307880  -0.4056612   0.3984802 SPIN=   0.00000
   O   0.3122088  -0.2075756   0.2912639 SPIN=   0.00000
   O  -0.2056064  -0.0945970   0.3542140 SPIN=   0.00000
   S   0.0778990  -0.2121249   0.3805170 SPIN=   0.00000
   O  -0.2357815   0.1406656  -0.0218902 SPIN=   0.00000
   O   0.0307880   0.4056612  -0.1015198 SPIN=   0.00000
   O  -0.3122088   0.2075756  -0.2087361 SPIN=   0.00000
   O   0.2056064   0.0945970  -0.1457860 SPIN=   0.00000
   S  -0.0778990   0.2121249  -0.1194830 SPIN=   0.00000
   F  -0.2447463   0.2685450   0.3684491 SPIN=   0.00000
   F   0.2447463  -0.2685450  -0.1315509 SPIN=   0.00000
   F   0.2554109   0.0482427   0.1353561 SPIN=   0.00000
   F  -0.2554109  -0.0482427  -0.3646439 SPIN=   0.00000
%ENDBLOCK POSITIONS_FRAC

# Note: total spin =  16.00

KPOINTS_MP_SPACING 0.07

%BLOCK SPECIES_POT
QC5
%ENDBLOCK SPECIES_POT

SNAP_TO_SYMMETRY
SYMMETRY_GENERATE

