#              Generated by Buildcell
#
# at 13:06:41 (GMT+1.0) 18th August 2020
# in /lustre/scratch/uccabz1/launch_tmp
# on node-c12h-012
# by uccabz1
#
# compiler GCC version 4.9.2
# options -cpp -iprefix /lustre/shared/ucl/apps/gcc/4.9.2/bin/../lib/gcc/x86_64-unknown-linux-gnu/4.9.2/ -mtune=corei7 -march=x86-64 -g -Og
#
# seed    86246426   433900777  -634036509  -971063440  1383919008  -258805526  1265261006   938306500  1441301884  2141635023   587742951 -2000495424
#
#      Author: C. J. Pickard (cjp20@cam.ac.uk)
#                Space group: P2
#

%BLOCK LATTICE_ABC
      6.32188      7.86587      8.04686
     90.00000     91.55454     90.00000
%ENDBLOCK LATTICE_ABC

%BLOCK POSITIONS_FRAC
  Li  -0.2539170   0.2575104   0.4020537 SPIN=   0.00000
  Li   0.2539170   0.2575104  -0.4020537 SPIN=   0.00000
  Li   0.2535697  -0.1939202  -0.3994882 SPIN=   0.00000
  Li  -0.2535697  -0.1939202   0.3994882 SPIN=   0.00000
  Fe  -0.2416502   0.2674539  -0.2259816 SPIN=   4.30206
  Fe   0.2416502   0.2674539   0.2259816 SPIN=   4.30206
  Fe  -0.2229221  -0.4691404   0.1442359 SPIN=   3.69794
  Fe   0.2229221  -0.4691404  -0.1442359 SPIN=   3.69794
   O  -0.3888761  -0.2173085  -0.3709271 SPIN=   0.00000
   O  -0.3339735  -0.2168763  -0.0652370 SPIN=   0.00000
   O  -0.0660500  -0.3467606  -0.2444559 SPIN=   0.00000
   O  -0.4135758  -0.4862592  -0.2130294 SPIN=   0.00000
   S  -0.3006189  -0.3168011  -0.2234124 SPIN=   0.00000
   O   0.3888761  -0.2173085   0.3709271 SPIN=   0.00000
   O   0.3339735  -0.2168763   0.0652370 SPIN=   0.00000
   O   0.0660500  -0.3467606   0.2444559 SPIN=   0.00000
   O   0.4135758  -0.4862592   0.2130294 SPIN=   0.00000
   S   0.3006189  -0.3168011   0.2234124 SPIN=   0.00000
   O   0.3279918   0.0750783   0.0425980 SPIN=   0.00000
   O   0.0910522  -0.1106745  -0.1267590 SPIN=   0.00000
   O   0.4243658  -0.0042936  -0.2431734 SPIN=   0.00000
   O   0.1269005   0.1936616  -0.1987839 SPIN=   0.00000
   S   0.2425776   0.0384430  -0.1315296 SPIN=   0.00000
   O  -0.3279918   0.0750783  -0.0425980 SPIN=   0.00000
   O  -0.0910522  -0.1106745   0.1267590 SPIN=   0.00000
   O  -0.4243658  -0.0042936   0.2431734 SPIN=   0.00000
   O  -0.1269005   0.1936616   0.1987839 SPIN=   0.00000
   S  -0.2425776   0.0384430   0.1315296 SPIN=   0.00000
   F   0.2467646   0.0999171   0.4047351 SPIN=   0.00000
   F  -0.2467646   0.0999171  -0.4047351 SPIN=   0.00000
   F  -0.2359058   0.4917797   0.3841039 SPIN=   0.00000
   F   0.2359058   0.4917797  -0.3841039 SPIN=   0.00000
%ENDBLOCK POSITIONS_FRAC

# Note: total spin =  16.00

KPOINTS_MP_SPACING 0.07

%BLOCK SPECIES_POT
QC5
%ENDBLOCK SPECIES_POT

SNAP_TO_SYMMETRY
SYMMETRY_GENERATE

