#              Generated by Buildcell
#
# at 09:44:17 (GMT+1.0) 4th August 2020
# in /lustre/scratch/uccabz1/launch_tmp
# on node-c12k-002
# by uccabz1
#
# compiler GCC version 4.9.2
# options -cpp -iprefix /lustre/shared/ucl/apps/gcc/4.9.2/bin/../lib/gcc/x86_64-unknown-linux-gnu/4.9.2/ -mtune=corei7 -march=x86-64 -g -Og
#
# seed  2019796996  -677205308  2141373225  -848871550  -280605726  1708365188 -1439530310  -895030374 -1161621125  1380075487 -1361209789  -559514257
#
#      Author: C. J. Pickard (cjp20@cam.ac.uk)
#                Space group: Aea2
#

%BLOCK LATTICE_ABC
      4.69478      9.26028      9.26028
     96.50345     90.00000     90.00000
%ENDBLOCK LATTICE_ABC

%BLOCK POSITIONS_FRAC
  Li  -0.2471294  -0.2939310   0.0438941 SPIN=   0.00000
  Li   0.2471294  -0.0438941   0.2939310 SPIN=   0.00000
  Li   0.2528706   0.4561059  -0.2060690 SPIN=   0.00000
  Li  -0.2528706   0.2060690  -0.4561059 SPIN=   0.00000
  Fe   0.2464976   0.3505697   0.4271100 SPIN=   4.00000
  Fe  -0.2464976  -0.4271100  -0.3505697 SPIN=   4.00000
  Fe  -0.2535024   0.0728900   0.1494303 SPIN=   4.00000
  Fe   0.2535024  -0.1494303  -0.0728900 SPIN=   4.00000
   O   0.0648958  -0.1325875  -0.5402706 SPIN=   0.00000
   O   0.5620709  -0.1938005  -0.4824430 SPIN=   0.00000
   O   0.2456387  -0.3823260  -0.6067725 SPIN=   0.00000
   O   0.1628814  -0.2915092  -0.3484459 SPIN=   0.00000
   S   0.2588717  -0.2500558  -0.4944830 SPIN=   0.00000
   O  -0.0648958   0.5402706   0.1325875 SPIN=   0.00000
   O  -0.5620709   0.4824430   0.1938005 SPIN=   0.00000
   O  -0.2456387   0.6067725   0.3823260 SPIN=   0.00000
   O  -0.1628814   0.3484459   0.2915092 SPIN=   0.00000
   S  -0.2588717   0.4944830   0.2500558 SPIN=   0.00000
   O  -0.4351042   0.0402706  -0.3674125 SPIN=   0.00000
   O   0.0620709  -0.0175570  -0.3061995 SPIN=   0.00000
   O  -0.2543613   0.1067725  -0.1176740 SPIN=   0.00000
   O  -0.3371186  -0.1515541  -0.2084908 SPIN=   0.00000
   S  -0.2411283  -0.0055170  -0.2499442 SPIN=   0.00000
   O   0.4351042   0.3674125  -0.0402706 SPIN=   0.00000
   O  -0.0620709   0.3061995   0.0175570 SPIN=   0.00000
   O   0.2543613   0.1176740  -0.1067725 SPIN=   0.00000
   O   0.3371186   0.2084908   0.1515541 SPIN=   0.00000
   S   0.2411283   0.2499442   0.0055170 SPIN=   0.00000
   F  -0.3395673  -0.0302446   0.2988614 SPIN=   0.00000
   F   0.3395673  -0.2988614   0.0302446 SPIN=   0.00000
   F   0.1604327   0.2011386  -0.4697554 SPIN=   0.00000
   F  -0.1604327   0.4697554  -0.2011386 SPIN=   0.00000
%ENDBLOCK POSITIONS_FRAC

# Note: total spin =  16.00

KPOINTS_MP_SPACING 0.07

%BLOCK SPECIES_POT
QC5
%ENDBLOCK SPECIES_POT

SNAP_TO_SYMMETRY
SYMMETRY_GENERATE

