#              Generated by Buildcell
#
# at 07:25:03 (GMT+1.0) 4th August 2020
# in /lustre/scratch/uccabz1/launch_tmp
# on node-c12g-001
# by uccabz1
#
# compiler GCC version 4.9.2
# options -cpp -iprefix /lustre/shared/ucl/apps/gcc/4.9.2/bin/../lib/gcc/x86_64-unknown-linux-gnu/4.9.2/ -mtune=corei7 -march=x86-64 -g -Og
#
# seed  -589754501  1495321017  -135942692 -1078691379  1058033613 -1578222853  -847034307  -988227498  1943128869  -133024282  -720364625 -1465604099
#
#      Author: C. J. Pickard (cjp20@cam.ac.uk)
#                Space group: P-1
#

%BLOCK LATTICE_ABC
      6.49007      7.42888      9.02646
    106.87034     94.34216    103.55981
%ENDBLOCK LATTICE_ABC

%BLOCK POSITIONS_FRAC
  Li  -0.0198104  -0.2787844  -0.1219153 SPIN=   0.00000
  Li   0.0198104   0.2787844   0.1219153 SPIN=   0.00000
  Li  -0.2525741   0.0305052   0.3985274 SPIN=   0.00000
  Li   0.2525741  -0.0305052  -0.3985274 SPIN=   0.00000
  Fe  -0.2995507   0.2967599  -0.2673044 SPIN=   3.12723
  Fe   0.2995507  -0.2967599   0.2673044 SPIN=   3.12723
  Fe  -0.2560816   0.4450688   0.3625074 SPIN=   4.87277
  Fe   0.2560816  -0.4450688  -0.3625074 SPIN=   4.87277
   O   0.2216641   0.2432537  -0.3095211 SPIN=   0.00000
   O   0.4733195   0.3419530  -0.0622054 SPIN=   0.00000
   O   0.1294875   0.0898463  -0.1052102 SPIN=   0.00000
   O   0.1312068   0.4348884  -0.0614838 SPIN=   0.00000
   S   0.2389195   0.2774853  -0.1346051 SPIN=   0.00000
   O  -0.2216641  -0.2432537   0.3095211 SPIN=   0.00000
   O  -0.4733195  -0.3419530   0.0622054 SPIN=   0.00000
   O  -0.1294875  -0.0898463   0.1052102 SPIN=   0.00000
   O  -0.1312068  -0.4348884   0.0614838 SPIN=   0.00000
   S  -0.2389195  -0.2774853   0.1346051 SPIN=   0.00000
   O  -0.2265464  -0.1365238  -0.1514937 SPIN=   0.00000
   O  -0.0623442  -0.0302979  -0.3613351 SPIN=   0.00000
   O  -0.4519865  -0.0779995  -0.3569654 SPIN=   0.00000
   O  -0.3021306  -0.3636248  -0.4230532 SPIN=   0.00000
   S  -0.2607519  -0.1521115  -0.3232119 SPIN=   0.00000
   O   0.2265464   0.1365238   0.1514937 SPIN=   0.00000
   O   0.0623442   0.0302979   0.3613351 SPIN=   0.00000
   O   0.4519865   0.0779995   0.3569654 SPIN=   0.00000
   O   0.3021306   0.3636248   0.4230532 SPIN=   0.00000
   S   0.2607519   0.1521115   0.3232119 SPIN=   0.00000
   F   0.1434962  -0.2789751   0.4449287 SPIN=   0.00000
   F  -0.1434962   0.2789751  -0.4449287 SPIN=   0.00000
   F  -0.2814678   0.2261825   0.1236238 SPIN=   0.00000
   F   0.2814678  -0.2261825  -0.1236238 SPIN=   0.00000
%ENDBLOCK POSITIONS_FRAC

# Note: total spin =  16.00

KPOINTS_MP_SPACING 0.07

%BLOCK SPECIES_POT
QC5
%ENDBLOCK SPECIES_POT

SNAP_TO_SYMMETRY
SYMMETRY_GENERATE

