#              Generated by Buildcell
#
# at 07:21:08 (GMT+1.0) 4th August 2020
# in /lustre/scratch/uccabz1/launch_tmp
# on node-c12k-030
# by uccabz1
#
# compiler GCC version 4.9.2
# options -cpp -iprefix /lustre/shared/ucl/apps/gcc/4.9.2/bin/../lib/gcc/x86_64-unknown-linux-gnu/4.9.2/ -mtune=corei7 -march=x86-64 -g -Og
#
# seed   680917461  -137045408  1393755557  1925116752  -573119975   -28760239 -1299076362  -663041578   993429949  1793126696  -411340598  1017045147
#
#      Author: C. J. Pickard (cjp20@cam.ac.uk)
#                Space group: Cc
#

%BLOCK LATTICE_ABC
      6.40556      6.40556     10.20448
     89.54815     89.54815     72.81930
%ENDBLOCK LATTICE_ABC

%BLOCK POSITIONS_FRAC
  Li  -0.2437742  -0.1672379   0.0911624 SPIN=   0.00000
  Li  -0.1672379  -0.2437742  -0.4088376 SPIN=   0.00000
  Li   0.2104114   0.2870338   0.0125150 SPIN=   0.00000
  Li   0.2870338   0.2104114  -0.4874850 SPIN=   0.00000
  Fe   0.3037499  -0.2731940  -0.4135987 SPIN=   2.51814
  Fe  -0.2731940   0.3037499   0.0864013 SPIN=   2.51814
  Fe   0.2214235   0.4865157   0.2727375 SPIN=   5.48186
  Fe   0.4865157   0.2214235  -0.2272625 SPIN=   5.48186
   O   0.1002214   0.1803646   0.2329033 SPIN=   0.00000
   O   0.1969891  -0.1543660   0.3701783 SPIN=   0.00000
   O  -0.1895220   0.0273055   0.3137755 SPIN=   0.00000
   O   0.0017612   0.2025823   0.4684718 SPIN=   0.00000
   S   0.0273624   0.0639716   0.3463322 SPIN=   0.00000
   O   0.1803646   0.1002214  -0.2670967 SPIN=   0.00000
   O  -0.1543660   0.1969891  -0.1298217 SPIN=   0.00000
   O   0.0273055  -0.1895220  -0.1862245 SPIN=   0.00000
   O   0.2025823   0.0017612  -0.0315282 SPIN=   0.00000
   S   0.0639716   0.0273624  -0.1536678 SPIN=   0.00000
   O  -0.4495174  -0.2655722   0.1900500 SPIN=   0.00000
   O  -0.3928259  -0.5204737   0.3789572 SPIN=   0.00000
   O  -0.4728729  -0.1231709   0.4161528 SPIN=   0.00000
   O  -0.1151161  -0.3345215   0.3238402 SPIN=   0.00000
   S  -0.3575831  -0.3109346   0.3272500 SPIN=   0.00000
   O  -0.2655722  -0.4495174  -0.3099500 SPIN=   0.00000
   O  -0.5204737  -0.3928259  -0.1210428 SPIN=   0.00000
   O  -0.1231709  -0.4728729  -0.0838472 SPIN=   0.00000
   O  -0.3345215  -0.1151161  -0.1761598 SPIN=   0.00000
   S  -0.3109346  -0.3575831  -0.1727500 SPIN=   0.00000
   F  -0.3877721   0.1162331  -0.3975568 SPIN=   0.00000
   F   0.1162331  -0.3877721   0.1024432 SPIN=   0.00000
   F  -0.4555407   0.1066897   0.0694816 SPIN=   0.00000
   F   0.1066897  -0.4555407  -0.4305184 SPIN=   0.00000
%ENDBLOCK POSITIONS_FRAC

# Note: total spin =  16.00

KPOINTS_MP_SPACING 0.07

%BLOCK SPECIES_POT
QC5
%ENDBLOCK SPECIES_POT

SNAP_TO_SYMMETRY
SYMMETRY_GENERATE

