#              Generated by Buildcell
#
# at 09:23:05 (GMT+1.0) 18th August 2020
# in /lustre/scratch/uccabz1/launch_tmp
# on node-c12f-029
# by uccabz1
#
# compiler GCC version 4.9.2
# options -cpp -iprefix /lustre/shared/ucl/apps/gcc/4.9.2/bin/../lib/gcc/x86_64-unknown-linux-gnu/4.9.2/ -mtune=corei7 -march=x86-64 -g -Og
#
# seed -1878985165   868248747  1803073375    68349678  -627006365  1917418443  1294474851  -590403313   -62278043 -1151075078  -407775645 -1489320780
#
#      Author: C. J. Pickard (cjp20@cam.ac.uk)
#                Space group: P2
#

%BLOCK LATTICE_ABC
      6.95136      7.02313      8.67613
     90.00000     90.00000    109.20452
%ENDBLOCK LATTICE_ABC

%BLOCK POSITIONS_FRAC
  Li   0.1789727  -0.2160784   0.1560050 SPIN=   0.00000
  Li  -0.1789727   0.2160784   0.1560050 SPIN=   0.00000
  Li  -0.3728390  -0.2099802   0.4671907 SPIN=   0.00000
  Li   0.3728390   0.2099802   0.4671907 SPIN=   0.00000
  Fe  -0.2706726  -0.1823322  -0.1657067 SPIN=   5.60830
  Fe   0.2706726   0.1823322  -0.1657067 SPIN=   5.60830
  Fe   0.0927708  -0.2205070  -0.4708367 SPIN=   2.39170
  Fe  -0.0927708   0.2205070  -0.4708367 SPIN=   2.39170
   O   0.1395520   0.4360240   0.1540004 SPIN=   0.00000
   O   0.1545315   0.1120479   0.0521303 SPIN=   0.00000
   O   0.1169116   0.1545739   0.3324729 SPIN=   0.00000
   O   0.4432660   0.3350638   0.2029173 SPIN=   0.00000
   S   0.2135653   0.2594274   0.1853802 SPIN=   0.00000
   O  -0.1395520  -0.4360240   0.1540004 SPIN=   0.00000
   O  -0.1545315  -0.1120479   0.0521303 SPIN=   0.00000
   O  -0.1169116  -0.1545739   0.3324729 SPIN=   0.00000
   O  -0.4432660  -0.3350638   0.2029173 SPIN=   0.00000
   S  -0.2135653  -0.2594274   0.1853802 SPIN=   0.00000
   O  -0.3332150   0.2522014  -0.2997960 SPIN=   0.00000
   O  -0.4303779   0.1769088  -0.0264562 SPIN=   0.00000
   O  -0.1611253   0.4956355  -0.0963227 SPIN=   0.00000
   O  -0.0956892   0.1710533  -0.1192068 SPIN=   0.00000
   S  -0.2551019   0.2739498  -0.1354454 SPIN=   0.00000
   O   0.3332150  -0.2522014  -0.2997960 SPIN=   0.00000
   O   0.4303779  -0.1769088  -0.0264562 SPIN=   0.00000
   O   0.1611253  -0.4956355  -0.0963227 SPIN=   0.00000
   O   0.0956892  -0.1710533  -0.1192068 SPIN=   0.00000
   S   0.2551019  -0.2739498  -0.1354454 SPIN=   0.00000
   F   0.2271042   0.2731084  -0.3513782 SPIN=   0.00000
   F  -0.2271042  -0.2731084  -0.3513782 SPIN=   0.00000
   F   0.2520334  -0.2473725   0.3757088 SPIN=   0.00000
   F  -0.2520334   0.2473725   0.3757088 SPIN=   0.00000
%ENDBLOCK POSITIONS_FRAC

# Note: total spin =  16.00

KPOINTS_MP_SPACING 0.07

%BLOCK SPECIES_POT
QC5
%ENDBLOCK SPECIES_POT

SNAP_TO_SYMMETRY
SYMMETRY_GENERATE

