#              Generated by Buildcell
#
# at 05:51:21 (GMT+1.0) 4th August 2020
# in /lustre/scratch/uccabz1/launch_tmp
# on node-c12m-029
# by uccabz1
#
# compiler GCC version 4.9.2
# options -cpp -iprefix /lustre/shared/ucl/apps/gcc/4.9.2/bin/../lib/gcc/x86_64-unknown-linux-gnu/4.9.2/ -mtune=corei7 -march=x86-64 -g -Og
#
# seed  1229649607  -128318203  -550894623  1351585506  1991398226  2025122429 -1744228716  1088845411  -341496435 -1435206894   356325229 -1886258602
#
#      Author: C. J. Pickard (cjp20@cam.ac.uk)
#                Space group: Pm
#

%BLOCK LATTICE_ABC
      6.15821      6.78327     10.21490
     90.00000     90.00000    110.37787
%ENDBLOCK LATTICE_ABC

%BLOCK POSITIONS_FRAC
  Li  -0.4407178  -0.1617699  -0.1797601 SPIN=   0.00000
  Li  -0.4407178  -0.1617699   0.1797601 SPIN=   0.00000
  Li   0.2259548   0.1567255  -0.0000000 SPIN=   0.00000
  Li   0.3959378   0.0028372   0.5000000 SPIN=   0.00000
  Fe  -0.0909097   0.2046880  -0.3125033 SPIN=   6.28310
  Fe  -0.0909097   0.2046880   0.3125033 SPIN=   6.28310
  Fe  -0.1919991  -0.3512652  -0.5000000 SPIN=   3.33140
  Fe  -0.1820370  -0.4573706   0.0000000 SPIN=   0.10241
   O  -0.0218978  -0.0747206  -0.2878330 SPIN=   0.00000
   O  -0.0266716  -0.4235744  -0.2137362 SPIN=   0.00000
   O   0.2473192  -0.0998543  -0.1140714 SPIN=   0.00000
   O   0.3048754  -0.1927575  -0.3425428 SPIN=   0.00000
   S   0.1259063  -0.1977267  -0.2395458 SPIN=   0.00000
   O  -0.0218978  -0.0747206   0.2878330 SPIN=   0.00000
   O  -0.0266716  -0.4235744   0.2137362 SPIN=   0.00000
   O   0.2473192  -0.0998543   0.1140714 SPIN=   0.00000
   O   0.3048754  -0.1927575   0.3425428 SPIN=   0.00000
   S   0.1259063  -0.1977267   0.2395458 SPIN=   0.00000
   O   0.5746086   0.3477692   0.1306703 SPIN=   0.00000
   O   0.6361475   0.6239304   0.2992856 SPIN=   0.00000
   O   0.5026722   0.2490529   0.3641266 SPIN=   0.00000
   O   0.2385344   0.3895201   0.2445540 SPIN=   0.00000
   S   0.4879907   0.4025681   0.2596592 SPIN=   0.00000
   O   0.5746086   0.3477692  -0.1306703 SPIN=   0.00000
   O   0.6361475   0.6239304  -0.2992856 SPIN=   0.00000
   O   0.5026722   0.2490529  -0.3641266 SPIN=   0.00000
   O   0.2385344   0.3895201  -0.2445540 SPIN=   0.00000
   S   0.4879907   0.4025681  -0.2596592 SPIN=   0.00000
   F   0.0331829   0.3582382   0.0000000 SPIN=   0.00000
   F  -0.2988168  -0.2039913   0.0000000 SPIN=   0.00000
   F   0.0652664   0.4514178   0.5000000 SPIN=   0.00000
   F  -0.3135385  -0.0973074   0.5000000 SPIN=   0.00000
%ENDBLOCK POSITIONS_FRAC

# Note: total spin =  16.00

KPOINTS_MP_SPACING 0.07

%BLOCK SPECIES_POT
QC5
%ENDBLOCK SPECIES_POT

SNAP_TO_SYMMETRY
SYMMETRY_GENERATE

