#              Generated by Buildcell
#
# at 15:15:48 (GMT+1.0) 18th August 2020
# in /scratch/scratch/uccabz1/launch_tmp
# on node-k10i-015
# by uccabz1
#
# compiler GCC version 4.9.2
# options -cpp -iprefix /scratch/UCL/applications/gcc/4.9.2/bin/../lib/gcc/x86_64-unknown-linux-gnu/4.9.2/ -mtune=corei7 -march=x86-64 -g -O2
#
# seed  2131951704 -1804816398 -1268443688   -39463400  -791764426  1985808125 -1837454391 -1912635194 -2128001720   514476661  1735614870 -1940410333
#
#      Author: C. J. Pickard (cjp20@cam.ac.uk)
#                Space group: P2
#

%BLOCK LATTICE_ABC
      6.82142      7.21280      8.82485
     90.00000     90.00000    112.89171
%ENDBLOCK LATTICE_ABC

%BLOCK POSITIONS_FRAC
  Li  -0.2762621  -0.1085434  -0.2378644 SPIN=   0.00000
  Li   0.2762621   0.1085434  -0.2378644 SPIN=   0.00000
  Li   0.0000000   0.5000000  -0.0380064 SPIN=   0.00000
  Li  -0.5000000  -0.5000000  -0.4909963 SPIN=   0.00000
  Fe   0.4800132  -0.2558478   0.1051673 SPIN=   3.82207
  Fe  -0.4800132   0.2558478   0.1051673 SPIN=   3.82207
  Fe  -0.2321738   0.2080376  -0.4658529 SPIN=   4.17793
  Fe   0.2321738  -0.2080376  -0.4658529 SPIN=   4.17793
   O   0.1941394   0.3903662   0.1348069 SPIN=   0.00000
   O  -0.0266707   0.2372452   0.3594671 SPIN=   0.00000
   O   0.2580186   0.5781163   0.3767932 SPIN=   0.00000
   O   0.3513397   0.2804435   0.3523347 SPIN=   0.00000
   S   0.1942067   0.3715428   0.3058505 SPIN=   0.00000
   O  -0.1941394  -0.3903662   0.1348069 SPIN=   0.00000
   O   0.0266707  -0.2372452   0.3594671 SPIN=   0.00000
   O  -0.2580186  -0.5781163   0.3767932 SPIN=   0.00000
   O  -0.3513397  -0.2804435   0.3523347 SPIN=   0.00000
   S  -0.1942067  -0.3715428   0.3058505 SPIN=   0.00000
   O   0.3394029   0.0238782  -0.0273068 SPIN=   0.00000
   O   0.2989867  -0.3082822  -0.1301043 SPIN=   0.00000
   O  -0.0187162  -0.2285123  -0.0896926 SPIN=   0.00000
   O   0.1780326  -0.2819091   0.1304236 SPIN=   0.00000
   O  -0.3394029  -0.0238782  -0.0273068 SPIN=   0.00000
   O  -0.2989867   0.3082822  -0.1301043 SPIN=   0.00000
   O   0.0187162   0.2285123  -0.0896926 SPIN=   0.00000
   O  -0.1780326   0.2819091   0.1304236 SPIN=   0.00000
   S  -0.5000000  -0.5000000  -0.1902278 SPIN=   0.00000
   S   0.0000000   0.0000000  -0.0130818 SPIN=   0.00000
   F  -0.5000000   0.0000000   0.2495257 SPIN=   0.00000
   F   0.0000000   0.0000000  -0.4139395 SPIN=   0.00000
   F   0.5000000  -0.0000000  -0.2807477 SPIN=   0.00000
   F  -0.0000000  -0.5000000  -0.3199332 SPIN=   0.00000
%ENDBLOCK POSITIONS_FRAC

# Note: total spin =  16.00

KPOINTS_MP_SPACING 0.07

%BLOCK SPECIES_POT
QC5
%ENDBLOCK SPECIES_POT

SNAP_TO_SYMMETRY
SYMMETRY_GENERATE

