#              Generated by Buildcell
#
# at 01:03:22 (GMT+1.0) 18th August 2020
# in /lustre/scratch/uccabz1/launch_tmp
# on node-c12e-025
# by uccabz1
#
# compiler GCC version 4.9.2
# options -cpp -iprefix /lustre/shared/ucl/apps/gcc/4.9.2/bin/../lib/gcc/x86_64-unknown-linux-gnu/4.9.2/ -mtune=corei7 -march=x86-64 -g -Og
#
# seed  1182827543 -1075005345 -1241536692  1011809386  1102733956 -1200729001  1893047254   430418028   447099922  -889299413 -1736771063  -188215037
#
#      Author: C. J. Pickard (cjp20@cam.ac.uk)
#                Space group: P-1
#

%BLOCK LATTICE_ABC
      4.76154      8.75431     10.35218
     70.98922     89.75584     79.19490
%ENDBLOCK LATTICE_ABC

%BLOCK POSITIONS_FRAC
  Li  -0.2466728   0.4239745  -0.1595416 SPIN=   0.00000
  Li   0.2466728  -0.4239745   0.1595416 SPIN=   0.00000
  Li  -0.1856642  -0.0177491  -0.1526746 SPIN=   0.00000
  Li   0.1856642   0.0177491   0.1526746 SPIN=   0.00000
  Fe  -0.1689141   0.3197961  -0.4288046 SPIN=   4.62797
  Fe   0.1689141  -0.3197961   0.4288046 SPIN=   4.62797
  Fe  -0.3608268  -0.1834798  -0.3511728 SPIN=   3.37203
  Fe   0.3608268   0.1834798   0.3511728 SPIN=   3.37203
   O  -0.2699386  -0.0014138   0.1582978 SPIN=   0.00000
   O  -0.5167820  -0.1812874   0.0773595 SPIN=   0.00000
   O  -0.1579300  -0.3035250   0.2737567 SPIN=   0.00000
   O  -0.0026751  -0.1826151   0.0401667 SPIN=   0.00000
   S  -0.2368314  -0.1672103   0.1373952 SPIN=   0.00000
   O   0.2699386   0.0014138  -0.1582978 SPIN=   0.00000
   O   0.5167820   0.1812874  -0.0773595 SPIN=   0.00000
   O   0.1579300   0.3035250  -0.2737567 SPIN=   0.00000
   O   0.0026751   0.1826151  -0.0401667 SPIN=   0.00000
   S   0.2368314   0.1672103  -0.1373952 SPIN=   0.00000
   O   0.4147519  -0.3511580  -0.0408253 SPIN=   0.00000
   O  -0.0999753  -0.3222373  -0.0999702 SPIN=   0.00000
   O   0.2560563  -0.5444513  -0.1405711 SPIN=   0.00000
   O   0.2358953  -0.2540143  -0.2837261 SPIN=   0.00000
   S   0.2016821  -0.3679652  -0.1412732 SPIN=   0.00000
   O  -0.4147519   0.3511580   0.0408253 SPIN=   0.00000
   O   0.0999753   0.3222373   0.0999702 SPIN=   0.00000
   O  -0.2560563   0.5444513   0.1405711 SPIN=   0.00000
   O  -0.2358953   0.2540143   0.2837261 SPIN=   0.00000
   S  -0.2016821   0.3679652   0.1412732 SPIN=   0.00000
   F  -0.2154710   0.0357118  -0.3525055 SPIN=   0.00000
   F   0.2154710  -0.0357118   0.3525055 SPIN=   0.00000
   F   0.2822105   0.4086212   0.3996441 SPIN=   0.00000
   F  -0.2822105  -0.4086212  -0.3996441 SPIN=   0.00000
%ENDBLOCK POSITIONS_FRAC

# Note: total spin =  16.00

KPOINTS_MP_SPACING 0.07

%BLOCK SPECIES_POT
QC5
%ENDBLOCK SPECIES_POT

SNAP_TO_SYMMETRY
SYMMETRY_GENERATE

