#              Generated by Buildcell
#
# at 07:15:50 (GMT+1.0) 4th August 2020
# in /lustre/scratch/uccabz1/launch_tmp
# on node-c12l-014
# by uccabz1
#
# compiler GCC version 4.9.2
# options -cpp -iprefix /lustre/shared/ucl/apps/gcc/4.9.2/bin/../lib/gcc/x86_64-unknown-linux-gnu/4.9.2/ -mtune=corei7 -march=x86-64 -g -Og
#
# seed  -186453794    25511725 -1902566828 -1603296113 -1528277165  -499909438  1633240449 -1282882433  -424842852  -247750989  1012790221   -95982402
#
#      Author: C. J. Pickard (cjp20@cam.ac.uk)
#                Space group: Ima2
#

%BLOCK LATTICE_ABC
      6.38004      8.23587      9.22409
    116.51504    110.23281     90.00000
%ENDBLOCK LATTICE_ABC

%BLOCK POSITIONS_FRAC
  Li  -0.5246290  -0.2901163  -0.7464373 SPIN=   0.00000
  Li   0.5246290   0.4563210   0.7464373 SPIN=   0.00000
  Li   0.2781917   0.2098837   0.2535627 SPIN=   0.00000
  Li  -0.2781917  -0.0436790  -0.2535627 SPIN=   0.00000
  Fe  -0.9197702  -0.4681271  -0.7398977 SPIN=   4.00000
  Fe  -0.0802298   0.2717706   0.7398977 SPIN=   4.00000
  Fe  -0.3201275   0.0318729   0.2601023 SPIN=   4.00000
  Fe  -0.6798725  -0.2282294  -0.2601023 SPIN=   4.00000
   O   0.5462395   0.0930545  -0.1260638 SPIN=   0.00000
   O   0.5240745   0.1973083  -0.3435861 SPIN=   0.00000
   O   0.3135086   0.3274905  -0.1490143 SPIN=   0.00000
   S   0.3932970   0.1553139  -0.2512030 SPIN=   0.00000
   O   0.4537605   0.2191183   0.1260638 SPIN=   0.00000
   O   0.4759255   0.5408944   0.3435861 SPIN=   0.00000
   O   0.6864914   0.4765047   0.1490143 SPIN=   0.00000
   S   0.6067030   0.4065168   0.2512030 SPIN=   0.00000
   O  -0.1723033  -0.4069455  -0.1260638 SPIN=   0.00000
   O  -0.3676605  -0.3026917  -0.3435861 SPIN=   0.00000
   O   0.0374771  -0.1725095  -0.1490143 SPIN=   0.00000
   S  -0.1445000  -0.3446861  -0.2512030 SPIN=   0.00000
   O   0.1723033  -0.2808817   0.1260638 SPIN=   0.00000
   O   0.3676605   0.0408944   0.3435861 SPIN=   0.00000
   O  -0.0374771  -0.0234953   0.1490143 SPIN=   0.00000
   S   0.1445000  -0.0934832   0.2512030 SPIN=   0.00000
   O   0.7072894   0.2849796   0.5000000 SPIN=   0.00000
   O  -0.7072894  -0.2150204  -0.5000000 SPIN=   0.00000
   O   0.1223546   0.1028672   0.5000000 SPIN=   0.00000
   O  -0.1223546  -0.3971328  -0.5000000 SPIN=   0.00000
   F  -0.5000000  -0.1441484  -0.0000000 SPIN=   0.00000
   F  -0.0000000   0.3558516  -0.0000000 SPIN=   0.00000
   F  -0.2412094  -0.0759908  -0.5000000 SPIN=   0.00000
   F   0.2412094   0.4240092   0.5000000 SPIN=   0.00000
%ENDBLOCK POSITIONS_FRAC

# Note: total spin =  16.00

KPOINTS_MP_SPACING 0.07

%BLOCK SPECIES_POT
QC5
%ENDBLOCK SPECIES_POT

SNAP_TO_SYMMETRY
SYMMETRY_GENERATE

