#              Generated by Buildcell
#
# at 09:07:51 (GMT+1.0) 4th August 2020
# in /lustre/scratch/uccabz1/launch_tmp
# on node-c12j-014
# by uccabz1
#
# compiler GCC version 4.9.2
# options -cpp -iprefix /lustre/shared/ucl/apps/gcc/4.9.2/bin/../lib/gcc/x86_64-unknown-linux-gnu/4.9.2/ -mtune=corei7 -march=x86-64 -g -Og
#
# seed -1638925099   231442827 -1436214478 -1982226994   990256458 -1958357538  1719987241  2113165094  -377418148  1703542440  1005967698 -1786259657
#
#      Author: C. J. Pickard (cjp20@cam.ac.uk)
#                Space group: Cm
#

%BLOCK LATTICE_ABC
      7.22449      7.42045      8.77182
     64.97769     81.61701     69.83780
%ENDBLOCK LATTICE_ABC

%BLOCK POSITIONS_FRAC
  Li   0.3273766  -0.3512318   0.4221862 SPIN=   0.00000
  Li   0.3273766   0.0709544  -0.4221862 SPIN=   0.00000
  Li  -0.2489085  -0.2513335  -0.0000000 SPIN=   0.00000
  Li   0.3356543  -0.4962286  -0.0000000 SPIN=   0.00000
  Fe   0.2538106   0.1094166   0.2356638 SPIN=   4.18856
  Fe   0.2538106   0.3450804  -0.2356638 SPIN=   4.18856
  Fe  -0.1593000  -0.1459049  -0.3891744 SPIN=   3.81144
  Fe  -0.1593000   0.4649206   0.3891744 SPIN=   3.81144
   O  -0.0821381  -0.0892769  -0.1619893 SPIN=   0.00000
   O   0.1032321   0.1226922  -0.1380555 SPIN=   0.00000
   O  -0.2371402   0.2936401  -0.2503436 SPIN=   0.00000
   O   0.0344841   0.1558044  -0.4186292 SPIN=   0.00000
   S  -0.0453906   0.1207149  -0.2422544 SPIN=   0.00000
   O  -0.0821381  -0.2512663   0.1619893 SPIN=   0.00000
   O   0.1032321  -0.0153633   0.1380555 SPIN=   0.00000
   O  -0.2371402   0.0432965   0.2503436 SPIN=   0.00000
   O   0.0344841  -0.2628248   0.4186292 SPIN=   0.00000
   S  -0.0453906  -0.1215395   0.2422544 SPIN=   0.00000
   O  -0.5310952  -0.5070700  -0.3589478 SPIN=   0.00000
   O  -0.3962784  -0.2133243  -0.4453545 SPIN=   0.00000
   O  -0.3747206  -0.4658287  -0.1478882 SPIN=   0.00000
   S  -0.5000001  -0.3500821  -0.3057044 SPIN=   0.00000
   O  -0.5310952   0.1339822   0.3589478 SPIN=   0.00000
   O  -0.3962784   0.3413212   0.4453545 SPIN=   0.00000
   O  -0.3747206   0.3862831   0.1478882 SPIN=   0.00000
   S  -0.5000001   0.3442135   0.3057044 SPIN=   0.00000
   O   0.1790039  -0.2192914   0.0000000 SPIN=   0.00000
   O   0.4722230   0.2201713   0.0000000 SPIN=   0.00000
   F   0.4611334  -0.1337825   0.2441155 SPIN=   0.00000
   F   0.4611334   0.1103330  -0.2441155 SPIN=   0.00000
   F   0.0092035  -0.4058352  -0.2478836 SPIN=   0.00000
   F   0.0092035   0.3462813   0.2478836 SPIN=   0.00000
%ENDBLOCK POSITIONS_FRAC

# Note: total spin =  16.00

KPOINTS_MP_SPACING 0.07

%BLOCK SPECIES_POT
QC5
%ENDBLOCK SPECIES_POT

SNAP_TO_SYMMETRY
SYMMETRY_GENERATE

