#              Generated by Buildcell
#
# at 06:27:24 (GMT+1.0) 4th August 2020
# in /lustre/scratch/uccabz1/launch_tmp
# on node-c12n-036
# by uccabz1
#
# compiler GCC version 4.9.2
# options -cpp -iprefix /lustre/shared/ucl/apps/gcc/4.9.2/bin/../lib/gcc/x86_64-unknown-linux-gnu/4.9.2/ -mtune=corei7 -march=x86-64 -g -Og
#
# seed  1079294768  -863594513 -1023903602   734702978   138813338  1274714122 -1214982280 -1231309498  1131435131  2047213732  -890483475 -1757133355
#
#      Author: C. J. Pickard (cjp20@cam.ac.uk)
#                Space group: Pm
#

%BLOCK LATTICE_ABC
      5.44372      8.49970      8.84647
     90.00000    102.25430     90.00000
%ENDBLOCK LATTICE_ABC

%BLOCK POSITIONS_FRAC
  Li   0.1511943   0.2095697   0.0392159 SPIN=   0.00000
  Li   0.1511943  -0.2095697   0.0392159 SPIN=   0.00000
  Li  -0.4695018   0.2923608  -0.4176304 SPIN=   0.00000
  Li  -0.4695018  -0.2923608  -0.4176304 SPIN=   0.00000
  Fe   0.0381536   0.2145916   0.3602865 SPIN=   3.54424
  Fe   0.0381536  -0.2145916   0.3602865 SPIN=   3.54424
  Fe  -0.4904184   0.0000000  -0.2284284 SPIN=   6.79325
  Fe  -0.4811734  -0.5000000   0.2996956 SPIN=   2.11828
   O  -0.1111153   0.3524079  -0.4031712 SPIN=   0.00000
   O   0.1958291   0.3397153  -0.1532061 SPIN=   0.00000
   O   0.2037237   0.1382022  -0.3540556 SPIN=   0.00000
   O  -0.1453829   0.1425798  -0.2147836 SPIN=   0.00000
   S   0.0357636   0.2432263  -0.2813041 SPIN=   0.00000
   O  -0.1111153  -0.3524079  -0.4031712 SPIN=   0.00000
   O   0.1958291  -0.3397153  -0.1532061 SPIN=   0.00000
   O   0.2037237  -0.1382022  -0.3540556 SPIN=   0.00000
   O  -0.1453829  -0.1425798  -0.2147836 SPIN=   0.00000
   S   0.0357636  -0.2432263  -0.2813041 SPIN=   0.00000
   O  -0.2443762   0.1390770   0.1583747 SPIN=   0.00000
   O  -0.1396200   0.3621098   0.0036044 SPIN=   0.00000
   O  -0.5406287   0.3618653   0.0930595 SPIN=   0.00000
   S  -0.3507360   0.2598985   0.0359343 SPIN=   0.00000
   O  -0.2443762  -0.1390770   0.1583747 SPIN=   0.00000
   O  -0.1396200  -0.3621098   0.0036044 SPIN=   0.00000
   O  -0.5406287  -0.3618653   0.0930595 SPIN=   0.00000
   S  -0.3507360  -0.2598985   0.0359343 SPIN=   0.00000
   O   0.2203641   0.0000000  -0.0757911 SPIN=   0.00000
   O   0.1803106   0.0000000   0.1853829 SPIN=   0.00000
   F   0.4461486   0.2092782   0.3839327 SPIN=   0.00000
   F   0.4461486  -0.2092782   0.3839327 SPIN=   0.00000
   F  -0.0432589  -0.5000000   0.3429012 SPIN=   0.00000
   F  -0.4711552  -0.5000000  -0.2970974 SPIN=   0.00000
%ENDBLOCK POSITIONS_FRAC

# Note: total spin =  16.00

KPOINTS_MP_SPACING 0.07

%BLOCK SPECIES_POT
QC5
%ENDBLOCK SPECIES_POT

SNAP_TO_SYMMETRY
SYMMETRY_GENERATE

