#              Generated by Buildcell
#
# at 11:19:46 (GMT+1.0) 18th August 2020
# in /lustre/scratch/uccabz1/launch_tmp
# on node-c12j-020
# by uccabz1
#
# compiler GCC version 4.9.2
# options -cpp -iprefix /lustre/shared/ucl/apps/gcc/4.9.2/bin/../lib/gcc/x86_64-unknown-linux-gnu/4.9.2/ -mtune=corei7 -march=x86-64 -g -Og
#
# seed   702597295   409092197  2146253314   610136712 -1135376705  1335210622   -44151653  -697207495  1290166080 -2101386319 -2121094304  -496538250
#
#      Author: C. J. Pickard (cjp20@cam.ac.uk)
#                Space group: C2
#

%BLOCK LATTICE_ABC
      4.24606      9.73757      9.73757
     91.10815     94.50211     94.50211
%ENDBLOCK LATTICE_ABC

%BLOCK POSITIONS_FRAC
  Li  -0.2612876   0.0855401  -0.4124556 SPIN=   0.00000
  Li   0.2612876   0.4124556  -0.0855401 SPIN=   0.00000
  Li  -0.3391183  -0.2191594  -0.1693637 SPIN=   0.00000
  Li   0.3391183   0.1693637   0.2191594 SPIN=   0.00000
  Fe  -0.2093404  -0.4866356  -0.2897089 SPIN=   3.29493
  Fe   0.2093404   0.2897089   0.4866356 SPIN=   3.29493
  Fe  -0.1761405  -0.0374768   0.2732984 SPIN=   4.70507
  Fe   0.1761405  -0.2732984   0.0374768 SPIN=   4.70507
   O  -0.2256247  -0.2693946  -0.3484119 SPIN=   0.00000
   O  -0.4851164  -0.0850439  -0.4743978 SPIN=   0.00000
   O  -0.6914364  -0.3285861  -0.5138759 SPIN=   0.00000
   O  -0.1774155  -0.2460204  -0.5986770 SPIN=   0.00000
   S  -0.3948982  -0.2322613  -0.4838406 SPIN=   0.00000
   O   0.2256247   0.3484119   0.2693946 SPIN=   0.00000
   O   0.4851164   0.4743978   0.0850439 SPIN=   0.00000
   O   0.6914364   0.5138759   0.3285861 SPIN=   0.00000
   O   0.1774155   0.5986770   0.2460204 SPIN=   0.00000
   S   0.3948982   0.4838406   0.2322613 SPIN=   0.00000
   O  -0.2621519   0.0451633   0.0636573 SPIN=   0.00000
   O   0.1623849   0.2295638   0.0369227 SPIN=   0.00000
   O  -0.2900544   0.2755184   0.1718315 SPIN=   0.00000
   O  -0.3706505   0.2444436  -0.0816840 SPIN=   0.00000
   S  -0.1901180   0.1986723   0.0476819 SPIN=   0.00000
   O   0.2621519  -0.0636573  -0.0451633 SPIN=   0.00000
   O  -0.1623849  -0.0369227  -0.2295638 SPIN=   0.00000
   O   0.2900544  -0.1718315  -0.2755184 SPIN=   0.00000
   O   0.3706505   0.0816840  -0.2444436 SPIN=   0.00000
   S   0.1901180  -0.0476819  -0.1986723 SPIN=   0.00000
   F  -0.2932501  -0.2566550   0.0224575 SPIN=   0.00000
   F   0.2932501  -0.0224575   0.2566550 SPIN=   0.00000
   F   0.2952437  -0.4907527  -0.2741048 SPIN=   0.00000
   F  -0.2952437   0.2741048   0.4907527 SPIN=   0.00000
%ENDBLOCK POSITIONS_FRAC

# Note: total spin =  16.00

KPOINTS_MP_SPACING 0.07

%BLOCK SPECIES_POT
QC5
%ENDBLOCK SPECIES_POT

SNAP_TO_SYMMETRY
SYMMETRY_GENERATE

