#              Generated by Buildcell
#
# at 01:04:26 (GMT+1.0) 18th August 2020
# in /lustre/scratch/uccabz1/launch_tmp
# on node-c12i-032
# by uccabz1
#
# compiler GCC version 4.9.2
# options -cpp -iprefix /lustre/shared/ucl/apps/gcc/4.9.2/bin/../lib/gcc/x86_64-unknown-linux-gnu/4.9.2/ -mtune=corei7 -march=x86-64 -g -Og
#
# seed -1127218159   717458967  1569325527  1670663765  -853335622 -1483678245  -133104143 -2124265759  1946679542  1929626315  -752095404  -797961392
#
#      Author: C. J. Pickard (cjp20@cam.ac.uk)
#                Space group: Cm
#

%BLOCK LATTICE_ABC
      5.80557      9.01242      9.01242
    101.54531    108.44923    108.44923
%ENDBLOCK LATTICE_ABC

%BLOCK POSITIONS_FRAC
  Li  -0.0774436   0.4317453  -0.2920839 SPIN=   0.00000
  Li  -0.0774436  -0.2920839   0.4317453 SPIN=   0.00000
  Li   0.4969946   0.1131706  -0.1613594 SPIN=   0.00000
  Li   0.4969946  -0.1613594   0.1131706 SPIN=   0.00000
  Fe   0.4951398  -0.4761180  -0.1799921 SPIN=   5.08968
  Fe   0.4951398  -0.1799921  -0.4761180 SPIN=   5.08968
  Fe   0.1069851  -0.2075459  -0.2075459 SPIN=   0.62596
  Fe   0.3008826   0.2717019   0.2717019 SPIN=   5.19467
   O  -0.0548624   0.1096333   0.3060129 SPIN=   0.00000
   O  -0.1832993   0.2967407   0.4718211 SPIN=   0.00000
   O  -0.1980855   0.0343076   0.5217047 SPIN=   0.00000
   O  -0.5263073   0.0278205   0.2632748 SPIN=   0.00000
   S  -0.2406386   0.1171255   0.3907034 SPIN=   0.00000
   O  -0.0548624   0.3060129   0.1096333 SPIN=   0.00000
   O  -0.1832993   0.4718211   0.2967407 SPIN=   0.00000
   O  -0.1980855   0.5217047   0.0343076 SPIN=   0.00000
   O  -0.5263073   0.2632748   0.0278205 SPIN=   0.00000
   S  -0.2406386   0.3907034   0.1171255 SPIN=   0.00000
   O  -0.1998188  -0.2223284  -0.0467061 SPIN=   0.00000
   O   0.1756655  -0.2408673   0.1640689 SPIN=   0.00000
   O  -0.1539488  -0.1661015   0.2438067 SPIN=   0.00000
   S  -0.0036110  -0.1491300   0.1335912 SPIN=   0.00000
   O  -0.1998188  -0.0467061  -0.2223284 SPIN=   0.00000
   O   0.1756655   0.1640689  -0.2408673 SPIN=   0.00000
   O  -0.1539488   0.2438067  -0.1661015 SPIN=   0.00000
   S  -0.0036110   0.1335912  -0.1491300 SPIN=   0.00000
   O  -0.1797199  -0.4257737  -0.4257737 SPIN=   0.00000
   O   0.1914079  -0.4871369  -0.4871369 SPIN=   0.00000
   F   0.4899214   0.3315363  -0.3627848 SPIN=   0.00000
   F   0.4899214  -0.3627848   0.3315363 SPIN=   0.00000
   F   0.2180366  -0.3919027  -0.1263496 SPIN=   0.00000
   F   0.2180366  -0.1263496  -0.3919027 SPIN=   0.00000
%ENDBLOCK POSITIONS_FRAC

# Note: total spin =  16.00

KPOINTS_MP_SPACING 0.07

%BLOCK SPECIES_POT
QC5
%ENDBLOCK SPECIES_POT

SNAP_TO_SYMMETRY
SYMMETRY_GENERATE

