#              Generated by Buildcell
#
# at 23:48:45 (GMT+1.0) 17th August 2020
# in /lustre/scratch/uccabz1/launch_tmp
# on node-c12c-010
# by uccabz1
#
# compiler GCC version 4.9.2
# options -cpp -iprefix /lustre/shared/ucl/apps/gcc/4.9.2/bin/../lib/gcc/x86_64-unknown-linux-gnu/4.9.2/ -mtune=corei7 -march=x86-64 -g -Og
#
# seed  -957542484  -987769348  -262854518   528232822  1258925299   350143478  1105560335 -1440487912  -137965925   153833351  1299770639 -1448756461
#
#      Author: C. J. Pickard (cjp20@cam.ac.uk)
#                Space group: P-4
#

%BLOCK LATTICE_ABC
      5.49706      8.53031      8.53031
     90.00000     90.00000     90.00000
%ENDBLOCK LATTICE_ABC

%BLOCK POSITIONS_FRAC
  Li  -0.4501890   0.3301134  -0.1823886 SPIN=   0.00000
  Li  -0.4501890  -0.3301134   0.1823886 SPIN=   0.00000
  Li   0.4501890   0.1823886   0.3301134 SPIN=   0.00000
  Li   0.4501890  -0.1823886  -0.3301134 SPIN=   0.00000
  Fe  -0.0503179  -0.2086103  -0.4555865 SPIN=   4.00000
  Fe  -0.0503179   0.2086103   0.4555865 SPIN=   4.00000
  Fe   0.0503179   0.4555865  -0.2086103 SPIN=   4.00000
  Fe   0.0503179  -0.4555865   0.2086103 SPIN=   4.00000
   O   0.2408627  -0.2306632   0.3282825 SPIN=   0.00000
   O   0.1381112  -0.1150015   0.0705778 SPIN=   0.00000
   O   0.5238540  -0.0436211   0.2020589 SPIN=   0.00000
   O   0.1314933   0.0501184   0.3090961 SPIN=   0.00000
   S   0.2585803  -0.0847918   0.2275038 SPIN=   0.00000
   O   0.2408627   0.2306632  -0.3282825 SPIN=   0.00000
   O   0.1381112   0.1150015  -0.0705778 SPIN=   0.00000
   O   0.5238540   0.0436211  -0.2020589 SPIN=   0.00000
   O   0.1314933  -0.0501184  -0.3090961 SPIN=   0.00000
   S   0.2585803   0.0847918  -0.2275038 SPIN=   0.00000
   O  -0.2408627  -0.3282825  -0.2306632 SPIN=   0.00000
   O  -0.1381112  -0.0705778  -0.1150015 SPIN=   0.00000
   O  -0.5238540  -0.2020589  -0.0436211 SPIN=   0.00000
   O  -0.1314933  -0.3090961   0.0501184 SPIN=   0.00000
   S  -0.2585803  -0.2275038  -0.0847918 SPIN=   0.00000
   O  -0.2408627   0.3282825   0.2306632 SPIN=   0.00000
   O  -0.1381112   0.0705778   0.1150015 SPIN=   0.00000
   O  -0.5238540   0.2020589   0.0436211 SPIN=   0.00000
   O  -0.1314933   0.3090961  -0.0501184 SPIN=   0.00000
   S  -0.2585803   0.2275038   0.0847918 SPIN=   0.00000
   F  -0.2492128   0.3189014  -0.3550596 SPIN=   0.00000
   F  -0.2492128  -0.3189014   0.3550596 SPIN=   0.00000
   F   0.2492128   0.3550596   0.3189014 SPIN=   0.00000
   F   0.2492128  -0.3550596  -0.3189014 SPIN=   0.00000
%ENDBLOCK POSITIONS_FRAC

# Note: total spin =  16.00

KPOINTS_MP_SPACING 0.07

%BLOCK SPECIES_POT
QC5
%ENDBLOCK SPECIES_POT

SNAP_TO_SYMMETRY
SYMMETRY_GENERATE

