#              Generated by Buildcell
#
# at 06:53:25 (GMT+1.0) 4th August 2020
# in /lustre/scratch/uccabz1/launch_tmp
# on node-c12d-003
# by uccabz1
#
# compiler GCC version 4.9.2
# options -cpp -iprefix /lustre/shared/ucl/apps/gcc/4.9.2/bin/../lib/gcc/x86_64-unknown-linux-gnu/4.9.2/ -mtune=corei7 -march=x86-64 -g -Og
#
# seed -1676470813  -637845353   609000232  1019397820   114445793 -1258906201   123248454  1077213235  1230395890 -1873489458 -1282164020  2004654090
#
#      Author: C. J. Pickard (cjp20@cam.ac.uk)
#                Space group: C2
#

%BLOCK LATTICE_ABC
      6.83676      7.78248      7.78248
     95.60070     99.30067     99.30067
%ENDBLOCK LATTICE_ABC

%BLOCK POSITIONS_FRAC
  Li   0.1682506  -0.1533076  -0.0626230 SPIN=   0.00000
  Li  -0.1682506   0.0626230   0.1533076 SPIN=   0.00000
  Li  -0.3007637  -0.3769713  -0.3282871 SPIN=   0.00000
  Li   0.3007637   0.3282871   0.3769713 SPIN=   0.00000
  Fe  -0.2690903   0.1268926  -0.2271718 SPIN=   4.59178
  Fe   0.2690903   0.2271718  -0.1268926 SPIN=   4.59178
  Fe   0.2086549  -0.0641332   0.3699914 SPIN=   3.40822
  Fe  -0.2086549  -0.3699914   0.0641332 SPIN=   3.40822
   O   0.1701269  -0.4979430  -0.5099518 SPIN=   0.00000
   O   0.4392957  -0.3950753  -0.2499814 SPIN=   0.00000
   O   0.0873668  -0.3652381  -0.2346809 SPIN=   0.00000
   O   0.2816290  -0.1797599  -0.4124267 SPIN=   0.00000
   S   0.2446046  -0.3595041  -0.3517602 SPIN=   0.00000
   O  -0.1701269   0.5099518   0.4979430 SPIN=   0.00000
   O  -0.4392957   0.2499814   0.3950753 SPIN=   0.00000
   O  -0.0873668   0.2346809   0.3652381 SPIN=   0.00000
   O  -0.2816290   0.4124267   0.1797599 SPIN=   0.00000
   S  -0.2446046   0.3517602   0.3595041 SPIN=   0.00000
   O   0.3574097  -0.3032988   0.0228006 SPIN=   0.00000
   O   0.4330263  -0.4883328   0.2574656 SPIN=   0.00000
   O   0.1269026  -0.5818342   0.0289291 SPIN=   0.00000
   O   0.1479116  -0.3282887   0.2535907 SPIN=   0.00000
   S   0.2663125  -0.4254386   0.1406965 SPIN=   0.00000
   O  -0.3574097  -0.0228006   0.3032988 SPIN=   0.00000
   O  -0.4330263  -0.2574656   0.4883328 SPIN=   0.00000
   O  -0.1269026  -0.0289291   0.5818342 SPIN=   0.00000
   O  -0.1479116  -0.2535907   0.3282887 SPIN=   0.00000
   S  -0.2663125  -0.1406965   0.4254386 SPIN=   0.00000
   F  -0.2485647   0.4240505  -0.1638819 SPIN=   0.00000
   F   0.2485647   0.1638819  -0.4240505 SPIN=   0.00000
   F  -0.2808377  -0.0852660  -0.0862999 SPIN=   0.00000
   F   0.2808377   0.0862999   0.0852660 SPIN=   0.00000
%ENDBLOCK POSITIONS_FRAC

# Note: total spin =  16.00

KPOINTS_MP_SPACING 0.07

%BLOCK SPECIES_POT
QC5
%ENDBLOCK SPECIES_POT

SNAP_TO_SYMMETRY
SYMMETRY_GENERATE

