#              Generated by Buildcell
#
# at 06:14:33 (GMT+1.0) 4th August 2020
# in /lustre/scratch/uccabz1/launch_tmp
# on node-c12p-014
# by uccabz1
#
# compiler GCC version 4.9.2
# options -cpp -iprefix /lustre/shared/ucl/apps/gcc/4.9.2/bin/../lib/gcc/x86_64-unknown-linux-gnu/4.9.2/ -mtune=corei7 -march=x86-64 -g -Og
#
# seed  -436020375 -1538778582  -451802449 -1931782182  -634851341   653542891  1970379548  -396538754  -392195499  1833084367   823836231   223474913
#
#      Author: C. J. Pickard (cjp20@cam.ac.uk)
#                Space group: P-1
#

%BLOCK LATTICE_ABC
      5.81542      8.73884      8.74765
     75.79715     72.83688     73.00247
%ENDBLOCK LATTICE_ABC

%BLOCK POSITIONS_FRAC
  Li  -0.1819241  -0.1725629   0.0797257 SPIN=   0.00000
  Li   0.1819241   0.1725629  -0.0797257 SPIN=   0.00000
  Li   1.0000000   0.5000000  -0.5000000 SPIN=   0.00000
  Li   0.0000000   0.0000000  -0.5000000 SPIN=   0.00000
  Fe   0.2723151  -0.0983581   0.1860937 SPIN=   3.55409
  Fe  -0.2723151   0.0983581  -0.1860937 SPIN=   3.55409
  Fe   0.0000000   0.5000000  -0.0000000 SPIN=   4.83675
  Fe  -0.5000000   0.5000000   0.5000000 SPIN=   4.05507
   O  -0.4439316   0.3416072   0.2498981 SPIN=   0.00000
   O  -0.1581430   0.2888707  -0.0143376 SPIN=   0.00000
   O  -0.4653990   0.1233192   0.1237737 SPIN=   0.00000
   O  -0.1074384   0.0909564   0.2368270 SPIN=   0.00000
   S  -0.2937280   0.2111884   0.1490403 SPIN=   0.00000
   O   0.4439316  -0.3416072  -0.2498981 SPIN=   0.00000
   O   0.1581430  -0.2888707   0.0143376 SPIN=   0.00000
   O   0.4653990  -0.1233192  -0.1237737 SPIN=   0.00000
   O   0.1074384  -0.0909564  -0.2368270 SPIN=   0.00000
   S   0.2937280  -0.2111884  -0.1490403 SPIN=   0.00000
   O   0.0316415  -0.1912769   0.4168898 SPIN=   0.00000
   O  -0.3222730  -0.1052654   0.2878686 SPIN=   0.00000
   O  -0.3946558  -0.1024119   0.5806214 SPIN=   0.00000
   S  -0.2377585  -0.1908058   0.4418660 SPIN=   0.00000
   O  -0.0316415   0.1912769  -0.4168898 SPIN=   0.00000
   O   0.3222730   0.1052654  -0.2878686 SPIN=   0.00000
   O   0.3946558   0.1024119  -0.5806214 SPIN=   0.00000
   S   0.2377585   0.1908058  -0.4418660 SPIN=   0.00000
   O   0.5000000   0.5000000  -0.0000000 SPIN=   0.00000
   O  -0.0000000   0.0000000  -0.0000000 SPIN=   0.00000
   F  -0.5356213  -0.3150367   0.2183389 SPIN=   0.00000
   F   0.5356213   0.3150367  -0.2183389 SPIN=   0.00000
   F  -0.0638541  -0.4366575  -0.2135688 SPIN=   0.00000
   F   0.0638541   0.4366575   0.2135688 SPIN=   0.00000
%ENDBLOCK POSITIONS_FRAC

# Note: total spin =  16.00

KPOINTS_MP_SPACING 0.07

%BLOCK SPECIES_POT
QC5
%ENDBLOCK SPECIES_POT

SNAP_TO_SYMMETRY
SYMMETRY_GENERATE

