#              Generated by Buildcell
#
# at 00:54:16 (GMT+1.0) 18th August 2020
# in /lustre/scratch/uccabz1/launch_tmp
# on node-c12i-026
# by uccabz1
#
# compiler GCC version 4.9.2
# options -cpp -iprefix /lustre/shared/ucl/apps/gcc/4.9.2/bin/../lib/gcc/x86_64-unknown-linux-gnu/4.9.2/ -mtune=corei7 -march=x86-64 -g -Og
#
# seed  -311981824  1393724218  -629970707  -425941522 -1101544638  2129191487   741964051  1569109914  -338054948  1556723381  1160770865   -10911221
#
#      Author: C. J. Pickard (cjp20@cam.ac.uk)
#                Space group: Pnc2
#

%BLOCK LATTICE_ABC
      4.76480      6.28503     13.35696
     90.00000     90.00000     90.00000
%ENDBLOCK LATTICE_ABC

%BLOCK POSITIONS_FRAC
  Li  -0.2500009   0.2316801  -0.0993287 SPIN=   0.00000
  Li   0.2500009  -0.2316801  -0.0993287 SPIN=   0.00000
  Li  -0.2499991   0.2316801   0.4006713 SPIN=   0.00000
  Li   0.2499991  -0.2316801   0.4006713 SPIN=   0.00000
  Fe   0.2499996   0.2350268  -0.2443456 SPIN=   4.00000
  Fe  -0.2499996  -0.2350268  -0.2443456 SPIN=   4.00000
  Fe   0.2500004   0.2350268   0.2556544 SPIN=   4.00000
  Fe  -0.2500004  -0.2350268   0.2556544 SPIN=   4.00000
   O  -0.0147263  -0.2702743  -0.4181111 SPIN=   0.00000
   O  -0.2314739  -0.4526277  -0.5629919 SPIN=   0.00000
   O  -0.2236265  -0.0592096  -0.5556413 SPIN=   0.00000
   O  -0.5301775  -0.2624641  -0.4406381 SPIN=   0.00000
   S  -0.2500011  -0.2611439  -0.4943456 SPIN=   0.00000
   O   0.0147263   0.2702743  -0.4181111 SPIN=   0.00000
   O   0.2314739   0.4526277  -0.5629919 SPIN=   0.00000
   O   0.2236265   0.0592096  -0.5556413 SPIN=   0.00000
   O   0.5301775   0.2624641  -0.4406381 SPIN=   0.00000
   S   0.2500011   0.2611439  -0.4943456 SPIN=   0.00000
   O  -0.4852737  -0.2702743   0.0818889 SPIN=   0.00000
   O  -0.2685261  -0.4526277  -0.0629919 SPIN=   0.00000
   O  -0.2763735  -0.0592096  -0.0556413 SPIN=   0.00000
   O   0.0301775  -0.2624641   0.0593619 SPIN=   0.00000
   S  -0.2499989  -0.2611439   0.0056544 SPIN=   0.00000
   O   0.4852737   0.2702743   0.0818889 SPIN=   0.00000
   O   0.2685261   0.4526277  -0.0629919 SPIN=   0.00000
   O   0.2763735   0.0592096  -0.0556413 SPIN=   0.00000
   O  -0.0301775   0.2624641   0.0593619 SPIN=   0.00000
   S   0.2499989   0.2611439   0.0056544 SPIN=   0.00000
   F   0.2189386  -0.2360256   0.2527448 SPIN=   0.00000
   F  -0.2189386   0.2360256   0.2527448 SPIN=   0.00000
   F   0.2810614  -0.2360256  -0.2472552 SPIN=   0.00000
   F  -0.2810614   0.2360256  -0.2472552 SPIN=   0.00000
%ENDBLOCK POSITIONS_FRAC

# Note: total spin =  16.00

KPOINTS_MP_SPACING 0.07

%BLOCK SPECIES_POT
QC5
%ENDBLOCK SPECIES_POT

SNAP_TO_SYMMETRY
SYMMETRY_GENERATE

