#              Generated by Buildcell
#
# at 06:39:33 (GMT+1.0) 4th August 2020
# in /lustre/scratch/uccabz1/launch_tmp
# on node-c12c-027
# by uccabz1
#
# compiler GCC version 4.9.2
# options -cpp -iprefix /lustre/shared/ucl/apps/gcc/4.9.2/bin/../lib/gcc/x86_64-unknown-linux-gnu/4.9.2/ -mtune=corei7 -march=x86-64 -g -Og
#
# seed -1940558520  1412205246 -1396469489  1564677171 -1655448475  -852586248 -1817426371   986491129  -303054675 -1085596414   578864511 -1495879927
#
#      Author: C. J. Pickard (cjp20@cam.ac.uk)
#                Space group: Pc
#

%BLOCK LATTICE_ABC
      5.29902      5.94761     12.89634
     90.00000    100.21878     90.00000
%ENDBLOCK LATTICE_ABC

%BLOCK POSITIONS_FRAC
  Li   0.0818823  -0.2746894   0.4370380 SPIN=   0.00000
  Li   0.0818823   0.2746894  -0.0629620 SPIN=   0.00000
  Li  -0.2506052   0.2015124   0.2085370 SPIN=   0.00000
  Li  -0.2506052  -0.2015124  -0.2914630 SPIN=   0.00000
  Fe   0.3800314  -0.3900995  -0.1551068 SPIN=   3.90335
  Fe   0.3800314   0.3900995   0.3448932 SPIN=   3.90335
  Fe   0.2953293  -0.0751929   0.1303779 SPIN=   4.09665
  Fe   0.2953293   0.0751929  -0.3696221 SPIN=   4.09665
   O  -0.5434974   0.2611986  -0.0590258 SPIN=   0.00000
   O  -0.4739278  -0.1332775   0.0002562 SPIN=   0.00000
   O  -0.1170442   0.1403243   0.0351638 SPIN=   0.00000
   O  -0.2753957   0.0087393  -0.1468041 SPIN=   0.00000
   S  -0.3524663   0.0692462  -0.0426025 SPIN=   0.00000
   O  -0.5434974  -0.2611986   0.4409742 SPIN=   0.00000
   O  -0.4739278   0.1332775   0.5002562 SPIN=   0.00000
   O  -0.1170442  -0.1403243   0.5351638 SPIN=   0.00000
   O  -0.2753957  -0.0087393   0.3531959 SPIN=   0.00000
   S  -0.3524663  -0.0692462   0.4573975 SPIN=   0.00000
   O  -0.2540961  -0.1182054   0.1723052 SPIN=   0.00000
   O   0.1039544  -0.3588277   0.2579846 SPIN=   0.00000
   O  -0.2017209  -0.5014892   0.1044773 SPIN=   0.00000
   O  -0.3418334  -0.4501209   0.2760775 SPIN=   0.00000
   S  -0.1734240  -0.3571608   0.2027112 SPIN=   0.00000
   O  -0.2540961   0.1182054  -0.3276948 SPIN=   0.00000
   O   0.1039544   0.3588277  -0.2420154 SPIN=   0.00000
   O  -0.2017209   0.5014892  -0.3955227 SPIN=   0.00000
   O  -0.3418334   0.4501209  -0.2239225 SPIN=   0.00000
   S  -0.1734240   0.3571608  -0.2972888 SPIN=   0.00000
   F   0.3148063  -0.2455504  -0.3245401 SPIN=   0.00000
   F   0.3148063   0.2455504   0.1754599 SPIN=   0.00000
   F   0.0885123  -0.3796798  -0.0533498 SPIN=   0.00000
   F   0.0885123   0.3796798   0.4466502 SPIN=   0.00000
%ENDBLOCK POSITIONS_FRAC

# Note: total spin =  16.00

KPOINTS_MP_SPACING 0.07

%BLOCK SPECIES_POT
QC5
%ENDBLOCK SPECIES_POT

SNAP_TO_SYMMETRY
SYMMETRY_GENERATE

