#              Generated by Buildcell
#
# at 12:58:42 (GMT+1.0) 18th August 2020
# in /lustre/scratch/uccabz1/launch_tmp
# on node-c12b-010
# by uccabz1
#
# compiler GCC version 4.9.2
# options -cpp -iprefix /lustre/shared/ucl/apps/gcc/4.9.2/bin/../lib/gcc/x86_64-unknown-linux-gnu/4.9.2/ -mtune=corei7 -march=x86-64 -g -Og
#
# seed   969995217  1002946991  -884937994  -362763682 -1195851393  2043681608 -1550274714 -2033539809  -237615104   612606041   271024055 -2077608216
#
#      Author: C. J. Pickard (cjp20@cam.ac.uk)
#                Space group: P2
#

%BLOCK LATTICE_ABC
      6.47194      7.55804      8.25559
     97.89123     90.00000     90.00000
%ENDBLOCK LATTICE_ABC

%BLOCK POSITIONS_FRAC
  Li  -0.1519827   0.1591544   0.2272918 SPIN=   0.00000
  Li  -0.1519827  -0.1591544  -0.2272918 SPIN=   0.00000
  Li  -0.1171784   0.3175384  -0.1624557 SPIN=   0.00000
  Li  -0.1171784  -0.3175384   0.1624557 SPIN=   0.00000
  Fe  -0.3868515  -0.2553403   0.4508914 SPIN=   3.82142
  Fe  -0.3868515   0.2553403  -0.4508914 SPIN=   3.82142
  Fe   0.2786940   0.0233617   0.2244288 SPIN=   4.17858
  Fe   0.2786940  -0.0233617  -0.2244288 SPIN=   4.17858
   O  -0.5728495  -0.5535696  -0.1372632 SPIN=   0.00000
   O  -0.5323896  -0.2254214  -0.0783832 SPIN=   0.00000
   O  -0.5624968  -0.3716605  -0.3645801 SPIN=   0.00000
   O  -0.2455756  -0.4115673  -0.2057904 SPIN=   0.00000
   S  -0.4783279  -0.3905547  -0.1965042 SPIN=   0.00000
   O  -0.5728495   0.5535696   0.1372632 SPIN=   0.00000
   O  -0.5323896   0.2254214   0.0783832 SPIN=   0.00000
   O  -0.5624968   0.3716605   0.3645801 SPIN=   0.00000
   O  -0.2455756   0.4115673   0.2057904 SPIN=   0.00000
   S  -0.4783279   0.3905547   0.1965042 SPIN=   0.00000
   O   0.3017473  -0.1522397   0.4992669 SPIN=   0.00000
   O   0.0095687  -0.3189562   0.5989234 SPIN=   0.00000
   O   0.1689931  -0.4244630   0.3305252 SPIN=   0.00000
   O  -0.0409353  -0.1481572   0.3667943 SPIN=   0.00000
   S   0.1098435  -0.2609540   0.4488775 SPIN=   0.00000
   O   0.3017473   0.1522397  -0.4992669 SPIN=   0.00000
   O   0.0095687   0.3189562  -0.5989234 SPIN=   0.00000
   O   0.1689931   0.4244630  -0.3305252 SPIN=   0.00000
   O  -0.0409353   0.1481572  -0.3667943 SPIN=   0.00000
   S   0.1098435   0.2609540  -0.4488775 SPIN=   0.00000
   F   0.0544716   0.2494927  -0.0033849 SPIN=   0.00000
   F   0.0544716  -0.2494927   0.0033849 SPIN=   0.00000
   F  -0.4288688   0.0948258  -0.2409838 SPIN=   0.00000
   F  -0.4288688  -0.0948258   0.2409838 SPIN=   0.00000
%ENDBLOCK POSITIONS_FRAC

# Note: total spin =  16.00

KPOINTS_MP_SPACING 0.07

%BLOCK SPECIES_POT
QC5
%ENDBLOCK SPECIES_POT

SNAP_TO_SYMMETRY
SYMMETRY_GENERATE

