#              Generated by Buildcell
#
# at 06:32:04 (GMT+1.0) 18th August 2020
# in /scratch/scratch/uccabz1/launch_tmp
# on node-k10b-001
# by uccabz1
#
# compiler GCC version 4.9.2
# options -cpp -iprefix /scratch/UCL/applications/gcc/4.9.2/bin/../lib/gcc/x86_64-unknown-linux-gnu/4.9.2/ -mtune=corei7 -march=x86-64 -g -O2
#
# seed  2100379994 -1387309114   883338148  1507978477 -1806018772  1490720518 -1970075141  -547304828  1586634535   878770210 -1327922432  1004174773
#
#      Author: C. J. Pickard (cjp20@cam.ac.uk)
#                Space group: Pna21
#

%BLOCK LATTICE_ABC
      4.15716      6.84038     14.06642
     90.00000     90.00000     90.00000
%ENDBLOCK LATTICE_ABC

%BLOCK POSITIONS_FRAC
  Li   0.3430638   0.0034970  -0.1092851 SPIN=   0.00000
  Li  -0.3430638  -0.0034970   0.3907149 SPIN=   0.00000
  Li  -0.1569362   0.4965030  -0.1092851 SPIN=   0.00000
  Li   0.1569362  -0.4965030   0.3907149 SPIN=   0.00000
  Fe   0.1567388   0.0211144   0.2340891 SPIN=   4.00000
  Fe  -0.1567388  -0.0211144  -0.2659109 SPIN=   4.00000
  Fe  -0.3432612   0.4788856   0.2340891 SPIN=   4.00000
  Fe   0.3432612  -0.4788856  -0.2659109 SPIN=   4.00000
   O  -0.4558575   0.0525279   0.0672243 SPIN=   0.00000
   O   0.0605241  -0.1240579   0.0843036 SPIN=   0.00000
   O   0.0208879   0.1592903  -0.0244731 SPIN=   0.00000
   O  -0.2515118  -0.1514686  -0.0649401 SPIN=   0.00000
   S  -0.1564893  -0.0159271   0.0155287 SPIN=   0.00000
   O   0.4558575  -0.0525279  -0.4327757 SPIN=   0.00000
   O  -0.0605241   0.1240579  -0.4156964 SPIN=   0.00000
   O  -0.0208879  -0.1592903  -0.5244731 SPIN=   0.00000
   O   0.2515118   0.1514686  -0.5649401 SPIN=   0.00000
   S   0.1564893   0.0159271  -0.4844713 SPIN=   0.00000
   O   0.0441425  -0.5525279   0.0672243 SPIN=   0.00000
   O   0.5605241  -0.3759421   0.0843036 SPIN=   0.00000
   O   0.5208879  -0.6592903  -0.0244731 SPIN=   0.00000
   O   0.2484882  -0.3485314  -0.0649401 SPIN=   0.00000
   S   0.3435107  -0.4840729   0.0155287 SPIN=   0.00000
   O  -0.0441425   0.5525279  -0.4327757 SPIN=   0.00000
   O  -0.5605241   0.3759421  -0.4156964 SPIN=   0.00000
   O  -0.5208879   0.6592903  -0.5244731 SPIN=   0.00000
   O  -0.2484882   0.3485314  -0.5649401 SPIN=   0.00000
   S  -0.3435107   0.4840729  -0.4844713 SPIN=   0.00000
   F   0.1311951  -0.4721921   0.2589595 SPIN=   0.00000
   F  -0.1311951   0.4721921  -0.2410405 SPIN=   0.00000
   F  -0.3688049  -0.0278079   0.2589595 SPIN=   0.00000
   F   0.3688049   0.0278079  -0.2410405 SPIN=   0.00000
%ENDBLOCK POSITIONS_FRAC

# Note: total spin =  16.00

KPOINTS_MP_SPACING 0.07

%BLOCK SPECIES_POT
QC5
%ENDBLOCK SPECIES_POT

SNAP_TO_SYMMETRY
SYMMETRY_GENERATE

