#              Generated by Buildcell
#
# at 07:03:59 (GMT+1.0) 4th August 2020
# in /lustre/scratch/uccabz1/launch_tmp
# on node-c12j-005
# by uccabz1
#
# compiler GCC version 4.9.2
# options -cpp -iprefix /lustre/shared/ucl/apps/gcc/4.9.2/bin/../lib/gcc/x86_64-unknown-linux-gnu/4.9.2/ -mtune=corei7 -march=x86-64 -g -Og
#
# seed -2091541935  1552613787   631177324  -738247634  -847815077  -279749477  1313485628 -1309482428 -1068439045  -841482441   -42946206 -1942892088
#
#      Author: C. J. Pickard (cjp20@cam.ac.uk)
#                Space group: Pm
#

%BLOCK LATTICE_ABC
      3.78329      8.18559     13.09180
     90.00000     90.00000     99.39052
%ENDBLOCK LATTICE_ABC

%BLOCK POSITIONS_FRAC
  Li   0.4557708  -0.2675385   0.1602060 SPIN=   0.00000
  Li   0.4557708  -0.2675385  -0.1602060 SPIN=   0.00000
  Li  -0.3197899   0.0950700   0.3586130 SPIN=   0.00000
  Li  -0.3197899   0.0950700  -0.3586130 SPIN=   0.00000
  Fe   0.3051846   0.4446905   0.3584061 SPIN=   1.93714
  Fe   0.3051846   0.4446905  -0.3584061 SPIN=   1.93714
  Fe   0.1217379   0.0758831   0.1549342 SPIN=   6.06286
  Fe   0.1217379   0.0758831  -0.1549342 SPIN=   6.06286
   O   0.0584817  -0.2096112   0.2463306 SPIN=   0.00000
   O  -0.0180928  -0.3771975   0.4045193 SPIN=   0.00000
   O  -0.4821081  -0.2124343   0.3531863 SPIN=   0.00000
   O   0.1075203  -0.0713315   0.4150314 SPIN=   0.00000
   S  -0.0835497  -0.2176436   0.3547669 SPIN=   0.00000
   O   0.0584817  -0.2096112  -0.2463306 SPIN=   0.00000
   O  -0.0180928  -0.3771975  -0.4045193 SPIN=   0.00000
   O  -0.4821081  -0.2124343  -0.3531863 SPIN=   0.00000
   O   0.1075203  -0.0713315  -0.4150314 SPIN=   0.00000
   S  -0.0835497  -0.2176436  -0.3547669 SPIN=   0.00000
   O   0.2621488   0.4608096   0.1393392 SPIN=   0.00000
   O  -0.3323105   0.3045103   0.0929370 SPIN=   0.00000
   O  -0.2241773   0.6107239   0.0854862 SPIN=   0.00000
   O  -0.2584662   0.4680728   0.2527318 SPIN=   0.00000
   S  -0.1382013   0.4610291   0.1426235 SPIN=   0.00000
   O   0.2621488   0.4608096  -0.1393392 SPIN=   0.00000
   O  -0.3323105   0.3045103  -0.0929370 SPIN=   0.00000
   O  -0.2241773   0.6107239  -0.0854862 SPIN=   0.00000
   O  -0.2584662   0.4680728  -0.2527318 SPIN=   0.00000
   S  -0.1382013   0.4610291  -0.1426235 SPIN=   0.00000
   F   0.2855521   0.2201905  -0.3311117 SPIN=   0.00000
   F   0.2855521   0.2201905   0.3311117 SPIN=   0.00000
   F  -0.4491319  -0.0264895  -0.1340053 SPIN=   0.00000
   F  -0.4491319  -0.0264895   0.1340053 SPIN=   0.00000
%ENDBLOCK POSITIONS_FRAC

# Note: total spin =  16.00

KPOINTS_MP_SPACING 0.07

%BLOCK SPECIES_POT
QC5
%ENDBLOCK SPECIES_POT

SNAP_TO_SYMMETRY
SYMMETRY_GENERATE

