#              Generated by Buildcell
#
# at 07:14:14 (GMT+1.0) 4th August 2020
# in /lustre/scratch/uccabz1/launch_tmp
# on node-c12g-012
# by uccabz1
#
# compiler GCC version 4.9.2
# options -cpp -iprefix /lustre/shared/ucl/apps/gcc/4.9.2/bin/../lib/gcc/x86_64-unknown-linux-gnu/4.9.2/ -mtune=corei7 -march=x86-64 -g -Og
#
# seed   776134209 -1953093145  -201863203  2108842529   629918897     9825945   544620893 -1803735902  1818643920  1450983610  2039054865 -1603074172
#
#      Author: C. J. Pickard (cjp20@cam.ac.uk)
#                Space group: P212121
#

%BLOCK LATTICE_ABC
      4.21704      7.94749     11.93501
     90.00000     90.00000     90.00000
%ENDBLOCK LATTICE_ABC

%BLOCK POSITIONS_FRAC
  Li   0.0891595   0.4219992   0.3691830 SPIN=   0.00000
  Li  -0.4108405  -0.4219992   0.1308170 SPIN=   0.00000
  Li   0.4108405  -0.0780008  -0.3691830 SPIN=   0.00000
  Li  -0.0891595   0.0780008  -0.1308170 SPIN=   0.00000
  Fe  -0.4108119  -0.3031717   0.4146498 SPIN=   4.00000
  Fe   0.0891881   0.3031717   0.0853502 SPIN=   4.00000
  Fe  -0.0891881   0.1968283  -0.4146498 SPIN=   4.00000
  Fe   0.4108119  -0.1968283  -0.0853502 SPIN=   4.00000
   O   0.1781008  -0.2610128   0.0829258 SPIN=   0.00000
   O  -0.2418276  -0.2181377   0.2249436 SPIN=   0.00000
   O   0.2670282  -0.0648524   0.2408804 SPIN=   0.00000
   O   0.2484466  -0.3718242   0.2751148 SPIN=   0.00000
   S   0.1129370  -0.2289568   0.2059662 SPIN=   0.00000
   O  -0.3218992   0.2610128   0.4170742 SPIN=   0.00000
   O  -0.7418276   0.2181377   0.2750564 SPIN=   0.00000
   O  -0.2329718   0.0648524   0.2591196 SPIN=   0.00000
   O  -0.2515534   0.3718242   0.2248852 SPIN=   0.00000
   S  -0.3870630   0.2289568   0.2940338 SPIN=   0.00000
   O   0.3218992   0.2389872  -0.0829258 SPIN=   0.00000
   O   0.7418276   0.2818623  -0.2249436 SPIN=   0.00000
   O   0.2329718   0.4351476  -0.2408804 SPIN=   0.00000
   O   0.2515534   0.1281758  -0.2751148 SPIN=   0.00000
   S   0.3870630   0.2710432  -0.2059662 SPIN=   0.00000
   O  -0.1781008  -0.2389872  -0.4170742 SPIN=   0.00000
   O   0.2418276  -0.2818623  -0.2750564 SPIN=   0.00000
   O  -0.2670282  -0.4351476  -0.2591196 SPIN=   0.00000
   O  -0.2484466  -0.1281758  -0.2248852 SPIN=   0.00000
   S  -0.1129370  -0.2710432  -0.2940338 SPIN=   0.00000
   F  -0.1794359   0.0836161   0.0276917 SPIN=   0.00000
   F   0.3205641  -0.0836161   0.4723083 SPIN=   0.00000
   F  -0.3205641  -0.4163839  -0.0276917 SPIN=   0.00000
   F   0.1794359   0.4163839  -0.4723083 SPIN=   0.00000
%ENDBLOCK POSITIONS_FRAC

# Note: total spin =  16.00

KPOINTS_MP_SPACING 0.07

%BLOCK SPECIES_POT
QC5
%ENDBLOCK SPECIES_POT

SNAP_TO_SYMMETRY
SYMMETRY_GENERATE

