#              Generated by Buildcell
#
# at 09:13:33 (GMT+1.0) 4th August 2020
# in /lustre/scratch/uccabz1/launch_tmp
# on node-c12h-011
# by uccabz1
#
# compiler GCC version 4.9.2
# options -cpp -iprefix /lustre/shared/ucl/apps/gcc/4.9.2/bin/../lib/gcc/x86_64-unknown-linux-gnu/4.9.2/ -mtune=corei7 -march=x86-64 -g -Og
#
# seed   895279500 -1263614765 -1682743535   826217385  1018208270 -2144887383  1086777628  1372223733 -1686730685 -1008487730  -372132735 -1071840701
#
#      Author: C. J. Pickard (cjp20@cam.ac.uk)
#                Space group: P41
#

%BLOCK LATTICE_ABC
      7.01161      7.01161      8.13626
     90.00000     90.00000     90.00000
%ENDBLOCK LATTICE_ABC

%BLOCK POSITIONS_FRAC
  Li  -0.1734323  -0.4006845   0.2809232 SPIN=   0.00000
  Li   0.1734323   0.4006845  -0.2190768 SPIN=   0.00000
  Li  -0.4006845   0.1734323   0.0309232 SPIN=   0.00000
  Li   0.4006845  -0.1734323  -0.4690768 SPIN=   0.00000
  Fe   0.0938723   0.2869454   0.1419302 SPIN=   4.00000
  Fe  -0.0938723  -0.2869454  -0.3580698 SPIN=   4.00000
  Fe   0.2869454  -0.0938723  -0.1080698 SPIN=   4.00000
  Fe  -0.2869454   0.0938723   0.3919302 SPIN=   4.00000
   O  -0.1612244   0.0658953  -0.2596371 SPIN=   0.00000
   O  -0.1145253   0.3353173  -0.0672910 SPIN=   0.00000
   O  -0.4137107   0.3096517  -0.2271628 SPIN=   0.00000
   O  -0.1116155   0.3921832  -0.3674852 SPIN=   0.00000
   S  -0.2002690   0.2757619  -0.2303940 SPIN=   0.00000
   O   0.1612244  -0.0658953   0.2403629 SPIN=   0.00000
   O   0.1145253  -0.3353173   0.4327090 SPIN=   0.00000
   O   0.4137107  -0.3096517   0.2728372 SPIN=   0.00000
   O   0.1116155  -0.3921832   0.1325148 SPIN=   0.00000
   S   0.2002690  -0.2757619   0.2696060 SPIN=   0.00000
   O   0.0658953   0.1612244  -0.5096371 SPIN=   0.00000
   O   0.3353173   0.1145253  -0.3172910 SPIN=   0.00000
   O   0.3096517   0.4137107  -0.4771628 SPIN=   0.00000
   O   0.3921832   0.1116155  -0.6174852 SPIN=   0.00000
   S   0.2757619   0.2002690  -0.4803940 SPIN=   0.00000
   O  -0.0658953  -0.1612244  -0.0096371 SPIN=   0.00000
   O  -0.3353173  -0.1145253   0.1827090 SPIN=   0.00000
   O  -0.3096517  -0.4137107   0.0228372 SPIN=   0.00000
   O  -0.3921832  -0.1116155  -0.1174852 SPIN=   0.00000
   S  -0.2757619  -0.2002690   0.0196060 SPIN=   0.00000
   F   0.2167377  -0.3147946  -0.2266225 SPIN=   0.00000
   F  -0.2167377   0.3147946   0.2733775 SPIN=   0.00000
   F  -0.3147946  -0.2167377  -0.4766225 SPIN=   0.00000
   F   0.3147946   0.2167377   0.0233775 SPIN=   0.00000
%ENDBLOCK POSITIONS_FRAC

# Note: total spin =  16.00

KPOINTS_MP_SPACING 0.07

%BLOCK SPECIES_POT
QC5
%ENDBLOCK SPECIES_POT

SNAP_TO_SYMMETRY
SYMMETRY_GENERATE

