#              Generated by Buildcell
#
# at 05:52:38 (GMT+1.0) 4th August 2020
# in /lustre/scratch/uccabz1/launch_tmp
# on node-c12l-027
# by uccabz1
#
# compiler GCC version 4.9.2
# options -cpp -iprefix /lustre/shared/ucl/apps/gcc/4.9.2/bin/../lib/gcc/x86_64-unknown-linux-gnu/4.9.2/ -mtune=corei7 -march=x86-64 -g -Og
#
# seed   377588915  1610431869 -1256254750   567846896  1048511566 -1717333344   908069768  1826027233 -1689011237  -774818056  1643793418  -974144845
#
#      Author: C. J. Pickard (cjp20@cam.ac.uk)
#                Space group: P42
#

%BLOCK LATTICE_ABC
      4.13470      9.83577      9.83577
     90.00000     90.00000     90.00000
%ENDBLOCK LATTICE_ABC

%BLOCK POSITIONS_FRAC
  Li   0.0551608  -0.2004148  -0.3972644 SPIN=   0.00000
  Li   0.0551608   0.2004148   0.3972644 SPIN=   0.00000
  Li  -0.4448392  -0.3972644   0.2004148 SPIN=   0.00000
  Li  -0.4448392   0.3972644  -0.2004148 SPIN=   0.00000
  Fe  -0.4448394  -0.1250105  -0.1765577 SPIN=   4.00000
  Fe  -0.4448394   0.1250105   0.1765577 SPIN=   4.00000
  Fe   0.0551606  -0.1765577   0.1250105 SPIN=   4.00000
  Fe   0.0551606   0.1765577  -0.1250105 SPIN=   4.00000
   O  -0.6340274   0.1705699  -0.3036584 SPIN=   0.00000
   O  -0.3866149   0.1180842  -0.5266844 SPIN=   0.00000
   O  -0.1230556   0.2825249  -0.3717760 SPIN=   0.00000
   O  -0.6356576   0.3433481  -0.4865784 SPIN=   0.00000
   S  -0.4448389   0.2286318  -0.4221743 SPIN=   0.00000
   O  -0.6340274  -0.1705699   0.3036584 SPIN=   0.00000
   O  -0.3866149  -0.1180842   0.5266844 SPIN=   0.00000
   O  -0.1230556  -0.2825249   0.3717760 SPIN=   0.00000
   O  -0.6356576  -0.3433481   0.4865784 SPIN=   0.00000
   S  -0.4448389  -0.2286318   0.4221743 SPIN=   0.00000
   O  -0.1340274  -0.3036584  -0.1705699 SPIN=   0.00000
   O   0.1133851  -0.5266844  -0.1180842 SPIN=   0.00000
   O   0.3769444  -0.3717760  -0.2825249 SPIN=   0.00000
   O  -0.1356576  -0.4865784  -0.3433481 SPIN=   0.00000
   S   0.0551611  -0.4221743  -0.2286318 SPIN=   0.00000
   O  -0.1340274   0.3036584   0.1705699 SPIN=   0.00000
   O   0.1133851   0.5266844   0.1180842 SPIN=   0.00000
   O   0.3769444   0.3717760   0.2825249 SPIN=   0.00000
   O  -0.1356576   0.4865784   0.3433481 SPIN=   0.00000
   S   0.0551611   0.4221743   0.2286318 SPIN=   0.00000
   F   0.0283974   0.0453089   0.2542628 SPIN=   0.00000
   F   0.0283974  -0.0453089  -0.2542628 SPIN=   0.00000
   F  -0.4716026   0.2542628  -0.0453089 SPIN=   0.00000
   F  -0.4716026  -0.2542628   0.0453089 SPIN=   0.00000
%ENDBLOCK POSITIONS_FRAC

# Note: total spin =  16.00

KPOINTS_MP_SPACING 0.07

%BLOCK SPECIES_POT
QC5
%ENDBLOCK SPECIES_POT

SNAP_TO_SYMMETRY
SYMMETRY_GENERATE

