#              Generated by Buildcell
#
# at 13:00:30 (GMT+1.0) 18th August 2020
# in /lustre/scratch/uccabz1/launch_tmp
# on node-c12l-016
# by uccabz1
#
# compiler GCC version 4.9.2
# options -cpp -iprefix /lustre/shared/ucl/apps/gcc/4.9.2/bin/../lib/gcc/x86_64-unknown-linux-gnu/4.9.2/ -mtune=corei7 -march=x86-64 -g -Og
#
# seed -1834574432  1484780778 -1177872324   616874474 -1127201118   795880939  1699012335  1833494457   815912251  -270359677 -1324753000  -190925212
#
#      Author: C. J. Pickard (cjp20@cam.ac.uk)
#                Space group: Pc
#

%BLOCK LATTICE_ABC
      4.76730      8.20349     10.24238
     90.00000     90.00000     93.04077
%ENDBLOCK LATTICE_ABC

%BLOCK POSITIONS_FRAC
  Li  -0.0203417  -0.0837176  -0.3429461 SPIN=   0.00000
  Li  -0.0203417   0.4162824   0.3429461 SPIN=   0.00000
  Li  -0.2714148   0.3481453  -0.0583695 SPIN=   0.00000
  Li  -0.2714148  -0.1518547   0.0583695 SPIN=   0.00000
  Fe  -0.2970153   0.2312198  -0.3320028 SPIN=   4.28608
  Fe  -0.2970153  -0.2687802   0.3320028 SPIN=   4.28608
  Fe   0.2087782  -0.4286706  -0.4160507 SPIN=   3.71392
  Fe   0.2087782   0.0713294   0.4160507 SPIN=   3.71392
   O   0.0208861  -0.3896696  -0.1947890 SPIN=   0.00000
   O  -0.3443744  -0.3124054  -0.3514296 SPIN=   0.00000
   O  -0.3420669  -0.2024680  -0.1263942 SPIN=   0.00000
   O  -0.4715075  -0.4945094  -0.1656173 SPIN=   0.00000
   S  -0.2842657  -0.3497631  -0.2095575 SPIN=   0.00000
   O   0.0208861   0.1103304   0.1947890 SPIN=   0.00000
   O  -0.3443744   0.1875946   0.3514296 SPIN=   0.00000
   O  -0.3420669   0.2975320   0.1263942 SPIN=   0.00000
   O  -0.4715075   0.0054906   0.1656173 SPIN=   0.00000
   S  -0.2842657   0.1502369   0.2095575 SPIN=   0.00000
   O   0.2677045   0.3266318  -0.0422413 SPIN=   0.00000
   O  -0.0292650   0.5482175   0.0297257 SPIN=   0.00000
   O   0.4884810   0.5841541   0.0445441 SPIN=   0.00000
   O   0.2289831   0.3915903   0.1928208 SPIN=   0.00000
   S   0.2389759   0.4626484   0.0562123 SPIN=   0.00000
   O   0.2677045  -0.1733682   0.0422413 SPIN=   0.00000
   O  -0.0292650   0.0482175  -0.0297257 SPIN=   0.00000
   O   0.4884810   0.0841541  -0.0445441 SPIN=   0.00000
   O   0.2289831  -0.1084097  -0.1928208 SPIN=   0.00000
   S   0.2389759  -0.0373516  -0.0562123 SPIN=   0.00000
   F  -0.3465656  -0.0004453  -0.4434900 SPIN=   0.00000
   F  -0.3465656   0.4995547   0.4434900 SPIN=   0.00000
   F   0.1794304  -0.1902602   0.2925395 SPIN=   0.00000
   F   0.1794304   0.3097398  -0.2925395 SPIN=   0.00000
%ENDBLOCK POSITIONS_FRAC

# Note: total spin =  16.00

KPOINTS_MP_SPACING 0.07

%BLOCK SPECIES_POT
QC5
%ENDBLOCK SPECIES_POT

SNAP_TO_SYMMETRY
SYMMETRY_GENERATE

