#              Generated by Buildcell
#
# at 08:38:48 (GMT+1.0) 18th August 2020
# in /lustre/scratch/uccabz1/launch_tmp
# on node-c12m-014
# by uccabz1
#
# compiler GCC version 4.9.2
# options -cpp -iprefix /lustre/shared/ucl/apps/gcc/4.9.2/bin/../lib/gcc/x86_64-unknown-linux-gnu/4.9.2/ -mtune=corei7 -march=x86-64 -g -Og
#
# seed   634271703  1353978856 -1735111707  -508350721   644601367  1947433575 -1120285309  1643107884  1787016845  -365113818   620738379    38418355
#
#      Author: C. J. Pickard (cjp20@cam.ac.uk)
#                Space group: P2
#

%BLOCK LATTICE_ABC
      7.00734      7.63903      7.95533
     90.00000     90.00000    110.06341
%ENDBLOCK LATTICE_ABC

%BLOCK POSITIONS_FRAC
  Li   0.2096252   0.3903835   0.4505817 SPIN=   0.00000
  Li  -0.2096252  -0.3903835   0.4505817 SPIN=   0.00000
  Li  -0.2904090   0.3894272  -0.0357576 SPIN=   0.00000
  Li   0.2904090  -0.3894272  -0.0357576 SPIN=   0.00000
  Fe  -0.4332356  -0.2103395   0.2397598 SPIN=   1.91854
  Fe   0.4332356   0.2103395   0.2397598 SPIN=   1.91854
  Fe   0.4106898   0.2257828  -0.3009095 SPIN=   6.08146
  Fe  -0.4106898  -0.2257828  -0.3009095 SPIN=   6.08146
   O  -0.1042835  -0.3367006  -0.2441609 SPIN=   0.00000
   O   0.2580174  -0.3031817  -0.2749833 SPIN=   0.00000
   O   0.1595847  -0.0228766  -0.2466241 SPIN=   0.00000
   O   0.0787226  -0.2101052  -0.5077205 SPIN=   0.00000
   S   0.0980103  -0.2182160  -0.3183722 SPIN=   0.00000
   O   0.1042835   0.3367006  -0.2441609 SPIN=   0.00000
   O  -0.2580174   0.3031817  -0.2749833 SPIN=   0.00000
   O  -0.1595847   0.0228766  -0.2466241 SPIN=   0.00000
   O  -0.0787226   0.2101052  -0.5077205 SPIN=   0.00000
   S  -0.0980103   0.2182160  -0.3183722 SPIN=   0.00000
   O  -0.1703936   0.3571661   0.2599008 SPIN=   0.00000
   O   0.1447278   0.2868102   0.2118882 SPIN=   0.00000
   O  -0.1160569   0.2230475  -0.0115308 SPIN=   0.00000
   O  -0.1835458   0.0295729   0.2459757 SPIN=   0.00000
   S  -0.0813171   0.2241492   0.1765585 SPIN=   0.00000
   O   0.1703936  -0.3571661   0.2599008 SPIN=   0.00000
   O  -0.1447278  -0.2868102   0.2118882 SPIN=   0.00000
   O   0.1160569  -0.2230475  -0.0115308 SPIN=   0.00000
   O   0.1835458  -0.0295729   0.2459757 SPIN=   0.00000
   S   0.0813171  -0.2241492   0.1765585 SPIN=   0.00000
   F   0.4082762   0.2253239  -0.0268709 SPIN=   0.00000
   F  -0.4082762  -0.2253239  -0.0268709 SPIN=   0.00000
   F   0.4215425   0.2259532   0.4696005 SPIN=   0.00000
   F  -0.4215425  -0.2259532   0.4696005 SPIN=   0.00000
%ENDBLOCK POSITIONS_FRAC

# Note: total spin =  16.00

KPOINTS_MP_SPACING 0.07

%BLOCK SPECIES_POT
QC5
%ENDBLOCK SPECIES_POT

SNAP_TO_SYMMETRY
SYMMETRY_GENERATE

