#              Generated by Buildcell
#
# at 08:16:44 (GMT+1.0) 4th August 2020
# in /lustre/scratch/uccabz1/launch_tmp
# on node-c12f-014
# by uccabz1
#
# compiler GCC version 4.9.2
# options -cpp -iprefix /lustre/shared/ucl/apps/gcc/4.9.2/bin/../lib/gcc/x86_64-unknown-linux-gnu/4.9.2/ -mtune=corei7 -march=x86-64 -g -Og
#
# seed  -557564551 -1256427519  -140151932  1590473837  -515044778  1765049792  1107881086   -41236464   831885221   989684791  -872846743  -558993519
#
#      Author: C. J. Pickard (cjp20@cam.ac.uk)
#                Space group: P2
#

%BLOCK LATTICE_ABC
      7.15621      7.50305      7.57105
    100.27212     90.00000     90.00000
%ENDBLOCK LATTICE_ABC

%BLOCK POSITIONS_FRAC
  Li  -0.3711066  -0.2432060   0.1114296 SPIN=   0.00000
  Li  -0.3711066   0.2432060  -0.1114296 SPIN=   0.00000
  Li   0.0886990   0.2984388   0.2836180 SPIN=   0.00000
  Li   0.0886990  -0.2984388  -0.2836180 SPIN=   0.00000
  Fe   0.4852504  -0.3828114  -0.2719858 SPIN=   2.65596
  Fe   0.4852504   0.3828114   0.2719858 SPIN=   2.65596
  Fe  -0.0798237  -0.3378628   0.3569273 SPIN=   5.34404
  Fe  -0.0798237   0.3378628  -0.3569273 SPIN=   5.34404
   O  -0.2062582   0.0871609  -0.3694329 SPIN=   0.00000
   O  -0.1888647  -0.2451481  -0.3884270 SPIN=   0.00000
   O  -0.3669081  -0.0580746  -0.1426321 SPIN=   0.00000
   O  -0.0215420  -0.0418991  -0.1462064 SPIN=   0.00000
   S  -0.1958932  -0.0644902  -0.2616746 SPIN=   0.00000
   O  -0.2062582  -0.0871609   0.3694329 SPIN=   0.00000
   O  -0.1888647   0.2451481   0.3884270 SPIN=   0.00000
   O  -0.3669081   0.0580746   0.1426321 SPIN=   0.00000
   O  -0.0215420   0.0418991   0.1462064 SPIN=   0.00000
   S  -0.1958932   0.0644902   0.2616746 SPIN=   0.00000
   O   0.0805145  -0.2652915  -0.0185095 SPIN=   0.00000
   O   0.1984967  -0.1194872   0.2796608 SPIN=   0.00000
   O   0.4026018  -0.1436060   0.0125624 SPIN=   0.00000
   O   0.3216852  -0.4182600   0.1351246 SPIN=   0.00000
   S   0.2508246  -0.2366612   0.1022096 SPIN=   0.00000
   O   0.0805145   0.2652915   0.0185095 SPIN=   0.00000
   O   0.1984967   0.1194872  -0.2796608 SPIN=   0.00000
   O   0.4026018   0.1436060  -0.0125624 SPIN=   0.00000
   O   0.3216852   0.4182600  -0.1351246 SPIN=   0.00000
   S   0.2508246   0.2366612  -0.1022096 SPIN=   0.00000
   F  -0.3125520   0.4462211  -0.2578007 SPIN=   0.00000
   F  -0.3125520  -0.4462211   0.2578007 SPIN=   0.00000
   F   0.2941853   0.2415277   0.4007096 SPIN=   0.00000
   F   0.2941853  -0.2415277  -0.4007096 SPIN=   0.00000
%ENDBLOCK POSITIONS_FRAC

# Note: total spin =  16.00

KPOINTS_MP_SPACING 0.07

%BLOCK SPECIES_POT
QC5
%ENDBLOCK SPECIES_POT

SNAP_TO_SYMMETRY
SYMMETRY_GENERATE

