#              Generated by Buildcell
#
# at 05:50:27 (GMT+1.0) 4th August 2020
# in /lustre/scratch/uccabz1/launch_tmp
# on node-c12g-008
# by uccabz1
#
# compiler GCC version 4.9.2
# options -cpp -iprefix /lustre/shared/ucl/apps/gcc/4.9.2/bin/../lib/gcc/x86_64-unknown-linux-gnu/4.9.2/ -mtune=corei7 -march=x86-64 -g -Og
#
# seed  -654775805   970212772   317264443 -1407009170 -1404818997  -217700134  1645470896   781765624 -1638696650   -23956738   -70735747 -1677269743
#
#      Author: C. J. Pickard (cjp20@cam.ac.uk)
#                Space group: Pc
#

%BLOCK LATTICE_ABC
      5.10795      8.49840      9.21524
     90.00000     90.67680     90.00000
%ENDBLOCK LATTICE_ABC

%BLOCK POSITIONS_FRAC
  Li   0.3047894   0.0459440  -0.3636434 SPIN=   0.00000
  Li  -0.1952106  -0.0459440   0.1363566 SPIN=   0.00000
  Li   0.3076178  -0.3581746   0.4615536 SPIN=   0.00000
  Li  -0.1923822   0.3581746  -0.0384464 SPIN=   0.00000
  Fe  -0.1897707   0.3627118   0.3188519 SPIN=   5.58013
  Fe   0.3102293  -0.3627118  -0.1811481 SPIN=   5.58013
  Fe   0.3082901   0.0567861   0.2997239 SPIN=   2.41987
  Fe  -0.1917099  -0.0567861  -0.2002761 SPIN=   2.41987
   O   0.5660247   0.1249785  -0.1125156 SPIN=   0.00000
   O   0.0918710   0.1262059  -0.1709379 SPIN=   0.00000
   O   0.3447856   0.3743978  -0.1786309 SPIN=   0.00000
   O   0.2540984   0.2473987   0.0571703 SPIN=   0.00000
   S   0.3141949   0.2182452  -0.1012285 SPIN=   0.00000
   O   0.0660247  -0.1249785   0.3874844 SPIN=   0.00000
   O  -0.4081290  -0.1262059   0.3290621 SPIN=   0.00000
   O  -0.1552144  -0.3743978   0.3213691 SPIN=   0.00000
   O  -0.2459016  -0.2473987   0.5571703 SPIN=   0.00000
   S  -0.1858051  -0.2182452   0.3987715 SPIN=   0.00000
   O   0.4028945  -0.5286635   0.3072563 SPIN=   0.00000
   O   0.0509676  -0.5148409   0.1207881 SPIN=   0.00000
   O   0.5098885  -0.4604981   0.0536781 SPIN=   0.00000
   O   0.2684530  -0.2709532   0.2059283 SPIN=   0.00000
   S   0.3080509  -0.4437389   0.1719127 SPIN=   0.00000
   O  -0.0971055   0.5286635  -0.1927437 SPIN=   0.00000
   O  -0.4490324   0.5148409  -0.3792119 SPIN=   0.00000
   O   0.0098885   0.4604981  -0.4463219 SPIN=   0.00000
   O  -0.2315470   0.2709532  -0.2940717 SPIN=   0.00000
   S  -0.1919491   0.4437389  -0.3280873 SPIN=   0.00000
   F   0.3044428   0.1949607   0.4833358 SPIN=   0.00000
   F  -0.1955572  -0.1949607  -0.0166642 SPIN=   0.00000
   F   0.2988122  -0.1661809  -0.2992243 SPIN=   0.00000
   F  -0.2011878   0.1661809   0.2007757 SPIN=   0.00000
%ENDBLOCK POSITIONS_FRAC

# Note: total spin =  16.00

KPOINTS_MP_SPACING 0.07

%BLOCK SPECIES_POT
QC5
%ENDBLOCK SPECIES_POT

SNAP_TO_SYMMETRY
SYMMETRY_GENERATE

