#              Generated by Buildcell
#
# at 22:58:15 (GMT+1.0) 17th August 2020
# in /lustre/scratch/uccabz1/launch_tmp
# on node-c12n-031
# by uccabz1
#
# compiler GCC version 4.9.2
# options -cpp -iprefix /lustre/shared/ucl/apps/gcc/4.9.2/bin/../lib/gcc/x86_64-unknown-linux-gnu/4.9.2/ -mtune=corei7 -march=x86-64 -g -Og
#
# seed  1962912397  -213934096  -895518984  1547574212 -1099613953   195324827  1751470751  1532181032  -930603058 -1142186730  -723667763  1280059808
#
#      Author: C. J. Pickard (cjp20@cam.ac.uk)
#                Space group: Pc
#

%BLOCK LATTICE_ABC
      7.00402      7.67620      8.28735
     90.00000     90.00000    116.13746
%ENDBLOCK LATTICE_ABC

%BLOCK POSITIONS_FRAC
  Li   0.0457185  -0.2595530  -0.3442011 SPIN=   0.00000
  Li   0.0457185   0.2404470   0.3442011 SPIN=   0.00000
  Li  -0.1481768  -0.3679226   0.1810591 SPIN=   0.00000
  Li  -0.1481768   0.1320774  -0.1810591 SPIN=   0.00000
  Fe   0.6370990   0.2487966   0.4464858 SPIN=   3.22423
  Fe  -0.3629010  -0.2512034  -0.4464858 SPIN=   3.22423
  Fe  -0.3216999  -0.0767164   0.1312110 SPIN=   4.77577
  Fe   0.6783001   0.4232836  -0.1312110 SPIN=   4.77577
   O   0.2797368  -0.0942488   0.1870955 SPIN=   0.00000
   O   0.0644918  -0.0206887   0.3884065 SPIN=   0.00000
   O   0.3715134  -0.0748849   0.4770424 SPIN=   0.00000
   O   0.0460930  -0.3498186   0.3750743 SPIN=   0.00000
   S   0.1904588  -0.1349102   0.3569047 SPIN=   0.00000
   O   0.2797368   0.4057512  -0.1870955 SPIN=   0.00000
   O   0.0644918   0.4793113  -0.3884065 SPIN=   0.00000
   O   0.3715134   0.4251151  -0.4770424 SPIN=   0.00000
   O   0.0460930   0.1501814  -0.3750743 SPIN=   0.00000
   S   0.1904588   0.3650898  -0.3569047 SPIN=   0.00000
   O   0.5140619   0.0582346  -0.0340375 SPIN=   0.00000
   O   0.3155590   0.0639326  -0.2794529 SPIN=   0.00000
   O   0.2390168  -0.2485291  -0.1463040 SPIN=   0.00000
   O   0.5787929  -0.0695831  -0.2918465 SPIN=   0.00000
   S   0.4118576  -0.0489863  -0.1879102 SPIN=   0.00000
   O   0.5140619   0.5582346   0.0340375 SPIN=   0.00000
   O   0.3155590   0.5639326   0.2794529 SPIN=   0.00000
   O   0.2390168   0.2514709   0.1463040 SPIN=   0.00000
   O   0.5787929   0.4304169   0.2918465 SPIN=   0.00000
   S   0.4118576   0.4510137   0.1879102 SPIN=   0.00000
   F  -0.0543790  -0.0115684  -0.0500387 SPIN=   0.00000
   F   0.9456210   0.4884316   0.0500387 SPIN=   0.00000
   F  -0.2407961  -0.4215231  -0.3796787 SPIN=   0.00000
   F  -0.2407961   0.0784769   0.3796787 SPIN=   0.00000
%ENDBLOCK POSITIONS_FRAC

# Note: total spin =  16.00

KPOINTS_MP_SPACING 0.07

%BLOCK SPECIES_POT
QC5
%ENDBLOCK SPECIES_POT

SNAP_TO_SYMMETRY
SYMMETRY_GENERATE

