#              Generated by Buildcell
#
# at 23:41:00 (GMT+1.0) 17th August 2020
# in /lustre/scratch/uccabz1/launch_tmp
# on node-c12j-028
# by uccabz1
#
# compiler GCC version 4.9.2
# options -cpp -iprefix /lustre/shared/ucl/apps/gcc/4.9.2/bin/../lib/gcc/x86_64-unknown-linux-gnu/4.9.2/ -mtune=corei7 -march=x86-64 -g -Og
#
# seed  -785294263    -5925403  1684020690   543364068  -713323981   272496665 -1447102940  2035509949 -1124896020 -1507297398 -1560994136   299527679
#
#      Author: C. J. Pickard (cjp20@cam.ac.uk)
#                Space group: P-1
#

%BLOCK LATTICE_ABC
      4.48812      6.47201     13.92264
     88.23171     87.43573     82.04918
%ENDBLOCK LATTICE_ABC

%BLOCK POSITIONS_FRAC
  Li  -0.1075824  -0.2479119   0.1148149 SPIN=   0.00000
  Li   0.1075824   0.2479119  -0.1148149 SPIN=   0.00000
  Li  -0.2932075   0.0486805  -0.3209558 SPIN=   0.00000
  Li   0.2932075  -0.0486805   0.3209558 SPIN=   0.00000
  Fe   0.3947566   0.4975547   0.2267932 SPIN=   2.76380
  Fe  -0.3947566  -0.4975547  -0.2267932 SPIN=   2.76380
  Fe   0.2879301  -0.2036000  -0.4427925 SPIN=   5.23620
  Fe  -0.2879301   0.2036000   0.4427925 SPIN=   5.23620
   O  -0.0343662   0.3348533   0.1864199 SPIN=   0.00000
   O  -0.1801904   0.0584085   0.0864689 SPIN=   0.00000
   O   0.2826568   0.2144774   0.0435275 SPIN=   0.00000
   O  -0.2174745   0.4221641   0.0230922 SPIN=   0.00000
   S  -0.0373436   0.2574758   0.0848771 SPIN=   0.00000
   O   0.0343662  -0.3348533  -0.1864199 SPIN=   0.00000
   O   0.1801904  -0.0584085  -0.0864689 SPIN=   0.00000
   O  -0.2826568  -0.2144774  -0.0435275 SPIN=   0.00000
   O   0.2174745  -0.4221641  -0.0230922 SPIN=   0.00000
   S   0.0373436  -0.2574758  -0.0848771 SPIN=   0.00000
   O   0.0722388   0.1361914  -0.4430305 SPIN=   0.00000
   O   0.5061924   0.2981138  -0.3922475 SPIN=   0.00000
   O   0.0763022   0.2656081  -0.2777356 SPIN=   0.00000
   O   0.0153249   0.5159383  -0.4157639 SPIN=   0.00000
   S   0.1675146   0.3039629  -0.3821944 SPIN=   0.00000
   O  -0.0722388  -0.1361914   0.4430305 SPIN=   0.00000
   O  -0.5061924  -0.2981138   0.3922475 SPIN=   0.00000
   O  -0.0763022  -0.2656081   0.2777356 SPIN=   0.00000
   O  -0.0153249  -0.5159383   0.4157639 SPIN=   0.00000
   S  -0.1675146  -0.3039629   0.3821944 SPIN=   0.00000
   F  -0.4388657   0.2517662  -0.1465249 SPIN=   0.00000
   F   0.4388657  -0.2517662   0.1465249 SPIN=   0.00000
   F  -0.4685303  -0.2345771  -0.3104670 SPIN=   0.00000
   F   0.4685303   0.2345771   0.3104670 SPIN=   0.00000
%ENDBLOCK POSITIONS_FRAC

# Note: total spin =  16.00

KPOINTS_MP_SPACING 0.07

%BLOCK SPECIES_POT
QC5
%ENDBLOCK SPECIES_POT

SNAP_TO_SYMMETRY
SYMMETRY_GENERATE

