#              Generated by Buildcell
#
# at 06:43:04 (GMT+1.0) 4th August 2020
# in /lustre/scratch/uccabz1/launch_tmp
# on node-c12f-002
# by uccabz1
#
# compiler GCC version 4.9.2
# options -cpp -iprefix /lustre/shared/ucl/apps/gcc/4.9.2/bin/../lib/gcc/x86_64-unknown-linux-gnu/4.9.2/ -mtune=corei7 -march=x86-64 -g -Og
#
# seed  1958766337   944911788 -1944226589  1740485348  1090997338   -77760874 -1304511731 -1616871864  -412721209  1467387412   455178486   189034515
#
#      Author: C. J. Pickard (cjp20@cam.ac.uk)
#                Space group: Cm
#

%BLOCK LATTICE_ABC
      6.38868      7.93407      7.93407
     87.88938     85.99919     85.99919
%ENDBLOCK LATTICE_ABC

%BLOCK POSITIONS_FRAC
  Li   0.3877362   0.4649569  -0.0227567 SPIN=   0.00000
  Li   0.3877362  -0.0227567   0.4649569 SPIN=   0.00000
  Li  -0.0380266  -0.3490674  -0.3490674 SPIN=   0.00000
  Li  -0.0248278   0.1771410   0.1771410 SPIN=   0.00000
  Fe   0.0225579   0.0611304  -0.2588838 SPIN=   5.52541
  Fe   0.0225579  -0.2588838   0.0611304 SPIN=   5.52541
  Fe  -0.4297885   0.0818364   0.0818364 SPIN=   3.13372
  Fe  -0.4753884  -0.2312363  -0.2312363 SPIN=   1.81545
   O  -0.2417895   0.5816841  -0.1542982 SPIN=   0.00000
   O  -0.1812922   0.2751133  -0.2019738 SPIN=   0.00000
   O  -0.3370242   0.3744693   0.0741664 SPIN=   0.00000
   O   0.0374170   0.4134376  -0.0094625 SPIN=   0.00000
   S  -0.1806722   0.4111761  -0.0728920 SPIN=   0.00000
   O  -0.2417895  -0.1542982   0.5816841 SPIN=   0.00000
   O  -0.1812922  -0.2019738   0.2751133 SPIN=   0.00000
   O  -0.3370242   0.0741664   0.3744693 SPIN=   0.00000
   O   0.0374170  -0.0094625   0.4134376 SPIN=   0.00000
   S  -0.1806722  -0.0728920   0.4111761 SPIN=   0.00000
   O   0.5830223   0.1056050  -0.3292050 SPIN=   0.00000
   O   0.5615187   0.4171261  -0.3679831 SPIN=   0.00000
   O   0.2581183   0.2733841  -0.2336052 SPIN=   0.00000
   O   0.3537172   0.2447304  -0.5393837 SPIN=   0.00000
   S   0.4390941   0.2602114  -0.3675443 SPIN=   0.00000
   O   0.5830223  -0.3292050   0.1056050 SPIN=   0.00000
   O   0.5615187  -0.3679831   0.4171261 SPIN=   0.00000
   O   0.2581183  -0.2336052   0.2733841 SPIN=   0.00000
   O   0.3537172  -0.5393837   0.2447304 SPIN=   0.00000
   S   0.4390941  -0.3675443   0.2602114 SPIN=   0.00000
   F  -0.0520922   0.4272544   0.4272544 SPIN=   0.00000
   F  -0.1967713  -0.0621993  -0.0621993 SPIN=   0.00000
   F   0.2645229  -0.3021067  -0.3021067 SPIN=   0.00000
   F   0.2725331   0.1258018   0.1258018 SPIN=   0.00000
%ENDBLOCK POSITIONS_FRAC

# Note: total spin =  16.00

KPOINTS_MP_SPACING 0.07

%BLOCK SPECIES_POT
QC5
%ENDBLOCK SPECIES_POT

SNAP_TO_SYMMETRY
SYMMETRY_GENERATE

