#              Generated by Buildcell
#
# at 07:36:37 (GMT+1.0) 4th August 2020
# in /lustre/scratch/uccabz1/launch_tmp
# on node-c12k-031
# by uccabz1
#
# compiler GCC version 4.9.2
# options -cpp -iprefix /lustre/shared/ucl/apps/gcc/4.9.2/bin/../lib/gcc/x86_64-unknown-linux-gnu/4.9.2/ -mtune=corei7 -march=x86-64 -g -Og
#
# seed  1800176268   624148399 -1145749532  1536354508  2096029991 -1230572473    94099275  1556252176 -1409306280  1829285905  1372136347   127778878
#
#      Author: C. J. Pickard (cjp20@cam.ac.uk)
#                Space group: C2
#

%BLOCK LATTICE_ABC
      6.90066      7.27569      8.92217
    114.06236    100.99962     90.00000
%ENDBLOCK LATTICE_ABC

%BLOCK POSITIONS_FRAC
  Li   0.4655683  -0.1787407  -0.2834006 SPIN=   0.00000
  Li  -0.4655683   0.1046598   0.2834006 SPIN=   0.00000
  Li  -0.1675849  -0.4129806   0.4690907 SPIN=   0.00000
  Li   0.1675849   0.1179287  -0.4690907 SPIN=   0.00000
  Fe   0.2417836   0.3955607   0.2805823 SPIN=   5.79480
  Fe  -0.2417836   0.1149784  -0.2805823 SPIN=   5.79480
  Fe   0.2679825  -0.2621631   0.0748674 SPIN=   2.20520
  Fe  -0.2679825  -0.3370305  -0.0748674 SPIN=   2.20520
   O  -0.2940336   0.0614225   0.1069866 SPIN=   0.00000
   O  -0.4028185   0.4074345   0.1990115 SPIN=   0.00000
   O  -0.1830261   0.2941216  -0.0050593 SPIN=   0.00000
   O  -0.0535886   0.3555048   0.2913085 SPIN=   0.00000
   S  -0.2333667   0.2796209   0.1480618 SPIN=   0.00000
   O   0.2940336  -0.0455641  -0.1069866 SPIN=   0.00000
   O   0.4028185   0.2084230  -0.1990115 SPIN=   0.00000
   O   0.1830261   0.2991809   0.0050593 SPIN=   0.00000
   O   0.0535886   0.0641963  -0.2913085 SPIN=   0.00000
   S   0.2333667   0.1315590  -0.1480618 SPIN=   0.00000
   O   0.0996868  -0.2843294  -0.3662510 SPIN=   0.00000
   O   0.2290796  -0.6183565  -0.4927195 SPIN=   0.00000
   O   0.0062192  -0.5616918  -0.2939429 SPIN=   0.00000
   O   0.3488686  -0.3986047  -0.1910732 SPIN=   0.00000
   S   0.1709636  -0.4657456  -0.3359966 SPIN=   0.00000
   O  -0.0996868   0.0819216   0.3662510 SPIN=   0.00000
   O  -0.2290796  -0.1256370   0.4927195 SPIN=   0.00000
   O  -0.0062192  -0.2677490   0.2939429 SPIN=   0.00000
   O  -0.3488686  -0.2075316   0.1910732 SPIN=   0.00000
   S  -0.1709636  -0.1297490   0.3359966 SPIN=   0.00000
   F  -0.3882544   0.2903088  -0.4034380 SPIN=   0.00000
   F   0.3882544  -0.3062532   0.4034380 SPIN=   0.00000
   F   0.2157081   0.0475613   0.2082866 SPIN=   0.00000
   F  -0.2157081  -0.1607254  -0.2082866 SPIN=   0.00000
%ENDBLOCK POSITIONS_FRAC

# Note: total spin =  16.00

KPOINTS_MP_SPACING 0.07

%BLOCK SPECIES_POT
QC5
%ENDBLOCK SPECIES_POT

SNAP_TO_SYMMETRY
SYMMETRY_GENERATE

