#              Generated by Buildcell
#
# at 11:08:09 (GMT+1.0) 18th August 2020
# in /lustre/scratch/uccabz1/launch_tmp
# on node-c12a-035
# by uccabz1
#
# compiler GCC version 4.9.2
# options -cpp -iprefix /lustre/shared/ucl/apps/gcc/4.9.2/bin/../lib/gcc/x86_64-unknown-linux-gnu/4.9.2/ -mtune=corei7 -march=x86-64 -g -Og
#
# seed  -553012890 -1570380470   -20095666  -894096333  -682543861 -1934936035 -1793598643 -2071923023 -1555991771  -406719037  -131541278  1045205431
#
#      Author: C. J. Pickard (cjp20@cam.ac.uk)
#                Space group: P21
#

%BLOCK LATTICE_ABC
      4.66450      7.39124     11.72396
     90.00000     90.00000     98.26719
%ENDBLOCK LATTICE_ABC

%BLOCK POSITIONS_FRAC
  Li   0.1628127  -0.0719818  -0.1246379 SPIN=   0.00000
  Li  -0.1628127   0.0719818   0.3753621 SPIN=   0.00000
  Li   0.3854554   0.3005444  -0.4324781 SPIN=   0.00000
  Li  -0.3854554  -0.3005444   0.0675219 SPIN=   0.00000
  Fe  -0.1636515  -0.3993492  -0.4952225 SPIN=   4.37537
  Fe   0.1636515   0.3993492   0.0047775 SPIN=   4.37537
  Fe  -0.3760698   0.2091146  -0.2063759 SPIN=   3.62463
  Fe   0.3760698  -0.2091146   0.2936241 SPIN=   3.62463
   O   0.0638682  -0.0780761   0.0479401 SPIN=   0.00000
   O  -0.0434598   0.2172963   0.1239357 SPIN=   0.00000
   O   0.1121396  -0.0128842   0.2546530 SPIN=   0.00000
   O  -0.3738136  -0.0679344   0.1657399 SPIN=   0.00000
   S  -0.0603164   0.0146004   0.1480672 SPIN=   0.00000
   O  -0.0638682   0.0780761  -0.4520599 SPIN=   0.00000
   O   0.0434598  -0.2172963  -0.3760643 SPIN=   0.00000
   O  -0.1121396   0.0128842  -0.2453470 SPIN=   0.00000
   O   0.3738136   0.0679344  -0.3342601 SPIN=   0.00000
   S   0.0603164  -0.0146004  -0.3519328 SPIN=   0.00000
   O   0.2563624  -0.6588465  -0.2071442 SPIN=   0.00000
   O   0.4254654  -0.4354055  -0.3585278 SPIN=   0.00000
   O   0.2145485  -0.3314809  -0.1806354 SPIN=   0.00000
   O  -0.0991763  -0.5165098  -0.3204983 SPIN=   0.00000
   S   0.1993000  -0.4855607  -0.2667014 SPIN=   0.00000
   O  -0.2563624   0.6588465   0.2928558 SPIN=   0.00000
   O  -0.4254654   0.4354055   0.1414722 SPIN=   0.00000
   O  -0.2145485   0.3314809   0.3193646 SPIN=   0.00000
   O   0.0991763   0.5165098   0.1795017 SPIN=   0.00000
   S  -0.1993000   0.4855607   0.2332986 SPIN=   0.00000
   F   0.2485511   0.2409179   0.3965131 SPIN=   0.00000
   F  -0.2485511  -0.2409179  -0.1034869 SPIN=   0.00000
   F  -0.4943381  -0.2340464   0.4682349 SPIN=   0.00000
   F   0.4943381   0.2340464  -0.0317651 SPIN=   0.00000
%ENDBLOCK POSITIONS_FRAC

# Note: total spin =  16.00

KPOINTS_MP_SPACING 0.07

%BLOCK SPECIES_POT
QC5
%ENDBLOCK SPECIES_POT

SNAP_TO_SYMMETRY
SYMMETRY_GENERATE

