#              Generated by Buildcell
#
# at 07:49:17 (GMT+1.0) 4th August 2020
# in /lustre/scratch/uccabz1/launch_tmp
# on node-c12p-010
# by uccabz1
#
# compiler GCC version 4.9.2
# options -cpp -iprefix /lustre/shared/ucl/apps/gcc/4.9.2/bin/../lib/gcc/x86_64-unknown-linux-gnu/4.9.2/ -mtune=corei7 -march=x86-64 -g -Og
#
# seed  1908466928  1809367686 -1857226337  -634732769 -1769883620   656278127   175608771 -1375909834 -1322782048 -2025501222   318985044 -2144402681
#
#      Author: C. J. Pickard (cjp20@cam.ac.uk)
#                Space group: P21
#

%BLOCK LATTICE_ABC
      4.09334      7.09830     13.79298
     90.00000     90.00000     93.54007
%ENDBLOCK LATTICE_ABC

%BLOCK POSITIONS_FRAC
  Li   0.1740130   0.3677560  -0.1465940 SPIN=   0.00000
  Li  -0.1740130  -0.3677560   0.3534060 SPIN=   0.00000
  Li  -0.3583802   0.1175743   0.3362076 SPIN=   0.00000
  Li   0.3583802  -0.1175743  -0.1637924 SPIN=   0.00000
  Fe  -0.2469990  -0.1239757  -0.4688118 SPIN=   3.98568
  Fe   0.2469990   0.1239757   0.0311882 SPIN=   3.98568
  Fe   0.2033673   0.3839085   0.4855535 SPIN=   4.01432
  Fe  -0.2033673  -0.3839085  -0.0144465 SPIN=   4.01432
   O  -0.2257532  -0.2669340  -0.1591335 SPIN=   0.00000
   O  -0.2299002  -0.5694807  -0.2484351 SPIN=   0.00000
   O   0.2618359  -0.3485219  -0.2526391 SPIN=   0.00000
   O  -0.2420753  -0.2684405  -0.3384977 SPIN=   0.00000
   S  -0.1089732  -0.3633443  -0.2496763 SPIN=   0.00000
   O   0.2257532   0.2669340   0.3408665 SPIN=   0.00000
   O   0.2299002   0.5694807   0.2515649 SPIN=   0.00000
   O  -0.2618359   0.3485219   0.2473609 SPIN=   0.00000
   O   0.2420753   0.2684405   0.1615023 SPIN=   0.00000
   S   0.1089732   0.3633443   0.2503237 SPIN=   0.00000
   O  -0.2840789  -0.3645426   0.1788822 SPIN=   0.00000
   O  -0.6055308  -0.0809820   0.1878275 SPIN=   0.00000
   O  -0.0757412  -0.0669550   0.1008601 SPIN=   0.00000
   O  -0.0879589  -0.0922868   0.2797954 SPIN=   0.00000
   S  -0.2633275  -0.1511916   0.1868413 SPIN=   0.00000
   O   0.2840789   0.3645426  -0.3211178 SPIN=   0.00000
   O   0.6055308   0.0809820  -0.3121725 SPIN=   0.00000
   O   0.0757412   0.0669550  -0.3991399 SPIN=   0.00000
   O   0.0879589   0.0922868  -0.2202046 SPIN=   0.00000
   S   0.2633275   0.1511916  -0.3131587 SPIN=   0.00000
   F   0.2662472  -0.2643664  -0.4693104 SPIN=   0.00000
   F  -0.2662472   0.2643664   0.0306896 SPIN=   0.00000
   F   0.2760999  -0.2478662  -0.0320380 SPIN=   0.00000
   F  -0.2760999   0.2478662   0.4679620 SPIN=   0.00000
%ENDBLOCK POSITIONS_FRAC

# Note: total spin =  16.00

KPOINTS_MP_SPACING 0.07

%BLOCK SPECIES_POT
QC5
%ENDBLOCK SPECIES_POT

SNAP_TO_SYMMETRY
SYMMETRY_GENERATE

