#              Generated by Buildcell
#
# at 08:09:59 (GMT+1.0) 18th August 2020
# in /scratch/scratch/uccabz1/launch_tmp
# on node-k10h-007
# by uccabz1
#
# compiler GCC version 4.9.2
# options -cpp -iprefix /scratch/UCL/applications/gcc/4.9.2/bin/../lib/gcc/x86_64-unknown-linux-gnu/4.9.2/ -mtune=corei7 -march=x86-64 -g -O2
#
# seed  -216823991    79681245  -804005753 -2036171716 -1764331515  -400711909  1174226210  1928305233  1830559471   -52392549   456311736  1974319588
#
#      Author: C. J. Pickard (cjp20@cam.ac.uk)
#                Space group: Cc
#

%BLOCK LATTICE_ABC
      5.92815      5.92815     12.87113
     95.66595    100.11924    113.83912
%ENDBLOCK LATTICE_ABC

%BLOCK POSITIONS_FRAC
  Li  -0.2797415  -0.4276226   0.1122473 SPIN=   0.00000
  Li   0.0398699   0.3919889  -0.3877527 SPIN=   0.00000
  Li   0.4808401   0.3482203  -0.1726671 SPIN=   0.00000
  Li  -0.0208874   0.3464928   0.3273329 SPIN=   0.00000
  Fe   0.4677528  -0.1540479   0.2140869 SPIN=   4.10041
  Fe  -0.1318652  -0.2536659  -0.2859131 SPIN=   4.10041
  Fe   0.0426373  -0.1303830   0.3853071 SPIN=   3.89959
  Fe   0.0156901   0.3426698  -0.1146929 SPIN=   3.89959
   O  -0.6217687   0.1824415   0.4594641 SPIN=   0.00000
   O  -0.3002016   0.6024484   0.5575989 SPIN=   0.00000
   O  -0.6624120   0.5639127   0.4161523 SPIN=   0.00000
   O  -0.3228667   0.4656294   0.3665442 SPIN=   0.00000
   S  -0.4768122   0.4536080   0.4499399 SPIN=   0.00000
   O   0.7770225   0.0812327  -0.0405359 SPIN=   0.00000
   O   0.4551505  -0.1421995   0.0575989 SPIN=   0.00000
   O   0.3522396   0.0785643  -0.0838477 SPIN=   0.00000
   O   0.4009148  -0.3105891  -0.1334558 SPIN=   0.00000
   S   0.4963318  -0.0732479  -0.0500601 SPIN=   0.00000
   O   0.1461477  -0.0121921   0.0481218 SPIN=   0.00000
   O   0.1222975   0.3964648   0.0703734 SPIN=   0.00000
   O   0.4652553   0.3419235   0.1895680 SPIN=   0.00000
   O   0.0224237   0.1292900   0.2072999 SPIN=   0.00000
   S   0.1890310   0.2138715   0.1288407 SPIN=   0.00000
   O   0.5603138  -0.0980259  -0.4518782 SPIN=   0.00000
   O   0.1739086  -0.0519242  -0.4296266 SPIN=   0.00000
   O   0.3476445  -0.2756873  -0.3104320 SPIN=   0.00000
   O   0.5780099   0.1848762  -0.2927001 SPIN=   0.00000
   S   0.4149692  -0.0601903  -0.3711593 SPIN=   0.00000
   F   0.0497282   0.1604290  -0.2517254 SPIN=   0.00000
   F   0.0878456  -0.3014536   0.2482746 SPIN=   0.00000
   F  -0.1578673  -0.3963431  -0.1249655 SPIN=   0.00000
   F  -0.2286224   0.0329018   0.3750345 SPIN=   0.00000
%ENDBLOCK POSITIONS_FRAC

# Note: total spin =  16.00

KPOINTS_MP_SPACING 0.07

%BLOCK SPECIES_POT
QC5
%ENDBLOCK SPECIES_POT

SNAP_TO_SYMMETRY
SYMMETRY_GENERATE

