#              Generated by Buildcell
#
# at 06:36:26 (GMT+1.0) 18th August 2020
# in /lustre/scratch/uccabz1/launch_tmp
# on node-c12l-014
# by uccabz1
#
# compiler GCC version 4.9.2
# options -cpp -iprefix /lustre/shared/ucl/apps/gcc/4.9.2/bin/../lib/gcc/x86_64-unknown-linux-gnu/4.9.2/ -mtune=corei7 -march=x86-64 -g -Og
#
# seed  1040720280   911827803   368997883  -193181553 -1938511717   885490022  1648609205  1255745879   248020434  2036502524  1922079625  -806648120
#
#      Author: C. J. Pickard (cjp20@cam.ac.uk)
#                Space group: Pc
#

%BLOCK LATTICE_ABC
      4.76466      6.61440     12.72046
     90.00000     93.81793     90.00000
%ENDBLOCK LATTICE_ABC

%BLOCK POSITIONS_FRAC
  Li   0.0145057  -0.3829788  -0.1810272 SPIN=   0.00000
  Li  -0.4854943   0.3829788   0.3189728 SPIN=   0.00000
  Li  -0.1669827   0.0890538  -0.3289661 SPIN=   0.00000
  Li   0.3330173  -0.0890538   0.1710339 SPIN=   0.00000
  Fe  -0.1599828   0.1895883   0.1536578 SPIN=   1.89434
  Fe   0.3400172  -0.1895883  -0.3463422 SPIN=   1.89434
  Fe  -0.1016023   0.0974703   0.4397811 SPIN=   6.10566
  Fe   0.3983977  -0.0974703  -0.0602189 SPIN=   6.10566
   O  -0.1228778  -0.1308044   0.1386659 SPIN=   0.00000
   O  -0.1255985  -0.2958678  -0.0360022 SPIN=   0.00000
   O  -0.2823004  -0.4854149   0.1172802 SPIN=   0.00000
   O   0.2211388  -0.4008133   0.1071156 SPIN=   0.00000
   S  -0.0774095  -0.3282251   0.0817649 SPIN=   0.00000
   O   0.3771222   0.1308044  -0.3613341 SPIN=   0.00000
   O   0.3744015   0.2958678  -0.5360022 SPIN=   0.00000
   O   0.2176996   0.4854149  -0.3827198 SPIN=   0.00000
   O   0.7211388   0.4008133  -0.3928844 SPIN=   0.00000
   S   0.4225905   0.3282251  -0.4182351 SPIN=   0.00000
   O  -0.3333229   0.3079528  -0.2122253 SPIN=   0.00000
   O   0.1696273   0.3229172  -0.1500865 SPIN=   0.00000
   O  -0.0964434   0.0039331  -0.1354321 SPIN=   0.00000
   O  -0.1955211   0.2948572  -0.0212938 SPIN=   0.00000
   S  -0.1139150   0.2324151  -0.1297594 SPIN=   0.00000
   O   0.1666771  -0.3079528   0.2877747 SPIN=   0.00000
   O   0.6696273  -0.3229172   0.3499135 SPIN=   0.00000
   O   0.4035566  -0.0039331   0.3645679 SPIN=   0.00000
   O   0.3044789  -0.2948572   0.4787062 SPIN=   0.00000
   S   0.3860850  -0.2324151   0.3702406 SPIN=   0.00000
   F   0.3947388   0.1532936   0.1040371 SPIN=   0.00000
   F  -0.1052612  -0.1532936  -0.3959629 SPIN=   0.00000
   F   0.4312775  -0.3139381  -0.1885298 SPIN=   0.00000
   F  -0.0687225   0.3139381   0.3114702 SPIN=   0.00000
%ENDBLOCK POSITIONS_FRAC

# Note: total spin =  16.00

KPOINTS_MP_SPACING 0.07

%BLOCK SPECIES_POT
QC5
%ENDBLOCK SPECIES_POT

SNAP_TO_SYMMETRY
SYMMETRY_GENERATE

