#              Generated by Buildcell
#
# at 23:35:55 (GMT+1.0) 17th August 2020
# in /lustre/scratch/uccabz1/launch_tmp
# on node-c12f-023
# by uccabz1
#
# compiler GCC version 4.9.2
# options -cpp -iprefix /lustre/shared/ucl/apps/gcc/4.9.2/bin/../lib/gcc/x86_64-unknown-linux-gnu/4.9.2/ -mtune=corei7 -march=x86-64 -g -Og
#
# seed -1574785193 -1060919906 -1215093880 -1092142493   357734619 -1436674409 -1612987394  1351872727  1004095895  -580418877  -317055499  -717286254
#
#      Author: C. J. Pickard (cjp20@cam.ac.uk)
#                Space group: Pba2
#

%BLOCK LATTICE_ABC
      5.62372      6.36492     11.17489
     90.00000     90.00000     90.00000
%ENDBLOCK LATTICE_ABC

%BLOCK POSITIONS_FRAC
  Li  -0.2500049   0.2370275  -0.1249977 SPIN=   0.00000
  Li   0.2500049   0.2370275   0.1249977 SPIN=   0.00000
  Li  -0.2499951   0.2370275   0.3750023 SPIN=   0.00000
  Li   0.2499951   0.2370275  -0.3750023 SPIN=   0.00000
  Fe   0.2581270   0.4902852  -0.1239119 SPIN=   4.00000
  Fe  -0.2581270   0.4902852   0.1239119 SPIN=   4.00000
  Fe   0.2418730   0.4902852   0.3760881 SPIN=   4.00000
  Fe  -0.2418730   0.4902852  -0.3760881 SPIN=   4.00000
   O  -0.4061435  -0.4101207   0.3421031 SPIN=   0.00000
   O  -0.2886938  -0.1704927   0.5061943 SPIN=   0.00000
   O  -0.3433688  -0.0320684   0.3010734 SPIN=   0.00000
   O   0.0001989  -0.2610979   0.3472980 SPIN=   0.00000
   S  -0.2595018  -0.2184449   0.3741672 SPIN=   0.00000
   O   0.4061435  -0.4101207  -0.3421031 SPIN=   0.00000
   O   0.2886938  -0.1704927  -0.5061943 SPIN=   0.00000
   O   0.3433688  -0.0320684  -0.3010734 SPIN=   0.00000
   O  -0.0001989  -0.2610979  -0.3472980 SPIN=   0.00000
   S   0.2595018  -0.2184449  -0.3741672 SPIN=   0.00000
   O  -0.0938565  -0.4101207  -0.1578969 SPIN=   0.00000
   O  -0.2113062  -0.1704927   0.0061943 SPIN=   0.00000
   O  -0.1566312  -0.0320684  -0.1989266 SPIN=   0.00000
   O  -0.5001989  -0.2610979  -0.1527020 SPIN=   0.00000
   S  -0.2404982  -0.2184449  -0.1258328 SPIN=   0.00000
   O   0.0938565  -0.4101207   0.1578969 SPIN=   0.00000
   O   0.2113062  -0.1704927  -0.0061943 SPIN=   0.00000
   O   0.1566312  -0.0320684   0.1989266 SPIN=   0.00000
   O   0.5001989  -0.2610979   0.1527020 SPIN=   0.00000
   S   0.2404982  -0.2184449   0.1258328 SPIN=   0.00000
   F   0.2542585   0.1903842   0.3825825 SPIN=   0.00000
   F  -0.2542585   0.1903842  -0.3825825 SPIN=   0.00000
   F   0.2457415   0.1903842  -0.1174175 SPIN=   0.00000
   F  -0.2457415   0.1903842   0.1174175 SPIN=   0.00000
%ENDBLOCK POSITIONS_FRAC

# Note: total spin =  16.00

KPOINTS_MP_SPACING 0.07

%BLOCK SPECIES_POT
QC5
%ENDBLOCK SPECIES_POT

SNAP_TO_SYMMETRY
SYMMETRY_GENERATE

