#              Generated by Buildcell
#
# at 16:37:39 (GMT+1.0) 18th August 2020
# in /lustre/scratch/uccabz1/launch_tmp
# on node-c12g-030
# by uccabz1
#
# compiler GCC version 4.9.2
# options -cpp -iprefix /lustre/shared/ucl/apps/gcc/4.9.2/bin/../lib/gcc/x86_64-unknown-linux-gnu/4.9.2/ -mtune=corei7 -march=x86-64 -g -Og
#
# seed   929621118 -2037726330  1257580680  2011279396  1562046963   -29114183   458907178 -1502320536 -1417323138 -1972626119  -189863108    68044019
#
#      Author: C. J. Pickard (cjp20@cam.ac.uk)
#                Space group: P21212
#

%BLOCK LATTICE_ABC
      4.22122      5.75788     16.45734
     90.00000     90.00000     90.00000
%ENDBLOCK LATTICE_ABC

%BLOCK POSITIONS_FRAC
  Li  -0.1027566  -0.2499670  -0.4369930 SPIN=   0.00000
  Li  -0.1027566   0.2499670   0.4369930 SPIN=   0.00000
  Li   0.1027566   0.2500330  -0.0630070 SPIN=   0.00000
  Li   0.1027566  -0.2500330   0.0630070 SPIN=   0.00000
  Fe  -0.2498267   0.1361617  -0.2128013 SPIN=   4.00000
  Fe  -0.2498267  -0.1361617   0.2128013 SPIN=   4.00000
  Fe   0.2498267  -0.3638383  -0.2871987 SPIN=   4.00000
  Fe   0.2498267   0.3638383   0.2871987 SPIN=   4.00000
   O   0.3050319   0.0883476   0.4384541 SPIN=   0.00000
   O   0.4653270  -0.1067227   0.3109151 SPIN=   0.00000
   O  -0.0534443  -0.1966623   0.3735156 SPIN=   0.00000
   O   0.4414968  -0.3296631   0.4393411 SPIN=   0.00000
   S   0.2896029  -0.1361751   0.3905565 SPIN=   0.00000
   O   0.3050319  -0.0883476  -0.4384541 SPIN=   0.00000
   O   0.4653270   0.1067227  -0.3109151 SPIN=   0.00000
   O  -0.0534443   0.1966623  -0.3735156 SPIN=   0.00000
   O   0.4414968   0.3296631  -0.4393411 SPIN=   0.00000
   S   0.2896029   0.1361751  -0.3905565 SPIN=   0.00000
   O  -0.3050319   0.5883476   0.0615459 SPIN=   0.00000
   O  -0.4653270   0.3932773   0.1890849 SPIN=   0.00000
   O   0.0534443   0.3033377   0.1264844 SPIN=   0.00000
   O  -0.4414968   0.1703369   0.0606589 SPIN=   0.00000
   S  -0.2896029   0.3638249   0.1094435 SPIN=   0.00000
   O  -0.3050319  -0.5883476  -0.0615459 SPIN=   0.00000
   O  -0.4653270  -0.3932773  -0.1890849 SPIN=   0.00000
   O   0.0534443  -0.3033377  -0.1264844 SPIN=   0.00000
   O  -0.4414968  -0.1703369  -0.0606589 SPIN=   0.00000
   S  -0.2896029  -0.3638249  -0.1094435 SPIN=   0.00000
   F   0.2093446  -0.1347697   0.1626414 SPIN=   0.00000
   F   0.2093446   0.1347697  -0.1626414 SPIN=   0.00000
   F  -0.2093446   0.3652303   0.3373586 SPIN=   0.00000
   F  -0.2093446  -0.3652303  -0.3373586 SPIN=   0.00000
%ENDBLOCK POSITIONS_FRAC

# Note: total spin =  16.00

KPOINTS_MP_SPACING 0.07

%BLOCK SPECIES_POT
QC5
%ENDBLOCK SPECIES_POT

SNAP_TO_SYMMETRY
SYMMETRY_GENERATE

