#              Generated by Buildcell
#
# at 14:34:07 (GMT+1.0) 18th August 2020
# in /lustre/scratch/uccabz1/launch_tmp
# on node-c12n-031
# by uccabz1
#
# compiler GCC version 4.9.2
# options -cpp -iprefix /lustre/shared/ucl/apps/gcc/4.9.2/bin/../lib/gcc/x86_64-unknown-linux-gnu/4.9.2/ -mtune=corei7 -march=x86-64 -g -Og
#
# seed  -756722679  1045335798 -1115043540 -1078268512 -1724862514  -976414553  2053365615   242193447   844794809  1151365011  1024917303  -152468564
#
#      Author: C. J. Pickard (cjp20@cam.ac.uk)
#                Space group: P2
#

%BLOCK LATTICE_ABC
      4.61009      8.13831     10.70437
     95.13338     90.00000     90.00000
%ENDBLOCK LATTICE_ABC

%BLOCK POSITIONS_FRAC
  Li  -0.4909505   0.2171154   0.3719362 SPIN=   0.00000
  Li  -0.4909505  -0.2171154  -0.3719362 SPIN=   0.00000
  Li   0.0120215  -0.1613267   0.3472674 SPIN=   0.00000
  Li   0.0120215   0.1613267  -0.3472674 SPIN=   0.00000
  Fe  -0.4858005   0.1864503   0.1020296 SPIN=   2.92072
  Fe  -0.4858005  -0.1864503  -0.1020296 SPIN=   2.92072
  Fe  -0.4863198  -0.3628250   0.2638986 SPIN=   5.07928
  Fe  -0.4863198   0.3628250  -0.2638986 SPIN=   5.07928
   O  -0.1910854   0.3816775   0.1897991 SPIN=   0.00000
   O  -0.0457772   0.2273542   0.3687272 SPIN=   0.00000
   O  -0.0270038   0.5324893   0.3882584 SPIN=   0.00000
   O   0.3251105   0.3718461   0.2521884 SPIN=   0.00000
   S   0.0153110   0.3783418   0.2997433 SPIN=   0.00000
   O  -0.1910854  -0.3816775  -0.1897991 SPIN=   0.00000
   O  -0.0457772  -0.2273542  -0.3687272 SPIN=   0.00000
   O  -0.0270038  -0.5324893  -0.3882584 SPIN=   0.00000
   O   0.3251105  -0.3718461  -0.2521884 SPIN=   0.00000
   S   0.0153110  -0.3783418  -0.2997433 SPIN=   0.00000
   O  -0.3097670   0.3036001  -0.0554247 SPIN=   0.00000
   O   0.1750260   0.3680280   0.0354565 SPIN=   0.00000
   O   0.0992947   0.3647795  -0.1936413 SPIN=   0.00000
   O   0.0918972   0.1033198  -0.0920699 SPIN=   0.00000
   S   0.0141127   0.2849319  -0.0764199 SPIN=   0.00000
   O  -0.3097670  -0.3036001   0.0554247 SPIN=   0.00000
   O   0.1750260  -0.3680280  -0.0354565 SPIN=   0.00000
   O   0.0992947  -0.3647795   0.1936413 SPIN=   0.00000
   O   0.0918972  -0.1033198   0.0920699 SPIN=   0.00000
   S   0.0141127  -0.2849319   0.0764199 SPIN=   0.00000
   F  -0.4864721  -0.2944078   0.4389943 SPIN=   0.00000
   F  -0.4864721   0.2944078  -0.4389943 SPIN=   0.00000
   F  -0.4852526  -0.0296621  -0.2247871 SPIN=   0.00000
   F  -0.4852526   0.0296621   0.2247871 SPIN=   0.00000
%ENDBLOCK POSITIONS_FRAC

# Note: total spin =  16.00

KPOINTS_MP_SPACING 0.07

%BLOCK SPECIES_POT
QC5
%ENDBLOCK SPECIES_POT

SNAP_TO_SYMMETRY
SYMMETRY_GENERATE

