#              Generated by Buildcell
#
# at 23:04:28 (GMT+1.0) 17th August 2020
# in /lustre/scratch/uccabz1/launch_tmp
# on node-c12h-012
# by uccabz1
#
# compiler GCC version 4.9.2
# options -cpp -iprefix /lustre/shared/ucl/apps/gcc/4.9.2/bin/../lib/gcc/x86_64-unknown-linux-gnu/4.9.2/ -mtune=corei7 -march=x86-64 -g -Og
#
# seed    79704987  -196957873 -1126176746  1445752648  -560383503  1837131000  -146619495   513288543  -546284018 -1072373417  1104499092 -1935792892
#
#      Author: C. J. Pickard (cjp20@cam.ac.uk)
#                Space group: Fdd2
#

%BLOCK LATTICE_ABC
      7.49719      7.49719      8.81818
    104.29625    104.29625    114.77843
%ENDBLOCK LATTICE_ABC

%BLOCK POSITIONS_FRAC
  Li  -0.4096033   0.3996737  -0.4080309 SPIN=   0.00000
  Li  -0.1922953  -0.0015724   0.4080309 SPIN=   0.00000
  Li  -0.2515724   0.0577047  -0.0919691 SPIN=   0.00000
  Li   0.1496737  -0.1596033   0.0919691 SPIN=   0.00000
  Fe  -0.1100622  -0.1505535  -0.3205803 SPIN=   4.00000
  Fe   0.1700267   0.2105181   0.3205803 SPIN=   4.00000
  Fe  -0.0394819   0.4200267  -0.1794197 SPIN=   4.00000
  Fe  -0.4005535   0.1399378   0.1794197 SPIN=   4.00000
   O   0.0866644  -0.1553138   0.3969452 SPIN=   0.00000
   O  -0.2166268  -0.3286587   0.1168090 SPIN=   0.00000
   O  -0.2851549  -0.3102036   0.3791908 SPIN=   0.00000
   O  -0.1565195  -0.5485816   0.2684914 SPIN=   0.00000
   S  -0.1429092  -0.3356894   0.2903591 SPIN=   0.00000
   O   0.4477411  -0.3102807  -0.3969452 SPIN=   0.00000
   O   0.5545323  -0.3334358  -0.1168090 SPIN=   0.00000
   O   0.3106056  -0.6643457  -0.3791908 SPIN=   0.00000
   O   0.1829270  -0.4250109  -0.2684914 SPIN=   0.00000
   S   0.3739515  -0.4332683  -0.2903591 SPIN=   0.00000
   O   0.4397193  -0.3022589   0.1030548 SPIN=   0.00000
   O   0.4165642  -0.1954677   0.3831910 SPIN=   0.00000
   O   0.0856543  -0.4393944   0.1208092 SPIN=   0.00000
   O   0.3249891  -0.5670730   0.2315086 SPIN=   0.00000
   S   0.3167317  -0.3760485   0.2096409 SPIN=   0.00000
   O   0.5946862   0.3366644  -0.1030548 SPIN=   0.00000
   O   0.4213413   0.0333732  -0.3831910 SPIN=   0.00000
   O   0.4397964  -0.0351549  -0.1208092 SPIN=   0.00000
   O   0.2014184   0.0934805  -0.2315086 SPIN=   0.00000
   S   0.4143106   0.1070908  -0.2096409 SPIN=   0.00000
   F  -0.1642578   0.1242113  -0.3545134 SPIN=   0.00000
   F   0.4787247   0.1902556   0.3545134 SPIN=   0.00000
   F  -0.0597444  -0.2712753  -0.1454866 SPIN=   0.00000
   F  -0.1257887   0.0857422   0.1454866 SPIN=   0.00000
%ENDBLOCK POSITIONS_FRAC

# Note: total spin =  16.00

KPOINTS_MP_SPACING 0.07

%BLOCK SPECIES_POT
QC5
%ENDBLOCK SPECIES_POT

SNAP_TO_SYMMETRY
SYMMETRY_GENERATE

