#              Generated by Buildcell
#
# at 16:08:18 (GMT+1.0) 18th August 2020
# in /lustre/scratch/uccabz1/launch_tmp
# on node-c12e-025
# by uccabz1
#
# compiler GCC version 4.9.2
# options -cpp -iprefix /lustre/shared/ucl/apps/gcc/4.9.2/bin/../lib/gcc/x86_64-unknown-linux-gnu/4.9.2/ -mtune=corei7 -march=x86-64 -g -Og
#
# seed -1454726702  2001195099  1985750469   177802088  -454340940    85052492  1869272433    12464841  1797354876  1437615405    87055430  2069608276
#
#      Author: C. J. Pickard (cjp20@cam.ac.uk)
#                Space group: Cc
#

%BLOCK LATTICE_ABC
      7.26161      7.73892      7.73892
    112.64006     92.64440     92.64440
%ENDBLOCK LATTICE_ABC

%BLOCK POSITIONS_FRAC
  Li  -0.3271929   0.3381390  -0.3674005 SPIN=   0.00000
  Li   0.1728071   0.1325995  -0.1618610 SPIN=   0.00000
  Li   0.2712132  -0.3582157  -0.1335367 SPIN=   0.00000
  Li  -0.2287868   0.3664633   0.1417843 SPIN=   0.00000
  Fe   0.3809502  -0.0911710   0.4989058 SPIN=   3.44261
  Fe  -0.1190498  -0.0010942   0.4088290 SPIN=   3.44261
  Fe  -0.2568112  -0.0474771  -0.1167139 SPIN=   4.55739
  Fe   0.2431888   0.3832861   0.4525229 SPIN=   4.55739
   O   0.2148026  -0.5038362   0.1690428 SPIN=   0.00000
   O   0.5252984  -0.5903633   0.2384439 SPIN=   0.00000
   O   0.4891978  -0.2874230   0.2063938 SPIN=   0.00000
   O   0.4427250  -0.5850204  -0.0732378 SPIN=   0.00000
   S   0.4180059  -0.4916607   0.1351607 SPIN=   0.00000
   O  -0.2851974  -0.3309572  -0.0038362 SPIN=   0.00000
   O   0.0252984  -0.2615561  -0.0903633 SPIN=   0.00000
   O  -0.0108022  -0.2936062   0.2125770 SPIN=   0.00000
   O  -0.0572750  -0.5732378  -0.0850204 SPIN=   0.00000
   S  -0.0819941  -0.3648393   0.0083393 SPIN=   0.00000
   O  -0.1678045  -0.4488399  -0.3437983 SPIN=   0.00000
   O  -0.0190906  -0.5165631  -0.6422204 SPIN=   0.00000
   O   0.0076587  -0.1943718  -0.3976693 SPIN=   0.00000
   O  -0.2924390  -0.3276723  -0.5751405 SPIN=   0.00000
   S  -0.1179189  -0.3718618  -0.4897071 SPIN=   0.00000
   O   0.3321955   0.1562017   0.0511601 SPIN=   0.00000
   O   0.4809094  -0.1422204  -0.0165631 SPIN=   0.00000
   O   0.5076587   0.1023307   0.3056282 SPIN=   0.00000
   O   0.2075610  -0.0751405   0.1723277 SPIN=   0.00000
   S   0.3820811   0.0102929   0.1281382 SPIN=   0.00000
   F   0.3624264  -0.2932106  -0.3873872 SPIN=   0.00000
   F  -0.1375736   0.1126128   0.2067894 SPIN=   0.00000
   F  -0.2366678   0.0892468  -0.3011721 SPIN=   0.00000
   F   0.2633322   0.1988279  -0.4107532 SPIN=   0.00000
%ENDBLOCK POSITIONS_FRAC

# Note: total spin =  16.00

KPOINTS_MP_SPACING 0.07

%BLOCK SPECIES_POT
QC5
%ENDBLOCK SPECIES_POT

SNAP_TO_SYMMETRY
SYMMETRY_GENERATE

