#              Generated by Buildcell
#
# at 00:55:36 (GMT+1.0) 18th August 2020
# in /scratch/scratch/uccabz1/launch_tmp
# on node-k10e-027
# by uccabz1
#
# compiler GCC version 4.9.2
# options -cpp -iprefix /scratch/UCL/applications/gcc/4.9.2/bin/../lib/gcc/x86_64-unknown-linux-gnu/4.9.2/ -mtune=corei7 -march=x86-64 -g -O2
#
# seed   941092741 -1404610263 -1738533686   164372214 -1750128366 -1830735556 -1550140618 -1190594300 -1931362169  -892203004  -864419371 -1211308971
#
#      Author: C. J. Pickard (cjp20@cam.ac.uk)
#                Space group: Pc
#

%BLOCK LATTICE_ABC
      5.56332      7.04588     10.57172
    105.14661     90.00000     90.00000
%ENDBLOCK LATTICE_ABC

%BLOCK POSITIONS_FRAC
  Li   0.3644050  -0.2326831   0.0325322 SPIN=   0.00000
  Li  -0.3644050   0.2673169   0.0325322 SPIN=   0.00000
  Li   0.1369876   0.3115328  -0.2245157 SPIN=   0.00000
  Li  -0.1369876  -0.1884672  -0.2245157 SPIN=   0.00000
  Fe   0.3719137  -0.2207930   0.3625941 SPIN=   4.44575
  Fe  -0.3719137   0.2792070   0.3625941 SPIN=   4.44575
  Fe  -0.1282917  -0.3243499   0.1390533 SPIN=   3.55425
  Fe   0.1282917   0.1756501   0.1390533 SPIN=   3.55425
   O  -0.3417391   0.5691568  -0.3179293 SPIN=   0.00000
   O  -0.1427455   0.5639433  -0.1094886 SPIN=   0.00000
   O  -0.3354007   0.2625749  -0.2452551 SPIN=   0.00000
   O  -0.5860531   0.5434956  -0.1274578 SPIN=   0.00000
   S  -0.3514846   0.4847927  -0.2000327 SPIN=   0.00000
   O   0.3417391   0.0691568  -0.3179293 SPIN=   0.00000
   O   0.1427455   0.0639433  -0.1094886 SPIN=   0.00000
   O   0.3354007  -0.2374251  -0.2452551 SPIN=   0.00000
   O   0.5860531   0.0434956  -0.1274578 SPIN=   0.00000
   S   0.3514846  -0.0152073  -0.2000327 SPIN=   0.00000
   O   0.2329666  -0.2944970  -0.4635451 SPIN=   0.00000
   O   0.0602770  -0.4787373  -0.3153607 SPIN=   0.00000
   O   0.3647621  -0.6356688  -0.4803002 SPIN=   0.00000
   O  -0.0447702  -0.5721723  -0.5510293 SPIN=   0.00000
   S   0.1533089  -0.4952689  -0.4525588 SPIN=   0.00000
   O  -0.2329666   0.2055030  -0.4635451 SPIN=   0.00000
   O  -0.0602770   0.0212627  -0.3153607 SPIN=   0.00000
   O  -0.3647621  -0.1356688  -0.4803002 SPIN=   0.00000
   O   0.0447702  -0.0721723  -0.5510293 SPIN=   0.00000
   S  -0.1533089   0.0047311  -0.4525588 SPIN=   0.00000
   F   0.3215321   0.0836497   0.2966249 SPIN=   0.00000
   F  -0.3215321  -0.4163503   0.2966249 SPIN=   0.00000
   F   0.1783795   0.4203270   0.0554529 SPIN=   0.00000
   F  -0.1783795  -0.0796730   0.0554529 SPIN=   0.00000
%ENDBLOCK POSITIONS_FRAC

# Note: total spin =  16.00

KPOINTS_MP_SPACING 0.07

%BLOCK SPECIES_POT
QC5
%ENDBLOCK SPECIES_POT

SNAP_TO_SYMMETRY
SYMMETRY_GENERATE

