#              Generated by Buildcell
#
# at 17:27:48 (GMT+1.0) 18th August 2020
# in /lustre/scratch/uccabz1/launch_tmp
# on node-c12o-027
# by uccabz1
#
# compiler GCC version 4.9.2
# options -cpp -iprefix /lustre/shared/ucl/apps/gcc/4.9.2/bin/../lib/gcc/x86_64-unknown-linux-gnu/4.9.2/ -mtune=corei7 -march=x86-64 -g -Og
#
# seed   568735598   112406810  1403930145 -2145291835  -396719661  1211657206 -1241736896 -1596529850   294665150  -508290427  1162085724   630053775
#
#      Author: C. J. Pickard (cjp20@cam.ac.uk)
#                Space group: P42
#

%BLOCK LATTICE_ABC
      5.39689      8.60911      8.60911
     90.00000     90.00000     90.00000
%ENDBLOCK LATTICE_ABC

%BLOCK POSITIONS_FRAC
  Li   0.4819301  -0.1307798   0.3158884 SPIN=   0.00000
  Li   0.4819301   0.1307798  -0.3158884 SPIN=   0.00000
  Li  -0.0180699  -0.3158884  -0.1307798 SPIN=   0.00000
  Li  -0.0180699   0.3158884   0.1307798 SPIN=   0.00000
  Fe  -0.4853295  -0.4425238  -0.2957252 SPIN=   4.00000
  Fe  -0.4853295   0.4425238   0.2957252 SPIN=   4.00000
  Fe   0.0146705   0.2957252  -0.4425238 SPIN=   4.00000
  Fe   0.0146705  -0.2957252   0.4425238 SPIN=   4.00000
   O   0.5229745   0.4061952  -0.1020651 SPIN=   0.00000
   O   0.3499578   0.2859534   0.1354597 SPIN=   0.00000
   O   0.5730796   0.1240894  -0.0565717 SPIN=   0.00000
   O   0.1600608   0.2314283  -0.1204615 SPIN=   0.00000
   S   0.4015182   0.2619166  -0.0359096 SPIN=   0.00000
   O   0.5229745  -0.4061952   0.1020651 SPIN=   0.00000
   O   0.3499578  -0.2859534  -0.1354597 SPIN=   0.00000
   O   0.5730796  -0.1240894   0.0565717 SPIN=   0.00000
   O   0.1600608  -0.2314283   0.1204615 SPIN=   0.00000
   S   0.4015182  -0.2619166   0.0359096 SPIN=   0.00000
   O   0.0229745   0.1020651   0.4061952 SPIN=   0.00000
   O  -0.1500422  -0.1354597   0.2859534 SPIN=   0.00000
   O   0.0730796   0.0565717   0.1240894 SPIN=   0.00000
   O  -0.3399392   0.1204615   0.2314283 SPIN=   0.00000
   S  -0.0984818   0.0359096   0.2619166 SPIN=   0.00000
   O   0.0229745  -0.1020651  -0.4061952 SPIN=   0.00000
   O  -0.1500422   0.1354597  -0.2859534 SPIN=   0.00000
   O   0.0730796  -0.0565717  -0.1240894 SPIN=   0.00000
   O  -0.3399392  -0.1204615  -0.2314283 SPIN=   0.00000
   S  -0.0984818  -0.0359096  -0.2619166 SPIN=   0.00000
   F  -0.0707621  -0.4836161   0.2584783 SPIN=   0.00000
   F  -0.0707621   0.4836161  -0.2584783 SPIN=   0.00000
   F   0.4292379  -0.2584783  -0.4836161 SPIN=   0.00000
   F   0.4292379   0.2584783   0.4836161 SPIN=   0.00000
%ENDBLOCK POSITIONS_FRAC

# Note: total spin =  16.00

KPOINTS_MP_SPACING 0.07

%BLOCK SPECIES_POT
QC5
%ENDBLOCK SPECIES_POT

SNAP_TO_SYMMETRY
SYMMETRY_GENERATE

