#              Generated by Buildcell
#
# at 06:51:29 (GMT+1.0) 18th August 2020
# in /lustre/scratch/uccabz1/launch_tmp
# on node-c12p-024
# by uccabz1
#
# compiler GCC version 4.9.2
# options -cpp -iprefix /lustre/shared/ucl/apps/gcc/4.9.2/bin/../lib/gcc/x86_64-unknown-linux-gnu/4.9.2/ -mtune=corei7 -march=x86-64 -g -Og
#
# seed -1026729475  1350050465  -343165685 -1936543495 -1275571312   505598998  1697052236 -1564999057   671825613  1752834291   681197215  1228142748
#
#      Author: C. J. Pickard (cjp20@cam.ac.uk)
#                Space group: Cc
#

%BLOCK LATTICE_ABC
      4.30671      9.73757      9.73757
    100.71690     92.87401     92.87401
%ENDBLOCK LATTICE_ABC

%BLOCK POSITIONS_FRAC
  Li   0.0622045  -0.2251416   0.1123133 SPIN=   0.00000
  Li  -0.4377955   0.1123133  -0.2251416 SPIN=   0.00000
  Li   0.4175985   0.4417800   0.0036263 SPIN=   0.00000
  Li  -0.0824015   0.0036263   0.4417800 SPIN=   0.00000
  Fe   0.0551664  -0.1036921  -0.3000399 SPIN=   1.17512
  Fe  -0.4448336  -0.3000399  -0.1036921 SPIN=   1.17512
  Fe   0.4994365   0.2233955   0.4176273 SPIN=   6.82488
  Fe  -0.0005635   0.4176273   0.2233955 SPIN=   6.82488
   O  -0.5718498   0.4739867  -0.3610913 SPIN=   0.00000
   O  -0.6581716   0.2766781  -0.2370515 SPIN=   0.00000
   O  -0.2976339   0.4785771  -0.1306171 SPIN=   0.00000
   O  -0.1528242   0.3130938  -0.3393028 SPIN=   0.00000
   S  -0.4201199   0.3855839  -0.2670157 SPIN=   0.00000
   O  -0.0718498  -0.3610913   0.4739867 SPIN=   0.00000
   O  -0.1581716  -0.2370515   0.2766781 SPIN=   0.00000
   O   0.2023661  -0.1306171   0.4785771 SPIN=   0.00000
   O   0.3471758  -0.3393028   0.3130938 SPIN=   0.00000
   S   0.0798801  -0.2670157   0.3855839 SPIN=   0.00000
   O  -0.5412404   0.1082710   0.2052837 SPIN=   0.00000
   O  -0.6039864  -0.1336385   0.2490713 SPIN=   0.00000
   O  -0.0862291  -0.0376167   0.2009248 SPIN=   0.00000
   O  -0.5032845  -0.0931386   0.0113519 SPIN=   0.00000
   S  -0.4336851  -0.0390307   0.1666579 SPIN=   0.00000
   O  -0.0412404   0.2052837   0.1082710 SPIN=   0.00000
   O  -0.1039864   0.2490713  -0.1336385 SPIN=   0.00000
   O   0.4137709   0.2009248  -0.0376167 SPIN=   0.00000
   O  -0.0032845   0.0113519  -0.0931386 SPIN=   0.00000
   S   0.0663149   0.1666579  -0.0390307 SPIN=   0.00000
   F   0.0676888   0.2007642   0.4307400 SPIN=   0.00000
   F  -0.4323112   0.4307400   0.2007642 SPIN=   0.00000
   F  -0.3785013  -0.0876470  -0.3188099 SPIN=   0.00000
   F   0.1214987  -0.3188099  -0.0876470 SPIN=   0.00000
%ENDBLOCK POSITIONS_FRAC

# Note: total spin =  16.00

KPOINTS_MP_SPACING 0.07

%BLOCK SPECIES_POT
QC5
%ENDBLOCK SPECIES_POT

SNAP_TO_SYMMETRY
SYMMETRY_GENERATE

