#              Generated by Buildcell
#
# at 06:09:42 (GMT+1.0) 4th August 2020
# in /lustre/scratch/uccabz1/launch_tmp
# on node-c12n-020
# by uccabz1
#
# compiler GCC version 4.9.2
# options -cpp -iprefix /lustre/shared/ucl/apps/gcc/4.9.2/bin/../lib/gcc/x86_64-unknown-linux-gnu/4.9.2/ -mtune=corei7 -march=x86-64 -g -Og
#
# seed  1315810521   696496110 -1825299249  -787612086 -1354641008  1429145326 -1698611324  2099686148  1592178976  -339374736  1730533924  -703147122
#
#      Author: C. J. Pickard (cjp20@cam.ac.uk)
#                Space group: P2
#

%BLOCK LATTICE_ABC
      3.88101     10.14386     10.32736
     90.00000     90.00000    100.31524
%ENDBLOCK LATTICE_ABC

%BLOCK POSITIONS_FRAC
  Li   0.5000000   0.5000000  -0.4788224 SPIN=   0.00000
  Li  -0.5000000  -0.5000000  -0.0110039 SPIN=   0.00000
  Li   0.0000000   0.0000000  -0.3265969 SPIN=   0.00000
  Li   0.0000000   0.0000000   0.2340050 SPIN=   0.00000
  Fe   0.5840667   0.3055957   0.2087774 SPIN=   5.69045
  Fe  -0.5840667  -0.3055957   0.2087774 SPIN=   5.69045
  Fe  -0.4635025  -0.2809854  -0.2795369 SPIN=   2.30955
  Fe   0.4635025   0.2809854  -0.2795369 SPIN=   2.30955
   O  -0.1678157  -0.2864628  -0.1144900 SPIN=   0.00000
   O  -0.0868593  -0.1124759   0.0562720 SPIN=   0.00000
   O   0.2435863  -0.0730934  -0.1492312 SPIN=   0.00000
   O   0.3879819  -0.2387111   0.0084378 SPIN=   0.00000
   S   0.0942233  -0.1776858  -0.0497529 SPIN=   0.00000
   O   0.1678157   0.2864628  -0.1144900 SPIN=   0.00000
   O   0.0868593   0.1124759   0.0562720 SPIN=   0.00000
   O  -0.2435863   0.0730934  -0.1492312 SPIN=   0.00000
   O  -0.3879819   0.2387111   0.0084378 SPIN=   0.00000
   S  -0.0942233   0.1776858  -0.0497529 SPIN=   0.00000
   O   0.3328321   0.1999706   0.5411723 SPIN=   0.00000
   O   0.1368019   0.2060915   0.3135611 SPIN=   0.00000
   O  -0.1345368   0.3263448   0.4831666 SPIN=   0.00000
   O  -0.2532606   0.0784364   0.4772738 SPIN=   0.00000
   S   0.0204591   0.2027108   0.4537935 SPIN=   0.00000
   O  -0.3328321  -0.1999706   0.5411723 SPIN=   0.00000
   O  -0.1368019  -0.2060915   0.3135611 SPIN=   0.00000
   O   0.1345368  -0.3263448   0.4831666 SPIN=   0.00000
   O   0.2532606  -0.0784364   0.4772738 SPIN=   0.00000
   S  -0.0204591  -0.2027108   0.4537935 SPIN=   0.00000
   F   1.0000000   0.5000000   0.0320880 SPIN=   0.00000
   F  -0.5000000  -0.5000000  -0.2874308 SPIN=   0.00000
   F   0.5000000   0.5000000   0.3446955 SPIN=   0.00000
   F  -0.5000000   0.0000000   0.2298581 SPIN=   0.00000
%ENDBLOCK POSITIONS_FRAC

# Note: total spin =  16.00

KPOINTS_MP_SPACING 0.07

%BLOCK SPECIES_POT
QC5
%ENDBLOCK SPECIES_POT

SNAP_TO_SYMMETRY
SYMMETRY_GENERATE

