#              Generated by Buildcell
#
# at 00:23:20 (GMT+1.0) 18th August 2020
# in /lustre/scratch/uccabz1/launch_tmp
# on node-c12l-032
# by uccabz1
#
# compiler GCC version 4.9.2
# options -cpp -iprefix /lustre/shared/ucl/apps/gcc/4.9.2/bin/../lib/gcc/x86_64-unknown-linux-gnu/4.9.2/ -mtune=corei7 -march=x86-64 -g -Og
#
# seed   935536348 -1585762272   164544134  -488033166  -221186347 -1635989563 -1658156458 -1958153504 -1030085639  -956471169   473969191  1549844603
#
#      Author: C. J. Pickard (cjp20@cam.ac.uk)
#                Space group: Cc
#

%BLOCK LATTICE_ABC
      7.40453      8.24657      8.33389
    115.14866     90.00000    116.67609
%ENDBLOCK LATTICE_ABC

%BLOCK POSITIONS_FRAC
  Li   0.1657311  -0.1054865   0.3321801 SPIN=   0.00000
  Li  -0.2712176  -0.1054865  -0.1678199 SPIN=   0.00000
  Li   0.0152602  -0.4143825  -0.1938490 SPIN=   0.00000
  Li  -0.4296427  -0.4143825   0.3061510 SPIN=   0.00000
  Fe  -0.2392130   0.1281018  -0.4645617 SPIN=   3.65855
  Fe   0.3673148   0.1281018   0.0354383 SPIN=   3.65855
  Fe   0.2800775  -0.2992366  -0.4778359 SPIN=   4.34145
  Fe   0.4206859  -0.2992366   0.0221641 SPIN=   4.34145
   O  -0.4306349   0.5877153  -0.4111428 SPIN=   0.00000
   O  -0.2501085   0.4113945  -0.3739731 SPIN=   0.00000
   O  -0.6315571   0.2536916  -0.4109533 SPIN=   0.00000
   O  -0.3964752   0.5683444  -0.1252756 SPIN=   0.00000
   S  -0.4271939   0.4552864  -0.3303362 SPIN=   0.00000
   O   0.0183502   0.5877153   0.0888572 SPIN=   0.00000
   O  -0.3384970   0.4113945   0.1260269 SPIN=   0.00000
   O  -0.1147513   0.2536916   0.0890467 SPIN=   0.00000
   O  -0.0351804   0.5683444   0.3747244 SPIN=   0.00000
   S  -0.1175196   0.4552864   0.1696638 SPIN=   0.00000
   O  -0.2684129  -0.0351938   0.1156096 SPIN=   0.00000
   O   0.1118492   0.1686822   0.1578487 SPIN=   0.00000
   O  -0.0607560  -0.2113441   0.0221097 SPIN=   0.00000
   O  -0.0266192   0.0010876   0.3497394 SPIN=   0.00000
   S  -0.0609847  -0.0191920   0.1613268 SPIN=   0.00000
   O   0.2332191  -0.0351938  -0.3843904 SPIN=   0.00000
   O   0.0568330   0.1686822  -0.3421513 SPIN=   0.00000
   O  -0.1505881  -0.2113441  -0.4778903 SPIN=   0.00000
   O   0.0277068   0.0010876  -0.1502606 SPIN=   0.00000
   S   0.0417927  -0.0191920  -0.3386732 SPIN=   0.00000
   F   0.4327842   0.0074177   0.2342092 SPIN=   0.00000
   F  -0.4253665   0.0074177  -0.2657908 SPIN=   0.00000
   F   0.3569526   0.4582379   0.0717306 SPIN=   0.00000
   F   0.1012852   0.4582379  -0.4282694 SPIN=   0.00000
%ENDBLOCK POSITIONS_FRAC

# Note: total spin =  16.00

KPOINTS_MP_SPACING 0.07

%BLOCK SPECIES_POT
QC5
%ENDBLOCK SPECIES_POT

SNAP_TO_SYMMETRY
SYMMETRY_GENERATE

