#              Generated by Buildcell
#
# at 07:04:25 (GMT+1.0) 18th August 2020
# in /lustre/scratch/uccabz1/launch_tmp
# on node-c12o-031
# by uccabz1
#
# compiler GCC version 4.9.2
# options -cpp -iprefix /lustre/shared/ucl/apps/gcc/4.9.2/bin/../lib/gcc/x86_64-unknown-linux-gnu/4.9.2/ -mtune=corei7 -march=x86-64 -g -Og
#
# seed  1285642194  1613925038    23716578  1111468004  1271163386   -32121369 -1194558059  -393809779  1674719522 -2082378970  1166066130 -1417577465
#
#      Author: C. J. Pickard (cjp20@cam.ac.uk)
#                Space group: C2
#

%BLOCK LATTICE_ABC
      6.97499      6.97499      8.85931
     97.33387     97.33387    108.05217
%ENDBLOCK LATTICE_ABC

%BLOCK POSITIONS_FRAC
  Li   0.3970399   0.2106519  -0.4458695 SPIN=   0.00000
  Li  -0.2106519  -0.3970399   0.4458695 SPIN=   0.00000
  Li   0.2560685  -0.2683638   0.2975683 SPIN=   0.00000
  Li   0.2683638  -0.2560685  -0.2975683 SPIN=   0.00000
  Fe  -0.2551677  -0.4695933  -0.1730813 SPIN=   2.85947
  Fe   0.4695933   0.2551677   0.1730813 SPIN=   2.85947
  Fe  -0.0686546  -0.0822976   0.2560686 SPIN=   5.14053
  Fe   0.0822976   0.0686546  -0.2560686 SPIN=   5.14053
   O  -0.0968746   0.2762040   0.3127114 SPIN=   0.00000
   O   0.0189235   0.2707154   0.5875898 SPIN=   0.00000
   O   0.0824978   0.6015819   0.4955944 SPIN=   0.00000
   O   0.2731887   0.3709823   0.4163483 SPIN=   0.00000
   S   0.0694338   0.3798709   0.4530610 SPIN=   0.00000
   O  -0.2762040   0.0968746  -0.3127114 SPIN=   0.00000
   O  -0.2707154  -0.0189235  -0.5875898 SPIN=   0.00000
   O  -0.6015819  -0.0824978  -0.4955944 SPIN=   0.00000
   O  -0.3709823  -0.2731887  -0.4163483 SPIN=   0.00000
   S  -0.3798709  -0.0694338  -0.4530610 SPIN=   0.00000
   O  -0.3918457  -0.1184435   0.1417190 SPIN=   0.00000
   O  -0.5596611  -0.3190801  -0.1187732 SPIN=   0.00000
   O  -0.2181547  -0.0536228  -0.0825712 SPIN=   0.00000
   O  -0.5244354   0.0479082  -0.0586678 SPIN=   0.00000
   S  -0.4235242  -0.1108096  -0.0295733 SPIN=   0.00000
   O   0.1184435   0.3918457  -0.1417190 SPIN=   0.00000
   O   0.3190801   0.5596611   0.1187732 SPIN=   0.00000
   O   0.0536228   0.2181547   0.0825712 SPIN=   0.00000
   O  -0.0479082   0.5244354   0.0586678 SPIN=   0.00000
   S   0.1108096   0.4235242   0.0295733 SPIN=   0.00000
   F   0.0052883  -0.2453509  -0.2389897 SPIN=   0.00000
   F   0.2453509  -0.0052883   0.2389897 SPIN=   0.00000
   F  -0.3156224  -0.4441301   0.2390395 SPIN=   0.00000
   F   0.4441301   0.3156224  -0.2390395 SPIN=   0.00000
%ENDBLOCK POSITIONS_FRAC

# Note: total spin =  16.00

KPOINTS_MP_SPACING 0.07

%BLOCK SPECIES_POT
QC5
%ENDBLOCK SPECIES_POT

SNAP_TO_SYMMETRY
SYMMETRY_GENERATE

