#              Generated by Buildcell
#
# at 04:41:49 (GMT+1.0) 18th August 2020
# in /lustre/scratch/uccabz1/launch_tmp
# on node-c12c-006
# by uccabz1
#
# compiler GCC version 4.9.2
# options -cpp -iprefix /lustre/shared/ucl/apps/gcc/4.9.2/bin/../lib/gcc/x86_64-unknown-linux-gnu/4.9.2/ -mtune=corei7 -march=x86-64 -g -Og
#
# seed -1698757371   747985591  1248990526 -1327163752  2085170977 -1214746059  1394503804 -1916010260  -225044162    75568728 -1748207148  -605884134
#
#      Author: C. J. Pickard (cjp20@cam.ac.uk)
#                Space group: C2
#

%BLOCK LATTICE_ABC
      6.74605      7.88005      8.52021
    117.54420     94.52190     90.00000
%ENDBLOCK LATTICE_ABC

%BLOCK POSITIONS_FRAC
  Li   0.1428878  -0.1234109   0.3256446 SPIN=   0.00000
  Li  -0.1428878  -0.4490555  -0.3256446 SPIN=   0.00000
  Li   0.3848503   0.2620074   0.2249265 SPIN=   0.00000
  Li  -0.3848503   0.0370809  -0.2249265 SPIN=   0.00000
  Fe  -0.4845651  -0.3492715   0.4957607 SPIN=   5.39939
  Fe   0.4845651   0.1549679  -0.4957607 SPIN=   5.39939
  Fe   0.2395382  -0.2218621  -0.1049470 SPIN=   2.60061
  Fe  -0.2395382  -0.1169151   0.1049470 SPIN=   2.60061
   O  -0.1768347   0.2294604   0.4153935 SPIN=   0.00000
   O  -0.0242414   0.2323571   0.1618004 SPIN=   0.00000
   O  -0.0402604   0.5336222   0.4410511 SPIN=   0.00000
   O  -0.3481910   0.3800810   0.2467505 SPIN=   0.00000
   S  -0.1473818   0.3438802   0.3162489 SPIN=   0.00000
   O   0.1768347  -0.1859331  -0.4153935 SPIN=   0.00000
   O   0.0242414   0.0705567  -0.1618004 SPIN=   0.00000
   O   0.0402604   0.0925711  -0.4410511 SPIN=   0.00000
   O   0.3481910   0.1333304  -0.2467505 SPIN=   0.00000
   S   0.1473818   0.0276313  -0.3162489 SPIN=   0.00000
   O  -0.4810011   0.4234181  -0.1479717 SPIN=   0.00000
   O  -0.2339065   0.2557590  -0.0454425 SPIN=   0.00000
   O  -0.1636268   0.5908512   0.0183231 SPIN=   0.00000
   O  -0.1650087   0.3288378  -0.2893389 SPIN=   0.00000
   S  -0.2608858   0.3997165  -0.1161075 SPIN=   0.00000
   O   0.4810011  -0.4286103   0.1479717 SPIN=   0.00000
   O   0.2339065  -0.6987985   0.0454425 SPIN=   0.00000
   O   0.1636268  -0.4274719  -0.0183231 SPIN=   0.00000
   O   0.1650087  -0.3818233   0.2893389 SPIN=   0.00000
   S   0.2608858  -0.4841760   0.1161075 SPIN=   0.00000
   F   0.3734818   0.4505946  -0.4580330 SPIN=   0.00000
   F  -0.3734818  -0.0913723   0.4580330 SPIN=   0.00000
   F   0.3052652   0.0015010   0.1450883 SPIN=   0.00000
   F  -0.3052652  -0.1435873  -0.1450883 SPIN=   0.00000
%ENDBLOCK POSITIONS_FRAC

# Note: total spin =  16.00

KPOINTS_MP_SPACING 0.07

%BLOCK SPECIES_POT
QC5
%ENDBLOCK SPECIES_POT

SNAP_TO_SYMMETRY
SYMMETRY_GENERATE

