#              Generated by Buildcell
#
# at 08:47:35 (GMT+1.0) 18th August 2020
# in /lustre/scratch/uccabz1/launch_tmp
# on node-c12l-008
# by uccabz1
#
# compiler GCC version 4.9.2
# options -cpp -iprefix /lustre/shared/ucl/apps/gcc/4.9.2/bin/../lib/gcc/x86_64-unknown-linux-gnu/4.9.2/ -mtune=corei7 -march=x86-64 -g -Og
#
# seed  1223383185 -2128083728   872574795   417924417  1081627750  -700358756 -1990791145  1716531881  1592708872 -2011436076 -2128247157   -71597237
#
#      Author: C. J. Pickard (cjp20@cam.ac.uk)
#                Space group: Cc
#

%BLOCK LATTICE_ABC
      5.98305      5.98305     11.69905
     79.60611     79.60611     79.25545
%ENDBLOCK LATTICE_ABC

%BLOCK POSITIONS_FRAC
  Li  -0.4157518  -0.3763620  -0.3003785 SPIN=   0.00000
  Li  -0.3763620  -0.4157518   0.1996215 SPIN=   0.00000
  Li   0.3116021  -0.0997750   0.4398723 SPIN=   0.00000
  Li  -0.0997750   0.3116021  -0.0601277 SPIN=   0.00000
  Fe   0.3769244   0.2294583  -0.1715839 SPIN=   4.57348
  Fe   0.2294583   0.3769244   0.3284161 SPIN=   4.57348
  Fe   0.2389589  -0.3129915   0.0208632 SPIN=   3.42652
  Fe  -0.3129915   0.2389589  -0.4791368 SPIN=   3.42652
   O   0.1852955  -0.0078875  -0.2097390 SPIN=   0.00000
   O  -0.0923177  -0.0715347  -0.3292593 SPIN=   0.00000
   O  -0.1828768   0.2588454  -0.2192281 SPIN=   0.00000
   O  -0.1810464  -0.1377655  -0.1120425 SPIN=   0.00000
   S  -0.0677364   0.0104144  -0.2175672 SPIN=   0.00000
   O  -0.0078875   0.1852955   0.2902610 SPIN=   0.00000
   O  -0.0715347  -0.0923177   0.1707407 SPIN=   0.00000
   O   0.2588454  -0.1828768   0.2807719 SPIN=   0.00000
   O  -0.1377655  -0.1810464   0.3879575 SPIN=   0.00000
   S   0.0104144  -0.0677364   0.2824328 SPIN=   0.00000
   O  -0.3106833   0.2589026   0.1536142 SPIN=   0.00000
   O  -0.4139035   0.2300243  -0.0381691 SPIN=   0.00000
   O  -0.7160063   0.2551529   0.1360786 SPIN=   0.00000
   O  -0.4286858  -0.0988311   0.1236925 SPIN=   0.00000
   S  -0.4673197   0.1613121   0.0938041 SPIN=   0.00000
   O   0.2589026  -0.3106833  -0.3463858 SPIN=   0.00000
   O   0.2300243  -0.4139035  -0.5381691 SPIN=   0.00000
   O   0.2551529  -0.7160063  -0.3639214 SPIN=   0.00000
   O  -0.0988311  -0.4286858  -0.3763075 SPIN=   0.00000
   S   0.1613121  -0.4673197  -0.4061959 SPIN=   0.00000
   F  -0.4436275  -0.0436028  -0.4426255 SPIN=   0.00000
   F  -0.0436028  -0.4436275   0.0573745 SPIN=   0.00000
   F  -0.3564181   0.4841072   0.3541136 SPIN=   0.00000
   F   0.4841072  -0.3564181  -0.1458864 SPIN=   0.00000
%ENDBLOCK POSITIONS_FRAC

# Note: total spin =  16.00

KPOINTS_MP_SPACING 0.07

%BLOCK SPECIES_POT
QC5
%ENDBLOCK SPECIES_POT

SNAP_TO_SYMMETRY
SYMMETRY_GENERATE

