#              Generated by Buildcell
#
# at 12:24:47 (GMT+1.0) 18th August 2020
# in /lustre/scratch/uccabz1/launch_tmp
# on node-c12g-023
# by uccabz1
#
# compiler GCC version 4.9.2
# options -cpp -iprefix /lustre/shared/ucl/apps/gcc/4.9.2/bin/../lib/gcc/x86_64-unknown-linux-gnu/4.9.2/ -mtune=corei7 -march=x86-64 -g -Og
#
# seed -2008957327  -750005085   265550005   113026136 -1703751627  1706274708  -262688133   782443530   -72472430  1237544010 -1325863801   870261549
#
#      Author: C. J. Pickard (cjp20@cam.ac.uk)
#                Space group: Pnc2
#

%BLOCK LATTICE_ABC
      4.78102      6.61443     12.64873
     90.00000     90.00000     90.00000
%ENDBLOCK LATTICE_ABC

%BLOCK POSITIONS_FRAC
  Li   0.2477345  -0.4341644   0.1800389 SPIN=   0.00000
  Li  -0.2477345  -0.4341644  -0.1800389 SPIN=   0.00000
  Li   0.2477345   0.0658356   0.3199611 SPIN=   0.00000
  Li  -0.2477345   0.0658356  -0.3199611 SPIN=   0.00000
  Fe  -0.2339753   0.3770044   0.3800651 SPIN=   4.00000
  Fe   0.2339753   0.3770044  -0.3800651 SPIN=   4.00000
  Fe  -0.2339753  -0.1229956   0.1199349 SPIN=   4.00000
  Fe   0.2339753  -0.1229956  -0.1199349 SPIN=   4.00000
   O   0.0483534   0.2252318  -0.1802768 SPIN=   0.00000
   O   0.5527945   0.3007582  -0.1610853 SPIN=   0.00000
   O   0.2351492   0.3401016  -0.0079687 SPIN=   0.00000
   O   0.2067070   0.5789457  -0.1581957 SPIN=   0.00000
   S   0.2607510   0.3612593  -0.1268816 SPIN=   0.00000
   O  -0.0483534   0.2252318   0.1802768 SPIN=   0.00000
   O  -0.5527945   0.3007582   0.1610853 SPIN=   0.00000
   O  -0.2351492   0.3401016   0.0079687 SPIN=   0.00000
   O  -0.2067070   0.5789457   0.1581957 SPIN=   0.00000
   S  -0.2607510   0.3612593   0.1268816 SPIN=   0.00000
   O   0.0483534  -0.2747682  -0.3197232 SPIN=   0.00000
   O   0.5527945  -0.1992418  -0.3389147 SPIN=   0.00000
   O   0.2351492  -0.1598984  -0.4920313 SPIN=   0.00000
   O   0.2067070   0.0789457  -0.3418043 SPIN=   0.00000
   S   0.2607510  -0.1387407  -0.3731184 SPIN=   0.00000
   O  -0.0483534  -0.2747682   0.3197232 SPIN=   0.00000
   O  -0.5527945  -0.1992418   0.3389147 SPIN=   0.00000
   O  -0.2351492  -0.1598984   0.4920313 SPIN=   0.00000
   O  -0.2067070   0.0789457   0.3418043 SPIN=   0.00000
   S  -0.2607510  -0.1387407   0.3731184 SPIN=   0.00000
   F   0.2501362  -0.1406715   0.1245263 SPIN=   0.00000
   F  -0.2501362  -0.1406715  -0.1245263 SPIN=   0.00000
   F   0.2501362   0.3593285   0.3754737 SPIN=   0.00000
   F  -0.2501362   0.3593285  -0.3754737 SPIN=   0.00000
%ENDBLOCK POSITIONS_FRAC

# Note: total spin =  16.00

KPOINTS_MP_SPACING 0.07

%BLOCK SPECIES_POT
QC5
%ENDBLOCK SPECIES_POT

SNAP_TO_SYMMETRY
SYMMETRY_GENERATE

