#              Generated by Buildcell
#
# at 12:35:12 (GMT+1.0) 18th August 2020
# in /scratch/scratch/uccabz1/launch_tmp
# on node-k10g-031
# by uccabz1
#
# compiler GCC version 4.9.2
# options -cpp -iprefix /scratch/UCL/applications/gcc/4.9.2/bin/../lib/gcc/x86_64-unknown-linux-gnu/4.9.2/ -mtune=corei7 -march=x86-64 -g -O2
#
# seed   863235396 -1493236981  1728024675   468802512 -1347632756 -1652618890 -1601925469   510807502  1381073241  -261358479   692424421 -1574288088
#
#      Author: C. J. Pickard (cjp20@cam.ac.uk)
#                Space group: P21
#

%BLOCK LATTICE_ABC
      6.02053      7.59973      8.82963
     90.00000     98.06359     90.00000
%ENDBLOCK LATTICE_ABC

%BLOCK POSITIONS_FRAC
  Li   0.4581708  -0.1308371  -0.4978871 SPIN=   0.00000
  Li  -0.4581708   0.3691629   0.4978871 SPIN=   0.00000
  Li   0.2585482  -0.3253006  -0.1833581 SPIN=   0.00000
  Li  -0.2585482   0.1746994   0.1833581 SPIN=   0.00000
  Fe   0.1836029   0.0017275   0.2230645 SPIN=   5.12975
  Fe  -0.1836029  -0.4982725  -0.2230645 SPIN=   5.12975
  Fe   0.0226736   0.0368218  -0.2007214 SPIN=   2.87025
  Fe  -0.0226736  -0.4631782   0.2007214 SPIN=   2.87025
   O   0.1448260   0.5111966  -0.5141033 SPIN=   0.00000
   O  -0.0901372   0.3144696  -0.3793177 SPIN=   0.00000
   O   0.3065143   0.2381544  -0.3917806 SPIN=   0.00000
   O   0.0264155   0.2212782  -0.6249545 SPIN=   0.00000
   S   0.0969046   0.3212747  -0.4775390 SPIN=   0.00000
   O  -0.1448260   0.0111966   0.5141033 SPIN=   0.00000
   O   0.0901372  -0.1855304   0.3793177 SPIN=   0.00000
   O  -0.3065143  -0.2618456   0.3917806 SPIN=   0.00000
   O  -0.0264155  -0.2787218   0.6249545 SPIN=   0.00000
   S  -0.0969046  -0.1787253   0.4775390 SPIN=   0.00000
   O  -0.2875381  -0.1073806   0.1771596 SPIN=   0.00000
   O  -0.4511567  -0.4010840   0.1119347 SPIN=   0.00000
   O  -0.3540243  -0.2050738  -0.0927873 SPIN=   0.00000
   O  -0.6754609  -0.1327554   0.0425934 SPIN=   0.00000
   S  -0.4420450  -0.2115735   0.0597251 SPIN=   0.00000
   O   0.2875381   0.3926194  -0.1771596 SPIN=   0.00000
   O   0.4511567   0.0989160  -0.1119347 SPIN=   0.00000
   O   0.3540243   0.2949262   0.0927873 SPIN=   0.00000
   O   0.6754609   0.3672446  -0.0425934 SPIN=   0.00000
   S   0.4420450   0.2884265  -0.0597251 SPIN=   0.00000
   F   0.4405746   0.0621521   0.3431519 SPIN=   0.00000
   F  -0.4405746  -0.4378479  -0.3431519 SPIN=   0.00000
   F  -0.0483406   0.0863694  -0.0130728 SPIN=   0.00000
   F   0.0483406  -0.4136306   0.0130728 SPIN=   0.00000
%ENDBLOCK POSITIONS_FRAC

# Note: total spin =  16.00

KPOINTS_MP_SPACING 0.07

%BLOCK SPECIES_POT
QC5
%ENDBLOCK SPECIES_POT

SNAP_TO_SYMMETRY
SYMMETRY_GENERATE

