#              Generated by Buildcell
#
# at 09:20:05 (GMT+1.0) 4th August 2020
# in /lustre/scratch/uccabz1/launch_tmp
# on node-c12p-018
# by uccabz1
#
# compiler GCC version 4.9.2
# options -cpp -iprefix /lustre/shared/ucl/apps/gcc/4.9.2/bin/../lib/gcc/x86_64-unknown-linux-gnu/4.9.2/ -mtune=corei7 -march=x86-64 -g -Og
#
# seed -1875678440  -118504168  -377377900   445334076  1775617275 -1908109030  -779515876 -1261731983   518184346  1948286593   260386610   253121704
#
#      Author: C. J. Pickard (cjp20@cam.ac.uk)
#                Space group: P43
#

%BLOCK LATTICE_ABC
      4.66918      9.25571      9.25571
     90.00000     90.00000     90.00000
%ENDBLOCK LATTICE_ABC

%BLOCK POSITIONS_FRAC
  Li  -0.0519770  -0.2597542   0.3403255 SPIN=   0.00000
  Li   0.4480230   0.2597542  -0.3403255 SPIN=   0.00000
  Li  -0.3019770  -0.3403255  -0.2597542 SPIN=   0.00000
  Li   0.1980230   0.3403255   0.2597542 SPIN=   0.00000
  Fe   0.0479859  -0.0687680  -0.2620972 SPIN=   4.00000
  Fe  -0.4520141   0.0687680   0.2620972 SPIN=   4.00000
  Fe  -0.2020141   0.2620972  -0.0687680 SPIN=   4.00000
  Fe   0.2979859  -0.2620972   0.0687680 SPIN=   4.00000
   O   0.0495659  -0.5299767  -0.3547658 SPIN=   0.00000
   O   0.4930124  -0.5698811  -0.2138355 SPIN=   0.00000
   O   0.0370442  -0.5180995  -0.0877154 SPIN=   0.00000
   O   0.2793910  -0.3255378  -0.2272519 SPIN=   0.00000
   S   0.2147534  -0.4858738  -0.2208921 SPIN=   0.00000
   O  -0.4504341   0.5299767   0.3547658 SPIN=   0.00000
   O  -0.0069876   0.5698811   0.2138355 SPIN=   0.00000
   O  -0.4629558   0.5180995   0.0877154 SPIN=   0.00000
   O  -0.2206090   0.3255378   0.2272519 SPIN=   0.00000
   S  -0.2852466   0.4858738   0.2208921 SPIN=   0.00000
   O  -0.2004341   0.3547658  -0.5299767 SPIN=   0.00000
   O   0.2430124   0.2138355  -0.5698811 SPIN=   0.00000
   O  -0.2129558   0.0877154  -0.5180995 SPIN=   0.00000
   O   0.0293910   0.2272519  -0.3255378 SPIN=   0.00000
   S  -0.0352466   0.2208921  -0.4858738 SPIN=   0.00000
   O   0.2995659  -0.3547658   0.5299767 SPIN=   0.00000
   O   0.7430124  -0.2138355   0.5698811 SPIN=   0.00000
   O   0.2870442  -0.0877154   0.5180995 SPIN=   0.00000
   O   0.5293910  -0.2272519   0.3255378 SPIN=   0.00000
   S   0.4647534  -0.2208921   0.4858738 SPIN=   0.00000
   F  -0.2839280  -0.2470208  -0.0561036 SPIN=   0.00000
   F   0.2160720   0.2470208   0.0561036 SPIN=   0.00000
   F   0.4660720   0.0561036  -0.2470208 SPIN=   0.00000
   F  -0.0339280  -0.0561036   0.2470208 SPIN=   0.00000
%ENDBLOCK POSITIONS_FRAC

# Note: total spin =  16.00

KPOINTS_MP_SPACING 0.07

%BLOCK SPECIES_POT
QC5
%ENDBLOCK SPECIES_POT

SNAP_TO_SYMMETRY
SYMMETRY_GENERATE

