#              Generated by Buildcell
#
# at 14:58:42 (GMT+1.0) 18th August 2020
# in /lustre/scratch/uccabz1/launch_tmp
# on node-c12m-029
# by uccabz1
#
# compiler GCC version 4.9.2
# options -cpp -iprefix /lustre/shared/ucl/apps/gcc/4.9.2/bin/../lib/gcc/x86_64-unknown-linux-gnu/4.9.2/ -mtune=corei7 -march=x86-64 -g -Og
#
# seed  -973008688  1684061651  -730075288   931270014 -1616045096  1009963162  -678781628   484050401  1061469146 -1600610290 -1307085428    37257064
#
#      Author: C. J. Pickard (cjp20@cam.ac.uk)
#                Space group: C2
#

%BLOCK LATTICE_ABC
      4.76767      7.50591     12.10208
     80.30944     78.63974     71.48249
%ENDBLOCK LATTICE_ABC

%BLOCK POSITIONS_FRAC
  Li   0.2483054   0.0891357  -0.1679381 SPIN=   0.00000
  Li   0.1695030  -0.0891357   0.1679381 SPIN=   0.00000
  Li  -0.1201199   0.2717440   0.4011500 SPIN=   0.00000
  Li  -0.4472259  -0.2717440  -0.4011500 SPIN=   0.00000
  Fe   0.2235376   0.1350717  -0.4111472 SPIN=   4.66427
  Fe  -0.0525379  -0.1350717   0.4111472 SPIN=   4.66427
  Fe   0.4466177   0.2791282   0.2592072 SPIN=   3.33573
  Fe  -0.0150470  -0.2791282  -0.2592072 SPIN=   3.33573
   O  -0.0955425   0.2055742   0.0216261 SPIN=   0.00000
   O   0.2936876   0.1661230   0.1396664 SPIN=   0.00000
   O   0.1050748   0.4710912   0.0237436 SPIN=   0.00000
   O   0.4229177   0.1897950  -0.0695416 SPIN=   0.00000
   S   0.1815344   0.2581458   0.0288736 SPIN=   0.00000
   O   0.1316578  -0.2055742  -0.0216261 SPIN=   0.00000
   O   0.5994769  -0.1661230  -0.1396664 SPIN=   0.00000
   O   0.5999096  -0.4710912  -0.0237436 SPIN=   0.00000
   O   0.5431711  -0.1897950   0.0695416 SPIN=   0.00000
   S   0.4685538  -0.2581458  -0.0288736 SPIN=   0.00000
   O  -0.1285736  -0.4040081   0.3648061 SPIN=   0.00000
   O  -0.0529031  -0.2759042   0.1625716 SPIN=   0.00000
   O  -0.5460851  -0.3140219   0.2536034 SPIN=   0.00000
   O  -0.1140852  -0.5961279   0.2152756 SPIN=   0.00000
   S  -0.2104117  -0.3975156   0.2490642 SPIN=   0.00000
   O  -0.1677756   0.4040081  -0.3648061 SPIN=   0.00000
   O  -0.1662357   0.2759042  -0.1625716 SPIN=   0.00000
   O  -0.6065036   0.3140219  -0.2536034 SPIN=   0.00000
   O  -0.4949376   0.5961279  -0.2152756 SPIN=   0.00000
   S  -0.3588631   0.3975156  -0.2490642 SPIN=   0.00000
   F   0.2905708  -0.2457412   0.4809810 SPIN=   0.00000
   F  -0.4741894   0.2457412  -0.4809810 SPIN=   0.00000
   F  -0.2230824   0.0595792   0.2522551 SPIN=   0.00000
   F   0.0887520  -0.0595792  -0.2522551 SPIN=   0.00000
%ENDBLOCK POSITIONS_FRAC

# Note: total spin =  16.00

KPOINTS_MP_SPACING 0.07

%BLOCK SPECIES_POT
QC5
%ENDBLOCK SPECIES_POT

SNAP_TO_SYMMETRY
SYMMETRY_GENERATE

