#              Generated by Buildcell
#
# at 05:55:41 (GMT+1.0) 18th August 2020
# in /lustre/scratch/uccabz1/launch_tmp
# on node-c12f-005
# by uccabz1
#
# compiler GCC version 4.9.2
# options -cpp -iprefix /lustre/shared/ucl/apps/gcc/4.9.2/bin/../lib/gcc/x86_64-unknown-linux-gnu/4.9.2/ -mtune=corei7 -march=x86-64 -g -Og
#
# seed  1876262184 -1715601379 -1295313664  1240334586 -1095632347   534212508   913719230   114629418   137999778     9432108    59177238  -132174136
#
#      Author: C. J. Pickard (cjp20@cam.ac.uk)
#                Space group: C2/c
#

%BLOCK LATTICE_ABC
      7.65487      7.65487      8.36265
     64.94695     64.94695     74.68062
%ENDBLOCK LATTICE_ABC

%BLOCK POSITIONS_FRAC
  Li   0.0299640  -0.3345825   0.2625858 SPIN=   0.00000
  Li   0.3345825  -0.0299640   0.2374142 SPIN=   0.00000
  Li  -0.0299640   0.3345825  -0.2625858 SPIN=   0.00000
  Li  -0.3345825   0.0299640  -0.2374142 SPIN=   0.00000
  Fe   0.2905269  -0.1179480  -0.1220600 SPIN=   4.00000
  Fe   0.1179480  -0.2905269  -0.3779400 SPIN=   4.00000
  Fe  -0.2905269   0.1179480   0.1220600 SPIN=   4.00000
  Fe  -0.1179480   0.2905269   0.3779400 SPIN=   4.00000
   O   0.1998258   0.3979241  -0.2328877 SPIN=   0.00000
   O   0.3831821   0.1969381  -0.0212888 SPIN=   0.00000
   O   0.0725799   0.1007369   0.0332992 SPIN=   0.00000
   O   0.0742601   0.3884196   0.0960703 SPIN=   0.00000
   S   0.1824620   0.2710047  -0.0312018 SPIN=   0.00000
   O  -0.3979241  -0.1998258  -0.2671123 SPIN=   0.00000
   O  -0.1969381  -0.3831821  -0.4787112 SPIN=   0.00000
   O  -0.1007369  -0.0725799  -0.5332992 SPIN=   0.00000
   O  -0.3884196  -0.0742601  -0.5960703 SPIN=   0.00000
   S  -0.2710047  -0.1824620  -0.4687982 SPIN=   0.00000
   O  -0.1998258  -0.3979241   0.2328877 SPIN=   0.00000
   O  -0.3831821  -0.1969381   0.0212888 SPIN=   0.00000
   O  -0.0725799  -0.1007369  -0.0332992 SPIN=   0.00000
   O  -0.0742601  -0.3884196  -0.0960703 SPIN=   0.00000
   S  -0.1824620  -0.2710047   0.0312018 SPIN=   0.00000
   O   0.3979241   0.1998258   0.2671123 SPIN=   0.00000
   O   0.1969381   0.3831821   0.4787112 SPIN=   0.00000
   O   0.1007369   0.0725799   0.5332992 SPIN=   0.00000
   O   0.3884196   0.0742601   0.5960703 SPIN=   0.00000
   S   0.2710047   0.1824620   0.4687982 SPIN=   0.00000
   F  -0.3665193   0.2836016  -0.4163171 SPIN=   0.00000
   F  -0.2836016   0.3665193  -0.0836829 SPIN=   0.00000
   F   0.3665193  -0.2836016   0.4163171 SPIN=   0.00000
   F   0.2836016  -0.3665193   0.0836829 SPIN=   0.00000
%ENDBLOCK POSITIONS_FRAC

# Note: total spin =  16.00

KPOINTS_MP_SPACING 0.07

%BLOCK SPECIES_POT
QC5
%ENDBLOCK SPECIES_POT

SNAP_TO_SYMMETRY
SYMMETRY_GENERATE

