#              Generated by Buildcell
#
# at 16:47:35 (GMT+1.0) 18th August 2020
# in /lustre/scratch/uccabz1/launch_tmp
# on node-c12p-013
# by uccabz1
#
# compiler GCC version 4.9.2
# options -cpp -iprefix /lustre/shared/ucl/apps/gcc/4.9.2/bin/../lib/gcc/x86_64-unknown-linux-gnu/4.9.2/ -mtune=corei7 -march=x86-64 -g -Og
#
# seed  -167728377 -1418202670   177438816  1949652200  1728736626   886727226  -580464886 -2098655712 -1318670920  -150667687  1356021266  1738196567
#
#      Author: C. J. Pickard (cjp20@cam.ac.uk)
#                Space group: Pnn2
#

%BLOCK LATTICE_ABC
      6.63843      7.10377      8.48214
     90.00000     90.00000     90.00000
%ENDBLOCK LATTICE_ABC

%BLOCK POSITIONS_FRAC
  Li  -0.4213909   0.0397167  -0.2242744 SPIN=   0.00000
  Li  -0.4213909  -0.0397167   0.2242744 SPIN=   0.00000
  Li   0.0786091   0.4602833   0.2757256 SPIN=   0.00000
  Li   0.0786091  -0.4602833  -0.2757256 SPIN=   0.00000
  Fe  -0.1532098  -0.2499952   0.4643271 SPIN=   4.00000
  Fe  -0.1532098   0.2499952  -0.4643271 SPIN=   4.00000
  Fe   0.3467902  -0.2500048  -0.0356729 SPIN=   4.00000
  Fe   0.3467902   0.2500048   0.0356729 SPIN=   4.00000
   O   0.4704675  -0.4167626  -0.3327307 SPIN=   0.00000
   O   0.2984804  -0.1106826  -0.2966253 SPIN=   0.00000
   O   0.2048053  -0.3173963  -0.5197537 SPIN=   0.00000
   O   0.5349281  -0.1555224  -0.5190613 SPIN=   0.00000
   S   0.3771703  -0.2500910  -0.4170428 SPIN=   0.00000
   O   0.4704675   0.4167626   0.3327307 SPIN=   0.00000
   O   0.2984804   0.1106826   0.2966253 SPIN=   0.00000
   O   0.2048053   0.3173963   0.5197537 SPIN=   0.00000
   O   0.5349281   0.1555224   0.5190613 SPIN=   0.00000
   S   0.3771703   0.2500910   0.4170428 SPIN=   0.00000
   O  -0.0295325  -0.0832374   0.1672693 SPIN=   0.00000
   O  -0.2015196  -0.3893174   0.2033747 SPIN=   0.00000
   O  -0.2951947  -0.1826037  -0.0197537 SPIN=   0.00000
   O   0.0349281  -0.3444776  -0.0190613 SPIN=   0.00000
   S  -0.1228297  -0.2499090   0.0829572 SPIN=   0.00000
   O  -0.0295325   0.0832374  -0.1672693 SPIN=   0.00000
   O  -0.2015196   0.3893174  -0.2033747 SPIN=   0.00000
   O  -0.2951947   0.1826037   0.0197537 SPIN=   0.00000
   O   0.0349281   0.3444776   0.0190613 SPIN=   0.00000
   S  -0.1228297   0.2499090  -0.0829572 SPIN=   0.00000
   F   0.3773217   0.2478536  -0.1788231 SPIN=   0.00000
   F   0.3773217  -0.2478536   0.1788231 SPIN=   0.00000
   F  -0.1226783   0.2521464   0.3211769 SPIN=   0.00000
   F  -0.1226783  -0.2521464  -0.3211769 SPIN=   0.00000
%ENDBLOCK POSITIONS_FRAC

# Note: total spin =  16.00

KPOINTS_MP_SPACING 0.07

%BLOCK SPECIES_POT
QC5
%ENDBLOCK SPECIES_POT

SNAP_TO_SYMMETRY
SYMMETRY_GENERATE

