#              Generated by Buildcell
#
# at 16:11:57 (GMT+1.0) 18th August 2020
# in /lustre/scratch/uccabz1/launch_tmp
# on node-c12l-030
# by uccabz1
#
# compiler GCC version 4.9.2
# options -cpp -iprefix /lustre/shared/ucl/apps/gcc/4.9.2/bin/../lib/gcc/x86_64-unknown-linux-gnu/4.9.2/ -mtune=corei7 -march=x86-64 -g -Og
#
# seed -1578702936  2067257389  -761221403  1022838237  1387848387  1056878684   569345501   111767573   211325204  1932722762   -83345993 -1851839434
#
#      Author: C. J. Pickard (cjp20@cam.ac.uk)
#                Space group: Pma2
#

%BLOCK LATTICE_ABC
      4.07017      6.36826     15.43215
     90.00000     90.00000     90.00000
%ENDBLOCK LATTICE_ABC

%BLOCK POSITIONS_FRAC
  Li  -0.4025551   0.4963691   0.2500000 SPIN=   0.00000
  Li   0.4025551   0.4963691  -0.2500000 SPIN=   0.00000
  Li  -0.2292940  -0.0046481  -0.2500000 SPIN=   0.00000
  Li   0.2292940  -0.0046481   0.2500000 SPIN=   0.00000
  Fe   0.2705978   0.1434446  -0.1187443 SPIN=   4.00000
  Fe  -0.2705978   0.1434446   0.1187443 SPIN=   4.00000
  Fe  -0.2705978   0.1434446   0.3812557 SPIN=   4.00000
  Fe   0.2705978   0.1434446  -0.3812557 SPIN=   4.00000
   O   0.0937895  -0.0710073   0.3698026 SPIN=   0.00000
   O  -0.2632798  -0.3850312   0.3773812 SPIN=   0.00000
   O   0.2541541  -0.3729802   0.4614635 SPIN=   0.00000
   S   0.0891486  -0.3082255   0.3775790 SPIN=   0.00000
   O  -0.0937895  -0.0710073  -0.3698026 SPIN=   0.00000
   O   0.2632798  -0.3850312  -0.3773812 SPIN=   0.00000
   O  -0.2541541  -0.3729802  -0.4614635 SPIN=   0.00000
   S  -0.0891486  -0.3082255  -0.3775790 SPIN=   0.00000
   O  -0.0937895  -0.0710073  -0.1301974 SPIN=   0.00000
   O   0.2632798  -0.3850312  -0.1226188 SPIN=   0.00000
   O  -0.2541541  -0.3729802  -0.0385365 SPIN=   0.00000
   S  -0.0891486  -0.3082255  -0.1224210 SPIN=   0.00000
   O   0.0937895  -0.0710073   0.1301974 SPIN=   0.00000
   O  -0.2632798  -0.3850312   0.1226188 SPIN=   0.00000
   O   0.2541541  -0.3729802   0.0385365 SPIN=   0.00000
   S   0.0891486  -0.3082255   0.1224210 SPIN=   0.00000
   O  -0.3691668  -0.1957563   0.2500000 SPIN=   0.00000
   O   0.3691668  -0.1957563  -0.2500000 SPIN=   0.00000
   O   0.1320256  -0.3742985   0.2500000 SPIN=   0.00000
   O  -0.1320256  -0.3742985  -0.2500000 SPIN=   0.00000
   F  -0.5000000   0.2237882   0.0000000 SPIN=   0.00000
   F  -0.5000000   0.2237882  -0.5000000 SPIN=   0.00000
   F   0.1549894   0.2139926  -0.2500000 SPIN=   0.00000
   F  -0.1549894   0.2139926   0.2500000 SPIN=   0.00000
%ENDBLOCK POSITIONS_FRAC

# Note: total spin =  16.00

KPOINTS_MP_SPACING 0.07

%BLOCK SPECIES_POT
QC5
%ENDBLOCK SPECIES_POT

SNAP_TO_SYMMETRY
SYMMETRY_GENERATE

