#              Generated by Buildcell
#
# at 15:53:11 (GMT+1.0) 18th August 2020
# in /scratch/scratch/uccabz1/launch_tmp
# on node-k10h-020
# by uccabz1
#
# compiler GCC version 4.9.2
# options -cpp -iprefix /scratch/UCL/applications/gcc/4.9.2/bin/../lib/gcc/x86_64-unknown-linux-gnu/4.9.2/ -mtune=corei7 -march=x86-64 -g -O2
#
# seed  -420897075 -1235743582  1147456193  -418105237  -963124472 -1761333967   656822765   132532525  1407873399  -143838307 -2085208172  1935274322
#
#      Author: C. J. Pickard (cjp20@cam.ac.uk)
#                Space group: P2
#

%BLOCK LATTICE_ABC
      6.40629      7.86055      8.06388
     99.92115     90.00000     90.00000
%ENDBLOCK LATTICE_ABC

%BLOCK POSITIONS_FRAC
  Li  -0.4946030   0.2537267   0.0211603 SPIN=   0.00000
  Li  -0.4946030  -0.2537267  -0.0211603 SPIN=   0.00000
  Li   0.0064548  -0.0567441   0.2293376 SPIN=   0.00000
  Li   0.0064548   0.0567441  -0.2293376 SPIN=   0.00000
  Fe   0.0171474  -0.2937739  -0.1168077 SPIN=   4.22270
  Fe   0.0171474   0.2937739   0.1168077 SPIN=   4.22270
  Fe   0.4719469  -0.1721610  -0.3577109 SPIN=   3.77730
  Fe   0.4719469   0.1721610   0.3577109 SPIN=   3.77730
   O   0.6251551  -0.5481175   0.1823907 SPIN=   0.00000
   O   0.5115442  -0.2816911   0.3706642 SPIN=   0.00000
   O   0.3055511  -0.5504121   0.3543979 SPIN=   0.00000
   O   0.3089925  -0.3932636   0.1135529 SPIN=   0.00000
   S   0.4378107  -0.4433711   0.2552514 SPIN=   0.00000
   O   0.6251551   0.5481175  -0.1823907 SPIN=   0.00000
   O   0.5115442   0.2816911  -0.3706642 SPIN=   0.00000
   O   0.3055511   0.5504121  -0.3543979 SPIN=   0.00000
   O   0.3089925   0.3932636  -0.1135529 SPIN=   0.00000
   S   0.4378107   0.4433711  -0.2552514 SPIN=   0.00000
   O  -0.1783184  -0.1252233   0.4069245 SPIN=   0.00000
   O  -0.1682206  -0.2572828   0.6641181 SPIN=   0.00000
   O   0.1611741  -0.1895588   0.5289148 SPIN=   0.00000
   O  -0.0634097  -0.4283407   0.3898669 SPIN=   0.00000
   S  -0.0621936  -0.2501014   0.4974561 SPIN=   0.00000
   O  -0.1783184   0.1252233  -0.4069245 SPIN=   0.00000
   O  -0.1682206   0.2572828  -0.6641181 SPIN=   0.00000
   O   0.1611741   0.1895588  -0.5289148 SPIN=   0.00000
   O  -0.0634097   0.4283407  -0.3898669 SPIN=   0.00000
   S  -0.0621936   0.2501014  -0.4974561 SPIN=   0.00000
   F   0.3073654  -0.0242284   0.2130658 SPIN=   0.00000
   F   0.3073654   0.0242284  -0.2130658 SPIN=   0.00000
   F  -0.1847256  -0.2119450   0.0792473 SPIN=   0.00000
   F  -0.1847256   0.2119450  -0.0792473 SPIN=   0.00000
%ENDBLOCK POSITIONS_FRAC

# Note: total spin =  16.00

KPOINTS_MP_SPACING 0.07

%BLOCK SPECIES_POT
QC5
%ENDBLOCK SPECIES_POT

SNAP_TO_SYMMETRY
SYMMETRY_GENERATE

