#              Generated by Buildcell
#
# at 09:45:27 (GMT+1.0) 4th August 2020
# in /lustre/scratch/uccabz1/launch_tmp
# on node-c12c-030
# by uccabz1
#
# compiler GCC version 4.9.2
# options -cpp -iprefix /lustre/shared/ucl/apps/gcc/4.9.2/bin/../lib/gcc/x86_64-unknown-linux-gnu/4.9.2/ -mtune=corei7 -march=x86-64 -g -Og
#
# seed  -678271679   806431082  -861699476  1356348261 -1527630591 -1471354306  -619057998   753518605 -2123310016  -968156996  -382683148 -1932563709
#
#      Author: C. J. Pickard (cjp20@cam.ac.uk)
#                Space group: P2
#

%BLOCK LATTICE_ABC
      7.24402      7.55721      7.58644
    105.60877     90.00000     90.00000
%ENDBLOCK LATTICE_ABC

%BLOCK POSITIONS_FRAC
  Li   0.3382554   0.2402324   0.4667353 SPIN=   0.00000
  Li   0.3382554  -0.2402324  -0.4667353 SPIN=   0.00000
  Li  -0.0399676  -0.3454339  -0.1613959 SPIN=   0.00000
  Li  -0.0399676   0.3454339   0.1613959 SPIN=   0.00000
  Fe   0.3722223  -0.2990357  -0.0879895 SPIN=   3.30044
  Fe   0.3722223   0.2990357   0.0879895 SPIN=   3.30044
  Fe   0.0413020  -0.1540858   0.2735917 SPIN=   4.69956
  Fe   0.0413020   0.1540858  -0.2735917 SPIN=   4.69956
   O  -0.2189091   0.3937595  -0.4240872 SPIN=   0.00000
   O  -0.3617829   0.5865129  -0.1408830 SPIN=   0.00000
   O  -0.2165000   0.2900196  -0.1412314 SPIN=   0.00000
   O  -0.5093651   0.2941574  -0.3080625 SPIN=   0.00000
   S  -0.3266393   0.3911123  -0.2535660 SPIN=   0.00000
   O  -0.2189091  -0.3937595   0.4240872 SPIN=   0.00000
   O  -0.3617829  -0.5865129   0.1408830 SPIN=   0.00000
   O  -0.2165000  -0.2900196   0.1412314 SPIN=   0.00000
   O  -0.5093651  -0.2941574   0.3080625 SPIN=   0.00000
   S  -0.3266393  -0.3911123   0.2535660 SPIN=   0.00000
   O  -0.4184290   0.2717779   0.3556881 SPIN=   0.00000
   O  -0.1495139   0.0772057   0.3786346 SPIN=   0.00000
   O  -0.2222326   0.1438170   0.0842128 SPIN=   0.00000
   O  -0.4253033  -0.0615706   0.2023489 SPIN=   0.00000
   S  -0.3038697   0.1078075   0.2552211 SPIN=   0.00000
   O  -0.4184290  -0.2717779  -0.3556881 SPIN=   0.00000
   O  -0.1495139  -0.0772057  -0.3786346 SPIN=   0.00000
   O  -0.2222326  -0.1438170  -0.0842128 SPIN=   0.00000
   O  -0.4253033   0.0615706  -0.2023489 SPIN=   0.00000
   S  -0.3038697  -0.1078075  -0.2552211 SPIN=   0.00000
   F   0.1471331  -0.4536304   0.2686059 SPIN=   0.00000
   F   0.1471331   0.4536304  -0.2686059 SPIN=   0.00000
   F   0.2111218  -0.0489248  -0.2567790 SPIN=   0.00000
   F   0.2111218   0.0489248   0.2567790 SPIN=   0.00000
%ENDBLOCK POSITIONS_FRAC

# Note: total spin =  16.00

KPOINTS_MP_SPACING 0.07

%BLOCK SPECIES_POT
QC5
%ENDBLOCK SPECIES_POT

SNAP_TO_SYMMETRY
SYMMETRY_GENERATE

