#              Generated by Buildcell
#
# at 23:40:58 (GMT+1.0) 17th August 2020
# in /lustre/scratch/uccabz1/launch_tmp
# on node-c12n-031
# by uccabz1
#
# compiler GCC version 4.9.2
# options -cpp -iprefix /lustre/shared/ucl/apps/gcc/4.9.2/bin/../lib/gcc/x86_64-unknown-linux-gnu/4.9.2/ -mtune=corei7 -march=x86-64 -g -Og
#
# seed    17672954   634192069    81532476  1557739828  1351137214 -2017918119 -1297052938   588173680  -415395667 -1611765333  1620206027  1723916029
#
#      Author: C. J. Pickard (cjp20@cam.ac.uk)
#                Space group: Pc
#

%BLOCK LATTICE_ABC
      6.32270      6.90610      9.43944
    103.96063     90.00000     90.00000
%ENDBLOCK LATTICE_ABC

%BLOCK POSITIONS_FRAC
  Li  -0.2268739   0.4904908   0.1027416 SPIN=   0.00000
  Li   0.2268739   0.4904908  -0.3972584 SPIN=   0.00000
  Li   0.2707718  -0.1055159   0.1588592 SPIN=   0.00000
  Li  -0.2707718  -0.1055159  -0.3411408 SPIN=   0.00000
  Fe  -0.2479875   0.3442018  -0.2539267 SPIN=   4.80709
  Fe   0.2479875   0.3442018   0.2460733 SPIN=   4.80709
  Fe   0.0827281  -0.1726245  -0.1434089 SPIN=   3.19291
  Fe  -0.0827281  -0.1726245   0.3565911 SPIN=   3.19291
   O   0.1789196   0.1767313  -0.4898353 SPIN=   0.00000
   O   0.4433787   0.1826482  -0.2955433 SPIN=   0.00000
   O   0.1823908  -0.0919115  -0.3573812 SPIN=   0.00000
   O   0.0662869   0.2482528  -0.2313044 SPIN=   0.00000
   S   0.2177440   0.1289302  -0.3435161 SPIN=   0.00000
   O  -0.1789196   0.1767313   0.0101647 SPIN=   0.00000
   O  -0.4433787   0.1826482   0.2044567 SPIN=   0.00000
   O  -0.1823908  -0.0919115   0.1426188 SPIN=   0.00000
   O  -0.0662869   0.2482528   0.2686956 SPIN=   0.00000
   S  -0.2177440   0.1289302   0.1564839 SPIN=   0.00000
   O   0.5149604  -0.6439030   0.0016873 SPIN=   0.00000
   O   0.1761035  -0.4596744   0.0449059 SPIN=   0.00000
   O   0.3873056  -0.4585884  -0.1756447 SPIN=   0.00000
   O   0.5145138  -0.2746364   0.0675896 SPIN=   0.00000
   S   0.3982208  -0.4592006  -0.0153655 SPIN=   0.00000
   O  -0.5149604  -0.6439030   0.5016873 SPIN=   0.00000
   O  -0.1761035  -0.4596744   0.5449059 SPIN=   0.00000
   O  -0.3873056  -0.4585884   0.3243553 SPIN=   0.00000
   O  -0.5145138  -0.2746364   0.5675896 SPIN=   0.00000
   S  -0.3982208  -0.4592006   0.4846345 SPIN=   0.00000
   F  -0.2577867   0.0177782   0.4876905 SPIN=   0.00000
   F   0.2577867   0.0177782  -0.0123095 SPIN=   0.00000
   F  -0.2416600  -0.2090974  -0.1740691 SPIN=   0.00000
   F   0.2416600  -0.2090974   0.3259309 SPIN=   0.00000
%ENDBLOCK POSITIONS_FRAC

# Note: total spin =  16.00

KPOINTS_MP_SPACING 0.07

%BLOCK SPECIES_POT
QC5
%ENDBLOCK SPECIES_POT

SNAP_TO_SYMMETRY
SYMMETRY_GENERATE

