#              Generated by Buildcell
#
# at 05:58:02 (GMT+1.0) 4th August 2020
# in /lustre/scratch/uccabz1/launch_tmp
# on node-c12l-009
# by uccabz1
#
# compiler GCC version 4.9.2
# options -cpp -iprefix /lustre/shared/ucl/apps/gcc/4.9.2/bin/../lib/gcc/x86_64-unknown-linux-gnu/4.9.2/ -mtune=corei7 -march=x86-64 -g -Og
#
# seed  -821095013  1290060650  1158471667 -2074370253  1338216040  -588743901   993061648  2095510514  1789645594  -774249610   733170038  1256038127
#
#      Author: C. J. Pickard (cjp20@cam.ac.uk)
#                Space group: P-1
#

%BLOCK LATTICE_ABC
      6.26404      8.15339      8.92625
     83.27687     70.53530     68.52887
%ENDBLOCK LATTICE_ABC

%BLOCK POSITIONS_FRAC
  Li   0.5608216  -0.1785022  -0.3691821 SPIN=   0.00000
  Li  -0.5608216   0.1785022   0.3691821 SPIN=   0.00000
  Li  -0.6097469   0.2631761  -0.0162595 SPIN=   0.00000
  Li   0.6097469  -0.2631761   0.0162595 SPIN=   0.00000
  Fe  -0.9566331   0.4667575   0.2933443 SPIN=   3.54733
  Fe   0.9566331  -0.4667575  -0.2933443 SPIN=   3.54733
  Fe  -0.4173358   0.2531306  -0.3674158 SPIN=   4.45267
  Fe   0.4173358  -0.2531306   0.3674158 SPIN=   4.45267
   O  -0.3569452  -0.1271532   0.3593134 SPIN=   0.00000
   O  -0.2477781   0.1084317   0.4318890 SPIN=   0.00000
   O   0.0370915  -0.0957914   0.2098688 SPIN=   0.00000
   O  -0.0376979  -0.2033635   0.4869096 SPIN=   0.00000
   S  -0.1513324  -0.0794691   0.3719952 SPIN=   0.00000
   O   0.3569452   0.1271532  -0.3593134 SPIN=   0.00000
   O   0.2477781  -0.1084317  -0.4318890 SPIN=   0.00000
   O  -0.0370915   0.0957914  -0.2098688 SPIN=   0.00000
   O   0.0376979   0.2033635  -0.4869096 SPIN=   0.00000
   S   0.1513324   0.0794691  -0.3719952 SPIN=   0.00000
   O  -0.0814926  -0.2612733   0.0529952 SPIN=   0.00000
   O   0.3391190  -0.3695969   0.0603951 SPIN=   0.00000
   O   0.2354310  -0.1852503  -0.1635749 SPIN=   0.00000
   O   0.2370114  -0.4912234  -0.1370892 SPIN=   0.00000
   S   0.1825172  -0.3268360  -0.0468185 SPIN=   0.00000
   O   0.0814926   0.2612733  -0.0529952 SPIN=   0.00000
   O  -0.3391190   0.3695969  -0.0603951 SPIN=   0.00000
   O  -0.2354310   0.1852503   0.1635749 SPIN=   0.00000
   O  -0.2370114   0.4912234   0.1370892 SPIN=   0.00000
   S  -0.1825172   0.3268360   0.0468185 SPIN=   0.00000
   F   0.3378556   0.1102989   0.1852628 SPIN=   0.00000
   F  -0.3378556  -0.1102989  -0.1852628 SPIN=   0.00000
   F  -0.6833117   0.4453560   0.4146737 SPIN=   0.00000
   F   0.6833117  -0.4453560  -0.4146737 SPIN=   0.00000
%ENDBLOCK POSITIONS_FRAC

# Note: total spin =  16.00

KPOINTS_MP_SPACING 0.07

%BLOCK SPECIES_POT
QC5
%ENDBLOCK SPECIES_POT

SNAP_TO_SYMMETRY
SYMMETRY_GENERATE

