#              Generated by Buildcell
#
# at 23:49:57 (GMT+1.0) 17th August 2020
# in /lustre/scratch/uccabz1/launch_tmp
# on node-c12e-036
# by uccabz1
#
# compiler GCC version 4.9.2
# options -cpp -iprefix /lustre/shared/ucl/apps/gcc/4.9.2/bin/../lib/gcc/x86_64-unknown-linux-gnu/4.9.2/ -mtune=corei7 -march=x86-64 -g -Og
#
# seed   -60820543  -972558975   892548283   819663411 -2031255304   578285559 -1201338122 -1840004328  1022535712  -939096237  -484504874  1755465656
#
#      Author: C. J. Pickard (cjp20@cam.ac.uk)
#                Space group: P212121
#

%BLOCK LATTICE_ABC
      3.91969      9.24287     11.04081
     90.00000     90.00000     90.00000
%ENDBLOCK LATTICE_ABC

%BLOCK POSITIONS_FRAC
  Li  -0.0035335   0.4539269   0.1110259 SPIN=   0.00000
  Li  -0.4964665  -0.0460731  -0.1110259 SPIN=   0.00000
  Li   0.0035335   0.0460731  -0.3889741 SPIN=   0.00000
  Li   0.4964665  -0.4539269   0.3889741 SPIN=   0.00000
  Fe   0.0814010  -0.1693449   0.3976023 SPIN=   4.00000
  Fe   0.4185990   0.3306551  -0.3976023 SPIN=   4.00000
  Fe  -0.0814010  -0.3306551  -0.1023977 SPIN=   4.00000
  Fe  -0.4185990   0.1693449   0.1023977 SPIN=   4.00000
   O  -0.6451504  -0.1779146  -0.4065998 SPIN=   0.00000
   O  -0.1065012  -0.3146859  -0.3827834 SPIN=   0.00000
   O  -0.6448653  -0.4446593  -0.4261045 SPIN=   0.00000
   O  -0.5549723  -0.3311718  -0.2256013 SPIN=   0.00000
   S  -0.4878723  -0.3171079  -0.3602723 SPIN=   0.00000
   O   0.1451504   0.3220854   0.4065998 SPIN=   0.00000
   O  -0.3934988   0.1853141   0.3827834 SPIN=   0.00000
   O   0.1448653   0.0553407   0.4261045 SPIN=   0.00000
   O   0.0549723   0.1688282   0.2256013 SPIN=   0.00000
   S  -0.0121277   0.1828921   0.3602723 SPIN=   0.00000
   O   0.6451504  -0.3220854   0.0934002 SPIN=   0.00000
   O   0.1065012  -0.1853141   0.1172166 SPIN=   0.00000
   O   0.6448653  -0.0553407   0.0738955 SPIN=   0.00000
   O   0.5549723  -0.1688282   0.2743987 SPIN=   0.00000
   S   0.4878723  -0.1828921   0.1397277 SPIN=   0.00000
   O  -0.1451504   0.1779146  -0.0934002 SPIN=   0.00000
   O   0.3934988   0.3146859  -0.1172166 SPIN=   0.00000
   O  -0.1448653   0.4446593  -0.0738955 SPIN=   0.00000
   O  -0.0549723   0.3311718  -0.2743987 SPIN=   0.00000
   S   0.0121277   0.3171079  -0.1397277 SPIN=   0.00000
   F  -0.4885987   0.1129630  -0.3611589 SPIN=   0.00000
   F  -0.0114013  -0.3870370   0.3611589 SPIN=   0.00000
   F   0.4885987   0.3870370   0.1388411 SPIN=   0.00000
   F   0.0114013  -0.1129630  -0.1388411 SPIN=   0.00000
%ENDBLOCK POSITIONS_FRAC

# Note: total spin =  16.00

KPOINTS_MP_SPACING 0.07

%BLOCK SPECIES_POT
QC5
%ENDBLOCK SPECIES_POT

SNAP_TO_SYMMETRY
SYMMETRY_GENERATE

