#              Generated by Buildcell
#
# at 10:01:41 (GMT+1.0) 4th August 2020
# in /lustre/scratch/uccabz1/launch_tmp
# on node-c12f-027
# by uccabz1
#
# compiler GCC version 4.9.2
# options -cpp -iprefix /lustre/shared/ucl/apps/gcc/4.9.2/bin/../lib/gcc/x86_64-unknown-linux-gnu/4.9.2/ -mtune=corei7 -march=x86-64 -g -Og
#
# seed   790427447   130054002   513277680  -464549247 -1617692012 -1895368217   388077360 -2088221849   521932811  1853804593 -1642431280   919622033
#
#      Author: C. J. Pickard (cjp20@cam.ac.uk)
#                Space group: Cc
#

%BLOCK LATTICE_ABC
      6.56645      6.90815      9.68054
    110.90417    101.96243     90.00000
%ENDBLOCK LATTICE_ABC

%BLOCK POSITIONS_FRAC
  Li  -0.3230240  -0.0580349  -0.4423946 SPIN=   0.00000
  Li   0.1769760  -0.3843597  -0.4423946 SPIN=   0.00000
  Li   0.4027323   0.3178495  -0.1642474 SPIN=   0.00000
  Li  -0.0972677  -0.4820970  -0.1642474 SPIN=   0.00000
  Fe   0.0603595   0.0884289  -0.0914789 SPIN=   3.49349
  Fe  -0.4396405  -0.1799079  -0.0914789 SPIN=   3.49349
  Fe  -0.1696193  -0.2319541   0.2650730 SPIN=   4.50651
  Fe   0.3303807   0.4970271   0.2650730 SPIN=   4.50651
   O   0.1127368   0.2319978  -0.4086736 SPIN=   0.00000
   O   0.3446779   0.0231823  -0.2920302 SPIN=   0.00000
   O   0.2240914  -0.0981063  -0.5710929 SPIN=   0.00000
   O  -0.0252608  -0.1036694  -0.4124625 SPIN=   0.00000
   S   0.1640613   0.0133511  -0.4210648 SPIN=   0.00000
   O  -0.3872632  -0.6406714  -0.4086736 SPIN=   0.00000
   O  -0.1553221  -0.3152125  -0.2920302 SPIN=   0.00000
   O  -0.2759086  -0.4729867  -0.5710929 SPIN=   0.00000
   O  -0.5252608  -0.3087932  -0.4124625 SPIN=   0.00000
   S  -0.3359387  -0.4344159  -0.4210648 SPIN=   0.00000
   O  -0.0329458   0.2265118   0.3388504 SPIN=   0.00000
   O  -0.3872125   0.2689488   0.2091990 SPIN=   0.00000
   O  -0.1433894   0.0679575   0.0591892 SPIN=   0.00000
   O  -0.0783924   0.4500364   0.1856145 SPIN=   0.00000
   S  -0.1604850   0.2533636   0.1982133 SPIN=   0.00000
   O   0.4670542   0.1123385   0.3388504 SPIN=   0.00000
   O   0.1127875  -0.0597498   0.2091990 SPIN=   0.00000
   O   0.3566106  -0.0087683   0.0591892 SPIN=   0.00000
   O   0.4216076  -0.2644219   0.1856145 SPIN=   0.00000
   S   0.3395150  -0.0551504   0.1982133 SPIN=   0.00000
   F   0.2482015  -0.2958414  -0.2088591 SPIN=   0.00000
   F  -0.2517985   0.0869823  -0.2088591 SPIN=   0.00000
   F   0.2999798   0.3472036   0.0295503 SPIN=   0.00000
   F  -0.2000202  -0.3176533   0.0295503 SPIN=   0.00000
%ENDBLOCK POSITIONS_FRAC

# Note: total spin =  16.00

KPOINTS_MP_SPACING 0.07

%BLOCK SPECIES_POT
QC5
%ENDBLOCK SPECIES_POT

SNAP_TO_SYMMETRY
SYMMETRY_GENERATE

