#              Generated by Buildcell
#
# at 08:39:26 (GMT+1.0) 18th August 2020
# in /scratch/scratch/uccabz1/launch_tmp
# on node-k10d-018
# by uccabz1
#
# compiler GCC version 4.9.2
# options -cpp -iprefix /scratch/UCL/applications/gcc/4.9.2/bin/../lib/gcc/x86_64-unknown-linux-gnu/4.9.2/ -mtune=corei7 -march=x86-64 -g -O2
#
# seed -1348175318  -987571316  2018870586 -1170499048   237364338  -811843204   -91315042   679542115   205782613 -1167254332  1698050036   880182845
#
#      Author: C. J. Pickard (cjp20@cam.ac.uk)
#                Space group: Pc
#

%BLOCK LATTICE_ABC
      4.91191      6.98526     11.66132
     90.00000     90.00000     91.35166
%ENDBLOCK LATTICE_ABC

%BLOCK POSITIONS_FRAC
  Li   0.2169595   0.4288022  -0.2433245 SPIN=   0.00000
  Li   0.2169595  -0.0711978   0.2433245 SPIN=   0.00000
  Li   0.2932413   0.4160587   0.4380938 SPIN=   0.00000
  Li   0.2932413  -0.0839413  -0.4380938 SPIN=   0.00000
  Fe   0.3286137  -0.4491307   0.1161098 SPIN=   1.94662
  Fe   0.3286137   0.0508693  -0.1161098 SPIN=   1.94662
  Fe  -0.2846944  -0.3107002  -0.3004818 SPIN=   6.05338
  Fe  -0.2846944   0.1892998   0.3004818 SPIN=   6.05338
   O  -0.3032796   0.2184906  -0.5017105 SPIN=   0.00000
   O  -0.5794200   0.1338111  -0.3307786 SPIN=   0.00000
   O  -0.2294888   0.3939009  -0.3195321 SPIN=   0.00000
   O  -0.0903634   0.0568886  -0.3367314 SPIN=   0.00000
   S  -0.3006379   0.2007728  -0.3721882 SPIN=   0.00000
   O  -0.3032796  -0.2815094   0.5017105 SPIN=   0.00000
   O  -0.5794200  -0.3661889   0.3307786 SPIN=   0.00000
   O  -0.2294888  -0.1060991   0.3195321 SPIN=   0.00000
   O  -0.0903634  -0.4431114   0.3367314 SPIN=   0.00000
   S  -0.3006379  -0.2992272   0.3721882 SPIN=   0.00000
   O  -0.1321941   0.5832084  -0.1453995 SPIN=   0.00000
   O  -0.4466462   0.3096343  -0.1045682 SPIN=   0.00000
   O  -0.1996741   0.4719670   0.0543066 SPIN=   0.00000
   O   0.0507518   0.2725725  -0.0837312 SPIN=   0.00000
   S  -0.1819407   0.4093455  -0.0698481 SPIN=   0.00000
   O  -0.1321941   0.0832084   0.1453995 SPIN=   0.00000
   O  -0.4466462  -0.1903657   0.1045682 SPIN=   0.00000
   O  -0.1996741  -0.0280330  -0.0543066 SPIN=   0.00000
   O   0.0507518  -0.2274275   0.0837312 SPIN=   0.00000
   S  -0.1819407  -0.0906545   0.0698481 SPIN=   0.00000
   F   0.3390949  -0.2421255  -0.1367446 SPIN=   0.00000
   F   0.3390949   0.2578745   0.1367446 SPIN=   0.00000
   F   0.1865198  -0.4332833  -0.4242976 SPIN=   0.00000
   F   0.1865198   0.0667167   0.4242976 SPIN=   0.00000
%ENDBLOCK POSITIONS_FRAC

# Note: total spin =  16.00

KPOINTS_MP_SPACING 0.07

%BLOCK SPECIES_POT
QC5
%ENDBLOCK SPECIES_POT

SNAP_TO_SYMMETRY
SYMMETRY_GENERATE

