#              Generated by Buildcell
#
# at 12:23:42 (GMT+1.0) 18th August 2020
# in /lustre/scratch/uccabz1/launch_tmp
# on node-c12m-003
# by uccabz1
#
# compiler GCC version 4.9.2
# options -cpp -iprefix /lustre/shared/ucl/apps/gcc/4.9.2/bin/../lib/gcc/x86_64-unknown-linux-gnu/4.9.2/ -mtune=corei7 -march=x86-64 -g -Og
#
# seed  -688400847 -1579699993  1368269065 -1376617845  1665249013  1999856374 -1536965204 -1203232190  2043200317  -342725202   609922522 -1659599666
#
#      Author: C. J. Pickard (cjp20@cam.ac.uk)
#                Space group: P-1
#

%BLOCK LATTICE_ABC
      4.10344      7.29967     13.58979
     95.81264     95.22388     96.72352
%ENDBLOCK LATTICE_ABC

%BLOCK POSITIONS_FRAC
  Li  -0.2676970   0.0468725   0.3937895 SPIN=   0.00000
  Li   0.2676970  -0.0468725  -0.3937895 SPIN=   0.00000
  Li   0.1825128   0.1270625   0.1813729 SPIN=   0.00000
  Li  -0.1825128  -0.1270625  -0.1813729 SPIN=   0.00000
  Fe  -0.0610119   0.2453562  -0.0049357 SPIN=   3.65873
  Fe   0.0610119  -0.2453562   0.0049357 SPIN=   3.65873
  Fe  -0.7520668  -0.3954862  -0.2535738 SPIN=   4.34127
  Fe   0.7520668   0.3954862   0.2535738 SPIN=   4.34127
   O  -0.4107331  -0.3704936   0.1574077 SPIN=   0.00000
   O  -0.1575854  -0.1465273   0.3005242 SPIN=   0.00000
   O  -0.7001757  -0.1071837   0.2154361 SPIN=   0.00000
   O  -0.1947777  -0.0502427   0.1308262 SPIN=   0.00000
   S  -0.3658180  -0.1686118   0.2010485 SPIN=   0.00000
   O   0.4107331   0.3704936  -0.1574077 SPIN=   0.00000
   O   0.1575854   0.1465273  -0.3005242 SPIN=   0.00000
   O   0.7001757   0.1071837  -0.2154361 SPIN=   0.00000
   O   0.1947777   0.0502427  -0.1308262 SPIN=   0.00000
   S   0.3658180   0.1686118  -0.2010485 SPIN=   0.00000
   O   0.3289493  -0.3887954   0.5142683 SPIN=   0.00000
   O   0.3573187  -0.0977185   0.4347790 SPIN=   0.00000
   O  -0.1842199  -0.2784947   0.4464875 SPIN=   0.00000
   O   0.1961981  -0.4003206   0.3322382 SPIN=   0.00000
   S   0.1745616  -0.2913323   0.4319433 SPIN=   0.00000
   O  -0.3289493   0.3887954  -0.5142683 SPIN=   0.00000
   O  -0.3573187   0.0977185  -0.4347790 SPIN=   0.00000
   O   0.1842199   0.2784947  -0.4464875 SPIN=   0.00000
   O  -0.1961981   0.4003206  -0.3322382 SPIN=   0.00000
   S  -0.1745616   0.2913323  -0.4319433 SPIN=   0.00000
   F  -0.1927394  -0.2178761  -0.3359414 SPIN=   0.00000
   F   0.1927394   0.2178761   0.3359414 SPIN=   0.00000
   F   0.5747620   0.2677888   0.0688435 SPIN=   0.00000
   F  -0.5747620  -0.2677888  -0.0688435 SPIN=   0.00000
%ENDBLOCK POSITIONS_FRAC

# Note: total spin =  16.00

KPOINTS_MP_SPACING 0.07

%BLOCK SPECIES_POT
QC5
%ENDBLOCK SPECIES_POT

SNAP_TO_SYMMETRY
SYMMETRY_GENERATE

