#              Generated by Buildcell
#
# at 16:11:55 (GMT+1.0) 18th August 2020
# in /lustre/scratch/uccabz1/launch_tmp
# on node-c12l-030
# by uccabz1
#
# compiler GCC version 4.9.2
# options -cpp -iprefix /lustre/shared/ucl/apps/gcc/4.9.2/bin/../lib/gcc/x86_64-unknown-linux-gnu/4.9.2/ -mtune=corei7 -march=x86-64 -g -Og
#
# seed -1606864458  2142998700   430264286  1936714377  -907196184   413146921 -1901499042   -87020718    94710947  -526168769   847722100 -1691933465
#
#      Author: C. J. Pickard (cjp20@cam.ac.uk)
#                Space group: P2/c
#

%BLOCK LATTICE_ABC
      6.72629      7.69225      7.97303
    104.15565     90.00000     90.00000
%ENDBLOCK LATTICE_ABC

%BLOCK POSITIONS_FRAC
  Li   0.2496148  -0.0483191  -0.4758266 SPIN=   0.00000
  Li   0.2496148   0.0483191  -0.0241734 SPIN=   0.00000
  Li  -0.2496148   0.0483191   0.4758266 SPIN=   0.00000
  Li  -0.2496148  -0.0483191   0.0241734 SPIN=   0.00000
  Fe  -0.0217222   0.2469686   0.2757354 SPIN=   4.00000
  Fe  -0.0217222  -0.2469686   0.2242646 SPIN=   4.00000
  Fe   0.0217222  -0.2469686  -0.2757354 SPIN=   4.00000
  Fe   0.0217222   0.2469686  -0.2242646 SPIN=   4.00000
   O   0.3611670   0.4401893   0.4246773 SPIN=   0.00000
   O   0.4215850   0.1688094   0.5318263 SPIN=   0.00000
   O   0.6646993   0.2591887   0.3360381 SPIN=   0.00000
   O   0.3361451   0.1394748   0.2242336 SPIN=   0.00000
   S   0.4458991   0.2519155   0.3791938 SPIN=   0.00000
   O   0.3611670  -0.4401893   0.0753227 SPIN=   0.00000
   O   0.4215850  -0.1688094  -0.0318263 SPIN=   0.00000
   O   0.6646993  -0.2591887   0.1639619 SPIN=   0.00000
   O   0.3361451  -0.1394748   0.2757664 SPIN=   0.00000
   S   0.4458991  -0.2519155   0.1208062 SPIN=   0.00000
   O  -0.3611670  -0.4401893  -0.4246773 SPIN=   0.00000
   O  -0.4215850  -0.1688094  -0.5318263 SPIN=   0.00000
   O  -0.6646993  -0.2591887  -0.3360381 SPIN=   0.00000
   O  -0.3361451  -0.1394748  -0.2242336 SPIN=   0.00000
   S  -0.4458991  -0.2519155  -0.3791938 SPIN=   0.00000
   O  -0.3611670   0.4401893  -0.0753227 SPIN=   0.00000
   O  -0.4215850   0.1688094   0.0318263 SPIN=   0.00000
   O  -0.6646993   0.2591887  -0.1639619 SPIN=   0.00000
   O  -0.3361451   0.1394748  -0.2757664 SPIN=   0.00000
   S  -0.4458991   0.2519155  -0.1208062 SPIN=   0.00000
   F   0.0553010   0.2652717   0.0633053 SPIN=   0.00000
   F   0.0553010  -0.2652717   0.4366947 SPIN=   0.00000
   F  -0.0553010  -0.2652717  -0.0633053 SPIN=   0.00000
   F  -0.0553010   0.2652717  -0.4366947 SPIN=   0.00000
%ENDBLOCK POSITIONS_FRAC

# Note: total spin =  16.00

KPOINTS_MP_SPACING 0.07

%BLOCK SPECIES_POT
QC5
%ENDBLOCK SPECIES_POT

SNAP_TO_SYMMETRY
SYMMETRY_GENERATE

