#              Generated by Buildcell
#
# at 05:58:14 (GMT+1.0) 18th August 2020
# in /lustre/scratch/uccabz1/launch_tmp
# on node-c12c-010
# by uccabz1
#
# compiler GCC version 4.9.2
# options -cpp -iprefix /lustre/shared/ucl/apps/gcc/4.9.2/bin/../lib/gcc/x86_64-unknown-linux-gnu/4.9.2/ -mtune=corei7 -march=x86-64 -g -Og
#
# seed -1946576845 -1077254356  1198551634  -535327331   778683689   535539905   353888248  1444427353   297876346  1155996781  -380772015 -1489219325
#
#      Author: C. J. Pickard (cjp20@cam.ac.uk)
#                Space group: Cm
#

%BLOCK LATTICE_ABC
      6.75913      8.12022      8.12022
     88.12183     71.56618     71.56618
%ENDBLOCK LATTICE_ABC

%BLOCK POSITIONS_FRAC
  Li   0.1617666   0.3047809  -0.2983426 SPIN=   0.00000
  Li   0.1617666  -0.2983426   0.3047809 SPIN=   0.00000
  Li  -0.3488815   0.0438475   0.0438475 SPIN=   0.00000
  Li   0.0309626   0.2747005   0.2747005 SPIN=   0.00000
  Fe   0.3211800   0.4311291  -0.0373146 SPIN=   3.99497
  Fe   0.3211800  -0.0373146   0.4311291 SPIN=   3.99497
  Fe  -0.4219381   0.3094301   0.3094301 SPIN=   5.59912
  Fe   0.1030620   0.0102770   0.0102770 SPIN=   2.41095
   O  -0.4063850  -0.2326356   0.3056339 SPIN=   0.00000
   O  -0.0799024  -0.4147145   0.3792020 SPIN=   0.00000
   O  -0.0383530  -0.3207579   0.0805679 SPIN=   0.00000
   O  -0.2248884  -0.5396894   0.1870360 SPIN=   0.00000
   S  -0.1873822  -0.3769494   0.2381100 SPIN=   0.00000
   O  -0.4063850   0.3056339  -0.2326356 SPIN=   0.00000
   O  -0.0799024   0.3792020  -0.4147145 SPIN=   0.00000
   O  -0.0383530   0.0805679  -0.3207579 SPIN=   0.00000
   O  -0.2248884   0.1870360  -0.5396894 SPIN=   0.00000
   S  -0.1873822   0.2381100  -0.3769494 SPIN=   0.00000
   O  -0.0548145  -0.2371668  -0.4330782 SPIN=   0.00000
   O  -0.3623556   0.0382535  -0.3256111 SPIN=   0.00000
   O  -0.4329926  -0.2201827  -0.4158798 SPIN=   0.00000
   O  -0.2284050  -0.0644233  -0.6370972 SPIN=   0.00000
   O  -0.0548145  -0.4330782  -0.2371668 SPIN=   0.00000
   O  -0.3623556  -0.3256111   0.0382535 SPIN=   0.00000
   O  -0.4329926  -0.4158798  -0.2201827 SPIN=   0.00000
   O  -0.2284050  -0.6370972  -0.0644233 SPIN=   0.00000
   S  -0.3832020  -0.1868691  -0.1868691 SPIN=   0.00000
   S   0.2690536  -0.3875926  -0.3875926 SPIN=   0.00000
   F   0.1675214   0.2609899  -0.0547737 SPIN=   0.00000
   F   0.1675214  -0.0547737   0.2609899 SPIN=   0.00000
   F   0.3933772   0.1698538   0.4854305 SPIN=   0.00000
   F   0.3933772   0.4854305   0.1698538 SPIN=   0.00000
%ENDBLOCK POSITIONS_FRAC

# Note: total spin =  16.00

KPOINTS_MP_SPACING 0.07

%BLOCK SPECIES_POT
QC5
%ENDBLOCK SPECIES_POT

SNAP_TO_SYMMETRY
SYMMETRY_GENERATE

