#              Generated by Buildcell
#
# at 05:57:56 (GMT+1.0) 4th August 2020
# in /lustre/scratch/uccabz1/launch_tmp
# on node-c12n-020
# by uccabz1
#
# compiler GCC version 4.9.2
# options -cpp -iprefix /lustre/shared/ucl/apps/gcc/4.9.2/bin/../lib/gcc/x86_64-unknown-linux-gnu/4.9.2/ -mtune=corei7 -march=x86-64 -g -Og
#
# seed   421615752  -406086012  1152597345 -1546547027  -346359385  1133245083  1279626861  1396229585  1719626765  1548018821   747146680 -1998493294
#
#      Author: C. J. Pickard (cjp20@cam.ac.uk)
#                Space group: P-1
#

%BLOCK LATTICE_ABC
      6.47757      7.30492      8.91304
    100.25226    100.66189     98.96823
%ENDBLOCK LATTICE_ABC

%BLOCK POSITIONS_FRAC
  Li   0.2112345  -0.1272143  -0.0642941 SPIN=   0.00000
  Li  -0.2112345   0.1272143   0.0642941 SPIN=   0.00000
  Li   0.1064177   0.2588682   0.4812318 SPIN=   0.00000
  Li  -0.1064177  -0.2588682  -0.4812318 SPIN=   0.00000
  Fe   0.2005186   0.4637583  -0.1180418 SPIN=   3.74396
  Fe  -0.2005186  -0.4637583   0.1180418 SPIN=   3.74396
  Fe   0.4404653   0.0716232  -0.2825477 SPIN=   4.25604
  Fe  -0.4404653  -0.0716232   0.2825477 SPIN=   4.25604
   O  -0.2393434   0.2127792  -0.6312522 SPIN=   0.00000
   O  -0.0702856   0.4127812  -0.3693251 SPIN=   0.00000
   O  -0.4526592   0.2576655  -0.4288317 SPIN=   0.00000
   O  -0.3368739   0.5241684  -0.5504748 SPIN=   0.00000
   S  -0.2747905   0.3518486  -0.4949709 SPIN=   0.00000
   O   0.2393434  -0.2127792   0.6312522 SPIN=   0.00000
   O   0.0702856  -0.4127812   0.3693251 SPIN=   0.00000
   O   0.4526592  -0.2576655   0.4288317 SPIN=   0.00000
   O   0.3368739  -0.5241684   0.5504748 SPIN=   0.00000
   S   0.2747905  -0.3518486   0.4949709 SPIN=   0.00000
   O   0.3904664   0.1961348   0.3113039 SPIN=   0.00000
   O   0.0579086   0.3070049   0.2164405 SPIN=   0.00000
   O   0.0955292  -0.0203349   0.1111891 SPIN=   0.00000
   O   0.3090393   0.2517345   0.0425917 SPIN=   0.00000
   S   0.2132359   0.1836348   0.1703813 SPIN=   0.00000
   O  -0.3904664  -0.1961348  -0.3113039 SPIN=   0.00000
   O  -0.0579086  -0.3070049  -0.2164405 SPIN=   0.00000
   O  -0.0955292   0.0203349  -0.1111891 SPIN=   0.00000
   O  -0.3090393  -0.2517345  -0.0425917 SPIN=   0.00000
   S  -0.2132359  -0.1836348  -0.1703813 SPIN=   0.00000
   F  -0.1220038  -0.1540902   0.2940394 SPIN=   0.00000
   F   0.1220038   0.1540902  -0.2940394 SPIN=   0.00000
   F   0.2889350  -0.3634359   0.0887128 SPIN=   0.00000
   F  -0.2889350   0.3634359  -0.0887128 SPIN=   0.00000
%ENDBLOCK POSITIONS_FRAC

# Note: total spin =  16.00

KPOINTS_MP_SPACING 0.07

%BLOCK SPECIES_POT
QC5
%ENDBLOCK SPECIES_POT

SNAP_TO_SYMMETRY
SYMMETRY_GENERATE

