#              Generated by Buildcell
#
# at 08:45:48 (GMT+1.0) 4th August 2020
# in /lustre/scratch/uccabz1/launch_tmp
# on node-c12l-035
# by uccabz1
#
# compiler GCC version 4.9.2
# options -cpp -iprefix /lustre/shared/ucl/apps/gcc/4.9.2/bin/../lib/gcc/x86_64-unknown-linux-gnu/4.9.2/ -mtune=corei7 -march=x86-64 -g -Og
#
# seed  -104127497 -1645946649  1311206315 -1056514642   816830636  2111838632  -892597350  1404025189  1130328732  1598618378  -369346883  2007079608
#
#      Author: C. J. Pickard (cjp20@cam.ac.uk)
#                Space group: P-1
#

%BLOCK LATTICE_ABC
      6.22920      7.74642      9.45407
     78.11422     74.03300     66.56515
%ENDBLOCK LATTICE_ABC

%BLOCK POSITIONS_FRAC
  Li   1.0000000  -0.5000000  -0.5000000 SPIN=   0.00000
  Li   0.0000000   0.0000000   0.0000000 SPIN=   0.00000
  Li  -0.5000000   0.0000000   0.5000000 SPIN=   0.00000
  Li   0.5000000  -0.5000000   0.0000000 SPIN=   0.00000
  Fe   0.0793940   0.3588069  -0.1828139 SPIN=   6.02893
  Fe  -0.0793940  -0.3588069   0.1828139 SPIN=   6.02893
  Fe  -0.2119895   0.1934810  -0.3841178 SPIN=   1.97107
  Fe   0.2119895  -0.1934810   0.3841178 SPIN=   1.97107
   O  -0.3152679   0.4183106   0.4392298 SPIN=   0.00000
   O  -0.3383722   0.1787912   0.3123936 SPIN=   0.00000
   O  -0.3014564   0.4755733   0.1700565 SPIN=   0.00000
   O  -0.6791206   0.4829048   0.3480757 SPIN=   0.00000
   S  -0.4085543   0.3888950   0.3174389 SPIN=   0.00000
   O   0.3152679  -0.4183106  -0.4392298 SPIN=   0.00000
   O   0.3383722  -0.1787912  -0.3123936 SPIN=   0.00000
   O   0.3014564  -0.4755733  -0.1700565 SPIN=   0.00000
   O   0.6791206  -0.4829048  -0.3480757 SPIN=   0.00000
   S   0.4085543  -0.3888950  -0.3174389 SPIN=   0.00000
   O   0.7334570  -0.1812301   0.0108565 SPIN=   0.00000
   O   0.6056116   0.0406933  -0.2053012 SPIN=   0.00000
   O   0.6141402  -0.2868019  -0.1755576 SPIN=   0.00000
   O   0.9937766  -0.2279023  -0.2391826 SPIN=   0.00000
   S   0.7367464  -0.1638103  -0.1522962 SPIN=   0.00000
   O  -0.7334570   0.1812301  -0.0108565 SPIN=   0.00000
   O  -0.6056116  -0.0406933   0.2053012 SPIN=   0.00000
   O  -0.6141402   0.2868019   0.1755576 SPIN=   0.00000
   O  -0.9937766   0.2279023   0.2391826 SPIN=   0.00000
   S  -0.7367464   0.1638103   0.1522962 SPIN=   0.00000
   F  -0.1260544  -0.2024533   0.4402777 SPIN=   0.00000
   F   0.1260544   0.2024533  -0.4402777 SPIN=   0.00000
   F   0.1922702  -0.2632200   0.0726590 SPIN=   0.00000
   F  -0.1922702   0.2632200  -0.0726590 SPIN=   0.00000
%ENDBLOCK POSITIONS_FRAC

# Note: total spin =  16.00

KPOINTS_MP_SPACING 0.07

%BLOCK SPECIES_POT
QC5
%ENDBLOCK SPECIES_POT

SNAP_TO_SYMMETRY
SYMMETRY_GENERATE

