#              Generated by Buildcell
#
# at 07:32:58 (GMT+1.0) 4th August 2020
# in /lustre/scratch/uccabz1/launch_tmp
# on node-c12g-036
# by uccabz1
#
# compiler GCC version 4.9.2
# options -cpp -iprefix /lustre/shared/ucl/apps/gcc/4.9.2/bin/../lib/gcc/x86_64-unknown-linux-gnu/4.9.2/ -mtune=corei7 -march=x86-64 -g -Og
#
# seed  2074718225  1635444445   361095510 -1362143430  -491616100 -1847940242 -1868526152  -525038078  1009534181 -1536722065   595958817  1463217459
#
#      Author: C. J. Pickard (cjp20@cam.ac.uk)
#                Space group: Cc
#

%BLOCK LATTICE_ABC
      7.22505      7.22505      8.18283
     75.66159     75.66159     82.75238
%ENDBLOCK LATTICE_ABC

%BLOCK POSITIONS_FRAC
  Li  -0.4076200  -0.4208100  -0.4919437 SPIN=   0.00000
  Li  -0.4208100  -0.4076200   0.0080563 SPIN=   0.00000
  Li   0.1122947  -0.1072813  -0.3914580 SPIN=   0.00000
  Li  -0.1072813   0.1122947   0.1085420 SPIN=   0.00000
  Fe   0.3433706   0.3953550   0.3535701 SPIN=   2.74022
  Fe   0.3953550   0.3433706  -0.1464299 SPIN=   2.74022
  Fe  -0.3165844  -0.1156120  -0.3315974 SPIN=   5.25978
  Fe  -0.1156120  -0.3165844   0.1684026 SPIN=   5.25978
   O   0.4178135  -0.1805777  -0.0617909 SPIN=   0.00000
   O   0.2808508   0.0283905  -0.2981804 SPIN=   0.00000
   O   0.1550922   0.0638191   0.0034092 SPIN=   0.00000
   O   0.0904460  -0.2223828  -0.0829801 SPIN=   0.00000
   S   0.2360506  -0.0776877  -0.1098855 SPIN=   0.00000
   O  -0.1805777   0.4178135   0.4382091 SPIN=   0.00000
   O   0.0283905   0.2808508   0.2018196 SPIN=   0.00000
   O   0.0638191   0.1550922   0.5034092 SPIN=   0.00000
   O  -0.2223828   0.0904460   0.4170199 SPIN=   0.00000
   S  -0.0776877   0.2360506   0.3901145 SPIN=   0.00000
   O   0.0835411   0.4131078  -0.1012753 SPIN=   0.00000
   O  -0.1029875   0.3262053  -0.2840726 SPIN=   0.00000
   O   0.1064436   0.5964571  -0.4034064 SPIN=   0.00000
   O  -0.1913244   0.6268476  -0.1811480 SPIN=   0.00000
   S  -0.0260818   0.4906544  -0.2424756 SPIN=   0.00000
   O   0.4131078   0.0835411   0.3987247 SPIN=   0.00000
   O   0.3262053  -0.1029875   0.2159274 SPIN=   0.00000
   O   0.5964571   0.1064436   0.0965936 SPIN=   0.00000
   O   0.6268476  -0.1913244   0.3188520 SPIN=   0.00000
   S   0.4906544  -0.0260818   0.2575244 SPIN=   0.00000
   F  -0.2246113  -0.0151967  -0.1752242 SPIN=   0.00000
   F  -0.0151967  -0.2246113   0.3247758 SPIN=   0.00000
   F   0.4391194   0.3524885  -0.4438538 SPIN=   0.00000
   F   0.3524885   0.4391194   0.0561462 SPIN=   0.00000
%ENDBLOCK POSITIONS_FRAC

# Note: total spin =  16.00

KPOINTS_MP_SPACING 0.07

%BLOCK SPECIES_POT
QC5
%ENDBLOCK SPECIES_POT

SNAP_TO_SYMMETRY
SYMMETRY_GENERATE

