#              Generated by Buildcell
#
# at 13:50:09 (GMT+1.0) 18th August 2020
# in /lustre/scratch/uccabz1/launch_tmp
# on node-c12d-004
# by uccabz1
#
# compiler GCC version 4.9.2
# options -cpp -iprefix /lustre/shared/ucl/apps/gcc/4.9.2/bin/../lib/gcc/x86_64-unknown-linux-gnu/4.9.2/ -mtune=corei7 -march=x86-64 -g -Og
#
# seed  -719446281   947677266 -1066285633 -1769883620  1774661182  1859110187  1205290671 -1955944330      210530  1338902070  1939486559  1456848224
#
#      Author: C. J. Pickard (cjp20@cam.ac.uk)
#                Space group: Pba2
#

%BLOCK LATTICE_ABC
      4.07530      8.02376     12.23270
     90.00000     90.00000     90.00000
%ENDBLOCK LATTICE_ABC

%BLOCK POSITIONS_FRAC
  Li   0.2659862   0.2591646  -0.3349179 SPIN=   0.00000
  Li   0.2659862  -0.2591646   0.3349179 SPIN=   0.00000
  Li   0.2659862  -0.2408354  -0.1650821 SPIN=   0.00000
  Li   0.2659862   0.2408354   0.1650821 SPIN=   0.00000
  Fe   0.2279523  -0.2821061   0.0824564 SPIN=   4.00000
  Fe   0.2279523   0.2821061  -0.0824564 SPIN=   4.00000
  Fe   0.2279523   0.2178939   0.4175436 SPIN=   4.00000
  Fe   0.2279523  -0.2178939  -0.4175436 SPIN=   4.00000
   O  -0.5001890  -0.0175362  -0.3560001 SPIN=   0.00000
   O  -0.4997318   0.1139830  -0.1729979 SPIN=   0.00000
   O   0.0214063   0.0798822  -0.2744325 SPIN=   0.00000
   O  -0.2610274  -0.1670605  -0.1979987 SPIN=   0.00000
   S  -0.3098855   0.0023171  -0.2503573 SPIN=   0.00000
   O  -0.5001890   0.0175362   0.3560001 SPIN=   0.00000
   O  -0.4997318  -0.1139830   0.1729979 SPIN=   0.00000
   O   0.0214063  -0.0798822   0.2744325 SPIN=   0.00000
   O  -0.2610274   0.1670605   0.1979987 SPIN=   0.00000
   S  -0.3098855  -0.0023171   0.2503573 SPIN=   0.00000
   O  -0.5001890  -0.5175362  -0.1439999 SPIN=   0.00000
   O  -0.4997318  -0.3860170  -0.3270021 SPIN=   0.00000
   O   0.0214063  -0.4201178  -0.2255675 SPIN=   0.00000
   O  -0.2610274  -0.6670605  -0.3020013 SPIN=   0.00000
   S  -0.3098855  -0.4976829  -0.2496427 SPIN=   0.00000
   O  -0.5001890   0.5175362   0.1439999 SPIN=   0.00000
   O  -0.4997318   0.3860170   0.3270021 SPIN=   0.00000
   O   0.0214063   0.4201178   0.2255675 SPIN=   0.00000
   O  -0.2610274   0.6670605   0.3020013 SPIN=   0.00000
   S  -0.3098855   0.4976829   0.2496427 SPIN=   0.00000
   F  -0.1318670  -0.2500767  -0.4995392 SPIN=   0.00000
   F  -0.1318670   0.2500767   0.4995392 SPIN=   0.00000
   F  -0.1318670   0.2499233  -0.0004608 SPIN=   0.00000
   F  -0.1318670  -0.2499233   0.0004608 SPIN=   0.00000
%ENDBLOCK POSITIONS_FRAC

# Note: total spin =  16.00

KPOINTS_MP_SPACING 0.07

%BLOCK SPECIES_POT
QC5
%ENDBLOCK SPECIES_POT

SNAP_TO_SYMMETRY
SYMMETRY_GENERATE

