#              Generated by Buildcell
#
# at 05:54:39 (GMT+1.0) 4th August 2020
# in /lustre/scratch/uccabz1/launch_tmp
# on node-c12h-033
# by uccabz1
#
# compiler GCC version 4.9.2
# options -cpp -iprefix /lustre/shared/ucl/apps/gcc/4.9.2/bin/../lib/gcc/x86_64-unknown-linux-gnu/4.9.2/ -mtune=corei7 -march=x86-64 -g -Og
#
# seed -1519228609  1818812827  2076559884  1766306206 -1252934517  -451771069    45849335  -607190218   963247057   240252372   731339692   265494448
#
#      Author: C. J. Pickard (cjp20@cam.ac.uk)
#                Space group: Cmc21
#

%BLOCK LATTICE_ABC
      4.09566      8.11442     12.20889
     90.00000     99.65601     90.00000
%ENDBLOCK LATTICE_ABC

%BLOCK POSITIONS_FRAC
  Li   0.4118076  -0.3727832  -0.1751039 SPIN=   0.00000
  Li  -0.4118076   0.1272168   0.1751039 SPIN=   0.00000
  Li   0.4130884   0.1272168  -0.1751039 SPIN=   0.00000
  Li  -0.4130884  -0.3727832   0.1751039 SPIN=   0.00000
  Fe   0.0733404   0.3772490   0.1468147 SPIN=   4.00000
  Fe  -0.0733404  -0.1227510  -0.1468147 SPIN=   4.00000
  Fe   0.0734743  -0.1227510   0.1468147 SPIN=   4.00000
  Fe  -0.0734743   0.3772490  -0.1468147 SPIN=   4.00000
   O  -0.3954473  -0.0298630  -0.3867971 SPIN=   0.00000
   O  -0.0851011   0.1499379  -0.2417528 SPIN=   0.00000
   O  -0.3986712   0.2725404  -0.4133377 SPIN=   0.00000
   O   0.1118485   0.1128918  -0.4210468 SPIN=   0.00000
   S  -0.1918428   0.1263768  -0.3657336 SPIN=   0.00000
   O   0.3954473  -0.5298630   0.3867971 SPIN=   0.00000
   O   0.0851011  -0.3500621   0.2417528 SPIN=   0.00000
   O   0.3986712  -0.2274596   0.4133377 SPIN=   0.00000
   O  -0.1118485  -0.3871082   0.4210468 SPIN=   0.00000
   S   0.1918428  -0.3736232   0.3657336 SPIN=   0.00000
   O   0.0086501  -0.5298630  -0.3867971 SPIN=   0.00000
   O  -0.1566517  -0.3500621  -0.2417528 SPIN=   0.00000
   O  -0.0146664  -0.2274596  -0.4133377 SPIN=   0.00000
   O  -0.5328953  -0.3871082  -0.4210468 SPIN=   0.00000
   S  -0.1738908  -0.3736232  -0.3657336 SPIN=   0.00000
   O  -0.0086501  -0.0298630   0.3867971 SPIN=   0.00000
   O   0.1566517   0.1499379   0.2417528 SPIN=   0.00000
   O   0.0146664   0.2725404   0.4133377 SPIN=   0.00000
   O   0.5328953   0.1128918   0.4210468 SPIN=   0.00000
   S   0.1738908   0.1263768   0.3657336 SPIN=   0.00000
   F   0.4138804  -0.1237070  -0.1723813 SPIN=   0.00000
   F  -0.4138804   0.3762930   0.1723813 SPIN=   0.00000
   F   0.4137383   0.3762930  -0.1723813 SPIN=   0.00000
   F  -0.4137383  -0.1237070   0.1723813 SPIN=   0.00000
%ENDBLOCK POSITIONS_FRAC

# Note: total spin =  16.00

KPOINTS_MP_SPACING 0.07

%BLOCK SPECIES_POT
QC5
%ENDBLOCK SPECIES_POT

SNAP_TO_SYMMETRY
SYMMETRY_GENERATE

