#              Generated by Buildcell
#
# at 06:25:13 (GMT+1.0) 4th August 2020
# in /lustre/scratch/uccabz1/launch_tmp
# on node-y12q-002
# by uccabz1
#
# compiler GCC version 4.9.2
# options -cpp -iprefix /lustre/shared/ucl/apps/gcc/4.9.2/bin/../lib/gcc/x86_64-unknown-linux-gnu/4.9.2/ -mtune=corei7 -march=x86-64 -g -Og
#
# seed   147389632   397399115   246941617  1026732233 -1301256855 -1478250333  1252015945   762088369 -1595975684 -1732833495 -2026027750  1321888650
#
#      Author: C. J. Pickard (cjp20@cam.ac.uk)
#                Space group: P21
#

%BLOCK LATTICE_ABC
      4.92443      8.79120      9.39055
     90.00000     90.00000    100.28499
%ENDBLOCK LATTICE_ABC

%BLOCK POSITIONS_FRAC
  Li   0.2864642   0.2200910  -0.4037772 SPIN=   0.00000
  Li  -0.2864642  -0.2200910   0.0962228 SPIN=   0.00000
  Li   0.3235678   0.1104805   0.1972536 SPIN=   0.00000
  Li  -0.3235678  -0.1104805  -0.3027464 SPIN=   0.00000
  Fe  -0.4444499  -0.4947095   0.4101364 SPIN=   4.69271
  Fe   0.4444499   0.4947095  -0.0898636 SPIN=   4.69271
  Fe  -0.1226861   0.2778240   0.1385249 SPIN=   3.30729
  Fe   0.1226861  -0.2778240  -0.3614751 SPIN=   3.30729
   O   0.3113771  -0.0764374  -0.2342646 SPIN=   0.00000
   O   0.5693586   0.0494708  -0.0270053 SPIN=   0.00000
   O   0.2999908  -0.2154524  -0.0045623 SPIN=   0.00000
   O   0.0588468   0.0072088  -0.0291155 SPIN=   0.00000
   S   0.3098933  -0.0588026  -0.0737369 SPIN=   0.00000
   O  -0.3113771   0.0764374   0.2657354 SPIN=   0.00000
   O  -0.5693586  -0.0494708   0.4729947 SPIN=   0.00000
   O  -0.2999908   0.2154524   0.4954377 SPIN=   0.00000
   O  -0.0588468  -0.0072088   0.4708845 SPIN=   0.00000
   S  -0.3098933   0.0588026   0.4262631 SPIN=   0.00000
   O  -0.1676982  -0.2513912   0.2939085 SPIN=   0.00000
   O   0.2389620  -0.3075372   0.4251169 SPIN=   0.00000
   O   0.3010426  -0.1175826   0.2280331 SPIN=   0.00000
   O   0.1567364  -0.3963220   0.1761786 SPIN=   0.00000
   S   0.1322607  -0.2682083   0.2808093 SPIN=   0.00000
   O   0.1676982   0.2513912  -0.2060915 SPIN=   0.00000
   O  -0.2389620   0.3075372  -0.0748831 SPIN=   0.00000
   O  -0.3010426   0.1175826  -0.2719669 SPIN=   0.00000
   O  -0.1567364   0.3963220  -0.3238214 SPIN=   0.00000
   S  -0.1322607   0.2682083  -0.2191907 SPIN=   0.00000
   F  -0.2502983  -0.3740037  -0.0347671 SPIN=   0.00000
   F   0.2502983   0.3740037   0.4652329 SPIN=   0.00000
   F  -0.2774626  -0.2995649  -0.4062152 SPIN=   0.00000
   F   0.2774626   0.2995649   0.0937848 SPIN=   0.00000
%ENDBLOCK POSITIONS_FRAC

# Note: total spin =  16.00

KPOINTS_MP_SPACING 0.07

%BLOCK SPECIES_POT
QC5
%ENDBLOCK SPECIES_POT

SNAP_TO_SYMMETRY
SYMMETRY_GENERATE

