#              Generated by Buildcell
#
# at 10:11:39 (GMT+1.0) 4th August 2020
# in /lustre/scratch/uccabz1/launch_tmp
# on node-c12f-027
# by uccabz1
#
# compiler GCC version 4.9.2
# options -cpp -iprefix /lustre/shared/ucl/apps/gcc/4.9.2/bin/../lib/gcc/x86_64-unknown-linux-gnu/4.9.2/ -mtune=corei7 -march=x86-64 -g -Og
#
# seed  1757238413  1324685348  1625196220 -1496761819  1078104090 -2102925174   183280845    57623434  1384814923  -661272301   757467917   423237332
#
#      Author: C. J. Pickard (cjp20@cam.ac.uk)
#                Space group: P212121
#

%BLOCK LATTICE_ABC
      5.04446      7.49734     10.57640
     90.00000     90.00000     90.00000
%ENDBLOCK LATTICE_ABC

%BLOCK POSITIONS_FRAC
  Li  -0.3441468   0.4667802  -0.0478482 SPIN=   0.00000
  Li   0.1558532  -0.4667802  -0.4521518 SPIN=   0.00000
  Li  -0.1558532  -0.0332198   0.0478482 SPIN=   0.00000
  Li   0.3441468   0.0332198   0.4521518 SPIN=   0.00000
  Fe   0.3685999  -0.1743543  -0.2745771 SPIN=   4.00000
  Fe  -0.1314001   0.1743543  -0.2254229 SPIN=   4.00000
  Fe   0.1314001   0.3256457   0.2745771 SPIN=   4.00000
  Fe  -0.3685999  -0.3256457   0.2254229 SPIN=   4.00000
   O  -0.3789908  -0.0068238  -0.4143234 SPIN=   0.00000
   O   0.1102285  -0.0171851  -0.3983101 SPIN=   0.00000
   O  -0.1104372  -0.0953563  -0.5998246 SPIN=   0.00000
   O  -0.1463990  -0.2974646  -0.4156087 SPIN=   0.00000
   S  -0.1313996  -0.1042075  -0.4570167 SPIN=   0.00000
   O   0.1210092   0.0068238  -0.0856766 SPIN=   0.00000
   O   0.6102285   0.0171851  -0.1016899 SPIN=   0.00000
   O   0.3895628   0.0953563   0.0998246 SPIN=   0.00000
   O   0.3536010   0.2974646  -0.0843913 SPIN=   0.00000
   S   0.3686004   0.1042075  -0.0429833 SPIN=   0.00000
   O  -0.1210092   0.4931762   0.4143234 SPIN=   0.00000
   O  -0.6102285   0.4828149   0.3983101 SPIN=   0.00000
   O  -0.3895628   0.4046437   0.5998246 SPIN=   0.00000
   O  -0.3536010   0.2025354   0.4156087 SPIN=   0.00000
   S  -0.3686004   0.3957925   0.4570167 SPIN=   0.00000
   O   0.3789908  -0.4931762   0.0856766 SPIN=   0.00000
   O  -0.1102285  -0.4828149   0.1016899 SPIN=   0.00000
   O   0.1104372  -0.4046437  -0.0998246 SPIN=   0.00000
   O   0.1463990  -0.2025354   0.0843913 SPIN=   0.00000
   S   0.1313996  -0.3957925   0.0429833 SPIN=   0.00000
   F  -0.1314030   0.1465655   0.1858503 SPIN=   0.00000
   F   0.3685970  -0.1465655   0.3141497 SPIN=   0.00000
   F  -0.3685970  -0.3534345  -0.1858503 SPIN=   0.00000
   F   0.1314030   0.3534345  -0.3141497 SPIN=   0.00000
%ENDBLOCK POSITIONS_FRAC

# Note: total spin =  16.00

KPOINTS_MP_SPACING 0.07

%BLOCK SPECIES_POT
QC5
%ENDBLOCK SPECIES_POT

SNAP_TO_SYMMETRY
SYMMETRY_GENERATE

