#              Generated by Buildcell
#
# at 07:09:41 (GMT+1.0) 4th August 2020
# in /lustre/scratch/uccabz1/launch_tmp
# on node-c12d-001
# by uccabz1
#
# compiler GCC version 4.9.2
# options -cpp -iprefix /lustre/shared/ucl/apps/gcc/4.9.2/bin/../lib/gcc/x86_64-unknown-linux-gnu/4.9.2/ -mtune=corei7 -march=x86-64 -g -Og
#
# seed  1135740748   611860168   722586942     1584445  1584950571  1954522130   770347013   485825392    37452834  2115680739   390626495  1600856051
#
#      Author: C. J. Pickard (cjp20@cam.ac.uk)
#                Space group: Pna21
#

%BLOCK LATTICE_ABC
      6.89449      7.41832      7.82082
     90.00000     90.00000     90.00000
%ENDBLOCK LATTICE_ABC

%BLOCK POSITIONS_FRAC
  Li   0.0443528  -0.3315722  -0.0796555 SPIN=   0.00000
  Li  -0.0443528   0.3315722   0.4203445 SPIN=   0.00000
  Li   0.4556472   0.1684278  -0.0796555 SPIN=   0.00000
  Li  -0.4556472  -0.1684278   0.4203445 SPIN=   0.00000
  Fe  -0.1845933   0.0642120  -0.3081677 SPIN=   4.00000
  Fe   0.1845933  -0.0642120   0.1918323 SPIN=   4.00000
  Fe  -0.3154067  -0.4357880  -0.3081677 SPIN=   4.00000
  Fe   0.3154067   0.4357880   0.1918323 SPIN=   4.00000
   O   0.1278588  -0.2937383  -0.6132508 SPIN=   0.00000
   O   0.3716682  -0.3267024  -0.3831088 SPIN=   0.00000
   O   0.0784980  -0.5192116  -0.3841111 SPIN=   0.00000
   O   0.0505411  -0.1937357  -0.3191502 SPIN=   0.00000
   S   0.1571415  -0.3333470  -0.4249052 SPIN=   0.00000
   O  -0.1278588   0.2937383  -0.1132508 SPIN=   0.00000
   O  -0.3716682   0.3267024   0.1168912 SPIN=   0.00000
   O  -0.0784980   0.5192116   0.1158889 SPIN=   0.00000
   O  -0.0505411   0.1937357   0.1808498 SPIN=   0.00000
   S  -0.1571415   0.3333470   0.0750948 SPIN=   0.00000
   O   0.3721412   0.2062617  -0.6132508 SPIN=   0.00000
   O   0.1283318   0.1732976  -0.3831088 SPIN=   0.00000
   O   0.4215020  -0.0192116  -0.3841111 SPIN=   0.00000
   O   0.4494589   0.3062643  -0.3191502 SPIN=   0.00000
   S   0.3428585   0.1666530  -0.4249052 SPIN=   0.00000
   O  -0.3721412  -0.2062617  -0.1132508 SPIN=   0.00000
   O  -0.1283318  -0.1732976   0.1168912 SPIN=   0.00000
   O  -0.4215020   0.0192116   0.1158889 SPIN=   0.00000
   O  -0.4494589  -0.3062643   0.1808498 SPIN=   0.00000
   S  -0.3428585  -0.1666530   0.0750948 SPIN=   0.00000
   F   0.3614574   0.4869401  -0.0600710 SPIN=   0.00000
   F  -0.3614574  -0.4869401   0.4399290 SPIN=   0.00000
   F   0.1385426  -0.0130599  -0.0600710 SPIN=   0.00000
   F  -0.1385426   0.0130599   0.4399290 SPIN=   0.00000
%ENDBLOCK POSITIONS_FRAC

# Note: total spin =  16.00

KPOINTS_MP_SPACING 0.07

%BLOCK SPECIES_POT
QC5
%ENDBLOCK SPECIES_POT

SNAP_TO_SYMMETRY
SYMMETRY_GENERATE

