#              Generated by Buildcell
#
# at 16:12:59 (GMT+1.0) 18th August 2020
# in /lustre/scratch/uccabz1/launch_tmp
# on node-c12c-028
# by uccabz1
#
# compiler GCC version 4.9.2
# options -cpp -iprefix /lustre/shared/ucl/apps/gcc/4.9.2/bin/../lib/gcc/x86_64-unknown-linux-gnu/4.9.2/ -mtune=corei7 -march=x86-64 -g -Og
#
# seed -1292757479  -948454350  -233559727   446035516   860898075    45631591  1397623575 -1488441496  -863593299  1257584658 -1107742546   357250179
#
#      Author: C. J. Pickard (cjp20@cam.ac.uk)
#                Space group: P-1
#

%BLOCK LATTICE_ABC
      3.88254      8.28605     12.68128
     97.13813     98.76843     90.00684
%ENDBLOCK LATTICE_ABC

%BLOCK POSITIONS_FRAC
  Li  -0.2863893   0.2509767   0.4305086 SPIN=   0.00000
  Li   0.2863893  -0.2509767  -0.4305086 SPIN=   0.00000
  Li  -0.0527556  -0.2503292  -0.0165192 SPIN=   0.00000
  Li   0.0527556   0.2503292   0.0165192 SPIN=   0.00000
  Fe   0.1847310  -0.0213450   0.3727900 SPIN=   3.15074
  Fe  -0.1847310   0.0213450  -0.3727900 SPIN=   3.15074
  Fe   0.3002226   0.3965566  -0.4016583 SPIN=   4.84926
  Fe  -0.3002226  -0.3965566   0.4016583 SPIN=   4.84926
   O  -0.5602276  -0.2287682   0.0585172 SPIN=   0.00000
   O  -0.1922358  -0.3620695   0.1984553 SPIN=   0.00000
   O  -0.7071182  -0.2071693   0.2428657 SPIN=   0.00000
   O  -0.1868050  -0.0618953   0.2081960 SPIN=   0.00000
   S  -0.4115967  -0.2149756   0.1770086 SPIN=   0.00000
   O   0.5602276   0.2287682  -0.0585172 SPIN=   0.00000
   O   0.1922358   0.3620695  -0.1984553 SPIN=   0.00000
   O   0.7071182   0.2071693  -0.2428657 SPIN=   0.00000
   O   0.1868050   0.0618953  -0.2081960 SPIN=   0.00000
   S   0.4115967   0.2149756  -0.1770086 SPIN=   0.00000
   O  -0.2801265  -0.1606238  -0.2674664 SPIN=   0.00000
   O  -0.5890870  -0.1808332  -0.1125784 SPIN=   0.00000
   O  -0.2926925  -0.4208108  -0.1909887 SPIN=   0.00000
   O  -0.8299002  -0.3216473  -0.2924178 SPIN=   0.00000
   S  -0.4979516  -0.2709788  -0.2158628 SPIN=   0.00000
   O   0.2801265   0.1606238   0.2674664 SPIN=   0.00000
   O   0.5890870   0.1808332   0.1125784 SPIN=   0.00000
   O   0.2926925   0.4208108   0.1909887 SPIN=   0.00000
   O   0.8299002   0.3216473   0.2924178 SPIN=   0.00000
   S   0.4979516   0.2709788   0.2158628 SPIN=   0.00000
   F   0.0000000   0.0000000   0.0000000 SPIN=   0.00000
   F  -0.0000000  -0.5000000   0.0000000 SPIN=   0.00000
   F   0.0000000   0.0000000   0.5000000 SPIN=   0.00000
   F   0.5000000   0.5000000  -0.5000000 SPIN=   0.00000
%ENDBLOCK POSITIONS_FRAC

# Note: total spin =  16.00

KPOINTS_MP_SPACING 0.07

%BLOCK SPECIES_POT
QC5
%ENDBLOCK SPECIES_POT

SNAP_TO_SYMMETRY
SYMMETRY_GENERATE

