#              Generated by Buildcell
#
# at 02:20:40 (GMT+1.0) 18th August 2020
# in /lustre/scratch/uccabz1/launch_tmp
# on node-c12f-008
# by uccabz1
#
# compiler GCC version 4.9.2
# options -cpp -iprefix /lustre/shared/ucl/apps/gcc/4.9.2/bin/../lib/gcc/x86_64-unknown-linux-gnu/4.9.2/ -mtune=corei7 -march=x86-64 -g -Og
#
# seed -1590105609  1304135122   120647866 -1705954638  1288208513   133838688 -1157297448   563814080   -88446096  1125711472  -573391649 -1459015495
#
#      Author: C. J. Pickard (cjp20@cam.ac.uk)
#                Space group: P21
#

%BLOCK LATTICE_ABC
      5.70015      7.82412      9.73257
    112.84880     90.00000     90.00000
%ENDBLOCK LATTICE_ABC

%BLOCK POSITIONS_FRAC
  Li   0.1146644  -0.2220349  -0.2587561 SPIN=   0.00000
  Li  -0.3853356   0.2220349   0.2587561 SPIN=   0.00000
  Li   0.4068627  -0.2690953   0.0694643 SPIN=   0.00000
  Li  -0.0931373   0.2690953  -0.0694643 SPIN=   0.00000
  Fe   0.1255247   0.1163515   0.1393587 SPIN=   6.21168
  Fe  -0.3744753  -0.1163515  -0.1393587 SPIN=   6.21168
  Fe   0.4067454   0.3289759  -0.1342239 SPIN=   1.78832
  Fe  -0.0932546  -0.3289759   0.1342239 SPIN=   1.78832
   O   0.5650391  -0.6218812   0.1352059 SPIN=   0.00000
   O   0.3823188  -0.5027113   0.3855158 SPIN=   0.00000
   O   0.1670728  -0.4850068   0.1705930 SPIN=   0.00000
   O   0.5123782  -0.2840096   0.2732053 SPIN=   0.00000
   S   0.4067022  -0.4734022   0.2411300 SPIN=   0.00000
   O   0.0650391   0.6218812  -0.1352059 SPIN=   0.00000
   O  -0.1176812   0.5027113  -0.3855158 SPIN=   0.00000
   O  -0.3329272   0.4850068  -0.1705930 SPIN=   0.00000
   O   0.0123782   0.2840096  -0.2732053 SPIN=   0.00000
   S  -0.0932978   0.4734022  -0.2411300 SPIN=   0.00000
   O  -0.2518861  -0.3416777  -0.5455858 SPIN=   0.00000
   O  -0.1419733  -0.0600864  -0.3273019 SPIN=   0.00000
   O  -0.1470671  -0.0535682  -0.5794916 SPIN=   0.00000
   O   0.1594104  -0.2317345  -0.5125457 SPIN=   0.00000
   S  -0.0953790  -0.1717667  -0.4912312 SPIN=   0.00000
   O   0.2481139   0.3416777   0.5455858 SPIN=   0.00000
   O   0.3580267   0.0600864   0.3273019 SPIN=   0.00000
   O   0.3529329   0.0535682   0.5794916 SPIN=   0.00000
   O   0.6594104   0.2317345   0.5125457 SPIN=   0.00000
   S   0.4046210   0.1717667   0.4912312 SPIN=   0.00000
   F  -0.3506263  -0.0892813   0.0578756 SPIN=   0.00000
   F   0.1493737   0.0892813  -0.0578756 SPIN=   0.00000
   F  -0.0496309   0.2936976   0.3109184 SPIN=   0.00000
   F   0.4503691  -0.2936976  -0.3109184 SPIN=   0.00000
%ENDBLOCK POSITIONS_FRAC

# Note: total spin =  16.00

KPOINTS_MP_SPACING 0.07

%BLOCK SPECIES_POT
QC5
%ENDBLOCK SPECIES_POT

SNAP_TO_SYMMETRY
SYMMETRY_GENERATE

