#              Generated by Buildcell
#
# at 07:51:41 (GMT+1.0) 4th August 2020
# in /lustre/scratch/uccabz1/launch_tmp
# on node-c12d-013
# by uccabz1
#
# compiler GCC version 4.9.2
# options -cpp -iprefix /lustre/shared/ucl/apps/gcc/4.9.2/bin/../lib/gcc/x86_64-unknown-linux-gnu/4.9.2/ -mtune=corei7 -march=x86-64 -g -Og
#
# seed   586924057   248395919   581717459  1874167176 -1959027702 -1796676471  1687540471  1745302989 -1262050575    95800053  -167690960   797871574
#
#      Author: C. J. Pickard (cjp20@cam.ac.uk)
#                Space group: P21
#

%BLOCK LATTICE_ABC
      5.96754      6.03323     11.11764
     90.00000     90.00000     92.12298
%ENDBLOCK LATTICE_ABC

%BLOCK POSITIONS_FRAC
  Li  -0.0119421   0.3182227   0.2482455 SPIN=   0.00000
  Li   0.0119421  -0.3182227  -0.2517545 SPIN=   0.00000
  Li  -0.2440250   0.1586485  -0.0685879 SPIN=   0.00000
  Li   0.2440250  -0.1586485   0.4314121 SPIN=   0.00000
  Fe   0.2073634   0.3603487  -0.0893757 SPIN=   4.38609
  Fe  -0.2073634  -0.3603487   0.4106243 SPIN=   4.38609
  Fe   0.0468653  -0.1604616   0.1140800 SPIN=   3.61391
  Fe  -0.0468653   0.1604616  -0.3859200 SPIN=   3.61391
   O  -0.3399992   0.1017953   0.1858395 SPIN=   0.00000
   O  -0.6550824   0.1902376   0.3201750 SPIN=   0.00000
   O  -0.2671967   0.1966082   0.3992143 SPIN=   0.00000
   O  -0.4591362  -0.1609161   0.3465106 SPIN=   0.00000
   S  -0.4303536   0.0819313   0.3129348 SPIN=   0.00000
   O   0.3399992  -0.1017953  -0.3141605 SPIN=   0.00000
   O   0.6550824  -0.1902376  -0.1798250 SPIN=   0.00000
   O   0.2671967  -0.1966082  -0.1007857 SPIN=   0.00000
   O   0.4591362   0.1609161  -0.1534894 SPIN=   0.00000
   S   0.4303536  -0.0819313  -0.1870652 SPIN=   0.00000
   O  -0.4199874  -0.6133279   0.0049511 SPIN=   0.00000
   O  -0.3495479  -0.5005385   0.2160192 SPIN=   0.00000
   O  -0.6692274  -0.3505092   0.1044549 SPIN=   0.00000
   O  -0.2806242  -0.2312660   0.0509947 SPIN=   0.00000
   S  -0.4298467  -0.4239104   0.0941050 SPIN=   0.00000
   O   0.4199874   0.6133279  -0.4950489 SPIN=   0.00000
   O   0.3495479   0.5005385  -0.2839808 SPIN=   0.00000
   O   0.6692274   0.3505092  -0.3955451 SPIN=   0.00000
   O   0.2806242   0.2312660  -0.4490053 SPIN=   0.00000
   S   0.4298467   0.4239104  -0.4058950 SPIN=   0.00000
   F  -0.0889570  -0.1867023  -0.4062333 SPIN=   0.00000
   F   0.0889570   0.1867023   0.0937667 SPIN=   0.00000
   F  -0.0810501   0.3135881  -0.2163398 SPIN=   0.00000
   F   0.0810501  -0.3135881   0.2836602 SPIN=   0.00000
%ENDBLOCK POSITIONS_FRAC

# Note: total spin =  16.00

KPOINTS_MP_SPACING 0.07

%BLOCK SPECIES_POT
QC5
%ENDBLOCK SPECIES_POT

SNAP_TO_SYMMETRY
SYMMETRY_GENERATE

