#              Generated by Buildcell
#
# at 06:32:32 (GMT+1.0) 4th August 2020
# in /lustre/scratch/uccabz1/launch_tmp
# on node-c12f-016
# by uccabz1
#
# compiler GCC version 4.9.2
# options -cpp -iprefix /lustre/shared/ucl/apps/gcc/4.9.2/bin/../lib/gcc/x86_64-unknown-linux-gnu/4.9.2/ -mtune=corei7 -march=x86-64 -g -Og
#
# seed  -363510912 -1929718586  -739256989   -79709255   345509534 -1917993473  1530637893   929971930  -206243894  -732910469 -1294051357  1077351331
#
#      Author: C. J. Pickard (cjp20@cam.ac.uk)
#                Space group: Cm
#

%BLOCK LATTICE_ABC
      6.90732      8.14695      8.21367
    119.73165     94.10387     90.00000
%ENDBLOCK LATTICE_ABC

%BLOCK POSITIONS_FRAC
  Li  -0.3127634  -0.0956715   0.3112527 SPIN=   0.00000
  Li  -0.3127634   0.4069242   0.3112527 SPIN=   0.00000
  Li   0.3388408  -0.1893838  -0.3787677 SPIN=   0.00000
  Li   0.3388591   0.3106054   0.6212108 SPIN=   0.00000
  Fe   0.1800425   0.1910664  -0.1067106 SPIN=   3.44851
  Fe   0.1800425  -0.2977770  -0.1067106 SPIN=   3.44851
  Fe  -0.1761672  -0.2000902  -0.4001805 SPIN=   7.95266
  Fe  -0.1761330   0.2999105   0.5998210 SPIN=   1.15032
   O   0.2488702   0.2318784   0.1785600 SPIN=   0.00000
   O   0.1939024   0.5642665   0.4137288 SPIN=   0.00000
   O  -0.0543024   0.3130304   0.3408671 SPIN=   0.00000
   O   0.0006633   0.4102518   0.1056995 SPIN=   0.00000
   O   0.2488702  -0.0533184   0.1785600 SPIN=   0.00000
   O   0.1939024  -0.1505377   0.4137288 SPIN=   0.00000
   O  -0.0543024   0.0278367   0.3408671 SPIN=   0.00000
   O   0.0006633  -0.3045523   0.1056995 SPIN=   0.00000
   O  -0.4720509  -0.3117454   0.0913140 SPIN=   0.00000
   O  -0.2287486  -0.1227971   0.0396021 SPIN=   0.00000
   O  -0.5457503  -0.2172924  -0.1493900 SPIN=   0.00000
   O  -0.3024487  -0.4579535  -0.2011029 SPIN=   0.00000
   O  -0.4720509   0.4030594   0.0913140 SPIN=   0.00000
   O  -0.2287486   0.1623991   0.0396021 SPIN=   0.00000
   O  -0.5457503   0.0679025  -0.1493900 SPIN=   0.00000
   O  -0.3024487   0.2568506  -0.2011029 SPIN=   0.00000
   S   0.0824773   0.1211578   0.2423155 SPIN=   0.00000
   S  -0.4338626  -0.0210076  -0.0420152 SPIN=   0.00000
   S  -0.4338492   0.4789865   0.9579730 SPIN=   0.00000
   S   0.0824511  -0.3788412  -0.7576823 SPIN=   0.00000
   F  -0.4339381   0.2260980   0.4521961 SPIN=   0.00000
   F  -0.4339722  -0.2739043  -0.5478085 SPIN=   0.00000
   F   0.0816839  -0.1263095  -0.2526190 SPIN=   0.00000
   F   0.0817143   0.3736916   0.7473832 SPIN=   0.00000
%ENDBLOCK POSITIONS_FRAC

# Note: total spin =  16.00

KPOINTS_MP_SPACING 0.07

%BLOCK SPECIES_POT
QC5
%ENDBLOCK SPECIES_POT

SNAP_TO_SYMMETRY
SYMMETRY_GENERATE

