#              Generated by Buildcell
#
# at 06:08:37 (GMT+1.0) 4th August 2020
# in /lustre/scratch/uccabz1/launch_tmp
# on node-c12d-029
# by uccabz1
#
# compiler GCC version 4.9.2
# options -cpp -iprefix /lustre/shared/ucl/apps/gcc/4.9.2/bin/../lib/gcc/x86_64-unknown-linux-gnu/4.9.2/ -mtune=corei7 -march=x86-64 -g -Og
#
# seed  -203078308 -2096598518  1992226750   966509796 -1988370409 -2129946008  1839342680 -1964337026  -591964073  -334685137  -420307767   633940991
#
#      Author: C. J. Pickard (cjp20@cam.ac.uk)
#                Space group: Aea2
#

%BLOCK LATTICE_ABC
      4.39768      7.87185     12.20667
    108.81059     90.00000     90.00000
%ENDBLOCK LATTICE_ABC

%BLOCK POSITIONS_FRAC
  Li  -0.2521460   0.3853044  -0.3005493 SPIN=   0.00000
  Li   0.2521460  -0.3141463   0.3005493 SPIN=   0.00000
  Li   0.2478540   0.1858537   0.3005493 SPIN=   0.00000
  Li  -0.2478540  -0.1146956  -0.3005493 SPIN=   0.00000
  Fe   0.2644489   0.0598866  -0.1282359 SPIN=   4.00000
  Fe  -0.2644489   0.1881225   0.1282359 SPIN=   4.00000
  Fe  -0.2355511  -0.3118775   0.1282359 SPIN=   4.00000
  Fe   0.2355511  -0.4401134  -0.1282359 SPIN=   4.00000
   O  -0.2904742   0.1884000   0.4678015 SPIN=   0.00000
   O  -0.3152119   0.0682282   0.2540124 SPIN=   0.00000
   O  -0.4139111  -0.1316829   0.3703996 SPIN=   0.00000
   O   0.1070848  -0.0202166   0.3582795 SPIN=   0.00000
   S  -0.2281281   0.0261822   0.3626233 SPIN=   0.00000
   O   0.2904742  -0.2794015  -0.4678015 SPIN=   0.00000
   O   0.3152119  -0.1857842  -0.2540124 SPIN=   0.00000
   O   0.4139111  -0.5020826  -0.3703996 SPIN=   0.00000
   O  -0.1070848  -0.3784961  -0.3582795 SPIN=   0.00000
   S   0.2281281  -0.3364411  -0.3626233 SPIN=   0.00000
   O   0.2095258   0.2205985  -0.4678015 SPIN=   0.00000
   O   0.1847881   0.3142158  -0.2540124 SPIN=   0.00000
   O   0.0860889  -0.0020826  -0.3703996 SPIN=   0.00000
   O   0.6070848   0.1215039  -0.3582795 SPIN=   0.00000
   S   0.2718719   0.1635589  -0.3626233 SPIN=   0.00000
   O  -0.2095258  -0.3116000   0.4678015 SPIN=   0.00000
   O  -0.1847881  -0.4317718   0.2540124 SPIN=   0.00000
   O  -0.0860889  -0.6316829   0.3703996 SPIN=   0.00000
   O  -0.6070848  -0.5202166   0.3582795 SPIN=   0.00000
   S  -0.2718719  -0.4738178   0.3626233 SPIN=   0.00000
   F   0.2281235   0.1975047   0.1468804 SPIN=   0.00000
   F  -0.2281235   0.0506243  -0.1468804 SPIN=   0.00000
   F  -0.2718765  -0.4493757  -0.1468804 SPIN=   0.00000
   F   0.2718765  -0.3024953   0.1468804 SPIN=   0.00000
%ENDBLOCK POSITIONS_FRAC

# Note: total spin =  16.00

KPOINTS_MP_SPACING 0.07

%BLOCK SPECIES_POT
QC5
%ENDBLOCK SPECIES_POT

SNAP_TO_SYMMETRY
SYMMETRY_GENERATE

