#              Generated by Buildcell
#
# at 10:31:24 (GMT+1.0) 4th August 2020
# in /lustre/scratch/uccabz1/launch_tmp
# on node-c12m-030
# by uccabz1
#
# compiler GCC version 4.9.2
# options -cpp -iprefix /lustre/shared/ucl/apps/gcc/4.9.2/bin/../lib/gcc/x86_64-unknown-linux-gnu/4.9.2/ -mtune=corei7 -march=x86-64 -g -Og
#
# seed -1766618962  -997390190  1300491320  1512755957  1312024368 -1281850844  1561030538  1103741412   431590256  -465594727  1225677661  2080131161
#
#      Author: C. J. Pickard (cjp20@cam.ac.uk)
#                Space group: P21
#

%BLOCK LATTICE_ABC
      7.50705      7.60798      7.82903
    116.54704     90.00000     90.00000
%ENDBLOCK LATTICE_ABC

%BLOCK POSITIONS_FRAC
  Li  -0.1052906   0.2844671   0.0563365 SPIN=   0.00000
  Li   0.3947094  -0.2844671  -0.0563365 SPIN=   0.00000
  Li  -0.1136872  -0.1972323   0.0995718 SPIN=   0.00000
  Li   0.3863128   0.1972323  -0.0995718 SPIN=   0.00000
  Fe   0.1877174   0.0940563   0.1816793 SPIN=   4.96686
  Fe  -0.3122826  -0.0940563  -0.1816793 SPIN=   4.96686
  Fe   0.1007922  -0.0025995  -0.3972793 SPIN=   3.03314
  Fe  -0.3992078   0.0025995   0.3972793 SPIN=   3.03314
   O  -0.3042539   0.2947814  -0.4221968 SPIN=   0.00000
   O  -0.2221899   0.6153538  -0.1561770 SPIN=   0.00000
   O  -0.0737043   0.3111951  -0.1895596 SPIN=   0.00000
   O  -0.3898928   0.3718258  -0.0909103 SPIN=   0.00000
   S  -0.2475102   0.3982890  -0.2147109 SPIN=   0.00000
   O   0.1957461  -0.2947814   0.4221968 SPIN=   0.00000
   O   0.2778101  -0.6153538   0.1561770 SPIN=   0.00000
   O   0.4262957  -0.3111951   0.1895596 SPIN=   0.00000
   O   0.1101072  -0.3718258   0.0909103 SPIN=   0.00000
   S   0.2524898  -0.3982890   0.2147109 SPIN=   0.00000
   O   0.2969022   0.3875125  -0.2362220 SPIN=   0.00000
   O   0.2249608   0.6757294  -0.2910310 SPIN=   0.00000
   O   0.0318667   0.3811347  -0.4269097 SPIN=   0.00000
   O   0.3341270   0.3690032  -0.5579417 SPIN=   0.00000
   S   0.2219642   0.4533450  -0.3780261 SPIN=   0.00000
   O  -0.2030978  -0.3875125   0.2362220 SPIN=   0.00000
   O  -0.2750392  -0.6757294   0.2910310 SPIN=   0.00000
   O  -0.4681333  -0.3811347   0.4269097 SPIN=   0.00000
   O  -0.1658730  -0.3690032   0.5579417 SPIN=   0.00000
   S  -0.2780358  -0.4533450   0.3780261 SPIN=   0.00000
   F   0.0754724   0.0760273  -0.0427148 SPIN=   0.00000
   F  -0.4245276  -0.0760273   0.0427148 SPIN=   0.00000
   F   0.4536556  -0.0031972  -0.3928644 SPIN=   0.00000
   F  -0.0463444   0.0031972   0.3928644 SPIN=   0.00000
%ENDBLOCK POSITIONS_FRAC

# Note: total spin =  16.00

KPOINTS_MP_SPACING 0.07

%BLOCK SPECIES_POT
QC5
%ENDBLOCK SPECIES_POT

SNAP_TO_SYMMETRY
SYMMETRY_GENERATE

