#              Generated by Buildcell
#
# at 02:50:24 (GMT+1.0) 18th August 2020
# in /lustre/scratch/uccabz1/launch_tmp
# on node-c12c-029
# by uccabz1
#
# compiler GCC version 4.9.2
# options -cpp -iprefix /lustre/shared/ucl/apps/gcc/4.9.2/bin/../lib/gcc/x86_64-unknown-linux-gnu/4.9.2/ -mtune=corei7 -march=x86-64 -g -Og
#
# seed   761035261  1194319076  1942230551    86382859  -806156533  1173388105   301555214  1413563250 -1006633406  -512388630  2074606083  1917287371
#
#      Author: C. J. Pickard (cjp20@cam.ac.uk)
#                Space group: P43
#

%BLOCK LATTICE_ABC
      4.70302      9.22235      9.22235
     90.00000     90.00000     90.00000
%ENDBLOCK LATTICE_ABC

%BLOCK POSITIONS_FRAC
  Li  -0.0922608   0.2168372   0.2642099 SPIN=   0.00000
  Li   0.4077392  -0.2168372  -0.2642099 SPIN=   0.00000
  Li   0.1577392   0.2642099  -0.2168372 SPIN=   0.00000
  Li  -0.3422608  -0.2642099   0.2168372 SPIN=   0.00000
  Fe   0.4259441   0.4346205   0.2391184 SPIN=   4.00000
  Fe  -0.0740559  -0.4346205  -0.2391184 SPIN=   4.00000
  Fe  -0.3240559   0.2391184  -0.4346205 SPIN=   4.00000
  Fe   0.1759441  -0.2391184   0.4346205 SPIN=   4.00000
   O   0.6661971  -0.0182708   0.2617715 SPIN=   0.00000
   O   0.2692850   0.0932123   0.1253269 SPIN=   0.00000
   O   0.4739063   0.2196870   0.3377665 SPIN=   0.00000
   O   0.1877458  -0.0028390   0.3724304 SPIN=   0.00000
   S   0.3992836   0.0729474   0.2743238 SPIN=   0.00000
   O   0.1661971   0.0182708  -0.2617715 SPIN=   0.00000
   O  -0.2307150  -0.0932123  -0.1253269 SPIN=   0.00000
   O  -0.0260937  -0.2196870  -0.3377665 SPIN=   0.00000
   O  -0.3122542   0.0028390  -0.3724304 SPIN=   0.00000
   S  -0.1007164  -0.0729474  -0.2743238 SPIN=   0.00000
   O  -0.0838029   0.2617715   0.0182708 SPIN=   0.00000
   O  -0.4807150   0.1253269  -0.0932123 SPIN=   0.00000
   O  -0.2760937   0.3377665  -0.2196870 SPIN=   0.00000
   O  -0.5622542   0.3724304   0.0028390 SPIN=   0.00000
   S  -0.3507164   0.2743238  -0.0729474 SPIN=   0.00000
   O   0.4161971  -0.2617715  -0.0182708 SPIN=   0.00000
   O   0.0192850  -0.1253269   0.0932123 SPIN=   0.00000
   O   0.2239063  -0.3377665   0.2196870 SPIN=   0.00000
   O  -0.0622542  -0.3724304  -0.0028390 SPIN=   0.00000
   S   0.1492836  -0.2743238   0.0729474 SPIN=   0.00000
   F   0.4174509  -0.4136387  -0.2509730 SPIN=   0.00000
   F  -0.0825491   0.4136387   0.2509730 SPIN=   0.00000
   F  -0.3325491  -0.2509730   0.4136387 SPIN=   0.00000
   F   0.1674509   0.2509730  -0.4136387 SPIN=   0.00000
%ENDBLOCK POSITIONS_FRAC

# Note: total spin =  16.00

KPOINTS_MP_SPACING 0.07

%BLOCK SPECIES_POT
QC5
%ENDBLOCK SPECIES_POT

SNAP_TO_SYMMETRY
SYMMETRY_GENERATE

