#              Generated by Buildcell
#
# at 01:05:25 (GMT+1.0) 18th August 2020
# in /lustre/scratch/uccabz1/launch_tmp
# on node-c12i-026
# by uccabz1
#
# compiler GCC version 4.9.2
# options -cpp -iprefix /lustre/shared/ucl/apps/gcc/4.9.2/bin/../lib/gcc/x86_64-unknown-linux-gnu/4.9.2/ -mtune=corei7 -march=x86-64 -g -Og
#
# seed  1261045148 -1371654124   870431747 -1022996220   587921711  -735407128  1081400211  1871082319  1518711891 -1448573191  2007246737 -1657717632
#
#      Author: C. J. Pickard (cjp20@cam.ac.uk)
#                Space group: Pc
#

%BLOCK LATTICE_ABC
      5.21769      6.83795     11.59742
     90.00000     90.00000    104.82620
%ENDBLOCK LATTICE_ABC

%BLOCK POSITIONS_FRAC
  Li  -0.4250542   0.3665249  -0.0721495 SPIN=   0.00000
  Li   0.0749458  -0.1334751   0.0721495 SPIN=   0.00000
  Li   0.3089825   0.1548490   0.4044100 SPIN=   0.00000
  Li  -0.1910175  -0.3451510  -0.4044100 SPIN=   0.00000
  Fe   0.2916163  -0.4100119   0.2109258 SPIN=   3.85115
  Fe  -0.2083837   0.0899881  -0.2109258 SPIN=   3.85115
  Fe   0.2401491   0.4536786  -0.4025447 SPIN=   4.14885
  Fe  -0.2598509  -0.0463214   0.4025447 SPIN=   4.14885
   O   0.2117550   0.1337428  -0.3162349 SPIN=   0.00000
   O   0.2484241  -0.2199530  -0.3122253 SPIN=   0.00000
   O   0.5159911   0.0241620  -0.4507845 SPIN=   0.00000
   O   0.0305272  -0.0983106  -0.4771085 SPIN=   0.00000
   S   0.2516743  -0.0400897  -0.3890883 SPIN=   0.00000
   O  -0.2882450   0.6337428   0.3162349 SPIN=   0.00000
   O  -0.2515759   0.2800470   0.3122253 SPIN=   0.00000
   O   0.0159911   0.5241620   0.4507845 SPIN=   0.00000
   O  -0.4694728   0.4016894   0.4771085 SPIN=   0.00000
   S  -0.2483257   0.4599103   0.3890883 SPIN=   0.00000
   O   0.2344341  -0.5000883  -0.0041096 SPIN=   0.00000
   O   0.0223486  -0.3006800  -0.1339930 SPIN=   0.00000
   O   0.2211521  -0.5633374  -0.2144109 SPIN=   0.00000
   O   0.5098294  -0.2465283  -0.1357027 SPIN=   0.00000
   S   0.2469411  -0.4026585  -0.1220540 SPIN=   0.00000
   O  -0.2655659  -0.0000883   0.0041096 SPIN=   0.00000
   O  -0.4776514   0.1993200   0.1339930 SPIN=   0.00000
   O  -0.2788479  -0.0633374   0.2144109 SPIN=   0.00000
   O   0.0098294   0.2534717   0.1357027 SPIN=   0.00000
   S  -0.2530589   0.0973415   0.1220540 SPIN=   0.00000
   F  -0.2949966   0.4037407  -0.2976425 SPIN=   0.00000
   F   0.2050034  -0.0962593   0.2976425 SPIN=   0.00000
   F  -0.2491616  -0.4018934   0.0759243 SPIN=   0.00000
   F   0.2508384   0.0981066  -0.0759243 SPIN=   0.00000
%ENDBLOCK POSITIONS_FRAC

# Note: total spin =  16.00

KPOINTS_MP_SPACING 0.07

%BLOCK SPECIES_POT
QC5
%ENDBLOCK SPECIES_POT

SNAP_TO_SYMMETRY
SYMMETRY_GENERATE

