#              Generated by Buildcell
#
# at 09:26:52 (GMT+1.0) 18th August 2020
# in /lustre/scratch/uccabz1/launch_tmp
# on node-c12a-026
# by uccabz1
#
# compiler GCC version 4.9.2
# options -cpp -iprefix /lustre/shared/ucl/apps/gcc/4.9.2/bin/../lib/gcc/x86_64-unknown-linux-gnu/4.9.2/ -mtune=corei7 -march=x86-64 -g -Og
#
# seed  1335682969   732966589  1261182720   488485695 -1369366743   882903673   747744596   409479739  -929882052 -2003659444  -240480091   -51130496
#
#      Author: C. J. Pickard (cjp20@cam.ac.uk)
#                Space group: Pc
#

%BLOCK LATTICE_ABC
      7.28923      7.43269      8.17210
    115.38603     90.00000     90.00000
%ENDBLOCK LATTICE_ABC

%BLOCK POSITIONS_FRAC
  Li   0.3566487   0.1500887   0.0340871 SPIN=   0.00000
  Li  -0.3566487  -0.8499113  -0.4659129 SPIN=   0.00000
  Li   0.2144218  -0.1667335  -0.4702078 SPIN=   0.00000
  Li  -0.2144218  -0.1667335   0.0297922 SPIN=   0.00000
  Fe  -0.4229018  -0.5573078  -0.0631237 SPIN=   6.20892
  Fe   0.4229018   0.4426922   0.4368763 SPIN=   6.20892
  Fe   0.1996041  -0.2765260  -0.1224200 SPIN=   1.79108
  Fe  -0.1996041   0.7234740   0.3775800 SPIN=   1.79108
   O   0.1492264   0.5516367   0.3388867 SPIN=   0.00000
   O   0.3360656   0.5235313   0.0761186 SPIN=   0.00000
   O   0.0065517   0.6093484   0.0907044 SPIN=   0.00000
   O   0.1004518   0.2691820   0.0391319 SPIN=   0.00000
   S   0.1480739   0.4884246   0.1362104 SPIN=   0.00000
   O  -0.1492264  -0.4483633  -0.1611133 SPIN=   0.00000
   O  -0.3360656  -0.4764687  -0.4238814 SPIN=   0.00000
   O  -0.0065517  -0.3906516  -0.4092956 SPIN=   0.00000
   O  -0.1004518  -0.7308180  -0.4608681 SPIN=   0.00000
   S  -0.1480739  -0.5115754  -0.3637896 SPIN=   0.00000
   O  -0.0557428   0.0459161   0.2264774 SPIN=   0.00000
   O   0.2448797  -0.1253715   0.1578140 SPIN=   0.00000
   O   0.1508280   0.0727283   0.4762642 SPIN=   0.00000
   O   0.2307471   0.2422094   0.2830438 SPIN=   0.00000
   S   0.1426780   0.0588706   0.2858999 SPIN=   0.00000
   O   0.0557428   0.0459161  -0.2735226 SPIN=   0.00000
   O  -0.2448797  -0.1253715  -0.3421860 SPIN=   0.00000
   O  -0.1508280   0.0727283  -0.0237358 SPIN=   0.00000
   O  -0.2307471   0.2422094  -0.2169562 SPIN=   0.00000
   S  -0.1426780   0.0588706  -0.2141001 SPIN=   0.00000
   F   0.4529287  -0.1890821  -0.1714190 SPIN=   0.00000
   F  -0.4529287   0.8109179   0.3285810 SPIN=   0.00000
   F   0.4077639  -0.7257582  -0.2734664 SPIN=   0.00000
   F  -0.4077639   0.2742418   0.2265336 SPIN=   0.00000
%ENDBLOCK POSITIONS_FRAC

# Note: total spin =  16.00

KPOINTS_MP_SPACING 0.07

%BLOCK SPECIES_POT
QC5
%ENDBLOCK SPECIES_POT

SNAP_TO_SYMMETRY
SYMMETRY_GENERATE

