#              Generated by Buildcell
#
# at 16:00:37 (GMT+1.0) 18th August 2020
# in /scratch/scratch/uccabz1/launch_tmp
# on node-k10h-012
# by uccabz1
#
# compiler GCC version 4.9.2
# options -cpp -iprefix /scratch/UCL/applications/gcc/4.9.2/bin/../lib/gcc/x86_64-unknown-linux-gnu/4.9.2/ -mtune=corei7 -march=x86-64 -g -O2
#
# seed   229605835 -1191271535 -2070051822 -1206002252 -1874395334  -980893270   192230216  1362518858  1966186001  2029156829   151916026   223419075
#
#      Author: C. J. Pickard (cjp20@cam.ac.uk)
#                Space group: C2
#

%BLOCK LATTICE_ABC
      6.95785      7.59674      7.59674
     85.38822     88.54028     88.54028
%ENDBLOCK LATTICE_ABC

%BLOCK POSITIONS_FRAC
  Li  -0.2412842  -0.0331225  -0.0336179 SPIN=   0.00000
  Li   0.2412842   0.0336179   0.0331225 SPIN=   0.00000
  Li   0.4355013  -0.2974901  -0.2194640 SPIN=   0.00000
  Li  -0.4355013   0.2194640   0.2974901 SPIN=   0.00000
  Fe   0.1255119   0.4443294  -0.1674018 SPIN=   3.48545
  Fe  -0.1255119   0.1674018  -0.4443294 SPIN=   3.48545
  Fe   0.2454086  -0.2468755   0.3735380 SPIN=   4.51455
  Fe  -0.2454086  -0.3735380   0.2468755 SPIN=   4.51455
   O   0.1496713  -0.0843866  -0.3397051 SPIN=   0.00000
   O   0.2336276   0.2241428  -0.2991084 SPIN=   0.00000
   O   0.4382631   0.0450185  -0.4912791 SPIN=   0.00000
   O   0.4341278  -0.0235304  -0.1671773 SPIN=   0.00000
   S   0.3139225   0.0403111  -0.3243175 SPIN=   0.00000
   O  -0.1496713   0.3397051   0.0843866 SPIN=   0.00000
   O  -0.2336276   0.2991084  -0.2241428 SPIN=   0.00000
   O  -0.4382631   0.4912791  -0.0450185 SPIN=   0.00000
   O  -0.4341278   0.1671773   0.0235304 SPIN=   0.00000
   S  -0.3139225   0.3243175  -0.0403111 SPIN=   0.00000
   O  -0.0516200  -0.2626462  -0.4912095 SPIN=   0.00000
   O  -0.0694142  -0.2718339  -0.1648218 SPIN=   0.00000
   O  -0.3283694  -0.4005434  -0.3273937 SPIN=   0.00000
   O  -0.2928507  -0.0762946  -0.3431614 SPIN=   0.00000
   S  -0.1855636  -0.2528295  -0.3316466 SPIN=   0.00000
   O   0.0516200   0.4912095   0.2626462 SPIN=   0.00000
   O   0.0694142   0.1648218   0.2718339 SPIN=   0.00000
   O   0.3283694   0.3273937   0.4005434 SPIN=   0.00000
   O   0.2928507   0.3431614   0.0762946 SPIN=   0.00000
   S   0.1855636   0.3316466   0.2528295 SPIN=   0.00000
   F   0.2531673  -0.2108088   0.0994770 SPIN=   0.00000
   F  -0.2531673  -0.0994770   0.2108088 SPIN=   0.00000
   F  -0.2918106   0.3658640   0.4290530 SPIN=   0.00000
   F   0.2918106  -0.4290530  -0.3658640 SPIN=   0.00000
%ENDBLOCK POSITIONS_FRAC

# Note: total spin =  16.00

KPOINTS_MP_SPACING 0.07

%BLOCK SPECIES_POT
QC5
%ENDBLOCK SPECIES_POT

SNAP_TO_SYMMETRY
SYMMETRY_GENERATE

