#              Generated by Buildcell
#
# at 03:20:35 (GMT+1.0) 18th August 2020
# in /lustre/scratch/uccabz1/launch_tmp
# on node-c12k-008
# by uccabz1
#
# compiler GCC version 4.9.2
# options -cpp -iprefix /lustre/shared/ucl/apps/gcc/4.9.2/bin/../lib/gcc/x86_64-unknown-linux-gnu/4.9.2/ -mtune=corei7 -march=x86-64 -g -Og
#
# seed    20231047    38474152  -647247099 -1541633529 -1822453427 -1233490903   -58345349  2018189794 -2143940638   -40975510   409013933   681650673
#
#      Author: C. J. Pickard (cjp20@cam.ac.uk)
#                Space group: Cm
#

%BLOCK LATTICE_ABC
      6.57807      6.76653     10.28341
     89.78882     89.56553     60.91712
%ENDBLOCK LATTICE_ABC

%BLOCK POSITIONS_FRAC
  Li   0.0200601  -0.3544975   0.1232401 SPIN=   0.00000
  Li  -0.3344374   0.3544975   0.1232401 SPIN=   0.00000
  Li  -0.2849672   0.0000000  -0.4366522 SPIN=   0.00000
  Li   0.0897766  -0.0000000  -0.1350316 SPIN=   0.00000
  Fe   0.3288430  -0.3100897  -0.4025077 SPIN=   6.85848
  Fe   0.0187533   0.3100897  -0.4025077 SPIN=   6.85848
  Fe  -0.0521583  -0.0000000   0.3114505 SPIN=   1.48008
  Fe   0.3904578  -0.0000000   0.0748566 SPIN=   0.80296
   O  -0.5424666   0.8079487   0.4257893 SPIN=   0.00000
   O  -0.1561318   0.7859172   0.4128704 SPIN=   0.00000
   O  -0.3044261   0.6667837   0.2253347 SPIN=   0.00000
   O  -0.1851031   0.4351280   0.4257425 SPIN=   0.00000
   S  -0.2970319   0.6739444   0.3724342 SPIN=   0.00000
   O   0.2654822  -0.8079487   0.4257893 SPIN=   0.00000
   O   0.6297854  -0.7859172   0.4128704 SPIN=   0.00000
   O   0.3623576  -0.6667837   0.2253347 SPIN=   0.00000
   O   0.2500249  -0.4351280   0.4257425 SPIN=   0.00000
   S   0.3769125  -0.6739444   0.3724342 SPIN=   0.00000
   O   0.5095365  -0.7854606  -0.2991216 SPIN=   0.00000
   O   0.1840524  -0.4347998  -0.2087562 SPIN=   0.00000
   O   0.5310476  -0.6667001  -0.0746156 SPIN=   0.00000
   O   0.2573437  -0.8077406  -0.1264294 SPIN=   0.00000
   S   0.3704950  -0.6736753  -0.1772307 SPIN=   0.00000
   O  -0.2759240   0.7854606  -0.2991216 SPIN=   0.00000
   O  -0.2507474   0.4347998  -0.2087562 SPIN=   0.00000
   O  -0.1356525   0.6667001  -0.0746156 SPIN=   0.00000
   O  -0.5503969   0.8077406  -0.1264294 SPIN=   0.00000
   S  -0.3031802   0.6736753  -0.1772307 SPIN=   0.00000
   F   0.0248032   0.3299038   0.0956852 SPIN=   0.00000
   F   0.3547070  -0.3299038   0.0956852 SPIN=   0.00000
   F   0.1219243  -0.0000000  -0.3288930 SPIN=   0.00000
   F  -0.3055698  -0.0000000   0.0950006 SPIN=   0.00000
%ENDBLOCK POSITIONS_FRAC

# Note: total spin =  16.00

KPOINTS_MP_SPACING 0.07

%BLOCK SPECIES_POT
QC5
%ENDBLOCK SPECIES_POT

SNAP_TO_SYMMETRY
SYMMETRY_GENERATE

