#              Generated by Buildcell
#
# at 03:41:08 (GMT+1.0) 18th August 2020
# in /lustre/scratch/uccabz1/launch_tmp
# on node-c12j-020
# by uccabz1
#
# compiler GCC version 4.9.2
# options -cpp -iprefix /lustre/shared/ucl/apps/gcc/4.9.2/bin/../lib/gcc/x86_64-unknown-linux-gnu/4.9.2/ -mtune=corei7 -march=x86-64 -g -Og
#
# seed -2074763892  -165147630  1906613660 -1046511436  -190572671 -1708641523 -1941504191  1784371229  1814466617  1770296159   633771467   226165259
#
#      Author: C. J. Pickard (cjp20@cam.ac.uk)
#                Space group: Pca21
#

%BLOCK LATTICE_ABC
      5.86450      6.56049     10.39664
     90.00000     90.00000     90.00000
%ENDBLOCK LATTICE_ABC

%BLOCK POSITIONS_FRAC
  Li  -0.4440411   0.4788452   0.3556969 SPIN=   0.00000
  Li   0.4440411  -0.0211548  -0.3556969 SPIN=   0.00000
  Li   0.0559589   0.4788452  -0.3556969 SPIN=   0.00000
  Li  -0.0559589  -0.0211548   0.3556969 SPIN=   0.00000
  Fe  -0.3924410   0.2916529  -0.1070319 SPIN=   4.00000
  Fe   0.3924410  -0.2083471   0.1070319 SPIN=   4.00000
  Fe   0.1075590   0.2916529   0.1070319 SPIN=   4.00000
  Fe  -0.1075590  -0.2083471  -0.1070319 SPIN=   4.00000
   O  -0.0683933  -0.2927584   0.4451133 SPIN=   0.00000
   O  -0.0599026  -0.5583661   0.2761408 SPIN=   0.00000
   O   0.2478078  -0.5423840   0.4387344 SPIN=   0.00000
   O   0.2192155  -0.2755308   0.2712517 SPIN=   0.00000
   S   0.0846818  -0.4172598   0.3578101 SPIN=   0.00000
   O   0.0683933   0.2072416  -0.4451133 SPIN=   0.00000
   O   0.0599026  -0.0583661  -0.2761408 SPIN=   0.00000
   O  -0.2478078  -0.0423840  -0.4387344 SPIN=   0.00000
   O  -0.2192155   0.2244692  -0.2712517 SPIN=   0.00000
   S  -0.0846818   0.0827402  -0.3578101 SPIN=   0.00000
   O  -0.5683933  -0.2927584  -0.4451133 SPIN=   0.00000
   O  -0.5599026  -0.5583661  -0.2761408 SPIN=   0.00000
   O  -0.2521922  -0.5423840  -0.4387344 SPIN=   0.00000
   O  -0.2807845  -0.2755308  -0.2712517 SPIN=   0.00000
   S  -0.4153182  -0.4172598  -0.3578101 SPIN=   0.00000
   O   0.5683933   0.2072416   0.4451133 SPIN=   0.00000
   O   0.5599026  -0.0583661   0.2761408 SPIN=   0.00000
   O   0.2521922  -0.0423840   0.4387344 SPIN=   0.00000
   O   0.2807845   0.2244692   0.2712517 SPIN=   0.00000
   S   0.4153182   0.0827402   0.3578101 SPIN=   0.00000
   F   0.3928444  -0.0332190  -0.1022441 SPIN=   0.00000
   F  -0.3928444   0.4667810   0.1022441 SPIN=   0.00000
   F  -0.1071556  -0.0332190   0.1022441 SPIN=   0.00000
   F   0.1071556   0.4667810  -0.1022441 SPIN=   0.00000
%ENDBLOCK POSITIONS_FRAC

# Note: total spin =  16.00

KPOINTS_MP_SPACING 0.07

%BLOCK SPECIES_POT
QC5
%ENDBLOCK SPECIES_POT

SNAP_TO_SYMMETRY
SYMMETRY_GENERATE

