#              Generated by Buildcell
#
# at 10:18:57 (GMT+1.0) 4th August 2020
# in /lustre/scratch/uccabz1/launch_tmp
# on node-c12l-020
# by uccabz1
#
# compiler GCC version 4.9.2
# options -cpp -iprefix /lustre/shared/ucl/apps/gcc/4.9.2/bin/../lib/gcc/x86_64-unknown-linux-gnu/4.9.2/ -mtune=corei7 -march=x86-64 -g -Og
#
# seed  -759358682   834038431  -370824934  -421667324  -774938005 -1508983211 -1222001265  -521566712  -795497599  1785996578   -79482538 -1213627416
#
#      Author: C. J. Pickard (cjp20@cam.ac.uk)
#                Space group: P-1
#

%BLOCK LATTICE_ABC
      6.35333      7.97681      8.35697
     86.49548     87.32146     71.19305
%ENDBLOCK LATTICE_ABC

%BLOCK POSITIONS_FRAC
  Li  -0.5000000   0.0000000  -0.5000000 SPIN=   0.00000
  Li   0.5000000   0.0000000   0.0000000 SPIN=   0.00000
  Li  -0.0000000  -0.5000000   0.0000000 SPIN=   0.00000
  Li  -0.5000000   0.5000000   0.5000000 SPIN=   0.00000
  Fe   0.2754488  -0.2950365  -0.2214115 SPIN=   3.30907
  Fe  -0.2754488   0.2950365   0.2214115 SPIN=   3.30907
  Fe  -0.2989192   0.2701415  -0.2169183 SPIN=   4.69093
  Fe   0.2989192  -0.2701415   0.2169183 SPIN=   4.69093
   O   0.4956650   0.1194997   0.2783649 SPIN=   0.00000
   O   0.2229931   0.2751997   0.0727961 SPIN=   0.00000
   O   0.1914918   0.3934249   0.3430055 SPIN=   0.00000
   O   0.1074744   0.1162446   0.3065300 SPIN=   0.00000
   S   0.2544061   0.2260922   0.2501741 SPIN=   0.00000
   O  -0.4956650  -0.1194997  -0.2783649 SPIN=   0.00000
   O  -0.2229931  -0.2751997  -0.0727961 SPIN=   0.00000
   O  -0.1914918  -0.3934249  -0.3430055 SPIN=   0.00000
   O  -0.1074744  -0.1162446  -0.3065300 SPIN=   0.00000
   S  -0.2544061  -0.2260922  -0.2501741 SPIN=   0.00000
   O  -0.2078267  -0.4479423   0.3942111 SPIN=   0.00000
   O  -0.3885692  -0.2367558   0.1736473 SPIN=   0.00000
   O   0.0221202  -0.3558611   0.1814382 SPIN=   0.00000
   O  -0.1893140  -0.1421788   0.3800177 SPIN=   0.00000
   S  -0.1908974  -0.2956845   0.2823286 SPIN=   0.00000
   O   0.2078267   0.4479423  -0.3942111 SPIN=   0.00000
   O   0.3885692   0.2367558  -0.1736473 SPIN=   0.00000
   O  -0.0221202   0.3558611  -0.1814382 SPIN=   0.00000
   O   0.1893140   0.1421788  -0.3800177 SPIN=   0.00000
   S   0.1908974   0.2956845  -0.2823286 SPIN=   0.00000
   F  -0.2749463   0.2282109  -0.4787295 SPIN=   0.00000
   F   0.2749463  -0.2282109   0.4787295 SPIN=   0.00000
   F   0.0000000   0.0000000   0.0000000 SPIN=   0.00000
   F   0.5000000  -0.5000000  -0.0000000 SPIN=   0.00000
%ENDBLOCK POSITIONS_FRAC

# Note: total spin =  16.00

KPOINTS_MP_SPACING 0.07

%BLOCK SPECIES_POT
QC5
%ENDBLOCK SPECIES_POT

SNAP_TO_SYMMETRY
SYMMETRY_GENERATE

