#              Generated by Buildcell
#
# at 08:38:41 (GMT+1.0) 4th August 2020
# in /lustre/scratch/uccabz1/launch_tmp
# on node-c12k-035
# by uccabz1
#
# compiler GCC version 4.9.2
# options -cpp -iprefix /lustre/shared/ucl/apps/gcc/4.9.2/bin/../lib/gcc/x86_64-unknown-linux-gnu/4.9.2/ -mtune=corei7 -march=x86-64 -g -Og
#
# seed  1896627114  -479662485  2076208009  1820070121  -395593614  1665249013 -2045543715  1943306181    56991077 -1757503380  2145633563  1366648001
#
#      Author: C. J. Pickard (cjp20@cam.ac.uk)
#                Space group: P-1
#

%BLOCK LATTICE_ABC
      4.32158      8.41422     11.27544
     84.69149     86.08547     78.84363
%ENDBLOCK LATTICE_ABC

%BLOCK POSITIONS_FRAC
  Li  -0.4324261   0.2618925  -0.3716240 SPIN=   0.00000
  Li   0.4324261  -0.2618925   0.3716240 SPIN=   0.00000
  Li  -0.2009415  -0.1989392  -0.1979683 SPIN=   0.00000
  Li   0.2009415   0.1989392   0.1979683 SPIN=   0.00000
  Fe  -0.1577068  -0.0142190   0.3537185 SPIN=   7.31129
  Fe   0.1577068   0.0142190  -0.3537185 SPIN=   7.31129
  Fe  -0.3543141  -0.3937640  -0.3850076 SPIN=   0.68871
  Fe   0.3543141   0.3937640   0.3850076 SPIN=   0.68871
   O  -0.0839522   0.2200865  -0.0724505 SPIN=   0.00000
   O  -0.2193219   0.3181559   0.1283034 SPIN=   0.00000
   O  -0.2014474   0.0290435   0.0974510 SPIN=   0.00000
   O  -0.6301135   0.2407593   0.0148119 SPIN=   0.00000
   S  -0.2837088   0.2020113   0.0420290 SPIN=   0.00000
   O   0.0839522  -0.2200865   0.0724505 SPIN=   0.00000
   O   0.2193219  -0.3181559  -0.1283034 SPIN=   0.00000
   O   0.2014474  -0.0290435  -0.0974510 SPIN=   0.00000
   O   0.6301135  -0.2407593  -0.0148119 SPIN=   0.00000
   S   0.2837088  -0.2020113  -0.0420290 SPIN=   0.00000
   O  -0.4988144  -0.3901801   0.1503640 SPIN=   0.00000
   O  -0.1809292  -0.5689754   0.3021654 SPIN=   0.00000
   O  -0.1095063  -0.2844339   0.2571142 SPIN=   0.00000
   O   0.0733830  -0.4863097   0.1089813 SPIN=   0.00000
   S  -0.1789667  -0.4324748   0.2046562 SPIN=   0.00000
   O   0.4988144   0.3901801  -0.1503640 SPIN=   0.00000
   O   0.1809292   0.5689754  -0.3021654 SPIN=   0.00000
   O   0.1095063   0.2844339  -0.2571142 SPIN=   0.00000
   O  -0.0733830   0.4863097  -0.1089813 SPIN=   0.00000
   S   0.1789667   0.4324748  -0.2046562 SPIN=   0.00000
   F   0.1950587   0.2496305   0.4975465 SPIN=   0.00000
   F  -0.1950587  -0.2496305  -0.4975465 SPIN=   0.00000
   F  -0.2715091   0.0445234  -0.2554508 SPIN=   0.00000
   F   0.2715091  -0.0445234   0.2554508 SPIN=   0.00000
%ENDBLOCK POSITIONS_FRAC

# Note: total spin =  16.00

KPOINTS_MP_SPACING 0.07

%BLOCK SPECIES_POT
QC5
%ENDBLOCK SPECIES_POT

SNAP_TO_SYMMETRY
SYMMETRY_GENERATE

