#              Generated by Buildcell
#
# at 10:32:47 (GMT+1.0) 4th August 2020
# in /lustre/scratch/uccabz1/launch_tmp
# on node-c12n-010
# by uccabz1
#
# compiler GCC version 4.9.2
# options -cpp -iprefix /lustre/shared/ucl/apps/gcc/4.9.2/bin/../lib/gcc/x86_64-unknown-linux-gnu/4.9.2/ -mtune=corei7 -march=x86-64 -g -Og
#
# seed -1680278692  1249122655 -1941504191   661732573  -172000444  1472987592   -48176146   242409628   666059903  -287090005  2053056802   388444907
#
#      Author: C. J. Pickard (cjp20@cam.ac.uk)
#                Space group: Cc
#

%BLOCK LATTICE_ABC
      6.41381      7.40941      9.95648
     75.14354     71.21048     64.35365
%ENDBLOCK LATTICE_ABC

%BLOCK POSITIONS_FRAC
  Li  -0.1936804  -0.2390352  -0.3678529 SPIN=   0.00000
  Li  -0.1994314   0.2609648   0.1321471 SPIN=   0.00000
  Li  -0.4172259  -0.1632451   0.3060685 SPIN=   0.00000
  Li   0.2744025   0.3367549  -0.1939315 SPIN=   0.00000
  Fe   0.4496117   0.1591848   0.0684876 SPIN=   1.63268
  Fe   0.3227159  -0.3408152  -0.4315124 SPIN=   1.63268
  Fe   0.4017371  -0.3438388   0.1602819 SPIN=   6.36732
  Fe  -0.2181803   0.1561612  -0.3397181 SPIN=   6.36732
   O  -0.4235571  -0.3474247  -0.0567870 SPIN=   0.00000
   O  -0.5370996  -0.3066421  -0.2811896 SPIN=   0.00000
   O  -0.5488091  -0.5990380  -0.0950983 SPIN=   0.00000
   O  -0.1611069  -0.5801874  -0.2360924 SPIN=   0.00000
   S  -0.4176432  -0.4583230  -0.1672918 SPIN=   0.00000
   O  -0.1722312   0.1525753   0.4432130 SPIN=   0.00000
   O   0.1249312   0.1933579   0.2188104 SPIN=   0.00000
   O   0.2429453  -0.0990380   0.4049017 SPIN=   0.00000
   O  -0.0226133  -0.0801874   0.2639076 SPIN=   0.00000
   S   0.0432580   0.0416770   0.3327082 SPIN=   0.00000
   O  -0.2821026  -0.1309899   0.0894189 SPIN=   0.00000
   O   0.0089594  -0.3849792   0.2248840 SPIN=   0.00000
   O   0.1366413  -0.3038489  -0.0380847 SPIN=   0.00000
   O  -0.1287521  -0.4932713   0.0651752 SPIN=   0.00000
   S  -0.0663135  -0.3282723   0.0853483 SPIN=   0.00000
   O   0.3236736   0.3690101  -0.4105811 SPIN=   0.00000
   O   0.1511358   0.1150208  -0.2751160 SPIN=   0.00000
   O   0.2052924   0.1961511  -0.5380847 SPIN=   0.00000
   O   0.5568481   0.0067287  -0.4348248 SPIN=   0.00000
   S   0.3092375   0.1717277  -0.4146517 SPIN=   0.00000
   F   0.4480884   0.3338382   0.2150616 SPIN=   0.00000
   F   0.0030117  -0.1661618  -0.2849384 SPIN=   0.00000
   F   0.2780026   0.0489933  -0.0309554 SPIN=   0.00000
   F  -0.2960405  -0.4510067   0.4690446 SPIN=   0.00000
%ENDBLOCK POSITIONS_FRAC

# Note: total spin =  16.00

KPOINTS_MP_SPACING 0.07

%BLOCK SPECIES_POT
QC5
%ENDBLOCK SPECIES_POT

SNAP_TO_SYMMETRY
SYMMETRY_GENERATE

