#              Generated by Buildcell
#
# at 14:37:40 (GMT+1.0) 18th August 2020
# in /lustre/scratch/uccabz1/launch_tmp
# on node-c12b-013
# by uccabz1
#
# compiler GCC version 4.9.2
# options -cpp -iprefix /lustre/shared/ucl/apps/gcc/4.9.2/bin/../lib/gcc/x86_64-unknown-linux-gnu/4.9.2/ -mtune=corei7 -march=x86-64 -g -Og
#
# seed  1771760949   242727542 -1457680357  -292748072 -1041315568   263076119  -748334528  -412457764   943293486  1044479912  -858568020   -49826710
#
#      Author: C. J. Pickard (cjp20@cam.ac.uk)
#                Space group: P21
#

%BLOCK LATTICE_ABC
      4.00990      9.38463     10.86939
     90.00000     90.00000    102.06175
%ENDBLOCK LATTICE_ABC

%BLOCK POSITIONS_FRAC
  Li   0.0000701  -0.1285660  -0.1975446 SPIN=   0.00000
  Li  -0.0000701   0.1285660   0.3024554 SPIN=   0.00000
  Li  -0.2418357  -0.4993950  -0.3670935 SPIN=   0.00000
  Li   0.2418357   0.4993950   0.1329065 SPIN=   0.00000
  Fe  -0.0449233   0.4020229  -0.1175171 SPIN=   5.58948
  Fe   0.0449233  -0.4020229   0.3824829 SPIN=   5.58948
  Fe   0.1757168   0.0642030   0.0260615 SPIN=   2.41052
  Fe  -0.1757168  -0.0642030  -0.4739385 SPIN=   2.41052
   O  -0.3984408  -0.1711246   0.0422875 SPIN=   0.00000
   O  -0.9851847  -0.2871581  -0.0210796 SPIN=   0.00000
   O  -0.5264553  -0.4270608  -0.0294393 SPIN=   0.00000
   O  -0.5283955  -0.2266641  -0.1772724 SPIN=   0.00000
   S  -0.6096191  -0.2780019  -0.0463759 SPIN=   0.00000
   O   0.3984408   0.1711246   0.5422875 SPIN=   0.00000
   O   0.9851847   0.2871581   0.4789204 SPIN=   0.00000
   O   0.5264553   0.4270608   0.4705607 SPIN=   0.00000
   O   0.5283955   0.2266641   0.3227276 SPIN=   0.00000
   S   0.6096191   0.2780019   0.4536241 SPIN=   0.00000
   O  -0.6709652   0.1563233  -0.1748184 SPIN=   0.00000
   O  -0.5554326  -0.0441455  -0.3051471 SPIN=   0.00000
   O  -0.1925263   0.0375305  -0.1237853 SPIN=   0.00000
   O  -0.1577850   0.1961321  -0.3072554 SPIN=   0.00000
   S  -0.3941773   0.0864601  -0.2277516 SPIN=   0.00000
   O   0.6709652  -0.1563233   0.3251816 SPIN=   0.00000
   O   0.5554326   0.0441455   0.1948529 SPIN=   0.00000
   O   0.1925263  -0.0375305   0.3762147 SPIN=   0.00000
   O   0.1577850  -0.1961321   0.1927446 SPIN=   0.00000
   S   0.3941773  -0.0864601   0.2722484 SPIN=   0.00000
   F  -0.0175305   0.2479227   0.0551544 SPIN=   0.00000
   F   0.0175305  -0.2479227  -0.4448456 SPIN=   0.00000
   F   0.3615741   0.4328359  -0.2656384 SPIN=   0.00000
   F  -0.3615741  -0.4328359   0.2343616 SPIN=   0.00000
%ENDBLOCK POSITIONS_FRAC

# Note: total spin =  16.00

KPOINTS_MP_SPACING 0.07

%BLOCK SPECIES_POT
QC5
%ENDBLOCK SPECIES_POT

SNAP_TO_SYMMETRY
SYMMETRY_GENERATE

