#              Generated by Buildcell
#
# at 06:31:19 (GMT+1.0) 4th August 2020
# in /lustre/scratch/uccabz1/launch_tmp
# on node-c12g-026
# by uccabz1
#
# compiler GCC version 4.9.2
# options -cpp -iprefix /lustre/shared/ucl/apps/gcc/4.9.2/bin/../lib/gcc/x86_64-unknown-linux-gnu/4.9.2/ -mtune=corei7 -march=x86-64 -g -Og
#
# seed   898378664  -804163152 -1514591810   -90549698   807321800 -1932705135 -1136969380   198413524  1799707249   612730691  1575087012  -855973444
#
#      Author: C. J. Pickard (cjp20@cam.ac.uk)
#                Space group: Pcc2
#

%BLOCK LATTICE_ABC
      3.85924      8.20167     12.63737
     90.00000     90.00000     90.00000
%ENDBLOCK LATTICE_ABC

%BLOCK POSITIONS_FRAC
  Li   0.5000000  -0.5000000  -0.0863867 SPIN=   0.00000
  Li   0.5000000   0.5000000   0.4136133 SPIN=   0.00000
  Li   0.0000000  -0.0000000   0.0438234 SPIN=   0.00000
  Li   0.0000000  -0.0000000  -0.4561766 SPIN=   0.00000
  Fe   0.2518697   0.3140110   0.1074168 SPIN=   4.00000
  Fe  -0.2518697  -0.3140110   0.1074168 SPIN=   4.00000
  Fe   0.2518697  -0.3140110  -0.3925832 SPIN=   4.00000
  Fe  -0.2518697   0.3140110  -0.3925832 SPIN=   4.00000
   O   0.1691394  -0.1200449   0.4204112 SPIN=   0.00000
   O   0.1692492  -0.3812226   0.3223266 SPIN=   0.00000
   O   0.6927246  -0.2069177   0.3223929 SPIN=   0.00000
   O   0.1689621  -0.1197500   0.2245735 SPIN=   0.00000
   S   0.3000188  -0.2069838   0.3224261 SPIN=   0.00000
   O  -0.1691394   0.1200449   0.4204112 SPIN=   0.00000
   O  -0.1692492   0.3812226   0.3223266 SPIN=   0.00000
   O  -0.6927246   0.2069177   0.3223929 SPIN=   0.00000
   O  -0.1689621   0.1197500   0.2245735 SPIN=   0.00000
   S  -0.3000188   0.2069838   0.3224261 SPIN=   0.00000
   O   0.1691394   0.1200449  -0.0795888 SPIN=   0.00000
   O   0.1692492   0.3812226  -0.1776734 SPIN=   0.00000
   O   0.6927246   0.2069177  -0.1776071 SPIN=   0.00000
   O   0.1689621   0.1197500  -0.2754265 SPIN=   0.00000
   S   0.3000188   0.2069838  -0.1775739 SPIN=   0.00000
   O  -0.1691394  -0.1200449  -0.0795888 SPIN=   0.00000
   O  -0.1692492  -0.3812226  -0.1776734 SPIN=   0.00000
   O  -0.6927246  -0.2069177  -0.1776071 SPIN=   0.00000
   O  -0.1689621  -0.1197500  -0.2754265 SPIN=   0.00000
   S  -0.3000188  -0.2069838  -0.1775739 SPIN=   0.00000
   F   0.2130173  -0.3141147   0.0506894 SPIN=   0.00000
   F  -0.2130173   0.3141147   0.0506894 SPIN=   0.00000
   F   0.2130173   0.3141147  -0.4493106 SPIN=   0.00000
   F  -0.2130173  -0.3141147  -0.4493106 SPIN=   0.00000
%ENDBLOCK POSITIONS_FRAC

# Note: total spin =  16.00

KPOINTS_MP_SPACING 0.07

%BLOCK SPECIES_POT
QC5
%ENDBLOCK SPECIES_POT

SNAP_TO_SYMMETRY
SYMMETRY_GENERATE

