#              Generated by Buildcell
#
# at 07:16:30 (GMT+1.0) 4th August 2020
# in /lustre/scratch/uccabz1/launch_tmp
# on node-c12g-019
# by uccabz1
#
# compiler GCC version 4.9.2
# options -cpp -iprefix /lustre/shared/ucl/apps/gcc/4.9.2/bin/../lib/gcc/x86_64-unknown-linux-gnu/4.9.2/ -mtune=corei7 -march=x86-64 -g -Og
#
# seed  -473658106   778673175 -1823219437 -1729221638  1712768760  -359865183 -1921196730 -2096467368  1760412924  1128765942  1870388861  1024553083
#
#      Author: C. J. Pickard (cjp20@cam.ac.uk)
#                Space group: I41
#

%BLOCK LATTICE_ABC
      7.88471      7.88471      8.51364
    117.58494    117.58494     90.00000
%ENDBLOCK LATTICE_ABC

%BLOCK POSITIONS_FRAC
  Li  -0.2238002   0.1021321   0.0857828 SPIN=   0.00000
  Li   0.3095830  -0.0163493   0.0857828 SPIN=   0.00000
  Li  -0.2663493   0.0261998  -0.4142172 SPIN=   0.00000
  Li  -0.1478679  -0.4404170  -0.4142172 SPIN=   0.00000
  Fe   0.4477669   0.1645261  -0.2293654 SPIN=   4.00000
  Fe   0.3228676  -0.3938916  -0.2293654 SPIN=   4.00000
  Fe   0.3561084  -0.3022331   0.2706346 SPIN=   4.00000
  Fe  -0.0854739  -0.4271324   0.2706346 SPIN=   4.00000
   O   0.4977544   0.5088764   0.6358235 SPIN=   0.00000
   O   0.5073533   0.1655636   0.5544628 SPIN=   0.00000
   O   0.6120325   0.3085787   0.3983030 SPIN=   0.00000
   O   0.2568670   0.2226219   0.2850252 SPIN=   0.00000
   S   0.4685018   0.3014101   0.4684036 SPIN=   0.00000
   O   0.1380690   0.1269471   0.6358235 SPIN=   0.00000
   O   0.0471095   0.3888992   0.5544628 SPIN=   0.00000
   O  -0.2137295   0.0897243   0.3983030 SPIN=   0.00000
   O   0.0281582   0.0624033   0.2850252 SPIN=   0.00000
   S  -0.0000982   0.1669935   0.4684036 SPIN=   0.00000
   O  -0.1230529  -0.2522456   0.1358235 SPIN=   0.00000
   O   0.1388992  -0.2426467   0.0544628 SPIN=   0.00000
   O  -0.1602757  -0.1379675  -0.1016970 SPIN=   0.00000
   O  -0.1875967  -0.4931330  -0.2149748 SPIN=   0.00000
   S  -0.0830065  -0.2814982  -0.0315964 SPIN=   0.00000
   O   0.2588764   0.3880690   0.1358235 SPIN=   0.00000
   O  -0.0844364   0.2971095   0.0544628 SPIN=   0.00000
   O   0.0585787   0.0362705  -0.1016970 SPIN=   0.00000
   O  -0.0273781   0.2781582  -0.2149748 SPIN=   0.00000
   S   0.0514101   0.2499018  -0.0315964 SPIN=   0.00000
   F  -0.4819745  -0.1438303  -0.4097006 SPIN=   0.00000
   F   0.0722738  -0.2658704  -0.4097006 SPIN=   0.00000
   F   0.4841296  -0.2319745   0.0902994 SPIN=   0.00000
   F  -0.3938303   0.3222738   0.0902994 SPIN=   0.00000
%ENDBLOCK POSITIONS_FRAC

# Note: total spin =  16.00

KPOINTS_MP_SPACING 0.07

%BLOCK SPECIES_POT
QC5
%ENDBLOCK SPECIES_POT

SNAP_TO_SYMMETRY
SYMMETRY_GENERATE

