#              Generated by Buildcell
#
# at 01:13:58 (GMT+1.0) 18th August 2020
# in /lustre/scratch/uccabz1/launch_tmp
# on node-c12j-026
# by uccabz1
#
# compiler GCC version 4.9.2
# options -cpp -iprefix /lustre/shared/ucl/apps/gcc/4.9.2/bin/../lib/gcc/x86_64-unknown-linux-gnu/4.9.2/ -mtune=corei7 -march=x86-64 -g -Og
#
# seed  2035861520  -784532919  1075354555  2141998960 -1772516131 -1568257044  1322607866  1049272722  1140104415  1070366861 -1282986749 -1453698564
#
#      Author: C. J. Pickard (cjp20@cam.ac.uk)
#                Space group: P42
#

%BLOCK LATTICE_ABC
      5.27647      8.70680      8.70680
     90.00000     90.00000     90.00000
%ENDBLOCK LATTICE_ABC

%BLOCK POSITIONS_FRAC
  Li  -0.2675254  -0.3625394   0.1836063 SPIN=   0.00000
  Li  -0.2675254   0.3625394  -0.1836063 SPIN=   0.00000
  Li   0.2324746  -0.1836063  -0.3625394 SPIN=   0.00000
  Li   0.2324746   0.1836063   0.3625394 SPIN=   0.00000
  Fe   0.4089144   0.0886026  -0.1949384 SPIN=   4.00000
  Fe   0.4089144  -0.0886026   0.1949384 SPIN=   4.00000
  Fe  -0.0910856   0.1949384   0.0886026 SPIN=   4.00000
  Fe  -0.0910856  -0.1949384  -0.0886026 SPIN=   4.00000
   O  -0.3232336  -0.1630040  -0.3192078 SPIN=   0.00000
   O  -0.0133536  -0.2688968  -0.5044552 SPIN=   0.00000
   O  -0.3623096  -0.1024330  -0.5959140 SPIN=   0.00000
   O  -0.4547510  -0.3650177  -0.5026037 SPIN=   0.00000
   S  -0.2884119  -0.2248379  -0.4805452 SPIN=   0.00000
   O  -0.3232336   0.1630040   0.3192078 SPIN=   0.00000
   O  -0.0133536   0.2688968   0.5044552 SPIN=   0.00000
   O  -0.3623096   0.1024330   0.5959140 SPIN=   0.00000
   O  -0.4547510   0.3650177   0.5026037 SPIN=   0.00000
   S  -0.2884119   0.2248379   0.4805452 SPIN=   0.00000
   O   0.1767664   0.3192078  -0.1630040 SPIN=   0.00000
   O   0.4866464   0.5044552  -0.2688968 SPIN=   0.00000
   O   0.1376904   0.5959140  -0.1024330 SPIN=   0.00000
   O   0.0452490   0.5026037  -0.3650177 SPIN=   0.00000
   S   0.2115881   0.4805452  -0.2248379 SPIN=   0.00000
   O   0.1767664  -0.3192078   0.1630040 SPIN=   0.00000
   O   0.4866464  -0.5044552   0.2688968 SPIN=   0.00000
   O   0.1376904  -0.5959140   0.1024330 SPIN=   0.00000
   O   0.0452490  -0.5026037   0.3650177 SPIN=   0.00000
   S   0.2115881  -0.4805452   0.2248379 SPIN=   0.00000
   F  -0.4576956  -0.2139857  -0.0247450 SPIN=   0.00000
   F  -0.4576956   0.2139857   0.0247450 SPIN=   0.00000
   F   0.0423044   0.0247450  -0.2139857 SPIN=   0.00000
   F   0.0423044  -0.0247450   0.2139857 SPIN=   0.00000
%ENDBLOCK POSITIONS_FRAC

# Note: total spin =  16.00

KPOINTS_MP_SPACING 0.07

%BLOCK SPECIES_POT
QC5
%ENDBLOCK SPECIES_POT

SNAP_TO_SYMMETRY
SYMMETRY_GENERATE

