#              Generated by Buildcell
#
# at 07:18:30 (GMT+1.0) 4th August 2020
# in /lustre/scratch/uccabz1/launch_tmp
# on node-c12g-026
# by uccabz1
#
# compiler GCC version 4.9.2
# options -cpp -iprefix /lustre/shared/ucl/apps/gcc/4.9.2/bin/../lib/gcc/x86_64-unknown-linux-gnu/4.9.2/ -mtune=corei7 -march=x86-64 -g -Og
#
# seed -1723680185  -515607862  -494807461  1991924679  1557302734  1595407217  -286083725  1662087139 -1428962874 -1942519150  1611504611 -2103903589
#
#      Author: C. J. Pickard (cjp20@cam.ac.uk)
#                Space group: C2
#

%BLOCK LATTICE_ABC
      6.60066      6.60066     10.04866
     88.82028     88.82028     66.05273
%ENDBLOCK LATTICE_ABC

%BLOCK POSITIONS_FRAC
  Li  -0.1019079  -0.1825816  -0.0868802 SPIN=   0.00000
  Li   0.1825816   0.1019079   0.0868802 SPIN=   0.00000
  Li  -0.4967510   0.1686020   0.4963865 SPIN=   0.00000
  Li  -0.1686020   0.4967510  -0.4963865 SPIN=   0.00000
  Fe  -0.1614286  -0.4440656   0.1468996 SPIN=   5.69707
  Fe   0.4440656   0.1614286  -0.1468996 SPIN=   5.69707
  Fe  -0.0692027   0.0130355   0.3163164 SPIN=   2.30293
  Fe  -0.0130355   0.0692027  -0.3163164 SPIN=   2.30293
   O   0.1489881  -0.6705476  -0.3741399 SPIN=   0.00000
   O   0.1236866  -0.3577704  -0.2332596 SPIN=   0.00000
   O   0.0530117  -0.2982473  -0.4748688 SPIN=   0.00000
   O   0.4335693  -0.5168232  -0.3952285 SPIN=   0.00000
   S   0.1898139  -0.4608471  -0.3693742 SPIN=   0.00000
   O   0.6705476  -0.1489881   0.3741399 SPIN=   0.00000
   O   0.3577704  -0.1236866   0.2332596 SPIN=   0.00000
   O   0.2982473  -0.0530117   0.4748688 SPIN=   0.00000
   O   0.5168232  -0.4335693   0.3952285 SPIN=   0.00000
   S   0.4608471  -0.1898139   0.3693742 SPIN=   0.00000
   O  -0.3960956  -0.2215582  -0.1076100 SPIN=   0.00000
   O  -0.1955318  -0.4803468  -0.2873381 SPIN=   0.00000
   O  -0.5164383  -0.5144135  -0.1733711 SPIN=   0.00000
   O  -0.1640650  -0.6147952  -0.0537486 SPIN=   0.00000
   S  -0.3180327  -0.4577784  -0.1555169 SPIN=   0.00000
   O   0.2215582   0.3960956   0.1076100 SPIN=   0.00000
   O   0.4803468   0.1955318   0.2873381 SPIN=   0.00000
   O   0.5144135   0.5164383   0.1733711 SPIN=   0.00000
   O   0.6147952   0.1640650   0.0537486 SPIN=   0.00000
   S   0.4577784   0.3180327   0.1555169 SPIN=   0.00000
   F   0.1743896   0.0345216  -0.1610270 SPIN=   0.00000
   F  -0.0345216  -0.1743896   0.1610270 SPIN=   0.00000
   F  -0.3182310   0.0309954  -0.3485825 SPIN=   0.00000
   F  -0.0309954   0.3182310   0.3485825 SPIN=   0.00000
%ENDBLOCK POSITIONS_FRAC

# Note: total spin =  16.00

KPOINTS_MP_SPACING 0.07

%BLOCK SPECIES_POT
QC5
%ENDBLOCK SPECIES_POT

SNAP_TO_SYMMETRY
SYMMETRY_GENERATE

