#              Generated by Buildcell
#
# at 06:38:17 (GMT+1.0) 4th August 2020
# in /lustre/scratch/uccabz1/launch_tmp
# on node-c12c-021
# by uccabz1
#
# compiler GCC version 4.9.2
# options -cpp -iprefix /lustre/shared/ucl/apps/gcc/4.9.2/bin/../lib/gcc/x86_64-unknown-linux-gnu/4.9.2/ -mtune=corei7 -march=x86-64 -g -Og
#
# seed  -497107888  -787485441  -340375622 -1356621453  1157527915 -1304379268 -1600580837 -1254612746 -1727527263  1872390393 -1881697920   970821405
#
#      Author: C. J. Pickard (cjp20@cam.ac.uk)
#                Space group: P2
#

%BLOCK LATTICE_ABC
      6.68609      7.79103      8.54606
    116.03596     90.00000     90.00000
%ENDBLOCK LATTICE_ABC

%BLOCK POSITIONS_FRAC
  Li   0.3933177  -0.1863398   0.0628397 SPIN=   0.00000
  Li   0.3933177   0.1863398  -0.0628397 SPIN=   0.00000
  Li  -0.0595361   0.2024485   0.2007644 SPIN=   0.00000
  Li  -0.0595361  -0.2024485  -0.2007644 SPIN=   0.00000
  Fe  -0.0380484   0.2122127  -0.1505199 SPIN=   3.54396
  Fe  -0.0380484  -0.2122127   0.1505199 SPIN=   3.54396
  Fe  -0.4014994   0.1830941   0.4161758 SPIN=   4.45604
  Fe  -0.4014994  -0.1830941  -0.4161758 SPIN=   4.45604
   O   0.2336095  -0.1679698  -0.6039459 SPIN=   0.00000
   O   0.2414005  -0.2239541  -0.3404750 SPIN=   0.00000
   O   0.0731995  -0.4560398  -0.6077162 SPIN=   0.00000
   O  -0.0766953  -0.1373624  -0.4358200 SPIN=   0.00000
   S   0.1178785  -0.2463315  -0.4969893 SPIN=   0.00000
   O   0.2336095   0.1679698   0.6039459 SPIN=   0.00000
   O   0.2414005   0.2239541   0.3404750 SPIN=   0.00000
   O   0.0731995   0.4560398   0.6077162 SPIN=   0.00000
   O  -0.0766953   0.1373624   0.4358200 SPIN=   0.00000
   S   0.1178785   0.2463315   0.4969893 SPIN=   0.00000
   O  -0.2569366   0.5676026   0.3622753 SPIN=   0.00000
   O  -0.4609377   0.2742452   0.2194497 SPIN=   0.00000
   O  -0.2505615   0.3824021   0.0415398 SPIN=   0.00000
   O  -0.5533710   0.5650316   0.1878300 SPIN=   0.00000
   S  -0.3804517   0.4473204   0.2027737 SPIN=   0.00000
   O  -0.2569366  -0.5676026  -0.3622753 SPIN=   0.00000
   O  -0.4609377  -0.2742452  -0.2194497 SPIN=   0.00000
   O  -0.2505615  -0.3824021  -0.0415398 SPIN=   0.00000
   O  -0.5533710  -0.5650316  -0.1878300 SPIN=   0.00000
   S  -0.3804517  -0.4473204  -0.2027737 SPIN=   0.00000
   F  -0.3775364   0.0725952  -0.2374258 SPIN=   0.00000
   F  -0.3775364  -0.0725952   0.2374258 SPIN=   0.00000
   F   0.1241956  -0.2821178  -0.0675307 SPIN=   0.00000
   F   0.1241956   0.2821178   0.0675307 SPIN=   0.00000
%ENDBLOCK POSITIONS_FRAC

# Note: total spin =  16.00

KPOINTS_MP_SPACING 0.07

%BLOCK SPECIES_POT
QC5
%ENDBLOCK SPECIES_POT

SNAP_TO_SYMMETRY
SYMMETRY_GENERATE

