#              Generated by Buildcell
#
# at 22:50:56 (GMT+1.0) 17th August 2020
# in /scratch/scratch/uccabz1/launch_tmp
# on node-k10b-019
# by uccabz1
#
# compiler GCC version 4.9.2
# options -cpp -iprefix /scratch/UCL/applications/gcc/4.9.2/bin/../lib/gcc/x86_64-unknown-linux-gnu/4.9.2/ -mtune=corei7 -march=x86-64 -g -O2
#
# seed  -687545664  1197922417  1326091138 -1224997936 -2039594902  1040710493  -565336915  1384922797  -581682730  1133967945  -164333185 -1259518919
#
#      Author: C. J. Pickard (cjp20@cam.ac.uk)
#                Space group: P2
#

%BLOCK LATTICE_ABC
      3.86885      8.26073     12.63306
     97.81151     90.00000     90.00000
%ENDBLOCK LATTICE_ABC

%BLOCK POSITIONS_FRAC
  Li   0.4327924   0.1379076   0.1343579 SPIN=   0.00000
  Li   0.4327924  -0.1379076  -0.1343579 SPIN=   0.00000
  Li   0.3192588  -0.3898757   0.1651052 SPIN=   0.00000
  Li   0.3192588   0.3898757  -0.1651052 SPIN=   0.00000
  Fe  -0.1807436   0.1971006  -0.0579694 SPIN=   2.95834
  Fe  -0.1807436  -0.1971006   0.0579694 SPIN=   2.95834
  Fe   0.3056142   0.0420820  -0.3168768 SPIN=   5.04166
  Fe   0.3056142  -0.0420820   0.3168768 SPIN=   5.04166
   O   0.0387347   0.2545596   0.2374587 SPIN=   0.00000
   O  -0.4880229   0.3899734   0.3177519 SPIN=   0.00000
   O  -0.3074229   0.4325902   0.1356434 SPIN=   0.00000
   O   0.0336486   0.5537737   0.2923759 SPIN=   0.00000
   S  -0.1807656   0.4077242   0.2458075 SPIN=   0.00000
   O   0.0387347  -0.2545596  -0.2374587 SPIN=   0.00000
   O  -0.4880229  -0.3899734  -0.3177519 SPIN=   0.00000
   O  -0.3074229  -0.4325902  -0.1356434 SPIN=   0.00000
   O   0.0336486  -0.5537737  -0.2923759 SPIN=   0.00000
   S  -0.1807656  -0.4077242  -0.2458075 SPIN=   0.00000
   O  -0.0387858  -0.1175304   0.4391145 SPIN=   0.00000
   O  -0.5126876  -0.1583316   0.5643943 SPIN=   0.00000
   O  -0.0373343  -0.3598810   0.5347457 SPIN=   0.00000
   O  -0.4656413  -0.3386671   0.3917704 SPIN=   0.00000
   S  -0.2636122  -0.2436025   0.4825062 SPIN=   0.00000
   O  -0.0387858   0.1175304  -0.4391145 SPIN=   0.00000
   O  -0.5126876   0.1583316  -0.5643943 SPIN=   0.00000
   O  -0.0373343   0.3598810  -0.5347457 SPIN=   0.00000
   O  -0.4656413   0.3386671  -0.3917704 SPIN=   0.00000
   S  -0.2636122   0.2436025  -0.4825062 SPIN=   0.00000
   F  -0.2484642   0.0576533  -0.2346189 SPIN=   0.00000
   F  -0.2484642  -0.0576533   0.2346189 SPIN=   0.00000
   F   0.2519963  -0.2310179   0.0017805 SPIN=   0.00000
   F   0.2519963   0.2310179  -0.0017805 SPIN=   0.00000
%ENDBLOCK POSITIONS_FRAC

# Note: total spin =  16.00

KPOINTS_MP_SPACING 0.07

%BLOCK SPECIES_POT
QC5
%ENDBLOCK SPECIES_POT

SNAP_TO_SYMMETRY
SYMMETRY_GENERATE

