#              Generated by Buildcell
#
# at 07:15:39 (GMT+1.0) 4th August 2020
# in /lustre/scratch/uccabz1/launch_tmp
# on node-c12f-006
# by uccabz1
#
# compiler GCC version 4.9.2
# options -cpp -iprefix /lustre/shared/ucl/apps/gcc/4.9.2/bin/../lib/gcc/x86_64-unknown-linux-gnu/4.9.2/ -mtune=corei7 -march=x86-64 -g -Og
#
# seed -1186084246   782632234 -1853469342   634106428 -1200077323  1080200315  1752319803  -233288440   877361859   774452118  1930234189  1041062933
#
#      Author: C. J. Pickard (cjp20@cam.ac.uk)
#                Space group: Cc
#

%BLOCK LATTICE_ABC
      6.36378      8.63342      9.00634
    118.06769    109.96100     91.42439
%ENDBLOCK LATTICE_ABC

%BLOCK POSITIONS_FRAC
  Li   0.3215849   0.2442199   0.5913326 SPIN=   0.00000
  Li  -0.7697476  -0.3471127  -0.5913326 SPIN=   0.00000
  Li   0.3758232   0.0136260   0.1434642 SPIN=   0.00000
  Li  -0.2676410  -0.1298382  -0.1434642 SPIN=   0.00000
  Fe  -0.6058771  -0.3808196  -0.1304179 SPIN=   4.89110
  Fe   0.0245408  -0.2504017   0.1304179 SPIN=   4.89110
  Fe  -0.3530586  -0.2069290  -0.6141587 SPIN=   3.10890
  Fe   0.7611001   0.4072297   0.6141587 SPIN=   3.10890
   O   0.2521754   0.0333718  -0.0913969 SPIN=   0.00000
   O   0.1106048  -0.0620318  -0.4206715 SPIN=   0.00000
   O  -0.0823029  -0.2218624  -0.3189144 SPIN=   0.00000
   O   0.3055503  -0.2558799  -0.3115218 SPIN=   0.00000
   S   0.1465069  -0.1266006  -0.2856261 SPIN=   0.00000
   O  -0.1564277   0.1247687   0.0913969 SPIN=   0.00000
   O   0.0312763   0.3586397   0.4206715 SPIN=   0.00000
   O  -0.2633885   0.0970520   0.3189144 SPIN=   0.00000
   O   0.1170720   0.0556418   0.3115218 SPIN=   0.00000
   S  -0.0678670   0.1590255   0.2856261 SPIN=   0.00000
   O   0.4614351   0.5215143   0.1927791 SPIN=   0.00000
   O   0.4569584   0.4467109   0.4255099 SPIN=   0.00000
   O   0.5559215   0.2366270   0.1691826 SPIN=   0.00000
   O   0.1570606   0.2755608   0.1093042 SPIN=   0.00000
   S   0.4078439   0.3701033   0.2241940 SPIN=   0.00000
   O  -0.2313440   0.3287352  -0.1927791 SPIN=   0.00000
   O  -0.4685516   0.0212010  -0.4255099 SPIN=   0.00000
   O  -0.1132611   0.0674444  -0.1691826 SPIN=   0.00000
   O  -0.4522436   0.1662566  -0.1093042 SPIN=   0.00000
   S  -0.3163501   0.1459093  -0.2241940 SPIN=   0.00000
   F  -0.5839857  -0.1675584   0.2204560 SPIN=   0.00000
   F  -0.3044417  -0.3880144  -0.2204560 SPIN=   0.00000
   F  -0.0906297  -0.4448107  -0.7797869 SPIN=   0.00000
   F   0.1891572   0.3349762   0.7797869 SPIN=   0.00000
%ENDBLOCK POSITIONS_FRAC

# Note: total spin =  16.00

KPOINTS_MP_SPACING 0.07

%BLOCK SPECIES_POT
QC5
%ENDBLOCK SPECIES_POT

SNAP_TO_SYMMETRY
SYMMETRY_GENERATE

