#              Generated by Buildcell
#
# at 07:15:43 (GMT+1.0) 4th August 2020
# in /lustre/scratch/uccabz1/launch_tmp
# on node-c12f-024
# by uccabz1
#
# compiler GCC version 4.9.2
# options -cpp -iprefix /lustre/shared/ucl/apps/gcc/4.9.2/bin/../lib/gcc/x86_64-unknown-linux-gnu/4.9.2/ -mtune=corei7 -march=x86-64 -g -Og
#
# seed   981557185  1007556707   296548590  1290914199  -899792256 -1004085755  1333863033  -355268787   619996549   252794251 -1664425702   461765180
#
#      Author: C. J. Pickard (cjp20@cam.ac.uk)
#                Space group: Pna21
#

%BLOCK LATTICE_ABC
      3.93944      8.03362     12.63903
     90.00000     90.00000     90.00000
%ENDBLOCK LATTICE_ABC

%BLOCK POSITIONS_FRAC
  Li  -0.1438206   0.0678362  -0.1171544 SPIN=   0.00000
  Li   0.1438206  -0.4321638   0.1171544 SPIN=   0.00000
  Li  -0.3561794   0.0678362   0.3828456 SPIN=   0.00000
  Li   0.3561794  -0.4321638  -0.3828456 SPIN=   0.00000
  Fe   0.3264165   0.2367899  -0.2591909 SPIN=   4.00000
  Fe  -0.3264165  -0.2632101   0.2591909 SPIN=   4.00000
  Fe   0.1735835   0.2367899   0.2408091 SPIN=   4.00000
  Fe  -0.1735835  -0.2632101  -0.2408091 SPIN=   4.00000
   O   0.1746405   0.3469023  -0.3939902 SPIN=   0.00000
   O   0.1643505   0.3183452  -0.5889327 SPIN=   0.00000
   O  -0.3134615   0.4552371  -0.4962416 SPIN=   0.00000
   O  -0.2275261   0.1513194  -0.4786953 SPIN=   0.00000
   S  -0.0504992   0.3179510  -0.4894650 SPIN=   0.00000
   O  -0.1746405  -0.1530977   0.3939902 SPIN=   0.00000
   O  -0.1643505  -0.1816548   0.5889327 SPIN=   0.00000
   O   0.3134615  -0.0447629   0.4962416 SPIN=   0.00000
   O   0.2275261  -0.3486806   0.4786953 SPIN=   0.00000
   S   0.0504992  -0.1820490   0.4894650 SPIN=   0.00000
   O  -0.6746405   0.3469023   0.1060098 SPIN=   0.00000
   O  -0.6643505   0.3183452  -0.0889327 SPIN=   0.00000
   O  -0.1865385   0.4552371   0.0037584 SPIN=   0.00000
   O  -0.2724739   0.1513194   0.0213047 SPIN=   0.00000
   S  -0.4495008   0.3179510   0.0105350 SPIN=   0.00000
   O   0.6746405  -0.1530977  -0.1060098 SPIN=   0.00000
   O   0.6643505  -0.1816548   0.0889327 SPIN=   0.00000
   O   0.1865385  -0.0447629  -0.0037584 SPIN=   0.00000
   O   0.2724739  -0.3486806  -0.0213047 SPIN=   0.00000
   S   0.4495008  -0.1820490  -0.0105350 SPIN=   0.00000
   F  -0.2965085  -0.4948185   0.2641408 SPIN=   0.00000
   F   0.2965085   0.0051815  -0.2641408 SPIN=   0.00000
   F  -0.2034915  -0.4948185  -0.2358592 SPIN=   0.00000
   F   0.2034915   0.0051815   0.2358592 SPIN=   0.00000
%ENDBLOCK POSITIONS_FRAC

# Note: total spin =  16.00

KPOINTS_MP_SPACING 0.07

%BLOCK SPECIES_POT
QC5
%ENDBLOCK SPECIES_POT

SNAP_TO_SYMMETRY
SYMMETRY_GENERATE

