#              Generated by Buildcell
#
# at 08:30:50 (GMT+1.0) 4th August 2020
# in /lustre/scratch/uccabz1/launch_tmp
# on node-c12p-015
# by uccabz1
#
# compiler GCC version 4.9.2
# options -cpp -iprefix /lustre/shared/ucl/apps/gcc/4.9.2/bin/../lib/gcc/x86_64-unknown-linux-gnu/4.9.2/ -mtune=corei7 -march=x86-64 -g -Og
#
# seed -1831845120  1372433013    28430400  -428555657  2017412945 -2040277005   543981736 -1574376322  1459539607 -1641385901   686953770 -2127751399
#
#      Author: C. J. Pickard (cjp20@cam.ac.uk)
#                Space group: I-4
#

%BLOCK LATTICE_ABC
      5.41543      9.01081      9.01081
     84.81924     72.51258     72.51258
%ENDBLOCK LATTICE_ABC

%BLOCK POSITIONS_FRAC
  Li   0.0331436   0.2771783  -0.0875340 SPIN=   0.00000
  Li   0.2227879  -0.2771783   0.0875340 SPIN=   0.00000
  Li   0.0543904  -0.0875340  -0.2771783 SPIN=   0.00000
  Li  -0.3103219   0.0875340   0.2771783 SPIN=   0.00000
  Fe  -0.2010056   0.4241405   0.2223851 SPIN=   4.00000
  Fe   0.4455201  -0.4241405  -0.2223851 SPIN=   4.00000
  Fe  -0.0213796   0.2223851  -0.4241405 SPIN=   4.00000
  Fe  -0.2231349  -0.2223851   0.4241405 SPIN=   4.00000
   O  -0.7044961   0.0595589  -0.3756582 SPIN=   0.00000
   O  -0.2393567  -0.0952487  -0.3805924 SPIN=   0.00000
   O  -0.5778388   0.0018424  -0.1301420 SPIN=   0.00000
   O  -0.3946745   0.1861031  -0.3200297 SPIN=   0.00000
   S  -0.4790915   0.0380639  -0.3016056 SPIN=   0.00000
   O  -0.0205953  -0.0595589   0.3756582 SPIN=   0.00000
   O   0.2848022   0.0952487   0.3805924 SPIN=   0.00000
   O   0.2938616  -0.0018424   0.1301420 SPIN=   0.00000
   O   0.4713989  -0.1861031   0.3200297 SPIN=   0.00000
   S   0.2573668  -0.0380639   0.3016056 SPIN=   0.00000
   O   0.0801543  -0.3756582  -0.0595589 SPIN=   0.00000
   O  -0.3800509  -0.3805924   0.0952487 SPIN=   0.00000
   O  -0.2920192  -0.1301420  -0.0018424 SPIN=   0.00000
   O  -0.2852958  -0.3200297  -0.1861031 SPIN=   0.00000
   S  -0.2193029  -0.3016056  -0.0380639 SPIN=   0.00000
   O   0.6449371   0.3756582   0.0595589 SPIN=   0.00000
   O   0.3346055   0.3805924  -0.0952487 SPIN=   0.00000
   O   0.5759964   0.1301420   0.0018424 SPIN=   0.00000
   O   0.2085714   0.3200297   0.1861031 SPIN=   0.00000
   S   0.4410276   0.3016056   0.0380639 SPIN=   0.00000
   F  -0.0421603   0.3731599  -0.2889726 SPIN=   0.00000
   F   0.0420270  -0.3731599   0.2889726 SPIN=   0.00000
   F   0.3311329  -0.2889726  -0.3731599 SPIN=   0.00000
   F  -0.3309995   0.2889726   0.3731599 SPIN=   0.00000
%ENDBLOCK POSITIONS_FRAC

# Note: total spin =  16.00

KPOINTS_MP_SPACING 0.07

%BLOCK SPECIES_POT
QC5
%ENDBLOCK SPECIES_POT

SNAP_TO_SYMMETRY
SYMMETRY_GENERATE

