#              Generated by Buildcell
#
# at 10:57:52 (GMT+1.0) 4th August 2020
# in /lustre/scratch/uccabz1/launch_tmp
# on node-c12p-021
# by uccabz1
#
# compiler GCC version 4.9.2
# options -cpp -iprefix /lustre/shared/ucl/apps/gcc/4.9.2/bin/../lib/gcc/x86_64-unknown-linux-gnu/4.9.2/ -mtune=corei7 -march=x86-64 -g -Og
#
# seed  -170535208   451806567  -362453663   -35283973   126784342   799759189 -1901005666  1751150018     8611434  1050646782  1010032167  -303794796
#
#      Author: C. J. Pickard (cjp20@cam.ac.uk)
#                Space group: P-1
#

%BLOCK LATTICE_ABC
      5.19465      8.73584      9.66569
    113.52938     92.81852     93.65651
%ENDBLOCK LATTICE_ABC

%BLOCK POSITIONS_FRAC
  Li   0.2620968   0.0880905   0.1713737 SPIN=   0.00000
  Li  -0.2620968  -0.0880905  -0.1713737 SPIN=   0.00000
  Li   0.4573553   0.4808017  -0.3233378 SPIN=   0.00000
  Li  -0.4573553  -0.4808017   0.3233378 SPIN=   0.00000
  Fe   0.2306739   0.0573996  -0.2479953 SPIN=   6.63559
  Fe  -0.2306739  -0.0573996   0.2479953 SPIN=   6.63559
  Fe  -0.1649981   0.2641418   0.0855697 SPIN=   1.36441
  Fe   0.1649981  -0.2641418  -0.0855697 SPIN=   1.36441
   O  -0.3137243  -0.3171688  -0.4223707 SPIN=   0.00000
   O  -0.4502472  -0.0366468  -0.3800003 SPIN=   0.00000
   O  -0.3771988  -0.2359536  -0.6385734 SPIN=   0.00000
   O  -0.0055410  -0.1037327  -0.4478623 SPIN=   0.00000
   S  -0.2866778  -0.1733755  -0.4722017 SPIN=   0.00000
   O   0.3137243   0.3171688   0.4223707 SPIN=   0.00000
   O   0.4502472   0.0366468   0.3800003 SPIN=   0.00000
   O   0.3771988   0.2359536   0.6385734 SPIN=   0.00000
   O   0.0055410   0.1037327   0.4478623 SPIN=   0.00000
   S   0.2866778   0.1733755   0.4722017 SPIN=   0.00000
   O  -0.1078584  -0.4492009   0.1338157 SPIN=   0.00000
   O   0.2057658  -0.2030951   0.1875073 SPIN=   0.00000
   O   0.3609452  -0.4836013   0.1230376 SPIN=   0.00000
   O   0.1822955  -0.3365905   0.3698439 SPIN=   0.00000
   S   0.1602870  -0.3681220   0.2035511 SPIN=   0.00000
   O   0.1078584   0.4492009  -0.1338157 SPIN=   0.00000
   O  -0.2057658   0.2030951  -0.1875073 SPIN=   0.00000
   O  -0.3609452   0.4836013  -0.1230376 SPIN=   0.00000
   O  -0.1822955   0.3365905  -0.3698439 SPIN=   0.00000
   S  -0.1602870   0.3681220  -0.2035511 SPIN=   0.00000
   F   0.2090438  -0.3433456  -0.3165193 SPIN=   0.00000
   F  -0.2090438   0.3433456   0.3165193 SPIN=   0.00000
   F  -0.2421584  -0.1729162   0.0183117 SPIN=   0.00000
   F   0.2421584   0.1729162  -0.0183117 SPIN=   0.00000
%ENDBLOCK POSITIONS_FRAC

# Note: total spin =  16.00

KPOINTS_MP_SPACING 0.07

%BLOCK SPECIES_POT
QC5
%ENDBLOCK SPECIES_POT

SNAP_TO_SYMMETRY
SYMMETRY_GENERATE

