#              Generated by Buildcell
#
# at 07:28:13 (GMT+1.0) 4th August 2020
# in /lustre/scratch/uccabz1/launch_tmp
# on node-c12d-014
# by uccabz1
#
# compiler GCC version 4.9.2
# options -cpp -iprefix /lustre/shared/ucl/apps/gcc/4.9.2/bin/../lib/gcc/x86_64-unknown-linux-gnu/4.9.2/ -mtune=corei7 -march=x86-64 -g -Og
#
# seed  2108650875  -976674444  -149200891 -1101623617   290885409    13808088  1804166462 -1182448540  -360657175 -1163526015 -2134359318 -1542971987
#
#      Author: C. J. Pickard (cjp20@cam.ac.uk)
#                Space group: C2
#

%BLOCK LATTICE_ABC
      6.69618      8.68617      8.68617
    104.39961    110.67533    110.67533
%ENDBLOCK LATTICE_ABC

%BLOCK POSITIONS_FRAC
  Li   0.5000000  -0.1521541   0.1521541 SPIN=   0.00000
  Li  -0.5000000  -0.4409614   0.4409614 SPIN=   0.00000
  Li  -0.0000000  -0.3159987   0.3159987 SPIN=   0.00000
  Li   0.5000000   0.1758646  -0.1758646 SPIN=   0.00000
  Fe   0.4200716   0.1744997   0.1496552 SPIN=   3.57511
  Fe  -0.4200716  -0.1496552  -0.1744997 SPIN=   3.57511
  Fe   1.1136243   0.2727278   0.4754579 SPIN=   4.42489
  Fe  -1.1136243  -0.4754579  -0.2727278 SPIN=   4.42489
   O  -0.3333374  -0.5346291  -0.1571521 SPIN=   0.00000
   O  -0.6419354  -0.4500788  -0.1352857 SPIN=   0.00000
   O  -0.2191368  -0.2820421   0.1215394 SPIN=   0.00000
   O  -0.4915473  -0.5997136   0.0504045 SPIN=   0.00000
   S  -0.4214892  -0.4666159  -0.0301235 SPIN=   0.00000
   O   0.3333374   0.1571521   0.5346291 SPIN=   0.00000
   O   0.6419354   0.1352857   0.4500788 SPIN=   0.00000
   O   0.2191368  -0.1215394   0.2820421 SPIN=   0.00000
   O   0.4915473  -0.0504045   0.5997136 SPIN=   0.00000
   S   0.4214892   0.0301235   0.4666159 SPIN=   0.00000
   O  -0.1355404  -0.2072494  -0.2686369 SPIN=   0.00000
   O   0.1693918   0.1178870  -0.1368204 SPIN=   0.00000
   O  -0.1803517  -0.0286531  -0.4480125 SPIN=   0.00000
   S   0.0009867  -0.0567876  -0.3101227 SPIN=   0.00000
   O   0.1355404   0.2686369   0.2072494 SPIN=   0.00000
   O  -0.1693918   0.1368204  -0.1178870 SPIN=   0.00000
   O   0.1803517   0.4480125   0.0286531 SPIN=   0.00000
   S  -0.0009867   0.3101227   0.0567876 SPIN=   0.00000
   O   0.0000000   0.2793175  -0.2793175 SPIN=   0.00000
   O   0.5000000  -0.2959785   0.2959785 SPIN=   0.00000
   F  -0.6537357  -0.3688953  -0.4209249 SPIN=   0.00000
   F   0.6537357   0.4209249   0.3688953 SPIN=   0.00000
   F  -0.1576364   0.0275023   0.2854424 SPIN=   0.00000
   F   0.1576364  -0.2854424  -0.0275023 SPIN=   0.00000
%ENDBLOCK POSITIONS_FRAC

# Note: total spin =  16.00

KPOINTS_MP_SPACING 0.07

%BLOCK SPECIES_POT
QC5
%ENDBLOCK SPECIES_POT

SNAP_TO_SYMMETRY
SYMMETRY_GENERATE

