#              Generated by Buildcell
#
# at 08:40:26 (GMT+1.0) 4th August 2020
# in /lustre/scratch/uccabz1/launch_tmp
# on node-c12k-034
# by uccabz1
#
# compiler GCC version 4.9.2
# options -cpp -iprefix /lustre/shared/ucl/apps/gcc/4.9.2/bin/../lib/gcc/x86_64-unknown-linux-gnu/4.9.2/ -mtune=corei7 -march=x86-64 -g -Og
#
# seed -1562155785 -1313762849  -300262523  1664718536  1637275547  -105014917  -989673288  -999582667   494402825 -2123056580 -1212290645 -1475734435
#
#      Author: C. J. Pickard (cjp20@cam.ac.uk)
#                Space group: C2/c
#

%BLOCK LATTICE_ABC
      4.07371     10.03018     10.03018
     84.94250     81.52174     81.52174
%ENDBLOCK LATTICE_ABC

%BLOCK POSITIONS_FRAC
  Li  -0.8288884   0.3941773   0.1516937 SPIN=   0.00000
  Li   0.3288884  -0.1516937  -0.3941773 SPIN=   0.00000
  Li   0.8288884  -0.3941773  -0.1516937 SPIN=   0.00000
  Li  -0.3288884   0.1516937   0.3941773 SPIN=   0.00000
  Fe   0.5714680   0.0084171  -0.2123240 SPIN=   4.00000
  Fe  -0.0714680   0.2123240  -0.0084171 SPIN=   4.00000
  Fe  -0.5714680  -0.0084171   0.2123240 SPIN=   4.00000
  Fe   0.0714680  -0.2123240   0.0084171 SPIN=   4.00000
   O   0.2930337  -0.2872189   0.4522404 SPIN=   0.00000
   O  -0.2080968  -0.3968075   0.5413434 SPIN=   0.00000
   O  -0.2408536  -0.2127456   0.3604904 SPIN=   0.00000
   O  -0.1843451  -0.1617304   0.5923374 SPIN=   0.00000
   S  -0.0850654  -0.2646256   0.4866029 SPIN=   0.00000
   O   0.2069663  -0.4522404   0.2872189 SPIN=   0.00000
   O   0.7080968  -0.5413434   0.3968075 SPIN=   0.00000
   O   0.7408536  -0.3604904   0.2127456 SPIN=   0.00000
   O   0.6843451  -0.5923374   0.1617304 SPIN=   0.00000
   S   0.5850654  -0.4866029   0.2646256 SPIN=   0.00000
   O  -0.2930337   0.2872189  -0.4522404 SPIN=   0.00000
   O   0.2080968   0.3968075  -0.5413434 SPIN=   0.00000
   O   0.2408536   0.2127456  -0.3604904 SPIN=   0.00000
   O   0.1843451   0.1617304  -0.5923374 SPIN=   0.00000
   S   0.0850654   0.2646256  -0.4866029 SPIN=   0.00000
   O  -0.2069663   0.4522404  -0.2872189 SPIN=   0.00000
   O  -0.7080968   0.5413434  -0.3968075 SPIN=   0.00000
   O  -0.7408536   0.3604904  -0.2127456 SPIN=   0.00000
   O  -0.6843451   0.5923374  -0.1617304 SPIN=   0.00000
   S  -0.5850654   0.4866029  -0.2646256 SPIN=   0.00000
   F   0.6001469  -0.2648401  -0.0211894 SPIN=   0.00000
   F  -0.1001469   0.0211894   0.2648401 SPIN=   0.00000
   F  -0.6001469   0.2648401   0.0211894 SPIN=   0.00000
   F   0.1001469  -0.0211894  -0.2648401 SPIN=   0.00000
%ENDBLOCK POSITIONS_FRAC

# Note: total spin =  16.00

KPOINTS_MP_SPACING 0.07

%BLOCK SPECIES_POT
QC5
%ENDBLOCK SPECIES_POT

SNAP_TO_SYMMETRY
SYMMETRY_GENERATE

