#              Generated by Buildcell
#
# at 06:40:34 (GMT+1.0) 4th August 2020
# in /lustre/scratch/uccabz1/launch_tmp
# on node-c12h-014
# by uccabz1
#
# compiler GCC version 4.9.2
# options -cpp -iprefix /lustre/shared/ucl/apps/gcc/4.9.2/bin/../lib/gcc/x86_64-unknown-linux-gnu/4.9.2/ -mtune=corei7 -march=x86-64 -g -Og
#
# seed   870309423 -1289433975  1243288302   159385742   561171165  1605192514  1667236862  1770424184   107360113  -136466904 -1143225937  -575620035
#
#      Author: C. J. Pickard (cjp20@cam.ac.uk)
#                Space group: P21/c
#

%BLOCK LATTICE_ABC
      4.60519      8.99934     10.59586
    114.37144     90.00000     90.00000
%ENDBLOCK LATTICE_ABC

%BLOCK POSITIONS_FRAC
  Li   0.2630671   0.0121456   0.3282032 SPIN=   0.00000
  Li  -0.2369329   0.4878544  -0.3282032 SPIN=   0.00000
  Li  -0.2630671  -0.0121456  -0.3282032 SPIN=   0.00000
  Li   0.2369329  -0.4878544   0.3282032 SPIN=   0.00000
  Fe   0.2152414  -0.2640452  -0.3604018 SPIN=   4.00000
  Fe  -0.2847586  -0.2359548   0.3604018 SPIN=   4.00000
  Fe  -0.2152414   0.2640452   0.3604018 SPIN=   4.00000
  Fe   0.2847586   0.2359548  -0.3604018 SPIN=   4.00000
   O  -0.1473900   0.1407878  -0.1445676 SPIN=   0.00000
   O  -0.1528394   0.4250523   0.0337041 SPIN=   0.00000
   O  -0.5566216   0.3236022  -0.1345062 SPIN=   0.00000
   O  -0.0719985   0.3701297  -0.2125140 SPIN=   0.00000
   S  -0.2322124   0.3148930  -0.1144709 SPIN=   0.00000
   O   0.3526100   0.3592122   0.1445676 SPIN=   0.00000
   O   0.3471606   0.0749477  -0.0337041 SPIN=   0.00000
   O  -0.0566216   0.1763978   0.1345062 SPIN=   0.00000
   O   0.4280015   0.1298703   0.2125140 SPIN=   0.00000
   S   0.2677876   0.1851070   0.1144709 SPIN=   0.00000
   O   0.1473900  -0.1407878   0.1445676 SPIN=   0.00000
   O   0.1528394  -0.4250523  -0.0337041 SPIN=   0.00000
   O   0.5566216  -0.3236022   0.1345062 SPIN=   0.00000
   O   0.0719985  -0.3701297   0.2125140 SPIN=   0.00000
   S   0.2322124  -0.3148930   0.1144709 SPIN=   0.00000
   O  -0.3526100  -0.3592122  -0.1445676 SPIN=   0.00000
   O  -0.3471606  -0.0749477   0.0337041 SPIN=   0.00000
   O   0.0566216  -0.1763978  -0.1345062 SPIN=   0.00000
   O  -0.4280015  -0.1298703  -0.2125140 SPIN=   0.00000
   S  -0.2677876  -0.1851070  -0.1144709 SPIN=   0.00000
   F   0.2397639   0.4840917  -0.3463395 SPIN=   0.00000
   F  -0.2602361   0.0159083   0.3463395 SPIN=   0.00000
   F  -0.2397639  -0.4840917   0.3463395 SPIN=   0.00000
   F   0.2602361  -0.0159083  -0.3463395 SPIN=   0.00000
%ENDBLOCK POSITIONS_FRAC

# Note: total spin =  16.00

KPOINTS_MP_SPACING 0.07

%BLOCK SPECIES_POT
QC5
%ENDBLOCK SPECIES_POT

SNAP_TO_SYMMETRY
SYMMETRY_GENERATE

