#              Generated by Buildcell
#
# at 07:21:27 (GMT+1.0) 4th August 2020
# in /lustre/scratch/uccabz1/launch_tmp
# on node-c12p-024
# by uccabz1
#
# compiler GCC version 4.9.2
# options -cpp -iprefix /lustre/shared/ucl/apps/gcc/4.9.2/bin/../lib/gcc/x86_64-unknown-linux-gnu/4.9.2/ -mtune=corei7 -march=x86-64 -g -Og
#
# seed  -912098052  -303702774   -38012142  1584396849  -763063120  -306482674 -1202164729   667514496  1291346949 -2013619673   214585135  1049481689
#
#      Author: C. J. Pickard (cjp20@cam.ac.uk)
#                Space group: Aem2
#

%BLOCK LATTICE_ABC
      3.87459     10.23733     10.23733
     99.91800     90.00000     90.00000
%ENDBLOCK LATTICE_ABC

%BLOCK POSITIONS_FRAC
  Li  -0.3277430  -0.1449157   0.1153950 SPIN=   0.00000
  Li   0.3277430   0.1153950  -0.1449157 SPIN=   0.00000
  Li  -0.3277430  -0.3846050   0.3550843 SPIN=   0.00000
  Li   0.3277430   0.3550843  -0.3846050 SPIN=   0.00000
  Fe   0.3281486  -0.4525575   0.0474425 SPIN=   5.98461
  Fe  -0.3281486   0.0474425  -0.4525575 SPIN=   5.98461
  Fe   0.0000000  -0.1452967  -0.1452967 SPIN=   2.01539
  Fe  -0.0000000   0.3547033   0.3547033 SPIN=   2.01539
   O   0.2500212  -0.0088111   0.0722679 SPIN=   0.00000
   O   0.2500227   0.1790779   0.2601545 SPIN=   0.00000
   O   0.7712974   0.0393761   0.2119687 SPIN=   0.00000
   O   0.2492508  -0.0515983   0.3029455 SPIN=   0.00000
   O  -0.2500212   0.0722679  -0.0088111 SPIN=   0.00000
   O  -0.2500227   0.2601545   0.1790779 SPIN=   0.00000
   O  -0.7712974   0.2119687   0.0393761 SPIN=   0.00000
   O  -0.2492508   0.3029455  -0.0515983 SPIN=   0.00000
   O   0.2500212  -0.4277321  -0.5088111 SPIN=   0.00000
   O   0.2500227  -0.2398455  -0.3209221 SPIN=   0.00000
   O   0.7712974  -0.2880313  -0.4606239 SPIN=   0.00000
   O   0.2492508  -0.1970545  -0.5515983 SPIN=   0.00000
   O  -0.2500212  -0.5088111  -0.4277321 SPIN=   0.00000
   O  -0.2500227  -0.3209221  -0.2398455 SPIN=   0.00000
   O  -0.7712974  -0.4606239  -0.2880313 SPIN=   0.00000
   O  -0.2492508  -0.5515983  -0.1970545 SPIN=   0.00000
   S  -0.1147890   0.3159326  -0.1840674 SPIN=   0.00000
   S   0.1147890  -0.1840674   0.3159326 SPIN=   0.00000
   S  -0.0000000   0.1047023   0.1047023 SPIN=   0.00000
   S   0.0000000  -0.3952977  -0.3952977 SPIN=   0.00000
   F   0.3369926  -0.2893111  -0.0463927 SPIN=   0.00000
   F  -0.3369926  -0.0463927  -0.2893111 SPIN=   0.00000
   F   0.3369926   0.4536073   0.2106889 SPIN=   0.00000
   F  -0.3369926   0.2106889   0.4536073 SPIN=   0.00000
%ENDBLOCK POSITIONS_FRAC

# Note: total spin =  16.00

KPOINTS_MP_SPACING 0.07

%BLOCK SPECIES_POT
QC5
%ENDBLOCK SPECIES_POT

SNAP_TO_SYMMETRY
SYMMETRY_GENERATE

