#              Generated by Buildcell
#
# at 09:09:14 (GMT+1.0) 4th August 2020
# in /lustre/scratch/uccabz1/launch_tmp
# on node-c12d-005
# by uccabz1
#
# compiler GCC version 4.9.2
# options -cpp -iprefix /lustre/shared/ucl/apps/gcc/4.9.2/bin/../lib/gcc/x86_64-unknown-linux-gnu/4.9.2/ -mtune=corei7 -march=x86-64 -g -Og
#
# seed  1638990685 -1482562692  -179839215  -590139456  1881206245   698335438 -1285896487  -881424595 -2033954942  1526883201 -2116949223   288600305
#
#      Author: C. J. Pickard (cjp20@cam.ac.uk)
#                Space group: Pc
#

%BLOCK LATTICE_ABC
      4.04527      9.06419     10.91970
     92.54033     90.00000     90.00000
%ENDBLOCK LATTICE_ABC

%BLOCK POSITIONS_FRAC
  Li   0.4444693   0.2879019   0.3337838 SPIN=   0.00000
  Li  -0.4444693  -0.2120981   0.3337838 SPIN=   0.00000
  Li   0.0621388  -0.0665385  -0.3900468 SPIN=   0.00000
  Li  -0.0621388   0.4334615  -0.3900468 SPIN=   0.00000
  Fe   0.0555284  -0.4341007   0.3764523 SPIN=   3.70004
  Fe  -0.0555284   0.0658993   0.3764523 SPIN=   3.70004
  Fe  -0.4378687  -0.2936201  -0.3666797 SPIN=   4.29996
  Fe   0.4378687   0.2063799  -0.3666797 SPIN=   4.29996
   O  -0.6038635  -0.0378335   0.0038630 SPIN=   0.00000
   O  -0.2660929  -0.1051803   0.1819143 SPIN=   0.00000
   O  -0.5943512   0.1254507   0.1915845 SPIN=   0.00000
   O  -0.0996545   0.1050154   0.0585662 SPIN=   0.00000
   S  -0.3909905   0.0218631   0.1089820 SPIN=   0.00000
   O   0.6038635  -0.5378335   0.0038630 SPIN=   0.00000
   O   0.2660929  -0.6051803   0.1819143 SPIN=   0.00000
   O   0.5943512  -0.3745493   0.1915845 SPIN=   0.00000
   O   0.0996545  -0.3949846   0.0585662 SPIN=   0.00000
   S   0.3909905  -0.4781369   0.1089820 SPIN=   0.00000
   O  -0.1029559  -0.3216949  -0.2136342 SPIN=   0.00000
   O   0.1754484  -0.0783266  -0.2041352 SPIN=   0.00000
   O   0.4137445  -0.2865759  -0.0945317 SPIN=   0.00000
   O  -0.1047261  -0.1684375  -0.0203401 SPIN=   0.00000
   S   0.0953777  -0.2137587  -0.1331603 SPIN=   0.00000
   O   0.1029559   0.1783051  -0.2136342 SPIN=   0.00000
   O  -0.1754484   0.4216734  -0.2041352 SPIN=   0.00000
   O  -0.4137445   0.2134241  -0.0945317 SPIN=   0.00000
   O   0.1047261   0.3315625  -0.0203401 SPIN=   0.00000
   S  -0.0953777   0.2862413  -0.1331603 SPIN=   0.00000
   F  -0.4067888   0.0074917  -0.3759269 SPIN=   0.00000
   F   0.4067888  -0.4925083  -0.3759269 SPIN=   0.00000
   F  -0.0768428   0.2779411   0.3840463 SPIN=   0.00000
   F   0.0768428  -0.2220589   0.3840463 SPIN=   0.00000
%ENDBLOCK POSITIONS_FRAC

# Note: total spin =  16.00

KPOINTS_MP_SPACING 0.07

%BLOCK SPECIES_POT
QC5
%ENDBLOCK SPECIES_POT

SNAP_TO_SYMMETRY
SYMMETRY_GENERATE

