#              Generated by Buildcell
#
# at 03:03:55 (GMT+1.0) 18th August 2020
# in /lustre/scratch/uccabz1/launch_tmp
# on node-c12k-008
# by uccabz1
#
# compiler GCC version 4.9.2
# options -cpp -iprefix /lustre/shared/ucl/apps/gcc/4.9.2/bin/../lib/gcc/x86_64-unknown-linux-gnu/4.9.2/ -mtune=corei7 -march=x86-64 -g -Og
#
# seed -1190404040   691032719   -85366552  -723591254  1720843091 -1992129492  -950964554 -2102431956 -1712048002 -1541683848 -1926136562 -1579800268
#
#      Author: C. J. Pickard (cjp20@cam.ac.uk)
#                Space group: C2
#

%BLOCK LATTICE_ABC
      4.93077      6.87622     13.07039
    103.77794     90.00000    111.01044
%ENDBLOCK LATTICE_ABC

%BLOCK POSITIONS_FRAC
  Li   0.3343428   0.2822919  -0.3648955 SPIN=   0.00000
  Li   0.0520509  -0.2822919   0.3648955 SPIN=   0.00000
  Li  -0.4499596  -0.2826560   0.1559936 SPIN=   0.00000
  Li  -0.1673035   0.2826560  -0.1559936 SPIN=   0.00000
  Fe  -0.0557933  -0.4984132  -0.3938911 SPIN=   1.08952
  Fe   0.4426199   0.4984132   0.3938911 SPIN=   1.08952
  Fe  -0.2784837   0.0544436   0.3612566 SPIN=   6.91048
  Fe  -0.3329273  -0.0544436  -0.3612566 SPIN=   6.91048
   O   0.2302702  -0.1051479   0.2567738 SPIN=   0.00000
   O   0.3650638   0.2750245   0.2512353 SPIN=   0.00000
   O  -0.1001777  -0.0006379   0.1578566 SPIN=   0.00000
   O   0.3691238   0.0004185   0.0903176 SPIN=   0.00000
   S   0.2160701   0.0424143   0.1890458 SPIN=   0.00000
   O   0.3354181   0.1051479  -0.2567738 SPIN=   0.00000
   O   0.0900394  -0.2750245  -0.2512353 SPIN=   0.00000
   O  -0.0995397   0.0006379  -0.1578566 SPIN=   0.00000
   O   0.3687053  -0.0004185  -0.0903176 SPIN=   0.00000
   S   0.1736558  -0.0424143  -0.1890458 SPIN=   0.00000
   O   0.5919594  -0.3747016  -0.2014363 SPIN=   0.00000
   O   0.6792380  -0.2448694  -0.0063366 SPIN=   0.00000
   O   0.4906205  -0.6361766  -0.0916723 SPIN=   0.00000
   O   0.1741259  -0.4267715  -0.0922210 SPIN=   0.00000
   S   0.4839860  -0.4206298  -0.0979166 SPIN=   0.00000
   O  -0.0333390   0.3747016   0.2014363 SPIN=   0.00000
   O  -0.0758926   0.2448694   0.0063366 SPIN=   0.00000
   O   0.1267971   0.6361766   0.0916723 SPIN=   0.00000
   O  -0.3991025   0.4267715   0.0922210 SPIN=   0.00000
   S  -0.0953843   0.4206298   0.0979166 SPIN=   0.00000
   F   0.3839840   0.2801959   0.4774204 SPIN=   0.00000
   F   0.1037881  -0.2801959  -0.4774204 SPIN=   0.00000
   F  -0.1140278   0.2848171  -0.3131603 SPIN=   0.00000
   F  -0.3988449  -0.2848171   0.3131603 SPIN=   0.00000
%ENDBLOCK POSITIONS_FRAC

# Note: total spin =  16.00

KPOINTS_MP_SPACING 0.07

%BLOCK SPECIES_POT
QC5
%ENDBLOCK SPECIES_POT

SNAP_TO_SYMMETRY
SYMMETRY_GENERATE

