#              Generated by Buildcell
#
# at 10:04:29 (GMT+1.0) 4th August 2020
# in /lustre/scratch/uccabz1/launch_tmp
# on node-c12d-012
# by uccabz1
#
# compiler GCC version 4.9.2
# options -cpp -iprefix /lustre/shared/ucl/apps/gcc/4.9.2/bin/../lib/gcc/x86_64-unknown-linux-gnu/4.9.2/ -mtune=corei7 -march=x86-64 -g -Og
#
# seed   416046233 -1563232092  1879376793  -227678681  1927884033   331140221   107137929  1858646750   712432278  -961660821 -2110233652  1862911962
#
#      Author: C. J. Pickard (cjp20@cam.ac.uk)
#                Space group: C2
#

%BLOCK LATTICE_ABC
      6.71410      7.19617      9.60314
    105.70776    103.77843    107.29850
%ENDBLOCK LATTICE_ABC

%BLOCK POSITIONS_FRAC
  Li   0.0961568   0.2626219  -0.0392484 SPIN=   0.00000
  Li  -0.1354052  -0.3018703  -0.0392484 SPIN=   0.00000
  Li   0.1764836   0.0070710  -0.4236081 SPIN=   0.00000
  Li   0.3999083  -0.4306791  -0.4236081 SPIN=   0.00000
  Fe  -0.0180531   0.3764735   0.2693237 SPIN=   3.53315
  Fe   0.2873768  -0.1071499   0.2693237 SPIN=   3.53315
  Fe  -0.2545318   0.0444786  -0.3685909 SPIN=   4.46685
  Fe  -0.1140590  -0.4130694  -0.3685909 SPIN=   4.46685
   O   0.3306069   0.4164231   0.1742489 SPIN=   0.00000
   O   0.3438418   0.2065887   0.3397250 SPIN=   0.00000
   O   0.5928962   0.5811262   0.4435839 SPIN=   0.00000
   O   0.6563772   0.3232408   0.2477434 SPIN=   0.00000
   S   0.4809305   0.3818447   0.3013253 SPIN=   0.00000
   O  -0.1563580  -0.2421742   0.1742489 SPIN=   0.00000
   O  -0.0041168   0.1331363   0.3397250 SPIN=   0.00000
   O  -0.1493123  -0.1375423   0.4435839 SPIN=   0.00000
   O  -0.4086338  -0.0754974   0.2477434 SPIN=   0.00000
   S  -0.1796052  -0.0805194   0.3013253 SPIN=   0.00000
   O   0.2793377  -0.4971751  -0.2083721 SPIN=   0.00000
   O   0.1742253  -0.1940464  -0.1266085 SPIN=   0.00000
   O   0.5555192  -0.1654411  -0.0017199 SPIN=   0.00000
   O   0.2388014  -0.3853783   0.0472194 SPIN=   0.00000
   S   0.3119709  -0.3105102  -0.0723703 SPIN=   0.00000
   O  -0.4877098   0.2888030  -0.2083721 SPIN=   0.00000
   O  -0.3008338   0.0674379  -0.1266085 SPIN=   0.00000
   O  -0.5572391   0.1637212  -0.0017199 SPIN=   0.00000
   O  -0.1915820   0.4325976   0.0472194 SPIN=   0.00000
   S  -0.3843412   0.2381399  -0.0723703 SPIN=   0.00000
   F   0.0822242  -0.4926006  -0.4786014 SPIN=   0.00000
   F   0.4391744   0.0139991  -0.4786014 SPIN=   0.00000
   F   0.0652969   0.1128557  -0.2622133 SPIN=   0.00000
   F  -0.3275103  -0.3750691  -0.2622133 SPIN=   0.00000
%ENDBLOCK POSITIONS_FRAC

# Note: total spin =  16.00

KPOINTS_MP_SPACING 0.07

%BLOCK SPECIES_POT
QC5
%ENDBLOCK SPECIES_POT

SNAP_TO_SYMMETRY
SYMMETRY_GENERATE

