#              Generated by Buildcell
#
# at 06:46:59 (GMT+1.0) 4th August 2020
# in /lustre/scratch/uccabz1/launch_tmp
# on node-c12c-001
# by uccabz1
#
# compiler GCC version 4.9.2
# options -cpp -iprefix /lustre/shared/ucl/apps/gcc/4.9.2/bin/../lib/gcc/x86_64-unknown-linux-gnu/4.9.2/ -mtune=corei7 -march=x86-64 -g -Og
#
# seed     3791155  1291153895    41529463  -620586794  -759287021  1021836049  1047797584  -741161203   675373551  1530944637 -1917125593  -501998789
#
#      Author: C. J. Pickard (cjp20@cam.ac.uk)
#                Space group: P21
#

%BLOCK LATTICE_ABC
      3.95370      9.69378     10.58706
     90.00000     90.00000     99.66804
%ENDBLOCK LATTICE_ABC

%BLOCK POSITIONS_FRAC
  Li   0.7747761   0.4794527  -0.0446270 SPIN=   0.00000
  Li  -0.7747761  -0.4794527   0.4553730 SPIN=   0.00000
  Li  -0.0944690   0.0454245   0.0833558 SPIN=   0.00000
  Li   0.0944690  -0.0454245  -0.4166442 SPIN=   0.00000
  Fe   0.4245728   0.4400207   0.1967364 SPIN=   5.18099
  Fe  -0.4245728  -0.4400207  -0.3032636 SPIN=   5.18099
  Fe  -0.2405368   0.1958486  -0.4567901 SPIN=   2.81901
  Fe   0.2405368  -0.1958486   0.0432099 SPIN=   2.81901
   O  -0.0940540  -0.2120908   0.2408343 SPIN=   0.00000
   O  -0.1060794  -0.2135145   0.4745557 SPIN=   0.00000
   O  -0.1873830  -0.4370761   0.3566163 SPIN=   0.00000
   O  -0.6409618  -0.2895017   0.3538379 SPIN=   0.00000
   S  -0.2571195  -0.2880458   0.3564610 SPIN=   0.00000
   O   0.0940540   0.2120908  -0.2591657 SPIN=   0.00000
   O   0.1060794   0.2135145  -0.0254443 SPIN=   0.00000
   O   0.1873830   0.4370761  -0.1433837 SPIN=   0.00000
   O   0.6409618   0.2895017  -0.1461621 SPIN=   0.00000
   S   0.2571195   0.2880458  -0.1435390 SPIN=   0.00000
   O   0.2415979   0.1682894   0.1996381 SPIN=   0.00000
   O   0.4921408  -0.0485770   0.1847502 SPIN=   0.00000
   O   0.1445481  -0.0074249   0.3711183 SPIN=   0.00000
   O   0.7205699   0.1340582   0.3402994 SPIN=   0.00000
   S   0.3997142   0.0615864   0.2739515 SPIN=   0.00000
   O  -0.2415979  -0.1682894  -0.3003619 SPIN=   0.00000
   O  -0.4921408   0.0485770  -0.3152498 SPIN=   0.00000
   O  -0.1445481   0.0074249  -0.1288817 SPIN=   0.00000
   O  -0.7205699  -0.1340582  -0.1597006 SPIN=   0.00000
   S  -0.3997142  -0.0615864  -0.2260485 SPIN=   0.00000
   F   0.4840351   0.3463107  -0.4938607 SPIN=   0.00000
   F  -0.4840351  -0.3463107   0.0061393 SPIN=   0.00000
   F  -0.1047032   0.3895843   0.1546503 SPIN=   0.00000
   F   0.1047032  -0.3895843  -0.3453497 SPIN=   0.00000
%ENDBLOCK POSITIONS_FRAC

# Note: total spin =  16.00

KPOINTS_MP_SPACING 0.07

%BLOCK SPECIES_POT
QC5
%ENDBLOCK SPECIES_POT

SNAP_TO_SYMMETRY
SYMMETRY_GENERATE

