#              Generated by Buildcell
#
# at 08:51:21 (GMT+1.0) 4th August 2020
# in /lustre/scratch/uccabz1/launch_tmp
# on node-c12d-013
# by uccabz1
#
# compiler GCC version 4.9.2
# options -cpp -iprefix /lustre/shared/ucl/apps/gcc/4.9.2/bin/../lib/gcc/x86_64-unknown-linux-gnu/4.9.2/ -mtune=corei7 -march=x86-64 -g -Og
#
# seed   987260133  -708386031   989774973  -235142488   134452760   909449996  1036494644  -903825682  1002122098 -1084532899 -1208842385   215464951
#
#      Author: C. J. Pickard (cjp20@cam.ac.uk)
#                Space group: Pc
#

%BLOCK LATTICE_ABC
      5.85404      7.99955      8.62585
     98.01491     90.00000     90.00000
%ENDBLOCK LATTICE_ABC

%BLOCK POSITIONS_FRAC
  Li   0.2520499   0.2366188   0.3946716 SPIN=   0.00000
  Li  -0.2520499  -0.2633812  -0.1053284 SPIN=   0.00000
  Li   0.0252964   0.2097800  -0.2327266 SPIN=   0.00000
  Li  -0.0252964  -0.2902200   0.2672734 SPIN=   0.00000
  Fe  -0.3143294   0.4181084   0.3326093 SPIN=   6.12109
  Fe   0.3143294  -0.0818916  -0.1673907 SPIN=   6.12109
  Fe  -0.4171133   0.3785817  -0.1331550 SPIN=   1.87891
  Fe   0.4171133  -0.1214183   0.3668450 SPIN=   1.87891
   O   0.0635885  -0.0498218  -0.3382049 SPIN=   0.00000
   O  -0.2915762  -0.0200952  -0.4875780 SPIN=   0.00000
   O  -0.3107702  -0.0384889  -0.2038370 SPIN=   0.00000
   O  -0.2048740  -0.2900530  -0.3905875 SPIN=   0.00000
   S  -0.1859080  -0.0996147  -0.3550519 SPIN=   0.00000
   O  -0.0635885   0.4501782   0.1617951 SPIN=   0.00000
   O   0.2915762   0.4799048   0.0124220 SPIN=   0.00000
   O   0.3107702   0.4615111   0.2961630 SPIN=   0.00000
   O   0.2048740   0.2099470   0.1094125 SPIN=   0.00000
   S   0.1859080   0.4003853   0.1449481 SPIN=   0.00000
   O   0.4542663  -0.5868363  -0.4687268 SPIN=   0.00000
   O   0.3973432  -0.2784006  -0.4043851 SPIN=   0.00000
   O   0.2286478  -0.4718836  -0.2353904 SPIN=   0.00000
   O   0.0729609  -0.4625061  -0.5007888 SPIN=   0.00000
   S   0.2883045  -0.4499067  -0.4023228 SPIN=   0.00000
   O  -0.4542663  -0.0868363   0.0312732 SPIN=   0.00000
   O  -0.3973432   0.2215994   0.0956149 SPIN=   0.00000
   O  -0.2286478   0.0281164   0.2646096 SPIN=   0.00000
   O  -0.0729609   0.0374939  -0.0007888 SPIN=   0.00000
   S  -0.2883045   0.0500933   0.0976772 SPIN=   0.00000
   F   0.1537304  -0.2300921  -0.0244355 SPIN=   0.00000
   F  -0.1537304   0.2699079   0.4755645 SPIN=   0.00000
   F  -0.3772596  -0.3251000   0.2922526 SPIN=   0.00000
   F   0.3772596   0.1749000  -0.2077474 SPIN=   0.00000
%ENDBLOCK POSITIONS_FRAC

# Note: total spin =  16.00

KPOINTS_MP_SPACING 0.07

%BLOCK SPECIES_POT
QC5
%ENDBLOCK SPECIES_POT

SNAP_TO_SYMMETRY
SYMMETRY_GENERATE

