#              Generated by Buildcell
#
# at 00:22:16 (GMT+1.0) 18th August 2020
# in /lustre/scratch/uccabz1/launch_tmp
# on node-c12i-030
# by uccabz1
#
# compiler GCC version 4.9.2
# options -cpp -iprefix /lustre/shared/ucl/apps/gcc/4.9.2/bin/../lib/gcc/x86_64-unknown-linux-gnu/4.9.2/ -mtune=corei7 -march=x86-64 -g -Og
#
# seed  -929207552   805497403   398929827 -2109241743  -793313934  -148456612   719996083  1986819284  -549661514  -145383314  1385414382  1243114041
#
#      Author: C. J. Pickard (cjp20@cam.ac.uk)
#                Space group: I41
#

%BLOCK LATTICE_ABC
      7.52398      7.52398      8.84485
    115.17161    115.17161     90.00000
%ENDBLOCK LATTICE_ABC

%BLOCK POSITIONS_FRAC
  Li  -0.4990061   0.1605225  -0.4218106 SPIN=   0.00000
  Li   0.0771956   0.4176669  -0.4218106 SPIN=   0.00000
  Li   0.4105225  -0.1728044   0.0781894 SPIN=   0.00000
  Li  -0.3323331   0.2509939   0.0781894 SPIN=   0.00000
  Fe  -0.1488312  -0.0674714   0.1806559 SPIN=   4.00000
  Fe   0.3294870   0.2481272   0.1806559 SPIN=   4.00000
  Fe   0.1825286   0.0794870  -0.3193441 SPIN=   4.00000
  Fe   0.4981272  -0.3988312  -0.3193441 SPIN=   4.00000
   O  -0.2429763  -0.0273571  -0.3079575 SPIN=   0.00000
   O  -0.0392613   0.1628277   0.0404747 SPIN=   0.00000
   O  -0.3071103   0.2997829  -0.1295558 SPIN=   0.00000
   O   0.0045960   0.2886141  -0.1612421 SPIN=   0.00000
   S  -0.1461880   0.1809669  -0.1395702 SPIN=   0.00000
   O  -0.0649812  -0.2806004  -0.3079575 SPIN=   0.00000
   O   0.0797360  -0.1223531   0.0404747 SPIN=   0.00000
   O   0.1775545  -0.4293386  -0.1295558 SPIN=   0.00000
   O  -0.1658381  -0.4498562  -0.1612421 SPIN=   0.00000
   S   0.0066178  -0.3205371  -0.1395702 SPIN=   0.00000
   O   0.2226429  -0.3149812   0.1920425 SPIN=   0.00000
   O   0.4128277  -0.1702640   0.5404747 SPIN=   0.00000
   O   0.5497829  -0.0724455   0.3704442 SPIN=   0.00000
   O   0.5386141  -0.4158381   0.3387579 SPIN=   0.00000
   S   0.4309669  -0.2433822   0.3604298 SPIN=   0.00000
   O  -0.0306004  -0.4929763   0.1920425 SPIN=   0.00000
   O   0.1276469  -0.2892613   0.5404747 SPIN=   0.00000
   O  -0.1793386  -0.5571103   0.3704442 SPIN=   0.00000
   O  -0.1998562  -0.2454040   0.3387579 SPIN=   0.00000
   S  -0.0705371  -0.3961880   0.3604298 SPIN=   0.00000
   F   0.3997489   0.2351990  -0.0310421 SPIN=   0.00000
   F  -0.4307911  -0.2662412  -0.0310421 SPIN=   0.00000
   F   0.4851990   0.3192089   0.4689579 SPIN=   0.00000
   F  -0.0162412   0.1497489   0.4689579 SPIN=   0.00000
%ENDBLOCK POSITIONS_FRAC

# Note: total spin =  16.00

KPOINTS_MP_SPACING 0.07

%BLOCK SPECIES_POT
QC5
%ENDBLOCK SPECIES_POT

SNAP_TO_SYMMETRY
SYMMETRY_GENERATE

