#              Generated by Buildcell
#
# at 07:02:00 (GMT+1.0) 4th August 2020
# in /lustre/scratch/uccabz1/launch_tmp
# on node-c12g-010
# by uccabz1
#
# compiler GCC version 4.9.2
# options -cpp -iprefix /lustre/shared/ucl/apps/gcc/4.9.2/bin/../lib/gcc/x86_64-unknown-linux-gnu/4.9.2/ -mtune=corei7 -march=x86-64 -g -Og
#
# seed   649333741 -1425406617  1911190748 -1369107239  -321522919  1995624783  1501976183   556861834   975551574   587308749  2067705326  1880408617
#
#      Author: C. J. Pickard (cjp20@cam.ac.uk)
#                Space group: Pca21
#

%BLOCK LATTICE_ABC
      4.71858      6.66969     12.70993
     90.00000     90.00000     90.00000
%ENDBLOCK LATTICE_ABC

%BLOCK POSITIONS_FRAC
  Li   0.3429190   0.2627197   0.1309209 SPIN=   0.00000
  Li  -0.3429190  -0.2627197  -0.3690791 SPIN=   0.00000
  Li  -0.1570810  -0.2627197   0.1309209 SPIN=   0.00000
  Li   0.1570810   0.2627197  -0.3690791 SPIN=   0.00000
  Fe   0.3547847  -0.2206618  -0.0231543 SPIN=   4.00000
  Fe  -0.3547847   0.2206618   0.4768457 SPIN=   4.00000
  Fe  -0.1452153   0.2206618  -0.0231543 SPIN=   4.00000
  Fe   0.1452153  -0.2206618   0.4768457 SPIN=   4.00000
   O  -0.4203832   0.2316520   0.2971907 SPIN=   0.00000
   O  -0.2418634   0.3630848   0.1275844 SPIN=   0.00000
   O  -0.0001192   0.0773136   0.2134478 SPIN=   0.00000
   O   0.0336932   0.4169720   0.2908347 SPIN=   0.00000
   S  -0.1571682   0.2722556   0.2322644 SPIN=   0.00000
   O   0.4203832  -0.2316520  -0.2028093 SPIN=   0.00000
   O   0.2418634  -0.3630848  -0.3724156 SPIN=   0.00000
   O   0.0001192  -0.0773136  -0.2865522 SPIN=   0.00000
   O  -0.0336932  -0.4169720  -0.2091653 SPIN=   0.00000
   S   0.1571682  -0.2722556  -0.2677356 SPIN=   0.00000
   O   0.0796168  -0.2316520   0.2971907 SPIN=   0.00000
   O   0.2581366  -0.3630848   0.1275844 SPIN=   0.00000
   O   0.4998808  -0.0773136   0.2134478 SPIN=   0.00000
   O   0.5336932  -0.4169720   0.2908347 SPIN=   0.00000
   S   0.3428318  -0.2722556   0.2322644 SPIN=   0.00000
   O  -0.0796168   0.2316520  -0.2028093 SPIN=   0.00000
   O  -0.2581366   0.3630848  -0.3724156 SPIN=   0.00000
   O  -0.4998808   0.0773136  -0.2865522 SPIN=   0.00000
   O  -0.5336932   0.4169720  -0.2091653 SPIN=   0.00000
   S  -0.3428318   0.2722556  -0.2677356 SPIN=   0.00000
   F   0.2781733   0.2031059  -0.0114193 SPIN=   0.00000
   F  -0.2781733  -0.2031059   0.4885807 SPIN=   0.00000
   F  -0.2218267  -0.2031059  -0.0114193 SPIN=   0.00000
   F   0.2218267   0.2031059   0.4885807 SPIN=   0.00000
%ENDBLOCK POSITIONS_FRAC

# Note: total spin =  16.00

KPOINTS_MP_SPACING 0.07

%BLOCK SPECIES_POT
QC5
%ENDBLOCK SPECIES_POT

SNAP_TO_SYMMETRY
SYMMETRY_GENERATE

