#              Generated by Buildcell
#
# at 09:47:18 (GMT+1.0) 4th August 2020
# in /lustre/scratch/uccabz1/launch_tmp
# on node-c12c-016
# by uccabz1
#
# compiler GCC version 4.9.2
# options -cpp -iprefix /lustre/shared/ucl/apps/gcc/4.9.2/bin/../lib/gcc/x86_64-unknown-linux-gnu/4.9.2/ -mtune=corei7 -march=x86-64 -g -Og
#
# seed  1503391367  1767060075 -1547509523 -1259754121  -321529417  2116962694  -719979359  1175324578  1527806574 -1823739652   824244769  1846528078
#
#      Author: C. J. Pickard (cjp20@cam.ac.uk)
#                Space group: C2
#

%BLOCK LATTICE_ABC
      7.15594      7.15594      8.62926
    101.87747    101.87747    105.67217
%ENDBLOCK LATTICE_ABC

%BLOCK POSITIONS_FRAC
  Li   0.4492260   0.0670963  -0.2698273 SPIN=   0.00000
  Li  -0.0670963  -0.4492260   0.2698273 SPIN=   0.00000
  Li   0.0843528   0.4649607  -0.1196664 SPIN=   0.00000
  Li  -0.4649607  -0.0843528   0.1196664 SPIN=   0.00000
  Fe   0.3033628   0.0645965   0.3215106 SPIN=   2.64084
  Fe  -0.0645965  -0.3033628  -0.3215106 SPIN=   2.64084
  Fe  -0.4918615  -0.4795699   0.2139830 SPIN=   5.35916
  Fe   0.4795699   0.4918615  -0.2139830 SPIN=   5.35916
   O  -0.4533541  -0.2696547  -0.4436760 SPIN=   0.00000
   O  -0.4796270   0.0605226  -0.4710421 SPIN=   0.00000
   O  -0.3208111  -0.1233636  -0.6508892 SPIN=   0.00000
   O  -0.1461459   0.0312929  -0.3538036 SPIN=   0.00000
   S  -0.3499845  -0.0753007  -0.4798527 SPIN=   0.00000
   O   0.2696547   0.4533541   0.4436760 SPIN=   0.00000
   O  -0.0605226   0.4796270   0.4710421 SPIN=   0.00000
   O   0.1233636   0.3208111   0.6508892 SPIN=   0.00000
   O  -0.0312929   0.1461459   0.3538036 SPIN=   0.00000
   S   0.0753007   0.3499845   0.4798527 SPIN=   0.00000
   O   0.3600591   0.3495247  -0.0418137 SPIN=   0.00000
   O  -0.0024338   0.1744803  -0.0805192 SPIN=   0.00000
   O   0.2525974   0.0203348   0.0196339 SPIN=   0.00000
   O   0.1759926   0.0370494  -0.2692556 SPIN=   0.00000
   S   0.1965538   0.1453473  -0.0929886 SPIN=   0.00000
   O  -0.3495247  -0.3600591   0.0418137 SPIN=   0.00000
   O  -0.1744803   0.0024338   0.0805192 SPIN=   0.00000
   O  -0.0203348  -0.2525974  -0.0196339 SPIN=   0.00000
   O  -0.0370494  -0.1759926   0.2692556 SPIN=   0.00000
   S  -0.1453473  -0.1965538   0.0929886 SPIN=   0.00000
   F   0.2375282  -0.4052718   0.1882536 SPIN=   0.00000
   F   0.4052718  -0.2375282  -0.1882536 SPIN=   0.00000
   F  -0.4276678   0.2329096   0.2631877 SPIN=   0.00000
   F  -0.2329096   0.4276678  -0.2631877 SPIN=   0.00000
%ENDBLOCK POSITIONS_FRAC

# Note: total spin =  16.00

KPOINTS_MP_SPACING 0.07

%BLOCK SPECIES_POT
QC5
%ENDBLOCK SPECIES_POT

SNAP_TO_SYMMETRY
SYMMETRY_GENERATE

