#              Generated by Buildcell
#
# at 09:55:15 (GMT+1.0) 4th August 2020
# in /lustre/scratch/uccabz1/launch_tmp
# on node-c12k-029
# by uccabz1
#
# compiler GCC version 4.9.2
# options -cpp -iprefix /lustre/shared/ucl/apps/gcc/4.9.2/bin/../lib/gcc/x86_64-unknown-linux-gnu/4.9.2/ -mtune=corei7 -march=x86-64 -g -Og
#
# seed   -15780163   129214517   998323830  1877357729 -1218013819  1415505087  1471175941  -558108991 -1866958400  1434654080   -12772888  1693385724
#
#      Author: C. J. Pickard (cjp20@cam.ac.uk)
#                Space group: C2
#

%BLOCK LATTICE_ABC
      6.02212      7.31324     10.43480
    104.39608     99.49326    110.65826
%ENDBLOCK LATTICE_ABC

%BLOCK POSITIONS_FRAC
  Li   0.0954883   0.5954883   0.1909767 SPIN=   0.00000
  Li  -0.1224187   0.3775813  -0.2448373 SPIN=   0.00000
  Li  -0.2173264  -0.2173264  -0.4346528 SPIN=   0.00000
  Li  -0.3594877  -0.8594877   0.2810245 SPIN=   0.00000
  Fe   0.4848197  -0.0151803  -0.0303606 SPIN=   2.28567
  Fe  -0.3733481  -0.3733481   0.2533037 SPIN=   9.32499
  Fe   0.3578902   0.3578902  -0.2842196 SPIN=   2.80804
  Fe   0.1352565   0.1352565   0.2705131 SPIN=   1.58129
   O  -0.2287940  -0.5229306  -0.0707102 SPIN=   0.00000
   O  -0.2977516  -0.2099161  -0.0745385 SPIN=   0.00000
   O   0.1200806  -0.2039499  -0.0552579 SPIN=   0.00000
   O  -0.0604274  -0.2160756   0.1406784 SPIN=   0.00000
   S  -0.1167231  -0.2882180  -0.0149571 SPIN=   0.00000
   O   0.1580837   0.4522204  -0.0707102 SPIN=   0.00000
   O   0.2232130   0.1353776  -0.0745385 SPIN=   0.00000
   O  -0.1753385   0.1486919  -0.0552579 SPIN=   0.00000
   O   0.2011058   0.3567540   0.1406784 SPIN=   0.00000
   S   0.1017660   0.2732610  -0.0149571 SPIN=   0.00000
   O   0.0443496  -0.4566788   0.6375103 SPIN=   0.00000
   O  -0.2541821  -0.5118724   0.4227817 SPIN=   0.00000
   O  -0.0100727  -0.7224729   0.4206547 SPIN=   0.00000
   S  -0.0062080  -0.5103062   0.4826243 SPIN=   0.00000
   O  -0.4068393   0.0941891   0.6375103 SPIN=   0.00000
   O  -0.3230362  -0.0653459   0.4227817 SPIN=   0.00000
   O  -0.5692725   0.1431276   0.4206547 SPIN=   0.00000
   S  -0.5111677  -0.0070695   0.4826243 SPIN=   0.00000
   O   0.3779724   0.8779724  -0.2440552 SPIN=   0.00000
   O   0.2186168   0.7186168   0.4372336 SPIN=   0.00000
   F   0.0716557   0.0725156  -0.3550612 SPIN=   0.00000
   F  -0.4267169  -0.4275768  -0.3550612 SPIN=   0.00000
   F  -0.3187557  -0.6467039   0.1471411 SPIN=   0.00000
   F   0.4658968   0.7938450   0.1471411 SPIN=   0.00000
%ENDBLOCK POSITIONS_FRAC

# Note: total spin =  16.00

KPOINTS_MP_SPACING 0.07

%BLOCK SPECIES_POT
QC5
%ENDBLOCK SPECIES_POT

SNAP_TO_SYMMETRY
SYMMETRY_GENERATE

