#              Generated by Buildcell
#
# at 01:52:47 (GMT+1.0) 18th August 2020
# in /lustre/scratch/uccabz1/launch_tmp
# on node-c12l-014
# by uccabz1
#
# compiler GCC version 4.9.2
# options -cpp -iprefix /lustre/shared/ucl/apps/gcc/4.9.2/bin/../lib/gcc/x86_64-unknown-linux-gnu/4.9.2/ -mtune=corei7 -march=x86-64 -g -Og
#
# seed   662275912 -2056862566   241811408  1194272560  -869646688  1938599668  -652244624  1259739570  1662888784 -1603943139  1785021745   766063381
#
#      Author: C. J. Pickard (cjp20@cam.ac.uk)
#                Space group: Pca21
#

%BLOCK LATTICE_ABC
      4.24102      5.63667     16.73273
     90.00000     90.00000     90.00000
%ENDBLOCK LATTICE_ABC

%BLOCK POSITIONS_FRAC
  Li  -0.2472726   0.3599949  -0.0478730 SPIN=   0.00000
  Li   0.2472726  -0.1400051   0.0478730 SPIN=   0.00000
  Li   0.2472726   0.3599949   0.4521270 SPIN=   0.00000
  Li  -0.2472726  -0.1400051  -0.4521270 SPIN=   0.00000
  Fe  -0.2430357   0.2466787  -0.3228189 SPIN=   4.00000
  Fe   0.2430357  -0.2533213   0.3228189 SPIN=   4.00000
  Fe   0.2430357   0.2466787   0.1771811 SPIN=   4.00000
  Fe  -0.2430357  -0.2533213  -0.1771811 SPIN=   4.00000
   O  -0.1341538  -0.2850700  -0.3256670 SPIN=   0.00000
   O   0.3609073  -0.2607135  -0.2477919 SPIN=   0.00000
   O   0.3415292  -0.1041748  -0.3858911 SPIN=   0.00000
   O   0.3212027  -0.5373111  -0.3622173 SPIN=   0.00000
   S   0.2223713  -0.2968173  -0.3303918 SPIN=   0.00000
   O   0.1341538   0.2149300   0.3256670 SPIN=   0.00000
   O  -0.3609073   0.2392865   0.2477919 SPIN=   0.00000
   O  -0.3415292   0.3958252   0.3858911 SPIN=   0.00000
   O  -0.3212027  -0.0373111   0.3622173 SPIN=   0.00000
   S  -0.2223713   0.2031827   0.3303918 SPIN=   0.00000
   O   0.1341538  -0.2850700   0.1743330 SPIN=   0.00000
   O  -0.3609073  -0.2607135   0.2522081 SPIN=   0.00000
   O  -0.3415292  -0.1041748   0.1141089 SPIN=   0.00000
   O  -0.3212027  -0.5373111   0.1377827 SPIN=   0.00000
   S  -0.2223713  -0.2968173   0.1696082 SPIN=   0.00000
   O  -0.1341538   0.2149300  -0.1743330 SPIN=   0.00000
   O   0.3609073   0.2392865  -0.2522081 SPIN=   0.00000
   O   0.3415292   0.3958252  -0.1141089 SPIN=   0.00000
   O   0.3212027  -0.0373111  -0.1377827 SPIN=   0.00000
   S   0.2223713   0.2031827  -0.1696082 SPIN=   0.00000
   F   0.1877519  -0.2685408   0.4471546 SPIN=   0.00000
   F  -0.1877519   0.2314592  -0.4471546 SPIN=   0.00000
   F  -0.1877519  -0.2685408  -0.0528454 SPIN=   0.00000
   F   0.1877519   0.2314592   0.0528454 SPIN=   0.00000
%ENDBLOCK POSITIONS_FRAC

# Note: total spin =  16.00

KPOINTS_MP_SPACING 0.07

%BLOCK SPECIES_POT
QC5
%ENDBLOCK SPECIES_POT

SNAP_TO_SYMMETRY
SYMMETRY_GENERATE

