#              Generated by Buildcell
#
# at 22:48:05 (GMT+1.0) 17th August 2020
# in /lustre/scratch/uccabz1/launch_tmp
# on node-c12b-025
# by uccabz1
#
# compiler GCC version 4.9.2
# options -cpp -iprefix /lustre/shared/ucl/apps/gcc/4.9.2/bin/../lib/gcc/x86_64-unknown-linux-gnu/4.9.2/ -mtune=corei7 -march=x86-64 -g -Og
#
# seed  1553522108  -100512781 -1095789655 -1566436193  -141333214  1468255621  -842920924  -103126086 -1904462222 -1957241540   831332818  1145495580
#
#      Author: C. J. Pickard (cjp20@cam.ac.uk)
#                Space group: P-1
#

%BLOCK LATTICE_ABC
      7.15121      7.98085      7.99108
     96.63115    101.13506    113.74849
%ENDBLOCK LATTICE_ABC

%BLOCK POSITIONS_FRAC
  Li  -0.1912088  -0.1314771  -0.2444758 SPIN=   0.00000
  Li   0.1912088   0.1314771   0.2444758 SPIN=   0.00000
  Li  -0.2430291   0.1584265   0.4259884 SPIN=   0.00000
  Li   0.2430291  -0.1584265  -0.4259884 SPIN=   0.00000
  Fe  -0.0760781   0.2436293  -0.0511248 SPIN=   4.03660
  Fe   0.0760781  -0.2436293   0.0511248 SPIN=   4.03660
  Fe   0.2485429  -0.4954392   0.3952502 SPIN=   3.96340
  Fe  -0.2485429   0.4954392  -0.3952502 SPIN=   3.96340
   O  -0.4760942   0.3319427   0.2993227 SPIN=   0.00000
   O  -0.2227596   0.2466482   0.1820706 SPIN=   0.00000
   O  -0.4791062   0.3217375  -0.0119400 SPIN=   0.00000
   O  -0.6040387   0.0272573   0.0952663 SPIN=   0.00000
   S  -0.4454997   0.2318964   0.1411799 SPIN=   0.00000
   O   0.4760942  -0.3319427  -0.2993227 SPIN=   0.00000
   O   0.2227596  -0.2466482  -0.1820706 SPIN=   0.00000
   O   0.4791062  -0.3217375   0.0119400 SPIN=   0.00000
   O   0.6040387  -0.0272573  -0.0952663 SPIN=   0.00000
   S   0.4454997  -0.2318964  -0.1411799 SPIN=   0.00000
   O  -0.2057638  -0.3528847   0.1718726 SPIN=   0.00000
   O  -0.0596737  -0.1777457   0.4794525 SPIN=   0.00000
   O  -0.4467543  -0.3262524   0.3467598 SPIN=   0.00000
   O  -0.2144052  -0.0479639   0.2540771 SPIN=   0.00000
   S  -0.2316493  -0.2262117   0.3130405 SPIN=   0.00000
   O   0.2057638   0.3528847  -0.1718726 SPIN=   0.00000
   O   0.0596737   0.1777457  -0.4794525 SPIN=   0.00000
   O   0.4467543   0.3262524  -0.3467598 SPIN=   0.00000
   O   0.2144052   0.0479639  -0.2540771 SPIN=   0.00000
   S   0.2316493   0.2262117  -0.3130405 SPIN=   0.00000
   F   0.0000000   0.0000000   0.0000000 SPIN=   0.00000
   F  -0.0000000  -0.5000000   0.0000000 SPIN=   0.00000
   F   0.5000000  -0.0000000   0.5000000 SPIN=   0.00000
   F  -0.0000000  -0.5000000   0.5000000 SPIN=   0.00000
%ENDBLOCK POSITIONS_FRAC

# Note: total spin =  16.00

KPOINTS_MP_SPACING 0.07

%BLOCK SPECIES_POT
QC5
%ENDBLOCK SPECIES_POT

SNAP_TO_SYMMETRY
SYMMETRY_GENERATE

