#              Generated by Buildcell
#
# at 09:51:18 (GMT+1.0) 4th August 2020
# in /lustre/scratch/uccabz1/launch_tmp
# on node-c12g-010
# by uccabz1
#
# compiler GCC version 4.9.2
# options -cpp -iprefix /lustre/shared/ucl/apps/gcc/4.9.2/bin/../lib/gcc/x86_64-unknown-linux-gnu/4.9.2/ -mtune=corei7 -march=x86-64 -g -Og
#
# seed -1346432170   409492452   543806993 -1275572905  1412299876  1611680669  -849798411   807492462   562614552   812266819  -505475116  -830273925
#
#      Author: C. J. Pickard (cjp20@cam.ac.uk)
#                Space group: Pc
#

%BLOCK LATTICE_ABC
      5.05855      6.34733     12.51164
     90.00000     95.31508     90.00000
%ENDBLOCK LATTICE_ABC

%BLOCK POSITIONS_FRAC
  Li   0.2054341  -0.3746764  -0.0991684 SPIN=   0.00000
  Li  -0.2945659   0.3746764   0.4008316 SPIN=   0.00000
  Li  -0.2803910   0.0663643  -0.0549525 SPIN=   0.00000
  Li   0.2196090  -0.0663643   0.4450475 SPIN=   0.00000
  Fe   0.1553534   0.0266125  -0.2169520 SPIN=   3.13627
  Fe  -0.3446466  -0.0266125   0.2830480 SPIN=   3.13627
  Fe   0.1842263  -0.4739218   0.3083158 SPIN=   4.86373
  Fe  -0.3157737   0.4739218  -0.1916842 SPIN=   4.86373
   O   0.1972317  -0.5777716  -0.3160934 SPIN=   0.00000
   O   0.2554534  -0.2018280  -0.3608494 SPIN=   0.00000
   O  -0.1957814  -0.3474436  -0.3518254 SPIN=   0.00000
   O   0.0681487  -0.4500778  -0.5004555 SPIN=   0.00000
   S   0.0812631  -0.3942802  -0.3823059 SPIN=   0.00000
   O  -0.3027683   0.5777716   0.1839066 SPIN=   0.00000
   O  -0.2445466   0.2018280   0.1391506 SPIN=   0.00000
   O  -0.6957814   0.3474436   0.1481746 SPIN=   0.00000
   O  -0.4318513   0.4500778  -0.0004555 SPIN=   0.00000
   S  -0.4187369   0.3942802   0.1176941 SPIN=   0.00000
   O  -0.7221219   0.1365902  -0.4233014 SPIN=   0.00000
   O  -0.3028527  -0.0489101  -0.4498207 SPIN=   0.00000
   O  -0.3496565   0.1428542  -0.2803785 SPIN=   0.00000
   O  -0.3160958   0.3408471  -0.4489905 SPIN=   0.00000
   S  -0.4226817   0.1428453  -0.4006228 SPIN=   0.00000
   O  -0.2221219  -0.1365902   0.0766986 SPIN=   0.00000
   O   0.1971473   0.0489101   0.0501793 SPIN=   0.00000
   O   0.1503435  -0.1428542   0.2196215 SPIN=   0.00000
   O   0.1839042  -0.3408471   0.0510095 SPIN=   0.00000
   S   0.0773183  -0.1428453   0.0993772 SPIN=   0.00000
   F  -0.4769304  -0.3278387   0.3958237 SPIN=   0.00000
   F   0.0230696   0.3278387  -0.1041763 SPIN=   0.00000
   F  -0.4876206  -0.1722110  -0.1508011 SPIN=   0.00000
   F   0.0123794   0.1722110   0.3491989 SPIN=   0.00000
%ENDBLOCK POSITIONS_FRAC

# Note: total spin =  16.00

KPOINTS_MP_SPACING 0.07

%BLOCK SPECIES_POT
QC5
%ENDBLOCK SPECIES_POT

SNAP_TO_SYMMETRY
SYMMETRY_GENERATE

