#              Generated by Buildcell
#
# at 03:17:19 (GMT+1.0) 18th August 2020
# in /lustre/scratch/uccabz1/launch_tmp
# on node-c12l-008
# by uccabz1
#
# compiler GCC version 4.9.2
# options -cpp -iprefix /lustre/shared/ucl/apps/gcc/4.9.2/bin/../lib/gcc/x86_64-unknown-linux-gnu/4.9.2/ -mtune=corei7 -march=x86-64 -g -Og
#
# seed -1497247087   920776620  -641550160   231267811  -439752969 -1033290545   223808294 -1128125572  -924111066  -412361582  -363486446 -1599066538
#
#      Author: C. J. Pickard (cjp20@cam.ac.uk)
#                Space group: Pc
#

%BLOCK LATTICE_ABC
      6.33581      6.97366      9.28680
     90.00000     90.00000    102.88097
%ENDBLOCK LATTICE_ABC

%BLOCK POSITIONS_FRAC
  Li  -0.4275937   0.4046535   0.2513804 SPIN=   0.00000
  Li  -0.4275937  -0.0953465  -0.2513804 SPIN=   0.00000
  Li   0.0947317  -0.4151116   0.0707797 SPIN=   0.00000
  Li   0.0947317   0.0848884  -0.0707797 SPIN=   0.00000
  Fe   0.4325141  -0.0579259   0.0740891 SPIN=   6.93130
  Fe   0.4325141   0.4420741  -0.0740891 SPIN=   6.93130
  Fe   0.1095358   0.3056111   0.3004074 SPIN=   1.06870
  Fe   0.1095358  -0.1943889  -0.3004074 SPIN=   1.06870
   O  -0.0022489  -0.2227163   0.3242114 SPIN=   0.00000
   O  -0.3446873  -0.2777408   0.1862439 SPIN=   0.00000
   O   0.0050282  -0.1517989   0.0629141 SPIN=   0.00000
   O  -0.1372816   0.0613728   0.2333232 SPIN=   0.00000
   S  -0.1197974  -0.1477208   0.2016731 SPIN=   0.00000
   O  -0.0022489   0.2772837  -0.3242114 SPIN=   0.00000
   O  -0.3446873   0.2222592  -0.1862439 SPIN=   0.00000
   O   0.0050282   0.3482011  -0.0629141 SPIN=   0.00000
   O  -0.1372816   0.5613728  -0.2333232 SPIN=   0.00000
   S  -0.1197974   0.3522792  -0.2016731 SPIN=   0.00000
   O   0.5246432  -0.4596463  -0.5604465 SPIN=   0.00000
   O   0.5326530  -0.3869523  -0.2994057 SPIN=   0.00000
   O   0.3475968  -0.7161898  -0.3881326 SPIN=   0.00000
   O   0.1892633  -0.4283072  -0.4351040 SPIN=   0.00000
   S   0.3985391  -0.4977739  -0.4207722 SPIN=   0.00000
   O   0.5246432   0.0403537   0.5604465 SPIN=   0.00000
   O   0.5326530   0.1130477   0.2994057 SPIN=   0.00000
   O   0.3475968  -0.2161898   0.3881326 SPIN=   0.00000
   O   0.1892633   0.0716928   0.4351040 SPIN=   0.00000
   S   0.3985391   0.0022261   0.4207722 SPIN=   0.00000
   F   0.3230253  -0.2100022  -0.1078513 SPIN=   0.00000
   F   0.3230253   0.2899978   0.1078513 SPIN=   0.00000
   F  -0.1267692  -0.1034346  -0.3892483 SPIN=   0.00000
   F  -0.1267692   0.3965654   0.3892483 SPIN=   0.00000
%ENDBLOCK POSITIONS_FRAC

# Note: total spin =  16.00

KPOINTS_MP_SPACING 0.07

%BLOCK SPECIES_POT
QC5
%ENDBLOCK SPECIES_POT

SNAP_TO_SYMMETRY
SYMMETRY_GENERATE

