#              Generated by Buildcell
#
# at 22:46:27 (GMT+1.0) 17th August 2020
# in /lustre/scratch/uccabz1/launch_tmp
# on node-c12k-029
# by uccabz1
#
# compiler GCC version 4.9.2
# options -cpp -iprefix /lustre/shared/ucl/apps/gcc/4.9.2/bin/../lib/gcc/x86_64-unknown-linux-gnu/4.9.2/ -mtune=corei7 -march=x86-64 -g -Og
#
# seed -1751110099  -481486330  1849871974 -2135087549  1967521739   382060077   436844252   728016721   873506717 -1021696764 -1825606529  1182808425
#
#      Author: C. J. Pickard (cjp20@cam.ac.uk)
#                Space group: C2
#

%BLOCK LATTICE_ABC
      5.23264      9.28086      9.28086
     62.83041     86.58512     86.58512
%ENDBLOCK LATTICE_ABC

%BLOCK POSITIONS_FRAC
  Li   0.2322978  -0.0521126   0.2216252 SPIN=   0.00000
  Li  -0.2322978  -0.2216252   0.0521126 SPIN=   0.00000
  Li  -0.3016760  -0.3070242  -0.4092607 SPIN=   0.00000
  Li   0.3016760   0.4092607   0.3070242 SPIN=   0.00000
  Fe   0.2334112   0.2908498  -0.1342873 SPIN=   4.20027
  Fe  -0.2334112   0.1342873  -0.2908498 SPIN=   4.20027
  Fe  -0.3581698  -0.4541287  -0.0585686 SPIN=   3.79973
  Fe   0.3581698   0.0585686   0.4541287 SPIN=   3.79973
   O  -0.4234026   0.5531434   0.1946707 SPIN=   0.00000
   O  -0.3005368   0.4678151   0.4763840 SPIN=   0.00000
   O   0.0139475   0.5992453   0.2489574 SPIN=   0.00000
   O  -0.1175562   0.3207121   0.3267931 SPIN=   0.00000
   S  -0.2068870   0.4852290   0.3117013 SPIN=   0.00000
   O   0.4234026  -0.1946707  -0.5531434 SPIN=   0.00000
   O   0.3005368  -0.4763840  -0.4678151 SPIN=   0.00000
   O  -0.0139475  -0.2489574  -0.5992453 SPIN=   0.00000
   O   0.1175562  -0.3267931  -0.3207121 SPIN=   0.00000
   S   0.2068870  -0.3117013  -0.4852290 SPIN=   0.00000
   O   0.2691112  -0.3034845   0.0295137 SPIN=   0.00000
   O   0.2580552  -0.1364987  -0.2678788 SPIN=   0.00000
   O   0.4665977  -0.0355431  -0.1007566 SPIN=   0.00000
   O  -0.0051170  -0.0529425  -0.0863668 SPIN=   0.00000
   S   0.2471618  -0.1321172  -0.1063721 SPIN=   0.00000
   O  -0.2691112  -0.0295137   0.3034845 SPIN=   0.00000
   O  -0.2580552   0.2678788   0.1364987 SPIN=   0.00000
   O  -0.4665977   0.1007566   0.0355431 SPIN=   0.00000
   O   0.0051170   0.0863668   0.0529425 SPIN=   0.00000
   S  -0.2471618   0.1063721   0.1321172 SPIN=   0.00000
   F  -0.2569394   0.4410052  -0.2365028 SPIN=   0.00000
   F   0.2569394   0.2365028  -0.4410052 SPIN=   0.00000
   F  -0.2294829  -0.1045419  -0.3546083 SPIN=   0.00000
   F   0.2294829   0.3546083   0.1045419 SPIN=   0.00000
%ENDBLOCK POSITIONS_FRAC

# Note: total spin =  16.00

KPOINTS_MP_SPACING 0.07

%BLOCK SPECIES_POT
QC5
%ENDBLOCK SPECIES_POT

SNAP_TO_SYMMETRY
SYMMETRY_GENERATE

