#              Generated by Buildcell
#
# at 07:33:30 (GMT+1.0) 4th August 2020
# in /lustre/scratch/uccabz1/launch_tmp
# on node-c12o-001
# by uccabz1
#
# compiler GCC version 4.9.2
# options -cpp -iprefix /lustre/shared/ucl/apps/gcc/4.9.2/bin/../lib/gcc/x86_64-unknown-linux-gnu/4.9.2/ -mtune=corei7 -march=x86-64 -g -Og
#
# seed -1426291437  -455895706  2009252996 -1280943970   432824831  -653100708  1666351124  -129320993 -2053356927  -436379196   849805555  1902850351
#
#      Author: C. J. Pickard (cjp20@cam.ac.uk)
#                Space group: P-1
#

%BLOCK LATTICE_ABC
      4.01173      9.30611     11.44640
    106.74040     95.65082     98.65494
%ENDBLOCK LATTICE_ABC

%BLOCK POSITIONS_FRAC
  Li   0.0225026  -0.1154154   0.0964168 SPIN=   0.00000
  Li  -0.0225026   0.1154154  -0.0964168 SPIN=   0.00000
  Li  -0.1905566   0.1445206  -0.3943072 SPIN=   0.00000
  Li   0.1905566  -0.1445206   0.3943072 SPIN=   0.00000
  Fe  -0.2641869  -0.4478384   0.3846663 SPIN=   4.24580
  Fe   0.2641869   0.4478384  -0.3846663 SPIN=   4.24580
  Fe   0.2689277  -0.1264042  -0.3304167 SPIN=   3.75420
  Fe  -0.2689277   0.1264042   0.3304167 SPIN=   3.75420
   O   0.1271406  -0.3885875  -0.0404064 SPIN=   0.00000
   O  -0.1481859  -0.1846302  -0.0833163 SPIN=   0.00000
   O  -0.2452486  -0.4400247  -0.2391655 SPIN=   0.00000
   O   0.3187207  -0.2696395  -0.1957561 SPIN=   0.00000
   S   0.0131067  -0.3207205  -0.1396611 SPIN=   0.00000
   O  -0.1271406   0.3885875   0.0404064 SPIN=   0.00000
   O   0.1481859   0.1846302   0.0833163 SPIN=   0.00000
   O   0.2452486   0.4400247   0.2391655 SPIN=   0.00000
   O  -0.3187207   0.2696395   0.1957561 SPIN=   0.00000
   S  -0.0131067   0.3207205   0.1396611 SPIN=   0.00000
   O   0.5552312  -0.4285850   0.1307667 SPIN=   0.00000
   O   0.5288242  -0.1787569   0.0980344 SPIN=   0.00000
   O   0.6877614  -0.1920656   0.3086159 SPIN=   0.00000
   O   0.0944082  -0.2911904   0.2019979 SPIN=   0.00000
   S   0.4665562  -0.2726495   0.1848537 SPIN=   0.00000
   O  -0.5552312   0.4285850  -0.1307667 SPIN=   0.00000
   O  -0.5288242   0.1787569  -0.0980344 SPIN=   0.00000
   O  -0.6877614   0.1920656  -0.3086159 SPIN=   0.00000
   O  -0.0944082   0.2911904  -0.2019979 SPIN=   0.00000
   S  -0.4665562   0.2726495  -0.1848537 SPIN=   0.00000
   F  -0.2340844   0.3350570  -0.4510621 SPIN=   0.00000
   F   0.2340844  -0.3350570   0.4510621 SPIN=   0.00000
   F   0.1135476   0.0495803   0.2826985 SPIN=   0.00000
   F  -0.1135476  -0.0495803  -0.2826985 SPIN=   0.00000
%ENDBLOCK POSITIONS_FRAC

# Note: total spin =  16.00

KPOINTS_MP_SPACING 0.07

%BLOCK SPECIES_POT
QC5
%ENDBLOCK SPECIES_POT

SNAP_TO_SYMMETRY
SYMMETRY_GENERATE

