#              Generated by Buildcell
#
# at 09:19:33 (GMT+1.0) 4th August 2020
# in /lustre/scratch/uccabz1/launch_tmp
# on node-c12j-008
# by uccabz1
#
# compiler GCC version 4.9.2
# options -cpp -iprefix /lustre/shared/ucl/apps/gcc/4.9.2/bin/../lib/gcc/x86_64-unknown-linux-gnu/4.9.2/ -mtune=corei7 -march=x86-64 -g -Og
#
# seed  -808422738   218422631   262697895  1888233291 -1941379861 -1900581582 -2132824351   430603654  -638194523  1818162102  -262928348   326901622
#
#      Author: C. J. Pickard (cjp20@cam.ac.uk)
#                Space group: P21/c
#

%BLOCK LATTICE_ABC
      4.99635      8.68261      9.43769
     90.00000     90.00000    102.31419
%ENDBLOCK LATTICE_ABC

%BLOCK POSITIONS_FRAC
  Li   0.3288811   0.1843392   0.3926210 SPIN=   0.00000
  Li  -0.3288811   0.3156608  -0.1073790 SPIN=   0.00000
  Li  -0.3288811  -0.1843392  -0.3926210 SPIN=   0.00000
  Li   0.3288811  -0.3156608   0.1073790 SPIN=   0.00000
  Fe   0.0436962   0.3636123  -0.3581400 SPIN=   4.00000
  Fe  -0.0436962   0.1363877   0.1418600 SPIN=   4.00000
  Fe  -0.0436962  -0.3636123   0.3581400 SPIN=   4.00000
  Fe   0.0436962  -0.1363877  -0.1418600 SPIN=   4.00000
   O  -0.5150592   0.2115557   0.1110866 SPIN=   0.00000
   O  -0.1765987   0.4653157   0.1103928 SPIN=   0.00000
   O  -0.4514751   0.3795543   0.3254791 SPIN=   0.00000
   O  -0.6727217   0.4631068   0.1126459 SPIN=   0.00000
   S  -0.4539637   0.3798831   0.1649011 SPIN=   0.00000
   O   0.5150592   0.2884443  -0.3889134 SPIN=   0.00000
   O   0.1765987   0.0346843  -0.3896072 SPIN=   0.00000
   O   0.4514751   0.1204457  -0.1745209 SPIN=   0.00000
   O   0.6727217   0.0368932  -0.3873541 SPIN=   0.00000
   S   0.4539637   0.1201169  -0.3350989 SPIN=   0.00000
   O   0.5150592  -0.2115557  -0.1110866 SPIN=   0.00000
   O   0.1765987  -0.4653157  -0.1103928 SPIN=   0.00000
   O   0.4514751  -0.3795543  -0.3254791 SPIN=   0.00000
   O   0.6727217  -0.4631068  -0.1126459 SPIN=   0.00000
   S   0.4539637  -0.3798831  -0.1649011 SPIN=   0.00000
   O  -0.5150592  -0.2884443   0.3889134 SPIN=   0.00000
   O  -0.1765987  -0.0346843   0.3896072 SPIN=   0.00000
   O  -0.4514751  -0.1204457   0.1745209 SPIN=   0.00000
   O  -0.6727217  -0.0368932   0.3873541 SPIN=   0.00000
   S  -0.4539637  -0.1201169   0.3350989 SPIN=   0.00000
   F  -0.0114492  -0.2863916  -0.4229812 SPIN=   0.00000
   F   0.0114492  -0.2136084   0.0770188 SPIN=   0.00000
   F   0.0114492   0.2863916   0.4229812 SPIN=   0.00000
   F  -0.0114492   0.2136084  -0.0770188 SPIN=   0.00000
%ENDBLOCK POSITIONS_FRAC

# Note: total spin =  16.00

KPOINTS_MP_SPACING 0.07

%BLOCK SPECIES_POT
QC5
%ENDBLOCK SPECIES_POT

SNAP_TO_SYMMETRY
SYMMETRY_GENERATE

