#              Generated by Buildcell
#
# at 09:12:49 (GMT+1.0) 4th August 2020
# in /lustre/scratch/uccabz1/launch_tmp
# on node-c12f-010
# by uccabz1
#
# compiler GCC version 4.9.2
# options -cpp -iprefix /lustre/shared/ucl/apps/gcc/4.9.2/bin/../lib/gcc/x86_64-unknown-linux-gnu/4.9.2/ -mtune=corei7 -march=x86-64 -g -Og
#
# seed -1637895546   280666977  -550650331   907990571  1847450261 -1801558969  -764688327 -1047916860  1444567422  -250774723  -887352344  -132721189
#
#      Author: C. J. Pickard (cjp20@cam.ac.uk)
#                Space group: C2
#

%BLOCK LATTICE_ABC
      6.52733      6.82839      9.65186
     69.28409     87.79794     83.76406
%ENDBLOCK LATTICE_ABC

%BLOCK POSITIONS_FRAC
  Li   0.3872089   0.1673284   0.1878635 SPIN=   0.00000
  Li  -0.3872089  -0.3551919   0.1878635 SPIN=   0.00000
  Li   0.1157310   0.3271640  -0.1795174 SPIN=   0.00000
  Li  -0.1157310  -0.1476466  -0.1795174 SPIN=   0.00000
  Fe  -0.3608147  -0.0517114  -0.4568849 SPIN=   2.26975
  Fe   0.3608147  -0.4914037  -0.4568849 SPIN=   2.26975
  Fe   0.1058324  -0.3319052   0.1406671 SPIN=   5.73025
  Fe  -0.1058324   0.1912381   0.1406671 SPIN=   5.73025
   O   0.5494931  -0.0551229  -0.2336154 SPIN=   0.00000
   O   0.2901748  -0.2896578  -0.2418142 SPIN=   0.00000
   O   0.1875540   0.0157820  -0.1641345 SPIN=   0.00000
   O   0.4071670  -0.2913249  -0.0004819 SPIN=   0.00000
   S   0.3585972  -0.1550809  -0.1600115 SPIN=   0.00000
   O  -0.5494931   0.2887383  -0.2336154 SPIN=   0.00000
   O  -0.2901748   0.5314720  -0.2418142 SPIN=   0.00000
   O  -0.1875540   0.1483525  -0.1641345 SPIN=   0.00000
   O  -0.4071670   0.2918068  -0.0004819 SPIN=   0.00000
   S  -0.3585972   0.3150924  -0.1600115 SPIN=   0.00000
   O  -0.2187676  -0.6907788   0.5567157 SPIN=   0.00000
   O  -0.3398137  -0.3143598   0.4316614 SPIN=   0.00000
   O  -0.1184939  -0.5053985   0.2969622 SPIN=   0.00000
   O   0.0277501  -0.4217964   0.4998557 SPIN=   0.00000
   S  -0.1623313  -0.4830833   0.4462987 SPIN=   0.00000
   O   0.2187676   0.1340631   0.5567157 SPIN=   0.00000
   O   0.3398137  -0.1173017   0.4316614 SPIN=   0.00000
   O   0.1184939   0.2084363   0.2969622 SPIN=   0.00000
   O  -0.0277501  -0.0780593   0.4998557 SPIN=   0.00000
   S   0.1623313   0.0367846   0.4462987 SPIN=   0.00000
   F  -0.1836516  -0.2354564   0.0269692 SPIN=   0.00000
   F   0.1836516   0.2084872   0.0269692 SPIN=   0.00000
   F  -0.3352557   0.0844049   0.3062117 SPIN=   0.00000
   F   0.3352557  -0.3906166   0.3062117 SPIN=   0.00000
%ENDBLOCK POSITIONS_FRAC

# Note: total spin =  16.00

KPOINTS_MP_SPACING 0.07

%BLOCK SPECIES_POT
QC5
%ENDBLOCK SPECIES_POT

SNAP_TO_SYMMETRY
SYMMETRY_GENERATE

