#              Generated by Buildcell
#
# at 07:55:24 (GMT+1.0) 4th August 2020
# in /lustre/scratch/uccabz1/launch_tmp
# on node-c12m-023
# by uccabz1
#
# compiler GCC version 4.9.2
# options -cpp -iprefix /lustre/shared/ucl/apps/gcc/4.9.2/bin/../lib/gcc/x86_64-unknown-linux-gnu/4.9.2/ -mtune=corei7 -march=x86-64 -g -Og
#
# seed  -796420762  1111949730  1273360525 -1627236966  1405569812  -116409492  1717384225   309749950 -1428778053 -1041130144   910992902  1737005269
#
#      Author: C. J. Pickard (cjp20@cam.ac.uk)
#                Space group: P-1
#

%BLOCK LATTICE_ABC
      4.24354      6.56474     14.67756
     96.72220     94.18332     98.42227
%ENDBLOCK LATTICE_ABC

%BLOCK POSITIONS_FRAC
  Li   0.0723272  -0.4628809   0.2542245 SPIN=   0.00000
  Li  -0.0723272   0.4628809  -0.2542245 SPIN=   0.00000
  Li   0.6711987  -0.0288098   0.2043339 SPIN=   0.00000
  Li  -0.6711987   0.0288098  -0.2043339 SPIN=   0.00000
  Fe  -0.5174918  -0.3902047  -0.1197414 SPIN=   2.19248
  Fe   0.5174918   0.3902047   0.1197414 SPIN=   2.19248
  Fe  -0.1035102   0.1829381  -0.0756162 SPIN=   5.80752
  Fe   0.1035102  -0.1829381   0.0756162 SPIN=   5.80752
   O  -0.4839930  -0.2625391  -0.3879915 SPIN=   0.00000
   O   0.0625486  -0.2572348  -0.3153074 SPIN=   0.00000
   O  -0.3762920  -0.1967833  -0.2182720 SPIN=   0.00000
   O  -0.1649828   0.0692385  -0.3139479 SPIN=   0.00000
   S  -0.2406798  -0.1618297  -0.3088797 SPIN=   0.00000
   O   0.4839930   0.2625391   0.3879915 SPIN=   0.00000
   O  -0.0625486   0.2572348   0.3153074 SPIN=   0.00000
   O   0.3762920   0.1967833   0.2182720 SPIN=   0.00000
   O   0.1649828  -0.0692385   0.3139479 SPIN=   0.00000
   S   0.2406798   0.1618297   0.3088797 SPIN=   0.00000
   O   0.7741610  -0.0692744   0.4115913 SPIN=   0.00000
   O   0.7718074  -0.3819035   0.4909686 SPIN=   0.00000
   O   0.5109382  -0.4121967   0.3325236 SPIN=   0.00000
   O   0.2701230  -0.2391381   0.4631146 SPIN=   0.00000
   S   0.5817574  -0.2756282   0.4245495 SPIN=   0.00000
   O  -0.7741610   0.0692744  -0.4115913 SPIN=   0.00000
   O  -0.7718074   0.3819035  -0.4909686 SPIN=   0.00000
   O  -0.5109382   0.4121967  -0.3325236 SPIN=   0.00000
   O  -0.2701230   0.2391381  -0.4631146 SPIN=   0.00000
   S  -0.5817574   0.2756282  -0.4245495 SPIN=   0.00000
   F   0.1845837  -0.2009194  -0.0796338 SPIN=   0.00000
   F  -0.1845837   0.2009194   0.0796338 SPIN=   0.00000
   F   0.4471211  -0.3107464   0.1673880 SPIN=   0.00000
   F  -0.4471211   0.3107464  -0.1673880 SPIN=   0.00000
%ENDBLOCK POSITIONS_FRAC

# Note: total spin =  16.00

KPOINTS_MP_SPACING 0.07

%BLOCK SPECIES_POT
QC5
%ENDBLOCK SPECIES_POT

SNAP_TO_SYMMETRY
SYMMETRY_GENERATE

