#              Generated by Buildcell
#
# at 04:56:11 (GMT+1.0) 18th August 2020
# in /lustre/scratch/uccabz1/launch_tmp
# on node-c12o-011
# by uccabz1
#
# compiler GCC version 4.9.2
# options -cpp -iprefix /lustre/shared/ucl/apps/gcc/4.9.2/bin/../lib/gcc/x86_64-unknown-linux-gnu/4.9.2/ -mtune=corei7 -march=x86-64 -g -Og
#
# seed -1712377818  1156685645  1410070379   -14950093 -1720365533  -794064072 -1538475700    45320431   437640622  -179551874 -1346856480  1557273123
#
#      Author: C. J. Pickard (cjp20@cam.ac.uk)
#                Space group: Cm
#

%BLOCK LATTICE_ABC
      6.90734      7.88681      8.87254
    113.08628    109.23835     97.72666
%ENDBLOCK LATTICE_ABC

%BLOCK POSITIONS_FRAC
  Li   0.4061893  -0.1811133   0.2386744 SPIN=   0.00000
  Li   0.1675149  -0.4197877  -0.2386744 SPIN=   0.00000
  Li   0.1616887   0.0650252  -0.2524637 SPIN=   0.00000
  Li   0.4141525   0.3174889   0.2524637 SPIN=   0.00000
  Fe  -0.2778111  -0.4194628  -0.3723773 SPIN=   3.62458
  Fe   0.0945662  -0.0470855   0.3723773 SPIN=   3.62458
  Fe  -0.2761629   0.0914433  -0.3649798 SPIN=   4.37542
  Fe   0.0888169   0.4564231   0.3649798 SPIN=   4.37542
   O   0.5191914  -0.1841181  -0.4076580 SPIN=   0.00000
   O   0.5183725  -0.2515088  -0.1578823 SPIN=   0.00000
   O   0.1786441  -0.2624374  -0.3781613 SPIN=   0.00000
   O   0.4593728   0.0513009  -0.1574383 SPIN=   0.00000
   S   0.4188952  -0.1616909  -0.2752850 SPIN=   0.00000
   O  -0.0731505   0.2235399   0.4076580 SPIN=   0.00000
   O  -0.3237452  -0.0936266   0.1578823 SPIN=   0.00000
   O  -0.4431946   0.1157239   0.3781613 SPIN=   0.00000
   O  -0.3831889   0.2087392   0.1574383 SPIN=   0.00000
   S  -0.3058198   0.1135941   0.2752850 SPIN=   0.00000
   O  -0.5468184  -0.4972503   0.1574939 SPIN=   0.00000
   O  -0.2082832  -0.4728239   0.3888827 SPIN=   0.00000
   O  -0.2960961  -0.1757840   0.3983091 SPIN=   0.00000
   O  -0.1972637  -0.3757392   0.1575412 SPIN=   0.00000
   S  -0.3121154  -0.3803994   0.2755567 SPIN=   0.00000
   O   0.2956877   0.3452558  -0.1574939 SPIN=   0.00000
   O   0.4028341   0.1382934  -0.3888827 SPIN=   0.00000
   O   0.3055948   0.4259069  -0.3983091 SPIN=   0.00000
   O   0.6451950   0.4667195  -0.1575412 SPIN=   0.00000
   S   0.4123279   0.3440439  -0.2755567 SPIN=   0.00000
   F   0.1904611   0.1600320   0.2675881 SPIN=   0.00000
   F  -0.0771270  -0.1075561  -0.2675881 SPIN=   0.00000
   F  -0.0700199   0.3930885  -0.2681398 SPIN=   0.00000
   F   0.1981199  -0.3387716   0.2681398 SPIN=   0.00000
%ENDBLOCK POSITIONS_FRAC

# Note: total spin =  16.00

KPOINTS_MP_SPACING 0.07

%BLOCK SPECIES_POT
QC5
%ENDBLOCK SPECIES_POT

SNAP_TO_SYMMETRY
SYMMETRY_GENERATE

