#              Generated by Buildcell
#
# at 07:57:35 (GMT+1.0) 4th August 2020
# in /lustre/scratch/uccabz1/launch_tmp
# on node-c12j-005
# by uccabz1
#
# compiler GCC version 4.9.2
# options -cpp -iprefix /lustre/shared/ucl/apps/gcc/4.9.2/bin/../lib/gcc/x86_64-unknown-linux-gnu/4.9.2/ -mtune=corei7 -march=x86-64 -g -Og
#
# seed  1555200341    36288466   104708729 -1629572863   300113419  -302967156  -786433933  1965894921   -27783967  1977306055   301816709   339889721
#
#      Author: C. J. Pickard (cjp20@cam.ac.uk)
#                Space group: P21
#

%BLOCK LATTICE_ABC
      5.23782      8.00338      9.58073
     90.00000     95.15899     90.00000
%ENDBLOCK LATTICE_ABC

%BLOCK POSITIONS_FRAC
  Li   0.0938096  -0.4177391  -0.4710917 SPIN=   0.00000
  Li  -0.0938096   0.0822609   0.4710917 SPIN=   0.00000
  Li   0.1691446   0.0056843   0.0911741 SPIN=   0.00000
  Li  -0.1691446  -0.4943157  -0.0911741 SPIN=   0.00000
  Fe  -0.3111379   0.3114907   0.1547190 SPIN=   3.46929
  Fe   0.3111379  -0.1885093  -0.1547190 SPIN=   3.46929
  Fe   0.3199574   0.3539319  -0.1884994 SPIN=   4.53071
  Fe  -0.3199574  -0.1460681   0.1884994 SPIN=   4.53071
   O   0.3924647  -0.1246168  -0.6311610 SPIN=   0.00000
   O   0.6118907  -0.3533429  -0.4940952 SPIN=   0.00000
   O   0.2654193  -0.1939233  -0.3953508 SPIN=   0.00000
   O   0.6842687  -0.0594419  -0.4205516 SPIN=   0.00000
   S   0.4885109  -0.1828312  -0.4852897 SPIN=   0.00000
   O  -0.3924647   0.3753832   0.6311610 SPIN=   0.00000
   O  -0.6118907   0.1466571   0.4940952 SPIN=   0.00000
   O  -0.2654193   0.3060767   0.3953508 SPIN=   0.00000
   O  -0.6842687   0.4405581   0.4205516 SPIN=   0.00000
   S  -0.4885109   0.3171688   0.4852897 SPIN=   0.00000
   O   0.4636367  -0.4000707   0.2330813 SPIN=   0.00000
   O   0.1300910  -0.3528032   0.0372795 SPIN=   0.00000
   O   0.0304444  -0.3059642   0.2818871 SPIN=   0.00000
   O   0.0949645  -0.5934540   0.1966395 SPIN=   0.00000
   S   0.1797841  -0.4130730   0.1872218 SPIN=   0.00000
   O  -0.4636367   0.0999293  -0.2330813 SPIN=   0.00000
   O  -0.1300910   0.1471968  -0.0372795 SPIN=   0.00000
   O  -0.0304444   0.1940358  -0.2818871 SPIN=   0.00000
   O  -0.0949645  -0.0934540  -0.1966395 SPIN=   0.00000
   S  -0.1797841   0.0869270  -0.1872218 SPIN=   0.00000
   F   0.3756124   0.2088879   0.0457319 SPIN=   0.00000
   F  -0.3756124  -0.2911121  -0.0457319 SPIN=   0.00000
   F   0.0879586  -0.4813874  -0.2671607 SPIN=   0.00000
   F  -0.0879586   0.0186126   0.2671607 SPIN=   0.00000
%ENDBLOCK POSITIONS_FRAC

# Note: total spin =  16.00

KPOINTS_MP_SPACING 0.07

%BLOCK SPECIES_POT
QC5
%ENDBLOCK SPECIES_POT

SNAP_TO_SYMMETRY
SYMMETRY_GENERATE

