#              Generated by Buildcell
#
# at 16:22:07 (GMT+1.0) 18th August 2020
# in /lustre/scratch/uccabz1/launch_tmp
# on node-c12l-014
# by uccabz1
#
# compiler GCC version 4.9.2
# options -cpp -iprefix /lustre/shared/ucl/apps/gcc/4.9.2/bin/../lib/gcc/x86_64-unknown-linux-gnu/4.9.2/ -mtune=corei7 -march=x86-64 -g -Og
#
# seed  1916153002  -927686659  1561769891 -1665122832 -1215044008 -1148083468  -162877647  -437004036  1694378264   947021330 -1237530898 -1871725037
#
#      Author: C. J. Pickard (cjp20@cam.ac.uk)
#                Space group: Cc
#

%BLOCK LATTICE_ABC
      7.95395      7.95395      8.13964
    107.98427    112.64206    106.86246
%ENDBLOCK LATTICE_ABC

%BLOCK POSITIONS_FRAC
  Li  -0.4674357   0.0299973   0.3217275 SPIN=   0.00000
  Li  -0.2082698  -0.2108367  -0.1782725 SPIN=   0.00000
  Li  -0.0901751  -0.3945796   0.3013955 SPIN=   0.00000
  Li   0.1959751   0.3915705  -0.1986045 SPIN=   0.00000
  Fe  -0.1547548   0.4089033  -0.1257938 SPIN=   4.77831
  Fe  -0.0346971   0.0289610   0.3742062 SPIN=   4.77831
  Fe   0.1992349  -0.1939686  -0.1537479 SPIN=   3.22169
  Fe  -0.4597792  -0.3529827   0.3462521 SPIN=   3.22169
   O  -0.3491986   0.3872240   0.2359060 SPIN=   0.00000
   O  -0.1156511   0.2350114   0.2953025 SPIN=   0.00000
   O  -0.2999699   0.2158188  -0.0391706 SPIN=   0.00000
   O  -0.4923342   0.0193518   0.0710983 SPIN=   0.00000
   S  -0.3142885   0.2143515   0.1407840 SPIN=   0.00000
   O   0.3486820   0.5851046  -0.2640940 SPIN=   0.00000
   O   0.5602911   0.4109537  -0.2046975 SPIN=   0.00000
   O   0.2450105   0.2607993  -0.5391706 SPIN=   0.00000
   O   0.5517465   0.5634325  -0.4289017 SPIN=   0.00000
   S   0.4264326   0.4550725  -0.3592160 SPIN=   0.00000
   O   0.3261288   0.0184041  -0.2870068 SPIN=   0.00000
   O   0.1983250  -0.3265105  -0.5431627 SPIN=   0.00000
   O   0.5701322  -0.0884802  -0.3448689 SPIN=   0.00000
   O   0.3246935  -0.0428333  -0.6048121 SPIN=   0.00000
   S   0.3548199  -0.1098550  -0.4449626 SPIN=   0.00000
   O   0.1945891   0.3868645   0.2129932 SPIN=   0.00000
   O   0.2833478   0.2585123  -0.0431627 SPIN=   0.00000
   O   0.2436113   0.0849989   0.1551311 SPIN=   0.00000
   O  -0.0619788   0.0704944  -0.1048121 SPIN=   0.00000
   S   0.1648923   0.2002175   0.0550374 SPIN=   0.00000
   F  -0.1246765  -0.1865528   0.0936209 SPIN=   0.00000
   F  -0.2198263   0.2182974  -0.4063791 SPIN=   0.00000
   F  -0.0749270  -0.2390228  -0.4035584 SPIN=   0.00000
   F   0.3354644  -0.3286314   0.0964416 SPIN=   0.00000
%ENDBLOCK POSITIONS_FRAC

# Note: total spin =  16.00

KPOINTS_MP_SPACING 0.07

%BLOCK SPECIES_POT
QC5
%ENDBLOCK SPECIES_POT

SNAP_TO_SYMMETRY
SYMMETRY_GENERATE

