#              Generated by Buildcell
#
# at 15:20:58 (GMT+1.0) 18th August 2020
# in /lustre/scratch/uccabz1/launch_tmp
# on node-c12n-011
# by uccabz1
#
# compiler GCC version 4.9.2
# options -cpp -iprefix /lustre/shared/ucl/apps/gcc/4.9.2/bin/../lib/gcc/x86_64-unknown-linux-gnu/4.9.2/ -mtune=corei7 -march=x86-64 -g -Og
#
# seed  1406512657  -640760456  1847423055   674916090   379901764  1807421103  -716597906   226926769  -670434717  -511251986 -1998527850   415566863
#
#      Author: C. J. Pickard (cjp20@cam.ac.uk)
#                Space group: P21
#

%BLOCK LATTICE_ABC
      4.61892      6.76903     12.91656
     90.00000     90.00000     97.91174
%ENDBLOCK LATTICE_ABC

%BLOCK POSITIONS_FRAC
  Li   0.2084759  -0.1877128  -0.2528483 SPIN=   0.00000
  Li  -0.2084759   0.1877128   0.2471517 SPIN=   0.00000
  Li   0.2615676  -0.2513855   0.2171615 SPIN=   0.00000
  Li  -0.2615676   0.2513855  -0.2828385 SPIN=   0.00000
  Fe  -0.1243253  -0.2705477   0.4196448 SPIN=   2.43098
  Fe   0.1243253   0.2705477  -0.0803552 SPIN=   2.43098
  Fe   0.2752119   0.4569350  -0.3953211 SPIN=   5.56902
  Fe  -0.2752119  -0.4569350   0.1046789 SPIN=   5.56902
   O  -0.1043554  -0.3956945  -0.0979547 SPIN=   0.00000
   O  -0.2344302  -0.2783223  -0.2710954 SPIN=   0.00000
   O  -0.5632037  -0.2506811  -0.1220606 SPIN=   0.00000
   O  -0.5150409  -0.5821486  -0.1956648 SPIN=   0.00000
   S  -0.3542575  -0.3767116  -0.1716939 SPIN=   0.00000
   O   0.1043554   0.3956945   0.4020453 SPIN=   0.00000
   O   0.2344302   0.2783223   0.2289046 SPIN=   0.00000
   O   0.5632037   0.2506811   0.3779394 SPIN=   0.00000
   O   0.5150409   0.5821486   0.3043352 SPIN=   0.00000
   S   0.3542575   0.3767116   0.3283061 SPIN=   0.00000
   O   0.3187030   0.1945090  -0.4636994 SPIN=   0.00000
   O   0.2020840  -0.1728490  -0.4746856 SPIN=   0.00000
   O   0.5329815  -0.0191010  -0.3374138 SPIN=   0.00000
   O   0.6976341  -0.0077624  -0.5199148 SPIN=   0.00000
   S   0.4378506  -0.0013008  -0.4489284 SPIN=   0.00000
   O  -0.3187030  -0.1945090   0.0363006 SPIN=   0.00000
   O  -0.2020840   0.1728490   0.0253144 SPIN=   0.00000
   O  -0.5329815   0.0191010   0.1625862 SPIN=   0.00000
   O  -0.6976341   0.0077624  -0.0199148 SPIN=   0.00000
   S  -0.4378506   0.0013008   0.0510716 SPIN=   0.00000
   F  -0.0557783  -0.0966998   0.2795030 SPIN=   0.00000
   F   0.0557783   0.0966998  -0.2204970 SPIN=   0.00000
   F   0.2439068   0.4937503   0.0581852 SPIN=   0.00000
   F  -0.2439068  -0.4937503  -0.4418148 SPIN=   0.00000
%ENDBLOCK POSITIONS_FRAC

# Note: total spin =  16.00

KPOINTS_MP_SPACING 0.07

%BLOCK SPECIES_POT
QC5
%ENDBLOCK SPECIES_POT

SNAP_TO_SYMMETRY
SYMMETRY_GENERATE

