#              Generated by Buildcell
#
# at 05:57:10 (GMT+1.0) 4th August 2020
# in /lustre/scratch/uccabz1/launch_tmp
# on node-c12f-007
# by uccabz1
#
# compiler GCC version 4.9.2
# options -cpp -iprefix /lustre/shared/ucl/apps/gcc/4.9.2/bin/../lib/gcc/x86_64-unknown-linux-gnu/4.9.2/ -mtune=corei7 -march=x86-64 -g -Og
#
# seed -1074538099  1380227382 -1143421292   -43407129  1421993723  -293585973  1162626734  1357332241  1779393785   417081882 -1687004336   328564748
#
#      Author: C. J. Pickard (cjp20@cam.ac.uk)
#                Space group: C2
#

%BLOCK LATTICE_ABC
      4.44382      8.25400     11.47059
     98.84889     90.00000    105.61618
%ENDBLOCK LATTICE_ABC

%BLOCK POSITIONS_FRAC
  Li  -0.0745497  -0.2112014   0.1529791 SPIN=   0.00000
  Li   0.1366516   0.2112014  -0.1529791 SPIN=   0.00000
  Li  -0.2096401   0.2921778  -0.4975954 SPIN=   0.00000
  Li   0.4981821  -0.2921778   0.4975954 SPIN=   0.00000
  Fe  -0.0200732  -0.3496570  -0.3325935 SPIN=   4.51262
  Fe   0.3295838   0.3496570   0.3325935 SPIN=   4.51262
  Fe  -0.3837787   0.0357063  -0.3330598 SPIN=   3.48738
  Fe  -0.4194849  -0.0357063   0.3330598 SPIN=   3.48738
   O  -0.3000670   0.3068775   0.0968354 SPIN=   0.00000
   O   0.0949109   0.4349151  -0.0387901 SPIN=   0.00000
   O   0.1278301   0.1757341   0.0381083 SPIN=   0.00000
   O   0.2428511   0.4525550   0.1717318 SPIN=   0.00000
   S   0.0413813   0.3425204   0.0669713 SPIN=   0.00000
   O  -0.6069445  -0.3068775  -0.0968354 SPIN=   0.00000
   O  -0.3400042  -0.4349151   0.0387901 SPIN=   0.00000
   O  -0.0479040  -0.1757341  -0.0381083 SPIN=   0.00000
   O  -0.2097039  -0.4525550  -0.1717318 SPIN=   0.00000
   S  -0.3011391  -0.3425204  -0.0669713 SPIN=   0.00000
   O   0.3218872  -0.3100551   0.3226151 SPIN=   0.00000
   O  -0.2202711  -0.4133687   0.2373782 SPIN=   0.00000
   O  -0.0971173  -0.2008787   0.4201997 SPIN=   0.00000
   O  -0.0876455  -0.4983665   0.4243555 SPIN=   0.00000
   S  -0.0207867  -0.3556672   0.3511371 SPIN=   0.00000
   O   0.6319422   0.3100551  -0.3226151 SPIN=   0.00000
   O   0.1930976   0.4133687  -0.2373782 SPIN=   0.00000
   O   0.1037614   0.2008787  -0.4201997 SPIN=   0.00000
   O   0.4107209   0.4983665  -0.4243555 SPIN=   0.00000
   S   0.3348806   0.3556672  -0.3511371 SPIN=   0.00000
   F   0.3404846  -0.0590336   0.1418660 SPIN=   0.00000
   F   0.3995183   0.0590336  -0.1418660 SPIN=   0.00000
   F  -0.2125444  -0.1644862  -0.3502491 SPIN=   0.00000
   F  -0.0480582   0.1644862   0.3502491 SPIN=   0.00000
%ENDBLOCK POSITIONS_FRAC

# Note: total spin =  16.00

KPOINTS_MP_SPACING 0.07

%BLOCK SPECIES_POT
QC5
%ENDBLOCK SPECIES_POT

SNAP_TO_SYMMETRY
SYMMETRY_GENERATE

