#              Generated by Buildcell
#
# at 09:16:32 (GMT+1.0) 18th August 2020
# in /lustre/scratch/uccabz1/launch_tmp
# on node-c12g-030
# by uccabz1
#
# compiler GCC version 4.9.2
# options -cpp -iprefix /lustre/shared/ucl/apps/gcc/4.9.2/bin/../lib/gcc/x86_64-unknown-linux-gnu/4.9.2/ -mtune=corei7 -march=x86-64 -g -Og
#
# seed -1465024547   -21000771   988029083 -1708641523  1190128440 -2013102228  1352473474  1292433773   326220263   997443983    19528432 -1271931241
#
#      Author: C. J. Pickard (cjp20@cam.ac.uk)
#                Space group: Cc
#

%BLOCK LATTICE_ABC
      7.71973      8.12376      8.12376
     74.10524     62.55200     62.55200
%ENDBLOCK LATTICE_ABC

%BLOCK POSITIONS_FRAC
  Li   0.2678288   0.2660710  -0.2297500 SPIN=   0.00000
  Li  -0.2321712  -0.2297500   0.2660710 SPIN=   0.00000
  Li  -0.1479299   0.1507333  -0.4202022 SPIN=   0.00000
  Li   0.3520701  -0.4202022   0.1507333 SPIN=   0.00000
  Fe  -0.6177406  -0.3038796   0.4878939 SPIN=   6.94985
  Fe  -0.1177406   0.4878939  -0.3038796 SPIN=   6.94985
  Fe   0.4700211  -0.1016497  -0.0602137 SPIN=   1.05015
  Fe  -0.0299789  -0.0602137  -0.1016497 SPIN=   1.05015
   O  -0.9685715   0.5492873   0.1680880 SPIN=   0.00000
   O  -1.0225710   0.2735291   0.1627428 SPIN=   0.00000
   O  -1.2591464   0.4705519   0.4286294 SPIN=   0.00000
   O  -0.8856429   0.2722460   0.3852274 SPIN=   0.00000
   S  -1.0339830   0.3914036   0.2861719 SPIN=   0.00000
   O  -0.4685715   0.1680880   0.5492873 SPIN=   0.00000
   O  -0.5225710   0.1627428   0.2735291 SPIN=   0.00000
   O  -0.7591464   0.4286294   0.4705519 SPIN=   0.00000
   O  -0.3856429   0.3852274   0.2722460 SPIN=   0.00000
   S  -0.5339830   0.2861719   0.3914036 SPIN=   0.00000
   O   0.0084541  -0.2759665   0.4238761 SPIN=   0.00000
   O   0.1800423  -0.1561691   0.1025525 SPIN=   0.00000
   O   0.0862210   0.0021751   0.3701108 SPIN=   0.00000
   O  -0.1967515   0.0214247   0.2913328 SPIN=   0.00000
   S   0.0194915  -0.1021340   0.2969681 SPIN=   0.00000
   O  -0.4915459   0.4238761  -0.2759665 SPIN=   0.00000
   O  -0.3199577   0.1025525  -0.1561691 SPIN=   0.00000
   O  -0.4137790   0.3701108   0.0021751 SPIN=   0.00000
   O  -0.6967515   0.2913328   0.0214247 SPIN=   0.00000
   S  -0.4805085   0.2969681  -0.1021340 SPIN=   0.00000
   F   0.0815085   0.1470309  -0.1766543 SPIN=   0.00000
   F  -0.4184915  -0.1766543   0.1470309 SPIN=   0.00000
   F   0.6061406  -0.2611296  -0.2992872 SPIN=   0.00000
   F   0.1061406  -0.2992872  -0.2611296 SPIN=   0.00000
%ENDBLOCK POSITIONS_FRAC

# Note: total spin =  16.00

KPOINTS_MP_SPACING 0.07

%BLOCK SPECIES_POT
QC5
%ENDBLOCK SPECIES_POT

SNAP_TO_SYMMETRY
SYMMETRY_GENERATE

