#              Generated by Buildcell
#
# at 01:58:48 (GMT+1.0) 18th August 2020
# in /lustre/scratch/uccabz1/launch_tmp
# on node-c12f-002
# by uccabz1
#
# compiler GCC version 4.9.2
# options -cpp -iprefix /lustre/shared/ucl/apps/gcc/4.9.2/bin/../lib/gcc/x86_64-unknown-linux-gnu/4.9.2/ -mtune=corei7 -march=x86-64 -g -Og
#
# seed  -101678854   275372162  1609914884   223064652  1606432200  1719344988  -165022765  -710855737  1640220897  -877957361  1872861700   983289741
#
#      Author: C. J. Pickard (cjp20@cam.ac.uk)
#                Space group: P212121
#

%BLOCK LATTICE_ABC
      6.50574      7.64743      8.03984
     90.00000     90.00000     90.00000
%ENDBLOCK LATTICE_ABC

%BLOCK POSITIONS_FRAC
  Li  -0.2193481  -0.2549110   0.1233748 SPIN=   0.00000
  Li   0.2193481   0.2450890   0.3766252 SPIN=   0.00000
  Li   0.2806519  -0.2450890  -0.1233748 SPIN=   0.00000
  Li  -0.2806519   0.2549110  -0.3766252 SPIN=   0.00000
  Fe   0.4970021  -0.4655256   0.4530573 SPIN=   4.00000
  Fe  -0.4970021   0.0344744   0.0469427 SPIN=   4.00000
  Fe  -0.0029979  -0.0344744  -0.4530573 SPIN=   4.00000
  Fe   0.0029979   0.4655256  -0.0469427 SPIN=   4.00000
   O   0.1026310  -0.4613111   0.1925404 SPIN=   0.00000
   O  -0.2126166  -0.5290904   0.3523128 SPIN=   0.00000
   O  -0.0279934  -0.2508253   0.4011058 SPIN=   0.00000
   O   0.1259791  -0.5306782   0.4926179 SPIN=   0.00000
   S  -0.0030000  -0.4429763   0.3596442 SPIN=   0.00000
   O  -0.1026310   0.0386889   0.3074596 SPIN=   0.00000
   O   0.2126166  -0.0290904   0.1476872 SPIN=   0.00000
   O   0.0279934   0.2491747   0.0988942 SPIN=   0.00000
   O  -0.1259791  -0.0306782   0.0073821 SPIN=   0.00000
   S   0.0030000   0.0570237   0.1403558 SPIN=   0.00000
   O   0.6026310  -0.0386889  -0.1925404 SPIN=   0.00000
   O   0.2873834   0.0290904  -0.3523128 SPIN=   0.00000
   O   0.4720066  -0.2491747  -0.4011058 SPIN=   0.00000
   O   0.6259791   0.0306782  -0.4926179 SPIN=   0.00000
   S   0.4970000  -0.0570237  -0.3596442 SPIN=   0.00000
   O  -0.6026310   0.4613111  -0.3074596 SPIN=   0.00000
   O  -0.2873834   0.5290904  -0.1476872 SPIN=   0.00000
   O  -0.4720066   0.2508253  -0.0988942 SPIN=   0.00000
   O  -0.6259791   0.5306782  -0.0073821 SPIN=   0.00000
   S  -0.4970000   0.4429763  -0.1403558 SPIN=   0.00000
   F  -0.0174145   0.2616547  -0.2458928 SPIN=   0.00000
   F   0.0174145  -0.2383453  -0.2541072 SPIN=   0.00000
   F   0.4825855   0.2383453   0.2458928 SPIN=   0.00000
   F  -0.4825855  -0.2616547   0.2541072 SPIN=   0.00000
%ENDBLOCK POSITIONS_FRAC

# Note: total spin =  16.00

KPOINTS_MP_SPACING 0.07

%BLOCK SPECIES_POT
QC5
%ENDBLOCK SPECIES_POT

SNAP_TO_SYMMETRY
SYMMETRY_GENERATE

