#              Generated by Buildcell
#
# at 07:34:52 (GMT+1.0) 4th August 2020
# in /lustre/scratch/uccabz1/launch_tmp
# on node-c12g-026
# by uccabz1
#
# compiler GCC version 4.9.2
# options -cpp -iprefix /lustre/shared/ucl/apps/gcc/4.9.2/bin/../lib/gcc/x86_64-unknown-linux-gnu/4.9.2/ -mtune=corei7 -march=x86-64 -g -Og
#
# seed  -394917487  -401286330  1931391400   507646224 -1841216933   931914223 -1724115052  -849711674 -1630060823   -18107939 -1846383524  1962279365
#
#      Author: C. J. Pickard (cjp20@cam.ac.uk)
#                Space group: C2/c
#

%BLOCK LATTICE_ABC
      5.90039      5.91231     13.34050
     96.35561     90.00000    119.93331
%ENDBLOCK LATTICE_ABC

%BLOCK POSITIONS_FRAC
  Li  -0.0455594   0.3302984  -0.1273529 SPIN=   0.00000
  Li   0.1241422  -0.3302984  -0.3726471 SPIN=   0.00000
  Li   0.0455594  -0.3302984   0.1273529 SPIN=   0.00000
  Li  -0.1241422   0.3302984   0.3726471 SPIN=   0.00000
  Fe  -0.3660148   0.0767829   0.1710265 SPIN=   4.00000
  Fe   0.0572023  -0.0767829   0.3289735 SPIN=   4.00000
  Fe   0.3660148  -0.0767829  -0.1710265 SPIN=   4.00000
  Fe  -0.0572023   0.0767829  -0.3289735 SPIN=   4.00000
   O   0.2765785   0.0741469   0.1895876 SPIN=   0.00000
   O  -0.1789430  -0.1215813   0.1180686 SPIN=   0.00000
   O   0.1672757   0.3042516   0.0709281 SPIN=   0.00000
   O   0.0107613   0.2778902   0.2436932 SPIN=   0.00000
   O   0.7024317   0.9258531   0.3104124 SPIN=   0.00000
   O   0.4426383   1.1215813   0.3819314 SPIN=   0.00000
   O   0.3630241   0.6957484   0.4290719 SPIN=   0.00000
   O   0.2328711   0.7221098   0.2563068 SPIN=   0.00000
   O  -0.2765785  -0.0741469  -0.1895876 SPIN=   0.00000
   O   0.1789430   0.1215813  -0.1180686 SPIN=   0.00000
   O  -0.1672757  -0.3042516  -0.0709281 SPIN=   0.00000
   O  -0.0107613  -0.2778902  -0.2436932 SPIN=   0.00000
   O  -0.7024317  -0.9258531  -0.3104124 SPIN=   0.00000
   O  -0.4426383  -1.1215813  -0.3819314 SPIN=   0.00000
   O  -0.3630241  -0.6957484  -0.4290719 SPIN=   0.00000
   O  -0.2328711  -0.7221098  -0.2563068 SPIN=   0.00000
   S   0.3091930   0.5000000   0.2500000 SPIN=   0.00000
   S  -0.3091930  -0.5000000  -0.2500000 SPIN=   0.00000
   S   0.0000000   0.0000000  -0.0000000 SPIN=   0.00000
   S   0.5000000   1.0000000   0.5000000 SPIN=   0.00000
   F  -0.1774592  -0.3570160   0.4279279 SPIN=   0.00000
   F  -0.3204432  -0.6429840   0.0720721 SPIN=   0.00000
   F   0.1774592   0.3570160  -0.4279279 SPIN=   0.00000
   F   0.3204432   0.6429840  -0.0720721 SPIN=   0.00000
%ENDBLOCK POSITIONS_FRAC

# Note: total spin =  16.00

KPOINTS_MP_SPACING 0.07

%BLOCK SPECIES_POT
QC5
%ENDBLOCK SPECIES_POT

SNAP_TO_SYMMETRY
SYMMETRY_GENERATE

