#              Generated by Buildcell
#
# at 05:56:19 (GMT+1.0) 4th August 2020
# in /lustre/scratch/uccabz1/launch_tmp
# on node-c12g-002
# by uccabz1
#
# compiler GCC version 4.9.2
# options -cpp -iprefix /lustre/shared/ucl/apps/gcc/4.9.2/bin/../lib/gcc/x86_64-unknown-linux-gnu/4.9.2/ -mtune=corei7 -march=x86-64 -g -Og
#
# seed  -823258445  1931668281  -809897078    -6555158   678263600    73113103  -258652096  -178836451 -1194561393  -355627533  -402976619   971935618
#
#      Author: C. J. Pickard (cjp20@cam.ac.uk)
#                Space group: C2/c
#

%BLOCK LATTICE_ABC
      5.45845      7.35718     10.50494
    100.54255    105.05844     90.00000
%ENDBLOCK LATTICE_ABC

%BLOCK POSITIONS_FRAC
  Li  -0.2564114   0.3571008   0.1855816 SPIN=   0.00000
  Li  -0.4419931   0.1428992  -0.1855816 SPIN=   0.00000
  Li   0.2564114  -0.3571008  -0.1855816 SPIN=   0.00000
  Li   0.4419931  -0.1428992   0.1855816 SPIN=   0.00000
  Fe  -0.2015354  -0.3528015  -0.4117402 SPIN=   4.00000
  Fe   0.2102048  -0.1471985   0.4117402 SPIN=   4.00000
  Fe   0.2015354   0.3528015   0.4117402 SPIN=   4.00000
  Fe  -0.2102048   0.1471985  -0.4117402 SPIN=   4.00000
   O   0.2344913   0.2141631  -0.1198184 SPIN=   0.00000
   O   0.3180354  -0.0967249  -0.0645481 SPIN=   0.00000
   O   0.0943295  -0.0656754  -0.2962108 SPIN=   0.00000
   O  -0.1209276   0.0096045  -0.1141530 SPIN=   0.00000
   S   0.1314822   0.0153418  -0.1486826 SPIN=   0.00000
   O   0.3543097   0.2858369   0.1198184 SPIN=   0.00000
   O   0.3825834   0.5967249   0.0645481 SPIN=   0.00000
   O   0.3905403   0.5656754   0.2962108 SPIN=   0.00000
   O  -0.0067745   0.4903955   0.1141530 SPIN=   0.00000
   S   0.2801647   0.4846582   0.1486826 SPIN=   0.00000
   O  -0.2344913  -0.2141631   0.1198184 SPIN=   0.00000
   O  -0.3180354   0.0967249   0.0645481 SPIN=   0.00000
   O  -0.0943295   0.0656754   0.2962108 SPIN=   0.00000
   O   0.1209276  -0.0096045   0.1141530 SPIN=   0.00000
   S  -0.1314822  -0.0153418   0.1486826 SPIN=   0.00000
   O  -0.3543097  -0.2858369  -0.1198184 SPIN=   0.00000
   O  -0.3825834  -0.5967249  -0.0645481 SPIN=   0.00000
   O  -0.3905403  -0.5656754  -0.2962108 SPIN=   0.00000
   O   0.0067745  -0.4903955  -0.1141530 SPIN=   0.00000
   S  -0.2801647  -0.4846582  -0.1486826 SPIN=   0.00000
   F   0.4997914   0.1613903   0.3930097 SPIN=   0.00000
   F   0.1067817   0.3386097  -0.3930097 SPIN=   0.00000
   F  -0.4997914  -0.1613903  -0.3930097 SPIN=   0.00000
   F  -0.1067817  -0.3386097   0.3930097 SPIN=   0.00000
%ENDBLOCK POSITIONS_FRAC

# Note: total spin =  16.00

KPOINTS_MP_SPACING 0.07

%BLOCK SPECIES_POT
QC5
%ENDBLOCK SPECIES_POT

SNAP_TO_SYMMETRY
SYMMETRY_GENERATE

