#              Generated by Buildcell
#
# at 14:34:00 (GMT+1.0) 18th August 2020
# in /lustre/scratch/uccabz1/launch_tmp
# on node-c12f-005
# by uccabz1
#
# compiler GCC version 4.9.2
# options -cpp -iprefix /lustre/shared/ucl/apps/gcc/4.9.2/bin/../lib/gcc/x86_64-unknown-linux-gnu/4.9.2/ -mtune=corei7 -march=x86-64 -g -Og
#
# seed -1500159760  1905752268  1594952388 -1784105396 -1551406241  1000767098   973912197   549777043 -1309055526 -1586623523  -499007933  1634257129
#
#      Author: C. J. Pickard (cjp20@cam.ac.uk)
#                Space group: P-1
#

%BLOCK LATTICE_ABC
      6.07188      8.49721      8.50860
    105.28949     94.51149    106.65525
%ENDBLOCK LATTICE_ABC

%BLOCK POSITIONS_FRAC
  Li  -0.1909406   0.1231338  -0.0282318 SPIN=   0.00000
  Li   0.1909406  -0.1231338   0.0282318 SPIN=   0.00000
  Li  -0.2909312  -0.6162746  -0.6545424 SPIN=   0.00000
  Li   0.2909312   0.6162746   0.6545424 SPIN=   0.00000
  Fe  -0.3947008  -0.2374184  -0.0001675 SPIN=   3.41549
  Fe   0.3947008   0.2374184   0.0001675 SPIN=   3.41549
  Fe   0.0000000   0.5000000   0.0000000 SPIN=   5.74515
  Fe   0.5000000   1.0000000   0.5000000 SPIN=   3.42388
   O   0.0679637  -0.1126040   0.4979678 SPIN=   0.00000
   O  -0.1873522  -0.3881473   0.3016361 SPIN=   0.00000
   O   0.1543017  -0.2111702   0.2159215 SPIN=   0.00000
   O  -0.1882695  -0.1119533   0.2572563 SPIN=   0.00000
   S  -0.0383391  -0.2059687   0.3181955 SPIN=   0.00000
   O  -0.0679637   0.1126040  -0.4979678 SPIN=   0.00000
   O   0.1873522   0.3881473  -0.3016361 SPIN=   0.00000
   O  -0.1543017   0.2111702  -0.2159215 SPIN=   0.00000
   O   0.1882695   0.1119533  -0.2572563 SPIN=   0.00000
   S   0.0383391   0.2059687  -0.3181955 SPIN=   0.00000
   O   0.4234821   0.5208658   0.3073894 SPIN=   0.00000
   O   0.2265664   0.2616738   0.3861831 SPIN=   0.00000
   O   0.0377481   0.3246530   0.1520237 SPIN=   0.00000
   S   0.1898020   0.4034919   0.3209948 SPIN=   0.00000
   O  -0.4234821  -0.5208658  -0.3073894 SPIN=   0.00000
   O  -0.2265664  -0.2616738  -0.3861831 SPIN=   0.00000
   O  -0.0377481  -0.3246530  -0.1520237 SPIN=   0.00000
   S  -0.1898020  -0.4034919  -0.3209948 SPIN=   0.00000
   O   0.0000000   0.5000000   0.5000000 SPIN=   0.00000
   O   0.5000000   0.0000000   1.0000000 SPIN=   0.00000
   F  -0.4141952  -0.8483598  -0.6766434 SPIN=   0.00000
   F   0.4141952   0.8483598   0.6766434 SPIN=   0.00000
   F   0.5000000   0.5000000   1.0000000 SPIN=   0.00000
   F  -0.0000000  -0.0000000  -0.0000000 SPIN=   0.00000
%ENDBLOCK POSITIONS_FRAC

# Note: total spin =  16.00

KPOINTS_MP_SPACING 0.07

%BLOCK SPECIES_POT
QC5
%ENDBLOCK SPECIES_POT

SNAP_TO_SYMMETRY
SYMMETRY_GENERATE

