#              Generated by Buildcell
#
# at 10:04:52 (GMT+1.0) 4th August 2020
# in /lustre/scratch/uccabz1/launch_tmp
# on node-c12o-004
# by uccabz1
#
# compiler GCC version 4.9.2
# options -cpp -iprefix /lustre/shared/ucl/apps/gcc/4.9.2/bin/../lib/gcc/x86_64-unknown-linux-gnu/4.9.2/ -mtune=corei7 -march=x86-64 -g -Og
#
# seed  -206660180  1866230006   330109769  1228245620   -10987353  1188824886 -1099030391 -1904256562   395915425  -187474651  1538406224  1350064859
#
#      Author: C. J. Pickard (cjp20@cam.ac.uk)
#                Space group: P21/c
#

%BLOCK LATTICE_ABC
      4.07762      7.50624     13.06921
     90.00000     90.00000     90.53234
%ENDBLOCK LATTICE_ABC

%BLOCK POSITIONS_FRAC
  Li   0.1807228   0.0699421   0.1284298 SPIN=   0.00000
  Li   0.3192772  -0.0699421  -0.3715702 SPIN=   0.00000
  Li  -0.1807228  -0.0699421  -0.1284298 SPIN=   0.00000
  Li  -0.3192772   0.0699421   0.3715702 SPIN=   0.00000
  Fe  -0.3177641  -0.3272097   0.3634667 SPIN=   4.00000
  Fe  -0.1822359   0.3272097  -0.1365333 SPIN=   4.00000
  Fe   0.3177641   0.3272097  -0.3634667 SPIN=   4.00000
  Fe   0.1822359  -0.3272097   0.1365333 SPIN=   4.00000
   O  -0.1456752  -0.1933639  -0.4741464 SPIN=   0.00000
   O  -0.5466106  -0.3603070  -0.3681233 SPIN=   0.00000
   O  -0.0309221  -0.2474997  -0.2908695 SPIN=   0.00000
   O  -0.0172041  -0.4975635  -0.4141678 SPIN=   0.00000
   S  -0.1851030  -0.3246835  -0.3868268 SPIN=   0.00000
   O  -0.3543248   0.1933639   0.0258536 SPIN=   0.00000
   O   0.0466106   0.3603070   0.1318767 SPIN=   0.00000
   O  -0.4690779   0.2474997   0.2091305 SPIN=   0.00000
   O  -0.4827959   0.4975635   0.0858322 SPIN=   0.00000
   S  -0.3148970   0.3246835   0.1131732 SPIN=   0.00000
   O   0.1456752   0.1933639   0.4741464 SPIN=   0.00000
   O   0.5466106   0.3603070   0.3681233 SPIN=   0.00000
   O   0.0309221   0.2474997   0.2908695 SPIN=   0.00000
   O   0.0172041   0.4975635   0.4141678 SPIN=   0.00000
   S   0.1851030   0.3246835   0.3868268 SPIN=   0.00000
   O   0.3543248  -0.1933639  -0.0258536 SPIN=   0.00000
   O  -0.0466106  -0.3603070  -0.1318767 SPIN=   0.00000
   O   0.4690779  -0.2474997  -0.2091305 SPIN=   0.00000
   O   0.4827959  -0.4975635  -0.0858322 SPIN=   0.00000
   S   0.3148970  -0.3246835  -0.1131732 SPIN=   0.00000
   F  -0.3413093   0.1665331  -0.3857931 SPIN=   0.00000
   F  -0.1586907  -0.1665331   0.1142069 SPIN=   0.00000
   F   0.3413093  -0.1665331   0.3857931 SPIN=   0.00000
   F   0.1586907   0.1665331  -0.1142069 SPIN=   0.00000
%ENDBLOCK POSITIONS_FRAC

# Note: total spin =  16.00

KPOINTS_MP_SPACING 0.07

%BLOCK SPECIES_POT
QC5
%ENDBLOCK SPECIES_POT

SNAP_TO_SYMMETRY
SYMMETRY_GENERATE

