#              Generated by Buildcell
#
# at 07:45:26 (GMT+1.0) 4th August 2020
# in /lustre/scratch/uccabz1/launch_tmp
# on node-c12a-002
# by uccabz1
#
# compiler GCC version 4.9.2
# options -cpp -iprefix /lustre/shared/ucl/apps/gcc/4.9.2/bin/../lib/gcc/x86_64-unknown-linux-gnu/4.9.2/ -mtune=corei7 -march=x86-64 -g -Og
#
# seed  1284402910 -1404473817  -776313418  1902212775   753883616 -1333164498  1165208272  1327126436  1898860921  1978029993  -470597491  2067436345
#
#      Author: C. J. Pickard (cjp20@cam.ac.uk)
#                Space group: P21212
#

%BLOCK LATTICE_ABC
      6.88113      7.37155      7.88572
     90.00000     90.00000     90.00000
%ENDBLOCK LATTICE_ABC

%BLOCK POSITIONS_FRAC
  Li  -0.2939542  -0.0474883  -0.2320148 SPIN=   0.00000
  Li  -0.2939542   0.0474883   0.2320148 SPIN=   0.00000
  Li   0.2939542  -0.4525117   0.2679852 SPIN=   0.00000
  Li   0.2939542   0.4525117  -0.2679852 SPIN=   0.00000
  Fe   0.1332013  -0.0628928   0.2700910 SPIN=   4.00000
  Fe   0.1332013   0.0628928  -0.2700910 SPIN=   4.00000
  Fe  -0.1332013  -0.4371072  -0.2299090 SPIN=   4.00000
  Fe  -0.1332013   0.4371072   0.2299090 SPIN=   4.00000
   O  -0.2666754  -0.1435652   0.0667588 SPIN=   0.00000
   O  -0.6228750  -0.1187469   0.1034824 SPIN=   0.00000
   O  -0.4425386  -0.3686559   0.2418963 SPIN=   0.00000
   O  -0.4846199  -0.3671504  -0.0697873 SPIN=   0.00000
   S  -0.4541772  -0.2495296   0.0855876 SPIN=   0.00000
   O  -0.2666754   0.1435652  -0.0667588 SPIN=   0.00000
   O  -0.6228750   0.1187469  -0.1034824 SPIN=   0.00000
   O  -0.4425386   0.3686559  -0.2418963 SPIN=   0.00000
   O  -0.4846199   0.3671504   0.0697873 SPIN=   0.00000
   S  -0.4541772   0.2495296  -0.0855876 SPIN=   0.00000
   O   0.2666754  -0.3564348  -0.4332412 SPIN=   0.00000
   O   0.6228750  -0.3812531  -0.3965176 SPIN=   0.00000
   O   0.4425386  -0.1313441  -0.2581037 SPIN=   0.00000
   O   0.4846199  -0.1328496  -0.5697873 SPIN=   0.00000
   S   0.4541772  -0.2504704  -0.4144124 SPIN=   0.00000
   O   0.2666754   0.3564348   0.4332412 SPIN=   0.00000
   O   0.6228750   0.3812531   0.3965176 SPIN=   0.00000
   O   0.4425386   0.1313441   0.2581037 SPIN=   0.00000
   O   0.4846199   0.1328496   0.5697873 SPIN=   0.00000
   S   0.4541772   0.2504704   0.4144124 SPIN=   0.00000
   F  -0.0749332   0.2471216  -0.3817345 SPIN=   0.00000
   F  -0.0749332  -0.2471216   0.3817345 SPIN=   0.00000
   F   0.0749332   0.2528784   0.1182655 SPIN=   0.00000
   F   0.0749332  -0.2528784  -0.1182655 SPIN=   0.00000
%ENDBLOCK POSITIONS_FRAC

# Note: total spin =  16.00

KPOINTS_MP_SPACING 0.07

%BLOCK SPECIES_POT
QC5
%ENDBLOCK SPECIES_POT

SNAP_TO_SYMMETRY
SYMMETRY_GENERATE

