#              Generated by Buildcell
#
# at 06:27:02 (GMT+1.0) 4th August 2020
# in /lustre/scratch/uccabz1/launch_tmp
# on node-c12n-036
# by uccabz1
#
# compiler GCC version 4.9.2
# options -cpp -iprefix /lustre/shared/ucl/apps/gcc/4.9.2/bin/../lib/gcc/x86_64-unknown-linux-gnu/4.9.2/ -mtune=corei7 -march=x86-64 -g -Og
#
# seed   163298861   611327067  -982480922  -504380952  -211458085  -492981981  1716574869  -893143218   -60362443  1973818010 -1328167443  -670380030
#
#      Author: C. J. Pickard (cjp20@cam.ac.uk)
#                Space group: P2
#

%BLOCK LATTICE_ABC
      3.97077      7.44188     13.64783
     90.00000     97.32748     90.00000
%ENDBLOCK LATTICE_ABC

%BLOCK POSITIONS_FRAC
  Li   0.4045073   0.4089972  -0.2526490 SPIN=   0.00000
  Li  -0.4045073   0.4089972   0.2526490 SPIN=   0.00000
  Li  -0.1843969   0.0377833  -0.3462920 SPIN=   0.00000
  Li   0.1843969   0.0377833   0.3462920 SPIN=   0.00000
  Fe   0.2983979  -0.2667996  -0.3888110 SPIN=   4.43596
  Fe  -0.2983979  -0.2667996   0.3888110 SPIN=   4.43596
  Fe   0.0000000  -0.4331179   0.0000000 SPIN=   3.06353
  Fe  -0.0000000   0.3080427   0.5000000 SPIN=   4.06455
   O  -0.6264860  -0.4051724   0.1592179 SPIN=   0.00000
   O  -0.6593050  -0.1074898   0.0777130 SPIN=   0.00000
   O  -0.1048004  -0.2608991   0.1150805 SPIN=   0.00000
   O  -0.3916332  -0.1368757   0.2509259 SPIN=   0.00000
   S  -0.4455562  -0.2276092   0.1507343 SPIN=   0.00000
   O   0.6264860  -0.4051724  -0.1592179 SPIN=   0.00000
   O   0.6593050  -0.1074898  -0.0777130 SPIN=   0.00000
   O   0.1048004  -0.2608991  -0.1150805 SPIN=   0.00000
   O   0.3916332  -0.1368757  -0.2509259 SPIN=   0.00000
   S   0.4455562  -0.2276092  -0.1507343 SPIN=   0.00000
   O  -0.2665679   0.1579559   0.0811567 SPIN=   0.00000
   O   0.2745807   0.3240447   0.0840324 SPIN=   0.00000
   O   0.2324760   0.0700932   0.1989206 SPIN=   0.00000
   S   0.0433906   0.2268804   0.1466819 SPIN=   0.00000
   O   0.2665679   0.1579559  -0.0811567 SPIN=   0.00000
   O  -0.2745807   0.3240447  -0.0840324 SPIN=   0.00000
   O  -0.2324760   0.0700932  -0.1989206 SPIN=   0.00000
   S  -0.0433906   0.2268804  -0.1466819 SPIN=   0.00000
   O   0.0000000  -0.0071286   0.5000000 SPIN=   0.00000
   O   0.5000000  -0.1240548  -0.5000000 SPIN=   0.00000
   F  -0.3681510   0.2027874   0.3626817 SPIN=   0.00000
   F   0.3681510   0.2027874  -0.3626817 SPIN=   0.00000
   F  -0.1316358  -0.3359780  -0.3614281 SPIN=   0.00000
   F   0.1316358  -0.3359780   0.3614281 SPIN=   0.00000
%ENDBLOCK POSITIONS_FRAC

# Note: total spin =  16.00

KPOINTS_MP_SPACING 0.07

%BLOCK SPECIES_POT
QC5
%ENDBLOCK SPECIES_POT

SNAP_TO_SYMMETRY
SYMMETRY_GENERATE

