#              Generated by Buildcell
#
# at 08:02:49 (GMT+1.0) 4th August 2020
# in /lustre/scratch/uccabz1/launch_tmp
# on node-c12g-031
# by uccabz1
#
# compiler GCC version 4.9.2
# options -cpp -iprefix /lustre/shared/ucl/apps/gcc/4.9.2/bin/../lib/gcc/x86_64-unknown-linux-gnu/4.9.2/ -mtune=corei7 -march=x86-64 -g -Og
#
# seed  1178758449  2064089128   692351352 -1319198765  1403578922  -265411509  1910340595   752924472  1830758469 -1162927552 -1912635194   -27717046
#
#      Author: C. J. Pickard (cjp20@cam.ac.uk)
#                Space group: I41
#

%BLOCK LATTICE_ABC
      7.49824      7.49824      8.87283
    114.99503    114.99503     90.00000
%ENDBLOCK LATTICE_ABC

%BLOCK POSITIONS_FRAC
  Li   0.2919026   0.4441882   0.4280370 SPIN=   0.00000
  Li   0.1361344  -0.0161513   0.4280370 SPIN=   0.00000
  Li   0.2338487   0.0419026  -0.0719630 SPIN=   0.00000
  Li  -0.3058118  -0.1138656  -0.0719630 SPIN=   0.00000
  Fe  -0.0705878   0.2741665   0.0116955 SPIN=   4.00000
  Fe   0.0822833  -0.2624710   0.0116955 SPIN=   4.00000
  Fe  -0.0124710  -0.3205878  -0.4883045 SPIN=   4.00000
  Fe  -0.4758335  -0.1677167  -0.4883045 SPIN=   4.00000
   O  -0.3063586   0.5215013   0.4117552 SPIN=   0.00000
   O  -0.6745011   0.4675798   0.2204446 SPIN=   0.00000
   O  -0.5234995   0.1811072   0.2445136 SPIN=   0.00000
   O  -0.4631079   0.3306334   0.0648199 SPIN=   0.00000
   S  -0.4918668   0.3752054   0.2353833 SPIN=   0.00000
   O  -0.2818862  -0.1097461   0.4117552 SPIN=   0.00000
   O  -0.1050542  -0.2471352   0.2204446 SPIN=   0.00000
   O  -0.2319869   0.0634063   0.2445136 SPIN=   0.00000
   O  -0.4720722  -0.2658135   0.0648199 SPIN=   0.00000
   S  -0.2727499  -0.1398221   0.2353833 SPIN=   0.00000
   O   0.1402539   0.4436414  -0.0882448 SPIN=   0.00000
   O   0.0028648   0.0754989  -0.2795554 SPIN=   0.00000
   O   0.3134063   0.2265005  -0.2554864 SPIN=   0.00000
   O  -0.0158135   0.2868921  -0.4351801 SPIN=   0.00000
   S   0.1101779   0.2581332  -0.2646167 SPIN=   0.00000
   O  -0.2284987   0.4681138  -0.0882448 SPIN=   0.00000
   O  -0.2824202   0.6449458  -0.2795554 SPIN=   0.00000
   O  -0.5688928   0.5180131  -0.2554864 SPIN=   0.00000
   O  -0.4193666   0.2779278  -0.4351801 SPIN=   0.00000
   S  -0.3747946   0.4772501  -0.2646167 SPIN=   0.00000
   F   0.2892406  -0.1203739   0.3008164 SPIN=   0.00000
   F   0.0115758   0.4211903   0.3008164 SPIN=   0.00000
   F  -0.3288097   0.0392406  -0.1991836 SPIN=   0.00000
   F   0.1296261  -0.2384242  -0.1991836 SPIN=   0.00000
%ENDBLOCK POSITIONS_FRAC

# Note: total spin =  16.00

KPOINTS_MP_SPACING 0.07

%BLOCK SPECIES_POT
QC5
%ENDBLOCK SPECIES_POT

SNAP_TO_SYMMETRY
SYMMETRY_GENERATE

