#              Generated by Buildcell
#
# at 00:30:21 (GMT+1.0) 18th August 2020
# in /lustre/scratch/uccabz1/launch_tmp
# on node-c12k-026
# by uccabz1
#
# compiler GCC version 4.9.2
# options -cpp -iprefix /lustre/shared/ucl/apps/gcc/4.9.2/bin/../lib/gcc/x86_64-unknown-linux-gnu/4.9.2/ -mtune=corei7 -march=x86-64 -g -Og
#
# seed  1238871123  2081004309   761176598  -946655363 -1043268718  1947041901    -2257637 -1854899077 -1309342277  1323490629   221077619   744499352
#
#      Author: C. J. Pickard (cjp20@cam.ac.uk)
#                Space group: C2
#

%BLOCK LATTICE_ABC
      6.95447      6.95447      8.36011
     95.88084     95.88084     90.59594
%ENDBLOCK LATTICE_ABC

%BLOCK POSITIONS_FRAC
  Li   0.0854492   0.3800888   0.4042848 SPIN=   0.00000
  Li  -0.3800888  -0.0854492  -0.4042848 SPIN=   0.00000
  Li  -0.3938628   0.3938628   0.0000000 SPIN=   0.00000
  Li  -0.0263593   0.0263593   0.0000000 SPIN=   0.00000
  Fe   0.3946117   0.4150305  -0.3225798 SPIN=   3.12577
  Fe  -0.4150305  -0.3946117   0.3225798 SPIN=   3.12577
  Fe   0.0690165  -0.2977564   0.1945312 SPIN=   4.87423
  Fe   0.2977564  -0.0690165  -0.1945312 SPIN=   4.87423
   O   0.1419960  -0.3932078  -0.4377216 SPIN=   0.00000
   O  -0.0461576  -0.2007838  -0.2450183 SPIN=   0.00000
   O  -0.2108701  -0.4506577  -0.4461763 SPIN=   0.00000
   O  -0.0855673  -0.1489961  -0.5349564 SPIN=   0.00000
   S  -0.0501498  -0.2984113  -0.4159681 SPIN=   0.00000
   O   0.3932078  -0.1419960   0.4377216 SPIN=   0.00000
   O   0.2007838   0.0461576   0.2450183 SPIN=   0.00000
   O   0.4506577   0.2108701   0.4461763 SPIN=   0.00000
   O   0.1489961   0.0855673   0.5349564 SPIN=   0.00000
   S   0.2984113   0.0501498   0.4159681 SPIN=   0.00000
   O  -0.2678834  -0.0024365   0.1364328 SPIN=   0.00000
   O  -0.4030845   0.3161865   0.2180889 SPIN=   0.00000
   O  -0.0533233   0.2881001   0.1903130 SPIN=   0.00000
   S  -0.2291651   0.1884339   0.2402917 SPIN=   0.00000
   O   0.0024365   0.2678834  -0.1364328 SPIN=   0.00000
   O  -0.3161865   0.4030845  -0.2180889 SPIN=   0.00000
   O  -0.2881001   0.0533233  -0.1903130 SPIN=   0.00000
   S  -0.1884339   0.2291651  -0.2402917 SPIN=   0.00000
   O   0.1719761  -0.1719761   0.0000000 SPIN=   0.00000
   O   0.4031471  -0.4031471   0.0000000 SPIN=   0.00000
   F   0.4844496  -0.2870977  -0.2832257 SPIN=   0.00000
   F   0.2870977  -0.4844496   0.2832257 SPIN=   0.00000
   F   0.3720526   0.2027448  -0.0574086 SPIN=   0.00000
   F  -0.2027448  -0.3720526   0.0574086 SPIN=   0.00000
%ENDBLOCK POSITIONS_FRAC

# Note: total spin =  16.00

KPOINTS_MP_SPACING 0.07

%BLOCK SPECIES_POT
QC5
%ENDBLOCK SPECIES_POT

SNAP_TO_SYMMETRY
SYMMETRY_GENERATE

