#              Generated by Buildcell
#
# at 06:10:58 (GMT+1.0) 4th August 2020
# in /lustre/scratch/uccabz1/launch_tmp
# on node-y12q-002
# by uccabz1
#
# compiler GCC version 4.9.2
# options -cpp -iprefix /lustre/shared/ucl/apps/gcc/4.9.2/bin/../lib/gcc/x86_64-unknown-linux-gnu/4.9.2/ -mtune=corei7 -march=x86-64 -g -Og
#
# seed  -559413515  1584669067 -1025133453  1902955483  1459140227  1663894624 -1991635142  1142148596   624051207 -1741702451 -1392018968   996600543
#
#      Author: C. J. Pickard (cjp20@cam.ac.uk)
#                Space group: P43
#

%BLOCK LATTICE_ABC
      6.48397      6.48397      9.51432
     90.00000     90.00000     90.00000
%ENDBLOCK LATTICE_ABC

%BLOCK POSITIONS_FRAC
  Li  -0.3111884   0.2351506   0.3809539 SPIN=   0.00000
  Li   0.3111884  -0.2351506  -0.1190461 SPIN=   0.00000
  Li   0.2351506   0.3111884   0.1309539 SPIN=   0.00000
  Li  -0.2351506  -0.3111884  -0.3690461 SPIN=   0.00000
  Fe   0.2207834   0.2384812   0.4992914 SPIN=   4.00000
  Fe  -0.2207834  -0.2384812  -0.0007086 SPIN=   4.00000
  Fe   0.2384812  -0.2207834   0.2492914 SPIN=   4.00000
  Fe  -0.2384812   0.2207834  -0.2507086 SPIN=   4.00000
   O   0.3793115  -0.1404727  -0.3570139 SPIN=   0.00000
   O   0.2630709  -0.4292682  -0.5075201 SPIN=   0.00000
   O   0.0382332  -0.1249432  -0.4732933 SPIN=   0.00000
   O   0.0966860  -0.3686329  -0.2770903 SPIN=   0.00000
   S   0.1943254  -0.2658292  -0.4037294 SPIN=   0.00000
   O  -0.3793115   0.1404727   0.1429861 SPIN=   0.00000
   O  -0.2630709   0.4292682  -0.0075201 SPIN=   0.00000
   O  -0.0382332   0.1249432   0.0267067 SPIN=   0.00000
   O  -0.0966860   0.3686329   0.2229097 SPIN=   0.00000
   S  -0.1943254   0.2658292   0.0962706 SPIN=   0.00000
   O  -0.1404727  -0.3793115   0.3929861 SPIN=   0.00000
   O  -0.4292682  -0.2630709   0.2424799 SPIN=   0.00000
   O  -0.1249432  -0.0382332   0.2767067 SPIN=   0.00000
   O  -0.3686329  -0.0966860   0.4729097 SPIN=   0.00000
   S  -0.2658292  -0.1943254   0.3462706 SPIN=   0.00000
   O   0.1404727   0.3793115  -0.1070139 SPIN=   0.00000
   O   0.4292682   0.2630709  -0.2575201 SPIN=   0.00000
   O   0.1249432   0.0382332  -0.2232933 SPIN=   0.00000
   O   0.3686329   0.0966860  -0.0270903 SPIN=   0.00000
   S   0.2658292   0.1943254  -0.1537294 SPIN=   0.00000
   F  -0.1694806   0.2936364  -0.4582478 SPIN=   0.00000
   F   0.1694806  -0.2936364   0.0417522 SPIN=   0.00000
   F   0.2936364   0.1694806   0.2917522 SPIN=   0.00000
   F  -0.2936364  -0.1694806  -0.2082478 SPIN=   0.00000
%ENDBLOCK POSITIONS_FRAC

# Note: total spin =  16.00

KPOINTS_MP_SPACING 0.07

%BLOCK SPECIES_POT
QC5
%ENDBLOCK SPECIES_POT

SNAP_TO_SYMMETRY
SYMMETRY_GENERATE

