#              Generated by Buildcell
#
# at 06:04:02 (GMT+1.0) 4th August 2020
# in /lustre/scratch/uccabz1/launch_tmp
# on node-c12d-027
# by uccabz1
#
# compiler GCC version 4.9.2
# options -cpp -iprefix /lustre/shared/ucl/apps/gcc/4.9.2/bin/../lib/gcc/x86_64-unknown-linux-gnu/4.9.2/ -mtune=corei7 -march=x86-64 -g -Og
#
# seed  -627649826 -2024221872  1027807557   -32582855  1379179532  1154372364  -918128923  1675184702  1635166122 -1026500367  1324219387 -1702104999
#
#      Author: C. J. Pickard (cjp20@cam.ac.uk)
#                Space group: Pc
#

%BLOCK LATTICE_ABC
      5.46952      8.24860      9.26811
     90.00000    106.93800     90.00000
%ENDBLOCK LATTICE_ABC

%BLOCK POSITIONS_FRAC
  Li   0.7039035  -0.4573381   0.4695420 SPIN=   0.00000
  Li  -0.2960965   0.4573381  -0.0304580 SPIN=   0.00000
  Li  -0.1758751  -0.0133419  -0.4621805 SPIN=   0.00000
  Li  -0.1758751   0.0133419   0.0378195 SPIN=   0.00000
  Fe   0.5712409   0.2581919   0.2257733 SPIN=   3.38562
  Fe  -0.4287591  -0.2581919  -0.2742267 SPIN=   3.38562
  Fe  -0.4740155   0.1942071  -0.2870219 SPIN=   4.61438
  Fe   0.5259845  -0.1942071   0.2129781 SPIN=   4.61438
   O  -0.1297097   0.5551161  -0.2141025 SPIN=   0.00000
   O   0.1015999   0.3490803  -0.0307078 SPIN=   0.00000
   O   0.3205857   0.6019481  -0.0663628 SPIN=   0.00000
   O   0.2155759   0.3936334  -0.2672236 SPIN=   0.00000
   S   0.1270130   0.4749445  -0.1445992 SPIN=   0.00000
   O  -0.1297097  -0.5551161   0.2858975 SPIN=   0.00000
   O   0.1015999  -0.3490803   0.4692922 SPIN=   0.00000
   O   0.3205857  -0.6019481   0.4336372 SPIN=   0.00000
   O   0.2155759  -0.3936334   0.2327764 SPIN=   0.00000
   S   0.1270130  -0.4749445   0.3554008 SPIN=   0.00000
   O  -0.1524819  -0.0486371  -0.1872867 SPIN=   0.00000
   O   0.2011407  -0.1517165  -0.2782610 SPIN=   0.00000
   O   0.2674788  -0.1101070  -0.0050698 SPIN=   0.00000
   O   0.2204284   0.1263892  -0.1753251 SPIN=   0.00000
   S   0.1341415  -0.0460178  -0.1614856 SPIN=   0.00000
   O  -0.1524819   0.0486371   0.3127133 SPIN=   0.00000
   O   0.2011407   0.1517165   0.2217390 SPIN=   0.00000
   O   0.2674788   0.1101070   0.4949302 SPIN=   0.00000
   O   0.2204284  -0.1263892   0.3246749 SPIN=   0.00000
   S   0.1341415   0.0460178   0.3385144 SPIN=   0.00000
   F  -0.2285104  -0.2224341   0.0585897 SPIN=   0.00000
   F  -0.2285104   0.2224341  -0.4414103 SPIN=   0.00000
   F  -0.3338954  -0.2351161  -0.4615239 SPIN=   0.00000
   F  -0.3338954   0.2351161   0.0384761 SPIN=   0.00000
%ENDBLOCK POSITIONS_FRAC

# Note: total spin =  16.00

KPOINTS_MP_SPACING 0.07

%BLOCK SPECIES_POT
QC5
%ENDBLOCK SPECIES_POT

SNAP_TO_SYMMETRY
SYMMETRY_GENERATE

