#              Generated by Buildcell
#
# at 09:09:28 (GMT+1.0) 4th August 2020
# in /lustre/scratch/uccabz1/launch_tmp
# on node-c12h-035
# by uccabz1
#
# compiler GCC version 4.9.2
# options -cpp -iprefix /lustre/shared/ucl/apps/gcc/4.9.2/bin/../lib/gcc/x86_64-unknown-linux-gnu/4.9.2/ -mtune=corei7 -march=x86-64 -g -Og
#
# seed  2105845874 -1460066389  2139509230  -649023141   577984226  -667185550  1482042063  -846604764   685638825 -1522064126 -1419635464  1777653981
#
#      Author: C. J. Pickard (cjp20@cam.ac.uk)
#                Space group: C2
#

%BLOCK LATTICE_ABC
      7.49874      7.49874      8.68896
    106.55788    113.18158    102.33667
%ENDBLOCK LATTICE_ABC

%BLOCK POSITIONS_FRAC
  Li   0.2243897  -0.4824203  -0.2050456 SPIN=   0.00000
  Li  -0.2773747   0.4294353   0.2050456 SPIN=   0.00000
  Li   0.8229284   0.0425968   0.3910780 SPIN=   0.00000
  Li  -0.3484811   0.4318505  -0.3910780 SPIN=   0.00000
  Fe  -0.0521745  -0.1863172  -0.3707605 SPIN=   3.98048
  Fe   0.1844433   0.3185860   0.3707605 SPIN=   3.98048
  Fe  -0.0630468   0.3775453  -0.0585936 SPIN=   4.01952
  Fe   0.4361390  -0.0044532   0.0585936 SPIN=   4.01952
   O  -0.3023530  -0.2496631  -0.3130697 SPIN=   0.00000
   O  -0.4604428  -0.3782498  -0.1455189 SPIN=   0.00000
   O  -0.6861376  -0.3754573  -0.4423154 SPIN=   0.00000
   O  -0.4646502  -0.0566607  -0.1662859 SPIN=   0.00000
   S  -0.4783959  -0.2650077  -0.2667975 SPIN=   0.00000
   O   0.0634065   0.0107166   0.3130697 SPIN=   0.00000
   O  -0.2327310  -0.3149240   0.1455189 SPIN=   0.00000
   O   0.0668581  -0.2438222   0.4423154 SPIN=   0.00000
   O   0.1096252  -0.2983643   0.1662859 SPIN=   0.00000
   S   0.0017897  -0.2115984   0.2667975 SPIN=   0.00000
   O  -0.3977417   0.3652642  -0.0743480 SPIN=   0.00000
   O  -0.7254752   0.0713202  -0.2239627 SPIN=   0.00000
   O  -0.4990376   0.0906246  -0.3675067 SPIN=   0.00000
   O  -0.6971454   0.3152559  -0.3623270 SPIN=   0.00000
   S  -0.5798500   0.2106162  -0.2570361 SPIN=   0.00000
   O   0.4396122  -0.3233937   0.0743480 SPIN=   0.00000
   O   0.2952829  -0.5015125   0.2239627 SPIN=   0.00000
   O   0.4581313  -0.1315309   0.3675067 SPIN=   0.00000
   O   0.6775829  -0.3348184   0.3623270 SPIN=   0.00000
   S   0.4676523  -0.3228139   0.2570361 SPIN=   0.00000
   F   0.0699605  -0.2911549  -0.1558716 SPIN=   0.00000
   F  -0.1352833   0.2258321   0.1558716 SPIN=   0.00000
   F  -0.1122348   0.1171078  -0.3152457 SPIN=   0.00000
   F   0.4323536   0.2030110   0.3152457 SPIN=   0.00000
%ENDBLOCK POSITIONS_FRAC

# Note: total spin =  16.00

KPOINTS_MP_SPACING 0.07

%BLOCK SPECIES_POT
QC5
%ENDBLOCK SPECIES_POT

SNAP_TO_SYMMETRY
SYMMETRY_GENERATE

