#              Generated by Buildcell
#
# at 06:21:40 (GMT+1.0) 4th August 2020
# in /lustre/scratch/uccabz1/launch_tmp
# on node-c12d-005
# by uccabz1
#
# compiler GCC version 4.9.2
# options -cpp -iprefix /lustre/shared/ucl/apps/gcc/4.9.2/bin/../lib/gcc/x86_64-unknown-linux-gnu/4.9.2/ -mtune=corei7 -march=x86-64 -g -Og
#
# seed  1125678295  -392035575   663073624 -1831431503  1336654404 -1551090281  1932636049 -1485933536  -582238186  -497386522   821168849  -601474641
#
#      Author: C. J. Pickard (cjp20@cam.ac.uk)
#                Space group: P21212
#

%BLOCK LATTICE_ABC
      7.00951      7.54551      7.56282
     90.00000     90.00000     90.00000
%ENDBLOCK LATTICE_ABC

%BLOCK POSITIONS_FRAC
  Li   0.4022069  -0.1108880   0.2577591 SPIN=   0.00000
  Li  -0.4022069  -0.1108880  -0.2577591 SPIN=   0.00000
  Li   0.0977931   0.1108880  -0.2422409 SPIN=   0.00000
  Li  -0.0977931   0.1108880   0.2422409 SPIN=   0.00000
  Fe  -0.2387434  -0.2235302   0.0990254 SPIN=   4.00000
  Fe   0.2387434  -0.2235302  -0.0990254 SPIN=   4.00000
  Fe  -0.2612566   0.2235302  -0.4009746 SPIN=   4.00000
  Fe   0.2612566   0.2235302   0.4009746 SPIN=   4.00000
   O  -0.1601119  -0.5160380  -0.4307712 SPIN=   0.00000
   O  -0.3404177  -0.3523427  -0.2016716 SPIN=   0.00000
   O  -0.0849957  -0.2013812  -0.3700724 SPIN=   0.00000
   O  -0.0024194  -0.4319376  -0.1502618 SPIN=   0.00000
   S  -0.1469862  -0.3754249  -0.2881942 SPIN=   0.00000
   O   0.1601119  -0.5160380   0.4307712 SPIN=   0.00000
   O   0.3404177  -0.3523427   0.2016716 SPIN=   0.00000
   O   0.0849957  -0.2013812   0.3700724 SPIN=   0.00000
   O   0.0024194  -0.4319376   0.1502618 SPIN=   0.00000
   S   0.1469862  -0.3754249   0.2881942 SPIN=   0.00000
   O  -0.3398881   0.5160380   0.0692288 SPIN=   0.00000
   O  -0.1595823   0.3523427   0.2983284 SPIN=   0.00000
   O  -0.4150043   0.2013812   0.1299276 SPIN=   0.00000
   O  -0.4975806   0.4319376   0.3497382 SPIN=   0.00000
   S  -0.3530138   0.3754249   0.2118058 SPIN=   0.00000
   O   0.3398881   0.5160380  -0.0692288 SPIN=   0.00000
   O   0.1595823   0.3523427  -0.2983284 SPIN=   0.00000
   O   0.4150043   0.2013812  -0.1299276 SPIN=   0.00000
   O   0.4975806   0.4319376  -0.3497382 SPIN=   0.00000
   S   0.3530138   0.3754249  -0.2118058 SPIN=   0.00000
   F   0.2960967  -0.1037103  -0.3204803 SPIN=   0.00000
   F  -0.2960967  -0.1037103   0.3204803 SPIN=   0.00000
   F   0.2039033   0.1037103   0.1795197 SPIN=   0.00000
   F  -0.2039033   0.1037103  -0.1795197 SPIN=   0.00000
%ENDBLOCK POSITIONS_FRAC

# Note: total spin =  16.00

KPOINTS_MP_SPACING 0.07

%BLOCK SPECIES_POT
QC5
%ENDBLOCK SPECIES_POT

SNAP_TO_SYMMETRY
SYMMETRY_GENERATE

