#              Generated by Buildcell
#
# at 12:25:52 (GMT+1.0) 18th August 2020
# in /lustre/scratch/uccabz1/launch_tmp
# on node-c12a-021
# by uccabz1
#
# compiler GCC version 4.9.2
# options -cpp -iprefix /lustre/shared/ucl/apps/gcc/4.9.2/bin/../lib/gcc/x86_64-unknown-linux-gnu/4.9.2/ -mtune=corei7 -march=x86-64 -g -Og
#
# seed  1676959466   661065100   -80019791  2064519873  1126944853  1766711670  1117486497   498861354  1962008524  -282771467  -776619017  1030048666
#
#      Author: C. J. Pickard (cjp20@cam.ac.uk)
#                Space group: Fdd2
#

%BLOCK LATTICE_ABC
      7.57748      7.57748      8.77306
    115.32019    115.32019     90.55515
%ENDBLOCK LATTICE_ABC

%BLOCK POSITIONS_FRAC
  Li  -0.3694439  -0.1372520  -0.1799064 SPIN=   0.00000
  Li   0.0426545  -0.1895374   0.1799064 SPIN=   0.00000
  Li  -0.4395374  -0.7073455  -0.3200936 SPIN=   0.00000
  Li  -0.3872520  -0.1194439   0.3200936 SPIN=   0.00000
  Fe   0.4900650   0.1494823   0.1353445 SPIN=   4.00000
  Fe   0.0141378   0.3547206  -0.1353445 SPIN=   4.00000
  Fe   0.1047206   0.2641378   0.3646555 SPIN=   4.00000
  Fe  -0.1005177  -0.2599350  -0.3646555 SPIN=   4.00000
   O   0.3457636   0.6395954   0.4842651 SPIN=   0.00000
   O   0.3166539   0.7299025   0.2360634 SPIN=   0.00000
   O   0.2642523   0.3729034   0.1596265 SPIN=   0.00000
   O   0.6048713   0.5974037   0.3788413 SPIN=   0.00000
   S   0.3828853   0.5849513   0.3146991 SPIN=   0.00000
   O   0.1553303  -0.1385015  -0.4842651 SPIN=   0.00000
   O   0.4938392   0.0805905  -0.2360634 SPIN=   0.00000
   O   0.2132769   0.1046258  -0.1596265 SPIN=   0.00000
   O   0.2185624   0.2260300  -0.3788413 SPIN=   0.00000
   S   0.2702522   0.0681862  -0.3146991 SPIN=   0.00000
   O  -0.3885015   0.4053303   0.0157349 SPIN=   0.00000
   O  -0.1694095   0.7438392   0.2639366 SPIN=   0.00000
   O  -0.1453742   0.4632769   0.3403735 SPIN=   0.00000
   O  -0.0239700   0.4685624   0.1211587 SPIN=   0.00000
   S  -0.1818138   0.5202522   0.1853009 SPIN=   0.00000
   O   0.3895954  -0.4042364  -0.0157349 SPIN=   0.00000
   O   0.4799025  -0.4333461  -0.2639366 SPIN=   0.00000
   O   0.1229034  -0.4857477  -0.3403735 SPIN=   0.00000
   O   0.3474037  -0.1451287  -0.1211587 SPIN=   0.00000
   S   0.3349513  -0.3671147  -0.1853009 SPIN=   0.00000
   F  -0.1134793  -0.4012334  -0.1572387 SPIN=   0.00000
   F  -0.2439947   0.0437593   0.1572387 SPIN=   0.00000
   F  -0.2062407   0.0060053  -0.3427613 SPIN=   0.00000
   F   0.3487666   0.1365207   0.3427613 SPIN=   0.00000
%ENDBLOCK POSITIONS_FRAC

# Note: total spin =  16.00

KPOINTS_MP_SPACING 0.07

%BLOCK SPECIES_POT
QC5
%ENDBLOCK SPECIES_POT

SNAP_TO_SYMMETRY
SYMMETRY_GENERATE

