#              Generated by Buildcell
#
# at 07:10:57 (GMT+1.0) 4th August 2020
# in /lustre/scratch/uccabz1/launch_tmp
# on node-c12f-015
# by uccabz1
#
# compiler GCC version 4.9.2
# options -cpp -iprefix /lustre/shared/ucl/apps/gcc/4.9.2/bin/../lib/gcc/x86_64-unknown-linux-gnu/4.9.2/ -mtune=corei7 -march=x86-64 -g -Og
#
# seed  -567401330   973838093  -533588390   766506443  2034112159  1924626613   331976491   688749540   -22822696 -1519327055 -1959967924  1827042814
#
#      Author: C. J. Pickard (cjp20@cam.ac.uk)
#                Space group: P21
#

%BLOCK LATTICE_ABC
      4.10845      8.13601     12.03228
     95.99021     90.00000     90.00000
%ENDBLOCK LATTICE_ABC

%BLOCK POSITIONS_FRAC
  Li  -0.1834741  -0.3441569  -0.0633707 SPIN=   0.00000
  Li   0.3165259   0.3441569   0.0633707 SPIN=   0.00000
  Li  -0.3004713   0.3093055   0.4703807 SPIN=   0.00000
  Li   0.1995287  -0.3093055  -0.4703807 SPIN=   0.00000
  Fe   0.3138615   0.0227680   0.3790361 SPIN=   4.81724
  Fe  -0.1861385  -0.0227680  -0.3790361 SPIN=   4.81724
  Fe   0.3168526  -0.2904037  -0.2292467 SPIN=   3.18276
  Fe  -0.1831474   0.2904037   0.2292467 SPIN=   3.18276
   O   0.1432639   0.0362152  -0.0321141 SPIN=   0.00000
   O   0.6477197   0.0299429  -0.1448942 SPIN=   0.00000
   O   0.3576762   0.2943308  -0.0964641 SPIN=   0.00000
   O   0.1164458   0.0792867  -0.2325053 SPIN=   0.00000
   S   0.3162764   0.1099439  -0.1264944 SPIN=   0.00000
   O  -0.3567361  -0.0362152   0.0321141 SPIN=   0.00000
   O   0.1477197  -0.0299429   0.1448942 SPIN=   0.00000
   O  -0.1423238  -0.2943308   0.0964641 SPIN=   0.00000
   O  -0.3835542  -0.0792867   0.2325053 SPIN=   0.00000
   S  -0.1837236  -0.1099439   0.1264944 SPIN=   0.00000
   O   0.6823588  -0.3802484   0.3202317 SPIN=   0.00000
   O   0.1865523  -0.2131622   0.3000758 SPIN=   0.00000
   O   0.1540004  -0.4718488   0.3909990 SPIN=   0.00000
   O   0.2508931  -0.4834889   0.1873206 SPIN=   0.00000
   S   0.3184512  -0.3871871   0.2996568 SPIN=   0.00000
   O   0.1823588   0.3802484  -0.3202317 SPIN=   0.00000
   O  -0.3134477   0.2131622  -0.3000758 SPIN=   0.00000
   O  -0.3459996   0.4718488  -0.3909990 SPIN=   0.00000
   O  -0.2491069   0.4834889  -0.1873206 SPIN=   0.00000
   S  -0.1815488   0.3871871  -0.2996568 SPIN=   0.00000
   F  -0.4579464  -0.1971627  -0.3963185 SPIN=   0.00000
   F   0.0420536   0.1971627   0.3963185 SPIN=   0.00000
   F  -0.2399885   0.3294685   0.0860277 SPIN=   0.00000
   F   0.2600115  -0.3294685  -0.0860277 SPIN=   0.00000
%ENDBLOCK POSITIONS_FRAC

# Note: total spin =  16.00

KPOINTS_MP_SPACING 0.07

%BLOCK SPECIES_POT
QC5
%ENDBLOCK SPECIES_POT

SNAP_TO_SYMMETRY
SYMMETRY_GENERATE

