#              Generated by Buildcell
#
# at 00:23:10 (GMT+1.0) 18th August 2020
# in /lustre/scratch/uccabz1/launch_tmp
# on node-c12d-017
# by uccabz1
#
# compiler GCC version 4.9.2
# options -cpp -iprefix /lustre/shared/ucl/apps/gcc/4.9.2/bin/../lib/gcc/x86_64-unknown-linux-gnu/4.9.2/ -mtune=corei7 -march=x86-64 -g -Og
#
# seed   460437746  -423736851  1574163032   204110624  1558495760   585077380  1040111249  -266601798 -1863110286   947686031  -364243230  1809781838
#
#      Author: C. J. Pickard (cjp20@cam.ac.uk)
#                Space group: Pc
#

%BLOCK LATTICE_ABC
      5.43983      8.68447      9.48092
    116.73961     90.00000     90.00000
%ENDBLOCK LATTICE_ABC

%BLOCK POSITIONS_FRAC
  Li  -0.0258297  -0.6804523  -0.2641861 SPIN=   0.00000
  Li   0.0258297  -0.1804523   0.2358139 SPIN=   0.00000
  Li  -0.2705640   0.2484165   0.3003620 SPIN=   0.00000
  Li   0.2705640  -0.2515835  -0.1996380 SPIN=   0.00000
  Fe  -0.2303516  -0.3978787  -0.3354637 SPIN=   4.52543
  Fe   0.2303516   0.1021213   0.1645363 SPIN=   4.52543
  Fe  -0.4755158   0.7829862   0.4060330 SPIN=   3.47457
  Fe   0.4755158   0.2829862  -0.0939670 SPIN=   3.47457
   O   0.7161682  -0.8303940  -0.4126430 SPIN=   0.00000
   O   0.4586222  -0.9076983  -0.6501853 SPIN=   0.00000
   O   0.4871725  -0.6036029  -0.4474623 SPIN=   0.00000
   O   0.2627140  -0.8161830  -0.3890828 SPIN=   0.00000
   S   0.4811693  -0.7894695  -0.4748433 SPIN=   0.00000
   O  -0.7161682  -0.3303940   0.0873570 SPIN=   0.00000
   O  -0.4586222  -0.4076983  -0.1501853 SPIN=   0.00000
   O  -0.4871725  -0.1036029   0.0525377 SPIN=   0.00000
   O  -0.2627140  -0.3161830   0.1109172 SPIN=   0.00000
   S  -0.4811693  -0.2894695   0.0251567 SPIN=   0.00000
   O   0.0829444   0.7142217   0.3811681 SPIN=   0.00000
   O   0.2203790   0.4378528   0.3712366 SPIN=   0.00000
   O   0.0238404   0.4416535   0.1374004 SPIN=   0.00000
   O  -0.2239225   0.5010508   0.3753533 SPIN=   0.00000
   S   0.0258103   0.5236947   0.3162896 SPIN=   0.00000
   O  -0.0829444   0.2142217  -0.1188319 SPIN=   0.00000
   O  -0.2203790  -0.0621472  -0.1287634 SPIN=   0.00000
   O  -0.0238404  -0.0583465  -0.3625996 SPIN=   0.00000
   O   0.2239225   0.0010508  -0.1246467 SPIN=   0.00000
   S  -0.0258103   0.0236947  -0.1837104 SPIN=   0.00000
   F  -0.0421169   0.0340843   0.2420418 SPIN=   0.00000
   F   0.0421169  -0.4659157  -0.2579582 SPIN=   0.00000
   F  -0.4770941   0.2692973   0.0966675 SPIN=   0.00000
   F   0.4770941  -0.2307027  -0.4033325 SPIN=   0.00000
%ENDBLOCK POSITIONS_FRAC

# Note: total spin =  16.00

KPOINTS_MP_SPACING 0.07

%BLOCK SPECIES_POT
QC5
%ENDBLOCK SPECIES_POT

SNAP_TO_SYMMETRY
SYMMETRY_GENERATE

