#              Generated by Buildcell
#
# at 07:36:12 (GMT+1.0) 18th August 2020
# in /lustre/scratch/uccabz1/launch_tmp
# on node-c12a-010
# by uccabz1
#
# compiler GCC version 4.9.2
# options -cpp -iprefix /lustre/shared/ucl/apps/gcc/4.9.2/bin/../lib/gcc/x86_64-unknown-linux-gnu/4.9.2/ -mtune=corei7 -march=x86-64 -g -Og
#
# seed -1750729651 -1467401664 -1555336563  -117950242  1948005535  1153739709  -479228055 -1738762853   336361082   515250485 -1433410414 -1076199112
#
#      Author: C. J. Pickard (cjp20@cam.ac.uk)
#                Space group: C2
#

%BLOCK LATTICE_ABC
      6.19760      6.19760     10.42692
     92.00284     92.00284     90.35576
%ENDBLOCK LATTICE_ABC

%BLOCK POSITIONS_FRAC
  Li  -0.3196859  -0.2311889  -0.4721008 SPIN=   0.00000
  Li   0.2311889   0.3196859   0.4721008 SPIN=   0.00000
  Li  -0.1031475  -0.4304496   0.1869583 SPIN=   0.00000
  Li   0.4304496   0.1031475  -0.1869583 SPIN=   0.00000
  Fe  -0.0532533   0.4692782  -0.3251178 SPIN=   2.54786
  Fe  -0.4692782   0.0532533   0.3251178 SPIN=   2.54786
  Fe  -0.2922243  -0.1564403  -0.0139660 SPIN=   5.45214
  Fe   0.1564403   0.2922243   0.0139660 SPIN=   5.45214
   O   0.1241848   0.1964877  -0.2602350 SPIN=   0.00000
   O   0.1287870  -0.1865523  -0.3355401 SPIN=   0.00000
   O  -0.2165916  -0.0141831  -0.2804056 SPIN=   0.00000
   O   0.0546254  -0.0925496  -0.1087618 SPIN=   0.00000
   S   0.0227514  -0.0241993  -0.2462356 SPIN=   0.00000
   O  -0.1964877  -0.1241848   0.2602350 SPIN=   0.00000
   O   0.1865523  -0.1287870   0.3355401 SPIN=   0.00000
   O   0.0141831   0.2165916   0.2804056 SPIN=   0.00000
   O   0.0925496  -0.0546254   0.1087618 SPIN=   0.00000
   S   0.0241993  -0.0227514   0.2462356 SPIN=   0.00000
   O   0.5011935  -0.2327242  -0.2253826 SPIN=   0.00000
   O   0.3741535  -0.5417127  -0.3654335 SPIN=   0.00000
   O   0.2830316  -0.5238539  -0.1361177 SPIN=   0.00000
   O   0.6589412  -0.5946286  -0.1973642 SPIN=   0.00000
   S   0.4543299  -0.4732298  -0.2310745 SPIN=   0.00000
   O   0.2327242  -0.5011935   0.2253826 SPIN=   0.00000
   O   0.5417127  -0.3741535   0.3654335 SPIN=   0.00000
   O   0.5238539  -0.2830316   0.1361177 SPIN=   0.00000
   O   0.5946286  -0.6589412   0.1973642 SPIN=   0.00000
   S   0.4732298  -0.4543299   0.2310745 SPIN=   0.00000
   F  -0.0735297  -0.4578069  -0.0020904 SPIN=   0.00000
   F   0.4578069   0.0735297   0.0020904 SPIN=   0.00000
   F  -0.0381776  -0.4596974   0.4779662 SPIN=   0.00000
   F   0.4596974   0.0381776  -0.4779662 SPIN=   0.00000
%ENDBLOCK POSITIONS_FRAC

# Note: total spin =  16.00

KPOINTS_MP_SPACING 0.07

%BLOCK SPECIES_POT
QC5
%ENDBLOCK SPECIES_POT

SNAP_TO_SYMMETRY
SYMMETRY_GENERATE

