#              Generated by Buildcell
#
# at 08:41:58 (GMT+1.0) 4th August 2020
# in /lustre/scratch/uccabz1/launch_tmp
# on node-c12o-004
# by uccabz1
#
# compiler GCC version 4.9.2
# options -cpp -iprefix /lustre/shared/ucl/apps/gcc/4.9.2/bin/../lib/gcc/x86_64-unknown-linux-gnu/4.9.2/ -mtune=corei7 -march=x86-64 -g -Og
#
# seed   812092717  -807473729 -1981724026  1482626014 -1182394324  1446977545  1568622731  1640670778    49572035  1335892724  1123720355    15071304
#
#      Author: C. J. Pickard (cjp20@cam.ac.uk)
#                Space group: P42
#

%BLOCK LATTICE_ABC
      7.15320      7.15320      7.81735
     90.00000     90.00000     90.00000
%ENDBLOCK LATTICE_ABC

%BLOCK POSITIONS_FRAC
  Li   0.2982503   0.1744190   0.2194474 SPIN=   0.00000
  Li  -0.2982503  -0.1744190   0.2194474 SPIN=   0.00000
  Li   0.1744190  -0.2982503  -0.2805526 SPIN=   0.00000
  Li  -0.1744190   0.2982503  -0.2805526 SPIN=   0.00000
  Fe  -0.1735408   0.1808384   0.0743527 SPIN=   4.00000
  Fe   0.1735408  -0.1808384   0.0743527 SPIN=   4.00000
  Fe   0.1808384   0.1735408  -0.4256473 SPIN=   4.00000
  Fe  -0.1808384  -0.1735408  -0.4256473 SPIN=   4.00000
   O   0.2295170  -0.1080686   0.4628989 SPIN=   0.00000
   O   0.3835021  -0.3917633   0.5768541 SPIN=   0.00000
   O   0.5731950  -0.1418111   0.4434849 SPIN=   0.00000
   O   0.3675518  -0.3394154   0.2642522 SPIN=   0.00000
   S   0.3884415  -0.2452646   0.4368725 SPIN=   0.00000
   O  -0.2295170   0.1080686   0.4628989 SPIN=   0.00000
   O  -0.3835021   0.3917633   0.5768541 SPIN=   0.00000
   O  -0.5731950   0.1418111   0.4434849 SPIN=   0.00000
   O  -0.3675518   0.3394154   0.2642522 SPIN=   0.00000
   S  -0.3884415   0.2452646   0.4368725 SPIN=   0.00000
   O  -0.1080686  -0.2295170  -0.0371011 SPIN=   0.00000
   O  -0.3917633  -0.3835021   0.0768541 SPIN=   0.00000
   O  -0.1418111  -0.5731950  -0.0565151 SPIN=   0.00000
   O  -0.3394154  -0.3675518  -0.2357478 SPIN=   0.00000
   S  -0.2452646  -0.3884415  -0.0631275 SPIN=   0.00000
   O   0.1080686   0.2295170  -0.0371011 SPIN=   0.00000
   O   0.3917633   0.3835021   0.0768541 SPIN=   0.00000
   O   0.1418111   0.5731950  -0.0565151 SPIN=   0.00000
   O   0.3394154   0.3675518  -0.2357478 SPIN=   0.00000
   S   0.2452646   0.3884415  -0.0631275 SPIN=   0.00000
   F   0.0885974   0.2650830   0.3418795 SPIN=   0.00000
   F  -0.0885974  -0.2650830   0.3418795 SPIN=   0.00000
   F   0.2650830  -0.0885974  -0.1581205 SPIN=   0.00000
   F  -0.2650830   0.0885974  -0.1581205 SPIN=   0.00000
%ENDBLOCK POSITIONS_FRAC

# Note: total spin =  16.00

KPOINTS_MP_SPACING 0.07

%BLOCK SPECIES_POT
QC5
%ENDBLOCK SPECIES_POT

SNAP_TO_SYMMETRY
SYMMETRY_GENERATE

