#              Generated by Buildcell
#
# at 09:17:35 (GMT+1.0) 4th August 2020
# in /lustre/scratch/uccabz1/launch_tmp
# on node-c12p-005
# by uccabz1
#
# compiler GCC version 4.9.2
# options -cpp -iprefix /lustre/shared/ucl/apps/gcc/4.9.2/bin/../lib/gcc/x86_64-unknown-linux-gnu/4.9.2/ -mtune=corei7 -march=x86-64 -g -Og
#
# seed  -544570634  -911095917   804086021  1892903098   906883610  -486233926  1303669538  1221620224  -204859799  1252974713   348902190  -918986628
#
#      Author: C. J. Pickard (cjp20@cam.ac.uk)
#                Space group: P212121
#

%BLOCK LATTICE_ABC
      4.35313      5.98094     15.36346
     90.00000     90.00000     90.00000
%ENDBLOCK LATTICE_ABC

%BLOCK POSITIONS_FRAC
  Li  -0.1794624   0.4832942   0.4520798 SPIN=   0.00000
  Li  -0.3205376  -0.4832942  -0.0479202 SPIN=   0.00000
  Li   0.1794624  -0.0167058   0.0479202 SPIN=   0.00000
  Li   0.3205376   0.0167058  -0.4520798 SPIN=   0.00000
  Fe  -0.4245208   0.3418872   0.1312531 SPIN=   4.00000
  Fe  -0.0754792  -0.3418872  -0.3687469 SPIN=   4.00000
  Fe   0.4245208  -0.1581128   0.3687469 SPIN=   4.00000
  Fe   0.0754792   0.1581128  -0.1312531 SPIN=   4.00000
   O  -0.5789474   0.2381438  -0.3627121 SPIN=   0.00000
   O  -0.3553856  -0.0366236  -0.2602661 SPIN=   0.00000
   O  -0.1445069   0.3471557  -0.2678653 SPIN=   0.00000
   O  -0.0602459   0.0836270  -0.3897446 SPIN=   0.00000
   S  -0.2847715   0.1580757  -0.3201470 SPIN=   0.00000
   O   0.0789474  -0.2381438   0.1372879 SPIN=   0.00000
   O  -0.1446144   0.0366236   0.2397339 SPIN=   0.00000
   O  -0.3554931  -0.3471557   0.2321347 SPIN=   0.00000
   O  -0.4397541  -0.0836270   0.1102554 SPIN=   0.00000
   S  -0.2152285  -0.1580757   0.1798530 SPIN=   0.00000
   O   0.5789474  -0.2618562  -0.1372879 SPIN=   0.00000
   O   0.3553856  -0.5366236  -0.2397339 SPIN=   0.00000
   O   0.1445069  -0.1528443  -0.2321347 SPIN=   0.00000
   O   0.0602459  -0.4163730  -0.1102554 SPIN=   0.00000
   S   0.2847715  -0.3419243  -0.1798530 SPIN=   0.00000
   O  -0.0789474   0.2618562   0.3627121 SPIN=   0.00000
   O   0.1446144   0.5366236   0.2602661 SPIN=   0.00000
   O   0.3554931   0.1528443   0.2678653 SPIN=   0.00000
   O   0.4397541   0.4163730   0.3897446 SPIN=   0.00000
   S   0.2152285   0.3419243   0.3201470 SPIN=   0.00000
   F   0.3405745  -0.2975005  -0.4013901 SPIN=   0.00000
   F   0.1594255   0.2975005   0.0986099 SPIN=   0.00000
   F  -0.3405745   0.2024995  -0.0986099 SPIN=   0.00000
   F  -0.1594255  -0.2024995   0.4013901 SPIN=   0.00000
%ENDBLOCK POSITIONS_FRAC

# Note: total spin =  16.00

KPOINTS_MP_SPACING 0.07

%BLOCK SPECIES_POT
QC5
%ENDBLOCK SPECIES_POT

SNAP_TO_SYMMETRY
SYMMETRY_GENERATE

