#              Generated by Buildcell
#
# at 07:10:40 (GMT+1.0) 4th August 2020
# in /lustre/scratch/uccabz1/launch_tmp
# on node-c12c-029
# by uccabz1
#
# compiler GCC version 4.9.2
# options -cpp -iprefix /lustre/shared/ucl/apps/gcc/4.9.2/bin/../lib/gcc/x86_64-unknown-linux-gnu/4.9.2/ -mtune=corei7 -march=x86-64 -g -Og
#
# seed  -461645707  1337212633 -1572264482 -1764891902   226739407  -681700920  -135715635  2142146700  1723055886 -1775208645 -1428926166  1484079792
#
#      Author: C. J. Pickard (cjp20@cam.ac.uk)
#                Space group: P2221
#

%BLOCK LATTICE_ABC
      3.93658      7.43586     13.66499
     90.00000     90.00000     90.00000
%ENDBLOCK LATTICE_ABC

%BLOCK POSITIONS_FRAC
  Li   0.2569500  -0.4042399   0.1290074 SPIN=   0.00000
  Li  -0.2569500   0.4042399  -0.3709926 SPIN=   0.00000
  Li  -0.2569500  -0.4042399   0.3709926 SPIN=   0.00000
  Li   0.2569500   0.4042399  -0.1290074 SPIN=   0.00000
  Fe  -0.2430755  -0.2977936  -0.1028299 SPIN=   4.00000
  Fe   0.2430755   0.2977936   0.3971701 SPIN=   4.00000
  Fe   0.2430755  -0.2977936  -0.3971701 SPIN=   4.00000
  Fe  -0.2430755   0.2977936   0.1028299 SPIN=   4.00000
   O  -0.3300192  -0.2989904   0.1805699 SPIN=   0.00000
   O  -0.3605782   0.0326678   0.1682027 SPIN=   0.00000
   O  -0.3602116  -0.1532430   0.0179802 SPIN=   0.00000
   O   0.1622507  -0.1271912   0.1177140 SPIN=   0.00000
   S  -0.2221396  -0.1366892   0.1211167 SPIN=   0.00000
   O   0.3300192   0.2989904  -0.3194301 SPIN=   0.00000
   O   0.3605782  -0.0326678  -0.3317973 SPIN=   0.00000
   O   0.3602116   0.1532430  -0.4820198 SPIN=   0.00000
   O  -0.1622507   0.1271912  -0.3822860 SPIN=   0.00000
   S   0.2221396   0.1366892  -0.3788833 SPIN=   0.00000
   O   0.3300192  -0.2989904   0.3194301 SPIN=   0.00000
   O   0.3605782   0.0326678   0.3317973 SPIN=   0.00000
   O   0.3602116  -0.1532430   0.4820198 SPIN=   0.00000
   O  -0.1622507  -0.1271912   0.3822860 SPIN=   0.00000
   S   0.2221396  -0.1366892   0.3788833 SPIN=   0.00000
   O  -0.3300192   0.2989904  -0.1805699 SPIN=   0.00000
   O  -0.3605782  -0.0326678  -0.1682027 SPIN=   0.00000
   O  -0.3602116   0.1532430  -0.0179802 SPIN=   0.00000
   O   0.1622507   0.1271912  -0.1177140 SPIN=   0.00000
   S  -0.2221396   0.1366892  -0.1211167 SPIN=   0.00000
   F   0.2495896  -0.3300786  -0.1149042 SPIN=   0.00000
   F  -0.2495896   0.3300786   0.3850958 SPIN=   0.00000
   F  -0.2495896  -0.3300786  -0.3850958 SPIN=   0.00000
   F   0.2495896   0.3300786   0.1149042 SPIN=   0.00000
%ENDBLOCK POSITIONS_FRAC

# Note: total spin =  16.00

KPOINTS_MP_SPACING 0.07

%BLOCK SPECIES_POT
QC5
%ENDBLOCK SPECIES_POT

SNAP_TO_SYMMETRY
SYMMETRY_GENERATE

