#              Generated by Buildcell
#
# at 08:35:16 (GMT+1.0) 4th August 2020
# in /lustre/scratch/uccabz1/launch_tmp
# on node-c12l-026
# by uccabz1
#
# compiler GCC version 4.9.2
# options -cpp -iprefix /lustre/shared/ucl/apps/gcc/4.9.2/bin/../lib/gcc/x86_64-unknown-linux-gnu/4.9.2/ -mtune=corei7 -march=x86-64 -g -Og
#
# seed -1618013896 -1399211341    93749369  -829408238    54856278 -1280672578  -227169742  -839418764 -1281436172  1518096593  1031375460  -957208731
#
#      Author: C. J. Pickard (cjp20@cam.ac.uk)
#                Space group: C2
#

%BLOCK LATTICE_ABC
      7.15301      7.15301      8.83654
     76.66965     76.66965     67.01441
%ENDBLOCK LATTICE_ABC

%BLOCK POSITIONS_FRAC
  Li  -0.1342113  -0.4272588  -0.3123882 SPIN=   0.00000
  Li   0.4272588   0.1342113   0.3123882 SPIN=   0.00000
  Li   0.4522354   0.2047655  -0.1944934 SPIN=   0.00000
  Li  -0.2047655  -0.4522354   0.1944934 SPIN=   0.00000
  Fe   0.3570540  -0.3512821   0.2074621 SPIN=   1.64971
  Fe   0.3512821  -0.3570540  -0.2074621 SPIN=   1.64971
  Fe  -0.1499067   0.1185023   0.2135241 SPIN=   6.35029
  Fe  -0.1185023   0.1499067  -0.2135241 SPIN=   6.35029
   O  -0.2911141  -0.0787037  -0.2386801 SPIN=   0.00000
   O  -0.2858870  -0.1030774   0.0443779 SPIN=   0.00000
   O  -0.1946635  -0.4188383  -0.0691255 SPIN=   0.00000
   O  -0.5550405  -0.1768486  -0.0377024 SPIN=   0.00000
   S  -0.3316763  -0.1943670  -0.0752825 SPIN=   0.00000
   O   0.0787037   0.2911141   0.2386801 SPIN=   0.00000
   O   0.1030774   0.2858870  -0.0443779 SPIN=   0.00000
   O   0.4188383   0.1946635   0.0691255 SPIN=   0.00000
   O   0.1768486   0.5550405   0.0377024 SPIN=   0.00000
   S   0.1943670   0.3316763   0.0752825 SPIN=   0.00000
   O   0.0953349   0.2963631  -0.3584999 SPIN=   0.00000
   O   0.4701774   0.2179318  -0.4349686 SPIN=   0.00000
   O   0.2372001   0.5725977  -0.4006510 SPIN=   0.00000
   O   0.2355495   0.4254488  -0.6276296 SPIN=   0.00000
   S   0.2595655   0.3780853  -0.4554373 SPIN=   0.00000
   O  -0.2963631  -0.0953349   0.3584999 SPIN=   0.00000
   O  -0.2179318  -0.4701774   0.4349686 SPIN=   0.00000
   O  -0.5725977  -0.2372001   0.4006510 SPIN=   0.00000
   O  -0.4254488  -0.2355495   0.6276296 SPIN=   0.00000
   S  -0.3780853  -0.2595655   0.4554373 SPIN=   0.00000
   F   0.1327593  -0.1110867  -0.2222972 SPIN=   0.00000
   F   0.1110867  -0.1327593   0.2222972 SPIN=   0.00000
   F  -0.3756351   0.3578697  -0.2150946 SPIN=   0.00000
   F  -0.3578697   0.3756351   0.2150946 SPIN=   0.00000
%ENDBLOCK POSITIONS_FRAC

# Note: total spin =  16.00

KPOINTS_MP_SPACING 0.07

%BLOCK SPECIES_POT
QC5
%ENDBLOCK SPECIES_POT

SNAP_TO_SYMMETRY
SYMMETRY_GENERATE

