#              Generated by Buildcell
#
# at 03:10:42 (GMT+1.0) 18th August 2020
# in /lustre/scratch/uccabz1/launch_tmp
# on node-c12d-017
# by uccabz1
#
# compiler GCC version 4.9.2
# options -cpp -iprefix /lustre/shared/ucl/apps/gcc/4.9.2/bin/../lib/gcc/x86_64-unknown-linux-gnu/4.9.2/ -mtune=corei7 -march=x86-64 -g -Og
#
# seed -1215599883   712306902  -548033258   316989111 -1142539945   598274741    56027843 -1620054516   659177366   239780691 -1280685557   869988145
#
#      Author: C. J. Pickard (cjp20@cam.ac.uk)
#                Space group: Pna21
#

%BLOCK LATTICE_ABC
      5.48071      8.15101      8.95388
     90.00000     90.00000     90.00000
%ENDBLOCK LATTICE_ABC

%BLOCK POSITIONS_FRAC
  Li  -0.2863515  -0.3493946   0.2316396 SPIN=   0.00000
  Li   0.2136485   0.3493946  -0.2316396 SPIN=   0.00000
  Li  -0.2863515  -0.1506054  -0.2683604 SPIN=   0.00000
  Li   0.2136485   0.1506054   0.2683604 SPIN=   0.00000
  Fe  -0.3356289   0.4986931  -0.3617810 SPIN=   4.00000
  Fe   0.1643711  -0.4986931   0.3617810 SPIN=   4.00000
  Fe  -0.3356289   0.0013069   0.1382190 SPIN=   4.00000
  Fe   0.1643711  -0.0013069  -0.1382190 SPIN=   4.00000
   O   0.2015151   0.2534054  -0.4320910 SPIN=   0.00000
   O   0.0117678  -0.0221124  -0.4332930 SPIN=   0.00000
   O  -0.1079630   0.1834700  -0.6230366 SPIN=   0.00000
   O  -0.2313466   0.2204996  -0.3592979 SPIN=   0.00000
   S  -0.0315067   0.1588156  -0.4619296 SPIN=   0.00000
   O   0.7015151  -0.2534054   0.4320910 SPIN=   0.00000
   O   0.5117678   0.0221124   0.4332930 SPIN=   0.00000
   O   0.3920370  -0.1834700   0.6230366 SPIN=   0.00000
   O   0.2686534  -0.2204996   0.3592979 SPIN=   0.00000
   S   0.4684933  -0.1588156   0.4619296 SPIN=   0.00000
   O   0.2015151   0.2465946   0.0679090 SPIN=   0.00000
   O   0.0117678   0.5221124   0.0667070 SPIN=   0.00000
   O  -0.1079630   0.3165300  -0.1230366 SPIN=   0.00000
   O  -0.2313466   0.2795004   0.1407021 SPIN=   0.00000
   S  -0.0315067   0.3411844   0.0380704 SPIN=   0.00000
   O   0.7015151  -0.2465946  -0.0679090 SPIN=   0.00000
   O   0.5117678  -0.5221124  -0.0667070 SPIN=   0.00000
   O   0.3920370  -0.3165300   0.1230366 SPIN=   0.00000
   O   0.2686534  -0.2795004  -0.1407021 SPIN=   0.00000
   S   0.4684933  -0.3411844  -0.0380704 SPIN=   0.00000
   F  -0.0291270  -0.1681694   0.1494629 SPIN=   0.00000
   F   0.4708730   0.1681694  -0.1494629 SPIN=   0.00000
   F  -0.0291270  -0.3318306  -0.3505371 SPIN=   0.00000
   F   0.4708730   0.3318306   0.3505371 SPIN=   0.00000
%ENDBLOCK POSITIONS_FRAC

# Note: total spin =  16.00

KPOINTS_MP_SPACING 0.07

%BLOCK SPECIES_POT
QC5
%ENDBLOCK SPECIES_POT

SNAP_TO_SYMMETRY
SYMMETRY_GENERATE

