#              Generated by Buildcell
#
# at 13:21:24 (GMT+1.0) 18th August 2020
# in /scratch/scratch/uccabz1/launch_tmp
# on node-k10i-015
# by uccabz1
#
# compiler GCC version 4.9.2
# options -cpp -iprefix /scratch/UCL/applications/gcc/4.9.2/bin/../lib/gcc/x86_64-unknown-linux-gnu/4.9.2/ -mtune=corei7 -march=x86-64 -g -O2
#
# seed  1124194138 -1014389794  2111938740  2111313226  -761130243 -1628141548   310065976 -1217345238   584674509  -565741639  -639571039 -1571280180
#
#      Author: C. J. Pickard (cjp20@cam.ac.uk)
#                Space group: P2/c
#

%BLOCK LATTICE_ABC
      7.17053      7.21432      7.77000
     95.64025     90.00000     90.00000
%ENDBLOCK LATTICE_ABC

%BLOCK POSITIONS_FRAC
  Li   0.2527619  -0.0574220  -0.3861981 SPIN=   0.00000
  Li   0.2527619  -0.4425780  -0.1138019 SPIN=   0.00000
  Li  -0.2527619   0.0574220   0.3861981 SPIN=   0.00000
  Li  -0.2527619   0.4425780   0.1138019 SPIN=   0.00000
  Fe  -0.3783746   0.0063862  -0.2053482 SPIN=   4.00000
  Fe  -0.3783746   0.4936138  -0.2946518 SPIN=   4.00000
  Fe   0.3783746  -0.0063862   0.2053482 SPIN=   4.00000
  Fe   0.3783746  -0.4936138   0.2946518 SPIN=   4.00000
   O   0.0055359   0.3568836  -0.6336953 SPIN=   0.00000
   O   0.2513752   0.1267273  -0.5857293 SPIN=   0.00000
   O  -0.0420551   0.1310743  -0.4176767 SPIN=   0.00000
   O   0.1868659   0.3865742  -0.3613613 SPIN=   0.00000
   S   0.1004305   0.2503149  -0.4996156 SPIN=   0.00000
   O   0.0055359   0.1431164   0.1336953 SPIN=   0.00000
   O   0.2513752   0.3732727   0.0857293 SPIN=   0.00000
   O  -0.0420551   0.3689257  -0.0823233 SPIN=   0.00000
   O   0.1868659   0.1134258  -0.1386387 SPIN=   0.00000
   S   0.1004305   0.2496851  -0.0003844 SPIN=   0.00000
   O  -0.0055359  -0.3568836   0.6336953 SPIN=   0.00000
   O  -0.2513752  -0.1267273   0.5857293 SPIN=   0.00000
   O   0.0420551  -0.1310743   0.4176767 SPIN=   0.00000
   O  -0.1868659  -0.3865742   0.3613613 SPIN=   0.00000
   S  -0.1004305  -0.2503149   0.4996156 SPIN=   0.00000
   O  -0.0055359  -0.1431164  -0.1336953 SPIN=   0.00000
   O  -0.2513752  -0.3732727  -0.0857293 SPIN=   0.00000
   O   0.0420551  -0.3689257   0.0823233 SPIN=   0.00000
   O  -0.1868659  -0.1134258   0.1386387 SPIN=   0.00000
   S  -0.1004305  -0.2496851   0.0003844 SPIN=   0.00000
   F  -0.3995774   0.2582742   0.4929012 SPIN=   0.00000
   F  -0.3995774   0.2417258   0.0070988 SPIN=   0.00000
   F   0.3995774  -0.2582742  -0.4929012 SPIN=   0.00000
   F   0.3995774  -0.2417258  -0.0070988 SPIN=   0.00000
%ENDBLOCK POSITIONS_FRAC

# Note: total spin =  16.00

KPOINTS_MP_SPACING 0.07

%BLOCK SPECIES_POT
QC5
%ENDBLOCK SPECIES_POT

SNAP_TO_SYMMETRY
SYMMETRY_GENERATE

