#              Generated by Buildcell
#
# at 00:18:05 (GMT+1.0) 18th August 2020
# in /lustre/scratch/uccabz1/launch_tmp
# on node-c12f-029
# by uccabz1
#
# compiler GCC version 4.9.2
# options -cpp -iprefix /lustre/shared/ucl/apps/gcc/4.9.2/bin/../lib/gcc/x86_64-unknown-linux-gnu/4.9.2/ -mtune=corei7 -march=x86-64 -g -Og
#
# seed  -816281403 -1733600236   986262433  1011022081 -2026596022  -208800123 -1748005479  -916427121  -449023619  -175738745 -1855445774  1913358382
#
#      Author: C. J. Pickard (cjp20@cam.ac.uk)
#                Space group: P212121
#

%BLOCK LATTICE_ABC
      4.82926      6.60122     12.54745
     90.00000     90.00000     90.00000
%ENDBLOCK LATTICE_ABC

%BLOCK POSITIONS_FRAC
  Li  -0.1591623   0.1759385   0.1145454 SPIN=   0.00000
  Li   0.1591623  -0.3240615   0.3854546 SPIN=   0.00000
  Li   0.3408377   0.3240615  -0.1145454 SPIN=   0.00000
  Li  -0.3408377  -0.1759385  -0.3854546 SPIN=   0.00000
  Fe   0.4324327  -0.1176486  -0.0855842 SPIN=   4.00000
  Fe  -0.4324327   0.3823514  -0.4144158 SPIN=   4.00000
  Fe  -0.0675673  -0.3823514   0.0855842 SPIN=   4.00000
  Fe   0.0675673   0.1176486   0.4144158 SPIN=   4.00000
   O  -0.3700726  -0.6173196  -0.2385280 SPIN=   0.00000
   O  -0.2702532  -0.2725061  -0.1712986 SPIN=   0.00000
   O   0.1045050  -0.4779605  -0.2514012 SPIN=   0.00000
   O  -0.0883881  -0.5719927  -0.0754890 SPIN=   0.00000
   S  -0.1560522  -0.4849447  -0.1841792 SPIN=   0.00000
   O   0.3700726  -0.1173196  -0.2614720 SPIN=   0.00000
   O   0.2702532   0.2274939  -0.3287014 SPIN=   0.00000
   O  -0.1045050   0.0220395  -0.2485988 SPIN=   0.00000
   O   0.0883881  -0.0719927  -0.4245110 SPIN=   0.00000
   S   0.1560522   0.0150553  -0.3158208 SPIN=   0.00000
   O   0.1299274   0.1173196   0.2385280 SPIN=   0.00000
   O   0.2297468  -0.2274939   0.1712986 SPIN=   0.00000
   O   0.6045050  -0.0220395   0.2514012 SPIN=   0.00000
   O   0.4116119   0.0719927   0.0754890 SPIN=   0.00000
   S   0.3439478  -0.0150553   0.1841792 SPIN=   0.00000
   O  -0.1299274   0.6173196   0.2614720 SPIN=   0.00000
   O  -0.2297468   0.2725061   0.3287014 SPIN=   0.00000
   O  -0.6045050   0.4779605   0.2485988 SPIN=   0.00000
   O  -0.4116119   0.5719927   0.4245110 SPIN=   0.00000
   S  -0.3439478   0.4849447   0.3158208 SPIN=   0.00000
   F  -0.3435817  -0.0155217   0.4570896 SPIN=   0.00000
   F   0.3435817   0.4844783   0.0429104 SPIN=   0.00000
   F   0.1564183  -0.4844783  -0.4570896 SPIN=   0.00000
   F  -0.1564183   0.0155217  -0.0429104 SPIN=   0.00000
%ENDBLOCK POSITIONS_FRAC

# Note: total spin =  16.00

KPOINTS_MP_SPACING 0.07

%BLOCK SPECIES_POT
QC5
%ENDBLOCK SPECIES_POT

SNAP_TO_SYMMETRY
SYMMETRY_GENERATE

