#              Generated by Buildcell
#
# at 16:11:58 (GMT+1.0) 18th August 2020
# in /lustre/scratch/uccabz1/launch_tmp
# on node-c12l-030
# by uccabz1
#
# compiler GCC version 4.9.2
# options -cpp -iprefix /lustre/shared/ucl/apps/gcc/4.9.2/bin/../lib/gcc/x86_64-unknown-linux-gnu/4.9.2/ -mtune=corei7 -march=x86-64 -g -Og
#
# seed -1469334258   955584702  1713705948   962557366  -751643207  1314779102  2008359497  2112742543 -1484635925  -279735710  -910815347 -1913060288
#
#      Author: C. J. Pickard (cjp20@cam.ac.uk)
#                Space group: Pc
#

%BLOCK LATTICE_ABC
      4.68378      8.28340     10.56950
     90.00000     90.00000    102.72439
%ENDBLOCK LATTICE_ABC

%BLOCK POSITIONS_FRAC
  Li   0.4956904   0.1316760   0.2033888 SPIN=   0.00000
  Li   0.4956904  -0.3683240  -0.2033888 SPIN=   0.00000
  Li   0.1010448   0.1176880  -0.0823909 SPIN=   0.00000
  Li   0.1010448  -0.3823120   0.0823909 SPIN=   0.00000
  Fe  -0.2862680  -0.2717577   0.2659336 SPIN=   3.24594
  Fe  -0.2862680   0.2282423  -0.2659336 SPIN=   3.24594
  Fe   0.0114904  -0.1484000  -0.3158471 SPIN=   4.75406
  Fe   0.0114904   0.3516000   0.3158471 SPIN=   4.75406
   O  -0.1631545   0.4520766  -0.0304516 SPIN=   0.00000
   O  -0.6976066   0.3940966  -0.0680202 SPIN=   0.00000
   O  -0.4444202   0.6634430   0.0220565 SPIN=   0.00000
   O  -0.5059272   0.4085894   0.1508597 SPIN=   0.00000
   S  -0.4527771   0.4795514   0.0186111 SPIN=   0.00000
   O  -0.1631545  -0.0479234   0.0304516 SPIN=   0.00000
   O  -0.6976066  -0.1059034   0.0680202 SPIN=   0.00000
   O  -0.4444202   0.1634430  -0.0220565 SPIN=   0.00000
   O  -0.5059272  -0.0914106  -0.1508597 SPIN=   0.00000
   S  -0.4527771  -0.0204486  -0.0186111 SPIN=   0.00000
   O  -0.7263240   0.5466352  -0.4984476 SPIN=   0.00000
   O  -0.1846867   0.6180223  -0.5000286 SPIN=   0.00000
   O  -0.4510479   0.3444093  -0.5778974 SPIN=   0.00000
   O  -0.4490109   0.4090441  -0.3492475 SPIN=   0.00000
   S  -0.4527674   0.4795277  -0.4814052 SPIN=   0.00000
   O  -0.7263240   0.0466352   0.4984476 SPIN=   0.00000
   O  -0.1846867   0.1180223   0.5000286 SPIN=   0.00000
   O  -0.4510479  -0.1555907   0.5778974 SPIN=   0.00000
   O  -0.4490109  -0.0909559   0.3492475 SPIN=   0.00000
   S  -0.4527674  -0.0204723   0.4814052 SPIN=   0.00000
   F   0.1126252  -0.3526184  -0.2313763 SPIN=   0.00000
   F   0.1126252   0.1473816   0.2313763 SPIN=   0.00000
   F   0.1126220  -0.3526193   0.2686262 SPIN=   0.00000
   F   0.1126220   0.1473807  -0.2686262 SPIN=   0.00000
%ENDBLOCK POSITIONS_FRAC

# Note: total spin =  16.00

KPOINTS_MP_SPACING 0.07

%BLOCK SPECIES_POT
QC5
%ENDBLOCK SPECIES_POT

SNAP_TO_SYMMETRY
SYMMETRY_GENERATE

