#              Generated by Buildcell
#
# at 12:32:33 (GMT+1.0) 18th August 2020
# in /lustre/scratch/uccabz1/launch_tmp
# on node-c12e-025
# by uccabz1
#
# compiler GCC version 4.9.2
# options -cpp -iprefix /lustre/shared/ucl/apps/gcc/4.9.2/bin/../lib/gcc/x86_64-unknown-linux-gnu/4.9.2/ -mtune=corei7 -march=x86-64 -g -Og
#
# seed -1201750999 -1448672227  -533060125 -1126868587   463613787  1846105320   279956417  1146640214  -132949412 -1122233313   733902152   348602999
#
#      Author: C. J. Pickard (cjp20@cam.ac.uk)
#                Space group: P21
#

%BLOCK LATTICE_ABC
      4.78366      7.07315     11.82544
     91.40729     90.00000     90.00000
%ENDBLOCK LATTICE_ABC

%BLOCK POSITIONS_FRAC
  Li  -0.3288226  -0.3325911   0.4507275 SPIN=   0.00000
  Li   0.1711774   0.3325911  -0.4507275 SPIN=   0.00000
  Li  -0.3637093   0.3117345  -0.0105165 SPIN=   0.00000
  Li   0.1362907  -0.3117345   0.0105165 SPIN=   0.00000
  Fe  -0.1530058   0.1790799   0.3556820 SPIN=   2.89360
  Fe   0.3469942  -0.1790799  -0.3556820 SPIN=   2.89360
  Fe  -0.3524485  -0.2268906   0.1485026 SPIN=   5.10640
  Fe   0.1475515   0.2268906  -0.1485026 SPIN=   5.10640
   O  -0.3273347   0.1796352  -0.4278171 SPIN=   0.00000
   O  -0.2543616   0.2190443  -0.2213910 SPIN=   0.00000
   O  -0.6168261   0.4071414  -0.3168657 SPIN=   0.00000
   O  -0.1158956   0.4741521  -0.3495274 SPIN=   0.00000
   S  -0.3286045   0.3199932  -0.3289003 SPIN=   0.00000
   O   0.1726653  -0.1796352   0.4278171 SPIN=   0.00000
   O   0.2456384  -0.2190443   0.2213910 SPIN=   0.00000
   O  -0.1168261  -0.4071414   0.3168657 SPIN=   0.00000
   O   0.3841044  -0.4741521   0.3495274 SPIN=   0.00000
   S   0.1713955  -0.3199932   0.3289003 SPIN=   0.00000
   O  -0.0944053   0.0115050   0.1713779 SPIN=   0.00000
   O   0.1092607   0.2699398   0.0605785 SPIN=   0.00000
   O   0.2758444  -0.0586832   0.0303257 SPIN=   0.00000
   O   0.3914250   0.1166514   0.2078928 SPIN=   0.00000
   S   0.1705312   0.0848532   0.1175437 SPIN=   0.00000
   O  -0.5944053  -0.0115050  -0.1713779 SPIN=   0.00000
   O  -0.3907393  -0.2699398  -0.0605785 SPIN=   0.00000
   O  -0.2241556   0.0586832  -0.0303257 SPIN=   0.00000
   O  -0.1085750  -0.1166514  -0.2078928 SPIN=   0.00000
   S  -0.3294688  -0.0848532  -0.1175437 SPIN=   0.00000
   F  -0.2069482  -0.1699440  -0.4176765 SPIN=   0.00000
   F   0.2930518   0.1699440   0.4176765 SPIN=   0.00000
   F  -0.3290326   0.4726126   0.1304243 SPIN=   0.00000
   F   0.1709674  -0.4726126  -0.1304243 SPIN=   0.00000
%ENDBLOCK POSITIONS_FRAC

# Note: total spin =  16.00

KPOINTS_MP_SPACING 0.07

%BLOCK SPECIES_POT
QC5
%ENDBLOCK SPECIES_POT

SNAP_TO_SYMMETRY
SYMMETRY_GENERATE

