#              Generated by Buildcell
#
# at 05:51:49 (GMT+1.0) 4th August 2020
# in /lustre/scratch/uccabz1/launch_tmp
# on node-c12g-010
# by uccabz1
#
# compiler GCC version 4.9.2
# options -cpp -iprefix /lustre/shared/ucl/apps/gcc/4.9.2/bin/../lib/gcc/x86_64-unknown-linux-gnu/4.9.2/ -mtune=corei7 -march=x86-64 -g -Og
#
# seed -1234388514 -1968842670  -947380229   564199130  1238404116   -35129826 -1399217323  -295617934  -653827546 -1146680841  -566905480   487280911
#
#      Author: C. J. Pickard (cjp20@cam.ac.uk)
#                Space group: Cc
#

%BLOCK LATTICE_ABC
      7.41889      7.41889      8.21414
    109.13674    109.13674     90.58079
%ENDBLOCK LATTICE_ABC

%BLOCK POSITIONS_FRAC
  Li   0.3511957   0.2751200  -0.3845258 SPIN=   0.00000
  Li  -0.2248800  -0.1488043   0.1154742 SPIN=   0.00000
  Li  -0.1015981  -0.2327242  -0.3085375 SPIN=   0.00000
  Li   0.2672758   0.3984019   0.1914625 SPIN=   0.00000
  Fe  -0.4276618  -0.1585198   0.3973492 SPIN=   5.52339
  Fe   0.3414802   0.0723382  -0.1026508 SPIN=   5.52339
  Fe  -0.1801540   0.1826369  -0.1265947 SPIN=   2.47661
  Fe  -0.3173631   0.3198460   0.3734053 SPIN=   2.47661
   O   0.0065314   0.4556109  -0.4582204 SPIN=   0.00000
   O  -0.0297224   0.2880732  -0.2529468 SPIN=   0.00000
   O   0.0256491   0.6439861  -0.1411146 SPIN=   0.00000
   O   0.2880143   0.4558962  -0.1928418 SPIN=   0.00000
   S   0.0726181   0.4608916  -0.2612809 SPIN=   0.00000
   O  -0.0443891  -0.4934686   0.0417796 SPIN=   0.00000
   O  -0.2119268  -0.5297224   0.2470532 SPIN=   0.00000
   O   0.1439861  -0.4743509   0.3588854 SPIN=   0.00000
   O  -0.0441038  -0.2119857   0.3071582 SPIN=   0.00000
   S  -0.0391084  -0.4273819   0.2387191 SPIN=   0.00000
   O  -0.3508906  -0.1328141  -0.2164609 SPIN=   0.00000
   O  -0.3582851  -0.4362683  -0.1531781 SPIN=   0.00000
   O  -0.4033930  -0.4458002  -0.4682094 SPIN=   0.00000
   O  -0.6579737  -0.3475390  -0.3362768 SPIN=   0.00000
   S  -0.4426356  -0.3406054  -0.2935313 SPIN=   0.00000
   O   0.3671859   0.1491094   0.2835391 SPIN=   0.00000
   O   0.0637317   0.1417149   0.3468219 SPIN=   0.00000
   O   0.0541998   0.0966070   0.0317906 SPIN=   0.00000
   O   0.1524610  -0.1579737   0.1637232 SPIN=   0.00000
   S   0.1593946   0.0573644   0.2064687 SPIN=   0.00000
   F  -0.4125811   0.1441185  -0.3763913 SPIN=   0.00000
   F  -0.3558815   0.0874189   0.1236087 SPIN=   0.00000
   F   0.1137099  -0.0583715  -0.2970469 SPIN=   0.00000
   F   0.4416285  -0.3862901   0.2029531 SPIN=   0.00000
%ENDBLOCK POSITIONS_FRAC

# Note: total spin =  16.00

KPOINTS_MP_SPACING 0.07

%BLOCK SPECIES_POT
QC5
%ENDBLOCK SPECIES_POT

SNAP_TO_SYMMETRY
SYMMETRY_GENERATE

