#              Generated by Buildcell
#
# at 15:07:30 (GMT+1.0) 18th August 2020
# in /lustre/scratch/uccabz1/launch_tmp
# on node-c12o-016
# by uccabz1
#
# compiler GCC version 4.9.2
# options -cpp -iprefix /lustre/shared/ucl/apps/gcc/4.9.2/bin/../lib/gcc/x86_64-unknown-linux-gnu/4.9.2/ -mtune=corei7 -march=x86-64 -g -Og
#
# seed      531836  2061392956 -1307744950  1795470325   446389448  2092021969    96229720 -1107043509  -342187863  1935087921 -1011729197  -806813474
#
#      Author: C. J. Pickard (cjp20@cam.ac.uk)
#                Space group: Pm
#

%BLOCK LATTICE_ABC
      5.58685      6.60907     10.83765
     90.00000     90.00000     91.65915
%ENDBLOCK LATTICE_ABC

%BLOCK POSITIONS_FRAC
  Li   0.0907159   0.0839119   0.2226186 SPIN=   0.00000
  Li   0.0907159   0.0839119  -0.2226186 SPIN=   0.00000
  Li  -0.3992975  -0.1348747   0.0000000 SPIN=   0.00000
  Li   0.0731336   0.4844331   0.0000000 SPIN=   0.00000
  Fe   0.3341497  -0.4352193  -0.2466892 SPIN=   3.83041
  Fe   0.3341497  -0.4352193   0.2466892 SPIN=   3.83041
  Fe  -0.4099383   0.0578671  -0.3272338 SPIN=   4.16959
  Fe  -0.4099383   0.0578671   0.3272338 SPIN=   4.16959
   O  -0.1909035   0.2793206  -0.3905974 SPIN=   0.00000
   O  -0.6340147   0.2712123  -0.3873392 SPIN=   0.00000
   O  -0.4093568   0.5991385  -0.3780946 SPIN=   0.00000
   O  -0.4064155   0.3665022  -0.1991905 SPIN=   0.00000
   O  -0.1909035   0.2793206   0.3905974 SPIN=   0.00000
   O  -0.6340147   0.2712123   0.3873392 SPIN=   0.00000
   O  -0.4093568   0.5991385   0.3780946 SPIN=   0.00000
   O  -0.4064155   0.3665022   0.1991905 SPIN=   0.00000
   O   0.3263440  -0.1246742  -0.3904059 SPIN=   0.00000
   O   0.0866046  -0.2088259  -0.2043739 SPIN=   0.00000
   O   0.0410879  -0.4182100  -0.3926996 SPIN=   0.00000
   O  -0.1100008  -0.0699199  -0.3893149 SPIN=   0.00000
   O   0.3263440  -0.1246742   0.3904059 SPIN=   0.00000
   O   0.0866046  -0.2088259   0.2043739 SPIN=   0.00000
   O   0.0410879  -0.4182100   0.3926996 SPIN=   0.00000
   O  -0.1100008  -0.0699199   0.3893149 SPIN=   0.00000
   S   0.1120748  -0.1042650  -0.0000000 SPIN=   0.00000
   S   0.0981996   0.1633557   0.5000000 SPIN=   0.00000
   S  -0.2983218  -0.3567410   0.5000000 SPIN=   0.00000
   S  -0.3926066   0.3337321   0.0000000 SPIN=   0.00000
   F   0.1087737   0.3756937  -0.1854588 SPIN=   0.00000
   F   0.1087737   0.3756937   0.1854588 SPIN=   0.00000
   F  -0.3891837  -0.1318828   0.1882177 SPIN=   0.00000
   F  -0.3891837  -0.1318828  -0.1882177 SPIN=   0.00000
%ENDBLOCK POSITIONS_FRAC

# Note: total spin =  16.00

KPOINTS_MP_SPACING 0.07

%BLOCK SPECIES_POT
QC5
%ENDBLOCK SPECIES_POT

SNAP_TO_SYMMETRY
SYMMETRY_GENERATE

