#              Generated by Buildcell
#
# at 11:50:20 (GMT+1.0) 18th August 2020
# in /scratch/scratch/uccabz1/launch_tmp
# on node-k10e-028
# by uccabz1
#
# compiler GCC version 4.9.2
# options -cpp -iprefix /scratch/UCL/applications/gcc/4.9.2/bin/../lib/gcc/x86_64-unknown-linux-gnu/4.9.2/ -mtune=corei7 -march=x86-64 -g -O2
#
# seed -1074527192  1360449116  1284098215 -1348997599   566670529   541077093   734795287   744174584  -667894802   144010934  -468486780   193861114
#
#      Author: C. J. Pickard (cjp20@cam.ac.uk)
#                Space group: Pc
#

%BLOCK LATTICE_ABC
      4.02355      7.84339     12.85870
     99.69711     90.00000     90.00000
%ENDBLOCK LATTICE_ABC

%BLOCK POSITIONS_FRAC
  Li  -0.0755257   0.4174481   0.4773226 SPIN=   0.00000
  Li   0.0755257  -0.0825519  -0.0226774 SPIN=   0.00000
  Li  -0.4103218   0.0949047   0.2140219 SPIN=   0.00000
  Li   0.4103218  -0.4050953  -0.2859781 SPIN=   0.00000
  Fe  -0.0515305  -0.1588336   0.4850132 SPIN=   4.35383
  Fe   0.0515305   0.3411664  -0.0149868 SPIN=   4.35383
  Fe  -0.4655620   0.2355799  -0.2546668 SPIN=   3.64617
  Fe   0.4655620  -0.2644201   0.2453332 SPIN=   3.64617
   O   0.4502236   0.3116251   0.3749917 SPIN=   0.00000
   O   0.7990736   0.1131311   0.4589295 SPIN=   0.00000
   O   0.2664066   0.0103915   0.3745669 SPIN=   0.00000
   O   0.2664430   0.2210863   0.5411125 SPIN=   0.00000
   S   0.4455367   0.1640585   0.4374002 SPIN=   0.00000
   O  -0.4502236  -0.1883749  -0.1250083 SPIN=   0.00000
   O  -0.7990736  -0.3868689  -0.0410705 SPIN=   0.00000
   O  -0.2664066  -0.4896085  -0.1254331 SPIN=   0.00000
   O  -0.2664430  -0.2789137   0.0411125 SPIN=   0.00000
   S  -0.4455367  -0.3359415  -0.0625998 SPIN=   0.00000
   O  -0.2139620   0.3764757   0.1430422 SPIN=   0.00000
   O  -0.2139496   0.5280072   0.3281477 SPIN=   0.00000
   O   0.3186020   0.4576813   0.2343924 SPIN=   0.00000
   O  -0.0252432   0.2238821   0.2859169 SPIN=   0.00000
   S  -0.0336382   0.3965116   0.2478748 SPIN=   0.00000
   O   0.2139620  -0.1235243  -0.3569578 SPIN=   0.00000
   O   0.2139496   0.0280072  -0.1718523 SPIN=   0.00000
   O  -0.3186020  -0.0423187  -0.2656076 SPIN=   0.00000
   O   0.0252432  -0.2761179  -0.2140831 SPIN=   0.00000
   S   0.0336382  -0.1034884  -0.2521252 SPIN=   0.00000
   F  -0.1819320   0.4442806  -0.3425061 SPIN=   0.00000
   F   0.1819320  -0.0557194   0.1574939 SPIN=   0.00000
   F   0.3528938  -0.3226714   0.4649221 SPIN=   0.00000
   F  -0.3528938   0.1773286  -0.0350779 SPIN=   0.00000
%ENDBLOCK POSITIONS_FRAC

# Note: total spin =  16.00

KPOINTS_MP_SPACING 0.07

%BLOCK SPECIES_POT
QC5
%ENDBLOCK SPECIES_POT

SNAP_TO_SYMMETRY
SYMMETRY_GENERATE

