#              Generated by Buildcell
#
# at 01:49:15 (GMT+1.0) 18th August 2020
# in /lustre/scratch/uccabz1/launch_tmp
# on node-c12f-029
# by uccabz1
#
# compiler GCC version 4.9.2
# options -cpp -iprefix /lustre/shared/ucl/apps/gcc/4.9.2/bin/../lib/gcc/x86_64-unknown-linux-gnu/4.9.2/ -mtune=corei7 -march=x86-64 -g -Og
#
# seed  -312861379  -708059879  1999216100  1965992139  1116444446  1481094969  -643498829 -1814457669 -1681062792   838814843   670706281  -821889556
#
#      Author: C. J. Pickard (cjp20@cam.ac.uk)
#                Space group: Iba2
#

%BLOCK LATTICE_ABC
      6.89710      8.42454      8.42454
     70.95193     65.83627     65.83627
%ENDBLOCK LATTICE_ABC

%BLOCK POSITIONS_FRAC
  Li  -0.0788890   0.0788890   0.0788890 SPIN=   0.00000
  Li   0.4211110  -0.4211110  -0.4211110 SPIN=   0.00000
  Li  -0.3947178  -0.1052822  -0.1052822 SPIN=   0.00000
  Li   0.1052822   0.3947178   0.3947178 SPIN=   0.00000
  Fe  -0.2990866   0.2125063  -0.4309533 SPIN=   4.00000
  Fe  -0.4824664  -0.4309533   0.2125063 SPIN=   4.00000
  Fe   0.2009134   0.0690467  -0.2874937 SPIN=   4.00000
  Fe   0.0175336  -0.2874937   0.0690467 SPIN=   4.00000
   O  -0.1543365   0.4248475  -0.3619584 SPIN=   0.00000
   O  -0.2259718   0.6136183  -0.1593421 SPIN=   0.00000
   O  -0.3072094   0.3293734  -0.0376438 SPIN=   0.00000
   O  -0.5442269   0.5821496  -0.1985623 SPIN=   0.00000
   S  -0.3079361   0.4874972  -0.1893767 SPIN=   0.00000
   O   0.0914474  -0.3619584   0.4248475 SPIN=   0.00000
   O  -0.2283044  -0.1593421   0.6136183 SPIN=   0.00000
   O   0.0154798  -0.0376438   0.3293734 SPIN=   0.00000
   O   0.1606396  -0.1985623   0.5821496 SPIN=   0.00000
   S   0.0098156  -0.1893767   0.4874972 SPIN=   0.00000
   O   0.3456635   0.1380416  -0.0751525 SPIN=   0.00000
   O   0.2740282   0.3406579   0.1136183 SPIN=   0.00000
   O   0.1927906   0.4623562  -0.1706266 SPIN=   0.00000
   O  -0.0442269   0.3014377   0.0821496 SPIN=   0.00000
   S   0.1920639   0.3106233  -0.0125028 SPIN=   0.00000
   O  -0.4085526  -0.0751525   0.1380416 SPIN=   0.00000
   O  -0.7283044   0.1136183   0.3406579 SPIN=   0.00000
   O  -0.4845202  -0.1706266   0.4623562 SPIN=   0.00000
   O  -0.3393604   0.0821496   0.3014377 SPIN=   0.00000
   S  -0.4901844  -0.0125028   0.3106233 SPIN=   0.00000
   F   0.3609960   0.3241904  -0.4661368 SPIN=   0.00000
   F  -0.2190497  -0.4661368   0.3241904 SPIN=   0.00000
   F  -0.1390040   0.0338632  -0.1758096 SPIN=   0.00000
   F   0.2809503  -0.1758096   0.0338632 SPIN=   0.00000
%ENDBLOCK POSITIONS_FRAC

# Note: total spin =  16.00

KPOINTS_MP_SPACING 0.07

%BLOCK SPECIES_POT
QC5
%ENDBLOCK SPECIES_POT

SNAP_TO_SYMMETRY
SYMMETRY_GENERATE

