#              Generated by Buildcell
#
# at 01:04:37 (GMT+1.0) 18th August 2020
# in /scratch/scratch/uccabz1/launch_tmp
# on node-k10h-017
# by uccabz1
#
# compiler GCC version 4.9.2
# options -cpp -iprefix /scratch/UCL/applications/gcc/4.9.2/bin/../lib/gcc/x86_64-unknown-linux-gnu/4.9.2/ -mtune=corei7 -march=x86-64 -g -O2
#
# seed  2077850932   961733446 -1220717310  -374684349   281997939  1526810039  -617531011 -1479701009  2121739644 -1400768303   989773266   565203446
#
#      Author: C. J. Pickard (cjp20@cam.ac.uk)
#                Space group: P21
#

%BLOCK LATTICE_ABC
      4.48027      5.99831     15.27804
     90.00000     90.00000    103.03667
%ENDBLOCK LATTICE_ABC

%BLOCK POSITIONS_FRAC
  Li  -0.0407272   0.0855039  -0.0134497 SPIN=   0.00000
  Li   0.0407272  -0.0855039   0.4865503 SPIN=   0.00000
  Li  -0.3268815   0.3525911   0.3510226 SPIN=   0.00000
  Li   0.3268815  -0.3525911  -0.1489774 SPIN=   0.00000
  Fe  -0.4232864   0.0343566  -0.3918946 SPIN=   2.52903
  Fe   0.4232864  -0.0343566   0.1081054 SPIN=   2.52903
  Fe  -0.1956438  -0.4273250  -0.2757150 SPIN=   5.47097
  Fe   0.1956438   0.4273250   0.2242850 SPIN=   5.47097
   O   0.0356597   0.5741332  -0.5187436 SPIN=   0.00000
   O   0.4197060   0.3518519  -0.4799261 SPIN=   0.00000
   O  -0.0474063   0.3178415  -0.3897942 SPIN=   0.00000
   O   0.3567552   0.6751989  -0.3865116 SPIN=   0.00000
   S   0.1911786   0.4797564  -0.4437439 SPIN=   0.00000
   O  -0.0356597  -0.5741332  -0.0187436 SPIN=   0.00000
   O  -0.4197060  -0.3518519   0.0200739 SPIN=   0.00000
   O   0.0474063  -0.3178415   0.1102058 SPIN=   0.00000
   O  -0.3567552  -0.6751989   0.1134884 SPIN=   0.00000
   S  -0.1911786  -0.4797564   0.0562561 SPIN=   0.00000
   O   0.0227344   0.0464550   0.1906182 SPIN=   0.00000
   O  -0.4617376  -0.0991101   0.2709499 SPIN=   0.00000
   O   0.0290702   0.0036371   0.3516780 SPIN=   0.00000
   O  -0.0824755  -0.3398360   0.2569377 SPIN=   0.00000
   S  -0.1231021  -0.0972135   0.2675459 SPIN=   0.00000
   O  -0.0227344  -0.0464550  -0.3093818 SPIN=   0.00000
   O   0.4617376   0.0991101  -0.2290501 SPIN=   0.00000
   O  -0.0290702  -0.0036371  -0.1483220 SPIN=   0.00000
   O   0.0824755   0.3398360  -0.2430623 SPIN=   0.00000
   S   0.1231021   0.0972135  -0.2324541 SPIN=   0.00000
   F  -0.3213942  -0.4508959  -0.1628346 SPIN=   0.00000
   F   0.3213942   0.4508959   0.3371654 SPIN=   0.00000
   F   0.3324895   0.0168571  -0.0045268 SPIN=   0.00000
   F  -0.3324895  -0.0168571   0.4954732 SPIN=   0.00000
%ENDBLOCK POSITIONS_FRAC

# Note: total spin =  16.00

KPOINTS_MP_SPACING 0.07

%BLOCK SPECIES_POT
QC5
%ENDBLOCK SPECIES_POT

SNAP_TO_SYMMETRY
SYMMETRY_GENERATE

