#              Generated by Buildcell
#
# at 11:56:59 (GMT+1.0) 18th August 2020
# in /lustre/scratch/uccabz1/launch_tmp
# on node-c12l-001
# by uccabz1
#
# compiler GCC version 4.9.2
# options -cpp -iprefix /lustre/shared/ucl/apps/gcc/4.9.2/bin/../lib/gcc/x86_64-unknown-linux-gnu/4.9.2/ -mtune=corei7 -march=x86-64 -g -Og
#
# seed -1905975288  1986252572 -2029261729   317246832 -1308696499  -105844935  1609160368   -36266017 -1702438049   141509875  1393496266   464420635
#
#      Author: C. J. Pickard (cjp20@cam.ac.uk)
#                Space group: P21
#

%BLOCK LATTICE_ABC
      4.95259      7.67590     10.54695
     93.94121     90.00000     90.00000
%ENDBLOCK LATTICE_ABC

%BLOCK POSITIONS_FRAC
  Li  -0.1760562  -0.4841636   0.2149841 SPIN=   0.00000
  Li   0.3239438   0.4841636  -0.2149841 SPIN=   0.00000
  Li  -0.3843765   0.1399306   0.4135401 SPIN=   0.00000
  Li   0.1156235  -0.1399306  -0.4135401 SPIN=   0.00000
  Fe   0.4028020   0.2425496   0.1010539 SPIN=   2.88715
  Fe  -0.0971980  -0.2425496  -0.1010539 SPIN=   2.88715
  Fe  -0.0207559  -0.0950815   0.2376453 SPIN=   5.11285
  Fe   0.4792441   0.0950815  -0.2376453 SPIN=   5.11285
   O   0.4056643  -0.4803614  -0.0231914 SPIN=   0.00000
   O   0.2359664  -0.1898634   0.0563406 SPIN=   0.00000
   O   0.7065927  -0.2753239   0.1007826 SPIN=   0.00000
   O   0.3269772  -0.4161572   0.2070085 SPIN=   0.00000
   S   0.4188002  -0.3404265   0.0852351 SPIN=   0.00000
   O  -0.0943357   0.4803614   0.0231914 SPIN=   0.00000
   O  -0.2640336   0.1898634  -0.0563406 SPIN=   0.00000
   O   0.2065927   0.2753239  -0.1007826 SPIN=   0.00000
   O  -0.1730228   0.4161572  -0.2070085 SPIN=   0.00000
   S  -0.0811998   0.3404265  -0.0852351 SPIN=   0.00000
   O  -0.5482244  -0.4817232  -0.3976844 SPIN=   0.00000
   O  -0.3101814  -0.2419664  -0.2749473 SPIN=   0.00000
   O  -0.2987468  -0.2592856  -0.5100680 SPIN=   0.00000
   O  -0.0487139  -0.4758501  -0.3922431 SPIN=   0.00000
   S  -0.3014666  -0.3647063  -0.3937357 SPIN=   0.00000
   O  -0.0482244   0.4817232   0.3976844 SPIN=   0.00000
   O   0.1898186   0.2419664   0.2749473 SPIN=   0.00000
   O   0.2012532   0.2592856   0.5100680 SPIN=   0.00000
   O   0.4512861   0.4758501   0.3922431 SPIN=   0.00000
   S   0.1985334   0.3647063   0.3937357 SPIN=   0.00000
   F  -0.3023756   0.0991900   0.1943634 SPIN=   0.00000
   F   0.1976244  -0.0991900  -0.1943634 SPIN=   0.00000
   F  -0.3012090   0.1480632  -0.4023043 SPIN=   0.00000
   F   0.1987910  -0.1480632   0.4023043 SPIN=   0.00000
%ENDBLOCK POSITIONS_FRAC

# Note: total spin =  16.00

KPOINTS_MP_SPACING 0.07

%BLOCK SPECIES_POT
QC5
%ENDBLOCK SPECIES_POT

SNAP_TO_SYMMETRY
SYMMETRY_GENERATE

