#              Generated by Buildcell
#
# at 06:56:27 (GMT+1.0) 4th August 2020
# in /lustre/scratch/uccabz1/launch_tmp
# on node-c12e-010
# by uccabz1
#
# compiler GCC version 4.9.2
# options -cpp -iprefix /lustre/shared/ucl/apps/gcc/4.9.2/bin/../lib/gcc/x86_64-unknown-linux-gnu/4.9.2/ -mtune=corei7 -march=x86-64 -g -Og
#
# seed -1902813197  1022772412  -506202118   123563149   156721850  -298815643 -1929090735 -1399940084  1959805581   175473836 -1172177128  1728267052
#
#      Author: C. J. Pickard (cjp20@cam.ac.uk)
#                Space group: C2
#

%BLOCK LATTICE_ABC
      6.49605      7.19162     10.31396
     71.98088     71.64428     63.15101
%ENDBLOCK LATTICE_ABC

%BLOCK POSITIONS_FRAC
  Li  -0.3200852   0.2530962  -0.2007795 SPIN=   0.00000
  Li  -0.2677686  -0.2530962   0.2007795 SPIN=   0.00000
  Li   0.4917975   0.2870173   0.3384980 SPIN=   0.00000
  Li   0.1173127  -0.2870173  -0.3384980 SPIN=   0.00000
  Fe   0.2441012   0.2539120  -0.3603209 SPIN=   4.39963
  Fe   0.1376922  -0.2539120   0.3603209 SPIN=   4.39963
  Fe  -0.1108560   0.3493793  -0.0202647 SPIN=   3.60037
  Fe   0.2182586  -0.3493793   0.0202647 SPIN=   3.60037
   O  -0.4167939   0.3124575   0.5280420 SPIN=   0.00000
   O  -0.0978585   0.0989998   0.3612351 SPIN=   0.00000
   O  -0.0621188   0.0201081   0.6062416 SPIN=   0.00000
   O  -0.0332295   0.3492790   0.4477707 SPIN=   0.00000
   S  -0.1525002   0.1952111   0.4858223 SPIN=   0.00000
   O  -0.5762943  -0.3124575  -0.5280420 SPIN=   0.00000
   O  -0.6376236  -0.0989998  -0.3612351 SPIN=   0.00000
   O  -0.4357691  -0.0201081  -0.6062416 SPIN=   0.00000
   O  -0.2361798  -0.3492790  -0.4477707 SPIN=   0.00000
   S  -0.4714667  -0.1952111  -0.4858223 SPIN=   0.00000
   O  -0.1777966  -0.3277010  -0.2385249 SPIN=   0.00000
   O  -0.4372236   0.0539790  -0.2525261 SPIN=   0.00000
   O  -0.1748481  -0.1274411  -0.0829079 SPIN=   0.00000
   O  -0.5210935  -0.2112011  -0.0474422 SPIN=   0.00000
   S  -0.3277405  -0.1530911  -0.1553503 SPIN=   0.00000
   O   0.2559775   0.3277010   0.2385249 SPIN=   0.00000
   O   0.3642292  -0.0539790   0.2525261 SPIN=   0.00000
   O   0.6148029   0.1274411   0.0829079 SPIN=   0.00000
   O   0.2202632   0.2112011   0.0474422 SPIN=   0.00000
   S   0.3638182   0.1530911   0.1553503 SPIN=   0.00000
   F  -0.2962299   0.4351266   0.1488731 SPIN=   0.00000
   F   0.2877698  -0.4351266  -0.1488731 SPIN=   0.00000
   F  -0.0041549  -0.2134118   0.2147893 SPIN=   0.00000
   F  -0.0027775   0.2134118  -0.2147893 SPIN=   0.00000
%ENDBLOCK POSITIONS_FRAC

# Note: total spin =  16.00

KPOINTS_MP_SPACING 0.07

%BLOCK SPECIES_POT
QC5
%ENDBLOCK SPECIES_POT

SNAP_TO_SYMMETRY
SYMMETRY_GENERATE

