#              Generated by Buildcell
#
# at 09:24:12 (GMT+1.0) 4th August 2020
# in /lustre/scratch/uccabz1/launch_tmp
# on node-y12q-003
# by uccabz1
#
# compiler GCC version 4.9.2
# options -cpp -iprefix /lustre/shared/ucl/apps/gcc/4.9.2/bin/../lib/gcc/x86_64-unknown-linux-gnu/4.9.2/ -mtune=corei7 -march=x86-64 -g -Og
#
# seed  -623415808  1844921191 -2016271934  -918459504 -1806537425 -1647806415   555749527 -1237135110  1322673981  1208965034  -237663883  -717782775
#
#      Author: C. J. Pickard (cjp20@cam.ac.uk)
#                Space group: C2
#

%BLOCK LATTICE_ABC
      6.71433      8.25741      8.25741
    107.25112    103.85384    103.85384
%ENDBLOCK LATTICE_ABC

%BLOCK POSITIONS_FRAC
  Li  -0.2207379  -0.2195480  -0.4544569 SPIN=   0.00000
  Li   0.2207379   0.4544569   0.2195480 SPIN=   0.00000
  Li   0.5000000   0.2407535  -0.2407535 SPIN=   0.00000
  Li  -0.0000000  -0.1062751   0.1062751 SPIN=   0.00000
  Fe   0.3067008  -0.1710718   0.4715811 SPIN=   4.90755
  Fe  -0.3067008  -0.4715811   0.1710718 SPIN=   4.90755
  Fe  -0.0378206   0.1162466   0.4828956 SPIN=   3.09245
  Fe   0.0378206  -0.4828956  -0.1162466 SPIN=   3.09245
   O   0.0582103   0.2020181   0.1252939 SPIN=   0.00000
   O  -0.2855203  -0.0419097   0.0512519 SPIN=   0.00000
   O  -0.2877229   0.2002766  -0.0672524 SPIN=   0.00000
   O  -0.2218309   0.2665408   0.2573292 SPIN=   0.00000
   S  -0.1842159   0.1567314   0.0916557 SPIN=   0.00000
   O  -0.0582103  -0.1252939  -0.2020181 SPIN=   0.00000
   O   0.2855203  -0.0512519   0.0419097 SPIN=   0.00000
   O   0.2877229   0.0672524  -0.2002766 SPIN=   0.00000
   O   0.2218309  -0.2573292  -0.2665408 SPIN=   0.00000
   S   0.1842159  -0.0916557  -0.1567314 SPIN=   0.00000
   O   0.5660856   0.3792799   0.4332860 SPIN=   0.00000
   O   0.3094643   0.1730239   0.5137463 SPIN=   0.00000
   O   0.5308709   0.0569897   0.3379828 SPIN=   0.00000
   S   0.4093255   0.1896463   0.3706175 SPIN=   0.00000
   O  -0.5660856  -0.4332860  -0.3792799 SPIN=   0.00000
   O  -0.3094643  -0.5137463  -0.1730239 SPIN=   0.00000
   O  -0.5308709  -0.3379828  -0.0569897 SPIN=   0.00000
   S  -0.4093255  -0.3706175  -0.1896463 SPIN=   0.00000
   O  -0.0000000  -0.4372693   0.4372693 SPIN=   0.00000
   O   0.0000000   0.1740422  -0.1740422 SPIN=   0.00000
   F   0.3718081   0.4006790   0.0652109 SPIN=   0.00000
   F  -0.3718081  -0.0652109  -0.4006790 SPIN=   0.00000
   F  -0.0000000  -0.2434449   0.2434449 SPIN=   0.00000
   F   0.0000000   0.3685830  -0.3685830 SPIN=   0.00000
%ENDBLOCK POSITIONS_FRAC

# Note: total spin =  16.00

KPOINTS_MP_SPACING 0.07

%BLOCK SPECIES_POT
QC5
%ENDBLOCK SPECIES_POT

SNAP_TO_SYMMETRY
SYMMETRY_GENERATE

