#              Generated by Buildcell
#
# at 01:06:49 (GMT+1.0) 18th August 2020
# in /scratch/scratch/uccabz1/launch_tmp
# on node-k10b-033
# by uccabz1
#
# compiler GCC version 4.9.2
# options -cpp -iprefix /scratch/UCL/applications/gcc/4.9.2/bin/../lib/gcc/x86_64-unknown-linux-gnu/4.9.2/ -mtune=corei7 -march=x86-64 -g -O2
#
# seed   760756866  -874629871  1924278535   983667180  -887327366  1730779228   236597462   575475815  -509485512   267146236    40375367  -101153279
#
#      Author: C. J. Pickard (cjp20@cam.ac.uk)
#                Space group: P212121
#

%BLOCK LATTICE_ABC
      5.16708      6.59770     11.73336
     90.00000     90.00000     90.00000
%ENDBLOCK LATTICE_ABC

%BLOCK POSITIONS_FRAC
  Li   0.0515133  -0.0723405  -0.3292216 SPIN=   0.00000
  Li   0.4484867   0.0723405   0.1707784 SPIN=   0.00000
  Li  -0.0515133   0.4276595  -0.1707784 SPIN=   0.00000
  Li  -0.4484867  -0.4276595   0.3292216 SPIN=   0.00000
  Fe  -0.4282059   0.1142087  -0.0781880 SPIN=   4.00000
  Fe  -0.0717941  -0.1142087   0.4218120 SPIN=   4.00000
  Fe   0.4282059  -0.3857913  -0.4218120 SPIN=   4.00000
  Fe   0.0717941   0.3857913   0.0781880 SPIN=   4.00000
   O  -0.3416310  -0.0070193  -0.4603837 SPIN=   0.00000
   O  -0.5986833   0.2973125  -0.4114813 SPIN=   0.00000
   O  -0.1982283   0.2191890  -0.3044266 SPIN=   0.00000
   O  -0.5872682   0.0049416  -0.2794324 SPIN=   0.00000
   S  -0.4314527   0.1286059  -0.3639310 SPIN=   0.00000
   O  -0.1583690   0.0070193   0.0396163 SPIN=   0.00000
   O   0.0986833  -0.2973125   0.0885187 SPIN=   0.00000
   O  -0.3017717  -0.2191890   0.1955734 SPIN=   0.00000
   O   0.0872682  -0.0049416   0.2205676 SPIN=   0.00000
   S  -0.0685473  -0.1286059   0.1360690 SPIN=   0.00000
   O   0.3416310  -0.5070193  -0.0396163 SPIN=   0.00000
   O   0.5986833  -0.2026875  -0.0885187 SPIN=   0.00000
   O   0.1982283  -0.2808110  -0.1955734 SPIN=   0.00000
   O   0.5872682  -0.4950584  -0.2205676 SPIN=   0.00000
   S   0.4314527  -0.3713941  -0.1360690 SPIN=   0.00000
   O   0.1583690   0.5070193   0.4603837 SPIN=   0.00000
   O  -0.0986833   0.2026875   0.4114813 SPIN=   0.00000
   O   0.3017717   0.2808110   0.3044266 SPIN=   0.00000
   O  -0.0872682   0.4950584   0.2794324 SPIN=   0.00000
   S   0.0685473   0.3713941   0.3639310 SPIN=   0.00000
   F   0.1074090   0.1731362  -0.1271103 SPIN=   0.00000
   F   0.3925910  -0.1731362   0.3728897 SPIN=   0.00000
   F  -0.1074090  -0.3268638  -0.3728897 SPIN=   0.00000
   F  -0.3925910   0.3268638   0.1271103 SPIN=   0.00000
%ENDBLOCK POSITIONS_FRAC

# Note: total spin =  16.00

KPOINTS_MP_SPACING 0.07

%BLOCK SPECIES_POT
QC5
%ENDBLOCK SPECIES_POT

SNAP_TO_SYMMETRY
SYMMETRY_GENERATE

