#              Generated by Buildcell
#
# at 06:58:39 (GMT+1.0) 4th August 2020
# in /lustre/scratch/uccabz1/launch_tmp
# on node-c12d-011
# by uccabz1
#
# compiler GCC version 4.9.2
# options -cpp -iprefix /lustre/shared/ucl/apps/gcc/4.9.2/bin/../lib/gcc/x86_64-unknown-linux-gnu/4.9.2/ -mtune=corei7 -march=x86-64 -g -Og
#
# seed  1686951835 -1817513874 -1311672099  -497425202  -980373500 -1803002746   649256545  1213690037  -908643749 -1856345869  1486653533 -1033179241
#
#      Author: C. J. Pickard (cjp20@cam.ac.uk)
#                Space group: Cc
#

%BLOCK LATTICE_ABC
      5.83182      7.51241      9.98319
     96.53249     90.00000    112.83915
%ENDBLOCK LATTICE_ABC

%BLOCK POSITIONS_FRAC
  Li   0.1520200   0.2522169  -0.3572765 SPIN=   0.00000
  Li   0.1001970   0.2522169   0.1427235 SPIN=   0.00000
  Li   0.4871799  -0.4182843  -0.0719826 SPIN=   0.00000
  Li   0.0945358  -0.4182843   0.4280174 SPIN=   0.00000
  Fe  -0.3737291   0.3043443   0.0915661 SPIN=   3.85273
  Fe  -0.3219266   0.3043443  -0.4084339 SPIN=   3.85273
  Fe   0.2065588  -0.1470849  -0.3043962 SPIN=   4.14727
  Fe  -0.3536437  -0.1470849   0.1956038 SPIN=   4.14727
   O  -0.4318995  -0.1052092  -0.4615539 SPIN=   0.00000
   O  -0.5533181  -0.4194731  -0.6078111 SPIN=   0.00000
   O  -0.4946157  -0.4059258  -0.3607869 SPIN=   0.00000
   O  -0.1301570  -0.2618495  -0.4982689 SPIN=   0.00000
   S  -0.4024976  -0.2981144  -0.4821052 SPIN=   0.00000
   O   0.3266903  -0.1052092   0.0384461 SPIN=   0.00000
   O   0.1338450  -0.4194731  -0.1078111 SPIN=   0.00000
   O   0.0886898  -0.4059258   0.1392131 SPIN=   0.00000
   O  -0.1316925  -0.2618495   0.0017311 SPIN=   0.00000
   S   0.1043832  -0.2981144   0.0178948 SPIN=   0.00000
   O   0.3971119   0.1765272   0.3247904 SPIN=   0.00000
   O   0.2439413   0.0104444   0.5267060 SPIN=   0.00000
   O   0.3591206  -0.1625094   0.3291100 SPIN=   0.00000
   O  -0.0197713  -0.0911637   0.3152812 SPIN=   0.00000
   S   0.2451006  -0.0166754   0.3739719 SPIN=   0.00000
   O  -0.2205847   0.1765272  -0.1752096 SPIN=   0.00000
   O  -0.2334969   0.0104444   0.0267060 SPIN=   0.00000
   O  -0.5216300  -0.1625094  -0.1708900 SPIN=   0.00000
   O  -0.0713924  -0.0911637  -0.1847188 SPIN=   0.00000
   S  -0.2617760  -0.0166754  -0.1260281 SPIN=   0.00000
   F  -0.1517240   0.1896941   0.2704893 SPIN=   0.00000
   F   0.3414181   0.1896941  -0.2295107 SPIN=   0.00000
   F   0.0041343  -0.4848481  -0.3627653 SPIN=   0.00000
   F  -0.4889824  -0.4848481   0.1372347 SPIN=   0.00000
%ENDBLOCK POSITIONS_FRAC

# Note: total spin =  16.00

KPOINTS_MP_SPACING 0.07

%BLOCK SPECIES_POT
QC5
%ENDBLOCK SPECIES_POT

SNAP_TO_SYMMETRY
SYMMETRY_GENERATE

