#              Generated by Buildcell
#
# at 08:27:55 (GMT+1.0) 18th August 2020
# in /lustre/scratch/uccabz1/launch_tmp
# on node-c12f-027
# by uccabz1
#
# compiler GCC version 4.9.2
# options -cpp -iprefix /lustre/shared/ucl/apps/gcc/4.9.2/bin/../lib/gcc/x86_64-unknown-linux-gnu/4.9.2/ -mtune=corei7 -march=x86-64 -g -Og
#
# seed  1943160375  -835487549 -1324364804   405094569   -13320452 -1471967824  -472391157 -1148917906  -239792630  1939771406 -1344060155  -665617406
#
#      Author: C. J. Pickard (cjp20@cam.ac.uk)
#                Space group: P21212
#

%BLOCK LATTICE_ABC
      4.17681      8.53302     11.22307
     90.00000     90.00000     90.00000
%ENDBLOCK LATTICE_ABC

%BLOCK POSITIONS_FRAC
  Li   0.4407677  -0.2149716  -0.1106704 SPIN=   0.00000
  Li   0.4407677   0.2149716   0.1106704 SPIN=   0.00000
  Li  -0.4407677  -0.2850284   0.3893296 SPIN=   0.00000
  Li  -0.4407677   0.2850284  -0.3893296 SPIN=   0.00000
  Fe  -0.1203779  -0.4496691  -0.2435221 SPIN=   4.00000
  Fe  -0.1203779   0.4496691   0.2435221 SPIN=   4.00000
  Fe   0.1203779  -0.0503309   0.2564779 SPIN=   4.00000
  Fe   0.1203779   0.0503309  -0.2564779 SPIN=   4.00000
   O   0.2476530   0.3699637   0.4526812 SPIN=   0.00000
   O   0.2536715   0.0838915   0.4164229 SPIN=   0.00000
   O  -0.2524987   0.2325563   0.3973123 SPIN=   0.00000
   O  -0.0118920   0.1901545   0.5962342 SPIN=   0.00000
   S   0.0592335   0.2191415   0.4656626 SPIN=   0.00000
   O   0.2476530  -0.3699637  -0.4526812 SPIN=   0.00000
   O   0.2536715  -0.0838915  -0.4164229 SPIN=   0.00000
   O  -0.2524987  -0.2325563  -0.3973123 SPIN=   0.00000
   O  -0.0118920  -0.1901545  -0.5962342 SPIN=   0.00000
   S   0.0592335  -0.2191415  -0.4656626 SPIN=   0.00000
   O  -0.2476530   0.1300363  -0.0473188 SPIN=   0.00000
   O  -0.2536715   0.4161085  -0.0835771 SPIN=   0.00000
   O   0.2524987   0.2674437  -0.1026877 SPIN=   0.00000
   O   0.0118920   0.3098455   0.0962342 SPIN=   0.00000
   S  -0.0592335   0.2808585  -0.0343374 SPIN=   0.00000
   O  -0.2476530  -0.1300363   0.0473188 SPIN=   0.00000
   O  -0.2536715  -0.4161085   0.0835771 SPIN=   0.00000
   O   0.2524987  -0.2674437   0.1026877 SPIN=   0.00000
   O   0.0118920  -0.3098455  -0.0962342 SPIN=   0.00000
   S  -0.0592335  -0.2808585   0.0343374 SPIN=   0.00000
   F   0.3365188   0.4374028  -0.2850162 SPIN=   0.00000
   F   0.3365188  -0.4374028   0.2850162 SPIN=   0.00000
   F  -0.3365188   0.0625972   0.2149838 SPIN=   0.00000
   F  -0.3365188  -0.0625972  -0.2149838 SPIN=   0.00000
%ENDBLOCK POSITIONS_FRAC

# Note: total spin =  16.00

KPOINTS_MP_SPACING 0.07

%BLOCK SPECIES_POT
QC5
%ENDBLOCK SPECIES_POT

SNAP_TO_SYMMETRY
SYMMETRY_GENERATE

