#              Generated by Buildcell
#
# at 07:54:49 (GMT+1.0) 18th August 2020
# in /lustre/scratch/uccabz1/launch_tmp
# on node-c12j-021
# by uccabz1
#
# compiler GCC version 4.9.2
# options -cpp -iprefix /lustre/shared/ucl/apps/gcc/4.9.2/bin/../lib/gcc/x86_64-unknown-linux-gnu/4.9.2/ -mtune=corei7 -march=x86-64 -g -Og
#
# seed  -783050101 -1469908504  1595380737  1181502156 -1737062805   442765149  1364433534 -1540304381  1870330245  -663539908    31635330  -962818937
#
#      Author: C. J. Pickard (cjp20@cam.ac.uk)
#                Space group: P21212
#

%BLOCK LATTICE_ABC
      5.31136      7.64798      9.84709
     90.00000     90.00000     90.00000
%ENDBLOCK LATTICE_ABC

%BLOCK POSITIONS_FRAC
  Li  -0.0902789   0.0762252   0.2837501 SPIN=   0.00000
  Li  -0.0902789  -0.0762252  -0.2837501 SPIN=   0.00000
  Li   0.0902789  -0.4237748   0.2162499 SPIN=   0.00000
  Li   0.0902789   0.4237748  -0.2162499 SPIN=   0.00000
  Fe  -0.4295863  -0.2442901   0.1462800 SPIN=   4.00000
  Fe  -0.4295863   0.2442901  -0.1462800 SPIN=   4.00000
  Fe   0.4295863   0.2557099   0.3537200 SPIN=   4.00000
  Fe   0.4295863  -0.2557099  -0.3537200 SPIN=   4.00000
   O  -0.3436598  -0.1839178   0.4616762 SPIN=   0.00000
   O   0.0428848  -0.2523410   0.5915700 SPIN=   0.00000
   O   0.0749471  -0.1303296   0.3594323 SPIN=   0.00000
   O  -0.0754654  -0.4334791   0.3933287 SPIN=   0.00000
   S  -0.0753233  -0.2500169   0.4515018 SPIN=   0.00000
   O  -0.3436598   0.1839178  -0.4616762 SPIN=   0.00000
   O   0.0428848   0.2523410  -0.5915700 SPIN=   0.00000
   O   0.0749471   0.1303296  -0.3594323 SPIN=   0.00000
   O  -0.0754654   0.4334791  -0.3933287 SPIN=   0.00000
   S  -0.0753233   0.2500169  -0.4515018 SPIN=   0.00000
   O   0.3436598   0.3160822   0.0383238 SPIN=   0.00000
   O  -0.0428848   0.2476590  -0.0915700 SPIN=   0.00000
   O  -0.0749471   0.3696704   0.1405677 SPIN=   0.00000
   O   0.0754654   0.0665209   0.1066713 SPIN=   0.00000
   S   0.0753233   0.2499831   0.0484982 SPIN=   0.00000
   O   0.3436598  -0.3160822  -0.0383238 SPIN=   0.00000
   O  -0.0428848  -0.2476590   0.0915700 SPIN=   0.00000
   O  -0.0749471  -0.3696704  -0.1405677 SPIN=   0.00000
   O   0.0754654  -0.0665209  -0.1066713 SPIN=   0.00000
   S   0.0753233  -0.2499831  -0.0484982 SPIN=   0.00000
   F   0.4246831   0.4819872  -0.2827992 SPIN=   0.00000
   F   0.4246831  -0.4819872   0.2827992 SPIN=   0.00000
   F  -0.4246831  -0.0180128  -0.2172008 SPIN=   0.00000
   F  -0.4246831   0.0180128   0.2172008 SPIN=   0.00000
%ENDBLOCK POSITIONS_FRAC

# Note: total spin =  16.00

KPOINTS_MP_SPACING 0.07

%BLOCK SPECIES_POT
QC5
%ENDBLOCK SPECIES_POT

SNAP_TO_SYMMETRY
SYMMETRY_GENERATE

