#              Generated by Buildcell
#
# at 10:11:17 (GMT+1.0) 4th August 2020
# in /lustre/scratch/uccabz1/launch_tmp
# on node-c12a-002
# by uccabz1
#
# compiler GCC version 4.9.2
# options -cpp -iprefix /lustre/shared/ucl/apps/gcc/4.9.2/bin/../lib/gcc/x86_64-unknown-linux-gnu/4.9.2/ -mtune=corei7 -march=x86-64 -g -Og
#
# seed   515182562 -1244104405  2109400819  -806411182  -289976027   679308550   437011835 -1887970621 -1735466061  -839057013  1596346781   519318459
#
#      Author: C. J. Pickard (cjp20@cam.ac.uk)
#                Space group: P21
#

%BLOCK LATTICE_ABC
      6.45768      6.78885      9.68975
    109.67504     90.00000     90.00000
%ENDBLOCK LATTICE_ABC

%BLOCK POSITIONS_FRAC
  Li   0.2959959   0.3408401  -0.4481383 SPIN=   0.00000
  Li  -0.2040041  -0.3408401   0.4481383 SPIN=   0.00000
  Li  -0.1044145  -0.3724138  -0.1731078 SPIN=   0.00000
  Li   0.3955855   0.3724138   0.1731078 SPIN=   0.00000
  Fe  -0.4938849  -0.1397377  -0.1856938 SPIN=   2.39807
  Fe   0.0061151   0.1397377   0.1856938 SPIN=   2.39807
  Fe   0.4550427  -0.1807606   0.1972857 SPIN=   5.60193
  Fe  -0.0449573   0.1807606  -0.1972857 SPIN=   5.60193
   O   0.1348929  -0.2738547   0.1428715 SPIN=   0.00000
   O  -0.2175716  -0.1915778   0.2466106 SPIN=   0.00000
   O  -0.0553199  -0.5309247   0.2250718 SPIN=   0.00000
   O  -0.1681604  -0.4600426   0.0022238 SPIN=   0.00000
   S  -0.0765398  -0.3641000   0.1541944 SPIN=   0.00000
   O   0.6348929   0.2738547  -0.1428715 SPIN=   0.00000
   O   0.2824284   0.1915778  -0.2466106 SPIN=   0.00000
   O   0.4446801   0.5309247  -0.2250718 SPIN=   0.00000
   O   0.3318396   0.4600426  -0.0022238 SPIN=   0.00000
   S   0.4234602   0.3641000  -0.1541944 SPIN=   0.00000
   O   0.4585888  -0.4619286   0.3885974 SPIN=   0.00000
   O   0.4275673  -0.0842830   0.5299971 SPIN=   0.00000
   O   0.2621632  -0.3453181   0.6214828 SPIN=   0.00000
   O   0.1216547  -0.2826138   0.4022760 SPIN=   0.00000
   S   0.3174935  -0.2935359   0.4855883 SPIN=   0.00000
   O  -0.0414112   0.4619286  -0.3885974 SPIN=   0.00000
   O  -0.0724327   0.0842830  -0.5299971 SPIN=   0.00000
   O  -0.2378368   0.3453181  -0.6214828 SPIN=   0.00000
   O  -0.3783453   0.2826138  -0.4022760 SPIN=   0.00000
   S  -0.1825065   0.2935359  -0.4855883 SPIN=   0.00000
   F  -0.1940134  -0.1202547  -0.3255104 SPIN=   0.00000
   F   0.3059866   0.1202547   0.3255104 SPIN=   0.00000
   F   0.2258420  -0.0892800  -0.0763665 SPIN=   0.00000
   F  -0.2741580   0.0892800   0.0763665 SPIN=   0.00000
%ENDBLOCK POSITIONS_FRAC

# Note: total spin =  16.00

KPOINTS_MP_SPACING 0.07

%BLOCK SPECIES_POT
QC5
%ENDBLOCK SPECIES_POT

SNAP_TO_SYMMETRY
SYMMETRY_GENERATE

