#              Generated by Buildcell
#
# at 07:20:48 (GMT+1.0) 4th August 2020
# in /lustre/scratch/uccabz1/launch_tmp
# on node-c12n-012
# by uccabz1
#
# compiler GCC version 4.9.2
# options -cpp -iprefix /lustre/shared/ucl/apps/gcc/4.9.2/bin/../lib/gcc/x86_64-unknown-linux-gnu/4.9.2/ -mtune=corei7 -march=x86-64 -g -Og
#
# seed  -639781706  1936730326 -1816314943  -496919188   378815074  -678388569  -188367505   681902560 -1461115023  1292301101 -1323582588  2015709551
#
#      Author: C. J. Pickard (cjp20@cam.ac.uk)
#                Space group: Pc
#

%BLOCK LATTICE_ABC
      5.80305      8.09169      8.94286
    107.72112     90.00000     90.00000
%ENDBLOCK LATTICE_ABC

%BLOCK POSITIONS_FRAC
  Li  -0.4728305   0.4389571  -0.2954871 SPIN=   0.00000
  Li   0.4728305  -0.0610429  -0.2954871 SPIN=   0.00000
  Li   0.0271628  -0.4065951  -0.4997298 SPIN=   0.00000
  Li  -0.0271628   0.0934049  -0.4997298 SPIN=   0.00000
  Fe   0.4186914   0.2817212  -0.0369958 SPIN=   3.86256
  Fe  -0.4186914  -0.2182788  -0.0369958 SPIN=   3.86256
  Fe  -0.0941099   0.1883995   0.2011593 SPIN=   4.13744
  Fe   0.0941099  -0.3116005   0.2011593 SPIN=   4.13744
   O   0.3780094   0.0231988   0.1610863 SPIN=   0.00000
   O   0.6612113   0.1052726   0.3781411 SPIN=   0.00000
   O   0.3012199  -0.0457759   0.4077391 SPIN=   0.00000
   O   0.2874658   0.2588308   0.4045597 SPIN=   0.00000
   S   0.4069766   0.0853816   0.3378816 SPIN=   0.00000
   O  -0.3780094  -0.4768012   0.1610863 SPIN=   0.00000
   O  -0.6612113  -0.3947274   0.3781411 SPIN=   0.00000
   O  -0.3012199  -0.5457759   0.4077391 SPIN=   0.00000
   O  -0.2874658  -0.2411692   0.4045597 SPIN=   0.00000
   S  -0.4069766  -0.4146184   0.3378816 SPIN=   0.00000
   O   0.1853492  -0.0551892  -0.0798383 SPIN=   0.00000
   O   0.0462854   0.1669941  -0.1968946 SPIN=   0.00000
   O  -0.2332914  -0.0135090  -0.1070691 SPIN=   0.00000
   O   0.0047479  -0.1448282  -0.3430288 SPIN=   0.00000
   S   0.0007728  -0.0116331  -0.1817077 SPIN=   0.00000
   O  -0.1853492   0.4448108  -0.0798383 SPIN=   0.00000
   O  -0.0462854   0.6669941  -0.1968946 SPIN=   0.00000
   O   0.2332914   0.4864910  -0.1070691 SPIN=   0.00000
   O  -0.0047479   0.3551718  -0.3430288 SPIN=   0.00000
   S  -0.0007728   0.4883669  -0.1817077 SPIN=   0.00000
   F  -0.0929446  -0.1464649   0.1580004 SPIN=   0.00000
   F   0.0929446   0.3535351   0.1580004 SPIN=   0.00000
   F  -0.4956203   0.2080387  -0.2518264 SPIN=   0.00000
   F   0.4956203  -0.2919613  -0.2518264 SPIN=   0.00000
%ENDBLOCK POSITIONS_FRAC

# Note: total spin =  16.00

KPOINTS_MP_SPACING 0.07

%BLOCK SPECIES_POT
QC5
%ENDBLOCK SPECIES_POT

SNAP_TO_SYMMETRY
SYMMETRY_GENERATE

