#              Generated by Buildcell
#
# at 06:30:19 (GMT+1.0) 18th August 2020
# in /lustre/scratch/uccabz1/launch_tmp
# on node-c12p-008
# by uccabz1
#
# compiler GCC version 4.9.2
# options -cpp -iprefix /lustre/shared/ucl/apps/gcc/4.9.2/bin/../lib/gcc/x86_64-unknown-linux-gnu/4.9.2/ -mtune=corei7 -march=x86-64 -g -Og
#
# seed -2072520257 -1895980423  -862156823   940896200 -2120447990 -1909863766  -496227055 -1777427369  -242424637 -2052081448  -378529555  1582922896
#
#      Author: C. J. Pickard (cjp20@cam.ac.uk)
#                Space group: Pca21
#

%BLOCK LATTICE_ABC
      6.56523      7.67116      7.94235
     90.00000     90.00000     90.00000
%ENDBLOCK LATTICE_ABC

%BLOCK POSITIONS_FRAC
  Li   0.1475369   0.3870262   0.2347849 SPIN=   0.00000
  Li  -0.1475369  -0.3870262  -0.2652151 SPIN=   0.00000
  Li  -0.3524631  -0.3870262   0.2347849 SPIN=   0.00000
  Li   0.3524631   0.3870262  -0.2652151 SPIN=   0.00000
  Fe  -0.3671999  -0.1198807  -0.0476236 SPIN=   4.00000
  Fe   0.3671999   0.1198807   0.4523764 SPIN=   4.00000
  Fe   0.1328001   0.1198807  -0.0476236 SPIN=   4.00000
  Fe  -0.1328001  -0.1198807   0.4523764 SPIN=   4.00000
   O   0.1001208  -0.1406913  -0.1474970 SPIN=   0.00000
   O   0.3631627  -0.0848224  -0.3640806 SPIN=   0.00000
   O   0.1048933  -0.3150427  -0.4096495 SPIN=   0.00000
   O   0.3746719  -0.3560702  -0.1956461 SPIN=   0.00000
   S   0.2357121  -0.2241567  -0.2792183 SPIN=   0.00000
   O  -0.1001208   0.1406913   0.3525030 SPIN=   0.00000
   O  -0.3631627   0.0848224   0.1359194 SPIN=   0.00000
   O  -0.1048933   0.3150427   0.0903505 SPIN=   0.00000
   O  -0.3746719   0.3560702   0.3043539 SPIN=   0.00000
   S  -0.2357121   0.2241567   0.2207817 SPIN=   0.00000
   O  -0.3998792   0.1406913  -0.1474970 SPIN=   0.00000
   O  -0.1368373   0.0848224  -0.3640806 SPIN=   0.00000
   O  -0.3951067   0.3150427  -0.4096495 SPIN=   0.00000
   O  -0.1253281   0.3560702  -0.1956461 SPIN=   0.00000
   S  -0.2642879   0.2241567  -0.2792183 SPIN=   0.00000
   O   0.3998792  -0.1406913   0.3525030 SPIN=   0.00000
   O   0.1368373  -0.0848224   0.1359194 SPIN=   0.00000
   O   0.3951067  -0.3150427   0.0903505 SPIN=   0.00000
   O   0.1253281  -0.3560702   0.3043539 SPIN=   0.00000
   S   0.2642879  -0.2241567   0.2207817 SPIN=   0.00000
   F  -0.2012324  -0.3470742  -0.0064080 SPIN=   0.00000
   F   0.2012324   0.3470742   0.4935920 SPIN=   0.00000
   F   0.2987676   0.3470742  -0.0064080 SPIN=   0.00000
   F  -0.2987676  -0.3470742   0.4935920 SPIN=   0.00000
%ENDBLOCK POSITIONS_FRAC

# Note: total spin =  16.00

KPOINTS_MP_SPACING 0.07

%BLOCK SPECIES_POT
QC5
%ENDBLOCK SPECIES_POT

SNAP_TO_SYMMETRY
SYMMETRY_GENERATE

