#              Generated by Buildcell
#
# at 07:54:39 (GMT+1.0) 4th August 2020
# in /lustre/scratch/uccabz1/launch_tmp
# on node-c12g-023
# by uccabz1
#
# compiler GCC version 4.9.2
# options -cpp -iprefix /lustre/shared/ucl/apps/gcc/4.9.2/bin/../lib/gcc/x86_64-unknown-linux-gnu/4.9.2/ -mtune=corei7 -march=x86-64 -g -Og
#
# seed   138926049  -936249978 -1652429385 -1890633087 -1270371013   -46263347 -1928428748   489305126  1830204641 -2118545292  1013336526  -871149799
#
#      Author: C. J. Pickard (cjp20@cam.ac.uk)
#                Space group: P-1
#

%BLOCK LATTICE_ABC
      5.14850      8.78549      9.42615
    103.93622    102.98916     93.74189
%ENDBLOCK LATTICE_ABC

%BLOCK POSITIONS_FRAC
  Li   0.1370792  -0.4256382   0.3277406 SPIN=   0.00000
  Li  -0.1370792   0.4256382  -0.3277406 SPIN=   0.00000
  Li  -0.4665638  -0.1596876  -0.2518010 SPIN=   0.00000
  Li   0.4665638   0.1596876   0.2518010 SPIN=   0.00000
  Fe   0.3281972   0.3061823  -0.1311423 SPIN=   6.77280
  Fe  -0.3281972  -0.3061823   0.1311423 SPIN=   6.77280
  Fe  -0.0909081   0.1862597   0.1105172 SPIN=   1.22720
  Fe   0.0909081  -0.1862597  -0.1105172 SPIN=   1.22720
   O  -0.2654857   0.2743804  -0.1925379 SPIN=   0.00000
   O  -0.5494806   0.0391220  -0.3746623 SPIN=   0.00000
   O  -0.1025365   0.0123761  -0.2242426 SPIN=   0.00000
   O  -0.1371853   0.1491806  -0.4273597 SPIN=   0.00000
   S  -0.2636720   0.1187648  -0.3047006 SPIN=   0.00000
   O   0.2654857  -0.2743804   0.1925379 SPIN=   0.00000
   O   0.5494806  -0.0391220   0.3746623 SPIN=   0.00000
   O   0.1025365  -0.0123761   0.2242426 SPIN=   0.00000
   O   0.1371853  -0.1491806   0.4273597 SPIN=   0.00000
   S   0.2636720  -0.1187648   0.3047006 SPIN=   0.00000
   O   0.2139836   0.1505980   0.4568331 SPIN=   0.00000
   O   0.4074959   0.4215639   0.6093851 SPIN=   0.00000
   O  -0.0650447   0.3697307   0.4593389 SPIN=   0.00000
   O   0.3054075   0.3575802   0.3306435 SPIN=   0.00000
   S   0.2154606   0.3248682   0.4640502 SPIN=   0.00000
   O  -0.2139836  -0.1505980  -0.4568331 SPIN=   0.00000
   O  -0.4074959  -0.4215639  -0.6093851 SPIN=   0.00000
   O   0.0650447  -0.3697307  -0.4593389 SPIN=   0.00000
   O  -0.3054075  -0.3575802  -0.3306435 SPIN=   0.00000
   S  -0.2154606  -0.3248682  -0.4640502 SPIN=   0.00000
   F  -0.1470989   0.4841105   0.1578443 SPIN=   0.00000
   F   0.1470989  -0.4841105  -0.1578443 SPIN=   0.00000
   F  -0.2838831  -0.1617461  -0.0439792 SPIN=   0.00000
   F   0.2838831   0.1617461   0.0439792 SPIN=   0.00000
%ENDBLOCK POSITIONS_FRAC

# Note: total spin =  16.00

KPOINTS_MP_SPACING 0.07

%BLOCK SPECIES_POT
QC5
%ENDBLOCK SPECIES_POT

SNAP_TO_SYMMETRY
SYMMETRY_GENERATE

