#              Generated by Buildcell
#
# at 07:54:49 (GMT+1.0) 4th August 2020
# in /lustre/scratch/uccabz1/launch_tmp
# on node-c12n-019
# by uccabz1
#
# compiler GCC version 4.9.2
# options -cpp -iprefix /lustre/shared/ucl/apps/gcc/4.9.2/bin/../lib/gcc/x86_64-unknown-linux-gnu/4.9.2/ -mtune=corei7 -march=x86-64 -g -Og
#
# seed  1015265940  1478503997   945680229 -1919448866 -1511594026   577164920 -1164203171 -2118611853 -1140986456 -1658978355 -1349076515  1211883851
#
#      Author: C. J. Pickard (cjp20@cam.ac.uk)
#                Space group: Cc
#

%BLOCK LATTICE_ABC
      6.33512      6.59056     10.97486
     94.79312     90.00000    118.72593
%ENDBLOCK LATTICE_ABC

%BLOCK POSITIONS_FRAC
  Li  -0.1354687  -0.2687826  -0.4990652 SPIN=   0.00000
  Li   0.3666861  -0.2687826   0.0009348 SPIN=   0.00000
  Li  -0.4832896   0.0163317  -0.2938916 SPIN=   0.00000
  Li  -0.0003787   0.0163317   0.2061084 SPIN=   0.00000
  Fe  -0.0846850   0.4163167   0.2992747 SPIN=   3.48018
  Fe   0.0010016   0.4163167  -0.2007253 SPIN=   3.48018
  Fe   0.3285095   0.1886071  -0.0327901 SPIN=   4.51982
  Fe   0.3600976   0.1886071   0.4672099 SPIN=   4.51982
   O   0.5554891   0.0610635   0.3499831 SPIN=   0.00000
   O   0.3043371  -0.3512463   0.2704577 SPIN=   0.00000
   O   0.6507332  -0.0886272   0.1552427 SPIN=   0.00000
   O   0.2862871  -0.0414113   0.1655752 SPIN=   0.00000
   S   0.4492116  -0.1050553   0.2353147 SPIN=   0.00000
   O   0.0055744   0.0610635  -0.1500169 SPIN=   0.00000
   O  -0.1555834  -0.3512463  -0.2295423 SPIN=   0.00000
   O  -0.2393603  -0.0886272  -0.3447573 SPIN=   0.00000
   O   0.1723016  -0.0414113  -0.3344248 SPIN=   0.00000
   S  -0.0542669  -0.1050553  -0.2646853 SPIN=   0.00000
   O   0.0600530  -0.5770083  -0.5025469 SPIN=   0.00000
   O   0.3145165  -0.1523085  -0.5076108 SPIN=   0.00000
   O   0.5027604  -0.3964280  -0.4709543 SPIN=   0.00000
   O   0.2616080  -0.3280882  -0.3116057 SPIN=   0.00000
   S   0.2847344  -0.3634582  -0.4481794 SPIN=   0.00000
   O  -0.1370613  -0.5770083  -0.0025469 SPIN=   0.00000
   O   0.0331751  -0.1523085  -0.0076108 SPIN=   0.00000
   O  -0.3991884  -0.3964280   0.0290457 SPIN=   0.00000
   O  -0.0896961  -0.3280882   0.1883943 SPIN=   0.00000
   S  -0.1481927  -0.3634582   0.0518206 SPIN=   0.00000
   F  -0.4992566   0.0030316  -0.0924424 SPIN=   0.00000
   F   0.0022882   0.0030316   0.4075576 SPIN=   0.00000
   F  -0.3756787   0.2838291  -0.4057906 SPIN=   0.00000
   F   0.1595078   0.2838291   0.0942094 SPIN=   0.00000
%ENDBLOCK POSITIONS_FRAC

# Note: total spin =  16.00

KPOINTS_MP_SPACING 0.07

%BLOCK SPECIES_POT
QC5
%ENDBLOCK SPECIES_POT

SNAP_TO_SYMMETRY
SYMMETRY_GENERATE

