#              Generated by Buildcell
#
# at 06:31:25 (GMT+1.0) 4th August 2020
# in /lustre/scratch/uccabz1/launch_tmp
# on node-c12j-011
# by uccabz1
#
# compiler GCC version 4.9.2
# options -cpp -iprefix /lustre/shared/ucl/apps/gcc/4.9.2/bin/../lib/gcc/x86_64-unknown-linux-gnu/4.9.2/ -mtune=corei7 -march=x86-64 -g -Og
#
# seed   -64166111 -1847454022  1699683697   873753615  -602771842 -1241130835 -1308037841   148792771 -1101595433 -1914885770  1025118383  -244476877
#
#      Author: C. J. Pickard (cjp20@cam.ac.uk)
#                Space group: P21
#

%BLOCK LATTICE_ABC
      5.24851      7.38983     10.35241
     90.00000     90.00000     94.99449
%ENDBLOCK LATTICE_ABC

%BLOCK POSITIONS_FRAC
  Li  -0.1601247  -0.4882742   0.3143784 SPIN=   0.00000
  Li   0.1601247   0.4882742  -0.1856216 SPIN=   0.00000
  Li   0.2650761  -0.0932055   0.1820762 SPIN=   0.00000
  Li  -0.2650761   0.0932055  -0.3179238 SPIN=   0.00000
  Fe   0.3790420   0.3492975  -0.4317779 SPIN=   2.60576
  Fe  -0.3790420  -0.3492975   0.0682221 SPIN=   2.60576
  Fe  -0.1780790   0.0723447   0.3896034 SPIN=   5.39424
  Fe   0.1780790  -0.0723447  -0.1103966 SPIN=   5.39424
   O  -0.1650583  -0.3986257  -0.1504448 SPIN=   0.00000
   O  -0.1117223  -0.2762198  -0.3722476 SPIN=   0.00000
   O  -0.3770509  -0.1258670  -0.2140600 SPIN=   0.00000
   O  -0.5291315  -0.4268180  -0.3031640 SPIN=   0.00000
   S  -0.2957408  -0.3068826  -0.2599791 SPIN=   0.00000
   O   0.1650583   0.3986257   0.3495552 SPIN=   0.00000
   O   0.1117223   0.2762198   0.1277524 SPIN=   0.00000
   O   0.3770509   0.1258670   0.2859400 SPIN=   0.00000
   O   0.5291315   0.4268180   0.1968360 SPIN=   0.00000
   S   0.2957408   0.3068826   0.2400209 SPIN=   0.00000
   O  -0.5165412   0.1973153  -0.0493464 SPIN=   0.00000
   O  -0.0753325   0.1076313  -0.0264625 SPIN=   0.00000
   O  -0.1685833   0.4234244   0.0209212 SPIN=   0.00000
   O  -0.1815775   0.3115268  -0.2045096 SPIN=   0.00000
   S  -0.2355086   0.2599745  -0.0648493 SPIN=   0.00000
   O   0.5165412  -0.1973153   0.4506536 SPIN=   0.00000
   O   0.0753325  -0.1076313   0.4735375 SPIN=   0.00000
   O   0.1685833  -0.4234244   0.5209212 SPIN=   0.00000
   O   0.1815775  -0.3115268   0.2954904 SPIN=   0.00000
   S   0.2355086  -0.2599745   0.4351507 SPIN=   0.00000
   F   0.2469718   0.0561176  -0.2792515 SPIN=   0.00000
   F  -0.2469718  -0.0561176   0.2207485 SPIN=   0.00000
   F   0.2125141  -0.3267574  -0.0009451 SPIN=   0.00000
   F  -0.2125141   0.3267574   0.4990549 SPIN=   0.00000
%ENDBLOCK POSITIONS_FRAC

# Note: total spin =  16.00

KPOINTS_MP_SPACING 0.07

%BLOCK SPECIES_POT
QC5
%ENDBLOCK SPECIES_POT

SNAP_TO_SYMMETRY
SYMMETRY_GENERATE

