#              Generated by Buildcell
#
# at 00:06:49 (GMT+1.0) 18th August 2020
# in /lustre/scratch/uccabz1/launch_tmp
# on node-c12a-018
# by uccabz1
#
# compiler GCC version 4.9.2
# options -cpp -iprefix /lustre/shared/ucl/apps/gcc/4.9.2/bin/../lib/gcc/x86_64-unknown-linux-gnu/4.9.2/ -mtune=corei7 -march=x86-64 -g -Og
#
# seed -1375944032  -844949621  2145556193  -421195575  -688720834 -1999774788  2026727962  1428710321  1797428005  1736884963  -164194899  1713600261
#
#      Author: C. J. Pickard (cjp20@cam.ac.uk)
#                Space group: P-1
#

%BLOCK LATTICE_ABC
      4.34444      8.03879     11.81661
    103.43910     90.63567     94.43763
%ENDBLOCK LATTICE_ABC

%BLOCK POSITIONS_FRAC
  Li   0.4992506   0.3431443  -0.3702930 SPIN=   0.00000
  Li  -0.4992506  -0.3431443   0.3702930 SPIN=   0.00000
  Li   0.4914895   0.2931240   0.0938414 SPIN=   0.00000
  Li  -0.4914895  -0.2931240  -0.0938414 SPIN=   0.00000
  Fe   0.0000000   0.0000000   0.5000000 SPIN=   5.32387
  Fe   0.0000000   0.5000000   0.5000000 SPIN=   5.27068
  Fe   0.0000000   0.0000000   0.0000000 SPIN=   1.65209
  Fe   0.0000000   0.5000000   0.0000000 SPIN=   3.75335
   O   0.3988078   0.3935570   0.2718676 SPIN=   0.00000
   O   0.1593641   0.1366357   0.3286461 SPIN=   0.00000
   O   0.6026265   0.3075914   0.4443488 SPIN=   0.00000
   O   0.6811687   0.1321581   0.2466196 SPIN=   0.00000
   S   0.4604918   0.2424855   0.3228705 SPIN=   0.00000
   O  -0.3988078  -0.3935570  -0.2718676 SPIN=   0.00000
   O  -0.1593641  -0.1366357  -0.3286461 SPIN=   0.00000
   O  -0.6026265  -0.3075914  -0.4443488 SPIN=   0.00000
   O  -0.6811687  -0.1321581  -0.2466196 SPIN=   0.00000
   S  -0.4604918  -0.2424855  -0.3228705 SPIN=   0.00000
   O   0.5355143   0.4082628  -0.1043546 SPIN=   0.00000
   O   0.5933051   0.1150547  -0.0790799 SPIN=   0.00000
   O   0.5863867   0.1699875  -0.2766324 SPIN=   0.00000
   O   0.1078510   0.1814393  -0.1643505 SPIN=   0.00000
   S   0.4557643   0.2186861  -0.1561043 SPIN=   0.00000
   O  -0.5355143  -0.4082628   0.1043546 SPIN=   0.00000
   O  -0.5933051  -0.1150547   0.0790799 SPIN=   0.00000
   O  -0.5863867  -0.1699875   0.2766324 SPIN=   0.00000
   O  -0.1078510  -0.1814393   0.1643505 SPIN=   0.00000
   S  -0.4557643  -0.2186861   0.1561043 SPIN=   0.00000
   F  -0.0398791   0.3090726   0.0967900 SPIN=   0.00000
   F   0.0398791  -0.3090726  -0.0967900 SPIN=   0.00000
   F   0.0551826   0.2500252  -0.4138838 SPIN=   0.00000
   F  -0.0551826  -0.2500252   0.4138838 SPIN=   0.00000
%ENDBLOCK POSITIONS_FRAC

# Note: total spin =  16.00

KPOINTS_MP_SPACING 0.07

%BLOCK SPECIES_POT
QC5
%ENDBLOCK SPECIES_POT

SNAP_TO_SYMMETRY
SYMMETRY_GENERATE

