#              Generated by Buildcell
#
# at 03:22:00 (GMT+1.0) 18th August 2020
# in /lustre/scratch/uccabz1/launch_tmp
# on node-c12k-008
# by uccabz1
#
# compiler GCC version 4.9.2
# options -cpp -iprefix /lustre/shared/ucl/apps/gcc/4.9.2/bin/../lib/gcc/x86_64-unknown-linux-gnu/4.9.2/ -mtune=corei7 -march=x86-64 -g -Og
#
# seed  -591465152   818280061   173724342  -877134150  1286443436 -1363253231   317855226  -957803449   513006456  1236590720 -1114764692 -1745145128
#
#      Author: C. J. Pickard (cjp20@cam.ac.uk)
#                Space group: P2
#

%BLOCK LATTICE_ABC
      6.70275      7.70719      7.82457
     90.00000     90.00000     98.27923
%ENDBLOCK LATTICE_ABC

%BLOCK POSITIONS_FRAC
  Li   0.3291152  -0.3116537  -0.0014566 SPIN=   0.00000
  Li  -0.3291152   0.3116537  -0.0014566 SPIN=   0.00000
  Li  -0.1179468  -0.2793948   0.4985884 SPIN=   0.00000
  Li   0.1179468   0.2793948   0.4985884 SPIN=   0.00000
  Fe   0.2857950   0.1379209   0.1848791 SPIN=   7.14698
  Fe  -0.2857950  -0.1379209   0.1848791 SPIN=   7.14698
  Fe   0.2326629  -0.1054446  -0.3033731 SPIN=   0.85302
  Fe  -0.2326629   0.1054446  -0.3033731 SPIN=   0.85302
   O   0.1793491  -0.5563908   0.3018269 SPIN=   0.00000
   O   0.3479953  -0.3726087   0.5340627 SPIN=   0.00000
   O   0.1154919  -0.2500245   0.3369106 SPIN=   0.00000
   O   0.4473756  -0.3105956   0.2331280 SPIN=   0.00000
   S   0.2725530  -0.3724049   0.3514820 SPIN=   0.00000
   O  -0.1793491   0.5563908   0.3018269 SPIN=   0.00000
   O  -0.3479953   0.3726087   0.5340627 SPIN=   0.00000
   O  -0.1154919   0.2500245   0.3369106 SPIN=   0.00000
   O  -0.4473756   0.3105956   0.2331280 SPIN=   0.00000
   S  -0.2725530   0.3724049   0.3514820 SPIN=   0.00000
   O   0.4498646   0.3547067  -0.1905497 SPIN=   0.00000
   O   0.1876849   0.3643431   0.0305784 SPIN=   0.00000
   O   0.1054663   0.1971525  -0.2364463 SPIN=   0.00000
   O   0.1667860   0.5215033  -0.2432102 SPIN=   0.00000
   S   0.2274504   0.3594264  -0.1599069 SPIN=   0.00000
   O  -0.4498646  -0.3547067  -0.1905497 SPIN=   0.00000
   O  -0.1876849  -0.3643431   0.0305784 SPIN=   0.00000
   O  -0.1054663  -0.1971525  -0.2364463 SPIN=   0.00000
   O  -0.1667860  -0.5215033  -0.2432102 SPIN=   0.00000
   S  -0.2274504  -0.3594264  -0.1599069 SPIN=   0.00000
   F  -0.2643000  -0.0863833   0.4574191 SPIN=   0.00000
   F   0.2643000   0.0863833   0.4574191 SPIN=   0.00000
   F  -0.2353973   0.0876088  -0.0146412 SPIN=   0.00000
   F   0.2353973  -0.0876088  -0.0146412 SPIN=   0.00000
%ENDBLOCK POSITIONS_FRAC

# Note: total spin =  16.00

KPOINTS_MP_SPACING 0.07

%BLOCK SPECIES_POT
QC5
%ENDBLOCK SPECIES_POT

SNAP_TO_SYMMETRY
SYMMETRY_GENERATE

