#              Generated by Buildcell
#
# at 07:43:15 (GMT+1.0) 4th August 2020
# in /lustre/scratch/uccabz1/launch_tmp
# on node-c12f-013
# by uccabz1
#
# compiler GCC version 4.9.2
# options -cpp -iprefix /lustre/shared/ucl/apps/gcc/4.9.2/bin/../lib/gcc/x86_64-unknown-linux-gnu/4.9.2/ -mtune=corei7 -march=x86-64 -g -Og
#
# seed   923264403  1278297498  1932401359   899601598  2093702449  -963124472  -558352270  -857328988  -746673421 -2119770653 -1617665819   802503740
#
#      Author: C. J. Pickard (cjp20@cam.ac.uk)
#                Space group: P-1
#

%BLOCK LATTICE_ABC
      6.92567      7.44920      7.92419
    100.55038     92.03654     94.72867
%ENDBLOCK LATTICE_ABC

%BLOCK POSITIONS_FRAC
  Li  -0.2183468   0.3262675   0.4534674 SPIN=   0.00000
  Li   0.2183468  -0.3262675  -0.4534674 SPIN=   0.00000
  Li   0.0724087  -0.0423506   0.2205345 SPIN=   0.00000
  Li  -0.0724087   0.0423506  -0.2205345 SPIN=   0.00000
  Fe  -0.3751692   0.3193770  -0.1318626 SPIN=   1.86255
  Fe   0.3751692  -0.3193770   0.1318626 SPIN=   1.86255
  Fe  -0.3438344  -0.3006014  -0.3706321 SPIN=   6.13745
  Fe   0.3438344   0.3006014   0.3706321 SPIN=   6.13745
   O   0.4020826  -0.2240682  -0.1840941 SPIN=   0.00000
   O   0.1924256  -0.0467002  -0.3381362 SPIN=   0.00000
   O   0.4206605   0.1139539  -0.1006186 SPIN=   0.00000
   O   0.1307778  -0.0753597  -0.0380630 SPIN=   0.00000
   S   0.2864866  -0.0580435  -0.1652280 SPIN=   0.00000
   O  -0.4020826   0.2240682   0.1840941 SPIN=   0.00000
   O  -0.1924256   0.0467002   0.3381362 SPIN=   0.00000
   O  -0.4206605  -0.1139539   0.1006186 SPIN=   0.00000
   O  -0.1307778   0.0753597   0.0380630 SPIN=   0.00000
   S  -0.2864866   0.0580435   0.1652280 SPIN=   0.00000
   O   0.1727537   0.5693018  -0.0762495 SPIN=   0.00000
   O   0.3719136   0.4513310  -0.3183231 SPIN=   0.00000
   O   0.0155043   0.4419794  -0.3633550 SPIN=   0.00000
   O   0.1572569   0.2358657  -0.1903229 SPIN=   0.00000
   S   0.1793571   0.4246195  -0.2370626 SPIN=   0.00000
   O  -0.1727537  -0.5693018   0.0762495 SPIN=   0.00000
   O  -0.3719136  -0.4513310   0.3183231 SPIN=   0.00000
   O  -0.0155043  -0.4419794   0.3633550 SPIN=   0.00000
   O  -0.1572569  -0.2358657   0.1903229 SPIN=   0.00000
   S  -0.1793571  -0.4246195   0.2370626 SPIN=   0.00000
   F   0.2730784  -0.1687096   0.3156552 SPIN=   0.00000
   F  -0.2730784   0.1687096  -0.3156552 SPIN=   0.00000
   F   0.2070814   0.3015375   0.1701697 SPIN=   0.00000
   F  -0.2070814  -0.3015375  -0.1701697 SPIN=   0.00000
%ENDBLOCK POSITIONS_FRAC

# Note: total spin =  16.00

KPOINTS_MP_SPACING 0.07

%BLOCK SPECIES_POT
QC5
%ENDBLOCK SPECIES_POT

SNAP_TO_SYMMETRY
SYMMETRY_GENERATE

