#              Generated by Buildcell
#
# at 12:52:41 (GMT+1.0) 18th August 2020
# in /lustre/scratch/uccabz1/launch_tmp
# on node-c12o-027
# by uccabz1
#
# compiler GCC version 4.9.2
# options -cpp -iprefix /lustre/shared/ucl/apps/gcc/4.9.2/bin/../lib/gcc/x86_64-unknown-linux-gnu/4.9.2/ -mtune=corei7 -march=x86-64 -g -Og
#
# seed   562895839   419711443  -720024895   715445995 -1491108669  1956192887  -686798759  1733141896  1413801752  -117449607 -1484248443  -525051374
#
#      Author: C. J. Pickard (cjp20@cam.ac.uk)
#                Space group: Pc
#

%BLOCK LATTICE_ABC
      6.00476      6.76541      9.84666
     90.00000     90.00000     90.53121
%ENDBLOCK LATTICE_ABC

%BLOCK POSITIONS_FRAC
  Li  -0.1802076   0.3169392  -0.0764007 SPIN=   0.00000
  Li   0.3197924  -0.1830608   0.0764007 SPIN=   0.00000
  Li  -0.4529669  -0.0051067   0.4168239 SPIN=   0.00000
  Li   0.0470331   0.4948933  -0.4168239 SPIN=   0.00000
  Fe  -0.1719917  -0.2843450   0.0647989 SPIN=   5.74605
  Fe   0.3280083   0.2156550  -0.0647989 SPIN=   5.74605
  Fe  -0.0694122   0.2320777   0.2171676 SPIN=   2.25395
  Fe   0.4305878  -0.2679223  -0.2171676 SPIN=   2.25395
   O  -0.2310453   0.0445682  -0.1285460 SPIN=   0.00000
   O  -0.1603138  -0.2417000  -0.2784407 SPIN=   0.00000
   O   0.1513949  -0.0838516  -0.1533050 SPIN=   0.00000
   O  -0.0266541   0.0917976  -0.3445519 SPIN=   0.00000
   S  -0.0666546  -0.0472964  -0.2262109 SPIN=   0.00000
   O   0.2689547   0.5445682   0.1285460 SPIN=   0.00000
   O   0.3396862   0.2583000   0.2784407 SPIN=   0.00000
   O   0.6513949   0.4161484   0.1533050 SPIN=   0.00000
   O   0.4733459   0.5917976   0.3445519 SPIN=   0.00000
   S   0.4333454   0.4527036   0.2262109 SPIN=   0.00000
   O   0.2371742  -0.1418617   0.3207412 SPIN=   0.00000
   O  -0.0797875  -0.3780676   0.3133960 SPIN=   0.00000
   O  -0.1467118  -0.0236562   0.3584133 SPIN=   0.00000
   O   0.0369841  -0.2300605   0.5322442 SPIN=   0.00000
   S   0.0119147  -0.1934115   0.3811987 SPIN=   0.00000
   O  -0.2628258   0.3581383  -0.3207412 SPIN=   0.00000
   O  -0.5797875   0.1219324  -0.3133960 SPIN=   0.00000
   O  -0.6467118   0.4763438  -0.3584133 SPIN=   0.00000
   O  -0.4630159   0.2699395  -0.5322442 SPIN=   0.00000
   S  -0.4880853   0.3065885  -0.3811987 SPIN=   0.00000
   F  -0.4876705  -0.1936883  -0.4433590 SPIN=   0.00000
   F   0.0123295   0.3063117   0.4433590 SPIN=   0.00000
   F  -0.3949793  -0.0670090   0.1328583 SPIN=   0.00000
   F   0.1050207   0.4329910  -0.1328583 SPIN=   0.00000
%ENDBLOCK POSITIONS_FRAC

# Note: total spin =  16.00

KPOINTS_MP_SPACING 0.07

%BLOCK SPECIES_POT
QC5
%ENDBLOCK SPECIES_POT

SNAP_TO_SYMMETRY
SYMMETRY_GENERATE

