#              Generated by Buildcell
#
# at 23:20:14 (GMT+1.0) 17th August 2020
# in /lustre/scratch/uccabz1/launch_tmp
# on node-c12k-033
# by uccabz1
#
# compiler GCC version 4.9.2
# options -cpp -iprefix /lustre/shared/ucl/apps/gcc/4.9.2/bin/../lib/gcc/x86_64-unknown-linux-gnu/4.9.2/ -mtune=corei7 -march=x86-64 -g -Og
#
# seed   596207752   750166986 -1061794585 -1521228339  -692502634  1648651564  -199857614 -2147259112  -469649449 -1411284276  1431344811 -1608952428
#
#      Author: C. J. Pickard (cjp20@cam.ac.uk)
#                Space group: P-1
#

%BLOCK LATTICE_ABC
      7.18876      7.60588      8.36597
     90.59267    112.83565    106.67058
%ENDBLOCK LATTICE_ABC

%BLOCK POSITIONS_FRAC
  Li  -0.2308005  -0.2289059   0.0574609 SPIN=   0.00000
  Li   0.2308005   0.2289059  -0.0574609 SPIN=   0.00000
  Li   0.3935070  -0.2760825  -0.3753346 SPIN=   0.00000
  Li  -0.3935070   0.2760825   0.3753346 SPIN=   0.00000
  Fe  -0.2412851   0.0810036  -0.2869365 SPIN=   4.77489
  Fe   0.2412851  -0.0810036   0.2869365 SPIN=   4.77489
  Fe  -0.1383012  -0.3531508  -0.3958710 SPIN=   3.22511
  Fe   0.1383012   0.3531508   0.3958710 SPIN=   3.22511
   O   0.1060023  -0.5642696  -0.1809122 SPIN=   0.00000
   O   0.4269900  -0.2991335  -0.1303357 SPIN=   0.00000
   O   0.3890249  -0.4558752   0.1182263 SPIN=   0.00000
   O   0.1614455  -0.2636341  -0.0237127 SPIN=   0.00000
   S   0.2708657  -0.3957281  -0.0541836 SPIN=   0.00000
   O  -0.1060023   0.5642696   0.1809122 SPIN=   0.00000
   O  -0.4269900   0.2991335   0.1303357 SPIN=   0.00000
   O  -0.3890249   0.4558752  -0.1182263 SPIN=   0.00000
   O  -0.1614455   0.2636341   0.0237127 SPIN=   0.00000
   S  -0.2708657   0.3957281   0.0541836 SPIN=   0.00000
   O  -0.1468235   0.0273839   0.2015558 SPIN=   0.00000
   O  -0.3225445  -0.2311856   0.3236706 SPIN=   0.00000
   O  -0.4775986   0.0215817   0.2316876 SPIN=   0.00000
   O  -0.1416372   0.0816625   0.4956681 SPIN=   0.00000
   S  -0.2721509  -0.0251394   0.3131455 SPIN=   0.00000
   O   0.1468235  -0.0273839  -0.2015558 SPIN=   0.00000
   O   0.3225445   0.2311856  -0.3236706 SPIN=   0.00000
   O   0.4775986  -0.0215817  -0.2316876 SPIN=   0.00000
   O   0.1416372  -0.0816625  -0.4956681 SPIN=   0.00000
   S   0.2721509   0.0251394  -0.3131455 SPIN=   0.00000
   F   0.2275531   0.1767556   0.1864286 SPIN=   0.00000
   F  -0.2275531  -0.1767556  -0.1864286 SPIN=   0.00000
   F  -0.3047926   0.3334833  -0.3674567 SPIN=   0.00000
   F   0.3047926  -0.3334833   0.3674567 SPIN=   0.00000
%ENDBLOCK POSITIONS_FRAC

# Note: total spin =  16.00

KPOINTS_MP_SPACING 0.07

%BLOCK SPECIES_POT
QC5
%ENDBLOCK SPECIES_POT

SNAP_TO_SYMMETRY
SYMMETRY_GENERATE

