#              Generated by Buildcell
#
# at 05:57:52 (GMT+1.0) 4th August 2020
# in /lustre/scratch/uccabz1/launch_tmp
# on node-c12c-009
# by uccabz1
#
# compiler GCC version 4.9.2
# options -cpp -iprefix /lustre/shared/ucl/apps/gcc/4.9.2/bin/../lib/gcc/x86_64-unknown-linux-gnu/4.9.2/ -mtune=corei7 -march=x86-64 -g -Og
#
# seed  -529133341   832967781  1343432120 -2103098273   794808995  1061716065  -981511393  1916859657   970432358   297710612   764014659  -228605447
#
#      Author: C. J. Pickard (cjp20@cam.ac.uk)
#                Space group: Cc
#

%BLOCK LATTICE_ABC
      7.88054      7.88054      7.90184
     64.89649     64.89649     74.37063
%ENDBLOCK LATTICE_ABC

%BLOCK POSITIONS_FRAC
  Li  -0.4063131   0.2919943   0.4193822 SPIN=   0.00000
  Li   0.2919943  -0.4063131  -0.0806178 SPIN=   0.00000
  Li   0.1232110  -0.3711640  -0.4511886 SPIN=   0.00000
  Li  -0.3711640   0.1232110   0.0488114 SPIN=   0.00000
  Fe   0.2924686   0.0240237   0.0284008 SPIN=   6.12626
  Fe   0.0240237   0.2924686  -0.4715992 SPIN=   6.12626
  Fe  -0.0653343   0.4243656   0.0430423 SPIN=   1.87374
  Fe   0.4243656  -0.0653343  -0.4569577 SPIN=   1.87374
   O   0.6752513  -0.3691050  -0.0276141 SPIN=   0.00000
   O   0.4613050  -0.6191814   0.1842363 SPIN=   0.00000
   O   0.3301232  -0.2859868   0.0628544 SPIN=   0.00000
   O   0.4741477  -0.3940709   0.3204457 SPIN=   0.00000
   S   0.4852068  -0.4170861   0.1349806 SPIN=   0.00000
   O  -0.3691050   0.6752513  -0.5276141 SPIN=   0.00000
   O  -0.6191814   0.4613050  -0.3157637 SPIN=   0.00000
   O  -0.2859868   0.3301232  -0.4371456 SPIN=   0.00000
   O  -0.3940709   0.4741477  -0.1795543 SPIN=   0.00000
   S  -0.4170861   0.4852068  -0.3650194 SPIN=   0.00000
   O  -0.2324649  -0.2035463   0.6020578 SPIN=   0.00000
   O  -0.2265235  -0.0272037   0.2556394 SPIN=   0.00000
   O   0.0602720  -0.2225287   0.3162348 SPIN=   0.00000
   O  -0.0523450   0.0729859   0.3886717 SPIN=   0.00000
   S  -0.1127653  -0.0950732   0.3906509 SPIN=   0.00000
   O  -0.2035463  -0.2324649   0.1020578 SPIN=   0.00000
   O  -0.0272037  -0.2265235  -0.2443606 SPIN=   0.00000
   O  -0.2225287   0.0602720  -0.1837652 SPIN=   0.00000
   O   0.0729859  -0.0523450  -0.1113283 SPIN=   0.00000
   S  -0.0950732  -0.1127653  -0.1093491 SPIN=   0.00000
   F   0.0497875   0.4747386   0.2222818 SPIN=   0.00000
   F   0.4747386   0.0497875  -0.2777182 SPIN=   0.00000
   F  -0.0395928   0.3441502  -0.1996875 SPIN=   0.00000
   F   0.3441502  -0.0395928   0.3003125 SPIN=   0.00000
%ENDBLOCK POSITIONS_FRAC

# Note: total spin =  16.00

KPOINTS_MP_SPACING 0.07

%BLOCK SPECIES_POT
QC5
%ENDBLOCK SPECIES_POT

SNAP_TO_SYMMETRY
SYMMETRY_GENERATE

