#              Generated by Buildcell
#
# at 04:06:59 (GMT+1.0) 18th August 2020
# in /scratch/scratch/uccabz1/launch_tmp
# on node-k10b-027
# by uccabz1
#
# compiler GCC version 4.9.2
# options -cpp -iprefix /scratch/UCL/applications/gcc/4.9.2/bin/../lib/gcc/x86_64-unknown-linux-gnu/4.9.2/ -mtune=corei7 -march=x86-64 -g -O2
#
# seed -1395286095  2048742245 -1958852253   697616223  -356007995  -890238114   929473748    85660541   376371889 -1180622254  1443262193  1822677872
#
#      Author: C. J. Pickard (cjp20@cam.ac.uk)
#                Space group: Cc
#

%BLOCK LATTICE_ABC
      6.35597      7.54177      9.25335
     87.44444     83.92596     65.07799
%ENDBLOCK LATTICE_ABC

%BLOCK POSITIONS_FRAC
  Li  -0.4423591  -0.2737609   0.3532659 SPIN=   0.00000
  Li  -0.2161200   0.2737609  -0.1467341 SPIN=   0.00000
  Li  -0.0603254  -0.1175831  -0.4358530 SPIN=   0.00000
  Li   0.3220915   0.1175831   0.0641470 SPIN=   0.00000
  Fe   0.0451136  -0.1681986   0.0014774 SPIN=   4.40154
  Fe   0.3769150   0.1681986  -0.4985226 SPIN=   4.40154
  Fe  -0.3677030   0.2875960   0.1665585 SPIN=   3.59846
  Fe   0.4198930  -0.2875960  -0.3334415 SPIN=   3.59846
   O   0.0161918   0.3807961  -0.1417991 SPIN=   0.00000
   O   0.4382752   0.1830065  -0.1274513 SPIN=   0.00000
   O   0.2695813   0.5413665  -0.0918549 SPIN=   0.00000
   O   0.3020144   0.4053748  -0.3359271 SPIN=   0.00000
   S   0.2565157   0.3776360  -0.1742581 SPIN=   0.00000
   O  -0.1030122  -0.3807961   0.3582009 SPIN=   0.00000
   O   0.1212816  -0.1830065   0.3725487 SPIN=   0.00000
   O   0.3109478  -0.5413665   0.4081451 SPIN=   0.00000
   O   0.2073893  -0.4053748   0.1640729 SPIN=   0.00000
   S   0.1341516  -0.3776360   0.3257419 SPIN=   0.00000
   O  -0.3959894  -0.5057716  -0.0144041 SPIN=   0.00000
   O  -0.6175639  -0.1460406  -0.0162513 SPIN=   0.00000
   O  -0.2033205  -0.2963054  -0.1153889 SPIN=   0.00000
   O  -0.3083629  -0.3005292   0.1496284 SPIN=   0.00000
   S  -0.3813092  -0.3121617   0.0008960 SPIN=   0.00000
   O  -0.4017610   0.5057716  -0.5144041 SPIN=   0.00000
   O  -0.2636045   0.1460406  -0.5162513 SPIN=   0.00000
   O   0.0003741   0.2963054  -0.6153889 SPIN=   0.00000
   O  -0.1088921   0.3005292  -0.3503716 SPIN=   0.00000
   S  -0.1934708   0.3121617  -0.4991040 SPIN=   0.00000
   F   0.0594871  -0.0836247  -0.2274573 SPIN=   0.00000
   F   0.4758624   0.0836247   0.2725427 SPIN=   0.00000
   F  -0.3764485  -0.1623097  -0.3914021 SPIN=   0.00000
   F  -0.0387582   0.1623097   0.1085979 SPIN=   0.00000
%ENDBLOCK POSITIONS_FRAC

# Note: total spin =  16.00

KPOINTS_MP_SPACING 0.07

%BLOCK SPECIES_POT
QC5
%ENDBLOCK SPECIES_POT

SNAP_TO_SYMMETRY
SYMMETRY_GENERATE

