#              Generated by Buildcell
#
# at 06:02:13 (GMT+1.0) 4th August 2020
# in /lustre/scratch/uccabz1/launch_tmp
# on node-c12m-019
# by uccabz1
#
# compiler GCC version 4.9.2
# options -cpp -iprefix /lustre/shared/ucl/apps/gcc/4.9.2/bin/../lib/gcc/x86_64-unknown-linux-gnu/4.9.2/ -mtune=corei7 -march=x86-64 -g -Og
#
# seed -1477241165  1796948645   626926959   837977587  1249240393  1677611662   345152489  -791118553  -698182827   654844125 -1379508169  -226192739
#
#      Author: C. J. Pickard (cjp20@cam.ac.uk)
#                Space group: Cm
#

%BLOCK LATTICE_ABC
      5.87762      8.70379      8.70379
     98.52590    105.83553    105.83553
%ENDBLOCK LATTICE_ABC

%BLOCK POSITIONS_FRAC
  Li   0.2995994   0.3745504   0.3745504 SPIN=   0.00000
  Li   0.3700213  -0.2959713  -0.2959713 SPIN=   0.00000
  Li   0.0337431  -0.0938944  -0.0938944 SPIN=   0.00000
  Li  -0.3051545   0.1045299   0.1045299 SPIN=   0.00000
  Fe  -0.3566737   0.4450292   0.1668558 SPIN=   3.78776
  Fe  -0.3566737   0.1668558   0.4450292 SPIN=   3.78776
  Fe   0.2947271  -0.2770346   0.3421605 SPIN=   4.21224
  Fe   0.2947271   0.3421605  -0.2770346 SPIN=   4.21224
   O  -0.1106220  -0.1006631  -0.6111461 SPIN=   0.00000
   O  -0.0195534  -0.0433272  -0.3095568 SPIN=   0.00000
   O   0.0762577  -0.2740732  -0.4508029 SPIN=   0.00000
   O  -0.3643196  -0.2920874  -0.4903160 SPIN=   0.00000
   S  -0.1045593  -0.1775377  -0.4654555 SPIN=   0.00000
   O  -0.1106220  -0.6111461  -0.1006631 SPIN=   0.00000
   O  -0.0195534  -0.3095568  -0.0433272 SPIN=   0.00000
   O   0.0762577  -0.4508029  -0.2740732 SPIN=   0.00000
   O  -0.3643196  -0.4903160  -0.2920874 SPIN=   0.00000
   S  -0.1045593  -0.4654555  -0.1775377 SPIN=   0.00000
   O  -0.6139145   0.0363346  -0.1370766 SPIN=   0.00000
   O  -0.4583884  -0.0910924  -0.3426582 SPIN=   0.00000
   O  -0.1591283   0.1192624  -0.0937962 SPIN=   0.00000
   O  -0.4381543   0.2000449  -0.3123186 SPIN=   0.00000
   S  -0.4173964   0.0661374  -0.2214624 SPIN=   0.00000
   O  -0.6139145  -0.1370766   0.0363346 SPIN=   0.00000
   O  -0.4583884  -0.3426582  -0.0910924 SPIN=   0.00000
   O  -0.1591283  -0.0937962   0.1192624 SPIN=   0.00000
   O  -0.4381543  -0.3123186   0.2000449 SPIN=   0.00000
   S  -0.4173964  -0.2214624   0.0661374 SPIN=   0.00000
   F   0.0082139   0.2485304  -0.4708907 SPIN=   0.00000
   F   0.0082139  -0.4708907   0.2485304 SPIN=   0.00000
   F   0.3248993   0.3222758   0.0034724 SPIN=   0.00000
   F   0.3248993   0.0034724   0.3222758 SPIN=   0.00000
%ENDBLOCK POSITIONS_FRAC

# Note: total spin =  16.00

KPOINTS_MP_SPACING 0.07

%BLOCK SPECIES_POT
QC5
%ENDBLOCK SPECIES_POT

SNAP_TO_SYMMETRY
SYMMETRY_GENERATE

