#              Generated by Buildcell
#
# at 07:10:40 (GMT+1.0) 4th August 2020
# in /lustre/scratch/uccabz1/launch_tmp
# on node-c12c-016
# by uccabz1
#
# compiler GCC version 4.9.2
# options -cpp -iprefix /lustre/shared/ucl/apps/gcc/4.9.2/bin/../lib/gcc/x86_64-unknown-linux-gnu/4.9.2/ -mtune=corei7 -march=x86-64 -g -Og
#
# seed   436488733   296777274  -651215902   440154467 -2080467675   685441178  1608039606  -955235397   614976626  -716785751   567806474 -1992080978
#
#      Author: C. J. Pickard (cjp20@cam.ac.uk)
#                Space group: P2
#

%BLOCK LATTICE_ABC
      6.91439      7.29613      7.94724
     90.00000     93.89237     90.00000
%ENDBLOCK LATTICE_ABC

%BLOCK POSITIONS_FRAC
  Li  -0.2512291   0.0835283  -0.0730454 SPIN=   0.00000
  Li   0.2512291   0.0835283   0.0730454 SPIN=   0.00000
  Li   0.2786716  -0.2115421  -0.3962758 SPIN=   0.00000
  Li  -0.2786716  -0.2115421   0.3962758 SPIN=   0.00000
  Fe  -0.2284199   0.3728384  -0.4006992 SPIN=   6.36899
  Fe   0.2284199   0.3728384   0.4006992 SPIN=   6.36899
  Fe   0.2454365  -0.4878468  -0.0633434 SPIN=   1.63101
  Fe  -0.2454365  -0.4878468   0.0633434 SPIN=   1.63101
   O   0.1621673  -0.1501446   0.1686712 SPIN=   0.00000
   O   0.4349638  -0.0388518   0.3593283 SPIN=   0.00000
   O   0.4915319  -0.2765380   0.1459893 SPIN=   0.00000
   O   0.3072611  -0.3526428   0.3930044 SPIN=   0.00000
   S   0.3489810  -0.2045443   0.2667483 SPIN=   0.00000
   O  -0.1621673  -0.1501446  -0.1686712 SPIN=   0.00000
   O  -0.4349638  -0.0388518  -0.3593283 SPIN=   0.00000
   O  -0.4915319  -0.2765380  -0.1459893 SPIN=   0.00000
   O  -0.3072611  -0.3526428  -0.3930044 SPIN=   0.00000
   S  -0.3489810  -0.2045443  -0.2667483 SPIN=   0.00000
   O  -0.0672429   0.2275450   0.1469634 SPIN=   0.00000
   O  -0.2867941   0.2209070   0.3802105 SPIN=   0.00000
   O  -0.0418722  -0.0234825   0.3567424 SPIN=   0.00000
   O  -0.3254501  -0.0071217   0.1498350 SPIN=   0.00000
   S  -0.1803398   0.1044619   0.2584378 SPIN=   0.00000
   O   0.0672429   0.2275450  -0.1469634 SPIN=   0.00000
   O   0.2867941   0.2209070  -0.3802105 SPIN=   0.00000
   O   0.0418722  -0.0234825  -0.3567424 SPIN=   0.00000
   O   0.3254501  -0.0071217  -0.1498350 SPIN=   0.00000
   S   0.1803398   0.1044619  -0.2584378 SPIN=   0.00000
   F   0.3413192   0.3069399   0.2002206 SPIN=   0.00000
   F  -0.3413192   0.3069399  -0.2002206 SPIN=   0.00000
   F  -0.1339604  -0.3997282   0.2705633 SPIN=   0.00000
   F   0.1339604  -0.3997282  -0.2705633 SPIN=   0.00000
%ENDBLOCK POSITIONS_FRAC

# Note: total spin =  16.00

KPOINTS_MP_SPACING 0.07

%BLOCK SPECIES_POT
QC5
%ENDBLOCK SPECIES_POT

SNAP_TO_SYMMETRY
SYMMETRY_GENERATE

