#              Generated by Buildcell
#
# at 23:51:34 (GMT+1.0) 17th August 2020
# in /lustre/scratch/uccabz1/launch_tmp
# on node-c12f-006
# by uccabz1
#
# compiler GCC version 4.9.2
# options -cpp -iprefix /lustre/shared/ucl/apps/gcc/4.9.2/bin/../lib/gcc/x86_64-unknown-linux-gnu/4.9.2/ -mtune=corei7 -march=x86-64 -g -Og
#
# seed  -974452295  1496165443   864765395    23932607   252659686  1995226689  -765452302 -1164213253  -321202199 -1473307210 -1384768082  -106782233
#
#      Author: C. J. Pickard (cjp20@cam.ac.uk)
#                Space group: P-1
#

%BLOCK LATTICE_ABC
      3.96696      8.72834     11.71556
     96.86212     94.66277     94.19885
%ENDBLOCK LATTICE_ABC

%BLOCK POSITIONS_FRAC
  Li  -0.1309127   0.2917203  -0.2986370 SPIN=   0.00000
  Li   0.1309127  -0.2917203   0.2986370 SPIN=   0.00000
  Li  -0.2150376   0.1116755   0.3107689 SPIN=   0.00000
  Li   0.2150376  -0.1116755  -0.3107689 SPIN=   0.00000
  Fe  -0.3117294  -0.2127917   0.4914664 SPIN=   2.56813
  Fe   0.3117294   0.2127917  -0.4914664 SPIN=   2.56813
  Fe   0.2571478   0.1297901   0.1161161 SPIN=   5.43187
  Fe  -0.2571478  -0.1297901  -0.1161161 SPIN=   5.43187
   O   0.5932910  -0.2567663   0.1879656 SPIN=   0.00000
   O   0.1602588  -0.4588460   0.0903357 SPIN=   0.00000
   O   0.5555260  -0.3227782  -0.0243347 SPIN=   0.00000
   O   0.1052423  -0.1835128   0.0667537 SPIN=   0.00000
   S   0.3535795  -0.3054758   0.0801801 SPIN=   0.00000
   O  -0.5932910   0.2567663  -0.1879656 SPIN=   0.00000
   O  -0.1602588   0.4588460  -0.0903357 SPIN=   0.00000
   O  -0.5555260   0.3227782   0.0243347 SPIN=   0.00000
   O  -0.1052423   0.1835128  -0.0667537 SPIN=   0.00000
   S  -0.3535795   0.3054758  -0.0801801 SPIN=   0.00000
   O  -0.2550126   0.4421887   0.2026039 SPIN=   0.00000
   O  -0.5719344   0.2883936   0.3294672 SPIN=   0.00000
   O  -0.5178330   0.5745980   0.3674973 SPIN=   0.00000
   O  -0.0165071   0.4280665   0.4025812 SPIN=   0.00000
   S  -0.3403218   0.4333117   0.3255374 SPIN=   0.00000
   O   0.2550126  -0.4421887  -0.2026039 SPIN=   0.00000
   O   0.5719344  -0.2883936  -0.3294672 SPIN=   0.00000
   O   0.5178330  -0.5745980  -0.3674973 SPIN=   0.00000
   O   0.0165071  -0.4280665  -0.4025812 SPIN=   0.00000
   S   0.3403218  -0.4333117  -0.3255374 SPIN=   0.00000
   F   0.1872095  -0.1846716   0.4482115 SPIN=   0.00000
   F  -0.1872095   0.1846716  -0.4482115 SPIN=   0.00000
   F  -0.1658815   0.0725993   0.1553367 SPIN=   0.00000
   F   0.1658815  -0.0725993  -0.1553367 SPIN=   0.00000
%ENDBLOCK POSITIONS_FRAC

# Note: total spin =  16.00

KPOINTS_MP_SPACING 0.07

%BLOCK SPECIES_POT
QC5
%ENDBLOCK SPECIES_POT

SNAP_TO_SYMMETRY
SYMMETRY_GENERATE

