#              Generated by Buildcell
#
# at 07:53:51 (GMT+1.0) 4th August 2020
# in /lustre/scratch/uccabz1/launch_tmp
# on node-c12f-028
# by uccabz1
#
# compiler GCC version 4.9.2
# options -cpp -iprefix /lustre/shared/ucl/apps/gcc/4.9.2/bin/../lib/gcc/x86_64-unknown-linux-gnu/4.9.2/ -mtune=corei7 -march=x86-64 -g -Og
#
# seed  -109150080  1886366729  -991469448  -708719283   507644073 -2075026614   -25315187 -1685897464  -152684552  2117954888  1767808231   219347786
#
#      Author: C. J. Pickard (cjp20@cam.ac.uk)
#                Space group: P-1
#

%BLOCK LATTICE_ABC
      6.04244      8.34618      8.86904
     64.41367     83.98879     83.42714
%ENDBLOCK LATTICE_ABC

%BLOCK POSITIONS_FRAC
  Li   0.1760612  -0.1060284   0.3081849 SPIN=   0.00000
  Li  -0.1760612   0.1060284  -0.3081849 SPIN=   0.00000
  Li  -0.1479150  -0.3414434   0.1187143 SPIN=   0.00000
  Li   0.1479150   0.3414434  -0.1187143 SPIN=   0.00000
  Fe   0.2584621   0.4076295   0.1636861 SPIN=   4.36957
  Fe  -0.2584621  -0.4076295  -0.1636861 SPIN=   4.36957
  Fe  -0.2272111   0.1292072   0.3566437 SPIN=   3.63043
  Fe   0.2272111  -0.1292072  -0.3566437 SPIN=   3.63043
   O   0.1510609  -0.3144096   0.1533775 SPIN=   0.00000
   O   0.1104345  -0.0405334  -0.1101468 SPIN=   0.00000
   O   0.4641668  -0.2320081  -0.0626982 SPIN=   0.00000
   O   0.3595289  -0.0547895   0.1004756 SPIN=   0.00000
   S   0.2712978  -0.1604351   0.0202520 SPIN=   0.00000
   O  -0.1510609   0.3144096  -0.1533775 SPIN=   0.00000
   O  -0.1104345   0.0405334   0.1101468 SPIN=   0.00000
   O  -0.4641668   0.2320081   0.0626982 SPIN=   0.00000
   O  -0.3595289   0.0547895  -0.1004756 SPIN=   0.00000
   S  -0.2712978   0.1604351  -0.0202520 SPIN=   0.00000
   O  -0.5948741  -0.3630500   0.4588824 SPIN=   0.00000
   O  -0.1988459  -0.3784717   0.5158718 SPIN=   0.00000
   O  -0.4343898  -0.0953619   0.4416347 SPIN=   0.00000
   O  -0.3202339  -0.2088537   0.2271154 SPIN=   0.00000
   S  -0.3870859  -0.2614343   0.4108761 SPIN=   0.00000
   O   0.5948741   0.3630500  -0.4588824 SPIN=   0.00000
   O   0.1988459   0.3784717  -0.5158718 SPIN=   0.00000
   O   0.4343898   0.0953619  -0.4416347 SPIN=   0.00000
   O   0.3202339   0.2088537  -0.2271154 SPIN=   0.00000
   S   0.3870859   0.2614343  -0.4108761 SPIN=   0.00000
   F  -0.3133458   0.4633845   0.1811352 SPIN=   0.00000
   F   0.3133458  -0.4633845  -0.1811352 SPIN=   0.00000
   F  -0.1715207  -0.1193804  -0.3016257 SPIN=   0.00000
   F   0.1715207   0.1193804   0.3016257 SPIN=   0.00000
%ENDBLOCK POSITIONS_FRAC

# Note: total spin =  16.00

KPOINTS_MP_SPACING 0.07

%BLOCK SPECIES_POT
QC5
%ENDBLOCK SPECIES_POT

SNAP_TO_SYMMETRY
SYMMETRY_GENERATE

