#              Generated by Buildcell
#
# at 06:56:11 (GMT+1.0) 4th August 2020
# in /lustre/scratch/uccabz1/launch_tmp
# on node-c12k-001
# by uccabz1
#
# compiler GCC version 4.9.2
# options -cpp -iprefix /lustre/shared/ucl/apps/gcc/4.9.2/bin/../lib/gcc/x86_64-unknown-linux-gnu/4.9.2/ -mtune=corei7 -march=x86-64 -g -Og
#
# seed  1141262014  1902799402  1078551738 -1268258978  1374056754  1490366193  -777185851  2026133199 -1795590064  1155802253  1026141093   888006486
#
#      Author: C. J. Pickard (cjp20@cam.ac.uk)
#                Space group: P21
#

%BLOCK LATTICE_ABC
      6.89369      7.80377      7.88835
     90.00000     90.00000    109.51054
%ENDBLOCK LATTICE_ABC

%BLOCK POSITIONS_FRAC
  Li   0.4386510   0.1873388   0.0762482 SPIN=   0.00000
  Li  -0.4386510  -0.1873388  -0.4237518 SPIN=   0.00000
  Li   0.2588055   0.1518883  -0.3930203 SPIN=   0.00000
  Li  -0.2588055  -0.1518883   0.1069797 SPIN=   0.00000
  Fe  -0.4374981  -0.4688095  -0.1256694 SPIN=   3.03268
  Fe   0.4374981   0.4688095   0.3743306 SPIN=   3.03268
  Fe   0.0011887  -0.4694862   0.1459461 SPIN=   4.96732
  Fe  -0.0011887   0.4694862  -0.3540539 SPIN=   4.96732
   O  -0.1998695   0.1432144   0.1589624 SPIN=   0.00000
   O  -0.1427029   0.2342117   0.4603523 SPIN=   0.00000
   O  -0.4486652  -0.0251679   0.3771421 SPIN=   0.00000
   O  -0.4254302   0.2885527   0.3002834 SPIN=   0.00000
   S  -0.3041669   0.1602027   0.3241851 SPIN=   0.00000
   O   0.1998695  -0.1432144  -0.3410376 SPIN=   0.00000
   O   0.1427029  -0.2342117  -0.0396477 SPIN=   0.00000
   O   0.4486652   0.0251679  -0.1228579 SPIN=   0.00000
   O   0.4254302  -0.2885527  -0.1997166 SPIN=   0.00000
   S   0.3041669  -0.1602027  -0.1758149 SPIN=   0.00000
   O   0.0409582   0.0091697   0.0822700 SPIN=   0.00000
   O  -0.0594783  -0.1693816   0.3466238 SPIN=   0.00000
   O   0.2182300   0.1295325   0.3516674 SPIN=   0.00000
   O   0.2762944  -0.1333133   0.2122799 SPIN=   0.00000
   S   0.1190011  -0.0409982   0.2482103 SPIN=   0.00000
   O  -0.0409582  -0.0091697  -0.4177300 SPIN=   0.00000
   O   0.0594783   0.1693816  -0.1533762 SPIN=   0.00000
   O  -0.2182300  -0.1295325  -0.1483326 SPIN=   0.00000
   O  -0.2762944   0.1333133  -0.2877201 SPIN=   0.00000
   S  -0.1190011   0.0409982  -0.2517897 SPIN=   0.00000
   F  -0.3150096  -0.4173975  -0.4575352 SPIN=   0.00000
   F   0.3150096   0.4173975   0.0424648 SPIN=   0.00000
   F  -0.1744535   0.4596936  -0.0591566 SPIN=   0.00000
   F   0.1744535  -0.4596936   0.4408434 SPIN=   0.00000
%ENDBLOCK POSITIONS_FRAC

# Note: total spin =  16.00

KPOINTS_MP_SPACING 0.07

%BLOCK SPECIES_POT
QC5
%ENDBLOCK SPECIES_POT

SNAP_TO_SYMMETRY
SYMMETRY_GENERATE

