#              Generated by Buildcell
#
# at 10:19:02 (GMT+1.0) 4th August 2020
# in /lustre/scratch/uccabz1/launch_tmp
# on node-c12c-022
# by uccabz1
#
# compiler GCC version 4.9.2
# options -cpp -iprefix /lustre/shared/ucl/apps/gcc/4.9.2/bin/../lib/gcc/x86_64-unknown-linux-gnu/4.9.2/ -mtune=corei7 -march=x86-64 -g -Og
#
# seed   669996918   645320334   556051921 -2026535776   494047118  -158709662   -65170636  1136194236 -2074970070   189303724   926111565  1103366980
#
#      Author: C. J. Pickard (cjp20@cam.ac.uk)
#                Space group: P2221
#

%BLOCK LATTICE_ABC
      4.27515      7.08683     13.20251
     90.00000     90.00000     90.00000
%ENDBLOCK LATTICE_ABC

%BLOCK POSITIONS_FRAC
  Li   0.2510276  -0.3636569   0.3736255 SPIN=   0.00000
  Li  -0.2510276   0.3636569  -0.1263745 SPIN=   0.00000
  Li  -0.2510276  -0.3636569   0.1263745 SPIN=   0.00000
  Li   0.2510276   0.3636569  -0.3736255 SPIN=   0.00000
  Fe  -0.2496346   0.0922456  -0.3667972 SPIN=   4.00000
  Fe   0.2496346  -0.0922456   0.1332028 SPIN=   4.00000
  Fe   0.2496346   0.0922456  -0.1332028 SPIN=   4.00000
  Fe  -0.2496346  -0.0922456   0.3667972 SPIN=   4.00000
   O  -0.2932528   0.2125251   0.3028742 SPIN=   0.00000
   O  -0.4089086   0.3497772   0.4711265 SPIN=   0.00000
   O  -0.3286996   0.5590069   0.3233051 SPIN=   0.00000
   O   0.1190374   0.3846956   0.3965475 SPIN=   0.00000
   S  -0.2279559   0.3765012   0.3734633 SPIN=   0.00000
   O   0.2932528  -0.2125251  -0.1971258 SPIN=   0.00000
   O   0.4089086  -0.3497772  -0.0288735 SPIN=   0.00000
   O   0.3286996  -0.5590069  -0.1766949 SPIN=   0.00000
   O  -0.1190374  -0.3846956  -0.1034525 SPIN=   0.00000
   S   0.2279559  -0.3765012  -0.1265367 SPIN=   0.00000
   O   0.2932528   0.2125251   0.1971258 SPIN=   0.00000
   O   0.4089086   0.3497772   0.0288735 SPIN=   0.00000
   O   0.3286996   0.5590069   0.1766949 SPIN=   0.00000
   O  -0.1190374   0.3846956   0.1034525 SPIN=   0.00000
   S   0.2279559   0.3765012   0.1265367 SPIN=   0.00000
   O  -0.2932528  -0.2125251  -0.3028742 SPIN=   0.00000
   O  -0.4089086  -0.3497772  -0.4711265 SPIN=   0.00000
   O  -0.3286996  -0.5590069  -0.3233051 SPIN=   0.00000
   O   0.1190374  -0.3846956  -0.3965475 SPIN=   0.00000
   S  -0.2279559  -0.3765012  -0.3734633 SPIN=   0.00000
   F   0.2503020  -0.0762571   0.3655478 SPIN=   0.00000
   F  -0.2503020   0.0762571  -0.1344522 SPIN=   0.00000
   F  -0.2503020  -0.0762571   0.1344522 SPIN=   0.00000
   F   0.2503020   0.0762571  -0.3655478 SPIN=   0.00000
%ENDBLOCK POSITIONS_FRAC

# Note: total spin =  16.00

KPOINTS_MP_SPACING 0.07

%BLOCK SPECIES_POT
QC5
%ENDBLOCK SPECIES_POT

SNAP_TO_SYMMETRY
SYMMETRY_GENERATE

