#              Generated by Buildcell
#
# at 05:35:05 (GMT+1.0) 18th August 2020
# in /scratch/scratch/uccabz1/launch_tmp
# on node-k10c-005
# by uccabz1
#
# compiler GCC version 4.9.2
# options -cpp -iprefix /scratch/UCL/applications/gcc/4.9.2/bin/../lib/gcc/x86_64-unknown-linux-gnu/4.9.2/ -mtune=corei7 -march=x86-64 -g -O2
#
# seed  1427811459   108682974   575687530  1375446836   212076417  -909958496 -1471411743  2132140787  1857120546  -831040740  -382336974  -255065137
#
#      Author: C. J. Pickard (cjp20@cam.ac.uk)
#                Space group: P-1
#

%BLOCK LATTICE_ABC
      6.58317      7.47716      8.91488
     90.63777    109.95698    103.02245
%ENDBLOCK LATTICE_ABC

%BLOCK POSITIONS_FRAC
  Li  -0.4862673   0.1731244  -0.3600370 SPIN=   0.00000
  Li   0.4862673  -0.1731244   0.3600370 SPIN=   0.00000
  Li  -0.2854215  -0.3478734  -0.2711472 SPIN=   0.00000
  Li   0.2854215   0.3478734   0.2711472 SPIN=   0.00000
  Fe  -0.1322795   0.2465665  -0.0262523 SPIN=   3.25941
  Fe   0.1322795  -0.2465665   0.0262523 SPIN=   3.25941
  Fe   0.2279573   0.4312085  -0.3364236 SPIN=   4.74059
  Fe  -0.2279573  -0.4312085   0.3364236 SPIN=   4.74059
   O  -0.0396339   0.2016108  -0.3355776 SPIN=   0.00000
   O   0.0464852  -0.0815139  -0.2155589 SPIN=   0.00000
   O  -0.1836728  -0.0974826  -0.5026517 SPIN=   0.00000
   O  -0.3370082  -0.0389693  -0.2942046 SPIN=   0.00000
   S  -0.1284574  -0.0040887  -0.3369982 SPIN=   0.00000
   O   0.0396339  -0.2016108   0.3355776 SPIN=   0.00000
   O  -0.0464852   0.0815139   0.2155589 SPIN=   0.00000
   O   0.1836728   0.0974826   0.5026517 SPIN=   0.00000
   O   0.3370082   0.0389693   0.2942046 SPIN=   0.00000
   S   0.1284574   0.0040887   0.3369982 SPIN=   0.00000
   O  -0.1561938  -0.1312818  -0.0361768 SPIN=   0.00000
   O  -0.4690382  -0.4098209  -0.1088262 SPIN=   0.00000
   O  -0.5445410  -0.0997268  -0.1185694 SPIN=   0.00000
   O  -0.3719834  -0.2136293   0.1429906 SPIN=   0.00000
   S  -0.3854391  -0.2136147  -0.0301455 SPIN=   0.00000
   O   0.1561938   0.1312818   0.0361768 SPIN=   0.00000
   O   0.4690382   0.4098209   0.1088262 SPIN=   0.00000
   O   0.5445410   0.0997268   0.1185694 SPIN=   0.00000
   O   0.3719834   0.2136293  -0.1429906 SPIN=   0.00000
   S   0.3854391   0.2136147   0.0301455 SPIN=   0.00000
   F   0.3641884  -0.3399670  -0.4433010 SPIN=   0.00000
   F  -0.3641884   0.3399670   0.4433010 SPIN=   0.00000
   F   0.0450402  -0.4292141  -0.1815369 SPIN=   0.00000
   F  -0.0450402   0.4292141   0.1815369 SPIN=   0.00000
%ENDBLOCK POSITIONS_FRAC

# Note: total spin =  16.00

KPOINTS_MP_SPACING 0.07

%BLOCK SPECIES_POT
QC5
%ENDBLOCK SPECIES_POT

SNAP_TO_SYMMETRY
SYMMETRY_GENERATE

