#              Generated by Buildcell
#
# at 07:33:33 (GMT+1.0) 18th August 2020
# in /lustre/scratch/uccabz1/launch_tmp
# on node-c12m-003
# by uccabz1
#
# compiler GCC version 4.9.2
# options -cpp -iprefix /lustre/shared/ucl/apps/gcc/4.9.2/bin/../lib/gcc/x86_64-unknown-linux-gnu/4.9.2/ -mtune=corei7 -march=x86-64 -g -Og
#
# seed  1418920408  -914820432 -2001062461  2030912529 -1088378894  -734684070  -912424554  -867090677 -1400796028  1225350913   948415139    -8968669
#
#      Author: C. J. Pickard (cjp20@cam.ac.uk)
#                Space group: Iba2
#

%BLOCK LATTICE_ABC
      6.37404      8.65193      8.65193
     69.75799     68.38552     68.38552
%ENDBLOCK LATTICE_ABC

%BLOCK POSITIONS_FRAC
  Li  -0.3388205   0.3430804  -0.1818911 SPIN=   0.00000
  Li   0.3388205   0.1818911  -0.3430804 SPIN=   0.00000
  Li  -0.1776312  -0.3181089   0.1569196 SPIN=   0.00000
  Li   0.1776312  -0.1569196   0.3181089 SPIN=   0.00000
  Fe   0.3213788  -0.2796234  -0.3695772 SPIN=   4.00000
  Fe  -0.3213788   0.3695772   0.2796234 SPIN=   4.00000
  Fe  -0.3278218  -0.1304228  -0.2203766 SPIN=   4.00000
  Fe   0.3278218   0.2203766   0.1304228 SPIN=   4.00000
   O  -0.5291117  -0.0758044   0.3311858 SPIN=   0.00000
   O  -0.2629972   0.1080776   0.2336623 SPIN=   0.00000
   O  -0.1280654  -0.2008680   0.3676435 SPIN=   0.00000
   O  -0.4285266  -0.0043912   0.5438293 SPIN=   0.00000
   S  -0.3371752  -0.0432465   0.3690802 SPIN=   0.00000
   O   0.5291117  -0.3311858   0.0758044 SPIN=   0.00000
   O   0.2629972  -0.2336623  -0.1080776 SPIN=   0.00000
   O   0.1280654  -0.3676435   0.2008680 SPIN=   0.00000
   O   0.4285266  -0.5438293   0.0043912 SPIN=   0.00000
   S   0.3371752  -0.3690802   0.0432465 SPIN=   0.00000
   O  -0.2737302   0.1688142  -0.4241956 SPIN=   0.00000
   O   0.0787427   0.2663377  -0.6080776 SPIN=   0.00000
   O   0.0387100   0.1323565  -0.2991320 SPIN=   0.00000
   O   0.1109115  -0.0438293  -0.4956088 SPIN=   0.00000
   S  -0.0113415   0.1309198  -0.4567535 SPIN=   0.00000
   O   0.2737302   0.4241956  -0.1688142 SPIN=   0.00000
   O  -0.0787427   0.6080776  -0.2663377 SPIN=   0.00000
   O  -0.0387100   0.2991320  -0.1323565 SPIN=   0.00000
   O  -0.1109115   0.4956088   0.0438293 SPIN=   0.00000
   S   0.0113415   0.4567535  -0.1309198 SPIN=   0.00000
   F  -0.3783515  -0.4282524  -0.3613151 SPIN=   0.00000
   F   0.3783515   0.3613151   0.4282524 SPIN=   0.00000
   F  -0.1679189  -0.1386849  -0.0717476 SPIN=   0.00000
   F   0.1679189   0.0717476   0.1386849 SPIN=   0.00000
%ENDBLOCK POSITIONS_FRAC

# Note: total spin =  16.00

KPOINTS_MP_SPACING 0.07

%BLOCK SPECIES_POT
QC5
%ENDBLOCK SPECIES_POT

SNAP_TO_SYMMETRY
SYMMETRY_GENERATE

