#              Generated by Buildcell
#
# at 09:00:46 (GMT+1.0) 4th August 2020
# in /lustre/scratch/uccabz1/launch_tmp
# on node-c12i-036
# by uccabz1
#
# compiler GCC version 4.9.2
# options -cpp -iprefix /lustre/shared/ucl/apps/gcc/4.9.2/bin/../lib/gcc/x86_64-unknown-linux-gnu/4.9.2/ -mtune=corei7 -march=x86-64 -g -Og
#
# seed   572608682   778683689 -1267612365   708657398  -711011673   265604345  -323139335  -410686008 -1886149073 -1063145474   365313318  -770422583
#
#      Author: C. J. Pickard (cjp20@cam.ac.uk)
#                Space group: P-1
#

%BLOCK LATTICE_ABC
      4.60766      8.31125     10.65659
     89.70947     81.08259     82.86270
%ENDBLOCK LATTICE_ABC

%BLOCK POSITIONS_FRAC
  Li  -0.2167668  -0.4952783   0.2110402 SPIN=   0.00000
  Li   0.2167668   0.4952783  -0.2110402 SPIN=   0.00000
  Li   0.3467717   0.0481089   0.3578617 SPIN=   0.00000
  Li  -0.3467717  -0.0481089  -0.3578617 SPIN=   0.00000
  Fe   0.0671355   0.2023935  -0.3872869 SPIN=   3.20482
  Fe  -0.0671355  -0.2023935   0.3872869 SPIN=   3.20482
  Fe   0.0063680  -0.1562149  -0.1552774 SPIN=   4.79518
  Fe  -0.0063680   0.1562149   0.1552774 SPIN=   4.79518
   O  -0.3267702  -0.1609390  -0.0047937 SPIN=   0.00000
   O  -0.2369050  -0.2573362   0.2075796 SPIN=   0.00000
   O  -0.7494619  -0.1785072   0.1668868 SPIN=   0.00000
   O  -0.4168481   0.0313407   0.1777079 SPIN=   0.00000
   S  -0.4324963  -0.1413604   0.1368452 SPIN=   0.00000
   O   0.3267702   0.1609390   0.0047937 SPIN=   0.00000
   O   0.2369050   0.2573362  -0.2075796 SPIN=   0.00000
   O   0.7494619   0.1785072  -0.1668868 SPIN=   0.00000
   O   0.4168481  -0.0313407  -0.1777079 SPIN=   0.00000
   S   0.4324963   0.1413604  -0.1368452 SPIN=   0.00000
   O   0.2632582   0.4762599   0.4768726 SPIN=   0.00000
   O  -0.0485431   0.3634086   0.3384669 SPIN=   0.00000
   O   0.4844920   0.2608375   0.3188625 SPIN=   0.00000
   O   0.3276959   0.5373961   0.2474213 SPIN=   0.00000
   S   0.2567258   0.4094755   0.3454058 SPIN=   0.00000
   O  -0.2632582  -0.4762599  -0.4768726 SPIN=   0.00000
   O   0.0485431  -0.3634086  -0.3384669 SPIN=   0.00000
   O  -0.4844920  -0.2608375  -0.3188625 SPIN=   0.00000
   O  -0.3276959  -0.5373961  -0.2474213 SPIN=   0.00000
   S  -0.2567258  -0.4094755  -0.3454058 SPIN=   0.00000
   F  -0.2367171   0.3309233   0.0763603 SPIN=   0.00000
   F   0.2367171  -0.3309233  -0.0763603 SPIN=   0.00000
   F   0.3059308  -0.1910925   0.4515313 SPIN=   0.00000
   F  -0.3059308   0.1910925  -0.4515313 SPIN=   0.00000
%ENDBLOCK POSITIONS_FRAC

# Note: total spin =  16.00

KPOINTS_MP_SPACING 0.07

%BLOCK SPECIES_POT
QC5
%ENDBLOCK SPECIES_POT

SNAP_TO_SYMMETRY
SYMMETRY_GENERATE

