#              Generated by Buildcell
#
# at 02:33:37 (GMT+1.0) 18th August 2020
# in /lustre/scratch/uccabz1/launch_tmp
# on node-c12j-026
# by uccabz1
#
# compiler GCC version 4.9.2
# options -cpp -iprefix /lustre/shared/ucl/apps/gcc/4.9.2/bin/../lib/gcc/x86_64-unknown-linux-gnu/4.9.2/ -mtune=corei7 -march=x86-64 -g -Og
#
# seed  -314715567   771679790 -1509987757  -413633723 -1417700687  1337426677 -1683874499  1600601395   974848638  1550371316    27925037   398437634
#
#      Author: C. J. Pickard (cjp20@cam.ac.uk)
#                Space group: P2/m
#

%BLOCK LATTICE_ABC
      6.58860      7.41060      8.19300
     90.00000     90.00000     90.66801
%ENDBLOCK LATTICE_ABC

%BLOCK POSITIONS_FRAC
  Li   0.0826674   0.2511086   0.0000000 SPIN=   0.00000
  Li  -0.0826674  -0.2511086  -0.0000000 SPIN=   0.00000
  Li   0.5000000   0.5000000  -0.5000000 SPIN=   0.00000
  Li   0.0000000  -0.0000000   0.5000000 SPIN=   0.00000
  Fe  -0.5000000   0.0000000   0.5000000 SPIN=   5.70224
  Fe   0.5000000   0.5000000   0.0000000 SPIN=   2.38093
  Fe  -0.5000000   0.0000000   0.0000000 SPIN=   2.38688
  Fe   0.0000000   0.5000000  -0.5000000 SPIN=   5.52995
   O   0.2481069  -0.0585255   0.3534479 SPIN=   0.00000
   O  -0.0068752  -0.3011277   0.3076280 SPIN=   0.00000
   O   0.3507824  -0.3464851   0.2266071 SPIN=   0.00000
   S   0.1822474  -0.2098370   0.2400875 SPIN=   0.00000
   O  -0.2481069   0.0585255   0.3534479 SPIN=   0.00000
   O   0.0068752   0.3011277   0.3076280 SPIN=   0.00000
   O  -0.3507824   0.3464851   0.2266071 SPIN=   0.00000
   S  -0.1822474   0.2098370   0.2400875 SPIN=   0.00000
   O  -0.2481069   0.0585255  -0.3534479 SPIN=   0.00000
   O   0.0068752   0.3011277  -0.3076280 SPIN=   0.00000
   O  -0.3507824   0.3464851  -0.2266071 SPIN=   0.00000
   S  -0.1822474   0.2098370  -0.2400875 SPIN=   0.00000
   O   0.2481069  -0.0585255  -0.3534479 SPIN=   0.00000
   O  -0.0068752  -0.3011277  -0.3076280 SPIN=   0.00000
   O   0.3507824  -0.3464851  -0.2266071 SPIN=   0.00000
   S   0.1822474  -0.2098370  -0.2400875 SPIN=   0.00000
   O   0.1734470  -0.4615706   0.0000000 SPIN=   0.00000
   O  -0.1734470   0.4615706  -0.0000000 SPIN=   0.00000
   O  -0.2520765   0.3301713   0.5000000 SPIN=   0.00000
   O   0.2520765  -0.3301713   0.5000000 SPIN=   0.00000
   F  -0.3458730  -0.2602982  -0.5000000 SPIN=   0.00000
   F   0.3458730   0.2602982   0.5000000 SPIN=   0.00000
   F  -0.3871111  -0.2413054   0.0000000 SPIN=   0.00000
   F   0.3871111   0.2413054  -0.0000000 SPIN=   0.00000
%ENDBLOCK POSITIONS_FRAC

# Note: total spin =  16.00

KPOINTS_MP_SPACING 0.07

%BLOCK SPECIES_POT
QC5
%ENDBLOCK SPECIES_POT

SNAP_TO_SYMMETRY
SYMMETRY_GENERATE

