#              Generated by Buildcell
#
# at 11:16:08 (GMT+1.0) 18th August 2020
# in /scratch/scratch/uccabz1/launch_tmp
# on node-k10i-017
# by uccabz1
#
# compiler GCC version 4.9.2
# options -cpp -iprefix /scratch/UCL/applications/gcc/4.9.2/bin/../lib/gcc/x86_64-unknown-linux-gnu/4.9.2/ -mtune=corei7 -march=x86-64 -g -O2
#
# seed  -305200579 -1717971286 -1342640830  -500759977   594764732  2086313056  1410012321  1059090265  -825488316  1329900647  -587583360  2140416365
#
#      Author: C. J. Pickard (cjp20@cam.ac.uk)
#                Space group: Pm
#

%BLOCK LATTICE_ABC
      6.72862      6.88216      8.77418
     90.00000     90.00000    100.11026
%ENDBLOCK LATTICE_ABC

%BLOCK POSITIONS_FRAC
  Li   0.0079237  -0.3354322  -0.0000000 SPIN=   0.00000
  Li   0.0967991   0.4139457   0.5000000 SPIN=   0.00000
  Li  -0.1710459  -0.1781152   0.5000000 SPIN=   0.00000
  Li  -0.4388910   0.2298240   0.5000000 SPIN=   0.00000
  Fe   0.4425972  -0.3112657  -0.2949333 SPIN=   2.64705
  Fe   0.4425972  -0.3112657   0.2949333 SPIN=   2.64705
  Fe  -0.3209355   0.0180506   0.0000000 SPIN=   8.71366
  Fe   0.2936367   0.3246488  -0.0000000 SPIN=   1.99224
   O  -0.1552431   0.4568351   0.3772267 SPIN=   0.00000
   O  -0.4164630   0.2937978   0.1981408 SPIN=   0.00000
   O  -0.0556971   0.3430603   0.1254798 SPIN=   0.00000
   O  -0.2310913   0.6297191   0.1426657 SPIN=   0.00000
   S  -0.2146237   0.4308531   0.2108782 SPIN=   0.00000
   O  -0.1552431   0.4568351  -0.3772267 SPIN=   0.00000
   O  -0.4164630   0.2937978  -0.1981408 SPIN=   0.00000
   O  -0.0556971   0.3430603  -0.1254798 SPIN=   0.00000
   O  -0.2310913   0.6297191  -0.1426657 SPIN=   0.00000
   S  -0.2146237   0.4308531  -0.2108782 SPIN=   0.00000
   O  -0.0771796  -0.0129006   0.1250878 SPIN=   0.00000
   O   0.2958461   0.0416915   0.1390860 SPIN=   0.00000
   O   0.0946176  -0.2671975   0.2399444 SPIN=   0.00000
   O   0.0943937   0.0489124   0.3743608 SPIN=   0.00000
   S   0.1019194  -0.0473735   0.2196198 SPIN=   0.00000
   O  -0.0771796  -0.0129006  -0.1250878 SPIN=   0.00000
   O   0.2958461   0.0416915  -0.1390860 SPIN=   0.00000
   O   0.0946176  -0.2671975  -0.2399444 SPIN=   0.00000
   O   0.0943937   0.0489124  -0.3743608 SPIN=   0.00000
   S   0.1019194  -0.0473735  -0.2196198 SPIN=   0.00000
   F  -0.3983610  -0.0541861   0.2827154 SPIN=   0.00000
   F  -0.3983610  -0.0541861  -0.2827154 SPIN=   0.00000
   F   0.2799474   0.4373011  -0.2822876 SPIN=   0.00000
   F   0.2799474   0.4373011   0.2822876 SPIN=   0.00000
%ENDBLOCK POSITIONS_FRAC

# Note: total spin =  16.00

KPOINTS_MP_SPACING 0.07

%BLOCK SPECIES_POT
QC5
%ENDBLOCK SPECIES_POT

SNAP_TO_SYMMETRY
SYMMETRY_GENERATE

