#              Generated by Buildcell
#
# at 08:48:57 (GMT+1.0) 18th August 2020
# in /lustre/scratch/uccabz1/launch_tmp
# on node-c12n-023
# by uccabz1
#
# compiler GCC version 4.9.2
# options -cpp -iprefix /lustre/shared/ucl/apps/gcc/4.9.2/bin/../lib/gcc/x86_64-unknown-linux-gnu/4.9.2/ -mtune=corei7 -march=x86-64 -g -Og
#
# seed   256028020  1561769891  -531463866  -316816286   348084925 -1017612437 -1478964518   795074800  1166047694  -121612494   954797581 -1997797599
#
#      Author: C. J. Pickard (cjp20@cam.ac.uk)
#                Space group: Cc
#

%BLOCK LATTICE_ABC
      5.28732      7.10287     11.57264
     96.89364     90.00000    111.85114
%ENDBLOCK LATTICE_ABC

%BLOCK POSITIONS_FRAC
  Li   0.3555184  -0.2717260   0.3985888 SPIN=   0.00000
  Li   0.3727555  -0.2717260  -0.1014112 SPIN=   0.00000
  Li  -0.0206929  -0.0502047   0.1121329 SPIN=   0.00000
  Li  -0.0295118  -0.0502047  -0.3878671 SPIN=   0.00000
  Fe   0.1185604   0.1496222  -0.1442038 SPIN=   5.70296
  Fe   0.0310617   0.1496222   0.3557962 SPIN=   5.70296
  Fe  -0.1584898  -0.4168867  -0.2345824 SPIN=   2.29704
  Fe  -0.2583969  -0.4168867   0.2654176 SPIN=   2.29704
   O  -0.1114702   0.3237632   0.5397903 SPIN=   0.00000
   O  -0.4124151   0.2923397   0.3688443 SPIN=   0.00000
   O  -0.3451592   0.5665400   0.5330045 SPIN=   0.00000
   O  -0.6112673   0.2058010   0.5581520 SPIN=   0.00000
   S  -0.3700779   0.3471110   0.4999478 SPIN=   0.00000
   O  -0.5647666   0.3237632   0.0397903 SPIN=   0.00000
   O  -0.2952452   0.2923397  -0.1311557 SPIN=   0.00000
   O  -0.0883008   0.5665400   0.0330045 SPIN=   0.00000
   O  -0.1829317   0.2058010   0.0581520 SPIN=   0.00000
   S  -0.2828111   0.3471110  -0.0000522 SPIN=   0.00000
   O   0.7312391  -0.0082937   0.2359703 SPIN=   0.00000
   O   0.3909583  -0.3378031   0.1434539 SPIN=   0.00000
   O   0.4019887  -0.0125197   0.0827233 SPIN=   0.00000
   O   0.2430065  -0.1034229   0.2770413 SPIN=   0.00000
   S   0.4417981  -0.1155099   0.1847972 SPIN=   0.00000
   O   0.2604672  -0.0082937  -0.2640297 SPIN=   0.00000
   O   0.2712386  -0.3378031  -0.3565461 SPIN=   0.00000
   O   0.5854916  -0.0125197  -0.4172767 SPIN=   0.00000
   O   0.6535706  -0.1034229  -0.2229587 SPIN=   0.00000
   S   0.4426920  -0.1155099  -0.3152028 SPIN=   0.00000
   F   0.1233470   0.3288736  -0.2671190 SPIN=   0.00000
   F   0.2055266   0.3288736   0.2328810 SPIN=   0.00000
   F  -0.0329944  -0.0916782  -0.0527425 SPIN=   0.00000
   F  -0.0586838  -0.0916782   0.4472575 SPIN=   0.00000
%ENDBLOCK POSITIONS_FRAC

# Note: total spin =  16.00

KPOINTS_MP_SPACING 0.07

%BLOCK SPECIES_POT
QC5
%ENDBLOCK SPECIES_POT

SNAP_TO_SYMMETRY
SYMMETRY_GENERATE

