#              Generated by Buildcell
#
# at 06:03:58 (GMT+1.0) 4th August 2020
# in /lustre/scratch/uccabz1/launch_tmp
# on node-c12f-009
# by uccabz1
#
# compiler GCC version 4.9.2
# options -cpp -iprefix /lustre/shared/ucl/apps/gcc/4.9.2/bin/../lib/gcc/x86_64-unknown-linux-gnu/4.9.2/ -mtune=corei7 -march=x86-64 -g -Og
#
# seed  1415882973  1828022885 -1876908085  1708625752 -1139427337   -75645674   162463250   275859659  1832764215 -1221430494  2138335787  2139859322
#
#      Author: C. J. Pickard (cjp20@cam.ac.uk)
#                Space group: Pc
#

%BLOCK LATTICE_ABC
      5.47399      6.20737     11.94759
     90.00000     90.00000     99.83632
%ENDBLOCK LATTICE_ABC

%BLOCK POSITIONS_FRAC
  Li   0.0782757  -0.0396379   0.1168706 SPIN=   0.00000
  Li  -0.4217243  -0.0396379  -0.1168706 SPIN=   0.00000
  Li   0.4740351  -0.0120377   0.3901702 SPIN=   0.00000
  Li  -0.0259649  -0.0120377  -0.3901702 SPIN=   0.00000
  Fe  -0.2795302   0.4710891  -0.3915094 SPIN=   4.88294
  Fe   0.2204698   0.4710891   0.3915094 SPIN=   4.88294
  Fe   0.1871384   0.2993426  -0.1931191 SPIN=   3.11706
  Fe  -0.3128616   0.2993426   0.1931191 SPIN=   3.11706
   O   0.4713861  -0.2792589  -0.0055867 SPIN=   0.00000
   O   0.7448082  -0.2670900   0.1600817 SPIN=   0.00000
   O   0.2910642  -0.3788322   0.1811405 SPIN=   0.00000
   O   0.4679707   0.0064683   0.1385995 SPIN=   0.00000
   S   0.4938073  -0.2296782   0.1185587 SPIN=   0.00000
   O  -0.0286139  -0.2792589   0.0055867 SPIN=   0.00000
   O   0.2448082  -0.2670900  -0.1600817 SPIN=   0.00000
   O  -0.2089358  -0.3788322  -0.1811405 SPIN=   0.00000
   O  -0.0320293   0.0064683  -0.1385995 SPIN=   0.00000
   S  -0.0061927  -0.2296782  -0.1185587 SPIN=   0.00000
   O   0.0857765  -0.2001480   0.4662469 SPIN=   0.00000
   O   0.1392302  -0.0146102   0.2823356 SPIN=   0.00000
   O  -0.0775612   0.1431808   0.4357632 SPIN=   0.00000
   O  -0.2769697  -0.1982315   0.3428397 SPIN=   0.00000
   S  -0.0323811  -0.0674522   0.3817964 SPIN=   0.00000
   O   0.5857765  -0.2001480  -0.4662469 SPIN=   0.00000
   O   0.6392302  -0.0146102  -0.2823356 SPIN=   0.00000
   O   0.4224388   0.1431808  -0.4357632 SPIN=   0.00000
   O   0.2230303  -0.1982315  -0.3428397 SPIN=   0.00000
   S   0.4676189  -0.0674522  -0.3817964 SPIN=   0.00000
   F  -0.4842597   0.2547811  -0.1122341 SPIN=   0.00000
   F   0.0157403   0.2547811   0.1122341 SPIN=   0.00000
   F  -0.4313806   0.3720612   0.3874135 SPIN=   0.00000
   F   0.0686194   0.3720612  -0.3874135 SPIN=   0.00000
%ENDBLOCK POSITIONS_FRAC

# Note: total spin =  16.00

KPOINTS_MP_SPACING 0.07

%BLOCK SPECIES_POT
QC5
%ENDBLOCK SPECIES_POT

SNAP_TO_SYMMETRY
SYMMETRY_GENERATE

