#              Generated by Buildcell
#
# at 23:29:10 (GMT+1.0) 17th August 2020
# in /lustre/scratch/uccabz1/launch_tmp
# on node-c12g-023
# by uccabz1
#
# compiler GCC version 4.9.2
# options -cpp -iprefix /lustre/shared/ucl/apps/gcc/4.9.2/bin/../lib/gcc/x86_64-unknown-linux-gnu/4.9.2/ -mtune=corei7 -march=x86-64 -g -Og
#
# seed  -232194909  1584146468 -1952323833 -1642281551 -1005126530  -426082163  1779080340 -1459027941  2041906315   823359124 -1364735886   289607862
#
#      Author: C. J. Pickard (cjp20@cam.ac.uk)
#                Space group: C2/c
#

%BLOCK LATTICE_ABC
      7.40306      7.40306      7.48785
     81.17778     81.17778     85.29395
%ENDBLOCK LATTICE_ABC

%BLOCK POSITIONS_FRAC
  Li   0.3922026   0.2833683  -0.3864229 SPIN=   0.00000
  Li  -0.2833683  -0.3922026  -0.1135771 SPIN=   0.00000
  Li  -0.3922026  -0.2833683   0.3864229 SPIN=   0.00000
  Li   0.2833683   0.3922026   0.1135771 SPIN=   0.00000
  Fe  -0.2251515  -0.0662086  -0.3905398 SPIN=   4.00000
  Fe   0.0662086   0.2251515  -0.1094602 SPIN=   4.00000
  Fe   0.2251515   0.0662086   0.3905398 SPIN=   4.00000
  Fe  -0.0662086  -0.2251515   0.1094602 SPIN=   4.00000
   O  -0.4183066   0.2373495  -0.6006367 SPIN=   0.00000
   O  -0.3810952   0.4744438  -0.4114570 SPIN=   0.00000
   O  -0.1236960   0.2510265  -0.4868902 SPIN=   0.00000
   O  -0.3967978   0.1496960  -0.2717287 SPIN=   0.00000
   O  -0.2373495   0.4183066   0.1006367 SPIN=   0.00000
   O  -0.4744438   0.3810952  -0.0885430 SPIN=   0.00000
   O  -0.2510265   0.1236960  -0.0131098 SPIN=   0.00000
   O  -0.1496960   0.3967978  -0.2282713 SPIN=   0.00000
   O   0.4183066  -0.2373495   0.6006367 SPIN=   0.00000
   O   0.3810952  -0.4744438   0.4114570 SPIN=   0.00000
   O   0.1236960  -0.2510265   0.4868902 SPIN=   0.00000
   O   0.3967978  -0.1496960   0.2717287 SPIN=   0.00000
   O   0.2373495  -0.4183066  -0.1006367 SPIN=   0.00000
   O   0.4744438  -0.3810952   0.0885430 SPIN=   0.00000
   O   0.2510265  -0.1236960   0.0131098 SPIN=   0.00000
   O   0.1496960  -0.3967978   0.2282713 SPIN=   0.00000
   S  -0.3941959   0.3941959   0.2500000 SPIN=   0.00000
   S   0.3941959  -0.3941959  -0.2500000 SPIN=   0.00000
   S   0.5000000  -0.0000000  -0.0000000 SPIN=   0.00000
   S   0.0000000   0.5000000  -0.5000000 SPIN=   0.00000
   F   0.2224966   0.1021872  -0.3309643 SPIN=   0.00000
   F  -0.1021872  -0.2224966  -0.1690357 SPIN=   0.00000
   F  -0.2224966  -0.1021872   0.3309643 SPIN=   0.00000
   F   0.1021872   0.2224966   0.1690357 SPIN=   0.00000
%ENDBLOCK POSITIONS_FRAC

# Note: total spin =  16.00

KPOINTS_MP_SPACING 0.07

%BLOCK SPECIES_POT
QC5
%ENDBLOCK SPECIES_POT

SNAP_TO_SYMMETRY
SYMMETRY_GENERATE

