#              Generated by Buildcell
#
# at 22:53:31 (GMT+1.0) 17th August 2020
# in /lustre/scratch/uccabz1/launch_tmp
# on node-c12o-034
# by uccabz1
#
# compiler GCC version 4.9.2
# options -cpp -iprefix /lustre/shared/ucl/apps/gcc/4.9.2/bin/../lib/gcc/x86_64-unknown-linux-gnu/4.9.2/ -mtune=corei7 -march=x86-64 -g -Og
#
# seed   104185997  1755786239  1699752202  -465105351  -371351537  1922926026   438268284  2054092681 -1964337026  -272276898   655788061 -1957921699
#
#      Author: C. J. Pickard (cjp20@cam.ac.uk)
#                Space group: C2
#

%BLOCK LATTICE_ABC
      7.38270      7.38270      8.55955
    103.52683    103.52683    110.08158
%ENDBLOCK LATTICE_ABC

%BLOCK POSITIONS_FRAC
  Li   0.0200293  -0.2155096  -0.2465607 SPIN=   0.00000
  Li   0.2155096  -0.0200293   0.2465607 SPIN=   0.00000
  Li  -0.3999818  -0.1029217  -0.0997438 SPIN=   0.00000
  Li   0.1029217   0.3999818   0.0997438 SPIN=   0.00000
  Fe  -0.2181594   0.1520214  -0.2886020 SPIN=   5.38277
  Fe  -0.1520214   0.2181594   0.2886020 SPIN=   5.38277
  Fe   0.2254694  -0.2254694   0.5000000 SPIN=   5.07490
  Fe  -0.4634188   0.4634188  -0.5000000 SPIN=   0.15956
   O  -0.2265849  -0.6294705  -0.0835081 SPIN=   0.00000
   O  -0.2651882  -0.4075332  -0.2534984 SPIN=   0.00000
   O   0.0250618  -0.2662848   0.0195838 SPIN=   0.00000
   O  -0.3290279  -0.3510375   0.0213405 SPIN=   0.00000
   S  -0.1989348  -0.4135815  -0.0740205 SPIN=   0.00000
   O   0.6294705   0.2265849   0.0835081 SPIN=   0.00000
   O   0.4075332   0.2651882   0.2534984 SPIN=   0.00000
   O   0.2662848  -0.0250618  -0.0195838 SPIN=   0.00000
   O   0.3510375   0.3290279  -0.0213405 SPIN=   0.00000
   S   0.4135815   0.1989348   0.0740205 SPIN=   0.00000
   O   0.4132640  -0.5404502  -0.2246352 SPIN=   0.00000
   O   0.0592550  -0.6478682  -0.4171100 SPIN=   0.00000
   O   0.2830338  -0.2791039  -0.2572049 SPIN=   0.00000
   O   0.1477165  -0.5094766  -0.1032418 SPIN=   0.00000
   S   0.2258173  -0.4942247  -0.2505480 SPIN=   0.00000
   O   0.5404502  -0.4132640   0.2246352 SPIN=   0.00000
   O   0.6478682  -0.0592550   0.4171100 SPIN=   0.00000
   O   0.2791039  -0.2830338   0.2572049 SPIN=   0.00000
   O   0.5094766  -0.1477165   0.1032418 SPIN=   0.00000
   S   0.4942247  -0.2258173   0.2505480 SPIN=   0.00000
   F   0.4319306   0.0656847  -0.3614891 SPIN=   0.00000
   F  -0.0656847  -0.4319306   0.3614891 SPIN=   0.00000
   F   0.0221397   0.0782430   0.2786952 SPIN=   0.00000
   F  -0.0782430  -0.0221397  -0.2786952 SPIN=   0.00000
%ENDBLOCK POSITIONS_FRAC

# Note: total spin =  16.00

KPOINTS_MP_SPACING 0.07

%BLOCK SPECIES_POT
QC5
%ENDBLOCK SPECIES_POT

SNAP_TO_SYMMETRY
SYMMETRY_GENERATE

