#              Generated by Buildcell
#
# at 04:52:53 (GMT+1.0) 18th August 2020
# in /lustre/scratch/uccabz1/launch_tmp
# on node-c12m-003
# by uccabz1
#
# compiler GCC version 4.9.2
# options -cpp -iprefix /lustre/shared/ucl/apps/gcc/4.9.2/bin/../lib/gcc/x86_64-unknown-linux-gnu/4.9.2/ -mtune=corei7 -march=x86-64 -g -Og
#
# seed  1474446048   972965790  1826995389  1728024675   804299435   805855076  2084866133 -1443123235  1358340136 -1114355898  1134985296 -2026011062
#
#      Author: C. J. Pickard (cjp20@cam.ac.uk)
#                Space group: Aea2
#

%BLOCK LATTICE_ABC
      5.49118      8.58525      8.58525
     98.77368     90.00000     90.00000
%ENDBLOCK LATTICE_ABC

%BLOCK POSITIONS_FRAC
  Li  -0.2173424   0.2252909   0.0322154 SPIN=   0.00000
  Li   0.2173424  -0.0322154  -0.2252909 SPIN=   0.00000
  Li   0.2826576   0.4677846   0.2747091 SPIN=   0.00000
  Li  -0.2826576  -0.2747091  -0.4677846 SPIN=   0.00000
  Fe  -0.2361244  -0.1652040  -0.1000058 SPIN=   4.00000
  Fe   0.2361244   0.1000058   0.1652040 SPIN=   4.00000
  Fe   0.2638756  -0.3999942  -0.3347960 SPIN=   4.00000
  Fe  -0.2638756   0.3347960   0.3999942 SPIN=   4.00000
   O  -0.0976822  -0.5282447   0.2250114 SPIN=   0.00000
   O  -0.1291010  -0.3648306   0.0120023 SPIN=   0.00000
   O  -0.2692275  -0.2589595   0.2813685 SPIN=   0.00000
   O  -0.5017529  -0.4714222   0.1189974 SPIN=   0.00000
   S  -0.2494409  -0.4058642   0.1593449 SPIN=   0.00000
   O   0.0976822  -0.2250114   0.5282447 SPIN=   0.00000
   O   0.1291010  -0.0120023   0.3648306 SPIN=   0.00000
   O   0.2692275  -0.2813685   0.2589595 SPIN=   0.00000
   O   0.5017529  -0.1189974   0.4714222 SPIN=   0.00000
   S   0.2494409  -0.1593449   0.4058642 SPIN=   0.00000
   O   0.4023178   0.2749886   0.0282447 SPIN=   0.00000
   O   0.3708990   0.4879977  -0.1351694 SPIN=   0.00000
   O   0.2307725   0.2186315  -0.2410405 SPIN=   0.00000
   O  -0.0017529   0.3810026  -0.0285778 SPIN=   0.00000
   S   0.2505591   0.3406551  -0.0941358 SPIN=   0.00000
   O  -0.4023178  -0.0282447  -0.2749886 SPIN=   0.00000
   O  -0.3708990   0.1351694  -0.4879977 SPIN=   0.00000
   O  -0.2307725   0.2410405  -0.2186315 SPIN=   0.00000
   O   0.0017529   0.0285778  -0.3810026 SPIN=   0.00000
   S  -0.2505591   0.0941358  -0.3406551 SPIN=   0.00000
   F   0.2499999  -0.1734410  -0.0765591 SPIN=   0.00000
   F  -0.2499999   0.0765591   0.1734410 SPIN=   0.00000
   F  -0.2500001  -0.4234409  -0.3265590 SPIN=   0.00000
   F   0.2500001   0.3265590   0.4234409 SPIN=   0.00000
%ENDBLOCK POSITIONS_FRAC

# Note: total spin =  16.00

KPOINTS_MP_SPACING 0.07

%BLOCK SPECIES_POT
QC5
%ENDBLOCK SPECIES_POT

SNAP_TO_SYMMETRY
SYMMETRY_GENERATE

