#              Generated by Buildcell
#
# at 09:14:46 (GMT+1.0) 4th August 2020
# in /lustre/scratch/uccabz1/launch_tmp
# on node-c12k-002
# by uccabz1
#
# compiler GCC version 4.9.2
# options -cpp -iprefix /lustre/shared/ucl/apps/gcc/4.9.2/bin/../lib/gcc/x86_64-unknown-linux-gnu/4.9.2/ -mtune=corei7 -march=x86-64 -g -Og
#
# seed  -125171110   691440778  -749134660 -1755654999   381645770 -1327029727   763716099 -1247659125 -1212876444   162328201  -403768215  1315525975
#
#      Author: C. J. Pickard (cjp20@cam.ac.uk)
#                Space group: Cm
#

%BLOCK LATTICE_ABC
      6.70923      7.98907      8.48569
     61.91780     87.83807     85.40351
%ENDBLOCK LATTICE_ABC

%BLOCK POSITIONS_FRAC
  Li   0.0351180  -0.3381805  -0.3220301 SPIN=   0.00000
  Li   0.0351180   0.3397894   0.3220301 SPIN=   0.00000
  Li  -0.3651340   0.0859721  -0.4091007 SPIN=   0.00000
  Li  -0.3651340  -0.3231286   0.4091007 SPIN=   0.00000
  Fe   0.2912841  -0.0387532   0.3932482 SPIN=   1.92623
  Fe   0.2912841   0.3544950  -0.3932482 SPIN=   1.92623
  Fe  -0.2121347   0.0770461   0.2393521 SPIN=   6.07377
  Fe  -0.2121347   0.3163981  -0.2393521 SPIN=   6.07377
   O  -0.0996117  -0.1737949  -0.1585153 SPIN=   0.00000
   O  -0.0618021   0.1360086  -0.4267898 SPIN=   0.00000
   O   0.2072917  -0.1217404  -0.3421027 SPIN=   0.00000
   O   0.1442072   0.0428206  -0.1584827 SPIN=   0.00000
   S   0.0475213  -0.0291765  -0.2714726 SPIN=   0.00000
   O  -0.0996117  -0.3323102   0.1585153 SPIN=   0.00000
   O  -0.0618021  -0.2907812   0.4267898 SPIN=   0.00000
   O   0.2072917  -0.4638431   0.3421027 SPIN=   0.00000
   O   0.1442072  -0.1156621   0.1584827 SPIN=   0.00000
   S   0.0475213  -0.3006492   0.2714726 SPIN=   0.00000
   O  -0.5033441  -0.1901595  -0.1590803 SPIN=   0.00000
   O  -0.3542045  -0.1547662  -0.4434530 SPIN=   0.00000
   O  -0.5893911  -0.4040437  -0.2789024 SPIN=   0.00000
   O  -0.2509271  -0.4343105  -0.1578180 SPIN=   0.00000
   S  -0.4244667  -0.2958200  -0.2598134 SPIN=   0.00000
   O  -0.5033441   0.6507602   0.1590803 SPIN=   0.00000
   O  -0.3542045   0.4017808   0.4434530 SPIN=   0.00000
   O  -0.5893911   0.3170539   0.2789024 SPIN=   0.00000
   O  -0.2509271   0.4078715   0.1578180 SPIN=   0.00000
   S  -0.4244667   0.4443666   0.2598134 SPIN=   0.00000
   F  -0.4590444   0.1598184  -0.2432969 SPIN=   0.00000
   F  -0.4590444  -0.0834785   0.2432969 SPIN=   0.00000
   F   0.0518376   0.4060148  -0.2460535 SPIN=   0.00000
   F   0.0518376   0.1599613   0.2460535 SPIN=   0.00000
%ENDBLOCK POSITIONS_FRAC

# Note: total spin =  16.00

KPOINTS_MP_SPACING 0.07

%BLOCK SPECIES_POT
QC5
%ENDBLOCK SPECIES_POT

SNAP_TO_SYMMETRY
SYMMETRY_GENERATE

