#              Generated by Buildcell
#
# at 02:01:58 (GMT+1.0) 18th August 2020
# in /lustre/scratch/uccabz1/launch_tmp
# on node-c12o-011
# by uccabz1
#
# compiler GCC version 4.9.2
# options -cpp -iprefix /lustre/shared/ucl/apps/gcc/4.9.2/bin/../lib/gcc/x86_64-unknown-linux-gnu/4.9.2/ -mtune=corei7 -march=x86-64 -g -Og
#
# seed -1453739175 -1265830812  -486186131  1549131647  1922816120 -1522287902  1005448512  -508007650   632303741 -1507966490 -1253961449  -144152407
#
#      Author: C. J. Pickard (cjp20@cam.ac.uk)
#                Space group: P21
#

%BLOCK LATTICE_ABC
      5.14511      6.04373     12.95998
     90.00000     96.99497     90.00000
%ENDBLOCK LATTICE_ABC

%BLOCK POSITIONS_FRAC
  Li   0.1880296  -0.4293346  -0.1919786 SPIN=   0.00000
  Li  -0.1880296   0.0706654   0.1919786 SPIN=   0.00000
  Li   0.3198989   0.4558187   0.0821333 SPIN=   0.00000
  Li  -0.3198989  -0.0441813  -0.0821333 SPIN=   0.00000
  Fe  -0.3407258   0.4990547  -0.2890431 SPIN=   4.14713
  Fe   0.3407258  -0.0009453   0.2890431 SPIN=   4.14713
  Fe  -0.1815361  -0.2570609   0.4747372 SPIN=   3.85287
  Fe   0.1815361   0.2429391  -0.4747372 SPIN=   3.85287
   O   0.2514077  -0.2526303  -0.0465544 SPIN=   0.00000
   O   0.0387668  -0.0935760   0.0979045 SPIN=   0.00000
   O   0.3333680   0.1375634   0.0055068 SPIN=   0.00000
   O   0.5159338  -0.1651238   0.1209491 SPIN=   0.00000
   S   0.2848691  -0.0934417   0.0444515 SPIN=   0.00000
   O  -0.2514077   0.2473697   0.0465544 SPIN=   0.00000
   O  -0.0387668   0.4064240  -0.0979045 SPIN=   0.00000
   O  -0.3333680   0.6375634  -0.0055068 SPIN=   0.00000
   O  -0.5159338   0.3348762  -0.1209491 SPIN=   0.00000
   S  -0.2848691   0.4065583  -0.0444515 SPIN=   0.00000
   O  -0.1081140  -0.2075489  -0.1820688 SPIN=   0.00000
   O   0.2627710   0.0381486  -0.2086363 SPIN=   0.00000
   O  -0.1897196   0.1847710  -0.2302937 SPIN=   0.00000
   O  -0.0501248  -0.0785369  -0.3590568 SPIN=   0.00000
   S  -0.0212969  -0.0157916  -0.2450139 SPIN=   0.00000
   O   0.1081140   0.2924511   0.1820688 SPIN=   0.00000
   O  -0.2627710   0.5381486   0.2086363 SPIN=   0.00000
   O   0.1897196   0.6847710   0.2302937 SPIN=   0.00000
   O   0.0501248   0.4214631   0.3590568 SPIN=   0.00000
   S   0.0212969   0.4842084   0.2450139 SPIN=   0.00000
   F   0.4249618  -0.0177781  -0.4398166 SPIN=   0.00000
   F  -0.4249618   0.4822219   0.4398166 SPIN=   0.00000
   F  -0.1333423  -0.0157545   0.3697821 SPIN=   0.00000
   F   0.1333423   0.4842455  -0.3697821 SPIN=   0.00000
%ENDBLOCK POSITIONS_FRAC

# Note: total spin =  16.00

KPOINTS_MP_SPACING 0.07

%BLOCK SPECIES_POT
QC5
%ENDBLOCK SPECIES_POT

SNAP_TO_SYMMETRY
SYMMETRY_GENERATE

