#              Generated by Buildcell
#
# at 07:09:30 (GMT+1.0) 4th August 2020
# in /lustre/scratch/uccabz1/launch_tmp
# on node-c12d-012
# by uccabz1
#
# compiler GCC version 4.9.2
# options -cpp -iprefix /lustre/shared/ucl/apps/gcc/4.9.2/bin/../lib/gcc/x86_64-unknown-linux-gnu/4.9.2/ -mtune=corei7 -march=x86-64 -g -Og
#
# seed   443644011  -291411800  1345552191 -1235509636   108947036 -1392356395  -918589113 -1485084694  1616144429  1725201937 -2142606441   -50417250
#
#      Author: C. J. Pickard (cjp20@cam.ac.uk)
#                Space group: P-1
#

%BLOCK LATTICE_ABC
      4.07479      9.22526     10.66476
     87.88906     86.79413     89.85653
%ENDBLOCK LATTICE_ABC

%BLOCK POSITIONS_FRAC
  Li  -0.1423123  -0.1758211   0.4622277 SPIN=   0.00000
  Li   0.1423123   0.1758211  -0.4622277 SPIN=   0.00000
  Li  -0.0014104   0.2888655  -0.0566121 SPIN=   0.00000
  Li   0.0014104  -0.2888655   0.0566121 SPIN=   0.00000
  Fe   0.4403771   0.3692891   0.1361978 SPIN=   4.43709
  Fe  -0.4403771  -0.3692891  -0.1361978 SPIN=   4.43709
  Fe   0.4759896  -0.2669700   0.2532133 SPIN=   3.56291
  Fe  -0.4759896   0.2669700  -0.2532133 SPIN=   3.56291
   O  -0.6503284  -0.0922469  -0.2012986 SPIN=   0.00000
   O  -0.1786759   0.0234189  -0.3221387 SPIN=   0.00000
   O  -0.6983523  -0.0179620  -0.4248874 SPIN=   0.00000
   O  -0.3454887  -0.2261234  -0.3677044 SPIN=   0.00000
   S  -0.4682113  -0.0782283  -0.3290072 SPIN=   0.00000
   O   0.6503284   0.0922469   0.2012986 SPIN=   0.00000
   O   0.1786759  -0.0234189   0.3221387 SPIN=   0.00000
   O   0.6983523   0.0179620   0.4248874 SPIN=   0.00000
   O   0.3454887   0.2261234   0.3677044 SPIN=   0.00000
   S   0.4682113   0.0782283   0.3290072 SPIN=   0.00000
   O  -0.1857776  -0.3839786   0.4884213 SPIN=   0.00000
   O   0.3122360  -0.2299983   0.4772227 SPIN=   0.00000
   O  -0.0295468  -0.2414104   0.2931764 SPIN=   0.00000
   O   0.3037840  -0.4536984   0.3562825 SPIN=   0.00000
   O   0.1857776   0.3839786  -0.4884213 SPIN=   0.00000
   O  -0.3122360   0.2299983  -0.4772227 SPIN=   0.00000
   O   0.0295468   0.2414104  -0.2931764 SPIN=   0.00000
   O  -0.3037840   0.4536984  -0.3562825 SPIN=   0.00000
   S  -0.0000000  -0.0000000  -0.0000000 SPIN=   0.00000
   S  -0.5000000   0.5000000  -0.5000000 SPIN=   0.00000
   F   0.0359612  -0.3761354  -0.2385721 SPIN=   0.00000
   F  -0.0359612   0.3761354   0.2385721 SPIN=   0.00000
   F   0.4892511  -0.3005654   0.0722095 SPIN=   0.00000
   F  -0.4892511   0.3005654  -0.0722095 SPIN=   0.00000
%ENDBLOCK POSITIONS_FRAC

# Note: total spin =  16.00

KPOINTS_MP_SPACING 0.07

%BLOCK SPECIES_POT
QC5
%ENDBLOCK SPECIES_POT

SNAP_TO_SYMMETRY
SYMMETRY_GENERATE

