#              Generated by Buildcell
#
# at 07:26:01 (GMT+1.0) 4th August 2020
# in /lustre/scratch/uccabz1/launch_tmp
# on node-c12e-012
# by uccabz1
#
# compiler GCC version 4.9.2
# options -cpp -iprefix /lustre/shared/ucl/apps/gcc/4.9.2/bin/../lib/gcc/x86_64-unknown-linux-gnu/4.9.2/ -mtune=corei7 -march=x86-64 -g -Og
#
# seed  1816436003   290264296  1318623635  1304422324 -1953256183 -1427137736  1085427934  -972260264  -349752088  1453191707  -983206389  1129815941
#
#      Author: C. J. Pickard (cjp20@cam.ac.uk)
#                Space group: P21
#

%BLOCK LATTICE_ABC
      4.17146      7.41256     12.93790
     90.00000     90.95101     90.00000
%ENDBLOCK LATTICE_ABC

%BLOCK POSITIONS_FRAC
  Li  -0.3127373   0.3122718   0.2604522 SPIN=   0.00000
  Li   0.3127373  -0.1877282  -0.2604522 SPIN=   0.00000
  Li   0.3730819  -0.1268218   0.4021574 SPIN=   0.00000
  Li  -0.3730819   0.3731782  -0.4021574 SPIN=   0.00000
  Fe   0.1955281   0.2615917   0.4228481 SPIN=   4.54509
  Fe  -0.1955281  -0.2384083  -0.4228481 SPIN=   4.54509
  Fe  -0.2390500  -0.0279475   0.1398784 SPIN=   3.45491
  Fe   0.2390500   0.4720525  -0.1398784 SPIN=   3.45491
   O  -0.5549471  -0.1187049  -0.0920243 SPIN=   0.00000
   O  -0.1579968  -0.2259277  -0.2181256 SPIN=   0.00000
   O  -0.0722988  -0.2843733  -0.0313693 SPIN=   0.00000
   O  -0.0211304   0.0258930  -0.0997971 SPIN=   0.00000
   S  -0.2015933  -0.1507782  -0.1103291 SPIN=   0.00000
   O   0.5549471   0.3812951   0.0920243 SPIN=   0.00000
   O   0.1579968   0.2740723   0.2181256 SPIN=   0.00000
   O   0.0722988   0.2156267   0.0313693 SPIN=   0.00000
   O   0.0211304   0.5258930   0.0997971 SPIN=   0.00000
   S   0.2015933   0.3492218   0.1103291 SPIN=   0.00000
   O  -0.3333697  -0.4123118   0.2361849 SPIN=   0.00000
   O  -0.3172563  -0.3465262   0.4237379 SPIN=   0.00000
   O  -0.0248171  -0.1504154   0.3025062 SPIN=   0.00000
   O   0.1676460  -0.4606106   0.3375483 SPIN=   0.00000
   S  -0.1269492  -0.3424660   0.3249943 SPIN=   0.00000
   O   0.3333697   0.0876882  -0.2361849 SPIN=   0.00000
   O   0.3172563   0.1534738  -0.4237379 SPIN=   0.00000
   O   0.0248171   0.3495846  -0.3025062 SPIN=   0.00000
   O  -0.1676460   0.0393894  -0.3375483 SPIN=   0.00000
   S   0.1269492   0.1575340  -0.3249943 SPIN=   0.00000
   F  -0.2816436   0.3726517  -0.1204040 SPIN=   0.00000
   F   0.2816436  -0.1273483   0.1204040 SPIN=   0.00000
   F  -0.2456542   0.1138609   0.4262142 SPIN=   0.00000
   F   0.2456542  -0.3861391  -0.4262142 SPIN=   0.00000
%ENDBLOCK POSITIONS_FRAC

# Note: total spin =  16.00

KPOINTS_MP_SPACING 0.07

%BLOCK SPECIES_POT
QC5
%ENDBLOCK SPECIES_POT

SNAP_TO_SYMMETRY
SYMMETRY_GENERATE

