#              Generated by Buildcell
#
# at 07:31:03 (GMT+1.0) 18th August 2020
# in /lustre/scratch/uccabz1/launch_tmp
# on node-c12o-016
# by uccabz1
#
# compiler GCC version 4.9.2
# options -cpp -iprefix /lustre/shared/ucl/apps/gcc/4.9.2/bin/../lib/gcc/x86_64-unknown-linux-gnu/4.9.2/ -mtune=corei7 -march=x86-64 -g -Og
#
# seed -1368547036  1988481325  1384221609 -1571735953  -144042981 -1832434156  1545685969   452634986 -1496198989 -1373880363  -686706037 -1670957301
#
#      Author: C. J. Pickard (cjp20@cam.ac.uk)
#                Space group: Ama2
#

%BLOCK LATTICE_ABC
      3.97860      7.54660     13.81074
     90.00000     90.00000    105.28391
%ENDBLOCK LATTICE_ABC

%BLOCK POSITIONS_FRAC
  Li   0.2905880   0.2373118   0.2500000 SPIN=   0.00000
  Li   0.0532762  -0.2373118  -0.2500000 SPIN=   0.00000
  Li   0.0222455  -0.2992150   0.2500000 SPIN=   0.00000
  Li   0.3214605   0.2992150  -0.2500000 SPIN=   0.00000
  Fe  -0.3951882  -0.1340110   0.1100619 SPIN=   4.00000
  Fe  -0.2611772   0.1340110  -0.1100619 SPIN=   4.00000
  Fe  -0.2611772   0.1340110  -0.3899381 SPIN=   4.00000
  Fe  -0.3951882  -0.1340110   0.3899381 SPIN=   4.00000
   O  -0.0806285  -0.3338142  -0.3898201 SPIN=   0.00000
   O  -0.5830175  -0.3515201  -0.4984972 SPIN=   0.00000
   O  -0.5032981  -0.1544361  -0.3525823 SPIN=   0.00000
   O  -0.6767742  -0.4928785  -0.3356588 SPIN=   0.00000
   S  -0.4609296  -0.3331622  -0.3941396 SPIN=   0.00000
   O   0.2531856   0.3338142   0.3898201 SPIN=   0.00000
   O  -0.2314974   0.3515201   0.4984972 SPIN=   0.00000
   O  -0.3488620   0.1544361   0.3525823 SPIN=   0.00000
   O  -0.1838957   0.4928785   0.3356588 SPIN=   0.00000
   S  -0.1277674   0.3331622   0.3941396 SPIN=   0.00000
   O   0.2531856   0.3338142   0.1101799 SPIN=   0.00000
   O  -0.2314974   0.3515201   0.0015028 SPIN=   0.00000
   O  -0.3488620   0.1544361   0.1474177 SPIN=   0.00000
   O  -0.1838957   0.4928785   0.1643412 SPIN=   0.00000
   S  -0.1277674   0.3331622   0.1058604 SPIN=   0.00000
   O  -0.0806285  -0.3338142  -0.1101799 SPIN=   0.00000
   O  -0.5830175  -0.3515201  -0.0015028 SPIN=   0.00000
   O  -0.5032981  -0.1544361  -0.1474177 SPIN=   0.00000
   O  -0.6767742  -0.4928785  -0.1643412 SPIN=   0.00000
   S  -0.4609296  -0.3331622  -0.1058604 SPIN=   0.00000
   F   0.2443342   0.1472133  -0.1129545 SPIN=   0.00000
   F   0.0971209  -0.1472133   0.1129545 SPIN=   0.00000
   F   0.0971209  -0.1472133   0.3870455 SPIN=   0.00000
   F   0.2443342   0.1472133  -0.3870455 SPIN=   0.00000
%ENDBLOCK POSITIONS_FRAC

# Note: total spin =  16.00

KPOINTS_MP_SPACING 0.07

%BLOCK SPECIES_POT
QC5
%ENDBLOCK SPECIES_POT

SNAP_TO_SYMMETRY
SYMMETRY_GENERATE

