#              Generated by Buildcell
#
# at 14:50:57 (GMT+1.0) 18th August 2020
# in /scratch/scratch/uccabz1/launch_tmp
# on node-k10d-025
# by uccabz1
#
# compiler GCC version 4.9.2
# options -cpp -iprefix /scratch/UCL/applications/gcc/4.9.2/bin/../lib/gcc/x86_64-unknown-linux-gnu/4.9.2/ -mtune=corei7 -march=x86-64 -g -O2
#
# seed -1155515185 -1332740860  -944202205  1714417630   807914821   811509291 -1970324794   637992553  1173435183  1926551888 -1368813489  1769127744
#
#      Author: C. J. Pickard (cjp20@cam.ac.uk)
#                Space group: Pcc2
#

%BLOCK LATTICE_ABC
      7.13568      7.48589      7.48827
     90.00000     90.00000     90.00000
%ENDBLOCK LATTICE_ABC

%BLOCK POSITIONS_FRAC
  Li  -0.2500287   0.1909314   0.0464133 SPIN=   0.00000
  Li   0.2500287   0.1909314  -0.0464133 SPIN=   0.00000
  Li   0.2500287  -0.3090686   0.0464133 SPIN=   0.00000
  Li  -0.2500287  -0.3090686  -0.0464133 SPIN=   0.00000
  Fe   0.0773131   0.3913917   0.2668032 SPIN=   4.00000
  Fe  -0.0773131   0.3913917  -0.2668032 SPIN=   4.00000
  Fe  -0.0773131  -0.1086083   0.2668032 SPIN=   4.00000
  Fe   0.0773131  -0.1086083  -0.2668032 SPIN=   4.00000
   O   0.3954107  -0.2520641  -0.2046246 SPIN=   0.00000
   O   0.5870841  -0.4856191  -0.3507640 SPIN=   0.00000
   O   0.2429311  -0.4826601  -0.3916475 SPIN=   0.00000
   O   0.3786055  -0.5648508  -0.0987918 SPIN=   0.00000
   S   0.4010079  -0.4462985  -0.2614570 SPIN=   0.00000
   O  -0.3954107  -0.2520641   0.2046246 SPIN=   0.00000
   O  -0.5870841  -0.4856191   0.3507640 SPIN=   0.00000
   O  -0.2429311  -0.4826601   0.3916475 SPIN=   0.00000
   O  -0.3786055  -0.5648508   0.0987918 SPIN=   0.00000
   S  -0.4010079  -0.4462985   0.2614570 SPIN=   0.00000
   O  -0.3954107   0.2479359  -0.2046246 SPIN=   0.00000
   O  -0.5870841   0.0143809  -0.3507640 SPIN=   0.00000
   O  -0.2429311   0.0173399  -0.3916475 SPIN=   0.00000
   O  -0.3786055  -0.0648508  -0.0987918 SPIN=   0.00000
   S  -0.4010079   0.0537015  -0.2614570 SPIN=   0.00000
   O   0.3954107   0.2479359   0.2046246 SPIN=   0.00000
   O   0.5870841   0.0143809   0.3507640 SPIN=   0.00000
   O   0.2429311   0.0173399   0.3916475 SPIN=   0.00000
   O   0.3786055  -0.0648508   0.0987918 SPIN=   0.00000
   S   0.4010079   0.0537015   0.2614570 SPIN=   0.00000
   F  -0.0839780   0.1650285   0.2553118 SPIN=   0.00000
   F   0.0839780   0.1650285  -0.2553118 SPIN=   0.00000
   F   0.0839780  -0.3349715   0.2553118 SPIN=   0.00000
   F  -0.0839780  -0.3349715  -0.2553118 SPIN=   0.00000
%ENDBLOCK POSITIONS_FRAC

# Note: total spin =  16.00

KPOINTS_MP_SPACING 0.07

%BLOCK SPECIES_POT
QC5
%ENDBLOCK SPECIES_POT

SNAP_TO_SYMMETRY
SYMMETRY_GENERATE

