#              Generated by Buildcell
#
# at 10:17:12 (GMT+1.0) 4th August 2020
# in /lustre/scratch/uccabz1/launch_tmp
# on node-c12f-002
# by uccabz1
#
# compiler GCC version 4.9.2
# options -cpp -iprefix /lustre/shared/ucl/apps/gcc/4.9.2/bin/../lib/gcc/x86_64-unknown-linux-gnu/4.9.2/ -mtune=corei7 -march=x86-64 -g -Og
#
# seed  1881160530   438779512   543108656 -2100943100  -749547361  -402235281   735740549 -1203945902  1033140173  1483278141  -359783327 -2063319865
#
#      Author: C. J. Pickard (cjp20@cam.ac.uk)
#                Space group: P21
#

%BLOCK LATTICE_ABC
      5.45854      7.82164      9.71353
     90.00000     90.00000    105.30945
%ENDBLOCK LATTICE_ABC

%BLOCK POSITIONS_FRAC
  Li  -0.3359855   0.1172228  -0.1368225 SPIN=   0.00000
  Li   0.3359855  -0.1172228   0.3631775 SPIN=   0.00000
  Li  -0.2401350   0.3390905   0.4808897 SPIN=   0.00000
  Li   0.2401350  -0.3390905  -0.0191103 SPIN=   0.00000
  Fe  -0.3188259  -0.4190266   0.1065607 SPIN=   6.39948
  Fe   0.3188259   0.4190266  -0.3934393 SPIN=   6.39948
  Fe  -0.1496151   0.0605531   0.2034032 SPIN=   1.60052
  Fe   0.1496151  -0.0605531  -0.2965968 SPIN=   1.60052
   O   0.1902179   0.5765882   0.4211617 SPIN=   0.00000
   O  -0.1290934   0.4550188   0.2411310 SPIN=   0.00000
   O   0.1952565   0.2983044   0.3013292 SPIN=   0.00000
   O   0.3204727   0.5841737   0.1767093 SPIN=   0.00000
   S   0.1442134   0.4785213   0.2850828 SPIN=   0.00000
   O  -0.1902179  -0.5765882  -0.0788383 SPIN=   0.00000
   O   0.1290934  -0.4550188  -0.2588690 SPIN=   0.00000
   O  -0.1952565  -0.2983044  -0.1986708 SPIN=   0.00000
   O  -0.3204727  -0.5841737  -0.3232907 SPIN=   0.00000
   S  -0.1442134  -0.4785213  -0.2149172 SPIN=   0.00000
   O  -0.3907934  -0.4191543   0.3733820 SPIN=   0.00000
   O  -0.0956257  -0.3077900   0.5662970 SPIN=   0.00000
   O  -0.4522073  -0.1753601   0.5203833 SPIN=   0.00000
   O  -0.0883650  -0.1218146   0.3594251 SPIN=   0.00000
   S  -0.2567478  -0.2560297   0.4548718 SPIN=   0.00000
   O   0.3907934   0.4191543  -0.1266180 SPIN=   0.00000
   O   0.0956257   0.3077900   0.0662970 SPIN=   0.00000
   O   0.4522073   0.1753601   0.0203833 SPIN=   0.00000
   O   0.0883650   0.1218146  -0.1405749 SPIN=   0.00000
   S   0.2567478   0.2560297  -0.0451282 SPIN=   0.00000
   F   0.4552056  -0.1164744  -0.2148476 SPIN=   0.00000
   F  -0.4552056   0.1164744   0.2851524 SPIN=   0.00000
   F   0.0715595   0.1840102  -0.4119544 SPIN=   0.00000
   F  -0.0715595  -0.1840102   0.0880456 SPIN=   0.00000
%ENDBLOCK POSITIONS_FRAC

# Note: total spin =  16.00

KPOINTS_MP_SPACING 0.07

%BLOCK SPECIES_POT
QC5
%ENDBLOCK SPECIES_POT

SNAP_TO_SYMMETRY
SYMMETRY_GENERATE

