#              Generated by Buildcell
#
# at 08:58:54 (GMT+1.0) 18th August 2020
# in /lustre/scratch/uccabz1/launch_tmp
# on node-c12m-009
# by uccabz1
#
# compiler GCC version 4.9.2
# options -cpp -iprefix /lustre/shared/ucl/apps/gcc/4.9.2/bin/../lib/gcc/x86_64-unknown-linux-gnu/4.9.2/ -mtune=corei7 -march=x86-64 -g -Og
#
# seed  1422750094  -611300116   968835471 -1909943573   286173131   932982783  -718350349  1259231875   989078936  2088686352   600937848  1176672193
#
#      Author: C. J. Pickard (cjp20@cam.ac.uk)
#                Space group: Pmc21
#

%BLOCK LATTICE_ABC
      6.01540      7.69993      8.63593
     90.00000     90.00000     90.00000
%ENDBLOCK LATTICE_ABC

%BLOCK POSITIONS_FRAC
  Li  -0.2745356   0.2312452   0.0344200 SPIN=   0.00000
  Li   0.2745356  -0.2312452  -0.4655800 SPIN=   0.00000
  Li   0.2745356   0.2312452  -0.4655800 SPIN=   0.00000
  Li  -0.2745356  -0.2312452   0.0344200 SPIN=   0.00000
  Fe   0.1611080   0.2445170  -0.1286513 SPIN=   4.00000
  Fe  -0.1611080  -0.2445170   0.3713487 SPIN=   4.00000
  Fe  -0.1611080   0.2445170   0.3713487 SPIN=   4.00000
  Fe   0.1611080  -0.2445170  -0.1286513 SPIN=   4.00000
   O   0.1242368   0.1478290   0.2205006 SPIN=   0.00000
   O   0.4004666   0.3129060   0.0673907 SPIN=   0.00000
   O   0.5215639   0.1414788   0.2946573 SPIN=   0.00000
   S   0.3368916   0.2529883   0.2285821 SPIN=   0.00000
   O  -0.1242368  -0.1478290  -0.2794994 SPIN=   0.00000
   O  -0.4004666  -0.3129060  -0.4326093 SPIN=   0.00000
   O  -0.5215639  -0.1414788  -0.2053427 SPIN=   0.00000
   S  -0.3368916  -0.2529883  -0.2714179 SPIN=   0.00000
   O  -0.1242368   0.1478290  -0.2794994 SPIN=   0.00000
   O  -0.4004666   0.3129060  -0.4326093 SPIN=   0.00000
   O  -0.5215639   0.1414788  -0.2053427 SPIN=   0.00000
   S  -0.3368916   0.2529883  -0.2714179 SPIN=   0.00000
   O   0.1242368  -0.1478290   0.2205006 SPIN=   0.00000
   O   0.4004666  -0.3129060   0.0673907 SPIN=   0.00000
   O   0.5215639  -0.1414788   0.2946573 SPIN=   0.00000
   S   0.3368916  -0.2529883   0.2285821 SPIN=   0.00000
   O   0.1564995  -0.5000000  -0.0209042 SPIN=   0.00000
   O  -0.1564995   0.5000000   0.4790958 SPIN=   0.00000
   O  -0.3854895   0.5000000  -0.1779369 SPIN=   0.00000
   O   0.3854895   0.5000000   0.3220631 SPIN=   0.00000
   F  -0.1947821  -0.5000000   0.1689446 SPIN=   0.00000
   F   0.1947821   0.5000000  -0.3310554 SPIN=   0.00000
   F   0.1258541  -0.0000000  -0.0610799 SPIN=   0.00000
   F  -0.1258541   0.0000000   0.4389201 SPIN=   0.00000
%ENDBLOCK POSITIONS_FRAC

# Note: total spin =  16.00

KPOINTS_MP_SPACING 0.07

%BLOCK SPECIES_POT
QC5
%ENDBLOCK SPECIES_POT

SNAP_TO_SYMMETRY
SYMMETRY_GENERATE

