#              Generated by Buildcell
#
# at 08:46:22 (GMT+1.0) 4th August 2020
# in /lustre/scratch/uccabz1/launch_tmp
# on node-c12k-007
# by uccabz1
#
# compiler GCC version 4.9.2
# options -cpp -iprefix /lustre/shared/ucl/apps/gcc/4.9.2/bin/../lib/gcc/x86_64-unknown-linux-gnu/4.9.2/ -mtune=corei7 -march=x86-64 -g -Og
#
# seed -1607929200    79681245  2009816179   797982462  1198908415   641919353 -1912044907  -210599318  -504373680  1510210329 -1517427082   594978592
#
#      Author: C. J. Pickard (cjp20@cam.ac.uk)
#                Space group: Cc
#

%BLOCK LATTICE_ABC
      6.50401      8.52242      8.61933
    113.31960    112.16604     90.00000
%ENDBLOCK LATTICE_ABC

%BLOCK POSITIONS_FRAC
  Li   0.4574504   0.3100752  -0.2875219 SPIN=   0.00000
  Li   0.2550277  -0.1899248  -0.2875219 SPIN=   0.00000
  Li   0.0906932  -0.0140082   0.2164143 SPIN=   0.00000
  Li   0.1257211   0.4859918   0.2164143 SPIN=   0.00000
  Fe   0.0593913   0.4296641  -0.4874163 SPIN=   2.42423
  Fe   0.4531924  -0.0703359  -0.4874163 SPIN=   2.42423
  Fe   0.4701077   0.1760684  -0.0165975 SPIN=   5.57577
  Fe  -0.4867052  -0.3239316  -0.0165975 SPIN=   5.57577
   O  -0.0710017  -0.3574624  -0.3292874 SPIN=   0.00000
   O   0.1778192  -0.1484441  -0.0099575 SPIN=   0.00000
   O  -0.2141937  -0.2617178  -0.0839467 SPIN=   0.00000
   O  -0.1416316  -0.0568915  -0.2035643 SPIN=   0.00000
   S  -0.0622519  -0.2061290  -0.1566890 SPIN=   0.00000
   O  -0.2582857   0.1425376  -0.3292874 SPIN=   0.00000
   O  -0.1877767   0.3515559  -0.0099575 SPIN=   0.00000
   O   0.1302470   0.2382822  -0.0839467 SPIN=   0.00000
   O  -0.0619327   0.4431085  -0.2035643 SPIN=   0.00000
   S  -0.0944370   0.2938710  -0.1566890 SPIN=   0.00000
   O  -0.4631232  -0.0853941   0.2288462 SPIN=   0.00000
   O  -0.0530262   0.0147655   0.4194171 SPIN=   0.00000
   O  -0.3131225   0.2268836   0.4324908 SPIN=   0.00000
   O  -0.2401257   0.0835700   0.1510541 SPIN=   0.00000
   S  -0.2673494   0.0599563   0.3079521 SPIN=   0.00000
   O  -0.3080306  -0.5853941   0.2288462 SPIN=   0.00000
   O  -0.5275567  -0.4852345   0.4194171 SPIN=   0.00000
   O  -0.2543866  -0.2731164   0.4324908 SPIN=   0.00000
   O  -0.6088201  -0.4164300   0.1510541 SPIN=   0.00000
   S  -0.4246985  -0.4400437   0.3079521 SPIN=   0.00000
   F   0.1984173   0.2052967   0.2394468 SPIN=   0.00000
   F   0.0410295  -0.2947033   0.2394468 SPIN=   0.00000
   F   0.4410840  -0.0092081  -0.2489425 SPIN=   0.00000
   F   0.3099736   0.4907919  -0.2489425 SPIN=   0.00000
%ENDBLOCK POSITIONS_FRAC

# Note: total spin =  16.00

KPOINTS_MP_SPACING 0.07

%BLOCK SPECIES_POT
QC5
%ENDBLOCK SPECIES_POT

SNAP_TO_SYMMETRY
SYMMETRY_GENERATE

