#              Generated by Buildcell
#
# at 10:58:48 (GMT+1.0) 18th August 2020
# in /lustre/scratch/uccabz1/launch_tmp
# on node-c12n-031
# by uccabz1
#
# compiler GCC version 4.9.2
# options -cpp -iprefix /lustre/shared/ucl/apps/gcc/4.9.2/bin/../lib/gcc/x86_64-unknown-linux-gnu/4.9.2/ -mtune=corei7 -march=x86-64 -g -Og
#
# seed   212496957  1150795892  2040826094  1155450393   215873202 -1393500427  1019049809  1122913420 -1316258311  -578978357 -1432154994 -1364306117
#
#      Author: C. J. Pickard (cjp20@cam.ac.uk)
#                Space group: P2221
#

%BLOCK LATTICE_ABC
      5.48218      6.36385     11.46533
     90.00000     90.00000     90.00000
%ENDBLOCK LATTICE_ABC

%BLOCK POSITIONS_FRAC
  Li   0.2527061  -0.4494872   0.3462671 SPIN=   0.00000
  Li  -0.2527061   0.4494872  -0.1537329 SPIN=   0.00000
  Li  -0.2527061  -0.4494872   0.1537329 SPIN=   0.00000
  Li   0.2527061   0.4494872  -0.3462671 SPIN=   0.00000
  Fe   0.2481415  -0.1998132  -0.1414701 SPIN=   4.00000
  Fe  -0.2481415   0.1998132   0.3585299 SPIN=   4.00000
  Fe  -0.2481415  -0.1998132  -0.3585299 SPIN=   4.00000
  Fe   0.2481415   0.1998132   0.1414701 SPIN=   4.00000
   O   0.4226842  -0.1703611   0.0462165 SPIN=   0.00000
   O   0.3960244  -0.4925149   0.1664581 SPIN=   0.00000
   O   0.0292006  -0.3578867   0.0652355 SPIN=   0.00000
   O   0.1993769  -0.1641409   0.2337838 SPIN=   0.00000
   S   0.2618215  -0.2962259   0.1279235 SPIN=   0.00000
   O  -0.4226842   0.1703611  -0.4537835 SPIN=   0.00000
   O  -0.3960244   0.4925149  -0.3335419 SPIN=   0.00000
   O  -0.0292006   0.3578867  -0.4347645 SPIN=   0.00000
   O  -0.1993769   0.1641409  -0.2662162 SPIN=   0.00000
   S  -0.2618215   0.2962259  -0.3720765 SPIN=   0.00000
   O  -0.4226842  -0.1703611   0.4537835 SPIN=   0.00000
   O  -0.3960244  -0.4925149   0.3335419 SPIN=   0.00000
   O  -0.0292006  -0.3578867   0.4347645 SPIN=   0.00000
   O  -0.1993769  -0.1641409   0.2662162 SPIN=   0.00000
   S  -0.2618215  -0.2962259   0.3720765 SPIN=   0.00000
   O   0.4226842   0.1703611  -0.0462165 SPIN=   0.00000
   O   0.3960244   0.4925149  -0.1664581 SPIN=   0.00000
   O   0.0292006   0.3578867  -0.0652355 SPIN=   0.00000
   O   0.1993769   0.1641409  -0.2337838 SPIN=   0.00000
   S   0.2618215   0.2962259  -0.1279235 SPIN=   0.00000
   F  -0.2457757  -0.2481128  -0.1146692 SPIN=   0.00000
   F   0.2457757   0.2481128   0.3853308 SPIN=   0.00000
   F   0.2457757  -0.2481128  -0.3853308 SPIN=   0.00000
   F  -0.2457757   0.2481128   0.1146692 SPIN=   0.00000
%ENDBLOCK POSITIONS_FRAC

# Note: total spin =  16.00

KPOINTS_MP_SPACING 0.07

%BLOCK SPECIES_POT
QC5
%ENDBLOCK SPECIES_POT

SNAP_TO_SYMMETRY
SYMMETRY_GENERATE

