#              Generated by Buildcell
#
# at 15:08:27 (GMT+1.0) 18th August 2020
# in /scratch/scratch/uccabz1/launch_tmp
# on node-k10h-017
# by uccabz1
#
# compiler GCC version 4.9.2
# options -cpp -iprefix /scratch/UCL/applications/gcc/4.9.2/bin/../lib/gcc/x86_64-unknown-linux-gnu/4.9.2/ -mtune=corei7 -march=x86-64 -g -O2
#
# seed -1990962331   354449269  -433170914  -861174623  -178790820  -328397694 -1467165674  1199217459  -164988470  2061729026  1077295748  2045473873
#
#      Author: C. J. Pickard (cjp20@cam.ac.uk)
#                Space group: Pca21
#

%BLOCK LATTICE_ABC
      5.30781      7.77214      9.69626
     90.00000     90.00000     90.00000
%ENDBLOCK LATTICE_ABC

%BLOCK POSITIONS_FRAC
  Li  -0.1373298   0.2652180   0.0277650 SPIN=   0.00000
  Li   0.1373298  -0.2347820  -0.0277650 SPIN=   0.00000
  Li   0.1373298   0.2652180  -0.4722350 SPIN=   0.00000
  Li  -0.1373298  -0.2347820   0.4722350 SPIN=   0.00000
  Fe   0.0360206   0.4692483  -0.2121251 SPIN=   4.00000
  Fe  -0.0360206  -0.0307517   0.2121251 SPIN=   4.00000
  Fe  -0.0360206   0.4692483   0.2878749 SPIN=   4.00000
  Fe   0.0360206  -0.0307517  -0.2878749 SPIN=   4.00000
   O  -0.6293947   0.1670096  -0.3308771 SPIN=   0.00000
   O  -0.1975528   0.2439562  -0.2569762 SPIN=   0.00000
   O  -0.4632249   0.0588470  -0.1087136 SPIN=   0.00000
   O  -0.5657532   0.3676442  -0.1357604 SPIN=   0.00000
   S  -0.4639814   0.2093643  -0.2080818 SPIN=   0.00000
   O   0.6293947  -0.3329904   0.3308771 SPIN=   0.00000
   O   0.1975528  -0.2560438   0.2569762 SPIN=   0.00000
   O   0.4632249  -0.4411530   0.1087136 SPIN=   0.00000
   O   0.5657532  -0.1323558   0.1357604 SPIN=   0.00000
   S   0.4639814  -0.2906357   0.2080818 SPIN=   0.00000
   O   0.6293947   0.1670096   0.1691229 SPIN=   0.00000
   O   0.1975528   0.2439562   0.2430238 SPIN=   0.00000
   O   0.4632249   0.0588470   0.3912864 SPIN=   0.00000
   O   0.5657532   0.3676442   0.3642396 SPIN=   0.00000
   S   0.4639814   0.2093643   0.2919182 SPIN=   0.00000
   O  -0.6293947  -0.3329904  -0.1691229 SPIN=   0.00000
   O  -0.1975528  -0.2560438  -0.2430238 SPIN=   0.00000
   O  -0.4632249  -0.4411530  -0.3912864 SPIN=   0.00000
   O  -0.5657532  -0.1323558  -0.3642396 SPIN=   0.00000
   S  -0.4639814  -0.2906357  -0.2919182 SPIN=   0.00000
   F   0.0358587   0.4934581   0.4977496 SPIN=   0.00000
   F  -0.0358587  -0.0065419  -0.4977496 SPIN=   0.00000
   F  -0.0358587   0.4934581  -0.0022504 SPIN=   0.00000
   F   0.0358587  -0.0065419   0.0022504 SPIN=   0.00000
%ENDBLOCK POSITIONS_FRAC

# Note: total spin =  16.00

KPOINTS_MP_SPACING 0.07

%BLOCK SPECIES_POT
QC5
%ENDBLOCK SPECIES_POT

SNAP_TO_SYMMETRY
SYMMETRY_GENERATE

