#              Generated by Buildcell
#
# at 12:57:43 (GMT+1.0) 18th August 2020
# in /scratch/scratch/uccabz1/launch_tmp
# on node-k10c-033
# by uccabz1
#
# compiler GCC version 4.9.2
# options -cpp -iprefix /scratch/UCL/applications/gcc/4.9.2/bin/../lib/gcc/x86_64-unknown-linux-gnu/4.9.2/ -mtune=corei7 -march=x86-64 -g -O2
#
# seed   915667183  -989689926  -429074521  1104651381  -290192753 -1883428570  2043956036  1291653232 -1350927054 -1051257928  -696658977   915511413
#
#      Author: C. J. Pickard (cjp20@cam.ac.uk)
#                Space group: Cc
#

%BLOCK LATTICE_ABC
      5.80778      8.62851      8.62851
     73.09191     78.16668     78.16668
%ENDBLOCK LATTICE_ABC

%BLOCK POSITIONS_FRAC
  Li  -0.2553725  -0.4063662  -0.1504602 SPIN=   0.00000
  Li   0.2446275  -0.1504602  -0.4063662 SPIN=   0.00000
  Li  -0.2979738   0.1377995  -0.1210740 SPIN=   0.00000
  Li   0.2020262  -0.1210740   0.1377995 SPIN=   0.00000
  Fe  -0.0534411  -0.4456597   0.3356026 SPIN=   4.85545
  Fe   0.4465589   0.3356026  -0.4456597 SPIN=   4.85545
  Fe   0.2049432   0.2849200  -0.0101725 SPIN=   3.14455
  Fe  -0.2950568  -0.0101725   0.2849200 SPIN=   3.14455
   O   0.0335199  -0.2934842  -0.2333005 SPIN=   0.00000
   O  -0.1116565  -0.3133616   0.0612102 SPIN=   0.00000
   O   0.2187111  -0.1586331  -0.0839587 SPIN=   0.00000
   O   0.2842985  -0.4613056  -0.0256332 SPIN=   0.00000
   S   0.1062183  -0.3066961  -0.0704206 SPIN=   0.00000
   O  -0.4664801  -0.2333005  -0.2934842 SPIN=   0.00000
   O  -0.6116565   0.0612102  -0.3133616 SPIN=   0.00000
   O  -0.2812889  -0.0839587  -0.1586331 SPIN=   0.00000
   O  -0.2157015  -0.0256332  -0.4613056 SPIN=   0.00000
   S  -0.3937817  -0.0704206  -0.3066961 SPIN=   0.00000
   O   0.3682345   0.0493437   0.4377587 SPIN=   0.00000
   O  -0.0314214   0.1653918   0.5576577 SPIN=   0.00000
   O   0.0173437   0.0681045   0.3081106 SPIN=   0.00000
   O   0.1702822   0.3202134   0.2935930 SPIN=   0.00000
   S   0.1311097   0.1507633   0.3992800 SPIN=   0.00000
   O  -0.1317655   0.4377587   0.0493437 SPIN=   0.00000
   O  -0.5314214   0.5576577   0.1653918 SPIN=   0.00000
   O  -0.4826563   0.3081106   0.0681045 SPIN=   0.00000
   O  -0.3297178   0.2935930   0.3202134 SPIN=   0.00000
   S  -0.3688903   0.3992800   0.1507633 SPIN=   0.00000
   F  -0.4828530   0.4482980  -0.2998915 SPIN=   0.00000
   F   0.0171470  -0.2998915   0.4482980 SPIN=   0.00000
   F  -0.4682452  -0.0911286   0.1607335 SPIN=   0.00000
   F   0.0317548   0.1607335  -0.0911286 SPIN=   0.00000
%ENDBLOCK POSITIONS_FRAC

# Note: total spin =  16.00

KPOINTS_MP_SPACING 0.07

%BLOCK SPECIES_POT
QC5
%ENDBLOCK SPECIES_POT

SNAP_TO_SYMMETRY
SYMMETRY_GENERATE

