#              Generated by Buildcell
#
# at 16:59:19 (GMT+1.0) 18th August 2020
# in /scratch/scratch/uccabz1/launch_tmp
# on node-k10b-033
# by uccabz1
#
# compiler GCC version 4.9.2
# options -cpp -iprefix /scratch/UCL/applications/gcc/4.9.2/bin/../lib/gcc/x86_64-unknown-linux-gnu/4.9.2/ -mtune=corei7 -march=x86-64 -g -O2
#
# seed -1180977519  -912180800   952848633  -139238356  1203267571   759609952   348969900 -1358431433  1901409174   437118279  1475436195   -98675928
#
#      Author: C. J. Pickard (cjp20@cam.ac.uk)
#                Space group: P-1
#

%BLOCK LATTICE_ABC
      6.64730      8.37943      8.48239
     62.86382     75.86806     73.81553
%ENDBLOCK LATTICE_ABC

%BLOCK POSITIONS_FRAC
  Li  -0.2030664   0.4434315  -0.3098323 SPIN=   0.00000
  Li   0.2030664  -0.4434315   0.3098323 SPIN=   0.00000
  Li  -0.1449585   0.2685690   0.1537527 SPIN=   0.00000
  Li   0.1449585  -0.2685690  -0.1537527 SPIN=   0.00000
  Fe  -0.2172408  -0.1317710  -0.3780927 SPIN=   4.51181
  Fe   0.2172408   0.1317710   0.3780927 SPIN=   4.51181
  Fe  -0.1808602  -0.1406280   0.1747257 SPIN=   3.48819
  Fe   0.1808602   0.1406280  -0.1747257 SPIN=   3.48819
   O   0.3899441  -0.3607001  -0.0042726 SPIN=   0.00000
   O   0.5445572  -0.0817382  -0.1606973 SPIN=   0.00000
   O   0.7019516  -0.3453482   0.0948953 SPIN=   0.00000
   O   0.3525882  -0.1590344   0.1461947 SPIN=   0.00000
   S   0.4972603  -0.2367052   0.0190300 SPIN=   0.00000
   O  -0.3899441   0.3607001   0.0042726 SPIN=   0.00000
   O  -0.5445572   0.0817382   0.1606973 SPIN=   0.00000
   O  -0.7019516   0.3453482  -0.0948953 SPIN=   0.00000
   O  -0.3525882   0.1590344  -0.1461947 SPIN=   0.00000
   S  -0.4972603   0.2367052  -0.0190300 SPIN=   0.00000
   O  -0.2170231   0.2380497   0.4906348 SPIN=   0.00000
   O  -0.5892934   0.2124467   0.6194016 SPIN=   0.00000
   O  -0.4523638   0.2144742   0.3198474 SPIN=   0.00000
   O  -0.5065512   0.4969033   0.3634280 SPIN=   0.00000
   S  -0.4413078   0.2904685   0.4483279 SPIN=   0.00000
   O   0.2170231  -0.2380497  -0.4906348 SPIN=   0.00000
   O   0.5892934  -0.2124467  -0.6194016 SPIN=   0.00000
   O   0.4523638  -0.2144742  -0.3198474 SPIN=   0.00000
   O   0.5065512  -0.4969033  -0.3634280 SPIN=   0.00000
   S   0.4413078  -0.2904685  -0.4483279 SPIN=   0.00000
   F   0.0492447  -0.0145784  -0.2531727 SPIN=   0.00000
   F  -0.0492447   0.0145784   0.2531727 SPIN=   0.00000
   F  -0.0811459  -0.4357230  -0.2289545 SPIN=   0.00000
   F   0.0811459   0.4357230   0.2289545 SPIN=   0.00000
%ENDBLOCK POSITIONS_FRAC

# Note: total spin =  16.00

KPOINTS_MP_SPACING 0.07

%BLOCK SPECIES_POT
QC5
%ENDBLOCK SPECIES_POT

SNAP_TO_SYMMETRY
SYMMETRY_GENERATE

