#              Generated by Buildcell
#
# at 06:22:44 (GMT+1.0) 4th August 2020
# in /lustre/scratch/uccabz1/launch_tmp
# on node-c12m-020
# by uccabz1
#
# compiler GCC version 4.9.2
# options -cpp -iprefix /lustre/shared/ucl/apps/gcc/4.9.2/bin/../lib/gcc/x86_64-unknown-linux-gnu/4.9.2/ -mtune=corei7 -march=x86-64 -g -Og
#
# seed  1360628704 -1356568569 -1473749764  1630146338  -217093625   279028397   937116095    65191367 -2005288735 -2124863586  -828198832 -1039776737
#
#      Author: C. J. Pickard (cjp20@cam.ac.uk)
#                Space group: Pna21
#

%BLOCK LATTICE_ABC
      4.00631      6.92305     14.42177
     90.00000     90.00000     90.00000
%ENDBLOCK LATTICE_ABC

%BLOCK POSITIONS_FRAC
  Li   0.1753843  -0.0204434  -0.1118683 SPIN=   0.00000
  Li  -0.1753843   0.0204434   0.3881317 SPIN=   0.00000
  Li  -0.3246157  -0.4795566  -0.1118683 SPIN=   0.00000
  Li   0.3246157   0.4795566   0.3881317 SPIN=   0.00000
  Fe   0.3413265   0.4836554  -0.2948433 SPIN=   4.00000
  Fe  -0.3413265  -0.4836554   0.2051567 SPIN=   4.00000
  Fe  -0.1586735   0.0163446  -0.2948433 SPIN=   4.00000
  Fe   0.1586735  -0.0163446   0.2051567 SPIN=   4.00000
   O  -0.1941689  -0.1563711  -0.0387679 SPIN=   0.00000
   O  -0.0585708   0.0861676   0.0815415 SPIN=   0.00000
   O  -0.5720520  -0.1105286   0.0951911 SPIN=   0.00000
   O  -0.5310264   0.1420491  -0.0257139 SPIN=   0.00000
   S  -0.3389545  -0.0096708   0.0280627 SPIN=   0.00000
   O   0.1941689   0.1563711  -0.5387679 SPIN=   0.00000
   O   0.0585708  -0.0861676  -0.4184585 SPIN=   0.00000
   O   0.5720520   0.1105286  -0.4048089 SPIN=   0.00000
   O   0.5310264  -0.1420491  -0.5257139 SPIN=   0.00000
   S   0.3389545   0.0096708  -0.4719373 SPIN=   0.00000
   O   0.3058311  -0.3436289  -0.0387679 SPIN=   0.00000
   O   0.4414292  -0.5861676   0.0815415 SPIN=   0.00000
   O  -0.0720520  -0.3894714   0.0951911 SPIN=   0.00000
   O  -0.0310264  -0.6420491  -0.0257139 SPIN=   0.00000
   S   0.1610455  -0.4903292   0.0280627 SPIN=   0.00000
   O  -0.3058311   0.3436289  -0.5387679 SPIN=   0.00000
   O  -0.4414292   0.5861676  -0.4184585 SPIN=   0.00000
   O   0.0720520   0.3894714  -0.4048089 SPIN=   0.00000
   O   0.0310264   0.6420491  -0.5257139 SPIN=   0.00000
   S  -0.1610455   0.4903292  -0.4719373 SPIN=   0.00000
   F   0.3718811   0.0000042  -0.2269875 SPIN=   0.00000
   F  -0.3718811  -0.0000042   0.2730125 SPIN=   0.00000
   F  -0.1281189   0.4999958  -0.2269875 SPIN=   0.00000
   F   0.1281189  -0.4999958   0.2730125 SPIN=   0.00000
%ENDBLOCK POSITIONS_FRAC

# Note: total spin =  16.00

KPOINTS_MP_SPACING 0.07

%BLOCK SPECIES_POT
QC5
%ENDBLOCK SPECIES_POT

SNAP_TO_SYMMETRY
SYMMETRY_GENERATE

