#              Generated by Buildcell
#
# at 09:07:06 (GMT+1.0) 18th August 2020
# in /scratch/scratch/uccabz1/launch_tmp
# on node-k10a-012
# by uccabz1
#
# compiler GCC version 4.9.2
# options -cpp -iprefix /scratch/UCL/applications/gcc/4.9.2/bin/../lib/gcc/x86_64-unknown-linux-gnu/4.9.2/ -mtune=corei7 -march=x86-64 -g -O2
#
# seed -1821844473    88440570 -1903961808   126172965  1867506330  -811314303  1795338133   724743657  1779070825 -1229932128   471080070  1512589358
#
#      Author: C. J. Pickard (cjp20@cam.ac.uk)
#                Space group: P2
#

%BLOCK LATTICE_ABC
      6.00088      8.13507      8.24162
     90.00000     90.00000     96.17665
%ENDBLOCK LATTICE_ABC

%BLOCK POSITIONS_FRAC
  Li   0.2714192  -0.3594663   0.1912891 SPIN=   0.00000
  Li  -0.2714192   0.3594663   0.1912891 SPIN=   0.00000
  Li   0.1754778   0.3190807  -0.1400827 SPIN=   0.00000
  Li  -0.1754778  -0.3190807  -0.1400827 SPIN=   0.00000
  Fe   0.2693373   0.1269549   0.1481565 SPIN=   4.73741
  Fe  -0.2693373  -0.1269549   0.1481565 SPIN=   4.73741
  Fe   0.2325695   0.3755553  -0.4895642 SPIN=   3.26259
  Fe  -0.2325695  -0.3755553  -0.4895642 SPIN=   3.26259
   O   0.1921125  -0.1340595  -0.2513562 SPIN=   0.00000
   O   0.4914255  -0.1459743  -0.0464458 SPIN=   0.00000
   O   0.1925022  -0.3788905  -0.0731519 SPIN=   0.00000
   O   0.1044224  -0.1118988   0.0407367 SPIN=   0.00000
   S   0.2451156  -0.1927058  -0.0825543 SPIN=   0.00000
   O  -0.1921125   0.1340595  -0.2513562 SPIN=   0.00000
   O  -0.4914255   0.1459743  -0.0464458 SPIN=   0.00000
   O  -0.1925022   0.3788905  -0.0731519 SPIN=   0.00000
   O  -0.1044224   0.1118988   0.0407367 SPIN=   0.00000
   S  -0.2451156   0.1927058  -0.0825543 SPIN=   0.00000
   O   0.2747436  -0.3347593   0.5229027 SPIN=   0.00000
   O   0.0071969  -0.1654217   0.3914522 SPIN=   0.00000
   O   0.4038233  -0.1394465   0.3036479 SPIN=   0.00000
   S   0.2472714  -0.1681918   0.4475673 SPIN=   0.00000
   O  -0.2747436   0.3347593   0.5229027 SPIN=   0.00000
   O  -0.0071969   0.1654217   0.3914522 SPIN=   0.00000
   O  -0.4038233   0.1394465   0.3036479 SPIN=   0.00000
   S  -0.2472714   0.1681918   0.4475673 SPIN=   0.00000
   O   0.0000000  -0.5000000  -0.3050260 SPIN=   0.00000
   O   0.5000000  -0.5000000   0.3934052 SPIN=   0.00000
   F  -0.2567699  -0.1988552  -0.3155157 SPIN=   0.00000
   F   0.2567699   0.1988552  -0.3155157 SPIN=   0.00000
   F   0.2312037   0.3739698   0.1455478 SPIN=   0.00000
   F  -0.2312037  -0.3739698   0.1455478 SPIN=   0.00000
%ENDBLOCK POSITIONS_FRAC

# Note: total spin =  16.00

KPOINTS_MP_SPACING 0.07

%BLOCK SPECIES_POT
QC5
%ENDBLOCK SPECIES_POT

SNAP_TO_SYMMETRY
SYMMETRY_GENERATE

