#              Generated by Buildcell
#
# at 07:49:13 (GMT+1.0) 4th August 2020
# in /lustre/scratch/uccabz1/launch_tmp
# on node-c12p-018
# by uccabz1
#
# compiler GCC version 4.9.2
# options -cpp -iprefix /lustre/shared/ucl/apps/gcc/4.9.2/bin/../lib/gcc/x86_64-unknown-linux-gnu/4.9.2/ -mtune=corei7 -march=x86-64 -g -Og
#
# seed  1445756044 -2128839784  1052151359  -517396342 -1547082888   318530050  1102402716   601203396 -1844078060  1437970679   754487595 -2112247703
#
#      Author: C. J. Pickard (cjp20@cam.ac.uk)
#                Space group: Iba2
#

%BLOCK LATTICE_ABC
      7.65895      7.66800      8.70366
    116.13608    116.10289     90.00000
%ENDBLOCK LATTICE_ABC

%BLOCK POSITIONS_FRAC
  Li  -0.0031250   0.1923687  -0.4883164 SPIN=   0.00000
  Li  -0.4851914   0.3193148  -0.4883164 SPIN=   0.00000
  Li   0.4968750  -0.1806852  -0.4883164 SPIN=   0.00000
  Li   0.0148086  -0.3076313  -0.4883164 SPIN=   0.00000
  Fe   0.3082190  -0.3937195   0.0867836 SPIN=   4.00000
  Fe  -0.2214354   0.4805031   0.0867836 SPIN=   4.00000
  Fe  -0.1917810  -0.0194969   0.0867836 SPIN=   4.00000
  Fe   0.2785646   0.1062805   0.0867836 SPIN=   4.00000
   O   0.0403861  -0.1681290  -0.0831136 SPIN=   0.00000
   O  -0.2480528  -0.3557736  -0.4197338 SPIN=   0.00000
   O  -0.2071865  -0.4493991  -0.1697323 SPIN=   0.00000
   O   0.0249852  -0.5161265  -0.3051205 SPIN=   0.00000
   S  -0.0974670  -0.3723570  -0.2444250 SPIN=   0.00000
   O  -0.1234997   0.0850154  -0.0831136 SPIN=   0.00000
   O  -0.1716811  -0.0639603  -0.4197338 SPIN=   0.00000
   O   0.0374542   0.2796669  -0.1697323 SPIN=   0.00000
   O  -0.3301056   0.2110060  -0.3051205 SPIN=   0.00000
   S  -0.1469581   0.1279320  -0.2444250 SPIN=   0.00000
   O   0.5403861  -0.4149846  -0.0831136 SPIN=   0.00000
   O   0.2519472  -0.5639603  -0.4197338 SPIN=   0.00000
   O   0.2928135  -0.2203331  -0.1697323 SPIN=   0.00000
   O   0.5249852  -0.2889940  -0.3051205 SPIN=   0.00000
   S   0.4025330  -0.3720680  -0.2444250 SPIN=   0.00000
   O   0.3765003   0.3318710  -0.0831136 SPIN=   0.00000
   O   0.3283189   0.1442264  -0.4197338 SPIN=   0.00000
   O   0.5374542   0.0506009  -0.1697323 SPIN=   0.00000
   O   0.1698944  -0.0161265  -0.3051205 SPIN=   0.00000
   S   0.3530419   0.1276430  -0.2444250 SPIN=   0.00000
   F   0.4301979  -0.0550398   0.2435217 SPIN=   0.00000
   F  -0.1866761   0.2985616   0.2435217 SPIN=   0.00000
   F  -0.0698021  -0.2014384   0.2435217 SPIN=   0.00000
   F   0.3133239   0.4449602   0.2435217 SPIN=   0.00000
%ENDBLOCK POSITIONS_FRAC

# Note: total spin =  16.00

KPOINTS_MP_SPACING 0.07

%BLOCK SPECIES_POT
QC5
%ENDBLOCK SPECIES_POT

SNAP_TO_SYMMETRY
SYMMETRY_GENERATE

