#              Generated by Buildcell
#
# at 23:04:02 (GMT+1.0) 17th August 2020
# in /lustre/scratch/uccabz1/launch_tmp
# on node-c12b-022
# by uccabz1
#
# compiler GCC version 4.9.2
# options -cpp -iprefix /lustre/shared/ucl/apps/gcc/4.9.2/bin/../lib/gcc/x86_64-unknown-linux-gnu/4.9.2/ -mtune=corei7 -march=x86-64 -g -Og
#
# seed  -562730717  -488181047 -1332807601   421344502 -1553318113 -1484155262   -69067349 -1048819975  -180964625 -1804075103  -511000484  1562351973
#
#      Author: C. J. Pickard (cjp20@cam.ac.uk)
#                Space group: Pna21
#

%BLOCK LATTICE_ABC
      4.28351      8.09686     11.53304
     90.00000     90.00000     90.00000
%ENDBLOCK LATTICE_ABC

%BLOCK POSITIONS_FRAC
  Li  -0.2653670  -0.1549338   0.2335149 SPIN=   0.00000
  Li   0.2653670   0.1549338  -0.2664851 SPIN=   0.00000
  Li  -0.2346330   0.3450662   0.2335149 SPIN=   0.00000
  Li   0.2346330  -0.3450662  -0.2664851 SPIN=   0.00000
  Fe   0.1535086   0.1297252   0.0895841 SPIN=   4.00000
  Fe  -0.1535086  -0.1297252  -0.4104159 SPIN=   4.00000
  Fe   0.3464914  -0.3702748   0.0895841 SPIN=   4.00000
  Fe  -0.3464914   0.3702748  -0.4104159 SPIN=   4.00000
   O  -0.0441629  -0.2594702   0.0242837 SPIN=   0.00000
   O  -0.2836878  -0.0038847  -0.0527705 SPIN=   0.00000
   O  -0.4055509  -0.2737160  -0.1428473 SPIN=   0.00000
   O   0.1194007  -0.1507004  -0.1668368 SPIN=   0.00000
   S  -0.1535002  -0.1719428  -0.0845427 SPIN=   0.00000
   O   0.0441629   0.2594702   0.5242837 SPIN=   0.00000
   O   0.2836878   0.0038847   0.4472295 SPIN=   0.00000
   O   0.4055509   0.2737160   0.3571527 SPIN=   0.00000
   O  -0.1194007   0.1507004   0.3331632 SPIN=   0.00000
   S   0.1535002   0.1719428   0.4154573 SPIN=   0.00000
   O  -0.4558371   0.2405298   0.0242837 SPIN=   0.00000
   O  -0.2163122   0.4961153  -0.0527705 SPIN=   0.00000
   O  -0.0944491   0.2262840  -0.1428473 SPIN=   0.00000
   O  -0.6194007   0.3492996  -0.1668368 SPIN=   0.00000
   S  -0.3464998   0.3280572  -0.0845427 SPIN=   0.00000
   O   0.4558371  -0.2405298   0.5242837 SPIN=   0.00000
   O   0.2163122  -0.4961153   0.4472295 SPIN=   0.00000
   O   0.0944491  -0.2262840   0.3571527 SPIN=   0.00000
   O   0.6194007  -0.3492996   0.3331632 SPIN=   0.00000
   S   0.3464998  -0.3280572   0.4154573 SPIN=   0.00000
   F   0.1321958   0.4346740   0.1623189 SPIN=   0.00000
   F  -0.1321958  -0.4346740  -0.3376811 SPIN=   0.00000
   F   0.3678042  -0.0653260   0.1623189 SPIN=   0.00000
   F  -0.3678042   0.0653260  -0.3376811 SPIN=   0.00000
%ENDBLOCK POSITIONS_FRAC

# Note: total spin =  16.00

KPOINTS_MP_SPACING 0.07

%BLOCK SPECIES_POT
QC5
%ENDBLOCK SPECIES_POT

SNAP_TO_SYMMETRY
SYMMETRY_GENERATE

