#              Generated by Buildcell
#
# at 10:42:12 (GMT+1.0) 4th August 2020
# in /lustre/scratch/uccabz1/launch_tmp
# on node-c12n-031
# by uccabz1
#
# compiler GCC version 4.9.2
# options -cpp -iprefix /lustre/shared/ucl/apps/gcc/4.9.2/bin/../lib/gcc/x86_64-unknown-linux-gnu/4.9.2/ -mtune=corei7 -march=x86-64 -g -Og
#
# seed   973862878  1313200083 -1275386974  -377309096  -806214609  -933022579   546492979  -923729060  2034290410  -324801961  -113041482 -1291766042
#
#      Author: C. J. Pickard (cjp20@cam.ac.uk)
#                Space group: Pc
#

%BLOCK LATTICE_ABC
      4.57934      6.82485     12.81129
     90.00000     92.54705     90.00000
%ENDBLOCK LATTICE_ABC

%BLOCK POSITIONS_FRAC
  Li   0.0263518  -0.3283193  -0.4211201 SPIN=   0.00000
  Li   0.0263518   0.3283193   0.0788799 SPIN=   0.00000
  Li  -0.4601158   0.2761993  -0.2882124 SPIN=   0.00000
  Li  -0.4601158  -0.2761993   0.2117876 SPIN=   0.00000
  Fe  -0.4431010   0.2955581   0.2517559 SPIN=   3.51605
  Fe  -0.4431010  -0.2955581  -0.2482441 SPIN=   3.51605
  Fe   0.0536732   0.1432012  -0.1617333 SPIN=   4.48395
  Fe   0.0536732  -0.1432012   0.3382667 SPIN=   4.48395
   O   0.2595422  -0.0903064  -0.3168891 SPIN=   0.00000
   O  -0.0207489   0.1986020  -0.3814460 SPIN=   0.00000
   O   0.0795611  -0.0745927  -0.5017301 SPIN=   0.00000
   O   0.4820418   0.1427159  -0.4382372 SPIN=   0.00000
   S   0.2000991   0.0441047  -0.4095756 SPIN=   0.00000
   O   0.2595422   0.0903064   0.1831109 SPIN=   0.00000
   O  -0.0207489  -0.1986020   0.1185540 SPIN=   0.00000
   O   0.0795611   0.0745927  -0.0017301 SPIN=   0.00000
   O   0.4820418  -0.1427159   0.0617628 SPIN=   0.00000
   S   0.2000991  -0.0441047   0.0904244 SPIN=   0.00000
   O   0.5856587  -0.3091361   0.5585648 SPIN=   0.00000
   O   0.2204445  -0.5675523   0.5159036 SPIN=   0.00000
   O   0.7266874  -0.6016027   0.4582998 SPIN=   0.00000
   O   0.3965568  -0.3532854   0.3761030 SPIN=   0.00000
   S   0.4823369  -0.4578941   0.4772178 SPIN=   0.00000
   O   0.5856587   0.3091361   0.0585648 SPIN=   0.00000
   O   0.2204445   0.5675523   0.0159036 SPIN=   0.00000
   O   0.7266874   0.6016027  -0.0417002 SPIN=   0.00000
   O   0.3965568   0.3532854  -0.1238970 SPIN=   0.00000
   S   0.4823369   0.4578941  -0.0227822 SPIN=   0.00000
   F  -0.3685588  -0.0186863  -0.1498474 SPIN=   0.00000
   F  -0.3685588   0.0186863   0.3501526 SPIN=   0.00000
   F   0.0752839  -0.4605749  -0.2768463 SPIN=   0.00000
   F   0.0752839   0.4605749   0.2231537 SPIN=   0.00000
%ENDBLOCK POSITIONS_FRAC

# Note: total spin =  16.00

KPOINTS_MP_SPACING 0.07

%BLOCK SPECIES_POT
QC5
%ENDBLOCK SPECIES_POT

SNAP_TO_SYMMETRY
SYMMETRY_GENERATE

