#              Generated by Buildcell
#
# at 06:51:49 (GMT+1.0) 4th August 2020
# in /lustre/scratch/uccabz1/launch_tmp
# on node-c12c-017
# by uccabz1
#
# compiler GCC version 4.9.2
# options -cpp -iprefix /lustre/shared/ucl/apps/gcc/4.9.2/bin/../lib/gcc/x86_64-unknown-linux-gnu/4.9.2/ -mtune=corei7 -march=x86-64 -g -Og
#
# seed  2012313929  -773360297  1229889966   467943288  2042368372  1956312728  1106937681 -1148989478 -1375961162   656394498   690479490  1598112698
#
#      Author: C. J. Pickard (cjp20@cam.ac.uk)
#                Space group: C2
#

%BLOCK LATTICE_ABC
      4.93935      4.93935     16.47187
     92.01291     92.01291     94.66005
%ENDBLOCK LATTICE_ABC

%BLOCK POSITIONS_FRAC
  Li  -0.8078396  -0.8839511  -0.4013073 SPIN=   0.00000
  Li   0.8839511   0.8078396   0.4013073 SPIN=   0.00000
  Li   0.0340661   0.0345834  -0.1595321 SPIN=   0.00000
  Li  -0.0345834  -0.0340661   0.1595321 SPIN=   0.00000
  Fe  -0.1820953   0.4626057   0.2490232 SPIN=   4.41632
  Fe  -0.4626057   0.1820953  -0.2490232 SPIN=   4.41632
  Fe   0.2076685   0.3398057   0.4338573 SPIN=   3.58368
  Fe  -0.3398057  -0.2076685  -0.4338573 SPIN=   3.58368
   O   0.4538821  -0.2835194  -0.3111759 SPIN=   0.00000
   O   0.1118549  -0.6706719  -0.2949490 SPIN=   0.00000
   O   0.0547268  -0.3561274  -0.4068217 SPIN=   0.00000
   O  -0.0040644  -0.2005642  -0.2645396 SPIN=   0.00000
   S   0.1540998  -0.3777207  -0.3193716 SPIN=   0.00000
   O   0.2835194  -0.4538821   0.3111759 SPIN=   0.00000
   O   0.6706719  -0.1118549   0.2949490 SPIN=   0.00000
   O   0.3561274  -0.0547268   0.4068217 SPIN=   0.00000
   O   0.2005642   0.0040644   0.2645396 SPIN=   0.00000
   S   0.3777207  -0.1540998   0.3193716 SPIN=   0.00000
   O   0.5061286   0.4367601   0.0701978 SPIN=   0.00000
   O   0.6810045  -0.0011311   0.0290656 SPIN=   0.00000
   O   0.1956879   0.0167125   0.0597057 SPIN=   0.00000
   O   0.5482396   0.0804551   0.1707698 SPIN=   0.00000
   S   0.4827652   0.1331991   0.0824347 SPIN=   0.00000
   O  -0.4367601  -0.5061286  -0.0701978 SPIN=   0.00000
   O   0.0011311  -0.6810045  -0.0290656 SPIN=   0.00000
   O  -0.0167125  -0.1956879  -0.0597057 SPIN=   0.00000
   O  -0.0804551  -0.5482396  -0.1707698 SPIN=   0.00000
   S  -0.1331991  -0.4827652  -0.0824347 SPIN=   0.00000
   F   0.0254139   0.5577374   0.1525238 SPIN=   0.00000
   F  -0.5577374  -0.0254139  -0.1525238 SPIN=   0.00000
   F  -0.3748752  -0.8072581  -0.3977712 SPIN=   0.00000
   F   0.8072581   0.3748752   0.3977712 SPIN=   0.00000
%ENDBLOCK POSITIONS_FRAC

# Note: total spin =  16.00

KPOINTS_MP_SPACING 0.07

%BLOCK SPECIES_POT
QC5
%ENDBLOCK SPECIES_POT

SNAP_TO_SYMMETRY
SYMMETRY_GENERATE

