#              Generated by Buildcell
#
# at 13:20:24 (GMT+1.0) 18th August 2020
# in /lustre/scratch/uccabz1/launch_tmp
# on node-c12o-008
# by uccabz1
#
# compiler GCC version 4.9.2
# options -cpp -iprefix /lustre/shared/ucl/apps/gcc/4.9.2/bin/../lib/gcc/x86_64-unknown-linux-gnu/4.9.2/ -mtune=corei7 -march=x86-64 -g -Og
#
# seed  -167728377 -2091983956  -426594952   170717438 -1660988239    31246488    56821753 -1768213685  -510667009  1682798686   574188881    -7389617
#
#      Author: C. J. Pickard (cjp20@cam.ac.uk)
#                Space group: Pc
#

%BLOCK LATTICE_ABC
      6.93816      7.36918      8.13179
     90.00000    105.82907     90.00000
%ENDBLOCK LATTICE_ABC

%BLOCK POSITIONS_FRAC
  Li   0.3604435  -0.3246731  -0.4919925 SPIN=   0.00000
  Li   0.3604435   0.3246731   0.0080075 SPIN=   0.00000
  Li  -0.2273830   0.2596920   0.4262122 SPIN=   0.00000
  Li  -0.2273830  -0.2596920  -0.0737878 SPIN=   0.00000
  Fe   0.4266228   0.0219638   0.2602374 SPIN=   0.93501
  Fe   0.4266228  -0.0219638  -0.2397626 SPIN=   0.93501
  Fe   0.0184777   0.4619188  -0.2716517 SPIN=   7.06499
  Fe   0.0184777  -0.4619188   0.2283483 SPIN=   7.06499
   O  -0.5438159   0.3564377  -0.2060683 SPIN=   0.00000
   O  -0.3353204   0.5455441  -0.3418469 SPIN=   0.00000
   O  -0.6146451   0.3642995  -0.5212079 SPIN=   0.00000
   O  -0.3097313   0.2107368  -0.3472186 SPIN=   0.00000
   S  -0.4508782   0.3692545  -0.3540854 SPIN=   0.00000
   O  -0.5438159  -0.3564377   0.2939317 SPIN=   0.00000
   O  -0.3353204  -0.5455441   0.1581531 SPIN=   0.00000
   O  -0.6146451  -0.3642995  -0.0212079 SPIN=   0.00000
   O  -0.3097313  -0.2107368   0.1527814 SPIN=   0.00000
   S  -0.4508782  -0.3692545   0.1459146 SPIN=   0.00000
   O  -0.2854568   0.1809758  -0.0670523 SPIN=   0.00000
   O  -0.2866866   0.0848527   0.2242731 SPIN=   0.00000
   O   0.0037779   0.2525687   0.1792812 SPIN=   0.00000
   O  -0.0592052  -0.0644915   0.0786159 SPIN=   0.00000
   S  -0.1568927   0.1134764   0.1037795 SPIN=   0.00000
   O  -0.2854568  -0.1809758  -0.5670523 SPIN=   0.00000
   O  -0.2866866  -0.0848527  -0.2757269 SPIN=   0.00000
   O   0.0037779  -0.2525687  -0.3207188 SPIN=   0.00000
   O  -0.0592052   0.0644915  -0.4213841 SPIN=   0.00000
   S  -0.1568927  -0.1134764  -0.3962205 SPIN=   0.00000
   F  -0.0052906   0.4317115   0.4757367 SPIN=   0.00000
   F  -0.0052906  -0.4317115  -0.0242633 SPIN=   0.00000
   F   0.2864270  -0.0819550   0.4264086 SPIN=   0.00000
   F   0.2864270   0.0819550  -0.0735914 SPIN=   0.00000
%ENDBLOCK POSITIONS_FRAC

# Note: total spin =  16.00

KPOINTS_MP_SPACING 0.07

%BLOCK SPECIES_POT
QC5
%ENDBLOCK SPECIES_POT

SNAP_TO_SYMMETRY
SYMMETRY_GENERATE

