#              Generated by Buildcell
#
# at 17:25:06 (GMT+1.0) 18th August 2020
# in /lustre/scratch/uccabz1/launch_tmp
# on node-c12c-010
# by uccabz1
#
# compiler GCC version 4.9.2
# options -cpp -iprefix /lustre/shared/ucl/apps/gcc/4.9.2/bin/../lib/gcc/x86_64-unknown-linux-gnu/4.9.2/ -mtune=corei7 -march=x86-64 -g -Og
#
# seed -1280932777  -423129284  1793462529  1890618365  -764308260  1770851864 -1661385512 -1005002362   317589346 -1567502950 -1506721711  -268327817
#
#      Author: C. J. Pickard (cjp20@cam.ac.uk)
#                Space group: P21212
#

%BLOCK LATTICE_ABC
      4.26425      6.15441     15.24162
     90.00000     90.00000     90.00000
%ENDBLOCK LATTICE_ABC

%BLOCK POSITIONS_FRAC
  Li   0.2734351  -0.3712200  -0.2540611 SPIN=   0.00000
  Li   0.2734351   0.3712200   0.2540611 SPIN=   0.00000
  Li  -0.2734351  -0.1287800   0.2459389 SPIN=   0.00000
  Li  -0.2734351   0.1287800  -0.2459389 SPIN=   0.00000
  Fe   0.0035216  -0.2500012  -0.4281143 SPIN=   4.00000
  Fe   0.0035216   0.2500012   0.4281143 SPIN=   4.00000
  Fe  -0.0035216  -0.2499988   0.0718857 SPIN=   4.00000
  Fe  -0.0035216   0.2499988  -0.0718857 SPIN=   4.00000
   O  -0.0758362  -0.4863025  -0.1736594 SPIN=   0.00000
   O  -0.2965493  -0.2957296  -0.0446969 SPIN=   0.00000
   O  -0.4146172  -0.1638976  -0.1945005 SPIN=   0.00000
   O   0.1193756  -0.1210359  -0.1332920 SPIN=   0.00000
   S  -0.1669068  -0.2667414  -0.1365372 SPIN=   0.00000
   O  -0.0758362   0.4863025   0.1736594 SPIN=   0.00000
   O  -0.2965493   0.2957296   0.0446969 SPIN=   0.00000
   O  -0.4146172   0.1638976   0.1945005 SPIN=   0.00000
   O   0.1193756   0.1210359   0.1332920 SPIN=   0.00000
   S  -0.1669068   0.2667414   0.1365372 SPIN=   0.00000
   O   0.0758362  -0.0136975   0.3263406 SPIN=   0.00000
   O   0.2965493  -0.2042704   0.4553031 SPIN=   0.00000
   O   0.4146172  -0.3361024   0.3054995 SPIN=   0.00000
   O  -0.1193756  -0.3789641   0.3667080 SPIN=   0.00000
   S   0.1669068  -0.2332586   0.3634628 SPIN=   0.00000
   O   0.0758362   0.0136975  -0.3263406 SPIN=   0.00000
   O   0.2965493   0.2042704  -0.4553031 SPIN=   0.00000
   O   0.4146172   0.3361024  -0.3054995 SPIN=   0.00000
   O  -0.1193756   0.3789641  -0.3667080 SPIN=   0.00000
   S   0.1669068   0.2332586  -0.3634628 SPIN=   0.00000
   F  -0.4628647  -0.2667423  -0.3956958 SPIN=   0.00000
   F  -0.4628647   0.2667423   0.3956958 SPIN=   0.00000
   F   0.4628647  -0.2332577   0.1043042 SPIN=   0.00000
   F   0.4628647   0.2332577  -0.1043042 SPIN=   0.00000
%ENDBLOCK POSITIONS_FRAC

# Note: total spin =  16.00

KPOINTS_MP_SPACING 0.07

%BLOCK SPECIES_POT
QC5
%ENDBLOCK SPECIES_POT

SNAP_TO_SYMMETRY
SYMMETRY_GENERATE

