#              Generated by Buildcell
#
# at 03:31:27 (GMT+1.0) 18th August 2020
# in /lustre/scratch/uccabz1/launch_tmp
# on node-c12b-025
# by uccabz1
#
# compiler GCC version 4.9.2
# options -cpp -iprefix /lustre/shared/ucl/apps/gcc/4.9.2/bin/../lib/gcc/x86_64-unknown-linux-gnu/4.9.2/ -mtune=corei7 -march=x86-64 -g -Og
#
# seed   491181550 -1487347702 -1955835688 -1470634422  -863521946  -402055853 -1803006975  -889845607 -1191609507  -629504432   843465068 -1363610645
#
#      Author: C. J. Pickard (cjp20@cam.ac.uk)
#                Space group: P2
#

%BLOCK LATTICE_ABC
      4.05184      7.45939     13.25450
     90.00000     93.15428     90.00000
%ENDBLOCK LATTICE_ABC

%BLOCK POSITIONS_FRAC
  Li   0.2718616  -0.0412938  -0.3790809 SPIN=   0.00000
  Li  -0.2718616  -0.0412938   0.3790809 SPIN=   0.00000
  Li  -0.2252882   0.1778362   0.1224213 SPIN=   0.00000
  Li   0.2252882   0.1778362  -0.1224213 SPIN=   0.00000
  Fe  -0.3048900   0.4675850  -0.1245429 SPIN=   1.15103
  Fe   0.3048900   0.4675850   0.1245429 SPIN=   1.15103
  Fe  -0.2351462  -0.3260920  -0.3799920 SPIN=   6.84897
  Fe   0.2351462  -0.3260920   0.3799920 SPIN=   6.84897
   O  -0.4861214   0.4384480   0.3795191 SPIN=   0.00000
   O  -0.0694242   0.4305778   0.2498995 SPIN=   0.00000
   O  -0.3832393   0.1564307   0.2880408 SPIN=   0.00000
   O   0.0389669   0.2739483   0.4129663 SPIN=   0.00000
   S  -0.2249545   0.3248512   0.3326064 SPIN=   0.00000
   O   0.4861214   0.4384480  -0.3795191 SPIN=   0.00000
   O   0.0694242   0.4305778  -0.2498995 SPIN=   0.00000
   O   0.3832393   0.1564307  -0.2880408 SPIN=   0.00000
   O  -0.0389669   0.2739483  -0.4129663 SPIN=   0.00000
   S   0.2249545   0.3248512  -0.3326064 SPIN=   0.00000
   O  -0.2739383  -0.3848708   0.1119326 SPIN=   0.00000
   O   0.1941797  -0.1796051   0.1530231 SPIN=   0.00000
   O  -0.3085206  -0.1646989   0.2506326 SPIN=   0.00000
   O  -0.3275074  -0.0613566   0.0729771 SPIN=   0.00000
   S  -0.1789467  -0.1976329   0.1471413 SPIN=   0.00000
   O   0.2739383  -0.3848708  -0.1119326 SPIN=   0.00000
   O  -0.1941797  -0.1796051  -0.1530231 SPIN=   0.00000
   O   0.3085206  -0.1646989  -0.2506326 SPIN=   0.00000
   O   0.3275074  -0.0613566  -0.0729771 SPIN=   0.00000
   S   0.1789467  -0.1976329  -0.1471413 SPIN=   0.00000
   F   0.2711845   0.2113623   0.1126738 SPIN=   0.00000
   F  -0.2711845   0.2113623  -0.1126738 SPIN=   0.00000
   F  -0.2294867  -0.0682591  -0.3870497 SPIN=   0.00000
   F   0.2294867  -0.0682591   0.3870497 SPIN=   0.00000
%ENDBLOCK POSITIONS_FRAC

# Note: total spin =  16.00

KPOINTS_MP_SPACING 0.07

%BLOCK SPECIES_POT
QC5
%ENDBLOCK SPECIES_POT

SNAP_TO_SYMMETRY
SYMMETRY_GENERATE

