#              Generated by Buildcell
#
# at 03:27:14 (GMT+1.0) 18th August 2020
# in /lustre/scratch/uccabz1/launch_tmp
# on node-c12a-021
# by uccabz1
#
# compiler GCC version 4.9.2
# options -cpp -iprefix /lustre/shared/ucl/apps/gcc/4.9.2/bin/../lib/gcc/x86_64-unknown-linux-gnu/4.9.2/ -mtune=corei7 -march=x86-64 -g -Og
#
# seed  -611093084   491635817   831332818 -2133293921  1004618319 -1079973896 -1151672733  1373740015  -507232525   -76805193  1492116099 -1755776004
#
#      Author: C. J. Pickard (cjp20@cam.ac.uk)
#                Space group: Pba2
#

%BLOCK LATTICE_ABC
      4.10420      5.65452     17.23600
     90.00000     90.00000     90.00000
%ENDBLOCK LATTICE_ABC

%BLOCK POSITIONS_FRAC
  Li   0.0049614   0.4618245  -0.1751089 SPIN=   0.00000
  Li   0.0049614  -0.4618245   0.1751089 SPIN=   0.00000
  Li   0.0049614  -0.0381755  -0.3248911 SPIN=   0.00000
  Li   0.0049614   0.0381755   0.3248911 SPIN=   0.00000
  Fe  -0.4950311   0.2500657   0.4315811 SPIN=   4.00000
  Fe  -0.4950311  -0.2500657  -0.4315811 SPIN=   4.00000
  Fe  -0.4950311  -0.2499343   0.0684189 SPIN=   4.00000
  Fe  -0.4950311   0.2499343  -0.0684189 SPIN=   4.00000
   O   0.3111290  -0.3135327   0.2634626 SPIN=   0.00000
   O   0.5377738   0.0036384   0.3463955 SPIN=   0.00000
   O   0.8302987  -0.3770585   0.3334645 SPIN=   0.00000
   O   0.3112210  -0.3585707   0.4062879 SPIN=   0.00000
   S   0.4976056  -0.2613808   0.3374026 SPIN=   0.00000
   O   0.3111290   0.3135327  -0.2634626 SPIN=   0.00000
   O   0.5377738  -0.0036384  -0.3463955 SPIN=   0.00000
   O   0.8302987   0.3770585  -0.3334645 SPIN=   0.00000
   O   0.3112210   0.3585707  -0.4062879 SPIN=   0.00000
   S   0.4976056   0.2613808  -0.3374026 SPIN=   0.00000
   O   0.3111290   0.1864673   0.2365374 SPIN=   0.00000
   O   0.5377738   0.5036384   0.1536045 SPIN=   0.00000
   O   0.8302987   0.1229415   0.1665355 SPIN=   0.00000
   O   0.3112210   0.1414293   0.0937121 SPIN=   0.00000
   S   0.4976056   0.2386192   0.1625974 SPIN=   0.00000
   O   0.3111290  -0.1864673  -0.2365374 SPIN=   0.00000
   O   0.5377738  -0.5036384  -0.1536045 SPIN=   0.00000
   O   0.8302987  -0.1229415  -0.1665355 SPIN=   0.00000
   O   0.3112210  -0.1414293  -0.0937121 SPIN=   0.00000
   S   0.4976056  -0.2386192  -0.1625974 SPIN=   0.00000
   F   0.0102154  -0.2585763   0.0862162 SPIN=   0.00000
   F   0.0102154   0.2585763  -0.0862162 SPIN=   0.00000
   F   0.0102154   0.2414237   0.4137838 SPIN=   0.00000
   F   0.0102154  -0.2414237  -0.4137838 SPIN=   0.00000
%ENDBLOCK POSITIONS_FRAC

# Note: total spin =  16.00

KPOINTS_MP_SPACING 0.07

%BLOCK SPECIES_POT
QC5
%ENDBLOCK SPECIES_POT

SNAP_TO_SYMMETRY
SYMMETRY_GENERATE

