#              Generated by Buildcell
#
# at 06:01:08 (GMT+1.0) 4th August 2020
# in /lustre/scratch/uccabz1/launch_tmp
# on node-c12f-032
# by uccabz1
#
# compiler GCC version 4.9.2
# options -cpp -iprefix /lustre/shared/ucl/apps/gcc/4.9.2/bin/../lib/gcc/x86_64-unknown-linux-gnu/4.9.2/ -mtune=corei7 -march=x86-64 -g -Og
#
# seed  -255527645 -1065156865  -538548318 -1762155886  -206731003   -55411116    84941841   824655400  -532109189  1772484844  1349333157   833324387
#
#      Author: C. J. Pickard (cjp20@cam.ac.uk)
#                Space group: Pm
#

%BLOCK LATTICE_ABC
      6.55598      7.37909      9.13910
     90.00000     90.00000    115.21393
%ENDBLOCK LATTICE_ABC

%BLOCK POSITIONS_FRAC
  Li  -0.4752117  -0.3315327   0.5000000 SPIN=   0.00000
  Li   0.2190075   0.1268042  -0.5000000 SPIN=   0.00000
  Li  -0.1818241   0.3385795  -0.5000000 SPIN=   0.00000
  Li  -0.3728916  -0.0006114   0.0000000 SPIN=   0.00000
  Fe   0.3107253  -0.1802934   0.2623904 SPIN=   3.53109
  Fe   0.3107253  -0.1802934  -0.2623904 SPIN=   3.53109
  Fe  -0.1834716  -0.3155176   0.0000000 SPIN=   0.89084
  Fe   0.1974732   0.3940298   0.0000000 SPIN=   8.04698
   O  -0.1534497   0.1214386   0.3750072 SPIN=   0.00000
   O   0.0118534   0.1555423   0.1274285 SPIN=   0.00000
   O  -0.3134103  -0.1583902   0.1983544 SPIN=   0.00000
   O   0.0617072  -0.0722592   0.3080353 SPIN=   0.00000
   S  -0.0983248   0.0115829   0.2522064 SPIN=   0.00000
   O  -0.1534497   0.1214386  -0.3750072 SPIN=   0.00000
   O   0.0118534   0.1555423  -0.1274285 SPIN=   0.00000
   O  -0.3134103  -0.1583902  -0.1983544 SPIN=   0.00000
   O   0.0617072  -0.0722592  -0.3080353 SPIN=   0.00000
   S  -0.0983248   0.0115829  -0.2522064 SPIN=   0.00000
   O  -0.2457981   0.2679607  -0.1864351 SPIN=   0.00000
   O  -0.4063097   0.5142567  -0.1545166 SPIN=   0.00000
   O  -0.6495984   0.1521420  -0.1251217 SPIN=   0.00000
   S  -0.4530084   0.3063536  -0.2091984 SPIN=   0.00000
   O  -0.2457981   0.2679607   0.1864351 SPIN=   0.00000
   O  -0.4063097   0.5142567   0.1545166 SPIN=   0.00000
   O  -0.6495984   0.1521420   0.1251217 SPIN=   0.00000
   S  -0.4530084   0.3063536   0.2091984 SPIN=   0.00000
   O  -0.0662000   0.4700936   0.0000000 SPIN=   0.00000
   O   0.1465206  -0.1251894   0.0000000 SPIN=   0.00000
   F   0.4454773  -0.0536441   0.5000000 SPIN=   0.00000
   F   0.2426703   0.4060105  -0.5000000 SPIN=   0.00000
   F  -0.1471656  -0.3758660  -0.5000000 SPIN=   0.00000
   F   0.3955555  -0.3067086   0.0000000 SPIN=   0.00000
%ENDBLOCK POSITIONS_FRAC

# Note: total spin =  16.00

KPOINTS_MP_SPACING 0.07

%BLOCK SPECIES_POT
QC5
%ENDBLOCK SPECIES_POT

SNAP_TO_SYMMETRY
SYMMETRY_GENERATE

