#              Generated by Buildcell
#
# at 08:22:43 (GMT+1.0) 4th August 2020
# in /lustre/scratch/uccabz1/launch_tmp
# on node-c12d-025
# by uccabz1
#
# compiler GCC version 4.9.2
# options -cpp -iprefix /lustre/shared/ucl/apps/gcc/4.9.2/bin/../lib/gcc/x86_64-unknown-linux-gnu/4.9.2/ -mtune=corei7 -march=x86-64 -g -Og
#
# seed  -614592225 -1511682639    38694906   468785328   157171356 -1688779898  1414366173  -205215721   897563692  1782476547  -201377393   641035651
#
#      Author: C. J. Pickard (cjp20@cam.ac.uk)
#                Space group: Cc
#

%BLOCK LATTICE_ABC
      4.93279      4.93279     16.77908
     95.14545     95.14545     98.46598
%ENDBLOCK LATTICE_ABC

%BLOCK POSITIONS_FRAC
  Li   0.0431851   0.0581521  -0.1532366 SPIN=   0.00000
  Li  -0.4418479  -0.4568149   0.3467634 SPIN=   0.00000
  Li  -0.2128886   0.0126589   0.1847301 SPIN=   0.00000
  Li  -0.4873411   0.2871114  -0.3152699 SPIN=   0.00000
  Fe  -0.0120575   0.4977366   0.4883548 SPIN=   5.93257
  Fe  -0.0022634   0.4879425  -0.0116452 SPIN=   5.93257
  Fe   0.1760104  -0.0158406   0.3373729 SPIN=   2.06743
  Fe   0.4841594  -0.3239896  -0.1626271 SPIN=   2.06743
   O  -0.0378180  -0.5972378  -0.2510329 SPIN=   0.00000
   O   0.0954095  -0.1118472  -0.2768015 SPIN=   0.00000
   O  -0.2570091  -0.4219811  -0.3703960 SPIN=   0.00000
   O   0.2318270  -0.4879817  -0.3646932 SPIN=   0.00000
   S   0.0081024  -0.4047620  -0.3157309 SPIN=   0.00000
   O  -0.0972378  -0.5378180   0.2489671 SPIN=   0.00000
   O   0.3881528  -0.4045905   0.2231985 SPIN=   0.00000
   O   0.0780189  -0.7570091   0.1296040 SPIN=   0.00000
   O   0.0120183  -0.2681730   0.1353068 SPIN=   0.00000
   S   0.0952380  -0.4918976   0.1842691 SPIN=   0.00000
   O  -0.3982365   0.2139099  -0.5078271 SPIN=   0.00000
   O  -0.6928127  -0.0178081  -0.4142562 SPIN=   0.00000
   O  -0.1849675   0.0455068  -0.3863906 SPIN=   0.00000
   O  -0.4212033  -0.2871245  -0.4993399 SPIN=   0.00000
   S  -0.4243050  -0.0113790  -0.4519535 SPIN=   0.00000
   O   0.7139099   0.1017635  -0.0078271 SPIN=   0.00000
   O   0.4821919  -0.1928127   0.0857438 SPIN=   0.00000
   O   0.5455068   0.3150325   0.1136094 SPIN=   0.00000
   O   0.2128755   0.0787967   0.0006601 SPIN=   0.00000
   S   0.4886210   0.0756950   0.0480465 SPIN=   0.00000
   F  -0.0115608  -0.2946849   0.3959359 SPIN=   0.00000
   F   0.2053151   0.4884392  -0.1040641 SPIN=   0.00000
   F  -0.4667466   0.1092350   0.3030268 SPIN=   0.00000
   F  -0.3907650   0.0332534  -0.1969732 SPIN=   0.00000
%ENDBLOCK POSITIONS_FRAC

# Note: total spin =  16.00

KPOINTS_MP_SPACING 0.07

%BLOCK SPECIES_POT
QC5
%ENDBLOCK SPECIES_POT

SNAP_TO_SYMMETRY
SYMMETRY_GENERATE

