#              Generated by Buildcell
#
# at 07:37:40 (GMT+1.0) 18th August 2020
# in /lustre/scratch/uccabz1/launch_tmp
# on node-c12p-014
# by uccabz1
#
# compiler GCC version 4.9.2
# options -cpp -iprefix /lustre/shared/ucl/apps/gcc/4.9.2/bin/../lib/gcc/x86_64-unknown-linux-gnu/4.9.2/ -mtune=corei7 -march=x86-64 -g -Og
#
# seed -1804308535   941515356  1773998835 -2120142766  1543006946  1200328223 -1738271300   892267882  -683355287 -1873331695   784701879 -1763465678
#
#      Author: C. J. Pickard (cjp20@cam.ac.uk)
#                Space group: P2
#

%BLOCK LATTICE_ABC
      4.05404      9.06909     11.12741
    102.11768     90.00000     90.00000
%ENDBLOCK LATTICE_ABC

%BLOCK POSITIONS_FRAC
  Li   0.2666642  -0.3322287   0.1351098 SPIN=   0.00000
  Li   0.2666642   0.3322287  -0.1351098 SPIN=   0.00000
  Li  -0.1533718   0.0459219   0.1708200 SPIN=   0.00000
  Li  -0.1533718  -0.0459219  -0.1708200 SPIN=   0.00000
  Fe  -0.2134432   0.3485383  -0.3423734 SPIN=   5.25366
  Fe  -0.2134432  -0.3485383   0.3423734 SPIN=   5.25366
  Fe  -0.2370854  -0.3301615  -0.0699403 SPIN=   2.74634
  Fe  -0.2370854   0.3301615   0.0699403 SPIN=   2.74634
   O   0.4531257   0.0552923  -0.2091772 SPIN=   0.00000
   O   0.2284946  -0.0784387  -0.4092954 SPIN=   0.00000
   O   0.4532754   0.1796029  -0.3870437 SPIN=   0.00000
   O  -0.0728856   0.1388983  -0.2859900 SPIN=   0.00000
   S   0.2655025   0.0738387  -0.3228766 SPIN=   0.00000
   O   0.4531257  -0.0552923   0.2091772 SPIN=   0.00000
   O   0.2284946   0.0784387   0.4092954 SPIN=   0.00000
   O   0.4532754  -0.1796029   0.3870437 SPIN=   0.00000
   O  -0.0728856  -0.1388983   0.2859900 SPIN=   0.00000
   S   0.2655025  -0.0738387   0.3228766 SPIN=   0.00000
   O  -0.5583766  -0.3822075  -0.3707031 SPIN=   0.00000
   O  -0.0339198  -0.3579194  -0.4787217 SPIN=   0.00000
   O  -0.0339178  -0.3455577  -0.2544126 SPIN=   0.00000
   O  -0.2716304  -0.1360457  -0.3372839 SPIN=   0.00000
   S  -0.2244612  -0.3054326  -0.3602803 SPIN=   0.00000
   O  -0.5583766   0.3822075   0.3707031 SPIN=   0.00000
   O  -0.0339198   0.3579194   0.4787217 SPIN=   0.00000
   O  -0.0339178   0.3455577   0.2544126 SPIN=   0.00000
   O  -0.2716304   0.1360457   0.3372839 SPIN=   0.00000
   S  -0.2244612   0.3054326   0.3602803 SPIN=   0.00000
   F  -0.3022896  -0.4171299   0.1599435 SPIN=   0.00000
   F  -0.3022896   0.4171299  -0.1599435 SPIN=   0.00000
   F   0.2028094  -0.2107034  -0.0241445 SPIN=   0.00000
   F   0.2028094   0.2107034   0.0241445 SPIN=   0.00000
%ENDBLOCK POSITIONS_FRAC

# Note: total spin =  16.00

KPOINTS_MP_SPACING 0.07

%BLOCK SPECIES_POT
QC5
%ENDBLOCK SPECIES_POT

SNAP_TO_SYMMETRY
SYMMETRY_GENERATE

