#              Generated by Buildcell
#
# at 10:11:25 (GMT+1.0) 4th August 2020
# in /lustre/scratch/uccabz1/launch_tmp
# on node-c12c-026
# by uccabz1
#
# compiler GCC version 4.9.2
# options -cpp -iprefix /lustre/shared/ucl/apps/gcc/4.9.2/bin/../lib/gcc/x86_64-unknown-linux-gnu/4.9.2/ -mtune=corei7 -march=x86-64 -g -Og
#
# seed -1510532061  1200858234  1003178829   119149523 -1937722175  1319930358   813816147 -2133197947 -1272708416  2068394589   393603920  -282958395
#
#      Author: C. J. Pickard (cjp20@cam.ac.uk)
#                Space group: P21/c
#

%BLOCK LATTICE_ABC
      3.89206      8.57027     11.99196
     90.00000     90.24591     90.00000
%ENDBLOCK LATTICE_ABC

%BLOCK POSITIONS_FRAC
  Li  -0.4171825   0.1540828   0.3176554 SPIN=   0.00000
  Li  -0.0828175  -0.3459172   0.1823446 SPIN=   0.00000
  Li   0.4171825  -0.1540828  -0.3176554 SPIN=   0.00000
  Li   0.0828175   0.3459172  -0.1823446 SPIN=   0.00000
  Fe   0.4453808  -0.1824915   0.3334959 SPIN=   4.00000
  Fe   0.0546192   0.3175085   0.1665041 SPIN=   4.00000
  Fe  -0.4453808   0.1824915  -0.3334959 SPIN=   4.00000
  Fe  -0.0546192  -0.3175085  -0.1665041 SPIN=   4.00000
   O  -0.1571764   0.2003437   0.0317200 SPIN=   0.00000
   O  -0.6970561   0.0796946  -0.0357804 SPIN=   0.00000
   O  -0.3042498   0.2078884  -0.1691942 SPIN=   0.00000
   O  -0.6348235   0.3670810  -0.0349796 SPIN=   0.00000
   S  -0.4483264   0.2137519  -0.0520586 SPIN=   0.00000
   O  -0.3428236  -0.2996563  -0.5317200 SPIN=   0.00000
   O   0.1970561  -0.4203054  -0.4642196 SPIN=   0.00000
   O  -0.1957502  -0.2921116  -0.3308058 SPIN=   0.00000
   O   0.1348235  -0.1329190  -0.4650204 SPIN=   0.00000
   S  -0.0516736  -0.2862481  -0.4479414 SPIN=   0.00000
   O   0.1571764  -0.2003437  -0.0317200 SPIN=   0.00000
   O   0.6970561  -0.0796946   0.0357804 SPIN=   0.00000
   O   0.3042498  -0.2078884   0.1691942 SPIN=   0.00000
   O   0.6348235  -0.3670810   0.0349796 SPIN=   0.00000
   S   0.4483264  -0.2137519   0.0520586 SPIN=   0.00000
   O   0.3428236   0.2996563   0.5317200 SPIN=   0.00000
   O  -0.1970561   0.4203054   0.4642196 SPIN=   0.00000
   O   0.1957502   0.2921116   0.3308058 SPIN=   0.00000
   O  -0.1348235   0.1329190   0.4650204 SPIN=   0.00000
   S   0.0516736   0.2862481   0.4479414 SPIN=   0.00000
   F  -0.4496732  -0.4533600   0.2788374 SPIN=   0.00000
   F  -0.0503268   0.0466400   0.2211626 SPIN=   0.00000
   F   0.4496732   0.4533600  -0.2788374 SPIN=   0.00000
   F   0.0503268  -0.0466400  -0.2211626 SPIN=   0.00000
%ENDBLOCK POSITIONS_FRAC

# Note: total spin =  16.00

KPOINTS_MP_SPACING 0.07

%BLOCK SPECIES_POT
QC5
%ENDBLOCK SPECIES_POT

SNAP_TO_SYMMETRY
SYMMETRY_GENERATE

