#              Generated by Buildcell
#
# at 16:46:59 (GMT+1.0) 18th August 2020
# in /lustre/scratch/uccabz1/launch_tmp
# on node-c12o-027
# by uccabz1
#
# compiler GCC version 4.9.2
# options -cpp -iprefix /lustre/shared/ucl/apps/gcc/4.9.2/bin/../lib/gcc/x86_64-unknown-linux-gnu/4.9.2/ -mtune=corei7 -march=x86-64 -g -Og
#
# seed -1431885763  -288361862  1521663409  1816064409 -2116098463 -1281568466  1972346523 -1140847289  -265870006  1879430231  1179008948  2026572302
#
#      Author: C. J. Pickard (cjp20@cam.ac.uk)
#                Space group: P21
#

%BLOCK LATTICE_ABC
      6.92761      6.97944      8.28100
     90.00000     92.54065     90.00000
%ENDBLOCK LATTICE_ABC

%BLOCK POSITIONS_FRAC
  Li  -0.4228529   0.4439004   0.4375093 SPIN=   0.00000
  Li   0.4228529  -0.0560996  -0.4375093 SPIN=   0.00000
  Li  -0.1472068  -0.0130693  -0.0031684 SPIN=   0.00000
  Li   0.1472068   0.4869307   0.0031684 SPIN=   0.00000
  Fe  -0.0712609  -0.3010567  -0.2572042 SPIN=   3.12296
  Fe   0.0712609   0.1989433   0.2572042 SPIN=   3.12296
  Fe   0.3753119   0.0485615  -0.0935265 SPIN=   4.87704
  Fe  -0.3753119  -0.4514385   0.0935265 SPIN=   4.87704
   O  -0.4610507  -0.1645894   0.3614471 SPIN=   0.00000
   O  -0.4609117   0.1849886   0.3113584 SPIN=   0.00000
   O  -0.4136856  -0.0406873   0.0859922 SPIN=   0.00000
   O  -0.1566624   0.0005390   0.3003881 SPIN=   0.00000
   S  -0.3730776  -0.0049373   0.2647965 SPIN=   0.00000
   O   0.4610507   0.3354106  -0.3614471 SPIN=   0.00000
   O   0.4609117   0.6849886  -0.3113584 SPIN=   0.00000
   O   0.4136856   0.4593127  -0.0859922 SPIN=   0.00000
   O   0.1566624   0.5005390  -0.3003881 SPIN=   0.00000
   S   0.3730776   0.4950627  -0.2647965 SPIN=   0.00000
   O   0.2723867  -0.2116258   0.1712523 SPIN=   0.00000
   O  -0.0412904  -0.3205160   0.2699417 SPIN=   0.00000
   O   0.2293944  -0.2460823   0.4649273 SPIN=   0.00000
   O   0.2436916  -0.5342990   0.2917708 SPIN=   0.00000
   S   0.1760456  -0.3281308   0.2994730 SPIN=   0.00000
   O  -0.2723867   0.2883742  -0.1712523 SPIN=   0.00000
   O   0.0412904   0.1794840  -0.2699417 SPIN=   0.00000
   O  -0.2293944   0.2539177  -0.4649273 SPIN=   0.00000
   O  -0.2436916  -0.0342990  -0.2917708 SPIN=   0.00000
   S  -0.1760456   0.1718692  -0.2994730 SPIN=   0.00000
   F  -0.2225993  -0.3754645  -0.4675163 SPIN=   0.00000
   F   0.2225993   0.1245355   0.4675163 SPIN=   0.00000
   F   0.1721278   0.2014516   0.0270048 SPIN=   0.00000
   F  -0.1721278  -0.2985484  -0.0270048 SPIN=   0.00000
%ENDBLOCK POSITIONS_FRAC

# Note: total spin =  16.00

KPOINTS_MP_SPACING 0.07

%BLOCK SPECIES_POT
QC5
%ENDBLOCK SPECIES_POT

SNAP_TO_SYMMETRY
SYMMETRY_GENERATE

