#              Generated by Buildcell
#
# at 09:12:37 (GMT+1.0) 4th August 2020
# in /lustre/scratch/uccabz1/launch_tmp
# on node-c12h-014
# by uccabz1
#
# compiler GCC version 4.9.2
# options -cpp -iprefix /lustre/shared/ucl/apps/gcc/4.9.2/bin/../lib/gcc/x86_64-unknown-linux-gnu/4.9.2/ -mtune=corei7 -march=x86-64 -g -Og
#
# seed -1265830812   594602618 -1537121936  1079328089  1260405534  -307043042   678782757    73820346  1827954602  1746730229  1258721355 -1724043480
#
#      Author: C. J. Pickard (cjp20@cam.ac.uk)
#                Space group: Pc
#

%BLOCK LATTICE_ABC
      6.26994      7.98463      8.43218
    108.63932     90.00000     90.00000
%ENDBLOCK LATTICE_ABC

%BLOCK POSITIONS_FRAC
  Li  -0.4627283   0.2469771  -0.2568917 SPIN=   0.00000
  Li   0.4627283   0.2469771   0.2431083 SPIN=   0.00000
  Li  -0.4927331  -0.2794640   0.0613410 SPIN=   0.00000
  Li   0.4927331  -0.2794640  -0.4386590 SPIN=   0.00000
  Fe   0.2052199  -0.4275330   0.2617953 SPIN=   5.61499
  Fe  -0.2052199  -0.4275330  -0.2382047 SPIN=   5.61499
  Fe   0.0970158  -0.0133750   0.1679626 SPIN=   2.38501
  Fe  -0.0970158  -0.0133750  -0.3320374 SPIN=   2.38501
   O   0.4505505   0.1392852  -0.0183728 SPIN=   0.00000
   O   0.4397325  -0.1873755  -0.1303824 SPIN=   0.00000
   O   0.4535717  -0.0115461  -0.3244514 SPIN=   0.00000
   O   0.1258829  -0.0122732  -0.1610458 SPIN=   0.00000
   S   0.3674344  -0.0179774  -0.1585631 SPIN=   0.00000
   O  -0.4505505   0.1392852   0.4816272 SPIN=   0.00000
   O  -0.4397325  -0.1873755   0.3696176 SPIN=   0.00000
   O  -0.4535717  -0.0115461   0.1755486 SPIN=   0.00000
   O  -0.1258829  -0.0122732   0.3389542 SPIN=   0.00000
   S  -0.3674344  -0.0179774   0.3414369 SPIN=   0.00000
   O  -0.2087307   0.1656622  -0.1232142 SPIN=   0.00000
   O  -0.2213437   0.2207273   0.1826140 SPIN=   0.00000
   O  -0.2092305   0.4724208   0.0715387 SPIN=   0.00000
   O   0.1089750   0.2832329   0.0509601 SPIN=   0.00000
   S  -0.1325825   0.2855108   0.0454747 SPIN=   0.00000
   O   0.2087307   0.1656622  -0.6232142 SPIN=   0.00000
   O   0.2213437   0.2207273  -0.3173860 SPIN=   0.00000
   O   0.2092305   0.4724208  -0.4284613 SPIN=   0.00000
   O  -0.1089750   0.2832329  -0.4490399 SPIN=   0.00000
   S   0.1325825   0.2855108  -0.4545253 SPIN=   0.00000
   F  -0.0818783  -0.2322085  -0.0122503 SPIN=   0.00000
   F   0.0818783  -0.2322085   0.4877497 SPIN=   0.00000
   F  -0.3860490   0.4990144   0.4452466 SPIN=   0.00000
   F   0.3860490   0.4990144  -0.0547534 SPIN=   0.00000
%ENDBLOCK POSITIONS_FRAC

# Note: total spin =  16.00

KPOINTS_MP_SPACING 0.07

%BLOCK SPECIES_POT
QC5
%ENDBLOCK SPECIES_POT

SNAP_TO_SYMMETRY
SYMMETRY_GENERATE

