#              Generated by Buildcell
#
# at 11:26:01 (GMT+1.0) 18th August 2020
# in /scratch/scratch/uccabz1/launch_tmp
# on node-k10i-017
# by uccabz1
#
# compiler GCC version 4.9.2
# options -cpp -iprefix /scratch/UCL/applications/gcc/4.9.2/bin/../lib/gcc/x86_64-unknown-linux-gnu/4.9.2/ -mtune=corei7 -march=x86-64 -g -O2
#
# seed -1455154939  1765146142   790321484  2010028230   661739422 -1786784374 -2018220686  -496071584   479493405   505425475  -349571327  1866956118
#
#      Author: C. J. Pickard (cjp20@cam.ac.uk)
#                Space group: Pcc2
#

%BLOCK LATTICE_ABC
      6.02166      6.07133     10.94106
     90.00000     90.00000     90.00000
%ENDBLOCK LATTICE_ABC

%BLOCK POSITIONS_FRAC
  Li  -0.2499907   0.2826842  -0.1184523 SPIN=   0.00000
  Li   0.2499907   0.2826842   0.1184523 SPIN=   0.00000
  Li   0.2499907  -0.2173158  -0.1184523 SPIN=   0.00000
  Li  -0.2499907  -0.2173158   0.1184523 SPIN=   0.00000
  Fe  -0.2456456   0.3181146   0.2682717 SPIN=   4.00000
  Fe   0.2456456   0.3181146  -0.2682717 SPIN=   4.00000
  Fe   0.2456456  -0.1818854   0.2682717 SPIN=   4.00000
  Fe  -0.2456456  -0.1818854  -0.2682717 SPIN=   4.00000
   O  -0.4579543   0.1728392  -0.3978474 SPIN=   0.00000
   O  -0.0528723   0.1712119  -0.3596258 SPIN=   0.00000
   O  -0.2868961   0.4684618  -0.2737806 SPIN=   0.00000
   O  -0.2175755   0.4515690  -0.4965434 SPIN=   0.00000
   S  -0.2538245   0.3160205  -0.3819493 SPIN=   0.00000
   O   0.4579543   0.1728392   0.3978474 SPIN=   0.00000
   O   0.0528723   0.1712119   0.3596258 SPIN=   0.00000
   O   0.2868961   0.4684618   0.2737806 SPIN=   0.00000
   O   0.2175755   0.4515690   0.4965434 SPIN=   0.00000
   S   0.2538245   0.3160205   0.3819493 SPIN=   0.00000
   O   0.4579543  -0.3271608  -0.3978474 SPIN=   0.00000
   O   0.0528723  -0.3287881  -0.3596258 SPIN=   0.00000
   O   0.2868961  -0.0315382  -0.2737806 SPIN=   0.00000
   O   0.2175755  -0.0484310  -0.4965434 SPIN=   0.00000
   S   0.2538245  -0.1839795  -0.3819493 SPIN=   0.00000
   O  -0.4579543  -0.3271608   0.3978474 SPIN=   0.00000
   O  -0.0528723  -0.3287881   0.3596258 SPIN=   0.00000
   O  -0.2868961  -0.0315382   0.2737806 SPIN=   0.00000
   O  -0.2175755  -0.0484310   0.4965434 SPIN=   0.00000
   S  -0.2538245  -0.1839795   0.3819493 SPIN=   0.00000
   F  -0.2500486   0.4385427   0.1110649 SPIN=   0.00000
   F   0.2500486   0.4385427  -0.1110649 SPIN=   0.00000
   F   0.2500486  -0.0614573   0.1110649 SPIN=   0.00000
   F  -0.2500486  -0.0614573  -0.1110649 SPIN=   0.00000
%ENDBLOCK POSITIONS_FRAC

# Note: total spin =  16.00

KPOINTS_MP_SPACING 0.07

%BLOCK SPECIES_POT
QC5
%ENDBLOCK SPECIES_POT

SNAP_TO_SYMMETRY
SYMMETRY_GENERATE

