#              Generated by Buildcell
#
# at 15:51:48 (GMT+1.0) 18th August 2020
# in /scratch/scratch/uccabz1/launch_tmp
# on node-k10f-025
# by uccabz1
#
# compiler GCC version 4.9.2
# options -cpp -iprefix /scratch/UCL/applications/gcc/4.9.2/bin/../lib/gcc/x86_64-unknown-linux-gnu/4.9.2/ -mtune=corei7 -march=x86-64 -g -O2
#
# seed -1443812970 -1221434186  -716394936  -723622175   295512215   -45416971 -1427133554 -1724211406 -1424718485 -1027939230   730191992  -269345868
#
#      Author: C. J. Pickard (cjp20@cam.ac.uk)
#                Space group: P21
#

%BLOCK LATTICE_ABC
      5.27424      7.24546     10.62751
     90.00000     99.96135     90.00000
%ENDBLOCK LATTICE_ABC

%BLOCK POSITIONS_FRAC
  Li   0.3593797  -0.1721275   0.4358929 SPIN=   0.00000
  Li  -0.3593797   0.3278725  -0.4358929 SPIN=   0.00000
  Li   0.1174545   0.1023716  -0.1617856 SPIN=   0.00000
  Li  -0.1174545  -0.3976284   0.1617856 SPIN=   0.00000
  Fe   0.2111656  -0.3417983  -0.3251145 SPIN=   3.14356
  Fe  -0.2111656   0.1582017   0.3251145 SPIN=   3.14356
  Fe   0.2090066   0.2786892   0.1012081 SPIN=   4.85644
  Fe  -0.2090066  -0.2213108  -0.1012081 SPIN=   4.85644
   O   0.6160721  -0.2545749   0.2414954 SPIN=   0.00000
   O   0.5999360  -0.0882539   0.0368601 SPIN=   0.00000
   O   0.3204099   0.0103115   0.1890632 SPIN=   0.00000
   O   0.2335290  -0.2840037   0.0713092 SPIN=   0.00000
   S   0.4424868  -0.1541302   0.1346820 SPIN=   0.00000
   O  -0.6160721   0.2454251  -0.2414954 SPIN=   0.00000
   O  -0.5999360   0.4117461  -0.0368601 SPIN=   0.00000
   O  -0.3204099   0.5103115  -0.1890632 SPIN=   0.00000
   O  -0.2335290   0.2159963  -0.0713092 SPIN=   0.00000
   S  -0.4424868   0.3458698  -0.1346820 SPIN=   0.00000
   O   0.2279337   0.6098444   0.2830954 SPIN=   0.00000
   O   0.3972908   0.3011659   0.3532233 SPIN=   0.00000
   O   0.0015971   0.4181792   0.4215126 SPIN=   0.00000
   O   0.4239145   0.5571802   0.5091199 SPIN=   0.00000
   S   0.2626841   0.4715924   0.3917378 SPIN=   0.00000
   O  -0.2279337   0.1098444  -0.2830954 SPIN=   0.00000
   O  -0.3972908  -0.1988341  -0.3532233 SPIN=   0.00000
   O  -0.0015971  -0.0818208  -0.4215126 SPIN=   0.00000
   O  -0.4239145   0.0571802  -0.5091199 SPIN=   0.00000
   S  -0.2626841  -0.0284076  -0.3917378 SPIN=   0.00000
   F   0.0145657  -0.0744967   0.3398418 SPIN=   0.00000
   F  -0.0145657   0.4255033  -0.3398418 SPIN=   0.00000
   F   0.3068754  -0.1355646  -0.1932642 SPIN=   0.00000
   F  -0.3068754   0.3644354   0.1932642 SPIN=   0.00000
%ENDBLOCK POSITIONS_FRAC

# Note: total spin =  16.00

KPOINTS_MP_SPACING 0.07

%BLOCK SPECIES_POT
QC5
%ENDBLOCK SPECIES_POT

SNAP_TO_SYMMETRY
SYMMETRY_GENERATE

