#              Generated by Buildcell
#
# at 06:07:11 (GMT+1.0) 4th August 2020
# in /lustre/scratch/uccabz1/launch_tmp
# on node-c12c-013
# by uccabz1
#
# compiler GCC version 4.9.2
# options -cpp -iprefix /lustre/shared/ucl/apps/gcc/4.9.2/bin/../lib/gcc/x86_64-unknown-linux-gnu/4.9.2/ -mtune=corei7 -march=x86-64 -g -Og
#
# seed  1629051872  1478989933  1143062871  1778201234  -836990271 -1673942350  1772308278  -489673785  -396763467  1017521476  1109401887 -1880139278
#
#      Author: C. J. Pickard (cjp20@cam.ac.uk)
#                Space group: Cc
#

%BLOCK LATTICE_ABC
      7.18249      8.07291      8.80710
     65.39655     65.93537     63.58620
%ENDBLOCK LATTICE_ABC

%BLOCK POSITIONS_FRAC
  Li   0.1095070  -0.2361169  -0.3969670 SPIN=   0.00000
  Li  -0.4764231   0.2638831   0.1030330 SPIN=   0.00000
  Li  -0.4922530  -0.0658605  -0.3598931 SPIN=   0.00000
  Li  -0.0819934   0.4341395   0.1401069 SPIN=   0.00000
  Fe   0.1773951   0.1540893   0.4327524 SPIN=   3.34715
  Fe   0.2357632  -0.3459107  -0.0672476 SPIN=   3.34715
  Fe   0.1429110   0.1774795  -0.1207472 SPIN=   4.65285
  Fe  -0.1996433  -0.3225205   0.3792528 SPIN=   4.65285
   O   0.2320865  -0.3891506   0.4183903 SPIN=   0.00000
   O   0.2610983  -0.1524264   0.1266951 SPIN=   0.00000
   O   0.5863766  -0.4226592   0.1973161 SPIN=   0.00000
   O   0.4186862  -0.1562479   0.3315466 SPIN=   0.00000
   S   0.3745619  -0.2801210   0.2684870 SPIN=   0.00000
   O  -0.2613262   0.1108494  -0.0816097 SPIN=   0.00000
   O  -0.2353669   0.3475736  -0.3733049 SPIN=   0.00000
   O  -0.3610335   0.0773408  -0.3026839 SPIN=   0.00000
   O  -0.5939849   0.3437521  -0.1684534 SPIN=   0.00000
   S  -0.3629279   0.2198790  -0.2315130 SPIN=   0.00000
   O  -0.2516449   0.2783579   0.3777956 SPIN=   0.00000
   O  -0.0734064   0.1138482   0.1476134 SPIN=   0.00000
   O  -0.4274008   0.0923362   0.3511718 SPIN=   0.00000
   O  -0.0988147  -0.0783329   0.4551176 SPIN=   0.00000
   S  -0.2128167   0.1015524   0.3329246 SPIN=   0.00000
   O  -0.4045086  -0.2216421  -0.1222044 SPIN=   0.00000
   O  -0.1880552  -0.3861518  -0.3523866 SPIN=   0.00000
   O  -0.0161073  -0.4076638  -0.1488282 SPIN=   0.00000
   O  -0.2779700  -0.5783329  -0.0448824 SPIN=   0.00000
   S  -0.2216603  -0.3984476  -0.1670754 SPIN=   0.00000
   F   0.3481303  -0.2881687  -0.3235353 SPIN=   0.00000
   F   0.2635737   0.2118313   0.1764647 SPIN=   0.00000
   F   0.2186874   0.2730876  -0.3697301 SPIN=   0.00000
   F  -0.1220449  -0.2269124   0.1302699 SPIN=   0.00000
%ENDBLOCK POSITIONS_FRAC

# Note: total spin =  16.00

KPOINTS_MP_SPACING 0.07

%BLOCK SPECIES_POT
QC5
%ENDBLOCK SPECIES_POT

SNAP_TO_SYMMETRY
SYMMETRY_GENERATE

