#              Generated by Buildcell
#
# at 06:12:00 (GMT+1.0) 4th August 2020
# in /lustre/scratch/uccabz1/launch_tmp
# on node-c12d-036
# by uccabz1
#
# compiler GCC version 4.9.2
# options -cpp -iprefix /lustre/shared/ucl/apps/gcc/4.9.2/bin/../lib/gcc/x86_64-unknown-linux-gnu/4.9.2/ -mtune=corei7 -march=x86-64 -g -Og
#
# seed -1311202678   463689300  1612449517   793765767 -1475804576  1025282014 -1996816924  -945254826  1400173652   667665602 -1891486387  -559836329
#
#      Author: C. J. Pickard (cjp20@cam.ac.uk)
#                Space group: P21
#

%BLOCK LATTICE_ABC
      6.46445      7.83142      8.22775
     90.00000    106.19865     90.00000
%ENDBLOCK LATTICE_ABC

%BLOCK POSITIONS_FRAC
  Li  -0.5061514  -0.3461607  -0.4861320 SPIN=   0.00000
  Li   0.5061514   0.1538393   0.4861320 SPIN=   0.00000
  Li  -0.2393464  -0.3436103   0.0778310 SPIN=   0.00000
  Li   0.2393464   0.1563897  -0.0778310 SPIN=   0.00000
  Fe   0.1735948  -0.1318001   0.1509656 SPIN=   3.74889
  Fe  -0.1735948   0.3681999  -0.1509656 SPIN=   3.74889
  Fe  -0.3198836   0.0951680   0.1718055 SPIN=   4.25111
  Fe   0.3198836  -0.4048320  -0.1718055 SPIN=   4.25111
   O   0.5257323   0.6331136   0.1979446 SPIN=   0.00000
   O   0.6178916   0.3550133   0.3429437 SPIN=   0.00000
   O   0.3809498   0.3655086   0.0493099 SPIN=   0.00000
   O   0.2475842   0.4693374   0.2857591 SPIN=   0.00000
   S   0.4430395   0.4557432   0.2189893 SPIN=   0.00000
   O  -0.5257323   0.1331136  -0.1979446 SPIN=   0.00000
   O  -0.6178916  -0.1449867  -0.3429437 SPIN=   0.00000
   O  -0.3809498  -0.1344914  -0.0493099 SPIN=   0.00000
   O  -0.2475842  -0.0306626  -0.2857591 SPIN=   0.00000
   S  -0.4430395  -0.0442568  -0.2189893 SPIN=   0.00000
   O  -0.0790346   0.0501164  -0.6068537 SPIN=   0.00000
   O   0.1242166   0.0408195  -0.3036873 SPIN=   0.00000
   O  -0.1744697   0.2469531  -0.4037369 SPIN=   0.00000
   O   0.1664278   0.2870867  -0.4802266 SPIN=   0.00000
   S   0.0092850   0.1562439  -0.4486262 SPIN=   0.00000
   O   0.0790346  -0.4498836   0.6068537 SPIN=   0.00000
   O  -0.1242166  -0.4591805   0.3036873 SPIN=   0.00000
   O   0.1744697  -0.2530469   0.4037369 SPIN=   0.00000
   O  -0.1664278  -0.2129133   0.4802266 SPIN=   0.00000
   S  -0.0092850  -0.3437561   0.4486262 SPIN=   0.00000
   F   0.4610509  -0.0074919   0.3162315 SPIN=   0.00000
   F  -0.4610509   0.4925081  -0.3162315 SPIN=   0.00000
   F   0.0950751  -0.2499972  -0.0935599 SPIN=   0.00000
   F  -0.0950751   0.2500028   0.0935599 SPIN=   0.00000
%ENDBLOCK POSITIONS_FRAC

# Note: total spin =  16.00

KPOINTS_MP_SPACING 0.07

%BLOCK SPECIES_POT
QC5
%ENDBLOCK SPECIES_POT

SNAP_TO_SYMMETRY
SYMMETRY_GENERATE

