#              Generated by Buildcell
#
# at 07:19:06 (GMT+1.0) 4th August 2020
# in /lustre/scratch/uccabz1/launch_tmp
# on node-c12f-020
# by uccabz1
#
# compiler GCC version 4.9.2
# options -cpp -iprefix /lustre/shared/ucl/apps/gcc/4.9.2/bin/../lib/gcc/x86_64-unknown-linux-gnu/4.9.2/ -mtune=corei7 -march=x86-64 -g -Og
#
# seed  1587015708   423004714  -674829647  1417767960 -1607268742 -1101721636  -151684063 -1403234920  -843264206  -986014810  1601576423  1045645860
#
#      Author: C. J. Pickard (cjp20@cam.ac.uk)
#                Space group: P21
#

%BLOCK LATTICE_ABC
      4.50119      8.25715     10.79423
     90.00000     90.00000     94.41333
%ENDBLOCK LATTICE_ABC

%BLOCK POSITIONS_FRAC
  Li  -0.2805600  -0.1635298   0.0672959 SPIN=   0.00000
  Li   0.2805600   0.1635298  -0.4327041 SPIN=   0.00000
  Li  -0.3240569   0.4313900  -0.2081603 SPIN=   0.00000
  Li   0.3240569  -0.4313900   0.2918397 SPIN=   0.00000
  Fe   0.2836064   0.1021243  -0.1675401 SPIN=   6.56128
  Fe  -0.2836064  -0.1021243   0.3324599 SPIN=   6.56128
  Fe  -0.1381204   0.4019001   0.0681653 SPIN=   1.43872
  Fe   0.1381204  -0.4019001  -0.4318347 SPIN=   1.43872
   O  -0.0125018  -0.1322251  -0.1227416 SPIN=   0.00000
   O   0.4745178  -0.2502710  -0.1041070 SPIN=   0.00000
   O   0.0442129  -0.4121554  -0.1960589 SPIN=   0.00000
   O   0.0521284  -0.3519413   0.0285719 SPIN=   0.00000
   S   0.1395893  -0.2866482  -0.0985839 SPIN=   0.00000
   O   0.0125018   0.1322251   0.3772584 SPIN=   0.00000
   O  -0.4745178   0.2502710   0.3958930 SPIN=   0.00000
   O  -0.0442129   0.4121554   0.3039411 SPIN=   0.00000
   O  -0.0521284   0.3519413   0.5285719 SPIN=   0.00000
   S  -0.1395893   0.2866482   0.4014161 SPIN=   0.00000
   O  -0.1054116   0.0634891   0.1741286 SPIN=   0.00000
   O   0.4054482   0.0527609   0.2568972 SPIN=   0.00000
   O   0.3213785   0.2061587   0.0647082 SPIN=   0.00000
   O   0.2586466  -0.0942502   0.0639374 SPIN=   0.00000
   S   0.2200154   0.0570396   0.1399178 SPIN=   0.00000
   O   0.1054116  -0.0634891  -0.3258714 SPIN=   0.00000
   O  -0.4054482  -0.0527609  -0.2431028 SPIN=   0.00000
   O  -0.3213785  -0.2061587  -0.4352918 SPIN=   0.00000
   O  -0.2586466   0.0942502  -0.4360626 SPIN=   0.00000
   S  -0.2200154  -0.0570396  -0.3600822 SPIN=   0.00000
   F  -0.0784874   0.2715779  -0.1301626 SPIN=   0.00000
   F   0.0784874  -0.2715779   0.3698374 SPIN=   0.00000
   F   0.4621138   0.4934472  -0.3574956 SPIN=   0.00000
   F  -0.4621138  -0.4934472   0.1425044 SPIN=   0.00000
%ENDBLOCK POSITIONS_FRAC

# Note: total spin =  16.00

KPOINTS_MP_SPACING 0.07

%BLOCK SPECIES_POT
QC5
%ENDBLOCK SPECIES_POT

SNAP_TO_SYMMETRY
SYMMETRY_GENERATE

