#              Generated by Buildcell
#
# at 07:45:24 (GMT+1.0) 4th August 2020
# in /lustre/scratch/uccabz1/launch_tmp
# on node-c12n-016
# by uccabz1
#
# compiler GCC version 4.9.2
# options -cpp -iprefix /lustre/shared/ucl/apps/gcc/4.9.2/bin/../lib/gcc/x86_64-unknown-linux-gnu/4.9.2/ -mtune=corei7 -march=x86-64 -g -Og
#
# seed  1783158016   301006276  -262077004 -1206239054  -797304342   450073388  2007607646  2129790848  1632721110 -1312340415   626459958   126030429
#
#      Author: C. J. Pickard (cjp20@cam.ac.uk)
#                Space group: P2/c
#

%BLOCK LATTICE_ABC
      6.47048      7.47600      8.30887
     95.61333     90.00000     90.00000
%ENDBLOCK LATTICE_ABC

%BLOCK POSITIONS_FRAC
  Li   0.2715545   0.1390703  -0.4862109 SPIN=   0.00000
  Li   0.2715545   0.3609297  -0.0137891 SPIN=   0.00000
  Li  -0.2715545  -0.1390703   0.4862109 SPIN=   0.00000
  Li  -0.2715545  -0.3609297   0.0137891 SPIN=   0.00000
  Fe  -0.3276435   0.0084217   0.1761614 SPIN=   4.00000
  Fe  -0.3276435   0.4915783   0.3238386 SPIN=   4.00000
  Fe   0.3276435  -0.0084217  -0.1761614 SPIN=   4.00000
  Fe   0.3276435  -0.4915783  -0.3238386 SPIN=   4.00000
   O   0.3692604  -0.1094525   0.2084393 SPIN=   0.00000
   O   0.0706812   0.0306459   0.3583131 SPIN=   0.00000
   O   0.0236838  -0.1154196   0.0803662 SPIN=   0.00000
   O   0.2165923   0.1709349   0.1256532 SPIN=   0.00000
   S   0.1700544  -0.0058228   0.1931929 SPIN=   0.00000
   O   0.3692604  -0.3905475   0.2915607 SPIN=   0.00000
   O   0.0706812  -0.5306459   0.1416869 SPIN=   0.00000
   O   0.0236838  -0.3845804   0.4196338 SPIN=   0.00000
   O   0.2165923  -0.6709349   0.3743468 SPIN=   0.00000
   S   0.1700544  -0.4941772   0.3068071 SPIN=   0.00000
   O  -0.3692604   0.1094525  -0.2084393 SPIN=   0.00000
   O  -0.0706812  -0.0306459  -0.3583131 SPIN=   0.00000
   O  -0.0236838   0.1154196  -0.0803662 SPIN=   0.00000
   O  -0.2165923  -0.1709349  -0.1256532 SPIN=   0.00000
   S  -0.1700544   0.0058228  -0.1931929 SPIN=   0.00000
   O  -0.3692604   0.3905475  -0.2915607 SPIN=   0.00000
   O  -0.0706812   0.5306459  -0.1416869 SPIN=   0.00000
   O  -0.0236838   0.3845804  -0.4196338 SPIN=   0.00000
   O  -0.2165923   0.6709349  -0.3743468 SPIN=   0.00000
   S  -0.1700544   0.4941772  -0.3068071 SPIN=   0.00000
   F  -0.2945281   0.1235284   0.4210085 SPIN=   0.00000
   F  -0.2945281   0.3764716   0.0789915 SPIN=   0.00000
   F   0.2945281  -0.1235284  -0.4210085 SPIN=   0.00000
   F   0.2945281  -0.3764716  -0.0789915 SPIN=   0.00000
%ENDBLOCK POSITIONS_FRAC

# Note: total spin =  16.00

KPOINTS_MP_SPACING 0.07

%BLOCK SPECIES_POT
QC5
%ENDBLOCK SPECIES_POT

SNAP_TO_SYMMETRY
SYMMETRY_GENERATE

