#              Generated by Buildcell
#
# at 02:06:52 (GMT+1.0) 18th August 2020
# in /lustre/scratch/uccabz1/launch_tmp
# on node-c12g-030
# by uccabz1
#
# compiler GCC version 4.9.2
# options -cpp -iprefix /lustre/shared/ucl/apps/gcc/4.9.2/bin/../lib/gcc/x86_64-unknown-linux-gnu/4.9.2/ -mtune=corei7 -march=x86-64 -g -Og
#
# seed   476999274   653181446   627213798 -1136242134 -1736750978  -873300345  1399808351  1784651545    25071083   -14367629  1357659666  1491732203
#
#      Author: C. J. Pickard (cjp20@cam.ac.uk)
#                Space group: Pc
#

%BLOCK LATTICE_ABC
      5.92868      7.85812      8.63958
     90.00000     96.39401     90.00000
%ENDBLOCK LATTICE_ABC

%BLOCK POSITIONS_FRAC
  Li  -0.3191754  -0.0300504  -0.2700067 SPIN=   0.00000
  Li   0.1808246   0.0300504   0.2299933 SPIN=   0.00000
  Li  -0.1960857   0.4188094  -0.1413614 SPIN=   0.00000
  Li   0.3039143  -0.4188094   0.3586386 SPIN=   0.00000
  Fe   0.1240180  -0.0327608  -0.4248151 SPIN=   5.61559
  Fe  -0.3759820   0.0327608   0.0751849 SPIN=   5.61559
  Fe   0.0862911  -0.2723178  -0.0149068 SPIN=   2.38441
  Fe  -0.4137089   0.2723178   0.4850932 SPIN=   2.38441
   O  -0.3121039  -0.3274613   0.4291876 SPIN=   0.00000
   O  -0.5415380  -0.1178649   0.2659346 SPIN=   0.00000
   O  -0.1932014  -0.0255747   0.4288696 SPIN=   0.00000
   O  -0.5334005  -0.1088859   0.5528439 SPIN=   0.00000
   S  -0.3950609  -0.1449467   0.4192089 SPIN=   0.00000
   O   0.1878961   0.3274613  -0.0708124 SPIN=   0.00000
   O  -0.0415380   0.1178649  -0.2340654 SPIN=   0.00000
   O   0.3067986   0.0255747  -0.0711304 SPIN=   0.00000
   O  -0.0334005   0.1088859   0.0528439 SPIN=   0.00000
   S   0.1049391   0.1449467  -0.0807911 SPIN=   0.00000
   O  -0.2994195   0.3713769   0.2757669 SPIN=   0.00000
   O  -0.6876721   0.4505751   0.1638440 SPIN=   0.00000
   O  -0.4171115   0.3311108  -0.0057614 SPIN=   0.00000
   O  -0.3587811   0.6215786   0.1020244 SPIN=   0.00000
   S  -0.4407461   0.4436603   0.1339685 SPIN=   0.00000
   O   0.2005805  -0.3713769  -0.2242331 SPIN=   0.00000
   O  -0.1876721  -0.4505751  -0.3361560 SPIN=   0.00000
   O   0.0828885  -0.3311108  -0.5057614 SPIN=   0.00000
   O   0.1412189  -0.6215786  -0.3979756 SPIN=   0.00000
   S   0.0592539  -0.4436603  -0.3660315 SPIN=   0.00000
   F   0.0833970   0.2063079   0.3408391 SPIN=   0.00000
   F  -0.4166030  -0.2063079  -0.1591609 SPIN=   0.00000
   F   0.0682274  -0.2756699   0.1927630 SPIN=   0.00000
   F  -0.4317726   0.2756699  -0.3072370 SPIN=   0.00000
%ENDBLOCK POSITIONS_FRAC

# Note: total spin =  16.00

KPOINTS_MP_SPACING 0.07

%BLOCK SPECIES_POT
QC5
%ENDBLOCK SPECIES_POT

SNAP_TO_SYMMETRY
SYMMETRY_GENERATE

