#              Generated by Buildcell
#
# at 07:36:43 (GMT+1.0) 4th August 2020
# in /lustre/scratch/uccabz1/launch_tmp
# on node-c12l-024
# by uccabz1
#
# compiler GCC version 4.9.2
# options -cpp -iprefix /lustre/shared/ucl/apps/gcc/4.9.2/bin/../lib/gcc/x86_64-unknown-linux-gnu/4.9.2/ -mtune=corei7 -march=x86-64 -g -Og
#
# seed   435662372  1989551109  -868459425  -680258603  1366463648  -788114755   410085820  -941773827   761654032  2036616595  -881630140 -1667855781
#
#      Author: C. J. Pickard (cjp20@cam.ac.uk)
#                Space group: P2
#

%BLOCK LATTICE_ABC
      4.39696      8.68799     10.49177
     93.60653     90.00000     90.00000
%ENDBLOCK LATTICE_ABC

%BLOCK POSITIONS_FRAC
  Li  -0.2771520   0.1673687   0.1328426 SPIN=   0.00000
  Li  -0.2771520  -0.1673687  -0.1328426 SPIN=   0.00000
  Li  -0.2642773  -0.2002283   0.2725077 SPIN=   0.00000
  Li  -0.2642773   0.2002283  -0.2725077 SPIN=   0.00000
  Fe   0.2227923   0.0618540   0.2996225 SPIN=   4.60549
  Fe   0.2227923  -0.0618540  -0.2996225 SPIN=   4.60549
  Fe  -0.3048210  -0.4339024  -0.3271360 SPIN=   3.39451
  Fe  -0.3048210   0.4339024   0.3271360 SPIN=   3.39451
   O   0.3627501  -0.3328735   0.5609685 SPIN=   0.00000
   O   0.4234970  -0.3626586   0.3262032 SPIN=   0.00000
   O   0.2634751  -0.1116544   0.4293577 SPIN=   0.00000
   O  -0.0903268  -0.3336107   0.4209712 SPIN=   0.00000
   S   0.2398489  -0.2851993   0.4343752 SPIN=   0.00000
   O   0.3627501   0.3328735  -0.5609685 SPIN=   0.00000
   O   0.4234970   0.3626586  -0.3262032 SPIN=   0.00000
   O   0.2634751   0.1116544  -0.4293577 SPIN=   0.00000
   O  -0.0903268   0.3336107  -0.4209712 SPIN=   0.00000
   S   0.2398489   0.2851993  -0.4343752 SPIN=   0.00000
   O   0.1344438   0.1672535   0.0366602 SPIN=   0.00000
   O   0.4479311   0.3736497  -0.0489588 SPIN=   0.00000
   O   0.1883262   0.1833049  -0.1969324 SPIN=   0.00000
   O   0.6260701   0.1029756  -0.0685249 SPIN=   0.00000
   S   0.3491928   0.2067959  -0.0694389 SPIN=   0.00000
   O   0.1344438  -0.1672535  -0.0366602 SPIN=   0.00000
   O   0.4479311  -0.3736497   0.0489588 SPIN=   0.00000
   O   0.1883262  -0.1833049   0.1969324 SPIN=   0.00000
   O   0.6260701  -0.1029756   0.0685249 SPIN=   0.00000
   S   0.3491928  -0.2067959   0.0694389 SPIN=   0.00000
   F  -0.2516465  -0.0366804  -0.3118261 SPIN=   0.00000
   F  -0.2516465   0.0366804   0.3118261 SPIN=   0.00000
   F   0.0225093   0.4428671   0.1835829 SPIN=   0.00000
   F   0.0225093  -0.4428671  -0.1835829 SPIN=   0.00000
%ENDBLOCK POSITIONS_FRAC

# Note: total spin =  16.00

KPOINTS_MP_SPACING 0.07

%BLOCK SPECIES_POT
QC5
%ENDBLOCK SPECIES_POT

SNAP_TO_SYMMETRY
SYMMETRY_GENERATE

