#              Generated by Buildcell
#
# at 08:47:10 (GMT+1.0) 4th August 2020
# in /lustre/scratch/uccabz1/launch_tmp
# on node-c12p-005
# by uccabz1
#
# compiler GCC version 4.9.2
# options -cpp -iprefix /lustre/shared/ucl/apps/gcc/4.9.2/bin/../lib/gcc/x86_64-unknown-linux-gnu/4.9.2/ -mtune=corei7 -march=x86-64 -g -Og
#
# seed -1057351571  -207415575   264145642  -363425123    82184785   479809934  -586319789 -1558740143  1182433676  1469403099 -1367992008 -1261568866
#
#      Author: C. J. Pickard (cjp20@cam.ac.uk)
#                Space group: Cc
#

%BLOCK LATTICE_ABC
      7.55648      7.70253      7.70253
     74.02963     72.69782     72.69782
%ENDBLOCK LATTICE_ABC

%BLOCK POSITIONS_FRAC
  Li  -0.4735762   0.3374801   0.1735767 SPIN=   0.00000
  Li   0.0264238   0.1735767   0.3374801 SPIN=   0.00000
  Li  -0.0625754  -0.2859318   0.2304485 SPIN=   0.00000
  Li   0.4374246   0.2304485  -0.2859318 SPIN=   0.00000
  Fe  -0.4157894  -0.4195775  -0.2133207 SPIN=   4.15774
  Fe   0.0842106  -0.2133207  -0.4195775 SPIN=   4.15774
  Fe  -0.3377976  -0.0522137  -0.0204012 SPIN=   3.84226
  Fe   0.1622024  -0.0204012  -0.0522137 SPIN=   3.84226
   O  -0.4239040   0.0544342   0.2622617 SPIN=   0.00000
   O  -0.2821157  -0.1359175   0.5253093 SPIN=   0.00000
   O  -0.2954140   0.2010493   0.4312455 SPIN=   0.00000
   O  -0.0755874  -0.0119775   0.2289792 SPIN=   0.00000
   S  -0.2692553   0.0268971   0.3619489 SPIN=   0.00000
   O   0.0760960   0.2622617   0.0544342 SPIN=   0.00000
   O   0.2178843   0.5253093  -0.1359175 SPIN=   0.00000
   O   0.2045860   0.4312455   0.2010493 SPIN=   0.00000
   O   0.4244126   0.2289792  -0.0119775 SPIN=   0.00000
   S   0.2307447   0.3619489   0.0268971 SPIN=   0.00000
   O  -0.4677374  -0.2444717   0.2232844 SPIN=   0.00000
   O  -0.2188219  -0.5383062   0.2275447 SPIN=   0.00000
   O  -0.5494813  -0.5400108   0.4086104 SPIN=   0.00000
   O  -0.3493229  -0.4007279   0.5077617 SPIN=   0.00000
   S  -0.3963409  -0.4308791   0.3418003 SPIN=   0.00000
   O   0.0322626   0.2232844  -0.2444717 SPIN=   0.00000
   O   0.2811781   0.2275447  -0.5383062 SPIN=   0.00000
   O  -0.0494813   0.4086104  -0.5400108 SPIN=   0.00000
   O   0.1506771   0.5077617  -0.4007279 SPIN=   0.00000
   S   0.1036591   0.3418003  -0.4308791 SPIN=   0.00000
   F  -0.0836404  -0.1974247  -0.0170610 SPIN=   0.00000
   F   0.4163596  -0.0170610  -0.1974247 SPIN=   0.00000
   F  -0.2897627   0.3704043  -0.0476056 SPIN=   0.00000
   F   0.2102373  -0.0476056   0.3704043 SPIN=   0.00000
%ENDBLOCK POSITIONS_FRAC

# Note: total spin =  16.00

KPOINTS_MP_SPACING 0.07

%BLOCK SPECIES_POT
QC5
%ENDBLOCK SPECIES_POT

SNAP_TO_SYMMETRY
SYMMETRY_GENERATE

