#              Generated by Buildcell
#
# at 06:22:31 (GMT+1.0) 4th August 2020
# in /lustre/scratch/uccabz1/launch_tmp
# on node-c12f-025
# by uccabz1
#
# compiler GCC version 4.9.2
# options -cpp -iprefix /lustre/shared/ucl/apps/gcc/4.9.2/bin/../lib/gcc/x86_64-unknown-linux-gnu/4.9.2/ -mtune=corei7 -march=x86-64 -g -Og
#
# seed   981966742  -445620426 -1123581244   516152337  1733850541 -1236944577  1804681721   567532200    -8591375 -1489710476  -416279179 -1129782678
#
#      Author: C. J. Pickard (cjp20@cam.ac.uk)
#                Space group: P21
#

%BLOCK LATTICE_ABC
      6.99429      7.13185      8.20494
    102.22479     90.00000     90.00000
%ENDBLOCK LATTICE_ABC

%BLOCK POSITIONS_FRAC
  Li  -0.4555225  -0.1440730  -0.3604382 SPIN=   0.00000
  Li   0.0444775   0.1440730   0.3604382 SPIN=   0.00000
  Li  -0.4609534   0.4407540   0.2257055 SPIN=   0.00000
  Li   0.0390466  -0.4407540  -0.2257055 SPIN=   0.00000
  Fe   0.3873979   0.4455742  -0.4332286 SPIN=   5.24664
  Fe  -0.1126021  -0.4455742   0.4332286 SPIN=   5.24664
  Fe  -0.2344456  -0.1526289  -0.0382753 SPIN=   2.75336
  Fe   0.2655544   0.1526289   0.0382753 SPIN=   2.75336
   O   0.5401382  -0.1928314   0.3688665 SPIN=   0.00000
   O   0.3280232   0.0097327   0.2368096 SPIN=   0.00000
   O   0.6565474   0.1184413   0.3202664 SPIN=   0.00000
   O   0.4108613   0.1107267   0.5358167 SPIN=   0.00000
   S   0.4838925   0.0115173   0.3654398 SPIN=   0.00000
   O   0.0401382   0.1928314  -0.3688665 SPIN=   0.00000
   O  -0.1719768  -0.0097327  -0.2368096 SPIN=   0.00000
   O   0.1565474  -0.1184413  -0.3202664 SPIN=   0.00000
   O  -0.0891387  -0.1107267  -0.5358167 SPIN=   0.00000
   S  -0.0161075  -0.0115173  -0.3654398 SPIN=   0.00000
   O   0.3913453  -0.5655305  -0.1544416 SPIN=   0.00000
   O   0.2784142  -0.2298019  -0.0733175 SPIN=   0.00000
   O   0.5682106  -0.3313766   0.0580182 SPIN=   0.00000
   O   0.2496440  -0.4462841   0.1246623 SPIN=   0.00000
   S   0.3719035  -0.3932483  -0.0112696 SPIN=   0.00000
   O  -0.1086547   0.5655305   0.1544416 SPIN=   0.00000
   O  -0.2215858   0.2298019   0.0733175 SPIN=   0.00000
   O   0.0682106   0.3313766  -0.0580182 SPIN=   0.00000
   O  -0.2503560   0.4462841  -0.1246623 SPIN=   0.00000
   S  -0.1280965   0.3932483   0.0112696 SPIN=   0.00000
   F  -0.3400682  -0.4391419  -0.4043797 SPIN=   0.00000
   F   0.1599318   0.4391419   0.4043797 SPIN=   0.00000
   F  -0.0384856  -0.0672693   0.1519439 SPIN=   0.00000
   F   0.4615144   0.0672693  -0.1519439 SPIN=   0.00000
%ENDBLOCK POSITIONS_FRAC

# Note: total spin =  16.00

KPOINTS_MP_SPACING 0.07

%BLOCK SPECIES_POT
QC5
%ENDBLOCK SPECIES_POT

SNAP_TO_SYMMETRY
SYMMETRY_GENERATE

