#              Generated by Buildcell
#
# at 10:38:04 (GMT+1.0) 4th August 2020
# in /lustre/scratch/uccabz1/launch_tmp
# on node-c12c-009
# by uccabz1
#
# compiler GCC version 4.9.2
# options -cpp -iprefix /lustre/shared/ucl/apps/gcc/4.9.2/bin/../lib/gcc/x86_64-unknown-linux-gnu/4.9.2/ -mtune=corei7 -march=x86-64 -g -Og
#
# seed  2115124395  1705601717   540542119 -1891428880   195046076   589286680 -1342015317  1652461440  -465498004  1844191546 -1402471593  -372556124
#
#      Author: C. J. Pickard (cjp20@cam.ac.uk)
#                Space group: P-1
#

%BLOCK LATTICE_ABC
      3.96429      6.35460     16.76166
     90.87665     93.90952    108.15451
%ENDBLOCK LATTICE_ABC

%BLOCK POSITIONS_FRAC
  Li   0.1120900   0.1253566  -0.3275557 SPIN=   0.00000
  Li  -0.1120900  -0.1253566   0.3275557 SPIN=   0.00000
  Li   0.1388290   0.4124003   0.2085693 SPIN=   0.00000
  Li  -0.1388290  -0.4124003  -0.2085693 SPIN=   0.00000
  Fe  -0.3068075   0.0987292  -0.1657571 SPIN=   2.64410
  Fe   0.3068075  -0.0987292   0.1657571 SPIN=   2.64410
  Fe   0.7444512   0.4360606  -0.4078958 SPIN=   5.35590
  Fe  -0.7444512  -0.4360606   0.4078958 SPIN=   5.35590
   O  -0.0076822  -0.1037070  -0.1259361 SPIN=   0.00000
   O   0.4644370  -0.2637868  -0.0808927 SPIN=   0.00000
   O  -0.1609400  -0.4528078  -0.0531004 SPIN=   0.00000
   O   0.1769996  -0.0981465   0.0183361 SPIN=   0.00000
   S   0.1182036  -0.2296120  -0.0603983 SPIN=   0.00000
   O   0.0076822   0.1037070   0.1259361 SPIN=   0.00000
   O  -0.4644370   0.2637868   0.0808927 SPIN=   0.00000
   O   0.1609400   0.4528078   0.0531004 SPIN=   0.00000
   O  -0.1769996   0.0981465  -0.0183361 SPIN=   0.00000
   S  -0.1182036   0.2296120   0.0603983 SPIN=   0.00000
   O  -0.2038246  -0.2340906  -0.3518361 SPIN=   0.00000
   O  -0.4595361   0.0288426  -0.2876764 SPIN=   0.00000
   O  -0.7947266  -0.3718526  -0.2973790 SPIN=   0.00000
   O  -0.7211674  -0.1518717  -0.4192272 SPIN=   0.00000
   S  -0.5448137  -0.1822431  -0.3390297 SPIN=   0.00000
   O   0.2038246   0.2340906   0.3518361 SPIN=   0.00000
   O   0.4595361  -0.0288426   0.2876764 SPIN=   0.00000
   O   0.7947266   0.3718526   0.2973790 SPIN=   0.00000
   O   0.7211674   0.1518717   0.4192272 SPIN=   0.00000
   S   0.5448137   0.1822431   0.3390297 SPIN=   0.00000
   F   0.3375169   0.3370882  -0.1815325 SPIN=   0.00000
   F  -0.3375169  -0.3370882   0.1815325 SPIN=   0.00000
   F  -0.1362077  -0.2576084   0.4258608 SPIN=   0.00000
   F   0.1362077   0.2576084  -0.4258608 SPIN=   0.00000
%ENDBLOCK POSITIONS_FRAC

# Note: total spin =  16.00

KPOINTS_MP_SPACING 0.07

%BLOCK SPECIES_POT
QC5
%ENDBLOCK SPECIES_POT

SNAP_TO_SYMMETRY
SYMMETRY_GENERATE

