#              Generated by Buildcell
#
# at 06:17:39 (GMT+1.0) 4th August 2020
# in /lustre/scratch/uccabz1/launch_tmp
# on node-c12f-034
# by uccabz1
#
# compiler GCC version 4.9.2
# options -cpp -iprefix /lustre/shared/ucl/apps/gcc/4.9.2/bin/../lib/gcc/x86_64-unknown-linux-gnu/4.9.2/ -mtune=corei7 -march=x86-64 -g -Og
#
# seed   -59449578  -381330721  -274005273  2050888037  1115651464 -1953430887  -168637743  1843803205 -1601969400  1331621058 -1251142743  -540518685
#
#      Author: C. J. Pickard (cjp20@cam.ac.uk)
#                Space group: Aem2
#

%BLOCK LATTICE_ABC
      7.54362      7.63577      7.63577
    114.57180     90.00000     90.00000
%ENDBLOCK LATTICE_ABC

%BLOCK POSITIONS_FRAC
  Li   0.2289658   0.2023850   0.3920088 SPIN=   0.00000
  Li  -0.2289658   0.3920088   0.2023850 SPIN=   0.00000
  Li   0.2289658  -0.1079912  -0.2976150 SPIN=   0.00000
  Li  -0.2289658  -0.2976150  -0.1079912 SPIN=   0.00000
  Fe   0.5000000   0.0456270   0.0456270 SPIN=   4.97145
  Fe  -0.5000000  -0.4543730  -0.4543730 SPIN=   4.97145
  Fe  -0.1703020   0.2181181  -0.2818819 SPIN=   3.02855
  Fe   0.1703020   0.7181181   0.2181181 SPIN=   3.02855
   O  -0.2136063   0.0870556   0.0410363 SPIN=   0.00000
   O  -0.3567933  -0.1376605   0.1556183 SPIN=   0.00000
   O  -0.1697765   0.1285238   0.3772690 SPIN=   0.00000
   O  -0.0316792  -0.1471679   0.1090872 SPIN=   0.00000
   O   0.2136063   0.0410363   0.0870556 SPIN=   0.00000
   O   0.3567933   0.1556183  -0.1376605 SPIN=   0.00000
   O   0.1697765   0.3772690   0.1285238 SPIN=   0.00000
   O   0.0316792   0.1090872  -0.1471679 SPIN=   0.00000
   O  -0.2136063   0.5410363   0.5870556 SPIN=   0.00000
   O  -0.3567933   0.6556183   0.3623395 SPIN=   0.00000
   O  -0.1697765   0.8772690   0.6285238 SPIN=   0.00000
   O  -0.0316792   0.6090872   0.3528321 SPIN=   0.00000
   O   0.2136063  -0.4129444  -0.4589637 SPIN=   0.00000
   O   0.3567933  -0.6376605  -0.3443817 SPIN=   0.00000
   O   0.1697765  -0.3714762  -0.1227310 SPIN=   0.00000
   O   0.0316792  -0.6471679  -0.3909128 SPIN=   0.00000
   S   0.0000000   0.0006219   0.0006219 SPIN=   0.00000
   S   0.0000000  -0.4993781  -0.4993781 SPIN=   0.00000
   S   0.3731256  -0.6519405  -0.1519405 SPIN=   0.00000
   S  -0.3731256   0.8480595   0.3480595 SPIN=   0.00000
   F  -0.5000000  -0.2038339  -0.2038339 SPIN=   0.00000
   F  -0.5000000   0.2961661   0.2961661 SPIN=   0.00000
   F   0.1066483  -0.0392342   0.4607658 SPIN=   0.00000
   F  -0.1066483  -0.5392342  -0.0392342 SPIN=   0.00000
%ENDBLOCK POSITIONS_FRAC

# Note: total spin =  16.00

KPOINTS_MP_SPACING 0.07

%BLOCK SPECIES_POT
QC5
%ENDBLOCK SPECIES_POT

SNAP_TO_SYMMETRY
SYMMETRY_GENERATE

