#              Generated by Buildcell
#
# at 13:39:25 (GMT+1.0) 18th August 2020
# in /lustre/scratch/uccabz1/launch_tmp
# on node-c12k-010
# by uccabz1
#
# compiler GCC version 4.9.2
# options -cpp -iprefix /lustre/shared/ucl/apps/gcc/4.9.2/bin/../lib/gcc/x86_64-unknown-linux-gnu/4.9.2/ -mtune=corei7 -march=x86-64 -g -Og
#
# seed   966000346  -931519355  -119436526  1224895960   798621824  2124580981   415589298 -2010965534 -1619993633 -1053401604 -2121713401  1440855487
#
#      Author: C. J. Pickard (cjp20@cam.ac.uk)
#                Space group: C2
#

%BLOCK LATTICE_ABC
      5.09695      7.03925     12.25136
     82.40148     77.99391     68.77461
%ENDBLOCK LATTICE_ABC

%BLOCK POSITIONS_FRAC
  Li  -0.2747614   0.4007877   0.1113216 SPIN=   0.00000
  Li   0.2373479  -0.4007877  -0.1113216 SPIN=   0.00000
  Li  -0.1052642  -0.1626538   0.2097528 SPIN=   0.00000
  Li  -0.0581652   0.1626538  -0.2097528 SPIN=   0.00000
  Fe  -0.5851380  -0.1187065   0.4081994 SPIN=   4.21642
  Fe   0.7043549   0.1187065  -0.4081994 SPIN=   4.21642
  Fe  -0.0616335  -0.4527535  -0.3489315 SPIN=   3.78358
  Fe   0.1366814   0.4527535   0.3489315 SPIN=   3.78358
   O   0.0170582  -0.0059059   0.3719893 SPIN=   0.00000
   O  -0.0784227   0.3034957   0.2428514 SPIN=   0.00000
   O  -0.4061221   0.3008146   0.4226823 SPIN=   0.00000
   O  -0.3906032   0.0953230   0.2708769 SPIN=   0.00000
   S  -0.2145225   0.1734319   0.3271000 SPIN=   0.00000
   O   0.3831416   0.0059059  -0.3719893 SPIN=   0.00000
   O   0.4679244  -0.3034957  -0.2428514 SPIN=   0.00000
   O   0.3173749  -0.3008146  -0.4226823 SPIN=   0.00000
   O  -0.0244033  -0.0953230  -0.2708769 SPIN=   0.00000
   S   0.2860094  -0.1734319  -0.3271000 SPIN=   0.00000
   O   0.6295485   0.1892920  -0.0778666 SPIN=   0.00000
   O   0.3085978   0.3735692  -0.2130686 SPIN=   0.00000
   O   0.1333593   0.1898172  -0.0438697 SPIN=   0.00000
   O   0.4899692  -0.0042715  -0.1963653 SPIN=   0.00000
   S   0.3903687   0.1871017  -0.1327925 SPIN=   0.00000
   O  -0.2590261  -0.1892920   0.0778666 SPIN=   0.00000
   O  -0.5309017  -0.3735692   0.2130686 SPIN=   0.00000
   O  -0.7206932  -0.1898172   0.0438697 SPIN=   0.00000
   O  -0.7106677   0.0042715   0.1963653 SPIN=   0.00000
   S  -0.5553222  -0.1871017   0.1327925 SPIN=   0.00000
   F  -0.1500054  -0.3505043  -0.1142031 SPIN=   0.00000
   F   0.3852871   0.3505043   0.1142031 SPIN=   0.00000
   F   0.8296952   0.3101933  -0.3574336 SPIN=   0.00000
   F  -0.2175452  -0.3101933   0.3574336 SPIN=   0.00000
%ENDBLOCK POSITIONS_FRAC

# Note: total spin =  16.00

KPOINTS_MP_SPACING 0.07

%BLOCK SPECIES_POT
QC5
%ENDBLOCK SPECIES_POT

SNAP_TO_SYMMETRY
SYMMETRY_GENERATE

