#              Generated by Buildcell
#
# at 09:23:00 (GMT+1.0) 4th August 2020
# in /lustre/scratch/uccabz1/launch_tmp
# on node-c12c-006
# by uccabz1
#
# compiler GCC version 4.9.2
# options -cpp -iprefix /lustre/shared/ucl/apps/gcc/4.9.2/bin/../lib/gcc/x86_64-unknown-linux-gnu/4.9.2/ -mtune=corei7 -march=x86-64 -g -Og
#
# seed  1336794966  1314820521  1231449388 -1962238331   315616718 -1024530086  2105550049   153833351   784490003 -1118567436  -326488991    -3786102
#
#      Author: C. J. Pickard (cjp20@cam.ac.uk)
#                Space group: P2
#

%BLOCK LATTICE_ABC
      6.71112      7.61884      7.96407
    100.79825     90.00000     90.00000
%ENDBLOCK LATTICE_ABC

%BLOCK POSITIONS_FRAC
  Li   0.3769667  -0.2132002   0.1020726 SPIN=   0.00000
  Li   0.3769667   0.2132002  -0.1020726 SPIN=   0.00000
  Li   0.2454464   0.2367852   0.4452260 SPIN=   0.00000
  Li   0.2454464  -0.2367852  -0.4452260 SPIN=   0.00000
  Fe  -0.0449407  -0.0198839   0.2615708 SPIN=   3.77927
  Fe  -0.0449407   0.0198839  -0.2615708 SPIN=   3.77927
  Fe   0.1277159   0.4975807  -0.2372776 SPIN=   4.22073
  Fe   0.1277159  -0.4975807   0.2372776 SPIN=   4.22073
   O  -0.4611226   0.1986138  -0.5960986 SPIN=   0.00000
   O  -0.1616678   0.3463003  -0.4528770 SPIN=   0.00000
   O  -0.3411885   0.1189104  -0.3262279 SPIN=   0.00000
   O  -0.4947932   0.4146833  -0.3238409 SPIN=   0.00000
   S  -0.3646930   0.2696270  -0.4247611 SPIN=   0.00000
   O  -0.4611226  -0.1986138   0.5960986 SPIN=   0.00000
   O  -0.1616678  -0.3463003   0.4528770 SPIN=   0.00000
   O  -0.3411885  -0.1189104   0.3262279 SPIN=   0.00000
   O  -0.4947932  -0.4146833   0.3238409 SPIN=   0.00000
   S  -0.3646930  -0.2696270   0.4247611 SPIN=   0.00000
   O  -0.2106116  -0.4100606  -0.2208627 SPIN=   0.00000
   O  -0.3193540  -0.3521151   0.0814247 SPIN=   0.00000
   O  -0.3987289  -0.1348234  -0.1041306 SPIN=   0.00000
   O  -0.0509567  -0.1695451  -0.0122696 SPIN=   0.00000
   S  -0.2449128  -0.2666360  -0.0639596 SPIN=   0.00000
   O  -0.2106116   0.4100606   0.2208627 SPIN=   0.00000
   O  -0.3193540   0.3521151  -0.0814247 SPIN=   0.00000
   O  -0.3987289   0.1348234   0.1041306 SPIN=   0.00000
   O  -0.0509567   0.1695451   0.0122696 SPIN=   0.00000
   S  -0.2449128   0.2666360   0.0639596 SPIN=   0.00000
   F   0.2581122  -0.2507775  -0.1865566 SPIN=   0.00000
   F   0.2581122   0.2507775   0.1865566 SPIN=   0.00000
   F   0.1319452  -0.2238951   0.3145948 SPIN=   0.00000
   F   0.1319452   0.2238951  -0.3145948 SPIN=   0.00000
%ENDBLOCK POSITIONS_FRAC

# Note: total spin =  16.00

KPOINTS_MP_SPACING 0.07

%BLOCK SPECIES_POT
QC5
%ENDBLOCK SPECIES_POT

SNAP_TO_SYMMETRY
SYMMETRY_GENERATE

