#              Generated by Buildcell
#
# at 05:58:34 (GMT+1.0) 4th August 2020
# in /lustre/scratch/uccabz1/launch_tmp
# on node-c12l-030
# by uccabz1
#
# compiler GCC version 4.9.2
# options -cpp -iprefix /lustre/shared/ucl/apps/gcc/4.9.2/bin/../lib/gcc/x86_64-unknown-linux-gnu/4.9.2/ -mtune=corei7 -march=x86-64 -g -Og
#
# seed -1160702364   615301552   656880617   433214546   355838612   450701260  1689185993  1481791588   187606443    11080813  -879914791  -941083854
#
#      Author: C. J. Pickard (cjp20@cam.ac.uk)
#                Space group: Pc
#

%BLOCK LATTICE_ABC
      5.65957      8.51025      8.55671
     90.00000    103.93428     90.00000
%ENDBLOCK LATTICE_ABC

%BLOCK POSITIONS_FRAC
  Li   0.1626286  -0.1850743  -0.4629876 SPIN=   0.00000
  Li   0.1626286   0.1850743   0.0370124 SPIN=   0.00000
  Li  -0.3781617   0.1533514  -0.4228329 SPIN=   0.00000
  Li  -0.3781617  -0.1533514   0.0771671 SPIN=   0.00000
  Fe  -0.3955325  -0.3151284   0.3743721 SPIN=   2.42183
  Fe  -0.3955325   0.3151284  -0.1256279 SPIN=   2.42183
  Fe   0.1414425  -0.4070735  -0.0508502 SPIN=   5.57817
  Fe   0.1414425   0.4070735   0.4491498 SPIN=   5.57817
   O   0.3555900   0.0508298  -0.1713982 SPIN=   0.00000
   O  -0.0128625   0.2165680  -0.2069082 SPIN=   0.00000
   O  -0.0341980  -0.0388828  -0.3478531 SPIN=   0.00000
   O   0.1880732   0.1838416  -0.4317249 SPIN=   0.00000
   S   0.1241507   0.1030892  -0.2894711 SPIN=   0.00000
   O   0.3555900  -0.0508298   0.3286018 SPIN=   0.00000
   O  -0.0128625  -0.2165680   0.2930918 SPIN=   0.00000
   O  -0.0341980   0.0388828   0.1521469 SPIN=   0.00000
   O   0.1880732  -0.1838416   0.0682751 SPIN=   0.00000
   S   0.1241507  -0.1030892   0.2105289 SPIN=   0.00000
   O  -0.2464136   0.0826296   0.3672899 SPIN=   0.00000
   O  -0.5831602   0.2755907   0.3040470 SPIN=   0.00000
   O  -0.4316363   0.1543246   0.0839532 SPIN=   0.00000
   O  -0.1765215   0.3469504   0.2664703 SPIN=   0.00000
   S  -0.3594329   0.2148738   0.2554401 SPIN=   0.00000
   O  -0.2464136  -0.0826296  -0.1327101 SPIN=   0.00000
   O  -0.5831602  -0.2755907  -0.1959530 SPIN=   0.00000
   O  -0.4316363  -0.1543246  -0.4160468 SPIN=   0.00000
   O  -0.1765215  -0.3469504  -0.2335297 SPIN=   0.00000
   S  -0.3594329  -0.2148738  -0.2445599 SPIN=   0.00000
   F   0.0634353  -0.3959208  -0.4559796 SPIN=   0.00000
   F   0.0634353   0.3959208   0.0440204 SPIN=   0.00000
   F  -0.3987916   0.3684537  -0.3522659 SPIN=   0.00000
   F  -0.3987916  -0.3684537   0.1477341 SPIN=   0.00000
%ENDBLOCK POSITIONS_FRAC

# Note: total spin =  16.00

KPOINTS_MP_SPACING 0.07

%BLOCK SPECIES_POT
QC5
%ENDBLOCK SPECIES_POT

SNAP_TO_SYMMETRY
SYMMETRY_GENERATE

