#              Generated by Buildcell
#
# at 07:40:36 (GMT+1.0) 4th August 2020
# in /lustre/scratch/uccabz1/launch_tmp
# on node-c12c-014
# by uccabz1
#
# compiler GCC version 4.9.2
# options -cpp -iprefix /lustre/shared/ucl/apps/gcc/4.9.2/bin/../lib/gcc/x86_64-unknown-linux-gnu/4.9.2/ -mtune=corei7 -march=x86-64 -g -Og
#
# seed  -404257786  1401497822   333585434  -185215147  1695353739   744988050 -1206840349  1579541322  -915529647  -685366622  -625974635 -1562038967
#
#      Author: C. J. Pickard (cjp20@cam.ac.uk)
#                Space group: Pc
#

%BLOCK LATTICE_ABC
      3.81063      9.53877     11.01410
     90.00000     92.39022     90.00000
%ENDBLOCK LATTICE_ABC

%BLOCK POSITIONS_FRAC
  Li   0.0000046  -0.0263316   0.3426964 SPIN=   0.00000
  Li  -0.4999954   0.0263316  -0.1573036 SPIN=   0.00000
  Li   0.1562058  -0.4054064  -0.2508361 SPIN=   0.00000
  Li  -0.3437942   0.4054064   0.2491639 SPIN=   0.00000
  Fe   0.0282199   0.4496812   0.4923281 SPIN=   3.83148
  Fe  -0.4717801  -0.4496812  -0.0076719 SPIN=   3.83148
  Fe   0.0321610  -0.1083891   0.0241276 SPIN=   4.16852
  Fe  -0.4678390   0.1083891  -0.4758724 SPIN=   4.16852
   O   0.7495093  -0.1456437  -0.4482785 SPIN=   0.00000
   O   0.2258467  -0.2285352  -0.3437213 SPIN=   0.00000
   O   0.5504434  -0.3913033  -0.4733098 SPIN=   0.00000
   O   0.1997674  -0.1983509  -0.5670901 SPIN=   0.00000
   S   0.4313917  -0.2409583  -0.4580999 SPIN=   0.00000
   O   0.2495093   0.1456437   0.0517215 SPIN=   0.00000
   O  -0.2741533   0.2285352   0.1562787 SPIN=   0.00000
   O   0.0504434   0.3913033   0.0266902 SPIN=   0.00000
   O  -0.3002326   0.1983509  -0.0670901 SPIN=   0.00000
   S  -0.0686083   0.2409583   0.0419001 SPIN=   0.00000
   O  -0.3183545   0.5134881  -0.2901958 SPIN=   0.00000
   O  -0.1278875   0.2692136  -0.2500276 SPIN=   0.00000
   O  -0.6718476   0.3156888  -0.3741238 SPIN=   0.00000
   O  -0.6529222   0.3631386  -0.1530368 SPIN=   0.00000
   S  -0.4427530   0.3653823  -0.2668460 SPIN=   0.00000
   O   0.1816455  -0.5134881   0.2098042 SPIN=   0.00000
   O   0.3721125  -0.2692136   0.2499724 SPIN=   0.00000
   O  -0.1718476  -0.3156888   0.1258762 SPIN=   0.00000
   O  -0.1529222  -0.3631386   0.3469632 SPIN=   0.00000
   S   0.0572470  -0.3653823   0.2331540 SPIN=   0.00000
   F   0.1137818  -0.3180643  -0.0887134 SPIN=   0.00000
   F  -0.3862182   0.3180643   0.4112866 SPIN=   0.00000
   F  -0.4130204  -0.0193298   0.2398888 SPIN=   0.00000
   F   0.0869796   0.0193298  -0.2601112 SPIN=   0.00000
%ENDBLOCK POSITIONS_FRAC

# Note: total spin =  16.00

KPOINTS_MP_SPACING 0.07

%BLOCK SPECIES_POT
QC5
%ENDBLOCK SPECIES_POT

SNAP_TO_SYMMETRY
SYMMETRY_GENERATE

