#              Generated by Buildcell
#
# at 12:13:05 (GMT+1.0) 18th August 2020
# in /scratch/scratch/uccabz1/launch_tmp
# on node-k10b-029
# by uccabz1
#
# compiler GCC version 4.9.2
# options -cpp -iprefix /scratch/UCL/applications/gcc/4.9.2/bin/../lib/gcc/x86_64-unknown-linux-gnu/4.9.2/ -mtune=corei7 -march=x86-64 -g -O2
#
# seed   887600341  -112479519  1303560672  1235952558  1242425197  1744086448 -1365628694   -23623732  -620655987  -424096465  -520476481 -1798268083
#
#      Author: C. J. Pickard (cjp20@cam.ac.uk)
#                Space group: Cc
#

%BLOCK LATTICE_ABC
      6.45347      7.96095      7.96095
     92.96919     98.00935     98.00935
%ENDBLOCK LATTICE_ABC

%BLOCK POSITIONS_FRAC
  Li  -0.0508911   0.2672724  -0.3514903 SPIN=   0.00000
  Li   0.4491089  -0.3514903   0.2672724 SPIN=   0.00000
  Li  -0.4553760  -0.4130360  -0.2121844 SPIN=   0.00000
  Li   0.0446240  -0.2121844  -0.4130360 SPIN=   0.00000
  Fe  -0.0406710   0.4932774   0.3346587 SPIN=   3.13714
  Fe   0.4593290   0.3346587   0.4932774 SPIN=   3.13714
  Fe   0.1285964  -0.0529586   0.2694331 SPIN=   4.86286
  Fe  -0.3714036   0.2694331  -0.0529586 SPIN=   4.86286
   O  -0.2355746  -0.1131931  -0.0686673 SPIN=   0.00000
   O  -0.4004428   0.0597712  -0.2845268 SPIN=   0.00000
   O  -0.3347097  -0.2297479  -0.3678744 SPIN=   0.00000
   O  -0.0339846   0.0029013  -0.2900373 SPIN=   0.00000
   S  -0.2511779  -0.0700671  -0.2527765 SPIN=   0.00000
   O   0.2644254  -0.0686673  -0.1131931 SPIN=   0.00000
   O   0.0995572  -0.2845268   0.0597712 SPIN=   0.00000
   O   0.1652903  -0.3678744  -0.2297479 SPIN=   0.00000
   O   0.4660154  -0.2900373   0.0029013 SPIN=   0.00000
   S   0.2488221  -0.2527765  -0.0700671 SPIN=   0.00000
   O  -0.5363725   0.0071017   0.3805062 SPIN=   0.00000
   O  -0.2256524  -0.1082953   0.2972367 SPIN=   0.00000
   O  -0.2145063   0.2026911   0.3451804 SPIN=   0.00000
   O  -0.4405036   0.0460588   0.0931929 SPIN=   0.00000
   S  -0.3542587   0.0368891   0.2790290 SPIN=   0.00000
   O  -0.0363725   0.3805062   0.0071017 SPIN=   0.00000
   O   0.2743476   0.2972367  -0.1082953 SPIN=   0.00000
   O   0.2854937   0.3451804   0.2026911 SPIN=   0.00000
   O   0.0594964   0.0931929   0.0460588 SPIN=   0.00000
   S   0.1457413   0.2790290   0.0368891 SPIN=   0.00000
   F  -0.2440292   0.4460823  -0.3067999 SPIN=   0.00000
   F   0.2559708  -0.3067999   0.4460823 SPIN=   0.00000
   F  -0.3034272  -0.4897024   0.2101927 SPIN=   0.00000
   F   0.1965728   0.2101927  -0.4897024 SPIN=   0.00000
%ENDBLOCK POSITIONS_FRAC

# Note: total spin =  16.00

KPOINTS_MP_SPACING 0.07

%BLOCK SPECIES_POT
QC5
%ENDBLOCK SPECIES_POT

SNAP_TO_SYMMETRY
SYMMETRY_GENERATE

