#              Generated by Buildcell
#
# at 08:41:57 (GMT+1.0) 4th August 2020
# in /lustre/scratch/uccabz1/launch_tmp
# on node-c12m-022
# by uccabz1
#
# compiler GCC version 4.9.2
# options -cpp -iprefix /lustre/shared/ucl/apps/gcc/4.9.2/bin/../lib/gcc/x86_64-unknown-linux-gnu/4.9.2/ -mtune=corei7 -march=x86-64 -g -Og
#
# seed   -91343324  1627432085   504102066  1328918681  1651272808  -605389673  1184118330  1403137086  -551604300  1159332247  1317123923  1450238085
#
#      Author: C. J. Pickard (cjp20@cam.ac.uk)
#                Space group: I-4
#

%BLOCK LATTICE_ABC
      8.05646      8.05646      8.05646
    104.18122    112.17923    112.17923
%ENDBLOCK LATTICE_ABC

%BLOCK POSITIONS_FRAC
  Li  -0.0431940   0.0909920   0.4882444 SPIN=   0.00000
  Li   0.0431940  -0.4685616   0.1341860 SPIN=   0.00000
  Li  -0.3972524  -0.4882444   0.4685616 SPIN=   0.00000
  Li   0.3972524  -0.1341860  -0.0909920 SPIN=   0.00000
  Fe  -0.1261265   0.4004931  -0.2929860 SPIN=   4.00000
  Fe   0.1261265  -0.1668596  -0.4733804 SPIN=   4.00000
  Fe  -0.3065209   0.2929860   0.1668596 SPIN=   4.00000
  Fe   0.3065209   0.4733804  -0.4004931 SPIN=   4.00000
   O  -0.1699940  -0.2538940  -0.1177405 SPIN=   0.00000
   O  -0.0232921  -0.2374372   0.2208256 SPIN=   0.00000
   O  -0.3175767  -0.5605897  -0.0759082 SPIN=   0.00000
   O  -0.3784385  -0.2885473   0.0456207 SPIN=   0.00000
   S  -0.2223253  -0.3351170   0.0181994 SPIN=   0.00000
   O   0.1699940   0.0522534  -0.0839000 SPIN=   0.00000
   O   0.0232921   0.2441177  -0.2141451 SPIN=   0.00000
   O   0.3175767   0.2416685  -0.2430130 SPIN=   0.00000
   O   0.3784385   0.4240592   0.0898913 SPIN=   0.00000
   S   0.2223253   0.2405247  -0.1127917 SPIN=   0.00000
   O  -0.1361534   0.1177405  -0.0522534 SPIN=   0.00000
   O  -0.4582628  -0.2208256  -0.2441177 SPIN=   0.00000
   O  -0.4846816   0.0759082  -0.2416685 SPIN=   0.00000
   O  -0.3341680  -0.0456207  -0.4240592 SPIN=   0.00000
   S  -0.3533164  -0.0181994  -0.2405247 SPIN=   0.00000
   O   0.1361534   0.0839000   0.2538940 SPIN=   0.00000
   O   0.4582628   0.2141451   0.2374372 SPIN=   0.00000
   O   0.4846816   0.2430130   0.5605897 SPIN=   0.00000
   O   0.3341680  -0.0898913   0.2885473 SPIN=   0.00000
   S   0.3533164   0.1127917   0.3351170 SPIN=   0.00000
   F  -0.1650759  -0.2596765   0.4965493 SPIN=   0.00000
   F   0.1650759  -0.3383749  -0.0946006 SPIN=   0.00000
   F   0.2437742  -0.4965493   0.3383749 SPIN=   0.00000
   F  -0.2437742   0.0946006   0.2596765 SPIN=   0.00000
%ENDBLOCK POSITIONS_FRAC

# Note: total spin =  16.00

KPOINTS_MP_SPACING 0.07

%BLOCK SPECIES_POT
QC5
%ENDBLOCK SPECIES_POT

SNAP_TO_SYMMETRY
SYMMETRY_GENERATE

