#              Generated by Buildcell
#
# at 07:24:41 (GMT+1.0) 4th August 2020
# in /lustre/scratch/uccabz1/launch_tmp
# on node-c12n-020
# by uccabz1
#
# compiler GCC version 4.9.2
# options -cpp -iprefix /lustre/shared/ucl/apps/gcc/4.9.2/bin/../lib/gcc/x86_64-unknown-linux-gnu/4.9.2/ -mtune=corei7 -march=x86-64 -g -Og
#
# seed  -382511851   632142006  1135528453 -1712773032   170987340  1238551356   246514357  -516769304  -724626231  -127560807  2139214527  1339916965
#
#      Author: C. J. Pickard (cjp20@cam.ac.uk)
#                Space group: Pc
#

%BLOCK LATTICE_ABC
      6.14322      6.59747     10.40248
    108.42402     90.00000     90.00000
%ENDBLOCK LATTICE_ABC

%BLOCK POSITIONS_FRAC
  Li  -0.3068075   0.0201827  -0.0061991 SPIN=   0.00000
  Li   0.3068075   0.0201827   0.4938009 SPIN=   0.00000
  Li  -0.0368462  -0.4892643  -0.0256554 SPIN=   0.00000
  Li   0.0368462   0.5107357   0.4743446 SPIN=   0.00000
  Fe   0.1706949  -0.0309251   0.1723318 SPIN=   4.78851
  Fe  -0.1706949  -0.0309251  -0.3276682 SPIN=   4.78851
  Fe  -0.3453023   0.7115377   0.3249818 SPIN=   3.21149
  Fe   0.3453023  -0.2884623  -0.1750182 SPIN=   3.21149
   O   0.4835232   0.2229243  -0.3438194 SPIN=   0.00000
   O   0.4889898   0.1301824  -0.1311568 SPIN=   0.00000
   O   0.1868796   0.0047345  -0.2944082 SPIN=   0.00000
   O   0.2176129   0.3880684  -0.1621643 SPIN=   0.00000
   S   0.3442514   0.1864774  -0.2328872 SPIN=   0.00000
   O  -0.4835232   0.2229243   0.1561806 SPIN=   0.00000
   O  -0.4889898   0.1301824   0.3688432 SPIN=   0.00000
   O  -0.1868796   0.0047345   0.2055918 SPIN=   0.00000
   O  -0.2176129   0.3880684   0.3378357 SPIN=   0.00000
   S  -0.3442514   0.1864774   0.2671128 SPIN=   0.00000
   O   0.2175429   0.3677594   0.0576569 SPIN=   0.00000
   O   0.3208152   0.6590860   0.2648942 SPIN=   0.00000
   O   0.1529442   0.3284361   0.2834130 SPIN=   0.00000
   O  -0.0680273   0.5830006   0.2075120 SPIN=   0.00000
   S   0.1558188   0.4845705   0.2033690 SPIN=   0.00000
   O  -0.2175429  -0.6322406  -0.4423431 SPIN=   0.00000
   O  -0.3208152  -0.3409140  -0.2351058 SPIN=   0.00000
   O  -0.1529442  -0.6715639  -0.2165870 SPIN=   0.00000
   O   0.0680273  -0.4169994  -0.2924880 SPIN=   0.00000
   S  -0.1558188  -0.5154295  -0.2966310 SPIN=   0.00000
   F  -0.3855373  -0.3554734   0.0404636 SPIN=   0.00000
   F   0.3855373  -0.3554734  -0.4595364 SPIN=   0.00000
   F   0.1143508  -0.1091840  -0.0263127 SPIN=   0.00000
   F  -0.1143508   0.8908160   0.4736873 SPIN=   0.00000
%ENDBLOCK POSITIONS_FRAC

# Note: total spin =  16.00

KPOINTS_MP_SPACING 0.07

%BLOCK SPECIES_POT
QC5
%ENDBLOCK SPECIES_POT

SNAP_TO_SYMMETRY
SYMMETRY_GENERATE

