#              Generated by Buildcell
#
# at 06:30:29 (GMT+1.0) 18th August 2020
# in /scratch/scratch/uccabz1/launch_tmp
# on node-k10a-026
# by uccabz1
#
# compiler GCC version 4.9.2
# options -cpp -iprefix /scratch/UCL/applications/gcc/4.9.2/bin/../lib/gcc/x86_64-unknown-linux-gnu/4.9.2/ -mtune=corei7 -march=x86-64 -g -O2
#
# seed  1116963526 -1247353135   870374967   100793265  1796881568 -1343034156 -1612538204  -673681417 -1625175398  1375632965  1254239911   668373836
#
#      Author: C. J. Pickard (cjp20@cam.ac.uk)
#                Space group: P2
#

%BLOCK LATTICE_ABC
      6.15585      6.43503     10.14630
     90.00000     90.00000     95.61146
%ENDBLOCK LATTICE_ABC

%BLOCK POSITIONS_FRAC
  Li  -0.2490491  -0.2822255  -0.2525337 SPIN=   0.00000
  Li   0.2490491   0.2822255  -0.2525337 SPIN=   0.00000
  Li   0.2423514  -0.2179989   0.3469345 SPIN=   0.00000
  Li  -0.2423514   0.2179989   0.3469345 SPIN=   0.00000
  Fe   0.2452743  -0.3316898  -0.0252259 SPIN=   3.73782
  Fe  -0.2452743   0.3316898  -0.0252259 SPIN=   3.73782
  Fe   0.2453160   0.1683354   0.1224623 SPIN=   4.26218
  Fe  -0.2453160  -0.1683354   0.1224623 SPIN=   4.26218
   O  -0.3308691  -0.3843122   0.5645027 SPIN=   0.00000
   O  -0.0258691  -0.1741326   0.4535562 SPIN=   0.00000
   O  -0.4063396  -0.1463402   0.3821044 SPIN=   0.00000
   O  -0.2302132  -0.4681967   0.3358081 SPIN=   0.00000
   S  -0.2483227  -0.2932454   0.4339928 SPIN=   0.00000
   O   0.3308691   0.3843122   0.5645027 SPIN=   0.00000
   O   0.0258691   0.1741326   0.4535562 SPIN=   0.00000
   O   0.4063396   0.1463402   0.3821044 SPIN=   0.00000
   O   0.2302132   0.4681967   0.3358081 SPIN=   0.00000
   S   0.2483227   0.2932454   0.4339928 SPIN=   0.00000
   O  -0.0260537   0.3256971  -0.3525248 SPIN=   0.00000
   O  -0.4080483   0.3577933  -0.2858388 SPIN=   0.00000
   O  -0.2397483   0.0313126  -0.2404445 SPIN=   0.00000
   O  -0.3297732   0.1233216  -0.4695397 SPIN=   0.00000
   S  -0.2509059   0.2095311  -0.3370870 SPIN=   0.00000
   O   0.0260537  -0.3256971  -0.3525248 SPIN=   0.00000
   O   0.4080483  -0.3577933  -0.2858388 SPIN=   0.00000
   O   0.2397483  -0.0313126  -0.2404445 SPIN=   0.00000
   O   0.3297732  -0.1233216  -0.4695397 SPIN=   0.00000
   S   0.2509059  -0.2095311  -0.3370870 SPIN=   0.00000
   F   0.2560019   0.2975351  -0.0568926 SPIN=   0.00000
   F  -0.2560019  -0.2975351  -0.0568926 SPIN=   0.00000
   F  -0.2521735   0.1978679   0.1515684 SPIN=   0.00000
   F   0.2521735  -0.1978679   0.1515684 SPIN=   0.00000
%ENDBLOCK POSITIONS_FRAC

# Note: total spin =  16.00

KPOINTS_MP_SPACING 0.07

%BLOCK SPECIES_POT
QC5
%ENDBLOCK SPECIES_POT

SNAP_TO_SYMMETRY
SYMMETRY_GENERATE

