#              Generated by Buildcell
#
# at 15:59:53 (GMT+1.0) 18th August 2020
# in /scratch/scratch/uccabz1/launch_tmp
# on node-k10d-027
# by uccabz1
#
# compiler GCC version 4.9.2
# options -cpp -iprefix /scratch/UCL/applications/gcc/4.9.2/bin/../lib/gcc/x86_64-unknown-linux-gnu/4.9.2/ -mtune=corei7 -march=x86-64 -g -O2
#
# seed -1552766058  1750588068  -405983552   422491138   588907352  -108700556  -574753036  2105544830   785782345  1125450545 -2014771306   -26753929
#
#      Author: C. J. Pickard (cjp20@cam.ac.uk)
#                Space group: Pna21
#

%BLOCK LATTICE_ABC
      5.57773      7.48658      9.57897
     90.00000     90.00000     90.00000
%ENDBLOCK LATTICE_ABC

%BLOCK POSITIONS_FRAC
  Li  -0.1419724   0.1976914  -0.3125939 SPIN=   0.00000
  Li   0.1419724  -0.1976914   0.1874061 SPIN=   0.00000
  Li  -0.3580276  -0.3023086  -0.3125939 SPIN=   0.00000
  Li   0.3580276   0.3023086   0.1874061 SPIN=   0.00000
  Fe   0.3420708   0.2911287  -0.4376473 SPIN=   4.00000
  Fe  -0.3420708  -0.2911287   0.0623527 SPIN=   4.00000
  Fe   0.1579292  -0.2088713  -0.4376473 SPIN=   4.00000
  Fe  -0.1579292   0.2088713   0.0623527 SPIN=   4.00000
   O   0.2154019   0.0269507   0.3071369 SPIN=   0.00000
   O   0.6020859   0.1459109   0.3932201 SPIN=   0.00000
   O   0.5821899  -0.0060192   0.1640510 SPIN=   0.00000
   O   0.5360288  -0.1806515   0.3817702 SPIN=   0.00000
   S   0.4839266  -0.0034523   0.3115446 SPIN=   0.00000
   O  -0.2154019  -0.0269507  -0.1928631 SPIN=   0.00000
   O  -0.6020859  -0.1459109  -0.1067799 SPIN=   0.00000
   O  -0.5821899   0.0060192  -0.3359490 SPIN=   0.00000
   O  -0.5360288   0.1806515  -0.1182298 SPIN=   0.00000
   S  -0.4839266   0.0034523  -0.1884554 SPIN=   0.00000
   O   0.2845981   0.5269507   0.3071369 SPIN=   0.00000
   O  -0.1020859   0.6459109   0.3932201 SPIN=   0.00000
   O  -0.0821899   0.4939808   0.1640510 SPIN=   0.00000
   O  -0.0360288   0.3193485   0.3817702 SPIN=   0.00000
   S   0.0160734   0.4965477   0.3115446 SPIN=   0.00000
   O  -0.2845981  -0.5269507  -0.1928631 SPIN=   0.00000
   O   0.1020859  -0.6459109  -0.1067799 SPIN=   0.00000
   O   0.0821899  -0.4939808  -0.3359490 SPIN=   0.00000
   O   0.0360288  -0.3193485  -0.1182298 SPIN=   0.00000
   S  -0.0160734  -0.4965477  -0.1884554 SPIN=   0.00000
   F  -0.0201638   0.0335392  -0.4489154 SPIN=   0.00000
   F   0.0201638  -0.0335392   0.0510846 SPIN=   0.00000
   F  -0.4798362  -0.4664608  -0.4489154 SPIN=   0.00000
   F   0.4798362   0.4664608   0.0510846 SPIN=   0.00000
%ENDBLOCK POSITIONS_FRAC

# Note: total spin =  16.00

KPOINTS_MP_SPACING 0.07

%BLOCK SPECIES_POT
QC5
%ENDBLOCK SPECIES_POT

SNAP_TO_SYMMETRY
SYMMETRY_GENERATE

