#              Generated by Buildcell
#
# at 05:53:38 (GMT+1.0) 4th August 2020
# in /lustre/scratch/uccabz1/launch_tmp
# on node-c12f-004
# by uccabz1
#
# compiler GCC version 4.9.2
# options -cpp -iprefix /lustre/shared/ucl/apps/gcc/4.9.2/bin/../lib/gcc/x86_64-unknown-linux-gnu/4.9.2/ -mtune=corei7 -march=x86-64 -g -Og
#
# seed   907649706 -1511390402  2032975324   840529966  -290847914  1745589976  -802465875  1579913381 -2101338634  1074701583   613645320   744972895
#
#      Author: C. J. Pickard (cjp20@cam.ac.uk)
#                Space group: Cc
#

%BLOCK LATTICE_ABC
      6.39762      8.03535      8.97560
     63.40877     83.69695     75.80235
%ENDBLOCK LATTICE_ABC

%BLOCK POSITIONS_FRAC
  Li   0.3821253   0.3860732  -0.4739218 SPIN=   0.00000
  Li  -0.1178747  -0.0878486   0.4739218 SPIN=   0.00000
  Li  -0.2735408   0.3827716  -0.1458969 SPIN=   0.00000
  Li   0.2264592   0.2368747   0.1458969 SPIN=   0.00000
  Fe   0.4330034  -0.4626527   0.1303011 SPIN=   4.43148
  Fe  -0.0669966  -0.3323516  -0.1303011 SPIN=   4.43148
  Fe   0.3330788  -0.0269222  -0.3994700 SPIN=   3.56852
  Fe  -0.1669212  -0.4263922   0.3994700 SPIN=   3.56852
   O   0.1425873  -0.2994133   0.5346919 SPIN=   0.00000
   O   0.2815849  -0.0328538   0.3096608 SPIN=   0.00000
   O   0.1211397  -0.2407259   0.2409960 SPIN=   0.00000
   O   0.4748888  -0.3665576   0.3829542 SPIN=   0.00000
   S   0.2550502  -0.2348876   0.3670757 SPIN=   0.00000
   O  -0.3574127   0.2352786  -0.5346919 SPIN=   0.00000
   O  -0.2184151   0.2768070  -0.3096608 SPIN=   0.00000
   O  -0.3788603   0.0002701  -0.2409960 SPIN=   0.00000
   O  -0.0251112   0.0163966  -0.3829542 SPIN=   0.00000
   S  -0.2449498   0.1321881  -0.3670757 SPIN=   0.00000
   O  -0.3038136  -0.0699521   0.1322157 SPIN=   0.00000
   O  -0.0915406   0.1198431   0.1818228 SPIN=   0.00000
   O  -0.4184542   0.0436910   0.3494507 SPIN=   0.00000
   O  -0.4523332   0.2737002   0.0513676 SPIN=   0.00000
   S  -0.3165354   0.0918206   0.1787142 SPIN=   0.00000
   O   0.1961864   0.0622637  -0.1322157 SPIN=   0.00000
   O   0.4084594   0.3016659  -0.1818228 SPIN=   0.00000
   O   0.0815458   0.3931417  -0.3494507 SPIN=   0.00000
   O   0.0476668   0.3250679  -0.0513676 SPIN=   0.00000
   S   0.1834646   0.2705348  -0.1787142 SPIN=   0.00000
   F   0.2188404  -0.2429912  -0.1528877 SPIN=   0.00000
   F  -0.2811596  -0.3958790   0.1528877 SPIN=   0.00000
   F  -0.2485331  -0.3314535  -0.4162812 SPIN=   0.00000
   F   0.2514669   0.2522653   0.4162812 SPIN=   0.00000
%ENDBLOCK POSITIONS_FRAC

# Note: total spin =  16.00

KPOINTS_MP_SPACING 0.07

%BLOCK SPECIES_POT
QC5
%ENDBLOCK SPECIES_POT

SNAP_TO_SYMMETRY
SYMMETRY_GENERATE

