#              Generated by Buildcell
#
# at 03:42:58 (GMT+1.0) 18th August 2020
# in /lustre/scratch/uccabz1/launch_tmp
# on node-c12c-009
# by uccabz1
#
# compiler GCC version 4.9.2
# options -cpp -iprefix /lustre/shared/ucl/apps/gcc/4.9.2/bin/../lib/gcc/x86_64-unknown-linux-gnu/4.9.2/ -mtune=corei7 -march=x86-64 -g -Og
#
# seed -1662961062  1438257442  1459803094  -557414993  1729794918 -1561191934  1238644974  1314634592  1390566105  -667326748 -1306236123    60297727
#
#      Author: C. J. Pickard (cjp20@cam.ac.uk)
#                Space group: P-1
#

%BLOCK LATTICE_ABC
      4.28888      7.81622     12.24352
     99.74132     93.93051     96.82688
%ENDBLOCK LATTICE_ABC

%BLOCK POSITIONS_FRAC
  Li  -0.1163968  -0.4325705   0.2937375 SPIN=   0.00000
  Li   0.1163968   0.4325705  -0.2937375 SPIN=   0.00000
  Li   0.0862936  -0.1231513  -0.3921207 SPIN=   0.00000
  Li  -0.0862936   0.1231513   0.3921207 SPIN=   0.00000
  Fe  -0.3332448  -0.4809962  -0.1313953 SPIN=   2.17484
  Fe   0.3332448   0.4809962   0.1313953 SPIN=   2.17484
  Fe  -0.4559303   0.2092735  -0.4035234 SPIN=   5.82516
  Fe   0.4559303  -0.2092735   0.4035234 SPIN=   5.82516
   O  -0.4444163  -0.1121027   0.0400398 SPIN=   0.00000
   O  -0.7367182  -0.0795190   0.2081462 SPIN=   0.00000
   O  -0.1758507   0.0472393   0.2202127 SPIN=   0.00000
   O  -0.3212117  -0.2742762   0.1910945 SPIN=   0.00000
   S  -0.4195492  -0.1046647   0.1648733 SPIN=   0.00000
   O   0.4444163   0.1121027  -0.0400398 SPIN=   0.00000
   O   0.7367182   0.0795190  -0.2081462 SPIN=   0.00000
   O   0.1758507  -0.0472393  -0.2202127 SPIN=   0.00000
   O   0.3212117   0.2742762  -0.1910945 SPIN=   0.00000
   S   0.4195492   0.1046647  -0.1648733 SPIN=   0.00000
   O  -0.5739694  -0.3283421  -0.2421335 SPIN=   0.00000
   O  -0.1556195  -0.4038637  -0.3642734 SPIN=   0.00000
   O  -0.4101931  -0.1388342  -0.3764045 SPIN=   0.00000
   O  -0.7093539  -0.4329169  -0.4440776 SPIN=   0.00000
   S  -0.4622839  -0.3259892  -0.3567223 SPIN=   0.00000
   O   0.5739694   0.3283421   0.2421335 SPIN=   0.00000
   O   0.1556195   0.4038637   0.3642734 SPIN=   0.00000
   O   0.4101931   0.1388342   0.3764045 SPIN=   0.00000
   O   0.7093539   0.4329169   0.4440776 SPIN=   0.00000
   S   0.4622839   0.3259892   0.3567223 SPIN=   0.00000
   F   0.0101821  -0.2404550   0.4067075 SPIN=   0.00000
   F  -0.0101821   0.2404550  -0.4067075 SPIN=   0.00000
   F  -0.0069580  -0.2918466  -0.0795316 SPIN=   0.00000
   F   0.0069580   0.2918466   0.0795316 SPIN=   0.00000
%ENDBLOCK POSITIONS_FRAC

# Note: total spin =  16.00

KPOINTS_MP_SPACING 0.07

%BLOCK SPECIES_POT
QC5
%ENDBLOCK SPECIES_POT

SNAP_TO_SYMMETRY
SYMMETRY_GENERATE

