#              Generated by Buildcell
#
# at 09:14:50 (GMT+1.0) 4th August 2020
# in /lustre/scratch/uccabz1/launch_tmp
# on node-c12g-005
# by uccabz1
#
# compiler GCC version 4.9.2
# options -cpp -iprefix /lustre/shared/ucl/apps/gcc/4.9.2/bin/../lib/gcc/x86_64-unknown-linux-gnu/4.9.2/ -mtune=corei7 -march=x86-64 -g -Og
#
# seed  -329375305   657357130 -1374809065 -1921982250  -859925999  1651406717 -2104575498  -621104760  -759008244  1079597594  1393733646   -42754524
#
#      Author: C. J. Pickard (cjp20@cam.ac.uk)
#                Space group: P-1
#

%BLOCK LATTICE_ABC
      5.26275      7.94606      9.93655
     85.29929     81.70972     76.92434
%ENDBLOCK LATTICE_ABC

%BLOCK POSITIONS_FRAC
  Li  -0.5658596   0.1954100   0.2196386 SPIN=   0.00000
  Li   0.5658596  -0.1954100  -0.2196386 SPIN=   0.00000
  Li  -0.3312224   0.2012742  -0.1302119 SPIN=   0.00000
  Li   0.3312224  -0.2012742   0.1302119 SPIN=   0.00000
  Fe   0.3473170   0.2190842  -0.4461055 SPIN=   3.72231
  Fe  -0.3473170  -0.2190842   0.4461055 SPIN=   3.72231
  Fe  -0.2194751   0.4960560   0.1580855 SPIN=   4.27769
  Fe   0.2194751  -0.4960560  -0.1580855 SPIN=   4.27769
   O  -0.8272000  -0.5893088   0.4321903 SPIN=   0.00000
   O  -1.0341916  -0.3283871   0.3011622 SPIN=   0.00000
   O  -0.6029472  -0.5046938   0.2089533 SPIN=   0.00000
   O  -0.6370988  -0.3289269   0.4078429 SPIN=   0.00000
   S  -0.7753594  -0.4378292   0.3375372 SPIN=   0.00000
   O   0.8272000   0.5893088  -0.4321903 SPIN=   0.00000
   O   1.0341916   0.3283871  -0.3011622 SPIN=   0.00000
   O   0.6029472   0.5046938  -0.2089533 SPIN=   0.00000
   O   0.6370988   0.3289269  -0.4078429 SPIN=   0.00000
   S   0.7753594   0.4378292  -0.3375372 SPIN=   0.00000
   O  -0.0217691  -0.1463529  -0.4843293 SPIN=   0.00000
   O   0.3657536  -0.2208354  -0.3590310 SPIN=   0.00000
   O  -0.0619582  -0.2777453  -0.2497908 SPIN=   0.00000
   O  -0.0022413   0.0232678  -0.2894442 SPIN=   0.00000
   S   0.0699463  -0.1554164  -0.3456488 SPIN=   0.00000
   O   0.0217691   0.1463529   0.4843293 SPIN=   0.00000
   O  -0.3657536   0.2208354   0.3590310 SPIN=   0.00000
   O   0.0619582   0.2777453   0.2497908 SPIN=   0.00000
   O   0.0022413  -0.0232678   0.2894442 SPIN=   0.00000
   S  -0.0699463   0.1554164   0.3456488 SPIN=   0.00000
   F   0.4550408   0.0804632  -0.2078485 SPIN=   0.00000
   F  -0.4550408  -0.0804632   0.2078485 SPIN=   0.00000
   F   0.1890815  -0.3114061  -0.0155242 SPIN=   0.00000
   F  -0.1890815   0.3114061   0.0155242 SPIN=   0.00000
%ENDBLOCK POSITIONS_FRAC

# Note: total spin =  16.00

KPOINTS_MP_SPACING 0.07

%BLOCK SPECIES_POT
QC5
%ENDBLOCK SPECIES_POT

SNAP_TO_SYMMETRY
SYMMETRY_GENERATE

