#              Generated by Buildcell
#
# at 03:42:05 (GMT+1.0) 18th August 2020
# in /lustre/scratch/uccabz1/launch_tmp
# on node-c12m-014
# by uccabz1
#
# compiler GCC version 4.9.2
# options -cpp -iprefix /lustre/shared/ucl/apps/gcc/4.9.2/bin/../lib/gcc/x86_64-unknown-linux-gnu/4.9.2/ -mtune=corei7 -march=x86-64 -g -Og
#
# seed  -156078643  1729571798  -806834096 -1456226464   589151483   988975657   -61697075  -726557805 -1763478044 -1687773713 -1624618550  1970348701
#
#      Author: C. J. Pickard (cjp20@cam.ac.uk)
#                Space group: Pc
#

%BLOCK LATTICE_ABC
      6.23430      7.80386      8.24122
     90.00000     93.94167     90.00000
%ENDBLOCK LATTICE_ABC

%BLOCK POSITIONS_FRAC
  Li   0.4136006   0.1894751  -0.3547060 SPIN=   0.00000
  Li   0.4136006  -0.1894751   0.1452940 SPIN=   0.00000
  Li   0.2191531  -0.2469777  -0.3465038 SPIN=   0.00000
  Li   0.2191531   0.2469777   0.1534962 SPIN=   0.00000
  Fe   0.3676373   0.4909092   0.4194670 SPIN=   3.92106
  Fe   0.3676373  -0.4909092  -0.0805330 SPIN=   3.92106
  Fe  -0.0674361  -0.2271991   0.2358492 SPIN=   4.07894
  Fe  -0.0674361   0.2271991  -0.2641508 SPIN=   4.07894
   O  -0.0490513  -0.3603822  -0.2945157 SPIN=   0.00000
   O  -0.0406773  -0.2406281  -0.0160811 SPIN=   0.00000
   O  -0.0976245  -0.5514748  -0.0601965 SPIN=   0.00000
   O  -0.3834465  -0.3454119  -0.1497503 SPIN=   0.00000
   S  -0.1426999  -0.3744743  -0.1301359 SPIN=   0.00000
   O  -0.0490513   0.3603822   0.2054843 SPIN=   0.00000
   O  -0.0406773   0.2406281   0.4839189 SPIN=   0.00000
   O  -0.0976245   0.5514748   0.4398035 SPIN=   0.00000
   O  -0.3834465   0.3454119   0.3502497 SPIN=   0.00000
   S  -0.1426999   0.3744743   0.3698641 SPIN=   0.00000
   O  -0.3794197  -0.3091145   0.5741121 SPIN=   0.00000
   O  -0.3594732  -0.1463155   0.3178732 SPIN=   0.00000
   O  -0.2849141  -0.0010785   0.5827144 SPIN=   0.00000
   O  -0.6558198  -0.0911482   0.4959433 SPIN=   0.00000
   S  -0.4199067  -0.1369142   0.4926607 SPIN=   0.00000
   O  -0.3794197   0.3091145   0.0741121 SPIN=   0.00000
   O  -0.3594732   0.1463155  -0.1821268 SPIN=   0.00000
   O  -0.2849141   0.0010785   0.0827144 SPIN=   0.00000
   O  -0.6558198   0.0911482  -0.0040567 SPIN=   0.00000
   S  -0.4199067   0.1369142  -0.0073393 SPIN=   0.00000
   F   0.3390914   0.4455547  -0.3305723 SPIN=   0.00000
   F   0.3390914  -0.4455547   0.1694277 SPIN=   0.00000
   F   0.0991751   0.0302177  -0.2971711 SPIN=   0.00000
   F   0.0991751  -0.0302177   0.2028289 SPIN=   0.00000
%ENDBLOCK POSITIONS_FRAC

# Note: total spin =  16.00

KPOINTS_MP_SPACING 0.07

%BLOCK SPECIES_POT
QC5
%ENDBLOCK SPECIES_POT

SNAP_TO_SYMMETRY
SYMMETRY_GENERATE

