#              Generated by Buildcell
#
# at 06:50:52 (GMT+1.0) 18th August 2020
# in /lustre/scratch/uccabz1/launch_tmp
# on node-c12i-024
# by uccabz1
#
# compiler GCC version 4.9.2
# options -cpp -iprefix /lustre/shared/ucl/apps/gcc/4.9.2/bin/../lib/gcc/x86_64-unknown-linux-gnu/4.9.2/ -mtune=corei7 -march=x86-64 -g -Og
#
# seed -1237650717  1192284473   395982871 -1712377818   947050735  -388848525  -914796172  1550482842   372898667  1307283760 -1251088106   412069730
#
#      Author: C. J. Pickard (cjp20@cam.ac.uk)
#                Space group: P21212
#

%BLOCK LATTICE_ABC
      6.26326      6.62201      9.64429
     90.00000     90.00000     90.00000
%ENDBLOCK LATTICE_ABC

%BLOCK POSITIONS_FRAC
  Li   0.2870797  -0.2502878  -0.1061234 SPIN=   0.00000
  Li   0.2870797   0.2502878   0.1061234 SPIN=   0.00000
  Li  -0.2870797   0.2497122  -0.3938766 SPIN=   0.00000
  Li  -0.2870797  -0.2497122   0.3938766 SPIN=   0.00000
  Fe   0.0310171  -0.1403014   0.1618187 SPIN=   4.00000
  Fe   0.0310171   0.1403014  -0.1618187 SPIN=   4.00000
  Fe  -0.0310171   0.3596986   0.3381813 SPIN=   4.00000
  Fe  -0.0310171  -0.3596986  -0.3381813 SPIN=   4.00000
   O   0.6905604   0.1700812   0.3332237 SPIN=   0.00000
   O   0.4187328   0.4411559   0.3265290 SPIN=   0.00000
   O   0.4214036   0.1960631   0.5202506 SPIN=   0.00000
   O   0.3126212   0.0861741   0.2853728 SPIN=   0.00000
   S   0.4608295   0.2233686   0.3663440 SPIN=   0.00000
   O   0.6905604  -0.1700812  -0.3332237 SPIN=   0.00000
   O   0.4187328  -0.4411559  -0.3265290 SPIN=   0.00000
   O   0.4214036  -0.1960631  -0.5202506 SPIN=   0.00000
   O   0.3126212  -0.0861741  -0.2853728 SPIN=   0.00000
   S   0.4608295  -0.2233686  -0.3663440 SPIN=   0.00000
   O  -0.6905604  -0.3299188   0.1667763 SPIN=   0.00000
   O  -0.4187328  -0.0588441   0.1734710 SPIN=   0.00000
   O  -0.4214036  -0.3039369  -0.0202506 SPIN=   0.00000
   O  -0.3126212  -0.4138259   0.2146272 SPIN=   0.00000
   S  -0.4608295  -0.2766314   0.1336560 SPIN=   0.00000
   O  -0.6905604   0.3299188  -0.1667763 SPIN=   0.00000
   O  -0.4187328   0.0588441  -0.1734710 SPIN=   0.00000
   O  -0.4214036   0.3039369   0.0202506 SPIN=   0.00000
   O  -0.3126212   0.4138259  -0.2146272 SPIN=   0.00000
   S  -0.4608295   0.2766314  -0.1336560 SPIN=   0.00000
   F   0.0251558   0.2502235  -0.3739739 SPIN=   0.00000
   F   0.0251558  -0.2502235   0.3739739 SPIN=   0.00000
   F  -0.0251558  -0.2497765  -0.1260261 SPIN=   0.00000
   F  -0.0251558   0.2497765   0.1260261 SPIN=   0.00000
%ENDBLOCK POSITIONS_FRAC

# Note: total spin =  16.00

KPOINTS_MP_SPACING 0.07

%BLOCK SPECIES_POT
QC5
%ENDBLOCK SPECIES_POT

SNAP_TO_SYMMETRY
SYMMETRY_GENERATE

