#              Generated by Buildcell
#
# at 09:37:21 (GMT+1.0) 18th August 2020
# in /lustre/scratch/uccabz1/launch_tmp
# on node-c12h-024
# by uccabz1
#
# compiler GCC version 4.9.2
# options -cpp -iprefix /lustre/shared/ucl/apps/gcc/4.9.2/bin/../lib/gcc/x86_64-unknown-linux-gnu/4.9.2/ -mtune=corei7 -march=x86-64 -g -Og
#
# seed  -453863168 -1933918373    44999687   362813078   231746738  -324473913  1431962668  -677931733 -1203487800   785037408   518258218 -2065010485
#
#      Author: C. J. Pickard (cjp20@cam.ac.uk)
#                Space group: P-1
#

%BLOCK LATTICE_ABC
      6.49340      6.67408     10.29042
     89.19183     71.82302     71.49087
%ENDBLOCK LATTICE_ABC

%BLOCK POSITIONS_FRAC
  Li  -0.0074530  -0.3505082   0.1463283 SPIN=   0.00000
  Li   0.0074530   0.3505082  -0.1463283 SPIN=   0.00000
  Li   0.0411706   0.1343079   0.2723861 SPIN=   0.00000
  Li  -0.0411706  -0.1343079  -0.2723861 SPIN=   0.00000
  Fe  -0.4069057   0.0347324   0.3121036 SPIN=   4.75041
  Fe   0.4069057  -0.0347324  -0.3121036 SPIN=   4.75041
  Fe   0.9050563   0.2776795  -0.4189185 SPIN=   3.24959
  Fe  -0.9050563  -0.2776795   0.4189185 SPIN=   3.24959
   O  -0.3087240  -0.3106785   0.0472677 SPIN=   0.00000
   O  -0.5013204  -0.4238127  -0.0969325 SPIN=   0.00000
   O  -0.1219590  -0.3801694  -0.2047286 SPIN=   0.00000
   O  -0.4668799  -0.0646703  -0.1065202 SPIN=   0.00000
   S  -0.3497208  -0.2948327  -0.0902284 SPIN=   0.00000
   O   0.3087240   0.3106785  -0.0472677 SPIN=   0.00000
   O   0.5013204   0.4238127   0.0969325 SPIN=   0.00000
   O   0.1219590   0.3801694   0.2047286 SPIN=   0.00000
   O   0.4668799   0.0646703   0.1065202 SPIN=   0.00000
   S   0.3497208   0.2948327   0.0902284 SPIN=   0.00000
   O   0.1960658   0.6281358  -0.1681643 SPIN=   0.00000
   O   0.5523742   0.3354483  -0.2895197 SPIN=   0.00000
   O   0.3923648   0.6300603  -0.4163298 SPIN=   0.00000
   O   0.1920572   0.3693286  -0.3364725 SPIN=   0.00000
   S   0.3332155   0.4907433  -0.3026216 SPIN=   0.00000
   O  -0.1960658  -0.6281358   0.1681643 SPIN=   0.00000
   O  -0.5523742  -0.3354483   0.2895197 SPIN=   0.00000
   O  -0.3923648  -0.6300603   0.4163298 SPIN=   0.00000
   O  -0.1920572  -0.3693286   0.3364725 SPIN=   0.00000
   S  -0.3332155  -0.4907433   0.3026216 SPIN=   0.00000
   F   0.7663124  -0.1742819  -0.4441723 SPIN=   0.00000
   F  -0.7663124   0.1742819   0.4441723 SPIN=   0.00000
   F  -0.0839513   0.1124368  -0.1642490 SPIN=   0.00000
   F   0.0839513  -0.1124368   0.1642490 SPIN=   0.00000
%ENDBLOCK POSITIONS_FRAC

# Note: total spin =  16.00

KPOINTS_MP_SPACING 0.07

%BLOCK SPECIES_POT
QC5
%ENDBLOCK SPECIES_POT

SNAP_TO_SYMMETRY
SYMMETRY_GENERATE

