#              Generated by Buildcell
#
# at 12:53:38 (GMT+1.0) 18th August 2020
# in /lustre/scratch/uccabz1/launch_tmp
# on node-c12j-002
# by uccabz1
#
# compiler GCC version 4.9.2
# options -cpp -iprefix /lustre/shared/ucl/apps/gcc/4.9.2/bin/../lib/gcc/x86_64-unknown-linux-gnu/4.9.2/ -mtune=corei7 -march=x86-64 -g -Og
#
# seed -1604692014  -297283932  1915495301   -39343454 -1928344934   217639554 -1631013237 -1566191648  1265319109 -1083802733  2134264964   203844829
#
#      Author: C. J. Pickard (cjp20@cam.ac.uk)
#                Space group: C2/m
#

%BLOCK LATTICE_ABC
      7.09340      7.09340      8.14661
     98.39573     98.39573     93.05671
%ENDBLOCK LATTICE_ABC

%BLOCK POSITIONS_FRAC
  Li   0.2992251   0.2992251  -0.4013192 SPIN=   0.00000
  Li  -0.2992251  -0.2992251   0.4013192 SPIN=   0.00000
  Li   0.3204740  -0.3204740   0.0000000 SPIN=   0.00000
  Li  -0.3204740   0.3204740  -0.0000000 SPIN=   0.00000
  Fe   0.1115230   0.1115230  -0.1632513 SPIN=   4.14887
  Fe  -0.1115230  -0.1115230   0.1632513 SPIN=   4.14887
  Fe  -0.3186046   0.3186046  -0.5000000 SPIN=   3.85113
  Fe   0.3186046  -0.3186046   0.5000000 SPIN=   3.85113
   O   0.1912519  -0.4546155  -0.2777823 SPIN=   0.00000
   O  -0.1185491  -0.3580467  -0.4086729 SPIN=   0.00000
   O   0.0425178  -0.1819412  -0.1350704 SPIN=   0.00000
   O  -0.1008341  -0.5116261  -0.1534614 SPIN=   0.00000
   S   0.0035966  -0.3765574  -0.2437468 SPIN=   0.00000
   O   0.4546155  -0.1912519   0.2777823 SPIN=   0.00000
   O   0.3580467   0.1185491   0.4086729 SPIN=   0.00000
   O   0.1819412  -0.0425178   0.1350704 SPIN=   0.00000
   O   0.5116261   0.1008341   0.1534614 SPIN=   0.00000
   S   0.3765574  -0.0035966   0.2437468 SPIN=   0.00000
   O  -0.1912519   0.4546155   0.2777823 SPIN=   0.00000
   O   0.1185491   0.3580467   0.4086729 SPIN=   0.00000
   O  -0.0425178   0.1819412   0.1350704 SPIN=   0.00000
   O   0.1008341   0.5116261   0.1534614 SPIN=   0.00000
   S  -0.0035966   0.3765574   0.2437468 SPIN=   0.00000
   O  -0.4546155   0.1912519  -0.2777823 SPIN=   0.00000
   O  -0.3580467  -0.1185491  -0.4086729 SPIN=   0.00000
   O  -0.1819412   0.0425178  -0.1350704 SPIN=   0.00000
   O  -0.5116261  -0.1008341  -0.1534614 SPIN=   0.00000
   S  -0.3765574   0.0035966  -0.2437468 SPIN=   0.00000
   F  -0.3043644  -0.3043644   0.0609846 SPIN=   0.00000
   F   0.3043644   0.3043644  -0.0609846 SPIN=   0.00000
   F   0.0000000   0.0000000  -0.5000000 SPIN=   0.00000
   F  -0.5000000  -0.5000000  -0.5000000 SPIN=   0.00000
%ENDBLOCK POSITIONS_FRAC

# Note: total spin =  16.00

KPOINTS_MP_SPACING 0.07

%BLOCK SPECIES_POT
QC5
%ENDBLOCK SPECIES_POT

SNAP_TO_SYMMETRY
SYMMETRY_GENERATE

