#              Generated by Buildcell
#
# at 00:29:23 (GMT+1.0) 18th August 2020
# in /lustre/scratch/uccabz1/launch_tmp
# on node-c12f-006
# by uccabz1
#
# compiler GCC version 4.9.2
# options -cpp -iprefix /lustre/shared/ucl/apps/gcc/4.9.2/bin/../lib/gcc/x86_64-unknown-linux-gnu/4.9.2/ -mtune=corei7 -march=x86-64 -g -Og
#
# seed -1009933658   440570444 -1403432690 -1518276252   445042565   832461271  1120210802  1583833261 -1943496662 -1236941869 -2061865748  -630461760
#
#      Author: C. J. Pickard (cjp20@cam.ac.uk)
#                Space group: P21
#

%BLOCK LATTICE_ABC
      5.80951      8.03634      8.80205
    103.25213     90.00000     90.00000
%ENDBLOCK LATTICE_ABC

%BLOCK POSITIONS_FRAC
  Li  -0.3044257   0.1184079  -0.0284263 SPIN=   0.00000
  Li   0.1955743  -0.1184079   0.0284263 SPIN=   0.00000
  Li   0.0926366   0.3499822   0.2513299 SPIN=   0.00000
  Li  -0.4073634  -0.3499822  -0.2513299 SPIN=   0.00000
  Fe   0.3820198  -0.0908539   0.3698070 SPIN=   4.21090
  Fe  -0.1179802   0.0908539  -0.3698070 SPIN=   4.21090
  Fe  -0.4648386   0.4845395   0.1260724 SPIN=   3.78910
  Fe   0.0351614  -0.4845395  -0.1260724 SPIN=   3.78910
   O   0.3799691  -0.1521599  -0.4052217 SPIN=   0.00000
   O   0.4607629  -0.1127268  -0.1231348 SPIN=   0.00000
   O   0.1459744   0.0499826  -0.2114775 SPIN=   0.00000
   O   0.5518578   0.1184048  -0.2571069 SPIN=   0.00000
   S   0.3846410  -0.0241249  -0.2492352 SPIN=   0.00000
   O  -0.1200309   0.1521599   0.4052217 SPIN=   0.00000
   O  -0.0392371   0.1127268   0.1231348 SPIN=   0.00000
   O  -0.3540256  -0.0499826   0.2114775 SPIN=   0.00000
   O   0.0518578  -0.1184048   0.2571069 SPIN=   0.00000
   S  -0.1153590   0.0241249   0.2492352 SPIN=   0.00000
   O  -0.2376263  -0.5456374   0.3335307 SPIN=   0.00000
   O   0.1045002  -0.3571238   0.3729720 SPIN=   0.00000
   O  -0.1231697  -0.3946937   0.6004000 SPIN=   0.00000
   O  -0.2856921  -0.2320224   0.4184573 SPIN=   0.00000
   S  -0.1354969  -0.3823693   0.4313400 SPIN=   0.00000
   O   0.2623737   0.5456374  -0.3335307 SPIN=   0.00000
   O   0.6045002   0.3571238  -0.3729720 SPIN=   0.00000
   O   0.3768303   0.3946937  -0.6004000 SPIN=   0.00000
   O   0.2143079   0.2320224  -0.4184573 SPIN=   0.00000
   S   0.3645031   0.3823693  -0.4313400 SPIN=   0.00000
   F   0.3899071  -0.3975649  -0.0483370 SPIN=   0.00000
   F  -0.1100929   0.3975649   0.0483370 SPIN=   0.00000
   F  -0.1100946  -0.1845902  -0.1333868 SPIN=   0.00000
   F   0.3899054   0.1845902   0.1333868 SPIN=   0.00000
%ENDBLOCK POSITIONS_FRAC

# Note: total spin =  16.00

KPOINTS_MP_SPACING 0.07

%BLOCK SPECIES_POT
QC5
%ENDBLOCK SPECIES_POT

SNAP_TO_SYMMETRY
SYMMETRY_GENERATE

