#              Generated by Buildcell
#
# at 23:55:46 (GMT+1.0) 17th August 2020
# in /lustre/scratch/uccabz1/launch_tmp
# on node-c12l-008
# by uccabz1
#
# compiler GCC version 4.9.2
# options -cpp -iprefix /lustre/shared/ucl/apps/gcc/4.9.2/bin/../lib/gcc/x86_64-unknown-linux-gnu/4.9.2/ -mtune=corei7 -march=x86-64 -g -Og
#
# seed -1347356943   492758336  1436559662  -954172692  -658111752  1694000212  -899473535   -13842936  2123042707  -585960108  2147140407  1115620042
#
#      Author: C. J. Pickard (cjp20@cam.ac.uk)
#                Space group: P2
#

%BLOCK LATTICE_ABC
      7.38168      7.40542      7.83209
    110.88772     90.00000     90.00000
%ENDBLOCK LATTICE_ABC

%BLOCK POSITIONS_FRAC
  Li  -0.2705789   0.4769738   0.2340838 SPIN=   0.00000
  Li  -0.2705789  -0.4769738  -0.2340838 SPIN=   0.00000
  Li   0.0882229  -0.2038822  -0.3947908 SPIN=   0.00000
  Li   0.0882229   0.2038822   0.3947908 SPIN=   0.00000
  Fe  -0.2043613   0.1606264  -0.1347417 SPIN=   3.34487
  Fe  -0.2043613  -0.1606264   0.1347417 SPIN=   3.34487
  Fe   0.3471008   0.3210826   0.1573018 SPIN=   4.65513
  Fe   0.3471008  -0.3210826  -0.1573018 SPIN=   4.65513
   O  -0.4624914  -0.0331526  -0.3545378 SPIN=   0.00000
   O  -0.4392618  -0.3682245  -0.3590660 SPIN=   0.00000
   O  -0.1707684  -0.2083326  -0.4311184 SPIN=   0.00000
   O  -0.4270479  -0.3052243  -0.6486666 SPIN=   0.00000
   S  -0.3748924  -0.2287335  -0.4483472 SPIN=   0.00000
   O  -0.4624914   0.0331526   0.3545378 SPIN=   0.00000
   O  -0.4392618   0.3682245   0.3590660 SPIN=   0.00000
   O  -0.1707684   0.2083326   0.4311184 SPIN=   0.00000
   O  -0.4270479   0.3052243   0.6486666 SPIN=   0.00000
   S  -0.3748924   0.2287335   0.4483472 SPIN=   0.00000
   O   0.2839441   0.1706105  -0.4565666 SPIN=   0.00000
   O   0.2015640   0.0258327  -0.2270474 SPIN=   0.00000
   O   0.0230827   0.2990031  -0.2503741 SPIN=   0.00000
   O   0.3354226   0.3535486  -0.1277240 SPIN=   0.00000
   S   0.2110034   0.2122487  -0.2654280 SPIN=   0.00000
   O   0.2839441  -0.1706105   0.4565666 SPIN=   0.00000
   O   0.2015640  -0.0258327   0.2270474 SPIN=   0.00000
   O   0.0230827  -0.2990031   0.2503741 SPIN=   0.00000
   O   0.3354226  -0.3535486   0.1277240 SPIN=   0.00000
   S   0.2110034  -0.2122487   0.2654280 SPIN=   0.00000
   F  -0.0465890   0.0000000   0.0000000 SPIN=   0.00000
   F  -0.2434148  -0.5000000  -0.0000000 SPIN=   0.00000
   F   0.0376885  -0.5000000   0.5000000 SPIN=   0.00000
   F   0.4564443   0.0000000   0.0000000 SPIN=   0.00000
%ENDBLOCK POSITIONS_FRAC

# Note: total spin =  16.00

KPOINTS_MP_SPACING 0.07

%BLOCK SPECIES_POT
QC5
%ENDBLOCK SPECIES_POT

SNAP_TO_SYMMETRY
SYMMETRY_GENERATE

