#              Generated by Buildcell
#
# at 02:38:33 (GMT+1.0) 18th August 2020
# in /lustre/scratch/uccabz1/launch_tmp
# on node-c12e-014
# by uccabz1
#
# compiler GCC version 4.9.2
# options -cpp -iprefix /lustre/shared/ucl/apps/gcc/4.9.2/bin/../lib/gcc/x86_64-unknown-linux-gnu/4.9.2/ -mtune=corei7 -march=x86-64 -g -Og
#
# seed   347863644  1475435608 -1250168722  -458756252 -1897238623  1670414054  1647727761  -869173897  1941606258  -569888314 -1985928478  -540658035
#
#      Author: C. J. Pickard (cjp20@cam.ac.uk)
#                Space group: P-1
#

%BLOCK LATTICE_ABC
      6.97071      8.14679      8.86450
     98.98719    110.42947    114.84690
%ENDBLOCK LATTICE_ABC

%BLOCK POSITIONS_FRAC
  Li   0.7906378   0.4757124   0.0945966 SPIN=   0.00000
  Li  -0.7906378  -0.4757124  -0.0945966 SPIN=   0.00000
  Li  -0.3801465  -0.2724996   0.4227252 SPIN=   0.00000
  Li   0.3801465   0.2724996  -0.4227252 SPIN=   0.00000
  Fe  -0.6036317  -0.3597651  -0.3322271 SPIN=   3.04607
  Fe   0.6036317   0.3597651   0.3322271 SPIN=   3.04607
  Fe  -0.1542284   0.1410516  -0.3749734 SPIN=   4.95393
  Fe   0.1542284  -0.1410516   0.3749734 SPIN=   4.95393
   O  -0.0615757   0.3137506   0.0272885 SPIN=   0.00000
   O   0.1857060   0.3803787   0.3336145 SPIN=   0.00000
   O   0.2276087   0.6518346   0.2289176 SPIN=   0.00000
   O   0.3716599   0.4417091   0.1406852 SPIN=   0.00000
   S   0.1808497   0.4469182   0.1826265 SPIN=   0.00000
   O   0.0615757  -0.3137506  -0.0272885 SPIN=   0.00000
   O  -0.1857060  -0.3803787  -0.3336145 SPIN=   0.00000
   O  -0.2276087  -0.6518346  -0.2289176 SPIN=   0.00000
   O  -0.3716599  -0.4417091  -0.1406852 SPIN=   0.00000
   S  -0.1808497  -0.4469182  -0.1826265 SPIN=   0.00000
   O   0.2139977   0.0528426  -0.3550125 SPIN=   0.00000
   O   0.1092736  -0.0741904  -0.1415685 SPIN=   0.00000
   O   0.4277892   0.2658158  -0.0489749 SPIN=   0.00000
   O   0.4944296  -0.0013431  -0.1361641 SPIN=   0.00000
   S   0.3113725   0.0607812  -0.1704300 SPIN=   0.00000
   O  -0.2139977  -0.0528426   0.3550125 SPIN=   0.00000
   O  -0.1092736   0.0741904   0.1415685 SPIN=   0.00000
   O  -0.4277892  -0.2658158   0.0489749 SPIN=   0.00000
   O  -0.4944296   0.0013431   0.1361641 SPIN=   0.00000
   S  -0.3113725  -0.0607812   0.1704300 SPIN=   0.00000
   F  -0.1421753  -0.3828228   0.3365558 SPIN=   0.00000
   F   0.1421753   0.3828228  -0.3365558 SPIN=   0.00000
   F  -0.3577272  -0.1315132  -0.3550462 SPIN=   0.00000
   F   0.3577272   0.1315132   0.3550462 SPIN=   0.00000
%ENDBLOCK POSITIONS_FRAC

# Note: total spin =  16.00

KPOINTS_MP_SPACING 0.07

%BLOCK SPECIES_POT
QC5
%ENDBLOCK SPECIES_POT

SNAP_TO_SYMMETRY
SYMMETRY_GENERATE

