#              Generated by Buildcell
#
# at 01:13:17 (GMT+1.0) 18th August 2020
# in /lustre/scratch/uccabz1/launch_tmp
# on node-c12c-010
# by uccabz1
#
# compiler GCC version 4.9.2
# options -cpp -iprefix /lustre/shared/ucl/apps/gcc/4.9.2/bin/../lib/gcc/x86_64-unknown-linux-gnu/4.9.2/ -mtune=corei7 -march=x86-64 -g -Og
#
# seed    75187194    88861101  -146974864 -1575507449 -1238419053  1427968838 -2050071301  2101607524  1804305052  1832032211   335815564  1390049376
#
#      Author: C. J. Pickard (cjp20@cam.ac.uk)
#                Space group: C2/c
#

%BLOCK LATTICE_ABC
      6.77628      8.41631      8.41631
     67.99197     68.69325     68.69325
%ENDBLOCK LATTICE_ABC

%BLOCK POSITIONS_FRAC
  Li  -0.4047518  -0.2531902  -0.4407408 SPIN=   0.00000
  Li  -0.0952482   0.4407408   0.2531902 SPIN=   0.00000
  Li   0.4047518   0.2531902   0.4407408 SPIN=   0.00000
  Li   0.0952482  -0.4407408  -0.2531902 SPIN=   0.00000
  Fe   0.2029031  -0.3160027  -0.0016976 SPIN=   4.00000
  Fe   0.2970969   0.0016976   0.3160027 SPIN=   4.00000
  Fe  -0.2029031   0.3160027   0.0016976 SPIN=   4.00000
  Fe  -0.2970969  -0.0016976  -0.3160027 SPIN=   4.00000
   O   0.4541894   0.4166727  -0.2481213 SPIN=   0.00000
   O   0.1457736   0.3313329   0.0047011 SPIN=   0.00000
   O   0.5171076   0.2431268   0.0482015 SPIN=   0.00000
   O   0.4412761   0.1024126  -0.1265028 SPIN=   0.00000
   S   0.3895867   0.2733863  -0.0804304 SPIN=   0.00000
   O   0.0458106   0.2481213  -0.4166727 SPIN=   0.00000
   O   0.3542264  -0.0047011  -0.3313329 SPIN=   0.00000
   O  -0.0171076  -0.0482015  -0.2431268 SPIN=   0.00000
   O   0.0587239   0.1265028  -0.1024126 SPIN=   0.00000
   S   0.1104133   0.0804304  -0.2733863 SPIN=   0.00000
   O  -0.4541894  -0.4166727   0.2481213 SPIN=   0.00000
   O  -0.1457736  -0.3313329  -0.0047011 SPIN=   0.00000
   O  -0.5171076  -0.2431268  -0.0482015 SPIN=   0.00000
   O  -0.4412761  -0.1024126   0.1265028 SPIN=   0.00000
   S  -0.3895867  -0.2733863   0.0804304 SPIN=   0.00000
   O  -0.0458106  -0.2481213   0.4166727 SPIN=   0.00000
   O  -0.3542264   0.0047011   0.3313329 SPIN=   0.00000
   O   0.0171076   0.0482015   0.2431268 SPIN=   0.00000
   O  -0.0587239  -0.1265028   0.1024126 SPIN=   0.00000
   S  -0.1104133  -0.0804304   0.2733863 SPIN=   0.00000
   F   0.3026298  -0.2655448  -0.4785324 SPIN=   0.00000
   F   0.1973702   0.4785324   0.2655448 SPIN=   0.00000
   F  -0.3026298   0.2655448   0.4785324 SPIN=   0.00000
   F  -0.1973702  -0.4785324  -0.2655448 SPIN=   0.00000
%ENDBLOCK POSITIONS_FRAC

# Note: total spin =  16.00

KPOINTS_MP_SPACING 0.07

%BLOCK SPECIES_POT
QC5
%ENDBLOCK SPECIES_POT

SNAP_TO_SYMMETRY
SYMMETRY_GENERATE

