#              Generated by Buildcell
#
# at 23:49:54 (GMT+1.0) 17th August 2020
# in /lustre/scratch/uccabz1/launch_tmp
# on node-c12f-006
# by uccabz1
#
# compiler GCC version 4.9.2
# options -cpp -iprefix /lustre/shared/ucl/apps/gcc/4.9.2/bin/../lib/gcc/x86_64-unknown-linux-gnu/4.9.2/ -mtune=corei7 -march=x86-64 -g -Og
#
# seed   610029981  1660251035   926700072   710833747 -1509596497   423809681 -1667078519  1842677312  1237607806   992661748 -1352500935   227974275
#
#      Author: C. J. Pickard (cjp20@cam.ac.uk)
#                Space group: P-1
#

%BLOCK LATTICE_ABC
      4.92707      8.44805     10.19765
     76.66032     78.66268     78.80348
%ENDBLOCK LATTICE_ABC

%BLOCK POSITIONS_FRAC
  Li   0.2017105  -0.1309816   0.1241425 SPIN=   0.00000
  Li  -0.2017105   0.1309816  -0.1241425 SPIN=   0.00000
  Li  -0.3012263  -0.2416410   0.4126675 SPIN=   0.00000
  Li   0.3012263   0.2416410  -0.4126675 SPIN=   0.00000
  Fe   0.3439232   0.4144342  -0.1851462 SPIN=   4.15673
  Fe  -0.3439232  -0.4144342   0.1851462 SPIN=   4.15673
  Fe  -0.5957655   0.1020951   0.3238007 SPIN=   3.84327
  Fe   0.5957655  -0.1020951  -0.3238007 SPIN=   3.84327
   O  -0.1283988  -0.3031930  -0.4093433 SPIN=   0.00000
   O   0.3339434  -0.2233282  -0.4197038 SPIN=   0.00000
   O   0.2234433  -0.3045970  -0.6190570 SPIN=   0.00000
   O   0.2975241  -0.5140349  -0.4099535 SPIN=   0.00000
   S   0.1816280  -0.3362883  -0.4645144 SPIN=   0.00000
   O   0.1283988   0.3031930   0.4093433 SPIN=   0.00000
   O  -0.3339434   0.2233282   0.4197038 SPIN=   0.00000
   O  -0.2234433   0.3045970   0.6190570 SPIN=   0.00000
   O  -0.2975241   0.5140349   0.4099535 SPIN=   0.00000
   S  -0.1816280   0.3362883   0.4645144 SPIN=   0.00000
   O  -0.3534281   0.2016412   0.1274232 SPIN=   0.00000
   O   0.0580287   0.2545240  -0.0502017 SPIN=   0.00000
   O   0.1256398   0.0944746   0.1801664 SPIN=   0.00000
   S  -0.0547830   0.2361096   0.1010116 SPIN=   0.00000
   O   0.3534281  -0.2016412  -0.1274232 SPIN=   0.00000
   O  -0.0580287  -0.2545240   0.0502017 SPIN=   0.00000
   O  -0.1256398  -0.0944746  -0.1801664 SPIN=   0.00000
   S   0.0547830  -0.2361096  -0.1010116 SPIN=   0.00000
   O  -0.5000000   0.0000000   0.0000000 SPIN=   0.00000
   O   0.0000000   0.0000000   0.5000000 SPIN=   0.00000
   F  -0.4454826  -0.0956236   0.2467784 SPIN=   0.00000
   F   0.4454826   0.0956236  -0.2467784 SPIN=   0.00000
   F  -0.6824380  -0.4964528   0.1923505 SPIN=   0.00000
   F   0.6824380   0.4964528  -0.1923505 SPIN=   0.00000
%ENDBLOCK POSITIONS_FRAC

# Note: total spin =  16.00

KPOINTS_MP_SPACING 0.07

%BLOCK SPECIES_POT
QC5
%ENDBLOCK SPECIES_POT

SNAP_TO_SYMMETRY
SYMMETRY_GENERATE

