#              Generated by Buildcell
#
# at 14:58:50 (GMT+1.0) 18th August 2020
# in /lustre/scratch/uccabz1/launch_tmp
# on node-c12p-010
# by uccabz1
#
# compiler GCC version 4.9.2
# options -cpp -iprefix /lustre/shared/ucl/apps/gcc/4.9.2/bin/../lib/gcc/x86_64-unknown-linux-gnu/4.9.2/ -mtune=corei7 -march=x86-64 -g -Og
#
# seed  1848886841  1612449517   868068052 -1505499999  1221642499  -602680927  -816569058 -1016379344   838126432  1105113648 -1548877510  1037344324
#
#      Author: C. J. Pickard (cjp20@cam.ac.uk)
#                Space group: P-1
#

%BLOCK LATTICE_ABC
      7.31960      7.57497      8.37640
    115.76078    103.02256     94.00640
%ENDBLOCK LATTICE_ABC

%BLOCK POSITIONS_FRAC
  Li   0.1722130   0.1079013   0.3510517 SPIN=   0.00000
  Li  -0.1722130  -0.1079013  -0.3510517 SPIN=   0.00000
  Li   0.3740211   0.0355138  -0.2199286 SPIN=   0.00000
  Li  -0.3740211  -0.0355138   0.2199286 SPIN=   0.00000
  Fe   0.1611134   0.3348347   0.0209238 SPIN=   3.99803
  Fe  -0.1611134  -0.3348347  -0.0209238 SPIN=   3.99803
  Fe  -0.2548132   0.4115161   0.4281846 SPIN=   4.00197
  Fe   0.2548132  -0.4115161  -0.4281846 SPIN=   4.00197
   O   0.1452741  -0.1052235  -0.1954248 SPIN=   0.00000
   O   0.3234651  -0.2861602  -0.0470221 SPIN=   0.00000
   O   0.0922717  -0.0914007   0.0910129 SPIN=   0.00000
   O   0.3972974   0.0831453   0.1023368 SPIN=   0.00000
   S   0.2395771  -0.0999098  -0.0122743 SPIN=   0.00000
   O  -0.1452741   0.1052235   0.1954248 SPIN=   0.00000
   O  -0.3234651   0.2861602   0.0470221 SPIN=   0.00000
   O  -0.0922717   0.0914007  -0.0910129 SPIN=   0.00000
   O  -0.3972974  -0.0831453  -0.1023368 SPIN=   0.00000
   S  -0.2395771   0.0999098   0.0122743 SPIN=   0.00000
   O  -0.4889038   0.3532726  -0.4815901 SPIN=   0.00000
   O  -0.6715175   0.1247345  -0.4085061 SPIN=   0.00000
   O  -0.4973095   0.4581369  -0.1596899 SPIN=   0.00000
   O  -0.3180584   0.1955936  -0.3037602 SPIN=   0.00000
   S  -0.4939473   0.2829344  -0.3383866 SPIN=   0.00000
   O   0.4889038  -0.3532726   0.4815901 SPIN=   0.00000
   O   0.6715175  -0.1247345   0.4085061 SPIN=   0.00000
   O   0.4973095  -0.4581369   0.1596899 SPIN=   0.00000
   O   0.3180584  -0.1955936   0.3037602 SPIN=   0.00000
   S   0.4939473  -0.2829344   0.3383866 SPIN=   0.00000
   F   0.1889174   0.3519914   0.3327332 SPIN=   0.00000
   F  -0.1889174  -0.3519914  -0.3327332 SPIN=   0.00000
   F   0.0787076   0.2416305  -0.2445463 SPIN=   0.00000
   F  -0.0787076  -0.2416305   0.2445463 SPIN=   0.00000
%ENDBLOCK POSITIONS_FRAC

# Note: total spin =  16.00

KPOINTS_MP_SPACING 0.07

%BLOCK SPECIES_POT
QC5
%ENDBLOCK SPECIES_POT

SNAP_TO_SYMMETRY
SYMMETRY_GENERATE

