#              Generated by Buildcell
#
# at 06:25:44 (GMT+1.0) 4th August 2020
# in /lustre/scratch/uccabz1/launch_tmp
# on node-c12k-036
# by uccabz1
#
# compiler GCC version 4.9.2
# options -cpp -iprefix /lustre/shared/ucl/apps/gcc/4.9.2/bin/../lib/gcc/x86_64-unknown-linux-gnu/4.9.2/ -mtune=corei7 -march=x86-64 -g -Og
#
# seed   920644087  -754850037 -1778223832  1504460343  2028900079  -627905175  1356684518   182416758  1518700988 -1102353628  -864699475  -505397996
#
#      Author: C. J. Pickard (cjp20@cam.ac.uk)
#                Space group: P212121
#

%BLOCK LATTICE_ABC
      6.86336      7.41790      7.85674
     90.00000     90.00000     90.00000
%ENDBLOCK LATTICE_ABC

%BLOCK POSITIONS_FRAC
  Li  -0.4153374  -0.1115696   0.3494079 SPIN=   0.00000
  Li  -0.0846626   0.1115696  -0.1505921 SPIN=   0.00000
  Li   0.4153374   0.3884304   0.1505921 SPIN=   0.00000
  Li   0.0846626  -0.3884304  -0.3494079 SPIN=   0.00000
  Fe  -0.2892599  -0.3310876   0.0447017 SPIN=   4.00000
  Fe  -0.2107401   0.3310876  -0.4552983 SPIN=   4.00000
  Fe   0.2892599   0.1689124   0.4552983 SPIN=   4.00000
  Fe   0.2107401  -0.1689124  -0.0447017 SPIN=   4.00000
   O  -0.1855058   0.2195196   0.0664237 SPIN=   0.00000
   O  -0.1793890   0.1077462   0.3631726 SPIN=   0.00000
   O   0.1287077   0.1426254   0.2028503 SPIN=   0.00000
   O  -0.1032151  -0.0992743   0.1252785 SPIN=   0.00000
   S  -0.0848505   0.0926542   0.1894313 SPIN=   0.00000
   O  -0.3144942  -0.2195196  -0.4335763 SPIN=   0.00000
   O  -0.3206110  -0.1077462  -0.1368274 SPIN=   0.00000
   O  -0.6287077  -0.1426254  -0.2971497 SPIN=   0.00000
   O  -0.3967849   0.0992743  -0.3747215 SPIN=   0.00000
   S  -0.4151495  -0.0926542  -0.3105687 SPIN=   0.00000
   O   0.1855058  -0.2804804   0.4335763 SPIN=   0.00000
   O   0.1793890  -0.3922538   0.1368274 SPIN=   0.00000
   O  -0.1287077  -0.3573746   0.2971497 SPIN=   0.00000
   O   0.1032151  -0.5992743   0.3747215 SPIN=   0.00000
   S   0.0848505  -0.4073458   0.3105687 SPIN=   0.00000
   O   0.3144942   0.2804804  -0.0664237 SPIN=   0.00000
   O   0.3206110   0.3922538  -0.3631726 SPIN=   0.00000
   O   0.6287077   0.3573746  -0.2028503 SPIN=   0.00000
   O   0.3967849   0.5992743  -0.1252785 SPIN=   0.00000
   S   0.4151495   0.4073458  -0.1894313 SPIN=   0.00000
   F   0.0720536   0.0871741  -0.3686877 SPIN=   0.00000
   F   0.4279464  -0.0871741   0.1313123 SPIN=   0.00000
   F  -0.0720536  -0.4128259  -0.1313123 SPIN=   0.00000
   F  -0.4279464   0.4128259   0.3686877 SPIN=   0.00000
%ENDBLOCK POSITIONS_FRAC

# Note: total spin =  16.00

KPOINTS_MP_SPACING 0.07

%BLOCK SPECIES_POT
QC5
%ENDBLOCK SPECIES_POT

SNAP_TO_SYMMETRY
SYMMETRY_GENERATE

