#              Generated by Buildcell
#
# at 16:06:51 (GMT+1.0) 18th August 2020
# in /scratch/scratch/uccabz1/launch_tmp
# on node-k10h-023
# by uccabz1
#
# compiler GCC version 4.9.2
# options -cpp -iprefix /scratch/UCL/applications/gcc/4.9.2/bin/../lib/gcc/x86_64-unknown-linux-gnu/4.9.2/ -mtune=corei7 -march=x86-64 -g -O2
#
# seed -2086994092   605367069  1008959976 -1464635191 -1274336473  1895876240 -1589068523 -1247778382  1635942134  1917769975 -1429671212 -1379991228
#
#      Author: C. J. Pickard (cjp20@cam.ac.uk)
#                Space group: Pm
#

%BLOCK LATTICE_ABC
      3.87461      8.86563     11.72826
     90.00000     90.00000     96.85020
%ENDBLOCK LATTICE_ABC

%BLOCK POSITIONS_FRAC
  Li   0.3492855  -0.0199926   0.3374365 SPIN=   0.00000
  Li   0.3492855  -0.0199926  -0.3374365 SPIN=   0.00000
  Li  -0.3619102  -0.4154176  -0.5000000 SPIN=   0.00000
  Li   0.4046914  -0.0997483  -0.0000000 SPIN=   0.00000
  Fe  -0.0751994   0.0814663   0.1519322 SPIN=   4.91501
  Fe  -0.0751994   0.0814663  -0.1519322 SPIN=   4.91501
  Fe   0.1366931   0.4847558  -0.1503272 SPIN=   3.08499
  Fe   0.1366931   0.4847558   0.1503272 SPIN=   3.08499
   O  -0.0726817  -0.3904958  -0.2904469 SPIN=   0.00000
   O  -0.4675646  -0.2281987  -0.3834024 SPIN=   0.00000
   O  -0.0473450  -0.1190502  -0.2378661 SPIN=   0.00000
   O  -0.5534226  -0.3002412  -0.1806049 SPIN=   0.00000
   S  -0.2852535  -0.2594965  -0.2730801 SPIN=   0.00000
   O  -0.0726817  -0.3904958   0.2904469 SPIN=   0.00000
   O  -0.4675646  -0.2281987   0.3834024 SPIN=   0.00000
   O  -0.0473450  -0.1190502   0.2378661 SPIN=   0.00000
   O  -0.5534226  -0.3002412   0.1806049 SPIN=   0.00000
   S  -0.2852535  -0.2594965   0.2730801 SPIN=   0.00000
   O  -0.1026755   0.3107044   0.3939132 SPIN=   0.00000
   O  -0.4262388   0.2236594   0.2194123 SPIN=   0.00000
   O  -0.5845738   0.4467998   0.3254120 SPIN=   0.00000
   S  -0.4559547   0.2926200   0.3367254 SPIN=   0.00000
   O  -0.1026755   0.3107044  -0.3939132 SPIN=   0.00000
   O  -0.4262388   0.2236594  -0.2194123 SPIN=   0.00000
   O  -0.5845738   0.4467998  -0.3254120 SPIN=   0.00000
   S  -0.4559547   0.2926200  -0.3367254 SPIN=   0.00000
   O  -0.0508298   0.3170887   0.0000000 SPIN=   0.00000
   O   0.4906115   0.4716631   0.0000000 SPIN=   0.00000
   F   0.3946774   0.1148455   0.0000000 SPIN=   0.00000
   F   0.0410301  -0.3241930  -0.0000000 SPIN=   0.00000
   F   0.1300200  -0.4323293   0.5000000 SPIN=   0.00000
   F   0.0673949   0.0053946   0.5000000 SPIN=   0.00000
%ENDBLOCK POSITIONS_FRAC

# Note: total spin =  16.00

KPOINTS_MP_SPACING 0.07

%BLOCK SPECIES_POT
QC5
%ENDBLOCK SPECIES_POT

SNAP_TO_SYMMETRY
SYMMETRY_GENERATE

