#              Generated by Buildcell
#
# at 07:10:48 (GMT+1.0) 4th August 2020
# in /lustre/scratch/uccabz1/launch_tmp
# on node-c12g-008
# by uccabz1
#
# compiler GCC version 4.9.2
# options -cpp -iprefix /lustre/shared/ucl/apps/gcc/4.9.2/bin/../lib/gcc/x86_64-unknown-linux-gnu/4.9.2/ -mtune=corei7 -march=x86-64 -g -Og
#
# seed  -472767533  -432484832 -1632822940   350613600 -1256950178   696704294  -490668129   -88708376   -65111593 -1853003567  1820785589   144748431
#
#      Author: C. J. Pickard (cjp20@cam.ac.uk)
#                Space group: P212121
#

%BLOCK LATTICE_ABC
      4.22678      8.84519     10.69899
     90.00000     90.00000     90.00000
%ENDBLOCK LATTICE_ABC

%BLOCK POSITIONS_FRAC
  Li  -0.2500000  -0.2613668   0.0234259 SPIN=   0.00000
  Li   0.2500000  -0.2386332  -0.4765741 SPIN=   0.00000
  Li   0.2500000   0.2613668   0.4765741 SPIN=   0.00000
  Li  -0.2500000   0.2386332  -0.0234259 SPIN=   0.00000
  Fe   0.2500000  -0.1306232  -0.1504458 SPIN=   4.00000
  Fe  -0.2500000  -0.3693768   0.3495542 SPIN=   4.00000
  Fe  -0.2500000   0.1306232  -0.3495542 SPIN=   4.00000
  Fe   0.2500000   0.3693768   0.1504458 SPIN=   4.00000
   O  -0.5904967   0.1195785   0.3060605 SPIN=   0.00000
   O  -0.0650288   0.0293269   0.3756738 SPIN=   0.00000
   O  -0.2399549   0.2889007   0.4274452 SPIN=   0.00000
   O  -0.1045196   0.2226375   0.2091694 SPIN=   0.00000
   S  -0.2500000   0.1651109   0.3295872 SPIN=   0.00000
   O   0.5904967   0.3804215  -0.1939395 SPIN=   0.00000
   O   0.0650288   0.4706731  -0.1243262 SPIN=   0.00000
   O   0.2399549   0.2110993  -0.0725548 SPIN=   0.00000
   O   0.1045196   0.2773625  -0.2908306 SPIN=   0.00000
   S   0.2500000   0.3348891  -0.1704128 SPIN=   0.00000
   O  -0.0904967  -0.1195785   0.1939395 SPIN=   0.00000
   O   0.4349712  -0.0293269   0.1243262 SPIN=   0.00000
   O   0.2600451  -0.2889007   0.0725548 SPIN=   0.00000
   O   0.3954804  -0.2226375   0.2908306 SPIN=   0.00000
   S   0.2500000  -0.1651109   0.1704128 SPIN=   0.00000
   O   0.0904967  -0.3804215  -0.3060605 SPIN=   0.00000
   O  -0.4349712  -0.4706731  -0.3756738 SPIN=   0.00000
   O  -0.2600451  -0.2110993  -0.4274452 SPIN=   0.00000
   O  -0.3954804  -0.2773625  -0.2091694 SPIN=   0.00000
   S  -0.2500000  -0.3348891  -0.3295872 SPIN=   0.00000
   F   0.2500000   0.0096451  -0.4052132 SPIN=   0.00000
   F  -0.2500000   0.4903549   0.0947868 SPIN=   0.00000
   F  -0.2500000  -0.0096451  -0.0947868 SPIN=   0.00000
   F   0.2500000  -0.4903549   0.4052132 SPIN=   0.00000
%ENDBLOCK POSITIONS_FRAC

# Note: total spin =  16.00

KPOINTS_MP_SPACING 0.07

%BLOCK SPECIES_POT
QC5
%ENDBLOCK SPECIES_POT

SNAP_TO_SYMMETRY
SYMMETRY_GENERATE

