#              Generated by Buildcell
#
# at 05:50:31 (GMT+1.0) 4th August 2020
# in /lustre/scratch/uccabz1/launch_tmp
# on node-c12n-016
# by uccabz1
#
# compiler GCC version 4.9.2
# options -cpp -iprefix /lustre/shared/ucl/apps/gcc/4.9.2/bin/../lib/gcc/x86_64-unknown-linux-gnu/4.9.2/ -mtune=corei7 -march=x86-64 -g -Og
#
# seed  1493013370 -1586032446    73409698  2097196024   594601488  2077683884 -1456215855  1464336951   432635177 -2078349212  1967266454 -1135252055
#
#      Author: C. J. Pickard (cjp20@cam.ac.uk)
#                Space group: P21
#

%BLOCK LATTICE_ABC
      5.61935      8.47005      9.26450
    114.88932     90.00000     90.00000
%ENDBLOCK LATTICE_ABC

%BLOCK POSITIONS_FRAC
  Li   0.2247033   0.0881127  -0.3200745 SPIN=   0.00000
  Li  -0.2752967  -0.0881127   0.3200745 SPIN=   0.00000
  Li  -0.2734988   0.3559305  -0.3553773 SPIN=   0.00000
  Li   0.2265012  -0.3559305   0.3553773 SPIN=   0.00000
  Fe   0.1633792   0.3342755   0.4397362 SPIN=   4.86244
  Fe  -0.3366208  -0.3342755  -0.4397362 SPIN=   4.86244
  Fe   0.2254586  -0.1214739   0.1789354 SPIN=   3.13756
  Fe  -0.2745414   0.1214739  -0.1789354 SPIN=   3.13756
   O   0.4576035   0.4016587   0.0904192 SPIN=   0.00000
   O   0.1426337   0.1767486   0.0123397 SPIN=   0.00000
   O   0.2227451   0.3349476  -0.1543558 SPIN=   0.00000
   O   0.0337982   0.4877162   0.1097912 SPIN=   0.00000
   S   0.2141951   0.3502678   0.0145486 SPIN=   0.00000
   O  -0.0423965  -0.4016587  -0.0904192 SPIN=   0.00000
   O  -0.3573663  -0.1767486  -0.0123397 SPIN=   0.00000
   O  -0.2772549  -0.3349476   0.1543558 SPIN=   0.00000
   O  -0.4662018  -0.4877162  -0.1097912 SPIN=   0.00000
   S  -0.2858049  -0.3502678  -0.0145486 SPIN=   0.00000
   O   0.1807989  -0.2706892  -0.3714206 SPIN=   0.00000
   O   0.3803411  -0.0107100  -0.1702682 SPIN=   0.00000
   O   0.2791133  -0.2586552  -0.1065873 SPIN=   0.00000
   O  -0.0404877  -0.0716579  -0.1332831 SPIN=   0.00000
   S   0.1999414  -0.1529281  -0.1953898 SPIN=   0.00000
   O  -0.3192011   0.2706892   0.3714206 SPIN=   0.00000
   O  -0.1196589   0.0107100   0.1702682 SPIN=   0.00000
   O  -0.2208867   0.2586552   0.1065873 SPIN=   0.00000
   O  -0.5404877   0.0716579   0.1332831 SPIN=   0.00000
   S  -0.3000586   0.1529281   0.1953898 SPIN=   0.00000
   F   0.3972559   0.3789148  -0.3983067 SPIN=   0.00000
   F  -0.1027441  -0.3789148   0.3983067 SPIN=   0.00000
   F  -0.1027672   0.1172182  -0.3772217 SPIN=   0.00000
   F   0.3972328  -0.1172182   0.3772217 SPIN=   0.00000
%ENDBLOCK POSITIONS_FRAC

# Note: total spin =  16.00

KPOINTS_MP_SPACING 0.07

%BLOCK SPECIES_POT
QC5
%ENDBLOCK SPECIES_POT

SNAP_TO_SYMMETRY
SYMMETRY_GENERATE

