#              Generated by Buildcell
#
# at 09:19:15 (GMT+1.0) 4th August 2020
# in /lustre/scratch/uccabz1/launch_tmp
# on node-c12p-012
# by uccabz1
#
# compiler GCC version 4.9.2
# options -cpp -iprefix /lustre/shared/ucl/apps/gcc/4.9.2/bin/../lib/gcc/x86_64-unknown-linux-gnu/4.9.2/ -mtune=corei7 -march=x86-64 -g -Og
#
# seed  1463061919 -1605410372   783202409  -544616044  -150676520   266154114  1085958521  1623731785  -374120188  -682543861  1874648488    62340814
#
#      Author: C. J. Pickard (cjp20@cam.ac.uk)
#                Space group: C2/c
#

%BLOCK LATTICE_ABC
      7.45672      7.45672      7.50245
     78.35120     78.35120     89.16350
%ENDBLOCK LATTICE_ABC

%BLOCK POSITIONS_FRAC
  Li  -0.2999970   0.1184532  -0.4420396 SPIN=   0.00000
  Li  -0.1184532   0.2999970  -0.0579604 SPIN=   0.00000
  Li   0.2999970  -0.1184532   0.4420396 SPIN=   0.00000
  Li   0.1184532  -0.2999970   0.0579604 SPIN=   0.00000
  Fe   0.5000000  -0.0000000  -0.0000000 SPIN=   3.78573
  Fe  -0.0000000  -0.5000000  -0.5000000 SPIN=   3.78573
  Fe   0.0225703  -0.0225703  -0.2500000 SPIN=   4.21427
  Fe  -0.0225703   0.0225703   0.2500000 SPIN=   4.21427
   O   0.4389950   0.1870345  -0.2327716 SPIN=   0.00000
   O   0.2355620   0.4379781  -0.3276989 SPIN=   0.00000
   O   0.2318658   0.1499685  -0.4431109 SPIN=   0.00000
   O   0.5000016   0.3639258  -0.5565550 SPIN=   0.00000
   S   0.3516061   0.2847267  -0.3900341 SPIN=   0.00000
   O  -0.1870345  -0.4389950  -0.2672284 SPIN=   0.00000
   O  -0.4379781  -0.2355620  -0.1723011 SPIN=   0.00000
   O  -0.1499685  -0.2318658  -0.0568891 SPIN=   0.00000
   O  -0.3639258  -0.5000016   0.0565550 SPIN=   0.00000
   S  -0.2847267  -0.3516061  -0.1099659 SPIN=   0.00000
   O  -0.4389950  -0.1870345   0.2327716 SPIN=   0.00000
   O  -0.2355620  -0.4379781   0.3276989 SPIN=   0.00000
   O  -0.2318658  -0.1499685   0.4431109 SPIN=   0.00000
   O  -0.5000016  -0.3639258   0.5565550 SPIN=   0.00000
   S  -0.3516061  -0.2847267   0.3900341 SPIN=   0.00000
   O   0.1870345   0.4389950   0.2672284 SPIN=   0.00000
   O   0.4379781   0.2355620   0.1723011 SPIN=   0.00000
   O   0.1499685   0.2318658   0.0568891 SPIN=   0.00000
   O   0.3639258   0.5000016  -0.0565550 SPIN=   0.00000
   S   0.2847267   0.3516061   0.1099659 SPIN=   0.00000
   F   0.1815886  -0.1815886   0.2500000 SPIN=   0.00000
   F  -0.1815886   0.1815886  -0.2500000 SPIN=   0.00000
   F   0.2268149  -0.2268149  -0.2500000 SPIN=   0.00000
   F  -0.2268149   0.2268149   0.2500000 SPIN=   0.00000
%ENDBLOCK POSITIONS_FRAC

# Note: total spin =  16.00

KPOINTS_MP_SPACING 0.07

%BLOCK SPECIES_POT
QC5
%ENDBLOCK SPECIES_POT

SNAP_TO_SYMMETRY
SYMMETRY_GENERATE

