#              Generated by Buildcell
#
# at 06:20:49 (GMT+1.0) 4th August 2020
# in /lustre/scratch/uccabz1/launch_tmp
# on node-c12l-028
# by uccabz1
#
# compiler GCC version 4.9.2
# options -cpp -iprefix /lustre/shared/ucl/apps/gcc/4.9.2/bin/../lib/gcc/x86_64-unknown-linux-gnu/4.9.2/ -mtune=corei7 -march=x86-64 -g -Og
#
# seed   975470809 -1693438093 -1038558653   424718459  -246970907  1728350360 -1135439757   737149805   903112543   969287171  -268733337  1756930284
#
#      Author: C. J. Pickard (cjp20@cam.ac.uk)
#                Space group: P-1
#

%BLOCK LATTICE_ABC
      6.63425      8.48498      8.50112
    110.51858    106.40136    103.32390
%ENDBLOCK LATTICE_ABC

%BLOCK POSITIONS_FRAC
  Li  -0.2956979  -0.3937200  -0.0600150 SPIN=   0.00000
  Li   0.2956979   0.3937200   0.0600150 SPIN=   0.00000
  Li  -0.1012631  -0.2616446  -0.3546762 SPIN=   0.00000
  Li   0.1012631   0.2616446   0.3546762 SPIN=   0.00000
  Fe  -0.4153405   0.1213405   0.2512698 SPIN=   2.56867
  Fe   0.4153405  -0.1213405  -0.2512698 SPIN=   2.56867
  Fe  -0.0704597   0.1144428  -0.3014007 SPIN=   5.43133
  Fe   0.0704597  -0.1144428   0.3014007 SPIN=   5.43133
   O   0.3715109   0.1017796  -0.5487941 SPIN=   0.00000
   O   0.3189241   0.3669351  -0.3467410 SPIN=   0.00000
   O   0.6863854   0.3990502  -0.3738213 SPIN=   0.00000
   O   0.5646052   0.2282399  -0.2121771 SPIN=   0.00000
   S   0.4853564   0.2740012  -0.3703834 SPIN=   0.00000
   O  -0.3715109  -0.1017796   0.5487941 SPIN=   0.00000
   O  -0.3189241  -0.3669351   0.3467410 SPIN=   0.00000
   O  -0.6863854  -0.3990502   0.3738213 SPIN=   0.00000
   O  -0.5646052  -0.2282399   0.2121771 SPIN=   0.00000
   S  -0.4853564  -0.2740012   0.3703834 SPIN=   0.00000
   O  -0.0936318   0.4710587   0.3485461 SPIN=   0.00000
   O   0.0239604   0.5842454   0.1445407 SPIN=   0.00000
   O  -0.3817665   0.4327815   0.0652603 SPIN=   0.00000
   O  -0.1341927   0.2548580   0.0460574 SPIN=   0.00000
   S  -0.1464076   0.4357359   0.1511011 SPIN=   0.00000
   O   0.0936318  -0.4710587  -0.3485461 SPIN=   0.00000
   O  -0.0239604  -0.5842454  -0.1445407 SPIN=   0.00000
   O   0.3817665  -0.4327815  -0.0652603 SPIN=   0.00000
   O   0.1341927  -0.2548580  -0.0460574 SPIN=   0.00000
   S   0.1464076  -0.4357359  -0.1511011 SPIN=   0.00000
   F  -0.2944646  -0.2220019  -0.1426214 SPIN=   0.00000
   F   0.2944646   0.2220019   0.1426214 SPIN=   0.00000
   F  -0.1341368   0.1542929   0.4005710 SPIN=   0.00000
   F   0.1341368  -0.1542929  -0.4005710 SPIN=   0.00000
%ENDBLOCK POSITIONS_FRAC

# Note: total spin =  16.00

KPOINTS_MP_SPACING 0.07

%BLOCK SPECIES_POT
QC5
%ENDBLOCK SPECIES_POT

SNAP_TO_SYMMETRY
SYMMETRY_GENERATE

