#              Generated by Buildcell
#
# at 00:39:53 (GMT+1.0) 18th August 2020
# in /scratch/scratch/uccabz1/launch_tmp
# on node-k10e-023
# by uccabz1
#
# compiler GCC version 4.9.2
# options -cpp -iprefix /scratch/UCL/applications/gcc/4.9.2/bin/../lib/gcc/x86_64-unknown-linux-gnu/4.9.2/ -mtune=corei7 -march=x86-64 -g -O2
#
# seed  -834075846  1622562995   709327960 -2107246595  -794307128  1972399854  -303723849   931920846  1706619154 -1063709786   -86774730 -1331055237
#
#      Author: C. J. Pickard (cjp20@cam.ac.uk)
#                Space group: P21
#

%BLOCK LATTICE_ABC
      4.70489      5.63453     16.14816
     90.00000     90.00000    110.86958
%ENDBLOCK LATTICE_ABC

%BLOCK POSITIONS_FRAC
  Li   0.1353662   0.4340246   0.1889145 SPIN=   0.00000
  Li  -0.1353662  -0.4340246  -0.3110855 SPIN=   0.00000
  Li   0.1273727  -0.1398624   0.4679191 SPIN=   0.00000
  Li  -0.1273727   0.1398624  -0.0320809 SPIN=   0.00000
  Fe  -0.2234922   0.1938018   0.4249322 SPIN=   3.10758
  Fe   0.2234922  -0.1938018  -0.0750678 SPIN=   3.10758
  Fe   0.0836068  -0.0889285   0.2573560 SPIN=   4.89242
  Fe  -0.0836068   0.0889285  -0.2426440 SPIN=   4.89242
   O   0.6198557   0.4000830   0.1473375 SPIN=   0.00000
   O   0.5492309   0.2621133   0.0008672 SPIN=   0.00000
   O   0.1438345   0.0606807   0.1033971 SPIN=   0.00000
   O   0.6255493  -0.0229002   0.1082391 SPIN=   0.00000
   S   0.4846176   0.1749942   0.0899602 SPIN=   0.00000
   O  -0.6198557  -0.4000830  -0.3526625 SPIN=   0.00000
   O  -0.5492309  -0.2621133  -0.4991328 SPIN=   0.00000
   O  -0.1438345  -0.0606807  -0.3966029 SPIN=   0.00000
   O  -0.6255493   0.0229002  -0.3917609 SPIN=   0.00000
   S  -0.4846176  -0.1749942  -0.4100398 SPIN=   0.00000
   O   0.7471008   0.2413821  -0.1375266 SPIN=   0.00000
   O   0.5385809   0.5013099  -0.2249687 SPIN=   0.00000
   O   0.6842651   0.6265067  -0.0797108 SPIN=   0.00000
   O   0.2314826   0.2456910  -0.1100182 SPIN=   0.00000
   S   0.5503574   0.4037224  -0.1380561 SPIN=   0.00000
   O  -0.7471008  -0.2413821   0.3624734 SPIN=   0.00000
   O  -0.5385809  -0.5013099   0.2750313 SPIN=   0.00000
   O  -0.6842651  -0.6265067   0.4202892 SPIN=   0.00000
   O  -0.2314826  -0.2456910   0.3899818 SPIN=   0.00000
   S  -0.5503574  -0.4037224   0.3619439 SPIN=   0.00000
   F  -0.1255180   0.1400653   0.2635428 SPIN=   0.00000
   F   0.1255180  -0.1400653  -0.2364572 SPIN=   0.00000
   F   0.8432459   0.4236982  -0.4865655 SPIN=   0.00000
   F  -0.8432459  -0.4236982   0.0134345 SPIN=   0.00000
%ENDBLOCK POSITIONS_FRAC

# Note: total spin =  16.00

KPOINTS_MP_SPACING 0.07

%BLOCK SPECIES_POT
QC5
%ENDBLOCK SPECIES_POT

SNAP_TO_SYMMETRY
SYMMETRY_GENERATE

