#              Generated by Buildcell
#
# at 01:01:04 (GMT+1.0) 18th August 2020
# in /lustre/scratch/uccabz1/launch_tmp
# on node-c12m-012
# by uccabz1
#
# compiler GCC version 4.9.2
# options -cpp -iprefix /lustre/shared/ucl/apps/gcc/4.9.2/bin/../lib/gcc/x86_64-unknown-linux-gnu/4.9.2/ -mtune=corei7 -march=x86-64 -g -Og
#
# seed -1931358173 -1839593145 -1368481542  1419194686   257929660 -2014247201  -269797124   659209287  2038126154  1115388901  1471796355    48480259
#
#      Author: C. J. Pickard (cjp20@cam.ac.uk)
#                Space group: P21
#

%BLOCK LATTICE_ABC
      4.17990      7.57811     12.71945
     96.87617     90.00000     90.00000
%ENDBLOCK LATTICE_ABC

%BLOCK POSITIONS_FRAC
  Li   0.2461785   0.2807550   0.3779907 SPIN=   0.00000
  Li  -0.2538215  -0.2807550  -0.3779907 SPIN=   0.00000
  Li   0.1860482  -0.0627419  -0.1307095 SPIN=   0.00000
  Li  -0.3139518   0.0627419   0.1307095 SPIN=   0.00000
  Fe  -0.0944163  -0.4556686   0.2076016 SPIN=   3.75508
  Fe   0.4055837   0.4556686  -0.2076016 SPIN=   3.75508
  Fe   0.2286860   0.0299398  -0.3549419 SPIN=   4.24492
  Fe  -0.2713140  -0.0299398   0.3549419 SPIN=   4.24492
   O   0.0996600   0.2680528  -0.4279181 SPIN=   0.00000
   O  -0.4119409   0.4112724  -0.3685405 SPIN=   0.00000
   O  -0.4139426   0.1199296  -0.4796592 SPIN=   0.00000
   O  -0.2541529   0.3910993  -0.5571369 SPIN=   0.00000
   S  -0.2450941   0.2975885  -0.4583137 SPIN=   0.00000
   O   0.5996600  -0.2680528   0.4279181 SPIN=   0.00000
   O   0.0880591  -0.4112724   0.3685405 SPIN=   0.00000
   O   0.0860574  -0.1199296   0.4796592 SPIN=   0.00000
   O   0.2458471  -0.3910993   0.5571369 SPIN=   0.00000
   S   0.2549059  -0.2975885   0.4583137 SPIN=   0.00000
   O  -0.5078885  -0.2831868   0.1231225 SPIN=   0.00000
   O  -0.2743812  -0.4372259  -0.0417116 SPIN=   0.00000
   O  -0.2906972  -0.1085214  -0.0130481 SPIN=   0.00000
   O  -0.7917020  -0.2797894  -0.0473869 SPIN=   0.00000
   S  -0.4661672  -0.2771809   0.0052440 SPIN=   0.00000
   O  -0.0078885   0.2831868  -0.1231225 SPIN=   0.00000
   O   0.2256188   0.4372259   0.0417116 SPIN=   0.00000
   O   0.2093028   0.1085214   0.0130481 SPIN=   0.00000
   O  -0.2917020   0.2797894   0.0473869 SPIN=   0.00000
   S   0.0338328   0.2771809  -0.0052440 SPIN=   0.00000
   F  -0.4661616   0.3403992   0.2457266 SPIN=   0.00000
   F   0.0338384  -0.3403992  -0.2457266 SPIN=   0.00000
   F  -0.4661632   0.0429087  -0.2291629 SPIN=   0.00000
   F   0.0338368  -0.0429087   0.2291629 SPIN=   0.00000
%ENDBLOCK POSITIONS_FRAC

# Note: total spin =  16.00

KPOINTS_MP_SPACING 0.07

%BLOCK SPECIES_POT
QC5
%ENDBLOCK SPECIES_POT

SNAP_TO_SYMMETRY
SYMMETRY_GENERATE

