#              Generated by Buildcell
#
# at 23:12:14 (GMT+1.0) 17th August 2020
# in /lustre/scratch/uccabz1/launch_tmp
# on node-c12i-005
# by uccabz1
#
# compiler GCC version 4.9.2
# options -cpp -iprefix /lustre/shared/ucl/apps/gcc/4.9.2/bin/../lib/gcc/x86_64-unknown-linux-gnu/4.9.2/ -mtune=corei7 -march=x86-64 -g -Og
#
# seed   -56135998 -1375439317  -607453239 -1521661900   916585673  1852369571  1340650083   753829508   225466514   256581600   561338902  1280612979
#
#      Author: C. J. Pickard (cjp20@cam.ac.uk)
#                Space group: Pnc2
#

%BLOCK LATTICE_ABC
      6.62698      7.53685      8.00856
     90.00000     90.00000     90.00000
%ENDBLOCK LATTICE_ABC

%BLOCK POSITIONS_FRAC
  Li   0.2391449   0.1118612  -0.1512445 SPIN=   0.00000
  Li  -0.2391449  -0.1118612  -0.1512445 SPIN=   0.00000
  Li   0.2608551   0.1118612   0.3487555 SPIN=   0.00000
  Li  -0.2608551  -0.1118612   0.3487555 SPIN=   0.00000
  Fe  -0.2499761  -0.4102416   0.0987562 SPIN=   4.00000
  Fe   0.2499761   0.4102416   0.0987562 SPIN=   4.00000
  Fe  -0.2500239  -0.4102416  -0.4012438 SPIN=   4.00000
  Fe   0.2500239   0.4102416  -0.4012438 SPIN=   4.00000
   O   0.1960083  -0.2123961   0.1644683 SPIN=   0.00000
   O   0.0981804  -0.1245643   0.4510220 SPIN=   0.00000
   O   0.4547719  -0.1941003   0.3866242 SPIN=   0.00000
   O   0.2001413  -0.4342324   0.3922884 SPIN=   0.00000
   S   0.2372755  -0.2413233   0.3486007 SPIN=   0.00000
   O  -0.1960083   0.2123961   0.1644683 SPIN=   0.00000
   O  -0.0981804   0.1245643   0.4510220 SPIN=   0.00000
   O  -0.4547719   0.1941003   0.3866242 SPIN=   0.00000
   O  -0.2001413   0.4342324   0.3922884 SPIN=   0.00000
   S  -0.2372755   0.2413233   0.3486007 SPIN=   0.00000
   O   0.3039917  -0.2123961  -0.3355317 SPIN=   0.00000
   O   0.4018196  -0.1245643  -0.0489780 SPIN=   0.00000
   O   0.0452281  -0.1941003  -0.1133758 SPIN=   0.00000
   O   0.2998587  -0.4342324  -0.1077116 SPIN=   0.00000
   S   0.2627245  -0.2413233  -0.1513993 SPIN=   0.00000
   O  -0.3039917   0.2123961  -0.3355317 SPIN=   0.00000
   O  -0.4018196   0.1245643  -0.0489780 SPIN=   0.00000
   O  -0.0452281   0.1941003  -0.1133758 SPIN=   0.00000
   O  -0.2998587   0.4342324  -0.1077116 SPIN=   0.00000
   S  -0.2627245   0.2413233  -0.1513993 SPIN=   0.00000
   F  -0.2493955  -0.1531586   0.1077228 SPIN=   0.00000
   F   0.2493955   0.1531586   0.1077228 SPIN=   0.00000
   F  -0.2506045  -0.1531586  -0.3922772 SPIN=   0.00000
   F   0.2506045   0.1531586  -0.3922772 SPIN=   0.00000
%ENDBLOCK POSITIONS_FRAC

# Note: total spin =  16.00

KPOINTS_MP_SPACING 0.07

%BLOCK SPECIES_POT
QC5
%ENDBLOCK SPECIES_POT

SNAP_TO_SYMMETRY
SYMMETRY_GENERATE

