#              Generated by Buildcell
#
# at 09:21:06 (GMT+1.0) 4th August 2020
# in /lustre/scratch/uccabz1/launch_tmp
# on node-c12n-033
# by uccabz1
#
# compiler GCC version 4.9.2
# options -cpp -iprefix /lustre/shared/ucl/apps/gcc/4.9.2/bin/../lib/gcc/x86_64-unknown-linux-gnu/4.9.2/ -mtune=corei7 -march=x86-64 -g -Og
#
# seed  1781942923  1127790070   693453107   279483481  -413430330  1111804455  2004994529  1748126850 -1744020491   924297127 -1051094322   663311516
#
#      Author: C. J. Pickard (cjp20@cam.ac.uk)
#                Space group: P21
#

%BLOCK LATTICE_ABC
      5.25910      7.45251     10.43892
    102.13171     90.00000     90.00000
%ENDBLOCK LATTICE_ABC

%BLOCK POSITIONS_FRAC
  Li  -0.4792880  -0.2073580  -0.3712238 SPIN=   0.00000
  Li   0.0207120   0.2073580   0.3712238 SPIN=   0.00000
  Li   0.4500660  -0.3077054   0.0895375 SPIN=   0.00000
  Li  -0.0499340   0.3077054  -0.0895375 SPIN=   0.00000
  Fe  -0.0666708   0.0836990  -0.3708567 SPIN=   5.38006
  Fe   0.4333292  -0.0836990   0.3708567 SPIN=   5.38006
  Fe   0.0199146  -0.4163376  -0.3815289 SPIN=   2.61994
  Fe  -0.4800854   0.4163376   0.3815289 SPIN=   2.61994
   O  -0.1343877  -0.3298706  -0.1955771 SPIN=   0.00000
   O  -0.3281547  -0.1436960   0.0049608 SPIN=   0.00000
   O  -0.1133089   0.0091965  -0.1540447 SPIN=   0.00000
   O   0.1400685  -0.1600386  -0.0183144 SPIN=   0.00000
   S  -0.1089457  -0.1561022  -0.0907439 SPIN=   0.00000
   O   0.3656123   0.3298706   0.1955771 SPIN=   0.00000
   O   0.1718453   0.1436960  -0.0049608 SPIN=   0.00000
   O   0.3866911  -0.0091965   0.1540447 SPIN=   0.00000
   O   0.6400685   0.1600386   0.0183144 SPIN=   0.00000
   S   0.3910543   0.1561022   0.0907439 SPIN=   0.00000
   O   0.1830802   0.4014815  -0.2529699 SPIN=   0.00000
   O   0.6120345   0.3524453  -0.1690342 SPIN=   0.00000
   O   0.2635323   0.4670741  -0.0140678 SPIN=   0.00000
   O   0.4477572   0.6679549  -0.1510659 SPIN=   0.00000
   S   0.3766010   0.4722390  -0.1467845 SPIN=   0.00000
   O  -0.3169198  -0.4014815   0.2529699 SPIN=   0.00000
   O   0.1120345  -0.3524453   0.1690342 SPIN=   0.00000
   O  -0.2364677  -0.4670741   0.0140678 SPIN=   0.00000
   O  -0.0522428  -0.6679549   0.1510659 SPIN=   0.00000
   S  -0.1233990  -0.4722390   0.1467845 SPIN=   0.00000
   F  -0.2401390   0.3559125  -0.4258903 SPIN=   0.00000
   F   0.2598610  -0.3559125   0.4258903 SPIN=   0.00000
   F  -0.1120607  -0.0027505   0.2555063 SPIN=   0.00000
   F   0.3879393   0.0027505  -0.2555063 SPIN=   0.00000
%ENDBLOCK POSITIONS_FRAC

# Note: total spin =  16.00

KPOINTS_MP_SPACING 0.07

%BLOCK SPECIES_POT
QC5
%ENDBLOCK SPECIES_POT

SNAP_TO_SYMMETRY
SYMMETRY_GENERATE

