#              Generated by Buildcell
#
# at 00:50:42 (GMT+1.0) 18th August 2020
# in /lustre/scratch/uccabz1/launch_tmp
# on node-c12e-036
# by uccabz1
#
# compiler GCC version 4.9.2
# options -cpp -iprefix /lustre/shared/ucl/apps/gcc/4.9.2/bin/../lib/gcc/x86_64-unknown-linux-gnu/4.9.2/ -mtune=corei7 -march=x86-64 -g -Og
#
# seed -1833249245    19900429   121931274  1046356081   597364037  -636254140   -87948294    48877945 -2016301683  -994080861  1331838669 -1087871993
#
#      Author: C. J. Pickard (cjp20@cam.ac.uk)
#                Space group: P2
#

%BLOCK LATTICE_ABC
      4.87603      6.68470     12.41710
     90.00000     98.77105     90.00000
%ENDBLOCK LATTICE_ABC

%BLOCK POSITIONS_FRAC
  Li   0.2951948   0.3449815  -0.3789403 SPIN=   0.00000
  Li  -0.2951948   0.3449815   0.3789403 SPIN=   0.00000
  Li  -0.3093519  -0.3181560  -0.1606424 SPIN=   0.00000
  Li   0.3093519  -0.3181560   0.1606424 SPIN=   0.00000
  Fe   0.2064782   0.0681366   0.3841812 SPIN=   4.73684
  Fe  -0.2064782   0.0681366  -0.3841812 SPIN=   4.73684
  Fe   0.2069121  -0.0628525  -0.1146031 SPIN=   3.26316
  Fe  -0.2069121  -0.0628525   0.1146031 SPIN=   3.26316
   O  -0.5666272   0.2679136  -0.2015372 SPIN=   0.00000
   O  -0.0543497   0.2647125  -0.1848618 SPIN=   0.00000
   O  -0.2859451   0.0975474  -0.0452764 SPIN=   0.00000
   O  -0.2837282   0.4670711  -0.0574134 SPIN=   0.00000
   S  -0.2976625   0.2743112  -0.1222722 SPIN=   0.00000
   O   0.5666272   0.2679136   0.2015372 SPIN=   0.00000
   O   0.0543497   0.2647125   0.1848618 SPIN=   0.00000
   O   0.2859451   0.0975474   0.0452764 SPIN=   0.00000
   O   0.2837282   0.4670711   0.0574134 SPIN=   0.00000
   S   0.2976625   0.2743112   0.1222722 SPIN=   0.00000
   O   0.3232286  -0.5005845   0.2803236 SPIN=   0.00000
   O   0.2685900  -0.5799334   0.4705738 SPIN=   0.00000
   O  -0.1115526  -0.4117879   0.3489893 SPIN=   0.00000
   O   0.3221522  -0.2281558   0.4152240 SPIN=   0.00000
   S   0.2006045  -0.4301154   0.3787777 SPIN=   0.00000
   O  -0.3232286  -0.5005845  -0.2803236 SPIN=   0.00000
   O  -0.2685900  -0.5799334  -0.4705738 SPIN=   0.00000
   O   0.1115526  -0.4117879  -0.3489893 SPIN=   0.00000
   O  -0.3221522  -0.2281558  -0.4152240 SPIN=   0.00000
   S  -0.2006045  -0.4301154  -0.3787777 SPIN=   0.00000
   F   0.2170100  -0.3537956  -0.1351980 SPIN=   0.00000
   F  -0.2170100  -0.3537956   0.1351980 SPIN=   0.00000
   F  -0.2920534   0.0278177   0.3715803 SPIN=   0.00000
   F   0.2920534   0.0278177  -0.3715803 SPIN=   0.00000
%ENDBLOCK POSITIONS_FRAC

# Note: total spin =  16.00

KPOINTS_MP_SPACING 0.07

%BLOCK SPECIES_POT
QC5
%ENDBLOCK SPECIES_POT

SNAP_TO_SYMMETRY
SYMMETRY_GENERATE

