#              Generated by Buildcell
#
# at 07:14:42 (GMT+1.0) 4th August 2020
# in /lustre/scratch/uccabz1/launch_tmp
# on node-c12l-033
# by uccabz1
#
# compiler GCC version 4.9.2
# options -cpp -iprefix /lustre/shared/ucl/apps/gcc/4.9.2/bin/../lib/gcc/x86_64-unknown-linux-gnu/4.9.2/ -mtune=corei7 -march=x86-64 -g -Og
#
# seed  1335701752    37443493  1296074824   -49248397  2038717013   361502666 -1292160881  2014434938  1393681510   825815849  1903671658   829384715
#
#      Author: C. J. Pickard (cjp20@cam.ac.uk)
#                Space group: P2221
#

%BLOCK LATTICE_ABC
      4.06987      7.16447     13.71814
     90.00000     90.00000     90.00000
%ENDBLOCK LATTICE_ABC

%BLOCK POSITIONS_FRAC
  Li  -0.1417830  -0.5000000  -0.2500000 SPIN=   0.00000
  Li   0.1417830  -0.5000000   0.2500000 SPIN=   0.00000
  Li   0.1356244  -0.0000000   0.2500000 SPIN=   0.00000
  Li  -0.1356244   0.0000000  -0.2500000 SPIN=   0.00000
  Fe  -0.3642421  -0.1934947   0.1260585 SPIN=   4.00000
  Fe   0.3642421   0.1934947  -0.3739415 SPIN=   4.00000
  Fe  -0.3642421   0.1934947   0.3739415 SPIN=   4.00000
  Fe   0.3642421  -0.1934947  -0.1260585 SPIN=   4.00000
   O   0.0425268   0.3366519   0.0844839 SPIN=   0.00000
   O  -0.4717282   0.1522985   0.0850168 SPIN=   0.00000
   O  -0.4674891   0.4728315   0.1522644 SPIN=   0.00000
   S  -0.2699915   0.2949263   0.1404649 SPIN=   0.00000
   O  -0.0425268  -0.3366519  -0.4155161 SPIN=   0.00000
   O   0.4717282  -0.1522985  -0.4149832 SPIN=   0.00000
   O   0.4674891  -0.4728315  -0.3477356 SPIN=   0.00000
   S   0.2699915  -0.2949263  -0.3595351 SPIN=   0.00000
   O   0.0425268  -0.3366519   0.4155161 SPIN=   0.00000
   O  -0.4717282  -0.1522985   0.4149832 SPIN=   0.00000
   O  -0.4674891  -0.4728315   0.3477356 SPIN=   0.00000
   S  -0.2699915  -0.2949263   0.3595351 SPIN=   0.00000
   O  -0.0425268   0.3366519  -0.0844839 SPIN=   0.00000
   O   0.4717282   0.1522985  -0.0850168 SPIN=   0.00000
   O   0.4674891   0.4728315  -0.1522644 SPIN=   0.00000
   S   0.2699915   0.2949263  -0.1404649 SPIN=   0.00000
   O   0.0000000   0.0481161   0.0000000 SPIN=   0.00000
   O   0.0000000  -0.0481161  -0.5000000 SPIN=   0.00000
   O   0.5000000  -0.3719403   0.0000000 SPIN=   0.00000
   O   0.5000000   0.3719403  -0.5000000 SPIN=   0.00000
   F   0.1399853   0.2045790   0.3585806 SPIN=   0.00000
   F  -0.1399853  -0.2045790  -0.1414194 SPIN=   0.00000
   F   0.1399853  -0.2045790   0.1414194 SPIN=   0.00000
   F  -0.1399853   0.2045790  -0.3585806 SPIN=   0.00000
%ENDBLOCK POSITIONS_FRAC

# Note: total spin =  16.00

KPOINTS_MP_SPACING 0.07

%BLOCK SPECIES_POT
QC5
%ENDBLOCK SPECIES_POT

SNAP_TO_SYMMETRY
SYMMETRY_GENERATE

