#              Generated by Buildcell
#
# at 14:15:41 (GMT+1.0) 18th August 2020
# in /scratch/scratch/uccabz1/launch_tmp
# on node-k10a-026
# by uccabz1
#
# compiler GCC version 4.9.2
# options -cpp -iprefix /scratch/UCL/applications/gcc/4.9.2/bin/../lib/gcc/x86_64-unknown-linux-gnu/4.9.2/ -mtune=corei7 -march=x86-64 -g -O2
#
# seed   762924551  1865475666   752100693  -952370746   -85255529 -1684125912   827363102  1459425337  1032686086  1408553306  -815528751   786558089
#
#      Author: C. J. Pickard (cjp20@cam.ac.uk)
#                Space group: P2
#

%BLOCK LATTICE_ABC
      5.25931      7.24812     11.07756
    108.69406     90.00000     90.00000
%ENDBLOCK LATTICE_ABC

%BLOCK POSITIONS_FRAC
  Li  -0.1078273  -0.4354342   0.2450157 SPIN=   0.00000
  Li  -0.1078273   0.4354342  -0.2450157 SPIN=   0.00000
  Li   0.2961039  -0.1065814  -0.1712077 SPIN=   0.00000
  Li   0.2961039   0.1065814   0.1712077 SPIN=   0.00000
  Fe   0.2562976   0.2391050   0.4663739 SPIN=   3.71748
  Fe   0.2562976  -0.2391050  -0.4663739 SPIN=   3.71748
  Fe  -0.1477891  -0.2407721   0.0272740 SPIN=   4.28252
  Fe  -0.1477891   0.2407721  -0.0272740 SPIN=   4.28252
   O   0.1024743  -0.2412877   0.1716150 SPIN=   0.00000
   O   0.5713505  -0.2629544   0.1537144 SPIN=   0.00000
   O   0.3485791  -0.3848640   0.3098569 SPIN=   0.00000
   O   0.3714608  -0.0305706   0.3444446 SPIN=   0.00000
   S   0.3484662  -0.2299192   0.2449077 SPIN=   0.00000
   O   0.1024743   0.2412877  -0.1716150 SPIN=   0.00000
   O   0.5713505   0.2629544  -0.1537144 SPIN=   0.00000
   O   0.3485791   0.3848640  -0.3098569 SPIN=   0.00000
   O   0.3714608   0.0305706  -0.3444446 SPIN=   0.00000
   S   0.3484662   0.2299192  -0.2449077 SPIN=   0.00000
   O  -0.4417169  -0.3056495  -0.3138714 SPIN=   0.00000
   O  -0.1896725  -0.0140936  -0.3069553 SPIN=   0.00000
   O   0.0282429  -0.3168472  -0.3072048 SPIN=   0.00000
   O  -0.2121832  -0.1224688  -0.1168747 SPIN=   0.00000
   S  -0.2038324  -0.1897648  -0.2612266 SPIN=   0.00000
   O  -0.4417169   0.3056495   0.3138714 SPIN=   0.00000
   O  -0.1896725   0.0140936   0.3069553 SPIN=   0.00000
   O   0.0282429   0.3168472   0.3072048 SPIN=   0.00000
   O  -0.2121832   0.1224688   0.1168747 SPIN=   0.00000
   S  -0.2038324   0.1897648   0.2612266 SPIN=   0.00000
   F   0.3063526  -0.2875380  -0.0785037 SPIN=   0.00000
   F   0.3063526   0.2875380   0.0785037 SPIN=   0.00000
   F  -0.1514400   0.2902613  -0.4205290 SPIN=   0.00000
   F  -0.1514400  -0.2902613   0.4205290 SPIN=   0.00000
%ENDBLOCK POSITIONS_FRAC

# Note: total spin =  16.00

KPOINTS_MP_SPACING 0.07

%BLOCK SPECIES_POT
QC5
%ENDBLOCK SPECIES_POT

SNAP_TO_SYMMETRY
SYMMETRY_GENERATE

