#              Generated by Buildcell
#
# at 06:47:11 (GMT+1.0) 4th August 2020
# in /lustre/scratch/uccabz1/launch_tmp
# on node-c12h-013
# by uccabz1
#
# compiler GCC version 4.9.2
# options -cpp -iprefix /lustre/shared/ucl/apps/gcc/4.9.2/bin/../lib/gcc/x86_64-unknown-linux-gnu/4.9.2/ -mtune=corei7 -march=x86-64 -g -Og
#
# seed   -43360654 -1536840543  2014769770   578978146  2019773534  1950007550  1059037316  -348741449   124537600  1851554160 -1205303467  1875160600
#
#      Author: C. J. Pickard (cjp20@cam.ac.uk)
#                Space group: Cc
#

%BLOCK LATTICE_ABC
      5.78312      5.92340     13.68403
     84.12017     77.88616     60.78039
%ENDBLOCK LATTICE_ABC

%BLOCK POSITIONS_FRAC
  Li   0.3515858  -0.3716774   0.0338376 SPIN=   0.00000
  Li  -0.0200916   0.3716774  -0.4661624 SPIN=   0.00000
  Li  -0.4632415  -0.1558116   0.3497364 SPIN=   0.00000
  Li   0.3809469   0.1558116  -0.1502636 SPIN=   0.00000
  Fe   0.2074309  -0.2571372  -0.4721224 SPIN=   5.99281
  Fe  -0.0497064   0.2571372   0.0278776 SPIN=   5.99281
  Fe  -0.2861447  -0.4342030  -0.2233456 SPIN=   2.00719
  Fe   0.2796523   0.4342030   0.2766544 SPIN=   2.00719
   O  -0.2456345   0.4281062   0.3848143 SPIN=   0.00000
   O   0.1807713   0.0560689   0.3079195 SPIN=   0.00000
   O  -0.2533535   0.1339046   0.2710154 SPIN=   0.00000
   O  -0.1423515  -0.0178253   0.4388178 SPIN=   0.00000
   S  -0.1151420   0.1500636   0.3506418 SPIN=   0.00000
   O   0.1824717  -0.4281062  -0.1151857 SPIN=   0.00000
   O   0.2368402  -0.0560689  -0.1920805 SPIN=   0.00000
   O  -0.1194489  -0.1339046  -0.2289846 SPIN=   0.00000
   O  -0.1601768   0.0178253  -0.0611822 SPIN=   0.00000
   S   0.0349216  -0.1500636  -0.1493582 SPIN=   0.00000
   O  -0.4722484   0.0636903   0.1553423 SPIN=   0.00000
   O  -0.1789045  -0.3251192   0.0492931 SPIN=   0.00000
   O  -0.2274716  -0.3631873   0.2333972 SPIN=   0.00000
   O   0.0233405  -0.1452244   0.1396275 SPIN=   0.00000
   S  -0.2138210  -0.1924602   0.1444150 SPIN=   0.00000
   O  -0.4085581  -0.0636903  -0.3446577 SPIN=   0.00000
   O  -0.5040238   0.3251192  -0.4507069 SPIN=   0.00000
   O  -0.5906590   0.3631873  -0.2666028 SPIN=   0.00000
   O  -0.1218839   0.1452244  -0.3603725 SPIN=   0.00000
   S  -0.4062812   0.1924602  -0.3555850 SPIN=   0.00000
   F   0.3063194   0.1633357  -0.0055877 SPIN=   0.00000
   F   0.4696551  -0.1633357   0.4944123 SPIN=   0.00000
   F   0.1832595   0.4933815   0.4104427 SPIN=   0.00000
   F  -0.3233590  -0.4933815  -0.0895573 SPIN=   0.00000
%ENDBLOCK POSITIONS_FRAC

# Note: total spin =  16.00

KPOINTS_MP_SPACING 0.07

%BLOCK SPECIES_POT
QC5
%ENDBLOCK SPECIES_POT

SNAP_TO_SYMMETRY
SYMMETRY_GENERATE

