#              Generated by Buildcell
#
# at 09:38:10 (GMT+1.0) 18th August 2020
# in /scratch/scratch/uccabz1/launch_tmp
# on node-k10e-027
# by uccabz1
#
# compiler GCC version 4.9.2
# options -cpp -iprefix /scratch/UCL/applications/gcc/4.9.2/bin/../lib/gcc/x86_64-unknown-linux-gnu/4.9.2/ -mtune=corei7 -march=x86-64 -g -O2
#
# seed  -595056122  -974780753  1845540513  1600929590   258853025  1718772044  1915933211   444853244 -1298276857  -891167062  1816481892 -1536840833
#
#      Author: C. J. Pickard (cjp20@cam.ac.uk)
#                Space group: Pc
#

%BLOCK LATTICE_ABC
      4.67416      9.09565      9.62090
     90.00000    102.06040     90.00000
%ENDBLOCK LATTICE_ABC

%BLOCK POSITIONS_FRAC
  Li   0.0704707   0.0997363   0.1641291 SPIN=   0.00000
  Li  -0.4295293  -0.0997363  -0.3358709 SPIN=   0.00000
  Li   0.0085131   0.2898720  -0.4613870 SPIN=   0.00000
  Li  -0.4914869  -0.2898720   0.0386130 SPIN=   0.00000
  Fe  -0.2977228   0.0198096   0.3845336 SPIN=   4.81618
  Fe   0.2022772  -0.0198096  -0.1154664 SPIN=   4.81618
  Fe  -0.3393546   0.2732038  -0.2227465 SPIN=   3.18382
  Fe   0.1606454  -0.2732038   0.2772535 SPIN=   3.18382
   O   0.3613021  -0.2803356  -0.3109179 SPIN=   0.00000
   O   0.0114418  -0.2864798  -0.5426685 SPIN=   0.00000
   O  -0.0206253  -0.0886685  -0.3699506 SPIN=   0.00000
   O  -0.1578411  -0.3434826  -0.3215268 SPIN=   0.00000
   S   0.0485693  -0.2497416  -0.3862659 SPIN=   0.00000
   O  -0.1386979   0.2803356   0.1890821 SPIN=   0.00000
   O  -0.4885582   0.2864798  -0.0426685 SPIN=   0.00000
   O  -0.5206253   0.0886685   0.1300494 SPIN=   0.00000
   O  -0.6578411   0.3434826   0.1784732 SPIN=   0.00000
   S  -0.4514307   0.2497416   0.1137341 SPIN=   0.00000
   O   0.1457286   0.4274556   0.3772156 SPIN=   0.00000
   O   0.4617564   0.4003230   0.6165872 SPIN=   0.00000
   O   0.5663320   0.5948735   0.4543631 SPIN=   0.00000
   O   0.6511897   0.3336818   0.4032176 SPIN=   0.00000
   S   0.4562517   0.4390835   0.4628459 SPIN=   0.00000
   O  -0.3542714  -0.4274556  -0.1227844 SPIN=   0.00000
   O  -0.0382436  -0.4003230   0.1165872 SPIN=   0.00000
   O   0.0663320  -0.5948735  -0.0456369 SPIN=   0.00000
   O   0.1511897  -0.3336818  -0.0967824 SPIN=   0.00000
   S  -0.0437483  -0.4390835  -0.0371541 SPIN=   0.00000
   F   0.1594151   0.0736921   0.3624942 SPIN=   0.00000
   F  -0.3405849  -0.0736921  -0.1375058 SPIN=   0.00000
   F   0.1098365   0.2659836  -0.2640779 SPIN=   0.00000
   F  -0.3901635  -0.2659836   0.2359221 SPIN=   0.00000
%ENDBLOCK POSITIONS_FRAC

# Note: total spin =  16.00

KPOINTS_MP_SPACING 0.07

%BLOCK SPECIES_POT
QC5
%ENDBLOCK SPECIES_POT

SNAP_TO_SYMMETRY
SYMMETRY_GENERATE

