#              Generated by Buildcell
#
# at 00:46:11 (GMT+1.0) 18th August 2020
# in /lustre/scratch/uccabz1/launch_tmp
# on node-c12a-013
# by uccabz1
#
# compiler GCC version 4.9.2
# options -cpp -iprefix /lustre/shared/ucl/apps/gcc/4.9.2/bin/../lib/gcc/x86_64-unknown-linux-gnu/4.9.2/ -mtune=corei7 -march=x86-64 -g -Og
#
# seed  1032777255 -1098059816   533609324 -2143079409 -1554163670 -1874913261 -1037058595  1422721199   975644656   497347459    64156898   359950693
#
#      Author: C. J. Pickard (cjp20@cam.ac.uk)
#                Space group: Pc
#

%BLOCK LATTICE_ABC
      5.17365      7.48489     10.45303
     98.81852     90.00000     90.00000
%ENDBLOCK LATTICE_ABC

%BLOCK POSITIONS_FRAC
  Li   0.1933805   0.0885202  -0.0035785 SPIN=   0.00000
  Li  -0.1933805  -0.4114798   0.4964215 SPIN=   0.00000
  Li   0.3244801  -0.4941899  -0.1703720 SPIN=   0.00000
  Li  -0.3244801   0.0058101   0.3296280 SPIN=   0.00000
  Fe  -0.1613639   0.3385506   0.2409376 SPIN=   5.28655
  Fe   0.1613639  -0.1614494  -0.2590624 SPIN=   5.28655
  Fe  -0.2768197   0.1339452  -0.3939171 SPIN=   2.71345
  Fe   0.2768197  -0.3660548   0.1060829 SPIN=   2.71345
   O  -0.4553877  -0.2369188  -0.0126134 SPIN=   0.00000
   O  -0.4339517   0.0894026  -0.0280598 SPIN=   0.00000
   O  -0.0451930  -0.1024078  -0.0738665 SPIN=   0.00000
   O  -0.2095473  -0.0292702   0.1504043 SPIN=   0.00000
   S  -0.2860199  -0.0697986   0.0089661 SPIN=   0.00000
   O   0.4553877   0.2630812  -0.5126134 SPIN=   0.00000
   O   0.4339517   0.5894026  -0.5280598 SPIN=   0.00000
   O   0.0451930   0.3975922  -0.5738665 SPIN=   0.00000
   O   0.2095473   0.4707298  -0.3495957 SPIN=   0.00000
   S   0.2860199   0.4302014  -0.4910339 SPIN=   0.00000
   O   0.0252178   0.0698248   0.4309143 SPIN=   0.00000
   O   0.2387234  -0.1193221   0.2459051 SPIN=   0.00000
   O   0.0596488  -0.2610103   0.4256692 SPIN=   0.00000
   O   0.4506667  -0.0692721   0.4606786 SPIN=   0.00000
   S   0.1935642  -0.0949449   0.3907918 SPIN=   0.00000
   O  -0.0252178   0.5698248  -0.0690857 SPIN=   0.00000
   O  -0.2387234   0.3806779  -0.2540949 SPIN=   0.00000
   O  -0.0596488   0.2389897  -0.0743308 SPIN=   0.00000
   O  -0.4506667   0.4307279  -0.0393214 SPIN=   0.00000
   S  -0.1935642   0.4050551  -0.1092082 SPIN=   0.00000
   F  -0.2022188  -0.2625791  -0.3307912 SPIN=   0.00000
   F   0.2022188   0.2374209   0.1692088 SPIN=   0.00000
   F  -0.3066431  -0.4039952   0.2284817 SPIN=   0.00000
   F   0.3066431   0.0960048  -0.2715183 SPIN=   0.00000
%ENDBLOCK POSITIONS_FRAC

# Note: total spin =  16.00

KPOINTS_MP_SPACING 0.07

%BLOCK SPECIES_POT
QC5
%ENDBLOCK SPECIES_POT

SNAP_TO_SYMMETRY
SYMMETRY_GENERATE

