#              Generated by Buildcell
#
# at 13:39:22 (GMT+1.0) 18th August 2020
# in /lustre/scratch/uccabz1/launch_tmp
# on node-c12k-010
# by uccabz1
#
# compiler GCC version 4.9.2
# options -cpp -iprefix /lustre/shared/ucl/apps/gcc/4.9.2/bin/../lib/gcc/x86_64-unknown-linux-gnu/4.9.2/ -mtune=corei7 -march=x86-64 -g -Og
#
# seed -2033610411  -525106670 -1488509035  -945357403  1973374162  -456785301  -635567548  1749598342  1159352875   -57788773 -1484620880  1688671839
#
#      Author: C. J. Pickard (cjp20@cam.ac.uk)
#                Space group: P21
#

%BLOCK LATTICE_ABC
      3.98054      9.00677     11.21026
     90.00000     95.58485     90.00000
%ENDBLOCK LATTICE_ABC

%BLOCK POSITIONS_FRAC
  Li   0.2867441   0.1496264   0.4332362 SPIN=   0.00000
  Li  -0.2867441  -0.3503736  -0.4332362 SPIN=   0.00000
  Li  -0.2324368  -0.1255047  -0.0924514 SPIN=   0.00000
  Li   0.2324368   0.3744953   0.0924514 SPIN=   0.00000
  Fe  -0.4269115   0.4452271   0.3458595 SPIN=   3.62034
  Fe   0.4269115  -0.0547729  -0.3458595 SPIN=   3.62034
  Fe  -0.1588317   0.1116965   0.1933756 SPIN=   4.37966
  Fe   0.1588317  -0.3883035  -0.1933756 SPIN=   4.37966
   O  -0.5257564   0.4236456  -0.2186350 SPIN=   0.00000
   O  -0.5875776   0.3529064  -0.4329770 SPIN=   0.00000
   O  -0.3273771   0.1777074  -0.2809140 SPIN=   0.00000
   O  -0.0210049   0.4051910  -0.3304244 SPIN=   0.00000
   S  -0.3654290   0.3398626  -0.3157376 SPIN=   0.00000
   O   0.5257564  -0.0763544   0.2186350 SPIN=   0.00000
   O   0.5875776  -0.1470936   0.4329770 SPIN=   0.00000
   O   0.3273771  -0.3222926   0.2809140 SPIN=   0.00000
   O   0.0210049  -0.0948090   0.3304244 SPIN=   0.00000
   S   0.3654290  -0.1601374   0.3157376 SPIN=   0.00000
   O   0.2878359   0.0173284   0.0446957 SPIN=   0.00000
   O   0.3787125   0.2596774  -0.0511301 SPIN=   0.00000
   O  -0.1709123   0.1313690  -0.0897365 SPIN=   0.00000
   O   0.3346508   0.0306015  -0.1735759 SPIN=   0.00000
   S   0.2075717   0.1097441  -0.0674367 SPIN=   0.00000
   O  -0.2878359  -0.4826716  -0.0446957 SPIN=   0.00000
   O  -0.3787125  -0.2403226   0.0511301 SPIN=   0.00000
   O   0.1709123  -0.3686310   0.0897365 SPIN=   0.00000
   O  -0.3346508  -0.4693985   0.1735759 SPIN=   0.00000
   S  -0.2075717  -0.3902559   0.0674367 SPIN=   0.00000
   F  -0.0621308  -0.4583889   0.4439020 SPIN=   0.00000
   F   0.0621308   0.0416111  -0.4439020 SPIN=   0.00000
   F  -0.3337323  -0.2744121  -0.2471135 SPIN=   0.00000
   F   0.3337323   0.2255879   0.2471135 SPIN=   0.00000
%ENDBLOCK POSITIONS_FRAC

# Note: total spin =  16.00

KPOINTS_MP_SPACING 0.07

%BLOCK SPECIES_POT
QC5
%ENDBLOCK SPECIES_POT

SNAP_TO_SYMMETRY
SYMMETRY_GENERATE

