#              Generated by Buildcell
#
# at 16:58:54 (GMT+1.0) 18th August 2020
# in /lustre/scratch/uccabz1/launch_tmp
# on node-c12j-021
# by uccabz1
#
# compiler GCC version 4.9.2
# options -cpp -iprefix /lustre/shared/ucl/apps/gcc/4.9.2/bin/../lib/gcc/x86_64-unknown-linux-gnu/4.9.2/ -mtune=corei7 -march=x86-64 -g -Og
#
# seed  -388794642  1807201290  -610315085   110657946   349669089 -1674048354   507908853   700499611   572496851   628562495   -22616381  1367603791
#
#      Author: C. J. Pickard (cjp20@cam.ac.uk)
#                Space group: Cc
#

%BLOCK LATTICE_ABC
      6.16913      8.46977      9.24435
    116.77197    109.49168     90.00000
%ENDBLOCK LATTICE_ABC

%BLOCK POSITIONS_FRAC
  Li  -0.3971557   0.3426939   0.2427794 SPIN=   0.00000
  Li  -0.3600649  -0.1573061   0.2427794 SPIN=   0.00000
  Li  -0.0047020  -0.6044063  -0.2482882 SPIN=   0.00000
  Li  -0.2435862  -0.1044063  -0.2482882 SPIN=   0.00000
  Fe  -0.0411840   0.4183772   0.1218462 SPIN=   1.95147
  Fe   0.1630301  -0.0816228   0.1218462 SPIN=   1.95147
  Fe   0.1880914   0.0955802  -0.2040875 SPIN=   6.04853
  Fe  -0.3921789  -0.4044198  -0.2040875 SPIN=   6.04853
   O  -0.1281852   0.1617696  -0.1988493 SPIN=   0.00000
   O  -0.5091343   0.0131577  -0.4443368 SPIN=   0.00000
   O  -0.3592828   0.3335914  -0.3326437 SPIN=   0.00000
   O  -0.4949771   0.2415512  -0.1538366 SPIN=   0.00000
   S  -0.3728948   0.1875175  -0.2824166 SPIN=   0.00000
   O  -0.0706641  -0.3382304  -0.1988493 SPIN=   0.00000
   O   0.0647975  -0.4868423  -0.4443368 SPIN=   0.00000
   O   0.0266391  -0.1664086  -0.3326437 SPIN=   0.00000
   O   0.3411405  -0.2584488  -0.1538366 SPIN=   0.00000
   S   0.0904783  -0.3124825  -0.2824166 SPIN=   0.00000
   O   0.0622723  -0.0315323   0.3252423 SPIN=   0.00000
   O   0.2021310   0.2666323   0.5894796 SPIN=   0.00000
   O  -0.1728181   0.0839924   0.5099869 SPIN=   0.00000
   O  -0.1396809   0.2225234   0.3311430 SPIN=   0.00000
   S  -0.0120240   0.1354040   0.4389630 SPIN=   0.00000
   O   0.2629700   0.4684677   0.3252423 SPIN=   0.00000
   O   0.3873486   0.7666323   0.5894796 SPIN=   0.00000
   O   0.6828051   0.5839924   0.5099869 SPIN=   0.00000
   O   0.4708239   0.7225234   0.3311430 SPIN=   0.00000
   S   0.4509869   0.6354040   0.4389630 SPIN=   0.00000
   F  -0.2464007  -0.0889793  -0.0210236 SPIN=   0.00000
   F   0.2253771   0.4110207  -0.0210236 SPIN=   0.00000
   F  -0.1391749   0.6649039   0.2587191 SPIN=   0.00000
   F   0.3978940   0.1649039   0.2587191 SPIN=   0.00000
%ENDBLOCK POSITIONS_FRAC

# Note: total spin =  16.00

KPOINTS_MP_SPACING 0.07

%BLOCK SPECIES_POT
QC5
%ENDBLOCK SPECIES_POT

SNAP_TO_SYMMETRY
SYMMETRY_GENERATE

