#              Generated by Buildcell
#
# at 14:33:53 (GMT+1.0) 18th August 2020
# in /lustre/scratch/uccabz1/launch_tmp
# on node-c12e-036
# by uccabz1
#
# compiler GCC version 4.9.2
# options -cpp -iprefix /lustre/shared/ucl/apps/gcc/4.9.2/bin/../lib/gcc/x86_64-unknown-linux-gnu/4.9.2/ -mtune=corei7 -march=x86-64 -g -Og
#
# seed -1952131743   485501349  -910082009 -1869866147  -333290459   562341817   760355272 -1570131224 -1175786792  1509248839  -829819244  1105496245
#
#      Author: C. J. Pickard (cjp20@cam.ac.uk)
#                Space group: Pna21
#

%BLOCK LATTICE_ABC
      5.68814      5.88766     11.94393
     90.00000     90.00000     90.00000
%ENDBLOCK LATTICE_ABC

%BLOCK POSITIONS_FRAC
  Li   0.4347443  -0.0411844   0.3708577 SPIN=   0.00000
  Li  -0.4347443   0.4588156  -0.3708577 SPIN=   0.00000
  Li  -0.0652557  -0.0411844   0.1291423 SPIN=   0.00000
  Li   0.0652557   0.4588156  -0.1291423 SPIN=   0.00000
  Fe   0.2089624  -0.4850096   0.3724621 SPIN=   4.00000
  Fe  -0.2089624   0.0149904  -0.3724621 SPIN=   4.00000
  Fe  -0.2910376  -0.4850096   0.1275379 SPIN=   4.00000
  Fe   0.2910376   0.0149904  -0.1275379 SPIN=   4.00000
   O   0.0531589   0.2138782   0.2984305 SPIN=   0.00000
   O  -0.2690350   0.0933299   0.4243666 SPIN=   0.00000
   O   0.1263872  -0.0776496   0.4435765 SPIN=   0.00000
   O  -0.1203343  -0.1695934   0.2790313 SPIN=   0.00000
   S  -0.0524558   0.0149913   0.3613512 SPIN=   0.00000
   O  -0.0531589  -0.2861218  -0.2984305 SPIN=   0.00000
   O   0.2690350  -0.4066701  -0.4243666 SPIN=   0.00000
   O  -0.1263872  -0.5776496  -0.4435765 SPIN=   0.00000
   O   0.1203343  -0.6695934  -0.2790313 SPIN=   0.00000
   S   0.0524558  -0.4850087  -0.3613512 SPIN=   0.00000
   O   0.5531589   0.2138782   0.2015695 SPIN=   0.00000
   O   0.2309650   0.0933299   0.0756334 SPIN=   0.00000
   O   0.6263872  -0.0776496   0.0564235 SPIN=   0.00000
   O   0.3796657  -0.1695934   0.2209687 SPIN=   0.00000
   S   0.4475442   0.0149913   0.1386488 SPIN=   0.00000
   O  -0.5531589  -0.2861218  -0.2015695 SPIN=   0.00000
   O  -0.2309650  -0.4066701  -0.0756334 SPIN=   0.00000
   O  -0.6263872  -0.5776496  -0.0564235 SPIN=   0.00000
   O  -0.3796657  -0.6695934  -0.2209687 SPIN=   0.00000
   S  -0.4475442  -0.4850087  -0.1386488 SPIN=   0.00000
   F   0.4658782   0.0149953  -0.3857628 SPIN=   0.00000
   F  -0.4658782  -0.4850047   0.3857628 SPIN=   0.00000
   F  -0.0341218   0.0149953  -0.1142372 SPIN=   0.00000
   F   0.0341218  -0.4850047   0.1142372 SPIN=   0.00000
%ENDBLOCK POSITIONS_FRAC

# Note: total spin =  16.00

KPOINTS_MP_SPACING 0.07

%BLOCK SPECIES_POT
QC5
%ENDBLOCK SPECIES_POT

SNAP_TO_SYMMETRY
SYMMETRY_GENERATE

