#              Generated by Buildcell
#
# at 09:04:50 (GMT+1.0) 4th August 2020
# in /lustre/scratch/uccabz1/launch_tmp
# on node-c12h-022
# by uccabz1
#
# compiler GCC version 4.9.2
# options -cpp -iprefix /lustre/shared/ucl/apps/gcc/4.9.2/bin/../lib/gcc/x86_64-unknown-linux-gnu/4.9.2/ -mtune=corei7 -march=x86-64 -g -Og
#
# seed  1504707998  -515768488  1812173067 -1227616518  1888359290  1824264828   470440532 -1300036196 -1841487895   184778775   632051194  2092055006
#
#      Author: C. J. Pickard (cjp20@cam.ac.uk)
#                Space group: Ccc2
#

%BLOCK LATTICE_ABC
      6.57884      6.57884      9.26349
     90.00000     90.00000     93.91196
%ENDBLOCK LATTICE_ABC

%BLOCK POSITIONS_FRAC
  Li   0.5000000   0.5000000  -0.0971606 SPIN=   0.00000
  Li   0.5000000  -0.5000000   0.4028394 SPIN=   0.00000
  Li   0.0000000  -0.5000000   0.2617835 SPIN=   0.00000
  Li   0.5000000   0.0000000  -0.2382165 SPIN=   0.00000
  Fe  -0.1386416  -0.2485178   0.0156688 SPIN=   4.00000
  Fe   0.1386416   0.2485178   0.0156688 SPIN=   4.00000
  Fe  -0.2485178  -0.1386416  -0.4843312 SPIN=   4.00000
  Fe   0.2485178   0.1386416  -0.4843312 SPIN=   4.00000
   O   0.5387559  -0.3188345   0.0944641 SPIN=   0.00000
   O   0.3075841  -0.2777635   0.3016328 SPIN=   0.00000
   O   0.1686039  -0.4052104   0.0678352 SPIN=   0.00000
   S   0.3284555  -0.2616948   0.1390307 SPIN=   0.00000
   O  -0.5387559   0.3188345   0.0944641 SPIN=   0.00000
   O  -0.3075841   0.2777635   0.3016328 SPIN=   0.00000
   O  -0.1686039   0.4052104   0.0678352 SPIN=   0.00000
   S  -0.3284555   0.2616948   0.1390307 SPIN=   0.00000
   O  -0.3188345   0.5387559  -0.4055359 SPIN=   0.00000
   O  -0.2777635   0.3075841  -0.1983672 SPIN=   0.00000
   O  -0.4052104   0.1686039  -0.4321648 SPIN=   0.00000
   S  -0.2616948   0.3284555  -0.3609693 SPIN=   0.00000
   O   0.3188345  -0.5387559  -0.4055359 SPIN=   0.00000
   O   0.2777635  -0.3075841  -0.1983672 SPIN=   0.00000
   O   0.4052104  -0.1686039  -0.4321648 SPIN=   0.00000
   S   0.2616948  -0.3284555  -0.3609693 SPIN=   0.00000
   O   0.0000000   0.0000000   0.1732627 SPIN=   0.00000
   O  -0.0000000   0.0000000  -0.3267373 SPIN=   0.00000
   O   0.5000000   0.0000000   0.2012451 SPIN=   0.00000
   O   0.0000000  -0.5000000  -0.2987549 SPIN=   0.00000
   F   0.2694185   0.1979793  -0.1679256 SPIN=   0.00000
   F  -0.2694185  -0.1979793  -0.1679256 SPIN=   0.00000
   F   0.1979793   0.2694185   0.3320744 SPIN=   0.00000
   F  -0.1979793  -0.2694185   0.3320744 SPIN=   0.00000
%ENDBLOCK POSITIONS_FRAC

# Note: total spin =  16.00

KPOINTS_MP_SPACING 0.07

%BLOCK SPECIES_POT
QC5
%ENDBLOCK SPECIES_POT

SNAP_TO_SYMMETRY
SYMMETRY_GENERATE

