#              Generated by Buildcell
#
# at 05:55:59 (GMT+1.0) 4th August 2020
# in /lustre/scratch/uccabz1/launch_tmp
# on node-c12a-003
# by uccabz1
#
# compiler GCC version 4.9.2
# options -cpp -iprefix /lustre/shared/ucl/apps/gcc/4.9.2/bin/../lib/gcc/x86_64-unknown-linux-gnu/4.9.2/ -mtune=corei7 -march=x86-64 -g -Og
#
# seed -1859771043 -1278726936  -999220114 -1628183396  1050914754  1741187885   965512158   319753322 -1203595353   455898433  -977062369  1415204385
#
#      Author: C. J. Pickard (cjp20@cam.ac.uk)
#                Space group: C2
#

%BLOCK LATTICE_ABC
      5.14174      9.52784      9.52784
     60.25843     82.00152     82.00152
%ENDBLOCK LATTICE_ABC

%BLOCK POSITIONS_FRAC
  Li   0.2960776  -0.3762749   0.1969770 SPIN=   0.00000
  Li  -0.2960776  -0.1969770   0.3762749 SPIN=   0.00000
  Li   0.2976915   0.2009063  -0.3755008 SPIN=   0.00000
  Li  -0.2976915   0.3755008  -0.2009063 SPIN=   0.00000
  Fe  -0.2115664   0.4707286   0.3759013 SPIN=   5.23252
  Fe   0.2115664  -0.3759013  -0.4707286 SPIN=   5.23252
  Fe   0.0900511   0.4534475  -0.0409841 SPIN=   2.76748
  Fe  -0.0900511   0.0409841  -0.4534475 SPIN=   2.76748
   O   0.2304306  -0.1288568   0.0919780 SPIN=   0.00000
   O   0.5475952  -0.0025641  -0.1483961 SPIN=   0.00000
   O   0.0701712   0.0326283  -0.1820968 SPIN=   0.00000
   O   0.3163399  -0.2350065  -0.1017274 SPIN=   0.00000
   S   0.2911342  -0.0834498  -0.0850606 SPIN=   0.00000
   O  -0.2304306  -0.0919780   0.1288568 SPIN=   0.00000
   O  -0.5475952   0.1483961   0.0025641 SPIN=   0.00000
   O  -0.0701712   0.1820968  -0.0326283 SPIN=   0.00000
   O  -0.3163399   0.1017274   0.2350065 SPIN=   0.00000
   S  -0.2911342   0.0850606   0.0834498 SPIN=   0.00000
   O  -0.5960633  -0.2083212  -0.3558427 SPIN=   0.00000
   O  -0.3862762  -0.4448351  -0.1258697 SPIN=   0.00000
   O  -0.1602555  -0.1917862  -0.2850650 SPIN=   0.00000
   O  -0.2023190  -0.3630179  -0.4074745 SPIN=   0.00000
   S  -0.3362285  -0.3019901  -0.2935630 SPIN=   0.00000
   O   0.5960633   0.3558427   0.2083212 SPIN=   0.00000
   O   0.3862762   0.1258697   0.4448351 SPIN=   0.00000
   O   0.1602555   0.2850650   0.1917862 SPIN=   0.00000
   O   0.2023190   0.4074745   0.3630179 SPIN=   0.00000
   S   0.3362285   0.2935630   0.3019901 SPIN=   0.00000
   F   0.2293680   0.4375896  -0.2479313 SPIN=   0.00000
   F  -0.2293680   0.2479313  -0.4375896 SPIN=   0.00000
   F   0.1762026  -0.0674820   0.3520917 SPIN=   0.00000
   F  -0.1762026  -0.3520917   0.0674820 SPIN=   0.00000
%ENDBLOCK POSITIONS_FRAC

# Note: total spin =  16.00

KPOINTS_MP_SPACING 0.07

%BLOCK SPECIES_POT
QC5
%ENDBLOCK SPECIES_POT

SNAP_TO_SYMMETRY
SYMMETRY_GENERATE

