#              Generated by Buildcell
#
# at 07:12:37 (GMT+1.0) 18th August 2020
# in /lustre/scratch/uccabz1/launch_tmp
# on node-c12m-014
# by uccabz1
#
# compiler GCC version 4.9.2
# options -cpp -iprefix /lustre/shared/ucl/apps/gcc/4.9.2/bin/../lib/gcc/x86_64-unknown-linux-gnu/4.9.2/ -mtune=corei7 -march=x86-64 -g -Og
#
# seed   668585541   276994758   -13432481  1740056668 -1910336372 -1370669750 -1232529312  1436035279    95479388  1628378266 -2039119290   834081532
#
#      Author: C. J. Pickard (cjp20@cam.ac.uk)
#                Space group: Aea2
#

%BLOCK LATTICE_ABC
      4.82910      4.82910     17.18539
     90.00000     90.00000     93.54376
%ENDBLOCK LATTICE_ABC

%BLOCK POSITIONS_FRAC
  Li  -0.0076865  -0.4113895  -0.4103998 SPIN=   0.00000
  Li  -0.4113895  -0.0076865   0.4103998 SPIN=   0.00000
  Li   0.0886105   0.4923135   0.0896002 SPIN=   0.00000
  Li   0.4923135   0.0886105  -0.0896002 SPIN=   0.00000
  Fe  -0.0106295   0.0417652  -0.1974414 SPIN=   4.00000
  Fe   0.0417652  -0.0106295   0.1974414 SPIN=   4.00000
  Fe  -0.4582348   0.4893705   0.3025586 SPIN=   4.00000
  Fe   0.4893705  -0.4582348  -0.3025586 SPIN=   4.00000
   O  -0.5671374  -0.1897357  -0.0012561 SPIN=   0.00000
   O  -0.5291762  -0.2132706   0.1421759 SPIN=   0.00000
   O  -0.5951310   0.2361853   0.0777153 SPIN=   0.00000
   O  -0.1480647   0.0159161   0.0648761 SPIN=   0.00000
   S  -0.4598773  -0.0377262   0.0708778 SPIN=   0.00000
   O  -0.1897357  -0.5671374   0.0012561 SPIN=   0.00000
   O  -0.2132706  -0.5291762  -0.1421759 SPIN=   0.00000
   O   0.2361853  -0.5951310  -0.0777153 SPIN=   0.00000
   O   0.0159161  -0.1480647  -0.0648761 SPIN=   0.00000
   S  -0.0377262  -0.4598773  -0.0708778 SPIN=   0.00000
   O   0.3102643  -0.0671374  -0.5012561 SPIN=   0.00000
   O   0.2867294  -0.0291762  -0.3578241 SPIN=   0.00000
   O   0.7361853  -0.0951310  -0.4222847 SPIN=   0.00000
   O   0.5159161   0.3519353  -0.4351239 SPIN=   0.00000
   S   0.4622738   0.0401227  -0.4291222 SPIN=   0.00000
   O  -0.0671374   0.3102643   0.5012561 SPIN=   0.00000
   O  -0.0291762   0.2867294   0.3578241 SPIN=   0.00000
   O  -0.0951310   0.7361853   0.4222847 SPIN=   0.00000
   O   0.3519353   0.5159161   0.4351239 SPIN=   0.00000
   S   0.0401227   0.4622738   0.4291222 SPIN=   0.00000
   F  -0.0326990   0.4817692  -0.3055484 SPIN=   0.00000
   F   0.4817692  -0.0326990   0.3055484 SPIN=   0.00000
   F  -0.0182308   0.4673010   0.1944516 SPIN=   0.00000
   F   0.4673010  -0.0182308  -0.1944516 SPIN=   0.00000
%ENDBLOCK POSITIONS_FRAC

# Note: total spin =  16.00

KPOINTS_MP_SPACING 0.07

%BLOCK SPECIES_POT
QC5
%ENDBLOCK SPECIES_POT

SNAP_TO_SYMMETRY
SYMMETRY_GENERATE

