#              Generated by Buildcell
#
# at 09:53:08 (GMT+1.0) 18th August 2020
# in /lustre/scratch/uccabz1/launch_tmp
# on node-c12e-006
# by uccabz1
#
# compiler GCC version 4.9.2
# options -cpp -iprefix /lustre/shared/ucl/apps/gcc/4.9.2/bin/../lib/gcc/x86_64-unknown-linux-gnu/4.9.2/ -mtune=corei7 -march=x86-64 -g -Og
#
# seed  1109628482 -1664189555  -429318057  1232560548  1514441208  1688201655  1059315170  -928789466   178432731 -1959536427   864765395  1699655290
#
#      Author: C. J. Pickard (cjp20@cam.ac.uk)
#                Space group: Pcc2
#

%BLOCK LATTICE_ABC
      5.25864      5.96050     12.76158
     90.00000     90.00000     90.00000
%ENDBLOCK LATTICE_ABC

%BLOCK POSITIONS_FRAC
  Li  -0.2392482  -0.2478149   0.0962974 SPIN=   0.00000
  Li  -0.2392482   0.2478149  -0.0962974 SPIN=   0.00000
  Li   0.2607518  -0.2478149  -0.0962974 SPIN=   0.00000
  Li   0.2607518   0.2478149   0.0962974 SPIN=   0.00000
  Fe  -0.0890081   0.2789631   0.3996714 SPIN=   4.00000
  Fe  -0.0890081  -0.2789631  -0.3996714 SPIN=   4.00000
  Fe   0.4109919   0.2789631  -0.3996714 SPIN=   4.00000
  Fe   0.4109919  -0.2789631   0.3996714 SPIN=   4.00000
   O   0.1108728  -0.0901480   0.0810133 SPIN=   0.00000
   O   0.4104763  -0.4103573   0.0811371 SPIN=   0.00000
   O   0.0793507  -0.3820630   0.2183130 SPIN=   0.00000
   O   0.4422976  -0.1177387   0.2180979 SPIN=   0.00000
   S   0.2607494  -0.2500767   0.1496403 SPIN=   0.00000
   O   0.1108728   0.0901480  -0.0810133 SPIN=   0.00000
   O   0.4104763   0.4103573  -0.0811371 SPIN=   0.00000
   O   0.0793507   0.3820630  -0.2183130 SPIN=   0.00000
   O   0.4422976   0.1177387  -0.2180979 SPIN=   0.00000
   S   0.2607494   0.2500767  -0.1496403 SPIN=   0.00000
   O  -0.3891272  -0.0901480  -0.0810133 SPIN=   0.00000
   O  -0.0895237  -0.4103573  -0.0811371 SPIN=   0.00000
   O  -0.4206493  -0.3820630  -0.2183130 SPIN=   0.00000
   O  -0.0577024  -0.1177387  -0.2180979 SPIN=   0.00000
   S  -0.2392506  -0.2500767  -0.1496403 SPIN=   0.00000
   O  -0.3891272   0.0901480   0.0810133 SPIN=   0.00000
   O  -0.0895237   0.4103573   0.0811371 SPIN=   0.00000
   O  -0.4206493   0.3820630   0.2183130 SPIN=   0.00000
   O  -0.0577024   0.1177387   0.2180979 SPIN=   0.00000
   S  -0.2392506   0.2500767   0.1496403 SPIN=   0.00000
   F  -0.2395349   0.2499978  -0.3829402 SPIN=   0.00000
   F  -0.2395349  -0.2499978   0.3829402 SPIN=   0.00000
   F   0.2604651   0.2499978   0.3829402 SPIN=   0.00000
   F   0.2604651  -0.2499978  -0.3829402 SPIN=   0.00000
%ENDBLOCK POSITIONS_FRAC

# Note: total spin =  16.00

KPOINTS_MP_SPACING 0.07

%BLOCK SPECIES_POT
QC5
%ENDBLOCK SPECIES_POT

SNAP_TO_SYMMETRY
SYMMETRY_GENERATE

