#              Generated by Buildcell
#
# at 16:12:43 (GMT+1.0) 18th August 2020
# in /lustre/scratch/uccabz1/launch_tmp
# on node-c12m-034
# by uccabz1
#
# compiler GCC version 4.9.2
# options -cpp -iprefix /lustre/shared/ucl/apps/gcc/4.9.2/bin/../lib/gcc/x86_64-unknown-linux-gnu/4.9.2/ -mtune=corei7 -march=x86-64 -g -Og
#
# seed  -404828321 -1170104325 -1380580147   -85485656  -856689464 -1565285101 -1998163555  1832601499 -1636632368 -1112454052  1640104396  1873386621
#
#      Author: C. J. Pickard (cjp20@cam.ac.uk)
#                Space group: P-1
#

%BLOCK LATTICE_ABC
      7.45474      7.96291      8.34653
     65.23707     76.90687     62.86548
%ENDBLOCK LATTICE_ABC

%BLOCK POSITIONS_FRAC
  Li   0.0055361   0.0027497   0.2515303 SPIN=   0.00000
  Li  -0.0055361  -0.0027497  -0.2515303 SPIN=   0.00000
  Li   0.5389377  -0.2393435  -0.0591290 SPIN=   0.00000
  Li  -0.5389377   0.2393435   0.0591290 SPIN=   0.00000
  Fe   0.1858787  -0.3633854   0.1310383 SPIN=   3.16951
  Fe  -0.1858787   0.3633854  -0.1310383 SPIN=   3.16951
  Fe   0.2790056  -0.3606597  -0.3731964 SPIN=   4.83049
  Fe  -0.2790056   0.3606597   0.3731964 SPIN=   4.83049
   O   0.0440955   0.3848888   0.3749468 SPIN=   0.00000
   O   0.4108603   0.1720748   0.3725051 SPIN=   0.00000
   O   0.1927828   0.1891484   0.1774199 SPIN=   0.00000
   O   0.1689393   0.0111199   0.5005541 SPIN=   0.00000
   S   0.2041695   0.1893080   0.3563564 SPIN=   0.00000
   O  -0.0440955  -0.3848888  -0.3749468 SPIN=   0.00000
   O  -0.4108603  -0.1720748  -0.3725051 SPIN=   0.00000
   O  -0.1927828  -0.1891484  -0.1774199 SPIN=   0.00000
   O  -0.1689393  -0.0111199  -0.5005541 SPIN=   0.00000
   S  -0.2041695  -0.1893080  -0.3563564 SPIN=   0.00000
   O   0.2995456   0.0076699  -0.0181664 SPIN=   0.00000
   O   0.1236916   0.2552673  -0.2943918 SPIN=   0.00000
   O   0.4952176   0.1219040  -0.2915369 SPIN=   0.00000
   O   0.2770694   0.3580241  -0.1373762 SPIN=   0.00000
   S   0.2988811   0.1857163  -0.1853678 SPIN=   0.00000
   O  -0.2995456  -0.0076699   0.0181664 SPIN=   0.00000
   O  -0.1236916  -0.2552673   0.2943918 SPIN=   0.00000
   O  -0.4952176  -0.1219040   0.2915369 SPIN=   0.00000
   O  -0.2770694  -0.3580241   0.1373762 SPIN=   0.00000
   S  -0.2988811  -0.1857163   0.1853678 SPIN=   0.00000
   F   0.2509601  -0.2759530  -0.1668991 SPIN=   0.00000
   F  -0.2509601   0.2759530   0.1668991 SPIN=   0.00000
   F  -0.2492812   0.3025562  -0.3440646 SPIN=   0.00000
   F   0.2492812  -0.3025562   0.3440646 SPIN=   0.00000
%ENDBLOCK POSITIONS_FRAC

# Note: total spin =  16.00

KPOINTS_MP_SPACING 0.07

%BLOCK SPECIES_POT
QC5
%ENDBLOCK SPECIES_POT

SNAP_TO_SYMMETRY
SYMMETRY_GENERATE

