#              Generated by Buildcell
#
# at 23:38:14 (GMT+1.0) 17th August 2020
# in /lustre/scratch/uccabz1/launch_tmp
# on node-c12l-020
# by uccabz1
#
# compiler GCC version 4.9.2
# options -cpp -iprefix /lustre/shared/ucl/apps/gcc/4.9.2/bin/../lib/gcc/x86_64-unknown-linux-gnu/4.9.2/ -mtune=corei7 -march=x86-64 -g -Og
#
# seed   605820468 -1306790972 -1003421476    20070855  -324455494  1247052754    13672803 -1470800640 -1804428636  1028134219  -406428679   177783563
#
#      Author: C. J. Pickard (cjp20@cam.ac.uk)
#                Space group: Cm
#

%BLOCK LATTICE_ABC
      7.60979      7.60979      7.98461
    109.74984    109.74984     94.37619
%ENDBLOCK LATTICE_ABC

%BLOCK POSITIONS_FRAC
  Li   0.3871136  -0.2671193   0.1752196 SPIN=   0.00000
  Li  -0.2671193   0.3871136   0.1752196 SPIN=   0.00000
  Li   0.1566982   0.1566982  -0.1386154 SPIN=   0.00000
  Li   0.1305281   0.1305281   0.3581898 SPIN=   0.00000
  Fe   0.0767357  -0.2524296  -0.1711528 SPIN=   3.48419
  Fe  -0.2524296   0.0767357  -0.1711528 SPIN=   3.48419
  Fe  -0.1933813  -0.1933813   0.2490200 SPIN=   8.28372
  Fe  -0.4338284  -0.4338284  -0.2865623 SPIN=   0.74790
   O   0.3010039   0.5319534   0.2567286 SPIN=   0.00000
   O  -0.0222092   0.5458719   0.2586374 SPIN=   0.00000
   O   0.0304122   0.2566958   0.0365244 SPIN=   0.00000
   O   0.0459744   0.5568061  -0.0200102 SPIN=   0.00000
   S   0.0887953   0.4728318   0.1329700 SPIN=   0.00000
   O   0.5319534   0.3010039   0.2567286 SPIN=   0.00000
   O   0.5458719  -0.0222092   0.2586374 SPIN=   0.00000
   O   0.2566958   0.0304122   0.0365244 SPIN=   0.00000
   O   0.5568061   0.0459744  -0.0200102 SPIN=   0.00000
   S   0.4728318   0.0887953   0.1329700 SPIN=   0.00000
   O  -0.9354744  -0.1465175  -0.4634278 SPIN=   0.00000
   O  -0.6073364  -0.2019349  -0.3496433 SPIN=   0.00000
   O  -0.6609824   0.1280599  -0.2571078 SPIN=   0.00000
   O  -0.7056010  -0.0596447  -0.5946450 SPIN=   0.00000
   S  -0.7273486  -0.0700093  -0.4162060 SPIN=   0.00000
   O  -0.1465175   0.0645256  -0.4634278 SPIN=   0.00000
   O  -0.2019349   0.3926636  -0.3496433 SPIN=   0.00000
   O   0.1280599   0.3390176  -0.2571078 SPIN=   0.00000
   O  -0.0596447   0.2943990  -0.5946450 SPIN=   0.00000
   S  -0.0700093   0.2726514  -0.4162060 SPIN=   0.00000
   F  -0.0747894  -0.0747894   0.1289670 SPIN=   0.00000
   F   0.5409350  -0.4590650   0.0557118 SPIN=   0.00000
   F  -0.6475967   0.3524033  -0.4786362 SPIN=   0.00000
   F  -0.2641334  -0.2641334  -0.4069004 SPIN=   0.00000
%ENDBLOCK POSITIONS_FRAC

# Note: total spin =  16.00

KPOINTS_MP_SPACING 0.07

%BLOCK SPECIES_POT
QC5
%ENDBLOCK SPECIES_POT

SNAP_TO_SYMMETRY
SYMMETRY_GENERATE

