#              Generated by Buildcell
#
# at 03:43:25 (GMT+1.0) 18th August 2020
# in /lustre/scratch/uccabz1/launch_tmp
# on node-c12e-007
# by uccabz1
#
# compiler GCC version 4.9.2
# options -cpp -iprefix /lustre/shared/ucl/apps/gcc/4.9.2/bin/../lib/gcc/x86_64-unknown-linux-gnu/4.9.2/ -mtune=corei7 -march=x86-64 -g -Og
#
# seed -1550577933  -456069518   928490642  1986369379  1276719307 -2051898235  -257046416  1747576581  2022300691  -842017834  1552224849   818866168
#
#      Author: C. J. Pickard (cjp20@cam.ac.uk)
#                Space group: C2
#

%BLOCK LATTICE_ABC
      7.27120      7.27120      8.26844
     98.82904     98.82904    108.50116
%ENDBLOCK LATTICE_ABC

%BLOCK POSITIONS_FRAC
  Li   0.2259734  -0.2259734  -0.5000000 SPIN=   0.00000
  Li  -0.4307732   0.4307732   0.0000000 SPIN=   0.00000
  Li   0.2467236  -0.2467236  -0.0000000 SPIN=   0.00000
  Li  -0.2878393   0.2878393   0.5000000 SPIN=   0.00000
  Fe  -0.3245305   0.0215604   0.1231802 SPIN=   3.16403
  Fe  -0.0215604   0.3245305  -0.1231802 SPIN=   3.16403
  Fe  -0.1243920  -0.2129076  -0.2010009 SPIN=   4.83597
  Fe   0.2129076   0.1243920   0.2010009 SPIN=   4.83597
   O   0.2912719   0.0597169  -0.3940452 SPIN=   0.00000
   O   0.4517933   0.1095568  -0.0964396 SPIN=   0.00000
   O   0.6273686   0.3102830  -0.2790343 SPIN=   0.00000
   O   0.5781227  -0.0478960  -0.3204851 SPIN=   0.00000
   S   0.4871391   0.1079152  -0.2725010 SPIN=   0.00000
   O  -0.0597169  -0.2912719   0.3940452 SPIN=   0.00000
   O  -0.1095568  -0.4517933   0.0964396 SPIN=   0.00000
   O  -0.3102830  -0.6273686   0.2790343 SPIN=   0.00000
   O   0.0478960  -0.5781227   0.3204851 SPIN=   0.00000
   S  -0.1079152  -0.4871391   0.2725010 SPIN=   0.00000
   O  -0.3180089  -0.4209326   0.5037208 SPIN=   0.00000
   O  -0.2727734  -0.0792991   0.4661567 SPIN=   0.00000
   O  -0.6058544  -0.3407801   0.3756377 SPIN=   0.00000
   O  -0.3438127  -0.3507538   0.2191705 SPIN=   0.00000
   O   0.4209326   0.3180089  -0.5037208 SPIN=   0.00000
   O   0.0792991   0.2727734  -0.4661567 SPIN=   0.00000
   O   0.3407801   0.6058544  -0.3756377 SPIN=   0.00000
   O   0.3507538   0.3438127  -0.2191705 SPIN=   0.00000
   S  -0.0521108   0.0521108  -0.5000000 SPIN=   0.00000
   S   0.4605198  -0.4605198  -0.5000000 SPIN=   0.00000
   F  -0.3640031  -0.2323112  -0.0718164 SPIN=   0.00000
   F   0.2323112   0.3640031   0.0718164 SPIN=   0.00000
   F  -0.0076558  -0.4395225  -0.2865694 SPIN=   0.00000
   F   0.4395225   0.0076558   0.2865694 SPIN=   0.00000
%ENDBLOCK POSITIONS_FRAC

# Note: total spin =  16.00

KPOINTS_MP_SPACING 0.07

%BLOCK SPECIES_POT
QC5
%ENDBLOCK SPECIES_POT

SNAP_TO_SYMMETRY
SYMMETRY_GENERATE

