#              Generated by Buildcell
#
# at 22:44:57 (GMT+1.0) 17th August 2020
# in /scratch/scratch/uccabz1/launch_tmp
# on node-k10e-020
# by uccabz1
#
# compiler GCC version 4.9.2
# options -cpp -iprefix /scratch/UCL/applications/gcc/4.9.2/bin/../lib/gcc/x86_64-unknown-linux-gnu/4.9.2/ -mtune=corei7 -march=x86-64 -g -O2
#
# seed   310953019  1024415085  1391604294  1986369379  2144430044  1503447154 -1135213933  -168372715 -1046863837   433535596  -539403128  -920623774
#
#      Author: C. J. Pickard (cjp20@cam.ac.uk)
#                Space group: P21/c
#

%BLOCK LATTICE_ABC
      7.27153      7.32460      7.63829
     90.00000     90.00000    100.50833
%ENDBLOCK LATTICE_ABC

%BLOCK POSITIONS_FRAC
  Li   0.2129834  -0.3691891   0.1424929 SPIN=   0.00000
  Li   0.2870166   0.3691891  -0.3575071 SPIN=   0.00000
  Li  -0.2129834   0.3691891  -0.1424929 SPIN=   0.00000
  Li  -0.2870166  -0.3691891   0.3575071 SPIN=   0.00000
  Fe  -0.4963857   0.0067431  -0.2407844 SPIN=   4.00000
  Fe  -0.0036143  -0.0067431   0.2592156 SPIN=   4.00000
  Fe   0.4963857  -0.0067431   0.2407844 SPIN=   4.00000
  Fe   0.0036143   0.0067431  -0.2592156 SPIN=   4.00000
   O  -0.4246035  -0.3441930  -0.1412767 SPIN=   0.00000
   O  -0.2607360  -0.4800153   0.0959390 SPIN=   0.00000
   O  -0.3367684  -0.1661641   0.1308488 SPIN=   0.00000
   O  -0.0918043  -0.2175834  -0.0788491 SPIN=   0.00000
   S  -0.2784781  -0.3019890   0.0016655 SPIN=   0.00000
   O  -0.0753965   0.3441930  -0.6412767 SPIN=   0.00000
   O  -0.2392640   0.4800153  -0.4040610 SPIN=   0.00000
   O  -0.1632316   0.1661641  -0.3691512 SPIN=   0.00000
   O  -0.4081957   0.2175834  -0.5788491 SPIN=   0.00000
   S  -0.2215219   0.3019890  -0.4983345 SPIN=   0.00000
   O   0.4246035   0.3441930   0.1412767 SPIN=   0.00000
   O   0.2607360   0.4800153  -0.0959390 SPIN=   0.00000
   O   0.3367684   0.1661641  -0.1308488 SPIN=   0.00000
   O   0.0918043   0.2175834   0.0788491 SPIN=   0.00000
   S   0.2784781   0.3019890  -0.0016655 SPIN=   0.00000
   O   0.0753965  -0.3441930   0.6412767 SPIN=   0.00000
   O   0.2392640  -0.4800153   0.4040610 SPIN=   0.00000
   O   0.1632316  -0.1661641   0.3691512 SPIN=   0.00000
   O   0.4081957  -0.2175834   0.5788491 SPIN=   0.00000
   S   0.2215219  -0.3019890   0.4983345 SPIN=   0.00000
   F  -0.2779199   0.1753973   0.0575712 SPIN=   0.00000
   F  -0.2220801  -0.1753973  -0.4424288 SPIN=   0.00000
   F   0.2779199  -0.1753973  -0.0575712 SPIN=   0.00000
   F   0.2220801   0.1753973   0.4424288 SPIN=   0.00000
%ENDBLOCK POSITIONS_FRAC

# Note: total spin =  16.00

KPOINTS_MP_SPACING 0.07

%BLOCK SPECIES_POT
QC5
%ENDBLOCK SPECIES_POT

SNAP_TO_SYMMETRY
SYMMETRY_GENERATE

