#              Generated by Buildcell
#
# at 07:30:40 (GMT+1.0) 4th August 2020
# in /lustre/scratch/uccabz1/launch_tmp
# on node-c12c-030
# by uccabz1
#
# compiler GCC version 4.9.2
# options -cpp -iprefix /lustre/shared/ucl/apps/gcc/4.9.2/bin/../lib/gcc/x86_64-unknown-linux-gnu/4.9.2/ -mtune=corei7 -march=x86-64 -g -Og
#
# seed  1582426437  -680180521  -298178897   286950996 -1022963738  2013013875  -162303184  -390107483   315765347   965897651 -1830226416 -1789010334
#
#      Author: C. J. Pickard (cjp20@cam.ac.uk)
#                Space group: Aea2
#

%BLOCK LATTICE_ABC
      6.60660      8.31567      8.31567
    118.88816     90.00000     90.00000
%ENDBLOCK LATTICE_ABC

%BLOCK POSITIONS_FRAC
  Li   0.1432430   0.2818775  -0.1011201 SPIN=   0.00000
  Li  -0.1432430  -0.1011201   0.2818775 SPIN=   0.00000
  Li  -0.3567570   0.3988799  -0.2181225 SPIN=   0.00000
  Li   0.3567570  -0.2181225   0.3988799 SPIN=   0.00000
  Fe   0.2676759  -0.3216729  -0.0046918 SPIN=   4.00000
  Fe  -0.2676759  -0.0046918  -0.3216729 SPIN=   4.00000
  Fe  -0.2323241   0.4953082   0.1783271 SPIN=   4.00000
  Fe   0.2323241   0.1783271   0.4953082 SPIN=   4.00000
   O   0.0952089   0.5727594   0.3039251 SPIN=   0.00000
   O   0.1482222   0.2363313   0.1471475 SPIN=   0.00000
   O   0.3290620   0.4358247   0.4369757 SPIN=   0.00000
   O   0.4220542   0.4414617   0.1514411 SPIN=   0.00000
   S   0.2486368   0.4215943   0.2598724 SPIN=   0.00000
   O  -0.0952089   0.3039251   0.5727594 SPIN=   0.00000
   O  -0.1482222   0.1471475   0.2363313 SPIN=   0.00000
   O  -0.3290620   0.4369757   0.4358247 SPIN=   0.00000
   O  -0.4220542   0.1514411   0.4414617 SPIN=   0.00000
   S  -0.2486368   0.2598724   0.4215943 SPIN=   0.00000
   O  -0.4047911  -0.1960749   0.0727594 SPIN=   0.00000
   O  -0.3517778  -0.3528525  -0.2636687 SPIN=   0.00000
   O  -0.1709380  -0.0630243  -0.0641753 SPIN=   0.00000
   O  -0.0779458  -0.3485589  -0.0585383 SPIN=   0.00000
   S  -0.2513632  -0.2401276  -0.0784057 SPIN=   0.00000
   O   0.4047911   0.0727594  -0.1960749 SPIN=   0.00000
   O   0.3517778  -0.2636687  -0.3528525 SPIN=   0.00000
   O   0.1709380  -0.0641753  -0.0630243 SPIN=   0.00000
   O   0.0779458  -0.0585383  -0.3485589 SPIN=   0.00000
   S   0.2513632  -0.0784057  -0.2401276 SPIN=   0.00000
   F   0.2336006  -0.0517754   0.2729010 SPIN=   0.00000
   F  -0.2336006   0.2729010  -0.0517754 SPIN=   0.00000
   F  -0.2663994  -0.2270990   0.4482246 SPIN=   0.00000
   F   0.2663994   0.4482246  -0.2270990 SPIN=   0.00000
%ENDBLOCK POSITIONS_FRAC

# Note: total spin =  16.00

KPOINTS_MP_SPACING 0.07

%BLOCK SPECIES_POT
QC5
%ENDBLOCK SPECIES_POT

SNAP_TO_SYMMETRY
SYMMETRY_GENERATE

