#              Generated by Buildcell
#
# at 23:35:50 (GMT+1.0) 17th August 2020
# in /lustre/scratch/uccabz1/launch_tmp
# on node-c12k-006
# by uccabz1
#
# compiler GCC version 4.9.2
# options -cpp -iprefix /lustre/shared/ucl/apps/gcc/4.9.2/bin/../lib/gcc/x86_64-unknown-linux-gnu/4.9.2/ -mtune=corei7 -march=x86-64 -g -Og
#
# seed  1375998698   412845728  1969752947  1765913321 -1588371612   384614010 -2140014854  -864539412  2109339246  1674601713 -1646627089  -273510721
#
#      Author: C. J. Pickard (cjp20@cam.ac.uk)
#                Space group: Pba2
#

%BLOCK LATTICE_ABC
      6.47468      7.85750      7.86245
     90.00000     90.00000     90.00000
%ENDBLOCK LATTICE_ABC

%BLOCK POSITIONS_FRAC
  Li   0.4633655   0.2645272   0.4845725 SPIN=   0.00000
  Li   0.4633655  -0.2645272  -0.4845725 SPIN=   0.00000
  Li   0.4633655   0.2354728  -0.0154275 SPIN=   0.00000
  Li   0.4633655  -0.2354728   0.0154275 SPIN=   0.00000
  Fe   0.2043660   0.4630037  -0.2507297 SPIN=   4.00000
  Fe   0.2043660  -0.4630037   0.2507297 SPIN=   4.00000
  Fe   0.2043660   0.0369963   0.2492703 SPIN=   4.00000
  Fe   0.2043660  -0.0369963  -0.2492703 SPIN=   4.00000
   O   0.1085068  -0.2736222  -0.4477844 SPIN=   0.00000
   O  -0.1355126  -0.0908204  -0.6069270 SPIN=   0.00000
   O  -0.2478383  -0.2326340  -0.3415233 SPIN=   0.00000
   O  -0.1859324  -0.4029877  -0.6013277 SPIN=   0.00000
   S  -0.1151941  -0.2500161  -0.4993906 SPIN=   0.00000
   O   0.1085068   0.2736222   0.4477844 SPIN=   0.00000
   O  -0.1355126   0.0908204   0.6069270 SPIN=   0.00000
   O  -0.2478383   0.2326340   0.3415233 SPIN=   0.00000
   O  -0.1859324   0.4029877   0.6013277 SPIN=   0.00000
   S  -0.1151941   0.2500161   0.4993906 SPIN=   0.00000
   O   0.1085068  -0.2263778   0.0522156 SPIN=   0.00000
   O  -0.1355126  -0.4091796  -0.1069270 SPIN=   0.00000
   O  -0.2478383  -0.2673660   0.1584767 SPIN=   0.00000
   O  -0.1859324  -0.0970123  -0.1013277 SPIN=   0.00000
   S  -0.1151941  -0.2499839   0.0006094 SPIN=   0.00000
   O   0.1085068   0.2263778  -0.0522156 SPIN=   0.00000
   O  -0.1355126   0.4091796   0.1069270 SPIN=   0.00000
   O  -0.2478383   0.2673660  -0.1584767 SPIN=   0.00000
   O  -0.1859324   0.0970123   0.1013277 SPIN=   0.00000
   S  -0.1151941   0.2499839  -0.0006094 SPIN=   0.00000
   F   0.3863713  -0.3126324  -0.1919925 SPIN=   0.00000
   F   0.3863713   0.3126324   0.1919925 SPIN=   0.00000
   F   0.3863713  -0.1873676   0.3080075 SPIN=   0.00000
   F   0.3863713   0.1873676  -0.3080075 SPIN=   0.00000
%ENDBLOCK POSITIONS_FRAC

# Note: total spin =  16.00

KPOINTS_MP_SPACING 0.07

%BLOCK SPECIES_POT
QC5
%ENDBLOCK SPECIES_POT

SNAP_TO_SYMMETRY
SYMMETRY_GENERATE

