#              Generated by Buildcell
#
# at 07:01:54 (GMT+1.0) 4th August 2020
# in /lustre/scratch/uccabz1/launch_tmp
# on node-c12l-031
# by uccabz1
#
# compiler GCC version 4.9.2
# options -cpp -iprefix /lustre/shared/ucl/apps/gcc/4.9.2/bin/../lib/gcc/x86_64-unknown-linux-gnu/4.9.2/ -mtune=corei7 -march=x86-64 -g -Og
#
# seed   943775504   457935851 -1515935992  1774008595  1048302971   951502230  -882165311   698292281 -1214074209  1556487398   169570344 -1417272070
#
#      Author: C. J. Pickard (cjp20@cam.ac.uk)
#                Space group: Pm
#

%BLOCK LATTICE_ABC
      6.33441      7.07526      9.57642
     90.00000     90.00000    111.25383
%ENDBLOCK LATTICE_ABC

%BLOCK POSITIONS_FRAC
  Li   0.3574586   0.0165595   0.1891532 SPIN=   0.00000
  Li   0.3574586   0.0165595  -0.1891532 SPIN=   0.00000
  Li   0.1422394  -0.3851330   0.5000000 SPIN=   0.00000
  Li  -0.1534417   0.0727402  -0.5000000 SPIN=   0.00000
  Fe  -0.4395825   0.3836398   0.0000000 SPIN=   3.73628
  Fe   0.3773585   0.0589881   0.5000000 SPIN=   3.61517
  Fe  -0.3157735  -0.3699446  -0.5000000 SPIN=   5.73017
  Fe  -0.0828994   0.0576151   0.0000000 SPIN=   2.91838
   O  -0.2421431  -0.2350213   0.1211066 SPIN=   0.00000
   O   0.1385118  -0.2580235   0.1213969 SPIN=   0.00000
   O  -0.1823716  -0.5245842   0.2365388 SPIN=   0.00000
   O  -0.0217680  -0.1816338   0.3405429 SPIN=   0.00000
   S  -0.0769427  -0.2998157   0.2048963 SPIN=   0.00000
   O  -0.2421431  -0.2350213  -0.1211066 SPIN=   0.00000
   O   0.1385118  -0.2580235  -0.1213969 SPIN=   0.00000
   O  -0.1823716  -0.5245842  -0.2365388 SPIN=   0.00000
   O  -0.0217680  -0.1816338  -0.3405429 SPIN=   0.00000
   S  -0.0769427  -0.2998157  -0.2048963 SPIN=   0.00000
   O   0.4537713   0.2699084  -0.3147661 SPIN=   0.00000
   O   0.3860267   0.5861418  -0.3657787 SPIN=   0.00000
   O   0.2612870   0.4096461  -0.1404415 SPIN=   0.00000
   O   0.0641426   0.2577615  -0.3590737 SPIN=   0.00000
   S   0.2913069   0.3808645  -0.2950150 SPIN=   0.00000
   O   0.4537713   0.2699084   0.3147661 SPIN=   0.00000
   O   0.3860267   0.5861418   0.3657787 SPIN=   0.00000
   O   0.2612870   0.4096461   0.1404415 SPIN=   0.00000
   O   0.0641426   0.2577615   0.3590737 SPIN=   0.00000
   S   0.2913069   0.3808645   0.2950150 SPIN=   0.00000
   F  -0.2577983   0.1065591  -0.1858821 SPIN=   0.00000
   F  -0.2577983   0.1065591   0.1858821 SPIN=   0.00000
   F   0.2569985   0.0957172  -0.0000000 SPIN=   0.00000
   F  -0.1937700   0.3889835  -0.5000000 SPIN=   0.00000
%ENDBLOCK POSITIONS_FRAC

# Note: total spin =  16.00

KPOINTS_MP_SPACING 0.07

%BLOCK SPECIES_POT
QC5
%ENDBLOCK SPECIES_POT

SNAP_TO_SYMMETRY
SYMMETRY_GENERATE

