#              Generated by Buildcell
#
# at 07:13:33 (GMT+1.0) 4th August 2020
# in /lustre/scratch/uccabz1/launch_tmp
# on node-c12d-025
# by uccabz1
#
# compiler GCC version 4.9.2
# options -cpp -iprefix /lustre/shared/ucl/apps/gcc/4.9.2/bin/../lib/gcc/x86_64-unknown-linux-gnu/4.9.2/ -mtune=corei7 -march=x86-64 -g -Og
#
# seed  1524570839 -1751436132  -910537801  1770615767  -936758204  1297728702  1506573669  1741399050  -323833382  1009980498  -546481435 -1608577729
#
#      Author: C. J. Pickard (cjp20@cam.ac.uk)
#                Space group: P41
#

%BLOCK LATTICE_ABC
      5.50187      5.50187     13.21414
     90.00000     90.00000     90.00000
%ENDBLOCK LATTICE_ABC

%BLOCK POSITIONS_FRAC
  Li  -0.4750945   0.1026006   0.4436002 SPIN=   0.00000
  Li   0.4750945  -0.1026006  -0.0563998 SPIN=   0.00000
  Li   0.1026006   0.4750945   0.1936002 SPIN=   0.00000
  Li  -0.1026006  -0.4750945  -0.3063998 SPIN=   0.00000
  Fe  -0.2622459   0.0249054  -0.2473600 SPIN=   4.00000
  Fe   0.2622459  -0.0249054   0.2526400 SPIN=   4.00000
  Fe   0.0249054   0.2622459  -0.4973600 SPIN=   4.00000
  Fe  -0.0249054  -0.2622459   0.0026400 SPIN=   4.00000
   O   0.2156850  -0.2507368  -0.2786507 SPIN=   0.00000
   O   0.0794740  -0.3563806  -0.4516429 SPIN=   0.00000
   O   0.5170332  -0.3697804  -0.4085661 SPIN=   0.00000
   O   0.3053084   0.0258726  -0.4215525 SPIN=   0.00000
   S   0.2793752  -0.2377563  -0.3901031 SPIN=   0.00000
   O  -0.2156850   0.2507368   0.2213493 SPIN=   0.00000
   O  -0.0794740   0.3563806   0.0483571 SPIN=   0.00000
   O  -0.5170332   0.3697804   0.0914339 SPIN=   0.00000
   O  -0.3053084  -0.0258726   0.0784475 SPIN=   0.00000
   S  -0.2793752   0.2377563   0.1098969 SPIN=   0.00000
   O  -0.2507368  -0.2156850   0.4713493 SPIN=   0.00000
   O  -0.3563806  -0.0794740   0.2983571 SPIN=   0.00000
   O  -0.3697804  -0.5170332   0.3414339 SPIN=   0.00000
   O   0.0258726  -0.3053084   0.3284475 SPIN=   0.00000
   S  -0.2377563  -0.2793752   0.3598969 SPIN=   0.00000
   O   0.2507368   0.2156850  -0.0286507 SPIN=   0.00000
   O   0.3563806   0.0794740  -0.2016429 SPIN=   0.00000
   O   0.3697804   0.5170332  -0.1585661 SPIN=   0.00000
   O  -0.0258726   0.3053084  -0.1715525 SPIN=   0.00000
   S   0.2377563   0.2793752  -0.1401031 SPIN=   0.00000
   F   0.2222946  -0.2002155   0.1245820 SPIN=   0.00000
   F  -0.2222946   0.2002155  -0.3754180 SPIN=   0.00000
   F  -0.2002155  -0.2222946  -0.1254180 SPIN=   0.00000
   F   0.2002155   0.2222946   0.3745820 SPIN=   0.00000
%ENDBLOCK POSITIONS_FRAC

# Note: total spin =  16.00

KPOINTS_MP_SPACING 0.07

%BLOCK SPECIES_POT
QC5
%ENDBLOCK SPECIES_POT

SNAP_TO_SYMMETRY
SYMMETRY_GENERATE

