#              Generated by Buildcell
#
# at 10:25:04 (GMT+1.0) 4th August 2020
# in /lustre/scratch/uccabz1/launch_tmp
# on node-c12c-001
# by uccabz1
#
# compiler GCC version 4.9.2
# options -cpp -iprefix /lustre/shared/ucl/apps/gcc/4.9.2/bin/../lib/gcc/x86_64-unknown-linux-gnu/4.9.2/ -mtune=corei7 -march=x86-64 -g -Og
#
# seed  1980576160   748932889  -752896045  1034488735  1208618913  1573064394  1524999910  -710279177  -545803419 -1987990179  -818702263  -383134975
#
#      Author: C. J. Pickard (cjp20@cam.ac.uk)
#                Space group: Pca21
#

%BLOCK LATTICE_ABC
      3.97764      9.46483     10.62481
     90.00000     90.00000     90.00000
%ENDBLOCK LATTICE_ABC

%BLOCK POSITIONS_FRAC
  Li  -0.0877907   0.1028203   0.2547150 SPIN=   0.00000
  Li   0.0877907  -0.1028203  -0.2452850 SPIN=   0.00000
  Li   0.0877907  -0.3971797   0.2547150 SPIN=   0.00000
  Li  -0.0877907   0.3971797  -0.2452850 SPIN=   0.00000
  Fe   0.4483858  -0.4228909  -0.0890529 SPIN=   4.00000
  Fe  -0.4483858   0.4228909   0.4109471 SPIN=   4.00000
  Fe  -0.4483858   0.0771091  -0.0890529 SPIN=   4.00000
  Fe   0.4483858  -0.0771091   0.4109471 SPIN=   4.00000
   O   0.1895428  -0.2287779   0.1567885 SPIN=   0.00000
   O   0.1661088  -0.2024061  -0.0747911 SPIN=   0.00000
   O  -0.1107437  -0.0258457   0.0622387 SPIN=   0.00000
   O  -0.3469657  -0.2668624   0.0438083 SPIN=   0.00000
   S  -0.0255144  -0.1809730   0.0470111 SPIN=   0.00000
   O  -0.1895428   0.2287779  -0.3432115 SPIN=   0.00000
   O  -0.1661088   0.2024061  -0.5747911 SPIN=   0.00000
   O   0.1107437   0.0258457  -0.4377613 SPIN=   0.00000
   O   0.3469657   0.2668624  -0.4561917 SPIN=   0.00000
   S   0.0255144   0.1809730  -0.4529889 SPIN=   0.00000
   O  -0.1895428   0.2712221   0.1567885 SPIN=   0.00000
   O  -0.1661088   0.2975939  -0.0747911 SPIN=   0.00000
   O   0.1107437   0.4741543   0.0622387 SPIN=   0.00000
   O   0.3469657   0.2331376   0.0438083 SPIN=   0.00000
   S   0.0255144   0.3190270   0.0470111 SPIN=   0.00000
   O   0.1895428  -0.2712221  -0.3432115 SPIN=   0.00000
   O   0.1661088  -0.2975939  -0.5747911 SPIN=   0.00000
   O  -0.1107437  -0.4741543  -0.4377613 SPIN=   0.00000
   O  -0.3469657  -0.2331376  -0.4561917 SPIN=   0.00000
   S  -0.0255144  -0.3190270  -0.4529889 SPIN=   0.00000
   F   0.3794975   0.0520940   0.2616556 SPIN=   0.00000
   F  -0.3794975  -0.0520940  -0.2383444 SPIN=   0.00000
   F  -0.3794975  -0.4479060   0.2616556 SPIN=   0.00000
   F   0.3794975   0.4479060  -0.2383444 SPIN=   0.00000
%ENDBLOCK POSITIONS_FRAC

# Note: total spin =  16.00

KPOINTS_MP_SPACING 0.07

%BLOCK SPECIES_POT
QC5
%ENDBLOCK SPECIES_POT

SNAP_TO_SYMMETRY
SYMMETRY_GENERATE

