#              Generated by Buildcell
#
# at 13:43:18 (GMT+1.0) 18th August 2020
# in /scratch/scratch/uccabz1/launch_tmp
# on node-k10h-031
# by uccabz1
#
# compiler GCC version 4.9.2
# options -cpp -iprefix /scratch/UCL/applications/gcc/4.9.2/bin/../lib/gcc/x86_64-unknown-linux-gnu/4.9.2/ -mtune=corei7 -march=x86-64 -g -O2
#
# seed -1574097378  -608982242 -1439263818  -947119183  1471759647 -1115880843  -228398986  -984556072 -1462619390  2042699086  -353017012   485854963
#
#      Author: C. J. Pickard (cjp20@cam.ac.uk)
#                Space group: Cc
#

%BLOCK LATTICE_ABC
      6.01846      8.21073      8.21073
     98.39425     93.11919     93.11919
%ENDBLOCK LATTICE_ABC

%BLOCK POSITIONS_FRAC
  Li  -0.1816362   0.2222276  -0.1462890 SPIN=   0.00000
  Li   0.3183638  -0.1462890   0.2222276 SPIN=   0.00000
  Li   0.0544615  -0.1553241  -0.3136441 SPIN=   0.00000
  Li  -0.4455385  -0.3136441  -0.1553241 SPIN=   0.00000
  Fe  -0.2534967   0.3647292  -0.4627595 SPIN=   2.99727
  Fe   0.2465033  -0.4627595   0.3647292 SPIN=   2.99727
  Fe  -0.3947306  -0.0942755  -0.4617223 SPIN=   5.00273
  Fe   0.1052694  -0.4617223  -0.0942755 SPIN=   5.00273
   O   0.0265683  -0.0478993   0.2774094 SPIN=   0.00000
   O  -0.1075079   0.2039964   0.1821961 SPIN=   0.00000
   O  -0.3339330   0.0557937   0.3635702 SPIN=   0.00000
   O  -0.2963485  -0.0686339   0.0739263 SPIN=   0.00000
   S  -0.1778053   0.0358142   0.2242755 SPIN=   0.00000
   O   0.5265683   0.2774094  -0.0478993 SPIN=   0.00000
   O   0.3924921   0.1821961   0.2039964 SPIN=   0.00000
   O   0.1660670   0.3635702   0.0557937 SPIN=   0.00000
   O   0.2036515   0.0739263  -0.0686339 SPIN=   0.00000
   S   0.3221947   0.2242755   0.0358142 SPIN=   0.00000
   O   0.3815129   0.3804829  -0.4631210 SPIN=   0.00000
   O   0.0349370   0.2047447  -0.5456170 SPIN=   0.00000
   O   0.1678488   0.2673748  -0.2513293 SPIN=   0.00000
   O   0.3736310   0.0817651  -0.4461738 SPIN=   0.00000
   S   0.2394824   0.2335919  -0.4265603 SPIN=   0.00000
   O  -0.1184871  -0.4631210   0.3804829 SPIN=   0.00000
   O  -0.4650630  -0.5456170   0.2047447 SPIN=   0.00000
   O  -0.3321512  -0.2513293   0.2673748 SPIN=   0.00000
   O  -0.1263690  -0.4461738   0.0817651 SPIN=   0.00000
   S  -0.2605176  -0.4265603   0.2335919 SPIN=   0.00000
   F   0.2790260  -0.2413043   0.0021569 SPIN=   0.00000
   F  -0.2209740   0.0021569  -0.2413043 SPIN=   0.00000
   F   0.2427622  -0.2482229  -0.4685493 SPIN=   0.00000
   F  -0.2572378  -0.4685493  -0.2482229 SPIN=   0.00000
%ENDBLOCK POSITIONS_FRAC

# Note: total spin =  16.00

KPOINTS_MP_SPACING 0.07

%BLOCK SPECIES_POT
QC5
%ENDBLOCK SPECIES_POT

SNAP_TO_SYMMETRY
SYMMETRY_GENERATE

