#              Generated by Buildcell
#
# at 08:40:37 (GMT+1.0) 4th August 2020
# in /lustre/scratch/uccabz1/launch_tmp
# on node-c12j-012
# by uccabz1
#
# compiler GCC version 4.9.2
# options -cpp -iprefix /lustre/shared/ucl/apps/gcc/4.9.2/bin/../lib/gcc/x86_64-unknown-linux-gnu/4.9.2/ -mtune=corei7 -march=x86-64 -g -Og
#
# seed  -115515980  -132192564   890802241  1471262474   638341062  1320948722  -319876750  1172695175   141529530 -1191604361 -1610977085  -181189828
#
#      Author: C. J. Pickard (cjp20@cam.ac.uk)
#                Space group: Pba2
#

%BLOCK LATTICE_ABC
      4.09726      6.06274     16.10263
     90.00000     90.00000     90.00000
%ENDBLOCK LATTICE_ABC

%BLOCK POSITIONS_FRAC
  Li   0.0728282   0.0300601   0.1730314 SPIN=   0.00000
  Li   0.0728282  -0.0300601  -0.1730314 SPIN=   0.00000
  Li   0.0728282  -0.4699399   0.3269686 SPIN=   0.00000
  Li   0.0728282   0.4699399  -0.3269686 SPIN=   0.00000
  Fe  -0.4271488  -0.2517729  -0.0680394 SPIN=   4.00000
  Fe  -0.4271488   0.2517729   0.0680394 SPIN=   4.00000
  Fe  -0.4271488   0.2482271  -0.4319606 SPIN=   4.00000
  Fe  -0.4271488  -0.2482271   0.4319606 SPIN=   4.00000
   O  -0.1916581  -0.3488684   0.0856380 SPIN=   0.00000
   O  -0.1910974  -0.3184540   0.2389045 SPIN=   0.00000
   O  -0.7053653  -0.3991734   0.1642359 SPIN=   0.00000
   O  -0.4543901  -0.0289121   0.1537608 SPIN=   0.00000
   S  -0.3856277  -0.2738520   0.1606348 SPIN=   0.00000
   O  -0.1916581   0.3488684  -0.0856380 SPIN=   0.00000
   O  -0.1910974   0.3184540  -0.2389045 SPIN=   0.00000
   O  -0.7053653   0.3991734  -0.1642359 SPIN=   0.00000
   O  -0.4543901   0.0289121  -0.1537608 SPIN=   0.00000
   S  -0.3856277   0.2738520  -0.1606348 SPIN=   0.00000
   O  -0.1916581   0.1511316   0.4143620 SPIN=   0.00000
   O  -0.1910974   0.1815460   0.2610955 SPIN=   0.00000
   O  -0.7053653   0.1008266   0.3357641 SPIN=   0.00000
   O  -0.4543901   0.4710879   0.3462392 SPIN=   0.00000
   S  -0.3856277   0.2261480   0.3393652 SPIN=   0.00000
   O  -0.1916581  -0.1511316  -0.4143620 SPIN=   0.00000
   O  -0.1910974  -0.1815460  -0.2610955 SPIN=   0.00000
   O  -0.7053653  -0.1008266  -0.3357641 SPIN=   0.00000
   O  -0.4543901  -0.4710879  -0.3462392 SPIN=   0.00000
   S  -0.3856277  -0.2261480  -0.3393652 SPIN=   0.00000
   F   0.0512083   0.2288176   0.0895919 SPIN=   0.00000
   F   0.0512083  -0.2288176  -0.0895919 SPIN=   0.00000
   F   0.0512083  -0.2711824   0.4104081 SPIN=   0.00000
   F   0.0512083   0.2711824  -0.4104081 SPIN=   0.00000
%ENDBLOCK POSITIONS_FRAC

# Note: total spin =  16.00

KPOINTS_MP_SPACING 0.07

%BLOCK SPECIES_POT
QC5
%ENDBLOCK SPECIES_POT

SNAP_TO_SYMMETRY
SYMMETRY_GENERATE

