#              Generated by Buildcell
#
# at 08:38:46 (GMT+1.0) 4th August 2020
# in /lustre/scratch/uccabz1/launch_tmp
# on node-c12g-016
# by uccabz1
#
# compiler GCC version 4.9.2
# options -cpp -iprefix /lustre/shared/ucl/apps/gcc/4.9.2/bin/../lib/gcc/x86_64-unknown-linux-gnu/4.9.2/ -mtune=corei7 -march=x86-64 -g -Og
#
# seed   742932571  -455614197  1791187001  1166344839    77757075   993994343  -704410825 -1069781558   232765632  1006186464 -2010526281  1628535728
#
#      Author: C. J. Pickard (cjp20@cam.ac.uk)
#                Space group: P21
#

%BLOCK LATTICE_ABC
      4.69504      8.62208     10.62179
    111.52254     90.00000     90.00000
%ENDBLOCK LATTICE_ABC

%BLOCK POSITIONS_FRAC
  Li   0.0147866  -0.0635306  -0.1909622 SPIN=   0.00000
  Li  -0.4852134   0.0635306   0.1909622 SPIN=   0.00000
  Li  -0.4057775  -0.4472661  -0.1669307 SPIN=   0.00000
  Li   0.0942225   0.4472661   0.1669307 SPIN=   0.00000
  Fe   0.0626746   0.0171857   0.3757831 SPIN=   2.33779
  Fe  -0.4373254  -0.0171857  -0.3757831 SPIN=   2.33779
  Fe   0.0899791   0.3288140  -0.1704113 SPIN=   5.66221
  Fe  -0.4100209  -0.3288140   0.1704113 SPIN=   5.66221
   O   0.0796551  -0.0089524   0.0027999 SPIN=   0.00000
   O  -0.2325969  -0.2516813  -0.0289570 SPIN=   0.00000
   O   0.1233537  -0.1658569   0.1557669 SPIN=   0.00000
   O   0.2812494  -0.2940490  -0.0825263 SPIN=   0.00000
   S   0.0629153  -0.1801349   0.0117709 SPIN=   0.00000
   O  -0.4203449   0.0089524  -0.0027999 SPIN=   0.00000
   O  -0.7325969   0.2516813   0.0289570 SPIN=   0.00000
   O  -0.3766463   0.1658569  -0.1557669 SPIN=   0.00000
   O  -0.2187506   0.2940490   0.0825263 SPIN=   0.00000
   S  -0.4370847   0.1801349  -0.0117709 SPIN=   0.00000
   O   0.2013999  -0.4841080   0.4157776 SPIN=   0.00000
   O  -0.3152031  -0.4413691   0.3952778 SPIN=   0.00000
   O   0.0338504  -0.2788499   0.3194878 SPIN=   0.00000
   O  -0.0272899  -0.2220139   0.5638261 SPIN=   0.00000
   S  -0.0268107  -0.3565852   0.4235923 SPIN=   0.00000
   O   0.7013999   0.4841080  -0.4157776 SPIN=   0.00000
   O   0.1847969   0.4413691  -0.3952778 SPIN=   0.00000
   O   0.5338504   0.2788499  -0.3194878 SPIN=   0.00000
   O   0.4727101   0.2220139  -0.5638261 SPIN=   0.00000
   S   0.4731893   0.3565852  -0.4235923 SPIN=   0.00000
   F   0.4937382  -0.1052068   0.3475382 SPIN=   0.00000
   F  -0.0062618   0.1052068  -0.3475382 SPIN=   0.00000
   F   0.4812270  -0.2166464  -0.2782148 SPIN=   0.00000
   F  -0.0187730   0.2166464   0.2782148 SPIN=   0.00000
%ENDBLOCK POSITIONS_FRAC

# Note: total spin =  16.00

KPOINTS_MP_SPACING 0.07

%BLOCK SPECIES_POT
QC5
%ENDBLOCK SPECIES_POT

SNAP_TO_SYMMETRY
SYMMETRY_GENERATE

