#              Generated by Buildcell
#
# at 13:11:54 (GMT+1.0) 18th August 2020
# in /scratch/scratch/uccabz1/launch_tmp
# on node-k10a-007
# by uccabz1
#
# compiler GCC version 4.9.2
# options -cpp -iprefix /scratch/UCL/applications/gcc/4.9.2/bin/../lib/gcc/x86_64-unknown-linux-gnu/4.9.2/ -mtune=corei7 -march=x86-64 -g -O2
#
# seed  1296819935   623659455  -505512285  1155996781  -958756312  1195222111  1737739567  -868102291 -1024290460  1986483817   773899617  1919083520
#
#      Author: C. J. Pickard (cjp20@cam.ac.uk)
#                Space group: Pna21
#

%BLOCK LATTICE_ABC
      7.20411      7.35514      7.54899
     90.00000     90.00000     90.00000
%ENDBLOCK LATTICE_ABC

%BLOCK POSITIONS_FRAC
  Li  -0.2498820  -0.3290489   0.4141409 SPIN=   0.00000
  Li   0.2498820   0.1709511  -0.4141409 SPIN=   0.00000
  Li   0.2501180  -0.3290489   0.0858591 SPIN=   0.00000
  Li  -0.2501180   0.1709511  -0.0858591 SPIN=   0.00000
  Fe   0.2260050  -0.4396436  -0.3194091 SPIN=   4.00000
  Fe  -0.2260050   0.0603564   0.3194091 SPIN=   4.00000
  Fe  -0.2739950  -0.4396436  -0.1805909 SPIN=   4.00000
  Fe   0.2739950   0.0603564   0.1805909 SPIN=   4.00000
   O   0.2388098  -0.0943260  -0.0975679 SPIN=   0.00000
   O  -0.0784325  -0.0274405   0.0100261 SPIN=   0.00000
   O  -0.0279380  -0.2728494  -0.2090309 SPIN=   0.00000
   O   0.0096391   0.0489061  -0.2980044 SPIN=   0.00000
   S   0.0355196  -0.0864274  -0.1486443 SPIN=   0.00000
   O  -0.2388098   0.4056740   0.0975679 SPIN=   0.00000
   O   0.0784325   0.4725595  -0.0100261 SPIN=   0.00000
   O   0.0279380   0.2271506   0.2090309 SPIN=   0.00000
   O  -0.0096391   0.5489061   0.2980044 SPIN=   0.00000
   S  -0.0355196   0.4135726   0.1486443 SPIN=   0.00000
   O  -0.2611902  -0.0943260  -0.4024321 SPIN=   0.00000
   O  -0.5784325  -0.0274405  -0.5100261 SPIN=   0.00000
   O  -0.5279380  -0.2728494  -0.2909691 SPIN=   0.00000
   O  -0.4903609   0.0489061  -0.2019956 SPIN=   0.00000
   S  -0.4644804  -0.0864274  -0.3513557 SPIN=   0.00000
   O   0.2611902   0.4056740   0.4024321 SPIN=   0.00000
   O   0.5784325   0.4725595   0.5100261 SPIN=   0.00000
   O   0.5279380   0.2271506   0.2909691 SPIN=   0.00000
   O   0.4903609   0.5489061   0.2019956 SPIN=   0.00000
   S   0.4644804   0.4135726   0.3513557 SPIN=   0.00000
   F   0.0718805  -0.1017219   0.3801244 SPIN=   0.00000
   F  -0.0718805   0.3982781  -0.3801244 SPIN=   0.00000
   F  -0.4281195  -0.1017219   0.1198756 SPIN=   0.00000
   F   0.4281195   0.3982781  -0.1198756 SPIN=   0.00000
%ENDBLOCK POSITIONS_FRAC

# Note: total spin =  16.00

KPOINTS_MP_SPACING 0.07

%BLOCK SPECIES_POT
QC5
%ENDBLOCK SPECIES_POT

SNAP_TO_SYMMETRY
SYMMETRY_GENERATE

