#              Generated by Buildcell
#
# at 10:21:37 (GMT+1.0) 4th August 2020
# in /lustre/scratch/uccabz1/launch_tmp
# on node-c12m-019
# by uccabz1
#
# compiler GCC version 4.9.2
# options -cpp -iprefix /lustre/shared/ucl/apps/gcc/4.9.2/bin/../lib/gcc/x86_64-unknown-linux-gnu/4.9.2/ -mtune=corei7 -march=x86-64 -g -Og
#
# seed   228622640  1922211231   601645405   627155878   269399551  -630773512  1559172363  1890943044  1370326342   899638770 -1153977350   277352809
#
#      Author: C. J. Pickard (cjp20@cam.ac.uk)
#                Space group: C2
#

%BLOCK LATTICE_ABC
      6.92085      6.92085      9.44557
    105.81367    105.81367    101.54732
%ENDBLOCK LATTICE_ABC

%BLOCK POSITIONS_FRAC
  Li  -0.3738273   0.3738273  -0.0000000 SPIN=   0.00000
  Li  -0.7005027  -0.2994973  -0.5000000 SPIN=   0.00000
  Li   0.0764669  -0.0764669   0.0000000 SPIN=   0.00000
  Li   0.8906825   0.1093175   0.5000000 SPIN=   0.00000
  Fe  -0.2178435   0.0874720  -0.2156594 SPIN=   3.25982
  Fe  -0.0874720   0.2178435   0.2156594 SPIN=   3.25982
  Fe   0.4224571  -0.1233911   0.2516898 SPIN=   4.74018
  Fe   0.1233911  -0.4224571  -0.2516898 SPIN=   4.74018
   O   0.2768190   0.5155646   0.2780621 SPIN=   0.00000
   O   0.6467537   0.5209160   0.3182653 SPIN=   0.00000
   O   0.3669328   0.2972238   0.0650430 SPIN=   0.00000
   O   0.3885738   0.2047301   0.3030407 SPIN=   0.00000
   S   0.4197698   0.3846086   0.2411028 SPIN=   0.00000
   O  -0.5155646  -0.2768190  -0.2780621 SPIN=   0.00000
   O  -0.5209160  -0.6467537  -0.3182653 SPIN=   0.00000
   O  -0.2972238  -0.3669328  -0.0650430 SPIN=   0.00000
   O  -0.2047301  -0.3885738  -0.3030407 SPIN=   0.00000
   S  -0.3846086  -0.4197698  -0.2411028 SPIN=   0.00000
   O   0.1226928  -0.0585805   0.2783262 SPIN=   0.00000
   O  -0.2402929  -0.1255615   0.2824909 SPIN=   0.00000
   O  -0.0093002  -0.3204238   0.3896946 SPIN=   0.00000
   S  -0.0684547  -0.2249887   0.2634656 SPIN=   0.00000
   O   0.0585805  -0.1226928  -0.2783262 SPIN=   0.00000
   O   0.1255615   0.2402929  -0.2824909 SPIN=   0.00000
   O   0.3204238   0.0093002  -0.3896946 SPIN=   0.00000
   S   0.2249887   0.0684547  -0.2634656 SPIN=   0.00000
   O  -0.5086713  -0.4913287  -0.5000000 SPIN=   0.00000
   O  -0.3021848  -0.6978152  -0.5000000 SPIN=   0.00000
   F   0.0707083   0.3197026   0.4390946 SPIN=   0.00000
   F  -0.3197026  -0.0707083  -0.4390946 SPIN=   0.00000
   F  -0.4220529  -0.0064180   0.0339862 SPIN=   0.00000
   F   0.0064180   0.4220529  -0.0339862 SPIN=   0.00000
%ENDBLOCK POSITIONS_FRAC

# Note: total spin =  16.00

KPOINTS_MP_SPACING 0.07

%BLOCK SPECIES_POT
QC5
%ENDBLOCK SPECIES_POT

SNAP_TO_SYMMETRY
SYMMETRY_GENERATE

