#              Generated by Buildcell
#
# at 08:21:59 (GMT+1.0) 18th August 2020
# in /lustre/scratch/uccabz1/launch_tmp
# on node-c12e-007
# by uccabz1
#
# compiler GCC version 4.9.2
# options -cpp -iprefix /lustre/shared/ucl/apps/gcc/4.9.2/bin/../lib/gcc/x86_64-unknown-linux-gnu/4.9.2/ -mtune=corei7 -march=x86-64 -g -Og
#
# seed   557789618  -816761065 -1479588661 -1425008865 -1580371477 -2043419639 -1876919004  -131541278   568041024   747704174  1354326222  -501577979
#
#      Author: C. J. Pickard (cjp20@cam.ac.uk)
#                Space group: Pc
#

%BLOCK LATTICE_ABC
      6.47279      7.82750      8.30609
    108.10396     90.00000     90.00000
%ENDBLOCK LATTICE_ABC

%BLOCK POSITIONS_FRAC
  Li  -0.2698287  -0.3431964  -0.3114853 SPIN=   0.00000
  Li   0.2698287   0.1568036   0.1885147 SPIN=   0.00000
  Li  -0.3711195  -0.2129864   0.3145694 SPIN=   0.00000
  Li   0.3711195   0.2870136  -0.1854306 SPIN=   0.00000
  Fe   0.3999864  -0.2148077  -0.0173383 SPIN=   4.39615
  Fe  -0.3999864   0.2851923   0.4826617 SPIN=   4.39615
  Fe   0.2697493  -0.2022168  -0.4541951 SPIN=   3.60385
  Fe  -0.2697493   0.2977832   0.0458049 SPIN=   3.60385
   O   0.4110943   0.4931125   0.1022351 SPIN=   0.00000
   O   0.0672096   0.6080954   0.0561758 SPIN=   0.00000
   O   0.1539568   0.5725794   0.3342156 SPIN=   0.00000
   O   0.1004277   0.3039113   0.0848777 SPIN=   0.00000
   S   0.1831721   0.4944246   0.1443760 SPIN=   0.00000
   O  -0.4110943  -0.0068875  -0.3977649 SPIN=   0.00000
   O  -0.0672096   0.1080954  -0.4438242 SPIN=   0.00000
   O  -0.1539568   0.0725794  -0.1657844 SPIN=   0.00000
   O  -0.1004277  -0.1960887  -0.4151223 SPIN=   0.00000
   S  -0.1831721  -0.0055754  -0.3556240 SPIN=   0.00000
   O   0.2969902   0.3437330  -0.3928320 SPIN=   0.00000
   O   0.1343565   0.6447124  -0.2987429 SPIN=   0.00000
   O  -0.0306246   0.3899170  -0.2313620 SPIN=   0.00000
   O  -0.0273787   0.3985845  -0.5266710 SPIN=   0.00000
   S   0.0933359   0.4442367  -0.3624020 SPIN=   0.00000
   O  -0.2969902  -0.1562670   0.1071680 SPIN=   0.00000
   O  -0.1343565   0.1447124   0.2012571 SPIN=   0.00000
   O   0.0306246  -0.1100830   0.2686380 SPIN=   0.00000
   O   0.0273787  -0.1014155  -0.0266710 SPIN=   0.00000
   S  -0.0933359  -0.0557633   0.1375980 SPIN=   0.00000
   F   0.4066699   0.0506701   0.3401514 SPIN=   0.00000
   F  -0.4066699  -0.4493299  -0.1598486 SPIN=   0.00000
   F   0.3169094   0.0596273  -0.1494499 SPIN=   0.00000
   F  -0.3169094  -0.4403727   0.3505501 SPIN=   0.00000
%ENDBLOCK POSITIONS_FRAC

# Note: total spin =  16.00

KPOINTS_MP_SPACING 0.07

%BLOCK SPECIES_POT
QC5
%ENDBLOCK SPECIES_POT

SNAP_TO_SYMMETRY
SYMMETRY_GENERATE

