#              Generated by Buildcell
#
# at 06:57:41 (GMT+1.0) 4th August 2020
# in /lustre/scratch/uccabz1/launch_tmp
# on node-c12c-018
# by uccabz1
#
# compiler GCC version 4.9.2
# options -cpp -iprefix /lustre/shared/ucl/apps/gcc/4.9.2/bin/../lib/gcc/x86_64-unknown-linux-gnu/4.9.2/ -mtune=corei7 -march=x86-64 -g -Og
#
# seed -1904446081  -356521256 -2100180349  -632492758  -267154134  -124549760  -199052653   847240577  -329799261   376922553   -32543316 -1649694894
#
#      Author: C. J. Pickard (cjp20@cam.ac.uk)
#                Space group: P41
#

%BLOCK LATTICE_ABC
      6.15711      6.15711     10.55129
     90.00000     90.00000     90.00000
%ENDBLOCK LATTICE_ABC

%BLOCK POSITIONS_FRAC
  Li  -0.3424355   0.0892035   0.2113569 SPIN=   0.00000
  Li   0.3424355  -0.0892035  -0.2886431 SPIN=   0.00000
  Li  -0.0892035  -0.3424355   0.4613569 SPIN=   0.00000
  Li   0.0892035   0.3424355  -0.0386431 SPIN=   0.00000
  Fe   0.1928841   0.2225442   0.2263576 SPIN=   4.00000
  Fe  -0.1928841  -0.2225442  -0.2736424 SPIN=   4.00000
  Fe  -0.2225442   0.1928841   0.4763576 SPIN=   4.00000
  Fe   0.2225442  -0.1928841  -0.0236424 SPIN=   4.00000
   O  -0.1301681   0.1370088  -0.1170255 SPIN=   0.00000
   O  -0.4264715   0.4085010  -0.1123959 SPIN=   0.00000
   O  -0.4144867   0.1325617  -0.2828065 SPIN=   0.00000
   O  -0.1428791   0.4287602  -0.2781993 SPIN=   0.00000
   S  -0.2785014   0.2767079  -0.1976068 SPIN=   0.00000
   O   0.1301681  -0.1370088   0.3829745 SPIN=   0.00000
   O   0.4264715  -0.4085010   0.3876041 SPIN=   0.00000
   O   0.4144867  -0.1325617   0.2171935 SPIN=   0.00000
   O   0.1428791  -0.4287602   0.2218007 SPIN=   0.00000
   S   0.2785014  -0.2767079   0.3023932 SPIN=   0.00000
   O  -0.1370088  -0.1301681   0.1329745 SPIN=   0.00000
   O  -0.4085010  -0.4264715   0.1376041 SPIN=   0.00000
   O  -0.1325617  -0.4144867  -0.0328065 SPIN=   0.00000
   O  -0.4287602  -0.1428791  -0.0281993 SPIN=   0.00000
   S  -0.2767079  -0.2785014   0.0523932 SPIN=   0.00000
   O   0.1370088   0.1301681  -0.3670255 SPIN=   0.00000
   O   0.4085010   0.4264715  -0.3623959 SPIN=   0.00000
   O   0.1325617   0.4144867  -0.5328065 SPIN=   0.00000
   O   0.4287602   0.1428791  -0.5281993 SPIN=   0.00000
   S   0.2767079   0.2785014  -0.4476068 SPIN=   0.00000
   F   0.3168658   0.1847036   0.0440243 SPIN=   0.00000
   F  -0.3168658  -0.1847036  -0.4559757 SPIN=   0.00000
   F  -0.1847036   0.3168658   0.2940243 SPIN=   0.00000
   F   0.1847036  -0.3168658  -0.2059757 SPIN=   0.00000
%ENDBLOCK POSITIONS_FRAC

# Note: total spin =  16.00

KPOINTS_MP_SPACING 0.07

%BLOCK SPECIES_POT
QC5
%ENDBLOCK SPECIES_POT

SNAP_TO_SYMMETRY
SYMMETRY_GENERATE

