#              Generated by Buildcell
#
# at 07:01:07 (GMT+1.0) 4th August 2020
# in /lustre/scratch/uccabz1/launch_tmp
# on node-c12l-010
# by uccabz1
#
# compiler GCC version 4.9.2
# options -cpp -iprefix /lustre/shared/ucl/apps/gcc/4.9.2/bin/../lib/gcc/x86_64-unknown-linux-gnu/4.9.2/ -mtune=corei7 -march=x86-64 -g -Og
#
# seed -2122985974  1310523985  1903514939     2949041  -386930499  2051975112 -1406830851  1988177620 -1024452711   835954564 -1665099905 -1501210874
#
#      Author: C. J. Pickard (cjp20@cam.ac.uk)
#                Space group: Cc
#

%BLOCK LATTICE_ABC
      5.49757      5.49757     13.48878
     97.69099     97.69099     91.40364
%ENDBLOCK LATTICE_ABC

%BLOCK POSITIONS_FRAC
  Li  -0.2885739   0.0634255   0.4260225 SPIN=   0.00000
  Li   0.0634255  -0.2885739  -0.0739775 SPIN=   0.00000
  Li   0.4652133  -0.4635965   0.2028567 SPIN=   0.00000
  Li  -0.4635965   0.4652133  -0.2971433 SPIN=   0.00000
  Fe   0.1882029  -0.1199283   0.3697252 SPIN=   3.03735
  Fe  -0.1199283   0.1882029  -0.1302748 SPIN=   3.03735
  Fe   0.0131244   0.2889680  -0.3800944 SPIN=   4.96265
  Fe   0.2889680   0.0131244   0.1199056 SPIN=   4.96265
   O   0.4158523   0.3956289  -0.1166702 SPIN=   0.00000
   O   0.7163961   0.3929346   0.0371099 SPIN=   0.00000
   O   0.2726163   0.3243768   0.0437707 SPIN=   0.00000
   O   0.4361358   0.7363264   0.0245019 SPIN=   0.00000
   S   0.4602501   0.4623167  -0.0028219 SPIN=   0.00000
   O   0.3956289   0.4158523   0.3833298 SPIN=   0.00000
   O   0.3929346   0.7163961   0.5371099 SPIN=   0.00000
   O   0.3243768   0.2726163   0.5437707 SPIN=   0.00000
   O   0.7363264   0.4361358   0.5245019 SPIN=   0.00000
   S   0.4623167   0.4602501   0.4971781 SPIN=   0.00000
   O   0.1693045  -0.0423300  -0.1611637 SPIN=   0.00000
   O   0.3474834   0.1448763  -0.2936711 SPIN=   0.00000
   O   0.2561851  -0.3036757  -0.3154899 SPIN=   0.00000
   O   0.5992086  -0.1167666  -0.1882363 SPIN=   0.00000
   S   0.3430454  -0.0794740  -0.2396403 SPIN=   0.00000
   O  -0.0423300   0.1693045   0.3388363 SPIN=   0.00000
   O   0.1448763   0.3474834   0.2063289 SPIN=   0.00000
   O  -0.3036757   0.2561851   0.1845101 SPIN=   0.00000
   O  -0.1167666   0.5992086   0.3117637 SPIN=   0.00000
   S  -0.0794740   0.3430454   0.2603597 SPIN=   0.00000
   F   0.4671084  -0.1132635   0.2731603 SPIN=   0.00000
   F  -0.1132635   0.4671084  -0.2268397 SPIN=   0.00000
   F  -0.0726533  -0.0715400  -0.4618076 SPIN=   0.00000
   F  -0.0715400  -0.0726533   0.0381924 SPIN=   0.00000
%ENDBLOCK POSITIONS_FRAC

# Note: total spin =  16.00

KPOINTS_MP_SPACING 0.07

%BLOCK SPECIES_POT
QC5
%ENDBLOCK SPECIES_POT

SNAP_TO_SYMMETRY
SYMMETRY_GENERATE

