#              Generated by Buildcell
#
# at 09:07:57 (GMT+1.0) 18th August 2020
# in /lustre/scratch/uccabz1/launch_tmp
# on node-c12m-009
# by uccabz1
#
# compiler GCC version 4.9.2
# options -cpp -iprefix /lustre/shared/ucl/apps/gcc/4.9.2/bin/../lib/gcc/x86_64-unknown-linux-gnu/4.9.2/ -mtune=corei7 -march=x86-64 -g -Og
#
# seed   -84206591  1577281707  1903514939 -1017631012  1794848407  -941594976 -1676110501  1590473837   876410204   -36050684  -374622882   801973349
#
#      Author: C. J. Pickard (cjp20@cam.ac.uk)
#                Space group: P-1
#

%BLOCK LATTICE_ABC
      4.56745      6.02453     14.69436
     94.09801     97.23931     90.69838
%ENDBLOCK LATTICE_ABC

%BLOCK POSITIONS_FRAC
  Li   0.0697477   0.3577848  -0.2705688 SPIN=   0.00000
  Li  -0.0697477  -0.3577848   0.2705688 SPIN=   0.00000
  Li   0.2618031  -0.2599642   0.0197578 SPIN=   0.00000
  Li  -0.2618031   0.2599642  -0.0197578 SPIN=   0.00000
  Fe   0.3967650   0.4350734   0.1652925 SPIN=   4.41842
  Fe  -0.3967650  -0.4350734  -0.1652925 SPIN=   4.41842
  Fe   0.1938515   0.0615342  -0.1214336 SPIN=   3.58158
  Fe  -0.1938515  -0.0615342   0.1214336 SPIN=   3.58158
   O   0.0019496  -0.2562630  -0.4256803 SPIN=   0.00000
   O   0.1943626  -0.3387901  -0.2668687 SPIN=   0.00000
   O  -0.3424263  -0.2974854  -0.3104429 SPIN=   0.00000
   O  -0.0067789   0.0320218  -0.2973792 SPIN=   0.00000
   S  -0.0382232  -0.2151292  -0.3250928 SPIN=   0.00000
   O  -0.0019496   0.2562630   0.4256803 SPIN=   0.00000
   O  -0.1943626   0.3387901   0.2668687 SPIN=   0.00000
   O   0.3424263   0.2974854   0.3104429 SPIN=   0.00000
   O   0.0067789  -0.0320218   0.2973792 SPIN=   0.00000
   S   0.0382232   0.2151292   0.3250928 SPIN=   0.00000
   O   0.7062207   0.3292414  -0.3498650 SPIN=   0.00000
   O   0.3629006   0.0185157  -0.4122812 SPIN=   0.00000
   O   0.4852799   0.3092234  -0.5129949 SPIN=   0.00000
   O   0.1742639   0.3992257  -0.3896368 SPIN=   0.00000
   S   0.4321663   0.2640515  -0.4161945 SPIN=   0.00000
   O  -0.7062207  -0.3292414   0.3498650 SPIN=   0.00000
   O  -0.3629006  -0.0185157   0.4122812 SPIN=   0.00000
   O  -0.4852799  -0.3092234   0.5129949 SPIN=   0.00000
   O  -0.1742639  -0.3992257   0.3896368 SPIN=   0.00000
   S  -0.4321663  -0.2640515   0.4161945 SPIN=   0.00000
   F  -0.0264846   0.2514093   0.0882791 SPIN=   0.00000
   F   0.0264846  -0.2514093  -0.0882791 SPIN=   0.00000
   F   0.4609032  -0.2284187   0.1782025 SPIN=   0.00000
   F  -0.4609032   0.2284187  -0.1782025 SPIN=   0.00000
%ENDBLOCK POSITIONS_FRAC

# Note: total spin =  16.00

KPOINTS_MP_SPACING 0.07

%BLOCK SPECIES_POT
QC5
%ENDBLOCK SPECIES_POT

SNAP_TO_SYMMETRY
SYMMETRY_GENERATE

