#              Generated by Buildcell
#
# at 08:49:28 (GMT+1.0) 4th August 2020
# in /lustre/scratch/uccabz1/launch_tmp
# on node-c12i-007
# by uccabz1
#
# compiler GCC version 4.9.2
# options -cpp -iprefix /lustre/shared/ucl/apps/gcc/4.9.2/bin/../lib/gcc/x86_64-unknown-linux-gnu/4.9.2/ -mtune=corei7 -march=x86-64 -g -Og
#
# seed   796244415   947307105  -458799646    96006845  -995123186 -1878525417    24736162 -1910111946  1661913913  -230152542  -874132194 -1250429950
#
#      Author: C. J. Pickard (cjp20@cam.ac.uk)
#                Space group: Pc
#

%BLOCK LATTICE_ABC
      4.31686      8.25850     11.22123
     90.86492     90.00000     90.00000
%ENDBLOCK LATTICE_ABC

%BLOCK POSITIONS_FRAC
  Li  -0.2067454  -0.3004266   0.2198776 SPIN=   0.00000
  Li   0.2067454   0.1995734  -0.2801224 SPIN=   0.00000
  Li   0.2871986   0.4906973  -0.0165470 SPIN=   0.00000
  Li  -0.2871986  -0.0093027   0.4834530 SPIN=   0.00000
  Fe  -0.4772434   0.3438506  -0.4924073 SPIN=   3.90392
  Fe   0.4772434  -0.1561494   0.0075927 SPIN=   3.90392
  Fe   0.1827711   0.0531144   0.2917695 SPIN=   4.09608
  Fe  -0.1827711  -0.4468856  -0.2082305 SPIN=   4.09608
   O   0.1367094  -0.0228019  -0.3334216 SPIN=   0.00000
   O   0.6480044  -0.1203563  -0.2652241 SPIN=   0.00000
   O   0.3031916  -0.3031375  -0.3810760 SPIN=   0.00000
   O   0.1682913  -0.2254329  -0.1736200 SPIN=   0.00000
   S   0.3140492  -0.1679321  -0.2883354 SPIN=   0.00000
   O  -0.1367094   0.4771981   0.1665784 SPIN=   0.00000
   O  -0.6480044   0.3796437   0.2347759 SPIN=   0.00000
   O  -0.3031916   0.1968625   0.1189240 SPIN=   0.00000
   O  -0.1682913   0.2745671   0.3263800 SPIN=   0.00000
   S  -0.3140492   0.3320679   0.2116646 SPIN=   0.00000
   O  -0.1398197   0.0188263  -0.0957889 SPIN=   0.00000
   O  -0.3071482   0.2031294  -0.2553128 SPIN=   0.00000
   O  -0.1075592   0.3156537  -0.0646128 SPIN=   0.00000
   O  -0.6190165   0.1804267  -0.0712557 SPIN=   0.00000
   S  -0.2933859   0.1795090  -0.1217425 SPIN=   0.00000
   O   0.1398197  -0.4811737   0.4042111 SPIN=   0.00000
   O   0.3071482  -0.2968706   0.2446872 SPIN=   0.00000
   O   0.1075592  -0.1843463   0.4353872 SPIN=   0.00000
   O   0.6190165  -0.3195733   0.4287443 SPIN=   0.00000
   S   0.2933859  -0.3204910   0.3782575 SPIN=   0.00000
   F  -0.1858441   0.4926696  -0.3894526 SPIN=   0.00000
   F   0.1858441  -0.0073304   0.1105474 SPIN=   0.00000
   F   0.3184840   0.1206105   0.4639693 SPIN=   0.00000
   F  -0.3184840  -0.3793895  -0.0360307 SPIN=   0.00000
%ENDBLOCK POSITIONS_FRAC

# Note: total spin =  16.00

KPOINTS_MP_SPACING 0.07

%BLOCK SPECIES_POT
QC5
%ENDBLOCK SPECIES_POT

SNAP_TO_SYMMETRY
SYMMETRY_GENERATE

