#              Generated by Buildcell
#
# at 16:22:00 (GMT+1.0) 18th August 2020
# in /scratch/scratch/uccabz1/launch_tmp
# on node-k10g-031
# by uccabz1
#
# compiler GCC version 4.9.2
# options -cpp -iprefix /scratch/UCL/applications/gcc/4.9.2/bin/../lib/gcc/x86_64-unknown-linux-gnu/4.9.2/ -mtune=corei7 -march=x86-64 -g -O2
#
# seed -1238624120   566404306  -261530230 -1311223083   714133643 -1322297557  1079630459  1819781707  -606392118 -1331815681  -954364963  -318349693
#
#      Author: C. J. Pickard (cjp20@cam.ac.uk)
#                Space group: Pm
#

%BLOCK LATTICE_ABC
      4.69388      6.55327     13.39708
     90.00000     90.00000    103.91762
%ENDBLOCK LATTICE_ABC

%BLOCK POSITIONS_FRAC
  Li  -0.0001949   0.0849660  -0.3651663 SPIN=   0.00000
  Li  -0.0001949   0.0849660   0.3651663 SPIN=   0.00000
  Li   0.1036764  -0.4154052  -0.2411013 SPIN=   0.00000
  Li   0.1036764  -0.4154052   0.2411013 SPIN=   0.00000
  Fe  -0.4463796   0.4312021   0.3661935 SPIN=   0.89289
  Fe  -0.4463796   0.4312021  -0.3661935 SPIN=   0.89289
  Fe  -0.2506382  -0.0145113  -0.1353597 SPIN=   7.10711
  Fe  -0.2506382  -0.0145113   0.1353597 SPIN=   7.10711
   O   0.6305356   0.2657254  -0.0900832 SPIN=   0.00000
   O   0.3486283   0.2495408  -0.2471942 SPIN=   0.00000
   O   0.4102890   0.5596345  -0.1366160 SPIN=   0.00000
   O   0.0914758   0.2180328  -0.0845937 SPIN=   0.00000
   S   0.3702322   0.3232334  -0.1396218 SPIN=   0.00000
   O   0.6305356   0.2657254   0.0900832 SPIN=   0.00000
   O   0.3486283   0.2495408   0.2471942 SPIN=   0.00000
   O   0.4102890   0.5596345   0.1366160 SPIN=   0.00000
   O   0.0914758   0.2180328   0.0845937 SPIN=   0.00000
   S   0.3702322   0.3232334   0.1396218 SPIN=   0.00000
   O   0.6447009  -0.2497048   0.3834571 SPIN=   0.00000
   O   0.4469724  -0.0666625   0.2480835 SPIN=   0.00000
   O   0.5221536   0.0907131   0.4168482 SPIN=   0.00000
   O   0.1254506  -0.2285737   0.3875654 SPIN=   0.00000
   S   0.4348194  -0.1135569   0.3589886 SPIN=   0.00000
   O   0.6447009  -0.2497048  -0.3834571 SPIN=   0.00000
   O   0.4469724  -0.0666625  -0.2480835 SPIN=   0.00000
   O   0.5221536   0.0907131  -0.4168482 SPIN=   0.00000
   O   0.1254506  -0.2285737  -0.3875654 SPIN=   0.00000
   S   0.4348194  -0.1135569  -0.3589886 SPIN=   0.00000
   F   0.0009058  -0.2404982   0.1404389 SPIN=   0.00000
   F   0.0009058  -0.2404982  -0.1404389 SPIN=   0.00000
   F  -0.0250570   0.3718219   0.3586384 SPIN=   0.00000
   F  -0.0250570   0.3718219  -0.3586384 SPIN=   0.00000
%ENDBLOCK POSITIONS_FRAC

# Note: total spin =  16.00

KPOINTS_MP_SPACING 0.07

%BLOCK SPECIES_POT
QC5
%ENDBLOCK SPECIES_POT

SNAP_TO_SYMMETRY
SYMMETRY_GENERATE

