#              Generated by Buildcell
#
# at 06:17:57 (GMT+1.0) 4th August 2020
# in /lustre/scratch/uccabz1/launch_tmp
# on node-c12l-025
# by uccabz1
#
# compiler GCC version 4.9.2
# options -cpp -iprefix /lustre/shared/ucl/apps/gcc/4.9.2/bin/../lib/gcc/x86_64-unknown-linux-gnu/4.9.2/ -mtune=corei7 -march=x86-64 -g -Og
#
# seed -1721497208   597809669  -266345256 -1760738936  -958129923 -1321506954  1363085751  1416438191  -475187752 -1800462689  1918253652  -424266346
#
#      Author: C. J. Pickard (cjp20@cam.ac.uk)
#                Space group: Pc
#

%BLOCK LATTICE_ABC
      4.39330      7.03875     12.99341
     95.42468     90.00000     90.00000
%ENDBLOCK LATTICE_ABC

%BLOCK POSITIONS_FRAC
  Li   0.3525125   0.2672839  -0.2801190 SPIN=   0.00000
  Li  -0.3525125   0.2672839   0.2198810 SPIN=   0.00000
  Li  -0.4250341  -0.1823808  -0.1719712 SPIN=   0.00000
  Li   0.4250341  -0.1823808   0.3280288 SPIN=   0.00000
  Fe  -0.0747045  -0.4485517   0.3803679 SPIN=   4.10710
  Fe   0.0747045  -0.4485517  -0.1196321 SPIN=   4.10710
  Fe   0.1113270  -0.0606995   0.1389956 SPIN=   3.89290
  Fe  -0.1113270  -0.0606995  -0.3610044 SPIN=   3.89290
   O   0.3131702   0.6474341   0.1719898 SPIN=   0.00000
   O   0.2489884   0.2973818   0.1671253 SPIN=   0.00000
   O   0.0562249   0.4698322   0.0230444 SPIN=   0.00000
   O  -0.1986827   0.5098211   0.1935732 SPIN=   0.00000
   S   0.1049252   0.4811173   0.1389331 SPIN=   0.00000
   O  -0.3131702   0.6474341  -0.3280102 SPIN=   0.00000
   O  -0.2489884   0.2973818  -0.3328747 SPIN=   0.00000
   O  -0.0562249   0.4698322  -0.4769556 SPIN=   0.00000
   O   0.1986827   0.5098211  -0.3064268 SPIN=   0.00000
   S  -0.1049252   0.4811173  -0.3610669 SPIN=   0.00000
   O  -0.1229564   0.0239230  -0.0783686 SPIN=   0.00000
   O  -0.6163861   0.1933071  -0.0797115 SPIN=   0.00000
   O  -0.2856439   0.2348372   0.0749665 SPIN=   0.00000
   O  -0.5489497  -0.0726325   0.0299191 SPIN=   0.00000
   S  -0.3934840   0.0948587  -0.0132986 SPIN=   0.00000
   O   0.1229564   0.0239230   0.4216314 SPIN=   0.00000
   O   0.6163861   0.1933071   0.4202885 SPIN=   0.00000
   O   0.2856439   0.2348372   0.5749665 SPIN=   0.00000
   O   0.5489497  -0.0726325   0.5299191 SPIN=   0.00000
   S   0.3934840   0.0948587   0.4867014 SPIN=   0.00000
   F  -0.4436894  -0.4181511  -0.1027907 SPIN=   0.00000
   F   0.4436894  -0.4181511   0.3972093 SPIN=   0.00000
   F  -0.2467934  -0.0668494   0.2411317 SPIN=   0.00000
   F   0.2467934  -0.0668494  -0.2588683 SPIN=   0.00000
%ENDBLOCK POSITIONS_FRAC

# Note: total spin =  16.00

KPOINTS_MP_SPACING 0.07

%BLOCK SPECIES_POT
QC5
%ENDBLOCK SPECIES_POT

SNAP_TO_SYMMETRY
SYMMETRY_GENERATE

