#              Generated by Buildcell
#
# at 06:35:44 (GMT+1.0) 4th August 2020
# in /lustre/scratch/uccabz1/launch_tmp
# on node-c12d-002
# by uccabz1
#
# compiler GCC version 4.9.2
# options -cpp -iprefix /lustre/shared/ucl/apps/gcc/4.9.2/bin/../lib/gcc/x86_64-unknown-linux-gnu/4.9.2/ -mtune=corei7 -march=x86-64 -g -Og
#
# seed  -488977214   128604991  1451557473  -188581821  -985469327 -1707095861  1887451950  1495061240  1053396965 -1370608172   353436884   775721237
#
#      Author: C. J. Pickard (cjp20@cam.ac.uk)
#                Space group: P2
#

%BLOCK LATTICE_ABC
      5.45589      6.21722     11.83765
     95.01770     90.00000     90.00000
%ENDBLOCK LATTICE_ABC

%BLOCK POSITIONS_FRAC
  Li  -0.1311212   0.0352712  -0.3391963 SPIN=   0.00000
  Li  -0.1311212  -0.0352712   0.3391963 SPIN=   0.00000
  Li   0.2881390   0.4220924  -0.1632327 SPIN=   0.00000
  Li   0.2881390  -0.4220924   0.1632327 SPIN=   0.00000
  Fe   0.4321976  -0.2364658  -0.4300121 SPIN=   4.65536
  Fe   0.4321976   0.2364658   0.4300121 SPIN=   4.65536
  Fe   0.2161778  -0.0774849  -0.1488166 SPIN=   3.34464
  Fe   0.2161778   0.0774849   0.1488166 SPIN=   3.34464
   O  -0.3356814  -0.4659568  -0.3634322 SPIN=   0.00000
   O   0.0759707  -0.3506355  -0.4219506 SPIN=   0.00000
   O   0.0280868  -0.6876556  -0.3272906 SPIN=   0.00000
   O  -0.0321310  -0.3334383  -0.2183156 SPIN=   0.00000
   S  -0.0659387  -0.4594216  -0.3327473 SPIN=   0.00000
   O  -0.3356814   0.4659568   0.3634322 SPIN=   0.00000
   O   0.0759707   0.3506355   0.4219506 SPIN=   0.00000
   O   0.0280868   0.6876556   0.3272906 SPIN=   0.00000
   O  -0.0321310   0.3334383   0.2183156 SPIN=   0.00000
   S  -0.0659387   0.4594216   0.3327473 SPIN=   0.00000
   O  -0.5468589   0.2344697  -0.0522745 SPIN=   0.00000
   O  -0.1207534   0.3202809   0.0075696 SPIN=   0.00000
   O  -0.2526492   0.3701228  -0.1884689 SPIN=   0.00000
   O  -0.2053685   0.0018641  -0.1272031 SPIN=   0.00000
   S  -0.2814075   0.2316844  -0.0900942 SPIN=   0.00000
   O  -0.5468589  -0.2344697   0.0522745 SPIN=   0.00000
   O  -0.1207534  -0.3202809  -0.0075696 SPIN=   0.00000
   O  -0.2526492  -0.3701228   0.1884689 SPIN=   0.00000
   O  -0.2053685  -0.0018641   0.1272031 SPIN=   0.00000
   S  -0.2814075  -0.2316844   0.0900942 SPIN=   0.00000
   F   0.4678007   0.1543465  -0.3554844 SPIN=   0.00000
   F   0.4678007  -0.1543465   0.3554844 SPIN=   0.00000
   F   0.4337442   0.3122628   0.1680942 SPIN=   0.00000
   F   0.4337442  -0.3122628  -0.1680942 SPIN=   0.00000
%ENDBLOCK POSITIONS_FRAC

# Note: total spin =  16.00

KPOINTS_MP_SPACING 0.07

%BLOCK SPECIES_POT
QC5
%ENDBLOCK SPECIES_POT

SNAP_TO_SYMMETRY
SYMMETRY_GENERATE

