#              Generated by Buildcell
#
# at 07:07:35 (GMT+1.0) 4th August 2020
# in /lustre/scratch/uccabz1/launch_tmp
# on node-c12g-023
# by uccabz1
#
# compiler GCC version 4.9.2
# options -cpp -iprefix /lustre/shared/ucl/apps/gcc/4.9.2/bin/../lib/gcc/x86_64-unknown-linux-gnu/4.9.2/ -mtune=corei7 -march=x86-64 -g -Og
#
# seed -2004842757   690403090  2061211388 -1744265518   -97409622  -599199534  1696030289 -1161045879  1087854153  -241253987  -792681162   788398015
#
#      Author: C. J. Pickard (cjp20@cam.ac.uk)
#                Space group: Pca21
#

%BLOCK LATTICE_ABC
      6.49599      7.35423      8.37294
     90.00000     90.00000     90.00000
%ENDBLOCK LATTICE_ABC

%BLOCK POSITIONS_FRAC
  Li   0.0922953   0.3601723  -0.2876536 SPIN=   0.00000
  Li  -0.0922953  -0.3601723   0.2123464 SPIN=   0.00000
  Li  -0.4077047  -0.3601723  -0.2876536 SPIN=   0.00000
  Li   0.4077047   0.3601723   0.2123464 SPIN=   0.00000
  Fe   0.2414103  -0.2922165   0.4769844 SPIN=   4.00000
  Fe  -0.2414103   0.2922165  -0.0230156 SPIN=   4.00000
  Fe  -0.2585897   0.2922165   0.4769844 SPIN=   4.00000
  Fe   0.2585897  -0.2922165  -0.0230156 SPIN=   4.00000
   O  -0.3666051   0.0155876   0.5117172 SPIN=   0.00000
   O  -0.4696730  -0.2631207   0.3666410 SPIN=   0.00000
   O  -0.1438598  -0.2572744   0.5197603 SPIN=   0.00000
   O  -0.1756692  -0.0795586   0.2699737 SPIN=   0.00000
   S  -0.2889518  -0.1460916   0.4170231 SPIN=   0.00000
   O   0.3666051  -0.0155876   0.0117172 SPIN=   0.00000
   O   0.4696730   0.2631207  -0.1333590 SPIN=   0.00000
   O   0.1438598   0.2572744   0.0197603 SPIN=   0.00000
   O   0.1756692   0.0795586  -0.2300263 SPIN=   0.00000
   S   0.2889518   0.1460916  -0.0829769 SPIN=   0.00000
   O   0.1333949  -0.0155876   0.5117172 SPIN=   0.00000
   O   0.0303270   0.2631207   0.3666410 SPIN=   0.00000
   O   0.3561402   0.2572744   0.5197603 SPIN=   0.00000
   O   0.3243308   0.0795586   0.2699737 SPIN=   0.00000
   S   0.2110482   0.1460916   0.4170231 SPIN=   0.00000
   O  -0.1333949   0.0155876   0.0117172 SPIN=   0.00000
   O  -0.0303270  -0.2631207  -0.1333590 SPIN=   0.00000
   O  -0.3561402  -0.2572744   0.0197603 SPIN=   0.00000
   O  -0.3243308  -0.0795586  -0.2300263 SPIN=   0.00000
   S  -0.2110482  -0.1460916  -0.0829769 SPIN=   0.00000
   F   0.1726810  -0.2839331   0.1893905 SPIN=   0.00000
   F  -0.1726810   0.2839331  -0.3106095 SPIN=   0.00000
   F  -0.3273190   0.2839331   0.1893905 SPIN=   0.00000
   F   0.3273190  -0.2839331  -0.3106095 SPIN=   0.00000
%ENDBLOCK POSITIONS_FRAC

# Note: total spin =  16.00

KPOINTS_MP_SPACING 0.07

%BLOCK SPECIES_POT
QC5
%ENDBLOCK SPECIES_POT

SNAP_TO_SYMMETRY
SYMMETRY_GENERATE

