#              Generated by Buildcell
#
# at 08:26:43 (GMT+1.0) 4th August 2020
# in /lustre/scratch/uccabz1/launch_tmp
# on node-c12c-030
# by uccabz1
#
# compiler GCC version 4.9.2
# options -cpp -iprefix /lustre/shared/ucl/apps/gcc/4.9.2/bin/../lib/gcc/x86_64-unknown-linux-gnu/4.9.2/ -mtune=corei7 -march=x86-64 -g -Og
#
# seed  1954944593  -179397495  1120286048 -1460179808  -852651032   769734945 -2002320149  1983995555  1568405925  1723229092  -602562903 -1671010936
#
#      Author: C. J. Pickard (cjp20@cam.ac.uk)
#                Space group: P2
#

%BLOCK LATTICE_ABC
      7.02373      7.37662      7.78335
     97.29780     90.00000     90.00000
%ENDBLOCK LATTICE_ABC

%BLOCK POSITIONS_FRAC
  Li  -0.0748949   0.0756450  -0.2414720 SPIN=   0.00000
  Li  -0.0748949  -0.0756450   0.2414720 SPIN=   0.00000
  Li   0.3225134  -0.4513612   0.2442559 SPIN=   0.00000
  Li   0.3225134   0.4513612  -0.2442559 SPIN=   0.00000
  Fe   0.2398988   0.2188240   0.4223810 SPIN=   5.09557
  Fe   0.2398988  -0.2188240  -0.4223810 SPIN=   5.09557
  Fe  -0.2605820  -0.2830129  -0.3650448 SPIN=   2.90443
  Fe  -0.2605820   0.2830129   0.3650448 SPIN=   2.90443
   O  -0.3664821  -0.1612387   0.4327476 SPIN=   0.00000
   O  -0.6515165  -0.0298578   0.3082404 SPIN=   0.00000
   O  -0.4829613  -0.2903842   0.1427599 SPIN=   0.00000
   O  -0.3329718   0.0156353   0.1847018 SPIN=   0.00000
   S  -0.4584829  -0.1164614   0.2671124 SPIN=   0.00000
   O  -0.3664821   0.1612387  -0.4327476 SPIN=   0.00000
   O  -0.6515165   0.0298578  -0.3082404 SPIN=   0.00000
   O  -0.4829613   0.2903842  -0.1427599 SPIN=   0.00000
   O  -0.3329718  -0.0156353  -0.1847018 SPIN=   0.00000
   S  -0.4584829   0.1164614  -0.2671124 SPIN=   0.00000
   O   0.0950817   0.1233826   0.1779404 SPIN=   0.00000
   O  -0.1540429   0.2194240  -0.0164428 SPIN=   0.00000
   O   0.1858749   0.2371485  -0.0963814 SPIN=   0.00000
   O   0.0553767   0.4507682   0.1459225 SPIN=   0.00000
   S   0.0455726   0.2576808   0.0527597 SPIN=   0.00000
   O   0.0950817  -0.1233826  -0.1779404 SPIN=   0.00000
   O  -0.1540429  -0.2194240   0.0164428 SPIN=   0.00000
   O   0.1858749  -0.2371485   0.0963814 SPIN=   0.00000
   O   0.0553767  -0.4507682  -0.1459225 SPIN=   0.00000
   S   0.0455726  -0.2576808  -0.0527597 SPIN=   0.00000
   F  -0.0045500  -0.2656800   0.3877988 SPIN=   0.00000
   F  -0.0045500   0.2656800  -0.3877988 SPIN=   0.00000
   F  -0.4942606   0.3441131   0.2024062 SPIN=   0.00000
   F  -0.4942606  -0.3441131  -0.2024062 SPIN=   0.00000
%ENDBLOCK POSITIONS_FRAC

# Note: total spin =  16.00

KPOINTS_MP_SPACING 0.07

%BLOCK SPECIES_POT
QC5
%ENDBLOCK SPECIES_POT

SNAP_TO_SYMMETRY
SYMMETRY_GENERATE

