#              Generated by Buildcell
#
# at 09:41:43 (GMT+1.0) 4th August 2020
# in /lustre/scratch/uccabz1/launch_tmp
# on node-c12f-023
# by uccabz1
#
# compiler GCC version 4.9.2
# options -cpp -iprefix /lustre/shared/ucl/apps/gcc/4.9.2/bin/../lib/gcc/x86_64-unknown-linux-gnu/4.9.2/ -mtune=corei7 -march=x86-64 -g -Og
#
# seed   -26713581  1029894164  -876489848  -369144104  -670275580  -623676647  1846020600  1061145503   420744422 -1018862517  1353428576  -101361229
#
#      Author: C. J. Pickard (cjp20@cam.ac.uk)
#                Space group: Pc
#

%BLOCK LATTICE_ABC
      7.34592      7.65923      7.76319
     90.00000    113.68405     90.00000
%ENDBLOCK LATTICE_ABC

%BLOCK POSITIONS_FRAC
  Li   0.1412329  -0.2627830   0.0250009 SPIN=   0.00000
  Li   0.1412329   0.2627830  -0.4749991 SPIN=   0.00000
  Li  -0.1089208  -0.2221068   0.4584276 SPIN=   0.00000
  Li  -0.1089208   0.2221068  -0.0415724 SPIN=   0.00000
  Fe  -0.4409515  -0.1688616   0.0620797 SPIN=   3.12599
  Fe  -0.4409515   0.1688616  -0.4379203 SPIN=   3.12599
  Fe   0.3125774   0.3684876   0.0816090 SPIN=   4.87401
  Fe   0.3125774  -0.3684876  -0.4183910 SPIN=   4.87401
   O   0.1095671   0.0559433   0.1154907 SPIN=   0.00000
   O   0.0093078  -0.2289453   0.2001843 SPIN=   0.00000
   O  -0.0653687   0.0442792   0.3292091 SPIN=   0.00000
   O   0.2818085  -0.0600807   0.4383508 SPIN=   0.00000
   S   0.0838287  -0.0472009   0.2708087 SPIN=   0.00000
   O   0.1095671  -0.0559433  -0.3845093 SPIN=   0.00000
   O   0.0093078   0.2289453  -0.2998157 SPIN=   0.00000
   O  -0.0653687  -0.0442792  -0.1707909 SPIN=   0.00000
   O   0.2818085   0.0600807  -0.0616492 SPIN=   0.00000
   S   0.0838287   0.0472009  -0.2291913 SPIN=   0.00000
   O  -0.0944194  -0.3993620  -0.0507028 SPIN=   0.00000
   O  -0.2696036  -0.6050310  -0.3107107 SPIN=   0.00000
   O  -0.0358034  -0.3878342  -0.3429406 SPIN=   0.00000
   O  -0.3585922  -0.2915061  -0.3458032 SPIN=   0.00000
   S  -0.1896046  -0.4209333  -0.2625393 SPIN=   0.00000
   O  -0.0944194   0.3993620   0.4492972 SPIN=   0.00000
   O  -0.2696036   0.6050310   0.1892893 SPIN=   0.00000
   O  -0.0358034   0.3878342   0.1570594 SPIN=   0.00000
   O  -0.3585922   0.2915061   0.1541968 SPIN=   0.00000
   S  -0.1896046   0.4209333   0.2374607 SPIN=   0.00000
   F  -0.3887866   0.1108031  -0.1551060 SPIN=   0.00000
   F  -0.3887866  -0.1108031   0.3448940 SPIN=   0.00000
   F   0.3643507  -0.3911321  -0.1602669 SPIN=   0.00000
   F   0.3643507   0.3911321   0.3397331 SPIN=   0.00000
%ENDBLOCK POSITIONS_FRAC

# Note: total spin =  16.00

KPOINTS_MP_SPACING 0.07

%BLOCK SPECIES_POT
QC5
%ENDBLOCK SPECIES_POT

SNAP_TO_SYMMETRY
SYMMETRY_GENERATE

