#              Generated by Buildcell
#
# at 22:46:40 (GMT+1.0) 17th August 2020
# in /lustre/scratch/uccabz1/launch_tmp
# on node-c12a-010
# by uccabz1
#
# compiler GCC version 4.9.2
# options -cpp -iprefix /lustre/shared/ucl/apps/gcc/4.9.2/bin/../lib/gcc/x86_64-unknown-linux-gnu/4.9.2/ -mtune=corei7 -march=x86-64 -g -Og
#
# seed  -270702684  -907314579  1989630565  2125870775  1686618030  -653988808   957513926   838355172 -1480196913  -125637536 -1621081845 -1610065925
#
#      Author: C. J. Pickard (cjp20@cam.ac.uk)
#                Space group: P21
#

%BLOCK LATTICE_ABC
      4.92255      8.80704      9.35325
     90.00000     90.00000     99.44101
%ENDBLOCK LATTICE_ABC

%BLOCK POSITIONS_FRAC
  Li   0.0620908   0.2163904  -0.4538333 SPIN=   0.00000
  Li  -0.0620908  -0.2163904   0.0461667 SPIN=   0.00000
  Li   0.2231275   0.4013624  -0.0693743 SPIN=   0.00000
  Li  -0.2231275  -0.4013624   0.4306257 SPIN=   0.00000
  Fe  -0.0645029  -0.1206694  -0.3886613 SPIN=   4.49758
  Fe   0.0645029   0.1206694   0.1113387 SPIN=   4.49758
  Fe  -0.4913353  -0.1497456   0.2834921 SPIN=   3.50242
  Fe   0.4913353   0.1497456  -0.2165079 SPIN=   3.50242
   O  -0.7266708   0.1464597   0.3717112 SPIN=   0.00000
   O  -0.3572860   0.3737131   0.3628234 SPIN=   0.00000
   O  -0.2479171   0.1136754   0.3167353 SPIN=   0.00000
   O  -0.3708479   0.1864498   0.5610253 SPIN=   0.00000
   S  -0.4256804   0.2050745   0.4030738 SPIN=   0.00000
   O   0.7266708  -0.1464597  -0.1282888 SPIN=   0.00000
   O   0.3572860  -0.3737131  -0.1371766 SPIN=   0.00000
   O   0.2479171  -0.1136754  -0.1832647 SPIN=   0.00000
   O   0.3708479  -0.1864498   0.0610253 SPIN=   0.00000
   S   0.4256804  -0.2050745  -0.0969262 SPIN=   0.00000
   O  -0.1946079   0.6423393  -0.3506975 SPIN=   0.00000
   O  -0.4291456   0.3795900  -0.2908115 SPIN=   0.00000
   O  -0.0945771   0.5224649  -0.1214555 SPIN=   0.00000
   O   0.0680107   0.4255900  -0.3490737 SPIN=   0.00000
   S  -0.1625800   0.4924961  -0.2780096 SPIN=   0.00000
   O   0.1946079  -0.6423393   0.1493025 SPIN=   0.00000
   O   0.4291456  -0.3795900   0.2091885 SPIN=   0.00000
   O   0.0945771  -0.5224649   0.3785445 SPIN=   0.00000
   O  -0.0680107  -0.4255900   0.1509263 SPIN=   0.00000
   S   0.1625800  -0.4924961   0.2219904 SPIN=   0.00000
   F   0.4987336  -0.1976894  -0.4917047 SPIN=   0.00000
   F  -0.4987336   0.1976894   0.0082953 SPIN=   0.00000
   F  -0.0308000   0.0985107  -0.2577324 SPIN=   0.00000
   F   0.0308000  -0.0985107   0.2422676 SPIN=   0.00000
%ENDBLOCK POSITIONS_FRAC

# Note: total spin =  16.00

KPOINTS_MP_SPACING 0.07

%BLOCK SPECIES_POT
QC5
%ENDBLOCK SPECIES_POT

SNAP_TO_SYMMETRY
SYMMETRY_GENERATE

