#              Generated by Buildcell
#
# at 08:04:42 (GMT+1.0) 4th August 2020
# in /lustre/scratch/uccabz1/launch_tmp
# on node-c12d-030
# by uccabz1
#
# compiler GCC version 4.9.2
# options -cpp -iprefix /lustre/shared/ucl/apps/gcc/4.9.2/bin/../lib/gcc/x86_64-unknown-linux-gnu/4.9.2/ -mtune=corei7 -march=x86-64 -g -Og
#
# seed   658299581  1424213623  1447185421 -1493258357   207242365  1049879252   600708548  -443267626  1302734612  2019979347  -977616263  1195639200
#
#      Author: C. J. Pickard (cjp20@cam.ac.uk)
#                Space group: C2
#

%BLOCK LATTICE_ABC
      6.50365      6.88512     10.45018
     83.38359     75.87961     61.81648
%ENDBLOCK LATTICE_ABC

%BLOCK POSITIONS_FRAC
  Li   0.0247302   0.0251804   0.1643550 SPIN=   0.00000
  Li  -0.0499106   0.0251804  -0.1643550 SPIN=   0.00000
  Li   0.4038306  -0.4423354  -0.3582408 SPIN=   0.00000
  Li   0.0385048  -0.4423354   0.3582408 SPIN=   0.00000
  Fe  -0.3245512   0.0805200  -0.4108250 SPIN=   4.29236
  Fe   0.2440312   0.0805200   0.4108250 SPIN=   4.29236
  Fe  -0.0666297  -0.4307488   0.0980518 SPIN=   3.70764
  Fe   0.4973786  -0.4307488  -0.0980518 SPIN=   3.70764
   O  -0.2703623  -0.5619731   0.2457468 SPIN=   0.00000
   O  -0.4359454  -0.2453160   0.3960129 SPIN=   0.00000
   O  -0.3586275  -0.6154893   0.4874901 SPIN=   0.00000
   O  -0.6897317  -0.4100048   0.3709992 SPIN=   0.00000
   S  -0.4386667  -0.4581958   0.3750622 SPIN=   0.00000
   O  -0.1676646  -0.5619731  -0.2457468 SPIN=   0.00000
   O  -0.3187386  -0.2453160  -0.3960129 SPIN=   0.00000
   O  -0.0258831  -0.6154893  -0.4874901 SPIN=   0.00000
   O   0.0997364  -0.4100048  -0.3709992 SPIN=   0.00000
   S  -0.1031375  -0.4581958  -0.3750622 SPIN=   0.00000
   O  -0.4974097   0.2694141   0.2624395 SPIN=   0.00000
   O  -0.3426940   0.2743552   0.0215990 SPIN=   0.00000
   O  -0.6358767   0.1325984   0.1089596 SPIN=   0.00000
   O  -0.2218044  -0.0804966   0.1417846 SPIN=   0.00000
   S  -0.4244462   0.1489678   0.1336957 SPIN=   0.00000
   O   0.2279955   0.2694141  -0.2624395 SPIN=   0.00000
   O   0.0683388   0.2743552  -0.0215990 SPIN=   0.00000
   O   0.5032783   0.1325984  -0.1089596 SPIN=   0.00000
   O   0.3023009  -0.0804966  -0.1417846 SPIN=   0.00000
   S   0.2754784   0.1489678  -0.1336957 SPIN=   0.00000
   F  -0.0510003  -0.2932201  -0.0977537 SPIN=   0.00000
   F   0.3442204  -0.2932201   0.0977537 SPIN=   0.00000
   F  -0.1427203  -0.0546257   0.3864955 SPIN=   0.00000
   F   0.1973460  -0.0546257  -0.3864955 SPIN=   0.00000
%ENDBLOCK POSITIONS_FRAC

# Note: total spin =  16.00

KPOINTS_MP_SPACING 0.07

%BLOCK SPECIES_POT
QC5
%ENDBLOCK SPECIES_POT

SNAP_TO_SYMMETRY
SYMMETRY_GENERATE

