#              Generated by Buildcell
#
# at 00:26:51 (GMT+1.0) 18th August 2020
# in /lustre/scratch/uccabz1/launch_tmp
# on node-c12b-010
# by uccabz1
#
# compiler GCC version 4.9.2
# options -cpp -iprefix /lustre/shared/ucl/apps/gcc/4.9.2/bin/../lib/gcc/x86_64-unknown-linux-gnu/4.9.2/ -mtune=corei7 -march=x86-64 -g -Og
#
# seed   115825004 -1255819817  -243491643 -1778776698 -1459926056  2063939212  1148679748   -36845948 -1987911594 -1561840784   403566963  1624431687
#
#      Author: C. J. Pickard (cjp20@cam.ac.uk)
#                Space group: P21
#

%BLOCK LATTICE_ABC
      6.34421      7.17451      9.02935
    103.27711     90.00000     90.00000
%ENDBLOCK LATTICE_ABC

%BLOCK POSITIONS_FRAC
  Li  -0.0394222   0.0606855   0.3587844 SPIN=   0.00000
  Li   0.4605778  -0.0606855  -0.3587844 SPIN=   0.00000
  Li  -0.3217947   0.4847490  -0.2697685 SPIN=   0.00000
  Li   0.1782053  -0.4847490   0.2697685 SPIN=   0.00000
  Fe  -0.3672755   0.4323167   0.3977613 SPIN=   4.45821
  Fe   0.1327245  -0.4323167  -0.3977613 SPIN=   4.45821
  Fe  -0.1799544   0.1206303   0.0483203 SPIN=   3.54179
  Fe   0.3200456  -0.1206303  -0.0483203 SPIN=   3.54179
   O  -0.1253989  -0.4969076   0.1535030 SPIN=   0.00000
   O   0.1769012  -0.3350377   0.0632850 SPIN=   0.00000
   O  -0.1409620  -0.1492009   0.1649689 SPIN=   0.00000
   O  -0.1556099  -0.3819861  -0.0839390 SPIN=   0.00000
   S  -0.0612674  -0.3407831   0.0744545 SPIN=   0.00000
   O   0.3746011   0.4969076  -0.1535030 SPIN=   0.00000
   O   0.6769012   0.3350377  -0.0632850 SPIN=   0.00000
   O   0.3590380   0.1492009  -0.1649689 SPIN=   0.00000
   O   0.3443901   0.3819861   0.0839390 SPIN=   0.00000
   S   0.4387326   0.3407831  -0.0744545 SPIN=   0.00000
   O  -0.0365178   0.3102455  -0.4425672 SPIN=   0.00000
   O   0.0101749   0.2808139  -0.1767699 SPIN=   0.00000
   O   0.0719963   0.0004675  -0.3899048 SPIN=   0.00000
   O  -0.2906429   0.1211484  -0.3292225 SPIN=   0.00000
   S  -0.0612474   0.1781688  -0.3346161 SPIN=   0.00000
   O   0.4634822  -0.3102455   0.4425672 SPIN=   0.00000
   O   0.5101749  -0.2808139   0.1767699 SPIN=   0.00000
   O   0.5719963  -0.0004675   0.3899048 SPIN=   0.00000
   O   0.2093571  -0.1211484   0.3292225 SPIN=   0.00000
   S   0.4387526  -0.1781688   0.3346161 SPIN=   0.00000
   F   0.0443609   0.1821155   0.1745000 SPIN=   0.00000
   F  -0.4556391  -0.1821155  -0.1745000 SPIN=   0.00000
   F   0.4435368   0.3420334  -0.4853919 SPIN=   0.00000
   F  -0.0564632  -0.3420334   0.4853919 SPIN=   0.00000
%ENDBLOCK POSITIONS_FRAC

# Note: total spin =  16.00

KPOINTS_MP_SPACING 0.07

%BLOCK SPECIES_POT
QC5
%ENDBLOCK SPECIES_POT

SNAP_TO_SYMMETRY
SYMMETRY_GENERATE

