#              Generated by Buildcell
#
# at 08:05:29 (GMT+1.0) 4th August 2020
# in /lustre/scratch/uccabz1/launch_tmp
# on node-c12d-002
# by uccabz1
#
# compiler GCC version 4.9.2
# options -cpp -iprefix /lustre/shared/ucl/apps/gcc/4.9.2/bin/../lib/gcc/x86_64-unknown-linux-gnu/4.9.2/ -mtune=corei7 -march=x86-64 -g -Og
#
# seed    41163846   808603284 -1677035963   723082305   856826772 -1237578372   487908580 -1238805162  1664011660 -1436594624   120241634 -1945483623
#
#      Author: C. J. Pickard (cjp20@cam.ac.uk)
#                Space group: Pc
#

%BLOCK LATTICE_ABC
      5.98691      7.52080      9.54801
    111.49924     90.00000     90.00000
%ENDBLOCK LATTICE_ABC

%BLOCK POSITIONS_FRAC
  Li   0.1104432   0.0392563   0.4412146 SPIN=   0.00000
  Li  -0.1104432  -0.4607437  -0.0587854 SPIN=   0.00000
  Li   0.3317943  -0.1744321  -0.2594203 SPIN=   0.00000
  Li  -0.3317943   0.3255679   0.2405797 SPIN=   0.00000
  Fe  -0.3329972  -0.0722464  -0.0020376 SPIN=   3.82983
  Fe   0.3329972   0.4277536   0.4979624 SPIN=   3.82983
  Fe  -0.3555346   0.0478637  -0.4115110 SPIN=   4.17017
  Fe   0.3555346  -0.4521363   0.0884890 SPIN=   4.17017
   O  -0.1060386  -0.4472150  -0.4913900 SPIN=   0.00000
   O   0.0890432  -0.3505985  -0.2462212 SPIN=   0.00000
   O  -0.2730296  -0.5202278  -0.2814713 SPIN=   0.00000
   O  -0.2589998  -0.1861955  -0.2697753 SPIN=   0.00000
   S  -0.1372562  -0.3760592  -0.3222145 SPIN=   0.00000
   O   0.1060386   0.0527850   0.0086100 SPIN=   0.00000
   O  -0.0890432   0.1494015   0.2537788 SPIN=   0.00000
   O   0.2730296  -0.0202278   0.2185287 SPIN=   0.00000
   O   0.2589998   0.3138045   0.2302247 SPIN=   0.00000
   S   0.1372562   0.1239408   0.1777855 SPIN=   0.00000
   O   0.1281780   0.3098999  -0.3483795 SPIN=   0.00000
   O  -0.0632872   0.0734483  -0.2658279 SPIN=   0.00000
   O   0.1327661   0.3485984  -0.0795774 SPIN=   0.00000
   O   0.3496764   0.0883215  -0.2656258 SPIN=   0.00000
   S   0.1368333   0.2050670  -0.2398526 SPIN=   0.00000
   O  -0.1281780  -0.1901001   0.1516205 SPIN=   0.00000
   O   0.0632872  -0.4265517   0.2341721 SPIN=   0.00000
   O  -0.1327661  -0.1514016   0.4204226 SPIN=   0.00000
   O  -0.3496764  -0.4116785   0.2343742 SPIN=   0.00000
   S  -0.1368333  -0.2949330   0.2601474 SPIN=   0.00000
   F  -0.4297578   0.1757772   0.4638746 SPIN=   0.00000
   F   0.4297578  -0.3242228  -0.0361254 SPIN=   0.00000
   F  -0.3627376   0.2060723  -0.0147280 SPIN=   0.00000
   F   0.3627376  -0.2939277   0.4852720 SPIN=   0.00000
%ENDBLOCK POSITIONS_FRAC

# Note: total spin =  16.00

KPOINTS_MP_SPACING 0.07

%BLOCK SPECIES_POT
QC5
%ENDBLOCK SPECIES_POT

SNAP_TO_SYMMETRY
SYMMETRY_GENERATE

