#              Generated by Buildcell
#
# at 11:41:08 (GMT+1.0) 18th August 2020
# in /lustre/scratch/uccabz1/launch_tmp
# on node-c12b-013
# by uccabz1
#
# compiler GCC version 4.9.2
# options -cpp -iprefix /lustre/shared/ucl/apps/gcc/4.9.2/bin/../lib/gcc/x86_64-unknown-linux-gnu/4.9.2/ -mtune=corei7 -march=x86-64 -g -Og
#
# seed  -799107738   186226577  1308101130 -2089033732   648663027  2065331770  1477433578  1284842297 -1862461183  1927554326  1150175735  2041193107
#
#      Author: C. J. Pickard (cjp20@cam.ac.uk)
#                Space group: C2
#

%BLOCK LATTICE_ABC
      6.50928      6.50928     10.65997
     75.79799     75.79799     67.99118
%ENDBLOCK LATTICE_ABC

%BLOCK POSITIONS_FRAC
  Li   0.4639791  -0.2240392   0.0966559 SPIN=   0.00000
  Li   0.2240392  -0.4639791  -0.0966559 SPIN=   0.00000
  Li  -0.3434388  -0.0433648   0.4598155 SPIN=   0.00000
  Li   0.0433648   0.3434388  -0.4598155 SPIN=   0.00000
  Fe  -0.1046746   0.3363756  -0.1616212 SPIN=   4.85867
  Fe  -0.3363756   0.1046746   0.1616212 SPIN=   4.85867
  Fe   0.4492565   0.3028619  -0.3448187 SPIN=   3.14133
  Fe  -0.3028619  -0.4492565   0.3448187 SPIN=   3.14133
   O   0.3193923   0.3864414   0.1305022 SPIN=   0.00000
   O   0.2204586   0.0770255   0.0929807 SPIN=   0.00000
   O  -0.0552861   0.4630689   0.0782819 SPIN=   0.00000
   O   0.0392734   0.2449259   0.2941051 SPIN=   0.00000
   S   0.1309595   0.2928654   0.1489675 SPIN=   0.00000
   O  -0.3864414  -0.3193923  -0.1305022 SPIN=   0.00000
   O  -0.0770255  -0.2204586  -0.0929807 SPIN=   0.00000
   O  -0.4630689   0.0552861  -0.0782819 SPIN=   0.00000
   O  -0.2449259  -0.0392734  -0.2941051 SPIN=   0.00000
   S  -0.2928654  -0.1309595  -0.1489675 SPIN=   0.00000
   O   0.2972619   0.0623333  -0.4981849 SPIN=   0.00000
   O   0.5125905  -0.2026114  -0.3281564 SPIN=   0.00000
   O   0.1980733  -0.2748205  -0.3801376 SPIN=   0.00000
   O   0.1202528   0.0389593  -0.2638143 SPIN=   0.00000
   S   0.2820446  -0.0940349  -0.3675733 SPIN=   0.00000
   O  -0.0623333  -0.2972619   0.4981849 SPIN=   0.00000
   O   0.2026114  -0.5125905   0.3281564 SPIN=   0.00000
   O   0.2748205  -0.1980733   0.3801376 SPIN=   0.00000
   O  -0.0389593  -0.1202528   0.2638143 SPIN=   0.00000
   S   0.0940349  -0.2820446   0.3675733 SPIN=   0.00000
   F  -0.3864166   0.2395969   0.3661024 SPIN=   0.00000
   F  -0.2395969   0.3864166  -0.3661024 SPIN=   0.00000
   F   0.2009151   0.3707216  -0.2051810 SPIN=   0.00000
   F  -0.3707216  -0.2009151   0.2051810 SPIN=   0.00000
%ENDBLOCK POSITIONS_FRAC

# Note: total spin =  16.00

KPOINTS_MP_SPACING 0.07

%BLOCK SPECIES_POT
QC5
%ENDBLOCK SPECIES_POT

SNAP_TO_SYMMETRY
SYMMETRY_GENERATE

