#              Generated by Buildcell
#
# at 09:08:31 (GMT+1.0) 4th August 2020
# in /lustre/scratch/uccabz1/launch_tmp
# on node-c12c-003
# by uccabz1
#
# compiler GCC version 4.9.2
# options -cpp -iprefix /lustre/shared/ucl/apps/gcc/4.9.2/bin/../lib/gcc/x86_64-unknown-linux-gnu/4.9.2/ -mtune=corei7 -march=x86-64 -g -Og
#
# seed  2120332693  -181166231  1549556429  1163011880   292390077  -166747552  2072563799   919677573   -55772627  1380891544   943747723  1997074506
#
#      Author: C. J. Pickard (cjp20@cam.ac.uk)
#                Space group: I-4
#

%BLOCK LATTICE_ABC
      8.12973      8.12973      8.34712
    119.14216    119.14216     90.00000
%ENDBLOCK LATTICE_ABC

%BLOCK POSITIONS_FRAC
  Li   0.3765986  -0.3953536   0.2673259 SPIN=   0.00000
  Li  -0.1092727  -0.3373205   0.2673259 SPIN=   0.00000
  Li   0.3953536   0.1092727  -0.2673259 SPIN=   0.00000
  Li   0.3373205  -0.3765986  -0.2673259 SPIN=   0.00000
  Fe  -0.2246291   0.0810941  -0.2227086 SPIN=   4.00000
  Fe   0.0019205  -0.3038026  -0.2227086 SPIN=   4.00000
  Fe  -0.0810941  -0.0019205   0.2227086 SPIN=   4.00000
  Fe   0.3038026   0.2246291   0.2227086 SPIN=   4.00000
   O  -0.5660213   0.3456618  -0.4128366 SPIN=   0.00000
   O  -0.3569717   0.6252248  -0.0197741 SPIN=   0.00000
   O  -0.2839687   0.5993973  -0.2850120 SPIN=   0.00000
   O  -0.2220336   0.3621644  -0.1737413 SPIN=   0.00000
   S  -0.3572488   0.4831121  -0.2228410 SPIN=   0.00000
   O   0.1531847   0.2415015  -0.4128366 SPIN=   0.00000
   O   0.3371976   0.3550012  -0.0197741 SPIN=   0.00000
   O  -0.0010433   0.1155907  -0.2850120 SPIN=   0.00000
   O   0.0482923   0.4640943  -0.1737413 SPIN=   0.00000
   S   0.1344078   0.2940469  -0.2228410 SPIN=   0.00000
   O  -0.3456618  -0.1531847   0.4128366 SPIN=   0.00000
   O  -0.6252248  -0.3371976   0.0197741 SPIN=   0.00000
   O  -0.5993973   0.0010433   0.2850120 SPIN=   0.00000
   O  -0.3621644  -0.0482923   0.1737413 SPIN=   0.00000
   S  -0.4831121  -0.1344078   0.2228410 SPIN=   0.00000
   O  -0.2415015   0.5660213   0.4128366 SPIN=   0.00000
   O  -0.3550012   0.3569717   0.0197741 SPIN=   0.00000
   O  -0.1155907   0.2839687   0.2850120 SPIN=   0.00000
   O  -0.4640943   0.2220336   0.1737413 SPIN=   0.00000
   S  -0.2940469   0.3572488   0.2228410 SPIN=   0.00000
   F   0.1179261  -0.1368130   0.2927067 SPIN=   0.00000
   F   0.1747806   0.4295197   0.2927067 SPIN=   0.00000
   F   0.1368130  -0.1747806  -0.2927067 SPIN=   0.00000
   F  -0.4295197  -0.1179261  -0.2927067 SPIN=   0.00000
%ENDBLOCK POSITIONS_FRAC

# Note: total spin =  16.00

KPOINTS_MP_SPACING 0.07

%BLOCK SPECIES_POT
QC5
%ENDBLOCK SPECIES_POT

SNAP_TO_SYMMETRY
SYMMETRY_GENERATE

