#              Generated by Buildcell
#
# at 15:56:40 (GMT+1.0) 18th August 2020
# in /lustre/scratch/uccabz1/launch_tmp
# on node-c12e-033
# by uccabz1
#
# compiler GCC version 4.9.2
# options -cpp -iprefix /lustre/shared/ucl/apps/gcc/4.9.2/bin/../lib/gcc/x86_64-unknown-linux-gnu/4.9.2/ -mtune=corei7 -march=x86-64 -g -Og
#
# seed   398707695 -1790585137  1441628554   584258071  -393839173 -1268805723  1896875194 -1199907566   698680195  1825224944 -1818554240   294386271
#
#      Author: C. J. Pickard (cjp20@cam.ac.uk)
#                Space group: P212121
#

%BLOCK LATTICE_ABC
      4.72831      8.38569     10.08824
     90.00000     90.00000     90.00000
%ENDBLOCK LATTICE_ABC

%BLOCK POSITIONS_FRAC
  Li   0.4236138   0.4401516   0.0702902 SPIN=   0.00000
  Li   0.0763862  -0.4401516  -0.4297098 SPIN=   0.00000
  Li  -0.4236138  -0.0598484   0.4297098 SPIN=   0.00000
  Li  -0.0763862   0.0598484  -0.0702902 SPIN=   0.00000
  Fe  -0.4960875   0.4616761   0.3756933 SPIN=   4.00000
  Fe  -0.0039125  -0.4616761  -0.1243067 SPIN=   4.00000
  Fe   0.4960875  -0.0383239   0.1243067 SPIN=   4.00000
  Fe   0.0039125   0.0383239  -0.3756933 SPIN=   4.00000
   O   0.2351153  -0.1415313   0.3396552 SPIN=   0.00000
   O  -0.1808351  -0.1864089   0.1954866 SPIN=   0.00000
   O  -0.1819819  -0.2861174   0.4263840 SPIN=   0.00000
   O   0.1260359  -0.4131641   0.2584882 SPIN=   0.00000
   S  -0.0004165  -0.2568054   0.3050035 SPIN=   0.00000
   O  -0.7351153   0.1415313  -0.1603448 SPIN=   0.00000
   O  -0.3191649   0.1864089  -0.3045134 SPIN=   0.00000
   O  -0.3180181   0.2861174  -0.0736160 SPIN=   0.00000
   O  -0.6260359   0.4131641  -0.2415118 SPIN=   0.00000
   S  -0.4995835   0.2568054  -0.1949965 SPIN=   0.00000
   O  -0.2351153   0.3584687   0.1603448 SPIN=   0.00000
   O   0.1808351   0.3135911   0.3045134 SPIN=   0.00000
   O   0.1819819   0.2138826   0.0736160 SPIN=   0.00000
   O  -0.1260359   0.0868359   0.2415118 SPIN=   0.00000
   S   0.0004165   0.2431946   0.1949965 SPIN=   0.00000
   O   0.7351153  -0.3584687  -0.3396552 SPIN=   0.00000
   O   0.3191649  -0.3135911  -0.1954866 SPIN=   0.00000
   O   0.3180181  -0.2138826  -0.4263840 SPIN=   0.00000
   O   0.6260359  -0.0868359  -0.2584882 SPIN=   0.00000
   S   0.4995835  -0.2431946  -0.3050035 SPIN=   0.00000
   F   0.2298330  -0.0868653  -0.0010410 SPIN=   0.00000
   F   0.2701670   0.0868653   0.4989590 SPIN=   0.00000
   F  -0.2298330   0.4131347  -0.4989590 SPIN=   0.00000
   F  -0.2701670  -0.4131347   0.0010410 SPIN=   0.00000
%ENDBLOCK POSITIONS_FRAC

# Note: total spin =  16.00

KPOINTS_MP_SPACING 0.07

%BLOCK SPECIES_POT
QC5
%ENDBLOCK SPECIES_POT

SNAP_TO_SYMMETRY
SYMMETRY_GENERATE

