#              Generated by Buildcell
#
# at 08:01:32 (GMT+1.0) 4th August 2020
# in /lustre/scratch/uccabz1/launch_tmp
# on node-c12n-018
# by uccabz1
#
# compiler GCC version 4.9.2
# options -cpp -iprefix /lustre/shared/ucl/apps/gcc/4.9.2/bin/../lib/gcc/x86_64-unknown-linux-gnu/4.9.2/ -mtune=corei7 -march=x86-64 -g -Og
#
# seed -1140952254  -875951857  -511901836 -1306702502  1075354555    36817192 -2074904421 -1935090935  2070275146   640892759  1830285449 -2019660944
#
#      Author: C. J. Pickard (cjp20@cam.ac.uk)
#                Space group: Cm
#

%BLOCK LATTICE_ABC
      3.97338     10.65561     10.65561
     62.80823     86.08551     86.08551
%ENDBLOCK LATTICE_ABC

%BLOCK POSITIONS_FRAC
  Li  -0.3701552  -0.4441018   0.2200253 SPIN=   0.00000
  Li  -0.3701552   0.2200253  -0.4441018 SPIN=   0.00000
  Li  -0.4094944   0.0532708   0.0532708 SPIN=   0.00000
  Li   0.1657922   0.2433863   0.2433863 SPIN=   0.00000
  Fe   0.1000234  -0.1989238   0.1366892 SPIN=   2.22350
  Fe   0.1000234   0.1366892  -0.1989238 SPIN=   2.22350
  Fe   0.0655940  -0.4523581  -0.4523581 SPIN=   8.48823
  Fe  -0.3488219  -0.1718721  -0.1718721 SPIN=   3.06477
   O  -0.6177474  -0.2235888   0.5191774 SPIN=   0.00000
   O  -0.0785416  -0.1569271   0.3790900 SPIN=   0.00000
   O  -0.6135563  -0.0319033   0.2738385 SPIN=   0.00000
   O  -0.4987452  -0.2798886   0.3190250 SPIN=   0.00000
   S  -0.4521476  -0.1730769   0.3727827 SPIN=   0.00000
   O  -0.6177474   0.5191774  -0.2235888 SPIN=   0.00000
   O  -0.0785416   0.3790900  -0.1569271 SPIN=   0.00000
   O  -0.6135563   0.2738385  -0.0319033 SPIN=   0.00000
   O  -0.4987452   0.3190250  -0.2798886 SPIN=   0.00000
   S  -0.4521476   0.3727827  -0.1730769 SPIN=   0.00000
   O  -0.0016930   0.0136223  -0.5601425 SPIN=   0.00000
   O   0.5147035   0.0012742  -0.4369008 SPIN=   0.00000
   O  -0.0461390   0.0347784  -0.3377172 SPIN=   0.00000
   O   0.1889681   0.2281454  -0.5563834 SPIN=   0.00000
   S   0.1639599   0.0694551  -0.4727860 SPIN=   0.00000
   O  -0.0016930  -0.5601425   0.0136223 SPIN=   0.00000
   O   0.5147035  -0.4369008   0.0012742 SPIN=   0.00000
   O  -0.0461390  -0.3377172   0.0347784 SPIN=   0.00000
   O   0.1889681  -0.5563834   0.2281454 SPIN=   0.00000
   S   0.1639599  -0.4727860   0.0694551 SPIN=   0.00000
   F   0.1411293   0.0234165   0.0234165 SPIN=   0.00000
   F  -0.1829312   0.4476425   0.4476425 SPIN=   0.00000
   F  -0.3063506   0.2089106   0.2089106 SPIN=   0.00000
   F  -0.1308964  -0.2830937  -0.2830937 SPIN=   0.00000
%ENDBLOCK POSITIONS_FRAC

# Note: total spin =  16.00

KPOINTS_MP_SPACING 0.07

%BLOCK SPECIES_POT
QC5
%ENDBLOCK SPECIES_POT

SNAP_TO_SYMMETRY
SYMMETRY_GENERATE

