#              Generated by Buildcell
#
# at 07:59:11 (GMT+1.0) 4th August 2020
# in /lustre/scratch/uccabz1/launch_tmp
# on node-c12l-015
# by uccabz1
#
# compiler GCC version 4.9.2
# options -cpp -iprefix /lustre/shared/ucl/apps/gcc/4.9.2/bin/../lib/gcc/x86_64-unknown-linux-gnu/4.9.2/ -mtune=corei7 -march=x86-64 -g -Og
#
# seed  2120301925  1540534348  1752720940   676834626  2002875160  2091701057 -1919127449  -249213512 -1062679417  -368796933  1446500505   391501101
#
#      Author: C. J. Pickard (cjp20@cam.ac.uk)
#                Space group: Iba2
#

%BLOCK LATTICE_ABC
      7.78535      8.25255      8.25255
     65.75752     61.85570     61.85570
%ENDBLOCK LATTICE_ABC

%BLOCK POSITIONS_FRAC
  Li   0.1755978   0.3124316  -0.1883986 SPIN=   0.00000
  Li  -0.2996308  -0.1883986   0.3124316 SPIN=   0.00000
  Li   0.2003692  -0.1875684   0.3116014 SPIN=   0.00000
  Li  -0.3244022   0.3116014  -0.1875684 SPIN=   0.00000
  Fe   0.3722694   0.3867550   0.3865947 SPIN=   4.00000
  Fe  -0.1456190   0.3865947   0.3867550 SPIN=   4.00000
  Fe   0.3543810  -0.1132450  -0.1134053 SPIN=   4.00000
  Fe  -0.1277306  -0.1134053  -0.1132450 SPIN=   4.00000
   O   0.3895914  -0.1616530   0.3986406 SPIN=   0.00000
   O   0.1699547  -0.0479066   0.6923713 SPIN=   0.00000
   O   0.0933728   0.1409765   0.3963022 SPIN=   0.00000
   O   0.4057094   0.1171309   0.4279336 SPIN=   0.00000
   S   0.2646571   0.0121370   0.4788119 SPIN=   0.00000
   O   0.3734210   0.3986406  -0.1616530 SPIN=   0.00000
   O   0.1855805   0.6923713  -0.0479066 SPIN=   0.00000
   O   0.3693486   0.3963022   0.1409765 SPIN=   0.00000
   O   0.0492261   0.4279336   0.1171309 SPIN=   0.00000
   S   0.2443940   0.4788119   0.0121370 SPIN=   0.00000
   O  -0.1265790  -0.6616530  -0.1013594 SPIN=   0.00000
   O  -0.3144195  -0.5479066   0.1923713 SPIN=   0.00000
   O  -0.1306514  -0.3590235  -0.1036978 SPIN=   0.00000
   O  -0.4507739  -0.3828691  -0.0720664 SPIN=   0.00000
   S  -0.2556060  -0.4878630  -0.0211881 SPIN=   0.00000
   O  -0.1104086  -0.1013594  -0.6616530 SPIN=   0.00000
   O  -0.3300453   0.1923713  -0.5479066 SPIN=   0.00000
   O  -0.4066272  -0.1036978  -0.3590235 SPIN=   0.00000
   O  -0.0942906  -0.0720664  -0.3828691 SPIN=   0.00000
   S  -0.2353429  -0.0211881  -0.4878630 SPIN=   0.00000
   F  -0.3067465   0.0558572   0.0696452 SPIN=   0.00000
   F   0.1812441   0.0696452   0.0558572 SPIN=   0.00000
   F  -0.3187559  -0.4441428  -0.4303548 SPIN=   0.00000
   F   0.1932535  -0.4303548  -0.4441428 SPIN=   0.00000
%ENDBLOCK POSITIONS_FRAC

# Note: total spin =  16.00

KPOINTS_MP_SPACING 0.07

%BLOCK SPECIES_POT
QC5
%ENDBLOCK SPECIES_POT

SNAP_TO_SYMMETRY
SYMMETRY_GENERATE

