#              Generated by Buildcell
#
# at 17:26:24 (GMT+1.0) 18th August 2020
# in /lustre/scratch/uccabz1/launch_tmp
# on node-c12d-017
# by uccabz1
#
# compiler GCC version 4.9.2
# options -cpp -iprefix /lustre/shared/ucl/apps/gcc/4.9.2/bin/../lib/gcc/x86_64-unknown-linux-gnu/4.9.2/ -mtune=corei7 -march=x86-64 -g -Og
#
# seed   768784989  -374530215 -1013990488   424466465   257650238  -662625401 -1801849288 -1035027195 -1715517397   811921633   508961887   367628507
#
#      Author: C. J. Pickard (cjp20@cam.ac.uk)
#                Space group: I-4
#

%BLOCK LATTICE_ABC
      7.22039      8.27237      8.27237
     79.02045     64.12459     64.12459
%ENDBLOCK LATTICE_ABC

%BLOCK POSITIONS_FRAC
  Li   0.0094564  -0.2566977  -0.1385617 SPIN=   0.00000
  Li  -0.3858030   0.2566977   0.1385617 SPIN=   0.00000
  Li   0.1291053  -0.1385617   0.2566977 SPIN=   0.00000
  Li   0.2472413   0.1385617  -0.2566977 SPIN=   0.00000
  Fe  -0.1634587   0.1253341  -0.2292224 SPIN=   4.00000
  Fe  -0.2673470  -0.1253341   0.2292224 SPIN=   4.00000
  Fe   0.3926811  -0.2292224  -0.1253341 SPIN=   4.00000
  Fe   0.0381247   0.2292224   0.1253341 SPIN=   4.00000
   O  -0.5329110  -0.5676698   0.3610771 SPIN=   0.00000
   O  -0.5420408  -0.3991694   0.0813857 SPIN=   0.00000
   O  -0.2391730  -0.4523248   0.1764866 SPIN=   0.00000
   O  -0.6278438  -0.2408470   0.3469470 SPIN=   0.00000
   S  -0.4854921  -0.4150027   0.2414741 SPIN=   0.00000
   O   0.2604963   0.5676698  -0.3610771 SPIN=   0.00000
   O   0.1401755   0.3991694  -0.0813857 SPIN=   0.00000
   O   0.4849889   0.4523248  -0.1764866 SPIN=   0.00000
   O   0.4782563   0.2408470  -0.3469470 SPIN=   0.00000
   S   0.3409792   0.4150027  -0.2414741 SPIN=   0.00000
   O   0.1718339   0.3610771   0.5676698 SPIN=   0.00000
   O   0.4606551   0.0813857   0.3991694 SPIN=   0.00000
   O   0.0626863   0.1764866   0.4523248 SPIN=   0.00000
   O   0.2808967   0.3469470   0.2408470 SPIN=   0.00000
   S   0.2440180   0.2414741   0.4150027 SPIN=   0.00000
   O   0.1005808  -0.3610771  -0.5676698 SPIN=   0.00000
   O  -0.0587899  -0.0813857  -0.3991694 SPIN=   0.00000
   O  -0.3085022  -0.1764866  -0.4523248 SPIN=   0.00000
   O  -0.1313093  -0.3469470  -0.2408470 SPIN=   0.00000
   S  -0.0995051  -0.2414741  -0.4150027 SPIN=   0.00000
   F   0.2954403  -0.1479147  -0.3491091 SPIN=   0.00000
   F  -0.2015835   0.1479147   0.3491091 SPIN=   0.00000
   F   0.0536688  -0.3491091   0.1479147 SPIN=   0.00000
   F  -0.1475256   0.3491091  -0.1479147 SPIN=   0.00000
%ENDBLOCK POSITIONS_FRAC

# Note: total spin =  16.00

KPOINTS_MP_SPACING 0.07

%BLOCK SPECIES_POT
QC5
%ENDBLOCK SPECIES_POT

SNAP_TO_SYMMETRY
SYMMETRY_GENERATE

