#              Generated by Buildcell
#
# at 10:50:02 (GMT+1.0) 18th August 2020
# in /lustre/scratch/uccabz1/launch_tmp
# on node-c12l-014
# by uccabz1
#
# compiler GCC version 4.9.2
# options -cpp -iprefix /lustre/shared/ucl/apps/gcc/4.9.2/bin/../lib/gcc/x86_64-unknown-linux-gnu/4.9.2/ -mtune=corei7 -march=x86-64 -g -Og
#
# seed  1781930581  1231098409   863633537 -1603993381   811421420  -212241637  1165107086 -1822453427 -1858619492 -1023761552   464502157   171801389
#
#      Author: C. J. Pickard (cjp20@cam.ac.uk)
#                Space group: P-1
#

%BLOCK LATTICE_ABC
      7.60972      8.14954      8.31043
     96.06296    112.86609    116.48379
%ENDBLOCK LATTICE_ABC

%BLOCK POSITIONS_FRAC
  Li   0.2431408  -0.4863401  -0.0159968 SPIN=   0.00000
  Li  -0.2431408   0.4863401   0.0159968 SPIN=   0.00000
  Li   0.6659465  -0.0445948   0.4049411 SPIN=   0.00000
  Li  -0.6659465   0.0445948  -0.4049411 SPIN=   0.00000
  Fe   0.2150011  -0.1967377  -0.1846550 SPIN=   3.63066
  Fe  -0.2150011   0.1967377   0.1846550 SPIN=   3.63066
  Fe   0.6726824   0.5876871   0.3860053 SPIN=   4.36934
  Fe  -0.6726824  -0.5876871  -0.3860053 SPIN=   4.36934
   O  -0.3148034  -0.8629125  -0.4047381 SPIN=   0.00000
   O  -0.1702288  -0.6544685  -0.5742904 SPIN=   0.00000
   O   0.0958613  -0.6438814  -0.2769194 SPIN=   0.00000
   O  -0.1362169  -0.5060103  -0.2797515 SPIN=   0.00000
   S  -0.1313470  -0.6668182  -0.3839248 SPIN=   0.00000
   O   0.3148034   0.8629125   0.4047381 SPIN=   0.00000
   O   0.1702288   0.6544685   0.5742904 SPIN=   0.00000
   O  -0.0958613   0.6438814   0.2769194 SPIN=   0.00000
   O   0.1362169   0.5060103   0.2797515 SPIN=   0.00000
   S   0.1313470   0.6668182   0.3839248 SPIN=   0.00000
   O  -0.0821781   0.0084733   0.0972860 SPIN=   0.00000
   O  -0.3751010  -0.3004367   0.0875607 SPIN=   0.00000
   O  -0.1853083  -0.3069203  -0.0944334 SPIN=   0.00000
   O  -0.4526959  -0.1958744  -0.1878843 SPIN=   0.00000
   S  -0.2738209  -0.1986895  -0.0243678 SPIN=   0.00000
   O   0.0821781  -0.0084733  -0.0972860 SPIN=   0.00000
   O   0.3751010   0.3004367  -0.0875607 SPIN=   0.00000
   O   0.1853083   0.3069203   0.0944334 SPIN=   0.00000
   O   0.4526959   0.1958744   0.1878843 SPIN=   0.00000
   S   0.2738209   0.1986895   0.0243678 SPIN=   0.00000
   F   0.2918892   0.2127667   0.4574739 SPIN=   0.00000
   F  -0.2918892  -0.2127667  -0.4574739 SPIN=   0.00000
   F  -0.2793911   0.2311916  -0.0388967 SPIN=   0.00000
   F   0.2793911  -0.2311916   0.0388967 SPIN=   0.00000
%ENDBLOCK POSITIONS_FRAC

# Note: total spin =  16.00

KPOINTS_MP_SPACING 0.07

%BLOCK SPECIES_POT
QC5
%ENDBLOCK SPECIES_POT

SNAP_TO_SYMMETRY
SYMMETRY_GENERATE

