#              Generated by Buildcell
#
# at 06:24:14 (GMT+1.0) 4th August 2020
# in /lustre/scratch/uccabz1/launch_tmp
# on node-c12j-017
# by uccabz1
#
# compiler GCC version 4.9.2
# options -cpp -iprefix /lustre/shared/ucl/apps/gcc/4.9.2/bin/../lib/gcc/x86_64-unknown-linux-gnu/4.9.2/ -mtune=corei7 -march=x86-64 -g -Og
#
# seed -1563232092   448142425  1203898368  1093942994 -1153314637 -1125250405    89599061  1308709974  1688858144   529966430  1949696808 -1107682583
#
#      Author: C. J. Pickard (cjp20@cam.ac.uk)
#                Space group: C2/c
#

%BLOCK LATTICE_ABC
      7.42993      7.60375      7.60375
     92.87370    104.43113    104.43113
%ENDBLOCK LATTICE_ABC

%BLOCK POSITIONS_FRAC
  Li  -0.1408352   0.4040829  -0.2285655 SPIN=   0.00000
  Li  -0.3591648  -0.2714345   0.0959171 SPIN=   0.00000
  Li   0.1408352  -0.4040829   0.2285655 SPIN=   0.00000
  Li   0.3591648   0.2714345  -0.0959171 SPIN=   0.00000
  Fe   0.2544335  -0.1287611  -0.0312967 SPIN=   4.00000
  Fe   0.2455665  -0.4687033  -0.3712389 SPIN=   4.00000
  Fe  -0.2544335   0.1287611   0.0312967 SPIN=   4.00000
  Fe  -0.2455665   0.4687033   0.3712389 SPIN=   4.00000
   O   0.6409095   0.2603717  -0.4935522 SPIN=   0.00000
   O   0.4082640   0.0414689  -0.3721871 SPIN=   0.00000
   O   0.3349798   0.3252482  -0.4766208 SPIN=   0.00000
   O   0.5919899   0.3410793  -0.1927474 SPIN=   0.00000
   S   0.4940358   0.2420420  -0.3837769 SPIN=   0.00000
   O  -0.1409095  -0.0064478   0.2396283 SPIN=   0.00000
   O   0.0917360  -0.1278129   0.4585311 SPIN=   0.00000
   O   0.1650202  -0.0233792   0.1747518 SPIN=   0.00000
   O  -0.0919899  -0.3072526   0.1589207 SPIN=   0.00000
   S   0.0059642  -0.1162231   0.2579580 SPIN=   0.00000
   O  -0.6409095  -0.2603717   0.4935522 SPIN=   0.00000
   O  -0.4082640  -0.0414689   0.3721871 SPIN=   0.00000
   O  -0.3349798  -0.3252482   0.4766208 SPIN=   0.00000
   O  -0.5919899  -0.3410793   0.1927474 SPIN=   0.00000
   S  -0.4940358  -0.2420420   0.3837769 SPIN=   0.00000
   O   0.1409095   0.0064478  -0.2396283 SPIN=   0.00000
   O  -0.0917360   0.1278129  -0.4585311 SPIN=   0.00000
   O  -0.1650202   0.0233792  -0.1747518 SPIN=   0.00000
   O   0.0919899   0.3072526  -0.1589207 SPIN=   0.00000
   S  -0.0059642   0.1162231  -0.2579580 SPIN=   0.00000
   F   0.4972943   0.1953394   0.1361768 SPIN=   0.00000
   F   0.0027057   0.3638232   0.3046606 SPIN=   0.00000
   F  -0.4972943  -0.1953394  -0.1361768 SPIN=   0.00000
   F  -0.0027057  -0.3638232  -0.3046606 SPIN=   0.00000
%ENDBLOCK POSITIONS_FRAC

# Note: total spin =  16.00

KPOINTS_MP_SPACING 0.07

%BLOCK SPECIES_POT
QC5
%ENDBLOCK SPECIES_POT

SNAP_TO_SYMMETRY
SYMMETRY_GENERATE

