#              Generated by Buildcell
#
# at 15:07:30 (GMT+1.0) 18th August 2020
# in /lustre/scratch/uccabz1/launch_tmp
# on node-c12o-016
# by uccabz1
#
# compiler GCC version 4.9.2
# options -cpp -iprefix /lustre/shared/ucl/apps/gcc/4.9.2/bin/../lib/gcc/x86_64-unknown-linux-gnu/4.9.2/ -mtune=corei7 -march=x86-64 -g -Og
#
# seed  1065662288 -1887982530   515863556   432033017  -288339541  1442862960 -1741903162   753447543   451509816 -1834893519  1783161251   645183613
#
#      Author: C. J. Pickard (cjp20@cam.ac.uk)
#                Space group: Pc
#

%BLOCK LATTICE_ABC
      5.88958      8.16691      8.43743
     90.00000     90.00000     99.72976
%ENDBLOCK LATTICE_ABC

%BLOCK POSITIONS_FRAC
  Li  -0.3421956   0.3653138   0.1208869 SPIN=   0.00000
  Li   0.1578044   0.3653138  -0.1208869 SPIN=   0.00000
  Li  -0.3548418   0.3543171  -0.3742221 SPIN=   0.00000
  Li   0.1451582   0.3543171   0.3742221 SPIN=   0.00000
  Fe  -0.1766528   0.0322477  -0.3700601 SPIN=   2.90181
  Fe   0.3233472   0.0322477   0.3700601 SPIN=   2.90181
  Fe  -0.2944130  -0.3746169   0.3727430 SPIN=   5.09819
  Fe   0.2055870  -0.3746169  -0.3727430 SPIN=   5.09819
   O   0.2464734   0.1580380  -0.1842471 SPIN=   0.00000
   O   0.3645735  -0.0196150  -0.3960973 SPIN=   0.00000
   O   0.1173605  -0.1463846  -0.1761887 SPIN=   0.00000
   O   0.5263691  -0.0284102  -0.1261258 SPIN=   0.00000
   S   0.3136941  -0.0090929  -0.2206647 SPIN=   0.00000
   O  -0.2535266   0.1580380   0.1842471 SPIN=   0.00000
   O  -0.1354265  -0.0196150   0.3960973 SPIN=   0.00000
   O  -0.3826395  -0.1463846   0.1761887 SPIN=   0.00000
   O   0.0263691  -0.0284102   0.1261258 SPIN=   0.00000
   S  -0.1863059  -0.0090929   0.2206647 SPIN=   0.00000
   O   0.3298979  -0.2376535   0.0110735 SPIN=   0.00000
   O   0.0263992  -0.4548371   0.1206940 SPIN=   0.00000
   O   0.1751212  -0.2051273   0.2798184 SPIN=   0.00000
   O   0.4216064  -0.4169915   0.2302774 SPIN=   0.00000
   S   0.2382562  -0.3286523   0.1604658 SPIN=   0.00000
   O  -0.1701021  -0.2376535  -0.0110735 SPIN=   0.00000
   O  -0.4736008  -0.4548371  -0.1206940 SPIN=   0.00000
   O  -0.3248788  -0.2051273  -0.2798184 SPIN=   0.00000
   O  -0.0783936  -0.4169915  -0.2302774 SPIN=   0.00000
   S  -0.2617438  -0.3286523  -0.1604658 SPIN=   0.00000
   F  -0.1603463   0.2549416  -0.1187256 SPIN=   0.00000
   F   0.3396537   0.2549416   0.1187256 SPIN=   0.00000
   F  -0.2084869   0.4219960   0.3821064 SPIN=   0.00000
   F   0.2915131   0.4219960  -0.3821064 SPIN=   0.00000
%ENDBLOCK POSITIONS_FRAC

# Note: total spin =  16.00

KPOINTS_MP_SPACING 0.07

%BLOCK SPECIES_POT
QC5
%ENDBLOCK SPECIES_POT

SNAP_TO_SYMMETRY
SYMMETRY_GENERATE

