#              Generated by Buildcell
#
# at 06:50:09 (GMT+1.0) 4th August 2020
# in /lustre/scratch/uccabz1/launch_tmp
# on node-c12l-028
# by uccabz1
#
# compiler GCC version 4.9.2
# options -cpp -iprefix /lustre/shared/ucl/apps/gcc/4.9.2/bin/../lib/gcc/x86_64-unknown-linux-gnu/4.9.2/ -mtune=corei7 -march=x86-64 -g -Og
#
# seed  -531314558   119944975 -1504460602  1582165195 -1767589675 -2071907153  -375639253  1511741847   738008825 -1230056401  1217129455   167170693
#
#      Author: C. J. Pickard (cjp20@cam.ac.uk)
#                Space group: P-1
#

%BLOCK LATTICE_ABC
      5.26090      8.21341     10.21521
     72.91254     84.11311     71.46103
%ENDBLOCK LATTICE_ABC

%BLOCK POSITIONS_FRAC
  Li   0.5555712  -0.3380525   0.1577026 SPIN=   0.00000
  Li  -0.5555712   0.3380525  -0.1577026 SPIN=   0.00000
  Li  -0.6213516   0.2785157   0.4809180 SPIN=   0.00000
  Li   0.6213516  -0.2785157  -0.4809180 SPIN=   0.00000
  Fe   0.0419822  -0.2820239  -0.3057571 SPIN=   0.68171
  Fe  -0.0419822   0.2820239   0.3057571 SPIN=   0.68171
  Fe   0.4494347  -0.0221951  -0.1650059 SPIN=   7.31829
  Fe  -0.4494347   0.0221951   0.1650059 SPIN=   7.31829
   O   0.1482916   0.0078879   0.2544702 SPIN=   0.00000
   O   0.2259038  -0.1904492   0.4910047 SPIN=   0.00000
   O   0.2314400  -0.3174765   0.2986301 SPIN=   0.00000
   O  -0.1960910  -0.1316473   0.3735733 SPIN=   0.00000
   S   0.1023861  -0.1579213   0.3544195 SPIN=   0.00000
   O  -0.1482916  -0.0078879  -0.2544702 SPIN=   0.00000
   O  -0.2259038   0.1904492  -0.4910047 SPIN=   0.00000
   O  -0.2314400   0.3174765  -0.2986301 SPIN=   0.00000
   O   0.1960910   0.1316473  -0.3735733 SPIN=   0.00000
   S  -0.1023861   0.1579213  -0.3544195 SPIN=   0.00000
   O   0.2431021  -0.3056602  -0.1241437 SPIN=   0.00000
   O  -0.1693614  -0.2772883   0.0188545 SPIN=   0.00000
   O   0.1837415  -0.1602894   0.0622397 SPIN=   0.00000
   O   0.2634547  -0.4866979   0.1178194 SPIN=   0.00000
   S   0.1302342  -0.3074839   0.0186925 SPIN=   0.00000
   O  -0.2431021   0.3056602   0.1241437 SPIN=   0.00000
   O   0.1693614   0.2772883  -0.0188545 SPIN=   0.00000
   O  -0.1837415   0.1602894  -0.0622397 SPIN=   0.00000
   O  -0.2634547   0.4866979  -0.1178194 SPIN=   0.00000
   S  -0.1302342   0.3074839  -0.0186925 SPIN=   0.00000
   F  -0.5645527   0.1854150   0.3188750 SPIN=   0.00000
   F   0.5645527  -0.1854150  -0.3188750 SPIN=   0.00000
   F  -0.7570741   0.4588228  -0.3279693 SPIN=   0.00000
   F   0.7570741  -0.4588228   0.3279693 SPIN=   0.00000
%ENDBLOCK POSITIONS_FRAC

# Note: total spin =  16.00

KPOINTS_MP_SPACING 0.07

%BLOCK SPECIES_POT
QC5
%ENDBLOCK SPECIES_POT

SNAP_TO_SYMMETRY
SYMMETRY_GENERATE

