#              Generated by Buildcell
#
# at 15:43:54 (GMT+1.0) 18th August 2020
# in /scratch/scratch/uccabz1/launch_tmp
# on node-k10i-015
# by uccabz1
#
# compiler GCC version 4.9.2
# options -cpp -iprefix /scratch/UCL/applications/gcc/4.9.2/bin/../lib/gcc/x86_64-unknown-linux-gnu/4.9.2/ -mtune=corei7 -march=x86-64 -g -O2
#
# seed    53820680 -1731219783 -1233877503   442220613  1115635690 -1178508060   124915651  -629934921   656620494    -6653641  -209047807  1125711472
#
#      Author: C. J. Pickard (cjp20@cam.ac.uk)
#                Space group: P21/c
#

%BLOCK LATTICE_ABC
      4.26798      5.64495     16.74511
     90.00000     90.00000     97.47831
%ENDBLOCK LATTICE_ABC

%BLOCK POSITIONS_FRAC
  Li  -0.2499912   0.3472458   0.3510790 SPIN=   0.00000
  Li   0.2499912   0.1527542  -0.1489210 SPIN=   0.00000
  Li   0.2499912  -0.3472458  -0.3510790 SPIN=   0.00000
  Li  -0.2499912  -0.1527542   0.1489210 SPIN=   0.00000
  Fe   0.2841214  -0.2683247   0.4671294 SPIN=   4.00000
  Fe  -0.2841214  -0.2316753  -0.0328706 SPIN=   4.00000
  Fe  -0.2841214   0.2683247  -0.4671294 SPIN=   4.00000
  Fe   0.2841214   0.2316753   0.0328706 SPIN=   4.00000
   O  -0.3407856   0.4359992   0.2447590 SPIN=   0.00000
   O  -0.4147962   0.1419753   0.1345307 SPIN=   0.00000
   O   0.1200198   0.2680097   0.1889820 SPIN=   0.00000
   O  -0.1478458   0.5509309   0.1090373 SPIN=   0.00000
   S  -0.1958519   0.3492288   0.1693273 SPIN=   0.00000
   O   0.3407856   0.0640008  -0.2552410 SPIN=   0.00000
   O   0.4147962   0.3580247  -0.3654693 SPIN=   0.00000
   O  -0.1200198   0.2319903  -0.3110180 SPIN=   0.00000
   O   0.1478458  -0.0509309  -0.3909627 SPIN=   0.00000
   S   0.1958519   0.1507712  -0.3306727 SPIN=   0.00000
   O   0.3407856  -0.4359992  -0.2447590 SPIN=   0.00000
   O   0.4147962  -0.1419753  -0.1345307 SPIN=   0.00000
   O  -0.1200198  -0.2680097  -0.1889820 SPIN=   0.00000
   O   0.1478458  -0.5509309  -0.1090373 SPIN=   0.00000
   S   0.1958519  -0.3492288  -0.1693273 SPIN=   0.00000
   O  -0.3407856  -0.0640008   0.2552410 SPIN=   0.00000
   O  -0.4147962  -0.3580247   0.3654693 SPIN=   0.00000
   O   0.1200198  -0.2319903   0.3110180 SPIN=   0.00000
   O  -0.1478458   0.0509309   0.3909627 SPIN=   0.00000
   S  -0.1958519  -0.1507712   0.3306727 SPIN=   0.00000
   F  -0.3856539  -0.2523704  -0.4334696 SPIN=   0.00000
   F   0.3856539  -0.2476296   0.0665304 SPIN=   0.00000
   F   0.3856539   0.2523704   0.4334696 SPIN=   0.00000
   F  -0.3856539   0.2476296  -0.0665304 SPIN=   0.00000
%ENDBLOCK POSITIONS_FRAC

# Note: total spin =  16.00

KPOINTS_MP_SPACING 0.07

%BLOCK SPECIES_POT
QC5
%ENDBLOCK SPECIES_POT

SNAP_TO_SYMMETRY
SYMMETRY_GENERATE

