#              Generated by Buildcell
#
# at 10:17:00 (GMT+1.0) 4th August 2020
# in /lustre/scratch/uccabz1/launch_tmp
# on node-c12l-009
# by uccabz1
#
# compiler GCC version 4.9.2
# options -cpp -iprefix /lustre/shared/ucl/apps/gcc/4.9.2/bin/../lib/gcc/x86_64-unknown-linux-gnu/4.9.2/ -mtune=corei7 -march=x86-64 -g -Og
#
# seed  1987736077 -1056936537    74393597  -346066876 -1616401453  -312358667  -265723836 -1107984757 -1581114544  -911232601 -1767776160  -670025798
#
#      Author: C. J. Pickard (cjp20@cam.ac.uk)
#                Space group: Cc
#

%BLOCK LATTICE_ABC
      5.75357      8.44989      8.44989
     80.84055     82.77625     82.77625
%ENDBLOCK LATTICE_ABC

%BLOCK POSITIONS_FRAC
  Li  -0.3040020   0.2283985   0.4782198 SPIN=   0.00000
  Li   0.1959980   0.4782198   0.2283985 SPIN=   0.00000
  Li   0.2998582  -0.0076768   0.3674186 SPIN=   0.00000
  Li  -0.2001418   0.3674186  -0.0076768 SPIN=   0.00000
  Fe   0.3153433   0.2223622   0.0020477 SPIN=   5.49954
  Fe  -0.1846567   0.0020477   0.2223622 SPIN=   5.49954
  Fe  -0.3346345  -0.4254831   0.2980657 SPIN=   2.50046
  Fe   0.1653655   0.2980657  -0.4254831 SPIN=   2.50046
   O   0.0452098  -0.4980531  -0.1526312 SPIN=   0.00000
   O   0.2737788  -0.3496049  -0.0072028 SPIN=   0.00000
   O  -0.1519801  -0.3640627   0.0760467 SPIN=   0.00000
   O  -0.0201196  -0.2001883  -0.1817019 SPIN=   0.00000
   S   0.0367222  -0.3529772  -0.0663723 SPIN=   0.00000
   O  -0.4547902  -0.1526312  -0.4980531 SPIN=   0.00000
   O  -0.2262212  -0.0072028  -0.3496049 SPIN=   0.00000
   O  -0.6519801   0.0760467  -0.3640627 SPIN=   0.00000
   O  -0.5201196  -0.1817019  -0.2001883 SPIN=   0.00000
   S  -0.4632778  -0.0663723  -0.3529772 SPIN=   0.00000
   O   0.3241446  -0.3194254   0.3275790 SPIN=   0.00000
   O   0.1448507  -0.1634883   0.5449125 SPIN=   0.00000
   O   0.1007881  -0.4543441   0.5705130 SPIN=   0.00000
   O  -0.1092164  -0.2588340   0.3721266 SPIN=   0.00000
   S   0.1151418  -0.2990229   0.4537828 SPIN=   0.00000
   O  -0.1758554   0.3275790  -0.3194254 SPIN=   0.00000
   O  -0.3551493   0.5449125  -0.1634883 SPIN=   0.00000
   O  -0.3992119   0.5705130  -0.4543441 SPIN=   0.00000
   O  -0.6092164   0.3721266  -0.2588340 SPIN=   0.00000
   S  -0.3848582   0.4537828  -0.2990229 SPIN=   0.00000
   F   0.0379365   0.1043360  -0.0814576 SPIN=   0.00000
   F  -0.4620635  -0.0814576   0.1043360 SPIN=   0.00000
   F  -0.0100766   0.1446466   0.3304725 SPIN=   0.00000
   F   0.4899234   0.3304725   0.1446466 SPIN=   0.00000
%ENDBLOCK POSITIONS_FRAC

# Note: total spin =  16.00

KPOINTS_MP_SPACING 0.07

%BLOCK SPECIES_POT
QC5
%ENDBLOCK SPECIES_POT

SNAP_TO_SYMMETRY
SYMMETRY_GENERATE

