#              Generated by Buildcell
#
# at 02:30:12 (GMT+1.0) 18th August 2020
# in /scratch/scratch/uccabz1/launch_tmp
# on node-k10e-035
# by uccabz1
#
# compiler GCC version 4.9.2
# options -cpp -iprefix /scratch/UCL/applications/gcc/4.9.2/bin/../lib/gcc/x86_64-unknown-linux-gnu/4.9.2/ -mtune=corei7 -march=x86-64 -g -O2
#
# seed   882903673  1794863352  1918378025  1149240311  2114754364 -2064731176   424586383 -1934310439  -179652956  -115388777   -72265873  1668312039
#
#      Author: C. J. Pickard (cjp20@cam.ac.uk)
#                Space group: P21
#

%BLOCK LATTICE_ABC
      3.99483      7.95351     12.68351
     90.00000     90.00000     96.98711
%ENDBLOCK LATTICE_ABC

%BLOCK POSITIONS_FRAC
  Li  -0.1862893   0.3390338  -0.0661004 SPIN=   0.00000
  Li   0.1862893  -0.3390338   0.4338996 SPIN=   0.00000
  Li   0.2056715  -0.2357505   0.1254139 SPIN=   0.00000
  Li  -0.2056715   0.2357505  -0.3745861 SPIN=   0.00000
  Fe   0.2936756   0.0210742  -0.0565155 SPIN=   4.59731
  Fe  -0.2936756  -0.0210742   0.4434845 SPIN=   4.59731
  Fe  -0.2560359  -0.3820133  -0.3673362 SPIN=   3.40269
  Fe   0.2560359   0.3820133   0.1326638 SPIN=   3.40269
   O  -0.1636273  -0.1532271  -0.0592274 SPIN=   0.00000
   O  -0.0287565  -0.4234240  -0.1354543 SPIN=   0.00000
   O  -0.5157985  -0.2909975  -0.2028874 SPIN=   0.00000
   O  -0.5378533  -0.4189945  -0.0247891 SPIN=   0.00000
   S  -0.3115089  -0.3216608  -0.1055895 SPIN=   0.00000
   O   0.1636273   0.1532271   0.4407726 SPIN=   0.00000
   O   0.0287565   0.4234240   0.3645457 SPIN=   0.00000
   O   0.5157985   0.2909975   0.2971126 SPIN=   0.00000
   O   0.5378533   0.4189945   0.4752109 SPIN=   0.00000
   S   0.3115089   0.3216608   0.3944105 SPIN=   0.00000
   O  -0.4707787   0.1681383   0.1067909 SPIN=   0.00000
   O  -0.0354812   0.1440462   0.2429695 SPIN=   0.00000
   O  -0.1971803  -0.0939929   0.1202969 SPIN=   0.00000
   O  -0.5958756  -0.0249387   0.2585249 SPIN=   0.00000
   S  -0.3248290   0.0483132   0.1821455 SPIN=   0.00000
   O   0.4707787  -0.1681383  -0.3932091 SPIN=   0.00000
   O   0.0354812  -0.1440462  -0.2570305 SPIN=   0.00000
   O   0.1971803   0.0939929  -0.3797031 SPIN=   0.00000
   O   0.5958756   0.0249387  -0.2414751 SPIN=   0.00000
   S   0.3248290  -0.0483132  -0.3178545 SPIN=   0.00000
   F   0.0491452   0.4676503  -0.3485228 SPIN=   0.00000
   F  -0.0491452  -0.4676503   0.1514772 SPIN=   0.00000
   F   0.2396159   0.2396735  -0.0810792 SPIN=   0.00000
   F  -0.2396159  -0.2396735   0.4189208 SPIN=   0.00000
%ENDBLOCK POSITIONS_FRAC

# Note: total spin =  16.00

KPOINTS_MP_SPACING 0.07

%BLOCK SPECIES_POT
QC5
%ENDBLOCK SPECIES_POT

SNAP_TO_SYMMETRY
SYMMETRY_GENERATE

