#              Generated by Buildcell
#
# at 08:43:53 (GMT+1.0) 4th August 2020
# in /lustre/scratch/uccabz1/launch_tmp
# on node-c12g-025
# by uccabz1
#
# compiler GCC version 4.9.2
# options -cpp -iprefix /lustre/shared/ucl/apps/gcc/4.9.2/bin/../lib/gcc/x86_64-unknown-linux-gnu/4.9.2/ -mtune=corei7 -march=x86-64 -g -Og
#
# seed  2106078830  2011410403  -650065835  -950900083 -2065663143 -1604468088 -1867700941    24803877  -412888832   175260742 -1445507120  -466749491
#
#      Author: C. J. Pickard (cjp20@cam.ac.uk)
#                Space group: Pc
#

%BLOCK LATTICE_ABC
      5.10962      8.14779      9.61684
     92.46103     90.00000     90.00000
%ENDBLOCK LATTICE_ABC

%BLOCK POSITIONS_FRAC
  Li  -0.3468815   0.3417281  -0.1400094 SPIN=   0.00000
  Li   0.3468815  -0.1582719   0.3599906 SPIN=   0.00000
  Li   0.1798891   0.2346240   0.1927694 SPIN=   0.00000
  Li  -0.1798891  -0.2653760  -0.3072306 SPIN=   0.00000
  Fe   0.3471368  -0.0157173  -0.3264179 SPIN=   3.73730
  Fe  -0.3471368   0.4842827   0.1735821 SPIN=   3.73730
  Fe  -0.3470900   0.3587876  -0.4604675 SPIN=   4.26270
  Fe   0.3470900  -0.1412124   0.0395325 SPIN=   4.26270
   O  -0.2663264  -0.0313492  -0.2576440 SPIN=   0.00000
   O  -0.3669837   0.0913046  -0.0238592 SPIN=   0.00000
   O   0.0607770   0.1448105  -0.1338119 SPIN=   0.00000
   O  -0.0391246  -0.1314231  -0.0503822 SPIN=   0.00000
   S  -0.1529144   0.0183357  -0.1164243 SPIN=   0.00000
   O   0.2663264  -0.5313492   0.2423560 SPIN=   0.00000
   O   0.3669837  -0.4086954   0.4761408 SPIN=   0.00000
   O  -0.0607770  -0.3551895   0.3661881 SPIN=   0.00000
   O   0.0391246  -0.6314231   0.4496178 SPIN=   0.00000
   S   0.1529144  -0.4816643   0.3835757 SPIN=   0.00000
   O   0.1397816   0.4495819  -0.1934605 SPIN=   0.00000
   O  -0.1022589   0.3815704   0.0194152 SPIN=   0.00000
   O   0.1975680   0.6202838   0.0234800 SPIN=   0.00000
   O   0.3765665   0.3379032   0.0061036 SPIN=   0.00000
   S   0.1529143   0.4473348  -0.0361154 SPIN=   0.00000
   O  -0.1397816  -0.0504181   0.3065395 SPIN=   0.00000
   O   0.1022589  -0.1184296   0.5194152 SPIN=   0.00000
   O  -0.1975680   0.1202838   0.5234800 SPIN=   0.00000
   O  -0.3765665  -0.1620968   0.5061036 SPIN=   0.00000
   S  -0.1529143  -0.0526652   0.4638846 SPIN=   0.00000
   F  -0.3575317  -0.2815919   0.1410536 SPIN=   0.00000
   F   0.3575317   0.2184081  -0.3589464 SPIN=   0.00000
   F  -0.3549992   0.2484606   0.2071542 SPIN=   0.00000
   F   0.3549992  -0.2515394  -0.2928458 SPIN=   0.00000
%ENDBLOCK POSITIONS_FRAC

# Note: total spin =  16.00

KPOINTS_MP_SPACING 0.07

%BLOCK SPECIES_POT
QC5
%ENDBLOCK SPECIES_POT

SNAP_TO_SYMMETRY
SYMMETRY_GENERATE

