#              Generated by Buildcell
#
# at 07:55:22 (GMT+1.0) 4th August 2020
# in /lustre/scratch/uccabz1/launch_tmp
# on node-c12n-019
# by uccabz1
#
# compiler GCC version 4.9.2
# options -cpp -iprefix /lustre/shared/ucl/apps/gcc/4.9.2/bin/../lib/gcc/x86_64-unknown-linux-gnu/4.9.2/ -mtune=corei7 -march=x86-64 -g -Og
#
# seed  2087990787 -2128336348  -334536792  -779196511 -2099460721  -444308727 -2025953282   100959641 -1575965165 -1036011317   998899553  -258581510
#
#      Author: C. J. Pickard (cjp20@cam.ac.uk)
#                Space group: C2
#

%BLOCK LATTICE_ABC
      7.36626      7.36626      8.59690
    101.77695    101.77695    112.72442
%ENDBLOCK LATTICE_ABC

%BLOCK POSITIONS_FRAC
  Li   0.0987263   0.4288205   0.0062441 SPIN=   0.00000
  Li  -0.4288205  -0.0987263  -0.0062441 SPIN=   0.00000
  Li  -0.1719804   0.4461243   0.3566190 SPIN=   0.00000
  Li  -0.4461243   0.1719804  -0.3566190 SPIN=   0.00000
  Fe  -0.2144233  -0.3829200  -0.0483275 SPIN=   3.65968
  Fe   0.3829200   0.2144233   0.0483275 SPIN=   3.65968
  Fe   0.1073473  -0.2509300  -0.3211642 SPIN=   4.34032
  Fe   0.2509300  -0.1073473   0.3211642 SPIN=   4.34032
   O  -0.0111134   0.1673405   0.4057268 SPIN=   0.00000
   O   0.0586105   0.0347103   0.1472057 SPIN=   0.00000
   O   0.2214022   0.4120561   0.2930865 SPIN=   0.00000
   O  -0.1555520   0.2237932   0.1437032 SPIN=   0.00000
   S   0.0283368   0.2094750   0.2474306 SPIN=   0.00000
   O  -0.1673405   0.0111134  -0.4057268 SPIN=   0.00000
   O  -0.0347103  -0.0586105  -0.1472057 SPIN=   0.00000
   O  -0.4120561  -0.2214022  -0.2930865 SPIN=   0.00000
   O  -0.2237932   0.1555520  -0.1437032 SPIN=   0.00000
   S  -0.2094750  -0.0283368  -0.2474306 SPIN=   0.00000
   O  -0.2547327  -0.3200695   0.4112835 SPIN=   0.00000
   O  -0.5008633  -0.1701729   0.3590117 SPIN=   0.00000
   O  -0.5457118  -0.4800564   0.1465514 SPIN=   0.00000
   O  -0.2531211  -0.1389290   0.1983570 SPIN=   0.00000
   S  -0.3886072  -0.2773069   0.2788009 SPIN=   0.00000
   O   0.3200695   0.2547327  -0.4112835 SPIN=   0.00000
   O   0.1701729   0.5008633  -0.3590117 SPIN=   0.00000
   O   0.4800564   0.5457118  -0.1465514 SPIN=   0.00000
   O   0.1389290   0.2531211  -0.1983570 SPIN=   0.00000
   S   0.2773069   0.3886072  -0.2788009 SPIN=   0.00000
   F   0.0199103  -0.3437580   0.1498710 SPIN=   0.00000
   F   0.3437580  -0.0199103  -0.1498710 SPIN=   0.00000
   F  -0.4635594   0.2147347   0.2848563 SPIN=   0.00000
   F  -0.2147347   0.4635594  -0.2848563 SPIN=   0.00000
%ENDBLOCK POSITIONS_FRAC

# Note: total spin =  16.00

KPOINTS_MP_SPACING 0.07

%BLOCK SPECIES_POT
QC5
%ENDBLOCK SPECIES_POT

SNAP_TO_SYMMETRY
SYMMETRY_GENERATE

