#              Generated by Buildcell
#
# at 10:16:16 (GMT+1.0) 4th August 2020
# in /lustre/scratch/uccabz1/launch_tmp
# on node-c12j-007
# by uccabz1
#
# compiler GCC version 4.9.2
# options -cpp -iprefix /lustre/shared/ucl/apps/gcc/4.9.2/bin/../lib/gcc/x86_64-unknown-linux-gnu/4.9.2/ -mtune=corei7 -march=x86-64 -g -Og
#
# seed -1750482700  1638617793  -524607647   -12761844 -1529014787  -215569785 -1667630255   689549895   158312593  1410595805  -933429642  -467767273
#
#      Author: C. J. Pickard (cjp20@cam.ac.uk)
#                Space group: C2/c
#

%BLOCK LATTICE_ABC
      7.09351      7.81321      8.97544
     64.19847     78.71072     63.27137
%ENDBLOCK LATTICE_ABC

%BLOCK POSITIONS_FRAC
  Li   0.4621581  -0.4269715   0.2070410 SPIN=   0.00000
  Li   0.0378419   0.2199305   0.2070410 SPIN=   0.00000
  Li  -0.4621581   0.4269715  -0.2070410 SPIN=   0.00000
  Li  -0.0378419  -0.2199305  -0.2070410 SPIN=   0.00000
  Fe   0.4809855   0.2548257  -0.4332292 SPIN=   4.00000
  Fe   0.0190145   0.1784035  -0.4332292 SPIN=   4.00000
  Fe  -0.4809855  -0.2548257   0.4332292 SPIN=   4.00000
  Fe  -0.0190145  -0.1784035   0.4332292 SPIN=   4.00000
   O  -0.4323995   0.1116032   0.0908773 SPIN=   0.00000
   O  -0.4118428   0.2620498   0.2763028 SPIN=   0.00000
   O  -0.3234324   0.4043330  -0.0206150 SPIN=   0.00000
   O  -0.0846094   0.0535546   0.1659865 SPIN=   0.00000
   S  -0.3130710   0.2078852   0.1281379 SPIN=   0.00000
   O  -0.0676005  -0.2024805   0.0908773 SPIN=   0.00000
   O  -0.0881572  -0.5383526   0.2763028 SPIN=   0.00000
   O  -0.1765676  -0.3837181  -0.0206150 SPIN=   0.00000
   O  -0.4153906  -0.2195411   0.1659865 SPIN=   0.00000
   S  -0.1869290  -0.3360230   0.1281379 SPIN=   0.00000
   O   0.4323995  -0.1116032  -0.0908773 SPIN=   0.00000
   O   0.4118428  -0.2620498  -0.2763028 SPIN=   0.00000
   O   0.3234324  -0.4043330   0.0206150 SPIN=   0.00000
   O   0.0846094  -0.0535546  -0.1659865 SPIN=   0.00000
   S   0.3130710  -0.2078852  -0.1281379 SPIN=   0.00000
   O   0.0676005   0.2024805  -0.0908773 SPIN=   0.00000
   O   0.0881572   0.5383526  -0.2763028 SPIN=   0.00000
   O   0.1765676   0.3837181   0.0206150 SPIN=   0.00000
   O   0.4153906   0.2195411  -0.1659865 SPIN=   0.00000
   S   0.1869290   0.3360230  -0.1281379 SPIN=   0.00000
   F  -0.2512479  -0.0497934  -0.3985381 SPIN=   0.00000
   F  -0.2487521   0.4483314  -0.3985381 SPIN=   0.00000
   F   0.2512479   0.0497934   0.3985381 SPIN=   0.00000
   F   0.2487521  -0.4483314   0.3985381 SPIN=   0.00000
%ENDBLOCK POSITIONS_FRAC

# Note: total spin =  16.00

KPOINTS_MP_SPACING 0.07

%BLOCK SPECIES_POT
QC5
%ENDBLOCK SPECIES_POT

SNAP_TO_SYMMETRY
SYMMETRY_GENERATE

