#              Generated by Buildcell
#
# at 08:32:01 (GMT+1.0) 4th August 2020
# in /lustre/scratch/uccabz1/launch_tmp
# on node-c12p-029
# by uccabz1
#
# compiler GCC version 4.9.2
# options -cpp -iprefix /lustre/shared/ucl/apps/gcc/4.9.2/bin/../lib/gcc/x86_64-unknown-linux-gnu/4.9.2/ -mtune=corei7 -march=x86-64 -g -Og
#
# seed  2096859425  1960435643  -674456596  1535197722  -716309587  1620816824  1984786714 -1172402444   579002560   986006733 -1038202100   981182189
#
#      Author: C. J. Pickard (cjp20@cam.ac.uk)
#                Space group: Cc
#

%BLOCK LATTICE_ABC
      6.26000      7.69864      9.20634
    105.52445    109.87583     90.00000
%ENDBLOCK LATTICE_ABC

%BLOCK POSITIONS_FRAC
  Li  -0.3746674   0.3558705  -0.3685824 SPIN=   0.00000
  Li   0.0060850  -0.1441295  -0.3685824 SPIN=   0.00000
  Li  -0.2235907  -0.2228048  -0.0596291 SPIN=   0.00000
  Li   0.1639616   0.2771952  -0.0596291 SPIN=   0.00000
  Fe   0.2360710   0.1976113   0.3397154 SPIN=   1.01321
  Fe   0.1036444  -0.3023887   0.3397154 SPIN=   1.01321
  Fe  -0.2681888   0.3053930   0.0580727 SPIN=   6.98679
  Fe   0.3262615  -0.1946070   0.0580727 SPIN=   6.98679
   O  -0.3679804   0.0274403   0.1966069 SPIN=   0.00000
   O  -0.4141407   0.1131905   0.4624435 SPIN=   0.00000
   O  -0.0570814   0.2149570   0.4367299 SPIN=   0.00000
   O  -0.1439053  -0.1083374   0.4093763 SPIN=   0.00000
   S  -0.2457769   0.0618126   0.3762892 SPIN=   0.00000
   O  -0.4354128  -0.4725597   0.1966069 SPIN=   0.00000
   O  -0.1234158  -0.3868095   0.4624435 SPIN=   0.00000
   O  -0.5061887  -0.2850430   0.4367299 SPIN=   0.00000
   O  -0.4467184  -0.6083374   0.4093763 SPIN=   0.00000
   S  -0.3779339  -0.4381874   0.3762892 SPIN=   0.00000
   O   0.2650900  -0.0473350  -0.4714137 SPIN=   0.00000
   O   0.6125704   0.1470915  -0.2744691 SPIN=   0.00000
   O   0.3377804   0.0223957  -0.1792468 SPIN=   0.00000
   O   0.2335459   0.2622907  -0.3166080 SPIN=   0.00000
   S   0.3622467   0.0961108  -0.3104344 SPIN=   0.00000
   O   0.2634963  -0.5473350  -0.4714137 SPIN=   0.00000
   O   0.1129606  -0.3529085  -0.2744691 SPIN=   0.00000
   O   0.4829728  -0.4776043  -0.1792468 SPIN=   0.00000
   O   0.4498461  -0.2377093  -0.3166080 SPIN=   0.00000
   S   0.3273189  -0.4038892  -0.3104344 SPIN=   0.00000
   F  -0.0963252   0.4695537  -0.1584178 SPIN=   0.00000
   F  -0.0620927  -0.0304463  -0.1584178 SPIN=   0.00000
   F   0.0451577   0.3396636   0.2234791 SPIN=   0.00000
   F   0.1783214  -0.1603364   0.2234791 SPIN=   0.00000
%ENDBLOCK POSITIONS_FRAC

# Note: total spin =  16.00

KPOINTS_MP_SPACING 0.07

%BLOCK SPECIES_POT
QC5
%ENDBLOCK SPECIES_POT

SNAP_TO_SYMMETRY
SYMMETRY_GENERATE

