#              Generated by Buildcell
#
# at 22:52:41 (GMT+1.0) 17th August 2020
# in /scratch/scratch/uccabz1/launch_tmp
# on node-k10h-017
# by uccabz1
#
# compiler GCC version 4.9.2
# options -cpp -iprefix /scratch/UCL/applications/gcc/4.9.2/bin/../lib/gcc/x86_64-unknown-linux-gnu/4.9.2/ -mtune=corei7 -march=x86-64 -g -O2
#
# seed -1448699737 -1757034488  -139559626   -18875956  -107841935  -112577711   815553135   906507184   726275232  -607728975  -235745148  1648856402
#
#      Author: C. J. Pickard (cjp20@cam.ac.uk)
#                Space group: Pba2
#

%BLOCK LATTICE_ABC
      5.25259      5.50193     13.84114
     90.00000     90.00000     90.00000
%ENDBLOCK LATTICE_ABC

%BLOCK POSITIONS_FRAC
  Li   0.3227211   0.2129764   0.1067509 SPIN=   0.00000
  Li   0.3227211  -0.2129764  -0.1067509 SPIN=   0.00000
  Li   0.3227211   0.2870236  -0.3932491 SPIN=   0.00000
  Li   0.3227211  -0.2870236   0.3932491 SPIN=   0.00000
  Fe   0.4729133   0.2116399   0.3437742 SPIN=   4.00000
  Fe   0.4729133  -0.2116399  -0.3437742 SPIN=   4.00000
  Fe   0.4729133   0.2883601  -0.1562258 SPIN=   4.00000
  Fe   0.4729133  -0.2883601   0.1562258 SPIN=   4.00000
   O   0.0653804   0.2096670   0.2115660 SPIN=   0.00000
   O  -0.2546769  -0.0350684   0.1235030 SPIN=   0.00000
   O  -0.1313861   0.3708221   0.0622610 SPIN=   0.00000
   O  -0.3870931   0.3351298   0.2117724 SPIN=   0.00000
   S  -0.1769439   0.2201376   0.1522756 SPIN=   0.00000
   O   0.0653804  -0.2096670  -0.2115660 SPIN=   0.00000
   O  -0.2546769   0.0350684  -0.1235030 SPIN=   0.00000
   O  -0.1313861  -0.3708221  -0.0622610 SPIN=   0.00000
   O  -0.3870931  -0.3351298  -0.2117724 SPIN=   0.00000
   S  -0.1769439  -0.2201376  -0.1522756 SPIN=   0.00000
   O   0.0653804   0.2903330  -0.2884340 SPIN=   0.00000
   O  -0.2546769   0.5350684  -0.3764970 SPIN=   0.00000
   O  -0.1313861   0.1291779  -0.4377390 SPIN=   0.00000
   O  -0.3870931   0.1648702  -0.2882276 SPIN=   0.00000
   S  -0.1769439   0.2798624  -0.3477244 SPIN=   0.00000
   O   0.0653804  -0.2903330   0.2884340 SPIN=   0.00000
   O  -0.2546769  -0.5350684   0.3764970 SPIN=   0.00000
   O  -0.1313861  -0.1291779   0.4377390 SPIN=   0.00000
   O  -0.3870931  -0.1648702   0.2882276 SPIN=   0.00000
   S  -0.1769439  -0.2798624   0.3477244 SPIN=   0.00000
   F   0.1854344  -0.2474245  -0.4190397 SPIN=   0.00000
   F   0.1854344   0.2474245   0.4190397 SPIN=   0.00000
   F   0.1854344  -0.2525755   0.0809603 SPIN=   0.00000
   F   0.1854344   0.2525755  -0.0809603 SPIN=   0.00000
%ENDBLOCK POSITIONS_FRAC

# Note: total spin =  16.00

KPOINTS_MP_SPACING 0.07

%BLOCK SPECIES_POT
QC5
%ENDBLOCK SPECIES_POT

SNAP_TO_SYMMETRY
SYMMETRY_GENERATE

