#              Generated by Buildcell
#
# at 16:40:19 (GMT+1.0) 18th August 2020
# in /lustre/scratch/uccabz1/launch_tmp
# on node-c12c-028
# by uccabz1
#
# compiler GCC version 4.9.2
# options -cpp -iprefix /lustre/shared/ucl/apps/gcc/4.9.2/bin/../lib/gcc/x86_64-unknown-linux-gnu/4.9.2/ -mtune=corei7 -march=x86-64 -g -Og
#
# seed  1805643008  -845894456  1391050676  1810301028  -845229875 -1309215408 -2012899680  -803435898   227805816   787119115  -545047121 -2085417530
#
#      Author: C. J. Pickard (cjp20@cam.ac.uk)
#                Space group: P-1
#

%BLOCK LATTICE_ABC
      6.25348      6.29011     11.13866
     95.24969    101.68261    108.91952
%ENDBLOCK LATTICE_ABC

%BLOCK POSITIONS_FRAC
  Li   0.3534200   0.1871943  -0.0960262 SPIN=   0.00000
  Li  -0.3534200  -0.1871943   0.0960262 SPIN=   0.00000
  Li  -0.2409163  -0.3260025  -0.2348393 SPIN=   0.00000
  Li   0.2409163   0.3260025   0.2348393 SPIN=   0.00000
  Fe  -0.0632844   0.2138185   0.4147820 SPIN=   5.08116
  Fe   0.0632844  -0.2138185  -0.4147820 SPIN=   5.08116
  Fe  -0.0398082   0.2999874  -0.2508915 SPIN=   2.91884
  Fe   0.0398082  -0.2999874   0.2508915 SPIN=   2.91884
   O   0.2057374   0.1276283  -0.4559733 SPIN=   0.00000
   O   0.6287894   0.2243914  -0.4375997 SPIN=   0.00000
   O   0.4843657   0.2704902  -0.2492910 SPIN=   0.00000
   O   0.4698290   0.5308759  -0.4019296 SPIN=   0.00000
   S   0.4471803   0.2883464  -0.3861984 SPIN=   0.00000
   O  -0.2057374  -0.1276283   0.4559733 SPIN=   0.00000
   O  -0.6287894  -0.2243914   0.4375997 SPIN=   0.00000
   O  -0.4843657  -0.2704902   0.2492910 SPIN=   0.00000
   O  -0.4698290  -0.5308759   0.4019296 SPIN=   0.00000
   S  -0.4471803  -0.2883464   0.3861984 SPIN=   0.00000
   O   0.3947384  -0.1259412  -0.2791358 SPIN=   0.00000
   O   0.6725145  -0.1241826  -0.0857584 SPIN=   0.00000
   O   0.3300473  -0.4721924  -0.1816681 SPIN=   0.00000
   O   0.2761608  -0.1329121  -0.0801814 SPIN=   0.00000
   S   0.4183652  -0.2138071  -0.1566859 SPIN=   0.00000
   O  -0.3947384   0.1259412   0.2791358 SPIN=   0.00000
   O  -0.6725145   0.1241826   0.0857584 SPIN=   0.00000
   O  -0.3300473   0.4721924   0.1816681 SPIN=   0.00000
   O  -0.2761608   0.1329121   0.0801814 SPIN=   0.00000
   S  -0.4183652   0.2138071   0.1566859 SPIN=   0.00000
   F  -0.0963240  -0.0416069  -0.2906003 SPIN=   0.00000
   F   0.0963240   0.0416069   0.2906003 SPIN=   0.00000
   F  -0.0000000  -0.5000000  -0.0000000 SPIN=   0.00000
   F   0.0000000   0.5000000   0.5000000 SPIN=   0.00000
%ENDBLOCK POSITIONS_FRAC

# Note: total spin =  16.00

KPOINTS_MP_SPACING 0.07

%BLOCK SPECIES_POT
QC5
%ENDBLOCK SPECIES_POT

SNAP_TO_SYMMETRY
SYMMETRY_GENERATE

