#              Generated by Buildcell
#
# at 06:54:23 (GMT+1.0) 4th August 2020
# in /lustre/scratch/uccabz1/launch_tmp
# on node-c12l-020
# by uccabz1
#
# compiler GCC version 4.9.2
# options -cpp -iprefix /lustre/shared/ucl/apps/gcc/4.9.2/bin/../lib/gcc/x86_64-unknown-linux-gnu/4.9.2/ -mtune=corei7 -march=x86-64 -g -Og
#
# seed  2090945584  -265616707  1567148172   278097261  -309061203 -1642183642 -2066603943  1393895324 -1176911070  1991770037   880903277  -392349319
#
#      Author: C. J. Pickard (cjp20@cam.ac.uk)
#                Space group: C2/m
#

%BLOCK LATTICE_ABC
      7.19325      7.19325      7.87769
     88.06897     88.06897     79.19176
%ENDBLOCK LATTICE_ABC

%BLOCK POSITIONS_FRAC
  Li   0.0191165   0.0191165  -0.2513155 SPIN=   0.00000
  Li  -0.0191165  -0.0191165   0.2513155 SPIN=   0.00000
  Li   0.5000000  -0.5000000   0.5000000 SPIN=   0.00000
  Li   0.5000000  -0.5000000   0.0000000 SPIN=   0.00000
  Fe   0.2466254   0.2466254  -0.0812453 SPIN=   3.86429
  Fe  -0.2466254  -0.2466254   0.0812453 SPIN=   3.86429
  Fe   0.1972964   0.1972964   0.4477359 SPIN=   4.13571
  Fe  -0.1972964  -0.1972964  -0.4477359 SPIN=   4.13571
   O   0.5136819  -0.1437364  -0.4107080 SPIN=   0.00000
   O   0.2271565  -0.2830975  -0.3559012 SPIN=   0.00000
   O   0.2875598  -0.0249171  -0.1778265 SPIN=   0.00000
   S   0.3790466  -0.1988822  -0.2741977 SPIN=   0.00000
   O   0.1437364  -0.5136819   0.4107080 SPIN=   0.00000
   O   0.2830975  -0.2271565   0.3559012 SPIN=   0.00000
   O   0.0249171  -0.2875598   0.1778265 SPIN=   0.00000
   S   0.1988822  -0.3790466   0.2741977 SPIN=   0.00000
   O  -0.5136819   0.1437364   0.4107080 SPIN=   0.00000
   O  -0.2271565   0.2830975   0.3559012 SPIN=   0.00000
   O  -0.2875598   0.0249171   0.1778265 SPIN=   0.00000
   S  -0.3790466   0.1988822   0.2741977 SPIN=   0.00000
   O  -0.1437364   0.5136819  -0.4107080 SPIN=   0.00000
   O  -0.2830975   0.2271565  -0.3559012 SPIN=   0.00000
   O  -0.0249171   0.2875598  -0.1778265 SPIN=   0.00000
   S  -0.1988822   0.3790466  -0.2741977 SPIN=   0.00000
   O  -0.4063740  -0.4063740  -0.2206745 SPIN=   0.00000
   O   0.4063740   0.4063740   0.2206745 SPIN=   0.00000
   O   0.2834935  -0.2834935   0.0000000 SPIN=   0.00000
   O  -0.2834935   0.2834935  -0.0000000 SPIN=   0.00000
   F  -0.1576898  -0.1576898  -0.1491165 SPIN=   0.00000
   F   0.1576898   0.1576898   0.1491165 SPIN=   0.00000
   F  -0.3199508  -0.3199508   0.3220276 SPIN=   0.00000
   F   0.3199508   0.3199508  -0.3220276 SPIN=   0.00000
%ENDBLOCK POSITIONS_FRAC

# Note: total spin =  16.00

KPOINTS_MP_SPACING 0.07

%BLOCK SPECIES_POT
QC5
%ENDBLOCK SPECIES_POT

SNAP_TO_SYMMETRY
SYMMETRY_GENERATE

