#              Generated by Buildcell
#
# at 16:25:11 (GMT+1.0) 18th August 2020
# in /scratch/scratch/uccabz1/launch_tmp
# on node-k10b-003
# by uccabz1
#
# compiler GCC version 4.9.2
# options -cpp -iprefix /scratch/UCL/applications/gcc/4.9.2/bin/../lib/gcc/x86_64-unknown-linux-gnu/4.9.2/ -mtune=corei7 -march=x86-64 -g -O2
#
# seed  -681916422 -1686293618  -109427326  1586170143    56084246  -726769573 -1707892220 -1764017867 -1357460006 -1747874230  2061868389 -1784884445
#
#      Author: C. J. Pickard (cjp20@cam.ac.uk)
#                Space group: P-1
#

%BLOCK LATTICE_ABC
      4.12847      8.34839     12.17142
     78.83194     89.13694     76.50852
%ENDBLOCK LATTICE_ABC

%BLOCK POSITIONS_FRAC
  Li   0.3601489   0.0243865   0.2461222 SPIN=   0.00000
  Li  -0.3601489  -0.0243865  -0.2461222 SPIN=   0.00000
  Li   0.9305816  -0.4834448  -0.2831291 SPIN=   0.00000
  Li  -0.9305816   0.4834448   0.2831291 SPIN=   0.00000
  Fe  -0.3658414   0.3605125   0.1313404 SPIN=   3.19836
  Fe   0.3658414  -0.3605125  -0.1313404 SPIN=   3.19836
  Fe  -0.3226637   0.1631625   0.4216508 SPIN=   4.80164
  Fe   0.3226637  -0.1631625  -0.4216508 SPIN=   4.80164
   O   0.4381326   0.1194900  -0.4254409 SPIN=   0.00000
   O  -0.0510449   0.3591862  -0.4741113 SPIN=   0.00000
   O   0.2560624   0.3114068  -0.2931635 SPIN=   0.00000
   O  -0.0866344   0.1167128  -0.3248748 SPIN=   0.00000
   S   0.1391289   0.2266989  -0.3793976 SPIN=   0.00000
   O  -0.4381326  -0.1194900   0.4254409 SPIN=   0.00000
   O   0.0510449  -0.3591862   0.4741113 SPIN=   0.00000
   O  -0.2560624  -0.3114068   0.2931635 SPIN=   0.00000
   O   0.0866344  -0.1167128   0.3248748 SPIN=   0.00000
   S  -0.1391289  -0.2266989   0.3793976 SPIN=   0.00000
   O  -0.1462625   0.1390464  -0.0136747 SPIN=   0.00000
   O  -0.6633973   0.3617103  -0.0624639 SPIN=   0.00000
   O  -0.5812274   0.0998724  -0.1368669 SPIN=   0.00000
   O  -0.2452914   0.3062162  -0.2066594 SPIN=   0.00000
   S  -0.4090447   0.2267113  -0.1049162 SPIN=   0.00000
   O   0.1462625  -0.1390464   0.0136747 SPIN=   0.00000
   O   0.6633973  -0.3617103   0.0624639 SPIN=   0.00000
   O   0.5812274  -0.0998724   0.1368669 SPIN=   0.00000
   O   0.2452914  -0.3062162   0.2066594 SPIN=   0.00000
   S   0.4090447  -0.2267113   0.1049162 SPIN=   0.00000
   F  -0.4721100   0.4200172   0.3547994 SPIN=   0.00000
   F   0.4721100  -0.4200172  -0.3547994 SPIN=   0.00000
   F  -0.1302269  -0.2237759  -0.1478907 SPIN=   0.00000
   F   0.1302269   0.2237759   0.1478907 SPIN=   0.00000
%ENDBLOCK POSITIONS_FRAC

# Note: total spin =  16.00

KPOINTS_MP_SPACING 0.07

%BLOCK SPECIES_POT
QC5
%ENDBLOCK SPECIES_POT

SNAP_TO_SYMMETRY
SYMMETRY_GENERATE

