#              Generated by Buildcell
#
# at 10:26:15 (GMT+1.0) 4th August 2020
# in /lustre/scratch/uccabz1/launch_tmp
# on node-c12f-022
# by uccabz1
#
# compiler GCC version 4.9.2
# options -cpp -iprefix /lustre/shared/ucl/apps/gcc/4.9.2/bin/../lib/gcc/x86_64-unknown-linux-gnu/4.9.2/ -mtune=corei7 -march=x86-64 -g -Og
#
# seed   371990442 -1285278893 -1187578380     6457858 -1766043841  -975596720   967109673  1601742249  -560535765  1172552301  1454985290   -72995057
#
#      Author: C. J. Pickard (cjp20@cam.ac.uk)
#                Space group: Cm
#

%BLOCK LATTICE_ABC
      7.42761      7.64297      8.82840
     78.57716     65.94704     60.92782
%ENDBLOCK LATTICE_ABC

%BLOCK POSITIONS_FRAC
  Li   0.1905853  -0.6443084  -0.0138788 SPIN=   0.00000
  Li  -0.4537230   0.6443084  -0.0138788 SPIN=   0.00000
  Li  -0.3385982   0.2684955  -0.3842585 SPIN=   0.00000
  Li  -0.0701027  -0.2684955  -0.3842585 SPIN=   0.00000
  Fe   0.1075080  -0.2705113   0.2474357 SPIN=   3.53049
  Fe  -0.1630033   0.2705113   0.2474357 SPIN=   3.53049
  Fe   0.3544342  -0.0000000   0.3180153 SPIN=   4.14415
  Fe   0.4462065   0.0000000  -0.3074919 SPIN=   4.79487
   O  -0.4168574  -0.1709358   0.0980438 SPIN=   0.00000
   O  -0.0721670  -0.1714200   0.0724235 SPIN=   0.00000
   O  -0.0677410  -0.3536381  -0.1326725 SPIN=   0.00000
   O  -0.1173774  -0.4808258   0.1546634 SPIN=   0.00000
   S  -0.1685357  -0.2942049   0.0481145 SPIN=   0.00000
   O  -0.5877932   0.1709358   0.0980438 SPIN=   0.00000
   O  -0.2435870   0.1714200   0.0724235 SPIN=   0.00000
   O  -0.4213791   0.3536381  -0.1326725 SPIN=   0.00000
   O  -0.5982031   0.4808258   0.1546634 SPIN=   0.00000
   S  -0.4627406   0.2942049   0.0481145 SPIN=   0.00000
   O  -0.0864066   0.2739285  -0.3440364 SPIN=   0.00000
   O   0.0152204   0.3185282  -0.6480310 SPIN=   0.00000
   O   0.1342051   0.4566090  -0.4961688 SPIN=   0.00000
   S  -0.0493158   0.4145528  -0.4873509 SPIN=   0.00000
   O   0.1875219  -0.2739285  -0.3440364 SPIN=   0.00000
   O   0.3337486  -0.3185282  -0.6480310 SPIN=   0.00000
   O   0.5908142  -0.4566090  -0.4961688 SPIN=   0.00000
   S   0.3652371  -0.4145528  -0.4873509 SPIN=   0.00000
   O  -0.1104621   0.0000000   0.4088628 SPIN=   0.00000
   O  -0.0085302   0.0000000  -0.1719639 SPIN=   0.00000
   F   0.3590819  -0.2646964  -0.1490310 SPIN=   0.00000
   F   0.0943855   0.2646964  -0.1490310 SPIN=   0.00000
   F  -0.2721486   0.0000000  -0.2804421 SPIN=   0.00000
   F  -0.4407969   0.0000000   0.3923526 SPIN=   0.00000
%ENDBLOCK POSITIONS_FRAC

# Note: total spin =  16.00

KPOINTS_MP_SPACING 0.07

%BLOCK SPECIES_POT
QC5
%ENDBLOCK SPECIES_POT

SNAP_TO_SYMMETRY
SYMMETRY_GENERATE

