#              Generated by Buildcell
#
# at 10:03:05 (GMT+1.0) 18th August 2020
# in /lustre/scratch/uccabz1/launch_tmp
# on node-c12g-033
# by uccabz1
#
# compiler GCC version 4.9.2
# options -cpp -iprefix /lustre/shared/ucl/apps/gcc/4.9.2/bin/../lib/gcc/x86_64-unknown-linux-gnu/4.9.2/ -mtune=corei7 -march=x86-64 -g -Og
#
# seed  1420437160  -750273174  1014165930  -167728377  -238645534 -1784105396  -603899910  -491321050  1995835355  1914495783 -1645676768  -870415734
#
#      Author: C. J. Pickard (cjp20@cam.ac.uk)
#                Space group: Pc
#

%BLOCK LATTICE_ABC
      5.33068      8.75662      9.59926
    116.78607     90.00000     90.00000
%ENDBLOCK LATTICE_ABC

%BLOCK POSITIONS_FRAC
  Li  -0.3002075   0.0583337   0.2587085 SPIN=   0.00000
  Li   0.3002075   0.0583337  -0.2412915 SPIN=   0.00000
  Li   0.1326189   0.4690333   0.4340506 SPIN=   0.00000
  Li  -0.1326189  -0.5309667  -0.0659494 SPIN=   0.00000
  Fe  -0.0899187   0.2672124   0.1169014 SPIN=   4.00264
  Fe   0.0899187  -0.7327876  -0.3830986 SPIN=   4.00264
  Fe   0.0856807  -0.1828457   0.2595375 SPIN=   3.99736
  Fe  -0.0856807  -0.1828457  -0.2404625 SPIN=   3.99736
   O   0.6484617   0.4912232   0.1748367 SPIN=   0.00000
   O   0.1880577   0.5319490   0.1899887 SPIN=   0.00000
   O   0.3743242   0.2741881  -0.0241991 SPIN=   0.00000
   O   0.4294477   0.5574448  -0.0187799 SPIN=   0.00000
   S   0.4100728   0.4637013   0.0804616 SPIN=   0.00000
   O  -0.6484617  -0.5087768  -0.3251633 SPIN=   0.00000
   O  -0.1880577  -0.4680510  -0.3100113 SPIN=   0.00000
   O  -0.3743242  -0.7258119  -0.5241991 SPIN=   0.00000
   O  -0.4294477  -0.4425552  -0.5187799 SPIN=   0.00000
   S  -0.4100728  -0.5362987  -0.4195384 SPIN=   0.00000
   O  -0.6196552   1.0736851   0.5174696 SPIN=   0.00000
   O  -0.4765602   0.7816849   0.3373087 SPIN=   0.00000
   O  -0.3840380   0.9021179   0.6196550 SPIN=   0.00000
   O  -0.1676586   1.0161193   0.4581610 SPIN=   0.00000
   S  -0.4119780   0.9434018   0.4831486 SPIN=   0.00000
   O   0.6196552   0.0736851   0.0174696 SPIN=   0.00000
   O   0.4765602  -0.2183151  -0.1626913 SPIN=   0.00000
   O   0.3840380  -0.0978821   0.1196550 SPIN=   0.00000
   O   0.1676586   0.0161193  -0.0418390 SPIN=   0.00000
   S   0.4119780  -0.0565982  -0.0168514 SPIN=   0.00000
   F   0.0882056  -0.2767025  -0.4551646 SPIN=   0.00000
   F  -0.0882056  -0.2767025   0.0448354 SPIN=   0.00000
   F  -0.1160636   0.2076491  -0.1652072 SPIN=   0.00000
   F   0.1160636   0.2076491   0.3347928 SPIN=   0.00000
%ENDBLOCK POSITIONS_FRAC

# Note: total spin =  16.00

KPOINTS_MP_SPACING 0.07

%BLOCK SPECIES_POT
QC5
%ENDBLOCK SPECIES_POT

SNAP_TO_SYMMETRY
SYMMETRY_GENERATE

