#              Generated by Buildcell
#
# at 00:38:00 (GMT+1.0) 18th August 2020
# in /lustre/scratch/uccabz1/launch_tmp
# on node-c12i-003
# by uccabz1
#
# compiler GCC version 4.9.2
# options -cpp -iprefix /lustre/shared/ucl/apps/gcc/4.9.2/bin/../lib/gcc/x86_64-unknown-linux-gnu/4.9.2/ -mtune=corei7 -march=x86-64 -g -Og
#
# seed   797963165    36066151 -1322134900  -624273580   148632370 -1313101280  1220831260  -324945331   157819856  -777205128  1388846911   837664459
#
#      Author: C. J. Pickard (cjp20@cam.ac.uk)
#                Space group: Cm
#

%BLOCK LATTICE_ABC
      3.86167      8.96562     12.39250
    111.20684     90.14461     90.00000
%ENDBLOCK LATTICE_ABC

%BLOCK POSITIONS_FRAC
  Li   0.4941970   0.3913829   0.3744358 SPIN=   0.00000
  Li   0.4941970  -0.0169471   0.3744358 SPIN=   0.00000
  Li  -0.4403786  -0.2491008  -0.0044914 SPIN=   0.00000
  Li  -0.4403786   0.2446094  -0.0044914 SPIN=   0.00000
  Fe  -0.4941377   0.1406617  -0.2625252 SPIN=   5.52885
  Fe  -0.4941377  -0.4031869  -0.2625252 SPIN=   5.52885
  Fe   0.0134174  -0.0449425  -0.0898850 SPIN=   1.69839
  Fe   0.0589344   0.4796853  -0.0406294 SPIN=   3.24390
   O   0.1060833   0.3173678   0.0859294 SPIN=   0.00000
   O  -0.4285968   0.4620879   0.1740130 SPIN=   0.00000
   O   0.1073474   0.5001181   0.2908866 SPIN=   0.00000
   O  -0.2099276   0.2430791   0.2326276 SPIN=   0.00000
   S  -0.1062734   0.3806632   0.1958642 SPIN=   0.00000
   O   0.1060833  -0.2314384   0.0859294 SPIN=   0.00000
   O  -0.4285968  -0.2880749   0.1740130 SPIN=   0.00000
   O   0.1073474  -0.2092314   0.2908866 SPIN=   0.00000
   O  -0.2099276  -0.0104515   0.2326276 SPIN=   0.00000
   S  -0.1062734  -0.1847991   0.1958642 SPIN=   0.00000
   O  -0.0801442   0.1507611  -0.4444225 SPIN=   0.00000
   O  -0.3248976  -0.1229622  -0.5132446 SPIN=   0.00000
   O   0.1573333  -0.0516529  -0.3717164 SPIN=   0.00000
   S   0.0035910  -0.0250495  -0.4759485 SPIN=   0.00000
   O  -0.0801442  -0.5951837  -0.4444225 SPIN=   0.00000
   O  -0.3248976  -0.3902824  -0.5132446 SPIN=   0.00000
   O   0.1573333  -0.3200635  -0.3717164 SPIN=   0.00000
   S   0.0035910  -0.4508990  -0.4759485 SPIN=   0.00000
   O   0.4044281  -0.1107870  -0.2215741 SPIN=   0.00000
   O   0.1792154  -0.2731085   0.4537829 SPIN=   0.00000
   F  -0.0747378  -0.3040602  -0.1503020 SPIN=   0.00000
   F  -0.0747378   0.1537582  -0.1503020 SPIN=   0.00000
   F   0.4222846   0.0156210   0.0312420 SPIN=   0.00000
   F   0.4229026   0.3530755  -0.2938490 SPIN=   0.00000
%ENDBLOCK POSITIONS_FRAC

# Note: total spin =  16.00

KPOINTS_MP_SPACING 0.07

%BLOCK SPECIES_POT
QC5
%ENDBLOCK SPECIES_POT

SNAP_TO_SYMMETRY
SYMMETRY_GENERATE

