#              Generated by Buildcell
#
# at 06:31:12 (GMT+1.0) 4th August 2020
# in /lustre/scratch/uccabz1/launch_tmp
# on node-c12j-013
# by uccabz1
#
# compiler GCC version 4.9.2
# options -cpp -iprefix /lustre/shared/ucl/apps/gcc/4.9.2/bin/../lib/gcc/x86_64-unknown-linux-gnu/4.9.2/ -mtune=corei7 -march=x86-64 -g -Og
#
# seed  1488795827   235935926  1167812480   816026900  1206161380  1496058372  -532832559  -550244606  1972228609  1450335606  1020767073 -1756116655
#
#      Author: C. J. Pickard (cjp20@cam.ac.uk)
#                Space group: Pca21
#

%BLOCK LATTICE_ABC
      4.22176      7.69409     12.31429
     90.00000     90.00000     90.00000
%ENDBLOCK LATTICE_ABC

%BLOCK POSITIONS_FRAC
  Li   0.4349084  -0.4960388  -0.3879210 SPIN=   0.00000
  Li  -0.4349084   0.0039612   0.3879210 SPIN=   0.00000
  Li  -0.4349084  -0.4960388   0.1120790 SPIN=   0.00000
  Li   0.4349084   0.0039612  -0.1120790 SPIN=   0.00000
  Fe   0.0560668   0.3038421   0.2432648 SPIN=   4.00000
  Fe  -0.0560668  -0.1961579  -0.2432648 SPIN=   4.00000
  Fe  -0.0560668   0.3038421  -0.2567352 SPIN=   4.00000
  Fe   0.0560668  -0.1961579   0.2567352 SPIN=   4.00000
   O   0.3344400  -0.5683402  -0.0181742 SPIN=   0.00000
   O   0.3095990  -0.2835211  -0.1111781 SPIN=   0.00000
   O   0.4556439  -0.5476418  -0.2143817 SPIN=   0.00000
   O   0.8278839  -0.4249394  -0.0793719 SPIN=   0.00000
   S   0.4818917  -0.4561106  -0.1057765 SPIN=   0.00000
   O  -0.3344400  -0.0683402   0.0181742 SPIN=   0.00000
   O  -0.3095990   0.2164789   0.1111781 SPIN=   0.00000
   O  -0.4556439  -0.0476418   0.2143817 SPIN=   0.00000
   O  -0.8278839   0.0750606   0.0793719 SPIN=   0.00000
   S  -0.4818917   0.0438894   0.1057765 SPIN=   0.00000
   O  -0.3344400  -0.5683402   0.4818258 SPIN=   0.00000
   O  -0.3095990  -0.2835211   0.3888219 SPIN=   0.00000
   O  -0.4556439  -0.5476418   0.2856183 SPIN=   0.00000
   O  -0.8278839  -0.4249394   0.4206281 SPIN=   0.00000
   S  -0.4818917  -0.4561106   0.3942235 SPIN=   0.00000
   O   0.3344400  -0.0683402  -0.4818258 SPIN=   0.00000
   O   0.3095990   0.2164789  -0.3888219 SPIN=   0.00000
   O   0.4556439  -0.0476418  -0.2856183 SPIN=   0.00000
   O   0.8278839   0.0750606  -0.4206281 SPIN=   0.00000
   S   0.4818917   0.0438894  -0.3942235 SPIN=   0.00000
   F  -0.0156191   0.1323480   0.3593151 SPIN=   0.00000
   F   0.0156191  -0.3676520  -0.3593151 SPIN=   0.00000
   F   0.0156191   0.1323480  -0.1406849 SPIN=   0.00000
   F  -0.0156191  -0.3676520   0.1406849 SPIN=   0.00000
%ENDBLOCK POSITIONS_FRAC

# Note: total spin =  16.00

KPOINTS_MP_SPACING 0.07

%BLOCK SPECIES_POT
QC5
%ENDBLOCK SPECIES_POT

SNAP_TO_SYMMETRY
SYMMETRY_GENERATE

