#              Generated by Buildcell
#
# at 13:37:14 (GMT+1.0) 18th August 2020
# in /lustre/scratch/uccabz1/launch_tmp
# on node-c12a-021
# by uccabz1
#
# compiler GCC version 4.9.2
# options -cpp -iprefix /lustre/shared/ucl/apps/gcc/4.9.2/bin/../lib/gcc/x86_64-unknown-linux-gnu/4.9.2/ -mtune=corei7 -march=x86-64 -g -Og
#
# seed  -622622090  -543655455   864816257 -1359958697 -1593694702  2015227214  1463767477   421385009  2004905198 -1752324728  1488878264  2115209715
#
#      Author: C. J. Pickard (cjp20@cam.ac.uk)
#                Space group: P42
#

%BLOCK LATTICE_ABC
      7.30918      7.30918      7.48725
     90.00000     90.00000     90.00000
%ENDBLOCK LATTICE_ABC

%BLOCK POSITIONS_FRAC
  Li  -0.0969664  -0.2361834  -0.0145386 SPIN=   0.00000
  Li   0.0969664   0.2361834  -0.0145386 SPIN=   0.00000
  Li   0.2361834  -0.0969664   0.4854614 SPIN=   0.00000
  Li  -0.2361834   0.0969664   0.4854614 SPIN=   0.00000
  Fe  -0.5000000  -0.5000000   0.0189003 SPIN=   4.16037
  Fe  -0.5000000  -0.5000000  -0.4810997 SPIN=   4.16037
  Fe  -0.5000000   0.0000000  -0.1183354 SPIN=   3.83963
  Fe   0.0000000   0.5000000   0.3816646 SPIN=   3.83963
   O   0.1582753  -0.4676106  -0.3718692 SPIN=   0.00000
   O   0.0813200  -0.1506847  -0.2830157 SPIN=   0.00000
   O   0.3885818  -0.2761896  -0.2176225 SPIN=   0.00000
   O   0.1184719  -0.3903865  -0.0523901 SPIN=   0.00000
   S   0.1866622  -0.3212178  -0.2312244 SPIN=   0.00000
   O  -0.1582753   0.4676106  -0.3718692 SPIN=   0.00000
   O  -0.0813200   0.1506847  -0.2830157 SPIN=   0.00000
   O  -0.3885818   0.2761896  -0.2176225 SPIN=   0.00000
   O  -0.1184719   0.3903865  -0.0523901 SPIN=   0.00000
   S  -0.1866622   0.3212178  -0.2312244 SPIN=   0.00000
   O   0.4676106   0.1582753   0.1281308 SPIN=   0.00000
   O   0.1506847   0.0813200   0.2169843 SPIN=   0.00000
   O   0.2761896   0.3885818   0.2823775 SPIN=   0.00000
   O   0.3903865   0.1184719   0.4476099 SPIN=   0.00000
   S   0.3212178   0.1866622   0.2687756 SPIN=   0.00000
   O  -0.4676106  -0.1582753   0.1281308 SPIN=   0.00000
   O  -0.1506847  -0.0813200   0.2169843 SPIN=   0.00000
   O  -0.2761896  -0.3885818   0.2823775 SPIN=   0.00000
   O  -0.3903865  -0.1184719   0.4476099 SPIN=   0.00000
   S  -0.3212178  -0.1866622   0.2687756 SPIN=   0.00000
   F  -0.2726964  -0.1502582  -0.2132263 SPIN=   0.00000
   F   0.2726964   0.1502582  -0.2132263 SPIN=   0.00000
   F   0.1502582  -0.2726964   0.2867737 SPIN=   0.00000
   F  -0.1502582   0.2726964   0.2867737 SPIN=   0.00000
%ENDBLOCK POSITIONS_FRAC

# Note: total spin =  16.00

KPOINTS_MP_SPACING 0.07

%BLOCK SPECIES_POT
QC5
%ENDBLOCK SPECIES_POT

SNAP_TO_SYMMETRY
SYMMETRY_GENERATE

