#              Generated by Buildcell
#
# at 08:13:32 (GMT+1.0) 4th August 2020
# in /lustre/scratch/uccabz1/launch_tmp
# on node-c12c-002
# by uccabz1
#
# compiler GCC version 4.9.2
# options -cpp -iprefix /lustre/shared/ucl/apps/gcc/4.9.2/bin/../lib/gcc/x86_64-unknown-linux-gnu/4.9.2/ -mtune=corei7 -march=x86-64 -g -Og
#
# seed   -22256382 -1489361940  -939851932 -1708145705   354576197  -121979199 -1104650580   752149613 -1756575206  -778341297 -1784841810 -1078279761
#
#      Author: C. J. Pickard (cjp20@cam.ac.uk)
#                Space group: P-1
#

%BLOCK LATTICE_ABC
      3.97375      7.00329     14.43913
     95.42366     90.63247     90.28607
%ENDBLOCK LATTICE_ABC

%BLOCK POSITIONS_FRAC
  Li   0.2525593   0.2063511   0.0569886 SPIN=   0.00000
  Li  -0.2525593  -0.2063511  -0.0569886 SPIN=   0.00000
  Li  -0.2290742  -0.1008287   0.2095372 SPIN=   0.00000
  Li   0.2290742   0.1008287  -0.2095372 SPIN=   0.00000
  Fe   0.2527934  -0.3508186   0.0841646 SPIN=   3.77692
  Fe  -0.2527934   0.3508186  -0.0841646 SPIN=   3.77692
  Fe   0.3759007  -0.3323683  -0.2423537 SPIN=   4.22308
  Fe  -0.3759007   0.3323683   0.2423537 SPIN=   4.22308
   O  -0.9480860   0.3600697   0.5303405 SPIN=   0.00000
   O  -0.4190236   0.3775125   0.4426094 SPIN=   0.00000
   O  -0.9556918   0.2987908   0.3586916 SPIN=   0.00000
   O  -0.6955375   0.0635885   0.4547962 SPIN=   0.00000
   S  -0.7545847   0.2749904   0.4466094 SPIN=   0.00000
   O   0.9480860  -0.3600697  -0.5303405 SPIN=   0.00000
   O   0.4190236  -0.3775125  -0.4426094 SPIN=   0.00000
   O   0.9556918  -0.2987908  -0.3586916 SPIN=   0.00000
   O   0.6955375  -0.0635885  -0.4547962 SPIN=   0.00000
   S   0.7545847  -0.2749904  -0.4466094 SPIN=   0.00000
   O   0.5728429   0.3897583  -0.2468036 SPIN=   0.00000
   O   0.6644050   0.0428408  -0.2875835 SPIN=   0.00000
   O   1.1012144   0.2778431  -0.3225843 SPIN=   0.00000
   O   0.5649476   0.2569975  -0.4118661 SPIN=   0.00000
   S   0.7258525   0.2418599  -0.3172094 SPIN=   0.00000
   O  -0.5728429  -0.3897583   0.2468036 SPIN=   0.00000
   O  -0.6644050  -0.0428408   0.2875835 SPIN=   0.00000
   O  -1.1012144  -0.2778431   0.3225843 SPIN=   0.00000
   O  -0.5649476  -0.2569975   0.4118661 SPIN=   0.00000
   S  -0.7258525  -0.2418599   0.3172094 SPIN=   0.00000
   F  -0.2463144  -0.2454373   0.0830720 SPIN=   0.00000
   F   0.2463144   0.2454373  -0.0830720 SPIN=   0.00000
   F  -0.0840581  -0.2452415  -0.1790115 SPIN=   0.00000
   F   0.0840581   0.2452415   0.1790115 SPIN=   0.00000
%ENDBLOCK POSITIONS_FRAC

# Note: total spin =  16.00

KPOINTS_MP_SPACING 0.07

%BLOCK SPECIES_POT
QC5
%ENDBLOCK SPECIES_POT

SNAP_TO_SYMMETRY
SYMMETRY_GENERATE

