#              Generated by Buildcell
#
# at 08:07:48 (GMT+1.0) 4th August 2020
# in /lustre/scratch/uccabz1/launch_tmp
# on node-c12e-010
# by uccabz1
#
# compiler GCC version 4.9.2
# options -cpp -iprefix /lustre/shared/ucl/apps/gcc/4.9.2/bin/../lib/gcc/x86_64-unknown-linux-gnu/4.9.2/ -mtune=corei7 -march=x86-64 -g -Og
#
# seed  1153649425  -149816876   931832498   655979183 -1209576520   550607224  1141609391   992236289   264859632  1344211240  1319871793 -1288488716
#
#      Author: C. J. Pickard (cjp20@cam.ac.uk)
#                Space group: P21
#

%BLOCK LATTICE_ABC
      6.62213      7.49239      8.16251
     99.00112     90.00000     90.00000
%ENDBLOCK LATTICE_ABC

%BLOCK POSITIONS_FRAC
  Li   0.0630148  -0.0592548  -0.3225764 SPIN=   0.00000
  Li  -0.4369852   0.0592548   0.3225764 SPIN=   0.00000
  Li   0.0317181  -0.1265994   0.1706616 SPIN=   0.00000
  Li  -0.4682819   0.1265994  -0.1706616 SPIN=   0.00000
  Fe  -0.0682890   0.1668385  -0.0148029 SPIN=   5.53975
  Fe   0.4317110  -0.1668385   0.0148029 SPIN=   5.53975
  Fe   0.4559725  -0.1955930  -0.4528138 SPIN=   2.46025
  Fe  -0.0440275   0.1955930   0.4528138 SPIN=   2.46025
   O  -0.1037203  -0.3708154   0.2167604 SPIN=   0.00000
   O   0.0725829  -0.2005892   0.4595075 SPIN=   0.00000
   O   0.2284302  -0.4757956   0.3029684 SPIN=   0.00000
   O  -0.0737801  -0.5011424   0.4762167 SPIN=   0.00000
   S   0.0308782  -0.3870856   0.3638633 SPIN=   0.00000
   O  -0.6037203   0.3708154  -0.2167604 SPIN=   0.00000
   O  -0.4274171   0.2005892  -0.4595075 SPIN=   0.00000
   O  -0.2715698   0.4757956  -0.3029684 SPIN=   0.00000
   O  -0.5737801   0.5011424  -0.4762167 SPIN=   0.00000
   S  -0.4691218   0.3870856  -0.3638633 SPIN=   0.00000
   O  -0.1514328  -0.3856698  -0.0579250 SPIN=   0.00000
   O   0.0346332  -0.3099876  -0.3008985 SPIN=   0.00000
   O   0.0354469  -0.6239156  -0.2414401 SPIN=   0.00000
   O   0.2222937  -0.3851566  -0.0584994 SPIN=   0.00000
   S   0.0352352  -0.4261824  -0.1646907 SPIN=   0.00000
   O  -0.6514328   0.3856698   0.0579250 SPIN=   0.00000
   O  -0.4653668   0.3099876   0.3008985 SPIN=   0.00000
   O  -0.4645531   0.6239156   0.2414401 SPIN=   0.00000
   O  -0.2777063   0.3851566   0.0584994 SPIN=   0.00000
   S  -0.4647648   0.4261824   0.1646907 SPIN=   0.00000
   F   0.2212700   0.0754481  -0.1282055 SPIN=   0.00000
   F  -0.2787300  -0.0754481   0.1282055 SPIN=   0.00000
   F   0.2371570   0.0593397   0.2985805 SPIN=   0.00000
   F  -0.2628430  -0.0593397  -0.2985805 SPIN=   0.00000
%ENDBLOCK POSITIONS_FRAC

# Note: total spin =  16.00

KPOINTS_MP_SPACING 0.07

%BLOCK SPECIES_POT
QC5
%ENDBLOCK SPECIES_POT

SNAP_TO_SYMMETRY
SYMMETRY_GENERATE

