#              Generated by Buildcell
#
# at 06:32:41 (GMT+1.0) 4th August 2020
# in /lustre/scratch/uccabz1/launch_tmp
# on node-c12f-015
# by uccabz1
#
# compiler GCC version 4.9.2
# options -cpp -iprefix /lustre/shared/ucl/apps/gcc/4.9.2/bin/../lib/gcc/x86_64-unknown-linux-gnu/4.9.2/ -mtune=corei7 -march=x86-64 -g -Og
#
# seed  -589754501   852020498   333409035  -718232525 -1119674321   410253942   385746624 -1924325299   135041083   483342223 -1385486017  1371174236
#
#      Author: C. J. Pickard (cjp20@cam.ac.uk)
#                Space group: P-1
#

%BLOCK LATTICE_ABC
      4.20482      7.85960     12.58249
     87.00451     86.90717     74.59819
%ENDBLOCK LATTICE_ABC

%BLOCK POSITIONS_FRAC
  Li   0.1333103  -0.1751707  -0.4048296 SPIN=   0.00000
  Li  -0.1333103   0.1751707   0.4048296 SPIN=   0.00000
  Li  -0.2399461   0.2445048   0.1272712 SPIN=   0.00000
  Li   0.2399461  -0.2445048  -0.1272712 SPIN=   0.00000
  Fe   0.7229257  -0.3058167   0.4417441 SPIN=   2.37860
  Fe  -0.7229257   0.3058167  -0.4417441 SPIN=   2.37860
  Fe  -0.3036987   0.4224564  -0.2187233 SPIN=   5.62140
  Fe   0.3036987  -0.4224564   0.2187233 SPIN=   5.62140
   O   0.6221161   0.0331250   0.1666422 SPIN=   0.00000
   O   0.6734090  -0.0736283   0.3551078 SPIN=   0.00000
   O   0.1340378  -0.0133121   0.2709587 SPIN=   0.00000
   O   0.3644223   0.2342291   0.3104684 SPIN=   0.00000
   S   0.4484963   0.0451034   0.2757943 SPIN=   0.00000
   O  -0.6221161  -0.0331250  -0.1666422 SPIN=   0.00000
   O  -0.6734090   0.0736283  -0.3551078 SPIN=   0.00000
   O  -0.1340378   0.0133121  -0.2709587 SPIN=   0.00000
   O  -0.3644223  -0.2342291  -0.3104684 SPIN=   0.00000
   S  -0.4484963  -0.0451034  -0.2757943 SPIN=   0.00000
   O   0.8100513  -0.4067172  -0.0494837 SPIN=   0.00000
   O   0.3555867  -0.2139229   0.0565230 SPIN=   0.00000
   O   0.7949947  -0.0928176  -0.0304751 SPIN=   0.00000
   O   0.9203794  -0.3041373   0.1240535 SPIN=   0.00000
   S   0.7202530  -0.2543988   0.0251544 SPIN=   0.00000
   O  -0.8100513   0.4067172   0.0494837 SPIN=   0.00000
   O  -0.3555867   0.2139229  -0.0565230 SPIN=   0.00000
   O  -0.7949947   0.0928176   0.0304751 SPIN=   0.00000
   O  -0.9203794   0.3041373  -0.1240535 SPIN=   0.00000
   S  -0.7202530   0.2543988  -0.0251544 SPIN=   0.00000
   F   0.2361447  -0.4519019  -0.2640495 SPIN=   0.00000
   F  -0.2361447   0.4519019   0.2640495 SPIN=   0.00000
   F   0.1988903  -0.2801058   0.4588595 SPIN=   0.00000
   F  -0.1988903   0.2801058  -0.4588595 SPIN=   0.00000
%ENDBLOCK POSITIONS_FRAC

# Note: total spin =  16.00

KPOINTS_MP_SPACING 0.07

%BLOCK SPECIES_POT
QC5
%ENDBLOCK SPECIES_POT

SNAP_TO_SYMMETRY
SYMMETRY_GENERATE

