#              Generated by Buildcell
#
# at 23:24:07 (GMT+1.0) 17th August 2020
# in /scratch/scratch/uccabz1/launch_tmp
# on node-k10b-024
# by uccabz1
#
# compiler GCC version 4.9.2
# options -cpp -iprefix /scratch/UCL/applications/gcc/4.9.2/bin/../lib/gcc/x86_64-unknown-linux-gnu/4.9.2/ -mtune=corei7 -march=x86-64 -g -O2
#
# seed -1534276830  1222103028  -729221884   496354049  -762750334   151874211 -1439129405  -561982269  1379600593 -1633399098   560117229  -768945955
#
#      Author: C. J. Pickard (cjp20@cam.ac.uk)
#                Space group: P21
#

%BLOCK LATTICE_ABC
      5.23733      5.51607     13.87526
     93.72932     90.00000     90.00000
%ENDBLOCK LATTICE_ABC

%BLOCK POSITIONS_FRAC
  Li  -0.2684371   0.3690766   0.3891326 SPIN=   0.00000
  Li   0.2315629  -0.3690766  -0.3891326 SPIN=   0.00000
  Li  -0.2067282  -0.2595674   0.1663166 SPIN=   0.00000
  Li   0.2932718   0.2595674  -0.1663166 SPIN=   0.00000
  Fe  -0.1333039   0.2173087  -0.0313075 SPIN=   3.16929
  Fe   0.3666961  -0.2173087   0.0313075 SPIN=   3.16929
  Fe  -0.3229432   0.2703341  -0.3344237 SPIN=   4.83071
  Fe   0.1770568  -0.2703341   0.3344237 SPIN=   4.83071
   O  -0.0524580   0.4874688   0.2510709 SPIN=   0.00000
   O  -0.2187703   0.0829671   0.2866942 SPIN=   0.00000
   O   0.2241700   0.1246122   0.2278666 SPIN=   0.00000
   O  -0.1396389   0.1791307   0.1175214 SPIN=   0.00000
   S  -0.0466743   0.2185447   0.2207882 SPIN=   0.00000
   O   0.4475420  -0.4874688  -0.2510709 SPIN=   0.00000
   O   0.2812297  -0.0829671  -0.2866942 SPIN=   0.00000
   O   0.7241700  -0.1246122  -0.2278666 SPIN=   0.00000
   O   0.3603611  -0.1791307  -0.1175214 SPIN=   0.00000
   S   0.4533257  -0.2185447  -0.2207882 SPIN=   0.00000
   O  -0.3672633  -0.2291018  -0.5674649 SPIN=   0.00000
   O   0.0484507  -0.1622110  -0.4851866 SPIN=   0.00000
   O  -0.2257771  -0.5067450  -0.4449101 SPIN=   0.00000
   O  -0.3539780  -0.0854253  -0.3948103 SPIN=   0.00000
   S  -0.2246419  -0.2458708  -0.4730930 SPIN=   0.00000
   O   0.1327367   0.2291018   0.5674649 SPIN=   0.00000
   O   0.5484507   0.1622110   0.4851866 SPIN=   0.00000
   O   0.2742229   0.5067450   0.4449101 SPIN=   0.00000
   O   0.1460220   0.0854253   0.3948103 SPIN=   0.00000
   S   0.2753581   0.2458708   0.4730930 SPIN=   0.00000
   F   0.4628912   0.2692276  -0.0349947 SPIN=   0.00000
   F  -0.0371088  -0.2692276   0.0349947 SPIN=   0.00000
   F  -0.0281713   0.3138927  -0.2284041 SPIN=   0.00000
   F   0.4718287  -0.3138927   0.2284041 SPIN=   0.00000
%ENDBLOCK POSITIONS_FRAC

# Note: total spin =  16.00

KPOINTS_MP_SPACING 0.07

%BLOCK SPECIES_POT
QC5
%ENDBLOCK SPECIES_POT

SNAP_TO_SYMMETRY
SYMMETRY_GENERATE

