#              Generated by Buildcell
#
# at 15:57:28 (GMT+1.0) 18th August 2020
# in /scratch/scratch/uccabz1/launch_tmp
# on node-k10f-031
# by uccabz1
#
# compiler GCC version 4.9.2
# options -cpp -iprefix /scratch/UCL/applications/gcc/4.9.2/bin/../lib/gcc/x86_64-unknown-linux-gnu/4.9.2/ -mtune=corei7 -march=x86-64 -g -O2
#
# seed -1474806490  1949328205  -946495101 -1394440620  1981141196 -1100510940 -1613205528  1383600878  1264911923   -85923850   -20216247  1296330631
#
#      Author: C. J. Pickard (cjp20@cam.ac.uk)
#                Space group: P212121
#

%BLOCK LATTICE_ABC
      3.97497     10.00848     10.05444
     90.00000     90.00000     90.00000
%ENDBLOCK LATTICE_ABC

%BLOCK POSITIONS_FRAC
  Li   0.3719830  -0.3657734   0.4911933 SPIN=   0.00000
  Li  -0.1280170   0.3657734   0.0088067 SPIN=   0.00000
  Li   0.1280170   0.1342266  -0.4911933 SPIN=   0.00000
  Li  -0.3719830  -0.1342266  -0.0088067 SPIN=   0.00000
  Fe  -0.2105723   0.3902805   0.4057432 SPIN=   4.00000
  Fe   0.2894277  -0.3902805   0.0942568 SPIN=   4.00000
  Fe  -0.2894277  -0.1097195  -0.4057432 SPIN=   4.00000
  Fe   0.2105723   0.1097195  -0.0942568 SPIN=   4.00000
   O  -0.1026532   0.4451086  -0.2030611 SPIN=   0.00000
   O  -0.4335382   0.2387603  -0.1672137 SPIN=   0.00000
   O   0.0697883   0.2342248  -0.3120313 SPIN=   0.00000
   O  -0.4452299   0.3514780  -0.3862520 SPIN=   0.00000
   S  -0.2279082   0.3173929  -0.2671395 SPIN=   0.00000
   O   0.3973468  -0.4451086  -0.2969389 SPIN=   0.00000
   O   0.0664618  -0.2387603  -0.3327863 SPIN=   0.00000
   O   0.5697883  -0.2342248  -0.1879687 SPIN=   0.00000
   O   0.0547701  -0.3514780  -0.1137480 SPIN=   0.00000
   S   0.2720918  -0.3173929  -0.2328605 SPIN=   0.00000
   O  -0.3973468  -0.0548914   0.2030611 SPIN=   0.00000
   O  -0.0664618  -0.2612397   0.1672137 SPIN=   0.00000
   O  -0.5697883  -0.2657752   0.3120313 SPIN=   0.00000
   O  -0.0547701  -0.1485220   0.3862520 SPIN=   0.00000
   S  -0.2720918  -0.1826071   0.2671395 SPIN=   0.00000
   O   0.1026532   0.0548914   0.2969389 SPIN=   0.00000
   O   0.4335382   0.2612397   0.3327863 SPIN=   0.00000
   O  -0.0697883   0.2657752   0.1879687 SPIN=   0.00000
   O   0.4452299   0.1485220   0.1137480 SPIN=   0.00000
   S   0.2279082   0.1826071   0.2328605 SPIN=   0.00000
   F   0.0893925  -0.0583192  -0.0239868 SPIN=   0.00000
   F  -0.4106075   0.0583192  -0.4760132 SPIN=   0.00000
   F   0.4106075   0.4416808   0.0239868 SPIN=   0.00000
   F  -0.0893925  -0.4416808   0.4760132 SPIN=   0.00000
%ENDBLOCK POSITIONS_FRAC

# Note: total spin =  16.00

KPOINTS_MP_SPACING 0.07

%BLOCK SPECIES_POT
QC5
%ENDBLOCK SPECIES_POT

SNAP_TO_SYMMETRY
SYMMETRY_GENERATE

