#              Generated by Buildcell
#
# at 07:12:48 (GMT+1.0) 18th August 2020
# in /lustre/scratch/uccabz1/launch_tmp
# on node-c12l-016
# by uccabz1
#
# compiler GCC version 4.9.2
# options -cpp -iprefix /lustre/shared/ucl/apps/gcc/4.9.2/bin/../lib/gcc/x86_64-unknown-linux-gnu/4.9.2/ -mtune=corei7 -march=x86-64 -g -Og
#
# seed  -635946292   324166577   377876175  1649023912  -679621025   353346790  -545253438  1625973228 -1896963415  -939310649 -1013496474 -1420590035
#
#      Author: C. J. Pickard (cjp20@cam.ac.uk)
#                Space group: Cm
#

%BLOCK LATTICE_ABC
      7.01673      8.45286      8.66907
    118.71851    113.34327     90.99431
%ENDBLOCK LATTICE_ABC

%BLOCK POSITIONS_FRAC
  Li   0.2804054   0.4449050   0.5502516 SPIN=   0.00000
  Li  -0.2698463  -0.1053466  -0.5502516 SPIN=   0.00000
  Li  -0.3269980   0.1129940  -0.0000000 SPIN=   0.00000
  Li   0.2045827  -0.1561244  -0.0000000 SPIN=   0.00000
  Fe   0.2108868  -0.0520198  -0.2862781 SPIN=   4.71108
  Fe   0.4971649   0.2342584   0.2862781 SPIN=   4.71108
  Fe  -0.3394597  -0.2690782  -0.3058793 SPIN=   3.28892
  Fe  -0.0335804   0.0368011   0.3058793 SPIN=   3.28892
   O  -0.4146677  -0.5106108  -0.7262668 SPIN=   0.00000
   O  -0.2208364  -0.3413400  -0.8096482 SPIN=   0.00000
   O  -0.1343779  -0.6286445  -0.8223546 SPIN=   0.00000
   O  -0.0319891  -0.3386406  -0.4988860 SPIN=   0.00000
   S  -0.2004678  -0.4548090  -0.7142889 SPIN=   0.00000
   O   0.3115991   0.2156560   0.7262668 SPIN=   0.00000
   O   0.5888118   0.4683082   0.8096482 SPIN=   0.00000
   O   0.6879767   0.1937101   0.8223546 SPIN=   0.00000
   O   0.4668968   0.1602454   0.4988860 SPIN=   0.00000
   S   0.5138211   0.2594799   0.7142889 SPIN=   0.00000
   O  -0.0776068   0.6280543   0.7774497 SPIN=   0.00000
   O  -0.0642171   0.3301322   0.7654149 SPIN=   0.00000
   O   0.2556986   0.5212957   0.8222641 SPIN=   0.00000
   O  -0.0643058   0.3558689   0.4928124 SPIN=   0.00000
   S   0.0123922   0.4588378   0.7144853 SPIN=   0.00000
   O  -0.8550565  -0.1493954  -0.7774497 SPIN=   0.00000
   O  -0.8296320  -0.4352827  -0.7654149 SPIN=   0.00000
   O  -0.5665655  -0.3009685  -0.8222641 SPIN=   0.00000
   O  -0.5571182  -0.1369435  -0.4928124 SPIN=   0.00000
   S  -0.7020931  -0.2556475  -0.7144853 SPIN=   0.00000
   F   0.4067841  -0.2559171  -0.2734619 SPIN=   0.00000
   F   0.6802460   0.0175448   0.2734619 SPIN=   0.00000
   F   0.2307625   0.2773516   0.2733821 SPIN=   0.00000
   F  -0.0426197   0.0039695  -0.2733821 SPIN=   0.00000
%ENDBLOCK POSITIONS_FRAC

# Note: total spin =  16.00

KPOINTS_MP_SPACING 0.07

%BLOCK SPECIES_POT
QC5
%ENDBLOCK SPECIES_POT

SNAP_TO_SYMMETRY
SYMMETRY_GENERATE

