#              Generated by Buildcell
#
# at 09:14:22 (GMT+1.0) 18th August 2020
# in /lustre/scratch/uccabz1/launch_tmp
# on node-c12p-008
# by uccabz1
#
# compiler GCC version 4.9.2
# options -cpp -iprefix /lustre/shared/ucl/apps/gcc/4.9.2/bin/../lib/gcc/x86_64-unknown-linux-gnu/4.9.2/ -mtune=corei7 -march=x86-64 -g -Og
#
# seed -1356778647  1456470207  -288155503 -1290168336   445623033  1925565648   514974132  1844153695 -2123733161  1506654383 -1791360303   628301715
#
#      Author: C. J. Pickard (cjp20@cam.ac.uk)
#                Space group: C2221
#

%BLOCK LATTICE_ABC
      3.98710      6.63912     15.84204
     90.00000     90.00000    107.47400
%ENDBLOCK LATTICE_ABC

%BLOCK POSITIONS_FRAC
  Li  -0.0475195   0.3941029   0.1562953 SPIN=   0.00000
  Li   0.0475195  -0.3941029  -0.3437047 SPIN=   0.00000
  Li  -0.4416224  -0.3941029   0.3437047 SPIN=   0.00000
  Li   0.4416224   0.3941029  -0.1562953 SPIN=   0.00000
  Fe   0.3838688   0.2802215  -0.4002414 SPIN=   4.00000
  Fe  -0.3838688  -0.2802215   0.0997586 SPIN=   4.00000
  Fe   0.1036474  -0.2802215  -0.0997586 SPIN=   4.00000
  Fe  -0.1036474   0.2802215   0.4002414 SPIN=   4.00000
   O  -0.5750122   0.1064027  -0.1165762 SPIN=   0.00000
   O   0.0003606   0.1951353  -0.1892862 SPIN=   0.00000
   O  -0.1150284  -0.0452372  -0.0661153 SPIN=   0.00000
   O  -0.0422043   0.3352751  -0.0462357 SPIN=   0.00000
   S  -0.1829710   0.1478940  -0.1045534 SPIN=   0.00000
   O   0.5750122  -0.1064027   0.3834238 SPIN=   0.00000
   O  -0.0003606  -0.1951353   0.3107138 SPIN=   0.00000
   O   0.1150284   0.0452372   0.4338847 SPIN=   0.00000
   O   0.0422043  -0.3352751   0.4537643 SPIN=   0.00000
   S   0.1829710  -0.1478940   0.3954466 SPIN=   0.00000
   O  -0.6814149  -0.1064027  -0.3834238 SPIN=   0.00000
   O  -0.1947747  -0.1951353  -0.3107138 SPIN=   0.00000
   O  -0.0697912   0.0452372  -0.4338847 SPIN=   0.00000
   O  -0.3774793  -0.3352751  -0.4537643 SPIN=   0.00000
   S  -0.3308650  -0.1478940  -0.3954466 SPIN=   0.00000
   O   0.6814149   0.1064027   0.1165762 SPIN=   0.00000
   O   0.1947747   0.1951353   0.1892862 SPIN=   0.00000
   O   0.0697912  -0.0452372   0.0661153 SPIN=   0.00000
   O   0.3774793   0.3352751   0.0462357 SPIN=   0.00000
   S   0.3308650   0.1478940   0.1045534 SPIN=   0.00000
   F  -0.4587258   0.2749643  -0.2952180 SPIN=   0.00000
   F   0.4587258  -0.2749643   0.2047820 SPIN=   0.00000
   F   0.2663099  -0.2749643  -0.2047820 SPIN=   0.00000
   F  -0.2663099   0.2749643   0.2952180 SPIN=   0.00000
%ENDBLOCK POSITIONS_FRAC

# Note: total spin =  16.00

KPOINTS_MP_SPACING 0.07

%BLOCK SPECIES_POT
QC5
%ENDBLOCK SPECIES_POT

SNAP_TO_SYMMETRY
SYMMETRY_GENERATE

