#              Generated by Buildcell
#
# at 05:58:01 (GMT+1.0) 18th August 2020
# in /lustre/scratch/uccabz1/launch_tmp
# on node-c12i-030
# by uccabz1
#
# compiler GCC version 4.9.2
# options -cpp -iprefix /lustre/shared/ucl/apps/gcc/4.9.2/bin/../lib/gcc/x86_64-unknown-linux-gnu/4.9.2/ -mtune=corei7 -march=x86-64 -g -Og
#
# seed  1010833023 -1213561258  -733786069  -528179936  -268891384   320934626 -2028521462   797034953   339683248  1822123237  -858303377  1393824089
#
#      Author: C. J. Pickard (cjp20@cam.ac.uk)
#                Space group: P-1
#

%BLOCK LATTICE_ABC
      4.44358      7.85179     11.91366
     77.35506     82.75113     82.41608
%ENDBLOCK LATTICE_ABC

%BLOCK POSITIONS_FRAC
  Li   0.1482862  -0.3032692  -0.3228538 SPIN=   0.00000
  Li  -0.1482862   0.3032692   0.3228538 SPIN=   0.00000
  Li  -0.1349158  -0.0671403   0.1676293 SPIN=   0.00000
  Li   0.1349158   0.0671403  -0.1676293 SPIN=   0.00000
  Fe  -0.2991759  -0.3287488   0.0446438 SPIN=   3.86941
  Fe   0.2991759   0.3287488  -0.0446438 SPIN=   3.86941
  Fe  -0.1666387   0.3820332  -0.3175172 SPIN=   4.13059
  Fe   0.1666387  -0.3820332   0.3175172 SPIN=   4.13059
   O   0.6204101   0.1398677   0.2338808 SPIN=   0.00000
   O   0.1431691   0.2292470   0.1392450 SPIN=   0.00000
   O   0.1262462   0.0648179   0.3420632 SPIN=   0.00000
   O   0.3488577  -0.0840807   0.1830650 SPIN=   0.00000
   S   0.3096708   0.0874630   0.2245635 SPIN=   0.00000
   O  -0.6204101  -0.1398677  -0.2338808 SPIN=   0.00000
   O  -0.1431691  -0.2292470  -0.1392450 SPIN=   0.00000
   O  -0.1262462  -0.0648179  -0.3420632 SPIN=   0.00000
   O  -0.3488577   0.0840807  -0.1830650 SPIN=   0.00000
   S  -0.3096708  -0.0874630  -0.2245635 SPIN=   0.00000
   O  -0.2613775  -0.1619486   0.3859464 SPIN=   0.00000
   O  -0.1906760  -0.3765423   0.5691546 SPIN=   0.00000
   O  -0.6500086  -0.3657153   0.4688941 SPIN=   0.00000
   O  -0.5898314  -0.1241661   0.5645672 SPIN=   0.00000
   S  -0.4229734  -0.2570931   0.4971406 SPIN=   0.00000
   O   0.2613775   0.1619486  -0.3859464 SPIN=   0.00000
   O   0.1906760   0.3765423  -0.5691546 SPIN=   0.00000
   O   0.6500086   0.3657153  -0.4688941 SPIN=   0.00000
   O   0.5898314   0.1241661  -0.5645672 SPIN=   0.00000
   S   0.4229734   0.2570931  -0.4971406 SPIN=   0.00000
   F   0.2618124   0.4623721  -0.2637687 SPIN=   0.00000
   F  -0.2618124  -0.4623721   0.2637687 SPIN=   0.00000
   F  -0.2781998   0.2881407  -0.0246162 SPIN=   0.00000
   F   0.2781998  -0.2881407   0.0246162 SPIN=   0.00000
%ENDBLOCK POSITIONS_FRAC

# Note: total spin =  16.00

KPOINTS_MP_SPACING 0.07

%BLOCK SPECIES_POT
QC5
%ENDBLOCK SPECIES_POT

SNAP_TO_SYMMETRY
SYMMETRY_GENERATE

