#              Generated by Buildcell
#
# at 06:09:25 (GMT+1.0) 4th August 2020
# in /lustre/scratch/uccabz1/launch_tmp
# on node-c12h-032
# by uccabz1
#
# compiler GCC version 4.9.2
# options -cpp -iprefix /lustre/shared/ucl/apps/gcc/4.9.2/bin/../lib/gcc/x86_64-unknown-linux-gnu/4.9.2/ -mtune=corei7 -march=x86-64 -g -Og
#
# seed  1692613080  -848784939  1797398821 -1192589507 -1031617258  2015210638  1605091775 -1124592370 -1119825964   675136427  2036982475   386984808
#
#      Author: C. J. Pickard (cjp20@cam.ac.uk)
#                Space group: P-1
#

%BLOCK LATTICE_ABC
      7.55075      7.63595      7.74151
     96.49858    106.21092    107.20342
%ENDBLOCK LATTICE_ABC

%BLOCK POSITIONS_FRAC
  Li  -0.0573522   0.2258459  -0.0633420 SPIN=   0.00000
  Li   0.0573522  -0.2258459   0.0633420 SPIN=   0.00000
  Li   0.3283208   0.0923504  -0.2594612 SPIN=   0.00000
  Li  -0.3283208  -0.0923504   0.2594612 SPIN=   0.00000
  Fe   0.1097790   0.2984959   0.3939653 SPIN=   4.22828
  Fe  -0.1097790  -0.2984959  -0.3939653 SPIN=   4.22828
  Fe   0.2645905  -0.4684942  -0.1152176 SPIN=   3.77172
  Fe  -0.2645905   0.4684942   0.1152176 SPIN=   3.77172
   O  -0.3165373  -0.3616422  -0.1792462 SPIN=   0.00000
   O  -0.1229322  -0.0818830   0.0728327 SPIN=   0.00000
   O  -0.4845301  -0.1725408  -0.0519242 SPIN=   0.00000
   O  -0.2810879  -0.0438768  -0.2400081 SPIN=   0.00000
   S  -0.3012719  -0.1649857  -0.0995865 SPIN=   0.00000
   O   0.3165373   0.3616422   0.1792462 SPIN=   0.00000
   O   0.1229322   0.0818830  -0.0728327 SPIN=   0.00000
   O   0.4845301   0.1725408   0.0519242 SPIN=   0.00000
   O   0.2810879   0.0438768   0.2400081 SPIN=   0.00000
   S   0.3012719   0.1649857   0.0995865 SPIN=   0.00000
   O   0.3087521  -0.2322305   0.2711388 SPIN=   0.00000
   O   0.4213444  -0.0603999   0.5946744 SPIN=   0.00000
   O   0.1942731  -0.3894627   0.5022328 SPIN=   0.00000
   O   0.0764690  -0.1369755   0.3980241 SPIN=   0.00000
   S   0.2502097  -0.2047672   0.4415175 SPIN=   0.00000
   O  -0.3087521   0.2322305  -0.2711388 SPIN=   0.00000
   O  -0.4213444   0.0603999  -0.5946744 SPIN=   0.00000
   O  -0.1942731   0.3894627  -0.5022328 SPIN=   0.00000
   O  -0.0764690   0.1369755  -0.3980241 SPIN=   0.00000
   S  -0.2502097   0.2047672  -0.4415175 SPIN=   0.00000
   F   0.0906658  -0.3307089  -0.1676439 SPIN=   0.00000
   F  -0.0906658   0.3307089   0.1676439 SPIN=   0.00000
   F   0.3303466   0.3164500  -0.3681420 SPIN=   0.00000
   F  -0.3303466  -0.3164500   0.3681420 SPIN=   0.00000
%ENDBLOCK POSITIONS_FRAC

# Note: total spin =  16.00

KPOINTS_MP_SPACING 0.07

%BLOCK SPECIES_POT
QC5
%ENDBLOCK SPECIES_POT

SNAP_TO_SYMMETRY
SYMMETRY_GENERATE

