#              Generated by Buildcell
#
# at 16:25:46 (GMT+1.0) 18th August 2020
# in /lustre/scratch/uccabz1/launch_tmp
# on node-c12g-023
# by uccabz1
#
# compiler GCC version 4.9.2
# options -cpp -iprefix /lustre/shared/ucl/apps/gcc/4.9.2/bin/../lib/gcc/x86_64-unknown-linux-gnu/4.9.2/ -mtune=corei7 -march=x86-64 -g -Og
#
# seed  1422468693  -791821890  2125320197   388077392  -494338298  -336922661   904568399   160169075 -1078869255  1273184864   310880115  1914003955
#
#      Author: C. J. Pickard (cjp20@cam.ac.uk)
#                Space group: Cc
#

%BLOCK LATTICE_ABC
      6.61203      7.93741      7.93741
     98.17769     99.14927     99.14927
%ENDBLOCK LATTICE_ABC

%BLOCK POSITIONS_FRAC
  Li  -0.1228880   0.1141016   0.3150967 SPIN=   0.00000
  Li   0.3771120   0.3150967   0.1141016 SPIN=   0.00000
  Li   0.1052691  -0.3252636  -0.0044039 SPIN=   0.00000
  Li  -0.3947309  -0.0044039  -0.3252636 SPIN=   0.00000
  Fe  -0.0084723   0.0828950  -0.0675089 SPIN=   4.67568
  Fe   0.4915277  -0.0675089   0.0828950 SPIN=   4.67568
  Fe  -0.3055640  -0.3772286  -0.2266494 SPIN=   3.32432
  Fe   0.1944360  -0.2266494  -0.3772286 SPIN=   3.32432
   O  -0.0033261   0.3552559  -0.5294596 SPIN=   0.00000
   O  -0.0274061   0.1443352  -0.3286095 SPIN=   0.00000
   O  -0.3023767   0.3196190  -0.3773928 SPIN=   0.00000
   O   0.0490942   0.4588802  -0.2136970 SPIN=   0.00000
   S  -0.0710037   0.3195226  -0.3622897 SPIN=   0.00000
   O   0.4966739  -0.5294596   0.3552559 SPIN=   0.00000
   O   0.4725939  -0.3286095   0.1443352 SPIN=   0.00000
   O   0.1976233  -0.3773928   0.3196190 SPIN=   0.00000
   O   0.5490942  -0.2136970   0.4588802 SPIN=   0.00000
   S   0.4289963  -0.3622897   0.3195226 SPIN=   0.00000
   O  -0.1598268   0.5328563   0.3011760 SPIN=   0.00000
   O  -0.1716895   0.5027377  -0.0150704 SPIN=   0.00000
   O  -0.3277973   0.2555617   0.1095129 SPIN=   0.00000
   O   0.0555787   0.3480073   0.1609069 SPIN=   0.00000
   S  -0.1509337   0.4097908   0.1391314 SPIN=   0.00000
   O   0.3401732   0.3011760   0.5328563 SPIN=   0.00000
   O   0.3283105  -0.0150704   0.5027377 SPIN=   0.00000
   O   0.1722027   0.1095129   0.2555617 SPIN=   0.00000
   O   0.5555787   0.1609069   0.3480073 SPIN=   0.00000
   S   0.3490663   0.1391314   0.4097908 SPIN=   0.00000
   F   0.4509905  -0.4919453  -0.1658792 SPIN=   0.00000
   F  -0.0490095  -0.1658792  -0.4919453 SPIN=   0.00000
   F   0.2925669   0.0926924  -0.0481577 SPIN=   0.00000
   F  -0.2074331  -0.0481577   0.0926924 SPIN=   0.00000
%ENDBLOCK POSITIONS_FRAC

# Note: total spin =  16.00

KPOINTS_MP_SPACING 0.07

%BLOCK SPECIES_POT
QC5
%ENDBLOCK SPECIES_POT

SNAP_TO_SYMMETRY
SYMMETRY_GENERATE

