#              Generated by Buildcell
#
# at 15:51:48 (GMT+1.0) 18th August 2020
# in /scratch/scratch/uccabz1/launch_tmp
# on node-k10f-025
# by uccabz1
#
# compiler GCC version 4.9.2
# options -cpp -iprefix /scratch/UCL/applications/gcc/4.9.2/bin/../lib/gcc/x86_64-unknown-linux-gnu/4.9.2/ -mtune=corei7 -march=x86-64 -g -O2
#
# seed  1975934674  2020863406  1151252040  1431180178  1126883768 -2034678770  -790226782  1628694984   478232172  -721854190  1269680748 -2116618718
#
#      Author: C. J. Pickard (cjp20@cam.ac.uk)
#                Space group: P21
#

%BLOCK LATTICE_ABC
      6.11715      6.57831     10.08987
     90.00000     90.00000     99.88028
%ENDBLOCK LATTICE_ABC

%BLOCK POSITIONS_FRAC
  Li  -0.3073876  -0.3293148   0.1817433 SPIN=   0.00000
  Li   0.3073876   0.3293148  -0.3182567 SPIN=   0.00000
  Li   0.1460273   0.0949004   0.0298865 SPIN=   0.00000
  Li  -0.1460273  -0.0949004  -0.4701135 SPIN=   0.00000
  Fe   0.2214221  -0.3563746  -0.0183315 SPIN=   3.49269
  Fe  -0.2214221   0.3563746   0.4816685 SPIN=   3.49269
  Fe   0.2696905   0.3224992   0.2777203 SPIN=   4.50731
  Fe  -0.2696905  -0.3224992  -0.2222797 SPIN=   4.50731
   O  -0.2557454   0.3794454  -0.1632318 SPIN=   0.00000
   O  -0.1257934   0.0553699  -0.2232414 SPIN=   0.00000
   O  -0.4102516   0.1814002  -0.3603818 SPIN=   0.00000
   O  -0.5054981   0.0439960  -0.1354833 SPIN=   0.00000
   S  -0.3243221   0.1650529  -0.2205846 SPIN=   0.00000
   O   0.2557454  -0.3794454   0.3367682 SPIN=   0.00000
   O   0.1257934  -0.0553699   0.2767586 SPIN=   0.00000
   O   0.4102516  -0.1814002   0.1396182 SPIN=   0.00000
   O   0.5054981  -0.0439960   0.3645167 SPIN=   0.00000
   S   0.3243221  -0.1650529   0.2794154 SPIN=   0.00000
   O  -0.1514539   0.0763411   0.1784481 SPIN=   0.00000
   O  -0.0479863   0.4526862   0.1423069 SPIN=   0.00000
   O  -0.3764085   0.3150910   0.2786912 SPIN=   0.00000
   O  -0.3849422   0.2584726   0.0361218 SPIN=   0.00000
   S  -0.2401977   0.2756477   0.1588920 SPIN=   0.00000
   O   0.1514539  -0.0763411  -0.3215519 SPIN=   0.00000
   O   0.0479863  -0.4526862  -0.3576931 SPIN=   0.00000
   O   0.3764085  -0.3150910  -0.2213088 SPIN=   0.00000
   O   0.3849422  -0.2584726  -0.4638782 SPIN=   0.00000
   S   0.2401977  -0.2756477  -0.3411080 SPIN=   0.00000
   F   0.2134799   0.2451504   0.4853474 SPIN=   0.00000
   F  -0.2134799  -0.2451504  -0.0146526 SPIN=   0.00000
   F  -0.2029540  -0.3235553   0.4273227 SPIN=   0.00000
   F   0.2029540   0.3235553  -0.0726773 SPIN=   0.00000
%ENDBLOCK POSITIONS_FRAC

# Note: total spin =  16.00

KPOINTS_MP_SPACING 0.07

%BLOCK SPECIES_POT
QC5
%ENDBLOCK SPECIES_POT

SNAP_TO_SYMMETRY
SYMMETRY_GENERATE

