#              Generated by Buildcell
#
# at 16:22:38 (GMT+1.0) 18th August 2020
# in /lustre/scratch/uccabz1/launch_tmp
# on node-c12o-008
# by uccabz1
#
# compiler GCC version 4.9.2
# options -cpp -iprefix /lustre/shared/ucl/apps/gcc/4.9.2/bin/../lib/gcc/x86_64-unknown-linux-gnu/4.9.2/ -mtune=corei7 -march=x86-64 -g -Og
#
# seed  1643734373  -531642053  -983108156  1134138058   298055143 -1849190940   -53269286   722216763 -1666076641  -899756548 -1347031999 -2031508483
#
#      Author: C. J. Pickard (cjp20@cam.ac.uk)
#                Space group: P-1
#

%BLOCK LATTICE_ABC
      4.59840      6.51877     13.89862
     77.28236     88.40614     79.83758
%ENDBLOCK LATTICE_ABC

%BLOCK POSITIONS_FRAC
  Li   0.3669838   0.4998789   0.1231336 SPIN=   0.00000
  Li  -0.3669838  -0.4998789  -0.1231336 SPIN=   0.00000
  Li   0.1025323   0.1773129  -0.2597328 SPIN=   0.00000
  Li  -0.1025323  -0.1773129   0.2597328 SPIN=   0.00000
  Fe  -0.3326232   0.4331964   0.3408081 SPIN=   5.21692
  Fe   0.3326232  -0.4331964  -0.3408081 SPIN=   5.21692
  Fe   0.1981608   0.2258933  -0.0582822 SPIN=   2.78308
  Fe  -0.1981608  -0.2258933   0.0582822 SPIN=   2.78308
   O   0.0272554   0.1268768   0.2127419 SPIN=   0.00000
   O   0.5387907   0.1980654   0.2107289 SPIN=   0.00000
   O   0.3891843  -0.0067982   0.0959473 SPIN=   0.00000
   O   0.4403784  -0.1683901   0.2746186 SPIN=   0.00000
   S   0.3489022   0.0374385   0.1985092 SPIN=   0.00000
   O  -0.0272554  -0.1268768  -0.2127419 SPIN=   0.00000
   O  -0.5387907  -0.1980654  -0.2107289 SPIN=   0.00000
   O  -0.3891843   0.0067982  -0.0959473 SPIN=   0.00000
   O  -0.4403784   0.1683901  -0.2746186 SPIN=   0.00000
   S  -0.3489022  -0.0374385  -0.1985092 SPIN=   0.00000
   O  -0.4737331  -0.2865826   0.4412942 SPIN=   0.00000
   O  -0.1858084   0.0008471   0.3777848 SPIN=   0.00000
   O   0.0728192  -0.3670642   0.4463712 SPIN=   0.00000
   O  -0.1972401  -0.1512150   0.5571797 SPIN=   0.00000
   S  -0.1959906  -0.2010037   0.4556575 SPIN=   0.00000
   O   0.4737331   0.2865826  -0.4412942 SPIN=   0.00000
   O   0.1858084  -0.0008471  -0.3777848 SPIN=   0.00000
   O  -0.0728192   0.3670642  -0.4463712 SPIN=   0.00000
   O   0.1972401   0.1512150  -0.5571797 SPIN=   0.00000
   S   0.1959906   0.2010037  -0.4556575 SPIN=   0.00000
   F  -0.1931843   0.2685138   0.0116422 SPIN=   0.00000
   F   0.1931843  -0.2685138  -0.0116422 SPIN=   0.00000
   F  -0.1491537   0.4780321  -0.2788826 SPIN=   0.00000
   F   0.1491537  -0.4780321   0.2788826 SPIN=   0.00000
%ENDBLOCK POSITIONS_FRAC

# Note: total spin =  16.00

KPOINTS_MP_SPACING 0.07

%BLOCK SPECIES_POT
QC5
%ENDBLOCK SPECIES_POT

SNAP_TO_SYMMETRY
SYMMETRY_GENERATE

