#              Generated by Buildcell
#
# at 09:11:19 (GMT+1.0) 4th August 2020
# in /lustre/scratch/uccabz1/launch_tmp
# on node-c12e-020
# by uccabz1
#
# compiler GCC version 4.9.2
# options -cpp -iprefix /lustre/shared/ucl/apps/gcc/4.9.2/bin/../lib/gcc/x86_64-unknown-linux-gnu/4.9.2/ -mtune=corei7 -march=x86-64 -g -Og
#
# seed -1821485549   479618344 -1828968278   821717121  -749172302 -1816465214  1573970084   382269445   -19394465 -1789087961  1148170050    66661972
#
#      Author: C. J. Pickard (cjp20@cam.ac.uk)
#                Space group: P-1
#

%BLOCK LATTICE_ABC
      4.07727      8.00402     12.44934
     81.50563     84.69450     87.95518
%ENDBLOCK LATTICE_ABC

%BLOCK POSITIONS_FRAC
  Li  -0.2022676   0.3295173  -0.0882736 SPIN=   0.00000
  Li   0.2022676  -0.3295173   0.0882736 SPIN=   0.00000
  Li   0.3296130  -0.2528852  -0.2664707 SPIN=   0.00000
  Li  -0.3296130   0.2528852   0.2664707 SPIN=   0.00000
  Fe   0.2677309   0.1587763   0.0751377 SPIN=   5.19804
  Fe  -0.2677309  -0.1587763  -0.0751377 SPIN=   5.19804
  Fe  -0.4833358  -0.2742426   0.4940828 SPIN=   2.80196
  Fe   0.4833358   0.2742426  -0.4940828 SPIN=   2.80196
   O   0.2770611  -0.5144446   0.2385756 SPIN=   0.00000
   O  -0.2571018  -0.5409314   0.3508698 SPIN=   0.00000
   O   0.0212912  -0.2660187   0.3132731 SPIN=   0.00000
   O   0.2536158  -0.5026076   0.4366739 SPIN=   0.00000
   S   0.0737166  -0.4560006   0.3348481 SPIN=   0.00000
   O  -0.2770611   0.5144446  -0.2385756 SPIN=   0.00000
   O   0.2571018   0.5409314  -0.3508698 SPIN=   0.00000
   O  -0.0212912   0.2660187  -0.3132731 SPIN=   0.00000
   O  -0.2536158   0.5026076  -0.4366739 SPIN=   0.00000
   S  -0.0737166   0.4560006  -0.3348481 SPIN=   0.00000
   O   0.0170622  -0.0885222   0.4333022 SPIN=   0.00000
   O   0.0577537   0.0107024   0.2346966 SPIN=   0.00000
   O   0.5324716   0.0377976   0.3407837 SPIN=   0.00000
   O   0.0324016   0.2177403   0.3646925 SPIN=   0.00000
   S   0.1599223   0.0444295   0.3433687 SPIN=   0.00000
   O  -0.0170622   0.0885222  -0.4333022 SPIN=   0.00000
   O  -0.0577537  -0.0107024  -0.2346966 SPIN=   0.00000
   O  -0.5324716  -0.0377976  -0.3407837 SPIN=   0.00000
   O  -0.0324016  -0.2177403  -0.3646925 SPIN=   0.00000
   S  -0.1599223  -0.0444295  -0.3433687 SPIN=   0.00000
   F  -0.1954683   0.3219399   0.1214232 SPIN=   0.00000
   F   0.1954683  -0.3219399  -0.1214232 SPIN=   0.00000
   F   0.3904092   0.1782963  -0.1371270 SPIN=   0.00000
   F  -0.3904092  -0.1782963   0.1371270 SPIN=   0.00000
%ENDBLOCK POSITIONS_FRAC

# Note: total spin =  16.00

KPOINTS_MP_SPACING 0.07

%BLOCK SPECIES_POT
QC5
%ENDBLOCK SPECIES_POT

SNAP_TO_SYMMETRY
SYMMETRY_GENERATE

