#              Generated by Buildcell
#
# at 07:42:32 (GMT+1.0) 4th August 2020
# in /lustre/scratch/uccabz1/launch_tmp
# on node-c12l-034
# by uccabz1
#
# compiler GCC version 4.9.2
# options -cpp -iprefix /lustre/shared/ucl/apps/gcc/4.9.2/bin/../lib/gcc/x86_64-unknown-linux-gnu/4.9.2/ -mtune=corei7 -march=x86-64 -g -Og
#
# seed  1722204645 -1333733189 -1348360225  1942757900   472896052 -1725678425  1157674776  1580009625  1103263346   661227889   502289060 -1451160665
#
#      Author: C. J. Pickard (cjp20@cam.ac.uk)
#                Space group: P2/c
#

%BLOCK LATTICE_ABC
      6.51324      7.41392      8.32253
     95.55008     90.00000     90.00000
%ENDBLOCK LATTICE_ABC

%BLOCK POSITIONS_FRAC
  Li   0.0860041  -0.2138604  -0.3716896 SPIN=   0.00000
  Li   0.0860041   0.2138604  -0.1283104 SPIN=   0.00000
  Li  -0.0860041   0.2138604   0.3716896 SPIN=   0.00000
  Li  -0.0860041  -0.2138604   0.1283104 SPIN=   0.00000
  Fe  -0.2962723  -0.2467836  -0.1984355 SPIN=   4.00000
  Fe  -0.2962723   0.2467836  -0.3015645 SPIN=   4.00000
  Fe   0.2962723   0.2467836   0.1984355 SPIN=   4.00000
  Fe   0.2962723  -0.2467836   0.3015645 SPIN=   4.00000
   O  -0.0239779   0.1280968   0.0931706 SPIN=   0.00000
   O  -0.3648462   0.1832838   0.2198735 SPIN=   0.00000
   O  -0.3274788  -0.0417739  -0.0180455 SPIN=   0.00000
   O  -0.2940320   0.2855715  -0.0490411 SPIN=   0.00000
   S  -0.2525837   0.1387945   0.0614894 SPIN=   0.00000
   O  -0.0239779  -0.1280968   0.4068294 SPIN=   0.00000
   O  -0.3648462  -0.1832838   0.2801265 SPIN=   0.00000
   O  -0.3274788   0.0417739   0.5180455 SPIN=   0.00000
   O  -0.2940320  -0.2855715   0.5490411 SPIN=   0.00000
   S  -0.2525837  -0.1387945   0.4385106 SPIN=   0.00000
   O   0.0239779  -0.1280968  -0.0931706 SPIN=   0.00000
   O   0.3648462  -0.1832838  -0.2198735 SPIN=   0.00000
   O   0.3274788   0.0417739   0.0180455 SPIN=   0.00000
   O   0.2940320  -0.2855715   0.0490411 SPIN=   0.00000
   S   0.2525837  -0.1387945  -0.0614894 SPIN=   0.00000
   O   0.0239779   0.1280968  -0.4068294 SPIN=   0.00000
   O   0.3648462   0.1832838  -0.2801265 SPIN=   0.00000
   O   0.3274788  -0.0417739  -0.5180455 SPIN=   0.00000
   O   0.2940320   0.2855715  -0.5490411 SPIN=   0.00000
   S   0.2525837   0.1387945  -0.4385106 SPIN=   0.00000
   F   0.2518212  -0.3729097  -0.4859245 SPIN=   0.00000
   F   0.2518212   0.3729097  -0.0140755 SPIN=   0.00000
   F  -0.2518212   0.3729097   0.4859245 SPIN=   0.00000
   F  -0.2518212  -0.3729097   0.0140755 SPIN=   0.00000
%ENDBLOCK POSITIONS_FRAC

# Note: total spin =  16.00

KPOINTS_MP_SPACING 0.07

%BLOCK SPECIES_POT
QC5
%ENDBLOCK SPECIES_POT

SNAP_TO_SYMMETRY
SYMMETRY_GENERATE

