#              Generated by Buildcell
#
# at 00:59:45 (GMT+1.0) 18th August 2020
# in /lustre/scratch/uccabz1/launch_tmp
# on node-c12p-010
# by uccabz1
#
# compiler GCC version 4.9.2
# options -cpp -iprefix /lustre/shared/ucl/apps/gcc/4.9.2/bin/../lib/gcc/x86_64-unknown-linux-gnu/4.9.2/ -mtune=corei7 -march=x86-64 -g -Og
#
# seed -1321628994 -1796101277  1774689350  -713706038  -301176497 -1818029072 -1418213815   830519917 -1299060683   728375536 -2062442144   301468927
#
#      Author: C. J. Pickard (cjp20@cam.ac.uk)
#                Space group: Pc
#

%BLOCK LATTICE_ABC
      7.43774      7.65152      7.96842
     90.00000     90.00000    118.10791
%ENDBLOCK LATTICE_ABC

%BLOCK POSITIONS_FRAC
  Li  -0.2473395  -0.3732291  -0.1903240 SPIN=   0.00000
  Li   0.2526605   0.1267709   0.1903240 SPIN=   0.00000
  Li  -0.4581554  -0.3582867   0.3194728 SPIN=   0.00000
  Li   0.0418446   0.1417133  -0.3194728 SPIN=   0.00000
  Fe   0.2846595   0.4316249  -0.0677646 SPIN=   1.86191
  Fe  -0.2153405  -0.0683751   0.0677646 SPIN=   1.86191
  Fe  -0.4021596  -0.0433983  -0.3472258 SPIN=   6.13809
  Fe   0.0978404   0.4566017   0.3472258 SPIN=   6.13809
   O  -0.2725424   0.2761519   0.6106916 SPIN=   0.00000
   O  -0.4101879   0.5132157   0.5865988 SPIN=   0.00000
   O  -0.5448509   0.2160090   0.4048876 SPIN=   0.00000
   O  -0.1960395   0.4893991   0.3592705 SPIN=   0.00000
   S  -0.3559052   0.3736939   0.4903622 SPIN=   0.00000
   O   0.2274576  -0.2238481  -0.6106916 SPIN=   0.00000
   O   0.0898121   0.0132157  -0.5865988 SPIN=   0.00000
   O  -0.0448509  -0.2839910  -0.4048876 SPIN=   0.00000
   O   0.3039605  -0.0106009  -0.3592705 SPIN=   0.00000
   S   0.1440948  -0.1263061  -0.4903622 SPIN=   0.00000
   O  -0.0266354  -0.2445094   0.1610097 SPIN=   0.00000
   O   0.1948792  -0.0504376  -0.0741313 SPIN=   0.00000
   O  -0.0070020  -0.4151052  -0.0967974 SPIN=   0.00000
   O   0.2877941  -0.2661204   0.0965273 SPIN=   0.00000
   S   0.1122590  -0.2440431   0.0216521 SPIN=   0.00000
   O  -0.5266354   0.2554906  -0.1610097 SPIN=   0.00000
   O  -0.3051208   0.4495624   0.0741313 SPIN=   0.00000
   O  -0.5070020   0.0848948   0.0967974 SPIN=   0.00000
   O  -0.2122059   0.2338796  -0.0965273 SPIN=   0.00000
   S  -0.3877410   0.2559569  -0.0216521 SPIN=   0.00000
   F   0.1080567   0.2441042   0.0851034 SPIN=   0.00000
   F  -0.3919433  -0.2558958  -0.0851034 SPIN=   0.00000
   F   0.1542084   0.3974306  -0.4148976 SPIN=   0.00000
   F  -0.3457916  -0.1025694   0.4148976 SPIN=   0.00000
%ENDBLOCK POSITIONS_FRAC

# Note: total spin =  16.00

KPOINTS_MP_SPACING 0.07

%BLOCK SPECIES_POT
QC5
%ENDBLOCK SPECIES_POT

SNAP_TO_SYMMETRY
SYMMETRY_GENERATE

