#              Generated by Buildcell
#
# at 07:22:26 (GMT+1.0) 4th August 2020
# in /lustre/scratch/uccabz1/launch_tmp
# on node-c12a-003
# by uccabz1
#
# compiler GCC version 4.9.2
# options -cpp -iprefix /lustre/shared/ucl/apps/gcc/4.9.2/bin/../lib/gcc/x86_64-unknown-linux-gnu/4.9.2/ -mtune=corei7 -march=x86-64 -g -Og
#
# seed  -377254653  1944004761   447030125  -443052400   508001030 -1834137374   192230216  -235236075    70642994   174739088   854896519  1909140368
#
#      Author: C. J. Pickard (cjp20@cam.ac.uk)
#                Space group: P21
#

%BLOCK LATTICE_ABC
      3.95955      8.67319     11.70143
     90.00000     90.00000     95.49944
%ENDBLOCK LATTICE_ABC

%BLOCK POSITIONS_FRAC
  Li  -0.1125678  -0.0484302  -0.2973582 SPIN=   0.00000
  Li   0.1125678   0.0484302   0.2026418 SPIN=   0.00000
  Li  -0.2165292  -0.3876821   0.3136619 SPIN=   0.00000
  Li   0.2165292   0.3876821  -0.1863381 SPIN=   0.00000
  Fe   0.0289080   0.3259875   0.0578469 SPIN=   4.70465
  Fe  -0.0289080  -0.3259875  -0.4421531 SPIN=   4.70465
  Fe   0.4651810   0.3042772  -0.4171853 SPIN=   3.29535
  Fe  -0.4651810  -0.3042772   0.0828147 SPIN=   3.29535
   O  -0.1795395  -0.4830248  -0.2196294 SPIN=   0.00000
   O   0.1990155  -0.2402186  -0.2384437 SPIN=   0.00000
   O   0.1687721  -0.3832961  -0.0551688 SPIN=   0.00000
   O  -0.3178367  -0.2461087  -0.1189757 SPIN=   0.00000
   S  -0.0323972  -0.3381620  -0.1580544 SPIN=   0.00000
   O   0.1795395   0.4830248   0.2803706 SPIN=   0.00000
   O  -0.1990155   0.2402186   0.2615563 SPIN=   0.00000
   O  -0.1687721   0.3832961   0.4448312 SPIN=   0.00000
   O   0.3178367   0.2461087   0.3810243 SPIN=   0.00000
   S   0.0323972   0.3381620   0.3419456 SPIN=   0.00000
   O   0.2911665  -0.1144852  -0.0004868 SPIN=   0.00000
   O   0.7116690   0.0985131   0.0617018 SPIN=   0.00000
   O   0.2084826   0.1567740  -0.0499554 SPIN=   0.00000
   O   0.6658898   0.0266804  -0.1427887 SPIN=   0.00000
   S   0.4693020   0.0418706  -0.0328823 SPIN=   0.00000
   O  -0.2911665   0.1144852   0.4995132 SPIN=   0.00000
   O  -0.7116690  -0.0985131   0.5617018 SPIN=   0.00000
   O  -0.2084826  -0.1567740   0.4500446 SPIN=   0.00000
   O  -0.6658898  -0.0266804   0.3572113 SPIN=   0.00000
   S  -0.4693020  -0.0418706   0.4671177 SPIN=   0.00000
   F   0.4162557  -0.4396615  -0.4170395 SPIN=   0.00000
   F  -0.4162557   0.4396615   0.0829605 SPIN=   0.00000
   F  -0.1345593  -0.1702581   0.1950389 SPIN=   0.00000
   F   0.1345593   0.1702581  -0.3049611 SPIN=   0.00000
%ENDBLOCK POSITIONS_FRAC

# Note: total spin =  16.00

KPOINTS_MP_SPACING 0.07

%BLOCK SPECIES_POT
QC5
%ENDBLOCK SPECIES_POT

SNAP_TO_SYMMETRY
SYMMETRY_GENERATE

