#              Generated by Buildcell
#
# at 23:33:27 (GMT+1.0) 17th August 2020
# in /lustre/scratch/uccabz1/launch_tmp
# on node-c12c-028
# by uccabz1
#
# compiler GCC version 4.9.2
# options -cpp -iprefix /lustre/shared/ucl/apps/gcc/4.9.2/bin/../lib/gcc/x86_64-unknown-linux-gnu/4.9.2/ -mtune=corei7 -march=x86-64 -g -Og
#
# seed   327414468   626911415  -464011218  -621997387   984452038  1411324663  1635548884  -781141808   -16876930  1539507702 -1754703378  -438293094
#
#      Author: C. J. Pickard (cjp20@cam.ac.uk)
#                Space group: Pba2
#

%BLOCK LATTICE_ABC
      4.44366      8.12674     11.07652
     90.00000     90.00000     90.00000
%ENDBLOCK LATTICE_ABC

%BLOCK POSITIONS_FRAC
  Li   0.2764014   0.0656288  -0.2910166 SPIN=   0.00000
  Li   0.2764014  -0.0656288   0.2910166 SPIN=   0.00000
  Li   0.2764014  -0.4343712  -0.2089834 SPIN=   0.00000
  Li   0.2764014   0.4343712   0.2089834 SPIN=   0.00000
  Fe  -0.2221900  -0.3403692   0.3129045 SPIN=   4.00000
  Fe  -0.2221900   0.3403692  -0.3129045 SPIN=   4.00000
  Fe  -0.2221900   0.1596308   0.1870955 SPIN=   4.00000
  Fe  -0.2221900  -0.1596308  -0.1870955 SPIN=   4.00000
   O  -0.0109732   0.1333571   0.4595446 SPIN=   0.00000
   O   0.1843639   0.4122827   0.4159309 SPIN=   0.00000
   O   0.5048201   0.1682797   0.3792425 SPIN=   0.00000
   O   0.3871649   0.2536848   0.5884519 SPIN=   0.00000
   S   0.2663439   0.2419011   0.4607925 SPIN=   0.00000
   O  -0.0109732  -0.1333571  -0.4595446 SPIN=   0.00000
   O   0.1843639  -0.4122827  -0.4159309 SPIN=   0.00000
   O   0.5048201  -0.1682797  -0.3792425 SPIN=   0.00000
   O   0.3871649  -0.2536848  -0.5884519 SPIN=   0.00000
   S   0.2663439  -0.2419011  -0.4607925 SPIN=   0.00000
   O  -0.0109732  -0.3666429   0.0404554 SPIN=   0.00000
   O   0.1843639  -0.0877173   0.0840691 SPIN=   0.00000
   O   0.5048201  -0.3317203   0.1207575 SPIN=   0.00000
   O   0.3871649  -0.2463152  -0.0884519 SPIN=   0.00000
   S   0.2663439  -0.2580989   0.0392075 SPIN=   0.00000
   O  -0.0109732   0.3666429  -0.0404554 SPIN=   0.00000
   O   0.1843639   0.0877173  -0.0840691 SPIN=   0.00000
   O   0.5048201   0.3317203  -0.1207575 SPIN=   0.00000
   O   0.3871649   0.2463152   0.0884519 SPIN=   0.00000
   S   0.2663439   0.2580989  -0.0392075 SPIN=   0.00000
   F  -0.1926563  -0.0883263   0.2863819 SPIN=   0.00000
   F  -0.1926563   0.0883263  -0.2863819 SPIN=   0.00000
   F  -0.1926563   0.4116737   0.2136181 SPIN=   0.00000
   F  -0.1926563  -0.4116737  -0.2136181 SPIN=   0.00000
%ENDBLOCK POSITIONS_FRAC

# Note: total spin =  16.00

KPOINTS_MP_SPACING 0.07

%BLOCK SPECIES_POT
QC5
%ENDBLOCK SPECIES_POT

SNAP_TO_SYMMETRY
SYMMETRY_GENERATE

