#              Generated by Buildcell
#
# at 00:59:40 (GMT+1.0) 18th August 2020
# in /lustre/scratch/uccabz1/launch_tmp
# on node-c12j-002
# by uccabz1
#
# compiler GCC version 4.9.2
# options -cpp -iprefix /lustre/shared/ucl/apps/gcc/4.9.2/bin/../lib/gcc/x86_64-unknown-linux-gnu/4.9.2/ -mtune=corei7 -march=x86-64 -g -Og
#
# seed  -219674055   800480382 -1698749570   533010377  -437338651   647718002  -956687956   868068052  -791764426  -863253137  1826326263  -246036238
#
#      Author: C. J. Pickard (cjp20@cam.ac.uk)
#                Space group: P42
#

%BLOCK LATTICE_ABC
      6.17446      8.04879      8.04879
     90.00000     90.00000     90.00000
%ENDBLOCK LATTICE_ABC

%BLOCK POSITIONS_FRAC
  Li  -0.1031982   0.1201471   0.2908282 SPIN=   0.00000
  Li  -0.1031982  -0.1201471  -0.2908282 SPIN=   0.00000
  Li   0.3968018  -0.2908282   0.1201471 SPIN=   0.00000
  Li   0.3968018   0.2908282  -0.1201471 SPIN=   0.00000
  Fe   0.4127311   0.0540336   0.2702959 SPIN=   4.00000
  Fe   0.4127311  -0.0540336  -0.2702959 SPIN=   4.00000
  Fe  -0.0872689  -0.2702959   0.0540336 SPIN=   4.00000
  Fe  -0.0872689   0.2702959  -0.0540336 SPIN=   4.00000
   O  -0.0067510   0.1439223  -0.3789275 SPIN=   0.00000
   O   0.3791354   0.1946334  -0.4448375 SPIN=   0.00000
   O   0.1765805   0.3952238  -0.2711562 SPIN=   0.00000
   O   0.0949408   0.3708364  -0.5712052 SPIN=   0.00000
   S   0.1609764   0.2761540  -0.4165316 SPIN=   0.00000
   O  -0.0067510  -0.1439223   0.3789275 SPIN=   0.00000
   O   0.3791354  -0.1946334   0.4448375 SPIN=   0.00000
   O   0.1765805  -0.3952238   0.2711562 SPIN=   0.00000
   O   0.0949408  -0.3708364   0.5712052 SPIN=   0.00000
   S   0.1609764  -0.2761540   0.4165316 SPIN=   0.00000
   O  -0.5067510   0.3789275   0.1439223 SPIN=   0.00000
   O  -0.1208646   0.4448375   0.1946334 SPIN=   0.00000
   O  -0.3234195   0.2711562   0.3952238 SPIN=   0.00000
   O  -0.4050592   0.5712052   0.3708364 SPIN=   0.00000
   S  -0.3390236   0.4165316   0.2761540 SPIN=   0.00000
   O  -0.5067510  -0.3789275  -0.1439223 SPIN=   0.00000
   O  -0.1208646  -0.4448375  -0.1946334 SPIN=   0.00000
   O  -0.3234195  -0.2711562  -0.3952238 SPIN=   0.00000
   O  -0.4050592  -0.5712052  -0.3708364 SPIN=   0.00000
   S  -0.3390236  -0.4165316  -0.2761540 SPIN=   0.00000
   F   0.1530121   0.1800034   0.1647405 SPIN=   0.00000
   F   0.1530121  -0.1800034  -0.1647405 SPIN=   0.00000
   F  -0.3469879  -0.1647405   0.1800034 SPIN=   0.00000
   F  -0.3469879   0.1647405  -0.1800034 SPIN=   0.00000
%ENDBLOCK POSITIONS_FRAC

# Note: total spin =  16.00

KPOINTS_MP_SPACING 0.07

%BLOCK SPECIES_POT
QC5
%ENDBLOCK SPECIES_POT

SNAP_TO_SYMMETRY
SYMMETRY_GENERATE

