#              Generated by Buildcell
#
# at 23:39:20 (GMT+1.0) 17th August 2020
# in /lustre/scratch/uccabz1/launch_tmp
# on node-c12m-026
# by uccabz1
#
# compiler GCC version 4.9.2
# options -cpp -iprefix /lustre/shared/ucl/apps/gcc/4.9.2/bin/../lib/gcc/x86_64-unknown-linux-gnu/4.9.2/ -mtune=corei7 -march=x86-64 -g -Og
#
# seed   705388757  1850571885  1681416340  -783664363  -916463743    59645715 -1587488165  -873327793  1520435121  -246222556  -161009891   665432815
#
#      Author: C. J. Pickard (cjp20@cam.ac.uk)
#                Space group: P21
#

%BLOCK LATTICE_ABC
      5.48041      7.85412      9.34568
     90.00000     90.00000     96.09432
%ENDBLOCK LATTICE_ABC

%BLOCK POSITIONS_FRAC
  Li   0.3993512   0.1374759  -0.0563236 SPIN=   0.00000
  Li  -0.3993512  -0.1374759   0.4436764 SPIN=   0.00000
  Li  -0.0161213   0.2906327   0.3794171 SPIN=   0.00000
  Li   0.0161213  -0.2906327  -0.1205829 SPIN=   0.00000
  Fe  -0.4923993  -0.2801046  -0.2638747 SPIN=   2.98735
  Fe   0.4923993   0.2801046   0.2361253 SPIN=   2.98735
  Fe  -0.4882992  -0.2321396   0.1382029 SPIN=   5.01265
  Fe   0.4882992   0.2321396  -0.3617971 SPIN=   5.01265
   O   0.1845832   0.2447931   0.1064638 SPIN=   0.00000
   O  -0.0304119   0.4816982   0.2027092 SPIN=   0.00000
   O  -0.2401302   0.2772629   0.0295878 SPIN=   0.00000
   O   0.1026565   0.4861143  -0.0504420 SPIN=   0.00000
   S   0.0041744   0.3724671   0.0720797 SPIN=   0.00000
   O  -0.1845832  -0.2447931  -0.3935362 SPIN=   0.00000
   O   0.0304119  -0.4816982  -0.2972908 SPIN=   0.00000
   O   0.2401302  -0.2772629  -0.4704122 SPIN=   0.00000
   O  -0.1026565  -0.4861143  -0.5504420 SPIN=   0.00000
   S  -0.0041744  -0.3724671  -0.4279203 SPIN=   0.00000
   O  -0.0176553  -0.0428649  -0.1113384 SPIN=   0.00000
   O  -0.0215515   0.2502083  -0.2079769 SPIN=   0.00000
   O  -0.2901073   0.0098415  -0.3141588 SPIN=   0.00000
   O   0.1593949   0.0292475  -0.3501075 SPIN=   0.00000
   S  -0.0424798   0.0616081  -0.2458954 SPIN=   0.00000
   O   0.0176553   0.0428649   0.3886616 SPIN=   0.00000
   O   0.0215515  -0.2502083   0.2920231 SPIN=   0.00000
   O   0.2901073  -0.0098415   0.1858412 SPIN=   0.00000
   O  -0.1593949  -0.0292475   0.1498925 SPIN=   0.00000
   S   0.0424798  -0.0616081   0.2541046 SPIN=   0.00000
   F  -0.4934152   0.3866599  -0.2028296 SPIN=   0.00000
   F   0.4934152  -0.3866599   0.2971704 SPIN=   0.00000
   F   0.4209917  -0.1793713  -0.0586599 SPIN=   0.00000
   F  -0.4209917   0.1793713   0.4413401 SPIN=   0.00000
%ENDBLOCK POSITIONS_FRAC

# Note: total spin =  16.00

KPOINTS_MP_SPACING 0.07

%BLOCK SPECIES_POT
QC5
%ENDBLOCK SPECIES_POT

SNAP_TO_SYMMETRY
SYMMETRY_GENERATE

