#              Generated by Buildcell
#
# at 01:14:41 (GMT+1.0) 18th August 2020
# in /lustre/scratch/uccabz1/launch_tmp
# on node-c12n-029
# by uccabz1
#
# compiler GCC version 4.9.2
# options -cpp -iprefix /lustre/shared/ucl/apps/gcc/4.9.2/bin/../lib/gcc/x86_64-unknown-linux-gnu/4.9.2/ -mtune=corei7 -march=x86-64 -g -Og
#
# seed  -498839798  1737117057  -335655860  1278485027  -291576030 -1378729528  1681776860  -858711985   -89081813 -1483437283 -1347536826  -518012277
#
#      Author: C. J. Pickard (cjp20@cam.ac.uk)
#                Space group: P21
#

%BLOCK LATTICE_ABC
      4.63720      5.86771     14.95938
    100.67277     90.00000     90.00000
%ENDBLOCK LATTICE_ABC

%BLOCK POSITIONS_FRAC
  Li  -0.0154170   0.2584032   0.4645790 SPIN=   0.00000
  Li   0.4845830  -0.2584032  -0.4645790 SPIN=   0.00000
  Li  -0.3871274  -0.3614982  -0.1402928 SPIN=   0.00000
  Li   0.1128726   0.3614982   0.1402928 SPIN=   0.00000
  Fe  -0.3846593   0.2593394   0.0206365 SPIN=   2.51867
  Fe   0.1153407  -0.2593394  -0.0206365 SPIN=   2.51867
  Fe   0.1178979   0.1657727  -0.1821149 SPIN=   5.48133
  Fe  -0.3821021  -0.1657727   0.1821149 SPIN=   5.48133
   O   0.2854120   0.0564934  -0.4046893 SPIN=   0.00000
   O  -0.0980781  -0.0228338  -0.2995302 SPIN=   0.00000
   O  -0.0262465  -0.2891602  -0.4466888 SPIN=   0.00000
   O  -0.2274902   0.1029513  -0.4433966 SPIN=   0.00000
   S  -0.0166007  -0.0381373  -0.3985762 SPIN=   0.00000
   O   0.7854120  -0.0564934   0.4046893 SPIN=   0.00000
   O   0.4019219   0.0228338   0.2995302 SPIN=   0.00000
   O   0.4737535   0.2891602   0.4466888 SPIN=   0.00000
   O   0.2725098  -0.1029513   0.4433966 SPIN=   0.00000
   S   0.4833993   0.0381373   0.3985762 SPIN=   0.00000
   O   0.3071069  -0.4695778   0.3445688 SPIN=   0.00000
   O  -0.1814797  -0.4628259   0.4115786 SPIN=   0.00000
   O  -0.0715654  -0.7325845   0.2678961 SPIN=   0.00000
   O  -0.1031998  -0.3106510   0.2698562 SPIN=   0.00000
   S  -0.0122845  -0.4939098   0.3234749 SPIN=   0.00000
   O   0.8071069   0.4695778  -0.3445688 SPIN=   0.00000
   O   0.3185203   0.4628259  -0.4115786 SPIN=   0.00000
   O   0.4284346   0.7325845  -0.2678961 SPIN=   0.00000
   O   0.3968002   0.3106510  -0.2698562 SPIN=   0.00000
   S   0.4877155   0.4939098  -0.3234749 SPIN=   0.00000
   F   0.4912256   0.3313670  -0.0931809 SPIN=   0.00000
   F  -0.0087744  -0.3313670   0.0931809 SPIN=   0.00000
   F   0.4906111   0.1944417   0.1506122 SPIN=   0.00000
   F  -0.0093889  -0.1944417  -0.1506122 SPIN=   0.00000
%ENDBLOCK POSITIONS_FRAC

# Note: total spin =  16.00

KPOINTS_MP_SPACING 0.07

%BLOCK SPECIES_POT
QC5
%ENDBLOCK SPECIES_POT

SNAP_TO_SYMMETRY
SYMMETRY_GENERATE

