#              Generated by Buildcell
#
# at 10:25:11 (GMT+1.0) 4th August 2020
# in /lustre/scratch/uccabz1/launch_tmp
# on node-c12c-028
# by uccabz1
#
# compiler GCC version 4.9.2
# options -cpp -iprefix /lustre/shared/ucl/apps/gcc/4.9.2/bin/../lib/gcc/x86_64-unknown-linux-gnu/4.9.2/ -mtune=corei7 -march=x86-64 -g -Og
#
# seed  1628419774  1880733926  -193163635  1892622199   145518774  -214552223   870292420  1223187484  1646519317 -1965973054   755889583   830116198
#
#      Author: C. J. Pickard (cjp20@cam.ac.uk)
#                Space group: Pc
#

%BLOCK LATTICE_ABC
      4.80268      8.96803      9.29986
     90.00000     90.00000     93.00216
%ENDBLOCK LATTICE_ABC

%BLOCK POSITIONS_FRAC
  Li  -0.2777297  -0.2945939  -0.3417667 SPIN=   0.00000
  Li   0.2222703   0.2054061   0.3417667 SPIN=   0.00000
  Li   0.2065566   0.4358112   0.0370622 SPIN=   0.00000
  Li  -0.2934434  -0.0641888  -0.0370622 SPIN=   0.00000
  Fe   0.3719148   0.1850047  -0.1624898 SPIN=   2.24926
  Fe  -0.1280852  -0.3149953   0.1624898 SPIN=   2.24926
  Fe  -0.2248866   0.0515018  -0.4707609 SPIN=   5.75074
  Fe   0.2751134  -0.4484982   0.4707609 SPIN=   5.75074
   O  -0.0101818   0.4447430   0.2363776 SPIN=   0.00000
   O  -0.1768926   0.1835512   0.2836987 SPIN=   0.00000
   O  -0.4713181   0.3511068   0.1457845 SPIN=   0.00000
   O  -0.3987081   0.3913996   0.4066608 SPIN=   0.00000
   S  -0.2642752   0.3427001   0.2681304 SPIN=   0.00000
   O   0.4898182  -0.0552570  -0.2363776 SPIN=   0.00000
   O   0.3231074  -0.3164488  -0.2836987 SPIN=   0.00000
   O   0.0286819  -0.1488932  -0.1457845 SPIN=   0.00000
   O   0.1012919  -0.1086004  -0.4066608 SPIN=   0.00000
   S   0.2357248  -0.1572999  -0.2681304 SPIN=   0.00000
   O   0.7260184  -0.0909725   0.2051088 SPIN=   0.00000
   O   0.2360382  -0.1697142   0.1499876 SPIN=   0.00000
   O   0.3793554   0.0990580   0.1632444 SPIN=   0.00000
   O   0.3561703  -0.0537671   0.3849256 SPIN=   0.00000
   S   0.4243956  -0.0538490   0.2258166 SPIN=   0.00000
   O   0.2260184   0.4090275  -0.2051088 SPIN=   0.00000
   O  -0.2639618   0.3302858  -0.1499876 SPIN=   0.00000
   O  -0.1206446   0.5990580  -0.1632444 SPIN=   0.00000
   O  -0.1438297   0.4462329  -0.3849256 SPIN=   0.00000
   S  -0.0756044   0.4461510  -0.2258166 SPIN=   0.00000
   F   0.2544393   0.1908395  -0.4642382 SPIN=   0.00000
   F  -0.2455607  -0.3091605   0.4642382 SPIN=   0.00000
   F   0.4380090  -0.3968703   0.0228484 SPIN=   0.00000
   F  -0.0619910   0.1031297  -0.0228484 SPIN=   0.00000
%ENDBLOCK POSITIONS_FRAC

# Note: total spin =  16.00

KPOINTS_MP_SPACING 0.07

%BLOCK SPECIES_POT
QC5
%ENDBLOCK SPECIES_POT

SNAP_TO_SYMMETRY
SYMMETRY_GENERATE

