#              Generated by Buildcell
#
# at 06:59:47 (GMT+1.0) 4th August 2020
# in /lustre/scratch/uccabz1/launch_tmp
# on node-c12c-030
# by uccabz1
#
# compiler GCC version 4.9.2
# options -cpp -iprefix /lustre/shared/ucl/apps/gcc/4.9.2/bin/../lib/gcc/x86_64-unknown-linux-gnu/4.9.2/ -mtune=corei7 -march=x86-64 -g -Og
#
# seed   744302408  -347099676   965716298  1779599510  1808012152   348480624 -1714073741  1559188851  1836049258   529774067   770382384 -1687530454
#
#      Author: C. J. Pickard (cjp20@cam.ac.uk)
#                Space group: P43
#

%BLOCK LATTICE_ABC
      5.65973      5.65973     12.48729
     90.00000     90.00000     90.00000
%ENDBLOCK LATTICE_ABC

%BLOCK POSITIONS_FRAC
  Li   0.2659973   0.3438259   0.2912421 SPIN=   0.00000
  Li  -0.2659973  -0.3438259  -0.2087579 SPIN=   0.00000
  Li  -0.3438259   0.2659973  -0.4587579 SPIN=   0.00000
  Li   0.3438259  -0.2659973   0.0412421 SPIN=   0.00000
  Fe   0.1001376   0.3100997  -0.2997692 SPIN=   4.00000
  Fe  -0.1001376  -0.3100997   0.2002308 SPIN=   4.00000
  Fe  -0.3100997   0.1001376  -0.0497692 SPIN=   4.00000
  Fe   0.3100997  -0.1001376   0.4502308 SPIN=   4.00000
   O   0.0149719   0.0864078   0.1179993 SPIN=   0.00000
   O   0.1899232   0.4838675   0.1412407 SPIN=   0.00000
   O   0.1003283   0.3345100  -0.0405511 SPIN=   0.00000
   O   0.4289492   0.1602038   0.0636321 SPIN=   0.00000
   S   0.1835431   0.2662473   0.0705802 SPIN=   0.00000
   O  -0.0149719  -0.0864078  -0.3820007 SPIN=   0.00000
   O  -0.1899232  -0.4838675  -0.3587593 SPIN=   0.00000
   O  -0.1003283  -0.3345100  -0.5405511 SPIN=   0.00000
   O  -0.4289492  -0.1602038  -0.4363679 SPIN=   0.00000
   S  -0.1835431  -0.2662473  -0.4294198 SPIN=   0.00000
   O  -0.0864078   0.0149719   0.3679993 SPIN=   0.00000
   O  -0.4838675   0.1899232   0.3912407 SPIN=   0.00000
   O  -0.3345100   0.1003283   0.2094489 SPIN=   0.00000
   O  -0.1602038   0.4289492   0.3136321 SPIN=   0.00000
   S  -0.2662473   0.1835431   0.3205802 SPIN=   0.00000
   O   0.0864078  -0.0149719  -0.1320007 SPIN=   0.00000
   O   0.4838675  -0.1899232  -0.1087593 SPIN=   0.00000
   O   0.3345100  -0.1003283  -0.2905511 SPIN=   0.00000
   O   0.1602038  -0.4289492  -0.1863679 SPIN=   0.00000
   S   0.2662473  -0.1835431  -0.1794198 SPIN=   0.00000
   F  -0.3279061  -0.3705222   0.0861160 SPIN=   0.00000
   F   0.3279061   0.3705222  -0.4138840 SPIN=   0.00000
   F   0.3705222  -0.3279061   0.3361160 SPIN=   0.00000
   F  -0.3705222   0.3279061  -0.1638840 SPIN=   0.00000
%ENDBLOCK POSITIONS_FRAC

# Note: total spin =  16.00

KPOINTS_MP_SPACING 0.07

%BLOCK SPECIES_POT
QC5
%ENDBLOCK SPECIES_POT

SNAP_TO_SYMMETRY
SYMMETRY_GENERATE

