#              Generated by Buildcell
#
# at 23:22:50 (GMT+1.0) 17th August 2020
# in /lustre/scratch/uccabz1/launch_tmp
# on node-c12n-006
# by uccabz1
#
# compiler GCC version 4.9.2
# options -cpp -iprefix /lustre/shared/ucl/apps/gcc/4.9.2/bin/../lib/gcc/x86_64-unknown-linux-gnu/4.9.2/ -mtune=corei7 -march=x86-64 -g -Og
#
# seed  1789549359 -1150603684  -472535711  -758916117 -2001552504 -1714003717 -1914795133  1035841240  -703283893    69365796  1575242052   733281360
#
#      Author: C. J. Pickard (cjp20@cam.ac.uk)
#                Space group: P2
#

%BLOCK LATTICE_ABC
      4.12751      6.82254     14.24349
     94.24123     90.00000     90.00000
%ENDBLOCK LATTICE_ABC

%BLOCK POSITIONS_FRAC
  Li   0.2193757  -0.4736919   0.1802417 SPIN=   0.00000
  Li   0.2193757   0.4736919  -0.1802417 SPIN=   0.00000
  Li   0.4496234  -0.2528283   0.4314099 SPIN=   0.00000
  Li   0.4496234   0.2528283  -0.4314099 SPIN=   0.00000
  Fe   0.2385972   0.0661690  -0.2623359 SPIN=   5.11238
  Fe   0.2385972  -0.0661690   0.2623359 SPIN=   5.11238
  Fe  -0.2680274  -0.2680924   0.0702262 SPIN=   2.88762
  Fe  -0.2680274   0.2680924  -0.0702262 SPIN=   2.88762
   O  -0.4636295   0.2198786   0.4312919 SPIN=   0.00000
   O   0.0263788   0.0111225   0.4147309 SPIN=   0.00000
   O   0.0491078   0.3319562   0.5077036 SPIN=   0.00000
   O  -0.0033062   0.3199677   0.3342840 SPIN=   0.00000
   S  -0.0978623   0.2207312   0.4220026 SPIN=   0.00000
   O  -0.4636295  -0.2198786  -0.4312919 SPIN=   0.00000
   O   0.0263788  -0.0111225  -0.4147309 SPIN=   0.00000
   O   0.0491078  -0.3319562  -0.5077036 SPIN=   0.00000
   O  -0.0033062  -0.3199677  -0.3342840 SPIN=   0.00000
   S  -0.0978623  -0.2207312  -0.4220026 SPIN=   0.00000
   O  -0.4990876  -0.2897370  -0.2400018 SPIN=   0.00000
   O   0.0199738  -0.1417957  -0.1840463 SPIN=   0.00000
   O  -0.1855089  -0.4414820  -0.1162291 SPIN=   0.00000
   O  -0.4612706  -0.1226913  -0.0801251 SPIN=   0.00000
   S  -0.2814733  -0.2489265  -0.1551006 SPIN=   0.00000
   O  -0.4990876   0.2897370   0.2400018 SPIN=   0.00000
   O   0.0199738   0.1417957   0.1840463 SPIN=   0.00000
   O  -0.1855089   0.4414820   0.1162291 SPIN=   0.00000
   O  -0.4612706   0.1226913   0.0801251 SPIN=   0.00000
   S  -0.2814733   0.2489265   0.1551006 SPIN=   0.00000
   F   0.2089888  -0.2370414   0.0797992 SPIN=   0.00000
   F   0.2089888   0.2370414  -0.0797992 SPIN=   0.00000
   F  -0.2992917   0.3110393  -0.3250926 SPIN=   0.00000
   F  -0.2992917  -0.3110393   0.3250926 SPIN=   0.00000
%ENDBLOCK POSITIONS_FRAC

# Note: total spin =  16.00

KPOINTS_MP_SPACING 0.07

%BLOCK SPECIES_POT
QC5
%ENDBLOCK SPECIES_POT

SNAP_TO_SYMMETRY
SYMMETRY_GENERATE

