#              Generated by Buildcell
#
# at 06:12:19 (GMT+1.0) 4th August 2020
# in /lustre/scratch/uccabz1/launch_tmp
# on node-c12j-011
# by uccabz1
#
# compiler GCC version 4.9.2
# options -cpp -iprefix /lustre/shared/ucl/apps/gcc/4.9.2/bin/../lib/gcc/x86_64-unknown-linux-gnu/4.9.2/ -mtune=corei7 -march=x86-64 -g -Og
#
# seed   295679143 -1430952290   394867530 -1523797559 -1921092755 -1957427190  -565993398   740068156  1150172035   241929323  -723427262  1340190324
#
#      Author: C. J. Pickard (cjp20@cam.ac.uk)
#                Space group: Cm
#

%BLOCK LATTICE_ABC
      7.02262      7.60145      7.60145
     80.98092     87.30891     87.30891
%ENDBLOCK LATTICE_ABC

%BLOCK POSITIONS_FRAC
  Li   0.4843876   0.3828717  -0.0677909 SPIN=   0.00000
  Li   0.4843876  -0.0677909   0.3828717 SPIN=   0.00000
  Li  -0.0247857   0.0212578   0.4738783 SPIN=   0.00000
  Li  -0.0247857   0.4738783   0.0212578 SPIN=   0.00000
  Fe  -0.2906975  -0.1597848  -0.1597848 SPIN=   9.63491
  Fe   0.3268439  -0.3590645  -0.3590645 SPIN=   0.38023
  Fe  -0.1480521  -0.4689084  -0.4689084 SPIN=   2.13505
  Fe  -0.2868740   0.2321899   0.2321899 SPIN=   3.84981
   O  -0.2961825   0.2952290  -0.3414613 SPIN=   0.00000
   O  -0.6443996   0.3517660  -0.3026561 SPIN=   0.00000
   O  -0.5082407   0.0425713  -0.2536827 SPIN=   0.00000
   O  -0.5145186   0.2130184  -0.5588922 SPIN=   0.00000
   S  -0.4908354   0.2256462  -0.3641731 SPIN=   0.00000
   O  -0.2961825  -0.3414613   0.2952290 SPIN=   0.00000
   O  -0.6443996  -0.3026561   0.3517660 SPIN=   0.00000
   O  -0.5082407  -0.2536827   0.0425713 SPIN=   0.00000
   O  -0.5145186  -0.5588922   0.2130184 SPIN=   0.00000
   S  -0.4908354  -0.3641731   0.2256462 SPIN=   0.00000
   O  -0.0996591   0.0542971  -0.2636942 SPIN=   0.00000
   O   0.1384506   0.2330528  -0.4551331 SPIN=   0.00000
   O   0.2042779  -0.0891659  -0.3565875 SPIN=   0.00000
   O   0.2032245   0.1214843  -0.1390965 SPIN=   0.00000
   O  -0.0996591  -0.2636942   0.0542971 SPIN=   0.00000
   O   0.1384506  -0.4551331   0.2330528 SPIN=   0.00000
   O   0.2042779  -0.3565875  -0.0891659 SPIN=   0.00000
   O   0.2032245  -0.1390965   0.1214843 SPIN=   0.00000
   S   0.1848500   0.2440268   0.2440268 SPIN=   0.00000
   S   0.1595005  -0.0845066  -0.0845066 SPIN=   0.00000
   F   0.0091629   0.4144839  -0.2074804 SPIN=   0.00000
   F   0.0091629  -0.2074804   0.4144839 SPIN=   0.00000
   F  -0.4276193  -0.2986198  -0.2986198 SPIN=   0.00000
   F  -0.3070792   0.0720580   0.0720580 SPIN=   0.00000
%ENDBLOCK POSITIONS_FRAC

# Note: total spin =  16.00

KPOINTS_MP_SPACING 0.07

%BLOCK SPECIES_POT
QC5
%ENDBLOCK SPECIES_POT

SNAP_TO_SYMMETRY
SYMMETRY_GENERATE

