#              Generated by Buildcell
#
# at 10:13:17 (GMT+1.0) 4th August 2020
# in /lustre/scratch/uccabz1/launch_tmp
# on node-c12f-035
# by uccabz1
#
# compiler GCC version 4.9.2
# options -cpp -iprefix /lustre/shared/ucl/apps/gcc/4.9.2/bin/../lib/gcc/x86_64-unknown-linux-gnu/4.9.2/ -mtune=corei7 -march=x86-64 -g -Og
#
# seed -1789914943    52819844 -1774323436  -347325085   978787960  -198829113 -1575091211   843356787 -1764810431   836107760 -1493569249  -639571039
#
#      Author: C. J. Pickard (cjp20@cam.ac.uk)
#                Space group: Pc
#

%BLOCK LATTICE_ABC
      5.13256      8.47121      9.28317
     90.00000     90.00000     97.68266
%ENDBLOCK LATTICE_ABC

%BLOCK POSITIONS_FRAC
  Li   0.4214626  -0.0443986   0.0656550 SPIN=   0.00000
  Li  -0.0785374   0.4556014  -0.0656550 SPIN=   0.00000
  Li  -0.2561694   0.2505873   0.3106929 SPIN=   0.00000
  Li   0.2438306  -0.2494127  -0.3106929 SPIN=   0.00000
  Fe   0.3889208  -0.3985493   0.1050408 SPIN=   1.92975
  Fe  -0.1110792   0.1014507  -0.1050408 SPIN=   1.92975
  Fe   0.4161636   0.3909689  -0.2312677 SPIN=   6.07025
  Fe  -0.0838364  -0.1090311   0.2312677 SPIN=   6.07025
   O  -0.3009938  -0.4003974  -0.3298257 SPIN=   0.00000
   O  -0.5062798  -0.2412928  -0.1489765 SPIN=   0.00000
   O  -0.1847390  -0.1073852  -0.3231793 SPIN=   0.00000
   O  -0.0354778  -0.2733233  -0.1282597 SPIN=   0.00000
   S  -0.2568726  -0.2555997  -0.2325603 SPIN=   0.00000
   O   0.1990062   0.0996026   0.3298257 SPIN=   0.00000
   O  -0.0062798   0.2587072   0.1489765 SPIN=   0.00000
   O   0.3152610   0.3926148   0.3231793 SPIN=   0.00000
   O   0.4645222   0.2266767   0.1282597 SPIN=   0.00000
   S   0.2431274   0.2444003   0.2325603 SPIN=   0.00000
   O  -0.1356796   0.1319920  -0.5176950 SPIN=   0.00000
   O  -0.5371972  -0.0479562  -0.4500566 SPIN=   0.00000
   O  -0.5604427   0.2378402  -0.4947438 SPIN=   0.00000
   O  -0.3353051   0.1548706  -0.2771939 SPIN=   0.00000
   S  -0.3921562   0.1191866  -0.4349223 SPIN=   0.00000
   O   0.3643204  -0.3680080   0.5176950 SPIN=   0.00000
   O  -0.0371972  -0.5479562   0.4500566 SPIN=   0.00000
   O  -0.0604427  -0.2621598   0.4947438 SPIN=   0.00000
   O   0.1646949  -0.3451294   0.2771939 SPIN=   0.00000
   S   0.1078438  -0.3808134   0.4349223 SPIN=   0.00000
   F  -0.2303434  -0.4740851   0.1030070 SPIN=   0.00000
   F   0.2696566   0.0259149  -0.1030070 SPIN=   0.00000
   F  -0.4358004  -0.1050635   0.2405501 SPIN=   0.00000
   F   0.0641996   0.3949365  -0.2405501 SPIN=   0.00000
%ENDBLOCK POSITIONS_FRAC

# Note: total spin =  16.00

KPOINTS_MP_SPACING 0.07

%BLOCK SPECIES_POT
QC5
%ENDBLOCK SPECIES_POT

SNAP_TO_SYMMETRY
SYMMETRY_GENERATE

