#              Generated by Buildcell
#
# at 10:51:50 (GMT+1.0) 4th August 2020
# in /lustre/scratch/uccabz1/launch_tmp
# on node-c12d-010
# by uccabz1
#
# compiler GCC version 4.9.2
# options -cpp -iprefix /lustre/shared/ucl/apps/gcc/4.9.2/bin/../lib/gcc/x86_64-unknown-linux-gnu/4.9.2/ -mtune=corei7 -march=x86-64 -g -Og
#
# seed  1685382382  -287466862 -2093099690 -1068429544  -572132231  1241079765  -197173413  1915446029  1301756090  1465067496  -670727059    51937503
#
#      Author: C. J. Pickard (cjp20@cam.ac.uk)
#                Space group: P21
#

%BLOCK LATTICE_ABC
      4.87124      6.95577     11.84032
     90.00000     90.00000     94.41127
%ENDBLOCK LATTICE_ABC

%BLOCK POSITIONS_FRAC
  Li  -0.2410745   0.3714853  -0.0300895 SPIN=   0.00000
  Li   0.2410745  -0.3714853   0.4699105 SPIN=   0.00000
  Li   0.2808723   0.1856463  -0.2479253 SPIN=   0.00000
  Li  -0.2808723  -0.1856463   0.2520747 SPIN=   0.00000
  Fe   0.1671238  -0.4019302   0.1158386 SPIN=   5.20566
  Fe  -0.1671238   0.4019302  -0.3841614 SPIN=   5.20566
  Fe  -0.1238952  -0.1032822  -0.1404204 SPIN=   2.79434
  Fe   0.1238952   0.1032822   0.3595796 SPIN=   2.79434
   O  -0.0802093   0.3257091   0.2221535 SPIN=   0.00000
   O  -0.4999838   0.2421068   0.3351008 SPIN=   0.00000
   O  -0.4957583   0.5031587   0.1929433 SPIN=   0.00000
   O  -0.2243544   0.5506650   0.3687914 SPIN=   0.00000
   S  -0.3250765   0.4054099   0.2797472 SPIN=   0.00000
   O   0.0802093  -0.3257091  -0.2778465 SPIN=   0.00000
   O   0.4999838  -0.2421068  -0.1648992 SPIN=   0.00000
   O   0.4957583  -0.5031587  -0.3070567 SPIN=   0.00000
   O   0.2243544  -0.5506650  -0.1312086 SPIN=   0.00000
   S   0.3250765  -0.4054099  -0.2202528 SPIN=   0.00000
   O  -0.2501712   0.0862543  -0.5399491 SPIN=   0.00000
   O  -0.3593156  -0.2576040  -0.4923795 SPIN=   0.00000
   O  -0.5736347  -0.0040101  -0.3842121 SPIN=   0.00000
   O  -0.0767330  -0.0464167  -0.3619936 SPIN=   0.00000
   S  -0.3149636  -0.0554441  -0.4446336 SPIN=   0.00000
   O   0.2501712  -0.0862543  -0.0399491 SPIN=   0.00000
   O   0.3593156   0.2576040   0.0076205 SPIN=   0.00000
   O   0.5736347   0.0040101   0.1157879 SPIN=   0.00000
   O   0.0767330   0.0464167   0.1380064 SPIN=   0.00000
   S   0.3149636   0.0554441   0.0553664 SPIN=   0.00000
   F  -0.1641179  -0.3734869   0.0082428 SPIN=   0.00000
   F   0.1641179   0.3734869  -0.4917572 SPIN=   0.00000
   F  -0.2382637   0.2016325  -0.1789720 SPIN=   0.00000
   F   0.2382637  -0.2016325   0.3210280 SPIN=   0.00000
%ENDBLOCK POSITIONS_FRAC

# Note: total spin =  16.00

KPOINTS_MP_SPACING 0.07

%BLOCK SPECIES_POT
QC5
%ENDBLOCK SPECIES_POT

SNAP_TO_SYMMETRY
SYMMETRY_GENERATE

