#              Generated by Buildcell
#
# at 08:58:06 (GMT+1.0) 4th August 2020
# in /lustre/scratch/uccabz1/launch_tmp
# on node-c12n-031
# by uccabz1
#
# compiler GCC version 4.9.2
# options -cpp -iprefix /lustre/shared/ucl/apps/gcc/4.9.2/bin/../lib/gcc/x86_64-unknown-linux-gnu/4.9.2/ -mtune=corei7 -march=x86-64 -g -Og
#
# seed  1231143717 -1192836066   -45542942 -1521403382 -1618944298  -653988239 -1844264511  1333604307 -1224460878   565350169   427721929  1956200676
#
#      Author: C. J. Pickard (cjp20@cam.ac.uk)
#                Space group: P41
#

%BLOCK LATTICE_ABC
      4.30871      9.63510      9.63510
     90.00000     90.00000     90.00000
%ENDBLOCK LATTICE_ABC

%BLOCK POSITIONS_FRAC
  Li  -0.0127436  -0.3713769   0.0846017 SPIN=   0.00000
  Li   0.4872564   0.3713769  -0.0846017 SPIN=   0.00000
  Li   0.2372564   0.0846017   0.3713769 SPIN=   0.00000
  Li  -0.2627436  -0.0846017  -0.3713769 SPIN=   0.00000
  Fe   0.2322799  -0.2473929   0.4585084 SPIN=   4.00000
  Fe  -0.2677201   0.2473929  -0.4585084 SPIN=   4.00000
  Fe   0.4822799   0.4585084   0.2473929 SPIN=   4.00000
  Fe  -0.0177201  -0.4585084  -0.2473929 SPIN=   4.00000
   O  -0.6153519  -0.2327003  -0.2110568 SPIN=   0.00000
   O  -0.6810657  -0.1805505   0.0387309 SPIN=   0.00000
   O  -0.1570049  -0.2252740  -0.0564274 SPIN=   0.00000
   O  -0.5354366  -0.4174450  -0.0362158 SPIN=   0.00000
   S  -0.4972148  -0.2639924  -0.0662423 SPIN=   0.00000
   O  -0.1153519   0.2327003   0.2110568 SPIN=   0.00000
   O  -0.1810657   0.1805505  -0.0387309 SPIN=   0.00000
   O   0.3429951   0.2252740   0.0564274 SPIN=   0.00000
   O  -0.0354366   0.4174450   0.0362158 SPIN=   0.00000
   S   0.0027852   0.2639924   0.0662423 SPIN=   0.00000
   O  -0.3653519  -0.2110568   0.2327003 SPIN=   0.00000
   O  -0.4310657   0.0387309   0.1805505 SPIN=   0.00000
   O   0.0929951  -0.0564274   0.2252740 SPIN=   0.00000
   O  -0.2854366  -0.0362158   0.4174450 SPIN=   0.00000
   S  -0.2472148  -0.0662423   0.2639924 SPIN=   0.00000
   O   0.1346481   0.2110568  -0.2327003 SPIN=   0.00000
   O   0.0689343  -0.0387309  -0.1805505 SPIN=   0.00000
   O   0.5929951   0.0564274  -0.2252740 SPIN=   0.00000
   O   0.2145634   0.0362158  -0.4174450 SPIN=   0.00000
   S   0.2527852   0.0662423  -0.2639924 SPIN=   0.00000
   F  -0.0935249  -0.2569567  -0.4074385 SPIN=   0.00000
   F   0.4064751   0.2569567   0.4074385 SPIN=   0.00000
   F   0.1564751  -0.4074385   0.2569567 SPIN=   0.00000
   F  -0.3435249   0.4074385  -0.2569567 SPIN=   0.00000
%ENDBLOCK POSITIONS_FRAC

# Note: total spin =  16.00

KPOINTS_MP_SPACING 0.07

%BLOCK SPECIES_POT
QC5
%ENDBLOCK SPECIES_POT

SNAP_TO_SYMMETRY
SYMMETRY_GENERATE

