#              Generated by Buildcell
#
# at 01:13:57 (GMT+1.0) 18th August 2020
# in /lustre/scratch/uccabz1/launch_tmp
# on node-c12e-036
# by uccabz1
#
# compiler GCC version 4.9.2
# options -cpp -iprefix /lustre/shared/ucl/apps/gcc/4.9.2/bin/../lib/gcc/x86_64-unknown-linux-gnu/4.9.2/ -mtune=corei7 -march=x86-64 -g -Og
#
# seed   -15744123   575999016 -1635898153 -2020340680  1214859062  -458271577  1911376180  1972781915  1005558283   174676890  -692764933 -1855250658
#
#      Author: C. J. Pickard (cjp20@cam.ac.uk)
#                Space group: P21
#

%BLOCK LATTICE_ABC
      7.14173      7.30920      7.93528
     90.00000    105.05875     90.00000
%ENDBLOCK LATTICE_ABC

%BLOCK POSITIONS_FRAC
  Li  -0.2996580  -0.3650123  -0.4687805 SPIN=   0.00000
  Li   0.2996580   0.1349877   0.4687805 SPIN=   0.00000
  Li  -0.0418091   0.4087127  -0.0511842 SPIN=   0.00000
  Li   0.0418091  -0.0912873   0.0511842 SPIN=   0.00000
  Fe   0.1506918  -0.2725157  -0.3816078 SPIN=   6.42054
  Fe  -0.1506918   0.2274843   0.3816078 SPIN=   6.42054
  Fe   0.4745459  -0.1095182   0.1427117 SPIN=   1.57946
  Fe  -0.4745459   0.3904818  -0.1427117 SPIN=   1.57946
   O  -0.2661074  -0.1211210  -0.3547448 SPIN=   0.00000
   O  -0.2446413  -0.0995226  -0.0390379 SPIN=   0.00000
   O  -0.5077913  -0.2795316  -0.2327605 SPIN=   0.00000
   O  -0.5095473   0.0583757  -0.2530096 SPIN=   0.00000
   S  -0.3820218  -0.1104499  -0.2198882 SPIN=   0.00000
   O   0.2661074   0.3788790   0.3547448 SPIN=   0.00000
   O   0.2446413   0.4004774   0.0390379 SPIN=   0.00000
   O   0.5077913   0.2204684   0.2327605 SPIN=   0.00000
   O   0.5095473   0.5583757   0.2530096 SPIN=   0.00000
   S   0.3820218   0.3895501   0.2198882 SPIN=   0.00000
   O  -0.1217262  -0.1583980   0.2791637 SPIN=   0.00000
   O  -0.1633195  -0.4770671   0.3684634 SPIN=   0.00000
   O   0.0663002  -0.4085502   0.1909338 SPIN=   0.00000
   O  -0.2872480  -0.3854296   0.0592257 SPIN=   0.00000
   S  -0.1264984  -0.3573612   0.2244467 SPIN=   0.00000
   O   0.1217262   0.3416020  -0.2791637 SPIN=   0.00000
   O   0.1633195   0.0229329  -0.3684634 SPIN=   0.00000
   O  -0.0663002   0.0914498  -0.1909338 SPIN=   0.00000
   O   0.2872480   0.1145704  -0.0592257 SPIN=   0.00000
   S   0.1264984   0.1426388  -0.2244467 SPIN=   0.00000
   F   0.3355194  -0.1572070   0.3488978 SPIN=   0.00000
   F  -0.3355194   0.3427930  -0.3488978 SPIN=   0.00000
   F   0.0951049  -0.3240766  -0.1320862 SPIN=   0.00000
   F  -0.0951049   0.1759234   0.1320862 SPIN=   0.00000
%ENDBLOCK POSITIONS_FRAC

# Note: total spin =  16.00

KPOINTS_MP_SPACING 0.07

%BLOCK SPECIES_POT
QC5
%ENDBLOCK SPECIES_POT

SNAP_TO_SYMMETRY
SYMMETRY_GENERATE

