#              Generated by Buildcell
#
# at 14:50:11 (GMT+1.0) 18th August 2020
# in /lustre/scratch/uccabz1/launch_tmp
# on node-c12d-020
# by uccabz1
#
# compiler GCC version 4.9.2
# options -cpp -iprefix /lustre/shared/ucl/apps/gcc/4.9.2/bin/../lib/gcc/x86_64-unknown-linux-gnu/4.9.2/ -mtune=corei7 -march=x86-64 -g -Og
#
# seed -1313595083 -1703466454 -1718723328  -404568174    71596203 -1540984205   363947084  1747063864 -1281533204  -685809680 -1582148249 -1300899818
#
#      Author: C. J. Pickard (cjp20@cam.ac.uk)
#                Space group: Pc
#

%BLOCK LATTICE_ABC
      5.57751      7.76498      9.41562
     90.00000    101.21255     90.00000
%ENDBLOCK LATTICE_ABC

%BLOCK POSITIONS_FRAC
  Li  -0.1168659   0.1647964   0.4667768 SPIN=   0.00000
  Li   0.3831341  -0.1647964   0.4667768 SPIN=   0.00000
  Li   0.2394885   0.2016509  -0.1480230 SPIN=   0.00000
  Li  -0.2605115  -0.2016509  -0.1480230 SPIN=   0.00000
  Fe  -0.4446597   0.3449702   0.1391549 SPIN=   2.58843
  Fe   0.0553403  -0.3449702   0.1391549 SPIN=   2.58843
  Fe   0.3929467   0.3347462  -0.4614970 SPIN=   5.41157
  Fe  -0.1070533  -0.3347462  -0.4614970 SPIN=   5.41157
   O   0.4830899  -0.4202219  -0.0446853 SPIN=   0.00000
   O   0.3804476  -0.1524644  -0.1860129 SPIN=   0.00000
   O   0.0597279  -0.3080653  -0.0891905 SPIN=   0.00000
   O   0.2280049  -0.4332519  -0.2908720 SPIN=   0.00000
   S   0.2878176  -0.3285009  -0.1526902 SPIN=   0.00000
   O  -0.0169101   0.4202219  -0.0446853 SPIN=   0.00000
   O  -0.1195524   0.1524644  -0.1860129 SPIN=   0.00000
   O  -0.4402721   0.3080653  -0.0891905 SPIN=   0.00000
   O  -0.2719951   0.4332519  -0.2908720 SPIN=   0.00000
   S  -0.2121824   0.3285009  -0.1526902 SPIN=   0.00000
   O   0.1665277   0.0471890   0.3557769 SPIN=   0.00000
   O   0.1104931   0.3546387   0.2881625 SPIN=   0.00000
   O  -0.1787759   0.1363893   0.1629668 SPIN=   0.00000
   O   0.2445041   0.1477051   0.1194743 SPIN=   0.00000
   S   0.0856873   0.1714805   0.2315951 SPIN=   0.00000
   O  -0.3334723  -0.0471890   0.3557769 SPIN=   0.00000
   O  -0.3895069  -0.3546387   0.2881625 SPIN=   0.00000
   O  -0.6787759  -0.1363893   0.1629668 SPIN=   0.00000
   O  -0.2554959  -0.1477051   0.1194743 SPIN=   0.00000
   S  -0.4143127  -0.1714805   0.2315951 SPIN=   0.00000
   F   0.1486004  -0.3367923   0.4232392 SPIN=   0.00000
   F  -0.3513996   0.3367923   0.4232392 SPIN=   0.00000
   F  -0.2751014  -0.1632084  -0.3443478 SPIN=   0.00000
   F   0.2248986   0.1632084  -0.3443478 SPIN=   0.00000
%ENDBLOCK POSITIONS_FRAC

# Note: total spin =  16.00

KPOINTS_MP_SPACING 0.07

%BLOCK SPECIES_POT
QC5
%ENDBLOCK SPECIES_POT

SNAP_TO_SYMMETRY
SYMMETRY_GENERATE

