#              Generated by Buildcell
#
# at 07:06:30 (GMT+1.0) 4th August 2020
# in /lustre/scratch/uccabz1/launch_tmp
# on node-c12p-014
# by uccabz1
#
# compiler GCC version 4.9.2
# options -cpp -iprefix /lustre/shared/ucl/apps/gcc/4.9.2/bin/../lib/gcc/x86_64-unknown-linux-gnu/4.9.2/ -mtune=corei7 -march=x86-64 -g -Og
#
# seed -1418633878  -955195354  -177772208   447279262 -1007107951  -526900136 -2045869708 -1932583647 -1157813845  -798890388 -2028997060 -1191497702
#
#      Author: C. J. Pickard (cjp20@cam.ac.uk)
#                Space group: P-1
#

%BLOCK LATTICE_ABC
      4.14935      8.68638     11.60812
    104.83385     90.26533     98.14430
%ENDBLOCK LATTICE_ABC

%BLOCK POSITIONS_FRAC
  Li  -0.4135035   0.4169312  -0.3729363 SPIN=   0.00000
  Li   0.4135035  -0.4169312   0.3729363 SPIN=   0.00000
  Li   0.1932101  -0.1962642   0.1328150 SPIN=   0.00000
  Li  -0.1932101   0.1962642  -0.1328150 SPIN=   0.00000
  Fe   0.2332512  -0.0513753  -0.1306517 SPIN=   3.22828
  Fe  -0.2332512   0.0513753   0.1306517 SPIN=   3.22828
  Fe   0.0501996   0.2938048   0.4333787 SPIN=   4.77172
  Fe  -0.0501996  -0.2938048  -0.4333787 SPIN=   4.77172
   O   0.0478637  -0.4903473  -0.3328149 SPIN=   0.00000
   O   0.4506749  -0.4481074  -0.1656566 SPIN=   0.00000
   O  -0.1098791  -0.5836915  -0.1538751 SPIN=   0.00000
   O  -0.0105929  -0.2920436  -0.1414414 SPIN=   0.00000
   S   0.0945166  -0.4535474  -0.1984470 SPIN=   0.00000
   O  -0.0478637   0.4903473   0.3328149 SPIN=   0.00000
   O  -0.4506749   0.4481074   0.1656566 SPIN=   0.00000
   O   0.1098791   0.5836915   0.1538751 SPIN=   0.00000
   O   0.0105929   0.2920436   0.1414414 SPIN=   0.00000
   S  -0.0945166   0.4535474   0.1984470 SPIN=   0.00000
   O  -0.1483587  -0.2434499   0.4064372 SPIN=   0.00000
   O  -0.6401957  -0.1740491   0.3218701 SPIN=   0.00000
   O  -0.0947896  -0.0865428   0.2553446 SPIN=   0.00000
   O  -0.2560847   0.0386750   0.4590200 SPIN=   0.00000
   S  -0.2848572  -0.1163417   0.3606680 SPIN=   0.00000
   O   0.1483587   0.2434499  -0.4064372 SPIN=   0.00000
   O   0.6401957   0.1740491  -0.3218701 SPIN=   0.00000
   O   0.0947896   0.0865428  -0.2553446 SPIN=   0.00000
   O   0.2560847  -0.0386750  -0.4590200 SPIN=   0.00000
   S   0.2848572   0.1163417  -0.3606680 SPIN=   0.00000
   F   0.3790683   0.2495587  -0.0467288 SPIN=   0.00000
   F  -0.3790683  -0.2495587   0.0467288 SPIN=   0.00000
   F  -0.3270174  -0.1870881  -0.2980658 SPIN=   0.00000
   F   0.3270174   0.1870881   0.2980658 SPIN=   0.00000
%ENDBLOCK POSITIONS_FRAC

# Note: total spin =  16.00

KPOINTS_MP_SPACING 0.07

%BLOCK SPECIES_POT
QC5
%ENDBLOCK SPECIES_POT

SNAP_TO_SYMMETRY
SYMMETRY_GENERATE

