#              Generated by Buildcell
#
# at 10:12:30 (GMT+1.0) 4th August 2020
# in /lustre/scratch/uccabz1/launch_tmp
# on node-c12g-032
# by uccabz1
#
# compiler GCC version 4.9.2
# options -cpp -iprefix /lustre/shared/ucl/apps/gcc/4.9.2/bin/../lib/gcc/x86_64-unknown-linux-gnu/4.9.2/ -mtune=corei7 -march=x86-64 -g -Og
#
# seed  -547638907 -1447069668   567158320  1935615807  1780123750   562409070   994963328 -1081200442  2045829392 -1970531318     2949041 -1513804342
#
#      Author: C. J. Pickard (cjp20@cam.ac.uk)
#                Space group: Pnc2
#

%BLOCK LATTICE_ABC
      4.59780      6.55788     13.26619
     90.00000     90.00000     90.00000
%ENDBLOCK LATTICE_ABC

%BLOCK POSITIONS_FRAC
  Li  -0.2575737   0.2200590   0.0670480 SPIN=   0.00000
  Li   0.2575737  -0.2200590   0.0670480 SPIN=   0.00000
  Li  -0.2575737   0.2799410  -0.4329520 SPIN=   0.00000
  Li   0.2575737  -0.2799410  -0.4329520 SPIN=   0.00000
  Fe   0.2496485   0.2852380   0.4208297 SPIN=   4.00000
  Fe  -0.2496485  -0.2852380   0.4208297 SPIN=   4.00000
  Fe   0.2496485   0.2147620  -0.0791703 SPIN=   4.00000
  Fe  -0.2496485  -0.2147620  -0.0791703 SPIN=   4.00000
   O  -0.2436576  -0.4820527  -0.3262671 SPIN=   0.00000
   O   0.0554607  -0.1737065  -0.2975924 SPIN=   0.00000
   O  -0.4699337  -0.1695373  -0.2570807 SPIN=   0.00000
   O  -0.3085577  -0.1787810  -0.4349957 SPIN=   0.00000
   S  -0.2416721  -0.2510194  -0.3289840 SPIN=   0.00000
   O   0.2436576   0.4820527  -0.3262671 SPIN=   0.00000
   O  -0.0554607   0.1737065  -0.2975924 SPIN=   0.00000
   O   0.4699337   0.1695373  -0.2570807 SPIN=   0.00000
   O   0.3085577   0.1787810  -0.4349957 SPIN=   0.00000
   S   0.2416721   0.2510194  -0.3289840 SPIN=   0.00000
   O  -0.2436576  -0.0179473   0.1737329 SPIN=   0.00000
   O   0.0554607  -0.3262935   0.2024076 SPIN=   0.00000
   O  -0.4699337  -0.3304627   0.2429193 SPIN=   0.00000
   O  -0.3085577  -0.3212190   0.0650043 SPIN=   0.00000
   S  -0.2416721  -0.2489806   0.1710160 SPIN=   0.00000
   O   0.2436576   0.0179473   0.1737329 SPIN=   0.00000
   O  -0.0554607   0.3262935   0.2024076 SPIN=   0.00000
   O   0.4699337   0.3304627   0.2429193 SPIN=   0.00000
   O   0.3085577   0.3212190   0.0650043 SPIN=   0.00000
   S   0.2416721   0.2489806   0.1710160 SPIN=   0.00000
   F   0.2476022  -0.2504544  -0.0824250 SPIN=   0.00000
   F  -0.2476022   0.2504544  -0.0824250 SPIN=   0.00000
   F   0.2476022  -0.2495456   0.4175750 SPIN=   0.00000
   F  -0.2476022   0.2495456   0.4175750 SPIN=   0.00000
%ENDBLOCK POSITIONS_FRAC

# Note: total spin =  16.00

KPOINTS_MP_SPACING 0.07

%BLOCK SPECIES_POT
QC5
%ENDBLOCK SPECIES_POT

SNAP_TO_SYMMETRY
SYMMETRY_GENERATE

