#              Generated by Buildcell
#
# at 08:05:48 (GMT+1.0) 4th August 2020
# in /lustre/scratch/uccabz1/launch_tmp
# on node-c12k-005
# by uccabz1
#
# compiler GCC version 4.9.2
# options -cpp -iprefix /lustre/shared/ucl/apps/gcc/4.9.2/bin/../lib/gcc/x86_64-unknown-linux-gnu/4.9.2/ -mtune=corei7 -march=x86-64 -g -Og
#
# seed   437597951 -1229875993   -79565856  -119099582 -1729246149   636516311  1484607170 -1568896035  -593050946  1863164955  -162694031 -1446992199
#
#      Author: C. J. Pickard (cjp20@cam.ac.uk)
#                Space group: Cc
#

%BLOCK LATTICE_ABC
      7.09996      8.36808      8.61271
     63.97291     65.65820     64.89815
%ENDBLOCK LATTICE_ABC

%BLOCK POSITIONS_FRAC
  Li   0.1207358  -0.0072793  -0.4597643 SPIN=   0.00000
  Li   0.3463078   0.4927207   0.0402357 SPIN=   0.00000
  Li   0.1540563   0.0966881  -0.0682584 SPIN=   0.00000
  Li  -0.1824860  -0.4033119   0.4317416 SPIN=   0.00000
  Fe  -0.3629046  -0.1190650  -0.1226384 SPIN=   3.69110
  Fe  -0.3953920   0.3809350   0.3773616 SPIN=   3.69110
  Fe   0.1448021   0.4950933  -0.2269097 SPIN=   4.30890
  Fe  -0.4129856  -0.0049067   0.2730903 SPIN=   4.30890
   O   0.2873432  -0.1181223   0.1178594 SPIN=   0.00000
   O   0.2617173  -0.4400102   0.2665398 SPIN=   0.00000
   O   0.0322969  -0.2063190   0.0655497 SPIN=   0.00000
   O  -0.0395484  -0.1810693   0.3618276 SPIN=   0.00000
   S   0.1354522  -0.2363802   0.2029441 SPIN=   0.00000
   O  -0.2870804   0.3818777  -0.3821406 SPIN=   0.00000
   O  -0.0882469   0.0599898  -0.2334602 SPIN=   0.00000
   O   0.1084725   0.2936810  -0.4344503 SPIN=   0.00000
   O  -0.1412099   0.3189307  -0.1381724 SPIN=   0.00000
   S  -0.1020162   0.2636198  -0.2970559 SPIN=   0.00000
   O   0.5979921  -0.1459956  -0.4531703 SPIN=   0.00000
   O   0.2557644  -0.1406222  -0.2080415 SPIN=   0.00000
   O   0.5728217  -0.4222277  -0.1807663 SPIN=   0.00000
   O   0.3753902  -0.3365138  -0.3983767 SPIN=   0.00000
   S   0.4504921  -0.2613398  -0.3100887 SPIN=   0.00000
   O   0.0011738   0.3540044   0.0468297 SPIN=   0.00000
   O   0.0928993   0.3593778   0.2919585 SPIN=   0.00000
   O   0.0301723   0.0777723   0.3192337 SPIN=   0.00000
   O   0.3595002   0.1634862   0.1016233 SPIN=   0.00000
   S   0.1209364   0.2386602   0.1899113 SPIN=   0.00000
   F   0.3951372   0.2110164  -0.2502014 SPIN=   0.00000
   F  -0.3559523  -0.2889836   0.2497986 SPIN=   0.00000
   F  -0.3943522   0.2504874   0.2143062 SPIN=   0.00000
   F  -0.0704414  -0.2495126  -0.2856938 SPIN=   0.00000
%ENDBLOCK POSITIONS_FRAC

# Note: total spin =  16.00

KPOINTS_MP_SPACING 0.07

%BLOCK SPECIES_POT
QC5
%ENDBLOCK SPECIES_POT

SNAP_TO_SYMMETRY
SYMMETRY_GENERATE

