#              Generated by Buildcell
#
# at 10:35:34 (GMT+1.0) 4th August 2020
# in /lustre/scratch/uccabz1/launch_tmp
# on node-y12q-003
# by uccabz1
#
# compiler GCC version 4.9.2
# options -cpp -iprefix /lustre/shared/ucl/apps/gcc/4.9.2/bin/../lib/gcc/x86_64-unknown-linux-gnu/4.9.2/ -mtune=corei7 -march=x86-64 -g -Og
#
# seed  2073477445  -575309064  -860356183   451694942 -2069034930  -551039204   129979995  1286910505 -1460759325   886723335   410043699  -772027787
#
#      Author: C. J. Pickard (cjp20@cam.ac.uk)
#                Space group: P2
#

%BLOCK LATTICE_ABC
      6.17480      7.66060      8.65795
    102.39359     90.00000     90.00000
%ENDBLOCK LATTICE_ABC

%BLOCK POSITIONS_FRAC
  Li   0.4663301  -0.2277369  -0.0935873 SPIN=   0.00000
  Li   0.4663301   0.2277369   0.0935873 SPIN=   0.00000
  Li  -0.2084435   0.1916845   0.4185416 SPIN=   0.00000
  Li  -0.2084435  -0.1916845  -0.4185416 SPIN=   0.00000
  Fe   0.3160003  -0.2394666  -0.4204845 SPIN=   4.05938
  Fe   0.3160003   0.2394666   0.4204845 SPIN=   4.05938
  Fe  -0.0206966   0.1358566  -0.2193286 SPIN=   3.94062
  Fe  -0.0206966  -0.1358566   0.2193286 SPIN=   3.94062
   O  -0.1507564   0.2293137   0.0108653 SPIN=   0.00000
   O   0.0864917   0.4838878   0.1276235 SPIN=   0.00000
   O   0.1339386   0.1920310   0.2023947 SPIN=   0.00000
   O  -0.1890381   0.3769869   0.2932288 SPIN=   0.00000
   S  -0.0298410   0.3205549   0.1585281 SPIN=   0.00000
   O  -0.1507564  -0.2293137  -0.0108653 SPIN=   0.00000
   O   0.0864917  -0.4838878  -0.1276235 SPIN=   0.00000
   O   0.1339386  -0.1920310  -0.2023947 SPIN=   0.00000
   O  -0.1890381  -0.3769869  -0.2932288 SPIN=   0.00000
   S  -0.0298410  -0.3205549  -0.1585281 SPIN=   0.00000
   O   0.4071012  -0.5442844   0.2495185 SPIN=   0.00000
   O   0.3497590  -0.3261718   0.0799665 SPIN=   0.00000
   O   0.7199349  -0.3848980   0.1659469 SPIN=   0.00000
   O   0.4571103  -0.2210339   0.3599191 SPIN=   0.00000
   S   0.4834763  -0.3690970   0.2138377 SPIN=   0.00000
   O   0.4071012   0.5442844  -0.2495185 SPIN=   0.00000
   O   0.3497590   0.3261718  -0.0799665 SPIN=   0.00000
   O   0.7199349   0.3848980  -0.1659469 SPIN=   0.00000
   O   0.4571103   0.2210339  -0.3599191 SPIN=   0.00000
   S   0.4834763   0.3690970  -0.2138377 SPIN=   0.00000
   F   0.0070733   0.2724087  -0.4096337 SPIN=   0.00000
   F   0.0070733  -0.2724087   0.4096337 SPIN=   0.00000
   F  -0.4551079   0.0820870   0.2522381 SPIN=   0.00000
   F  -0.4551079  -0.0820870  -0.2522381 SPIN=   0.00000
%ENDBLOCK POSITIONS_FRAC

# Note: total spin =  16.00

KPOINTS_MP_SPACING 0.07

%BLOCK SPECIES_POT
QC5
%ENDBLOCK SPECIES_POT

SNAP_TO_SYMMETRY
SYMMETRY_GENERATE

