#              Generated by Buildcell
#
# at 14:15:29 (GMT+1.0) 18th August 2020
# in /lustre/scratch/uccabz1/launch_tmp
# on node-c12j-022
# by uccabz1
#
# compiler GCC version 4.9.2
# options -cpp -iprefix /lustre/shared/ucl/apps/gcc/4.9.2/bin/../lib/gcc/x86_64-unknown-linux-gnu/4.9.2/ -mtune=corei7 -march=x86-64 -g -Og
#
# seed -1804654184   485539436  1084776878  1917353701  2021497006   569305825 -1859731582  1584358364  -268994050  -469649449  -848920155 -1797764877
#
#      Author: C. J. Pickard (cjp20@cam.ac.uk)
#                Space group: Cc
#

%BLOCK LATTICE_ABC
      6.95631      8.31141      8.61600
    116.00760    113.80880     90.00000
%ENDBLOCK LATTICE_ABC

%BLOCK POSITIONS_FRAC
  Li   0.1649326  -0.4127343  -0.4121868 SPIN=   0.00000
  Li   0.4228806   0.0872657  -0.4121868 SPIN=   0.00000
  Li  -0.3759418  -0.1823205   0.0821302 SPIN=   0.00000
  Li   0.4580720   0.3176795   0.0821302 SPIN=   0.00000
  Fe   0.0545090  -0.2246130  -0.0968800 SPIN=   3.41072
  Fe  -0.1513890   0.2753870  -0.0968800 SPIN=   3.41072
  Fe   0.1323798  -0.2711206  -0.6797605 SPIN=   4.58928
  Fe   0.1878596   0.2288794   0.3202395 SPIN=   4.58928
   O  -0.4477752  -0.1509928  -0.4978022 SPIN=   0.00000
   O  -0.1513805  -0.3177847  -0.4659006 SPIN=   0.00000
   O  -0.3519787  -0.3010936  -0.7679816 SPIN=   0.00000
   O  -0.5284771  -0.4895107  -0.6861240 SPIN=   0.00000
   S  -0.3699029  -0.3148455  -0.6044521 SPIN=   0.00000
   O  -0.0500270   0.3490072   0.5021978 SPIN=   0.00000
   O  -0.3145201   0.1822153   0.5340994 SPIN=   0.00000
   O  -0.4160029   0.1989064   0.2320184 SPIN=   0.00000
   O  -0.1576469   0.0104893   0.3138760 SPIN=   0.00000
   S  -0.2345492   0.1851545   0.3955479 SPIN=   0.00000
   O  -0.5333313  -0.3166121  -0.2819340 SPIN=   0.00000
   O  -0.2623724  -0.4917906  -0.3470659 SPIN=   0.00000
   O  -0.5882151  -0.6464789  -0.3755559 SPIN=   0.00000
   O  -0.3046110  -0.4209046  -0.0534824 SPIN=   0.00000
   S  -0.4221324  -0.4689466  -0.2645095 SPIN=   0.00000
   O   0.2513973   0.1833879  -0.2819340 SPIN=   0.00000
   O  -0.0846935   0.0082094  -0.3470659 SPIN=   0.00000
   O   0.2126591  -0.1464789  -0.3755559 SPIN=   0.00000
   O   0.2511286   0.0790954  -0.0534824 SPIN=   0.00000
   S   0.1576229   0.0310534  -0.2645095 SPIN=   0.00000
   F  -0.2594670   0.0273345  -0.0964928 SPIN=   0.00000
   F   0.1629742  -0.4726655  -0.0964928 SPIN=   0.00000
   F   0.0861077   0.4895136   0.3056832 SPIN=   0.00000
   F   0.2195755  -0.0104864   0.3056832 SPIN=   0.00000
%ENDBLOCK POSITIONS_FRAC

# Note: total spin =  16.00

KPOINTS_MP_SPACING 0.07

%BLOCK SPECIES_POT
QC5
%ENDBLOCK SPECIES_POT

SNAP_TO_SYMMETRY
SYMMETRY_GENERATE

