#              Generated by Buildcell
#
# at 07:29:59 (GMT+1.0) 4th August 2020
# in /lustre/scratch/uccabz1/launch_tmp
# on node-c12c-024
# by uccabz1
#
# compiler GCC version 4.9.2
# options -cpp -iprefix /lustre/shared/ucl/apps/gcc/4.9.2/bin/../lib/gcc/x86_64-unknown-linux-gnu/4.9.2/ -mtune=corei7 -march=x86-64 -g -Og
#
# seed  2070884365   439456119  -982788043  1878331362   347375649  -827315038  -662751127 -1513448801  1511150199  -653386605 -1942327831   117172497
#
#      Author: C. J. Pickard (cjp20@cam.ac.uk)
#                Space group: P21
#

%BLOCK LATTICE_ABC
      4.26427      9.04806     10.68499
    104.00994     90.00000     90.00000
%ENDBLOCK LATTICE_ABC

%BLOCK POSITIONS_FRAC
  Li  -0.1524938   0.2153391   0.0338245 SPIN=   0.00000
  Li   0.3475062  -0.2153391  -0.0338245 SPIN=   0.00000
  Li   0.3936219   0.4550241  -0.3545859 SPIN=   0.00000
  Li  -0.1063781  -0.4550241   0.3545859 SPIN=   0.00000
  Fe  -0.1311712  -0.2887457  -0.2530982 SPIN=   3.06600
  Fe   0.3688288   0.2887457   0.2530982 SPIN=   3.06600
  Fe   0.3475125   0.0732573  -0.1637699 SPIN=   4.93400
  Fe  -0.1524875  -0.0732573   0.1637699 SPIN=   4.93400
   O  -0.1496669   0.3934993  -0.0332896 SPIN=   0.00000
   O   0.3711854   0.3402149  -0.1365343 SPIN=   0.00000
   O   0.0794946   0.5720115  -0.1508789 SPIN=   0.00000
   O  -0.1066139   0.3182889  -0.2712721 SPIN=   0.00000
   S   0.0485998   0.4060037  -0.1479937 SPIN=   0.00000
   O  -0.6496669  -0.3934993   0.0332896 SPIN=   0.00000
   O  -0.1288146  -0.3402149   0.1365343 SPIN=   0.00000
   O  -0.4205054  -0.5720115   0.1508789 SPIN=   0.00000
   O  -0.6066139  -0.3182889   0.2712721 SPIN=   0.00000
   S  -0.4514002  -0.4060037   0.1479937 SPIN=   0.00000
   O   0.4465848  -0.3251184  -0.3498598 SPIN=   0.00000
   O   0.4779864  -0.4640472  -0.5794928 SPIN=   0.00000
   O   0.5629869  -0.1852558  -0.5168545 SPIN=   0.00000
   O   0.0322963  -0.2906604  -0.5025149 SPIN=   0.00000
   S   0.3799636  -0.3162704  -0.4871805 SPIN=   0.00000
   O  -0.0534152   0.3251184   0.3498598 SPIN=   0.00000
   O  -0.0220136   0.4640472   0.5794928 SPIN=   0.00000
   O   0.0629869   0.1852558   0.5168545 SPIN=   0.00000
   O  -0.4677037   0.2906604   0.5025149 SPIN=   0.00000
   S  -0.1200364   0.3162704   0.4871805 SPIN=   0.00000
   F   0.2424179   0.1354315   0.1080423 SPIN=   0.00000
   F  -0.2575821  -0.1354315  -0.1080423 SPIN=   0.00000
   F   0.4802908   0.0816680  -0.3307497 SPIN=   0.00000
   F  -0.0197092  -0.0816680   0.3307497 SPIN=   0.00000
%ENDBLOCK POSITIONS_FRAC

# Note: total spin =  16.00

KPOINTS_MP_SPACING 0.07

%BLOCK SPECIES_POT
QC5
%ENDBLOCK SPECIES_POT

SNAP_TO_SYMMETRY
SYMMETRY_GENERATE

