#              Generated by Buildcell
#
# at 07:43:11 (GMT+1.0) 4th August 2020
# in /lustre/scratch/uccabz1/launch_tmp
# on node-c12c-029
# by uccabz1
#
# compiler GCC version 4.9.2
# options -cpp -iprefix /lustre/shared/ucl/apps/gcc/4.9.2/bin/../lib/gcc/x86_64-unknown-linux-gnu/4.9.2/ -mtune=corei7 -march=x86-64 -g -Og
#
# seed   892936085  1470437473 -1128313248  1003130385  -429917600 -1763475387  -932144914 -1644762022   507336485  -212537058   674376880   841097895
#
#      Author: C. J. Pickard (cjp20@cam.ac.uk)
#                Space group: Cc
#

%BLOCK LATTICE_ABC
      6.90177      7.28804      9.28649
    110.11490    108.68669     97.49876
%ENDBLOCK LATTICE_ABC

%BLOCK POSITIONS_FRAC
  Li   0.3708337  -0.0803714   0.1078987 SPIN=   0.00000
  Li  -0.2370650  -0.1882701  -0.1078987 SPIN=   0.00000
  Li   0.4376045   0.4643252   0.4111604 SPIN=   0.00000
  Li  -0.4735560   0.0531647  -0.4111604 SPIN=   0.00000
  Fe  -0.1593258   0.4071615  -0.3916063 SPIN=   3.22082
  Fe  -0.2677196  -0.2012323   0.3916063 SPIN=   3.22082
  Fe   0.1796042   0.1318514  -0.1932063 SPIN=   4.77918
  Fe  -0.1271894   0.3250577   0.1932063 SPIN=   4.77918
   O   0.4976926  -0.2019660  -0.3046939 SPIN=   0.00000
   O   0.1931479  -0.4704980  -0.5437840 SPIN=   0.00000
   O   0.1329742  -0.1637773  -0.3615037 SPIN=   0.00000
   O   0.2410616  -0.4186302  -0.2554644 SPIN=   0.00000
   S   0.2662191  -0.3137179  -0.3663615 SPIN=   0.00000
   O   0.3023864   0.1027278   0.3046939 SPIN=   0.00000
   O   0.2369320   0.0732860   0.5437840 SPIN=   0.00000
   O  -0.0055221   0.1977264   0.3615037 SPIN=   0.00000
   O  -0.0034741  -0.1631658   0.2554644 SPIN=   0.00000
   S   0.1325806   0.0526436   0.3663615 SPIN=   0.00000
   O   0.4657105  -0.4958340   0.1282635 SPIN=   0.00000
   O   0.1637395  -0.3818198  -0.0082655 SPIN=   0.00000
   O   0.2852344  -0.2999918   0.2934734 SPIN=   0.00000
   O   0.1011518  -0.6538467   0.0869230 SPIN=   0.00000
   S   0.2539590  -0.4578731   0.1250986 SPIN=   0.00000
   O  -0.1625530   0.3759025  -0.1282635 SPIN=   0.00000
   O  -0.3279951   0.6264457   0.0082655 SPIN=   0.00000
   O  -0.5082389   0.4065348  -0.2934734 SPIN=   0.00000
   O  -0.4857712   0.2592304  -0.0869230 SPIN=   0.00000
   S  -0.3711396   0.4170283  -0.1250986 SPIN=   0.00000
   F  -0.2024830   0.1347938  -0.4243893 SPIN=   0.00000
   F  -0.2780937  -0.4408169   0.4243893 SPIN=   0.00000
   F   0.0368903  -0.0711124  -0.1013101 SPIN=   0.00000
   F  -0.3617996   0.0301977   0.1013101 SPIN=   0.00000
%ENDBLOCK POSITIONS_FRAC

# Note: total spin =  16.00

KPOINTS_MP_SPACING 0.07

%BLOCK SPECIES_POT
QC5
%ENDBLOCK SPECIES_POT

SNAP_TO_SYMMETRY
SYMMETRY_GENERATE

