#              Generated by Buildcell
#
# at 17:03:53 (GMT+1.0) 18th August 2020
# in /scratch/scratch/uccabz1/launch_tmp
# on node-k10b-015
# by uccabz1
#
# compiler GCC version 4.9.2
# options -cpp -iprefix /scratch/UCL/applications/gcc/4.9.2/bin/../lib/gcc/x86_64-unknown-linux-gnu/4.9.2/ -mtune=corei7 -march=x86-64 -g -O2
#
# seed -1084147280  -968433616  -521921317  1590072457  1243358323  1310812720 -1231455421   109236070    49740623  1806708078 -1069527134   -82893024
#
#      Author: C. J. Pickard (cjp20@cam.ac.uk)
#                Space group: C2
#

%BLOCK LATTICE_ABC
      7.80791      7.80791      7.82499
    107.85424    107.85424    104.42604
%ENDBLOCK LATTICE_ABC

%BLOCK POSITIONS_FRAC
  Li  -0.2975463   0.0486835   0.2199359 SPIN=   0.00000
  Li  -0.0486835   0.2975463  -0.2199359 SPIN=   0.00000
  Li   0.4174500   0.0151512  -0.2873696 SPIN=   0.00000
  Li  -0.0151512  -0.4174500   0.2873696 SPIN=   0.00000
  Fe   0.2115815   0.3155893   0.2661572 SPIN=   2.96706
  Fe  -0.3155893  -0.2115815  -0.2661572 SPIN=   2.96706
  Fe   0.1766693  -0.3697012  -0.2787436 SPIN=   5.03294
  Fe   0.3697012  -0.1766693   0.2787436 SPIN=   5.03294
   O  -0.0552959  -0.2692009   0.0019990 SPIN=   0.00000
   O   0.1245063  -0.0957566   0.3650995 SPIN=   0.00000
   O  -0.2339762  -0.2052143   0.2113030 SPIN=   0.00000
   O  -0.0296983   0.0664479   0.1732315 SPIN=   0.00000
   S  -0.0486160  -0.1259310   0.1879082 SPIN=   0.00000
   O   0.2692009   0.0552959  -0.0019990 SPIN=   0.00000
   O   0.0957566  -0.1245063  -0.3650995 SPIN=   0.00000
   O   0.2052143   0.2339762  -0.2113030 SPIN=   0.00000
   O  -0.0664479   0.0296983  -0.1732315 SPIN=   0.00000
   S   0.1259310   0.0486160  -0.1879082 SPIN=   0.00000
   O  -0.4547947   0.2504074   0.3416382 SPIN=   0.00000
   O  -0.2732003   0.5861320   0.3985549 SPIN=   0.00000
   O  -0.5168351   0.3490837   0.0637204 SPIN=   0.00000
   O  -0.2062296   0.3120564   0.2099552 SPIN=   0.00000
   S  -0.3627649   0.3744199   0.2534672 SPIN=   0.00000
   O  -0.2504074   0.4547947  -0.3416382 SPIN=   0.00000
   O  -0.5861320   0.2732003  -0.3985549 SPIN=   0.00000
   O  -0.3490837   0.5168351  -0.0637204 SPIN=   0.00000
   O  -0.3120564   0.2062296  -0.2099552 SPIN=   0.00000
   S  -0.3744199   0.3627649  -0.2534672 SPIN=   0.00000
   F   0.4985445  -0.1245372  -0.0700897 SPIN=   0.00000
   F   0.1245372  -0.4985445   0.0700897 SPIN=   0.00000
   F  -0.3553548  -0.0879277   0.4857672 SPIN=   0.00000
   F   0.0879277   0.3553548  -0.4857672 SPIN=   0.00000
%ENDBLOCK POSITIONS_FRAC

# Note: total spin =  16.00

KPOINTS_MP_SPACING 0.07

%BLOCK SPECIES_POT
QC5
%ENDBLOCK SPECIES_POT

SNAP_TO_SYMMETRY
SYMMETRY_GENERATE

