#              Generated by Buildcell
#
# at 07:27:52 (GMT+1.0) 4th August 2020
# in /lustre/scratch/uccabz1/launch_tmp
# on node-c12g-004
# by uccabz1
#
# compiler GCC version 4.9.2
# options -cpp -iprefix /lustre/shared/ucl/apps/gcc/4.9.2/bin/../lib/gcc/x86_64-unknown-linux-gnu/4.9.2/ -mtune=corei7 -march=x86-64 -g -Og
#
# seed   871530640   456270794   349134153   514960737  -836435609  -284159441  1536183477  -549056111 -1379480769  1890559056   846427675   382471521
#
#      Author: C. J. Pickard (cjp20@cam.ac.uk)
#                Space group: P2
#

%BLOCK LATTICE_ABC
      6.17605      7.32653      8.85697
     93.55036     90.00000     90.00000
%ENDBLOCK LATTICE_ABC

%BLOCK POSITIONS_FRAC
  Li   0.3882803   0.3413522   0.2241707 SPIN=   0.00000
  Li   0.3882803  -0.3413522  -0.2241707 SPIN=   0.00000
  Li   0.3474465   0.2052183  -0.3832147 SPIN=   0.00000
  Li   0.3474465  -0.2052183   0.3832147 SPIN=   0.00000
  Fe  -0.1768079   0.4599892   0.2935489 SPIN=   6.46162
  Fe  -0.1768079  -0.4599892  -0.2935489 SPIN=   6.46162
  Fe   0.1240997  -0.2477713   0.0375167 SPIN=   1.53838
  Fe   0.1240997   0.2477713  -0.0375167 SPIN=   1.53838
   O  -0.2095345   0.1938283  -0.0304463 SPIN=   0.00000
   O  -0.5894378   0.1059456  -0.0863023 SPIN=   0.00000
   O  -0.2996355   0.0169812  -0.2693173 SPIN=   0.00000
   O  -0.4106049   0.3411981  -0.2317442 SPIN=   0.00000
   S  -0.3773032   0.1644883  -0.1544525 SPIN=   0.00000
   O  -0.2095345  -0.1938283   0.0304463 SPIN=   0.00000
   O  -0.5894378  -0.1059456   0.0863023 SPIN=   0.00000
   O  -0.2996355  -0.0169812   0.2693173 SPIN=   0.00000
   O  -0.4106049  -0.3411981   0.2317442 SPIN=   0.00000
   S  -0.3773032  -0.1644883   0.1544525 SPIN=   0.00000
   O   0.0579562   0.1717655   0.4604769 SPIN=   0.00000
   O   0.0127744   0.1884476   0.1840285 SPIN=   0.00000
   O   0.0417660  -0.1125544   0.2947530 SPIN=   0.00000
   O   0.3625439   0.0892215   0.2879496 SPIN=   0.00000
   S   0.1187601   0.0842201   0.3068020 SPIN=   0.00000
   O   0.0579562  -0.1717655  -0.4604769 SPIN=   0.00000
   O   0.0127744  -0.1884476  -0.1840285 SPIN=   0.00000
   O   0.0417660   0.1125544  -0.2947530 SPIN=   0.00000
   O   0.3625439  -0.0892215  -0.2879496 SPIN=   0.00000
   S   0.1187601  -0.0842201  -0.3068020 SPIN=   0.00000
   F  -0.3582220   0.2596512   0.4740533 SPIN=   0.00000
   F  -0.3582220  -0.2596512  -0.4740533 SPIN=   0.00000
   F   0.1694179  -0.4570948   0.2370991 SPIN=   0.00000
   F   0.1694179   0.4570948  -0.2370991 SPIN=   0.00000
%ENDBLOCK POSITIONS_FRAC

# Note: total spin =  16.00

KPOINTS_MP_SPACING 0.07

%BLOCK SPECIES_POT
QC5
%ENDBLOCK SPECIES_POT

SNAP_TO_SYMMETRY
SYMMETRY_GENERATE

