#              Generated by Buildcell
#
# at 16:03:00 (GMT+1.0) 18th August 2020
# in /lustre/scratch/uccabz1/launch_tmp
# on node-c12k-029
# by uccabz1
#
# compiler GCC version 4.9.2
# options -cpp -iprefix /lustre/shared/ucl/apps/gcc/4.9.2/bin/../lib/gcc/x86_64-unknown-linux-gnu/4.9.2/ -mtune=corei7 -march=x86-64 -g -Og
#
# seed  1345852753   314664019 -1542169376  1531404463  2022772408  1459173600  -153037340   362322430  -845810163  1814672193  2100907080  1881119995
#
#      Author: C. J. Pickard (cjp20@cam.ac.uk)
#                Space group: P21
#

%BLOCK LATTICE_ABC
      6.79434      7.70399      7.73801
     90.00000     99.04375     90.00000
%ENDBLOCK LATTICE_ABC

%BLOCK POSITIONS_FRAC
  Li  -0.1028095   0.2100733  -0.0438170 SPIN=   0.00000
  Li   0.1028095  -0.2899267   0.0438170 SPIN=   0.00000
  Li  -0.1182783   0.1864924   0.4519356 SPIN=   0.00000
  Li   0.1182783  -0.3135076  -0.4519356 SPIN=   0.00000
  Fe   0.2712421   0.0121466   0.3098307 SPIN=   4.76049
  Fe  -0.2712421  -0.4878534  -0.3098307 SPIN=   4.76049
  Fe  -0.2448663  -0.2067324   0.2880496 SPIN=   3.23951
  Fe   0.2448663   0.2932676  -0.2880496 SPIN=   3.23951
   O   0.6318867  -0.3029479   0.0027168 SPIN=   0.00000
   O   0.3394074  -0.3271658  -0.2310151 SPIN=   0.00000
   O   0.5513521  -0.0644141  -0.2109258 SPIN=   0.00000
   O   0.3348395  -0.1194087   0.0122669 SPIN=   0.00000
   S   0.4643714  -0.2034841  -0.1067393 SPIN=   0.00000
   O  -0.6318867   0.1970521  -0.0027168 SPIN=   0.00000
   O  -0.3394074   0.1728342   0.2310151 SPIN=   0.00000
   O  -0.5513521   0.4355859   0.2109258 SPIN=   0.00000
   O  -0.3348395   0.3805913  -0.0122669 SPIN=   0.00000
   S  -0.4643714   0.2965159   0.1067393 SPIN=   0.00000
   O  -0.1329004  -0.1601883  -0.4376343 SPIN=   0.00000
   O  -0.1068179  -0.1374041  -0.1158093 SPIN=   0.00000
   O  -0.1850964   0.1231141  -0.3010026 SPIN=   0.00000
   O   0.1524339  -0.0058821  -0.2660639 SPIN=   0.00000
   S  -0.0680952  -0.0450901  -0.2801276 SPIN=   0.00000
   O   0.1329004   0.3398117   0.4376343 SPIN=   0.00000
   O   0.1068179   0.3625959   0.1158093 SPIN=   0.00000
   O   0.1850964   0.6231141   0.3010026 SPIN=   0.00000
   O  -0.1524339   0.4941179   0.2660639 SPIN=   0.00000
   S   0.0680952   0.4549099   0.2801276 SPIN=   0.00000
   F   0.0384862   0.4758397  -0.2109977 SPIN=   0.00000
   F  -0.0384862  -0.0241603   0.2109977 SPIN=   0.00000
   F   0.4326338   0.1594362  -0.4408329 SPIN=   0.00000
   F  -0.4326338  -0.3405638   0.4408329 SPIN=   0.00000
%ENDBLOCK POSITIONS_FRAC

# Note: total spin =  16.00

KPOINTS_MP_SPACING 0.07

%BLOCK SPECIES_POT
QC5
%ENDBLOCK SPECIES_POT

SNAP_TO_SYMMETRY
SYMMETRY_GENERATE

