#              Generated by Buildcell
#
# at 06:13:06 (GMT+1.0) 4th August 2020
# in /lustre/scratch/uccabz1/launch_tmp
# on node-c12m-023
# by uccabz1
#
# compiler GCC version 4.9.2
# options -cpp -iprefix /lustre/shared/ucl/apps/gcc/4.9.2/bin/../lib/gcc/x86_64-unknown-linux-gnu/4.9.2/ -mtune=corei7 -march=x86-64 -g -Og
#
# seed  -849314426 -1801358235   -30967508   422850049   705655374  1459803094 -1163068351 -2113608471  -731979880  -429074521 -1480795260  -590123696
#
#      Author: C. J. Pickard (cjp20@cam.ac.uk)
#                Space group: P43
#

%BLOCK LATTICE_ABC
      5.78220      5.78220     11.96394
     90.00000     90.00000     90.00000
%ENDBLOCK LATTICE_ABC

%BLOCK POSITIONS_FRAC
  Li   0.1288421   0.2760745  -0.4135799 SPIN=   0.00000
  Li  -0.1288421  -0.2760745   0.0864201 SPIN=   0.00000
  Li   0.2760745  -0.1288421  -0.1635799 SPIN=   0.00000
  Li  -0.2760745   0.1288421   0.3364201 SPIN=   0.00000
  Fe  -0.2102291  -0.2499844  -0.2569997 SPIN=   4.00000
  Fe   0.2102291   0.2499844   0.2430003 SPIN=   4.00000
  Fe  -0.2499844   0.2102291  -0.0069997 SPIN=   4.00000
  Fe   0.2499844  -0.2102291   0.4930003 SPIN=   4.00000
   O   0.1988330  -0.2381914   0.0305620 SPIN=   0.00000
   O   0.4612697  -0.4857560   0.1418649 SPIN=   0.00000
   O   0.1991688  -0.2105076   0.2369898 SPIN=   0.00000
   O   0.5333848  -0.0647459   0.1286492 SPIN=   0.00000
   S   0.3481641  -0.2498002   0.1345165 SPIN=   0.00000
   O  -0.1988330   0.2381914  -0.4694380 SPIN=   0.00000
   O  -0.4612697   0.4857560  -0.3581351 SPIN=   0.00000
   O  -0.1991688   0.2105076  -0.2630102 SPIN=   0.00000
   O  -0.5333848   0.0647459  -0.3713508 SPIN=   0.00000
   S  -0.3481641   0.2498002  -0.3654835 SPIN=   0.00000
   O  -0.2381914  -0.1988330   0.2805620 SPIN=   0.00000
   O  -0.4857560  -0.4612697   0.3918649 SPIN=   0.00000
   O  -0.2105076  -0.1991688   0.4869898 SPIN=   0.00000
   O  -0.0647459  -0.5333848   0.3786492 SPIN=   0.00000
   S  -0.2498002  -0.3481641   0.3845165 SPIN=   0.00000
   O   0.2381914   0.1988330  -0.2194380 SPIN=   0.00000
   O   0.4857560   0.4612697  -0.1081351 SPIN=   0.00000
   O   0.2105076   0.1991688  -0.0130102 SPIN=   0.00000
   O   0.0647459   0.5333848  -0.1213508 SPIN=   0.00000
   S   0.2498002   0.3481641  -0.1154835 SPIN=   0.00000
   F  -0.2072967  -0.1178147  -0.0890722 SPIN=   0.00000
   F   0.2072967   0.1178147   0.4109278 SPIN=   0.00000
   F  -0.1178147   0.2072967   0.1609278 SPIN=   0.00000
   F   0.1178147  -0.2072967  -0.3390722 SPIN=   0.00000
%ENDBLOCK POSITIONS_FRAC

# Note: total spin =  16.00

KPOINTS_MP_SPACING 0.07

%BLOCK SPECIES_POT
QC5
%ENDBLOCK SPECIES_POT

SNAP_TO_SYMMETRY
SYMMETRY_GENERATE

