#              Generated by Buildcell
#
# at 07:58:10 (GMT+1.0) 4th August 2020
# in /lustre/scratch/uccabz1/launch_tmp
# on node-c12f-002
# by uccabz1
#
# compiler GCC version 4.9.2
# options -cpp -iprefix /lustre/shared/ucl/apps/gcc/4.9.2/bin/../lib/gcc/x86_64-unknown-linux-gnu/4.9.2/ -mtune=corei7 -march=x86-64 -g -Og
#
# seed  -701938646  -377533963 -1814328567   989028146   896924708  -778285972 -1463952064  1534453860  1497119618 -1528820830   333051986 -1839618898
#
#      Author: C. J. Pickard (cjp20@cam.ac.uk)
#                Space group: P21212
#

%BLOCK LATTICE_ABC
      5.22342      6.69018     11.44636
     90.00000     90.00000     90.00000
%ENDBLOCK LATTICE_ABC

%BLOCK POSITIONS_FRAC
  Li   0.2539220  -0.1877374  -0.1842208 SPIN=   0.00000
  Li  -0.2539220   0.1877374  -0.1842208 SPIN=   0.00000
  Li  -0.2460780  -0.3122626   0.1842208 SPIN=   0.00000
  Li   0.2460780   0.3122626   0.1842208 SPIN=   0.00000
  Fe  -0.0000000  -0.0000000   0.0276459 SPIN=   3.02334
  Fe  -0.5000000  -0.5000000  -0.0276459 SPIN=   3.02334
  Fe  -0.0000000  -0.0000000  -0.4641801 SPIN=   4.97666
  Fe  -0.5000000  -0.5000000   0.4641801 SPIN=   4.97666
   O   0.2725612   0.4761232  -0.1899599 SPIN=   0.00000
   O   0.4864638   0.2345197  -0.3214125 SPIN=   0.00000
   O   0.0175492   0.2835025  -0.3332482 SPIN=   0.00000
   O   0.2069266   0.1129083  -0.1619632 SPIN=   0.00000
   S   0.2458752   0.2767634  -0.2516460 SPIN=   0.00000
   O  -0.2725612  -0.4761232  -0.1899599 SPIN=   0.00000
   O  -0.4864638  -0.2345197  -0.3214125 SPIN=   0.00000
   O  -0.0175492  -0.2835025  -0.3332482 SPIN=   0.00000
   O  -0.2069266  -0.1129083  -0.1619632 SPIN=   0.00000
   S  -0.2458752  -0.2767634  -0.2516460 SPIN=   0.00000
   O  -0.2274388   0.0238768   0.1899599 SPIN=   0.00000
   O  -0.0135362   0.2654803   0.3214125 SPIN=   0.00000
   O  -0.4824508   0.2164975   0.3332482 SPIN=   0.00000
   O  -0.2930734   0.3870917   0.1619632 SPIN=   0.00000
   S  -0.2541248   0.2232366   0.2516460 SPIN=   0.00000
   O   0.2274388  -0.0238768   0.1899599 SPIN=   0.00000
   O   0.0135362  -0.2654803   0.3214125 SPIN=   0.00000
   O   0.4824508  -0.2164975   0.3332482 SPIN=   0.00000
   O   0.2930734  -0.3870917   0.1619632 SPIN=   0.00000
   S   0.2541248  -0.2232366   0.2516460 SPIN=   0.00000
   F  -0.5000000  -0.0000000  -0.4900053 SPIN=   0.00000
   F  -0.0000000  -0.5000000   0.4900053 SPIN=   0.00000
   F  -0.5000000   0.0000000  -0.0049475 SPIN=   0.00000
   F   0.0000000  -0.5000000   0.0049475 SPIN=   0.00000
%ENDBLOCK POSITIONS_FRAC

# Note: total spin =  16.00

KPOINTS_MP_SPACING 0.07

%BLOCK SPECIES_POT
QC5
%ENDBLOCK SPECIES_POT

SNAP_TO_SYMMETRY
SYMMETRY_GENERATE

