#              Generated by Buildcell
#
# at 14:50:18 (GMT+1.0) 18th August 2020
# in /lustre/scratch/uccabz1/launch_tmp
# on node-c12d-020
# by uccabz1
#
# compiler GCC version 4.9.2
# options -cpp -iprefix /lustre/shared/ucl/apps/gcc/4.9.2/bin/../lib/gcc/x86_64-unknown-linux-gnu/4.9.2/ -mtune=corei7 -march=x86-64 -g -Og
#
# seed -2037637353  1232442755  1614041836  1039632005 -1104439337 -1128771843  -565710588  1740351525  1265772942  -206036122   685539594  -849597052
#
#      Author: C. J. Pickard (cjp20@cam.ac.uk)
#                Space group: Cm
#

%BLOCK LATTICE_ABC
      5.04941      9.22435      9.22435
     68.77115     87.65675     87.65675
%ENDBLOCK LATTICE_ABC

%BLOCK POSITIONS_FRAC
  Li   0.1836933  -0.2993175   0.2618658 SPIN=   0.00000
  Li   0.1836933   0.2618658  -0.2993175 SPIN=   0.00000
  Li   0.0918273   0.1192970   0.1192970 SPIN=   0.00000
  Li  -0.4353127   0.2915036   0.2915036 SPIN=   0.00000
  Fe   0.2291270  -0.2002475  -0.2002475 SPIN=   4.71825
  Fe  -0.3929951   0.0250519   0.0250519 SPIN=   2.41332
  Fe  -0.2983778  -0.3990835  -0.3990835 SPIN=   1.67414
  Fe   0.0531069   0.3788707   0.3788707 SPIN=   7.19429
   O  -0.3271794  -0.2056329   0.1433493 SPIN=   0.00000
   O  -0.5348501  -0.4627009   0.2528516 SPIN=   0.00000
   O  -0.0567866  -0.4455576   0.1800323 SPIN=   0.00000
   O  -0.3917657  -0.3575594  -0.0246939 SPIN=   0.00000
   S  -0.3276455  -0.3678627   0.1378849 SPIN=   0.00000
   O  -0.3271794   0.1433493  -0.2056329 SPIN=   0.00000
   O  -0.5348501   0.2528516  -0.4627009 SPIN=   0.00000
   O  -0.0567866   0.1800323  -0.4455576 SPIN=   0.00000
   O  -0.3917657  -0.0246939  -0.3575594 SPIN=   0.00000
   S  -0.3276455   0.1378849  -0.3678627 SPIN=   0.00000
   O   0.6536166  -0.0087457   0.3697090 SPIN=   0.00000
   O   0.3138748  -0.0801123   0.2233284 SPIN=   0.00000
   O   0.1802480  -0.0093839   0.4508398 SPIN=   0.00000
   S   0.3929497  -0.0890871   0.3831552 SPIN=   0.00000
   O   0.6536166   0.3697090  -0.0087457 SPIN=   0.00000
   O   0.3138748   0.2233284  -0.0801123 SPIN=   0.00000
   O   0.1802480   0.4508398  -0.0093839 SPIN=   0.00000
   S   0.3929497   0.3831552  -0.0890871 SPIN=   0.00000
   O   0.4649285  -0.0967601  -0.0967601 SPIN=   0.00000
   O  -0.2589238   0.4678829   0.4678829 SPIN=   0.00000
   F   0.2211835  -0.4940959  -0.4940959 SPIN=   0.00000
   F  -0.0526719   0.2446872   0.2446872 SPIN=   0.00000
   F  -0.1198024  -0.2745125  -0.2745125 SPIN=   0.00000
   F   0.0273148  -0.0109841  -0.0109841 SPIN=   0.00000
%ENDBLOCK POSITIONS_FRAC

# Note: total spin =  16.00

KPOINTS_MP_SPACING 0.07

%BLOCK SPECIES_POT
QC5
%ENDBLOCK SPECIES_POT

SNAP_TO_SYMMETRY
SYMMETRY_GENERATE

