#              Generated by Buildcell
#
# at 12:05:34 (GMT+1.0) 18th August 2020
# in /lustre/scratch/uccabz1/launch_tmp
# on node-c12m-014
# by uccabz1
#
# compiler GCC version 4.9.2
# options -cpp -iprefix /lustre/shared/ucl/apps/gcc/4.9.2/bin/../lib/gcc/x86_64-unknown-linux-gnu/4.9.2/ -mtune=corei7 -march=x86-64 -g -Og
#
# seed -1488789426  -149169519 -1217445344  1648638564   298043472   885681839     9155701   244822741  1303986664  1211197859 -1068524806   267916803
#
#      Author: C. J. Pickard (cjp20@cam.ac.uk)
#                Space group: Cm
#

%BLOCK LATTICE_ABC
      7.85423      7.85423      8.07703
     63.63576     63.63576     78.41026
%ENDBLOCK LATTICE_ABC

%BLOCK POSITIONS_FRAC
  Li  -0.4648115  -0.4648115   0.4974284 SPIN=   0.00000
  Li  -0.1114885  -0.1114885   0.0707459 SPIN=   0.00000
  Li  -0.0996366  -0.0996366  -0.4498755 SPIN=   0.00000
  Li   0.2896628   0.2896628   0.0996837 SPIN=   0.00000
  Fe  -0.0876243   0.2714918   0.0955676 SPIN=   4.36554
  Fe   0.2714918  -0.0876243   0.0955676 SPIN=   4.36554
  Fe   0.2647335   0.2647335  -0.4377599 SPIN=   0.76540
  Fe  -0.4125127  -0.4125127  -0.1008248 SPIN=   6.50352
   O  -0.2293883   0.2328096  -0.5425335 SPIN=   0.00000
   O  -0.4450447   0.3166157  -0.2545639 SPIN=   0.00000
   O  -0.2425338   0.0289323  -0.1994522 SPIN=   0.00000
   O  -0.5141744   0.0376227  -0.2804060 SPIN=   0.00000
   S  -0.3577853   0.1539951  -0.3192389 SPIN=   0.00000
   O   0.2328096  -0.2293883  -0.5425335 SPIN=   0.00000
   O   0.3166157  -0.4450447  -0.2545639 SPIN=   0.00000
   O   0.0289323  -0.2425338  -0.1994522 SPIN=   0.00000
   O   0.0376227  -0.5141744  -0.2804060 SPIN=   0.00000
   S   0.1539951  -0.3577853  -0.3192389 SPIN=   0.00000
   O   0.3412256   0.0885293   0.4095182 SPIN=   0.00000
   O   0.5168861   0.1136268   0.0583383 SPIN=   0.00000
   O   0.5420736  -0.1791958   0.3423315 SPIN=   0.00000
   S   0.5229251   0.0352767   0.2642724 SPIN=   0.00000
   O   0.0885293   0.3412256   0.4095182 SPIN=   0.00000
   O   0.1136268   0.5168861   0.0583383 SPIN=   0.00000
   O  -0.1791958   0.5420736   0.3423315 SPIN=   0.00000
   S   0.0352767   0.5229251   0.2642724 SPIN=   0.00000
   O   0.2483672   0.2483672  -0.1277350 SPIN=   0.00000
   O  -0.2826062  -0.2826062  -0.0131883 SPIN=   0.00000
   F   0.4756648   0.4756648   0.3064837 SPIN=   0.00000
   F   0.0583471   0.0583471   0.2832534 SPIN=   0.00000
   F   0.0850671   0.0850671  -0.2336503 SPIN=   0.00000
   F  -0.3435007  -0.3435007  -0.3693869 SPIN=   0.00000
%ENDBLOCK POSITIONS_FRAC

# Note: total spin =  16.00

KPOINTS_MP_SPACING 0.07

%BLOCK SPECIES_POT
QC5
%ENDBLOCK SPECIES_POT

SNAP_TO_SYMMETRY
SYMMETRY_GENERATE

