#              Generated by Buildcell
#
# at 16:47:56 (GMT+1.0) 18th August 2020
# in /lustre/scratch/uccabz1/launch_tmp
# on node-c12p-013
# by uccabz1
#
# compiler GCC version 4.9.2
# options -cpp -iprefix /lustre/shared/ucl/apps/gcc/4.9.2/bin/../lib/gcc/x86_64-unknown-linux-gnu/4.9.2/ -mtune=corei7 -march=x86-64 -g -Og
#
# seed   384016126   973276619 -1955216216  -570380473 -1559947589   -15744123  1807075041  1737005269   108758625   426883019  -800932363  -515954157
#
#      Author: C. J. Pickard (cjp20@cam.ac.uk)
#                Space group: C2
#

%BLOCK LATTICE_ABC
      6.70615      8.02399      8.02399
     70.29094     81.64013     81.64013
%ENDBLOCK LATTICE_ABC

%BLOCK POSITIONS_FRAC
  Li  -0.3813200   0.3787723   0.0837999 SPIN=   0.00000
  Li   0.3813200  -0.0837999  -0.3787723 SPIN=   0.00000
  Li  -0.1574489  -0.0429613  -0.1957349 SPIN=   0.00000
  Li   0.1574489   0.1957349   0.0429613 SPIN=   0.00000
  Fe  -0.1627509   0.0391432   0.3581104 SPIN=   6.32274
  Fe   0.1627509  -0.3581104  -0.0391432 SPIN=   6.32274
  Fe   0.0000000   0.3149528  -0.3149528 SPIN=   1.36917
  Fe   0.5000000  -0.0968966   0.0968966 SPIN=   1.98536
   O  -0.2734684  -0.5472412  -0.1883721 SPIN=   0.00000
   O  -0.4369286  -0.3051441  -0.0732606 SPIN=   0.00000
   O  -0.3370225  -0.2414600  -0.3961664 SPIN=   0.00000
   O  -0.0740871  -0.3105245  -0.1890487 SPIN=   0.00000
   S  -0.2803766  -0.3510924  -0.2117119 SPIN=   0.00000
   O   0.2734684   0.1883721   0.5472412 SPIN=   0.00000
   O   0.4369286   0.0732606   0.3051441 SPIN=   0.00000
   O   0.3370225   0.3961664   0.2414600 SPIN=   0.00000
   O   0.0740871   0.1890487   0.3105245 SPIN=   0.00000
   S   0.2803766   0.2117119   0.3510924 SPIN=   0.00000
   O  -0.2409722  -0.2606988   0.2530025 SPIN=   0.00000
   O  -0.1390895  -0.4983373   0.1161068 SPIN=   0.00000
   O  -0.4028224  -0.5414832   0.3726850 SPIN=   0.00000
   S  -0.2069988  -0.4601618   0.2893807 SPIN=   0.00000
   O   0.2409722  -0.2530025   0.2606988 SPIN=   0.00000
   O   0.1390895  -0.1161068   0.4983373 SPIN=   0.00000
   O   0.4028224  -0.3726850   0.5414832 SPIN=   0.00000
   S   0.2069988  -0.2893807   0.4601618 SPIN=   0.00000
   O  -0.5000000   0.1214687  -0.1214687 SPIN=   0.00000
   O  -0.0000000  -0.4491378   0.4491378 SPIN=   0.00000
   F   0.2609635   0.4335656  -0.1048756 SPIN=   0.00000
   F  -0.2609635   0.1048756  -0.4335656 SPIN=   0.00000
   F   0.1910478  -0.0930684  -0.1371578 SPIN=   0.00000
   F  -0.1910478   0.1371578   0.0930684 SPIN=   0.00000
%ENDBLOCK POSITIONS_FRAC

# Note: total spin =  16.00

KPOINTS_MP_SPACING 0.07

%BLOCK SPECIES_POT
QC5
%ENDBLOCK SPECIES_POT

SNAP_TO_SYMMETRY
SYMMETRY_GENERATE

