#              Generated by Buildcell
#
# at 04:45:02 (GMT+1.0) 18th August 2020
# in /lustre/scratch/uccabz1/launch_tmp
# on node-c12h-024
# by uccabz1
#
# compiler GCC version 4.9.2
# options -cpp -iprefix /lustre/shared/ucl/apps/gcc/4.9.2/bin/../lib/gcc/x86_64-unknown-linux-gnu/4.9.2/ -mtune=corei7 -march=x86-64 -g -Og
#
# seed  -818884222  -727496810  -445272134  1163501157  -520229524  1989418103   680987745 -1669398398 -2050457303   267329463  1065724168   596628130
#
#      Author: C. J. Pickard (cjp20@cam.ac.uk)
#                Space group: P-1
#

%BLOCK LATTICE_ABC
      4.52584      6.52541     13.63711
     87.24730     87.61336     84.27797
%ENDBLOCK LATTICE_ABC

%BLOCK POSITIONS_FRAC
  Li  -0.4692941  -0.2574823   0.0541624 SPIN=   0.00000
  Li   0.4692941   0.2574823  -0.0541624 SPIN=   0.00000
  Li  -0.0592156   0.2792431   0.1518381 SPIN=   0.00000
  Li   0.0592156  -0.2792431  -0.1518381 SPIN=   0.00000
  Fe   0.4698644   0.0140135   0.2261837 SPIN=   2.65220
  Fe  -0.4698644  -0.0140135  -0.2261837 SPIN=   2.65220
  Fe   0.0102505   0.2820275  -0.4037208 SPIN=   5.34780
  Fe  -0.0102505  -0.2820275   0.4037208 SPIN=   5.34780
   O   0.2853024  -0.2676526   0.2294109 SPIN=   0.00000
   O  -0.1089599  -0.1082217   0.1217053 SPIN=   0.00000
   O  -0.2097446  -0.3993498   0.2372435 SPIN=   0.00000
   O   0.1270963  -0.4593385   0.0916118 SPIN=   0.00000
   S   0.0234236  -0.3086406   0.1699929 SPIN=   0.00000
   O  -0.2853024   0.2676526  -0.2294109 SPIN=   0.00000
   O   0.1089599   0.1082217  -0.1217053 SPIN=   0.00000
   O   0.2097446   0.3993498  -0.2372435 SPIN=   0.00000
   O  -0.1270963   0.4593385  -0.0916118 SPIN=   0.00000
   S  -0.0234236   0.3086406  -0.1699929 SPIN=   0.00000
   O  -0.1307808  -0.1015318  -0.4423170 SPIN=   0.00000
   O  -0.1670889  -0.3788029  -0.3133131 SPIN=   0.00000
   O   0.1539389  -0.1000522  -0.2913393 SPIN=   0.00000
   O   0.2972905  -0.3618190  -0.4145342 SPIN=   0.00000
   S   0.0383399  -0.2355515  -0.3653759 SPIN=   0.00000
   O   0.1307808   0.1015318   0.4423170 SPIN=   0.00000
   O   0.1670889   0.3788029   0.3133131 SPIN=   0.00000
   O  -0.1539389   0.1000522   0.2913393 SPIN=   0.00000
   O  -0.2972905   0.3618190   0.4145342 SPIN=   0.00000
   S  -0.0383399   0.2355515   0.3653759 SPIN=   0.00000
   F  -0.4153528   0.2317776   0.0830370 SPIN=   0.00000
   F   0.4153528  -0.2317776  -0.0830370 SPIN=   0.00000
   F   0.4888948  -0.2652867   0.3978957 SPIN=   0.00000
   F  -0.4888948   0.2652867  -0.3978957 SPIN=   0.00000
%ENDBLOCK POSITIONS_FRAC

# Note: total spin =  16.00

KPOINTS_MP_SPACING 0.07

%BLOCK SPECIES_POT
QC5
%ENDBLOCK SPECIES_POT

SNAP_TO_SYMMETRY
SYMMETRY_GENERATE

