#              Generated by Buildcell
#
# at 03:26:14 (GMT+1.0) 18th August 2020
# in /lustre/scratch/uccabz1/launch_tmp
# on node-c12i-003
# by uccabz1
#
# compiler GCC version 4.9.2
# options -cpp -iprefix /lustre/shared/ucl/apps/gcc/4.9.2/bin/../lib/gcc/x86_64-unknown-linux-gnu/4.9.2/ -mtune=corei7 -march=x86-64 -g -Og
#
# seed  -463665220  -206461757   106295086  -734897434 -1736608755  2078498553   -36554744 -1666051048 -1258062882 -2052612766  1647350934  1220639129
#
#      Author: C. J. Pickard (cjp20@cam.ac.uk)
#                Space group: P21
#

%BLOCK LATTICE_ABC
      6.54019      6.61950      9.54143
     90.00000     90.00000    104.45432
%ENDBLOCK LATTICE_ABC

%BLOCK POSITIONS_FRAC
  Li  -0.0919486   0.0210569   0.0956533 SPIN=   0.00000
  Li   0.0919486  -0.0210569  -0.4043467 SPIN=   0.00000
  Li   0.3730450   0.3016235  -0.1105484 SPIN=   0.00000
  Li  -0.3730450  -0.3016235   0.3894516 SPIN=   0.00000
  Fe  -0.0540577   0.4295778  -0.4371516 SPIN=   2.12475
  Fe   0.0540577  -0.4295778   0.0628484 SPIN=   2.12475
  Fe   0.4358132  -0.2258495  -0.2713888 SPIN=   5.87525
  Fe  -0.4358132   0.2258495   0.2286112 SPIN=   5.87525
   O   0.5471179   0.5496260  -0.3913956 SPIN=   0.00000
   O   0.3332475   0.1944408  -0.3357045 SPIN=   0.00000
   O   0.5705086   0.2516182  -0.5418042 SPIN=   0.00000
   O   0.2465291   0.3807604  -0.5435538 SPIN=   0.00000
   S   0.4243508   0.3441114  -0.4531145 SPIN=   0.00000
   O  -0.5471179  -0.5496260   0.1086044 SPIN=   0.00000
   O  -0.3332475  -0.1944408   0.1642955 SPIN=   0.00000
   O  -0.5705086  -0.2516182  -0.0418042 SPIN=   0.00000
   O  -0.2465291  -0.3807604  -0.0435538 SPIN=   0.00000
   S  -0.4243508  -0.3441114   0.0468855 SPIN=   0.00000
   O  -0.3627355   0.1900464   0.0081634 SPIN=   0.00000
   O  -0.3374859   0.3330651  -0.2326515 SPIN=   0.00000
   O  -0.2861310  -0.0199026  -0.1905532 SPIN=   0.00000
   O  -0.0161469   0.2915424  -0.1111361 SPIN=   0.00000
   S  -0.2506248   0.1986878  -0.1315443 SPIN=   0.00000
   O   0.3627355  -0.1900464   0.5081634 SPIN=   0.00000
   O   0.3374859  -0.3330651   0.2673485 SPIN=   0.00000
   O   0.2861310   0.0199026   0.3094468 SPIN=   0.00000
   O   0.0161469  -0.2915424   0.3888639 SPIN=   0.00000
   S   0.2506248  -0.1986878   0.3684557 SPIN=   0.00000
   F  -0.2086860  -0.0615337  -0.4686888 SPIN=   0.00000
   F   0.2086860   0.0615337   0.0313112 SPIN=   0.00000
   F  -0.1275447   0.3258387   0.2414425 SPIN=   0.00000
   F   0.1275447  -0.3258387  -0.2585575 SPIN=   0.00000
%ENDBLOCK POSITIONS_FRAC

# Note: total spin =  16.00

KPOINTS_MP_SPACING 0.07

%BLOCK SPECIES_POT
QC5
%ENDBLOCK SPECIES_POT

SNAP_TO_SYMMETRY
SYMMETRY_GENERATE

