#              Generated by Buildcell
#
# at 09:55:18 (GMT+1.0) 18th August 2020
# in /lustre/scratch/uccabz1/launch_tmp
# on node-c12n-011
# by uccabz1
#
# compiler GCC version 4.9.2
# options -cpp -iprefix /lustre/shared/ucl/apps/gcc/4.9.2/bin/../lib/gcc/x86_64-unknown-linux-gnu/4.9.2/ -mtune=corei7 -march=x86-64 -g -Og
#
# seed -1716709413  1606203765 -1304688066   623739782 -1910230393   914034021   694641676  -989410554    48652933 -1087120250  -975783044 -2117754690
#
#      Author: C. J. Pickard (cjp20@cam.ac.uk)
#                Space group: P2
#

%BLOCK LATTICE_ABC
      5.52484      7.31178      9.90411
     91.21753     90.00000     90.00000
%ENDBLOCK LATTICE_ABC

%BLOCK POSITIONS_FRAC
  Li  -0.3697364  -0.4680269   0.1976393 SPIN=   0.00000
  Li  -0.3697364   0.4680269  -0.1976393 SPIN=   0.00000
  Li   0.2263224   0.0647137  -0.3276582 SPIN=   0.00000
  Li   0.2263224  -0.0647137   0.3276582 SPIN=   0.00000
  Fe   0.1305453  -0.4689869   0.3180985 SPIN=   3.03000
  Fe   0.1305453   0.4689869  -0.3180985 SPIN=   3.03000
  Fe  -0.3662797  -0.2135222  -0.4057983 SPIN=   4.97000
  Fe  -0.3662797   0.2135222   0.4057983 SPIN=   4.97000
   O   0.5438851   0.3353055   0.0667234 SPIN=   0.00000
   O   0.1073470   0.4058012   0.0886805 SPIN=   0.00000
   O   0.2783870   0.1350105   0.2001525 SPIN=   0.00000
   O   0.2409603   0.1378203  -0.0488046 SPIN=   0.00000
   S   0.2926448   0.2534844   0.0766879 SPIN=   0.00000
   O   0.5438851  -0.3353055  -0.0667234 SPIN=   0.00000
   O   0.1073470  -0.4058012  -0.0886805 SPIN=   0.00000
   O   0.2783870  -0.1350105  -0.2001525 SPIN=   0.00000
   O   0.2409603  -0.1378203   0.0488046 SPIN=   0.00000
   S   0.2926448  -0.2534844  -0.0766879 SPIN=   0.00000
   O  -0.1260018  -0.0901082  -0.1891845 SPIN=   0.00000
   O  -0.1588604   0.1982923  -0.0550689 SPIN=   0.00000
   O  -0.4806691   0.1120534  -0.2181759 SPIN=   0.00000
   O  -0.0780831   0.2074884  -0.3006181 SPIN=   0.00000
   S  -0.2109036   0.1069315  -0.1907619 SPIN=   0.00000
   O  -0.1260018   0.0901082   0.1891845 SPIN=   0.00000
   O  -0.1588604  -0.1982923   0.0550689 SPIN=   0.00000
   O  -0.4806691  -0.1120534   0.2181759 SPIN=   0.00000
   O  -0.0780831  -0.2074884   0.3006181 SPIN=   0.00000
   S  -0.2109036  -0.1069315   0.1907619 SPIN=   0.00000
   F  -0.1820294  -0.4051309  -0.3148629 SPIN=   0.00000
   F  -0.1820294   0.4051309   0.3148629 SPIN=   0.00000
   F   0.3233697   0.2515251  -0.4343153 SPIN=   0.00000
   F   0.3233697  -0.2515251   0.4343153 SPIN=   0.00000
%ENDBLOCK POSITIONS_FRAC

# Note: total spin =  16.00

KPOINTS_MP_SPACING 0.07

%BLOCK SPECIES_POT
QC5
%ENDBLOCK SPECIES_POT

SNAP_TO_SYMMETRY
SYMMETRY_GENERATE

