#              Generated by Buildcell
#
# at 13:16:36 (GMT+1.0) 18th August 2020
# in /lustre/scratch/uccabz1/launch_tmp
# on node-c12c-009
# by uccabz1
#
# compiler GCC version 4.9.2
# options -cpp -iprefix /lustre/shared/ucl/apps/gcc/4.9.2/bin/../lib/gcc/x86_64-unknown-linux-gnu/4.9.2/ -mtune=corei7 -march=x86-64 -g -Og
#
# seed   762376245    49520923  1077604573   569308433 -1113915992  1251034742  1418045711  1112083901   435276433  1062547140  -768577926 -1180450149
#
#      Author: C. J. Pickard (cjp20@cam.ac.uk)
#                Space group: Pc
#

%BLOCK LATTICE_ABC
      4.23374      6.32078     15.11501
     98.54070     90.00000     90.00000
%ENDBLOCK LATTICE_ABC

%BLOCK POSITIONS_FRAC
  Li   0.2390545  -0.3257470  -0.4950020 SPIN=   0.00000
  Li  -0.2390545  -0.3257470   0.0049980 SPIN=   0.00000
  Li   0.1358814  -0.3789414   0.2434500 SPIN=   0.00000
  Li  -0.1358814  -0.3789414  -0.2565500 SPIN=   0.00000
  Fe  -0.1074605   0.0521832   0.4504232 SPIN=   3.47411
  Fe   0.1074605   0.0521832  -0.0495768 SPIN=   3.47411
  Fe  -0.3928243   0.3502872   0.1267732 SPIN=   4.52589
  Fe   0.3928243   0.3502872  -0.3732268 SPIN=   4.52589
   O   0.0344681  -0.6362271  -0.1763887 SPIN=   0.00000
   O   0.1094062  -0.2478578  -0.1283026 SPIN=   0.00000
   O   0.5698804  -0.4916337  -0.1401495 SPIN=   0.00000
   O   0.1773787  -0.5006522  -0.0194300 SPIN=   0.00000
   S   0.2227834  -0.4690927  -0.1160677 SPIN=   0.00000
   O  -0.0344681  -0.6362271   0.3236113 SPIN=   0.00000
   O  -0.1094062  -0.2478578   0.3716974 SPIN=   0.00000
   O  -0.5698804  -0.4916337   0.3598505 SPIN=   0.00000
   O  -0.1773787  -0.5006522   0.4805700 SPIN=   0.00000
   S  -0.2227834  -0.4690927   0.3839323 SPIN=   0.00000
   O  -0.3892237   0.2512839  -0.2609080 SPIN=   0.00000
   O  -0.4629463  -0.1390639  -0.3031809 SPIN=   0.00000
   O  -0.5369917   0.0284781  -0.1458782 SPIN=   0.00000
   O  -0.0012643  -0.0005444  -0.2120857 SPIN=   0.00000
   S  -0.3476065   0.0350384  -0.2305132 SPIN=   0.00000
   O   0.3892237   0.2512839   0.2390920 SPIN=   0.00000
   O   0.4629463  -0.1390639   0.1968191 SPIN=   0.00000
   O   0.5369917   0.0284781   0.3541218 SPIN=   0.00000
   O   0.0012643  -0.0005444   0.2879143 SPIN=   0.00000
   S   0.3476065   0.0350384   0.2694868 SPIN=   0.00000
   F   0.4814487   0.0514756   0.0233232 SPIN=   0.00000
   F  -0.4814487   0.0514756  -0.4766768 SPIN=   0.00000
   F   0.1082102  -0.4109209  -0.3701531 SPIN=   0.00000
   F  -0.1082102  -0.4109209   0.1298469 SPIN=   0.00000
%ENDBLOCK POSITIONS_FRAC

# Note: total spin =  16.00

KPOINTS_MP_SPACING 0.07

%BLOCK SPECIES_POT
QC5
%ENDBLOCK SPECIES_POT

SNAP_TO_SYMMETRY
SYMMETRY_GENERATE

