#              Generated by Buildcell
#
# at 07:48:57 (GMT+1.0) 4th August 2020
# in /lustre/scratch/uccabz1/launch_tmp
# on node-c12d-001
# by uccabz1
#
# compiler GCC version 4.9.2
# options -cpp -iprefix /lustre/shared/ucl/apps/gcc/4.9.2/bin/../lib/gcc/x86_64-unknown-linux-gnu/4.9.2/ -mtune=corei7 -march=x86-64 -g -Og
#
# seed   704684067  -427431177 -1736656719 -2083440576 -1482762441   818933230  -224611011 -1183886809   390944125  1168372594   794969926   274173514
#
#      Author: C. J. Pickard (cjp20@cam.ac.uk)
#                Space group: P21
#

%BLOCK LATTICE_ABC
      4.56057      7.39257     12.03088
     90.00000     90.00000     99.54327
%ENDBLOCK LATTICE_ABC

%BLOCK POSITIONS_FRAC
  Li   0.4662234   0.4934423   0.4229081 SPIN=   0.00000
  Li  -0.4662234  -0.4934423  -0.0770919 SPIN=   0.00000
  Li  -0.1474836  -0.1740801  -0.3138877 SPIN=   0.00000
  Li   0.1474836   0.1740801   0.1861123 SPIN=   0.00000
  Fe   0.0400693  -0.2335669   0.4007516 SPIN=   4.30239
  Fe  -0.0400693   0.2335669  -0.0992484 SPIN=   4.30239
  Fe  -0.4493026   0.1604956  -0.3614126 SPIN=   3.69761
  Fe   0.4493026  -0.1604956   0.1385874 SPIN=   3.69761
   O   0.4249894  -0.2515594  -0.0351756 SPIN=   0.00000
   O  -0.0739439  -0.3414301  -0.1185992 SPIN=   0.00000
   O   0.3563114  -0.2211677  -0.2379783 SPIN=   0.00000
   O   0.1529305  -0.0137011  -0.1081228 SPIN=   0.00000
   S   0.2150718  -0.2069646  -0.1249689 SPIN=   0.00000
   O  -0.4249894   0.2515594   0.4648244 SPIN=   0.00000
   O   0.0739439   0.3414301   0.3814008 SPIN=   0.00000
   O  -0.3563114   0.2211677   0.2620217 SPIN=   0.00000
   O  -0.1529305   0.0137011   0.3918772 SPIN=   0.00000
   S  -0.2150718   0.2069646   0.3750311 SPIN=   0.00000
   O  -0.4640883  -0.5289178   0.0884390 SPIN=   0.00000
   O   0.0214531  -0.6352405   0.0748414 SPIN=   0.00000
   O  -0.1093009  -0.4793936   0.2454743 SPIN=   0.00000
   O  -0.0008021  -0.3030640   0.0712237 SPIN=   0.00000
   S  -0.1381846  -0.4866540   0.1199946 SPIN=   0.00000
   O   0.4640883   0.5289178  -0.4115610 SPIN=   0.00000
   O  -0.0214531   0.6352405  -0.4251586 SPIN=   0.00000
   O   0.1093009   0.4793936  -0.2545257 SPIN=   0.00000
   O   0.0008021   0.3030640  -0.4287763 SPIN=   0.00000
   S   0.1381846   0.4866540  -0.3800054 SPIN=   0.00000
   F  -0.4113154   0.2804012  -0.1652779 SPIN=   0.00000
   F   0.4113154  -0.2804012   0.3347221 SPIN=   0.00000
   F   0.2333132  -0.0070129  -0.4108810 SPIN=   0.00000
   F  -0.2333132   0.0070129   0.0891190 SPIN=   0.00000
%ENDBLOCK POSITIONS_FRAC

# Note: total spin =  16.00

KPOINTS_MP_SPACING 0.07

%BLOCK SPECIES_POT
QC5
%ENDBLOCK SPECIES_POT

SNAP_TO_SYMMETRY
SYMMETRY_GENERATE

