#              Generated by Buildcell
#
# at 07:39:15 (GMT+1.0) 4th August 2020
# in /lustre/scratch/uccabz1/launch_tmp
# on node-c12m-018
# by uccabz1
#
# compiler GCC version 4.9.2
# options -cpp -iprefix /lustre/shared/ucl/apps/gcc/4.9.2/bin/../lib/gcc/x86_64-unknown-linux-gnu/4.9.2/ -mtune=corei7 -march=x86-64 -g -Og
#
# seed  -142105787 -1840311640 -2131862025 -1625354915 -1857833430 -1073967174  2109756934 -2030687254  -172560799 -1015946467  1139472304  -126990145
#
#      Author: C. J. Pickard (cjp20@cam.ac.uk)
#                Space group: Pnn2
#

%BLOCK LATTICE_ABC
      4.00342      7.84803     12.73116
     90.00000     90.00000     90.00000
%ENDBLOCK LATTICE_ABC

%BLOCK POSITIONS_FRAC
  Li   0.2505698  -0.0463538  -0.1984214 SPIN=   0.00000
  Li   0.2505698   0.0463538   0.1984214 SPIN=   0.00000
  Li  -0.2494302  -0.4536462   0.3015786 SPIN=   0.00000
  Li  -0.2494302   0.4536462  -0.3015786 SPIN=   0.00000
  Fe   0.3738258   0.3078164  -0.1175379 SPIN=   4.00000
  Fe   0.3738258  -0.3078164   0.1175379 SPIN=   4.00000
  Fe  -0.1261742   0.1921836   0.3824621 SPIN=   4.00000
  Fe  -0.1261742  -0.1921836  -0.3824621 SPIN=   4.00000
   O   0.0047822   0.5171719   0.1574422 SPIN=   0.00000
   O  -0.2954779   0.2523996   0.2047143 SPIN=   0.00000
   O   0.2223124   0.2376817   0.0989053 SPIN=   0.00000
   O  -0.2957655   0.3537949   0.0206420 SPIN=   0.00000
   S  -0.0910372   0.3402620   0.1204259 SPIN=   0.00000
   O   0.0047822  -0.5171719  -0.1574422 SPIN=   0.00000
   O  -0.2954779  -0.2523996  -0.2047143 SPIN=   0.00000
   O   0.2223124  -0.2376817  -0.0989053 SPIN=   0.00000
   O  -0.2957655  -0.3537949  -0.0206420 SPIN=   0.00000
   S  -0.0910372  -0.3402620  -0.1204259 SPIN=   0.00000
   O   0.5047822  -0.0171719  -0.3425578 SPIN=   0.00000
   O   0.2045221   0.2476004  -0.2952857 SPIN=   0.00000
   O   0.7223124   0.2623183  -0.4010947 SPIN=   0.00000
   O   0.2042345   0.1462051  -0.4793580 SPIN=   0.00000
   S   0.4089628   0.1597380  -0.3795741 SPIN=   0.00000
   O   0.5047822   0.0171719   0.3425578 SPIN=   0.00000
   O   0.2045221  -0.2476004   0.2952857 SPIN=   0.00000
   O   0.7223124  -0.2623183   0.4010947 SPIN=   0.00000
   O   0.2042345  -0.1462051   0.4793580 SPIN=   0.00000
   S   0.4089628  -0.1597380   0.3795741 SPIN=   0.00000
   F  -0.0962042   0.1282178  -0.1366510 SPIN=   0.00000
   F  -0.0962042  -0.1282178   0.1366510 SPIN=   0.00000
   F   0.4037958   0.3717822   0.3633490 SPIN=   0.00000
   F   0.4037958  -0.3717822  -0.3633490 SPIN=   0.00000
%ENDBLOCK POSITIONS_FRAC

# Note: total spin =  16.00

KPOINTS_MP_SPACING 0.07

%BLOCK SPECIES_POT
QC5
%ENDBLOCK SPECIES_POT

SNAP_TO_SYMMETRY
SYMMETRY_GENERATE

