#              Generated by Buildcell
#
# at 08:40:02 (GMT+1.0) 18th August 2020
# in /lustre/scratch/uccabz1/launch_tmp
# on node-c12g-030
# by uccabz1
#
# compiler GCC version 4.9.2
# options -cpp -iprefix /lustre/shared/ucl/apps/gcc/4.9.2/bin/../lib/gcc/x86_64-unknown-linux-gnu/4.9.2/ -mtune=corei7 -march=x86-64 -g -Og
#
# seed -1781244666  1078051082  1853725084   910451217  1440488392  -790301233 -1960442329  1182318749  1051190339    67240484 -1925768571   831190429
#
#      Author: C. J. Pickard (cjp20@cam.ac.uk)
#                Space group: P21
#

%BLOCK LATTICE_ABC
      6.61305      7.13315      9.09310
     90.00000     90.00000    111.16651
%ENDBLOCK LATTICE_ABC

%BLOCK POSITIONS_FRAC
  Li  -0.4907526  -0.2690100  -0.0371029 SPIN=   0.00000
  Li   0.4907526   0.2690100   0.4628971 SPIN=   0.00000
  Li   0.0193254   0.2814737   0.0850139 SPIN=   0.00000
  Li  -0.0193254  -0.2814737  -0.4149861 SPIN=   0.00000
  Fe   0.4239885  -0.3847083  -0.3712587 SPIN=   4.28241
  Fe  -0.4239885   0.3847083   0.1287413 SPIN=   4.28241
  Fe  -0.3948680  -0.0987291   0.2748267 SPIN=   3.71759
  Fe   0.3948680   0.0987291  -0.2251733 SPIN=   3.71759
   O  -0.3130955  -0.1580101  -0.2095681 SPIN=   0.00000
   O  -0.2145121   0.1974166  -0.2846249 SPIN=   0.00000
   O  -0.0652333  -0.0245861  -0.4199324 SPIN=   0.00000
   O   0.0589822   0.0844432  -0.1665937 SPIN=   0.00000
   S  -0.1334647   0.0248159  -0.2701798 SPIN=   0.00000
   O   0.3130955   0.1580101   0.2904319 SPIN=   0.00000
   O   0.2145121  -0.1974166   0.2153751 SPIN=   0.00000
   O   0.0652333   0.0245861   0.0800676 SPIN=   0.00000
   O  -0.0589822  -0.0844432   0.3334063 SPIN=   0.00000
   S   0.1334647  -0.0248159   0.2298202 SPIN=   0.00000
   O  -0.1044314  -0.4098278   0.0530233 SPIN=   0.00000
   O   0.0293264  -0.6124836  -0.1148254 SPIN=   0.00000
   O   0.2328480  -0.2471160  -0.0892006 SPIN=   0.00000
   O  -0.1219178  -0.3689866  -0.2164100 SPIN=   0.00000
   S   0.0089563  -0.4096035  -0.0918532 SPIN=   0.00000
   O   0.1044314   0.4098278   0.5530233 SPIN=   0.00000
   O  -0.0293264   0.6124836   0.3851746 SPIN=   0.00000
   O  -0.2328480   0.2471160   0.4107994 SPIN=   0.00000
   O   0.1219178   0.3689866   0.2835900 SPIN=   0.00000
   S  -0.0089563   0.4096035   0.4081468 SPIN=   0.00000
   F   0.4392536   0.4127925  -0.1985307 SPIN=   0.00000
   F  -0.4392536  -0.4127925   0.3014693 SPIN=   0.00000
   F   0.3099602  -0.1223091  -0.4060960 SPIN=   0.00000
   F  -0.3099602   0.1223091   0.0939040 SPIN=   0.00000
%ENDBLOCK POSITIONS_FRAC

# Note: total spin =  16.00

KPOINTS_MP_SPACING 0.07

%BLOCK SPECIES_POT
QC5
%ENDBLOCK SPECIES_POT

SNAP_TO_SYMMETRY
SYMMETRY_GENERATE

