#              Generated by Buildcell
#
# at 06:23:34 (GMT+1.0) 18th August 2020
# in /lustre/scratch/uccabz1/launch_tmp
# on node-c12d-004
# by uccabz1
#
# compiler GCC version 4.9.2
# options -cpp -iprefix /lustre/shared/ucl/apps/gcc/4.9.2/bin/../lib/gcc/x86_64-unknown-linux-gnu/4.9.2/ -mtune=corei7 -march=x86-64 -g -Og
#
# seed   431209577 -1226563382  1387426988   -83567345  1360110021  1431287737 -2005043635  1538511897 -1808686332  1493968772  2047652681 -1393161654
#
#      Author: C. J. Pickard (cjp20@cam.ac.uk)
#                Space group: P2
#

%BLOCK LATTICE_ABC
      6.59957      7.27315      8.81053
     90.00000     90.00000    108.94260
%ENDBLOCK LATTICE_ABC

%BLOCK POSITIONS_FRAC
  Li   0.0913252  -0.2136789  -0.0866861 SPIN=   0.00000
  Li  -0.0913252   0.2136789  -0.0866861 SPIN=   0.00000
  Li   0.2524296  -0.2020700   0.3148300 SPIN=   0.00000
  Li  -0.2524296   0.2020700   0.3148300 SPIN=   0.00000
  Fe   0.4356089   0.2305082  -0.4046393 SPIN=   3.71839
  Fe  -0.4356089  -0.2305082  -0.4046393 SPIN=   3.71839
  Fe  -0.2106081  -0.3806172   0.2469082 SPIN=   4.28161
  Fe   0.2106081   0.3806172   0.2469082 SPIN=   4.28161
   O  -0.3233279  -0.1210631   0.1057956 SPIN=   0.00000
   O  -0.3277412  -0.0718555  -0.1719746 SPIN=   0.00000
   O  -0.6489531  -0.2900015  -0.0426878 SPIN=   0.00000
   O  -0.3246875  -0.3876301  -0.0692066 SPIN=   0.00000
   S  -0.4061774  -0.2176375  -0.0445183 SPIN=   0.00000
   O   0.3233279   0.1210631   0.1057956 SPIN=   0.00000
   O   0.3277412   0.0718555  -0.1719746 SPIN=   0.00000
   O   0.6489531   0.2900015  -0.0426878 SPIN=   0.00000
   O   0.3246875   0.3876301  -0.0692066 SPIN=   0.00000
   S   0.4061774   0.2176375  -0.0445183 SPIN=   0.00000
   O  -0.2342549   0.3237012  -0.3617744 SPIN=   0.00000
   O  -0.1720992   0.0143138  -0.4233124 SPIN=   0.00000
   O   0.0951227   0.2654091  -0.2722802 SPIN=   0.00000
   O   0.0483238   0.3203456  -0.5453861 SPIN=   0.00000
   S  -0.0657269   0.2309424  -0.4006883 SPIN=   0.00000
   O   0.2342549  -0.3237012  -0.3617744 SPIN=   0.00000
   O   0.1720992  -0.0143138  -0.4233124 SPIN=   0.00000
   O  -0.0951227  -0.2654091  -0.2722802 SPIN=   0.00000
   O  -0.0483238  -0.3203456  -0.5453861 SPIN=   0.00000
   S   0.0657269  -0.2309424  -0.4006883 SPIN=   0.00000
   F   0.0318047  -0.2432281   0.1428474 SPIN=   0.00000
   F  -0.0318047   0.2432281   0.1428474 SPIN=   0.00000
   F  -0.4728996  -0.2446825   0.3898081 SPIN=   0.00000
   F   0.4728996   0.2446825   0.3898081 SPIN=   0.00000
%ENDBLOCK POSITIONS_FRAC

# Note: total spin =  16.00

KPOINTS_MP_SPACING 0.07

%BLOCK SPECIES_POT
QC5
%ENDBLOCK SPECIES_POT

SNAP_TO_SYMMETRY
SYMMETRY_GENERATE

