#              Generated by Buildcell
#
# at 06:46:31 (GMT+1.0) 4th August 2020
# in /lustre/scratch/uccabz1/launch_tmp
# on node-c12k-006
# by uccabz1
#
# compiler GCC version 4.9.2
# options -cpp -iprefix /lustre/shared/ucl/apps/gcc/4.9.2/bin/../lib/gcc/x86_64-unknown-linux-gnu/4.9.2/ -mtune=corei7 -march=x86-64 -g -Og
#
# seed  -684608412  1285872328 -1192589507 -1381250253  1725064716  1060397745  1495485154  -625796068 -1931521237  1232339631   570093028  1511286918
#
#      Author: C. J. Pickard (cjp20@cam.ac.uk)
#                Space group: Cc
#

%BLOCK LATTICE_ABC
      5.48955      9.26441      9.31818
    119.80929    101.60065     90.00000
%ENDBLOCK LATTICE_ABC

%BLOCK POSITIONS_FRAC
  Li   0.0983652   0.1662950   0.0580518 SPIN=   0.00000
  Li  -0.4016348  -0.1082431   0.0580518 SPIN=   0.00000
  Li  -0.2908442  -0.3285717  -0.3815947 SPIN=   0.00000
  Li   0.2091558  -0.0530230  -0.3815947 SPIN=   0.00000
  Fe   0.4530519   0.3161949  -0.0497369 SPIN=   3.77429
  Fe  -0.0469481  -0.3659318  -0.0497369 SPIN=   3.77429
  Fe   0.1637291  -0.4377189   0.3969892 SPIN=   4.22571
  Fe  -0.3362709  -0.1652920   0.3969892 SPIN=   4.22571
   O   0.2862946  -0.0868177   0.1553958 SPIN=   0.00000
   O  -0.0930715   0.0348404   0.2492747 SPIN=   0.00000
   O   0.3227399   0.1484051   0.4489619 SPIN=   0.00000
   O   0.1296427  -0.1327097   0.3624366 SPIN=   0.00000
   S   0.1614014  -0.0090705   0.3040172 SPIN=   0.00000
   O  -0.2137054   0.2422135   0.1553958 SPIN=   0.00000
   O  -0.5930715   0.2144343   0.2492747 SPIN=   0.00000
   O  -0.1772601   0.3005568   0.4489619 SPIN=   0.00000
   O  -0.3703573   0.4951463   0.3624366 SPIN=   0.00000
   S  -0.3385986   0.3130877   0.3040172 SPIN=   0.00000
   O  -0.1293744   0.3937933  -0.2419523 SPIN=   0.00000
   O  -0.3942361   0.1332567  -0.3332308 SPIN=   0.00000
   O   0.0323336   0.1954612  -0.1511059 SPIN=   0.00000
   O  -0.0240488   0.1195666  -0.4516103 SPIN=   0.00000
   S  -0.1288314   0.2105195  -0.2944748 SPIN=   0.00000
   O   0.3706256   0.3642544  -0.2419523 SPIN=   0.00000
   O   0.1057639   0.5335125  -0.3332308 SPIN=   0.00000
   O   0.5323336   0.6534330  -0.1511059 SPIN=   0.00000
   O   0.4759512   0.4288231  -0.4516103 SPIN=   0.00000
   S   0.3711686   0.4950057  -0.2944748 SPIN=   0.00000
   F   0.1080154   0.4317842   0.1498940 SPIN=   0.00000
   F  -0.3919846  -0.2818902   0.1498940 SPIN=   0.00000
   F   0.4398098   0.0737714  -0.1355527 SPIN=   0.00000
   F  -0.0601902  -0.2093240  -0.1355527 SPIN=   0.00000
%ENDBLOCK POSITIONS_FRAC

# Note: total spin =  16.00

KPOINTS_MP_SPACING 0.07

%BLOCK SPECIES_POT
QC5
%ENDBLOCK SPECIES_POT

SNAP_TO_SYMMETRY
SYMMETRY_GENERATE

