#              Generated by Buildcell
#
# at 07:45:38 (GMT+1.0) 4th August 2020
# in /lustre/scratch/uccabz1/launch_tmp
# on node-c12d-014
# by uccabz1
#
# compiler GCC version 4.9.2
# options -cpp -iprefix /lustre/shared/ucl/apps/gcc/4.9.2/bin/../lib/gcc/x86_64-unknown-linux-gnu/4.9.2/ -mtune=corei7 -march=x86-64 -g -Og
#
# seed  -698846965 -1016794330  2006417056 -1475032973   -22685877  -941612024  1663284021  -934346390 -1789950869  1170260624  -511982832  1029074603
#
#      Author: C. J. Pickard (cjp20@cam.ac.uk)
#                Space group: P21
#

%BLOCK LATTICE_ABC
      4.75507      8.72948      9.73225
     90.00000     98.04852     90.00000
%ENDBLOCK LATTICE_ABC

%BLOCK POSITIONS_FRAC
  Li  -0.4129656  -0.1543718  -0.4295535 SPIN=   0.00000
  Li   0.4129656   0.3456282   0.4295535 SPIN=   0.00000
  Li   0.2630943   0.3289598  -0.0276876 SPIN=   0.00000
  Li  -0.2630943  -0.1710402   0.0276876 SPIN=   0.00000
  Fe  -0.3618989  -0.4487749  -0.1716170 SPIN=   4.47707
  Fe   0.3618989   0.0512251   0.1716170 SPIN=   4.47707
  Fe   0.1304613  -0.1317722  -0.1982342 SPIN=   3.52293
  Fe  -0.1304613   0.3682278   0.1982342 SPIN=   3.52293
   O   0.1965976  -0.2927999  -0.4779079 SPIN=   0.00000
   O  -0.2866929  -0.3846250  -0.4542407 SPIN=   0.00000
   O   0.1224483  -0.4634647  -0.2831149 SPIN=   0.00000
   O   0.0703905  -0.5650375  -0.5227518 SPIN=   0.00000
   S   0.0256859  -0.4264817  -0.4345038 SPIN=   0.00000
   O  -0.1965976   0.2072001   0.4779079 SPIN=   0.00000
   O   0.2866929   0.1153750   0.4542407 SPIN=   0.00000
   O  -0.1224483   0.0365353   0.2831149 SPIN=   0.00000
   O  -0.0703905  -0.0650375   0.5227518 SPIN=   0.00000
   S  -0.0256859   0.0735183   0.4345038 SPIN=   0.00000
   O  -0.3763812   0.0661020  -0.3482734 SPIN=   0.00000
   O  -0.7276458   0.1108820  -0.1874359 SPIN=   0.00000
   O  -0.5701880   0.3262037  -0.3235062 SPIN=   0.00000
   O  -0.2392422   0.2126645  -0.1315690 SPIN=   0.00000
   S  -0.4783643   0.1789630  -0.2476961 SPIN=   0.00000
   O   0.3763812  -0.4338980   0.3482734 SPIN=   0.00000
   O   0.7276458  -0.3891180   0.1874359 SPIN=   0.00000
   O   0.5701880  -0.1737963   0.3235062 SPIN=   0.00000
   O   0.2392422  -0.2873355   0.1315690 SPIN=   0.00000
   S   0.4783643  -0.3210370   0.2476961 SPIN=   0.00000
   F   0.0341943  -0.0130859   0.0280574 SPIN=   0.00000
   F  -0.0341943   0.4869141  -0.0280574 SPIN=   0.00000
   F  -0.4357376  -0.2190864  -0.2381451 SPIN=   0.00000
   F   0.4357376   0.2809136   0.2381451 SPIN=   0.00000
%ENDBLOCK POSITIONS_FRAC

# Note: total spin =  16.00

KPOINTS_MP_SPACING 0.07

%BLOCK SPECIES_POT
QC5
%ENDBLOCK SPECIES_POT

SNAP_TO_SYMMETRY
SYMMETRY_GENERATE

