#              Generated by Buildcell
#
# at 00:08:49 (GMT+1.0) 18th August 2020
# in /lustre/scratch/uccabz1/launch_tmp
# on node-c12n-005
# by uccabz1
#
# compiler GCC version 4.9.2
# options -cpp -iprefix /lustre/shared/ucl/apps/gcc/4.9.2/bin/../lib/gcc/x86_64-unknown-linux-gnu/4.9.2/ -mtune=corei7 -march=x86-64 -g -Og
#
# seed  1978233557  -272246073  -136634646 -1238042312  1320024734   780088444   636785724  -737062169  1565522743  1685905278    27713800  -301870174
#
#      Author: C. J. Pickard (cjp20@cam.ac.uk)
#                Space group: Cm
#

%BLOCK LATTICE_ABC
      4.24032      9.71418      9.71418
     89.94285     88.93000     88.93000
%ENDBLOCK LATTICE_ABC

%BLOCK POSITIONS_FRAC
  Li  -0.0968520  -0.4941381   0.2185846 SPIN=   0.00000
  Li  -0.0968520   0.2185846  -0.4941381 SPIN=   0.00000
  Li  -0.4508834  -0.3752356  -0.0983295 SPIN=   0.00000
  Li  -0.4508834  -0.0983295  -0.3752356 SPIN=   0.00000
  Fe   0.4810991   0.1375454   0.1375454 SPIN=   3.41984
  Fe  -0.1514052  -0.3734532  -0.3734532 SPIN=   2.40093
  Fe   0.3954453   0.4033786   0.4033786 SPIN=   6.80542
  Fe   0.0999291  -0.1181748  -0.1181748 SPIN=   3.37381
   O   0.3244890   0.0412360   0.4846585 SPIN=   0.00000
   O   0.2469419  -0.1652915   0.3411100 SPIN=   0.00000
   O  -0.1861821   0.0069275   0.3714997 SPIN=   0.00000
   O  -0.0306590  -0.1421174   0.5665015 SPIN=   0.00000
   S   0.0886475  -0.0648114   0.4409424 SPIN=   0.00000
   O   0.3244890   0.4846585   0.0412360 SPIN=   0.00000
   O   0.2469419   0.3411100  -0.1652915 SPIN=   0.00000
   O  -0.1861821   0.3714997   0.0069275 SPIN=   0.00000
   O  -0.0306590   0.5665015  -0.1421174 SPIN=   0.00000
   S   0.0886475   0.4409424  -0.0648114 SPIN=   0.00000
   O  -0.2000392   0.0038699  -0.2532165 SPIN=   0.00000
   O  -0.7204695   0.1174879  -0.2861288 SPIN=   0.00000
   O  -0.2326986   0.2522173  -0.3094104 SPIN=   0.00000
   O  -0.4101900   0.1700219  -0.0800371 SPIN=   0.00000
   S  -0.3908493   0.1358992  -0.2321982 SPIN=   0.00000
   O  -0.2000392  -0.2532165   0.0038699 SPIN=   0.00000
   O  -0.7204695  -0.2861288   0.1174879 SPIN=   0.00000
   O  -0.2326986  -0.3094104   0.2522173 SPIN=   0.00000
   O  -0.4101900  -0.0800371   0.1700219 SPIN=   0.00000
   S  -0.3908493  -0.2321982   0.1358992 SPIN=   0.00000
   F  -0.4107661  -0.2482822  -0.2482822 SPIN=   0.00000
   F   0.1635457  -0.4679184  -0.4679184 SPIN=   0.00000
   F   0.0982255   0.0798141   0.0798141 SPIN=   0.00000
   F  -0.2743838   0.3148084   0.3148084 SPIN=   0.00000
%ENDBLOCK POSITIONS_FRAC

# Note: total spin =  16.00

KPOINTS_MP_SPACING 0.07

%BLOCK SPECIES_POT
QC5
%ENDBLOCK SPECIES_POT

SNAP_TO_SYMMETRY
SYMMETRY_GENERATE

