#              Generated by Buildcell
#
# at 03:15:00 (GMT+1.0) 18th August 2020
# in /lustre/scratch/uccabz1/launch_tmp
# on node-c12i-018
# by uccabz1
#
# compiler GCC version 4.9.2
# options -cpp -iprefix /lustre/shared/ucl/apps/gcc/4.9.2/bin/../lib/gcc/x86_64-unknown-linux-gnu/4.9.2/ -mtune=corei7 -march=x86-64 -g -Og
#
# seed  -510522627 -1482067174   342946993 -1989482093 -2028043434 -1515119605  1436078616 -2115287924  1931128341  -858363342  -948370520  -371945421
#
#      Author: C. J. Pickard (cjp20@cam.ac.uk)
#                Space group: C2221
#

%BLOCK LATTICE_ABC
      6.04540      6.04540     11.07210
     90.00000     90.00000     98.69482
%ENDBLOCK LATTICE_ABC

%BLOCK POSITIONS_FRAC
  Li   0.0275350  -0.4380617  -0.3525126 SPIN=   0.00000
  Li  -0.0275350   0.4380617   0.1474874 SPIN=   0.00000
  Li   0.4380617  -0.0275350  -0.1474874 SPIN=   0.00000
  Li  -0.4380617   0.0275350   0.3525126 SPIN=   0.00000
  Fe   0.2463792  -0.1011315   0.0893963 SPIN=   4.00000
  Fe  -0.2463792   0.1011315  -0.4106037 SPIN=   4.00000
  Fe   0.1011315  -0.2463792   0.4106037 SPIN=   4.00000
  Fe  -0.1011315   0.2463792  -0.0893963 SPIN=   4.00000
   O  -0.4964049  -0.1457991   0.2010422 SPIN=   0.00000
   O  -0.3043092  -0.4215042   0.0936774 SPIN=   0.00000
   O  -0.1656770  -0.2757046   0.2929705 SPIN=   0.00000
   O  -0.1201749  -0.0287921   0.1135741 SPIN=   0.00000
   S  -0.2716415  -0.2179500   0.1753160 SPIN=   0.00000
   O   0.4964049   0.1457991  -0.2989578 SPIN=   0.00000
   O   0.3043092   0.4215042  -0.4063226 SPIN=   0.00000
   O   0.1656770   0.2757046  -0.2070295 SPIN=   0.00000
   O   0.1201749   0.0287921  -0.3864259 SPIN=   0.00000
   S   0.2716415   0.2179500  -0.3246840 SPIN=   0.00000
   O   0.1457991   0.4964049   0.2989578 SPIN=   0.00000
   O   0.4215042   0.3043092   0.4063226 SPIN=   0.00000
   O   0.2757046   0.1656770   0.2070295 SPIN=   0.00000
   O   0.0287921   0.1201749   0.3864259 SPIN=   0.00000
   S   0.2179500   0.2716415   0.3246840 SPIN=   0.00000
   O  -0.1457991  -0.4964049  -0.2010422 SPIN=   0.00000
   O  -0.4215042  -0.3043092  -0.0936774 SPIN=   0.00000
   O  -0.2757046  -0.1656770  -0.2929705 SPIN=   0.00000
   O  -0.0287921  -0.1201749  -0.1135741 SPIN=   0.00000
   S  -0.2179500  -0.2716415  -0.1753160 SPIN=   0.00000
   F  -0.1664416   0.4290517  -0.4678560 SPIN=   0.00000
   F   0.1664416  -0.4290517   0.0321440 SPIN=   0.00000
   F  -0.4290517   0.1664416  -0.0321440 SPIN=   0.00000
   F   0.4290517  -0.1664416   0.4678560 SPIN=   0.00000
%ENDBLOCK POSITIONS_FRAC

# Note: total spin =  16.00

KPOINTS_MP_SPACING 0.07

%BLOCK SPECIES_POT
QC5
%ENDBLOCK SPECIES_POT

SNAP_TO_SYMMETRY
SYMMETRY_GENERATE

