#              Generated by Buildcell
#
# at 09:17:17 (GMT+1.0) 4th August 2020
# in /lustre/scratch/uccabz1/launch_tmp
# on node-c12j-012
# by uccabz1
#
# compiler GCC version 4.9.2
# options -cpp -iprefix /lustre/shared/ucl/apps/gcc/4.9.2/bin/../lib/gcc/x86_64-unknown-linux-gnu/4.9.2/ -mtune=corei7 -march=x86-64 -g -Og
#
# seed -1429468775  -902694787 -1997949460  1570824300 -1132962476   522751450 -1555785052   -47104436 -1444717258  -831586960 -1670394478  2129360860
#
#      Author: C. J. Pickard (cjp20@cam.ac.uk)
#                Space group: P21212
#

%BLOCK LATTICE_ABC
      6.88705      7.56915      7.67325
     90.00000     90.00000     90.00000
%ENDBLOCK LATTICE_ABC

%BLOCK POSITIONS_FRAC
  Li  -0.3281130   0.2682474   0.0693661 SPIN=   0.00000
  Li  -0.3281130  -0.2682474  -0.0693661 SPIN=   0.00000
  Li   0.3281130  -0.2317526   0.4306339 SPIN=   0.00000
  Li   0.3281130   0.2317526  -0.4306339 SPIN=   0.00000
  Fe  -0.3275071  -0.0698794   0.2639363 SPIN=   4.00000
  Fe  -0.3275071   0.0698794  -0.2639363 SPIN=   4.00000
  Fe   0.3275071   0.4301206   0.2360637 SPIN=   4.00000
  Fe   0.3275071  -0.4301206  -0.2360637 SPIN=   4.00000
   O   0.0890214   0.4006560   0.3936096 SPIN=   0.00000
   O  -0.2506651   0.3193840   0.4617782 SPIN=   0.00000
   O   0.0204686   0.1694172   0.6131798 SPIN=   0.00000
   O  -0.0403706   0.1105397   0.3006540 SPIN=   0.00000
   S  -0.0453864   0.2499992   0.4423054 SPIN=   0.00000
   O   0.0890214  -0.4006560  -0.3936096 SPIN=   0.00000
   O  -0.2506651  -0.3193840  -0.4617782 SPIN=   0.00000
   O   0.0204686  -0.1694172  -0.6131798 SPIN=   0.00000
   O  -0.0403706  -0.1105397  -0.3006540 SPIN=   0.00000
   S  -0.0453864  -0.2499992  -0.4423054 SPIN=   0.00000
   O  -0.0890214  -0.0993440   0.1063904 SPIN=   0.00000
   O   0.2506651  -0.1806160   0.0382218 SPIN=   0.00000
   O  -0.0204686  -0.3305828  -0.1131798 SPIN=   0.00000
   O   0.0403706  -0.3894603   0.1993460 SPIN=   0.00000
   S   0.0453864  -0.2500008   0.0576946 SPIN=   0.00000
   O  -0.0890214   0.0993440  -0.1063904 SPIN=   0.00000
   O   0.2506651   0.1806160  -0.0382218 SPIN=   0.00000
   O  -0.0204686   0.3305828   0.1131798 SPIN=   0.00000
   O   0.0403706   0.3894603  -0.1993460 SPIN=   0.00000
   S   0.0453864   0.2500008  -0.0576946 SPIN=   0.00000
   F   0.4442894  -0.0529775  -0.2676027 SPIN=   0.00000
   F   0.4442894   0.0529775   0.2676027 SPIN=   0.00000
   F  -0.4442894   0.4470225  -0.2323973 SPIN=   0.00000
   F  -0.4442894  -0.4470225   0.2323973 SPIN=   0.00000
%ENDBLOCK POSITIONS_FRAC

# Note: total spin =  16.00

KPOINTS_MP_SPACING 0.07

%BLOCK SPECIES_POT
QC5
%ENDBLOCK SPECIES_POT

SNAP_TO_SYMMETRY
SYMMETRY_GENERATE

