#              Generated by Buildcell
#
# at 07:09:14 (GMT+1.0) 4th August 2020
# in /lustre/scratch/uccabz1/launch_tmp
# on node-c12g-032
# by uccabz1
#
# compiler GCC version 4.9.2
# options -cpp -iprefix /lustre/shared/ucl/apps/gcc/4.9.2/bin/../lib/gcc/x86_64-unknown-linux-gnu/4.9.2/ -mtune=corei7 -march=x86-64 -g -Og
#
# seed -1174365099  -650464882  -900463346  1718358808  -509046853  1808702846   701443886   618751628  1980376781  -146171127  1127111442  1385473328
#
#      Author: C. J. Pickard (cjp20@cam.ac.uk)
#                Space group: Ccc2
#

%BLOCK LATTICE_ABC
      7.04445      7.84234      8.10380
     90.00000     90.00000    116.68787
%ENDBLOCK LATTICE_ABC

%BLOCK POSITIONS_FRAC
  Li   0.0000000   0.5000000   0.1341091 SPIN=   0.00000
  Li  -0.5000000  -0.5000000  -0.3658909 SPIN=   0.00000
  Li   0.0000000   0.5000000  -0.3115643 SPIN=   0.00000
  Li   0.5000000   0.5000000   0.1884357 SPIN=   0.00000
  Fe  -0.3084060   0.2703419   0.4103751 SPIN=   4.00000
  Fe   0.3084060  -0.2703419   0.4103751 SPIN=   4.00000
  Fe  -0.4212522   0.2703419  -0.0896249 SPIN=   4.00000
  Fe   0.4212522  -0.2703419  -0.0896249 SPIN=   4.00000
   O   0.0298647  -0.1909669   0.4365261 SPIN=   0.00000
   O  -0.2551602  -0.2420073   0.2354480 SPIN=   0.00000
   O  -0.2811144  -0.1445229   0.5217106 SPIN=   0.00000
   S  -0.2072826  -0.2617946   0.4147813 SPIN=   0.00000
   O  -0.0298647   0.1909669   0.4365261 SPIN=   0.00000
   O   0.2551602   0.2420073   0.2354480 SPIN=   0.00000
   O   0.2811144   0.1445229   0.5217106 SPIN=   0.00000
   S   0.2072826   0.2617946   0.4147813 SPIN=   0.00000
   O  -0.2208316  -0.1909669  -0.0634739 SPIN=   0.00000
   O   0.0131530  -0.2420073  -0.2645520 SPIN=   0.00000
   O   0.1365914  -0.1445229   0.0217106 SPIN=   0.00000
   S  -0.0545120  -0.2617946  -0.0852187 SPIN=   0.00000
   O   0.2208316   0.1909669  -0.0634739 SPIN=   0.00000
   O  -0.0131530   0.2420073  -0.2645520 SPIN=   0.00000
   O  -0.1365914   0.1445229   0.0217106 SPIN=   0.00000
   S   0.0545120   0.2617946  -0.0852187 SPIN=   0.00000
   O  -0.5000000  -0.5000000  -0.0550538 SPIN=   0.00000
   O  -0.0000000   0.5000000   0.4449462 SPIN=   0.00000
   O   0.5000000   0.0000000   0.0180160 SPIN=   0.00000
   O   0.5000000   0.0000000  -0.4819840 SPIN=   0.00000
   F  -0.3277646   0.3341633  -0.3358008 SPIN=   0.00000
   F   0.3277646  -0.3341633  -0.3358008 SPIN=   0.00000
   F  -0.3380721   0.3341633   0.1641992 SPIN=   0.00000
   F   0.3380721  -0.3341633   0.1641992 SPIN=   0.00000
%ENDBLOCK POSITIONS_FRAC

# Note: total spin =  16.00

KPOINTS_MP_SPACING 0.07

%BLOCK SPECIES_POT
QC5
%ENDBLOCK SPECIES_POT

SNAP_TO_SYMMETRY
SYMMETRY_GENERATE

