#              Generated by Buildcell
#
# at 14:41:19 (GMT+1.0) 18th August 2020
# in /scratch/scratch/uccabz1/launch_tmp
# on node-k10h-019
# by uccabz1
#
# compiler GCC version 4.9.2
# options -cpp -iprefix /scratch/UCL/applications/gcc/4.9.2/bin/../lib/gcc/x86_64-unknown-linux-gnu/4.9.2/ -mtune=corei7 -march=x86-64 -g -O2
#
# seed   918575110   763402594  1904308508 -1659362205   579903433  1235725321   637259761  1730185726  -642024163 -1987647258  -657391848 -1830177220
#
#      Author: C. J. Pickard (cjp20@cam.ac.uk)
#                Space group: Pnc2
#

%BLOCK LATTICE_ABC
      4.58413      8.71079     10.01719
     90.00000     90.00000     90.00000
%ENDBLOCK LATTICE_ABC

%BLOCK POSITIONS_FRAC
  Li   0.2860081   0.3087698   0.4870951 SPIN=   0.00000
  Li  -0.2860081  -0.3087698   0.4870951 SPIN=   0.00000
  Li   0.2860081   0.1912302  -0.0129049 SPIN=   0.00000
  Li  -0.2860081  -0.1912302  -0.0129049 SPIN=   0.00000
  Fe   0.5000000  -0.0000000   0.2168279 SPIN=   2.51637
  Fe  -0.5000000  -0.5000000  -0.2831721 SPIN=   2.51637
  Fe   0.0000000  -0.5000000  -0.0020850 SPIN=   5.48363
  Fe   0.0000000   0.0000000   0.4979150 SPIN=   5.48363
   O  -0.1191625   0.2879952  -0.1141537 SPIN=   0.00000
   O  -0.2674845   0.1533454  -0.3208490 SPIN=   0.00000
   O   0.2299162   0.1171264  -0.2300988 SPIN=   0.00000
   O   0.0906495   0.3655919  -0.3315656 SPIN=   0.00000
   S  -0.0165204   0.2310147  -0.2491668 SPIN=   0.00000
   O   0.1191625  -0.2879952  -0.1141537 SPIN=   0.00000
   O   0.2674845  -0.1533454  -0.3208490 SPIN=   0.00000
   O  -0.2299162  -0.1171264  -0.2300988 SPIN=   0.00000
   O  -0.0906495  -0.3655919  -0.3315656 SPIN=   0.00000
   S   0.0165204  -0.2310147  -0.2491668 SPIN=   0.00000
   O  -0.1191625   0.2120048   0.3858463 SPIN=   0.00000
   O  -0.2674845   0.3466546   0.1791510 SPIN=   0.00000
   O   0.2299162   0.3828736   0.2699012 SPIN=   0.00000
   O   0.0906495   0.1344081   0.1684344 SPIN=   0.00000
   S  -0.0165204   0.2689853   0.2508332 SPIN=   0.00000
   O   0.1191625  -0.2120048   0.3858463 SPIN=   0.00000
   O   0.2674845  -0.3466546   0.1791510 SPIN=   0.00000
   O  -0.2299162  -0.3828736   0.2699012 SPIN=   0.00000
   O  -0.0906495  -0.1344081   0.1684344 SPIN=   0.00000
   S   0.0165204  -0.2689853   0.2508332 SPIN=   0.00000
   F   0.5000000  -0.0000000  -0.0178434 SPIN=   0.00000
   F  -0.5000000  -0.5000000   0.4821566 SPIN=   0.00000
   F   0.5000000  -0.0000000   0.4804193 SPIN=   0.00000
   F  -0.5000000  -0.5000000  -0.0195807 SPIN=   0.00000
%ENDBLOCK POSITIONS_FRAC

# Note: total spin =  16.00

KPOINTS_MP_SPACING 0.07

%BLOCK SPECIES_POT
QC5
%ENDBLOCK SPECIES_POT

SNAP_TO_SYMMETRY
SYMMETRY_GENERATE

